    1C
    1UUSER                                                              
    1UDATE              27.october.2022                                 
    1UTIME              00:09:58                                        
    1UHOST                                                              
    1UPGM               CalculiX                                        
    1UVERSION           Version 2.17                             
    1UCOMPILETIME       Thu Jul 23 21:43:50 CEST 2020                    
    1UDIR                                                               
    1UDBN                                                               
    1UMAT    1SOLIDMATERIAL                                             
    2C                          4333                                     1
 -1         1 7.08605E+01 3.18198E+01 0.00000E+00
 -1         2 7.31400E+01 2.66509E+01 0.00000E+00
 -1         3 1.50000E+02 0.00000E+00 0.00000E+00
 -1         4 1.50000E+02 5.00000E+01 0.00000E+00
 -1         5 0.00000E+00 0.00000E+00 0.00000E+00
 -1         6 0.00000E+00 5.00000E+01 0.00000E+00
 -1         7 0.00000E+00 4.70500E+01 0.00000E+00
 -1         8 0.00000E+00 4.41000E+01 0.00000E+00
 -1         9 0.00000E+00 4.11500E+01 0.00000E+00
 -1        10 0.00000E+00 3.82000E+01 0.00000E+00
 -1        11 0.00000E+00 3.52500E+01 0.00000E+00
 -1        12 0.00000E+00 3.23500E+01 0.00000E+00
 -1        13 0.00000E+00 2.94000E+01 0.00000E+00
 -1        14 0.00000E+00 2.64500E+01 0.00000E+00
 -1        15 0.00000E+00 2.35000E+01 0.00000E+00
 -1        16 0.00000E+00 2.05500E+01 0.00000E+00
 -1        17 0.00000E+00 1.76000E+01 0.00000E+00
 -1        18 0.00000E+00 1.47000E+01 0.00000E+00
 -1        19 0.00000E+00 1.17500E+01 0.00000E+00
 -1        20 0.00000E+00 8.80000E+00 0.00000E+00
 -1        21 0.00000E+00 5.85000E+00 0.00000E+00
 -1        22 0.00000E+00 2.90000E+00 0.00000E+00
 -1        23 3.15000E+00 5.00000E+01 0.00000E+00
 -1        24 6.15000E+00 5.00000E+01 0.00000E+00
 -1        25 9.15000E+00 5.00000E+01 0.00000E+00
 -1        26 1.21500E+01 5.00000E+01 0.00000E+00
 -1        27 1.51500E+01 5.00000E+01 0.00000E+00
 -1        28 1.81500E+01 5.00000E+01 0.00000E+00
 -1        29 2.11500E+01 5.00000E+01 0.00000E+00
 -1        30 2.41500E+01 5.00000E+01 0.00000E+00
 -1        31 2.71500E+01 5.00000E+01 0.00000E+00
 -1        32 3.01500E+01 5.00000E+01 0.00000E+00
 -1        33 3.31500E+01 5.00000E+01 0.00000E+00
 -1        34 3.61500E+01 5.00000E+01 0.00000E+00
 -1        35 3.91500E+01 5.00000E+01 0.00000E+00
 -1        36 4.21500E+01 5.00000E+01 0.00000E+00
 -1        37 4.51500E+01 5.00000E+01 0.00000E+00
 -1        38 4.81500E+01 5.00000E+01 0.00000E+00
 -1        39 5.11500E+01 5.00000E+01 0.00000E+00
 -1        40 5.41500E+01 5.00000E+01 0.00000E+00
 -1        41 5.71500E+01 5.00000E+01 0.00000E+00
 -1        42 6.01500E+01 5.00000E+01 0.00000E+00
 -1        43 6.31500E+01 5.00000E+01 0.00000E+00
 -1        44 6.61500E+01 5.00000E+01 0.00000E+00
 -1        45 6.91500E+01 5.00000E+01 0.00000E+00
 -1        46 7.21500E+01 5.00000E+01 0.00000E+00
 -1        47 7.51500E+01 5.00000E+01 0.00000E+00
 -1        48 7.81500E+01 5.00000E+01 0.00000E+00
 -1        49 8.11500E+01 5.00000E+01 0.00000E+00
 -1        50 8.41500E+01 5.00000E+01 0.00000E+00
 -1        51 8.71500E+01 5.00000E+01 0.00000E+00
 -1        52 9.01500E+01 5.00000E+01 0.00000E+00
 -1        53 9.31500E+01 5.00000E+01 0.00000E+00
 -1        54 9.61500E+01 5.00000E+01 0.00000E+00
 -1        55 9.91500E+01 5.00000E+01 0.00000E+00
 -1        56 1.02150E+02 5.00000E+01 0.00000E+00
 -1        57 1.05150E+02 5.00000E+01 0.00000E+00
 -1        58 1.08150E+02 5.00000E+01 0.00000E+00
 -1        59 1.11150E+02 5.00000E+01 0.00000E+00
 -1        60 1.14150E+02 5.00000E+01 0.00000E+00
 -1        61 1.17150E+02 5.00000E+01 0.00000E+00
 -1        62 1.20150E+02 5.00000E+01 0.00000E+00
 -1        63 1.23150E+02 5.00000E+01 0.00000E+00
 -1        64 1.26150E+02 5.00000E+01 0.00000E+00
 -1        65 1.29150E+02 5.00000E+01 0.00000E+00
 -1        66 1.32150E+02 5.00000E+01 0.00000E+00
 -1        67 1.35150E+02 5.00000E+01 0.00000E+00
 -1        68 1.38150E+02 5.00000E+01 0.00000E+00
 -1        69 1.41150E+02 5.00000E+01 0.00000E+00
 -1        70 1.44150E+02 5.00000E+01 0.00000E+00
 -1        71 1.47150E+02 5.00000E+01 0.00000E+00
 -1        72 3.15000E+00 0.00000E+00 0.00000E+00
 -1        73 6.15000E+00 0.00000E+00 0.00000E+00
 -1        74 9.15000E+00 0.00000E+00 0.00000E+00
 -1        75 1.21500E+01 0.00000E+00 0.00000E+00
 -1        76 1.51500E+01 0.00000E+00 0.00000E+00
 -1        77 1.81500E+01 0.00000E+00 0.00000E+00
 -1        78 2.11500E+01 0.00000E+00 0.00000E+00
 -1        79 2.41500E+01 0.00000E+00 0.00000E+00
 -1        80 2.71500E+01 0.00000E+00 0.00000E+00
 -1        81 3.01500E+01 0.00000E+00 0.00000E+00
 -1        82 3.31500E+01 0.00000E+00 0.00000E+00
 -1        83 3.61500E+01 0.00000E+00 0.00000E+00
 -1        84 3.91500E+01 0.00000E+00 0.00000E+00
 -1        85 4.21500E+01 0.00000E+00 0.00000E+00
 -1        86 4.51500E+01 0.00000E+00 0.00000E+00
 -1        87 4.81500E+01 0.00000E+00 0.00000E+00
 -1        88 5.11500E+01 0.00000E+00 0.00000E+00
 -1        89 5.41500E+01 0.00000E+00 0.00000E+00
 -1        90 5.71500E+01 0.00000E+00 0.00000E+00
 -1        91 6.01500E+01 0.00000E+00 0.00000E+00
 -1        92 6.31500E+01 0.00000E+00 0.00000E+00
 -1        93 6.61500E+01 0.00000E+00 0.00000E+00
 -1        94 6.91500E+01 0.00000E+00 0.00000E+00
 -1        95 7.21500E+01 0.00000E+00 0.00000E+00
 -1        96 7.51500E+01 0.00000E+00 0.00000E+00
 -1        97 7.81500E+01 0.00000E+00 0.00000E+00
 -1        98 8.11500E+01 0.00000E+00 0.00000E+00
 -1        99 8.41500E+01 0.00000E+00 0.00000E+00
 -1       100 8.71500E+01 0.00000E+00 0.00000E+00
 -1       101 9.01500E+01 0.00000E+00 0.00000E+00
 -1       102 9.31500E+01 0.00000E+00 0.00000E+00
 -1       103 9.61500E+01 0.00000E+00 0.00000E+00
 -1       104 9.91500E+01 0.00000E+00 0.00000E+00
 -1       105 1.02150E+02 0.00000E+00 0.00000E+00
 -1       106 1.05150E+02 0.00000E+00 0.00000E+00
 -1       107 1.08150E+02 0.00000E+00 0.00000E+00
 -1       108 1.11150E+02 0.00000E+00 0.00000E+00
 -1       109 1.14150E+02 0.00000E+00 0.00000E+00
 -1       110 1.17150E+02 0.00000E+00 0.00000E+00
 -1       111 1.20150E+02 0.00000E+00 0.00000E+00
 -1       112 1.23150E+02 0.00000E+00 0.00000E+00
 -1       113 1.26150E+02 0.00000E+00 0.00000E+00
 -1       114 1.29150E+02 0.00000E+00 0.00000E+00
 -1       115 1.32150E+02 0.00000E+00 0.00000E+00
 -1       116 1.35150E+02 0.00000E+00 0.00000E+00
 -1       117 1.38150E+02 0.00000E+00 0.00000E+00
 -1       118 1.41150E+02 0.00000E+00 0.00000E+00
 -1       119 1.44150E+02 0.00000E+00 0.00000E+00
 -1       120 1.47150E+02 0.00000E+00 0.00000E+00
 -1       121 1.50000E+02 2.95000E+00 0.00000E+00
 -1       122 1.50000E+02 5.90000E+00 0.00000E+00
 -1       123 1.50000E+02 8.85000E+00 0.00000E+00
 -1       124 1.50000E+02 1.18000E+01 0.00000E+00
 -1       125 1.50000E+02 1.47500E+01 0.00000E+00
 -1       126 1.50000E+02 1.76500E+01 0.00000E+00
 -1       127 1.50000E+02 2.06000E+01 0.00000E+00
 -1       128 1.50000E+02 2.35500E+01 0.00000E+00
 -1       129 1.50000E+02 2.65000E+01 0.00000E+00
 -1       130 1.50000E+02 2.94500E+01 0.00000E+00
 -1       131 1.50000E+02 3.24000E+01 0.00000E+00
 -1       132 1.50000E+02 3.53000E+01 0.00000E+00
 -1       133 1.50000E+02 3.82500E+01 0.00000E+00
 -1       134 1.50000E+02 4.12000E+01 0.00000E+00
 -1       135 1.50000E+02 4.41500E+01 0.00000E+00
 -1       136 1.50000E+02 4.71000E+01 0.00000E+00
 -1       137 7.29740E+01 2.51357E+01 0.00000E+00
 -1       138 7.25113E+01 2.37515E+01 0.00000E+00
 -1       139 7.16894E+01 2.23843E+01 0.00000E+00
 -1       140 7.07276E+01 2.13638E+01 0.00000E+00
 -1       141 6.95285E+01 2.05257E+01 0.00000E+00
 -1       142 6.81610E+01 1.99490E+01 0.00000E+00
 -1       143 6.66675E+01 1.96708E+01 0.00000E+00
 -1       144 6.52149E+01 1.97123E+01 0.00000E+00
 -1       145 6.36739E+01 2.00997E+01 0.00000E+00
 -1       146 6.22395E+01 2.08384E+01 0.00000E+00
 -1       147 6.10171E+01 2.18806E+01 0.00000E+00
 -1       148 6.01555E+01 2.30196E+01 0.00000E+00
 -1       149 5.94905E+01 2.44638E+01 0.00000E+00
 -1       150 5.91767E+01 2.59347E+01 0.00000E+00
 -1       151 5.91863E+01 2.74547E+01 0.00000E+00
 -1       152 5.95523E+01 2.90177E+01 0.00000E+00
 -1       153 6.02236E+01 3.03921E+01 0.00000E+00
 -1       154 6.11116E+01 3.15208E+01 0.00000E+00
 -1       155 6.22630E+01 3.24792E+01 0.00000E+00
 -1       156 6.35824E+01 3.31669E+01 0.00000E+00
 -1       157 6.49790E+01 3.35540E+01 0.00000E+00
 -1       158 6.66092E+01 3.36352E+01 0.00000E+00
 -1       159 6.80226E+01 3.33930E+01 0.00000E+00
 -1       160 6.94449E+01 3.28216E+01 0.00000E+00
 -1       161 7.18001E+01 3.07696E+01 0.00000E+00
 -1       162 7.25473E+01 2.94699E+01 0.00000E+00
 -1       163 7.29800E+01 2.81390E+01 0.00000E+00
 -1       164 2.59800E+00 4.55750E+01 0.00000E+00
 -1       165 2.59800E+00 4.26250E+01 0.00000E+00
 -1       166 2.59800E+00 3.96750E+01 0.00000E+00
 -1       167 2.59800E+00 3.67250E+01 0.00000E+00
 -1       168 2.59800E+00 3.38250E+01 0.00000E+00
 -1       169 2.59800E+00 3.08750E+01 0.00000E+00
 -1       170 2.59800E+00 2.79250E+01 0.00000E+00
 -1       171 2.59800E+00 2.49750E+01 0.00000E+00
 -1       172 2.59800E+00 2.20250E+01 0.00000E+00
 -1       173 2.59800E+00 1.90750E+01 0.00000E+00
 -1       174 2.59800E+00 1.61750E+01 0.00000E+00
 -1       175 2.59800E+00 1.32250E+01 0.00000E+00
 -1       176 2.59800E+00 1.02750E+01 0.00000E+00
 -1       177 2.59800E+00 7.32500E+00 0.00000E+00
 -1       178 2.59800E+00 4.37500E+00 0.00000E+00
 -1       179 2.87400E+00 2.18750E+00 0.00000E+00
 -1       180 4.65000E+00 4.74020E+01 0.00000E+00
 -1       181 7.65000E+00 4.74020E+01 0.00000E+00
 -1       182 1.06500E+01 4.74020E+01 0.00000E+00
 -1       183 1.36500E+01 4.74020E+01 0.00000E+00
 -1       184 1.66500E+01 4.74020E+01 0.00000E+00
 -1       185 1.96500E+01 4.74020E+01 0.00000E+00
 -1       186 2.26500E+01 4.74020E+01 0.00000E+00
 -1       187 2.56500E+01 4.74020E+01 0.00000E+00
 -1       188 2.86500E+01 4.74020E+01 0.00000E+00
 -1       189 3.16500E+01 4.74020E+01 0.00000E+00
 -1       190 3.46500E+01 4.74020E+01 0.00000E+00
 -1       191 3.76500E+01 4.74020E+01 0.00000E+00
 -1       192 4.06500E+01 4.74020E+01 0.00000E+00
 -1       193 4.36500E+01 4.74020E+01 0.00000E+00
 -1       194 4.66500E+01 4.74020E+01 0.00000E+00
 -1       195 4.96500E+01 4.74020E+01 0.00000E+00
 -1       196 5.26500E+01 4.74020E+01 0.00000E+00
 -1       197 5.56500E+01 4.74020E+01 0.00000E+00
 -1       198 5.86500E+01 4.74020E+01 0.00000E+00
 -1       199 6.16500E+01 4.74020E+01 0.00000E+00
 -1       200 6.46500E+01 4.74020E+01 0.00000E+00
 -1       201 6.76500E+01 4.74020E+01 0.00000E+00
 -1       202 7.06500E+01 4.74020E+01 0.00000E+00
 -1       203 7.36500E+01 4.74020E+01 0.00000E+00
 -1       204 7.66500E+01 4.74020E+01 0.00000E+00
 -1       205 7.96500E+01 4.74020E+01 0.00000E+00
 -1       206 8.26500E+01 4.74020E+01 0.00000E+00
 -1       207 8.56500E+01 4.74020E+01 0.00000E+00
 -1       208 8.86500E+01 4.74020E+01 0.00000E+00
 -1       209 9.16500E+01 4.74020E+01 0.00000E+00
 -1       210 9.46500E+01 4.74020E+01 0.00000E+00
 -1       211 9.76500E+01 4.74020E+01 0.00000E+00
 -1       212 1.00650E+02 4.74020E+01 0.00000E+00
 -1       213 1.03650E+02 4.74020E+01 0.00000E+00
 -1       214 1.06650E+02 4.74020E+01 0.00000E+00
 -1       215 1.09650E+02 4.74020E+01 0.00000E+00
 -1       216 1.12650E+02 4.74020E+01 0.00000E+00
 -1       217 1.15650E+02 4.74020E+01 0.00000E+00
 -1       218 1.18650E+02 4.74020E+01 0.00000E+00
 -1       219 1.21650E+02 4.74020E+01 0.00000E+00
 -1       220 1.24650E+02 4.74020E+01 0.00000E+00
 -1       221 1.27650E+02 4.74020E+01 0.00000E+00
 -1       222 1.30650E+02 4.74020E+01 0.00000E+00
 -1       223 1.33650E+02 4.74020E+01 0.00000E+00
 -1       224 1.36650E+02 4.74020E+01 0.00000E+00
 -1       225 1.39650E+02 4.74020E+01 0.00000E+00
 -1       226 1.42650E+02 4.74020E+01 0.00000E+00
 -1       227 1.45650E+02 4.74020E+01 0.00000E+00
 -1       228 5.87400E+00 2.18750E+00 0.00000E+00
 -1       229 8.87400E+00 2.18750E+00 0.00000E+00
 -1       230 1.18740E+01 2.18750E+00 0.00000E+00
 -1       231 1.48740E+01 2.18750E+00 0.00000E+00
 -1       232 1.78740E+01 2.18750E+00 0.00000E+00
 -1       233 2.08740E+01 2.18750E+00 0.00000E+00
 -1       234 2.38740E+01 2.18750E+00 0.00000E+00
 -1       235 2.68740E+01 2.18750E+00 0.00000E+00
 -1       236 2.98740E+01 2.18750E+00 0.00000E+00
 -1       237 3.28740E+01 2.18750E+00 0.00000E+00
 -1       238 3.58740E+01 2.18750E+00 0.00000E+00
 -1       239 3.88740E+01 2.18750E+00 0.00000E+00
 -1       240 4.18740E+01 2.18750E+00 0.00000E+00
 -1       241 4.48740E+01 2.18750E+00 0.00000E+00
 -1       242 4.78740E+01 2.18750E+00 0.00000E+00
 -1       243 5.08740E+01 2.18750E+00 0.00000E+00
 -1       244 5.38740E+01 2.18750E+00 0.00000E+00
 -1       245 5.68740E+01 2.18750E+00 0.00000E+00
 -1       246 5.98740E+01 2.18750E+00 0.00000E+00
 -1       247 6.28740E+01 2.18750E+00 0.00000E+00
 -1       248 6.58740E+01 2.18750E+00 0.00000E+00
 -1       249 6.88740E+01 2.18750E+00 0.00000E+00
 -1       250 7.18740E+01 2.18750E+00 0.00000E+00
 -1       251 7.48740E+01 2.18750E+00 0.00000E+00
 -1       252 7.78740E+01 2.18750E+00 0.00000E+00
 -1       253 8.08740E+01 2.18750E+00 0.00000E+00
 -1       254 8.38740E+01 2.18750E+00 0.00000E+00
 -1       255 8.68740E+01 2.18750E+00 0.00000E+00
 -1       256 8.98740E+01 2.18750E+00 0.00000E+00
 -1       257 9.28740E+01 2.18750E+00 0.00000E+00
 -1       258 9.58740E+01 2.18750E+00 0.00000E+00
 -1       259 9.88740E+01 2.18750E+00 0.00000E+00
 -1       260 1.01874E+02 2.18750E+00 0.00000E+00
 -1       261 1.04874E+02 2.18750E+00 0.00000E+00
 -1       262 1.07874E+02 2.18750E+00 0.00000E+00
 -1       263 1.10874E+02 2.18750E+00 0.00000E+00
 -1       264 1.13874E+02 2.18750E+00 0.00000E+00
 -1       265 1.16874E+02 2.18750E+00 0.00000E+00
 -1       266 1.19874E+02 2.18750E+00 0.00000E+00
 -1       267 1.22874E+02 2.18750E+00 0.00000E+00
 -1       268 1.25874E+02 2.18750E+00 0.00000E+00
 -1       269 1.28874E+02 2.18750E+00 0.00000E+00
 -1       270 1.31874E+02 2.18750E+00 0.00000E+00
 -1       271 1.34874E+02 2.18750E+00 0.00000E+00
 -1       272 1.37874E+02 2.18750E+00 0.00000E+00
 -1       273 1.40874E+02 2.18750E+00 0.00000E+00
 -1       274 1.43874E+02 2.18750E+00 0.00000E+00
 -1       275 1.46874E+02 2.18750E+00 0.00000E+00
 -1       276 1.47402E+02 4.42500E+00 0.00000E+00
 -1       277 1.47402E+02 7.37500E+00 0.00000E+00
 -1       278 1.47402E+02 1.03250E+01 0.00000E+00
 -1       279 1.47402E+02 1.32750E+01 0.00000E+00
 -1       280 1.47402E+02 1.61750E+01 0.00000E+00
 -1       281 1.47402E+02 1.91250E+01 0.00000E+00
 -1       282 1.47402E+02 2.20750E+01 0.00000E+00
 -1       283 1.47402E+02 2.50250E+01 0.00000E+00
 -1       284 1.47402E+02 2.79750E+01 0.00000E+00
 -1       285 1.47402E+02 3.09250E+01 0.00000E+00
 -1       286 1.47402E+02 3.38250E+01 0.00000E+00
 -1       287 1.47402E+02 3.67750E+01 0.00000E+00
 -1       288 1.47402E+02 3.97250E+01 0.00000E+00
 -1       289 1.47402E+02 4.26750E+01 0.00000E+00
 -1       290 1.46526E+02 4.50385E+01 0.00000E+00
 -1       291 7.43455E+01 2.57522E+01 0.00000E+00
 -1       292 7.38925E+01 2.40592E+01 0.00000E+00
 -1       293 7.32831E+01 2.23569E+01 0.00000E+00
 -1       294 7.20908E+01 2.10425E+01 0.00000E+00
 -1       295 7.08226E+01 1.99510E+01 0.00000E+00
 -1       296 6.93809E+01 1.89658E+01 0.00000E+00
 -1       297 6.76516E+01 1.85356E+01 0.00000E+00
 -1       298 6.59018E+01 1.83122E+01 0.00000E+00
 -1       299 6.40671E+01 1.84052E+01 0.00000E+00
 -1       300 6.22482E+01 1.90932E+01 0.00000E+00
 -1       301 6.06242E+01 2.01819E+01 0.00000E+00
 -1       302 5.96194E+01 2.17187E+01 0.00000E+00
 -1       303 5.85696E+01 2.31644E+01 0.00000E+00
 -1       304 5.81479E+01 2.49463E+01 0.00000E+00
 -1       305 5.78854E+01 2.67028E+01 0.00000E+00
 -1       306 5.80256E+01 2.85508E+01 0.00000E+00
 -1       307 5.86480E+01 3.03106E+01 0.00000E+00
 -1       308 5.96489E+01 3.17579E+01 0.00000E+00
 -1       309 6.08580E+01 3.29962E+01 0.00000E+00
 -1       310 6.23623E+01 3.38982E+01 0.00000E+00
 -1       311 6.39569E+01 3.45288E+01 0.00000E+00
 -1       312 6.57171E+01 3.51402E+01 0.00000E+00
 -1       313 6.75206E+01 3.47091E+01 0.00000E+00
 -1       314 6.92169E+01 3.43101E+01 0.00000E+00
 -1       315 7.10467E+01 3.35839E+01 0.00000E+00
 -1       316 7.22338E+01 3.21031E+01 0.00000E+00
 -1       317 7.33700E+01 3.08075E+01 0.00000E+00
 -1       318 7.39166E+01 2.91793E+01 0.00000E+00
 -1       319 7.43487E+01 2.75335E+01 0.00000E+00
 -1       320 5.19600E+00 4.11500E+01 0.00000E+00
 -1       321 5.19600E+00 4.41000E+01 0.00000E+00
 -1       322 5.19600E+00 3.52750E+01 0.00000E+00
 -1       323 5.19600E+00 3.23250E+01 0.00000E+00
 -1       324 5.19600E+00 2.93750E+01 0.00000E+00
 -1       325 5.19600E+00 2.64250E+01 0.00000E+00
 -1       326 5.19600E+00 2.34750E+01 0.00000E+00
 -1       327 5.19600E+00 2.05250E+01 0.00000E+00
 -1       328 5.19600E+00 1.76250E+01 0.00000E+00
 -1       329 5.19600E+00 1.46750E+01 0.00000E+00
 -1       330 5.19600E+00 1.17250E+01 0.00000E+00
 -1       331 5.19600E+00 8.77500E+00 0.00000E+00
 -1       332 5.19600E+00 5.82500E+00 0.00000E+00
 -1       333 5.53500E+00 4.00625E+00 0.00000E+00
 -1       334 8.53500E+00 4.00625E+00 0.00000E+00
 -1       335 9.15000E+00 4.48040E+01 0.00000E+00
 -1       336 1.21500E+01 4.48040E+01 0.00000E+00
 -1       337 1.51500E+01 4.48040E+01 0.00000E+00
 -1       338 1.81500E+01 4.48040E+01 0.00000E+00
 -1       339 2.11500E+01 4.48040E+01 0.00000E+00
 -1       340 2.41500E+01 4.48040E+01 0.00000E+00
 -1       341 2.71500E+01 4.48040E+01 0.00000E+00
 -1       342 3.01500E+01 4.48040E+01 0.00000E+00
 -1       343 3.31500E+01 4.48040E+01 0.00000E+00
 -1       344 3.61500E+01 4.48040E+01 0.00000E+00
 -1       345 3.91500E+01 4.48040E+01 0.00000E+00
 -1       346 4.21500E+01 4.48040E+01 0.00000E+00
 -1       347 4.51500E+01 4.48040E+01 0.00000E+00
 -1       348 4.81500E+01 4.48040E+01 0.00000E+00
 -1       349 5.11500E+01 4.48040E+01 0.00000E+00
 -1       350 5.41500E+01 4.48040E+01 0.00000E+00
 -1       351 5.71500E+01 4.48040E+01 0.00000E+00
 -1       352 6.01500E+01 4.48040E+01 0.00000E+00
 -1       353 6.31500E+01 4.48040E+01 0.00000E+00
 -1       354 6.61500E+01 4.48040E+01 0.00000E+00
 -1       355 6.91500E+01 4.48040E+01 0.00000E+00
 -1       356 7.21500E+01 4.48040E+01 0.00000E+00
 -1       357 7.51500E+01 4.48040E+01 0.00000E+00
 -1       358 7.81500E+01 4.48040E+01 0.00000E+00
 -1       359 8.11500E+01 4.48040E+01 0.00000E+00
 -1       360 8.41500E+01 4.48040E+01 0.00000E+00
 -1       361 8.71500E+01 4.48040E+01 0.00000E+00
 -1       362 9.01500E+01 4.48040E+01 0.00000E+00
 -1       363 9.31500E+01 4.48040E+01 0.00000E+00
 -1       364 9.61500E+01 4.48040E+01 0.00000E+00
 -1       365 9.91500E+01 4.48040E+01 0.00000E+00
 -1       366 1.02150E+02 4.48040E+01 0.00000E+00
 -1       367 1.05150E+02 4.48040E+01 0.00000E+00
 -1       368 1.08150E+02 4.48040E+01 0.00000E+00
 -1       369 1.11150E+02 4.48040E+01 0.00000E+00
 -1       370 1.14150E+02 4.48040E+01 0.00000E+00
 -1       371 1.17150E+02 4.48040E+01 0.00000E+00
 -1       372 1.20150E+02 4.48040E+01 0.00000E+00
 -1       373 1.23150E+02 4.48040E+01 0.00000E+00
 -1       374 1.26150E+02 4.48040E+01 0.00000E+00
 -1       375 1.29150E+02 4.48040E+01 0.00000E+00
 -1       376 1.32150E+02 4.48040E+01 0.00000E+00
 -1       377 1.35150E+02 4.48040E+01 0.00000E+00
 -1       378 1.38150E+02 4.48040E+01 0.00000E+00
 -1       379 1.41150E+02 4.48040E+01 0.00000E+00
 -1       380 1.43838E+02 4.49212E+01 0.00000E+00
 -1       381 1.15350E+01 4.00625E+00 0.00000E+00
 -1       382 1.45350E+01 4.00625E+00 0.00000E+00
 -1       383 1.75350E+01 4.00625E+00 0.00000E+00
 -1       384 2.05350E+01 4.00625E+00 0.00000E+00
 -1       385 2.35350E+01 4.00625E+00 0.00000E+00
 -1       386 2.65350E+01 4.00625E+00 0.00000E+00
 -1       387 2.95350E+01 4.00625E+00 0.00000E+00
 -1       388 3.25350E+01 4.00625E+00 0.00000E+00
 -1       389 3.55350E+01 4.00625E+00 0.00000E+00
 -1       390 3.85350E+01 4.00625E+00 0.00000E+00
 -1       391 4.15350E+01 4.00625E+00 0.00000E+00
 -1       392 4.45350E+01 4.00625E+00 0.00000E+00
 -1       393 4.75350E+01 4.00625E+00 0.00000E+00
 -1       394 5.05350E+01 4.00625E+00 0.00000E+00
 -1       395 5.35350E+01 4.00625E+00 0.00000E+00
 -1       396 5.65350E+01 4.00625E+00 0.00000E+00
 -1       397 5.95350E+01 4.00625E+00 0.00000E+00
 -1       398 6.25350E+01 4.00625E+00 0.00000E+00
 -1       399 6.55350E+01 4.00625E+00 0.00000E+00
 -1       400 6.85350E+01 4.00625E+00 0.00000E+00
 -1       401 7.15350E+01 4.00625E+00 0.00000E+00
 -1       402 7.45350E+01 4.00625E+00 0.00000E+00
 -1       403 7.75350E+01 4.00625E+00 0.00000E+00
 -1       404 8.05350E+01 4.00625E+00 0.00000E+00
 -1       405 8.35350E+01 4.00625E+00 0.00000E+00
 -1       406 8.65350E+01 4.00625E+00 0.00000E+00
 -1       407 8.95350E+01 4.00625E+00 0.00000E+00
 -1       408 9.25350E+01 4.00625E+00 0.00000E+00
 -1       409 9.55350E+01 4.00625E+00 0.00000E+00
 -1       410 9.85350E+01 4.00625E+00 0.00000E+00
 -1       411 1.01535E+02 4.00625E+00 0.00000E+00
 -1       412 1.04535E+02 4.00625E+00 0.00000E+00
 -1       413 1.07535E+02 4.00625E+00 0.00000E+00
 -1       414 1.10535E+02 4.00625E+00 0.00000E+00
 -1       415 1.13535E+02 4.00625E+00 0.00000E+00
 -1       416 1.16535E+02 4.00625E+00 0.00000E+00
 -1       417 1.19535E+02 4.00625E+00 0.00000E+00
 -1       418 1.22535E+02 4.00625E+00 0.00000E+00
 -1       419 1.25535E+02 4.00625E+00 0.00000E+00
 -1       420 1.28535E+02 4.00625E+00 0.00000E+00
 -1       421 1.31535E+02 4.00625E+00 0.00000E+00
 -1       422 1.34535E+02 4.00625E+00 0.00000E+00
 -1       423 1.37535E+02 4.00625E+00 0.00000E+00
 -1       424 1.40535E+02 4.00625E+00 0.00000E+00
 -1       425 1.43535E+02 4.00625E+00 0.00000E+00
 -1       426 1.45469E+02 4.21562E+00 0.00000E+00
 -1       427 1.44804E+02 1.18000E+01 0.00000E+00
 -1       428 1.44804E+02 8.85000E+00 0.00000E+00
 -1       429 1.45136E+02 6.53281E+00 0.00000E+00
 -1       430 1.44804E+02 1.47000E+01 0.00000E+00
 -1       431 1.44804E+02 1.76500E+01 0.00000E+00
 -1       432 1.44804E+02 2.06000E+01 0.00000E+00
 -1       433 1.44804E+02 2.35500E+01 0.00000E+00
 -1       434 1.44804E+02 2.65000E+01 0.00000E+00
 -1       435 1.44804E+02 2.94500E+01 0.00000E+00
 -1       436 1.44804E+02 3.23500E+01 0.00000E+00
 -1       437 1.44804E+02 3.53000E+01 0.00000E+00
 -1       438 1.44804E+02 3.82500E+01 0.00000E+00
 -1       439 1.44804E+02 4.12000E+01 0.00000E+00
 -1       440 7.49659E+01 2.27146E+01 0.00000E+00
 -1       441 7.60257E+01 2.66398E+01 0.00000E+00
 -1       442 7.54189E+01 2.44077E+01 0.00000E+00
 -1       443 7.36470E+01 2.08289E+01 0.00000E+00
 -1       444 7.23022E+01 1.95143E+01 0.00000E+00
 -1       445 5.19600E+00 3.82125E+01 0.00000E+00
 -1       446 6.88291E+01 1.74929E+01 0.00000E+00
 -1       447 6.69621E+01 1.69719E+01 0.00000E+00
 -1       448 6.49019E+01 1.67294E+01 0.00000E+00
 -1       449 6.26398E+01 1.73801E+01 0.00000E+00
 -1       450 6.06678E+01 1.84913E+01 0.00000E+00
 -1       451 5.87564E+01 2.00575E+01 0.00000E+00
 -1       452 5.77066E+01 2.15033E+01 0.00000E+00
 -1       453 5.66897E+01 2.36604E+01 0.00000E+00
 -1       454 5.66518E+01 2.56206E+01 0.00000E+00
 -1       455 5.66630E+01 2.77249E+01 0.00000E+00
 -1       456 5.70358E+01 2.98908E+01 0.00000E+00
 -1       457 5.79446E+01 3.18668E+01 0.00000E+00
 -1       458 5.91463E+01 3.34582E+01 0.00000E+00
 -1       459 6.09005E+01 3.46307E+01 0.00000E+00
 -1       460 6.26521E+01 3.54967E+01 0.00000E+00
 -1       461 6.43842E+01 3.61381E+01 0.00000E+00
 -1       462 6.69786E+01 3.64298E+01 0.00000E+00
 -1       463 6.86750E+01 3.60308E+01 0.00000E+00
 -1       464 7.07645E+01 3.55411E+01 0.00000E+00
 -1       465 7.27823E+01 3.37590E+01 0.00000E+00
 -1       466 7.39185E+01 3.24635E+01 0.00000E+00
 -1       467 7.50310E+01 3.04593E+01 0.00000E+00
 -1       468 7.54631E+01 2.88135E+01 0.00000E+00
 -1       469 7.08331E+01 1.83883E+01 0.00000E+00
 -1       470 6.56458E+01 3.74276E+01 0.00000E+00
 -1       471 7.25001E+01 3.57163E+01 0.00000E+00
 -1       472 1.00350E+01 6.60425E+00 0.00000E+00
 -1       473 7.79400E+00 3.08500E+01 0.00000E+00
 -1       474 7.79400E+00 3.38000E+01 0.00000E+00
 -1       475 7.79400E+00 2.49500E+01 0.00000E+00
 -1       476 7.79400E+00 2.20000E+01 0.00000E+00
 -1       477 7.79400E+00 1.91000E+01 0.00000E+00
 -1       478 7.79400E+00 1.61500E+01 0.00000E+00
 -1       479 7.79400E+00 1.32000E+01 0.00000E+00
 -1       480 7.79400E+00 1.02500E+01 0.00000E+00
 -1       481 1.30350E+01 6.60425E+00 0.00000E+00
 -1       482 1.06500E+01 4.22060E+01 0.00000E+00
 -1       483 7.04282E+01 1.66042E+01 0.00000E+00
 -1       484 1.36500E+01 4.22060E+01 0.00000E+00
 -1       485 1.66500E+01 4.22060E+01 0.00000E+00
 -1       486 1.96500E+01 4.22060E+01 0.00000E+00
 -1       487 2.26500E+01 4.22060E+01 0.00000E+00
 -1       488 2.56500E+01 4.22060E+01 0.00000E+00
 -1       489 2.86500E+01 4.22060E+01 0.00000E+00
 -1       490 3.16500E+01 4.22060E+01 0.00000E+00
 -1       491 3.46500E+01 4.22060E+01 0.00000E+00
 -1       492 3.76500E+01 4.22060E+01 0.00000E+00
 -1       493 4.06500E+01 4.22060E+01 0.00000E+00
 -1       494 4.36500E+01 4.22060E+01 0.00000E+00
 -1       495 4.66500E+01 4.22060E+01 0.00000E+00
 -1       496 4.96500E+01 4.22060E+01 0.00000E+00
 -1       497 5.26500E+01 4.22060E+01 0.00000E+00
 -1       498 5.56500E+01 4.22060E+01 0.00000E+00
 -1       499 5.86500E+01 4.22060E+01 0.00000E+00
 -1       500 6.16500E+01 4.22060E+01 0.00000E+00
 -1       501 6.46500E+01 4.22060E+01 0.00000E+00
 -1       502 6.76500E+01 4.22060E+01 0.00000E+00
 -1       503 7.06500E+01 4.22060E+01 0.00000E+00
 -1       504 7.36500E+01 4.22060E+01 0.00000E+00
 -1       505 7.66500E+01 4.22060E+01 0.00000E+00
 -1       506 7.96500E+01 4.22060E+01 0.00000E+00
 -1       507 8.26500E+01 4.22060E+01 0.00000E+00
 -1       508 8.56500E+01 4.22060E+01 0.00000E+00
 -1       509 8.86500E+01 4.22060E+01 0.00000E+00
 -1       510 9.16500E+01 4.22060E+01 0.00000E+00
 -1       511 9.46500E+01 4.22060E+01 0.00000E+00
 -1       512 9.76500E+01 4.22060E+01 0.00000E+00
 -1       513 1.00650E+02 4.22060E+01 0.00000E+00
 -1       514 1.03650E+02 4.22060E+01 0.00000E+00
 -1       515 1.06650E+02 4.22060E+01 0.00000E+00
 -1       516 1.09650E+02 4.22060E+01 0.00000E+00
 -1       517 1.12650E+02 4.22060E+01 0.00000E+00
 -1       518 1.15650E+02 4.22060E+01 0.00000E+00
 -1       519 1.18650E+02 4.22060E+01 0.00000E+00
 -1       520 1.21650E+02 4.22060E+01 0.00000E+00
 -1       521 1.24650E+02 4.22060E+01 0.00000E+00
 -1       522 1.27650E+02 4.22060E+01 0.00000E+00
 -1       523 1.30650E+02 4.22060E+01 0.00000E+00
 -1       524 1.33650E+02 4.22060E+01 0.00000E+00
 -1       525 1.36650E+02 4.22060E+01 0.00000E+00
 -1       526 1.39650E+02 4.22060E+01 0.00000E+00
 -1       527 7.67683E+01 2.31395E+01 0.00000E+00
 -1       528 1.90350E+01 6.60425E+00 0.00000E+00
 -1       529 2.20350E+01 6.60425E+00 0.00000E+00
 -1       530 2.50350E+01 6.60425E+00 0.00000E+00
 -1       531 2.80350E+01 6.60425E+00 0.00000E+00
 -1       532 3.10350E+01 6.60425E+00 0.00000E+00
 -1       533 3.40350E+01 6.60425E+00 0.00000E+00
 -1       534 3.70350E+01 6.60425E+00 0.00000E+00
 -1       535 4.00350E+01 6.60425E+00 0.00000E+00
 -1       536 4.30350E+01 6.60425E+00 0.00000E+00
 -1       537 4.60350E+01 6.60425E+00 0.00000E+00
 -1       538 4.90350E+01 6.60425E+00 0.00000E+00
 -1       539 5.20350E+01 6.60425E+00 0.00000E+00
 -1       540 5.50350E+01 6.60425E+00 0.00000E+00
 -1       541 5.80350E+01 6.60425E+00 0.00000E+00
 -1       542 6.10350E+01 6.60425E+00 0.00000E+00
 -1       543 6.40350E+01 6.60425E+00 0.00000E+00
 -1       544 6.70350E+01 6.60425E+00 0.00000E+00
 -1       545 7.00350E+01 6.60425E+00 0.00000E+00
 -1       546 7.30350E+01 6.60425E+00 0.00000E+00
 -1       547 7.60350E+01 6.60425E+00 0.00000E+00
 -1       548 7.90350E+01 6.60425E+00 0.00000E+00
 -1       549 8.20350E+01 6.60425E+00 0.00000E+00
 -1       550 8.50350E+01 6.60425E+00 0.00000E+00
 -1       551 8.80350E+01 6.60425E+00 0.00000E+00
 -1       552 9.10350E+01 6.60425E+00 0.00000E+00
 -1       553 9.40350E+01 6.60425E+00 0.00000E+00
 -1       554 9.70350E+01 6.60425E+00 0.00000E+00
 -1       555 1.00035E+02 6.60425E+00 0.00000E+00
 -1       556 1.03035E+02 6.60425E+00 0.00000E+00
 -1       557 1.06035E+02 6.60425E+00 0.00000E+00
 -1       558 1.09035E+02 6.60425E+00 0.00000E+00
 -1       559 1.12035E+02 6.60425E+00 0.00000E+00
 -1       560 1.15035E+02 6.60425E+00 0.00000E+00
 -1       561 1.18035E+02 6.60425E+00 0.00000E+00
 -1       562 1.21035E+02 6.60425E+00 0.00000E+00
 -1       563 1.24035E+02 6.60425E+00 0.00000E+00
 -1       564 1.27035E+02 6.60425E+00 0.00000E+00
 -1       565 1.30035E+02 6.60425E+00 0.00000E+00
 -1       566 1.33035E+02 6.60425E+00 0.00000E+00
 -1       567 1.36035E+02 6.60425E+00 0.00000E+00
 -1       568 1.39035E+02 6.60425E+00 0.00000E+00
 -1       569 1.42035E+02 6.60425E+00 0.00000E+00
 -1       570 1.42206E+02 1.61750E+01 0.00000E+00
 -1       571 1.42206E+02 1.91250E+01 0.00000E+00
 -1       572 1.42206E+02 1.03250E+01 0.00000E+00
 -1       573 1.42206E+02 1.32500E+01 0.00000E+00
 -1       574 1.42206E+02 2.20750E+01 0.00000E+00
 -1       575 1.42206E+02 2.50250E+01 0.00000E+00
 -1       576 1.42206E+02 2.79750E+01 0.00000E+00
 -1       577 1.42206E+02 3.08750E+01 0.00000E+00
 -1       578 1.42206E+02 3.38250E+01 0.00000E+00
 -1       579 1.42206E+02 3.67750E+01 0.00000E+00
 -1       580 1.42206E+02 3.97250E+01 0.00000E+00
 -1       581 7.75316E+01 2.81892E+01 0.00000E+00
 -1       582 1.60350E+01 6.60425E+00 0.00000E+00
 -1       583 7.55746E+01 2.08848E+01 0.00000E+00
 -1       584 7.57545E+01 3.21718E+01 0.00000E+00
 -1       585 7.40564E+01 1.90649E+01 0.00000E+00
 -1       586 7.01493E+01 3.76189E+01 0.00000E+00
 -1       587 5.85189E+01 1.78182E+01 0.00000E+00
 -1       588 7.79400E+00 2.79000E+01 0.00000E+00
 -1       589 6.61717E+01 1.48145E+01 0.00000E+00
 -1       590 5.49560E+01 2.46073E+01 0.00000E+00
 -1       591 6.80387E+01 1.53354E+01 0.00000E+00
 -1       592 6.32967E+01 1.54065E+01 0.00000E+00
 -1       593 6.08941E+01 1.65875E+01 0.00000E+00
 -1       594 5.68437E+01 1.97726E+01 0.00000E+00
 -1       595 5.57984E+01 2.19219E+01 0.00000E+00
 -1       596 5.49672E+01 2.67117E+01 0.00000E+00
 -1       597 5.54069E+01 2.90562E+01 0.00000E+00
 -1       598 5.60842E+01 3.15254E+01 0.00000E+00
 -1       599 5.71767E+01 3.36961E+01 0.00000E+00
 -1       600 5.91169E+01 3.54007E+01 0.00000E+00
 -1       601 6.10161E+01 3.66012E+01 0.00000E+00
 -1       602 6.29808E+01 3.72687E+01 0.00000E+00
 -1       603 6.84529E+01 3.80180E+01 0.00000E+00
 -1       604 7.45139E+01 3.41317E+01 0.00000E+00
 -1       605 7.72156E+01 2.51177E+01 0.00000E+00
 -1       606 7.70995E+01 2.98350E+01 0.00000E+00
 -1       607 7.92300E+00 4.16780E+01 0.00000E+00
 -1       608 7.61550E+00 6.21462E+00 0.00000E+00
 -1       609 7.24581E+01 1.77895E+01 0.00000E+00
 -1       610 7.79400E+00 3.67375E+01 0.00000E+00
 -1       611 6.42424E+01 3.85582E+01 0.00000E+00
 -1       612 1.41678E+02 4.22645E+01 0.00000E+00
 -1       613 7.87216E+01 2.66672E+01 0.00000E+00
 -1       614 5.40646E+01 2.28689E+01 0.00000E+00
 -1       615 6.71201E+01 3.90158E+01 0.00000E+00
 -1       616 7.18849E+01 3.77941E+01 0.00000E+00
 -1       617 7.85850E+00 3.92077E+01 0.00000E+00
 -1       618 1.03920E+01 2.05500E+01 0.00000E+00
 -1       619 1.03920E+01 2.35000E+01 0.00000E+00
 -1       620 1.03920E+01 1.46750E+01 0.00000E+00
 -1       621 1.03920E+01 1.17250E+01 0.00000E+00
 -1       622 1.15350E+01 9.20225E+00 0.00000E+00
 -1       623 7.61325E+01 1.88762E+01 0.00000E+00
 -1       624 6.98089E+01 3.99773E+01 0.00000E+00
 -1       625 1.45350E+01 9.20225E+00 0.00000E+00
 -1       626 7.88283E+01 2.37134E+01 0.00000E+00
 -1       627 1.05855E+01 3.97357E+01 0.00000E+00
 -1       628 1.51500E+01 3.96080E+01 0.00000E+00
 -1       629 1.81500E+01 3.96080E+01 0.00000E+00
 -1       630 2.11500E+01 3.96080E+01 0.00000E+00
 -1       631 2.41500E+01 3.96080E+01 0.00000E+00
 -1       632 2.71500E+01 3.96080E+01 0.00000E+00
 -1       633 3.01500E+01 3.96080E+01 0.00000E+00
 -1       634 3.31500E+01 3.96080E+01 0.00000E+00
 -1       635 3.61500E+01 3.96080E+01 0.00000E+00
 -1       636 3.91500E+01 3.96080E+01 0.00000E+00
 -1       637 4.21500E+01 3.96080E+01 0.00000E+00
 -1       638 4.51500E+01 3.96080E+01 0.00000E+00
 -1       639 4.81500E+01 3.96080E+01 0.00000E+00
 -1       640 5.11500E+01 3.96080E+01 0.00000E+00
 -1       641 5.41500E+01 3.96080E+01 0.00000E+00
 -1       642 5.71500E+01 3.96080E+01 0.00000E+00
 -1       643 6.01500E+01 3.96080E+01 0.00000E+00
 -1       644 7.28089E+01 3.99773E+01 0.00000E+00
 -1       645 7.58089E+01 3.99773E+01 0.00000E+00
 -1       646 7.88089E+01 3.99773E+01 0.00000E+00
 -1       647 8.18089E+01 3.99773E+01 0.00000E+00
 -1       648 8.48089E+01 3.99773E+01 0.00000E+00
 -1       649 8.78089E+01 3.99773E+01 0.00000E+00
 -1       650 9.08089E+01 3.99773E+01 0.00000E+00
 -1       651 9.38089E+01 3.99773E+01 0.00000E+00
 -1       652 9.68089E+01 3.99773E+01 0.00000E+00
 -1       653 9.98089E+01 3.99773E+01 0.00000E+00
 -1       654 1.02809E+02 3.99773E+01 0.00000E+00
 -1       655 1.05809E+02 3.99773E+01 0.00000E+00
 -1       656 1.08809E+02 3.99773E+01 0.00000E+00
 -1       657 1.11809E+02 3.99773E+01 0.00000E+00
 -1       658 1.14809E+02 3.99773E+01 0.00000E+00
 -1       659 1.17809E+02 3.99773E+01 0.00000E+00
 -1       660 1.20809E+02 3.99773E+01 0.00000E+00
 -1       661 1.23809E+02 3.99773E+01 0.00000E+00
 -1       662 1.26809E+02 3.99773E+01 0.00000E+00
 -1       663 1.29809E+02 3.99773E+01 0.00000E+00
 -1       664 1.32809E+02 3.99773E+01 0.00000E+00
 -1       665 1.35809E+02 3.99773E+01 0.00000E+00
 -1       666 1.38809E+02 3.99773E+01 0.00000E+00
 -1       667 5.70148E+01 3.58369E+01 0.00000E+00
 -1       668 5.91501E+01 3.74507E+01 0.00000E+00
 -1       669 2.05350E+01 9.20225E+00 0.00000E+00
 -1       670 2.95350E+01 9.20225E+00 0.00000E+00
 -1       671 3.25350E+01 9.20225E+00 0.00000E+00
 -1       672 3.55350E+01 9.20225E+00 0.00000E+00
 -1       673 3.85350E+01 9.20225E+00 0.00000E+00
 -1       674 4.15350E+01 9.20225E+00 0.00000E+00
 -1       675 4.45350E+01 9.20225E+00 0.00000E+00
 -1       676 4.75350E+01 9.20225E+00 0.00000E+00
 -1       677 5.05350E+01 9.20225E+00 0.00000E+00
 -1       678 5.35350E+01 9.20225E+00 0.00000E+00
 -1       679 5.65350E+01 9.20225E+00 0.00000E+00
 -1       680 5.95350E+01 9.20225E+00 0.00000E+00
 -1       681 6.25350E+01 9.20225E+00 0.00000E+00
 -1       682 6.55350E+01 9.20225E+00 0.00000E+00
 -1       683 6.85350E+01 9.20225E+00 0.00000E+00
 -1       684 7.15350E+01 9.20225E+00 0.00000E+00
 -1       685 7.45350E+01 9.20225E+00 0.00000E+00
 -1       686 7.75350E+01 9.20225E+00 0.00000E+00
 -1       687 8.05350E+01 9.20225E+00 0.00000E+00
 -1       688 8.35350E+01 9.20225E+00 0.00000E+00
 -1       689 8.65350E+01 9.20225E+00 0.00000E+00
 -1       690 8.95350E+01 9.20225E+00 0.00000E+00
 -1       691 9.25350E+01 9.20225E+00 0.00000E+00
 -1       692 9.55350E+01 9.20225E+00 0.00000E+00
 -1       693 9.85350E+01 9.20225E+00 0.00000E+00
 -1       694 1.01535E+02 9.20225E+00 0.00000E+00
 -1       695 1.04535E+02 9.20225E+00 0.00000E+00
 -1       696 1.07535E+02 9.20225E+00 0.00000E+00
 -1       697 1.10535E+02 9.20225E+00 0.00000E+00
 -1       698 1.13535E+02 9.20225E+00 0.00000E+00
 -1       699 1.16535E+02 9.20225E+00 0.00000E+00
 -1       700 1.19535E+02 9.20225E+00 0.00000E+00
 -1       701 1.22535E+02 9.20225E+00 0.00000E+00
 -1       702 1.25535E+02 9.20225E+00 0.00000E+00
 -1       703 1.28535E+02 9.20225E+00 0.00000E+00
 -1       704 1.31535E+02 9.20225E+00 0.00000E+00
 -1       705 1.34535E+02 9.20225E+00 0.00000E+00
 -1       706 1.37535E+02 9.20225E+00 0.00000E+00
 -1       707 1.39870E+02 9.76363E+00 0.00000E+00
 -1       708 7.78409E+01 3.18172E+01 0.00000E+00
 -1       709 1.39608E+02 2.35500E+01 0.00000E+00
 -1       710 1.40507E+02 3.98512E+01 0.00000E+00
 -1       711 1.39608E+02 1.76500E+01 0.00000E+00
 -1       712 1.39608E+02 2.65000E+01 0.00000E+00
 -1       713 1.39608E+02 2.06000E+01 0.00000E+00
 -1       714 1.39608E+02 2.94000E+01 0.00000E+00
 -1       715 1.39608E+02 3.23500E+01 0.00000E+00
 -1       716 1.39608E+02 3.53000E+01 0.00000E+00
 -1       717 1.75350E+01 9.20225E+00 0.00000E+00
 -1       718 5.36660E+01 2.81692E+01 0.00000E+00
 -1       719 7.91365E+01 2.94903E+01 0.00000E+00
 -1       720 6.13928E+01 3.87175E+01 0.00000E+00
 -1       721 6.77012E+01 1.29387E+01 0.00000E+00
 -1       722 2.65350E+01 9.20225E+00 0.00000E+00
 -1       723 2.35350E+01 9.20225E+00 0.00000E+00
 -1       724 1.28678E+01 3.96719E+01 0.00000E+00
 -1       725 1.03920E+01 1.76125E+01 0.00000E+00
 -1       726 7.65834E+01 3.40691E+01 0.00000E+00
 -1       727 7.23081E+01 1.57158E+01 0.00000E+00
 -1       728 1.03920E+01 3.23250E+01 0.00000E+00
 -1       729 6.13758E+01 1.45329E+01 0.00000E+00
 -1       730 7.47748E+01 3.65352E+01 0.00000E+00
 -1       731 5.40915E+01 3.07445E+01 0.00000E+00
 -1       732 5.87632E+01 1.53824E+01 0.00000E+00
 -1       733 5.46280E+01 2.00238E+01 0.00000E+00
 -1       734 7.42748E+01 1.71521E+01 0.00000E+00
 -1       735 5.30789E+01 2.56695E+01 0.00000E+00
 -1       736 5.49488E+01 3.34572E+01 0.00000E+00
 -1       737 7.76872E+01 2.12097E+01 0.00000E+00
 -1       738 5.61246E+01 1.74612E+01 0.00000E+00
 -1       739 7.01949E+01 1.41590E+01 0.00000E+00
 -1       740 6.43545E+01 1.32665E+01 0.00000E+00
 -1       741 1.03920E+01 3.52625E+01 0.00000E+00
 -1       742 1.03920E+01 2.64500E+01 0.00000E+00
 -1       743 6.24336E+01 1.23930E+01 0.00000E+00
 -1       744 5.47868E+01 3.55979E+01 0.00000E+00
 -1       745 6.31500E+01 3.98206E+01 0.00000E+00
 -1       746 1.39608E+02 1.47250E+01 0.00000E+00
 -1       747 1.39739E+02 1.22443E+01 0.00000E+00
 -1       748 1.39608E+02 3.82500E+01 0.00000E+00
 -1       749 8.03265E+01 2.79682E+01 0.00000E+00
 -1       750 5.21876E+01 2.39311E+01 0.00000E+00
 -1       751 1.03920E+01 2.93875E+01 0.00000E+00
 -1       752 7.87555E+01 1.88132E+01 0.00000E+00
 -1       753 1.29900E+01 1.32000E+01 0.00000E+00
 -1       754 1.96500E+01 3.70100E+01 0.00000E+00
 -1       755 2.26500E+01 3.70100E+01 0.00000E+00
 -1       756 2.56500E+01 3.70100E+01 0.00000E+00
 -1       757 2.86500E+01 3.70100E+01 0.00000E+00
 -1       758 3.16500E+01 3.70100E+01 0.00000E+00
 -1       759 3.46500E+01 3.70100E+01 0.00000E+00
 -1       760 3.76500E+01 3.70100E+01 0.00000E+00
 -1       761 4.06500E+01 3.70100E+01 0.00000E+00
 -1       762 4.36500E+01 3.70100E+01 0.00000E+00
 -1       763 4.66500E+01 3.70100E+01 0.00000E+00
 -1       764 4.96500E+01 3.70100E+01 0.00000E+00
 -1       765 5.56500E+01 3.73902E+01 0.00000E+00
 -1       766 7.73089E+01 3.73793E+01 0.00000E+00
 -1       767 8.03089E+01 3.73793E+01 0.00000E+00
 -1       768 8.33089E+01 3.73793E+01 0.00000E+00
 -1       769 8.63089E+01 3.73793E+01 0.00000E+00
 -1       770 8.93089E+01 3.73793E+01 0.00000E+00
 -1       771 9.23089E+01 3.73793E+01 0.00000E+00
 -1       772 9.53089E+01 3.73793E+01 0.00000E+00
 -1       773 9.83089E+01 3.73793E+01 0.00000E+00
 -1       774 1.01309E+02 3.73793E+01 0.00000E+00
 -1       775 1.04309E+02 3.73793E+01 0.00000E+00
 -1       776 1.07309E+02 3.73793E+01 0.00000E+00
 -1       777 1.10309E+02 3.73793E+01 0.00000E+00
 -1       778 1.13309E+02 3.73793E+01 0.00000E+00
 -1       779 1.16309E+02 3.73793E+01 0.00000E+00
 -1       780 1.19309E+02 3.73793E+01 0.00000E+00
 -1       781 1.22309E+02 3.73793E+01 0.00000E+00
 -1       782 1.25309E+02 3.73793E+01 0.00000E+00
 -1       783 1.28309E+02 3.73793E+01 0.00000E+00
 -1       784 1.31309E+02 3.73793E+01 0.00000E+00
 -1       785 1.34309E+02 3.73793E+01 0.00000E+00
 -1       786 5.13765E+01 2.73881E+01 0.00000E+00
 -1       787 2.20350E+01 1.18003E+01 0.00000E+00
 -1       788 3.10350E+01 1.18003E+01 0.00000E+00
 -1       789 4.00350E+01 1.18003E+01 0.00000E+00
 -1       790 4.30350E+01 1.18003E+01 0.00000E+00
 -1       791 4.60350E+01 1.18003E+01 0.00000E+00
 -1       792 4.90350E+01 1.18003E+01 0.00000E+00
 -1       793 5.20350E+01 1.18003E+01 0.00000E+00
 -1       794 5.50350E+01 1.18003E+01 0.00000E+00
 -1       795 5.80350E+01 1.18003E+01 0.00000E+00
 -1       796 7.30350E+01 1.15876E+01 0.00000E+00
 -1       797 7.60350E+01 1.15876E+01 0.00000E+00
 -1       798 7.90350E+01 1.15876E+01 0.00000E+00
 -1       799 8.20350E+01 1.15876E+01 0.00000E+00
 -1       800 8.50350E+01 1.15876E+01 0.00000E+00
 -1       801 8.80350E+01 1.15876E+01 0.00000E+00
 -1       802 9.10350E+01 1.15876E+01 0.00000E+00
 -1       803 9.40350E+01 1.15876E+01 0.00000E+00
 -1       804 9.70350E+01 1.15876E+01 0.00000E+00
 -1       805 1.00035E+02 1.15876E+01 0.00000E+00
 -1       806 1.03035E+02 1.15876E+01 0.00000E+00
 -1       807 1.06035E+02 1.15876E+01 0.00000E+00
 -1       808 1.09035E+02 1.15876E+01 0.00000E+00
 -1       809 1.12035E+02 1.15876E+01 0.00000E+00
 -1       810 1.15035E+02 1.15876E+01 0.00000E+00
 -1       811 1.18035E+02 1.15876E+01 0.00000E+00
 -1       812 1.21035E+02 1.15876E+01 0.00000E+00
 -1       813 1.24035E+02 1.15876E+01 0.00000E+00
 -1       814 1.27035E+02 1.15876E+01 0.00000E+00
 -1       815 1.30035E+02 1.15876E+01 0.00000E+00
 -1       816 1.33035E+02 1.15876E+01 0.00000E+00
 -1       817 1.36035E+02 1.15876E+01 0.00000E+00
 -1       818 1.37887E+02 1.19160E+01 0.00000E+00
 -1       819 1.37010E+02 2.79500E+01 0.00000E+00
 -1       820 1.37010E+02 3.09000E+01 0.00000E+00
 -1       821 1.37010E+02 2.50000E+01 0.00000E+00
 -1       822 5.23351E+01 2.10481E+01 0.00000E+00
 -1       823 5.25652E+01 3.27186E+01 0.00000E+00
 -1       824 2.80350E+01 1.18003E+01 0.00000E+00
 -1       825 3.70350E+01 1.18003E+01 0.00000E+00
 -1       826 3.40350E+01 1.18003E+01 0.00000E+00
 -1       827 7.43030E+01 1.50489E+01 0.00000E+00
 -1       828 7.99872E+01 3.14881E+01 0.00000E+00
 -1       829 1.37625E+01 1.12011E+01 0.00000E+00
 -1       830 5.34611E+01 1.76241E+01 0.00000E+00
 -1       831 7.99709E+01 2.16808E+01 0.00000E+00
 -1       832 1.66500E+01 3.70100E+01 0.00000E+00
 -1       833 2.50350E+01 1.18003E+01 0.00000E+00
 -1       834 1.04888E+01 3.74991E+01 0.00000E+00
 -1       835 7.23682E+01 1.34216E+01 0.00000E+00
 -1       836 7.64843E+01 1.66342E+01 0.00000E+00
 -1       837 8.04889E+01 2.52522E+01 0.00000E+00
 -1       838 5.93837E+01 1.28486E+01 0.00000E+00
 -1       839 1.37010E+02 3.38500E+01 0.00000E+00
 -1       840 7.91485E+01 3.40244E+01 0.00000E+00
 -1       841 5.18020E+01 2.99635E+01 0.00000E+00
 -1       842 5.59677E+01 1.45480E+01 0.00000E+00
 -1       843 1.29900E+01 2.20250E+01 0.00000E+00
 -1       844 7.08650E+01 1.16806E+01 0.00000E+00
 -1       845 1.29900E+01 2.49750E+01 0.00000E+00
 -1       846 1.29900E+01 3.37938E+01 0.00000E+00
 -1       847 1.29900E+01 1.61375E+01 0.00000E+00
 -1       848 1.37010E+02 1.61875E+01 0.00000E+00
 -1       849 1.29900E+01 1.90812E+01 0.00000E+00
 -1       850 1.29900E+01 3.08563E+01 0.00000E+00
 -1       851 5.04852E+01 2.56497E+01 0.00000E+00
 -1       852 1.37309E+02 3.73793E+01 0.00000E+00
 -1       853 1.90350E+01 1.18003E+01 0.00000E+00
 -1       854 1.37010E+02 2.20500E+01 0.00000E+00
 -1       855 1.37010E+02 1.91187E+01 0.00000E+00
 -1       856 1.63988E+01 1.15007E+01 0.00000E+00
 -1       857 1.27710E+01 3.74352E+01 0.00000E+00
 -1       858 8.16316E+01 2.32196E+01 0.00000E+00
 -1       859 8.11771E+01 2.99660E+01 0.00000E+00
 -1       860 2.41500E+01 3.44120E+01 0.00000E+00
 -1       861 2.71500E+01 3.44120E+01 0.00000E+00
 -1       862 3.01500E+01 3.44120E+01 0.00000E+00
 -1       863 3.31500E+01 3.44120E+01 0.00000E+00
 -1       864 3.61500E+01 3.44120E+01 0.00000E+00
 -1       865 3.91500E+01 3.44120E+01 0.00000E+00
 -1       866 4.21500E+01 3.44120E+01 0.00000E+00
 -1       867 4.51500E+01 3.44120E+01 0.00000E+00
 -1       868 4.81500E+01 3.44120E+01 0.00000E+00
 -1       869 7.51690E+01 1.33183E+01 0.00000E+00
 -1       870 5.02078E+01 3.18883E+01 0.00000E+00
 -1       871 8.18089E+01 3.47813E+01 0.00000E+00
 -1       872 8.48089E+01 3.47813E+01 0.00000E+00
 -1       873 8.78089E+01 3.47813E+01 0.00000E+00
 -1       874 9.08089E+01 3.47813E+01 0.00000E+00
 -1       875 9.38089E+01 3.47813E+01 0.00000E+00
 -1       876 9.68089E+01 3.47813E+01 0.00000E+00
 -1       877 9.98089E+01 3.47813E+01 0.00000E+00
 -1       878 1.02809E+02 3.47813E+01 0.00000E+00
 -1       879 1.05809E+02 3.47813E+01 0.00000E+00
 -1       880 1.08809E+02 3.47813E+01 0.00000E+00
 -1       881 1.11809E+02 3.47813E+01 0.00000E+00
 -1       882 1.14809E+02 3.47813E+01 0.00000E+00
 -1       883 1.17809E+02 3.47813E+01 0.00000E+00
 -1       884 1.20809E+02 3.47813E+01 0.00000E+00
 -1       885 1.23809E+02 3.47813E+01 0.00000E+00
 -1       886 1.26809E+02 3.47813E+01 0.00000E+00
 -1       887 1.29809E+02 3.47813E+01 0.00000E+00
 -1       888 1.32809E+02 3.47813E+01 0.00000E+00
 -1       889 2.35350E+01 1.43982E+01 0.00000E+00
 -1       890 4.15350E+01 1.43982E+01 0.00000E+00
 -1       891 5.05350E+01 1.43982E+01 0.00000E+00
 -1       892 8.35350E+01 1.41856E+01 0.00000E+00
 -1       893 8.65350E+01 1.41856E+01 0.00000E+00
 -1       894 8.95350E+01 1.41856E+01 0.00000E+00
 -1       895 9.25350E+01 1.41856E+01 0.00000E+00
 -1       896 9.55350E+01 1.41856E+01 0.00000E+00
 -1       897 9.85350E+01 1.41856E+01 0.00000E+00
 -1       898 1.01535E+02 1.41856E+01 0.00000E+00
 -1       899 1.04535E+02 1.41856E+01 0.00000E+00
 -1       900 1.07535E+02 1.41856E+01 0.00000E+00
 -1       901 1.10535E+02 1.41856E+01 0.00000E+00
 -1       902 1.13535E+02 1.41856E+01 0.00000E+00
 -1       903 1.16535E+02 1.41856E+01 0.00000E+00
 -1       904 1.19535E+02 1.41856E+01 0.00000E+00
 -1       905 1.22535E+02 1.41856E+01 0.00000E+00
 -1       906 1.25535E+02 1.41856E+01 0.00000E+00
 -1       907 1.28535E+02 1.41856E+01 0.00000E+00
 -1       908 1.31535E+02 1.41856E+01 0.00000E+00
 -1       909 1.34535E+02 1.41856E+01 0.00000E+00
 -1       910 1.37449E+02 1.40517E+01 0.00000E+00
 -1       911 1.34412E+02 2.94250E+01 0.00000E+00
 -1       912 1.34412E+02 2.64750E+01 0.00000E+00
 -1       913 5.03811E+01 2.23934E+01 0.00000E+00
 -1       914 7.73503E+01 1.49035E+01 0.00000E+00
 -1       915 5.26563E+01 3.43602E+01 0.00000E+00
 -1       916 8.17138E+01 1.92507E+01 0.00000E+00
 -1       917 3.85350E+01 1.43982E+01 0.00000E+00
 -1       918 2.65350E+01 1.43982E+01 0.00000E+00
 -1       919 1.56263E+01 1.34996E+01 0.00000E+00
 -1       920 7.96216E+01 1.70826E+01 0.00000E+00
 -1       921 1.81500E+01 3.44120E+01 0.00000E+00
 -1       922 2.95350E+01 1.43982E+01 0.00000E+00
 -1       923 8.25851E+01 2.67404E+01 0.00000E+00
 -1       924 4.75350E+01 1.43982E+01 0.00000E+00
 -1       925 4.45350E+01 1.43982E+01 0.00000E+00
 -1       926 1.29900E+01 2.79188E+01 0.00000E+00
 -1       927 2.11500E+01 3.44120E+01 0.00000E+00
 -1       928 8.15144E+01 3.33999E+01 0.00000E+00
 -1       929 1.34412E+02 3.23750E+01 0.00000E+00
 -1       930 5.04729E+01 1.85385E+01 0.00000E+00
 -1       931 4.97318E+01 2.89827E+01 0.00000E+00
 -1       932 5.27004E+01 1.44449E+01 0.00000E+00
 -1       933 5.02989E+01 3.35300E+01 0.00000E+00
 -1       934 1.55700E+01 3.26341E+01 0.00000E+00
 -1       935 1.55880E+01 2.05531E+01 0.00000E+00
 -1       936 1.55880E+01 2.35031E+01 0.00000E+00
 -1       937 8.34357E+01 2.87383E+01 0.00000E+00
 -1       938 7.81927E+01 1.32456E+01 0.00000E+00
 -1       939 4.88404E+01 2.72443E+01 0.00000E+00
 -1       940 2.05350E+01 1.43982E+01 0.00000E+00
 -1       941 3.25350E+01 1.43982E+01 0.00000E+00
 -1       942 1.34412E+02 2.35250E+01 0.00000E+00
 -1       943 8.33744E+01 2.07896E+01 0.00000E+00
 -1       944 8.37277E+01 2.47078E+01 0.00000E+00
 -1       945 3.55350E+01 1.43982E+01 0.00000E+00
 -1       946 8.05350E+01 1.41856E+01 0.00000E+00
 -1       947 8.27043E+01 3.18779E+01 0.00000E+00
 -1       948 1.34412E+02 1.76531E+01 0.00000E+00
 -1       949 1.55880E+01 1.76094E+01 0.00000E+00
 -1       950 2.26500E+01 3.18140E+01 0.00000E+00
 -1       951 2.86500E+01 3.18140E+01 0.00000E+00
 -1       952 3.16500E+01 3.18140E+01 0.00000E+00
 -1       953 3.46500E+01 3.18140E+01 0.00000E+00
 -1       954 3.76500E+01 3.18140E+01 0.00000E+00
 -1       955 4.06500E+01 3.18140E+01 0.00000E+00
 -1       956 4.36500E+01 3.18140E+01 0.00000E+00
 -1       957 4.66500E+01 3.18140E+01 0.00000E+00
 -1       958 1.55880E+01 2.64469E+01 0.00000E+00
 -1       959 8.63089E+01 3.21833E+01 0.00000E+00
 -1       960 8.93089E+01 3.21833E+01 0.00000E+00
 -1       961 9.23089E+01 3.21833E+01 0.00000E+00
 -1       962 9.53089E+01 3.21833E+01 0.00000E+00
 -1       963 9.83089E+01 3.21833E+01 0.00000E+00
 -1       964 1.01309E+02 3.21833E+01 0.00000E+00
 -1       965 1.04309E+02 3.21833E+01 0.00000E+00
 -1       966 1.07309E+02 3.21833E+01 0.00000E+00
 -1       967 1.10309E+02 3.21833E+01 0.00000E+00
 -1       968 1.13309E+02 3.21833E+01 0.00000E+00
 -1       969 1.16309E+02 3.21833E+01 0.00000E+00
 -1       970 1.19309E+02 3.21833E+01 0.00000E+00
 -1       971 1.22309E+02 3.21833E+01 0.00000E+00
 -1       972 1.25309E+02 3.21833E+01 0.00000E+00
 -1       973 1.28309E+02 3.21833E+01 0.00000E+00
 -1       974 1.31309E+02 3.21833E+01 0.00000E+00
 -1       975 2.50350E+01 1.69963E+01 0.00000E+00
 -1       976 9.10350E+01 1.67836E+01 0.00000E+00
 -1       977 8.80350E+01 1.67836E+01 0.00000E+00
 -1       978 8.50350E+01 1.67836E+01 0.00000E+00
 -1       979 9.40350E+01 1.67836E+01 0.00000E+00
 -1       980 9.70350E+01 1.67836E+01 0.00000E+00
 -1       981 1.00035E+02 1.67836E+01 0.00000E+00
 -1       982 1.03035E+02 1.67836E+01 0.00000E+00
 -1       983 1.06035E+02 1.67836E+01 0.00000E+00
 -1       984 1.09035E+02 1.67836E+01 0.00000E+00
 -1       985 1.12035E+02 1.67836E+01 0.00000E+00
 -1       986 1.15035E+02 1.67836E+01 0.00000E+00
 -1       987 1.18035E+02 1.67836E+01 0.00000E+00
 -1       988 1.21035E+02 1.67836E+01 0.00000E+00
 -1       989 1.24035E+02 1.67836E+01 0.00000E+00
 -1       990 1.27035E+02 1.67836E+01 0.00000E+00
 -1       991 1.30035E+02 1.67836E+01 0.00000E+00
 -1       992 1.34412E+02 2.05844E+01 0.00000E+00
 -1       993 1.31814E+02 2.79500E+01 0.00000E+00
 -1       994 1.80806E+01 1.39489E+01 0.00000E+00
 -1       995 4.83839E+01 2.40870E+01 0.00000E+00
 -1       996 2.80350E+01 1.69963E+01 0.00000E+00
 -1       997 4.77811E+01 3.07940E+01 0.00000E+00
 -1       998 4.00350E+01 1.69963E+01 0.00000E+00
 -1       999 1.96500E+01 3.18140E+01 0.00000E+00
 -1      1000 4.80423E+01 2.04092E+01 0.00000E+00
 -1      1001 1.55880E+01 2.93844E+01 0.00000E+00
 -1      1002 2.56500E+01 3.18140E+01 0.00000E+00
 -1      1003 8.29988E+01 3.32593E+01 0.00000E+00
 -1      1004 8.26244E+01 1.67182E+01 0.00000E+00
 -1      1005 2.20350E+01 1.69963E+01 0.00000E+00
 -1      1006 8.45784E+01 2.67057E+01 0.00000E+00
 -1      1007 4.68898E+01 2.90556E+01 0.00000E+00
 -1      1008 3.10350E+01 1.69963E+01 0.00000E+00
 -1      1009 4.30350E+01 1.69963E+01 0.00000E+00
 -1      1010 1.81860E+01 1.90812E+01 0.00000E+00
 -1      1011 8.42047E+01 1.87866E+01 0.00000E+00
 -1      1012 3.70350E+01 1.69963E+01 0.00000E+00
 -1      1013 1.81860E+01 2.20313E+01 0.00000E+00
 -1      1014 4.60350E+01 1.69963E+01 0.00000E+00
 -1      1015 1.31814E+02 2.50000E+01 0.00000E+00
 -1      1016 1.30035E+02 1.97149E+01 0.00000E+00
 -1      1017 9.55350E+01 1.93816E+01 0.00000E+00
 -1      1018 3.31500E+01 2.92160E+01 0.00000E+00
 -1      1019 3.61500E+01 2.92160E+01 0.00000E+00
 -1      1020 3.91500E+01 2.92160E+01 0.00000E+00
 -1      1021 4.21500E+01 2.92160E+01 0.00000E+00
 -1      1022 8.95350E+01 1.93816E+01 0.00000E+00
 -1      1023 1.30924E+02 2.23574E+01 0.00000E+00
 -1      1024 8.78089E+01 2.95853E+01 0.00000E+00
 -1      1025 9.08089E+01 2.95853E+01 0.00000E+00
 -1      1026 9.38089E+01 2.95853E+01 0.00000E+00
 -1      1027 9.68089E+01 2.95853E+01 0.00000E+00
 -1      1028 9.98089E+01 2.95853E+01 0.00000E+00
 -1      1029 1.02809E+02 2.95853E+01 0.00000E+00
 -1      1030 1.05809E+02 2.95853E+01 0.00000E+00
 -1      1031 1.08809E+02 2.95853E+01 0.00000E+00
 -1      1032 1.11809E+02 2.95853E+01 0.00000E+00
 -1      1033 1.14809E+02 2.95853E+01 0.00000E+00
 -1      1034 1.17809E+02 2.95853E+01 0.00000E+00
 -1      1035 1.20809E+02 2.95853E+01 0.00000E+00
 -1      1036 1.23809E+02 2.95853E+01 0.00000E+00
 -1      1037 1.26809E+02 2.95853E+01 0.00000E+00
 -1      1038 1.29311E+02 2.87677E+01 0.00000E+00
 -1      1039 9.25350E+01 1.93816E+01 0.00000E+00
 -1      1040 9.85350E+01 1.93816E+01 0.00000E+00
 -1      1041 1.01535E+02 1.93816E+01 0.00000E+00
 -1      1042 1.04535E+02 1.93816E+01 0.00000E+00
 -1      1043 1.07535E+02 1.93816E+01 0.00000E+00
 -1      1044 1.10535E+02 1.93816E+01 0.00000E+00
 -1      1045 1.13535E+02 1.93816E+01 0.00000E+00
 -1      1046 1.16535E+02 1.93816E+01 0.00000E+00
 -1      1047 1.19535E+02 1.93816E+01 0.00000E+00
 -1      1048 1.22535E+02 1.93816E+01 0.00000E+00
 -1      1049 1.25535E+02 1.93816E+01 0.00000E+00
 -1      1050 1.27785E+02 1.95483E+01 0.00000E+00
 -1      1051 2.71500E+01 2.92160E+01 0.00000E+00
 -1      1052 1.96500E+01 2.88765E+01 0.00000E+00
 -1      1053 3.01500E+01 2.92160E+01 0.00000E+00
 -1      1054 3.40350E+01 1.69963E+01 0.00000E+00
 -1      1055 4.47993E+01 2.00198E+01 0.00000E+00
 -1      1056 4.51409E+01 2.36977E+01 0.00000E+00
 -1      1057 4.60153E+01 2.63766E+01 0.00000E+00
 -1      1058 2.41500E+01 2.92160E+01 0.00000E+00
 -1      1059 8.57599E+01 2.25495E+01 0.00000E+00
 -1      1060 2.65350E+01 1.95942E+01 0.00000E+00
 -1      1061 1.81860E+01 2.49750E+01 0.00000E+00
 -1      1062 8.68699E+01 1.90841E+01 0.00000E+00
 -1      1063 2.35350E+01 1.95942E+01 0.00000E+00
 -1      1064 8.66106E+01 2.45474E+01 0.00000E+00
 -1      1065 2.07308E+01 1.64617E+01 0.00000E+00
 -1      1066 1.29311E+02 2.58177E+01 0.00000E+00
 -1      1067 8.63149E+01 2.08168E+01 0.00000E+00
 -1      1068 2.95350E+01 1.95942E+01 0.00000E+00
 -1      1069 3.85350E+01 1.95942E+01 0.00000E+00
 -1      1070 2.07840E+01 2.05562E+01 0.00000E+00
 -1      1071 4.15350E+01 1.95942E+01 0.00000E+00
 -1      1072 8.52300E+01 3.08113E+01 0.00000E+00
 -1      1073 3.76500E+01 2.66180E+01 0.00000E+00
 -1      1074 4.06500E+01 2.66180E+01 0.00000E+00
 -1      1075 1.03035E+02 2.19796E+01 0.00000E+00
 -1      1076 8.93089E+01 2.69873E+01 0.00000E+00
 -1      1077 9.23089E+01 2.69873E+01 0.00000E+00
 -1      1078 9.53089E+01 2.69873E+01 0.00000E+00
 -1      1079 9.83089E+01 2.69873E+01 0.00000E+00
 -1      1080 1.01309E+02 2.69873E+01 0.00000E+00
 -1      1081 1.04309E+02 2.69873E+01 0.00000E+00
 -1      1082 1.07309E+02 2.69873E+01 0.00000E+00
 -1      1083 1.10309E+02 2.69873E+01 0.00000E+00
 -1      1084 1.13309E+02 2.69873E+01 0.00000E+00
 -1      1085 1.16309E+02 2.69873E+01 0.00000E+00
 -1      1086 1.19309E+02 2.69873E+01 0.00000E+00
 -1      1087 1.22309E+02 2.69873E+01 0.00000E+00
 -1      1088 1.25309E+02 2.69873E+01 0.00000E+00
 -1      1089 1.27310E+02 2.64025E+01 0.00000E+00
 -1      1090 1.00035E+02 2.19796E+01 0.00000E+00
 -1      1091 1.06035E+02 2.19796E+01 0.00000E+00
 -1      1092 1.09035E+02 2.19796E+01 0.00000E+00
 -1      1093 1.12035E+02 2.19796E+01 0.00000E+00
 -1      1094 1.15035E+02 2.19796E+01 0.00000E+00
 -1      1095 1.18035E+02 2.19796E+01 0.00000E+00
 -1      1096 1.21035E+02 2.19796E+01 0.00000E+00
 -1      1097 1.24035E+02 2.19796E+01 0.00000E+00
 -1      1098 2.56500E+01 2.66180E+01 0.00000E+00
 -1      1099 2.07840E+01 2.35000E+01 0.00000E+00
 -1      1100 2.86500E+01 2.66180E+01 0.00000E+00
 -1      1101 3.16500E+01 2.66180E+01 0.00000E+00
 -1      1102 9.70350E+01 2.19796E+01 0.00000E+00
 -1      1103 2.20954E+01 2.64556E+01 0.00000E+00
 -1      1104 3.55350E+01 1.95942E+01 0.00000E+00
 -1      1105 3.46500E+01 2.66180E+01 0.00000E+00
 -1      1106 3.25350E+01 1.95942E+01 0.00000E+00
 -1      1107 8.85116E+01 2.24756E+01 0.00000E+00
 -1      1108 1.28674E+02 2.21908E+01 0.00000E+00
 -1      1109 3.70350E+01 2.21922E+01 0.00000E+00
 -1      1110 2.33820E+01 2.20281E+01 0.00000E+00
 -1      1111 9.40350E+01 2.19796E+01 0.00000E+00
 -1      1112 1.26285E+02 2.21463E+01 0.00000E+00
 -1      1113 4.00350E+01 2.21922E+01 0.00000E+00
 -1      1114 4.23832E+01 2.20990E+01 0.00000E+00
 -1      1115 2.80350E+01 2.21922E+01 0.00000E+00
 -1      1116 1.07535E+02 2.45776E+01 0.00000E+00
 -1      1117 9.38089E+01 2.43893E+01 0.00000E+00
 -1      1118 1.11809E+02 2.43893E+01 0.00000E+00
 -1      1119 2.50350E+01 2.21922E+01 0.00000E+00
 -1      1120 3.40350E+01 2.21922E+01 0.00000E+00
 -1      1121 8.90233E+01 2.09286E+01 0.00000E+00
 -1      1122 3.10350E+01 2.21922E+01 0.00000E+00
 -1      1123 9.10350E+01 2.19796E+01 0.00000E+00
 -1      1124 1.27190E+02 2.38430E+01 0.00000E+00
 -1      1125 0.00000E+00 4.85250E+01 0.00000E+00
 -1      1126 0.00000E+00 4.55750E+01 0.00000E+00
 -1      1127 0.00000E+00 4.26250E+01 0.00000E+00
 -1      1128 0.00000E+00 3.96750E+01 0.00000E+00
 -1      1129 0.00000E+00 3.67250E+01 0.00000E+00
 -1      1130 0.00000E+00 3.38000E+01 0.00000E+00
 -1      1131 0.00000E+00 3.08750E+01 0.00000E+00
 -1      1132 0.00000E+00 2.79250E+01 0.00000E+00
 -1      1133 0.00000E+00 2.49750E+01 0.00000E+00
 -1      1134 0.00000E+00 2.20250E+01 0.00000E+00
 -1      1135 0.00000E+00 1.90750E+01 0.00000E+00
 -1      1136 0.00000E+00 1.61500E+01 0.00000E+00
 -1      1137 0.00000E+00 1.32250E+01 0.00000E+00
 -1      1138 0.00000E+00 1.02750E+01 0.00000E+00
 -1      1139 0.00000E+00 7.32500E+00 0.00000E+00
 -1      1140 0.00000E+00 4.37500E+00 0.00000E+00
 -1      1141 0.00000E+00 1.45000E+00 0.00000E+00
 -1      1142 1.57500E+00 5.00000E+01 0.00000E+00
 -1      1143 4.65000E+00 5.00000E+01 0.00000E+00
 -1      1144 7.65000E+00 5.00000E+01 0.00000E+00
 -1      1145 1.06500E+01 5.00000E+01 0.00000E+00
 -1      1146 1.36500E+01 5.00000E+01 0.00000E+00
 -1      1147 1.66500E+01 5.00000E+01 0.00000E+00
 -1      1148 1.96500E+01 5.00000E+01 0.00000E+00
 -1      1149 2.26500E+01 5.00000E+01 0.00000E+00
 -1      1150 2.56500E+01 5.00000E+01 0.00000E+00
 -1      1151 2.86500E+01 5.00000E+01 0.00000E+00
 -1      1152 3.16500E+01 5.00000E+01 0.00000E+00
 -1      1153 3.46500E+01 5.00000E+01 0.00000E+00
 -1      1154 3.76500E+01 5.00000E+01 0.00000E+00
 -1      1155 4.06500E+01 5.00000E+01 0.00000E+00
 -1      1156 4.36500E+01 5.00000E+01 0.00000E+00
 -1      1157 4.66500E+01 5.00000E+01 0.00000E+00
 -1      1158 4.96500E+01 5.00000E+01 0.00000E+00
 -1      1159 5.26500E+01 5.00000E+01 0.00000E+00
 -1      1160 5.56500E+01 5.00000E+01 0.00000E+00
 -1      1161 5.86500E+01 5.00000E+01 0.00000E+00
 -1      1162 6.16500E+01 5.00000E+01 0.00000E+00
 -1      1163 6.46500E+01 5.00000E+01 0.00000E+00
 -1      1164 6.76500E+01 5.00000E+01 0.00000E+00
 -1      1165 7.06500E+01 5.00000E+01 0.00000E+00
 -1      1166 7.36500E+01 5.00000E+01 0.00000E+00
 -1      1167 7.66500E+01 5.00000E+01 0.00000E+00
 -1      1168 7.96500E+01 5.00000E+01 0.00000E+00
 -1      1169 8.26500E+01 5.00000E+01 0.00000E+00
 -1      1170 8.56500E+01 5.00000E+01 0.00000E+00
 -1      1171 8.86500E+01 5.00000E+01 0.00000E+00
 -1      1172 9.16500E+01 5.00000E+01 0.00000E+00
 -1      1173 9.46500E+01 5.00000E+01 0.00000E+00
 -1      1174 9.76500E+01 5.00000E+01 0.00000E+00
 -1      1175 1.00650E+02 5.00000E+01 0.00000E+00
 -1      1176 1.03650E+02 5.00000E+01 0.00000E+00
 -1      1177 1.06650E+02 5.00000E+01 0.00000E+00
 -1      1178 1.09650E+02 5.00000E+01 0.00000E+00
 -1      1179 1.12650E+02 5.00000E+01 0.00000E+00
 -1      1180 1.15650E+02 5.00000E+01 0.00000E+00
 -1      1181 1.18650E+02 5.00000E+01 0.00000E+00
 -1      1182 1.21650E+02 5.00000E+01 0.00000E+00
 -1      1183 1.24650E+02 5.00000E+01 0.00000E+00
 -1      1184 1.27650E+02 5.00000E+01 0.00000E+00
 -1      1185 1.30650E+02 5.00000E+01 0.00000E+00
 -1      1186 1.33650E+02 5.00000E+01 0.00000E+00
 -1      1187 1.36650E+02 5.00000E+01 0.00000E+00
 -1      1188 1.39650E+02 5.00000E+01 0.00000E+00
 -1      1189 1.42650E+02 5.00000E+01 0.00000E+00
 -1      1190 1.45650E+02 5.00000E+01 0.00000E+00
 -1      1191 1.48575E+02 5.00000E+01 0.00000E+00
 -1      1192 1.57500E+00 0.00000E+00 0.00000E+00
 -1      1193 4.65000E+00 0.00000E+00 0.00000E+00
 -1      1194 7.65000E+00 0.00000E+00 0.00000E+00
 -1      1195 1.06500E+01 0.00000E+00 0.00000E+00
 -1      1196 1.36500E+01 0.00000E+00 0.00000E+00
 -1      1197 1.66500E+01 0.00000E+00 0.00000E+00
 -1      1198 1.96500E+01 0.00000E+00 0.00000E+00
 -1      1199 2.26500E+01 0.00000E+00 0.00000E+00
 -1      1200 2.56500E+01 0.00000E+00 0.00000E+00
 -1      1201 2.86500E+01 0.00000E+00 0.00000E+00
 -1      1202 3.16500E+01 0.00000E+00 0.00000E+00
 -1      1203 3.46500E+01 0.00000E+00 0.00000E+00
 -1      1204 3.76500E+01 0.00000E+00 0.00000E+00
 -1      1205 4.06500E+01 0.00000E+00 0.00000E+00
 -1      1206 4.36500E+01 0.00000E+00 0.00000E+00
 -1      1207 4.66500E+01 0.00000E+00 0.00000E+00
 -1      1208 4.96500E+01 0.00000E+00 0.00000E+00
 -1      1209 5.26500E+01 0.00000E+00 0.00000E+00
 -1      1210 5.56500E+01 0.00000E+00 0.00000E+00
 -1      1211 5.86500E+01 0.00000E+00 0.00000E+00
 -1      1212 6.16500E+01 0.00000E+00 0.00000E+00
 -1      1213 6.46500E+01 0.00000E+00 0.00000E+00
 -1      1214 6.76500E+01 0.00000E+00 0.00000E+00
 -1      1215 7.06500E+01 0.00000E+00 0.00000E+00
 -1      1216 7.36500E+01 0.00000E+00 0.00000E+00
 -1      1217 7.66500E+01 0.00000E+00 0.00000E+00
 -1      1218 7.96500E+01 0.00000E+00 0.00000E+00
 -1      1219 8.26500E+01 0.00000E+00 0.00000E+00
 -1      1220 8.56500E+01 0.00000E+00 0.00000E+00
 -1      1221 8.86500E+01 0.00000E+00 0.00000E+00
 -1      1222 9.16500E+01 0.00000E+00 0.00000E+00
 -1      1223 9.46500E+01 0.00000E+00 0.00000E+00
 -1      1224 9.76500E+01 0.00000E+00 0.00000E+00
 -1      1225 1.00650E+02 0.00000E+00 0.00000E+00
 -1      1226 1.03650E+02 0.00000E+00 0.00000E+00
 -1      1227 1.06650E+02 0.00000E+00 0.00000E+00
 -1      1228 1.09650E+02 0.00000E+00 0.00000E+00
 -1      1229 1.12650E+02 0.00000E+00 0.00000E+00
 -1      1230 1.15650E+02 0.00000E+00 0.00000E+00
 -1      1231 1.18650E+02 0.00000E+00 0.00000E+00
 -1      1232 1.21650E+02 0.00000E+00 0.00000E+00
 -1      1233 1.24650E+02 0.00000E+00 0.00000E+00
 -1      1234 1.27650E+02 0.00000E+00 0.00000E+00
 -1      1235 1.30650E+02 0.00000E+00 0.00000E+00
 -1      1236 1.33650E+02 0.00000E+00 0.00000E+00
 -1      1237 1.36650E+02 0.00000E+00 0.00000E+00
 -1      1238 1.39650E+02 0.00000E+00 0.00000E+00
 -1      1239 1.42650E+02 0.00000E+00 0.00000E+00
 -1      1240 1.45650E+02 0.00000E+00 0.00000E+00
 -1      1241 1.48575E+02 0.00000E+00 0.00000E+00
 -1      1242 1.50000E+02 1.47500E+00 0.00000E+00
 -1      1243 1.50000E+02 4.42500E+00 0.00000E+00
 -1      1244 1.50000E+02 7.37500E+00 0.00000E+00
 -1      1245 1.50000E+02 1.03250E+01 0.00000E+00
 -1      1246 1.50000E+02 1.32750E+01 0.00000E+00
 -1      1247 1.50000E+02 1.62000E+01 0.00000E+00
 -1      1248 1.50000E+02 1.91250E+01 0.00000E+00
 -1      1249 1.50000E+02 2.20750E+01 0.00000E+00
 -1      1250 1.50000E+02 2.50250E+01 0.00000E+00
 -1      1251 1.50000E+02 2.79750E+01 0.00000E+00
 -1      1252 1.50000E+02 3.09250E+01 0.00000E+00
 -1      1253 1.50000E+02 3.38500E+01 0.00000E+00
 -1      1254 1.50000E+02 3.67750E+01 0.00000E+00
 -1      1255 1.50000E+02 3.97250E+01 0.00000E+00
 -1      1256 1.50000E+02 4.26750E+01 0.00000E+00
 -1      1257 1.50000E+02 4.56250E+01 0.00000E+00
 -1      1258 1.50000E+02 4.85500E+01 0.00000E+00
 -1      1259 7.30984E+01 2.58888E+01 0.00000E+00
 -1      1260 7.27788E+01 2.44315E+01 0.00000E+00
 -1      1261 7.21394E+01 2.30444E+01 0.00000E+00
 -1      1262 7.12341E+01 2.18499E+01 0.00000E+00
 -1      1263 7.01500E+01 2.09133E+01 0.00000E+00
 -1      1264 6.88600E+01 2.02010E+01 0.00000E+00
 -1      1265 6.74218E+01 1.97693E+01 0.00000E+00
 -1      1266 6.59401E+01 1.96538E+01 0.00000E+00
 -1      1267 6.44334E+01 1.98621E+01 0.00000E+00
 -1      1268 6.29354E+01 2.04275E+01 0.00000E+00
 -1      1269 6.15983E+01 2.13243E+01 0.00000E+00
 -1      1270 6.05572E+01 2.24281E+01 0.00000E+00
 -1      1271 5.97819E+01 2.37227E+01 0.00000E+00
 -1      1272 5.92940E+01 2.51908E+01 0.00000E+00
 -1      1273 5.91401E+01 2.66949E+01 0.00000E+00
 -1      1274 5.93243E+01 2.82467E+01 0.00000E+00
 -1      1275 5.98503E+01 2.97233E+01 0.00000E+00
 -1      1276 6.06386E+01 3.09793E+01 0.00000E+00
 -1      1277 6.16616E+01 3.20309E+01 0.00000E+00
 -1      1278 6.29043E+01 3.28582E+01 0.00000E+00
 -1      1279 6.42706E+01 3.33967E+01 0.00000E+00
 -1      1280 6.57917E+01 3.36422E+01 0.00000E+00
 -1      1281 6.73221E+01 3.35504E+01 0.00000E+00
 -1      1282 6.87494E+01 3.31464E+01 0.00000E+00
 -1      1283 7.01838E+01 3.23647E+01 0.00000E+00
 -1      1284 7.13568E+01 3.13184E+01 0.00000E+00
 -1      1285 7.22086E+01 3.01398E+01 0.00000E+00
 -1      1286 7.27970E+01 2.88153E+01 0.00000E+00
 -1      1287 7.30999E+01 2.73993E+01 0.00000E+00
 -1      1288 1.57500E+00 4.85250E+01 0.00000E+00
 -1      1289 1.29900E+00 4.48375E+01 0.00000E+00
 -1      1290 1.29900E+00 4.63125E+01 0.00000E+00
 -1      1291 1.29900E+00 4.18875E+01 0.00000E+00
 -1      1292 1.29900E+00 4.33625E+01 0.00000E+00
 -1      1293 2.59800E+00 4.41000E+01 0.00000E+00
 -1      1294 1.29900E+00 3.89375E+01 0.00000E+00
 -1      1295 1.29900E+00 4.04125E+01 0.00000E+00
 -1      1296 2.59800E+00 4.11500E+01 0.00000E+00
 -1      1297 1.29900E+00 3.59875E+01 0.00000E+00
 -1      1298 1.29900E+00 3.74625E+01 0.00000E+00
 -1      1299 2.59800E+00 3.82000E+01 0.00000E+00
 -1      1300 1.29900E+00 3.30875E+01 0.00000E+00
 -1      1301 1.29900E+00 3.45375E+01 0.00000E+00
 -1      1302 2.59800E+00 3.52750E+01 0.00000E+00
 -1      1303 1.29900E+00 3.01375E+01 0.00000E+00
 -1      1304 1.29900E+00 3.16125E+01 0.00000E+00
 -1      1305 2.59800E+00 3.23500E+01 0.00000E+00
 -1      1306 1.29900E+00 2.71875E+01 0.00000E+00
 -1      1307 1.29900E+00 2.86625E+01 0.00000E+00
 -1      1308 2.59800E+00 2.94000E+01 0.00000E+00
 -1      1309 1.29900E+00 2.42375E+01 0.00000E+00
 -1      1310 1.29900E+00 2.57125E+01 0.00000E+00
 -1      1311 2.59800E+00 2.64500E+01 0.00000E+00
 -1      1312 1.29900E+00 2.12875E+01 0.00000E+00
 -1      1313 1.29900E+00 2.27625E+01 0.00000E+00
 -1      1314 2.59800E+00 2.35000E+01 0.00000E+00
 -1      1315 1.29900E+00 1.83375E+01 0.00000E+00
 -1      1316 1.29900E+00 1.98125E+01 0.00000E+00
 -1      1317 2.59800E+00 2.05500E+01 0.00000E+00
 -1      1318 1.29900E+00 1.54375E+01 0.00000E+00
 -1      1319 1.29900E+00 1.68875E+01 0.00000E+00
 -1      1320 2.59800E+00 1.76250E+01 0.00000E+00
 -1      1321 1.29900E+00 1.24875E+01 0.00000E+00
 -1      1322 1.29900E+00 1.39625E+01 0.00000E+00
 -1      1323 2.59800E+00 1.47000E+01 0.00000E+00
 -1      1324 1.29900E+00 9.53750E+00 0.00000E+00
 -1      1325 1.29900E+00 1.10125E+01 0.00000E+00
 -1      1326 2.59800E+00 1.17500E+01 0.00000E+00
 -1      1327 1.29900E+00 6.58750E+00 0.00000E+00
 -1      1328 1.29900E+00 8.06250E+00 0.00000E+00
 -1      1329 2.59800E+00 8.80000E+00 0.00000E+00
 -1      1330 1.29900E+00 3.63750E+00 0.00000E+00
 -1      1331 1.29900E+00 5.11250E+00 0.00000E+00
 -1      1332 2.59800E+00 5.85000E+00 0.00000E+00
 -1      1333 1.43700E+00 1.09375E+00 0.00000E+00
 -1      1334 1.43700E+00 2.54375E+00 0.00000E+00
 -1      1335 2.73600E+00 3.28125E+00 0.00000E+00
 -1      1336 3.01200E+00 1.09375E+00 0.00000E+00
 -1      1337 3.90000E+00 4.87010E+01 0.00000E+00
 -1      1338 5.40000E+00 4.87010E+01 0.00000E+00
 -1      1339 6.90000E+00 4.87010E+01 0.00000E+00
 -1      1340 8.40000E+00 4.87010E+01 0.00000E+00
 -1      1341 6.15000E+00 4.74020E+01 0.00000E+00
 -1      1342 9.90000E+00 4.87010E+01 0.00000E+00
 -1      1343 1.14000E+01 4.87010E+01 0.00000E+00
 -1      1344 9.15000E+00 4.74020E+01 0.00000E+00
 -1      1345 1.29000E+01 4.87010E+01 0.00000E+00
 -1      1346 1.44000E+01 4.87010E+01 0.00000E+00
 -1      1347 1.21500E+01 4.74020E+01 0.00000E+00
 -1      1348 1.59000E+01 4.87010E+01 0.00000E+00
 -1      1349 1.74000E+01 4.87010E+01 0.00000E+00
 -1      1350 1.51500E+01 4.74020E+01 0.00000E+00
 -1      1351 1.89000E+01 4.87010E+01 0.00000E+00
 -1      1352 2.04000E+01 4.87010E+01 0.00000E+00
 -1      1353 1.81500E+01 4.74020E+01 0.00000E+00
 -1      1354 2.19000E+01 4.87010E+01 0.00000E+00
 -1      1355 2.34000E+01 4.87010E+01 0.00000E+00
 -1      1356 2.11500E+01 4.74020E+01 0.00000E+00
 -1      1357 2.49000E+01 4.87010E+01 0.00000E+00
 -1      1358 2.64000E+01 4.87010E+01 0.00000E+00
 -1      1359 2.41500E+01 4.74020E+01 0.00000E+00
 -1      1360 2.79000E+01 4.87010E+01 0.00000E+00
 -1      1361 2.94000E+01 4.87010E+01 0.00000E+00
 -1      1362 2.71500E+01 4.74020E+01 0.00000E+00
 -1      1363 3.09000E+01 4.87010E+01 0.00000E+00
 -1      1364 3.24000E+01 4.87010E+01 0.00000E+00
 -1      1365 3.01500E+01 4.74020E+01 0.00000E+00
 -1      1366 3.39000E+01 4.87010E+01 0.00000E+00
 -1      1367 3.54000E+01 4.87010E+01 0.00000E+00
 -1      1368 3.31500E+01 4.74020E+01 0.00000E+00
 -1      1369 3.69000E+01 4.87010E+01 0.00000E+00
 -1      1370 3.84000E+01 4.87010E+01 0.00000E+00
 -1      1371 3.61500E+01 4.74020E+01 0.00000E+00
 -1      1372 3.99000E+01 4.87010E+01 0.00000E+00
 -1      1373 4.14000E+01 4.87010E+01 0.00000E+00
 -1      1374 3.91500E+01 4.74020E+01 0.00000E+00
 -1      1375 4.29000E+01 4.87010E+01 0.00000E+00
 -1      1376 4.44000E+01 4.87010E+01 0.00000E+00
 -1      1377 4.21500E+01 4.74020E+01 0.00000E+00
 -1      1378 4.59000E+01 4.87010E+01 0.00000E+00
 -1      1379 4.74000E+01 4.87010E+01 0.00000E+00
 -1      1380 4.51500E+01 4.74020E+01 0.00000E+00
 -1      1381 4.89000E+01 4.87010E+01 0.00000E+00
 -1      1382 5.04000E+01 4.87010E+01 0.00000E+00
 -1      1383 4.81500E+01 4.74020E+01 0.00000E+00
 -1      1384 5.19000E+01 4.87010E+01 0.00000E+00
 -1      1385 5.34000E+01 4.87010E+01 0.00000E+00
 -1      1386 5.11500E+01 4.74020E+01 0.00000E+00
 -1      1387 5.49000E+01 4.87010E+01 0.00000E+00
 -1      1388 5.64000E+01 4.87010E+01 0.00000E+00
 -1      1389 5.41500E+01 4.74020E+01 0.00000E+00
 -1      1390 5.79000E+01 4.87010E+01 0.00000E+00
 -1      1391 5.94000E+01 4.87010E+01 0.00000E+00
 -1      1392 5.71500E+01 4.74020E+01 0.00000E+00
 -1      1393 6.09000E+01 4.87010E+01 0.00000E+00
 -1      1394 6.24000E+01 4.87010E+01 0.00000E+00
 -1      1395 6.01500E+01 4.74020E+01 0.00000E+00
 -1      1396 6.39000E+01 4.87010E+01 0.00000E+00
 -1      1397 6.54000E+01 4.87010E+01 0.00000E+00
 -1      1398 6.31500E+01 4.74020E+01 0.00000E+00
 -1      1399 6.69000E+01 4.87010E+01 0.00000E+00
 -1      1400 6.84000E+01 4.87010E+01 0.00000E+00
 -1      1401 6.61500E+01 4.74020E+01 0.00000E+00
 -1      1402 6.99000E+01 4.87010E+01 0.00000E+00
 -1      1403 7.14000E+01 4.87010E+01 0.00000E+00
 -1      1404 6.91500E+01 4.74020E+01 0.00000E+00
 -1      1405 7.29000E+01 4.87010E+01 0.00000E+00
 -1      1406 7.44000E+01 4.87010E+01 0.00000E+00
 -1      1407 7.21500E+01 4.74020E+01 0.00000E+00
 -1      1408 7.59000E+01 4.87010E+01 0.00000E+00
 -1      1409 7.74000E+01 4.87010E+01 0.00000E+00
 -1      1410 7.51500E+01 4.74020E+01 0.00000E+00
 -1      1411 7.89000E+01 4.87010E+01 0.00000E+00
 -1      1412 8.04000E+01 4.87010E+01 0.00000E+00
 -1      1413 7.81500E+01 4.74020E+01 0.00000E+00
 -1      1414 8.19000E+01 4.87010E+01 0.00000E+00
 -1      1415 8.34000E+01 4.87010E+01 0.00000E+00
 -1      1416 8.11500E+01 4.74020E+01 0.00000E+00
 -1      1417 8.49000E+01 4.87010E+01 0.00000E+00
 -1      1418 8.64000E+01 4.87010E+01 0.00000E+00
 -1      1419 8.41500E+01 4.74020E+01 0.00000E+00
 -1      1420 8.79000E+01 4.87010E+01 0.00000E+00
 -1      1421 8.94000E+01 4.87010E+01 0.00000E+00
 -1      1422 8.71500E+01 4.74020E+01 0.00000E+00
 -1      1423 9.09000E+01 4.87010E+01 0.00000E+00
 -1      1424 9.24000E+01 4.87010E+01 0.00000E+00
 -1      1425 9.01500E+01 4.74020E+01 0.00000E+00
 -1      1426 9.39000E+01 4.87010E+01 0.00000E+00
 -1      1427 9.54000E+01 4.87010E+01 0.00000E+00
 -1      1428 9.31500E+01 4.74020E+01 0.00000E+00
 -1      1429 9.69000E+01 4.87010E+01 0.00000E+00
 -1      1430 9.84000E+01 4.87010E+01 0.00000E+00
 -1      1431 9.61500E+01 4.74020E+01 0.00000E+00
 -1      1432 9.99000E+01 4.87010E+01 0.00000E+00
 -1      1433 1.01400E+02 4.87010E+01 0.00000E+00
 -1      1434 9.91500E+01 4.74020E+01 0.00000E+00
 -1      1435 1.02900E+02 4.87010E+01 0.00000E+00
 -1      1436 1.04400E+02 4.87010E+01 0.00000E+00
 -1      1437 1.02150E+02 4.74020E+01 0.00000E+00
 -1      1438 1.05900E+02 4.87010E+01 0.00000E+00
 -1      1439 1.07400E+02 4.87010E+01 0.00000E+00
 -1      1440 1.05150E+02 4.74020E+01 0.00000E+00
 -1      1441 1.08900E+02 4.87010E+01 0.00000E+00
 -1      1442 1.10400E+02 4.87010E+01 0.00000E+00
 -1      1443 1.08150E+02 4.74020E+01 0.00000E+00
 -1      1444 1.11900E+02 4.87010E+01 0.00000E+00
 -1      1445 1.13400E+02 4.87010E+01 0.00000E+00
 -1      1446 1.11150E+02 4.74020E+01 0.00000E+00
 -1      1447 1.14900E+02 4.87010E+01 0.00000E+00
 -1      1448 1.16400E+02 4.87010E+01 0.00000E+00
 -1      1449 1.14150E+02 4.74020E+01 0.00000E+00
 -1      1450 1.17900E+02 4.87010E+01 0.00000E+00
 -1      1451 1.19400E+02 4.87010E+01 0.00000E+00
 -1      1452 1.17150E+02 4.74020E+01 0.00000E+00
 -1      1453 1.20900E+02 4.87010E+01 0.00000E+00
 -1      1454 1.22400E+02 4.87010E+01 0.00000E+00
 -1      1455 1.20150E+02 4.74020E+01 0.00000E+00
 -1      1456 1.23900E+02 4.87010E+01 0.00000E+00
 -1      1457 1.25400E+02 4.87010E+01 0.00000E+00
 -1      1458 1.23150E+02 4.74020E+01 0.00000E+00
 -1      1459 1.26900E+02 4.87010E+01 0.00000E+00
 -1      1460 1.28400E+02 4.87010E+01 0.00000E+00
 -1      1461 1.26150E+02 4.74020E+01 0.00000E+00
 -1      1462 1.29900E+02 4.87010E+01 0.00000E+00
 -1      1463 1.31400E+02 4.87010E+01 0.00000E+00
 -1      1464 1.29150E+02 4.74020E+01 0.00000E+00
 -1      1465 1.32900E+02 4.87010E+01 0.00000E+00
 -1      1466 1.34400E+02 4.87010E+01 0.00000E+00
 -1      1467 1.32150E+02 4.74020E+01 0.00000E+00
 -1      1468 1.35900E+02 4.87010E+01 0.00000E+00
 -1      1469 1.37400E+02 4.87010E+01 0.00000E+00
 -1      1470 1.35150E+02 4.74020E+01 0.00000E+00
 -1      1471 1.38900E+02 4.87010E+01 0.00000E+00
 -1      1472 1.40400E+02 4.87010E+01 0.00000E+00
 -1      1473 1.38150E+02 4.74020E+01 0.00000E+00
 -1      1474 1.41900E+02 4.87010E+01 0.00000E+00
 -1      1475 1.43400E+02 4.87010E+01 0.00000E+00
 -1      1476 1.41150E+02 4.74020E+01 0.00000E+00
 -1      1477 1.44900E+02 4.87010E+01 0.00000E+00
 -1      1478 1.46400E+02 4.87010E+01 0.00000E+00
 -1      1479 1.44150E+02 4.74020E+01 0.00000E+00
 -1      1480 1.48575E+02 4.85500E+01 0.00000E+00
 -1      1481 1.47825E+02 4.72510E+01 0.00000E+00
 -1      1482 6.01200E+00 1.09375E+00 0.00000E+00
 -1      1483 4.51200E+00 1.09375E+00 0.00000E+00
 -1      1484 4.37400E+00 2.18750E+00 0.00000E+00
 -1      1485 9.01200E+00 1.09375E+00 0.00000E+00
 -1      1486 7.51200E+00 1.09375E+00 0.00000E+00
 -1      1487 7.37400E+00 2.18750E+00 0.00000E+00
 -1      1488 1.20120E+01 1.09375E+00 0.00000E+00
 -1      1489 1.05120E+01 1.09375E+00 0.00000E+00
 -1      1490 1.03740E+01 2.18750E+00 0.00000E+00
 -1      1491 1.50120E+01 1.09375E+00 0.00000E+00
 -1      1492 1.35120E+01 1.09375E+00 0.00000E+00
 -1      1493 1.33740E+01 2.18750E+00 0.00000E+00
 -1      1494 1.80120E+01 1.09375E+00 0.00000E+00
 -1      1495 1.65120E+01 1.09375E+00 0.00000E+00
 -1      1496 1.63740E+01 2.18750E+00 0.00000E+00
 -1      1497 2.10120E+01 1.09375E+00 0.00000E+00
 -1      1498 1.95120E+01 1.09375E+00 0.00000E+00
 -1      1499 1.93740E+01 2.18750E+00 0.00000E+00
 -1      1500 2.40120E+01 1.09375E+00 0.00000E+00
 -1      1501 2.25120E+01 1.09375E+00 0.00000E+00
 -1      1502 2.23740E+01 2.18750E+00 0.00000E+00
 -1      1503 2.70120E+01 1.09375E+00 0.00000E+00
 -1      1504 2.55120E+01 1.09375E+00 0.00000E+00
 -1      1505 2.53740E+01 2.18750E+00 0.00000E+00
 -1      1506 3.00120E+01 1.09375E+00 0.00000E+00
 -1      1507 2.85120E+01 1.09375E+00 0.00000E+00
 -1      1508 2.83740E+01 2.18750E+00 0.00000E+00
 -1      1509 3.30120E+01 1.09375E+00 0.00000E+00
 -1      1510 3.15120E+01 1.09375E+00 0.00000E+00
 -1      1511 3.13740E+01 2.18750E+00 0.00000E+00
 -1      1512 3.60120E+01 1.09375E+00 0.00000E+00
 -1      1513 3.45120E+01 1.09375E+00 0.00000E+00
 -1      1514 3.43740E+01 2.18750E+00 0.00000E+00
 -1      1515 3.90120E+01 1.09375E+00 0.00000E+00
 -1      1516 3.75120E+01 1.09375E+00 0.00000E+00
 -1      1517 3.73740E+01 2.18750E+00 0.00000E+00
 -1      1518 4.20120E+01 1.09375E+00 0.00000E+00
 -1      1519 4.05120E+01 1.09375E+00 0.00000E+00
 -1      1520 4.03740E+01 2.18750E+00 0.00000E+00
 -1      1521 4.50120E+01 1.09375E+00 0.00000E+00
 -1      1522 4.35120E+01 1.09375E+00 0.00000E+00
 -1      1523 4.33740E+01 2.18750E+00 0.00000E+00
 -1      1524 4.80120E+01 1.09375E+00 0.00000E+00
 -1      1525 4.65120E+01 1.09375E+00 0.00000E+00
 -1      1526 4.63740E+01 2.18750E+00 0.00000E+00
 -1      1527 5.10120E+01 1.09375E+00 0.00000E+00
 -1      1528 4.95120E+01 1.09375E+00 0.00000E+00
 -1      1529 4.93740E+01 2.18750E+00 0.00000E+00
 -1      1530 5.40120E+01 1.09375E+00 0.00000E+00
 -1      1531 5.25120E+01 1.09375E+00 0.00000E+00
 -1      1532 5.23740E+01 2.18750E+00 0.00000E+00
 -1      1533 5.70120E+01 1.09375E+00 0.00000E+00
 -1      1534 5.55120E+01 1.09375E+00 0.00000E+00
 -1      1535 5.53740E+01 2.18750E+00 0.00000E+00
 -1      1536 6.00120E+01 1.09375E+00 0.00000E+00
 -1      1537 5.85120E+01 1.09375E+00 0.00000E+00
 -1      1538 5.83740E+01 2.18750E+00 0.00000E+00
 -1      1539 6.30120E+01 1.09375E+00 0.00000E+00
 -1      1540 6.15120E+01 1.09375E+00 0.00000E+00
 -1      1541 6.13740E+01 2.18750E+00 0.00000E+00
 -1      1542 6.60120E+01 1.09375E+00 0.00000E+00
 -1      1543 6.45120E+01 1.09375E+00 0.00000E+00
 -1      1544 6.43740E+01 2.18750E+00 0.00000E+00
 -1      1545 6.90120E+01 1.09375E+00 0.00000E+00
 -1      1546 6.75120E+01 1.09375E+00 0.00000E+00
 -1      1547 6.73740E+01 2.18750E+00 0.00000E+00
 -1      1548 7.20120E+01 1.09375E+00 0.00000E+00
 -1      1549 7.05120E+01 1.09375E+00 0.00000E+00
 -1      1550 7.03740E+01 2.18750E+00 0.00000E+00
 -1      1551 7.50120E+01 1.09375E+00 0.00000E+00
 -1      1552 7.35120E+01 1.09375E+00 0.00000E+00
 -1      1553 7.33740E+01 2.18750E+00 0.00000E+00
 -1      1554 7.80120E+01 1.09375E+00 0.00000E+00
 -1      1555 7.65120E+01 1.09375E+00 0.00000E+00
 -1      1556 7.63740E+01 2.18750E+00 0.00000E+00
 -1      1557 8.10120E+01 1.09375E+00 0.00000E+00
 -1      1558 7.95120E+01 1.09375E+00 0.00000E+00
 -1      1559 7.93740E+01 2.18750E+00 0.00000E+00
 -1      1560 8.40120E+01 1.09375E+00 0.00000E+00
 -1      1561 8.25120E+01 1.09375E+00 0.00000E+00
 -1      1562 8.23740E+01 2.18750E+00 0.00000E+00
 -1      1563 8.70120E+01 1.09375E+00 0.00000E+00
 -1      1564 8.55120E+01 1.09375E+00 0.00000E+00
 -1      1565 8.53740E+01 2.18750E+00 0.00000E+00
 -1      1566 9.00120E+01 1.09375E+00 0.00000E+00
 -1      1567 8.85120E+01 1.09375E+00 0.00000E+00
 -1      1568 8.83740E+01 2.18750E+00 0.00000E+00
 -1      1569 9.30120E+01 1.09375E+00 0.00000E+00
 -1      1570 9.15120E+01 1.09375E+00 0.00000E+00
 -1      1571 9.13740E+01 2.18750E+00 0.00000E+00
 -1      1572 9.60120E+01 1.09375E+00 0.00000E+00
 -1      1573 9.45120E+01 1.09375E+00 0.00000E+00
 -1      1574 9.43740E+01 2.18750E+00 0.00000E+00
 -1      1575 9.90120E+01 1.09375E+00 0.00000E+00
 -1      1576 9.75120E+01 1.09375E+00 0.00000E+00
 -1      1577 9.73740E+01 2.18750E+00 0.00000E+00
 -1      1578 1.02012E+02 1.09375E+00 0.00000E+00
 -1      1579 1.00512E+02 1.09375E+00 0.00000E+00
 -1      1580 1.00374E+02 2.18750E+00 0.00000E+00
 -1      1581 1.05012E+02 1.09375E+00 0.00000E+00
 -1      1582 1.03512E+02 1.09375E+00 0.00000E+00
 -1      1583 1.03374E+02 2.18750E+00 0.00000E+00
 -1      1584 1.08012E+02 1.09375E+00 0.00000E+00
 -1      1585 1.06512E+02 1.09375E+00 0.00000E+00
 -1      1586 1.06374E+02 2.18750E+00 0.00000E+00
 -1      1587 1.11012E+02 1.09375E+00 0.00000E+00
 -1      1588 1.09512E+02 1.09375E+00 0.00000E+00
 -1      1589 1.09374E+02 2.18750E+00 0.00000E+00
 -1      1590 1.14012E+02 1.09375E+00 0.00000E+00
 -1      1591 1.12512E+02 1.09375E+00 0.00000E+00
 -1      1592 1.12374E+02 2.18750E+00 0.00000E+00
 -1      1593 1.17012E+02 1.09375E+00 0.00000E+00
 -1      1594 1.15512E+02 1.09375E+00 0.00000E+00
 -1      1595 1.15374E+02 2.18750E+00 0.00000E+00
 -1      1596 1.20012E+02 1.09375E+00 0.00000E+00
 -1      1597 1.18512E+02 1.09375E+00 0.00000E+00
 -1      1598 1.18374E+02 2.18750E+00 0.00000E+00
 -1      1599 1.23012E+02 1.09375E+00 0.00000E+00
 -1      1600 1.21512E+02 1.09375E+00 0.00000E+00
 -1      1601 1.21374E+02 2.18750E+00 0.00000E+00
 -1      1602 1.26012E+02 1.09375E+00 0.00000E+00
 -1      1603 1.24512E+02 1.09375E+00 0.00000E+00
 -1      1604 1.24374E+02 2.18750E+00 0.00000E+00
 -1      1605 1.29012E+02 1.09375E+00 0.00000E+00
 -1      1606 1.27512E+02 1.09375E+00 0.00000E+00
 -1      1607 1.27374E+02 2.18750E+00 0.00000E+00
 -1      1608 1.32012E+02 1.09375E+00 0.00000E+00
 -1      1609 1.30512E+02 1.09375E+00 0.00000E+00
 -1      1610 1.30374E+02 2.18750E+00 0.00000E+00
 -1      1611 1.35012E+02 1.09375E+00 0.00000E+00
 -1      1612 1.33512E+02 1.09375E+00 0.00000E+00
 -1      1613 1.33374E+02 2.18750E+00 0.00000E+00
 -1      1614 1.38012E+02 1.09375E+00 0.00000E+00
 -1      1615 1.36512E+02 1.09375E+00 0.00000E+00
 -1      1616 1.36374E+02 2.18750E+00 0.00000E+00
 -1      1617 1.41012E+02 1.09375E+00 0.00000E+00
 -1      1618 1.39512E+02 1.09375E+00 0.00000E+00
 -1      1619 1.39374E+02 2.18750E+00 0.00000E+00
 -1      1620 1.44012E+02 1.09375E+00 0.00000E+00
 -1      1621 1.42512E+02 1.09375E+00 0.00000E+00
 -1      1622 1.42374E+02 2.18750E+00 0.00000E+00
 -1      1623 1.47012E+02 1.09375E+00 0.00000E+00
 -1      1624 1.45512E+02 1.09375E+00 0.00000E+00
 -1      1625 1.45374E+02 2.18750E+00 0.00000E+00
 -1      1626 1.48575E+02 1.47500E+00 0.00000E+00
 -1      1627 1.48701E+02 5.16250E+00 0.00000E+00
 -1      1628 1.48701E+02 3.68750E+00 0.00000E+00
 -1      1629 1.48701E+02 8.11250E+00 0.00000E+00
 -1      1630 1.48701E+02 6.63750E+00 0.00000E+00
 -1      1631 1.47402E+02 5.90000E+00 0.00000E+00
 -1      1632 1.48701E+02 1.10625E+01 0.00000E+00
 -1      1633 1.48701E+02 9.58750E+00 0.00000E+00
 -1      1634 1.47402E+02 8.85000E+00 0.00000E+00
 -1      1635 1.48701E+02 1.40125E+01 0.00000E+00
 -1      1636 1.48701E+02 1.25375E+01 0.00000E+00
 -1      1637 1.47402E+02 1.18000E+01 0.00000E+00
 -1      1638 1.48701E+02 1.69125E+01 0.00000E+00
 -1      1639 1.48701E+02 1.54625E+01 0.00000E+00
 -1      1640 1.47402E+02 1.47250E+01 0.00000E+00
 -1      1641 1.48701E+02 1.98625E+01 0.00000E+00
 -1      1642 1.48701E+02 1.83875E+01 0.00000E+00
 -1      1643 1.47402E+02 1.76500E+01 0.00000E+00
 -1      1644 1.48701E+02 2.28125E+01 0.00000E+00
 -1      1645 1.48701E+02 2.13375E+01 0.00000E+00
 -1      1646 1.47402E+02 2.06000E+01 0.00000E+00
 -1      1647 1.48701E+02 2.57625E+01 0.00000E+00
 -1      1648 1.48701E+02 2.42875E+01 0.00000E+00
 -1      1649 1.47402E+02 2.35500E+01 0.00000E+00
 -1      1650 1.48701E+02 2.87125E+01 0.00000E+00
 -1      1651 1.48701E+02 2.72375E+01 0.00000E+00
 -1      1652 1.47402E+02 2.65000E+01 0.00000E+00
 -1      1653 1.48701E+02 3.16625E+01 0.00000E+00
 -1      1654 1.48701E+02 3.01875E+01 0.00000E+00
 -1      1655 1.47402E+02 2.94500E+01 0.00000E+00
 -1      1656 1.48701E+02 3.45625E+01 0.00000E+00
 -1      1657 1.48701E+02 3.31125E+01 0.00000E+00
 -1      1658 1.47402E+02 3.23750E+01 0.00000E+00
 -1      1659 1.48701E+02 3.75125E+01 0.00000E+00
 -1      1660 1.48701E+02 3.60375E+01 0.00000E+00
 -1      1661 1.47402E+02 3.53000E+01 0.00000E+00
 -1      1662 1.48701E+02 4.04625E+01 0.00000E+00
 -1      1663 1.48701E+02 3.89875E+01 0.00000E+00
 -1      1664 1.47402E+02 3.82500E+01 0.00000E+00
 -1      1665 1.48701E+02 4.34125E+01 0.00000E+00
 -1      1666 1.48701E+02 4.19375E+01 0.00000E+00
 -1      1667 1.47402E+02 4.12000E+01 0.00000E+00
 -1      1668 1.48263E+02 4.60692E+01 0.00000E+00
 -1      1669 1.48263E+02 4.45942E+01 0.00000E+00
 -1      1670 1.46964E+02 4.38568E+01 0.00000E+00
 -1      1671 1.46088E+02 4.62202E+01 0.00000E+00
 -1      1672 7.36598E+01 2.54439E+01 0.00000E+00
 -1      1673 7.37427E+01 2.62015E+01 0.00000E+00
 -1      1674 7.32019E+01 2.39053E+01 0.00000E+00
 -1      1675 7.34333E+01 2.45974E+01 0.00000E+00
 -1      1676 7.24862E+01 2.23706E+01 0.00000E+00
 -1      1677 7.28972E+01 2.30542E+01 0.00000E+00
 -1      1678 7.14092E+01 2.12032E+01 0.00000E+00
 -1      1679 7.18901E+01 2.17134E+01 0.00000E+00
 -1      1680 7.01755E+01 2.02383E+01 0.00000E+00
 -1      1681 7.07751E+01 2.06574E+01 0.00000E+00
 -1      1682 6.87710E+01 1.94574E+01 0.00000E+00
 -1      1683 6.94547E+01 1.97458E+01 0.00000E+00
 -1      1684 6.71595E+01 1.91032E+01 0.00000E+00
 -1      1685 6.79063E+01 1.92423E+01 0.00000E+00
 -1      1686 6.55583E+01 1.90122E+01 0.00000E+00
 -1      1687 6.62846E+01 1.89915E+01 0.00000E+00
 -1      1688 6.38705E+01 1.92524E+01 0.00000E+00
 -1      1689 6.46410E+01 1.90587E+01 0.00000E+00
 -1      1690 6.22438E+01 1.99658E+01 0.00000E+00
 -1      1691 6.29611E+01 1.95964E+01 0.00000E+00
 -1      1692 6.08207E+01 2.10312E+01 0.00000E+00
 -1      1693 6.14318E+01 2.05101E+01 0.00000E+00
 -1      1694 5.98875E+01 2.23692E+01 0.00000E+00
 -1      1695 6.03183E+01 2.17996E+01 0.00000E+00
 -1      1696 5.90300E+01 2.38141E+01 0.00000E+00
 -1      1697 5.93626E+01 2.30920E+01 0.00000E+00
 -1      1698 5.86623E+01 2.54405E+01 0.00000E+00
 -1      1699 5.88192E+01 2.47050E+01 0.00000E+00
 -1      1700 5.85358E+01 2.70788E+01 0.00000E+00
 -1      1701 5.85310E+01 2.63187E+01 0.00000E+00
 -1      1702 5.87889E+01 2.87842E+01 0.00000E+00
 -1      1703 5.86060E+01 2.80028E+01 0.00000E+00
 -1      1704 5.94358E+01 3.03514E+01 0.00000E+00
 -1      1705 5.91001E+01 2.96641E+01 0.00000E+00
 -1      1706 6.03803E+01 3.16394E+01 0.00000E+00
 -1      1707 5.99363E+01 3.10750E+01 0.00000E+00
 -1      1708 6.15605E+01 3.27377E+01 0.00000E+00
 -1      1709 6.09848E+01 3.22585E+01 0.00000E+00
 -1      1710 6.29723E+01 3.35325E+01 0.00000E+00
 -1      1711 6.23126E+01 3.31887E+01 0.00000E+00
 -1      1712 6.44680E+01 3.40414E+01 0.00000E+00
 -1      1713 6.37696E+01 3.38479E+01 0.00000E+00
 -1      1714 6.61631E+01 3.43877E+01 0.00000E+00
 -1      1715 6.53481E+01 3.43471E+01 0.00000E+00
 -1      1716 6.77716E+01 3.40510E+01 0.00000E+00
 -1      1717 6.70649E+01 3.41721E+01 0.00000E+00
 -1      1718 6.93309E+01 3.35658E+01 0.00000E+00
 -1      1719 6.86198E+01 3.38515E+01 0.00000E+00
 -1      1720 7.09536E+01 3.27018E+01 0.00000E+00
 -1      1721 7.02458E+01 3.32027E+01 0.00000E+00
 -1      1722 7.20169E+01 3.14363E+01 0.00000E+00
 -1      1723 7.15471E+01 3.19614E+01 0.00000E+00
 -1      1724 7.29586E+01 3.01387E+01 0.00000E+00
 -1      1725 7.25850E+01 3.07886E+01 0.00000E+00
 -1      1726 7.34483E+01 2.86592E+01 0.00000E+00
 -1      1727 7.32319E+01 2.93246E+01 0.00000E+00
 -1      1728 7.37444E+01 2.70922E+01 0.00000E+00
 -1      1729 7.36644E+01 2.78363E+01 0.00000E+00
 -1      1730 7.14567E+01 2.04968E+01 0.00000E+00
 -1      1731 7.26869E+01 2.16997E+01 0.00000E+00
 -1      1732 1.48437E+02 2.56875E+00 0.00000E+00
 -1      1733 1.47138E+02 3.30625E+00 0.00000E+00
 -1      1734 7.41190E+01 2.49057E+01 0.00000E+00
 -1      1735 7.35878E+01 2.32080E+01 0.00000E+00
 -1      1736 7.43471E+01 2.66429E+01 0.00000E+00
 -1      1737 7.01018E+01 1.94584E+01 0.00000E+00
 -1      1738 6.85163E+01 1.87507E+01 0.00000E+00
 -1      1739 6.67767E+01 1.84239E+01 0.00000E+00
 -1      1740 6.49845E+01 1.83587E+01 0.00000E+00
 -1      1741 6.31577E+01 1.87492E+01 0.00000E+00
 -1      1742 6.14362E+01 1.96375E+01 0.00000E+00
 -1      1743 6.01218E+01 2.09503E+01 0.00000E+00
 -1      1744 5.90945E+01 2.24416E+01 0.00000E+00
 -1      1745 5.83587E+01 2.40554E+01 0.00000E+00
 -1      1746 5.80166E+01 2.58246E+01 0.00000E+00
 -1      1747 5.79555E+01 2.76268E+01 0.00000E+00
 -1      1748 5.83368E+01 2.94307E+01 0.00000E+00
 -1      1749 5.91485E+01 3.10343E+01 0.00000E+00
 -1      1750 6.02535E+01 3.23771E+01 0.00000E+00
 -1      1751 6.16101E+01 3.34472E+01 0.00000E+00
 -1      1752 6.31596E+01 3.42135E+01 0.00000E+00
 -1      1753 6.48370E+01 3.48345E+01 0.00000E+00
 -1      1754 6.66189E+01 3.49246E+01 0.00000E+00
 -1      1755 6.83688E+01 3.45096E+01 0.00000E+00
 -1      1756 7.01318E+01 3.39470E+01 0.00000E+00
 -1      1757 7.16402E+01 3.28435E+01 0.00000E+00
 -1      1758 7.28019E+01 3.14553E+01 0.00000E+00
 -1      1759 7.36433E+01 2.99934E+01 0.00000E+00
 -1      1760 7.41327E+01 2.83564E+01 0.00000E+00
 -1      1761 2.87400E+00 4.77875E+01 0.00000E+00
 -1      1762 3.89700E+00 4.04125E+01 0.00000E+00
 -1      1763 3.89700E+00 4.18875E+01 0.00000E+00
 -1      1764 3.89700E+00 4.33625E+01 0.00000E+00
 -1      1765 3.89700E+00 4.48375E+01 0.00000E+00
 -1      1766 5.19600E+00 4.26250E+01 0.00000E+00
 -1      1767 3.89700E+00 3.45500E+01 0.00000E+00
 -1      1768 3.89700E+00 3.60000E+01 0.00000E+00
 -1      1769 3.89700E+00 3.16000E+01 0.00000E+00
 -1      1770 3.89700E+00 3.30750E+01 0.00000E+00
 -1      1771 5.19600E+00 3.38000E+01 0.00000E+00
 -1      1772 3.89700E+00 2.86500E+01 0.00000E+00
 -1      1773 3.89700E+00 3.01250E+01 0.00000E+00
 -1      1774 5.19600E+00 3.08500E+01 0.00000E+00
 -1      1775 3.89700E+00 2.57000E+01 0.00000E+00
 -1      1776 3.89700E+00 2.71750E+01 0.00000E+00
 -1      1777 5.19600E+00 2.79000E+01 0.00000E+00
 -1      1778 3.89700E+00 2.27500E+01 0.00000E+00
 -1      1779 3.89700E+00 2.42250E+01 0.00000E+00
 -1      1780 5.19600E+00 2.49500E+01 0.00000E+00
 -1      1781 3.89700E+00 1.98000E+01 0.00000E+00
 -1      1782 3.89700E+00 2.12750E+01 0.00000E+00
 -1      1783 5.19600E+00 2.20000E+01 0.00000E+00
 -1      1784 3.89700E+00 1.69000E+01 0.00000E+00
 -1      1785 3.89700E+00 1.83500E+01 0.00000E+00
 -1      1786 5.19600E+00 1.90750E+01 0.00000E+00
 -1      1787 3.89700E+00 1.39500E+01 0.00000E+00
 -1      1788 3.89700E+00 1.54250E+01 0.00000E+00
 -1      1789 5.19600E+00 1.61500E+01 0.00000E+00
 -1      1790 3.89700E+00 1.10000E+01 0.00000E+00
 -1      1791 3.89700E+00 1.24750E+01 0.00000E+00
 -1      1792 5.19600E+00 1.32000E+01 0.00000E+00
 -1      1793 3.89700E+00 8.05000E+00 0.00000E+00
 -1      1794 3.89700E+00 9.52500E+00 0.00000E+00
 -1      1795 5.19600E+00 1.02500E+01 0.00000E+00
 -1      1796 3.89700E+00 5.10000E+00 0.00000E+00
 -1      1797 3.89700E+00 6.57500E+00 0.00000E+00
 -1      1798 5.19600E+00 7.30000E+00 0.00000E+00
 -1      1799 4.20450E+00 3.09687E+00 0.00000E+00
 -1      1800 4.06650E+00 4.19063E+00 0.00000E+00
 -1      1801 5.36550E+00 4.91563E+00 0.00000E+00
 -1      1802 5.70450E+00 3.09687E+00 0.00000E+00
 -1      1803 3.62400E+00 4.64885E+01 0.00000E+00
 -1      1804 8.70450E+00 3.09687E+00 0.00000E+00
 -1      1805 7.20450E+00 3.09687E+00 0.00000E+00
 -1      1806 7.03500E+00 4.00625E+00 0.00000E+00
 -1      1807 4.92300E+00 4.57510E+01 0.00000E+00
 -1      1808 8.40000E+00 4.61030E+01 0.00000E+00
 -1      1809 9.90000E+00 4.61030E+01 0.00000E+00
 -1      1810 1.14000E+01 4.61030E+01 0.00000E+00
 -1      1811 1.29000E+01 4.61030E+01 0.00000E+00
 -1      1812 1.06500E+01 4.48040E+01 0.00000E+00
 -1      1813 1.44000E+01 4.61030E+01 0.00000E+00
 -1      1814 1.59000E+01 4.61030E+01 0.00000E+00
 -1      1815 1.36500E+01 4.48040E+01 0.00000E+00
 -1      1816 1.74000E+01 4.61030E+01 0.00000E+00
 -1      1817 1.89000E+01 4.61030E+01 0.00000E+00
 -1      1818 1.66500E+01 4.48040E+01 0.00000E+00
 -1      1819 2.04000E+01 4.61030E+01 0.00000E+00
 -1      1820 2.19000E+01 4.61030E+01 0.00000E+00
 -1      1821 1.96500E+01 4.48040E+01 0.00000E+00
 -1      1822 2.34000E+01 4.61030E+01 0.00000E+00
 -1      1823 2.49000E+01 4.61030E+01 0.00000E+00
 -1      1824 2.26500E+01 4.48040E+01 0.00000E+00
 -1      1825 2.64000E+01 4.61030E+01 0.00000E+00
 -1      1826 2.79000E+01 4.61030E+01 0.00000E+00
 -1      1827 2.56500E+01 4.48040E+01 0.00000E+00
 -1      1828 2.94000E+01 4.61030E+01 0.00000E+00
 -1      1829 3.09000E+01 4.61030E+01 0.00000E+00
 -1      1830 2.86500E+01 4.48040E+01 0.00000E+00
 -1      1831 3.24000E+01 4.61030E+01 0.00000E+00
 -1      1832 3.39000E+01 4.61030E+01 0.00000E+00
 -1      1833 3.16500E+01 4.48040E+01 0.00000E+00
 -1      1834 3.54000E+01 4.61030E+01 0.00000E+00
 -1      1835 3.69000E+01 4.61030E+01 0.00000E+00
 -1      1836 3.46500E+01 4.48040E+01 0.00000E+00
 -1      1837 3.84000E+01 4.61030E+01 0.00000E+00
 -1      1838 3.99000E+01 4.61030E+01 0.00000E+00
 -1      1839 3.76500E+01 4.48040E+01 0.00000E+00
 -1      1840 4.14000E+01 4.61030E+01 0.00000E+00
 -1      1841 4.29000E+01 4.61030E+01 0.00000E+00
 -1      1842 4.06500E+01 4.48040E+01 0.00000E+00
 -1      1843 4.44000E+01 4.61030E+01 0.00000E+00
 -1      1844 4.59000E+01 4.61030E+01 0.00000E+00
 -1      1845 4.36500E+01 4.48040E+01 0.00000E+00
 -1      1846 4.74000E+01 4.61030E+01 0.00000E+00
 -1      1847 4.89000E+01 4.61030E+01 0.00000E+00
 -1      1848 4.66500E+01 4.48040E+01 0.00000E+00
 -1      1849 5.04000E+01 4.61030E+01 0.00000E+00
 -1      1850 5.19000E+01 4.61030E+01 0.00000E+00
 -1      1851 4.96500E+01 4.48040E+01 0.00000E+00
 -1      1852 5.34000E+01 4.61030E+01 0.00000E+00
 -1      1853 5.49000E+01 4.61030E+01 0.00000E+00
 -1      1854 5.26500E+01 4.48040E+01 0.00000E+00
 -1      1855 5.64000E+01 4.61030E+01 0.00000E+00
 -1      1856 5.79000E+01 4.61030E+01 0.00000E+00
 -1      1857 5.56500E+01 4.48040E+01 0.00000E+00
 -1      1858 5.94000E+01 4.61030E+01 0.00000E+00
 -1      1859 6.09000E+01 4.61030E+01 0.00000E+00
 -1      1860 5.86500E+01 4.48040E+01 0.00000E+00
 -1      1861 6.24000E+01 4.61030E+01 0.00000E+00
 -1      1862 6.39000E+01 4.61030E+01 0.00000E+00
 -1      1863 6.16500E+01 4.48040E+01 0.00000E+00
 -1      1864 6.54000E+01 4.61030E+01 0.00000E+00
 -1      1865 6.69000E+01 4.61030E+01 0.00000E+00
 -1      1866 6.46500E+01 4.48040E+01 0.00000E+00
 -1      1867 6.84000E+01 4.61030E+01 0.00000E+00
 -1      1868 6.99000E+01 4.61030E+01 0.00000E+00
 -1      1869 6.76500E+01 4.48040E+01 0.00000E+00
 -1      1870 7.14000E+01 4.61030E+01 0.00000E+00
 -1      1871 7.29000E+01 4.61030E+01 0.00000E+00
 -1      1872 7.06500E+01 4.48040E+01 0.00000E+00
 -1      1873 7.44000E+01 4.61030E+01 0.00000E+00
 -1      1874 7.59000E+01 4.61030E+01 0.00000E+00
 -1      1875 7.36500E+01 4.48040E+01 0.00000E+00
 -1      1876 7.74000E+01 4.61030E+01 0.00000E+00
 -1      1877 7.89000E+01 4.61030E+01 0.00000E+00
 -1      1878 7.66500E+01 4.48040E+01 0.00000E+00
 -1      1879 8.04000E+01 4.61030E+01 0.00000E+00
 -1      1880 8.19000E+01 4.61030E+01 0.00000E+00
 -1      1881 7.96500E+01 4.48040E+01 0.00000E+00
 -1      1882 8.34000E+01 4.61030E+01 0.00000E+00
 -1      1883 8.49000E+01 4.61030E+01 0.00000E+00
 -1      1884 8.26500E+01 4.48040E+01 0.00000E+00
 -1      1885 8.64000E+01 4.61030E+01 0.00000E+00
 -1      1886 8.79000E+01 4.61030E+01 0.00000E+00
 -1      1887 8.56500E+01 4.48040E+01 0.00000E+00
 -1      1888 8.94000E+01 4.61030E+01 0.00000E+00
 -1      1889 9.09000E+01 4.61030E+01 0.00000E+00
 -1      1890 8.86500E+01 4.48040E+01 0.00000E+00
 -1      1891 9.24000E+01 4.61030E+01 0.00000E+00
 -1      1892 9.39000E+01 4.61030E+01 0.00000E+00
 -1      1893 9.16500E+01 4.48040E+01 0.00000E+00
 -1      1894 9.54000E+01 4.61030E+01 0.00000E+00
 -1      1895 9.69000E+01 4.61030E+01 0.00000E+00
 -1      1896 9.46500E+01 4.48040E+01 0.00000E+00
 -1      1897 9.84000E+01 4.61030E+01 0.00000E+00
 -1      1898 9.99000E+01 4.61030E+01 0.00000E+00
 -1      1899 9.76500E+01 4.48040E+01 0.00000E+00
 -1      1900 1.01400E+02 4.61030E+01 0.00000E+00
 -1      1901 1.02900E+02 4.61030E+01 0.00000E+00
 -1      1902 1.00650E+02 4.48040E+01 0.00000E+00
 -1      1903 1.04400E+02 4.61030E+01 0.00000E+00
 -1      1904 1.05900E+02 4.61030E+01 0.00000E+00
 -1      1905 1.03650E+02 4.48040E+01 0.00000E+00
 -1      1906 1.07400E+02 4.61030E+01 0.00000E+00
 -1      1907 1.08900E+02 4.61030E+01 0.00000E+00
 -1      1908 1.06650E+02 4.48040E+01 0.00000E+00
 -1      1909 1.10400E+02 4.61030E+01 0.00000E+00
 -1      1910 1.11900E+02 4.61030E+01 0.00000E+00
 -1      1911 1.09650E+02 4.48040E+01 0.00000E+00
 -1      1912 1.13400E+02 4.61030E+01 0.00000E+00
 -1      1913 1.14900E+02 4.61030E+01 0.00000E+00
 -1      1914 1.12650E+02 4.48040E+01 0.00000E+00
 -1      1915 1.16400E+02 4.61030E+01 0.00000E+00
 -1      1916 1.17900E+02 4.61030E+01 0.00000E+00
 -1      1917 1.15650E+02 4.48040E+01 0.00000E+00
 -1      1918 1.19400E+02 4.61030E+01 0.00000E+00
 -1      1919 1.20900E+02 4.61030E+01 0.00000E+00
 -1      1920 1.18650E+02 4.48040E+01 0.00000E+00
 -1      1921 1.22400E+02 4.61030E+01 0.00000E+00
 -1      1922 1.23900E+02 4.61030E+01 0.00000E+00
 -1      1923 1.21650E+02 4.48040E+01 0.00000E+00
 -1      1924 1.25400E+02 4.61030E+01 0.00000E+00
 -1      1925 1.26900E+02 4.61030E+01 0.00000E+00
 -1      1926 1.24650E+02 4.48040E+01 0.00000E+00
 -1      1927 1.28400E+02 4.61030E+01 0.00000E+00
 -1      1928 1.29900E+02 4.61030E+01 0.00000E+00
 -1      1929 1.27650E+02 4.48040E+01 0.00000E+00
 -1      1930 1.31400E+02 4.61030E+01 0.00000E+00
 -1      1931 1.32900E+02 4.61030E+01 0.00000E+00
 -1      1932 1.30650E+02 4.48040E+01 0.00000E+00
 -1      1933 1.34400E+02 4.61030E+01 0.00000E+00
 -1      1934 1.35900E+02 4.61030E+01 0.00000E+00
 -1      1935 1.33650E+02 4.48040E+01 0.00000E+00
 -1      1936 1.37400E+02 4.61030E+01 0.00000E+00
 -1      1937 1.38900E+02 4.61030E+01 0.00000E+00
 -1      1938 1.36650E+02 4.48040E+01 0.00000E+00
 -1      1939 1.40400E+02 4.61030E+01 0.00000E+00
 -1      1940 1.41900E+02 4.61030E+01 0.00000E+00
 -1      1941 1.39650E+02 4.48040E+01 0.00000E+00
 -1      1942 1.43244E+02 4.61616E+01 0.00000E+00
 -1      1943 1.44744E+02 4.61616E+01 0.00000E+00
 -1      1944 1.45182E+02 4.49799E+01 0.00000E+00
 -1      1945 1.42494E+02 4.48626E+01 0.00000E+00
 -1      1946 1.17045E+01 3.09687E+00 0.00000E+00
 -1      1947 1.02045E+01 3.09687E+00 0.00000E+00
 -1      1948 1.00350E+01 4.00625E+00 0.00000E+00
 -1      1949 1.47045E+01 3.09687E+00 0.00000E+00
 -1      1950 1.32045E+01 3.09687E+00 0.00000E+00
 -1      1951 1.30350E+01 4.00625E+00 0.00000E+00
 -1      1952 1.77045E+01 3.09687E+00 0.00000E+00
 -1      1953 1.62045E+01 3.09687E+00 0.00000E+00
 -1      1954 1.60350E+01 4.00625E+00 0.00000E+00
 -1      1955 2.07045E+01 3.09687E+00 0.00000E+00
 -1      1956 1.92045E+01 3.09687E+00 0.00000E+00
 -1      1957 1.90350E+01 4.00625E+00 0.00000E+00
 -1      1958 2.37045E+01 3.09687E+00 0.00000E+00
 -1      1959 2.22045E+01 3.09687E+00 0.00000E+00
 -1      1960 2.20350E+01 4.00625E+00 0.00000E+00
 -1      1961 2.67045E+01 3.09687E+00 0.00000E+00
 -1      1962 2.52045E+01 3.09687E+00 0.00000E+00
 -1      1963 2.50350E+01 4.00625E+00 0.00000E+00
 -1      1964 2.97045E+01 3.09687E+00 0.00000E+00
 -1      1965 2.82045E+01 3.09687E+00 0.00000E+00
 -1      1966 2.80350E+01 4.00625E+00 0.00000E+00
 -1      1967 3.27045E+01 3.09687E+00 0.00000E+00
 -1      1968 3.12045E+01 3.09687E+00 0.00000E+00
 -1      1969 3.10350E+01 4.00625E+00 0.00000E+00
 -1      1970 3.57045E+01 3.09687E+00 0.00000E+00
 -1      1971 3.42045E+01 3.09687E+00 0.00000E+00
 -1      1972 3.40350E+01 4.00625E+00 0.00000E+00
 -1      1973 3.87045E+01 3.09687E+00 0.00000E+00
 -1      1974 3.72045E+01 3.09687E+00 0.00000E+00
 -1      1975 3.70350E+01 4.00625E+00 0.00000E+00
 -1      1976 4.17045E+01 3.09687E+00 0.00000E+00
 -1      1977 4.02045E+01 3.09687E+00 0.00000E+00
 -1      1978 4.00350E+01 4.00625E+00 0.00000E+00
 -1      1979 4.47045E+01 3.09687E+00 0.00000E+00
 -1      1980 4.32045E+01 3.09687E+00 0.00000E+00
 -1      1981 4.30350E+01 4.00625E+00 0.00000E+00
 -1      1982 4.77045E+01 3.09687E+00 0.00000E+00
 -1      1983 4.62045E+01 3.09687E+00 0.00000E+00
 -1      1984 4.60350E+01 4.00625E+00 0.00000E+00
 -1      1985 5.07045E+01 3.09687E+00 0.00000E+00
 -1      1986 4.92045E+01 3.09687E+00 0.00000E+00
 -1      1987 4.90350E+01 4.00625E+00 0.00000E+00
 -1      1988 5.37045E+01 3.09687E+00 0.00000E+00
 -1      1989 5.22045E+01 3.09687E+00 0.00000E+00
 -1      1990 5.20350E+01 4.00625E+00 0.00000E+00
 -1      1991 5.67045E+01 3.09687E+00 0.00000E+00
 -1      1992 5.52045E+01 3.09687E+00 0.00000E+00
 -1      1993 5.50350E+01 4.00625E+00 0.00000E+00
 -1      1994 5.97045E+01 3.09687E+00 0.00000E+00
 -1      1995 5.82045E+01 3.09687E+00 0.00000E+00
 -1      1996 5.80350E+01 4.00625E+00 0.00000E+00
 -1      1997 6.27045E+01 3.09687E+00 0.00000E+00
 -1      1998 6.12045E+01 3.09687E+00 0.00000E+00
 -1      1999 6.10350E+01 4.00625E+00 0.00000E+00
 -1      2000 6.57045E+01 3.09687E+00 0.00000E+00
 -1      2001 6.42045E+01 3.09687E+00 0.00000E+00
 -1      2002 6.40350E+01 4.00625E+00 0.00000E+00
 -1      2003 6.87045E+01 3.09687E+00 0.00000E+00
 -1      2004 6.72045E+01 3.09687E+00 0.00000E+00
 -1      2005 6.70350E+01 4.00625E+00 0.00000E+00
 -1      2006 7.17045E+01 3.09687E+00 0.00000E+00
 -1      2007 7.02045E+01 3.09687E+00 0.00000E+00
 -1      2008 7.00350E+01 4.00625E+00 0.00000E+00
 -1      2009 7.47045E+01 3.09687E+00 0.00000E+00
 -1      2010 7.32045E+01 3.09687E+00 0.00000E+00
 -1      2011 7.30350E+01 4.00625E+00 0.00000E+00
 -1      2012 7.77045E+01 3.09687E+00 0.00000E+00
 -1      2013 7.62045E+01 3.09687E+00 0.00000E+00
 -1      2014 7.60350E+01 4.00625E+00 0.00000E+00
 -1      2015 8.07045E+01 3.09687E+00 0.00000E+00
 -1      2016 7.92045E+01 3.09687E+00 0.00000E+00
 -1      2017 7.90350E+01 4.00625E+00 0.00000E+00
 -1      2018 8.37045E+01 3.09687E+00 0.00000E+00
 -1      2019 8.22045E+01 3.09687E+00 0.00000E+00
 -1      2020 8.20350E+01 4.00625E+00 0.00000E+00
 -1      2021 8.67045E+01 3.09687E+00 0.00000E+00
 -1      2022 8.52045E+01 3.09687E+00 0.00000E+00
 -1      2023 8.50350E+01 4.00625E+00 0.00000E+00
 -1      2024 8.97045E+01 3.09687E+00 0.00000E+00
 -1      2025 8.82045E+01 3.09687E+00 0.00000E+00
 -1      2026 8.80350E+01 4.00625E+00 0.00000E+00
 -1      2027 9.27045E+01 3.09687E+00 0.00000E+00
 -1      2028 9.12045E+01 3.09687E+00 0.00000E+00
 -1      2029 9.10350E+01 4.00625E+00 0.00000E+00
 -1      2030 9.57045E+01 3.09687E+00 0.00000E+00
 -1      2031 9.42045E+01 3.09687E+00 0.00000E+00
 -1      2032 9.40350E+01 4.00625E+00 0.00000E+00
 -1      2033 9.87045E+01 3.09687E+00 0.00000E+00
 -1      2034 9.72045E+01 3.09687E+00 0.00000E+00
 -1      2035 9.70350E+01 4.00625E+00 0.00000E+00
 -1      2036 1.01704E+02 3.09687E+00 0.00000E+00
 -1      2037 1.00204E+02 3.09687E+00 0.00000E+00
 -1      2038 1.00035E+02 4.00625E+00 0.00000E+00
 -1      2039 1.04704E+02 3.09687E+00 0.00000E+00
 -1      2040 1.03204E+02 3.09687E+00 0.00000E+00
 -1      2041 1.03035E+02 4.00625E+00 0.00000E+00
 -1      2042 1.07704E+02 3.09687E+00 0.00000E+00
 -1      2043 1.06204E+02 3.09687E+00 0.00000E+00
 -1      2044 1.06035E+02 4.00625E+00 0.00000E+00
 -1      2045 1.10704E+02 3.09687E+00 0.00000E+00
 -1      2046 1.09204E+02 3.09687E+00 0.00000E+00
 -1      2047 1.09035E+02 4.00625E+00 0.00000E+00
 -1      2048 1.13704E+02 3.09687E+00 0.00000E+00
 -1      2049 1.12204E+02 3.09687E+00 0.00000E+00
 -1      2050 1.12035E+02 4.00625E+00 0.00000E+00
 -1      2051 1.16704E+02 3.09687E+00 0.00000E+00
 -1      2052 1.15204E+02 3.09687E+00 0.00000E+00
 -1      2053 1.15035E+02 4.00625E+00 0.00000E+00
 -1      2054 1.19704E+02 3.09687E+00 0.00000E+00
 -1      2055 1.18204E+02 3.09687E+00 0.00000E+00
 -1      2056 1.18035E+02 4.00625E+00 0.00000E+00
 -1      2057 1.22704E+02 3.09687E+00 0.00000E+00
 -1      2058 1.21204E+02 3.09687E+00 0.00000E+00
 -1      2059 1.21035E+02 4.00625E+00 0.00000E+00
 -1      2060 1.25704E+02 3.09687E+00 0.00000E+00
 -1      2061 1.24204E+02 3.09687E+00 0.00000E+00
 -1      2062 1.24035E+02 4.00625E+00 0.00000E+00
 -1      2063 1.28704E+02 3.09687E+00 0.00000E+00
 -1      2064 1.27204E+02 3.09687E+00 0.00000E+00
 -1      2065 1.27035E+02 4.00625E+00 0.00000E+00
 -1      2066 1.31704E+02 3.09687E+00 0.00000E+00
 -1      2067 1.30204E+02 3.09687E+00 0.00000E+00
 -1      2068 1.30035E+02 4.00625E+00 0.00000E+00
 -1      2069 1.34704E+02 3.09687E+00 0.00000E+00
 -1      2070 1.33204E+02 3.09687E+00 0.00000E+00
 -1      2071 1.33035E+02 4.00625E+00 0.00000E+00
 -1      2072 1.37704E+02 3.09687E+00 0.00000E+00
 -1      2073 1.36204E+02 3.09687E+00 0.00000E+00
 -1      2074 1.36035E+02 4.00625E+00 0.00000E+00
 -1      2075 1.40704E+02 3.09687E+00 0.00000E+00
 -1      2076 1.39204E+02 3.09687E+00 0.00000E+00
 -1      2077 1.39035E+02 4.00625E+00 0.00000E+00
 -1      2078 1.43704E+02 3.09687E+00 0.00000E+00
 -1      2079 1.42204E+02 3.09687E+00 0.00000E+00
 -1      2080 1.42035E+02 4.00625E+00 0.00000E+00
 -1      2081 1.46171E+02 3.20156E+00 0.00000E+00
 -1      2082 1.44671E+02 3.20156E+00 0.00000E+00
 -1      2083 1.44502E+02 4.11094E+00 0.00000E+00
 -1      2084 1.46435E+02 4.32031E+00 0.00000E+00
 -1      2085 1.46103E+02 1.25375E+01 0.00000E+00
 -1      2086 1.46103E+02 1.10625E+01 0.00000E+00
 -1      2087 1.46103E+02 9.58750E+00 0.00000E+00
 -1      2088 1.46103E+02 8.11250E+00 0.00000E+00
 -1      2089 1.44804E+02 1.03250E+01 0.00000E+00
 -1      2090 1.46269E+02 6.95391E+00 0.00000E+00
 -1      2091 1.46269E+02 5.47891E+00 0.00000E+00
 -1      2092 1.45302E+02 5.37422E+00 0.00000E+00
 -1      2093 1.44970E+02 7.69141E+00 0.00000E+00
 -1      2094 1.46103E+02 1.54375E+01 0.00000E+00
 -1      2095 1.46103E+02 1.39875E+01 0.00000E+00
 -1      2096 1.44804E+02 1.32500E+01 0.00000E+00
 -1      2097 1.46103E+02 1.83875E+01 0.00000E+00
 -1      2098 1.46103E+02 1.69125E+01 0.00000E+00
 -1      2099 1.44804E+02 1.61750E+01 0.00000E+00
 -1      2100 1.46103E+02 2.13375E+01 0.00000E+00
 -1      2101 1.46103E+02 1.98625E+01 0.00000E+00
 -1      2102 1.44804E+02 1.91250E+01 0.00000E+00
 -1      2103 1.46103E+02 2.42875E+01 0.00000E+00
 -1      2104 1.46103E+02 2.28125E+01 0.00000E+00
 -1      2105 1.44804E+02 2.20750E+01 0.00000E+00
 -1      2106 1.46103E+02 2.72375E+01 0.00000E+00
 -1      2107 1.46103E+02 2.57625E+01 0.00000E+00
 -1      2108 1.44804E+02 2.50250E+01 0.00000E+00
 -1      2109 1.46103E+02 3.01875E+01 0.00000E+00
 -1      2110 1.46103E+02 2.87125E+01 0.00000E+00
 -1      2111 1.44804E+02 2.79750E+01 0.00000E+00
 -1      2112 1.46103E+02 3.30875E+01 0.00000E+00
 -1      2113 1.46103E+02 3.16375E+01 0.00000E+00
 -1      2114 1.44804E+02 3.09000E+01 0.00000E+00
 -1      2115 1.46103E+02 3.60375E+01 0.00000E+00
 -1      2116 1.46103E+02 3.45625E+01 0.00000E+00
 -1      2117 1.44804E+02 3.38250E+01 0.00000E+00
 -1      2118 1.46103E+02 3.89875E+01 0.00000E+00
 -1      2119 1.46103E+02 3.75125E+01 0.00000E+00
 -1      2120 1.44804E+02 3.67750E+01 0.00000E+00
 -1      2121 1.46103E+02 4.19375E+01 0.00000E+00
 -1      2122 1.46103E+02 4.04625E+01 0.00000E+00
 -1      2123 1.44804E+02 3.97250E+01 0.00000E+00
 -1      2124 7.41245E+01 2.25358E+01 0.00000E+00
 -1      2125 7.44292E+01 2.33869E+01 0.00000E+00
 -1      2126 7.51856E+01 2.61960E+01 0.00000E+00
 -1      2127 7.51872E+01 2.70867E+01 0.00000E+00
 -1      2128 7.46557E+01 2.42334E+01 0.00000E+00
 -1      2129 7.48822E+01 2.50799E+01 0.00000E+00
 -1      2130 7.51924E+01 2.35612E+01 0.00000E+00
 -1      2131 7.28689E+01 2.09357E+01 0.00000E+00
 -1      2132 7.34650E+01 2.15929E+01 0.00000E+00
 -1      2133 7.15624E+01 1.97327E+01 0.00000E+00
 -1      2134 7.21965E+01 2.02784E+01 0.00000E+00
 -1      2135 3.89700E+00 3.74688E+01 0.00000E+00
 -1      2136 3.89700E+00 3.89437E+01 0.00000E+00
 -1      2137 5.19600E+00 3.96813E+01 0.00000E+00
 -1      2138 5.19600E+00 3.67438E+01 0.00000E+00
 -1      2139 6.82404E+01 1.80143E+01 0.00000E+00
 -1      2140 6.91050E+01 1.82294E+01 0.00000E+00
 -1      2141 6.64319E+01 1.76420E+01 0.00000E+00
 -1      2142 6.73068E+01 1.77538E+01 0.00000E+00
 -1      2143 6.44845E+01 1.75673E+01 0.00000E+00
 -1      2144 6.54018E+01 1.75208E+01 0.00000E+00
 -1      2145 6.24440E+01 1.82366E+01 0.00000E+00
 -1      2146 6.33535E+01 1.78926E+01 0.00000E+00
 -1      2147 6.06460E+01 1.93366E+01 0.00000E+00
 -1      2148 6.14580E+01 1.87922E+01 0.00000E+00
 -1      2149 5.91879E+01 2.08881E+01 0.00000E+00
 -1      2150 5.96903E+01 2.01197E+01 0.00000E+00
 -1      2151 5.81381E+01 2.23339E+01 0.00000E+00
 -1      2152 5.86630E+01 2.16110E+01 0.00000E+00
 -1      2153 5.82315E+01 2.07804E+01 0.00000E+00
 -1      2154 5.74188E+01 2.43033E+01 0.00000E+00
 -1      2155 5.76296E+01 2.34124E+01 0.00000E+00
 -1      2156 5.72686E+01 2.61617E+01 0.00000E+00
 -1      2157 5.73998E+01 2.52835E+01 0.00000E+00
 -1      2158 5.73443E+01 2.81379E+01 0.00000E+00
 -1      2159 5.72742E+01 2.72139E+01 0.00000E+00
 -1      2160 5.78419E+01 3.01007E+01 0.00000E+00
 -1      2161 5.75307E+01 2.92208E+01 0.00000E+00
 -1      2162 5.87968E+01 3.18124E+01 0.00000E+00
 -1      2163 5.82963E+01 3.10887E+01 0.00000E+00
 -1      2164 6.00022E+01 3.32272E+01 0.00000E+00
 -1      2165 5.93976E+01 3.26081E+01 0.00000E+00
 -1      2166 6.16314E+01 3.42644E+01 0.00000E+00
 -1      2167 6.08793E+01 3.38134E+01 0.00000E+00
 -1      2168 6.33045E+01 3.50128E+01 0.00000E+00
 -1      2169 6.25072E+01 3.46975E+01 0.00000E+00
 -1      2170 6.50507E+01 3.56391E+01 0.00000E+00
 -1      2171 6.41706E+01 3.53334E+01 0.00000E+00
 -1      2172 6.72496E+01 3.55694E+01 0.00000E+00
 -1      2173 6.63479E+01 3.57850E+01 0.00000E+00
 -1      2174 6.89460E+01 3.51704E+01 0.00000E+00
 -1      2175 6.80978E+01 3.53699E+01 0.00000E+00
 -1      2176 6.78268E+01 3.62303E+01 0.00000E+00
 -1      2177 7.09056E+01 3.45625E+01 0.00000E+00
 -1      2178 6.99907E+01 3.49256E+01 0.00000E+00
 -1      2179 7.25080E+01 3.29311E+01 0.00000E+00
 -1      2180 7.19145E+01 3.36715E+01 0.00000E+00
 -1      2181 7.36443E+01 3.16355E+01 0.00000E+00
 -1      2182 7.30762E+01 3.22833E+01 0.00000E+00
 -1      2183 7.33504E+01 3.31113E+01 0.00000E+00
 -1      2184 7.44738E+01 2.98193E+01 0.00000E+00
 -1      2185 7.42005E+01 3.06334E+01 0.00000E+00
 -1      2186 7.49059E+01 2.81735E+01 0.00000E+00
 -1      2187 7.46898E+01 2.89964E+01 0.00000E+00
 -1      2188 7.52470E+01 2.96364E+01 0.00000E+00
 -1      2189 7.01070E+01 1.86770E+01 0.00000E+00
 -1      2190 7.08278E+01 1.91696E+01 0.00000E+00
 -1      2191 7.15676E+01 1.89513E+01 0.00000E+00
 -1      2192 6.42300E+00 4.57510E+01 0.00000E+00
 -1      2193 6.98311E+01 1.79406E+01 0.00000E+00
 -1      2194 7.17300E+00 4.44520E+01 0.00000E+00
 -1      2195 7.57223E+01 2.55237E+01 0.00000E+00
 -1      2196 7.43064E+01 2.17718E+01 0.00000E+00
 -1      2197 1.45665E+02 4.31193E+01 0.00000E+00
 -1      2198 7.57444E+01 2.77266E+01 0.00000E+00
 -1      2199 7.29746E+01 2.01716E+01 0.00000E+00
 -1      2200 7.44747E+01 3.14614E+01 0.00000E+00
 -1      2201 6.97197E+01 3.57859E+01 0.00000E+00
 -1      2202 6.56814E+01 3.62839E+01 0.00000E+00
 -1      2203 6.50150E+01 3.67829E+01 0.00000E+00
 -1      2204 6.63122E+01 3.69287E+01 0.00000E+00
 -1      2205 6.35182E+01 3.58174E+01 0.00000E+00
 -1      2206 6.17763E+01 3.50637E+01 0.00000E+00
 -1      2207 6.00234E+01 3.40444E+01 0.00000E+00
 -1      2208 5.85454E+01 3.26625E+01 0.00000E+00
 -1      2209 5.74902E+01 3.08788E+01 0.00000E+00
 -1      2210 5.68494E+01 2.88079E+01 0.00000E+00
 -1      2211 5.66574E+01 2.66728E+01 0.00000E+00
 -1      2212 5.71982E+01 2.25818E+01 0.00000E+00
 -1      2213 5.97121E+01 1.92744E+01 0.00000E+00
 -1      2214 6.16538E+01 1.79357E+01 0.00000E+00
 -1      2215 6.37708E+01 1.70548E+01 0.00000E+00
 -1      2216 6.78956E+01 1.72324E+01 0.00000E+00
 -1      2217 6.59320E+01 1.68507E+01 0.00000E+00
 -1      2218 5.66708E+01 2.46405E+01 0.00000E+00
 -1      2219 7.17734E+01 3.46501E+01 0.00000E+00
 -1      2220 7.16323E+01 3.56287E+01 0.00000E+00
 -1      2221 7.26412E+01 3.47377E+01 0.00000E+00
 -1      2222 1.07850E+01 5.30525E+00 0.00000E+00
 -1      2223 9.28500E+00 5.30525E+00 0.00000E+00
 -1      2224 6.49500E+00 3.01125E+01 0.00000E+00
 -1      2225 6.49500E+00 3.15875E+01 0.00000E+00
 -1      2226 6.49500E+00 3.30625E+01 0.00000E+00
 -1      2227 6.49500E+00 3.45375E+01 0.00000E+00
 -1      2228 7.79400E+00 3.23250E+01 0.00000E+00
 -1      2229 6.49500E+00 2.42125E+01 0.00000E+00
 -1      2230 6.49500E+00 2.56875E+01 0.00000E+00
 -1      2231 6.49500E+00 2.12625E+01 0.00000E+00
 -1      2232 6.49500E+00 2.27375E+01 0.00000E+00
 -1      2233 7.79400E+00 2.34750E+01 0.00000E+00
 -1      2234 6.49500E+00 1.83625E+01 0.00000E+00
 -1      2235 6.49500E+00 1.98125E+01 0.00000E+00
 -1      2236 7.79400E+00 2.05500E+01 0.00000E+00
 -1      2237 6.49500E+00 1.54125E+01 0.00000E+00
 -1      2238 6.49500E+00 1.68875E+01 0.00000E+00
 -1      2239 7.79400E+00 1.76250E+01 0.00000E+00
 -1      2240 6.49500E+00 1.24625E+01 0.00000E+00
 -1      2241 6.49500E+00 1.39375E+01 0.00000E+00
 -1      2242 7.79400E+00 1.46750E+01 0.00000E+00
 -1      2243 6.49500E+00 9.51250E+00 0.00000E+00
 -1      2244 6.49500E+00 1.09875E+01 0.00000E+00
 -1      2245 7.79400E+00 1.17250E+01 0.00000E+00
 -1      2246 1.37850E+01 5.30525E+00 0.00000E+00
 -1      2247 1.22850E+01 5.30525E+00 0.00000E+00
 -1      2248 1.15350E+01 6.60425E+00 0.00000E+00
 -1      2249 9.90000E+00 4.35050E+01 0.00000E+00
 -1      2250 1.14000E+01 4.35050E+01 0.00000E+00
 -1      2251 6.96287E+01 1.70485E+01 0.00000E+00
 -1      2252 7.06307E+01 1.74962E+01 0.00000E+00
 -1      2253 1.29000E+01 4.35050E+01 0.00000E+00
 -1      2254 1.44000E+01 4.35050E+01 0.00000E+00
 -1      2255 1.21500E+01 4.22060E+01 0.00000E+00
 -1      2256 1.59000E+01 4.35050E+01 0.00000E+00
 -1      2257 1.74000E+01 4.35050E+01 0.00000E+00
 -1      2258 1.51500E+01 4.22060E+01 0.00000E+00
 -1      2259 1.89000E+01 4.35050E+01 0.00000E+00
 -1      2260 2.04000E+01 4.35050E+01 0.00000E+00
 -1      2261 1.81500E+01 4.22060E+01 0.00000E+00
 -1      2262 2.19000E+01 4.35050E+01 0.00000E+00
 -1      2263 2.34000E+01 4.35050E+01 0.00000E+00
 -1      2264 2.11500E+01 4.22060E+01 0.00000E+00
 -1      2265 2.49000E+01 4.35050E+01 0.00000E+00
 -1      2266 2.64000E+01 4.35050E+01 0.00000E+00
 -1      2267 2.41500E+01 4.22060E+01 0.00000E+00
 -1      2268 2.79000E+01 4.35050E+01 0.00000E+00
 -1      2269 2.94000E+01 4.35050E+01 0.00000E+00
 -1      2270 2.71500E+01 4.22060E+01 0.00000E+00
 -1      2271 3.09000E+01 4.35050E+01 0.00000E+00
 -1      2272 3.24000E+01 4.35050E+01 0.00000E+00
 -1      2273 3.01500E+01 4.22060E+01 0.00000E+00
 -1      2274 3.39000E+01 4.35050E+01 0.00000E+00
 -1      2275 3.54000E+01 4.35050E+01 0.00000E+00
 -1      2276 3.31500E+01 4.22060E+01 0.00000E+00
 -1      2277 3.69000E+01 4.35050E+01 0.00000E+00
 -1      2278 3.84000E+01 4.35050E+01 0.00000E+00
 -1      2279 3.61500E+01 4.22060E+01 0.00000E+00
 -1      2280 3.99000E+01 4.35050E+01 0.00000E+00
 -1      2281 4.14000E+01 4.35050E+01 0.00000E+00
 -1      2282 3.91500E+01 4.22060E+01 0.00000E+00
 -1      2283 4.29000E+01 4.35050E+01 0.00000E+00
 -1      2284 4.44000E+01 4.35050E+01 0.00000E+00
 -1      2285 4.21500E+01 4.22060E+01 0.00000E+00
 -1      2286 4.59000E+01 4.35050E+01 0.00000E+00
 -1      2287 4.74000E+01 4.35050E+01 0.00000E+00
 -1      2288 4.51500E+01 4.22060E+01 0.00000E+00
 -1      2289 4.89000E+01 4.35050E+01 0.00000E+00
 -1      2290 5.04000E+01 4.35050E+01 0.00000E+00
 -1      2291 4.81500E+01 4.22060E+01 0.00000E+00
 -1      2292 5.19000E+01 4.35050E+01 0.00000E+00
 -1      2293 5.34000E+01 4.35050E+01 0.00000E+00
 -1      2294 5.11500E+01 4.22060E+01 0.00000E+00
 -1      2295 5.49000E+01 4.35050E+01 0.00000E+00
 -1      2296 5.64000E+01 4.35050E+01 0.00000E+00
 -1      2297 5.41500E+01 4.22060E+01 0.00000E+00
 -1      2298 5.79000E+01 4.35050E+01 0.00000E+00
 -1      2299 5.94000E+01 4.35050E+01 0.00000E+00
 -1      2300 5.71500E+01 4.22060E+01 0.00000E+00
 -1      2301 6.09000E+01 4.35050E+01 0.00000E+00
 -1      2302 6.24000E+01 4.35050E+01 0.00000E+00
 -1      2303 6.01500E+01 4.22060E+01 0.00000E+00
 -1      2304 6.39000E+01 4.35050E+01 0.00000E+00
 -1      2305 6.54000E+01 4.35050E+01 0.00000E+00
 -1      2306 6.31500E+01 4.22060E+01 0.00000E+00
 -1      2307 6.69000E+01 4.35050E+01 0.00000E+00
 -1      2308 6.84000E+01 4.35050E+01 0.00000E+00
 -1      2309 6.61500E+01 4.22060E+01 0.00000E+00
 -1      2310 6.99000E+01 4.35050E+01 0.00000E+00
 -1      2311 7.14000E+01 4.35050E+01 0.00000E+00
 -1      2312 6.91500E+01 4.22060E+01 0.00000E+00
 -1      2313 7.29000E+01 4.35050E+01 0.00000E+00
 -1      2314 7.44000E+01 4.35050E+01 0.00000E+00
 -1      2315 7.21500E+01 4.22060E+01 0.00000E+00
 -1      2316 7.59000E+01 4.35050E+01 0.00000E+00
 -1      2317 7.74000E+01 4.35050E+01 0.00000E+00
 -1      2318 7.51500E+01 4.22060E+01 0.00000E+00
 -1      2319 7.89000E+01 4.35050E+01 0.00000E+00
 -1      2320 8.04000E+01 4.35050E+01 0.00000E+00
 -1      2321 7.81500E+01 4.22060E+01 0.00000E+00
 -1      2322 8.19000E+01 4.35050E+01 0.00000E+00
 -1      2323 8.34000E+01 4.35050E+01 0.00000E+00
 -1      2324 8.11500E+01 4.22060E+01 0.00000E+00
 -1      2325 8.49000E+01 4.35050E+01 0.00000E+00
 -1      2326 8.64000E+01 4.35050E+01 0.00000E+00
 -1      2327 8.41500E+01 4.22060E+01 0.00000E+00
 -1      2328 8.79000E+01 4.35050E+01 0.00000E+00
 -1      2329 8.94000E+01 4.35050E+01 0.00000E+00
 -1      2330 8.71500E+01 4.22060E+01 0.00000E+00
 -1      2331 9.09000E+01 4.35050E+01 0.00000E+00
 -1      2332 9.24000E+01 4.35050E+01 0.00000E+00
 -1      2333 9.01500E+01 4.22060E+01 0.00000E+00
 -1      2334 9.39000E+01 4.35050E+01 0.00000E+00
 -1      2335 9.54000E+01 4.35050E+01 0.00000E+00
 -1      2336 9.31500E+01 4.22060E+01 0.00000E+00
 -1      2337 9.69000E+01 4.35050E+01 0.00000E+00
 -1      2338 9.84000E+01 4.35050E+01 0.00000E+00
 -1      2339 9.61500E+01 4.22060E+01 0.00000E+00
 -1      2340 9.99000E+01 4.35050E+01 0.00000E+00
 -1      2341 1.01400E+02 4.35050E+01 0.00000E+00
 -1      2342 9.91500E+01 4.22060E+01 0.00000E+00
 -1      2343 1.02900E+02 4.35050E+01 0.00000E+00
 -1      2344 1.04400E+02 4.35050E+01 0.00000E+00
 -1      2345 1.02150E+02 4.22060E+01 0.00000E+00
 -1      2346 1.05900E+02 4.35050E+01 0.00000E+00
 -1      2347 1.07400E+02 4.35050E+01 0.00000E+00
 -1      2348 1.05150E+02 4.22060E+01 0.00000E+00
 -1      2349 1.08900E+02 4.35050E+01 0.00000E+00
 -1      2350 1.10400E+02 4.35050E+01 0.00000E+00
 -1      2351 1.08150E+02 4.22060E+01 0.00000E+00
 -1      2352 1.11900E+02 4.35050E+01 0.00000E+00
 -1      2353 1.13400E+02 4.35050E+01 0.00000E+00
 -1      2354 1.11150E+02 4.22060E+01 0.00000E+00
 -1      2355 1.14900E+02 4.35050E+01 0.00000E+00
 -1      2356 1.16400E+02 4.35050E+01 0.00000E+00
 -1      2357 1.14150E+02 4.22060E+01 0.00000E+00
 -1      2358 1.17900E+02 4.35050E+01 0.00000E+00
 -1      2359 1.19400E+02 4.35050E+01 0.00000E+00
 -1      2360 1.17150E+02 4.22060E+01 0.00000E+00
 -1      2361 1.20900E+02 4.35050E+01 0.00000E+00
 -1      2362 1.22400E+02 4.35050E+01 0.00000E+00
 -1      2363 1.20150E+02 4.22060E+01 0.00000E+00
 -1      2364 1.23900E+02 4.35050E+01 0.00000E+00
 -1      2365 1.25400E+02 4.35050E+01 0.00000E+00
 -1      2366 1.23150E+02 4.22060E+01 0.00000E+00
 -1      2367 1.26900E+02 4.35050E+01 0.00000E+00
 -1      2368 1.28400E+02 4.35050E+01 0.00000E+00
 -1      2369 1.26150E+02 4.22060E+01 0.00000E+00
 -1      2370 1.29900E+02 4.35050E+01 0.00000E+00
 -1      2371 1.31400E+02 4.35050E+01 0.00000E+00
 -1      2372 1.29150E+02 4.22060E+01 0.00000E+00
 -1      2373 1.32900E+02 4.35050E+01 0.00000E+00
 -1      2374 1.34400E+02 4.35050E+01 0.00000E+00
 -1      2375 1.32150E+02 4.22060E+01 0.00000E+00
 -1      2376 1.35900E+02 4.35050E+01 0.00000E+00
 -1      2377 1.37400E+02 4.35050E+01 0.00000E+00
 -1      2378 1.35150E+02 4.22060E+01 0.00000E+00
 -1      2379 1.38900E+02 4.35050E+01 0.00000E+00
 -1      2380 1.40400E+02 4.35050E+01 0.00000E+00
 -1      2381 1.38150E+02 4.22060E+01 0.00000E+00
 -1      2382 7.58671E+01 2.29271E+01 0.00000E+00
 -1      2383 7.60936E+01 2.37736E+01 0.00000E+00
 -1      2384 1.97850E+01 5.30525E+00 0.00000E+00
 -1      2385 1.82850E+01 5.30525E+00 0.00000E+00
 -1      2386 2.27850E+01 5.30525E+00 0.00000E+00
 -1      2387 2.12850E+01 5.30525E+00 0.00000E+00
 -1      2388 2.05350E+01 6.60425E+00 0.00000E+00
 -1      2389 2.57850E+01 5.30525E+00 0.00000E+00
 -1      2390 2.42850E+01 5.30525E+00 0.00000E+00
 -1      2391 2.35350E+01 6.60425E+00 0.00000E+00
 -1      2392 2.87850E+01 5.30525E+00 0.00000E+00
 -1      2393 2.72850E+01 5.30525E+00 0.00000E+00
 -1      2394 2.65350E+01 6.60425E+00 0.00000E+00
 -1      2395 3.17850E+01 5.30525E+00 0.00000E+00
 -1      2396 3.02850E+01 5.30525E+00 0.00000E+00
 -1      2397 2.95350E+01 6.60425E+00 0.00000E+00
 -1      2398 3.47850E+01 5.30525E+00 0.00000E+00
 -1      2399 3.32850E+01 5.30525E+00 0.00000E+00
 -1      2400 3.25350E+01 6.60425E+00 0.00000E+00
 -1      2401 3.77850E+01 5.30525E+00 0.00000E+00
 -1      2402 3.62850E+01 5.30525E+00 0.00000E+00
 -1      2403 3.55350E+01 6.60425E+00 0.00000E+00
 -1      2404 4.07850E+01 5.30525E+00 0.00000E+00
 -1      2405 3.92850E+01 5.30525E+00 0.00000E+00
 -1      2406 3.85350E+01 6.60425E+00 0.00000E+00
 -1      2407 4.37850E+01 5.30525E+00 0.00000E+00
 -1      2408 4.22850E+01 5.30525E+00 0.00000E+00
 -1      2409 4.15350E+01 6.60425E+00 0.00000E+00
 -1      2410 4.67850E+01 5.30525E+00 0.00000E+00
 -1      2411 4.52850E+01 5.30525E+00 0.00000E+00
 -1      2412 4.45350E+01 6.60425E+00 0.00000E+00
 -1      2413 4.97850E+01 5.30525E+00 0.00000E+00
 -1      2414 4.82850E+01 5.30525E+00 0.00000E+00
 -1      2415 4.75350E+01 6.60425E+00 0.00000E+00
 -1      2416 5.27850E+01 5.30525E+00 0.00000E+00
 -1      2417 5.12850E+01 5.30525E+00 0.00000E+00
 -1      2418 5.05350E+01 6.60425E+00 0.00000E+00
 -1      2419 5.57850E+01 5.30525E+00 0.00000E+00
 -1      2420 5.42850E+01 5.30525E+00 0.00000E+00
 -1      2421 5.35350E+01 6.60425E+00 0.00000E+00
 -1      2422 5.87850E+01 5.30525E+00 0.00000E+00
 -1      2423 5.72850E+01 5.30525E+00 0.00000E+00
 -1      2424 5.65350E+01 6.60425E+00 0.00000E+00
 -1      2425 6.17850E+01 5.30525E+00 0.00000E+00
 -1      2426 6.02850E+01 5.30525E+00 0.00000E+00
 -1      2427 5.95350E+01 6.60425E+00 0.00000E+00
 -1      2428 6.47850E+01 5.30525E+00 0.00000E+00
 -1      2429 6.32850E+01 5.30525E+00 0.00000E+00
 -1      2430 6.25350E+01 6.60425E+00 0.00000E+00
 -1      2431 6.77850E+01 5.30525E+00 0.00000E+00
 -1      2432 6.62850E+01 5.30525E+00 0.00000E+00
 -1      2433 6.55350E+01 6.60425E+00 0.00000E+00
 -1      2434 7.07850E+01 5.30525E+00 0.00000E+00
 -1      2435 6.92850E+01 5.30525E+00 0.00000E+00
 -1      2436 6.85350E+01 6.60425E+00 0.00000E+00
 -1      2437 7.37850E+01 5.30525E+00 0.00000E+00
 -1      2438 7.22850E+01 5.30525E+00 0.00000E+00
 -1      2439 7.15350E+01 6.60425E+00 0.00000E+00
 -1      2440 7.67850E+01 5.30525E+00 0.00000E+00
 -1      2441 7.52850E+01 5.30525E+00 0.00000E+00
 -1      2442 7.45350E+01 6.60425E+00 0.00000E+00
 -1      2443 7.97850E+01 5.30525E+00 0.00000E+00
 -1      2444 7.82850E+01 5.30525E+00 0.00000E+00
 -1      2445 7.75350E+01 6.60425E+00 0.00000E+00
 -1      2446 8.27850E+01 5.30525E+00 0.00000E+00
 -1      2447 8.12850E+01 5.30525E+00 0.00000E+00
 -1      2448 8.05350E+01 6.60425E+00 0.00000E+00
 -1      2449 8.57850E+01 5.30525E+00 0.00000E+00
 -1      2450 8.42850E+01 5.30525E+00 0.00000E+00
 -1      2451 8.35350E+01 6.60425E+00 0.00000E+00
 -1      2452 8.87850E+01 5.30525E+00 0.00000E+00
 -1      2453 8.72850E+01 5.30525E+00 0.00000E+00
 -1      2454 8.65350E+01 6.60425E+00 0.00000E+00
 -1      2455 9.17850E+01 5.30525E+00 0.00000E+00
 -1      2456 9.02850E+01 5.30525E+00 0.00000E+00
 -1      2457 8.95350E+01 6.60425E+00 0.00000E+00
 -1      2458 9.47850E+01 5.30525E+00 0.00000E+00
 -1      2459 9.32850E+01 5.30525E+00 0.00000E+00
 -1      2460 9.25350E+01 6.60425E+00 0.00000E+00
 -1      2461 9.77850E+01 5.30525E+00 0.00000E+00
 -1      2462 9.62850E+01 5.30525E+00 0.00000E+00
 -1      2463 9.55350E+01 6.60425E+00 0.00000E+00
 -1      2464 1.00785E+02 5.30525E+00 0.00000E+00
 -1      2465 9.92850E+01 5.30525E+00 0.00000E+00
 -1      2466 9.85350E+01 6.60425E+00 0.00000E+00
 -1      2467 1.03785E+02 5.30525E+00 0.00000E+00
 -1      2468 1.02285E+02 5.30525E+00 0.00000E+00
 -1      2469 1.01535E+02 6.60425E+00 0.00000E+00
 -1      2470 1.06785E+02 5.30525E+00 0.00000E+00
 -1      2471 1.05285E+02 5.30525E+00 0.00000E+00
 -1      2472 1.04535E+02 6.60425E+00 0.00000E+00
 -1      2473 1.09785E+02 5.30525E+00 0.00000E+00
 -1      2474 1.08285E+02 5.30525E+00 0.00000E+00
 -1      2475 1.07535E+02 6.60425E+00 0.00000E+00
 -1      2476 1.12785E+02 5.30525E+00 0.00000E+00
 -1      2477 1.11285E+02 5.30525E+00 0.00000E+00
 -1      2478 1.10535E+02 6.60425E+00 0.00000E+00
 -1      2479 1.15785E+02 5.30525E+00 0.00000E+00
 -1      2480 1.14285E+02 5.30525E+00 0.00000E+00
 -1      2481 1.13535E+02 6.60425E+00 0.00000E+00
 -1      2482 1.18785E+02 5.30525E+00 0.00000E+00
 -1      2483 1.17285E+02 5.30525E+00 0.00000E+00
 -1      2484 1.16535E+02 6.60425E+00 0.00000E+00
 -1      2485 1.21785E+02 5.30525E+00 0.00000E+00
 -1      2486 1.20285E+02 5.30525E+00 0.00000E+00
 -1      2487 1.19535E+02 6.60425E+00 0.00000E+00
 -1      2488 1.24785E+02 5.30525E+00 0.00000E+00
 -1      2489 1.23285E+02 5.30525E+00 0.00000E+00
 -1      2490 1.22535E+02 6.60425E+00 0.00000E+00
 -1      2491 1.27785E+02 5.30525E+00 0.00000E+00
 -1      2492 1.26285E+02 5.30525E+00 0.00000E+00
 -1      2493 1.25535E+02 6.60425E+00 0.00000E+00
 -1      2494 1.30785E+02 5.30525E+00 0.00000E+00
 -1      2495 1.29285E+02 5.30525E+00 0.00000E+00
 -1      2496 1.28535E+02 6.60425E+00 0.00000E+00
 -1      2497 1.33785E+02 5.30525E+00 0.00000E+00
 -1      2498 1.32285E+02 5.30525E+00 0.00000E+00
 -1      2499 1.31535E+02 6.60425E+00 0.00000E+00
 -1      2500 1.36785E+02 5.30525E+00 0.00000E+00
 -1      2501 1.35285E+02 5.30525E+00 0.00000E+00
 -1      2502 1.34535E+02 6.60425E+00 0.00000E+00
 -1      2503 1.39785E+02 5.30525E+00 0.00000E+00
 -1      2504 1.38285E+02 5.30525E+00 0.00000E+00
 -1      2505 1.37535E+02 6.60425E+00 0.00000E+00
 -1      2506 1.42785E+02 5.30525E+00 0.00000E+00
 -1      2507 1.41285E+02 5.30525E+00 0.00000E+00
 -1      2508 1.40535E+02 6.60425E+00 0.00000E+00
 -1      2509 1.44336E+02 5.26953E+00 0.00000E+00
 -1      2510 1.43505E+02 1.69125E+01 0.00000E+00
 -1      2511 1.43505E+02 1.54375E+01 0.00000E+00
 -1      2512 1.43505E+02 1.98625E+01 0.00000E+00
 -1      2513 1.43505E+02 1.83875E+01 0.00000E+00
 -1      2514 1.42206E+02 1.76500E+01 0.00000E+00
 -1      2515 1.43505E+02 1.10625E+01 0.00000E+00
 -1      2516 1.43505E+02 9.58750E+00 0.00000E+00
 -1      2517 1.43505E+02 1.39750E+01 0.00000E+00
 -1      2518 1.43505E+02 1.25250E+01 0.00000E+00
 -1      2519 1.42206E+02 1.17875E+01 0.00000E+00
 -1      2520 1.42206E+02 1.47125E+01 0.00000E+00
 -1      2521 1.43505E+02 2.28125E+01 0.00000E+00
 -1      2522 1.43505E+02 2.13375E+01 0.00000E+00
 -1      2523 1.42206E+02 2.06000E+01 0.00000E+00
 -1      2524 1.43505E+02 2.57625E+01 0.00000E+00
 -1      2525 1.43505E+02 2.42875E+01 0.00000E+00
 -1      2526 1.42206E+02 2.35500E+01 0.00000E+00
 -1      2527 1.43505E+02 2.87125E+01 0.00000E+00
 -1      2528 1.43505E+02 2.72375E+01 0.00000E+00
 -1      2529 1.42206E+02 2.65000E+01 0.00000E+00
 -1      2530 1.43505E+02 3.16125E+01 0.00000E+00
 -1      2531 1.43505E+02 3.01625E+01 0.00000E+00
 -1      2532 1.42206E+02 2.94250E+01 0.00000E+00
 -1      2533 1.43505E+02 3.45625E+01 0.00000E+00
 -1      2534 1.43505E+02 3.30875E+01 0.00000E+00
 -1      2535 1.42206E+02 3.23500E+01 0.00000E+00
 -1      2536 1.43505E+02 3.75125E+01 0.00000E+00
 -1      2537 1.43505E+02 3.60375E+01 0.00000E+00
 -1      2538 1.42206E+02 3.53000E+01 0.00000E+00
 -1      2539 1.43505E+02 4.04625E+01 0.00000E+00
 -1      2540 1.43505E+02 3.89875E+01 0.00000E+00
 -1      2541 1.42206E+02 3.82500E+01 0.00000E+00
 -1      2542 1.44321E+02 4.30606E+01 0.00000E+00
 -1      2543 7.67787E+01 2.74145E+01 0.00000E+00
 -1      2544 7.64974E+01 2.85014E+01 0.00000E+00
 -1      2545 1.67850E+01 5.30525E+00 0.00000E+00
 -1      2546 1.52850E+01 5.30525E+00 0.00000E+00
 -1      2547 1.75350E+01 6.60425E+00 0.00000E+00
 -1      2548 7.46108E+01 2.08568E+01 0.00000E+00
 -1      2549 7.52702E+01 2.17997E+01 0.00000E+00
 -1      2550 7.53927E+01 3.13155E+01 0.00000E+00
 -1      2551 7.48365E+01 3.23176E+01 0.00000E+00
 -1      2552 7.31793E+01 1.92896E+01 0.00000E+00
 -1      2553 7.38517E+01 1.99469E+01 0.00000E+00
 -1      2554 7.04569E+01 3.65800E+01 0.00000E+00
 -1      2555 6.94121E+01 3.68248E+01 0.00000E+00
 -1      2556 5.86376E+01 1.89379E+01 0.00000E+00
 -1      2557 5.95933E+01 1.81547E+01 0.00000E+00
 -1      2558 6.49500E+00 2.71625E+01 0.00000E+00
 -1      2559 6.49500E+00 2.86375E+01 0.00000E+00
 -1      2560 7.79400E+00 2.93750E+01 0.00000E+00
 -1      2561 7.79400E+00 2.64250E+01 0.00000E+00
 -1      2562 6.55368E+01 1.57720E+01 0.00000E+00
 -1      2563 6.65669E+01 1.58932E+01 0.00000E+00
 -1      2564 5.58039E+01 2.51140E+01 0.00000E+00
 -1      2565 5.58228E+01 2.41339E+01 0.00000E+00
 -1      2566 6.75004E+01 1.61537E+01 0.00000E+00
 -1      2567 6.84339E+01 1.64142E+01 0.00000E+00
 -1      2568 6.71052E+01 1.50750E+01 0.00000E+00
 -1      2569 6.29683E+01 1.63933E+01 0.00000E+00
 -1      2570 6.40993E+01 1.60680E+01 0.00000E+00
 -1      2571 6.07810E+01 1.75394E+01 0.00000E+00
 -1      2572 6.17670E+01 1.69838E+01 0.00000E+00
 -1      2573 5.72752E+01 2.06380E+01 0.00000E+00
 -1      2574 5.78001E+01 1.99151E+01 0.00000E+00
 -1      2575 5.62440E+01 2.27912E+01 0.00000E+00
 -1      2576 5.67525E+01 2.17126E+01 0.00000E+00
 -1      2577 5.58151E+01 2.72183E+01 0.00000E+00
 -1      2578 5.58095E+01 2.61661E+01 0.00000E+00
 -1      2579 5.49616E+01 2.56595E+01 0.00000E+00
 -1      2580 5.62213E+01 2.94735E+01 0.00000E+00
 -1      2581 5.60350E+01 2.83905E+01 0.00000E+00
 -1      2582 5.70144E+01 3.16961E+01 0.00000E+00
 -1      2583 5.65600E+01 3.07081E+01 0.00000E+00
 -1      2584 5.81615E+01 3.35772E+01 0.00000E+00
 -1      2585 5.75606E+01 3.27815E+01 0.00000E+00
 -1      2586 6.00087E+01 3.50157E+01 0.00000E+00
 -1      2587 5.91316E+01 3.44295E+01 0.00000E+00
 -1      2588 6.18341E+01 3.60489E+01 0.00000E+00
 -1      2589 6.09583E+01 3.56159E+01 0.00000E+00
 -1      2590 6.36825E+01 3.67034E+01 0.00000E+00
 -1      2591 6.28165E+01 3.63827E+01 0.00000E+00
 -1      2592 6.85640E+01 3.70244E+01 0.00000E+00
 -1      2593 6.77158E+01 3.72239E+01 0.00000E+00
 -1      2594 6.93011E+01 3.78185E+01 0.00000E+00
 -1      2595 7.42162E+01 3.32976E+01 0.00000E+00
 -1      2596 7.36481E+01 3.39454E+01 0.00000E+00
 -1      2597 7.63173E+01 2.47627E+01 0.00000E+00
 -1      2598 7.66207E+01 2.58788E+01 0.00000E+00
 -1      2599 7.62813E+01 2.93243E+01 0.00000E+00
 -1      2600 7.60652E+01 3.01472E+01 0.00000E+00
 -1      2601 7.73156E+01 2.90121E+01 0.00000E+00
 -1      2602 6.55950E+00 4.28890E+01 0.00000E+00
 -1      2603 8.53650E+00 4.32410E+01 0.00000E+00
 -1      2604 9.28650E+00 4.19420E+01 0.00000E+00
 -1      2605 6.55950E+00 4.14140E+01 0.00000E+00
 -1      2606 8.07525E+00 5.11044E+00 0.00000E+00
 -1      2607 6.57525E+00 5.11044E+00 0.00000E+00
 -1      2608 6.40575E+00 6.01981E+00 0.00000E+00
 -1      2609 8.82525E+00 6.40944E+00 0.00000E+00
 -1      2610 7.16456E+01 1.80889E+01 0.00000E+00
 -1      2611 7.23802E+01 1.86519E+01 0.00000E+00
 -1      2612 6.47342E+01 1.51105E+01 0.00000E+00
 -1      2613 7.79400E+00 3.52687E+01 0.00000E+00
 -1      2614 6.49500E+00 3.60062E+01 0.00000E+00
 -1      2615 6.49500E+00 3.74750E+01 0.00000E+00
 -1      2616 1.45350E+01 6.60425E+00 0.00000E+00
 -1      2617 6.40575E+00 7.49481E+00 0.00000E+00
 -1      2618 7.14432E+01 1.71968E+01 0.00000E+00
 -1      2619 7.69920E+01 2.41286E+01 0.00000E+00
 -1      2620 6.43133E+01 3.73482E+01 0.00000E+00
 -1      2621 6.36116E+01 3.79134E+01 0.00000E+00
 -1      2622 6.49441E+01 3.79929E+01 0.00000E+00
 -1      2623 6.19985E+01 3.69349E+01 0.00000E+00
 -1      2624 7.61714E+01 2.20122E+01 0.00000E+00
 -1      2625 1.43586E+02 6.56853E+00 0.00000E+00
 -1      2626 7.64270E+01 3.10034E+01 0.00000E+00
 -1      2627 1.43419E+02 7.72713E+00 0.00000E+00
 -1      2628 6.00665E+01 3.60009E+01 0.00000E+00
 -1      2629 1.42758E+02 4.35929E+01 0.00000E+00
 -1      2630 1.43241E+02 4.17323E+01 0.00000E+00
 -1      2631 1.41942E+02 4.09948E+01 0.00000E+00
 -1      2632 1.41414E+02 4.35342E+01 0.00000E+00
 -1      2633 5.81468E+01 3.45484E+01 0.00000E+00
 -1      2634 5.66305E+01 3.26108E+01 0.00000E+00
 -1      2635 7.73736E+01 2.66535E+01 0.00000E+00
 -1      2636 7.81266E+01 2.74282E+01 0.00000E+00
 -1      2637 7.79686E+01 2.58925E+01 0.00000E+00
 -1      2638 7.70475E+00 8.23231E+00 0.00000E+00
 -1      2639 7.48155E+01 1.99749E+01 0.00000E+00
 -1      2640 5.51870E+01 2.78839E+01 0.00000E+00
 -1      2641 7.51342E+01 3.31517E+01 0.00000E+00
 -1      2642 5.53772E+01 2.32646E+01 0.00000E+00
 -1      2643 5.49315E+01 2.23954E+01 0.00000E+00
 -1      2644 5.45103E+01 2.37381E+01 0.00000E+00
 -1      2645 7.35070E+01 3.49240E+01 0.00000E+00
 -1      2646 5.63210E+01 2.08473E+01 0.00000E+00
 -1      2647 5.97065E+01 1.72028E+01 0.00000E+00
 -1      2648 6.70494E+01 3.77228E+01 0.00000E+00
 -1      2649 6.63829E+01 3.82217E+01 0.00000E+00
 -1      2650 6.77865E+01 3.85169E+01 0.00000E+00
 -1      2651 5.76813E+01 1.87954E+01 0.00000E+00
 -1      2652 7.13247E+01 3.66676E+01 0.00000E+00
 -1      2653 7.10171E+01 3.77065E+01 0.00000E+00
 -1      2654 7.21925E+01 3.67552E+01 0.00000E+00
 -1      2655 7.32572E+01 1.84272E+01 0.00000E+00
 -1      2656 6.92335E+01 1.59698E+01 0.00000E+00
 -1      2657 6.52725E+00 3.87101E+01 0.00000E+00
 -1      2658 6.52725E+00 4.01789E+01 0.00000E+00
 -1      2659 7.89075E+00 4.04429E+01 0.00000E+00
 -1      2660 7.82625E+00 3.79726E+01 0.00000E+00
 -1      2661 6.20954E+01 1.59970E+01 0.00000E+00
 -1      2662 5.57455E+01 3.02908E+01 0.00000E+00
 -1      2663 1.42120E+02 8.46463E+00 0.00000E+00
 -1      2664 1.40664E+02 4.22352E+01 0.00000E+00
 -1      2665 9.09300E+00 1.98250E+01 0.00000E+00
 -1      2666 9.09300E+00 2.12750E+01 0.00000E+00
 -1      2667 9.09300E+00 2.27500E+01 0.00000E+00
 -1      2668 9.09300E+00 2.42250E+01 0.00000E+00
 -1      2669 1.03920E+01 2.20250E+01 0.00000E+00
 -1      2670 9.09300E+00 1.39375E+01 0.00000E+00
 -1      2671 9.09300E+00 1.54125E+01 0.00000E+00
 -1      2672 9.09300E+00 1.09875E+01 0.00000E+00
 -1      2673 9.09300E+00 1.24625E+01 0.00000E+00
 -1      2674 1.03920E+01 1.32000E+01 0.00000E+00
 -1      2675 1.22850E+01 7.90325E+00 0.00000E+00
 -1      2676 1.07850E+01 7.90325E+00 0.00000E+00
 -1      2677 7.50944E+01 1.89706E+01 0.00000E+00
 -1      2678 7.58536E+01 1.98805E+01 0.00000E+00
 -1      2679 6.99791E+01 3.87981E+01 0.00000E+00
 -1      2680 6.91309E+01 3.89976E+01 0.00000E+00
 -1      2681 1.52850E+01 7.90325E+00 0.00000E+00
 -1      2682 1.37850E+01 7.90325E+00 0.00000E+00
 -1      2683 1.30350E+01 9.20225E+00 0.00000E+00
 -1      2684 8.91450E+00 8.42712E+00 0.00000E+00
 -1      2685 7.77983E+01 2.34264E+01 0.00000E+00
 -1      2686 7.80219E+01 2.44155E+01 0.00000E+00
 -1      2687 9.25425E+00 4.07069E+01 0.00000E+00
 -1      2688 1.06178E+01 4.09709E+01 0.00000E+00
 -1      2689 9.22200E+00 3.94717E+01 0.00000E+00
 -1      2690 1.44000E+01 4.09070E+01 0.00000E+00
 -1      2691 1.59000E+01 4.09070E+01 0.00000E+00
 -1      2692 1.74000E+01 4.09070E+01 0.00000E+00
 -1      2693 1.89000E+01 4.09070E+01 0.00000E+00
 -1      2694 1.66500E+01 3.96080E+01 0.00000E+00
 -1      2695 2.04000E+01 4.09070E+01 0.00000E+00
 -1      2696 2.19000E+01 4.09070E+01 0.00000E+00
 -1      2697 1.96500E+01 3.96080E+01 0.00000E+00
 -1      2698 2.34000E+01 4.09070E+01 0.00000E+00
 -1      2699 2.49000E+01 4.09070E+01 0.00000E+00
 -1      2700 2.26500E+01 3.96080E+01 0.00000E+00
 -1      2701 2.64000E+01 4.09070E+01 0.00000E+00
 -1      2702 2.79000E+01 4.09070E+01 0.00000E+00
 -1      2703 2.56500E+01 3.96080E+01 0.00000E+00
 -1      2704 2.94000E+01 4.09070E+01 0.00000E+00
 -1      2705 3.09000E+01 4.09070E+01 0.00000E+00
 -1      2706 2.86500E+01 3.96080E+01 0.00000E+00
 -1      2707 3.24000E+01 4.09070E+01 0.00000E+00
 -1      2708 3.39000E+01 4.09070E+01 0.00000E+00
 -1      2709 3.16500E+01 3.96080E+01 0.00000E+00
 -1      2710 3.54000E+01 4.09070E+01 0.00000E+00
 -1      2711 3.69000E+01 4.09070E+01 0.00000E+00
 -1      2712 3.46500E+01 3.96080E+01 0.00000E+00
 -1      2713 3.84000E+01 4.09070E+01 0.00000E+00
 -1      2714 3.99000E+01 4.09070E+01 0.00000E+00
 -1      2715 3.76500E+01 3.96080E+01 0.00000E+00
 -1      2716 4.14000E+01 4.09070E+01 0.00000E+00
 -1      2717 4.29000E+01 4.09070E+01 0.00000E+00
 -1      2718 4.06500E+01 3.96080E+01 0.00000E+00
 -1      2719 4.44000E+01 4.09070E+01 0.00000E+00
 -1      2720 4.59000E+01 4.09070E+01 0.00000E+00
 -1      2721 4.36500E+01 3.96080E+01 0.00000E+00
 -1      2722 4.74000E+01 4.09070E+01 0.00000E+00
 -1      2723 4.89000E+01 4.09070E+01 0.00000E+00
 -1      2724 4.66500E+01 3.96080E+01 0.00000E+00
 -1      2725 5.04000E+01 4.09070E+01 0.00000E+00
 -1      2726 5.19000E+01 4.09070E+01 0.00000E+00
 -1      2727 4.96500E+01 3.96080E+01 0.00000E+00
 -1      2728 5.34000E+01 4.09070E+01 0.00000E+00
 -1      2729 5.49000E+01 4.09070E+01 0.00000E+00
 -1      2730 5.26500E+01 3.96080E+01 0.00000E+00
 -1      2731 5.64000E+01 4.09070E+01 0.00000E+00
 -1      2732 5.79000E+01 4.09070E+01 0.00000E+00
 -1      2733 5.56500E+01 3.96080E+01 0.00000E+00
 -1      2734 5.94000E+01 4.09070E+01 0.00000E+00
 -1      2735 6.09000E+01 4.09070E+01 0.00000E+00
 -1      2736 5.86500E+01 3.96080E+01 0.00000E+00
 -1      2737 6.58850E+01 4.06109E+01 0.00000E+00
 -1      2738 6.73850E+01 4.06109E+01 0.00000E+00
 -1      2739 6.87295E+01 4.10917E+01 0.00000E+00
 -1      2740 7.02295E+01 4.10917E+01 0.00000E+00
 -1      2741 7.17295E+01 4.10917E+01 0.00000E+00
 -1      2742 7.32295E+01 4.10917E+01 0.00000E+00
 -1      2743 7.13089E+01 3.99773E+01 0.00000E+00
 -1      2744 7.47295E+01 4.10917E+01 0.00000E+00
 -1      2745 7.62295E+01 4.10917E+01 0.00000E+00
 -1      2746 7.43089E+01 3.99773E+01 0.00000E+00
 -1      2747 7.77295E+01 4.10917E+01 0.00000E+00
 -1      2748 7.92295E+01 4.10917E+01 0.00000E+00
 -1      2749 7.73089E+01 3.99773E+01 0.00000E+00
 -1      2750 8.07295E+01 4.10917E+01 0.00000E+00
 -1      2751 8.22295E+01 4.10917E+01 0.00000E+00
 -1      2752 8.03089E+01 3.99773E+01 0.00000E+00
 -1      2753 8.37295E+01 4.10917E+01 0.00000E+00
 -1      2754 8.52295E+01 4.10917E+01 0.00000E+00
 -1      2755 8.33089E+01 3.99773E+01 0.00000E+00
 -1      2756 8.67295E+01 4.10917E+01 0.00000E+00
 -1      2757 8.82295E+01 4.10917E+01 0.00000E+00
 -1      2758 8.63089E+01 3.99773E+01 0.00000E+00
 -1      2759 8.97295E+01 4.10917E+01 0.00000E+00
 -1      2760 9.12295E+01 4.10917E+01 0.00000E+00
 -1      2761 8.93089E+01 3.99773E+01 0.00000E+00
 -1      2762 9.27295E+01 4.10917E+01 0.00000E+00
 -1      2763 9.42295E+01 4.10917E+01 0.00000E+00
 -1      2764 9.23089E+01 3.99773E+01 0.00000E+00
 -1      2765 9.57295E+01 4.10917E+01 0.00000E+00
 -1      2766 9.72295E+01 4.10917E+01 0.00000E+00
 -1      2767 9.53089E+01 3.99773E+01 0.00000E+00
 -1      2768 9.87295E+01 4.10917E+01 0.00000E+00
 -1      2769 1.00229E+02 4.10917E+01 0.00000E+00
 -1      2770 9.83089E+01 3.99773E+01 0.00000E+00
 -1      2771 1.01729E+02 4.10917E+01 0.00000E+00
 -1      2772 1.03229E+02 4.10917E+01 0.00000E+00
 -1      2773 1.01309E+02 3.99773E+01 0.00000E+00
 -1      2774 1.04729E+02 4.10917E+01 0.00000E+00
 -1      2775 1.06229E+02 4.10917E+01 0.00000E+00
 -1      2776 1.04309E+02 3.99773E+01 0.00000E+00
 -1      2777 1.07729E+02 4.10917E+01 0.00000E+00
 -1      2778 1.09229E+02 4.10917E+01 0.00000E+00
 -1      2779 1.07309E+02 3.99773E+01 0.00000E+00
 -1      2780 1.10729E+02 4.10917E+01 0.00000E+00
 -1      2781 1.12229E+02 4.10917E+01 0.00000E+00
 -1      2782 1.10309E+02 3.99773E+01 0.00000E+00
 -1      2783 1.13729E+02 4.10917E+01 0.00000E+00
 -1      2784 1.15229E+02 4.10917E+01 0.00000E+00
 -1      2785 1.13309E+02 3.99773E+01 0.00000E+00
 -1      2786 1.16729E+02 4.10917E+01 0.00000E+00
 -1      2787 1.18229E+02 4.10917E+01 0.00000E+00
 -1      2788 1.16309E+02 3.99773E+01 0.00000E+00
 -1      2789 1.19729E+02 4.10917E+01 0.00000E+00
 -1      2790 1.21229E+02 4.10917E+01 0.00000E+00
 -1      2791 1.19309E+02 3.99773E+01 0.00000E+00
 -1      2792 1.22729E+02 4.10917E+01 0.00000E+00
 -1      2793 1.24229E+02 4.10917E+01 0.00000E+00
 -1      2794 1.22309E+02 3.99773E+01 0.00000E+00
 -1      2795 1.25729E+02 4.10917E+01 0.00000E+00
 -1      2796 1.27229E+02 4.10917E+01 0.00000E+00
 -1      2797 1.25309E+02 3.99773E+01 0.00000E+00
 -1      2798 1.28729E+02 4.10917E+01 0.00000E+00
 -1      2799 1.30229E+02 4.10917E+01 0.00000E+00
 -1      2800 1.28309E+02 3.99773E+01 0.00000E+00
 -1      2801 1.31729E+02 4.10917E+01 0.00000E+00
 -1      2802 1.33229E+02 4.10917E+01 0.00000E+00
 -1      2803 1.31309E+02 3.99773E+01 0.00000E+00
 -1      2804 1.34729E+02 4.10917E+01 0.00000E+00
 -1      2805 1.36229E+02 4.10917E+01 0.00000E+00
 -1      2806 1.34309E+02 3.99773E+01 0.00000E+00
 -1      2807 1.37729E+02 4.10917E+01 0.00000E+00
 -1      2808 1.39229E+02 4.10917E+01 0.00000E+00
 -1      2809 1.37309E+02 3.99773E+01 0.00000E+00
 -1      2810 5.80658E+01 3.56188E+01 0.00000E+00
 -1      2811 5.70957E+01 3.47665E+01 0.00000E+00
 -1      2812 6.00831E+01 3.70259E+01 0.00000E+00
 -1      2813 5.91335E+01 3.64257E+01 0.00000E+00
 -1      2814 2.12850E+01 7.90325E+00 0.00000E+00
 -1      2815 1.97850E+01 7.90325E+00 0.00000E+00
 -1      2816 3.02850E+01 7.90325E+00 0.00000E+00
 -1      2817 2.87850E+01 7.90325E+00 0.00000E+00
 -1      2818 3.32850E+01 7.90325E+00 0.00000E+00
 -1      2819 3.17850E+01 7.90325E+00 0.00000E+00
 -1      2820 3.10350E+01 9.20225E+00 0.00000E+00
 -1      2821 3.62850E+01 7.90325E+00 0.00000E+00
 -1      2822 3.47850E+01 7.90325E+00 0.00000E+00
 -1      2823 3.40350E+01 9.20225E+00 0.00000E+00
 -1      2824 3.92850E+01 7.90325E+00 0.00000E+00
 -1      2825 3.77850E+01 7.90325E+00 0.00000E+00
 -1      2826 3.70350E+01 9.20225E+00 0.00000E+00
 -1      2827 4.22850E+01 7.90325E+00 0.00000E+00
 -1      2828 4.07850E+01 7.90325E+00 0.00000E+00
 -1      2829 4.00350E+01 9.20225E+00 0.00000E+00
 -1      2830 4.52850E+01 7.90325E+00 0.00000E+00
 -1      2831 4.37850E+01 7.90325E+00 0.00000E+00
 -1      2832 4.30350E+01 9.20225E+00 0.00000E+00
 -1      2833 4.82850E+01 7.90325E+00 0.00000E+00
 -1      2834 4.67850E+01 7.90325E+00 0.00000E+00
 -1      2835 4.60350E+01 9.20225E+00 0.00000E+00
 -1      2836 5.12850E+01 7.90325E+00 0.00000E+00
 -1      2837 4.97850E+01 7.90325E+00 0.00000E+00
 -1      2838 4.90350E+01 9.20225E+00 0.00000E+00
 -1      2839 5.42850E+01 7.90325E+00 0.00000E+00
 -1      2840 5.27850E+01 7.90325E+00 0.00000E+00
 -1      2841 5.20350E+01 9.20225E+00 0.00000E+00
 -1      2842 5.72850E+01 7.90325E+00 0.00000E+00
 -1      2843 5.57850E+01 7.90325E+00 0.00000E+00
 -1      2844 5.50350E+01 9.20225E+00 0.00000E+00
 -1      2845 6.02850E+01 7.90325E+00 0.00000E+00
 -1      2846 5.87850E+01 7.90325E+00 0.00000E+00
 -1      2847 5.80350E+01 9.20225E+00 0.00000E+00
 -1      2848 6.32850E+01 7.90325E+00 0.00000E+00
 -1      2849 6.17850E+01 7.90325E+00 0.00000E+00
 -1      2850 6.10350E+01 9.20225E+00 0.00000E+00
 -1      2851 6.62850E+01 7.90325E+00 0.00000E+00
 -1      2852 6.47850E+01 7.90325E+00 0.00000E+00
 -1      2853 6.40350E+01 9.20225E+00 0.00000E+00
 -1      2854 6.92850E+01 7.90325E+00 0.00000E+00
 -1      2855 6.77850E+01 7.90325E+00 0.00000E+00
 -1      2856 6.70350E+01 9.20225E+00 0.00000E+00
 -1      2857 7.22850E+01 7.90325E+00 0.00000E+00
 -1      2858 7.07850E+01 7.90325E+00 0.00000E+00
 -1      2859 7.00350E+01 9.20225E+00 0.00000E+00
 -1      2860 7.52850E+01 7.90325E+00 0.00000E+00
 -1      2861 7.37850E+01 7.90325E+00 0.00000E+00
 -1      2862 7.30350E+01 9.20225E+00 0.00000E+00
 -1      2863 7.82850E+01 7.90325E+00 0.00000E+00
 -1      2864 7.67850E+01 7.90325E+00 0.00000E+00
 -1      2865 7.60350E+01 9.20225E+00 0.00000E+00
 -1      2866 8.12850E+01 7.90325E+00 0.00000E+00
 -1      2867 7.97850E+01 7.90325E+00 0.00000E+00
 -1      2868 7.90350E+01 9.20225E+00 0.00000E+00
 -1      2869 8.42850E+01 7.90325E+00 0.00000E+00
 -1      2870 8.27850E+01 7.90325E+00 0.00000E+00
 -1      2871 8.20350E+01 9.20225E+00 0.00000E+00
 -1      2872 8.72850E+01 7.90325E+00 0.00000E+00
 -1      2873 8.57850E+01 7.90325E+00 0.00000E+00
 -1      2874 8.50350E+01 9.20225E+00 0.00000E+00
 -1      2875 9.02850E+01 7.90325E+00 0.00000E+00
 -1      2876 8.87850E+01 7.90325E+00 0.00000E+00
 -1      2877 8.80350E+01 9.20225E+00 0.00000E+00
 -1      2878 9.32850E+01 7.90325E+00 0.00000E+00
 -1      2879 9.17850E+01 7.90325E+00 0.00000E+00
 -1      2880 9.10350E+01 9.20225E+00 0.00000E+00
 -1      2881 9.62850E+01 7.90325E+00 0.00000E+00
 -1      2882 9.47850E+01 7.90325E+00 0.00000E+00
 -1      2883 9.40350E+01 9.20225E+00 0.00000E+00
 -1      2884 9.92850E+01 7.90325E+00 0.00000E+00
 -1      2885 9.77850E+01 7.90325E+00 0.00000E+00
 -1      2886 9.70350E+01 9.20225E+00 0.00000E+00
 -1      2887 1.02285E+02 7.90325E+00 0.00000E+00
 -1      2888 1.00785E+02 7.90325E+00 0.00000E+00
 -1      2889 1.00035E+02 9.20225E+00 0.00000E+00
 -1      2890 1.05285E+02 7.90325E+00 0.00000E+00
 -1      2891 1.03785E+02 7.90325E+00 0.00000E+00
 -1      2892 1.03035E+02 9.20225E+00 0.00000E+00
 -1      2893 1.08285E+02 7.90325E+00 0.00000E+00
 -1      2894 1.06785E+02 7.90325E+00 0.00000E+00
 -1      2895 1.06035E+02 9.20225E+00 0.00000E+00
 -1      2896 1.11285E+02 7.90325E+00 0.00000E+00
 -1      2897 1.09785E+02 7.90325E+00 0.00000E+00
 -1      2898 1.09035E+02 9.20225E+00 0.00000E+00
 -1      2899 1.14285E+02 7.90325E+00 0.00000E+00
 -1      2900 1.12785E+02 7.90325E+00 0.00000E+00
 -1      2901 1.12035E+02 9.20225E+00 0.00000E+00
 -1      2902 1.17285E+02 7.90325E+00 0.00000E+00
 -1      2903 1.15785E+02 7.90325E+00 0.00000E+00
 -1      2904 1.15035E+02 9.20225E+00 0.00000E+00
 -1      2905 1.20285E+02 7.90325E+00 0.00000E+00
 -1      2906 1.18785E+02 7.90325E+00 0.00000E+00
 -1      2907 1.18035E+02 9.20225E+00 0.00000E+00
 -1      2908 1.23285E+02 7.90325E+00 0.00000E+00
 -1      2909 1.21785E+02 7.90325E+00 0.00000E+00
 -1      2910 1.21035E+02 9.20225E+00 0.00000E+00
 -1      2911 1.26285E+02 7.90325E+00 0.00000E+00
 -1      2912 1.24785E+02 7.90325E+00 0.00000E+00
 -1      2913 1.24035E+02 9.20225E+00 0.00000E+00
 -1      2914 1.29285E+02 7.90325E+00 0.00000E+00
 -1      2915 1.27785E+02 7.90325E+00 0.00000E+00
 -1      2916 1.27035E+02 9.20225E+00 0.00000E+00
 -1      2917 1.32285E+02 7.90325E+00 0.00000E+00
 -1      2918 1.30785E+02 7.90325E+00 0.00000E+00
 -1      2919 1.30035E+02 9.20225E+00 0.00000E+00
 -1      2920 1.35285E+02 7.90325E+00 0.00000E+00
 -1      2921 1.33785E+02 7.90325E+00 0.00000E+00
 -1      2922 1.33035E+02 9.20225E+00 0.00000E+00
 -1      2923 1.38285E+02 7.90325E+00 0.00000E+00
 -1      2924 1.36785E+02 7.90325E+00 0.00000E+00
 -1      2925 1.36035E+02 9.20225E+00 0.00000E+00
 -1      2926 1.40953E+02 8.18394E+00 0.00000E+00
 -1      2927 1.39453E+02 8.18394E+00 0.00000E+00
 -1      2928 1.38703E+02 9.48294E+00 0.00000E+00
 -1      2929 1.41038E+02 1.00443E+01 0.00000E+00
 -1      2930 7.74702E+01 3.08261E+01 0.00000E+00
 -1      2931 7.67977E+01 3.19945E+01 0.00000E+00
 -1      2932 1.40907E+02 2.42875E+01 0.00000E+00
 -1      2933 1.40907E+02 2.28125E+01 0.00000E+00
 -1      2934 1.40079E+02 4.10286E+01 0.00000E+00
 -1      2935 1.41093E+02 4.10578E+01 0.00000E+00
 -1      2936 1.41357E+02 3.97881E+01 0.00000E+00
 -1      2937 1.39658E+02 3.99143E+01 0.00000E+00
 -1      2938 1.40907E+02 1.83875E+01 0.00000E+00
 -1      2939 1.40907E+02 1.69125E+01 0.00000E+00
 -1      2940 1.40907E+02 2.72375E+01 0.00000E+00
 -1      2941 1.40907E+02 2.57625E+01 0.00000E+00
 -1      2942 1.39608E+02 2.50250E+01 0.00000E+00
 -1      2943 1.40907E+02 2.13375E+01 0.00000E+00
 -1      2944 1.40907E+02 1.98625E+01 0.00000E+00
 -1      2945 1.39608E+02 1.91250E+01 0.00000E+00
 -1      2946 1.39608E+02 2.20750E+01 0.00000E+00
 -1      2947 1.40907E+02 3.01375E+01 0.00000E+00
 -1      2948 1.40907E+02 2.86875E+01 0.00000E+00
 -1      2949 1.39608E+02 2.79500E+01 0.00000E+00
 -1      2950 1.40907E+02 3.30875E+01 0.00000E+00
 -1      2951 1.40907E+02 3.16125E+01 0.00000E+00
 -1      2952 1.39608E+02 3.08750E+01 0.00000E+00
 -1      2953 1.40907E+02 3.60375E+01 0.00000E+00
 -1      2954 1.40907E+02 3.45625E+01 0.00000E+00
 -1      2955 1.39608E+02 3.38250E+01 0.00000E+00
 -1      2956 1.82850E+01 7.90325E+00 0.00000E+00
 -1      2957 1.67850E+01 7.90325E+00 0.00000E+00
 -1      2958 1.60350E+01 9.20225E+00 0.00000E+00
 -1      2959 1.90350E+01 9.20225E+00 0.00000E+00
 -1      2960 5.45364E+01 2.86127E+01 0.00000E+00
 -1      2961 5.43166E+01 2.74404E+01 0.00000E+00
 -1      2962 7.83341E+01 2.88397E+01 0.00000E+00
 -1      2963 7.81180E+01 2.96626E+01 0.00000E+00
 -1      2964 6.21868E+01 3.79931E+01 0.00000E+00
 -1      2965 6.12045E+01 3.76593E+01 0.00000E+00
 -1      2966 6.69365E+01 1.38766E+01 0.00000E+00
 -1      2967 6.78700E+01 1.41371E+01 0.00000E+00
 -1      2968 2.72850E+01 7.90325E+00 0.00000E+00
 -1      2969 2.57850E+01 7.90325E+00 0.00000E+00
 -1      2970 2.80350E+01 9.20225E+00 0.00000E+00
 -1      2971 2.42850E+01 7.90325E+00 0.00000E+00
 -1      2972 2.27850E+01 7.90325E+00 0.00000E+00
 -1      2973 2.50350E+01 9.20225E+00 0.00000E+00
 -1      2974 1.17589E+01 4.09389E+01 0.00000E+00
 -1      2975 1.32589E+01 4.09389E+01 0.00000E+00
 -1      2976 1.40089E+01 3.96399E+01 0.00000E+00
 -1      2977 1.17266E+01 3.97038E+01 0.00000E+00
 -1      2978 9.09300E+00 1.68813E+01 0.00000E+00
 -1      2979 9.09300E+00 1.83563E+01 0.00000E+00
 -1      2980 1.03920E+01 1.90812E+01 0.00000E+00
 -1      2981 1.03920E+01 1.61437E+01 0.00000E+00
 -1      2982 7.61690E+01 3.31204E+01 0.00000E+00
 -1      2983 7.55486E+01 3.41004E+01 0.00000E+00
 -1      2984 7.13681E+01 1.61600E+01 0.00000E+00
 -1      2985 7.23831E+01 1.67526E+01 0.00000E+00
 -1      2986 9.09300E+00 3.15875E+01 0.00000E+00
 -1      2987 9.09300E+00 3.30625E+01 0.00000E+00
 -1      2988 6.11350E+01 1.55602E+01 0.00000E+00
 -1      2989 6.23363E+01 1.49697E+01 0.00000E+00
 -1      2990 7.46444E+01 3.53334E+01 0.00000E+00
 -1      2991 7.36375E+01 3.61257E+01 0.00000E+00
 -1      2992 5.50879E+01 3.11350E+01 0.00000E+00
 -1      2993 5.47492E+01 2.99003E+01 0.00000E+00
 -1      2994 5.86410E+01 1.66003E+01 0.00000E+00
 -1      2995 5.98287E+01 1.59849E+01 0.00000E+00
 -1      2996 5.52132E+01 2.09729E+01 0.00000E+00
 -1      2997 5.57359E+01 1.98982E+01 0.00000E+00
 -1      2998 7.33664E+01 1.74708E+01 0.00000E+00
 -1      2999 7.41656E+01 1.81085E+01 0.00000E+00
 -1      3000 5.40231E+01 2.61906E+01 0.00000E+00
 -1      3001 5.40174E+01 2.51384E+01 0.00000E+00
 -1      3002 5.60627E+01 3.35766E+01 0.00000E+00
 -1      3003 5.55165E+01 3.24913E+01 0.00000E+00
 -1      3004 7.66309E+01 2.10473E+01 0.00000E+00
 -1      3005 7.72278E+01 2.21746E+01 0.00000E+00
 -1      3006 5.64841E+01 1.86169E+01 0.00000E+00
 -1      3007 5.73217E+01 1.76397E+01 0.00000E+00
 -1      3008 6.91168E+01 1.47472E+01 0.00000E+00
 -1      3009 7.03116E+01 1.53816E+01 0.00000E+00
 -1      3010 6.38256E+01 1.43365E+01 0.00000E+00
 -1      3011 6.52631E+01 1.40405E+01 0.00000E+00
 -1      3012 9.09300E+00 3.45313E+01 0.00000E+00
 -1      3013 9.09300E+00 3.60000E+01 0.00000E+00
 -1      3014 1.03920E+01 3.37938E+01 0.00000E+00
 -1      3015 1.03920E+01 2.49750E+01 0.00000E+00
 -1      3016 9.09300E+00 2.57000E+01 0.00000E+00
 -1      3017 9.09300E+00 2.71750E+01 0.00000E+00
 -1      3018 9.66450E+00 9.72612E+00 0.00000E+00
 -1      3019 7.69099E+01 2.00429E+01 0.00000E+00
 -1      3020 6.84645E+01 3.94966E+01 0.00000E+00
 -1      3021 6.28652E+01 1.38997E+01 0.00000E+00
 -1      3022 6.33940E+01 1.28297E+01 0.00000E+00
 -1      3023 6.19047E+01 1.34629E+01 0.00000E+00
 -1      3024 6.89481E+01 1.35488E+01 0.00000E+00
 -1      3025 5.53763E+01 1.87425E+01 0.00000E+00
 -1      3026 6.56812E+01 3.87870E+01 0.00000E+00
 -1      3027 7.82578E+01 2.24615E+01 0.00000E+00
 -1      3028 7.56791E+01 3.53021E+01 0.00000E+00
 -1      3029 5.59818E+01 3.46470E+01 0.00000E+00
 -1      3030 5.48678E+01 3.45275E+01 0.00000E+00
 -1      3031 5.59008E+01 3.57174E+01 0.00000E+00
 -1      3032 6.24000E+01 4.10133E+01 0.00000E+00
 -1      3033 6.39000E+01 4.10133E+01 0.00000E+00
 -1      3034 1.39608E+02 1.61875E+01 0.00000E+00
 -1      3035 1.40907E+02 1.54500E+01 0.00000E+00
 -1      3036 1.40907E+02 1.39875E+01 0.00000E+00
 -1      3037 5.80825E+01 3.66438E+01 0.00000E+00
 -1      3038 5.33725E+01 2.69194E+01 0.00000E+00
 -1      3039 2.20350E+01 9.20225E+00 0.00000E+00
 -1      3040 7.84887E+01 3.06537E+01 0.00000E+00
 -1      3041 7.32914E+01 1.64339E+01 0.00000E+00
 -1      3042 1.40973E+02 1.27472E+01 0.00000E+00
 -1      3043 1.40973E+02 1.12847E+01 0.00000E+00
 -1      3044 1.39805E+02 1.10040E+01 0.00000E+00
 -1      3045 1.39674E+02 1.34847E+01 0.00000E+00
 -1      3046 6.30654E+01 3.85446E+01 0.00000E+00
 -1      3047 6.22714E+01 3.92691E+01 0.00000E+00
 -1      3048 5.43463E+01 2.14464E+01 0.00000E+00
 -1      3049 5.74439E+01 1.64218E+01 0.00000E+00
 -1      3050 7.72121E+01 3.29431E+01 0.00000E+00
 -1      3051 1.40907E+02 3.89875E+01 0.00000E+00
 -1      3052 1.40907E+02 3.75125E+01 0.00000E+00
 -1      3053 5.45201E+01 3.21008E+01 0.00000E+00
 -1      3054 7.89291E+01 2.80787E+01 0.00000E+00
 -1      3055 7.97315E+01 2.87292E+01 0.00000E+00
 -1      3056 7.95240E+01 2.73177E+01 0.00000E+00
 -1      3057 6.00695E+01 1.49577E+01 0.00000E+00
 -1      3058 7.87749E+01 2.51903E+01 0.00000E+00
 -1      3059 6.60279E+01 1.31026E+01 0.00000E+00
 -1      3060 5.35718E+01 2.42692E+01 0.00000E+00
 -1      3061 5.31261E+01 2.34000E+01 0.00000E+00
 -1      3062 5.26333E+01 2.48003E+01 0.00000E+00
 -1      3063 6.02715E+01 3.80841E+01 0.00000E+00
 -1      3064 1.09635E+01 1.04636E+01 0.00000E+00
 -1      3065 7.33299E+01 3.71646E+01 0.00000E+00
 -1      3066 9.09300E+00 2.86437E+01 0.00000E+00
 -1      3067 9.09300E+00 3.01187E+01 0.00000E+00
 -1      3068 1.03920E+01 3.08563E+01 0.00000E+00
 -1      3069 1.03920E+01 2.79188E+01 0.00000E+00
 -1      3070 7.12515E+01 1.49374E+01 0.00000E+00
 -1      3071 5.38788E+01 2.94568E+01 0.00000E+00
 -1      3072 7.52036E+01 1.80142E+01 0.00000E+00
 -1      3073 7.08469E+01 3.88857E+01 0.00000E+00
 -1      3074 1.39608E+02 3.67750E+01 0.00000E+00
 -1      3075 6.36962E+01 3.91894E+01 0.00000E+00
 -1      3076 7.74440E+01 1.88447E+01 0.00000E+00
 -1      3077 7.82214E+01 2.00114E+01 0.00000E+00
 -1      3078 1.16910E+01 1.24625E+01 0.00000E+00
 -1      3079 1.16910E+01 1.39375E+01 0.00000E+00
 -1      3080 6.16500E+01 3.97143E+01 0.00000E+00
 -1      3081 1.89000E+01 3.83090E+01 0.00000E+00
 -1      3082 2.04000E+01 3.83090E+01 0.00000E+00
 -1      3083 2.19000E+01 3.83090E+01 0.00000E+00
 -1      3084 2.34000E+01 3.83090E+01 0.00000E+00
 -1      3085 2.11500E+01 3.70100E+01 0.00000E+00
 -1      3086 2.49000E+01 3.83090E+01 0.00000E+00
 -1      3087 2.64000E+01 3.83090E+01 0.00000E+00
 -1      3088 2.41500E+01 3.70100E+01 0.00000E+00
 -1      3089 2.79000E+01 3.83090E+01 0.00000E+00
 -1      3090 2.94000E+01 3.83090E+01 0.00000E+00
 -1      3091 2.71500E+01 3.70100E+01 0.00000E+00
 -1      3092 3.09000E+01 3.83090E+01 0.00000E+00
 -1      3093 3.24000E+01 3.83090E+01 0.00000E+00
 -1      3094 3.01500E+01 3.70100E+01 0.00000E+00
 -1      3095 3.39000E+01 3.83090E+01 0.00000E+00
 -1      3096 3.54000E+01 3.83090E+01 0.00000E+00
 -1      3097 3.31500E+01 3.70100E+01 0.00000E+00
 -1      3098 3.69000E+01 3.83090E+01 0.00000E+00
 -1      3099 3.84000E+01 3.83090E+01 0.00000E+00
 -1      3100 3.61500E+01 3.70100E+01 0.00000E+00
 -1      3101 3.99000E+01 3.83090E+01 0.00000E+00
 -1      3102 4.14000E+01 3.83090E+01 0.00000E+00
 -1      3103 3.91500E+01 3.70100E+01 0.00000E+00
 -1      3104 4.29000E+01 3.83090E+01 0.00000E+00
 -1      3105 4.44000E+01 3.83090E+01 0.00000E+00
 -1      3106 4.21500E+01 3.70100E+01 0.00000E+00
 -1      3107 4.59000E+01 3.83090E+01 0.00000E+00
 -1      3108 4.74000E+01 3.83090E+01 0.00000E+00
 -1      3109 4.51500E+01 3.70100E+01 0.00000E+00
 -1      3110 4.89000E+01 3.83090E+01 0.00000E+00
 -1      3111 5.04000E+01 3.83090E+01 0.00000E+00
 -1      3112 4.81500E+01 3.70100E+01 0.00000E+00
 -1      3113 5.49000E+01 3.84991E+01 0.00000E+00
 -1      3114 5.64000E+01 3.84991E+01 0.00000E+00
 -1      3115 6.51350E+01 3.94182E+01 0.00000E+00
 -1      3116 7.65589E+01 3.86783E+01 0.00000E+00
 -1      3117 7.80589E+01 3.86783E+01 0.00000E+00
 -1      3118 7.95589E+01 3.86783E+01 0.00000E+00
 -1      3119 8.10589E+01 3.86783E+01 0.00000E+00
 -1      3120 7.88089E+01 3.73793E+01 0.00000E+00
 -1      3121 8.25589E+01 3.86783E+01 0.00000E+00
 -1      3122 8.40589E+01 3.86783E+01 0.00000E+00
 -1      3123 8.18089E+01 3.73793E+01 0.00000E+00
 -1      3124 8.55589E+01 3.86783E+01 0.00000E+00
 -1      3125 8.70589E+01 3.86783E+01 0.00000E+00
 -1      3126 8.48089E+01 3.73793E+01 0.00000E+00
 -1      3127 8.85589E+01 3.86783E+01 0.00000E+00
 -1      3128 9.00589E+01 3.86783E+01 0.00000E+00
 -1      3129 8.78089E+01 3.73793E+01 0.00000E+00
 -1      3130 9.15589E+01 3.86783E+01 0.00000E+00
 -1      3131 9.30589E+01 3.86783E+01 0.00000E+00
 -1      3132 9.08089E+01 3.73793E+01 0.00000E+00
 -1      3133 9.45589E+01 3.86783E+01 0.00000E+00
 -1      3134 9.60589E+01 3.86783E+01 0.00000E+00
 -1      3135 9.38089E+01 3.73793E+01 0.00000E+00
 -1      3136 9.75589E+01 3.86783E+01 0.00000E+00
 -1      3137 9.90589E+01 3.86783E+01 0.00000E+00
 -1      3138 9.68089E+01 3.73793E+01 0.00000E+00
 -1      3139 1.00559E+02 3.86783E+01 0.00000E+00
 -1      3140 1.02059E+02 3.86783E+01 0.00000E+00
 -1      3141 9.98089E+01 3.73793E+01 0.00000E+00
 -1      3142 1.03559E+02 3.86783E+01 0.00000E+00
 -1      3143 1.05059E+02 3.86783E+01 0.00000E+00
 -1      3144 1.02809E+02 3.73793E+01 0.00000E+00
 -1      3145 1.06559E+02 3.86783E+01 0.00000E+00
 -1      3146 1.08059E+02 3.86783E+01 0.00000E+00
 -1      3147 1.05809E+02 3.73793E+01 0.00000E+00
 -1      3148 1.09559E+02 3.86783E+01 0.00000E+00
 -1      3149 1.11059E+02 3.86783E+01 0.00000E+00
 -1      3150 1.08809E+02 3.73793E+01 0.00000E+00
 -1      3151 1.12559E+02 3.86783E+01 0.00000E+00
 -1      3152 1.14059E+02 3.86783E+01 0.00000E+00
 -1      3153 1.11809E+02 3.73793E+01 0.00000E+00
 -1      3154 1.15559E+02 3.86783E+01 0.00000E+00
 -1      3155 1.17059E+02 3.86783E+01 0.00000E+00
 -1      3156 1.14809E+02 3.73793E+01 0.00000E+00
 -1      3157 1.18559E+02 3.86783E+01 0.00000E+00
 -1      3158 1.20059E+02 3.86783E+01 0.00000E+00
 -1      3159 1.17809E+02 3.73793E+01 0.00000E+00
 -1      3160 1.21559E+02 3.86783E+01 0.00000E+00
 -1      3161 1.23059E+02 3.86783E+01 0.00000E+00
 -1      3162 1.20809E+02 3.73793E+01 0.00000E+00
 -1      3163 1.24559E+02 3.86783E+01 0.00000E+00
 -1      3164 1.26059E+02 3.86783E+01 0.00000E+00
 -1      3165 1.23809E+02 3.73793E+01 0.00000E+00
 -1      3166 1.27559E+02 3.86783E+01 0.00000E+00
 -1      3167 1.29059E+02 3.86783E+01 0.00000E+00
 -1      3168 1.26809E+02 3.73793E+01 0.00000E+00
 -1      3169 1.30559E+02 3.86783E+01 0.00000E+00
 -1      3170 1.32059E+02 3.86783E+01 0.00000E+00
 -1      3171 1.29809E+02 3.73793E+01 0.00000E+00
 -1      3172 1.33559E+02 3.86783E+01 0.00000E+00
 -1      3173 1.35059E+02 3.86783E+01 0.00000E+00
 -1      3174 1.32809E+02 3.73793E+01 0.00000E+00
 -1      3175 5.25213E+01 2.77787E+01 0.00000E+00
 -1      3176 5.22277E+01 2.65288E+01 0.00000E+00
 -1      3177 2.27850E+01 1.05013E+01 0.00000E+00
 -1      3178 2.12850E+01 1.05013E+01 0.00000E+00
 -1      3179 3.17850E+01 1.05013E+01 0.00000E+00
 -1      3180 3.02850E+01 1.05013E+01 0.00000E+00
 -1      3181 4.07850E+01 1.05013E+01 0.00000E+00
 -1      3182 3.92850E+01 1.05013E+01 0.00000E+00
 -1      3183 4.37850E+01 1.05013E+01 0.00000E+00
 -1      3184 4.22850E+01 1.05013E+01 0.00000E+00
 -1      3185 4.15350E+01 1.18003E+01 0.00000E+00
 -1      3186 4.67850E+01 1.05013E+01 0.00000E+00
 -1      3187 4.52850E+01 1.05013E+01 0.00000E+00
 -1      3188 4.45350E+01 1.18003E+01 0.00000E+00
 -1      3189 4.97850E+01 1.05013E+01 0.00000E+00
 -1      3190 4.82850E+01 1.05013E+01 0.00000E+00
 -1      3191 4.75350E+01 1.18003E+01 0.00000E+00
 -1      3192 5.27850E+01 1.05013E+01 0.00000E+00
 -1      3193 5.12850E+01 1.05013E+01 0.00000E+00
 -1      3194 5.05350E+01 1.18003E+01 0.00000E+00
 -1      3195 5.57850E+01 1.05013E+01 0.00000E+00
 -1      3196 5.42850E+01 1.05013E+01 0.00000E+00
 -1      3197 5.35350E+01 1.18003E+01 0.00000E+00
 -1      3198 5.87850E+01 1.05013E+01 0.00000E+00
 -1      3199 5.72850E+01 1.05013E+01 0.00000E+00
 -1      3200 5.65350E+01 1.18003E+01 0.00000E+00
 -1      3201 6.24843E+01 1.07976E+01 0.00000E+00
 -1      3202 6.09843E+01 1.07976E+01 0.00000E+00
 -1      3203 6.39843E+01 1.07976E+01 0.00000E+00
 -1      3204 6.81181E+01 1.10705E+01 0.00000E+00
 -1      3205 6.66181E+01 1.10705E+01 0.00000E+00
 -1      3206 7.37850E+01 1.03949E+01 0.00000E+00
 -1      3207 7.22850E+01 1.03949E+01 0.00000E+00
 -1      3208 7.67850E+01 1.03949E+01 0.00000E+00
 -1      3209 7.52850E+01 1.03949E+01 0.00000E+00
 -1      3210 7.45350E+01 1.15876E+01 0.00000E+00
 -1      3211 7.97850E+01 1.03949E+01 0.00000E+00
 -1      3212 7.82850E+01 1.03949E+01 0.00000E+00
 -1      3213 7.75350E+01 1.15876E+01 0.00000E+00
 -1      3214 8.27850E+01 1.03949E+01 0.00000E+00
 -1      3215 8.12850E+01 1.03949E+01 0.00000E+00
 -1      3216 8.05350E+01 1.15876E+01 0.00000E+00
 -1      3217 8.57850E+01 1.03949E+01 0.00000E+00
 -1      3218 8.42850E+01 1.03949E+01 0.00000E+00
 -1      3219 8.35350E+01 1.15876E+01 0.00000E+00
 -1      3220 8.87850E+01 1.03949E+01 0.00000E+00
 -1      3221 8.72850E+01 1.03949E+01 0.00000E+00
 -1      3222 8.65350E+01 1.15876E+01 0.00000E+00
 -1      3223 9.17850E+01 1.03949E+01 0.00000E+00
 -1      3224 9.02850E+01 1.03949E+01 0.00000E+00
 -1      3225 8.95350E+01 1.15876E+01 0.00000E+00
 -1      3226 9.47850E+01 1.03949E+01 0.00000E+00
 -1      3227 9.32850E+01 1.03949E+01 0.00000E+00
 -1      3228 9.25350E+01 1.15876E+01 0.00000E+00
 -1      3229 9.77850E+01 1.03949E+01 0.00000E+00
 -1      3230 9.62850E+01 1.03949E+01 0.00000E+00
 -1      3231 9.55350E+01 1.15876E+01 0.00000E+00
 -1      3232 1.00785E+02 1.03949E+01 0.00000E+00
 -1      3233 9.92850E+01 1.03949E+01 0.00000E+00
 -1      3234 9.85350E+01 1.15876E+01 0.00000E+00
 -1      3235 1.03785E+02 1.03949E+01 0.00000E+00
 -1      3236 1.02285E+02 1.03949E+01 0.00000E+00
 -1      3237 1.01535E+02 1.15876E+01 0.00000E+00
 -1      3238 1.06785E+02 1.03949E+01 0.00000E+00
 -1      3239 1.05285E+02 1.03949E+01 0.00000E+00
 -1      3240 1.04535E+02 1.15876E+01 0.00000E+00
 -1      3241 1.09785E+02 1.03949E+01 0.00000E+00
 -1      3242 1.08285E+02 1.03949E+01 0.00000E+00
 -1      3243 1.07535E+02 1.15876E+01 0.00000E+00
 -1      3244 1.12785E+02 1.03949E+01 0.00000E+00
 -1      3245 1.11285E+02 1.03949E+01 0.00000E+00
 -1      3246 1.10535E+02 1.15876E+01 0.00000E+00
 -1      3247 1.15785E+02 1.03949E+01 0.00000E+00
 -1      3248 1.14285E+02 1.03949E+01 0.00000E+00
 -1      3249 1.13535E+02 1.15876E+01 0.00000E+00
 -1      3250 1.18785E+02 1.03949E+01 0.00000E+00
 -1      3251 1.17285E+02 1.03949E+01 0.00000E+00
 -1      3252 1.16535E+02 1.15876E+01 0.00000E+00
 -1      3253 1.21785E+02 1.03949E+01 0.00000E+00
 -1      3254 1.20285E+02 1.03949E+01 0.00000E+00
 -1      3255 1.19535E+02 1.15876E+01 0.00000E+00
 -1      3256 1.24785E+02 1.03949E+01 0.00000E+00
 -1      3257 1.23285E+02 1.03949E+01 0.00000E+00
 -1      3258 1.22535E+02 1.15876E+01 0.00000E+00
 -1      3259 1.27785E+02 1.03949E+01 0.00000E+00
 -1      3260 1.26285E+02 1.03949E+01 0.00000E+00
 -1      3261 1.25535E+02 1.15876E+01 0.00000E+00
 -1      3262 1.30785E+02 1.03949E+01 0.00000E+00
 -1      3263 1.29285E+02 1.03949E+01 0.00000E+00
 -1      3264 1.28535E+02 1.15876E+01 0.00000E+00
 -1      3265 1.33785E+02 1.03949E+01 0.00000E+00
 -1      3266 1.32285E+02 1.03949E+01 0.00000E+00
 -1      3267 1.31535E+02 1.15876E+01 0.00000E+00
 -1      3268 1.36785E+02 1.03949E+01 0.00000E+00
 -1      3269 1.35285E+02 1.03949E+01 0.00000E+00
 -1      3270 1.34535E+02 1.15876E+01 0.00000E+00
 -1      3271 1.38879E+02 1.08398E+01 0.00000E+00
 -1      3272 1.37711E+02 1.05591E+01 0.00000E+00
 -1      3273 1.36961E+02 1.17518E+01 0.00000E+00
 -1      3274 1.38813E+02 1.20801E+01 0.00000E+00
 -1      3275 1.38309E+02 2.86750E+01 0.00000E+00
 -1      3276 1.38309E+02 2.72250E+01 0.00000E+00
 -1      3277 1.38309E+02 3.16250E+01 0.00000E+00
 -1      3278 1.38309E+02 3.01500E+01 0.00000E+00
 -1      3279 1.37010E+02 2.94250E+01 0.00000E+00
 -1      3280 1.38309E+02 2.57500E+01 0.00000E+00
 -1      3281 1.38309E+02 2.42750E+01 0.00000E+00
 -1      3282 1.37010E+02 2.64750E+01 0.00000E+00
 -1      3283 5.31999E+01 2.19585E+01 0.00000E+00
 -1      3284 5.34815E+01 2.05360E+01 0.00000E+00
 -1      3285 5.37570E+01 3.30879E+01 0.00000E+00
 -1      3286 5.33284E+01 3.17315E+01 0.00000E+00
 -1      3287 2.87850E+01 1.05013E+01 0.00000E+00
 -1      3288 2.72850E+01 1.05013E+01 0.00000E+00
 -1      3289 2.95350E+01 1.18003E+01 0.00000E+00
 -1      3290 3.77850E+01 1.05013E+01 0.00000E+00
 -1      3291 3.62850E+01 1.05013E+01 0.00000E+00
 -1      3292 3.85350E+01 1.18003E+01 0.00000E+00
 -1      3293 3.47850E+01 1.05013E+01 0.00000E+00
 -1      3294 3.32850E+01 1.05013E+01 0.00000E+00
 -1      3295 3.25350E+01 1.18003E+01 0.00000E+00
 -1      3296 3.55350E+01 1.18003E+01 0.00000E+00
 -1      3297 7.33055E+01 1.53823E+01 0.00000E+00
 -1      3298 7.42889E+01 1.61005E+01 0.00000E+00
 -1      3299 7.95619E+01 3.04892E+01 0.00000E+00
 -1      3300 7.89140E+01 3.16526E+01 0.00000E+00
 -1      3301 1.26488E+01 1.02017E+01 0.00000E+00
 -1      3302 1.20772E+01 1.14631E+01 0.00000E+00
 -1      3303 1.33763E+01 1.22006E+01 0.00000E+00
 -1      3304 1.41488E+01 1.02017E+01 0.00000E+00
 -1      3305 7.23469E+01 3.88857E+01 0.00000E+00
 -1      3306 5.40446E+01 1.88240E+01 0.00000E+00
 -1      3307 5.47929E+01 1.75426E+01 0.00000E+00
 -1      3308 7.88291E+01 2.14452E+01 0.00000E+00
 -1      3309 7.93996E+01 2.26971E+01 0.00000E+00
 -1      3310 1.59000E+01 3.83090E+01 0.00000E+00
 -1      3311 1.74000E+01 3.83090E+01 0.00000E+00
 -1      3312 1.81500E+01 3.70100E+01 0.00000E+00
 -1      3313 5.74001E+01 3.74205E+01 0.00000E+00
 -1      3314 5.63324E+01 3.66135E+01 0.00000E+00
 -1      3315 2.57850E+01 1.05013E+01 0.00000E+00
 -1      3316 2.42850E+01 1.05013E+01 0.00000E+00
 -1      3317 2.65350E+01 1.18003E+01 0.00000E+00
 -1      3318 9.14137E+00 3.71183E+01 0.00000E+00
 -1      3319 9.17362E+00 3.83534E+01 0.00000E+00
 -1      3320 1.05371E+01 3.86174E+01 0.00000E+00
 -1      3321 1.04404E+01 3.63808E+01 0.00000E+00
 -1      3322 7.12816E+01 1.37903E+01 0.00000E+00
 -1      3323 7.23381E+01 1.45687E+01 0.00000E+00
 -1      3324 7.53795E+01 1.68931E+01 0.00000E+00
 -1      3325 7.63084E+01 1.77552E+01 0.00000E+00
 -1      3326 7.96586E+01 2.44828E+01 0.00000E+00
 -1      3327 7.96052E+01 2.59597E+01 0.00000E+00
 -1      3328 7.37919E+01 3.82563E+01 0.00000E+00
 -1      3329 5.90735E+01 1.41155E+01 0.00000E+00
 -1      3330 6.03798E+01 1.36908E+01 0.00000E+00
 -1      3331 7.69461E+01 3.57242E+01 0.00000E+00
 -1      3332 7.60419E+01 3.69573E+01 0.00000E+00
 -1      3333 1.38309E+02 3.45750E+01 0.00000E+00
 -1      3334 1.38309E+02 3.31000E+01 0.00000E+00
 -1      3335 1.37010E+02 3.23750E+01 0.00000E+00
 -1      3336 7.84947E+01 3.29208E+01 0.00000E+00
 -1      3337 7.78659E+01 3.40467E+01 0.00000E+00
 -1      3338 5.29468E+01 3.03540E+01 0.00000E+00
 -1      3339 5.27340E+01 2.90663E+01 0.00000E+00
 -1      3340 5.15893E+01 2.86758E+01 0.00000E+00
 -1      3341 5.60462E+01 1.60046E+01 0.00000E+00
 -1      3342 5.73655E+01 1.49652E+01 0.00000E+00
 -1      3343 1.16910E+01 2.12875E+01 0.00000E+00
 -1      3344 1.16910E+01 2.27625E+01 0.00000E+00
 -1      3345 6.97000E+01 1.04414E+01 0.00000E+00
 -1      3346 6.92831E+01 1.23097E+01 0.00000E+00
 -1      3347 7.05300E+01 1.29198E+01 0.00000E+00
 -1      3348 7.12000E+01 1.04414E+01 0.00000E+00
 -1      3349 7.52919E+01 3.82563E+01 0.00000E+00
 -1      3350 1.16910E+01 2.42375E+01 0.00000E+00
 -1      3351 1.16910E+01 2.57125E+01 0.00000E+00
 -1      3352 1.29900E+01 2.35000E+01 0.00000E+00
 -1      3353 1.16910E+01 3.30594E+01 0.00000E+00
 -1      3354 1.16910E+01 3.45281E+01 0.00000E+00
 -1      3355 1.29900E+01 1.46687E+01 0.00000E+00
 -1      3356 1.16910E+01 1.54063E+01 0.00000E+00
 -1      3357 1.16910E+01 1.68750E+01 0.00000E+00
 -1      3358 6.09086E+01 1.26208E+01 0.00000E+00
 -1      3359 7.16166E+01 1.25511E+01 0.00000E+00
 -1      3360 1.38309E+02 1.69188E+01 0.00000E+00
 -1      3361 1.38309E+02 1.54563E+01 0.00000E+00
 -1      3362 1.16910E+01 1.83469E+01 0.00000E+00
 -1      3363 1.16910E+01 1.98156E+01 0.00000E+00
 -1      3364 1.29900E+01 2.05531E+01 0.00000E+00
 -1      3365 1.29900E+01 1.76094E+01 0.00000E+00
 -1      3366 5.52184E+01 3.64941E+01 0.00000E+00
 -1      3367 1.16910E+01 3.01219E+01 0.00000E+00
 -1      3368 1.16910E+01 3.15906E+01 0.00000E+00
 -1      3369 1.29900E+01 3.23250E+01 0.00000E+00
 -1      3370 5.22184E+01 3.63040E+01 0.00000E+00
 -1      3371 5.29684E+01 3.76030E+01 0.00000E+00
 -1      3372 5.81501E+01 3.85294E+01 0.00000E+00
 -1      3373 5.44684E+01 3.76030E+01 0.00000E+00
 -1      3374 5.96501E+01 3.85294E+01 0.00000E+00
 -1      3375 5.09309E+01 2.65189E+01 0.00000E+00
 -1      3376 5.17821E+01 2.56596E+01 0.00000E+00
 -1      3377 5.13364E+01 2.47904E+01 0.00000E+00
 -1      3378 5.76757E+01 1.36983E+01 0.00000E+00
 -1      3379 1.36559E+02 3.86783E+01 0.00000E+00
 -1      3380 1.38059E+02 3.86783E+01 0.00000E+00
 -1      3381 2.05350E+01 1.18003E+01 0.00000E+00
 -1      3382 1.97850E+01 1.05013E+01 0.00000E+00
 -1      3383 1.82850E+01 1.05013E+01 0.00000E+00
 -1      3384 7.53936E+01 1.58415E+01 0.00000E+00
 -1      3385 6.49447E+01 1.12344E+01 0.00000E+00
 -1      3386 7.19500E+01 1.16341E+01 0.00000E+00
 -1      3387 1.37010E+02 2.35250E+01 0.00000E+00
 -1      3388 1.38309E+02 2.28000E+01 0.00000E+00
 -1      3389 1.38309E+02 2.13250E+01 0.00000E+00
 -1      3390 7.82287E+01 3.57019E+01 0.00000E+00
 -1      3391 7.93632E+01 2.02470E+01 0.00000E+00
 -1      3392 1.38309E+02 1.98594E+01 0.00000E+00
 -1      3393 1.38309E+02 1.83844E+01 0.00000E+00
 -1      3394 1.37010E+02 1.76531E+01 0.00000E+00
 -1      3395 1.37010E+02 2.05844E+01 0.00000E+00
 -1      3396 1.40058E+02 3.90506E+01 0.00000E+00
 -1      3397 5.22613E+01 2.24896E+01 0.00000E+00
 -1      3398 1.39208E+02 3.91137E+01 0.00000E+00
 -1      3399 1.38458E+02 3.78147E+01 0.00000E+00
 -1      3400 6.07714E+01 3.91628E+01 0.00000E+00
 -1      3401 1.35809E+02 3.73793E+01 0.00000E+00
 -1      3402 5.21836E+01 3.13410E+01 0.00000E+00
 -1      3403 1.69669E+01 1.03515E+01 0.00000E+00
 -1      3404 1.54669E+01 1.03515E+01 0.00000E+00
 -1      3405 1.50806E+01 1.13509E+01 0.00000E+00
 -1      3406 1.77169E+01 1.16505E+01 0.00000E+00
 -1      3407 1.16299E+01 3.74672E+01 0.00000E+00
 -1      3408 1.16783E+01 3.85855E+01 0.00000E+00
 -1      3409 1.28194E+01 3.85536E+01 0.00000E+00
 -1      3410 8.04077E+01 2.66102E+01 0.00000E+00
 -1      3411 1.38458E+02 3.63397E+01 0.00000E+00
 -1      3412 1.37159E+02 3.56147E+01 0.00000E+00
 -1      3413 8.02299E+01 2.34665E+01 0.00000E+00
 -1      3414 8.10602E+01 2.42359E+01 0.00000E+00
 -1      3415 8.08012E+01 2.24502E+01 0.00000E+00
 -1      3416 8.01568E+01 2.97281E+01 0.00000E+00
 -1      3417 8.05821E+01 3.07271E+01 0.00000E+00
 -1      3418 8.07518E+01 2.89671E+01 0.00000E+00
 -1      3419 7.95678E+01 3.27563E+01 0.00000E+00
 -1      3420 5.28981E+01 1.93361E+01 0.00000E+00
 -1      3421 1.39605E+01 3.85216E+01 0.00000E+00
 -1      3422 2.35350E+01 1.18003E+01 0.00000E+00
 -1      3423 7.33356E+01 1.42353E+01 0.00000E+00
 -1      3424 1.47105E+01 3.72226E+01 0.00000E+00
 -1      3425 7.76199E+01 1.77237E+01 0.00000E+00
 -1      3426 5.47144E+01 1.60861E+01 0.00000E+00
 -1      3427 7.27016E+01 1.25046E+01 0.00000E+00
 -1      3428 2.34000E+01 3.57110E+01 0.00000E+00
 -1      3429 2.49000E+01 3.57110E+01 0.00000E+00
 -1      3430 2.64000E+01 3.57110E+01 0.00000E+00
 -1      3431 2.79000E+01 3.57110E+01 0.00000E+00
 -1      3432 2.56500E+01 3.44120E+01 0.00000E+00
 -1      3433 2.94000E+01 3.57110E+01 0.00000E+00
 -1      3434 3.09000E+01 3.57110E+01 0.00000E+00
 -1      3435 2.86500E+01 3.44120E+01 0.00000E+00
 -1      3436 3.24000E+01 3.57110E+01 0.00000E+00
 -1      3437 3.39000E+01 3.57110E+01 0.00000E+00
 -1      3438 3.16500E+01 3.44120E+01 0.00000E+00
 -1      3439 3.54000E+01 3.57110E+01 0.00000E+00
 -1      3440 3.69000E+01 3.57110E+01 0.00000E+00
 -1      3441 3.46500E+01 3.44120E+01 0.00000E+00
 -1      3442 3.84000E+01 3.57110E+01 0.00000E+00
 -1      3443 3.99000E+01 3.57110E+01 0.00000E+00
 -1      3444 3.76500E+01 3.44120E+01 0.00000E+00
 -1      3445 4.14000E+01 3.57110E+01 0.00000E+00
 -1      3446 4.29000E+01 3.57110E+01 0.00000E+00
 -1      3447 4.06500E+01 3.44120E+01 0.00000E+00
 -1      3448 4.44000E+01 3.57110E+01 0.00000E+00
 -1      3449 4.59000E+01 3.57110E+01 0.00000E+00
 -1      3450 4.36500E+01 3.44120E+01 0.00000E+00
 -1      3451 4.74000E+01 3.57110E+01 0.00000E+00
 -1      3452 4.89000E+01 3.57110E+01 0.00000E+00
 -1      3453 4.66500E+01 3.44120E+01 0.00000E+00
 -1      3454 7.41020E+01 1.24530E+01 0.00000E+00
 -1      3455 7.37686E+01 1.33699E+01 0.00000E+00
 -1      3456 7.47360E+01 1.41836E+01 0.00000E+00
 -1      3457 7.56020E+01 1.24530E+01 0.00000E+00
 -1      3458 5.13865E+01 3.23035E+01 0.00000E+00
 -1      3459 5.10049E+01 3.09259E+01 0.00000E+00
 -1      3460 8.10589E+01 3.60803E+01 0.00000E+00
 -1      3461 8.25589E+01 3.60803E+01 0.00000E+00
 -1      3462 8.40589E+01 3.60803E+01 0.00000E+00
 -1      3463 8.55589E+01 3.60803E+01 0.00000E+00
 -1      3464 8.33089E+01 3.47813E+01 0.00000E+00
 -1      3465 8.70589E+01 3.60803E+01 0.00000E+00
 -1      3466 8.85589E+01 3.60803E+01 0.00000E+00
 -1      3467 8.63089E+01 3.47813E+01 0.00000E+00
 -1      3468 9.00589E+01 3.60803E+01 0.00000E+00
 -1      3469 9.15589E+01 3.60803E+01 0.00000E+00
 -1      3470 8.93089E+01 3.47813E+01 0.00000E+00
 -1      3471 9.30589E+01 3.60803E+01 0.00000E+00
 -1      3472 9.45589E+01 3.60803E+01 0.00000E+00
 -1      3473 9.23089E+01 3.47813E+01 0.00000E+00
 -1      3474 9.60589E+01 3.60803E+01 0.00000E+00
 -1      3475 9.75589E+01 3.60803E+01 0.00000E+00
 -1      3476 9.53089E+01 3.47813E+01 0.00000E+00
 -1      3477 9.90589E+01 3.60803E+01 0.00000E+00
 -1      3478 1.00559E+02 3.60803E+01 0.00000E+00
 -1      3479 9.83089E+01 3.47813E+01 0.00000E+00
 -1      3480 1.02059E+02 3.60803E+01 0.00000E+00
 -1      3481 1.03559E+02 3.60803E+01 0.00000E+00
 -1      3482 1.01309E+02 3.47813E+01 0.00000E+00
 -1      3483 1.05059E+02 3.60803E+01 0.00000E+00
 -1      3484 1.06559E+02 3.60803E+01 0.00000E+00
 -1      3485 1.04309E+02 3.47813E+01 0.00000E+00
 -1      3486 1.08059E+02 3.60803E+01 0.00000E+00
 -1      3487 1.09559E+02 3.60803E+01 0.00000E+00
 -1      3488 1.07309E+02 3.47813E+01 0.00000E+00
 -1      3489 1.11059E+02 3.60803E+01 0.00000E+00
 -1      3490 1.12559E+02 3.60803E+01 0.00000E+00
 -1      3491 1.10309E+02 3.47813E+01 0.00000E+00
 -1      3492 1.14059E+02 3.60803E+01 0.00000E+00
 -1      3493 1.15559E+02 3.60803E+01 0.00000E+00
 -1      3494 1.13309E+02 3.47813E+01 0.00000E+00
 -1      3495 1.17059E+02 3.60803E+01 0.00000E+00
 -1      3496 1.18559E+02 3.60803E+01 0.00000E+00
 -1      3497 1.16309E+02 3.47813E+01 0.00000E+00
 -1      3498 1.20059E+02 3.60803E+01 0.00000E+00
 -1      3499 1.21559E+02 3.60803E+01 0.00000E+00
 -1      3500 1.19309E+02 3.47813E+01 0.00000E+00
 -1      3501 1.23059E+02 3.60803E+01 0.00000E+00
 -1      3502 1.24559E+02 3.60803E+01 0.00000E+00
 -1      3503 1.22309E+02 3.47813E+01 0.00000E+00
 -1      3504 1.26059E+02 3.60803E+01 0.00000E+00
 -1      3505 1.27559E+02 3.60803E+01 0.00000E+00
 -1      3506 1.25309E+02 3.47813E+01 0.00000E+00
 -1      3507 1.29059E+02 3.60803E+01 0.00000E+00
 -1      3508 1.30559E+02 3.60803E+01 0.00000E+00
 -1      3509 1.28309E+02 3.47813E+01 0.00000E+00
 -1      3510 1.32059E+02 3.60803E+01 0.00000E+00
 -1      3511 1.33559E+02 3.60803E+01 0.00000E+00
 -1      3512 1.31309E+02 3.47813E+01 0.00000E+00
 -1      3513 2.42850E+01 1.30992E+01 0.00000E+00
 -1      3514 2.27850E+01 1.30992E+01 0.00000E+00
 -1      3515 4.22850E+01 1.30992E+01 0.00000E+00
 -1      3516 4.07850E+01 1.30992E+01 0.00000E+00
 -1      3517 5.12850E+01 1.30992E+01 0.00000E+00
 -1      3518 4.97850E+01 1.30992E+01 0.00000E+00
 -1      3519 5.94594E+01 1.10254E+01 0.00000E+00
 -1      3520 5.87094E+01 1.23244E+01 0.00000E+00
 -1      3521 8.42850E+01 1.28866E+01 0.00000E+00
 -1      3522 8.27850E+01 1.28866E+01 0.00000E+00
 -1      3523 8.72850E+01 1.28866E+01 0.00000E+00
 -1      3524 8.57850E+01 1.28866E+01 0.00000E+00
 -1      3525 8.50350E+01 1.41856E+01 0.00000E+00
 -1      3526 9.02850E+01 1.28866E+01 0.00000E+00
 -1      3527 8.87850E+01 1.28866E+01 0.00000E+00
 -1      3528 8.80350E+01 1.41856E+01 0.00000E+00
 -1      3529 9.32850E+01 1.28866E+01 0.00000E+00
 -1      3530 9.17850E+01 1.28866E+01 0.00000E+00
 -1      3531 9.10350E+01 1.41856E+01 0.00000E+00
 -1      3532 9.62850E+01 1.28866E+01 0.00000E+00
 -1      3533 9.47850E+01 1.28866E+01 0.00000E+00
 -1      3534 9.40350E+01 1.41856E+01 0.00000E+00
 -1      3535 9.92850E+01 1.28866E+01 0.00000E+00
 -1      3536 9.77850E+01 1.28866E+01 0.00000E+00
 -1      3537 9.70350E+01 1.41856E+01 0.00000E+00
 -1      3538 1.02285E+02 1.28866E+01 0.00000E+00
 -1      3539 1.00785E+02 1.28866E+01 0.00000E+00
 -1      3540 1.00035E+02 1.41856E+01 0.00000E+00
 -1      3541 1.05285E+02 1.28866E+01 0.00000E+00
 -1      3542 1.03785E+02 1.28866E+01 0.00000E+00
 -1      3543 1.03035E+02 1.41856E+01 0.00000E+00
 -1      3544 1.08285E+02 1.28866E+01 0.00000E+00
 -1      3545 1.06785E+02 1.28866E+01 0.00000E+00
 -1      3546 1.06035E+02 1.41856E+01 0.00000E+00
 -1      3547 1.11285E+02 1.28866E+01 0.00000E+00
 -1      3548 1.09785E+02 1.28866E+01 0.00000E+00
 -1      3549 1.09035E+02 1.41856E+01 0.00000E+00
 -1      3550 1.14285E+02 1.28866E+01 0.00000E+00
 -1      3551 1.12785E+02 1.28866E+01 0.00000E+00
 -1      3552 1.12035E+02 1.41856E+01 0.00000E+00
 -1      3553 1.17285E+02 1.28866E+01 0.00000E+00
 -1      3554 1.15785E+02 1.28866E+01 0.00000E+00
 -1      3555 1.15035E+02 1.41856E+01 0.00000E+00
 -1      3556 1.20285E+02 1.28866E+01 0.00000E+00
 -1      3557 1.18785E+02 1.28866E+01 0.00000E+00
 -1      3558 1.18035E+02 1.41856E+01 0.00000E+00
 -1      3559 1.23285E+02 1.28866E+01 0.00000E+00
 -1      3560 1.21785E+02 1.28866E+01 0.00000E+00
 -1      3561 1.21035E+02 1.41856E+01 0.00000E+00
 -1      3562 1.26285E+02 1.28866E+01 0.00000E+00
 -1      3563 1.24785E+02 1.28866E+01 0.00000E+00
 -1      3564 1.24035E+02 1.41856E+01 0.00000E+00
 -1      3565 1.29285E+02 1.28866E+01 0.00000E+00
 -1      3566 1.27785E+02 1.28866E+01 0.00000E+00
 -1      3567 1.27035E+02 1.41856E+01 0.00000E+00
 -1      3568 1.32285E+02 1.28866E+01 0.00000E+00
 -1      3569 1.30785E+02 1.28866E+01 0.00000E+00
 -1      3570 1.30035E+02 1.41856E+01 0.00000E+00
 -1      3571 1.35285E+02 1.28866E+01 0.00000E+00
 -1      3572 1.33785E+02 1.28866E+01 0.00000E+00
 -1      3573 1.33035E+02 1.41856E+01 0.00000E+00
 -1      3574 1.38528E+02 1.43884E+01 0.00000E+00
 -1      3575 1.38594E+02 1.31480E+01 0.00000E+00
 -1      3576 1.37668E+02 1.29839E+01 0.00000E+00
 -1      3577 1.37229E+02 1.51196E+01 0.00000E+00
 -1      3578 1.35711E+02 3.01625E+01 0.00000E+00
 -1      3579 1.35711E+02 2.86875E+01 0.00000E+00
 -1      3580 1.35711E+02 2.72125E+01 0.00000E+00
 -1      3581 1.35711E+02 2.57375E+01 0.00000E+00
 -1      3582 1.34412E+02 2.79500E+01 0.00000E+00
 -1      3583 7.97287E+01 3.57019E+01 0.00000E+00
 -1      3584 5.12844E+01 2.31623E+01 0.00000E+00
 -1      3585 5.13581E+01 2.17208E+01 0.00000E+00
 -1      3586 7.58266E+01 1.49762E+01 0.00000E+00
 -1      3587 7.69173E+01 1.57689E+01 0.00000E+00
 -1      3588 7.62597E+01 1.41109E+01 0.00000E+00
 -1      3589 5.37215E+01 3.49791E+01 0.00000E+00
 -1      3590 5.38025E+01 3.39087E+01 0.00000E+00
 -1      3591 8.02347E+01 1.90320E+01 0.00000E+00
 -1      3592 8.08423E+01 2.04658E+01 0.00000E+00
 -1      3593 3.92850E+01 1.30992E+01 0.00000E+00
 -1      3594 3.77850E+01 1.30992E+01 0.00000E+00
 -1      3595 4.00350E+01 1.43982E+01 0.00000E+00
 -1      3596 2.72850E+01 1.30992E+01 0.00000E+00
 -1      3597 2.57850E+01 1.30992E+01 0.00000E+00
 -1      3598 2.50350E+01 1.43982E+01 0.00000E+00
 -1      3599 1.15815E+01 3.63489E+01 0.00000E+00
 -1      3600 1.46944E+01 1.23503E+01 0.00000E+00
 -1      3601 1.43081E+01 1.33498E+01 0.00000E+00
 -1      3602 1.60125E+01 1.25001E+01 0.00000E+00
 -1      3603 7.80529E+01 1.68584E+01 0.00000E+00
 -1      3604 7.91886E+01 1.79479E+01 0.00000E+00
 -1      3605 7.84860E+01 1.59931E+01 0.00000E+00
 -1      3606 1.74000E+01 3.57110E+01 0.00000E+00
 -1      3607 1.89000E+01 3.57110E+01 0.00000E+00
 -1      3608 3.02850E+01 1.30992E+01 0.00000E+00
 -1      3609 2.87850E+01 1.30992E+01 0.00000E+00
 -1      3610 2.80350E+01 1.43982E+01 0.00000E+00
 -1      3611 5.26107E+01 3.35394E+01 0.00000E+00
 -1      3612 8.15370E+01 2.59963E+01 0.00000E+00
 -1      3613 8.14558E+01 2.73543E+01 0.00000E+00
 -1      3614 4.82850E+01 1.30992E+01 0.00000E+00
 -1      3615 4.67850E+01 1.30992E+01 0.00000E+00
 -1      3616 4.90350E+01 1.43982E+01 0.00000E+00
 -1      3617 4.52850E+01 1.30992E+01 0.00000E+00
 -1      3618 4.37850E+01 1.30992E+01 0.00000E+00
 -1      3619 4.30350E+01 1.43982E+01 0.00000E+00
 -1      3620 4.60350E+01 1.43982E+01 0.00000E+00
 -1      3621 1.35659E+02 3.56147E+01 0.00000E+00
 -1      3622 1.16910E+01 2.71844E+01 0.00000E+00
 -1      3623 1.16910E+01 2.86531E+01 0.00000E+00
 -1      3624 1.29900E+01 2.93875E+01 0.00000E+00
 -1      3625 2.04000E+01 3.57110E+01 0.00000E+00
 -1      3626 2.19000E+01 3.57110E+01 0.00000E+00
 -1      3627 2.26500E+01 3.44120E+01 0.00000E+00
 -1      3628 8.07508E+01 3.24440E+01 0.00000E+00
 -1      3629 8.03314E+01 3.37122E+01 0.00000E+00
 -1      3630 1.35711E+02 3.31125E+01 0.00000E+00
 -1      3631 1.35711E+02 3.16375E+01 0.00000E+00
 -1      3632 1.34412E+02 3.09000E+01 0.00000E+00
 -1      3633 5.14040E+01 1.97933E+01 0.00000E+00
 -1      3634 5.19670E+01 1.80813E+01 0.00000E+00
 -1      3635 5.07669E+01 2.94731E+01 0.00000E+00
 -1      3636 5.05542E+01 2.81854E+01 0.00000E+00
 -1      3637 1.28805E+01 3.56145E+01 0.00000E+00
 -1      3638 5.30808E+01 1.60345E+01 0.00000E+00
 -1      3639 5.43341E+01 1.44965E+01 0.00000E+00
 -1      3640 1.48200E+01 3.54019E+01 0.00000E+00
 -1      3641 5.14776E+01 3.39451E+01 0.00000E+00
 -1      3642 5.14320E+01 3.31243E+01 0.00000E+00
 -1      3643 5.02533E+01 3.27091E+01 0.00000E+00
 -1      3644 1.42800E+01 3.32139E+01 0.00000E+00
 -1      3645 1.61100E+01 3.48221E+01 0.00000E+00
 -1      3646 1.68600E+01 3.35231E+01 0.00000E+00
 -1      3647 1.42800E+01 3.17452E+01 0.00000E+00
 -1      3648 1.42890E+01 1.98172E+01 0.00000E+00
 -1      3649 1.42890E+01 2.12891E+01 0.00000E+00
 -1      3650 1.55880E+01 2.20281E+01 0.00000E+00
 -1      3651 1.42890E+01 2.27641E+01 0.00000E+00
 -1      3652 1.42890E+01 2.42391E+01 0.00000E+00
 -1      3653 5.70014E+01 1.31741E+01 0.00000E+00
 -1      3654 5.04332E+01 2.40216E+01 0.00000E+00
 -1      3655 8.30104E+01 2.77393E+01 0.00000E+00
 -1      3656 8.18811E+01 2.83532E+01 0.00000E+00
 -1      3657 8.23064E+01 2.93521E+01 0.00000E+00
 -1      3658 7.71138E+01 1.24166E+01 0.00000E+00
 -1      3659 7.66808E+01 1.32819E+01 0.00000E+00
 -1      3660 7.77715E+01 1.40746E+01 0.00000E+00
 -1      3661 7.86138E+01 1.24166E+01 0.00000E+00
 -1      3662 5.01085E+01 2.73162E+01 0.00000E+00
 -1      3663 4.96628E+01 2.64470E+01 0.00000E+00
 -1      3664 4.92861E+01 2.81135E+01 0.00000E+00
 -1      3665 2.12850E+01 1.30992E+01 0.00000E+00
 -1      3666 1.97850E+01 1.30992E+01 0.00000E+00
 -1      3667 2.20350E+01 1.43982E+01 0.00000E+00
 -1      3668 1.29900E+01 2.64469E+01 0.00000E+00
 -1      3669 5.38677E+01 1.31226E+01 0.00000E+00
 -1      3670 5.55014E+01 1.31741E+01 0.00000E+00
 -1      3671 3.32850E+01 1.30992E+01 0.00000E+00
 -1      3672 3.17850E+01 1.30992E+01 0.00000E+00
 -1      3673 3.10350E+01 1.43982E+01 0.00000E+00
 -1      3674 5.23677E+01 1.31226E+01 0.00000E+00
 -1      3675 1.35711E+02 2.42625E+01 0.00000E+00
 -1      3676 1.35711E+02 2.27875E+01 0.00000E+00
 -1      3677 1.34412E+02 2.50000E+01 0.00000E+00
 -1      3678 1.43081E+01 1.48185E+01 0.00000E+00
 -1      3679 4.99698E+01 3.04355E+01 0.00000E+00
 -1      3680 1.35773E+02 1.51866E+01 0.00000E+00
 -1      3681 1.35992E+02 1.41187E+01 0.00000E+00
 -1      3682 1.36742E+02 1.28197E+01 0.00000E+00
 -1      3683 5.15867E+01 1.64917E+01 0.00000E+00
 -1      3684 8.06677E+01 1.81667E+01 0.00000E+00
 -1      3685 1.96500E+01 3.44120E+01 0.00000E+00
 -1      3686 8.16727E+01 2.12352E+01 0.00000E+00
 -1      3687 8.25030E+01 2.20046E+01 0.00000E+00
 -1      3688 8.25441E+01 2.00202E+01 0.00000E+00
 -1      3689 8.26796E+01 2.39637E+01 0.00000E+00
 -1      3690 8.21083E+01 2.49800E+01 0.00000E+00
 -1      3691 8.31564E+01 2.57241E+01 0.00000E+00
 -1      3692 3.70350E+01 1.43982E+01 0.00000E+00
 -1      3693 3.62850E+01 1.30992E+01 0.00000E+00
 -1      3694 3.47850E+01 1.30992E+01 0.00000E+00
 -1      3695 5.16177E+01 1.44216E+01 0.00000E+00
 -1      3696 1.34909E+02 3.43157E+01 0.00000E+00
 -1      3697 8.12850E+01 1.28866E+01 0.00000E+00
 -1      3698 7.97850E+01 1.28866E+01 0.00000E+00
 -1      3699 5.04270E+01 2.04660E+01 0.00000E+00
 -1      3700 8.13457E+01 3.16830E+01 0.00000E+00
 -1      3701 8.21094E+01 3.26389E+01 0.00000E+00
 -1      3702 8.19407E+01 3.09220E+01 0.00000E+00
 -1      3703 1.33610E+02 3.35782E+01 0.00000E+00
 -1      3704 1.35711E+02 1.83859E+01 0.00000E+00
 -1      3705 1.35711E+02 1.69203E+01 0.00000E+00
 -1      3706 1.34473E+02 1.59194E+01 0.00000E+00
 -1      3707 4.92244E+01 3.39710E+01 0.00000E+00
 -1      3708 4.99744E+01 3.52700E+01 0.00000E+00
 -1      3709 7.93638E+01 1.37156E+01 0.00000E+00
 -1      3710 8.20350E+01 1.41856E+01 0.00000E+00
 -1      3711 1.42890E+01 1.68734E+01 0.00000E+00
 -1      3712 1.42890E+01 1.83453E+01 0.00000E+00
 -1      3713 1.55880E+01 1.90812E+01 0.00000E+00
 -1      3714 8.16617E+01 3.40906E+01 0.00000E+00
 -1      3715 8.04787E+01 3.44029E+01 0.00000E+00
 -1      3716 2.19000E+01 3.31130E+01 0.00000E+00
 -1      3717 2.34000E+01 3.31130E+01 0.00000E+00
 -1      3718 5.11531E+01 3.56851E+01 0.00000E+00
 -1      3719 2.79000E+01 3.31130E+01 0.00000E+00
 -1      3720 2.94000E+01 3.31130E+01 0.00000E+00
 -1      3721 3.09000E+01 3.31130E+01 0.00000E+00
 -1      3722 3.24000E+01 3.31130E+01 0.00000E+00
 -1      3723 3.01500E+01 3.18140E+01 0.00000E+00
 -1      3724 3.39000E+01 3.31130E+01 0.00000E+00
 -1      3725 3.54000E+01 3.31130E+01 0.00000E+00
 -1      3726 3.31500E+01 3.18140E+01 0.00000E+00
 -1      3727 3.69000E+01 3.31130E+01 0.00000E+00
 -1      3728 3.84000E+01 3.31130E+01 0.00000E+00
 -1      3729 3.61500E+01 3.18140E+01 0.00000E+00
 -1      3730 3.99000E+01 3.31130E+01 0.00000E+00
 -1      3731 4.14000E+01 3.31130E+01 0.00000E+00
 -1      3732 3.91500E+01 3.18140E+01 0.00000E+00
 -1      3733 4.29000E+01 3.31130E+01 0.00000E+00
 -1      3734 4.44000E+01 3.31130E+01 0.00000E+00
 -1      3735 4.21500E+01 3.18140E+01 0.00000E+00
 -1      3736 4.59000E+01 3.31130E+01 0.00000E+00
 -1      3737 4.74000E+01 3.31130E+01 0.00000E+00
 -1      3738 4.51500E+01 3.18140E+01 0.00000E+00
 -1      3739 1.42890E+01 2.57109E+01 0.00000E+00
 -1      3740 1.42890E+01 2.71828E+01 0.00000E+00
 -1      3741 1.55880E+01 2.49750E+01 0.00000E+00
 -1      3742 8.55589E+01 3.34823E+01 0.00000E+00
 -1      3743 8.70589E+01 3.34823E+01 0.00000E+00
 -1      3744 8.85589E+01 3.34823E+01 0.00000E+00
 -1      3745 9.00589E+01 3.34823E+01 0.00000E+00
 -1      3746 8.78089E+01 3.21833E+01 0.00000E+00
 -1      3747 9.15589E+01 3.34823E+01 0.00000E+00
 -1      3748 9.30589E+01 3.34823E+01 0.00000E+00
 -1      3749 9.08089E+01 3.21833E+01 0.00000E+00
 -1      3750 9.45589E+01 3.34823E+01 0.00000E+00
 -1      3751 9.60589E+01 3.34823E+01 0.00000E+00
 -1      3752 9.38089E+01 3.21833E+01 0.00000E+00
 -1      3753 9.75589E+01 3.34823E+01 0.00000E+00
 -1      3754 9.90589E+01 3.34823E+01 0.00000E+00
 -1      3755 9.68089E+01 3.21833E+01 0.00000E+00
 -1      3756 1.00559E+02 3.34823E+01 0.00000E+00
 -1      3757 1.02059E+02 3.34823E+01 0.00000E+00
 -1      3758 9.98089E+01 3.21833E+01 0.00000E+00
 -1      3759 1.03559E+02 3.34823E+01 0.00000E+00
 -1      3760 1.05059E+02 3.34823E+01 0.00000E+00
 -1      3761 1.02809E+02 3.21833E+01 0.00000E+00
 -1      3762 1.06559E+02 3.34823E+01 0.00000E+00
 -1      3763 1.08059E+02 3.34823E+01 0.00000E+00
 -1      3764 1.05809E+02 3.21833E+01 0.00000E+00
 -1      3765 1.09559E+02 3.34823E+01 0.00000E+00
 -1      3766 1.11059E+02 3.34823E+01 0.00000E+00
 -1      3767 1.08809E+02 3.21833E+01 0.00000E+00
 -1      3768 1.12559E+02 3.34823E+01 0.00000E+00
 -1      3769 1.14059E+02 3.34823E+01 0.00000E+00
 -1      3770 1.11809E+02 3.21833E+01 0.00000E+00
 -1      3771 1.15559E+02 3.34823E+01 0.00000E+00
 -1      3772 1.17059E+02 3.34823E+01 0.00000E+00
 -1      3773 1.14809E+02 3.21833E+01 0.00000E+00
 -1      3774 1.18559E+02 3.34823E+01 0.00000E+00
 -1      3775 1.20059E+02 3.34823E+01 0.00000E+00
 -1      3776 1.17809E+02 3.21833E+01 0.00000E+00
 -1      3777 1.21559E+02 3.34823E+01 0.00000E+00
 -1      3778 1.23059E+02 3.34823E+01 0.00000E+00
 -1      3779 1.20809E+02 3.21833E+01 0.00000E+00
 -1      3780 1.24559E+02 3.34823E+01 0.00000E+00
 -1      3781 1.26059E+02 3.34823E+01 0.00000E+00
 -1      3782 1.23809E+02 3.21833E+01 0.00000E+00
 -1      3783 1.27559E+02 3.34823E+01 0.00000E+00
 -1      3784 1.29059E+02 3.34823E+01 0.00000E+00
 -1      3785 1.26809E+02 3.21833E+01 0.00000E+00
 -1      3786 1.30559E+02 3.34823E+01 0.00000E+00
 -1      3787 1.32059E+02 3.34823E+01 0.00000E+00
 -1      3788 1.29809E+02 3.21833E+01 0.00000E+00
 -1      3789 2.57850E+01 1.56973E+01 0.00000E+00
 -1      3790 2.42850E+01 1.56973E+01 0.00000E+00
 -1      3791 9.17850E+01 1.54846E+01 0.00000E+00
 -1      3792 9.02850E+01 1.54846E+01 0.00000E+00
 -1      3793 8.87850E+01 1.54846E+01 0.00000E+00
 -1      3794 8.72850E+01 1.54846E+01 0.00000E+00
 -1      3795 8.95350E+01 1.67836E+01 0.00000E+00
 -1      3796 8.57850E+01 1.54846E+01 0.00000E+00
 -1      3797 8.42850E+01 1.54846E+01 0.00000E+00
 -1      3798 8.65350E+01 1.67836E+01 0.00000E+00
 -1      3799 9.47850E+01 1.54846E+01 0.00000E+00
 -1      3800 9.32850E+01 1.54846E+01 0.00000E+00
 -1      3801 9.25350E+01 1.67836E+01 0.00000E+00
 -1      3802 9.77850E+01 1.54846E+01 0.00000E+00
 -1      3803 9.62850E+01 1.54846E+01 0.00000E+00
 -1      3804 9.55350E+01 1.67836E+01 0.00000E+00
 -1      3805 1.00785E+02 1.54846E+01 0.00000E+00
 -1      3806 9.92850E+01 1.54846E+01 0.00000E+00
 -1      3807 9.85350E+01 1.67836E+01 0.00000E+00
 -1      3808 1.03785E+02 1.54846E+01 0.00000E+00
 -1      3809 1.02285E+02 1.54846E+01 0.00000E+00
 -1      3810 1.01535E+02 1.67836E+01 0.00000E+00
 -1      3811 1.06785E+02 1.54846E+01 0.00000E+00
 -1      3812 1.05285E+02 1.54846E+01 0.00000E+00
 -1      3813 1.04535E+02 1.67836E+01 0.00000E+00
 -1      3814 1.09785E+02 1.54846E+01 0.00000E+00
 -1      3815 1.08285E+02 1.54846E+01 0.00000E+00
 -1      3816 1.07535E+02 1.67836E+01 0.00000E+00
 -1      3817 1.12785E+02 1.54846E+01 0.00000E+00
 -1      3818 1.11285E+02 1.54846E+01 0.00000E+00
 -1      3819 1.10535E+02 1.67836E+01 0.00000E+00
 -1      3820 1.15785E+02 1.54846E+01 0.00000E+00
 -1      3821 1.14285E+02 1.54846E+01 0.00000E+00
 -1      3822 1.13535E+02 1.67836E+01 0.00000E+00
 -1      3823 1.18785E+02 1.54846E+01 0.00000E+00
 -1      3824 1.17285E+02 1.54846E+01 0.00000E+00
 -1      3825 1.16535E+02 1.67836E+01 0.00000E+00
 -1      3826 1.21785E+02 1.54846E+01 0.00000E+00
 -1      3827 1.20285E+02 1.54846E+01 0.00000E+00
 -1      3828 1.19535E+02 1.67836E+01 0.00000E+00
 -1      3829 1.24785E+02 1.54846E+01 0.00000E+00
 -1      3830 1.23285E+02 1.54846E+01 0.00000E+00
 -1      3831 1.22535E+02 1.67836E+01 0.00000E+00
 -1      3832 1.27785E+02 1.54846E+01 0.00000E+00
 -1      3833 1.26285E+02 1.54846E+01 0.00000E+00
 -1      3834 1.25535E+02 1.67836E+01 0.00000E+00
 -1      3835 1.30785E+02 1.54846E+01 0.00000E+00
 -1      3836 1.29285E+02 1.54846E+01 0.00000E+00
 -1      3837 1.28535E+02 1.67836E+01 0.00000E+00
 -1      3838 1.32973E+02 1.59194E+01 0.00000E+00
 -1      3839 1.35711E+02 2.13172E+01 0.00000E+00
 -1      3840 1.35711E+02 1.98516E+01 0.00000E+00
 -1      3841 1.34412E+02 1.91187E+01 0.00000E+00
 -1      3842 1.33113E+02 2.86875E+01 0.00000E+00
 -1      3843 1.33113E+02 2.72125E+01 0.00000E+00
 -1      3844 1.56071E+01 1.55545E+01 0.00000E+00
 -1      3845 1.85578E+01 1.28746E+01 0.00000E+00
 -1      3846 1.72397E+01 1.27248E+01 0.00000E+00
 -1      3847 1.68534E+01 1.37242E+01 0.00000E+00
 -1      3848 1.93078E+01 1.41736E+01 0.00000E+00
 -1      3849 7.89427E+01 1.45446E+01 0.00000E+00
 -1      3850 4.94346E+01 2.48684E+01 0.00000E+00
 -1      3851 4.93825E+01 2.32402E+01 0.00000E+00
 -1      3852 8.00783E+01 1.56341E+01 0.00000E+00
 -1      3853 2.87850E+01 1.56973E+01 0.00000E+00
 -1      3854 2.72850E+01 1.56973E+01 0.00000E+00
 -1      3855 2.65350E+01 1.69963E+01 0.00000E+00
 -1      3856 4.89944E+01 3.13412E+01 0.00000E+00
 -1      3857 4.87565E+01 2.98884E+01 0.00000E+00
 -1      3858 4.07850E+01 1.56973E+01 0.00000E+00
 -1      3859 3.92850E+01 1.56973E+01 0.00000E+00
 -1      3860 1.89000E+01 3.31130E+01 0.00000E+00
 -1      3861 2.04000E+01 3.31130E+01 0.00000E+00
 -1      3862 2.11500E+01 3.18140E+01 0.00000E+00
 -1      3863 4.92117E+01 2.14013E+01 0.00000E+00
 -1      3864 4.92576E+01 1.94739E+01 0.00000E+00
 -1      3865 1.42890E+01 2.86516E+01 0.00000E+00
 -1      3866 1.42890E+01 3.01203E+01 0.00000E+00
 -1      3867 1.55880E+01 2.79156E+01 0.00000E+00
 -1      3868 2.49000E+01 3.31130E+01 0.00000E+00
 -1      3869 2.64000E+01 3.31130E+01 0.00000E+00
 -1      3870 2.41500E+01 3.18140E+01 0.00000E+00
 -1      3871 4.84744E+01 3.26720E+01 0.00000E+00
 -1      3872 1.32860E+02 3.22792E+01 0.00000E+00
 -1      3873 8.22566E+01 3.33296E+01 0.00000E+00
 -1      3874 8.24039E+01 3.40203E+01 0.00000E+00
 -1      3875 8.28516E+01 3.25686E+01 0.00000E+00
 -1      3876 1.32223E+02 1.72184E+01 0.00000E+00
 -1      3877 8.15797E+01 1.54519E+01 0.00000E+00
 -1      3878 8.11230E+01 1.69004E+01 0.00000E+00
 -1      3879 8.21691E+01 1.79845E+01 0.00000E+00
 -1      3880 8.30797E+01 1.54519E+01 0.00000E+00
 -1      3881 8.39039E+01 3.40203E+01 0.00000E+00
 -1      3882 2.35350E+01 1.69963E+01 0.00000E+00
 -1      3883 2.27850E+01 1.56973E+01 0.00000E+00
 -1      3884 2.12850E+01 1.56973E+01 0.00000E+00
 -1      3885 8.38297E+01 1.67509E+01 0.00000E+00
 -1      3886 2.71500E+01 3.18140E+01 0.00000E+00
 -1      3887 8.35817E+01 2.67230E+01 0.00000E+00
 -1      3888 8.40070E+01 2.77220E+01 0.00000E+00
 -1      3889 8.41531E+01 2.57067E+01 0.00000E+00
 -1      3890 3.40350E+01 1.43982E+01 0.00000E+00
 -1      3891 8.46539E+01 3.27213E+01 0.00000E+00
 -1      3892 4.73354E+01 2.99248E+01 0.00000E+00
 -1      3893 4.83108E+01 2.90192E+01 0.00000E+00
 -1      3894 4.78651E+01 2.81499E+01 0.00000E+00
 -1      3895 3.17850E+01 1.56973E+01 0.00000E+00
 -1      3896 3.02850E+01 1.56973E+01 0.00000E+00
 -1      3897 2.95350E+01 1.69963E+01 0.00000E+00
 -1      3898 4.37850E+01 1.56973E+01 0.00000E+00
 -1      3899 4.22850E+01 1.56973E+01 0.00000E+00
 -1      3900 4.15350E+01 1.69963E+01 0.00000E+00
 -1      3901 1.68870E+01 1.83453E+01 0.00000E+00
 -1      3902 1.68870E+01 1.98172E+01 0.00000E+00
 -1      3903 1.76100E+01 3.22241E+01 0.00000E+00
 -1      3904 8.34146E+01 1.77524E+01 0.00000E+00
 -1      3905 8.29593E+01 1.90187E+01 0.00000E+00
 -1      3906 8.37896E+01 1.97881E+01 0.00000E+00
 -1      3907 8.46199E+01 1.77851E+01 0.00000E+00
 -1      3908 1.34412E+02 2.20547E+01 0.00000E+00
 -1      3909 5.05040E+01 1.64684E+01 0.00000E+00
 -1      3910 1.68343E+01 1.57791E+01 0.00000E+00
 -1      3911 8.30700E+01 3.03081E+01 0.00000E+00
 -1      3912 1.32860E+02 3.08042E+01 0.00000E+00
 -1      3913 8.35511E+01 2.27487E+01 0.00000E+00
 -1      3914 4.86122E+01 2.56657E+01 0.00000E+00
 -1      3915 3.77850E+01 1.56973E+01 0.00000E+00
 -1      3916 3.62850E+01 1.56973E+01 0.00000E+00
 -1      3917 3.85350E+01 1.69963E+01 0.00000E+00
 -1      3918 1.55790E+01 3.10093E+01 0.00000E+00
 -1      3919 1.81860E+01 2.05562E+01 0.00000E+00
 -1      3920 1.68870E+01 2.12922E+01 0.00000E+00
 -1      3921 1.68870E+01 2.27672E+01 0.00000E+00
 -1      3922 4.90040E+01 1.64684E+01 0.00000E+00
 -1      3923 4.67850E+01 1.56973E+01 0.00000E+00
 -1      3924 4.52850E+01 1.56973E+01 0.00000E+00
 -1      3925 4.45350E+01 1.69963E+01 0.00000E+00
 -1      3926 4.70387E+01 1.87027E+01 0.00000E+00
 -1      3927 4.82540E+01 1.77674E+01 0.00000E+00
 -1      3928 4.82131E+01 2.22481E+01 0.00000E+00
 -1      3929 1.31561E+02 3.00667E+01 0.00000E+00
 -1      3930 1.31814E+02 2.64750E+01 0.00000E+00
 -1      3931 1.33113E+02 2.57375E+01 0.00000E+00
 -1      3932 1.33113E+02 2.42625E+01 0.00000E+00
 -1      3933 1.32223E+02 2.01496E+01 0.00000E+00
 -1      3934 1.32223E+02 1.86840E+01 0.00000E+00
 -1      3935 1.30035E+02 1.82493E+01 0.00000E+00
 -1      3936 9.62850E+01 1.80826E+01 0.00000E+00
 -1      3937 9.47850E+01 1.80826E+01 0.00000E+00
 -1      3938 3.24000E+01 3.05150E+01 0.00000E+00
 -1      3939 3.39000E+01 3.05150E+01 0.00000E+00
 -1      3940 3.54000E+01 3.05150E+01 0.00000E+00
 -1      3941 3.69000E+01 3.05150E+01 0.00000E+00
 -1      3942 3.46500E+01 2.92160E+01 0.00000E+00
 -1      3943 3.84000E+01 3.05150E+01 0.00000E+00
 -1      3944 3.99000E+01 3.05150E+01 0.00000E+00
 -1      3945 3.76500E+01 2.92160E+01 0.00000E+00
 -1      3946 4.14000E+01 3.05150E+01 0.00000E+00
 -1      3947 4.29000E+01 3.05150E+01 0.00000E+00
 -1      3948 4.06500E+01 2.92160E+01 0.00000E+00
 -1      3949 9.02850E+01 1.80826E+01 0.00000E+00
 -1      3950 8.87850E+01 1.80826E+01 0.00000E+00
 -1      3951 1.32668E+02 2.29412E+01 0.00000E+00
 -1      3952 1.32668E+02 2.14709E+01 0.00000E+00
 -1      3953 1.30480E+02 2.10362E+01 0.00000E+00
 -1      3954 1.31369E+02 2.36787E+01 0.00000E+00
 -1      3955 8.70589E+01 3.08843E+01 0.00000E+00
 -1      3956 8.85589E+01 3.08843E+01 0.00000E+00
 -1      3957 9.00589E+01 3.08843E+01 0.00000E+00
 -1      3958 9.15589E+01 3.08843E+01 0.00000E+00
 -1      3959 8.93089E+01 2.95853E+01 0.00000E+00
 -1      3960 9.30589E+01 3.08843E+01 0.00000E+00
 -1      3961 9.45589E+01 3.08843E+01 0.00000E+00
 -1      3962 9.23089E+01 2.95853E+01 0.00000E+00
 -1      3963 9.60589E+01 3.08843E+01 0.00000E+00
 -1      3964 9.75589E+01 3.08843E+01 0.00000E+00
 -1      3965 9.53089E+01 2.95853E+01 0.00000E+00
 -1      3966 9.90589E+01 3.08843E+01 0.00000E+00
 -1      3967 1.00559E+02 3.08843E+01 0.00000E+00
 -1      3968 9.83089E+01 2.95853E+01 0.00000E+00
 -1      3969 1.02059E+02 3.08843E+01 0.00000E+00
 -1      3970 1.03559E+02 3.08843E+01 0.00000E+00
 -1      3971 1.01309E+02 2.95853E+01 0.00000E+00
 -1      3972 1.05059E+02 3.08843E+01 0.00000E+00
 -1      3973 1.06559E+02 3.08843E+01 0.00000E+00
 -1      3974 1.04309E+02 2.95853E+01 0.00000E+00
 -1      3975 1.08059E+02 3.08843E+01 0.00000E+00
 -1      3976 1.09559E+02 3.08843E+01 0.00000E+00
 -1      3977 1.07309E+02 2.95853E+01 0.00000E+00
 -1      3978 1.11059E+02 3.08843E+01 0.00000E+00
 -1      3979 1.12559E+02 3.08843E+01 0.00000E+00
 -1      3980 1.10309E+02 2.95853E+01 0.00000E+00
 -1      3981 1.14059E+02 3.08843E+01 0.00000E+00
 -1      3982 1.15559E+02 3.08843E+01 0.00000E+00
 -1      3983 1.13309E+02 2.95853E+01 0.00000E+00
 -1      3984 1.17059E+02 3.08843E+01 0.00000E+00
 -1      3985 1.18559E+02 3.08843E+01 0.00000E+00
 -1      3986 1.16309E+02 2.95853E+01 0.00000E+00
 -1      3987 1.20059E+02 3.08843E+01 0.00000E+00
 -1      3988 1.21559E+02 3.08843E+01 0.00000E+00
 -1      3989 1.19309E+02 2.95853E+01 0.00000E+00
 -1      3990 1.23059E+02 3.08843E+01 0.00000E+00
 -1      3991 1.24559E+02 3.08843E+01 0.00000E+00
 -1      3992 1.22309E+02 2.95853E+01 0.00000E+00
 -1      3993 1.26059E+02 3.08843E+01 0.00000E+00
 -1      3994 1.27559E+02 3.08843E+01 0.00000E+00
 -1      3995 1.25309E+02 2.95853E+01 0.00000E+00
 -1      3996 1.28810E+02 3.04755E+01 0.00000E+00
 -1      3997 1.30310E+02 3.04755E+01 0.00000E+00
 -1      3998 1.30563E+02 2.83588E+01 0.00000E+00
 -1      3999 1.28060E+02 2.91765E+01 0.00000E+00
 -1      4000 1.81333E+01 1.65151E+01 0.00000E+00
 -1      4001 1.76190E+01 3.05992E+01 0.00000E+00
 -1      4002 9.32850E+01 1.80826E+01 0.00000E+00
 -1      4003 9.17850E+01 1.80826E+01 0.00000E+00
 -1      4004 9.10350E+01 1.93816E+01 0.00000E+00
 -1      4005 9.40350E+01 1.93816E+01 0.00000E+00
 -1      4006 9.92850E+01 1.80826E+01 0.00000E+00
 -1      4007 9.77850E+01 1.80826E+01 0.00000E+00
 -1      4008 9.70350E+01 1.93816E+01 0.00000E+00
 -1      4009 1.02285E+02 1.80826E+01 0.00000E+00
 -1      4010 1.00785E+02 1.80826E+01 0.00000E+00
 -1      4011 1.00035E+02 1.93816E+01 0.00000E+00
 -1      4012 1.05285E+02 1.80826E+01 0.00000E+00
 -1      4013 1.03785E+02 1.80826E+01 0.00000E+00
 -1      4014 1.03035E+02 1.93816E+01 0.00000E+00
 -1      4015 1.08285E+02 1.80826E+01 0.00000E+00
 -1      4016 1.06785E+02 1.80826E+01 0.00000E+00
 -1      4017 1.06035E+02 1.93816E+01 0.00000E+00
 -1      4018 1.11285E+02 1.80826E+01 0.00000E+00
 -1      4019 1.09785E+02 1.80826E+01 0.00000E+00
 -1      4020 1.09035E+02 1.93816E+01 0.00000E+00
 -1      4021 1.14285E+02 1.80826E+01 0.00000E+00
 -1      4022 1.12785E+02 1.80826E+01 0.00000E+00
 -1      4023 1.12035E+02 1.93816E+01 0.00000E+00
 -1      4024 1.17285E+02 1.80826E+01 0.00000E+00
 -1      4025 1.15785E+02 1.80826E+01 0.00000E+00
 -1      4026 1.15035E+02 1.93816E+01 0.00000E+00
 -1      4027 1.20285E+02 1.80826E+01 0.00000E+00
 -1      4028 1.18785E+02 1.80826E+01 0.00000E+00
 -1      4029 1.18035E+02 1.93816E+01 0.00000E+00
 -1      4030 1.23285E+02 1.80826E+01 0.00000E+00
 -1      4031 1.21785E+02 1.80826E+01 0.00000E+00
 -1      4032 1.21035E+02 1.93816E+01 0.00000E+00
 -1      4033 1.26285E+02 1.80826E+01 0.00000E+00
 -1      4034 1.24785E+02 1.80826E+01 0.00000E+00
 -1      4035 1.24035E+02 1.93816E+01 0.00000E+00
 -1      4036 1.28910E+02 1.81660E+01 0.00000E+00
 -1      4037 1.27410E+02 1.81660E+01 0.00000E+00
 -1      4038 1.26660E+02 1.94650E+01 0.00000E+00
 -1      4039 1.28910E+02 1.96316E+01 0.00000E+00
 -1      4040 2.64000E+01 3.05150E+01 0.00000E+00
 -1      4041 2.79000E+01 3.05150E+01 0.00000E+00
 -1      4042 1.76190E+01 2.76617E+01 0.00000E+00
 -1      4043 1.76190E+01 2.91304E+01 0.00000E+00
 -1      4044 1.96500E+01 3.03452E+01 0.00000E+00
 -1      4045 2.94000E+01 3.05150E+01 0.00000E+00
 -1      4046 3.09000E+01 3.05150E+01 0.00000E+00
 -1      4047 3.16500E+01 2.92160E+01 0.00000E+00
 -1      4048 3.47850E+01 1.56973E+01 0.00000E+00
 -1      4049 3.32850E+01 1.56973E+01 0.00000E+00
 -1      4050 3.25350E+01 1.69963E+01 0.00000E+00
 -1      4051 4.64208E+01 2.02145E+01 0.00000E+00
 -1      4052 4.54171E+01 1.85080E+01 0.00000E+00
 -1      4053 4.67624E+01 2.38924E+01 0.00000E+00
 -1      4054 4.65916E+01 2.20534E+01 0.00000E+00
 -1      4055 4.49701E+01 2.18587E+01 0.00000E+00
 -1      4056 2.11500E+01 3.03452E+01 0.00000E+00
 -1      4057 4.74279E+01 2.68105E+01 0.00000E+00
 -1      4058 4.71996E+01 2.52318E+01 0.00000E+00
 -1      4059 4.55781E+01 2.50372E+01 0.00000E+00
 -1      4060 4.64526E+01 2.77161E+01 0.00000E+00
 -1      4061 2.34000E+01 3.05150E+01 0.00000E+00
 -1      4062 2.49000E+01 3.05150E+01 0.00000E+00
 -1      4063 2.56500E+01 2.92160E+01 0.00000E+00
 -1      4064 8.45672E+01 2.16696E+01 0.00000E+00
 -1      4065 8.47438E+01 2.36287E+01 0.00000E+00
 -1      4066 2.72850E+01 1.82952E+01 0.00000E+00
 -1      4067 2.57850E+01 1.82952E+01 0.00000E+00
 -1      4068 4.84289E+01 3.18512E+01 0.00000E+00
 -1      4069 1.68870E+01 2.42391E+01 0.00000E+00
 -1      4070 1.68870E+01 2.57109E+01 0.00000E+00
 -1      4071 1.81860E+01 2.35031E+01 0.00000E+00
 -1      4072 8.74524E+01 1.79339E+01 0.00000E+00
 -1      4073 8.59524E+01 1.79339E+01 0.00000E+00
 -1      4074 8.55373E+01 1.89354E+01 0.00000E+00
 -1      4075 8.82024E+01 1.92329E+01 0.00000E+00
 -1      4076 2.42850E+01 1.82952E+01 0.00000E+00
 -1      4077 2.27850E+01 1.82952E+01 0.00000E+00
 -1      4078 2.50350E+01 1.95942E+01 0.00000E+00
 -1      4079 1.89180E+01 2.69258E+01 0.00000E+00
 -1      4080 8.51692E+01 2.46276E+01 0.00000E+00
 -1      4081 8.55945E+01 2.56265E+01 0.00000E+00
 -1      4082 8.61853E+01 2.35484E+01 0.00000E+00
 -1      4083 4.45199E+01 2.91358E+01 0.00000E+00
 -1      4084 4.52699E+01 3.04348E+01 0.00000E+00
 -1      4085 1.94057E+01 1.52053E+01 0.00000E+00
 -1      4086 1.94584E+01 1.77715E+01 0.00000E+00
 -1      4087 4.39171E+01 1.85080E+01 0.00000E+00
 -1      4088 2.19000E+01 2.90462E+01 0.00000E+00
 -1      4089 2.86500E+01 2.92160E+01 0.00000E+00
 -1      4090 3.55350E+01 1.69963E+01 0.00000E+00
 -1      4091 1.29311E+02 2.72927E+01 0.00000E+00
 -1      4092 1.30563E+02 2.68838E+01 0.00000E+00
 -1      4093 1.30563E+02 2.54088E+01 0.00000E+00
 -1      4094 2.06329E+01 1.54300E+01 0.00000E+00
 -1      4095 8.52598E+01 1.98017E+01 0.00000E+00
 -1      4096 8.48447E+01 2.08032E+01 0.00000E+00
 -1      4097 8.60374E+01 2.16832E+01 0.00000E+00
 -1      4098 8.65924E+01 1.99505E+01 0.00000E+00
 -1      4099 3.02850E+01 1.82952E+01 0.00000E+00
 -1      4100 2.87850E+01 1.82952E+01 0.00000E+00
 -1      4101 2.80350E+01 1.95942E+01 0.00000E+00
 -1      4102 3.92850E+01 1.82952E+01 0.00000E+00
 -1      4103 3.77850E+01 1.82952E+01 0.00000E+00
 -1      4104 1.94850E+01 1.98188E+01 0.00000E+00
 -1      4105 1.94850E+01 2.12938E+01 0.00000E+00
 -1      4106 4.22850E+01 1.82952E+01 0.00000E+00
 -1      4107 4.07850E+01 1.82952E+01 0.00000E+00
 -1      4108 4.00350E+01 1.95942E+01 0.00000E+00
 -1      4109 8.61936E+01 2.81455E+01 0.00000E+00
 -1      4110 8.56223E+01 2.91618E+01 0.00000E+00
 -1      4111 4.72156E+01 3.13040E+01 0.00000E+00
 -1      4112 8.43329E+01 2.97748E+01 0.00000E+00
 -1      4113 8.39672E+01 3.13446E+01 0.00000E+00
 -1      4114 2.07574E+01 1.85090E+01 0.00000E+00
 -1      4115 4.67699E+01 3.04348E+01 0.00000E+00
 -1      4116 4.40827E+01 2.77963E+01 0.00000E+00
 -1      4117 3.69000E+01 2.79170E+01 0.00000E+00
 -1      4118 3.84000E+01 2.79170E+01 0.00000E+00
 -1      4119 3.99000E+01 2.79170E+01 0.00000E+00
 -1      4120 4.14000E+01 2.79170E+01 0.00000E+00
 -1      4121 3.91500E+01 2.66180E+01 0.00000E+00
 -1      4122 1.03785E+02 2.06806E+01 0.00000E+00
 -1      4123 1.02285E+02 2.06806E+01 0.00000E+00
 -1      4124 8.85589E+01 2.82863E+01 0.00000E+00
 -1      4125 9.00589E+01 2.82863E+01 0.00000E+00
 -1      4126 4.31671E+01 1.98070E+01 0.00000E+00
 -1      4127 9.15589E+01 2.82863E+01 0.00000E+00
 -1      4128 9.30589E+01 2.82863E+01 0.00000E+00
 -1      4129 9.08089E+01 2.69873E+01 0.00000E+00
 -1      4130 9.45589E+01 2.82863E+01 0.00000E+00
 -1      4131 9.60589E+01 2.82863E+01 0.00000E+00
 -1      4132 9.38089E+01 2.69873E+01 0.00000E+00
 -1      4133 9.75589E+01 2.82863E+01 0.00000E+00
 -1      4134 9.90589E+01 2.82863E+01 0.00000E+00
 -1      4135 9.68089E+01 2.69873E+01 0.00000E+00
 -1      4136 1.00559E+02 2.82863E+01 0.00000E+00
 -1      4137 1.02059E+02 2.82863E+01 0.00000E+00
 -1      4138 9.98089E+01 2.69873E+01 0.00000E+00
 -1      4139 1.03559E+02 2.82863E+01 0.00000E+00
 -1      4140 1.05059E+02 2.82863E+01 0.00000E+00
 -1      4141 1.02809E+02 2.69873E+01 0.00000E+00
 -1      4142 1.06559E+02 2.82863E+01 0.00000E+00
 -1      4143 1.08059E+02 2.82863E+01 0.00000E+00
 -1      4144 1.05809E+02 2.69873E+01 0.00000E+00
 -1      4145 1.09559E+02 2.82863E+01 0.00000E+00
 -1      4146 1.11059E+02 2.82863E+01 0.00000E+00
 -1      4147 1.08809E+02 2.69873E+01 0.00000E+00
 -1      4148 1.12559E+02 2.82863E+01 0.00000E+00
 -1      4149 1.14059E+02 2.82863E+01 0.00000E+00
 -1      4150 1.11809E+02 2.69873E+01 0.00000E+00
 -1      4151 1.15559E+02 2.82863E+01 0.00000E+00
 -1      4152 1.17059E+02 2.82863E+01 0.00000E+00
 -1      4153 1.14809E+02 2.69873E+01 0.00000E+00
 -1      4154 1.18559E+02 2.82863E+01 0.00000E+00
 -1      4155 1.20059E+02 2.82863E+01 0.00000E+00
 -1      4156 1.17809E+02 2.69873E+01 0.00000E+00
 -1      4157 1.21559E+02 2.82863E+01 0.00000E+00
 -1      4158 1.23059E+02 2.82863E+01 0.00000E+00
 -1      4159 1.20809E+02 2.69873E+01 0.00000E+00
 -1      4160 1.24559E+02 2.82863E+01 0.00000E+00
 -1      4161 1.26059E+02 2.82863E+01 0.00000E+00
 -1      4162 1.23809E+02 2.69873E+01 0.00000E+00
 -1      4163 1.27060E+02 2.79939E+01 0.00000E+00
 -1      4164 1.28311E+02 2.75851E+01 0.00000E+00
 -1      4165 1.28311E+02 2.61101E+01 0.00000E+00
 -1      4166 1.26310E+02 2.66949E+01 0.00000E+00
 -1      4167 1.00785E+02 2.06806E+01 0.00000E+00
 -1      4168 9.92850E+01 2.06806E+01 0.00000E+00
 -1      4169 1.01535E+02 2.19796E+01 0.00000E+00
 -1      4170 1.06785E+02 2.06806E+01 0.00000E+00
 -1      4171 1.05285E+02 2.06806E+01 0.00000E+00
 -1      4172 1.04535E+02 2.19796E+01 0.00000E+00
 -1      4173 1.09785E+02 2.06806E+01 0.00000E+00
 -1      4174 1.08285E+02 2.06806E+01 0.00000E+00
 -1      4175 1.07535E+02 2.19796E+01 0.00000E+00
 -1      4176 1.12785E+02 2.06806E+01 0.00000E+00
 -1      4177 1.11285E+02 2.06806E+01 0.00000E+00
 -1      4178 1.10535E+02 2.19796E+01 0.00000E+00
 -1      4179 1.15785E+02 2.06806E+01 0.00000E+00
 -1      4180 1.14285E+02 2.06806E+01 0.00000E+00
 -1      4181 1.13535E+02 2.19796E+01 0.00000E+00
 -1      4182 1.18785E+02 2.06806E+01 0.00000E+00
 -1      4183 1.17285E+02 2.06806E+01 0.00000E+00
 -1      4184 1.16535E+02 2.19796E+01 0.00000E+00
 -1      4185 1.21785E+02 2.06806E+01 0.00000E+00
 -1      4186 1.20285E+02 2.06806E+01 0.00000E+00
 -1      4187 1.19535E+02 2.19796E+01 0.00000E+00
 -1      4188 1.24785E+02 2.06806E+01 0.00000E+00
 -1      4189 1.23285E+02 2.06806E+01 0.00000E+00
 -1      4190 1.22535E+02 2.19796E+01 0.00000E+00
 -1      4191 2.49000E+01 2.79170E+01 0.00000E+00
 -1      4192 2.64000E+01 2.79170E+01 0.00000E+00
 -1      4193 2.07840E+01 2.20281E+01 0.00000E+00
 -1      4194 1.94850E+01 2.27656E+01 0.00000E+00
 -1      4195 1.94850E+01 2.42375E+01 0.00000E+00
 -1      4196 2.79000E+01 2.79170E+01 0.00000E+00
 -1      4197 2.94000E+01 2.79170E+01 0.00000E+00
 -1      4198 2.71500E+01 2.66180E+01 0.00000E+00
 -1      4199 3.09000E+01 2.79170E+01 0.00000E+00
 -1      4200 3.24000E+01 2.79170E+01 0.00000E+00
 -1      4201 3.01500E+01 2.66180E+01 0.00000E+00
 -1      4202 8.69436E+01 2.68465E+01 0.00000E+00
 -1      4203 9.77850E+01 2.06806E+01 0.00000E+00
 -1      4204 9.62850E+01 2.06806E+01 0.00000E+00
 -1      4205 9.85350E+01 2.19796E+01 0.00000E+00
 -1      4206 8.41144E+01 3.20353E+01 0.00000E+00
 -1      4207 8.57695E+01 3.14973E+01 0.00000E+00
 -1      4208 2.08727E+01 2.76661E+01 0.00000E+00
 -1      4209 2.31227E+01 2.78358E+01 0.00000E+00
 -1      4210 3.70350E+01 1.95942E+01 0.00000E+00
 -1      4211 3.62850E+01 1.82952E+01 0.00000E+00
 -1      4212 3.47850E+01 1.82952E+01 0.00000E+00
 -1      4213 8.65195E+01 3.01983E+01 0.00000E+00
 -1      4214 2.01407E+01 2.57153E+01 0.00000E+00
 -1      4215 3.39000E+01 2.79170E+01 0.00000E+00
 -1      4216 3.54000E+01 2.79170E+01 0.00000E+00
 -1      4217 3.31500E+01 2.66180E+01 0.00000E+00
 -1      4218 3.32850E+01 1.82952E+01 0.00000E+00
 -1      4219 3.17850E+01 1.82952E+01 0.00000E+00
 -1      4220 3.40350E+01 1.95942E+01 0.00000E+00
 -1      4221 8.74133E+01 2.16462E+01 0.00000E+00
 -1      4222 8.71358E+01 2.25126E+01 0.00000E+00
 -1      4223 8.75611E+01 2.35115E+01 0.00000E+00
 -1      4224 3.61500E+01 2.66180E+01 0.00000E+00
 -1      4225 4.33327E+01 2.64973E+01 0.00000E+00
 -1      4226 2.14397E+01 2.49778E+01 0.00000E+00
 -1      4227 1.29799E+02 2.22741E+01 0.00000E+00
 -1      4228 1.29355E+02 2.09529E+01 0.00000E+00
 -1      4229 1.28230E+02 2.08695E+01 0.00000E+00
 -1      4230 3.77850E+01 2.08932E+01 0.00000E+00
 -1      4231 3.62850E+01 2.08932E+01 0.00000E+00
 -1      4232 2.13829E+01 1.67290E+01 0.00000E+00
 -1      4233 2.20830E+01 2.12922E+01 0.00000E+00
 -1      4234 2.20830E+01 2.27641E+01 0.00000E+00
 -1      4235 9.47850E+01 2.06806E+01 0.00000E+00
 -1      4236 9.32850E+01 2.06806E+01 0.00000E+00
 -1      4237 9.55350E+01 2.19796E+01 0.00000E+00
 -1      4238 3.10350E+01 1.95942E+01 0.00000E+00
 -1      4239 1.25910E+02 2.07640E+01 0.00000E+00
 -1      4240 1.25160E+02 2.20630E+01 0.00000E+00
 -1      4241 1.27035E+02 2.08473E+01 0.00000E+00
 -1      4242 2.38727E+01 2.65368E+01 0.00000E+00
 -1      4243 8.79598E+01 2.57674E+01 0.00000E+00
 -1      4244 4.07850E+01 2.08932E+01 0.00000E+00
 -1      4245 3.92850E+01 2.08932E+01 0.00000E+00
 -1      4246 3.85350E+01 2.21922E+01 0.00000E+00
 -1      4247 4.37621E+01 2.28984E+01 0.00000E+00
 -1      4248 4.35912E+01 2.10594E+01 0.00000E+00
 -1      4249 2.87850E+01 2.08932E+01 0.00000E+00
 -1      4250 2.72850E+01 2.08932E+01 0.00000E+00
 -1      4251 1.30118E+02 2.40876E+01 0.00000E+00
 -1      4252 2.21595E+01 2.00753E+01 0.00000E+00
 -1      4253 2.34585E+01 2.08112E+01 0.00000E+00
 -1      4254 8.89103E+01 2.47315E+01 0.00000E+00
 -1      4255 2.14095E+01 1.87763E+01 0.00000E+00
 -1      4256 1.08285E+02 2.32786E+01 0.00000E+00
 -1      4257 1.06785E+02 2.32786E+01 0.00000E+00
 -1      4258 3.88425E+01 2.44051E+01 0.00000E+00
 -1      4259 4.03425E+01 2.44051E+01 0.00000E+00
 -1      4260 4.19591E+01 2.08466E+01 0.00000E+00
 -1      4261 9.30589E+01 2.56883E+01 0.00000E+00
 -1      4262 9.45589E+01 2.56883E+01 0.00000E+00
 -1      4263 9.61720E+01 2.44835E+01 0.00000E+00
 -1      4264 9.76720E+01 2.44835E+01 0.00000E+00
 -1      4265 9.91720E+01 2.44835E+01 0.00000E+00
 -1      4266 1.00672E+02 2.44835E+01 0.00000E+00
 -1      4267 1.02172E+02 2.44835E+01 0.00000E+00
 -1      4268 1.03672E+02 2.44835E+01 0.00000E+00
 -1      4269 1.05922E+02 2.57825E+01 0.00000E+00
 -1      4270 1.07422E+02 2.57825E+01 0.00000E+00
 -1      4271 1.08922E+02 2.57825E+01 0.00000E+00
 -1      4272 1.11059E+02 2.56883E+01 0.00000E+00
 -1      4273 1.12559E+02 2.56883E+01 0.00000E+00
 -1      4274 1.14172E+02 2.44835E+01 0.00000E+00
 -1      4275 1.15672E+02 2.44835E+01 0.00000E+00
 -1      4276 1.17172E+02 2.44835E+01 0.00000E+00
 -1      4277 1.18672E+02 2.44835E+01 0.00000E+00
 -1      4278 1.20172E+02 2.44835E+01 0.00000E+00
 -1      4279 1.21672E+02 2.44835E+01 0.00000E+00
 -1      4280 1.23172E+02 2.44835E+01 0.00000E+00
 -1      4281 1.24672E+02 2.44835E+01 0.00000E+00
 -1      4282 1.11922E+02 2.31845E+01 0.00000E+00
 -1      4283 1.10422E+02 2.31845E+01 0.00000E+00
 -1      4284 2.57850E+01 2.08932E+01 0.00000E+00
 -1      4285 2.42850E+01 2.08932E+01 0.00000E+00
 -1      4286 1.13422E+02 2.31845E+01 0.00000E+00
 -1      4287 2.42085E+01 2.21102E+01 0.00000E+00
 -1      4288 2.35652E+01 2.43239E+01 0.00000E+00
 -1      4289 2.53425E+01 2.44051E+01 0.00000E+00
 -1      4290 3.55350E+01 2.21922E+01 0.00000E+00
 -1      4291 3.47850E+01 2.08932E+01 0.00000E+00
 -1      4292 3.32850E+01 2.08932E+01 0.00000E+00
 -1      4293 4.28955E+01 2.51578E+01 0.00000E+00
 -1      4294 8.79466E+01 2.00064E+01 0.00000E+00
 -1      4295 8.76691E+01 2.08727E+01 0.00000E+00
 -1      4296 8.87675E+01 2.17021E+01 0.00000E+00
 -1      4297 8.92792E+01 2.01551E+01 0.00000E+00
 -1      4298 3.17850E+01 2.08932E+01 0.00000E+00
 -1      4299 3.02850E+01 2.08932E+01 0.00000E+00
 -1      4300 3.25350E+01 2.21922E+01 0.00000E+00
 -1      4301 2.95350E+01 2.21922E+01 0.00000E+00
 -1      4302 2.68425E+01 2.44051E+01 0.00000E+00
 -1      4303 2.83425E+01 2.44051E+01 0.00000E+00
 -1      4304 2.98425E+01 2.44051E+01 0.00000E+00
 -1      4305 3.13425E+01 2.44051E+01 0.00000E+00
 -1      4306 4.15166E+01 2.43585E+01 0.00000E+00
 -1      4307 3.58425E+01 2.44051E+01 0.00000E+00
 -1      4308 3.73425E+01 2.44051E+01 0.00000E+00
 -1      4309 9.17850E+01 2.06806E+01 0.00000E+00
 -1      4310 9.02850E+01 2.06806E+01 0.00000E+00
 -1      4311 2.65350E+01 2.21922E+01 0.00000E+00
 -1      4312 1.28993E+02 2.40042E+01 0.00000E+00
 -1      4313 3.28425E+01 2.44051E+01 0.00000E+00
 -1      4314 3.43425E+01 2.44051E+01 0.00000E+00
 -1      4315 4.12091E+01 2.21456E+01 0.00000E+00
 -1      4316 9.00292E+01 2.14541E+01 0.00000E+00
 -1      4317 8.97733E+01 2.22276E+01 0.00000E+00
 -1      4318 9.25350E+01 2.19796E+01 0.00000E+00
 -1      4319 9.01720E+01 2.44835E+01 0.00000E+00
 -1      4320 1.09672E+02 2.44835E+01 0.00000E+00
 -1      4321 9.54220E+01 2.31845E+01 0.00000E+00
 -1      4322 9.39220E+01 2.31845E+01 0.00000E+00
 -1      4323 9.16720E+01 2.44835E+01 0.00000E+00
 -1      4324 1.05285E+02 2.32786E+01 0.00000E+00
 -1      4325 1.25612E+02 2.29113E+01 0.00000E+00
 -1      4326 1.26249E+02 2.54152E+01 0.00000E+00
 -1      4327 1.27480E+02 2.21685E+01 0.00000E+00
 -1      4328 2.27387E+01 2.42419E+01 0.00000E+00
 -1      4329 9.24220E+01 2.31845E+01 0.00000E+00
 -1      4330 1.27250E+02 2.51227E+01 0.00000E+00
 -1      4331 1.28251E+02 2.48303E+01 0.00000E+00
 -1      4332 1.27932E+02 2.30169E+01 0.00000E+00
 -1      4333 1.26737E+02 2.29946E+01 0.00000E+00
 -3
    3C                          2085                                     1
 -1       164    8    0    1
 -2         6         7        23      1125      1288      1142
 -1       165    8    0    1
 -2         7         8       164      1126      1289      1290
 -1       166    8    0    1
 -2         8         9       165      1127      1291      1292
 -1       167    8    0    1
 -2         8       165       164      1292      1293      1289
 -1       168    8    0    1
 -2         9        10       166      1128      1294      1295
 -1       169    8    0    1
 -2         9       166       165      1295      1296      1291
 -1       170    8    0    1
 -2        10        11       167      1129      1297      1298
 -1       171    8    0    1
 -2        10       167       166      1298      1299      1294
 -1       172    8    0    1
 -2        11        12       168      1130      1300      1301
 -1       173    8    0    1
 -2        11       168       167      1301      1302      1297
 -1       174    8    0    1
 -2        12        13       169      1131      1303      1304
 -1       175    8    0    1
 -2        12       169       168      1304      1305      1300
 -1       176    8    0    1
 -2        13        14       170      1132      1306      1307
 -1       177    8    0    1
 -2        13       170       169      1307      1308      1303
 -1       178    8    0    1
 -2        14        15       171      1133      1309      1310
 -1       179    8    0    1
 -2        14       171       170      1310      1311      1306
 -1       180    8    0    1
 -2        15        16       172      1134      1312      1313
 -1       181    8    0    1
 -2        15       172       171      1313      1314      1309
 -1       182    8    0    1
 -2        16        17       173      1135      1315      1316
 -1       183    8    0    1
 -2        16       173       172      1316      1317      1312
 -1       184    8    0    1
 -2        17        18       174      1136      1318      1319
 -1       185    8    0    1
 -2        17       174       173      1319      1320      1315
 -1       186    8    0    1
 -2        18        19       175      1137      1321      1322
 -1       187    8    0    1
 -2        18       175       174      1322      1323      1318
 -1       188    8    0    1
 -2        19        20       176      1138      1324      1325
 -1       189    8    0    1
 -2        19       176       175      1325      1326      1321
 -1       190    8    0    1
 -2        20        21       177      1139      1327      1328
 -1       191    8    0    1
 -2        20       177       176      1328      1329      1324
 -1       192    8    0    1
 -2        21        22       178      1140      1330      1331
 -1       193    8    0    1
 -2        21       178       177      1331      1332      1327
 -1       194    8    0    1
 -2        22         5       179      1141      1333      1334
 -1       195    8    0    1
 -2       178        22       179      1330      1334      1335
 -1       196    8    0    1
 -2         5        72       179      1192      1336      1333
 -1       197    8    0    1
 -2        24        23       180      1143      1337      1338
 -1       198    8    0    1
 -2        25        24       181      1144      1339      1340
 -1       199    8    0    1
 -2        24       180       181      1338      1341      1339
 -1       200    8    0    1
 -2        26        25       182      1145      1342      1343
 -1       201    8    0    1
 -2        25       181       182      1340      1344      1342
 -1       202    8    0    1
 -2        27        26       183      1146      1345      1346
 -1       203    8    0    1
 -2        26       182       183      1343      1347      1345
 -1       204    8    0    1
 -2        28        27       184      1147      1348      1349
 -1       205    8    0    1
 -2        27       183       184      1346      1350      1348
 -1       206    8    0    1
 -2        29        28       185      1148      1351      1352
 -1       207    8    0    1
 -2        28       184       185      1349      1353      1351
 -1       208    8    0    1
 -2        30        29       186      1149      1354      1355
 -1       209    8    0    1
 -2        29       185       186      1352      1356      1354
 -1       210    8    0    1
 -2        31        30       187      1150      1357      1358
 -1       211    8    0    1
 -2        30       186       187      1355      1359      1357
 -1       212    8    0    1
 -2        32        31       188      1151      1360      1361
 -1       213    8    0    1
 -2        31       187       188      1358      1362      1360
 -1       214    8    0    1
 -2        33        32       189      1152      1363      1364
 -1       215    8    0    1
 -2        32       188       189      1361      1365      1363
 -1       216    8    0    1
 -2        34        33       190      1153      1366      1367
 -1       217    8    0    1
 -2        33       189       190      1364      1368      1366
 -1       218    8    0    1
 -2        35        34       191      1154      1369      1370
 -1       219    8    0    1
 -2        34       190       191      1367      1371      1369
 -1       220    8    0    1
 -2        36        35       192      1155      1372      1373
 -1       221    8    0    1
 -2        35       191       192      1370      1374      1372
 -1       222    8    0    1
 -2        37        36       193      1156      1375      1376
 -1       223    8    0    1
 -2        36       192       193      1373      1377      1375
 -1       224    8    0    1
 -2        38        37       194      1157      1378      1379
 -1       225    8    0    1
 -2        37       193       194      1376      1380      1378
 -1       226    8    0    1
 -2        39        38       195      1158      1381      1382
 -1       227    8    0    1
 -2        38       194       195      1379      1383      1381
 -1       228    8    0    1
 -2        40        39       196      1159      1384      1385
 -1       229    8    0    1
 -2        39       195       196      1382      1386      1384
 -1       230    8    0    1
 -2        41        40       197      1160      1387      1388
 -1       231    8    0    1
 -2        40       196       197      1385      1389      1387
 -1       232    8    0    1
 -2        42        41       198      1161      1390      1391
 -1       233    8    0    1
 -2        41       197       198      1388      1392      1390
 -1       234    8    0    1
 -2        43        42       199      1162      1393      1394
 -1       235    8    0    1
 -2        42       198       199      1391      1395      1393
 -1       236    8    0    1
 -2        44        43       200      1163      1396      1397
 -1       237    8    0    1
 -2        43       199       200      1394      1398      1396
 -1       238    8    0    1
 -2        45        44       201      1164      1399      1400
 -1       239    8    0    1
 -2        44       200       201      1397      1401      1399
 -1       240    8    0    1
 -2        46        45       202      1165      1402      1403
 -1       241    8    0    1
 -2        45       201       202      1400      1404      1402
 -1       242    8    0    1
 -2        47        46       203      1166      1405      1406
 -1       243    8    0    1
 -2        46       202       203      1403      1407      1405
 -1       244    8    0    1
 -2        48        47       204      1167      1408      1409
 -1       245    8    0    1
 -2        47       203       204      1406      1410      1408
 -1       246    8    0    1
 -2        49        48       205      1168      1411      1412
 -1       247    8    0    1
 -2        48       204       205      1409      1413      1411
 -1       248    8    0    1
 -2        50        49       206      1169      1414      1415
 -1       249    8    0    1
 -2        49       205       206      1412      1416      1414
 -1       250    8    0    1
 -2        51        50       207      1170      1417      1418
 -1       251    8    0    1
 -2        50       206       207      1415      1419      1417
 -1       252    8    0    1
 -2        52        51       208      1171      1420      1421
 -1       253    8    0    1
 -2        51       207       208      1418      1422      1420
 -1       254    8    0    1
 -2        53        52       209      1172      1423      1424
 -1       255    8    0    1
 -2        52       208       209      1421      1425      1423
 -1       256    8    0    1
 -2        54        53       210      1173      1426      1427
 -1       257    8    0    1
 -2        53       209       210      1424      1428      1426
 -1       258    8    0    1
 -2        55        54       211      1174      1429      1430
 -1       259    8    0    1
 -2        54       210       211      1427      1431      1429
 -1       260    8    0    1
 -2        56        55       212      1175      1432      1433
 -1       261    8    0    1
 -2        55       211       212      1430      1434      1432
 -1       262    8    0    1
 -2        57        56       213      1176      1435      1436
 -1       263    8    0    1
 -2        56       212       213      1433      1437      1435
 -1       264    8    0    1
 -2        58        57       214      1177      1438      1439
 -1       265    8    0    1
 -2        57       213       214      1436      1440      1438
 -1       266    8    0    1
 -2        59        58       215      1178      1441      1442
 -1       267    8    0    1
 -2        58       214       215      1439      1443      1441
 -1       268    8    0    1
 -2        60        59       216      1179      1444      1445
 -1       269    8    0    1
 -2        59       215       216      1442      1446      1444
 -1       270    8    0    1
 -2        61        60       217      1180      1447      1448
 -1       271    8    0    1
 -2        60       216       217      1445      1449      1447
 -1       272    8    0    1
 -2        62        61       218      1181      1450      1451
 -1       273    8    0    1
 -2        61       217       218      1448      1452      1450
 -1       274    8    0    1
 -2        63        62       219      1182      1453      1454
 -1       275    8    0    1
 -2        62       218       219      1451      1455      1453
 -1       276    8    0    1
 -2        64        63       220      1183      1456      1457
 -1       277    8    0    1
 -2        63       219       220      1454      1458      1456
 -1       278    8    0    1
 -2        65        64       221      1184      1459      1460
 -1       279    8    0    1
 -2        64       220       221      1457      1461      1459
 -1       280    8    0    1
 -2        66        65       222      1185      1462      1463
 -1       281    8    0    1
 -2        65       221       222      1460      1464      1462
 -1       282    8    0    1
 -2        67        66       223      1186      1465      1466
 -1       283    8    0    1
 -2        66       222       223      1463      1467      1465
 -1       284    8    0    1
 -2        68        67       224      1187      1468      1469
 -1       285    8    0    1
 -2        67       223       224      1466      1470      1468
 -1       286    8    0    1
 -2        69        68       225      1188      1471      1472
 -1       287    8    0    1
 -2        68       224       225      1469      1473      1471
 -1       288    8    0    1
 -2        70        69       226      1189      1474      1475
 -1       289    8    0    1
 -2        69       225       226      1472      1476      1474
 -1       290    8    0    1
 -2        71        70       227      1190      1477      1478
 -1       291    8    0    1
 -2        70       226       227      1475      1479      1477
 -1       292    8    0    1
 -2         4        71       136      1191      1480      1258
 -1       293    8    0    1
 -2       136        71       227      1480      1478      1481
 -1       294    8    0    1
 -2        72        73       228      1193      1482      1483
 -1       295    8    0    1
 -2        72       228       179      1483      1484      1336
 -1       296    8    0    1
 -2        73        74       229      1194      1485      1486
 -1       297    8    0    1
 -2        73       229       228      1486      1487      1482
 -1       298    8    0    1
 -2        74        75       230      1195      1488      1489
 -1       299    8    0    1
 -2        74       230       229      1489      1490      1485
 -1       300    8    0    1
 -2        75        76       231      1196      1491      1492
 -1       301    8    0    1
 -2        75       231       230      1492      1493      1488
 -1       302    8    0    1
 -2        76        77       232      1197      1494      1495
 -1       303    8    0    1
 -2        76       232       231      1495      1496      1491
 -1       304    8    0    1
 -2        77        78       233      1198      1497      1498
 -1       305    8    0    1
 -2        77       233       232      1498      1499      1494
 -1       306    8    0    1
 -2        78        79       234      1199      1500      1501
 -1       307    8    0    1
 -2        78       234       233      1501      1502      1497
 -1       308    8    0    1
 -2        79        80       235      1200      1503      1504
 -1       309    8    0    1
 -2        79       235       234      1504      1505      1500
 -1       310    8    0    1
 -2        80        81       236      1201      1506      1507
 -1       311    8    0    1
 -2        80       236       235      1507      1508      1503
 -1       312    8    0    1
 -2        81        82       237      1202      1509      1510
 -1       313    8    0    1
 -2        81       237       236      1510      1511      1506
 -1       314    8    0    1
 -2        82        83       238      1203      1512      1513
 -1       315    8    0    1
 -2        82       238       237      1513      1514      1509
 -1       316    8    0    1
 -2        83        84       239      1204      1515      1516
 -1       317    8    0    1
 -2        83       239       238      1516      1517      1512
 -1       318    8    0    1
 -2        84        85       240      1205      1518      1519
 -1       319    8    0    1
 -2        84       240       239      1519      1520      1515
 -1       320    8    0    1
 -2        85        86       241      1206      1521      1522
 -1       321    8    0    1
 -2        85       241       240      1522      1523      1518
 -1       322    8    0    1
 -2        86        87       242      1207      1524      1525
 -1       323    8    0    1
 -2        86       242       241      1525      1526      1521
 -1       324    8    0    1
 -2        87        88       243      1208      1527      1528
 -1       325    8    0    1
 -2        87       243       242      1528      1529      1524
 -1       326    8    0    1
 -2        88        89       244      1209      1530      1531
 -1       327    8    0    1
 -2        88       244       243      1531      1532      1527
 -1       328    8    0    1
 -2        89        90       245      1210      1533      1534
 -1       329    8    0    1
 -2        89       245       244      1534      1535      1530
 -1       330    8    0    1
 -2        90        91       246      1211      1536      1537
 -1       331    8    0    1
 -2        90       246       245      1537      1538      1533
 -1       332    8    0    1
 -2        91        92       247      1212      1539      1540
 -1       333    8    0    1
 -2        91       247       246      1540      1541      1536
 -1       334    8    0    1
 -2        92        93       248      1213      1542      1543
 -1       335    8    0    1
 -2        92       248       247      1543      1544      1539
 -1       336    8    0    1
 -2        93        94       249      1214      1545      1546
 -1       337    8    0    1
 -2        93       249       248      1546      1547      1542
 -1       338    8    0    1
 -2        94        95       250      1215      1548      1549
 -1       339    8    0    1
 -2        94       250       249      1549      1550      1545
 -1       340    8    0    1
 -2        95        96       251      1216      1551      1552
 -1       341    8    0    1
 -2        95       251       250      1552      1553      1548
 -1       342    8    0    1
 -2        96        97       252      1217      1554      1555
 -1       343    8    0    1
 -2        96       252       251      1555      1556      1551
 -1       344    8    0    1
 -2        97        98       253      1218      1557      1558
 -1       345    8    0    1
 -2        97       253       252      1558      1559      1554
 -1       346    8    0    1
 -2        98        99       254      1219      1560      1561
 -1       347    8    0    1
 -2        98       254       253      1561      1562      1557
 -1       348    8    0    1
 -2        99       100       255      1220      1563      1564
 -1       349    8    0    1
 -2        99       255       254      1564      1565      1560
 -1       350    8    0    1
 -2       100       101       256      1221      1566      1567
 -1       351    8    0    1
 -2       100       256       255      1567      1568      1563
 -1       352    8    0    1
 -2       101       102       257      1222      1569      1570
 -1       353    8    0    1
 -2       101       257       256      1570      1571      1566
 -1       354    8    0    1
 -2       102       103       258      1223      1572      1573
 -1       355    8    0    1
 -2       102       258       257      1573      1574      1569
 -1       356    8    0    1
 -2       103       104       259      1224      1575      1576
 -1       357    8    0    1
 -2       103       259       258      1576      1577      1572
 -1       358    8    0    1
 -2       104       105       260      1225      1578      1579
 -1       359    8    0    1
 -2       104       260       259      1579      1580      1575
 -1       360    8    0    1
 -2       105       106       261      1226      1581      1582
 -1       361    8    0    1
 -2       105       261       260      1582      1583      1578
 -1       362    8    0    1
 -2       106       107       262      1227      1584      1585
 -1       363    8    0    1
 -2       106       262       261      1585      1586      1581
 -1       364    8    0    1
 -2       107       108       263      1228      1587      1588
 -1       365    8    0    1
 -2       107       263       262      1588      1589      1584
 -1       366    8    0    1
 -2       108       109       264      1229      1590      1591
 -1       367    8    0    1
 -2       108       264       263      1591      1592      1587
 -1       368    8    0    1
 -2       109       110       265      1230      1593      1594
 -1       369    8    0    1
 -2       109       265       264      1594      1595      1590
 -1       370    8    0    1
 -2       110       111       266      1231      1596      1597
 -1       371    8    0    1
 -2       110       266       265      1597      1598      1593
 -1       372    8    0    1
 -2       111       112       267      1232      1599      1600
 -1       373    8    0    1
 -2       111       267       266      1600      1601      1596
 -1       374    8    0    1
 -2       112       113       268      1233      1602      1603
 -1       375    8    0    1
 -2       112       268       267      1603      1604      1599
 -1       376    8    0    1
 -2       113       114       269      1234      1605      1606
 -1       377    8    0    1
 -2       113       269       268      1606      1607      1602
 -1       378    8    0    1
 -2       114       115       270      1235      1608      1609
 -1       379    8    0    1
 -2       114       270       269      1609      1610      1605
 -1       380    8    0    1
 -2       115       116       271      1236      1611      1612
 -1       381    8    0    1
 -2       115       271       270      1612      1613      1608
 -1       382    8    0    1
 -2       116       117       272      1237      1614      1615
 -1       383    8    0    1
 -2       116       272       271      1615      1616      1611
 -1       384    8    0    1
 -2       117       118       273      1238      1617      1618
 -1       385    8    0    1
 -2       117       273       272      1618      1619      1614
 -1       386    8    0    1
 -2       118       119       274      1239      1620      1621
 -1       387    8    0    1
 -2       118       274       273      1621      1622      1617
 -1       388    8    0    1
 -2       119       120       275      1240      1623      1624
 -1       389    8    0    1
 -2       119       275       274      1624      1625      1620
 -1       390    8    0    1
 -2       120         3       121      1241      1242      1626
 -1       391    8    0    1
 -2       121       122       276      1243      1627      1628
 -1       392    8    0    1
 -2       122       123       277      1244      1629      1630
 -1       393    8    0    1
 -2       122       277       276      1630      1631      1627
 -1       394    8    0    1
 -2       123       124       278      1245      1632      1633
 -1       395    8    0    1
 -2       123       278       277      1633      1634      1629
 -1       396    8    0    1
 -2       124       125       279      1246      1635      1636
 -1       397    8    0    1
 -2       124       279       278      1636      1637      1632
 -1       398    8    0    1
 -2       125       126       280      1247      1638      1639
 -1       399    8    0    1
 -2       125       280       279      1639      1640      1635
 -1       400    8    0    1
 -2       126       127       281      1248      1641      1642
 -1       401    8    0    1
 -2       126       281       280      1642      1643      1638
 -1       402    8    0    1
 -2       127       128       282      1249      1644      1645
 -1       403    8    0    1
 -2       127       282       281      1645      1646      1641
 -1       404    8    0    1
 -2       128       129       283      1250      1647      1648
 -1       405    8    0    1
 -2       128       283       282      1648      1649      1644
 -1       406    8    0    1
 -2       129       130       284      1251      1650      1651
 -1       407    8    0    1
 -2       129       284       283      1651      1652      1647
 -1       408    8    0    1
 -2       130       131       285      1252      1653      1654
 -1       409    8    0    1
 -2       130       285       284      1654      1655      1650
 -1       410    8    0    1
 -2       131       132       286      1253      1656      1657
 -1       411    8    0    1
 -2       131       286       285      1657      1658      1653
 -1       412    8    0    1
 -2       132       133       287      1254      1659      1660
 -1       413    8    0    1
 -2       132       287       286      1660      1661      1656
 -1       414    8    0    1
 -2       133       134       288      1255      1662      1663
 -1       415    8    0    1
 -2       133       288       287      1663      1664      1659
 -1       416    8    0    1
 -2       134       135       289      1256      1665      1666
 -1       417    8    0    1
 -2       134       289       288      1666      1667      1662
 -1       418    8    0    1
 -2       135       136       290      1257      1668      1669
 -1       419    8    0    1
 -2       289       135       290      1665      1669      1670
 -1       420    8    0    1
 -2       136       227       290      1481      1671      1668
 -1       421    8    0    1
 -2         2       137       291      1259      1672      1673
 -1       422    8    0    1
 -2       137       138       292      1260      1674      1675
 -1       423    8    0    1
 -2       138       139       293      1261      1676      1677
 -1       424    8    0    1
 -2       139       140       294      1262      1678      1679
 -1       425    8    0    1
 -2       140       141       295      1263      1680      1681
 -1       426    8    0    1
 -2       141       142       296      1264      1682      1683
 -1       427    8    0    1
 -2       142       143       297      1265      1684      1685
 -1       428    8    0    1
 -2       143       144       298      1266      1686      1687
 -1       429    8    0    1
 -2       144       145       299      1267      1688      1689
 -1       430    8    0    1
 -2       145       146       300      1268      1690      1691
 -1       431    8    0    1
 -2       146       147       301      1269      1692      1693
 -1       432    8    0    1
 -2       147       148       302      1270      1694      1695
 -1       433    8    0    1
 -2       148       149       303      1271      1696      1697
 -1       434    8    0    1
 -2       149       150       304      1272      1698      1699
 -1       435    8    0    1
 -2       150       151       305      1273      1700      1701
 -1       436    8    0    1
 -2       151       152       306      1274      1702      1703
 -1       437    8    0    1
 -2       152       153       307      1275      1704      1705
 -1       438    8    0    1
 -2       153       154       308      1276      1706      1707
 -1       439    8    0    1
 -2       154       155       309      1277      1708      1709
 -1       440    8    0    1
 -2       155       156       310      1278      1710      1711
 -1       441    8    0    1
 -2       156       157       311      1279      1712      1713
 -1       442    8    0    1
 -2       157       158       312      1280      1714      1715
 -1       443    8    0    1
 -2       158       159       313      1281      1716      1717
 -1       444    8    0    1
 -2       159       160       314      1282      1718      1719
 -1       445    8    0    1
 -2       160         1       315      1283      1720      1721
 -1       446    8    0    1
 -2         1       161       316      1284      1722      1723
 -1       447    8    0    1
 -2       161       162       317      1285      1724      1725
 -1       448    8    0    1
 -2       162       163       318      1286      1726      1727
 -1       449    8    0    1
 -2       163         2       319      1287      1728      1729
 -1       450    8    0    1
 -2       294       140       295      1678      1681      1730
 -1       451    8    0    1
 -2       293       139       294      1676      1679      1731
 -1       452    8    0    1
 -2       120       121       275      1626      1732      1623
 -1       453    8    0    1
 -2       121       276       275      1628      1733      1732
 -1       454    8    0    1
 -2       291       137       292      1672      1675      1734
 -1       455    8    0    1
 -2       292       138       293      1674      1677      1735
 -1       456    8    0    1
 -2         2       291       319      1673      1736      1728
 -1       457    8    0    1
 -2       141       296       295      1683      1737      1680
 -1       458    8    0    1
 -2       142       297       296      1685      1738      1682
 -1       459    8    0    1
 -2       143       298       297      1687      1739      1684
 -1       460    8    0    1
 -2       144       299       298      1689      1740      1686
 -1       461    8    0    1
 -2       145       300       299      1691      1741      1688
 -1       462    8    0    1
 -2       146       301       300      1693      1742      1690
 -1       463    8    0    1
 -2       147       302       301      1695      1743      1692
 -1       464    8    0    1
 -2       148       303       302      1697      1744      1694
 -1       465    8    0    1
 -2       149       304       303      1699      1745      1696
 -1       466    8    0    1
 -2       150       305       304      1701      1746      1698
 -1       467    8    0    1
 -2       151       306       305      1703      1747      1700
 -1       468    8    0    1
 -2       152       307       306      1705      1748      1702
 -1       469    8    0    1
 -2       153       308       307      1707      1749      1704
 -1       470    8    0    1
 -2       154       309       308      1709      1750      1706
 -1       471    8    0    1
 -2       155       310       309      1711      1751      1708
 -1       472    8    0    1
 -2       156       311       310      1713      1752      1710
 -1       473    8    0    1
 -2       157       312       311      1715      1753      1712
 -1       474    8    0    1
 -2       158       313       312      1717      1754      1714
 -1       475    8    0    1
 -2       159       314       313      1719      1755      1716
 -1       476    8    0    1
 -2       160       315       314      1721      1756      1718
 -1       477    8    0    1
 -2         1       316       315      1723      1757      1720
 -1       478    8    0    1
 -2       161       317       316      1725      1758      1722
 -1       479    8    0    1
 -2       162       318       317      1727      1759      1724
 -1       480    8    0    1
 -2       163       319       318      1729      1760      1726
 -1       481    8    0    1
 -2        23         7       164      1288      1290      1761
 -1       482    8    0    1
 -2       165       166       320      1296      1762      1763
 -1       483    8    0    1
 -2       164       165       321      1293      1764      1765
 -1       484    8    0    1
 -2       165       320       321      1763      1766      1764
 -1       485    8    0    1
 -2       167       168       322      1302      1767      1768
 -1       486    8    0    1
 -2       168       169       323      1305      1769      1770
 -1       487    8    0    1
 -2       168       323       322      1770      1771      1767
 -1       488    8    0    1
 -2       169       170       324      1308      1772      1773
 -1       489    8    0    1
 -2       169       324       323      1773      1774      1769
 -1       490    8    0    1
 -2       170       171       325      1311      1775      1776
 -1       491    8    0    1
 -2       170       325       324      1776      1777      1772
 -1       492    8    0    1
 -2       171       172       326      1314      1778      1779
 -1       493    8    0    1
 -2       171       326       325      1779      1780      1775
 -1       494    8    0    1
 -2       172       173       327      1317      1781      1782
 -1       495    8    0    1
 -2       172       327       326      1782      1783      1778
 -1       496    8    0    1
 -2       173       174       328      1320      1784      1785
 -1       497    8    0    1
 -2       173       328       327      1785      1786      1781
 -1       498    8    0    1
 -2       174       175       329      1323      1787      1788
 -1       499    8    0    1
 -2       174       329       328      1788      1789      1784
 -1       500    8    0    1
 -2       175       176       330      1326      1790      1791
 -1       501    8    0    1
 -2       175       330       329      1791      1792      1787
 -1       502    8    0    1
 -2       176       177       331      1329      1793      1794
 -1       503    8    0    1
 -2       176       331       330      1794      1795      1790
 -1       504    8    0    1
 -2       177       178       332      1332      1796      1797
 -1       505    8    0    1
 -2       177       332       331      1797      1798      1793
 -1       506    8    0    1
 -2       178       179       333      1335      1799      1800
 -1       507    8    0    1
 -2       332       178       333      1796      1800      1801
 -1       508    8    0    1
 -2       179       228       333      1484      1802      1799
 -1       509    8    0    1
 -2       180        23       164      1337      1761      1803
 -1       510    8    0    1
 -2       228       229       334      1487      1804      1805
 -1       511    8    0    1
 -2       228       334       333      1805      1806      1802
 -1       512    8    0    1
 -2       180       164       321      1803      1765      1807
 -1       513    8    0    1
 -2       182       181       335      1344      1808      1809
 -1       514    8    0    1
 -2       183       182       336      1347      1810      1811
 -1       515    8    0    1
 -2       182       335       336      1809      1812      1810
 -1       516    8    0    1
 -2       184       183       337      1350      1813      1814
 -1       517    8    0    1
 -2       183       336       337      1811      1815      1813
 -1       518    8    0    1
 -2       185       184       338      1353      1816      1817
 -1       519    8    0    1
 -2       184       337       338      1814      1818      1816
 -1       520    8    0    1
 -2       186       185       339      1356      1819      1820
 -1       521    8    0    1
 -2       185       338       339      1817      1821      1819
 -1       522    8    0    1
 -2       187       186       340      1359      1822      1823
 -1       523    8    0    1
 -2       186       339       340      1820      1824      1822
 -1       524    8    0    1
 -2       188       187       341      1362      1825      1826
 -1       525    8    0    1
 -2       187       340       341      1823      1827      1825
 -1       526    8    0    1
 -2       189       188       342      1365      1828      1829
 -1       527    8    0    1
 -2       188       341       342      1826      1830      1828
 -1       528    8    0    1
 -2       190       189       343      1368      1831      1832
 -1       529    8    0    1
 -2       189       342       343      1829      1833      1831
 -1       530    8    0    1
 -2       191       190       344      1371      1834      1835
 -1       531    8    0    1
 -2       190       343       344      1832      1836      1834
 -1       532    8    0    1
 -2       192       191       345      1374      1837      1838
 -1       533    8    0    1
 -2       191       344       345      1835      1839      1837
 -1       534    8    0    1
 -2       193       192       346      1377      1840      1841
 -1       535    8    0    1
 -2       192       345       346      1838      1842      1840
 -1       536    8    0    1
 -2       194       193       347      1380      1843      1844
 -1       537    8    0    1
 -2       193       346       347      1841      1845      1843
 -1       538    8    0    1
 -2       195       194       348      1383      1846      1847
 -1       539    8    0    1
 -2       194       347       348      1844      1848      1846
 -1       540    8    0    1
 -2       196       195       349      1386      1849      1850
 -1       541    8    0    1
 -2       195       348       349      1847      1851      1849
 -1       542    8    0    1
 -2       197       196       350      1389      1852      1853
 -1       543    8    0    1
 -2       196       349       350      1850      1854      1852
 -1       544    8    0    1
 -2       198       197       351      1392      1855      1856
 -1       545    8    0    1
 -2       197       350       351      1853      1857      1855
 -1       546    8    0    1
 -2       199       198       352      1395      1858      1859
 -1       547    8    0    1
 -2       198       351       352      1856      1860      1858
 -1       548    8    0    1
 -2       200       199       353      1398      1861      1862
 -1       549    8    0    1
 -2       199       352       353      1859      1863      1861
 -1       550    8    0    1
 -2       201       200       354      1401      1864      1865
 -1       551    8    0    1
 -2       200       353       354      1862      1866      1864
 -1       552    8    0    1
 -2       202       201       355      1404      1867      1868
 -1       553    8    0    1
 -2       201       354       355      1865      1869      1867
 -1       554    8    0    1
 -2       203       202       356      1407      1870      1871
 -1       555    8    0    1
 -2       202       355       356      1868      1872      1870
 -1       556    8    0    1
 -2       204       203       357      1410      1873      1874
 -1       557    8    0    1
 -2       203       356       357      1871      1875      1873
 -1       558    8    0    1
 -2       205       204       358      1413      1876      1877
 -1       559    8    0    1
 -2       204       357       358      1874      1878      1876
 -1       560    8    0    1
 -2       206       205       359      1416      1879      1880
 -1       561    8    0    1
 -2       205       358       359      1877      1881      1879
 -1       562    8    0    1
 -2       207       206       360      1419      1882      1883
 -1       563    8    0    1
 -2       206       359       360      1880      1884      1882
 -1       564    8    0    1
 -2       208       207       361      1422      1885      1886
 -1       565    8    0    1
 -2       207       360       361      1883      1887      1885
 -1       566    8    0    1
 -2       209       208       362      1425      1888      1889
 -1       567    8    0    1
 -2       208       361       362      1886      1890      1888
 -1       568    8    0    1
 -2       210       209       363      1428      1891      1892
 -1       569    8    0    1
 -2       209       362       363      1889      1893      1891
 -1       570    8    0    1
 -2       211       210       364      1431      1894      1895
 -1       571    8    0    1
 -2       210       363       364      1892      1896      1894
 -1       572    8    0    1
 -2       212       211       365      1434      1897      1898
 -1       573    8    0    1
 -2       211       364       365      1895      1899      1897
 -1       574    8    0    1
 -2       213       212       366      1437      1900      1901
 -1       575    8    0    1
 -2       212       365       366      1898      1902      1900
 -1       576    8    0    1
 -2       214       213       367      1440      1903      1904
 -1       577    8    0    1
 -2       213       366       367      1901      1905      1903
 -1       578    8    0    1
 -2       215       214       368      1443      1906      1907
 -1       579    8    0    1
 -2       214       367       368      1904      1908      1906
 -1       580    8    0    1
 -2       216       215       369      1446      1909      1910
 -1       581    8    0    1
 -2       215       368       369      1907      1911      1909
 -1       582    8    0    1
 -2       217       216       370      1449      1912      1913
 -1       583    8    0    1
 -2       216       369       370      1910      1914      1912
 -1       584    8    0    1
 -2       218       217       371      1452      1915      1916
 -1       585    8    0    1
 -2       217       370       371      1913      1917      1915
 -1       586    8    0    1
 -2       219       218       372      1455      1918      1919
 -1       587    8    0    1
 -2       218       371       372      1916      1920      1918
 -1       588    8    0    1
 -2       220       219       373      1458      1921      1922
 -1       589    8    0    1
 -2       219       372       373      1919      1923      1921
 -1       590    8    0    1
 -2       221       220       374      1461      1924      1925
 -1       591    8    0    1
 -2       220       373       374      1922      1926      1924
 -1       592    8    0    1
 -2       222       221       375      1464      1927      1928
 -1       593    8    0    1
 -2       221       374       375      1925      1929      1927
 -1       594    8    0    1
 -2       223       222       376      1467      1930      1931
 -1       595    8    0    1
 -2       222       375       376      1928      1932      1930
 -1       596    8    0    1
 -2       224       223       377      1470      1933      1934
 -1       597    8    0    1
 -2       223       376       377      1931      1935      1933
 -1       598    8    0    1
 -2       225       224       378      1473      1936      1937
 -1       599    8    0    1
 -2       224       377       378      1934      1938      1936
 -1       600    8    0    1
 -2       226       225       379      1476      1939      1940
 -1       601    8    0    1
 -2       225       378       379      1937      1941      1939
 -1       602    8    0    1
 -2       227       226       380      1479      1942      1943
 -1       603    8    0    1
 -2       290       227       380      1671      1943      1944
 -1       604    8    0    1
 -2       226       379       380      1940      1945      1942
 -1       605    8    0    1
 -2       229       230       381      1490      1946      1947
 -1       606    8    0    1
 -2       229       381       334      1947      1948      1804
 -1       607    8    0    1
 -2       230       231       382      1493      1949      1950
 -1       608    8    0    1
 -2       230       382       381      1950      1951      1946
 -1       609    8    0    1
 -2       231       232       383      1496      1952      1953
 -1       610    8    0    1
 -2       231       383       382      1953      1954      1949
 -1       611    8    0    1
 -2       232       233       384      1499      1955      1956
 -1       612    8    0    1
 -2       232       384       383      1956      1957      1952
 -1       613    8    0    1
 -2       233       234       385      1502      1958      1959
 -1       614    8    0    1
 -2       233       385       384      1959      1960      1955
 -1       615    8    0    1
 -2       234       235       386      1505      1961      1962
 -1       616    8    0    1
 -2       234       386       385      1962      1963      1958
 -1       617    8    0    1
 -2       235       236       387      1508      1964      1965
 -1       618    8    0    1
 -2       235       387       386      1965      1966      1961
 -1       619    8    0    1
 -2       236       237       388      1511      1967      1968
 -1       620    8    0    1
 -2       236       388       387      1968      1969      1964
 -1       621    8    0    1
 -2       237       238       389      1514      1970      1971
 -1       622    8    0    1
 -2       237       389       388      1971      1972      1967
 -1       623    8    0    1
 -2       238       239       390      1517      1973      1974
 -1       624    8    0    1
 -2       238       390       389      1974      1975      1970
 -1       625    8    0    1
 -2       239       240       391      1520      1976      1977
 -1       626    8    0    1
 -2       239       391       390      1977      1978      1973
 -1       627    8    0    1
 -2       240       241       392      1523      1979      1980
 -1       628    8    0    1
 -2       240       392       391      1980      1981      1976
 -1       629    8    0    1
 -2       241       242       393      1526      1982      1983
 -1       630    8    0    1
 -2       241       393       392      1983      1984      1979
 -1       631    8    0    1
 -2       242       243       394      1529      1985      1986
 -1       632    8    0    1
 -2       242       394       393      1986      1987      1982
 -1       633    8    0    1
 -2       243       244       395      1532      1988      1989
 -1       634    8    0    1
 -2       243       395       394      1989      1990      1985
 -1       635    8    0    1
 -2       244       245       396      1535      1991      1992
 -1       636    8    0    1
 -2       244       396       395      1992      1993      1988
 -1       637    8    0    1
 -2       245       246       397      1538      1994      1995
 -1       638    8    0    1
 -2       245       397       396      1995      1996      1991
 -1       639    8    0    1
 -2       246       247       398      1541      1997      1998
 -1       640    8    0    1
 -2       246       398       397      1998      1999      1994
 -1       641    8    0    1
 -2       247       248       399      1544      2000      2001
 -1       642    8    0    1
 -2       247       399       398      2001      2002      1997
 -1       643    8    0    1
 -2       248       249       400      1547      2003      2004
 -1       644    8    0    1
 -2       248       400       399      2004      2005      2000
 -1       645    8    0    1
 -2       249       250       401      1550      2006      2007
 -1       646    8    0    1
 -2       249       401       400      2007      2008      2003
 -1       647    8    0    1
 -2       250       251       402      1553      2009      2010
 -1       648    8    0    1
 -2       250       402       401      2010      2011      2006
 -1       649    8    0    1
 -2       251       252       403      1556      2012      2013
 -1       650    8    0    1
 -2       251       403       402      2013      2014      2009
 -1       651    8    0    1
 -2       252       253       404      1559      2015      2016
 -1       652    8    0    1
 -2       252       404       403      2016      2017      2012
 -1       653    8    0    1
 -2       253       254       405      1562      2018      2019
 -1       654    8    0    1
 -2       253       405       404      2019      2020      2015
 -1       655    8    0    1
 -2       254       255       406      1565      2021      2022
 -1       656    8    0    1
 -2       254       406       405      2022      2023      2018
 -1       657    8    0    1
 -2       255       256       407      1568      2024      2025
 -1       658    8    0    1
 -2       255       407       406      2025      2026      2021
 -1       659    8    0    1
 -2       256       257       408      1571      2027      2028
 -1       660    8    0    1
 -2       256       408       407      2028      2029      2024
 -1       661    8    0    1
 -2       257       258       409      1574      2030      2031
 -1       662    8    0    1
 -2       257       409       408      2031      2032      2027
 -1       663    8    0    1
 -2       258       259       410      1577      2033      2034
 -1       664    8    0    1
 -2       258       410       409      2034      2035      2030
 -1       665    8    0    1
 -2       259       260       411      1580      2036      2037
 -1       666    8    0    1
 -2       259       411       410      2037      2038      2033
 -1       667    8    0    1
 -2       260       261       412      1583      2039      2040
 -1       668    8    0    1
 -2       260       412       411      2040      2041      2036
 -1       669    8    0    1
 -2       261       262       413      1586      2042      2043
 -1       670    8    0    1
 -2       261       413       412      2043      2044      2039
 -1       671    8    0    1
 -2       262       263       414      1589      2045      2046
 -1       672    8    0    1
 -2       262       414       413      2046      2047      2042
 -1       673    8    0    1
 -2       263       264       415      1592      2048      2049
 -1       674    8    0    1
 -2       263       415       414      2049      2050      2045
 -1       675    8    0    1
 -2       264       265       416      1595      2051      2052
 -1       676    8    0    1
 -2       264       416       415      2052      2053      2048
 -1       677    8    0    1
 -2       265       266       417      1598      2054      2055
 -1       678    8    0    1
 -2       265       417       416      2055      2056      2051
 -1       679    8    0    1
 -2       266       267       418      1601      2057      2058
 -1       680    8    0    1
 -2       266       418       417      2058      2059      2054
 -1       681    8    0    1
 -2       267       268       419      1604      2060      2061
 -1       682    8    0    1
 -2       267       419       418      2061      2062      2057
 -1       683    8    0    1
 -2       268       269       420      1607      2063      2064
 -1       684    8    0    1
 -2       268       420       419      2064      2065      2060
 -1       685    8    0    1
 -2       269       270       421      1610      2066      2067
 -1       686    8    0    1
 -2       269       421       420      2067      2068      2063
 -1       687    8    0    1
 -2       270       271       422      1613      2069      2070
 -1       688    8    0    1
 -2       270       422       421      2070      2071      2066
 -1       689    8    0    1
 -2       271       272       423      1616      2072      2073
 -1       690    8    0    1
 -2       271       423       422      2073      2074      2069
 -1       691    8    0    1
 -2       272       273       424      1619      2075      2076
 -1       692    8    0    1
 -2       272       424       423      2076      2077      2072
 -1       693    8    0    1
 -2       273       274       425      1622      2078      2079
 -1       694    8    0    1
 -2       273       425       424      2079      2080      2075
 -1       695    8    0    1
 -2       274       275       426      1625      2081      2082
 -1       696    8    0    1
 -2       425       274       426      2078      2082      2083
 -1       697    8    0    1
 -2       275       276       426      1733      2084      2081
 -1       698    8    0    1
 -2       278       279       427      1637      2085      2086
 -1       699    8    0    1
 -2       277       278       428      1634      2087      2088
 -1       700    8    0    1
 -2       278       427       428      2086      2089      2087
 -1       701    8    0    1
 -2       276       277       429      1631      2090      2091
 -1       702    8    0    1
 -2       426       276       429      2084      2091      2092
 -1       703    8    0    1
 -2       277       428       429      2088      2093      2090
 -1       704    8    0    1
 -2       279       280       430      1640      2094      2095
 -1       705    8    0    1
 -2       279       430       427      2095      2096      2085
 -1       706    8    0    1
 -2       280       281       431      1643      2097      2098
 -1       707    8    0    1
 -2       280       431       430      2098      2099      2094
 -1       708    8    0    1
 -2       281       282       432      1646      2100      2101
 -1       709    8    0    1
 -2       281       432       431      2101      2102      2097
 -1       710    8    0    1
 -2       282       283       433      1649      2103      2104
 -1       711    8    0    1
 -2       282       433       432      2104      2105      2100
 -1       712    8    0    1
 -2       283       284       434      1652      2106      2107
 -1       713    8    0    1
 -2       283       434       433      2107      2108      2103
 -1       714    8    0    1
 -2       284       285       435      1655      2109      2110
 -1       715    8    0    1
 -2       284       435       434      2110      2111      2106
 -1       716    8    0    1
 -2       285       286       436      1658      2112      2113
 -1       717    8    0    1
 -2       285       436       435      2113      2114      2109
 -1       718    8    0    1
 -2       286       287       437      1661      2115      2116
 -1       719    8    0    1
 -2       286       437       436      2116      2117      2112
 -1       720    8    0    1
 -2       287       288       438      1664      2118      2119
 -1       721    8    0    1
 -2       287       438       437      2119      2120      2115
 -1       722    8    0    1
 -2       288       289       439      1667      2121      2122
 -1       723    8    0    1
 -2       288       439       438      2122      2123      2118
 -1       724    8    0    1
 -2       292       293       440      1735      2124      2125
 -1       725    8    0    1
 -2       319       291       441      1736      2126      2127
 -1       726    8    0    1
 -2       291       292       442      1734      2128      2129
 -1       727    8    0    1
 -2       292       440       442      2125      2130      2128
 -1       728    8    0    1
 -2       293       294       443      1731      2131      2132
 -1       729    8    0    1
 -2       294       295       444      1730      2133      2134
 -1       730    8    0    1
 -2       166       167       445      1299      2135      2136
 -1       731    8    0    1
 -2       320       166       445      1762      2136      2137
 -1       732    8    0    1
 -2       167       322       445      1768      2138      2135
 -1       733    8    0    1
 -2       296       297       446      1738      2139      2140
 -1       734    8    0    1
 -2       297       298       447      1739      2141      2142
 -1       735    8    0    1
 -2       298       299       448      1740      2143      2144
 -1       736    8    0    1
 -2       299       300       449      1741      2145      2146
 -1       737    8    0    1
 -2       300       301       450      1742      2147      2148
 -1       738    8    0    1
 -2       301       302       451      1743      2149      2150
 -1       739    8    0    1
 -2       302       303       452      1744      2151      2152
 -1       740    8    0    1
 -2       302       452       451      2152      2153      2149
 -1       741    8    0    1
 -2       303       304       453      1745      2154      2155
 -1       742    8    0    1
 -2       304       305       454      1746      2156      2157
 -1       743    8    0    1
 -2       305       306       455      1747      2158      2159
 -1       744    8    0    1
 -2       306       307       456      1748      2160      2161
 -1       745    8    0    1
 -2       307       308       457      1749      2162      2163
 -1       746    8    0    1
 -2       308       309       458      1750      2164      2165
 -1       747    8    0    1
 -2       309       310       459      1751      2166      2167
 -1       748    8    0    1
 -2       310       311       460      1752      2168      2169
 -1       749    8    0    1
 -2       311       312       461      1753      2170      2171
 -1       750    8    0    1
 -2       312       313       462      1754      2172      2173
 -1       751    8    0    1
 -2       313       314       463      1755      2174      2175
 -1       752    8    0    1
 -2       313       463       462      2175      2176      2172
 -1       753    8    0    1
 -2       314       315       464      1756      2177      2178
 -1       754    8    0    1
 -2       315       316       465      1757      2179      2180
 -1       755    8    0    1
 -2       316       317       466      1758      2181      2182
 -1       756    8    0    1
 -2       316       466       465      2182      2183      2179
 -1       757    8    0    1
 -2       317       318       467      1759      2184      2185
 -1       758    8    0    1
 -2       318       319       468      1760      2186      2187
 -1       759    8    0    1
 -2       318       468       467      2187      2188      2184
 -1       760    8    0    1
 -2       295       296       469      1737      2189      2190
 -1       761    8    0    1
 -2       444       295       469      2133      2190      2191
 -1       762    8    0    1
 -2       180       321       181      1807      2192      1341
 -1       763    8    0    1
 -2       296       446       469      2140      2193      2189
 -1       764    8    0    1
 -2       335       181       321      1808      2192      2194
 -1       765    8    0    1
 -2       441       291       442      2126      2129      2195
 -1       766    8    0    1
 -2       293       443       440      2132      2196      2124
 -1       767    8    0    1
 -2       439       289       290      2121      1670      2197
 -1       768    8    0    1
 -2       319       441       468      2127      2198      2186
 -1       769    8    0    1
 -2       443       294       444      2131      2134      2199
 -1       770    8    0    1
 -2       466       317       467      2181      2185      2200
 -1       771    8    0    1
 -2       463       314       464      2174      2178      2201
 -1       772    8    0    1
 -2       461       312       470      2170      2202      2203
 -1       773    8    0    1
 -2       312       462       470      2173      2204      2202
 -1       774    8    0    1
 -2       460       311       461      2168      2171      2205
 -1       775    8    0    1
 -2       459       310       460      2166      2169      2206
 -1       776    8    0    1
 -2       458       309       459      2164      2167      2207
 -1       777    8    0    1
 -2       457       308       458      2162      2165      2208
 -1       778    8    0    1
 -2       456       307       457      2160      2163      2209
 -1       779    8    0    1
 -2       455       306       456      2158      2161      2210
 -1       780    8    0    1
 -2       454       305       455      2156      2159      2211
 -1       781    8    0    1
 -2       452       303       453      2151      2155      2212
 -1       782    8    0    1
 -2       450       301       451      2147      2150      2213
 -1       783    8    0    1
 -2       449       300       450      2145      2148      2214
 -1       784    8    0    1
 -2       448       299       449      2143      2146      2215
 -1       785    8    0    1
 -2       446       297       447      2139      2142      2216
 -1       786    8    0    1
 -2       447       298       448      2141      2144      2217
 -1       787    8    0    1
 -2       453       304       454      2154      2157      2218
 -1       788    8    0    1
 -2       464       315       471      2177      2219      2220
 -1       789    8    0    1
 -2       315       465       471      2180      2221      2219
 -1       790    8    0    1
 -2       334       381       472      1948      2222      2223
 -1       791    8    0    1
 -2       323       324       473      1774      2224      2225
 -1       792    8    0    1
 -2       322       323       474      1771      2226      2227
 -1       793    8    0    1
 -2       323       473       474      2225      2228      2226
 -1       794    8    0    1
 -2       325       326       475      1780      2229      2230
 -1       795    8    0    1
 -2       326       327       476      1783      2231      2232
 -1       796    8    0    1
 -2       326       476       475      2232      2233      2229
 -1       797    8    0    1
 -2       327       328       477      1786      2234      2235
 -1       798    8    0    1
 -2       327       477       476      2235      2236      2231
 -1       799    8    0    1
 -2       328       329       478      1789      2237      2238
 -1       800    8    0    1
 -2       328       478       477      2238      2239      2234
 -1       801    8    0    1
 -2       329       330       479      1792      2240      2241
 -1       802    8    0    1
 -2       329       479       478      2241      2242      2237
 -1       803    8    0    1
 -2       330       331       480      1795      2243      2244
 -1       804    8    0    1
 -2       330       480       479      2244      2245      2240
 -1       805    8    0    1
 -2       381       382       481      1951      2246      2247
 -1       806    8    0    1
 -2       381       481       472      2247      2248      2222
 -1       807    8    0    1
 -2       336       335       482      1812      2249      2250
 -1       808    8    0    1
 -2       469       446       483      2193      2251      2252
 -1       809    8    0    1
 -2       337       336       484      1815      2253      2254
 -1       810    8    0    1
 -2       336       482       484      2250      2255      2253
 -1       811    8    0    1
 -2       338       337       485      1818      2256      2257
 -1       812    8    0    1
 -2       337       484       485      2254      2258      2256
 -1       813    8    0    1
 -2       339       338       486      1821      2259      2260
 -1       814    8    0    1
 -2       338       485       486      2257      2261      2259
 -1       815    8    0    1
 -2       340       339       487      1824      2262      2263
 -1       816    8    0    1
 -2       339       486       487      2260      2264      2262
 -1       817    8    0    1
 -2       341       340       488      1827      2265      2266
 -1       818    8    0    1
 -2       340       487       488      2263      2267      2265
 -1       819    8    0    1
 -2       342       341       489      1830      2268      2269
 -1       820    8    0    1
 -2       341       488       489      2266      2270      2268
 -1       821    8    0    1
 -2       343       342       490      1833      2271      2272
 -1       822    8    0    1
 -2       342       489       490      2269      2273      2271
 -1       823    8    0    1
 -2       344       343       491      1836      2274      2275
 -1       824    8    0    1
 -2       343       490       491      2272      2276      2274
 -1       825    8    0    1
 -2       345       344       492      1839      2277      2278
 -1       826    8    0    1
 -2       344       491       492      2275      2279      2277
 -1       827    8    0    1
 -2       346       345       493      1842      2280      2281
 -1       828    8    0    1
 -2       345       492       493      2278      2282      2280
 -1       829    8    0    1
 -2       347       346       494      1845      2283      2284
 -1       830    8    0    1
 -2       346       493       494      2281      2285      2283
 -1       831    8    0    1
 -2       348       347       495      1848      2286      2287
 -1       832    8    0    1
 -2       347       494       495      2284      2288      2286
 -1       833    8    0    1
 -2       349       348       496      1851      2289      2290
 -1       834    8    0    1
 -2       348       495       496      2287      2291      2289
 -1       835    8    0    1
 -2       350       349       497      1854      2292      2293
 -1       836    8    0    1
 -2       349       496       497      2290      2294      2292
 -1       837    8    0    1
 -2       351       350       498      1857      2295      2296
 -1       838    8    0    1
 -2       350       497       498      2293      2297      2295
 -1       839    8    0    1
 -2       352       351       499      1860      2298      2299
 -1       840    8    0    1
 -2       351       498       499      2296      2300      2298
 -1       841    8    0    1
 -2       353       352       500      1863      2301      2302
 -1       842    8    0    1
 -2       352       499       500      2299      2303      2301
 -1       843    8    0    1
 -2       354       353       501      1866      2304      2305
 -1       844    8    0    1
 -2       353       500       501      2302      2306      2304
 -1       845    8    0    1
 -2       355       354       502      1869      2307      2308
 -1       846    8    0    1
 -2       354       501       502      2305      2309      2307
 -1       847    8    0    1
 -2       356       355       503      1872      2310      2311
 -1       848    8    0    1
 -2       355       502       503      2308      2312      2310
 -1       849    8    0    1
 -2       357       356       504      1875      2313      2314
 -1       850    8    0    1
 -2       356       503       504      2311      2315      2313
 -1       851    8    0    1
 -2       358       357       505      1878      2316      2317
 -1       852    8    0    1
 -2       357       504       505      2314      2318      2316
 -1       853    8    0    1
 -2       359       358       506      1881      2319      2320
 -1       854    8    0    1
 -2       358       505       506      2317      2321      2319
 -1       855    8    0    1
 -2       360       359       507      1884      2322      2323
 -1       856    8    0    1
 -2       359       506       507      2320      2324      2322
 -1       857    8    0    1
 -2       361       360       508      1887      2325      2326
 -1       858    8    0    1
 -2       360       507       508      2323      2327      2325
 -1       859    8    0    1
 -2       362       361       509      1890      2328      2329
 -1       860    8    0    1
 -2       361       508       509      2326      2330      2328
 -1       861    8    0    1
 -2       363       362       510      1893      2331      2332
 -1       862    8    0    1
 -2       362       509       510      2329      2333      2331
 -1       863    8    0    1
 -2       364       363       511      1896      2334      2335
 -1       864    8    0    1
 -2       363       510       511      2332      2336      2334
 -1       865    8    0    1
 -2       365       364       512      1899      2337      2338
 -1       866    8    0    1
 -2       364       511       512      2335      2339      2337
 -1       867    8    0    1
 -2       366       365       513      1902      2340      2341
 -1       868    8    0    1
 -2       365       512       513      2338      2342      2340
 -1       869    8    0    1
 -2       367       366       514      1905      2343      2344
 -1       870    8    0    1
 -2       366       513       514      2341      2345      2343
 -1       871    8    0    1
 -2       368       367       515      1908      2346      2347
 -1       872    8    0    1
 -2       367       514       515      2344      2348      2346
 -1       873    8    0    1
 -2       369       368       516      1911      2349      2350
 -1       874    8    0    1
 -2       368       515       516      2347      2351      2349
 -1       875    8    0    1
 -2       370       369       517      1914      2352      2353
 -1       876    8    0    1
 -2       369       516       517      2350      2354      2352
 -1       877    8    0    1
 -2       371       370       518      1917      2355      2356
 -1       878    8    0    1
 -2       370       517       518      2353      2357      2355
 -1       879    8    0    1
 -2       372       371       519      1920      2358      2359
 -1       880    8    0    1
 -2       371       518       519      2356      2360      2358
 -1       881    8    0    1
 -2       373       372       520      1923      2361      2362
 -1       882    8    0    1
 -2       372       519       520      2359      2363      2361
 -1       883    8    0    1
 -2       374       373       521      1926      2364      2365
 -1       884    8    0    1
 -2       373       520       521      2362      2366      2364
 -1       885    8    0    1
 -2       375       374       522      1929      2367      2368
 -1       886    8    0    1
 -2       374       521       522      2365      2369      2367
 -1       887    8    0    1
 -2       376       375       523      1932      2370      2371
 -1       888    8    0    1
 -2       375       522       523      2368      2372      2370
 -1       889    8    0    1
 -2       377       376       524      1935      2373      2374
 -1       890    8    0    1
 -2       376       523       524      2371      2375      2373
 -1       891    8    0    1
 -2       378       377       525      1938      2376      2377
 -1       892    8    0    1
 -2       377       524       525      2374      2378      2376
 -1       893    8    0    1
 -2       379       378       526      1941      2379      2380
 -1       894    8    0    1
 -2       378       525       526      2377      2381      2379
 -1       895    8    0    1
 -2       442       440       527      2130      2382      2383
 -1       896    8    0    1
 -2       383       384       528      1957      2384      2385
 -1       897    8    0    1
 -2       384       385       529      1960      2386      2387
 -1       898    8    0    1
 -2       384       529       528      2387      2388      2384
 -1       899    8    0    1
 -2       385       386       530      1963      2389      2390
 -1       900    8    0    1
 -2       385       530       529      2390      2391      2386
 -1       901    8    0    1
 -2       386       387       531      1966      2392      2393
 -1       902    8    0    1
 -2       386       531       530      2393      2394      2389
 -1       903    8    0    1
 -2       387       388       532      1969      2395      2396
 -1       904    8    0    1
 -2       387       532       531      2396      2397      2392
 -1       905    8    0    1
 -2       388       389       533      1972      2398      2399
 -1       906    8    0    1
 -2       388       533       532      2399      2400      2395
 -1       907    8    0    1
 -2       389       390       534      1975      2401      2402
 -1       908    8    0    1
 -2       389       534       533      2402      2403      2398
 -1       909    8    0    1
 -2       390       391       535      1978      2404      2405
 -1       910    8    0    1
 -2       390       535       534      2405      2406      2401
 -1       911    8    0    1
 -2       391       392       536      1981      2407      2408
 -1       912    8    0    1
 -2       391       536       535      2408      2409      2404
 -1       913    8    0    1
 -2       392       393       537      1984      2410      2411
 -1       914    8    0    1
 -2       392       537       536      2411      2412      2407
 -1       915    8    0    1
 -2       393       394       538      1987      2413      2414
 -1       916    8    0    1
 -2       393       538       537      2414      2415      2410
 -1       917    8    0    1
 -2       394       395       539      1990      2416      2417
 -1       918    8    0    1
 -2       394       539       538      2417      2418      2413
 -1       919    8    0    1
 -2       395       396       540      1993      2419      2420
 -1       920    8    0    1
 -2       395       540       539      2420      2421      2416
 -1       921    8    0    1
 -2       396       397       541      1996      2422      2423
 -1       922    8    0    1
 -2       396       541       540      2423      2424      2419
 -1       923    8    0    1
 -2       397       398       542      1999      2425      2426
 -1       924    8    0    1
 -2       397       542       541      2426      2427      2422
 -1       925    8    0    1
 -2       398       399       543      2002      2428      2429
 -1       926    8    0    1
 -2       398       543       542      2429      2430      2425
 -1       927    8    0    1
 -2       399       400       544      2005      2431      2432
 -1       928    8    0    1
 -2       399       544       543      2432      2433      2428
 -1       929    8    0    1
 -2       400       401       545      2008      2434      2435
 -1       930    8    0    1
 -2       400       545       544      2435      2436      2431
 -1       931    8    0    1
 -2       401       402       546      2011      2437      2438
 -1       932    8    0    1
 -2       401       546       545      2438      2439      2434
 -1       933    8    0    1
 -2       402       403       547      2014      2440      2441
 -1       934    8    0    1
 -2       402       547       546      2441      2442      2437
 -1       935    8    0    1
 -2       403       404       548      2017      2443      2444
 -1       936    8    0    1
 -2       403       548       547      2444      2445      2440
 -1       937    8    0    1
 -2       404       405       549      2020      2446      2447
 -1       938    8    0    1
 -2       404       549       548      2447      2448      2443
 -1       939    8    0    1
 -2       405       406       550      2023      2449      2450
 -1       940    8    0    1
 -2       405       550       549      2450      2451      2446
 -1       941    8    0    1
 -2       406       407       551      2026      2452      2453
 -1       942    8    0    1
 -2       406       551       550      2453      2454      2449
 -1       943    8    0    1
 -2       407       408       552      2029      2455      2456
 -1       944    8    0    1
 -2       407       552       551      2456      2457      2452
 -1       945    8    0    1
 -2       408       409       553      2032      2458      2459
 -1       946    8    0    1
 -2       408       553       552      2459      2460      2455
 -1       947    8    0    1
 -2       409       410       554      2035      2461      2462
 -1       948    8    0    1
 -2       409       554       553      2462      2463      2458
 -1       949    8    0    1
 -2       410       411       555      2038      2464      2465
 -1       950    8    0    1
 -2       410       555       554      2465      2466      2461
 -1       951    8    0    1
 -2       411       412       556      2041      2467      2468
 -1       952    8    0    1
 -2       411       556       555      2468      2469      2464
 -1       953    8    0    1
 -2       412       413       557      2044      2470      2471
 -1       954    8    0    1
 -2       412       557       556      2471      2472      2467
 -1       955    8    0    1
 -2       413       414       558      2047      2473      2474
 -1       956    8    0    1
 -2       413       558       557      2474      2475      2470
 -1       957    8    0    1
 -2       414       415       559      2050      2476      2477
 -1       958    8    0    1
 -2       414       559       558      2477      2478      2473
 -1       959    8    0    1
 -2       415       416       560      2053      2479      2480
 -1       960    8    0    1
 -2       415       560       559      2480      2481      2476
 -1       961    8    0    1
 -2       416       417       561      2056      2482      2483
 -1       962    8    0    1
 -2       416       561       560      2483      2484      2479
 -1       963    8    0    1
 -2       417       418       562      2059      2485      2486
 -1       964    8    0    1
 -2       417       562       561      2486      2487      2482
 -1       965    8    0    1
 -2       418       419       563      2062      2488      2489
 -1       966    8    0    1
 -2       418       563       562      2489      2490      2485
 -1       967    8    0    1
 -2       419       420       564      2065      2491      2492
 -1       968    8    0    1
 -2       419       564       563      2492      2493      2488
 -1       969    8    0    1
 -2       420       421       565      2068      2494      2495
 -1       970    8    0    1
 -2       420       565       564      2495      2496      2491
 -1       971    8    0    1
 -2       421       422       566      2071      2497      2498
 -1       972    8    0    1
 -2       421       566       565      2498      2499      2494
 -1       973    8    0    1
 -2       422       423       567      2074      2500      2501
 -1       974    8    0    1
 -2       422       567       566      2501      2502      2497
 -1       975    8    0    1
 -2       423       424       568      2077      2503      2504
 -1       976    8    0    1
 -2       423       568       567      2504      2505      2500
 -1       977    8    0    1
 -2       424       425       569      2080      2506      2507
 -1       978    8    0    1
 -2       424       569       568      2507      2508      2503
 -1       979    8    0    1
 -2       425       426       429      2083      2092      2509
 -1       980    8    0    1
 -2       430       431       570      2099      2510      2511
 -1       981    8    0    1
 -2       431       432       571      2102      2512      2513
 -1       982    8    0    1
 -2       431       571       570      2513      2514      2510
 -1       983    8    0    1
 -2       428       427       572      2089      2515      2516
 -1       984    8    0    1
 -2       427       430       573      2096      2517      2518
 -1       985    8    0    1
 -2       572       427       573      2515      2518      2519
 -1       986    8    0    1
 -2       430       570       573      2511      2520      2517
 -1       987    8    0    1
 -2       432       433       574      2105      2521      2522
 -1       988    8    0    1
 -2       432       574       571      2522      2523      2512
 -1       989    8    0    1
 -2       433       434       575      2108      2524      2525
 -1       990    8    0    1
 -2       433       575       574      2525      2526      2521
 -1       991    8    0    1
 -2       434       435       576      2111      2527      2528
 -1       992    8    0    1
 -2       434       576       575      2528      2529      2524
 -1       993    8    0    1
 -2       435       436       577      2114      2530      2531
 -1       994    8    0    1
 -2       435       577       576      2531      2532      2527
 -1       995    8    0    1
 -2       436       437       578      2117      2533      2534
 -1       996    8    0    1
 -2       436       578       577      2534      2535      2530
 -1       997    8    0    1
 -2       437       438       579      2120      2536      2537
 -1       998    8    0    1
 -2       437       579       578      2537      2538      2533
 -1       999    8    0    1
 -2       438       439       580      2123      2539      2540
 -1      1000    8    0    1
 -2       438       580       579      2540      2541      2536
 -1      1001    8    0    1
 -2       439       290       380      2197      1944      2542
 -1      1002    8    0    1
 -2       468       441       581      2198      2543      2544
 -1      1003    8    0    1
 -2       382       383       582      1954      2545      2546
 -1      1004    8    0    1
 -2       383       528       582      2385      2547      2545
 -1      1005    8    0    1
 -2       440       443       583      2196      2548      2549
 -1      1006    8    0    1
 -2       466       467       584      2200      2550      2551
 -1      1007    8    0    1
 -2       443       444       585      2199      2552      2553
 -1      1008    8    0    1
 -2       463       464       586      2201      2554      2555
 -1      1009    8    0    1
 -2       450       451       587      2213      2556      2557
 -1      1010    8    0    1
 -2       324       325       588      1777      2558      2559
 -1      1011    8    0    1
 -2       473       324       588      2224      2559      2560
 -1      1012    8    0    1
 -2       325       475       588      2230      2561      2558
 -1      1013    8    0    1
 -2       447       448       589      2217      2562      2563
 -1      1014    8    0    1
 -2       453       454       590      2218      2564      2565
 -1      1015    8    0    1
 -2       446       447       591      2216      2566      2567
 -1      1016    8    0    1
 -2       447       589       591      2563      2568      2566
 -1      1017    8    0    1
 -2       448       449       592      2215      2569      2570
 -1      1018    8    0    1
 -2       449       450       593      2214      2571      2572
 -1      1019    8    0    1
 -2       451       452       594      2153      2573      2574
 -1      1020    8    0    1
 -2       452       453       595      2212      2575      2576
 -1      1021    8    0    1
 -2       454       455       596      2211      2577      2578
 -1      1022    8    0    1
 -2       454       596       590      2578      2579      2564
 -1      1023    8    0    1
 -2       455       456       597      2210      2580      2581
 -1      1024    8    0    1
 -2       456       457       598      2209      2582      2583
 -1      1025    8    0    1
 -2       457       458       599      2208      2584      2585
 -1      1026    8    0    1
 -2       458       459       600      2207      2586      2587
 -1      1027    8    0    1
 -2       459       460       601      2206      2588      2589
 -1      1028    8    0    1
 -2       460       461       602      2205      2590      2591
 -1      1029    8    0    1
 -2       462       463       603      2176      2592      2593
 -1      1030    8    0    1
 -2       463       586       603      2555      2594      2592
 -1      1031    8    0    1
 -2       465       466       604      2183      2595      2596
 -1      1032    8    0    1
 -2       441       442       605      2195      2597      2598
 -1      1033    8    0    1
 -2       467       468       606      2188      2599      2600
 -1      1034    8    0    1
 -2       468       581       606      2544      2601      2599
 -1      1035    8    0    1
 -2       335       321       607      2194      2602      2603
 -1      1036    8    0    1
 -2       482       335       607      2249      2603      2604
 -1      1037    8    0    1
 -2       321       320       607      1766      2605      2602
 -1      1038    8    0    1
 -2       333       334       608      1806      2606      2607
 -1      1039    8    0    1
 -2       332       333       608      1801      2607      2608
 -1      1040    8    0    1
 -2       334       472       608      2223      2609      2606
 -1      1041    8    0    1
 -2       444       469       609      2191      2610      2611
 -1      1042    8    0    1
 -2       448       592       589      2570      2612      2562
 -1      1043    8    0    1
 -2       322       474       610      2227      2613      2614
 -1      1044    8    0    1
 -2       322       610       445      2614      2615      2138
 -1      1045    8    0    1
 -2       481       382       582      2246      2546      2616
 -1      1046    8    0    1
 -2       331       332       608      1798      2608      2617
 -1      1047    8    0    1
 -2       609       469       483      2610      2252      2618
 -1      1048    8    0    1
 -2       605       442       527      2597      2383      2619
 -1      1049    8    0    1
 -2       602       461       611      2590      2620      2621
 -1      1050    8    0    1
 -2       461       470       611      2203      2622      2620
 -1      1051    8    0    1
 -2       601       460       602      2588      2591      2623
 -1      1052    8    0    1
 -2       527       440       583      2382      2549      2624
 -1      1053    8    0    1
 -2       425       429       569      2509      2625      2506
 -1      1054    8    0    1
 -2       584       467       606      2550      2600      2626
 -1      1055    8    0    1
 -2       429       428       569      2093      2627      2625
 -1      1056    8    0    1
 -2       600       459       601      2586      2589      2628
 -1      1057    8    0    1
 -2       439       380       612      2542      2629      2630
 -1      1058    8    0    1
 -2       580       439       612      2539      2630      2631
 -1      1059    8    0    1
 -2       380       379       612      1945      2632      2629
 -1      1060    8    0    1
 -2       599       458       600      2584      2587      2633
 -1      1061    8    0    1
 -2       598       457       599      2582      2585      2634
 -1      1062    8    0    1
 -2       581       441       613      2543      2635      2636
 -1      1063    8    0    1
 -2       441       605       613      2598      2637      2635
 -1      1064    8    0    1
 -2       331       608       480      2617      2638      2243
 -1      1065    8    0    1
 -2       583       443       585      2548      2553      2639
 -1      1066    8    0    1
 -2       596       455       597      2577      2581      2640
 -1      1067    8    0    1
 -2       466       584       604      2551      2641      2595
 -1      1068    8    0    1
 -2       595       453       614      2575      2642      2643
 -1      1069    8    0    1
 -2       453       590       614      2565      2644      2642
 -1      1070    8    0    1
 -2       465       604       471      2596      2645      2221
 -1      1071    8    0    1
 -2       594       452       595      2573      2576      2646
 -1      1072    8    0    1
 -2       450       587       593      2557      2647      2571
 -1      1073    8    0    1
 -2       470       462       615      2204      2648      2649
 -1      1074    8    0    1
 -2       462       603       615      2593      2650      2648
 -1      1075    8    0    1
 -2       587       451       594      2556      2574      2651
 -1      1076    8    0    1
 -2       586       464       616      2554      2652      2653
 -1      1077    8    0    1
 -2       464       471       616      2220      2654      2652
 -1      1078    8    0    1
 -2       585       444       609      2552      2611      2655
 -1      1079    8    0    1
 -2       483       446       591      2251      2567      2656
 -1      1080    8    0    1
 -2       320       445       617      2137      2657      2658
 -1      1081    8    0    1
 -2       607       320       617      2605      2658      2659
 -1      1082    8    0    1
 -2       445       610       617      2615      2660      2657
 -1      1083    8    0    1
 -2       592       449       593      2569      2572      2661
 -1      1084    8    0    1
 -2       597       456       598      2580      2583      2662
 -1      1085    8    0    1
 -2       569       428       572      2627      2516      2663
 -1      1086    8    0    1
 -2       612       379       526      2632      2380      2664
 -1      1087    8    0    1
 -2       476       477       618      2236      2665      2666
 -1      1088    8    0    1
 -2       475       476       619      2233      2667      2668
 -1      1089    8    0    1
 -2       476       618       619      2666      2669      2667
 -1      1090    8    0    1
 -2       478       479       620      2242      2670      2671
 -1      1091    8    0    1
 -2       479       480       621      2245      2672      2673
 -1      1092    8    0    1
 -2       479       621       620      2673      2674      2670
 -1      1093    8    0    1
 -2       472       481       622      2248      2675      2676
 -1      1094    8    0    1
 -2       583       585       623      2639      2677      2678
 -1      1095    8    0    1
 -2       603       586       624      2594      2679      2680
 -1      1096    8    0    1
 -2       481       582       625      2616      2681      2682
 -1      1097    8    0    1
 -2       481       625       622      2682      2683      2675
 -1      1098    8    0    1
 -2       608       472       480      2609      2684      2638
 -1      1099    8    0    1
 -2       605       527       626      2619      2685      2686
 -1      1100    8    0    1
 -2       482       607       627      2604      2687      2688
 -1      1101    8    0    1
 -2       607       617       627      2659      2689      2687
 -1      1102    8    0    1
 -2       485       484       628      2258      2690      2691
 -1      1103    8    0    1
 -2       486       485       629      2261      2692      2693
 -1      1104    8    0    1
 -2       485       628       629      2691      2694      2692
 -1      1105    8    0    1
 -2       487       486       630      2264      2695      2696
 -1      1106    8    0    1
 -2       486       629       630      2693      2697      2695
 -1      1107    8    0    1
 -2       488       487       631      2267      2698      2699
 -1      1108    8    0    1
 -2       487       630       631      2696      2700      2698
 -1      1109    8    0    1
 -2       489       488       632      2270      2701      2702
 -1      1110    8    0    1
 -2       488       631       632      2699      2703      2701
 -1      1111    8    0    1
 -2       490       489       633      2273      2704      2705
 -1      1112    8    0    1
 -2       489       632       633      2702      2706      2704
 -1      1113    8    0    1
 -2       491       490       634      2276      2707      2708
 -1      1114    8    0    1
 -2       490       633       634      2705      2709      2707
 -1      1115    8    0    1
 -2       492       491       635      2279      2710      2711
 -1      1116    8    0    1
 -2       491       634       635      2708      2712      2710
 -1      1117    8    0    1
 -2       493       492       636      2282      2713      2714
 -1      1118    8    0    1
 -2       492       635       636      2711      2715      2713
 -1      1119    8    0    1
 -2       494       493       637      2285      2716      2717
 -1      1120    8    0    1
 -2       493       636       637      2714      2718      2716
 -1      1121    8    0    1
 -2       495       494       638      2288      2719      2720
 -1      1122    8    0    1
 -2       494       637       638      2717      2721      2719
 -1      1123    8    0    1
 -2       496       495       639      2291      2722      2723
 -1      1124    8    0    1
 -2       495       638       639      2720      2724      2722
 -1      1125    8    0    1
 -2       497       496       640      2294      2725      2726
 -1      1126    8    0    1
 -2       496       639       640      2723      2727      2725
 -1      1127    8    0    1
 -2       498       497       641      2297      2728      2729
 -1      1128    8    0    1
 -2       497       640       641      2726      2730      2728
 -1      1129    8    0    1
 -2       499       498       642      2300      2731      2732
 -1      1130    8    0    1
 -2       498       641       642      2729      2733      2731
 -1      1131    8    0    1
 -2       500       499       643      2303      2734      2735
 -1      1132    8    0    1
 -2       499       642       643      2732      2736      2734
 -1      1133    8    0    1
 -2       502       501       615      2309      2737      2738
 -1      1134    8    0    1
 -2       503       502       624      2312      2739      2740
 -1      1135    8    0    1
 -2       504       503       644      2315      2741      2742
 -1      1136    8    0    1
 -2       503       624       644      2740      2743      2741
 -1      1137    8    0    1
 -2       505       504       645      2318      2744      2745
 -1      1138    8    0    1
 -2       504       644       645      2742      2746      2744
 -1      1139    8    0    1
 -2       506       505       646      2321      2747      2748
 -1      1140    8    0    1
 -2       505       645       646      2745      2749      2747
 -1      1141    8    0    1
 -2       507       506       647      2324      2750      2751
 -1      1142    8    0    1
 -2       506       646       647      2748      2752      2750
 -1      1143    8    0    1
 -2       508       507       648      2327      2753      2754
 -1      1144    8    0    1
 -2       507       647       648      2751      2755      2753
 -1      1145    8    0    1
 -2       509       508       649      2330      2756      2757
 -1      1146    8    0    1
 -2       508       648       649      2754      2758      2756
 -1      1147    8    0    1
 -2       510       509       650      2333      2759      2760
 -1      1148    8    0    1
 -2       509       649       650      2757      2761      2759
 -1      1149    8    0    1
 -2       511       510       651      2336      2762      2763
 -1      1150    8    0    1
 -2       510       650       651      2760      2764      2762
 -1      1151    8    0    1
 -2       512       511       652      2339      2765      2766
 -1      1152    8    0    1
 -2       511       651       652      2763      2767      2765
 -1      1153    8    0    1
 -2       513       512       653      2342      2768      2769
 -1      1154    8    0    1
 -2       512       652       653      2766      2770      2768
 -1      1155    8    0    1
 -2       514       513       654      2345      2771      2772
 -1      1156    8    0    1
 -2       513       653       654      2769      2773      2771
 -1      1157    8    0    1
 -2       515       514       655      2348      2774      2775
 -1      1158    8    0    1
 -2       514       654       655      2772      2776      2774
 -1      1159    8    0    1
 -2       516       515       656      2351      2777      2778
 -1      1160    8    0    1
 -2       515       655       656      2775      2779      2777
 -1      1161    8    0    1
 -2       517       516       657      2354      2780      2781
 -1      1162    8    0    1
 -2       516       656       657      2778      2782      2780
 -1      1163    8    0    1
 -2       518       517       658      2357      2783      2784
 -1      1164    8    0    1
 -2       517       657       658      2781      2785      2783
 -1      1165    8    0    1
 -2       519       518       659      2360      2786      2787
 -1      1166    8    0    1
 -2       518       658       659      2784      2788      2786
 -1      1167    8    0    1
 -2       520       519       660      2363      2789      2790
 -1      1168    8    0    1
 -2       519       659       660      2787      2791      2789
 -1      1169    8    0    1
 -2       521       520       661      2366      2792      2793
 -1      1170    8    0    1
 -2       520       660       661      2790      2794      2792
 -1      1171    8    0    1
 -2       522       521       662      2369      2795      2796
 -1      1172    8    0    1
 -2       521       661       662      2793      2797      2795
 -1      1173    8    0    1
 -2       523       522       663      2372      2798      2799
 -1      1174    8    0    1
 -2       522       662       663      2796      2800      2798
 -1      1175    8    0    1
 -2       524       523       664      2375      2801      2802
 -1      1176    8    0    1
 -2       523       663       664      2799      2803      2801
 -1      1177    8    0    1
 -2       525       524       665      2378      2804      2805
 -1      1178    8    0    1
 -2       524       664       665      2802      2806      2804
 -1      1179    8    0    1
 -2       526       525       666      2381      2807      2808
 -1      1180    8    0    1
 -2       525       665       666      2805      2809      2807
 -1      1181    8    0    1
 -2       599       600       667      2633      2810      2811
 -1      1182    8    0    1
 -2       600       601       668      2628      2812      2813
 -1      1183    8    0    1
 -2       528       529       669      2388      2814      2815
 -1      1184    8    0    1
 -2       531       532       670      2397      2816      2817
 -1      1185    8    0    1
 -2       532       533       671      2400      2818      2819
 -1      1186    8    0    1
 -2       532       671       670      2819      2820      2816
 -1      1187    8    0    1
 -2       533       534       672      2403      2821      2822
 -1      1188    8    0    1
 -2       533       672       671      2822      2823      2818
 -1      1189    8    0    1
 -2       534       535       673      2406      2824      2825
 -1      1190    8    0    1
 -2       534       673       672      2825      2826      2821
 -1      1191    8    0    1
 -2       535       536       674      2409      2827      2828
 -1      1192    8    0    1
 -2       535       674       673      2828      2829      2824
 -1      1193    8    0    1
 -2       536       537       675      2412      2830      2831
 -1      1194    8    0    1
 -2       536       675       674      2831      2832      2827
 -1      1195    8    0    1
 -2       537       538       676      2415      2833      2834
 -1      1196    8    0    1
 -2       537       676       675      2834      2835      2830
 -1      1197    8    0    1
 -2       538       539       677      2418      2836      2837
 -1      1198    8    0    1
 -2       538       677       676      2837      2838      2833
 -1      1199    8    0    1
 -2       539       540       678      2421      2839      2840
 -1      1200    8    0    1
 -2       539       678       677      2840      2841      2836
 -1      1201    8    0    1
 -2       540       541       679      2424      2842      2843
 -1      1202    8    0    1
 -2       540       679       678      2843      2844      2839
 -1      1203    8    0    1
 -2       541       542       680      2427      2845      2846
 -1      1204    8    0    1
 -2       541       680       679      2846      2847      2842
 -1      1205    8    0    1
 -2       542       543       681      2430      2848      2849
 -1      1206    8    0    1
 -2       542       681       680      2849      2850      2845
 -1      1207    8    0    1
 -2       543       544       682      2433      2851      2852
 -1      1208    8    0    1
 -2       543       682       681      2852      2853      2848
 -1      1209    8    0    1
 -2       544       545       683      2436      2854      2855
 -1      1210    8    0    1
 -2       544       683       682      2855      2856      2851
 -1      1211    8    0    1
 -2       545       546       684      2439      2857      2858
 -1      1212    8    0    1
 -2       545       684       683      2858      2859      2854
 -1      1213    8    0    1
 -2       546       547       685      2442      2860      2861
 -1      1214    8    0    1
 -2       546       685       684      2861      2862      2857
 -1      1215    8    0    1
 -2       547       548       686      2445      2863      2864
 -1      1216    8    0    1
 -2       547       686       685      2864      2865      2860
 -1      1217    8    0    1
 -2       548       549       687      2448      2866      2867
 -1      1218    8    0    1
 -2       548       687       686      2867      2868      2863
 -1      1219    8    0    1
 -2       549       550       688      2451      2869      2870
 -1      1220    8    0    1
 -2       549       688       687      2870      2871      2866
 -1      1221    8    0    1
 -2       550       551       689      2454      2872      2873
 -1      1222    8    0    1
 -2       550       689       688      2873      2874      2869
 -1      1223    8    0    1
 -2       551       552       690      2457      2875      2876
 -1      1224    8    0    1
 -2       551       690       689      2876      2877      2872
 -1      1225    8    0    1
 -2       552       553       691      2460      2878      2879
 -1      1226    8    0    1
 -2       552       691       690      2879      2880      2875
 -1      1227    8    0    1
 -2       553       554       692      2463      2881      2882
 -1      1228    8    0    1
 -2       553       692       691      2882      2883      2878
 -1      1229    8    0    1
 -2       554       555       693      2466      2884      2885
 -1      1230    8    0    1
 -2       554       693       692      2885      2886      2881
 -1      1231    8    0    1
 -2       555       556       694      2469      2887      2888
 -1      1232    8    0    1
 -2       555       694       693      2888      2889      2884
 -1      1233    8    0    1
 -2       556       557       695      2472      2890      2891
 -1      1234    8    0    1
 -2       556       695       694      2891      2892      2887
 -1      1235    8    0    1
 -2       557       558       696      2475      2893      2894
 -1      1236    8    0    1
 -2       557       696       695      2894      2895      2890
 -1      1237    8    0    1
 -2       558       559       697      2478      2896      2897
 -1      1238    8    0    1
 -2       558       697       696      2897      2898      2893
 -1      1239    8    0    1
 -2       559       560       698      2481      2899      2900
 -1      1240    8    0    1
 -2       559       698       697      2900      2901      2896
 -1      1241    8    0    1
 -2       560       561       699      2484      2902      2903
 -1      1242    8    0    1
 -2       560       699       698      2903      2904      2899
 -1      1243    8    0    1
 -2       561       562       700      2487      2905      2906
 -1      1244    8    0    1
 -2       561       700       699      2906      2907      2902
 -1      1245    8    0    1
 -2       562       563       701      2490      2908      2909
 -1      1246    8    0    1
 -2       562       701       700      2909      2910      2905
 -1      1247    8    0    1
 -2       563       564       702      2493      2911      2912
 -1      1248    8    0    1
 -2       563       702       701      2912      2913      2908
 -1      1249    8    0    1
 -2       564       565       703      2496      2914      2915
 -1      1250    8    0    1
 -2       564       703       702      2915      2916      2911
 -1      1251    8    0    1
 -2       565       566       704      2499      2917      2918
 -1      1252    8    0    1
 -2       565       704       703      2918      2919      2914
 -1      1253    8    0    1
 -2       566       567       705      2502      2920      2921
 -1      1254    8    0    1
 -2       566       705       704      2921      2922      2917
 -1      1255    8    0    1
 -2       567       568       706      2505      2923      2924
 -1      1256    8    0    1
 -2       567       706       705      2924      2925      2920
 -1      1257    8    0    1
 -2       568       569       707      2508      2926      2927
 -1      1258    8    0    1
 -2       706       568       707      2923      2927      2928
 -1      1259    8    0    1
 -2       569       572       707      2663      2929      2926
 -1      1260    8    0    1
 -2       584       606       708      2626      2930      2931
 -1      1261    8    0    1
 -2       574       575       709      2526      2932      2933
 -1      1262    8    0    1
 -2       612       526       710      2664      2934      2935
 -1      1263    8    0    1
 -2       580       612       710      2631      2935      2936
 -1      1264    8    0    1
 -2       526       666       710      2808      2937      2934
 -1      1265    8    0    1
 -2       570       571       711      2514      2938      2939
 -1      1266    8    0    1
 -2       575       576       712      2529      2940      2941
 -1      1267    8    0    1
 -2       575       712       709      2941      2942      2932
 -1      1268    8    0    1
 -2       571       574       713      2523      2943      2944
 -1      1269    8    0    1
 -2       711       571       713      2938      2944      2945
 -1      1270    8    0    1
 -2       574       709       713      2933      2946      2943
 -1      1271    8    0    1
 -2       576       577       714      2532      2947      2948
 -1      1272    8    0    1
 -2       576       714       712      2948      2949      2940
 -1      1273    8    0    1
 -2       577       578       715      2535      2950      2951
 -1      1274    8    0    1
 -2       577       715       714      2951      2952      2947
 -1      1275    8    0    1
 -2       578       579       716      2538      2953      2954
 -1      1276    8    0    1
 -2       578       716       715      2954      2955      2950
 -1      1277    8    0    1
 -2       582       528       717      2547      2956      2957
 -1      1278    8    0    1
 -2       625       582       717      2681      2957      2958
 -1      1279    8    0    1
 -2       528       669       717      2815      2959      2956
 -1      1280    8    0    1
 -2       596       597       718      2640      2960      2961
 -1      1281    8    0    1
 -2       606       581       719      2601      2962      2963
 -1      1282    8    0    1
 -2       601       602       720      2623      2964      2965
 -1      1283    8    0    1
 -2       591       589       721      2568      2966      2967
 -1      1284    8    0    1
 -2       530       531       722      2394      2968      2969
 -1      1285    8    0    1
 -2       531       670       722      2817      2970      2968
 -1      1286    8    0    1
 -2       529       530       723      2391      2971      2972
 -1      1287    8    0    1
 -2       530       722       723      2969      2973      2971
 -1      1288    8    0    1
 -2       484       482       724      2255      2974      2975
 -1      1289    8    0    1
 -2       628       484       724      2690      2975      2976
 -1      1290    8    0    1
 -2       482       627       724      2688      2977      2974
 -1      1291    8    0    1
 -2       477       478       725      2239      2978      2979
 -1      1292    8    0    1
 -2       618       477       725      2665      2979      2980
 -1      1293    8    0    1
 -2       478       620       725      2671      2981      2978
 -1      1294    8    0    1
 -2       604       584       726      2641      2982      2983
 -1      1295    8    0    1
 -2       609       483       727      2618      2984      2985
 -1      1296    8    0    1
 -2       474       473       728      2228      2986      2987
 -1      1297    8    0    1
 -2       592       593       729      2661      2988      2989
 -1      1298    8    0    1
 -2       471       604       730      2645      2990      2991
 -1      1299    8    0    1
 -2       597       598       731      2662      2992      2993
 -1      1300    8    0    1
 -2       593       587       732      2647      2994      2995
 -1      1301    8    0    1
 -2       594       595       733      2646      2996      2997
 -1      1302    8    0    1
 -2       585       609       734      2655      2998      2999
 -1      1303    8    0    1
 -2       590       596       735      2579      3000      3001
 -1      1304    8    0    1
 -2       598       599       736      2634      3002      3003
 -1      1305    8    0    1
 -2       527       583       737      2624      3004      3005
 -1      1306    8    0    1
 -2       587       594       738      2651      3006      3007
 -1      1307    8    0    1
 -2       483       591       739      2656      3008      3009
 -1      1308    8    0    1
 -2       589       592       740      2612      3010      3011
 -1      1309    8    0    1
 -2       610       474       741      2613      3012      3013
 -1      1310    8    0    1
 -2       474       728       741      2987      3014      3012
 -1      1311    8    0    1
 -2       475       619       742      2668      3015      3016
 -1      1312    8    0    1
 -2       475       742       588      3016      3017      2561
 -1      1313    8    0    1
 -2       480       472       622      2684      2676      3018
 -1      1314    8    0    1
 -2       583       623       737      2678      3019      3004
 -1      1315    8    0    1
 -2       603       624       615      2680      3020      2650
 -1      1316    8    0    1
 -2       740       592       743      3010      3021      3022
 -1      1317    8    0    1
 -2       592       729       743      2989      3023      3021
 -1      1318    8    0    1
 -2       739       591       721      3008      2967      3024
 -1      1319    8    0    1
 -2       738       594       733      3006      2997      3025
 -1      1320    8    0    1
 -2       611       470       615      2622      2649      3026
 -1      1321    8    0    1
 -2       626       527       737      2685      3005      3027
 -1      1322    8    0    1
 -2       604       726       730      2983      3028      2990
 -1      1323    8    0    1
 -2       736       599       744      3002      3029      3030
 -1      1324    8    0    1
 -2       599       667       744      2811      3031      3029
 -1      1325    8    0    1
 -2       501       500       745      2306      3032      3033
 -1      1326    8    0    1
 -2       570       711       746      2939      3034      3035
 -1      1327    8    0    1
 -2       570       746       573      3035      3036      2520
 -1      1328    8    0    1
 -2       667       600       668      2810      2813      3037
 -1      1329    8    0    1
 -2       735       596       718      3000      2961      3038
 -1      1330    8    0    1
 -2       529       723       669      2972      3039      2814
 -1      1331    8    0    1
 -2       708       606       719      2930      2963      3040
 -1      1332    8    0    1
 -2       734       609       727      2998      2985      3041
 -1      1333    8    0    1
 -2       572       573       747      2519      3042      3043
 -1      1334    8    0    1
 -2       707       572       747      2929      3043      3044
 -1      1335    8    0    1
 -2       573       746       747      3036      3045      3042
 -1      1336    8    0    1
 -2       720       602       745      2964      3046      3047
 -1      1337    8    0    1
 -2       733       595       614      2996      2643      3048
 -1      1338    8    0    1
 -2       732       587       738      2994      3007      3049
 -1      1339    8    0    1
 -2       726       584       708      2982      2931      3050
 -1      1340    8    0    1
 -2       579       580       748      2541      3051      3052
 -1      1341    8    0    1
 -2       731       598       736      2992      3003      3053
 -1      1342    8    0    1
 -2       719       581       749      2962      3054      3055
 -1      1343    8    0    1
 -2       581       613       749      2636      3056      3054
 -1      1344    8    0    1
 -2       729       593       732      2988      2995      3057
 -1      1345    8    0    1
 -2       613       605       626      2637      2686      3058
 -1      1346    8    0    1
 -2       721       589       740      2966      3011      3059
 -1      1347    8    0    1
 -2       614       590       750      2644      3060      3061
 -1      1348    8    0    1
 -2       590       735       750      3001      3062      3060
 -1      1349    8    0    1
 -2       601       720       668      2965      3063      2812
 -1      1350    8    0    1
 -2       480       622       621      3018      3064      2672
 -1      1351    8    0    1
 -2       616       471       730      2654      2991      3065
 -1      1352    8    0    1
 -2       624       502       615      2739      2738      3020
 -1      1353    8    0    1
 -2       473       588       751      2560      3066      3067
 -1      1354    8    0    1
 -2       728       473       751      2986      3067      3068
 -1      1355    8    0    1
 -2       588       742       751      3017      3069      3066
 -1      1356    8    0    1
 -2       727       483       739      2984      3009      3070
 -1      1357    8    0    1
 -2       718       597       731      2960      2993      3071
 -1      1358    8    0    1
 -2       623       585       734      2677      2999      3072
 -1      1359    8    0    1
 -2       586       616       624      2653      3073      2679
 -1      1360    8    0    1
 -2       579       748       716      3052      3074      2953
 -1      1361    8    0    1
 -2       602       611       745      2621      3075      3046
 -1      1362    8    0    1
 -2       737       623       752      3019      3076      3077
 -1      1363    8    0    1
 -2       620       621       753      2674      3078      3079
 -1      1364    8    0    1
 -2       745       500       643      3032      2735      3080
 -1      1365    8    0    1
 -2       630       629       754      2697      3081      3082
 -1      1366    8    0    1
 -2       631       630       755      2700      3083      3084
 -1      1367    8    0    1
 -2       630       754       755      3082      3085      3083
 -1      1368    8    0    1
 -2       632       631       756      2703      3086      3087
 -1      1369    8    0    1
 -2       631       755       756      3084      3088      3086
 -1      1370    8    0    1
 -2       633       632       757      2706      3089      3090
 -1      1371    8    0    1
 -2       632       756       757      3087      3091      3089
 -1      1372    8    0    1
 -2       634       633       758      2709      3092      3093
 -1      1373    8    0    1
 -2       633       757       758      3090      3094      3092
 -1      1374    8    0    1
 -2       635       634       759      2712      3095      3096
 -1      1375    8    0    1
 -2       634       758       759      3093      3097      3095
 -1      1376    8    0    1
 -2       636       635       760      2715      3098      3099
 -1      1377    8    0    1
 -2       635       759       760      3096      3100      3098
 -1      1378    8    0    1
 -2       637       636       761      2718      3101      3102
 -1      1379    8    0    1
 -2       636       760       761      3099      3103      3101
 -1      1380    8    0    1
 -2       638       637       762      2721      3104      3105
 -1      1381    8    0    1
 -2       637       761       762      3102      3106      3104
 -1      1382    8    0    1
 -2       639       638       763      2724      3107      3108
 -1      1383    8    0    1
 -2       638       762       763      3105      3109      3107
 -1      1384    8    0    1
 -2       640       639       764      2727      3110      3111
 -1      1385    8    0    1
 -2       639       763       764      3108      3112      3110
 -1      1386    8    0    1
 -2       642       641       765      2733      3113      3114
 -1      1387    8    0    1
 -2       501       745       615      3033      3115      2737
 -1      1388    8    0    1
 -2       646       645       766      2749      3116      3117
 -1      1389    8    0    1
 -2       647       646       767      2752      3118      3119
 -1      1390    8    0    1
 -2       646       766       767      3117      3120      3118
 -1      1391    8    0    1
 -2       648       647       768      2755      3121      3122
 -1      1392    8    0    1
 -2       647       767       768      3119      3123      3121
 -1      1393    8    0    1
 -2       649       648       769      2758      3124      3125
 -1      1394    8    0    1
 -2       648       768       769      3122      3126      3124
 -1      1395    8    0    1
 -2       650       649       770      2761      3127      3128
 -1      1396    8    0    1
 -2       649       769       770      3125      3129      3127
 -1      1397    8    0    1
 -2       651       650       771      2764      3130      3131
 -1      1398    8    0    1
 -2       650       770       771      3128      3132      3130
 -1      1399    8    0    1
 -2       652       651       772      2767      3133      3134
 -1      1400    8    0    1
 -2       651       771       772      3131      3135      3133
 -1      1401    8    0    1
 -2       653       652       773      2770      3136      3137
 -1      1402    8    0    1
 -2       652       772       773      3134      3138      3136
 -1      1403    8    0    1
 -2       654       653       774      2773      3139      3140
 -1      1404    8    0    1
 -2       653       773       774      3137      3141      3139
 -1      1405    8    0    1
 -2       655       654       775      2776      3142      3143
 -1      1406    8    0    1
 -2       654       774       775      3140      3144      3142
 -1      1407    8    0    1
 -2       656       655       776      2779      3145      3146
 -1      1408    8    0    1
 -2       655       775       776      3143      3147      3145
 -1      1409    8    0    1
 -2       657       656       777      2782      3148      3149
 -1      1410    8    0    1
 -2       656       776       777      3146      3150      3148
 -1      1411    8    0    1
 -2       658       657       778      2785      3151      3152
 -1      1412    8    0    1
 -2       657       777       778      3149      3153      3151
 -1      1413    8    0    1
 -2       659       658       779      2788      3154      3155
 -1      1414    8    0    1
 -2       658       778       779      3152      3156      3154
 -1      1415    8    0    1
 -2       660       659       780      2791      3157      3158
 -1      1416    8    0    1
 -2       659       779       780      3155      3159      3157
 -1      1417    8    0    1
 -2       661       660       781      2794      3160      3161
 -1      1418    8    0    1
 -2       660       780       781      3158      3162      3160
 -1      1419    8    0    1
 -2       662       661       782      2797      3163      3164
 -1      1420    8    0    1
 -2       661       781       782      3161      3165      3163
 -1      1421    8    0    1
 -2       663       662       783      2800      3166      3167
 -1      1422    8    0    1
 -2       662       782       783      3164      3168      3166
 -1      1423    8    0    1
 -2       664       663       784      2803      3169      3170
 -1      1424    8    0    1
 -2       663       783       784      3167      3171      3169
 -1      1425    8    0    1
 -2       665       664       785      2806      3172      3173
 -1      1426    8    0    1
 -2       664       784       785      3170      3174      3172
 -1      1427    8    0    1
 -2       735       718       786      3038      3175      3176
 -1      1428    8    0    1
 -2       669       723       787      3039      3177      3178
 -1      1429    8    0    1
 -2       670       671       788      2820      3179      3180
 -1      1430    8    0    1
 -2       673       674       789      2829      3181      3182
 -1      1431    8    0    1
 -2       674       675       790      2832      3183      3184
 -1      1432    8    0    1
 -2       674       790       789      3184      3185      3181
 -1      1433    8    0    1
 -2       675       676       791      2835      3186      3187
 -1      1434    8    0    1
 -2       675       791       790      3187      3188      3183
 -1      1435    8    0    1
 -2       676       677       792      2838      3189      3190
 -1      1436    8    0    1
 -2       676       792       791      3190      3191      3186
 -1      1437    8    0    1
 -2       677       678       793      2841      3192      3193
 -1      1438    8    0    1
 -2       677       793       792      3193      3194      3189
 -1      1439    8    0    1
 -2       678       679       794      2844      3195      3196
 -1      1440    8    0    1
 -2       678       794       793      3196      3197      3192
 -1      1441    8    0    1
 -2       679       680       795      2847      3198      3199
 -1      1442    8    0    1
 -2       679       795       794      3199      3200      3195
 -1      1443    8    0    1
 -2       680       681       743      2850      3201      3202
 -1      1444    8    0    1
 -2       681       682       743      2853      3203      3201
 -1      1445    8    0    1
 -2       682       683       721      2856      3204      3205
 -1      1446    8    0    1
 -2       684       685       796      2862      3206      3207
 -1      1447    8    0    1
 -2       685       686       797      2865      3208      3209
 -1      1448    8    0    1
 -2       685       797       796      3209      3210      3206
 -1      1449    8    0    1
 -2       686       687       798      2868      3211      3212
 -1      1450    8    0    1
 -2       686       798       797      3212      3213      3208
 -1      1451    8    0    1
 -2       687       688       799      2871      3214      3215
 -1      1452    8    0    1
 -2       687       799       798      3215      3216      3211
 -1      1453    8    0    1
 -2       688       689       800      2874      3217      3218
 -1      1454    8    0    1
 -2       688       800       799      3218      3219      3214
 -1      1455    8    0    1
 -2       689       690       801      2877      3220      3221
 -1      1456    8    0    1
 -2       689       801       800      3221      3222      3217
 -1      1457    8    0    1
 -2       690       691       802      2880      3223      3224
 -1      1458    8    0    1
 -2       690       802       801      3224      3225      3220
 -1      1459    8    0    1
 -2       691       692       803      2883      3226      3227
 -1      1460    8    0    1
 -2       691       803       802      3227      3228      3223
 -1      1461    8    0    1
 -2       692       693       804      2886      3229      3230
 -1      1462    8    0    1
 -2       692       804       803      3230      3231      3226
 -1      1463    8    0    1
 -2       693       694       805      2889      3232      3233
 -1      1464    8    0    1
 -2       693       805       804      3233      3234      3229
 -1      1465    8    0    1
 -2       694       695       806      2892      3235      3236
 -1      1466    8    0    1
 -2       694       806       805      3236      3237      3232
 -1      1467    8    0    1
 -2       695       696       807      2895      3238      3239
 -1      1468    8    0    1
 -2       695       807       806      3239      3240      3235
 -1      1469    8    0    1
 -2       696       697       808      2898      3241      3242
 -1      1470    8    0    1
 -2       696       808       807      3242      3243      3238
 -1      1471    8    0    1
 -2       697       698       809      2901      3244      3245
 -1      1472    8    0    1
 -2       697       809       808      3245      3246      3241
 -1      1473    8    0    1
 -2       698       699       810      2904      3247      3248
 -1      1474    8    0    1
 -2       698       810       809      3248      3249      3244
 -1      1475    8    0    1
 -2       699       700       811      2907      3250      3251
 -1      1476    8    0    1
 -2       699       811       810      3251      3252      3247
 -1      1477    8    0    1
 -2       700       701       812      2910      3253      3254
 -1      1478    8    0    1
 -2       700       812       811      3254      3255      3250
 -1      1479    8    0    1
 -2       701       702       813      2913      3256      3257
 -1      1480    8    0    1
 -2       701       813       812      3257      3258      3253
 -1      1481    8    0    1
 -2       702       703       814      2916      3259      3260
 -1      1482    8    0    1
 -2       702       814       813      3260      3261      3256
 -1      1483    8    0    1
 -2       703       704       815      2919      3262      3263
 -1      1484    8    0    1
 -2       703       815       814      3263      3264      3259
 -1      1485    8    0    1
 -2       704       705       816      2922      3265      3266
 -1      1486    8    0    1
 -2       704       816       815      3266      3267      3262
 -1      1487    8    0    1
 -2       705       706       817      2925      3268      3269
 -1      1488    8    0    1
 -2       705       817       816      3269      3270      3265
 -1      1489    8    0    1
 -2       706       707       818      2928      3271      3272
 -1      1490    8    0    1
 -2       817       706       818      3268      3272      3273
 -1      1491    8    0    1
 -2       707       747       818      3044      3274      3271
 -1      1492    8    0    1
 -2       712       714       819      2949      3275      3276
 -1      1493    8    0    1
 -2       714       715       820      2952      3277      3278
 -1      1494    8    0    1
 -2       714       820       819      3278      3279      3275
 -1      1495    8    0    1
 -2       709       712       821      2942      3280      3281
 -1      1496    8    0    1
 -2       712       819       821      3276      3282      3280
 -1      1497    8    0    1
 -2       733       614       822      3048      3283      3284
 -1      1498    8    0    1
 -2       731       736       823      3053      3285      3286
 -1      1499    8    0    1
 -2       722       670       824      2970      3287      3288
 -1      1500    8    0    1
 -2       670       788       824      3180      3289      3287
 -1      1501    8    0    1
 -2       672       673       825      2826      3290      3291
 -1      1502    8    0    1
 -2       673       789       825      3182      3292      3290
 -1      1503    8    0    1
 -2       671       672       826      2823      3293      3294
 -1      1504    8    0    1
 -2       788       671       826      3179      3294      3295
 -1      1505    8    0    1
 -2       672       825       826      3291      3296      3293
 -1      1506    8    0    1
 -2       734       727       827      3041      3297      3298
 -1      1507    8    0    1
 -2       708       719       828      3040      3299      3300
 -1      1508    8    0    1
 -2       621       622       829      3064      3301      3302
 -1      1509    8    0    1
 -2       753       621       829      3078      3302      3303
 -1      1510    8    0    1
 -2       622       625       829      2683      3304      3301
 -1      1511    8    0    1
 -2       644       624       616      2743      3073      3305
 -1      1512    8    0    1
 -2       738       733       830      3025      3306      3307
 -1      1513    8    0    1
 -2       626       737       831      3027      3308      3309
 -1      1514    8    0    1
 -2       629       628       832      2694      3310      3311
 -1      1515    8    0    1
 -2       629       832       754      3311      3312      3081
 -1      1516    8    0    1
 -2       667       668       765      3037      3313      3314
 -1      1517    8    0    1
 -2       723       722       833      2973      3315      3316
 -1      1518    8    0    1
 -2       722       824       833      3288      3317      3315
 -1      1519    8    0    1
 -2       617       610       834      2660      3318      3319
 -1      1520    8    0    1
 -2       627       617       834      2689      3319      3320
 -1      1521    8    0    1
 -2       610       741       834      3013      3321      3318
 -1      1522    8    0    1
 -2       727       739       835      3070      3322      3323
 -1      1523    8    0    1
 -2       623       734       836      3072      3324      3325
 -1      1524    8    0    1
 -2       613       626       837      3058      3326      3327
 -1      1525    8    0    1
 -2       616       730       644      3065      3328      3305
 -1      1526    8    0    1
 -2       729       732       838      3057      3329      3330
 -1      1527    8    0    1
 -2       730       726       766      3028      3331      3332
 -1      1528    8    0    1
 -2       715       716       839      2955      3333      3334
 -1      1529    8    0    1
 -2       715       839       820      3334      3335      3277
 -1      1530    8    0    1
 -2       726       708       840      3050      3336      3337
 -1      1531    8    0    1
 -2       718       731       841      3071      3338      3339
 -1      1532    8    0    1
 -2       718       841       786      3339      3340      3175
 -1      1533    8    0    1
 -2       732       738       842      3049      3341      3342
 -1      1534    8    0    1
 -2       619       618       843      2669      3343      3344
 -1      1535    8    0    1
 -2       721       683       844      3204      3345      3346
 -1      1536    8    0    1
 -2       739       721       844      3024      3346      3347
 -1      1537    8    0    1
 -2       683       684       844      2859      3348      3345
 -1      1538    8    0    1
 -2       644       730       645      3328      3349      2746
 -1      1539    8    0    1
 -2       645       730       766      3349      3332      3116
 -1      1540    8    0    1
 -2       742       619       845      3015      3350      3351
 -1      1541    8    0    1
 -2       619       843       845      3344      3352      3350
 -1      1542    8    0    1
 -2       741       728       846      3014      3353      3354
 -1      1543    8    0    1
 -2       620       753       847      3079      3355      3356
 -1      1544    8    0    1
 -2       620       847       725      3356      3357      2981
 -1      1545    8    0    1
 -2       743       729       838      3023      3330      3358
 -1      1546    8    0    1
 -2       835       739       844      3322      3347      3359
 -1      1547    8    0    1
 -2       746       711       848      3034      3360      3361
 -1      1548    8    0    1
 -2       618       725       849      2980      3362      3363
 -1      1549    8    0    1
 -2       843       618       849      3343      3363      3364
 -1      1550    8    0    1
 -2       725       847       849      3357      3365      3362
 -1      1551    8    0    1
 -2       744       667       765      3031      3314      3366
 -1      1552    8    0    1
 -2       728       751       850      3068      3367      3368
 -1      1553    8    0    1
 -2       728       850       846      3368      3369      3353
 -1      1554    8    0    1
 -2       640       764       744      3111      3370      3371
 -1      1555    8    0    1
 -2       642       765       668      3114      3313      3372
 -1      1556    8    0    1
 -2       641       640       744      2730      3371      3373
 -1      1557    8    0    1
 -2       643       642       668      2736      3372      3374
 -1      1558    8    0    1
 -2       735       786       851      3176      3375      3376
 -1      1559    8    0    1
 -2       735       851       750      3376      3377      3062
 -1      1560    8    0    1
 -2       732       842       838      3342      3378      3329
 -1      1561    8    0    1
 -2       666       665       852      2809      3379      3380
 -1      1562    8    0    1
 -2       669       787       853      3178      3381      3382
 -1      1563    8    0    1
 -2       669       853       717      3382      3383      2959
 -1      1564    8    0    1
 -2       734       827       836      3298      3384      3324
 -1      1565    8    0    1
 -2       682       721       740      3205      3059      3385
 -1      1566    8    0    1
 -2       684       796       844      3207      3386      3348
 -1      1567    8    0    1
 -2       709       821       854      3281      3387      3388
 -1      1568    8    0    1
 -2       709       854       713      3388      3389      2946
 -1      1569    8    0    1
 -2       726       840       766      3337      3390      3331
 -1      1570    8    0    1
 -2       737       752       831      3077      3391      3308
 -1      1571    8    0    1
 -2       711       713       855      2945      3392      3393
 -1      1572    8    0    1
 -2       848       711       855      3360      3393      3394
 -1      1573    8    0    1
 -2       713       854       855      3389      3395      3392
 -1      1574    8    0    1
 -2       580       710       748      2936      3396      3051
 -1      1575    8    0    1
 -2       822       614       750      3283      3061      3397
 -1      1576    8    0    1
 -2       748       710       666      3396      2937      3398
 -1      1577    8    0    1
 -2       748       666       852      3398      3380      3399
 -1      1578    8    0    1
 -2       643       668       720      3374      3063      3400
 -1      1579    8    0    1
 -2       852       665       785      3379      3173      3401
 -1      1580    8    0    1
 -2       731       823       841      3286      3402      3338
 -1      1581    8    0    1
 -2       625       717       856      2958      3403      3404
 -1      1582    8    0    1
 -2       829       625       856      3304      3404      3405
 -1      1583    8    0    1
 -2       717       853       856      3383      3406      3403
 -1      1584    8    0    1
 -2       627       834       857      3320      3407      3408
 -1      1585    8    0    1
 -2       627       857       724      3408      3409      2977
 -1      1586    8    0    1
 -2       749       613       837      3056      3327      3410
 -1      1587    8    0    1
 -2       839       716       852      3333      3411      3412
 -1      1588    8    0    1
 -2       837       626       858      3326      3413      3414
 -1      1589    8    0    1
 -2       626       831       858      3309      3415      3413
 -1      1590    8    0    1
 -2       748       852       716      3399      3411      3074
 -1      1591    8    0    1
 -2       828       719       859      3299      3416      3417
 -1      1592    8    0    1
 -2       719       749       859      3055      3418      3416
 -1      1593    8    0    1
 -2       708       828       840      3300      3419      3336
 -1      1594    8    0    1
 -2       830       733       822      3306      3284      3420
 -1      1595    8    0    1
 -2       628       724       857      2976      3409      3421
 -1      1596    8    0    1
 -2       723       833       787      3316      3422      3177
 -1      1597    8    0    1
 -2       682       740       743      3385      3022      3203
 -1      1598    8    0    1
 -2       827       727       835      3297      3323      3423
 -1      1599    8    0    1
 -2       628       857       832      3421      3424      3310
 -1      1600    8    0    1
 -2       623       836       752      3325      3425      3076
 -1      1601    8    0    1
 -2       738       830       842      3307      3426      3341
 -1      1602    8    0    1
 -2       745       643       720      3080      3400      3047
 -1      1603    8    0    1
 -2       835       844       796      3359      3386      3427
 -1      1604    8    0    1
 -2       756       755       860      3088      3428      3429
 -1      1605    8    0    1
 -2       757       756       861      3091      3430      3431
 -1      1606    8    0    1
 -2       756       860       861      3429      3432      3430
 -1      1607    8    0    1
 -2       758       757       862      3094      3433      3434
 -1      1608    8    0    1
 -2       757       861       862      3431      3435      3433
 -1      1609    8    0    1
 -2       759       758       863      3097      3436      3437
 -1      1610    8    0    1
 -2       758       862       863      3434      3438      3436
 -1      1611    8    0    1
 -2       760       759       864      3100      3439      3440
 -1      1612    8    0    1
 -2       759       863       864      3437      3441      3439
 -1      1613    8    0    1
 -2       761       760       865      3103      3442      3443
 -1      1614    8    0    1
 -2       760       864       865      3440      3444      3442
 -1      1615    8    0    1
 -2       762       761       866      3106      3445      3446
 -1      1616    8    0    1
 -2       761       865       866      3443      3447      3445
 -1      1617    8    0    1
 -2       763       762       867      3109      3448      3449
 -1      1618    8    0    1
 -2       762       866       867      3446      3450      3448
 -1      1619    8    0    1
 -2       764       763       868      3112      3451      3452
 -1      1620    8    0    1
 -2       763       867       868      3449      3453      3451
 -1      1621    8    0    1
 -2       835       796       869      3427      3454      3455
 -1      1622    8    0    1
 -2       827       835       869      3423      3455      3456
 -1      1623    8    0    1
 -2       796       797       869      3210      3457      3454
 -1      1624    8    0    1
 -2       841       823       870      3402      3458      3459
 -1      1625    8    0    1
 -2       768       767       871      3123      3460      3461
 -1      1626    8    0    1
 -2       769       768       872      3126      3462      3463
 -1      1627    8    0    1
 -2       768       871       872      3461      3464      3462
 -1      1628    8    0    1
 -2       770       769       873      3129      3465      3466
 -1      1629    8    0    1
 -2       769       872       873      3463      3467      3465
 -1      1630    8    0    1
 -2       771       770       874      3132      3468      3469
 -1      1631    8    0    1
 -2       770       873       874      3466      3470      3468
 -1      1632    8    0    1
 -2       772       771       875      3135      3471      3472
 -1      1633    8    0    1
 -2       771       874       875      3469      3473      3471
 -1      1634    8    0    1
 -2       773       772       876      3138      3474      3475
 -1      1635    8    0    1
 -2       772       875       876      3472      3476      3474
 -1      1636    8    0    1
 -2       774       773       877      3141      3477      3478
 -1      1637    8    0    1
 -2       773       876       877      3475      3479      3477
 -1      1638    8    0    1
 -2       775       774       878      3144      3480      3481
 -1      1639    8    0    1
 -2       774       877       878      3478      3482      3480
 -1      1640    8    0    1
 -2       776       775       879      3147      3483      3484
 -1      1641    8    0    1
 -2       775       878       879      3481      3485      3483
 -1      1642    8    0    1
 -2       777       776       880      3150      3486      3487
 -1      1643    8    0    1
 -2       776       879       880      3484      3488      3486
 -1      1644    8    0    1
 -2       778       777       881      3153      3489      3490
 -1      1645    8    0    1
 -2       777       880       881      3487      3491      3489
 -1      1646    8    0    1
 -2       779       778       882      3156      3492      3493
 -1      1647    8    0    1
 -2       778       881       882      3490      3494      3492
 -1      1648    8    0    1
 -2       780       779       883      3159      3495      3496
 -1      1649    8    0    1
 -2       779       882       883      3493      3497      3495
 -1      1650    8    0    1
 -2       781       780       884      3162      3498      3499
 -1      1651    8    0    1
 -2       780       883       884      3496      3500      3498
 -1      1652    8    0    1
 -2       782       781       885      3165      3501      3502
 -1      1653    8    0    1
 -2       781       884       885      3499      3503      3501
 -1      1654    8    0    1
 -2       783       782       886      3168      3504      3505
 -1      1655    8    0    1
 -2       782       885       886      3502      3506      3504
 -1      1656    8    0    1
 -2       784       783       887      3171      3507      3508
 -1      1657    8    0    1
 -2       783       886       887      3505      3509      3507
 -1      1658    8    0    1
 -2       785       784       888      3174      3510      3511
 -1      1659    8    0    1
 -2       784       887       888      3508      3512      3510
 -1      1660    8    0    1
 -2       787       833       889      3422      3513      3514
 -1      1661    8    0    1
 -2       789       790       890      3185      3515      3516
 -1      1662    8    0    1
 -2       792       793       891      3194      3517      3518
 -1      1663    8    0    1
 -2       680       743       838      3202      3358      3519
 -1      1664    8    0    1
 -2       795       680       838      3198      3519      3520
 -1      1665    8    0    1
 -2       799       800       892      3219      3521      3522
 -1      1666    8    0    1
 -2       800       801       893      3222      3523      3524
 -1      1667    8    0    1
 -2       800       893       892      3524      3525      3521
 -1      1668    8    0    1
 -2       801       802       894      3225      3526      3527
 -1      1669    8    0    1
 -2       801       894       893      3527      3528      3523
 -1      1670    8    0    1
 -2       802       803       895      3228      3529      3530
 -1      1671    8    0    1
 -2       802       895       894      3530      3531      3526
 -1      1672    8    0    1
 -2       803       804       896      3231      3532      3533
 -1      1673    8    0    1
 -2       803       896       895      3533      3534      3529
 -1      1674    8    0    1
 -2       804       805       897      3234      3535      3536
 -1      1675    8    0    1
 -2       804       897       896      3536      3537      3532
 -1      1676    8    0    1
 -2       805       806       898      3237      3538      3539
 -1      1677    8    0    1
 -2       805       898       897      3539      3540      3535
 -1      1678    8    0    1
 -2       806       807       899      3240      3541      3542
 -1      1679    8    0    1
 -2       806       899       898      3542      3543      3538
 -1      1680    8    0    1
 -2       807       808       900      3243      3544      3545
 -1      1681    8    0    1
 -2       807       900       899      3545      3546      3541
 -1      1682    8    0    1
 -2       808       809       901      3246      3547      3548
 -1      1683    8    0    1
 -2       808       901       900      3548      3549      3544
 -1      1684    8    0    1
 -2       809       810       902      3249      3550      3551
 -1      1685    8    0    1
 -2       809       902       901      3551      3552      3547
 -1      1686    8    0    1
 -2       810       811       903      3252      3553      3554
 -1      1687    8    0    1
 -2       810       903       902      3554      3555      3550
 -1      1688    8    0    1
 -2       811       812       904      3255      3556      3557
 -1      1689    8    0    1
 -2       811       904       903      3557      3558      3553
 -1      1690    8    0    1
 -2       812       813       905      3258      3559      3560
 -1      1691    8    0    1
 -2       812       905       904      3560      3561      3556
 -1      1692    8    0    1
 -2       813       814       906      3261      3562      3563
 -1      1693    8    0    1
 -2       813       906       905      3563      3564      3559
 -1      1694    8    0    1
 -2       814       815       907      3264      3565      3566
 -1      1695    8    0    1
 -2       814       907       906      3566      3567      3562
 -1      1696    8    0    1
 -2       815       816       908      3267      3568      3569
 -1      1697    8    0    1
 -2       815       908       907      3569      3570      3565
 -1      1698    8    0    1
 -2       816       817       909      3270      3571      3572
 -1      1699    8    0    1
 -2       816       909       908      3572      3573      3568
 -1      1700    8    0    1
 -2       747       746       910      3045      3574      3575
 -1      1701    8    0    1
 -2       818       747       910      3274      3575      3576
 -1      1702    8    0    1
 -2       746       848       910      3361      3577      3574
 -1      1703    8    0    1
 -2       819       820       911      3279      3578      3579
 -1      1704    8    0    1
 -2       821       819       912      3282      3580      3581
 -1      1705    8    0    1
 -2       819       911       912      3579      3582      3580
 -1      1706    8    0    1
 -2       766       840       767      3390      3583      3120
 -1      1707    8    0    1
 -2       822       750       913      3397      3584      3585
 -1      1708    8    0    1
 -2       836       827       914      3384      3586      3587
 -1      1709    8    0    1
 -2       827       869       914      3456      3588      3586
 -1      1710    8    0    1
 -2       736       744       915      3030      3589      3590
 -1      1711    8    0    1
 -2       831       752       916      3391      3591      3592
 -1      1712    8    0    1
 -2       825       789       917      3292      3593      3594
 -1      1713    8    0    1
 -2       789       890       917      3516      3595      3593
 -1      1714    8    0    1
 -2       833       824       918      3317      3596      3597
 -1      1715    8    0    1
 -2       833       918       889      3597      3598      3513
 -1      1716    8    0    1
 -2       857       834       741      3407      3321      3599
 -1      1717    8    0    1
 -2       753       829       919      3303      3600      3601
 -1      1718    8    0    1
 -2       829       856       919      3405      3602      3600
 -1      1719    8    0    1
 -2       752       836       920      3425      3603      3604
 -1      1720    8    0    1
 -2       836       914       920      3587      3605      3603
 -1      1721    8    0    1
 -2       754       832       921      3312      3606      3607
 -1      1722    8    0    1
 -2       824       788       922      3289      3608      3609
 -1      1723    8    0    1
 -2       824       922       918      3609      3610      3596
 -1      1724    8    0    1
 -2       823       736       915      3285      3590      3611
 -1      1725    8    0    1
 -2       749       837       923      3410      3612      3613
 -1      1726    8    0    1
 -2       791       792       924      3191      3614      3615
 -1      1727    8    0    1
 -2       792       891       924      3518      3616      3614
 -1      1728    8    0    1
 -2       790       791       925      3188      3617      3618
 -1      1729    8    0    1
 -2       890       790       925      3515      3618      3619
 -1      1730    8    0    1
 -2       791       924       925      3615      3620      3617
 -1      1731    8    0    1
 -2       839       852       785      3412      3401      3621
 -1      1732    8    0    1
 -2       751       742       926      3069      3622      3623
 -1      1733    8    0    1
 -2       751       926       850      3623      3624      3367
 -1      1734    8    0    1
 -2       755       754       927      3085      3625      3626
 -1      1735    8    0    1
 -2       755       927       860      3626      3627      3428
 -1      1736    8    0    1
 -2       840       828       928      3419      3628      3629
 -1      1737    8    0    1
 -2       820       839       929      3335      3630      3631
 -1      1738    8    0    1
 -2       820       929       911      3631      3632      3578
 -1      1739    8    0    1
 -2       830       822       930      3420      3633      3634
 -1      1740    8    0    1
 -2       786       841       931      3340      3635      3636
 -1      1741    8    0    1
 -2       741       846       857      3354      3637      3599
 -1      1742    8    0    1
 -2       842       830       932      3426      3638      3639
 -1      1743    8    0    1
 -2       832       857       846      3424      3637      3640
 -1      1744    8    0    1
 -2       823       915       933      3611      3641      3642
 -1      1745    8    0    1
 -2       823       933       870      3642      3643      3458
 -1      1746    8    0    1
 -2       832       846       934      3640      3644      3645
 -1      1747    8    0    1
 -2       921       832       934      3606      3645      3646
 -1      1748    8    0    1
 -2       846       850       934      3369      3647      3644
 -1      1749    8    0    1
 -2       843       849       935      3364      3648      3649
 -1      1750    8    0    1
 -2       843       935       936      3649      3650      3651
 -1      1751    8    0    1
 -2       843       936       845      3651      3652      3352
 -1      1752    8    0    1
 -2       795       838       842      3520      3378      3653
 -1      1753    8    0    1
 -2       750       851       913      3377      3654      3584
 -1      1754    8    0    1
 -2       749       923       937      3613      3655      3656
 -1      1755    8    0    1
 -2       749       937       859      3656      3657      3418
 -1      1756    8    0    1
 -2       869       797       938      3457      3658      3659
 -1      1757    8    0    1
 -2       914       869       938      3588      3659      3660
 -1      1758    8    0    1
 -2       797       798       938      3213      3661      3658
 -1      1759    8    0    1
 -2       765       641       744      3113      3373      3366
 -1      1760    8    0    1
 -2       615       745       611      3115      3075      3026
 -1      1761    8    0    1
 -2       851       786       939      3375      3662      3663
 -1      1762    8    0    1
 -2       786       931       939      3636      3664      3662
 -1      1763    8    0    1
 -2       853       787       940      3381      3665      3666
 -1      1764    8    0    1
 -2       787       889       940      3514      3667      3665
 -1      1765    8    0    1
 -2       742       845       926      3351      3668      3622
 -1      1766    8    0    1
 -2       842       932       794      3639      3669      3670
 -1      1767    8    0    1
 -2       788       826       941      3295      3671      3672
 -1      1768    8    0    1
 -2       788       941       922      3672      3673      3608
 -1      1769    8    0    1
 -2       793       794       932      3197      3669      3674
 -1      1770    8    0    1
 -2       794       795       842      3200      3653      3670
 -1      1771    8    0    1
 -2       854       821       942      3387      3675      3676
 -1      1772    8    0    1
 -2       821       912       942      3581      3677      3675
 -1      1773    8    0    1
 -2       847       753       919      3355      3601      3678
 -1      1774    8    0    1
 -2       841       870       931      3459      3679      3635
 -1      1775    8    0    1
 -2       910       848       909      3577      3680      3681
 -1      1776    8    0    1
 -2       817       818       910      3273      3576      3682
 -1      1777    8    0    1
 -2       830       930       932      3634      3683      3638
 -1      1778    8    0    1
 -2       752       920       916      3604      3684      3591
 -1      1779    8    0    1
 -2       754       921       927      3607      3685      3625
 -1      1780    8    0    1
 -2       858       831       943      3415      3686      3687
 -1      1781    8    0    1
 -2       831       916       943      3592      3688      3686
 -1      1782    8    0    1
 -2       837       858       944      3414      3689      3690
 -1      1783    8    0    1
 -2       837       944       923      3690      3691      3612
 -1      1784    8    0    1
 -2       825       917       945      3594      3692      3693
 -1      1785    8    0    1
 -2       825       945       826      3693      3694      3296
 -1      1786    8    0    1
 -2       793       932       891      3674      3695      3517
 -1      1787    8    0    1
 -2       839       785       888      3621      3511      3696
 -1      1788    8    0    1
 -2       798       799       946      3216      3697      3698
 -1      1789    8    0    1
 -2       822       913       930      3585      3699      3633
 -1      1790    8    0    1
 -2       928       828       947      3628      3700      3701
 -1      1791    8    0    1
 -2       828       859       947      3417      3702      3700
 -1      1792    8    0    1
 -2       839       888       929      3696      3703      3630
 -1      1793    8    0    1
 -2       848       855       948      3394      3704      3705
 -1      1794    8    0    1
 -2       848       948       909      3705      3706      3680
 -1      1795    8    0    1
 -2       764       868       933      3452      3707      3708
 -1      1796    8    0    1
 -2       938       798       946      3661      3698      3709
 -1      1797    8    0    1
 -2       817       910       909      3682      3681      3571
 -1      1798    8    0    1
 -2       946       799       892      3697      3522      3710
 -1      1799    8    0    1
 -2       849       847       949      3365      3711      3712
 -1      1800    8    0    1
 -2       849       949       935      3712      3713      3648
 -1      1801    8    0    1
 -2       840       928       871      3629      3714      3715
 -1      1802    8    0    1
 -2       860       927       950      3627      3716      3717
 -1      1803    8    0    1
 -2       744       764       915      3370      3718      3589
 -1      1804    8    0    1
 -2       862       861       951      3435      3719      3720
 -1      1805    8    0    1
 -2       863       862       952      3438      3721      3722
 -1      1806    8    0    1
 -2       862       951       952      3720      3723      3721
 -1      1807    8    0    1
 -2       864       863       953      3441      3724      3725
 -1      1808    8    0    1
 -2       863       952       953      3722      3726      3724
 -1      1809    8    0    1
 -2       865       864       954      3444      3727      3728
 -1      1810    8    0    1
 -2       864       953       954      3725      3729      3727
 -1      1811    8    0    1
 -2       866       865       955      3447      3730      3731
 -1      1812    8    0    1
 -2       865       954       955      3728      3732      3730
 -1      1813    8    0    1
 -2       867       866       956      3450      3733      3734
 -1      1814    8    0    1
 -2       866       955       956      3731      3735      3733
 -1      1815    8    0    1
 -2       868       867       957      3453      3736      3737
 -1      1816    8    0    1
 -2       867       956       957      3734      3738      3736
 -1      1817    8    0    1
 -2       871       767       840      3460      3583      3715
 -1      1818    8    0    1
 -2       926       845       958      3668      3739      3740
 -1      1819    8    0    1
 -2       845       936       958      3652      3741      3739
 -1      1820    8    0    1
 -2       873       872       959      3467      3742      3743
 -1      1821    8    0    1
 -2       874       873       960      3470      3744      3745
 -1      1822    8    0    1
 -2       873       959       960      3743      3746      3744
 -1      1823    8    0    1
 -2       875       874       961      3473      3747      3748
 -1      1824    8    0    1
 -2       874       960       961      3745      3749      3747
 -1      1825    8    0    1
 -2       876       875       962      3476      3750      3751
 -1      1826    8    0    1
 -2       875       961       962      3748      3752      3750
 -1      1827    8    0    1
 -2       877       876       963      3479      3753      3754
 -1      1828    8    0    1
 -2       876       962       963      3751      3755      3753
 -1      1829    8    0    1
 -2       878       877       964      3482      3756      3757
 -1      1830    8    0    1
 -2       877       963       964      3754      3758      3756
 -1      1831    8    0    1
 -2       879       878       965      3485      3759      3760
 -1      1832    8    0    1
 -2       878       964       965      3757      3761      3759
 -1      1833    8    0    1
 -2       880       879       966      3488      3762      3763
 -1      1834    8    0    1
 -2       879       965       966      3760      3764      3762
 -1      1835    8    0    1
 -2       881       880       967      3491      3765      3766
 -1      1836    8    0    1
 -2       880       966       967      3763      3767      3765
 -1      1837    8    0    1
 -2       882       881       968      3494      3768      3769
 -1      1838    8    0    1
 -2       881       967       968      3766      3770      3768
 -1      1839    8    0    1
 -2       883       882       969      3497      3771      3772
 -1      1840    8    0    1
 -2       882       968       969      3769      3773      3771
 -1      1841    8    0    1
 -2       884       883       970      3500      3774      3775
 -1      1842    8    0    1
 -2       883       969       970      3772      3776      3774
 -1      1843    8    0    1
 -2       885       884       971      3503      3777      3778
 -1      1844    8    0    1
 -2       884       970       971      3775      3779      3777
 -1      1845    8    0    1
 -2       886       885       972      3506      3780      3781
 -1      1846    8    0    1
 -2       885       971       972      3778      3782      3780
 -1      1847    8    0    1
 -2       887       886       973      3509      3783      3784
 -1      1848    8    0    1
 -2       886       972       973      3781      3785      3783
 -1      1849    8    0    1
 -2       888       887       974      3512      3786      3787
 -1      1850    8    0    1
 -2       887       973       974      3784      3788      3786
 -1      1851    8    0    1
 -2       889       918       975      3598      3789      3790
 -1      1852    8    0    1
 -2       894       895       976      3531      3791      3792
 -1      1853    8    0    1
 -2       893       894       977      3528      3793      3794
 -1      1854    8    0    1
 -2       894       976       977      3792      3795      3793
 -1      1855    8    0    1
 -2       764       933       915      3708      3641      3718
 -1      1856    8    0    1
 -2       892       893       978      3525      3796      3797
 -1      1857    8    0    1
 -2       893       977       978      3794      3798      3796
 -1      1858    8    0    1
 -2       895       896       979      3534      3799      3800
 -1      1859    8    0    1
 -2       895       979       976      3800      3801      3791
 -1      1860    8    0    1
 -2       896       897       980      3537      3802      3803
 -1      1861    8    0    1
 -2       896       980       979      3803      3804      3799
 -1      1862    8    0    1
 -2       897       898       981      3540      3805      3806
 -1      1863    8    0    1
 -2       897       981       980      3806      3807      3802
 -1      1864    8    0    1
 -2       898       899       982      3543      3808      3809
 -1      1865    8    0    1
 -2       898       982       981      3809      3810      3805
 -1      1866    8    0    1
 -2       899       900       983      3546      3811      3812
 -1      1867    8    0    1
 -2       899       983       982      3812      3813      3808
 -1      1868    8    0    1
 -2       900       901       984      3549      3814      3815
 -1      1869    8    0    1
 -2       900       984       983      3815      3816      3811
 -1      1870    8    0    1
 -2       901       902       985      3552      3817      3818
 -1      1871    8    0    1
 -2       901       985       984      3818      3819      3814
 -1      1872    8    0    1
 -2       902       903       986      3555      3820      3821
 -1      1873    8    0    1
 -2       902       986       985      3821      3822      3817
 -1      1874    8    0    1
 -2       903       904       987      3558      3823      3824
 -1      1875    8    0    1
 -2       903       987       986      3824      3825      3820
 -1      1876    8    0    1
 -2       904       905       988      3561      3826      3827
 -1      1877    8    0    1
 -2       904       988       987      3827      3828      3823
 -1      1878    8    0    1
 -2       905       906       989      3564      3829      3830
 -1      1879    8    0    1
 -2       905       989       988      3830      3831      3826
 -1      1880    8    0    1
 -2       906       907       990      3567      3832      3833
 -1      1881    8    0    1
 -2       906       990       989      3833      3834      3829
 -1      1882    8    0    1
 -2       907       908       991      3570      3835      3836
 -1      1883    8    0    1
 -2       907       991       990      3836      3837      3832
 -1      1884    8    0    1
 -2       908       909       948      3573      3706      3838
 -1      1885    8    0    1
 -2       855       854       992      3395      3839      3840
 -1      1886    8    0    1
 -2       855       992       948      3840      3841      3704
 -1      1887    8    0    1
 -2       912       911       993      3582      3842      3843
 -1      1888    8    0    1
 -2       847       919       949      3678      3844      3711
 -1      1889    8    0    1
 -2       856       853       994      3406      3845      3846
 -1      1890    8    0    1
 -2       919       856       994      3602      3846      3847
 -1      1891    8    0    1
 -2       853       940       994      3666      3848      3845
 -1      1892    8    0    1
 -2       914       938       946      3660      3709      3849
 -1      1893    8    0    1
 -2       913       851       995      3654      3850      3851
 -1      1894    8    0    1
 -2       920       914       946      3605      3849      3852
 -1      1895    8    0    1
 -2       918       922       996      3610      3853      3854
 -1      1896    8    0    1
 -2       918       996       975      3854      3855      3789
 -1      1897    8    0    1
 -2       931       870       997      3679      3856      3857
 -1      1898    8    0    1
 -2       917       890       998      3595      3858      3859
 -1      1899    8    0    1
 -2       927       921       999      3685      3860      3861
 -1      1900    8    0    1
 -2       927       999       950      3861      3862      3716
 -1      1901    8    0    1
 -2       930       913      1000      3699      3863      3864
 -1      1902    8    0    1
 -2       850       926      1001      3624      3865      3866
 -1      1903    8    0    1
 -2       926       958      1001      3740      3867      3865
 -1      1904    8    0    1
 -2       861       860      1002      3432      3868      3869
 -1      1905    8    0    1
 -2       860       950      1002      3717      3870      3868
 -1      1906    8    0    1
 -2       933       868       957      3707      3737      3871
 -1      1907    8    0    1
 -2       929       888       974      3703      3787      3872
 -1      1908    8    0    1
 -2       871       928      1003      3714      3873      3874
 -1      1909    8    0    1
 -2       928       947      1003      3701      3875      3873
 -1      1910    8    0    1
 -2       908       948       991      3838      3876      3835
 -1      1911    8    0    1
 -2       920       946      1004      3852      3877      3878
 -1      1912    8    0    1
 -2       916       920      1004      3684      3878      3879
 -1      1913    8    0    1
 -2       946       892      1004      3710      3880      3877
 -1      1914    8    0    1
 -2       872       871      1003      3464      3874      3881
 -1      1915    8    0    1
 -2       889       975      1005      3790      3882      3883
 -1      1916    8    0    1
 -2       889      1005       940      3883      3884      3667
 -1      1917    8    0    1
 -2       892       978      1004      3797      3885      3880
 -1      1918    8    0    1
 -2       951       861      1002      3719      3869      3886
 -1      1919    8    0    1
 -2       937       923      1006      3655      3887      3888
 -1      1920    8    0    1
 -2       923       944      1006      3691      3889      3887
 -1      1921    8    0    1
 -2       941       826       945      3671      3694      3890
 -1      1922    8    0    1
 -2       959       872      1003      3742      3881      3891
 -1      1923    8    0    1
 -2       931       997      1007      3857      3892      3893
 -1      1924    8    0    1
 -2       931      1007       939      3893      3894      3664
 -1      1925    8    0    1
 -2       922       941      1008      3673      3895      3896
 -1      1926    8    0    1
 -2       922      1008       996      3896      3897      3853
 -1      1927    8    0    1
 -2       890       925      1009      3619      3898      3899
 -1      1928    8    0    1
 -2       890      1009       998      3899      3900      3858
 -1      1929    8    0    1
 -2       935       949      1010      3713      3901      3902
 -1      1930    8    0    1
 -2       921       934       999      3646      3903      3860
 -1      1931    8    0    1
 -2       916      1004      1011      3879      3904      3905
 -1      1932    8    0    1
 -2       943       916      1011      3688      3905      3906
 -1      1933    8    0    1
 -2      1004       978      1011      3885      3907      3904
 -1      1934    8    0    1
 -2       992       854       942      3839      3676      3908
 -1      1935    8    0    1
 -2       932       930       891      3683      3909      3695
 -1      1936    8    0    1
 -2       949       919       994      3844      3847      3910
 -1      1937    8    0    1
 -2       859       937       947      3657      3911      3702
 -1      1938    8    0    1
 -2       929       974       911      3872      3912      3632
 -1      1939    8    0    1
 -2       944       858       943      3689      3687      3913
 -1      1940    8    0    1
 -2       995       851       939      3850      3663      3914
 -1      1941    8    0    1
 -2       945       917      1012      3692      3915      3916
 -1      1942    8    0    1
 -2       917       998      1012      3859      3917      3915
 -1      1943    8    0    1
 -2       934       850      1001      3647      3866      3918
 -1      1944    8    0    1
 -2       935      1010      1013      3902      3919      3920
 -1      1945    8    0    1
 -2       935      1013       936      3920      3921      3650
 -1      1946    8    0    1
 -2       924       891       930      3616      3909      3922
 -1      1947    8    0    1
 -2       925       924      1014      3620      3923      3924
 -1      1948    8    0    1
 -2       925      1014      1009      3924      3925      3898
 -1      1949    8    0    1
 -2       930      1000      1014      3864      3926      3927
 -1      1950    8    0    1
 -2      1000       913       995      3863      3851      3928
 -1      1951    8    0    1
 -2       911       974       993      3912      3929      3842
 -1      1952    8    0    1
 -2       912       993      1015      3843      3930      3931
 -1      1953    8    0    1
 -2       912      1015       942      3931      3932      3677
 -1      1954    8    0    1
 -2       948       992      1016      3841      3933      3934
 -1      1955    8    0    1
 -2       948      1016       991      3934      3935      3876
 -1      1956    8    0    1
 -2       924       930      1014      3922      3927      3923
 -1      1957    8    0    1
 -2       979       980      1017      3804      3936      3937
 -1      1958    8    0    1
 -2       953       952      1018      3726      3938      3939
 -1      1959    8    0    1
 -2       954       953      1019      3729      3940      3941
 -1      1960    8    0    1
 -2       953      1018      1019      3939      3942      3940
 -1      1961    8    0    1
 -2       955       954      1020      3732      3943      3944
 -1      1962    8    0    1
 -2       954      1019      1020      3941      3945      3943
 -1      1963    8    0    1
 -2       956       955      1021      3735      3946      3947
 -1      1964    8    0    1
 -2       955      1020      1021      3944      3948      3946
 -1      1965    8    0    1
 -2       977       976      1022      3795      3949      3950
 -1      1966    8    0    1
 -2       992       942      1023      3908      3951      3952
 -1      1967    8    0    1
 -2      1016       992      1023      3933      3952      3953
 -1      1968    8    0    1
 -2       942      1015      1023      3932      3954      3951
 -1      1969    8    0    1
 -2       960       959      1024      3746      3955      3956
 -1      1970    8    0    1
 -2       961       960      1025      3749      3957      3958
 -1      1971    8    0    1
 -2       960      1024      1025      3956      3959      3957
 -1      1972    8    0    1
 -2       962       961      1026      3752      3960      3961
 -1      1973    8    0    1
 -2       961      1025      1026      3958      3962      3960
 -1      1974    8    0    1
 -2       963       962      1027      3755      3963      3964
 -1      1975    8    0    1
 -2       962      1026      1027      3961      3965      3963
 -1      1976    8    0    1
 -2       964       963      1028      3758      3966      3967
 -1      1977    8    0    1
 -2       963      1027      1028      3964      3968      3966
 -1      1978    8    0    1
 -2       965       964      1029      3761      3969      3970
 -1      1979    8    0    1
 -2       964      1028      1029      3967      3971      3969
 -1      1980    8    0    1
 -2       966       965      1030      3764      3972      3973
 -1      1981    8    0    1
 -2       965      1029      1030      3970      3974      3972
 -1      1982    8    0    1
 -2       967       966      1031      3767      3975      3976
 -1      1983    8    0    1
 -2       966      1030      1031      3973      3977      3975
 -1      1984    8    0    1
 -2       968       967      1032      3770      3978      3979
 -1      1985    8    0    1
 -2       967      1031      1032      3976      3980      3978
 -1      1986    8    0    1
 -2       969       968      1033      3773      3981      3982
 -1      1987    8    0    1
 -2       968      1032      1033      3979      3983      3981
 -1      1988    8    0    1
 -2       970       969      1034      3776      3984      3985
 -1      1989    8    0    1
 -2       969      1033      1034      3982      3986      3984
 -1      1990    8    0    1
 -2       971       970      1035      3779      3987      3988
 -1      1991    8    0    1
 -2       970      1034      1035      3985      3989      3987
 -1      1992    8    0    1
 -2       972       971      1036      3782      3990      3991
 -1      1993    8    0    1
 -2       971      1035      1036      3988      3992      3990
 -1      1994    8    0    1
 -2       973       972      1037      3785      3993      3994
 -1      1995    8    0    1
 -2       972      1036      1037      3991      3995      3993
 -1      1996    8    0    1
 -2       974       973      1038      3788      3996      3997
 -1      1997    8    0    1
 -2       993       974      1038      3929      3997      3998
 -1      1998    8    0    1
 -2       973      1037      1038      3994      3999      3996
 -1      1999    8    0    1
 -2      1010       949       994      3901      3910      4000
 -1      2000    8    0    1
 -2       999       934      1001      3903      3918      4001
 -1      2001    8    0    1
 -2       976       979      1039      3801      4002      4003
 -1      2002    8    0    1
 -2      1022       976      1039      3949      4003      4004
 -1      2003    8    0    1
 -2       979      1017      1039      3937      4005      4002
 -1      2004    8    0    1
 -2       980       981      1040      3807      4006      4007
 -1      2005    8    0    1
 -2       980      1040      1017      4007      4008      3936
 -1      2006    8    0    1
 -2       981       982      1041      3810      4009      4010
 -1      2007    8    0    1
 -2       981      1041      1040      4010      4011      4006
 -1      2008    8    0    1
 -2       982       983      1042      3813      4012      4013
 -1      2009    8    0    1
 -2       982      1042      1041      4013      4014      4009
 -1      2010    8    0    1
 -2       983       984      1043      3816      4015      4016
 -1      2011    8    0    1
 -2       983      1043      1042      4016      4017      4012
 -1      2012    8    0    1
 -2       984       985      1044      3819      4018      4019
 -1      2013    8    0    1
 -2       984      1044      1043      4019      4020      4015
 -1      2014    8    0    1
 -2       985       986      1045      3822      4021      4022
 -1      2015    8    0    1
 -2       985      1045      1044      4022      4023      4018
 -1      2016    8    0    1
 -2       986       987      1046      3825      4024      4025
 -1      2017    8    0    1
 -2       986      1046      1045      4025      4026      4021
 -1      2018    8    0    1
 -2       987       988      1047      3828      4027      4028
 -1      2019    8    0    1
 -2       987      1047      1046      4028      4029      4024
 -1      2020    8    0    1
 -2       988       989      1048      3831      4030      4031
 -1      2021    8    0    1
 -2       988      1048      1047      4031      4032      4027
 -1      2022    8    0    1
 -2       989       990      1049      3834      4033      4034
 -1      2023    8    0    1
 -2       989      1049      1048      4034      4035      4030
 -1      2024    8    0    1
 -2       990       991      1050      3837      4036      4037
 -1      2025    8    0    1
 -2      1049       990      1050      4033      4037      4038
 -1      2026    8    0    1
 -2       991      1016      1050      3935      4039      4036
 -1      2027    8    0    1
 -2       951      1002      1051      3886      4040      4041
 -1      2028    8    0    1
 -2      1001       958      1052      3867      4042      4043
 -1      2029    8    0    1
 -2      1001      1052       999      4043      4044      4001
 -1      2030    8    0    1
 -2       952       951      1053      3723      4045      4046
 -1      2031    8    0    1
 -2       952      1053      1018      4046      4047      3938
 -1      2032    8    0    1
 -2       941       945      1054      3890      4048      4049
 -1      2033    8    0    1
 -2       941      1054      1008      4049      4050      3895
 -1      2034    8    0    1
 -2      1014      1000      1055      3926      4051      4052
 -1      2035    8    0    1
 -2      1000       995      1056      3928      4053      4054
 -1      2036    8    0    1
 -2      1000      1056      1055      4054      4055      4051
 -1      2037    8    0    1
 -2       950       999      1052      3862      4044      4056
 -1      2038    8    0    1
 -2       995       939      1057      3914      4057      4058
 -1      2039    8    0    1
 -2      1056       995      1057      4053      4058      4059
 -1      2040    8    0    1
 -2       939      1007      1057      3894      4060      4057
 -1      2041    8    0    1
 -2      1002       950      1058      3870      4061      4062
 -1      2042    8    0    1
 -2      1002      1058      1051      4062      4063      4040
 -1      2043    8    0    1
 -2       944       943      1059      3913      4064      4065
 -1      2044    8    0    1
 -2       975       996      1060      3855      4066      4067
 -1      2045    8    0    1
 -2       870       933       957      3643      3871      4068
 -1      2046    8    0    1
 -2       958       936      1061      3741      4069      4070
 -1      2047    8    0    1
 -2       936      1013      1061      3921      4071      4069
 -1      2048    8    0    1
 -2       978       977      1062      3798      4072      4073
 -1      2049    8    0    1
 -2      1011       978      1062      3907      4073      4074
 -1      2050    8    0    1
 -2       977      1022      1062      3950      4075      4072
 -1      2051    8    0    1
 -2      1005       975      1063      3882      4076      4077
 -1      2052    8    0    1
 -2       975      1060      1063      4067      4078      4076
 -1      2053    8    0    1
 -2       958      1061      1052      4070      4079      4042
 -1      2054    8    0    1
 -2      1006       944      1064      3889      4080      4081
 -1      2055    8    0    1
 -2       944      1059      1064      4065      4082      4080
 -1      2056    8    0    1
 -2       956      1021      1007      3947      4083      4084
 -1      2057    8    0    1
 -2      1010       994      1065      4000      4085      4086
 -1      2058    8    0    1
 -2      1014      1055      1009      4052      4087      3925
 -1      2059    8    0    1
 -2      1058       950      1052      4061      4056      4088
 -1      2060    8    0    1
 -2      1053       951      1051      4045      4041      4089
 -1      2061    8    0    1
 -2      1054       945      1012      4048      3916      4090
 -1      2062    8    0    1
 -2       993      1038      1066      3998      4091      4092
 -1      2063    8    0    1
 -2       993      1066      1015      4092      4093      3930
 -1      2064    8    0    1
 -2       994       940      1065      3848      4094      4085
 -1      2065    8    0    1
 -2       943      1011      1067      3906      4095      4096
 -1      2066    8    0    1
 -2      1059       943      1067      4064      4096      4097
 -1      2067    8    0    1
 -2      1011      1062      1067      4074      4098      4095
 -1      2068    8    0    1
 -2       996      1008      1068      3897      4099      4100
 -1      2069    8    0    1
 -2       996      1068      1060      4100      4101      4066
 -1      2070    8    0    1
 -2      1012       998      1069      3917      4102      4103
 -1      2071    8    0    1
 -2      1013      1010      1070      3919      4104      4105
 -1      2072    8    0    1
 -2       998      1009      1071      3900      4106      4107
 -1      2073    8    0    1
 -2       998      1071      1069      4107      4108      4102
 -1      2074    8    0    1
 -2       937      1006      1024      3888      4109      4110
 -1      2075    8    0    1
 -2       997       870       957      3856      4068      4111
 -1      2076    8    0    1
 -2       947       937      1072      3911      4112      4113
 -1      2077    8    0    1
 -2      1010      1065      1070      4086      4114      4104
 -1      2078    8    0    1
 -2       997       957      1007      4111      4115      3892
 -1      2079    8    0    1
 -2      1007       957       956      4115      3738      4084
 -1      2080    8    0    1
 -2      1007      1021      1057      4083      4116      4060
 -1      2081    8    0    1
 -2      1020      1019      1073      3945      4117      4118
 -1      2082    8    0    1
 -2      1021      1020      1074      3948      4119      4120
 -1      2083    8    0    1
 -2      1020      1073      1074      4118      4121      4119
 -1      2084    8    0    1
 -2      1041      1042      1075      4014      4122      4123
 -1      2085    8    0    1
 -2      1025      1024      1076      3959      4124      4125
 -1      2086    8    0    1
 -2      1009      1055      1071      4087      4126      4106
 -1      2087    8    0    1
 -2      1026      1025      1077      3962      4127      4128
 -1      2088    8    0    1
 -2      1025      1076      1077      4125      4129      4127
 -1      2089    8    0    1
 -2      1027      1026      1078      3965      4130      4131
 -1      2090    8    0    1
 -2      1026      1077      1078      4128      4132      4130
 -1      2091    8    0    1
 -2      1028      1027      1079      3968      4133      4134
 -1      2092    8    0    1
 -2      1027      1078      1079      4131      4135      4133
 -1      2093    8    0    1
 -2      1029      1028      1080      3971      4136      4137
 -1      2094    8    0    1
 -2      1028      1079      1080      4134      4138      4136
 -1      2095    8    0    1
 -2      1030      1029      1081      3974      4139      4140
 -1      2096    8    0    1
 -2      1029      1080      1081      4137      4141      4139
 -1      2097    8    0    1
 -2      1031      1030      1082      3977      4142      4143
 -1      2098    8    0    1
 -2      1030      1081      1082      4140      4144      4142
 -1      2099    8    0    1
 -2      1032      1031      1083      3980      4145      4146
 -1      2100    8    0    1
 -2      1031      1082      1083      4143      4147      4145
 -1      2101    8    0    1
 -2      1033      1032      1084      3983      4148      4149
 -1      2102    8    0    1
 -2      1032      1083      1084      4146      4150      4148
 -1      2103    8    0    1
 -2      1034      1033      1085      3986      4151      4152
 -1      2104    8    0    1
 -2      1033      1084      1085      4149      4153      4151
 -1      2105    8    0    1
 -2      1035      1034      1086      3989      4154      4155
 -1      2106    8    0    1
 -2      1034      1085      1086      4152      4156      4154
 -1      2107    8    0    1
 -2      1036      1035      1087      3992      4157      4158
 -1      2108    8    0    1
 -2      1035      1086      1087      4155      4159      4157
 -1      2109    8    0    1
 -2      1037      1036      1088      3995      4160      4161
 -1      2110    8    0    1
 -2      1036      1087      1088      4158      4162      4160
 -1      2111    8    0    1
 -2      1038      1037      1089      3999      4163      4164
 -1      2112    8    0    1
 -2      1066      1038      1089      4091      4164      4165
 -1      2113    8    0    1
 -2      1037      1088      1089      4161      4166      4163
 -1      2114    8    0    1
 -2      1040      1041      1090      4011      4167      4168
 -1      2115    8    0    1
 -2      1041      1075      1090      4123      4169      4167
 -1      2116    8    0    1
 -2      1042      1043      1091      4017      4170      4171
 -1      2117    8    0    1
 -2      1042      1091      1075      4171      4172      4122
 -1      2118    8    0    1
 -2      1043      1044      1092      4020      4173      4174
 -1      2119    8    0    1
 -2      1043      1092      1091      4174      4175      4170
 -1      2120    8    0    1
 -2      1044      1045      1093      4023      4176      4177
 -1      2121    8    0    1
 -2      1044      1093      1092      4177      4178      4173
 -1      2122    8    0    1
 -2      1045      1046      1094      4026      4179      4180
 -1      2123    8    0    1
 -2      1045      1094      1093      4180      4181      4176
 -1      2124    8    0    1
 -2      1046      1047      1095      4029      4182      4183
 -1      2125    8    0    1
 -2      1046      1095      1094      4183      4184      4179
 -1      2126    8    0    1
 -2      1047      1048      1096      4032      4185      4186
 -1      2127    8    0    1
 -2      1047      1096      1095      4186      4187      4182
 -1      2128    8    0    1
 -2      1048      1049      1097      4035      4188      4189
 -1      2129    8    0    1
 -2      1048      1097      1096      4189      4190      4185
 -1      2130    8    0    1
 -2      1051      1058      1098      4063      4191      4192
 -1      2131    8    0    1
 -2      1013      1070      1099      4105      4193      4194
 -1      2132    8    0    1
 -2      1013      1099      1061      4194      4195      4071
 -1      2133    8    0    1
 -2      1053      1051      1100      4089      4196      4197
 -1      2134    8    0    1
 -2      1051      1098      1100      4192      4198      4196
 -1      2135    8    0    1
 -2      1018      1053      1101      4047      4199      4200
 -1      2136    8    0    1
 -2      1053      1100      1101      4197      4201      4199
 -1      2137    8    0    1
 -2      1024      1006      1076      4109      4202      4124
 -1      2138    8    0    1
 -2      1017      1040      1102      4008      4203      4204
 -1      2139    8    0    1
 -2      1040      1090      1102      4168      4205      4203
 -1      2140    8    0    1
 -2       959      1003      1072      3891      4206      4207
 -1      2141    8    0    1
 -2      1058      1052      1103      4088      4208      4209
 -1      2142    8    0    1
 -2      1012      1069      1104      4103      4210      4211
 -1      2143    8    0    1
 -2      1012      1104      1054      4211      4212      4090
 -1      2144    8    0    1
 -2      1024       959      1072      3955      4207      4213
 -1      2145    8    0    1
 -2      1052      1061      1103      4079      4214      4208
 -1      2146    8    0    1
 -2      1019      1018      1105      3942      4215      4216
 -1      2147    8    0    1
 -2      1018      1101      1105      4200      4217      4215
 -1      2148    8    0    1
 -2      1008      1054      1106      4050      4218      4219
 -1      2149    8    0    1
 -2      1054      1104      1106      4212      4220      4218
 -1      2150    8    0    1
 -2      1003       947      1072      3875      4113      4206
 -1      2151    8    0    1
 -2      1059      1067      1107      4097      4221      4222
 -1      2152    8    0    1
 -2      1064      1059      1107      4082      4222      4223
 -1      2153    8    0    1
 -2      1073      1019      1105      4117      4216      4224
 -1      2154    8    0    1
 -2      1021      1074      1057      4120      4225      4116
 -1      2155    8    0    1
 -2      1103      1061      1099      4214      4195      4226
 -1      2156    8    0    1
 -2      1016      1023      1108      3953      4227      4228
 -1      2157    8    0    1
 -2      1016      1108      1050      4228      4229      4039
 -1      2158    8    0    1
 -2      1104      1069      1109      4210      4230      4231
 -1      2159    8    0    1
 -2       940      1005      1065      3884      4232      4094
 -1      2160    8    0    1
 -2      1099      1070      1110      4193      4233      4234
 -1      2161    8    0    1
 -2      1039      1017      1111      4005      4235      4236
 -1      2162    8    0    1
 -2      1017      1102      1111      4204      4237      4235
 -1      2163    8    0    1
 -2      1008      1106      1068      4219      4238      4099
 -1      2164    8    0    1
 -2      1097      1049      1112      4188      4239      4240
 -1      2165    8    0    1
 -2      1049      1050      1112      4038      4241      4239
 -1      2166    8    0    1
 -2      1098      1058      1103      4191      4209      4242
 -1      2167    8    0    1
 -2      1006      1064      1076      4081      4243      4202
 -1      2168    8    0    1
 -2       937      1024      1072      4110      4213      4112
 -1      2169    8    0    1
 -2      1069      1071      1113      4108      4244      4245
 -1      2170    8    0    1
 -2      1069      1113      1109      4245      4246      4230
 -1      2171    8    0    1
 -2      1055      1056      1114      4055      4247      4248
 -1      2172    8    0    1
 -2      1060      1068      1115      4101      4249      4250
 -1      2173    8    0    1
 -2      1015      1066      1023      4093      4251      3954
 -1      2174    8    0    1
 -2      1110      1070      1063      4233      4252      4253
 -1      2175    8    0    1
 -2      1064      1107      1076      4223      4254      4243
 -1      2176    8    0    1
 -2      1005      1063      1070      4077      4252      4255
 -1      2177    8    0    1
 -2      1091      1092      1116      4175      4256      4257
 -1      2178    8    0    1
 -2      1074      1073      1113      4121      4258      4259
 -1      2179    8    0    1
 -2      1055      1114      1071      4248      4260      4126
 -1      2180    8    0    1
 -2      1065      1005      1070      4232      4255      4114
 -1      2181    8    0    1
 -2      1078      1077      1117      4132      4261      4262
 -1      2182    8    0    1
 -2      1079      1078      1102      4135      4263      4264
 -1      2183    8    0    1
 -2      1080      1079      1090      4138      4265      4266
 -1      2184    8    0    1
 -2      1081      1080      1075      4141      4267      4268
 -1      2185    8    0    1
 -2      1082      1081      1116      4144      4269      4270
 -1      2186    8    0    1
 -2      1083      1082      1116      4147      4270      4271
 -1      2187    8    0    1
 -2      1084      1083      1118      4150      4272      4273
 -1      2188    8    0    1
 -2      1085      1084      1094      4153      4274      4275
 -1      2189    8    0    1
 -2      1086      1085      1095      4156      4276      4277
 -1      2190    8    0    1
 -2      1087      1086      1096      4159      4278      4279
 -1      2191    8    0    1
 -2      1088      1087      1097      4162      4280      4281
 -1      2192    8    0    1
 -2      1092      1093      1118      4178      4282      4283
 -1      2193    8    0    1
 -2      1097      1087      1096      4280      4279      4190
 -1      2194    8    0    1
 -2      1063      1060      1119      4078      4284      4285
 -1      2195    8    0    1
 -2      1093      1094      1118      4181      4286      4282
 -1      2196    8    0    1
 -2      1094      1095      1085      4184      4276      4275
 -1      2197    8    0    1
 -2      1095      1096      1086      4187      4278      4277
 -1      2198    8    0    1
 -2      1063      1119      1110      4285      4287      4253
 -1      2199    8    0    1
 -2      1098      1103      1119      4242      4288      4289
 -1      2200    8    0    1
 -2      1104      1109      1120      4231      4290      4291
 -1      2201    8    0    1
 -2      1104      1120      1106      4291      4292      4220
 -1      2202    8    0    1
 -2      1056      1057      1074      4059      4225      4293
 -1      2203    8    0    1
 -2      1090      1075      1080      4169      4267      4266
 -1      2204    8    0    1
 -2      1067      1062      1121      4098      4294      4295
 -1      2205    8    0    1
 -2      1107      1067      1121      4221      4295      4296
 -1      2206    8    0    1
 -2      1062      1022      1121      4075      4297      4294
 -1      2207    8    0    1
 -2      1068      1106      1122      4238      4298      4299
 -1      2208    8    0    1
 -2      1106      1120      1122      4292      4300      4298
 -1      2209    8    0    1
 -2      1115      1068      1122      4249      4299      4301
 -1      2210    8    0    1
 -2      1100      1098      1115      4198      4302      4303
 -1      2211    8    0    1
 -2      1101      1100      1122      4201      4304      4305
 -1      2212    8    0    1
 -2      1114      1056      1074      4247      4293      4306
 -1      2213    8    0    1
 -2      1102      1090      1079      4205      4265      4264
 -1      2214    8    0    1
 -2      1073      1105      1109      4224      4307      4308
 -1      2215    8    0    1
 -2      1022      1039      1123      4004      4309      4310
 -1      2216    8    0    1
 -2      1060      1115      1119      4250      4311      4284
 -1      2217    8    0    1
 -2      1023      1066      1108      4251      4312      4227
 -1      2218    8    0    1
 -2      1105      1101      1120      4217      4313      4314
 -1      2219    8    0    1
 -2      1098      1119      1115      4289      4311      4302
 -1      2220    8    0    1
 -2      1100      1115      1122      4303      4301      4304
 -1      2221    8    0    1
 -2      1071      1114      1113      4260      4315      4244
 -1      2222    8    0    1
 -2      1121      1022      1123      4297      4310      4316
 -1      2223    8    0    1
 -2      1109      1105      1120      4307      4314      4290
 -1      2224    8    0    1
 -2      1073      1109      1113      4308      4246      4258
 -1      2225    8    0    1
 -2      1107      1121      1123      4296      4316      4317
 -1      2226    8    0    1
 -2      1123      1039      1111      4309      4236      4318
 -1      2227    8    0    1
 -2      1107      1123      1076      4317      4319      4254
 -1      2228    8    0    1
 -2      1116      1092      1118      4256      4283      4320
 -1      2229    8    0    1
 -2      1111      1102      1117      4237      4321      4322
 -1      2230    8    0    1
 -2      1077      1076      1123      4129      4319      4323
 -1      2231    8    0    1
 -2      1102      1078      1117      4263      4262      4321
 -1      2232    8    0    1
 -2      1081      1075      1116      4268      4324      4269
 -1      2233    8    0    1
 -2      1083      1116      1118      4271      4320      4272
 -1      2234    8    0    1
 -2      1088      1097      1124      4281      4325      4326
 -1      2235    8    0    1
 -2      1112      1050      1108      4241      4229      4327
 -1      2236    8    0    1
 -2      1103      1099      1110      4226      4234      4328
 -1      2237    8    0    1
 -2      1094      1084      1118      4274      4273      4286
 -1      2238    8    0    1
 -2      1077      1123      1117      4323      4329      4261
 -1      2239    8    0    1
 -2      1117      1123      1111      4329      4318      4322
 -1      2240    8    0    1
 -2      1101      1122      1120      4305      4300      4313
 -1      2241    8    0    1
 -2      1114      1074      1113      4306      4259      4315
 -1      2242    8    0    1
 -2      1088      1124      1089      4326      4330      4166
 -1      2243    8    0    1
 -2      1108      1066      1124      4312      4331      4332
 -1      2244    8    0    1
 -2      1066      1089      1124      4165      4330      4331
 -1      2245    8    0    1
 -2      1075      1091      1116      4172      4257      4324
 -1      2246    8    0    1
 -2      1110      1119      1103      4287      4288      4328
 -1      2247    8    0    1
 -2      1112      1108      1124      4327      4332      4333
 -1      2248    8    0    1
 -2      1124      1097      1112      4325      4240      4333
 -3
    1PSTEP                         1           1           1          
  100CL  101 1.000000000        4333                     0    1           1
 -4  DISP        4    1
 -5  D1          1    2    1    0
 -5  D2          1    2    2    0
 -5  D3          1    2    3    0
 -5  ALL         1    2    0    0    1ALL
 -1         1 8.24130E-03-7.63509E-04-4.21782E-14
 -1         2 8.91961E-03-1.52057E-04-4.47569E-14
 -1         3 1.50046E-02 7.35680E-05-1.74881E-13
 -1         4 1.53889E-02-1.35719E-03-1.80548E-13
 -1         5 0.00000E+00 0.00000E+00 0.00000E+00
 -1         6 0.00000E+00 0.00000E+00 0.00000E+00
 -1         7 0.00000E+00 0.00000E+00 0.00000E+00
 -1         8 0.00000E+00 0.00000E+00 0.00000E+00
 -1         9 0.00000E+00 0.00000E+00 0.00000E+00
 -1        10 0.00000E+00 0.00000E+00 0.00000E+00
 -1        11 0.00000E+00 0.00000E+00 0.00000E+00
 -1        12 0.00000E+00 0.00000E+00 0.00000E+00
 -1        13 0.00000E+00 0.00000E+00 0.00000E+00
 -1        14 0.00000E+00 0.00000E+00 0.00000E+00
 -1        15 0.00000E+00 0.00000E+00 0.00000E+00
 -1        16 0.00000E+00 0.00000E+00 0.00000E+00
 -1        17 0.00000E+00 0.00000E+00 0.00000E+00
 -1        18 0.00000E+00 0.00000E+00 0.00000E+00
 -1        19 0.00000E+00 0.00000E+00 0.00000E+00
 -1        20 0.00000E+00 0.00000E+00 0.00000E+00
 -1        21 0.00000E+00 0.00000E+00 0.00000E+00
 -1        22 0.00000E+00 0.00000E+00 0.00000E+00
 -1        23 4.08635E-04-2.57106E-04 5.40949E-17
 -1        24 6.99765E-04-3.93065E-04-6.60110E-17
 -1        25 9.70207E-04-4.85506E-04-3.57607E-16
 -1        26 1.23622E-03-5.48713E-04-8.19372E-16
 -1        27 1.50267E-03-5.91797E-04-1.44849E-15
 -1        28 1.77207E-03-6.20150E-04-2.24494E-15
 -1        29 2.04601E-03-6.37595E-04-3.20874E-15
 -1        30 2.32569E-03-6.47118E-04-4.33628E-15
 -1        31 2.61224E-03-6.51294E-04-5.62823E-15
 -1        32 2.90683E-03-6.52590E-04-7.08512E-15
 -1        33 3.21075E-03-6.53642E-04-8.70235E-15
 -1        34 3.52536E-03-6.57518E-04-1.04696E-14
 -1        35 3.85194E-03-6.67979E-04-1.23884E-14
 -1        36 4.19127E-03-6.89644E-04-1.44560E-14
 -1        37 4.54295E-03-7.27910E-04-1.66724E-14
 -1        38 4.90435E-03-7.88309E-04-1.90396E-14
 -1        39 5.26952E-03-8.74857E-04-2.15603E-14
 -1        40 5.62861E-03-9.87103E-04-2.42346E-14
 -1        41 5.96917E-03-1.11637E-03-2.70709E-14
 -1        42 6.28056E-03-1.24338E-03-3.00762E-14
 -1        43 6.56052E-03-1.34094E-03-3.32587E-14
 -1        44 6.81982E-03-1.38394E-03-3.66225E-14
 -1        45 7.07935E-03-1.36206E-03-4.01747E-14
 -1        46 7.35997E-03-1.28582E-03-4.39111E-14
 -1        47 7.67233E-03-1.18044E-03-4.78279E-14
 -1        48 8.01412E-03-1.07309E-03-5.19144E-14
 -1        49 8.37469E-03-9.82965E-04-5.61594E-14
 -1        50 8.74174E-03-9.18694E-04-6.05539E-14
 -1        51 9.10559E-03-8.80744E-04-6.50903E-14
 -1        52 9.46050E-03-8.65217E-04-6.97576E-14
 -1        53 9.80413E-03-8.66808E-04-7.45476E-14
 -1        54 1.01363E-02-8.80461E-04-7.94417E-14
 -1        55 1.04581E-02-9.02038E-04-8.44308E-14
 -1        56 1.07711E-02-9.28432E-04-8.95064E-14
 -1        57 1.10770E-02-9.57448E-04-9.46773E-14
 -1        58 1.13771E-02-9.87609E-04-9.99324E-14
 -1        59 1.16730E-02-1.01797E-03-1.05271E-13
 -1        60 1.19656E-02-1.04796E-03-1.10685E-13
 -1        61 1.22558E-02-1.07727E-03-1.16181E-13
 -1        62 1.25443E-02-1.10577E-03-1.21764E-13
 -1        63 1.28316E-02-1.13343E-03-1.27444E-13
 -1        64 1.31181E-02-1.16030E-03-1.33213E-13
 -1        65 1.34040E-02-1.18645E-03-1.39051E-13
 -1        66 1.36897E-02-1.21199E-03-1.44939E-13
 -1        67 1.39752E-02-1.23702E-03-1.50879E-13
 -1        68 1.42607E-02-1.26166E-03-1.56843E-13
 -1        69 1.45462E-02-1.28601E-03-1.62815E-13
 -1        70 1.48318E-02-1.31018E-03-1.68803E-13
 -1        71 1.51174E-02-1.33428E-03-1.74810E-13
 -1        72 4.11065E-04 2.57827E-04 8.18810E-17
 -1        73 6.99685E-04 3.95826E-04 7.96550E-18
 -1        74 9.70879E-04 4.87442E-04-2.19625E-16
 -1        75 1.23722E-03 5.50748E-04-6.04148E-16
 -1        76 1.50380E-03 5.94124E-04-1.14724E-15
 -1        77 1.77323E-03 6.22938E-04-1.84782E-15
 -1        78 2.04704E-03 6.41040E-04-2.70272E-15
 -1        79 2.32635E-03 6.51465E-04-3.70990E-15
 -1        80 2.61210E-03 6.56833E-04-4.87027E-15
 -1        81 2.90515E-03 6.59629E-04-6.18296E-15
 -1        82 3.20631E-03 6.62422E-04-7.65038E-15
 -1        83 3.51626E-03 6.68037E-04-9.26833E-15
 -1        84 3.83531E-03 6.79660E-04-1.10344E-14
 -1        85 4.16308E-03 7.00795E-04-1.29554E-14
 -1        86 4.49796E-03 7.34951E-04-1.50298E-14
 -1        87 4.83661E-03 7.84899E-04-1.72600E-14
 -1        88 5.17356E-03 8.51371E-04-1.96516E-14
 -1        89 5.50158E-03 9.31305E-04-2.22068E-14
 -1        90 5.81312E-03 1.01627E-03-2.49271E-14
 -1        91 6.10318E-03 1.09233E-03-2.78203E-14
 -1        92 6.37244E-03 1.14271E-03-3.08884E-14
 -1        93 6.62880E-03 1.15331E-03-3.41343E-14
 -1        94 6.88526E-03 1.11858E-03-3.75665E-14
 -1        95 7.15487E-03 1.04411E-03-4.11820E-14
 -1        96 7.44557E-03 9.44032E-04-4.49613E-14
 -1        97 7.75807E-03 8.35108E-04-4.89009E-14
 -1        98 8.08744E-03 7.31275E-04-5.30003E-14
 -1        99 8.42621E-03 6.40995E-04-5.72524E-14
 -1       100 8.76731E-03 5.67412E-04-6.16476E-14
 -1       101 9.10546E-03 5.09940E-04-6.61786E-14
 -1       102 9.43754E-03 4.66037E-04-7.08254E-14
 -1       103 9.76222E-03 4.32526E-04-7.55918E-14
 -1       104 1.00794E-02 4.06377E-04-8.04665E-14
 -1       105 1.03896E-02 3.85051E-04-8.54395E-14
 -1       106 1.06939E-02 3.66589E-04-9.05127E-14
 -1       107 1.09933E-02 3.49578E-04-9.56900E-14
 -1       108 1.12887E-02 3.33049E-04-1.00977E-13
 -1       109 1.15812E-02 3.16384E-04-1.06360E-13
 -1       110 1.18713E-02 2.99217E-04-1.11813E-13
 -1       111 1.21598E-02 2.81364E-04-1.17336E-13
 -1       112 1.24472E-02 2.62760E-04-1.22931E-13
 -1       113 1.27337E-02 2.43418E-04-1.28578E-13
 -1       114 1.30197E-02 2.23400E-04-1.34286E-13
 -1       115 1.33054E-02 2.02791E-04-1.40044E-13
 -1       116 1.35909E-02 1.81693E-04-1.45847E-13
 -1       117 1.38764E-02 1.60207E-04-1.51680E-13
 -1       118 1.41619E-02 1.38439E-04-1.57541E-13
 -1       119 1.44475E-02 1.16493E-04-1.63412E-13
 -1       120 1.47332E-02 9.44740E-05-1.69294E-13
 -1       121 1.50262E-02-1.07246E-05-1.75268E-13
 -1       122 1.50478E-02-9.50663E-05-1.75674E-13
 -1       123 1.50695E-02-1.79475E-04-1.76062E-13
 -1       124 1.50913E-02-2.63930E-04-1.76444E-13
 -1       125 1.51132E-02-3.48401E-04-1.76804E-13
 -1       126 1.51350E-02-4.31432E-04-1.77160E-13
 -1       127 1.51574E-02-5.15875E-04-1.77525E-13
 -1       128 1.51799E-02-6.00300E-04-1.77890E-13
 -1       129 1.52025E-02-6.84719E-04-1.78231E-13
 -1       130 1.52254E-02-7.69147E-04-1.78532E-13
 -1       131 1.52484E-02-8.53595E-04-1.78832E-13
 -1       132 1.52712E-02-9.36633E-04-1.79147E-13
 -1       133 1.52946E-02-1.02111E-03-1.79472E-13
 -1       134 1.53181E-02-1.10557E-03-1.79768E-13
 -1       135 1.53418E-02-1.18998E-03-1.80062E-13
 -1       136 1.53655E-02-1.27432E-03-1.80318E-13
 -1       137 8.85924E-03 2.37051E-05-4.44689E-14
 -1       138 8.70847E-03 1.86921E-04-4.38271E-14
 -1       139 8.44688E-03 3.50631E-04-4.27518E-14
 -1       140 8.14337E-03 4.77307E-04-4.15392E-14
 -1       141 7.76545E-03 5.84725E-04-4.00610E-14
 -1       142 7.33689E-03 6.62538E-04-3.84237E-14
 -1       143 6.86763E-03 7.03777E-04-3.66878E-14
 -1       144 6.41272E-03 7.04416E-04-3.50569E-14
 -1       145 5.93309E-03 6.61582E-04-3.33845E-14
 -1       146 5.48765E-03 5.75344E-04-3.18848E-14
 -1       147 5.11020E-03 4.53388E-04-3.06616E-14
 -1       148 4.84493E-03 3.20530E-04-2.98359E-14
 -1       149 4.64171E-03 1.54067E-04-2.92337E-14
 -1       150 4.54732E-03-1.68113E-05-2.89878E-14
 -1       151 4.55285E-03-1.94151E-04-2.90654E-14
 -1       152 4.66904E-03-3.79557E-04-2.94997E-14
 -1       153 4.88047E-03-5.47667E-04-3.02378E-14
 -1       154 5.16036E-03-6.91324E-04-3.11942E-14
 -1       155 5.52436E-03-8.18793E-04-3.24356E-14
 -1       156 5.94356E-03-9.15025E-04-3.38716E-14
 -1       157 6.39008E-03-9.72568E-04-3.54123E-14
 -1       158 6.90511E-03-9.89478E-04-3.72434E-14
 -1       159 7.35523E-03-9.61097E-04-3.88616E-14
 -1       160 7.80277E-03-8.89159E-04-4.05139E-14
 -1       161 8.52927E-03-6.35258E-04-4.32845E-14
 -1       162 8.75370E-03-4.80868E-04-4.41548E-14
 -1       163 8.87935E-03-3.24468E-04-4.46307E-14
 -1       164 2.40512E-04-1.22669E-04-2.77725E-17
 -1       165 2.25793E-04-9.15003E-05-5.28955E-17
 -1       166 2.20075E-04-6.95544E-05-6.68241E-17
 -1       167 2.17079E-04-5.20340E-05-7.43627E-17
 -1       168 2.15318E-04-3.73380E-05-7.81337E-17
 -1       169 2.14219E-04-2.40034E-05-7.95872E-17
 -1       170 2.13614E-04-1.16495E-05-7.99193E-17
 -1       171 2.13425E-04 2.46126E-07-7.94856E-17
 -1       172 2.13634E-04 1.21591E-05-7.78931E-17
 -1       173 2.14261E-04 2.45663E-05-7.54368E-17
 -1       174 2.15360E-04 3.77568E-05-7.12592E-17
 -1       175 2.17174E-04 5.28406E-05-6.46117E-17
 -1       176 2.20209E-04 7.05971E-05-5.40576E-17
 -1       177 2.25957E-04 9.29134E-05-3.71271E-17
 -1       178 2.39449E-04 1.24753E-04-8.60585E-18
 -1       179 2.96994E-04 1.82391E-04 2.27005E-17
 -1       180 4.68019E-04-2.57922E-04-7.75848E-17
 -1       181 7.66568E-04-3.71670E-04-3.19294E-16
 -1       182 1.05174E-03-4.49052E-04-7.22018E-16
 -1       183 1.33157E-03-5.01638E-04-1.28764E-15
 -1       184 1.61004E-03-5.36395E-04-2.01616E-15
 -1       185 1.88966E-03-5.58019E-04-2.90830E-15
 -1       186 2.17212E-03-5.69959E-04-3.96267E-15
 -1       187 2.45874E-03-5.75000E-04-5.17815E-15
 -1       188 2.75065E-03-5.75633E-04-6.55458E-15
 -1       189 3.04890E-03-5.74362E-04-8.08977E-15
 -1       190 3.35454E-03-5.73992E-04-9.77812E-15
 -1       191 3.66852E-03-5.77930E-04-1.16169E-14
 -1       192 3.99157E-03-5.90444E-04-1.36063E-14
 -1       193 4.32391E-03-6.16805E-04-1.57428E-14
 -1       194 4.66478E-03-6.63035E-04-1.80290E-14
 -1       195 5.01195E-03-7.34879E-04-2.04664E-14
 -1       196 5.36117E-03-8.35443E-04-2.30548E-14
 -1       197 5.70619E-03-9.61373E-04-2.58001E-14
 -1       198 6.04007E-03-1.09868E-03-2.87075E-14
 -1       199 6.35810E-03-1.22161E-03-3.17861E-14
 -1       200 6.66167E-03-1.29925E-03-3.50498E-14
 -1       201 6.95940E-03-1.30973E-03-3.84993E-14
 -1       202 7.26330E-03-1.25319E-03-4.21379E-14
 -1       203 7.58196E-03-1.15166E-03-4.59613E-14
 -1       204 7.91669E-03-1.03609E-03-4.99589E-14
 -1       205 8.26283E-03-9.32122E-04-5.41181E-14
 -1       206 8.61346E-03-8.53666E-04-5.84277E-14
 -1       207 8.96246E-03-8.04043E-04-6.28835E-14
 -1       208 9.30572E-03-7.80199E-04-6.74706E-14
 -1       209 9.64115E-03-7.76563E-04-7.21811E-14
 -1       210 9.96818E-03-7.87389E-04-7.70038E-14
 -1       211 1.02872E-02-8.07814E-04-8.19288E-14
 -1       212 1.05990E-02-8.34131E-04-8.69466E-14
 -1       213 1.09048E-02-8.63700E-04-9.20588E-14
 -1       214 1.12055E-02-8.94737E-04-9.72601E-14
 -1       215 1.15023E-02-9.26098E-04-1.02546E-13
 -1       216 1.17960E-02-9.57090E-04-1.07913E-13
 -1       217 1.20872E-02-9.87337E-04-1.13360E-13
 -1       218 1.23767E-02-1.01666E-03-1.18889E-13
 -1       219 1.26649E-02-1.04504E-03-1.24515E-13
 -1       220 1.29522E-02-1.07249E-03-1.30225E-13
 -1       221 1.32388E-02-1.09912E-03-1.36009E-13
 -1       222 1.35250E-02-1.12503E-03-1.41852E-13
 -1       223 1.38109E-02-1.15035E-03-1.47749E-13
 -1       224 1.40967E-02-1.17519E-03-1.53681E-13
 -1       225 1.43824E-02-1.19967E-03-1.59636E-13
 -1       226 1.46680E-02-1.22391E-03-1.65611E-13
 -1       227 1.49537E-02-1.24801E-03-1.71605E-13
 -1       228 6.03691E-04 3.23577E-04-7.76966E-17
 -1       229 8.93489E-04 4.20205E-04-3.22696E-16
 -1       230 1.17410E-03 4.86376E-04-7.18911E-16
 -1       231 1.45139E-03 5.31271E-04-1.26939E-15
 -1       232 1.72872E-03 5.60721E-04-1.97432E-15
 -1       233 2.00816E-03 5.78827E-04-2.83244E-15
 -1       234 2.29110E-03 5.88755E-04-3.84283E-15
 -1       235 2.57863E-03 5.93191E-04-5.00500E-15
 -1       236 2.87162E-03 5.94642E-04-6.31850E-15
 -1       237 3.17081E-03 5.95679E-04-7.78469E-15
 -1       238 3.47678E-03 5.99143E-04-9.40027E-15
 -1       239 3.78978E-03 6.08273E-04-1.11652E-14
 -1       240 4.10960E-03 6.26716E-04-1.30810E-14
 -1       241 4.43519E-03 6.58269E-04-1.51494E-14
 -1       242 4.76444E-03 7.06181E-04-1.73718E-14
 -1       243 5.09392E-03 7.71851E-04-1.97529E-14
 -1       244 5.41909E-03 8.52943E-04-2.22963E-14
 -1       245 5.73514E-03 9.41482E-04-2.50047E-14
 -1       246 6.03859E-03 1.02326E-03-2.78796E-14
 -1       247 6.32931E-03 1.08024E-03-3.09338E-14
 -1       248 6.61164E-03 1.09637E-03-3.41682E-14
 -1       249 6.89331E-03 1.06450E-03-3.75879E-14
 -1       250 7.18240E-03 9.89750E-04-4.11873E-14
 -1       251 7.48401E-03 8.87047E-04-4.49541E-14
 -1       252 7.79881E-03 7.74559E-04-4.88863E-14
 -1       253 8.12383E-03 6.67423E-04-5.29762E-14
 -1       254 8.45447E-03 5.74760E-04-5.72156E-14
 -1       255 8.78615E-03 4.99870E-04-6.15979E-14
 -1       256 9.11537E-03 4.42018E-04-6.61129E-14
 -1       257 9.43993E-03 3.98400E-04-7.07479E-14
 -1       258 9.75880E-03 3.65580E-04-7.54999E-14
 -1       259 1.00718E-02 3.40318E-04-8.03602E-14
 -1       260 1.03793E-02 3.19928E-04-8.53258E-14
 -1       261 1.06819E-02 3.02363E-04-9.03906E-14
 -1       262 1.09804E-02 2.86155E-04-9.55579E-14
 -1       263 1.12755E-02 2.70318E-04-1.00827E-13
 -1       264 1.15680E-02 2.54226E-04-1.06186E-13
 -1       265 1.18584E-02 2.37522E-04-1.11625E-13
 -1       266 1.21473E-02 2.20032E-04-1.17134E-13
 -1       267 1.24350E-02 2.01707E-04-1.22717E-13
 -1       268 1.27220E-02 1.82574E-04-1.28358E-13
 -1       269 1.30084E-02 1.62707E-04-1.34056E-13
 -1       270 1.32944E-02 1.42204E-04-1.39802E-13
 -1       271 1.35802E-02 1.21174E-04-1.45594E-13
 -1       272 1.38659E-02 9.97283E-05-1.51419E-13
 -1       273 1.41516E-02 7.79781E-05-1.57276E-13
 -1       274 1.44372E-02 5.60330E-05-1.63150E-13
 -1       275 1.47229E-02 3.40026E-05-1.69036E-13
 -1       276 1.47896E-02-3.38174E-05-1.70366E-13
 -1       277 1.48112E-02-1.18142E-04-1.70749E-13
 -1       278 1.48329E-02-2.02482E-04-1.71124E-13
 -1       279 1.48548E-02-2.86819E-04-1.71493E-13
 -1       280 1.48765E-02-3.69710E-04-1.71849E-13
 -1       281 1.48987E-02-4.54007E-04-1.72209E-13
 -1       282 1.49211E-02-5.38282E-04-1.72561E-13
 -1       283 1.49437E-02-6.22543E-04-1.72906E-13
 -1       284 1.49665E-02-7.06806E-04-1.73239E-13
 -1       285 1.49894E-02-7.91083E-04-1.73554E-13
 -1       286 1.50121E-02-8.73955E-04-1.73856E-13
 -1       287 1.50354E-02-9.58280E-04-1.74157E-13
 -1       288 1.50589E-02-1.04262E-03-1.74443E-13
 -1       289 1.50825E-02-1.12696E-03-1.74719E-13
 -1       290 1.50181E-02-1.18750E-03-1.73169E-13
 -1       291 8.92346E-03-1.12643E-04-4.63935E-14
 -1       292 8.77530E-03-4.63650E-06-4.57086E-14
 -1       293 8.49997E-03 1.20911E-04-4.48417E-14
 -1       294 8.16362E-03 2.97638E-04-4.32513E-14
 -1       295 7.79751E-03 4.69019E-04-4.16183E-14
 -1       296 7.39840E-03 6.30212E-04-3.98208E-14
 -1       297 7.01992E-03 7.47028E-04-3.77583E-14
 -1       298 6.64842E-03 7.88706E-04-3.57523E-14
 -1       299 6.27861E-03 7.41599E-04-3.37418E-14
 -1       300 5.87604E-03 6.01951E-04-3.18545E-14
 -1       301 5.46326E-03 4.16478E-04-3.02569E-14
 -1       302 5.07629E-03 2.61855E-04-2.93252E-14
 -1       303 4.78039E-03 1.06728E-04-2.83836E-14
 -1       304 4.57481E-03-2.13648E-06-2.80505E-14
 -1       305 4.50951E-03-9.92882E-05-2.78792E-14
 -1       306 4.59427E-03-1.95728E-04-2.80871E-14
 -1       307 4.82333E-03-3.20769E-04-2.87456E-14
 -1       308 5.13484E-03-4.81914E-04-2.97690E-14
 -1       309 5.50123E-03-6.61981E-04-3.10196E-14
 -1       310 5.88866E-03-8.46209E-04-3.26005E-14
 -1       311 6.27604E-03-9.87111E-04-3.43208E-14
 -1       312 6.67791E-03-1.07274E-03-3.62814E-14
 -1       313 7.06470E-03-1.04142E-03-3.83299E-14
 -1       314 7.44245E-03-9.40158E-04-4.03256E-14
 -1       315 7.84938E-03-7.56626E-04-4.25439E-14
 -1       316 8.26611E-03-5.83335E-04-4.39667E-14
 -1       317 8.57550E-03-4.18983E-04-4.53758E-14
 -1       318 8.81366E-03-3.04879E-04-4.59999E-14
 -1       319 8.93510E-03-2.03544E-04-4.64891E-14
 -1       320 4.56497E-04-1.57936E-04-2.30000E-16
 -1       321 4.75218E-04-2.06295E-04-1.88550E-16
 -1       322 4.40638E-04-8.82054E-05-2.69468E-16
 -1       323 4.36959E-04-6.03551E-05-2.76902E-16
 -1       324 4.34756E-04-3.50228E-05-2.79978E-16
 -1       325 4.33726E-04-1.10791E-05-2.79968E-16
 -1       326 4.33765E-04 1.24438E-05-2.76956E-16
 -1       327 4.34873E-04 3.64696E-05-2.70668E-16
 -1       328 4.37111E-04 6.15207E-05-2.60910E-16
 -1       329 4.40872E-04 8.95849E-05-2.46012E-16
 -1       330 4.46901E-04 1.21785E-04-2.23881E-16
 -1       331 4.57084E-04 1.60534E-04-1.90891E-16
 -1       332 4.76815E-04 2.10395E-04-1.41288E-16
 -1       333 5.32362E-04 2.62940E-04-1.18327E-16
 -1       334 8.25714E-04 3.61468E-04-3.72671E-16
 -1       335 8.65383E-04-3.44009E-04-6.04399E-16
 -1       336 1.15349E-03-4.06786E-04-1.11129E-15
 -1       337 1.43895E-03-4.49181E-04-1.77685E-15
 -1       338 1.72355E-03-4.76298E-04-2.60125E-15
 -1       339 2.00875E-03-4.91975E-04-3.58528E-15
 -1       340 2.29577E-03-4.99243E-04-4.72764E-15
 -1       341 2.58559E-03-5.00679E-04-6.02687E-15
 -1       342 2.87909E-03-4.98709E-04-7.48363E-15
 -1       343 3.17710E-03-4.95891E-04-9.09419E-15
 -1       344 3.48046E-03-4.95210E-04-1.08551E-14
 -1       345 3.79004E-03-5.00370E-04-1.27658E-14
 -1       346 4.10671E-03-5.16047E-04-1.48242E-14
 -1       347 4.43134E-03-5.47963E-04-1.70293E-14
 -1       348 4.76451E-03-6.02519E-04-1.93838E-14
 -1       349 5.10600E-03-6.85491E-04-2.18873E-14
 -1       350 5.45381E-03-7.99097E-04-2.45430E-14
 -1       351 5.80309E-03-9.37273E-04-2.73554E-14
 -1       352 6.14658E-03-1.08035E-03-3.03321E-14
 -1       353 6.47860E-03-1.19473E-03-3.34900E-14
 -1       354 6.80092E-03-1.24504E-03-3.68353E-14
 -1       355 7.12338E-03-1.21559E-03-4.03727E-14
 -1       356 7.45580E-03-1.12238E-03-4.41029E-14
 -1       357 7.79984E-03-1.00089E-03-4.80136E-14
 -1       358 8.14980E-03-8.84580E-04-5.20893E-14
 -1       359 8.49847E-03-7.92984E-04-5.63192E-14
 -1       360 8.84108E-03-7.32114E-04-6.06924E-14
 -1       361 9.17573E-03-6.99735E-04-6.52051E-14
 -1       362 9.50228E-03-6.90200E-04-6.98396E-14
 -1       363 9.82142E-03-6.97331E-04-7.45884E-14
 -1       364 1.01341E-02-7.15746E-04-7.94441E-14
 -1       365 1.04412E-02-7.41247E-04-8.44016E-14
 -1       366 1.07436E-02-7.70789E-04-8.94536E-14
 -1       367 1.10422E-02-8.02279E-04-9.46010E-14
 -1       368 1.13377E-02-8.34350E-04-9.98327E-14
 -1       369 1.16307E-02-8.66161E-04-1.05145E-13
 -1       370 1.19217E-02-8.97233E-04-1.10549E-13
 -1       371 1.22112E-02-9.27338E-04-1.16032E-13
 -1       372 1.24996E-02-9.56404E-04-1.21602E-13
 -1       373 1.27871E-02-9.84458E-04-1.27258E-13
 -1       374 1.30740E-02-1.01159E-03-1.32990E-13
 -1       375 1.33605E-02-1.03791E-03-1.38789E-13
 -1       376 1.36466E-02-1.06354E-03-1.44641E-13
 -1       377 1.39326E-02-1.08862E-03-1.50539E-13
 -1       378 1.42184E-02-1.11327E-03-1.56467E-13
 -1       379 1.45042E-02-1.13760E-03-1.62425E-13
 -1       380 1.47611E-02-1.16259E-03-1.67788E-13
 -1       381 1.11284E-03 4.30148E-04-7.73832E-16
 -1       382 1.39624E-03 4.76905E-04-1.32549E-15
 -1       383 1.67849E-03 5.07533E-04-2.02980E-15
 -1       384 1.96148E-03 5.26242E-04-2.88608E-15
 -1       385 2.24660E-03 5.36289E-04-3.89305E-15
 -1       386 2.53489E-03 5.40408E-04-5.05154E-15
 -1       387 2.82722E-03 5.41116E-04-6.35997E-15
 -1       388 3.12433E-03 5.40961E-04-7.82049E-15
 -1       389 3.42679E-03 5.42745E-04-9.42950E-15
 -1       390 3.73505E-03 5.49676E-04-1.11861E-14
 -1       391 4.04924E-03 5.65419E-04-1.30939E-14
 -1       392 4.36906E-03 5.93908E-04-1.51519E-14
 -1       393 4.69350E-03 6.38759E-04-1.73627E-14
 -1       394 5.02057E-03 7.02067E-04-1.97304E-14
 -1       395 5.34717E-03 7.82520E-04-2.22564E-14
 -1       396 5.66931E-03 8.73186E-04-2.49457E-14
 -1       397 5.98325E-03 9.60256E-04-2.78013E-14
 -1       398 6.28741E-03 1.02467E-03-3.08357E-14
 -1       399 6.58417E-03 1.04801E-03-3.40529E-14
 -1       400 6.87959E-03 1.02070E-03-3.74548E-14
 -1       401 7.18047E-03 9.46946E-04-4.10359E-14
 -1       402 7.49091E-03 8.42521E-04-4.47889E-14
 -1       403 7.81078E-03 7.27185E-04-4.87084E-14
 -1       404 8.13702E-03 6.17320E-04-5.27849E-14
 -1       405 8.46562E-03 5.22625E-04-5.70111E-14
 -1       406 8.79312E-03 4.46492E-04-6.13768E-14
 -1       407 9.11721E-03 3.88062E-04-6.58788E-14
 -1       408 9.43661E-03 3.44351E-04-7.04996E-14
 -1       409 9.75087E-03 3.11761E-04-7.52382E-14
 -1       410 1.00601E-02 2.86918E-04-8.00854E-14
 -1       411 1.03647E-02 2.67041E-04-8.50361E-14
 -1       412 1.06652E-02 2.50014E-04-9.00897E-14
 -1       413 1.09622E-02 2.34326E-04-9.52441E-14
 -1       414 1.12565E-02 2.18963E-04-1.00498E-13
 -1       415 1.15484E-02 2.03287E-04-1.05843E-13
 -1       416 1.18386E-02 1.86936E-04-1.11264E-13
 -1       417 1.21274E-02 1.69738E-04-1.16762E-13
 -1       418 1.24152E-02 1.51648E-04-1.22331E-13
 -1       419 1.27023E-02 1.32700E-04-1.27963E-13
 -1       420 1.29888E-02 1.12974E-04-1.33650E-13
 -1       421 1.32750E-02 9.25753E-05-1.39384E-13
 -1       422 1.35610E-02 7.16195E-05-1.45164E-13
 -1       423 1.38468E-02 5.02228E-05-1.50986E-13
 -1       424 1.41325E-02 2.85000E-05-1.56843E-13
 -1       425 1.44182E-02 6.56344E-06-1.62715E-13
 -1       426 1.46039E-02-1.36188E-05-1.66538E-13
 -1       427 1.45964E-02-2.25388E-04-1.66184E-13
 -1       428 1.45746E-02-1.41138E-04-1.65821E-13
 -1       429 1.45892E-02-7.73849E-05-1.66182E-13
 -1       430 1.46180E-02-3.08170E-04-1.66537E-13
 -1       431 1.46402E-02-3.92331E-04-1.66891E-13
 -1       432 1.46625E-02-4.76449E-04-1.67239E-13
 -1       433 1.46850E-02-5.60537E-04-1.67585E-13
 -1       434 1.47077E-02-6.44614E-04-1.67925E-13
 -1       435 1.47305E-02-7.28703E-04-1.68256E-13
 -1       436 1.47531E-02-8.11397E-04-1.68563E-13
 -1       437 1.47763E-02-8.95561E-04-1.68859E-13
 -1       438 1.47996E-02-9.79774E-04-1.69136E-13
 -1       439 1.48232E-02-1.06403E-03-1.69403E-13
 -1       440 8.64944E-03-1.86204E-05-4.71151E-14
 -1       441 8.96884E-03-1.65370E-04-4.87637E-14
 -1       442 8.85323E-03-9.68718E-05-4.78127E-14
 -1       443 8.27124E-03 1.53327E-04-4.52672E-14
 -1       444 7.91209E-03 3.36205E-04-4.34630E-14
 -1       445 4.46528E-04-1.19932E-04-2.54896E-16
 -1       446 7.14828E-03 7.13649E-04-3.90863E-14
 -1       447 6.82392E-03 8.07759E-04-3.68816E-14
 -1       448 6.50125E-03 8.09692E-04-3.45639E-14
 -1       449 6.12115E-03 6.87668E-04-3.21866E-14
 -1       450 5.72017E-03 4.91994E-04-3.02409E-14
 -1       451 5.26726E-03 2.60212E-04-2.84645E-14
 -1       452 4.96279E-03 1.21185E-04-2.75469E-14
 -1       453 4.64490E-03-6.55877E-06-2.67100E-14
 -1       454 4.51144E-03-6.50814E-05-2.67464E-14
 -1       455 4.51720E-03-1.21495E-04-2.68328E-14
 -1       456 4.69767E-03-2.00200E-04-2.72475E-14
 -1       457 5.01606E-03-3.33618E-04-2.81537E-14
 -1       458 5.37920E-03-5.09217E-04-2.93489E-14
 -1       459 5.78113E-03-7.32605E-04-3.11211E-14
 -1       460 6.15011E-03-9.25638E-04-3.29547E-14
 -1       461 6.47615E-03-1.05535E-03-3.48317E-14
 -1       462 6.90235E-03-1.09912E-03-3.77582E-14
 -1       463 7.18770E-03-1.02752E-03-3.97435E-14
 -1       464 7.55064E-03-8.62249E-04-4.22846E-14
 -1       465 8.04836E-03-6.03820E-04-4.47828E-14
 -1       466 8.36059E-03-4.49569E-04-4.62140E-14
 -1       467 8.71270E-03-2.96680E-04-4.76045E-14
 -1       468 8.88692E-03-2.26084E-04-4.81034E-14
 -1       469 7.55027E-03 5.24299E-04-4.15618E-14
 -1       470 6.70146E-03-1.11349E-03-3.62627E-14
 -1       471 7.78959E-03-7.33493E-04-4.44994E-14
 -1       472 9.34033E-04 3.31103E-04-6.65568E-16
 -1       473 6.63766E-04-6.93995E-05-5.95708E-16
 -1       474 6.68937E-04-1.07833E-04-5.85903E-16
 -1       475 6.59987E-04 9.67418E-07-5.95779E-16
 -1       476 6.61024E-04 3.55915E-05-5.86797E-16
 -1       477 6.63994E-04 7.09381E-05-5.71900E-16
 -1       478 6.69291E-04 1.09599E-04-5.48759E-16
 -1       479 6.77603E-04 1.52622E-04-5.15826E-16
 -1       480 6.90566E-04 2.02090E-04-4.69026E-16
 -1       481 1.22161E-03 3.85568E-04-1.17044E-15
 -1       482 9.79328E-04-3.12402E-04-9.23625E-16
 -1       483 7.32909E-03 6.25507E-04-4.09620E-14
 -1       484 1.26671E-03-3.60965E-04-1.52825E-15
 -1       485 1.55378E-03-3.93549E-04-2.28835E-15
 -1       486 1.84069E-03-4.13546E-04-3.20476E-15
 -1       487 2.12796E-03-4.23959E-04-4.27689E-15
 -1       488 2.41616E-03-4.27364E-04-5.50306E-15
 -1       489 2.70585E-03-4.26094E-04-6.88406E-15
 -1       490 2.99760E-03-4.22463E-04-8.41702E-15
 -1       491 3.29202E-03-4.19009E-04-1.01014E-14
 -1       492 3.58992E-03-4.18753E-04-1.19352E-14
 -1       493 3.89245E-03-4.25474E-04-1.39163E-14
 -1       494 4.20131E-03-4.43955E-04-1.60421E-14
 -1       495 4.51887E-03-4.80121E-04-1.83136E-14
 -1       496 4.84810E-03-5.40849E-04-2.07339E-14
 -1       497 5.19148E-03-6.32885E-04-2.33012E-14
 -1       498 5.54867E-03-7.59432E-04-2.60202E-14
 -1       499 5.91331E-03-9.13157E-04-2.88973E-14
 -1       500 6.27354E-03-1.06598E-03-3.19482E-14
 -1       501 6.62119E-03-1.16921E-03-3.51826E-14
 -1       502 6.96128E-03-1.17912E-03-3.86163E-14
 -1       503 7.30893E-03-1.09701E-03-4.22497E-14
 -1       504 7.66951E-03-9.65760E-04-4.60724E-14
 -1       505 8.03455E-03-8.34054E-04-5.00708E-14
 -1       506 8.39206E-03-7.29479E-04-5.42224E-14
 -1       507 8.73589E-03-6.59485E-04-5.85213E-14
 -1       508 9.06574E-03-6.20814E-04-6.29553E-14
 -1       509 9.38416E-03-6.06821E-04-6.75163E-14
 -1       510 9.69415E-03-6.10801E-04-7.21940E-14
 -1       511 9.99810E-03-6.27101E-04-7.69810E-14
 -1       512 1.02977E-02-6.51335E-04-8.18751E-14
 -1       513 1.05941E-02-6.80273E-04-8.68657E-14
 -1       514 1.08881E-02-7.11648E-04-9.19540E-14
 -1       515 1.11802E-02-7.43935E-04-9.71320E-14
 -1       516 1.14708E-02-7.76161E-04-1.02391E-13
 -1       517 1.17601E-02-8.07751E-04-1.07745E-13
 -1       518 1.20486E-02-8.38405E-04-1.13185E-13
 -1       519 1.23363E-02-8.68004E-04-1.18701E-13
 -1       520 1.26234E-02-8.96548E-04-1.24305E-13
 -1       521 1.29101E-02-9.24107E-04-1.29989E-13
 -1       522 1.31965E-02-9.50789E-04-1.35740E-13
 -1       523 1.34827E-02-9.76721E-04-1.41552E-13
 -1       524 1.37687E-02-1.00203E-03-1.47411E-13
 -1       525 1.40545E-02-1.02685E-03-1.53314E-13
 -1       526 1.43403E-02-1.05130E-03-1.59246E-13
 -1       527 8.79335E-03-9.15095E-05-4.95994E-14
 -1       528 1.79429E-03 4.45855E-04-2.62673E-15
 -1       529 2.08092E-03 4.59102E-04-3.57870E-15
 -1       530 2.36889E-03 4.65037E-04-4.68046E-15
 -1       531 2.65892E-03 4.66171E-04-5.93120E-15
 -1       532 2.95170E-03 4.64928E-04-7.33232E-15
 -1       533 3.24791E-03 4.63863E-04-8.88241E-15
 -1       534 3.54823E-03 4.65856E-04-1.05798E-14
 -1       535 3.85342E-03 4.74254E-04-1.24244E-14
 -1       536 4.16426E-03 4.92895E-04-1.44184E-14
 -1       537 4.48143E-03 5.25889E-04-1.65621E-14
 -1       538 4.80515E-03 5.76940E-04-1.88574E-14
 -1       539 5.13459E-03 6.47966E-04-2.13056E-14
 -1       540 5.46705E-03 7.36729E-04-2.39119E-14
 -1       541 5.79779E-03 8.33809E-04-2.66822E-14
 -1       542 6.12166E-03 9.21026E-04-2.96270E-14
 -1       543 6.43640E-03 9.74450E-04-3.27532E-14
 -1       544 6.74586E-03 9.74315E-04-3.60657E-14
 -1       545 7.05778E-03 9.16801E-04-3.95639E-14
 -1       546 7.37814E-03 8.16252E-04-4.32397E-14
 -1       547 7.70703E-03 6.96437E-04-4.70876E-14
 -1       548 8.03999E-03 5.78620E-04-5.10968E-14
 -1       549 8.37182E-03 4.75731E-04-5.52538E-14
 -1       550 8.69900E-03 3.92592E-04-5.95527E-14
 -1       551 9.02008E-03 3.28737E-04-6.39899E-14
 -1       552 9.33501E-03 2.81123E-04-6.85543E-14
 -1       553 9.64438E-03 2.45943E-04-7.32366E-14
 -1       554 9.94899E-03 2.19569E-04-7.80308E-14
 -1       555 1.02496E-02 1.98969E-04-8.29286E-14
 -1       556 1.05470E-02 1.81795E-04-8.79285E-14
 -1       557 1.08418E-02 1.66346E-04-9.30321E-14
 -1       558 1.11343E-02 1.51453E-04-9.82317E-14
 -1       559 1.14252E-02 1.36364E-04-1.03526E-13
 -1       560 1.17147E-02 1.20637E-04-1.08906E-13
 -1       561 1.20032E-02 1.04046E-04-1.14360E-13
 -1       562 1.22908E-02 8.65122E-05-1.19890E-13
 -1       563 1.25779E-02 6.80533E-05-1.25487E-13
 -1       564 1.28645E-02 4.87423E-05-1.31134E-13
 -1       565 1.31508E-02 2.86838E-05-1.36837E-13
 -1       566 1.34368E-02 7.99571E-06-1.42587E-13
 -1       567 1.37227E-02-1.32010E-05-1.48390E-13
 -1       568 1.40086E-02-3.47882E-05-1.54232E-13
 -1       569 1.42943E-02-5.66511E-05-1.60105E-13
 -1       570 1.43817E-02-3.30867E-04-1.61596E-13
 -1       571 1.44040E-02-4.14833E-04-1.61939E-13
 -1       572 1.43380E-02-1.64116E-04-1.60900E-13
 -1       573 1.43597E-02-2.47534E-04-1.61250E-13
 -1       574 1.44264E-02-4.98737E-04-1.62282E-13
 -1       575 1.44490E-02-5.82607E-04-1.62621E-13
 -1       576 1.44718E-02-6.66477E-04-1.62955E-13
 -1       577 1.44943E-02-7.48960E-04-1.63267E-13
 -1       578 1.45173E-02-8.32927E-04-1.63563E-13
 -1       579 1.45405E-02-9.16976E-04-1.63844E-13
 -1       580 1.45640E-02-1.00111E-03-1.64110E-13
 -1       581 8.97901E-03-1.95153E-04-5.09382E-14
 -1       582 1.50815E-03 4.22469E-04-1.82392E-15
 -1       583 8.46022E-03 3.57250E-05-4.78379E-14
 -1       584 8.56557E-03-3.46026E-04-4.86780E-14
 -1       585 8.07144E-03 2.19512E-04-4.57107E-14
 -1       586 7.33357E-03-9.82897E-04-4.15854E-14
 -1       587 5.49320E-03 3.71241E-04-2.81332E-14
 -1       588 6.60876E-04-3.35983E-05-5.98788E-16
 -1       589 6.68872E-03 8.41963E-04-3.58549E-14
 -1       590 4.51215E-03-5.13451E-05-2.52176E-14
 -1       591 6.94041E-03 7.95718E-04-3.80262E-14
 -1       592 6.30411E-03 7.73741E-04-3.27627E-14
 -1       593 5.91760E-03 5.94605E-04-3.03693E-14
 -1       594 5.09165E-03 1.72336E-04-2.66849E-14
 -1       595 4.76748E-03 3.74481E-05-2.58478E-14
 -1       596 4.46129E-03-8.74134E-05-2.53025E-14
 -1       597 4.55912E-03-1.34502E-04-2.57613E-14
 -1       598 4.82556E-03-2.30400E-04-2.64331E-14
 -1       599 5.18257E-03-3.86623E-04-2.74827E-14
 -1       600 5.61745E-03-6.16938E-04-2.93666E-14
 -1       601 5.99283E-03-8.32798E-04-3.12847E-14
 -1       602 6.31579E-03-1.00148E-03-3.33423E-14
 -1       603 7.08764E-03-1.08060E-03-3.95339E-14
 -1       604 8.21485E-03-5.06757E-04-4.70855E-14
 -1       605 8.95146E-03-1.45345E-04-5.03312E-14
 -1       606 8.87447E-03-2.32658E-04-5.04189E-14
 -1       607 7.14657E-04-2.40696E-04-5.18357E-16
 -1       608 7.05553E-04 2.80310E-04-3.53579E-16
 -1       609 7.71812E-03 4.10910E-04-4.35681E-14
 -1       610 6.77060E-04-1.50337E-04-5.66607E-16
 -1       611 6.52840E-03-1.09197E-03-3.47247E-14
 -1       612 1.45340E-02-1.06935E-03-1.63274E-13
 -1       613 9.03777E-03-1.76366E-04-5.25199E-14
 -1       614 4.57590E-03-1.22082E-05-2.43725E-14
 -1       615 6.90207E-03-1.13233E-03-3.79817E-14
 -1       616 7.56827E-03-8.78277E-04-4.37676E-14
 -1       617 6.93239E-04-1.92214E-04-5.49006E-16
 -1       618 8.95158E-04 6.77608E-05-1.00186E-15
 -1       619 8.92129E-04 2.28712E-05-1.02079E-15
 -1       620 9.10959E-04 1.65633E-04-9.30550E-16
 -1       621 9.25364E-04 2.22343E-04-8.72186E-16
 -1       622 1.05169E-03 2.96438E-04-9.97856E-16
 -1       623 8.29435E-03 1.18296E-04-4.84551E-14
 -1       624 7.23182E-03-1.06855E-03-4.12071E-14
 -1       625 1.33847E-03 3.37846E-04-1.60208E-15
 -1       626 8.94136E-03-1.30682E-04-5.24900E-14
 -1       627 9.52450E-04-2.54510E-04-9.70483E-16
 -1       628 1.38599E-03-3.12208E-04-1.97310E-15
 -1       629 1.67268E-03-3.35866E-04-2.82343E-15
 -1       630 1.95948E-03-3.49532E-04-3.82705E-15
 -1       631 2.24622E-03-3.55517E-04-4.98253E-15
 -1       632 2.53293E-03-3.55958E-04-6.28992E-15
 -1       633 2.81975E-03-3.52906E-04-7.74875E-15
 -1       634 3.10693E-03-3.48472E-04-9.35618E-15
 -1       635 3.39495E-03-3.45009E-04-1.11124E-14
 -1       636 3.68469E-03-3.45325E-04-1.30175E-14
 -1       637 3.97778E-03-3.52924E-04-1.50668E-14
 -1       638 4.27703E-03-3.72344E-04-1.72579E-14
 -1       639 4.58678E-03-4.09617E-04-1.95952E-14
 -1       640 4.91292E-03-4.72912E-04-2.20776E-14
 -1       641 5.26226E-03-5.71889E-04-2.47046E-14
 -1       642 5.63528E-03-7.15488E-04-2.74838E-14
 -1       643 6.02373E-03-8.95937E-04-3.04276E-14
 -1       644 7.61420E-03-9.16811E-04-4.49826E-14
 -1       645 7.99795E-03-7.66963E-04-4.89390E-14
 -1       646 8.36536E-03-6.54593E-04-5.30521E-14
 -1       647 8.71004E-03-5.84279E-04-5.73088E-14
 -1       648 9.03414E-03-5.47715E-04-6.16988E-14
 -1       649 9.34345E-03-5.35640E-04-6.62150E-14
 -1       650 9.64330E-03-5.40660E-04-7.08491E-14
 -1       651 9.93753E-03-5.57254E-04-7.55953E-14
 -1       652 1.02286E-02-5.81354E-04-8.04494E-14
 -1       653 1.05178E-02-6.10002E-04-8.54008E-14
 -1       654 1.08060E-02-6.41089E-04-9.04512E-14
 -1       655 1.10936E-02-6.73161E-04-9.55931E-14
 -1       656 1.13808E-02-7.05264E-04-1.00822E-13
 -1       657 1.16676E-02-7.36813E-04-1.06143E-13
 -1       658 1.19542E-02-7.67486E-04-1.11555E-13
 -1       659 1.22406E-02-7.97145E-04-1.17045E-13
 -1       660 1.25269E-02-8.25771E-04-1.22614E-13
 -1       661 1.28130E-02-8.53420E-04-1.28267E-13
 -1       662 1.30990E-02-8.80191E-04-1.33989E-13
 -1       663 1.33849E-02-9.06202E-04-1.39773E-13
 -1       664 1.36708E-02-9.31579E-04-1.45606E-13
 -1       665 1.39566E-02-9.56448E-04-1.51488E-13
 -1       666 1.42424E-02-9.80926E-04-1.57405E-13
 -1       667 5.37971E-03-5.02910E-04-2.73600E-14
 -1       668 5.78677E-03-7.31186E-04-2.94251E-14
 -1       669 1.91277E-03 3.82188E-04-3.25166E-15
 -1       670 2.77770E-03 3.91876E-04-6.83418E-15
 -1       671 3.06860E-03 3.89218E-04-8.32572E-15
 -1       672 3.36186E-03 3.87550E-04-9.96355E-15
 -1       673 3.65850E-03 3.89681E-04-1.17473E-14
 -1       674 3.95990E-03 3.98945E-04-1.36787E-14
 -1       675 4.26790E-03 4.19281E-04-1.57583E-14
 -1       676 4.58459E-03 4.55149E-04-1.79861E-14
 -1       677 4.91174E-03 5.10965E-04-2.03595E-14
 -1       678 5.24943E-03 5.89648E-04-2.28856E-14
 -1       679 5.59416E-03 6.89080E-04-2.55698E-14
 -1       680 5.93829E-03 7.96801E-04-2.84227E-14
 -1       681 6.27416E-03 8.86149E-04-3.14553E-14
 -1       682 6.59863E-03 9.23850E-04-3.46760E-14
 -1       683 6.92117E-03 8.90027E-04-3.80857E-14
 -1       684 7.25198E-03 7.93700E-04-4.16822E-14
 -1       685 7.59373E-03 6.65472E-04-4.54572E-14
 -1       686 7.93953E-03 5.36438E-04-4.94017E-14
 -1       687 8.28096E-03 4.24634E-04-5.34956E-14
 -1       688 8.61281E-03 3.35660E-04-5.77328E-14
 -1       689 8.93399E-03 2.68202E-04-6.21051E-14
 -1       690 9.24577E-03 2.18296E-04-6.66082E-14
 -1       691 9.55025E-03 1.81589E-04-7.12359E-14
 -1       692 9.84940E-03 1.54201E-04-7.59776E-14
 -1       693 1.01448E-02 1.32983E-04-8.08249E-14
 -1       694 1.04375E-02 1.15517E-04-8.57749E-14
 -1       695 1.07284E-02 1.00035E-04-9.08245E-14
 -1       696 1.10179E-02 8.53006E-05-9.59751E-14
 -1       697 1.13064E-02 7.04981E-05-1.01219E-13
 -1       698 1.15942E-02 5.51291E-05-1.06549E-13
 -1       699 1.18814E-02 3.89246E-05-1.11964E-13
 -1       700 1.21682E-02 2.17746E-05-1.17458E-13
 -1       701 1.24547E-02 3.67411E-06-1.23019E-13
 -1       702 1.27410E-02-1.53169E-05-1.28633E-13
 -1       703 1.30271E-02-3.51015E-05-1.34302E-13
 -1       704 1.33131E-02-5.55649E-05-1.40021E-13
 -1       705 1.35989E-02-7.65865E-05-1.45795E-13
 -1       706 1.38848E-02-9.80489E-05-1.51623E-13
 -1       707 1.41114E-02-1.30998E-04-1.56253E-13
 -1       708 8.76696E-03-2.89608E-04-5.15364E-14
 -1       709 1.41905E-02-5.20830E-04-1.57343E-13
 -1       710 1.44032E-02-9.91055E-04-1.60754E-13
 -1       711 1.41455E-02-3.53475E-04-1.56667E-13
 -1       712 1.42132E-02-6.04445E-04-1.57670E-13
 -1       713 1.41679E-02-4.37190E-04-1.57007E-13
 -1       714 1.42355E-02-6.86668E-04-1.57982E-13
 -1       715 1.42584E-02-7.70383E-04-1.58286E-13
 -1       716 1.42815E-02-8.54211E-04-1.58572E-13
 -1       717 1.62556E-03 3.65480E-04-2.35321E-15
 -1       718 4.44925E-03-1.02708E-04-2.42162E-14
 -1       719 8.99474E-03-2.20489E-04-5.32492E-14
 -1       720 6.15567E-03-9.42349E-04-3.16961E-14
 -1       721 6.86072E-03 8.40505E-04-3.74595E-14
 -1       722 2.48845E-03 3.93084E-04-5.49065E-15
 -1       723 2.20028E-03 3.90597E-04-4.29740E-15
 -1       724 1.16877E-03-2.87562E-04-1.42738E-15
 -1       725 9.01269E-04 1.14762E-04-9.72411E-16
 -1       726 8.45556E-03-4.17188E-04-4.98820E-14
 -1       727 7.53733E-03 5.23101E-04-4.32389E-14
 -1       728 9.00791E-04-1.12548E-04-1.02077E-15
 -1       729 6.07313E-03 7.00268E-04-3.07220E-14
 -1       730 8.03567E-03-6.34116E-04-4.75073E-14
 -1       731 4.61769E-03-1.62382E-04-2.46440E-14
 -1       732 5.69285E-03 5.16504E-04-2.82120E-14
 -1       733 4.84582E-03 9.91889E-05-2.47222E-14
 -1       734 7.90573E-03 3.15367E-04-4.58694E-14
 -1       735 4.40738E-03-6.63912E-05-2.36374E-14
 -1       736 4.92548E-03-2.85807E-04-2.54429E-14
 -1       737 8.67345E-03-4.14863E-05-5.07372E-14
 -1       738 5.21923E-03 2.74634E-04-2.58999E-14
 -1       739 7.18988E-03 7.14894E-04-4.05067E-14
 -1       740 6.46649E-03 8.43638E-04-3.37447E-14
 -1       741 9.10270E-04-1.63091E-04-9.99492E-16
 -1       742 8.92033E-04-2.12119E-05-1.03027E-15
 -1       743 6.24422E-03 8.06297E-04-3.16434E-14
 -1       744 5.09235E-03-3.89665E-04-2.53110E-14
 -1       745 6.41289E-03-1.07074E-03-3.35513E-14
 -1       746 1.41234E-02-2.70360E-04-1.56328E-13
 -1       747 1.41173E-02-2.00729E-04-1.56295E-13
 -1       748 1.43048E-02-9.38171E-04-1.58838E-13
 -1       749 9.09672E-03-1.99694E-04-5.48573E-14
 -1       750 4.41473E-03-3.53231E-05-2.28176E-14
 -1       751 8.94864E-04-6.57868E-05-1.03044E-15
 -1       752 8.56591E-03 3.97293E-05-5.20258E-14
 -1       753 1.16114E-03 2.25580E-04-1.39942E-15
 -1       754 1.79379E-03-2.76864E-04-3.38056E-15
 -1       755 2.07889E-03-2.85285E-04-4.46661E-15
 -1       756 2.36324E-03-2.87865E-04-5.70236E-15
 -1       757 2.64641E-03-2.86342E-04-7.08808E-15
 -1       758 2.92818E-03-2.82437E-04-8.62167E-15
 -1       759 3.20850E-03-2.77939E-04-1.03022E-14
 -1       760 3.48765E-03-2.74822E-04-1.21295E-14
 -1       761 3.76648E-03-2.75381E-04-1.41029E-14
 -1       762 4.04688E-03-2.82465E-04-1.62170E-14
 -1       763 4.33247E-03-2.99993E-04-1.84744E-14
 -1       764 4.62960E-03-3.34176E-04-2.08749E-14
 -1       765 5.32309E-03-5.22302E-04-2.60946E-14
 -1       766 8.30307E-03-5.72690E-04-5.09549E-14
 -1       767 8.64865E-03-4.97755E-04-5.51449E-14
 -1       768 8.96391E-03-4.63081E-04-5.94664E-14
 -1       769 9.26045E-03-4.53410E-04-6.39131E-14
 -1       770 9.54655E-03-4.59578E-04-6.84764E-14
 -1       771 9.82777E-03-4.76080E-04-7.31554E-14
 -1       772 1.01073E-02-4.99355E-04-7.79421E-14
 -1       773 1.03868E-02-5.26914E-04-8.28323E-14
 -1       774 1.06671E-02-5.56951E-04-8.78234E-14
 -1       775 1.09483E-02-5.88158E-04-9.29084E-14
 -1       776 1.12305E-02-6.19623E-04-9.80837E-14
 -1       777 1.15136E-02-6.50747E-04-1.03351E-13
 -1       778 1.17973E-02-6.81169E-04-1.08711E-13
 -1       779 1.20816E-02-7.10709E-04-1.14156E-13
 -1       780 1.23664E-02-7.39307E-04-1.19683E-13
 -1       781 1.26514E-02-7.66986E-04-1.25282E-13
 -1       782 1.29367E-02-7.93817E-04-1.30955E-13
 -1       783 1.32221E-02-8.19902E-04-1.36696E-13
 -1       784 1.35077E-02-8.45352E-04-1.42493E-13
 -1       785 1.37933E-02-8.70280E-04-1.48340E-13
 -1       786 4.33053E-03-8.30175E-05-2.22541E-14
 -1       787 2.03251E-03 3.17524E-04-3.90560E-15
 -1       788 2.89163E-03 3.18506E-04-7.76035E-15
 -1       789 3.75848E-03 3.13799E-04-1.29331E-14
 -1       790 4.05490E-03 3.22423E-04-1.49500E-14
 -1       791 4.35951E-03 3.42230E-04-1.71128E-14
 -1       792 4.67627E-03 3.78477E-04-1.94179E-14
 -1       793 5.00900E-03 4.37767E-04-2.18683E-14
 -1       794 5.35919E-03 5.26175E-04-2.44693E-14
 -1       795 5.72123E-03 6.42375E-04-2.72297E-14
 -1       796 7.47249E-03 6.47516E-04-4.37997E-14
 -1       797 7.83509E-03 5.00596E-04-4.76773E-14
 -1       798 8.19018E-03 3.76210E-04-5.17113E-14
 -1       799 8.52981E-03 2.81146E-04-5.58882E-14
 -1       800 8.85290E-03 2.11527E-04-6.02002E-14
 -1       801 9.16239E-03 1.61087E-04-6.46434E-14
 -1       802 9.46215E-03 1.24249E-04-6.92138E-14
 -1       803 9.75555E-03 9.67064E-05-7.39020E-14
 -1       804 1.00451E-02 7.52526E-05-7.86993E-14
 -1       805 1.03324E-02 5.75346E-05-8.35974E-14
 -1       806 1.06186E-02 4.18513E-05-8.85982E-14
 -1       807 1.09042E-02 2.70032E-05-9.36973E-14
 -1       808 1.11896E-02 1.21809E-05-9.88913E-14
 -1       809 1.14749E-02-3.12692E-06-1.04178E-13
 -1       810 1.17603E-02-1.92104E-05-1.09548E-13
 -1       811 1.20458E-02-3.62019E-05-1.15005E-13
 -1       812 1.23313E-02-5.41266E-05-1.20531E-13
 -1       813 1.26169E-02-7.29408E-05-1.26117E-13
 -1       814 1.29025E-02-9.25595E-05-1.31752E-13
 -1       815 1.31882E-02-1.12877E-04-1.37439E-13
 -1       816 1.34739E-02-1.33778E-04-1.43183E-13
 -1       817 1.37596E-02-1.55150E-04-1.48986E-13
 -1       818 1.39385E-02-1.77874E-04-1.52635E-13
 -1       819 1.39772E-02-6.25281E-04-1.52729E-13
 -1       820 1.40000E-02-7.08673E-04-1.53033E-13
 -1       821 1.39545E-02-5.41963E-04-1.52416E-13
 -1       822 4.57479E-03 3.94126E-05-2.28071E-14
 -1       823 4.65165E-03-2.09974E-04-2.33464E-14
 -1       824 2.60520E-03 3.21533E-04-6.32698E-15
 -1       825 3.46712E-03 3.12281E-04-1.10632E-14
 -1       826 3.17865E-03 3.14701E-04-9.33902E-15
 -1       827 7.76534E-03 4.26650E-04-4.57397E-14
 -1       828 8.94608E-03-2.69752E-04-5.45377E-14
 -1       829 1.24787E-03 2.79788E-04-1.50636E-15
 -1       830 4.90440E-03 1.93596E-04-2.35608E-14
 -1       831 8.88324E-03-8.74404E-05-5.39481E-14
 -1       832 1.50854E-03-2.60832E-04-2.44510E-15
 -1       833 2.31890E-03 3.21832E-04-5.04257E-15
 -1       834 9.29554E-04-2.06602E-04-9.90615E-16
 -1       835 7.44346E-03 6.14356E-04-4.31303E-14
 -1       836 8.14517E-03 2.27139E-04-4.87524E-14
 -1       837 9.08772E-03-1.64686E-04-5.49297E-14
 -1       838 5.86344E-03 6.60911E-04-2.86165E-14
 -1       839 1.40229E-02-7.92201E-04-1.53324E-13
 -1       840 8.71817E-03-3.64862E-04-5.34409E-14
 -1       841 4.43156E-03-1.27004E-04-2.26641E-14
 -1       842 5.37278E-03 4.27107E-04-2.55476E-14
 -1       843 1.12984E-03 5.32605E-05-1.54877E-15
 -1       844 7.21504E-03 7.49739E-04-4.11114E-14
 -1       845 1.12772E-03 8.99142E-07-1.56861E-15
 -1       846 1.14536E-03-1.61315E-04-1.55026E-15
 -1       847 1.14618E-03 1.64133E-04-1.46638E-15
 -1       848 1.38871E-02-2.92783E-04-1.51421E-13
 -1       849 1.13592E-03 1.07133E-04-1.51503E-15
 -1       850 1.13536E-03-1.04811E-04-1.57029E-15
 -1       851 4.28319E-03-5.64537E-05-2.14671E-14
 -1       852 1.40789E-02-8.94800E-04-1.54227E-13
 -1       853 1.74603E-03 3.06685E-04-2.91443E-15
 -1       854 1.39319E-02-4.58644E-04-1.52092E-13
 -1       855 1.39095E-02-3.75781E-04-1.51761E-13
 -1       856 1.49682E-03 2.97630E-04-2.15230E-15
 -1       857 1.14372E-03-2.35319E-04-1.45239E-15
 -1       858 9.07829E-03-1.34449E-04-5.64174E-14
 -1       859 9.09184E-03-2.36580E-04-5.61707E-14
 -1       860 2.19882E-03-2.21609E-04-5.12380E-15
 -1       861 2.47951E-03-2.21953E-04-6.43716E-15
 -1       862 2.75773E-03-2.19537E-04-7.89712E-15
 -1       863 3.03287E-03-2.15711E-04-9.50277E-15
 -1       864 3.30451E-03-2.11846E-04-1.12538E-14
 -1       865 3.57251E-03-2.09373E-04-1.31500E-14
 -1       866 3.83725E-03-2.09841E-04-1.51890E-14
 -1       867 4.10003E-03-2.15091E-04-1.73684E-14
 -1       868 4.36441E-03-2.28260E-04-1.96895E-14
 -1       869 7.79302E-03 4.63796E-04-4.67131E-14
 -1       870 4.41648E-03-1.66647E-04-2.13581E-14
 -1       871 8.92639E-03-3.74974E-04-5.72435E-14
 -1       872 9.19997E-03-3.72167E-04-6.16209E-14
 -1       873 9.46596E-03-3.82048E-04-6.61174E-14
 -1       874 9.73016E-03-3.99816E-04-7.07291E-14
 -1       875 9.99564E-03-4.22713E-04-7.54493E-14
 -1       876 1.02637E-02-4.49055E-04-8.02772E-14
 -1       877 1.05346E-02-4.77587E-04-8.52063E-14
 -1       878 1.08084E-02-5.07319E-04-9.02352E-14
 -1       879 1.10847E-02-5.37494E-04-9.53561E-14
 -1       880 1.13631E-02-5.67563E-04-1.00572E-13
 -1       881 1.16433E-02-5.97167E-04-1.05880E-13
 -1       882 1.19249E-02-6.26096E-04-1.11276E-13
 -1       883 1.22076E-02-6.54253E-04-1.16758E-13
 -1       884 1.24912E-02-6.81624E-04-1.22312E-13
 -1       885 1.27754E-02-7.08248E-04-1.27937E-13
 -1       886 1.30601E-02-7.34197E-04-1.33628E-13
 -1       887 1.33451E-02-7.59558E-04-1.39385E-13
 -1       888 1.36304E-02-7.84429E-04-1.45194E-13
 -1       889 2.15286E-03 2.52612E-04-4.58813E-15
 -1       890 3.84804E-03 2.37950E-04-1.41364E-14
 -1       891 4.74897E-03 2.93265E-04-2.08584E-14
 -1       892 8.79558E-03 1.41315E-04-5.83253E-14
 -1       893 9.09974E-03 9.41014E-05-6.27112E-14
 -1       894 9.39176E-03 6.01405E-05-6.72245E-14
 -1       895 9.67673E-03 3.44683E-05-7.18590E-14
 -1       896 9.95812E-03 1.39295E-05-7.66028E-14
 -1       897 1.02381E-02-3.54542E-06-8.14525E-14
 -1       898 1.05179E-02-1.93689E-05-8.64015E-14
 -1       899 1.07981E-02-3.45291E-05-9.14520E-14
 -1       900 1.10792E-02-4.97044E-05-9.66002E-14
 -1       901 1.13611E-02-6.53353E-05-1.01841E-13
 -1       902 1.16437E-02-8.16803E-05-1.07167E-13
 -1       903 1.19272E-02-9.88651E-05-1.12580E-13
 -1       904 1.22112E-02-1.16920E-04-1.18073E-13
 -1       905 1.24956E-02-1.35814E-04-1.23631E-13
 -1       906 1.27805E-02-1.55474E-04-1.29241E-13
 -1       907 1.30656E-02-1.75809E-04-1.34897E-13
 -1       908 1.33509E-02-1.96718E-04-1.40607E-13
 -1       909 1.36364E-02-2.18088E-04-1.46383E-13
 -1       910 1.39127E-02-2.35397E-04-1.52027E-13
 -1       911 1.37416E-02-6.46448E-04-1.47812E-13
 -1       912 1.37190E-02-5.63464E-04-1.47509E-13
 -1       913 4.36311E-03 3.78660E-06-2.12537E-14
 -1       914 8.14028E-03 2.82680E-04-4.97647E-14
 -1       915 4.77554E-03-2.75230E-04-2.34317E-14
 -1       916 8.87306E-03-2.42570E-05-5.62139E-14
 -1       917 3.56429E-03 2.38267E-04-1.21821E-14
 -1       918 2.43669E-03 2.53662E-04-5.81516E-15
 -1       919 1.40861E-03 2.43148E-04-2.02353E-15
 -1       920 8.53333E-03 1.00114E-04-5.30777E-14
 -1       921 1.63321E-03-2.07213E-04-2.94279E-15
 -1       922 2.71951E-03 2.51245E-04-7.18884E-15
 -1       923 9.21903E-03-1.93336E-04-5.80268E-14
 -1       924 4.43488E-03 2.60367E-04-1.84769E-14
 -1       925 4.13679E-03 2.43826E-04-1.62359E-14
 -1       926 1.12955E-03-5.12734E-05-1.57617E-15
 -1       927 1.91640E-03-2.17155E-04-3.95900E-15
 -1       928 8.96689E-03-3.28270E-04-5.67825E-14
 -1       929 1.37643E-02-7.29577E-04-1.48100E-13
 -1       930 4.55341E-03 1.22808E-04-2.11139E-14
 -1       931 4.27136E-03-1.02997E-04-2.09352E-14
 -1       932 4.98793E-03 3.32781E-04-2.26688E-14
 -1       933 4.50909E-03-2.15402E-04-2.14387E-14
 -1       934 1.38138E-03-1.54655E-04-2.20774E-15
 -1       935 1.37262E-03 8.93185E-05-2.17478E-15
 -1       936 1.36748E-03 3.00429E-05-2.20945E-15
 -1       937 9.25971E-03-2.26830E-04-5.93748E-14
 -1       938 8.15888E-03 3.31311E-04-5.07416E-14
 -1       939 4.18830E-03-7.39616E-05-2.01814E-14
 -1       940 1.86831E-03 2.46638E-04-3.50688E-15
 -1       941 3.00137E-03 2.46825E-04-8.70838E-15
 -1       942 1.36963E-02-4.80533E-04-1.47197E-13
 -1       943 9.09247E-03-8.48961E-05-5.87338E-14
 -1       944 9.25839E-03-1.68300E-04-5.95540E-14
 -1       945 3.28264E-03 2.41927E-04-1.03728E-14
 -1       946 8.47268E-03 2.09924E-04-5.40665E-14
 -1       947 9.12798E-03-2.86064E-04-5.84491E-14
 -1       948 1.36512E-02-3.15203E-04-1.46546E-13
 -1       949 1.38265E-03 1.50788E-04-2.12192E-15
 -1       950 2.04081E-03-1.57236E-04-4.55597E-15
 -1       951 2.59635E-03-1.58467E-04-7.18279E-15
 -1       952 2.86881E-03-1.56266E-04-8.71502E-15
 -1       953 3.13641E-03-1.53486E-04-1.03906E-14
 -1       954 3.39819E-03-1.51054E-04-1.22094E-14
 -1       955 3.65322E-03-1.49823E-04-1.41719E-14
 -1       956 3.90066E-03-1.50628E-04-1.62761E-14
 -1       957 4.13979E-03-1.54305E-04-1.85208E-14
 -1       958 1.36725E-03-2.82073E-05-2.22796E-15
 -1       959 9.39934E-03-3.10618E-04-6.37696E-14
 -1       960 9.64126E-03-3.29852E-04-6.83140E-14
 -1       961 9.89002E-03-3.52265E-04-7.29729E-14
 -1       962 1.01452E-02-3.77035E-04-7.77352E-14
 -1       963 1.04060E-02-4.03536E-04-8.26030E-14
 -1       964 1.06717E-02-4.31175E-04-8.75714E-14
 -1       965 1.09417E-02-4.59407E-04-9.26393E-14
 -1       966 1.12151E-02-4.87783E-04-9.78046E-14
 -1       967 1.14913E-02-5.15971E-04-1.03060E-13
 -1       968 1.17699E-02-5.43753E-04-1.08407E-13
 -1       969 1.20503E-02-5.71005E-04-1.13840E-13
 -1       970 1.23321E-02-5.97677E-04-1.19353E-13
 -1       971 1.26150E-02-6.23768E-04-1.24931E-13
 -1       972 1.28987E-02-6.49317E-04-1.30577E-13
 -1       973 1.31831E-02-6.74384E-04-1.36288E-13
 -1       974 1.34679E-02-6.99033E-04-1.42054E-13
 -1       975 2.27392E-03 1.88081E-04-5.29951E-15
 -1       976 9.60848E-03-2.59321E-05-6.98168E-14
 -1       977 9.33566E-03-3.97138E-06-6.52384E-14
 -1       978 9.05683E-03 2.42624E-05-6.07795E-14
 -1       979 9.87921E-03-4.45003E-05-7.45074E-14
 -1       980 1.01501E-02-6.12698E-05-7.93063E-14
 -1       981 1.04223E-02-7.71639E-05-8.42048E-14
 -1       982 1.06962E-02-9.28177E-05-8.92064E-14
 -1       983 1.09722E-02-1.08669E-04-9.43101E-14
 -1       984 1.12500E-02-1.25013E-04-9.95061E-14
 -1       985 1.15294E-02-1.42024E-04-1.04792E-13
 -1       986 1.18103E-02-1.59787E-04-1.10164E-13
 -1       987 1.20924E-02-1.78320E-04-1.15615E-13
 -1       988 1.23755E-02-1.97594E-04-1.21141E-13
 -1       989 1.26593E-02-2.17548E-04-1.26728E-13
 -1       990 1.29437E-02-2.38103E-04-1.32363E-13
 -1       991 1.32285E-02-2.59172E-04-1.38044E-13
 -1       992 1.36737E-02-3.97812E-04-1.46877E-13
 -1       993 1.34836E-02-5.84519E-04-1.42632E-13
 -1       994 1.63852E-03 2.47937E-04-2.71495E-15
 -1       995 4.17934E-03-2.26005E-05-1.97212E-14
 -1       996 2.55411E-03 1.86797E-04-6.61390E-15
 -1       997 4.19307E-03-1.33807E-04-1.93971E-14
 -1       998 3.65379E-03 1.66131E-04-1.33183E-14
 -1       999 1.76000E-03-1.51874E-04-3.46325E-15
 -1      1000 4.26113E-03 6.10691E-05-1.92825E-14
 -1      1001 1.37202E-03-8.70902E-05-2.23003E-15
 -1      1002 2.31999E-03-1.59123E-04-5.79627E-15
 -1      1003 9.09843E-03-3.24127E-04-5.89234E-14
 -1      1004 8.82067E-03 5.78065E-05-5.72802E-14
 -1      1005 1.99213E-03 1.85804E-04-4.13023E-15
 -1      1006 9.33873E-03-2.02266E-04-6.09338E-14
 -1      1007 4.08640E-03-9.93105E-05-1.86837E-14
 -1      1008 2.83218E-03 1.82960E-04-8.07331E-15
 -1      1009 3.92634E-03 1.62705E-04-1.53555E-14
 -1      1010 1.61982E-03 1.28602E-04-2.89423E-15
 -1      1011 9.06953E-03-3.25799E-05-5.97626E-14
 -1      1012 3.38154E-03 1.71572E-04-1.14256E-14
 -1      1013 1.61079E-03 6.38247E-05-2.94859E-15
 -1      1014 4.20248E-03 1.63509E-04-1.75346E-14
 -1      1015 1.34610E-02-5.02036E-04-1.42335E-13
 -1      1016 1.32513E-02-3.41162E-04-1.38369E-13
 -1      1017 1.00666E-02-1.15004E-04-7.71605E-14
 -1      1018 2.98248E-03-9.68832E-05-9.53861E-15
 -1      1019 3.24257E-03-9.61458E-05-1.12821E-14
 -1      1020 3.49447E-03-9.61455E-05-1.31675E-14
 -1      1021 3.73618E-03-9.72534E-05-1.51959E-14
 -1      1022 9.55013E-03-8.31193E-05-6.77782E-14
 -1      1023 1.33562E-02-4.21486E-04-1.40351E-13
 -1      1024 9.55396E-03-2.68119E-04-6.59106E-14
 -1      1025 9.78462E-03-2.88851E-04-7.05044E-14
 -1      1026 1.00266E-02-3.11214E-04-7.52050E-14
 -1      1027 1.02775E-02-3.34987E-04-8.00121E-14
 -1      1028 1.05355E-02-3.59899E-04-8.49216E-14
 -1      1029 1.07993E-02-3.85571E-04-8.99313E-14
 -1      1030 1.10678E-02-4.11653E-04-9.50436E-14
 -1      1031 1.13402E-02-4.37856E-04-1.00251E-13
 -1      1032 1.16157E-02-4.63969E-04-1.05547E-13
 -1      1033 1.18937E-02-4.89843E-04-1.10933E-13
 -1      1034 1.21737E-02-5.15402E-04-1.16402E-13
 -1      1035 1.24552E-02-5.40609E-04-1.21940E-13
 -1      1036 1.27379E-02-5.65464E-04-1.27542E-13
 -1      1037 1.30215E-02-5.89996E-04-1.33208E-13
 -1      1038 1.32524E-02-5.87483E-04-1.37901E-13
 -1      1039 9.80680E-03-9.91395E-05-7.24127E-14
 -1      1040 1.03300E-02-1.31032E-04-8.20086E-14
 -1      1041 1.05970E-02-1.47418E-04-8.69618E-14
 -1      1042 1.08673E-02-1.64298E-04-9.20180E-14
 -1      1043 1.11407E-02-1.81761E-04-9.71723E-14
 -1      1044 1.14166E-02-1.99863E-04-1.02415E-13
 -1      1045 1.16948E-02-2.18618E-04-1.07747E-13
 -1      1046 1.19748E-02-2.38010E-04-1.13161E-13
 -1      1047 1.22562E-02-2.58003E-04-1.18654E-13
 -1      1048 1.25388E-02-2.78544E-04-1.24212E-13
 -1      1049 1.28223E-02-2.99566E-04-1.29825E-13
 -1      1050 1.30367E-02-3.20235E-04-1.34083E-13
 -1      1051 2.44381E-03-9.82233E-05-6.48129E-15
 -1      1052 1.74871E-03-8.53244E-05-3.47577E-15
 -1      1053 2.71577E-03-9.77876E-05-7.93807E-15
 -1      1054 3.10793E-03 1.77553E-04-9.67733E-15
 -1      1055 4.00476E-03 7.85701E-05-1.68039E-14
 -1      1056 3.95764E-03-3.25446E-06-1.72232E-14
 -1      1057 4.00133E-03-5.28026E-05-1.79627E-14
 -1      1058 2.16792E-03-9.75169E-05-5.16928E-15
 -1      1059 9.34071E-03-1.36467E-04-6.23794E-14
 -1      1060 2.39641E-03 1.24492E-04-6.03735E-15
 -1      1061 1.60757E-03 7.46278E-07-2.98218E-15
 -1      1062 9.31310E-03-6.01809E-05-6.37238E-14
 -1      1063 2.11788E-03 1.24711E-04-4.78231E-15
 -1      1064 9.44876E-03-1.77358E-04-6.38015E-14
 -1      1065 1.87263E-03 1.96328E-04-3.64954E-15
 -1      1066 1.32300E-02-5.05517E-04-1.37619E-13
 -1      1067 9.32789E-03-1.00895E-04-6.30567E-14
 -1      1068 2.67224E-03 1.21871E-04-7.43608E-15
 -1      1069 3.47694E-03 1.04668E-04-1.24961E-14
 -1      1070 1.85717E-03 1.00068E-04-3.78187E-15
 -1      1071 3.73674E-03 9.72751E-05-1.44705E-14
 -1      1072 9.34610E-03-2.74908E-04-6.21098E-14
 -1      1073 3.35649E-03-4.32838E-05-1.21751E-14
 -1      1074 3.60045E-03-4.66923E-05-1.41256E-14
 -1      1075 1.07629E-02-2.16360E-04-8.97224E-14
 -1      1076 9.67023E-03-2.32346E-04-6.80452E-14
 -1      1077 9.90100E-03-2.51163E-04-7.26852E-14
 -1      1078 1.01443E-02-2.71404E-04-7.74317E-14
 -1      1079 1.03959E-02-2.93088E-04-8.22829E-14
 -1      1080 1.06547E-02-3.15716E-04-8.72358E-14
 -1      1081 1.09192E-02-3.39053E-04-9.22941E-14
 -1      1082 1.11883E-02-3.62813E-04-9.74486E-14
 -1      1083 1.14612E-02-3.86789E-04-1.02695E-13
 -1      1084 1.17371E-02-4.10868E-04-1.08032E-13
 -1      1085 1.20154E-02-4.34930E-04-1.13457E-13
 -1      1086 1.22956E-02-4.58905E-04-1.18957E-13
 -1      1087 1.25773E-02-4.82769E-04-1.24521E-13
 -1      1088 1.28602E-02-5.06510E-04-1.30142E-13
 -1      1089 1.30449E-02-5.06142E-04-1.33867E-13
 -1      1090 1.04982E-02-1.98033E-04-8.47161E-14
 -1      1091 1.10318E-02-2.35328E-04-9.48339E-14
 -1      1092 1.13043E-02-2.54977E-04-1.00038E-13
 -1      1093 1.15797E-02-2.75119E-04-1.05327E-13
 -1      1094 1.18576E-02-2.95775E-04-1.10704E-13
 -1      1095 1.21373E-02-3.16842E-04-1.16162E-13
 -1      1096 1.24187E-02-3.38281E-04-1.21692E-13
 -1      1097 1.27013E-02-3.60040E-04-1.27278E-13
 -1      1098 2.29916E-03-3.82263E-05-5.79498E-15
 -1      1099 1.84993E-03 3.34281E-05-3.83504E-15
 -1      1100 2.57222E-03-3.89944E-05-7.17539E-15
 -1      1101 2.84046E-03-3.98324E-05-8.69914E-15
 -1      1102 1.02386E-02-1.80529E-04-7.98126E-14
 -1      1103 1.97119E-03-3.32338E-05-4.34613E-15
 -1      1104 3.21292E-03 1.11505E-04-1.06660E-14
 -1      1105 3.10243E-03-4.11270E-05-1.03661E-14
 -1      1106 2.94459E-03 1.17381E-04-8.97927E-15
 -1      1107 9.54789E-03-1.46668E-04-6.64997E-14
 -1      1108 1.31416E-02-4.00052E-04-1.36043E-13
 -1      1109 3.31902E-03 4.95025E-05-1.16729E-14
 -1      1110 2.09414E-03 6.76489E-05-4.78257E-15
 -1      1111 9.98466E-03-1.63926E-04-7.50136E-14
 -1      1112 1.29151E-02-3.81117E-04-1.31519E-13
 -1      1113 3.57198E-03 4.25124E-05-1.35827E-14
 -1      1114 3.76541E-03 3.82488E-05-1.51747E-14
 -1      1115 2.52158E-03 6.23196E-05-6.79934E-15
 -1      1116 1.11909E-02-3.07289E-04-9.76504E-14
 -1      1117 9.99993E-03-2.11368E-04-7.48565E-14
 -1      1118 1.15793E-02-3.33989E-04-1.05139E-13
 -1      1119 2.24651E-03 6.37538E-05-5.46149E-15
 -1      1120 3.05890E-03 5.51097E-05-9.90532E-15
 -1      1121 9.54993E-03-1.16397E-04-6.71436E-14
 -1      1122 2.79275E-03 5.93943E-05-8.28034E-15
 -1      1123 9.73739E-03-1.48666E-04-7.03233E-14
 -1      1124 1.30139E-02-4.34627E-04-1.33394E-13
 -1      1125 0.00000E+00 0.00000E+00 0.00000E+00
 -1      1126 0.00000E+00 0.00000E+00 0.00000E+00
 -1      1127 0.00000E+00 0.00000E+00 0.00000E+00
 -1      1128 0.00000E+00 0.00000E+00 0.00000E+00
 -1      1129 0.00000E+00 0.00000E+00 0.00000E+00
 -1      1130 0.00000E+00 0.00000E+00 0.00000E+00
 -1      1131 0.00000E+00 0.00000E+00 0.00000E+00
 -1      1132 0.00000E+00 0.00000E+00 0.00000E+00
 -1      1133 0.00000E+00 0.00000E+00 0.00000E+00
 -1      1134 0.00000E+00 0.00000E+00 0.00000E+00
 -1      1135 0.00000E+00 0.00000E+00 0.00000E+00
 -1      1136 0.00000E+00 0.00000E+00 0.00000E+00
 -1      1137 0.00000E+00 0.00000E+00 0.00000E+00
 -1      1138 0.00000E+00 0.00000E+00 0.00000E+00
 -1      1139 0.00000E+00 0.00000E+00 0.00000E+00
 -1      1140 0.00000E+00 0.00000E+00 0.00000E+00
 -1      1141 0.00000E+00 0.00000E+00 0.00000E+00
 -1      1142 2.10185E-04-1.46817E-04 2.38796E-17
 -1      1143 5.48540E-04-3.32090E-04-2.93548E-17
 -1      1144 8.30191E-04-4.48853E-04-2.31884E-16
 -1      1145 1.10075E-03-5.25242E-04-6.10108E-16
 -1      1146 1.36843E-03-5.76587E-04-1.15682E-15
 -1      1147 1.63713E-03-6.10735E-04-1.87021E-15
 -1      1148 1.90923E-03-6.32364E-04-2.75089E-15
 -1      1149 2.18631E-03-6.44760E-04-3.79590E-15
 -1      1150 2.46963E-03-6.50593E-04-5.00483E-15
 -1      1151 2.76036E-03-6.52288E-04-6.37874E-15
 -1      1152 3.05973E-03-6.52309E-04-7.91615E-15
 -1      1153 3.36905E-03-6.53433E-04-9.60924E-15
 -1      1154 3.68963E-03-6.59036E-04-1.14518E-14
 -1      1155 4.02245E-03-6.73346E-04-1.34446E-14
 -1      1156 4.36769E-03-7.01573E-04-1.55870E-14
 -1      1157 4.72388E-03-7.49640E-04-1.78790E-14
 -1      1158 5.08686E-03-8.23105E-04-2.03224E-14
 -1      1159 5.44893E-03-9.24737E-04-2.29196E-14
 -1      1160 5.79904E-03-1.05069E-03-2.56757E-14
 -1      1161 6.12548E-03-1.18658E-03-2.85994E-14
 -1      1162 6.42134E-03-1.30707E-03-3.16960E-14
 -1      1163 6.69055E-03-1.38273E-03-3.49694E-14
 -1      1164 6.94924E-03-1.39325E-03-3.84259E-14
 -1      1165 7.21890E-03-1.33877E-03-4.20691E-14
 -1      1166 7.51558E-03-1.23973E-03-4.58948E-14
 -1      1167 7.84313E-03-1.12561E-03-4.98975E-14
 -1      1168 8.19460E-03-1.02168E-03-5.40602E-14
 -1      1169 8.55836E-03-9.42243E-04-5.83763E-14
 -1      1170 8.92351E-03-8.91107E-04-6.28426E-14
 -1      1171 9.28256E-03-8.65561E-04-6.74434E-14
 -1      1172 9.63159E-03-8.60214E-04-7.21684E-14
 -1      1173 9.96937E-03-8.69422E-04-7.70117E-14
 -1      1174 1.02964E-02-8.88375E-04-8.19509E-14
 -1      1175 1.06138E-02-9.13398E-04-8.69800E-14
 -1      1176 1.09233E-02-9.41861E-04-9.21033E-14
 -1      1177 1.12265E-02-9.71977E-04-9.73174E-14
 -1      1178 1.15246E-02-1.00259E-03-1.02613E-13
 -1      1179 1.18189E-02-1.03299E-03-1.07991E-13
 -1      1180 1.21104E-02-1.06277E-03-1.13447E-13
 -1      1181 1.23998E-02-1.09174E-03-1.18986E-13
 -1      1182 1.26878E-02-1.11984E-03-1.24615E-13
 -1      1183 1.29747E-02-1.14710E-03-1.30338E-13
 -1      1184 1.32610E-02-1.17359E-03-1.36145E-13
 -1      1185 1.35468E-02-1.19941E-03-1.42006E-13
 -1      1186 1.38324E-02-1.22466E-03-1.47917E-13
 -1      1187 1.41180E-02-1.24946E-03-1.53865E-13
 -1      1188 1.44035E-02-1.27392E-03-1.59833E-13
 -1      1189 1.46890E-02-1.29814E-03-1.65814E-13
 -1      1190 1.49746E-02-1.32224E-03-1.71810E-13
 -1      1191 1.52532E-02-1.34573E-03-1.77683E-13
 -1      1192 2.26821E-04 1.59096E-04 4.16876E-17
 -1      1193 5.50753E-04 3.36706E-04 2.71322E-17
 -1      1194 8.31222E-04 4.51110E-04-1.24372E-16
 -1      1195 1.10179E-03 5.27149E-04-4.31784E-16
 -1      1196 1.36948E-03 5.78684E-04-8.96717E-16
 -1      1197 1.63820E-03 6.13217E-04-1.51946E-15
 -1      1198 1.91024E-03 6.35400E-04-2.29818E-15
 -1      1199 2.18706E-03 6.48573E-04-3.22839E-15
 -1      1200 2.46976E-03 6.55465E-04-4.31254E-15
 -1      1201 2.75928E-03 6.58549E-04-5.54865E-15
 -1      1202 3.05645E-03 6.60294E-04-6.93884E-15
 -1      1203 3.36201E-03 6.63365E-04-8.48155E-15
 -1      1204 3.67644E-03 6.70784E-04-1.01740E-14
 -1      1205 3.99970E-03 6.85994E-04-1.20184E-14
 -1      1206 4.33081E-03 7.12717E-04-1.40162E-14
 -1      1207 4.66732E-03 7.54459E-04-1.61695E-14
 -1      1208 5.00491E-03 8.13454E-04-1.84808E-14
 -1      1209 5.33733E-03 8.88995E-04-2.09546E-14
 -1      1210 5.65721E-03 9.75477E-04-2.35903E-14
 -1      1211 5.95820E-03 1.06119E-03-2.63980E-14
 -1      1212 6.23797E-03 1.12945E-03-2.93808E-14
 -1      1213 6.50072E-03 1.16307E-03-3.25386E-14
 -1      1214 6.75698E-03 1.15094E-03-3.58750E-14
 -1      1215 7.01996E-03 1.09310E-03-3.93996E-14
 -1      1216 7.30022E-03 1.00070E-03-4.30970E-14
 -1      1217 7.60200E-03 8.90944E-04-4.69536E-14
 -1      1218 7.92304E-03 7.80551E-04-5.09740E-14
 -1      1219 8.25705E-03 6.81208E-04-5.51475E-14
 -1      1220 8.59680E-03 5.98532E-04-5.94692E-14
 -1      1221 8.93619E-03 5.33307E-04-6.39320E-14
 -1      1222 9.27111E-03 4.83468E-04-6.85181E-14
 -1      1223 9.59936E-03 4.45786E-04-7.32271E-14
 -1      1224 9.92022E-03 4.16935E-04-7.80467E-14
 -1      1225 1.02339E-02 3.94025E-04-8.29671E-14
 -1      1226 1.05412E-02 3.74780E-04-8.79886E-14
 -1      1227 1.08431E-02 3.57521E-04-9.31112E-14
 -1      1228 1.11406E-02 3.41084E-04-9.83430E-14
 -1      1229 1.14346E-02 3.24707E-04-1.03683E-13
 -1      1230 1.17260E-02 3.07925E-04-1.09100E-13
 -1      1231 1.20154E-02 2.90487E-04-1.14589E-13
 -1      1232 1.23033E-02 2.72288E-04-1.20147E-13
 -1      1233 1.25903E-02 2.53317E-04-1.25765E-13
 -1      1234 1.28766E-02 2.33621E-04-1.31437E-13
 -1      1235 1.31625E-02 2.13281E-04-1.37170E-13
 -1      1236 1.34481E-02 1.92395E-04-1.42946E-13
 -1      1237 1.37336E-02 1.71068E-04-1.48764E-13
 -1      1238 1.40192E-02 1.49406E-04-1.54616E-13
 -1      1239 1.43047E-02 1.27513E-04-1.60482E-13
 -1      1240 1.45903E-02 1.05498E-04-1.66353E-13
 -1      1241 1.48689E-02 8.40179E-05-1.72090E-13
 -1      1242 1.50154E-02 3.14218E-05-1.75074E-13
 -1      1243 1.50370E-02-5.28904E-05-1.75471E-13
 -1      1244 1.50586E-02-1.37266E-04-1.75867E-13
 -1      1245 1.50803E-02-2.21700E-04-1.76252E-13
 -1      1246 1.51022E-02-3.06164E-04-1.76623E-13
 -1      1247 1.51241E-02-3.89915E-04-1.76978E-13
 -1      1248 1.51461E-02-4.73652E-04-1.77340E-13
 -1      1249 1.51685E-02-5.58087E-04-1.77706E-13
 -1      1250 1.51911E-02-6.42510E-04-1.78065E-13
 -1      1251 1.52139E-02-7.26934E-04-1.78383E-13
 -1      1252 1.52368E-02-8.11373E-04-1.78673E-13
 -1      1253 1.52597E-02-8.95116E-04-1.78981E-13
 -1      1254 1.52828E-02-9.78873E-04-1.79308E-13
 -1      1255 1.53063E-02-1.06334E-03-1.79619E-13
 -1      1256 1.53299E-02-1.14778E-03-1.79911E-13
 -1      1257 1.53537E-02-1.23215E-03-1.80193E-13
 -1      1258 1.53772E-02-1.31575E-03-1.80443E-13
 -1      1259 8.94045E-03-7.74020E-05-4.46700E-14
 -1      1260 8.81798E-03 7.18223E-05-4.42025E-14
 -1      1261 8.58653E-03 2.29042E-04-4.33639E-14
 -1      1262 8.27599E-03 3.83826E-04-4.22231E-14
 -1      1263 7.92084E-03 5.23053E-04-4.08857E-14
 -1      1264 7.51700E-03 6.41723E-04-3.93251E-14
 -1      1265 7.08285E-03 7.22507E-04-3.76319E-14
 -1      1266 6.64396E-03 7.49010E-04-3.59461E-14
 -1      1267 6.19798E-03 7.16697E-04-3.42811E-14
 -1      1268 5.74520E-03 6.27145E-04-3.26710E-14
 -1      1269 5.32560E-03 4.95173E-04-3.12851E-14
 -1      1270 4.98393E-03 3.49951E-04-3.02494E-14
 -1      1271 4.72021E-03 1.98821E-04-2.95113E-14
 -1      1272 4.54912E-03 4.47172E-05-2.90802E-14
 -1      1273 4.49637E-03-1.04536E-04-2.89927E-14
 -1      1274 4.56583E-03-2.60815E-04-2.92494E-14
 -1      1275 4.75454E-03-4.23491E-04-2.98543E-14
 -1      1276 5.02842E-03-5.82206E-04-3.07245E-14
 -1      1277 5.37082E-03-7.36230E-04-3.18417E-14
 -1      1278 5.77000E-03-8.75468E-04-3.32001E-14
 -1      1279 6.19385E-03-9.77465E-04-3.47032E-14
 -1      1280 6.65325E-03-1.02782E-03-3.64020E-14
 -1      1281 7.11194E-03-1.01701E-03-3.81378E-14
 -1      1282 7.54521E-03-9.45931E-04-3.97754E-14
 -1      1283 7.99167E-03-8.17537E-04-4.14373E-14
 -1      1284 8.36974E-03-6.66675E-04-4.28014E-14
 -1      1285 8.65289E-03-5.17406E-04-4.37882E-14
 -1      1286 8.85198E-03-3.69620E-04-4.44512E-14
 -1      1287 8.95073E-03-2.25677E-04-4.47516E-14
 -1      1288 1.66072E-04-1.09022E-04-1.04354E-18
 -1      1289 1.12686E-04-5.57233E-05-3.15638E-17
 -1      1290 1.17593E-04-6.64289E-05-2.31613E-17
 -1      1291 1.08706E-04-4.20166E-05-4.52112E-17
 -1      1292 1.10514E-04-4.82101E-05-4.09286E-17
 -1      1293 2.26781E-04-1.04785E-04-9.65347E-17
 -1      1294 1.07135E-04-3.20424E-05-5.27871E-17
 -1      1295 1.07991E-04-3.67818E-05-5.06458E-17
 -1      1296 2.19725E-04-7.93431E-05-1.21254E-16
 -1      1297 1.06274E-04-2.38390E-05-5.73814E-17
 -1      1298 1.06754E-04-2.78043E-05-5.63243E-17
 -1      1299 2.16410E-04-6.01070E-05-1.35891E-16
 -1      1300 1.05756E-04-1.68173E-05-5.97124E-17
 -1      1301 1.06043E-04-2.02426E-05-5.92788E-17
 -1      1302 2.14510E-04-4.42749E-05-1.44389E-16
 -1      1303 1.05432E-04-1.03535E-05-6.08237E-17
 -1      1304 1.05606E-04-1.35291E-05-6.06476E-17
 -1      1305 2.13324E-04-3.04141E-05-1.48753E-16
 -1      1306 1.05266E-04-4.29560E-06-6.11626E-17
 -1      1307 1.05347E-04-7.29749E-06-6.11355E-17
 -1      1308 2.12602E-04-1.76856E-05-1.50623E-16
 -1      1309 1.05240E-04 1.59831E-06-6.08373E-17
 -1      1310 1.05239E-04-1.35004E-06-6.10406E-17
 -1      1311 2.12261E-04-5.65731E-06-1.50921E-16
 -1      1312 1.05354E-04 7.55922E-06-5.94549E-17
 -1      1313 1.05270E-04 4.54838E-06-5.98480E-17
 -1      1314 2.12269E-04 6.15565E-06-1.49213E-16
 -1      1315 1.05619E-04 1.38236E-05-5.77067E-17
 -1      1316 1.05442E-04 1.06290E-05-5.83165E-17
 -1      1317 2.12627E-04 1.82196E-05-1.45757E-16
 -1      1318 1.06060E-04 2.05319E-05-5.43863E-17
 -1      1319 1.05768E-04 1.70796E-05-5.54298E-17
 -1      1320 2.13359E-04 3.09096E-05-1.40296E-16
 -1      1321 1.06783E-04 2.82431E-05-4.95751E-17
 -1      1322 1.06296E-04 2.42299E-05-5.12421E-17
 -1      1323 2.14561E-04 4.48802E-05-1.31717E-16
 -1      1324 1.08019E-04 3.73589E-05-4.22161E-17
 -1      1325 1.07155E-04 3.25496E-05-4.50486E-17
 -1      1326 2.16494E-04 6.10387E-05-1.19262E-16
 -1      1327 1.10495E-04 4.89559E-05-3.07913E-17
 -1      1328 1.08710E-04 4.26906E-05-3.56838E-17
 -1      1329 2.19817E-04 8.05915E-05-1.00668E-16
 -1      1330 1.16913E-04 6.64792E-05-1.23328E-17
 -1      1331 1.12332E-04 5.65276E-05-2.12639E-17
 -1      1332 2.26766E-04 1.06616E-04-7.29939E-17
 -1      1333 1.56879E-04 1.08646E-04 1.66561E-17
 -1      1334 1.35447E-04 8.48913E-05-1.17907E-18
 -1      1335 2.55964E-04 1.49364E-04-3.93836E-17
 -1      1336 3.33750E-04 2.17682E-04 8.76849E-18
 -1      1337 4.20122E-04-2.57476E-04-5.20553E-17
 -1      1338 5.73056E-04-3.30256E-04-1.18991E-16
 -1      1339 7.20328E-04-3.88431E-04-2.31165E-16
 -1      1340 8.63826E-04-4.35160E-04-3.85380E-16
 -1      1341 6.11816E-04-3.23102E-04-2.22478E-16
 -1      1342 1.00445E-03-4.73513E-04-5.80360E-16
 -1      1343 1.14320E-03-5.04636E-04-8.17190E-16
 -1      1344 9.05947E-04-4.18553E-04-5.44527E-16
 -1      1345 1.28092E-03-5.30364E-04-1.09495E-15
 -1      1346 1.41816E-03-5.51191E-04-1.41433E-15
 -1      1347 1.19029E-03-4.82084E-04-1.02900E-15
 -1      1348 1.55541E-03-5.68152E-04-1.77512E-15
 -1      1349 1.69300E-03-5.81608E-04-2.17715E-15
 -1      1350 1.47044E-03-5.24238E-04-1.67661E-15
 -1      1351 1.83123E-03-5.92164E-04-2.62003E-15
 -1      1352 1.97028E-03-6.00163E-04-3.10402E-15
 -1      1353 1.75000E-03-5.51140E-04-2.48708E-15
 -1      1354 2.11040E-03-6.06000E-04-3.62866E-15
 -1      1355 2.25170E-03-6.10006E-04-4.19406E-15
 -1      1356 2.03135E-03-5.66819E-04-3.46004E-15
 -1      1357 2.39438E-03-6.12478E-04-4.80018E-15
 -1      1358 2.53856E-03-6.13745E-04-5.44710E-15
 -1      1359 2.31612E-03-5.74304E-04-4.59465E-15
 -1      1360 2.68440E-03-6.14066E-04-6.13473E-15
 -1      1361 2.83203E-03-6.13790E-04-6.86223E-15
 -1      1362 2.60556E-03-5.76147E-04-5.89015E-15
 -1      1363 2.98162E-03-6.13189E-04-7.62961E-15
 -1      1364 3.13328E-03-6.12652E-04-8.43709E-15
 -1      1365 2.90079E-03-5.74763E-04-7.34550E-15
 -1      1366 3.28718E-03-6.12513E-04-9.28199E-15
 -1      1367 3.44344E-03-6.13227E-04-1.01648E-14
 -1      1368 3.20285E-03-5.72728E-04-8.95700E-15
 -1      1369 3.60218E-03-6.15244E-04-1.10858E-14
 -1      1370 3.76350E-03-6.19102E-04-1.20436E-14
 -1      1371 3.51271E-03-5.73089E-04-1.07208E-14
 -1      1372 3.92746E-03-6.25417E-04-1.30389E-14
 -1      1373 4.09406E-03-6.34812E-04-1.40716E-14
 -1      1374 3.83117E-03-5.79668E-04-1.26355E-14
 -1      1375 4.26325E-03-6.48098E-04-1.51415E-14
 -1      1376 4.43487E-03-6.65941E-04-1.62491E-14
 -1      1377 4.15865E-03-5.97329E-04-1.46986E-14
 -1      1378 4.60865E-03-6.89292E-04-1.73936E-14
 -1      1379 4.78417E-03-7.18736E-04-1.85758E-14
 -1      1380 4.49487E-03-6.32008E-04-1.69102E-14
 -1      1381 4.96090E-03-7.55146E-04-1.97951E-14
 -1      1382 5.13806E-03-7.98760E-04-2.10533E-14
 -1      1383 4.83839E-03-6.90174E-04-1.92705E-14
 -1      1384 5.31483E-03-8.49906E-04-2.23499E-14
 -1      1385 5.49012E-03-9.08032E-04-2.36857E-14
 -1      1386 5.18610E-03-7.77176E-04-2.17830E-14
 -1      1387 5.66290E-03-9.72254E-04-2.50614E-14
 -1      1388 5.83202E-03-1.04074E-03-2.64784E-14
 -1      1389 5.53303E-03-8.93927E-04-2.44504E-14
 -1      1390 5.99660E-03-1.11084E-03-2.79367E-14
 -1      1391 6.15594E-03-1.17930E-03-2.94380E-14
 -1      1392 5.87272E-03-1.03223E-03-2.72784E-14
 -1      1393 6.30980E-03-1.24202E-03-3.09832E-14
 -1      1394 6.45857E-03-1.29515E-03-3.25727E-14
 -1      1395 6.19913E-03-1.17115E-03-3.02741E-14
 -1      1396 6.60306E-03-1.33467E-03-3.42064E-14
 -1      1397 6.74487E-03-1.35789E-03-3.58854E-14
 -1      1398 6.51012E-03-1.27927E-03-3.34459E-14
 -1      1399 6.88564E-03-1.36313E-03-3.76132E-14
 -1      1400 7.02756E-03-1.35041E-03-3.93874E-14
 -1      1401 6.81056E-03-1.32648E-03-3.68026E-14
 -1      1402 7.17222E-03-1.32146E-03-4.12076E-14
 -1      1403 7.32127E-03-1.27897E-03-4.30729E-14
 -1      1404 7.11115E-03-1.30024E-03-4.03473E-14
 -1      1405 7.47550E-03-1.22694E-03-4.49846E-14
 -1      1406 7.63527E-03-1.16927E-03-4.69418E-14
 -1      1407 7.42262E-03-1.21334E-03-4.40773E-14
 -1      1408 7.80034E-03-1.11004E-03-4.89402E-14
 -1      1409 7.97002E-03-1.05250E-03-5.09804E-14
 -1      1410 7.74979E-03-1.09597E-03-4.79865E-14
 -1      1411 8.14342E-03-9.99274E-04-5.30612E-14
 -1      1412 8.31942E-03-9.52186E-04-5.51780E-14
 -1      1413 8.09047E-03-9.79514E-04-5.20629E-14
 -1      1414 8.49698E-03-9.12115E-04-5.73345E-14
 -1      1415 8.67504E-03-8.79604E-04-5.95287E-14
 -1      1416 8.43867E-03-8.84803E-04-5.62969E-14
 -1      1417 8.85279E-03-8.54320E-04-6.17578E-14
 -1      1418 9.02948E-03-8.36039E-04-6.40223E-14
 -1      1419 8.78802E-03-8.19950E-04-6.06780E-14
 -1      1420 9.20461E-03-8.23896E-04-6.63183E-14
 -1      1421 9.37775E-03-8.17332E-04-6.86448E-14
 -1      1422 9.13366E-03-7.84034E-04-6.51975E-14
 -1      1423 9.54869E-03-8.15416E-04-7.10042E-14
 -1      1424 9.71729E-03-8.17525E-04-7.33928E-14
 -1      1425 9.47264E-03-7.71817E-04-6.98453E-14
 -1      1426 9.88352E-03-8.22882E-04-7.58083E-14
 -1      1427 1.00474E-02-8.30922E-04-7.82493E-14
 -1      1428 9.80369E-03-7.77049E-04-7.46111E-14
 -1      1429 1.02090E-02-8.41078E-04-8.07147E-14
 -1      1430 1.03685E-02-8.52890E-04-8.32021E-14
 -1      1431 1.01267E-02-7.94127E-04-7.94824E-14
 -1      1432 1.05260E-02-8.65979E-04-8.57148E-14
 -1      1433 1.06817E-02-8.79992E-04-8.82503E-14
 -1      1434 1.04421E-02-8.18665E-04-8.44528E-14
 -1      1435 1.08357E-02-8.94695E-04-9.08082E-14
 -1      1436 1.09882E-02-9.09829E-04-9.33898E-14
 -1      1437 1.07510E-02-8.47484E-04-8.95167E-14
 -1      1438 1.11393E-02-9.25260E-04-9.59926E-14
 -1      1439 1.12893E-02-9.40806E-04-9.86168E-14
 -1      1440 1.10544E-02-8.78413E-04-9.46723E-14
 -1      1441 1.14382E-02-9.56399E-04-1.01263E-13
 -1      1442 1.15861E-02-9.71916E-04-1.03928E-13
 -1      1443 1.13533E-02-9.10041E-04-9.99150E-14
 -1      1444 1.17332E-02-9.87332E-04-1.06614E-13
 -1      1445 1.18796E-02-1.00256E-03-1.09322E-13
 -1      1446 1.16487E-02-9.41497E-04-1.05241E-13
 -1      1447 1.20254E-02-1.01762E-03-1.12048E-13
 -1      1448 1.21707E-02-1.03243E-03-1.14793E-13
 -1      1449 1.19412E-02-9.72289E-04-1.10649E-13
 -1      1450 1.23155E-02-1.04704E-03-1.17563E-13
 -1      1451 1.24600E-02-1.06139E-03-1.20354E-13
 -1      1452 1.22317E-02-1.00217E-03-1.16141E-13
 -1      1453 1.26041E-02-1.07553E-03-1.23164E-13
 -1      1454 1.27479E-02-1.08942E-03-1.25999E-13
 -1      1455 1.25206E-02-1.03107E-03-1.21717E-13
 -1      1456 1.28915E-02-1.10311E-03-1.28857E-13
 -1      1457 1.30349E-02-1.11658E-03-1.31737E-13
 -1      1458 1.28084E-02-1.05899E-03-1.27383E-13
 -1      1459 1.31782E-02-1.12986E-03-1.34632E-13
 -1      1460 1.33213E-02-1.14295E-03-1.37545E-13
 -1      1461 1.30954E-02-1.08603E-03-1.33128E-13
 -1      1462 1.34643E-02-1.15588E-03-1.40472E-13
 -1      1463 1.36073E-02-1.16865E-03-1.43408E-13
 -1      1464 1.33818E-02-1.11227E-03-1.38941E-13
 -1      1465 1.37502E-02-1.18129E-03-1.46357E-13
 -1      1466 1.38930E-02-1.19380E-03-1.49320E-13
 -1      1467 1.36679E-02-1.13786E-03-1.44807E-13
 -1      1468 1.40359E-02-1.20620E-03-1.52292E-13
 -1      1469 1.41787E-02-1.21851E-03-1.55265E-13
 -1      1470 1.39538E-02-1.16290E-03-1.50720E-13
 -1      1471 1.43215E-02-1.23073E-03-1.58245E-13
 -1      1472 1.44643E-02-1.24289E-03-1.61232E-13
 -1      1473 1.42395E-02-1.18753E-03-1.56665E-13
 -1      1474 1.46071E-02-1.25500E-03-1.64221E-13
 -1      1475 1.47499E-02-1.26707E-03-1.67212E-13
 -1      1476 1.45252E-02-1.21185E-03-1.62627E-13
 -1      1477 1.48927E-02-1.27912E-03-1.70209E-13
 -1      1478 1.50356E-02-1.29115E-03-1.73214E-13
 -1      1479 1.48109E-02-1.23599E-03-1.68610E-13
 -1      1480 1.52415E-02-1.30430E-03-1.77571E-13
 -1      1481 1.51596E-02-1.26116E-03-1.75960E-13
 -1      1482 6.41311E-04 3.64538E-04-7.64634E-17
 -1      1483 4.91279E-04 2.98506E-04-1.45419E-17
 -1      1484 4.44192E-04 2.60914E-04-5.01308E-17
 -1      1485 9.27499E-04 4.59514E-04-3.14852E-16
 -1      1486 7.86205E-04 4.16582E-04-1.76684E-16
 -1      1487 7.44373E-04 3.80966E-04-2.20622E-16
 -1      1488 1.20412E-03 5.23399E-04-7.06520E-16
 -1      1489 1.06644E-03 4.94554E-04-4.91211E-16
 -1      1490 1.03166E-03 4.61066E-04-5.42453E-16
 -1      1491 1.47774E-03 5.66469E-04-1.25364E-15
 -1      1492 1.34097E-03 5.47141E-04-9.60535E-16
 -1      1493 1.31195E-03 5.14953E-04-1.01659E-15
 -1      1494 1.75207E-03 5.94651E-04-1.95655E-15
 -1      1495 1.61462E-03 5.82164E-04-1.58527E-15
 -1      1496 1.58997E-03 5.50664E-04-1.64444E-15
 -1      1497 2.02929E-03 6.11934E-04-2.81265E-15
 -1      1498 1.89020E-03 6.04454E-04-2.36563E-15
 -1      1499 1.86873E-03 5.73215E-04-2.42606E-15
 -1      1500 2.31086E-03 6.21366E-04-3.82124E-15
 -1      1501 2.16945E-03 6.17455E-04-3.29812E-15
 -1      1502 2.15015E-03 5.86167E-04-3.36036E-15
 -1      1503 2.59783E-03 6.25548E-04-4.98251E-15
 -1      1504 2.45361E-03 6.23944E-04-4.38274E-15
 -1      1505 2.43555E-03 5.92365E-04-4.44669E-15
 -1      1506 2.89112E-03 6.26935E-04-6.29556E-15
 -1      1507 2.74364E-03 6.26417E-04-5.62004E-15
 -1      1508 2.72593E-03 5.94334E-04-5.68419E-15
 -1      1509 3.19147E-03 6.28075E-04-7.76179E-15
 -1      1510 3.04037E-03 6.27350E-04-7.00976E-15
 -1      1511 3.02209E-03 5.94558E-04-7.07401E-15
 -1      1512 3.49944E-03 6.31801E-04-9.37851E-15
 -1      1513 3.34447E-03 6.29411E-04-8.55136E-15
 -1      1514 3.32469E-03 5.95712E-04-8.61491E-15
 -1      1515 3.81523E-03 6.41373E-04-1.11454E-14
 -1      1516 3.65635E-03 6.35639E-04-1.02430E-14
 -1      1517 3.63411E-03 6.00843E-04-1.03053E-14
 -1      1518 4.13841E-03 6.60479E-04-1.30636E-14
 -1      1519 3.97593E-03 6.49524E-04-1.20853E-14
 -1      1520 3.95036E-03 6.13475E-04-1.21461E-14
 -1      1521 4.46758E-03 6.92973E-04-1.51358E-14
 -1      1522 4.30236E-03 6.74893E-04-1.40808E-14
 -1      1523 4.27279E-03 6.37519E-04-1.41384E-14
 -1      1524 4.79999E-03 7.42146E-04-1.73638E-14
 -1      1525 4.63360E-03 7.15439E-04-1.62299E-14
 -1      1526 4.59984E-03 6.76827E-04-1.62848E-14
 -1      1527 5.13139E-03 8.09363E-04-1.97511E-14
 -1      1528 4.96614E-03 7.73690E-04-1.85371E-14
 -1      1529 4.92881E-03 7.34187E-04-1.85869E-14
 -1      1530 5.45632E-03 8.92097E-04-2.23002E-14
 -1      1531 5.29506E-03 8.49308E-04-2.10055E-14
 -1      1532 5.25584E-03 8.09616E-04-2.10499E-14
 -1      1533 5.76924E-03 9.81987E-04-2.50135E-14
 -1      1534 5.61463E-03 9.37022E-04-2.36360E-14
 -1      1535 5.57635E-03 8.98199E-04-2.36745E-14
 -1      1536 6.06647E-03 1.06435E-03-2.79029E-14
 -1      1537 5.91995E-03 1.02521E-03-2.64367E-14
 -1      1538 5.88622E-03 9.88477E-04-2.64677E-14
 -1      1539 6.34846E-03 1.12077E-03-3.09632E-14
 -1      1540 6.20916E-03 1.09681E-03-2.94107E-14
 -1      1541 6.18356E-03 1.06310E-03-2.94338E-14
 -1      1542 6.62076E-03 1.13525E-03-3.42055E-14
 -1      1543 6.48527E-03 1.13375E-03-3.25615E-14
 -1      1544 6.47035E-03 1.10322E-03-3.25778E-14
 -1      1545 6.89273E-03 1.10097E-03-3.76280E-14
 -1      1546 6.75610E-03 1.12393E-03-3.58938E-14
 -1      1547 6.75259E-03 1.09575E-03-3.59039E-14
 -1      1548 7.17385E-03 1.02369E-03-4.12343E-14
 -1      1549 7.03160E-03 1.06678E-03-3.94087E-14
 -1      1550 7.03824E-03 1.03949E-03-3.94122E-14
 -1      1551 7.47020E-03 9.18828E-04-4.50061E-14
 -1      1552 7.31991E-03 9.73509E-04-4.31007E-14
 -1      1553 7.33386E-03 9.45695E-04-4.30954E-14
 -1      1554 7.78269E-03 8.04906E-04-4.89392E-14
 -1      1555 7.62454E-03 8.61967E-04-4.69519E-14
 -1      1556 7.64222E-03 8.32745E-04-4.69439E-14
 -1      1557 8.10803E-03 6.97113E-04-5.30340E-14
 -1      1558 7.94407E-03 7.49600E-04-5.09673E-14
 -1      1559 7.96208E-03 7.18747E-04-5.09548E-14
 -1      1560 8.44083E-03 6.04417E-04-5.72739E-14
 -1      1561 8.27387E-03 6.48632E-04-5.51359E-14
 -1      1562 8.28965E-03 6.16392E-04-5.51175E-14
 -1      1563 8.77569E-03 5.29863E-04-6.16618E-14
 -1      1564 8.60833E-03 5.64907E-04-5.94505E-14
 -1      1565 8.62044E-03 5.31733E-04-5.94266E-14
 -1      1566 9.10839E-03 4.72480E-04-6.61792E-14
 -1      1567 8.94254E-03 4.99205E-04-6.39048E-14
 -1      1568 8.95053E-03 4.65566E-04-6.38737E-14
 -1      1569 9.43623E-03 4.29297E-04-7.08211E-14
 -1      1570 9.27305E-03 4.49339E-04-6.84862E-14
 -1      1571 9.27715E-03 4.15619E-04-6.84480E-14
 -1      1572 9.75790E-03 3.96796E-04-7.55803E-14
 -1      1573 9.59789E-03 4.11925E-04-7.31854E-14
 -1      1574 9.59871E-03 3.78393E-04-7.31427E-14
 -1      1575 1.00731E-02 3.71717E-04-8.04438E-14
 -1      1576 9.91632E-03 3.83507E-04-7.79993E-14
 -1      1577 9.91459E-03 3.50321E-04-7.79475E-14
 -1      1578 1.03823E-02 3.51386E-04-8.54120E-14
 -1      1579 1.02284E-02 3.61094E-04-8.29146E-14
 -1      1580 1.02248E-02 3.28328E-04-8.28588E-14
 -1      1581 1.06861E-02 3.33787E-04-9.04797E-14
 -1      1582 1.05348E-02 3.42344E-04-8.79334E-14
 -1      1583 1.05300E-02 3.10011E-04-8.78724E-14
 -1      1584 1.09853E-02 3.17484E-04-9.56502E-14
 -1      1585 1.08362E-02 3.25541E-04-9.30528E-14
 -1      1586 1.08306E-02 2.93617E-04-9.29879E-14
 -1      1587 1.12810E-02 3.01517E-04-1.00929E-13
 -1      1588 1.11335E-02 3.09502E-04-9.82759E-14
 -1      1589 1.11275E-02 2.77944E-04-9.82057E-14
 -1      1590 1.15737E-02 2.85282E-04-1.06297E-13
 -1      1591 1.14276E-02 2.93459E-04-1.03602E-13
 -1      1592 1.14214E-02 2.62212E-04-1.03521E-13
 -1      1593 1.18642E-02 2.68435E-04-1.11741E-13
 -1      1594 1.17192E-02 2.76948E-04-1.09011E-13
 -1      1595 1.17129E-02 2.45961E-04-1.08919E-13
 -1      1596 1.21531E-02 2.50813E-04-1.17260E-13
 -1      1597 1.20088E-02 2.59726E-04-1.14493E-13
 -1      1598 1.20026E-02 2.28946E-04-1.14395E-13
 -1      1599 1.24408E-02 2.32369E-04-1.22844E-13
 -1      1600 1.22970E-02 2.41693E-04-1.20044E-13
 -1      1601 1.22910E-02 2.11077E-04-1.19939E-13
 -1      1602 1.27276E-02 2.13135E-04-1.28484E-13
 -1      1603 1.25843E-02 2.22847E-04-1.25657E-13
 -1      1604 1.25784E-02 1.92356E-04-1.25549E-13
 -1      1605 1.30139E-02 1.93183E-04-1.34183E-13
 -1      1606 1.28708E-02 2.03243E-04-1.31326E-13
 -1      1607 1.28651E-02 1.72845E-04-1.31213E-13
 -1      1608 1.32998E-02 1.72611E-04-1.39935E-13
 -1      1609 1.31569E-02 1.82968E-04-1.37054E-13
 -1      1610 1.31513E-02 1.52637E-04-1.36935E-13
 -1      1611 1.35855E-02 1.51526E-04-1.45726E-13
 -1      1612 1.34427E-02 1.62125E-04-1.42827E-13
 -1      1613 1.34373E-02 1.31841E-04-1.42703E-13
 -1      1614 1.38711E-02 1.30037E-04-1.51560E-13
 -1      1615 1.37283E-02 1.40825E-04-1.48636E-13
 -1      1616 1.37230E-02 1.10570E-04-1.48511E-13
 -1      1617 1.41567E-02 1.08254E-04-1.57415E-13
 -1      1618 1.40139E-02 1.19176E-04-1.54484E-13
 -1      1619 1.40087E-02 8.89378E-05-1.54353E-13
 -1      1620 1.44424E-02 8.62859E-05-1.63286E-13
 -1      1621 1.42996E-02 9.72866E-05-1.60350E-13
 -1      1622 1.42944E-02 6.70555E-05-1.60219E-13
 -1      1623 1.47280E-02 6.42428E-05-1.69163E-13
 -1      1624 1.45852E-02 7.52674E-05-1.66224E-13
 -1      1625 1.45801E-02 4.50348E-05-1.66095E-13
 -1      1626 1.48797E-02 4.18728E-05-1.72280E-13
 -1      1627 1.49187E-02-6.44454E-05-1.73015E-13
 -1      1628 1.49079E-02-2.22809E-05-1.72821E-13
 -1      1629 1.49403E-02-1.48805E-04-1.73403E-13
 -1      1630 1.49295E-02-1.06621E-04-1.73212E-13
 -1      1631 1.48003E-02-7.59768E-05-1.70558E-13
 -1      1632 1.49620E-02-2.33191E-04-1.73781E-13
 -1      1633 1.49511E-02-1.90996E-04-1.73592E-13
 -1      1634 1.48220E-02-1.60311E-04-1.70937E-13
 -1      1635 1.49840E-02-3.17587E-04-1.74146E-13
 -1      1636 1.49730E-02-2.75389E-04-1.73967E-13
 -1      1637 1.48438E-02-2.44649E-04-1.71307E-13
 -1      1638 1.50057E-02-4.00544E-04-1.74502E-13
 -1      1639 1.49948E-02-3.59067E-04-1.74323E-13
 -1      1640 1.48656E-02-3.28263E-04-1.71670E-13
 -1      1641 1.50280E-02-4.84914E-04-1.74863E-13
 -1      1642 1.50168E-02-4.42731E-04-1.74684E-13
 -1      1643 1.48875E-02-4.11857E-04-1.72026E-13
 -1      1644 1.50504E-02-5.69267E-04-1.75221E-13
 -1      1645 1.50392E-02-5.27092E-04-1.75041E-13
 -1      1646 1.49099E-02-4.96143E-04-1.72381E-13
 -1      1647 1.50731E-02-6.53613E-04-1.75568E-13
 -1      1648 1.50617E-02-6.11441E-04-1.75399E-13
 -1      1649 1.49324E-02-5.80412E-04-1.72732E-13
 -1      1650 1.50959E-02-7.37963E-04-1.75881E-13
 -1      1651 1.50844E-02-6.95787E-04-1.75728E-13
 -1      1652 1.49550E-02-6.64675E-04-1.73070E-13
 -1      1653 1.51188E-02-8.22328E-04-1.76187E-13
 -1      1654 1.51073E-02-7.80143E-04-1.76033E-13
 -1      1655 1.49779E-02-7.48946E-04-1.73388E-13
 -1      1656 1.51416E-02-9.05282E-04-1.76491E-13
 -1      1657 1.51302E-02-8.63803E-04-1.76341E-13
 -1      1658 1.50007E-02-8.32521E-04-1.73695E-13
 -1      1659 1.51649E-02-9.89679E-04-1.76807E-13
 -1      1660 1.51532E-02-9.47480E-04-1.76648E-13
 -1      1661 1.50237E-02-9.16119E-04-1.73999E-13
 -1      1662 1.51884E-02-1.07408E-03-1.77099E-13
 -1      1663 1.51767E-02-1.03188E-03-1.76958E-13
 -1      1664 1.50471E-02-1.00045E-03-1.74295E-13
 -1      1665 1.52121E-02-1.15845E-03-1.77380E-13
 -1      1666 1.52003E-02-1.11627E-03-1.77241E-13
 -1      1667 1.50706E-02-1.08479E-03-1.74578E-13
 -1      1668 1.51918E-02-1.23090E-03-1.76742E-13
 -1      1669 1.51799E-02-1.18873E-03-1.76611E-13
 -1      1670 1.50502E-02-1.15724E-03-1.73944E-13
 -1      1671 1.49859E-02-1.21777E-03-1.72392E-13
 -1      1672 8.93082E-03-8.28938E-05-4.54374E-14
 -1      1673 8.96922E-03-1.29020E-04-4.55832E-14
 -1      1674 8.75643E-03 3.36121E-05-4.47796E-14
 -1      1675 8.85134E-03-2.14827E-05-4.51024E-14
 -1      1676 8.45244E-03 1.75872E-04-4.38238E-14
 -1      1677 8.60643E-03 1.00998E-04-4.43657E-14
 -1      1678 8.11060E-03 3.51126E-04-4.24415E-14
 -1      1679 8.27188E-03 2.74330E-04-4.30511E-14
 -1      1680 7.73245E-03 5.23621E-04-4.08985E-14
 -1      1681 7.91155E-03 4.43533E-04-4.16428E-14
 -1      1682 7.33096E-03 6.75964E-04-3.91859E-14
 -1      1683 7.51000E-03 6.08452E-04-4.00111E-14
 -1      1684 6.94181E-03 7.75813E-04-3.72953E-14
 -1      1685 7.12217E-03 7.38398E-04-3.81632E-14
 -1      1686 6.56603E-03 7.95593E-04-3.54859E-14
 -1      1687 6.73402E-03 7.98083E-04-3.62962E-14
 -1      1688 6.17576E-03 7.26216E-04-3.36407E-14
 -1      1689 6.35835E-03 7.71352E-04-3.44736E-14
 -1      1690 5.75863E-03 5.75093E-04-3.19365E-14
 -1      1691 5.94912E-03 6.51921E-04-3.26805E-14
 -1      1692 5.34238E-03 3.88023E-04-3.05093E-14
 -1      1693 5.52919E-03 4.74890E-04-3.11156E-14
 -1      1694 4.97597E-03 2.38029E-04-2.96150E-14
 -1      1695 5.12496E-03 3.08964E-04-3.00248E-14
 -1      1696 4.69102E-03 8.56869E-05-2.88298E-14
 -1      1697 4.81679E-03 1.49663E-04-2.91296E-14
 -1      1698 4.51655E-03-2.36711E-05-2.85302E-14
 -1      1699 4.57874E-03 2.60955E-05-2.86532E-14
 -1      1700 4.48454E-03-1.23945E-04-2.84805E-14
 -1      1701 4.48122E-03-7.93694E-05-2.84435E-14
 -1      1702 4.60501E-03-2.32550E-04-2.88046E-14
 -1      1703 4.52955E-03-1.79338E-04-2.85914E-14
 -1      1704 4.85847E-03-3.69608E-04-2.95141E-14
 -1      1705 4.72903E-03-3.03137E-04-2.91488E-14
 -1      1706 5.18302E-03-5.36664E-04-3.05181E-14
 -1      1707 5.02667E-03-4.59420E-04-3.00436E-14
 -1      1708 5.56397E-03-7.21247E-04-3.17799E-14
 -1      1709 5.38253E-03-6.34188E-04-3.11618E-14
 -1      1710 5.95989E-03-8.98317E-04-3.32997E-14
 -1      1711 5.77421E-03-8.20870E-04-3.25860E-14
 -1      1712 6.35073E-03-1.02509E-03-3.49394E-14
 -1      1713 6.17283E-03-9.73921E-04-3.41694E-14
 -1      1714 6.76589E-03-1.08661E-03-3.68424E-14
 -1      1715 6.57780E-03-1.07266E-03-3.59233E-14
 -1      1716 7.15665E-03-1.03783E-03-3.86760E-14
 -1      1717 6.98359E-03-1.06720E-03-3.78647E-14
 -1      1718 7.55098E-03-9.18219E-04-4.04911E-14
 -1      1719 7.36467E-03-9.83437E-04-3.96609E-14
 -1      1720 7.97916E-03-7.22875E-04-4.24181E-14
 -1      1721 7.77240E-03-8.18609E-04-4.15787E-14
 -1      1722 8.36932E-03-5.57676E-04-4.36653E-14
 -1      1723 8.21337E-03-6.32934E-04-4.31091E-14
 -1      1724 8.67025E-03-3.97158E-04-4.47935E-14
 -1      1725 8.53505E-03-4.64623E-04-4.43530E-14
 -1      1726 8.88203E-03-2.84688E-04-4.53316E-14
 -1      1727 8.80076E-03-3.35828E-04-4.50919E-14
 -1      1728 8.97521E-03-1.82015E-04-4.56314E-14
 -1      1729 8.94767E-03-2.26740E-04-4.55685E-14
 -1      1730 7.94810E-03 3.58917E-04-4.24841E-14
 -1      1731 8.32250E-03 1.66892E-04-4.40785E-14
 -1      1732 1.48745E-02 1.16315E-05-1.72154E-13
 -1      1733 1.47562E-02 9.75975E-08-1.69699E-13
 -1      1734 8.89293E-03-8.65809E-05-4.60579E-14
 -1      1735 8.65784E-03 1.61099E-05-4.52930E-14
 -1      1736 8.98224E-03-1.58474E-04-4.64463E-14
 -1      1737 7.55469E-03 5.50998E-04-4.07779E-14
 -1      1738 7.17902E-03 7.17919E-04-3.88509E-14
 -1      1739 6.82272E-03 8.12273E-04-3.68222E-14
 -1      1740 6.47721E-03 8.07200E-04-3.48140E-14
 -1      1741 6.11397E-03 6.93604E-04-3.28575E-14
 -1      1742 5.70845E-03 5.00308E-04-3.11025E-14
 -1      1743 5.29471E-03 3.03962E-04-2.98284E-14
 -1      1744 4.92313E-03 1.38341E-04-2.88769E-14
 -1      1745 4.64305E-03 1.65914E-05-2.82318E-14
 -1      1746 4.49053E-03-6.58799E-05-2.79743E-14
 -1      1747 4.49984E-03-1.33209E-04-2.79940E-14
 -1      1748 4.67562E-03-2.19350E-04-2.84338E-14
 -1      1749 4.97605E-03-3.54930E-04-2.92853E-14
 -1      1750 5.34216E-03-5.37150E-04-3.04358E-14
 -1      1751 5.73346E-03-7.44911E-04-3.18631E-14
 -1      1752 6.12062E-03-9.36593E-04-3.35234E-14
 -1      1753 6.50461E-03-1.07217E-03-3.53679E-14
 -1      1754 6.85562E-03-1.10453E-03-3.73754E-14
 -1      1755 7.22338E-03-1.02302E-03-3.93935E-14
 -1      1756 7.60857E-03-8.52981E-04-4.14847E-14
 -1      1757 8.02487E-03-6.42462E-04-4.32975E-14
 -1      1758 8.41456E-03-4.56524E-04-4.46982E-14
 -1      1759 8.71650E-03-3.19930E-04-4.57064E-14
 -1      1760 8.91845E-03-2.27046E-04-4.62533E-14
 -1      1761 2.84695E-04-1.73411E-04-5.07000E-17
 -1      1762 3.33099E-04-1.11882E-04-1.93910E-16
 -1      1763 3.37219E-04-1.28153E-04-1.80222E-16
 -1      1764 3.43077E-04-1.47291E-04-1.63715E-16
 -1      1765 3.52375E-04-1.69478E-04-1.40784E-16
 -1      1766 4.59625E-04-1.81371E-04-2.61767E-16
 -1      1767 3.24776E-04-6.12020E-05-2.23197E-16
 -1      1768 3.26153E-04-7.21551E-05-2.18656E-16
 -1      1769 3.22826E-04-4.07056E-05-2.28455E-16
 -1      1770 3.23700E-04-5.06481E-05-2.26259E-16
 -1      1771 4.36434E-04-7.40002E-05-3.32335E-16
 -1      1772 3.21692E-04-2.19121E-05-2.30732E-16
 -1      1773 3.22178E-04-3.11294E-05-2.29959E-16
 -1      1774 4.33775E-04-4.75072E-05-3.38718E-16
 -1      1775 3.21235E-04-3.99449E-06-2.30257E-16
 -1      1776 3.21386E-04-1.28734E-05-2.30732E-16
 -1      1777 4.32295E-04-2.29619E-05-3.40819E-16
 -1      1778 3.21415E-04 1.37739E-05-2.26924E-16
 -1      1779 3.21245E-04 4.88064E-06-2.29011E-16
 -1      1780 4.31839E-04 6.80260E-07-3.38962E-16
 -1      1781 3.22247E-04 3.21032E-05-2.21164E-16
 -1      1782 3.21740E-04 2.28417E-05-2.24389E-16
 -1      1783 4.32367E-04 2.43641E-05-3.33568E-16
 -1      1784 3.23781E-04 5.14109E-05-2.11840E-16
 -1      1785 3.22904E-04 4.15729E-05-2.17193E-16
 -1      1786 4.33904E-04 4.88193E-05-3.24014E-16
 -1      1787 3.26301E-04 7.32880E-05-1.98084E-16
 -1      1788 3.24875E-04 6.20420E-05-2.05768E-16
 -1      1789 4.36611E-04 7.52719E-05-3.09716E-16
 -1      1790 3.30367E-04 9.87786E-05-1.77890E-16
 -1      1791 3.28054E-04 8.55473E-05-1.89315E-16
 -1      1792 4.40957E-04 1.05293E-04-2.88845E-16
 -1      1793 3.37526E-04 1.30288E-04-1.47872E-16
 -1      1794 3.33331E-04 1.13716E-04-1.64663E-16
 -1      1795 4.47959E-04 1.40640E-04-2.58298E-16
 -1      1796 3.52890E-04 1.73083E-04-1.03067E-16
 -1      1797 3.43659E-04 1.50065E-04-1.28153E-16
 -1      1798 4.60602E-04 1.84795E-04-2.13845E-16
 -1      1799 4.07582E-04 2.28912E-04-7.05274E-17
 -1      1800 3.78440E-04 1.97994E-04-9.16151E-17
 -1      1801 4.96737E-04 2.37285E-04-1.73256E-16
 -1      1802 5.58600E-04 2.95422E-04-1.39456E-16
 -1      1803 3.40095E-04-1.86961E-04-9.75240E-17
 -1      1804 8.54474E-04 3.94950E-04-3.91004E-16
 -1      1805 7.07546E-04 3.49827E-04-2.46832E-16
 -1      1806 6.74331E-04 3.19464E-04-2.68286E-16
 -1      1807 4.59517E-04-2.30762E-04-1.81780E-16
 -1      1808 8.08602E-04-3.62291E-04-5.02961E-16
 -1      1809 9.54597E-04-4.00657E-04-7.11047E-16
 -1      1810 1.09840E-03-4.32343E-04-9.58841E-16
 -1      1811 1.24129E-03-4.58058E-04-1.24682E-15
 -1      1812 1.00711E-03-3.81650E-04-8.84831E-16
 -1      1813 1.38321E-03-4.79154E-04-1.57464E-15
 -1      1814 1.52478E-03-4.95940E-04-1.94347E-15
 -1      1815 1.29506E-03-4.33168E-04-1.47044E-15
 -1      1816 1.66619E-03-5.09309E-04-2.35205E-15
 -1      1817 1.80774E-03-5.19527E-04-2.80086E-15
 -1      1818 1.58079E-03-4.66822E-04-2.21481E-15
 -1      1819 1.94965E-03-5.27192E-04-3.28986E-15
 -1      1820 2.09209E-03-5.32552E-04-3.81879E-15
 -1      1821 1.86614E-03-4.87190E-04-3.11850E-15
 -1      1822 2.23524E-03-5.36043E-04-4.38838E-15
 -1      1823 2.37924E-03-5.37911E-04-4.99735E-15
 -1      1824 2.15254E-03-4.97707E-04-4.18147E-15
 -1      1825 2.52421E-03-5.38513E-04-5.64574E-15
 -1      1826 2.67032E-03-5.38103E-04-6.33426E-15
 -1      1827 2.44116E-03-5.01125E-04-5.40206E-15
 -1      1828 2.81762E-03-5.37022E-04-7.06236E-15
 -1      1829 2.96631E-03-5.35551E-04-7.82894E-15
 -1      1830 2.73297E-03-4.99882E-04-6.77967E-15
 -1      1831 3.11643E-03-5.34068E-04-8.63430E-15
 -1      1832 3.26816E-03-5.32904E-04-9.47716E-15
 -1      1833 3.02881E-03-4.96404E-04-8.31312E-15
 -1      1834 3.42152E-03-5.32529E-04-1.03582E-14
 -1      1835 3.57670E-03-5.33351E-04-1.12774E-14
 -1      1836 3.32952E-03-4.93401E-04-9.99821E-15
 -1      1837 3.73373E-03-5.35980E-04-1.22336E-14
 -1      1838 3.89270E-03-5.40932E-04-1.32270E-14
 -1      1839 3.63591E-03-4.94184E-04-1.18341E-14
 -1      1840 4.05371E-03-5.48985E-04-1.42568E-14
 -1      1841 4.21668E-03-5.60780E-04-1.53245E-14
 -1      1842 3.94885E-03-5.02966E-04-1.38184E-14
 -1      1843 4.38182E-03-5.77238E-04-1.64293E-14
 -1      1844 4.54872E-03-5.99104E-04-1.75708E-14
 -1      1845 4.26920E-03-5.25086E-04-1.59506E-14
 -1      1846 4.71781E-03-6.27292E-04-1.87490E-14
 -1      1847 4.88817E-03-6.62520E-04-1.99646E-14
 -1      1848 4.59778E-03-5.66959E-04-1.82299E-14
 -1      1849 5.06045E-03-7.05349E-04-2.12197E-14
 -1      1850 5.23309E-03-7.56134E-04-2.25121E-14
 -1      1851 4.93501E-03-6.35335E-04-2.06592E-14
 -1      1852 5.40686E-03-8.14546E-04-2.38423E-14
 -1      1853 5.57968E-03-8.79891E-04-2.52127E-14
 -1      1854 5.28011E-03-7.35244E-04-2.32383E-14
 -1      1855 5.75215E-03-9.50311E-04-2.66239E-14
 -1      1856 5.92216E-03-1.02338E-03-2.80757E-14
 -1      1857 5.62991E-03-8.65854E-04-2.59732E-14
 -1      1858 6.08975E-03-1.09552E-03-2.95697E-14
 -1      1859 6.25414E-03-1.16230E-03-3.11080E-14
 -1      1860 5.97785E-03-1.01469E-03-2.88700E-14
 -1      1861 6.41460E-03-1.21926E-03-3.26911E-14
 -1      1862 6.57297E-03-1.26183E-03-3.43190E-14
 -1      1863 6.31602E-03-1.15319E-03-3.19387E-14
 -1      1864 6.72794E-03-1.28674E-03-3.59951E-14
 -1      1865 6.88368E-03-1.29195E-03-3.77188E-14
 -1      1866 6.64135E-03-1.24245E-03-3.51913E-14
 -1      1867 7.03865E-03-1.27756E-03-3.94896E-14
 -1      1868 7.19715E-03-1.24551E-03-4.13068E-14
 -1      1869 6.96059E-03-1.25290E-03-3.86327E-14
 -1      1870 7.35787E-03-1.19905E-03-4.31711E-14
 -1      1871 7.52255E-03-1.14294E-03-4.50807E-14
 -1      1872 7.28617E-03-1.18460E-03-4.22665E-14
 -1      1873 7.69046E-03-1.08159E-03-4.70338E-14
 -1      1874 7.86085E-03-1.01939E-03-4.90303E-14
 -1      1875 7.62486E-03-1.06739E-03-4.60834E-14
 -1      1876 8.03374E-03-9.59849E-04-5.10687E-14
 -1      1877 8.20704E-03-9.05477E-04-5.31454E-14
 -1      1878 7.97343E-03-9.40274E-04-5.00764E-14
 -1      1879 8.38136E-03-8.58098E-04-5.52613E-14
 -1      1880 8.55462E-03-8.18350E-04-5.74135E-14
 -1      1881 8.32399E-03-8.31592E-04-5.42287E-14
 -1      1882 8.72759E-03-7.86575E-04-5.96019E-14
 -1      1883 8.89876E-03-7.62417E-04-6.18253E-14
 -1      1884 8.67009E-03-7.53756E-04-5.85295E-14
 -1      1885 9.06875E-03-7.45325E-04-6.40814E-14
 -1      1886 9.23671E-03-7.34587E-04-6.63697E-14
 -1      1887 9.00862E-03-7.07487E-04-6.29700E-14
 -1      1888 9.40303E-03-7.29316E-04-6.86905E-14
 -1      1889 9.56735E-03-7.28792E-04-7.10401E-14
 -1      1890 9.33891E-03-6.87821E-04-6.75409E-14
 -1      1891 9.72987E-03-7.32131E-04-7.34181E-14
 -1      1892 9.89056E-03-7.38731E-04-7.58235E-14
 -1      1893 9.66147E-03-6.88180E-04-7.22308E-14
 -1      1894 1.00495E-02-7.47867E-04-7.82562E-14
 -1      1895 1.02068E-02-7.59076E-04-8.07122E-14
 -1      1896 9.97717E-03-7.02430E-04-7.70342E-14
 -1      1897 1.03625E-02-7.71826E-04-8.31938E-14
 -1      1898 1.05168E-02-7.85777E-04-8.56997E-14
 -1      1899 1.02870E-02-7.25629E-04-8.19400E-14
 -1      1900 1.06697E-02-8.00569E-04-8.82286E-14
 -1      1901 1.08215E-02-8.15962E-04-9.07806E-14
 -1      1902 1.05917E-02-7.54122E-04-8.69442E-14
 -1      1903 1.09721E-02-8.31728E-04-9.33547E-14
 -1      1904 1.11217E-02-8.47700E-04-9.59521E-14
 -1      1905 1.08923E-02-7.85360E-04-9.20409E-14
 -1      1906 1.12704E-02-8.63747E-04-9.85700E-14
 -1      1907 1.14183E-02-8.79758E-04-1.01209E-13
 -1      1908 1.11894E-02-8.17655E-04-9.72295E-14
 -1      1909 1.15655E-02-8.95665E-04-1.03871E-13
 -1      1910 1.17120E-02-9.11396E-04-1.06552E-13
 -1      1911 1.14838E-02-8.49947E-04-1.02502E-13
 -1      1912 1.18580E-02-9.26927E-04-1.09253E-13
 -1      1913 1.20035E-02-9.42212E-04-1.11976E-13
 -1      1914 1.17758E-02-8.81619E-04-1.07861E-13
 -1      1915 1.21486E-02-9.57254E-04-1.14720E-13
 -1      1916 1.22933E-02-9.72027E-04-1.17486E-13
 -1      1917 1.20662E-02-9.12350E-04-1.13303E-13
 -1      1918 1.24377E-02-9.86546E-04-1.20274E-13
 -1      1919 1.25818E-02-1.00080E-03-1.23081E-13
 -1      1920 1.23552E-02-9.42015E-04-1.18830E-13
 -1      1921 1.27256E-02-1.01481E-03-1.25910E-13
 -1      1922 1.28693E-02-1.02858E-03-1.28760E-13
 -1      1923 1.26432E-02-9.70613E-04-1.24443E-13
 -1      1924 1.30128E-02-1.04213E-03-1.31629E-13
 -1      1925 1.31562E-02-1.05547E-03-1.34515E-13
 -1      1926 1.29305E-02-9.98214E-04-1.30134E-13
 -1      1927 1.32994E-02-1.06862E-03-1.37417E-13
 -1      1928 1.34426E-02-1.08158E-03-1.40333E-13
 -1      1929 1.32172E-02-1.02493E-03-1.35898E-13
 -1      1930 1.35857E-02-1.09438E-03-1.43264E-13
 -1      1931 1.37287E-02-1.10704E-03-1.46204E-13
 -1      1932 1.35035E-02-1.05088E-03-1.41721E-13
 -1      1933 1.38716E-02-1.11957E-03-1.49154E-13
 -1      1934 1.40146E-02-1.13198E-03-1.52116E-13
 -1      1935 1.37896E-02-1.07621E-03-1.47596E-13
 -1      1936 1.41575E-02-1.14430E-03-1.55085E-13
 -1      1937 1.43004E-02-1.15652E-03-1.58059E-13
 -1      1938 1.40755E-02-1.10105E-03-1.53507E-13
 -1      1939 1.44432E-02-1.16869E-03-1.61038E-13
 -1      1940 1.45861E-02-1.18079E-03-1.64023E-13
 -1      1941 1.43613E-02-1.12551E-03-1.59451E-13
 -1      1942 1.47146E-02-1.19328E-03-1.66704E-13
 -1      1943 1.48574E-02-1.20532E-03-1.69698E-13
 -1      1944 1.48896E-02-1.17506E-03-1.70477E-13
 -1      1945 1.46326E-02-1.15014E-03-1.65107E-13
 -1      1946 1.14128E-03 4.62233E-04-7.90953E-16
 -1      1947 9.98510E-04 4.31898E-04-5.71876E-16
 -1      1948 9.66694E-04 4.02641E-04-5.96528E-16
 -1      1949 1.42331E-03 5.07383E-04-1.34209E-15
 -1      1950 1.28254E-03 4.87179E-04-1.04720E-15
 -1      1951 1.25335E-03 4.59206E-04-1.07320E-15
 -1      1952 1.70406E-03 5.36674E-04-2.04658E-15
 -1      1953 1.56364E-03 5.23757E-04-1.67516E-15
 -1      1954 1.53697E-03 4.96687E-04-1.70118E-15
 -1      1955 1.98587E-03 5.54368E-04-2.90367E-15
 -1      1956 1.84471E-03 5.46781E-04-2.45625E-15
 -1      1957 1.82003E-03 5.20247E-04-2.48168E-15
 -1      1958 2.27031E-03 5.63677E-04-3.91228E-15
 -1      1959 2.12767E-03 5.59912E-04-3.38869E-15
 -1      1960 2.10436E-03 5.33624E-04-3.41299E-15
 -1      1961 2.55853E-03 5.67283E-04-5.07218E-15
 -1      1962 2.41388E-03 5.66047E-04-4.47349E-15
 -1      1963 2.39124E-03 5.39764E-04-4.49548E-15
 -1      1964 2.85141E-03 5.67674E-04-6.38328E-15
 -1      1965 2.70433E-03 5.67734E-04-5.70858E-15
 -1      1966 2.68168E-03 5.41238E-04-5.72872E-15
 -1      1967 3.14969E-03 5.67397E-04-7.84577E-15
 -1      1968 2.99983E-03 5.67461E-04-7.09548E-15
 -1      1969 2.97646E-03 5.40531E-04-7.11264E-15
 -1      1970 3.45392E-03 5.69279E-04-9.45767E-15
 -1      1971 3.30102E-03 5.67891E-04-8.63324E-15
 -1      1972 3.27625E-03 5.40288E-04-8.64718E-15
 -1      1973 3.76439E-03 5.76592E-04-1.12193E-14
 -1      1974 3.60836E-03 5.72059E-04-1.03194E-14
 -1      1975 3.58154E-03 5.43516E-04-1.03299E-14
 -1      1976 4.08100E-03 5.93093E-04-1.31310E-14
 -1      1977 3.92196E-03 5.83485E-04-1.21564E-14
 -1      1978 3.89261E-03 5.53719E-04-1.21622E-14
 -1      1979 4.40305E-03 6.22825E-04-1.51957E-14
 -1      1980 4.24145E-03 6.06115E-04-1.41442E-14
 -1      1981 4.20938E-03 5.74862E-04-1.41458E-14
 -1      1982 4.72900E-03 6.69462E-04-1.74131E-14
 -1      1983 4.56574E-03 6.43922E-04-1.62851E-14
 -1      1984 4.53124E-03 6.11021E-04-1.62815E-14
 -1      1985 5.05626E-03 7.35009E-04-1.97890E-14
 -1      1986 4.89278E-03 6.99947E-04-1.85807E-14
 -1      1987 4.85680E-03 6.65495E-04-1.85707E-14
 -1      1988 5.38127E-03 8.17791E-04-2.23237E-14
 -1      1989 5.21945E-03 7.74631E-04-2.10362E-14
 -1      1990 5.18365E-03 7.39190E-04-2.10183E-14
 -1      1991 5.69993E-03 9.10211E-04-2.50219E-14
 -1      1992 5.54178E-03 8.63568E-04-2.36523E-14
 -1      1993 5.50831E-03 8.28306E-04-2.36253E-14
 -1      1994 6.00885E-03 9.97735E-04-2.78923E-14
 -1      1995 5.85580E-03 9.55678E-04-2.64352E-14
 -1      1996 5.82678E-03 9.22230E-04-2.63993E-14
 -1      1997 6.30722E-03 1.06093E-03-3.09367E-14
 -1      1998 6.15920E-03 1.03347E-03-2.93924E-14
 -1      1999 6.13607E-03 1.00338E-03-2.93454E-14
 -1      2000 6.59813E-03 1.08176E-03-3.41636E-14
 -1      2001 6.45305E-03 1.07726E-03-3.25271E-14
 -1      2002 6.43625E-03 1.05113E-03-3.24719E-14
 -1      2003 6.88810E-03 1.05144E-03-3.75718E-14
 -1      2004 6.74252E-03 1.07281E-03-3.58450E-14
 -1      2005 6.73172E-03 1.04984E-03-3.57805E-14
 -1      2006 7.18407E-03 9.74951E-04-4.11599E-14
 -1      2007 7.03476E-03 1.01807E-03-3.93442E-14
 -1      2008 7.02940E-03 9.96549E-04-3.92712E-14
 -1      2009 7.49036E-03 8.68356E-04-4.49200E-14
 -1      2010 7.33572E-03 9.24212E-04-4.30185E-14
 -1      2011 7.33508E-03 9.02453E-04-4.29381E-14
 -1      2012 7.80720E-03 7.51526E-04-4.88429E-14
 -1      2013 7.64759E-03 8.10200E-04-4.68612E-14
 -1      2014 7.65064E-03 7.87228E-04-4.67738E-14
 -1      2015 8.13183E-03 6.40808E-04-5.29259E-14
 -1      2016 7.96886E-03 6.94791E-04-5.08652E-14
 -1      2017 7.97408E-03 6.70421E-04-5.07718E-14
 -1      2018 8.46030E-03 5.45830E-04-5.71536E-14
 -1      2019 8.29594E-03 5.91142E-04-5.50219E-14
 -1      2020 8.30164E-03 5.65622E-04-5.49220E-14
 -1      2021 8.78888E-03 4.69839E-04-6.15264E-14
 -1      2022 8.62487E-03 5.05522E-04-5.93222E-14
 -1      2023 8.62958E-03 4.79227E-04-5.92156E-14
 -1      2024 9.11482E-03 4.11796E-04-6.60295E-14
 -1      2025 8.95239E-03 4.38766E-04-6.37620E-14
 -1      2026 8.95514E-03 4.12038E-04-6.36470E-14
 -1      2027 9.43641E-03 3.68557E-04-7.06591E-14
 -1      2028 9.27627E-03 3.88552E-04-6.83294E-14
 -1      2029 9.27664E-03 3.61653E-04-6.82078E-14
 -1      2030 9.75285E-03 3.36406E-04-7.54018E-14
 -1      2031 9.59532E-03 3.51302E-04-7.30160E-14
 -1      2032 9.59329E-03 3.24418E-04-7.28880E-14
 -1      2033 1.00640E-02 3.11911E-04-8.02543E-14
 -1      2034 9.90910E-03 3.23368E-04-7.78157E-14
 -1      2035 9.90493E-03 2.96622E-04-7.76803E-14
 -1      2036 1.03702E-02 2.92272E-04-8.52107E-14
 -1      2037 1.02177E-02 3.01609E-04-8.27201E-14
 -1      2038 1.02118E-02 2.75073E-04-8.25782E-14
 -1      2039 1.06720E-02 2.75379E-04-9.02697E-14
 -1      2040 1.05216E-02 2.83569E-04-8.77279E-14
 -1      2041 1.05144E-02 2.57277E-04-8.75808E-14
 -1      2042 1.09701E-02 2.59742E-04-9.54293E-14
 -1      2043 1.08215E-02 2.67460E-04-9.28367E-14
 -1      2044 1.08132E-02 2.41420E-04-9.26839E-14
 -1      2045 1.12650E-02 2.44368E-04-1.00689E-13
 -1      2046 1.11179E-02 2.52057E-04-9.80462E-14
 -1      2047 1.11089E-02 2.26256E-04-9.78852E-14
 -1      2048 1.15574E-02 2.28643E-04-1.06037E-13
 -1      2049 1.14115E-02 2.36569E-04-1.03353E-13
 -1      2050 1.14021E-02 2.10986E-04-1.03184E-13
 -1      2051 1.18479E-02 2.12219E-04-1.11467E-13
 -1      2052 1.17029E-02 2.20527E-04-1.08743E-13
 -1      2053 1.16932E-02 1.95134E-04-1.08566E-13
 -1      2054 1.21369E-02 1.94939E-04-1.16972E-13
 -1      2055 1.19926E-02 2.03688E-04-1.14210E-13
 -1      2056 1.19828E-02 1.78456E-04-1.14026E-13
 -1      2057 1.24248E-02 1.76766E-04-1.22545E-13
 -1      2058 1.22810E-02 1.85962E-04-1.19751E-13
 -1      2059 1.22712E-02 1.60862E-04-1.19560E-13
 -1      2060 1.27119E-02 1.57739E-04-1.28177E-13
 -1      2061 1.25684E-02 1.67354E-04-1.25354E-13
 -1      2062 1.25586E-02 1.42360E-04-1.25160E-13
 -1      2063 1.29985E-02 1.37943E-04-1.33866E-13
 -1      2064 1.28552E-02 1.47931E-04-1.31015E-13
 -1      2065 1.28455E-02 1.23020E-04-1.30814E-13
 -1      2066 1.32846E-02 1.17483E-04-1.39605E-13
 -1      2067 1.31416E-02 1.27789E-04-1.36729E-13
 -1      2068 1.31319E-02 1.02942E-04-1.36524E-13
 -1      2069 1.35705E-02 9.64757E-05-1.45389E-13
 -1      2070 1.34276E-02 1.07041E-04-1.42492E-13
 -1      2071 1.34179E-02 8.22401E-05-1.42279E-13
 -1      2072 1.38563E-02 7.50367E-05-1.51212E-13
 -1      2073 1.37134E-02 8.58036E-05-1.48295E-13
 -1      2074 1.37038E-02 6.10351E-05-1.48080E-13
 -1      2075 1.41420E-02 5.32807E-05-1.57066E-13
 -1      2076 1.39992E-02 6.41920E-05-1.54136E-13
 -1      2077 1.39896E-02 3.94443E-05-1.53918E-13
 -1      2078 1.44277E-02 3.13204E-05-1.62940E-13
 -1      2079 1.42849E-02 4.23199E-05-1.60002E-13
 -1      2080 1.42753E-02 1.75826E-05-1.59784E-13
 -1      2081 1.46634E-02 1.01990E-05-1.67790E-13
 -1      2082 1.45205E-02 2.12281E-05-1.64848E-13
 -1      2083 1.45110E-02-3.50739E-06-1.64632E-13
 -1      2084 1.46967E-02-2.37118E-05-1.68453E-13
 -1      2085 1.47255E-02-2.56079E-04-1.68839E-13
 -1      2086 1.47146E-02-2.13938E-04-1.68657E-13
 -1      2087 1.47037E-02-1.71791E-04-1.68472E-13
 -1      2088 1.46928E-02-1.29640E-04-1.68287E-13
 -1      2089 1.45854E-02-1.83258E-04-1.66009E-13
 -1      2090 1.47002E-02-9.77536E-05-1.68466E-13
 -1      2091 1.46894E-02-5.55997E-05-1.68275E-13
 -1      2092 1.45965E-02-4.54914E-05-1.66364E-13
 -1      2093 1.45818E-02-1.09253E-04-1.66006E-13
 -1      2094 1.47472E-02-3.38911E-04-1.69194E-13
 -1      2095 1.47363E-02-2.97500E-04-1.69016E-13
 -1      2096 1.46071E-02-2.66777E-04-1.66369E-13
 -1      2097 1.47694E-02-4.23139E-04-1.69550E-13
 -1      2098 1.47583E-02-3.81030E-04-1.69372E-13
 -1      2099 1.46290E-02-3.50250E-04-1.66721E-13
 -1      2100 1.47918E-02-5.07337E-04-1.69900E-13
 -1      2101 1.47805E-02-4.65241E-04-1.69727E-13
 -1      2102 1.46513E-02-4.34390E-04-1.67073E-13
 -1      2103 1.48143E-02-5.91516E-04-1.70249E-13
 -1      2104 1.48030E-02-5.49428E-04-1.70074E-13
 -1      2105 1.46737E-02-5.18493E-04-1.67421E-13
 -1      2106 1.48370E-02-6.75691E-04-1.70581E-13
 -1      2107 1.48256E-02-6.33603E-04-1.70418E-13
 -1      2108 1.46963E-02-6.02575E-04-1.67762E-13
 -1      2109 1.48599E-02-7.59880E-04-1.70899E-13
 -1      2110 1.48484E-02-7.17783E-04-1.70741E-13
 -1      2111 1.47190E-02-6.86659E-04-1.68093E-13
 -1      2112 1.48825E-02-8.42667E-04-1.71203E-13
 -1      2113 1.48712E-02-8.01270E-04-1.71050E-13
 -1      2114 1.47417E-02-7.70051E-04-1.68406E-13
 -1      2115 1.49058E-02-9.26915E-04-1.71501E-13
 -1      2116 1.48941E-02-8.84787E-04-1.71354E-13
 -1      2117 1.47646E-02-8.53481E-04-1.68706E-13
 -1      2118 1.49292E-02-1.01119E-03-1.71786E-13
 -1      2119 1.49175E-02-9.69052E-04-1.71645E-13
 -1      2120 1.47879E-02-9.37670E-04-1.68997E-13
 -1      2121 1.49528E-02-1.09550E-03-1.72055E-13
 -1      2122 1.49410E-02-1.05334E-03-1.71923E-13
 -1      2123 1.48114E-02-1.02191E-03-1.69271E-13
 -1      2124 8.57520E-03-1.98451E-06-4.59986E-14
 -1      2125 8.72312E-03-5.29477E-05-4.64345E-14
 -1      2126 8.98351E-03-1.54734E-04-4.75880E-14
 -1      2127 8.98955E-03-1.69749E-04-4.76368E-14
 -1      2128 8.83679E-03-9.28552E-05-4.67725E-14
 -1      2129 8.92231E-03-1.22173E-04-4.71171E-14
 -1      2130 8.77664E-03-9.22283E-05-4.74824E-14
 -1      2131 8.18885E-03 1.79544E-04-4.42968E-14
 -1      2132 8.36755E-03 9.10087E-05-4.50925E-14
 -1      2133 7.81191E-03 3.79252E-04-4.25909E-14
 -1      2134 7.99267E-03 2.81119E-04-4.34109E-14
 -1      2135 3.27870E-04-8.42208E-05-2.12639E-16
 -1      2136 3.30149E-04-9.72705E-05-2.04277E-16
 -1      2137 4.47534E-04-1.38413E-04-2.97478E-16
 -1      2138 4.40683E-04-1.03684E-04-3.19650E-16
 -1      2139 7.06248E-03 7.60975E-04-3.84874E-14
 -1      2140 7.22225E-03 6.88399E-04-3.95202E-14
 -1      2141 6.74464E-03 8.39301E-04-3.63879E-14
 -1      2142 6.89044E-03 8.14220E-04-3.73893E-14
 -1      2143 6.42861E-03 8.07831E-04-3.42250E-14
 -1      2144 6.57478E-03 8.38750E-04-3.52296E-14
 -1      2145 6.05514E-03 6.52606E-04-3.20873E-14
 -1      2146 6.22780E-03 7.37687E-04-3.30275E-14
 -1      2147 5.64530E-03 4.32255E-04-3.03021E-14
 -1      2148 5.83976E-03 5.41149E-04-3.10983E-14
 -1      2149 5.20914E-03 2.14091E-04-2.89352E-14
 -1      2150 5.39811E-03 3.01290E-04-2.93951E-14
 -1      2151 4.87734E-03 6.70573E-05-2.79953E-14
 -1      2152 5.03730E-03 1.36130E-04-2.84624E-14
 -1      2153 5.12589E-03 1.51957E-04-2.80378E-14
 -1      2154 4.58668E-03-3.53863E-05-2.73996E-14
 -1      2155 4.69828E-03-1.11553E-06-2.75644E-14
 -1      2156 4.47153E-03-8.30812E-05-2.73264E-14
 -1      2157 4.50925E-03-6.32040E-05-2.74123E-14
 -1      2158 4.52182E-03-1.29064E-04-2.74741E-14
 -1      2159 4.47510E-03-1.08428E-04-2.73723E-14
 -1      2160 4.74907E-03-2.09809E-04-2.80169E-14
 -1      2161 4.62301E-03-1.66368E-04-2.76905E-14
 -1      2162 5.09320E-03-3.54748E-04-2.89938E-14
 -1      2163 4.92599E-03-2.79980E-04-2.84858E-14
 -1      2164 5.47948E-03-5.49024E-04-3.02281E-14
 -1      2165 5.29467E-03-4.51248E-04-2.96066E-14
 -1      2166 5.88052E-03-7.82980E-04-3.19163E-14
 -1      2167 5.69705E-03-6.74709E-04-3.11284E-14
 -1      2168 6.24591E-03-9.79303E-04-3.37010E-14
 -1      2169 6.07920E-03-8.91715E-04-3.28435E-14
 -1      2170 6.58199E-03-1.10332E-03-3.56266E-14
 -1      2171 6.42055E-03-1.05157E-03-3.46484E-14
 -1      2172 6.95086E-03-1.10882E-03-3.81202E-14
 -1      2173 6.80025E-03-1.12795E-03-3.70888E-14
 -1      2174 7.25950E-03-1.00392E-03-4.01052E-14
 -1      2175 7.10487E-03-1.06832E-03-3.91058E-14
 -1      2176 7.02382E-03-1.09821E-03-3.88112E-14
 -1      2177 7.63929E-03-8.00429E-04-4.24738E-14
 -1      2178 7.45371E-03-9.08434E-04-4.13614E-14
 -1      2179 8.11149E-03-5.52962E-04-4.44207E-14
 -1      2180 7.91137E-03-6.54086E-04-4.37025E-14
 -1      2181 8.45159E-03-3.86553E-04-4.58279E-14
 -1      2182 8.28586E-03-4.66659E-04-4.51199E-14
 -1      2183 8.18374E-03-4.91307E-04-4.55319E-14
 -1      2184 8.77613E-03-2.60557E-04-4.68227E-14
 -1      2185 8.64730E-03-3.04810E-04-4.65080E-14
 -1      2186 8.94551E-03-1.98539E-04-4.73109E-14
 -1      2187 8.87464E-03-2.24472E-04-4.70657E-14
 -1      2188 8.82673E-03-2.28133E-04-4.78723E-14
 -1      2189 7.43451E-03 5.82072E-04-4.07493E-14
 -1      2190 7.61498E-03 4.84336E-04-4.16543E-14
 -1      2191 7.69279E-03 4.17918E-04-4.25625E-14
 -1      2192 6.08782E-04-2.89730E-04-3.00758E-16
 -1      2193 7.31174E-03 6.34958E-04-4.03758E-14
 -1      2194 6.65264E-04-2.82632E-04-4.13325E-16
 -1      2195 8.96133E-03-1.48895E-04-4.83002E-14
 -1      2196 8.46745E-03 2.25653E-05-4.62158E-14
 -1      2197 1.49206E-02-1.12576E-03-1.71287E-13
 -1      2198 8.97767E-03-1.79450E-04-4.84481E-14
 -1      2199 8.06880E-03 2.11188E-04-4.44041E-14
 -1      2200 8.54598E-03-3.29076E-04-4.69316E-14
 -1      2201 7.33721E-03-9.63476E-04-4.10627E-14
 -1      2202 6.69797E-03-1.13053E-03-3.63481E-14
 -1      2203 6.60993E-03-1.11785E-03-3.56128E-14
 -1      2204 6.79321E-03-1.14099E-03-3.70763E-14
 -1      2205 6.34519E-03-1.01819E-03-3.39511E-14
 -1      2206 6.00493E-03-8.33712E-04-3.20885E-14
 -1      2207 5.61072E-03-5.98395E-04-3.02779E-14
 -1      2208 5.20981E-03-3.81959E-04-2.87903E-14
 -1      2209 4.83971E-03-2.24448E-04-2.77305E-14
 -1      2210 4.56524E-03-1.34315E-04-2.70623E-14
 -1      2211 4.46359E-03-9.28141E-05-2.68079E-14
 -1      2212 4.78200E-03 1.59477E-05-2.71532E-14
 -1      2213 5.52268E-03 3.52681E-04-2.93877E-14
 -1      2214 5.95979E-03 5.96707E-04-3.12601E-14
 -1      2215 6.33836E-03 7.82157E-04-3.34266E-14
 -1      2216 6.96317E-03 7.95765E-04-3.80398E-14
 -1      2217 6.66146E-03 8.50516E-04-3.57782E-14
 -1      2218 4.54002E-03-5.80397E-05-2.67489E-14
 -1      2219 7.75748E-03-7.21775E-04-4.35745E-14
 -1      2220 7.63849E-03-7.90195E-04-4.34370E-14
 -1      2221 7.87496E-03-6.48786E-04-4.46911E-14
 -1      2222 1.01982E-03 3.83489E-04-7.65772E-16
 -1      2223 8.74549E-04 3.49974E-04-5.56995E-16
 -1      2224 5.46315E-04-5.10739E-05-4.82890E-16
 -1      2225 5.47753E-04-6.67217E-05-4.79976E-16
 -1      2226 5.49640E-04-8.30960E-05-4.75843E-16
 -1      2227 5.52005E-04-1.00266E-04-4.69839E-16
 -1      2228 6.63895E-04-8.84692E-05-6.48881E-16
 -1      2229 5.44287E-04 8.10811E-06-4.80478E-16
 -1      2230 5.44261E-04-6.43891E-06-4.82931E-16
 -1      2231 5.45392E-04 3.76278E-05-4.71655E-16
 -1      2232 5.44664E-04 2.27741E-05-4.76697E-16
 -1      2233 6.58337E-04 1.82421E-05-6.49383E-16
 -1      2234 5.47937E-04 6.80996E-05-4.57588E-16
 -1      2235 5.46478E-04 5.26324E-05-4.65516E-16
 -1      2236 6.60258E-04 5.31714E-05-6.36413E-16
 -1      2237 5.52289E-04 1.01872E-04-4.36242E-16
 -1      2238 5.49871E-04 8.45762E-05-4.47897E-16
 -1      2239 6.64173E-04 9.01220E-05-6.16071E-16
 -1      2240 5.59135E-04 1.40110E-04-4.05844E-16
 -1      2241 5.55353E-04 1.20353E-04-4.22514E-16
 -1      2242 6.70575E-04 1.30959E-04-5.86337E-16
 -1      2243 5.70146E-04 1.85226E-04-3.62313E-16
 -1      2244 5.64025E-04 1.61674E-04-3.86233E-16
 -1      2245 6.80477E-04 1.77283E-04-5.44405E-16
 -1      2246 1.30752E-03 4.34157E-04-1.29368E-15
 -1      2247 1.16396E-03 4.11440E-04-1.01088E-15
 -1      2248 1.07559E-03 3.63453E-04-9.43527E-16
 -1      2249 9.18205E-04-3.31538E-04-8.07243E-16
 -1      2250 1.06311E-03-3.61846E-04-1.06592E-15
 -1      2251 7.21178E-03 6.84343E-04-4.00803E-14
 -1      2252 7.39202E-03 5.79212E-04-4.13247E-14
 -1      2253 1.20732E-03-3.87006E-04-1.36357E-15
 -1      2254 1.35130E-03-4.07447E-04-1.70016E-15
 -1      2255 1.12097E-03-3.41182E-04-1.25453E-15
 -1      2256 1.49485E-03-4.23992E-04-2.07606E-15
 -1      2257 1.63827E-03-4.36938E-04-2.49175E-15
 -1      2258 1.40908E-03-3.81111E-04-1.93622E-15
 -1      2259 1.78160E-03-4.46945E-04-2.94628E-15
 -1      2260 1.92504E-03-4.54243E-04-3.44051E-15
 -1      2261 1.69665E-03-4.06596E-04-2.77339E-15
 -1      2262 2.06866E-03-4.59340E-04-3.97398E-15
 -1      2263 2.21261E-03-4.62452E-04-4.54689E-15
 -1      2264 1.98414E-03-4.20977E-04-3.76660E-15
 -1      2265 2.35697E-03-4.63988E-04-5.15851E-15
 -1      2266 2.50187E-03-4.64160E-04-5.80897E-15
 -1      2267 2.27214E-03-4.27055E-04-4.91493E-15
 -1      2268 2.64735E-03-4.63331E-04-6.49853E-15
 -1      2269 2.79356E-03-4.61730E-04-7.22683E-15
 -1      2270 2.56126E-03-4.27259E-04-6.21843E-15
 -1      2271 2.94053E-03-4.59724E-04-7.99321E-15
 -1      2272 3.08841E-03-4.57577E-04-8.79753E-15
 -1      2273 2.85207E-03-4.23865E-04-7.67524E-15
 -1      2274 3.23723E-03-4.55705E-04-9.64020E-15
 -1      2275 3.38716E-03-4.54443E-04-1.05203E-14
 -1      2276 3.14514E-03-4.19249E-04-9.28368E-15
 -1      2277 3.53825E-03-4.54295E-04-1.14373E-14
 -1      2278 3.69067E-03-4.55704E-04-1.23915E-14
 -1      2279 3.44119E-03-4.16146E-04-1.10426E-14
 -1      2280 3.84454E-03-4.59293E-04-1.33827E-14
 -1      2281 4.00001E-03-4.65666E-04-1.44104E-14
 -1      2282 3.74118E-03-4.17932E-04-1.29494E-14
 -1      2283 4.15735E-03-4.75552E-04-1.54750E-14
 -1      2284 4.31661E-03-4.89775E-04-1.65765E-14
 -1      2285 4.04653E-03-4.28910E-04-1.50025E-14
 -1      2286 4.47830E-03-5.09099E-04-1.77151E-14
 -1      2287 4.64222E-03-5.34588E-04-1.88896E-14
 -1      2288 4.35939E-03-4.54556E-04-1.72020E-14
 -1      2289 4.80923E-03-5.66882E-04-2.01014E-14
 -1      2290 4.97861E-03-6.07114E-04-2.13512E-14
 -1      2291 4.68270E-03-5.01593E-04-1.95478E-14
 -1      2292 5.15141E-03-6.55478E-04-2.26383E-14
 -1      2293 5.32620E-03-7.12668E-04-2.39625E-14
 -1      2294 5.01964E-03-5.77588E-04-2.20411E-14
 -1      2295 5.50409E-03-7.77857E-04-2.53264E-14
 -1      2296 5.68234E-03-8.50282E-04-2.67305E-14
 -1      2297 5.37203E-03-6.88689E-04-2.46850E-14
 -1      2298 5.86139E-03-9.27720E-04-2.81749E-14
 -1      2299 6.03850E-03-1.00593E-03-2.96616E-14
 -1      2300 5.73646E-03-8.34952E-04-2.74842E-14
 -1      2301 6.21309E-03-1.08098E-03-3.11918E-14
 -1      2302 6.38421E-03-1.14552E-03-3.27674E-14
 -1      2303 6.10181E-03-9.99564E-04-3.04494E-14
 -1      2304 6.55041E-03-1.19521E-03-3.43922E-14
 -1      2305 6.71532E-03-1.22365E-03-3.60615E-14
 -1      2306 6.45433E-03-1.14014E-03-3.35950E-14
 -1      2307 6.87676E-03-1.22913E-03-3.77811E-14
 -1      2308 7.04179E-03-1.21107E-03-3.95489E-14
 -1      2309 6.79098E-03-1.20317E-03-3.69308E-14
 -1      2310 7.20821E-03-1.17156E-03-4.13646E-14
 -1      2311 7.37957E-03-1.11752E-03-4.32275E-14
 -1      2312 7.12823E-03-1.16123E-03-4.04640E-14
 -1      2313 7.55425E-03-1.05316E-03-4.51365E-14
 -1      2314 7.73159E-03-9.85806E-04-4.70898E-14
 -1      2315 7.48111E-03-1.04138E-03-4.41894E-14
 -1      2316 7.91100E-03-9.19175E-04-4.90852E-14
 -1      2317 8.08946E-03-8.57687E-04-5.11231E-14
 -1      2318 7.84684E-03-8.98296E-04-4.80977E-14
 -1      2319 8.26753E-03-8.03449E-04-5.31985E-14
 -1      2320 8.44261E-03-7.57287E-04-5.53121E-14
 -1      2321 8.21146E-03-7.73936E-04-5.21706E-14
 -1      2322 8.61584E-03-7.19982E-04-5.74600E-14
 -1      2323 8.78562E-03-6.90784E-04-5.96442E-14
 -1      2324 8.56411E-03-6.84886E-04-5.63949E-14
 -1      2325 8.95311E-03-6.69555E-04-6.18628E-14
 -1      2326 9.11760E-03-6.55109E-04-6.41125E-14
 -1      2327 8.90161E-03-6.31062E-04-6.07579E-14
 -1      2328 9.27994E-03-6.46869E-04-6.63957E-14
 -1      2329 9.43994E-03-6.43770E-04-6.87087E-14
 -1      2330 9.22566E-03-6.06135E-04-6.52548E-14
 -1      2331 9.59811E-03-6.45099E-04-7.10495E-14
 -1      2332 9.75453E-03-6.50044E-04-7.34188E-14
 -1      2333 9.53953E-03-6.02734E-04-6.98726E-14
 -1      2334 9.90944E-03-6.57938E-04-7.58163E-14
 -1      2335 1.00630E-02-6.68207E-04-7.82410E-14
 -1      2336 9.84616E-03-6.14376E-04-7.46043E-14
 -1      2337 1.02154E-02-6.80303E-04-8.06904E-14
 -1      2338 1.03667E-02-6.93838E-04-8.31649E-14
 -1      2339 1.01477E-02-6.35918E-04-7.94450E-14
 -1      2340 1.05170E-02-7.08403E-04-8.56633E-14
 -1      2341 1.06665E-02-7.23737E-04-8.81855E-14
 -1      2342 1.04456E-02-6.63523E-04-8.43873E-14
 -1      2343 1.08152E-02-7.39562E-04-9.07313E-14
 -1      2344 1.09632E-02-7.55705E-04-9.32996E-14
 -1      2345 1.07407E-02-6.94460E-04-8.94247E-14
 -1      2346 1.11105E-02-7.71986E-04-9.58915E-14
 -1      2347 1.12573E-02-7.88297E-04-9.85031E-14
 -1      2348 1.10337E-02-7.26866E-04-9.45561E-14
 -1      2349 1.14036E-02-8.04532E-04-1.01138E-13
 -1      2350 1.15494E-02-8.20623E-04-1.03793E-13
 -1      2351 1.13251E-02-7.59530E-04-9.97759E-14
 -1      2352 1.16949E-02-8.36517E-04-1.06471E-13
 -1      2353 1.18399E-02-8.52176E-04-1.09170E-13
 -1      2354 1.16151E-02-7.91718E-04-1.05082E-13
 -1      2355 1.19847E-02-8.67579E-04-1.11888E-13
 -1      2356 1.21291E-02-8.82708E-04-1.14629E-13
 -1      2357 1.19041E-02-8.23023E-04-1.10477E-13
 -1      2358 1.22734E-02-8.97565E-04-1.17392E-13
 -1      2359 1.24174E-02-9.12143E-04-1.20176E-13
 -1      2360 1.21922E-02-8.53262E-04-1.15955E-13
 -1      2361 1.25612E-02-9.26456E-04-1.22980E-13
 -1      2362 1.27049E-02-9.40506E-04-1.25801E-13
 -1      2363 1.24797E-02-8.82397E-04-1.21516E-13
 -1      2364 1.28484E-02-9.54315E-04-1.28644E-13
 -1      2365 1.29918E-02-9.67887E-04-1.31506E-13
 -1      2366 1.27666E-02-9.10477E-04-1.27158E-13
 -1      2367 1.31351E-02-9.81248E-04-1.34385E-13
 -1      2368 1.32783E-02-9.94405E-04-1.37278E-13
 -1      2369 1.30532E-02-9.37604E-04-1.32873E-13
 -1      2370 1.34214E-02-1.00738E-03-1.40184E-13
 -1      2371 1.35645E-02-1.02019E-03-1.43106E-13
 -1      2372 1.33395E-02-9.63902E-04-1.38652E-13
 -1      2373 1.37075E-02-1.03286E-03-1.46042E-13
 -1      2374 1.38505E-02-1.04538E-03-1.48983E-13
 -1      2375 1.36256E-02-9.89506E-04-1.44486E-13
 -1      2376 1.39935E-02-1.05780E-03-1.51934E-13
 -1      2377 1.41364E-02-1.07011E-03-1.54897E-13
 -1      2378 1.39115E-02-1.01455E-03-1.50366E-13
 -1      2379 1.42793E-02-1.08233E-03-1.57863E-13
 -1      2380 1.44222E-02-1.09449E-03-1.60837E-13
 -1      2381 1.41974E-02-1.03916E-03-1.56279E-13
 -1      2382 8.73404E-03-9.30329E-05-4.83749E-14
 -1      2383 8.83861E-03-1.21210E-04-4.87262E-14
 -1      2384 1.87851E-03 4.87892E-04-2.80104E-15
 -1      2385 1.73580E-03 4.79097E-04-2.36753E-15
 -1      2386 2.16483E-03 4.98872E-04-3.78044E-15
 -1      2387 2.02147E-03 4.94406E-04-3.27223E-15
 -1      2388 1.93745E-03 4.55019E-04-3.12731E-15
 -1      2389 2.45321E-03 5.03198E-04-4.90973E-15
 -1      2390 2.30870E-03 5.01725E-04-4.32601E-15
 -1      2391 2.22500E-03 4.63741E-04-4.15382E-15
 -1      2392 2.74451E-03 5.03377E-04-6.18932E-15
 -1      2393 2.59844E-03 5.03667E-04-5.53084E-15
 -1      2394 2.51416E-03 4.66413E-04-5.32957E-15
 -1      2395 3.03946E-03 5.01892E-04-7.61920E-15
 -1      2396 2.89148E-03 5.02696E-04-6.88536E-15
 -1      2397 2.80565E-03 4.65465E-04-6.65521E-15
 -1      2398 3.33870E-03 5.01430E-04-9.19813E-15
 -1      2399 3.18850E-03 5.01366E-04-8.38999E-15
 -1      2400 3.10015E-03 4.63357E-04-8.13045E-15
 -1      2401 3.64280E-03 5.05080E-04-1.09249E-14
 -1      2402 3.49012E-03 5.02545E-04-1.00429E-14
 -1      2403 3.39835E-03 4.62791E-04-9.75348E-15
 -1      2404 3.95224E-03 5.16449E-04-1.28011E-14
 -1      2405 3.79686E-03 5.09570E-04-1.18444E-14
 -1      2406 3.70097E-03 4.66904E-04-1.15243E-14
 -1      2407 4.26731E-03 5.39606E-04-1.48283E-14
 -1      2408 4.10913E-03 5.26302E-04-1.37955E-14
 -1      2409 4.00879E-03 4.79372E-04-1.34440E-14
 -1      2410 4.58795E-03 5.78689E-04-1.70058E-14
 -1      2411 4.42707E-03 5.56921E-04-1.58981E-14
 -1      2412 4.32264E-03 5.04354E-04-1.55135E-14
 -1      2413 4.91341E-03 6.36927E-04-1.93373E-14
 -1      2414 4.75033E-03 6.05276E-04-1.81519E-14
 -1      2415 4.64308E-03 5.46079E-04-1.77334E-14
 -1      2416 5.24180E-03 7.14892E-04-2.18250E-14
 -1      2417 5.07761E-03 6.73556E-04-2.05619E-14
 -1      2418 4.97003E-03 6.07850E-04-2.01056E-14
 -1      2419 5.56972E-03 8.07930E-04-2.44733E-14
 -1      2420 5.40627E-03 7.60091E-04-2.31293E-14
 -1      2421 5.30186E-03 6.90123E-04-2.26335E-14
 -1      2422 5.89264E-03 9.03760E-04-2.72893E-14
 -1      2423 5.73214E-03 8.56590E-04-2.58596E-14
 -1      2424 5.63463E-03 7.87432E-04-2.53228E-14
 -1      2425 6.20693E-03 9.82574E-04-3.02808E-14
 -1      2426 6.05087E-03 9.46770E-04-2.87628E-14
 -1      2427 5.96277E-03 8.85571E-04-2.81808E-14
 -1      2428 6.51244E-03 1.02213E-03-3.34538E-14
 -1      2429 6.36020E-03 1.00857E-03-3.18443E-14
 -1      2430 6.28160E-03 9.61842E-04-3.12170E-14
 -1      2431 6.81461E-03 1.00734E-03-3.68101E-14
 -1      2432 6.66307E-03 1.02184E-03-3.51093E-14
 -1      2433 6.59165E-03 9.91537E-04-3.44370E-14
 -1      2434 7.12081E-03 9.39253E-04-4.03483E-14
 -1      2435 6.96644E-03 9.79227E-04-3.85568E-14
 -1      2436 6.89996E-03 9.61385E-04-3.78416E-14
 -1      2437 7.43612E-03 8.33649E-04-4.40626E-14
 -1      2438 7.27714E-03 8.89679E-04-4.21836E-14
 -1      2439 7.21493E-03 8.77277E-04-4.14282E-14
 -1      2440 7.76012E-03 7.13210E-04-4.79426E-14
 -1      2441 7.59730E-03 7.73928E-04-4.59815E-14
 -1      2442 7.53997E-03 7.60768E-04-4.51885E-14
 -1      2443 8.08897E-03 5.97122E-04-5.19851E-14
 -1      2444 7.92440E-03 6.53734E-04-4.99446E-14
 -1      2445 7.87205E-03 6.36769E-04-4.91165E-14
 -1      2446 8.41822E-03 4.96859E-04-5.61726E-14
 -1      2447 8.25396E-03 5.44636E-04-5.40610E-14
 -1      2448 8.20551E-03 5.23227E-04-5.31991E-14
 -1      2449 8.74467E-03 4.16490E-04-6.05035E-14
 -1      2450 8.58208E-03 4.54166E-04-5.83208E-14
 -1      2451 8.53558E-03 4.28852E-04-5.74267E-14
 -1      2452 9.06658E-03 3.55193E-04-6.49691E-14
 -1      2453 8.90634E-03 3.83618E-04-6.27205E-14
 -1      2454 8.85985E-03 3.55243E-04-6.17937E-14
 -1      2455 9.38337E-03 3.09761E-04-6.95610E-14
 -1      2456 9.22568E-03 3.30717E-04-6.72489E-14
 -1      2457 9.17774E-03 3.00086E-04-6.62931E-14
 -1      2458 9.69508E-03 2.76312E-04-7.42688E-14
 -1      2459 9.53986E-03 2.91759E-04-7.19011E-14
 -1      2460 9.48970E-03 2.59557E-04-7.09139E-14
 -1      2461 1.00021E-02 2.51213E-04-7.90885E-14
 -1      2462 9.84915E-03 2.62907E-04-7.66648E-14
 -1      2463 9.79652E-03 2.29694E-04-7.56513E-14
 -1      2464 1.03049E-02 2.31468E-04-8.40114E-14
 -1      2465 1.01540E-02 2.40819E-04-8.15378E-14
 -1      2466 1.00990E-02 2.07040E-04-8.04975E-14
 -1      2467 1.06042E-02 2.14800E-04-8.90382E-14
 -1      2468 1.04550E-02 2.22859E-04-8.65116E-14
 -1      2469 1.03980E-02 1.88847E-04-8.54463E-14
 -1      2470 1.09004E-02 1.99586E-04-9.41662E-14
 -1      2471 1.07526E-02 2.07089E-04-9.15899E-14
 -1      2472 1.06940E-02 1.73082E-04-9.04980E-14
 -1      2473 1.11941E-02 1.84732E-04-9.93885E-14
 -1      2474 1.10475E-02 1.92166E-04-9.67638E-14
 -1      2475 1.09877E-02 1.58319E-04-9.56471E-14
 -1      2476 1.14858E-02 1.69553E-04-1.04706E-13
 -1      2477 1.13402E-02 1.77216E-04-1.02037E-13
 -1      2478 1.12795E-02 1.43620E-04-1.00891E-13
 -1      2479 1.17759E-02 1.53657E-04-1.10105E-13
 -1      2480 1.16310E-02 1.61714E-04-1.07396E-13
 -1      2481 1.15697E-02 1.28410E-04-1.06228E-13
 -1      2482 1.20647E-02 1.36859E-04-1.15582E-13
 -1      2483 1.19204E-02 1.45380E-04-1.12834E-13
 -1      2484 1.18587E-02 1.12377E-04-1.11644E-13
 -1      2485 1.23526E-02 1.19107E-04-1.21131E-13
 -1      2486 1.22087E-02 1.28105E-04-1.18347E-13
 -1      2487 1.21468E-02 9.53893E-05-1.17139E-13
 -1      2488 1.26398E-02 1.00437E-04-1.26740E-13
 -1      2489 1.24963E-02 1.09886E-04-1.23929E-13
 -1      2490 1.24342E-02 7.74301E-05-1.22699E-13
 -1      2491 1.29264E-02 8.09335E-05-1.32405E-13
 -1      2492 1.27832E-02 9.07857E-05-1.29565E-13
 -1      2493 1.27211E-02 5.85566E-05-1.28320E-13
 -1      2494 1.32127E-02 6.07068E-05-1.38121E-13
 -1      2495 1.30696E-02 7.09055E-05-1.35257E-13
 -1      2496 1.30075E-02 3.88664E-05-1.33994E-13
 -1      2497 1.34988E-02 3.98779E-05-1.43889E-13
 -1      2498 1.33558E-02 5.03620E-05-1.41000E-13
 -1      2499 1.32937E-02 1.84770E-05-1.39721E-13
 -1      2500 1.37847E-02 1.85684E-05-1.49699E-13
 -1      2501 1.36418E-02 2.92774E-05-1.46787E-13
 -1      2502 1.35797E-02-2.48789E-06-1.45497E-13
 -1      2503 1.40705E-02-3.10272E-06-1.55545E-13
 -1      2504 1.39276E-02 7.77216E-06-1.52618E-13
 -1      2505 1.38656E-02-2.39056E-05-1.51318E-13
 -1      2506 1.43563E-02-2.50207E-05-1.61416E-13
 -1      2507 1.42134E-02-1.40367E-05-1.58477E-13
 -1      2508 1.41514E-02-4.56588E-05-1.57173E-13
 -1      2509 1.45037E-02-3.53879E-05-1.64453E-13
 -1      2510 1.45109E-02-3.61563E-04-1.64246E-13
 -1      2511 1.44998E-02-3.19520E-04-1.64073E-13
 -1      2512 1.45332E-02-4.45607E-04-1.64595E-13
 -1      2513 1.45220E-02-4.03592E-04-1.64420E-13
 -1      2514 1.43927E-02-3.72851E-04-1.61776E-13
 -1      2515 1.44671E-02-1.94717E-04-1.63546E-13
 -1      2516 1.44562E-02-1.52612E-04-1.63364E-13
 -1      2517 1.44888E-02-2.77816E-04-1.63897E-13
 -1      2518 1.44780E-02-2.36454E-04-1.63723E-13
 -1      2519 1.43488E-02-2.05819E-04-1.61080E-13
 -1      2520 1.43706E-02-2.89199E-04-1.61430E-13
 -1      2521 1.45557E-02-5.29606E-04-1.64940E-13
 -1      2522 1.45444E-02-4.87611E-04-1.64768E-13
 -1      2523 1.44151E-02-4.56786E-04-1.62121E-13
 -1      2524 1.45783E-02-6.13585E-04-1.65278E-13
 -1      2525 1.45670E-02-5.71597E-04-1.65110E-13
 -1      2526 1.44377E-02-5.40672E-04-1.62463E-13
 -1      2527 1.46011E-02-6.97572E-04-1.65603E-13
 -1      2528 1.45897E-02-6.55576E-04-1.65442E-13
 -1      2529 1.44603E-02-6.24541E-04-1.62795E-13
 -1      2530 1.46236E-02-7.80169E-04-1.65909E-13
 -1      2531 1.46123E-02-7.38866E-04-1.65759E-13
 -1      2532 1.44829E-02-7.07717E-04-1.63114E-13
 -1      2533 1.46467E-02-8.64243E-04-1.66208E-13
 -1      2534 1.46351E-02-8.22199E-04-1.66059E-13
 -1      2535 1.45057E-02-7.90942E-04-1.63416E-13
 -1      2536 1.46700E-02-9.48382E-04-1.66490E-13
 -1      2537 1.46584E-02-9.06305E-04-1.66350E-13
 -1      2538 1.45288E-02-8.74953E-04-1.63708E-13
 -1      2539 1.46935E-02-1.03258E-03-1.66753E-13
 -1      2540 1.46818E-02-9.90477E-04-1.66621E-13
 -1      2541 1.45522E-02-9.59049E-04-1.63979E-13
 -1      2542 1.47921E-02-1.11333E-03-1.68600E-13
 -1      2543 9.00507E-03-1.76577E-04-4.98671E-14
 -1      2544 8.95777E-03-1.86755E-04-4.95364E-14
 -1      2545 1.59319E-03 4.67459E-04-1.97204E-15
 -1      2546 1.45048E-03 4.52737E-04-1.61402E-15
 -1      2547 1.65067E-03 4.37604E-04-2.24986E-15
 -1      2548 8.35562E-03 5.13174E-05-4.65820E-14
 -1      2549 8.55115E-03-2.82335E-05-4.75096E-14
 -1      2550 8.63825E-03-2.84917E-04-4.81689E-14
 -1      2551 8.45775E-03-3.54878E-04-4.74696E-14
 -1      2552 7.96238E-03 2.46964E-04-4.46273E-14
 -1      2553 8.14153E-03 1.52527E-04-4.55331E-14
 -1      2554 7.39799E-03-9.32313E-04-4.19957E-14
 -1      2555 7.23569E-03-1.02098E-03-4.07232E-14
 -1      2556 5.41909E-03 2.90264E-04-2.83455E-14
 -1      2557 5.63741E-03 4.11167E-04-2.92250E-14
 -1      2558 5.44585E-04-2.10795E-05-4.84178E-16
 -1      2559 5.45262E-04-3.58827E-05-4.84164E-16
 -1      2560 6.60069E-04-5.13986E-05-6.55807E-16
 -1      2561 6.58265E-04-1.62815E-05-6.55834E-16
 -1      2562 6.61087E-03 8.57448E-04-3.52728E-14
 -1      2563 6.74344E-03 8.55652E-04-3.64337E-14
 -1      2564 4.48840E-03-7.20933E-05-2.60016E-14
 -1      2565 4.55325E-03-5.71382E-05-2.59846E-14
 -1      2566 6.87380E-03 8.30403E-04-3.75168E-14
 -1      2567 7.00784E-03 7.80759E-04-3.86196E-14
 -1      2568 6.80479E-03 8.50436E-04-3.69915E-14
 -1      2569 6.25084E-03 7.50519E-04-3.25393E-14
 -1      2570 6.41444E-03 8.18185E-04-3.37217E-14
 -1      2571 5.86515E-03 5.39699E-04-3.03612E-14
 -1      2572 6.04879E-03 6.47388E-04-3.13292E-14
 -1      2573 5.04445E-03 1.11237E-04-2.71520E-14
 -1      2574 5.19690E-03 1.79494E-04-2.76053E-14
 -1      2575 4.69774E-03-1.52184E-05-2.63070E-14
 -1      2576 4.86201E-03 3.80170E-05-2.67215E-14
 -1      2577 4.45822E-03-9.38346E-05-2.60862E-14
 -1      2578 4.45473E-03-8.59899E-05-2.60440E-14
 -1      2579 4.44895E-03-7.78841E-05-2.52868E-14
 -1      2580 4.60534E-03-1.34574E-04-2.65267E-14
 -1      2581 4.51185E-03-1.12115E-04-2.63220E-14
 -1      2582 4.91923E-03-2.39141E-04-2.73230E-14
 -1      2583 4.75554E-03-1.81462E-04-2.68733E-14
 -1      2584 5.30032E-03-4.10902E-04-2.84533E-14
 -1      2585 5.11912E-03-3.23628E-04-2.78625E-14
 -1      2586 5.73391E-03-6.56083E-04-3.02908E-14
 -1      2587 5.53745E-03-5.38810E-04-2.94102E-14
 -1      2588 6.10459E-03-8.84081E-04-3.21725E-14
 -1      2589 5.93638E-03-7.78550E-04-3.12608E-14
 -1      2590 6.41481E-03-1.05224E-03-3.41475E-14
 -1      2591 6.27434E-03-9.79742E-04-3.32113E-14
 -1      2592 7.10684E-03-1.07724E-03-3.97069E-14
 -1      2593 6.98716E-03-1.11905E-03-3.87075E-14
 -1      2594 7.18963E-03-1.05304E-03-4.06127E-14
 -1      2595 8.26213E-03-4.43661E-04-4.66873E-14
 -1      2596 8.10630E-03-5.22530E-04-4.59689E-14
 -1      2597 8.92779E-03-1.45810E-04-4.90838E-14
 -1      2598 8.99231E-03-1.60116E-04-4.95634E-14
 -1      2599 8.89665E-03-2.03988E-04-4.92822E-14
 -1      2600 8.81064E-03-2.26502E-04-4.90280E-14
 -1      2601 8.95472E-03-1.94987E-04-5.07014E-14
 -1      2602 5.90253E-04-2.29152E-04-3.84119E-16
 -1      2603 7.83736E-04-2.92578E-04-6.13808E-16
 -1      2604 8.43452E-04-2.79986E-04-7.55337E-16
 -1      2605 5.80686E-04-2.01302E-04-4.10533E-16
 -1      2606 7.59706E-04 3.22976E-04-4.08676E-16
 -1      2607 6.12757E-04 2.76189E-04-2.66646E-16
 -1      2608 5.86230E-04 2.49621E-04-2.78491E-16
 -1      2609 8.16166E-04 3.10227E-04-5.40936E-16
 -1      2610 7.59895E-03 4.57430E-04-4.26148E-14
 -1      2611 7.77042E-03 3.54741E-04-4.35701E-14
 -1      2612 6.51021E-03 8.47903E-04-3.43460E-14
 -1      2613 6.70142E-04-1.28938E-04-6.33242E-16
 -1      2614 5.54994E-04-1.18514E-04-4.61491E-16
 -1      2615 5.58674E-04-1.37998E-04-4.50323E-16
 -1      2616 1.36370E-03 4.08380E-04-1.52230E-15
 -1      2617 5.73911E-04 2.19333E-04-3.14392E-16
 -1      2618 7.48945E-03 5.20837E-04-4.23087E-14
 -1      2619 8.90290E-03-1.40318E-04-4.99847E-14
 -1      2620 6.52561E-03-1.09845E-03-3.48479E-14
 -1      2621 6.44520E-03-1.07124E-03-3.40896E-14
 -1      2622 6.61988E-03-1.13004E-03-3.55550E-14
 -1      2623 6.18327E-03-9.31790E-04-3.23594E-14
 -1      2624 8.64566E-03-6.44615E-05-4.87426E-14
 -1      2625 1.44417E-02-6.69846E-05-1.63143E-13
 -1      2626 8.74531E-03-2.52298E-04-4.95726E-14
 -1      2627 1.44344E-02-9.88559E-05-1.62964E-13
 -1      2628 5.83606E-03-7.19117E-04-3.03680E-14
 -1      2629 1.46475E-02-1.11599E-03-1.65530E-13
 -1      2630 1.46786E-02-1.06673E-03-1.66339E-13
 -1      2631 1.45489E-02-1.03525E-03-1.63695E-13
 -1      2632 1.45190E-02-1.10350E-03-1.62856E-13
 -1      2633 5.41695E-03-4.74487E-04-2.84614E-14
 -1      2634 5.00141E-03-2.73050E-04-2.69947E-14
 -1      2635 9.02276E-03-1.70931E-04-5.06552E-14
 -1      2636 9.03711E-03-1.78772E-04-5.17510E-14
 -1      2637 9.02344E-03-1.68585E-04-5.14436E-14
 -1      2638 6.91593E-04 2.40553E-04-4.62439E-16
 -1      2639 8.25832E-03 9.31471E-05-4.68060E-14
 -1      2640 4.46752E-03-9.79495E-05-2.55596E-14
 -1      2641 8.38519E-03-3.91520E-04-4.79125E-14
 -1      2642 4.60445E-03-3.91867E-05-2.55599E-14
 -1      2643 4.65720E-03-1.53749E-05-2.51351E-14
 -1      2644 4.52630E-03-4.99305E-05-2.48233E-14
 -1      2645 7.97934E-03-5.97675E-04-4.58260E-14
 -1      2646 4.92581E-03 7.06940E-05-2.62983E-14
 -1      2647 5.73333E-03 4.75388E-04-2.92849E-14
 -1      2648 6.89156E-03-1.14286E-03-3.79407E-14
 -1      2649 6.80680E-03-1.15255E-03-3.71826E-14
 -1      2650 6.98114E-03-1.13331E-03-3.88161E-14
 -1      2651 5.30894E-03 2.45386E-04-2.74433E-14
 -1      2652 7.51952E-03-8.68385E-04-4.30832E-14
 -1      2653 7.42886E-03-9.37518E-04-4.27243E-14
 -1      2654 7.64165E-03-8.04477E-04-4.41871E-14
 -1      2655 7.86872E-03 2.95426E-04-4.46785E-14
 -1      2656 7.10352E-03 7.39826E-04-3.95374E-14
 -1      2657 5.65529E-04-1.56424E-04-4.42449E-16
 -1      2658 5.71278E-04-1.79286E-04-4.24885E-16
 -1      2659 6.99777E-04-2.16795E-04-5.86852E-16
 -1      2660 6.81829E-04-1.71382E-04-6.12791E-16
 -1      2661 6.14220E-03 7.04808E-04-3.16074E-14
 -1      2662 4.66334E-03-1.50771E-04-2.61294E-14
 -1      2663 1.43161E-02-1.10373E-04-1.60508E-13
 -1      2664 1.44371E-02-1.06037E-03-1.61260E-13
 -1      2665 7.77107E-04 7.10579E-05-8.26663E-16
 -1      2666 7.75311E-04 5.08183E-05-8.36882E-16
 -1      2667 7.74078E-04 3.06608E-05-8.45163E-16
 -1      2668 7.73452E-04 1.08153E-05-8.51302E-16
 -1      2669 8.91379E-04 4.52703E-05-1.06676E-15
 -1      2670 7.91616E-04 1.61859E-04-7.58928E-16
 -1      2671 7.86751E-04 1.37410E-04-7.80626E-16
 -1      2672 8.05025E-04 2.15746E-04-7.03661E-16
 -1      2673 7.97683E-04 1.87904E-04-7.33707E-16
 -1      2674 9.15159E-04 1.94115E-04-9.53407E-16
 -1      2675 1.13373E-03 3.42641E-04-1.13093E-15
 -1      2676 9.89428E-04 3.16588E-04-8.71929E-16
 -1      2677 8.16944E-03 1.39405E-04-4.71161E-14
 -1      2678 8.36269E-03 4.94408E-05-4.81872E-14
 -1      2679 7.25741E-03-1.04018E-03-4.14580E-14
 -1      2680 7.14618E-03-1.09059E-03-4.04281E-14
 -1      2681 1.42173E-03 3.81913E-04-1.75916E-15
 -1      2682 1.27773E-03 3.64297E-04-1.42650E-15
 -1      2683 1.19318E-03 3.20901E-04-1.32754E-15
 -1      2684 8.05506E-04 2.65463E-04-6.15569E-16
 -1      2685 8.88465E-03-1.33805E-04-5.10626E-14
 -1      2686 8.96366E-03-1.51470E-04-5.14318E-14
 -1      2687 8.30384E-04-2.51901E-04-7.77847E-16
 -1      2688 9.62507E-04-2.84559E-04-9.98740E-16
 -1      2689 8.19321E-04-2.25613E-04-7.96184E-16
 -1      2690 1.32433E-03-3.38782E-04-1.79545E-15
 -1      2691 1.46823E-03-3.54200E-04-2.17846E-15
 -1      2692 1.61201E-03-3.66487E-04-2.60019E-15
 -1      2693 1.75583E-03-3.75856E-04-3.06063E-15
 -1      2694 1.52817E-03-3.26815E-04-2.42712E-15
 -1      2695 1.89958E-03-3.82793E-04-3.55926E-15
 -1      2696 2.04337E-03-3.87507E-04-4.09681E-15
 -1      2697 1.81541E-03-3.44872E-04-3.35273E-15
 -1      2698 2.18719E-03-3.90406E-04-4.67267E-15
 -1      2699 2.33113E-03-3.91677E-04-5.28681E-15
 -1      2700 2.10253E-03-3.54021E-04-4.43109E-15
 -1      2701 2.47517E-03-3.91686E-04-5.93967E-15
 -1      2702 2.61943E-03-3.90617E-04-6.63060E-15
 -1      2703 2.38947E-03-3.56510E-04-5.66207E-15
 -1      2704 2.76388E-03-3.88820E-04-7.35889E-15
 -1      2705 2.90865E-03-3.86498E-04-8.12511E-15
 -1      2706 2.67635E-03-3.54414E-04-7.04456E-15
 -1      2707 3.05373E-03-3.84017E-04-8.92941E-15
 -1      2708 3.19926E-03-3.81623E-04-9.77117E-15
 -1      2709 2.96335E-03-3.49783E-04-8.57744E-15
 -1      2710 3.34525E-03-3.79729E-04-1.06499E-14
 -1      2711 3.49192E-03-3.78662E-04-1.15656E-14
 -1      2712 3.25083E-03-3.44808E-04-1.02597E-14
 -1      2713 3.63932E-03-3.78896E-04-1.25178E-14
 -1      2714 3.78773E-03-3.80905E-04-1.35072E-14
 -1      2715 3.53945E-03-3.42025E-04-1.20893E-14
 -1      2716 3.93736E-03-3.85220E-04-1.45328E-14
 -1      2717 4.08853E-03-3.92550E-04-1.55941E-14
 -1      2718 3.83047E-03-3.44545E-04-1.40656E-14
 -1      2719 4.24170E-03-4.03448E-04-1.66918E-14
 -1      2720 4.39724E-03-4.19000E-04-1.78264E-14
 -1      2721 4.12614E-03-3.56342E-04-1.61856E-14
 -1      2722 4.55594E-03-4.39704E-04-1.89978E-14
 -1      2723 4.71808E-03-4.67146E-04-2.02046E-14
 -1      2724 4.43026E-03-3.82695E-04-1.84504E-14
 -1      2725 4.88482E-03-5.01874E-04-2.14485E-14
 -1      2726 5.05593E-03-5.45617E-04-2.27292E-14
 -1      2727 4.74835E-03-4.30925E-04-2.08611E-14
 -1      2728 5.23350E-03-5.97862E-04-2.40475E-14
 -1      2729 5.41493E-03-6.61442E-04-2.54034E-14
 -1      2730 5.08818E-03-5.10341E-04-2.34154E-14
 -1      2731 5.60166E-03-7.35530E-04-2.67993E-14
 -1      2732 5.79005E-03-8.18405E-04-2.82353E-14
 -1      2733 5.45424E-03-6.33222E-04-2.61196E-14
 -1      2734 5.98039E-03-9.07110E-04-2.97136E-14
 -1      2735 6.16777E-03-9.95017E-04-3.12354E-14
 -1      2736 5.84156E-03-8.04013E-04-2.89831E-14
 -1      2737 6.75309E-03-1.17674E-03-3.66344E-14
 -1      2738 6.92771E-03-1.17231E-03-3.83662E-14
 -1      2739 7.08183E-03-1.14817E-03-3.99594E-14
 -1      2740 7.26022E-03-1.09333E-03-4.17850E-14
 -1      2741 7.44351E-03-1.02141E-03-4.36584E-14
 -1      2742 7.63034E-03-9.44685E-04-4.55794E-14
 -1      2743 7.40876E-03-1.00479E-03-4.31237E-14
 -1      2744 7.82049E-03-8.68199E-04-4.75437E-14
 -1      2745 8.00782E-03-7.98431E-04-4.95498E-14
 -1      2746 7.79629E-03-8.37879E-04-4.69860E-14
 -1      2747 8.19322E-03-7.38176E-04-5.15962E-14
 -1      2748 8.37338E-03-6.87545E-04-5.36805E-14
 -1      2749 8.17810E-03-7.00131E-04-5.10187E-14
 -1      2750 8.54930E-03-6.47599E-04-5.58002E-14
 -1      2751 8.71978E-03-6.16489E-04-5.79532E-14
 -1      2752 8.53788E-03-6.08083E-04-5.52025E-14
 -1      2753 8.88595E-03-5.94243E-04-6.01423E-14
 -1      2754 9.04789E-03-5.78915E-04-6.23635E-14
 -1      2755 8.87360E-03-5.56111E-04-5.95242E-14
 -1      2756 9.20651E-03-5.70112E-04-6.46162E-14
 -1      2757 9.36223E-03-5.66396E-04-6.69000E-14
 -1      2758 9.19034E-03-5.33703E-04-6.39775E-14
 -1      2759 9.51569E-03-5.67220E-04-6.92126E-14
 -1      2760 9.66731E-03-5.71619E-04-7.15534E-14
 -1      2761 9.49448E-03-5.31963E-04-6.85511E-14
 -1      2762 9.81744E-03-5.79030E-04-7.39225E-14
 -1      2763 9.96645E-03-5.88834E-04-7.63190E-14
 -1      2764 9.79102E-03-5.44294E-04-7.32410E-14
 -1      2765 1.01145E-02-6.00530E-04-7.87421E-14
 -1      2766 1.02618E-02-6.13725E-04-8.11916E-14
 -1      2767 1.00833E-02-5.65888E-04-7.80392E-14
 -1      2768 1.04085E-02-6.28015E-04-8.36630E-14
 -1      2769 1.05547E-02-6.43152E-04-8.61607E-14
 -1      2770 1.03731E-02-5.93254E-04-8.29399E-14
 -1      2771 1.07005E-02-6.58834E-04-8.86819E-14
 -1      2772 1.08459E-02-6.74909E-04-9.12270E-14
 -1      2773 1.06617E-02-6.23888E-04-8.79386E-14
 -1      2774 1.09910E-02-6.91164E-04-9.37965E-14
 -1      2775 1.11359E-02-7.07508E-04-9.63859E-14
 -1      2776 1.09495E-02-6.56044E-04-9.30356E-14
 -1      2777 1.12805E-02-7.23802E-04-9.89994E-14
 -1      2778 1.14249E-02-7.39996E-04-1.01635E-13
 -1      2779 1.12369E-02-6.88553E-04-9.82225E-14
 -1      2780 1.15691E-02-7.56006E-04-1.04291E-13
 -1      2781 1.17132E-02-7.71807E-04-1.06970E-13
 -1      2782 1.15239E-02-7.20676E-04-1.03499E-13
 -1      2783 1.18571E-02-7.87357E-04-1.09670E-13
 -1      2784 1.20008E-02-8.02647E-04-1.12391E-13
 -1      2785 1.18106E-02-7.51990E-04-1.08863E-13
 -1      2786 1.21445E-02-8.17661E-04-1.15134E-13
 -1      2787 1.22880E-02-8.32401E-04-1.17898E-13
 -1      2788 1.20972E-02-7.82288E-04-1.14313E-13
 -1      2789 1.24314E-02-8.46869E-04-1.20681E-13
 -1      2790 1.25748E-02-8.61072E-04-1.23484E-13
 -1      2791 1.23835E-02-8.11512E-04-1.19845E-13
 -1      2792 1.27181E-02-8.75022E-04-1.26306E-13
 -1      2793 1.28613E-02-8.88732E-04-1.29147E-13
 -1      2794 1.26698E-02-8.39693E-04-1.25455E-13
 -1      2795 1.30044E-02-9.02218E-04-1.32005E-13
 -1      2796 1.31475E-02-9.15492E-04-1.34880E-13
 -1      2797 1.29559E-02-8.66922E-04-1.31138E-13
 -1      2798 1.32906E-02-9.28576E-04-1.37770E-13
 -1      2799 1.34336E-02-9.41482E-04-1.40672E-13
 -1      2800 1.32419E-02-8.93315E-04-1.36887E-13
 -1      2801 1.35766E-02-9.54231E-04-1.43589E-13
 -1      2802 1.37196E-02-9.66834E-04-1.46520E-13
 -1      2803 1.35278E-02-9.19000E-04-1.42694E-13
 -1      2804 1.38626E-02-9.79313E-04-1.49459E-13
 -1      2805 1.40055E-02-9.91678E-04-1.52408E-13
 -1      2806 1.38136E-02-9.44108E-04-1.48550E-13
 -1      2807 1.41484E-02-1.00395E-03-1.55362E-13
 -1      2808 1.42913E-02-1.01614E-03-1.58325E-13
 -1      2809 1.40994E-02-9.68762E-04-1.54445E-13
 -1      2810 5.51789E-03-5.38285E-04-2.84027E-14
 -1      2811 5.30396E-03-4.23318E-04-2.74692E-14
 -1      2812 5.91425E-03-7.77068E-04-3.04001E-14
 -1      2813 5.73583E-03-6.65450E-04-2.94494E-14
 -1      2814 1.99677E-03 4.21715E-04-3.46041E-15
 -1      2815 1.85297E-03 4.15629E-04-2.97916E-15
 -1      2816 2.86520E-03 4.27627E-04-7.12706E-15
 -1      2817 2.71940E-03 4.28843E-04-6.42242E-15
 -1      2818 3.15871E-03 4.25008E-04-8.64643E-15
 -1      2819 3.01160E-03 4.26260E-04-7.86830E-15
 -1      2820 2.92318E-03 3.89989E-04-7.60396E-15
 -1      2821 3.45540E-03 4.24368E-04-1.03136E-14
 -1      2822 3.30660E-03 4.24267E-04-9.46167E-15
 -1      2823 3.21518E-03 3.86920E-04-9.16753E-15
 -1      2824 3.75624E-03 4.28842E-04-1.21281E-14
 -1      2825 3.60525E-03 4.25750E-04-1.12027E-14
 -1      2826 3.50998E-03 3.86161E-04-1.08788E-14
 -1      2827 4.06240E-03 4.42134E-04-1.40916E-14
 -1      2828 3.90860E-03 4.34119E-04-1.30912E-14
 -1      2829 3.80879E-03 3.90801E-04-1.27364E-14
 -1      2830 4.37531E-03 4.68486E-04-1.62027E-14
 -1      2831 4.21800E-03 4.53363E-04-1.51279E-14
 -1      2832 4.11329E-03 4.04543E-04-1.47421E-14
 -1      2833 4.69632E-03 5.12316E-04-1.84635E-14
 -1      2834 4.53487E-03 4.87898E-04-1.73145E-14
 -1      2835 4.42562E-03 4.31754E-04-1.68950E-14
 -1      2836 5.02601E-03 5.77222E-04-2.08755E-14
 -1      2837 4.86030E-03 5.41907E-04-1.96505E-14
 -1      2838 4.74796E-03 4.77199E-04-1.91963E-14
 -1      2839 5.36295E-03 6.63940E-04-2.34429E-14
 -1      2840 5.19405E-03 6.17972E-04-2.21394E-14
 -1      2841 5.08161E-03 5.45189E-04-2.16469E-14
 -1      2842 5.70232E-03 7.66517E-04-2.61724E-14
 -1      2843 5.53301E-03 7.14121E-04-2.47873E-14
 -1      2844 5.42501E-03 6.37254E-04-2.42537E-14
 -1      2845 6.03672E-03 8.68229E-04-2.90737E-14
 -1      2846 5.87069E-03 8.19122E-04-2.76009E-14
 -1      2847 5.77186E-03 7.46548E-04-2.70229E-14
 -1      2848 6.36001E-03 9.42702E-04-3.21547E-14
 -1      2849 6.19954E-03 9.11218E-04-3.05913E-14
 -1      2850 6.11230E-03 8.53385E-04-2.99661E-14
 -1      2851 6.67411E-03 9.60885E-04-3.54224E-14
 -1      2852 6.51716E-03 9.60063E-04-3.37647E-14
 -1      2853 6.43999E-03 9.24793E-04-3.30927E-14
 -1      2854 6.98827E-03 9.12641E-04-3.88749E-14
 -1      2855 6.82968E-03 9.44831E-04-3.71256E-14
 -1      2856 6.75810E-03 9.28204E-04-3.64081E-14
 -1      2857 7.31272E-03 8.10298E-04-4.25116E-14
 -1      2858 7.14875E-03 8.66181E-04-4.06715E-14
 -1      2859 7.08086E-03 8.57605E-04-3.99118E-14
 -1      2860 7.64792E-03 6.83108E-04-4.63195E-14
 -1      2861 7.47934E-03 7.47742E-04-4.43939E-14
 -1      2862 7.41677E-03 7.36490E-04-4.35975E-14
 -1      2863 7.98765E-03 5.57312E-04-5.02920E-14
 -1      2864 7.81795E-03 6.18717E-04-4.82841E-14
 -1      2865 7.76245E-03 6.00770E-04-4.74542E-14
 -1      2866 8.32453E-03 4.48431E-04-5.44163E-14
 -1      2867 8.15706E-03 5.00306E-04-5.23373E-14
 -1      2868 8.10846E-03 4.76237E-04-5.14714E-14
 -1      2869 8.65410E-03 3.61513E-04-5.86818E-14
 -1      2870 8.49055E-03 4.02278E-04-5.65315E-14
 -1      2871 8.44673E-03 3.74328E-04-5.56376E-14
 -1      2872 8.97517E-03 2.95512E-04-6.30854E-14
 -1      2873 8.81580E-03 3.26156E-04-6.08672E-14
 -1      2874 8.77396E-03 2.96086E-04-5.99408E-14
 -1      2875 9.28845E-03 2.46787E-04-6.76163E-14
 -1      2876 9.13277E-03 2.69290E-04-6.53357E-14
 -1      2877 9.09056E-03 2.38075E-04-6.43791E-14
 -1      2878 9.59536E-03 2.11117E-04-7.22693E-14
 -1      2879 9.44264E-03 2.27589E-04-6.99282E-14
 -1      2880 9.39853E-03 1.95684E-04-6.89423E-14
 -1      2881 9.89729E-03 1.84634E-04-7.70332E-14
 -1      2882 9.74687E-03 1.96944E-04-7.46375E-14
 -1      2883 9.70011E-03 1.64569E-04-7.36254E-14
 -1      2884 1.01954E-02 1.64158E-04-8.19063E-14
 -1      2885 1.00468E-02 1.73809E-04-7.94568E-14
 -1      2886 9.99716E-03 1.41109E-04-7.84178E-14
 -1      2887 1.04907E-02 1.47253E-04-8.68802E-14
 -1      2888 1.03434E-02 1.55378E-04-8.43807E-14
 -1      2889 1.02911E-02 1.22477E-04-8.33162E-14
 -1      2890 1.07837E-02 1.32151E-04-9.19553E-14
 -1      2891 1.06374E-02 1.39559E-04-8.94050E-14
 -1      2892 1.05827E-02 1.06572E-04-8.83146E-14
 -1      2893 1.10749E-02 1.17639E-04-9.71298E-14
 -1      2894 1.09295E-02 1.24876E-04-9.45323E-14
 -1      2895 1.08729E-02 9.19008E-05-9.34157E-14
 -1      2896 1.13648E-02 1.02932E-04-1.02395E-13
 -1      2897 1.12200E-02 1.10344E-04-9.97511E-14
 -1      2898 1.11619E-02 7.74545E-05-9.86130E-14
 -1      2899 1.16537E-02 8.75653E-05-1.07748E-13
 -1      2900 1.15094E-02 9.53500E-05-1.05061E-13
 -1      2901 1.14500E-02 6.25969E-05-1.03898E-13
 -1      2902 1.19417E-02 7.12997E-05-1.13183E-13
 -1      2903 1.17978E-02 7.95534E-05-1.10456E-13
 -1      2904 1.17376E-02 4.69644E-05-1.09269E-13
 -1      2905 1.22291E-02 5.40507E-05-1.18693E-13
 -1      2906 1.20854E-02 6.28001E-05-1.15929E-13
 -1      2907 1.20246E-02 3.03852E-05-1.14722E-13
 -1      2908 1.25159E-02 3.58328E-05-1.24266E-13
 -1      2909 1.23725E-02 4.50606E-05-1.21472E-13
 -1      2910 1.23113E-02 1.28168E-05-1.20247E-13
 -1      2911 1.28025E-02 1.67201E-05-1.29898E-13
 -1      2912 1.26592E-02 2.63836E-05-1.27077E-13
 -1      2913 1.25977E-02-5.70136E-06-1.25834E-13
 -1      2914 1.30887E-02-3.18048E-06-1.35582E-13
 -1      2915 1.29456E-02 6.86242E-06-1.32734E-13
 -1      2916 1.28839E-02-2.50818E-05-1.31477E-13
 -1      2917 1.33748E-02-2.37477E-05-1.41320E-13
 -1      2918 1.32318E-02-1.33872E-05-1.38444E-13
 -1      2919 1.31700E-02-4.52118E-05-1.37171E-13
 -1      2920 1.36608E-02-4.48572E-05-1.47108E-13
 -1      2921 1.35178E-02-3.42410E-05-1.44209E-13
 -1      2922 1.34559E-02-6.59686E-05-1.42920E-13
 -1      2923 1.39466E-02-6.63877E-05-1.52938E-13
 -1      2924 1.38037E-02-5.55763E-05-1.50015E-13
 -1      2925 1.37418E-02-8.72296E-05-1.48718E-13
 -1      2926 1.42028E-02-9.38067E-05-1.58185E-13
 -1      2927 1.40599E-02-8.28661E-05-1.55252E-13
 -1      2928 1.39980E-02-1.14467E-04-1.53945E-13
 -1      2929 1.42247E-02-1.47516E-04-1.58581E-13
 -1      2930 8.83105E-03-2.37042E-04-5.10071E-14
 -1      2931 8.67225E-03-2.85134E-04-5.01298E-14
 -1      2932 1.43197E-02-5.51685E-04-1.59988E-13
 -1      2933 1.43084E-02-5.09809E-04-1.59821E-13
 -1      2934 1.43717E-02-1.02121E-03-1.60000E-13
 -1      2935 1.44685E-02-1.03022E-03-1.62013E-13
 -1      2936 1.44835E-02-9.96112E-04-1.62428E-13
 -1      2937 1.43227E-02-9.86028E-04-1.59077E-13
 -1      2938 1.42747E-02-3.84111E-04-1.59311E-13
 -1      2939 1.42635E-02-3.42174E-04-1.59140E-13
 -1      2940 1.43424E-02-6.35436E-04-1.60314E-13
 -1      2941 1.43310E-02-5.93559E-04-1.60154E-13
 -1      2942 1.42018E-02-5.62637E-04-1.57517E-13
 -1      2943 1.42971E-02-4.67924E-04-1.59652E-13
 -1      2944 1.42859E-02-4.26027E-04-1.59480E-13
 -1      2945 1.41566E-02-3.95337E-04-1.56849E-13
 -1      2946 1.41791E-02-4.79013E-04-1.57186E-13
 -1      2947 1.43648E-02-7.17799E-04-1.60623E-13
 -1      2948 1.43536E-02-6.76611E-04-1.60471E-13
 -1      2949 1.42243E-02-6.45553E-04-1.57834E-13
 -1      2950 1.43878E-02-8.01652E-04-1.60925E-13
 -1      2951 1.43763E-02-7.59715E-04-1.60776E-13
 -1      2952 1.42469E-02-7.28521E-04-1.58142E-13
 -1      2953 1.44109E-02-8.85604E-04-1.61209E-13
 -1      2954 1.43993E-02-8.43615E-04-1.61068E-13
 -1      2955 1.42699E-02-8.12294E-04-1.58436E-13
 -1      2956 1.70926E-03 4.07171E-04-2.53542E-15
 -1      2957 1.56550E-03 3.96115E-04-2.12884E-15
 -1      2958 1.48085E-03 3.54881E-04-2.00439E-15
 -1      2959 1.76851E-03 3.76359E-04-2.82849E-15
 -1      2960 4.48086E-03-1.02048E-04-2.50137E-14
 -1      2961 4.42951E-03-9.06133E-05-2.47868E-14
 -1      2962 9.00359E-03-1.95221E-04-5.21160E-14
 -1      2963 8.95097E-03-2.06496E-04-5.18549E-14
 -1      2964 6.25591E-03-9.83005E-04-3.25716E-14
 -1      2965 6.10773E-03-8.95679E-04-3.15466E-14
 -1      2966 6.77516E-03 8.64850E-04-3.67133E-14
 -1      2967 6.88653E-03 8.38882E-04-3.78050E-14
 -1      2968 2.57414E-03 4.29543E-04-5.75569E-15
 -1      2969 2.42930E-03 4.29499E-04-5.12584E-15
 -1      2970 2.63308E-03 3.92754E-04-6.18727E-15
 -1      2971 2.28486E-03 4.28350E-04-4.53281E-15
 -1      2972 2.14070E-03 4.25886E-04-3.97822E-15
 -1      2973 2.34426E-03 3.92892E-04-4.91926E-15
 -1      2974 1.07137E-03-3.03387E-04-1.21332E-15
 -1      2975 1.21521E-03-3.25441E-04-1.52877E-15
 -1      2976 1.27565E-03-3.02350E-04-1.73791E-15
 -1      2977 1.05825E-03-2.73664E-04-1.23747E-15
 -1      2978 7.82759E-04 1.14320E-04-7.98732E-16
 -1      2979 7.79592E-04 9.22363E-05-8.14155E-16
 -1      2980 8.95841E-04 9.12016E-05-1.04157E-15
 -1      2981 9.03515E-04 1.40180E-04-1.00483E-15
 -1      2982 8.49910E-03-3.53254E-04-4.93149E-14
 -1      2983 8.32649E-03-4.31454E-04-4.85122E-14
 -1      2984 7.40807E-03 5.75751E-04-4.21488E-14
 -1      2985 7.58991E-03 4.63284E-04-4.34584E-14
 -1      2986 7.79261E-04-9.03521E-05-8.51072E-16
 -1      2987 7.82352E-04-1.12306E-04-8.44336E-16
 -1      2988 6.02852E-03 6.55349E-04-3.06023E-14
 -1      2989 6.20591E-03 7.50797E-04-3.17908E-14
 -1      2990 8.09594E-03-5.51542E-04-4.73416E-14
 -1      2991 7.88995E-03-6.65745E-04-4.60390E-14
 -1      2992 4.70768E-03-1.66051E-04-2.55657E-14
 -1      2993 4.57492E-03-1.27565E-04-2.52350E-14
 -1      2994 5.62620E-03 4.36283E-04-2.82235E-14
 -1      2995 5.82886E-03 5.49617E-04-2.93330E-14
 -1      2996 4.81136E-03 4.23498E-05-2.53176E-14
 -1      2997 4.97015E-03 1.05632E-04-2.57290E-14
 -1      2998 7.78710E-03 3.46602E-04-4.47604E-14
 -1      2999 7.95903E-03 2.48513E-04-4.58367E-14
 -1      3000 4.41282E-03-7.85355E-05-2.44918E-14
 -1      3001 4.43637E-03-7.07752E-05-2.44507E-14
 -1      3002 5.05626E-03-3.04383E-04-2.64937E-14
 -1      3003 4.88166E-03-2.30534E-04-2.59775E-14
 -1      3004 8.57050E-03-3.55941E-05-4.93128E-14
 -1      3005 8.73926E-03-9.19275E-05-5.01975E-14
 -1      3006 5.17725E-03 2.01666E-04-2.63343E-14
 -1      3007 5.37131E-03 3.00477E-04-2.70471E-14
 -1      3008 7.05247E-03 7.74686E-04-3.93146E-14
 -1      3009 7.22558E-03 6.82983E-04-4.07974E-14
 -1      3010 6.40518E-03 8.31657E-04-3.33136E-14
 -1      3011 6.57710E-03 8.67933E-04-3.48516E-14
 -1      3012 7.86251E-04-1.35243E-04-8.34944E-16
 -1      3013 7.90996E-04-1.59404E-04-8.22164E-16
 -1      3014 9.02945E-04-1.37790E-04-1.06584E-15
 -1      3015 8.89850E-04 8.27645E-07-1.08171E-15
 -1      3016 7.73410E-04-8.95333E-06-8.55422E-16
 -1      3017 7.73954E-04-2.87679E-05-8.57468E-16
 -1      3018 8.67110E-04 2.52646E-04-7.56299E-16
 -1      3019 8.48950E-03 7.92732E-06-4.96268E-14
 -1      3020 7.06015E-03-1.12671E-03-3.96329E-14
 -1      3021 6.29234E-03 8.02790E-04-3.22663E-14
 -1      3022 6.36307E-03 8.42371E-04-3.27409E-14
 -1      3023 6.17971E-03 7.67698E-04-3.12369E-14
 -1      3024 7.00839E-03 8.03950E-04-3.90231E-14
 -1      3025 5.03649E-03 1.62021E-04-2.53459E-14
 -1      3026 6.72178E-03-1.15178E-03-3.63903E-14
 -1      3027 8.83195E-03-1.11204E-04-5.16410E-14
 -1      3028 8.23376E-03-5.01671E-04-4.87285E-14
 -1      3029 5.15631E-03-3.62778E-04-2.64340E-14
 -1      3030 5.01723E-03-3.18120E-04-2.54213E-14
 -1      3031 5.24262E-03-4.24911E-04-2.63694E-14
 -1      3032 6.35172E-03-1.08006E-03-3.28033E-14
 -1      3033 6.52946E-03-1.14121E-03-3.44200E-14
 -1      3034 1.41344E-02-3.11920E-04-1.56508E-13
 -1      3035 1.42525E-02-3.00568E-04-1.58966E-13
 -1      3036 1.42415E-02-2.58936E-04-1.58793E-13
 -1      3037 5.60360E-03-6.04137E-04-2.84291E-14
 -1      3038 4.39329E-03-8.19019E-05-2.39583E-14
 -1      3039 2.05621E-03 3.88190E-04-3.79969E-15
 -1      3040 8.90608E-03-2.30955E-04-5.24214E-14
 -1      3041 7.69634E-03 4.12887E-04-4.45921E-14
 -1      3042 1.42385E-02-2.24090E-04-1.58774E-13
 -1      3043 1.42276E-02-1.82407E-04-1.58601E-13
 -1      3044 1.41143E-02-1.65852E-04-1.56280E-13
 -1      3045 1.41203E-02-2.35540E-04-1.56317E-13
 -1      3046 6.38948E-03-1.05416E-03-3.35091E-14
 -1      3047 6.30353E-03-1.02502E-03-3.26701E-14
 -1      3048 4.69697E-03 1.70547E-05-2.45819E-14
 -1      3049 5.47381E-03 3.81704E-04-2.70851E-14
 -1      3050 8.61869E-03-3.23834E-04-5.07411E-14
 -1      3051 1.44343E-02-9.69665E-04-1.61469E-13
 -1      3052 1.44226E-02-9.27621E-04-1.61341E-13
 -1      3053 4.75726E-03-1.95520E-04-2.50811E-14
 -1      3054 9.05223E-03-1.88061E-04-5.29122E-14
 -1      3055 9.06775E-03-1.99858E-04-5.40809E-14
 -1      3056 9.08689E-03-1.85105E-04-5.37110E-14
 -1      3057 5.90482E-03 6.12958E-04-2.95008E-14
 -1      3058 9.02784E-03-1.63159E-04-5.25337E-14
 -1      3059 6.66567E-03 8.78486E-04-3.56285E-14
 -1      3060 4.45359E-03-5.72102E-05-2.40349E-14
 -1      3061 4.47741E-03-3.98640E-05-2.36201E-14
 -1      3062 4.39157E-03-5.89032E-05-2.32569E-14
 -1      3063 5.99615E-03-8.43036E-04-3.05992E-14
 -1      3064 9.85106E-04 2.59731E-04-9.84266E-16
 -1      3065 7.78081E-03-7.48608E-04-4.56648E-14
 -1      3066 7.75098E-04-4.87786E-05-8.57306E-16
 -1      3067 7.76848E-04-6.92806E-05-8.55164E-16
 -1      3068 8.95461E-04-8.91042E-05-1.08175E-15
 -1      3069 8.91189E-04-4.34568E-05-1.08671E-15
 -1      3070 7.33582E-03 6.32203E-04-4.19155E-14
 -1      3071 4.50300E-03-1.13911E-04-2.44643E-14
 -1      3072 8.08674E-03 1.94388E-04-4.71963E-14
 -1      3073 7.37058E-03-9.91450E-04-4.25326E-14
 -1      3074 1.42931E-02-8.96193E-04-1.58709E-13
 -1      3075 6.48087E-03-1.10121E-03-3.41955E-14
 -1      3076 8.42847E-03 5.46706E-05-5.02675E-14
 -1      3077 8.61400E-03-2.08635E-05-5.14191E-14
 -1      3078 1.04098E-03 2.26888E-04-1.16910E-15
 -1      3079 1.03306E-03 1.96242E-04-1.20398E-15
 -1      3080 6.23354E-03-1.00117E-03-3.20197E-14
 -1      3081 1.73213E-03-3.07494E-04-3.14687E-15
 -1      3082 1.87541E-03-3.13730E-04-3.64968E-15
 -1      3083 2.01857E-03-3.18057E-04-4.19062E-15
 -1      3084 2.16165E-03-3.20633E-04-4.76954E-15
 -1      3085 1.93561E-03-2.82531E-04-3.95182E-15
 -1      3086 2.30453E-03-3.21795E-04-5.38611E-15
 -1      3087 2.44729E-03-3.21695E-04-6.04047E-15
 -1      3088 2.22062E-03-2.87469E-04-5.11169E-15
 -1      3089 2.58982E-03-3.20652E-04-6.73243E-15
 -1      3090 2.73221E-03-3.18816E-04-7.46141E-15
 -1      3091 2.50455E-03-2.87371E-04-6.42212E-15
 -1      3092 2.87438E-03-3.16510E-04-8.22732E-15
 -1      3093 3.01644E-03-3.13896E-04-9.03142E-15
 -1      3094 2.78706E-03-2.83954E-04-7.88074E-15
 -1      3095 3.15833E-03-3.11317E-04-9.87212E-15
 -1      3096 3.30020E-03-3.08974E-04-1.07497E-14
 -1      3097 3.06801E-03-2.78947E-04-9.48690E-15
 -1      3098 3.44205E-03-3.07237E-04-1.16634E-14
 -1      3099 3.58413E-03-3.06390E-04-1.26136E-14
 -1      3100 3.34750E-03-2.74191E-04-1.12403E-14
 -1      3101 3.72649E-03-3.06821E-04-1.36010E-14
 -1      3102 3.86957E-03-3.08983E-04-1.46245E-14
 -1      3103 3.62607E-03-2.71758E-04-1.31395E-14
 -1      3104 4.01355E-03-3.13254E-04-1.56825E-14
 -1      3105 4.15912E-03-3.20400E-04-1.67769E-14
 -1      3106 3.90509E-03-2.74114E-04-1.51833E-14
 -1      3107 4.30673E-03-3.30731E-04-1.79082E-14
 -1      3108 4.45736E-03-3.45684E-04-1.90754E-14
 -1      3109 4.18737E-03-2.84423E-04-1.73691E-14
 -1      3110 4.61184E-03-3.65555E-04-2.02763E-14
 -1      3111 4.77134E-03-3.92478E-04-2.15141E-14
 -1      3112 4.47814E-03-3.07580E-04-1.96976E-14
 -1      3113 5.30449E-03-5.38804E-04-2.54439E-14
 -1      3114 5.49422E-03-6.12115E-04-2.68310E-14
 -1      3115 6.65782E-03-1.14963E-03-3.57817E-14
 -1      3116 8.13625E-03-6.61804E-04-4.99859E-14
 -1      3117 8.32271E-03-6.06238E-04-5.20441E-14
 -1      3118 8.50232E-03-5.65072E-04-5.41370E-14
 -1      3119 8.67303E-03-5.33983E-04-5.62635E-14
 -1      3120 8.47517E-03-5.18504E-04-5.30723E-14
 -1      3121 8.83734E-03-5.13204E-04-5.84235E-14
 -1      3122 8.99569E-03-4.99213E-04-6.06171E-14
 -1      3123 8.80836E-03-4.67934E-04-5.73255E-14
 -1      3124 9.14959E-03-4.91887E-04-6.28408E-14
 -1      3125 9.29997E-03-4.89189E-04-6.50953E-14
 -1      3126 9.11472E-03-4.49199E-04-6.17078E-14
 -1      3127 9.44766E-03-4.90829E-04-6.73801E-14
 -1      3128 9.59350E-03-4.95624E-04-6.96937E-14
 -1      3129 9.40552E-03-4.49923E-04-6.62123E-14
 -1      3130 9.73789E-03-5.03216E-04-7.20352E-14
 -1      3131 9.88141E-03-5.12951E-04-7.44040E-14
 -1      3132 9.68852E-03-4.63022E-04-7.08335E-14
 -1      3133 1.00242E-02-5.24458E-04-7.68001E-14
 -1      3134 1.01668E-02-5.37355E-04-7.92226E-14
 -1      3135 9.96832E-03-4.84202E-04-7.55643E-14
 -1      3136 1.03090E-02-5.51311E-04-8.16701E-14
 -1      3137 1.04512E-02-5.66095E-04-8.41408E-14
 -1      3138 1.02474E-02-5.10599E-04-8.04025E-14
 -1      3139 1.05933E-02-5.81440E-04-8.66390E-14
 -1      3140 1.07355E-02-5.97203E-04-8.91600E-14
 -1      3141 1.05270E-02-5.40148E-04-8.53415E-14
 -1      3142 1.08777E-02-6.13185E-04-9.17066E-14
 -1      3143 1.10200E-02-6.29296E-04-9.42749E-14
 -1      3144 1.08076E-02-5.71342E-04-9.03805E-14
 -1      3145 1.11623E-02-6.45400E-04-9.68642E-14
 -1      3146 1.13048E-02-6.61445E-04-9.94793E-14
 -1      3147 1.10892E-02-6.03105E-04-9.55118E-14
 -1      3148 1.14473E-02-6.77344E-04-1.02114E-13
 -1      3149 1.15898E-02-6.93067E-04-1.04772E-13
 -1      3150 1.13718E-02-6.34710E-04-1.00733E-13
 -1      3151 1.17325E-02-7.08568E-04-1.07454E-13
 -1      3152 1.18751E-02-7.23834E-04-1.10155E-13
 -1      3153 1.16552E-02-6.65702E-04-1.06046E-13
 -1      3154 1.20178E-02-7.38844E-04-1.12878E-13
 -1      3155 1.21606E-02-7.53597E-04-1.15624E-13
 -1      3156 1.19392E-02-6.95833E-04-1.11447E-13
 -1      3157 1.23034E-02-7.68090E-04-1.18387E-13
 -1      3158 1.24462E-02-7.82328E-04-1.21171E-13
 -1      3159 1.22238E-02-7.24999E-04-1.16931E-13
 -1      3160 1.25890E-02-7.96321E-04-1.23974E-13
 -1      3161 1.27319E-02-8.10076E-04-1.26793E-13
 -1      3162 1.25087E-02-7.53196E-04-1.22495E-13
 -1      3163 1.28747E-02-8.23611E-04-1.29631E-13
 -1      3164 1.30176E-02-8.36934E-04-1.32487E-13
 -1      3165 1.27939E-02-7.80482E-04-1.28128E-13
 -1      3166 1.31605E-02-8.50067E-04-1.35360E-13
 -1      3167 1.33033E-02-8.63020E-04-1.38246E-13
 -1      3168 1.30793E-02-8.06953E-04-1.33834E-13
 -1      3169 1.34462E-02-8.75813E-04-1.41146E-13
 -1      3170 1.35891E-02-8.88456E-04-1.44060E-13
 -1      3171 1.33648E-02-8.32720E-04-1.39601E-13
 -1      3172 1.37320E-02-9.00970E-04-1.46982E-13
 -1      3173 1.38748E-02-9.13366E-04-1.49918E-13
 -1      3174 1.36504E-02-8.57901E-04-1.45418E-13
 -1      3175 4.37337E-03-8.70510E-05-2.32581E-14
 -1      3176 4.34751E-03-7.59681E-05-2.29740E-14
 -1      3177 2.11576E-03 3.54525E-04-4.14585E-15
 -1      3178 1.97204E-03 3.50828E-04-3.61888E-15
 -1      3179 2.97971E-03 3.52650E-04-8.08571E-15
 -1      3180 2.83527E-03 3.54558E-04-7.33689E-15
 -1      3181 3.85860E-03 3.52654E-04-1.33488E-14
 -1      3182 3.70979E-03 3.49486E-04-1.23797E-14
 -1      3183 4.16117E-03 3.66319E-04-1.53960E-14
 -1      3184 4.00897E-03 3.58031E-04-1.43540E-14
 -1      3185 3.90569E-03 3.14255E-04-1.39646E-14
 -1      3186 4.47282E-03 3.93676E-04-1.75899E-14
 -1      3187 4.31572E-03 3.77870E-04-1.64745E-14
 -1      3188 4.20600E-03 3.27206E-04-1.60537E-14
 -1      3189 4.79676E-03 4.40033E-04-1.99299E-14
 -1      3190 4.63321E-03 4.13994E-04-1.87416E-14
 -1      3191 4.51686E-03 3.53963E-04-1.82873E-14
 -1      3192 5.13516E-03 5.10763E-04-2.24198E-14
 -1      3193 4.96440E-03 4.71870E-04-2.11563E-14
 -1      3194 4.84269E-03 4.00573E-04-2.06665E-14
 -1      3195 5.48652E-03 6.08972E-04-2.50650E-14
 -1      3196 5.31000E-03 5.56557E-04-2.37227E-14
 -1      3197 5.18655E-03 4.74484E-04-2.31941E-14
 -1      3198 5.84321E-03 7.27236E-04-2.78733E-14
 -1      3199 5.66540E-03 6.66923E-04-2.64480E-14
 -1      3200 5.54709E-03 5.81023E-04-2.58766E-14
 -1      3201 6.26842E-03 8.56705E-04-3.16105E-14
 -1      3202 6.09706E-03 8.06216E-04-3.00737E-14
 -1      3203 6.43631E-03 8.91765E-04-3.31943E-14
 -1      3204 6.88665E-03 8.76252E-04-3.78367E-14
 -1      3205 6.72146E-03 9.01341E-04-3.61193E-14
 -1      3206 7.52597E-03 6.58967E-04-4.46775E-14
 -1      3207 7.35034E-03 7.30426E-04-4.27874E-14
 -1      3208 7.88139E-03 5.17799E-04-4.85828E-14
 -1      3209 7.70398E-03 5.86444E-04-4.66109E-14
 -1      3210 7.64571E-03 5.73987E-04-4.57649E-14
 -1      3211 8.23135E-03 3.98065E-04-5.26442E-14
 -1      3212 8.05801E-03 4.54617E-04-5.05937E-14
 -1      3213 8.00863E-03 4.32399E-04-4.97187E-14
 -1      3214 8.56846E-03 3.05418E-04-5.68486E-14
 -1      3215 8.40196E-03 3.48624E-04-5.47292E-14
 -1      3216 8.35915E-03 3.21176E-04-5.38206E-14
 -1      3217 8.89142E-03 2.36700E-04-6.11902E-14
 -1      3218 8.73174E-03 2.68508E-04-5.90026E-14
 -1      3219 8.69210E-03 2.39392E-04-5.80659E-14
 -1      3220 9.20250E-03 1.86636E-04-6.56626E-14
 -1      3221 9.04831E-03 2.09754E-04-6.34116E-14
 -1      3222 9.00883E-03 1.80510E-04-6.24442E-14
 -1      3223 9.50484E-03 1.50152E-04-7.02584E-14
 -1      3224 9.35459E-03 1.67027E-04-6.79451E-14
 -1      3225 9.31335E-03 1.38058E-04-6.69503E-14
 -1      3226 9.80122E-03 1.23065E-04-7.49694E-14
 -1      3227 9.65362E-03 1.35676E-04-7.26003E-14
 -1      3228 9.60963E-03 1.06928E-04-7.15775E-14
 -1      3229 1.00938E-02 1.02139E-04-7.97898E-14
 -1      3230 9.94785E-03 1.12006E-04-7.73659E-14
 -1      3231 9.90078E-03 8.33217E-05-7.63171E-14
 -1      3232 1.03839E-02 8.49454E-05-8.47134E-14
 -1      3233 1.02390E-02 9.31978E-05-8.22389E-14
 -1      3234 1.01889E-02 6.44637E-05-8.11632E-14
 -1      3235 1.06725E-02 6.97227E-05-8.97378E-14
 -1      3236 1.05283E-02 7.71715E-05-8.72134E-14
 -1      3237 1.04755E-02 4.83422E-05-8.61129E-14
 -1      3238 1.09601E-02 5.52401E-05-9.48612E-14
 -1      3239 1.08164E-02 6.24442E-05-9.22850E-14
 -1      3240 1.07613E-02 3.35251E-05-9.11605E-14
 -1      3241 1.12472E-02 4.06810E-05-1.00080E-13
 -1      3242 1.11037E-02 4.80044E-05-9.74609E-14
 -1      3243 1.10467E-02 1.90271E-05-9.63084E-14
 -1      3244 1.15339E-02 2.55431E-05-1.05385E-13
 -1      3245 1.13906E-02 3.32038E-05-1.02723E-13
 -1      3246 1.13320E-02 4.20731E-06-1.01550E-13
 -1      3247 1.18203E-02 9.55272E-06-1.10779E-13
 -1      3248 1.16771E-02 1.76635E-05-1.08071E-13
 -1      3249 1.16174E-02-1.13165E-05-1.06876E-13
 -1      3250 1.21066E-02-7.40431E-06-1.16250E-13
 -1      3251 1.19635E-02 1.19709E-06-1.13505E-13
 -1      3252 1.19028E-02-2.77391E-05-1.12289E-13
 -1      3253 1.23927E-02-2.53357E-05-1.21790E-13
 -1      3254 1.22496E-02-1.62505E-05-1.19012E-13
 -1      3255 1.21884E-02-4.51252E-05-1.17778E-13
 -1      3256 1.26787E-02-4.41826E-05-1.27388E-13
 -1      3257 1.25357E-02-3.46495E-05-1.24581E-13
 -1      3258 1.24739E-02-6.34538E-05-1.23332E-13
 -1      3259 1.29646E-02-6.38483E-05-1.33042E-13
 -1      3260 1.28216E-02-5.39193E-05-1.30209E-13
 -1      3261 1.27596E-02-8.26516E-05-1.28943E-13
 -1      3262 1.32505E-02-8.42177E-05-1.38745E-13
 -1      3263 1.31076E-02-7.39518E-05-1.35887E-13
 -1      3264 1.30453E-02-1.02616E-04-1.34607E-13
 -1      3265 1.35363E-02-1.05169E-04-1.44509E-13
 -1      3266 1.33934E-02-9.46272E-05-1.41620E-13
 -1      3267 1.33310E-02-1.23233E-04-1.40322E-13
 -1      3268 1.38221E-02-1.26583E-04-1.50318E-13
 -1      3269 1.36792E-02-1.15824E-04-1.47409E-13
 -1      3270 1.36167E-02-1.44382E-04-1.46097E-13
 -1      3271 1.40249E-02-1.54418E-04-1.54448E-13
 -1      3272 1.39115E-02-1.37944E-04-1.52137E-13
 -1      3273 1.38490E-02-1.66466E-04-1.50819E-13
 -1      3274 1.40278E-02-1.89264E-04-1.54468E-13
 -1      3275 1.41063E-02-6.55950E-04-1.55362E-13
 -1      3276 1.40951E-02-6.14906E-04-1.55209E-13
 -1      3277 1.41291E-02-7.39518E-04-1.55665E-13
 -1      3278 1.41177E-02-6.97721E-04-1.55514E-13
 -1      3279 1.39885E-02-6.66969E-04-1.52895E-13
 -1      3280 1.40838E-02-5.73167E-04-1.55047E-13
 -1      3281 1.40724E-02-5.31431E-04-1.54888E-13
 -1      3282 1.39658E-02-5.83618E-04-1.52587E-13
 -1      3283 4.57202E-03-3.73565E-06-2.36185E-14
 -1      3284 4.70048E-03 4.67337E-05-2.37888E-14
 -1      3285 4.78022E-03-2.23109E-04-2.44217E-14
 -1      3286 4.63213E-03-1.67412E-04-2.40304E-14
 -1      3287 2.69110E-03 3.56156E-04-6.62523E-15
 -1      3288 2.54710E-03 3.57235E-04-5.95012E-15
 -1      3289 2.74817E-03 3.19863E-04-7.06859E-15
 -1      3290 3.56219E-03 3.48154E-04-1.14477E-14
 -1      3291 3.41558E-03 3.48163E-04-1.05526E-14
 -1      3292 3.61209E-03 3.10295E-04-1.20219E-14
 -1      3293 3.26974E-03 3.49149E-04-9.69385E-15
 -1      3294 3.12449E-03 3.50760E-04-8.87148E-15
 -1      3295 3.03484E-03 3.15687E-04-8.57364E-15
 -1      3296 3.32243E-03 3.11719E-04-1.02249E-14
 -1      3297 7.63277E-03 4.68968E-04-4.45310E-14
 -1      3298 7.80977E-03 3.63625E-04-4.58538E-14
 -1      3299 8.98279E-03-2.30224E-04-5.39234E-14
 -1      3300 8.86587E-03-2.59336E-04-5.30593E-14
 -1      3301 1.14765E-03 2.91147E-04-1.28691E-15
 -1      3302 1.08390E-03 2.53940E-04-1.21554E-15
 -1      3303 1.20219E-03 2.53327E-04-1.50182E-15
 -1      3304 1.29114E-03 3.09985E-04-1.60206E-15
 -1      3305 7.56930E-03-8.99628E-04-4.44291E-14
 -1      3306 4.88487E-03 1.29425E-04-2.41788E-14
 -1      3307 5.06473E-03 2.13832E-04-2.47552E-14
 -1      3308 8.78778E-03-8.55404E-05-5.23661E-14
 -1      3309 8.92242E-03-1.24080E-04-5.32494E-14
 -1      3310 1.44559E-03-2.88067E-04-2.25446E-15
 -1      3311 1.58886E-03-2.99000E-04-2.68168E-15
 -1      3312 1.65001E-03-2.70781E-04-2.94216E-15
 -1      3313 5.56432E-03-6.08070E-04-2.77796E-14
 -1      3314 5.36725E-03-4.98317E-04-2.67724E-14
 -1      3315 2.40326E-03 3.57470E-04-5.31195E-15
 -1      3316 2.25947E-03 3.56679E-04-4.71038E-15
 -1      3317 2.46176E-03 3.22217E-04-5.71080E-15
 -1      3318 7.99897E-04-1.79623E-04-8.17638E-16
 -1      3319 8.08559E-04-2.02887E-04-8.06226E-16
 -1      3320 9.38048E-04-2.31214E-04-1.03311E-15
 -1      3321 9.17266E-04-1.85203E-04-1.04902E-15
 -1      3322 7.30200E-03 6.71879E-04-4.18619E-14
 -1      3323 7.46448E-03 5.72282E-04-4.32398E-14
 -1      3324 8.01197E-03 2.53535E-04-4.73448E-14
 -1      3325 8.20189E-03 1.55996E-04-4.86479E-14
 -1      3326 9.03678E-03-1.58799E-04-5.37336E-14
 -1      3327 9.08143E-03-1.73293E-04-5.37494E-14
 -1      3328 7.79076E-03-7.78156E-04-4.62882E-14
 -1      3329 5.80233E-03 5.92333E-04-2.84673E-14
 -1      3330 5.98353E-03 6.83255E-04-2.97153E-14
 -1      3331 8.35734E-03-4.78770E-04-5.04626E-14
 -1      3332 8.15861E-03-5.86313E-04-4.92595E-14
 -1      3333 1.41521E-02-8.23213E-04-1.55949E-13
 -1      3334 1.41406E-02-7.81347E-04-1.55808E-13
 -1      3335 1.40113E-02-7.50428E-04-1.53188E-13
 -1      3336 8.73894E-03-3.07347E-04-5.25200E-14
 -1      3337 8.58798E-03-3.66460E-04-5.16832E-14
 -1      3338 4.50929E-03-1.27061E-04-2.36794E-14
 -1      3339 4.42657E-03-1.04014E-04-2.34707E-14
 -1      3340 4.35574E-03-9.64066E-05-2.24960E-14
 -1      3341 5.31752E-03 3.41680E-04-2.57723E-14
 -1      3342 5.54508E-03 4.60861E-04-2.69105E-14
 -1      3343 1.01026E-03 6.19431E-05-1.31384E-15
 -1      3344 1.00850E-03 3.73130E-05-1.32575E-15
 -1      3345 7.05574E-03 8.38694E-04-3.96379E-14
 -1      3346 7.03159E-03 8.14634E-04-3.93162E-14
 -1      3347 7.18730E-03 7.41576E-04-4.08687E-14
 -1      3348 7.22571E-03 7.78924E-04-4.14532E-14
 -1      3349 7.99045E-03-6.94954E-04-4.82725E-14
 -1      3350 1.00759E-03 1.29798E-05-1.33446E-15
 -1      3351 1.00753E-03-1.12230E-05-1.34052E-15
 -1      3352 1.12654E-03 2.70626E-05-1.61294E-15
 -1      3353 1.02027E-03-1.36946E-04-1.32603E-15
 -1      3354 1.02564E-03-1.64487E-04-1.31302E-15
 -1      3355 1.15119E-03 1.95036E-04-1.48477E-15
 -1      3356 1.02638E-03 1.67202E-04-1.23385E-15
 -1      3357 1.02090E-03 1.39474E-04-1.25942E-15
 -1      3358 6.06800E-03 7.46650E-04-3.01583E-14
 -1      3359 7.31236E-03 6.92843E-04-4.21676E-14
 -1      3360 1.40163E-02-3.23075E-04-1.54056E-13
 -1      3361 1.40052E-02-2.81565E-04-1.53881E-13
 -1      3362 1.01640E-03 1.12775E-04-1.28092E-15
 -1      3363 1.01290E-03 8.70422E-05-1.29902E-15
 -1      3364 1.13061E-03 8.01698E-05-1.58551E-15
 -1      3365 1.13871E-03 1.35651E-04-1.54355E-15
 -1      3366 5.21652E-03-4.41619E-04-2.57461E-14
 -1      3367 1.01249E-03-8.48673E-05-1.34098E-15
 -1      3368 1.01589E-03-1.10464E-04-1.33517E-15
 -1      3369 1.13803E-03-1.33080E-04-1.61462E-15
 -1      3370 4.86046E-03-3.40781E-04-2.30876E-14
 -1      3371 5.02144E-03-4.21749E-04-2.37276E-14
 -1      3372 5.72935E-03-7.16583E-04-2.85002E-14
 -1      3373 5.19817E-03-4.72760E-04-2.50606E-14
 -1      3374 5.93170E-03-8.17729E-04-2.99766E-14
 -1      3375 4.28820E-03-7.01118E-05-2.18929E-14
 -1      3376 4.33365E-03-6.49854E-05-2.25719E-14
 -1      3377 4.32942E-03-5.25928E-05-2.21708E-14
 -1      3378 5.63403E-03 5.41369E-04-2.71029E-14
 -1      3379 1.40177E-02-9.25663E-04-1.52866E-13
 -1      3380 1.41606E-02-9.37869E-04-1.55818E-13
 -1      3381 1.88853E-03 3.13868E-04-3.43645E-15
 -1      3382 1.82836E-03 3.45223E-04-3.12886E-15
 -1      3383 1.68464E-03 3.37518E-04-2.67523E-15
 -1      3384 7.94043E-03 3.15313E-04-4.72785E-14
 -1      3385 6.54165E-03 8.99117E-04-3.42751E-14
 -1      3386 7.33381E-03 7.06382E-04-4.24948E-14
 -1      3387 1.39431E-02-5.00306E-04-1.52265E-13
 -1      3388 1.40611E-02-4.89692E-04-1.54724E-13
 -1      3389 1.40498E-02-4.47941E-04-1.54557E-13
 -1      3390 8.50807E-03-4.45969E-04-5.22312E-14
 -1      3391 8.73576E-03-4.59515E-05-5.30206E-14
 -1      3392 1.40386E-02-4.06435E-04-1.54390E-13
 -1      3393 1.40274E-02-3.64638E-04-1.54223E-13
 -1      3394 1.38982E-02-3.34292E-04-1.51605E-13
 -1      3395 1.39206E-02-4.17220E-04-1.51938E-13
 -1      3396 1.43539E-02-9.64630E-04-1.59794E-13
 -1      3397 4.47609E-03-1.46489E-05-2.28486E-14
 -1      3398 1.42735E-02-9.59575E-04-1.58122E-13
 -1      3399 1.41918E-02-9.16519E-04-1.56533E-13
 -1      3400 6.10614E-03-9.25151E-04-3.11115E-14
 -1      3401 1.39360E-02-8.82612E-04-1.51284E-13
 -1      3402 4.52272E-03-1.49765E-04-2.30431E-14
 -1      3403 1.55972E-03 3.32577E-04-2.29977E-15
 -1      3404 1.41601E-03 3.19923E-04-1.91526E-15
 -1      3405 1.37080E-03 2.91223E-04-1.86126E-15
 -1      3406 1.62034E-03 3.04241E-04-2.56471E-15
 -1      3407 1.03425E-03-2.22893E-04-1.26178E-15
 -1      3408 1.04571E-03-2.47737E-04-1.25139E-15
 -1      3409 1.15387E-03-2.62280E-04-1.49166E-15
 -1      3410 9.12181E-03-1.82453E-04-5.49261E-14
 -1      3411 1.41802E-02-8.74559E-04-1.56405E-13
 -1      3412 1.40508E-02-8.43479E-04-1.53784E-13
 -1      3413 9.01768E-03-1.43904E-04-5.44723E-14
 -1      3414 9.09805E-03-1.57375E-04-5.57066E-14
 -1      3415 8.99603E-03-1.24146E-04-5.52108E-14
 -1      3416 9.05365E-03-2.17369E-04-5.47314E-14
 -1      3417 9.03431E-03-2.39861E-04-5.53809E-14
 -1      3418 9.11161E-03-2.10039E-04-5.55417E-14
 -1      3419 8.84264E-03-2.97109E-04-5.40207E-14
 -1      3420 4.73327E-03 9.44397E-05-2.32229E-14
 -1      3421 1.26226E-03-2.74731E-04-1.75414E-15
 -1      3422 2.17525E-03 3.20852E-04-4.49998E-15
 -1      3423 7.58342E-03 5.22719E-04-4.44746E-14
 -1      3424 1.32425E-03-2.51507E-04-1.96643E-15
 -1      3425 8.35436E-03 1.11148E-04-5.04170E-14
 -1      3426 5.14706E-03 2.93171E-04-2.45860E-14
 -1      3427 7.44457E-03 6.34633E-04-4.35171E-14
 -1      3428 2.13802E-03-2.53638E-04-4.83953E-15
 -1      3429 2.27962E-03-2.54628E-04-5.45808E-15
 -1      3430 2.42077E-03-2.54599E-04-6.11341E-15
 -1      3431 2.56149E-03-2.53654E-04-6.80636E-15
 -1      3432 2.33862E-03-2.22205E-04-5.80783E-15
 -1      3433 2.70162E-03-2.52076E-04-7.53549E-15
 -1      3434 2.84122E-03-2.49959E-04-8.30149E-15
 -1      3435 2.61817E-03-2.20646E-04-7.19268E-15
 -1      3436 2.98014E-03-2.47596E-04-9.10449E-15
 -1      3437 3.11847E-03-2.45083E-04-9.94410E-15
 -1      3438 2.89481E-03-2.16929E-04-8.72502E-15
 -1      3439 3.25610E-03-2.42726E-04-1.08207E-14
 -1      3440 3.39318E-03-2.40640E-04-1.17327E-14
 -1      3441 3.16800E-03-2.12390E-04-1.04029E-14
 -1      3442 3.52961E-03-2.39140E-04-1.26812E-14
 -1      3443 3.66570E-03-2.38391E-04-1.36662E-14
 -1      3444 3.43745E-03-2.08386E-04-1.22264E-14
 -1      3445 3.80138E-03-2.38684E-04-1.46865E-14
 -1      3446 3.93724E-03-2.40351E-04-1.57420E-14
 -1      3447 3.70321E-03-2.06299E-04-1.41926E-14
 -1      3448 4.07328E-03-2.43615E-04-1.68335E-14
 -1      3449 4.21055E-03-2.49151E-04-1.79614E-14
 -1      3450 3.96611E-03-2.07637E-04-1.63019E-14
 -1      3451 4.34910E-03-2.57227E-04-1.91233E-14
 -1      3452 4.49078E-03-2.69375E-04-2.03192E-14
 -1      3453 4.22843E-03-2.14335E-04-1.85519E-14
 -1      3454 7.61798E-03 5.59066E-04-4.52927E-14
 -1      3455 7.60624E-03 5.37433E-04-4.49518E-14
 -1      3456 7.76328E-03 4.41737E-04-4.62743E-14
 -1      3457 7.80388E-03 4.80756E-04-4.72419E-14
 -1      3458 4.52366E-03-1.72632E-04-2.23785E-14
 -1      3459 4.41717E-03-1.35672E-04-2.20459E-14
 -1      3460 8.79032E-03-4.21450E-04-5.62285E-14
 -1      3461 8.94179E-03-4.10521E-04-5.83866E-14
 -1      3462 9.08724E-03-4.06458E-04-6.05775E-14
 -1      3463 9.22928E-03-4.06255E-04-6.27973E-14
 -1      3464 9.06760E-03-3.63128E-04-5.94482E-14
 -1      3465 9.36834E-03-4.09797E-04-6.50486E-14
 -1      3466 9.50611E-03-4.15781E-04-6.73279E-14
 -1      3467 9.33627E-03-3.70162E-04-6.38870E-14
 -1      3468 9.64267E-03-4.24040E-04-6.96344E-14
 -1      3469 9.77899E-03-4.33969E-04-7.19697E-14
 -1      3470 9.60027E-03-3.86180E-04-6.84393E-14
 -1      3471 9.91507E-03-4.45342E-04-7.43331E-14
 -1      3472 1.00514E-02-4.57868E-04-7.67226E-14
 -1      3473 9.86429E-03-4.07858E-04-7.31052E-14
 -1      3474 1.01880E-02-4.71295E-04-7.91395E-14
 -1      3475 1.03250E-02-4.85476E-04-8.15804E-14
 -1      3476 1.01304E-02-4.33414E-04-7.78783E-14
 -1      3477 1.04625E-02-5.00172E-04-8.40488E-14
 -1      3478 1.06005E-02-5.15303E-04-8.65411E-14
 -1      3479 1.03995E-02-4.61545E-04-8.27579E-14
 -1      3480 1.07389E-02-5.30667E-04-8.90565E-14
 -1      3481 1.08779E-02-5.46221E-04-9.15969E-14
 -1      3482 1.06716E-02-4.91205E-04-8.77363E-14
 -1      3483 1.10173E-02-5.61808E-04-9.41609E-14
 -1      3484 1.11571E-02-5.77406E-04-9.67470E-14
 -1      3485 1.09464E-02-5.21560E-04-9.28106E-14
 -1      3486 1.12973E-02-5.92905E-04-9.93552E-14
 -1      3487 1.14379E-02-6.08297E-04-1.01987E-13
 -1      3488 1.12237E-02-5.51982E-04-9.79803E-14
 -1      3489 1.15787E-02-6.23508E-04-1.04643E-13
 -1      3490 1.17199E-02-6.38542E-04-1.07320E-13
 -1      3491 1.15030E-02-5.82037E-04-1.03242E-13
 -1      3492 1.18612E-02-6.53355E-04-1.10018E-13
 -1      3493 1.20029E-02-6.67956E-04-1.12738E-13
 -1      3494 1.17839E-02-6.11458E-04-1.08593E-13
 -1      3495 1.21447E-02-6.82323E-04-1.15480E-13
 -1      3496 1.22866E-02-6.96470E-04-1.18241E-13
 -1      3497 1.20660E-02-6.40106E-04-1.14030E-13
 -1      3498 1.24288E-02-7.10389E-04-1.21018E-13
 -1      3499 1.25710E-02-7.24096E-04-1.23815E-13
 -1      3500 1.23492E-02-6.67939E-04-1.19547E-13
 -1      3501 1.27133E-02-7.37594E-04-1.26631E-13
 -1      3502 1.28558E-02-7.50897E-04-1.29462E-13
 -1      3503 1.26331E-02-6.94977E-04-1.25135E-13
 -1      3504 1.29983E-02-7.64016E-04-1.32310E-13
 -1      3505 1.31409E-02-7.76965E-04-1.35177E-13
 -1      3506 1.29176E-02-7.21284E-04-1.30792E-13
 -1      3507 1.32835E-02-7.89757E-04-1.38056E-13
 -1      3508 1.34262E-02-8.02406E-04-1.40949E-13
 -1      3509 1.32025E-02-7.46946E-04-1.36514E-13
 -1      3510 1.35689E-02-8.14925E-04-1.43857E-13
 -1      3511 1.37117E-02-8.27327E-04-1.46774E-13
 -1      3512 1.34876E-02-7.72060E-04-1.42293E-13
 -1      3513 2.23475E-03 2.87248E-04-4.86121E-15
 -1      3514 2.09194E-03 2.85546E-04-4.28779E-15
 -1      3515 3.94979E-03 2.75639E-04-1.45854E-14
 -1      3516 3.80406E-03 2.73273E-04-1.35748E-14
 -1      3517 4.88341E-03 3.58519E-04-2.14044E-14
 -1      3518 4.71732E-03 3.31863E-04-2.01772E-14
 -1      3519 5.91627E-03 7.36151E-04-2.85795E-14
 -1      3520 5.80305E-03 6.53093E-04-2.79701E-14
 -1      3521 8.82096E-03 1.72528E-04-5.93004E-14
 -1      3522 8.66093E-03 2.04131E-04-5.71413E-14
 -1      3523 9.12914E-03 1.24089E-04-6.37160E-14
 -1      3524 8.97687E-03 1.46426E-04-6.14922E-14
 -1      3525 8.94945E-03 1.10779E-04-6.05399E-14
 -1      3526 9.42573E-03 8.91342E-05-6.82537E-14
 -1      3527 9.27856E-03 1.05356E-04-6.59685E-14
 -1      3528 9.24748E-03 7.20272E-05-6.49887E-14
 -1      3529 9.71524E-03 6.29669E-05-7.29114E-14
 -1      3530 9.57112E-03 7.52230E-05-7.05680E-14
 -1      3531 9.53560E-03 4.35805E-05-6.95598E-14
 -1      3532 1.00008E-02 4.23965E-05-7.76780E-14
 -1      3533 9.85836E-03 5.21561E-05-7.52808E-14
 -1      3534 9.81835E-03 2.14795E-05-7.42465E-14
 -1      3535 1.02845E-02 2.51992E-05-8.25522E-14
 -1      3536 1.01428E-02 3.34896E-05-8.01034E-14
 -1      3537 1.00986E-02 3.22571E-06-7.90427E-14
 -1      3538 1.05675E-02 9.80628E-06-8.75257E-14
 -1      3539 1.04261E-02 1.73517E-05-8.50255E-14
 -1      3540 1.03782E-02-1.28505E-05-8.39402E-14
 -1      3541 1.08505E-02-4.88251E-06-9.25997E-14
 -1      3542 1.07090E-02 2.42240E-06-9.00520E-14
 -1      3543 1.06581E-02-2.79051E-05-8.89405E-14
 -1      3544 1.11338E-02-1.96144E-05-9.77718E-14
 -1      3545 1.09921E-02-1.22131E-05-9.51729E-14
 -1      3546 1.09386E-02-4.27431E-05-9.40409E-14
 -1      3547 1.14175E-02-3.48643E-05-1.03034E-13
 -1      3548 1.12755E-02-2.71580E-05-1.00392E-13
 -1      3549 1.12200E-02-5.79031E-05-9.92337E-14
 -1      3550 1.17016E-02-5.09028E-05-1.08383E-13
 -1      3551 1.15594E-02-4.27775E-05-1.05699E-13
 -1      3552 1.15022E-02-7.37167E-05-1.04520E-13
 -1      3553 1.19861E-02-6.78541E-05-1.13814E-13
 -1      3554 1.18438E-02-5.92631E-05-1.11088E-13
 -1      3555 1.17853E-02-9.03609E-05-1.09890E-13
 -1      3556 1.22709E-02-8.57403E-05-1.19319E-13
 -1      3557 1.21284E-02-7.66830E-05-1.16557E-13
 -1      3558 1.20690E-02-1.07901E-04-1.15339E-13
 -1      3559 1.25560E-02-1.04518E-04-1.24886E-13
 -1      3560 1.24134E-02-9.50226E-05-1.22095E-13
 -1      3561 1.23532E-02-1.26327E-04-1.20859E-13
 -1      3562 1.28413E-02-1.24103E-04-1.30511E-13
 -1      3563 1.26986E-02-1.14215E-04-1.27691E-13
 -1      3564 1.26379E-02-1.45577E-04-1.26442E-13
 -1      3565 1.31267E-02-1.44392E-04-1.36183E-13
 -1      3566 1.29840E-02-1.34166E-04-1.33342E-13
 -1      3567 1.29229E-02-1.65563E-04-1.32078E-13
 -1      3568 1.34123E-02-1.65272E-04-1.41915E-13
 -1      3569 1.32695E-02-1.54765E-04-1.39042E-13
 -1      3570 1.32082E-02-1.86184E-04-1.37765E-13
 -1      3571 1.36979E-02-1.86629E-04-1.47702E-13
 -1      3572 1.35551E-02-1.75897E-04-1.44801E-13
 -1      3573 1.34936E-02-2.07330E-04-1.43508E-13
 -1      3574 1.40180E-02-2.52838E-04-1.54186E-13
 -1      3575 1.40149E-02-2.18052E-04-1.54169E-13
 -1      3576 1.39255E-02-2.06628E-04-1.52341E-13
 -1      3577 1.38999E-02-2.64091E-04-1.51739E-13
 -1      3578 1.38707E-02-6.77536E-04-1.50428E-13
 -1      3579 1.38593E-02-6.35921E-04-1.50281E-13
 -1      3580 1.38480E-02-5.94333E-04-1.50130E-13
 -1      3581 1.38367E-02-5.52762E-04-1.49972E-13
 -1      3582 1.37302E-02-6.04945E-04-1.47675E-13
 -1      3583 8.67195E-03-4.18808E-04-5.43318E-14
 -1      3584 4.38054E-03-2.54369E-05-2.20627E-14
 -1      3585 4.45589E-03 7.65482E-06-2.20577E-14
 -1      3586 7.94431E-03 3.41481E-04-4.77762E-14
 -1      3587 8.12994E-03 2.45203E-04-4.92997E-14
 -1      3588 7.95564E-03 3.66133E-04-4.82708E-14
 -1      3589 4.93045E-03-3.12112E-04-2.44026E-14
 -1      3590 4.85317E-03-2.60358E-04-2.44687E-14
 -1      3591 8.72539E-03-9.62227E-06-5.41424E-14
 -1      3592 8.87699E-03-6.84973E-05-5.51163E-14
 -1      3593 3.65967E-03 2.72648E-04-1.26002E-14
 -1      3594 3.51618E-03 2.73216E-04-1.16621E-14
 -1      3595 3.70491E-03 2.35152E-04-1.31828E-14
 -1      3596 2.51989E-03 2.87225E-04-6.11620E-15
 -1      3597 2.37739E-03 2.87763E-04-5.47031E-15
 -1      3598 2.29420E-03 2.53813E-04-5.22862E-15
 -1      3599 1.02373E-03-1.99159E-04-1.26913E-15
 -1      3600 1.32646E-03 2.63406E-04-1.80436E-15
 -1      3601 1.28303E-03 2.36424E-04-1.74498E-15
 -1      3602 1.45094E-03 2.71079E-04-2.13608E-15
 -1      3603 8.33923E-03 1.43461E-04-5.09345E-14
 -1      3604 8.54424E-03 5.68039E-05-5.25900E-14
 -1      3605 8.33368E-03 1.75466E-04-5.14488E-14
 -1      3606 1.56935E-03-2.35054E-04-2.73982E-15
 -1      3607 1.71168E-03-2.42260E-04-3.20870E-15
 -1      3608 2.80445E-03 2.83975E-04-7.51854E-15
 -1      3609 2.66222E-03 2.85915E-04-6.79956E-15
 -1      3610 2.57763E-03 2.52594E-04-6.52844E-15
 -1      3611 4.71022E-03-2.26384E-04-2.34284E-14
 -1      3612 9.16876E-03-1.81286E-04-5.65007E-14
 -1      3613 9.17210E-03-1.94069E-04-5.64639E-14
 -1      3614 4.55616E-03 3.12465E-04-1.89868E-14
 -1      3615 4.39983E-03 2.97557E-04-1.78323E-14
 -1      3616 4.59063E-03 2.68576E-04-1.96894E-14
 -1      3617 4.24705E-03 2.87201E-04-1.67142E-14
 -1      3618 4.09726E-03 2.79984E-04-1.56318E-14
 -1      3619 3.99078E-03 2.36643E-04-1.52092E-14
 -1      3620 4.28399E-03 2.45995E-04-1.73781E-14
 -1      3621 1.39080E-02-8.31323E-04-1.50840E-13
 -1      3622 1.00833E-03-3.54688E-05-1.34368E-15
 -1      3623 1.00996E-03-5.99246E-05-1.34379E-15
 -1      3624 1.13019E-03-7.80163E-05-1.62785E-15
 -1      3625 1.85394E-03-2.47655E-04-3.71476E-15
 -1      3626 1.99612E-03-2.51352E-04-4.25822E-15
 -1      3627 2.05685E-03-2.20264E-04-4.56957E-15
 -1      3628 8.95832E-03-2.85889E-04-5.56887E-14
 -1      3629 8.84941E-03-3.29408E-04-5.51331E-14
 -1      3630 1.38935E-02-7.60886E-04-1.50716E-13
 -1      3631 1.38821E-02-7.19188E-04-1.50575E-13
 -1      3632 1.37529E-02-6.87995E-04-1.47969E-13
 -1      3633 4.56698E-03 6.88983E-05-2.19921E-14
 -1      3634 4.72292E-03 1.41055E-04-2.23579E-14
 -1      3635 4.33786E-03-1.06591E-04-2.18268E-14
 -1      3636 4.28781E-03-8.86404E-05-2.16255E-14
 -1      3637 1.14180E-03-1.98338E-04-1.55605E-15
 -1      3638 4.95827E-03 2.54072E-04-2.31594E-14
 -1      3639 5.18341E-03 3.66388E-04-2.41287E-14
 -1      3640 1.32327E-03-2.10824E-04-2.02636E-15
 -1      3641 4.63506E-03-2.29325E-04-2.24625E-14
 -1      3642 4.57821E-03-1.99093E-04-2.24215E-14
 -1      3643 4.45614E-03-1.80005E-04-2.14363E-14
 -1      3644 1.26157E-03-1.59705E-04-1.91634E-15
 -1      3645 1.44166E-03-2.06681E-04-2.38095E-15
 -1      3646 1.50518E-03-1.81241E-04-2.61308E-15
 -1      3647 1.25590E-03-1.29596E-04-1.92828E-15
 -1      3648 1.25237E-03 9.96486E-05-1.88133E-15
 -1      3649 1.24896E-03 7.09550E-05-1.90118E-15
 -1      3650 1.36784E-03 5.96567E-05-2.24510E-15
 -1      3651 1.24665E-03 4.27116E-05-1.91668E-15
 -1      3652 1.24546E-03 1.47890E-05-1.92842E-15
 -1      3653 5.56592E-03 5.35746E-04-2.64289E-14
 -1      3654 4.30005E-03-3.54842E-05-2.13984E-14
 -1      3655 9.25374E-03-2.07285E-04-5.87277E-14
 -1      3656 9.18533E-03-2.08270E-04-5.71283E-14
 -1      3657 9.18937E-03-2.24599E-04-5.77916E-14
 -1      3658 7.98861E-03 4.11485E-04-4.92419E-14
 -1      3659 7.97015E-03 3.88885E-04-4.87514E-14
 -1      3660 8.14060E-03 3.00917E-04-5.02941E-14
 -1      3661 8.16825E-03 3.49770E-04-5.12672E-14
 -1      3662 4.24987E-03-7.66403E-05-2.12400E-14
 -1      3663 4.22156E-03-6.52712E-05-2.08548E-14
 -1      3664 4.21515E-03-8.50401E-05-2.05921E-14
 -1      3665 1.94905E-03 2.82371E-04-3.75152E-15
 -1      3666 1.80605E-03 2.77555E-04-3.25247E-15
 -1      3667 2.00979E-03 2.50778E-04-4.07489E-15
 -1      3668 1.12640E-03-2.51752E-05-1.62698E-15
 -1      3669 5.18179E-03 4.21526E-04-2.36040E-14
 -1      3670 5.37916E-03 4.73768E-04-2.50574E-14
 -1      3671 3.08871E-03 2.79196E-04-9.06716E-15
 -1      3672 2.94657E-03 2.81679E-04-8.27421E-15
 -1      3673 2.85995E-03 2.48576E-04-7.97435E-15
 -1      3674 5.00614E-03 3.80933E-04-2.23140E-14
 -1      3675 1.38253E-02-5.11197E-04-1.49815E-13
 -1      3676 1.38140E-02-4.69626E-04-1.49655E-13
 -1      3677 1.37076E-02-5.21997E-04-1.47370E-13
 -1      3678 1.27443E-03 2.03489E-04-1.78572E-15
 -1      3679 4.32591E-03-1.23927E-04-2.11851E-14
 -1      3680 1.37617E-02-2.55368E-04-1.48916E-13
 -1      3681 1.37745E-02-2.26686E-04-1.49216E-13
 -1      3682 1.38361E-02-1.95239E-04-1.50521E-13
 -1      3683 4.76959E-03 2.08836E-04-2.19298E-14
 -1      3684 8.70976E-03 2.06562E-05-5.46757E-14
 -1      3685 1.77371E-03-2.13475E-04-3.48042E-15
 -1      3686 8.98960E-03-9.69537E-05-5.63568E-14
 -1      3687 9.09139E-03-1.18680E-04-5.76094E-14
 -1      3688 8.99143E-03-6.57553E-05-5.75070E-14
 -1      3689 9.18218E-03-1.57433E-04-5.80108E-14
 -1      3690 9.17934E-03-1.70600E-04-5.72564E-14
 -1      3691 9.25266E-03-1.83045E-04-5.88198E-14
 -1      3692 3.42257E-03 2.38143E-04-1.13015E-14
 -1      3693 3.37336E-03 2.74714E-04-1.07609E-14
 -1      3694 3.23091E-03 2.76798E-04-9.89555E-15
 -1      3695 4.86988E-03 3.04264E-04-2.17945E-14
 -1      3696 1.38265E-02-7.88439E-04-1.49259E-13
 -1      3697 8.49566E-03 2.41333E-04-5.50153E-14
 -1      3698 8.32528E-03 2.86581E-04-5.29249E-14
 -1      3699 4.44813E-03 4.76204E-05-2.12259E-14
 -1      3700 9.04237E-03-2.66050E-04-5.65111E-14
 -1      3701 9.05678E-03-2.95211E-04-5.76436E-14
 -1      3702 9.11736E-03-2.51768E-04-5.73351E-14
 -1      3703 1.36973E-02-7.57043E-04-1.46660E-13
 -1      3704 1.37803E-02-3.45430E-04-1.49163E-13
 -1      3705 1.37691E-02-3.03998E-04-1.48996E-13
 -1      3706 1.36437E-02-2.66678E-04-1.46484E-13
 -1      3707 4.43458E-03-2.12990E-04-2.05948E-14
 -1      3708 4.57091E-03-2.63517E-04-2.12010E-14
 -1      3709 8.31293E-03 2.61088E-04-5.24318E-14
 -1      3710 8.63508E-03 1.66311E-04-5.62158E-14
 -1      3711 1.26261E-03 1.59300E-04-1.82905E-15
 -1      3712 1.25693E-03 1.29037E-04-1.85728E-15
 -1      3713 1.37545E-03 1.20055E-04-2.20044E-15
 -1      3714 8.94954E-03-3.40578E-04-5.70446E-14
 -1      3715 8.82311E-03-3.55567E-04-5.53620E-14
 -1      3716 1.97728E-03-1.87483E-04-4.30258E-15
 -1      3717 2.11801E-03-1.89336E-04-4.88535E-15
 -1      3718 4.71033E-03-2.93883E-04-2.21827E-14
 -1      3719 2.53682E-03-1.89645E-04-6.85317E-15
 -1      3720 2.67494E-03-1.88421E-04-7.58215E-15
 -1      3721 2.81211E-03-1.86849E-04-8.34803E-15
 -1      3722 2.94828E-03-1.84952E-04-9.15052E-15
 -1      3723 2.73196E-03-1.57054E-04-7.97437E-15
 -1      3724 3.08329E-03-1.82999E-04-9.98863E-15
 -1      3725 3.21716E-03-1.80989E-04-1.08633E-14
 -1      3726 3.00187E-03-1.54100E-04-9.57727E-15
 -1      3727 3.34969E-03-1.79207E-04-1.17734E-14
 -1      3728 3.48098E-03-1.77629E-04-1.27194E-14
 -1      3729 3.26626E-03-1.50949E-04-1.13236E-14
 -1      3730 3.61079E-03-1.76547E-04-1.37021E-14
 -1      3731 3.73938E-03-1.75900E-04-1.47193E-14
 -1      3732 3.52415E-03-1.48446E-04-1.32139E-14
 -1      3733 3.86642E-03-1.75935E-04-1.57725E-14
 -1      3734 3.99249E-03-1.76716E-04-1.68617E-14
 -1      3735 3.77459E-03-1.47182E-04-1.52468E-14
 -1      3736 4.11709E-03-1.78704E-04-1.79845E-14
 -1      3737 4.24130E-03-1.81520E-04-1.91420E-14
 -1      3738 4.01664E-03-1.47771E-04-1.74206E-14
 -1      3739 1.24537E-03-1.29548E-05-1.93663E-15
 -1      3740 1.24638E-03-4.07698E-05-1.94117E-15
 -1      3741 1.36516E-03 9.02592E-07-2.27185E-15
 -1      3742 9.30895E-03-3.32348E-04-6.27272E-14
 -1      3743 9.43477E-03-3.40636E-04-6.49728E-14
 -1      3744 9.56063E-03-3.50107E-04-6.72479E-14
 -1      3745 9.68760E-03-3.60677E-04-6.95500E-14
 -1      3746 9.52345E-03-3.15830E-04-6.60574E-14
 -1      3747 9.81529E-03-3.72084E-04-7.18802E-14
 -1      3748 9.94425E-03-3.84316E-04-7.42374E-14
 -1      3749 9.76769E-03-3.38044E-04-7.06592E-14
 -1      3750 1.00742E-02-3.97132E-04-7.66221E-14
 -1      3751 1.02054E-02-4.10563E-04-7.90323E-14
 -1      3752 1.00189E-02-3.62474E-04-7.53682E-14
 -1      3753 1.03376E-02-4.24379E-04-8.14691E-14
 -1      3754 1.04709E-02-4.38607E-04-8.39313E-14
 -1      3755 1.02763E-02-3.88697E-04-8.01842E-14
 -1      3756 1.06051E-02-4.53045E-04-8.64180E-14
 -1      3757 1.07403E-02-4.67712E-04-8.89288E-14
 -1      3758 1.05392E-02-4.16209E-04-8.51026E-14
 -1      3759 1.08763E-02-4.82443E-04-9.14653E-14
 -1      3760 1.10132E-02-4.97255E-04-9.40251E-14
 -1      3761 1.08068E-02-4.44485E-04-9.01213E-14
 -1      3762 1.11508E-02-5.12019E-04-9.66071E-14
 -1      3763 1.12890E-02-5.26753E-04-9.92132E-14
 -1      3764 1.10783E-02-4.73049E-04-9.52376E-14
 -1      3765 1.14278E-02-5.41365E-04-1.01843E-13
 -1      3766 1.15671E-02-5.55872E-04-1.04496E-13
 -1      3767 1.13530E-02-5.01526E-04-1.00447E-13
 -1      3768 1.17069E-02-5.70213E-04-1.07170E-13
 -1      3769 1.18472E-02-5.84406E-04-1.09864E-13
 -1      3770 1.16304E-02-5.29654E-04-1.05748E-13
 -1      3771 1.19878E-02-5.98412E-04-1.12582E-13
 -1      3772 1.21287E-02-6.12250E-04-1.15320E-13
 -1      3773 1.19099E-02-5.57273E-04-1.11137E-13
 -1      3774 1.22699E-02-6.25899E-04-1.18077E-13
 -1      3775 1.24114E-02-6.39379E-04-1.20850E-13
 -1      3776 1.21910E-02-5.84303E-04-1.16608E-13
 -1      3777 1.25531E-02-6.52679E-04-1.23641E-13
 -1      3778 1.26950E-02-6.65818E-04-1.26451E-13
 -1      3779 1.24734E-02-6.10728E-04-1.22153E-13
 -1      3780 1.28370E-02-6.78795E-04-1.29278E-13
 -1      3781 1.29792E-02-6.91627E-04-1.32118E-13
 -1      3782 1.27567E-02-6.36574E-04-1.27763E-13
 -1      3783 1.31215E-02-7.04319E-04-1.34976E-13
 -1      3784 1.32639E-02-7.16884E-04-1.37848E-13
 -1      3785 1.30408E-02-6.61894E-04-1.33442E-13
 -1      3786 1.34064E-02-7.29331E-04-1.40735E-13
 -1      3787 1.35490E-02-7.41675E-04-1.43636E-13
 -1      3788 1.33254E-02-6.86755E-04-1.39180E-13
 -1      3789 2.35373E-03 2.20621E-04-5.60264E-15
 -1      3790 2.21243E-03 2.20452E-04-4.98545E-15
 -1      3791 9.64238E-03 1.33450E-06-7.08685E-14
 -1      3792 9.50322E-03 1.22789E-05-6.85528E-14
 -1      3793 9.36299E-03 2.44252E-05-6.62658E-14
 -1      3794 9.22082E-03 3.84928E-05-6.40093E-14
 -1      3795 9.47410E-03-1.87965E-05-6.75466E-14
 -1      3796 9.07635E-03 5.45194E-05-6.17830E-14
 -1      3797 8.92829E-03 7.40746E-05-5.95863E-14
 -1      3798 9.19889E-03 4.45669E-06-6.30289E-14
 -1      3799 9.91859E-03-1.76520E-05-7.55823E-14
 -1      3800 9.78066E-03-8.51923E-06-7.32116E-14
 -1      3801 9.74527E-03-3.78867E-05-7.21769E-14
 -1      3802 1.01940E-02-3.43141E-05-8.04065E-14
 -1      3803 1.00563E-02-2.61893E-05-7.79808E-14
 -1      3804 1.00156E-02-5.47618E-05-7.69206E-14
 -1      3805 1.04699E-02-4.97943E-05-8.53300E-14
 -1      3806 1.03318E-02-4.21523E-05-8.28569E-14
 -1      3807 1.02867E-02-7.05385E-05-8.17700E-14
 -1      3808 1.07470E-02-6.48831E-05-9.03564E-14
 -1      3809 1.06083E-02-5.73571E-05-8.78292E-14
 -1      3810 1.05595E-02-8.59060E-05-8.67200E-14
 -1      3811 1.10254E-02-8.01307E-05-9.54799E-14
 -1      3812 1.08860E-02-7.24693E-05-9.29062E-14
 -1      3813 1.08343E-02-1.01357E-04-9.17718E-14
 -1      3814 1.13052E-02-9.58987E-05-1.00699E-13
 -1      3815 1.11651E-02-8.79414E-05-9.80781E-14
 -1      3816 1.11110E-02-1.17233E-04-9.69220E-14
 -1      3817 1.15863E-02-1.12397E-04-1.06005E-13
 -1      3818 1.14456E-02-1.04054E-04-1.03340E-13
 -1      3819 1.13896E-02-1.33750E-04-1.02163E-13
 -1      3820 1.18685E-02-1.29728E-04-1.11394E-13
 -1      3821 1.17273E-02-1.20961E-04-1.08690E-13
 -1      3822 1.16697E-02-1.51024E-04-1.07489E-13
 -1      3823 1.21515E-02-1.47910E-04-1.16863E-13
 -1      3824 1.20099E-02-1.38717E-04-1.14120E-13
 -1      3825 1.19512E-02-1.69095E-04-1.12901E-13
 -1      3826 1.24353E-02-1.66907E-04-1.22399E-13
 -1      3827 1.22934E-02-1.57312E-04-1.19624E-13
 -1      3828 1.22338E-02-1.87948E-04-1.18388E-13
 -1      3829 1.27197E-02-1.86650E-04-1.27998E-13
 -1      3830 1.25774E-02-1.76692E-04-1.25192E-13
 -1      3831 1.25172E-02-2.07532E-04-1.23942E-13
 -1      3832 1.30045E-02-2.07048E-04-1.33642E-13
 -1      3833 1.28620E-02-1.96773E-04-1.30811E-13
 -1      3834 1.28013E-02-2.27772E-04-1.29550E-13
 -1      3835 1.32896E-02-2.28004E-04-1.39348E-13
 -1      3836 1.31470E-02-2.17462E-04-1.36491E-13
 -1      3837 1.30859E-02-2.48582E-04-1.35213E-13
 -1      3838 1.35010E-02-2.55853E-04-1.43589E-13
 -1      3839 1.38027E-02-4.28170E-04-1.49494E-13
 -1      3840 1.37915E-02-3.86819E-04-1.49331E-13
 -1      3841 1.36624E-02-3.56524E-04-1.46731E-13
 -1      3842 1.36125E-02-6.15440E-04-1.45229E-13
 -1      3843 1.36012E-02-5.74055E-04-1.45082E-13
 -1      3844 1.39287E-03 1.96606E-04-2.12657E-15
 -1      3845 1.69081E-03 2.77849E-04-2.86187E-15
 -1      3846 1.56624E-03 2.74182E-04-2.47395E-15
 -1      3847 1.52220E-03 2.47229E-04-2.40341E-15
 -1      3848 1.75238E-03 2.48630E-04-3.14415E-15
 -1      3849 8.30400E-03 2.34216E-04-5.19367E-14
 -1      3850 4.22170E-03-4.33433E-05-2.06211E-14
 -1      3851 4.25742E-03-1.67549E-05-2.05159E-14
 -1      3852 8.49391E-03 1.47064E-04-5.36138E-14
 -1      3853 2.63516E-03 2.18410E-04-6.94623E-15
 -1      3854 2.49463E-03 2.19913E-04-6.25627E-15
 -1      3855 2.41335E-03 1.87751E-04-5.98340E-15
 -1      3856 4.29459E-03-1.40953E-04-2.04036E-14
 -1      3857 4.22545E-03-1.12148E-04-2.01979E-14
 -1      3858 3.74777E-03 1.98061E-04-1.37698E-14
 -1      3859 3.60877E-03 1.99785E-04-1.27897E-14
 -1      3860 1.69505E-03-1.80220E-04-3.24934E-15
 -1      3861 1.83626E-03-1.84470E-04-3.75729E-15
 -1      3862 1.89934E-03-1.55286E-04-4.03920E-15
 -1      3863 4.31014E-03 2.43168E-05-2.02939E-14
 -1      3864 4.39679E-03 7.95605E-05-2.02259E-14
 -1      3865 1.24854E-03-6.88164E-05-1.94175E-15
 -1      3866 1.25179E-03-9.73291E-05-1.93854E-15
 -1      3867 1.36745E-03-5.76386E-05-2.28215E-15
 -1      3868 2.25823E-03-1.90246E-04-5.50448E-15
 -1      3869 2.39790E-03-1.90268E-04-6.16056E-15
 -1      3870 2.17961E-03-1.58634E-04-5.20440E-15
 -1      3871 4.31123E-03-1.72478E-04-1.99919E-14
 -1      3872 1.36160E-02-7.14345E-04-1.45084E-13
 -1      3873 9.03767E-03-3.15737E-04-5.78790E-14
 -1      3874 9.01903E-03-3.38157E-04-5.81122E-14
 -1      3875 9.11923E-03-2.96098E-04-5.87150E-14
 -1      3876 1.34397E-02-2.87051E-04-1.42297E-13
 -1      3877 8.64760E-03 1.21658E-04-5.57037E-14
 -1      3878 8.67820E-03 6.68732E-05-5.52008E-14
 -1      3879 8.84491E-03 7.53024E-06-5.67885E-14
 -1      3880 8.80476E-03 9.34585E-05-5.78420E-14
 -1      3881 9.15062E-03-3.40398E-04-6.02975E-14
 -1      3882 2.13220E-03 1.87629E-04-4.74221E-15
 -1      3883 2.07085E-03 2.19176E-04-4.40511E-15
 -1      3884 1.92901E-03 2.16702E-04-3.86076E-15
 -1      3885 8.94112E-03 3.33203E-05-5.90572E-14
 -1      3886 2.45753E-03-1.58887E-04-6.51614E-15
 -1      3887 9.28731E-03-1.97373E-04-5.95008E-14
 -1      3888 9.31300E-03-2.12118E-04-6.01801E-14
 -1      3889 9.31191E-03-1.86684E-04-6.02732E-14
 -1      3890 3.14137E-03 2.43233E-04-9.56509E-15
 -1      3891 9.25742E-03-3.08284E-04-6.13605E-14
 -1      3892 4.12967E-03-1.11627E-04-1.90778E-14
 -1      3893 4.17290E-03-9.69931E-05-1.98308E-14
 -1      3894 4.12821E-03-8.35219E-05-1.94639E-14
 -1      3895 2.91489E-03 2.13771E-04-8.43461E-15
 -1      3896 2.77522E-03 2.16335E-04-7.67237E-15
 -1      3897 2.69251E-03 1.84759E-04-7.36938E-15
 -1      3898 4.02823E-03 1.97645E-04-1.58361E-14
 -1      3899 3.88735E-03 1.97161E-04-1.47852E-14
 -1      3900 3.78821E-03 1.61340E-04-1.43597E-14
 -1      3901 1.49973E-03 1.41032E-04-2.54243E-15
 -1      3902 1.49423E-03 1.09000E-04-2.57246E-15
 -1      3903 1.56921E-03-1.55187E-04-2.85096E-15
 -1      3904 8.95028E-03 2.40641E-06-5.85539E-14
 -1      3905 8.97384E-03-3.71477E-05-5.80148E-14
 -1      3906 9.08442E-03-6.61958E-05-5.92848E-14
 -1      3907 9.06399E-03-1.04761E-05-6.03081E-14
 -1      3908 1.36849E-02-4.39181E-04-1.47056E-13
 -1      3909 4.65716E-03 1.98100E-04-2.10337E-14
 -1      3910 1.50747E-03 1.98618E-04-2.46274E-15
 -1      3911 9.21306E-03-2.46610E-04-5.89430E-14
 -1      3912 1.36047E-02-6.72868E-04-1.44945E-13
 -1      3913 9.19564E-03-1.37010E-04-5.91839E-14
 -1      3914 4.16418E-03-5.07415E-05-1.99909E-14
 -1      3915 3.47021E-03 2.02182E-04-1.18466E-14
 -1      3916 3.33165E-03 2.04958E-04-1.09391E-14
 -1      3917 3.51632E-03 1.66855E-04-1.23958E-14
 -1      3918 1.37436E-03-1.20801E-04-2.27251E-15
 -1      3919 1.61319E-03 9.61718E-05-2.97288E-15
 -1      3920 1.49004E-03 7.75709E-05-2.59730E-15
 -1      3921 1.48720E-03 4.66208E-05-2.61724E-15
 -1      3922 4.50522E-03 1.85721E-04-1.98247E-14
 -1      3923 4.31580E-03 2.04145E-04-1.80441E-14
 -1      3924 4.17063E-03 1.99644E-04-1.69229E-14
 -1      3925 4.06190E-03 1.58510E-04-1.64666E-14
 -1      3926 4.23274E-03 1.05852E-04-1.84436E-14
 -1      3927 4.37916E-03 1.35695E-04-1.93245E-14
 -1      3928 4.20683E-03 9.82338E-06-1.95448E-14
 -1      3929 1.34757E-02-6.41755E-04-1.42362E-13
 -1      3930 1.34722E-02-5.43270E-04-1.42500E-13
 -1      3931 1.35899E-02-5.32693E-04-1.44931E-13
 -1      3932 1.35785E-02-4.91337E-04-1.44779E-13
 -1      3933 1.34624E-02-3.69364E-04-1.42625E-13
 -1      3934 1.34510E-02-3.28239E-04-1.42461E-13
 -1      3935 1.32398E-02-3.00204E-04-1.38231E-13
 -1      3936 1.01091E-02-9.00889E-05-7.82592E-14
 -1      3937 9.97620E-03-8.22732E-05-7.58600E-14
 -1      3938 2.92366E-03-1.25546E-04-9.16866E-15
 -1      3939 3.05618E-03-1.24388E-04-1.00053E-14
 -1      3940 3.18701E-03-1.23350E-04-1.08776E-14
 -1      3941 3.31609E-03-1.22317E-04-1.17856E-14
 -1      3942 3.11154E-03-9.58507E-05-1.04342E-14
 -1      3943 3.44311E-03-1.21596E-04-1.27298E-14
 -1      3944 3.56803E-03-1.20982E-04-1.37094E-14
 -1      3945 3.36713E-03-9.51304E-05-1.22487E-14
 -1      3946 3.69041E-03-1.20795E-04-1.47240E-14
 -1      3947 3.81029E-03-1.20684E-04-1.57750E-14
 -1      3948 3.61330E-03-9.52706E-05-1.42046E-14
 -1      3949 9.58024E-03-5.78768E-05-6.88273E-14
 -1      3950 9.44823E-03-4.89988E-05-6.65391E-14
 -1      3951 1.35261E-02-4.50926E-04-1.43782E-13
 -1      3952 1.35148E-02-4.09712E-04-1.43624E-13
 -1      3953 1.33037E-02-3.81302E-04-1.39381E-13
 -1      3954 1.34085E-02-4.61726E-04-1.41362E-13
 -1      3955 9.48687E-03-2.84126E-04-6.48706E-14
 -1      3956 9.60232E-03-2.95047E-04-6.71409E-14
 -1      3957 9.72018E-03-3.06095E-04-6.94401E-14
 -1      3958 9.84076E-03-3.17721E-04-7.17649E-14
 -1      3959 9.67200E-03-2.76257E-04-6.82220E-14
 -1      3960 9.96345E-03-3.29565E-04-7.41168E-14
 -1      3961 1.00883E-02-3.41937E-04-7.64966E-14
 -1      3962 9.90737E-03-2.98432E-04-7.28697E-14
 -1      3963 1.02150E-02-3.54540E-04-7.89027E-14
 -1      3964 1.03434E-02-3.67542E-04-8.13339E-14
 -1      3965 1.01531E-02-3.21899E-04-7.76240E-14
 -1      3966 1.04733E-02-3.80713E-04-8.37911E-14
 -1      3967 1.06047E-02-3.94163E-04-8.62729E-14
 -1      3968 1.04071E-02-3.46548E-04-8.24825E-14
 -1      3969 1.07373E-02-4.07701E-04-8.87796E-14
 -1      3970 1.08711E-02-4.21393E-04-9.13131E-14
 -1      3971 1.06677E-02-3.72084E-04-8.74416E-14
 -1      3972 1.10060E-02-4.35092E-04-9.38698E-14
 -1      3973 1.11418E-02-4.48848E-04-9.64495E-14
 -1      3974 1.09336E-02-3.98153E-04-9.25032E-14
 -1      3975 1.12785E-02-4.62548E-04-9.90542E-14
 -1      3976 1.14159E-02-4.76230E-04-1.01681E-13
 -1      3977 1.12039E-02-4.24442E-04-9.76632E-14
 -1      3978 1.15541E-02-4.89816E-04-1.04330E-13
 -1      3979 1.16928E-02-5.03333E-04-1.07001E-13
 -1      3980 1.14778E-02-4.50711E-04-1.02914E-13
 -1      3981 1.18322E-02-5.16726E-04-1.09694E-13
 -1      3982 1.19720E-02-5.30022E-04-1.12408E-13
 -1      3983 1.17545E-02-4.76790E-04-1.08252E-13
 -1      3984 1.21122E-02-5.43185E-04-1.15142E-13
 -1      3985 1.22528E-02-5.56238E-04-1.17894E-13
 -1      3986 1.20335E-02-5.02565E-04-1.13677E-13
 -1      3987 1.23938E-02-5.69158E-04-1.20665E-13
 -1      3988 1.25350E-02-5.81966E-04-1.23451E-13
 -1      3989 1.23143E-02-5.27988E-04-1.19179E-13
 -1      3990 1.26765E-02-5.94650E-04-1.26254E-13
 -1      3991 1.28182E-02-6.07229E-04-1.29075E-13
 -1      3992 1.25964E-02-5.53043E-04-1.24748E-13
 -1      3993 1.29601E-02-6.19699E-04-1.31912E-13
 -1      3994 1.31022E-02-6.32073E-04-1.34762E-13
 -1      3995 1.28796E-02-5.77749E-04-1.30384E-13
 -1      3996 1.32177E-02-6.30944E-04-1.37116E-13
 -1      3997 1.33600E-02-6.43111E-04-1.39991E-13
 -1      3998 1.33679E-02-5.86048E-04-1.40278E-13
 -1      3999 1.31369E-02-5.88793E-04-1.35567E-13
 -1      4000 1.62594E-03 1.87498E-04-2.86079E-15
 -1      4001 1.56336E-03-1.19213E-04-2.86481E-15
 -1      4002 9.84394E-03-7.43456E-05-7.34892E-14
 -1      4003 9.71192E-03-6.62523E-05-7.11456E-14
 -1      4004 9.68048E-03-9.36006E-05-7.01116E-14
 -1      4005 9.93802E-03-1.08694E-04-7.48018E-14
 -1      4006 1.03767E-02-1.05636E-04-8.31345E-14
 -1      4007 1.02425E-02-9.78784E-05-8.06844E-14
 -1      4008 1.01991E-02-1.24145E-04-7.95990E-14
 -1      4009 1.06470E-02-1.21332E-04-8.81116E-14
 -1      4010 1.05115E-02-1.13460E-04-8.56109E-14
 -1      4011 1.04640E-02-1.39992E-04-8.44995E-14
 -1      4012 1.09199E-02-1.37440E-04-9.31908E-14
 -1      4013 1.07831E-02-1.29336E-04-9.06391E-14
 -1      4014 1.07324E-02-1.56376E-04-8.95063E-14
 -1      4015 1.11954E-02-1.54138E-04-9.83633E-14
 -1      4016 1.10573E-02-1.45719E-04-9.57638E-14
 -1      4017 1.10040E-02-1.73364E-04-9.46090E-14
 -1      4018 1.14730E-02-1.71522E-04-1.03627E-13
 -1      4019 1.13339E-02-1.62749E-04-1.00985E-13
 -1      4020 1.12786E-02-1.91021E-04-9.98048E-14
 -1      4021 1.17525E-02-1.89645E-04-1.08976E-13
 -1      4022 1.16125E-02-1.80498E-04-1.06291E-13
 -1      4023 1.15556E-02-2.09353E-04-1.05093E-13
 -1      4024 1.20335E-02-2.08498E-04-1.14409E-13
 -1      4025 1.18928E-02-1.98987E-04-1.11683E-13
 -1      4026 1.18346E-02-2.28366E-04-1.10464E-13
 -1      4027 1.23157E-02-2.28044E-04-1.19914E-13
 -1      4028 1.21744E-02-2.18191E-04-1.17153E-13
 -1      4029 1.21153E-02-2.48015E-04-1.15918E-13
 -1      4030 1.25989E-02-2.48224E-04-1.25483E-13
 -1      4031 1.24572E-02-2.38062E-04-1.22691E-13
 -1      4032 1.23973E-02-2.68256E-04-1.21440E-13
 -1      4033 1.28828E-02-2.68961E-04-1.31103E-13
 -1      4034 1.27408E-02-2.58529E-04-1.28288E-13
 -1      4035 1.26804E-02-2.89023E-04-1.27022E-13
 -1      4036 1.31324E-02-2.89825E-04-1.36079E-13
 -1      4037 1.29901E-02-2.79182E-04-1.33233E-13
 -1      4038 1.29294E-02-3.09875E-04-1.31960E-13
 -1      4039 1.31439E-02-3.30668E-04-1.36238E-13
 -1      4040 2.38033E-03-1.28387E-04-6.18245E-15
 -1      4041 2.51787E-03-1.28087E-04-6.87475E-15
 -1      4042 1.55559E-03-5.59990E-05-2.86960E-15
 -1      4043 1.55875E-03-8.73713E-05-2.86972E-15
 -1      4044 1.75227E-03-1.18558E-04-3.52152E-15
 -1      4045 2.65436E-03-1.27483E-04-7.60352E-15
 -1      4046 2.78969E-03-1.26558E-04-8.36806E-15
 -1      4047 2.84835E-03-9.69729E-05-8.76335E-15
 -1      4048 3.19304E-03 2.07928E-04-1.00679E-14
 -1      4049 3.05411E-03 2.10935E-04-9.23335E-15
 -1      4050 2.96933E-03 1.79637E-04-8.90022E-15
 -1      4051 4.13010E-03 6.51076E-05-1.80603E-14
 -1      4052 4.09670E-03 1.13976E-04-1.72103E-14
 -1      4053 4.06470E-03-1.56966E-05-1.84887E-14
 -1      4054 4.09192E-03 2.08486E-05-1.82822E-14
 -1      4055 3.97101E-03 3.21320E-05-1.70583E-14
 -1      4056 1.89240E-03-1.21084E-04-4.04879E-15
 -1      4057 4.08832E-03-6.30087E-05-1.90924E-14
 -1      4058 4.07794E-03-3.95722E-05-1.88713E-14
 -1      4059 3.96905E-03-2.98612E-05-1.76320E-14
 -1      4060 4.03082E-03-7.42762E-05-1.83621E-14
 -1      4061 2.10279E-03-1.27458E-04-4.90795E-15
 -1      4062 2.24193E-03-1.28174E-04-5.52705E-15
 -1      4063 2.30506E-03-9.80191E-05-5.85279E-15
 -1      4064 9.22773E-03-1.18121E-04-6.05795E-14
 -1      4065 9.30595E-03-1.56847E-04-6.09926E-14
 -1      4066 2.47328E-03 1.55273E-04-6.37027E-15
 -1      4067 2.33390E-03 1.56131E-04-5.71003E-15
 -1      4068 4.27262E-03-1.51770E-04-1.99534E-14
 -1      4069 1.48572E-03 1.60612E-05-2.63224E-15
 -1      4070 1.48559E-03-1.44004E-05-2.64266E-15
 -1      4071 1.60698E-03 3.22565E-05-3.01721E-15
 -1      4072 9.32546E-03-3.65481E-05-6.45148E-14
 -1      4073 9.19116E-03-2.58512E-05-6.22808E-14
 -1      4074 9.19551E-03-5.24942E-05-6.17639E-14
 -1      4075 9.43497E-03-7.55119E-05-6.57693E-14
 -1      4076 2.19400E-03 1.56204E-04-5.08633E-15
 -1      4077 2.05362E-03 1.55444E-04-4.49917E-15
 -1      4078 2.25630E-03 1.24946E-04-5.43722E-15
 -1      4079 1.67526E-03-4.16420E-05-3.27790E-15
 -1      4080 9.35868E-03-1.74792E-04-6.16938E-14
 -1      4081 9.40291E-03-1.91026E-04-6.23907E-14
 -1      4082 9.40411E-03-1.60344E-04-6.31183E-14
 -1      4083 3.91103E-03-9.55918E-05-1.69360E-14
 -1      4084 3.99111E-03-1.20057E-04-1.75048E-14
 -1      4085 1.75438E-03 2.23582E-04-3.21330E-15
 -1      4086 1.74399E-03 1.62352E-04-3.31182E-15
 -1      4087 3.96468E-03 1.16565E-04-1.61164E-14
 -1      4088 1.95740E-03-9.20796E-05-4.32919E-15
 -1      4089 2.57907E-03-9.79106E-05-7.23583E-15
 -1      4090 3.24377E-03 1.73342E-04-1.05757E-14
 -1      4091 1.32412E-02-5.46480E-04-1.37780E-13
 -1      4092 1.33567E-02-5.44921E-04-1.40137E-13
 -1      4093 1.33454E-02-5.03818E-04-1.39993E-13
 -1      4094 1.86915E-03 2.21785E-04-3.62565E-15
 -1      4095 9.20759E-03-7.47337E-05-6.14347E-14
 -1      4096 9.21498E-03-9.87716E-05-6.09141E-14
 -1      4097 9.33998E-03-1.23328E-04-6.27477E-14
 -1      4098 9.32421E-03-8.53165E-05-6.34219E-14
 -1      4099 2.74997E-03 1.51725E-04-7.79869E-15
 -1      4100 2.61197E-03 1.53800E-04-7.06653E-15
 -1      4101 2.53358E-03 1.23262E-04-6.76313E-15
 -1      4102 3.56120E-03 1.32484E-04-1.29492E-14
 -1      4103 3.42785E-03 1.36112E-04-1.20008E-14
 -1      4104 1.73718E-03 1.15204E-04-3.37158E-15
 -1      4105 1.73226E-03 8.19319E-05-3.40177E-15
 -1      4106 3.82635E-03 1.25543E-04-1.49540E-14
 -1      4107 3.69384E-03 1.28905E-04-1.39336E-14
 -1      4108 3.60499E-03 9.91241E-05-1.35067E-14
 -1      4109 9.45360E-03-2.31794E-04-6.34374E-14
 -1      4110 9.40752E-03-2.43637E-04-6.26407E-14
 -1      4111 4.16099E-03-1.38647E-04-1.89953E-14
 -1      4112 9.31040E-03-2.45519E-04-6.07634E-14
 -1      4113 9.24649E-03-2.72486E-04-6.02965E-14
 -1      4114 1.86228E-03 1.47821E-04-3.76866E-15
 -1      4115 4.10245E-03-1.21117E-04-1.86445E-14
 -1      4116 3.86379E-03-7.24759E-05-1.65956E-14
 -1      4117 3.29576E-03-6.87590E-05-1.17698E-14
 -1      4118 3.42046E-03-6.92383E-05-1.27110E-14
 -1      4119 3.54240E-03-7.01780E-05-1.36881E-14
 -1      4120 3.66140E-03-7.12269E-05-1.47005E-14
 -1      4121 3.47671E-03-4.46486E-05-1.31737E-14
 -1      4122 1.08158E-02-1.91190E-04-9.08993E-14
 -1      4123 1.06817E-02-1.82434E-04-8.83707E-14
 -1      4124 9.62109E-03-2.48681E-04-6.70068E-14
 -1      4125 9.73342E-03-2.58779E-04-6.93019E-14
 -1      4126 3.86876E-03 8.51657E-05-1.56554E-14
 -1      4127 9.84916E-03-2.68939E-04-7.16229E-14
 -1      4128 9.96813E-03-2.79760E-04-7.39711E-14
 -1      4129 9.78794E-03-2.41182E-04-7.03792E-14
 -1      4130 1.00897E-02-2.90665E-04-7.63461E-14
 -1      4131 1.02138E-02-3.02030E-04-7.87478E-14
 -1      4132 1.00242E-02-2.60688E-04-7.50709E-14
 -1      4133 1.03398E-02-3.13598E-04-8.11766E-14
 -1      4134 1.04677E-02-3.25521E-04-8.36286E-14
 -1      4135 1.02710E-02-2.81847E-04-7.98704E-14
 -1      4136 1.05973E-02-3.37551E-04-8.61069E-14
 -1      4137 1.07284E-02-3.49825E-04-8.86109E-14
 -1      4138 1.05258E-02-3.04074E-04-8.47746E-14
 -1      4139 1.08608E-02-3.62175E-04-9.11410E-14
 -1      4140 1.09944E-02-3.74668E-04-9.36947E-14
 -1      4141 1.07872E-02-3.27132E-04-8.97810E-14
 -1      4142 1.11291E-02-3.87174E-04-9.62728E-14
 -1      4143 1.12648E-02-3.99760E-04-9.88751E-14
 -1      4144 1.10538E-02-3.50712E-04-9.48856E-14
 -1      4145 1.14014E-02-4.12326E-04-1.01499E-13
 -1      4146 1.15388E-02-4.24919E-04-1.04144E-13
 -1      4147 1.13247E-02-3.74652E-04-1.00086E-13
 -1      4148 1.16769E-02-4.37467E-04-1.06815E-13
 -1      4149 1.18156E-02-4.49987E-04-1.09506E-13
 -1      4150 1.15990E-02-3.98744E-04-1.05377E-13
 -1      4151 1.19548E-02-4.62451E-04-1.12216E-13
 -1      4152 1.20946E-02-4.74877E-04-1.14947E-13
 -1      4153 1.18761E-02-4.22855E-04-1.10758E-13
 -1      4154 1.22348E-02-4.87229E-04-1.17695E-13
 -1      4155 1.23754E-02-4.99532E-04-1.20461E-13
 -1      4156 1.21553E-02-4.46895E-04-1.16214E-13
 -1      4157 1.25164E-02-5.11765E-04-1.23247E-13
 -1      4158 1.26576E-02-5.23945E-04-1.26045E-13
 -1      4159 1.24363E-02-4.70830E-04-1.21744E-13
 -1      4160 1.27991E-02-5.36059E-04-1.28859E-13
 -1      4161 1.29408E-02-5.48123E-04-1.31689E-13
 -1      4162 1.27186E-02-4.94642E-04-1.27339E-13
 -1      4163 1.30332E-02-5.48068E-04-1.33559E-13
 -1      4164 1.31486E-02-5.46699E-04-1.35899E-13
 -1      4165 1.31374E-02-5.05854E-04-1.35760E-13
 -1      4166 1.29525E-02-5.06352E-04-1.32019E-13
 -1      4167 1.05486E-02-1.73825E-04-8.58685E-14
 -1      4168 1.04166E-02-1.65428E-04-8.33903E-14
 -1      4169 1.06309E-02-2.07473E-04-8.72361E-14
 -1      4170 1.10867E-02-2.09245E-04-9.60265E-14
 -1      4171 1.09508E-02-2.00149E-04-9.34520E-14
 -1      4172 1.08974E-02-2.26051E-04-9.22917E-14
 -1      4173 1.13607E-02-2.27963E-04-1.01249E-13
 -1      4174 1.12233E-02-2.18539E-04-9.86257E-14
 -1      4175 1.11680E-02-2.45290E-04-9.74465E-14
 -1      4176 1.16374E-02-2.47301E-04-1.06560E-13
 -1      4177 1.14987E-02-2.37563E-04-1.03894E-13
 -1      4178 1.14419E-02-2.65117E-04-1.02692E-13
 -1      4179 1.19162E-02-2.67230E-04-1.11953E-13
 -1      4180 1.17765E-02-2.57206E-04-1.09245E-13
 -1      4181 1.17185E-02-2.85487E-04-1.08025E-13
 -1      4182 1.21967E-02-2.87680E-04-1.17424E-13
 -1      4183 1.20563E-02-2.77396E-04-1.14680E-13
 -1      4184 1.19973E-02-3.06311E-04-1.13441E-13
 -1      4185 1.24787E-02-3.08608E-04-1.22965E-13
 -1      4186 1.23376E-02-2.98091E-04-1.20189E-13
 -1      4187 1.22778E-02-3.27550E-04-1.18932E-13
 -1      4188 1.27617E-02-3.29949E-04-1.28564E-13
 -1      4189 1.26201E-02-3.19233E-04-1.25759E-13
 -1      4190 1.25598E-02-3.49140E-04-1.24492E-13
 -1      4191 2.23168E-03-6.78233E-05-5.52707E-15
 -1      4192 2.36933E-03-6.81491E-05-6.18135E-15
 -1      4193 1.85141E-03 6.66765E-05-3.85885E-15
 -1      4194 1.72888E-03 4.92283E-05-3.42657E-15
 -1      4195 1.72709E-03 1.68074E-05-3.44527E-15
 -1      4196 2.50600E-03-6.83184E-05-6.87177E-15
 -1      4197 2.64155E-03-6.83104E-05-7.59871E-15
 -1      4198 2.43488E-03-3.85837E-05-6.51223E-15
 -1      4199 2.77577E-03-6.82958E-05-8.36139E-15
 -1      4200 2.90852E-03-6.82123E-05-9.16002E-15
 -1      4201 2.70554E-03-3.93014E-05-7.96315E-15
 -1      4202 9.50468E-03-2.16060E-04-6.44813E-14
 -1      4203 1.02857E-02-1.57199E-04-8.09382E-14
 -1      4204 1.01560E-02-1.49210E-04-7.85135E-14
 -1      4205 1.03691E-02-1.89732E-04-8.22812E-14
 -1      4206 9.23631E-03-2.89007E-04-6.05396E-14
 -1      4207 9.37760E-03-2.87570E-04-6.29655E-14
 -1      4208 1.85826E-03-5.97816E-05-3.95020E-15
 -1      4209 2.06741E-03-6.51833E-05-4.79856E-15
 -1      4210 3.34364E-03 1.06961E-04-1.16053E-14
 -1      4211 3.29392E-03 1.39660E-04-1.10881E-14
 -1      4212 3.15913E-03 1.43106E-04-1.02114E-14
 -1      4213 9.45726E-03-2.67386E-04-6.40278E-14
 -1      4214 1.78782E-03-1.57800E-05-3.68165E-15
 -1      4215 3.03955E-03-6.82749E-05-9.99367E-15
 -1      4216 3.16874E-03-6.83650E-05-1.08639E-14
 -1      4217 2.97050E-03-4.02820E-05-9.55678E-15
 -1      4218 3.02359E-03 1.46293E-04-9.37117E-15
 -1      4219 2.88717E-03 1.49223E-04-8.56689E-15
 -1      4220 3.07781E-03 1.13819E-04-9.84721E-15
 -1      4221 9.44521E-03-1.27873E-04-6.48016E-14
 -1      4222 9.44801E-03-1.44578E-04-6.44568E-14
 -1      4223 9.50347E-03-1.64706E-04-6.51760E-14
 -1      4224 3.22821E-03-4.19304E-05-1.12940E-14
 -1      4225 3.80228E-03-4.88368E-05-1.60282E-14
 -1      4226 1.90832E-03 3.70555E-07-4.13718E-15
 -1      4227 1.32488E-02-4.10751E-04-1.38211E-13
 -1      4228 1.31964E-02-3.70686E-04-1.37226E-13
 -1      4229 1.30891E-02-3.60122E-04-1.35076E-13
 -1      4230 3.39352E-03 7.54610E-05-1.21263E-14
 -1      4231 3.26366E-03 7.90902E-05-1.12093E-14
 -1      4232 1.93134E-03 1.91554E-04-3.93263E-15
 -1      4233 1.97445E-03 8.43264E-05-4.31567E-15
 -1      4234 1.97052E-03 5.05172E-05-4.34480E-15
 -1      4235 1.00276E-02-1.41313E-04-7.61138E-14
 -1      4236 9.90036E-03-1.33744E-04-7.37434E-14
 -1      4237 1.01128E-02-1.73016E-04-7.74291E-14
 -1      4238 2.80764E-03 1.19388E-04-8.23355E-15
 -1      4239 1.28687E-02-3.40338E-04-1.30685E-13
 -1      4240 1.28081E-02-3.70563E-04-1.29409E-13
 -1      4241 1.29758E-02-3.50791E-04-1.32813E-13
 -1      4242 2.13433E-03-3.57729E-05-5.09181E-15
 -1      4243 9.56765E-03-2.04634E-04-6.59417E-14
 -1      4244 3.64842E-03 6.72144E-05-1.40680E-14
 -1      4245 3.52168E-03 7.15495E-05-1.30791E-14
 -1      4246 3.44389E-03 4.52813E-05-1.26509E-14
 -1      4247 3.85885E-03 1.50979E-05-1.62237E-14
 -1      4248 3.87742E-03 5.43942E-05-1.60206E-14
 -1      4249 2.59456E-03 9.17677E-05-7.16201E-15
 -1      4250 2.45736E-03 9.31089E-05-6.45999E-15
 -1      4251 1.32930E-02-4.63616E-04-1.39008E-13
 -1      4252 1.98619E-03 1.12663E-04-4.31495E-15
 -1      4253 2.10415E-03 9.60566E-05-4.83205E-15
 -1      4254 9.62394E-03-1.92079E-04-6.73124E-14
 -1      4255 1.92211E-03 1.42475E-04-4.00621E-15
 -1      4256 1.12481E-02-2.81560E-04-9.88674E-14
 -1      4257 1.11124E-02-2.71287E-04-9.62661E-14
 -1      4258 3.45437E-03-1.01187E-06-1.29215E-14
 -1      4259 3.57616E-03-3.97127E-06-1.39054E-14
 -1      4260 3.74705E-03 6.46944E-05-1.48647E-14
 -1      4261 9.95512E-03-2.31624E-04-7.37988E-14
 -1      4262 1.00761E-02-2.41111E-04-7.61696E-14
 -1      4263 1.01979E-02-2.27632E-04-7.86581E-14
 -1      4264 1.03240E-02-2.37198E-04-8.10846E-14
 -1      4265 1.04520E-02-2.46875E-04-8.35369E-14
 -1      4266 1.05815E-02-2.56947E-04-8.60133E-14
 -1      4267 1.07125E-02-2.67115E-04-8.85152E-14
 -1      4268 1.08448E-02-2.77557E-04-9.10447E-14
 -1      4269 1.10555E-02-3.23615E-04-9.49868E-14
 -1      4270 1.11905E-02-3.35014E-04-9.75766E-14
 -1      4271 1.13264E-02-3.46502E-04-1.00189E-13
 -1      4272 1.15207E-02-3.60599E-04-1.03941E-13
 -1      4273 1.16585E-02-3.72155E-04-1.06610E-13
 -1      4274 1.17982E-02-3.53878E-04-1.09399E-13
 -1      4275 1.19373E-02-3.65105E-04-1.12107E-13
 -1      4276 1.20769E-02-3.76346E-04-1.14836E-13
 -1      4277 1.22170E-02-3.87650E-04-1.17581E-13
 -1      4278 1.23575E-02-3.98969E-04-1.20345E-13
 -1      4279 1.24984E-02-4.10331E-04-1.23127E-13
 -1      4280 1.26395E-02-4.21705E-04-1.25920E-13
 -1      4281 1.27809E-02-4.33108E-04-1.28727E-13
 -1      4282 1.15799E-02-3.04715E-04-1.05259E-13
 -1      4283 1.14422E-02-2.94166E-04-1.02603E-13
 -1      4284 2.31933E-03 9.39162E-05-5.79442E-15
 -1      4285 2.18055E-03 9.42263E-05-5.16506E-15
 -1      4286 1.17183E-02-3.15356E-04-1.07935E-13
 -1      4287 2.16916E-03 6.57846E-05-5.16342E-15
 -1      4288 2.10546E-03 1.48511E-05-4.94309E-15
 -1      4289 2.26911E-03 1.25988E-05-5.68089E-15
 -1      4290 3.18780E-03 5.19196E-05-1.08132E-14
 -1      4291 3.13246E-03 8.23281E-05-1.03279E-14
 -1      4292 2.99979E-03 8.52758E-05-9.48257E-15
 -1      4293 3.77175E-03-2.45248E-05-1.56828E-14
 -1      4294 9.43812E-03-9.31697E-05-6.54569E-14
 -1      4295 9.44254E-03-1.12077E-04-6.51173E-14
 -1      4296 9.55322E-03-1.34401E-04-6.68521E-14
 -1      4297 9.55324E-03-1.02903E-04-6.74903E-14
 -1      4298 2.86589E-03 8.78154E-05-8.67313E-15
 -1      4299 2.73075E-03 9.00206E-05-7.89948E-15
 -1      4300 2.92492E-03 5.70918E-05-9.11771E-15
 -1      4301 2.65635E-03 6.08656E-05-7.56578E-15
 -1      4302 2.40639E-03 1.19965E-05-6.34203E-15
 -1      4303 2.54269E-03 1.12987E-05-7.03890E-15
 -1      4304 2.67782E-03 1.03033E-05-7.77220E-15
 -1      4305 2.81161E-03 9.19716E-06-8.54103E-15
 -1      4306 3.66985E-03-6.20582E-06-1.46987E-14
 -1      4307 3.20330E-03 4.05134E-06-1.10621E-14
 -1      4308 3.32997E-03 1.83279E-06-1.19741E-14
 -1      4309 9.77465E-03-1.26441E-04-7.13971E-14
 -1      4310 9.65012E-03-1.19459E-04-6.90770E-14
 -1      4311 2.38319E-03 6.31853E-05-6.15786E-15
 -1      4312 1.31858E-02-4.52752E-04-1.36851E-13
 -1      4313 2.94392E-03 7.72434E-06-9.34574E-15
 -1      4314 3.07453E-03 6.12223E-06-1.01860E-14
 -1      4315 3.66596E-03 3.88903E-05-1.44086E-14
 -1      4316 9.64793E-03-1.34879E-04-6.87548E-14
 -1      4317 9.64515E-03-1.49462E-04-6.84306E-14
 -1      4318 9.86279E-03-1.57448E-04-7.26816E-14
 -1      4319 9.71608E-03-1.93538E-04-6.92226E-14
 -1      4320 1.13846E-02-3.20626E-04-1.01398E-13
 -1      4321 1.01205E-02-1.97149E-04-7.73512E-14
 -1      4322 9.99612E-03-1.88863E-04-7.49652E-14
 -1      4323 9.83272E-03-2.01488E-04-7.15411E-14
 -1      4324 1.09775E-02-2.61125E-04-9.36886E-14
 -1      4325 1.28575E-02-3.97166E-04-1.30345E-13
 -1      4326 1.29370E-02-4.70713E-04-1.31784E-13
 -1      4327 1.30283E-02-3.90571E-04-1.33792E-13
 -1      4328 2.02910E-03 1.68357E-05-4.61751E-15
 -1      4329 9.87385E-03-1.81041E-04-7.26068E-14
 -1      4330 1.30294E-02-4.70371E-04-1.33651E-13
 -1      4331 1.31219E-02-4.69976E-04-1.35521E-13
 -1      4332 1.30777E-02-4.17398E-04-1.34736E-13
 -1      4333 1.29645E-02-4.07842E-04-1.32472E-13
 -3
    1PSTEP                         2           1           1          
  100CL  101 1.000000000        4333                     0    1           1
 -4  STRESS      6    1
 -5  SXX         1    4    1    1
 -5  SYY         1    4    2    2
 -5  SZZ         1    4    3    3
 -5  SXY         1    4    1    2
 -5  SYZ         1    4    2    3
 -5  SZX         1    4    3    1
 -1         1 1.40928E+01 9.71514E+00 1.77844E-01-1.16679E+01-4.06503E-12 4.54192E-12
 -1         2-7.35968E-01-2.43538E+01-3.35536E+00 5.69044E-03-7.52749E-14 1.28925E-14
 -1         3 2.00001E+01 3.63717E-04 5.39631E-04 3.43279E-04-4.54072E-13-4.05673E-13
 -1         4 2.00001E+01 3.00595E-04 4.87566E-04-2.87972E-04 2.40554E-13 9.62563E-14
 -1         5 3.25189E+01 6.09738E+00 2.70087E+00 6.17404E+00-5.17364E-14 3.71374E-12
 -1         6 3.54583E+01 1.21541E+01 5.05534E+00-8.56857E+00-1.99341E-13 3.46767E-12
 -1         7 2.07955E+01 6.09059E+00-1.18758E-01-4.66099E+00-2.91295E-14 7.45584E-13
 -1         8 1.96988E+01 5.94132E+00 5.60722E-02-3.19379E+00-4.24626E-14-1.18378E-13
 -1         9 1.91850E+01 5.78499E+00 5.21311E-02-2.43240E+00-3.67813E-14-5.96558E-13
 -1        10 1.89424E+01 5.70510E+00 5.21232E-02-1.85281E+00-2.10604E-14-8.25987E-13
 -1        11 1.88066E+01 5.66024E+00 4.92424E-02-1.36464E+00-1.77549E-14-9.33652E-13
 -1        12 1.87256E+01 5.63337E+00 4.59197E-02-9.41041E-01-9.59389E-15-9.71543E-13
 -1        13 1.86766E+01 5.61735E+00 4.33115E-02-5.47459E-01-4.28173E-15-9.82401E-13
 -1        14 1.86537E+01 5.60988E+00 4.19479E-02-1.75123E-01 4.28151E-16-9.79686E-13
 -1        15 1.86541E+01 5.61002E+00 4.20116E-02 1.90639E-01 6.79258E-15-9.56751E-13
 -1        16 1.86779E+01 5.61777E+00 4.35077E-02 5.64100E-01 1.58478E-14-9.24030E-13
 -1        17 1.87278E+01 5.63396E+00 4.62721E-02 9.60161E-01 1.81565E-14-8.72253E-13
 -1        18 1.88096E+01 5.66102E+00 4.96953E-02 1.38742E+00 2.24508E-14-7.63847E-13
 -1        19 1.89461E+01 5.70625E+00 5.24143E-02 1.88185E+00 3.61985E-14-5.97684E-13
 -1        20 1.91892E+01 5.78718E+00 5.18904E-02 2.46963E+00 4.44523E-14-2.96643E-13
 -1        21 1.96940E+01 5.95556E+00 5.12212E-02 3.22832E+00 4.87249E-14 2.50835E-13
 -1        22 2.11661E+01 6.36763E+00 1.43923E-01 4.46061E+00 4.94049E-15 1.33949E-12
 -1        23 2.29164E+01-1.37582E+00-9.38123E-01-6.95005E-01-1.33747E-13 2.76619E-12
 -1        24 1.93536E+01-9.95743E-02-3.07720E-01 6.42523E-02-3.84397E-14 2.16265E-12
 -1        25 1.87435E+01-5.72007E-02-6.87065E-02 6.06222E-02-2.36629E-14 1.52504E-12
 -1        26 1.86281E+01-2.38350E-02-7.99146E-03 3.29267E-02 4.88444E-15 1.10537E-12
 -1        27 1.87503E+01-1.43719E-02-1.15414E-03 2.29202E-02-1.82524E-14 8.26176E-13
 -1        28 1.90123E+01-9.67481E-03-2.14259E-03 1.73551E-02-9.71787E-15 6.26200E-13
 -1        29 1.93713E+01-7.43764E-03-3.51598E-03 1.43615E-02 1.09123E-14 4.94040E-13
 -1        30 1.98114E+01-6.50224E-03-4.79261E-03 1.30988E-02 3.63094E-15 3.29999E-13
 -1        31 2.03312E+01-6.22188E-03-6.18621E-03 1.32802E-02 1.33693E-15 9.00885E-14
 -1        32 2.09371E+01-6.08239E-03-7.56951E-03 1.48535E-02-5.21481E-14-2.07711E-13
 -1        33 2.16366E+01-5.52609E-03-8.40654E-03 1.78008E-02 5.05891E-14-3.49009E-13
 -1        34 2.24306E+01-3.83861E-03-7.63283E-03 2.19101E-02-1.76415E-14-2.86392E-13
 -1        35 2.33010E+01-1.20067E-04-3.46609E-03 2.63954E-02 8.05031E-15-3.25889E-13
 -1        36 2.41924E+01 6.55538E-03 6.60035E-03 2.92731E-02-2.20932E-14-3.16507E-13
 -1        37 2.49896E+01 1.65906E-02 2.49779E-02 2.65692E-02-2.87143E-14-2.99724E-13
 -1        38 2.54986E+01 2.87039E-02 5.13066E-02 1.20319E-02-2.21453E-14-3.32955E-13
 -1        39 2.54571E+01 3.85462E-02 7.81083E-02-2.08609E-02-1.23946E-14-3.89161E-13
 -1        40 2.46128E+01 3.83797E-02 8.70184E-02-7.25413E-02-2.01254E-14-4.96377E-13
 -1        41 2.29011E+01 2.06998E-02 5.44722E-02-1.27032E-01-5.85109E-14-7.80126E-13
 -1        42 2.06643E+01-1.37077E-02-2.64189E-02-1.48428E-01-2.55842E-14-7.85344E-13
 -1        43 1.87024E+01-4.97999E-02-1.19569E-01-1.03084E-01-3.57084E-14-6.54175E-13
 -1        44 1.79239E+01-6.53310E-02-1.61420E-01 6.18423E-04 5.54478E-14-5.82286E-13
 -1        45 1.87350E+01-4.94737E-02-1.18485E-01 1.03904E-01-2.15127E-14-6.22596E-13
 -1        46 2.07228E+01-1.33976E-02-2.49092E-02 1.48626E-01-8.15423E-15-8.12385E-13
 -1        47 2.29780E+01 2.06432E-02 5.46195E-02 1.26711E-01-3.05019E-14-8.58674E-13
 -1        48 2.47069E+01 3.79864E-02 8.63140E-02 7.21870E-02 2.25345E-14-6.72584E-13
 -1        49 2.55734E+01 3.78637E-02 7.67808E-02 2.07445E-02 1.80563E-14-5.66056E-13
 -1        50 2.56480E+01 2.78544E-02 4.98235E-02-1.16861E-02-3.79544E-14-7.74985E-13
 -1        51 2.51867E+01 1.56187E-02 2.34340E-02-2.56561E-02 3.88647E-14-6.30140E-13
 -1        52 2.44540E+01 5.52489E-03 5.02145E-03-2.77762E-02-7.63916E-14-7.72059E-13
 -1        53 2.36451E+01-1.16881E-03-5.16170E-03-2.42392E-02 1.85338E-14-8.08334E-13
 -1        54 2.28763E+01-4.84089E-03-9.48221E-03-1.89437E-02 5.00842E-14-4.63615E-13
 -1        55 2.22038E+01-6.37377E-03-1.03965E-02-1.38099E-02-2.11202E-14-5.12000E-13
 -1        56 2.16456E+01-6.59724E-03-9.63997E-03-9.55567E-03-5.86174E-14-9.18880E-13
 -1        57 2.11991E+01-6.11925E-03-8.23296E-03-6.30514E-03 1.70816E-14-1.14012E-12
 -1        58 2.08519E+01-5.32937E-03-6.70224E-03-3.94274E-03 5.13881E-14-9.90180E-13
 -1        59 2.05881E+01-4.45449E-03-5.28684E-03-2.28699E-03-3.61233E-14-9.77208E-13
 -1        60 2.03922E+01-3.61511E-03-4.07491E-03-1.16257E-03-8.64173E-14-9.38742E-13
 -1        61 2.02499E+01-2.86743E-03-3.08195E-03-4.23774E-04 3.29714E-14-8.68018E-13
 -1        62 2.01491E+01-2.23111E-03-2.29165E-03 4.24828E-05-9.55003E-14-6.89321E-13
 -1        63 2.00800E+01-1.70619E-03-1.67619E-03 3.20858E-04-8.36104E-14-1.00021E-12
 -1        64 2.00345E+01-1.28303E-03-1.20567E-03 4.73432E-04 1.26688E-14-1.30958E-12
 -1        65 2.00063E+01-9.47786E-04-8.52232E-04 5.45249E-04-1.50444E-14-5.76572E-13
 -1        66 1.99908E+01-6.85220E-04-5.91447E-04 5.68890E-04-7.38755E-14-6.92886E-13
 -1        67 1.99842E+01-4.79672E-04-4.01345E-04 5.68273E-04 1.57083E-13-5.04015E-13
 -1        68 1.99837E+01-3.14319E-04-2.56988E-04 5.61675E-04 3.06564E-14-2.78924E-14
 -1        69 1.99873E+01-1.70415E-04-1.17022E-04 5.58053E-04 2.37040E-14 3.35459E-14
 -1        70 1.99929E+01-3.72808E-05 7.72821E-05 5.29597E-04 1.01812E-13 5.48995E-13
 -1        71 1.99983E+01 2.09400E-06 3.80547E-04 3.98213E-04-1.06962E-13 5.78391E-13
 -1        72 2.09473E+01-4.02777E-01-9.78741E-01-3.12712E-01 4.97935E-14 3.42294E-12
 -1        73 1.93223E+01-6.60548E-02-2.89237E-01-5.40111E-02 2.29183E-14 2.67321E-12
 -1        74 1.87554E+01-2.13552E-02-6.43302E-02-1.97013E-02 1.62458E-14 2.14359E-12
 -1        75 1.86383E+01-1.12243E-02-1.08463E-02-1.43610E-02 1.73971E-15 1.71757E-12
 -1        76 1.87575E+01-6.97617E-03-1.98029E-03-1.11584E-02 2.09079E-14 1.36602E-12
 -1        77 1.90129E+01-4.86840E-03-1.93208E-03-9.03196E-03-3.44906E-15 1.14694E-12
 -1        78 1.93594E+01-3.78187E-03-2.79343E-03-7.76356E-03-9.49761E-15 1.12879E-12
 -1        79 1.97769E+01-3.16348E-03-3.53811E-03-7.24621E-03 2.26377E-14 1.02587E-12
 -1        80 2.02575E+01-2.63855E-03-4.10784E-03-7.53907E-03-2.73956E-14 8.41814E-13
 -1        81 2.07979E+01-1.87044E-03-4.24637E-03-8.79027E-03 2.33477E-14 7.59524E-13
 -1        82 2.13921E+01-5.06221E-04-3.37853E-03-1.11376E-02 2.43337E-14 6.10095E-13
 -1        83 2.20239E+01 1.81103E-03-6.21490E-04-1.45577E-02 1.63048E-14 5.51378E-13
 -1        84 2.26573E+01 5.33788E-03 5.12789E-03-1.86012E-02-1.97033E-14 4.78112E-13
 -1        85 2.32257E+01 9.98799E-03 1.48290E-02-2.19869E-02 1.34197E-14 4.91807E-13
 -1        86 2.36241E+01 1.49469E-02 2.84011E-02-2.21657E-02 2.89384E-15 4.97462E-13
 -1        87 2.37123E+01 1.82930E-02 4.31877E-02-1.52659E-02-6.43105E-15 4.26381E-13
 -1        88 2.33436E+01 1.71578E-02 5.24576E-02 2.63686E-03-3.09496E-14 5.61556E-13
 -1        89 2.24309E+01 9.12149E-03 4.61717E-02 3.19947E-02-6.63282E-15 4.44547E-13
 -1        90 2.10440E+01-5.28389E-03 1.66543E-02 6.52473E-02 3.99734E-15 1.55303E-13
 -1        91 1.94828E+01-2.07362E-02-3.17640E-02 8.56716E-02 1.42173E-14 7.67962E-14
 -1        92 1.82376E+01-2.94684E-02-7.82513E-02 7.59743E-02-1.86968E-14 1.36363E-13
 -1        93 1.77831E+01-2.68897E-02-9.58259E-02 3.39645E-02-1.40133E-14 1.03728E-13
 -1        94 1.83100E+01-1.48787E-02-7.39565E-02-2.14786E-02 3.90280E-14-2.41649E-13
 -1        95 1.96066E+01-3.12225E-05-2.57843E-02-6.36087E-02-2.15111E-14-1.58273E-13
 -1        96 2.11908E+01 1.13363E-02 2.10271E-02-7.68876E-02 7.79708E-14-3.98570E-14
 -1        97 2.25811E+01 1.65255E-02 4.77593E-02-6.50357E-02-2.81965E-14-2.55442E-13
 -1        98 2.34938E+01 1.61220E-02 5.17407E-02-4.16050E-02-7.06009E-14-1.73660E-13
 -1        99 2.38741E+01 1.24489E-02 4.12093E-02-1.85725E-02 1.13950E-14-2.65371E-13
 -1       100 2.38175E+01 7.79874E-03 2.59505E-02-1.81130E-03-1.05007E-14-3.06764E-13
 -1       101 2.34739E+01 3.63761E-03 1.22822E-02 7.86287E-03-2.66877E-14-2.86776E-13
 -1       102 2.29836E+01 5.69074E-04 2.61139E-03 1.20270E-02 2.02096E-14-4.68451E-13
 -1       103 2.24512E+01-1.36777E-03-3.09386E-03 1.27169E-02-3.30699E-14-2.33928E-13
 -1       104 2.19421E+01-2.38996E-03-5.82014E-03 1.15764E-02 8.81144E-14 5.24294E-14
 -1       105 2.14911E+01-2.77223E-03-6.64355E-03 9.68483E-03-8.77583E-15-1.90598E-14
 -1       106 2.11118E+01-2.75492E-03-6.40221E-03 7.65701E-03-9.39203E-14-9.17907E-14
 -1       107 2.08051E+01-2.51678E-03-5.65176E-03 5.79754E-03-6.35082E-15-7.56149E-13
 -1       108 2.05648E+01-2.17801E-03-4.72376E-03 4.22786E-03 3.52181E-14-1.32793E-12
 -1       109 2.03819E+01-1.81320E-03-3.79899E-03 2.97114E-03-6.25100E-14-9.35738E-13
 -1       110 2.02464E+01-1.46482E-03-2.96549E-03 2.00312E-03 5.04027E-14-7.51381E-13
 -1       111 2.01489E+01-1.15423E-03-2.25755E-03 1.28041E-03 2.58747E-14-6.84553E-13
 -1       112 2.00811E+01-8.89560E-04-1.68019E-03 7.55475E-04-1.62523E-13 1.14287E-13
 -1       113 2.00360E+01-6.71209E-04-1.22371E-03 3.83789E-04 1.32871E-13 4.21007E-13
 -1       114 2.00078E+01-4.95268E-04-8.72351E-04 1.26711E-04-9.97566E-14 1.89300E-14
 -1       115 1.99921E+01-3.55311E-04-6.08695E-04-4.84869E-05 6.55687E-14-2.62443E-13
 -1       116 1.99852E+01-2.42847E-04-4.13846E-04-1.70264E-04 7.36396E-15-8.81040E-13
 -1       117 1.99845E+01-1.47943E-04-2.63509E-04-2.63701E-04 2.06415E-14-1.22328E-12
 -1       118 1.99878E+01-5.97537E-05-1.18060E-04-3.50499E-04-5.07852E-14-1.07750E-12
 -1       119 1.99933E+01 5.14111E-05 1.00499E-04-4.52088E-04 3.14038E-14-4.40270E-13
 -1       120 1.99984E+01 1.96464E-05 3.29586E-04-4.44415E-04 2.46649E-13-8.41748E-13
 -1       121 1.99999E+01-1.67475E-03 2.53132E-04-4.79795E-04-9.52219E-13 3.51819E-14
 -1       122 1.99998E+01-6.46796E-03-2.75760E-05-4.38704E-04-8.13069E-13-9.60949E-14
 -1       123 1.99997E+01-1.07197E-02-2.07985E-04-2.91150E-04-3.36896E-13-8.12653E-14
 -1       124 1.99997E+01-1.29145E-02-2.17409E-04-1.33129E-04-3.02705E-13 2.27528E-13
 -1       125 1.99997E+01-1.30582E-02-1.39459E-04-2.10341E-05 3.30391E-13-1.71152E-13
 -1       126 1.99998E+01-1.19435E-02-4.39357E-05 3.32545E-05-4.79813E-13 1.44714E-13
 -1       127 1.99998E+01-1.04974E-02 3.94112E-05 4.02859E-05-4.90166E-13 1.10598E-13
 -1       128 1.99999E+01-9.58820E-03 8.53445E-05 1.40089E-05-6.00001E-13 1.02955E-13
 -1       129 1.99999E+01-9.69518E-03 8.32435E-05-2.33416E-05 6.89212E-13 2.33840E-13
 -1       130 1.99998E+01-1.07967E-02 3.32422E-05-4.77479E-05 1.20060E-12-2.80942E-13
 -1       131 1.99998E+01-1.23726E-02-5.29819E-05-3.59187E-05 1.63787E-14-4.23652E-14
 -1       132 1.99997E+01-1.35253E-02-1.51445E-04 2.31305E-05-1.05422E-12 1.57915E-13
 -1       133 1.99997E+01-1.33071E-02-2.25209E-04 1.41883E-04-1.28242E-12 2.05656E-14
 -1       134 1.99997E+01-1.09673E-02-2.12664E-04 3.06703E-04-1.32057E-12-1.45144E-14
 -1       135 1.99998E+01-6.62996E-03-3.49862E-05 6.22591E-04-1.50987E-12-2.14098E-14
 -1       136 1.99999E+01-1.82393E-03 2.44936E-04 6.15685E-04-6.82581E-13 1.39576E-13
 -1       137-1.36581E+00-1.94003E+01-3.03684E+00-3.75309E+00 2.39608E-12 7.57679E-13
 -1       138-1.51644E+00-7.95884E+00-2.21753E+00-2.85785E+00 4.87643E-12 2.35112E-12
 -1       139 3.86037E+00 4.42130E+00-9.41869E-01 4.37660E+00 5.26812E-12 3.96522E-12
 -1       140 1.58964E+01 1.06133E+01 4.18026E-01 1.29141E+01 3.77814E-12 4.20558E-12
 -1       141 3.46310E+01 9.96396E+00 1.80304E+00 1.80117E+01 1.99318E-12 3.51569E-12
 -1       142 5.34625E+01 5.22542E+00 2.89437E+00 1.53912E+01 7.03132E-13 2.02999E-12
 -1       143 6.48485E+01 1.23981E+00 3.48539E+00 4.62243E+00 1.04718E-13 2.81497E-13
 -1       144 6.28325E+01 2.11045E+00 3.39502E+00-8.15032E+00 4.16318E-13-1.78638E-12
 -1       145 4.80028E+01 6.94356E+00 2.61287E+00-1.68721E+01 1.59248E-12-3.79646E-12
 -1       146 2.68150E+01 1.07455E+01 1.26218E+00-1.64746E+01 2.85882E-12-4.27175E-12
 -1       147 9.00724E+00 8.05402E+00-2.69018E-01-8.57146E+00 3.47083E-12-3.40639E-12
 -1       148 3.26411E-01-1.29269E+00-1.61783E+00-2.38177E-01 3.42576E-12-2.04753E-12
 -1       149-1.81680E+00-1.44171E+01-2.70404E+00 4.15600E+00 2.12569E-12-7.60642E-13
 -1       150-8.67049E-01-2.33607E+01-3.28760E+00 2.11007E+00 9.01224E-14-1.08750E-13
 -1       151-1.03148E+00-2.31679E+01-3.29857E+00-2.48336E+00-2.15647E-12-3.12741E-13
 -1       152-1.86182E+00-1.35865E+01-2.68567E+00-4.04682E+00-3.77531E-12-1.46048E-12
 -1       153 5.98794E-01-7.99172E-01-1.59309E+00 5.85334E-01-4.17738E-12-2.57383E-12
 -1       154 9.63248E+00 8.37669E+00-2.49298E-01 9.06477E+00-3.44891E-12-3.52612E-12
 -1       155 2.66985E+01 1.09564E+01 1.24552E+00 1.68068E+01-2.26846E-12-3.26694E-12
 -1       156 4.71905E+01 7.29279E+00 2.57922E+00 1.77411E+01-8.66557E-13-1.89448E-12
 -1       157 6.26634E+01 2.41835E+00 3.44308E+00 9.62903E+00-1.50264E-13-1.79856E-13
 -1       158 6.61156E+01 1.18047E+00 3.62187E+00-3.81342E+00-2.05499E-13 1.95632E-12
 -1       159 5.56334E+01 4.75598E+00 3.05224E+00-1.49609E+01-1.14450E-12 3.90288E-12
 -1       160 3.56748E+01 9.81762E+00 1.84608E+00-1.80983E+01-2.69779E-12 5.10469E-12
 -1       161 2.55036E+00 2.59816E+00-1.22926E+00-2.95045E+00-4.41330E-12 3.33628E-12
 -1       162-1.72825E+00-9.38451E+00-2.37291E+00 3.36207E+00-3.65430E-12 1.59830E-12
 -1       163-1.37197E+00-2.00121E+01-3.09881E+00 3.81701E+00-2.58923E-12 6.54934E-13
 -1       164 2.10330E+01 3.67419E+00-5.60628E-02-3.52069E+00-4.79249E-13 2.80064E-13
 -1       165 2.00410E+01 4.20551E+00-4.49370E-02-2.70798E+00-4.50156E-13-2.64681E-13
 -1       166 1.95613E+01 4.49102E+00-3.06849E-02-2.08996E+00-3.75301E-13-5.63966E-13
 -1       167 1.93008E+01 4.64605E+00-2.28766E-02-1.57296E+00-2.81328E-13-7.21789E-13
 -1       168 1.91452E+01 4.74135E+00-1.88263E-02-1.13162E+00-1.93489E-13-7.82622E-13
 -1       169 1.90469E+01 4.80269E+00-1.66251E-02-7.28311E-01-1.04161E-13-8.04230E-13
 -1       170 1.89924E+01 4.83683E+00-1.55311E-02-3.53689E-01-1.23091E-14-8.07006E-13
 -1       171 1.89754E+01 4.84726E+00-1.52126E-02 7.35202E-03 6.01527E-14-7.95702E-13
 -1       172 1.89942E+01 4.83490E+00-1.55795E-02 3.68918E-01 1.37184E-13-7.77568E-13
 -1       173 1.90506E+01 4.79857E+00-1.67189E-02 7.45107E-01 2.15259E-13-7.45737E-13
 -1       174 1.91489E+01 4.73577E+00-1.90028E-02 1.14386E+00 2.82735E-13-6.68245E-13
 -1       175 1.93094E+01 4.63498E+00-2.34082E-02 1.59653E+00 3.81291E-13-5.34244E-13
 -1       176 1.95738E+01 4.47323E+00-3.22049E-02 2.12098E+00 4.66146E-13-3.27830E-13
 -1       177 2.00629E+01 4.18069E+00-4.62223E-02 2.74687E+00 5.22180E-13 3.68837E-14
 -1       178 2.11512E+01 3.44679E+00-5.85717E-02 3.45015E+00 4.82741E-13 6.99142E-13
 -1       179 2.23841E+01 1.13303E+00-3.33747E-01 2.95089E+00 3.52961E-13 1.57525E-12
 -1       180 2.19694E+01 8.51113E-01 9.09827E-04-1.89408E+00-4.15050E-13 9.05099E-13
 -1       181 2.05061E+01 1.91061E-01-9.39560E-03-6.99899E-01-3.67935E-13 7.06017E-13
 -1       182 1.98033E+01 1.06958E-01 1.40789E-02-2.12458E-01-2.65879E-13 5.33178E-13
 -1       183 1.95534E+01 5.64012E-02 1.05848E-02 2.49251E-02-1.90046E-13 3.70104E-13
 -1       184 1.95395E+01 3.58740E-02 5.93183E-03 1.62033E-01-1.24612E-13 2.58973E-13
 -1       185 1.96769E+01 2.72096E-02 3.39383E-03 2.55282E-01-9.89907E-14 1.96602E-13
 -1       186 1.99214E+01 2.45523E-02 2.28239E-03 3.29852E-01-1.07025E-13 1.29772E-13
 -1       187 2.02519E+01 2.52217E-02 1.78261E-03 3.99045E-01-1.37322E-13 5.95493E-14
 -1       188 2.06592E+01 2.73524E-02 1.46674E-03 4.69671E-01-1.53819E-13 3.13588E-14
 -1       189 2.11398E+01 2.89082E-02 1.09300E-03 5.43195E-01-7.44331E-14 4.14058E-14
 -1       190 2.16892E+01 2.69974E-02 4.79600E-04 6.14706E-01-3.84948E-14-1.20723E-13
 -1       191 2.22959E+01 1.72706E-02-5.15425E-04 6.70312E-01-2.24831E-14-1.61430E-13
 -1       192 2.29329E+01-6.34142E-03-1.92667E-03 6.83594E-01-2.48358E-15-1.82095E-13
 -1       193 2.35483E+01-5.06245E-02-3.53062E-03 6.13071E-01-7.56123E-15-1.33321E-13
 -1       194 2.40571E+01-1.18854E-01-4.70870E-03 4.05798E-01-4.24469E-14-7.84585E-14
 -1       195 2.43408E+01-2.00994E-01-4.67909E-03 1.71726E-02-5.29741E-14-6.86486E-14
 -1       196 2.42675E+01-2.61126E-01-2.84201E-03-5.43177E-01-6.35950E-14-1.30539E-13
 -1       197 2.37476E+01-2.34571E-01-5.00803E-05-1.14722E+00-1.42794E-13-1.57674E-13
 -1       198 2.28287E+01-6.30594E-02 1.37708E-03-1.51799E+00-7.48855E-14-1.56927E-13
 -1       199 2.17870E+01 2.20348E-01-5.83716E-04-1.33996E+00 7.40510E-15-3.03230E-13
 -1       200 2.10822E+01 4.50691E-01-3.85370E-03-5.32960E-01 5.17173E-14-2.91692E-13
 -1       201 2.10942E+01 4.49366E-01-3.21653E-03 5.57781E-01-1.17246E-13-3.55001E-13
 -1       202 2.18212E+01 2.18125E-01 6.53809E-04 1.36045E+00-3.92581E-14-5.28614E-13
 -1       203 2.28807E+01-6.44879E-02 1.71581E-03 1.53361E+00-1.68460E-14-5.46120E-13
 -1       204 2.38162E+01-2.33840E-01-2.20175E-04 1.16227E+00 1.78919E-14-4.83582E-13
 -1       205 2.43557E+01-2.58735E-01-3.28933E-03 5.62524E-01 2.74099E-14-5.36313E-13
 -1       206 2.44547E+01-1.97143E-01-4.85012E-03 1.03084E-02-3.08100E-14-4.96229E-13
 -1       207 2.42053E+01-1.14128E-01-4.67120E-03-3.67346E-01 8.08290E-14-4.34109E-13
 -1       208 2.37412E+01-4.54965E-02-3.34393E-03-5.62178E-01 2.41244E-14-2.98854E-13
 -1       209 2.31814E+01-8.79570E-04-1.70421E-03-6.19424E-01-1.91829E-14-2.24573E-13
 -1       210 2.26113E+01 2.30030E-02-3.09376E-04-5.92265E-01 5.84484E-14-2.27030E-13
 -1       211 2.20823E+01 3.27958E-02 6.30495E-04-5.22674E-01-1.24782E-13-3.44710E-13
 -1       212 2.16200E+01 3.43574E-02 1.13745E-03-4.38047E-01-2.02582E-13-5.26976E-13
 -1       213 2.12325E+01 3.17351E-02 1.32391E-03-3.53971E-01-1.73408E-14-4.38042E-13
 -1       214 2.09179E+01 2.73775E-02 1.30958E-03-2.78123E-01 6.54529E-14-5.04693E-13
 -1       215 2.06688E+01 2.26275E-02 1.18791E-03-2.13449E-01-6.11970E-14-5.67339E-13
 -1       216 2.04759E+01 1.81511E-02 1.02103E-03-1.60316E-01-1.05237E-13-9.20548E-13
 -1       217 2.03297E+01 1.42317E-02 8.45750E-04-1.17829E-01 8.87313E-14-7.21494E-13
 -1       218 2.02211E+01 1.09488E-02 6.81568E-04-8.45725E-02 8.12935E-14-5.11131E-13
 -1       219 2.01423E+01 8.28093E-03 5.37251E-04-5.90121E-02-8.46192E-14-2.94166E-13
 -1       220 2.00865E+01 6.16147E-03 4.15372E-04-3.96932E-02-9.00973E-14-1.95419E-13
 -1       221 2.00485E+01 4.50836E-03 3.15102E-04-2.53305E-02 3.56756E-13-3.95313E-13
 -1       222 2.00236E+01 3.23819E-03 2.33806E-04-1.48376E-02-7.37495E-14-1.84837E-13
 -1       223 2.00085E+01 2.27190E-03 1.67816E-04-7.32963E-03 2.66345E-13-2.24956E-14
 -1       224 2.00004E+01 1.53424E-03 1.13305E-04-2.11707E-03 1.90685E-13-6.70593E-14
 -1       225 1.99970E+01 9.37763E-04 6.88335E-05 1.29032E-03 1.43564E-13 4.12337E-14
 -1       226 1.99967E+01 3.49110E-04 4.11362E-05 3.12923E-03 2.62514E-13 3.10412E-13
 -1       227 1.99979E+01-4.22012E-04 3.70952E-05 3.36721E-03-1.10712E-14 2.62281E-13
 -1       228 2.09805E+01 2.75235E-01-5.03973E-02 1.11077E+00 3.62665E-13 1.35700E-12
 -1       229 1.99523E+01 1.28437E-01 8.70480E-03 3.88266E-01 2.84354E-13 1.06116E-12
 -1       230 1.95244E+01 6.24506E-02 1.29853E-02 8.49489E-02 2.16711E-13 8.28317E-13
 -1       231 1.94127E+01 3.46495E-02 7.90113E-03-7.25132E-02 2.00716E-13 6.67048E-13
 -1       232 1.94885E+01 2.24690E-02 4.14708E-03-1.67345E-01 9.22769E-14 5.30974E-13
 -1       233 1.96857E+01 1.69543E-02 2.25728E-03-2.32805E-01 3.23950E-14 4.50828E-13
 -1       234 1.99696E+01 1.46428E-02 1.33136E-03-2.84461E-01 7.53951E-14 3.89871E-13
 -1       235 2.03218E+01 1.36830E-02 7.73748E-04-3.29635E-01 1.00803E-13 3.49524E-13
 -1       236 2.07308E+01 1.25965E-02 3.17754E-04-3.70371E-01 8.08060E-14 1.70185E-13
 -1       237 2.11858E+01 9.76753E-03-1.36775E-04-4.03898E-01 6.13261E-14 1.50826E-13
 -1       238 2.16702E+01 3.21353E-03-5.94481E-04-4.22025E-01 6.57316E-14 1.70904E-13
 -1       239 2.21557E+01-9.36825E-03-9.63744E-04-4.10319E-01 3.72861E-14 2.13766E-13
 -1       240 2.25967E+01-3.00172E-02-1.04247E-03-3.48257E-01 2.57650E-14 1.18527E-13
 -1       241 2.29261E+01-5.89653E-02-5.69718E-04-2.12523E-01-1.99083E-14 5.98289E-14
 -1       242 2.30595E+01-9.18403E-02 6.02495E-04 1.35478E-02-1.33023E-14 2.75462E-13
 -1       243 2.29119E+01-1.16273E-01 2.18904E-03 3.21968E-01-7.75829E-14 2.35306E-13
 -1       244 2.24335E+01-1.11682E-01 3.09247E-03 6.56753E-01 6.49203E-14 2.68252E-13
 -1       245 2.16619E+01-5.84146E-02 1.87591E-03 9.03532E-01 1.26730E-13 2.37948E-13
 -1       246 2.07631E+01 4.30169E-02-1.70603E-03 9.20218E-01 5.13511E-14 1.68365E-13
 -1       247 2.00165E+01 1.54155E-01-5.77221E-03 6.21900E-01-5.43905E-14 4.64034E-14
 -1       248 1.97083E+01 2.12461E-01-6.87522E-03 7.54194E-02 6.55569E-14-6.29212E-14
 -1       249 1.99699E+01 1.81811E-01-3.95921E-03-5.04689E-01 1.99978E-13-2.28798E-13
 -1       250 2.06977E+01 8.22311E-02 1.10206E-03-8.83551E-01 1.36579E-14-5.03431E-13
 -1       251 2.16163E+01-2.67173E-02 4.27096E-03-9.49719E-01 2.53411E-14-4.50231E-13
 -1       252 2.24377E+01-9.60931E-02 4.37663E-03-7.55241E-01-6.17349E-14-3.06130E-13
 -1       253 2.29818E+01-1.14705E-01 2.37841E-03-4.36931E-01-8.77228E-14-2.03500E-13
 -1       254 2.32006E+01-9.78132E-02 9.36581E-05-1.21257E-01 3.25495E-14 4.80182E-15
 -1       255 2.31388E+01-6.65624E-02-1.35726E-03 1.20602E-01-5.70379E-14-7.41716E-14
 -1       256 2.28813E+01-3.58340E-02-1.79830E-03 2.70034E-01 6.08021E-15-1.80890E-13
 -1       257 2.25144E+01-1.22860E-02-1.55020E-03 3.39177E-01 7.31384E-14-3.48426E-13
 -1       258 2.21077E+01 2.97921E-03-1.01233E-03 3.51006E-01-2.59950E-13-2.20398E-13
 -1       259 2.17088E+01 1.13889E-02-4.63041E-04 3.27836E-01 4.98606E-14-1.32395E-13
 -1       260 2.13458E+01 1.49922E-02-3.27739E-05 2.86873E-01 6.42032E-14-2.16531E-13
 -1       261 2.10323E+01 1.56005E-02 2.48809E-04 2.39679E-01 9.02506E-15-4.03104E-13
 -1       262 2.07719E+01 1.45449E-02 4.01384E-04 1.93208E-01 2.48155E-13-4.22296E-13
 -1       263 2.05623E+01 1.27049E-02 4.59877E-04 1.51145E-01 1.20942E-13-2.46477E-13
 -1       264 2.03983E+01 1.06172E-02 4.57621E-04 1.15068E-01-2.15782E-13-1.86085E-13
 -1       265 2.02731E+01 8.58420E-03 4.20563E-04 8.52897E-02-7.87657E-14-3.33226E-13
 -1       266 2.01800E+01 6.75814E-03 3.66765E-04 6.14309E-02-1.44549E-13 1.46938E-13
 -1       267 2.01126E+01 5.19987E-03 3.07767E-04 4.27823E-02-3.03412E-13 3.47353E-13
 -1       268 2.00655E+01 3.91750E-03 2.50320E-04 2.85232E-02 5.03321E-14 1.85724E-13
 -1       269 2.00339E+01 2.89109E-03 1.97744E-04 1.78461E-02 1.47749E-13 3.40780E-13
 -1       270 2.00139E+01 2.08788E-03 1.50937E-04 1.00210E-02 2.91275E-13-4.35117E-14
 -1       271 2.00024E+01 1.46839E-03 1.09545E-04 4.42712E-03 3.91329E-13-1.46820E-13
 -1       272 1.99970E+01 9.83336E-04 7.36004E-05 5.76734E-04 1.49238E-13-3.90610E-13
 -1       273 1.99957E+01 5.77198E-04 4.86764E-05-1.84930E-03-1.69388E-13-4.30771E-13
 -1       274 1.99966E+01 1.45359E-04 5.42153E-05-2.96085E-03-2.25480E-14-4.93614E-13
 -1       275 1.99985E+01-6.03605E-04 9.45591E-05-2.53121E-03 7.22884E-14-5.07767E-13
 -1       276 1.99996E+01-2.06897E-03 2.48827E-05-3.04058E-03 5.86747E-14 1.44140E-13
 -1       277 2.00003E+01-3.30948E-03 2.13515E-06-2.54238E-03 6.73145E-14 1.64404E-13
 -1       278 2.00005E+01-3.65368E-03-1.14536E-06-1.10556E-03 6.18586E-14 1.12014E-13
 -1       279 2.00003E+01-2.98262E-03 2.80880E-06 2.96868E-04-2.16034E-13 4.65134E-13
 -1       280 2.00000E+01-1.59593E-03 7.38073E-07 1.14454E-03-1.63264E-13-5.48971E-13
 -1       281 1.99997E+01 1.53817E-05-3.57867E-06 1.28197E-03-9.80683E-14-4.83013E-14
 -1       282 1.99995E+01 1.24526E-03-7.89782E-06 7.80807E-04 1.46392E-14-5.78933E-14
 -1       283 1.99994E+01 1.66224E-03-9.50436E-06-7.97813E-05-4.83092E-14 5.95275E-13
 -1       284 1.99995E+01 1.11639E-03-7.63146E-06-9.24459E-04-5.95549E-14 2.45634E-13
 -1       285 1.99998E+01-2.18840E-04-3.34226E-06-1.37957E-03 1.66347E-13-4.50108E-13
 -1       286 2.00001E+01-1.86039E-03 1.26490E-06-1.18269E-03 2.84808E-13-7.95647E-13
 -1       287 2.00004E+01-3.27834E-03 2.39913E-06-2.52588E-04-3.00095E-14-3.26850E-13
 -1       288 2.00005E+01-3.91259E-03-3.96215E-06 1.22822E-03-3.88644E-13-5.13434E-14
 -1       289 2.00002E+01-3.34440E-03 1.39779E-05 2.54892E-03-4.04637E-13-6.11205E-14
 -1       290 1.99998E+01-1.66484E-03 2.42331E-06 3.65087E-03-1.38646E-13 4.54259E-13
 -1       291-7.72151E-01-1.02171E+01-9.02631E-01 1.34628E+00 4.40523E-13 1.33277E-12
 -1       292 2.68911E+00-8.39231E+00-7.97603E-01 3.38093E+00 1.19338E-12 1.80134E-12
 -1       293 1.02856E+01-4.82329E+00-4.16001E-01 5.93803E+00 1.56319E-12 1.54628E-12
 -1       294 1.88111E+01-5.91211E-01-9.07621E-02 7.23524E+00 1.99826E-12 1.11119E-12
 -1       295 2.88458E+01 2.70241E+00 3.36223E-01 7.71640E+00 1.63711E-12 1.14209E-12
 -1       296 3.76710E+01 4.70145E+00 5.85278E-01 5.42234E+00 1.30492E-12 4.89747E-13
 -1       297 4.41149E+01 6.38875E+00 8.81247E-01 3.02081E+00 1.00886E-12 2.26152E-13
 -1       298 4.48237E+01 7.03981E+00 8.30126E-01-4.38191E-01 1.15125E-12-2.74527E-13
 -1       299 4.08678E+01 6.19095E+00 5.82652E-01-2.84818E+00 1.31516E-12-7.78433E-13
 -1       300 3.45196E+01 3.34304E+00 3.61128E-01-5.19931E+00 1.25898E-12-1.20978E-12
 -1       301 2.53017E+01-2.04957E-01 9.32948E-02-6.70937E+00 1.03989E-12-1.47130E-12
 -1       302 1.40463E+01-2.66125E+00-2.84434E-01-6.59782E+00 1.24986E-12-1.54052E-12
 -1       303 6.39232E+00-6.59257E+00-5.53617E-01-5.08213E+00 7.17731E-13-1.30190E-12
 -1       304 4.00692E-01-9.93800E+00-9.13787E-01-2.22979E+00 2.59764E-13-1.08565E-12
 -1       305-1.24428E+00-1.06453E+01-9.28400E-01-3.33471E-02-4.33025E-13-1.11974E-12
 -1       306 9.37720E-01-9.10664E+00-7.65063E-01 2.64325E+00-9.45355E-13-1.05647E-12
 -1       307 7.01560E+00-6.47612E+00-5.42943E-01 5.06678E+00-1.18508E-12-1.02210E-12
 -1       308 1.52067E+01-2.92173E+00-2.61242E-01 6.57828E+00-1.39458E-12-1.06137E-12
 -1       309 2.51350E+01 6.96734E-01 1.27259E-01 7.24730E+00-1.33613E-12-8.08104E-13
 -1       310 3.52618E+01 4.01660E+00 5.91433E-01 6.98549E+00-1.25359E-12-4.85223E-13
 -1       311 4.32650E+01 5.82943E+00 9.17665E-01 4.65796E+00-9.27508E-13 8.02414E-14
 -1       312 4.37404E+01 7.38650E+00 7.10680E-01 5.38231E-01-1.03084E-12 7.05790E-13
 -1       313 4.55592E+01 6.33970E+00 9.92671E-01-2.98724E+00-1.19256E-12 1.38925E-12
 -1       314 3.89591E+01 4.79992E+00 6.72086E-01-5.40799E+00-1.40178E-12 1.66300E-12
 -1       315 2.95124E+01 7.55374E-01 2.11118E-01-5.97242E+00-1.40267E-12 1.52062E-12
 -1       316 1.76706E+01-1.47757E+00-1.70038E-01-6.97565E+00-1.89726E-12 2.15233E-12
 -1       317 9.45103E+00-5.45624E+00-4.66444E-01-5.64698E+00-1.50072E-12 1.84180E-12
 -1       318 2.35408E+00-8.71713E+00-8.22794E-01-3.09102E+00-1.25147E-12 1.14713E-12
 -1       319-8.50601E-01-1.02733E+01-9.05393E-01-1.06941E+00-4.69555E-13 1.29780E-12
 -1       320 2.01966E+01 3.01926E+00-2.18080E-02-1.97419E+00-4.82019E-13-2.83405E-13
 -1       321 2.08127E+01 2.20614E+00-1.71936E-02-2.25634E+00-5.13843E-13 5.22742E-14
 -1       322 1.95902E+01 3.76486E+00-1.51763E-02-1.20340E+00-2.80723E-13-5.54443E-13
 -1       323 1.94321E+01 3.94596E+00-1.31141E-02-8.33262E-01-1.88667E-13-5.99958E-13
 -1       324 1.93352E+01 4.05409E+00-1.19799E-02-4.86367E-01-7.26183E-14-6.04899E-13
 -1       325 1.92894E+01 4.10413E+00-1.14844E-02-1.54587E-01 3.11165E-14-6.05129E-13
 -1       326 1.92911E+01 4.10172E+00-1.15061E-02 1.72376E-01 1.28895E-13-5.91500E-13
 -1       327 1.93404E+01 4.04672E+00-1.20334E-02 5.05164E-01 2.13000E-13-5.75194E-13
 -1       328 1.94388E+01 3.93561E+00-1.31867E-02 8.47840E-01 3.03350E-13-5.31537E-13
 -1       329 1.96000E+01 3.74922E+00-1.52483E-02 1.21960E+00 4.04653E-13-4.24288E-13
 -1       330 1.98478E+01 3.45331E+00-1.85821E-02 1.61447E+00 4.88732E-13-2.75144E-13
 -1       331 2.02385E+01 2.97238E+00-2.25906E-02 2.00513E+00 5.64668E-13-5.32898E-14
 -1       332 2.08029E+01 2.12817E+00-2.99592E-02 2.21667E+00 5.65630E-13 3.76499E-13
 -1       333 2.11348E+01 1.18339E+00-2.42114E-02 1.83672E+00 4.91711E-13 7.64451E-13
 -1       334 2.04803E+01 4.95914E-01 8.69985E-03 8.34098E-01 4.17260E-13 5.79410E-13
 -1       335 2.05613E+01 6.92142E-01 1.29120E-02-9.03382E-01-3.88387E-13 1.15637E-13
 -1       336 2.01999E+01 3.68874E-01 7.57102E-03-3.06655E-01-3.02549E-13 9.91776E-14
 -1       337 2.00244E+01 2.23497E-01 4.67968E-03 4.68940E-02-2.34547E-13 6.65848E-14
 -1       338 1.99900E+01 1.53880E-01 2.59156E-03 2.79414E-01-1.66760E-13-1.27921E-14
 -1       339 2.00636E+01 1.22389E-01 1.70337E-03 4.49779E-01-1.22369E-13-3.78774E-14
 -1       340 2.02209E+01 1.11861E-01 1.37683E-03 5.91010E-01-1.31561E-13-5.45603E-14
 -1       341 2.04471E+01 1.12391E-01 1.26452E-03 7.21779E-01-8.32503E-14-3.45888E-14
 -1       342 2.07336E+01 1.15801E-01 1.17172E-03 8.50794E-01-1.04542E-13 1.67440E-14
 -1       343 2.10758E+01 1.12563E-01 9.45163E-04 9.77439E-01-1.42712E-13-9.72264E-15
 -1       344 2.14706E+01 8.94863E-02 4.15169E-04 1.08982E+00-4.44256E-14-1.45199E-14
 -1       345 2.19145E+01 2.82245E-02-5.98855E-04 1.16098E+00-1.42446E-14-3.81531E-14
 -1       346 2.24017E+01-9.36932E-02-2.22335E-03 1.14474E+00 6.21337E-14 2.30614E-14
 -1       347 2.29201E+01-2.95038E-01-4.29492E-03 9.74594E-01-4.43244E-15 1.23021E-13
 -1       348 2.34426E+01-5.69133E-01-6.10507E-03 5.73363E-01-2.44733E-14 9.29613E-14
 -1       349 2.39071E+01-8.42378E-01-6.96025E-03-1.08534E-01-9.30755E-14 1.40870E-13
 -1       350 2.42010E+01-9.43441E-01-6.25315E-03-1.01508E+00-6.99172E-14 1.64676E-13
 -1       351 2.41694E+01-6.25597E-01-5.29327E-03-1.87952E+00-7.84342E-14 2.46693E-13
 -1       352 2.37493E+01 2.16454E-01-5.03663E-03-2.19773E+00-1.30364E-13 2.19139E-13
 -1       353 2.31587E+01 1.23594E+00-1.09853E-02-1.51858E+00-4.79400E-14 1.41329E-13
 -1       354 2.28780E+01 1.71266E+00-1.31777E-02 2.42447E-02-1.80935E-13-2.23902E-13
 -1       355 2.31805E+01 1.23189E+00-5.96390E-03 1.55716E+00-1.96209E-13-4.46356E-13
 -1       356 2.37818E+01 2.09776E-01-3.92623E-03 2.22705E+00-1.16274E-13-5.97956E-13
 -1       357 2.42127E+01-6.27282E-01-4.98912E-03 1.90521E+00 9.30944E-14-6.11225E-13
 -1       358 2.42552E+01-9.38092E-01-8.05403E-03 1.04699E+00 1.55644E-13-4.05130E-13
 -1       359 2.39799E+01-8.31621E-01-8.11391E-03 1.51891E-01 7.93213E-14-2.90217E-13
 -1       360 2.35381E+01-5.52767E-01-6.50426E-03-5.14154E-01 8.50604E-14-8.59042E-14
 -1       361 2.30448E+01-2.76408E-01-4.16203E-03-8.96656E-01 1.50022E-13 4.43548E-14
 -1       362 2.25610E+01-7.36175E-02-1.95637E-03-1.04695E+00 3.40081E-14 4.85710E-14
 -1       363 2.21136E+01 4.91544E-02-3.15480E-04-1.04255E+00-1.23031E-13-1.13468E-13
 -1       364 2.17141E+01 1.10304E-01 6.86384E-04-9.51065E-01-9.49661E-14-2.05111E-13
 -1       365 2.13666E+01 1.31555E-01 1.17929E-03-8.20448E-01-1.61286E-13-9.11087E-14
 -1       366 2.10711E+01 1.30095E-01 1.33215E-03-6.80584E-01-7.78241E-14 9.27412E-14
 -1       367 2.08252E+01 1.17389E-01 1.28802E-03-5.48048E-01 3.49018E-14-2.84042E-14
 -1       368 2.06247E+01 1.00320E-01 1.14675E-03-4.30740E-01-1.84208E-13-8.20372E-14
 -1       369 2.04642E+01 8.26748E-02 9.70068E-04-3.31370E-01-2.01325E-13-2.20971E-13
 -1       370 2.03381E+01 6.63436E-02 7.92310E-04-2.49775E-01 1.17394E-13-1.84547E-13
 -1       371 2.02409E+01 5.21228E-02 6.30397E-04-1.84363E-01 2.97648E-13-3.91902E-13
 -1       372 2.01673E+01 4.02128E-02 4.91087E-04-1.32954E-01 1.40361E-13-3.00921E-13
 -1       373 2.01128E+01 3.05094E-02 3.75567E-04-9.32528E-02-1.11260E-13-3.02899E-13
 -1       374 2.00734E+01 2.27693E-02 2.82249E-04-6.31004E-02 2.35207E-14-5.49972E-14
 -1       375 2.00456E+01 1.66977E-02 2.08177E-04-4.05857E-02 3.38059E-13-1.33924E-13
 -1       376 2.00267E+01 1.19914E-02 1.49862E-04-2.40929E-02 2.59568E-13 2.09130E-13
 -1       377 2.00144E+01 8.35609E-03 1.03209E-04-1.23112E-02 2.25235E-13 1.32478E-13
 -1       378 2.00069E+01 5.49471E-03 6.75542E-05-4.23663E-03 1.82352E-13 3.82459E-13
 -1       379 2.00026E+01 3.04481E-03 4.38382E-05 8.66196E-04 3.16401E-13 6.28618E-13
 -1       380 2.00005E+01 7.59162E-04-1.19608E-06 3.27496E-03 2.28675E-13 6.60232E-13
 -1       381 2.00431E+01 2.44081E-01 1.11109E-02 2.86367E-01 3.26102E-13 4.48864E-13
 -1       382 1.98368E+01 1.39400E-01 6.63587E-03-2.28380E-02 2.58827E-13 3.55557E-13
 -1       383 1.98071E+01 8.99184E-02 3.42011E-03-2.13839E-01 1.87184E-13 2.43811E-13
 -1       384 1.99005E+01 6.60309E-02 1.92558E-03-3.44397E-01 7.15032E-14 1.54257E-13
 -1       385 2.00830E+01 5.47383E-02 1.29156E-03-4.44007E-01 7.71395E-14 7.66273E-14
 -1       386 2.03343E+01 4.89833E-02 9.60000E-04-5.27298E-01 1.48045E-13 8.11037E-14
 -1       387 2.06409E+01 4.33993E-02 6.64048E-04-5.99494E-01 1.41765E-13 9.03983E-14
 -1       388 2.09922E+01 3.25023E-02 2.58122E-04-6.57801E-01 6.48969E-14 1.14904E-13
 -1       389 2.13763E+01 9.91953E-03-3.60480E-04-6.91018E-01 6.76996E-14 1.00174E-13
 -1       390 2.17757E+01-3.14369E-02-1.24782E-03-6.78691E-01 1.68496E-14 5.19285E-14
 -1       391 2.21639E+01-9.75751E-02-2.36906E-03-5.91489E-01 1.05263E-13 1.42837E-14
 -1       392 2.25015E+01-1.88785E-01-3.52567E-03-3.95671E-01-3.71112E-14 9.27354E-14
 -1       393 2.27355E+01-2.91572E-01-4.35729E-03-6.57504E-02-1.16033E-13 1.99546E-13
 -1       394 2.28020E+01-3.68918E-01-4.30695E-03 3.91191E-01-3.53352E-14 2.28918E-13
 -1       395 2.26422E+01-3.58356E-01-3.00511E-03 9.01474E-01 4.02727E-14 2.64417E-13
 -1       396 2.22378E+01-1.98497E-01-1.11704E-03 1.30324E+00 1.90439E-13 2.29131E-13
 -1       397 2.16624E+01 1.14897E-01 9.39515E-04 1.38168E+00 9.58274E-14 1.50743E-13
 -1       398 2.11077E+01 4.71101E-01 2.78100E-03 9.86237E-01 8.33253E-14 1.32238E-13
 -1       399 2.08280E+01 6.71478E-01 4.37080E-03 1.86913E-01 1.11105E-13-1.03794E-13
 -1       400 2.09690E+01 5.91613E-01 5.23276E-03-6.97590E-01 3.60469E-13-2.13727E-13
 -1       401 2.14647E+01 2.81609E-01 5.02816E-03-1.29543E+00 1.80290E-13-4.22826E-13
 -1       402 2.20808E+01-7.12706E-02 1.89677E-03-1.41627E+00-8.41758E-14-5.19230E-13
 -1       403 2.25866E+01-3.03697E-01-1.59392E-03-1.13181E+00-1.64670E-13-4.71059E-13
 -1       404 2.28633E+01-3.72851E-01-4.17352E-03-6.50425E-01-1.41312E-13-3.25973E-13
 -1       405 2.29023E+01-3.23934E-01-5.02956E-03-1.66692E-01-1.14080E-15-1.09059E-13
 -1       406 2.27552E+01-2.24472E-01-4.44048E-03 2.08724E-01-4.83702E-14-1.66395E-13
 -1       407 2.24883E+01-1.23703E-01-3.14014E-03 4.44800E-01 1.26869E-13-2.71866E-14
 -1       408 2.21607E+01-4.47583E-02-1.73975E-03 5.57507E-01 3.06288E-14-6.87081E-15
 -1       409 2.18164E+01 7.55002E-03-5.84838E-04 5.80213E-01-1.08241E-13-9.17900E-14
 -1       410 2.14852E+01 3.71553E-02 2.10686E-04 5.46397E-01-2.97135E-14-3.96689E-13
 -1       411 2.11847E+01 5.04605E-02 6.73181E-04 4.82605E-01 4.19390E-14-2.79072E-13
 -1       412 2.09234E+01 5.33678E-02 8.82981E-04 4.07207E-01 7.06763E-14-5.02575E-14
 -1       413 2.07039E+01 5.03371E-02 9.25466E-04 3.31630E-01 1.01122E-13 1.26230E-13
 -1       414 2.05247E+01 4.43851E-02 8.70139E-04 2.62216E-01 1.14576E-13 3.61621E-13
 -1       415 2.03820E+01 3.73966E-02 7.66066E-04 2.01906E-01-7.06615E-14 2.82294E-13
 -1       416 2.02710E+01 3.04617E-02 6.44704E-04 1.51534E-01-8.35083E-14 1.46497E-13
 -1       417 2.01866E+01 2.41500E-02 5.24537E-04 1.10721E-01-3.74357E-13 9.67699E-14
 -1       418 2.01240E+01 1.87067E-02 4.15239E-04 7.84731E-02-2.44276E-13 2.18763E-13
 -1       419 2.00789E+01 1.41854E-02 3.20937E-04 5.35521E-02-1.41089E-14 2.10161E-13
 -1       420 2.00473E+01 1.05340E-02 2.42387E-04 3.46929E-02 2.43479E-13 2.34889E-13
 -1       421 2.00261E+01 7.64833E-03 1.78138E-04 2.07268E-02 4.53872E-13 1.42793E-13
 -1       422 2.00126E+01 5.39812E-03 1.25586E-04 1.06419E-02 5.13887E-13 4.09093E-16
 -1       423 2.00048E+01 3.62105E-03 8.30858E-05 3.62287E-03 2.21345E-13-1.56096E-13
 -1       424 2.00009E+01 2.12666E-03 4.72046E-05-8.90438E-04-1.85949E-13-2.75523E-13
 -1       425 1.99995E+01 6.31630E-04 2.44138E-05-3.18266E-03-3.94269E-15 4.40064E-14
 -1       426 1.99994E+01-5.39434E-04 1.26999E-06-3.50970E-03 1.49229E-13 1.44929E-13
 -1       427 2.00020E+01 4.48892E-03 1.59462E-05 1.16522E-03-1.45534E-14 7.04814E-14
 -1       428 2.00021E+01 1.94665E-03 1.06868E-05-1.07468E-03-5.04458E-16 6.83107E-14
 -1       429 2.00011E+01 1.46923E-04 3.41232E-06-2.83159E-03-4.77887E-14-1.00150E-13
 -1       430 2.00011E+01 7.48902E-03 1.06935E-05 2.75339E-03-2.34313E-13-2.92625E-13
 -1       431 1.99999E+01 1.04943E-02 3.04360E-06 3.20371E-03 8.59918E-15 3.55033E-14
 -1       432 1.99989E+01 1.28838E-02-4.21942E-06 2.45233E-03 9.49301E-14-1.93545E-13
 -1       433 1.99983E+01 1.41867E-02-8.53877E-06 8.33766E-04-1.30687E-13 7.60687E-14
 -1       434 1.99983E+01 1.41413E-02-8.44074E-06-1.08447E-03-5.41919E-13 2.93796E-13
 -1       435 1.99989E+01 1.27521E-02-3.79804E-06-2.65584E-03-4.82787E-13 8.32584E-14
 -1       436 2.00000E+01 1.03443E-02 3.32406E-06-3.31590E-03-1.14571E-13-3.83345E-13
 -1       437 2.00012E+01 7.31051E-03 1.00095E-05-2.77247E-03 1.61929E-13-4.79270E-13
 -1       438 2.00021E+01 4.26332E-03 1.35083E-05-1.05579E-03 3.60328E-13-3.72799E-13
 -1       439 2.00022E+01 1.64109E-03 5.57852E-06 1.37520E-03-8.80213E-14-2.82688E-13
 -1       440 1.02141E+01-5.42060E+00-5.24945E-02 6.88720E+00-9.81160E-15 1.18144E-12
 -1       441 1.76900E+00-3.44444E+00 4.99904E-02 1.91400E-01-1.21322E-13 1.52658E-12
 -1       442 4.17304E+00-4.88466E+00-5.83219E-02 4.77739E+00 2.00534E-14 1.68926E-12
 -1       443 1.92936E+01-5.00325E+00-2.41654E-02 6.59261E+00 4.54123E-13-4.53110E-14
 -1       444 2.65313E+01-2.69188E+00 1.22065E-02 4.67371E+00 7.81111E-13-9.00113E-14
 -1       445 1.98302E+01 3.47870E+00-1.84529E-02-1.59495E+00-3.89126E-13-4.51343E-13
 -1       446 3.51226E+01 5.37036E+00 9.08564E-02 2.07384E-01 1.12037E-12-8.25590E-14
 -1       447 3.51590E+01 7.78110E+00 1.86981E-02-2.27800E-01 1.27998E-12-2.10505E-13
 -1       448 3.39217E+01 7.46955E+00-3.97909E-02 4.98619E-01 1.28202E-12-2.32432E-13
 -1       449 3.33095E+01 3.65150E+00-2.37892E-02 8.03732E-02 1.01807E-12-7.26363E-14
 -1       450 3.00317E+01-1.16684E+00 2.28301E-03-2.39882E+00 6.02171E-13-4.19262E-13
 -1       451 2.27855E+01-5.02035E+00-3.06593E-02-5.64408E+00 7.19980E-14-7.77871E-13
 -1       452 1.58259E+01-5.57759E+00 3.16044E-02-7.16528E+00-1.36349E-13-8.58240E-13
 -1       453 7.07301E+00-4.61764E+00 4.03837E-02-6.11409E+00-2.15064E-13-1.19502E-12
 -1       454 1.75232E+00-4.60586E+00-6.93015E-02-2.46129E+00-1.43108E-13-1.29310E-12
 -1       455 1.68851E+00-4.73712E+00-9.44831E-02 2.25996E+00-1.11321E-13-1.09843E-12
 -1       456 7.34624E+00-5.24089E+00-4.56534E-02 6.07176E+00 2.81442E-14-6.58210E-13
 -1       457 1.61374E+01-5.71652E+00-1.20986E-02 6.95529E+00-6.30607E-14-2.51759E-13
 -1       458 2.42180E+01-4.68199E+00-1.30982E-02 5.16134E+00-3.52704E-13 2.26763E-14
 -1       459 3.07054E+01-9.33640E-01 3.12460E-02 2.59523E+00-8.54261E-13 4.03899E-13
 -1       460 3.46531E+01 3.43459E+00 8.27434E-02 5.79037E-01-1.02078E-12 4.44075E-13
 -1       461 3.55461E+01 6.70597E+00 3.96751E-02-4.35876E-01-1.12474E-12 3.75103E-13
 -1       462 3.49081E+01 7.63916E+00-1.97606E-02 4.43890E-01-1.16535E-12 5.46157E-13
 -1       463 3.49003E+01 5.37731E+00 1.79353E-02 4.97428E-01-1.02907E-12 3.78544E-13
 -1       464 3.19584E+01 6.46254E-01-6.40189E-02-2.62413E-01-6.52436E-13 1.98272E-13
 -1       465 2.55270E+01-3.96851E+00-5.09545E-02-4.54907E+00-4.68445E-13 3.83277E-13
 -1       466 1.91185E+01-5.48041E+00 5.73835E-03-6.51991E+00-2.54408E-13 8.92404E-13
 -1       467 9.56695E+00-5.44031E+00-5.05338E-02-6.61028E+00-2.24085E-13 1.26504E-12
 -1       468 3.92678E+00-4.81205E+00-4.13872E-02-4.38080E+00-8.69582E-14 1.27119E-12
 -1       469 3.18398E+01 8.10449E-01 4.06837E-02 2.17148E+00 1.01029E-12-1.08469E-13
 -1       470 3.14006E+01 7.41375E+00-1.30284E-01-4.13348E-01-1.20209E-12 2.78234E-13
 -1       471 2.93746E+01-3.01473E+00-3.38689E-02-7.66764E-01-1.61411E-13-1.58783E-13
 -1       472 2.04825E+01 8.64928E-01 4.12211E-03 8.22464E-01 4.30701E-13 1.70733E-13
 -1       473 1.96568E+01 3.26696E+00-5.13465E-03-5.40523E-01-1.14910E-13-5.21870E-13
 -1       474 1.97944E+01 3.06428E+00-5.81600E-03-8.21738E-01-2.16529E-13-5.07823E-13
 -1       475 1.95515E+01 3.41395E+00-4.68262E-03 6.11958E-03 8.14871E-14-5.29504E-13
 -1       476 1.95810E+01 3.37274E+00-4.78081E-03 2.77785E-01 1.68685E-13-5.31381E-13
 -1       477 1.96633E+01 3.25567E+00-5.14442E-03 5.49860E-01 2.47907E-13-5.04874E-13
 -1       478 1.98035E+01 3.04745E+00-5.76973E-03 8.31743E-01 3.44749E-13-4.24301E-13
 -1       479 2.00056E+01 2.72589E+00-6.42570E-03 1.10764E+00 4.19582E-13-3.08160E-13
 -1       480 2.02883E+01 2.24295E+00-5.65283E-03 1.34901E+00 4.80028E-13-1.33606E-13
 -1       481 2.02707E+01 5.06557E-01 5.30889E-03 2.76327E-01 3.47301E-13 1.38514E-13
 -1       482 2.04477E+01 1.02956E+00 3.06919E-03-7.63270E-01-3.29406E-13-1.55256E-13
 -1       483 3.08556E+01 1.97815E+00-1.13145E-01-1.17912E+00 8.46344E-13-4.94327E-13
 -1       484 2.03190E+01 6.31209E-01 2.56271E-03-2.41169E-01-2.72059E-13-1.14164E-13
 -1       485 2.02270E+01 4.19753E-01 1.22195E-03 1.28355E-01-2.31258E-13-7.64865E-14
 -1       486 2.01956E+01 3.11775E-01 7.85909E-04 3.98843E-01-1.72542E-13-7.83249E-14
 -1       487 2.02226E+01 2.61795E-01 5.97655E-04 6.12182E-01-1.39560E-13-1.37928E-13
 -1       488 2.03002E+01 2.45402E-01 5.46859E-04 7.97057E-01-1.13757E-13-1.26709E-13
 -1       489 2.04215E+01 2.45206E-01 5.35432E-04 9.70764E-01-6.75489E-14-1.95847E-13
 -1       490 2.05833E+01 2.44347E-01 5.00138E-04 1.14102E+00-7.67011E-14-1.48059E-13
 -1       491 2.07870E+01 2.21880E-01 3.72046E-04 1.30539E+00-7.71938E-14-5.62853E-14
 -1       492 2.10420E+01 1.49191E-01 5.37944E-05 1.44902E+00-1.64421E-14 4.74008E-14
 -1       493 2.13682E+01-1.14968E-02-5.57016E-04 1.54052E+00 6.40493E-14 4.55808E-14
 -1       494 2.17998E+01-3.02204E-01-1.53886E-03 1.52664E+00 6.10133E-14 5.24581E-14
 -1       495 2.23810E+01-7.48835E-01-2.58675E-03 1.32853E+00-5.43315E-14 7.33038E-14
 -1       496 2.31499E+01-1.31356E+00-2.40824E-03 8.41376E-01-2.21688E-14 1.66184E-13
 -1       497 2.40594E+01-1.79095E+00-2.75481E-03-1.36297E-02-4.74078E-15 3.50315E-13
 -1       498 2.49175E+01-1.77729E+00-8.93232E-03-1.19924E+00-1.42390E-13 3.61679E-13
 -1       499 2.53493E+01-7.36048E-01-1.91761E-02-2.29209E+00-1.91737E-13 3.74195E-13
 -1       500 2.51356E+01 1.30788E+00-4.38082E-02-2.44722E+00-2.16284E-13 2.39694E-13
 -1       501 2.46446E+01 3.19140E+00-6.08346E-02-1.06265E+00-4.80640E-13-1.92339E-13
 -1       502 2.47054E+01 3.10580E+00-5.66968E-02 1.12032E+00-4.49106E-13-5.69299E-13
 -1       503 2.51814E+01 1.28649E+00-4.47046E-02 2.49891E+00-2.62259E-13-7.14010E-13
 -1       504 2.53930E+01-7.50634E-01-1.77797E-02 2.32745E+00 2.53036E-14-7.85988E-13
 -1       505 2.49410E+01-1.75958E+00-7.74727E-03 1.22827E+00 2.53040E-13-6.80828E-13
 -1       506 2.40908E+01-1.76903E+00-3.22065E-03 5.79366E-02 3.12007E-13-5.39173E-13
 -1       507 2.31911E+01-1.27934E+00-2.28563E-03-7.82542E-01 2.27566E-13-2.80765E-13
 -1       508 2.24413E+01-7.13116E-01-1.86712E-03-1.24430E+00 1.93272E-13-2.69115E-13
 -1       509 2.18782E+01-2.64138E-01-1.16956E-03-1.41808E+00 1.51302E-13-1.96875E-13
 -1       510 2.14666E+01 2.78293E-02-4.40131E-04-1.40724E+00-1.05542E-13-1.64388E-13
 -1       511 2.11606E+01 1.88130E-01 6.96406E-05-1.29241E+00-1.57237E-13-1.15067E-13
 -1       512 2.09248E+01 2.57352E-01 3.55267E-04-1.12869E+00 2.95087E-14 7.89709E-14
 -1       513 2.07365E+01 2.71000E-01 4.76180E-04-9.50743E-01-7.44159E-14 1.23979E-13
 -1       514 2.05829E+01 2.54454E-01 4.95236E-04-7.78718E-01-2.53545E-15 2.05187E-13
 -1       515 2.04565E+01 2.23919E-01 4.59212E-04-6.23154E-01-2.62086E-13 1.55766E-13
 -1       516 2.03528E+01 1.88938E-01 3.98939E-04-4.88519E-01-2.16790E-13 1.24467E-13
 -1       517 2.02685E+01 1.54703E-01 3.32294E-04-3.75643E-01-7.96288E-14 7.39680E-14
 -1       518 2.02009E+01 1.23757E-01 2.68595E-04-2.83327E-01 2.38899E-14 2.87654E-14
 -1       519 2.01476E+01 9.70996E-02 2.12121E-04-2.09362E-01 1.85021E-13-2.19278E-13
 -1       520 2.01063E+01 7.48768E-02 1.64266E-04-1.51165E-01 1.06339E-13-2.18415E-13
 -1       521 2.00748E+01 5.67953E-02 1.24971E-04-1.06139E-01 1.04771E-13-1.13427E-13
 -1       522 2.00513E+01 4.23598E-02 9.35158E-05-7.18825E-02 1.46144E-13-2.58021E-13
 -1       523 2.00342E+01 3.10018E-02 6.85885E-05-4.62838E-02 4.19994E-13-8.05777E-14
 -1       524 2.00220E+01 2.21300E-02 4.74687E-05-2.75656E-02 2.04888E-13 4.15205E-14
 -1       525 2.00135E+01 1.52021E-02 3.24676E-05-1.42919E-02 3.72239E-13 2.18416E-13
 -1       526 2.00077E+01 9.57121E-03 3.15959E-05-5.39673E-03 5.49086E-13 3.09968E-13
 -1       527 9.90209E+00-3.28706E+00 1.35912E-01 6.17963E+00-7.55798E-13 1.03773E-12
 -1       528 2.01166E+01 2.21700E-01 1.41951E-03-3.29617E-01 1.87368E-13 3.47437E-14
 -1       529 2.01624E+01 1.70876E-01 8.67737E-04-5.11931E-01 1.34294E-13-6.47480E-15
 -1       530 2.02716E+01 1.44002E-01 6.34145E-04-6.57174E-01 1.30674E-13-5.99408E-14
 -1       531 2.04332E+01 1.25934E-01 4.82022E-04-7.79887E-01 9.63958E-14-3.93488E-15
 -1       532 2.06404E+01 1.03416E-01 2.99916E-04-8.83917E-01 2.53704E-14 5.92906E-14
 -1       533 2.08893E+01 6.22710E-02 7.48406E-06-9.62855E-01 9.61217E-14 5.56856E-14
 -1       534 2.11783E+01-1.34124E-02-4.58720E-04-9.99248E-01 9.18536E-14 3.54736E-14
 -1       535 2.15069E+01-1.39498E-01-1.13400E-03-9.63775E-01 5.48372E-14 9.69625E-15
 -1       536 2.18722E+01-3.25367E-01-1.99375E-03-8.16306E-01-9.29025E-14 1.26228E-16
 -1       537 2.22624E+01-5.59919E-01-2.85420E-03-5.12787E-01-1.79070E-13 1.20196E-13
 -1       538 2.26448E+01-7.91047E-01-3.50371E-03-2.37797E-02-1.18477E-13 1.82869E-13
 -1       539 2.29500E+01-9.04208E-01-3.26144E-03 6.29534E-01-6.79741E-15 1.76717E-13
 -1       540 2.30713E+01-7.34536E-01-1.85843E-03 1.31716E+00 1.24203E-13 3.11009E-13
 -1       541 2.29244E+01-1.74451E-01-2.17140E-03 1.77155E+00 1.05090E-13 3.17029E-13
 -1       542 2.25403E+01 6.86950E-01-2.71831E-03 1.66320E+00 7.30913E-14 3.24608E-13
 -1       543 2.21575E+01 1.44172E+00-1.20774E-03 8.41140E-01 2.60994E-13 2.92901E-13
 -1       544 2.20790E+01 1.59336E+00-2.53449E-03-3.91112E-01 3.95229E-13-2.98877E-14
 -1       545 2.23808E+01 1.04141E+00 9.01243E-04-1.44242E+00 3.86399E-13-7.88579E-14
 -1       546 2.28113E+01 1.62749E-01-8.47414E-04-1.84626E+00 1.99252E-13-1.46754E-13
 -1       547 2.30816E+01-5.47215E-01-1.92577E-03-1.58886E+00-1.89775E-14-4.81683E-13
 -1       548 2.30760E+01-8.65516E-01-3.29061E-03-9.65960E-01-1.94886E-13-5.59599E-13
 -1       549 2.28474E+01-8.41774E-01-3.80833E-03-2.89314E-01-1.01715E-13-5.23326E-13
 -1       550 2.25054E+01-6.37214E-01-3.37551E-03 2.57065E-01-8.86236E-14-4.09590E-13
 -1       551 2.21355E+01-3.90711E-01-2.45474E-03 6.15094E-01-9.29248E-14-2.82066E-13
 -1       552 2.17841E+01-1.79010E-01-1.43784E-03 7.99836E-01 7.71589E-14-1.96284E-13
 -1       553 2.14690E+01-2.76467E-02-5.75999E-04 8.53880E-01 1.67513E-13-2.17838E-13
 -1       554 2.11943E+01 6.57910E-02 2.93608E-05 8.22059E-01 9.15706E-14-2.47519E-13
 -1       555 2.09584E+01 1.14308E-01 3.92043E-04 7.41258E-01-9.11704E-14-6.40422E-14
 -1       556 2.07586E+01 1.32170E-01 5.67244E-04 6.38104E-01-1.14969E-13 3.68925E-14
 -1       557 2.05916E+01 1.31170E-01 6.16230E-04 5.30068E-01-8.74119E-15 1.92480E-13
 -1       558 2.04541E+01 1.19822E-01 5.90138E-04 4.27583E-01-4.27205E-14 2.96338E-13
 -1       559 2.03426E+01 1.03770E-01 5.25292E-04 3.36134E-01 1.01172E-13 2.54484E-13
 -1       560 2.02537E+01 8.64992E-02 4.45219E-04 2.57940E-01 1.26034E-13 1.50360E-14
 -1       561 2.01841E+01 6.99943E-02 3.63990E-04 1.93211E-01-3.11182E-14 7.79710E-14
 -1       562 2.01305E+01 5.52580E-02 2.89091E-04 1.41020E-01-3.65607E-13-2.60179E-13
 -1       563 2.00902E+01 4.26796E-02 2.23989E-04 9.98845E-02-9.55767E-14 7.33417E-14
 -1       564 2.00605E+01 3.22850E-02 1.69538E-04 6.81356E-02 8.95429E-14 4.70856E-14
 -1       565 2.00391E+01 2.38989E-02 1.25190E-04 4.41408E-02 3.62269E-13 9.91744E-14
 -1       566 2.00242E+01 1.72520E-02 8.89841E-05 2.64240E-02 5.13281E-13 7.59494E-14
 -1       567 2.00142E+01 1.20065E-02 6.29330E-05 1.37289E-02 4.17220E-13 8.45984E-14
 -1       568 2.00077E+01 7.76201E-03 4.51370E-05 5.05251E-03 6.24277E-14 2.37011E-13
 -1       569 2.00037E+01 4.00750E-03 2.62959E-05-3.33646E-04-1.54682E-13 1.06294E-13
 -1       570 2.00007E+01 2.01978E-02 2.27623E-06 6.66663E-03 4.81285E-13-1.49484E-14
 -1       571 1.99982E+01 2.47131E-02-8.82913E-07 5.69070E-03 1.77743E-13 3.99219E-15
 -1       572 2.00045E+01 9.45005E-03-7.14962E-06 3.43318E-03-2.27785E-15 2.50788E-14
 -1       573 2.00031E+01 1.48620E-02 4.32576E-06 5.84701E-03 3.34796E-15 1.20832E-13
 -1       574 1.99965E+01 2.77102E-02-3.31769E-06 3.19055E-03-6.46542E-14-4.05862E-13
 -1       575 1.99959E+01 2.87400E-02-4.35410E-06-1.62030E-04-3.76871E-13-1.24122E-13
 -1       576 1.99966E+01 2.76439E-02-3.20622E-06-3.48939E-03-4.16936E-13 3.88774E-13
 -1       577 1.99984E+01 2.46502E-02-7.76894E-07-5.88174E-03-1.50688E-13 1.66422E-13
 -1       578 2.00009E+01 2.01000E-02 1.48038E-06-6.76022E-03-2.26428E-14-4.66867E-13
 -1       579 2.00033E+01 1.47205E-02 1.82604E-06-5.80697E-03 3.80586E-14-3.47822E-13
 -1       580 2.00046E+01 9.30668E-03 8.63164E-06-3.29095E-03-4.20574E-14-7.33971E-13
 -1       581 6.20810E+00-1.30832E+00 1.93538E-01-2.83012E+00 8.50812E-14 1.30379E-12
 -1       582 2.01485E+01 3.19217E-01 2.77091E-03-8.25177E-02 2.82927E-13 9.15548E-14
 -1       583 1.75904E+01-5.29968E+00 7.54262E-02 6.75434E+00-4.88956E-13-1.80399E-13
 -1       584 1.66232E+01-5.21225E+00 8.16433E-02-6.68730E+00 3.66498E-13 6.46531E-13
 -1       585 2.46581E+01-5.09297E+00 1.06061E-02 4.31470E+00 8.11573E-14-4.55733E-13
 -1       586 2.99401E+01 2.38250E+00-1.40969E-01 2.22020E+00-6.45727E-13-4.13558E-14
 -1       587 2.69763E+01-4.32390E+00-2.77349E-02-2.22330E+00-1.53932E-13 2.02130E-14
 -1       588 1.95765E+01 3.37982E+00-4.78686E-03-2.64993E-01-1.06753E-14-5.27263E-13
 -1       589 2.85669E+01 6.95916E+00-1.76890E-01-5.72666E-03 1.21500E-12 2.14141E-14
 -1       590 6.83730E+00-1.83706E+00 1.81817E-01-4.02997E+00-2.30451E-13-1.06432E-12
 -1       591 2.96018E+01 6.03115E+00-1.78558E-01-1.50028E+00 1.05391E-12-3.88686E-13
 -1       592 2.95634E+01 4.71455E+00-1.70581E-01 1.85501E+00 8.64267E-13 2.27214E-13
 -1       593 2.99105E+01-3.22942E-02-1.00445E-01 8.62885E-01 4.27391E-13 3.18801E-13
 -1       594 2.12050E+01-5.51769E+00 4.85489E-02-5.70387E+00-5.29889E-13-5.03576E-13
 -1       595 1.37697E+01-4.28611E+00 9.82733E-02-6.76818E+00-4.61124E-13-7.00488E-13
 -1       596 4.50053E+00-1.37421E+00 1.76233E-01-3.47347E-03 7.18395E-14-1.21207E-12
 -1       597 6.76958E+00-2.62134E+00 1.36731E-01 4.59977E+00 2.78791E-13-6.35422E-13
 -1       598 1.42625E+01-4.64592E+00 1.04902E-01 6.81549E+00 4.63685E-13-2.80928E-13
 -1       599 2.22047E+01-5.73258E+00 4.55643E-02 5.28577E+00 2.77681E-13 1.89047E-13
 -1       600 2.80803E+01-4.00291E+00-2.75477E-02 1.76981E+00-2.55840E-13 6.36997E-13
 -1       601 3.04950E+01-1.36043E-01-1.00177E-01-1.07822E+00-7.39343E-13 5.92332E-13
 -1       602 3.10272E+01 3.96369E+00-1.46755E-01-1.89310E+00-9.13616E-13 2.02782E-13
 -1       603 2.97089E+01 5.08912E+00-1.95373E-01 1.81145E+00-8.42743E-13-6.64122E-14
 -1       604 2.39691E+01-5.53851E+00 1.76206E-02-4.45725E+00 1.80238E-13 3.70398E-14
 -1       605 5.60001E+00-1.72501E+00 1.65159E-01 3.23161E+00-4.70762E-13 1.51248E-12
 -1       606 9.16697E+00-2.74279E+00 1.52297E-01-5.44365E+00 1.76144E-13 9.76913E-13
 -1       607 2.04665E+01 1.79130E+00-5.19640E-03-1.37556E+00-4.50828E-13-2.09761E-13
 -1       608 2.06649E+01 1.31928E+00-8.84142E-04 1.42464E+00 5.05385E-13 2.38345E-13
 -1       609 2.88343E+01-2.60336E+00-6.02188E-02 1.33281E+00 4.55344E-13-3.99000E-13
 -1       610 1.99933E+01 2.74884E+00-6.43232E-03-1.09481E+00-3.00541E-13-4.22850E-13
 -1       611 2.88762E+01 5.28655E+00-1.93140E-01-1.51214E+00-1.08135E-12 1.29815E-13
 -1       612 2.00049E+01 6.04915E-03 2.13170E-05-1.25939E-03 2.33670E-13 2.32808E-13
 -1       613 7.11995E+00-1.20187E-01 1.68233E-01 1.85989E-01-1.93704E-13 1.02374E-12
 -1       614 1.17757E+01-2.24649E+00 1.23207E-01-5.52226E+00-4.36026E-13-7.50087E-13
 -1       615 2.79920E+01 5.92458E+00-1.50787E-01 8.97374E-01-9.82762E-13-2.05331E-13
 -1       616 2.90602E+01-6.91481E-01-6.99500E-02 1.89923E+00-1.78076E-13-1.80585E-13
 -1       617 2.02154E+01 2.34455E+00-5.67469E-03-1.28158E+00-3.79477E-13-3.32599E-13
 -1       618 1.98261E+01 2.68266E+00-1.49399E-03 2.97904E-01 1.82799E-13-4.60868E-13
 -1       619 1.97678E+01 2.77671E+00-1.41635E-03 9.97361E-02 1.20939E-13-4.57995E-13
 -1       620 2.00927E+01 2.20230E+00-1.56786E-03 6.72116E-01 3.32981E-13-3.21238E-13
 -1       621 2.02731E+01 1.78453E+00-2.18929E-03 8.02743E-01 3.91052E-13-1.82920E-13
 -1       622 2.04083E+01 1.11825E+00 2.88005E-03 6.32955E-01 3.98835E-13-5.19598E-14
 -1       623 2.22511E+01-5.15533E+00 4.16308E-02 4.73413E+00-3.83568E-13-4.07121E-13
 -1       624 2.69442E+01 2.60726E+00-1.33553E-01 2.60555E+00-5.14352E-13-6.30983E-13
 -1       625 2.03248E+01 7.29238E-01 1.24494E-03 1.65438E-01 3.20321E-13-5.02534E-14
 -1       626 1.02958E+01-1.12094E+00 1.47016E-01 4.41862E+00-7.85965E-13 9.39901E-13
 -1       627 2.03536E+01 1.51911E+00 1.13527E-04-8.00362E-01-3.13381E-13-2.50503E-13
 -1       628 2.03237E+01 8.32051E-01-6.98602E-04-1.06669E-01-2.15999E-13-2.16287E-13
 -1       629 2.02707E+01 6.05274E-01 3.46814E-04 2.36263E-01-2.08593E-13-1.89229E-13
 -1       630 2.02275E+01 4.81004E-01 1.79790E-04 5.05768E-01-1.70361E-13-1.91344E-13
 -1       631 2.02030E+01 4.24007E-01 1.65219E-04 7.32484E-01-1.20716E-13-2.30588E-13
 -1       632 2.01970E+01 4.06956E-01 1.73093E-04 9.37212E-01-9.95426E-14-2.11769E-13
 -1       633 2.02090E+01 4.06149E-01 1.86288E-04 1.13461E+00-1.83235E-14-1.50683E-13
 -1       634 2.02421E+01 3.95576E-01 1.87429E-04 1.33229E+00 1.42621E-14-1.06682E-13
 -1       635 2.03071E+01 3.41768E-01 1.44521E-04 1.53031E+00 4.84524E-14 1.93698E-14
 -1       636 2.04301E+01 1.99375E-01-2.93745E-05 1.71953E+00-4.96017E-14-1.58112E-14
 -1       637 2.06607E+01-9.02730E-02-3.82835E-04 1.87725E+00 7.55239E-14 2.00459E-14
 -1       638 2.10819E+01-5.90752E-01-9.34592E-04 1.95685E+00 2.95661E-14 1.93441E-14
 -1       639 2.18031E+01-1.33230E+00-9.89124E-04 1.87161E+00 7.52433E-14 1.43658E-13
 -1       640 2.29828E+01-2.26656E+00-4.09156E-03 1.43007E+00 8.96208E-14 2.53682E-13
 -1       641 2.45144E+01-2.95142E+00-2.53861E-02 4.85312E-01-1.91054E-14 3.77210E-13
 -1       642 2.61768E+01-2.65050E+00-2.22830E-02-9.80466E-01-3.83903E-14 5.98087E-13
 -1       643 2.72231E+01-2.53695E-01-8.98558E-02-2.44142E+00-2.97758E-13 6.93194E-13
 -1       644 2.69121E+01-8.31732E-01-6.37308E-02 2.37127E+00-1.75727E-14-7.66965E-13
 -1       645 2.58350E+01-2.63149E+00-1.77792E-02 8.79808E-01 3.32481E-13-7.55799E-13
 -1       646 2.42430E+01-2.70525E+00-4.44557E-03-5.44834E-01 4.22918E-13-5.53449E-13
 -1       647 2.28169E+01-1.94581E+00-1.26374E-03-1.37941E+00 3.21457E-13-5.25854E-13
 -1       648 2.17909E+01-1.08344E+00-1.01801E-03-1.72432E+00 2.50001E-13-4.56623E-13
 -1       649 2.11424E+01-4.09808E-01-6.32218E-04-1.77771E+00 2.45870E-13-3.98238E-13
 -1       650 2.07585E+01 2.95403E-02-9.13681E-05-1.67665E+00 1.27233E-14-2.77472E-13
 -1       651 2.05371E+01 2.75164E-01 1.98524E-04-1.50175E+00-3.84806E-14 3.03842E-14
 -1       652 2.04065E+01 3.86140E-01 3.07507E-04-1.29859E+00 5.27688E-15 1.14922E-13
 -1       653 2.03233E+01 4.13413E-01 3.18217E-04-1.09300E+00-8.76355E-14 7.25106E-14
 -1       654 2.02642E+01 3.93702E-01 2.86880E-04-8.99439E-01-8.91081E-14-1.60130E-13
 -1       655 2.02176E+01 3.50943E-01 2.40737E-04-7.25499E-01-1.06016E-13-3.12511E-13
 -1       656 2.01784E+01 2.99662E-01 1.94095E-04-5.74441E-01-9.97151E-14-1.69017E-13
 -1       657 2.01446E+01 2.48107E-01 1.52615E-04-4.46756E-01-1.01955E-13 3.86482E-14
 -1       658 2.01155E+01 2.00572E-01 1.17777E-04-3.41234E-01-5.18938E-14 1.17195E-13
 -1       659 2.00907E+01 1.58958E-01 8.94195E-05-2.55719E-01 6.43907E-14 1.71237E-14
 -1       660 2.00700E+01 1.23783E-01 6.66351E-05-1.87636E-01 1.59379E-13 1.77417E-13
 -1       661 2.00530E+01 9.48083E-02 4.87526E-05-1.34332E-01 3.43608E-14 2.30567E-13
 -1       662 2.00394E+01 7.14132E-02 3.49074E-05-9.32877E-02 1.57479E-13 4.81555E-13
 -1       663 2.00287E+01 5.28186E-02 2.46459E-05-6.22382E-02 2.68727E-13 3.39017E-13
 -1       664 2.00203E+01 3.81971E-02 1.60583E-05-3.92089E-02 4.37236E-13 1.79890E-13
 -1       665 2.00139E+01 2.67161E-02 7.61278E-06-2.26324E-02 3.76127E-13 3.30568E-13
 -1       666 2.00089E+01 1.75091E-02 6.59545E-06-1.11410E-02 3.46253E-13 5.80202E-14
 -1       667 2.54070E+01-4.90436E+00-2.02148E-02 2.44756E+00 7.30284E-14 5.37009E-13
 -1       668 2.82600E+01-2.56766E+00-5.53727E-02-7.96873E-01-2.86644E-13 6.70092E-13
 -1       669 2.02332E+01 3.71270E-01 3.30054E-04-4.39556E-01 1.59632E-13-4.27964E-14
 -1       670 2.03672E+01 2.22231E-01 1.69063E-04-9.66664E-01 3.33218E-14-2.64509E-14
 -1       671 2.04879E+01 1.71488E-01 1.02770E-04-1.09644E+00 6.63597E-14-4.70449E-14
 -1       672 2.06564E+01 8.07100E-02-1.62786E-05-1.19845E+00 5.45086E-14-2.60692E-14
 -1       673 2.08885E+01-7.71815E-02-2.06761E-04-1.25325E+00 6.52687E-14 2.20087E-14
 -1       674 2.12075E+01-3.27214E-01-4.79696E-04-1.22776E+00 2.37587E-15 9.44513E-14
 -1       675 2.16408E+01-6.79320E-01-8.59293E-04-1.07329E+00-1.75657E-13 1.15919E-13
 -1       676 2.22034E+01-1.09947E+00-1.06164E-03-7.29712E-01-2.22454E-13 7.50594E-14
 -1       677 2.28699E+01-1.47545E+00-2.10661E-03-1.41423E-01-8.86182E-14 1.51528E-13
 -1       678 2.35253E+01-1.56431E+00-3.11466E-03 6.87240E-01-9.98391E-14 3.47595E-13
 -1       679 2.39550E+01-1.04245E+00-2.44477E-03 1.56744E+00 6.99343E-14 5.19174E-13
 -1       680 2.39176E+01 2.37083E-01-1.06977E-02 2.09703E+00 7.49839E-14 5.54538E-13
 -1       681 2.36026E+01 1.84062E+00-1.36997E-02 1.70692E+00 2.25703E-13 3.48417E-13
 -1       682 2.31508E+01 2.91353E+00-4.19515E-02 3.16815E-01 4.85568E-13 1.45656E-13
 -1       683 2.34129E+01 2.41000E+00-1.53710E-02-1.26136E+00 6.20590E-13-1.16328E-13
 -1       684 2.38305E+01 9.10088E-01-1.77423E-02-2.09170E+00 4.73144E-13-3.25787E-13
 -1       685 2.40162E+01-5.97537E-01-8.18367E-03-1.89249E+00 1.62611E-13-2.60067E-13
 -1       686 2.37572E+01-1.42172E+00-4.37096E-03-1.10485E+00-5.75706E-15-2.54786E-13
 -1       687 2.31708E+01-1.53112E+00-2.22521E-03-2.33996E-01-1.82117E-13-4.18938E-13
 -1       688 2.24985E+01-1.23117E+00-1.40281E-03 4.39603E-01-1.89392E-13-4.40935E-13
 -1       689 2.18964E+01-8.02710E-01-9.94944E-04 8.57216E-01-1.99435E-13-3.08327E-13
 -1       690 2.14215E+01-4.10990E-01-6.31908E-04 1.05870E+00 1.89589E-14-3.06650E-13
 -1       691 2.10690E+01-1.17369E-01-2.90093E-04 1.10748E+00 7.70269E-14-1.71734E-13
 -1       692 2.08129E+01 7.36578E-02-4.88497E-05 1.05957E+00 2.21557E-14-8.12467E-16
 -1       693 2.06257E+01 1.80998E-01 9.99343E-05 9.57256E-01 3.49659E-14 1.58941E-14
 -1       694 2.04860E+01 2.28627E-01 1.75945E-04 8.29867E-01-1.04905E-13-1.47396E-13
 -1       695 2.03789E+01 2.37645E-01 2.02135E-04 6.96574E-01-1.10264E-13-1.98149E-13
 -1       696 2.02951E+01 2.24011E-01 1.99230E-04 5.69114E-01-9.76304E-14-1.48346E-13
 -1       697 2.02286E+01 1.98782E-01 1.80943E-04 4.54000E-01 6.82998E-14-1.28792E-13
 -1       698 2.01755E+01 1.69119E-01 1.55935E-04 3.54189E-01 2.48102E-13-1.80680E-13
 -1       699 2.01332E+01 1.39354E-01 1.29492E-04 2.70326E-01-4.92860E-14-2.96644E-13
 -1       700 2.00997E+01 1.11878E-01 1.04115E-04 2.01659E-01-1.41341E-13-1.05809E-13
 -1       701 2.00735E+01 8.78179E-02 8.16051E-05 1.46681E-01-2.61380E-13-3.02119E-13
 -1       702 2.00532E+01 6.75132E-02 6.25695E-05 1.03554E-01 3.41967E-15-5.37063E-13
 -1       703 2.00377E+01 5.08349E-02 4.67207E-05 7.03938E-02 2.22489E-13-3.37730E-13
 -1       704 2.00261E+01 3.73950E-02 3.22510E-05 4.54496E-02 3.78086E-13-3.19866E-13
 -1       705 2.00175E+01 2.67373E-02 2.45427E-05 2.71539E-02 2.29068E-13-3.59522E-14
 -1       706 2.00113E+01 1.82249E-02 3.31238E-05 1.42217E-02 6.68958E-14 2.69235E-13
 -1       707 2.00075E+01 1.39459E-02 1.70207E-05 7.89765E-03 1.84452E-13 3.81334E-14
 -1       708 1.49402E+01-3.30010E+00 1.03957E-01-5.88792E+00 3.17225E-13 6.34780E-13
 -1       709 1.99921E+01 4.50788E-02-2.50619E-06 2.69758E-03 2.57670E-16-6.00275E-13
 -1       710 2.00066E+01 1.33033E-02-2.23361E-05-6.69960E-03 1.87497E-13-4.51838E-13
 -1       711 1.99980E+01 3.63288E-02-1.52694E-06 1.13572E-02 5.14417E-13-5.42833E-13
 -1       712 1.99922E+01 4.50591E-02-1.69022E-06-3.06355E-03-1.38786E-13 2.35222E-14
 -1       713 1.99942E+01 4.20274E-02-2.01825E-06 7.87043E-03 5.11547E-14-5.17421E-13
 -1       714 1.99944E+01 4.20509E-02-9.02544E-07-8.10542E-03-3.34780E-13 4.08070E-13
 -1       715 1.99982E+01 3.63332E-02-9.40425E-07-1.15361E-02-2.49307E-13-1.46386E-13
 -1       716 2.00027E+01 2.87407E-02-3.39087E-06-1.24891E-02-2.77899E-13-4.13263E-13
 -1       717 2.02629E+01 5.01319E-01 7.13101E-04-1.78951E-01 2.63740E-13-3.29914E-14
 -1       718 7.84451E+00-5.89621E-01 1.54013E-01 2.44764E+00 3.06755E-13-7.97744E-13
 -1       719 1.04539E+01-8.53657E-01 1.31303E-01-3.83894E+00 1.31214E-13 1.03099E-12
 -1       720 2.83655E+01 1.13672E+00-1.36236E-01-2.41953E+00-5.06352E-13 4.72525E-13
 -1       721 2.58881E+01 4.88598E+00-1.24251E-01-1.25613E+00 8.91173E-13-1.52559E-13
 -1       722 2.02857E+01 2.57582E-01 2.08624E-04-8.16987E-01 8.23718E-14-7.67176E-15
 -1       723 2.02408E+01 2.99773E-01 2.57727E-04-6.45172E-01 1.40395E-13-5.42742E-14
 -1       724 2.03491E+01 1.11742E+00 4.45615E-04-4.21894E-01-2.39206E-13-2.37994E-13
 -1       725 1.99366E+01 2.49464E+00-1.58552E-03 4.92711E-01 2.71072E-13-4.04129E-13
 -1       726 2.12828E+01-5.04213E+00 4.26260E-02-4.93938E+00 4.80983E-13 1.95048E-14
 -1       727 2.84030E+01-1.08205E+00-8.30904E-02-1.16416E+00 4.51080E-13-5.06564E-13
 -1       728 1.99278E+01 2.51248E+00-1.54752E-03-4.86888E-01-1.42138E-13-4.30098E-13
 -1       729 2.78604E+01 1.51355E+00-1.05620E-01 2.19299E+00 4.14203E-13 6.40051E-13
 -1       730 2.67385E+01-4.44121E+00-1.29725E-02-1.20295E+00 2.48201E-13-1.47406E-13
 -1       731 1.23525E+01-2.37865E+00 1.26610E-01 5.50347E+00 4.25288E-13-2.08167E-13
 -1       732 2.74505E+01-2.44839E+00-4.49038E-02 6.24931E-01 3.70285E-14 6.53935E-13
 -1       733 1.86179E+01-4.24078E+00 7.54966E-02-5.70596E+00-6.06064E-13-3.21531E-13
 -1       734 2.66558E+01-4.20726E+00-2.31958E-02 1.66398E+00-2.66020E-14-5.98965E-13
 -1       735 8.30664E+00-8.63044E-02 1.55577E-01-1.65281E+00 4.67681E-15-8.88484E-13
 -1       736 1.92320E+01-4.41523E+00 7.40096E-02 5.47247E+00 4.38566E-13 7.83679E-14
 -1       737 1.56636E+01-3.63695E+00 9.45757E-02 6.15863E+00-7.47919E-13 3.81674E-13
 -1       738 2.42906E+01-4.87521E+00 5.42399E-03-3.08881E+00-5.83800E-13-9.35614E-14
 -1       739 2.75407E+01 2.60670E+00-1.31107E-01-2.35864E+00 7.51108E-13-2.52427E-13
 -1       740 2.62972E+01 4.99913E+00-1.29855E-01 1.34664E+00 8.63844E-13 3.25471E-13
 -1       741 2.00844E+01 2.22540E+00-1.04241E-03-6.65633E-01-2.18904E-13-3.95149E-13
 -1       742 1.97654E+01 2.78053E+00-1.41842E-03-9.77622E-02 2.76851E-14-4.40098E-13
 -1       743 2.56620E+01 2.72693E+00-6.79742E-02 2.17249E+00 4.79297E-13 4.54354E-13
 -1       744 2.28097E+01-4.43319E+00 2.26495E-02 3.43662E+00 3.09823E-13 3.52050E-13
 -1       745 2.70626E+01 3.49553E+00-1.38863E-01-2.37730E+00-7.21749E-13 4.05342E-13
 -1       746 2.00024E+01 2.87548E-02-9.72897E-06 1.24403E-02 6.03658E-13 6.24912E-13
 -1       747 2.00057E+01 2.11895E-02-1.55430E-09 1.09540E-02 1.73806E-13 1.32544E-13
 -1       748 2.00066E+01 2.02757E-02 3.77451E-05-1.08417E-02-7.52186E-14-2.54892E-13
 -1       749 1.00258E+01 3.24016E-01 1.06189E-01-1.57203E+00-1.88074E-13 9.98097E-13
 -1       750 1.12805E+01-4.73347E-01 9.25522E-02-3.48440E+00-1.59928E-13-6.53741E-13
 -1       751 1.98196E+01 2.69418E+00-1.46318E-03-2.93712E-01-6.03307E-14-4.51679E-13
 -1       752 1.99822E+01-3.76151E+00 4.14488E-02 4.61144E+00-5.39912E-13-1.72433E-13
 -1       753 2.02579E+01 1.48525E+00 3.05421E-04 3.97772E-01 3.20009E-13-1.94705E-13
 -1       754 2.02100E+01 7.66998E-01 9.62976E-05 3.29591E-01-1.80183E-13-2.31938E-13
 -1       755 2.01358E+01 6.44466E-01 3.52719E-05 5.75636E-01-1.59166E-13-1.81701E-13
 -1       756 2.00476E+01 5.91978E-01 3.84174E-05 7.92151E-01-1.05359E-13-1.84527E-13
 -1       757 1.99496E+01 5.80429E-01 5.29517E-05 9.95917E-01-4.92042E-15-1.75581E-13
 -1       758 1.98443E+01 5.81282E-01 7.34732E-05 1.20022E+00 7.25128E-14-1.64246E-13
 -1       759 1.97387E+01 5.61124E-01 9.39384E-05 1.41572E+00 8.03167E-14-1.00129E-13
 -1       760 1.96499E+01 4.76418E-01 7.11030E-05 1.65128E+00 8.64497E-15-1.24191E-13
 -1       761 1.96149E+01 2.68001E-01-1.86824E-04 1.91453E+00 5.70553E-14-2.24353E-14
 -1       762 1.97067E+01-1.42620E-01-4.40634E-04 2.20819E+00 7.44448E-14-7.11377E-14
 -1       763 2.00519E+01-8.47200E-01-1.32502E-03 2.51434E+00 1.16692E-13-7.60323E-14
 -1       764 2.08749E+01-1.89289E+00 1.07076E-02 2.76939E+00 1.91187E-13 5.08484E-14
 -1       765 2.51398E+01-4.13959E+00 3.34105E-02 1.48560E+00 1.27839E-13 6.34397E-13
 -1       766 2.45329E+01-4.01319E+00 8.92837E-03-1.76856E+00 4.77077E-13-2.51276E-13
 -1       767 2.22434E+01-2.86631E+00 6.76657E-03-2.44466E+00 4.91483E-13-1.89757E-13
 -1       768 2.08602E+01-1.59805E+00 4.68209E-03-2.49714E+00 3.28542E-13-3.05374E-14
 -1       769 2.01276E+01-6.24497E-01 3.42987E-04-2.28240E+00 1.40316E-13-2.43591E-13
 -1       770 1.98043E+01 8.16253E-03 1.14734E-04-1.99543E+00 2.00767E-13-3.44194E-13
 -1       771 1.97021E+01 3.69316E-01 1.11143E-04-1.70910E+00 6.57871E-14-1.40806E-13
 -1       772 1.97086E+01 5.42011E-01 1.42321E-04-1.44464E+00-2.16862E-14-1.54045E-13
 -1       773 1.97588E+01 5.95303E-01 1.39370E-04-1.20638E+00-3.34700E-14-1.70214E-13
 -1       774 1.98195E+01 5.78816E-01 1.24740E-04-9.94441E-01-1.28195E-13-2.16331E-13
 -1       775 1.98753E+01 5.25602E-01 1.02572E-04-8.08288E-01-1.57973E-13-5.21314E-14
 -1       776 1.99205E+01 4.56479E-01 8.20390E-05-6.47255E-01-9.29646E-14-1.96656E-13
 -1       777 1.99544E+01 3.83928E-01 6.56891E-05-5.10291E-01 4.70609E-15-1.70338E-13
 -1       778 1.99782E+01 3.14969E-01 5.31804E-05-3.95804E-01-1.97551E-15-9.89810E-14
 -1       779 1.99939E+01 2.53130E-01 4.32306E-05-3.01721E-01 8.60540E-14 1.09776E-13
 -1       780 2.00036E+01 1.99792E-01 3.39926E-05-2.25680E-01 1.70977E-13 3.53911E-13
 -1       781 2.00090E+01 1.55072E-01 2.58329E-05-1.65216E-01 1.30836E-13 5.13757E-13
 -1       782 2.00114E+01 1.18398E-01 1.92214E-05-1.17919E-01 2.14946E-13 7.28297E-13
 -1       783 2.00118E+01 8.88372E-02 1.40390E-05-8.15479E-02 1.72436E-13 4.40370E-13
 -1       784 2.00110E+01 6.53282E-02 1.60279E-05-5.41359E-02 1.38683E-13 6.78848E-13
 -1       785 2.00093E+01 4.68118E-02-1.06044E-05-3.39048E-02 3.54241E-13 2.07479E-13
 -1       786 1.04585E+01 4.95110E-01 9.26020E-02 8.16026E-01 1.76154E-13-6.76396E-13
 -1       787 2.02144E+01 5.18279E-01 5.48798E-05-5.31692E-01 1.54424E-13-7.15999E-14
 -1       788 2.01619E+01 3.28180E-01 6.57951E-05-1.09439E+00 6.93709E-14-8.81063E-14
 -1       789 2.04919E+01-1.65451E-01 4.67960E-05-1.50530E+00-6.94981E-14-5.47335E-14
 -1       790 2.08301E+01-5.62890E-01 6.60936E-05-1.55120E+00-1.09871E-13-4.90469E-14
 -1       791 2.13822E+01-1.11581E+00-1.50565E-05-1.47230E+00-1.68281E-13-6.67713E-14
 -1       792 2.22055E+01-1.76609E+00 1.37910E-03-1.18369E+00-2.56670E-13 1.72071E-15
 -1       793 2.32787E+01-2.29533E+00 1.84042E-03-5.35895E-01-2.73815E-13 2.00984E-13
 -1       794 2.44678E+01-2.32503E+00-1.80589E-03 5.21261E-01-1.47322E-13 4.25166E-13
 -1       795 2.52443E+01-1.20317E+00-3.84947E-02 1.64899E+00 5.26792E-15 5.32068E-13
 -1       796 2.52935E+01-2.53821E-01-2.74923E-02-2.12346E+00 1.61629E-13-3.22021E-13
 -1       797 2.47636E+01-1.91354E+00-9.52846E-03-1.10060E+00 4.79124E-14-2.63028E-13
 -1       798 2.37418E+01-2.29881E+00-1.37381E-03 3.29750E-02-1.09454E-13-1.28333E-13
 -1       799 2.26400E+01-1.92732E+00-2.53605E-04 8.17773E-01-7.69913E-14-2.47360E-13
 -1       800 2.17263E+01-1.29725E+00-1.01318E-04 1.23590E+00-2.38048E-13-4.76699E-13
 -1       801 2.10756E+01-7.02118E-01-2.16460E-04 1.38481E+00-9.67982E-14-4.51353E-13
 -1       802 2.06522E+01-2.46324E-01-9.53647E-05 1.37344E+00-1.29376E-13-2.52024E-13
 -1       803 2.03935E+01 5.85751E-02-4.88037E-06 1.27451E+00-7.34034E-14-4.51879E-14
 -1       804 2.02427E+01 2.37745E-01 5.53956E-05 1.13308E+00 6.64670E-15-3.13748E-15
 -1       805 2.01574E+01 3.25067E-01 8.40341E-05 9.76140E-01 7.30524E-14 3.88623E-15
 -1       806 2.01098E+01 3.51170E-01 8.80116E-05 8.19666E-01-8.43404E-14-1.67238E-13
 -1       807 2.00827E+01 3.39753E-01 8.24192E-05 6.73005E-01-1.13735E-13-3.72253E-13
 -1       808 2.00663E+01 3.07700E-01 7.27455E-05 5.41305E-01 8.51771E-15-3.24205E-13
 -1       809 2.00552E+01 2.66362E-01 6.23455E-05 4.26877E-01 9.37893E-14-1.39165E-13
 -1       810 2.00468E+01 2.22911E-01 5.27866E-05 3.30100E-01 1.28743E-13-1.79535E-13
 -1       811 2.00397E+01 1.81557E-01 4.27128E-05 2.50129E-01-1.00280E-13-2.62772E-13
 -1       812 2.00334E+01 1.44494E-01 3.35211E-05 1.85400E-01-2.42114E-13-3.87075E-13
 -1       813 2.00277E+01 1.12619E-01 2.58519E-05 1.34011E-01-1.88840E-13-1.83679E-13
 -1       814 2.00225E+01 8.60246E-02 2.03136E-05 9.39716E-02-6.19536E-14 3.11368E-14
 -1       815 2.00179E+01 6.43156E-02 1.56740E-05 6.33607E-02 2.62765E-13 3.84641E-13
 -1       816 2.00138E+01 4.68942E-02 1.02524E-05 4.05979E-02 2.70142E-13 6.20373E-13
 -1       817 2.00102E+01 3.30267E-02 1.24578E-05 2.40632E-02 1.51834E-13 4.69193E-13
 -1       818 2.00076E+01 2.69620E-02-2.59388E-05 1.66669E-02 3.31284E-13 2.14276E-13
 -1       819 1.99872E+01 6.31743E-02-9.51606E-08-8.96019E-03-1.28014E-13 1.06156E-13
 -1       820 1.99921E+01 5.69206E-02-1.09326E-05-1.61544E-02-3.87986E-13 3.00405E-13
 -1       821 1.99853E+01 6.53226E-02-2.19531E-06-1.16687E-04-4.25797E-14-4.73487E-13
 -1       822 1.58933E+01-2.24020E+00 5.26890E-02-4.99150E+00-5.10010E-13-3.64224E-13
 -1       823 1.67254E+01-2.41107E+00 6.60956E-02 4.82858E+00 3.24514E-13-1.23082E-13
 -1       824 2.01585E+01 3.82221E-01 6.29002E-05-9.24415E-01 4.75829E-14-6.20156E-14
 -1       825 2.02996E+01 9.13100E-02 4.59407E-05-1.39534E+00 2.23640E-14-1.23619E-13
 -1       826 2.02015E+01 2.42947E-01 6.16873E-05-1.25307E+00 3.63111E-14-1.32533E-13
 -1       827 2.66802E+01-2.83775E+00-3.66263E-02-3.55961E-01-3.50514E-14-4.12979E-13
 -1       828 1.45300E+01-1.56656E+00 7.24156E-02-4.57331E+00 2.56262E-13 3.91829E-13
 -1       829 2.03302E+01 1.09087E+00 1.18388E-04 3.01642E-01 3.35682E-13-9.72211E-14
 -1       830 2.16251E+01-3.94375E+00 2.49934E-02-3.79682E+00-5.79382E-13-2.76012E-13
 -1       831 1.47449E+01-1.76083E+00 6.43808E-02 4.81693E+00-7.88900E-13 6.18543E-13
 -1       832 2.02688E+01 9.86656E-01 4.71670E-04 3.53791E-02-1.79605E-13-2.82954E-13
 -1       833 2.01787E+01 4.35968E-01 6.10023E-05-7.40135E-01 5.57142E-14-9.85353E-14
 -1       834 2.02219E+01 1.91027E+00 8.45278E-05-7.60495E-01-2.65593E-13-3.27883E-13
 -1       835 2.66002E+01-1.23289E-01-5.89462E-02-2.11199E+00 3.32061E-13-3.74981E-13
 -1       836 2.44687E+01-4.44573E+00 6.81256E-04 2.34384E+00-2.85974E-13-5.15397E-13
 -1       837 1.02314E+01 3.04446E-01 9.90815E-02 1.85760E+00-5.15920E-13 8.60652E-13
 -1       838 2.61402E+01-5.20767E-01-4.64285E-02 2.06500E+00 8.32130E-14 5.59710E-13
 -1       839 1.99990E+01 4.74586E-02-1.15985E-05-2.02957E-02-3.87209E-13-3.92832E-13
 -1       840 1.92334E+01-3.32574E+00 4.11720E-02-4.57241E+00 4.48403E-13 2.64276E-14
 -1       841 1.23227E+01-5.15959E-01 8.28711E-02 3.60754E+00 3.85910E-13-3.53727E-13
 -1       842 2.53963E+01-3.49280E+00-1.27203E-03-4.56582E-01-2.84821E-13 4.31353E-13
 -1       843 1.99285E+01 2.20634E+00-2.91198E-04 1.12957E-01 1.32520E-13-4.42190E-13
 -1       844 2.52376E+01 1.64858E+00-5.76855E-02-2.32610E+00 5.50511E-13-4.46274E-13
 -1       845 1.98984E+01 2.25822E+00-2.86447E-04-2.96882E-03 4.58994E-14-3.60244E-13
 -1       846 2.01211E+01 1.83992E+00 1.62678E-04-3.29623E-01-1.51899E-13-3.51466E-13
 -1       847 2.01310E+01 1.81663E+00 1.46547E-04 3.27834E-01 2.64826E-13-3.31348E-13
 -1       848 1.99986E+01 4.73842E-02 2.97327E-06 2.01970E-02-3.13069E-15-1.88358E-13
 -1       849 2.00097E+01 2.05927E+00-2.37848E-04 2.25747E-01 2.03959E-13-3.54926E-13
 -1       850 1.99997E+01 2.07754E+00-2.32741E-04-2.27727E-01-8.99196E-14-3.79116E-13
 -1       851 1.14920E+01 5.88798E-01 5.28157E-02-1.16949E+00-8.56845E-15-6.61084E-13
 -1       852 2.00074E+01 3.21245E-02 1.78644E-05-1.94718E-02-4.57855E-14-1.29030E-13
 -1       853 2.02593E+01 6.60744E-01 8.97609E-05-2.83302E-01 2.20336E-13-4.53071E-14
 -1       854 1.99870E+01 6.30829E-02-4.85802E-06 8.74679E-03-3.75099E-14-5.78478E-13
 -1       855 1.99918E+01 5.68483E-02-3.97001E-06 1.59233E-02-3.88320E-15-6.19910E-13
 -1       856 2.02985E+01 8.31102E-01-6.21570E-05-2.15333E-02 2.77457E-13-8.20283E-14
 -1       857 2.02812E+01 1.45191E+00 2.43012E-04-4.34661E-01-2.25443E-13-3.06386E-13
 -1       858 1.31937E+01-1.83005E-01 3.90911E-02 3.24162E+00-7.46896E-13 6.37816E-13
 -1       859 1.28062E+01-1.98613E-01 5.96862E-02-3.17158E+00-1.73299E-15 7.75468E-13
 -1       860 1.99587E+01 7.90590E-01-3.29518E-06 5.84266E-01-9.65691E-14-1.91130E-13
 -1       861 1.97953E+01 7.52045E-01-1.47279E-06 7.72284E-01-6.44780E-14-1.06153E-13
 -1       862 1.95961E+01 7.52206E-01 8.15762E-06 9.56451E-01 2.26021E-14-1.22788E-13
 -1       863 1.93625E+01 7.60222E-01 2.46016E-05 1.15084E+00 1.00255E-13-1.87297E-13
 -1       864 1.90986E+01 7.39380E-01 3.68733E-05 1.37187E+00 6.54895E-14-2.13892E-13
 -1       865 1.88163E+01 6.42349E-01-4.00658E-05 1.64209E+00 7.28635E-14-1.51112E-13
 -1       866 1.85442E+01 4.04399E-01-8.20179E-04 1.99454E+00 4.73170E-14-1.91766E-13
 -1       867 1.83488E+01-7.16517E-02-1.71850E-03 2.47991E+00 1.37839E-13-1.34988E-13
 -1       868 1.84164E+01-8.95654E-01 1.55319E-02 3.10433E+00 2.48603E-13-2.28676E-14
 -1       869 2.56601E+01-2.37464E+00-2.06143E-02-8.62090E-01-3.50455E-14-4.17810E-13
 -1       870 1.56331E+01-8.18440E-01 3.33611E-02 3.68099E+00 3.27973E-13-2.11097E-13
 -1       871 1.91177E+01-1.90576E+00 1.83631E-02-3.56375E+00 4.09010E-13-1.83489E-13
 -1       872 1.85753E+01-6.71177E-01 4.35507E-03-2.84550E+00 2.14471E-13-1.97726E-13
 -1       873 1.85156E+01 8.47865E-02 1.32005E-04-2.26702E+00 5.67122E-14-4.23856E-14
 -1       874 1.86552E+01 5.15098E-01 2.97294E-05-1.81672E+00 2.22485E-13-1.42233E-13
 -1       875 1.88674E+01 7.22285E-01 4.50251E-05-1.47530E+00 6.67193E-14-2.31818E-13
 -1       876 1.90887E+01 7.89612E-01 3.49238E-05-1.20724E+00-7.24844E-14-2.11333E-13
 -1       877 1.92908E+01 7.73003E-01 3.69168E-05-9.88709E-01-6.15593E-14-1.84631E-13
 -1       878 1.94628E+01 7.09940E-01 1.93188E-05-8.05630E-01-1.47091E-13-5.69358E-14
 -1       879 1.96029E+01 6.24649E-01 2.57192E-06-6.50314E-01-2.32295E-13 4.15624E-15
 -1       880 1.97134E+01 5.32459E-01-3.94698E-06-5.18580E-01 5.39290E-14 1.95249E-13
 -1       881 1.97982E+01 4.42656E-01-2.90482E-06-4.07736E-01 5.70720E-14 2.76723E-13
 -1       882 1.98618E+01 3.60387E-01 1.93666E-06-3.15570E-01 1.01823E-13 5.04912E-13
 -1       883 1.99085E+01 2.88069E-01 3.18885E-06-2.40021E-01 1.55122E-13 3.23531E-13
 -1       884 1.99421E+01 2.26393E-01 2.14025E-06-1.79031E-01 3.26322E-13 3.47072E-13
 -1       885 1.99655E+01 1.75021E-01 1.28038E-06-1.30596E-01 2.31292E-13 3.20180E-13
 -1       886 1.99813E+01 1.33079E-01-1.38488E-06-9.27671E-02 7.68935E-14 4.38915E-13
 -1       887 1.99915E+01 9.92648E-02-6.05443E-06-6.37296E-02 1.53213E-13 3.26447E-13
 -1       888 1.99976E+01 7.23943E-02-7.76265E-06-4.18344E-02 4.25809E-14 1.97083E-13
 -1       889 2.00982E+01 6.53112E-01-2.90807E-05-5.86075E-01 1.30669E-13-1.89381E-13
 -1       890 1.99264E+01-2.32787E-01 3.43621E-04-1.78442E+00-5.85009E-14-4.50772E-14
 -1       891 2.19668E+01-2.53736E+00-2.76662E-02-2.00488E+00-3.96908E-13 1.50218E-14
 -1       892 2.13526E+01-1.84887E+00 4.01305E-03 1.94327E+00-1.34537E-13-2.64703E-13
 -1       893 2.05121E+01-1.00015E+00 9.24737E-04 1.90455E+00-2.48697E-13-3.72507E-14
 -1       894 2.00389E+01-3.62465E-01 2.33863E-04 1.73046E+00-2.77165E-13 3.44284E-13
 -1       895 1.98064E+01 6.28340E-02 4.89497E-05 1.51269E+00-1.13248E-13 3.13294E-13
 -1       896 1.97178E+01 3.16230E-01 2.44724E-05 1.29277E+00-4.89496E-14 1.40125E-13
 -1       897 1.97090E+01 4.44495E-01 3.43704E-05 1.08704E+00 5.93022E-14 1.82830E-14
 -1       898 1.97390E+01 4.88718E-01 2.50600E-05 9.00934E-01 6.63534E-14-6.94707E-14
 -1       899 1.97845E+01 4.80043E-01 1.77616E-05 7.35958E-01 3.41552E-14-1.75471E-13
 -1       900 1.98323E+01 4.40898E-01 1.21257E-05 5.92259E-01-1.40457E-13-2.83782E-13
 -1       901 1.98759E+01 3.86765E-01 8.97840E-06 4.69296E-01-1.13490E-14-2.49125E-13
 -1       902 1.99124E+01 3.27832E-01 1.09967E-05 3.65832E-01 3.98019E-14-8.99306E-14
 -1       903 1.99414E+01 2.70336E-01 8.40728E-06 2.80262E-01-7.93943E-15 1.70593E-13
 -1       904 1.99633E+01 2.17796E-01 6.02267E-06 2.10648E-01-2.28210E-13 2.85647E-13
 -1       905 1.99791E+01 1.71833E-01 4.27057E-06 1.54958E-01-2.21356E-13 1.10316E-13
 -1       906 1.99900E+01 1.32929E-01 2.59951E-06 1.11172E-01-1.20843E-13-2.69282E-13
 -1       907 1.99971E+01 1.00743E-01 5.45343E-06 7.73391E-02-2.16438E-13-1.84661E-13
 -1       908 2.00011E+01 7.45700E-02-4.59533E-05 5.15870E-02-1.83240E-13-3.33478E-14
 -1       909 2.00031E+01 5.39262E-02 3.96153E-05 3.26595E-02 7.52253E-14 4.18142E-13
 -1       910 2.00039E+01 3.69320E-02 7.17850E-06 1.94617E-02 3.58999E-13 8.74332E-13
 -1       911 1.99811E+01 8.29254E-02-6.26245E-06-1.91688E-02-1.25326E-13 2.62196E-14
 -1       912 1.99761E+01 8.85201E-02-7.84304E-06-6.88862E-03-1.72975E-13-5.25072E-14
 -1       913 1.43368E+01-5.74172E-01 3.70528E-02-3.65959E+00-2.34646E-13-2.65047E-13
 -1       914 2.44394E+01-3.63015E+00 6.85127E-03 1.20901E+00-1.83250E-13-2.97396E-13
 -1       915 1.94977E+01-3.10099E+00 4.38498E-02 4.24383E+00 3.65071E-13 8.63697E-14
 -1       916 1.81221E+01-1.93987E+00 1.73032E-02 3.89811E+00-4.80088E-13 2.73275E-13
 -1       917 1.97956E+01 1.19601E-01 1.07404E-04-1.56882E+00-2.27206E-14-4.93885E-14
 -1       918 2.00079E+01 5.71100E-01 1.90531E-05-7.84661E-01 3.00049E-14-2.09940E-13
 -1       919 2.02654E+01 1.13727E+00-9.04959E-06 8.43721E-02 2.69450E-13-1.64042E-13
 -1       920 2.14432E+01-3.43903E+00 1.66011E-02 3.32078E+00-2.93294E-13-1.84300E-13
 -1       921 2.01637E+01 1.09914E+00-3.17373E-04 1.41911E-01-1.48609E-13-2.82765E-13
 -1       922 1.99154E+01 5.12779E-01 3.10820E-05-9.72994E-01 2.48266E-14-1.67978E-13
 -1       923 1.20174E+01 8.92974E-01 4.38598E-02 5.11350E-03-4.37698E-13 7.13615E-13
 -1       924 2.09359E+01-1.55531E+00-2.21457E-03-2.07801E+00-2.88850E-13-2.83915E-14
 -1       925 2.02539E+01-7.77991E-01 4.19590E-04-1.98591E+00-1.50888E-13-3.95998E-14
 -1       926 1.99225E+01 2.21564E+00-3.32408E-04-1.16750E-01-1.68909E-14-3.81347E-13
 -1       927 2.00842E+01 8.96333E-01 3.62502E-06 3.80498E-01-1.09890E-13-2.55708E-13
 -1       928 1.74701E+01-1.61833E+00 2.57580E-02-3.88264E+00 3.78984E-13 8.62505E-15
 -1       929 1.99905E+01 7.22506E-02 6.26661E-05-2.85112E-02-3.40023E-13-2.31993E-13
 -1       930 1.91256E+01-2.24879E+00 2.68628E-02-3.80735E+00-4.24669E-13-2.91882E-13
 -1       931 1.29377E+01 4.51281E-01 4.21107E-02 2.00052E+00 3.18203E-13-4.03398E-13
 -1       932 2.32408E+01-3.17859E+00 1.67348E-02-1.68216E+00-4.61677E-13 1.35660E-13
 -1       933 1.76450E+01-1.50363E+00 2.16011E-02 3.80307E+00 3.12177E-13 2.20735E-14
 -1       934 2.01148E+01 1.53339E+00-9.87760E-04-7.65542E-02-1.22391E-13-3.37467E-13
 -1       935 2.00269E+01 1.71699E+00 5.76892E-05 4.09097E-02 1.51007E-13-3.62922E-13
 -1       936 1.99715E+01 1.81588E+00-3.23231E-05 8.23996E-03 1.02687E-13-3.09961E-13
 -1       937 1.33903E+01 7.41456E-01 2.85125E-02-1.54652E+00-1.06884E-13 5.79333E-13
 -1       938 2.41225E+01-2.89392E+00 7.97557E-03 4.62516E-01-1.57370E-13-1.41080E-13
 -1       939 1.29091E+01 8.63818E-01 2.57226E-02 4.19143E-01 1.68157E-13-3.93796E-13
 -1       940 2.01766E+01 7.94403E-01 7.84936E-04-3.65744E-01 1.79727E-13-1.85051E-13
 -1       941 1.98337E+01 4.44548E-01 4.87507E-05-1.16206E+00 3.93437E-14-6.54791E-14
 -1       942 1.99760E+01 8.83764E-02-1.72341E-05 6.59810E-03-4.35361E-14-7.79496E-13
 -1       943 1.64216E+01-6.50619E-01 2.69978E-02 3.37137E+00-5.78256E-13 7.61040E-13
 -1       944 1.34579E+01 7.58402E-01 2.36834E-02 1.56760E+00-4.95458E-13 5.75720E-13
 -1       945 1.97827E+01 3.28404E-01 7.11256E-05-1.35956E+00 3.36015E-14-2.94082E-14
 -1       946 2.26666E+01-2.80328E+00-3.46854E-03 1.66736E+00-1.45720E-13-2.69166E-13
 -1       947 1.56981E+01-4.86200E-01 2.83565E-02-3.37403E+00 2.99430E-13 2.12046E-13
 -1       948 1.99901E+01 7.15829E-02-2.11122E-05 2.81742E-02-1.65389E-13-5.23862E-13
 -1       949 2.01223E+01 1.53139E+00 1.76608E-04 7.25250E-02 2.08371E-13-2.93070E-13
 -1       950 1.99158E+01 9.90063E-01-2.98791E-04 3.60966E-01-5.18240E-14-1.75141E-13
 -1       951 1.94850E+01 8.91575E-01-6.75905E-05 6.56883E-01 1.04579E-14-1.34516E-13
 -1       952 1.91791E+01 9.08356E-01-7.68297E-05 8.01882E-01 3.42715E-14-1.56846E-13
 -1       953 1.88068E+01 9.30477E-01-6.91827E-05 9.63402E-01 5.20255E-14-1.70409E-13
 -1       954 1.83594E+01 9.23767E-01-4.44234E-06 1.16255E+00 1.16024E-13-1.63094E-13
 -1       955 1.78243E+01 8.46588E-01-7.50504E-05 1.43597E+00 4.60743E-14-1.96755E-13
 -1       956 1.72056E+01 6.43356E-01-4.55597E-04 1.83880E+00 1.51287E-13-1.24368E-13
 -1       957 1.64378E+01 2.49864E-01 1.46592E-02 2.46968E+00 2.83205E-13-1.49307E-13
 -1       958 1.99694E+01 1.81961E+00 2.29998E-04-2.65217E-02 2.73236E-14-3.36618E-13
 -1       959 1.67492E+01 3.45123E-01 3.13728E-03-2.29772E+00 2.29257E-13-9.99006E-14
 -1       960 1.73708E+01 7.44845E-01 5.90614E-04-1.71884E+00 8.79316E-14-1.65916E-14
 -1       961 1.79004E+01 9.32497E-01 2.12662E-05-1.33051E+00 2.61131E-14-1.14042E-13
 -1       962 1.83463E+01 9.88634E-01-1.08957E-04-1.06032E+00-4.92430E-14-2.96798E-13
 -1       963 1.87149E+01 9.62312E-01-4.20021E-05-8.59577E-01-3.68013E-14-1.66557E-13
 -1       964 1.90143E+01 8.88263E-01-3.04494E-05-7.01037E-01-3.60691E-14-2.09178E-13
 -1       965 1.92547E+01 7.89124E-01-3.20634E-05-5.70182E-01 6.71375E-15 6.86773E-14
 -1       966 1.94450E+01 6.80443E-01-3.33351E-05-4.60007E-01-4.39772E-14 2.32589E-13
 -1       967 1.95936E+01 5.72523E-01-2.91132E-05-3.66786E-01 4.11396E-14 1.66832E-13
 -1       968 1.97078E+01 4.71864E-01-1.06197E-05-2.88241E-01 2.03427E-13 1.45279E-13
 -1       969 1.97944E+01 3.81713E-01-7.60496E-06-2.22808E-01 1.08108E-13 1.00240E-13
 -1       970 1.98589E+01 3.03578E-01-8.33151E-06-1.69063E-01 2.05058E-13 3.95691E-13
 -1       971 1.99062E+01 2.37438E-01-8.00513E-06-1.25652E-01 1.33398E-13 3.26741E-13
 -1       972 1.99401E+01 1.82666E-01-8.11385E-06-9.12250E-02 1.86357E-13 1.54492E-13
 -1       973 1.99636E+01 1.38213E-01-6.91572E-06-6.45059E-02-2.35672E-14 6.99768E-14
 -1       974 1.99793E+01 1.02482E-01 2.89894E-07-4.39723E-02-1.31785E-14-2.42515E-13
 -1       975 1.99110E+01 7.72556E-01-2.89952E-05-5.85463E-01 1.01491E-13-1.96308E-13
 -1       976 1.90220E+01 1.30114E-01-8.11451E-05 1.73936E+00-2.26553E-13 2.97724E-13
 -1       977 1.91297E+01-3.84044E-01 1.18210E-03 2.14250E+00-5.32128E-13 2.77031E-13
 -1       978 1.95181E+01-1.18717E+00 1.64841E-03 2.59748E+00-5.01230E-13 1.55449E-13
 -1       979 1.90587E+01 4.35527E-01-1.20516E-04 1.40745E+00 3.53487E-15 3.51659E-13
 -1       980 1.91664E+01 5.88664E-01-7.64972E-05 1.13849E+00 1.12995E-13 1.78085E-13
 -1       981 1.92983E+01 6.42667E-01-5.98874E-05 9.19925E-01 1.83047E-13 1.51226E-14
 -1       982 1.94316E+01 6.32717E-01-3.95258E-05 7.39928E-01 1.39868E-13-1.17697E-13
 -1       983 1.95537E+01 5.85106E-01-2.05020E-05 5.90810E-01-6.23524E-14-2.36174E-13
 -1       984 1.96595E+01 5.17511E-01-2.18274E-05 4.67131E-01-1.20658E-13-2.55029E-13
 -1       985 1.97470E+01 4.42913E-01 3.20927E-06 3.64968E-01-2.38824E-13-7.91810E-14
 -1       986 1.98172E+01 3.68797E-01-9.91052E-06 2.81186E-01 3.04526E-14-2.03213E-14
 -1       987 1.98718E+01 3.00190E-01-1.32927E-05 2.13213E-01-8.94643E-14-1.29679E-13
 -1       988 1.99133E+01 2.39330E-01-1.14082E-05 1.58704E-01-2.61812E-13-2.09402E-13
 -1       989 1.99438E+01 1.87120E-01-1.37052E-05 1.15654E-01 9.22348E-15-2.25468E-13
 -1       990 1.99656E+01 1.43548E-01-9.09626E-06 8.22703E-02-2.09422E-13-7.37273E-14
 -1       991 1.99805E+01 1.07905E-01 2.93942E-05 5.66385E-02-9.07345E-14-2.89879E-13
 -1       992 1.99813E+01 8.23503E-02 8.14082E-07 1.90355E-02-2.67218E-14-5.77977E-13
 -1       993 1.99645E+01 1.14826E-01 3.27774E-06-1.92488E-02 1.04458E-13 1.05061E-13
 -1       994 2.02343E+01 9.31952E-01-1.91200E-04-1.61531E-01 2.22081E-13-1.62863E-13
 -1       995 1.39396E+01 5.45385E-01 2.13790E-02-1.91965E+00-1.16278E-13-4.10841E-13
 -1       996 1.97536E+01 7.02074E-01-1.05586E-05-7.65200E-01 1.47248E-17-2.06950E-13
 -1       997 1.53660E+01 2.93864E-01 1.58553E-02 2.40423E+00 2.73073E-13-3.26801E-13
 -1       998 1.90959E+01 2.05644E-01-2.10044E-04-1.70326E+00 1.76476E-14-9.30479E-14
 -1       999 2.00440E+01 1.15906E+00 6.65655E-04 1.91261E-01-1.01931E-13-2.29972E-13
 -1      1000 1.69374E+01-5.96222E-01 2.00684E-02-3.14249E+00-1.99791E-13-1.65522E-13
 -1      1001 2.00192E+01 1.72956E+00 1.67582E-04-5.52342E-02-3.78847E-14-3.19770E-13
 -1      1002 1.97304E+01 9.10107E-01 1.35678E-05 5.14330E-01-5.67768E-14-1.59656E-13
 -1      1003 1.72088E+01-8.81621E-01 1.75205E-02-3.38294E+00 3.29341E-13 2.00525E-14
 -1      1004 2.02443E+01-2.09526E+00 4.48439E-03 2.92791E+00-2.18348E-13-5.85311E-14
 -1      1005 2.00365E+01 8.95966E-01-1.98160E-04-3.99061E-01 1.29912E-13-2.17549E-13
 -1      1006 1.36578E+01 1.06539E+00 2.23049E-02 7.58742E-03-2.10815E-13 5.89318E-13
 -1      1007 1.48351E+01 7.94032E-01 8.71099E-03 1.41788E+00 1.49903E-13-3.20817E-13
 -1      1008 1.95759E+01 6.49529E-01-8.63048E-06-9.51422E-01 2.30751E-14-1.59754E-13
 -1      1009 1.90851E+01-2.11638E-01-3.34086E-04-2.07645E+00-8.92538E-14-8.98278E-14
 -1      1010 2.00635E+01 1.32051E+00-2.89868E-04-1.02431E-01 1.84007E-13-2.41426E-13
 -1      1011 1.82042E+01-1.03237E+00 8.07098E-03 3.08109E+00-4.70627E-13 6.50267E-13
 -1      1012 1.92192E+01 4.48222E-01-6.66991E-05-1.40297E+00-5.44021E-15-9.68674E-14
 -1      1013 1.99881E+01 1.45278E+00 7.96663E-05-6.14598E-02 1.01425E-13-3.19714E-13
 -1      1014 1.93239E+01-8.74035E-01 3.62879E-03-2.53735E+00-2.04257E-13-1.09578E-13
 -1      1015 1.99609E+01 1.18230E-01 2.56724E-05 1.35817E-04 9.25612E-14-3.60367E-13
 -1      1016 1.99628E+01 1.26131E-01-5.68401E-06 4.09106E-02-1.65599E-13-7.36356E-13
 -1      1017 1.85289E+01 7.67154E-01-3.21586E-04 1.09605E+00 1.30829E-13 4.68841E-13
 -1      1018 1.87528E+01 1.02980E+00-2.67571E-04 5.17905E-01 4.51989E-14-9.16770E-14
 -1      1019 1.82425E+01 1.06806E+00-2.62671E-04 6.11712E-01 7.63925E-14-1.04513E-13
 -1      1020 1.76014E+01 1.08278E+00 2.31386E-06 7.34308E-01 5.17157E-14-1.48811E-13
 -1      1021 1.67957E+01 1.05649E+00-4.94698E-04 9.28587E-01 1.24941E-13-1.91509E-13
 -1      1022 1.79533E+01 3.12490E-01-4.17562E-04 1.86841E+00-4.83121E-13 4.09529E-13
 -1      1023 1.99581E+01 1.25796E-01 2.87434E-05 1.98193E-02-2.10091E-13-2.87414E-13
 -1      1024 1.59602E+01 1.03981E+00 5.07365E-03-1.23553E+00 1.21785E-13-1.00570E-13
 -1      1025 1.68856E+01 1.13765E+00 4.04349E-04-9.15468E-01 1.24975E-14-1.07381E-13
 -1      1026 1.75956E+01 1.16696E+00-4.93213E-04-7.15763E-01 5.14821E-15-1.40199E-13
 -1      1027 1.81484E+01 1.12140E+00-1.93687E-04-5.81318E-01 1.54250E-13-7.14990E-14
 -1      1028 1.85743E+01 1.03983E+00-3.33632E-04-4.79871E-01 1.04366E-14 3.89075E-14
 -1      1029 1.89127E+01 9.31142E-01-1.72265E-04-3.97173E-01 1.44983E-13 1.26105E-13
 -1      1030 1.91788E+01 8.11663E-01-1.28295E-04-3.27017E-01-8.70310E-14-3.72833E-14
 -1      1031 1.93877E+01 6.90930E-01-6.52784E-05-2.66318E-01-7.11984E-14-7.72492E-14
 -1      1032 1.95494E+01 5.76862E-01-5.29385E-06-2.14009E-01 1.83085E-14 4.60251E-14
 -1      1033 1.96745E+01 4.71863E-01-4.97192E-05-1.68749E-01 1.38974E-13 1.43337E-15
 -1      1034 1.97693E+01 3.79849E-01-7.41347E-05-1.30516E-01 2.82581E-13-1.28579E-13
 -1      1035 1.98406E+01 3.00426E-01-5.93909E-05-9.88414E-02 2.66660E-13-6.40862E-14
 -1      1036 1.98932E+01 2.33607E-01-4.36948E-05-7.32324E-02 1.54591E-13 1.64766E-15
 -1      1037 1.99304E+01 1.79020E-01-6.48860E-05-5.30199E-02 1.31200E-14-1.12757E-13
 -1      1038 1.99493E+01 1.44761E-01-7.04540E-06-3.33570E-02-1.09964E-13 1.78254E-14
 -1      1039 1.82363E+01 6.22100E-01-5.12082E-04 1.42548E+00-2.45983E-13 4.37840E-13
 -1      1040 1.87978E+01 8.14324E-01-3.97215E-04 8.55348E-01 3.41446E-13 3.26462E-13
 -1      1041 1.90394E+01 7.94035E-01-2.00118E-04 6.69746E-01 2.08846E-13 2.27963E-13
 -1      1042 1.92475E+01 7.33277E-01-9.55528E-05 5.25989E-01 1.22821E-13 2.05206E-13
 -1      1043 1.94215E+01 6.51282E-01-8.85985E-05 4.11008E-01-1.10860E-13 1.51982E-13
 -1      1044 1.95639E+01 5.60797E-01 2.60257E-05 3.20053E-01-2.11158E-13 1.35171E-13
 -1      1045 1.96778E+01 4.70568E-01-3.78052E-05 2.46098E-01-9.73555E-14-9.39654E-14
 -1      1046 1.97674E+01 3.86251E-01-7.46056E-05 1.87285E-01-8.98817E-14 1.37583E-13
 -1      1047 1.98364E+01 3.10739E-01-7.11840E-05 1.40185E-01-8.25900E-14 1.48711E-13
 -1      1048 1.98885E+01 2.45114E-01-5.02194E-05 1.03082E-01-1.90677E-13-3.98520E-14
 -1      1049 1.99265E+01 1.90027E-01-3.43035E-05 7.45288E-02 4.97630E-15-2.17255E-13
 -1      1050 1.99466E+01 1.56140E-01-2.51966E-05 5.60479E-02 2.10477E-13-7.02765E-13
 -1      1051 1.94855E+01 9.93485E-01-2.20691E-04 3.54662E-01-4.21734E-14-1.60701E-13
 -1      1052 1.99625E+01 1.29710E+00 2.07232E-04 9.90263E-02-3.33087E-14-2.29936E-13
 -1      1053 1.91613E+01 9.96196E-01-2.38882E-04 4.35817E-01-2.18137E-15-1.24749E-13
 -1      1054 1.93910E+01 5.78927E-01-1.68257E-05-1.15853E+00 3.42946E-14-1.50845E-13
 -1      1055 1.75894E+01 1.12317E-02 2.22058E-03-2.29673E+00-1.17426E-13-1.37710E-13
 -1      1056 1.57161E+01 8.17803E-01 7.54755E-03-1.37923E+00-7.09755E-14-2.14292E-13
 -1      1057 1.48007E+01 1.05402E+00 9.64024E-03-1.51978E-01 4.71803E-14-2.46835E-13
 -1      1058 1.97366E+01 1.04413E+00-1.25058E-04 2.66576E-01-4.33879E-14-1.67220E-13
 -1      1059 1.56283E+01 4.63962E-01 2.62441E-03 2.07284E+00-3.20237E-13 6.24886E-13
 -1      1060 1.96755E+01 8.75577E-01-1.15625E-04-5.14046E-01 4.50335E-14-1.79780E-13
 -1      1061 1.99551E+01 1.50219E+00-6.59893E-04-1.48414E-02 8.78376E-14-2.61147E-13
 -1      1062 1.79274E+01-2.13283E-01 1.23124E-03 2.42051E+00-4.11149E-13 4.23134E-13
 -1      1063 1.98620E+01 9.70796E-01-1.98683E-04-3.69566E-01 8.09457E-14-1.92908E-13
 -1      1064 1.51041E+01 9.92431E-01-2.82867E-03 1.09457E+00-2.60595E-13 4.27468E-13
 -1      1065 2.00977E+01 9.38300E-01-1.90276E-04-3.26306E-01 1.40358E-13-2.36052E-13
 -1      1066 1.99409E+01 1.52172E-01-7.99082E-06-7.43477E-03 3.50363E-13-3.80036E-13
 -1      1067 1.68162E+01 1.00477E-01 1.89172E-03 2.38228E+00-3.19954E-13 5.86106E-13
 -1      1068 1.94391E+01 8.27695E-01-1.18297E-04-6.66879E-01-8.22777E-15-1.30389E-13
 -1      1069 1.85012E+01 6.22540E-01-7.32403E-04-1.33968E+00 5.51090E-16-1.44404E-13
 -1      1070 1.99534E+01 1.17008E+00-3.92552E-04-1.97941E-01 1.14298E-13-2.34771E-13
 -1      1071 1.81484E+01 3.87844E-01-2.53095E-03-1.72936E+00-4.25674E-14-1.42843E-13
 -1      1072 1.55117E+01 5.15230E-01 3.98683E-03-2.17453E+00 1.06984E-13-2.82946E-14
 -1      1073 1.77528E+01 1.13435E+00 2.66648E-04 8.11100E-02 1.71740E-14-1.21980E-13
 -1      1074 1.69514E+01 1.16012E+00-4.82757E-03 5.73708E-02 2.79457E-14-1.22429E-13
 -1      1075 1.89242E+01 8.81821E-01-4.08308E-04 3.86117E-01 1.98227E-13 6.97818E-13
 -1      1076 1.59836E+01 1.25784E+00-4.20174E-03-1.21341E-01 7.20581E-14 2.30487E-13
 -1      1077 1.69703E+01 1.25822E+00 4.21262E-03-1.24988E-01 5.68563E-14 1.56804E-13
 -1      1078 1.76749E+01 1.20858E+00 4.53033E-04-1.28999E-01 2.37158E-14 1.52607E-13
 -1      1079 1.81921E+01 1.13956E+00-2.20696E-04-1.28555E-01 8.87616E-14 9.01823E-14
 -1      1080 1.86118E+01 1.03219E+00-4.00719E-04-1.27808E-01-9.95711E-15-1.78340E-13
 -1      1081 1.89516E+01 9.10550E-01 1.32778E-03-1.19499E-01-3.33999E-14-2.43921E-13
 -1      1082 1.92120E+01 7.81929E-01 5.60300E-04-1.06467E-01 4.67542E-14 5.37905E-14
 -1      1083 1.94093E+01 6.62355E-01 3.00882E-06-9.15381E-02 8.92247E-14 2.67791E-13
 -1      1084 1.95646E+01 5.50332E-01 2.95732E-04-7.40991E-02 1.13957E-13 2.48097E-13
 -1      1085 1.96829E+01 4.49340E-01-2.05034E-05-6.01190E-02 2.12432E-13 2.09027E-13
 -1      1086 1.97760E+01 3.59214E-01-2.76811E-05-4.78845E-02 1.69503E-13-1.00221E-13
 -1      1087 1.98455E+01 2.82538E-01-1.84240E-05-3.70405E-02 1.78748E-13-4.33652E-13
 -1      1088 1.98976E+01 2.18228E-01 2.10205E-04-2.78640E-02 5.93997E-14-6.05725E-13
 -1      1089 1.99222E+01 1.82781E-01 1.94292E-04-1.62518E-02 9.23174E-14-5.32372E-13
 -1      1090 1.86198E+01 9.60340E-01 6.80416E-05 5.12749E-01 6.80083E-14 4.26472E-13
 -1      1091 1.91885E+01 7.78603E-01 1.29685E-03 2.91438E-01 7.64772E-14 7.09559E-13
 -1      1092 1.93807E+01 6.72810E-01 3.46609E-05 2.23904E-01 8.54749E-15 2.33550E-13
 -1      1093 1.95405E+01 5.67745E-01 5.95286E-04 1.70954E-01 3.86371E-14 1.40663E-13
 -1      1094 1.96583E+01 4.71772E-01 7.96476E-06 1.30014E-01-1.01428E-13 3.74645E-14
 -1      1095 1.97547E+01 3.82261E-01-4.98049E-06 9.63286E-02-1.71331E-13-2.47491E-13
 -1      1096 1.98285E+01 3.04066E-01 7.36365E-06 7.13182E-02-5.41745E-14-1.39754E-13
 -1      1097 1.98836E+01 2.37380E-01-6.88613E-06 5.10996E-02 8.93196E-14-1.65709E-13
 -1      1098 1.95612E+01 1.06280E+00 3.02906E-05 9.29944E-02 1.96361E-15-1.42762E-13
 -1      1099 1.98882E+01 1.25976E+00-5.48525E-04-8.50710E-02 3.95407E-14-2.72782E-13
 -1      1100 1.92577E+01 1.03434E+00 1.66608E-04 1.07306E-01 3.67227E-15-8.91751E-14
 -1      1101 1.88678E+01 1.05231E+00 1.99538E-04 1.11112E-01 1.34326E-14-7.80012E-14
 -1      1102 1.82513E+01 1.00322E+00 2.70066E-04 6.84221E-01 1.48798E-13 4.94060E-14
 -1      1103 1.98151E+01 1.19005E+00-2.71665E-04 5.50605E-02-1.12389E-14-1.92536E-13
 -1      1104 1.88449E+01 7.39163E-01-2.58984E-04-1.05668E+00-2.26093E-14-1.47356E-13
 -1      1105 1.83763E+01 1.09306E+00 2.49701E-04 1.03229E-01 2.86851E-14-9.98787E-14
 -1      1106 1.91604E+01 7.93832E-01-1.40425E-04-8.41413E-01-1.57996E-14-1.37949E-13
 -1      1107 1.65271E+01 7.87248E-01 1.03535E-02 1.51963E+00-3.07104E-13 5.13147E-13
 -1      1108 1.99404E+01 1.56437E-01 3.34221E-05 2.79168E-02 2.20006E-13-1.79936E-13
 -1      1109 1.82113E+01 9.23569E-01-2.39962E-04-8.14718E-01 1.11484E-14-1.75261E-13
 -1      1110 1.97901E+01 1.07989E+00 1.93445E-03-2.22286E-01 4.31725E-14-1.73850E-13
 -1      1111 1.78404E+01 9.69869E-01 3.39360E-03 9.06094E-01-2.22846E-14 7.83764E-14
 -1      1112 1.99159E+01 1.95137E-01 3.02968E-04 3.74281E-02 3.40200E-13-1.43220E-13
 -1      1113 1.76294E+01 8.55542E-01-4.87633E-04-1.09133E+00-1.47258E-14-1.80074E-13
 -1      1114 1.71364E+01 7.33479E-01 2.39748E-03-1.40254E+00-6.38380E-14-2.04301E-13
 -1      1115 1.94108E+01 9.63854E-01-9.41944E-05-3.59832E-01 1.08071E-14-1.45177E-13
 -1      1116 1.92127E+01 7.71815E-01-9.95641E-04 7.27143E-02 3.49573E-13 3.73022E-13
 -1      1117 1.73889E+01 1.15404E+00-9.62490E-03 4.55843E-01 2.12602E-14 2.89760E-14
 -1      1118 1.94840E+01 6.03050E-01-7.83760E-04 5.13839E-02-4.73843E-14 3.60132E-13
 -1      1119 1.96680E+01 1.02219E+00-1.21631E-04-2.61537E-01 5.20736E-14-1.41196E-13
 -1      1120 1.86889E+01 9.43609E-01-1.91957E-04-6.19089E-01 7.55228E-15-1.42400E-13
 -1      1121 1.72244E+01 5.34867E-01-4.35036E-03 1.75693E+00-4.66949E-13 4.88654E-13
 -1      1122 1.90855E+01 9.47043E-01-1.53124E-04-4.73917E-01 1.40571E-14-1.37844E-13
 -1      1123 1.72198E+01 8.96855E-01 9.62428E-04 1.24495E+00-2.74200E-13 3.79306E-13
 -1      1124 1.99186E+01 1.84552E-01-2.59575E-04 1.49571E-02 3.82015E-13-1.15008E-13
 -1      1125 2.78144E+01 9.03476E+00 2.30133E+00-6.63036E+00-5.30687E-14 2.06946E-12
 -1      1126 2.05441E+01 6.22765E+00 2.14635E-01-3.83131E+00-3.07532E-14 4.00444E-13
 -1      1127 1.94726E+01 5.86581E+00 8.00642E-02-2.80000E+00-2.35229E-14-3.35751E-13
 -1      1128 1.90739E+01 5.74106E+00 6.29230E-02-2.13835E+00-1.50505E-14-6.88185E-13
 -1      1129 1.88802E+01 5.68147E+00 5.79634E-02-1.60595E+00-1.07588E-14-8.63516E-13
 -1      1130 1.87704E+01 5.64718E+00 5.35580E-02-1.15093E+00-6.87991E-15-9.35030E-13
 -1      1131 1.87049E+01 5.62651E+00 5.01057E-02-7.42998E-01-3.31506E-15-9.59119E-13
 -1      1132 1.86687E+01 5.61493E+00 4.77815E-02-3.60680E-01-3.52583E-16-9.62140E-13
 -1      1133 1.86573E+01 5.61130E+00 4.70271E-02 7.73065E-03 1.43310E-15-9.49025E-13
 -1      1134 1.86695E+01 5.61524E+00 4.79320E-02 3.76700E-01 4.94960E-15-9.20424E-13
 -1      1135 1.87066E+01 5.62712E+00 5.04150E-02 7.60766E-01 7.17482E-15-8.81487E-13
 -1      1136 1.87735E+01 5.64835E+00 5.43091E-02 1.17183E+00 9.64506E-15-8.00828E-13
 -1      1137 1.88840E+01 5.68278E+00 5.86013E-02 1.63180E+00 1.40651E-14-6.58661E-13
 -1      1138 1.90781E+01 5.74231E+00 6.29503E-02 2.17160E+00 1.92520E-14-4.26823E-13
 -1      1139 1.94685E+01 5.86282E+00 7.41974E-02 2.84074E+00 2.56115E-14-3.15199E-15
 -1      1140 2.04509E+01 6.18299E+00 1.58965E-01 3.80715E+00 2.69507E-14 8.03260E-13
 -1      1141 2.50969E+01 7.95374E+00 1.41545E+00 5.78499E+00 5.37903E-14 2.43730E-12
 -1      1142 2.86078E+01 3.57344E+00 1.24016E+00-4.17137E+00-2.27734E-13 3.13466E-12
 -1      1143 2.01672E+01-1.78523E-01-6.15886E-01-1.04167E-01-7.67650E-14 2.61277E-12
 -1      1144 1.88588E+01-9.74235E-02-2.35718E-01 6.30487E-02-3.63511E-14 1.84776E-12
 -1      1145 1.86045E+01-5.03771E-02-6.15624E-02 4.05765E-02-1.45006E-14 1.32062E-12
 -1      1146 1.86458E+01-2.82934E-02-1.93235E-02 2.70686E-02-1.53228E-14 9.74457E-13
 -1      1147 1.88542E+01-1.81834E-02-1.11187E-02 1.99162E-02-1.61739E-14 7.38794E-13
 -1      1148 1.91719E+01-1.33039E-02-9.74535E-03 1.59580E-02-4.88845E-15 5.62741E-13
 -1      1149 1.95740E+01-1.11751E-02-1.00212E-02 1.39994E-02-3.70710E-15 4.29635E-13
 -1      1150 2.00542E+01-1.05695E-02-1.11386E-02 1.35599E-02-3.78723E-15 2.15850E-13
 -1      1151 2.06162E+01-1.06316E-02-1.26698E-02 1.44942E-02-2.03290E-14-3.76088E-14
 -1      1152 2.12684E+01-1.05356E-02-1.38259E-02 1.67643E-02-1.16352E-14-3.44912E-13
 -1      1153 2.20172E+01-9.24159E-03-1.32224E-02 2.02338E-02 1.62042E-14-2.82368E-13
 -1      1154 2.28565E+01-5.32897E-03-8.61929E-03 2.43706E-02-4.10723E-15-3.43118E-13
 -1      1155 2.37532E+01 3.01241E-03 3.19626E-03 2.77641E-02-1.26897E-14-3.14193E-13
 -1      1156 2.46258E+01 1.75762E-02 2.57911E-02 2.74522E-02-1.20464E-14-3.44141E-13
 -1      1157 2.53204E+01 3.88599E-02 6.05720E-02 1.84232E-02-2.80045E-14-2.94674E-13
 -1      1158 2.56013E+01 6.32177E-02 1.01590E-01-5.53606E-03-1.13624E-14-3.65801E-13
 -1      1159 2.51886E+01 7.98457E-02 1.29523E-01-4.77659E-02-8.67362E-16-4.16320E-13
 -1      1160 2.38876E+01 7.03020E-02 1.12269E-01-1.00689E-01-3.53589E-14-6.74988E-13
 -1      1161 2.18102E+01 1.88115E-02 2.49417E-02-1.38670E-01-3.76797E-14-8.01664E-13
 -1      1162 1.95528E+01-6.44074E-02-1.11704E-01-1.26762E-01 2.27682E-15-7.29944E-13
 -1      1163 1.80589E+01-1.31764E-01-2.19259E-01-5.17151E-02-2.38698E-14-5.59983E-13
 -1      1164 1.80759E+01-1.31307E-01-2.18491E-01 5.27750E-02 1.62335E-14-5.96266E-13
 -1      1165 1.95996E+01-6.34627E-02-1.09855E-01 1.27285E-01-1.24466E-14-6.60527E-13
 -1      1166 2.18787E+01 1.91109E-02 2.59895E-02 1.38637E-01-9.69602E-15-8.73593E-13
 -1      1167 2.39726E+01 6.99176E-02 1.11787E-01 1.00372E-01-3.66616E-14-7.34635E-13
 -1      1168 2.52922E+01 7.88314E-02 1.27955E-01 4.75672E-02 4.28555E-14-6.07403E-13
 -1      1169 2.57318E+01 6.18497E-02 9.94078E-02 5.68224E-03-1.71391E-14-6.73643E-13
 -1      1170 2.54907E+01 3.72042E-02 5.81235E-02-1.77466E-02-5.70941E-15-7.72916E-13
 -1      1171 2.48519E+01 1.58090E-02 2.32265E-02-2.61926E-02-6.79968E-15-6.96620E-13
 -1      1172 2.40526E+01 1.16082E-03 5.05085E-04-2.58728E-02-4.47830E-14-9.00509E-13
 -1      1173 2.32478E+01-7.19181E-03-1.14676E-02-2.17328E-02 7.90524E-14-6.69784E-13
 -1      1174 2.25201E+01-1.09881E-02-1.61770E-02-1.66677E-02 2.43273E-15-5.00856E-13
 -1      1175 2.19031E+01-1.19453E-02-1.67387E-02-1.20256E-02-1.45562E-14-6.85662E-13
 -1      1176 2.14021E+01-1.13444E-02-1.52739E-02-8.26484E-03-4.88351E-14-1.07313E-12
 -1      1177 2.10078E+01-1.00148E-02-1.30284E-02-5.41935E-03 4.46112E-14-1.04648E-12
 -1      1178 2.07052E+01-8.44439E-03-1.06581E-02-3.36017E-03 1.43313E-14-1.06784E-12
 -1      1179 2.04782E+01-6.89613E-03-8.47064E-03-1.91989E-03-2.30394E-14-9.72156E-13
 -1      1180 2.03116E+01-5.49669E-03-6.58530E-03-9.43288E-04-3.85915E-14-9.96814E-13
 -1      1181 2.01922E+01-4.29486E-03-5.02601E-03-3.02915E-04-1.49547E-14-7.62279E-13
 -1      1182 2.01090E+01-3.29738E-03-3.77228E-03 9.99598E-05-8.80806E-14-7.50983E-13
 -1      1183 2.00531E+01-2.48985E-03-2.78573E-03 3.39384E-04-4.11309E-14-1.22168E-12
 -1      1184 2.00173E+01-1.84859E-03-2.02332E-03 4.69901E-04 5.13287E-14-1.00550E-12
 -1      1185 1.99964E+01-1.34670E-03-1.44335E-03 5.31313E-04-4.39167E-14-4.79021E-13
 -1      1186 1.99860E+01-9.57037E-04-1.00724E-03 5.52669E-04-2.30330E-14-6.54466E-13
 -1      1187 1.99829E+01-6.52522E-04-6.76595E-04 5.55498E-04 7.98358E-14-2.33644E-13
 -1      1188 1.99849E+01-4.04221E-04-4.01522E-04 5.54016E-04 3.39460E-14-1.00069E-13
 -1      1189 1.99898E+01-1.73217E-04-1.09509E-04 5.40593E-04 6.40449E-14 3.75584E-13
 -1      1190 1.99958E+01 3.89461E-05 3.06437E-04 4.90756E-04-4.41186E-14 6.08883E-13
 -1      1191 1.99995E+01 1.53171E-04 4.56763E-04 9.91209E-05 9.84597E-14 3.51029E-13
 -1      1192 2.76011E+01 5.20893E-01 3.56760E-01 1.95073E+00-4.13905E-14 3.76976E-12
 -1      1193 2.00327E+01-6.71694E-02-5.72668E-01 1.27380E-01 2.39600E-14 3.08503E-12
 -1      1194 1.89359E+01-4.21059E-02-1.93082E-01 1.95267E-02 1.41987E-14 2.42289E-12
 -1      1195 1.86357E+01-2.37711E-02-5.25634E-02 2.58103E-03 1.32351E-14 1.94541E-12
 -1      1196 1.86594E+01-1.56991E-02-1.72625E-02-2.35267E-03 6.12097E-15 1.56322E-12
 -1      1197 1.88578E+01-1.17021E-02-1.02185E-02-3.46666E-03 1.33697E-14 1.24554E-12
 -1      1198 1.91642E+01-9.66273E-03-9.19250E-03-3.56483E-03-3.46511E-15 1.15467E-12
 -1      1199 1.95486E+01-8.65212E-03-9.29553E-03-3.52455E-03-1.43332E-16 1.13416E-12
 -1      1200 1.99985E+01-8.06154E-03-9.65508E-03-3.75399E-03 2.64025E-15 9.19233E-13
 -1      1201 2.05094E+01-7.31409E-03-9.78911E-03-4.59267E-03-4.63713E-15 8.42553E-13
 -1      1202 2.10776E+01-5.73308E-03-8.89785E-03-6.38282E-03 2.67662E-14 6.73720E-13
 -1      1203 2.16938E+01-2.49564E-03-5.75913E-03-9.42440E-03 1.28878E-14 5.77066E-13
 -1      1204 2.23338E+01 3.28816E-03 1.22282E-03-1.38160E-02 8.68744E-15 5.51358E-13
 -1      1205 2.29486E+01 1.22546E-02 1.36768E-02-1.91322E-02-1.03820E-14 4.86784E-13
 -1      1206 2.34539E+01 2.40870E-02 3.23067E-02-2.39304E-02-1.18399E-14 5.33738E-13
 -1      1207 2.37260E+01 3.64564E-02 5.50716E-02-2.52650E-02 2.10717E-14 4.40852E-13
 -1      1208 2.36148E+01 4.41403E-02 7.49301E-02-1.88124E-02-2.23814E-14 4.98955E-13
 -1      1209 2.29902E+01 3.98724E-02 7.92714E-02-6.99431E-04-8.42555E-15 5.09197E-13
 -1      1210 2.18268E+01 1.85859E-02 5.46441E-02 2.85455E-02-4.03453E-15 3.28987E-13
 -1      1211 2.03005E+01-1.61196E-02-1.94559E-03 5.99852E-02-5.67630E-15 7.49123E-14
 -1      1212 1.88190E+01-4.92273E-02-7.24434E-02 7.72067E-02 8.02526E-15 1.28855E-13
 -1      1213 1.78997E+01-6.27357E-02-1.21811E-01 6.65940E-02-3.41289E-14 8.76799E-14
 -1      1214 1.79106E+01-5.06480E-02-1.22737E-01 2.92022E-02 1.94272E-14-2.08167E-15
 -1      1215 1.88495E+01-2.24301E-02-7.66980E-02-1.73818E-02 9.09862E-15-3.08496E-13
 -1      1216 2.03474E+01 5.14523E-03-1.22577E-02-5.19830E-02 7.89830E-15-7.73270E-14
 -1      1217 2.18899E+01 2.17776E-02 3.86316E-02-6.35630E-02 2.64376E-14-1.07414E-13
 -1      1218 2.30751E+01 2.63654E-02 6.14242E-02-5.53725E-02-3.42929E-14-2.00777E-13
 -1      1219 2.37321E+01 2.30173E-02 5.95912E-02-3.74523E-02-1.75172E-14-2.33352E-13
 -1      1220 2.38889E+01 1.63999E-02 4.46600E-02-1.88988E-02-5.47392E-15-2.82472E-13
 -1      1221 2.36773E+01 9.64582E-03 2.69355E-02-4.55585E-03 1.84382E-14-3.34786E-13
 -1      1222 2.32484E+01 4.20828E-03 1.21181E-02 4.45723E-03-1.81518E-14-3.80203E-13
 -1      1223 2.27273E+01 4.31474E-04 1.94819E-03 8.98900E-03 3.18931E-14-4.50018E-13
 -1      1224 2.21996E+01-1.87543E-03-3.98971E-03 1.04531E-02-3.54724E-16-5.50775E-14
 -1      1225 2.17152E+01-3.07474E-03-6.83489E-03 1.01201E-02 1.92838E-14 6.39939E-15
 -1      1226 2.12977E+01-3.52238E-03-7.70823E-03 8.90127E-03-5.51713E-14 7.96498E-15
 -1      1227 2.09536E+01-3.50336E-03-7.46048E-03 7.36661E-03-3.39322E-14-3.27953E-13
 -1      1228 2.06799E+01-3.22302E-03-6.65734E-03 5.83471E-03 5.33234E-14-1.14053E-12
 -1      1229 2.04685E+01-2.81909E-03-5.64359E-03 4.46139E-03-1.57292E-14-1.20118E-12
 -1      1230 2.03098E+01-2.37836E-03-4.61412E-03 3.30605E-03-7.52729E-15-7.76180E-13
 -1      1231 2.01939E+01-1.95181E-03-3.66919E-03 2.37526E-03 2.03908E-14-7.89910E-13
 -1      1232 2.01119E+01-1.56638E-03-2.85228E-03 1.64939E-03-3.70038E-14-3.79046E-13
 -1      1233 2.00560E+01-1.23356E-03-2.17437E-03 1.09797E-03-3.30557E-14 4.09233E-13
 -1      1234 2.00199E+01-9.55394E-04-1.62912E-03 6.88125E-04 1.33098E-14 1.93161E-13
 -1      1235 1.99983E+01-7.28236E-04-1.20196E-03 3.88493E-04-4.65121E-15-1.24975E-13
 -1      1236 1.99874E+01-5.43832E-04-8.73469E-04 1.70022E-04 8.89366E-15-4.92880E-13
 -1      1237 1.99839E+01-3.88309E-04-6.17186E-04 5.41364E-06 2.50772E-14-1.16183E-12
 -1      1238 1.99854E+01-2.41715E-04-3.91969E-04-1.31864E-04 3.24426E-14-1.08990E-12
 -1      1239 1.99901E+01-6.62454E-05-1.21524E-04-2.71041E-04-1.96244E-14-7.38102E-13
 -1      1240 1.99959E+01 2.02223E-04 3.01168E-04-4.06526E-04 1.32828E-13-6.30151E-13
 -1      1241 1.99995E+01 1.12272E-04 4.50329E-04-1.05909E-04 1.10880E-15-6.94242E-13
 -1      1242 1.99999E+01-3.53614E-04 3.97369E-04-1.43469E-04-7.53220E-13-1.04637E-13
 -1      1243 1.99998E+01-3.92410E-03 1.71470E-04-4.05571E-04-1.09208E-12-5.11609E-14
 -1      1244 1.99997E+01-8.85725E-03-2.07408E-04-3.63619E-04-4.29583E-13-4.31885E-14
 -1      1245 1.99996E+01-1.22007E-02-3.32284E-04-2.15718E-04-4.03563E-13-6.25043E-14
 -1      1246 1.99996E+01-1.32914E-02-2.69139E-04-8.36112E-05 2.44451E-13 6.09253E-14
 -1      1247 1.99997E+01-1.26362E-02-1.29438E-04 8.50335E-07-1.78237E-13-5.91022E-14
 -1      1248 1.99998E+01-1.11781E-02 1.77868E-05 3.19901E-05-4.92513E-13 4.87160E-14
 -1      1249 1.99999E+01-9.86981E-03 1.23747E-04 2.44913E-05-6.82061E-13 7.62059E-14
 -1      1250 1.99999E+01-9.42391E-03 1.59887E-04-4.65288E-06 1.61154E-14 1.44528E-13
 -1      1251 1.99999E+01-1.00810E-02 1.17150E-04-3.28479E-05 1.16342E-12 1.94044E-14
 -1      1252 1.99998E+01-1.15568E-02 5.53514E-06-3.71228E-05 6.37539E-13-1.28865E-13
 -1      1253 1.99997E+01-1.31008E-02-1.44119E-04 4.53192E-08-5.46203E-13-9.01974E-15
 -1      1254 1.99996E+01-1.37398E-02-2.85045E-04 8.85623E-05-1.41495E-12 7.99046E-14
 -1      1255 1.99996E+01-1.25182E-02-3.38508E-04 2.28204E-04-1.06755E-12 1.29117E-15
 -1      1256 1.99997E+01-8.95150E-03-1.68071E-04 4.38951E-04-1.64228E-12-1.35698E-14
 -1      1257 1.99999E+01-3.85158E-03 2.56540E-04 5.75712E-04-1.00035E-12-8.77910E-14
 -1      1258 1.99999E+01-4.43329E-04 3.58758E-04 2.00916E-04-2.58132E-13 2.21091E-13
 -1      1259-1.09760E+00-2.35984E+01-3.66850E+00-2.17088E+00 1.00520E-12 3.23318E-13
 -1      1260-1.70409E+00-1.48170E+01-3.00399E+00-4.00950E+00 3.85914E-12 1.59894E-12
 -1      1261 5.80034E-01-1.88851E+00-1.76064E+00 2.35687E-01 5.25313E-12 3.23552E-12
 -1      1262 9.45553E+00 8.02433E+00-2.41046E-01 8.63533E+00 4.79083E-12 4.47753E-12
 -1      1263 2.55375E+01 1.10960E+01 1.42181E+00 1.60880E+01 2.88225E-12 3.94795E-12
 -1      1264 4.52683E+01 8.28843E+00 2.88618E+00 1.74912E+01 1.36530E-12 2.89413E-12
 -1      1265 6.15761E+01 3.41862E+00 3.90977E+00 1.06444E+01 3.60767E-13 1.16129E-12
 -1      1266 6.66066E+01 1.91277E+00 4.28616E+00-1.89511E+00 2.00354E-13-6.78874E-13
 -1      1267 5.77680E+01 5.03500E+00 3.79139E+00-1.33204E+01 9.94399E-13-2.99138E-12
 -1      1268 3.85821E+01 9.78990E+00 2.52820E+00-1.77169E+01 2.28784E-12-4.32121E-12
 -1      1269 1.78319E+01 1.03719E+01 7.66151E-01-1.29030E+01 3.28959E-12-3.98481E-12
 -1      1270 4.11297E+00 3.71100E+00-9.93024E-01-4.09640E+00 3.58846E-12-2.84883E-12
 -1      1271-1.25232E+00-8.42153E+00-2.43918E+00 2.62037E+00 2.89613E-12-1.51335E-12
 -1      1272-1.40069E+00-2.04646E+01-3.43270E+00 3.70260E+00 1.18083E-12-4.40134E-13
 -1      1273-9.30470E-01-2.51485E+01-3.79459E+00-1.98759E-01-1.08380E-12-2.06300E-13
 -1      1274-1.61628E+00-1.99620E+01-3.45296E+00-3.88556E+00-3.08265E-12-8.82849E-13
 -1      1275-1.20243E+00-7.80051E+00-2.45873E+00-2.44011E+00-4.18821E-12-2.18181E-12
 -1      1276 4.51057E+00 4.03422E+00-1.01724E+00 4.51204E+00-3.91509E-12-3.15148E-12
 -1      1277 1.79701E+01 1.04002E+01 6.51424E-01 1.32461E+01-3.00759E-12-3.53451E-12
 -1      1278 3.77184E+01 9.79152E+00 2.30943E+00 1.80937E+01-1.55731E-12-2.70450E-12
 -1      1279 5.70560E+01 5.20406E+00 3.71434E+00 1.45388E+01-4.64517E-13-1.14231E-12
 -1      1280 6.68033E+01 2.10477E+00 4.26197E+00 3.06618E+00-1.39382E-13 9.03472E-13
 -1      1281 6.34570E+01 3.12489E+00 4.11245E+00-1.00048E+01-6.23578E-13 2.97540E-12
 -1      1282 4.70894E+01 7.83868E+00 2.98766E+00-1.75030E+01-1.95394E-12 4.66804E-12
 -1      1283 2.49914E+01 1.06946E+01 1.29958E+00-1.54612E+01-3.46023E-12 4.98890E-12
 -1      1284 7.80857E+00 6.66956E+00-5.06059E-01-7.16649E+00-4.44667E-12 4.14291E-12
 -1      1285-1.71063E-01-3.66070E+00-2.02247E+00 7.62627E-01-4.08251E-12 2.50866E-12
 -1      1286-1.83085E+00-1.58962E+01-3.13940E+00 4.26752E+00-3.30314E-12 1.19693E-12
 -1      1287-1.11906E+00-2.39021E+01-3.70682E+00 2.19964E+00-1.27970E-12 3.86496E-13
 -1      1288 2.21941E+01 1.83584E+00-7.20244E-01-2.74936E+00-8.41549E-14 1.72207E-12
 -1      1289 2.03804E+01 4.68217E+00-4.63236E-02-3.22517E+00-2.48718E-13 5.49560E-14
 -1      1290 2.08631E+01 4.79281E+00-1.09774E-01-4.08270E+00-3.13388E-13 4.42313E-13
 -1      1291 1.95791E+01 4.99689E+00-1.85972E-02-2.55834E+00-2.48988E-13-4.94653E-13
 -1      1292 1.98688E+01 5.09036E+00 2.88042E-03-2.95435E+00-2.84342E-13-2.56545E-13
 -1      1293 2.05612E+01 3.94407E+00-2.45955E-02-2.98128E+00-4.38018E-13 5.02376E-14
 -1      1294 1.92322E+01 5.09633E+00-3.44220E-03-1.96946E+00-2.03105E-13-7.66907E-13
 -1      1295 1.93836E+01 5.15226E+00 1.25459E-02-2.26382E+00-2.37636E-13-6.45751E-13
 -1      1296 1.98065E+01 4.37451E+00-2.26986E-02-2.38701E+00-3.94476E-13-3.99195E-13
 -1      1297 1.90408E+01 5.14997E+00 2.63049E-03-1.46860E+00-1.52739E-13-8.99100E-13
 -1      1298 1.91282E+01 5.18238E+00 1.40298E-02-1.71446E+00-1.72504E-13-8.39925E-13
 -1      1299 1.94355E+01 4.57894E+00-1.85829E-02-1.82717E+00-3.11323E-13-6.34000E-13
 -1      1300 1.89262E+01 5.18440E+00 5.21385E-03-1.03663E+00-1.02102E-13-9.51669E-13
 -1      1301 1.89796E+01 5.20406E+00 1.32230E-02-1.24919E+00-1.20296E-13-9.26566E-13
 -1      1302 1.92265E+01 4.69984E+00-1.52103E-02-1.34976E+00-2.25358E-13-7.42722E-13
 -1      1303 1.88553E+01 5.20751E+00 6.57997E-03-6.38149E-01-5.06760E-14-9.64116E-13
 -1      1304 1.88877E+01 5.21921E+00 1.17289E-02-8.35254E-01-6.69811E-14-9.58799E-13
 -1      1305 1.90988E+01 4.77684E+00-1.31518E-02-9.28331E-01-1.44916E-13-7.91010E-13
 -1      1306 1.88188E+01 5.22162E+00 7.69714E-03-2.64518E-01 1.70697E-15-9.63930E-13
 -1      1307 1.88341E+01 5.22704E+00 1.01656E-02-4.50884E-01-1.48861E-14-9.62451E-13
 -1      1308 1.90221E+01 4.82385E+00-1.20665E-02-5.40096E-01-5.79959E-14-7.95090E-13
 -1      1309 1.88125E+01 5.22773E+00 8.89398E-03 9.90880E-02 4.05782E-14-9.47025E-13
 -1      1310 1.88122E+01 5.22757E+00 8.78707E-03-8.39726E-02 2.66649E-14-9.59708E-13
 -1      1311 1.89861E+01 4.84580E+00-1.16094E-02-1.72894E-01 2.55955E-14-7.95738E-13
 -1      1312 1.88357E+01 5.22634E+00 1.03012E-02 4.66831E-01 8.96379E-14-9.19008E-13
 -1      1313 1.88198E+01 5.22061E+00 7.61700E-03 2.79886E-01 6.94952E-14-9.36307E-13
 -1      1314 1.89870E+01 4.84481E+00-1.16386E-02 1.87801E-01 8.95481E-14-7.77951E-13
 -1      1315 1.88908E+01 5.21738E+00 1.18440E-02 8.53189E-01 1.29911E-13-8.77087E-13
 -1      1316 1.88577E+01 5.20556E+00 6.52937E-03 6.54849E-01 1.18979E-13-9.06554E-13
 -1      1317 1.90248E+01 4.82084E+00-1.21536E-02 5.56043E-01 1.72930E-13-7.55750E-13
 -1      1318 1.89831E+01 5.20143E+00 1.33454E-02 1.26657E+00 1.72739E-13-7.82716E-13
 -1      1319 1.89291E+01 5.18144E+00 5.10239E-03 1.05232E+00 1.56469E-13-8.41587E-13
 -1      1320 1.91028E+01 4.77208E+00-1.31928E-02 9.42857E-01 2.34703E-13-7.00998E-13
 -1      1321 1.91348E+01 5.17762E+00 1.40342E-02 1.74076E+00 2.35723E-13-6.30343E-13
 -1      1322 1.90461E+01 5.14459E+00 2.31112E-03 1.49185E+00 2.08639E-13-7.18493E-13
 -1      1323 1.92327E+01 4.69204E+00-1.53602E-02 1.36752E+00 3.14474E-13-5.90063E-13
 -1      1324 1.93927E+01 5.14578E+00 1.21692E-02 2.29782E+00 2.90958E-13-3.69954E-13
 -1      1325 1.92394E+01 5.08798E+00-4.39971E-03 1.99944E+00 2.60965E-13-5.27033E-13
 -1      1326 1.94467E+01 4.56519E+00-1.91278E-02 1.85425E+00 4.00585E-13-4.23626E-13
 -1      1327 1.98934E+01 5.09891E+00 8.78804E-03 2.99329E+00 3.26066E-13 8.76174E-14
 -1      1328 1.95899E+01 4.98711E+00-1.94096E-02 2.60068E+00 2.95527E-13-1.88110E-13
 -1      1329 1.98247E+01 4.35314E+00-2.34828E-02 2.42511E+00 4.74343E-13-1.31957E-13
 -1      1330 2.10942E+01 4.88888E+00 1.03946E-02 3.97872E+00 2.71311E-13 9.47575E-13
 -1      1331 2.03547E+01 4.72518E+00-4.55888E-02 3.33424E+00 2.70062E-13 4.23481E-13
 -1      1332 2.05985E+01 3.90749E+00-2.09323E-02 3.08516E+00 4.82725E-13 3.81570E-13
 -1      1333 2.70667E+01 3.18060E+00 9.13123E-01 4.52565E+00 1.25178E-13 2.55046E-12
 -1      1334 2.19804E+01 3.50875E+00-1.79080E-01 3.82248E+00 1.30840E-13 1.44512E-12
 -1      1335 2.21005E+01 2.54861E+00-3.13234E-02 3.37889E+00 4.39279E-13 1.16582E-12
 -1      1336 2.13656E+01 3.56182E-01-7.59627E-01 1.15076E+00 2.33910E-13 2.46725E-12
 -1      1337 2.19527E+01 1.29255E-01-3.98973E-01-1.24695E+00-2.56323E-13 1.80786E-12
 -1      1338 2.06721E+01 3.04040E-01-1.62673E-01-7.73287E-01-2.40731E-13 1.51551E-12
 -1      1339 2.01033E+01 1.53669E-01-7.24945E-02-3.69743E-01-1.95240E-13 1.39246E-12
 -1      1340 1.96734E+01 9.23064E-02-1.39410E-02-2.97740E-01-1.91729E-13 1.10710E-12
 -1      1341 2.09994E+01 3.66666E-01-1.03809E-01-1.20982E+00-4.18679E-13 8.20181E-13
 -1      1342 1.93524E+01 6.67130E-02 3.54061E-03-9.93012E-02-1.45116E-13 1.00479E-12
 -1      1343 1.92427E+01 4.43701E-02 1.38288E-02-8.01402E-02-1.26676E-13 8.12649E-13
 -1      1344 2.00135E+01 1.35683E-01-3.57421E-02-4.35859E-01-3.20452E-13 6.39717E-13
 -1      1345 1.91275E+01 3.56115E-02 1.34985E-02 1.74935E-02-9.69030E-14 7.19893E-13
 -1      1346 1.91644E+01 2.43069E-02 1.15873E-02 2.91733E-02-1.03214E-13 5.81760E-13
 -1      1347 1.96159E+01 6.09054E-02-9.62025E-03-8.74503E-02-2.35995E-13 4.63320E-13
 -1      1348 1.91665E+01 2.20505E-02 8.95058E-03 8.51804E-02-6.97606E-14 5.25947E-13
 -1      1349 1.92836E+01 1.59325E-02 7.00864E-03 9.31315E-02-6.78043E-14 4.35273E-13
 -1      1350 1.95079E+01 3.31519E-02-5.14093E-03 9.61199E-02-1.54059E-13 3.15708E-13
 -1      1351 1.93596E+01 1.60059E-02 4.78013E-03 1.31174E-01-5.26107E-14 3.95597E-13
 -1      1352 1.95301E+01 1.24066E-02 4.25811E-03 1.37485E-01-3.39527E-14 3.26666E-13
 -1      1353 1.95823E+01 2.23533E-02-4.41506E-03 2.10007E-01-1.23414E-13 2.39384E-13
 -1      1354 1.96586E+01 1.36409E-02 2.42680E-03 1.67993E-01-4.78760E-14 3.00982E-13
 -1      1355 1.98720E+01 1.13923E-02 2.83087E-03 1.73888E-01-6.09614E-14 2.16247E-13
 -1      1356 1.97795E+01 1.86310E-02-4.11388E-03 2.93222E-01-9.20735E-14 1.66590E-13
 -1      1357 2.00430E+01 1.33320E-02 1.08701E-03 2.02340E-01-6.71626E-14 1.81863E-13
 -1      1358 2.02973E+01 1.17108E-02 1.95607E-03 2.08561E-01-7.16035E-14 6.39280E-14
 -1      1359 2.00699E+01 1.84659E-02-3.98623E-03 3.64725E-01-1.32591E-13 1.03377E-13
 -1      1360 2.05068E+01 1.40738E-02 1.20179E-04 2.37752E-01-7.38303E-14 4.58713E-14
 -1      1361 2.08040E+01 1.24501E-02 1.22442E-03 2.44660E-01-1.05494E-13-8.93244E-14
 -1      1362 2.04400E+01 2.00886E-02-4.06693E-03 4.34485E-01-1.33199E-13 4.38909E-14
 -1      1363 2.10507E+01 1.49014E-02-7.72562E-04 2.75162E-01-8.03817E-14-8.73156E-14
 -1      1364 2.13932E+01 1.25526E-02 4.48153E-04 2.82656E-01-1.50930E-14-1.64351E-13
 -1      1365 2.08847E+01 2.19510E-02-4.25694E-03 5.06656E-01-1.30826E-13 2.66358E-14
 -1      1366 2.16753E+01 1.45357E-02-1.67019E-03 3.12367E-01 1.63944E-14-2.03540E-13
 -1      1367 2.20621E+01 1.05223E-02-4.12677E-04 3.19654E-01-2.42430E-14-2.05027E-13
 -1      1368 2.14013E+01 2.20429E-02-4.31541E-03 5.79607E-01-3.96562E-14-3.17979E-14
 -1      1369 2.23742E+01 1.10758E-02-2.43758E-03 3.42680E-01-3.25058E-14-2.20820E-13
 -1      1370 2.27944E+01 4.20386E-03-1.20144E-03 3.47878E-01-1.60219E-14-2.44587E-13
 -1      1371 2.19832E+01 1.73379E-02-3.83949E-03 6.44089E-01-4.18797E-14-1.78573E-13
 -1      1372 2.31227E+01 1.80498E-03-2.62626E-03 3.53022E-01 1.95536E-14-2.43206E-13
 -1      1373 2.35475E+01-9.18049E-03-1.44067E-03 3.52642E-01-1.68307E-14-2.53932E-13
 -1      1374 2.26132E+01 3.42481E-03-2.20450E-03 6.80124E-01 5.03260E-15-1.61236E-13
 -1      1375 2.38651E+01-1.65474E-02-1.36294E-03 3.22336E-01-1.62756E-14-2.29896E-13
 -1      1376 2.42373E+01-3.22266E-02-2.72613E-04 3.10922E-01-1.57123E-14-2.48204E-13
 -1      1377 2.32535E+01-2.51647E-02 1.45860E-03 6.53824E-01-3.73169E-14-1.63543E-13
 -1      1378 2.44993E+01-4.62980E-02 2.49018E-03 2.22813E-01-4.15327E-14-1.77310E-13
 -1      1379 2.47270E+01-6.48438E-02 3.19625E-03 1.93573E-01-5.19324E-14-2.12493E-13
 -1      1380 2.38366E+01-7.26559E-02 8.07043E-03 5.17575E-01-1.63151E-14-1.15288E-13
 -1      1381 2.48700E+01-8.48634E-02 9.38207E-03 2.90999E-02-2.57537E-14-2.08921E-13
 -1      1382 2.48343E+01-9.95065E-02 8.87287E-03-2.28147E-02-4.74551E-14-2.38219E-13
 -1      1383 2.42588E+01-1.35635E-01 1.78510E-02 2.21052E-01-4.97831E-14-7.42986E-14
 -1      1384 2.47868E+01-1.18843E-01 1.75000E-02-2.58898E-01-2.69524E-14-2.57346E-13
 -1      1385 2.43816E+01-1.16509E-01 1.40481E-02-3.29214E-01-5.38181E-14-3.12632E-13
 -1      1386 2.43867E+01-1.94017E-01 2.85447E-02-2.56272E-01-4.70145E-14-7.96021E-14
 -1      1387 2.40939E+01-1.20622E-01 2.10432E-02-5.81806E-01-7.60511E-14-3.57062E-13
 -1      1388 2.33054E+01-8.64599E-02 1.28056E-02-6.47958E-01-1.03263E-13-4.60729E-13
 -1      1389 2.40940E+01-2.04104E-01 3.40493E-02-8.49206E-01-1.28592E-13-1.90365E-13
 -1      1390 2.28021E+01-5.95352E-02 1.24462E-02-8.00267E-01-3.73122E-14-4.77618E-13
 -1      1391 2.17965E+01 7.79673E-03-6.31606E-04-8.21221E-01-4.00509E-14-5.01835E-13
 -1      1392 2.33412E+01-1.16643E-01 2.40631E-02-1.35496E+00-9.70829E-14-1.50914E-13
 -1      1393 2.12269E+01 6.25195E-02-9.73862E-03-7.43120E-01-1.23564E-14-5.36959E-13
 -1      1394 2.03596E+01 1.35293E-01-2.27169E-02-6.84787E-01-1.91010E-14-5.18266E-13
 -1      1395 2.22862E+01 7.40301E-02-6.69255E-03-1.46602E+00-3.77892E-14-2.23051E-13
 -1      1396 1.99741E+01 1.82912E-01-3.26039E-02-3.45797E-01-4.48253E-15-4.68708E-13
 -1      1397 1.96331E+01 2.14908E-01-3.81363E-02-2.21322E-01 3.92672E-14-4.44746E-13
 -1      1398 2.13278E+01 2.81291E-01-4.66130E-02-9.66874E-01 3.61794E-14-3.34448E-13
 -1      1399 1.96395E+01 2.14593E-01-3.78247E-02 2.34399E-01-9.15934E-15-4.89416E-13
 -1      1400 1.99957E+01 1.82029E-01-3.19986E-02 3.58391E-01-7.61457E-14-5.25441E-13
 -1      1401 2.09429E+01 3.71558E-01-6.53499E-02 1.27013E-02-3.62800E-14-3.03917E-13
 -1      1402 2.03924E+01 1.34379E-01-2.18551E-02 6.95547E-01-3.77857E-14-5.94289E-13
 -1      1403 2.12727E+01 6.15291E-02-8.61972E-03 7.53210E-01-5.08014E-14-7.00939E-13
 -1      1404 2.13515E+01 2.80582E-01-4.50985E-02 9.89676E-01-7.07472E-14-3.86562E-13
 -1      1405 2.18513E+01 6.98309E-03 2.24665E-05 8.29331E-01-2.55553E-14-6.75793E-13
 -1      1406 2.28666E+01-5.99915E-02 1.27691E-02 8.07916E-01-1.20533E-14-7.00162E-13
 -1      1407 2.23298E+01 7.22918E-02-5.77935E-03 1.48388E+00-4.08128E-14-5.70370E-13
 -1      1408 2.33781E+01-8.63577E-02 1.27200E-02 6.55312E-01-1.04083E-14-6.53880E-13
 -1      1409 2.41759E+01-1.20032E-01 2.09051E-02 5.89369E-01 2.90202E-14-5.71633E-13
 -1      1410 2.34015E+01-1.16837E-01 2.42141E-02 1.36997E+00-1.80871E-14-5.26971E-13
 -1      1411 2.44733E+01-1.15539E-01 1.36674E-02 3.38526E-01 4.46969E-14-6.15633E-13
 -1      1412 2.48900E+01-1.17511E-01 1.70984E-02 2.68856E-01 2.73150E-14-5.63889E-13
 -1      1413 2.41715E+01-2.03240E-01 3.32697E-02 8.66203E-01 4.09898E-14-4.76459E-13
 -1      1414 2.49505E+01-9.78073E-02 8.45988E-03 3.61635E-02-2.97835E-14-5.34444E-13
 -1      1415 2.50029E+01-8.29364E-02 9.12529E-03-1.47383E-02-5.62389E-14-6.15751E-13
 -1      1416 2.44862E+01-1.91458E-01 2.77022E-02 2.79549E-01-1.81452E-15-5.23657E-13
 -1      1417 2.48773E+01-6.26467E-02 2.91618E-03-1.74642E-01 3.76036E-14-6.05017E-13
 -1      1418 2.46734E+01-4.40633E-02 2.37621E-03-2.02668E-01 8.38028E-14-5.06178E-13
 -1      1419 2.43879E+01-1.32208E-01 1.70323E-02-1.88147E-01 1.25316E-14-5.03477E-13
 -1      1420 2.44341E+01-2.97622E-02-4.63412E-04-2.85564E-01-5.45527E-15-4.47515E-13
 -1      1421 2.40937E+01-1.41803E-02-1.36603E-03-2.95680E-01-2.51500E-14-5.54591E-13
 -1      1422 2.40050E+01-6.86031E-02 7.37107E-03-4.72896E-01 1.75571E-14-3.54142E-13
 -1      1423 2.38045E+01-6.52080E-03-1.62635E-03-3.20414E-01-5.12462E-14-4.80664E-13
 -1      1424 2.34203E+01 4.26758E-03-2.61846E-03-3.19415E-01-8.86829E-15-4.76863E-13
 -1      1425 2.34718E+01-2.08213E-02 7.94459E-04-5.96279E-01 2.76400E-14-3.11112E-13
 -1      1426 2.31263E+01 7.02958E-03-1.46780E-03-3.08434E-01 4.73169E-14-4.09592E-13
 -1      1427 2.27558E+01 1.35676E-02-2.48868E-03-3.01779E-01 6.51119E-14-3.08175E-13
 -1      1428 2.28928E+01 8.06260E-03-2.86382E-03-6.08981E-01 2.51478E-14-1.95997E-13
 -1      1429 2.24839E+01 1.34296E-02-8.25384E-04-2.72845E-01-2.69160E-14-3.58326E-13
 -1      1430 2.21564E+01 1.69073E-02-1.84297E-03-2.64069E-01-4.95448E-14-4.21647E-13
 -1      1431 2.23354E+01 2.22003E-02-4.47351E-03-5.58974E-01-3.84848E-14-3.05052E-13
 -1      1432 2.19195E+01 1.53650E-02-1.80958E-04-2.28772E-01-1.26060E-13-5.30315E-13
 -1      1433 2.16454E+01 1.68827E-02-1.14956E-03-2.19855E-01-1.40982E-13-7.30697E-13
 -1      1434 2.18364E+01 2.69302E-02-4.86269E-03-4.80871E-01-1.62634E-13-4.07715E-13
 -1      1435 2.14475E+01 1.48557E-02 2.83124E-04-1.84777E-01-5.53871E-14-6.98467E-13
 -1      1436 2.12267E+01 1.52213E-02-5.91968E-04-1.76678E-01 1.10827E-14-7.13398E-13
 -1      1437 2.14109E+01 2.64756E-02-4.61269E-03-3.95976E-01-1.31643E-13-5.78771E-13
 -1      1438 2.10666E+01 1.31993E-02 5.47962E-04-1.45052E-01 4.95240E-14-7.83043E-13
 -1      1439 2.08939E+01 1.29427E-02-2.04595E-04-1.38139E-01 4.76216E-14-7.15517E-13
 -1      1440 2.10608E+01 2.35872E-02-4.07646E-03-3.15752E-01 5.67675E-14-4.07937E-13
 -1      1441 2.07675E+01 1.11475E-02 6.57297E-04-1.11197E-01 1.83555E-14-7.39143E-13
 -1      1442 2.06357E+01 1.05932E-02 3.73330E-05-1.05525E-01-3.47825E-14-7.18366E-13
 -1      1443 2.07807E+01 1.98531E-02-3.44974E-03-2.45390E-01-2.20123E-14-5.54140E-13
 -1      1444 2.05381E+01 9.09884E-03 6.64951E-04-8.34148E-02-4.06266E-14-8.87523E-13
 -1      1445 2.04397E+01 8.43540E-03 1.72620E-04-7.88888E-02-4.68212E-14-8.92897E-13
 -1      1446 2.05617E+01 1.61011E-02-2.83340E-03-1.86473E-01-9.12725E-14-7.55108E-13
 -1      1447 2.03659E+01 7.24185E-03 6.14926E-04-6.12285E-02-3.32746E-14-7.77651E-13
 -1      1448 2.02941E+01 6.57367E-03 2.36264E-04-5.76942E-02 6.50178E-14-7.88215E-13
 -1      1449 2.03941E+01 1.27132E-02-2.27483E-03-1.38692E-01-2.19475E-14-9.07010E-13
 -1      1450 2.02395E+01 5.64852E-03 5.37570E-04-4.38866E-02 4.28589E-14-6.38643E-13
 -1      1451 2.01883E+01 5.02910E-03 2.54787E-04-4.11765E-02-6.77077E-14-7.05125E-13
 -1      1452 2.02684E+01 9.82809E-03-1.79226E-03-1.00868E-01 1.46277E-13-5.69425E-13
 -1      1453 2.01489E+01 4.32938E-03 4.51691E-04-3.05764E-02-7.07690E-14-5.13668E-13
 -1      1454 2.01135E+01 3.78241E-03 2.46619E-04-2.85327E-02-9.80216E-14-7.07649E-13
 -1      1455 2.01762E+01 7.46103E-03-1.38857E-03-7.15112E-02 7.93419E-15-4.25882E-13
 -1      1456 2.00857E+01 3.26507E-03 3.67858E-04-2.05303E-02-1.32617E-13-6.75184E-13
 -1      1457 2.00622E+01 2.79716E-03 2.23819E-04-1.90138E-02-4.71487E-14-7.95535E-13
 -1      1458 2.01102E+01 5.56969E-03-1.05883E-03-4.91216E-02-1.52626E-13-2.33389E-13
 -1      1459 2.00433E+01 2.42356E-03 2.91205E-04-1.30713E-02 1.68821E-13-7.92957E-13
 -1      1460 2.00286E+01 2.03171E-03 1.93781E-04-1.19645E-02 1.99625E-13-5.69005E-13
 -1      1461 2.00643E+01 4.08940E-03-7.94611E-04-3.23255E-02 1.45036E-13-2.62244E-13
 -1      1462 2.00164E+01 1.76898E-03 2.23429E-04-7.62822E-03-6.13906E-14-2.67314E-13
 -1      1463 2.00080E+01 1.44490E-03 1.60533E-04-6.83519E-03-8.49940E-14-3.63877E-13
 -1      1464 2.00337E+01 2.95039E-03-5.86305E-04-1.99359E-02 2.10787E-13-2.63062E-13
 -1      1465 2.00007E+01 1.26571E-03 1.64040E-04-3.73592E-03 5.16306E-14-4.04036E-13
 -1      1466 1.99969E+01 9.97980E-04 1.25949E-04-3.18042E-03 2.29074E-13-2.74406E-13
 -1      1467 2.00144E+01 2.08568E-03-4.24223E-04-1.09667E-02 3.36156E-14-2.06812E-13
 -1      1468 1.99930E+01 8.79271E-04 1.11833E-04-1.03094E-03 2.02753E-13-2.53863E-13
 -1      1469 1.99924E+01 6.53331E-04 9.19319E-05-6.55212E-04 1.23126E-13-3.63917E-14
 -1      1470 2.00032E+01 1.43212E-03-2.98976E-04-4.63058E-03 2.75289E-13-2.53774E-14
 -1      1471 1.99909E+01 5.71779E-04 6.82831E-05 7.47569E-04 3.25936E-14-2.30801E-14
 -1      1472 1.99923E+01 3.66389E-04 6.65338E-05 9.79801E-04 4.17525E-14 4.03564E-14
 -1      1473 1.99979E+01 9.25428E-04-1.99501E-04-3.36118E-04 1.44766E-13-1.54412E-13
 -1      1474 1.99923E+01 2.85580E-04 4.49642E-05 1.73038E-03 1.48104E-13 2.15096E-13
 -1      1475 1.99947E+01 6.84547E-05 6.48764E-05 1.82182E-03 1.87949E-13 4.08874E-13
 -1      1476 1.99964E+01 4.76801E-04-1.09338E-04 2.27876E-03 2.13193E-13 2.18339E-13
 -1      1477 1.99954E+01-1.45210E-05 7.87307E-05 1.86930E-03 2.97524E-14 3.62278E-13
 -1      1478 1.99979E+01-2.92185E-04 1.45976E-04 1.83213E-03-1.09459E-13 4.44252E-13
 -1      1479 1.99971E+01-8.58599E-05-1.46649E-05 3.28875E-03 1.45896E-13 2.44445E-13
 -1      1480 1.99992E+01-5.97713E-04 3.23870E-04 5.68066E-04-3.53367E-13 4.40646E-13
 -1      1481 1.99990E+01-1.29987E-03 1.12359E-04 2.10672E-03-3.25062E-13 2.68056E-13
 -1      1482 2.02634E+01 7.51375E-02-1.50368E-01 4.56417E-01 2.07064E-13 1.99609E-12
 -1      1483 2.14904E+01 2.15819E-01-2.28538E-01 6.91373E-01 1.85546E-13 2.31867E-12
 -1      1484 2.17139E+01 8.73167E-01-8.61925E-02 2.00651E+00 3.64944E-13 1.55591E-12
 -1      1485 1.94071E+01 3.32524E-02-2.07870E-02 1.58090E-01 1.57230E-13 1.58985E-12
 -1      1486 1.97891E+01 1.14453E-01-6.16100E-02 2.10482E-01 1.47941E-13 1.82069E-12
 -1      1487 2.03512E+01 1.86527E-01-5.53763E-02 7.32545E-01 3.12347E-13 1.23325E-12
 -1      1488 1.91079E+01 1.69345E-02 5.53630E-03 2.02110E-02 1.10812E-13 1.25651E-12
 -1      1489 1.92033E+01 5.40531E-02 1.56452E-03 4.80767E-02 1.17465E-13 1.45530E-12
 -1      1490 1.96778E+01 7.37703E-02-1.27860E-02 2.39689E-01 2.57232E-13 9.64085E-13
 -1      1491 1.91011E+01 9.83785E-03 6.47241E-03-5.18362E-02 1.11221E-13 1.01298E-12
 -1      1492 1.90615E+01 2.98267E-02 1.14297E-02-3.48178E-02 9.43906E-14 1.16943E-12
 -1      1493 1.94293E+01 3.52487E-02-3.53165E-03 1.00892E-02 2.00649E-13 7.58007E-13
 -1      1494 1.92616E+01 6.78805E-03 4.01426E-03-9.55894E-02 4.24634E-14 8.18175E-13
 -1      1495 1.91469E+01 1.93409E-02 8.80313E-03-8.37507E-02 5.92104E-14 9.23261E-13
 -1      1496 1.94230E+01 1.95060E-02-3.11893E-03-1.16644E-01 1.56012E-13 6.11989E-13
 -1      1497 1.95309E+01 5.46624E-03 2.28520E-03-1.26373E-01 2.13462E-14 7.77484E-13
 -1      1498 1.93672E+01 1.44222E-02 5.65451E-03-1.17011E-01 1.89974E-14 8.01817E-13
 -1      1499 1.95660E+01 1.26978E-02-3.61500E-03-1.97259E-01 5.48511E-14 5.08207E-13
 -1      1500 1.98804E+01 4.94740E-03 1.26994E-03-1.51296E-01 4.99910E-14 7.04199E-13
 -1      1501 1.96795E+01 1.21693E-02 3.72100E-03-1.42988E-01 2.64175E-14 7.37629E-13
 -1      1502 1.98100E+01 9.82995E-03-3.89167E-03-2.56105E-01 4.76073E-14 4.24590E-13
 -1      1503 2.02961E+01 4.69264E-03 6.08187E-04-1.73665E-01 3.51395E-14 5.76020E-13
 -1      1504 2.00631E+01 1.11832E-02 2.58954E-03-1.65663E-01 6.57436E-14 6.56903E-13
 -1      1505 2.01299E+01 8.75689E-03-4.05905E-03-3.04702E-01 1.03044E-13 3.95853E-13
 -1      1506 2.07702E+01 4.20915E-03 1.82763E-04-1.94237E-01 5.17815E-14 4.72617E-13
 -1      1507 2.05076E+01 1.04915E-02 1.83550E-03-1.86350E-01 2.30656E-14 5.12026E-13
 -1      1508 2.05116E+01 8.15530E-03-4.17552E-03-3.47845E-01 8.41731E-14 2.77269E-13
 -1      1509 2.12935E+01 2.91737E-03 8.60291E-05-2.11308E-01 4.71183E-14 3.86182E-13
 -1      1510 2.10051E+01 9.11185E-03 1.25989E-03-2.03978E-01 5.00617E-14 4.28369E-13
 -1      1511 2.09450E+01 6.80066E-03-4.10974E-03-3.85321E-01 7.91091E-14 1.47471E-13
 -1      1512 2.18491E+01 1.02802E-04 5.71412E-04-2.20300E-01 4.17666E-14 3.41234E-13
 -1      1513 2.15437E+01 5.85771E-03 8.24581E-04-2.14802E-01 4.07464E-14 3.82333E-13
 -1      1514 2.14173E+01 3.26901E-03-3.56417E-03-4.11831E-01 6.11146E-14 1.85283E-13
 -1      1515 2.24040E+01-5.02260E-03 2.02953E-03-2.13261E-01 1.10400E-14 3.40162E-13
 -1      1516 2.20999E+01-6.91234E-04 6.15911E-04-2.11940E-01 2.31592E-14 3.35171E-13
 -1      1517 2.19073E+01-4.14859E-03-2.09185E-03-4.16273E-01 4.90559E-14 1.63504E-13
 -1      1518 2.29016E+01-1.30408E-02 4.89006E-03-1.78919E-01 1.27372E-14 2.96077E-13
 -1      1519 2.26314E+01-1.19371E-02 8.37376E-04-1.85293E-01-1.40901E-14 2.84649E-13
 -1      1520 2.23794E+01-1.72224E-02 8.44781E-04-3.81337E-01 3.15937E-14 2.12049E-13
 -1      1521 2.32561E+01-2.36878E-02 9.31308E-03-1.04498E-01-2.40415E-14 2.84600E-13
 -1      1522 2.30701E+01-2.85003E-02 1.74866E-03-1.22851E-01-9.09559E-15 2.74971E-13
 -1      1523 2.27779E+01-3.69605E-02 5.66480E-03-2.85071E-01 9.25822E-15 8.71282E-14
 -1      1524 2.33570E+01-3.48103E-02 1.45686E-02 1.89931E-02 6.03077E-15 3.55570E-13
 -1      1525 2.33203E+01-4.87458E-02 3.45658E-03-1.48904E-02 2.21394E-14 3.35615E-13
 -1      1526 2.30265E+01-6.18926E-02 1.21914E-02-1.06999E-01-1.24666E-14 1.40593E-13
 -1      1527 2.30924E+01-4.13173E-02 1.82569E-02 1.86676E-01-4.86833E-14 4.11841E-13
 -1      1528 2.32712E+01-6.68455E-02 5.49636E-03 1.37577E-01-4.98030E-14 3.54314E-13
 -1      1529 2.30368E+01-8.54675E-02 1.89760E-02 1.58420E-01-5.24008E-14 2.87572E-13
 -1      1530 2.23995E+01-3.57743E-02 1.61891E-02 3.66976E-01 4.97545E-14 3.61371E-13
 -1      1531 2.28296E+01-7.20506E-02 6.34136E-03 3.11021E-01 2.94027E-14 4.24907E-13
 -1      1532 2.27343E+01-9.41852E-02 2.28138E-02 4.80975E-01-4.80345E-15 2.51543E-13
 -1      1533 2.13360E+01-1.25520E-02 4.49809E-03 4.96413E-01 8.25405E-14 1.92950E-13
 -1      1534 2.19804E+01-5.23178E-02 3.66894E-03 4.51930E-01 6.49550E-14 3.27648E-13
 -1      1535 2.21042E+01-7.06758E-02 1.95894E-02 7.76625E-01 1.04243E-13 2.61709E-13
 -1      1536 2.01329E+01 2.51796E-02-1.58518E-02 4.97577E-01 4.26529E-14 1.23818E-13
 -1      1537 2.08508E+01-3.67456E-03-3.82774E-03 4.87812E-01 1.59770E-14 1.52225E-13
 -1      1538 2.12432E+01-4.96101E-03 7.48272E-03 9.16092E-01 6.50014E-14 1.85428E-13
 -1      1539 1.91643E+01 6.09548E-02-3.61462E-02 3.26818E-01-4.78081E-14 1.20695E-13
 -1      1540 1.97326E+01 5.93601E-02-1.39879E-02 3.65520E-01-9.09602E-15 6.51146E-14
 -1      1541 2.03802E+01 8.86719E-02-9.80711E-03 7.81585E-01 3.98015E-14 1.07546E-13
 -1      1542 1.87971E+01 7.38798E-02-4.32372E-02 2.45508E-02 3.70832E-14-6.84110E-15
 -1      1543 1.90021E+01 1.05870E-01-2.07583E-02 1.01723E-01 2.45880E-14 1.74756E-14
 -1      1544 1.98147E+01 1.66531E-01-2.34460E-02 3.59543E-01-1.85026E-14-5.67255E-16
 -1      1545 1.91853E+01 5.58215E-02-3.15473E-02-2.89614E-01 1.24805E-13-2.17919E-13
 -1      1546 1.89423E+01 1.09982E-01-1.86265E-02-2.05678E-01 9.75296E-14-6.98035E-14
 -1      1547 1.97727E+01 1.80748E-01-2.66322E-02-2.08945E-01 1.29665E-13-1.12662E-13
 -1      1548 2.01764E+01 1.84670E-02-7.18514E-03-4.88676E-01-2.63119E-14-3.45363E-13
 -1      1549 1.95803E+01 7.14632E-02-8.00349E-03-4.31381E-01 1.58111E-14-3.86413E-13
 -1      1550 2.02732E+01 1.20499E-01-1.93204E-02-6.94734E-01 1.33334E-13-3.70055E-13
 -1      1551 2.14037E+01-1.70512E-02 1.53991E-02-5.15786E-01 4.98921E-14-2.47156E-13
 -1      1552 2.06722E+01 1.50067E-02 5.06704E-03-5.00350E-01 1.46284E-14-2.71977E-13
 -1      1553 2.11186E+01 2.10059E-02-7.98957E-03-9.20299E-01 2.22921E-14-4.88821E-13
 -1      1554 2.24925E+01-3.65240E-02 2.68389E-02-4.03553E-01-5.10178E-14-2.92870E-13
 -1      1555 2.18455E+01-3.08225E-02 1.35600E-02-4.22631E-01 3.13985E-14-2.03830E-13
 -1      1556 2.20141E+01-6.40873E-02 1.27763E-03-8.55628E-01-5.00641E-15-3.74542E-13
 -1      1557 2.32141E+01-3.90559E-02 2.64568E-02-2.28588E-01-7.62879E-14-1.71682E-13
 -1      1558 2.27844E+01-5.25858E-02 1.51860E-02-2.64352E-01-6.00986E-14-2.51632E-13
 -1      1559 2.27166E+01-1.04653E-01 6.15393E-03-5.97565E-01-8.90139E-14-2.22017E-13
 -1      1560 2.35149E+01-3.11476E-02 1.92781E-02-5.91414E-02 3.88561E-14-1.14107E-13
 -1      1561 2.33320E+01-5.28422E-02 1.17289E-02-9.56601E-02 3.17975E-15-9.94933E-14
 -1      1562 2.31089E+01-1.03021E-01 7.19489E-03-2.79357E-01-2.16077E-14-7.79845E-14
 -1      1563 2.34611E+01-1.99087E-02 1.06655E-02 6.80392E-02-6.01559E-14-1.93684E-13
 -1      1564 2.34842E+01-4.11042E-02 6.53393E-03 3.95028E-02-3.67267E-14-1.95154E-13
 -1      1565 2.31902E+01-7.77710E-02 6.10198E-03-1.72776E-04-2.23562E-14-4.45969E-14
 -1      1566 2.31669E+01-9.76950E-03 3.71425E-03 1.44763E-01-2.93821E-14-1.86023E-13
 -1      1567 2.33278E+01-2.61004E-02 2.04415E-03 1.26512E-01-1.57322E-14-2.16901E-13
 -1      1568 2.30282E+01-4.68446E-02 4.31416E-03 1.95432E-01-2.68362E-14-1.14477E-13
 -1      1569 2.27439E+01-2.41409E-03-6.99318E-04 1.78803E-01 4.25877E-14-3.81951E-13
 -1      1570 2.29770E+01-1.28952E-02-8.02999E-04 1.69539E-01 5.05331E-14-3.09036E-13
 -1      1571 2.27113E+01-2.05620E-02 2.63456E-03 3.04578E-01 5.90118E-14-2.96089E-13
 -1      1572 2.22783E+01 2.12387E-03-2.92550E-03 1.83048E-01-1.40333E-13-2.54977E-13
 -1      1573 2.25340E+01-3.30945E-03-2.10760E-03 1.80253E-01-9.49865E-14-3.21127E-13
 -1      1574 2.23196E+01-2.30473E-03 1.35421E-03 3.44988E-01-6.84098E-14-3.06702E-13
 -1      1575 2.18269E+01 4.46827E-03-3.68068E-03 1.69530E-01 9.63880E-14-4.21399E-14
 -1      1576 2.20731E+01 2.69864E-03-2.37156E-03 1.70771E-01-1.94454E-14-7.33406E-14
 -1      1577 2.19125E+01 8.43977E-03 4.86842E-04 3.39331E-01-1.55652E-13-1.32689E-13
 -1      1578 2.14213E+01 5.33912E-03-3.60729E-03 1.47290E-01 5.14439E-14-1.23642E-13
 -1      1579 2.16407E+01 5.90476E-03-2.09234E-03 1.50694E-01 8.56314E-14-6.23893E-14
 -1      1580 2.15285E+01 1.35779E-02-5.34317E-05 3.07331E-01 6.36140E-14-1.71830E-13
 -1      1581 2.10754E+01 5.32692E-03-3.14845E-03 1.22275E-01-3.33973E-14-1.96074E-13
 -1      1582 2.12610E+01 7.19153E-03-1.61433E-03 1.26576E-01 4.57447E-15-1.41259E-13
 -1      1583 2.11881E+01 1.50787E-02-3.62813E-04 2.63333E-01 3.76639E-14-2.79544E-13
 -1      1584 2.07919E+01 4.84713E-03-2.56542E-03 9.79785E-02 1.22513E-13-5.12024E-13
 -1      1585 2.09427E+01 7.29310E-03-1.12781E-03 1.02401E-01 8.38043E-14-3.05919E-13
 -1      1586 2.08999E+01 1.44848E-02-5.18470E-04 2.16570E-01 1.35763E-13-4.36253E-13
 -1      1587 2.05667E+01 4.16550E-03-1.99344E-03 7.62005E-02 8.97847E-14-7.54128E-13
 -1      1588 2.06854E+01 6.73888E-03-7.15931E-04 8.03166E-02 9.97050E-14-6.23927E-13
 -1      1589 2.06644E+01 1.28480E-02-5.75532E-04 1.72350E-01 2.23438E-13-3.70226E-13
 -1      1590 2.03929E+01 3.43941E-03-1.49232E-03 5.76650E-02-1.22437E-13-5.98034E-13
 -1      1591 2.04836E+01 5.87831E-03-4.01349E-04 6.12725E-02-1.05726E-13-7.10094E-13
 -1      1592 2.04774E+01 1.08221E-02-5.71879E-04 1.33305E-01-5.72151E-14-1.15451E-13
 -1      1593 2.02621E+01 2.75441E-03-1.08088E-03 4.24659E-02-3.56070E-14-5.13841E-13
 -1      1594 2.03296E+01 4.92630E-03-1.78181E-04 4.55006E-02-9.31128E-14-6.34605E-13
 -1      1595 2.03329E+01 8.78090E-03-5.33218E-04 1.00384E-01-1.28759E-13-3.55134E-13
 -1      1596 2.01664E+01 2.15109E-03-7.57559E-04 3.03600E-02-4.53895E-14-2.40976E-13
 -1      1597 2.02152E+01 4.00543E-03-3.00319E-05 3.28363E-02 1.41659E-14-3.68203E-13
 -1      1598 2.02240E+01 6.91751E-03-4.76785E-04 7.35583E-02-5.63544E-14-1.38637E-13
 -1      1599 2.00984E+01 1.64321E-03-5.11930E-04 2.09498E-02-2.66808E-13 1.51051E-13
 -1      1600 2.01326E+01 3.17824E-03 6.11731E-05 2.29225E-02-1.62663E-13-1.92378E-13
 -1      1601 2.01441E+01 5.31431E-03-4.13884E-04 5.22892E-02-2.50220E-13 2.91875E-13
 -1      1602 2.00519E+01 1.22949E-03-3.30764E-04 1.37931E-02 9.85959E-14 2.93066E-13
 -1      1603 2.00749E+01 2.47005E-03 1.11450E-04 1.53335E-02-8.18303E-14 1.86973E-13
 -1      1604 2.00872E+01 3.98991E-03-3.51630E-04 3.58155E-02-1.49300E-13 2.41789E-13
 -1      1605 2.00218E+01 9.00976E-04-2.01184E-04 8.46264E-03 2.57216E-14 1.45215E-13
 -1      1606 2.00362E+01 1.88435E-03 1.33524E-04 9.64529E-03 1.39294E-13 3.30396E-13
 -1      1607 2.00481E+01 2.92871E-03-2.94250E-04 2.33261E-02 9.96747E-14 2.99645E-13
 -1      1608 2.00037E+01 6.45336E-04-1.12078E-04 4.57691E-03 1.76869E-13-2.08436E-13
 -1      1609 2.00119E+01 1.41270E-03 1.36637E-04 5.47175E-03 1.33419E-13 2.84159E-15
 -1      1610 2.00226E+01 2.09900E-03-2.44155E-04 1.40541E-02 2.59685E-13 1.79941E-13
 -1      1611 1.99943E+01 4.48104E-04-5.36581E-05 1.81412E-03 1.71640E-13-5.21353E-13
 -1      1612 1.99981E+01 1.03970E-03 1.27106E-04 2.48247E-03 2.04088E-13-2.33227E-13
 -1      1613 2.00071E+01 1.46277E-03-2.02171E-04 7.32479E-03 3.35169E-13-1.11493E-13
 -1      1614 1.99911E+01 2.91302E-04-1.46961E-05-7.57132E-05 7.56334E-14-8.46341E-13
 -1      1615 1.99918E+01 7.43107E-04 1.09902E-04 4.14269E-04 8.49913E-14-6.82505E-13
 -1      1616 1.99989E+01 9.77927E-04-1.66363E-04 2.58311E-03 2.43786E-13-2.77088E-13
 -1      1617 1.99920E+01 1.52794E-04 2.26432E-05-1.25236E-03-1.16012E-13-7.18751E-13
 -1      1618 1.99907E+01 4.91831E-04 9.20702E-05-9.11934E-04-6.76246E-14-7.80206E-13
 -1      1619 1.99957E+01 5.93050E-04-1.29860E-04-5.77597E-04 6.77224E-15-3.89474E-13
 -1      1620 1.99950E+01-1.78728E-06 8.92780E-05-1.75934E-03-3.07192E-14-4.55129E-13
 -1      1621 1.99927E+01 2.36638E-04 8.89006E-05-1.56864E-03-1.03017E-13-7.18771E-13
 -1      1622 1.99958E+01 2.48645E-04-7.30582E-05-2.37047E-03-1.31637E-13-4.65101E-13
 -1      1623 1.99983E+01-2.83377E-04 1.87919E-04-1.43021E-03 1.05756E-13-6.66718E-13
 -1      1624 1.99961E+01-1.37909E-04 1.26144E-04-1.45645E-03 1.25172E-13-4.73349E-13
 -1      1625 1.99974E+01-2.82707E-04 1.91922E-05-2.78030E-03 1.19643E-13-4.81062E-13
 -1      1626 1.99992E+01-6.57842E-04 2.87255E-04-5.71318E-04-3.35316E-13-3.52621E-13
 -1      1627 1.99998E+01-4.16457E-03 1.06531E-05-1.70938E-03-4.15755E-13 4.11066E-14
 -1      1628 1.99996E+01-2.11101E-03 9.17423E-05-1.60627E-03-4.83059E-13 3.61858E-14
 -1      1629 2.00001E+01-6.79402E-03-5.79127E-05-1.34724E-03-9.65613E-14 1.40412E-13
 -1      1630 2.00000E+01-4.91118E-03-1.85805E-06-1.48868E-03-2.80500E-13 9.41050E-14
 -1      1631 1.99999E+01-2.76593E-03-1.60424E-05-2.87126E-03 4.15984E-14 1.09336E-13
 -1      1632 2.00001E+01-8.08077E-03-6.45963E-05-5.59923E-04-1.23548E-13 8.58225E-14
 -1      1633 2.00001E+01-7.07307E-03-3.58160E-05-7.44110E-04-1.77804E-13-1.84228E-14
 -1      1634 2.00003E+01-3.67824E-03-8.66406E-05-1.84502E-03 2.72428E-14 9.17306E-14
 -1      1635 2.00000E+01-7.89909E-03-4.73397E-05 1.69878E-04 1.57140E-13 1.32020E-13
 -1      1636 2.00001E+01-7.80290E-03-3.26455E-05 3.26463E-05-2.07306E-13 4.58942E-13
 -1      1637 2.00003E+01-3.51032E-03-7.81793E-05-3.90207E-04-2.67005E-14 3.39714E-13
 -1      1638 1.99999E+01-6.74561E-03-2.95009E-05 5.88326E-04-2.55542E-13-1.65811E-13
 -1      1639 1.99999E+01-7.22221E-03-1.77006E-05 5.31372E-04 2.75319E-14-3.53213E-13
 -1      1640 2.00001E+01-2.39097E-03-4.04730E-05 7.52699E-04-1.88556E-13-2.24388E-13
 -1      1641 1.99997E+01-5.29864E-03-1.42574E-05 6.33650E-04-2.58462E-13 4.70232E-14
 -1      1642 1.99998E+01-5.93743E-03-6.66459E-06 6.55281E-04-3.57295E-13 1.31490E-13
 -1      1643 1.99999E+01-7.68162E-04 7.98443E-06 1.24759E-03-1.74102E-13-2.94418E-13
 -1      1644 1.99996E+01-4.27059E-03-4.12164E-06 3.56028E-04-2.86453E-13-2.73011E-14
 -1      1645 1.99997E+01-4.67487E-03-7.10424E-08 4.34531E-04-2.56396E-13 1.40968E-14
 -1      1646 1.99997E+01 7.63949E-04 4.80246E-05 1.05630E-03-2.26221E-14-9.33131E-14
 -1      1647 1.99996E+01-4.10878E-03 3.98890E-07-9.06644E-05 3.26146E-13 3.85066E-13
 -1      1648 1.99996E+01-4.05894E-03 6.73468E-07 7.25921E-06-2.12423E-13 3.23539E-13
 -1      1649 1.99996E+01 1.65074E-03 7.03129E-05 3.59031E-04-2.58230E-14 2.39922E-13
 -1      1650 1.99997E+01-4.88188E-03-9.06836E-07-5.07872E-04 5.17824E-13-1.93979E-14
 -1      1651 1.99997E+01-4.38800E-03-4.37060E-06-4.32735E-04 3.25693E-13 3.72364E-13
 -1      1652 1.99996E+01 1.58373E-03 6.94366E-05-5.12327E-04-4.77711E-14 4.76982E-13
 -1      1653 1.99998E+01-6.26040E-03-8.30465E-06-7.02828E-04 1.45504E-13-3.33580E-13
 -1      1654 1.99997E+01-5.56016E-03-1.51079E-05-6.87984E-04 6.32351E-13-4.06882E-13
 -1      1655 1.99997E+01 5.75593E-04 4.53516E-05-1.17848E-03 7.59601E-14-1.47593E-13
 -1      1656 1.99999E+01-7.58045E-03-2.01378E-05-5.46789E-04-2.81065E-13-3.27537E-13
 -1      1657 1.99999E+01-7.08537E-03-3.13561E-05-6.10304E-04 1.88321E-13-4.55245E-13
 -1      1658 1.99999E+01-1.02619E-03 5.08933E-06-1.31531E-03 2.07039E-13-6.39145E-13
 -1      1659 2.00001E+01-8.13939E-03-3.34812E-05-3.86634E-06-7.14973E-13-1.48810E-13
 -1      1660 2.00000E+01-8.27077E-03-5.06012E-05-1.49788E-04-5.51434E-13-5.39572E-15
 -1      1661 2.00002E+01-2.68120E-03-4.34953E-05-7.50284E-04 9.00267E-14-4.69079E-13
 -1      1662 2.00001E+01-7.33742E-03-4.69742E-05 8.17961E-04-8.62858E-13-7.90551E-14
 -1      1663 2.00001E+01-8.39306E-03-6.60436E-05 6.20020E-04-8.03062E-13-4.33160E-14
 -1      1664 2.00003E+01-3.79312E-03-8.21499E-05 4.69110E-04-2.40629E-13-1.71024E-13
 -1      1665 2.00000E+01-5.10396E-03-1.31099E-05 1.51507E-03-9.55705E-13 3.64695E-14
 -1      1666 2.00001E+01-6.98904E-03-6.85378E-05 1.35947E-03-9.00139E-13-1.87506E-14
 -1      1667 2.00002E+01-3.82805E-03-9.15436E-05 1.97265E-03-4.83750E-13-1.26660E-13
 -1      1668 1.99996E+01-2.12559E-03 3.94186E-05 2.00303E-03-4.28481E-13 2.06251E-13
 -1      1669 1.99998E+01-4.09674E-03-6.26035E-05 2.18934E-03-7.33434E-13 2.34755E-13
 -1      1670 2.00003E+01-2.29702E-03 1.15473E-04 3.08801E-03-2.32591E-13 2.10998E-13
 -1      1671 1.99990E+01-7.63724E-04 1.18269E-04 3.47599E-03-4.42115E-14 3.55849E-13
 -1      1672-5.47121E-01-1.43133E+01-1.64471E+00-8.83256E-01 1.31639E-12 1.03326E-12
 -1      1673-5.64584E-01-1.64490E+01-1.82595E+00 3.64747E-01 1.74583E-13 5.87669E-13
 -1      1674 1.18239E+00-7.96321E+00-1.22838E+00 3.44846E-01 3.00315E-12 1.89915E-12
 -1      1675 5.02797E-01-1.30941E+01-1.74410E+00-2.36129E-01 1.85418E-12 1.29774E-12
 -1      1676 7.60841E+00-3.00205E-01-4.91179E-01 4.94436E+00 3.38329E-12 2.54730E-12
 -1      1677 4.26557E+00-5.86459E+00-1.24519E+00 1.93474E+00 3.13727E-12 2.03382E-12
 -1      1678 1.73336E+01 5.11080E+00 2.32663E-01 9.67965E+00 2.95886E-12 2.57960E-12
 -1      1679 1.12098E+01 1.95038E+00-5.93179E-01 6.19490E+00 3.53984E-12 2.56051E-12
 -1      1680 3.10017E+01 6.44744E+00 9.27318E-01 1.25153E+01 1.82943E-12 2.32103E-12
 -1      1681 2.22344E+01 6.15215E+00 1.39474E-01 1.05288E+01 2.54341E-12 2.60525E-12
 -1      1682 4.43565E+01 5.01902E+00 1.43495E+00 1.02325E+01 1.06240E-12 1.26366E-12
 -1      1683 3.60015E+01 6.43125E+00 8.33139E-01 1.15215E+01 1.56930E-12 1.88738E-12
 -1      1684 5.32089E+01 3.65623E+00 1.76303E+00 4.13122E+00 5.65326E-13 2.87548E-13
 -1      1685 4.81703E+01 5.06455E+00 1.44992E+00 8.81052E+00 7.87509E-13 1.04972E-12
 -1      1686 5.26810E+01 3.95368E+00 1.57115E+00-3.77207E+00 7.65582E-13-8.97504E-13
 -1      1687 5.37138E+01 3.75115E+00 1.69859E+00 1.64173E+00 6.36324E-13-3.44030E-14
 -1      1688 4.38427E+01 5.59244E+00 1.08323E+00-9.38195E+00 1.33867E-12-2.16005E-12
 -1      1689 5.03466E+01 4.09219E+00 1.54104E+00-5.62574E+00 9.23234E-13-1.30967E-12
 -1      1690 3.05321E+01 6.12502E+00 4.34132E-01-1.07919E+01 1.93590E-12-2.62546E-12
 -1      1691 3.99571E+01 5.18225E+00 1.15738E+00-1.06987E+01 1.48503E-12-2.35922E-12
 -1      1692 1.72509E+01 3.40639E+00-2.82018E-01-8.02604E+00 2.12441E-12-2.40974E-12
 -1      1693 2.55130E+01 5.11297E+00 5.38383E-01-1.09903E+01 1.95322E-12-2.73481E-12
 -1      1694 6.81845E+00-1.63106E+00-9.99197E-01-3.70329E+00 2.29416E-12-1.76970E-12
 -1      1695 1.15264E+01 2.81828E+00-1.94151E-01-7.19733E+00 2.36522E-12-2.40297E-12
 -1      1696 2.11331E+00-9.75557E+00-1.49675E+00-6.64693E-01 1.38800E-12-1.06931E-12
 -1      1697 4.04275E+00-3.92715E+00-8.23108E-01-2.61878E+00 2.02616E-12-1.61438E-12
 -1      1698-2.49655E-01-1.58524E+01-1.87652E+00 1.42492E-01 2.13773E-13-5.76122E-13
 -1      1699-1.13479E-01-1.18222E+01-1.49473E+00 7.37289E-01 1.16551E-12-8.49744E-13
 -1      1700-7.70319E-01-1.61761E+01-1.77832E+00-9.00826E-01-1.23695E-12-6.37990E-13
 -1      1701-7.38160E-01-1.62905E+01-1.79298E+00 6.88182E-01-2.02199E-13-5.94719E-13
 -1      1702 1.96003E-01-1.09925E+01-1.38676E+00-4.14458E-01-2.28750E-12-1.12463E-12
 -1      1703-6.57398E-02-1.51631E+01-1.76089E+00-4.03755E-02-1.55542E-12-7.19647E-13
 -1      1704 4.46285E+00-3.57176E+00-8.02207E-01 2.78775E+00-2.66054E-12-1.67300E-12
 -1      1705 2.43901E+00-9.21429E+00-1.45240E+00 7.67057E-01-2.41929E-12-1.29885E-12
 -1      1706 1.26490E+01 2.79082E+00-1.14237E-01 7.47214E+00-2.40385E-12-2.21023E-12
 -1      1707 7.75282E+00-1.57968E+00-9.36665E-01 3.99073E+00-2.69740E-12-1.79723E-12
 -1      1708 2.55788E+01 5.94622E+00 6.73873E-01 1.15719E+01-1.84852E-12-1.95288E-12
 -1      1709 1.73457E+01 4.18933E+00-2.32963E-01 8.50476E+00-2.27995E-12-2.12785E-12
 -1      1710 4.03177E+01 5.84948E+00 1.40836E+00 1.21858E+01-1.09229E-12-1.16396E-12
 -1      1711 3.08387E+01 6.76755E+00 6.13021E-01 1.19683E+01-1.65401E-12-1.81988E-12
 -1      1712 5.16003E+01 4.02281E+00 1.76489E+00 7.31856E+00-5.31422E-13-1.03473E-13
 -1      1713 4.47711E+01 5.79285E+00 1.35041E+00 1.08988E+01-8.71039E-13-8.73634E-13
 -1      1714 5.37946E+01 3.94259E+00 1.70186E+00-1.10836E+00-6.27720E-13 1.25978E-12
 -1      1715 5.23115E+01 4.34907E+00 1.60593E+00 4.49849E+00-6.10456E-13 3.53828E-13
 -1      1716 4.99533E+01 4.84517E+00 1.59377E+00-8.58506E+00-1.09757E-12 2.59148E-12
 -1      1717 5.45564E+01 3.51661E+00 1.86070E+00-3.72765E+00-7.18758E-13 1.69814E-12
 -1      1718 3.70288E+01 6.44756E+00 8.63823E-01-1.16683E+01-1.96199E-12 3.28049E-12
 -1      1719 4.62326E+01 4.97155E+00 1.62833E+00-1.01730E+01-1.38545E-12 2.77434E-12
 -1      1720 2.19192E+01 4.67603E+00-1.61216E-02-9.22009E+00-2.58271E-12 3.03180E-12
 -1      1721 3.17736E+01 5.41562E+00 8.88483E-01-1.15497E+01-2.08888E-12 3.28915E-12
 -1      1722 9.80559E+00 7.18599E-01-7.83038E-01-5.29488E+00-3.10552E-12 2.77145E-12
 -1      1723 1.57101E+01 4.25301E+00 4.51971E-02-8.89317E+00-3.03968E-12 3.27005E-12
 -1      1724 3.77024E+00-6.84579E+00-1.31973E+00-1.52047E+00-2.51221E-12 1.74716E-12
 -1      1725 6.60865E+00-1.49049E+00-6.27211E-01-4.15121E+00-2.90656E-12 2.45470E-12
 -1      1726 3.57955E-01-1.35445E+01-1.77317E+00 4.12177E-01-1.90492E-12 9.12732E-13
 -1      1727 9.06606E-01-8.78430E+00-1.30642E+00 2.27563E-02-2.44516E-12 1.25852E-12
 -1      1728-5.94987E-01-1.64814E+01-1.82407E+00-2.17462E-01-2.90837E-13 7.16371E-13
 -1      1729-6.04005E-01-1.46137E+01-1.67321E+00 1.05604E+00-1.42469E-12 9.75608E-13
 -1      1730 2.40654E+01 1.28653E+00 2.56328E-01 7.58113E+00 1.89160E-12 1.18927E-12
 -1      1731 1.44177E+01-2.94153E+00-3.31701E-01 6.45228E+00 1.88904E-12 1.41737E-12
 -1      1732 1.99993E+01-1.23119E-03 1.88096E-04-1.54176E-03-4.41645E-13-2.96549E-13
 -1      1733 1.99990E+01-1.21056E-03 9.53635E-05-2.80139E-03-6.21683E-14-1.45988E-13
 -1      1734 4.88830E-01-1.01906E+01-1.20679E+00 2.23887E+00 8.15958E-13 1.74338E-12
 -1      1735 6.14851E+00-6.94868E+00-7.95857E-01 4.69107E+00 1.49059E-12 1.72536E-12
 -1      1736-1.31180E+00-1.11602E+01-1.28374E+00 1.38055E-01-6.53852E-14 1.24678E-12
 -1      1737 3.41448E+01 4.16416E+00 8.25436E-01 6.80847E+00 1.46941E-12 9.01612E-13
 -1      1738 4.19524E+01 6.17285E+00 1.20741E+00 4.34945E+00 1.17714E-12 3.98903E-13
 -1      1739 4.59497E+01 7.44612E+00 1.46740E+00 1.31705E+00 1.07320E-12 3.85803E-15
 -1      1740 4.41584E+01 7.44668E+00 1.30946E+00-1.74701E+00 1.28642E-12-5.70377E-13
 -1      1741 3.88610E+01 5.43407E+00 9.79644E-01-4.16158E+00 1.30812E-12-1.07625E-12
 -1      1742 3.05824E+01 1.97741E+00 5.36024E-01-6.07798E+00 1.18294E-12-1.45661E-12
 -1      1743 2.00244E+01-1.14764E+00 5.75321E-02-6.98227E+00 1.18305E-12-1.62692E-12
 -1      1744 9.95149E+00-5.07019E+00-5.87459E-01-5.66338E+00 1.04150E-12-1.45653E-12
 -1      1745 2.95793E+00-8.80620E+00-9.98734E-01-3.62584E+00 5.50227E-13-1.24745E-12
 -1      1746-9.14996E-01-1.12435E+01-1.30168E+00-1.07189E+00-8.89566E-14-1.14347E-12
 -1      1747-6.70882E-01-1.07237E+01-1.20833E+00 1.25603E+00-7.53175E-13-1.12488E-12
 -1      1748 3.56102E+00-8.45240E+00-9.37182E-01 3.79265E+00-1.12865E-12-1.14234E-12
 -1      1749 1.08688E+01-5.07203E+00-5.58367E-01 5.71823E+00-1.38178E-12-1.04791E-12
 -1      1750 2.02569E+01-1.06115E+00-2.56626E-02 6.96234E+00-1.38933E-12-1.02385E-12
 -1      1751 3.06232E+01 2.70663E+00 5.81599E-01 7.22383E+00-1.36513E-12-7.52953E-13
 -1      1752 4.02761E+01 5.50753E+00 1.19871E+00 6.02645E+00-1.11442E-12-2.49134E-13
 -1      1753 4.50071E+01 7.19447E+00 1.36195E+00 2.64002E+00-9.53904E-13 4.05675E-13
 -1      1754 4.61450E+01 7.52091E+00 1.42468E+00-1.17353E+00-1.11106E-12 1.02851E-12
 -1      1755 4.34949E+01 6.24354E+00 1.36081E+00-4.40561E+00-1.33316E-12 1.65912E-12
 -1      1756 3.45999E+01 3.17952E+00 6.64635E-01-5.71304E+00-1.42841E-12 1.72073E-12
 -1      1757 2.40950E+01 4.28714E-02 2.42413E-01-6.95312E+00-1.74349E-12 1.92757E-12
 -1      1758 1.33419E+01-3.75458E+00-4.28082E-01-6.13279E+00-1.73195E-12 2.05241E-12
 -1      1759 5.53323E+00-7.47644E+00-8.56751E-01-4.36438E+00-1.46194E-12 1.53368E-12
 -1      1760 2.76424E-01-1.04003E+01-1.23150E+00-1.96099E+00-8.48654E-13 1.31484E-12
 -1      1761 2.28115E+01 1.97175E+00-2.47926E-02-2.66411E+00-3.09183E-13 1.41859E-12
 -1      1762 1.98758E+01 3.73382E+00-3.52648E-02-2.04119E+00-4.19887E-13-3.55979E-13
 -1      1763 2.01081E+01 3.56899E+00-4.17001E-02-2.32950E+00-4.74206E-13-2.18735E-13
 -1      1764 2.04168E+01 3.17893E+00-4.50356E-02-2.48196E+00-4.69801E-13-3.51039E-14
 -1      1765 2.06255E+01 2.79982E+00-1.40419E-01-2.75582E+00-4.97893E-13 2.24876E-13
 -1      1766 2.04899E+01 2.70029E+00-2.23566E-03-2.10577E+00-4.96945E-13-1.08392E-13
 -1      1767 1.93606E+01 4.24673E+00-2.04770E-02-1.17036E+00-2.38956E-13-5.99139E-13
 -1      1768 1.94492E+01 4.20149E+00-1.61823E-02-1.38717E+00-2.85391E-13-5.72091E-13
 -1      1769 1.92346E+01 4.36986E+00-1.68552E-02-7.82932E-01-1.45895E-13-6.33727E-13
 -1      1770 1.92918E+01 4.34175E+00-1.33798E-02-9.81491E-01-1.97342E-13-6.20904E-13
 -1      1771 1.95162E+01 3.86927E+00-8.41880E-03-1.01696E+00-2.36132E-13-5.81151E-13
 -1      1772 1.91609E+01 4.44234E+00-1.45554E-02-4.21666E-01-4.20286E-14-6.36173E-13
 -1      1773 1.91929E+01 4.42699E+00-1.24311E-02-6.06434E-01-8.95466E-14-6.33965E-13
 -1      1774 1.93877E+01 4.01026E+00-8.14637E-03-6.58892E-01-1.26640E-13-6.06057E-13
 -1      1775 1.91313E+01 4.47353E+00-1.31277E-02-7.48768E-02 4.86833E-14-6.30680E-13
 -1      1776 1.91412E+01 4.46885E+00-1.24853E-02-2.53073E-01 9.54651E-15-6.40739E-13
 -1      1777 1.93158E+01 4.08772E+00-7.95187E-03-3.20016E-01-1.83304E-14-6.06517E-13
 -1      1778 1.91433E+01 4.46681E+00-1.23918E-02 2.69662E-01 1.34129E-13-6.11769E-13
 -1      1779 1.91319E+01 4.47227E+00-1.32539E-02 9.11980E-02 9.41043E-14-6.21149E-13
 -1      1780 1.92936E+01 4.11105E+00-7.90250E-03 8.86280E-03 7.78457E-14-6.04230E-13
 -1      1781 1.91976E+01 4.42136E+00-1.24041E-02 6.24325E-01 2.21642E-13-5.88281E-13
 -1      1782 1.91642E+01 4.43777E+00-1.46890E-02 4.38773E-01 1.76342E-13-6.07056E-13
 -1      1783 1.93192E+01 4.08286E+00-8.01654E-03 3.38274E-01 1.62966E-13-5.83094E-13
 -1      1784 1.92972E+01 4.33399E+00-1.34208E-02 9.94971E-01 2.95887E-13-5.29184E-13
 -1      1785 1.92397E+01 4.36259E+00-1.70210E-02 7.98706E-01 2.59267E-13-5.68457E-13
 -1      1786 1.93938E+01 4.00138E+00-8.16747E-03 6.75556E-01 2.57998E-13-5.56151E-13
 -1      1787 1.94587E+01 4.18795E+00-1.64076E-02 1.40679E+00 3.98704E-13-4.14561E-13
 -1      1788 1.93670E+01 4.23609E+00-2.07786E-02 1.18471E+00 3.41197E-13-4.82520E-13
 -1      1789 1.95244E+01 3.85648E+00-8.45095E-03 1.03239E+00 3.46492E-13-4.80796E-13
 -1      1790 1.97129E+01 3.94984E+00-2.42172E-02 1.86459E+00 4.82616E-13-2.46372E-13
 -1      1791 1.95684E+01 4.03321E+00-2.72759E-02 1.60979E+00 4.32973E-13-3.42663E-13
 -1      1792 1.97311E+01 3.62366E+00-8.17751E-03 1.41566E+00 4.38393E-13-3.47127E-13
 -1      1793 2.01315E+01 3.52993E+00-4.40601E-02 2.36104E+00 5.52884E-13 3.68733E-14
 -1      1794 1.98890E+01 3.69767E+00-3.98280E-02 2.06955E+00 5.08447E-13-1.31679E-13
 -1      1795 2.00535E+01 3.25370E+00-5.03002E-03 1.81080E+00 5.16161E-13-1.60271E-13
 -1      1796 2.09573E+01 2.67362E+00-5.64098E-02 2.76218E+00 5.24841E-13 5.73430E-13
 -1      1797 2.04644E+01 3.09418E+00-4.99911E-02 2.51328E+00 5.28964E-13 2.52950E-13
 -1      1798 2.05737E+01 2.61784E+00 3.22257E-03 2.13044E+00 5.57777E-13 1.61326E-13
 -1      1799 2.17343E+01 1.20618E+00-1.20823E-01 2.25706E+00 4.36332E-13 1.20733E-12
 -1      1800 2.12987E+01 2.25203E+00 2.19385E-05 2.65489E+00 4.78652E-13 7.90659E-13
 -1      1801 2.09860E+01 1.68298E+00-2.17745E-02 2.04399E+00 5.36040E-13 5.74221E-13
 -1      1802 2.09833E+01 7.75914E-01-6.09460E-02 1.45321E+00 4.34645E-13 1.06613E-12
 -1      1803 2.18017E+01 2.44239E+00 8.99480E-02-2.96809E+00-4.21801E-13 6.62567E-13
 -1      1804 2.01903E+01 3.02893E-01-7.75192E-03 5.81968E-01 3.51771E-13 8.19671E-13
 -1      1805 2.07084E+01 4.42604E-01-1.17085E-02 9.61372E-01 3.73236E-13 9.58761E-13
 -1      1806 2.08063E+01 8.45326E-01 1.67248E-03 1.32648E+00 4.46330E-13 6.85861E-13
 -1      1807 2.15345E+01 1.73646E+00 7.89685E-02-2.24883E+00-4.55157E-13 4.76529E-13
 -1      1808 2.06038E+01 5.08605E-01 3.28734E-02-8.29435E-01-3.65982E-13 4.19264E-13
 -1      1809 2.02101E+01 3.65416E-01 9.48248E-03-5.31574E-01-3.21498E-13 3.22881E-13
 -1      1810 2.00445E+01 2.75004E-01 2.77982E-02-2.79874E-01-2.85156E-13 3.14128E-13
 -1      1811 1.99000E+01 2.01059E-01 1.24477E-02-1.29968E-01-2.43064E-13 2.43020E-13
 -1      1812 2.03290E+01 5.06299E-01-6.93608E-03-5.87137E-01-3.50546E-13 1.06099E-13
 -1      1813 1.98163E+01 1.59961E-01 1.72319E-02 2.33012E-02-2.05423E-13 2.27430E-13
 -1      1814 1.97978E+01 1.26047E-01 9.53117E-03 1.11953E-01-1.67743E-13 1.68961E-13
 -1      1815 2.00721E+01 2.81517E-01-6.83953E-03-1.22947E-01-2.74821E-13 9.14871E-14
 -1      1816 1.97824E+01 1.06027E-01 9.52375E-03 2.12710E-01-1.41298E-13 1.36976E-13
 -1      1817 1.98451E+01 9.05071E-02 7.29675E-03 2.72976E-01-1.30721E-13 1.07992E-13
 -1      1818 1.99781E+01 1.78057E-01-5.98912E-03 1.66732E-01-2.04764E-13 3.21095E-14
 -1      1819 1.98823E+01 8.11055E-02 5.30961E-03 3.46959E-01-1.18950E-13 9.20760E-14
 -1      1820 2.00020E+01 7.53293E-02 6.33297E-03 3.94476E-01-1.03990E-13 5.11280E-14
 -1      1821 2.00053E+01 1.30268E-01-5.06184E-03 3.66359E-01-1.52743E-13-2.97973E-14
 -1      1822 2.00801E+01 7.17850E-02 3.11742E-03 4.56158E-01-1.13927E-13 4.48927E-14
 -1      1823 2.02448E+01 7.14503E-02 6.02620E-03 4.99223E-01-1.30356E-13 1.92529E-14
 -1      1824 2.01254E+01 1.10807E-01-4.21016E-03 5.21129E-01-1.27185E-13-4.40167E-14
 -1      1825 2.03567E+01 7.09829E-02 1.93013E-03 5.56802E-01-1.16803E-13 3.43990E-14
 -1      1826 2.05609E+01 7.31425E-02 5.91313E-03 5.99678E-01-1.17971E-13 1.50424E-14
 -1      1827 2.03200E+01 1.06695E-01-3.58518E-03 6.56580E-01-1.14641E-13-2.89048E-14
 -1      1828 2.07027E+01 7.33954E-02 1.21929E-03 6.56950E-01-1.41238E-13 4.71730E-14
 -1      1829 2.09436E+01 7.50956E-02 5.59682E-03 7.00664E-01-8.52788E-14 4.10712E-14
 -1      1830 2.05781E+01 1.09172E-01-3.20107E-03 7.86306E-01-9.93606E-14-1.62709E-14
 -1      1831 2.11133E+01 7.32701E-02 7.11934E-04 7.57250E-01-9.67444E-14 1.71281E-14
 -1      1832 2.13878E+01 7.06236E-02 4.62010E-03 7.99117E-01-8.60824E-14-3.94229E-14
 -1      1833 2.08938E+01 1.09640E-01-3.01143E-03 9.14398E-01-1.26689E-13-3.67273E-15
 -1      1834 2.15846E+01 6.28075E-02 2.71788E-04 8.49500E-01-6.39884E-14-7.64935E-14
 -1      1835 2.18856E+01 5.02662E-02 2.41077E-03 8.81781E-01-1.22422E-14-9.69765E-14
 -1      1836 2.12640E+01 9.69814E-02-2.97560E-03 1.03475E+00-1.03840E-13-1.51812E-14
 -1      1837 2.21085E+01 3.09844E-02-1.26350E-04 9.13492E-01-1.18406E-14-8.34649E-14
 -1      1838 2.24210E+01 1.10408E-03-1.65380E-03 9.21588E-01-1.62384E-14-9.28034E-14
 -1      1839 2.16857E+01 5.56577E-02-3.07333E-03 1.12815E+00-1.14029E-14-4.18738E-14
 -1      1840 2.26683E+01-3.63941E-02-3.98120E-04 9.13148E-01 6.88468E-15-1.02947E-13
 -1      1841 2.29645E+01-9.16471E-02-7.96741E-03 8.74402E-01 2.94526E-14-4.09178E-14
 -1      1842 2.21548E+01-3.45291E-02-3.25109E-03 1.15824E+00 7.02444E-15-2.14152E-14
 -1      1843 2.32316E+01-1.53038E-01-3.86373E-04 7.94747E-01-4.65817E-15 1.08598E-14
 -1      1844 2.34682E+01-2.37373E-01-1.60814E-02 6.80553E-01-2.66410E-14 3.97113E-14
 -1      1845 2.26625E+01-1.94037E-01-3.24288E-03 1.06864E+00 3.81184E-14 7.28632E-14
 -1      1846 2.37418E+01-3.20611E-01-1.64260E-04 4.93701E-01-2.47215E-14 4.28303E-14
 -1      1847 2.38614E+01-4.21900E-01-2.37199E-02 2.79807E-01-3.99637E-14 3.17973E-14
 -1      1848 2.31901E+01-4.28973E-01-2.22983E-03 7.86841E-01-1.87749E-14 1.18797E-13
 -1      1849 2.41083E+01-5.04567E-01-9.34364E-04-3.64601E-02-6.58935E-14 4.81520E-14
 -1      1850 2.40523E+01-5.80289E-01-2.63736E-02-3.45505E-01-7.90409E-14 2.64302E-14
 -1      1851 2.36942E+01-6.97892E-01 1.46456E-03 2.46473E-01-5.01352E-14 1.04949E-13
 -1      1852 2.42089E+01-6.09164E-01-4.65775E-03-7.62656E-01-7.52159E-14-1.17519E-14
 -1      1853 2.39480E+01-5.82082E-01-1.81287E-02-1.09969E+00-1.02099E-13 1.54338E-14
 -1      1854 2.40872E+01-8.78359E-01 8.29650E-03-5.53504E-01-1.10811E-13 1.16687E-13
 -1      1855 2.39262E+01-4.81036E-01-1.28869E-02-1.49021E+00-8.98222E-14 8.14262E-14
 -1      1856 2.35000E+01-2.79656E-01 1.64356E-03-1.70516E+00-9.77452E-14 9.01119E-14
 -1      1857 2.42300E+01-7.62472E-01 1.50894E-02-1.45896E+00-5.54778E-14 2.09614E-13
 -1      1858 2.32618E+01-1.49672E-02-2.04305E-02-1.83841E+00-1.42230E-13 7.33216E-14
 -1      1859 2.28042E+01 3.24334E-01 2.12646E-02-1.75143E+00-8.01460E-14 1.90646E-15
 -1      1860 2.39963E+01-1.82616E-01 1.24289E-02-2.08142E+00-1.19201E-13 2.36392E-13
 -1      1861 2.24732E+01 6.43399E-01-1.80624E-02-1.43140E+00-1.76959E-14-6.91513E-14
 -1      1862 2.21745E+01 9.21850E-01 2.05018E-02-9.88636E-01 1.72466E-14-7.06245E-14
 -1      1863 2.34524E+01 7.26067E-01-1.06857E-02-1.91737E+00-1.03133E-13 1.61395E-13
 -1      1864 2.20175E+01 1.07125E+00 1.05999E-03-2.86224E-01-2.70686E-14-2.23351E-13
 -1      1865 2.20220E+01 1.06898E+00 8.22395E-04 3.20928E-01-1.38785E-13-2.53565E-13
 -1      1866 2.29719E+01 1.44131E+00-3.98430E-02-7.76346E-01-9.65339E-14-1.88038E-14
 -1      1867 2.21908E+01 9.18835E-01 2.28208E-02 1.02054E+00-2.03386E-13-3.44240E-13
 -1      1868 2.25005E+01 6.39291E-01-1.55248E-02 1.46156E+00-1.05520E-13-4.11261E-13
 -1      1869 2.29854E+01 1.44903E+00-3.32955E-02 8.21028E-01-2.09999E-13-3.07990E-13
 -1      1870 2.28374E+01 3.18844E-01 2.21691E-02 1.77722E+00-6.90507E-14-5.70578E-13
 -1      1871 2.33048E+01-1.87391E-02-1.93471E-02 1.86137E+00-3.98169E-14-6.00704E-13
 -1      1872 2.34809E+01 7.22506E-01-6.72931E-03 1.95113E+00-1.53886E-13-5.11453E-13
 -1      1873 2.35468E+01-2.81717E-01 1.55066E-03 1.72642E+00 2.51492E-14-6.18568E-13
 -1      1874 2.39829E+01-4.79881E-01-1.22191E-02 1.51119E+00 5.59127E-14-5.63737E-13
 -1      1875 2.40341E+01-1.86528E-01 1.32460E-02 2.10832E+00-2.73219E-17-6.56942E-13
 -1      1876 2.40094E+01-5.79096E-01-1.90504E-02 1.12305E+00 8.02925E-14-4.58759E-13
 -1      1877 2.42808E+01-6.03857E-01-5.11347E-03 7.88400E-01 9.63171E-14-4.38597E-13
 -1      1878 2.42765E+01-7.63690E-01 1.28178E-02 1.48706E+00 1.22974E-13-4.96133E-13
 -1      1879 2.41331E+01-5.73274E-01-2.70285E-02 3.76574E-01 3.27273E-14-4.56099E-13
 -1      1880 2.42022E+01-4.95855E-01-1.01547E-03 7.20448E-02 4.97363E-14-4.00384E-13
 -1      1881 2.41484E+01-8.71892E-01 5.69493E-03 5.90975E-01 1.21617E-13-3.47448E-13
 -1      1882 2.39667E+01-4.11654E-01-2.38945E-02-2.36940E-01 3.97338E-15-2.73783E-13
 -1      1883 2.38644E+01-3.09324E-01 1.28429E-04-4.44546E-01 3.58767E-14-2.78710E-13
 -1      1884 2.37763E+01-6.85414E-01-1.64212E-04-1.95527E-01 7.36989E-14-1.69761E-13
 -1      1885 2.36055E+01-2.25451E-01-1.59009E-02-6.22796E-01 9.41547E-14-2.02610E-13
 -1      1886 2.33912E+01-1.40637E-01 2.52385E-04-7.29907E-01 1.27256E-13-9.81038E-14
 -1      1887 2.32987E+01-4.11809E-01-2.82827E-03-7.18212E-01 1.02098E-13-5.26120E-14
 -1      1888 2.31414E+01-7.88920E-02-7.72328E-03-8.00520E-01 6.09441E-14-8.76812E-14
 -1      1889 2.28730E+01-2.32166E-02 3.82977E-04-8.31680E-01 2.16728E-14-1.31177E-13
 -1      1890 2.28033E+01-1.75086E-01-3.46058E-03-9.80775E-01 8.89545E-14 6.62432E-14
 -1      1891 2.26456E+01 1.44309E-02-1.47539E-03-8.30732E-01-7.77188E-14-1.98937E-13
 -1      1892 2.23666E+01 4.45888E-02 6.93529E-04-8.14779E-01-3.14055E-14-2.37889E-13
 -1      1893 2.23330E+01-1.43505E-02-3.31965E-03-1.05011E+00-5.05618E-15-4.22028E-14
 -1      1894 2.21658E+01 6.36966E-02 2.45975E-03-7.73769E-01-3.18926E-14-3.10585E-13
 -1      1895 2.19035E+01 7.61613E-02 1.04221E-03-7.33728E-01-1.33425E-13-3.18018E-13
 -1      1896 2.19065E+01 7.62873E-02-3.03337E-03-9.99498E-01-1.16252E-13-1.53627E-13
 -1      1897 2.17303E+01 8.32584E-02 4.48061E-03-6.74878E-01-1.91159E-13-3.01544E-13
 -1      1898 2.14990E+01 8.51368E-02 1.30460E-03-6.26012E-01-1.80119E-13-2.96183E-13
 -1      1899 2.15312E+01 1.16809E-01-2.77709E-03-8.86734E-01-1.38736E-13-2.18165E-13
 -1      1900 2.13525E+01 8.53632E-02 5.18377E-03-5.63049E-01-1.47923E-13-2.66874E-13
 -1      1901 2.11573E+01 8.17103E-02 1.43367E-03-5.14210E-01-5.31584E-14-2.50898E-13
 -1      1902 2.12090E+01 1.26526E-01-2.55084E-03-7.50507E-01-1.50211E-13 4.26154E-14
 -1      1903 2.10359E+01 7.84853E-02 5.09589E-03-4.54672E-01 1.00633E-14-2.40628E-13
 -1      1904 2.08766E+01 7.24529E-02 1.43951E-03-4.10330E-01 7.07433E-14-3.38778E-13
 -1      1905 2.09385E+01 1.19610E-01-2.32467E-03-6.13803E-01 2.38803E-14 4.43891E-14
 -1      1906 2.07777E+01 6.78281E-02 4.59783E-03-3.57761E-01-6.45083E-14-3.45787E-13
 -1      1907 2.06511E+01 6.12017E-02 1.35587E-03-3.19715E-01-1.35488E-13-3.56076E-13
 -1      1908 2.07160E+01 1.05097E-01-2.08290E-03-4.88670E-01-8.22431E-14-8.24662E-14
 -1      1909 2.05721E+01 5.63114E-02 3.93316E-03-2.75291E-01-1.82380E-13-4.54773E-13
 -1      1910 2.04738E+01 5.00101E-02 1.21894E-03-2.43849E-01-2.41715E-13-5.81260E-13
 -1      1911 2.05365E+01 8.82143E-02-1.82693E-03-3.80288E-01-1.78733E-13-1.07813E-13
 -1      1912 2.04118E+01 4.54274E-02 3.24305E-03-2.07456E-01-3.67959E-14-5.93708E-13
 -1      1913 2.03369E+01 3.98628E-02 1.05804E-03-1.82171E-01 1.04774E-13-4.91815E-13
 -1      1914 2.03943E+01 7.17279E-02-1.56725E-03-2.89849E-01-7.70265E-14-2.21628E-13
 -1      1915 2.02892E+01 3.58376E-02 2.60109E-03-1.53059E-01 1.98788E-13-5.09047E-13
 -1      1916 2.02334E+01 3.11407E-02 8.93555E-04-1.33160E-01 2.40864E-13-3.72240E-13
 -1      1917 2.02838E+01 5.69347E-02-1.31607E-03-2.16429E-01 1.73809E-13-2.96972E-13
 -1      1918 2.01974E+01 2.77458E-02 2.03971E-03-1.10328E-01 1.80614E-13-3.02027E-13
 -1      1919 2.01567E+01 2.39023E-02 7.38059E-04-9.49534E-02 6.50436E-14-1.44810E-13
 -1      1920 2.01995E+01 4.43079E-02-1.08319E-03-1.58115E-01 2.89731E-13-4.11615E-13
 -1      1921 2.01300E+01 2.11189E-02 1.56794E-03-7.73571E-02-1.56777E-13-2.28772E-13
 -1      1922 2.01012E+01 1.80462E-02 5.98233E-04-6.56763E-02-6.99770E-14-1.94444E-13
 -1      1923 2.01364E+01 3.38841E-02-8.74776E-04-1.12654E-01-7.86810E-14-2.56478E-13
 -1      1924 2.00819E+01 1.58124E-02 1.18238E-03-5.23383E-02-6.27326E-14-6.49072E-14
 -1      1925 2.00621E+01 1.34014E-02 4.76602E-04-4.36095E-02 1.03902E-13-2.13902E-13
 -1      1926 2.00902E+01 2.54871E-02-6.93508E-04-7.78136E-02 3.53467E-14-2.01334E-13
 -1      1927 2.00485E+01 1.16383E-02 8.73687E-04-3.36690E-02 3.66998E-13-2.86154E-13
 -1      1928 2.00355E+01 9.77437E-03 3.72685E-04-2.72598E-02 2.03223E-13-2.11575E-13
 -1      1929 2.00572E+01 1.88508E-02-5.39418E-04-5.15545E-02 1.59529E-13-1.08934E-13
 -1      1930 2.00262E+01 8.39891E-03 6.30204E-04-1.99914E-02 5.86107E-14-7.19486E-14
 -1      1931 2.00182E+01 6.97110E-03 2.83881E-04-1.53835E-02 3.00971E-13 1.87300E-13
 -1      1932 2.00344E+01 1.36819E-02-4.10863E-04-3.21125E-02 2.75596E-13-3.41559E-14
 -1      1933 2.00122E+01 5.90130E-03 4.39771E-04-1.01997E-02 2.80077E-13 1.43953E-13
 -1      1934 2.00078E+01 4.80290E-03 2.05549E-04-6.98702E-03 2.12037E-13 7.88721E-14
 -1      1935 2.00193E+01 9.69029E-03-3.04763E-04-1.80245E-02 2.68761E-13 2.15002E-13
 -1      1936 2.00042E+01 3.95497E-03 2.92188E-04-3.43769E-03 9.43949E-14 1.77284E-13
 -1      1937 2.00022E+01 3.08203E-03 1.38608E-04-1.33280E-03 1.84583E-13 1.76003E-13
 -1      1938 2.00098E+01 6.58567E-03-2.18270E-04-8.12906E-03 2.17138E-13 2.34952E-13
 -1      1939 2.00002E+01 2.31850E-03 1.71397E-04 9.20117E-04 3.07613E-13 3.24779E-13
 -1      1940 1.99998E+01 1.53798E-03 7.86015E-05 2.05327E-03 3.15930E-13 4.35637E-13
 -1      1941 2.00042E+01 4.09567E-03-1.41217E-04-1.56686E-03 2.49583E-13 4.47768E-13
 -1      1942 1.99988E+01 8.37504E-04 1.08414E-04 3.10642E-03 2.14102E-13 4.51512E-13
 -1      1943 1.99992E+01-3.84898E-05 2.96224E-05 3.27483E-03 1.22510E-13 3.73416E-13
 -1      1944 2.00000E+01-5.86416E-04-8.15238E-05 3.56450E-03 2.12367E-14 5.30026E-13
 -1      1945 2.00012E+01 1.68967E-03-1.29359E-04 2.16921E-03 2.96908E-13 6.37521E-13
 -1      1946 1.97791E+01 1.53015E-01 8.93266E-03 1.69513E-01 2.81586E-13 6.38874E-13
 -1      1947 2.00111E+01 2.12844E-01 1.70878E-02 3.49762E-01 3.02185E-13 7.42019E-13
 -1      1948 2.02212E+01 3.60614E-01-2.17509E-03 5.52664E-01 3.71061E-13 5.19354E-13
 -1      1949 1.96273E+01 8.85103E-02 8.15466E-03-5.82030E-02 2.43409E-13 4.98764E-13
 -1      1950 1.96924E+01 1.16425E-01 1.49980E-02 4.21491E-02 2.36297E-13 5.94929E-13
 -1      1951 1.99013E+01 1.83670E-01-2.75563E-03 1.29183E-01 2.87951E-13 4.28244E-13
 -1      1952 1.96526E+01 5.82210E-02 5.89062E-03-1.98060E-01 1.47953E-13 3.82768E-13
 -1      1953 1.96191E+01 7.22844E-02 9.38166E-03-1.34445E-01 1.96521E-13 4.62162E-13
 -1      1954 1.97938E+01 1.07167E-01-3.78017E-03-1.19101E-01 2.30047E-13 3.10754E-13
 -1      1955 1.97988E+01 4.36063E-02 4.59458E-03-2.94416E-01 4.85488E-14 2.97227E-13
 -1      1956 1.97020E+01 5.09917E-02 5.64435E-03-2.48774E-01 7.19496E-14 3.57503E-13
 -1      1957 1.98329E+01 7.16794E-02-4.00057E-03-2.78879E-01 1.25016E-13 1.90572E-13
 -1      1958 2.00325E+01 3.66883E-02 3.94315E-03-3.69160E-01 8.19334E-14 2.35711E-13
 -1      1959 1.98910E+01 4.07554E-02 3.64274E-03-3.32295E-01 5.15703E-14 2.66400E-13
 -1      1960 1.99754E+01 5.50170E-02-3.70898E-03-3.93466E-01 7.38407E-14 1.34611E-13
 -1      1961 2.03343E+01 3.30295E-02 3.48510E-03-4.32892E-01 1.18186E-13 2.26164E-13
 -1      1962 2.01581E+01 3.57801E-02 2.55296E-03-4.00325E-01 1.09314E-13 2.44306E-13
 -1      1963 2.01952E+01 4.71059E-02-3.34566E-03-4.84699E-01 1.15889E-13 6.62388E-14
 -1      1964 2.06918E+01 2.91152E-02 2.92293E-03-4.88958E-01 1.11693E-13 1.06010E-13
 -1      1965 2.04872E+01 3.21724E-02 1.82691E-03-4.59359E-01 1.21166E-13 2.02440E-13
 -1      1966 2.04762E+01 4.18692E-02-3.07260E-03-5.62480E-01 1.50544E-13 1.12942E-13
 -1      1967 2.10939E+01 2.12562E-02 2.02880E-03-5.34289E-01 5.17130E-14 1.15422E-13
 -1      1968 2.08672E+01 2.62708E-02 1.14109E-03-5.09267E-01 7.09523E-14 1.09360E-13
 -1      1969 2.08071E+01 3.40679E-02-2.87755E-03-6.28084E-01 1.01048E-13 1.03653E-13
 -1      1970 2.15260E+01 5.14042E-03 6.02258E-04-5.58860E-01 6.01738E-14 1.55003E-13
 -1      1971 2.12861E+01 1.39241E-02 2.81580E-04-5.43363E-01 5.01664E-14 1.29753E-13
 -1      1972 2.11773E+01 1.80060E-02-2.66586E-03-6.74635E-01 6.95766E-14 1.11908E-13
 -1      1973 2.19647E+01-2.39543E-02-1.47526E-03-5.44851E-01 4.44506E-14 1.57195E-13
 -1      1974 2.17264E+01-9.62895E-03-8.95844E-04-5.47703E-01 4.90437E-14 1.30307E-13
 -1      1975 2.15727E+01-1.27645E-02-2.28183E-03-6.86441E-01 3.96788E-14 9.60204E-14
 -1      1976 2.23737E+01-6.97825E-02-4.09516E-03-4.66989E-01 6.76015E-14 7.46903E-14
 -1      1977 2.21603E+01-4.89666E-02-2.44253E-03-5.00840E-01 6.56298E-14 1.60121E-13
 -1      1978 2.19720E+01-6.44736E-02-1.49484E-03-6.38672E-01 6.14296E-14 2.59538E-14
 -1      1979 2.27006E+01-1.31786E-01-6.72491E-03-2.96637E-01-2.69281E-14 6.97049E-14
 -1      1980 2.25447E+01-1.06027E-01-4.25567E-03-3.76024E-01-3.58177E-15 9.18588E-14
 -1      1981 2.23425E+01-1.39976E-01 6.55641E-06-4.99584E-01 3.24268E-14 5.82381E-14
 -1      1982 2.28784E+01-1.99501E-01-8.28668E-03-1.32026E-02-8.26726E-14 2.47676E-13
 -1      1983 2.28196E+01-1.75364E-01-6.04415E-03-1.48884E-01-6.09564E-14 1.41420E-13
 -1      1984 2.26378E+01-2.32570E-01 2.51664E-03-2.38812E-01-7.33224E-14 1.48980E-13
 -1      1985 2.28363E+01-2.46348E-01-7.35497E-03 3.74194E-01-8.45209E-14 2.19580E-13
 -1      1986 2.29119E+01-2.37543E-01-7.28439E-03 1.86185E-01-7.11532E-14 2.40279E-13
 -1      1987 2.27979E+01-3.17438E-01 6.06507E-03 1.54415E-01-7.90505E-14 1.65510E-13
 -1      1988 2.25229E+01-2.30239E-01-3.38225E-03 7.97806E-01 1.00267E-14 2.42448E-13
 -1      1989 2.27523E+01-2.55169E-01-7.31648E-03 5.90746E-01-4.25259E-14 2.27701E-13
 -1      1990 2.27579E+01-3.46269E-01 9.88964E-03 6.41998E-01 9.87838E-15 2.83397E-13
 -1      1991 2.19477E+01-1.13583E-01 1.79805E-03 1.11673E+00 1.50106E-13 2.54002E-13
 -1      1992 2.23104E+01-1.83714E-01-5.71458E-03 9.59626E-01 1.10662E-13 2.16605E-13
 -1      1993 2.24739E+01-2.60482E-01 1.14625E-02 1.10712E+00 1.10733E-13 2.40896E-13
 -1      1994 2.12235E+01 9.85939E-02 4.52903E-03 1.15212E+00 5.26523E-14 1.38743E-13
 -1      1995 2.16448E+01-3.66817E-03-2.00059E-03 1.13118E+00 9.08128E-14 1.69554E-13
 -1      1996 2.19694E+01-3.11906E-02 7.81759E-03 1.35865E+00 1.58600E-13 2.09928E-13
 -1      1997 2.05765E+01 3.25237E-01 1.72492E-03 7.91114E-01 2.61275E-14 1.00968E-13
 -1      1998 2.09341E+01 2.37362E-01 3.85340E-03 9.57305E-01 8.00254E-14 1.57784E-13
 -1      1999 2.13790E+01 2.87939E-01-1.23605E-03 1.20574E+00 8.35443E-14 1.41247E-13
 -1      2000 2.02747E+01 4.39109E-01-3.99003E-03 1.10471E-01 9.90805E-14-8.97273E-14
 -1      2001 2.04383E+01 4.19756E-01 1.01484E-02 4.22015E-01 2.03761E-14-6.61702E-14
 -1      2002 2.09371E+01 5.49858E-01-1.04228E-02 6.00004E-01 8.00835E-14-2.11411E-14
 -1      2003 2.04657E+01 3.69760E-01-6.95680E-03-6.20395E-01 2.63182E-13-2.26125E-13
 -1      2004 2.03662E+01 4.33946E-01 1.34527E-02-2.90065E-01 2.04415E-13-1.15130E-13
 -1      2005 2.08603E+01 6.06650E-01-1.19983E-02-2.58850E-01 2.41881E-13-1.01143E-13
 -1      2006 2.10749E+01 1.62054E-01-3.51425E-03-1.10126E+00 9.77222E-14-5.00180E-13
 -1      2007 2.07447E+01 2.72082E-01 1.13048E-02-8.85491E-01 2.00994E-13-3.64694E-13
 -1      2008 2.11901E+01 4.24551E-01-4.57417E-03-1.01375E+00 2.91205E-13-3.33556E-13
 -1      2009 2.18487E+01-6.16192E-02 2.58248E-03-1.18653E+00-4.01133E-14-4.97855E-13
 -1      2010 2.14083E+01 3.46489E-02 4.27288E-03-1.14418E+00-2.90618E-14-5.37067E-13
 -1      2011 2.17648E+01 1.07765E-01 2.91159E-03-1.37392E+00 2.65517E-14-5.06897E-13
 -1      2012 2.25209E+01-2.02640E-01 7.11721E-03-9.40956E-01-1.19529E-13-3.51139E-13
 -1      2013 2.21093E+01-1.55705E-01-3.60371E-03-1.04029E+00-6.67565E-14-4.60555E-13
 -1      2014 2.23395E+01-1.77329E-01 5.12824E-03-1.28363E+00-1.10523E-13-5.13612E-13
 -1      2015 2.29358E+01-2.39770E-01 7.80832E-03-5.37798E-01-1.03434E-13-2.42860E-13
 -1      2016 2.26497E+01-2.40843E-01-8.73068E-03-7.04480E-01-9.83554E-14-2.57580E-13
 -1      2017 2.27370E+01-3.28120E-01 3.27982E-03-8.91658E-01-1.35827E-13-3.86718E-13
 -1      2018 2.30640E+01-2.04451E-01 5.73012E-03-1.37174E-01-1.38960E-14-1.52925E-14
 -1      2019 2.29366E+01-2.33254E-01-1.02589E-02-3.04098E-01-7.73539E-14-1.47651E-13
 -1      2020 2.28958E+01-3.41512E-01 5.13313E-04-4.03912E-01-9.61314E-14-2.35814E-13
 -1      2021 2.29557E+01-1.39606E-01 2.86568E-03 1.70750E-01-3.22468E-14-1.08261E-13
 -1      2022 2.29709E+01-1.75747E-01-9.03956E-03 4.12214E-02-3.37681E-14-9.41395E-14
 -1      2023 2.28403E+01-2.70525E-01-1.10953E-03 2.69286E-02-8.33361E-15-1.35607E-13
 -1      2024 2.26891E+01-7.55035E-02 5.39395E-04 3.61968E-01 5.33809E-14-1.46225E-13
 -1      2025 2.28071E+01-1.06786E-01-6.48091E-03 2.80210E-01 7.26849E-15-3.77294E-14
 -1      2026 2.26307E+01-1.72611E-01-1.48935E-03 3.31749E-01 3.68113E-14-1.35540E-13
 -1      2027 2.23383E+01-2.59181E-02-8.27268E-04 4.51176E-01 3.74655E-14-2.11716E-13
 -1      2028 2.25158E+01-4.79944E-02-3.70827E-03 4.11577E-01 5.21447E-14-1.72685E-13
 -1      2029 2.23303E+01-8.40695E-02-1.22378E-03 5.04540E-01 8.04751E-14-1.36028E-14
 -1      2030 2.19606E+01 6.62728E-03-1.37059E-03 4.66937E-01-1.99998E-13-1.99236E-13
 -1      2031 2.21618E+01-6.50757E-03-1.35634E-03 4.58021E-01-5.76163E-14-1.87443E-13
 -1      2032 2.19914E+01-1.92187E-02-8.30483E-04 5.70776E-01-4.15555E-14-3.86145E-14
 -1      2033 2.15945E+01 2.48532E-02-1.39693E-03 4.37310E-01-1.51148E-14-3.78966E-13
 -1      2034 2.17942E+01 1.85934E-02 3.39748E-04 4.47635E-01-1.84115E-13-3.57344E-13
 -1      2035 2.16510E+01 2.12741E-02-5.46908E-04 5.64148E-01-5.80579E-14-2.70913E-13
 -1      2036 2.12624E+01 3.28794E-02-1.17322E-03 3.84180E-01 3.70814E-14-2.71062E-13
 -1      2037 2.14456E+01 3.12054E-02 1.39075E-03 4.04725E-01 9.83912E-14-2.76823E-13
 -1      2038 2.13332E+01 4.24639E-02-4.11503E-04 5.14668E-01 4.36652E-14-3.02352E-13
 -1      2039 2.09752E+01 3.44374E-02-8.72242E-04 3.22454E-01 2.29635E-14-2.67979E-13
 -1      2040 2.11343E+01 3.54763E-02 1.92170E-03 3.47008E-01 3.41259E-14-1.71862E-13
 -1      2041 2.10511E+01 5.04474E-02-3.80084E-04 4.44699E-01 2.40900E-14-1.77563E-13
 -1      2042 2.07356E+01 3.23243E-02-5.84605E-04 2.61239E-01 1.60899E-13-1.63059E-13
 -1      2043 2.08683E+01 3.47511E-02 2.08488E-03 2.85953E-01 2.53556E-14-2.75479E-13
 -1      2044 2.08100E+01 5.03713E-02-3.96781E-04 3.69040E-01 6.67387E-14-3.19800E-14
 -1      2045 2.05417E+01 2.84240E-02-3.47399E-04 2.05470E-01 7.53597E-14 5.17122E-14
 -1      2046 2.06488E+01 3.13863E-02 2.01593E-03 2.28216E-01 1.87599E-13-6.61692E-14
 -1      2047 2.06105E+01 4.59455E-02-4.21458E-04 2.96495E-01 1.47939E-13 2.68692E-13
 -1      2048 2.03888E+01 2.39093E-02-1.68742E-04 1.57344E-01-2.01367E-13 5.84434E-14
 -1      2049 2.04728E+01 2.69023E-02 1.81851E-03 1.77134E-01-5.48418E-14 3.98475E-14
 -1      2050 2.04496E+01 3.95941E-02-4.33638E-04 2.31651E-01 7.41161E-15 3.51596E-13
 -1      2051 2.02710E+01 1.94564E-02-4.34134E-05 1.17388E-01-4.80573E-14-2.90615E-14
 -1      2052 2.03353E+01 2.22093E-02 1.56420E-03 1.33938E-01-1.70607E-13-8.00141E-16
 -1      2053 2.03231E+01 3.27810E-02-4.27107E-04 1.76359E-01-1.05684E-13 2.07051E-13
 -1      2054 2.01826E+01 1.54166E-02 3.85753E-05 8.51938E-02-2.90541E-13 1.67304E-13
 -1      2055 2.02305E+01 1.78070E-02 1.29842E-03 9.86221E-02-1.59288E-13-7.31408E-14
 -1      2056 2.02258E+01 2.63178E-02-4.03446E-04 1.30827E-01-1.69616E-13 6.44052E-14
 -1      2057 2.01179E+01 1.19390E-02 8.77236E-05 5.98893E-02-2.32250E-13 3.60840E-13
 -1      2058 2.01527E+01 1.39335E-02 1.04739E-03 7.05190E-02-2.89238E-13 2.32283E-13
 -1      2059 2.01528E+01 2.05982E-02-3.67431E-04 9.43579E-02-3.84886E-13 1.74380E-13
 -1      2060 2.00719E+01 9.05368E-03 1.13237E-04 4.04336E-02 1.49095E-14 2.01888E-13
 -1      2061 2.00963E+01 1.06685E-02 8.24292E-04 4.86693E-02-1.26523E-13 3.14698E-13
 -1      2062 2.00993E+01 1.57632E-02-3.24346E-04 6.58285E-02-7.79200E-14 2.08063E-13
 -1      2063 2.00404E+01 6.72495E-03 1.22360E-04 2.57849E-02 1.13804E-13 3.20188E-13
 -1      2064 2.00569E+01 8.00124E-03 6.33903E-04 3.20406E-02 7.85669E-14 2.24103E-13
 -1      2065 2.00613E+01 1.18086E-02-2.78693E-04 4.39850E-02 9.23772E-14 1.64559E-13
 -1      2066 2.00199E+01 4.88486E-03 1.19949E-04 1.49919E-02 3.61688E-13 7.95865E-14
 -1      2067 2.00304E+01 5.87406E-03 4.75703E-04 1.96508E-02 3.43260E-13 3.00229E-13
 -1      2068 2.00353E+01 8.65491E-03-2.33754E-04 2.76101E-02 3.82550E-13 2.29947E-13
 -1      2069 2.00075E+01 3.44743E-03 1.08390E-04 7.23910E-03 4.67846E-13-6.66156E-14
 -1      2070 2.00136E+01 4.20601E-03 3.46193E-04 1.06330E-02 3.82433E-13-7.83688E-15
 -1      2071 2.00183E+01 6.18475E-03-1.92145E-04 1.56140E-02 4.72004E-13 4.59652E-14
 -1      2072 2.00010E+01 2.30584E-03 8.88875E-05 1.87792E-03 1.83757E-13-2.60072E-13
 -1      2073 2.00039E+01 2.89733E-03 2.40689E-04 4.27013E-03 2.99525E-13-9.05313E-14
 -1      2074 2.00079E+01 4.25656E-03-1.54488E-04 7.08179E-03 3.60298E-13-6.64510E-14
 -1      2075 1.99983E+01 1.32730E-03 6.19007E-05-1.52417E-03-1.97292E-13-2.94823E-13
 -1      2076 1.99992E+01 1.82161E-03 1.54760E-04 3.41735E-05-1.71431E-14-3.15345E-13
 -1      2077 2.00023E+01 2.69094E-03-1.20115E-04 1.32642E-03 3.72208E-14-3.04753E-13
 -1      2078 1.99981E+01 3.37495E-04 5.30299E-05-3.10740E-03 2.89387E-14-2.54752E-13
 -1      2079 1.99977E+01 8.16094E-04 8.83978E-05-2.39445E-03-8.26126E-14-2.29445E-13
 -1      2080 1.99998E+01 1.28054E-03-8.18410E-05-2.10726E-03-1.05975E-13-1.16019E-13
 -1      2081 1.99989E+01-7.25334E-04 3.99836E-05-2.99436E-03 8.40311E-14-1.30451E-13
 -1      2082 1.99981E+01-3.75366E-05 4.65239E-05-3.18289E-03 8.25553E-14-2.06977E-13
 -1      2083 1.99993E+01 1.19631E-04-2.68399E-05-3.36089E-03 7.52402E-14 1.09011E-13
 -1      2084 1.99995E+01-1.32298E-03 2.99558E-05-3.30374E-03 1.18538E-13 2.07095E-13
 -1      2085 2.00011E+01 7.63112E-04-2.92139E-05 7.48281E-04-8.51834E-14 2.78150E-13
 -1      2086 2.00013E+01 5.05297E-04 7.48668E-05-2.26200E-05 1.03715E-13 1.42697E-13
 -1      2087 2.00013E+01-7.95040E-04-2.16615E-06-1.05965E-03 1.84964E-14 7.62735E-14
 -1      2088 2.00012E+01-6.57203E-04 5.03821E-05-1.86990E-03 4.72860E-14 6.64851E-14
 -1      2089 2.00020E+01 3.12843E-03-3.28038E-05 5.14495E-05 1.77521E-14 9.95867E-14
 -1      2090 2.00008E+01-1.56394E-03 1.84562E-05-2.65153E-03 6.42597E-15 5.59517E-15
 -1      2091 2.00002E+01-1.08339E-03 1.90219E-05-2.95707E-03 9.47544E-14-3.87586E-14
 -1      2092 2.00003E+01-2.88716E-04-1.07538E-06-3.16785E-03 9.25893E-14-4.37414E-14
 -1      2093 2.00015E+01 8.94894E-04-6.46656E-05-2.03225E-03-7.09926E-14 3.00435E-14
 -1      2094 2.00004E+01 2.90508E-03-5.16795E-05 1.93187E-03-3.14123E-13-4.95015E-13
 -1      2095 2.00008E+01 2.32909E-03 7.43835E-05 1.48618E-03-2.81636E-13 8.42247E-14
 -1      2096 2.00015E+01 5.96811E-03-2.39199E-06 2.01045E-03-1.00968E-13-1.58339E-14
 -1      2097 1.99997E+01 5.16670E-03-6.62868E-05 2.19703E-03-6.53410E-14-6.74438E-14
 -1      2098 2.00001E+01 4.47533E-03 4.78578E-05 2.16442E-03-1.25710E-13-2.01748E-13
 -1      2099 2.00005E+01 9.06622E-03 3.25057E-05 3.03853E-03-1.27372E-13-2.56084E-13
 -1      2100 1.99991E+01 6.95184E-03-6.75771E-05 1.55323E-03 3.71739E-14-9.44394E-14
 -1      2101 1.99994E+01 6.41867E-03 1.05975E-05 1.89090E-03 6.91303E-14-2.36238E-14
 -1      2102 1.99995E+01 1.18602E-02 6.57205E-05 2.87939E-03 6.22934E-14-4.53504E-14
 -1      2103 1.99988E+01 7.81487E-03-5.34510E-05 3.12032E-04-1.26431E-13 3.32491E-13
 -1      2104 1.99989E+01 7.63484E-03-2.63500E-05 8.58530E-04-3.07601E-14 9.28909E-14
 -1      2105 1.99987E+01 1.37761E-02 8.89914E-05 1.67185E-03-1.65653E-14-7.35687E-14
 -1      2106 1.99989E+01 7.55022E-03-2.50567E-05-1.05430E-03-2.83088E-13 2.21361E-13
 -1      2107 1.99988E+01 7.79149E-03-5.39484E-05-5.16788E-04-3.19837E-13 4.69927E-13
 -1      2108 1.99984E+01 1.44296E-02 9.70644E-05-1.26559E-04-3.43121E-13 1.15989E-13
 -1      2109 1.99994E+01 6.23819E-03 1.16877E-05-2.03885E-03-1.94110E-13-1.83275E-13
 -1      2110 1.99991E+01 6.82390E-03-6.68412E-05-1.72782E-03-3.03434E-13 1.41161E-13
 -1      2111 1.99987E+01 1.36864E-02 8.80645E-05-1.90133E-03-5.37176E-13 2.48817E-13
 -1      2112 2.00001E+01 4.27128E-03 4.87188E-05-2.23754E-03 2.94510E-14-6.06870E-13
 -1      2113 1.99997E+01 4.97549E-03-6.54494E-05-2.30256E-03-4.43067E-14-2.51002E-13
 -1      2114 1.99995E+01 1.17160E-02 6.63348E-05-3.03796E-03-2.72688E-13-1.88208E-13
 -1      2115 2.00009E+01 2.09174E-03 7.48587E-05-1.47168E-03 1.43519E-13-4.23739E-13
 -1      2116 2.00005E+01 2.68445E-03-5.14483E-05-1.96299E-03 1.93241E-13-5.61486E-13
 -1      2117 2.00006E+01 8.89824E-03 3.01746E-05-3.10517E-03-3.44310E-14-4.71142E-13
 -1      2118 2.00014E+01 2.65357E-04 7.34360E-05 1.31081E-04 5.14154E-14-1.50603E-13
 -1      2119 2.00011E+01 5.05774E-04-2.96197E-05-6.74718E-04 2.23402E-13-3.77167E-13
 -1      2120 2.00016E+01 5.76069E-03-5.76069E-06-1.96409E-03 3.29138E-13-4.46798E-13
 -1      2121 2.00010E+01-9.96370E-04-2.87968E-05 2.12223E-03-2.26091E-13-1.18066E-13
 -1      2122 2.00014E+01-1.02984E-03 1.47699E-05 1.21546E-03-1.39421E-13-5.95589E-14
 -1      2123 2.00021E+01 2.94619E-03-1.70694E-05 1.08171E-04 7.36088E-14-3.50334E-13
 -1      2124 1.03539E+01-5.04623E+00-1.40058E-01 6.52070E+00 7.70162E-13 1.25436E-12
 -1      2125 6.47801E+00-6.70030E+00-4.21487E-01 5.13907E+00 5.27023E-13 1.46780E-12
 -1      2126 6.23050E-01-6.47197E+00-2.91739E-01 1.03245E+00 1.78316E-13 1.42703E-12
 -1      2127 5.80866E-01-6.50144E+00-2.97410E-01-6.96549E-01-2.98594E-13 1.34787E-12
 -1      2128 3.71024E+00-6.46387E+00-2.98158E-01 4.30762E+00 5.56222E-13 1.76398E-12
 -1      2129 1.63847E+00-7.17996E+00-4.15392E-01 2.95976E+00 2.37199E-13 1.53066E-12
 -1      2130 7.10839E+00-5.36660E+00-1.46249E-01 5.86886E+00 2.97540E-14 1.54066E-12
 -1      2131 1.91772E+01-2.79439E+00 1.87952E-02 6.93523E+00 1.25133E-12 4.48197E-13
 -1      2132 1.47100E+01-4.82577E+00-2.70076E-01 6.22607E+00 9.62397E-13 6.92307E-13
 -1      2133 2.75103E+01 5.12228E-03 1.76471E-01 6.15903E+00 1.25544E-12 4.62075E-13
 -1      2134 2.26373E+01-1.83743E+00-1.60383E-01 5.92639E+00 1.27631E-12 4.68459E-13
 -1      2135 1.95575E+01 4.05297E+00-2.60669E-02-1.58798E+00-3.30719E-13-5.26124E-13
 -1      2136 1.96978E+01 3.97270E+00-2.33252E-02-1.84032E+00-3.85355E-13-4.44610E-13
 -1      2137 2.00240E+01 3.28608E+00-7.38458E-03-1.78463E+00-4.29507E-13-3.66037E-13
 -1      2138 1.97170E+01 3.64340E+00-8.65277E-03-1.39767E+00-3.25885E-13-5.04007E-13
 -1      2139 3.90981E+01 5.79217E+00 3.56765E-01 1.84847E+00 1.07664E-12 4.28546E-14
 -1      2140 3.62083E+01 4.77658E+00 1.88701E-01 2.59939E+00 1.14397E-12 2.21878E-13
 -1      2141 3.94536E+01 7.20311E+00 2.21222E-01-5.16254E-02 1.17978E-12-2.18723E-13
 -1      2142 3.93622E+01 6.88368E+00 3.12393E-01 1.01718E+00 1.15574E-12 1.11022E-15
 -1      2143 3.70576E+01 6.54177E+00 8.41852E-02-8.69280E-01 1.28686E-12-4.55636E-13
 -1      2144 3.89437E+01 7.19575E+00 2.98362E-01-2.82643E-01 1.24323E-12-2.92780E-13
 -1      2145 3.38257E+01 3.24568E+00 4.49122E-02-2.32333E+00 1.10376E-12-6.73850E-13
 -1      2146 3.66570E+01 4.87633E+00 1.94086E-01-1.59770E+00 1.18563E-12-4.28491E-13
 -1      2147 2.75765E+01-8.11284E-01-5.66267E-02-4.36948E+00 8.31057E-13-9.36695E-13
 -1      2148 3.19387E+01 1.08592E+00 1.38616E-01-3.93791E+00 9.54681E-13-8.38607E-13
 -1      2149 1.86337E+01-4.05514E+00-2.14998E-01-6.14933E+00 5.92193E-13-1.12599E-12
 -1      2150 2.37167E+01-2.64138E+00 1.32935E-03-6.19024E+00 5.98188E-13-1.06692E-12
 -1      2151 1.11116E+01-5.89513E+00-2.68560E-01-6.15703E+00 2.35922E-13-1.04631E-12
 -1      2152 1.51844E+01-4.28551E+00-5.30641E-02-6.94716E+00 5.21694E-13-1.16332E-12
 -1      2153 1.94579E+01-5.33144E+00 3.89501E-02-6.41001E+00-4.44089E-15-8.71914E-13
 -1      2154 3.75330E+00-6.91567E+00-3.79181E-01-4.13048E+00 0.00000E+00-1.14331E-12
 -1      2155 6.83740E+00-5.46791E+00-1.40370E-01-5.77927E+00 2.63234E-13-1.15258E-12
 -1      2156 2.97232E-01-7.32857E+00-4.17317E-01-1.04580E+00-2.76515E-13-1.19799E-12
 -1      2157 1.24330E+00-7.04958E+00-3.82193E-01-2.57950E+00 4.55747E-14-1.13881E-12
 -1      2158 1.45323E+00-6.75124E+00-3.40937E-01 2.63313E+00-5.16365E-13-9.92151E-13
 -1      2159 2.76084E-01-7.46292E+00-4.57147E-01 8.90890E-01-2.61055E-13-1.13581E-12
 -1      2160 7.32700E+00-5.78689E+00-2.11498E-01 5.71032E+00-5.90972E-13-7.92616E-13
 -1      2161 4.15202E+00-6.94637E+00-3.86731E-01 4.24157E+00-4.17166E-13-8.78242E-13
 -1      2162 1.58225E+01-4.33682E+00-5.75398E-02 6.82311E+00-7.35301E-13-5.68934E-13
 -1      2163 1.15604E+01-5.96919E+00-3.06268E-01 5.99629E+00-5.60330E-13-6.04052E-13
 -1      2164 2.46640E+01-2.02516E+00 1.06035E-01 6.17676E+00-8.65141E-13-3.31069E-13
 -1      2165 1.97795E+01-3.93289E+00-2.23949E-01 5.87686E+00-7.84872E-13-4.85056E-13
 -1      2166 3.27115E+01 1.58635E+00 3.01422E-01 4.79222E+00-1.10439E-12-3.61933E-14
 -1      2167 2.78194E+01-3.58444E-01-7.10308E-02 4.83827E+00-1.03723E-12-1.99951E-13
 -1      2168 3.84044E+01 4.57399E+00 3.71878E-01 2.74332E+00-9.57873E-13 2.49578E-13
 -1      2169 3.48066E+01 3.34962E+00 1.46189E-01 3.50145E+00-1.07353E-12 3.80806E-14
 -1      2170 3.91462E+01 6.91562E+00 2.09265E-01 2.62354E-01-1.06143E-12 5.32574E-13
 -1      2171 3.94597E+01 6.10464E+00 4.29403E-01 1.71488E+00-1.05738E-12 2.62623E-13
 -1      2172 4.00931E+01 6.88558E+00 4.08603E-01-8.51167E-01-1.15846E-12 8.64253E-13
 -1      2173 3.88306E+01 7.36334E+00 1.59187E-01 2.55407E-01-1.08857E-12 6.50927E-13
 -1      2174 3.66616E+01 4.74390E+00 1.23765E-01-2.15513E+00-1.12130E-12 9.75053E-13
 -1      2175 3.96609E+01 5.83079E+00 3.73394E-01-1.42318E+00-1.14658E-12 8.38329E-13
 -1      2176 3.56475E+01 6.97229E+00 3.13447E-01 4.23695E-01-1.12915E-12 4.68126E-13
 -1      2177 3.08674E+01 5.70908E-01 6.21136E-03-3.04798E+00-9.80507E-13 7.77600E-13
 -1      2178 3.52937E+01 2.83042E+00 3.53772E-01-2.92747E+00-1.02542E-12 8.85070E-13
 -1      2179 2.18342E+01-3.03396E+00-1.92879E-01-5.67733E+00-1.12332E-12 1.26116E-12
 -1      2180 2.70663E+01-1.66015E+00 2.05710E-03-5.12468E+00-9.67171E-13 8.68916E-13
 -1      2181 1.42641E+01-5.37069E+00-2.68635E-01-6.08778E+00-8.57203E-13 1.39955E-12
 -1      2182 1.85776E+01-3.62941E+00-2.61230E-02-6.74516E+00-1.06704E-12 1.45961E-12
 -1      2183 2.25664E+01-4.75775E+00 3.53360E-02-5.49419E+00-3.88412E-13 6.92807E-13
 -1      2184 5.97916E+00-6.86414E+00-4.29444E-01-4.83203E+00-7.15650E-13 1.18824E-12
 -1      2185 9.60990E+00-5.34318E+00-1.65150E-01-6.21984E+00-8.73079E-13 1.51180E-12
 -1      2186 1.48592E+00-7.17616E+00-4.04833E-01-2.61224E+00-2.51826E-13 1.24151E-12
 -1      2187 3.41032E+00-6.60265E+00-3.05174E-01-3.95993E+00-6.51368E-13 1.14692E-12
 -1      2188 6.60394E+00-5.38491E+00-1.60816E-01-5.54595E+00-2.04281E-13 1.20945E-12
 -1      2189 3.43148E+01 2.75700E+00 2.33968E-01 3.91018E+00 1.18790E-12 2.07501E-13
 -1      2190 3.03697E+01 1.39571E+00 6.08358E-02 4.74834E+00 1.27845E-12 4.93827E-13
 -1      2191 2.95614E+01-7.90739E-01 1.72082E-01 3.46553E+00 8.92508E-13-3.19744E-14
 -1      2192 2.07934E+01 1.10933E+00-1.94436E-02-1.52686E+00-4.37338E-13 3.71978E-13
 -1      2193 3.40591E+01 3.28469E+00 2.48613E-01 1.24115E+00 1.07298E-12-5.75651E-14
 -1      2194 2.07003E+01 1.33650E+00-1.95964E-02-1.56306E+00-4.55865E-13 1.10084E-13
 -1      2195 2.55897E+00-4.56582E+00-1.55665E-01 2.50073E+00-8.04634E-14 1.63136E-12
 -1      2196 1.47174E+01-5.45712E+00-6.86903E-02 6.79274E+00 2.77167E-13 6.25770E-13
 -1      2197 2.00010E+01-3.31666E-04 9.15465E-07 2.55763E-03-1.43204E-13 8.24210E-14
 -1      2198 2.44125E+00-4.54460E+00-1.60978E-01-2.09485E+00-9.49796E-14 1.41587E-12
 -1      2199 2.30615E+01-3.87822E+00 2.87060E-02 5.63803E+00 6.45484E-13-8.52096E-14
 -1      2200 1.43175E+01-5.66162E+00-5.21725E-02-6.66584E+00-2.63234E-13 1.17888E-12
 -1      2201 3.39128E+01 3.22726E+00 1.52592E-01 1.25149E-01-8.51541E-13 3.91354E-13
 -1      2202 3.70754E+01 7.45640E+00 2.54978E-01 7.78611E-03-1.13010E-12 5.36939E-13
 -1      2203 3.35752E+01 7.13544E+00-6.66753E-04-3.86121E-01-1.15968E-12 3.75866E-13
 -1      2204 3.32949E+01 7.57755E+00-1.87196E-02-4.81028E-02-1.19527E-12 4.76048E-13
 -1      2205 3.57984E+01 5.46008E+00 3.32223E-01 1.16143E-01-1.06659E-12 3.32512E-13
 -1      2206 3.31617E+01 1.48552E+00 2.42634E-01 1.60435E+00-9.83449E-13 4.27547E-13
 -1      2207 2.76871E+01-2.81589E+00 8.42517E-02 3.85674E+00-6.18089E-13 1.59872E-13
 -1      2208 2.03307E+01-5.29736E+00 4.89489E-03 6.11046E+00-2.32259E-13-1.58845E-13
 -1      2209 1.17030E+01-5.68040E+00-7.08238E-02 6.59981E+00-3.99125E-14-4.93661E-13
 -1      2210 4.29945E+00-5.22343E+00-1.56666E-01 4.23649E+00-6.38101E-14-9.04943E-13
 -1      2211 1.42092E+00-5.01326E+00-2.15490E-01-1.04308E-01-1.37092E-13-1.29868E-12
 -1      2212 1.12470E+01-5.43325E+00-5.84913E-02-6.74967E+00-1.64813E-13-1.01050E-12
 -1      2213 2.67469E+01-3.10957E+00 8.70713E-02-4.08086E+00 3.55327E-13-6.66522E-13
 -1      2214 3.21535E+01 1.42402E+00 1.47860E-01-1.16225E+00 8.26957E-13-2.86493E-13
 -1      2215 3.42138E+01 5.84071E+00 1.70105E-01 3.15887E-01 1.14186E-12-1.43302E-13
 -1      2216 3.58141E+01 6.99737E+00 3.41366E-01-6.10757E-02 1.23096E-12-1.29063E-13
 -1      2217 3.51165E+01 8.05296E+00 2.53460E-01 1.48161E-01 1.29602E-12-2.45880E-13
 -1      2218 4.18962E+00-4.80223E+00-1.16232E-01-4.35338E+00-1.45217E-13-1.25638E-12
 -1      2219 2.95284E+01-1.46055E+00 4.53267E-02-2.98001E+00-7.22228E-13 5.00378E-13
 -1      2220 3.03389E+01-1.36624E+00-1.63781E-01-4.21973E-01-3.68330E-13-4.47142E-14
 -1      2221 2.79767E+01-3.25790E+00 1.32968E-01-2.64621E+00-3.31235E-13 1.00170E-13
 -1      2222 2.02811E+01 5.32823E-01 5.17249E-03 5.45700E-01 3.76511E-13 3.15205E-13
 -1      2223 2.05158E+01 7.19108E-01 2.08720E-02 8.48528E-01 4.24074E-13 3.78616E-13
 -1      2224 1.94925E+01 3.65386E+00-1.13719E-02-5.16579E-01-9.15307E-14-5.65162E-13
 -1      2225 1.95442E+01 3.60039E+00-9.84614E-03-6.83955E-01-1.55577E-13-5.66119E-13
 -1      2226 1.96090E+01 3.49645E+00-1.32948E-02-8.31367E-01-1.99747E-13-5.63770E-13
 -1      2227 1.96905E+01 3.40527E+00-1.20773E-02-1.00832E+00-2.53691E-13-5.37356E-13
 -1      2228 1.97320E+01 3.18283E+00 9.52650E-04-6.80733E-01-1.67078E-13-5.23226E-13
 -1      2229 1.94202E+01 3.75298E+00-9.30595E-03 8.68280E-02 1.12331E-13-5.69317E-13
 -1      2230 1.94191E+01 3.75414E+00-9.37118E-03-7.17703E-02 5.23742E-14-5.70488E-13
 -1      2231 1.94603E+01 3.70472E+00-9.18543E-03 3.89015E-01 1.96011E-13-5.51711E-13
 -1      2232 1.94336E+01 3.73174E+00-1.01384E-02 2.27780E-01 1.44560E-13-5.61799E-13
 -1      2233 1.95712E+01 3.40604E+00 1.47202E-04 1.41792E-01 1.21513E-13-5.33824E-13
 -1      2234 1.95508E+01 3.58944E+00-9.90635E-03 6.95873E-01 2.78538E-13-5.28706E-13
 -1      2235 1.94984E+01 3.64427E+00-1.14583E-02 5.30530E-01 2.29347E-13-5.50614E-13
 -1      2236 1.96278E+01 3.32812E+00 4.29056E-04 4.13465E-01 2.10992E-13-5.16840E-13
 -1      2237 1.97000E+01 3.38874E+00-1.21262E-02 1.02139E+00 3.82481E-13-4.26761E-13
 -1      2238 1.96170E+01 3.48266E+00-1.33489E-02 8.43682E-01 3.16983E-13-4.86253E-13
 -1      2239 1.97397E+01 3.16893E+00 9.71251E-04 6.90504E-01 2.86979E-13-4.65872E-13
 -1      2240 1.99189E+01 3.07162E+00-1.72858E-02 1.35367E+00 4.62408E-13-2.95475E-13
 -1      2241 1.97996E+01 3.22479E+00-1.57925E-02 1.16882E+00 4.07897E-13-3.66227E-13
 -1      2242 1.99130E+01 2.91004E+00 2.37062E-03 9.70094E-01 3.80205E-13-3.65031E-13
 -1      2243 2.02281E+01 2.58039E+00-2.75800E-02 1.65757E+00 5.30108E-13-9.88723E-14
 -1      2244 2.00628E+01 2.83156E+00-1.76696E-02 1.48265E+00 4.78745E-13-2.07934E-13
 -1      2245 2.01514E+01 2.52250E+00 6.02032E-03 1.22507E+00 4.45991E-13-2.16727E-13
 -1      2246 2.00708E+01 3.09047E-01 6.56112E-03 1.18347E-01 2.94145E-13 2.45937E-13
 -1      2247 2.01891E+01 4.01346E-01 2.03435E-02 2.92769E-01 3.29767E-13 3.00442E-13
 -1      2248 2.03416E+01 6.76298E-01-3.21617E-03 5.36801E-01 3.88023E-13 1.67209E-13
 -1      2249 2.05070E+01 8.89198E-01 1.28216E-02-8.52807E-01-3.51268E-13-2.85982E-14
 -1      2250 2.03282E+01 6.74740E-01-2.03164E-03-5.27276E-01-3.12516E-13-3.61674E-14
 -1      2251 3.26252E+01 3.52060E+00-1.27328E-01-4.00718E-01 9.86156E-13-2.82219E-13
 -1      2252 3.14106E+01 1.44357E+00-2.82659E-02 3.44315E-01 9.06261E-13-2.81108E-13
 -1      2253 2.02797E+01 5.25765E-01 1.54766E-02-2.86514E-01-2.83626E-13 4.25007E-16
 -1      2254 2.01816E+01 4.13226E-01 2.31840E-03-9.09587E-02-2.57290E-13-2.09932E-14
 -1      2255 2.03676E+01 8.16436E-01-2.40317E-03-4.92590E-01-3.00850E-13-1.31229E-13
 -1      2256 2.01432E+01 3.39269E-01 1.06022E-02 7.83451E-02-2.32949E-13-1.45218E-15
 -1      2257 2.01173E+01 2.81171E-01 3.26530E-03 2.08491E-01-2.01166E-13-4.28480E-14
 -1      2258 2.02530E+01 5.14122E-01-4.82069E-03-5.06685E-02-2.57372E-13-8.89017E-14
 -1      2259 2.01056E+01 2.43580E-01 6.27039E-03 3.32607E-01-1.68058E-13-4.78444E-14
 -1      2260 2.01375E+01 2.15497E-01 3.84166E-03 4.28094E-01-1.40516E-13-6.48511E-14
 -1      2261 2.01933E+01 3.58934E-01-4.59789E-03 2.66891E-01-2.04460E-13-7.59138E-14
 -1      2262 2.01522E+01 1.98227E-01 3.48700E-03 5.26257E-01-1.21992E-13-9.49108E-14
 -1      2263 2.02288E+01 1.87661E-01 4.28641E-03 6.04814E-01-1.27846E-13-1.03080E-13
 -1      2264 2.01946E+01 2.81274E-01-3.95818E-03 5.07211E-01-1.63983E-13-1.23755E-13
 -1      2265 2.02671E+01 1.81954E-01 1.79210E-03 6.90478E-01-1.33654E-13-9.77152E-14
 -1      2266 2.03800E+01 1.81001E-01 4.62364E-03 7.62214E-01-8.86498E-14-8.98529E-14
 -1      2267 2.02499E+01 2.49214E-01-3.23541E-03 7.05374E-01-1.32219E-13-1.15107E-13
 -1      2268 2.04392E+01 1.80695E-01 7.94895E-04 8.43430E-01-5.84663E-14-1.25054E-13
 -1      2269 2.05833E+01 1.82846E-01 4.74997E-03 9.13193E-01-6.76505E-14-1.08231E-13
 -1      2270 2.03515E+01 2.41704E-01-2.66787E-03 8.84144E-01-8.76105E-14-1.63242E-13
 -1      2271 2.06625E+01 1.81886E-01 3.34065E-04 9.93430E-01-9.14902E-14-6.92400E-14
 -1      2272 2.08344E+01 1.79797E-01 4.46862E-03 1.06119E+00-1.27356E-13-7.61454E-14
 -1      2273 2.04945E+01 2.41702E-01-2.35627E-03 1.05601E+00-7.24211E-14-1.71264E-13
 -1      2274 2.09354E+01 1.70533E-01 4.13145E-04 1.13898E+00-1.03228E-13-5.11988E-14
 -1      2275 2.11327E+01 1.54351E-01 3.47020E-03 1.19898E+00-4.44676E-14-2.09532E-14
 -1      2276 2.06778E+01 2.30301E-01-2.42250E-03 1.22368E+00-8.82552E-14-1.27515E-13
 -1      2277 2.12612E+01 1.26224E-01 1.17165E-03 1.26661E+00-2.17767E-14 2.12694E-14
 -1      2278 2.14806E+01 8.24293E-02 1.32937E-03 1.30565E+00 8.24742E-15 3.19368E-15
 -1      2279 2.09066E+01 1.82605E-01-3.09590E-03 1.37866E+00-4.45922E-14-1.48018E-14
 -1      2280 2.16487E+01 2.14975E-02 2.85927E-03 1.34695E+00 2.70907E-14 1.55407E-14
 -1      2281 2.18854E+01-6.66365E-02-2.44942E-03 1.34250E+00 6.48988E-14 6.47321E-14
 -1      2282 2.11946E+01 6.51045E-02-4.73148E-03 1.49804E+00 2.02465E-14 4.00877E-14
 -1      2283 2.21121E+01-1.75637E-01 5.68502E-03 1.33007E+00 7.48235E-14 5.47826E-14
 -1      2284 2.23576E+01-3.23116E-01-8.17260E-03 1.24982E+00 4.06227E-14 9.22281E-14
 -1      2285 2.15679E+01-1.62572E-01-7.66230E-03 1.53978E+00 6.48835E-14 5.17472E-14
 -1      2286 2.26669E+01-4.88589E-01 9.58476E-03 1.14333E+00-2.20290E-14 9.79984E-14
 -1      2287 2.29054E+01-6.95100E-01-1.56161E-02 9.49904E-01-3.76752E-14 8.58524E-14
 -1      2288 2.20657E+01-5.34699E-01-1.16725E-02 1.43793E+00-6.79404E-15 5.47162E-14
 -1      2289 2.33145E+01-8.99359E-01 1.33258E-02 6.97659E-01-2.55638E-14 1.00994E-13
 -1      2290 2.35154E+01-1.11700E+00-2.21479E-02 3.64115E-01-5.11743E-14 1.79005E-13
 -1      2291 2.27308E+01-1.04645E+00-1.53008E-02 1.10202E+00-3.47628E-14 9.76528E-14
 -1      2292 2.39945E+01-1.28306E+00 1.13044E-02-6.87067E-02-3.56876E-14 2.27348E-13
 -1      2293 2.41139E+01-1.39032E+00-2.37643E-02-5.19871E-01-3.12580E-14 2.76650E-13
 -1      2294 2.35702E+01-1.56866E+00-1.30308E-02 4.32181E-01-2.34188E-14 2.57125E-13
 -1      2295 2.45476E+01-1.36653E+00-4.71347E-03-1.09919E+00-8.54158E-14 2.68522E-13
 -1      2296 2.45314E+01-1.16405E+00-1.40189E-02-1.54715E+00-1.06073E-13 2.72889E-13
 -1      2297 2.44800E+01-1.79418E+00-5.17453E-03-5.92426E-01-7.26406E-14 3.79756E-13
 -1      2298 2.47141E+01-7.66903E-01-3.54310E-02-2.05463E+00-1.39194E-13 3.01976E-13
 -1      2299 2.45621E+01-1.36748E-01 8.36986E-03-2.24683E+00-1.52271E-13 2.67901E-13
 -1      2300 2.51699E+01-1.24024E+00 7.55281E-03-1.76709E+00-1.54737E-13 3.75611E-13
 -1      2301 2.43860E+01 6.08886E-01-6.38035E-02-2.28317E+00-1.34077E-13 2.18568E-13
 -1      2302 2.41789E+01 1.41446E+00 1.04739E-02-1.96576E+00-1.42348E-13 1.27804E-13
 -1      2303 2.53127E+01 3.16411E-01-3.21377E-03-2.44545E+00-1.96978E-13 3.06732E-13
 -1      2304 2.38893E+01 2.07922E+00-6.01770E-02-1.29081E+00-2.56899E-13-3.14731E-14
 -1      2305 2.37656E+01 2.46580E+00-3.05670E-02-5.10788E-01-3.67768E-13-2.22394E-13
 -1      2306 2.49715E+01 2.24917E+00-3.77737E-02-1.83936E+00-3.46112E-13-5.96745E-15
 -1      2307 2.38071E+01 2.45472E+00-1.68764E-02 5.66748E-01-3.51330E-13-4.28830E-13
 -1      2308 2.39047E+01 2.05799E+00-5.80104E-02 1.32397E+00-2.87062E-13-5.25767E-13
 -1      2309 2.46975E+01 3.18491E+00-5.40375E-02 7.14218E-02-4.84390E-13-4.07386E-13
 -1      2310 2.41954E+01 1.40238E+00 1.15791E-02 2.01739E+00-1.96742E-13-6.07682E-13
 -1      2311 2.44217E+01 5.94132E-01-6.00509E-02 2.31832E+00-1.78597E-13-6.35857E-13
 -1      2312 2.49884E+01 2.28907E+00-2.86803E-02 1.89182E+00-3.51254E-13-6.28553E-13
 -1      2313 2.45771E+01-1.47144E-01 5.10774E-03 2.28053E+00-5.63525E-14-6.64103E-13
 -1      2314 2.47615E+01-7.67510E-01-2.84768E-02 2.08845E+00 8.42278E-14-6.51866E-13
 -1      2315 2.53363E+01 3.17265E-01-3.09417E-03 2.46932E+00-1.43659E-13-7.73211E-13
 -1      2316 2.45552E+01-1.15840E+00-1.62014E-02 1.57169E+00 1.83646E-13-6.17509E-13
 -1      2317 2.45873E+01-1.35078E+00-2.90749E-03 1.13772E+00 2.15405E-13-5.52222E-13
 -1      2318 2.51843E+01-1.27681E+00-5.54883E-03 1.77981E+00 1.76715E-13-7.53102E-13
 -1      2319 2.41561E+01-1.37504E+00-2.48745E-02 5.56569E-01 1.88068E-13-4.62765E-13
 -1      2320 2.40460E+01-1.26347E+00 1.08516E-02 1.19120E-01 1.81784E-13-3.77320E-13
 -1      2321 2.44966E+01-1.79911E+00-1.33542E-02 6.23645E-01 2.65362E-13-5.60265E-13
 -1      2322 2.35776E+01-1.09497E+00-2.18142E-02-3.12578E-01 1.68525E-13-2.23836E-13
 -1      2323 2.33822E+01-8.73731E-01 1.25866E-02-6.33273E-01 1.89619E-13-1.32223E-13
 -1      2324 2.36055E+01-1.55362E+00-1.69113E-02-3.83467E-01 2.78331E-13-4.38601E-13
 -1      2325 2.29882E+01-6.67843E-01-1.43750E-02-8.77045E-01 1.77269E-13-1.95393E-13
 -1      2326 2.27590E+01-4.61332E-01 9.39876E-03-1.05964E+00 1.71419E-13-1.19336E-13
 -1      2327 2.27843E+01-1.01297E+00-1.44993E-02-1.02865E+00 1.88522E-13-2.52563E-13
 -1      2328 2.24631E+01-2.94254E-01-7.27859E-03-1.15586E+00 1.49637E-13-1.12261E-13
 -1      2329 2.22313E+01-1.46759E-01 5.71499E-03-1.22594E+00 7.13465E-14-4.32151E-14
 -1      2330 2.21382E+01-4.96511E-01-1.00010E-02-1.34049E+00 1.98932E-13-2.45514E-13
 -1      2331 2.20169E+01-3.66707E-02-2.01765E-03-1.22657E+00-2.28266E-14-3.64391E-14
 -1      2332 2.17983E+01 5.13053E-02 3.02822E-03-1.22120E+00-7.85426E-14-9.71564E-14
 -1      2333 2.16598E+01-1.21355E-01-5.93776E-03-1.41770E+00 5.79723E-16-1.55957E-13
 -1      2334 2.16413E+01 1.12417E-01 1.34304E-03-1.16795E+00-1.89924E-13-1.57058E-13
 -1      2335 2.14433E+01 1.55567E-01 1.40257E-03-1.11966E+00-1.20703E-13-9.18124E-14
 -1      2336 2.13067E+01 1.06771E-01-3.18234E-03-1.35211E+00-1.53017E-13-2.20161E-13
 -1      2337 2.13243E+01 1.82509E-01 3.19108E-03-1.04114E+00-2.70595E-14-7.34970E-14
 -1      2338 2.11502E+01 1.96768E-01 5.52904E-04-9.73296E-01-2.81108E-14 9.42760E-14
 -1      2339 2.10386E+01 2.22153E-01-1.63385E-03-1.21117E+00-3.93207E-14-3.97157E-14
 -1      2340 2.10567E+01 2.02811E-01 3.98750E-03-8.87356E-01-1.02340E-13 1.19089E-13
 -1      2341 2.09076E+01 2.00560E-01 1.71254E-04-8.14747E-01-8.77310E-14 1.79376E-13
 -1      2342 2.08277E+01 2.63632E-01-8.87157E-04-1.03942E+00-3.45207E-14 1.25977E-13
 -1      2343 2.08322E+01 1.95245E-01 4.11803E-03-7.31633E-01-1.53477E-14 1.89566E-13
 -1      2344 2.07074E+01 1.84756E-01 3.59543E-05-6.62624E-01 2.75736E-14 1.21852E-13
 -1      2345 2.06571E+01 2.62059E-01-5.82745E-04-8.63976E-01-5.86971E-14 1.75677E-13
 -1      2346 2.06458E+01 1.74166E-01 3.86667E-03-5.87594E-01-1.05262E-13 9.85136E-14
 -1      2347 2.05435E+01 1.60457E-01 1.29720E-05-5.26270E-01-1.95271E-13 5.96660E-14
 -1      2348 2.05171E+01 2.38402E-01-4.84489E-04-7.00011E-01-1.09765E-13 1.67333E-13
 -1      2349 2.04932E+01 1.48154E-01 3.42560E-03-4.61496E-01-2.53780E-13 1.73175E-14
 -1      2350 2.04110E+01 1.34033E-01 3.14181E-05-4.09328E-01-1.81827E-13-4.01080E-14
 -1      2351 2.04021E+01 2.05588E-01-4.61987E-04-5.54900E-01-2.58120E-13 1.72196E-13
 -1      2352 2.03703E+01 1.21945E-01 2.91610E-03-3.55171E-01-9.98842E-14-6.15008E-15
 -1      2353 2.03055E+01 1.08844E-01 5.78514E-05-3.12154E-01-3.00194E-15 4.99453E-14
 -1      2354 2.03082E+01 1.70985E-01-4.53853E-04-4.31216E-01-1.17061E-13 3.11088E-14
 -1      2355 2.02729E+01 9.79071E-02 2.40945E-03-2.67982E-01 6.26722E-14-7.43948E-14
 -1      2356 2.02227E+01 8.64497E-02 7.88499E-05-2.33356E-01 1.36907E-13-1.78288E-13
 -1      2357 2.02324E+01 1.38447E-01-4.36993E-04-3.28729E-01-8.65734E-14 3.89088E-14
 -1      2358 2.01971E+01 7.70300E-02 1.94379E-03-1.98059E-01 2.61062E-13-3.55400E-13
 -1      2359 2.01590E+01 6.73866E-02 9.07782E-05-1.70737E-01 1.64149E-13-3.76888E-13
 -1      2360 2.01722E+01 1.09726E-01-4.06595E-04-2.45708E-01 1.18776E-13-5.12610E-14
 -1      2361 2.01391E+01 5.95388E-02 1.53627E-03-1.43036E-01 6.77960E-14-3.83319E-13
 -1      2362 2.01108E+01 5.16419E-02 9.41293E-05-1.21855E-01 2.19613E-14-2.32871E-13
 -1      2363 2.01251E+01 8.53799E-02-3.65262E-04-1.79741E-01 1.21919E-13-3.09703E-13
 -1      2364 2.00957E+01 4.52615E-02 1.19154E-03-1.00477E-01 5.60301E-14-2.21001E-13
 -1      2365 2.00750E+01 3.89296E-02 9.07490E-05-8.43291E-02 1.66219E-13-1.18511E-13
 -1      2366 2.00890E+01 6.53244E-02-3.17572E-04-1.28232E-01 1.11361E-13-6.90293E-14
 -1      2367 2.00638E+01 3.38397E-02 9.07272E-04-6.81040E-02 1.06322E-13-1.08033E-13
 -1      2368 2.00492E+01 2.88467E-02 8.23774E-05-5.60022E-02 1.97507E-13-4.33489E-14
 -1      2369 2.00618E+01 4.91587E-02-2.67658E-04-8.86782E-02 9.09545E-14-1.76993E-13
 -1      2370 2.00410E+01 2.48448E-02 6.77571E-04-4.39058E-02 4.02467E-13-5.45290E-14
 -1      2371 2.00310E+01 2.09533E-02 6.95938E-05-3.50094E-02 3.94364E-13 5.91655E-14
 -1      2372 2.00418E+01 3.63471E-02-2.18546E-04-5.88233E-02 3.04424E-13-1.88369E-13
 -1      2373 2.00252E+01 1.78298E-02 4.94735E-04-2.61832E-02 2.02828E-13 3.76838E-14
 -1      2374 2.00186E+01 1.48083E-02 5.24367E-05-1.98091E-02 1.82971E-13 1.24992E-13
 -1      2375 2.00273E+01 2.63105E-02-1.72883E-04-3.67210E-02 2.76949E-13-5.88872E-14
 -1      2376 2.00145E+01 1.23661E-02 3.51788E-04-1.35606E-02 3.29677E-13 1.27440E-13
 -1      2377 2.00104E+01 9.98764E-03 3.35130E-05-9.17657E-03 3.65771E-13 2.79244E-13
 -1      2378 2.00171E+01 1.84745E-02-1.31630E-04-2.07700E-02 3.05637E-13 1.51188E-13
 -1      2379 2.00077E+01 7.96497E-03 2.35831E-04-4.96832E-03 3.60690E-13 3.29395E-13
 -1      2380 2.00054E+01 6.08425E-03 5.23569E-05-2.22622E-03 3.68423E-13 6.03860E-13
 -1      2381 2.00101E+01 1.22899E-02-8.88057E-05-9.69048E-03 4.27533E-13 2.42435E-13
 -1      2382 9.94872E+00-4.34470E+00 1.86081E-02 6.61437E+00-3.82000E-13 1.12529E-12
 -1      2383 7.19056E+00-3.97129E+00 5.91966E-02 5.40170E+00-3.26211E-13 1.37207E-12
 -1      2384 2.00174E+01 1.41569E-01 4.64512E-03-3.42906E-01 1.24712E-13 8.27918E-14
 -1      2385 1.99771E+01 1.65966E-01 7.40577E-03-2.67008E-01 1.85710E-13 1.38018E-13
 -1      2386 2.01294E+01 1.12471E-01 4.22223E-03-4.83070E-01 1.02142E-13 2.53321E-14
 -1      2387 2.00419E+01 1.24821E-01 4.33217E-03-4.25018E-01 1.09536E-13 6.67109E-14
 -1      2388 2.01226E+01 1.89980E-01-4.42332E-03-4.22786E-01 1.54142E-13 1.23486E-14
 -1      2389 2.03080E+01 9.68645E-02 3.89054E-03-5.96744E-01 1.39002E-13-7.62129E-15
 -1      2390 2.01848E+01 1.03573E-01 2.60881E-03-5.48438E-01 9.62621E-14 1.50775E-15
 -1      2391 2.02038E+01 1.52466E-01-3.70467E-03-5.85717E-01 1.37424E-13-2.46346E-14
 -1      2392 2.05406E+01 8.46954E-02 3.37969E-03-6.93619E-01 1.13864E-13 5.69725E-14
 -1      2393 2.03892E+01 9.07502E-02 1.64260E-03-6.52062E-01 1.24369E-13 3.45535E-14
 -1      2394 2.03419E+01 1.30901E-01-3.12157E-03-7.19345E-01 1.10500E-13-4.29840E-14
 -1      2395 2.08181E+01 6.65146E-02 2.43782E-03-7.74007E-01 5.29202E-14 9.30769E-14
 -1      2396 2.06447E+01 7.69000E-02 1.12592E-03-7.40536E-01 9.33825E-14 7.55988E-14
 -1      2397 2.05282E+01 1.11255E-01-2.75317E-03-8.32791E-01 7.28947E-14 3.54711E-14
 -1      2398 2.11322E+01 3.18635E-02 7.91069E-04-8.28861E-01 9.40711E-14 5.62664E-14
 -1      2399 2.09436E+01 5.22113E-02 9.12065E-04-8.09307E-01 8.83527E-14 1.03967E-13
 -1      2400 2.07578E+01 7.99305E-02-2.60211E-03-9.24800E-01 4.78168E-14 7.44303E-14
 -1      2401 2.14732E+01-3.08610E-02-1.81779E-03-8.38982E-01 4.22621E-14 1.12449E-14
 -1      2402 2.12790E+01 5.59051E-03 9.29751E-04-8.44046E-01 9.86392E-14 4.75334E-14
 -1      2403 2.10281E+01 2.19731E-02-2.65620E-03-9.83498E-01 1.16708E-13 2.93985E-14
 -1      2404 2.18275E+01-1.32304E-01-5.51378E-03-7.74865E-01 8.90457E-14-2.45743E-14
 -1      2405 2.16415E+01-7.45679E-02 1.12278E-03-8.19844E-01 2.99994E-14-2.50127E-14
 -1      2406 2.13382E+01-7.84416E-02-2.86800E-03-9.85529E-01 5.96023E-14 2.20860E-14
 -1      2407 2.21744E+01-2.76044E-01-1.00286E-02-5.99551E-01-6.13346E-14 4.70723E-14
 -1      2408 2.20162E+01-1.96643E-01 1.35226E-03-7.02020E-01 1.62724E-14 3.50609E-15
 -1      2409 2.16867E+01-2.33856E-01-3.06374E-03-8.96077E-01-1.16624E-14 1.25928E-14
 -1      2410 2.24822E+01-4.46977E-01-1.43788E-02-2.78699E-01-1.29478E-13 1.62590E-13
 -1      2411 2.23773E+01-3.57030E-01 1.27043E-03-4.51959E-01-8.49975E-14 1.30534E-13
 -1      2412 2.20671E+01-4.43126E-01-2.74720E-03-6.72554E-01-1.31378E-13 7.37550E-14
 -1      2413 2.27047E+01-5.95673E-01-1.64242E-02 1.97918E-01-6.67947E-14 1.97943E-13
 -1      2414 2.26812E+01-5.26249E-01 9.37630E-05-4.29150E-02-1.26709E-13 2.09557E-13
 -1      2415 2.24582E+01-6.74086E-01-1.09341E-03-2.77155E-01-1.39444E-13 1.47153E-13
 -1      2416 2.27812E+01-6.28082E-01-1.28664E-02 7.80743E-01 3.76071E-14 2.39177E-13
 -1      2417 2.28615E+01-6.33169E-01-3.05112E-03 5.09632E-01 3.22225E-15 2.70616E-13
 -1      2418 2.28108E+01-8.42471E-01 2.98582E-03 2.96477E-01-5.70889E-14 1.83283E-13
 -1      2419 2.26522E+01-4.32331E-01-2.45113E-03 1.32021E+00 1.56071E-13 2.89299E-13
 -1      2420 2.28371E+01-5.66789E-01-8.38300E-03 1.10340E+00 9.69949E-14 3.57686E-13
 -1      2421 2.30354E+01-8.07980E-01 9.36871E-03 9.76366E-01 5.15605E-14 2.40264E-13
 -1      2422 2.23111E+01 3.55505E-02 1.13401E-02 1.57429E+00 1.28504E-13 2.62896E-13
 -1      2423 2.25608E+01-2.34899E-01-1.47210E-02 1.52551E+00 1.61586E-13 2.81541E-13
 -1      2424 2.30275E+01-4.37436E-01 1.27797E-02 1.56256E+00 1.27330E-13 2.99153E-13
 -1      2425 2.18606E+01 6.45400E-01 2.00489E-02 1.30841E+00 7.87616E-14 2.55282E-13
 -1      2426 2.20935E+01 3.35145E-01-1.56885E-02 1.51116E+00 7.06700E-14 2.69203E-13
 -1      2427 2.27518E+01 2.65281E-01 5.17805E-03 1.75263E+00 7.38892E-14 3.16256E-13
 -1      2428 2.15293E+01 1.07869E+00 1.48500E-02 4.90266E-01 1.77438E-13 7.31299E-14
 -1      2429 2.16454E+01 9.08334E-01-5.77210E-03 9.13020E-01 1.81515E-13 1.89519E-13
 -1      2430 2.23431E+01 1.06467E+00-6.33335E-03 1.28755E+00 1.67873E-13 3.47169E-13
 -1      2431 2.15400E+01 1.05392E+00-1.13775E-03-5.57499E-01 3.82312E-13-1.53910E-13
 -1      2432 2.14899E+01 1.13194E+00 1.02771E-02-9.26827E-02 2.53068E-13-7.19776E-14
 -1      2433 2.20949E+01 1.49554E+00-1.88531E-02 2.32564E-01 3.15904E-13 1.17880E-13
 -1      2434 2.19111E+01 5.89993E-01-1.17926E-02-1.36394E+00 2.78363E-13-2.25197E-13
 -1      2435 2.17111E+01 8.65472E-01 2.17624E-02-1.05904E+00 3.84804E-13-1.84842E-13
 -1      2436 2.22155E+01 1.30973E+00-1.05612E-02-9.44462E-01 4.07308E-13-8.61316E-14
 -1      2437 2.24185E+01-1.71706E-02-1.44737E-02-1.61653E+00 4.08583E-14-3.06762E-13
 -1      2438 2.21556E+01 2.83713E-01 1.70732E-02-1.56606E+00 1.75883E-13-2.50740E-13
 -1      2439 2.26068E+01 6.08390E-01 3.42768E-03-1.68204E+00 2.70221E-13-1.12735E-13
 -1      2440 2.28047E+01-4.56211E-01-9.26137E-03-1.34813E+00-1.33513E-13-4.93979E-13
 -1      2441 2.25738E+01-2.68163E-01 2.72159E-03-1.50404E+00-5.44164E-14-4.62873E-13
 -1      2442 2.29748E+01-1.77182E-01 1.18397E-02-1.74313E+00 1.00385E-13-3.35838E-13
 -1      2443 2.29473E+01-6.19572E-01-3.14643E-03-8.02719E-01-2.06117E-13-4.72247E-13
 -1      2444 2.28081E+01-5.71942E-01-9.85376E-03-1.05391E+00-2.19243E-13-5.66382E-13
 -1      2445 2.31057E+01-6.93043E-01 1.05189E-02-1.28570E+00-1.25657E-13-5.83333E-13
 -1      2446 2.28615E+01-5.66337E-01 6.71280E-04-2.27535E-01-5.62579E-14-3.76266E-13
 -1      2447 2.28285E+01-6.14907E-01-1.56180E-02-4.75367E-01-1.30079E-13-4.85901E-13
 -1      2448 2.29777E+01-8.46776E-01 4.32268E-03-6.23918E-01-1.20122E-13-4.94069E-13
 -1      2449 2.26243E+01-4.09831E-01 2.08647E-03 2.31206E-01-6.69625E-14-2.99745E-13
 -1      2450 2.26813E+01-4.96733E-01-1.50966E-02 4.05035E-02 3.68846E-15-2.99388E-13
 -1      2451 2.26823E+01-7.37346E-01-6.52504E-04-7.76961E-03-9.15437E-14-4.78802E-13
 -1      2452 2.23110E+01-2.38765E-01 2.12510E-03 5.27907E-01 1.98179E-14-1.21019E-13
 -1      2453 2.24302E+01-3.24243E-01-1.13560E-02 4.08540E-01-9.62060E-14-1.90792E-13
 -1      2454 2.23204E+01-5.14329E-01-2.99341E-03 4.44579E-01-8.50084E-14-3.98958E-13
 -1      2455 2.19746E+01-9.84495E-02 1.72180E-03 6.76916E-01 7.28150E-15-3.95411E-14
 -1      2456 2.21281E+01-1.64689E-01-6.89256E-03 6.20329E-01 9.78670E-14-7.00932E-14
 -1      2457 2.19569E+01-2.86292E-01-3.42168E-03 7.14218E-01-1.68832E-15-2.47320E-13
 -1      2458 2.16467E+01-1.50978E-03 1.32535E-03 7.15617E-01 3.32573E-14-1.62271E-13
 -1      2459 2.18124E+01-4.52621E-02-3.02998E-03 7.04942E-01 9.73379E-14-5.85711E-14
 -1      2460 2.16224E+01-1.05263E-01-3.03605E-03 8.31516E-01 1.20138E-13-2.17849E-13
 -1      2461 2.13446E+01 5.61902E-02 1.05137E-03 6.82999E-01 1.37895E-14-3.04181E-13
 -1      2462 2.15068E+01 3.14505E-02-2.17568E-04 7.01350E-01 1.26985E-14-2.21729E-13
 -1      2463 2.13268E+01 1.68499E-02-2.49918E-03 8.40812E-01 1.31175E-13-2.45916E-13
 -1      2464 2.10766E+01 8.44803E-02 8.85927E-04 6.10796E-01-7.95762E-14-6.69930E-14
 -1      2465 2.12256E+01 7.34343E-02 1.55998E-03 6.44701E-01-5.27043E-14-1.45479E-13
 -1      2466 2.10710E+01 8.76649E-02-2.06062E-03 7.83142E-01-7.12424E-15-2.00752E-13
 -1      2467 2.08459E+01 9.32373E-02 7.83538E-04 5.21566E-01-1.55027E-14 3.06950E-14
 -1      2468 2.09767E+01 9.10038E-02 2.50771E-03 5.61607E-01-4.26101E-14-9.82492E-14
 -1      2469 2.08530E+01 1.20803E-01-1.75362E-03 6.90243E-01-1.02940E-13-1.07661E-14
 -1      2470 2.06523E+01 9.03075E-02 7.07951E-04 4.29802E-01 1.56842E-14 2.13743E-13
 -1      2471 2.07629E+01 9.31692E-02 2.86760E-03 4.70048E-01 9.63021E-15 8.56083E-14
 -1      2472 2.06696E+01 1.29289E-01-1.53822E-03 5.84072E-01-8.23999E-14 8.60330E-14
 -1      2473 2.04933E+01 8.12139E-02 6.39556E-04 3.43914E-01 2.70868E-14 3.01467E-13
 -1      2474 2.05843E+01 8.66220E-02 2.85128E-03 3.81021E-01 2.26139E-14 3.33316E-13
 -1      2475 2.05176E+01 1.23259E-01-1.36852E-03 4.78485E-01-2.89898E-14 2.76425E-13
 -1      2476 2.03656E+01 6.95402E-02 5.70802E-04 2.68117E-01 3.29618E-14 3.07219E-13
 -1      2477 2.04384E+01 7.58755E-02 2.61938E-03 3.00494E-01 9.83617E-14 3.46462E-13
 -1      2478 2.03935E+01 1.09769E-01-1.21558E-03 3.81362E-01 3.17852E-14 2.22091E-13
 -1      2479 2.02651E+01 5.74493E-02 5.00762E-04 2.03932E-01-3.03230E-14 1.47210E-13
 -1      2480 2.03220E+01 6.37569E-02 2.28350E-03 2.31094E-01 3.78089E-14 1.99703E-13
 -1      2481 2.02938E+01 9.33536E-02-1.06722E-03 2.96491E-01 1.40275E-13 8.01924E-14
 -1      2482 2.01876E+01 4.61381E-02 4.31283E-04 1.51266E-01-2.43985E-13 4.01555E-14
 -1      2483 2.02310E+01 5.19076E-02 1.91569E-03 1.73374E-01-3.89564E-14 8.80113E-14
 -1      2484 2.02151E+01 7.67238E-02-9.21302E-04 2.25045E-01 4.98503E-14 1.11369E-13
 -1      2485 2.01291E+01 3.61808E-02 3.64699E-04 1.09152E-01-3.34477E-13-9.09602E-14
 -1      2486 2.01615E+01 4.11845E-02 1.55891E-03 1.26701E-01-4.39758E-13-1.16700E-13
 -1      2487 2.01542E+01 6.13549E-02-7.80431E-04 1.66634E-01-2.37428E-13-1.25973E-13
 -1      2488 2.00859E+01 2.77695E-02 3.02872E-04 7.62247E-02-6.07007E-14 1.60446E-13
 -1      2489 2.01094E+01 3.19503E-02 1.23612E-03 8.98508E-02-1.52336E-13 5.06399E-14
 -1      2490 2.01078E+01 4.79308E-02-6.48169E-04 1.20035E-01-2.34901E-13-1.67402E-13
 -1      2491 2.00549E+01 2.08749E-02 2.46614E-04 5.10126E-02 1.84567E-13 1.07077E-13
 -1      2492 2.00715E+01 2.42728E-02 9.57223E-04 6.13747E-02 4.64142E-14 1.11656E-13
 -1      2493 2.00733E+01 3.66525E-02-5.27568E-04 8.36603E-02 2.17398E-14 1.79937E-13
 -1      2494 2.00334E+01 1.53497E-02 1.95945E-04 3.21146E-02 4.03858E-13 1.42923E-13
 -1      2495 2.00446E+01 1.80538E-02 7.24000E-04 3.98264E-02 3.90517E-13 2.51000E-13
 -1      2496 2.00482E+01 2.74423E-02-4.20318E-04 5.58513E-02 1.96336E-13 4.34140E-14
 -1      2497 2.00190E+01 1.09885E-02 1.48871E-04 1.82863E-02 5.16882E-13 1.20655E-13
 -1      2498 2.00262E+01 1.31138E-02 5.33215E-04 2.38829E-02 4.50369E-13 1.12151E-13
 -1      2499 2.00304E+01 2.00809E-02-3.26332E-04 3.50516E-02 4.28589E-13 6.48542E-14
 -1      2500 2.00098E+01 7.54770E-03 1.09686E-04 8.49585E-03 2.92976E-13-2.01017E-14
 -1      2501 2.00141E+01 9.22525E-03 3.80667E-04 1.24076E-02 4.48216E-13 1.13213E-13
 -1      2502 2.00183E+01 1.42634E-02-2.46429E-04 1.98883E-02 4.57676E-13 1.45510E-13
 -1      2503 2.00045E+01 4.68810E-03 6.32087E-05 1.93906E-03 5.33059E-15-3.17292E-14
 -1      2504 2.00067E+01 6.09539E-03 2.54386E-04 4.47109E-03 2.25618E-13 3.34956E-14
 -1      2505 2.00102E+01 9.65551E-03-1.79295E-04 9.24893E-03 2.77247E-13 1.25147E-13
 -1      2506 2.00016E+01 2.11186E-03 1.67608E-05-1.82806E-03-1.70307E-13-2.42172E-14
 -1      2507 2.00026E+01 3.42622E-03 1.75136E-04-4.85890E-04-1.80865E-13-1.79666E-13
 -1      2508 2.00052E+01 5.60363E-03-1.53562E-04 2.19091E-03-2.84219E-14 1.12273E-13
 -1      2509 2.00005E+01 6.47644E-04 9.04446E-05-2.95403E-03-3.80122E-14-5.40821E-14
 -1      2510 2.00001E+01 1.51889E-02-1.11858E-04 4.86180E-03 2.62894E-13-1.56810E-14
 -1      2511 2.00010E+01 1.38667E-02 7.75275E-05 4.70635E-03 1.17429E-13-2.15802E-13
 -1      2512 1.99984E+01 1.86188E-02-1.12383E-04 3.98181E-03 1.43393E-13-1.47717E-13
 -1      2513 1.99992E+01 1.75764E-02 4.07226E-05 4.47199E-03 1.02418E-13 1.17470E-13
 -1      2514 1.99996E+01 2.26952E-02 9.05131E-05 6.25886E-03 3.56086E-13 6.82563E-14
 -1      2515 2.00031E+01 6.95129E-03-5.48003E-05 2.27936E-03-1.32200E-14 8.25393E-14
 -1      2516 2.00034E+01 5.82319E-03 6.91954E-05 1.18414E-03-2.15938E-14 1.32977E-13
 -1      2517 2.00019E+01 1.10736E-02-9.13211E-05 4.25258E-03-6.97306E-14-1.07598E-14
 -1      2518 2.00027E+01 9.74385E-03 9.56975E-05 3.49532E-03-8.99606E-14 1.53764E-14
 -1      2519 2.00039E+01 1.22444E-02 3.58660E-05 4.71296E-03 2.88438E-14-6.37572E-14
 -1      2520 2.00019E+01 1.76750E-02 4.79889E-05 6.33495E-03 2.30889E-13 5.89771E-14
 -1      2521 1.99973E+01 2.07757E-02-9.16904E-05 1.92055E-03-1.20506E-13-8.98708E-14
 -1      2522 1.99977E+01 2.02091E-02-7.38312E-06 2.87663E-03-2.98487E-14-3.09507E-13
 -1      2523 1.99975E+01 2.65352E-02 1.25303E-04 4.49783E-03 3.06378E-14-3.36945E-13
 -1      2524 1.99971E+01 2.13016E-02-5.39953E-05-7.01810E-04-4.67924E-13 1.32395E-13
 -1      2525 1.99970E+01 2.13227E-02-5.52363E-05 4.15414E-04-3.19481E-13 3.77996E-14
 -1      2526 1.99963E+01 2.85958E-02 1.44235E-04 1.53383E-03-2.07957E-13-2.29469E-13
 -1      2527 1.99978E+01 2.01101E-02-7.01067E-06-3.12571E-03-4.49816E-13 2.56028E-13
 -1      2528 1.99973E+01 2.07203E-02-9.21052E-05-2.19473E-03-5.38875E-13 3.77304E-13
 -1      2529 1.99964E+01 2.85645E-02 1.43855E-04-1.84795E-03-3.90566E-13 1.55619E-13
 -1      2530 1.99993E+01 1.74708E-02 4.10252E-05-4.62312E-03-9.12688E-14-6.82200E-14
 -1      2531 1.99985E+01 1.85183E-02-1.12844E-04-4.17830E-03-2.83189E-13 1.60337E-13
 -1      2532 1.99976E+01 2.64705E-02 1.27832E-04-4.74360E-03-2.56877E-13 2.05257E-13
 -1      2533 2.00012E+01 1.37321E-02 7.80310E-05-4.76037E-03 2.47775E-14-4.40730E-13
 -1      2534 2.00002E+01 1.50654E-02-1.12134E-04-4.96465E-03-4.75895E-14-4.81984E-13
 -1      2535 1.99997E+01 2.26169E-02 9.05860E-05-6.40429E-03-9.16685E-14-2.12327E-13
 -1      2536 2.00028E+01 9.54006E-03 8.93622E-05-3.40884E-03 2.29909E-13-2.98833E-13
 -1      2537 2.00020E+01 1.09072E-02-9.01020E-05-4.24349E-03 9.94923E-14-4.12727E-13
 -1      2538 2.00021E+01 1.75395E-02 4.12670E-05-6.36228E-03-1.57515E-14-4.29497E-13
 -1      2539 2.00034E+01 5.53409E-03 5.69146E-05-9.69543E-04-9.82269E-14-4.75387E-13
 -1      2540 2.00033E+01 6.72614E-03-5.56201E-05-2.16908E-03 8.19826E-14-5.09996E-13
 -1      2541 2.00040E+01 1.20399E-02-3.19015E-06-4.59330E-03 6.31655E-15-5.89562E-13
 -1      2542 2.00016E+01 1.47009E-03 9.57161E-05 2.26781E-03 6.36031E-14 1.56560E-13
 -1      2543 3.93126E+00-2.26878E+00 1.23172E-01-1.38465E+00-2.55143E-14 1.29791E-12
 -1      2544 5.08492E+00-2.98925E+00 1.07501E-01-3.67805E+00-1.31284E-14 1.29152E-12
 -1      2545 1.99900E+01 1.98351E-01 5.46545E-03-1.55194E-01 2.23962E-13 1.71628E-13
 -1      2546 2.00148E+01 2.45716E-01 1.27176E-02-4.54735E-02 2.57131E-13 2.16425E-13
 -1      2547 2.01108E+01 2.62171E-01-4.95003E-03-2.09567E-01 2.39592E-13 6.72930E-14
 -1      2548 1.82742E+01-5.29514E+00-2.97692E-02 6.75428E+00-2.29816E-14-7.86246E-14
 -1      2549 1.40292E+01-5.21241E+00 4.91277E-02 6.77880E+00-2.85438E-13 4.48669E-13
 -1      2550 1.32332E+01-5.20031E+00 5.69017E-02-6.58994E+00 1.04416E-13 9.91818E-13
 -1      2551 1.76080E+01-5.45861E+00-3.30145E-02-6.66535E+00 5.60108E-14 7.07275E-13
 -1      2552 2.53925E+01-4.02817E+00-4.61883E-02 4.54888E+00 4.58716E-13-3.03202E-13
 -1      2553 2.21243E+01-4.96452E+00 7.50007E-03 5.35679E+00 2.33813E-13-2.70894E-13
 -1      2554 3.09428E+01 1.52607E+00-1.43001E-01 1.05187E+00-6.35464E-13 9.10660E-14
 -1      2555 3.22396E+01 3.75763E+00-9.22212E-02 1.26609E+00-8.38940E-13 1.94122E-13
 -1      2556 2.51102E+01-4.50907E+00 2.28416E-02-3.84651E+00-6.58085E-14-3.81972E-13
 -1      2557 2.81643E+01-3.02084E+00-1.23141E-01-2.40249E+00 2.22211E-13-1.62675E-13
 -1      2558 1.94306E+01 3.73652E+00-1.00602E-02-2.12440E-01 1.26045E-14-5.69243E-13
 -1      2559 1.94554E+01 3.71200E+00-9.17770E-03-3.73179E-01-4.48996E-14-5.71812E-13
 -1      2560 1.96221E+01 3.33742E+00 3.88799E-04-4.02412E-01-5.86158E-14-5.19308E-13
 -1      2561 1.95690E+01 3.40954E+00 1.50461E-04-1.29334E-01 3.00924E-14-5.34189E-13
 -1      2562 3.09682E+01 7.20632E+00-1.77172E-01 3.59836E-01 1.23723E-12-1.13465E-13
 -1      2563 3.15914E+01 7.25597E+00-1.42637E-01-2.61536E-01 1.27109E-12-1.43316E-13
 -1      2564 4.43787E+00-3.15041E+00 8.45935E-02-3.18256E+00-2.08153E-13-1.16968E-12
 -1      2565 6.76726E+00-3.22685E+00 7.40090E-02-5.01557E+00-2.31037E-13-1.13098E-12
 -1      2566 3.19664E+01 6.71545E+00-2.09073E-01-7.46058E-01 1.18372E-12-2.97512E-13
 -1      2567 3.22406E+01 5.74347E+00-7.87142E-02-9.00155E-01 1.11322E-12-2.56323E-13
 -1      2568 2.93483E+01 6.57737E+00-6.55937E-02-7.18950E-01 1.14017E-12-2.07005E-13
 -1      2569 3.14354E+01 4.26335E+00-9.06245E-02 1.15808E+00 9.10910E-13 5.70377E-14
 -1      2570 3.14871E+01 5.99107E+00-1.87067E-01 1.05485E+00 1.06126E-12-6.90004E-14
 -1      2571 3.00563E+01-4.77330E-01-1.65621E-02-5.83609E-01 5.04811E-13-1.12133E-14
 -1      2572 3.12730E+01 1.62295E+00-1.73834E-01 3.62562E-01 7.44738E-13 9.25093E-14
 -1      2573 1.86868E+01-5.41861E+00 7.80747E-02-6.29426E+00-3.16414E-13-6.58879E-13
 -1      2574 2.17248E+01-5.36870E+00-7.04182E-02-5.77047E+00-2.08999E-13-6.45102E-13
 -1      2575 1.05268E+01-4.32499E+00 9.45706E-02-6.44600E+00-3.33622E-13-9.35613E-13
 -1      2576 1.45602E+01-5.00601E+00 1.43424E-02-7.04044E+00-2.62013E-13-7.22394E-13
 -1      2577 3.10137E+00-2.92243E+00 6.33251E-02 1.19990E+00-2.73115E-14-1.14814E-12
 -1      2578 3.09333E+00-2.91511E+00 4.99754E-02-1.28374E+00-2.20934E-14-1.27093E-12
 -1      2579 5.61333E+00-1.70855E+00 1.66976E-01-2.09724E+00-7.40658E-14-1.16865E-12
 -1      2580 6.88506E+00-3.95976E+00-2.85231E-03 5.40578E+00 1.43024E-13-6.24778E-13
 -1      2581 4.31689E+00-3.54766E+00 4.98112E-02 3.36312E+00 1.10217E-13-8.65696E-13
 -1      2582 1.49496E+01-5.28908E+00-3.12447E-02 6.93950E+00 1.78302E-13-2.69396E-13
 -1      2583 1.10099E+01-4.80558E+00 8.32866E-02 6.37196E+00 2.62457E-13-4.48919E-13
 -1      2584 2.29366E+01-5.33592E+00-5.85222E-02 5.32839E+00-4.23550E-14 9.09550E-14
 -1      2585 1.93654E+01-5.59035E+00 5.99216E-02 6.00941E+00 1.27037E-13-6.37476E-14
 -1      2586 2.91498E+01-2.64698E+00-7.12088E-02 2.24753E+00-5.76428E-13 5.19584E-13
 -1      2587 2.62284E+01-4.21069E+00-5.36548E-03 3.35606E+00-2.69090E-13 3.31152E-13
 -1      2588 3.22489E+01 1.49066E+00-9.39671E-02-1.69060E-01-9.20514E-13 5.25524E-13
 -1      2589 3.06358E+01-5.23376E-01-5.88045E-02 5.94752E-01-7.83762E-13 5.28466E-13
 -1      2590 3.29139E+01 5.22309E+00-1.70019E-01-1.03134E+00-9.78440E-13 2.18603E-13
 -1      2591 3.27921E+01 3.68155E+00-6.52494E-02-8.14898E-01-9.33309E-13 3.13749E-13
 -1      2592 3.21377E+01 5.16025E+00-1.45010E-01 1.31523E+00-9.33614E-13 1.52933E-13
 -1      2593 3.20046E+01 6.30152E+00-1.86887E-01 1.03437E+00-9.90208E-13 2.60181E-13
 -1      2594 3.01212E+01 3.79811E+00-7.04444E-02 2.02630E+00-7.84373E-13-6.06737E-14
 -1      2595 2.16980E+01-5.37984E+00 5.41134E-02-5.35808E+00-1.12410E-14 4.13683E-13
 -1      2596 2.45757E+01-4.85802E+00-6.63075E-02-4.64645E+00-1.64146E-13 2.02782E-13
 -1      2597 4.88974E+00-3.32029E+00 5.60792E-02 4.06994E+00-2.02866E-13 1.55076E-12
 -1      2598 3.62343E+00-2.51805E+00 9.45352E-02 1.76893E+00-3.21188E-13 1.53721E-12
 -1      2599 6.71424E+00-3.63649E+00 8.29152E-02-4.81708E+00 6.93612E-14 1.12693E-12
 -1      2600 9.20852E+00-4.05629E+00 3.68973E-02-6.11361E+00 3.27516E-15 1.05088E-12
 -1      2601 7.69969E+00-2.14919E+00 1.50153E-01-4.11525E+00 1.21514E-13 1.21247E-12
 -1      2602 2.06149E+01 1.97275E+00-1.31121E-02-1.77594E+00-4.73682E-13-9.39405E-14
 -1      2603 2.05036E+01 1.24516E+00-4.59835E-03-1.15097E+00-4.26196E-13-5.85703E-14
 -1      2604 2.04599E+01 1.41653E+00 1.62749E-03-1.06934E+00-3.91321E-13-1.65832E-13
 -1      2605 2.03518E+01 2.39191E+00-8.67035E-03-1.69308E+00-4.56052E-13-2.40885E-13
 -1      2606 2.05769E+01 8.86753E-01-5.94328E-03 1.11803E+00 4.64467E-13 4.11377E-13
 -1      2607 2.09016E+01 1.26173E+00-5.57233E-03 1.62427E+00 4.90268E-13 4.93916E-13
 -1      2608 2.07124E+01 1.72199E+00-1.57711E-02 1.80771E+00 5.35312E-13 3.08335E-13
 -1      2609 2.05422E+01 1.08119E+00-9.73602E-03 1.10567E+00 4.79155E-13 2.10458E-13
 -1      2610 3.00208E+01-1.05211E+00-1.00048E-01 1.83459E+00 7.41299E-13-2.68785E-13
 -1      2611 2.77620E+01-2.62167E+00-2.44347E-02 2.88621E+00 5.73042E-13-2.31482E-13
 -1      2612 2.93223E+01 6.06213E+00-1.12362E-01 9.34813E-01 1.08052E-12 1.22000E-13
 -1      2613 1.99016E+01 2.93057E+00 2.01233E-03-9.59002E-01-2.58826E-13-4.62551E-13
 -1      2614 1.97896E+01 3.24574E+00-1.52684E-02-1.15505E+00-2.83062E-13-4.92804E-13
 -1      2615 1.99059E+01 3.09645E+00-1.66316E-02-1.33859E+00-3.47785E-13-4.43856E-13
 -1      2616 2.01829E+01 4.01740E-01-4.54929E-03 9.06973E-02 3.24595E-13 1.13552E-13
 -1      2617 2.04910E+01 2.13153E+00-1.26125E-02 1.75092E+00 5.27406E-13 8.87571E-14
 -1      2618 3.01590E+01-2.66143E-01-1.92879E-03 5.77983E-02 6.77389E-13-4.07285E-13
 -1      2619 7.81019E+00-2.58711E+00 1.64773E-01 4.72481E+00-5.11383E-13 1.35880E-12
 -1      2620 3.20891E+01 5.95293E+00-5.60947E-02-1.04107E+00-1.11777E-12 2.85535E-13
 -1      2621 3.01597E+01 4.69156E+00-9.47950E-02-1.71096E+00-1.05624E-12 1.80508E-13
 -1      2622 2.99985E+01 6.34952E+00-2.02504E-01-9.43432E-01-1.12765E-12 1.35676E-13
 -1      2623 3.10616E+01 2.06060E+00-1.43890E-02-1.51818E+00-8.01859E-13 3.81778E-13
 -1      2624 1.37315E+01-4.37033E+00 1.22201E-01 6.57256E+00-6.91447E-13 4.38760E-13
 -1      2625 2.00021E+01 2.18731E-03-2.31682E-05-1.67451E-03-1.93484E-13 2.94671E-15
 -1      2626 1.27736E+01-4.04612E+00 1.29636E-01-6.19164E+00 2.74059E-13 8.44103E-13
 -1      2627 2.00030E+01 3.18023E-03 2.70753E-05-6.25508E-04-7.79574E-14 1.05151E-13
 -1      2628 2.95473E+01-2.05732E+00-2.45073E-03 3.20332E-01-5.43706E-13 6.10872E-13
 -1      2629 2.00028E+01 3.27270E-03 5.69595E-05 1.03292E-03 2.75994E-13 5.86604E-13
 -1      2630 2.00034E+01 3.84985E-03-6.82582E-05 1.80527E-04 6.24226E-14-5.53395E-14
 -1      2631 2.00048E+01 7.87667E-03 6.17839E-05-2.35439E-03 1.27948E-13-3.30871E-13
 -1      2632 2.00040E+01 4.81036E-03 1.64432E-04-3.08273E-04 2.39532E-13 5.09373E-13
 -1      2633 2.52729E+01-5.02380E+00 1.66420E-02 3.57807E+00 3.82472E-14 4.01887E-13
 -1      2634 1.83833E+01-5.22750E+00 1.13839E-01 6.15803E+00 3.73368E-13-8.28053E-14
 -1      2635 4.84501E+00-1.62516E+00 1.67804E-01 1.44389E-01-1.45422E-13 1.22236E-12
 -1      2636 6.66082E+00-7.39145E-01 1.67819E-01-1.22793E+00-5.33081E-14 1.10664E-12
 -1      2637 6.17232E+00-9.34849E-01 1.08908E-01 1.61248E+00-3.52142E-13 1.25824E-12
 -1      2638 2.05051E+01 1.84165E+00 1.23226E-02 1.42276E+00 4.88652E-13 4.49432E-14
 -1      2639 2.12866E+01-5.30091E+00 7.17316E-02 5.58396E+00-1.58040E-13-2.78014E-13
 -1      2640 5.50938E+00-2.03224E+00 1.57312E-01 2.29937E+00 1.79912E-13-9.39526E-13
 -1      2641 2.04373E+01-5.42394E+00 8.10394E-02-5.69048E+00 2.81913E-13 3.26959E-13
 -1      2642 9.74761E+00-3.30237E+00 1.41469E-01-5.78578E+00-3.59324E-13-9.91152E-13
 -1      2643 1.24926E+01-3.39654E+00 2.11856E-03-6.12856E+00-4.82406E-13-7.37549E-13
 -1      2644 9.37067E+00-1.95185E+00 1.77344E-01-4.86111E+00-2.93973E-13-8.91343E-13
 -1      2645 2.68618E+01-4.42963E+00-1.25254E-03-2.58099E+00-2.47580E-14 4.06342E-14
 -1      2646 1.76094E+01-4.97971E+00 1.07602E-01-6.38337E+00-4.73233E-13-6.26763E-13
 -1      2647 2.86846E+01-2.22285E+00 3.87935E-03-6.02463E-01 1.50150E-13 1.87572E-13
 -1      2648 3.12510E+01 6.50843E+00-1.40436E-01 6.89333E-01-1.05610E-12 1.70197E-13
 -1      2649 2.95345E+01 6.55258E+00-2.19091E-01 2.07597E-01-1.07181E-12 1.04361E-14
 -1      2650 2.90164E+01 5.56200E+00-1.03444E-01 1.38703E+00-9.02223E-13-1.13423E-13
 -1      2651 2.43615E+01-4.99733E+00 6.03035E-02-4.01565E+00-3.61752E-13-2.89810E-13
 -1      2652 3.04815E+01-2.24211E-01-8.45191E-02 8.90976E-01-3.99042E-13 2.85050E-14
 -1      2653 2.94592E+01 8.40911E-01-1.14921E-01 2.04918E+00-4.05675E-13-8.38218E-14
 -1      2654 2.91825E+01-1.57740E+00 2.01114E-03 5.62097E-01-1.57756E-13-1.70641E-13
 -1      2655 2.69331E+01-3.84567E+00 3.33069E-02 2.82144E+00 2.55768E-13-4.36262E-13
 -1      2656 3.05736E+01 4.24172E+00-5.13116E-02-1.38932E+00 9.50295E-13-4.28518E-13
 -1      2657 2.00284E+01 2.89393E+00-1.57011E-02-1.44708E+00-3.80084E-13-3.96863E-13
 -1      2658 2.01882E+01 2.65416E+00-2.18083E-02-1.61392E+00-4.31846E-13-3.27216E-13
 -1      2659 2.03492E+01 2.10462E+00 4.92578E-03-1.33502E+00-4.20040E-13-2.66061E-13
 -1      2660 2.01172E+01 2.57683E+00 4.68157E-03-1.19021E+00-3.39483E-13-3.74534E-13
 -1      2661 3.00362E+01 2.49874E+00-6.32578E-02 1.42228E+00 6.37879E-13 2.54741E-13
 -1      2662 1.04816E+01-3.67026E+00 1.38045E-01 5.85391E+00 3.36786E-13-4.38621E-13
 -1      2663 2.00043E+01 6.80627E-03 5.70462E-05 1.60353E-03-9.05342E-14 2.02140E-13
 -1      2664 2.00060E+01 7.56710E-03-1.25386E-04-3.27081E-03 3.63352E-13 3.12067E-13
 -1      2665 1.97420E+01 2.96092E+00-5.91354E-03 4.20041E-01 2.21589E-13-4.81735E-13
 -1      2666 1.97005E+01 3.01971E+00-6.28556E-03 2.91543E-01 1.71378E-13-4.98993E-13
 -1      2667 1.96720E+01 3.06748E+00-5.55004E-03 1.85212E-01 1.47750E-13-5.03909E-13
 -1      2668 1.96570E+01 3.08802E+00-5.75844E-03 5.63692E-02 9.89446E-14-4.87116E-13
 -1      2669 1.98032E+01 2.74580E+00 4.62765E-03 1.98766E-01 1.49700E-13-4.66656E-13
 -1      2670 2.00392E+01 2.44870E+00-9.87438E-03 8.82710E-01 3.81565E-13-3.14807E-13
 -1      2671 1.99470E+01 2.61394E+00-7.25666E-03 7.57124E-01 3.40083E-13-3.71226E-13
 -1      2672 2.02633E+01 1.99086E+00-1.11983E-02 1.05773E+00 4.35138E-13-1.64940E-13
 -1      2673 2.01463E+01 2.24534E+00-5.72848E-03 9.65034E-01 3.99631E-13-2.50827E-13
 -1      2674 2.01931E+01 2.01977E+00 6.67929E-03 7.41819E-01 3.57586E-13-2.49761E-13
 -1      2675 2.03393E+01 7.96523E-01-1.89802E-03 4.48759E-01 3.73129E-13 3.81531E-14
 -1      2676 2.04552E+01 1.00817E+00 9.18470E-03 7.33140E-01 4.04397E-13 5.96704E-14
 -1      2677 2.31784E+01-5.28879E+00-7.33929E-02 4.60488E+00-1.47965E-13-3.75672E-13
 -1      2678 2.01363E+01-5.08644E+00 1.17576E-01 5.63544E+00-4.07910E-13-3.09048E-13
 -1      2679 2.84774E+01 2.49114E+00-1.32927E-01 2.46518E+00-6.25805E-13-3.43309E-13
 -1      2680 2.82571E+01 3.64456E+00-2.06563E-01 2.12102E+00-6.72157E-13-3.19314E-13
 -1      2681 2.02436E+01 5.12024E-01 1.80429E-04 3.84003E-02 3.09020E-13 2.23007E-14
 -1      2682 2.03110E+01 6.36449E-01 1.02404E-02 2.29630E-01 3.37691E-13 4.81131E-14
 -1      2683 2.03557E+01 9.18596E-01-1.39090E-04 3.91482E-01 3.71353E-13-6.13687E-14
 -1      2684 2.04202E+01 1.54569E+00-1.23338E-03 1.11367E+00 4.54476E-13 7.58811E-15
 -1      2685 9.93738E+00-2.23095E+00 8.16726E-02 5.31815E+00-7.42434E-13 9.63313E-13
 -1      2686 8.10543E+00-1.33772E+00 2.05307E-01 3.79470E+00-6.29469E-13 1.21814E-12
 -1      2687 2.03938E+01 1.64387E+00-8.32930E-03-1.07293E+00-3.83166E-13-2.32484E-13
 -1      2688 2.03936E+01 1.29003E+00 2.10155E-03-7.85038E-01-3.32424E-13-2.06328E-13
 -1      2689 2.02939E+01 1.92133E+00-1.60801E-03-1.04586E+00-3.38220E-13-2.80088E-13
 -1      2690 2.03319E+01 7.47802E-01 6.68842E-03-1.81316E-01-2.39492E-13-1.72354E-13
 -1      2691 2.02771E+01 6.19374E-01-1.33349E-03 1.38727E-02-2.19879E-13-1.50904E-13
 -1      2692 2.02593E+01 5.25451E-01 5.77969E-03 1.76683E-01-2.11748E-13-1.39591E-13
 -1      2693 2.02370E+01 4.53119E-01 4.52120E-04 3.19908E-01-1.85281E-13-1.47899E-13
 -1      2694 2.02867E+01 7.18000E-01-1.87360E-03 7.02426E-02-2.17483E-13-1.90327E-13
 -1      2695 2.02195E+01 4.04378E-01 3.38460E-03 4.47962E-01-1.71988E-13-1.28835E-13
 -1      2696 2.02293E+01 3.69256E-01 1.73470E-03 5.61148E-01-1.57826E-13-1.60585E-13
 -1      2697 2.02398E+01 5.39346E-01-2.30936E-03 3.73309E-01-1.94547E-13-1.90926E-13
 -1      2698 2.02184E+01 3.47448E-01 1.61570E-03 6.69222E-01-1.27492E-13-1.58636E-13
 -1      2699 2.02558E+01 3.34747E-01 2.61879E-03 7.66621E-01-1.01056E-13-1.68276E-13
 -1      2700 2.02077E+01 4.49613E-01-2.01818E-03 6.20500E-01-1.49659E-13-2.08536E-13
 -1      2701 2.02523E+01 3.28345E-01 3.28057E-04 8.64944E-01-1.05926E-13-1.69068E-13
 -1      2702 2.03132E+01 3.27345E-01 3.21597E-03 9.55518E-01-8.87414E-14-1.92889E-13
 -1      2703 2.01943E+01 4.13316E-01-1.58723E-03 8.35430E-01-1.09978E-13-2.13569E-13
 -1      2704 2.03179E+01 3.26614E-01-4.52035E-04 1.05110E+00-4.97262E-14-1.60615E-13
 -1      2705 2.03999E+01 3.26799E-01 3.58061E-03 1.13904E+00-3.04665E-14-1.42471E-13
 -1      2706 2.01988E+01 4.05015E-01-1.24394E-03 1.03603E+00-6.39069E-14-1.83995E-13
 -1      2707 2.04150E+01 3.20966E-01-6.48732E-04 1.23528E+00-1.97165E-14-1.34220E-13
 -1      2708 2.05183E+01 3.09547E-01 3.71195E-03 1.31987E+00-4.59471E-14-8.56125E-14
 -1      2709 2.02220E+01 3.99687E-01-1.21378E-03 1.23341E+00 7.68997E-16-1.28183E-13
 -1      2710 2.05505E+01 2.84572E-01-5.46456E-05 1.41609E+00-3.44897E-14 7.58326E-15
 -1      2711 2.06790E+01 2.44312E-01 3.54031E-03 1.49078E+00 4.67627E-15 2.13033E-14
 -1      2712 2.02701E+01 3.67347E-01-1.81651E-03 1.43143E+00 3.06438E-14-4.10384E-14
 -1      2713 2.07429E+01 1.81157E-01 1.69608E-03 1.58112E+00-4.37183E-14 5.15971E-14
 -1      2714 2.09054E+01 8.90393E-02 2.86780E-03 1.63187E+00 3.96349E-15-3.36975E-15
 -1      2715 2.03602E+01 2.68128E-01-3.58777E-03 1.62566E+00 2.26268E-15-1.01718E-14
 -1      2716 2.10280E+01-3.63447E-02 5.19063E-03 1.70267E+00 6.88008E-14 2.34549E-14
 -1      2717 2.12396E+01-2.07548E-01 1.19638E-03 1.70565E+00 6.98755E-14 2.45096E-14
 -1      2718 2.05280E+01 4.91608E-02-7.31577E-03 1.80042E+00 4.16984E-15-2.51893E-14
 -1      2719 2.14651E+01-4.19315E-01 1.10344E-02 1.73007E+00 2.95381E-14 1.71609E-14
 -1      2720 2.17447E+01-6.90993E-01-2.06999E-03 1.64950E+00-2.53359E-14 6.69961E-15
 -1      2721 2.08373E+01-3.51911E-01-1.38030E-02 1.92180E+00 6.41451E-14 4.77466E-14
 -1      2722 2.21316E+01-9.95271E-01 2.01395E-02 1.58062E+00 1.27878E-14 1.15639E-13
 -1      2723 2.24912E+01-1.36202E+00-8.52179E-03 1.37123E+00 2.79377E-14 1.38936E-13
 -1      2724 2.13840E+01-9.84437E-01-2.31300E-02 1.92284E+00 5.13603E-14 5.68720E-14
 -1      2725 2.31031E+01-1.71123E+00 3.19872E-02 1.12596E+00 4.90753E-14 2.01558E-13
 -1      2726 2.35265E+01-2.05982E+00-1.09164E-02 7.46778E-01 4.73441E-14 2.63987E-13
 -1      2727 2.22705E+01-1.85141E+00-4.44804E-02 1.68063E+00 6.72795E-14 2.02834E-13
 -1      2728 2.43488E+01-2.32282E+00 2.52643E-02 2.27941E-01 5.24754E-16 3.53245E-13
 -1      2729 2.47287E+01-2.40506E+00-3.04738E-02-3.40752E-01-1.04697E-13 3.80300E-13
 -1      2730 2.36942E+01-2.60471E+00-2.31700E-02 9.65268E-01 4.87336E-14 3.09180E-13
 -1      2731 2.55440E+01-2.20704E+00-1.31075E-02-1.09234E+00-9.82101E-14 4.74966E-13
 -1      2732 2.57862E+01-1.61364E+00-1.97559E-02-1.65628E+00-1.19513E-13 5.02525E-13
 -1      2733 2.52941E+01-2.81429E+00-2.13320E-02-2.15804E-01-5.47834E-14 4.61018E-13
 -1      2734 2.62179E+01-6.48347E-01-8.85666E-02-2.31883E+00-2.43673E-13 5.56295E-13
 -1      2735 2.62033E+01 7.23678E-01-2.95298E-02-2.46934E+00-2.59966E-13 4.76213E-13
 -1      2736 2.67742E+01-1.47451E+00-1.59357E-02-1.75355E+00-1.62797E-13 6.81386E-13
 -1      2737 2.61718E+01 4.54287E+00-1.30861E-01-1.34725E-01-7.16399E-13-1.94127E-13
 -1      2738 2.62001E+01 4.32144E+00-1.34556E-01 9.84333E-01-6.68590E-13-3.41692E-13
 -1      2739 2.57943E+01 3.04313E+00-6.70388E-02 1.79730E+00-4.57440E-13-5.37002E-13
 -1      2740 2.60022E+01 1.78667E+00-1.31958E-01 2.49604E+00-3.58005E-13-6.64344E-13
 -1      2741 2.60340E+01 3.61239E-01-4.33085E-02 2.44102E+00-1.72848E-13-7.71144E-13
 -1      2742 2.61295E+01-8.43316E-01-4.14799E-02 2.33244E+00 1.78503E-15-8.01135E-13
 -1      2743 2.70229E+01 9.35522E-01-5.07339E-02 2.57453E+00-2.78777E-13-7.78731E-13
 -1      2744 2.56015E+01-1.70443E+00-3.84947E-02 1.57997E+00 1.97139E-13-8.17357E-13
 -1      2745 2.54018E+01-2.13719E+00 1.46763E-02 1.05037E+00 3.15484E-13-7.39762E-13
 -1      2746 2.63463E+01-1.79375E+00-4.95139E-02 1.62507E+00 1.39534E-13-7.50532E-13
 -1      2747 2.46057E+01-2.28899E+00-2.70416E-02 3.29986E-01 3.01740E-13-6.07374E-13
 -1      2748 2.42270E+01-2.16309E+00 3.35481E-02-2.20174E-01 3.85200E-13-5.42837E-13
 -1      2749 2.49160E+01-2.73075E+00-4.59538E-02 1.31824E-01 3.84807E-13-6.76866E-13
 -1      2750 2.34693E+01-1.90501E+00-1.27639E-02-6.79954E-01 3.55670E-13-5.50093E-13
 -1      2751 2.30567E+01-1.55763E+00 2.79571E-02-1.06226E+00 2.85092E-13-5.03746E-13
 -1      2752 2.34215E+01-2.37675E+00-4.08950E-02-9.93858E-01 3.47705E-13-5.02286E-13
 -1      2753 2.25038E+01-1.20669E+00-3.33612E-03-1.26906E+00 2.39265E-13-3.95561E-13
 -1      2754 2.21500E+01-8.67051E-01 1.64005E-02-1.47304E+00 2.07587E-13-4.03617E-13
 -1      2755 2.22213E+01-1.54879E+00-3.19765E-02-1.57015E+00 3.03590E-13-5.13280E-13
 -1      2756 2.17990E+01-5.71956E-01 8.93227E-04-1.52051E+00 2.31884E-13-3.62528E-13
 -1      2757 2.15269E+01-3.21315E-01 7.66471E-03-1.59213E+00 1.98662E-13-3.36307E-13
 -1      2758 2.14172E+01-7.67631E-01-2.08231E-02-1.75945E+00 2.55043E-13-4.32568E-13
 -1      2759 2.13208E+01-1.20514E-01 2.50329E-03-1.55194E+00 5.65385E-14-2.22678E-13
 -1      2760 2.11179E+01 3.53824E-02 2.52938E-03-1.53933E+00-5.93327E-14-1.73507E-13
 -1      2761 2.09251E+01-2.00896E-01-1.14008E-02-1.73072E+00 1.10084E-13-3.63791E-13
 -1      2762 2.10016E+01 1.51614E-01 2.96137E-03-1.45602E+00-1.01528E-13-6.17846E-14
 -1      2763 2.08479E+01 2.33618E-01-2.08940E-04-1.39600E+00-7.06495E-14-4.10331E-14
 -1      2764 2.06373E+01 1.47625E-01-5.18316E-03-1.59032E+00-4.14581E-14-1.38113E-13
 -1      2765 2.07821E+01 2.88823E-01 2.96076E-03-1.29555E+00-1.01630E-14 3.21562E-14
 -1      2766 2.06617E+01 3.21361E-01-1.49874E-03-1.21317E+00 6.90666E-14 5.93029E-14
 -1      2767 2.04691E+01 3.29174E-01-1.69794E-03-1.40012E+00-1.94812E-14 2.33476E-14
 -1      2768 2.06224E+01 3.37865E-01 2.80752E-03-1.11040E+00-6.83906E-14 9.39144E-14
 -1      2769 2.05250E+01 3.40730E-01-1.97379E-03-1.02157E+00-7.79769E-14 2.55706E-14
 -1      2770 2.03656E+01 3.99820E-01-1.51123E-05-1.19518E+00-2.32188E-14 1.56351E-13
 -1      2771 2.04990E+01 3.35230E-01 2.59623E-03-9.24645E-01-7.36495E-14 1.02189E-14
 -1      2772 2.04187E+01 3.22179E-01-2.01661E-03-8.38770E-01-4.22382E-14-1.91074E-15
 -1      2773 2.02955E+01 4.04173E-01 6.37229E-04-9.95343E-01-7.80525E-14 2.53119E-14
 -1      2774 2.03994E+01 3.05714E-01 2.35164E-03-7.51865E-01-4.92787E-14-4.43133E-14
 -1      2775 2.03327E+01 2.85462E-01-1.84982E-03-6.73971E-01-2.07635E-13-6.05001E-14
 -1      2776 2.02425E+01 3.73038E-01 7.66299E-04-8.11502E-01-7.93277E-14-3.31038E-13
 -1      2777 2.03170E+01 2.64753E-01 2.08494E-03-5.98786E-01-2.12333E-13-8.00464E-14
 -1      2778 2.02620E+01 2.42444E-01-1.59661E-03-5.31089E-01-1.14136E-13 4.58429E-14
 -1      2779 2.01992E+01 3.25918E-01 6.68373E-04-6.49011E-01-1.17799E-13-2.85281E-13
 -1      2780 2.02486E+01 2.21297E-01 1.80855E-03-4.67815E-01-1.18525E-13 7.36182E-14
 -1      2781 2.02036E+01 1.99750E-01-1.32368E-03-4.10800E-01-6.03676E-14 3.36806E-14
 -1      2782 2.01621E+01 2.74338E-01 4.98848E-04-5.09705E-01-1.14752E-13-5.50957E-14
 -1      2783 2.01922E+01 1.80138E-01 1.53574E-03-3.58743E-01-3.92069E-14 2.10593E-14
 -1      2784 2.01559E+01 1.60741E-01-1.06550E-03-3.11896E-01 1.72166E-14 5.17739E-14
 -1      2785 2.01302E+01 2.24635E-01 3.30241E-04-3.93197E-01-9.04963E-14 1.03305E-13
 -1      2786 2.01462E+01 1.43544E-01 1.27802E-03-2.69896E-01 1.05190E-13 4.72085E-15
 -1      2787 2.01174E+01 1.26838E-01-8.37808E-04-2.32189E-01 1.35838E-13-9.13924E-14
 -1      2788 2.01029E+01 1.79931E-01 1.91215E-04-2.97787E-01 3.37289E-14 6.40160E-14
 -1      2789 2.01092E+01 1.12303E-01 1.04342E-03-1.98895E-01 1.43773E-13-4.16916E-14
 -1      2790 2.00868E+01 9.83534E-02-6.45861E-04-1.69091E-01 1.00138E-13-5.68292E-14
 -1      2791 2.00800E+01 1.41442E-01 8.83177E-05-2.21097E-01 1.21474E-13 5.10303E-14
 -1      2792 2.00801E+01 8.63940E-02 8.36527E-04-1.43134E-01 1.13373E-13 2.53376E-14
 -1      2793 2.00630E+01 7.50134E-02-4.89207E-04-1.19972E-01 9.73067E-14 6.99974E-15
 -1      2794 2.00611E+01 1.09304E-01 1.86853E-05-1.60505E-01 9.20379E-14 1.73576E-13
 -1      2795 2.00575E+01 6.53733E-02 6.58925E-04-1.00069E-01 8.34172E-14 8.57027E-14
 -1      2796 2.00447E+01 5.62570E-02-3.64821E-04-8.23686E-02 1.64277E-13 6.09126E-14
 -1      2797 2.00457E+01 8.30808E-02-2.42093E-05-1.13420E-01 7.28414E-14 3.51272E-13
 -1      2798 2.00404E+01 4.86110E-02 5.10226E-04-6.73744E-02 2.77922E-13-4.61898E-14
 -1      2799 2.00310E+01 4.14100E-02-2.68706E-04-5.40894E-02 3.66876E-13 3.90923E-14
 -1      2800 2.00336E+01 6.20675E-02-4.65898E-05-7.74509E-02 2.29086E-13 5.25917E-13
 -1      2801 2.00276E+01 3.54109E-02 3.87780E-04-4.30197E-02 3.32432E-13 8.73690E-15
 -1      2802 2.00208E+01 2.97558E-02-1.99633E-04-3.32583E-02 3.07092E-13 6.51926E-14
 -1      2803 2.00241E+01 4.54569E-02-5.38245E-05-5.04800E-02 3.74981E-13 1.96599E-13
 -1      2804 2.00182E+01 2.50599E-02 2.86714E-04-2.53223E-02 3.39264E-13 2.51258E-13
 -1      2805 2.00135E+01 2.06301E-02-1.49438E-04-1.83690E-02 3.37480E-13 3.11358E-13
 -1      2806 2.00167E+01 3.24132E-02-4.92795E-05-3.07204E-02 4.41331E-13 1.91573E-13
 -1      2807 2.00114E+01 1.68544E-02 2.02746E-04-1.28670E-02 3.27450E-13 1.84537E-13
 -1      2808 2.00083E+01 1.33862E-02-4.30901E-05-8.25430E-03 5.38366E-13 1.68772E-13
 -1      2809 2.00111E+01 2.21523E-02-3.00526E-05-1.66958E-02 3.14080E-13 2.39550E-13
 -1      2810 2.65663E+01-4.61061E+00-8.74578E-02 2.23040E+00-8.69443E-14 5.69655E-13
 -1      2811 2.39630E+01-5.17976E+00 5.20521E-02 3.78924E+00 1.35031E-13 3.60711E-13
 -1      2812 2.91413E+01-1.51578E+00-1.68472E-01-8.38729E-01-5.43801E-13 6.10470E-13
 -1      2813 2.82739E+01-3.07132E+00 1.44009E-02 3.48942E-01-2.91137E-13 6.56600E-13
 -1      2814 2.02032E+01 2.68230E-01 2.07279E-03-4.78406E-01 1.42989E-13-2.27981E-14
 -1      2815 2.01850E+01 3.06293E-01 4.78936E-03-3.79248E-01 1.81606E-13-3.51569E-15
 -1      2816 2.05073E+01 1.62147E-01 2.48955E-03-9.26700E-01 1.52985E-14 2.36307E-14
 -1      2817 2.04047E+01 1.77752E-01 1.01402E-03-8.70803E-01 6.80931E-14-5.92027E-15
 -1      2818 2.06914E+01 1.14543E-01 1.81435E-03-1.03067E+00 7.11517E-14 3.07697E-14
 -1      2819 2.05685E+01 1.41869E-01 1.05161E-03-9.87843E-01 3.22280E-14 2.37332E-14
 -1      2820 2.04204E+01 1.94170E-01-2.57208E-03-1.03250E+00 4.77268E-14-3.86364E-14
 -1      2821 2.09194E+01 2.82486E-02 5.16440E-04-1.09951E+00 7.53223E-14 3.52767E-14
 -1      2822 2.07779E+01 7.82128E-02 1.75847E-03-1.07802E+00 8.88007E-14 2.09012E-14
 -1      2823 2.05644E+01 1.23180E-01-3.10621E-03-1.14897E+00 7.26704E-14-5.01272E-14
 -1      2824 2.11987E+01-1.18354E-01-1.60096E-03-1.10889E+00 5.25669E-14 4.33698E-14
 -1      2825 2.10403E+01-3.45383E-02 3.22932E-03-1.12280E+00 6.94887E-14 6.63025E-14
 -1      2826 2.07625E+01-1.96804E-03-4.23338E-03-1.22850E+00 6.22788E-14 1.04606E-14
 -1      2827 2.15394E+01-3.42359E-01-4.75197E-03-1.02226E+00-5.16293E-14 5.39734E-14
 -1      2828 2.13670E+01-2.16848E-01 5.48698E-03-1.09093E+00 2.16557E-14 6.84732E-14
 -1      2829 2.10340E+01-2.07511E-01-6.01913E-03-1.24494E+00 2.34030E-14 1.86609E-14
 -1      2830 2.19488E+01-6.41928E-01-8.85492E-03-7.93013E-01-1.90052E-13 7.88562E-14
 -1      2831 2.17695E+01-4.79151E-01 8.20096E-03-9.38224E-01-1.24024E-13 5.10153E-14
 -1      2832 2.14046E+01-5.11067E-01-8.26545E-03-1.15756E+00-6.90638E-14 1.28805E-13
 -1      2833 2.24174E+01-9.71313E-01-1.33067E-02-3.76157E-01-1.73653E-13 1.06652E-13
 -1      2834 2.22476E+01-8.01664E-01 1.03833E-02-6.13381E-01-2.23021E-13 7.44698E-14
 -1      2835 2.18979E+01-8.99910E-01-9.84892E-03-9.11366E-01-2.03551E-13 6.73496E-14
 -1      2836 2.28989E+01-1.20914E+00-1.58235E-02 2.46125E-01-2.37059E-14 1.43204E-13
 -1      2837 2.27683E+01-1.10719E+00 9.28857E-03-7.66444E-02-8.87387E-14 1.53860E-13
 -1      2838 2.25135E+01-1.29830E+00-8.86965E-03-4.48283E-01-1.59193E-13 1.26305E-13
 -1      2839 2.32868E+01-1.14012E+00-1.09394E-02 1.00749E+00 8.80697E-15 2.79739E-13
 -1      2840 2.32358E+01-1.22727E+00 1.94617E-03 6.56338E-01-5.73788E-14 2.34515E-13
 -1      2841 2.31874E+01-1.53003E+00-4.55580E-03 2.61338E-01-8.18703E-14 2.62314E-13
 -1      2842 2.34369E+01-5.51862E-01 2.59097E-03 1.67250E+00 1.10566E-13 4.13945E-13
 -1      2843 2.34869E+01-9.22070E-01-1.27648E-02 1.42715E+00 1.17779E-13 4.02093E-13
 -1      2844 2.37549E+01-1.29765E+00 7.23815E-03 1.13047E+00-1.38215E-14 4.44512E-13
 -1      2845 2.32532E+01 5.60065E-01 1.34934E-02 1.85817E+00 1.04888E-13 3.96422E-13
 -1      2846 2.33883E+01-5.29604E-02-3.44278E-02 1.89705E+00 7.69051E-14 4.39782E-13
 -1      2847 2.39792E+01-3.92116E-01 5.88643E-03 1.86904E+00 6.84990E-14 5.53947E-13
 -1      2848 2.28883E+01 1.74667E+00 1.83227E-02 1.26879E+00 2.43736E-13 3.25180E-13
 -1      2849 2.30262E+01 1.16876E+00-3.78952E-02 1.66306E+00 1.52900E-13 3.14400E-13
 -1      2850 2.37870E+01 9.70908E-01-1.52335E-02 1.91269E+00 1.41268E-13 4.56964E-13
 -1      2851 2.26502E+01 2.20284E+00-2.35991E-02-3.65826E-02 4.24456E-13 1.70760E-13
 -1      2852 2.26767E+01 2.08964E+00-3.42200E-02 5.66204E-01 3.51675E-13 2.16555E-13
 -1      2853 2.34358E+01 2.48564E+00-5.44046E-03 1.05876E+00 3.68199E-13 2.34316E-13
 -1      2854 2.28635E+01 1.62792E+00-3.67154E-02-1.33347E+00 4.67538E-13-4.47585E-14
 -1      2855 2.27667E+01 2.05364E+00 7.75960E-03-8.24563E-01 4.75139E-13 1.31870E-14
 -1      2856 2.33493E+01 2.68026E+00-8.29748E-03-5.05732E-01 5.56740E-13 6.68341E-14
 -1      2857 2.32789E+01 4.33601E-01-3.74310E-02-1.94214E+00 3.26793E-13-2.28398E-13
 -1      2858 2.31237E+01 1.07926E+00 1.96440E-02-1.76355E+00 4.51611E-13-1.71597E-13
 -1      2859 2.36653E+01 1.73508E+00 2.98150E-03-1.73068E+00 5.76162E-13-2.48530E-13
 -1      2860 2.35168E+01-6.29030E-01-2.24372E-02-1.71994E+00 1.11368E-13-3.57704E-13
 -1      2861 2.34192E+01-1.42373E-01 7.36081E-03-1.87142E+00 2.36698E-13-1.84300E-13
 -1      2862 2.39751E+01 1.66396E-01 7.03034E-03-2.02969E+00 2.86452E-13-2.76867E-13
 -1      2863 2.34059E+01-1.15081E+00-4.45255E-03-1.02931E+00-7.83414E-14-4.41065E-13
 -1      2864 2.34131E+01-9.57829E-01-6.84205E-03-1.35404E+00 6.37771E-15-3.27808E-13
 -1      2865 2.39197E+01-9.98112E-01 1.04432E-02-1.51302E+00 7.01223E-14-2.25717E-13
 -1      2866 2.30160E+01-1.16604E+00 6.80717E-03-2.66387E-01-1.50926E-13-4.15924E-13
 -1      2867 2.31140E+01-1.20921E+00-1.47518E-02-6.04933E-01-1.13961E-13-4.32190E-13
 -1      2868 2.34672E+01-1.47818E+00 1.40573E-03-6.62432E-01-6.79266E-14-3.48782E-13
 -1      2869 2.25162E+01-9.05760E-01 1.02994E-02 3.40177E-01-1.34413E-13-3.30028E-13
 -1      2870 2.26664E+01-1.06108E+00-1.45236E-02 7.27817E-02-1.24009E-13-3.91643E-13
 -1      2871 2.28181E+01-1.38984E+00-6.00714E-03 1.14792E-01-1.96279E-13-4.69133E-13
 -1      2872 2.20304E+01-5.71277E-01 9.27275E-03 7.28619E-01-1.24494E-13-2.88814E-13
 -1      2873 2.21979E+01-7.44440E-01-1.07350E-02 5.56364E-01-1.44478E-13-3.10942E-13
 -1      2874 2.21750E+01-1.02664E+00-8.91459E-03 6.59422E-01-1.78545E-13-4.23000E-13
 -1      2875 2.16143E+01-2.76094E-01 6.75681E-03 9.23648E-01 9.97417E-14-2.45688E-13
 -1      2876 2.17778E+01-4.19688E-01-6.45546E-03 8.36782E-01-5.61205E-15-2.75307E-13
 -1      2877 2.16391E+01-6.14576E-01-8.25429E-03 9.65919E-01-8.37108E-14-2.84545E-13
 -1      2878 2.12772E+01-6.00543E-02 4.31644E-03 9.76862E-01 1.33409E-13-2.37946E-13
 -1      2879 2.14272E+01-1.60711E-01-2.97468E-03 9.53933E-01 1.22778E-13-2.20269E-13
 -1      2880 2.12306E+01-2.69605E-01-6.29616E-03 1.08830E+00 5.21499E-14-2.40050E-13
 -1      2881 2.10090E+01 7.70524E-02 2.44905E-03 9.38318E-01 7.66336E-14-1.34853E-13
 -1      2882 2.11424E+01 1.58163E-02-5.10129E-04 9.57350E-01 1.31127E-13-1.23205E-13
 -1      2883 2.09309E+01-2.55217E-02-4.36115E-03 1.08663E+00 8.76342E-14-1.03230E-13
 -1      2884 2.07957E+01 1.51354E-01 1.20160E-03 8.47605E-01-1.76002E-14-8.73188E-14
 -1      2885 2.09120E+01 1.20163E-01 1.06328E-03 8.90603E-01 7.96091E-14-5.03694E-14
 -1      2886 2.07125E+01 1.24799E-01-2.90876E-03 1.01004E+00 5.14388E-15 5.02463E-15
 -1      2887 2.06248E+01 1.81734E-01 4.46881E-04 7.32842E-01-1.19882E-13-7.31146E-14
 -1      2888 2.07246E+01 1.70922E-01 1.95541E-03 7.86766E-01-6.17270E-14-9.53562E-14
 -1      2889 2.05510E+01 2.02943E-01-1.96001E-03 8.94197E-01-2.33230E-14-8.81881E-14
 -1      2890 2.04871E+01 1.84313E-01 3.18152E-05 6.12478E-01 1.35054E-14-1.06750E-13
 -1      2891 2.05715E+01 1.86037E-01 2.36310E-03 6.68704E-01-6.12432E-14-8.01589E-14
 -1      2892 2.04287E+01 2.31631E-01-1.38961E-03 7.63230E-01-1.16651E-13-1.19153E-13
 -1      2893 2.03760E+01 1.71039E-01-1.68254E-04 4.97690E-01-7.17533E-14 4.75198E-14
 -1      2894 2.04462E+01 1.79648E-01 2.44708E-03 5.51014E-01-6.39837E-14-1.32434E-14
 -1      2895 2.03339E+01 2.29538E-01-1.05579E-03 6.32484E-01-1.20742E-13-2.71981E-13
 -1      2896 2.02867E+01 1.50039E-01-2.41873E-04 3.94531E-01 3.30482E-14 8.65453E-15
 -1      2897 2.03441E+01 1.61767E-01 2.32896E-03 4.42184E-01 2.69660E-14 6.42703E-14
 -1      2898 2.02592E+01 2.10257E-01-8.53655E-04 5.11006E-01 3.30375E-14-1.25875E-13
 -1      2899 2.02155E+01 1.26474E-01-2.46987E-04 3.05619E-01 2.85510E-13-1.71551E-13
 -1      2900 2.02616E+01 1.38976E-01 2.09723E-03 3.46458E-01 2.44181E-13 3.88094E-14
 -1      2901 2.01997E+01 1.82936E-01-7.19291E-04 4.03471E-01 1.11683E-13-1.59073E-13
 -1      2902 2.01594E+01 1.03392E-01-2.19169E-04 2.31396E-01 8.77743E-16-1.20768E-13
 -1      2903 2.01957E+01 1.15318E-01 1.81385E-03 2.65293E-01 1.03934E-13-1.25965E-13
 -1      2904 2.01523E+01 1.53342E-01-6.17070E-04 3.11637E-01 1.46380E-13-2.47075E-13
 -1      2905 2.01158E+01 8.24165E-02-1.79377E-04 1.71030E-01-2.34803E-13-1.57138E-13
 -1      2906 2.01439E+01 9.30766E-02 1.51959E-03 1.98441E-01-5.55659E-14-4.41641E-14
 -1      2907 2.01146E+01 1.24839E-01-5.30311E-04 2.35418E-01-9.62605E-14-2.38522E-13
 -1      2908 2.00824E+01 6.42590E-02-1.38672E-04 1.23028E-01-2.03032E-13-1.99088E-13
 -1      2909 2.01037E+01 7.33809E-02 1.23958E-03 1.44698E-01-3.16766E-13-2.21588E-13
 -1      2910 2.00850E+01 9.91869E-02-4.51582E-04 1.73663E-01-2.31827E-13-1.70315E-13
 -1      2911 2.00573E+01 4.90737E-02-1.02845E-04 8.56402E-02 9.04837E-14-2.35463E-13
 -1      2912 2.00731E+01 5.66368E-02 9.87648E-04 1.02416E-01-6.39256E-15-2.03231E-13
 -1      2913 2.00620E+01 7.71148E-02-3.78492E-04 1.24685E-01-1.60011E-13-4.93487E-13
 -1      2914 2.00388E+01 3.66907E-02-7.51227E-05 5.71069E-02 2.57635E-13-1.88410E-13
 -1      2915 2.00502E+01 4.28180E-02 7.69887E-04 6.98248E-02 1.60554E-13-2.24446E-13
 -1      2916 2.00443E+01 5.87252E-02-3.11341E-04 8.66146E-02 1.25117E-13-4.34567E-13
 -1      2917 2.00254E+01 2.67803E-02-5.55287E-05 3.58179E-02 4.01330E-13-1.18160E-13
 -1      2918 2.00335E+01 3.16567E-02 5.86661E-04 4.52335E-02 3.47143E-13-1.30114E-13
 -1      2919 2.00310E+01 4.37580E-02-2.50880E-04 5.76251E-02 3.34246E-13-3.00257E-13
 -1      2920 2.00160E+01 1.89429E-02-3.47333E-05 2.03590E-02 3.63633E-13 7.83113E-14
 -1      2921 2.00216E+01 2.27890E-02 4.36216E-04 2.71233E-02 4.12362E-13-3.45312E-14
 -1      2922 2.00211E+01 3.17906E-02-1.96355E-04 3.60626E-02 2.99569E-13-2.24077E-13
 -1      2923 2.00097E+01 1.27437E-02 4.57318E-05 9.63454E-03-1.41177E-15 2.93137E-13
 -1      2924 2.00132E+01 1.56823E-02 3.05932E-04 1.41734E-02 2.99808E-13 1.66712E-13
 -1      2925 2.00138E+01 2.23183E-02-1.41270E-04 2.04664E-02 1.25134E-13 2.43322E-13
 -1      2926 2.00057E+01 8.68958E-03 4.46058E-05 3.69863E-03 7.86731E-14 2.40171E-13
 -1      2927 2.00079E+01 1.12494E-02 1.93820E-04 6.65116E-03 8.14582E-14 2.06277E-13
 -1      2928 2.00089E+01 1.58181E-02-1.95938E-04 1.09373E-02 2.03448E-13 1.47565E-13
 -1      2929 2.00057E+01 1.14185E-02-1.43863E-04 5.58019E-03 2.05576E-14 1.26030E-14
 -1      2930 1.20663E+01-2.96796E+00 1.32990E-01-5.67014E+00 2.30302E-13 8.01942E-13
 -1      2931 1.55669E+01-4.34339E+00 2.46347E-02-6.34078E+00 3.30569E-13 6.24750E-13
 -1      2932 1.99939E+01 3.66781E-02-1.03058E-04 1.14612E-03-1.71437E-13-3.91837E-13
 -1      2933 1.99943E+01 3.62246E-02-4.44249E-05 3.04185E-03 8.93243E-15-4.42856E-13
 -1      2934 2.00074E+01 1.17485E-02 1.30251E-04-6.20964E-03 4.07182E-13-1.67330E-13
 -1      2935 2.00058E+01 9.57450E-03 1.01299E-05-4.03488E-03 2.32513E-13-1.64198E-13
 -1      2936 2.00055E+01 1.11774E-02-6.46994E-05-4.94281E-03 1.29740E-13-5.64790E-13
 -1      2937 2.00075E+01 1.54019E-02-7.70394E-05-8.87184E-03 2.54283E-13-1.88385E-13
 -1      2938 1.99978E+01 3.02548E-02-1.68613E-04 8.39515E-03 3.50043E-13-2.33235E-13
 -1      2939 1.99995E+01 2.82372E-02 6.90069E-05 9.03180E-03 5.58496E-13-1.69105E-13
 -1      2940 1.99944E+01 3.61793E-02-4.53357E-05-3.37127E-03-2.84903E-13 2.44025E-13
 -1      2941 1.99939E+01 3.66691E-02-1.03304E-04-1.48815E-03-2.54336E-13-8.10903E-14
 -1      2942 1.99924E+01 4.55982E-02 2.11319E-04-1.84579E-04-4.20699E-14-3.44936E-13
 -1      2943 1.99951E+01 3.46028E-02-1.47723E-04 5.39808E-03 3.34905E-14-4.92476E-13
 -1      2944 1.99964E+01 3.32757E-02 1.81432E-05 6.84260E-03 9.49067E-14-2.57001E-13
 -1      2945 1.99963E+01 3.95924E-02 1.59847E-04 9.71082E-03 2.47156E-13-4.97212E-13
 -1      2946 1.99934E+01 4.40499E-02 1.96576E-04 5.33751E-03 1.45170E-14-5.97272E-13
 -1      2947 1.99965E+01 3.32541E-02 1.74689E-05-7.05674E-03-2.43228E-13 1.93877E-13
 -1      2948 1.99952E+01 3.45747E-02-1.48198E-04-5.66558E-03-3.28411E-13 3.79008E-13
 -1      2949 1.99935E+01 4.40491E-02 2.00745E-04-5.63869E-03-2.42060E-13 2.79147E-13
 -1      2950 1.99998E+01 2.81970E-02 7.18731E-05-9.17163E-03-1.46675E-13-2.61607E-13
 -1      2951 1.99980E+01 3.02274E-02-1.69397E-04-8.57941E-03-2.11227E-13-1.13108E-15
 -1      2952 1.99965E+01 3.96207E-02 1.63132E-04-9.92203E-03-3.23534E-13 8.49736E-14
 -1      2953 2.00032E+01 2.17370E-02 9.67652E-05-9.10738E-03-1.44986E-13-3.69976E-13
 -1      2954 2.00015E+01 2.41825E-02-1.55361E-04-9.51396E-03-9.59182E-14-3.95381E-13
 -1      2955 2.00006E+01 3.28172E-02 9.98929E-05-1.21312E-02-2.43592E-13-2.59712E-13
 -1      2956 2.01960E+01 3.54565E-01 1.27246E-03-2.57635E-01 2.25711E-13-6.25466E-15
 -1      2957 2.02184E+01 4.24172E-01 7.47732E-03-1.23926E-01 2.74888E-13 3.37970E-14
 -1      2958 2.02822E+01 6.08404E-01-2.59818E-03-1.05496E-02 2.86408E-13-3.61719E-14
 -1      2959 2.02359E+01 4.30359E-01-3.35866E-03-3.12154E-01 2.17087E-13-3.66635E-14
 -1      2960 7.21178E+00-1.62853E+00 1.06025E-01 3.53520E+00 2.93043E-13-7.04520E-13
 -1      2961 6.09684E+00-1.01010E+00 1.28491E-01 1.20934E+00 1.76283E-13-9.83380E-13
 -1      2962 8.36138E+00-1.06799E+00 1.45541E-01-3.29979E+00 1.24262E-13 1.18769E-12
 -1      2963 9.79610E+00-1.77616E+00 1.27897E-01-4.64190E+00 1.18433E-13 1.00187E-12
 -1      2964 2.94689E+01 2.45151E+00-1.96264E-01-2.07940E+00-7.06213E-13 3.39326E-13
 -1      2965 2.94455E+01 6.56701E-01-8.25504E-02-1.86814E+00-6.12607E-13 5.19029E-13
 -1      2966 2.71420E+01 5.85431E+00-1.76889E-01-5.66611E-01 9.89375E-13-3.00766E-14
 -1      2967 2.77091E+01 5.35217E+00-1.58362E-01-1.42591E+00 9.17988E-13-2.56101E-13
 -1      2968 2.03637E+01 1.91512E-01 2.70043E-03-8.00239E-01 9.16756E-14-1.35911E-14
 -1      2969 2.02842E+01 2.05120E-01 1.59256E-03-7.34074E-01 1.14208E-13-3.04817E-14
 -1      2970 2.03188E+01 2.37025E-01-2.49097E-03-8.92653E-01 5.41936E-14-2.67801E-14
 -1      2971 2.02610E+01 2.20944E-01 2.55287E-03-6.53384E-01 1.41363E-13-3.69252E-14
 -1      2972 2.02091E+01 2.41682E-01 2.81669E-03-5.74596E-01 1.37864E-13-2.06893E-15
 -1      2973 2.02544E+01 2.75284E-01-2.72322E-03-7.32197E-01 1.22694E-13-3.08247E-14
 -1      2974 2.03973E+01 1.07847E+00 2.84517E-03-5.92102E-01-2.80927E-13-2.07141E-13
 -1      2975 2.03322E+01 8.68528E-01-2.13775E-03-3.29072E-01-2.58339E-13-2.02286E-13
 -1      2976 2.03292E+01 9.65880E-01-4.09570E-03-2.60686E-01-2.33865E-13-2.23477E-13
 -1      2977 2.03510E+01 1.32251E+00 1.95269E-03-6.14769E-01-2.70476E-13-2.30015E-13
 -1      2978 1.98653E+01 2.76039E+00-7.23904E-03 6.57131E-01 3.14617E-13-4.14200E-13
 -1      2979 1.97970E+01 2.86606E+00-6.91796E-03 5.25545E-01 2.57244E-13-4.51668E-13
 -1      2980 1.98883E+01 2.60657E+00 5.12307E-03 3.95439E-01 2.22847E-13-4.39108E-13
 -1      2981 2.00228E+01 2.36990E+00 6.14296E-03 5.83281E-01 3.05650E-13-3.56522E-13
 -1      2982 1.91532E+01-4.97122E+00 1.27271E-01-5.71835E+00 4.24147E-13 3.58370E-13
 -1      2983 2.22304E+01-5.47364E+00-1.07911E-01-4.79527E+00 3.33081E-13 5.46108E-14
 -1      2984 2.93562E+01 2.69858E-01-1.81947E-01-1.09616E+00 6.78013E-13-5.24469E-13
 -1      2985 2.87301E+01-1.68480E+00-2.00537E-02-4.02257E-02 4.62123E-13-4.74593E-13
 -1      2986 1.97892E+01 2.88054E+00-6.95409E-03-5.17950E-01-1.25327E-13-4.75721E-13
 -1      2987 1.98565E+01 2.77792E+00-7.14296E-03-6.49082E-01-1.86904E-13-4.67244E-13
 -1      2988 2.89728E+01 9.28663E-01-4.81461E-02 1.63371E+00 4.18415E-13 4.79741E-13
 -1      2989 2.85729E+01 3.00671E+00-1.82128E-01 2.00192E+00 6.14730E-13 4.73899E-13
 -1      2990 2.56073E+01-4.78586E+00 1.03814E-01-2.71549E+00 2.19193E-13-7.21923E-14
 -1      2991 2.76178E+01-3.92658E+00-1.47794E-01-1.19366E+00 1.60497E-14-9.02889E-14
 -1      2992 1.29727E+01-3.62700E+00 5.00827E-03 6.19739E+00 4.44117E-13-2.23738E-13
 -1      2993 9.74859E+00-2.41285E+00 1.76100E-01 5.01933E+00 3.42615E-13-3.95878E-13
 -1      2994 2.74014E+01-3.12758E+00 5.65252E-02-6.56870E-01-2.52819E-14 3.43475E-13
 -1      2995 2.83891E+01-1.52239E+00-1.85347E-01 6.24305E-01 2.20577E-13 4.85195E-13
 -1      2996 1.65147E+01-4.11655E+00 1.91716E-01-6.17112E+00-5.28494E-13-5.52676E-13
 -1      2997 1.95221E+01-5.04921E+00-7.48624E-02-5.76523E+00-5.51212E-13-3.97619E-13
 -1      2998 2.74863E+01-3.57066E+00-1.32258E-01 1.59330E+00 2.37380E-13-4.90386E-13
 -1      2999 2.57769E+01-4.48216E+00 4.71005E-02 2.86491E+00 5.21388E-14-5.34239E-13
 -1      3000 6.53244E+00-6.82678E-01 1.93402E-01-8.32362E-01 1.88998E-14-1.03992E-12
 -1      3001 7.44972E+00-9.96238E-01 1.23809E-01-2.81975E+00-1.42289E-13-9.55958E-13
 -1      3002 2.04045E+01-5.13291E+00-1.78020E-02 5.38806E+00 3.73201E-13 1.60386E-13
 -1      3003 1.70645E+01-4.45656E+00 1.58254E-01 6.05265E+00 4.93008E-13-1.21118E-13
 -1      3004 1.63618E+01-4.58506E+00-8.04334E-03 6.52003E+00-6.17839E-13 1.07303E-13
 -1      3005 1.28870E+01-3.37715E+00 1.43280E-01 6.13078E+00-8.08048E-13 6.06501E-13
 -1      3006 2.30208E+01-4.98688E+00 1.30712E-01-4.25838E+00-5.80043E-13-2.90590E-13
 -1      3007 2.52499E+01-4.84682E+00-1.58362E-01-2.77779E+00-3.65215E-13-6.93057E-14
 -1      3008 2.84000E+01 4.30099E+00-1.92798E-01-1.89697E+00 9.06886E-13-3.04201E-13
 -1      3009 2.92244E+01 2.36979E+00-9.58138E-02-1.90640E+00 7.85594E-13-4.31322E-13
 -1      3010 2.78711E+01 4.88842E+00-1.55486E-01 1.60881E+00 8.76771E-13 3.41865E-13
 -1      3011 2.74395E+01 6.01002E+00-1.50364E-01 6.29556E-01 1.05405E-12 2.21462E-13
 -1      3012 1.99367E+01 2.63399E+00-7.48059E-03-7.49588E-01-2.15047E-13-4.47820E-13
 -1      3013 2.00289E+01 2.47145E+00-9.55398E-03-8.72683E-01-2.67484E-13-4.11443E-13
 -1      3014 2.00140E+01 2.39081E+00 6.46196E-03-5.77716E-01-1.83236E-13-4.15882E-13
 -1      3015 1.97727E+01 2.79412E+00 4.48699E-03 9.30774E-04 7.31669E-14-4.38792E-13
 -1      3016 1.96558E+01 3.09000E+00-5.74819E-03-4.93421E-02 5.59544E-14-4.86015E-13
 -1      3017 1.96686E+01 3.07286E+00-5.56439E-03-1.77913E-01 3.58275E-15-4.92223E-13
 -1      3018 2.03584E+01 1.65566E+00-2.04296E-03 9.90980E-01 4.38407E-13-7.08223E-14
 -1      3019 1.91022E+01-4.45654E+00 1.11001E-01 5.53679E+00-5.76900E-13-2.54484E-14
 -1      3020 2.75049E+01 4.27264E+00-1.12818E-01 1.88072E+00-7.05574E-13-3.47514E-13
 -1      3021 2.74690E+01 3.53176E+00-1.37350E-01 1.99565E+00 6.23404E-13 4.29504E-13
 -1      3022 2.59605E+01 3.91650E+00-7.59536E-02 1.80149E+00 6.40210E-13 4.26000E-13
 -1      3023 2.67949E+01 2.24578E+00-4.98135E-02 2.17692E+00 4.34680E-13 5.93303E-13
 -1      3024 2.68271E+01 3.88208E+00-9.14265E-02-1.78725E+00 8.43894E-13-1.91604E-13
 -1      3025 2.16329E+01-4.63086E+00 7.28072E-02-4.48169E+00-6.07653E-13-2.26578E-13
 -1      3026 2.86538E+01 6.00146E+00-8.16927E-02-3.19920E-01-1.04894E-12-7.48941E-14
 -1      3027 1.29303E+01-2.38024E+00 1.43440E-01 5.36107E+00-7.71827E-13 6.79595E-13
 -1      3028 2.43032E+01-4.76551E+00 9.25088E-02-3.14141E+00 4.06564E-13-9.53196E-14
 -1      3029 2.25719E+01-5.06052E+00 4.57632E-02 4.29377E+00 2.91739E-13 2.52139E-13
 -1      3030 2.10706E+01-4.39765E+00 5.20545E-02 4.51965E+00 3.55632E-13 2.08316E-13
 -1      3031 2.39481E+01-4.68401E+00-2.36549E-02 2.90192E+00 1.98720E-13 4.21354E-13
 -1      3032 2.59981E+01 2.16348E+00-1.45156E-01-2.30016E+00-4.46559E-13 3.51552E-13
 -1      3033 2.58079E+01 3.51177E+00-7.33260E-02-1.68648E+00-6.16951E-13 1.03431E-13
 -1      3034 2.00003E+01 3.28531E-02 9.09278E-05 1.20194E-02 5.82096E-13 8.02401E-14
 -1      3035 2.00012E+01 2.42822E-02-1.57567E-04 9.43998E-03 5.67782E-13 2.79101E-13
 -1      3036 2.00030E+01 2.18196E-02 8.73022E-05 9.11284E-03 3.12299E-13 4.43285E-13
 -1      3037 2.69920E+01-3.88632E+00-3.74117E-02 8.68977E-01-8.72705E-14 6.07112E-13
 -1      3038 7.97947E+00-3.09610E-01 1.75535E-01 3.20636E-01 1.60236E-13-8.86347E-13
 -1      3039 2.02262E+01 3.31351E-01-3.12762E-03-5.44190E-01 1.47887E-13-5.30533E-14
 -1      3040 1.25894E+01-2.05099E+00 1.38430E-01-4.92222E+00 1.95489E-13 8.45934E-13
 -1      3041 2.77032E+01-2.65626E+00-1.94523E-02 2.16129E-01 1.93308E-13-5.34350E-13
 -1      3042 2.00041E+01 1.78332E-02-1.36770E-04 8.30606E-03 1.34412E-13 1.32874E-13
 -1      3043 2.00053E+01 1.52733E-02 7.76865E-05 7.17264E-03 8.10327E-14-9.97657E-14
 -1      3044 2.00068E+01 1.78560E-02 1.37241E-04 9.54114E-03 4.55079E-14-1.34950E-13
 -1      3045 2.00042E+01 2.52109E-02 9.01044E-05 1.17898E-02 4.09842E-13 4.96764E-13
 -1      3046 2.90076E+01 3.73974E+00-1.20891E-01-2.18482E+00-8.58730E-13 3.46639E-13
 -1      3047 2.79142E+01 2.54263E+00-1.48408E-02-2.39171E+00-6.20504E-13 4.47906E-13
 -1      3048 1.52123E+01-3.24750E+00 1.27511E-01-5.77927E+00-5.01127E-13-5.90014E-13
 -1      3049 2.61259E+01-3.77340E+00 1.59961E-02-1.20512E+00-2.65628E-13 2.55539E-13
 -1      3050 1.82337E+01-4.18972E+00 1.25992E-01-5.52445E+00 4.18651E-13 3.86031E-13
 -1      3051 2.00058E+01 1.46362E-02 5.78651E-05-6.95166E-03 2.04543E-14-5.50535E-13
 -1      3052 2.00047E+01 1.73621E-02-9.91314E-05-8.27438E-03 1.13446E-14-3.14409E-13
 -1      3053 1.59241E+01-3.46657E+00 1.34869E-01 5.62471E+00 4.61367E-13-1.01044E-13
 -1      3054 8.30998E+00-4.73359E-01 1.67372E-01-2.18502E+00-7.56929E-14 1.22022E-12
 -1      3055 1.01912E+01-2.99848E-01 9.96751E-02-2.64224E+00-1.56854E-14 1.05840E-12
 -1      3056 8.47869E+00 6.58386E-02 9.03743E-02-7.42430E-01-2.37638E-13 9.81978E-13
 -1      3057 2.77794E+01-4.88103E-01-5.16593E-02 1.51231E+00 2.06779E-13 6.15147E-13
 -1      3058 8.49964E+00-5.88866E-01 1.70318E-01 2.36719E+00-4.74058E-13 1.11378E-12
 -1      3059 2.62113E+01 5.08232E+00-1.06383E-01 4.32838E-02 9.07746E-13 4.93407E-14
 -1      3060 9.35347E+00-1.09004E+00 1.82403E-01-3.71685E+00-2.22024E-13-8.55066E-13
 -1      3061 1.12452E+01-1.44173E+00 7.43770E-03-4.42426E+00-2.98699E-13-6.80428E-13
 -1      3062 9.79688E+00-2.85897E-01 1.12109E-01-2.63480E+00-9.67559E-14-7.53175E-13
 -1      3063 2.85020E+01-6.60720E-01-6.38832E-02-1.70687E+00-4.44617E-13 5.59983E-13
 -1      3064 2.03419E+01 1.46274E+00 2.71287E-03 7.24584E-01 4.02073E-13-1.08575E-13
 -1      3065 2.79995E+01-2.68502E+00-3.37491E-02 4.32221E-01 2.08011E-14-1.80744E-13
 -1      3066 1.96949E+01 3.02904E+00-6.27787E-03-2.83101E-01-3.00558E-14-4.80971E-13
 -1      3067 1.97355E+01 2.97232E+00-5.90637E-03-4.13168E-01-8.93978E-14-4.81985E-13
 -1      3068 1.98807E+01 2.62154E+00 5.27046E-03-3.90346E-01-9.92660E-14-4.40765E-13
 -1      3069 1.97989E+01 2.75341E+00 4.67117E-03-1.95725E-01-1.92130E-14-4.48625E-13
 -1      3070 2.81459E+01 8.18859E-01-7.56141E-02-1.81042E+00 5.98688E-13-4.05634E-13
 -1      3071 1.01171E+01-1.43382E+00 1.90260E-01 4.05342E+00 3.58380E-13-5.06095E-13
 -1      3072 2.45995E+01-4.74376E+00 4.03497E-02 3.20360E+00-1.79842E-13-4.94535E-13
 -1      3073 2.80567E+01 1.13558E+00-9.77621E-02 2.24724E+00-4.24619E-13-4.59160E-13
 -1      3074 2.00045E+01 2.45832E-02-3.34570E-05-1.17437E-02-2.01555E-13-2.54611E-13
 -1      3075 2.77581E+01 4.19791E+00-2.93682E-01-1.94673E+00-8.64281E-13 2.52076E-13
 -1      3076 2.08622E+01-4.60648E+00-5.74634E-02 4.74194E+00-4.74260E-13-2.93050E-13
 -1      3077 1.80456E+01-3.59227E+00 1.20301E-01 5.30473E+00-6.58536E-13 7.66470E-14
 -1      3078 2.02559E+01 1.62411E+00-5.60143E-03 5.92364E-01 3.50252E-13-1.87136E-13
 -1      3079 2.01811E+01 1.83470E+00-1.42817E-03 5.41309E-01 3.12627E-13-2.63762E-13
 -1      3080 2.72818E+01 1.60147E+00-8.47498E-02-2.46600E+00-4.72539E-13 5.43829E-13
 -1      3081 2.02456E+01 6.93683E-01 2.64393E-03 2.79750E-01-2.05433E-13-1.96800E-13
 -1      3082 2.02195E+01 6.19395E-01-6.10829E-04 4.18460E-01-1.83105E-13-2.18674E-13
 -1      3083 2.01854E+01 5.67812E-01 1.29616E-03 5.38519E-01-1.69287E-13-1.94053E-13
 -1      3084 2.01707E+01 5.32102E-01 5.92775E-04 6.54737E-01-1.53877E-13-2.24461E-13
 -1      3085 2.01707E+01 7.04865E-01-1.54161E-05 4.54458E-01-1.72553E-13-2.05623E-13
 -1      3086 2.01275E+01 5.10417E-01 7.77203E-06 7.60932E-01-1.21708E-13-2.04939E-13
 -1      3087 2.01238E+01 4.99183E-01 1.52285E-03 8.65177E-01-9.25397E-14-2.05318E-13
 -1      3088 2.00904E+01 6.17694E-01 2.28063E-05 6.84790E-01-1.32740E-13-1.61694E-13
 -1      3089 2.00740E+01 4.94106E-01-1.02884E-03 9.65922E-01-4.38891E-14-1.94079E-13
 -1      3090 2.00809E+01 4.94263E-01 2.27923E-03 1.06553E+00-1.28727E-14-1.64996E-13
 -1      3091 1.99986E+01 5.86303E-01 3.01563E-04 8.94312E-01-6.06908E-14-1.92719E-13
 -1      3092 2.00265E+01 4.92825E-01-1.73337E-03 1.16730E+00 2.74116E-14-1.58197E-13
 -1      3093 2.00451E+01 4.90214E-01 3.02695E-03 1.26640E+00 3.73221E-14-1.39628E-13
 -1      3094 1.98982E+01 5.81517E-01 5.21281E-04 1.09785E+00 3.49603E-14-1.63602E-13
 -1      3095 1.99904E+01 4.77007E-01-1.95637E-03 1.37400E+00 5.18876E-14-9.47329E-14
 -1      3096 2.00261E+01 4.53758E-01 3.96923E-03 1.47336E+00 8.16605E-14-3.63171E-14
 -1      3097 1.97931E+01 5.72166E-01 3.96051E-04 1.30736E+00 7.31703E-14-1.30639E-13
 -1      3098 1.99804E+01 4.08478E-01-1.43490E-03 1.59015E+00 2.47193E-14-5.31761E-14
 -1      3099 2.00462E+01 3.40519E-01 5.29401E-03 1.68674E+00-1.80691E-14-7.16314E-14
 -1      3100 1.96941E+01 5.19387E-01-5.33075E-04 1.53253E+00 4.14436E-14-1.21095E-13
 -1      3101 2.00296E+01 2.35848E-01 3.02723E-04 1.81428E+00 2.99107E-15-4.42897E-14
 -1      3102 2.01502E+01 9.11039E-02 7.07353E-03 1.89967E+00 7.12529E-14-1.33602E-14
 -1      3103 1.96262E+01 3.71217E-01-3.09168E-03 1.78156E+00 2.95137E-14-9.28008E-14
 -1      3104 2.02016E+01-1.07298E-01 4.47837E-03 2.03513E+00 7.92999E-14 2.33747E-14
 -1      3105 2.04171E+01-3.67535E-01 8.98234E-03 2.09128E+00 5.13309E-14 1.37276E-14
 -1      3106 1.96406E+01 5.73956E-02-8.55668E-03 2.05989E+00 8.53885E-14-1.62408E-14
 -1      3107 2.06068E+01-6.95918E-01 1.29645E-02 2.21795E+00 7.87816E-14-6.02057E-15
 -1      3108 2.09696E+01-1.10215E+00 9.99680E-03 2.20648E+00 1.06854E-13 4.32397E-14
 -1      3109 1.98330E+01-5.09411E-01-1.83796E-02 2.36050E+00 7.59012E-14-1.12941E-13
 -1      3110 2.14184E+01-1.54771E+00 4.08566E-02 2.27969E+00 1.40682E-13 9.17270E-14
 -1      3111 2.19929E+01-2.13274E+00 1.03241E-02 2.13056E+00 1.22284E-13 1.59515E-13
 -1      3112 2.03752E+01-1.40321E+00-2.70325E-02 2.64404E+00 1.52428E-13-1.47703E-14
 -1      3113 2.48291E+01-3.51190E+00-8.93994E-03 9.65016E-01 3.31714E-14 4.85927E-13
 -1      3114 2.56369E+01-3.41927E+00-1.97600E-02 3.08329E-01 2.50425E-14 5.79510E-13
 -1      3115 2.76312E+01 5.03495E+00-1.24886E-01-8.24722E-01-8.99697E-13 3.87745E-14
 -1      3116 2.52740E+01-3.34980E+00 4.33253E-04-4.35709E-01 3.79951E-13-4.90767E-13
 -1      3117 2.44646E+01-3.22759E+00 6.17450E-02-1.07786E+00 5.08758E-13-4.20018E-13
 -1      3118 2.32951E+01-2.84109E+00-6.70666E-05-1.53697E+00 4.38691E-13-3.38124E-13
 -1      3119 2.26026E+01-2.31783E+00 4.40321E-02-1.86452E+00 3.44520E-13-3.17507E-13
 -1      3120 2.31449E+01-3.55344E+00-6.92392E-02-2.16469E+00 4.97619E-13-2.30302E-13
 -1      3121 2.18852E+01-1.79295E+00 9.84746E-03-1.95902E+00 3.27447E-13-2.33085E-13
 -1      3122 2.13793E+01-1.29238E+00 2.55288E-02-2.07729E+00 3.19463E-13-2.54573E-13
 -1      3123 2.13903E+01-2.27535E+00-4.38122E-02-2.48712E+00 4.03424E-13-7.34256E-14
 -1      3124 2.09931E+01-8.61168E-01 9.60567E-03-2.01515E+00 2.08823E-13-3.05883E-13
 -1      3125 2.06660E+01-4.95787E-01 1.10019E-02-2.01334E+00 2.30003E-13-2.63285E-13
 -1      3126 2.04113E+01-1.14134E+00-2.83019E-02-2.39594E+00 2.18536E-13-1.78975E-13
 -1      3127 2.04947E+01-2.01247E-01 8.36856E-03-1.89209E+00 2.20641E-13-3.29688E-13
 -1      3128 2.02964E+01 2.65995E-02 3.60251E-03-1.82905E+00 1.37689E-13-2.97844E-13
 -1      3129 1.99259E+01-3.20794E-01-1.52892E-02-2.13886E+00 1.90583E-13-3.11802E-13
 -1      3130 2.02424E+01 2.00735E-01 6.31420E-03-1.69498E+00 3.02621E-14-2.13316E-13
 -1      3131 2.01259E+01 3.23335E-01-5.16952E-05-1.60357E+00 1.14085E-14-2.88919E-14
 -1      3132 1.97368E+01 1.84339E-01-6.84689E-03-1.85125E+00 1.14634E-13-2.82441E-13
 -1      3133 2.01293E+01 4.10310E-01 4.58554E-03-1.47371E+00-1.06030E-14-2.74427E-14
 -1      3134 2.00593E+01 4.62114E-01-1.70042E-03-1.37217E+00-5.53839E-14-1.70630E-14
 -1      3135 1.97014E+01 4.55170E-01-2.16742E-03-1.57572E+00 2.37054E-14-1.25527E-13
 -1      3136 2.00861E+01 4.92632E-01 3.41300E-03-1.25243E+00-8.98858E-14-1.42111E-14
 -1      3137 2.00409E+01 5.01052E-01-2.31583E-03-1.15118E+00-6.09485E-14-6.28122E-14
 -1      3138 1.97353E+01 5.69782E-01 1.04280E-04-1.32443E+00-6.09676E-14-1.68442E-13
 -1      3139 2.00736E+01 4.98233E-01 2.68944E-03-1.04358E+00-7.73852E-14-9.54158E-14
 -1      3140 2.00410E+01 4.82465E-01-2.40261E-03-9.48625E-01-1.11830E-13-1.42576E-13
 -1      3141 1.97927E+01 5.88660E-01 1.02123E-03-1.09938E+00-3.54228E-14-1.82281E-13
 -1      3142 2.00714E+01 4.61958E-01 2.23859E-03-8.53834E-01-1.73320E-13-2.37072E-13
 -1      3143 2.00455E+01 4.34443E-01-2.23636E-03-7.68445E-01-1.02701E-13-1.93238E-13
 -1      3144 1.98511E+01 5.53732E-01 1.23444E-03-9.00361E-01-1.94578E-13-1.84319E-13
 -1      3145 2.00705E+01 4.06121E-01 1.92712E-03-6.86501E-01-8.67036E-14-2.58207E-13
 -1      3146 2.00486E+01 3.74457E-01-1.95975E-03-6.12145E-01-9.01135E-14-1.45538E-13
 -1      3147 1.99010E+01 4.92281E-01 1.12929E-03-7.26792E-01-5.99411E-14-9.96616E-14
 -1      3148 2.00678E+01 3.44194E-01 1.67756E-03-5.42617E-01-6.97261E-14-2.14106E-13
 -1      3149 2.00488E+01 3.12759E-01-1.64987E-03-4.79548E-01-6.65660E-14-1.54415E-13
 -1      3150 1.99398E+01 4.21120E-01 9.10360E-04-5.77838E-01-7.50038E-14-1.77540E-13
 -1      3151 2.00628E+01 2.83821E-01 1.45403E-03-4.21614E-01-5.32186E-14-7.78541E-14
 -1      3152 2.00464E+01 2.54928E-01-1.34877E-03-3.69296E-01-7.16150E-14-1.45910E-14
 -1      3153 1.99679E+01 3.50071E-01 6.76514E-04-4.52182E-01 8.44549E-15-8.07398E-14
 -1      3154 2.00560E+01 2.28941E-01 1.24445E-03-3.21850E-01-4.15680E-14 1.39505E-13
 -1      3155 2.00420E+01 2.03629E-01-1.07758E-03-2.79292E-01 1.11241E-14 1.31096E-13
 -1      3156 1.99871E+01 2.84437E-01 4.71478E-04-3.47984E-01 3.59849E-14-1.09009E-14
 -1      3157 2.00484E+01 1.81227E-01 1.04730E-03-2.41075E-01 1.08582E-13 2.10155E-13
 -1      3158 2.00366E+01 1.59779E-01-8.45283E-04-2.07067E-01 2.18632E-13 2.81848E-13
 -1      3159 1.99993E+01 2.26675E-01 3.08325E-04-2.63019E-01 1.35266E-13 1.62371E-13
 -1      3160 2.00406E+01 1.41026E-01 8.65348E-04-1.76780E-01 1.66872E-13 3.42101E-13
 -1      3161 2.00309E+01 1.23300E-01-6.52323E-04-1.50061E-01 5.04736E-14 3.79349E-13
 -1      3162 2.00066E+01 1.77527E-01 1.87029E-04-1.94864E-01 1.31112E-13 4.02954E-13
 -1      3163 2.00331E+01 1.07950E-01 7.02044E-04-1.26444E-01 9.61355E-14 5.07069E-13
 -1      3164 2.00254E+01 9.35846E-02-4.96457E-04-1.05799E-01 2.07499E-13 6.04230E-13
 -1      3165 2.00103E+01 1.36754E-01 1.02409E-04-1.41079E-01 1.80442E-13 6.16490E-13
 -1      3166 2.00264E+01 8.12395E-02 5.59767E-04-8.76938E-02 1.86197E-13 4.66923E-13
 -1      3167 2.00202E+01 6.97765E-02-3.73562E-04-7.20259E-02 1.76835E-13 4.47539E-13
 -1      3168 2.00115E+01 1.03589E-01 4.51618E-05-9.93298E-02 1.98013E-13 5.78005E-13
 -1      3169 2.00205E+01 5.99853E-02 4.40401E-04-5.84102E-02 1.70628E-13 5.16508E-13
 -1      3170 2.00156E+01 5.09488E-02-2.75700E-04-4.67617E-02 3.65048E-13 4.66840E-13
 -1      3171 2.00113E+01 7.70365E-02 1.30661E-05-6.75055E-02 1.40365E-13 5.69286E-13
 -1      3172 2.00153E+01 4.31550E-02 3.20503E-04-3.67319E-02 4.15672E-13 2.93610E-13
 -1      3173 2.00115E+01 3.60424E-02-2.41159E-04-2.83873E-02 3.89872E-13 1.53234E-13
 -1      3174 2.00101E+01 5.59894E-02 1.79196E-06-4.37291E-02 2.71262E-13 4.62844E-13
 -1      3175 9.19028E+00-8.60160E-03 1.26649E-01 1.60301E+00 2.34743E-13-7.58060E-13
 -1      3176 9.26129E+00 1.64316E-01 8.26280E-02-3.61815E-01 1.09071E-13-8.06841E-13
 -1      3177 2.02305E+01 4.06213E-01 8.30474E-04-5.89831E-01 1.34529E-13-7.07703E-14
 -1      3178 2.02299E+01 4.51821E-01 2.54843E-03-4.82195E-01 1.48485E-13-4.59605E-14
 -1      3179 2.03283E+01 2.49311E-01 2.34615E-03-1.09657E+00 6.19770E-14-8.07448E-14
 -1      3180 2.02680E+01 2.78071E-01 5.04510E-04-1.02867E+00 5.19215E-14-5.33015E-14
 -1      3181 2.08569E+01-2.54296E-01 1.12398E-03-1.36973E+00-4.47987E-14 9.38706E-15
 -1      3182 2.07016E+01-1.09516E-01 5.02820E-03-1.37388E+00-7.69007E-15-4.05152E-14
 -1      3183 2.12444E+01-6.35789E-01-1.03903E-03-1.31742E+00-1.46682E-13 8.86443E-14
 -1      3184 2.10371E+01-4.25215E-01 9.12023E-03-1.38060E+00-5.44204E-14 5.77791E-14
 -1      3185 2.06346E+01-3.73740E-01-1.02022E-02-1.53181E+00-1.08866E-13-3.86436E-14
 -1      3186 2.18012E+01-1.12975E+00-4.77073E-03-1.10813E+00-2.08218E-13 1.29801E-14
 -1      3187 2.15373E+01-8.65958E-01 1.44979E-02-1.25987E+00-1.93089E-13 6.21517E-14
 -1      3188 2.10644E+01-8.55154E-01-1.54954E-02-1.51960E+00-1.18574E-13-6.80862E-14
 -1      3189 2.25432E+01-1.65306E+00-1.07116E-02-6.68267E-01-1.74333E-13 8.54588E-14
 -1      3190 2.22351E+01-1.38913E+00 2.01440E-02-9.37349E-01-2.14296E-13 5.98233E-14
 -1      3191 2.17343E+01-1.46392E+00-2.04047E-02-1.33952E+00-2.20109E-13-4.20139E-14
 -1      3192 2.33902E+01-1.97032E+00-2.11875E-02 6.24256E-02-1.81383E-13 2.82343E-13
 -1      3193 2.31010E+01-1.84386E+00 2.00830E-02-3.21875E-01-1.91720E-13 1.90943E-13
 -1      3194 2.26806E+01-2.06111E+00-1.85967E-02-8.73182E-01-2.64519E-13 1.03471E-13
 -1      3195 2.41856E+01-1.64924E+00-1.06592E-02 1.04412E+00-5.61046E-14 4.34805E-13
 -1      3196 2.39991E+01-1.90713E+00 1.33149E-02 6.12943E-01-1.27255E-13 3.75685E-13
 -1      3197 2.38091E+01-2.38679E+00-2.89650E-02-4.81265E-02-2.14791E-13 3.03248E-13
 -1      3198 2.46330E+01-4.03804E-01-9.44644E-03 1.90631E+00 3.74388E-14 5.44123E-13
 -1      3199 2.45911E+01-1.16408E+00-2.01288E-02 1.59945E+00 6.26409E-15 4.95137E-13
 -1      3200 2.48380E+01-1.75041E+00-1.23224E-02 1.10175E+00-6.49324E-14 4.90657E-13
 -1      3201 2.45468E+01 2.30160E+00-4.89060E-02 1.88793E+00 3.62054E-13 3.79146E-13
 -1      3202 2.46856E+01 1.31013E+00-6.30334E-02 2.11881E+00 2.73007E-13 4.67591E-13
 -1      3203 2.43885E+01 3.01831E+00-4.81324E-02 1.20264E+00 5.12430E-13 2.34529E-13
 -1      3204 2.45429E+01 3.47449E+00-9.05908E-02-1.21464E+00 7.88612E-13-1.86050E-13
 -1      3205 2.44114E+01 3.96633E+00-6.66005E-02-4.01840E-01 7.30957E-13-3.23483E-14
 -1      3206 2.46035E+01-5.03613E-01-4.10828E-02-1.98586E+00 1.20747E-13-3.48574E-13
 -1      3207 2.45334E+01 4.18533E-01-1.75674E-02-2.09839E+00 3.19189E-13-3.63603E-13
 -1      3208 2.42508E+01-1.67474E+00-7.66383E-03-1.10227E+00-1.67076E-15-2.51399E-13
 -1      3209 2.43814E+01-1.21131E+00-1.23713E-02-1.50669E+00 8.35105E-14-2.99613E-13
 -1      3210 2.50666E+01-1.09995E+00-4.50782E-03-1.63415E+00 1.01610E-13-2.88160E-13
 -1      3211 2.34770E+01-1.88072E+00 1.50017E-02-1.15505E-01-1.64248E-13-2.62129E-13
 -1      3212 2.37389E+01-1.87872E+00-1.89254E-02-5.36734E-01-2.88456E-14-2.32556E-13
 -1      3213 2.42303E+01-2.14334E+00-1.13139E-02-5.15989E-01-2.17654E-14-2.07330E-13
 -1      3214 2.25979E+01-1.53491E+00 1.98780E-02 6.12975E-01-1.63877E-13-3.84949E-13
 -1      3215 2.28999E+01-1.76060E+00-1.51647E-02 3.00218E-01-1.26454E-13-3.48411E-13
 -1      3216 2.31451E+01-2.13651E+00-1.46539E-02 4.42154E-01-8.97260E-14-1.58096E-13
 -1      3217 2.18372E+01-1.01404E+00 1.63138E-02 1.03285E+00-2.43611E-13-4.43089E-13
 -1      3218 2.21135E+01-1.29148E+00-9.06296E-03 8.46327E-01-2.25988E-13-4.38347E-13
 -1      3219 2.21288E+01-1.63602E+00-1.91241E-02 1.04133E+00-1.58594E-13-3.54206E-13
 -1      3220 2.12673E+01-5.32062E-01 1.08892E-02 1.21206E+00-3.54743E-14-3.85336E-13
 -1      3221 2.14902E+01-7.70399E-01-4.00276E-03 1.12709E+00-1.34837E-13-3.90993E-13
 -1      3222 2.13582E+01-1.01692E+00-1.60214E-02 1.31881E+00-1.81038E-13-5.52278E-13
 -1      3223 2.08725E+01-1.66752E-01 6.39271E-03 1.23417E+00-6.96905E-14-1.98164E-13
 -1      3224 2.10413E+01-3.39278E-01-9.35178E-04 1.21968E+00-5.73933E-14-3.14097E-13
 -1      3225 2.08352E+01-4.85127E-01-1.12449E-02 1.38382E+00-8.66186E-14-3.10322E-13
 -1      3226 2.06099E+01 7.45376E-02 3.20593E-03 1.16319E+00-7.05737E-15 1.43415E-14
 -1      3227 2.07351E+01-3.49750E-02 7.27583E-04 1.19284E+00 2.28980E-14-8.00391E-14
 -1      3228 2.05056E+01-1.00177E-01-7.05715E-03 1.32639E+00-1.12547E-13-1.52906E-13
 -1      3229 2.04375E+01 2.13397E-01 1.16828E-03 1.04286E+00 2.44678E-14 4.59399E-15
 -1      3230 2.05309E+01 1.53415E-01 1.55827E-03 1.09715E+00-2.48260E-14 4.15426E-14
 -1      3231 2.03085E+01 1.44783E-01-4.07478E-03 1.20488E+00-5.84454E-14-1.17715E-14
 -1      3232 2.03229E+01 2.78119E-01-3.11375E-05 9.01614E-01-8.45593E-15-8.39789E-14
 -1      3233 2.03942E+01 2.52861E-01 1.93759E-03 9.67043E-01 6.88287E-14 6.49016E-15
 -1      3234 2.01951E+01 2.79737E-01-2.17277E-03 1.05490E+00 4.27780E-14-7.66406E-15
 -1      3235 2.02445E+01 2.94038E-01-6.72633E-04 7.57254E-01-1.59447E-13-1.12874E-13
 -1      3236 2.03001E+01 2.91054E-01 2.06502E-03 8.24960E-01-1.09762E-13-1.68471E-13
 -1      3237 2.01313E+01 3.37340E-01-1.07729E-03 8.97715E-01 6.72701E-15-4.34658E-14
 -1      3238 2.01885E+01 2.80608E-01-9.58954E-04 6.20487E-01-6.81458E-14-2.52878E-13
 -1      3239 2.02329E+01 2.90638E-01 2.04408E-03 6.84989E-01-1.10737E-13-2.31136E-13
 -1      3240 2.00951E+01 3.45113E-01-4.93272E-04 7.45863E-01-9.32407E-14-2.18492E-13
 -1      3241 2.01468E+01 2.51546E-01-1.03020E-03 4.97248E-01 1.10513E-13-2.17812E-13
 -1      3242 2.01826E+01 2.68188E-01 1.92811E-03 5.55471E-01 1.83601E-14-1.31329E-13
 -1      3243 2.00739E+01 3.23555E-01-2.09436E-04 6.06530E-01-9.23398E-14-3.89404E-13
 -1      3244 2.01147E+01 2.15929E-01-9.80101E-04 3.90227E-01 1.07027E-13-1.12021E-13
 -1      3245 2.01437E+01 2.35018E-01 1.75192E-03 4.40763E-01 1.17279E-13-1.00655E-13
 -1      3246 2.00604E+01 2.86912E-01-9.01129E-05 4.83409E-01 8.08211E-14-2.77301E-13
 -1      3247 2.00894E+01 1.79388E-01-8.69091E-04 2.99971E-01 5.33554E-14-2.16006E-13
 -1      3248 2.01128E+01 1.98385E-01 1.54320E-03 3.42512E-01 2.06883E-13-1.32062E-13
 -1      3249 2.00507E+01 2.44517E-01-5.24819E-05 3.77811E-01 1.05579E-13-1.25140E-13
 -1      3250 2.00692E+01 1.45137E-01-7.36029E-04 2.25697E-01-1.29831E-13-1.36188E-13
 -1      3251 2.00879E+01 1.62633E-01 1.32265E-03 2.60611E-01-1.66562E-13-2.01069E-13
 -1      3252 2.00429E+01 2.02099E-01-5.07763E-05 2.89483E-01-1.98944E-14-2.32582E-13
 -1      3253 2.00530E+01 1.14783E-01-6.02350E-04 1.65880E-01-2.09744E-13-2.83672E-13
 -1      3254 2.00678E+01 1.30111E-01 1.10638E-03 1.93905E-01-1.68716E-13-1.88875E-13
 -1      3255 2.00361E+01 1.62876E-01-6.11762E-05 2.17200E-01-1.33814E-13-3.29856E-13
 -1      3256 2.00401E+01 8.89092E-02-4.79460E-04 1.18654E-01-1.15760E-13-3.50946E-13
 -1      3257 2.00516E+01 1.01868E-01 9.05363E-04 1.40696E-01-1.37077E-13-1.87605E-13
 -1      3258 2.00301E+01 1.28404E-01-7.03147E-05 1.59217E-01-1.98939E-13-2.86171E-13
 -1      3259 2.00299E+01 6.74756E-02-3.73417E-04 8.20824E-02 1.33711E-13-9.92437E-14
 -1      3260 2.00387E+01 7.81476E-02 7.26346E-04 9.90772E-02-2.71695E-14-2.11989E-13
 -1      3261 2.00247E+01 9.91727E-02-7.47129E-05 1.13580E-01-2.06150E-13-1.02323E-13
 -1      3262 2.00218E+01 5.00652E-02-2.89820E-04 5.43348E-02 3.52943E-13 2.62725E-15
 -1      3263 2.00285E+01 5.87033E-02 5.71495E-04 6.71573E-02 2.92566E-13 3.43762E-14
 -1      3264 2.00198E+01 7.50372E-02-7.12059E-05 7.83305E-02 1.68601E-13 1.62334E-13
 -1      3265 2.00155E+01 3.62019E-02-2.15014E-04 3.38121E-02 1.94397E-13 1.23002E-13
 -1      3266 2.00205E+01 4.30463E-02 4.37403E-04 4.32459E-02 3.34689E-13 1.41294E-14
 -1      3267 2.00156E+01 5.54963E-02-5.61382E-05 5.16945E-02 2.59340E-13 5.01771E-13
 -1      3268 2.00108E+01 2.53101E-02-5.30034E-05 1.91451E-02 1.03937E-13 2.15564E-13
 -1      3269 2.00143E+01 3.05248E-02 3.14096E-04 2.57339E-02 1.73376E-13 1.66073E-13
 -1      3270 2.00117E+01 3.98747E-02-5.86255E-05 3.20480E-02 1.99676E-13 5.85889E-13
 -1      3271 2.00078E+01 2.03726E-02 5.18568E-05 1.23123E-02 2.49317E-13-4.33828E-14
 -1      3272 2.00097E+01 2.29665E-02 1.70628E-04 1.56206E-02 2.05476E-13 1.07783E-13
 -1      3273 2.00087E+01 3.00004E-02-7.89194E-05 2.03043E-02 2.52614E-13 3.13992E-13
 -1      3274 2.00064E+01 2.37944E-02-1.64477E-04 1.37524E-02 2.32723E-13 1.77296E-13
 -1      3275 1.99909E+01 5.24255E-02-1.91553E-05-8.63870E-03-2.50591E-13 2.96214E-13
 -1      3276 1.99894E+01 5.37630E-02-1.74280E-04-5.83323E-03-1.51334E-13 1.44812E-13
 -1      3277 1.99954E+01 4.65532E-02 5.17402E-05-1.39106E-02-3.12224E-13 3.81626E-14
 -1      3278 1.99928E+01 4.91251E-02-2.22706E-04-1.19394E-02-3.94027E-13 3.60006E-13
 -1      3279 1.99899E+01 6.06828E-02 2.50791E-04-1.26659E-02-2.81778E-13 1.97686E-13
 -1      3280 1.99887E+01 5.49139E-02-1.03639E-04-1.74574E-03-3.95938E-14-2.52679E-13
 -1      3281 1.99886E+01 5.49201E-02-1.02482E-04 1.44232E-03 2.54005E-14-6.09827E-13
 -1      3282 1.99866E+01 6.49533E-02 2.85720E-04-4.57761E-03-6.67781E-14-1.48530E-13
 -1      3283 1.41069E+01-2.08407E+00 1.94760E-01-5.18777E+00-4.66543E-13-5.79203E-13
 -1      3284 1.68378E+01-3.39445E+00-8.08804E-02-5.39421E+00-5.39589E-13-3.50636E-13
 -1      3285 1.77616E+01-3.50332E+00 5.83923E-03 5.17560E+00 3.86469E-13-1.46966E-14
 -1      3286 1.47605E+01-2.34531E+00 1.40972E-01 5.14975E+00 3.87725E-13-1.60871E-13
 -1      3287 2.02659E+01 3.01830E-01 2.09851E-03-9.46699E-01 4.08042E-14-5.10453E-14
 -1      3288 2.02258E+01 3.23093E-01 6.92689E-04-8.68670E-01 6.25994E-14-4.11338E-14
 -1      3289 2.01552E+01 3.53424E-01-1.77166E-03-1.00991E+00 4.54357E-14-6.42568E-14
 -1      3290 2.05994E+01 3.10027E-03 2.01410E-03-1.32631E+00 5.41363E-14-6.47758E-14
 -1      3291 2.04850E+01 9.27346E-02 2.41671E-03-1.29360E+00 4.56317E-14-8.73432E-14
 -1      3292 2.03798E+01-4.27313E-02-6.39887E-03-1.45220E+00-9.70196E-15-1.00797E-13
 -1      3293 2.04331E+01 1.60195E-01 2.34599E-03-1.22714E+00 2.98127E-14-1.07438E-13
 -1      3294 2.03492E+01 2.11139E-01 1.00754E-03-1.17254E+00 5.75831E-14-9.13241E-14
 -1      3295 2.01754E+01 2.83393E-01-2.45874E-03-1.17426E+00 6.55278E-14-1.26443E-13
 -1      3296 2.02410E+01 1.63803E-01-3.89651E-03-1.32515E+00 2.94207E-14-1.51905E-13
 -1      3297 2.73691E+01-2.07222E+00-1.20054E-01-6.93084E-01 1.77282E-13-4.42653E-13
 -1      3298 2.67764E+01-3.32596E+00 3.32798E-02 5.40231E-01-8.45018E-14-5.56527E-13
 -1      3299 1.24629E+01-1.24200E+00 8.49988E-02-4.24053E+00 1.92422E-13 6.87742E-13
 -1      3300 1.46208E+01-2.44781E+00 5.43816E-02-5.22985E+00 2.73774E-13 5.10092E-13
 -1      3301 2.03629E+01 1.10292E+00-5.63784E-04 4.65844E-01 3.68467E-13-8.91004E-14
 -1      3302 2.03080E+01 1.43398E+00 2.10856E-03 5.51705E-01 3.67360E-13-1.31115E-13
 -1      3303 2.02948E+01 1.29111E+00 8.63194E-04 3.50762E-01 3.39075E-13-1.46453E-13
 -1      3304 2.03201E+01 9.09008E-01-2.44826E-03 2.31144E-01 3.27806E-13-7.74575E-14
 -1      3305 2.79321E+01-8.25523E-01-9.54764E-02 2.09967E+00-7.49088E-14-4.83336E-13
 -1      3306 2.04583E+01-3.88806E+00 1.80696E-01-4.62797E+00-6.17062E-13-2.76031E-13
 -1      3307 2.25510E+01-4.61766E+00-1.41448E-01-3.54270E+00-5.63088E-13-1.93094E-13
 -1      3308 1.49993E+01-2.74693E+00 1.92761E-02 5.51765E+00-7.36577E-13 5.39027E-13
 -1      3309 1.25737E+01-1.44659E+00 1.02068E-01 4.60993E+00-7.31720E-13 7.46694E-13
 -1      3310 2.03049E+01 9.25349E-01 6.52852E-03-3.68328E-02-2.00345E-13-2.52059E-13
 -1      3311 2.02664E+01 7.91234E-01-2.04224E-03 1.37530E-01-1.97970E-13-2.39014E-13
 -1      3312 2.02331E+01 8.77415E-01-2.26310E-04 1.86637E-01-1.79113E-13-2.53289E-13
 -1      3313 2.65787E+01-3.56913E+00-3.50528E-02 4.04534E-01-1.56472E-14 6.73885E-13
 -1      3314 2.53720E+01-4.48309E+00 5.53326E-02 1.92273E+00 1.25139E-13 6.34715E-13
 -1      3315 2.02352E+01 3.45614E-01 1.60438E-03-7.79833E-01 6.91207E-14-4.18539E-14
 -1      3316 2.02145E+01 3.72558E-01 1.44128E-03-6.90081E-01 9.87218E-14-9.28834E-14
 -1      3317 2.01636E+01 4.07258E-01-1.54298E-03-8.33058E-01 6.22153E-14-6.95697E-14
 -1      3318 2.01128E+01 2.31309E+00-5.67215E-03-9.32374E-01-2.73838E-13-3.65980E-13
 -1      3319 2.02074E+01 2.10789E+00-9.90282E-03-1.01160E+00-3.23100E-13-3.24104E-13
 -1      3320 2.02909E+01 1.72977E+00 3.88877E-03-7.80474E-01-2.96130E-13-2.91611E-13
 -1      3321 2.01647E+01 2.08518E+00 7.01501E-03-7.16026E-01-2.35204E-13-3.57920E-13
 -1      3322 2.69913E+01 1.18444E+00-1.13991E-01-2.22618E+00 5.44953E-13-3.01190E-13
 -1      3323 2.75522E+01-4.94465E-01-3.30696E-02-1.70715E+00 4.02262E-13-4.63907E-13
 -1      3324 2.53626E+01-4.48000E+00-9.57012E-02 2.07127E+00-1.84887E-13-5.60829E-13
 -1      3325 2.35135E+01-4.61308E+00 8.56178E-02 3.40856E+00-3.36536E-13-4.45834E-13
 -1      3326 1.00663E+01-4.39678E-01 7.25227E-02 3.08512E+00-6.85896E-13 8.73371E-13
 -1      3327 8.70475E+00 1.27025E-01 1.60258E-01 1.05405E+00-3.48878E-13 9.69336E-13
 -1      3328 2.70449E+01-2.56613E+00-3.74934E-02 7.24679E-01 8.98049E-14-4.08180E-13
 -1      3329 2.68783E+01-1.22445E+00 3.60648E-02 1.43547E+00 6.55656E-14 6.37615E-13
 -1      3330 2.68444E+01 2.55361E-01-1.60904E-01 2.02195E+00 2.29920E-13 5.80369E-13
 -1      3331 2.32234E+01-4.40477E+00 9.81013E-02-3.22229E+00 4.75554E-13-1.59593E-13
 -1      3332 2.52697E+01-4.34189E+00-1.06616E-01-1.56831E+00 3.78251E-13-1.60223E-13
 -1      3333 2.00013E+01 3.80978E-02 1.31298E-04-1.65003E-02-3.24252E-13-4.12753E-13
 -1      3334 1.99982E+01 4.15646E-02-2.06822E-04-1.58337E-02-2.89433E-13-2.56588E-13
 -1      3335 1.99957E+01 5.27359E-02 1.96416E-04-1.84102E-02-3.95249E-13-5.57369E-14
 -1      3336 1.72555E+01-3.21925E+00 1.15402E-01-5.16001E+00 3.54286E-13 3.71245E-13
 -1      3337 1.99480E+01-4.33636E+00-7.18465E-02-4.83170E+00 4.32550E-13-1.46480E-14
 -1      3338 1.21315E+01-1.49945E+00 2.74885E-02 4.53904E+00 3.87176E-13-2.70756E-13
 -1      3339 1.01547E+01-5.35326E-01 1.12874E-01 3.05226E+00 3.81500E-13-5.42705E-13
 -1      3340 1.13955E+01 4.01130E-02 1.26902E-01 2.21296E+00 2.99556E-13-5.28938E-13
 -1      3341 2.50991E+01-3.93452E+00 1.21615E-01-1.63424E+00-4.47432E-13 2.15751E-13
 -1      3342 2.61269E+01-3.23848E+00-1.51880E-01-5.34927E-02-1.07983E-13 5.54286E-13
 -1      3343 1.98737E+01 2.43567E+00-4.15468E-03 2.01152E-01 1.60734E-13-4.54406E-13
 -1      3344 1.98450E+01 2.48302E+00-4.09173E-03 1.10499E-01 1.23252E-13-4.56658E-13
 -1      3345 2.42960E+01 2.17035E+00-2.18795E-02-1.77531E+00 6.41140E-13-3.53287E-13
 -1      3346 2.56037E+01 3.29917E+00-6.48199E-02-1.90355E+00 7.37979E-13-3.40006E-13
 -1      3347 2.63403E+01 2.01083E+00-1.13991E-01-2.33162E+00 6.29670E-13-3.25823E-13
 -1      3348 2.44753E+01 1.17617E+00-7.75409E-02-2.16850E+00 5.05030E-13-3.98255E-13
 -1      3349 2.63359E+01-3.39412E+00 9.91054E-03-2.24131E-03 2.74458E-13-3.77240E-13
 -1      3350 1.98298E+01 2.50925E+00-3.96944E-03 4.44557E-02 9.07046E-14-4.06615E-13
 -1      3351 1.98283E+01 2.51104E+00-4.09047E-03-4.62284E-02 3.59867E-14-3.96364E-13
 -1      3352 1.99202E+01 2.24935E+00 6.17701E-03 5.51334E-02 9.61654E-14-3.97955E-13
 -1      3353 2.00198E+01 2.16795E+00-4.22062E-03-4.10776E-01-1.38049E-13-3.92521E-13
 -1      3354 2.00919E+01 2.02331E+00-5.91131E-03-4.87325E-01-1.90933E-13-3.79290E-13
 -1      3355 2.02045E+01 1.66789E+00 6.82461E-03 3.66102E-01 2.81081E-13-2.67758E-13
 -1      3356 2.01016E+01 1.99687E+00-6.45375E-03 4.92427E-01 2.97362E-13-3.29988E-13
 -1      3357 2.00310E+01 2.14629E+00-3.98754E-03 4.14647E-01 2.68129E-13-3.60777E-13
 -1      3358 2.59941E+01 1.04170E+00-5.83494E-02 2.18660E+00 2.79575E-13 4.69749E-13
 -1      3359 2.59228E+01 8.02092E-01-5.68714E-02-2.16413E+00 4.24979E-13-3.95323E-13
 -1      3360 1.99979E+01 4.15152E-02-2.15520E-04 1.56116E-02 2.15245E-13-4.14007E-13
 -1      3361 2.00008E+01 3.80046E-02 7.04629E-05 1.62753E-02 3.59206E-13 3.12120E-13
 -1      3362 1.99681E+01 2.26682E+00-4.78706E-03 3.54143E-01 2.40439E-13-3.86851E-13
 -1      3363 1.99153E+01 2.36196E+00-4.11049E-03 2.66103E-01 1.88841E-13-4.08041E-13
 -1      3364 1.99762E+01 2.15024E+00 6.31584E-03 1.69552E-01 1.59493E-13-4.00169E-13
 -1      3365 2.00777E+01 1.95734E+00 7.07426E-03 2.77506E-01 2.47801E-13-3.38730E-13
 -1      3366 2.40818E+01-4.26696E+00 5.15502E-02 2.45621E+00 2.06203E-13 5.10130E-13
 -1      3367 1.99067E+01 2.37661E+00-4.24804E-03-2.64930E-01-6.51325E-14-4.13092E-13
 -1      3368 1.99586E+01 2.28474E+00-4.85806E-03-3.51725E-01-1.19362E-13-3.99822E-13
 -1      3369 2.00689E+01 1.98192E+00 8.55941E-03-2.79637E-01-1.25265E-13-3.67261E-13
 -1      3370 2.15601E+01-3.10219E+00-1.29154E-02 3.09699E+00 2.48299E-13 2.07945E-13
 -1      3371 2.29614E+01-3.24201E+00 2.65785E-02 2.29190E+00 1.78896E-13 3.41687E-13
 -1      3372 2.71644E+01-2.72685E+00-5.10596E-02-8.58578E-01-1.13709E-13 6.65495E-13
 -1      3373 2.38654E+01-3.68105E+00 1.93450E-03 1.90366E+00 1.21785E-13 4.20019E-13
 -1      3374 2.78127E+01-1.19514E+00-2.85645E-02-1.64884E+00-3.24865E-13 6.71990E-13
 -1      3375 1.09647E+01 5.49307E-01 7.08349E-02-2.28596E-01 7.13487E-14-6.56558E-13
 -1      3376 1.01562E+01 2.71617E-01 1.49324E-01-1.36387E+00-2.43208E-15-7.63084E-13
 -1      3377 1.11474E+01-3.75855E-03-2.40540E-03-2.26064E+00-6.96309E-14-6.39822E-13
 -1      3378 2.59026E+01-2.09579E+00-1.80286E-02 8.51392E-01-3.42578E-14 5.32560E-13
 -1      3379 2.00110E+01 2.99683E-02 2.39824E-04-2.11405E-02 1.11863E-13 9.05752E-14
 -1      3380 2.00082E+01 2.43685E-02-8.58666E-05-1.53310E-02 7.60002E-14-9.72773E-14
 -1      3381 2.02309E+01 5.85883E-01-1.57165E-03-4.09627E-01 1.93980E-13-4.92870E-14
 -1      3382 2.02485E+01 5.10432E-01-2.57542E-04-3.63149E-01 1.87985E-13-3.85297E-14
 -1      3383 2.02673E+01 5.90239E-01 3.40554E-03-2.27014E-01 2.48532E-13-4.15039E-14
 -1      3384 2.56722E+01-3.72767E+00-1.99717E-02 9.76180E-01-1.62878E-13-4.71602E-13
 -1      3385 2.45936E+01 3.86048E+00-1.17244E-01 8.45529E-01 6.54109E-13 1.37102E-13
 -1      3386 2.53254E+01 7.53889E-01-1.00955E-02-2.23593E+00 3.65052E-13-3.49089E-13
 -1      3387 1.99865E+01 6.49123E-02 2.84586E-04 4.35003E-03-4.21296E-14-5.72404E-13
 -1      3388 1.99893E+01 5.37397E-02-1.75719E-04 5.54055E-03-4.46120E-14-6.04225E-13
 -1      3389 1.99907E+01 5.23718E-02-2.07933E-05 8.41614E-03-2.51570E-14-6.05215E-13
 -1      3390 2.21252E+01-3.76001E+00 6.50288E-02-3.27621E+00 4.60125E-13-1.61420E-13
 -1      3391 1.74319E+01-2.75999E+00 8.91584E-02 4.82653E+00-7.08773E-13 2.16827E-13
 -1      3392 1.99926E+01 4.90556E-02-2.22861E-04 1.17140E-02 3.27765E-14-4.64159E-13
 -1      3393 1.99952E+01 4.65124E-02 5.90124E-05 1.37020E-02 2.41091E-13-6.47368E-13
 -1      3394 1.99954E+01 5.25654E-02 1.73659E-04 1.82700E-02-5.08010E-14-5.45426E-13
 -1      3395 1.99897E+01 6.05759E-02 2.47444E-04 1.24338E-02-2.75747E-14-4.94541E-13
 -1      3396 2.00066E+01 1.67062E-02 1.36105E-05-8.76756E-03 5.91491E-14-3.78114E-13
 -1      3397 1.35954E+01-1.31300E+00 1.09459E-01-4.34311E+00-3.27627E-13-5.55181E-13
 -1      3398 2.00079E+01 1.91117E-02 1.08645E-04-1.10884E-02 6.85676E-14-1.47248E-13
 -1      3399 2.00071E+01 2.61359E-02 6.53545E-05-1.51217E-02-1.30044E-13-1.39522E-13
 -1      3400 2.77085E+01 2.42776E-01-1.95876E-01-2.38745E+00-3.94185E-13 5.83020E-13
 -1      3401 2.00082E+01 3.98130E-02 1.11792E-04-2.65174E-02 1.95748E-13-4.77443E-15
 -1      3402 1.46023E+01-1.46481E+00 1.14890E-01 4.31004E+00 3.22221E-13-2.45796E-13
 -1      3403 2.02813E+01 6.60456E-01-1.30084E-03-1.01405E-01 2.71342E-13-5.71482E-14
 -1      3404 2.03157E+01 7.88188E-01 3.23900E-03 7.53772E-02 2.94078E-13-6.72440E-14
 -1      3405 2.03103E+01 9.64532E-01 6.44896E-04 1.38075E-01 3.04063E-13-8.37872E-14
 -1      3406 2.02739E+01 7.45002E-01-9.59623E-04-1.54412E-01 2.50132E-13-6.06489E-14
 -1      3407 2.02460E+01 1.67539E+00-2.94906E-03-5.98763E-01-2.46650E-13-3.18813E-13
 -1      3408 2.03133E+01 1.48571E+00-1.38402E-03-6.12849E-01-2.61129E-13-2.80153E-13
 -1      3409 2.03199E+01 1.30091E+00 5.89964E-03-4.29140E-01-2.26637E-13-2.69093E-13
 -1      3410 1.00225E+01 3.61168E-01 1.30655E-01 1.66139E-01-2.98218E-13 9.32518E-13
 -1      3411 2.00047E+01 3.03146E-02-1.30993E-04-1.60231E-02-1.79563E-13-3.08573E-13
 -1      3412 2.00029E+01 3.97152E-02-1.36325E-04-2.01325E-02-1.19644E-13-2.81473E-13
 -1      3413 1.19690E+01-6.35932E-01 1.18835E-01 3.78121E+00-7.35814E-13 7.53231E-13
 -1      3414 1.17033E+01 4.67551E-02 5.44706E-02 2.65401E+00-6.25501E-13 7.19355E-13
 -1      3415 1.39345E+01-9.23730E-01 6.40495E-02 3.92605E+00-7.75259E-13 6.60069E-13
 -1      3416 1.17782E+01-5.04274E-01 1.26679E-01-3.49204E+00 6.16278E-14 9.21443E-13
 -1      3417 1.36340E+01-8.53557E-01 7.39032E-02-3.80482E+00 1.40211E-13 5.49186E-13
 -1      3418 1.13968E+01 3.23030E-02 7.31017E-02-2.46512E+00-1.22194E-13 9.30339E-13
 -1      3419 1.69324E+01-2.40315E+00 1.00934E-01-4.64036E+00 3.10849E-13 2.79846E-13
 -1      3420 1.88381E+01-3.13647E+00 5.72831E-02-4.52968E+00-5.24851E-13-3.15185E-13
 -1      3421 2.02997E+01 1.12754E+00-4.33120E-03-2.68071E-01-2.14772E-13-2.71225E-13
 -1      3422 2.01910E+01 4.74946E-01-1.52991E-03-6.37296E-01 1.01349E-13-1.14012E-13
 -1      3423 2.67162E+01-1.50575E+00-5.58347E-02-1.26041E+00 1.81390E-13-3.82562E-13
 -1      3424 2.02687E+01 1.20252E+00-3.36283E-03-1.89717E-01-2.10065E-13-2.95364E-13
 -1      3425 2.22859E+01-4.18912E+00 3.06649E-02 3.53802E+00-4.12836E-13-2.90764E-13
 -1      3426 2.36995E+01-3.80143E+00 3.95077E-02-2.14506E+00-4.62703E-13 5.01543E-14
 -1      3427 2.59329E+01-2.19108E-01-4.93859E-02-2.08898E+00 2.03188E-13-3.02203E-13
 -1      3428 2.00474E+01 7.19723E-01-4.01296E-04 5.79523E-01-1.24789E-13-1.92340E-13
 -1      3429 2.00020E+01 6.89360E-01-1.50097E-04 6.87617E-01-1.00746E-13-1.81758E-13
 -1      3430 1.99203E+01 6.72224E-01-1.38191E-03 7.82505E-01-7.35930E-14-1.67170E-13
 -1      3431 1.98714E+01 6.65864E-01 6.93430E-04 8.83280E-01-2.68801E-14-1.40570E-13
 -1      3432 1.98811E+01 7.73072E-01 1.93358E-03 6.78804E-01-8.13268E-14-1.38631E-13
 -1      3433 1.97703E+01 6.64527E-01-2.39854E-03 9.77197E-01 5.11462E-15-1.48168E-13
 -1      3434 1.97192E+01 6.67852E-01 1.55359E-03 1.07728E+00 4.74029E-14-1.47911E-13
 -1      3435 1.97015E+01 7.54465E-01 2.26512E-03 8.64296E-01-1.67169E-14-1.03473E-13
 -1      3436 1.95998E+01 6.67049E-01-3.33901E-03 1.17720E+00 8.56851E-14-1.75247E-13
 -1      3437 1.95502E+01 6.63505E-01 2.69963E-03 1.28215E+00 7.99339E-14-1.64521E-13
 -1      3438 1.94869E+01 7.59335E-01 2.66150E-03 1.05297E+00 5.39058E-14-1.59222E-13
 -1      3439 1.94146E+01 6.44607E-01-4.16154E-03 1.39586E+00 6.20457E-14-1.54954E-13
 -1      3440 1.93758E+01 6.13239E-01 4.52609E-03 1.51083E+00 4.87576E-14-1.64667E-13
 -1      3441 1.92396E+01 7.53602E-01 2.86512E-03 1.25991E+00 8.97719E-14-2.09778E-13
 -1      3442 1.92301E+01 5.51781E-01-4.75544E-03 1.64854E+00 4.83181E-14-1.26955E-13
 -1      3443 1.92216E+01 4.64395E-01 7.45578E-03 1.77901E+00 6.31053E-14-7.68505E-14
 -1      3444 1.89663E+01 6.94946E-01 2.44970E-03 1.50435E+00 6.42264E-14-1.79928E-13
 -1      3445 1.90813E+01 3.27261E-01-4.83043E-03 1.95510E+00 4.82070E-14-9.47617E-14
 -1      3446 1.91411E+01 1.45547E-01 1.22608E-02 2.10578E+00 7.75500E-14-1.42537E-13
 -1      3447 1.86854E+01 5.26792E-01 4.21163E-04 1.81388E+00 5.59870E-14-1.73346E-13
 -1      3448 1.90431E+01-1.12573E-01-1.99627E-03 2.33915E+00 1.01351E-13-1.45843E-13
 -1      3449 1.92272E+01-4.45539E-01 1.55381E-02 2.50962E+00 1.27753E-13-1.34401E-13
 -1      3450 1.84386E+01 1.66842E-01-5.45201E-03 2.22939E+00 9.68383E-14-1.89482E-13
 -1      3451 1.92554E+01-8.67419E-01 6.85584E-03 2.78912E+00 1.77278E-13-7.05972E-14
 -1      3452 1.96596E+01-1.41733E+00 1.44432E-02 2.97038E+00 2.08744E-13-4.25441E-15
 -1      3453 1.83433E+01-5.14204E-01-1.46672E-02 2.79463E+00 1.94362E-13-7.23790E-14
 -1      3454 2.54968E+01-1.32149E+00-3.96818E-02-1.51597E+00 8.28174E-14-3.43635E-13
 -1      3455 2.61257E+01-1.28987E+00-4.04351E-02-1.49794E+00 1.33098E-13-3.77819E-13
 -1      3456 2.62252E+01-2.52968E+00 1.19328E-02-6.29915E-01-4.03688E-14-4.05165E-13
 -1      3457 2.52343E+01-2.10142E+00 2.75906E-03-9.93915E-01 1.57912E-14-3.64830E-13
 -1      3458 1.60325E+01-1.65355E+00 4.00163E-03 4.25716E+00 3.04893E-13-1.54321E-13
 -1      3459 1.40860E+01-6.51713E-01 8.02596E-02 3.66819E+00 3.36210E-13-3.13152E-13
 -1      3460 2.08114E+01-2.39148E+00 4.76014E-02-3.01952E+00 5.23878E-13-2.00815E-13
 -1      3461 2.00890E+01-1.72847E+00 3.66694E-02-2.99797E+00 3.94520E-13-9.15099E-14
 -1      3462 1.97621E+01-1.12821E+00 2.38732E-02-2.69890E+00 2.18599E-13-1.82512E-13
 -1      3463 1.93942E+01-6.38740E-01 1.13532E-02-2.55131E+00 1.35443E-13-2.63034E-13
 -1      3464 1.87577E+01-1.30363E+00-1.89880E-02-3.20017E+00 2.86453E-13-2.06178E-13
 -1      3465 1.93491E+01-2.57141E-01 1.63116E-02-2.28489E+00 1.12172E-13-1.96878E-13
 -1      3466 1.91728E+01 4.21804E-02-5.85221E-04-2.12698E+00 1.72346E-13-2.22674E-13
 -1      3467 1.85169E+01-3.13496E-01-1.33908E-02-2.55231E+00 1.34492E-13-1.24738E-13
 -1      3468 1.92431E+01 2.73078E-01 1.09104E-02-1.90941E+00 1.68978E-13-2.65833E-13
 -1      3469 1.91799E+01 4.34710E-01-3.71939E-03-1.76332E+00 1.85166E-13-1.95745E-13
 -1      3470 1.85785E+01 3.00435E-01-3.54468E-03-2.03561E+00 1.11174E-13-7.37237E-14
 -1      3471 1.92896E+01 5.53394E-01 6.56174E-03-1.59244E+00 7.76837E-14-1.50371E-13
 -1      3472 1.92846E+01 6.24978E-01-4.34490E-03-1.46201E+00 1.07434E-14-2.01687E-13
 -1      3473 1.87666E+01 6.22054E-01 8.70358E-04-1.64216E+00 1.61024E-13-2.02773E-13
 -1      3474 1.93995E+01 6.70655E-01 3.96874E-03-1.32494E+00-6.03221E-14-1.70074E-13
 -1      3475 1.94189E+01 6.86190E-01-4.18125E-03-1.20927E+00-5.70381E-14-1.34041E-13
 -1      3476 1.89874E+01 7.60138E-01 2.59023E-03-1.33883E+00 1.85040E-14-2.03350E-13
 -1      3477 1.95240E+01 6.87487E-01 2.54079E-03-1.09623E+00 7.82013E-15-2.08701E-13
 -1      3478 1.95502E+01 6.70494E-01-3.75448E-03-9.93913E-01-9.87839E-14-1.48893E-13
 -1      3479 1.91997E+01 7.85424E-01 3.06461E-03-1.09632E+00-7.65181E-14-2.49635E-13
 -1      3480 1.96400E+01 6.47004E-01 1.79170E-03-8.98838E-01-1.36825E-13-1.68745E-13
 -1      3481 1.96646E+01 6.13040E-01-3.27608E-03-8.08982E-01-1.23265E-13 1.02017E-14
 -1      3482 1.93858E+01 7.45054E-01 2.92163E-03-8.95946E-01-1.36671E-13-1.05045E-13
 -1      3483 1.97381E+01 5.77473E-01 1.40570E-03-7.28379E-01-1.96257E-13-3.70470E-14
 -1      3484 1.97579E+01 5.36408E-01-2.80109E-03-6.50448E-01-1.66355E-13-1.54573E-13
 -1      3485 1.95404E+01 6.70248E-01 2.53126E-03-7.26955E-01-1.82150E-13-4.80735E-14
 -1      3486 1.98163E+01 4.96693E-01 1.19263E-03-5.82293E-01-6.72623E-14-3.03112E-14
 -1      3487 1.98308E+01 4.54562E-01-2.34899E-03-5.15758E-01 4.33034E-14 3.93357E-14
 -1      3488 1.96641E+01 5.80885E-01 2.07415E-03-5.83547E-01-1.03644E-13 1.12797E-13
 -1      3489 1.98759E+01 4.15408E-01 1.05144E-03-4.58647E-01 6.84793E-14 1.77418E-13
 -1      3490 1.98857E+01 3.75678E-01-1.93399E-03-4.02791E-01 3.73361E-14 1.95320E-13
 -1      3491 1.97603E+01 4.89335E-01 1.63824E-03-4.62345E-01 6.34317E-14 2.27911E-13
 -1      3492 1.99200E+01 3.39657E-01 9.35323E-04-3.55521E-01 3.44036E-14 2.29062E-13
 -1      3493 1.99260E+01 3.04092E-01-1.56567E-03-3.09420E-01 1.09715E-13 3.29229E-13
 -1      3494 1.98334E+01 4.02834E-01 1.25631E-03-3.60922E-01 7.19686E-14 3.61328E-13
 -1      3495 1.99514E+01 2.72404E-01 8.23157E-04-2.70845E-01 2.09187E-13 1.74955E-13
 -1      3496 1.99546E+01 2.41696E-01-1.25018E-03-2.33427E-01 2.42434E-13 3.03176E-13
 -1      3497 1.98876E+01 3.25176E-01 9.42375E-04-2.77147E-01 1.18236E-13 3.96506E-13
 -1      3498 1.99731E+01 2.14694E-01 7.10438E-04-2.02419E-01 2.18566E-13 4.01534E-13
 -1      3499 1.99745E+01 1.88887E-01-9.85574E-04-1.72548E-01 1.69551E-13 4.60331E-13
 -1      3500 1.99270E+01 2.57897E-01 6.89480E-04-2.08961E-01 2.30578E-13 2.96375E-13
 -1      3501 1.99876E+01 1.66434E-01 6.00108E-04-1.48018E-01 2.03330E-13 4.53544E-13
 -1      3502 1.99877E+01 1.45211E-01-7.65372E-04-1.24567E-01 2.52501E-13 5.40971E-13
 -1      3503 1.99550E+01 2.01167E-01 4.95706E-04-1.54329E-01 2.55911E-13 2.92154E-13
 -1      3504 1.99967E+01 1.26910E-01 4.97106E-04-1.05475E-01 9.36477E-14 6.31667E-13
 -1      3505 1.99960E+01 1.09747E-01-5.90010E-04-8.73736E-02 8.92442E-14 4.96670E-13
 -1      3506 1.99742E+01 1.54354E-01 3.48256E-04-1.11281E-01 1.74002E-13 4.04710E-13
 -1      3507 2.00020E+01 9.50428E-02 4.06053E-04-7.27785E-02 1.64790E-13 4.29244E-13
 -1      3508 2.00008E+01 8.13477E-02-4.40064E-04-5.90868E-02 1.20067E-13 5.40840E-13
 -1      3509 1.99869E+01 1.16347E-01 2.24342E-04-7.78962E-02 9.25706E-14 3.76202E-13
 -1      3510 2.00046E+01 6.97620E-02 3.51580E-04-4.81468E-02 3.41670E-14 4.89458E-13
 -1      3511 2.00031E+01 5.88888E-02-3.36635E-04-3.78580E-02 2.13717E-13 2.25471E-13
 -1      3512 1.99948E+01 8.59967E-02 1.34462E-04-5.26079E-02 6.96084E-14 2.80926E-13
 -1      3513 2.01394E+01 5.42469E-01 3.63607E-04-6.63568E-01 8.44991E-14-1.41277E-13
 -1      3514 2.01590E+01 5.89625E-01 7.82437E-04-5.57221E-01 1.45432E-13-1.34928E-13
 -1      3515 2.03939E+01-3.99549E-01 6.15075E-03-1.67439E+00-8.92775E-14-6.45383E-14
 -1      3516 2.02238E+01-1.89706E-01 5.19721E-03-1.63806E+00-6.79715E-14-3.09735E-14
 -1      3517 2.26958E+01-2.46046E+00-7.05624E-03-1.26522E+00-3.35418E-13 8.78800E-14
 -1      3518 2.21700E+01-2.10087E+00 2.43909E-02-1.56292E+00-3.44591E-13-9.17669E-15
 -1      3519 2.49657E+01 1.47785E-02-2.49937E-03 2.10413E+00 6.89587E-14 5.60611E-13
 -1      3520 2.56312E+01-8.94608E-01-6.72006E-02 1.83334E+00 3.26822E-14 5.56780E-13
 -1      3521 2.15851E+01-1.52900E+00 2.36827E-02 1.56243E+00-2.04513E-13-2.94097E-13
 -1      3522 2.20234E+01-1.92342E+00-2.13237E-03 1.39379E+00-1.07534E-13-2.35842E-13
 -1      3523 2.08254E+01-8.25213E-01 1.42671E-02 1.62880E+00-2.19794E-13-2.28087E-13
 -1      3524 2.11440E+01-1.16408E+00 3.89454E-03 1.58169E+00-2.41969E-13-2.98199E-13
 -1      3525 2.08561E+01-1.44951E+00-2.44232E-02 1.93181E+00-1.92751E-13-1.83130E-13
 -1      3526 2.03644E+01-2.91445E-01 7.29707E-03 1.54337E+00-1.71775E-13 7.17395E-15
 -1      3527 2.05752E+01-5.38142E-01 5.07870E-03 1.56532E+00-1.79580E-13-7.45299E-14
 -1      3528 2.02293E+01-6.97448E-01-1.67273E-02 1.82050E+00-2.94667E-13 1.97818E-13
 -1      3529 2.01098E+01 6.61988E-02 3.02154E-03 1.38952E+00-1.43197E-13 7.66930E-14
 -1      3530 2.02408E+01-9.28249E-02 4.77124E-03 1.44761E+00-1.63838E-13-2.58311E-14
 -1      3531 1.98974E+01-1.58279E-01-9.85392E-03 1.62199E+00-1.90689E-13 3.15280E-13
 -1      3532 1.99846E+01 2.78365E-01 5.93575E-04 1.21141E+00-1.33830E-14 2.01669E-14
 -1      3533 2.00625E+01 1.88296E-01 3.90671E-03 1.28616E+00-7.94216E-14 5.67456E-14
 -1      3534 1.97499E+01 1.85583E-01-5.21396E-03 1.40229E+00-8.48850E-14 3.05997E-13
 -1      3535 1.99345E+01 3.83993E-01-6.91844E-04 1.03142E+00 4.45106E-14-2.10194E-14
 -1      3536 1.99796E+01 3.42842E-01 3.08905E-03 1.11136E+00 1.15399E-14 1.65520E-15
 -1      3537 1.97087E+01 3.79096E-01-2.28852E-03 1.18914E+00 1.19988E-14-3.77899E-16
 -1      3538 1.99241E+01 4.18037E-01-1.31977E-03 8.60773E-01-1.05019E-14-1.56813E-13
 -1      3539 1.99503E+01 4.08967E-01 2.45140E-03 9.39218E-01 6.37595E-14-3.53340E-14
 -1      3540 1.97233E+01 4.66609E-01-6.89298E-04 9.93156E-01 5.72533E-14 2.49804E-14
 -1      3541 1.99325E+01 4.07465E-01-1.55717E-03 7.05202E-01-6.29109E-14-2.25840E-13
 -1      3542 1.99484E+01 4.17869E-01 2.00463E-03 7.78211E-01-1.71503E-14-1.84738E-13
 -1      3543 1.97630E+01 4.85000E-01 1.40201E-04 8.17589E-01 4.04620E-14-1.28124E-13
 -1      3544 1.99480E+01 3.71700E-01-1.56852E-03 5.67547E-01-9.27378E-14-3.05175E-13
 -1      3545 1.99584E+01 3.92667E-01 1.68662E-03 6.32935E-01-1.39842E-13-3.50928E-13
 -1      3546 1.98103E+01 4.61270E-01 4.99740E-04 6.63255E-01-2.41457E-14-2.12055E-13
 -1      3547 1.99643E+01 3.24029E-01-1.45332E-03 4.48785E-01 3.63353E-14-1.78054E-13
 -1      3548 1.99718E+01 3.49550E-01 1.44269E-03 5.05581E-01-1.49901E-14-2.81390E-13
 -1      3549 1.98560E+01 4.14623E-01 6.12090E-04 5.29953E-01-1.11667E-13-2.57256E-13
 -1      3550 1.99785E+01 2.73034E-01-1.27623E-03 3.48561E-01 6.10272E-14-2.02345E-13
 -1      3551 1.99845E+01 2.99304E-01 1.24114E-03 3.96648E-01 7.00377E-14-1.62857E-13
 -1      3552 1.98958E+01 3.57966E-01 5.84652E-04 4.16795E-01 3.37461E-14-1.47620E-13
 -1      3553 1.99896E+01 2.23876E-01-1.08102E-03 2.65675E-01-5.99005E-15-9.58803E-14
 -1      3554 1.99947E+01 2.48655E-01 1.06174E-03 3.05482E-01 4.73929E-14 3.39816E-15
 -1      3555 1.99282E+01 2.99615E-01 5.04284E-04 3.22348E-01 2.32306E-14 6.58550E-14
 -1      3556 1.99976E+01 1.79364E-01-8.90313E-04 1.98396E-01-2.54312E-13-5.51635E-14
 -1      3557 2.00021E+01 2.01490E-01 8.97250E-04 2.30689E-01-1.06031E-13 4.13754E-15
 -1      3558 1.99533E+01 2.44456E-01 4.00285E-04 2.44838E-01-1.26177E-13 2.03728E-13
 -1      3559 2.00028E+01 1.40732E-01-7.15459E-04 1.44767E-01-2.64845E-13-5.85228E-14
 -1      3560 2.00069E+01 1.59743E-01 7.47798E-04 1.70464E-01-2.57867E-13-1.60909E-13
 -1      3561 1.99719E+01 1.95089E-01 3.03598E-04 1.82268E-01-2.20923E-13 2.57147E-13
 -1      3562 2.00058E+01 1.08250E-01-5.63400E-04 1.02775E-01-1.69983E-13-1.51877E-13
 -1      3563 2.00094E+01 1.24116E-01 6.13743E-04 1.22849E-01-2.03009E-13-2.22932E-13
 -1      3564 1.99850E+01 1.52561E-01 2.20365E-04 1.32612E-01-1.62772E-13-8.03492E-14
 -1      3565 2.00072E+01 8.15773E-02-4.29634E-04 7.05016E-02 2.23517E-15 1.64686E-13
 -1      3566 2.00103E+01 9.45245E-02 4.99212E-04 8.58681E-02-1.25685E-13-4.98152E-14
 -1      3567 1.99938E+01 1.16936E-01 1.42453E-04 9.38527E-02-1.65654E-13-2.81077E-13
 -1      3568 2.00072E+01 5.98734E-02-3.72707E-04 4.63357E-02 6.62268E-14 4.17331E-13
 -1      3569 2.00100E+01 7.02843E-02 3.61713E-04 5.76759E-02 2.90687E-14 2.57822E-13
 -1      3570 1.99993E+01 8.77349E-02 1.01572E-04 6.41153E-02-1.94254E-13-8.57001E-14
 -1      3571 2.00067E+01 4.28969E-02-1.59794E-04 2.84070E-02 9.14050E-14 6.52587E-13
 -1      3572 2.00088E+01 5.11112E-02 2.93394E-04 3.67509E-02 2.08076E-13 6.55828E-13
 -1      3573 2.00022E+01 6.47029E-02 1.87458E-04 4.20094E-02-3.28218E-14 6.07050E-14
 -1      3574 2.00029E+01 3.25106E-02-1.76183E-04 1.58942E-02 4.85229E-13 6.46967E-13
 -1      3575 2.00050E+01 2.88753E-02 2.93743E-05 1.51896E-02 3.65213E-13 6.40345E-13
 -1      3576 2.00059E+01 3.19882E-02 2.04570E-05 1.81412E-02 3.93147E-13 7.54372E-13
 -1      3577 2.00011E+01 4.23006E-02-4.01983E-06 1.98821E-02 2.03322E-13 3.31877E-13
 -1      3578 1.99869E+01 6.97368E-02 2.32443E-05-1.77981E-02-2.49134E-13 2.48486E-13
 -1      3579 1.99838E+01 7.25015E-02-2.67461E-04-1.38616E-02-1.46281E-13 8.41093E-15
 -1      3580 1.99817E+01 7.55543E-02-7.82561E-05-8.10682E-03-1.08327E-13-1.30168E-14
 -1      3581 1.99805E+01 7.64995E-02-1.96230E-04-3.28219E-03-1.13625E-13-2.45277E-13
 -1      3582 1.99792E+01 8.65594E-02 3.91330E-04-1.31630E-02-2.11565E-13-1.00953E-13
 -1      3583 2.09957E+01-3.05023E+00 7.49427E-02-3.46495E+00 5.48508E-13-1.40242E-13
 -1      3584 1.30313E+01-4.07896E-01 1.59870E-01-3.56122E+00-1.69198E-13-4.68209E-13
 -1      3585 1.47866E+01-1.52150E+00-7.71319E-02-4.31768E+00-3.94117E-13-3.03160E-13
 -1      3586 2.54354E+01-3.33921E+00-5.02819E-02 4.74573E-01-1.16320E-13-3.56375E-13
 -1      3587 2.45903E+01-3.89746E+00 7.60434E-02 1.70957E+00-2.08471E-13-4.18773E-13
 -1      3588 2.50463E+01-3.08477E+00-3.53258E-02 1.88909E-01-1.40978E-13-3.30133E-13
 -1      3589 2.11131E+01-3.85893E+00 2.09542E-02 3.92184E+00 3.40110E-13 2.02306E-13
 -1      3590 1.94367E+01-3.74579E+00 7.56744E-02 4.81485E+00 3.78454E-13 6.60583E-14
 -1      3591 1.88283E+01-2.88105E+00-3.12748E-02 4.29227E+00-5.06852E-13 6.08888E-14
 -1      3592 1.65759E+01-1.83739E+00 5.84448E-02 4.35695E+00-6.73279E-13 4.36973E-13
 -1      3593 2.01537E+01-2.21656E-02 5.10876E-03-1.54084E+00-3.18313E-14-4.30569E-14
 -1      3594 2.00553E+01 1.09439E-01 1.86048E-03-1.47859E+00-1.64833E-14-5.80620E-14
 -1      3595 1.98407E+01-6.33619E-02-7.93982E-03-1.67654E+00-3.34295E-14-6.89080E-14
 -1      3596 2.00848E+01 4.76139E-01 1.29072E-03-8.55026E-01 3.30504E-14-1.35848E-13
 -1      3597 2.00954E+01 5.05952E-01 1.44048E-04-7.61188E-01 3.74671E-14-1.34238E-13
 -1      3598 2.00520E+01 6.11777E-01-2.83074E-05-6.86201E-01 7.83601E-14-1.91226E-13
 -1      3599 2.01862E+01 1.83274E+00-2.23136E-03-5.60748E-01-2.21646E-13-3.41879E-13
 -1      3600 2.02985E+01 1.11729E+00 4.45277E-04 1.92051E-01 3.03839E-13-1.30951E-13
 -1      3601 2.02582E+01 1.30598E+00-1.49027E-03 2.37813E-01 3.04596E-13-1.69780E-13
 -1      3602 2.02782E+01 9.82663E-01-1.74306E-03 2.88660E-02 2.74414E-13-1.28363E-13
 -1      3603 2.27298E+01-4.04200E+00-5.29382E-02 2.92435E+00-2.99823E-13-3.87704E-13
 -1      3604 2.08134E+01-3.49423E+00 8.14148E-02 3.89578E+00-3.56250E-13-1.77035E-13
 -1      3605 2.30106E+01-3.61847E+00 9.84338E-03 2.31050E+00-2.50688E-13-2.52427E-13
 -1      3606 2.02138E+01 1.04492E+00-1.62270E-03 8.89502E-02-1.67059E-13-2.93496E-13
 -1      3607 2.01833E+01 9.28508E-01-2.30425E-03 2.35936E-01-1.59960E-13-2.73834E-13
 -1      3608 2.00410E+01 4.21077E-01 2.13769E-03-1.03435E+00 3.78016E-14-1.06521E-13
 -1      3609 2.00386E+01 4.48676E-01-3.56990E-04-9.47768E-01 2.24359E-14-1.19269E-13
 -1      3610 1.99604E+01 5.41622E-01-2.97481E-04-8.79037E-01 2.09982E-14-2.02729E-13
 -1      3611 1.80448E+01-2.77632E+00 2.92829E-02 4.59265E+00 3.53217E-13-3.48055E-14
 -1      3612 1.10705E+01 5.79065E-01 4.71020E-02 8.79199E-01-4.57768E-13 8.07659E-13
 -1      3613 1.09998E+01 6.11217E-01 6.67552E-02-7.31584E-01-3.04877E-13 7.96335E-13
 -1      3614 2.15968E+01-1.66575E+00 1.11126E-02-1.66625E+00-2.92407E-13-4.80930E-14
 -1      3615 2.11847E+01-1.28736E+00 2.20407E-02-1.76519E+00-2.25116E-13-4.74743E-14
 -1      3616 2.13727E+01-2.05271E+00-3.89945E-02-2.04662E+00-3.44366E-13-1.30278E-14
 -1      3617 2.08416E+01-9.58664E-01 5.25408E-03-1.74164E+00-1.59034E-13-7.81397E-14
 -1      3618 2.05693E+01-6.50945E-01 1.11686E-02-1.75532E+00-1.16563E-13-8.08091E-14
 -1      3619 2.00534E+01-5.18907E-01-1.40252E-02-1.88506E+00-8.30420E-14-4.40041E-14
 -1      3620 2.05032E+01-1.19677E+00-2.93164E-02-2.04229E+00-2.30644E-13-1.23733E-14
 -1      3621 2.00040E+01 4.79045E-02 1.52547E-04-2.71592E-02-3.10732E-14-1.45903E-13
 -1      3622 1.98410E+01 2.48956E+00-4.07177E-03-1.11374E-01 8.96547E-15-4.06043E-13
 -1      3623 1.98675E+01 2.44594E+00-4.22855E-03-2.00981E-01-4.29438E-14-4.23839E-13
 -1      3624 1.99687E+01 2.16385E+00 6.44058E-03-1.72470E-01-4.76072E-14-3.84786E-13
 -1      3625 2.01481E+01 8.36598E-01 7.31714E-04 3.54345E-01-1.40103E-13-2.54322E-13
 -1      3626 2.01081E+01 7.66817E-01-1.15478E-03 4.77245E-01-1.31298E-13-2.20222E-13
 -1      3627 2.00244E+01 8.44727E-01 1.76643E-03 4.83140E-01-1.05933E-13-2.27663E-13
 -1      3628 1.61171E+01-1.59911E+00 6.27064E-02-4.23281E+00 3.40582E-13 2.29788E-13
 -1      3629 1.81899E+01-2.44294E+00 1.49151E-02-4.21160E+00 4.24676E-13 4.30558E-14
 -1      3630 1.99948E+01 5.91391E-02-1.41262E-04-2.42927E-02-4.09745E-13-2.86069E-13
 -1      3631 1.99908E+01 6.38824E-02-3.15269E-04-2.22737E-02-3.80145E-13 2.80206E-14
 -1      3632 1.99856E+01 7.80871E-02 9.53863E-05-2.40734E-02-1.94752E-13-5.95317E-14
 -1      3633 1.78066E+01-2.09579E+00 1.50229E-01-4.33231E+00-4.73878E-13-2.85945E-13
 -1      3634 1.99415E+01-3.23895E+00-1.14828E-01-3.89867E+00-5.16231E-13-3.19654E-13
 -1      3635 1.25324E+01-6.17862E-02 2.86450E-02 2.78097E+00 3.44951E-13-4.08083E-13
 -1      3636 1.16893E+01 4.32380E-01 4.98108E-02 1.42147E+00 2.59017E-13-5.29639E-13
 -1      3637 2.02110E+01 1.66908E+00 7.84362E-03-3.86969E-01-1.96582E-13-3.26257E-13
 -1      3638 2.27143E+01-3.42479E+00 1.21841E-01-2.63013E+00-5.47726E-13-1.98713E-15
 -1      3639 2.40012E+01-3.47960E+00-9.65775E-02-1.18323E+00-3.99054E-13 2.61189E-13
 -1      3640 2.01986E+01 1.39592E+00-2.63244E-03-1.56931E-01-1.63702E-13-3.05133E-13
 -1      3641 1.84939E+01-2.30386E+00 1.49333E-02 4.03061E+00 3.39972E-13 4.70249E-14
 -1      3642 1.73188E+01-1.87937E+00 9.52420E-02 4.23202E+00 3.18268E-13-5.33185E-14
 -1      3643 1.65785E+01-1.18762E+00 4.04106E-03 3.76878E+00 3.01772E-13-6.24258E-14
 -1      3644 2.01138E+01 1.67379E+00-4.83694E-03-2.01838E-01-1.41960E-13-3.50007E-13
 -1      3645 2.01986E+01 1.28040E+00 4.91845E-03-2.73453E-02-1.56128E-13-3.07185E-13
 -1      3646 2.01373E+01 1.31090E+00-2.54716E-03 2.98437E-02-1.35228E-13-2.96863E-13
 -1      3647 2.00547E+01 1.79441E+00-4.32014E-03-1.58615E-01-9.94124E-14-3.73075E-13
 -1      3648 2.00143E+01 1.87910E+00-3.58472E-03 1.28756E-01 1.74109E-13-3.56751E-13
 -1      3649 1.99748E+01 1.95299E+00-3.26317E-03 8.11815E-02 1.40654E-13-4.12825E-13
 -1      3650 2.00061E+01 1.78289E+00 6.35659E-03 2.46166E-02 1.38102E-13-3.56518E-13
 -1      3651 1.99465E+01 2.00254E+00-3.44129E-03 5.63432E-02 1.27896E-13-3.76057E-13
 -1      3652 1.99316E+01 2.02822E+00-3.52936E-03 7.16371E-03 6.49159E-14-3.32723E-13
 -1      3653 2.54245E+01-2.25913E+00 8.04705E-04 7.00414E-01-1.02930E-13 5.34260E-13
 -1      3654 1.28511E+01 5.68023E-02 6.86289E-02-2.47590E+00-1.05095E-13-5.15633E-13
 -1      3655 1.26763E+01 7.85511E-01 2.23941E-02-8.12935E-01-2.81145E-13 6.35117E-13
 -1      3656 1.18547E+01 5.46213E-01 7.92814E-02-1.50869E+00-1.63157E-13 8.11302E-13
 -1      3657 1.29837E+01 2.57815E-01 9.64372E-03-2.33425E+00-7.50329E-14 7.32324E-13
 -1      3658 2.44460E+01-2.47825E+00-2.57259E-02-2.86944E-01-2.58272E-14-1.97720E-13
 -1      3659 2.48441E+01-2.70465E+00-2.29090E-02-1.52558E-01-1.02960E-13-2.87145E-13
 -1      3660 2.42890E+01-3.15277E+00 3.48044E-02 7.88524E-01-2.00793E-13-2.26929E-13
 -1      3661 2.39818E+01-2.55234E+00 2.59587E-02 2.38242E-01-1.38257E-13-1.35315E-13
 -1      3662 1.18425E+01 6.78851E-01 8.40923E-02 6.29004E-01 1.66056E-13-5.07129E-13
 -1      3663 1.20661E+01 6.55745E-01-2.10676E-02-3.42905E-01 8.03095E-14-5.29882E-13
 -1      3664 1.29452E+01 6.76206E-01 4.77876E-02 1.16693E+00 2.41284E-13-3.57776E-13
 -1      3665 2.01954E+01 6.52136E-01-2.31581E-04-4.48890E-01 1.70433E-13-1.15145E-13
 -1      3666 2.02196E+01 7.31999E-01 1.28013E-03-3.21761E-01 1.96638E-13-1.07534E-13
 -1      3667 2.01362E+01 7.20785E-01 5.44553E-05-4.77182E-01 1.67349E-13-1.85147E-13
 -1      3668 1.99174E+01 2.25412E+00 6.29325E-03-6.01945E-02 1.02840E-14-3.68670E-13
 -1      3669 2.38580E+01-2.82623E+00-1.56400E-02-5.95748E-01-2.90226E-13 2.72722E-13
 -1      3670 2.49668E+01-2.79629E+00 3.55934E-02 9.98016E-02-2.27336E-13 4.44408E-13
 -1      3671 2.00213E+01 3.45041E-01 3.01349E-03-1.20865E+00 4.69726E-14-6.77394E-14
 -1      3672 1.99998E+01 3.87121E-01-4.08142E-04-1.12720E+00 7.26199E-14-6.98050E-14
 -1      3673 1.98724E+01 4.78125E-01-8.43965E-04-1.06734E+00 3.50970E-14-1.12244E-13
 -1      3674 2.33355E+01-2.60538E+00 6.12984E-02-1.03881E+00-3.49940E-13 1.44126E-13
 -1      3675 1.99804E+01 7.65308E-02-1.70030E-04 3.10420E-03-1.18265E-13-5.72808E-13
 -1      3676 1.99815E+01 7.54199E-02-1.09062E-04 7.93869E-03 1.54021E-14-7.60069E-13
 -1      3677 1.99764E+01 8.95044E-02 3.89904E-04-1.43607E-04-1.30103E-13-3.70366E-13
 -1      3678 2.02022E+01 1.47000E+00-8.50582E-04 2.14663E-01 2.56850E-13-2.55311E-13
 -1      3679 1.42944E+01-1.59126E-01 6.64489E-02 2.90618E+00 3.11664E-13-3.61475E-13
 -1      3680 2.00004E+01 5.04411E-02-1.72698E-04 2.63849E-02-1.14315E-15 1.21342E-13
 -1      3681 2.00036E+01 4.53352E-02 7.02143E-05 2.58772E-02 1.56869E-13 6.47901E-13
 -1      3682 2.00071E+01 3.53827E-02 1.16900E-04 2.18918E-02 2.19363E-13 7.79329E-13
 -1      3683 2.12825E+01-2.83210E+00 2.73578E-02-2.85417E+00-4.90333E-13-1.04322E-13
 -1      3684 1.98134E+01-2.68838E+00 4.27306E-02 3.67600E+00-3.47951E-13 6.12843E-14
 -1      3685 2.01255E+01 1.00110E+00 2.07025E-03 2.64602E-01-1.31210E-13-2.69696E-13
 -1      3686 1.56689E+01-1.19388E+00 4.12168E-02 4.06198E+00-6.88416E-13 7.26898E-13
 -1      3687 1.48657E+01-4.26954E-01 4.01339E-02 3.34993E+00-6.90826E-13 7.00821E-13
 -1      3688 1.72996E+01-1.26850E+00 3.60530E-02 3.56730E+00-5.40519E-13 5.56464E-13
 -1      3689 1.32015E+01 2.53410E-01-7.06134E-03 2.38578E+00-6.09542E-13 6.00284E-13
 -1      3690 1.20708E+01 5.46983E-01 8.86395E-02 1.66224E+00-5.06813E-13 7.46521E-13
 -1      3691 1.27295E+01 8.13769E-01 2.79596E-02 8.27930E-01-4.50599E-13 6.82659E-13
 -1      3692 1.97791E+01 2.20850E-01-4.17383E-03-1.46366E+00-6.08771E-15-3.19689E-14
 -1      3693 2.00473E+01 2.11339E-01 4.00708E-03-1.37948E+00 8.02978E-15-6.67373E-14
 -1      3694 1.99959E+01 2.87159E-01 2.09397E-04-1.30457E+00 4.05155E-14-6.55410E-14
 -1      3695 2.24931E+01-2.92750E+00-5.19917E-02-1.86781E+00-4.20474E-13 5.85660E-14
 -1      3696 1.99982E+01 5.98622E-02 9.89012E-06-3.05639E-02-1.71841E-13-1.11938E-13
 -1      3697 2.27082E+01-2.28645E+00 3.01633E-02 1.19349E+00-1.20891E-13-2.25632E-13
 -1      3698 2.32559E+01-2.58202E+00-6.43264E-03 8.46993E-01-1.37789E-13-1.96045E-13
 -1      3699 1.67662E+01-1.43673E+00 3.78603E-02-3.82701E+00-3.41425E-13-2.50796E-13
 -1      3700 1.51532E+01-1.01774E+00 4.36386E-02-3.94568E+00 2.50640E-13 2.89019E-13
 -1      3701 1.66356E+01-1.04331E+00 4.64699E-02-3.60067E+00 3.11804E-13 1.07095E-13
 -1      3702 1.42775E+01-3.67824E-01 3.53897E-02-3.28402E+00 1.81292E-13 4.61398E-13
 -1      3703 1.99942E+01 7.28822E-02 2.49774E-04-3.50723E-02-1.24953E-13-6.01748E-14
 -1      3704 1.99903E+01 6.36991E-02-3.61391E-04 2.18223E-02-8.56806E-14-6.46826E-13
 -1      3705 1.99947E+01 5.97182E-02 1.57039E-04 2.43146E-02-1.17912E-13-4.83759E-13
 -1      3706 1.99960E+01 6.31838E-02-9.14444E-05 3.07502E-02-7.84378E-14-1.92447E-13
 -1      3707 1.80469E+01-1.17189E+00 2.64843E-02 3.44346E+00 2.95023E-13 3.33570E-14
 -1      3708 1.93694E+01-1.80441E+00-2.10009E-03 3.34083E+00 2.64044E-13 2.56670E-14
 -1      3709 2.33748E+01-2.90096E+00-1.20465E-02 1.08680E+00-1.48131E-13-1.92434E-13
 -1      3710 2.19038E+01-2.35313E+00-3.16145E-02 1.82126E+00-1.29669E-13-2.81218E-13
 -1      3711 2.01196E+01 1.66427E+00-4.23973E-03 1.93381E-01 2.43952E-13-3.15150E-13
 -1      3712 2.00622E+01 1.78546E+00-3.24274E-03 1.52362E-01 2.03990E-13-3.14283E-13
 -1      3713 2.00824E+01 1.64014E+00 6.82170E-03 5.61018E-02 1.74370E-13-3.05195E-13
 -1      3714 1.82352E+01-1.74480E+00 1.22651E-02-3.73215E+00 3.66257E-13-1.07567E-13
 -1      3715 1.90668E+01-2.64689E+00-1.66442E-02-4.03031E+00 4.79138E-13-9.30523E-14
 -1      3716 1.99994E+01 9.45374E-01-5.67609E-04 3.71449E-01-7.61298E-14-2.11539E-13
 -1      3717 1.99332E+01 8.87866E-01-1.72620E-03 4.71363E-01-6.78602E-14-1.98687E-13
 -1      3718 2.02436E+01-2.41465E+00 5.15587E-02 3.41526E+00 2.87393E-13 1.06765E-13
 -1      3719 1.96359E+01 8.19995E-01-2.61804E-03 7.16427E-01-3.66452E-14-1.02139E-13
 -1      3720 1.95367E+01 8.21282E-01-2.47341E-04 8.04503E-01 2.01164E-14-1.19156E-13
 -1      3721 1.93814E+01 8.26236E-01-3.80734E-03 8.81952E-01 3.44739E-14-1.25455E-13
 -1      3722 1.92665E+01 8.35300E-01 5.10370E-04 9.73724E-01 6.98104E-14-1.48403E-13
 -1      3723 1.93439E+01 9.04568E-01 4.25969E-03 7.29093E-01 1.83857E-14-1.51885E-13
 -1      3724 1.90763E+01 8.38376E-01-5.32772E-03 1.06103E+00 9.43461E-14-1.66025E-13
 -1      3725 1.89482E+01 8.38432E-01 1.72244E-03 1.16456E+00 7.26510E-14-1.96852E-13
 -1      3726 1.90085E+01 9.25382E-01 5.25722E-03 8.81660E-01 4.07997E-14-1.62050E-13
 -1      3727 1.87181E+01 8.20405E-01-7.36041E-03 1.27244E+00 7.15002E-14-1.82471E-13
 -1      3728 1.85842E+01 7.90955E-01 3.98606E-03 1.39901E+00 8.08139E-14-1.64070E-13
 -1      3729 1.86033E+01 9.34799E-01 6.58803E-03 1.06094E+00 8.24093E-14-1.54741E-13
 -1      3730 1.83076E+01 7.26886E-01-1.01830E-02 1.54500E+00 5.61491E-14-1.63177E-13
 -1      3731 1.81841E+01 6.39448E-01 7.37765E-03 1.71215E+00 4.03598E-14-1.67633E-13
 -1      3732 1.81182E+01 8.95388E-01 8.39251E-03 1.29459E+00 7.88870E-14-1.70208E-13
 -1      3733 1.78558E+01 5.00967E-01-1.24680E-02 1.92226E+00 7.91177E-14-1.55464E-13
 -1      3734 1.77768E+01 3.09733E-01 1.38587E-02 2.16121E+00 1.41982E-13-1.23250E-13
 -1      3735 1.75439E+01 7.58055E-01 1.13515E-02 1.62889E+00 9.31477E-14-1.83644E-13
 -1      3736 1.73939E+01 6.86945E-02-4.80006E-03 2.47339E+00 2.13173E-13-8.58666E-14
 -1      3737 1.73553E+01-3.28196E-01 6.75687E-03 2.83245E+00 2.72511E-13-6.20799E-14
 -1      3738 1.68504E+01 4.10872E-01-3.46321E-03 2.14661E+00 2.22062E-13-1.31790E-13
 -1      3739 1.99288E+01 2.03245E+00-3.33015E-03-1.69598E-02 3.14920E-14-3.50760E-13
 -1      3740 1.99397E+01 2.00855E+00-4.45770E-03-6.39931E-02 1.66635E-15-3.61109E-13
 -1      3741 1.99773E+01 1.83895E+00 7.74309E-03-9.33571E-03 5.66897E-14-3.05413E-13
 -1      3742 1.76642E+01-1.42886E-01 1.89548E-02-2.59784E+00 2.39841E-13-1.66069E-14
 -1      3743 1.76363E+01 1.96787E-01-7.94366E-03-2.29398E+00 8.12334E-14 5.07515E-15
 -1      3744 1.79501E+01 4.37197E-01 1.39924E-02-1.99271E+00 5.28281E-14 8.26218E-14
 -1      3745 1.80010E+01 6.07862E-01-1.13630E-02-1.77451E+00 1.51238E-13-8.73151E-15
 -1      3746 1.70919E+01 5.48840E-01 5.91473E-03-1.99572E+00 1.56980E-13-9.42611E-14
 -1      3747 1.82769E+01 7.37015E-01 7.14572E-03-1.57091E+00 1.37343E-13-9.46204E-14
 -1      3748 1.83716E+01 8.11853E-01-9.09382E-03-1.40907E+00 8.23354E-14-1.28286E-13
 -1      3749 1.76639E+01 8.49799E-01 8.89722E-03-1.51771E+00 3.76362E-14-9.28986E-14
 -1      3750 1.86031E+01 8.62472E-01 3.46975E-03-1.26460E+00 4.23713E-14-2.18633E-13
 -1      3751 1.87068E+01 8.78270E-01-6.99600E-03-1.13900E+00-2.51744E-14-2.56762E-13
 -1      3752 1.81475E+01 9.69788E-01 7.49895E-03-1.19179E+00-6.27458E-15-1.73004E-13
 -1      3753 1.88972E+01 8.79715E-01 1.63982E-03-1.03028E+00-7.08959E-14-2.47837E-13
 -1      3754 1.89939E+01 8.59900E-01-5.39182E-03-9.28396E-01-4.34857E-14-1.76516E-13
 -1      3755 1.85504E+01 9.83192E-01 6.34281E-03-9.57765E-01-7.26360E-14-2.61875E-13
 -1      3756 1.91483E+01 8.32724E-01 7.73353E-04-8.42195E-01-3.37114E-14-1.81210E-13
 -1      3757 1.92312E+01 7.93212E-01-4.27797E-03-7.56757E-01-1.30765E-13-8.71651E-14
 -1      3758 1.88804E+01 9.31314E-01 5.17541E-03-7.79022E-01-2.32000E-15-1.89119E-13
 -1      3759 1.93552E+01 7.50973E-01 4.20924E-04-6.85734E-01-9.48369E-14-1.05298E-14
 -1      3760 1.94229E+01 7.02157E-01-3.46584E-03-6.12985E-01-5.98514E-14 9.79967E-14
 -1      3761 1.91470E+01 8.43577E-01 4.24021E-03-6.34693E-01-4.20904E-14-1.09407E-13
 -1      3762 1.95212E+01 6.53782E-01 3.03136E-04-5.53481E-01-1.08160E-13 1.99772E-13
 -1      3763 1.95745E+01 6.02532E-01-2.83001E-03-4.91451E-01 1.75947E-14 2.47801E-13
 -1      3764 1.93598E+01 7.38654E-01 3.42351E-03-5.14361E-01 7.13114E-15 1.88709E-13
 -1      3765 1.96514E+01 5.53703E-01 2.90740E-04-4.41438E-01 3.75034E-14 1.47997E-13
 -1      3766 1.96921E+01 5.04312E-01-2.30523E-03-3.88945E-01 3.02878E-14 1.31029E-13
 -1      3767 1.95270E+01 6.29487E-01 2.71248E-03-4.12749E-01-4.03354E-14 2.18008E-13
 -1      3768 1.97515E+01 4.58463E-01 3.13179E-04-3.47120E-01 1.55972E-13 2.58787E-13
 -1      3769 1.97818E+01 4.13362E-01-1.86496E-03-3.03207E-01 2.14973E-13 3.87937E-13
 -1      3770 1.96565E+01 5.24476E-01 2.11773E-03-3.26948E-01 1.48962E-13 1.62883E-13
 -1      3771 1.98271E+01 3.72236E-01 3.31655E-04-2.68597E-01 1.23848E-13 4.17185E-13
 -1      3772 1.98492E+01 3.32580E-01-1.50012E-03-2.32407E-01 7.88239E-14 3.67357E-13
 -1      3773 1.97555E+01 4.28531E-01 1.64494E-03-2.55004E-01 1.60051E-13 8.45856E-14
 -1      3774 1.98831E+01 2.96942E-01 3.28982E-04-2.04164E-01 1.06497E-13 4.65129E-13
 -1      3775 1.98987E+01 2.63059E-01-1.19827E-03-1.74798E-01 2.99283E-13 4.81786E-13
 -1      3776 1.98299E+01 3.43933E-01 1.24787E-03-1.95483E-01 1.43023E-13 2.19152E-13
 -1      3777 1.99238E+01 2.32947E-01 3.12070E-04-1.52111E-01 2.46613E-13 3.91591E-13
 -1      3778 1.99345E+01 2.04649E-01-9.44647E-04-1.28688E-01 9.81413E-14 2.75723E-13
 -1      3779 1.98850E+01 2.71464E-01 9.41724E-04-1.46951E-01 1.60128E-13 4.15071E-13
 -1      3780 1.99526E+01 1.79763E-01 2.83937E-04-1.10784E-01 1.34067E-13 1.99835E-13
 -1      3781 1.99597E+01 1.56578E-01-7.46292E-04-9.24075E-02 1.87410E-13 1.91024E-13
 -1      3782 1.99249E+01 2.10749E-01 6.99325E-04-1.08097E-01 1.13301E-13 2.32167E-13
 -1      3783 1.99725E+01 1.36489E-01 2.89961E-04-7.85706E-02 7.59036E-14 1.75598E-13
 -1      3784 1.99767E+01 1.17671E-01-6.13463E-04-6.43401E-02 8.95967E-14 1.75320E-13
 -1      3785 1.99532E+01 1.60772E-01 4.92556E-04-7.75477E-02 1.00812E-13 1.21211E-13
 -1      3786 1.99856E+01 1.01455E-01 2.45538E-04-5.38114E-02 2.44169E-14 1.93308E-14
 -1      3787 1.99882E+01 8.64243E-02-4.13745E-04-4.31755E-02 1.67550E-14-1.23071E-13
 -1      3788 1.99722E+01 1.20448E-01 2.72708E-04-5.40182E-02-1.36985E-14-2.74123E-14
 -1      3789 1.99589E+01 6.70874E-01 2.31609E-04-6.84619E-01 7.07979E-14-2.09239E-13
 -1      3790 2.00044E+01 7.14149E-01-6.40432E-04-5.85662E-01 1.07494E-13-1.99685E-13
 -1      3791 1.94226E+01 9.54712E-02 2.93605E-04 1.62269E+00-1.24341E-13 3.97428E-13
 -1      3792 1.95476E+01-1.07733E-01 1.00363E-02 1.74107E+00-2.62019E-13 4.10951E-13
 -1      3793 1.96061E+01-3.69014E-01 4.95965E-03 1.92717E+00-4.36271E-13 3.63508E-13
 -1      3794 1.98508E+01-6.86992E-01 1.36443E-02 2.03447E+00-3.72303E-13 2.15952E-13
 -1      3795 1.90524E+01-1.34415E-01-9.38102E-03 1.93743E+00-3.93544E-13 2.28616E-13
 -1      3796 2.00616E+01-1.07687E+00 1.37845E-02 2.23318E+00-3.50539E-13 6.92962E-14
 -1      3797 2.04879E+01-1.52165E+00 1.83204E-02 2.28681E+00-2.88747E-13-7.55776E-14
 -1      3798 1.92773E+01-7.93358E-01-1.43874E-02 2.36879E+00-5.20275E-13 2.32299E-13
 -1      3799 1.93903E+01 3.72014E-01-1.76568E-03 1.34953E+00-1.69063E-14 2.65296E-13
 -1      3800 1.94418E+01 2.56195E-01 6.83814E-03 1.46305E+00 6.29984E-15 3.80992E-13
 -1      3801 1.90314E+01 2.80637E-01-4.30367E-03 1.57066E+00-9.20401E-14 3.15201E-13
 -1      3802 1.94365E+01 5.12224E-01-2.47897E-03 1.11353E+00 1.38719E-13 6.89103E-14
 -1      3803 1.94466E+01 4.58074E-01 4.62298E-03 1.21655E+00 5.75332E-14 1.58052E-13
 -1      3804 1.91122E+01 5.12764E-01-1.00551E-03 1.27038E+00 6.52997E-14 2.41410E-13
 -1      3805 1.95161E+01 5.61405E-01-2.64865E-03 9.11714E-01 1.24028E-13 1.89990E-14
 -1      3806 1.95054E+01 5.47710E-01 3.07111E-03 1.00352E+00 1.22704E-13 1.10886E-13
 -1      3807 1.92356E+01 6.17155E-01 4.72165E-04 1.02744E+00 1.35468E-13 1.13681E-13
 -1      3808 1.96050E+01 5.52381E-01-2.54358E-03 7.39388E-01 6.85155E-14-1.51028E-13
 -1      3809 1.95858E+01 5.63942E-01 2.12803E-03 8.20034E-01 1.27215E-13-8.04688E-14
 -1      3810 1.93696E+01 6.39730E-01 1.24453E-03 8.28503E-01 1.68542E-13-9.01405E-14
 -1      3811 1.96901E+01 5.09324E-01-2.32440E-03 5.92896E-01-1.08073E-13-2.57852E-13
 -1      3812 1.96690E+01 5.35194E-01 1.53885E-03 6.62877E-01 5.04341E-15-2.21613E-13
 -1      3813 1.94977E+01 6.11002E-01 1.53323E-03 6.64264E-01 5.65724E-14-1.61107E-13
 -1      3814 1.97650E+01 4.48879E-01-2.04628E-03 4.69433E-01-8.33857E-14-3.08658E-13
 -1      3815 1.97456E+01 4.81491E-01 1.17717E-03 5.29207E-01-1.48887E-13-2.65676E-13
 -1      3816 1.96112E+01 5.53182E-01 1.51801E-03 5.27990E-01-1.06172E-13-2.10323E-13
 -1      3817 1.98274E+01 3.82501E-01-1.74766E-03 3.66418E-01-6.96860E-14-5.47420E-14
 -1      3818 1.98111E+01 4.16834E-01 9.42082E-04 4.16761E-01-6.40586E-14-1.89280E-13
 -1      3819 1.97072E+01 4.81812E-01 1.38151E-03 4.15254E-01-1.86742E-13-1.94918E-13
 -1      3820 1.98773E+01 3.17109E-01-1.46933E-03 2.81557E-01-7.86659E-14 6.91666E-14
 -1      3821 1.98646E+01 3.50113E-01 7.79563E-04 3.23240E-01-1.88954E-14 7.58010E-15
 -1      3822 1.97853E+01 4.07157E-01 1.17741E-03 3.22358E-01-9.73962E-14-3.87227E-14
 -1      3823 1.99160E+01 2.56912E-01-1.21053E-03 2.12589E-01-1.34808E-13 3.27188E-14
 -1      3824 1.99065E+01 2.86844E-01 6.46834E-04 2.46579E-01-5.43205E-14 6.49683E-14
 -1      3825 1.98471E+01 3.35508E-01 9.48623E-04 2.46601E-01-5.69816E-14-3.13833E-14
 -1      3826 1.99450E+01 2.03844E-01-9.78089E-04 1.57343E-01-1.88615E-13-5.20429E-14
 -1      3827 1.99383E+01 2.29950E-01 5.44000E-04 1.84597E-01-2.08687E-13 2.31138E-14
 -1      3828 1.98945E+01 2.70547E-01 7.52622E-04 1.85440E-01-1.73970E-13-1.73878E-13
 -1      3829 1.99660E+01 1.58588E-01-7.82642E-04 1.13796E-01-2.03577E-14-2.66204E-13
 -1      3830 1.99616E+01 1.80674E-01 4.54270E-04 1.35285E-01-3.48927E-14-1.44342E-13
 -1      3831 1.99300E+01 2.13815E-01 5.81842E-04 1.36744E-01-9.73634E-14-2.79428E-13
 -1      3832 1.99806E+01 1.21024E-01-6.04122E-04 7.99388E-02-2.00891E-13-2.72330E-13
 -1      3833 1.99780E+01 1.39363E-01 4.14088E-04 9.67136E-02-1.24439E-13-1.96133E-13
 -1      3834 1.99558E+01 1.65682E-01 4.04103E-04 9.85971E-02-1.33188E-13-4.08208E-14
 -1      3835 1.99900E+01 9.04376E-02-4.82969E-04 5.38597E-02-1.37574E-13-1.57937E-13
 -1      3836 1.99890E+01 1.05415E-01 4.04644E-04 6.70320E-02-1.52296E-13-2.92242E-13
 -1      3837 1.99735E+01 1.25632E-01 1.05428E-04 6.92316E-02-1.69690E-13-2.78912E-13
 -1      3838 1.99952E+01 7.40545E-02 1.66146E-04 3.98472E-02-2.03073E-13-2.89730E-13
 -1      3839 1.99836E+01 7.23938E-02-2.52812E-04 1.37512E-02 1.62908E-14-5.34316E-13
 -1      3840 1.99867E+01 6.95277E-02 2.49676E-05 1.77118E-02 3.14416E-14-5.71937E-13
 -1      3841 1.99865E+01 7.78481E-02 4.67818E-04 2.38953E-02-8.22547E-14-4.95847E-13
 -1      3842 1.99731E+01 9.85286E-02-1.77797E-05-1.93843E-02-1.41870E-14-2.58728E-14
 -1      3843 1.99699E+01 1.00982E-01-3.15694E-04-1.27575E-02-9.94288E-14-1.54849E-14
 -1      3844 2.01991E+01 1.35217E+00 4.74063E-03 8.34201E-02 2.28500E-13-2.42566E-13
 -1      3845 2.02453E+01 7.93783E-01-8.29771E-04-2.22440E-01 2.12233E-13-9.20028E-14
 -1      3846 2.02691E+01 8.85904E-01 1.59144E-03-8.99010E-02 2.41869E-13-1.14926E-13
 -1      3847 2.02465E+01 1.03086E+00-1.26120E-03-4.25762E-02 2.44571E-13-1.58006E-13
 -1      3848 2.02005E+01 8.60874E-01-9.10654E-04-2.65387E-01 2.06034E-13-1.61224E-13
 -1      3849 2.34357E+01-3.26786E+00-3.36698E-02 1.48791E+00-1.40539E-13-2.65985E-13
 -1      3850 1.28732E+01 6.37741E-01 9.83432E-02-1.56530E+00-7.73570E-14-5.41876E-13
 -1      3851 1.38941E+01-9.41997E-02-5.78304E-02-2.77870E+00-1.80362E-13-3.40904E-13
 -1      3852 2.21553E+01-3.02336E+00 4.09653E-02 2.42816E+00-2.45611E-13-2.19207E-13
 -1      3853 1.98348E+01 6.08123E-01 1.27041E-03-8.68862E-01 1.04122E-14-1.76793E-13
 -1      3854 1.98801E+01 6.36307E-01-1.23022E-03-7.75095E-01 9.73380E-15-1.99564E-13
 -1      3855 1.98353E+01 7.38627E-01 1.37798E-03-6.75394E-01 4.58864E-14-2.01795E-13
 -1      3856 1.54797E+01-2.50216E-01 2.65010E-02 2.99855E+00 3.05478E-13-2.80390E-13
 -1      3857 1.41991E+01 3.72020E-01 3.37792E-02 2.23917E+00 2.97128E-13-3.72379E-13
 -1      3858 1.95258E+01-5.03077E-03 9.29393E-03-1.74869E+00-3.01011E-14-8.70080E-14
 -1      3859 1.94516E+01 1.59862E-01-9.33886E-04-1.63366E+00-2.02174E-15-1.09747E-13
 -1      3860 2.01086E+01 1.14013E+00 4.08921E-03 1.68769E-01-1.24097E-13-2.39762E-13
 -1      3861 2.00567E+01 1.02631E+00-2.59111E-03 2.85820E-01-1.06712E-13-2.43281E-13
 -1      3862 1.99806E+01 1.07599E+00 7.90666E-04 2.79094E-01-7.94927E-14-2.00748E-13
 -1      3863 1.58999E+01-5.00240E-01 1.09076E-01-3.38090E+00-2.23053E-13-1.71442E-13
 -1      3864 1.78440E+01-1.43110E+00-1.74486E-02-3.46137E+00-2.93457E-13-2.16783E-13
 -1      3865 1.99670E+01 1.96517E+00-3.52867E-03-8.91015E-02-1.97768E-14-3.48423E-13
 -1      3866 2.00041E+01 1.89662E+00-3.74591E-03-1.35813E-01-6.99140E-14-3.50262E-13
 -1      3867 2.00058E+01 1.79358E+00 8.49206E-03-4.10396E-02 1.80346E-15-3.34764E-13
 -1      3868 1.98419E+01 8.50705E-01-1.47903E-03 5.50568E-01-6.46470E-14-1.65303E-13
 -1      3869 1.97592E+01 8.29108E-01-8.83539E-04 6.41495E-01-7.37590E-14-1.44804E-13
 -1      3870 1.98304E+01 9.55741E-01 3.76532E-03 4.38969E-01-5.32054E-14-1.53096E-13
 -1      3871 1.68947E+01-5.83174E-01 3.58369E-03 3.11033E+00 2.91294E-13-5.69215E-14
 -1      3872 1.99855E+01 8.73394E-02 2.24311E-04-3.58593E-02-1.54223E-13-2.92763E-13
 -1      3873 1.73555E+01-1.26532E+00 2.19094E-02-3.62877E+00 3.08131E-13 1.05506E-14
 -1      3874 1.81831E+01-1.39017E+00 2.93559E-02-3.48098E+00 3.18294E-13-8.78733E-14
 -1      3875 1.64342E+01-7.03929E-01 1.30314E-02-3.36186E+00 2.82427E-13 1.54255E-13
 -1      3876 1.99852E+01 8.89156E-02-2.02340E-04 4.15558E-02-1.28627E-13-3.03440E-13
 -1      3877 2.15312E+01-2.45851E+00 2.17213E-02 2.32138E+00-2.03957E-13-2.18309E-13
 -1      3878 2.07392E+01-2.80905E+00-3.21628E-02 3.13375E+00-2.31877E-13-1.18293E-13
 -1      3879 1.92249E+01-2.00313E+00 1.82013E-02 3.40377E+00-2.96674E-13 1.24485E-13
 -1      3880 2.08745E+01-1.93877E+00 2.95944E-02 2.41217E+00-2.01495E-13-2.34059E-13
 -1      3881 1.79157E+01-7.72330E-01 9.76535E-03-3.08222E+00 3.23490E-13-1.23127E-13
 -1      3882 1.99771E+01 8.34113E-01 1.45763E-03-4.92861E-01 1.18905E-13-1.87614E-13
 -1      3883 2.00666E+01 7.72078E-01-4.20124E-04-4.91661E-01 1.34365E-13-2.09028E-13
 -1      3884 2.01082E+01 8.47286E-01 6.26736E-04-3.82762E-01 1.57540E-13-2.19141E-13
 -1      3885 1.98036E+01-1.67299E+00-2.74699E-02 2.76689E+00-3.54639E-13 4.75843E-14
 -1      3886 1.96169E+01 9.04416E-01 3.60988E-03 5.85721E-01-2.83769E-14-1.38256E-13
 -1      3887 1.29350E+01 1.04140E+00 8.38552E-02 1.79125E-02-3.11467E-13 6.32033E-13
 -1      3888 1.34349E+01 8.90661E-01 7.34759E-03-7.25804E-01-1.34040E-13 4.73753E-13
 -1      3889 1.34726E+01 8.73384E-01 1.77327E-03 7.50374E-01-3.39815E-13 6.47916E-13
 -1      3890 1.98036E+01 3.85148E-01-1.98520E-03-1.26035E+00 4.37293E-14-4.86742E-14
 -1      3891 1.69091E+01-2.44160E-01-4.27306E-05-2.83760E+00 3.31385E-13 8.50015E-16
 -1      3892 1.50796E+01 5.30896E-01 1.07751E-02 1.91190E+00 2.12755E-13-3.39709E-13
 -1      3893 1.39602E+01 6.23201E-01 3.28703E-02 1.70172E+00 2.34395E-13-3.41543E-13
 -1      3894 1.37957E+01 7.85407E-01-2.01206E-02 9.37269E-01 1.69227E-13-3.03500E-13
 -1      3895 1.97064E+01 5.49498E-01 2.47631E-03-1.05684E+00 2.28910E-14-1.08283E-13
 -1      3896 1.97447E+01 5.79412E-01-1.78294E-03-9.62599E-01 3.22531E-14-1.48710E-13
 -1      3897 1.96678E+01 6.77168E-01 1.11611E-03-8.57795E-01 7.17318E-15-1.80759E-13
 -1      3898 1.96957E+01-4.86255E-01 1.32186E-02-2.03799E+00-1.19950E-13-5.83075E-14
 -1      3899 1.95206E+01-2.21274E-01 2.35439E-03-1.92322E+00-7.64986E-14-6.29992E-14
 -1      3900 1.90727E+01-7.10098E-03-6.90998E-03-1.88573E+00-4.37995E-14-9.54155E-14
 -1      3901 2.00909E+01 1.41942E+00-2.36138E-03-2.11131E-02 2.03092E-13-2.62281E-13
 -1      3902 2.00410E+01 1.50859E+00-3.46348E-03-2.69147E-02 1.54753E-13-2.87462E-13
 -1      3903 2.00817E+01 1.33098E+00-2.36833E-03 6.29136E-02-1.16419E-13-2.73101E-13
 -1      3904 1.92625E+01-1.53962E+00 2.85268E-02 3.00807E+00-3.16960E-13 3.12512E-13
 -1      3905 1.81657E+01-1.49805E+00 4.02304E-03 3.47377E+00-4.54191E-13 4.06989E-13
 -1      3906 1.72826E+01-8.81920E-01-6.27426E-03 3.20066E+00-5.25084E-13 7.20786E-13
 -1      3907 1.88752E+01-1.11789E+00 3.74538E-03 2.82705E+00-5.13004E-13 3.94727E-13
 -1      3908 1.99791E+01 8.65364E-02 4.59283E-04 1.29201E-02 1.75502E-14-6.96479E-13
 -1      3909 2.07789E+01-2.38168E+00 5.23710E-02-2.90736E+00-4.17290E-13-1.10970E-13
 -1      3910 2.01786E+01 1.22702E+00-1.55477E-03-3.51378E-02 2.09106E-13-2.47276E-13
 -1      3911 1.44512E+01 1.62624E-01 4.16129E-02-2.52468E+00 1.21528E-13 3.91165E-13
 -1      3912 1.99794E+01 9.26972E-02-2.05311E-04-3.08297E-02-2.94098E-14-1.22732E-13
 -1      3913 1.48025E+01 7.99301E-02 2.57932E-02 2.57701E+00-5.34203E-13 6.23276E-13
 -1      3914 1.33740E+01 7.43404E-01 3.86671E-02-7.81038E-01 3.47890E-14-4.55429E-13
 -1      3915 1.95151E+01 2.90584E-01 6.23307E-03-1.48816E+00-9.16137E-15-7.67440E-14
 -1      3916 1.95022E+01 3.84809E-01-1.98144E-03-1.38088E+00 1.65377E-14-7.26200E-14
 -1      3917 1.91520E+01 3.25868E-01-2.91456E-03-1.55020E+00 1.88648E-14-8.96082E-14
 -1      3918 2.00750E+01 1.65221E+00 7.31966E-03-6.57936E-02-7.97875E-14-3.29167E-13
 -1      3919 2.00334E+01 1.39928E+00 5.74606E-03-8.20073E-02 1.40471E-13-2.88098E-13
 -1      3920 2.00047E+01 1.57691E+00-2.91815E-03-1.40579E-02 1.37080E-13-3.40318E-13
 -1      3921 1.99762E+01 1.62568E+00-3.28490E-03-2.26344E-02 1.00496E-13-3.15977E-13
 -1      3922 2.01669E+01-1.89331E+00 1.51078E-02-2.83523E+00-3.40443E-13-1.39933E-13
 -1      3923 2.01977E+01-1.21341E+00 2.15613E-02-2.30163E+00-2.64119E-13-3.95595E-14
 -1      3924 1.98126E+01-8.16205E-01 1.13650E-02-2.23843E+00-1.88571E-13-6.31713E-14
 -1      3925 1.91584E+01-5.57345E-01-1.21074E-02-2.30433E+00-1.33804E-13-1.10647E-13
 -1      3926 1.81061E+01-7.87846E-01-2.50563E-02-2.83704E+00-1.79778E-13-1.52140E-13
 -1      3927 1.91530E+01-1.52145E+00-5.12305E-03-3.10502E+00-2.94558E-13-1.76876E-13
 -1      3928 1.53857E+01-7.51145E-02-2.09777E-03-2.64880E+00-1.61504E-13-2.57336E-13
 -1      3929 1.99715E+01 1.09984E-01 2.53259E-04-3.19826E-02 1.22230E-13-7.61831E-14
 -1      3930 1.99631E+01 1.17480E-01 4.10498E-04-9.52941E-03 4.69941E-14-1.02457E-13
 -1      3931 1.99684E+01 1.02699E-01-1.97735E-04-3.60482E-03-2.11790E-14-1.42516E-13
 -1      3932 1.99681E+01 1.02395E-01-3.57579E-04 3.34651E-03 1.61142E-14-5.57918E-13
 -1      3933 1.99718E+01 1.03088E-01-3.43299E-04 2.94372E-02-1.66231E-13-6.12072E-13
 -1      3934 1.99772E+01 9.75232E-02-1.80920E-04 3.46638E-02-1.52595E-13-4.92374E-13
 -1      3935 1.99725E+01 1.18028E-01 5.40354E-04 4.91283E-02-9.71304E-14-5.03394E-13
 -1      3936 1.88418E+01 6.68062E-01-5.46156E-03 1.12047E+00 8.74297E-14 3.12208E-13
 -1      3937 1.87964E+01 6.11502E-01 5.56249E-03 1.25143E+00 5.52311E-14 4.02514E-13
 -1      3938 1.89561E+01 9.63283E-01-5.04969E-03 6.64361E-01 4.25517E-14-1.61910E-13
 -1      3939 1.87709E+01 9.79428E-01-1.49847E-03 7.35958E-01 4.12152E-14-1.43291E-13
 -1      3940 1.85107E+01 9.89587E-01-7.26401E-03 7.93884E-01 6.09025E-14-1.38011E-13
 -1      3941 1.82894E+01 9.97091E-01-1.06377E-03 8.81083E-01 1.14259E-13-1.49023E-13
 -1      3942 1.85230E+01 1.05822E+00 8.40659E-03 5.63958E-01 5.82680E-14-7.80832E-14
 -1      3943 1.79596E+01 9.87517E-01-1.08009E-02 9.57636E-01 1.01429E-13-1.76102E-13
 -1      3944 1.76966E+01 9.70997E-01 1.04952E-04 1.07601E+00 5.34966E-14-1.81022E-13
 -1      3945 1.79573E+01 1.08859E+00 1.18317E-02 6.71811E-01 6.59752E-14-1.31832E-13
 -1      3946 1.72667E+01 9.17206E-01-1.79655E-02 1.19046E+00 9.31321E-14-2.31082E-13
 -1      3947 1.69925E+01 8.58641E-01 4.82326E-03 1.35852E+00 1.56617E-13-1.63496E-13
 -1      3948 1.72451E+01 1.08944E+00 2.07579E-02 8.25928E-01 8.86153E-14-1.52788E-13
 -1      3949 1.84903E+01 2.07756E-01-6.33390E-03 1.80681E+00-3.66997E-13 2.89281E-13
 -1      3950 1.85541E+01-1.51979E-02 1.37762E-02 2.01462E+00-4.91475E-13 2.93625E-13
 -1      3951 1.99672E+01 1.06122E-01-2.15871E-04 1.29343E-02-1.36643E-13-6.04976E-13
 -1      3952 1.99697E+01 1.02710E-01-3.54009E-04 1.94068E-02-2.09414E-13-5.00766E-13
 -1      3953 1.99607E+01 1.27167E-01 4.43115E-04 3.02219E-02-2.08177E-13-4.74654E-13
 -1      3954 1.99590E+01 1.22576E-01 7.40500E-05 1.00379E-02-5.40904E-14-4.48460E-13
 -1      3955 1.63274E+01 7.05994E-01 1.28202E-02-1.74953E+00 1.94432E-13-1.99913E-13
 -1      3956 1.66201E+01 8.51718E-01-1.69484E-02-1.49612E+00 1.15826E-13-1.78678E-13
 -1      3957 1.71126E+01 9.55478E-01 4.18640E-03-1.30603E+00 5.07760E-14-1.71545E-13
 -1      3958 1.73660E+01 1.01280E+00-1.44827E-02-1.13501E+00 2.49677E-14-2.05888E-13
 -1      3959 1.64757E+01 1.10990E+00 2.54293E-02-1.06685E+00 6.78896E-14-1.38666E-13
 -1      3960 1.77354E+01 1.05397E+00 2.44506E-04-1.01589E+00-2.94437E-14-1.82965E-13
 -1      3961 1.79532E+01 1.06170E+00-1.01769E-02-8.96952E-01-5.41475E-14-2.24441E-13
 -1      3962 1.72868E+01 1.16887E+00 1.50029E-02-8.14206E-01 2.78412E-15-1.32293E-13
 -1      3963 1.82362E+01 1.05739E+00-7.75571E-04-8.14869E-01 4.73999E-14-2.09371E-13
 -1      3964 1.84173E+01 1.03257E+00-7.05095E-03-7.26854E-01 7.14980E-14-1.31144E-13
 -1      3965 1.79066E+01 1.15638E+00 1.10164E-02-6.45391E-01 5.99872E-14-7.13378E-14
 -1      3966 1.86361E+01 1.00095E+00-1.22571E-03-6.65250E-01-1.00771E-14-9.82069E-14
 -1      3967 1.87842E+01 9.57118E-01-5.21412E-03-5.95226E-01-2.28048E-14-1.14739E-13
 -1      3968 1.83851E+01 1.08981E+00 7.79324E-03-5.30210E-01 7.67803E-14-3.97982E-14
 -1      3969 1.89567E+01 9.09449E-01-1.07483E-03-5.45462E-01 3.77913E-14-1.64363E-14
 -1      3970 1.90757E+01 8.55195E-01-3.96621E-03-4.87340E-01 6.48680E-14 3.65873E-14
 -1      3971 1.87619E+01 9.92496E-01 6.03093E-03-4.37739E-01 9.58800E-14 1.82255E-13
 -1      3972 1.92116E+01 8.00070E-01-8.94215E-04-4.45744E-01-4.74279E-14 3.01622E-14
 -1      3973 1.93058E+01 7.42155E-01-3.09719E-03-3.96433E-01-5.20074E-14 5.90581E-14
 -1      3974 1.90597E+01 8.76730E-01 4.67357E-03-3.61741E-01 2.96336E-14 1.54747E-14
 -1      3975 1.94123E+01 6.85647E-01-6.72621E-04-3.61051E-01-8.99244E-14 6.63368E-14
 -1      3976 1.94857E+01 6.28625E-01-2.47277E-03-3.18877E-01-9.20748E-15 1.15163E-13
 -1      3977 1.92940E+01 7.55302E-01 3.62472E-03-2.96278E-01-1.10917E-13-9.34816E-14
 -1      3978 1.95686E+01 5.74627E-01-4.62568E-04-2.88841E-01 7.39781E-14 9.89013E-14
 -1      3979 1.96248E+01 5.21633E-01-1.99557E-03-2.52870E-01 1.07417E-13 1.11991E-14
 -1      3980 1.94769E+01 6.36955E-01 2.92267E-03-2.39993E-01-1.34080E-14 5.01153E-14
 -1      3981 1.96889E+01 4.72205E-01-2.86373E-04-2.27316E-01 7.94479E-14-3.11491E-14
 -1      3982 1.97314E+01 4.24659E-01-1.62538E-03-1.97128E-01 1.27284E-13-1.26230E-14
 -1      3983 1.96183E+01 5.26937E-01 2.32728E-03-1.90889E-01 6.34333E-14-4.75568E-14
 -1      3984 1.97803E+01 3.81111E-01-1.89928E-04-1.75837E-01 1.95232E-13-1.01609E-13
 -1      3985 1.98118E+01 3.39855E-01-1.31651E-03-1.50826E-01 2.59813E-13 5.28201E-14
 -1      3986 1.97266E+01 4.27787E-01 1.72456E-03-1.49430E-01 2.20806E-13 6.15610E-15
 -1      3987 1.98487E+01 3.02436E-01-9.12623E-05-1.33353E-01 2.02814E-13 7.86725E-14
 -1      3988 1.98717E+01 2.67396E-01-1.05191E-03-1.13031E-01 2.31007E-13 1.37749E-13
 -1      3989 1.98086E+01 3.41601E-01 1.34507E-03-1.14400E-01 2.54713E-13-1.14264E-13
 -1      3990 1.98989E+01 2.36005E-01-3.02864E-05-9.90307E-02 1.53842E-13 1.27924E-13
 -1      3991 1.99153E+01 2.06917E-01-8.23345E-04-8.28183E-02 1.49473E-13 1.64962E-13
 -1      3992 1.98696E+01 2.68091E-01 1.00358E-03-8.57802E-02 2.31775E-13-3.21942E-14
 -1      3993 1.99350E+01 1.81329E-01 7.20284E-05-7.17708E-02 1.83343E-13 9.32654E-15
 -1      3994 1.99460E+01 1.57473E-01-6.99598E-04-5.90041E-02-2.83553E-14-5.08782E-16
 -1      3995 1.99139E+01 2.06893E-01 7.07726E-04-6.29911E-02 8.35575E-14-4.78770E-14
 -1      3996 1.99563E+01 1.42498E-01 2.56946E-04-4.89778E-02-1.25590E-13 3.27657E-14
 -1      3997 1.99638E+01 1.22990E-01-3.96313E-04-3.95296E-02-3.59759E-14-4.90518E-14
 -1      3998 1.99571E+01 1.29374E-01-6.64357E-05-2.59825E-02 7.85816E-14 8.43961E-14
 -1      3999 1.99405E+01 1.62196E-01 2.57628E-04-4.26727E-02-8.62200E-14-6.79446E-14
 -1      4000 2.01520E+01 1.14483E+00 3.18346E-03-1.30383E-01 2.04423E-13-2.22593E-13
 -1      4001 2.00282E+01 1.42544E+00-4.52234E-03 5.99054E-02-6.49683E-14-2.80827E-13
 -1      4002 1.86436E+01 5.16119E-01-6.29656E-03 1.41872E+00-1.01236E-13 4.22416E-13
 -1      4003 1.86378E+01 3.89135E-01 8.98468E-03 1.58448E+00-1.77987E-13 3.49373E-13
 -1      4004 1.81020E+01 4.68494E-01-6.01130E-04 1.64280E+00-3.46238E-13 3.71467E-13
 -1      4005 1.83938E+01 7.00094E-01 2.77071E-03 1.25554E+00-4.88401E-14 4.81117E-13
 -1      4006 1.90421E+01 7.20675E-01-4.69390E-03 8.90448E-01 2.79595E-13 1.35440E-13
 -1      4007 1.89822E+01 7.07231E-01 3.07447E-03 9.96141E-01 1.98974E-13 2.62295E-13
 -1      4008 1.86747E+01 7.94122E-01 2.72118E-03 9.73299E-01 2.37523E-13 3.92518E-13
 -1      4009 1.92299E+01 7.07106E-01-3.88420E-03 7.07416E-01 1.14165E-13 9.19203E-15
 -1      4010 1.91678E+01 7.22382E-01 1.92402E-03 7.93569E-01 1.97361E-13 5.26992E-14
 -1      4011 1.89292E+01 8.08826E-01 3.15286E-03 7.60290E-01 2.98873E-13 2.21319E-13
 -1      4012 1.93958E+01 6.54350E-01-3.13716E-03 5.60618E-01 3.83388E-14-4.17501E-14
 -1      4013 1.93379E+01 6.85736E-01 1.15261E-03 6.31508E-01 1.15899E-13 3.25219E-14
 -1      4014 1.91530E+01 7.67705E-01 3.07636E-03 5.96314E-01 1.02148E-13 2.31584E-13
 -1      4015 1.95364E+01 5.80329E-01-2.61040E-03 4.41063E-01-1.07369E-13-1.56443E-13
 -1      4016 1.94859E+01 6.20309E-01 7.14481E-04 4.99736E-01-1.04790E-13-8.64187E-14
 -1      4017 1.93424E+01 6.95496E-01 2.57088E-03 4.67471E-01 1.50954E-14 2.73606E-13
 -1      4018 1.96519E+01 4.98600E-01-2.10565E-03 3.44062E-01-2.46889E-13-3.82687E-15
 -1      4019 1.96101E+01 5.40711E-01 4.87823E-04 3.92570E-01-1.18431E-13-2.94229E-14
 -1      4020 1.94994E+01 6.08516E-01 2.27932E-03 3.64733E-01-1.26098E-13 1.44751E-13
 -1      4021 1.97447E+01 4.16927E-01-1.76816E-03 2.64959E-01 6.05645E-15-7.27106E-14
 -1      4022 1.97112E+01 4.58132E-01 3.68924E-04 3.04756E-01-2.09033E-13-8.44232E-14
 -1      4023 1.96261E+01 5.17817E-01 1.88170E-03 2.82397E-01-1.79229E-13-2.75482E-14
 -1      4024 1.98173E+01 3.40960E-01-1.46796E-03 2.01256E-01-1.18581E-13 3.41606E-14
 -1      4025 1.97913E+01 3.78646E-01 2.53699E-04 2.33660E-01 6.01860E-14 5.06606E-14
 -1      4026 1.97269E+01 4.29984E-01 1.48568E-03 2.16162E-01-8.04765E-14-3.63830E-14
 -1      4027 1.98730E+01 2.73146E-01-1.18734E-03 1.50230E-01-2.32919E-13-3.01764E-14
 -1      4028 1.98534E+01 3.06445E-01 2.14549E-04 1.76260E-01-1.38852E-13-4.85650E-14
 -1      4029 1.98052E+01 3.49888E-01 1.20814E-03 1.63266E-01-1.12654E-13 2.29590E-13
 -1      4030 1.99147E+01 2.14598E-01-9.44195E-04 1.09975E-01-1.14068E-13-1.49111E-13
 -1      4031 1.99004E+01 2.43106E-01 1.87145E-04 1.30584E-01-2.42684E-13-1.93923E-13
 -1      4032 1.98650E+01 2.78987E-01 9.46064E-04 1.21221E-01-1.10849E-13 1.38796E-14
 -1      4033 1.99451E+01 1.65661E-01-6.78599E-04 7.87850E-02-1.38033E-13-8.36017E-14
 -1      4034 1.99349E+01 1.89361E-01 2.06162E-04 9.47584E-02-8.23875E-14-1.05086E-13
 -1      4035 1.99094E+01 2.18208E-01 6.97979E-04 8.84421E-02-1.64289E-13-2.95257E-14
 -1      4036 1.99635E+01 1.31110E-01-3.45236E-04 5.71250E-02 4.47518E-14-5.35106E-13
 -1      4037 1.99563E+01 1.50658E-01 3.11233E-04 6.92284E-02-3.38827E-14-3.61148E-13
 -1      4038 1.99373E+01 1.73513E-01 3.39800E-04 6.49595E-02 1.54096E-13-5.54913E-13
 -1      4039 1.99548E+01 1.40983E-01-1.96190E-05 4.83060E-02 3.62048E-14-7.82947E-13
 -1      4040 1.96026E+01 9.50395E-01-2.53436E-03 4.36663E-01-4.28110E-14-1.63295E-13
 -1      4041 1.94794E+01 9.40066E-01-1.87228E-03 5.02771E-01-9.60657E-15-1.62951E-13
 -1      4042 1.99655E+01 1.54674E+00-2.45016E-03 2.75137E-02-1.46695E-15-2.80426E-13
 -1      4043 1.99899E+01 1.49546E+00-4.09288E-03 2.62526E-02-4.75195E-14-2.82976E-13
 -1      4044 2.00061E+01 1.24483E+00 5.65793E-03 1.44618E-01-6.81277E-14-2.49141E-13
 -1      4045 1.93161E+01 9.40644E-01-3.57636E-03 5.49520E-01 1.81452E-15-1.56193E-13
 -1      4046 1.91631E+01 9.50503E-01-1.69806E-03 6.15186E-01 6.46542E-15-1.57897E-13
 -1      4047 1.89755E+01 1.01985E+00 6.28923E-03 4.76593E-01 2.79416E-14-1.15747E-13
 -1      4048 1.95906E+01 4.58116E-01 4.05649E-03-1.25985E+00 2.69791E-14-1.04844E-13
 -1      4049 1.96117E+01 5.08818E-01-2.10776E-03-1.16061E+00 2.92056E-14-1.28108E-13
 -1      4050 1.94858E+01 6.15450E-01 5.90348E-04-1.05380E+00 4.23975E-14-1.56217E-13
 -1      4051 1.73035E+01-2.57149E-01 2.79227E-02-2.68551E+00-1.52499E-13-1.70776E-13
 -1      4052 1.84767E+01-4.05828E-01 2.12442E-02-2.42335E+00-1.58459E-13-1.38070E-13
 -1      4053 1.49975E+01 7.69921E-01 7.55667E-02-1.62018E+00-8.84974E-14-3.01718E-13
 -1      4054 1.61751E+01 1.02845E-01-9.08270E-03-2.26821E+00-1.50311E-13-2.05599E-13
 -1      4055 1.65716E+01 3.65289E-01-2.10680E-02-1.88902E+00-8.93677E-14-1.80590E-13
 -1      4056 1.99359E+01 1.13692E+00-2.34653E-03 2.23013E-01-4.27582E-14-2.12713E-13
 -1      4057 1.39222E+01 1.02150E+00 5.30990E-02 1.12510E-01 1.07563E-13-3.19330E-13
 -1      4058 1.42422E+01 7.75275E-01-2.21604E-02-9.76933E-01-4.00162E-14-3.28782E-13
 -1      4059 1.52071E+01 9.11070E-01-1.27920E-02-8.22670E-01-1.57565E-14-2.27387E-13
 -1      4060 1.47917E+01 9.51100E-01 2.02074E-02 5.89857E-01 1.15370E-13-2.68648E-13
 -1      4061 1.98230E+01 1.01904E+00-9.99260E-04 3.16725E-01-3.95698E-14-1.71065E-13
 -1      4062 1.97267E+01 9.73913E-01-2.70098E-03 3.88405E-01-4.84509E-14-1.58218E-13
 -1      4063 1.96209E+01 1.02487E+00 4.30647E-03 3.10810E-01-4.63928E-14-1.47419E-13
 -1      4064 1.59128E+01-8.48057E-02 4.62622E-04 2.72818E+00-4.42950E-13 6.87251E-13
 -1      4065 1.45866E+01 6.26983E-01 2.83754E-02 1.87199E+00-4.54455E-13 5.92279E-13
 -1      4066 1.97125E+01 7.88948E-01 6.16130E-05-6.38386E-01 3.30074E-14-2.17861E-13
 -1      4067 1.97904E+01 8.22596E-01-1.99685E-03-5.50851E-01 8.04381E-14-2.05082E-13
 -1      4068 1.60950E+01-2.22499E-01 4.70892E-02 2.99241E+00 3.14609E-13-1.72019E-13
 -1      4069 1.99613E+01 1.65063E+00-3.18684E-03-6.20041E-03 9.88632E-14-2.86051E-13
 -1      4070 1.99572E+01 1.64597E+00-5.80409E-03-1.89781E-02 5.51276E-14-3.00614E-13
 -1      4071 1.99778E+01 1.49430E+00 6.02653E-03-3.72350E-02 9.15922E-14-2.85262E-13
 -1      4072 1.85375E+01-3.13124E-01-3.45052E-03 2.28157E+00-4.95444E-13 3.06576E-13
 -1      4073 1.87373E+01-6.75597E-01 1.88385E-02 2.52186E+00-4.89037E-13 3.00914E-13
 -1      4074 1.80457E+01-6.14945E-01 1.77313E-03 2.74327E+00-4.52712E-13 5.83075E-13
 -1      4075 1.79359E+01 5.43291E-02-1.43970E-03 2.13626E+00-4.46631E-13 4.04141E-13
 -1      4076 1.98844E+01 8.70945E-01-4.57186E-04-4.75739E-01 9.72174E-14-2.02044E-13
 -1      4077 1.99467E+01 9.31649E-01-1.87574E-03-3.83600E-01 1.04999E-13-1.95577E-13
 -1      4078 1.97751E+01 9.24516E-01 2.24915E-03-4.42259E-01 7.42196E-14-1.93063E-13
 -1      4079 1.99605E+01 1.41906E+00 5.02125E-03 3.83561E-02 2.30494E-14-2.38180E-13
 -1      4080 1.43530E+01 8.81876E-01 2.23629E-02 1.33204E+00-3.82449E-13 4.25023E-13
 -1      4081 1.43463E+01 1.00962E+00-7.81881E-03 6.15808E-01-2.28208E-13 5.44866E-13
 -1      4082 1.54154E+01 7.20632E-01 1.40525E-02 1.54934E+00-3.27833E-13 5.02362E-13
 -1      4083 1.59052E+01 9.57509E-01 2.07416E-02 1.16774E+00 1.29784E-13-2.55776E-13
 -1      4084 1.60400E+01 7.08251E-01-6.92858E-03 1.65754E+00 1.55652E-13-2.18448E-13
 -1      4085 2.01690E+01 9.33933E-01-3.33004E-04-2.50431E-01 1.92998E-13-2.16713E-13
 -1      4086 2.00781E+01 1.12399E+00-2.18201E-03-2.09340E-01 1.62913E-13-2.44833E-13
 -1      4087 1.83573E+01-1.21117E-01-5.92003E-03-2.18282E+00-9.77074E-14-1.10996E-13
 -1      4088 1.98623E+01 1.16508E+00 2.92110E-03 1.84344E-01-2.40559E-14-1.85355E-13
 -1      4089 1.93373E+01 1.00012E+00 4.98954E-03 3.95265E-01-2.27016E-14-1.50100E-13
 -1      4090 1.93052E+01 5.14169E-01-5.49155E-04-1.27878E+00-1.21559E-15-1.29261E-13
 -1      4091 1.99458E+01 1.49067E-01 3.68875E-04-2.05639E-02 1.28781E-13-9.95756E-14
 -1      4092 1.99526E+01 1.32684E-01-2.88757E-04-1.37989E-02 1.93628E-13-2.81439E-14
 -1      4093 1.99514E+01 1.35100E-01 1.15372E-04-3.31975E-03 1.70163E-13-3.63023E-13
 -1      4094 2.01370E+01 8.67666E-01 2.78506E-04-3.46992E-01 1.58724E-13-2.17124E-13
 -1      4095 1.74933E+01-4.36422E-01 1.64669E-02 2.73921E+00-4.00956E-13 7.25368E-13
 -1      4096 1.66560E+01-2.60057E-01 2.70074E-02 2.82965E+00-4.70126E-13 6.65009E-13
 -1      4097 1.61724E+01 2.58682E-01-1.91494E-02 2.24949E+00-2.83952E-13 5.37486E-13
 -1      4098 1.73476E+01-8.77384E-02-1.52458E-02 2.41067E+00-3.28880E-13 5.35055E-13
 -1      4099 1.95062E+01 7.40476E-01 1.10779E-03-8.07996E-01 4.14545E-16-1.77594E-13
 -1      4100 1.95927E+01 7.61633E-01-2.75895E-03-7.17614E-01 3.68295E-15-1.95205E-13
 -1      4101 1.95649E+01 8.54796E-01 2.86995E-03-5.89887E-01 1.05319E-14-1.48995E-13
 -1      4102 1.88045E+01 4.26386E-01 7.40649E-03-1.52245E+00 2.36756E-14-8.94012E-14
 -1      4103 1.88554E+01 5.23784E-01-6.29075E-03-1.37380E+00-4.62237E-15-1.08245E-13
 -1      4104 2.00098E+01 1.23808E+00-1.58546E-03-1.54030E-01 1.62212E-13-2.34828E-13
 -1      4105 1.99676E+01 1.30328E+00-2.92276E-03-1.26008E-01 1.03829E-13-2.76814E-13
 -1      4106 1.86298E+01 1.06295E-01 1.04347E-02-1.90391E+00-6.22109E-14-1.01357E-13
 -1      4107 1.86201E+01 2.81324E-01-8.19161E-03-1.71713E+00-1.74699E-14-8.94903E-14
 -1      4108 1.83362E+01 5.12005E-01 2.12202E-03-1.52921E+00-2.13819E-14-1.34830E-13
 -1      4109 1.47941E+01 1.03207E+00-9.05445E-03-6.98919E-01-7.56513E-14 2.77837E-13
 -1      4110 1.48367E+01 8.94948E-01 3.53468E-02-1.39549E+00 2.08193E-14 2.56786E-13
 -1      4111 1.59234E+01 2.69116E-01 1.84271E-02 2.44991E+00 2.66646E-13-2.55574E-13
 -1      4112 1.45001E+01 6.27419E-01 2.45664E-02-1.91271E+00 8.91648E-16 2.65139E-13
 -1      4113 1.55543E+01 2.55195E-02 1.24826E-02-2.76519E+00 2.19036E-13 1.42374E-13
 -1      4114 2.00256E+01 1.06541E+00 2.12866E-03-2.62106E-01 1.26547E-13-2.21759E-13
 -1      4115 1.56542E+01 5.03618E-01 2.08201E-02 1.96966E+00 2.14028E-13-2.84513E-13
 -1      4116 1.57901E+01 1.03608E+00-1.42743E-02 4.54507E-01 8.89935E-14-2.17339E-13
 -1      4117 1.79896E+01 1.08512E+00-8.84800E-03 3.56424E-01 4.37165E-14-1.12207E-13
 -1      4118 1.76645E+01 1.09615E+00-7.72648E-03 3.95322E-01 3.53044E-14-1.34684E-13
 -1      4119 1.72553E+01 1.09111E+00-1.55051E-02 4.07585E-01 2.35998E-14-1.36260E-13
 -1      4120 1.68681E+01 1.09851E+00-6.29565E-03 4.67953E-01 6.59403E-14-1.55399E-13
 -1      4121 1.74332E+01 1.17854E+00 3.00918E-02 6.87513E-02 2.08893E-14-1.24371E-13
 -1      4122 1.90855E+01 7.96799E-01-4.43228E-03 4.58217E-01 1.92341E-13 3.99581E-13
 -1      4123 1.89845E+01 8.37021E-01 1.23649E-04 5.22562E-01 2.83051E-13 5.34881E-13
 -1      4124 1.59559E+01 1.13228E+00-7.25386E-03-6.62743E-01 8.86552E-14 8.65078E-14
 -1      4125 1.63983E+01 1.15893E+00-2.23237E-02-5.48594E-01 7.28671E-14 1.17596E-13
 -1      4126 1.79061E+01 2.05812E-01 7.14494E-03-1.99528E+00-7.81836E-14-1.49338E-13
 -1      4127 1.68919E+01 1.19096E+00-9.80155E-03-5.02432E-01 2.19204E-15 1.26993E-13
 -1      4128 1.72631E+01 1.19497E+00-1.05169E-02-4.29532E-01 3.70636E-14 5.29969E-14
 -1      4129 1.65394E+01 1.29196E+00 2.64616E-02-1.19308E-01 9.06668E-14 2.01761E-13
 -1      4130 1.76219E+01 1.17950E+00-5.56228E-03-4.19673E-01 1.86607E-14 4.49618E-14
 -1      4131 1.78923E+01 1.15262E+00-9.60558E-03-3.73380E-01 5.09231E-14 8.83419E-14
 -1      4132 1.74034E+01 1.23888E+00 2.15139E-02-1.28831E-01 3.26919E-14 1.61753E-13
 -1      4133 1.81633E+01 1.12287E+00-5.06122E-03-3.49946E-01 1.30483E-13-7.81536E-15
 -1      4134 1.83789E+01 1.07957E+00-6.05423E-03-3.14442E-01 8.68514E-14 7.42432E-14
 -1      4135 1.79708E+01 1.19927E+00 1.62534E-02-1.28669E-01 4.35776E-14 1.53092E-13
 -1      4136 1.85878E+01 1.02929E+00-4.41587E-03-2.97896E-01 3.37054E-14-2.52147E-15
 -1      4137 1.87594E+01 9.74089E-01-4.50320E-03-2.68255E-01 1.25444E-13-1.04434E-14
 -1      4138 1.84475E+01 1.10267E+00 1.52710E-02-1.29793E-01 2.68246E-14-4.12788E-15
 -1      4139 1.89227E+01 9.17065E-01-3.07012E-03-2.52512E-01 9.39718E-14-1.36555E-13
 -1      4140 1.90594E+01 8.56399E-01-2.73022E-03-2.24961E-01-3.93424E-14-1.45891E-13
 -1      4141 1.88070E+01 9.82979E-01 9.91788E-03-1.25825E-01 3.50484E-14-3.04992E-13
 -1      4142 1.91877E+01 7.95667E-01-1.80292E-03-2.14194E-01-8.09410E-14-4.21987E-14
 -1      4143 1.92927E+01 7.35190E-01-2.06781E-03-1.88831E-01-3.27260E-15-3.48844E-14
 -1      4144 1.90946E+01 8.44804E-01 2.99728E-03-1.09942E-01-6.10450E-14-9.83800E-14
 -1      4145 1.93939E+01 6.74834E-01-1.42230E-03-1.76634E-01 6.58132E-15 1.25318E-13
 -1      4146 1.94745E+01 6.17085E-01-2.05323E-03-1.54924E-01 2.64981E-14 1.72308E-13
 -1      4147 1.93176E+01 7.24510E-01 2.56835E-03-1.00010E-01 9.14055E-14 2.11921E-13
 -1      4148 1.95552E+01 5.62278E-01-6.30934E-04-1.43643E-01 6.80376E-15 1.69348E-13
 -1      4149 1.96157E+01 5.08295E-01-1.97274E-03-1.24814E-01 1.46732E-13 1.18770E-13
 -1      4150 1.94975E+01 6.09575E-01 3.81442E-03-8.25784E-02 1.01034E-13 2.12420E-13
 -1      4151 1.96775E+01 4.59074E-01-8.88101E-04-1.13437E-01 1.84057E-13 1.78801E-13
 -1      4152 1.97249E+01 4.11964E-01-1.42925E-03-9.71319E-02 2.11355E-13 6.25918E-14
 -1      4153 1.96310E+01 5.04573E-01 3.39289E-03-6.70776E-02 1.81227E-13 2.51055E-13
 -1      4154 1.97718E+01 3.68244E-01-7.44764E-04-8.81185E-02 2.31185E-13-4.33377E-14
 -1      4155 1.98074E+01 3.27586E-01-1.15334E-03-7.44913E-02 2.37464E-13-7.29282E-14
 -1      4156 1.97386E+01 4.07855E-01 3.40675E-03-5.41292E-02 2.07159E-13 1.56480E-13
 -1      4157 1.98424E+01 2.90608E-01-5.22092E-04-6.70364E-02 2.75564E-13-2.00254E-13
 -1      4158 1.98686E+01 2.56341E-01-8.73210E-04-5.57995E-02 2.60902E-13-2.51962E-13
 -1      4159 1.98177E+01 3.23678E-01 2.65890E-03-4.25033E-02 1.71415E-13-2.87399E-13
 -1      4160 1.98944E+01 2.25424E-01-3.78131E-04-4.95406E-02 1.74986E-13-3.12348E-13
 -1      4161 1.99134E+01 1.97386E-01-5.41207E-04-4.07342E-02 2.36325E-14-2.89417E-13
 -1      4162 1.98754E+01 2.52202E-01 1.66733E-03-3.25261E-02 1.34791E-13-4.83726E-13
 -1      4163 1.99259E+01 1.81678E-01 1.93801E-04-3.45013E-02-1.05183E-14-2.71936E-13
 -1      4164 1.99351E+01 1.62874E-01-4.01335E-04-2.50676E-02-2.37095E-14-2.37896E-13
 -1      4165 1.99318E+01 1.66729E-01-4.41101E-05-1.19326E-02 2.77207E-13-4.44093E-13
 -1      4166 1.99119E+01 2.00946E-01 8.96614E-04-2.17796E-02 4.13761E-14-6.09258E-13
 -1      4167 1.88261E+01 8.64019E-01-6.74894E-03 5.93343E-01 1.94894E-13 4.02073E-13
 -1      4168 1.87140E+01 8.88387E-01 1.14264E-03 6.76420E-01 1.77861E-13 4.48796E-13
 -1      4169 1.88050E+01 9.35472E-01 1.19399E-02 4.49564E-01 1.93122E-13 6.51151E-13
 -1      4170 1.92977E+01 7.11175E-01-2.61528E-03 3.54464E-01-3.96322E-14 5.24604E-13
 -1      4171 1.92116E+01 7.58079E-01 8.56287E-05 4.07581E-01 1.05011E-13 4.29728E-13
 -1      4172 1.90714E+01 8.28346E-01 2.28507E-03 3.32206E-01 1.11379E-13 6.36829E-13
 -1      4173 1.94677E+01 6.12783E-01-2.45831E-03 2.74481E-01-1.66242E-13 2.21867E-13
 -1      4174 1.93976E+01 6.62189E-01-4.70924E-04 3.16104E-01-8.70183E-14 2.70090E-13
 -1      4175 1.92921E+01 7.27918E-01 3.06962E-03 2.58026E-01 5.66947E-14 4.68002E-13
 -1      4176 1.96043E+01 5.16867E-01-1.79146E-03 2.09802E-01-1.73454E-14 3.06702E-14
 -1      4177 1.95488E+01 5.65751E-01 1.17895E-04 2.44096E-01-1.10738E-13 1.15527E-13
 -1      4178 1.94665E+01 6.22294E-01 2.25926E-03 1.96102E-01 2.54286E-15 2.00604E-13
 -1      4179 1.97107E+01 4.25308E-01-1.97549E-03 1.59665E-01-1.58068E-13 2.05987E-14
 -1      4180 1.96678E+01 4.70209E-01-3.09575E-04 1.86635E-01-1.15340E-13 5.44572E-14
 -1      4181 1.96049E+01 5.18143E-01 8.93371E-04 1.50908E-01-2.37099E-14 1.71488E-13
 -1      4182 1.97943E+01 3.43414E-01-1.56694E-03 1.19080E-01-5.80073E-14 4.51183E-14
 -1      4183 1.97612E+01 3.83852E-01-1.75322E-04 1.40423E-01-1.09488E-13 3.47140E-14
 -1      4184 1.97151E+01 4.30965E-01 3.41350E-03 1.12025E-01-1.18576E-13-1.20914E-13
 -1      4185 1.98575E+01 2.72172E-01-1.19086E-03 8.76504E-02-1.33836E-13 4.42940E-14
 -1      4186 1.98325E+01 3.07025E-01-1.70891E-04 1.04546E-01-9.12128E-15 7.60939E-14
 -1      4187 1.97993E+01 3.46310E-01 2.95403E-03 8.34832E-02-9.73119E-14-2.24508E-13
 -1      4188 1.99046E+01 2.11864E-01-7.64201E-04 6.32283E-02 4.70014E-14-1.72096E-13
 -1      4189 1.98859E+01 2.41029E-01-1.41464E-04 7.62641E-02-8.25852E-14-3.98355E-14
 -1      4190 1.98613E+01 2.73196E-01 2.13187E-03 6.12494E-02-2.37362E-14-9.05227E-14
 -1      4191 1.96438E+01 1.05034E+00-3.09000E-03 1.79926E-01-3.13511E-14-1.68486E-13
 -1      4192 1.95194E+01 1.02284E+00-2.77941E-03 2.19464E-01-3.27176E-14-1.45352E-13
 -1      4193 1.99286E+01 1.22535E+00 4.66336E-03-1.41564E-01 6.13784E-14-2.58718E-13
 -1      4194 1.99381E+01 1.34848E+00-2.46074E-03-7.68615E-02 7.14923E-14-3.00681E-13
 -1      4195 1.99147E+01 1.37157E+00-5.13882E-03-4.69485E-02 7.65645E-14-2.63187E-13
 -1      4196 1.93679E+01 1.00822E+00-3.52443E-03 2.33136E-01-1.82222E-14-1.24307E-13
 -1      4197 1.92054E+01 1.00862E+00-3.26780E-03 2.65814E-01 1.09831E-14-1.12735E-13
 -1      4198 1.94336E+01 1.05802E+00 9.46091E-03 1.01664E-01-2.99186E-16-9.95273E-14
 -1      4199 1.90105E+01 1.01647E+00-4.49558E-03 2.77120E-01 1.58899E-14-9.61145E-14
 -1      4200 1.88049E+01 1.03292E+00-4.22940E-03 3.06928E-01 2.67886E-14-8.50501E-14
 -1      4201 1.90953E+01 1.05620E+00 1.23849E-02 1.11434E-01 1.74709E-14-7.81787E-14
 -1      4202 1.50039E+01 1.16900E+00 3.17762E-02-8.80963E-02-1.19224E-13 3.93785E-13
 -1      4203 1.85173E+01 8.91859E-01-8.81563E-03 7.72017E-01 2.60540E-13 2.76034E-13
 -1      4204 1.83913E+01 8.84240E-01 5.64887E-04 8.83919E-01 1.94820E-13 3.00674E-13
 -1      4205 1.84749E+01 9.99179E-01 1.48452E-02 5.92271E-01 4.13565E-14 1.67115E-13
 -1      4206 1.63145E+01-1.44304E-01 2.56601E-02-2.80626E+00 2.33537E-13 8.31418E-14
 -1      4207 1.61279E+01 4.11173E-01-3.21339E-03-2.22515E+00 1.84078E-13-1.33383E-13
 -1      4208 1.98849E+01 1.23606E+00-4.06230E-03 7.99685E-02-8.51982E-15-1.97622E-13
 -1      4209 1.97747E+01 1.11324E+00-1.45208E-03 1.54240E-01-3.03281E-14-1.95033E-13
 -1      4210 1.86843E+01 6.85916E-01 3.02712E-03-1.19437E+00-2.57108E-14-1.64113E-13
 -1      4211 1.90341E+01 6.01287E-01 4.53199E-03-1.22944E+00-2.41283E-14-1.38659E-13
 -1      4212 1.91128E+01 6.50738E-01-4.89275E-03-1.10999E+00 1.29119E-14-1.31518E-13
 -1      4213 1.57320E+01 7.73829E-01-4.47940E-03-1.66093E+00 1.32668E-13-8.54403E-14
 -1      4214 1.98963E+01 1.34402E+00 2.61045E-03 1.27101E-02 4.18830E-14-2.00395E-13
 -1      4215 1.85593E+01 1.05031E+00-6.15232E-03 3.16407E-01 4.06805E-14-7.84132E-14
 -1      4216 1.83015E+01 1.07034E+00-5.71667E-03 3.47193E-01 5.02524E-14-9.74886E-14
 -1      4217 1.86671E+01 1.09088E+00 1.67704E-02 1.10751E-01 2.16486E-14-1.02119E-13
 -1      4218 1.92755E+01 6.90616E-01 2.50207E-03-9.99033E-01 1.45142E-14-1.37817E-13
 -1      4219 1.93636E+01 7.16168E-01-3.72357E-03-8.98433E-01 2.19583E-15-1.59488E-13
 -1      4220 1.90130E+01 7.70782E-01 3.21321E-03-9.46704E-01-1.05190E-14-1.32091E-13
 -1      4221 1.66682E+01 4.52179E-01 8.29296E-03 1.93842E+00-2.94925E-13 5.57364E-13
 -1      4222 1.61441E+01 6.31394E-01 2.06229E-02 1.78359E+00-2.72582E-13 5.46385E-13
 -1      4223 1.58029E+01 8.66442E-01-4.92807E-03 1.30598E+00-3.04556E-13 4.75539E-13
 -1      4224 1.81284E+01 1.13936E+00 2.32648E-02 9.76445E-02 1.53193E-14-1.19411E-13
 -1      4225 1.60408E+01 1.12403E+00 2.88848E-02-2.15492E-03 4.83242E-14-1.91522E-13
 -1      4226 1.98518E+01 1.23007E+00 1.05796E-03-2.08302E-02 2.29306E-14-2.24198E-13
 -1      4227 1.99496E+01 1.41774E-01 3.23387E-04 2.36260E-02 7.30892E-14-1.59525E-13
 -1      4228 1.99504E+01 1.40854E-01-4.79624E-04 3.46616E-02 4.27433E-14-5.40499E-13
 -1      4229 1.99432E+01 1.56782E-01 7.96643E-05 4.19494E-02 2.07201E-13-4.09796E-13
 -1      4230 1.83632E+01 7.78015E-01 3.08556E-03-1.06976E+00-4.11303E-15-1.97587E-13
 -1      4231 1.85231E+01 8.11259E-01-1.00557E-02-9.41606E-01-1.22481E-14-1.80907E-13
 -1      4232 2.00647E+01 9.20393E-01-1.06017E-04-3.63133E-01 1.36004E-13-2.22189E-13
 -1      4233 1.98711E+01 1.11659E+00-1.81442E-03-2.12397E-01 8.49645E-14-2.12350E-13
 -1      4234 1.98388E+01 1.17079E+00 1.02040E-03-1.49858E-01 3.15607E-14-2.23056E-13
 -1      4235 1.81649E+01 8.56177E-01-7.82441E-03 1.00620E+00 5.73158E-14 2.66627E-13
 -1      4236 1.80270E+01 8.12483E-01 5.63684E-03 1.16043E+00-1.63490E-13 2.64373E-13
 -1      4237 1.80656E+01 9.79274E-01 1.37413E-03 7.95027E-01 1.10607E-13 3.10368E-14
 -1      4238 1.93087E+01 8.14439E-01 3.06258E-03-7.52814E-01-8.71530E-15-1.43746E-13
 -1      4239 1.99202E+01 1.93070E-01 4.09824E-05 5.61959E-02 2.93618E-13-2.35778E-13
 -1      4240 1.99015E+01 2.15182E-01 2.62155E-04 4.34935E-02 1.99544E-13-1.62561E-13
 -1      4241 1.99300E+01 1.74922E-01-4.40434E-04 4.71556E-02 3.56905E-13-3.91509E-13
 -1      4242 1.97052E+01 1.13122E+00 6.27106E-03 7.49387E-02-2.99121E-15-1.70212E-13
 -1      4243 1.55213E+01 1.14883E+00-5.20765E-03 4.49692E-01-1.09124E-13 3.71537E-13
 -1      4244 1.78926E+01 6.27025E-01 2.29508E-03-1.40723E+00-2.01120E-14-1.80952E-13
 -1      4245 1.80590E+01 7.09698E-01-1.50159E-02-1.22416E+00-4.36570E-15-1.72607E-13
 -1      4246 1.79838E+01 9.17126E-01 2.21003E-02-9.43749E-01-1.43517E-14-1.65738E-13
 -1      4247 1.65019E+01 7.82361E-01 2.16046E-02-1.37074E+00-6.36509E-14-2.11465E-13
 -1      4248 1.72957E+01 3.65023E-01-1.47707E-02-1.86759E+00-9.80054E-14-1.62397E-13
 -1      4249 1.94242E+01 8.94248E-01-5.72847E-04-5.10787E-01-7.08174E-15-1.18147E-13
 -1      4250 1.95411E+01 9.13718E-01-3.27534E-03-4.39902E-01 7.99961E-15-1.54298E-13
 -1      4251 1.99486E+01 1.39232E-01-1.61867E-04 7.06486E-03 8.57775E-14-3.62961E-13
 -1      4252 1.99083E+01 1.06759E+00-3.00783E-04-2.81793E-01 9.51633E-14-2.13812E-13
 -1      4253 1.98259E+01 1.02736E+00 1.29079E-03-2.97399E-01 6.30922E-14-1.78100E-13
 -1      4254 1.61148E+01 1.04199E+00-1.09009E-02 7.11762E-01-1.66204E-13 3.42401E-13
 -1      4255 1.99917E+01 1.03621E+00-5.86690E-04-2.96195E-01 1.18448E-13-2.26348E-13
 -1      4256 1.92952E+01 7.20210E-01-1.30800E-03 1.53872E-01 2.41172E-13 2.49953E-13
 -1      4257 1.91982E+01 7.74652E-01-2.63494E-04 1.83216E-01 2.14534E-13 4.96566E-13
 -1      4258 1.76087E+01 9.94343E-01-1.61876E-02-4.99980E-01-3.33240E-15-1.29576E-13
 -1      4259 1.71987E+01 9.91345E-01-2.06045E-02-5.60425E-01 1.13104E-15-1.52071E-13
 -1      4260 1.75973E+01 5.33651E-01-2.21108E-02-1.58608E+00-5.73699E-14-1.89369E-13
 -1      4261 1.71433E+01 1.19615E+00-1.26652E-02 1.66050E-01 2.66542E-14 2.81271E-14
 -1      4262 1.74987E+01 1.17741E+00-1.41865E-02 1.61309E-01 6.51848E-14 4.01098E-14
 -1      4263 1.79132E+01 1.10692E+00-7.13505E-03 2.99656E-01 6.19762E-14 6.59997E-14
 -1      4264 1.81631E+01 1.07287E+00-8.74173E-03 2.73550E-01 3.87812E-14 5.22870E-14
 -1      4265 1.83560E+01 1.03907E+00-1.26561E-02 2.06074E-01 2.92127E-14 1.48651E-13
 -1      4266 1.85704E+01 9.96573E-01-8.03798E-03 1.91619E-01 1.97227E-15 9.55244E-14
 -1      4267 1.87308E+01 9.51672E-01-8.71805E-03 1.42893E-01 7.72776E-14 2.23422E-13
 -1      4268 1.89061E+01 9.02172E-01-3.13663E-03 1.31649E-01 5.78723E-14 2.37250E-13
 -1      4269 1.90769E+01 8.38648E-01-1.95512E-03-2.27958E-02 1.09807E-13 1.23308E-13
 -1      4270 1.92123E+01 7.76038E-01 7.61765E-07-1.82800E-02 2.38220E-13 2.36984E-13
 -1      4271 1.93110E+01 7.16053E-01-1.05921E-03-1.46405E-02 2.37177E-13 3.41407E-13
 -1      4272 1.94437E+01 6.32251E-01-1.20103E-03-1.63590E-02 4.08176E-14 3.19655E-13
 -1      4273 1.95172E+01 5.74058E-01-2.67758E-03-1.00745E-02 5.43069E-14 2.18836E-13
 -1      4274 1.96011E+01 5.12266E-01-1.57829E-03 3.14307E-02 4.68760E-14 1.10882E-13
 -1      4275 1.96599E+01 4.61262E-01-1.96241E-03 3.27968E-02 1.01717E-13 4.15919E-14
 -1      4276 1.97090E+01 4.14373E-01-2.59161E-03 2.06015E-02 2.68928E-15-1.41469E-13
 -1      4277 1.97562E+01 3.70906E-01-1.97436E-03 2.34219E-02-7.05595E-14-2.80791E-13
 -1      4278 1.97943E+01 3.30616E-01-2.13905E-03 1.36025E-02 2.33438E-14-3.71985E-13
 -1      4279 1.98302E+01 2.93512E-01-1.50402E-03 1.65387E-02 4.01400E-14-4.15117E-13
 -1      4280 1.98589E+01 2.59728E-01-1.40146E-03 9.07384E-03 8.93338E-14-3.63804E-13
 -1      4281 1.98859E+01 2.29114E-01-6.30281E-04 1.11539E-02 8.80907E-14-3.51057E-13
 -1      4282 1.95125E+01 5.84593E-01-5.40998E-05 1.11495E-01-6.23189E-15 2.62761E-13
 -1      4283 1.94308E+01 6.37823E-01-9.19583E-04 1.32991E-01-9.33437E-16 3.24163E-13
 -1      4284 1.96699E+01 9.46814E-01-1.03853E-03-3.85650E-01 4.45378E-14-1.45056E-13
 -1      4285 1.97655E+01 9.93182E-01-1.59304E-03-3.19297E-01 6.79888E-14-1.60178E-13
 -1      4286 1.95768E+01 5.39730E-01 1.76192E-03 9.37733E-02-5.18752E-14 1.74970E-13
 -1      4287 1.97348E+01 1.05151E+00 2.56299E-03-2.42264E-01 5.40581E-14-1.53847E-13
 -1      4288 1.97268E+01 1.10755E+00-3.78683E-03-9.03185E-02 1.38937E-14-1.77460E-13
 -1      4289 1.95984E+01 1.04610E+00-3.24002E-03-8.73595E-02 2.68053E-14-1.55452E-13
 -1      4290 1.84957E+01 9.53836E-01 1.65321E-02-7.11422E-01 1.72812E-14-1.72549E-13
 -1      4291 1.87704E+01 8.43120E-01 1.40365E-03-8.32478E-01-1.10952E-14-1.54834E-13
 -1      4292 1.89209E+01 8.55031E-01-6.95648E-03-7.34821E-01-7.00571E-15-1.43490E-13
 -1      4293 1.63034E+01 9.97017E-01-1.51953E-02-6.00041E-01 1.53610E-15-1.39297E-13
 -1      4294 1.75741E+01 1.89966E-01 9.73896E-03 2.08068E+00-4.17366E-13 4.86671E-13
 -1      4295 1.70521E+01 3.38745E-01 1.08068E-02 2.05477E+00-3.92295E-13 5.19613E-13
 -1      4296 1.68554E+01 6.36725E-01-1.28441E-02 1.65550E+00-3.67379E-13 4.76049E-13
 -1      4297 1.75712E+01 4.07924E-01-1.10756E-02 1.81194E+00-5.06220E-13 5.27913E-13
 -1      4298 1.91240E+01 8.70286E-01 2.74824E-04-6.53946E-01 2.67549E-15-1.33460E-13
 -1      4299 1.92594E+01 8.78091E-01-4.87540E-03-5.74056E-01 5.48160E-15-1.18569E-13
 -1      4300 1.89205E+01 9.60012E-01 1.22479E-02-5.43306E-01 1.75476E-14-1.42221E-13
 -1      4301 1.92729E+01 9.66055E-01 9.33416E-03-4.15333E-01 1.18137E-14-1.36531E-13
 -1      4302 1.94638E+01 1.01041E+00-6.25712E-03-1.27803E-01 1.90441E-14-1.48461E-13
 -1      4303 1.93079E+01 9.97946E-01-6.47437E-03-1.30394E-01 4.36543E-15-1.22110E-13
 -1      4304 1.91402E+01 9.88022E-01-7.69642E-03-1.78834E-01 8.33047E-16-1.14864E-13
 -1      4305 1.89399E+01 9.95299E-01-9.17806E-03-1.88045E-01 8.25886E-15-1.08665E-13
 -1      4306 1.69618E+01 9.57358E-01-7.87085E-03-6.80578E-01 1.31319E-15-1.55633E-13
 -1      4307 1.82315E+01 1.00566E+00-1.32049E-02-3.52463E-01 2.19888E-14-1.13410E-13
 -1      4308 1.79106E+01 1.01495E+00-1.83110E-02-3.83027E-01 4.56720E-15-1.14367E-13
 -1      4309 1.77378E+01 7.21585E-01-1.26936E-02 1.34117E+00-3.27624E-13 3.78775E-13
 -1      4310 1.75851E+01 5.99414E-01-3.74011E-04 1.54950E+00-3.97915E-13 4.29203E-13
 -1      4311 1.95571E+01 1.00129E+00 7.18550E-03-3.10991E-01 3.12713E-14-1.41924E-13
 -1      4312 1.99399E+01 1.55429E-01 1.52862E-04 1.02777E-02 3.12846E-13-3.49004E-13
 -1      4313 1.87342E+01 9.95337E-01-9.94899E-03-2.50221E-01 1.10196E-14-9.44453E-14
 -1      4314 1.84810E+01 1.00983E+00-1.30416E-02-2.68277E-01 1.56531E-14-1.05225E-13
 -1      4315 1.74408E+01 8.24140E-01 2.54311E-02-1.23365E+00-3.17593E-14-2.02238E-13
 -1      4316 1.72255E+01 7.10053E-01-6.12517E-03 1.48138E+00-4.04625E-13 4.64012E-13
 -1      4317 1.69257E+01 8.68363E-01 2.53263E-02 1.37636E+00-3.54045E-13 4.39082E-13
 -1      4318 1.75863E+01 9.33425E-01 1.19400E-02 1.05852E+00-1.23041E-13 2.85314E-13
 -1      4319 1.65034E+01 1.07174E+00-1.57708E-02 6.47059E-01-9.63912E-14 2.69047E-13
 -1      4320 1.93614E+01 6.88336E-01 2.00754E-03 6.09401E-02 1.47035E-13 4.36557E-13
 -1      4321 1.78701E+01 1.09243E+00 9.56534E-03 5.78835E-01 1.27085E-13 6.83821E-14
 -1      4322 1.76378E+01 1.05294E+00 7.47453E-04 6.88618E-01-3.81657E-14 9.57548E-14
 -1      4323 1.69811E+01 1.09501E+00-9.32093E-03 5.67121E-01-6.46341E-14 1.75782E-13
 -1      4324 1.90721E+01 8.35349E-01 1.97429E-03 2.22585E-01 1.69930E-13 4.78386E-13
 -1      4325 1.99031E+01 2.11820E-01 6.95726E-04 3.18337E-02 2.56273E-13-7.76626E-14
 -1      4326 1.99060E+01 2.00919E-01-6.62899E-04-6.16652E-03 1.32339E-13-4.40121E-13
 -1      4327 1.99293E+01 1.75638E-01 4.46205E-04 3.25129E-02 2.36863E-13-1.43513E-13
 -1      4328 1.97895E+01 1.14425E+00-4.45089E-04-7.92479E-02 2.01408E-15-1.99432E-13
 -1      4329 1.73139E+01 1.05256E+00 8.46528E-03 8.35696E-01-1.14345E-13 2.18419E-13
 -1      4330 1.99193E+01 1.84243E-01-1.38673E-04-7.41705E-04 2.45829E-13-3.70548E-13
 -1      4331 1.99294E+01 1.68609E-01-1.63279E-04 3.16679E-03 4.09755E-13-3.58732E-13
 -1      4332 1.99296E+01 1.69527E-01-3.90989E-04 2.16384E-02 3.28349E-13-1.41716E-13
 -1      4333 1.99188E+01 1.89997E-01 4.91139E-04 2.57820E-02 3.13304E-13-5.62453E-14
 -3
    1PSTEP                         3           1           1          
  100CL  101 1.000000000        4333                     0    1           1
 -4  TOSTRAIN    6    1
 -5  EXX         1    4    1    1
 -5  EYY         1    4    2    2
 -5  EZZ         1    4    3    3
 -5  EXY         1    4    1    2
 -5  EYZ         1    4    2    3
 -5  EZX         1    4    3    1
 -1         1 5.29757E-05 2.58760E-05-3.31644E-05-7.22297E-05-2.51641E-17 2.81147E-17
 -1         2 3.60799E-05-1.10126E-04 1.98646E-05 3.52265E-08-4.65994E-19 7.98064E-20
 -1         3 9.52375E-05-2.85707E-05-2.85696E-05 2.12506E-09-2.81092E-18-2.51131E-18
 -1         4 9.52374E-05-2.85708E-05-2.85697E-05-1.78268E-09 1.48914E-18 5.95873E-19
 -1         5 1.42283E-04-2.12788E-05-4.23048E-05 3.82203E-05-3.20284E-19 2.29904E-17
 -1         6 1.44264E-04 2.56238E-10-4.39447E-05-5.30436E-05-1.23487E-18 2.14668E-17
 -1         7 9.04948E-05-5.35305E-07-3.89742E-05-2.88538E-05-1.80524E-19 4.61564E-18
 -1         8 8.52363E-05 7.06822E-08-3.63618E-05-1.97711E-05-2.62924E-19-7.32799E-19
 -1         9 8.30184E-05 6.59446E-08-3.54232E-05-1.50577E-05-2.27706E-19-3.69298E-18
 -1        10 8.19771E-05 3.21485E-08-3.49625E-05-1.14698E-05-1.30390E-19-5.11326E-18
 -1        11 8.13987E-05 1.66642E-08-3.47181E-05-8.44778E-06-1.09899E-19-5.77974E-18
 -1        12 8.10563E-05 9.11673E-09-3.45799E-05-5.82549E-06-5.93783E-20-6.01432E-18
 -1        13 8.08496E-05 6.51519E-09-3.44994E-05-3.38903E-06-2.65111E-20-6.08153E-18
 -1        14 8.07529E-05 5.69641E-09-3.44624E-05-1.08410E-06 2.65111E-21-6.06471E-18
 -1        15 8.07546E-05 5.68916E-09-3.44630E-05 1.18015E-06 4.20481E-20-5.92273E-18
 -1        16 8.08548E-05 6.45437E-09-3.45009E-05 3.49205E-06 9.80970E-20-5.72019E-18
 -1        17 8.10654E-05 8.26915E-09-3.45822E-05 5.94385E-06 1.12412E-19-5.39967E-18
 -1        18 8.14114E-05 1.53801E-08-3.47214E-05 8.58879E-06 1.38983E-19-4.72858E-18
 -1        19 8.19929E-05 3.18629E-08-3.49681E-05 1.16496E-05 2.24087E-19-3.69997E-18
 -1        20 8.30356E-05 7.07275E-08-3.54334E-05 1.52882E-05 2.75220E-19-1.83637E-18
 -1        21 8.51997E-05 1.52386E-07-3.63983E-05 1.99849E-05 3.01703E-19 1.55276E-18
 -1        22 9.14886E-05-1.20815E-07-3.86485E-05 2.76133E-05 3.04932E-20 8.29204E-18
 -1        23 1.12431E-04-3.79491E-05-3.52396E-05-4.30241E-06-8.27922E-19 1.71244E-17
 -1        24 9.27420E-05-2.76826E-05-2.89711E-05 3.97752E-07-2.37983E-19 1.33879E-17
 -1        25 8.94348E-05-2.69507E-05-2.70219E-05 3.75280E-07-1.46492E-19 9.44074E-18
 -1        26 8.87508E-05-2.67137E-05-2.66156E-05 2.03832E-07 3.02401E-20 6.84276E-18
 -1        27 8.93091E-05-2.68529E-05-2.67710E-05 1.41887E-07-1.12988E-19 5.11439E-18
 -1        28 9.05515E-05-2.72034E-05-2.71568E-05 1.07437E-07-6.01580E-20 3.87649E-18
 -1        29 9.22599E-05-2.77037E-05-2.76794E-05 8.89043E-08 6.75496E-20 3.05833E-18
 -1        30 9.43561E-05-2.83261E-05-2.83155E-05 8.10876E-08 2.24778E-20 2.04285E-18
 -1        31 9.68331E-05-2.90654E-05-2.90652E-05 8.22107E-08 8.27718E-21 5.57702E-19
 -1        32 9.97198E-05-2.99282E-05-2.99375E-05 9.19503E-08-3.22822E-19-1.28583E-18
 -1        33 1.03051E-04-3.09237E-05-3.09415E-05 1.10196E-07 3.13170E-19-2.16052E-18
 -1        34 1.06829E-04-3.20512E-05-3.20746E-05 1.35634E-07-1.09211E-19-1.77291E-18
 -1        35 1.10962E-04-3.32828E-05-3.33035E-05 1.63400E-07 4.98357E-20-2.01745E-18
 -1        36 1.15183E-04-3.45388E-05-3.45385E-05 1.81214E-07-1.36769E-19-1.95935E-18
 -1        37 1.18939E-04-3.56561E-05-3.56041E-05 1.64476E-07-1.77759E-19-1.85540E-18
 -1        38 1.21308E-04-3.63632E-05-3.62233E-05 7.44835E-08-1.37089E-19-2.06114E-18
 -1        39 1.21058E-04-3.62953E-05-3.60504E-05-1.29139E-07-7.67375E-20-2.40911E-18
 -1        40 1.17025E-04-3.51028E-05-3.48017E-05-4.49065E-07-1.24587E-19-3.07272E-18
 -1        41 1.08945E-04-3.26951E-05-3.24860E-05-7.86389E-07-3.62206E-19-4.82931E-18
 -1        42 9.84586E-05-2.95479E-05-2.96266E-05-9.18839E-07-1.58380E-19-4.86170E-18
 -1        43 8.93012E-05-2.67841E-05-2.72160E-05-6.38138E-07-2.21043E-19-4.04953E-18
 -1        44 8.56759E-05-2.56861E-05-2.62809E-05 3.82833E-09 3.43247E-19-3.60463E-18
 -1        45 8.94540E-05-2.68306E-05-2.72578E-05 6.43215E-07-1.33169E-19-3.85419E-18
 -1        46 9.87345E-05-2.96321E-05-2.97034E-05 9.20063E-07-5.04804E-20-5.02899E-18
 -1        47 1.09312E-04-3.28055E-05-3.25952E-05 7.84402E-07-1.88822E-19-5.31548E-18
 -1        48 1.17474E-04-3.52380E-05-3.49388E-05 4.46872E-07 1.39487E-19-4.16362E-18
 -1        49 1.21615E-04-3.64629E-05-3.62220E-05 1.28418E-07 1.11779E-19-3.50414E-18
 -1        50 1.22023E-04-3.65786E-05-3.64426E-05-7.23425E-08-2.34954E-19-4.79753E-18
 -1        51 1.19881E-04-3.59401E-05-3.58917E-05-1.58824E-07 2.40590E-19-3.90085E-18
 -1        52 1.16433E-04-3.49152E-05-3.49183E-05-1.71948E-07-4.72899E-19-4.77942E-18
 -1        53 1.12605E-04-3.37769E-05-3.38016E-05-1.50052E-07 1.14733E-19-5.00399E-18
 -1        54 1.08955E-04-3.26899E-05-3.27187E-05-1.17271E-07 3.10045E-19-2.87001E-18
 -1        55 1.05756E-04-3.17352E-05-3.17601E-05-8.54898E-08-1.30746E-19-3.16952E-18
 -1        56 1.03098E-04-3.09400E-05-3.09588E-05-5.91542E-08-3.62871E-19-5.68832E-18
 -1        57 1.00969E-04-3.03018E-05-3.03149E-05-3.90318E-08 1.05744E-19-7.05790E-18
 -1        58 9.93118E-05-2.98042E-05-2.98127E-05-2.44074E-08 3.18116E-19-6.12968E-18
 -1        59 9.80526E-05-2.94253E-05-2.94304E-05-1.41575E-08-2.23622E-19-6.04939E-18
 -1        60 9.71167E-05-2.91431E-05-2.91460E-05-7.19684E-09-5.34965E-19-5.81126E-18
 -1        61 9.64366E-05-2.89377E-05-2.89390E-05-2.62336E-09 2.04109E-19-5.37344E-18
 -1        62 9.59547E-05-2.87918E-05-2.87922E-05 2.62989E-10-5.91193E-19-4.26723E-18
 -1        63 9.56237E-05-2.86914E-05-2.86912E-05 1.98626E-09-5.17588E-19-6.19177E-18
 -1        64 9.54057E-05-2.86250E-05-2.86246E-05 2.93077E-09 7.84259E-20-8.10691E-18
 -1        65 9.52708E-05-2.85838E-05-2.85832E-05 3.37535E-09-9.31322E-20-3.56925E-18
 -1        66 9.51962E-05-2.85607E-05-2.85601E-05 3.52170E-09-4.57325E-19-4.28930E-18
 -1        67 9.51641E-05-2.85506E-05-2.85501E-05 3.51788E-09 9.72418E-19-3.12009E-18
 -1        68 9.51615E-05-2.85493E-05-2.85490E-05 3.47704E-09 1.89778E-19-1.72668E-19
 -1        69 9.51779E-05-2.85539E-05-2.85536E-05 3.45461E-09 1.46739E-19 2.07666E-19
 -1        70 9.52040E-05-2.85615E-05-2.85608E-05 3.27846E-09 6.30267E-19 3.39854E-18
 -1        71 9.52296E-05-2.85696E-05-2.85672E-05 2.46513E-09-6.62144E-19 3.58052E-18
 -1        72 1.01722E-04-3.04444E-05-3.40099E-05-1.93584E-06 3.08267E-19 2.11899E-17
 -1        73 9.25185E-05-2.75046E-05-2.88862E-05-3.34355E-07 1.41878E-19 1.65485E-17
 -1        74 8.94340E-05-2.68033E-05-2.70693E-05-1.21960E-07 1.00570E-19 1.32698E-17
 -1        75 8.87853E-05-2.66641E-05-2.66617E-05-8.89012E-08 1.07715E-20 1.06326E-17
 -1        76 8.93343E-05-2.68268E-05-2.67959E-05-6.90757E-08 1.29427E-19 8.45633E-18
 -1        77 9.05474E-05-2.71817E-05-2.71636E-05-5.59121E-08-2.13524E-20 7.10013E-18
 -1        78 9.21969E-05-2.76703E-05-2.76641E-05-4.80601E-08-5.87966E-20 6.98778E-18
 -1        79 9.41851E-05-2.82627E-05-2.82650E-05-4.48575E-08 1.40138E-19 6.35064E-18
 -1        80 9.64741E-05-2.89460E-05-2.89551E-05-4.66704E-08-1.69592E-19 5.21123E-18
 -1        81 9.90464E-05-2.97141E-05-2.97288E-05-5.44160E-08 1.44533E-19 4.70182E-18
 -1        82 1.01873E-04-3.05577E-05-3.05755E-05-6.89471E-08 1.50637E-19 3.77676E-18
 -1        83 1.04874E-04-3.14532E-05-3.14683E-05-9.01190E-08 1.00934E-19 3.41331E-18
 -1        84 1.07877E-04-3.23495E-05-3.23508E-05-1.15150E-07-1.21973E-19 2.95975E-18
 -1        85 1.10563E-04-3.31532E-05-3.31232E-05-1.36109E-07 8.30725E-20 3.04453E-18
 -1        86 1.12434E-04-3.37181E-05-3.36348E-05-1.37216E-07 1.79167E-20 3.07952E-18
 -1        87 1.12828E-04-3.38494E-05-3.36952E-05-9.45033E-08-3.98097E-20 2.63951E-18
 -1        88 1.11060E-04-3.33412E-05-3.31227E-05 1.63234E-08-1.91588E-19 3.47629E-18
 -1        89 1.06735E-04-3.20666E-05-3.18373E-05 1.98062E-07-4.10579E-20 2.75204E-18
 -1        90 1.00193E-04-3.01117E-05-2.99759E-05 4.03912E-07 2.47443E-20 9.61435E-19
 -1        91 9.28501E-05-2.78859E-05-2.79542E-05 5.30348E-07 8.80120E-20 4.75424E-19
 -1        92 8.69994E-05-2.60822E-05-2.63842E-05 4.70317E-07-1.15744E-19 8.44135E-19
 -1        93 8.48569E-05-2.53956E-05-2.58224E-05 2.10257E-07-8.67530E-20 6.42142E-19
 -1        94 8.73173E-05-2.61223E-05-2.64880E-05-1.32963E-07 2.41598E-19-1.49591E-18
 -1        95 9.34017E-05-2.79728E-05-2.81322E-05-3.93768E-07-1.33164E-19-9.79805E-19
 -1        96 1.00862E-04-3.02487E-05-3.01887E-05-4.75971E-07 4.82680E-19-2.46619E-19
 -1        97 1.07437E-04-3.22482E-05-3.20549E-05-4.02602E-07-1.74551E-19-1.58136E-18
 -1        98 1.11778E-04-3.35598E-05-3.33393E-05-2.57555E-07-4.37052E-19-1.07503E-18
 -1        99 1.13610E-04-3.41055E-05-3.39275E-05-1.14973E-07 7.05453E-20-1.64278E-18
 -1       100 1.13368E-04-3.40249E-05-3.39126E-05-1.12128E-08-6.50052E-20-1.89901E-18
 -1       101 1.11758E-04-3.35343E-05-3.34808E-05 4.86749E-08-1.65210E-19-1.77528E-18
 -1       102 1.09441E-04-3.28348E-05-3.28221E-05 7.44529E-08 1.25106E-19-2.89994E-18
 -1       103 1.06917E-04-3.20752E-05-3.20859E-05 7.87238E-08-2.04718E-19-1.44813E-18
 -1       104 1.04498E-04-3.13489E-05-3.13701E-05 7.16635E-08 5.45470E-19 3.24556E-19
 -1       105 1.02352E-04-3.07052E-05-3.07292E-05 5.99537E-08-5.43264E-20-1.17999E-19
 -1       106 1.00545E-04-3.01637E-05-3.01862E-05 4.74005E-08-5.81412E-19-5.68228E-19
 -1       107 9.90834E-05-2.97254E-05-2.97448E-05 3.58895E-08-3.93146E-20-4.68093E-18
 -1       108 9.79375E-05-2.93819E-05-2.93977E-05 2.61724E-08 2.18017E-19-8.22052E-18
 -1       109 9.70645E-05-2.91202E-05-2.91324E-05 1.83928E-08-3.86966E-19-5.79266E-18
 -1       110 9.64176E-05-2.89261E-05-2.89354E-05 1.24003E-08 3.12017E-19-4.65140E-18
 -1       111 9.59519E-05-2.87864E-05-2.87932E-05 7.92636E-09 1.60177E-19-4.23771E-18
 -1       112 9.56279E-05-2.86891E-05-2.86940E-05 4.67675E-09-1.00610E-18 7.07492E-19
 -1       113 9.54121E-05-2.86243E-05-2.86277E-05 2.37584E-09 8.22534E-19 2.60623E-18
 -1       114 9.52772E-05-2.85837E-05-2.85860E-05 7.84400E-10-6.17541E-19 1.17185E-19
 -1       115 9.52016E-05-2.85609E-05-2.85625E-05-3.00157E-10 4.05901E-19-1.62465E-18
 -1       116 9.51685E-05-2.85508E-05-2.85519E-05-1.05401E-09 4.55864E-20-5.45406E-18
 -1       117 9.51648E-05-2.85496E-05-2.85503E-05-1.63243E-09 1.27781E-19-7.57268E-18
 -1       118 9.51804E-05-2.85542E-05-2.85545E-05-2.16976E-09-3.14384E-19-6.67024E-18
 -1       119 9.52058E-05-2.85617E-05-2.85614E-05-2.79864E-09 1.94405E-19-2.72548E-18
 -1       120 9.52297E-05-2.85695E-05-2.85675E-05-2.75114E-09 1.52687E-18-5.21082E-18
 -1       121 9.52395E-05-2.85796E-05-2.85676E-05-2.97016E-09-5.89469E-18 2.17793E-19
 -1       122 9.52464E-05-2.86019E-05-2.85620E-05-2.71579E-09-5.03329E-18-5.94873E-19
 -1       123 9.52524E-05-2.86218E-05-2.85567E-05-1.80236E-09-2.08555E-18-5.03071E-19
 -1       124 9.52555E-05-2.86322E-05-2.85536E-05-8.24132E-10-1.87389E-18 1.40850E-18
 -1       125 9.52557E-05-2.86330E-05-2.85531E-05-1.30211E-10 2.04527E-18-1.05952E-18
 -1       126 9.52543E-05-2.86280E-05-2.85543E-05 2.05861E-10-2.97027E-18 8.95847E-19
 -1       127 9.52523E-05-2.86212E-05-2.85560E-05 2.49389E-10-3.03436E-18 6.84652E-19
 -1       128 9.52511E-05-2.86170E-05-2.85571E-05 8.67217E-11-3.71429E-18 6.37343E-19
 -1       129 9.52512E-05-2.86175E-05-2.85570E-05-1.44496E-10 4.26655E-18 1.44758E-18
 -1       130 9.52527E-05-2.86227E-05-2.85556E-05-2.95582E-10 7.43232E-18-1.73916E-18
 -1       131 9.52549E-05-2.86300E-05-2.85537E-05-2.22354E-10 1.01392E-19-2.62261E-19
 -1       132 9.52564E-05-2.86352E-05-2.85525E-05 1.43189E-10-6.52614E-18 9.77568E-19
 -1       133 9.52560E-05-2.86341E-05-2.85531E-05 8.78326E-10-7.93879E-18 1.27311E-19
 -1       134 9.52527E-05-2.86229E-05-2.85564E-05 1.89864E-09-8.17496E-18-8.98510E-20
 -1       135 9.52468E-05-2.86027E-05-2.85619E-05 3.85413E-09-9.34679E-18-1.32537E-19
 -1       136 9.52396E-05-2.85803E-05-2.85674E-05 3.81138E-09-4.22550E-18 8.64039E-19
 -1       137 2.55492E-05-8.60928E-05 1.52047E-05-2.32334E-05 1.48315E-17 4.69039E-18
 -1       138 7.31652E-06-3.25650E-05 2.97644E-06-1.76915E-05 3.01870E-17 1.45554E-17
 -1       139 1.34121E-05 1.68845E-05-1.63161E-05 2.70933E-05 3.26146E-17 2.45474E-17
 -1       140 5.99384E-05 2.72331E-05-3.58804E-05 7.99447E-05 2.33887E-17 2.60336E-17
 -1       141 1.48100E-04-4.60124E-06-5.51212E-05 1.11501E-04 1.23375E-17 2.17641E-17
 -1       142 2.42984E-04-5.56269E-05-7.00573E-05 9.52788E-05 4.35248E-18 1.25653E-17
 -1       143 3.02052E-04-9.17160E-05-7.78147E-05 2.86150E-05 6.48218E-19 1.74298E-18
 -1       144 2.91337E-04-8.45610E-05-7.66089E-05-5.04543E-05 2.57724E-18-1.10587E-17
 -1       145 2.14933E-04-3.92435E-05-6.60526E-05-1.04447E-04 9.85819E-18-2.35035E-17
 -1       146 1.10537E-04 1.10589E-05-4.76476E-05-1.01986E-04 1.76973E-17-2.64431E-17
 -1       147 3.17702E-05 2.58693E-05-2.56543E-05-5.30614E-05 2.14871E-17-2.10886E-17
 -1       148 5.71223E-06-4.31080E-06-6.32356E-06-1.47443E-06 2.12063E-17-1.26758E-17
 -1       149 1.58074E-05-6.21945E-05 1.03149E-05 2.57276E-05 1.31591E-17-4.70876E-18
 -1       150 3.39402E-05-1.05306E-04 1.89559E-05 1.30623E-05 5.57877E-19-6.73285E-19
 -1       151 3.28975E-05-1.04138E-04 1.88631E-05-1.53732E-05-1.33498E-17-1.93607E-18
 -1       152 1.43802E-05-5.82012E-05 9.28012E-06-2.50518E-05-2.33705E-17-9.04123E-18
 -1       153 6.26892E-06-2.38516E-06-7.29990E-06 3.62350E-06-2.58603E-17-1.59325E-17
 -1       154 3.42584E-05 2.64845E-05-2.69145E-05 5.61152E-05-2.13507E-17-2.18276E-17
 -1       155 1.09704E-04 1.22535E-05-4.78618E-05 1.04042E-04-1.40451E-17-2.02238E-17
 -1       156 2.10614E-04-3.63720E-05-6.55513E-05 1.09826E-04-5.36394E-18-1.17293E-17
 -1       157 2.90024E-04-8.29219E-05-7.65784E-05 5.96083E-05-9.30257E-19-1.11300E-18
 -1       158 3.07976E-04-9.40037E-05-7.88903E-05-2.36069E-05-1.27208E-18 1.21102E-17
 -1       159 2.53766E-04-6.11890E-05-7.17360E-05-9.26152E-05-7.08495E-18 2.41625E-17
 -1       160 1.53217E-04-6.85064E-06-5.61983E-05-1.12037E-04-1.66999E-17 3.16032E-17
 -1       161 1.01890E-05 1.04849E-05-1.32086E-05-1.82647E-05-2.73185E-17 2.06524E-17
 -1       162 8.56655E-06-3.88294E-05 4.57581E-06 2.08128E-05-2.26213E-17 9.89398E-18
 -1       163 2.64824E-05-8.89091E-05 1.57925E-05 2.36291E-05-1.60286E-17 4.05440E-18
 -1       164 9.49882E-05-1.24709E-05-3.55629E-05-2.17948E-05-2.96676E-18 1.73366E-18
 -1       165 8.94897E-05-8.53959E-06-3.48519E-05-1.67637E-05-2.78670E-18-1.63844E-18
 -1       166 8.67773E-05-6.51511E-06-3.45066E-05-1.29379E-05-2.32330E-18-3.49124E-18
 -1       167 8.53041E-05-5.41589E-06-3.43187E-05-9.73737E-06-1.74155E-18-4.46822E-18
 -1       168 8.44211E-05-4.74554E-06-3.42133E-05-7.00527E-06-1.19779E-18-4.84482E-18
 -1       169 8.38621E-05-4.31610E-06-3.41500E-05-4.50859E-06-6.44805E-19-4.97856E-18
 -1       170 8.35524E-05-4.07726E-06-3.41157E-05-2.18950E-06-7.61984E-20-4.99575E-18
 -1       171 8.34560E-05-4.00376E-06-3.41048E-05 4.55125E-08 3.72374E-19-4.92575E-18
 -1       172 8.35639E-05-4.08900E-06-3.41158E-05 2.28378E-06 8.49234E-19-4.81352E-18
 -1       173 8.38861E-05-4.34095E-06-3.41499E-05 4.61257E-06 1.33256E-18-4.61644E-18
 -1       174 8.44472E-05-4.77718E-06-3.42115E-05 7.08101E-06 1.75026E-18-4.13676E-18
 -1       175 8.53617E-05-5.48012E-06-3.43177E-05 9.88331E-06 2.36038E-18-3.30719E-18
 -1       176 8.68641E-05-6.61544E-06-3.45062E-05 1.31299E-05 2.88567E-18-2.02939E-18
 -1       177 8.96315E-05-8.68727E-06-3.48539E-05 1.70044E-05 3.23254E-18 2.28328E-19
 -1       178 9.58795E-05-1.37190E-05-3.54189E-05 2.13581E-05 2.98839E-18 4.32794E-18
 -1       179 1.05449E-04-2.61051E-05-3.51852E-05 1.82674E-05 2.18496E-18 9.75168E-18
 -1       180 1.03399E-04-2.73332E-05-3.25964E-05-1.17253E-05-2.56934E-18 5.60312E-18
 -1       181 9.73883E-05-2.83711E-05-2.96120E-05-4.33271E-06-2.27771E-18 4.37057E-18
 -1       182 9.41285E-05-2.78012E-05-2.83762E-05-1.31521E-06-1.64591E-18 3.30061E-18
 -1       183 9.30158E-05-2.76800E-05-2.79636E-05 1.54298E-07-1.17648E-18 2.29111E-18
 -1       184 9.29853E-05-2.77511E-05-2.79365E-05 1.00306E-06-7.71410E-19 1.60318E-18
 -1       185 9.36556E-05-2.79851E-05-2.81325E-05 1.58032E-06-6.12801E-19 1.21706E-18
 -1       186 9.48255E-05-2.83455E-05-2.84834E-05 2.04194E-06-6.62540E-19 8.03350E-19
 -1       187 9.63988E-05-2.88137E-05-2.89588E-05 2.47028E-06-8.50083E-19 3.68638E-19
 -1       188 9.83360E-05-2.93850E-05-2.95452E-05 2.90749E-06-9.52213E-19 1.94127E-19
 -1       189 1.00623E-04-3.00636E-05-3.02357E-05 3.36264E-06-4.60778E-19 2.56323E-19
 -1       190 1.03243E-04-3.08567E-05-3.10208E-05 3.80532E-06-2.38302E-19-7.47336E-19
 -1       191 1.06147E-04-3.17684E-05-3.18785E-05 4.14955E-06-1.39181E-19-9.99328E-19
 -1       192 1.09216E-04-3.27888E-05-3.27614E-05 4.23177E-06-1.53752E-20-1.12725E-18
 -1       193 1.12212E-04-3.38764E-05-3.35849E-05 3.79520E-06-4.68068E-20-8.25318E-19
 -1       194 1.14734E-04-3.49265E-05-3.42199E-05 2.51209E-06-2.62769E-19-4.85701E-19
 -1       195 1.16202E-04-3.57230E-05-3.45077E-05 1.06306E-07-3.27927E-19-4.24967E-19
 -1       196 1.15937E-04-3.59073E-05-3.43084E-05-3.36252E-06-3.93675E-19-8.08098E-19
 -1       197 1.13419E-04-3.50420E-05-3.35902E-05-7.10184E-06-8.83968E-19-9.76090E-19
 -1       198 1.08796E-04-3.29147E-05-3.25158E-05-9.39707E-06-4.63579E-19-9.71454E-19
 -1       199 1.03434E-04-3.00742E-05-3.14419E-05-8.29500E-06 4.58357E-20-1.87714E-18
 -1       200 9.97529E-05-2.79657E-05-3.07796E-05-3.29928E-06 3.20132E-19-1.80571E-18
 -1       201 9.98114E-05-2.79902E-05-3.07919E-05 3.45293E-06-7.25828E-19-2.19762E-18
 -1       202 1.03598E-04-3.01354E-05-3.14817E-05 8.42182E-06-2.43029E-19-3.27238E-18
 -1       203 1.09045E-04-3.29963E-05-3.25865E-05 9.49380E-06-1.04284E-19-3.38071E-18
 -1       204 1.13745E-04-3.51364E-05-3.36902E-05 7.19501E-06 1.10753E-19-2.99360E-18
 -1       205 1.16354E-04-3.60212E-05-3.44399E-05 3.48229E-06 1.69678E-19-3.32003E-18
 -1       206 1.16740E-04-3.58671E-05-3.46768E-05 6.38140E-08-1.90735E-19-3.07189E-18
 -1       207 1.15433E-04-3.51158E-05-3.44383E-05-2.27405E-06 5.00371E-19-2.68735E-18
 -1       208 1.13123E-04-3.41278E-05-3.38669E-05-3.48015E-06 1.49340E-19-1.85005E-18
 -1       209 1.10391E-04-3.31180E-05-3.31231E-05-3.83453E-06-1.18752E-19-1.39021E-18
 -1       210 1.07640E-04-3.21919E-05-3.23362E-05-3.66640E-06 3.61825E-19-1.40542E-18
 -1       211 1.05106E-04-3.13909E-05-3.15900E-05-3.23560E-06-7.72458E-19-2.13392E-18
 -1       212 1.02902E-04-3.07238E-05-3.09294E-05-2.71172E-06-1.25408E-18-3.26223E-18
 -1       213 1.01060E-04-3.01829E-05-3.03712E-05-2.19125E-06-1.07347E-19-2.71169E-18
 -1       214 9.95678E-05-2.97541E-05-2.99155E-05-1.72172E-06 4.05185E-19-3.12429E-18
 -1       215 9.83887E-05-2.94208E-05-2.95535E-05-1.32135E-06-3.78838E-19-3.51210E-18
 -1       216 9.74770E-05-2.91663E-05-2.92724E-05-9.92431E-07-6.51470E-19-5.69863E-18
 -1       217 9.67865E-05-2.89758E-05-2.90587E-05-7.29417E-07 5.49287E-19-4.46639E-18
 -1       218 9.62743E-05-2.88361E-05-2.88997E-05-5.23544E-07 5.03245E-19-3.16414E-18
 -1       219 9.59029E-05-2.87360E-05-2.87839E-05-3.65313E-07-5.23833E-19-1.82103E-18
 -1       220 9.56408E-05-2.86663E-05-2.87019E-05-2.45720E-07-5.57746E-19-1.20974E-18
 -1       221 9.54620E-05-2.86197E-05-2.86456E-05-1.56808E-07 2.20849E-18-2.44718E-18
 -1       222 9.53456E-05-2.85901E-05-2.86087E-05-9.18517E-08-4.56544E-19-1.14423E-18
 -1       223 9.52752E-05-2.85730E-05-2.85860E-05-4.53739E-08 1.64880E-18-1.39258E-19
 -1       224 9.52376E-05-2.85648E-05-2.85736E-05-1.31057E-08 1.18043E-18-4.15129E-19
 -1       225 9.52226E-05-2.85628E-05-2.85682E-05 7.98770E-09 8.88727E-19 2.55256E-19
 -1       226 9.52218E-05-2.85651E-05-2.85670E-05 1.93714E-08 1.62509E-18 1.92160E-18
 -1       227 9.52285E-05-2.85705E-05-2.85676E-05 2.08446E-08-6.85361E-20 1.62364E-18
 -1       228 9.95860E-05-2.85895E-05-3.06053E-05 6.87620E-06 2.24513E-18 8.40047E-18
 -1       229 9.48152E-05-2.79042E-05-2.86454E-05 2.40355E-06 1.76027E-18 6.56910E-18
 -1       230 9.28655E-05-2.76131E-05-2.79194E-05 5.25874E-07 1.34155E-18 5.12768E-18
 -1       231 9.23804E-05-2.75787E-05-2.77442E-05-4.48891E-07 1.24253E-18 4.12934E-18
 -1       232 9.27643E-05-2.77396E-05-2.78530E-05-1.03595E-06 5.71240E-19 3.28698E-18
 -1       233 9.37138E-05-2.80449E-05-2.81358E-05-1.44117E-06 2.00542E-19 2.79084E-18
 -1       234 9.50705E-05-2.84602E-05-2.85426E-05-1.76095E-06 4.66732E-19 2.41348E-18
 -1       235 9.67497E-05-2.89671E-05-2.90470E-05-2.04060E-06 6.24017E-19 2.16373E-18
 -1       236 9.86998E-05-2.95559E-05-2.96320E-05-2.29277E-06 5.00227E-19 1.05352E-18
 -1       237 1.00871E-04-3.02187E-05-3.02800E-05-2.50032E-06 3.79638E-19 9.33686E-19
 -1       238 1.03188E-04-3.09412E-05-3.09648E-05-2.61254E-06 4.06910E-19 1.05798E-18
 -1       239 1.05518E-04-3.16943E-05-3.16423E-05-2.54007E-06 2.30819E-19 1.32331E-18
 -1       240 1.07648E-04-3.24224E-05-3.22430E-05-2.15588E-06 1.59493E-19 7.33737E-19
 -1       241 1.09257E-04-3.30315E-05-3.26700E-05-1.31562E-06-1.23243E-19 3.70372E-19
 -1       242 1.09937E-04-3.33803E-05-3.28081E-05 8.38672E-08-8.23541E-20 1.70524E-18
 -1       243 1.09267E-04-3.32881E-05-3.25547E-05 1.99314E-06-4.80274E-19 1.45666E-18
 -1       244 1.06981E-04-3.25841E-05-3.18736E-05 4.06561E-06 4.01886E-19 1.66061E-18
 -1       245 1.03233E-04-3.12264E-05-3.08532E-05 5.59330E-06 7.84517E-19 1.47301E-18
 -1       246 9.88128E-05-2.94543E-05-2.97311E-05 5.69659E-06 3.17886E-19 1.04223E-18
 -1       247 9.51048E-05-2.78527E-05-2.88427E-05 3.84985E-06-3.36699E-19 2.87250E-19
 -1       248 9.35552E-05-2.71331E-05-2.84909E-05 4.66882E-07 4.05831E-19-3.89511E-19
 -1       249 9.48405E-05-2.76570E-05-2.88070E-05-3.12427E-06 1.23797E-18-1.41635E-18
 -1       250 9.84414E-05-2.91781E-05-2.96804E-05-5.46960E-06 8.45511E-20-3.11650E-18
 -1       251 1.02967E-04-3.10137E-05-3.08219E-05-5.87921E-06 1.56876E-19-2.78713E-18
 -1       252 1.06977E-04-3.25177E-05-3.18958E-05-4.67530E-06-3.82157E-19-1.89509E-18
 -1       253 1.09598E-04-3.33808E-05-3.26560E-05-2.70481E-06-5.43054E-19-1.25976E-18
 -1       254 1.10619E-04-3.36096E-05-3.30036E-05-7.50642E-07 2.01503E-19 2.97247E-20
 -1       255 1.10282E-04-3.33705E-05-3.29669E-05 7.46583E-07-3.53094E-19-4.59160E-19
 -1       256 1.09012E-04-3.28556E-05-3.26449E-05 1.67164E-06 3.76417E-20-1.11980E-18
 -1       257 1.07231E-04-3.22197E-05-3.21532E-05 2.09967E-06 4.52762E-19-2.15692E-18
 -1       258 1.05272E-04-3.15668E-05-3.15915E-05 2.17289E-06-1.60922E-18-1.36437E-18
 -1       259 1.03360E-04-3.09576E-05-3.10310E-05 2.02946E-06 3.08660E-19-8.19590E-19
 -1       260 1.01625E-04-3.04226E-05-3.05156E-05 1.77588E-06 3.97447E-19-1.34044E-18
 -1       261 1.00131E-04-2.99722E-05-3.00672E-05 1.48373E-06 5.58694E-20-2.49541E-18
 -1       262 9.88924E-05-2.96054E-05-2.96930E-05 1.19605E-06 1.53620E-18-2.61421E-18
 -1       263 9.78970E-05-2.93149E-05-2.93907E-05 9.35662E-07 7.48691E-19-1.52581E-18
 -1       264 9.71188E-05-2.90905E-05-2.91534E-05 7.12326E-07-1.33579E-18-1.15195E-18
 -1       265 9.65256E-05-2.89213E-05-2.89718E-05 5.27984E-07-4.87596E-19-2.06283E-18
 -1       266 9.60850E-05-2.87969E-05-2.88365E-05 3.80287E-07-8.94828E-19 9.09615E-19
 -1       267 9.57666E-05-2.87080E-05-2.87383E-05 2.64843E-07-1.87827E-18 2.15028E-18
 -1       268 9.55441E-05-2.86467E-05-2.86694E-05 1.76572E-07 3.11579E-19 1.14972E-18
 -1       269 9.53949E-05-2.86063E-05-2.86230E-05 1.10476E-07 9.14635E-19 2.10959E-18
 -1       270 9.53009E-05-2.85815E-05-2.85935E-05 6.20348E-08 1.80313E-18-2.69358E-19
 -1       271 9.52473E-05-2.85680E-05-2.85764E-05 2.74060E-08 2.42252E-18-9.08886E-19
 -1       272 9.52224E-05-2.85626E-05-2.85682E-05 3.57026E-09 9.23852E-19-2.41806E-18
 -1       273 9.52166E-05-2.85626E-05-2.85658E-05-1.14480E-08-1.04859E-18-2.66668E-18
 -1       274 9.52219E-05-2.85660E-05-2.85666E-05-1.83291E-08-1.39583E-19-3.05571E-18
 -1       275 9.52316E-05-2.85723E-05-2.85680E-05-1.56694E-08 4.47500E-19-3.14332E-18
 -1       276 9.52390E-05-2.85807E-05-2.85678E-05-1.88227E-08 3.63224E-19 8.92293E-19
 -1       277 9.52443E-05-2.85876E-05-2.85671E-05-1.57386E-08 4.16709E-19 1.01774E-18
 -1       278 9.52456E-05-2.85895E-05-2.85669E-05-6.84393E-09 3.82934E-19 6.93420E-19
 -1       279 9.52439E-05-2.85861E-05-2.85676E-05 1.83775E-09-1.33735E-18 2.87940E-18
 -1       280 9.52405E-05-2.85791E-05-2.85692E-05 7.08523E-09-1.01068E-18-3.39839E-18
 -1       281 9.52368E-05-2.85710E-05-2.85711E-05 7.93600E-09-6.07089E-19-2.99008E-19
 -1       282 9.52340E-05-2.85648E-05-2.85726E-05 4.83357E-09 9.06237E-20-3.58387E-19
 -1       283 9.52331E-05-2.85627E-05-2.85731E-05-4.93884E-10-2.99057E-19 3.68503E-18
 -1       284 9.52343E-05-2.85654E-05-2.85724E-05-5.72284E-09-3.68673E-19 1.52059E-18
 -1       285 9.52373E-05-2.85721E-05-2.85708E-05-8.54020E-09 1.02977E-18-2.78639E-18
 -1       286 9.52410E-05-2.85804E-05-2.85689E-05-7.32142E-09 1.76309E-18-4.92543E-18
 -1       287 9.52445E-05-2.85876E-05-2.85672E-05-1.56364E-09-1.85773E-19-2.02336E-18
 -1       288 9.52461E-05-2.85908E-05-2.85666E-05 7.60327E-09-2.40589E-18-3.17840E-19
 -1       289 9.52440E-05-2.85877E-05-2.85669E-05 1.57790E-08-2.50490E-18-3.78365E-19
 -1       290 9.52395E-05-2.85791E-05-2.85688E-05 2.26006E-08-8.58285E-19 2.81208E-18
 -1       291 1.22084E-05-4.62602E-05 1.14006E-05 8.33409E-06 2.72713E-18 8.25052E-18
 -1       292 2.59337E-05-4.26655E-05 4.34932E-06 2.09296E-05 7.38719E-18 1.11514E-17
 -1       293 5.64637E-05-3.70675E-05-9.78424E-06 3.67593E-05 9.67799E-18 9.57211E-18
 -1       294 9.05507E-05-2.95586E-05-2.64605E-05 4.47896E-05 1.23703E-17 6.87918E-18
 -1       295 1.33020E-04-2.88200E-05-4.34678E-05 4.77682E-05 1.01347E-17 7.06997E-18
 -1       296 1.71833E-04-3.22640E-05-5.77450E-05 3.35669E-05 8.07814E-18 3.03068E-18
 -1       297 1.99685E-04-3.38576E-05-6.79517E-05 1.87003E-05 6.24549E-18 1.39993E-18
 -1       298 2.02204E-04-3.16969E-05-7.01378E-05-2.71261E-06 7.12672E-18-1.69947E-18
 -1       299 1.84932E-04-2.97342E-05-6.44522E-05-1.76316E-05 8.14136E-18-4.81856E-18
 -1       300 1.59087E-04-3.39104E-05-5.23698E-05-3.21862E-05 7.79364E-18-7.48925E-18
 -1       301 1.20644E-04-3.72545E-05-3.54082E-05-4.15342E-05 6.43713E-18-9.10836E-18
 -1       302 7.10952E-05-3.23324E-05-1.76188E-05-4.08437E-05 7.73701E-18-9.53706E-18
 -1       303 4.06485E-05-3.97342E-05-2.35021E-06-3.14608E-05 4.44353E-18-8.05932E-18
 -1       304 1.74106E-05-4.65908E-05 9.27336E-06-1.38035E-05 1.60777E-18-6.72047E-18
 -1       305 1.06087E-05-4.75880E-05 1.25641E-05-2.06434E-07-2.68074E-18-6.93138E-18
 -1       306 1.85678E-05-4.36116E-05 8.02673E-06 1.63630E-05-5.85226E-18-6.53984E-18
 -1       307 4.34349E-05-4.00853E-05-3.35613E-06 3.13658E-05-7.33700E-18-6.32728E-18
 -1       308 7.69601E-05-3.52637E-05-1.87940E-05 4.07227E-05-8.63338E-18-6.57043E-18
 -1       309 1.18513E-04-3.27712E-05-3.62965E-05 4.48643E-05-8.27128E-18-5.00258E-18
 -1       310 1.61331E-04-3.20923E-05-5.32957E-05 4.32435E-05-7.76025E-18-3.00400E-18
 -1       311 1.96385E-04-3.53589E-05-6.57650E-05 2.88350E-05-5.74161E-18 4.95726E-19
 -1       312 1.96720E-04-2.83277E-05-6.96542E-05 3.33190E-06-6.38123E-18 4.36931E-18
 -1       313 2.06474E-04-3.63136E-05-6.94143E-05-1.84924E-05-7.38253E-18 8.59993E-18
 -1       314 1.77702E-04-3.37592E-05-5.93124E-05-3.34780E-05-8.67756E-18 1.02946E-17
 -1       315 1.39154E-04-3.88651E-05-4.22343E-05-3.69721E-05-8.68357E-18 9.41371E-18
 -1       316 8.64993E-05-3.20368E-05-2.39426E-05-4.31826E-05-1.17445E-17 1.33240E-17
 -1       317 5.34659E-05-3.88172E-05-7.92801E-06-3.49575E-05-9.29026E-18 1.14015E-17
 -1       318 2.48384E-05-4.36977E-05 5.17199E-06-1.91349E-05-7.74718E-18 7.10137E-18
 -1       319 1.19192E-05-4.64122E-05 1.15800E-05-6.62018E-06-2.90675E-18 8.03411E-18
 -1       320 9.18923E-05-1.44437E-05-3.32694E-05-1.22212E-05-2.98392E-18-1.75442E-18
 -1       321 9.59812E-05-1.92025E-05-3.29660E-05-1.39678E-05-3.18093E-18 3.23567E-19
 -1       322 8.79299E-05-1.00364E-05-3.34366E-05-7.44960E-06-1.73781E-18-3.43228E-18
 -1       323 8.69154E-05-8.95112E-06-3.34596E-05-5.15829E-06-1.16794E-18-3.71402E-18
 -1       324 8.62977E-05-8.29932E-06-3.34703E-05-3.01084E-06-4.49542E-19-3.74462E-18
 -1       325 8.60075E-05-7.99635E-06-3.34740E-05-9.56967E-07 1.92626E-19-3.74603E-18
 -1       326 8.60193E-05-8.01029E-06-3.34731E-05 1.06709E-06 7.97921E-19-3.66167E-18
 -1       327 8.63335E-05-8.34189E-06-3.34675E-05 3.12721E-06 1.31857E-18-3.56073E-18
 -1       328 8.69624E-05-9.00993E-06-3.34548E-05 5.24853E-06 1.87788E-18-3.29047E-18
 -1       329 8.79993E-05-1.01249E-05-3.34287E-05 7.54991E-06 2.50499E-18-2.62655E-18
 -1       330 8.96065E-05-1.18831E-05-3.33758E-05 9.99431E-06 3.02549E-18-1.70327E-18
 -1       331 9.21600E-05-1.47257E-05-3.32660E-05 1.24127E-05 3.49557E-18-3.29893E-19
 -1       332 9.60639E-05-1.95415E-05-3.29013E-05 1.37223E-05 3.50152E-18 2.33072E-18
 -1       333 9.89857E-05-2.45227E-05-3.19984E-05 1.13702E-05 3.04392E-18 4.73231E-18
 -1       334 9.68046E-05-2.69086E-05-2.99247E-05 5.16346E-06 2.58301E-18 3.58682E-18
 -1       335 9.69039E-05-2.60959E-05-3.03006E-05-5.59236E-06-2.40431E-18 7.15850E-19
 -1       336 9.56524E-05-2.71113E-05-2.93480E-05-1.89834E-06-1.87292E-18 6.13952E-19
 -1       337 9.50282E-05-2.75487E-05-2.89033E-05 2.90296E-07-1.45195E-18 4.12192E-19
 -1       338 9.49672E-05-2.78281E-05-2.87647E-05 1.72971E-06-1.03232E-18-7.91893E-20
 -1       339 9.53638E-05-2.80819E-05-2.88291E-05 2.78435E-06-7.57525E-19-2.34480E-19
 -1       340 9.61284E-05-2.83563E-05-2.90403E-05 3.65863E-06-8.14423E-19-3.37754E-19
 -1       341 9.72046E-05-2.86767E-05-2.93646E-05 4.46816E-06-5.15360E-19-2.14121E-19
 -1       342 9.85642E-05-2.90696E-05-2.97792E-05 5.26682E-06-6.47165E-19 1.03654E-19
 -1       343 1.00199E-04-2.95736E-05-3.02645E-05 6.05081E-06-8.83454E-19-6.01876E-20
 -1       344 1.02112E-04-3.02467E-05-3.07981E-05 6.74648E-06-2.75015E-19-8.98843E-20
 -1       345 1.04315E-04-3.11712E-05-3.13496E-05 7.18702E-06-8.81806E-20-2.36186E-19
 -1       346 1.06812E-04-3.24454E-05-3.18792E-05 7.08650E-06 3.84638E-19 1.42762E-19
 -1       347 1.09571E-04-3.41418E-05-3.23420E-05 6.03320E-06-2.74417E-20 7.61557E-19
 -1       348 1.12453E-04-3.61909E-05-3.27055E-05 3.54939E-06-1.51496E-19 5.75475E-19
 -1       349 1.15057E-04-3.81543E-05-3.29827E-05-6.71879E-07-5.76191E-19 8.72048E-19
 -1       350 1.16600E-04-3.90565E-05-3.32549E-05-6.28384E-06-4.32821E-19 1.01942E-18
 -1       351 1.15994E-04-3.74992E-05-3.36593E-05-1.16351E-05-4.85547E-19 1.52714E-18
 -1       352 1.12790E-04-3.28897E-05-3.42608E-05-1.36050E-05-8.07013E-19 1.35657E-18
 -1       353 1.08530E-04-2.71827E-05-3.49018E-05-9.40075E-06-2.96773E-19 8.74892E-19
 -1       354 1.06515E-04-2.45085E-05-3.51923E-05 1.50086E-07-1.12010E-18-1.38606E-18
 -1       355 1.08632E-04-2.72404E-05-3.49033E-05 9.63955E-06-1.21463E-18-2.76316E-18
 -1       356 1.12953E-04-3.29695E-05-3.42924E-05 1.37865E-05-7.19787E-19-3.70163E-18
 -1       357 1.16202E-04-3.75696E-05-3.37173E-05 1.17941E-05 5.76295E-19-3.78377E-18
 -1       358 1.16852E-04-3.91058E-05-3.33484E-05 6.48136E-06 9.63517E-19-2.50794E-18
 -1       359 1.15390E-04-3.82055E-05-3.31076E-05 9.40275E-07 4.91044E-19-1.79658E-18
 -1       360 1.12885E-04-3.62487E-05-3.28671E-05-3.18286E-06 5.26568E-19-5.31787E-19
 -1       361 1.10138E-04-3.42314E-05-3.25461E-05-5.55073E-06 9.28705E-19 2.74576E-19
 -1       362 1.07541E-04-3.25777E-05-3.21341E-05-6.48113E-06 2.10526E-19 3.00677E-19
 -1       363 1.05233E-04-3.13564E-05-3.16626E-05-6.45391E-06-7.61621E-19-7.02424E-19
 -1       364 1.03242E-04-3.04959E-05-3.11745E-05-5.88755E-06-5.87885E-19-1.26973E-18
 -1       365 1.01556E-04-2.98990E-05-3.07061E-05-5.07897E-06-9.98439E-19-5.64007E-19
 -1       366 1.00151E-04-2.94840E-05-3.02811E-05-4.21314E-06-4.81769E-19 5.74112E-19
 -1       367 9.89982E-05-2.91932E-05-2.99119E-05-3.39268E-06 2.16059E-19-1.75836E-19
 -1       368 9.80677E-05-2.89877E-05-2.96016E-05-2.66648E-06-1.14034E-18-5.07849E-19
 -1       369 9.73288E-05-2.88422E-05-2.93480E-05-2.05134E-06-1.24630E-18-1.36791E-18
 -1       370 9.67521E-05-2.87396E-05-2.91454E-05-1.54623E-06 7.26725E-19-1.14243E-18
 -1       371 9.63097E-05-2.86682E-05-2.89870E-05-1.14130E-06 1.84258E-18-2.42606E-18
 -1       372 9.59766E-05-2.86197E-05-2.88655E-05-8.23047E-07 8.68899E-19-1.86284E-18
 -1       373 9.57311E-05-2.85878E-05-2.87744E-05-5.77279E-07-6.88750E-19-1.87509E-18
 -1       374 9.55545E-05-2.85682E-05-2.87074E-05-3.90622E-07 1.45604E-19-3.40459E-19
 -1       375 9.54310E-05-2.85573E-05-2.86594E-05-2.51245E-07 2.09274E-18-8.29052E-19
 -1       376 9.53478E-05-2.85527E-05-2.86260E-05-1.49146E-07 1.60685E-18 1.29461E-18
 -1       377 9.52946E-05-2.85524E-05-2.86034E-05-7.62122E-08 1.39431E-18 8.20101E-19
 -1       378 9.52629E-05-2.85552E-05-2.85888E-05-2.62267E-08 1.12884E-18 2.36760E-18
 -1       379 9.52463E-05-2.85608E-05-2.85793E-05 5.36216E-09 1.95867E-18 3.89145E-18
 -1       380 9.52395E-05-2.85686E-05-2.85733E-05 2.02736E-08 1.41561E-18 4.08715E-18
 -1       381 9.50787E-05-2.74866E-05-2.89287E-05 1.77275E-06 2.01873E-18 2.77868E-18
 -1       382 9.42524E-05-2.76840E-05-2.85058E-05-1.41378E-07 1.60226E-18 2.20107E-18
 -1       383 9.41864E-05-2.78726E-05-2.84081E-05-1.32376E-06 1.15876E-18 1.50931E-18
 -1       384 9.46671E-05-2.81176E-05-2.85144E-05-2.13198E-06 4.42640E-19 9.54925E-19
 -1       385 9.55535E-05-2.84313E-05-2.87621E-05-2.74862E-06 4.77529E-19 4.74359E-19
 -1       386 9.67585E-05-2.88171E-05-2.91144E-05-3.26423E-06 9.16467E-19 5.02070E-19
 -1       387 9.82269E-05-2.92812E-05-2.95458E-05-3.71115E-06 8.77594E-19 5.59608E-19
 -1       388 9.99162E-05-2.98345E-05-3.00341E-05-4.07210E-06 4.01742E-19 7.11310E-19
 -1       389 1.01778E-04-3.04898E-05-3.05535E-05-4.27773E-06 4.19093E-19 6.20122E-19
 -1       390 1.03741E-04-3.12561E-05-3.10692E-05-4.20142E-06 1.04306E-19 3.21461E-19
 -1       391 1.05685E-04-3.21239E-05-3.15346E-05-3.66160E-06 6.51628E-19 8.84215E-20
 -1       392 1.07425E-04-3.30390E-05-3.18921E-05-2.44939E-06-2.29734E-19 5.74073E-19
 -1       393 1.08687E-04-3.38614E-05-3.20834E-05-4.07026E-07-7.18296E-19 1.23529E-18
 -1       394 1.09114E-04-3.43250E-05-3.20678E-05 2.42166E-06-2.18745E-19 1.41711E-18
 -1       395 1.08336E-04-3.40481E-05-3.18483E-05 5.58055E-06 2.49309E-19 1.63686E-18
 -1       396 1.06180E-04-3.27120E-05-3.14901E-05 8.06767E-06 1.17891E-18 1.41843E-18
 -1       397 1.02989E-04-3.04005E-05-3.11059E-05 8.55323E-06 5.93219E-19 9.33182E-19
 -1       398 9.98361E-05-2.79145E-05-3.08137E-05 6.10527E-06 5.15827E-19 8.18618E-19
 -1       399 9.82153E-05-2.65630E-05-3.06927E-05 1.15708E-06 6.87797E-19-6.42534E-19
 -1       400 9.89998E-05-2.71460E-05-3.07760E-05-4.31841E-06 2.23148E-18-1.32308E-18
 -1       401 1.01803E-04-2.93300E-05-3.10421E-05-8.01931E-06 1.11608E-18-2.61750E-18
 -1       402 1.05246E-04-3.18861E-05-3.14332E-05-8.76738E-06-5.21087E-19-3.21429E-18
 -1       403 1.07992E-04-3.37105E-05-3.18404E-05-7.00646E-06-1.01938E-18-2.91608E-18
 -1       404 1.09411E-04-3.44313E-05-3.21490E-05-4.02644E-06-8.74793E-19-2.01793E-18
 -1       405 1.09529E-04-3.42530E-05-3.22788E-05-1.03191E-06-7.06412E-21-6.75125E-19
 -1       406 1.08685E-04-3.35700E-05-3.22079E-05 1.29210E-06-2.99438E-19-1.03006E-18
 -1       407 1.07269E-04-3.27108E-05-3.19644E-05 2.75352E-06 7.85382E-19-1.68298E-19
 -1       408 1.05593E-04-3.18688E-05-3.16025E-05 3.45123E-06 1.89607E-19-4.25349E-20
 -1       409 1.03878E-04-3.11295E-05-3.11799E-05 3.59179E-06-6.70062E-19-5.68226E-19
 -1       410 1.02257E-04-3.05165E-05-3.07452E-05 3.38246E-06-1.83941E-19-2.45569E-18
 -1       411 1.00806E-04-3.00245E-05-3.03327E-05 2.98756E-06 2.59621E-19-1.72759E-18
 -1       412 9.95578E-05-2.96377E-05-2.99626E-05 2.52080E-06 4.37520E-19-3.11118E-19
 -1       413 9.85169E-05-2.93387E-05-2.96445E-05 2.05295E-06 6.25994E-19 7.81425E-19
 -1       414 9.76720E-05-2.91109E-05-2.93803E-05 1.62324E-06 7.09278E-19 2.23861E-18
 -1       415 9.70026E-05-2.89401E-05-2.91669E-05 1.24990E-06-4.37429E-19 1.74753E-18
 -1       416 9.64841E-05-2.88144E-05-2.89990E-05 9.38066E-07-5.16956E-19 9.06885E-19
 -1       417 9.60915E-05-2.87238E-05-2.88700E-05 6.85413E-07-2.31745E-18 5.99052E-19
 -1       418 9.58015E-05-2.86601E-05-2.87734E-05 4.85786E-07-1.51218E-18 1.35425E-18
 -1       419 9.55929E-05-2.86170E-05-2.87028E-05 3.31513E-07-8.73412E-20 1.30100E-18
 -1       420 9.54478E-05-2.85891E-05-2.86528E-05 2.14766E-07 1.50725E-18 1.45408E-18
 -1       421 9.53510E-05-2.85725E-05-2.86187E-05 1.28309E-07 2.80969E-18 8.83954E-19
 -1       422 9.52904E-05-2.85639E-05-2.85966E-05 6.58787E-08 3.18120E-18 2.53249E-21
 -1       423 9.52558E-05-2.85612E-05-2.85831E-05 2.24273E-08 1.37023E-18-9.66311E-19
 -1       424 9.52392E-05-2.85626E-05-2.85755E-05-5.51224E-09-1.15111E-18-1.70562E-18
 -1       425 9.52346E-05-2.85677E-05-2.85714E-05-1.97022E-08-2.44071E-20 2.72420E-19
 -1       426 9.52361E-05-2.85732E-05-2.85698E-05-2.17267E-08 9.23802E-19 8.97177E-19
 -1       427 9.52411E-05-2.85529E-05-2.85806E-05 7.21324E-09-9.00925E-20 4.36313E-19
 -1       428 9.52455E-05-2.85652E-05-2.85772E-05-6.65281E-09-3.12283E-21 4.22875E-19
 -1       429 9.52431E-05-2.85723E-05-2.85732E-05-1.75289E-08-2.95835E-19-6.19979E-19
 -1       430 9.52325E-05-2.85373E-05-2.85836E-05 1.70448E-08-1.45051E-18-1.81149E-18
 -1       431 9.52226E-05-2.85213E-05-2.85862E-05 1.98325E-08 5.32330E-20 2.19783E-19
 -1       432 9.52143E-05-2.85084E-05-2.85882E-05 1.51811E-08 5.87663E-19-1.19813E-18
 -1       433 9.52097E-05-2.85014E-05-2.85893E-05 5.16141E-09-8.09013E-19 4.70901E-19
 -1       434 9.52099E-05-2.85017E-05-2.85893E-05-6.71341E-09-3.35474E-18 1.81874E-18
 -1       435 9.52148E-05-2.85092E-05-2.85881E-05-1.64409E-08-2.98868E-18 5.15409E-19
 -1       436 9.52232E-05-2.85221E-05-2.85862E-05-2.05270E-08-7.09247E-19-2.37309E-18
 -1       437 9.52332E-05-2.85383E-05-2.85835E-05-1.71629E-08 1.00242E-18-2.96691E-18
 -1       438 9.52419E-05-2.85541E-05-2.85804E-05-6.53582E-09 2.23060E-18-2.30781E-18
 -1       439 9.52462E-05-2.85668E-05-2.85769E-05 8.51314E-09-5.44893E-19-1.74997E-18
 -1       440 5.64574E-05-4.03290E-05-7.09788E-06 4.26350E-05-6.09864E-20 7.31360E-18
 -1       441 1.32730E-05-1.90006E-05 2.63154E-06 1.18486E-06-7.51035E-19 9.45035E-18
 -1       442 2.69330E-05-2.91384E-05 7.38864E-07 2.95743E-05 1.24196E-19 1.04576E-17
 -1       443 9.90565E-05-5.13528E-05-2.05299E-05 4.08114E-05 2.81098E-18-2.80474E-19
 -1       444 1.30168E-04-5.07378E-05-3.39982E-05 2.89325E-05 4.83534E-18-5.57030E-19
 -1       445 8.94865E-05-1.17373E-05-3.33864E-05-9.87350E-06-2.40887E-18-2.79404E-18
 -1       446 1.59449E-04-2.47319E-05-5.74145E-05 1.28380E-06 6.93561E-18-5.11396E-19
 -1       447 1.56281E-04-1.32011E-05-6.12540E-05-1.41019E-06 7.92336E-18-1.30316E-18
 -1       448 1.50918E-04-1.28334E-05-5.93198E-05 3.08669E-06 7.93670E-18-1.43879E-18
 -1       449 1.53434E-04-3.01629E-05-5.29147E-05 4.97548E-07 6.30230E-18-4.49563E-19
 -1       450 1.44672E-04-4.84621E-05-4.12246E-05-1.48499E-05 3.72769E-18-2.59531E-18
 -1       451 1.15718E-04-5.64134E-05-2.55248E-05-3.49395E-05 4.46280E-19-4.81544E-18
 -1       452 8.32843E-05-4.92135E-05-1.44900E-05-4.43565E-05-8.44068E-19-5.31290E-18
 -1       453 4.02199E-05-3.21507E-05-3.31536E-06-3.78491E-05-1.33143E-18-7.39762E-18
 -1       454 1.50232E-05-2.43370E-05 3.74647E-06-1.52366E-05-8.85996E-19-8.00499E-18
 -1       455 1.49428E-05-2.48349E-05 3.90523E-06 1.39902E-05-6.89432E-19-6.79987E-18
 -1       456 4.25343E-05-3.53860E-05-3.22505E-06 3.75871E-05 1.74277E-19-4.07455E-18
 -1       457 8.50286E-05-5.02577E-05-1.49446E-05 4.30565E-05-3.91012E-19-1.55848E-18
 -1       458 1.22031E-04-5.68737E-05-2.79710E-05 3.19512E-05-2.18344E-18 1.40449E-19
 -1       459 1.47505E-04-4.83553E-05-4.23822E-05 1.60657E-05-5.28842E-18 2.50034E-18
 -1       460 1.59990E-04-3.32675E-05-5.40170E-05 3.58451E-06-6.31929E-18 2.74905E-18
 -1       461 1.59630E-04-1.89036E-05-6.01711E-05-2.69828E-06-6.96282E-18 2.32219E-18
 -1       462 1.55344E-04-1.34635E-05-6.08759E-05 2.74789E-06-7.21386E-18 3.38109E-18
 -1       463 1.58484E-04-2.42770E-05-5.74540E-05 3.07932E-06-6.37032E-18 2.34363E-18
 -1       464 1.51351E-04-4.24861E-05-4.68830E-05-1.62446E-06-4.03884E-18 1.22735E-18
 -1       465 1.27299E-04-5.52920E-05-3.10405E-05-2.81609E-05-2.90008E-18 2.37296E-18
 -1       466 9.88614E-05-5.34176E-05-1.94556E-05-4.03613E-05-1.57485E-18 5.52445E-18
 -1       467 5.34010E-05-3.95011E-05-6.13585E-06-4.09208E-05-1.38765E-18 7.83124E-18
 -1       468 2.56324E-05-2.84651E-05 1.06759E-06-2.71192E-05-5.38289E-19 7.86947E-18
 -1       469 1.50402E-04-4.16843E-05-4.64495E-05 1.34425E-05 6.25421E-18-6.70956E-19
 -1       470 1.39122E-04-9.36835E-06-5.60695E-05-2.55882E-06-7.44182E-18 1.72242E-18
 -1       471 1.44234E-04-5.62711E-05-3.78182E-05-4.74663E-06-9.99214E-19-9.82982E-19
 -1       472 9.62943E-05-2.51479E-05-3.04767E-05 5.09144E-06 2.66624E-18 1.05692E-18
 -1       473 8.89441E-05-1.25169E-05-3.27727E-05-3.34609E-06-7.11348E-19-3.23063E-18
 -1       474 8.98898E-05-1.36776E-05-3.26829E-05-5.08695E-06-1.34042E-18-3.14367E-18
 -1       475 8.82322E-05-1.16672E-05-3.28301E-05 3.78831E-08 5.04444E-19-3.27788E-18
 -1       476 8.84316E-05-1.19054E-05-3.28139E-05 1.71962E-06 1.04424E-18-3.28950E-18
 -1       477 8.89911E-05-1.25799E-05-3.27659E-05 3.40390E-06 1.53466E-18-3.12541E-18
 -1       478 8.99572E-05-1.37708E-05-3.26717E-05 5.14889E-06 2.13416E-18-2.62663E-18
 -1       479 9.13798E-05-1.55898E-05-3.25041E-05 6.85679E-06 2.59741E-18-1.90766E-18
 -1       480 9.34146E-05-1.82944E-05-3.22144E-05 8.35102E-06 2.97160E-18-8.27090E-19
 -1       481 9.57957E-05-2.65535E-05-2.96565E-05 1.71060E-06 2.14996E-18 8.57465E-19
 -1       482 9.58950E-05-2.43128E-05-3.06672E-05-4.72501E-06-2.03918E-18-9.61107E-19
 -1       483 1.44267E-04-3.44980E-05-4.74441E-05-7.29931E-06 5.23916E-18-3.05996E-18
 -1       484 9.58515E-05-2.60250E-05-2.99166E-05-1.49295E-06-1.68417E-18-7.06729E-19
 -1       485 9.57177E-05-2.68986E-05-2.94896E-05 7.94580E-07-1.43160E-18-4.73488E-19
 -1       486 9.57228E-05-2.73673E-05-2.92925E-05 2.46903E-06-1.06812E-18-4.84869E-19
 -1       487 9.59231E-05-2.76436E-05-2.92605E-05 3.78970E-06-8.63945E-19-8.53841E-19
 -1       488 9.63162E-05-2.78325E-05-2.93482E-05 4.93416E-06-7.04212E-19-7.84386E-19
 -1       489 9.68944E-05-2.80067E-05-2.95214E-05 6.00949E-06-4.18160E-19-1.21239E-18
 -1       490 9.76657E-05-2.82418E-05-2.97513E-05 7.06343E-06-4.74817E-19-9.16559E-19
 -1       491 9.86683E-05-2.86397E-05-3.00109E-05 8.08101E-06-4.77867E-19-3.48433E-19
 -1       492 9.99867E-05-2.93496E-05-3.02728E-05 8.97015E-06-1.01784E-19 2.93433E-19
 -1       493 1.01771E-04-3.05800E-05-3.05123E-05 9.53655E-06 3.96496E-19 2.82167E-19
 -1       494 1.04242E-04-3.25794E-05-3.07181E-05 9.45063E-06 3.77701E-19 3.24740E-19
 -1       495 1.07649E-04-3.55350E-05-3.09154E-05 8.22423E-06-3.36339E-19 4.53784E-19
 -1       496 1.12117E-04-3.93228E-05-3.12062E-05 5.20852E-06-1.37240E-19 1.02876E-18
 -1       497 1.17131E-04-4.28950E-05-3.18252E-05-8.43744E-08-2.93442E-20 2.16861E-18
 -1       498 1.21206E-04-4.40469E-05-3.30999E-05-7.42386E-06-8.81462E-19 2.23897E-18
 -1       499 1.21790E-04-3.96909E-05-3.52532E-05-1.41891E-05-1.18693E-18 2.31646E-18
 -1       500 1.17888E-04-2.96175E-05-3.79851E-05-1.51494E-05-1.33889E-18 1.48382E-18
 -1       501 1.12883E-04-1.99226E-05-4.00554E-05-6.57828E-06-2.97541E-18-1.19066E-18
 -1       502 1.13289E-04-2.04229E-05-4.00003E-05 6.93530E-06-2.78017E-18-3.52423E-18
 -1       503 1.18138E-04-2.97835E-05-3.80242E-05 1.54695E-05-1.62352E-18-4.42008E-18
 -1       504 1.22017E-04-3.98247E-05-3.52880E-05 1.44080E-05 1.56639E-19-4.86564E-18
 -1       505 1.21291E-04-4.39979E-05-3.31532E-05 7.60355E-06 1.56643E-18-4.21464E-18
 -1       506 1.17250E-04-4.28348E-05-3.19036E-05 3.58655E-07 1.93147E-18-3.33774E-18
 -1       507 1.12264E-04-3.92189E-05-3.13133E-05-4.84431E-06 1.40874E-18-1.73807E-18
 -1       508 1.07885E-04-3.54522E-05-3.10492E-05-7.70282E-06 1.19645E-18-1.66595E-18
 -1       509 1.04561E-04-3.25107E-05-3.08828E-05-8.77862E-06 9.36631E-19-1.21875E-18
 -1       510 1.02183E-04-3.05334E-05-3.07084E-05-8.71147E-06-6.53354E-19-1.01764E-18
 -1       511 1.00496E-04-2.93337E-05-3.04979E-05-8.00065E-06-9.73373E-19-7.12319E-19
 -1       512 9.92737E-05-2.86676E-05-3.02585E-05-6.98716E-06 1.82673E-19 4.88867E-19
 -1       513 9.83576E-05-2.83338E-05-3.00085E-05-5.88555E-06-4.60670E-19 7.67488E-19
 -1       514 9.76496E-05-2.81932E-05-2.97653E-05-4.82063E-06-1.56955E-20 1.27021E-18
 -1       515 9.70913E-05-2.81579E-05-2.95412E-05-3.85762E-06-1.62244E-18 9.64264E-19
 -1       516 9.66474E-05-2.81762E-05-2.93434E-05-3.02416E-06-1.34204E-18 7.70509E-19
 -1       517 9.62951E-05-2.82188E-05-2.91744E-05-2.32541E-06-4.92940E-19 4.57897E-19
 -1       518 9.60176E-05-2.82695E-05-2.90340E-05-1.75393E-06 1.47890E-19 1.78071E-19
 -1       519 9.58019E-05-2.83202E-05-2.89200E-05-1.29605E-06 1.14537E-18-1.35744E-18
 -1       520 9.56369E-05-2.83669E-05-2.88294E-05-9.35782E-07 6.58290E-19-1.35209E-18
 -1       521 9.55130E-05-2.84080E-05-2.87588E-05-6.57050E-07 6.48583E-19-7.02165E-19
 -1       522 9.54219E-05-2.84432E-05-2.87048E-05-4.44987E-07 9.04702E-19-1.59727E-18
 -1       523 9.53566E-05-2.84728E-05-2.86643E-05-2.86519E-07 2.59996E-18-4.98814E-19
 -1       524 9.53111E-05-2.84975E-05-2.86342E-05-1.70644E-07 1.26836E-18 2.57031E-19
 -1       525 9.52805E-05-2.85183E-05-2.86122E-05-8.84738E-08 2.30433E-18 1.35210E-18
 -1       526 9.52611E-05-2.85369E-05-2.85960E-05-3.34083E-08 3.39910E-18 1.91885E-18
 -1       527 5.16544E-05-2.99927E-05-8.80285E-06 3.82549E-05-4.67869E-18 6.42422E-18
 -1       528 9.54747E-05-2.76843E-05-2.90480E-05-2.04048E-06 1.15990E-18 2.15080E-19
 -1       529 9.57662E-05-2.79910E-05-2.90435E-05-3.16910E-06 8.31346E-19-4.00820E-20
 -1       530 9.63246E-05-2.82745E-05-2.91621E-05-4.06822E-06 8.08937E-19-3.71063E-19
 -1       531 9.71203E-05-2.85913E-05-2.93679E-05-4.82787E-06 5.96736E-19-2.43587E-20
 -1       532 9.81393E-05-2.89942E-05-2.96325E-05-5.47187E-06 1.57055E-19 3.67037E-19
 -1       533 9.93837E-05-2.95453E-05-2.99307E-05-5.96053E-06 5.95039E-19 3.44720E-19
 -1       534 1.00869E-04-3.03180E-05-3.02378E-05-6.18582E-06 5.68617E-19 2.19598E-19
 -1       535 1.02615E-04-3.13868E-05-3.05302E-05-5.96623E-06 3.39468E-19 6.00243E-20
 -1       536 1.04621E-04-3.27925E-05-3.07907E-05-5.05332E-06-5.75111E-19 7.81479E-22
 -1       537 1.06815E-04-3.44657E-05-3.10172E-05-3.17440E-06-1.10853E-18 7.44069E-19
 -1       538 1.08967E-04-3.61115E-05-3.12363E-05-1.47208E-07-7.33433E-19 1.13205E-18
 -1       539 1.10582E-04-3.70868E-05-3.15095E-05 3.89712E-06-4.20803E-20 1.09396E-18
 -1       540 1.10915E-04-3.64542E-05-3.19185E-05 8.15387E-06 7.68873E-19 1.92530E-18
 -1       541 1.09416E-04-3.35767E-05-3.25102E-05 1.09667E-05 6.50559E-19 1.96256E-18
 -1       542 1.06357E-04-2.89253E-05-3.31947E-05 1.02960E-05 4.52473E-19 2.00947E-18
 -1       543 1.03454E-04-2.47865E-05-3.37189E-05 5.20706E-06 1.61569E-18 1.81319E-18
 -1       544 1.02866E-04-2.39504E-05-3.38298E-05-2.42117E-06 2.44665E-18-1.85020E-19
 -1       545 1.05086E-04-2.70148E-05-3.34561E-05-8.92927E-06 2.39199E-18-4.88162E-19
 -1       546 1.08394E-04-3.18113E-05-3.28240E-05-1.14292E-05 1.23347E-18-9.08483E-19
 -1       547 1.10697E-04-3.55768E-05-3.22012E-05-9.83577E-06-1.17481E-19-2.98185E-18
 -1       548 1.11127E-04-3.70825E-05-3.17449E-05-5.97975E-06-1.20643E-18-3.46418E-18
 -1       549 1.10005E-04-3.66422E-05-3.14548E-05-1.79099E-06-6.29663E-19-3.23964E-18
 -1       550 1.08083E-04-3.51800E-05-3.12563E-05 1.59135E-06-5.48621E-19-2.53556E-18
 -1       551 1.05969E-04-3.34792E-05-3.10757E-05 3.80773E-06-5.75249E-19-1.74612E-18
 -1       552 1.03992E-04-3.19705E-05-3.08713E-05 4.95137E-06 4.77651E-19-1.21509E-18
 -1       553 1.02274E-04-3.08009E-05-3.06333E-05 5.28592E-06 1.03699E-18-1.34852E-18
 -1       554 1.00831E-04-2.99643E-05-3.03714E-05 5.08894E-06 5.66866E-19-1.53226E-18
 -1       555 9.96382E-05-2.93968E-05-3.01020E-05 4.58874E-06-5.64388E-19-3.96452E-19
 -1       556 9.86610E-05-2.90266E-05-2.98413E-05 3.95017E-06-7.11710E-19 2.28382E-19
 -1       557 9.78671E-05-2.87929E-05-2.96011E-05 3.28137E-06-5.41128E-20 1.19155E-18
 -1       558 9.72284E-05-2.86504E-05-2.93885E-05 2.64694E-06-2.64459E-19 1.83448E-18
 -1       559 9.67205E-05-2.85674E-05-2.92066E-05 2.08083E-06 6.26303E-19 1.57538E-18
 -1       560 9.63220E-05-2.85226E-05-2.90553E-05 1.59677E-06 7.80212E-19 9.30801E-20
 -1       561 9.60141E-05-2.85016E-05-2.89326E-05 1.19607E-06-1.92637E-19 4.82678E-19
 -1       562 9.57804E-05-2.84952E-05-2.88355E-05 8.72979E-07-2.26328E-18-1.61063E-18
 -1       563 9.56064E-05-2.84974E-05-2.87602E-05 6.18332E-07-5.91665E-19 4.54020E-19
 -1       564 9.54798E-05-2.85044E-05-2.87032E-05 4.21792E-07 5.54313E-19 2.91482E-19
 -1       565 9.53902E-05-2.85137E-05-2.86609E-05 2.73253E-07 2.24262E-18 6.13937E-19
 -1       566 9.53287E-05-2.85240E-05-2.86303E-05 1.63577E-07 3.17745E-18 4.70163E-19
 -1       567 9.52884E-05-2.85346E-05-2.86085E-05 8.49885E-08 2.58279E-18 5.23704E-19
 -1       568 9.52634E-05-2.85455E-05-2.85932E-05 3.12774E-08 3.86457E-19 1.46721E-18
 -1       569 9.52498E-05-2.85576E-05-2.85823E-05-2.06543E-09-9.57555E-19 6.58013E-19
 -1       570 9.52125E-05-2.84762E-05-2.86012E-05 4.12696E-08 2.97939E-18-9.25375E-20
 -1       571 9.51944E-05-2.84512E-05-2.86042E-05 3.52281E-08 1.10032E-18 2.47135E-20
 -1       572 9.52461E-05-2.85329E-05-2.85914E-05 2.12530E-08-1.41010E-20 1.55250E-19
 -1       573 9.52315E-05-2.85050E-05-2.85970E-05 3.61958E-08 2.07255E-20 7.48009E-19
 -1       574 9.51818E-05-2.84344E-05-2.86060E-05 1.97510E-08-4.00240E-19-2.51248E-18
 -1       575 9.51774E-05-2.84287E-05-2.86066E-05-1.00304E-09-2.33301E-18-7.68373E-19
 -1       576 9.51823E-05-2.84349E-05-2.86060E-05-2.16010E-08-2.58103E-18 2.40669E-18
 -1       577 9.51951E-05-2.84517E-05-2.86043E-05-3.64107E-08-9.32828E-19 1.03023E-18
 -1       578 9.52135E-05-2.84770E-05-2.86014E-05-4.18490E-08-1.40170E-19-2.89013E-18
 -1       579 9.52326E-05-2.85060E-05-2.85971E-05-3.59479E-08 2.35601E-19-2.15318E-18
 -1       580 9.52469E-05-2.85337E-05-2.85913E-05-2.03725E-08-2.60355E-19-4.54363E-18
 -1       581 3.11549E-05-1.53753E-05-6.07807E-06-1.75198E-05 5.26616E-19 8.07117E-18
 -1       582 9.54855E-05-2.72675E-05-2.92265E-05-5.10824E-07 1.75145E-18 5.66768E-19
 -1       583 9.12270E-05-5.04735E-05-1.71990E-05 4.18126E-05-3.02693E-18-1.11669E-18
 -1       584 8.64877E-05-4.86844E-05-1.59126E-05-4.13976E-05 2.26857E-18 4.00234E-18
 -1       585 1.24680E-04-5.94933E-05-2.78997E-05 2.67101E-05 5.02714E-19-2.82120E-18
 -1       586 1.39370E-04-3.12249E-05-4.68464E-05 1.37441E-05-3.99747E-18-2.56069E-19
 -1       587 1.34675E-04-5.90880E-05-3.24927E-05-1.37633E-05-9.52766E-19 1.25149E-19
 -1       588 8.84001E-05-1.18653E-05-3.28176E-05-1.64043E-06-6.60852E-20-3.26401E-18
 -1       589 1.26344E-04-7.41831E-06-5.15938E-05-3.54508E-08 7.52144E-18 1.32562E-19
 -1       590 3.49232E-05-1.87752E-05-6.27740E-06-2.49474E-05-1.42664E-18-6.58833E-18
 -1       591 1.32600E-04-1.33135E-05-5.17545E-05-9.28746E-06 6.52422E-18-2.40610E-18
 -1       592 1.34287E-04-1.95395E-05-4.97808E-05 1.14834E-05 5.35012E-18 1.40650E-18
 -1       593 1.42621E-04-4.27396E-05-4.31614E-05 5.34167E-06 2.64576E-18 1.97338E-18
 -1       594 1.08789E-04-5.66370E-05-2.21793E-05-3.53097E-05-3.28024E-18-3.11739E-18
 -1       595 7.15525E-05-4.02214E-05-1.30800E-05-4.18983E-05-2.85445E-18-4.33628E-18
 -1       596 2.31425E-05-1.32249E-05-3.62697E-06-2.15024E-08 4.44701E-19-7.50302E-18
 -1       597 3.57855E-05-2.23487E-05-5.27496E-06 2.84748E-05 1.72588E-18-3.93362E-18
 -1       598 7.44040E-05-4.26483E-05-1.32385E-05 4.21911E-05 2.87049E-18-1.73912E-18
 -1       599 1.13861E-04-5.90841E-05-2.33146E-05 3.27214E-05 1.71900E-18 1.17027E-18
 -1       600 1.39474E-04-5.91368E-05-3.45275E-05 1.09559E-05-1.58373E-18 3.94315E-18
 -1       601 1.45552E-04-4.40690E-05-4.38470E-05-6.67467E-06-4.57684E-18 3.66670E-18
 -1       602 1.42296E-04-2.52402E-05-5.06859E-05-1.17192E-05-5.65574E-18 1.25514E-18
 -1       603 1.34480E-04-1.79282E-05-5.06418E-05 1.12137E-05-5.21714E-18-4.11208E-19
 -1       604 1.22026E-04-6.06406E-05-2.62455E-05-2.75925E-05 1.11591E-18 2.29414E-19
 -1       605 2.88951E-05-1.64503E-05-4.74924E-06 2.00052E-05-2.91430E-18 9.36310E-18
 -1       606 4.73529E-05-2.63741E-05-8.45217E-06-3.36988E-05 1.09050E-18 6.04744E-18
 -1       607 9.49078E-05-2.07004E-05-3.18216E-05-8.51538E-06-2.79084E-18-1.29852E-18
 -1       608 9.65209E-05-2.32377E-05-3.14102E-05 8.81921E-06 3.12857E-18 1.47546E-18
 -1       609 1.41111E-04-5.35028E-05-3.77596E-05 8.25073E-06 2.81877E-18-2.47005E-18
 -1       610 9.12887E-05-1.54630E-05-3.25195E-05-6.77738E-06-1.86049E-18-2.61764E-18
 -1       611 1.30229E-04-1.58017E-05-4.97236E-05-9.36085E-06-6.69447E-18 8.03583E-19
 -1       612 9.52527E-05-2.85496E-05-2.85870E-05-7.79620E-09 1.44653E-18 1.44119E-18
 -1       613 3.38359E-05-1.09840E-05-9.19855E-06 1.15136E-06-1.19914E-18 6.33734E-18
 -1       614 5.91081E-05-2.76960E-05-1.30265E-05-3.41854E-05-2.69931E-18-4.64343E-18
 -1       615 1.25047E-04-1.15610E-05-4.91704E-05 5.55517E-06-6.08392E-18-1.27107E-18
 -1       616 1.39470E-04-4.47075E-05-4.08599E-05 1.17572E-05-1.10241E-18-1.11792E-18
 -1       617 9.29227E-05-1.77066E-05-3.22555E-05-7.93356E-06-2.34915E-18-2.05895E-18
 -1       618 9.05797E-05-1.55463E-05-3.21625E-05 1.84417E-06 1.13162E-18-2.85299E-18
 -1       619 9.01677E-05-1.50153E-05-3.22132E-05 6.17414E-07 7.48672E-19-2.83521E-18
 -1       620 9.25357E-05-1.82145E-05-3.18575E-05 4.16072E-06 2.06131E-18-1.98861E-18
 -1       621 9.39926E-05-2.04608E-05-3.15214E-05 4.96936E-06 2.42080E-18-1.13236E-18
 -1       622 9.55810E-05-2.38339E-05-3.07386E-05 3.91829E-06 2.46898E-18-3.21657E-19
 -1       623 1.13263E-04-5.63959E-05-2.42243E-05 2.93065E-05-2.37442E-18-2.52026E-18
 -1       624 1.24772E-04-2.58854E-05-4.28524E-05 1.61296E-05-3.18402E-18-3.90604E-18
 -1       625 9.57414E-05-2.55647E-05-3.00713E-05 1.02414E-06 1.98294E-18-3.11092E-19
 -1       626 5.04191E-05-2.02562E-05-1.24069E-05 2.73534E-05-4.86552E-18 5.81843E-18
 -1       627 9.47517E-05-2.18429E-05-3.12462E-05-4.95462E-06-1.93997E-18-1.55073E-18
 -1       628 9.55918E-05-2.50707E-05-3.02258E-05-6.60330E-07-1.33713E-18-1.33892E-18
 -1       629 9.56621E-05-2.60764E-05-2.98212E-05 1.46258E-06-1.29129E-18-1.17142E-18
 -1       630 9.56339E-05-2.66062E-05-2.95827E-05 3.13095E-06-1.05462E-18-1.18451E-18
 -1       631 9.55986E-05-2.68425E-05-2.94663E-05 4.53442E-06-7.47292E-19-1.42745E-18
 -1       632 9.55946E-05-2.69152E-05-2.94334E-05 5.80179E-06-6.16216E-19-1.31095E-18
 -1       633 9.56531E-05-2.69363E-05-2.94494E-05 7.02381E-06-1.13432E-19-9.32801E-19
 -1       634 9.58253E-05-2.70338E-05-2.94814E-05 8.24754E-06 8.82892E-20-6.60413E-19
 -1       635 9.62121E-05-2.73829E-05-2.94977E-05 9.47335E-06 2.99943E-19 1.19908E-19
 -1       636 9.70013E-05-2.82364E-05-2.94708E-05 1.06447E-05-3.07058E-19-9.78788E-20
 -1       637 9.85138E-05-2.99446E-05-2.93882E-05 1.16211E-05 4.67529E-19 1.24092E-19
 -1       638 1.01235E-04-3.29288E-05-2.92775E-05 1.21138E-05 1.83028E-19 1.19750E-19
 -1       639 1.05729E-04-3.74902E-05-2.92488E-05 1.15862E-05 4.65788E-19 8.89312E-19
 -1       640 1.12686E-04-4.36199E-05-2.96142E-05 8.85280E-06 5.54807E-19 1.57040E-18
 -1       641 1.20988E-04-4.90386E-05-3.09251E-05 3.00431E-06-1.18280E-19 2.33512E-18
 -1       642 1.28469E-04-4.99850E-05-3.37150E-05-6.06955E-06-2.37652E-19 3.70245E-18
 -1       643 1.30124E-04-3.99698E-05-3.89556E-05-1.51136E-05-1.84330E-18 4.29120E-18
 -1       644 1.29432E-04-4.23154E-05-3.75611E-05 1.46793E-05-1.08758E-19-4.74782E-18
 -1       645 1.26808E-04-4.94127E-05-3.32325E-05 5.44643E-06 2.05819E-18-4.67878E-18
 -1       646 1.19314E-04-4.75086E-05-3.07893E-05-3.37278E-06 2.61807E-18-3.42612E-18
 -1       647 1.11433E-04-4.18595E-05-2.98218E-05-8.53918E-06 1.98997E-18-3.25529E-18
 -1       648 1.05316E-04-3.62877E-05-2.95870E-05-1.06744E-05 1.54763E-18-2.82671E-18
 -1       649 1.01264E-04-3.21540E-05-2.96210E-05-1.10049E-05 1.52206E-18-2.46528E-18
 -1       650 9.88081E-05-2.95143E-05-2.96977E-05-1.03793E-05 7.87631E-20-1.71768E-18
 -1       651 9.74026E-05-2.80288E-05-2.97309E-05-9.29654E-06-2.38213E-19 1.88092E-19
 -1       652 9.66218E-05-2.73138E-05-2.97023E-05-8.03891E-06 3.26661E-20 7.11423E-19
 -1       653 9.61868E-05-2.70652E-05-2.96224E-05-6.76620E-06-5.42505E-19 4.48875E-19
 -1       654 9.59334E-05-2.70745E-05-2.95099E-05-5.56796E-06-5.51622E-19-9.91281E-19
 -1       655 9.57726E-05-2.72115E-05-2.93825E-05-4.49119E-06-6.56287E-19-1.93459E-18
 -1       656 9.56594E-05-2.73996E-05-2.92535E-05-3.55606E-06-6.17284E-19-1.04629E-18
 -1       657 9.55721E-05-2.75968E-05-2.91318E-05-2.76563E-06-6.31148E-19 2.39250E-19
 -1       658 9.55013E-05-2.77815E-05-2.90224E-05-2.11240E-06-3.21247E-19 7.25490E-19
 -1       659 9.54427E-05-2.79442E-05-2.89276E-05-1.58302E-06 3.98609E-19 1.06004E-19
 -1       660 9.53944E-05-2.80820E-05-2.88479E-05-1.16156E-06 9.86633E-19 1.09830E-18
 -1       661 9.53551E-05-2.81958E-05-2.87824E-05-8.31578E-07 2.12710E-19 1.42732E-18
 -1       662 9.53237E-05-2.82877E-05-2.87296E-05-5.77495E-07 9.74870E-19 2.98106E-18
 -1       663 9.52991E-05-2.83609E-05-2.86877E-05-3.85284E-07 1.66355E-18 2.09868E-18
 -1       664 9.52802E-05-2.84186E-05-2.86549E-05-2.42721E-07 2.70670E-18 1.11360E-18
 -1       665 9.52659E-05-2.84640E-05-2.86294E-05-1.40105E-07 2.32841E-18 2.04638E-18
 -1       666 9.52557E-05-2.85008E-05-2.86092E-05-6.89683E-08 2.14347E-18 3.59172E-19
 -1       667 1.28021E-04-5.96209E-05-2.93857E-05 1.51515E-05 4.52144E-19 3.32435E-18
 -1       668 1.38319E-04-5.25193E-05-3.69671E-05-4.93302E-06-1.77444E-18 4.14819E-18
 -1       669 9.58175E-05-2.71370E-05-2.94333E-05-2.72106E-06 9.88196E-19-2.64930E-19
 -1       670 9.66687E-05-2.80379E-05-2.94126E-05-5.98411E-06 2.06278E-19-1.63743E-19
 -1       671 9.73164E-05-2.84520E-05-2.95130E-05-6.78746E-06 4.10798E-19-2.91230E-19
 -1       672 9.82488E-05-2.91249E-05-2.96246E-05-7.41895E-06 3.37434E-19-1.61381E-19
 -1       673 9.95796E-05-3.02079E-05-2.97314E-05-7.75822E-06 4.04044E-19 1.36244E-19
 -1       674 1.01456E-04-3.18539E-05-2.98313E-05-7.60043E-06 1.47077E-20 5.84699E-19
 -1       675 1.04023E-04-3.41490E-05-2.99490E-05-6.64418E-06-1.08740E-18 7.17593E-19
 -1       676 1.07303E-04-3.69532E-05-3.01535E-05-4.51726E-06-1.37710E-18 4.64655E-19
 -1       677 1.11015E-04-3.96943E-05-3.05736E-05-8.75476E-07-5.48590E-19 9.38028E-19
 -1       678 1.14264E-04-4.10522E-05-3.13876E-05 4.25435E-06-6.18050E-19 2.15178E-18
 -1       679 1.15564E-04-3.91820E-05-3.27438E-05 9.70321E-06 4.32928E-19 3.21393E-18
 -1       680 1.13570E-04-3.30237E-05-3.45576E-05 1.29816E-05 4.64177E-19 3.43284E-18
 -1       681 1.09784E-04-2.49336E-05-3.64127E-05 1.05667E-05 1.39721E-18 2.15687E-18
 -1       682 1.06139E-04-1.91386E-05-3.74345E-05 1.96124E-06 3.00589E-18 9.01683E-19
 -1       683 1.08069E-04-2.19488E-05-3.69630E-05-7.80839E-06 3.84174E-18-7.20124E-19
 -1       684 1.12204E-04-2.96844E-05-3.54281E-05-1.29486E-05 2.92900E-18-2.01678E-18
 -1       685 1.15228E-04-3.71426E-05-3.34943E-05-1.17154E-05 1.00663E-18-1.60994E-18
 -1       686 1.15167E-04-4.07027E-05-3.19286E-05-6.83956E-06-3.56364E-20-1.57725E-18
 -1       687 1.12527E-04-4.03890E-05-3.09244E-05-1.44855E-06-1.12739E-18-2.59343E-18
 -1       688 1.08896E-04-3.80014E-05-3.03885E-05 2.72135E-06-1.17242E-18-2.72960E-18
 -1       689 1.05417E-04-3.51015E-05-3.01385E-05 5.30657E-06-1.23460E-18-1.90869E-18
 -1       690 1.02595E-04-3.25583E-05-3.00180E-05 6.55388E-06 1.17364E-19-1.89831E-18
 -1       691 1.00497E-04-3.06571E-05-2.99323E-05 6.85580E-06 4.76833E-19-1.06311E-18
 -1       692 9.90039E-05-2.93819E-05-2.98382E-05 6.55926E-06 1.37154E-19-5.02972E-21
 -1       693 9.79590E-05-2.86036E-05-2.97234E-05 5.92587E-06 2.16455E-19 9.83918E-20
 -1       694 9.72254E-05-2.81772E-05-2.95914E-05 5.13727E-06-6.49413E-19-9.12449E-19
 -1       695 9.67027E-05-2.79814E-05-2.94513E-05 4.31213E-06-6.82590E-19-1.22663E-18
 -1       696 9.63231E-05-2.79266E-05-2.93121E-05 3.52309E-06-6.04378E-19-9.18332E-19
 -1       697 9.60425E-05-2.79517E-05-2.91811E-05 2.81048E-06 4.22808E-19-7.97281E-19
 -1       698 9.58321E-05-2.80171E-05-2.90630E-05 2.19260E-06 1.53587E-18-1.11849E-18
 -1       699 9.56731E-05-2.80983E-05-2.89602E-05 1.67344E-06-3.05104E-19-1.83637E-18
 -1       700 9.55529E-05-2.81813E-05-2.88732E-05 1.24837E-06-8.74967E-19-6.55011E-19
 -1       701 9.54623E-05-2.82583E-05-2.88014E-05 9.08023E-07-1.61807E-18-1.87026E-18
 -1       702 9.53947E-05-2.83260E-05-2.87435E-05 6.41051E-07 2.11694E-20-3.32467E-18
 -1       703 9.53450E-05-2.83833E-05-2.86977E-05 4.35771E-07 1.37732E-18-2.09071E-18
 -1       704 9.53089E-05-2.84307E-05-2.86620E-05 2.81355E-07 2.34053E-18-1.98013E-18
 -1       705 9.52832E-05-2.84691E-05-2.86345E-05 1.68095E-07 1.41804E-18-2.22561E-19
 -1       706 9.52656E-05-2.85008E-05-2.86134E-05 8.80391E-08 4.14117E-19 1.66669E-18
 -1       707 9.52538E-05-2.85157E-05-2.86020E-05 4.88902E-08 1.14185E-18 2.36064E-19
 -1       708 7.57099E-05-3.72065E-05-1.61337E-05-3.64491E-05 1.96379E-18 3.92965E-18
 -1       709 9.51360E-05-2.83455E-05-2.86245E-05 1.66993E-08 1.59509E-21-3.71599E-18
 -1       710 9.52504E-05-2.85174E-05-2.85999E-05-4.14737E-08 1.16070E-18-2.79709E-18
 -1       711 9.51766E-05-2.83955E-05-2.86204E-05 7.03067E-08 3.18449E-18-3.36039E-18
 -1       712 9.51364E-05-2.83457E-05-2.86246E-05-1.89648E-08-8.59149E-19 1.45614E-19
 -1       713 9.51504E-05-2.83630E-05-2.86232E-05 4.87217E-08 3.16672E-19-3.20308E-18
 -1       714 9.51511E-05-2.83631E-05-2.86234E-05-5.01764E-08-2.07245E-18 2.52615E-18
 -1       715 9.51778E-05-2.83959E-05-2.86208E-05-7.14140E-08-1.54333E-18-9.06200E-19
 -1       716 9.52101E-05-2.84385E-05-2.86164E-05-7.73133E-08-1.72033E-18-2.55830E-18
 -1       717 9.57729E-05-2.65608E-05-2.96598E-05-1.10779E-06 1.63268E-18-2.04232E-19
 -1       718 3.79771E-05-1.42342E-05-9.63074E-06 1.51520E-05 1.89898E-18-4.93847E-18
 -1       719 5.08122E-05-1.91867E-05-1.30893E-05-2.37649E-05 8.12278E-19 6.38231E-18
 -1       720 1.33645E-04-3.49146E-05-4.27948E-05-1.49781E-05-3.13447E-18 2.92515E-18
 -1       721 1.16474E-04-1.35389E-05-4.45546E-05-7.77605E-06 5.51683E-18-9.44455E-19
 -1       722 9.62304E-05-2.77533E-05-2.93466E-05-5.05754E-06 5.09921E-19-4.74918E-20
 -1       723 9.59563E-05-2.74883E-05-2.93425E-05-3.99393E-06 8.69112E-19-3.35983E-19
 -1       724 9.53034E-05-2.37497E-05-3.06643E-05-2.61173E-06-1.48080E-18-1.47329E-18
 -1       725 9.13749E-05-1.65994E-05-3.20522E-05 3.05011E-06 1.67807E-18-2.50175E-18
 -1       726 1.08489E-04-5.44751E-05-2.29980E-05-3.05771E-05 2.97759E-18 1.20712E-19
 -1       727 1.36917E-04-4.56097E-05-3.94256E-05-7.20669E-06 2.79247E-18-3.13580E-18
 -1       728 9.13074E-05-1.65019E-05-3.20650E-05-3.01407E-06-8.79902E-19-2.66251E-18
 -1       729 1.30657E-04-3.24423E-05-4.24657E-05 1.35756E-05 2.56418E-18 3.96229E-18
 -1       730 1.33689E-04-5.93280E-05-3.19151E-05-7.44682E-06 1.53645E-18-9.12546E-19
 -1       731 6.20388E-05-2.91542E-05-1.36455E-05 3.40691E-05 2.63276E-18-1.28858E-18
 -1       732 1.34278E-04-5.08098E-05-3.59311E-05 3.86862E-06 2.29202E-19 4.04817E-18
 -1       733 9.46069E-05-4.68990E-05-2.01792E-05-3.53226E-05-3.75169E-18-1.99043E-18
 -1       734 1.32976E-04-5.80811E-05-3.21798E-05 1.03008E-05-1.64721E-19-3.70781E-18
 -1       735 3.94565E-05-1.24999E-05-1.10025E-05-1.02317E-05 2.89249E-20-5.50005E-18
 -1       736 9.77829E-05-4.86050E-05-2.08144E-05 3.38772E-05 2.71495E-18 4.85098E-19
 -1       737 7.96491E-05-3.98305E-05-1.67306E-05 3.81249E-05-4.62991E-18 2.36277E-18
 -1       738 1.22627E-04-5.79239E-05-2.77105E-05-1.91212E-05-3.61397E-18-5.79198E-19
 -1       739 1.27610E-04-2.67438E-05-4.36921E-05-1.46011E-05 4.64976E-18-1.56270E-18
 -1       740 1.18268E-04-1.35765E-05-4.53273E-05 8.33633E-06 5.34758E-18 2.01479E-18
 -1       741 9.24624E-05-1.80934E-05-3.18761E-05-4.12059E-06-1.35512E-18-2.44616E-18
 -1       742 9.01509E-05-1.49937E-05-3.22152E-05-6.05195E-07 1.71384E-19-2.72441E-18
 -1       743 1.18401E-04-2.35775E-05-4.08793E-05 1.34487E-05 2.96701E-18 2.81268E-18
 -1       744 1.14919E-04-5.37281E-05-2.61444E-05 2.12743E-05 1.91794E-18 2.17937E-18
 -1       745 1.24074E-04-2.18171E-05-4.43157E-05-1.47166E-05-4.46797E-18 2.50920E-18
 -1       746 9.52086E-05-2.84379E-05-2.86160E-05 7.70116E-08 3.73693E-18 3.86850E-18
 -1       747 9.52348E-05-2.84786E-05-2.86098E-05 6.78105E-08 1.07594E-18 8.20513E-19
 -1       748 9.52406E-05-2.84844E-05-2.86097E-05-6.71150E-08-4.65639E-19-1.57790E-18
 -1       749 4.71274E-05-1.29314E-05-1.42798E-05-9.73162E-06-1.16429E-18 6.17871E-18
 -1       750 5.42606E-05-1.85012E-05-1.49980E-05-2.15701E-05-9.90016E-19-4.04707E-18
 -1       751 9.05321E-05-1.54821E-05-3.21695E-05-1.81822E-06-3.73476E-19-2.79611E-18
 -1       752 1.00468E-04-4.65172E-05-2.29751E-05 2.85470E-05-3.34233E-18-1.06745E-18
 -1       753 9.43439E-05-2.18677E-05-3.10602E-05 2.46240E-06 1.98101E-18-1.20532E-18
 -1       754 9.51422E-05-2.52192E-05-2.99667E-05 2.04032E-06-1.11542E-18-1.43581E-18
 -1       755 9.49640E-05-2.56966E-05-2.96859E-05 3.56346E-06-9.85313E-19-1.12482E-18
 -1       756 9.46192E-05-2.58206E-05-2.94850E-05 4.90379E-06-6.52224E-19-1.14231E-18
 -1       757 9.41686E-05-2.57355E-05-2.93283E-05 6.16520E-06-3.04598E-20-1.08693E-18
 -1       758 9.36662E-05-2.55811E-05-2.91791E-05 7.42996E-06 4.48889E-19-1.01676E-18
 -1       759 9.31922E-05-2.55263E-05-2.89993E-05 8.76399E-06 4.97198E-19-6.19846E-19
 -1       760 9.28902E-05-2.58027E-05-2.87515E-05 1.02222E-05 5.35168E-20-7.68804E-19
 -1       761 9.30216E-05-2.67448E-05-2.84050E-05 1.18519E-05 3.53199E-19-1.38885E-19
 -1       762 9.40457E-05-2.88309E-05-2.79508E-05 1.36698E-05 4.60849E-19-4.40377E-19
 -1       763 9.66976E-05-3.26780E-05-2.74416E-05 1.55650E-05 7.22378E-19-4.70674E-19
 -1       764 1.02093E-04-3.88503E-05-2.70661E-05 1.71439E-05 1.18353E-18 3.14772E-19
 -1       765 1.25579E-04-5.56740E-05-2.98412E-05 9.19658E-06 7.91413E-19 3.92724E-18
 -1       766 1.22544E-04-5.41702E-05-2.92713E-05-1.09482E-05 2.95333E-18-1.55554E-18
 -1       767 1.10006E-04-4.54351E-05-2.76494E-05-1.51336E-05 3.04251E-18-1.17470E-18
 -1       768 1.01611E-04-3.74168E-05-2.74951E-05-1.54585E-05 2.03383E-18-1.89037E-19
 -1       769 9.67373E-05-3.17280E-05-2.78599E-05-1.41291E-05 8.68624E-19-1.50794E-18
 -1       770 9.42943E-05-2.82531E-05-2.83029E-05-1.23527E-05 1.24284E-18-2.13072E-18
 -1       771 9.32919E-05-2.63874E-05-2.86730E-05-1.05801E-05 4.07255E-19-8.71657E-19
 -1       772 9.30757E-05-2.55743E-05-2.89287E-05-8.94298E-06-1.34248E-19-9.53609E-19
 -1       773 9.32390E-05-2.53923E-05-2.90767E-05-7.46809E-06-2.07195E-19-1.05370E-18
 -1       774 9.35516E-05-2.55575E-05-2.91399E-05-6.15606E-06-7.93588E-19-1.33919E-18
 -1       775 9.38932E-05-2.58906E-05-2.91436E-05-5.00369E-06-9.77927E-19-3.22718E-19
 -1       776 9.42073E-05-2.62843E-05-2.91096E-05-4.00682E-06-5.75495E-19-1.21739E-18
 -1       777 9.44722E-05-2.66781E-05-2.90544E-05-3.15895E-06 2.91329E-20-1.05447E-18
 -1       778 9.46842E-05-2.70405E-05-2.89900E-05-2.45021E-06-1.22293E-20-6.12740E-19
 -1       779 9.48476E-05-2.73574E-05-2.89242E-05-1.86780E-06 5.32715E-19 6.79565E-19
 -1       780 9.49700E-05-2.76253E-05-2.88619E-05-1.39706E-06 1.05843E-18 2.19088E-18
 -1       781 9.50595E-05-2.78459E-05-2.88057E-05-1.02276E-06 8.09939E-19 3.18040E-18
 -1       782 9.51233E-05-2.80240E-05-2.87568E-05-7.29974E-07 1.33062E-18 4.50850E-18
 -1       783 9.51675E-05-2.81653E-05-2.87152E-05-5.04820E-07 1.06746E-18 2.72610E-18
 -1       784 9.51972E-05-2.82761E-05-2.86804E-05-3.35127E-07 8.58517E-19 4.20239E-18
 -1       785 9.52154E-05-2.83618E-05-2.86516E-05-2.09887E-07 2.19292E-18 1.28439E-18
 -1       786 4.89628E-05-1.27153E-05-1.52071E-05 5.05159E-06 1.09049E-18-4.18715E-18
 -1       787 9.55187E-05-2.64098E-05-2.96179E-05-3.29143E-06 9.55959E-19-4.43237E-19
 -1       788 9.55400E-05-2.72400E-05-2.92712E-05-6.77480E-06 4.29439E-19-5.45420E-19
 -1       789 9.78168E-05-3.00621E-05-2.90376E-05-9.31849E-06-4.30226E-19-3.38826E-19
 -1       790 9.99951E-05-3.24378E-05-2.89529E-05-9.60267E-06-6.80156E-19-3.03623E-19
 -1       791 1.03414E-04-3.58593E-05-2.89520E-05-9.11424E-06-1.04174E-18-4.13346E-19
 -1       792 1.08261E-04-4.01340E-05-2.91926E-05-7.32761E-06-1.58891E-18 1.06533E-20
 -1       793 1.14127E-04-4.41880E-05-2.99675E-05-3.31745E-06-1.69505E-18 1.24418E-18
 -1       794 1.19837E-04-4.60230E-05-3.16411E-05 3.22685E-06-9.11999E-19 2.63198E-18
 -1       795 1.21985E-04-4.17377E-05-3.45278E-05 1.02080E-05 3.26174E-20 3.29375E-18
 -1       796 1.20847E-04-3.73029E-05-3.59019E-05-1.31452E-05 1.00055E-18-1.99347E-18
 -1       797 1.20669E-04-4.44750E-05-3.26883E-05-6.81326E-06 2.96601E-19-1.62826E-18
 -1       798 1.16342E-04-4.48616E-05-3.06394E-05 2.04131E-07-6.77578E-19-7.94443E-19
 -1       799 1.10563E-04-4.15202E-05-2.95907E-05 5.06241E-06-4.76610E-19-1.53128E-18
 -1       800 1.05312E-04-3.72148E-05-2.91849E-05 7.65082E-06-1.47363E-18-2.95099E-18
 -1       801 1.01363E-04-3.34510E-05-2.91059E-05 8.57264E-06-5.99226E-19-2.79409E-18
 -1       802 9.86957E-05-3.06759E-05-2.91517E-05 8.50228E-06-8.00899E-19-1.56015E-18
 -1       803 9.70282E-05-2.88546E-05-2.92173E-05 7.88985E-06-4.54401E-19-2.79734E-19
 -1       804 9.60540E-05-2.77861E-05-2.92575E-05 7.01431E-06 4.11463E-20-1.94225E-20
 -1       805 9.55232E-05-2.72485E-05-2.92603E-05 6.04277E-06 4.52229E-19 2.40576E-20
 -1       806 9.52590E-05-2.70561E-05-2.92295E-05 5.07412E-06-5.22107E-19-1.03528E-18
 -1       807 9.51463E-05-2.70718E-05-2.91745E-05 4.16622E-06-7.04075E-19-2.30442E-18
 -1       808 9.51140E-05-2.72010E-05-2.91053E-05 3.35094E-06 5.27286E-20-2.00698E-18
 -1       809 9.51204E-05-2.73820E-05-2.90305E-05 2.64257E-06 5.80601E-19-8.61499E-19
 -1       810 9.51423E-05-2.75769E-05-2.89564E-05 2.04348E-06 7.96980E-19-1.11141E-18
 -1       811 9.51676E-05-2.77636E-05-2.88873E-05 1.54842E-06-6.20780E-19-1.62668E-18
 -1       812 9.51905E-05-2.79311E-05-2.88254E-05 1.14771E-06-1.49880E-18-2.39618E-18
 -1       813 9.52089E-05-2.80747E-05-2.87717E-05 8.29594E-07-1.16901E-18-1.13706E-18
 -1       814 9.52224E-05-2.81940E-05-2.87264E-05 5.81729E-07-3.83522E-19 1.92752E-19
 -1       815 9.52315E-05-2.82908E-05-2.86888E-05 3.92233E-07 1.62664E-18 2.38111E-18
 -1       816 9.52369E-05-2.83679E-05-2.86581E-05 2.51320E-07 1.67231E-18 3.84041E-18
 -1       817 9.52395E-05-2.84288E-05-2.86331E-05 1.48962E-07 9.39926E-19 2.90453E-18
 -1       818 9.52359E-05-2.84539E-05-2.86210E-05 1.03176E-07 2.05081E-18 1.32647E-18
 -1       819 9.50867E-05-2.82523E-05-2.86433E-05-5.54679E-08-7.92465E-19 6.57157E-19
 -1       820 9.51191E-05-2.82891E-05-2.86415E-05-1.00003E-07-2.40182E-18 1.85965E-18
 -1       821 9.50750E-05-2.82394E-05-2.86438E-05-7.22349E-10-2.63589E-19-2.93111E-18
 -1       822 7.88076E-05-3.34477E-05-1.92536E-05-3.08998E-05-3.15723E-18-2.25472E-18
 -1       823 8.29949E-05-3.54692E-05-2.01344E-05 2.98912E-05 2.00888E-18-7.61933E-19
 -1       824 9.54468E-05-2.69779E-05-2.93436E-05-5.72257E-06 2.94561E-19-3.83906E-19
 -1       825 9.65345E-05-2.85647E-05-2.91297E-05-8.63784E-06 1.38444E-19-7.65262E-19
 -1       826 9.58506E-05-2.77025E-05-2.92061E-05-7.75708E-06 2.24783E-19-8.20445E-19
 -1       827 1.31155E-04-5.15754E-05-3.42351E-05-2.20357E-06-2.16966E-19-2.55651E-18
 -1       828 7.13248E-05-2.83203E-05-1.81743E-05-2.83110E-05 1.58637E-18 2.42562E-18
 -1       829 9.52522E-05-2.38488E-05-3.06010E-05 1.86731E-06 2.07803E-18-6.01845E-19
 -1       830 1.08575E-04-4.97085E-05-2.51401E-05-2.35042E-05-3.58667E-18-1.70864E-18
 -1       831 7.26372E-05-2.95410E-05-1.82421E-05 2.98191E-05-4.88364E-18 3.82912E-18
 -1       832 9.51078E-05-2.42577E-05-3.03626E-05 2.19013E-07-1.11184E-18-1.75162E-18
 -1       833 9.54660E-05-2.67507E-05-2.94492E-05-4.58179E-06 3.44897E-19-6.09981E-19
 -1       834 9.35656E-05-1.97920E-05-3.16169E-05-4.70783E-06-1.64415E-18-2.02975E-18
 -1       835 1.26928E-04-3.85032E-05-3.81049E-05-1.30742E-05 2.05562E-18-2.32133E-18
 -1       836 1.22868E-04-5.61264E-05-2.86010E-05 1.45095E-05-1.77031E-18-3.19056E-18
 -1       837 4.81444E-05-1.33081E-05-1.45794E-05 1.14994E-05-3.19379E-18 5.32778E-18
 -1       838 1.25288E-04-3.97567E-05-3.68203E-05 1.27833E-05 5.15109E-19 3.46483E-18
 -1       839 9.51653E-05-2.83439E-05-2.86378E-05-1.25640E-07-2.39701E-18-2.43182E-18
 -1       840 9.62799E-05-4.33720E-05-2.25292E-05-2.83054E-05 2.77586E-18 1.63630E-19
 -1       841 5.92981E-05-2.01792E-05-1.64721E-05 2.23324E-05 2.38895E-18-2.18979E-18
 -1       842 1.25926E-04-5.29109E-05-3.12967E-05-2.82646E-06-1.76318E-18 2.67027E-18
 -1       843 9.17463E-05-1.79625E-05-3.16226E-05 6.99257E-07 8.20360E-19-2.73737E-18
 -1       844 1.17906E-04-2.81209E-05-3.86835E-05-1.43997E-05 3.40793E-18-2.76266E-18
 -1       845 9.15287E-05-1.76725E-05-3.16537E-05-1.83784E-08 2.84139E-19-2.23008E-18
 -1       846 9.31861E-05-1.99832E-05-3.13721E-05-2.04052E-06-9.40329E-19-2.17574E-18
 -1       847 9.32666E-05-2.01082E-05-3.13531E-05 2.02945E-06 1.63940E-18-2.05120E-18
 -1       848 9.51638E-05-2.83438E-05-2.86371E-05 1.25029E-07-1.93805E-20-1.16602E-18
 -1       849 9.23428E-05-1.87789E-05-3.15282E-05 1.39748E-06 1.26260E-18-2.19716E-18
 -1       850 9.22692E-05-1.86777E-05-3.15400E-05-1.40974E-06-5.56645E-19-2.34691E-18
 -1       851 5.38073E-05-1.36888E-05-1.70068E-05-7.23971E-06-5.30405E-20-4.09247E-18
 -1       852 9.52272E-05-2.84290E-05-2.86277E-05-1.20539E-07-2.83434E-19-7.98755E-19
 -1       853 9.55288E-05-2.57956E-05-2.98853E-05-1.75378E-06 1.36399E-18-2.80473E-19
 -1       854 9.50863E-05-2.82525E-05-2.86431E-05 5.41468E-08-2.32204E-19-3.58105E-18
 -1       855 9.51179E-05-2.82890E-05-2.86410E-05 9.85727E-08-2.40388E-20-3.83754E-18
 -1       856 9.54723E-05-2.50401E-05-3.01854E-05-1.33302E-07 1.71759E-18-5.07794E-19
 -1       857 9.45026E-05-2.20596E-05-3.10461E-05-2.69076E-06-1.39560E-18-1.89668E-18
 -1       858 6.30329E-05-1.97755E-05-1.84006E-05 2.00672E-05-4.62366E-18 3.94840E-18
 -1       859 6.11805E-05-1.93257E-05-1.77267E-05-1.96336E-05-1.07467E-20 4.80056E-18
 -1       860 9.39120E-05-2.47477E-05-2.96419E-05 3.61689E-06-5.97809E-19-1.18318E-18
 -1       861 9.31891E-05-2.46979E-05-2.93534E-05 4.78081E-06-3.99150E-19-6.57139E-19
 -1       862 9.22402E-05-2.44125E-05-2.90690E-05 5.92089E-06 1.39918E-19-7.60115E-19
 -1       863 9.11165E-05-2.40407E-05-2.87467E-05 7.12428E-06 6.20628E-19-1.15946E-18
 -1       864 8.98895E-05-2.37629E-05-2.83398E-05 8.49251E-06 4.05411E-19-1.32410E-18
 -1       865 8.86837E-05-2.38215E-05-2.77982E-05 1.01653E-05 4.51060E-19-9.35456E-19
 -1       866 8.77290E-05-2.45648E-05-2.70733E-05 1.23471E-05 2.92915E-19-1.18712E-18
 -1       867 8.74800E-05-2.65513E-05-2.61184E-05 1.53519E-05 8.53290E-19-8.35641E-19
 -1       868 8.89546E-05-3.05964E-05-2.49557E-05 1.92173E-05 1.53897E-18-1.41560E-19
 -1       869 1.25613E-04-4.79356E-05-3.33631E-05-5.33675E-06-2.16956E-19-2.58643E-18
 -1       870 7.55648E-05-2.62780E-05-2.10049E-05 2.27871E-05 2.03031E-18-1.30682E-18
 -1       871 9.37328E-05-3.64122E-05-2.45010E-05-2.20613E-05 2.53195E-18-1.13588E-18
 -1       872 8.94063E-05-2.97384E-05-2.55566E-05-1.76150E-05 1.32768E-18-1.22402E-18
 -1       873 8.80482E-05-2.60473E-05-2.65713E-05-1.40340E-05 3.51077E-19-2.62387E-19
 -1       874 8.80982E-05-2.41974E-05-2.73859E-05-1.12463E-05 1.37729E-18-8.80487E-19
 -1       875 8.88130E-05-2.35141E-05-2.79851E-05-9.13282E-06 4.13025E-19-1.43507E-18
 -1       876 8.97707E-05-2.35096E-05-2.83975E-05-7.47340E-06-4.48713E-19-1.30825E-18
 -1       877 9.07568E-05-2.38774E-05-2.86624E-05-6.12058E-06-3.81082E-19-1.14295E-18
 -1       878 9.16659E-05-2.44234E-05-2.88182E-05-4.98723E-06-9.10562E-19-3.52460E-19
 -1       879 9.24549E-05-2.50297E-05-2.88965E-05-4.02575E-06-1.43802E-18 2.57293E-20
 -1       880 9.31125E-05-2.56264E-05-2.89226E-05-3.21026E-06 3.33846E-19 1.20868E-18
 -1       881 9.36447E-05-2.61752E-05-2.89155E-05-2.52408E-06 3.53303E-19 1.71305E-18
 -1       882 9.40652E-05-2.66579E-05-2.88888E-05-1.95353E-06 6.30334E-19 3.12565E-18
 -1       883 9.43910E-05-2.70690E-05-2.88523E-05-1.48584E-06 9.60277E-19 2.00281E-18
 -1       884 9.46388E-05-2.74106E-05-2.88121E-05-1.10829E-06 2.02009E-18 2.14854E-18
 -1       885 9.48238E-05-2.76887E-05-2.87722E-05-8.08453E-07 1.43181E-18 1.98207E-18
 -1       886 9.49589E-05-2.79110E-05-2.87348E-05-5.74272E-07 4.76007E-19 2.71709E-18
 -1       887 9.50559E-05-2.80866E-05-2.87012E-05-3.94517E-07 9.48459E-19 2.02086E-18
 -1       888 9.51230E-05-2.82232E-05-2.86714E-05-2.58975E-07 2.63596E-19 1.22004E-18
 -1       889 9.47727E-05-2.56016E-05-2.96449E-05-3.62808E-06 8.08904E-19-1.17236E-18
 -1       890 9.52199E-05-2.95753E-05-2.81322E-05-1.10464E-05-3.62149E-19-2.79049E-19
 -1       891 1.08268E-04-4.34243E-05-2.78881E-05-1.24112E-05-2.45705E-18 9.29850E-20
 -1       892 1.04314E-04-3.93135E-05-2.78433E-05 1.20298E-05-8.32851E-19-1.63864E-18
 -1       893 9.91042E-05-3.40669E-05-2.78698E-05 1.17900E-05-1.53955E-18-2.30602E-19
 -1       894 9.59410E-05-3.03534E-05-2.81081E-05 1.07124E-05-1.71578E-18 2.13128E-18
 -1       895 9.42261E-05-2.79957E-05-2.83843E-05 9.36425E-06-7.01060E-19 1.93944E-18
 -1       896 9.34426E-05-2.66625E-05-2.86200E-05 8.00283E-06-3.03022E-19 8.67440E-19
 -1       897 9.32171E-05-2.60390E-05-2.87905E-05 6.72931E-06 3.67109E-19 1.13180E-19
 -1       898 9.32973E-05-2.58715E-05-2.88967E-05 5.57721E-06 4.10759E-19-4.30057E-19
 -1       899 9.35262E-05-2.59777E-05-2.89493E-05 4.55593E-06 2.11437E-19-1.08625E-18
 -1       900 9.38098E-05-2.62324E-05-2.89617E-05 3.66637E-06-8.69498E-19-1.75675E-18
 -1       901 9.40945E-05-2.65524E-05-2.89466E-05 2.90516E-06-7.02559E-20-1.54220E-18
 -1       902 9.43527E-05-2.68852E-05-2.89146E-05 2.26468E-06 2.46393E-19-5.56713E-19
 -1       903 9.45728E-05-2.72004E-05-2.88738E-05 1.73496E-06-4.91489E-20 1.05605E-18
 -1       904 9.47521E-05-2.74819E-05-2.88301E-05 1.30401E-06-1.41273E-18 1.76829E-18
 -1       905 9.48933E-05-2.77234E-05-2.87871E-05 9.59265E-07-1.37030E-18 6.82911E-19
 -1       906 9.50008E-05-2.79242E-05-2.87471E-05 6.88209E-07-7.48075E-19-1.66698E-18
 -1       907 9.50805E-05-2.80876E-05-2.87112E-05 4.78766E-07-1.33985E-18-1.14314E-18
 -1       908 9.51368E-05-2.82178E-05-2.86797E-05 3.19348E-07-1.13434E-18-2.06439E-19
 -1       909 9.51759E-05-2.83192E-05-2.86528E-05 2.02178E-07 4.65681E-19 2.58850E-18
 -1       910 9.52037E-05-2.84011E-05-2.86297E-05 1.20477E-07 2.22237E-18 5.41253E-18
 -1       911 9.50298E-05-2.81496E-05-2.86630E-05-1.18664E-07-7.75831E-19 1.62312E-19
 -1       912 9.49978E-05-2.81157E-05-2.86638E-05-4.26438E-08-1.07079E-18-3.25045E-19
 -1       913 6.90376E-05-2.32682E-05-1.94844E-05-2.26546E-05-1.45259E-18-1.64078E-18
 -1       914 1.21554E-04-5.22096E-05-2.96948E-05 7.48435E-06-1.13441E-18-1.84102E-18
 -1       915 9.72136E-05-4.26831E-05-2.32151E-05 2.62713E-05 2.25997E-18 5.34666E-19
 -1       916 8.90423E-05-3.51509E-05-2.30351E-05 2.41311E-05-2.97197E-18 1.69170E-18
 -1       917 9.40938E-05-2.77101E-05-2.84498E-05-9.71173E-06-1.40651E-19-3.05738E-19
 -1       918 9.44600E-05-2.58633E-05-2.93985E-05-4.85742E-06 1.85745E-19-1.29963E-18
 -1       919 9.48774E-05-2.35350E-05-3.05753E-05 5.22304E-07 1.66802E-18-1.01550E-18
 -1       920 1.07000E-04-4.70332E-05-2.56412E-05 2.05572E-05-1.81564E-18-1.14091E-18
 -1       921 9.44479E-05-2.35708E-05-3.03770E-05 8.78495E-07-9.19963E-19-1.75045E-18
 -1       922 9.41027E-05-2.60088E-05-2.91830E-05-6.02330E-06 1.53689E-19-1.03987E-18
 -1       923 5.58874E-05-1.29781E-05-1.82345E-05 3.16550E-08-2.70956E-18 4.41757E-18
 -1       924 1.01920E-04-3.73116E-05-2.76972E-05-1.28639E-05-1.78811E-18-1.75756E-19
 -1       925 9.75580E-05-3.26395E-05-2.78207E-05-1.22938E-05-9.34071E-19-2.45142E-19
 -1       926 9.17045E-05-1.79096E-05-3.16275E-05-7.22735E-07-1.04563E-19-2.36072E-18
 -1       927 9.43584E-05-2.44234E-05-2.99721E-05 2.35547E-06-6.80271E-19-1.58296E-18
 -1       928 8.54662E-05-3.27005E-05-2.25228E-05-2.40354E-05 2.34610E-18 5.34226E-20
 -1       929 9.50895E-05-2.82139E-05-2.86608E-05-1.76498E-07-2.10491E-18-1.43614E-18
 -1       930 9.42483E-05-3.80691E-05-2.39818E-05-2.35693E-05-2.62891E-18-1.80687E-18
 -1       931 6.09031E-05-1.63936E-05-1.89266E-05 1.23842E-05 1.96982E-18-2.49720E-18
 -1       932 1.15187E-04-4.83612E-05-2.85806E-05-1.04134E-05-2.85801E-18 8.39803E-19
 -1       933 8.61410E-05-3.23981E-05-2.29562E-05 2.35428E-05 1.93253E-18 1.36650E-19
 -1       934 9.35955E-05-2.14321E-05-3.09306E-05-4.73907E-07-7.57660E-19-2.08908E-18
 -1       935 9.29135E-05-2.04339E-05-3.10625E-05 2.53250E-07 9.34807E-19-2.24666E-18
 -1       936 9.25082E-05-1.98836E-05-3.11250E-05 5.10093E-08 6.35681E-19-1.91881E-18
 -1       937 6.26632E-05-1.56389E-05-2.00524E-05-9.57369E-06-6.61670E-19 3.58634E-18
 -1       938 1.18992E-04-4.82528E-05-3.02886E-05 2.86320E-06-9.74195E-19-8.73346E-19
 -1       939 6.02011E-05-1.43649E-05-1.95531E-05 2.59469E-06 1.04097E-18-2.43777E-18
 -1       940 9.49431E-05-2.50420E-05-2.99549E-05-2.26413E-06 1.11260E-18-1.14555E-18
 -1       941 9.38108E-05-2.62170E-05-2.89686E-05-7.19370E-06 2.43556E-19-4.05347E-19
 -1       942 9.49976E-05-2.81163E-05-2.86635E-05 4.08454E-08-2.69509E-19-4.82545E-18
 -1       943 7.90889E-05-2.65962E-05-2.24014E-05 2.08704E-05-3.57968E-18 4.71120E-18
 -1       944 6.29681E-05-1.56480E-05-2.01963E-05 9.70417E-06-3.06712E-18 3.56398E-18
 -1       945 9.37339E-05-2.66972E-05-2.87297E-05-8.41631E-06 2.08009E-19-1.82051E-19
 -1       946 1.11946E-04-4.57248E-05-2.83926E-05 1.03217E-05-9.02079E-19-1.66626E-18
 -1       947 7.54071E-05-2.47816E-05-2.15963E-05-2.08868E-05 1.85362E-18 1.31266E-18
 -1       948 9.50889E-05-2.82164E-05-2.86597E-05 1.74412E-07-1.02384E-18-3.24295E-18
 -1       949 9.36323E-05-2.14540E-05-3.09329E-05 4.48964E-07 1.28991E-18-1.81425E-18
 -1       950 9.34230E-05-2.37361E-05-2.98669E-05 2.23455E-06-3.20816E-19-1.08421E-18
 -1       951 9.15124E-05-2.35901E-05-2.91098E-05 4.06642E-06 6.47396E-20-8.32719E-19
 -1       952 9.00314E-05-2.30731E-05-2.86967E-05 4.96403E-06 2.12157E-19-9.70953E-19
 -1       953 8.82271E-05-2.24359E-05-2.81965E-05 5.96392E-06 3.22063E-19-1.05491E-18
 -1       954 8.61060E-05-2.18288E-05-2.75474E-05 7.19676E-06 7.18242E-19-1.00963E-18
 -1       955 8.36683E-05-2.14318E-05-2.66731E-05 8.88935E-06 2.85223E-19-1.21801E-18
 -1       956 8.10129E-05-2.15151E-05-2.55006E-05 1.13830E-05 9.36542E-19-7.69897E-19
 -1       957 7.78972E-05-2.23137E-05-2.37697E-05 1.52885E-05 1.75317E-18-9.24284E-19
 -1       958 9.24927E-05-1.98633E-05-3.11261E-05-1.64182E-07 1.69146E-19-2.08382E-18
 -1       959 7.92608E-05-2.22885E-05-2.44056E-05-1.42240E-05 1.41921E-18-6.18432E-19
 -1       960 8.16533E-05-2.12694E-05-2.58767E-05-1.06404E-05 5.44339E-19-1.02710E-19
 -1       961 8.39076E-05-2.11315E-05-2.69040E-05-8.23648E-06 1.61652E-19-7.05972E-19
 -1       962 8.59512E-05-2.15011E-05-2.76219E-05-6.56386E-06-3.04838E-19-1.83732E-18
 -1       963 8.77437E-05-2.21530E-05-2.81104E-05-5.32119E-06-2.27818E-19-1.03107E-18
 -1       964 8.92752E-05-2.29334E-05-2.84323E-05-4.33975E-06-2.23285E-19-1.29491E-18
 -1       965 9.05616E-05-2.37489E-05-2.86341E-05-3.52970E-06 4.15614E-20 4.25145E-19
 -1       966 9.16233E-05-2.45383E-05-2.87508E-05-2.84766E-06-2.72240E-19 1.43983E-18
 -1       967 9.24848E-05-2.52645E-05-2.88088E-05-2.27058E-06 2.54674E-19 1.03277E-18
 -1       968 9.31724E-05-2.59070E-05-2.88281E-05-1.78435E-06 1.25931E-18 8.99347E-19
 -1       969 9.37135E-05-2.64600E-05-2.88230E-05-1.37929E-06 6.69238E-19 6.20532E-19
 -1       970 9.41326E-05-2.69243E-05-2.88036E-05-1.04658E-06 1.26941E-18 2.44952E-18
 -1       971 9.44525E-05-2.73068E-05-2.87767E-05-7.77847E-07 8.25798E-19 2.02268E-18
 -1       972 9.46920E-05-2.76160E-05-2.87469E-05-5.64726E-07 1.15364E-18 9.56381E-19
 -1       973 9.48672E-05-2.78612E-05-2.87169E-05-3.99322E-07-1.45892E-19 4.33190E-19
 -1       974 9.49931E-05-2.80538E-05-2.86883E-05-2.72210E-07-8.15813E-20-1.50128E-18
 -1       975 9.37107E-05-2.47654E-05-2.95481E-05-3.62430E-06 6.28279E-19-1.21524E-18
 -1       976 9.03953E-05-2.65546E-05-2.73606E-05 1.07675E-05-1.40247E-18 1.84306E-18
 -1       977 9.16408E-05-2.91586E-05-2.67739E-05 1.32631E-05-3.29413E-18 1.71495E-18
 -1       978 9.46371E-05-3.35386E-05-2.61792E-05 1.60796E-05-3.10285E-18 9.62303E-19
 -1       979 9.01338E-05-2.51526E-05-2.78495E-05 8.71279E-06 2.18831E-20 2.17694E-18
 -1       980 9.04277E-05-2.45773E-05-2.82219E-05 7.04783E-06 6.99493E-19 1.10243E-18
 -1       981 9.09786E-05-2.45086E-05-2.84874E-05 5.69477E-06 1.13315E-18 9.36159E-20
 -1       982 9.16276E-05-2.47464E-05-2.86635E-05 4.58051E-06 8.65852E-19-7.28600E-19
 -1       983 9.22772E-05-2.51477E-05-2.87699E-05 3.65740E-06-3.85991E-19-1.46203E-18
 -1       984 9.28772E-05-2.56206E-05-2.88244E-05 2.89176E-06-7.46932E-19-1.57875E-18
 -1       985 9.34004E-05-2.61008E-05-2.88427E-05 2.25933E-06-1.47843E-18-4.90168E-19
 -1       986 9.38407E-05-2.65541E-05-2.88371E-05 1.74068E-06 1.88516E-19-1.25798E-19
 -1       987 9.41989E-05-2.69588E-05-2.88172E-05 1.31989E-06-5.53827E-19-8.02775E-19
 -1       988 9.44833E-05-2.73079E-05-2.87895E-05 9.82451E-07-1.62074E-18-1.29630E-18
 -1       989 9.47033E-05-2.76001E-05-2.87586E-05 7.15953E-07 5.70978E-20-1.39575E-18
 -1       990 9.48693E-05-2.78387E-05-2.87274E-05 5.09292E-07-1.29642E-18-4.56407E-19
 -1       991 9.49912E-05-2.80298E-05-2.86976E-05 3.50619E-07-5.61690E-19-1.79449E-18
 -1       992 9.50313E-05-2.81525E-05-2.86623E-05 1.17839E-07-1.65421E-19-3.57795E-18
 -1       993 9.49050E-05-2.79739E-05-2.86847E-05-1.19159E-07 6.46642E-19 6.50376E-19
 -1       994 9.50226E-05-2.44680E-05-3.02384E-05-9.99955E-07 1.37478E-18-1.00820E-18
 -1       995 6.55692E-05-1.73471E-05-2.05910E-05-1.18835E-05-7.19826E-19-2.54330E-18
 -1       996 9.30617E-05-2.48762E-05-2.92224E-05-4.73695E-06 9.13001E-23-1.28112E-18
 -1       997 7.27288E-05-2.05747E-05-2.22957E-05 1.48833E-05 1.69045E-18-2.02307E-18
 -1       998 9.06392E-05-2.63002E-05-2.75746E-05-1.05440E-05 1.09247E-19-5.76010E-19
 -1       999 9.37907E-05-2.31158E-05-3.02868E-05 1.18400E-06-6.31003E-19-1.42364E-18
 -1      1000 8.14774E-05-2.70641E-05-2.32490E-05-1.94535E-05-1.23681E-18-1.02465E-18
 -1      1001 9.28587E-05-2.03632E-05-3.10689E-05-3.41926E-07-2.34524E-19-1.97953E-18
 -1      1002 9.26541E-05-2.38525E-05-2.94864E-05 3.18395E-06-3.51476E-19-9.88345E-19
 -1      1003 8.31811E-05-2.88072E-05-2.32411E-05-2.09420E-05 2.03878E-18 1.24120E-19
 -1      1004 9.93883E-05-3.89043E-05-2.59059E-05 1.81252E-05-1.35168E-18-3.62336E-19
 -1      1005 9.41322E-05-2.43568E-05-2.99044E-05-2.47038E-06 8.04217E-19-1.34673E-18
 -1      1006 6.34831E-05-1.44697E-05-2.09269E-05 4.69698E-08-1.30505E-18 3.64815E-18
 -1      1007 6.94968E-05-1.74244E-05-2.22859E-05 8.77736E-06 9.27965E-19-1.98601E-18
 -1      1008 9.22907E-05-2.48726E-05-2.88935E-05-5.88976E-06 1.42846E-19-9.88954E-19
 -1      1009 9.11844E-05-2.82718E-05-2.69637E-05-1.28542E-05-5.52524E-19-5.56078E-19
 -1      1010 9.36544E-05-2.23736E-05-3.05500E-05-6.34098E-07 1.13909E-18-1.49454E-18
 -1      1011 8.81501E-05-3.09336E-05-2.44928E-05 1.90734E-05-2.91341E-18 4.02546E-18
 -1      1012 9.08800E-05-2.53216E-05-2.80967E-05-8.68503E-06-3.36776E-20-5.99656E-19
 -1      1013 9.31060E-05-2.16366E-05-3.06295E-05-3.80465E-07 6.27869E-19-1.97918E-18
 -1      1014 9.32618E-05-3.17728E-05-2.63396E-05-1.57074E-05-1.26445E-18-6.78341E-19
 -1      1015 9.48828E-05-2.79526E-05-2.86843E-05 8.40773E-10 5.72998E-19-2.23084E-18
 -1      1016 9.48807E-05-2.79176E-05-2.86985E-05 2.53256E-07-1.02514E-18-4.55839E-18
 -1      1017 8.71372E-05-2.28162E-05-2.75673E-05 6.78506E-06 8.09894E-19 2.90235E-18
 -1      1018 8.78283E-05-2.18855E-05-2.82621E-05 3.20608E-06 2.79803E-19-5.67524E-19
 -1      1019 8.53435E-05-2.09743E-05-2.75877E-05 3.78679E-06 4.72907E-19-6.46983E-19
 -1      1020 8.22696E-05-1.99888E-05-2.66917E-05 4.54572E-06 3.20144E-19-9.21212E-19
 -1      1021 7.84712E-05-1.89623E-05-2.55055E-05 5.74839E-06 7.73446E-19-1.18553E-18
 -1      1022 8.50460E-05-2.41589E-05-2.60960E-05 1.15664E-05-2.99075E-18 2.53518E-18
 -1      1023 9.48587E-05-2.79125E-05-2.86911E-05 1.22691E-07-1.30056E-18-1.77923E-18
 -1      1024 7.45082E-05-1.78560E-05-2.42615E-05-7.64852E-06 7.53913E-19-6.22576E-19
 -1      1025 7.87820E-05-1.87055E-05-2.57456E-05-5.66718E-06 7.73658E-20-6.64737E-19
 -1      1026 8.21222E-05-1.95789E-05-2.68060E-05-4.43091E-06 3.18698E-20-8.67901E-19
 -1      1027 8.48194E-05-2.05861E-05-2.75292E-05-3.59863E-06 9.54882E-19-4.42613E-19
 -1      1028 8.69641E-05-2.15827E-05-2.80218E-05-2.97063E-06 6.46078E-20 2.40856E-19
 -1      1029 8.87304E-05-2.25839E-05-2.83491E-05-2.45869E-06 8.97512E-19 7.80647E-19
 -1      1030 9.01684E-05-2.35331E-05-2.85585E-05-2.02439E-06-5.38764E-19-2.30802E-19
 -1      1031 9.13354E-05-2.44065E-05-2.86841E-05-1.64863E-06-4.40752E-19-4.78209E-19
 -1      1032 9.22684E-05-2.51808E-05-2.87518E-05-1.32482E-06 1.13339E-19 2.84917E-19
 -1      1033 9.30142E-05-2.58594E-05-2.87808E-05-1.04464E-06 8.60312E-19 8.87331E-21
 -1      1034 9.35969E-05-2.64329E-05-2.87848E-05-8.07957E-07 1.74931E-18-7.95964E-19
 -1      1035 9.40501E-05-2.69131E-05-2.87732E-05-6.11876E-07 1.65075E-18-3.96724E-19
 -1      1036 9.43957E-05-2.73063E-05-2.87527E-05-4.53344E-07 9.56994E-19 1.01998E-20
 -1      1037 9.46509E-05-2.76194E-05-2.87280E-05-3.28219E-07 8.12190E-20-6.98017E-19
 -1      1038 9.47899E-05-2.78097E-05-2.87058E-05-2.06496E-07-6.80730E-19 1.10347E-19
 -1      1039 8.59517E-05-2.30888E-05-2.69431E-05 8.82438E-06-1.52275E-18 2.71044E-18
 -1      1040 8.83508E-05-2.29758E-05-2.80193E-05 5.29501E-06 2.11371E-18 2.02096E-18
 -1      1041 8.95297E-05-2.34177E-05-2.83344E-05 4.14605E-06 1.29285E-18 1.41120E-18
 -1      1042 9.06074E-05-2.40045E-05-2.85444E-05 3.25612E-06 7.60319E-19 1.27033E-18
 -1      1043 9.15531E-05-2.46436E-05-2.86758E-05 2.54433E-06-6.86279E-19 9.40844E-19
 -1      1044 9.23602E-05-2.52780E-05-2.87494E-05 1.98128E-06-1.30717E-18 8.36772E-19
 -1      1045 9.30319E-05-2.58704E-05-2.87836E-05 1.52346E-06-6.02677E-19-5.81690E-19
 -1      1046 9.35787E-05-2.63997E-05-2.87913E-05 1.15938E-06-5.56411E-19 8.51704E-19
 -1      1047 9.40151E-05-2.68578E-05-2.87819E-05 8.67809E-07-5.11271E-19 9.20595E-19
 -1      1048 9.43568E-05-2.72448E-05-2.87625E-05 6.38124E-07-1.18038E-18-2.46703E-19
 -1      1049 9.46165E-05-2.75614E-05-2.87380E-05 4.61369E-07 3.08056E-20-1.34491E-18
 -1      1050 9.47606E-05-2.77515E-05-2.87183E-05 3.46963E-07 1.30295E-18-4.35045E-18
 -1      1051 9.13693E-05-2.31053E-05-2.92568E-05 2.19553E-06-2.61073E-19-9.94813E-19
 -1      1052 9.32062E-05-2.23414E-05-3.03699E-05 6.13020E-07-2.06197E-19-1.42341E-18
 -1      1053 8.98216E-05-2.26292E-05-2.87976E-05 2.69791E-06-1.35035E-20-7.72256E-19
 -1      1054 9.15113E-05-2.49447E-05-2.85286E-05-7.17184E-06 2.12300E-19-9.33802E-19
 -1      1055 8.37396E-05-2.50773E-05-2.51331E-05-1.42179E-05-7.26930E-19-8.52489E-19
 -1      1056 7.36594E-05-1.85680E-05-2.35839E-05-8.53808E-06-4.39369E-19-1.32657E-18
 -1      1057 6.89598E-05-1.61384E-05-2.26036E-05-9.40816E-07 2.92068E-19-1.52803E-18
 -1      1058 9.24922E-05-2.32229E-05-2.96873E-05 1.65023E-06-2.68592E-19-1.03517E-18
 -1      1059 7.37540E-05-2.01206E-05-2.29765E-05 1.28319E-05-1.98241E-18 3.86835E-18
 -1      1060 9.24420E-05-2.39382E-05-2.93592E-05-3.18219E-06 2.78779E-19-1.11292E-18
 -1      1061 9.28793E-05-2.13531E-05-3.06564E-05-9.18755E-08 5.43756E-19-1.61662E-18
 -1      1062 8.56716E-05-2.66280E-05-2.53000E-05 1.49841E-05-2.54521E-18 2.61940E-18
 -1      1063 9.31943E-05-2.37511E-05-2.97621E-05-2.28779E-06 5.01092E-19-1.19419E-18
 -1      1064 7.05106E-05-1.68474E-05-2.30085E-05 6.77590E-06-1.61320E-18 2.64623E-18
 -1      1065 9.43630E-05-2.42426E-05-3.00523E-05-2.01999E-06 8.68883E-19-1.46127E-18
 -1      1066 9.47393E-05-2.77623E-05-2.87044E-05-4.60248E-08 2.16891E-18-2.35261E-18
 -1      1067 7.99311E-05-2.35474E-05-2.41577E-05 1.47474E-05-1.98067E-18 3.62827E-18
 -1      1068 9.13850E-05-2.38286E-05-2.89532E-05-4.12830E-06-5.09341E-20-8.07172E-19
 -1      1069 8.72128E-05-2.34648E-05-2.73231E-05-8.29327E-06 3.41180E-21-8.93928E-19
 -1      1070 9.33452E-05-2.29325E-05-3.01783E-05-1.22535E-06 7.07559E-19-1.45335E-18
 -1      1071 8.58706E-05-2.40758E-05-2.64924E-05-1.07056E-05-2.63511E-19-8.84265E-19
 -1      1072 7.31236E-05-1.97118E-05-2.28767E-05-1.34614E-05 6.62277E-19-1.75141E-19
 -1      1073 8.29164E-05-1.99599E-05-2.69804E-05 5.02109E-07 1.06313E-19-7.55112E-19
 -1      1074 7.90707E-05-1.86851E-05-2.58966E-05 3.55153E-07 1.72992E-19-7.57893E-19
 -1      1075 8.88560E-05-2.28348E-05-2.82962E-05 2.39025E-06 1.22712E-18 4.31982E-18
 -1      1076 7.43214E-05-1.68380E-05-2.46506E-05-7.51160E-07 4.46074E-19 1.42683E-18
 -1      1077 7.90076E-05-1.82578E-05-2.60207E-05-7.73738E-07 3.51969E-19 9.70696E-19
 -1      1078 8.24388E-05-1.94953E-05-2.69742E-05-7.98568E-07 1.46811E-19 9.44710E-19
 -1      1079 8.50012E-05-2.05619E-05-2.76176E-05-7.95817E-07 5.49476E-19 5.58272E-19
 -1      1080 8.71538E-05-2.16726E-05-2.80648E-05-7.91191E-07-6.16395E-20-1.10401E-18
 -1      1081 8.89432E-05-2.27397E-05-2.83682E-05-7.39756E-07-2.06760E-19-1.50999E-18
 -1      1082 9.03679E-05-2.37231E-05-2.85601E-05-6.59082E-07 2.89431E-19 3.32989E-19
 -1      1083 9.14789E-05-2.45735E-05-2.86737E-05-5.66664E-07 5.52344E-19 1.65775E-18
 -1      1084 9.23782E-05-2.53292E-05-2.87342E-05-4.58709E-07 7.05450E-19 1.53584E-18
 -1      1085 9.30860E-05-2.59786E-05-2.87604E-05-3.72166E-07 1.31506E-18 1.29398E-18
 -1      1086 9.36581E-05-2.65408E-05-2.87647E-05-2.96428E-07 1.04930E-18-6.20417E-19
 -1      1087 9.40986E-05-2.70052E-05-2.87544E-05-2.29298E-07 1.10653E-18-2.68451E-18
 -1      1088 9.44383E-05-2.73862E-05-2.87359E-05-1.72492E-07 3.67713E-19-3.74973E-18
 -1      1089 9.46062E-05-2.75902E-05-2.87205E-05-1.00606E-07 5.71489E-19-3.29564E-18
 -1      1090 8.72937E-05-2.20267E-05-2.79713E-05 3.17416E-06 4.21003E-19 2.64006E-18
 -1      1091 9.02597E-05-2.37064E-05-2.85183E-05 1.80414E-06 4.73431E-19 4.39251E-18
 -1      1092 9.13279E-05-2.44829E-05-2.86477E-05 1.38607E-06 5.29130E-20 1.44579E-18
 -1      1093 9.22383E-05-2.52124E-05-2.87233E-05 1.05829E-06 2.39182E-19 8.70771E-19
 -1      1094 9.29368E-05-2.58367E-05-2.87572E-05 8.04849E-07-6.27888E-19 2.31923E-19
 -1      1095 9.35239E-05-2.64007E-05-2.87671E-05 5.96320E-07-1.06062E-18-1.53209E-18
 -1      1096 9.39869E-05-2.68785E-05-2.87607E-05 4.41493E-07-3.35366E-19-8.65143E-19
 -1      1097 9.43445E-05-2.72747E-05-2.87442E-05 3.16331E-07 5.52931E-19-1.02582E-18
 -1      1098 9.16302E-05-2.28836E-05-2.94627E-05 5.75680E-07 1.21548E-20-8.83763E-19
 -1      1099 9.29071E-05-2.24121E-05-3.02141E-05-5.26630E-07 2.44776E-19-1.68865E-18
 -1      1100 9.02252E-05-2.25858E-05-2.89878E-05 6.64276E-07 2.27327E-20-5.52037E-19
 -1      1101 8.83429E-05-2.19432E-05-2.84563E-05 6.87836E-07 8.31556E-20-4.82865E-19
 -1      1102 8.54772E-05-2.12964E-05-2.75051E-05 4.23565E-06 9.21130E-19 3.05847E-19
 -1      1103 9.26581E-05-2.26400E-05-3.00087E-05 3.40851E-07-6.95747E-20-1.19189E-18
 -1      1104 8.86821E-05-2.34011E-05-2.79785E-05-6.54138E-06-1.39962E-19-9.12204E-19
 -1      1105 8.59445E-05-2.10472E-05-2.78122E-05 6.39038E-07 1.77574E-19-6.18295E-19
 -1      1106 9.01061E-05-2.35916E-05-2.85067E-05-5.20875E-06-9.78072E-20-8.53971E-19
 -1      1107 7.75610E-05-1.98761E-05-2.46855E-05 9.40724E-06-1.90112E-18 3.17663E-18
 -1      1108 9.47306E-05-2.77414E-05-2.87096E-05 1.72818E-07 1.36194E-18-1.11389E-18
 -1      1109 8.54015E-05-2.16179E-05-2.73367E-05-5.04349E-06 6.90142E-20-1.08495E-18
 -1      1110 9.26931E-05-2.31320E-05-2.98050E-05-1.37605E-06 2.67258E-19-1.07622E-18
 -1      1111 8.35640E-05-2.08727E-05-2.68557E-05 5.60915E-06-1.37953E-19 4.85185E-19
 -1      1112 9.45585E-05-2.75225E-05-2.87286E-05 2.31698E-07 2.10600E-18-8.86602E-19
 -1      1113 8.27282E-05-2.11102E-05-2.64094E-05-6.75587E-06-9.11590E-20-1.11474E-18
 -1      1114 8.05505E-05-2.09912E-05-2.55169E-05-8.68239E-06-3.95195E-19-1.26472E-18
 -1      1115 9.10554E-05-2.31397E-05-2.91070E-05-2.22753E-06 6.69020E-20-8.98715E-19
 -1      1116 9.03877E-05-2.37699E-05-2.85540E-05 4.50136E-07 2.16402E-18 2.30918E-18
 -1      1117 8.11696E-05-1.93322E-05-2.65358E-05 2.82188E-06 1.31611E-19 1.79375E-19
 -1      1118 9.19208E-05-2.49616E-05-2.86996E-05 3.18091E-07-2.93332E-19 2.22939E-18
 -1      1119 9.21969E-05-2.32293E-05-2.95580E-05-1.61904E-06 3.22361E-19-8.74071E-19
 -1      1120 8.76472E-05-2.22048E-05-2.80474E-05-3.83246E-06 4.67516E-20-8.81523E-19
 -1      1121 8.12632E-05-2.20531E-05-2.53911E-05 1.08763E-05-2.89064E-18 3.02500E-18
 -1      1122 8.95306E-05-2.27551E-05-2.86186E-05-2.93377E-06 8.70200E-20-8.53317E-19
 -1      1123 8.07164E-05-2.03303E-05-2.58763E-05 7.70684E-06-1.69743E-18 2.34808E-18
 -1      1124 9.45873E-05-2.75760E-05-2.87201E-05 9.25914E-08 2.36486E-18-7.11957E-19
 -1      1125 1.16255E-04 2.56238E-10-4.16829E-05-4.10451E-05-3.28649E-19 1.28109E-17
 -1      1126 8.86260E-05 7.25800E-11-3.72233E-05-2.37177E-05-1.90265E-19 2.47900E-18
 -1      1127 8.42325E-05 4.19900E-11-3.58164E-05-1.73333E-05-1.45690E-19-2.07847E-18
 -1      1128 8.25368E-05 3.21312E-11-3.51504E-05-1.32374E-05-9.32266E-20-4.26019E-18
 -1      1129 8.17067E-05 2.68832E-11-3.48121E-05-9.94161E-06-6.65980E-20-5.34559E-18
 -1      1130 8.12388E-05 2.36226E-11-3.46272E-05-7.12478E-06-4.25766E-20-5.78828E-18
 -1      1131 8.09616E-05 2.15298E-11-3.45206E-05-4.59951E-06-2.05141E-20-5.93742E-18
 -1      1132 8.08088E-05 2.03518E-11-3.44633E-05-2.23278E-06-2.18376E-21-5.95610E-18
 -1      1133 8.07609E-05 1.99888E-11-3.44455E-05 4.78564E-08 8.87068E-21-5.87489E-18
 -1      1134 8.08122E-05 2.04125E-11-3.44643E-05 2.33195E-06 3.06355E-20-5.69786E-18
 -1      1135 8.09684E-05 2.16579E-11-3.45224E-05 4.70951E-06 4.44163E-20-5.45683E-18
 -1      1136 8.12511E-05 2.38095E-11-3.46298E-05 7.25416E-06 5.97158E-20-4.95750E-18
 -1      1137 8.17217E-05 2.72082E-11-3.48163E-05 1.01016E-05 8.70591E-20-4.07744E-18
 -1      1138 8.25546E-05 3.26050E-11-3.51579E-05 1.34432E-05 1.19193E-19-2.64226E-18
 -1      1139 8.42257E-05 4.24766E-11-3.58343E-05 1.75855E-05 1.58501E-19-1.95479E-20
 -1      1140 8.83255E-05 6.74681E-11-3.72915E-05 2.35681E-05 1.66865E-19 4.97251E-18
 -1      1141 1.06125E-04 1.63825E-10-4.04750E-05 3.58118E-05 3.32672E-19 1.50882E-17
 -1      1142 1.29351E-04-2.56236E-05-4.00677E-05-2.58228E-05-1.41010E-18 1.94055E-17
 -1      1143 9.71690E-05-2.87805E-05-3.14880E-05-6.44844E-07-4.75212E-19 1.61744E-17
 -1      1144 9.02798E-05-2.70683E-05-2.79244E-05 3.90301E-07-2.25059E-19 1.14385E-17
 -1      1145 8.87528E-05-2.67298E-05-2.67991E-05 2.51188E-07-8.97590E-20 8.17527E-18
 -1      1146 8.88574E-05-2.67439E-05-2.66884E-05 1.67568E-07-9.48511E-20 6.03230E-18
 -1      1147 8.98240E-05-2.70053E-05-2.69616E-05 1.23291E-07-1.00122E-19 4.57345E-18
 -1      1148 9.13276E-05-2.74378E-05-2.74158E-05 9.87879E-08-3.02641E-20 3.48366E-18
 -1      1149 9.32399E-05-2.80018E-05-2.79946E-05 8.66627E-08-2.29493E-20 2.65966E-18
 -1      1150 9.55270E-05-2.86832E-05-2.86867E-05 8.39421E-08-2.34423E-20 1.33621E-18
 -1      1151 9.82055E-05-2.94842E-05-2.94968E-05 8.97257E-08-1.25846E-19-2.32828E-19
 -1      1152 1.01313E-04-3.04139E-05-3.04343E-05 1.03779E-07-7.20276E-20-2.13515E-18
 -1      1153 1.04876E-04-3.14783E-05-3.15029E-05 1.25257E-07 1.00311E-19-1.74801E-18
 -1      1154 1.08860E-04-3.26652E-05-3.26856E-05 1.50866E-07-2.54246E-20-2.12409E-18
 -1      1155 1.13102E-04-3.39234E-05-3.39222E-05 1.71873E-07-7.85553E-20-1.94503E-18
 -1      1156 1.17204E-04-3.51328E-05-3.50820E-05 1.69942E-07-7.45786E-20-2.13042E-18
 -1      1157 1.20431E-04-3.60735E-05-3.59391E-05 1.14049E-07-1.73357E-19-1.82416E-18
 -1      1158 1.21676E-04-3.64174E-05-3.61799E-05-3.42709E-08-7.03368E-20-2.26449E-18
 -1      1159 1.19647E-04-3.57886E-05-3.54811E-05-2.95694E-07-5.37998E-21-2.57710E-18
 -1      1160 1.13489E-04-3.39507E-05-3.36909E-05-6.23315E-07-2.18885E-19-4.17852E-18
 -1      1161 1.03796E-04-3.11035E-05-3.10656E-05-8.58434E-07-2.33255E-19-4.96255E-18
 -1      1162 9.33601E-05-2.80797E-05-2.83725E-05-7.84717E-07 1.40885E-20-4.51871E-18
 -1      1163 8.64962E-05-2.61126E-05-2.66543E-05-3.20141E-07-1.47754E-19-3.46654E-18
 -1      1164 8.65755E-05-2.61359E-05-2.66756E-05 3.26703E-07 1.00486E-19-3.69116E-18
 -1      1165 9.35790E-05-2.81447E-05-2.84319E-05 7.87956E-07-7.70403E-20-4.08884E-18
 -1      1166 1.04120E-04-3.12014E-05-3.11588E-05 8.58228E-07-6.00252E-20-5.40799E-18
 -1      1167 1.13896E-04-3.40733E-05-3.38141E-05 6.21348E-07-2.26959E-19-4.54772E-18
 -1      1168 1.20144E-04-3.59391E-05-3.56350E-05 2.94464E-07 2.65287E-19-3.76003E-18
 -1      1169 1.22302E-04-3.66072E-05-3.63747E-05 3.51758E-08-1.06104E-19-4.17018E-18
 -1      1170 1.21248E-04-3.63212E-05-3.61917E-05-1.09860E-07-3.53405E-20-4.78469E-18
 -1      1171 1.18286E-04-3.54606E-05-3.54146E-05-1.62145E-07-4.20936E-20-4.31240E-18
 -1      1172 1.14534E-04-3.43560E-05-3.43601E-05-1.60165E-07-2.77228E-19-5.57459E-18
 -1      1173 1.10730E-04-3.32290E-05-3.32554E-05-1.34536E-07 4.89372E-19-4.14631E-18
 -1      1174 1.07277E-04-3.22008E-05-3.22329E-05-1.03181E-07 1.50580E-20-3.10055E-18
 -1      1175 1.04342E-04-3.13232E-05-3.13528E-05-7.44445E-08-9.01114E-20-4.24459E-18
 -1      1176 1.01953E-04-3.06066E-05-3.06309E-05-5.11633E-08-3.02313E-19-6.64316E-18
 -1      1177 1.00070E-04-3.00402E-05-3.00588E-05-3.35484E-08 2.76164E-19-6.47818E-18
 -1      1178 9.86235E-05-2.96039E-05-2.96176E-05-2.08011E-08 8.87176E-20-6.61043E-18
 -1      1179 9.75373E-05-2.92753E-05-2.92851E-05-1.18850E-08-1.42626E-19-6.01811E-18
 -1      1180 9.67393E-05-2.90334E-05-2.90401E-05-5.83940E-09-2.38899E-19-6.17076E-18
 -1      1181 9.61667E-05-2.88593E-05-2.88638E-05-1.87519E-09-9.25768E-20-4.71887E-18
 -1      1182 9.57672E-05-2.87375E-05-2.87404E-05 6.18798E-10-5.45261E-19-4.64894E-18
 -1      1183 9.54983E-05-2.86551E-05-2.86569E-05 2.10095E-09-2.54619E-19-7.56277E-18
 -1      1184 9.53262E-05-2.86021E-05-2.86032E-05 2.90891E-09 3.17749E-19-6.22453E-18
 -1      1185 9.52248E-05-2.85706E-05-2.85712E-05 3.28908E-09-2.71865E-19-2.96536E-18
 -1      1186 9.51740E-05-2.85545E-05-2.85548E-05 3.42128E-09-1.42585E-19-4.05146E-18
 -1      1187 9.51587E-05-2.85492E-05-2.85493E-05 3.43880E-09 4.94222E-19-1.44637E-18
 -1      1188 9.51672E-05-2.85512E-05-2.85512E-05 3.42962E-09 2.10142E-19-6.19474E-19
 -1      1189 9.51901E-05-2.85576E-05-2.85572E-05 3.34653E-09 3.96468E-19 2.32504E-18
 -1      1190 9.52178E-05-2.85657E-05-2.85641E-05 3.03801E-09-2.73115E-19 3.76928E-18
 -1      1191 9.52347E-05-2.85706E-05-2.85687E-05 6.13605E-10 6.09512E-19 2.17304E-18
 -1      1192 1.30180E-04-3.74593E-05-3.84754E-05 1.20759E-05-2.56175E-19 2.33370E-17
 -1      1193 9.63077E-05-2.81198E-05-3.12491E-05 7.88543E-07 1.48363E-19 1.90981E-17
 -1      1194 9.05068E-05-2.69759E-05-2.79105E-05 1.20880E-07 8.78995E-20 1.49988E-17
 -1      1195 8.88503E-05-2.66605E-05-2.68387E-05 1.59778E-08 8.19372E-20 1.20431E-17
 -1      1196 8.89012E-05-2.67063E-05-2.67160E-05-1.45641E-08 3.78915E-20 9.67714E-18
 -1      1197 8.98303E-05-2.69808E-05-2.69716E-05-2.14603E-08 8.27627E-20 7.71049E-18
 -1      1198 9.12849E-05-2.74103E-05-2.74074E-05-2.20680E-08-2.14529E-20 7.14798E-18
 -1      1199 9.31142E-05-2.79545E-05-2.79585E-05-2.18186E-08-8.87565E-22 7.02095E-18
 -1      1200 9.52564E-05-2.85939E-05-2.86038E-05-2.32390E-08 1.63443E-20 5.69050E-18
 -1      1201 9.76881E-05-2.93199E-05-2.93353E-05-2.84308E-08-2.87061E-20 5.21583E-18
 -1      1202 1.00390E-04-3.01255E-05-3.01451E-05-3.95127E-08 1.65695E-19 4.17066E-18
 -1      1203 1.03316E-04-3.09948E-05-3.10150E-05-5.83415E-08 7.97822E-20 3.57233E-18
 -1      1204 1.06345E-04-3.18916E-05-3.19044E-05-8.55276E-08 5.37791E-20 3.41315E-18
 -1      1205 1.09242E-04-3.27449E-05-3.27361E-05-1.18438E-07-6.42711E-20 3.01341E-18
 -1      1206 1.11605E-04-3.34370E-05-3.33861E-05-1.48141E-07-7.32948E-20 3.30409E-18
 -1      1207 1.12850E-04-3.37993E-05-3.36841E-05-1.56402E-07 1.30443E-19 2.72908E-18
 -1      1208 1.12282E-04-3.36324E-05-3.34417E-05-1.16458E-07-1.38549E-19 3.08879E-18
 -1      1209 1.09307E-04-3.27666E-05-3.25227E-05-4.32981E-09-5.21521E-20 3.15218E-18
 -1      1210 1.03833E-04-3.11707E-05-3.09475E-05 1.76710E-07-2.49709E-20 2.03658E-18
 -1      1211 9.66948E-05-2.90747E-05-2.89869E-05 3.71337E-07-3.51396E-20 4.63751E-19
 -1      1212 8.97879E-05-2.70151E-05-2.71589E-05 4.77946E-07 4.96805E-20 7.97587E-19
 -1      1213 8.55005E-05-2.56958E-05-2.60615E-05 4.12248E-07-2.11288E-19 5.42763E-19
 -1      1214 8.55363E-05-2.56524E-05-2.60987E-05 1.80776E-07 1.20252E-19-1.28643E-20
 -1      1215 8.99009E-05-2.69250E-05-2.72610E-05-1.07601E-07 5.63178E-20-1.90969E-18
 -1      1216 9.69024E-05-2.90257E-05-2.91334E-05-3.21800E-07 4.88942E-20-4.78521E-19
 -1      1217 1.04151E-04-3.12228E-05-3.11185E-05-3.93485E-07 1.63669E-19-6.64974E-19
 -1      1218 1.09756E-04-3.29267E-05-3.27096E-05-3.42782E-07-2.12291E-19-1.24291E-18
 -1      1219 1.12892E-04-3.38785E-05-3.36520E-05-2.31848E-07-1.08440E-19-1.44456E-18
 -1      1220 1.13669E-04-3.41127E-05-3.39378E-05-1.16992E-07-3.38830E-20-1.74863E-18
 -1      1221 1.12697E-04-3.38173E-05-3.37102E-05-2.82029E-08 1.14138E-19-2.07248E-18
 -1      1222 1.10683E-04-3.32093E-05-3.31603E-05 2.75924E-08-1.12369E-19-2.35364E-18
 -1      1223 1.08222E-04-3.24682E-05-3.24589E-05 5.56462E-08 1.97433E-19-2.78581E-18
 -1      1224 1.05721E-04-3.17169E-05-3.17300E-05 6.47099E-08-2.19606E-21-3.40984E-19
 -1      1225 1.03420E-04-3.10266E-05-3.10498E-05 6.26485E-08 1.19376E-19 3.95988E-20
 -1      1226 1.01433E-04-3.04310E-05-3.04569E-05 5.51031E-08-3.41537E-19 4.93000E-20
 -1      1227 9.97947E-05-2.99397E-05-2.99642E-05 4.56029E-08-2.10057E-19-2.03018E-18
 -1      1228 9.84897E-05-2.95485E-05-2.95698E-05 3.61196E-08 3.30098E-19-7.06046E-18
 -1      1229 9.74813E-05-2.92461E-05-2.92636E-05 2.76181E-08-9.73716E-20-7.43587E-18
 -1      1230 9.67234E-05-2.90188E-05-2.90326E-05 2.04660E-08-4.65969E-20-4.80492E-18
 -1      1231 9.61696E-05-2.88525E-05-2.88632E-05 1.47040E-08 1.26228E-19-4.88992E-18
 -1      1232 9.57773E-05-2.87347E-05-2.87426E-05 1.02105E-08-2.29071E-19-2.34648E-18
 -1      1233 9.55097E-05-2.86542E-05-2.86600E-05 6.79693E-09-2.04630E-19 2.53335E-18
 -1      1234 9.53364E-05-2.86020E-05-2.86062E-05 4.25982E-09 8.23937E-20 1.19576E-18
 -1      1235 9.52329E-05-2.85708E-05-2.85737E-05 2.40496E-09-2.87934E-20-7.73657E-19
 -1      1236 9.51800E-05-2.85547E-05-2.85568E-05 1.05252E-09 5.50558E-20-3.05117E-18
 -1      1237 9.51627E-05-2.85493E-05-2.85508E-05 3.35130E-11 1.55240E-19-7.19228E-18
 -1      1238 9.51696E-05-2.85512E-05-2.85521E-05-8.16298E-10 2.00835E-19-6.74697E-18
 -1      1239 9.51912E-05-2.85574E-05-2.85578E-05-1.67787E-09-1.21484E-19-4.56920E-18
 -1      1240 9.52179E-05-2.85651E-05-2.85644E-05-2.51659E-09 8.22271E-19-3.90094E-18
 -1      1241 9.52350E-05-2.85708E-05-2.85687E-05-6.55625E-10 6.86403E-21-4.29769E-18
 -1      1242 9.52374E-05-2.85735E-05-2.85688E-05-8.88142E-10-4.66279E-18-6.47751E-19
 -1      1243 9.52427E-05-2.85901E-05-2.85648E-05-2.51068E-09-6.76048E-18-3.16710E-19
 -1      1244 9.52494E-05-2.86128E-05-2.85593E-05-2.25098E-09-2.65932E-18-2.67357E-19
 -1      1245 9.52541E-05-2.86285E-05-2.85550E-05-1.33540E-09-2.49825E-18-3.86932E-19
 -1      1246 9.52558E-05-2.86338E-05-2.85532E-05-5.17593E-10 1.51327E-18 3.77156E-19
 -1      1247 9.52551E-05-2.86310E-05-2.85536E-05 5.26398E-12-1.10337E-18-3.65871E-19
 -1      1248 9.52533E-05-2.86245E-05-2.85552E-05 1.98034E-10-3.04889E-18 3.01575E-19
 -1      1249 9.52516E-05-2.86185E-05-2.85566E-05 1.51613E-10-4.22228E-18 4.71751E-19
 -1      1250 9.52511E-05-2.86164E-05-2.85571E-05-2.88036E-11 9.97622E-20 8.94699E-19
 -1      1251 9.52519E-05-2.86195E-05-2.85563E-05-2.03344E-10 7.20214E-18 1.20122E-19
 -1      1252 9.52538E-05-2.86262E-05-2.85547E-05-2.29808E-10 3.94667E-18-7.97736E-19
 -1      1253 9.52558E-05-2.86332E-05-2.85530E-05 2.80548E-13-3.38126E-18-5.58365E-20
 -1      1254 9.52564E-05-2.86359E-05-2.85526E-05 5.48243E-10-8.75923E-18 4.94648E-19
 -1      1255 9.52545E-05-2.86300E-05-2.85546E-05 1.41269E-09-6.60862E-18 7.99296E-21
 -1      1256 9.52499E-05-2.86134E-05-2.85591E-05 2.71732E-09-1.01665E-17-8.40035E-20
 -1      1257 9.52427E-05-2.85900E-05-2.85646E-05 3.56393E-09-6.19265E-18-5.43468E-19
 -1      1258 9.52375E-05-2.85738E-05-2.85689E-05 1.24376E-09-1.59796E-18 1.36866E-18
 -1      1259 3.37260E-05-1.05565E-04 1.78110E-05-1.34388E-05 6.22188E-18 2.00149E-18
 -1      1260 1.73438E-05-6.38314E-05 9.29688E-06-2.48207E-05 2.38880E-17 9.89843E-18
 -1      1261 7.97514E-06-7.30631E-06-6.51477E-06 1.45902E-06 3.25193E-17 2.00298E-17
 -1      1262 3.39074E-05 2.50475E-05-2.61191E-05 5.34568E-05 2.96580E-17 2.77183E-17
 -1      1263 1.03725E-04 1.43247E-05-4.55631E-05 9.95921E-05 1.78411E-17 2.44420E-17
 -1      1264 1.99600E-04-2.93235E-05-6.27660E-05 1.08279E-04 8.45127E-18 1.79147E-17
 -1      1265 2.82750E-04-7.72721E-05-7.42316E-05 6.58939E-05 2.23326E-18 7.18962E-18
 -1      1266 3.08319E-04-9.21669E-05-7.74745E-05-1.17316E-05 1.24032E-18-4.20224E-18
 -1      1267 2.62477E-04-6.39658E-05-7.16644E-05-8.24598E-05 6.15592E-18-1.85187E-17
 -1      1268 1.66127E-04-1.21105E-05-5.70638E-05-1.09676E-04 1.41632E-17-2.67527E-17
 -1      1269 6.90024E-05 2.28215E-05-3.66429E-05-7.98757E-05 2.03644E-17-2.46690E-17
 -1      1270 1.57028E-05 1.32144E-05-1.59058E-05-2.53587E-05 2.22126E-17-1.76352E-17
 -1      1271 9.55185E-06-3.48289E-05 2.20464E-06 1.62213E-05 1.79266E-17-9.36903E-18
 -1      1272 2.74691E-05-9.05458E-05 1.48900E-05 2.29209E-05 7.30820E-18-2.72459E-18
 -1      1273 3.69164E-05-1.13005E-04 1.91861E-05-1.23041E-06-6.70914E-18-1.27717E-18
 -1      1274 2.57533E-05-8.78152E-05 1.43834E-05-2.40535E-05-1.90820E-17-5.46527E-18
 -1      1275 8.93017E-06-3.19151E-05 1.15313E-06-1.51054E-05-2.59294E-17-1.35064E-17
 -1      1276 1.71689E-05 1.42201E-05-1.70508E-05 2.79317E-05-2.42370E-17-1.95089E-17
 -1      1277 6.97839E-05 2.29226E-05-3.74270E-05 8.19994E-05-1.86186E-17-2.18772E-17
 -1      1278 1.62325E-04-1.05564E-05-5.68741E-05 1.12009E-04-9.63839E-18-1.67425E-17
 -1      1279 2.58955E-04-6.20335E-05-7.12556E-05 9.00022E-05-2.87568E-18-7.07188E-18
 -1      1280 3.09016E-04-9.14991E-05-7.81450E-05 1.89811E-05-8.62915E-19 5.59359E-18
 -1      1281 2.91837E-04-8.16474E-05-7.55339E-05-6.19345E-05-3.86014E-18 1.84187E-17
 -1      1282 2.08769E-04-3.42116E-05-6.42417E-05-1.08352E-04-1.20956E-17 2.89025E-17
 -1      1283 1.01872E-04 1.33681E-05-4.47916E-05-9.57124E-05-2.14198E-17 3.08811E-17
 -1      1284 2.83786E-05 2.13277E-05-2.30928E-05-4.43640E-05-2.75252E-17 2.56456E-17
 -1      1285 7.30422E-06-1.42983E-05-4.15685E-06 4.72103E-06-2.52704E-17 1.55287E-17
 -1      1286 1.84754E-05-6.85958E-05 1.03748E-05 2.64180E-05-2.04491E-17 7.40942E-18
 -1      1287 3.41125E-05-1.06926E-04 1.80930E-05 1.36168E-05-7.92145E-18 2.39260E-18
 -1      1288 1.04092E-04-2.19348E-05-3.77582E-05-1.70198E-05-5.21137E-19 1.06608E-17
 -1      1289 9.04268E-05-6.75261E-06-3.60242E-05-1.99654E-05-1.53969E-18 3.40243E-19
 -1      1290 9.26580E-05-6.82470E-06-3.71740E-05-2.52739E-05-1.94013E-18 2.73830E-18
 -1      1291 8.61219E-05-4.14883E-06-3.51971E-05-1.58373E-05-1.54136E-18-3.06210E-18
 -1      1292 8.73372E-05-4.14831E-06-3.56422E-05-1.82888E-05-1.76024E-18-1.58805E-18
 -1      1293 9.23114E-05-1.05568E-05-3.51247E-05-1.84555E-05-2.71154E-18 3.11179E-19
 -1      1294 8.43064E-05-3.20144E-06-3.47715E-05-1.21919E-05-1.25734E-18-4.74754E-18
 -1      1295 8.49245E-05-3.17418E-06-3.49915E-05-1.40141E-05-1.47108E-18-3.99752E-18
 -1      1296 8.81000E-05-7.43166E-06-3.46525E-05-1.47767E-05-2.44201E-18-2.47125E-18
 -1      1297 8.33094E-05-2.68120E-06-3.45457E-05-9.09131E-06-9.45514E-19-5.56587E-18
 -1      1298 8.36634E-05-2.66810E-06-3.46626E-05-1.06133E-05-1.06790E-18-5.19954E-18
 -1      1299 8.60352E-05-5.93401E-06-3.43948E-05-1.13111E-05-1.92724E-18-3.92478E-18
 -1      1300 8.27112E-05-2.35732E-06-3.44189E-05-6.41724E-06-6.32059E-19-5.89130E-18
 -1      1301 8.29258E-05-2.35138E-06-3.44851E-05-7.73309E-06-7.44674E-19-5.73590E-18
 -1      1302 8.48625E-05-5.06452E-06-3.42529E-05-8.35568E-06-1.39508E-18-4.59777E-18
 -1      1303 8.23385E-05-2.14790E-06-3.43441E-05-3.95045E-06-3.13713E-19-5.96833E-18
 -1      1304 8.24687E-05-2.14583E-06-3.43826E-05-5.17062E-06-4.14636E-19-5.93544E-18
 -1      1305 8.41415E-05-4.51836E-06-3.41707E-05-5.74681E-06-8.97097E-19-4.89675E-18
 -1      1306 8.21431E-05-2.03023E-06-3.43069E-05-1.63749E-06 1.05672E-20-5.96719E-18
 -1      1307 8.22042E-05-2.02965E-06-3.43246E-05-2.79118E-06-9.21545E-20-5.95804E-18
 -1      1308 8.37073E-05-4.18643E-06-3.41231E-05-3.34345E-06-3.59023E-19-4.92198E-18
 -1      1309 8.21027E-05-1.99382E-06-3.43009E-05 6.13402E-07 2.51197E-19-5.86254E-18
 -1      1310 8.21013E-05-1.99390E-06-3.43007E-05-5.19831E-07 1.65068E-19-5.94104E-18
 -1      1311 8.35042E-05-4.03124E-06-3.41009E-05-1.07030E-06 1.58449E-19-4.92600E-18
 -1      1312 8.22131E-05-2.03561E-06-3.43254E-05 2.88991E-06 5.54896E-19-5.68908E-18
 -1      1313 8.21493E-05-2.03631E-06-3.43072E-05 1.73263E-06 4.30208E-19-5.79615E-18
 -1      1314 8.35099E-05-4.03715E-06-3.41009E-05 1.16258E-06 5.54345E-19-4.81590E-18
 -1      1315 8.24857E-05-2.15906E-06-3.43838E-05 5.28165E-06 8.04218E-19-5.42959E-18
 -1      1316 8.23526E-05-2.16051E-06-3.43450E-05 4.05383E-06 7.36535E-19-5.61199E-18
 -1      1317 8.37245E-05-4.20450E-06-3.41230E-05 3.44217E-06 1.07052E-18-4.67843E-18
 -1      1318 8.29460E-05-2.36906E-06-3.44858E-05 7.84064E-06 1.06933E-18-4.84539E-18
 -1      1319 8.27291E-05-2.37528E-06-3.44193E-05 6.51435E-06 9.68615E-19-5.20983E-18
 -1      1320 8.41674E-05-4.54669E-06-3.41698E-05 5.83673E-06 1.45292E-18-4.33950E-18
 -1      1321 8.37014E-05-2.70013E-06-3.46652E-05 1.07761E-05 1.45924E-18-3.90210E-18
 -1      1322 8.33429E-05-2.71395E-06-3.45471E-05 9.23528E-06 1.29157E-18-4.44781E-18
 -1      1323 8.49033E-05-5.11032E-06-3.42513E-05 8.46559E-06 1.94675E-18-3.65275E-18
 -1      1324 8.49776E-05-3.21748E-06-3.49970E-05 1.42246E-05 1.80122E-18-2.29017E-18
 -1      1325 8.43540E-05-3.25010E-06-3.47744E-05 1.23775E-05 1.61548E-18-3.26256E-18
 -1      1326 8.61090E-05-6.01466E-06-3.43938E-05 1.14787E-05 2.47981E-18-2.62241E-18
 -1      1327 8.74339E-05-4.15122E-06-3.56615E-05 1.85299E-05 2.01843E-18 5.42366E-19
 -1      1328 8.61884E-05-4.20967E-06-3.52024E-05 1.60995E-05 1.82943E-18-1.16446E-18
 -1      1329 8.82183E-05-7.55826E-06-3.46517E-05 1.50126E-05 2.93644E-18-8.16857E-19
 -1      1330 9.34498E-05-6.86910E-06-3.70692E-05 2.46301E-05 1.67935E-18 5.86602E-18
 -1      1331 9.02422E-05-6.51221E-06-3.60455E-05 2.06405E-05 1.67173E-18 2.62151E-18
 -1      1332 9.25360E-05-1.07895E-05-3.51083E-05 1.90986E-05 2.98828E-18 2.36206E-18
 -1      1333 1.23041E-04-2.48254E-05-3.88622E-05 2.80160E-05 7.74929E-19 1.57891E-17
 -1      1334 9.99119E-05-1.44364E-05-3.72658E-05 2.36629E-05 8.09552E-19 8.94604E-18
 -1      1335 1.01644E-04-1.93911E-05-3.53621E-05 2.09169E-05 2.71937E-18 7.21714E-18
 -1      1336 1.02317E-04-2.77410E-05-3.46484E-05 7.12374E-06 1.44795E-18 1.52737E-17
 -1      1337 1.04922E-04-3.01756E-05-3.34456E-05-7.71923E-06-1.58660E-18 1.11916E-17
 -1      1338 9.82366E-05-2.78514E-05-3.07406E-05-4.78701E-06-1.49025E-18 9.38184E-18
 -1      1339 9.56138E-05-2.78836E-05-2.92837E-05-2.28889E-06-1.20869E-18 8.62000E-18
 -1      1340 9.35708E-05-2.76453E-05-2.83031E-05-1.84315E-06-1.18693E-18 6.85353E-18
 -1      1341 9.96217E-05-2.81048E-05-3.10173E-05-7.48936E-06-2.59176E-18 5.07733E-18
 -1      1342 9.20539E-05-2.73337E-05-2.77247E-05-6.14722E-07-8.98331E-19 6.22011E-18
 -1      1343 9.15489E-05-2.72981E-05-2.74871E-05-4.96106E-07-7.84187E-19 5.03069E-18
 -1      1344 9.51598E-05-2.78936E-05-2.89548E-05-2.69817E-06-1.98380E-18 3.96017E-18
 -1      1345 9.10130E-05-2.71746E-05-2.73115E-05 1.08293E-07-5.99875E-19 4.45645E-18
 -1      1346 9.12079E-05-2.72785E-05-2.73573E-05 1.80596E-07-6.38941E-19 3.60136E-18
 -1      1347 9.33359E-05-2.77190E-05-2.81556E-05-5.41359E-07-1.46092E-18 2.86816E-18
 -1      1348 9.12245E-05-2.72884E-05-2.73695E-05 5.27307E-07-4.31854E-19 3.25586E-18
 -1      1349 9.17939E-05-2.74822E-05-2.75374E-05 5.76529E-07-4.19738E-19 2.69457E-18
 -1      1350 9.28548E-05-2.77032E-05-2.79403E-05 5.95028E-07-9.53703E-19 1.95438E-18
 -1      1351 9.21589E-05-2.75872E-05-2.76567E-05 8.12027E-07-3.25686E-19 2.44894E-18
 -1      1352 9.29765E-05-2.78471E-05-2.78975E-05 8.51096E-07-2.10185E-19 2.02221E-18
 -1      1353 9.32232E-05-2.78619E-05-2.80276E-05 1.30005E-06-7.63987E-19 1.48190E-18
 -1      1354 9.35892E-05-2.80222E-05-2.80916E-05 1.03996E-06-2.96374E-19 1.86321E-18
 -1      1355 9.46084E-05-2.83384E-05-2.83914E-05 1.07645E-06-3.77381E-19 1.33868E-18
 -1      1356 9.41675E-05-2.81619E-05-2.83027E-05 1.81519E-06-5.69980E-19 1.03127E-18
 -1      1357 9.54222E-05-2.85709E-05-2.86467E-05 1.25258E-06-4.15767E-19 1.12581E-18
 -1      1358 9.66345E-05-2.89432E-05-2.90036E-05 1.29109E-06-4.43261E-19 3.95756E-19
 -1      1359 9.55505E-05-2.85777E-05-2.87167E-05 2.25782E-06-8.20798E-19 6.39956E-19
 -1      1360 9.76314E-05-2.92286E-05-2.93150E-05 1.47180E-06-4.57045E-19 2.83968E-19
 -1      1361 9.90471E-05-2.96625E-05-2.97320E-05 1.51456E-06-6.53059E-19-5.52954E-19
 -1      1362 9.73106E-05-2.90986E-05-2.92481E-05 2.68967E-06-8.24567E-19 2.71708E-19
 -1      1363 1.00221E-04-3.00004E-05-3.00974E-05 1.70339E-06-4.97600E-19-5.40526E-19
 -1      1364 1.01854E-04-3.05026E-05-3.05775E-05 1.74978E-06-9.34317E-20-1.01742E-18
 -1      1365 9.94258E-05-2.97247E-05-2.98869E-05 3.13644E-06-8.09878E-19 1.64890E-19
 -1      1366 1.03198E-04-3.08932E-05-3.09935E-05 1.93370E-06 1.01490E-19-1.26000E-18
 -1      1367 1.05043E-04-3.14666E-05-3.15343E-05 1.97881E-06-1.50078E-19-1.26921E-18
 -1      1368 1.01885E-04-3.04621E-05-3.06253E-05 3.58804E-06-2.45492E-19-1.96843E-19
 -1      1369 1.06531E-04-3.19069E-05-3.19905E-05 2.12135E-06-2.01227E-19-1.36699E-18
 -1      1370 1.08540E-04-3.25417E-05-3.25751E-05 2.15353E-06-9.91831E-20-1.51412E-18
 -1      1371 1.04663E-04-3.13166E-05-3.14477E-05 3.98722E-06-2.59257E-19-1.10545E-18
 -1      1372 1.10109E-04-3.30201E-05-3.30475E-05 2.18537E-06 1.21045E-19-1.50560E-18
 -1      1373 1.12146E-04-3.36809E-05-3.36330E-05 2.18302E-06-1.04191E-19-1.57196E-18
 -1      1374 1.07680E-04-3.22851E-05-3.23199E-05 4.21029E-06 3.11541E-20-9.98129E-19
 -1      1375 1.13669E-04-3.41698E-05-3.40758E-05 1.99541E-06-1.00757E-19-1.42317E-18
 -1      1376 1.15462E-04-3.47778E-05-3.45800E-05 1.92475E-06-9.72665E-20-1.53648E-18
 -1      1377 1.10765E-04-3.33411E-05-3.31763E-05 4.04748E-06-2.31012E-19-1.01241E-18
 -1      1378 1.16726E-04-3.52230E-05-3.49210E-05 1.37932E-06-2.57114E-19-1.09761E-18
 -1      1379 1.17836E-04-3.56376E-05-3.52164E-05 1.19831E-06-3.21482E-19-1.31544E-18
 -1      1380 1.13600E-04-3.44098E-05-3.39101E-05 3.20404E-06-1.01002E-19-7.13685E-19
 -1      1381 1.18536E-04-3.59461E-05-3.53626E-05 1.80142E-07-1.59434E-19-1.29332E-18
 -1      1382 1.18388E-04-3.59641E-05-3.52932E-05-1.41234E-07-2.93775E-19-1.47471E-18
 -1      1383 1.15686E-04-3.53268E-05-3.43766E-05 1.36841E-06-3.08168E-19-4.59946E-19
 -1      1384 1.18177E-04-3.60006E-05-3.51566E-05-1.60270E-06-1.66859E-19-1.59311E-18
 -1      1385 1.16249E-04-3.54058E-05-3.45975E-05-2.03799E-06-3.33149E-19-1.93528E-18
 -1      1386 1.16363E-04-3.58028E-05-3.44250E-05-1.58645E-06-2.91009E-19-4.92778E-19
 -1      1387 1.14875E-04-3.50243E-05-3.41474E-05-3.60166E-06-4.70791E-19-2.21044E-18
 -1      1388 1.11083E-04-3.37234E-05-3.31089E-05-4.01117E-06-6.39252E-19-2.85212E-18
 -1      1389 1.14976E-04-3.54405E-05-3.39662E-05-5.25699E-06-7.96039E-19-1.17845E-18
 -1      1390 1.08649E-04-3.28758E-05-3.24302E-05-4.95403E-06-2.30979E-19-2.95667E-18
 -1      1391 1.03783E-04-3.10999E-05-3.11521E-05-5.08375E-06-2.47937E-19-3.10665E-18
 -1      1392 1.11281E-04-3.39344E-05-3.30634E-05-8.38785E-06-6.00996E-19-9.34251E-19
 -1      1393 1.01005E-04-3.00126E-05-3.04599E-05-4.60026E-06-7.64844E-20-3.32413E-18
 -1      1394 9.67899E-05-2.84085E-05-2.93867E-05-4.23916E-06-1.18247E-19-3.20819E-18
 -1      1395 1.06028E-04-3.14753E-05-3.19750E-05-9.07538E-06-2.33937E-19-1.38080E-18
 -1      1396 9.49001E-05-2.76169E-05-2.89510E-05-2.14065E-06-2.77536E-20-2.90146E-18
 -1      1397 9.32386E-05-2.69695E-05-2.85360E-05-1.37009E-06 2.43072E-19-2.75319E-18
 -1      1398 1.01226E-04-2.90622E-05-3.10921E-05-5.98541E-06 2.23948E-19-2.07039E-18
 -1      1399 9.32690E-05-2.69805E-05-2.85431E-05 1.45104E-06-5.66850E-20-3.02972E-18
 -1      1400 9.50032E-05-2.76527E-05-2.89777E-05 2.21861E-06-4.71361E-19-3.25271E-18
 -1      1401 9.92905E-05-2.80557E-05-3.07604E-05 7.86272E-08-2.24570E-19-1.88139E-18
 -1      1402 9.69460E-05-2.84609E-05-2.94281E-05 4.30577E-06-2.33894E-19-3.67888E-18
 -1      1403 1.01223E-04-3.00842E-05-3.05185E-05 4.66273E-06-3.14487E-19-4.33903E-18
 -1      1404 1.01337E-04-2.91016E-05-3.11177E-05 6.12656E-06-4.37969E-19-2.39301E-18
 -1      1405 1.04044E-04-3.11830E-05-3.12261E-05 5.13395E-06-1.58198E-19-4.18344E-18
 -1      1406 1.08956E-04-3.29705E-05-3.25200E-05 5.00138E-06-7.46183E-20-4.33421E-18
 -1      1407 1.06238E-04-3.15473E-05-3.20306E-05 9.18594E-06-2.52657E-19-3.53084E-18
 -1      1408 1.11429E-04-3.38266E-05-3.32133E-05 4.05669E-06-6.44407E-20-4.04786E-18
 -1      1409 1.15265E-04-3.51384E-05-3.42660E-05 3.64847E-06 1.79637E-19-3.53874E-18
 -1      1410 1.11568E-04-3.40216E-05-3.31485E-05 8.48078E-06-1.11980E-19-3.26220E-18
 -1      1411 1.16685E-04-3.55315E-05-3.47317E-05 2.09564E-06 2.76695E-19-3.81109E-18
 -1      1412 1.18667E-04-3.61412E-05-3.53079E-05 1.66435E-06 1.69089E-19-3.49074E-18
 -1      1413 1.15345E-04-3.55460E-05-3.40819E-05 5.36221E-06 2.53739E-19-2.94950E-18
 -1      1414 1.18939E-04-3.61214E-05-3.54635E-05 2.23869E-07-1.84382E-19-3.30844E-18
 -1      1415 1.19167E-04-3.61264E-05-3.55565E-05-9.12374E-08-3.48157E-19-3.81179E-18
 -1      1416 1.16835E-04-3.59316E-05-3.45749E-05 1.73054E-06-1.12364E-20-3.24168E-18
 -1      1417 1.18549E-04-3.58415E-05-3.54356E-05-1.08112E-06 2.32788E-19-3.74534E-18
 -1      1418 1.17552E-04-3.54609E-05-3.51734E-05-1.25461E-06 5.18775E-19-3.13348E-18
 -1      1419 1.16297E-04-3.54938E-05-3.45699E-05-1.16472E-06 7.75697E-20-3.11676E-18
 -1      1420 1.16396E-04-3.50469E-05-3.48655E-05-1.76777E-06-3.37738E-20-2.77035E-18
 -1      1421 1.14754E-04-3.44851E-05-3.44058E-05-1.83040E-06-1.55695E-19-3.43320E-18
 -1      1422 1.14397E-04-3.46301E-05-3.41597E-05-2.92745E-06 1.08685E-19-2.19231E-18
 -1      1423 1.13367E-04-3.40352E-05-3.40049E-05-1.98352E-06-3.17238E-19-2.97555E-18
 -1      1424 1.11523E-04-3.34335E-05-3.34761E-05-1.97733E-06-5.48983E-20-2.95202E-18
 -1      1425 1.11799E-04-3.36315E-05-3.34977E-05-3.69125E-06 1.71104E-19-1.92593E-18
 -1      1426 1.10117E-04-3.30021E-05-3.30547E-05-1.90935E-06 2.92914E-19-2.53557E-18
 -1      1427 1.08345E-04-3.24402E-05-3.25396E-05-1.86816E-06 4.03074E-19-1.90776E-18
 -1      1428 1.09006E-04-3.26615E-05-3.27291E-05-3.76988E-06 1.55677E-19-1.21332E-18
 -1      1429 1.07048E-04-3.20548E-05-3.21430E-05-1.68904E-06-1.66624E-19-2.21821E-18
 -1      1430 1.05485E-04-3.15688E-05-3.16849E-05-1.63472E-06-3.06707E-19-2.61020E-18
 -1      1431 1.06334E-04-3.17956E-05-3.19607E-05-3.46032E-06-2.38236E-19-1.88842E-18
 -1      1432 1.04357E-04-3.12401E-05-3.13364E-05-1.41621E-06-7.80372E-19-3.28290E-18
 -1      1433 1.03051E-04-3.08399E-05-3.09516E-05-1.36101E-06-8.72748E-19-4.52337E-18
 -1      1434 1.03951E-04-3.10596E-05-3.12564E-05-2.97682E-06-1.00679E-18-2.52395E-18
 -1      1435 1.02109E-04-3.05689E-05-3.06591E-05-1.14386E-06-3.42873E-19-4.32385E-18
 -1      1436 1.01059E-04-3.02506E-05-3.03485E-05-1.09372E-06 6.86080E-20-4.41627E-18
 -1      1437 1.01925E-04-3.04543E-05-3.06468E-05-2.45128E-06-8.14932E-19-3.58287E-18
 -1      1438 1.00297E-04-3.00330E-05-3.01113E-05-8.97941E-07 3.06576E-19-4.84741E-18
 -1      1439 9.94766E-05-2.97865E-05-2.98679E-05-8.55148E-07 2.94801E-19-4.42939E-18
 -1      1440 1.00262E-04-2.99688E-05-3.01400E-05-1.95465E-06 3.51419E-19-2.52532E-18
 -1      1441 9.88760E-05-2.96157E-05-2.96806E-05-6.88363E-07 1.13628E-19-4.57564E-18
 -1      1442 9.82500E-05-2.94292E-05-2.94945E-05-6.53251E-07-2.15322E-19-4.44703E-18
 -1      1443 9.89323E-05-2.95873E-05-2.97315E-05-1.51908E-06-1.36268E-19-3.43039E-18
 -1      1444 9.77866E-05-2.92978E-05-2.93500E-05-5.16377E-07-2.51498E-19-5.49419E-18
 -1      1445 9.73196E-05-2.91597E-05-2.92108E-05-4.88359E-07-2.89846E-19-5.52746E-18
 -1      1446 9.78940E-05-2.92932E-05-2.94104E-05-1.15435E-06-5.65021E-19-4.67448E-18
 -1      1447 9.69695E-05-2.90606E-05-2.91016E-05-3.79034E-07-2.05986E-19-4.81403E-18
 -1      1448 9.66289E-05-2.89606E-05-2.89998E-05-3.57155E-07 4.02491E-19-4.87943E-18
 -1      1449 9.70999E-05-2.90707E-05-2.91634E-05-8.58569E-07-1.35868E-19-5.61482E-18
 -1      1450 9.63698E-05-2.88875E-05-2.89191E-05-2.71679E-07 2.65317E-19-3.95350E-18
 -1      1451 9.61274E-05-2.88169E-05-2.88465E-05-2.54902E-07-4.19143E-19-4.36506E-18
 -1      1452 9.65049E-05-2.89055E-05-2.89775E-05-6.24418E-07 9.05521E-19-3.52501E-18
 -1      1453 9.59401E-05-2.87641E-05-2.87881E-05-1.89283E-07-4.38094E-19-3.17985E-18
 -1      1454 9.57728E-05-2.87159E-05-2.87378E-05-1.76631E-07-6.06801E-19-4.38068E-18
 -1      1455 9.60686E-05-2.87857E-05-2.88405E-05-4.42689E-07 4.91163E-20-2.63641E-18
 -1      1456 9.56410E-05-2.86788E-05-2.86968E-05-1.27092E-07-8.20966E-19-4.17971E-18
 -1      1457 9.55300E-05-2.86473E-05-2.86632E-05-1.17704E-07-2.91873E-19-4.92474E-18
 -1      1458 9.57564E-05-2.87008E-05-2.87419E-05-3.04086E-07-9.44826E-19-1.44479E-18
 -1      1459 9.54405E-05-2.86222E-05-2.86354E-05-8.09176E-08 1.04508E-18-4.90878E-18
 -1      1460 9.53712E-05-2.86029E-05-2.86143E-05-7.40662E-08 1.23577E-18-3.52241E-18
 -1      1461 9.55397E-05-2.86427E-05-2.86730E-05-2.00110E-07 8.97839E-19-1.62342E-18
 -1      1462 9.53133E-05-2.85867E-05-2.85963E-05-4.72223E-08-3.80037E-19-1.65480E-18
 -1      1463 9.52741E-05-2.85763E-05-2.85842E-05-4.23131E-08-5.26153E-19-2.25257E-18
 -1      1464 9.53951E-05-2.86047E-05-2.86266E-05-1.23413E-07 1.30487E-18-1.62848E-18
 -1      1465 9.52394E-05-2.85666E-05-2.85735E-05-2.31271E-08 3.19618E-19-2.50118E-18
 -1      1466 9.52217E-05-2.85624E-05-2.85678E-05-1.96883E-08 1.41808E-18-1.69870E-18
 -1      1467 9.53041E-05-2.85814E-05-2.85969E-05-6.78889E-08 2.08097E-19-1.28026E-18
 -1      1468 9.52036E-05-2.85575E-05-2.85622E-05-6.38203E-09 1.25514E-18-1.57153E-18
 -1      1469 9.52007E-05-2.85576E-05-2.85610E-05-4.05607E-09 7.62210E-19-2.25283E-19
 -1      1470 9.52519E-05-2.85688E-05-2.85795E-05-2.86655E-08 1.70417E-18-1.57098E-19
 -1      1471 9.51939E-05-2.85558E-05-2.85589E-05 4.62781E-09 2.01770E-19-1.42877E-19
 -1      1472 9.52007E-05-2.85587E-05-2.85606E-05 6.06543E-09 2.58468E-19 2.49826E-19
 -1      1473 9.52271E-05-2.85637E-05-2.85707E-05-2.08073E-09 8.96173E-19-9.55884E-19
 -1      1474 9.52010E-05-2.85591E-05-2.85606E-05 1.07119E-08 9.16833E-19 1.33155E-18
 -1      1475 9.52126E-05-2.85636E-05-2.85636E-05 1.12779E-08 1.16349E-18 2.53112E-18
 -1      1476 9.52205E-05-2.85639E-05-2.85675E-05 1.41066E-08 1.31976E-18 1.35162E-18
 -1      1477 9.52163E-05-2.85651E-05-2.85645E-05 1.15719E-08 1.84181E-19 2.24267E-18
 -1      1478 9.52281E-05-2.85700E-05-2.85673E-05 1.13417E-08-6.77601E-19 2.75013E-18
 -1      1479 9.52245E-05-2.85677E-05-2.85673E-05 2.03589E-08 9.03166E-19 1.51323E-18
 -1      1480 9.52345E-05-2.85735E-05-2.85678E-05 3.51660E-09-2.18751E-18 2.72781E-18
 -1      1481 9.52351E-05-2.85764E-05-2.85676E-05 1.30416E-08-2.01229E-18 1.65940E-18
 -1      1482 9.65999E-05-2.83751E-05-2.97711E-05 2.82544E-06 1.28185E-18 1.23568E-17
 -1      1483 1.02353E-04-2.93464E-05-3.20971E-05 4.27993E-06 1.14868E-18 1.43538E-17
 -1      1484 1.02275E-04-2.67388E-05-3.26777E-05 1.24213E-05 2.25914E-18 9.63172E-18
 -1      1485 9.23968E-05-2.75363E-05-2.78709E-05 9.78655E-07 9.73334E-19 9.84194E-18
 -1      1486 9.41585E-05-2.76372E-05-2.87271E-05 1.30298E-06 9.15828E-19 1.12709E-17
 -1      1487 9.67229E-05-2.81057E-05-2.96032E-05 4.53480E-06 1.93359E-18 7.63442E-18
 -1      1488 9.09581E-05-2.72243E-05-2.72949E-05 1.25116E-07 6.85984E-19 7.77844E-18
 -1      1489 9.13650E-05-2.71782E-05-2.75031E-05 2.97617E-07 7.27178E-19 9.00904E-18
 -1      1490 9.36165E-05-2.77415E-05-2.82773E-05 1.48379E-06 1.59241E-18 5.96814E-18
 -1      1491 9.09341E-05-2.72496E-05-2.72705E-05-3.20891E-07 6.88509E-19 6.27085E-18
 -1      1492 9.07099E-05-2.71050E-05-2.72188E-05-2.15539E-07 5.84320E-19 7.23938E-18
 -1      1493 9.24754E-05-2.75833E-05-2.78234E-05 6.24568E-08 1.24211E-18 4.69244E-18
 -1      1494 9.17065E-05-2.74900E-05-2.75072E-05-5.91744E-07 2.62871E-19 5.06489E-18
 -1      1495 9.11354E-05-2.72732E-05-2.73384E-05-5.18457E-07 3.66540E-19 5.71545E-18
 -1      1496 9.24672E-05-2.76498E-05-2.77899E-05-7.22082E-07 9.65790E-19 3.78850E-18
 -1      1497 9.29933E-05-2.78785E-05-2.78982E-05-7.82309E-07 1.32142E-19 4.81298E-18
 -1      1498 9.21962E-05-2.76069E-05-2.76611E-05-7.24356E-07 1.17602E-19 4.96364E-18
 -1      1499 9.31585E-05-2.78858E-05-2.79868E-05-1.22112E-06 3.39558E-19 3.14605E-18
 -1      1500 9.46596E-05-2.83788E-05-2.84016E-05-9.36596E-07 3.09469E-19 4.35931E-18
 -1      1501 9.36892E-05-2.80609E-05-2.81132E-05-8.85165E-07 1.63536E-19 4.56627E-18
 -1      1502 9.43249E-05-2.82477E-05-2.83326E-05-1.58541E-06 2.94711E-19 2.62841E-18
 -1      1503 9.66408E-05-2.89730E-05-2.89983E-05-1.07507E-06 2.17531E-19 3.56584E-18
 -1      1504 9.55188E-05-2.86120E-05-2.86652E-05-1.02553E-06 4.06984E-19 4.06655E-18
 -1      1505 9.58499E-05-2.87095E-05-2.87888E-05-1.88625E-06 6.37892E-19 2.45052E-18
 -1      1506 9.88994E-05-2.96519E-05-2.96768E-05-1.20242E-06 3.20552E-19 2.92572E-18
 -1      1507 9.76375E-05-2.92492E-05-2.93028E-05-1.15359E-06 1.42787E-19 3.16969E-18
 -1      1508 9.76687E-05-2.92575E-05-2.93339E-05-2.15333E-06 5.21073E-19 1.71643E-18
 -1      1509 1.01393E-04-3.04055E-05-3.04231E-05-1.30809E-06 2.91685E-19 2.39065E-18
 -1      1510 1.00009E-04-2.99657E-05-3.00143E-05-1.26272E-06 3.09906E-19 2.65181E-18
 -1      1511 9.97342E-05-2.98831E-05-2.99507E-05-2.38532E-06 4.89722E-19 9.12910E-19
 -1      1512 1.04042E-04-3.12133E-05-3.12104E-05-1.36376E-06 2.58555E-19 2.11242E-18
 -1      1513 1.02579E-04-3.07499E-05-3.07811E-05-1.32973E-06 2.52240E-19 2.36682E-18
 -1      1514 1.01987E-04-3.05754E-05-3.06177E-05-2.54943E-06 3.78329E-19 1.14699E-18
 -1      1515 1.06690E-04-3.20326E-05-3.19889E-05-1.32019E-06 6.83433E-20 2.10576E-18
 -1      1516 1.05238E-04-3.15754E-05-3.15674E-05-1.31201E-06 1.43367E-19 2.07487E-18
 -1      1517 1.04330E-04-3.13130E-05-3.13002E-05-2.57693E-06 3.03680E-19 1.01217E-18
 -1      1518 1.09067E-04-3.27856E-05-3.26746E-05-1.10759E-06 7.88469E-20 1.83286E-18
 -1      1519 1.07785E-04-3.23887E-05-3.23096E-05-1.14705E-06-8.72245E-20 1.76212E-18
 -1      1520 1.06592E-04-3.20538E-05-3.19420E-05-2.36066E-06 1.95580E-19 1.31268E-18
 -1      1521 1.10764E-04-3.33491E-05-3.31448E-05-6.46893E-07-1.48833E-19 1.76180E-18
 -1      1522 1.09896E-04-3.30954E-05-3.29082E-05-7.60505E-07-5.63078E-20 1.70221E-18
 -1      1523 1.08511E-04-3.27240E-05-3.24601E-05-1.76473E-06 5.73071E-20 5.39361E-19
 -1      1524 1.11253E-04-3.35537E-05-3.32480E-05 1.17576E-07 3.73323E-20 2.20114E-18
 -1      1525 1.11114E-04-3.35518E-05-3.32287E-05-9.21786E-08 1.37047E-19 2.07761E-18
 -1      1526 1.09721E-04-3.32071E-05-3.27485E-05-6.62376E-07-7.71660E-20 8.70341E-19
 -1      1527 1.09997E-04-3.32119E-05-3.28431E-05 1.15561E-06-3.01372E-19 2.54950E-18
 -1      1528 1.10903E-04-3.35707E-05-3.31228E-05 8.51668E-07-3.08307E-19 2.19337E-18
 -1      1529 1.09794E-04-3.33438E-05-3.26972E-05 9.80693E-07-3.24387E-19 1.78021E-18
 -1      1530 1.06692E-04-3.21927E-05-3.18711E-05 2.27176E-06 3.08009E-19 2.23712E-18
 -1      1531 1.08806E-04-3.29659E-05-3.24806E-05 1.92537E-06 1.82019E-19 2.63035E-18
 -1      1532 1.08361E-04-3.29587E-05-3.22344E-05 2.97747E-06-2.97454E-20 1.55717E-18
 -1      1533 1.01612E-04-3.05462E-05-3.04407E-05 3.07303E-06 5.10966E-19 1.19442E-18
 -1      1534 1.04738E-04-3.16550E-05-3.13084E-05 2.79766E-06 4.02099E-19 2.02827E-18
 -1      1535 1.05331E-04-3.19419E-05-3.13831E-05 4.80768E-06 6.45313E-19 1.62014E-18
 -1      1536 9.58574E-05-2.86187E-05-2.88727E-05 3.08024E-06 2.64044E-19 7.66459E-19
 -1      1537 9.93004E-05-2.97989E-05-2.97999E-05 3.01979E-06 9.89076E-20 9.42324E-19
 -1      1538 1.01155E-04-3.03818E-05-3.03048E-05 5.67105E-06 4.02391E-19 1.14789E-18
 -1      1539 9.12231E-05-2.70357E-05-2.76368E-05 2.02316E-06-2.95959E-19 7.47162E-19
 -1      1540 9.38999E-05-2.78868E-05-2.83408E-05 2.26274E-06-5.63012E-20 4.03135E-19
 -1      1541 9.69357E-05-2.86782E-05-2.92879E-05 4.83839E-06 2.46367E-19 6.65741E-19
 -1      1542 8.94660E-05-2.64394E-05-2.71644E-05 1.51981E-07 2.29559E-19-4.23401E-20
 -1      1543 9.03646E-05-2.66121E-05-2.73960E-05 6.29712E-07 1.52214E-19 1.08169E-19
 -1      1544 9.41511E-05-2.74802E-05-2.86562E-05 2.22574E-06-1.14535E-19-3.52048E-21
 -1      1545 9.13239E-05-2.70967E-05-2.76376E-05-1.79285E-06 7.72613E-19-1.34901E-18
 -1      1546 9.00707E-05-2.65100E-05-2.73062E-05-1.27324E-06 6.03762E-19-4.32113E-19
 -1      1547 9.39353E-05-2.73479E-05-2.86317E-05-1.29347E-06 8.02683E-19-6.97432E-19
 -1      1548 9.60620E-05-2.87252E-05-2.88840E-05-3.02513E-06-1.62885E-19-2.13796E-18
 -1      1549 9.31489E-05-2.76201E-05-2.81121E-05-2.67046E-06 9.78786E-20-2.39207E-18
 -1      1550 9.63946E-05-2.83603E-05-2.92259E-05-4.30074E-06 8.25420E-19-2.29083E-18
 -1      1551 1.01925E-04-3.06799E-05-3.04790E-05-3.19296E-06 3.08854E-19-1.53001E-18
 -1      1552 9.84105E-05-2.94675E-05-2.95291E-05-3.09740E-06 9.05568E-20-1.68364E-18
 -1      1553 1.00546E-04-3.00580E-05-3.02375E-05-5.69709E-06 1.37998E-19-3.02605E-18
 -1      1554 1.07121E-04-3.23443E-05-3.19521E-05-2.49818E-06-3.15824E-19-1.81302E-18
 -1      1555 1.04051E-04-3.13739E-05-3.10992E-05-2.61629E-06 1.94368E-19-1.26181E-18
 -1      1556 1.04919E-04-3.17557E-05-3.13511E-05-5.29675E-06-3.09829E-20-2.31861E-18
 -1      1557 1.10561E-04-3.33867E-05-3.29812E-05-1.41507E-06-4.72267E-19-1.06279E-18
 -1      1558 1.08551E-04-3.28213E-05-3.24017E-05-1.63647E-06-3.72046E-19-1.55775E-18
 -1      1559 1.08315E-04-3.29595E-05-3.22735E-05-3.69921E-06-5.51041E-19-1.37440E-18
 -1      1560 1.11993E-04-3.37686E-05-3.34564E-05-3.66114E-07 2.40541E-19-7.06373E-19
 -1      1561 1.11164E-04-3.35998E-05-3.32001E-05-5.92182E-07 1.96935E-20-6.15925E-19
 -1      1562 1.10179E-04-3.35135E-05-3.28312E-05-1.72935E-06-1.33765E-19-4.82769E-19
 -1      1563 1.11733E-04-3.36260E-05-3.34367E-05 4.21195E-07-3.72393E-19-1.19899E-18
 -1      1564 1.11879E-04-3.37539E-05-3.34590E-05 2.44541E-07-2.27362E-19-1.20810E-18
 -1      1565 1.10532E-04-3.35079E-05-3.29887E-05-1.06957E-09-1.38404E-19-2.76080E-19
 -1      1566 1.10327E-04-3.31475E-05-3.30640E-05 8.96151E-07-1.81890E-19-1.15157E-18
 -1      1567 1.11119E-04-3.34526E-05-3.32784E-05 7.83167E-07-9.73956E-20-1.34271E-18
 -1      1568 1.09719E-04-3.31266E-05-3.28099E-05 1.20982E-06-1.66128E-19-7.08665E-19
 -1      1569 1.08309E-04-3.25018E-05-3.24912E-05 1.10688E-06 2.63638E-19-2.36448E-18
 -1      1570 1.09434E-04-3.28846E-05-3.28097E-05 1.04952E-06 3.12825E-19-1.91309E-18
 -1      1571 1.08175E-04-3.25464E-05-3.24028E-05 1.88548E-06 3.65309E-19-1.83293E-18
 -1      1572 1.06089E-04-3.18119E-05-3.18432E-05 1.13316E-06-8.68728E-19-1.57841E-18
 -1      1573 1.07312E-04-3.22042E-05-3.21967E-05 1.11585E-06-5.88012E-19-1.98794E-18
 -1      1574 1.06285E-04-3.18980E-05-3.18754E-05 2.13564E-06-4.23490E-19-1.89863E-18
 -1      1575 1.03936E-04-3.11547E-05-3.12052E-05 1.04947E-06 5.96688E-19-2.60873E-19
 -1      1576 1.05110E-04-3.15168E-05-3.15481E-05 1.05715E-06-1.20376E-19-4.54023E-19
 -1      1577 1.04333E-04-3.12641E-05-3.13134E-05 2.10062E-06-9.63559E-19-8.21414E-19
 -1      1578 1.02004E-04-3.05712E-05-3.06266E-05 9.11797E-07 3.18463E-19-7.65400E-19
 -1      1579 1.03046E-04-3.08842E-05-3.09337E-05 9.32868E-07 5.30099E-19-3.86234E-19
 -1      1580 1.02497E-04-3.06902E-05-3.07746E-05 1.90252E-06 3.93804E-19-1.06371E-18
 -1      1581 1.00356E-04-3.00779E-05-3.01304E-05 7.56939E-07-2.06744E-19-1.21379E-18
 -1      1582 1.01235E-04-3.03362E-05-3.03908E-05 7.83563E-07 2.83194E-20-8.74469E-19
 -1      1583 1.00875E-04-3.01964E-05-3.02920E-05 1.63016E-06 2.33159E-19-1.73051E-18
 -1      1584 9.90058E-05-2.96760E-05-2.97219E-05 6.06533E-07 7.58412E-19-3.16967E-18
 -1      1585 9.97181E-05-2.98817E-05-2.99339E-05 6.33912E-07 5.18788E-19-1.89379E-18
 -1      1586 9.95036E-05-2.97873E-05-2.98802E-05 1.34067E-06 8.40439E-19-2.70062E-18
 -1      1587 9.79337E-05-2.93584E-05-2.93965E-05 4.71717E-07 5.55810E-19-4.66841E-18
 -1      1588 9.84931E-05-2.95174E-05-2.95636E-05 4.97198E-07 6.17221E-19-3.86241E-18
 -1      1589 9.83842E-05-2.94585E-05-2.95416E-05 1.06693E-06 1.38319E-18-2.29188E-18
 -1      1590 9.71060E-05-2.91141E-05-2.91447E-05 3.56974E-07-7.57944E-19-3.70211E-18
 -1      1591 9.75330E-05-2.92337E-05-2.92726E-05 3.79306E-07-6.54493E-19-4.39582E-18
 -1      1592 9.74967E-05-2.92011E-05-2.92716E-05 8.25224E-07-3.54186E-19-7.14698E-19
 -1      1593 9.64837E-05-2.89312E-05-2.89549E-05 2.62884E-07-2.20425E-19-3.18092E-18
 -1      1594 9.68008E-05-2.90186E-05-2.90502E-05 2.81671E-07-5.76411E-19-3.92851E-18
 -1      1595 9.68115E-05-2.90044E-05-2.90621E-05 6.21424E-07-7.97077E-19-2.19845E-18
 -1      1596 9.60283E-05-2.87978E-05-2.88158E-05 1.87943E-07-2.80983E-19-1.49175E-18
 -1      1597 9.62571E-05-2.88597E-05-2.88847E-05 2.03272E-07 8.76931E-20-2.27935E-18
 -1      1598 9.62955E-05-2.88578E-05-2.89036E-05 4.55361E-07-3.48860E-19-8.58230E-19
 -1      1599 9.57051E-05-2.87034E-05-2.87168E-05 1.29689E-07-1.65167E-18 9.35079E-19
 -1      1600 9.58648E-05-2.87458E-05-2.87651E-05 1.41901E-07-1.00696E-18-1.19091E-18
 -1      1601 9.59173E-05-2.87514E-05-2.87868E-05 3.23695E-07-1.54898E-18 1.80684E-18
 -1      1602 9.54841E-05-2.86393E-05-2.86490E-05 8.53858E-08 6.10356E-19 1.81422E-18
 -1      1603 9.55909E-05-2.86668E-05-2.86814E-05 9.49218E-08-5.06568E-19 1.15745E-18
 -1      1604 9.56481E-05-2.86765E-05-2.87034E-05 2.21715E-07-9.24240E-19 1.49679E-18
 -1      1605 9.53407E-05-2.85979E-05-2.86048E-05 5.23878E-08 1.59229E-19 8.98949E-19
 -1      1606 9.54078E-05-2.86144E-05-2.86253E-05 5.97089E-08 8.62297E-19 2.04531E-18
 -1      1607 9.54635E-05-2.86258E-05-2.86458E-05 1.44400E-07 6.17035E-19 1.85495E-18
 -1      1608 9.52548E-05-2.85734E-05-2.85781E-05 2.83333E-08 1.09490E-18-1.29032E-18
 -1      1609 9.52928E-05-2.85820E-05-2.85899E-05 3.38727E-08 8.25928E-19 1.75908E-20
 -1      1610 9.53430E-05-2.85934E-05-2.86079E-05 8.70014E-08 1.60758E-18 1.11392E-18
 -1      1611 9.52105E-05-2.85611E-05-2.85642E-05 1.12303E-08 1.06253E-18-3.22742E-18
 -1      1612 9.52276E-05-2.85640E-05-2.85697E-05 1.53677E-08 1.26340E-18-1.44379E-18
 -1      1613 9.52702E-05-2.85743E-05-2.85847E-05 4.53440E-08 2.07486E-18-6.90194E-19
 -1      1614 9.51954E-05-2.85573E-05-2.85592E-05-4.68701E-10 4.68207E-19-5.23926E-18
 -1      1615 9.51981E-05-2.85564E-05-2.85603E-05 2.56452E-09 5.26137E-19-4.22503E-18
 -1      1616 9.52317E-05-2.85650E-05-2.85721E-05 1.59907E-08 1.50915E-18-1.71530E-18
 -1      1617 9.51996E-05-2.85593E-05-2.85601E-05-7.75271E-09-7.18172E-19-4.44941E-18
 -1      1618 9.51929E-05-2.85559E-05-2.85584E-05-5.64530E-09-4.18628E-19-4.82985E-18
 -1      1619 9.52171E-05-2.85623E-05-2.85668E-05-3.57560E-09 4.19233E-20-2.41103E-18
 -1      1620 9.52142E-05-2.85644E-05-2.85639E-05-1.08912E-08-1.90166E-19-2.81747E-18
 -1      1621 9.52028E-05-2.85600E-05-2.85609E-05-9.71062E-09-6.37723E-19-4.44954E-18
 -1      1622 9.52177E-05-2.85641E-05-2.85661E-05-1.46743E-08-8.14894E-19-2.87920E-18
 -1      1623 9.52302E-05-2.85706E-05-2.85677E-05-8.85371E-09 6.54678E-19-4.12730E-18
 -1      1624 9.52196E-05-2.85667E-05-2.85651E-05-9.01610E-09 7.74872E-19-2.93025E-18
 -1      1625 9.52261E-05-2.85691E-05-2.85672E-05-1.72114E-08 7.40648E-19-2.97800E-18
 -1      1626 9.52348E-05-2.85738E-05-2.85680E-05-3.53673E-09-2.07577E-18-2.18289E-18
 -1      1627 9.52432E-05-2.85910E-05-2.85652E-05-1.05819E-08-2.57372E-18 2.54470E-19
 -1      1628 9.52392E-05-2.85811E-05-2.85674E-05-9.94357E-09-2.99037E-18 2.24007E-19
 -1      1629 9.52483E-05-2.86038E-05-2.85621E-05-8.34006E-09-5.97760E-19 8.69218E-19
 -1      1630 9.52449E-05-2.85948E-05-2.85644E-05-9.21563E-09-1.73643E-18 5.82555E-19
 -1      1631 9.52418E-05-2.85845E-05-2.85675E-05-1.77745E-08 2.57514E-19 6.76842E-19
 -1      1632 9.52503E-05-2.86100E-05-2.85604E-05-3.46619E-09-7.64822E-19 5.31282E-19
 -1      1633 9.52487E-05-2.86052E-05-2.85616E-05-4.60639E-09-1.10069E-18-1.14046E-19
 -1      1634 9.52449E-05-2.85892E-05-2.85670E-05-1.14215E-08 1.68646E-19 5.67856E-19
 -1      1635 9.52495E-05-2.86090E-05-2.85604E-05 1.05162E-09 9.72770E-19 8.17265E-19
 -1      1636 9.52495E-05-2.86086E-05-2.85605E-05 2.02096E-10-1.28332E-18 2.84107E-18
 -1      1637 9.52447E-05-2.85885E-05-2.85672E-05-2.41557E-09-1.65289E-19 2.10299E-18
 -1      1638 9.52472E-05-2.86033E-05-2.85617E-05 3.64202E-09-1.58193E-18-1.02645E-18
 -1      1639 9.52481E-05-2.86057E-05-2.85611E-05 3.28945E-09 1.70435E-19-2.18655E-18
 -1      1640 9.52422E-05-2.85829E-05-2.85684E-05 4.65956E-09-1.16725E-18-1.38907E-18
 -1      1641 9.52444E-05-2.85963E-05-2.85635E-05 3.92259E-09-1.60000E-18 2.91096E-19
 -1      1642 9.52456E-05-2.85994E-05-2.85627E-05 4.05650E-09-2.21183E-18 8.13986E-19
 -1      1643 9.52387E-05-2.85750E-05-2.85701E-05 7.72321E-09-1.07778E-18-1.82259E-18
 -1      1644 9.52425E-05-2.85913E-05-2.85648E-05 2.20398E-09-1.77328E-18-1.69007E-19
 -1      1645 9.52433E-05-2.85932E-05-2.85643E-05 2.68995E-09-1.58722E-18 8.72657E-20
 -1      1646 9.52355E-05-2.85674E-05-2.85719E-05 6.53897E-09-1.40042E-19-5.77652E-19
 -1      1647 9.52422E-05-2.85905E-05-2.85650E-05-5.61256E-10 2.01900E-18 2.38374E-18
 -1      1648 9.52421E-05-2.85902E-05-2.85651E-05 4.49380E-11-1.31500E-18 2.00286E-18
 -1      1649 9.52336E-05-2.85631E-05-2.85729E-05 2.22257E-09-1.59857E-19 1.48523E-18
 -1      1650 9.52436E-05-2.85942E-05-2.85640E-05-3.14397E-09 3.20558E-18-1.20082E-19
 -1      1651 9.52427E-05-2.85918E-05-2.85647E-05-2.67883E-09 2.01620E-18 2.30511E-18
 -1      1652 9.52338E-05-2.85634E-05-2.85728E-05-3.17155E-09-2.95726E-19 2.95274E-18
 -1      1653 9.52461E-05-2.86010E-05-2.85622E-05-4.35084E-09 9.00739E-19-2.06502E-18
 -1      1654 9.52448E-05-2.85975E-05-2.85632E-05-4.25895E-09 3.91455E-18-2.51879E-18
 -1      1655 9.52358E-05-2.85683E-05-2.85716E-05-7.29534E-09 4.70229E-19-9.13669E-19
 -1      1656 9.52487E-05-2.86074E-05-2.85606E-05-3.38488E-09-1.73993E-18-2.02761E-18
 -1      1657 9.52477E-05-2.86050E-05-2.85613E-05-3.77807E-09 1.16579E-18-2.81818E-18
 -1      1658 9.52392E-05-2.85762E-05-2.85698E-05-8.14240E-09 1.28167E-18-3.95661E-18
 -1      1659 9.52501E-05-2.86102E-05-2.85601E-05-2.39345E-11-4.42603E-18-9.21203E-19
 -1      1660 9.52501E-05-2.86108E-05-2.85599E-05-9.27261E-10-3.41364E-18-3.34021E-20
 -1      1661 9.52427E-05-2.85844E-05-2.85680E-05-4.64461E-09 5.57308E-19-2.90382E-18
 -1      1662 9.52491E-05-2.86064E-05-2.85613E-05 5.06357E-09-5.34150E-18-4.89389E-19
 -1      1663 9.52508E-05-2.86115E-05-2.85599E-05 3.83822E-09-4.97133E-18-2.68147E-19
 -1      1664 9.52452E-05-2.85898E-05-2.85669E-05 2.90401E-09-1.48961E-18-1.05872E-18
 -1      1665 9.52456E-05-2.85958E-05-2.85642E-05 9.37900E-09-5.91627E-18 2.25763E-19
 -1      1666 9.52485E-05-2.86047E-05-2.85619E-05 8.41577E-09-5.57229E-18-1.16075E-19
 -1      1667 9.52448E-05-2.85899E-05-2.85667E-05 1.22116E-08-2.99464E-18-7.84085E-19
 -1      1668 9.52393E-05-2.85811E-05-2.85677E-05 1.23997E-08-2.65250E-18 1.27679E-18
 -1      1669 9.52430E-05-2.85905E-05-2.85656E-05 1.35531E-08-4.54030E-18 1.45325E-18
 -1      1670 9.52425E-05-2.85829E-05-2.85680E-05 1.91162E-08-1.43985E-18 1.30618E-18
 -1      1671 9.52341E-05-2.85738E-05-2.85683E-05 2.15180E-08-2.73690E-19 2.20288E-18
 -1      1672 2.01918E-05-6.50272E-05 1.33972E-05-5.46778E-06 8.14803E-18 6.39679E-18
 -1      1673 2.34186E-05-7.49137E-05 1.56102E-05 2.25796E-06 1.08092E-18 3.63779E-18
 -1      1674 1.87613E-05-3.78543E-05 3.83743E-06 2.13476E-06 1.85898E-17 1.17568E-17
 -1      1675 2.35917E-05-6.05797E-05 9.68239E-06-1.46175E-06 1.14773E-17 8.03362E-18
 -1      1676 3.73611E-05-1.15970E-05-1.27792E-05 3.06080E-05 2.09471E-17 1.57692E-17
 -1      1677 3.04691E-05-3.22414E-05-3.64519E-06 1.19770E-05 1.94216E-17 1.25903E-17
 -1      1678 7.49077E-05-7.57607E-07-3.09556E-05 5.99217E-05 1.83171E-17 1.59691E-17
 -1      1679 5.14412E-05-5.87907E-06-2.16249E-05 3.83494E-05 2.19144E-17 1.58531E-17
 -1      1680 1.37092E-04-1.49107E-05-4.90829E-05 7.74754E-05 1.13236E-17 1.43674E-17
 -1      1681 9.68899E-05-2.66670E-06-3.98880E-05 6.51785E-05 1.57455E-17 1.61284E-17
 -1      1682 2.02002E-04-4.15163E-05-6.37034E-05 6.33438E-05 6.57679E-18 7.82235E-18
 -1      1683 1.61058E-04-2.19959E-05-5.66509E-05 7.13233E-05 9.71420E-18 1.16840E-17
 -1      1684 2.45634E-04-6.11207E-05-7.28405E-05 2.55742E-05 3.49930E-18 1.78004E-18
 -1      1685 2.20076E-04-4.67691E-05-6.91454E-05 5.45413E-05 4.87510E-18 6.49759E-18
 -1      1686 2.42969E-04-5.86760E-05-7.34250E-05-2.33509E-05 4.73915E-18-5.55548E-18
 -1      1687 2.47995E-04-6.12979E-05-7.40043E-05 1.01631E-05 3.93934E-18-2.12711E-19
 -1      1688 1.99238E-04-3.75493E-05-6.54634E-05-5.80787E-05 8.28721E-18-1.33721E-17
 -1      1689 2.31698E-04-5.46386E-05-7.04314E-05-3.48260E-05 5.71557E-18-8.10822E-18
 -1      1690 1.36021E-04-1.50707E-05-5.03000E-05-6.68070E-05 1.19842E-17-1.62520E-17
 -1      1691 1.81215E-04-3.40576E-05-5.89734E-05-6.62301E-05 9.19327E-18-1.46071E-17
 -1      1692 7.76837E-05-8.02032E-06-3.08533E-05-4.96850E-05 1.31519E-17-1.49188E-17
 -1      1693 1.13417E-04-1.28688E-05-4.11877E-05-6.80353E-05 1.20914E-17-1.69280E-17
 -1      1694 3.62263E-05-1.60802E-05-1.21686E-05-2.29251E-05 1.42030E-17-1.09564E-17
 -1      1695 5.11390E-05-2.76860E-06-2.14170E-05-4.45549E-05 1.46427E-17-1.48773E-17
 -1      1696 2.61381E-05-4.73359E-05 3.79013E-06-4.11477E-06 8.59315E-18-6.61956E-18
 -1      1697 2.60373E-05-2.33002E-05-4.08470E-06-1.62115E-05 1.25429E-17-9.99372E-18
 -1      1698 2.41381E-05-7.24501E-05 1.40671E-05 8.82094E-07 1.32307E-18-3.56633E-18
 -1      1699 1.84839E-05-5.39989E-05 9.93323E-06 4.56417E-06 7.21587E-18-5.26007E-18
 -1      1700 2.19810E-05-7.33881E-05 1.57409E-05-5.57654E-06-7.65760E-18-3.94908E-18
 -1      1701 2.23184E-05-7.39577E-05 1.57886E-05 4.26018E-06-1.25191E-18-3.68142E-18
 -1      1702 1.86179E-05-5.06440E-05 8.81988E-06-2.56569E-06-1.41598E-17-6.96203E-18
 -1      1703 2.38640E-05-6.95956E-05 1.33702E-05-2.49944E-07-9.62907E-18-4.45497E-18
 -1      1704 2.75002E-05-2.22379E-05-5.09302E-06 1.72575E-05-1.64697E-17-1.03567E-17
 -1      1705 2.68524E-05-4.52870E-05 2.76280E-06 4.74845E-06-1.49789E-17-8.04046E-18
 -1      1706 5.64098E-05-4.61725E-06-2.26009E-05 4.62561E-05-1.48807E-17-1.36830E-17
 -1      1707 4.05130E-05-1.72596E-05-1.32791E-05 2.47045E-05-1.66984E-17-1.11258E-17
 -1      1708 1.12346E-04-9.18846E-06-4.18268E-05 7.16359E-05-1.14451E-17-1.20889E-17
 -1      1709 7.69468E-05-4.49761E-06-3.18737E-05 5.26485E-05-1.41150E-17-1.31722E-17
 -1      1710 1.81621E-04-3.17539E-05-5.92466E-05 7.54357E-05-6.76144E-18-7.20571E-18
 -1      1711 1.36307E-04-1.27046E-05-5.08041E-05 7.40894E-05-1.02394E-17-1.12664E-17
 -1      1712 2.37448E-04-5.70798E-05-7.10574E-05 4.53053E-05-3.28988E-18-6.41204E-19
 -1      1713 2.02991E-04-3.83029E-05-6.58037E-05 6.74687E-05-5.39211E-18-5.40915E-18
 -1      1714 2.48101E-04-6.05064E-05-7.43776E-05-6.86125E-06-3.88598E-18 7.79858E-18
 -1      1715 2.40595E-04-5.63150E-05-7.32964E-05 2.78478E-05-3.77925E-18 2.19043E-18
 -1      1716 2.28674E-04-5.05664E-05-7.06941E-05-5.31456E-05-6.79405E-18 1.60411E-17
 -1      1717 2.52110E-04-6.38501E-05-7.41009E-05-2.30759E-05-4.44925E-18 1.05117E-17
 -1      1718 1.65883E-04-2.34296E-05-5.79956E-05-7.22325E-05-1.21458E-17 2.03076E-17
 -1      1719 2.10727E-04-4.46987E-05-6.53948E-05-6.29759E-05-8.57663E-18 1.71753E-17
 -1      1720 9.77204E-05-9.02335E-06-3.80700E-05-5.70768E-05-1.59903E-17 1.87694E-17
 -1      1721 1.42297E-04-2.08715E-05-4.88966E-05-7.14982E-05-1.29312E-17 2.03627E-17
 -1      1722 4.67854E-05-9.46746E-06-1.87633E-05-3.27778E-05-1.92243E-17 1.71575E-17
 -1      1723 6.86695E-05-2.25508E-06-2.83035E-05-5.50530E-05-1.88177E-17 2.02432E-17
 -1      1724 2.96185E-05-3.60997E-05-1.89079E-06-9.41243E-06-1.55515E-17 1.08158E-17
 -1      1725 3.44950E-05-1.56425E-05-1.02984E-05-2.56980E-05-1.79944E-17 1.51949E-17
 -1      1726 2.35870E-05-6.24760E-05 1.03943E-05 2.55157E-06-1.17924E-17 5.65024E-18
 -1      1727 1.87325E-05-4.12588E-05 5.03280E-06 1.40872E-07-1.51373E-17 7.79069E-18
 -1      1728 2.33174E-05-7.50269E-05 1.57088E-05-1.34620E-06-1.80047E-18 4.43464E-18
 -1      1729 2.03908E-05-6.63359E-05 1.37719E-05 6.53739E-06-8.81931E-18 6.03956E-18
 -1      1730 1.12393E-04-2.86190E-05-3.49964E-05 4.69308E-05 1.17094E-17 7.36241E-18
 -1      1731 7.33318E-05-3.41302E-05-1.79741E-05 3.99427E-05 1.16941E-17 8.77441E-18
 -1      1732 9.52365E-05-2.85766E-05-2.85678E-05-9.54421E-09-2.73399E-18-1.83578E-18
 -1      1733 9.52351E-05-2.85759E-05-2.85679E-05-1.73419E-08-3.84852E-19-9.03733E-19
 -1      1734 1.86098E-05-4.75012E-05 8.11310E-06 1.38597E-05 5.05086E-18 1.07923E-17
 -1      1735 4.03422E-05-4.07356E-05-2.64670E-06 2.90400E-05 9.22842E-18 1.06808E-17
 -1      1736 1.15304E-05-4.94359E-05 1.17041E-05 8.54629E-07-4.04723E-19 7.71816E-18
 -1      1737 1.55466E-04-3.01281E-05-5.07964E-05 4.21476E-05 9.09650E-18 5.58110E-18
 -1      1738 1.89230E-04-3.22624E-05-6.30009E-05 2.69252E-05 7.28702E-18 2.46910E-18
 -1      1739 2.06075E-04-3.22811E-05-6.92922E-05 8.15318E-06 6.64328E-18 2.37169E-20
 -1      1740 1.97769E-04-2.94936E-05-6.74859E-05-1.08148E-05 7.96338E-18-3.53086E-18
 -1      1741 1.75890E-04-3.10387E-05-5.86137E-05-2.57621E-05 8.09763E-18-6.66234E-18
 -1      1742 1.42040E-04-3.50386E-05-4.39614E-05-3.76256E-05 7.32302E-18-9.01836E-18
 -1      1743 9.69117E-05-3.41534E-05-2.66929E-05-4.32236E-05 7.32260E-18-1.00712E-17
 -1      1744 5.54704E-05-3.75210E-05-9.77071E-06-3.50590E-05 6.44761E-18-9.01667E-18
 -1      1745 2.80924E-05-4.47331E-05 3.59879E-06-2.24457E-05 3.40592E-18-7.72208E-18
 -1      1746 1.35645E-05-5.03737E-05 1.11707E-05-6.63552E-06-5.50783E-19-7.07823E-18
 -1      1747 1.38511E-05-4.83808E-05 1.05240E-05 7.77541E-06-4.66292E-18-6.96261E-18
 -1      1748 3.03709E-05-4.39979E-05 2.52491E-06 2.34783E-05-6.98717E-18-7.07145E-18
 -1      1749 5.97997E-05-3.88817E-05-1.09400E-05 3.53986E-05-8.55419E-18-6.48721E-18
 -1      1750 9.80141E-05-3.39549E-05-2.75447E-05 4.31002E-05-8.59993E-18-6.33835E-18
 -1      1751 1.41127E-04-3.16896E-05-4.48445E-05 4.47189E-05-8.45169E-18-4.66207E-18
 -1      1752 1.82211E-04-3.30234E-05-5.96970E-05 3.73066E-05-6.89877E-18-1.54329E-18
 -1      1753 2.02096E-04-3.19821E-05-6.80881E-05 1.63430E-05-5.90467E-18 2.51061E-18
 -1      1754 2.06959E-04-3.21428E-05-6.98813E-05-7.26471E-06-6.87791E-18 6.36672E-18
 -1      1755 1.96255E-04-3.43484E-05-6.45749E-05-2.72728E-05-8.25307E-18 1.02707E-17
 -1      1756 1.59270E-04-3.52374E-05-5.08057E-05-3.53664E-05-8.84281E-18 1.06523E-17
 -1      1757 1.14331E-04-3.45636E-05-3.33283E-05-4.30431E-05-1.07933E-17 1.19313E-17
 -1      1758 6.95082E-05-3.63273E-05-1.57347E-05-3.79649E-05-1.07209E-17 1.27046E-17
 -1      1759 3.82533E-05-4.22828E-05-1.30375E-06-2.70176E-05-9.05055E-18 9.49417E-18
 -1      1760 1.79331E-05-4.81607E-05 8.59835E-06-1.21395E-05-5.25330E-18 8.13935E-18
 -1      1761 1.05845E-04-2.31632E-05-3.55227E-05-1.64921E-05-1.91399E-18 8.78140E-18
 -1      1762 8.93630E-05-1.05635E-05-3.38959E-05-1.26359E-05-2.59931E-18-2.20366E-18
 -1      1763 9.07136E-05-1.16710E-05-3.40229E-05-1.44207E-05-2.93558E-18-1.35406E-18
 -1      1764 9.27461E-05-1.39648E-05-3.39227E-05-1.53645E-05-2.90829E-18-2.17264E-19
 -1      1765 9.44176E-05-1.59319E-05-3.41334E-05-1.70598E-05-3.08219E-18 1.39205E-18
 -1      1766 9.37165E-05-1.64096E-05-3.31395E-05-1.30357E-05-3.07633E-18-6.70982E-19
 -1      1767 8.61559E-05-7.40624E-06-3.38223E-05-7.24506E-06-1.47925E-18-3.70895E-18
 -1      1768 8.66363E-05-7.75439E-06-3.38638E-05-8.58725E-06-1.76671E-18-3.54148E-18
 -1      1769 8.53748E-05-6.64506E-06-3.38009E-05-4.84672E-06-9.03160E-19-3.92306E-18
 -1      1770 8.56824E-05-6.86563E-06-3.38260E-05-6.07590E-06-1.22164E-18-3.84368E-18
 -1      1771 8.74187E-05-9.44315E-06-3.34479E-05-6.29549E-06-1.46177E-18-3.59759E-18
 -1      1772 8.49170E-05-6.19793E-06-3.37882E-05-2.61031E-06-2.60176E-19-3.93820E-18
 -1      1773 8.50882E-05-6.31975E-06-3.38019E-05-3.75411E-06-5.54335E-19-3.92457E-18
 -1      1774 8.66049E-05-8.58854E-06-3.34644E-05-4.07886E-06-7.83958E-19-3.75180E-18
 -1      1775 8.47295E-05-6.00918E-06-3.37837E-05-4.63523E-07 3.01373E-19-3.90421E-18
 -1      1776 8.47824E-05-6.04653E-06-3.37881E-05-1.56664E-06 5.90975E-20-3.96647E-18
 -1      1777 8.61516E-05-8.11729E-06-3.34714E-05-1.98105E-06-1.13474E-19-3.75463E-18
 -1      1778 8.47949E-05-6.05929E-06-3.37877E-05 1.66934E-06 8.30325E-19-3.78716E-18
 -1      1779 8.47343E-05-6.01584E-06-3.37834E-05 5.64559E-07 5.82551E-19-3.84521E-18
 -1      1780 8.60125E-05-7.97455E-06-3.34728E-05 5.48649E-08 4.81902E-19-3.74048E-18
 -1      1781 8.51186E-05-6.35332E-06-3.38004E-05 3.86487E-06 1.37207E-18-3.64174E-18
 -1      1782 8.49394E-05-6.22423E-06-3.37870E-05 2.71621E-06 1.09164E-18-3.75798E-18
 -1      1783 8.61749E-05-8.14519E-06-3.34697E-05 2.09408E-06 1.00884E-18-3.60964E-18
 -1      1784 8.57192E-05-6.91022E-06-3.38227E-05 6.15934E-06 1.83169E-18-3.27590E-18
 -1      1785 8.54095E-05-6.68666E-06-3.37986E-05 4.94437E-06 1.60499E-18-3.51901E-18
 -1      1786 8.66470E-05-8.63964E-06-3.34606E-05 4.18202E-06 1.59713E-18-3.44284E-18
 -1      1787 8.67013E-05-7.83214E-06-3.38591E-05 8.70868E-06 2.46816E-18-2.56634E-18
 -1      1788 8.62019E-05-7.46558E-06-3.38176E-05 7.33391E-06 2.11217E-18-2.98704E-18
 -1      1789 8.74764E-05-9.51579E-06-3.34416E-05 6.39099E-06 2.14495E-18-2.97636E-18
 -1      1790 8.82628E-05-9.31788E-06-3.39192E-05 1.15427E-05 2.98763E-18-1.52516E-18
 -1      1791 8.74602E-05-8.71014E-06-3.38465E-05 9.96534E-06 2.68030E-18-2.12124E-18
 -1      1792 8.87929E-05-1.09202E-05-3.34030E-05 8.76363E-06 2.71386E-18-2.14887E-18
 -1      1793 9.08844E-05-1.18871E-05-3.40118E-05 1.46160E-05 3.42264E-18 2.28275E-19
 -1      1794 8.94839E-05-1.07480E-05-3.38849E-05 1.28115E-05 3.14753E-18-8.15163E-19
 -1      1795 9.08518E-05-1.31468E-05-3.33199E-05 1.12097E-05 3.19529E-18-9.92167E-19
 -1      1796 9.60579E-05-1.71269E-05-3.40271E-05 1.70992E-05 3.24901E-18 3.54976E-18
 -1      1797 9.31005E-05-1.44292E-05-3.38931E-05 1.55584E-05 3.27454E-18 1.56587E-18
 -1      1798 9.42258E-05-1.69298E-05-3.31155E-05 1.31884E-05 3.45290E-18 9.98652E-19
 -1      1799 1.01946E-04-2.51327E-05-3.33475E-05 1.39723E-05 2.70108E-18 7.47390E-18
 -1      1800 9.82052E-05-1.97028E-05-3.36438E-05 1.64350E-05 2.96311E-18 4.89453E-18
 -1      1801 9.75599E-05-2.19346E-05-3.24879E-05 1.26533E-05 3.31836E-18 3.55473E-18
 -1      1802 9.88990E-05-2.61942E-05-3.13748E-05 8.99606E-06 2.69065E-18 6.59980E-18
 -1      1803 1.00200E-04-1.96433E-05-3.42060E-05-1.83739E-05-2.61119E-18 4.10155E-18
 -1      1804 9.57228E-05-2.73899E-05-2.93130E-05 3.60266E-06 2.17762E-18 5.07415E-18
 -1      1805 9.79958E-05-2.74590E-05-3.02715E-05 5.95135E-06 2.31049E-18 5.93518E-18
 -1      1806 9.78675E-05-2.57003E-05-3.09229E-05 8.21154E-06 2.76300E-18 4.24583E-18
 -1      1807 9.99519E-05-2.26076E-05-3.28682E-05-1.39213E-05-2.81766E-18 2.95000E-18
 -1      1808 9.73397E-05-2.70590E-05-3.00040E-05-5.13460E-06-2.26560E-18 2.59544E-18
 -1      1809 9.57028E-05-2.71450E-05-2.93484E-05-3.29069E-06-1.99024E-18 1.99879E-18
 -1      1810 9.50173E-05-2.73651E-05-2.88955E-05-1.73255E-06-1.76524E-18 1.94460E-18
 -1      1811 9.44567E-05-2.74889E-05-2.86565E-05-8.04567E-07-1.50469E-18 1.50440E-18
 -1      1812 9.60915E-05-2.66206E-05-2.97978E-05-3.63466E-06-2.17006E-18 6.56803E-19
 -1      1813 9.41102E-05-2.75719E-05-2.84555E-05 1.44246E-07-1.27167E-18 1.40790E-18
 -1      1814 9.40814E-05-2.76959E-05-2.84172E-05 6.93044E-07-1.03840E-18 1.04595E-18
 -1      1815 9.51889E-05-2.73241E-05-2.91091E-05-7.61101E-07-1.70128E-18 5.66351E-19
 -1      1816 9.40367E-05-2.77693E-05-2.83667E-05 1.31678E-06-8.74697E-19 8.47946E-19
 -1      1817 9.43609E-05-2.79296E-05-2.84447E-05 1.68985E-06-8.09229E-19 6.68518E-19
 -1      1818 9.48881E-05-2.76837E-05-2.88231E-05 1.03215E-06-1.26759E-18 1.98775E-19
 -1      1819 9.45542E-05-2.80247E-05-2.84939E-05 2.14784E-06-7.36361E-19 5.69994E-19
 -1      1820 9.51311E-05-2.82247E-05-2.86518E-05 2.44199E-06-6.43748E-19 3.16507E-19
 -1      1821 9.50844E-05-2.79514E-05-2.87892E-05 2.26793E-06-9.45551E-19-1.84461E-19
 -1      1822 9.55126E-05-2.83485E-05-2.87736E-05 2.82383E-06-7.05257E-19 2.77907E-19
 -1      1823 9.62932E-05-2.85895E-05-2.89945E-05 3.09043E-06-8.06964E-19 1.19185E-19
 -1      1824 9.56831E-05-2.82169E-05-2.89290E-05 3.22604E-06-7.87336E-19-2.72484E-19
 -1      1825 9.68325E-05-2.87457E-05-2.91732E-05 3.44687E-06-7.23065E-19 2.12946E-19
 -1      1826 9.77960E-05-2.90328E-05-2.94490E-05 3.71230E-06-7.30298E-19 9.31203E-20
 -1      1827 9.66145E-05-2.85153E-05-2.91980E-05 4.06454E-06-7.09682E-19-1.78934E-19
 -1      1828 9.84775E-05-2.92275E-05-2.96743E-05 4.06683E-06-8.74332E-19 2.92025E-19
 -1      1829 9.96161E-05-2.95698E-05-3.00000E-05 4.33744E-06-5.27917E-19 2.54250E-19
 -1      1830 9.78394E-05-2.88728E-05-2.95684E-05 4.86761E-06-6.15090E-19-1.00724E-19
 -1      1831 1.00434E-04-2.98140E-05-3.02632E-05 4.68774E-06-5.98896E-19 1.06032E-19
 -1      1832 1.01739E-04-3.02244E-05-3.06330E-05 4.94691E-06-5.32890E-19-2.44046E-19
 -1      1833 9.93421E-05-2.93219E-05-3.00193E-05 5.66056E-06-7.84267E-19-2.27359E-20
 -1      1834 1.02694E-04-3.05364E-05-3.09235E-05 5.25881E-06-3.96120E-19-4.73531E-19
 -1      1835 1.04142E-04-3.10293E-05-3.13255E-05 5.45865E-06-7.57855E-20-6.00330E-19
 -1      1836 1.01123E-04-2.99110E-05-3.05298E-05 6.40557E-06-6.42820E-19-9.39785E-20
 -1      1837 1.05235E-04-3.14359E-05-3.16284E-05 5.65495E-06-7.32984E-20-5.16687E-19
 -1      1838 1.06767E-04-3.20223E-05-3.20394E-05 5.70507E-06-1.00524E-19-5.74493E-19
 -1      1839 1.03190E-04-3.07102E-05-3.10738E-05 6.98377E-06-7.05893E-20-2.59220E-19
 -1      1840 1.07997E-04-3.25560E-05-3.23332E-05 5.65282E-06 4.26180E-20-6.37286E-19
 -1      1841 1.09497E-04-3.32315E-05-3.27135E-05 5.41296E-06 1.82324E-19-2.53303E-19
 -1      1842 1.05553E-04-3.18095E-05-3.16159E-05 7.17005E-06 4.34857E-20-1.32571E-19
 -1      1843 1.10846E-04-3.39161E-05-3.29712E-05 4.91986E-06-2.88421E-20 6.72332E-20
 -1      1844 1.12115E-04-3.46334E-05-3.32635E-05 4.21295E-06-1.64920E-19 2.45828E-19
 -1      1845 1.08199E-04-3.32944E-05-3.21133E-05 6.61539E-06 2.35968E-19 4.51057E-19
 -1      1846 1.13515E-04-3.54434E-05-3.34597E-05 3.05624E-06-1.53035E-19 2.65144E-19
 -1      1847 1.14262E-04-3.60628E-05-3.35979E-05 1.73214E-06-2.47393E-19 1.96841E-19
 -1      1848 1.11045E-04-3.51682E-05-3.25265E-05 4.87092E-06-1.16222E-19 7.35412E-19
 -1      1849 1.15524E-04-3.68418E-05-3.37240E-05-2.25706E-07-4.07906E-19 2.98084E-19
 -1      1850 1.15402E-04-3.70861E-05-3.36571E-05-2.13884E-06-4.89307E-19 1.63611E-19
 -1      1851 1.13824E-04-3.71742E-05-3.28449E-05 1.52578E-06-3.10358E-19 6.49683E-19
 -1      1852 1.16157E-04-3.74782E-05-3.37360E-05-4.72120E-06-4.65623E-19-7.27489E-20
 -1      1853 1.14895E-04-3.69573E-05-3.34662E-05-6.80759E-06-6.32045E-19 9.55361E-20
 -1      1854 1.15944E-04-3.86047E-05-3.31159E-05-3.42645E-06-6.85964E-19 7.22345E-19
 -1      1855 1.14640E-04-3.64525E-05-3.35545E-05-9.22510E-06-5.56051E-19 5.04064E-19
 -1      1856 1.12302E-04-3.49054E-05-3.31640E-05-1.05558E-05-6.05093E-19 5.57824E-19
 -1      1857 1.16449E-04-3.82667E-05-3.34532E-05-9.03165E-06-3.43435E-19 1.29761E-18
 -1      1858 1.10821E-04-3.32732E-05-3.33070E-05-1.13806E-05-8.80471E-19 4.53904E-19
 -1      1859 1.08098E-04-3.10633E-05-3.29394E-05-1.08422E-05-4.96150E-19 1.18188E-20
 -1      1860 1.14511E-04-3.51678E-05-3.39603E-05-1.28850E-05-7.37906E-19 1.46338E-18
 -1      1861 1.06122E-04-2.90150E-05-3.31097E-05-8.86103E-06-1.09558E-19-4.28096E-19
 -1      1862 1.04247E-04-2.73174E-05-3.28972E-05-6.12013E-06 1.06753E-19-4.37208E-19
 -1      1863 1.10656E-04-3.00307E-05-3.45915E-05-1.18694E-05-6.38438E-19 9.99112E-19
 -1      1864 1.03314E-04-2.63540E-05-3.29789E-05-1.77187E-06-1.67580E-19-1.38266E-18
 -1      1865 1.03338E-04-2.63708E-05-3.29832E-05 1.98670E-06-8.59156E-19-1.56968E-18
 -1      1866 1.07388E-04-2.58967E-05-3.50657E-05-4.80595E-06-5.97635E-19-1.16404E-19
 -1      1867 1.04325E-04-2.73583E-05-3.29050E-05 6.31765E-06-1.25905E-18-2.13101E-18
 -1      1868 1.06254E-04-2.90772E-05-3.31308E-05 9.04775E-06-6.53234E-19-2.54590E-18
 -1      1869 1.07432E-04-2.58886E-05-3.50649E-05 5.08255E-06-1.30004E-18-1.90661E-18
 -1      1870 1.08262E-04-3.11382E-05-3.29748E-05 1.10018E-05-4.27454E-19-3.53215E-18
 -1      1871 1.11030E-04-3.33541E-05-3.33579E-05 1.15227E-05-2.46483E-19-3.71863E-18
 -1      1872 1.10791E-04-3.00940E-05-3.46084E-05 1.20784E-05-9.52608E-19-3.16613E-18
 -1      1873 1.12528E-04-3.49820E-05-3.32285E-05 1.06874E-05 1.55685E-19-3.82922E-18
 -1      1874 1.14907E-04-3.65290E-05-3.36340E-05 9.35499E-06 3.46132E-19-3.48981E-18
 -1      1875 1.14696E-04-3.52416E-05-3.40049E-05 1.30515E-05-1.68745E-22-4.06678E-18
 -1      1876 1.15185E-04-3.70295E-05-3.35625E-05 6.95223E-06 4.97050E-19-2.83993E-18
 -1      1877 1.16493E-04-3.75551E-05-3.38486E-05 4.88057E-06 5.96232E-19-2.71512E-18
 -1      1878 1.16675E-04-3.83356E-05-3.35287E-05 9.20558E-06 7.61264E-19-3.07130E-18
 -1      1879 1.15777E-04-3.71672E-05-3.37856E-05 2.33117E-06 2.02606E-19-2.82347E-18
 -1      1880 1.15959E-04-3.69344E-05-3.38711E-05 4.45991E-07 3.07910E-19-2.47856E-18
 -1      1881 1.16230E-04-3.86577E-05-3.32250E-05 3.65841E-06 7.52877E-19-2.15087E-18
 -1      1882 1.14749E-04-3.61642E-05-3.37638E-05-1.46677E-06 2.46037E-20-1.69484E-18
 -1      1883 1.14082E-04-3.55652E-05-3.36495E-05-2.75195E-06 2.22095E-19-1.72535E-18
 -1      1884 1.14200E-04-3.72298E-05-3.29878E-05-1.21040E-06 4.56240E-19-1.05090E-18
 -1      1885 1.12752E-04-3.47729E-05-3.34757E-05-3.85540E-06 5.82865E-19-1.25425E-18
 -1      1886 1.11587E-04-3.40860E-05-3.32139E-05-4.51847E-06 7.87774E-19-6.07309E-19
 -1      1887 1.11539E-04-3.52408E-05-3.27090E-05-4.44607E-06 6.32039E-19-3.25694E-19
 -1      1888 1.10321E-04-3.34238E-05-3.29832E-05-4.95560E-06 3.77274E-19-5.42783E-19
 -1      1889 1.08952E-04-3.27869E-05-3.26408E-05-5.14850E-06 1.34164E-19-8.12050E-19
 -1      1890 1.08842E-04-3.34050E-05-3.23425E-05-6.07146E-06 5.50669E-19 4.10076E-19
 -1      1891 1.07817E-04-3.22800E-05-3.23784E-05-5.14262E-06-4.81116E-19-1.23152E-18
 -1      1892 1.06443E-04-3.17409E-05-3.20126E-05-5.04387E-06-1.94415E-19-1.47265E-18
 -1      1893 1.06373E-04-3.19679E-05-3.18996E-05-6.50066E-06-3.12997E-20-2.61254E-19
 -1      1894 1.05457E-04-3.13656E-05-3.17447E-05-4.79000E-06-1.97428E-19-1.92267E-18
 -1      1895 1.04192E-04-3.09296E-05-3.13946E-05-4.54213E-06-8.25962E-19-1.96868E-18
 -1      1896 1.04212E-04-3.09273E-05-3.14184E-05-6.18737E-06-7.19655E-19-9.51024E-19
 -1      1897 1.03352E-04-3.06532E-05-3.11408E-05-4.17782E-06-1.18336E-18-1.86670E-18
 -1      1898 1.02253E-04-3.03093E-05-3.08282E-05-3.87531E-06-1.11502E-18-1.83351E-18
 -1      1899 1.02366E-04-3.01986E-05-3.09389E-05-5.48930E-06-8.58845E-19-1.35055E-18
 -1      1900 1.01549E-04-3.01045E-05-3.06008E-05-3.48554E-06-9.15714E-19-1.65208E-18
 -1      1901 1.00630E-04-2.98377E-05-3.03347E-05-3.18320E-06-3.29076E-19-1.55318E-18
 -1      1902 1.00818E-04-2.96924E-05-3.04915E-05-4.64599E-06-9.29875E-19 2.63810E-19
 -1      1903 1.00051E-04-2.96848E-05-3.01391E-05-2.81464E-06 6.22983E-20-1.48960E-18
 -1      1904 9.93067E-05-2.94807E-05-2.99203E-05-2.54014E-06 4.37934E-19-2.09720E-18
 -1      1905 9.95396E-05-2.93393E-05-3.00941E-05-3.79973E-06 1.47830E-19 2.74789E-19
 -1      1906 9.88381E-05-2.93660E-05-2.97575E-05-2.21471E-06-3.99337E-19-2.14059E-18
 -1      1907 9.82492E-05-2.92121E-05-2.95826E-05-1.97919E-06-8.38738E-19-2.20428E-18
 -1      1908 9.85004E-05-2.90908E-05-2.97543E-05-3.02510E-06-5.09126E-19-5.10505E-19
 -1      1909 9.78765E-05-2.91262E-05-2.94505E-05-1.70418E-06-1.12901E-18-2.81526E-18
 -1      1910 9.74209E-05-2.90118E-05-2.93139E-05-1.50954E-06-1.49633E-18-3.59827E-18
 -1      1911 9.76693E-05-2.89151E-05-2.94725E-05-2.35416E-06-1.10644E-18-6.67415E-19
 -1      1912 9.71295E-05-2.89480E-05-2.92092E-05-1.28425E-06-2.27785E-19-3.67534E-18
 -1      1913 9.67841E-05-2.88645E-05-2.91047E-05-1.12772E-06 6.48598E-19-3.04457E-18
 -1      1914 9.70155E-05-2.87909E-05-2.92447E-05-1.79430E-06-4.76831E-19-1.37198E-18
 -1      1915 9.65604E-05-2.88177E-05-2.90234E-05-9.47510E-07 1.23059E-18-3.15125E-18
 -1      1916 9.63040E-05-2.87579E-05-2.89451E-05-8.24326E-07 1.49106E-18-2.30434E-18
 -1      1917 9.65100E-05-2.87038E-05-2.90644E-05-1.33980E-06 1.07596E-18-1.83840E-18
 -1      1918 9.61354E-05-2.87242E-05-2.88833E-05-6.82985E-07 1.11808E-18-1.86969E-18
 -1      1919 9.59493E-05-2.86826E-05-2.88260E-05-5.87807E-07 4.02652E-19-8.96444E-19
 -1      1920 9.61261E-05-2.86438E-05-2.89248E-05-9.78805E-07 1.79357E-18-2.54810E-18
 -1      1921 9.58249E-05-2.86589E-05-2.87799E-05-4.78877E-07-9.70522E-19-1.41621E-18
 -1      1922 9.56933E-05-2.86309E-05-2.87389E-05-4.06567E-07-4.33191E-19-1.20370E-18
 -1      1923 9.58402E-05-2.86036E-05-2.88188E-05-6.97383E-07-4.87073E-19-1.58772E-18
 -1      1924 9.56037E-05-2.86148E-05-2.87054E-05-3.23999E-07-3.88345E-19-4.01806E-19
 -1      1925 9.55138E-05-2.85970E-05-2.86770E-05-2.69964E-07 6.43204E-19-1.32416E-18
 -1      1926 9.56321E-05-2.85779E-05-2.87400E-05-4.81703E-07 2.18813E-19-1.24635E-18
 -1      1927 9.54511E-05-2.85865E-05-2.86532E-05-2.08427E-07 2.27189E-18-1.77143E-18
 -1      1928 9.53925E-05-2.85761E-05-2.86343E-05-1.68751E-07 1.25805E-18-1.30975E-18
 -1      1929 9.54844E-05-2.85626E-05-2.86827E-05-3.19147E-07 9.87558E-19-6.74352E-19
 -1      1930 9.53502E-05-2.85698E-05-2.86179E-05-1.23756E-07 3.62829E-19-4.45396E-19
 -1      1931 9.53145E-05-2.85647E-05-2.86061E-05-9.52311E-08 1.86316E-18 1.15948E-18
 -1      1932 9.53831E-05-2.85549E-05-2.86421E-05-1.98792E-07 1.70607E-18-2.11441E-19
 -1      1933 9.52874E-05-2.85615E-05-2.85953E-05-6.31410E-08 1.73381E-18 8.91135E-19
 -1      1934 9.52682E-05-2.85600E-05-2.85885E-05-4.32530E-08 1.31261E-18 4.88256E-19
 -1      1935 9.53166E-05-2.85524E-05-2.86143E-05-1.11580E-07 1.66376E-18 1.33097E-18
 -1      1936 9.52519E-05-2.85590E-05-2.85817E-05-2.12809E-08 5.84349E-19 1.09747E-18
 -1      1937 9.52441E-05-2.85601E-05-2.85784E-05-8.25070E-09 1.14266E-18 1.08954E-18
 -1      1938 9.52755E-05-2.85537E-05-2.85958E-05-5.03228E-08 1.34419E-18 1.45447E-18
 -1      1939 9.52354E-05-2.85609E-05-2.85742E-05 5.69596E-09 1.90427E-18 2.01054E-18
 -1      1940 9.52349E-05-2.85640E-05-2.85730E-05 1.27107E-08 1.95576E-18 2.69680E-18
 -1      1941 9.52523E-05-2.85577E-05-2.85839E-05-9.69962E-09 1.54504E-18 2.77189E-18
 -1      1942 9.52311E-05-2.85659E-05-2.85704E-05 1.92302E-08 1.32539E-18 2.79507E-18
 -1      1943 9.52344E-05-2.85705E-05-2.85701E-05 2.02728E-08 7.58393E-19 2.31162E-18
 -1      1944 9.52390E-05-2.85741E-05-2.85710E-05 2.20660E-08 1.31465E-19 3.28111E-18
 -1      1945 9.52416E-05-2.85649E-05-2.85762E-05 1.34284E-08 1.83800E-18 3.94656E-18
 -1      1946 9.39550E-05-2.75400E-05-2.84320E-05 1.04936E-06 1.74315E-18 3.95493E-18
 -1      1947 9.49624E-05-2.75981E-05-2.88099E-05 2.16519E-06 1.87067E-18 4.59346E-18
 -1      1948 9.57792E-05-2.71671E-05-2.94129E-05 3.42126E-06 2.29705E-18 3.21504E-18
 -1      1949 9.33252E-05-2.76291E-05-2.81266E-05-3.60304E-07 1.50681E-18 3.08759E-18
 -1      1950 9.35855E-05-2.75990E-05-2.82269E-05 2.60923E-07 1.46279E-18 3.68290E-18
 -1      1951 9.45094E-05-2.75518E-05-2.87059E-05 7.99702E-07 1.78256E-18 2.65103E-18
 -1      1952 9.34924E-05-2.78064E-05-2.81303E-05-1.22609E-06 9.15897E-19 2.36952E-18
 -1      1953 9.33074E-05-2.76964E-05-2.80858E-05-8.32278E-07 1.21656E-18 2.86100E-18
 -1      1954 9.41087E-05-2.77612E-05-2.84480E-05-7.37289E-07 1.42411E-18 1.92371E-18
 -1      1955 9.42113E-05-2.80830E-05-2.83245E-05-1.82257E-06 3.00540E-19 1.83997E-18
 -1      1956 9.37382E-05-2.79110E-05-2.81917E-05-1.54003E-06 4.45404E-19 2.21311E-18
 -1      1957 9.43457E-05-2.79857E-05-2.84542E-05-1.72639E-06 7.73909E-19 1.17973E-18
 -1      1958 9.53349E-05-2.84488E-05-2.86515E-05-2.28528E-06 5.07209E-19 1.45916E-18
 -1      1959 9.46554E-05-2.82268E-05-2.84565E-05-2.05707E-06 3.19244E-19 1.64914E-18
 -1      1960 9.50478E-05-2.82690E-05-2.86326E-05-2.43574E-06 4.57108E-19 8.33303E-19
 -1      1961 9.67779E-05-2.88967E-05-2.90796E-05-2.67981E-06 7.31630E-19 1.40006E-18
 -1      1962 9.59360E-05-2.86305E-05-2.88362E-05-2.47820E-06 6.76705E-19 1.51237E-18
 -1      1963 9.61052E-05-2.86212E-05-2.89336E-05-3.00052E-06 7.17408E-19 4.10050E-19
 -1      1964 9.84867E-05-2.94253E-05-2.95874E-05-3.02688E-06 6.91428E-19 6.56250E-19
 -1      1965 9.75097E-05-2.91169E-05-2.93048E-05-2.84365E-06 7.50073E-19 1.25320E-18
 -1      1966 9.74502E-05-2.90479E-05-2.93261E-05-3.48202E-06 9.31938E-19 6.99167E-19
 -1      1967 1.00414E-04-3.00359E-05-3.01549E-05-3.30751E-06 3.20128E-19 7.14519E-19
 -1      1968 9.93285E-05-2.96868E-05-2.98424E-05-3.15260E-06 4.39227E-19 6.76994E-19
 -1      1969 9.90368E-05-2.95581E-05-2.97868E-05-3.88814E-06 6.25532E-19 6.41663E-19
 -1      1970 1.02496E-04-3.07278E-05-3.07559E-05-3.45961E-06 3.72504E-19 9.59538E-19
 -1      1971 1.01342E-04-3.03428E-05-3.04272E-05-3.36368E-06 3.10554E-19 8.03232E-19
 -1      1972 1.00822E-04-3.01637E-05-3.02917E-05-4.17631E-06 4.30712E-19 6.92764E-19
 -1      1973 1.04630E-04-3.14901E-05-3.13509E-05-3.37289E-06 2.75172E-19 9.73109E-19
 -1      1974 1.03474E-04-3.10824E-05-3.10283E-05-3.39054E-06 3.03603E-19 8.06658E-19
 -1      1975 1.02749E-04-3.08757E-05-3.08108E-05-4.24940E-06 2.45630E-19 5.94412E-19
 -1      1976 1.06647E-04-3.22889E-05-3.18822E-05-2.89088E-06 4.18482E-19 4.62371E-19
 -1      1977 1.05599E-04-3.18873E-05-3.15993E-05-3.10044E-06 4.06281E-19 9.91224E-19
 -1      1978 1.04723E-04-3.16934E-05-3.13035E-05-3.95368E-06 3.80280E-19 1.60665E-19
 -1      1979 1.08296E-04-3.30473E-05-3.22732E-05-1.83632E-06-1.66700E-19 4.31504E-19
 -1      1980 1.07513E-04-3.27056E-05-3.20755E-05-2.32777E-06-2.21751E-20 5.68654E-19
 -1      1981 1.06593E-04-3.25845E-05-3.17179E-05-3.09266E-06 2.00737E-19 3.60522E-19
 -1      1982 1.09242E-04-3.36216E-05-3.24379E-05-8.17302E-08-5.11783E-19 1.53323E-18
 -1      1983 1.08924E-04-3.34258E-05-3.23777E-05-9.21662E-07-3.77340E-19 8.75457E-19
 -1      1984 1.08128E-04-3.34508E-05-3.19955E-05-1.47836E-06-4.53894E-19 9.22252E-19
 -1      1985 1.09107E-04-3.37859E-05-3.23064E-05 2.31644E-06-5.23215E-19 1.35931E-18
 -1      1986 1.09454E-04-3.38521E-05-3.24267E-05 1.15258E-06-4.40470E-19 1.48744E-18
 -1      1987 1.09006E-04-3.40887E-05-3.20861E-05 9.55902E-07-4.89353E-19 1.02459E-18
 -1      1988 1.07586E-04-3.32671E-05-3.18628E-05 4.93880E-06 6.20783E-20 1.50085E-18
 -1      1989 1.08719E-04-3.37079E-05-3.21735E-05 3.65700E-06-2.63249E-19 1.40958E-18
 -1      1990 1.08852E-04-3.41743E-05-3.19696E-05 3.97427E-06 6.11452E-20 1.75436E-18
 -1      1991 1.04672E-04-3.18972E-05-3.11830E-05 6.91307E-06 9.29225E-19 1.57238E-18
 -1      1992 1.06511E-04-3.27386E-05-3.16367E-05 5.94054E-06 6.85058E-19 1.34086E-18
 -1      1993 1.07374E-04-3.33623E-05-3.16789E-05 6.85360E-06 6.85494E-19 1.49126E-18
 -1      1994 1.00917E-04-2.98563E-05-3.04386E-05 7.13219E-06 3.25947E-19 8.58918E-19
 -1      1995 1.03079E-04-3.09358E-05-3.09255E-05 7.00255E-06 5.62173E-19 1.04961E-18
 -1      1996 1.04650E-04-3.15446E-05-3.13031E-05 8.41070E-06 9.81809E-19 1.29955E-18
 -1      1997 9.75162E-05-2.78487E-05-2.98514E-05 4.89737E-06 1.61730E-19 6.25051E-19
 -1      1998 9.93414E-05-2.87810E-05-3.02265E-05 5.92618E-06 4.95382E-19 9.76748E-19
 -1      1999 1.01395E-04-2.91685E-05-3.09587E-05 7.46412E-06 5.17180E-19 8.74389E-19
 -1      2000 9.59248E-05-2.68672E-05-2.96102E-05 6.83866E-07 6.13351E-19-5.55453E-19
 -1      2001 9.67110E-05-2.72132E-05-2.97489E-05 2.61248E-06 1.26181E-19-4.09633E-19
 -1      2002 9.89297E-05-2.72768E-05-3.07453E-05 3.71431E-06 4.95766E-19-1.30870E-19
 -1      2003 9.69376E-05-2.74661E-05-2.97981E-05-3.84054E-06 1.62922E-18-1.39981E-18
 -1      2004 9.63426E-05-2.70473E-05-2.96504E-05-1.79564E-06 1.26543E-18-7.12702E-19
 -1      2005 9.84851E-05-2.68944E-05-3.07241E-05-1.60241E-06 1.49734E-18-6.26116E-19
 -1      2006 1.00130E-04-2.93304E-05-3.03553E-05-6.81732E-06 6.04947E-19-3.09636E-18
 -1      2007 9.83794E-05-2.83558E-05-2.99701E-05-5.48161E-06 1.24425E-18-2.25765E-18
 -1      2008 1.00305E-04-2.82434E-05-3.08999E-05-6.27557E-06 1.80270E-18-2.06488E-18
 -1      2009 1.04126E-04-3.15096E-05-3.11122E-05-7.34521E-06-2.48320E-19-3.08197E-18
 -1      2010 1.01888E-04-3.04243E-05-3.06124E-05-7.08302E-06-1.79905E-19-3.32470E-18
 -1      2011 1.03484E-04-3.05835E-05-3.12326E-05-8.50519E-06 1.64371E-19-3.13795E-18
 -1      2012 1.07522E-04-3.31478E-05-3.18493E-05-5.82496E-06-7.39940E-19-2.17371E-18
 -1      2013 1.05510E-04-3.23211E-05-3.13795E-05-6.43991E-06-4.13253E-19-2.85107E-18
 -1      2014 1.06625E-04-3.27654E-05-3.16359E-05-7.94626E-06-6.84191E-19-3.17950E-18
 -1      2015 1.09549E-04-3.39183E-05-3.23857E-05-3.32922E-06-6.40311E-19-1.50342E-18
 -1      2016 1.08212E-04-3.34911E-05-3.20542E-05-4.36107E-06-6.08851E-19-1.59455E-18
 -1      2017 1.08735E-04-3.40485E-05-3.19970E-05-5.51979E-06-8.40832E-19-2.39396E-18
 -1      2018 1.10112E-04-3.39303E-05-3.26292E-05-8.49170E-07-8.60235E-20-9.46659E-20
 -1      2019 1.09570E-04-3.38626E-05-3.24822E-05-1.88251E-06-4.78852E-19-9.14026E-19
 -1      2020 1.09515E-04-3.43353E-05-3.22180E-05-2.50040E-06-5.95100E-19-1.45980E-18
 -1      2021 1.09508E-04-3.34628E-05-3.25808E-05 1.05702E-06-1.99622E-19-6.70188E-19
 -1      2022 1.09649E-04-3.36396E-05-3.26076E-05 2.55180E-07-2.09038E-19-5.82769E-19
 -1      2023 1.09151E-04-3.39156E-05-3.22478E-05 1.66701E-07-5.15896E-20-8.39473E-19
 -1      2024 1.08151E-04-3.27734E-05-3.23026E-05 2.24075E-06 3.30457E-19-9.05207E-19
 -1      2025 1.08767E-04-3.30808E-05-3.24599E-05 1.73463E-06 4.49986E-20-2.33563E-19
 -1      2026 1.08014E-04-3.31494E-05-3.20900E-05 2.05369E-06 2.27872E-19-8.39052E-19
 -1      2027 1.06411E-04-3.20341E-05-3.18788E-05 2.79299E-06 2.31928E-19-1.31063E-18
 -1      2028 1.07292E-04-3.23887E-05-3.21146E-05 2.54786E-06 3.22802E-19-1.06900E-18
 -1      2029 1.06457E-04-3.22991E-05-3.17862E-05 3.12334E-06 4.98179E-19-8.42103E-20
 -1      2030 1.04567E-04-3.13388E-05-3.13883E-05 2.89056E-06-1.23808E-18-1.23336E-18
 -1      2031 1.05544E-04-3.16887E-05-3.16569E-05 2.83537E-06-3.56672E-19-1.16036E-18
 -1      2032 1.04749E-04-3.15066E-05-3.13927E-05 3.53338E-06-2.57249E-19-2.39042E-19
 -1      2033 1.02797E-04-3.07289E-05-3.08914E-05 2.70715E-06-9.35682E-20-2.34598E-18
 -1      2034 1.03755E-04-3.10465E-05-3.11595E-05 2.77107E-06-1.13976E-18-2.21213E-18
 -1      2035 1.03071E-04-3.08280E-05-3.09631E-05 3.49235E-06-3.59406E-19-1.67708E-18
 -1      2036 1.01204E-04-3.02167E-05-3.04275E-05 2.37826E-06 2.29553E-19-1.67800E-18
 -1      2037 1.02075E-04-3.04899E-05-3.06745E-05 2.50544E-06 6.09088E-19-1.71367E-18
 -1      2038 1.01527E-04-3.02732E-05-3.05387E-05 3.18604E-06 2.70307E-19-1.87170E-18
 -1      2039 9.98340E-05-2.97994E-05-3.00179E-05 1.99615E-06 1.42156E-19-1.65892E-18
 -1      2040 1.00586E-04-3.00256E-05-3.02333E-05 2.14814E-06 2.11254E-19-1.06391E-18
 -1      2041 1.00172E-04-2.98322E-05-3.01468E-05 2.75290E-06 1.49128E-19-1.09920E-18
 -1      2042 9.86958E-05-2.94676E-05-2.96713E-05 1.61719E-06 9.96041E-19-1.00941E-18
 -1      2043 9.93201E-05-2.96493E-05-2.98515E-05 1.77019E-06 1.56962E-19-1.70535E-18
 -1      2044 9.90240E-05-2.94882E-05-2.98025E-05 2.28453E-06 4.13144E-19-1.97971E-19
 -1      2045 9.77775E-05-2.92094E-05-2.93875E-05 1.27196E-06 4.66513E-19 3.20123E-19
 -1      2046 9.82798E-05-2.93517E-05-2.95335E-05 1.41277E-06 1.16133E-18-4.09619E-19
 -1      2047 9.80801E-05-2.92241E-05-2.95112E-05 1.83544E-06 9.15811E-19 1.66333E-18
 -1      2048 9.70554E-05-2.90127E-05-2.91617E-05 9.74033E-07-1.24656E-18 3.61792E-19
 -1      2049 9.74485E-05-2.91213E-05-2.92766E-05 1.09654E-06-3.39496E-19 2.46675E-19
 -1      2050 9.73232E-05-2.90246E-05-2.92724E-05 1.43403E-06 4.58812E-20 2.17655E-18
 -1      2051 9.65010E-05-2.88659E-05-2.89866E-05 7.26689E-07-2.97497E-19-1.79905E-19
 -1      2052 9.68009E-05-2.89469E-05-2.90747E-05 8.29142E-07-1.05614E-18-4.95316E-21
 -1      2053 9.67303E-05-2.88763E-05-2.90818E-05 1.09175E-06-6.54232E-19 1.28175E-18
 -1      2054 9.60856E-05-2.87590E-05-2.88542E-05 5.27390E-07-1.79859E-18 1.03569E-18
 -1      2055 9.63086E-05-2.88178E-05-2.89200E-05 6.10518E-07-9.86065E-19-4.52776E-19
 -1      2056 9.62763E-05-2.87681E-05-2.89335E-05 8.09884E-07-1.05000E-18 3.98699E-19
 -1      2057 9.57823E-05-2.86831E-05-2.87565E-05 3.70743E-07-1.43774E-18 2.23377E-18
 -1      2058 9.59436E-05-2.87246E-05-2.88044E-05 4.36546E-07-1.79052E-18 1.43794E-18
 -1      2059 9.59367E-05-2.86911E-05-2.88209E-05 5.84120E-07-2.38263E-18 1.07950E-18
 -1      2060 9.55674E-05-2.86312E-05-2.86866E-05 2.50303E-07 9.22960E-20 1.24978E-18
 -1      2061 9.56803E-05-2.86594E-05-2.87203E-05 3.01286E-07-7.83240E-19 1.94813E-18
 -1      2062 9.56890E-05-2.86378E-05-2.87374E-05 4.07510E-07-4.82363E-19 1.28801E-18
 -1      2063 9.54208E-05-2.85973E-05-2.86382E-05 1.59621E-07 7.04499E-19 1.98211E-18
 -1      2064 9.54966E-05-2.86155E-05-2.86611E-05 1.98346E-07 4.86366E-19 1.38731E-18
 -1      2065 9.55137E-05-2.86024E-05-2.86773E-05 2.72288E-07 5.71858E-19 1.01870E-18
 -1      2066 9.53258E-05-2.85768E-05-2.86063E-05 9.28070E-08 2.23902E-18 4.92678E-19
 -1      2067 9.53737E-05-2.85875E-05-2.86210E-05 1.21648E-07 2.12495E-18 1.85856E-18
 -1      2068 9.53941E-05-2.85803E-05-2.86353E-05 1.70920E-07 2.36816E-18 1.42348E-18
 -1      2069 9.52689E-05-2.85659E-05-2.85866E-05 4.48135E-08 2.89619E-18-4.12383E-19
 -1      2070 9.52963E-05-2.85713E-05-2.85952E-05 6.58234E-08 2.36744E-18-4.85139E-20
 -1      2071 9.53166E-05-2.85678E-05-2.86073E-05 9.66584E-08 2.92193E-18 2.84546E-19
 -1      2072 9.52393E-05-2.85620E-05-2.85757E-05 1.16252E-08 1.13755E-18-1.60997E-18
 -1      2073 9.52522E-05-2.85635E-05-2.85800E-05 2.64342E-08 1.85420E-18-5.60432E-19
 -1      2074 9.52700E-05-2.85623E-05-2.85896E-05 4.38396E-08 2.23042E-18-4.11363E-19
 -1      2075 9.52282E-05-2.85628E-05-2.85706E-05-9.43533E-09-1.22133E-18-1.82510E-18
 -1      2076 9.52314E-05-2.85618E-05-2.85721E-05 2.11550E-10-1.06124E-19-1.95213E-18
 -1      2077 9.52453E-05-2.85617E-05-2.85791E-05 8.21117E-09 2.30414E-19-1.88657E-18
 -1      2078 9.52285E-05-2.85672E-05-2.85689E-05-1.92363E-08 1.79145E-19-1.57704E-18
 -1      2079 9.52260E-05-2.85644E-05-2.85689E-05-1.48228E-08-5.11411E-19-1.42037E-18
 -1      2080 9.52354E-05-2.85649E-05-2.85734E-05-1.30449E-08-6.56037E-19-7.18214E-19
 -1      2081 9.52338E-05-2.85733E-05-2.85686E-05-1.85365E-08 5.20193E-19-8.07551E-19
 -1      2082 9.52288E-05-2.85689E-05-2.85684E-05-1.97036E-08 5.11057E-19-1.28129E-18
 -1      2083 9.52346E-05-2.85698E-05-2.85707E-05-2.08055E-08 4.65773E-19 6.74832E-19
 -1      2084 9.52377E-05-2.85771E-05-2.85687E-05-2.04517E-08 7.33810E-19 1.28202E-18
 -1      2085 9.52422E-05-2.85693E-05-2.85742E-05 4.63221E-09-5.27326E-19 1.72188E-18
 -1      2086 9.52434E-05-2.85710E-05-2.85736E-05-1.40028E-10 6.42045E-19 8.83360E-19
 -1      2087 9.52456E-05-2.85771E-05-2.85722E-05-6.55974E-09 1.14502E-19 4.72169E-19
 -1      2088 9.52446E-05-2.85763E-05-2.85720E-05-1.15756E-08 2.92723E-19 4.11574E-19
 -1      2089 9.52432E-05-2.85593E-05-2.85789E-05 3.18497E-10 1.09894E-19 6.16489E-19
 -1      2090 9.52440E-05-2.85800E-05-2.85702E-05-1.64142E-08 3.97798E-20 3.46368E-20
 -1      2091 9.52407E-05-2.85769E-05-2.85701E-05-1.83057E-08 5.86575E-19-2.39934E-19
 -1      2092 9.52400E-05-2.85732E-05-2.85715E-05-1.96105E-08 5.73172E-19-2.70780E-19
 -1      2093 9.52442E-05-2.85693E-05-2.85752E-05-1.25806E-08-4.39478E-19 1.85983E-19
 -1      2094 9.52361E-05-2.85581E-05-2.85764E-05 1.19592E-08-1.94457E-18-3.06438E-18
 -1      2095 9.52386E-05-2.85616E-05-2.85756E-05 9.20014E-09-1.74346E-18 5.21391E-19
 -1      2096 9.52367E-05-2.85452E-05-2.85821E-05 1.24457E-08-6.25040E-19-9.80192E-20
 -1      2097 9.52293E-05-2.85463E-05-2.85787E-05 1.36006E-08-4.04492E-19-4.17509E-19
 -1      2098 9.52320E-05-2.85503E-05-2.85777E-05 1.33988E-08-7.78202E-19-1.24892E-18
 -1      2099 9.52275E-05-2.85290E-05-2.85850E-05 1.88099E-08-7.88493E-19-1.58528E-18
 -1      2100 9.52239E-05-2.85369E-05-2.85804E-05 9.61522E-09 2.30124E-19-5.84625E-19
 -1      2101 9.52259E-05-2.85400E-05-2.85796E-05 1.17055E-08 4.27949E-19-1.46242E-19
 -1      2102 9.52185E-05-2.85143E-05-2.85873E-05 1.78248E-08 3.85626E-19-2.80740E-19
 -1      2103 9.52213E-05-2.85324E-05-2.85811E-05 1.93163E-09-7.82670E-19 2.05828E-18
 -1      2104 9.52220E-05-2.85335E-05-2.85809E-05 5.31471E-09-1.90420E-19 5.75039E-19
 -1      2105 9.52120E-05-2.85041E-05-2.85888E-05 1.03495E-08-1.02547E-19-4.55425E-19
 -1      2106 9.52222E-05-2.85339E-05-2.85808E-05-6.52665E-09-1.75245E-18 1.37033E-18
 -1      2107 9.52214E-05-2.85326E-05-2.85811E-05-3.19917E-09-1.97994E-18 2.90907E-18
 -1      2108 9.52098E-05-2.85006E-05-2.85893E-05-7.83459E-10-2.12408E-18 7.18026E-19
 -1      2109 9.52264E-05-2.85409E-05-2.85795E-05-1.26215E-08-1.20163E-18-1.13456E-18
 -1      2110 9.52242E-05-2.85376E-05-2.85802E-05-1.06960E-08-1.87840E-18 8.73856E-19
 -1      2111 9.52124E-05-2.85046E-05-2.85888E-05-1.17701E-08-3.32537E-18 1.54029E-18
 -1      2112 9.52326E-05-2.85514E-05-2.85775E-05-1.38515E-08 1.82316E-19-3.75681E-18
 -1      2113 9.52298E-05-2.85473E-05-2.85785E-05-1.42539E-08-2.74280E-19-1.55382E-18
 -1      2114 9.52191E-05-2.85151E-05-2.85872E-05-1.88064E-08-1.68807E-18-1.16510E-18
 -1      2115 9.52392E-05-2.85628E-05-2.85753E-05-9.11041E-09 8.88454E-19-2.62314E-18
 -1      2116 9.52367E-05-2.85593E-05-2.85762E-05-1.21519E-08 1.19625E-18-3.47587E-18
 -1      2117 9.52282E-05-2.85300E-05-2.85849E-05-1.92225E-08-2.13144E-19-2.91660E-18
 -1      2118 9.52441E-05-2.85722E-05-2.85734E-05 8.11452E-10 3.18286E-19-9.32307E-19
 -1      2119 9.52429E-05-2.85706E-05-2.85739E-05-4.17683E-09 1.38297E-18-2.33484E-18
 -1      2120 9.52375E-05-2.85463E-05-2.85820E-05-1.21586E-08 2.03752E-18-2.76589E-18
 -1      2121 9.52445E-05-2.85776E-05-2.85716E-05 1.31376E-08-1.39961E-18-7.30884E-19
 -1      2122 9.52464E-05-2.85784E-05-2.85719E-05 7.52425E-09-8.63083E-19-3.68698E-19
 -1      2123 9.52439E-05-2.85604E-05-2.85787E-05 6.69630E-10 4.55673E-19-2.16873E-18
 -1      2124 5.67131E-05-3.86208E-05-8.24928E-06 4.03662E-05 4.76795E-18 7.76512E-18
 -1      2125 4.10217E-05-4.05584E-05-1.68953E-06 3.18133E-05 3.26192E-18 9.08644E-18
 -1      2126 1.26293E-05-3.12922E-05 6.96637E-06 6.39138E-06 1.10390E-18 8.83371E-18
 -1      2127 1.24787E-05-3.13642E-05 7.04173E-06-4.31197E-06-1.84844E-18 8.34412E-18
 -1      2128 2.73279E-05-3.56547E-05 2.51396E-06 2.66662E-05 3.44277E-18 1.09195E-17
 -1      2129 1.86528E-05-3.59376E-05 5.93836E-06 1.83223E-05 1.46897E-18 9.47491E-18
 -1      2130 4.17250E-05-3.55012E-05-3.18470E-06 3.63311E-05 1.84653E-19 9.53759E-18
 -1      2131 9.52853E-05-4.07295E-05-2.33146E-05 4.29324E-05 7.74612E-18 2.77403E-18
 -1      2132 7.73273E-05-4.36083E-05-1.54064E-05 3.85423E-05 5.95761E-18 4.28556E-18
 -1      2133 1.30742E-04-3.95281E-05-3.84673E-05 3.81274E-05 7.77237E-18 2.86085E-18
 -1      2134 1.10651E-04-4.08595E-05-3.04778E-05 3.66872E-05 7.90070E-18 2.90024E-18
 -1      2135 8.73780E-05-8.60211E-06-3.38533E-05-9.83032E-06-2.04731E-18-3.25697E-18
 -1      2136 8.81570E-05-9.18875E-06-3.39261E-05-1.13925E-05-2.38554E-18-2.75235E-18
 -1      2137 9.06684E-05-1.29471E-05-3.33352E-05-1.10477E-05-2.65885E-18-2.26595E-18
 -1      2138 8.86981E-05-1.08053E-05-3.34132E-05-8.65227E-06-2.01738E-18-3.12005E-18
 -1      2139 1.77397E-04-2.87823E-05-6.24300E-05 1.14429E-05 6.66530E-18 2.65121E-19
 -1      2140 1.65327E-04-2.92501E-05-5.76512E-05 1.60915E-05 7.08204E-18 1.37262E-18
 -1      2141 1.77268E-04-2.23777E-05-6.55989E-05-3.19586E-07 7.30354E-18-1.35402E-18
 -1      2142 1.77159E-04-2.38986E-05-6.45780E-05 6.29681E-06 7.15446E-18 6.98802E-21
 -1      2143 1.66999E-04-2.19084E-05-6.18840E-05-5.38125E-06 7.96677E-18-2.82062E-18
 -1      2144 1.74740E-04-2.17945E-05-6.44927E-05-1.74970E-06 7.69614E-18-1.81244E-18
 -1      2145 1.56374E-04-3.29310E-05-5.27452E-05-1.43825E-05 6.83280E-18-4.17079E-18
 -1      2146 1.67314E-04-2.94238E-05-5.84091E-05-9.89050E-06 7.33975E-18-2.65248E-18
 -1      2147 1.32557E-04-4.31774E-05-3.85057E-05-2.70492E-05 5.14424E-18-5.79836E-18
 -1      2148 1.50340E-04-4.06538E-05-4.65180E-05-2.43776E-05 5.90975E-18-5.19189E-18
 -1      2149 9.48322E-05-4.56227E-05-2.18504E-05-3.80673E-05 3.66596E-18-6.97108E-18
 -1      2150 1.16708E-04-4.64609E-05-3.01013E-05-3.83205E-05 3.70323E-18-6.60432E-18
 -1      2151 6.17176E-05-4.35621E-05-8.73094E-06-3.81149E-05 1.46071E-18-6.47719E-18
 -1      2152 7.85047E-05-4.20234E-05-1.58226E-05-4.30062E-05 3.22931E-18-7.20147E-18
 -1      2153 1.00217E-04-5.32404E-05-1.99952E-05-3.96810E-05-2.73168E-20-5.39751E-18
 -1      2154 2.82941E-05-3.77519E-05 2.71205E-06-2.55696E-05-4.23516E-22-7.07717E-18
 -1      2155 4.05709E-05-3.56049E-05-2.62484E-06-3.57764E-05 1.62969E-18-7.13477E-18
 -1      2156 1.24809E-05-3.47264E-05 8.05755E-06-6.47402E-06-1.71191E-18-7.41662E-18
 -1      2157 1.65373E-05-3.47996E-05 6.47473E-06-1.59683E-05 2.81638E-19-7.05028E-18
 -1      2158 1.70518E-05-3.37377E-05 5.94507E-06 1.63004E-05-3.19670E-18-6.14226E-18
 -1      2159 1.26291E-05-3.52790E-05 8.09002E-06 5.51503E-06-1.61619E-18-7.03122E-18
 -1      2160 4.34596E-05-3.77216E-05-3.20729E-06 3.53496E-05-3.65791E-18-4.90665E-18
 -1      2161 3.02474E-05-3.84569E-05 2.15035E-06 2.62573E-05-2.58176E-18-5.43668E-18
 -1      2162 8.16229E-05-4.31729E-05-1.66821E-05 4.22383E-05-4.55280E-18-3.52175E-18
 -1      2163 6.40144E-05-4.45020E-05-9.44585E-06 3.71199E-05-3.46902E-18-3.73954E-18
 -1      2164 1.20189E-04-4.50294E-05-3.18363E-05 3.82371E-05-5.35621E-18-2.04897E-18
 -1      2165 1.00126E-04-4.66645E-05-2.37044E-05 3.63806E-05-4.85900E-18-3.00273E-18
 -1      2166 1.53072E-04-3.96072E-05-4.75616E-05 2.96661E-05-6.83683E-18-2.24464E-19
 -1      2167 1.33087E-04-4.13474E-05-3.95681E-05 2.99512E-05-6.42157E-18-1.23752E-18
 -1      2168 1.75813E-04-3.36138E-05-5.96269E-05 1.69825E-05-5.92987E-18 1.54456E-18
 -1      2169 1.60752E-04-3.39820E-05-5.38127E-05 2.16756E-05-6.64561E-18 2.35899E-19
 -1      2170 1.76232E-04-2.32907E-05-6.48062E-05 1.62410E-06-6.57086E-18 3.29729E-18
 -1      2171 1.78569E-04-2.79147E-05-6.30471E-05 1.06160E-05-6.54587E-18 1.62546E-18
 -1      2172 1.80499E-04-2.50711E-05-6.51667E-05-5.26913E-06-7.17098E-18 5.34986E-18
 -1      2173 1.74161E-04-2.06362E-05-6.52333E-05 1.58109E-06-6.73899E-18 4.02967E-18
 -1      2174 1.67625E-04-2.99605E-05-5.85613E-05-1.33413E-05-6.94144E-18 6.03638E-18
 -1      2175 1.79998E-04-2.94262E-05-6.32101E-05-8.81014E-06-7.09792E-18 5.18977E-18
 -1      2176 1.59342E-04-1.81715E-05-5.93929E-05 2.62288E-06-6.99014E-18 2.89812E-18
 -1      2177 1.46163E-04-4.13865E-05-4.48822E-05-1.88684E-05-6.06973E-18 4.81369E-18
 -1      2178 1.63517E-04-3.74468E-05-5.27785E-05-1.81224E-05-6.34777E-18 5.47946E-18
 -1      2179 1.08582E-04-4.53636E-05-2.77760E-05-3.51454E-05-6.95414E-18 7.80710E-18
 -1      2180 1.31256E-04-4.65746E-05-3.62847E-05-3.17242E-05-5.98725E-18 5.37908E-18
 -1      2181 7.59805E-05-4.55683E-05-1.39841E-05-3.76863E-05-5.30581E-18 8.66388E-18
 -1      2182 9.36871E-05-4.37851E-05-2.14790E-05-4.17557E-05-6.60516E-18 9.03572E-18
 -1      2183 1.14205E-04-5.49441E-05-2.52726E-05-3.40117E-05-2.40473E-18 4.28895E-18
 -1      2184 3.88916E-05-4.06146E-05-7.80713E-07-2.99125E-05-4.42956E-18 7.35595E-18
 -1      2185 5.36305E-05-3.89362E-05-6.88175E-06-3.85038E-05-5.40576E-18 9.35887E-18
 -1      2186 1.79058E-05-3.57166E-05 6.20114E-06-1.61710E-05-1.55896E-18 7.68598E-18
 -1      2187 2.61079E-05-3.58771E-05 3.10726E-06-2.45139E-05-4.03230E-18 7.10004E-18
 -1      2188 3.93698E-05-3.48469E-05-2.50725E-06-3.43321E-05-1.26526E-18 7.48735E-18
 -1      2189 1.59131E-04-3.62268E-05-5.18456E-05 2.42059E-05 7.35383E-18 1.28410E-18
 -1      2190 1.42537E-04-3.68259E-05-4.50894E-05 2.93945E-05 7.91425E-18 3.05694E-18
 -1      2191 1.41652E-04-4.62418E-05-4.02815E-05 2.14533E-05 5.52498E-18-1.97782E-19
 -1      2192 9.74593E-05-2.43946E-05-3.13822E-05-9.45197E-06-2.70733E-18 2.30270E-18
 -1      2193 1.57139E-04-3.33697E-05-5.21644E-05 7.68334E-06 6.64211E-18-3.56177E-19
 -1      2194 9.66913E-05-2.31795E-05-3.15744E-05-9.67611E-06-2.82204E-18 6.81478E-19
 -1      2195 1.89305E-05-2.51753E-05 2.12566E-06 1.54807E-05-4.98161E-19 1.00988E-17
 -1      2196 7.79769E-05-4.69130E-05-1.35561E-05 4.20503E-05 1.71567E-18 3.87377E-18
 -1      2197 9.52436E-05-2.85745E-05-2.85724E-05 1.58329E-08-8.86499E-19 5.10225E-19
 -1      2198 1.83473E-05-2.48985E-05 2.23822E-06-1.29681E-05-5.87841E-19 8.76467E-18
 -1      2199 1.15316E-04-5.14537E-05-2.72680E-05 3.49021E-05 3.99503E-18-5.27278E-19
 -1      2200 7.63411E-05-4.73391E-05-1.26140E-05-4.12647E-05-1.62969E-18 7.29798E-18
 -1      2201 1.56661E-04-3.32969E-05-5.23305E-05 7.74731E-07-5.27151E-18 2.42251E-18
 -1      2202 1.65533E-04-1.78224E-05-6.24026E-05 4.81997E-08-6.99607E-18 3.32397E-18
 -1      2203 1.49689E-04-1.39854E-05-5.81613E-05-2.39027E-06-7.17945E-18 2.32691E-18
 -1      2204 1.47749E-04-1.14539E-05-5.84784E-05-2.97779E-07-7.39926E-18 2.94699E-18
 -1      2205 1.62194E-04-2.56149E-05-5.73587E-05 7.18981E-07-6.60283E-18 2.05893E-18
 -1      2206 1.55444E-04-4.06466E-05-4.83406E-05 9.93169E-06-6.08805E-18 2.64613E-18
 -1      2207 1.35746E-04-5.30824E-05-3.51291E-05 2.38751E-05-3.82647E-18 9.89758E-19
 -1      2208 1.04374E-04-5.42764E-05-2.14529E-05 3.78267E-05-1.43826E-18-9.83299E-19
 -1      2209 6.39444E-05-4.36668E-05-8.94092E-06 4.08559E-05-2.47334E-19-3.05599E-18
 -1      2210 2.81594E-05-3.07918E-05 5.73945E-07 2.62259E-05-3.94929E-19-5.60249E-18
 -1      2211 1.42359E-05-2.55947E-05 4.10578E-06-6.45719E-07-8.48727E-19-8.03961E-18
 -1      2212 6.14024E-05-4.18562E-05-8.58385E-06-4.17836E-05-1.01983E-18-6.25534E-18
 -1      2213 1.31684E-04-5.31416E-05-3.33529E-05-2.52625E-05 2.19974E-18-4.12547E-18
 -1      2214 1.50866E-04-3.93637E-05-4.72638E-05-7.19487E-06 5.11947E-18-1.77326E-18
 -1      2215 1.54336E-04-2.13069E-05-5.64106E-05 1.95549E-06 7.06913E-18-8.86843E-19
 -1      2216 1.60059E-04-1.83299E-05-5.95337E-05-3.78087E-07 7.62033E-18-7.98964E-19
 -1      2217 1.55355E-04-1.21811E-05-6.04637E-05 9.17186E-07 8.02352E-18-1.52212E-18
 -1      2218 2.69770E-05-2.86869E-05 3.21674E-07-2.69495E-05-8.98914E-19-7.77703E-18
 -1      2219 1.42633E-04-4.92031E-05-3.98811E-05-1.84477E-05-4.47085E-18 3.09675E-18
 -1      2220 1.46657E-04-4.96132E-05-4.21694E-05-2.61222E-06-2.28011E-18-2.76768E-19
 -1      2221 1.37686E-04-5.56704E-05-3.46793E-05-1.63813E-05-2.05035E-18 6.20028E-19
 -1      2222 9.58082E-05-2.64432E-05-2.97096E-05 3.37814E-06 2.33078E-18 1.95127E-18
 -1      2223 9.66373E-05-2.59138E-05-3.02362E-05 5.25279E-06 2.62522E-18 2.34381E-18
 -1      2224 8.76178E-05-1.04308E-05-3.31204E-05-3.19787E-06-5.66618E-19-3.49862E-18
 -1      2225 8.79384E-05-1.07615E-05-3.31106E-05-4.23401E-06-9.63093E-19-3.50456E-18
 -1      2226 8.84003E-05-1.13441E-05-3.30711E-05-5.14656E-06-1.23653E-18-3.49001E-18
 -1      2227 8.89169E-05-1.18965E-05-3.30515E-05-6.24200E-06-1.57047E-18-3.32648E-18
 -1      2228 8.94139E-05-1.30337E-05-3.27310E-05-4.21406E-06-1.03430E-18-3.23903E-18
 -1      2229 8.71289E-05-9.85847E-06-3.31488E-05 5.37506E-07 6.95385E-19-3.52433E-18
 -1      2230 8.71224E-05-9.85137E-06-3.31493E-05-4.44292E-07 3.24221E-19-3.53160E-18
 -1      2231 8.73889E-05-1.01458E-05-3.31367E-05 2.40819E-06 1.21340E-18-3.41536E-18
 -1      2232 8.72244E-05-9.97764E-06-3.31416E-05 1.41007E-06 8.94898E-19-3.47781E-18
 -1      2233 8.83302E-05-1.17398E-05-3.28239E-05 8.77759E-07 7.52225E-19-3.30463E-18
 -1      2234 8.79854E-05-1.08230E-05-3.31047E-05 4.30778E-06 1.72428E-18-3.27294E-18
 -1      2235 8.76597E-05-1.04848E-05-3.31155E-05 3.28423E-06 1.41976E-18-3.40856E-18
 -1      2236 8.87105E-05-1.21921E-05-3.27921E-05 2.55954E-06 1.30614E-18-3.19948E-18
 -1      2237 8.89858E-05-1.19887E-05-3.30417E-05 6.32291E-06 2.36774E-18-2.64187E-18
 -1      2238 8.84580E-05-1.14211E-05-3.30630E-05 5.22280E-06 1.96227E-18-3.01015E-18
 -1      2239 8.94704E-05-1.31109E-05-3.27221E-05 4.27455E-06 1.77654E-18-2.88397E-18
 -1      2240 9.04888E-05-1.38042E-05-3.29260E-05 8.37984E-06 2.86252E-18-1.82913E-18
 -1      2241 8.96994E-05-1.29064E-05-3.29672E-05 7.23556E-06 2.52507E-18-2.26710E-18
 -1      2242 9.06634E-05-1.45933E-05-3.25931E-05 6.00534E-06 2.35365E-18-2.25971E-18
 -1      2243 9.26773E-05-1.65703E-05-3.27149E-05 1.02612E-05 3.28162E-18-6.12100E-19
 -1      2244 9.15175E-05-1.51523E-05-3.27904E-05 9.17829E-06 2.96366E-18-1.28721E-18
 -1      2245 9.23467E-05-1.67844E-05-3.23626E-05 7.58374E-06 2.76090E-18-1.34164E-18
 -1      2246 9.51244E-05-2.72103E-05-2.90828E-05 7.32627E-07 1.82091E-18 1.52246E-18
 -1      2247 9.55364E-05-2.69595E-05-2.93181E-05 1.81238E-06 2.04141E-18 1.85988E-18
 -1      2248 9.59033E-05-2.58344E-05-3.00409E-05 3.32305E-06 2.40204E-18 1.03510E-18
 -1      2249 9.63640E-05-2.50798E-05-3.05050E-05-5.27928E-06-2.17452E-18-1.77040E-19
 -1      2250 9.58402E-05-2.58244E-05-3.00139E-05-3.26409E-06-1.93462E-18-2.23896E-19
 -1      2251 1.50510E-04-2.96607E-05-5.22432E-05-2.48063E-06 6.10478E-18-1.74722E-18
 -1      2252 1.47552E-04-3.79578E-05-4.70691E-05 2.13147E-06 5.61011E-18-1.73938E-18
 -1      2253 9.57968E-05-2.64895E-05-2.96484E-05-1.77366E-06-1.75578E-18 2.63126E-21
 -1      2254 9.55092E-05-2.68664E-05-2.94101E-05-5.63078E-07-1.59275E-18-1.29959E-19
 -1      2255 9.58256E-05-2.52053E-05-3.02743E-05-3.04937E-06-1.86241E-18-8.12372E-19
 -1      2256 9.54202E-05-2.71756E-05-2.92102E-05 4.84993E-07-1.44207E-18-8.99021E-21
 -1      2257 9.53905E-05-2.74048E-05-2.91252E-05 1.29066E-06-1.24532E-18-2.65248E-19
 -1      2258 9.57153E-05-2.64778E-05-2.96903E-05-3.13662E-07-1.59326E-18-5.50344E-19
 -1      2259 9.53841E-05-2.75714E-05-2.90404E-05 2.05899E-06-1.04036E-18-2.96180E-19
 -1      2260 9.55793E-05-2.77471E-05-2.90574E-05 2.65010E-06-8.69861E-19-4.01460E-19
 -1      2261 9.56523E-05-2.71318E-05-2.93822E-05 1.65218E-06-1.26570E-18-4.69942E-19
 -1      2262 9.56746E-05-2.78499E-05-2.90554E-05 3.25778E-06-7.55187E-19-5.87543E-19
 -1      2263 9.60532E-05-2.80107E-05-2.91459E-05 3.74409E-06-7.91427E-19-6.38113E-19
 -1      2264 9.57687E-05-2.75044E-05-2.92701E-05 3.13988E-06-1.01513E-18-7.66101E-19
 -1      2265 9.62475E-05-2.80891E-05-2.92044E-05 4.27439E-06-8.27381E-19-6.04903E-19
 -1      2266 9.67823E-05-2.82589E-05-2.93508E-05 4.71847E-06-5.48785E-19-5.56232E-19
 -1      2267 9.60765E-05-2.77370E-05-2.92998E-05 4.36660E-06-8.18499E-19-7.12566E-19
 -1      2268 9.70703E-05-2.83396E-05-2.94532E-05 5.22123E-06-3.61934E-19-7.74145E-19
 -1      2269 9.77475E-05-2.85407E-05-2.96432E-05 5.65310E-06-4.18789E-19-6.70000E-19
 -1      2270 9.65705E-05-2.79188E-05-2.94316E-05 5.47327E-06-5.42350E-19-1.01054E-18
 -1      2271 9.81324E-05-2.86522E-05-2.97761E-05 6.14981E-06-5.66367E-19-4.28629E-19
 -1      2272 9.89484E-05-2.89137E-05-2.99991E-05 6.56929E-06-7.88397E-19-4.71376E-19
 -1      2273 9.72509E-05-2.81235E-05-2.96344E-05 6.53721E-06-4.48321E-19-1.06020E-18
 -1      2274 9.94482E-05-2.90962E-05-3.01494E-05 7.05084E-06-6.39028E-19-3.16945E-19
 -1      2275 1.00406E-04-2.94595E-05-3.03935E-05 7.42226E-06-2.75276E-19-1.29710E-19
 -1      2276 9.81404E-05-2.84396E-05-2.98803E-05 7.57519E-06-5.46342E-19-7.89381E-19
 -1      2277 1.01062E-04-2.97738E-05-3.05480E-05 7.84092E-06-1.34808E-19 1.31668E-19
 -1      2278 1.02169E-04-3.02960E-05-3.07981E-05 8.08257E-06 5.10554E-20 1.97704E-20
 -1      2279 9.92987E-05-2.89926E-05-3.01421E-05 8.53457E-06-2.76047E-19-9.16305E-20
 -1      2280 1.03054E-04-3.08285E-05-3.09439E-05 8.33827E-06 1.67705E-19 9.62048E-20
 -1      2281 1.04315E-04-3.15786E-05-3.11813E-05 8.31070E-06 4.01756E-19 4.00724E-19
 -1      2282 1.00840E-04-2.99612E-05-3.03935E-05 9.27356E-06 1.25335E-19 2.48162E-19
 -1      2283 1.05539E-04-3.24332E-05-3.13107E-05 8.23377E-06 4.63193E-19 3.39132E-19
 -1      2284 1.06938E-04-3.34665E-05-3.15168E-05 7.73700E-06 2.51474E-19 5.70936E-19
 -1      2285 1.02948E-04-3.15746E-05-3.06156E-05 9.53199E-06 4.01659E-19 3.20339E-19
 -1      2286 1.08622E-04-3.47216E-05-3.16377E-05 7.07775E-06-1.36371E-19 6.06656E-19
 -1      2287 1.10089E-04-3.60097E-05-3.18034E-05 5.88036E-06-2.33229E-19 5.31464E-19
 -1      2288 1.05855E-04-3.40519E-05-3.08141E-05 8.90148E-06-4.20572E-20 3.38720E-19
 -1      2289 1.12287E-04-3.76081E-05-3.19582E-05 4.31884E-06-1.58253E-19 6.25200E-19
 -1      2290 1.13605E-04-3.88809E-05-3.21032E-05 2.25405E-06-3.16804E-19 1.10812E-18
 -1      2291 1.09759E-04-3.74339E-05-3.10506E-05 6.82202E-06-2.15201E-19 6.04517E-19
 -1      2292 1.16076E-04-4.04038E-05-3.23911E-05-4.25327E-07-2.20923E-19 1.40739E-18
 -1      2293 1.16848E-04-4.10351E-05-3.25754E-05-3.21825E-06-1.93501E-19 1.71259E-18
 -1      2294 1.14499E-04-4.11229E-05-3.14929E-05 2.67540E-06-1.44968E-19 1.59173E-18
 -1      2295 1.18852E-04-4.15686E-05-3.31383E-05-6.80450E-06-5.28767E-19 1.66228E-18
 -1      2296 1.18499E-04-4.05678E-05-3.34486E-05-9.57760E-06-6.56642E-19 1.68931E-18
 -1      2297 1.19142E-04-4.35078E-05-3.24330E-05-3.66740E-06-4.49680E-19 2.35087E-18
 -1      2298 1.18832E-04-3.89071E-05-3.43790E-05-1.27191E-05-8.61681E-19 1.86938E-18
 -1      2299 1.17146E-04-3.57518E-05-3.48535E-05-1.39089E-05-9.42615E-19 1.65843E-18
 -1      2300 1.21618E-04-4.18737E-05-3.41492E-05-1.09391E-05-9.57895E-19 2.32522E-18
 -1      2301 1.15345E-04-3.18465E-05-3.60108E-05-1.41339E-05-8.30000E-19 1.35304E-18
 -1      2302 1.13102E-04-2.78207E-05-3.65120E-05-1.21690E-05-8.81232E-19 7.91165E-19
 -1      2303 1.20089E-04-3.46496E-05-3.66283E-05-1.51385E-05-1.21941E-18 1.89881E-18
 -1      2304 1.10874E-04-2.41406E-05-3.73845E-05-7.99073E-06-1.59038E-18-1.94831E-19
 -1      2305 1.09691E-04-2.21654E-05-3.76191E-05-3.16202E-06-2.27672E-18-1.37672E-18
 -1      2306 1.15753E-04-2.49093E-05-3.90665E-05-1.13865E-05-2.14260E-18-3.69253E-20
 -1      2307 1.09885E-04-2.22969E-05-3.75973E-05 3.50844E-06-2.17497E-18-2.65467E-18
 -1      2308 1.10975E-04-2.42668E-05-3.73658E-05 8.19600E-06-1.77705E-18-3.25476E-18
 -1      2309 1.13134E-04-2.00387E-05-4.00893E-05 4.42135E-07-2.99855E-18-2.52191E-18
 -1      2310 1.13196E-04-2.79034E-05-3.65131E-05 1.24886E-05-1.21795E-18-3.76186E-18
 -1      2311 1.15531E-04-3.19731E-05-3.60228E-05 1.43515E-05-1.10562E-18-3.93626E-18
 -1      2312 1.15763E-04-2.47564E-05-3.91044E-05 1.17113E-05-2.17444E-18-3.89103E-18
 -1      2313 1.17237E-04-3.58181E-05-3.48756E-05 1.41176E-05-3.48858E-19-4.11111E-18
 -1      2314 1.19049E-04-3.89877E-05-3.44127E-05 1.29285E-05 5.21405E-19-4.03537E-18
 -1      2315 1.20200E-04-3.46795E-05-3.66627E-05 1.52862E-05-8.89318E-19-4.78656E-18
 -1      2316 1.18607E-04-4.05718E-05-3.35011E-05 9.72951E-06 1.13685E-18-3.82268E-18
 -1      2317 1.19016E-04-4.15528E-05-3.32088E-05 7.04300E-06 1.33346E-18-3.41851E-18
 -1      2318 1.21757E-04-4.20496E-05-3.41799E-05 1.10179E-05 1.09395E-18-4.66206E-18
 -1      2319 1.17029E-04-4.10210E-05-3.26629E-05 3.44543E-06 1.16424E-18-2.86473E-18
 -1      2320 1.16294E-04-4.03834E-05-3.24947E-05 7.37412E-07 1.12533E-18-2.33579E-18
 -1      2321 1.19240E-04-4.35432E-05-3.24886E-05 3.86066E-06 1.64272E-18-3.46831E-18
 -1      2322 1.13870E-04-3.88652E-05-3.22219E-05-1.93501E-06 1.04325E-18-1.38565E-18
 -1      2323 1.12574E-04-3.75817E-05-3.20950E-05-3.92026E-06 1.17383E-18-8.18523E-19
 -1      2324 1.14651E-04-4.10962E-05-3.15832E-05-2.37384E-06 1.72300E-18-2.71515E-18
 -1      2325 1.10442E-04-3.59999E-05-3.19547E-05-5.42933E-06 1.09738E-18-1.20958E-18
 -1      2326 1.09022E-04-3.47231E-05-3.18091E-05-6.55969E-06 1.06116E-18-7.38747E-19
 -1      2327 1.09965E-04-3.73520E-05-3.11710E-05-6.36784E-06 1.16703E-18-1.56348E-18
 -1      2328 1.07398E-04-3.34810E-05-3.17044E-05-7.15535E-06 9.26325E-19-6.94948E-19
 -1      2329 1.06065E-04-3.24661E-05-3.15222E-05-7.58918E-06 4.41666E-19-2.67523E-19
 -1      2330 1.06144E-04-3.39761E-05-3.09644E-05-8.29825E-06 1.23148E-18-1.51985E-18
 -1      2331 1.04898E-04-3.16245E-05-3.14100E-05-7.59303E-06-1.41309E-19-2.25576E-19
 -1      2332 1.03724E-04-3.09004E-05-3.11993E-05-7.55983E-06-4.86216E-19-6.01445E-19
 -1      2333 1.03324E-04-3.15120E-05-3.07975E-05-8.77626E-06 3.58831E-21-9.65447E-19
 -1      2334 1.02891E-04-3.03827E-05-3.10703E-05-7.23019E-06-1.17572E-18-9.72266E-19
 -1      2335 1.01886E-04-2.98944E-05-3.08488E-05-6.93125E-06-7.47207E-19-5.68363E-19
 -1      2336 1.01312E-04-2.99251E-05-3.06058E-05-8.37019E-06-9.47251E-19-1.36290E-18
 -1      2337 1.01279E-04-2.95987E-05-3.07088E-05-6.44517E-06-1.67510E-19-4.54982E-19
 -1      2338 1.00434E-04-2.92784E-05-3.04931E-05-6.02516E-06-1.74019E-19 5.83613E-19
 -1      2339 9.98687E-05-2.89949E-05-3.03802E-05-7.49775E-06-2.43414E-19-2.45859E-19
 -1      2340 9.99746E-05-2.91209E-05-3.03517E-05-5.49315E-06-6.33536E-19 7.37218E-19
 -1      2341 9.92734E-05-2.89133E-05-3.01538E-05-5.04367E-06-5.43098E-19 1.11043E-18
 -1      2342 9.88040E-05-2.84972E-05-3.01347E-05-6.43449E-06-2.13700E-19 7.79855E-19
 -1      2343 9.89160E-05-2.88364E-05-3.00196E-05-4.52916E-06-9.50100E-20 1.17351E-18
 -1      2344 9.83426E-05-2.87022E-05-2.98457E-05-4.10196E-06 1.70693E-19 7.54325E-19
 -1      2345 9.79934E-05-2.82614E-05-2.98872E-05-5.34842E-06-3.63363E-19 1.08752E-18
 -1      2346 9.80589E-05-2.86701E-05-2.97244E-05-3.63749E-06-6.51621E-19 6.09846E-19
 -1      2347 9.75969E-05-2.85838E-05-2.95770E-05-3.25786E-06-1.20882E-18 3.69361E-19
 -1      2348 9.73605E-05-2.81742E-05-2.96530E-05-4.33340E-06-6.79501E-19 1.03587E-18
 -1      2349 9.73701E-05-2.85754E-05-2.94713E-05-2.85688E-06-1.57102E-18 1.07203E-19
 -1      2350 9.70037E-05-2.85204E-05-2.93499E-05-2.53393E-06-1.12560E-18-2.48288E-19
 -1      2351 9.68596E-05-2.81661E-05-2.94417E-05-3.43509E-06-1.59789E-18 1.06598E-18
 -1      2352 9.68229E-05-2.85239E-05-2.92607E-05-2.19868E-06-6.18331E-19-3.80718E-20
 -1      2353 9.65371E-05-2.84896E-05-2.91630E-05-1.93238E-06-1.85834E-20 3.09185E-19
 -1      2354 9.64619E-05-2.81968E-05-2.92581E-05-2.66943E-06-7.24661E-19 1.92578E-19
 -1      2355 9.63942E-05-2.84985E-05-2.90897E-05-1.65894E-06 3.87971E-19-4.60539E-19
 -1      2356 9.61750E-05-2.84780E-05-2.90127E-05-1.44458E-06 8.47518E-19-1.10369E-18
 -1      2357 9.61476E-05-2.82435E-05-2.91033E-05-2.03499E-06-5.35930E-19 2.40864E-19
 -1      2358 9.60636E-05-2.84889E-05-2.89537E-05-1.22608E-06 1.61610E-18-2.20009E-18
 -1      2359 9.58987E-05-2.84778E-05-2.88944E-05-1.05694E-06 1.01616E-18-2.33312E-18
 -1      2360 9.59019E-05-2.82943E-05-2.89761E-05-1.52105E-06 7.35278E-19-3.17330E-19
 -1      2361 9.58132E-05-2.84888E-05-2.88479E-05-8.85461E-07 4.19690E-19-2.37292E-18
 -1      2362 9.56916E-05-2.84839E-05-2.88030E-05-7.54338E-07 1.35951E-19-1.44158E-18
 -1      2363 9.57126E-05-2.83431E-05-2.88739E-05-1.11268E-06 7.54737E-19-1.91721E-18
 -1      2364 9.56272E-05-2.84942E-05-2.87671E-05-6.22000E-07 3.46853E-19-1.36810E-18
 -1      2365 9.55397E-05-2.84934E-05-2.87338E-05-5.22037E-07 1.02898E-18-7.33640E-19
 -1      2366 9.55691E-05-2.83871E-05-2.87934E-05-7.93816E-07 6.89378E-19-4.27324E-19
 -1      2367 9.54922E-05-2.85027E-05-2.87066E-05-4.21596E-07 6.58185E-19-6.68774E-19
 -1      2368 9.54311E-05-2.85045E-05-2.86825E-05-3.46680E-07 1.22266E-18-2.68350E-19
 -1      2369 9.54626E-05-2.84253E-05-2.87312E-05-5.48961E-07 5.63052E-19-1.09567E-18
 -1      2370 9.53969E-05-2.85127E-05-2.86623E-05-2.71798E-07 2.49146E-18-3.37561E-19
 -1      2371 9.53557E-05-2.85160E-05-2.86453E-05-2.16725E-07 2.44130E-18 3.66263E-19
 -1      2372 9.53854E-05-2.84577E-05-2.86841E-05-3.64144E-07 1.88453E-18-1.16609E-18
 -1      2373 9.53318E-05-2.85232E-05-2.86305E-05-1.62087E-07 1.25560E-18 2.33281E-19
 -1      2374 9.53054E-05-2.85276E-05-2.86189E-05-1.22628E-07 1.13268E-18 7.73759E-19
 -1      2375 9.53308E-05-2.84849E-05-2.86489E-05-2.27321E-07 1.71445E-18-3.64540E-19
 -1      2376 9.52892E-05-2.85338E-05-2.86082E-05-8.39464E-08 2.04086E-18 7.88917E-19
 -1      2377 9.52735E-05-2.85388E-05-2.86005E-05-5.68073E-08 2.26429E-18 1.72865E-18
 -1      2378 9.52935E-05-2.85078E-05-2.86229E-05-1.28576E-07 1.89204E-18 9.35926E-19
 -1      2379 9.52631E-05-2.85448E-05-2.85927E-05-3.07563E-08 2.23284E-18 2.03911E-18
 -1      2380 9.52549E-05-2.85502E-05-2.85875E-05-1.37813E-08 2.28071E-18 3.73818E-18
 -1      2381 9.52689E-05-2.85273E-05-2.86039E-05-5.99887E-08 2.64664E-18 1.50079E-18
 -1      2382 5.35550E-05-3.49281E-05-7.91713E-06 4.09461E-05-2.36470E-18 6.96621E-18
 -1      2383 3.98295E-05-2.92677E-05-4.31707E-06 3.34391E-05-2.01911E-18 8.49405E-18
 -1      2384 9.51122E-05-2.79288E-05-2.87764E-05-2.12275E-06 7.72024E-19 5.12520E-19
 -1      2385 9.48812E-05-2.77589E-05-2.87405E-05-1.65291E-06 1.14963E-18 8.54398E-19
 -1      2386 9.56876E-05-2.82268E-05-2.88969E-05-2.99043E-06 6.32308E-19 1.56818E-19
 -1      2387 9.52533E-05-2.80431E-05-2.87890E-05-2.63106E-06 6.78076E-19 4.12972E-19
 -1      2388 9.55570E-05-2.78357E-05-2.90391E-05-2.61725E-06 9.54212E-19 7.64439E-20
 -1      2389 9.65607E-05-2.85557E-05-2.91312E-05-3.69413E-06 8.60490E-19-4.71793E-20
 -1      2390 9.59662E-05-2.83459E-05-2.89709E-05-3.39509E-06 5.95908E-19 9.33329E-21
 -1      2391 9.59961E-05-2.81313E-05-2.90980E-05-3.62587E-06 8.50723E-19-1.52500E-19
 -1      2392 9.76865E-05-2.89452E-05-2.94486E-05-4.29383E-06 7.04875E-19 3.52687E-19
 -1      2393 9.69595E-05-2.86976E-05-2.92493E-05-4.03658E-06 7.69902E-19 2.13903E-19
 -1      2394 9.66835E-05-2.84320E-05-2.92617E-05-4.45309E-06 6.84048E-19-2.66092E-19
 -1      2395 9.90352E-05-2.94268E-05-2.98235E-05-4.79147E-06 3.27601E-19 5.76190E-19
 -1      2396 9.81965E-05-2.91278E-05-2.95969E-05-4.58427E-06 5.78082E-19 4.67993E-19
 -1      2397 9.75985E-05-2.87923E-05-2.94981E-05-5.15537E-06 4.51252E-19 2.19583E-19
 -1      2398 1.00583E-04-3.00382E-05-3.02306E-05-5.13104E-06 5.82345E-19 3.48316E-19
 -1      2399 9.96556E-05-2.96721E-05-2.99897E-05-5.00999E-06 5.46945E-19 6.43604E-19
 -1      2400 9.87362E-05-2.92697E-05-2.97806E-05-5.72495E-06 2.96009E-19 4.60759E-19
 -1      2401 1.02300E-04-3.08204E-05-3.06406E-05-5.19370E-06 2.61623E-19 6.96122E-20
 -1      2402 1.01319E-04-3.03732E-05-3.04021E-05-5.22504E-06 6.10623E-19 2.94255E-19
 -1      2403 1.00106E-04-2.99317E-05-3.00842E-05-6.08832E-06 7.22476E-19 1.81991E-19
 -1      2404 1.04137E-04-3.18043E-05-3.10194E-05-4.79678E-06 5.51236E-19-1.52127E-19
 -1      2405 1.03159E-04-3.12731E-05-3.08045E-05-5.07522E-06 1.85709E-19-1.54842E-19
 -1      2406 1.01727E-04-3.08526E-05-3.03848E-05-6.10089E-06 3.68967E-19 1.36723E-19
 -1      2407 1.06001E-04-3.29779E-05-3.13311E-05-3.71151E-06-3.79689E-19 2.91398E-19
 -1      2408 1.05118E-04-3.23900E-05-3.11643E-05-4.34584E-06 1.00734E-19 2.17027E-20
 -1      2409 1.03609E-04-3.20903E-05-3.06616E-05-5.54714E-06-7.21955E-20 7.79552E-20
 -1      2410 1.07717E-04-3.42253E-05-3.15473E-05-1.72528E-06-8.01531E-19 1.00651E-18
 -1      2411 1.07067E-04-3.36695E-05-3.14514E-05-2.79784E-06-5.26176E-19 8.08066E-19
 -1      2412 1.05718E-04-3.36306E-05-3.09045E-05-4.16343E-06-8.13289E-19 4.56578E-19
 -1      2413 1.08992E-04-3.52483E-05-3.16625E-05 1.22520E-06-4.13491E-19 1.22536E-18
 -1      2414 1.08758E-04-3.49078E-05-3.16495E-05-2.65664E-07-7.84389E-19 1.29726E-18
 -1      2415 1.07909E-04-3.52916E-05-3.11254E-05-1.71572E-06-8.63227E-19 9.10947E-19
 -1      2416 1.09398E-04-3.55171E-05-3.17086E-05 4.83317E-06 2.32802E-19 1.48062E-18
 -1      2417 1.09773E-04-3.56701E-05-3.17693E-05 3.15486E-06 1.99450E-20 1.67524E-18
 -1      2418 1.09822E-04-3.66029E-05-3.13691E-05 1.83533E-06-3.53406E-19 1.13461E-18
 -1      2419 1.08489E-04-3.44155E-05-3.17544E-05 8.17273E-06 9.66154E-19 1.79090E-18
 -1      2420 1.09570E-04-3.53115E-05-3.18547E-05 6.83058E-06 6.00444E-19 2.21425E-18
 -1      2421 1.10833E-04-3.67687E-05-3.17089E-05 6.04417E-06 3.19184E-19 1.48735E-18
 -1      2422 1.06176E-04-3.17199E-05-3.18698E-05 9.74560E-06 7.95500E-19 1.62746E-18
 -1      2423 1.07789E-04-3.33272E-05-3.19642E-05 9.44363E-06 1.00029E-18 1.74288E-18
 -1      2424 1.10262E-04-3.49978E-05-3.22107E-05 9.67296E-06 7.88235E-19 1.85190E-18
 -1      2425 1.03148E-04-2.81848E-05-3.20560E-05 8.09966E-06 4.87580E-19 1.58032E-18
 -1      2426 1.04751E-04-2.99438E-05-3.21156E-05 9.35482E-06 4.37486E-19 1.66650E-18
 -1      2427 1.07956E-04-3.12467E-05-3.28569E-05 1.08496E-05 4.57408E-19 1.95778E-18
 -1      2428 1.00958E-04-2.56407E-05-3.22264E-05 3.03498E-06 1.09844E-18 4.52709E-19
 -1      2429 1.01784E-04-2.65883E-05-3.22471E-05 5.65203E-06 1.12368E-18 1.17322E-18
 -1      2430 1.04884E-04-2.68398E-05-3.34698E-05 7.97052E-06 1.03922E-18 2.14914E-18
 -1      2431 1.01068E-04-2.57512E-05-3.22825E-05-3.45118E-06 2.36669E-18-9.52776E-19
 -1      2432 1.00701E-04-2.53244E-05-3.22680E-05-5.73750E-07 1.56661E-18-4.45575E-19
 -1      2433 1.03104E-04-2.44156E-05-3.37904E-05 1.43968E-06 1.95559E-18 7.29736E-19
 -1      2434 1.03513E-04-2.84752E-05-3.22006E-05-8.44344E-06 1.72321E-18-1.39408E-18
 -1      2435 1.02119E-04-2.69256E-05-3.21486E-05-6.55594E-06 2.38213E-18-1.14426E-18
 -1      2436 1.03932E-04-2.54845E-05-3.36578E-05-5.84667E-06 2.52143E-18-5.33195E-19
 -1      2437 1.06800E-04-3.20875E-05-3.20708E-05-1.00071E-05 2.52934E-19-1.89901E-18
 -1      2438 1.05073E-04-3.03242E-05-3.19749E-05-9.69464E-06 1.08880E-18-1.55221E-18
 -1      2439 1.06777E-04-2.94032E-05-3.31482E-05-1.04126E-05 1.67280E-18-6.97881E-19
 -1      2440 1.09259E-04-3.47374E-05-3.19706E-05-8.34558E-06-8.26504E-19-3.05797E-18
 -1      2441 1.07874E-04-3.35292E-05-3.18523E-05-9.31075E-06-3.36864E-19-2.86541E-18
 -1      2442 1.09640E-04-3.36818E-05-3.25116E-05-1.07908E-05 6.21429E-19-2.07900E-18
 -1      2443 1.10162E-04-3.57277E-05-3.19117E-05-4.96921E-06-1.27597E-18-2.92343E-18
 -1      2444 1.09441E-04-3.52925E-05-3.18129E-05-6.52421E-06-1.35721E-18-3.50618E-18
 -1      2445 1.11002E-04-3.63234E-05-3.19681E-05-7.95911E-06-7.77877E-19-3.61111E-18
 -1      2446 1.09672E-04-3.53571E-05-3.18471E-05-1.40855E-06-3.48266E-19-2.32927E-18
 -1      2447 1.09608E-04-3.55179E-05-3.18080E-05-2.94275E-06-8.05254E-19-3.00796E-18
 -1      2448 1.10621E-04-3.68637E-05-3.15950E-05-3.86235E-06-7.43611E-19-3.05852E-18
 -1      2449 1.08317E-04-3.42750E-05-3.17250E-05 1.43127E-06-4.14527E-19-1.85557E-18
 -1      2450 1.08737E-04-3.47457E-05-3.17642E-05 2.50736E-07 2.28302E-20-1.85336E-18
 -1      2451 1.09065E-04-3.59135E-05-3.13531E-05-4.80976E-08-5.66696E-19-2.96401E-18
 -1      2452 1.06581E-04-3.30129E-05-3.15217E-05 3.26799E-06 1.22684E-19-7.49164E-19
 -1      2453 1.07290E-04-3.35709E-05-3.16340E-05 2.52906E-06-5.95567E-19-1.18109E-18
 -1      2454 1.07027E-04-3.43312E-05-3.11657E-05 2.75216E-06-5.26241E-19-2.46974E-18
 -1      2455 1.04779E-04-3.18636E-05-3.12435E-05 4.19043E-06 4.50756E-20-2.44778E-19
 -1      2456 1.05617E-04-3.23860E-05-3.14092E-05 3.84013E-06 6.05844E-19-4.33909E-19
 -1      2457 1.04971E-04-3.27255E-05-3.09744E-05 4.42135E-06-1.04506E-20-1.53103E-18
 -1      2458 1.03080E-04-3.09330E-05-3.09155E-05 4.43001E-06 2.05879E-19-1.00454E-18
 -1      2459 1.03938E-04-3.13718E-05-3.11103E-05 4.36392E-06 6.02569E-19-3.62582E-19
 -1      2460 1.03119E-04-3.13861E-05-3.07533E-05 5.14748E-06 7.43712E-19-1.34859E-18
 -1      2461 1.01559E-04-3.02262E-05-3.05676E-05 4.22809E-06 8.53638E-20-1.88302E-18
 -1      2462 1.02369E-04-3.05739E-05-3.07699E-05 4.34169E-06 7.86098E-20-1.37261E-18
 -1      2463 1.01536E-04-3.03830E-05-3.05028E-05 5.20503E-06 8.12033E-19-1.52233E-18
 -1      2464 1.00243E-04-2.97085E-05-3.02260E-05 3.78112E-06-4.92615E-19-4.14719E-19
 -1      2465 1.00967E-04-2.99749E-05-3.04198E-05 3.99101E-06-3.26264E-19-9.00584E-19
 -1      2466 1.00216E-04-2.96811E-05-3.02365E-05 4.84802E-06-4.41022E-20-1.24275E-18
 -1      2467 9.91321E-05-2.93371E-05-2.99094E-05 3.22874E-06-9.59695E-20 1.90017E-19
 -1      2468 9.97553E-05-2.95369E-05-3.00847E-05 3.47662E-06-2.63777E-19-6.08209E-19
 -1      2469 9.91300E-05-2.92123E-05-2.99709E-05 4.27293E-06-6.37249E-19-6.66474E-20
 -1      2470 9.82142E-05-2.90742E-05-2.96289E-05 2.66068E-06 9.70920E-20 1.32317E-18
 -1      2471 9.87339E-05-2.92218E-05-2.97808E-05 2.90982E-06 5.96157E-20 5.29956E-19
 -1      2472 9.82443E-05-2.89102E-05-2.97201E-05 3.61568E-06-5.10095E-19 5.32585E-19
 -1      2473 9.74704E-05-2.88904E-05-2.93892E-05 2.12899E-06 1.67680E-19 1.86622E-18
 -1      2474 9.78925E-05-2.89977E-05-2.95163E-05 2.35870E-06 1.39991E-19 2.06338E-18
 -1      2475 9.75287E-05-2.87220E-05-2.94935E-05 2.96205E-06-1.79461E-19 1.71120E-18
 -1      2476 9.68791E-05-2.87634E-05-2.91904E-05 1.65977E-06 2.04049E-19 1.90183E-18
 -1      2477 9.72137E-05-2.88402E-05-2.92937E-05 1.86020E-06 6.08906E-19 2.14477E-18
 -1      2478 9.69568E-05-2.86091E-05-2.92962E-05 2.36081E-06 1.96766E-19 1.37485E-18
 -1      2479 9.64178E-05-2.86773E-05-2.90299E-05 1.26243E-06-1.87714E-19 9.11298E-19
 -1      2480 9.66772E-05-2.87311E-05-2.91117E-05 1.43058E-06 2.34056E-19 1.23626E-18
 -1      2481 9.65054E-05-2.85451E-05-2.91296E-05 1.83542E-06 8.68370E-19 4.96429E-19
 -1      2482 9.60649E-05-2.86203E-05-2.89033E-05 9.36409E-07-1.51038E-18 2.48581E-19
 -1      2483 9.62614E-05-2.86571E-05-2.89665E-05 1.07327E-06-2.41158E-19 5.44832E-19
 -1      2484 9.61543E-05-2.85121E-05-2.89928E-05 1.39314E-06 3.08597E-19 6.89430E-19
 -1      2485 9.58005E-05-2.85840E-05-2.88058E-05 6.75706E-07-2.07057E-18-5.63087E-19
 -1      2486 9.59459E-05-2.86082E-05-2.88535E-05 7.84341E-07-2.72231E-18-7.22427E-19
 -1      2487 9.58856E-05-2.84984E-05-2.88830E-05 1.03155E-06-1.46979E-18-7.79834E-19
 -1      2488 9.56071E-05-2.85623E-05-2.87324E-05 4.71867E-07-3.75766E-19 9.93235E-19
 -1      2489 9.57118E-05-2.85774E-05-2.87675E-05 5.56219E-07-9.43032E-19 3.13485E-19
 -1      2490 9.56838E-05-2.84962E-05-2.87970E-05 7.43075E-07-1.45415E-18-1.03630E-18
 -1      2491 9.54694E-05-2.85508E-05-2.86785E-05 3.15792E-07 1.14256E-18 6.62860E-19
 -1      2492 9.55424E-05-2.85593E-05-2.87037E-05 3.79938E-07 2.87326E-19 6.91202E-19
 -1      2493 9.55353E-05-2.85008E-05-2.87310E-05 5.17897E-07 1.34579E-19 1.11389E-18
 -1      2494 9.53748E-05-2.85463E-05-2.86401E-05 1.98805E-07 2.50007E-18 8.84762E-19
 -1      2495 9.54235E-05-2.85502E-05-2.86575E-05 2.46544E-07 2.41748E-18 1.55381E-18
 -1      2496 9.54288E-05-2.85090E-05-2.86814E-05 3.45746E-07 1.21542E-18 2.68754E-19
 -1      2497 9.53125E-05-2.85464E-05-2.86135E-05 1.13201E-07 3.19975E-18 7.46914E-19
 -1      2498 9.53432E-05-2.85471E-05-2.86250E-05 1.47846E-07 2.78800E-18 6.94268E-19
 -1      2499 9.53547E-05-2.85188E-05-2.86451E-05 2.16986E-07 2.65317E-18 4.01479E-19
 -1      2500 9.52741E-05-2.85497E-05-2.85958E-05 5.25934E-08 1.81366E-18-1.24439E-19
 -1      2501 9.52917E-05-2.85482E-05-2.86030E-05 7.68087E-08 2.77467E-18 7.00844E-19
 -1      2502 9.53050E-05-2.85292E-05-2.86191E-05 1.23118E-07 2.83323E-18 9.00779E-19
 -1      2503 9.52526E-05-2.85556E-05-2.85842E-05 1.20037E-08 3.29989E-20-1.96419E-19
 -1      2504 9.52610E-05-2.85524E-05-2.85885E-05 2.76782E-08 1.39668E-18 2.07354E-19
 -1      2505 9.52731E-05-2.85398E-05-2.86007E-05 5.72553E-08 1.71629E-18 7.74719E-19
 -1      2506 9.52425E-05-2.85636E-05-2.85766E-05-1.13165E-08-1.05428E-18-1.49916E-19
 -1      2507 9.52452E-05-2.85590E-05-2.85792E-05-3.00789E-09-1.11964E-18-1.11222E-18
 -1      2508 9.52549E-05-2.85519E-05-2.85876E-05 1.35628E-08-1.75945E-19 6.95023E-19
 -1      2509 9.52393E-05-2.85692E-05-2.85726E-05-1.82869E-08-2.35314E-19-3.34794E-19
 -1      2510 9.52168E-05-2.84990E-05-2.85937E-05 3.00968E-08 1.62744E-18-9.70730E-20
 -1      2511 9.52232E-05-2.85070E-05-2.85924E-05 2.91346E-08 7.26942E-19-1.33592E-18
 -1      2512 9.52038E-05-2.84802E-05-2.85962E-05 2.46493E-08 8.87671E-19-9.14439E-19
 -1      2513 9.52091E-05-2.84866E-05-2.85952E-05 2.76838E-08 6.34018E-19 7.27193E-19
 -1      2514 9.52034E-05-2.84629E-05-2.86028E-05 3.87454E-08 2.20434E-18 4.22539E-19
 -1      2515 9.52431E-05-2.85427E-05-2.85861E-05 1.41103E-08-8.18378E-20 5.10958E-19
 -1      2516 9.52456E-05-2.85486E-05-2.85842E-05 7.33036E-09-1.33676E-19 8.23188E-19
 -1      2517 9.52313E-05-2.85212E-05-2.85904E-05 2.63255E-08-4.31666E-19-6.66083E-20
 -1      2518 9.52368E-05-2.85290E-05-2.85887E-05 2.16377E-08-5.56899E-19 9.51871E-20
 -1      2519 9.52390E-05-2.85187E-05-2.85943E-05 2.91754E-08 1.78557E-19-3.94687E-19
 -1      2520 9.52219E-05-2.84901E-05-2.85992E-05 3.92164E-08 1.42932E-18 3.65096E-19
 -1      2521 9.51955E-05-2.84684E-05-2.85976E-05 1.18891E-08-7.45989E-19-5.56343E-19
 -1      2522 9.51984E-05-2.84719E-05-2.85971E-05 1.78077E-08-1.84778E-19-1.91600E-18
 -1      2523 9.51881E-05-2.84417E-05-2.86052E-05 2.78437E-08 1.89662E-19-2.08585E-18
 -1      2524 9.51937E-05-2.84657E-05-2.85979E-05-4.34454E-09-2.89667E-18 8.19586E-19
 -1      2525 9.51936E-05-2.84656E-05-2.85979E-05 2.57161E-09-1.97774E-18 2.33998E-19
 -1      2526 9.51796E-05-2.84302E-05-2.86064E-05 9.49514E-09-1.28736E-18-1.42052E-18
 -1      2527 9.51990E-05-2.84725E-05-2.85971E-05-1.93496E-08-2.78458E-18 1.58493E-18
 -1      2528 9.51958E-05-2.84688E-05-2.85976E-05-1.35864E-08-3.33589E-18 2.33569E-18
 -1      2529 9.51799E-05-2.84305E-05-2.86064E-05-1.14397E-08-2.41779E-18 9.63358E-19
 -1      2530 9.52098E-05-2.84873E-05-2.85952E-05-2.86193E-08-5.64997E-19-4.22315E-19
 -1      2531 9.52044E-05-2.84809E-05-2.85962E-05-2.58656E-08-1.75308E-18 9.92563E-19
 -1      2532 9.51888E-05-2.84422E-05-2.86052E-05-2.93651E-08-1.59019E-18 1.27064E-18
 -1      2533 9.52241E-05-2.85079E-05-2.85924E-05-2.94689E-08 1.53385E-19-2.72833E-18
 -1      2534 9.52177E-05-2.84998E-05-2.85938E-05-3.07335E-08-2.94602E-19-2.98371E-18
 -1      2535 9.52043E-05-2.84635E-05-2.86029E-05-3.96456E-08-5.67471E-19-1.31441E-18
 -1      2536 9.52378E-05-2.85302E-05-2.85887E-05-2.11023E-08 1.42325E-18-1.84992E-18
 -1      2537 9.52323E-05-2.85223E-05-2.85903E-05-2.62692E-08 6.15905E-19-2.55498E-18
 -1      2538 9.52230E-05-2.84910E-05-2.85993E-05-3.93855E-08-9.75094E-20-2.65879E-18
 -1      2539 9.52465E-05-2.85501E-05-2.85840E-05-6.00193E-09-6.08071E-19-2.94287E-18
 -1      2540 9.52441E-05-2.85440E-05-2.85860E-05-1.34277E-08 5.07511E-19-3.15712E-18
 -1      2541 9.52397E-05-2.85197E-05-2.85943E-05-2.84347E-08 3.91024E-20-3.64967E-18
 -1      2542 9.52437E-05-2.85669E-05-2.85754E-05 1.40389E-08 3.93733E-19 9.69179E-19
 -1      2543 2.17854E-05-1.65957E-05-1.78844E-06-8.57161E-06-1.58025E-19 8.03474E-18
 -1      2544 2.83307E-05-2.16522E-05-2.48191E-06-2.27689E-05-8.09975E-20 7.99536E-18
 -1      2545 9.48992E-05-2.76204E-05-2.88144E-05-9.60726E-07 1.38644E-18 1.06246E-18
 -1      2546 9.49395E-05-2.74407E-05-2.88831E-05-2.81502E-07 1.59177E-18 1.33977E-18
 -1      2547 9.53983E-05-2.74742E-05-2.91278E-05-1.29732E-06 1.48319E-18 4.16575E-19
 -1      2548 9.46270E-05-5.12784E-05-1.86833E-05 4.18122E-05-1.42302E-19-4.86673E-19
 -1      2549 7.41818E-05-4.49329E-05-1.23615E-05 4.19640E-05-1.76691E-18 2.77747E-18
 -1      2550 7.03631E-05-4.37493E-05-1.12046E-05-4.07949E-05 6.46286E-19 6.13993E-18
 -1      2551 9.16928E-05-5.11005E-05-1.75135E-05-4.12617E-05 3.46436E-19 4.37845E-18
 -1      2552 1.26737E-04-5.53908E-05-3.07404E-05 2.81597E-05 2.83968E-18-1.87724E-18
 -1      2553 1.12435E-04-5.52575E-05-2.44783E-05 3.31611E-05 1.44737E-18-1.67681E-18
 -1      2554 1.45371E-04-3.67326E-05-4.70650E-05 6.51159E-06-3.93362E-18 5.63489E-19
 -1      2555 1.48286E-04-2.80313E-05-5.18638E-05 7.83772E-06-5.19337E-18 1.20152E-18
 -1      2556 1.25981E-04-5.73761E-05-2.93214E-05-2.38117E-05-4.07211E-19-2.36481E-18
 -1      2557 1.38607E-04-5.44438E-05-3.65056E-05-1.48726E-05 1.37569E-18-1.00691E-18
 -1      2558 8.72033E-05-9.95071E-06-3.31438E-05-1.31511E-06 7.80281E-20-3.52388E-18
 -1      2559 8.73552E-05-1.01042E-05-3.31400E-05-2.31015E-06-2.77950E-19-3.53978E-18
 -1      2560 8.86701E-05-1.21396E-05-3.27974E-05-2.49112E-06-3.62860E-19-3.21476E-18
 -1      2561 8.83146E-05-1.17200E-05-3.28257E-05-8.00637E-07 1.86286E-19-3.30689E-18
 -1      2562 1.37426E-04-9.67131E-06-5.53787E-05 2.22755E-06 7.65930E-18-7.02296E-19
 -1      2563 1.40273E-04-1.03746E-05-5.61755E-05-1.61903E-06 7.86872E-18-8.87267E-19
 -1      2564 2.55124E-05-2.14626E-05-1.43640E-06-1.97016E-05-1.28865E-18-7.24023E-18
 -1      2565 3.67291E-05-2.51392E-05-4.70531E-06-3.10488E-05-1.43022E-18-7.00115E-18
 -1      2566 1.42926E-04-1.33893E-05-5.62554E-05-4.61846E-06 7.32768E-18-1.84161E-18
 -1      2567 1.45434E-04-1.85957E-05-5.46378E-05-5.57239E-06 6.89146E-18-1.58692E-18
 -1      2568 1.30451E-04-1.05116E-05-5.16347E-05-4.45064E-06 7.05811E-18-1.28151E-18
 -1      2569 1.43732E-04-2.44766E-05-5.14298E-05 7.16909E-06 5.63870E-18 3.53213E-19
 -1      2570 1.41647E-04-1.61853E-05-5.44310E-05 6.53004E-06 6.56980E-18-4.27328E-19
 -1      2571 1.43831E-04-4.51869E-05-4.23345E-05-3.61282E-06 3.12497E-18-6.92449E-20
 -1      2572 1.46849E-04-3.66991E-05-4.78220E-05 2.24443E-06 4.61040E-18 5.72594E-19
 -1      2573 9.66140E-05-5.26099E-05-1.85827E-05-3.89645E-05-1.95876E-18-4.07877E-18
 -1      2574 1.11222E-04-5.65001E-05-2.37012E-05-3.57219E-05-1.29384E-18-3.99344E-18
 -1      2575 5.61712E-05-3.57686E-05-8.40942E-06-3.99038E-05-2.06507E-18-5.79201E-18
 -1      2576 7.64652E-05-4.46589E-05-1.35805E-05-4.35837E-05-1.62186E-18-4.47202E-18
 -1      2577 1.88529E-05-1.84373E-05 4.59178E-08 7.42796E-06-1.69142E-19-7.10745E-18
 -1      2578 1.88232E-05-1.83719E-05-1.66313E-08-7.94693E-06-1.36902E-19-7.86767E-18
 -1      2579 2.89324E-05-1.63935E-05-4.78313E-06-1.29829E-05-4.58562E-19-7.23408E-18
 -1      2580 3.84469E-05-2.86877E-05-4.19259E-06 3.34643E-05 8.85573E-19-3.86755E-18
 -1      2581 2.55535E-05-2.31318E-05-8.61701E-07 2.08193E-05 6.82285E-19-5.35981E-18
 -1      2582 7.87890E-05-4.64980E-05-1.39495E-05 4.29588E-05 1.10368E-18-1.66770E-18
 -1      2583 5.91741E-05-3.87311E-05-8.46667E-06 3.94455E-05 1.62461E-18-2.77912E-18
 -1      2584 1.16928E-04-5.80921E-05-2.54225E-05 3.29852E-05-2.62368E-19 5.62853E-19
 -1      2585 1.00117E-04-5.43712E-05-1.93933E-05 3.72011E-05 7.86470E-19-3.94611E-19
 -1      2586 1.42692E-04-5.41456E-05-3.82003E-05 1.39133E-05-3.56844E-18 3.21640E-18
 -1      2587 1.30920E-04-5.75124E-05-3.14794E-05 2.07756E-05-1.66558E-18 2.04982E-18
 -1      2588 1.51571E-04-3.88372E-05-4.86468E-05-1.04656E-06-5.69863E-18 3.25324E-18
 -1      2589 1.46716E-04-4.61736E-05-4.32977E-05 3.68180E-06-4.85191E-18 3.27124E-18
 -1      2590 1.49514E-04-2.19051E-05-5.52910E-05-6.38448E-06-6.05734E-18 1.35271E-18
 -1      2591 1.50987E-04-2.92215E-05-5.24159E-05-5.04461E-06-5.77782E-18 1.94246E-18
 -1      2592 1.45872E-04-2.11313E-05-5.39734E-05 8.14188E-06-5.77973E-18 9.46559E-19
 -1      2593 1.43668E-04-1.54466E-05-5.56129E-05 6.40327E-06-6.12998E-18 1.61063E-18
 -1      2594 1.38109E-04-2.48434E-05-4.87916E-05 1.25438E-05-4.85562E-18-3.75765E-19
 -1      2595 1.10932E-04-5.66927E-05-2.30539E-05-3.31691E-05-6.92449E-20 2.56100E-18
 -1      2596 1.24062E-04-5.81468E-05-2.84838E-05-2.87637E-05-1.01602E-18 1.25530E-18
 -1      2597 2.79476E-05-2.28763E-05-1.97503E-06 2.51949E-05-1.25573E-18 9.60069E-18
 -1      2598 2.07166E-05-1.73021E-05-1.12894E-06 1.09505E-05-1.98830E-18 9.51599E-18
 -1      2599 3.70491E-05-2.70269E-05-4.00196E-06-2.98200E-05 4.29446E-19 6.97659E-18
 -1      2600 4.95921E-05-3.25234E-05-7.18462E-06-3.78461E-05 2.01170E-20 6.50521E-18
 -1      2601 3.95209E-05-2.14483E-05-7.21427E-06-2.54753E-05 7.52165E-19 7.50619E-18
 -1      2602 9.53667E-05-2.00371E-05-3.23305E-05-1.09939E-05-2.93232E-18-5.81541E-19
 -1      2603 9.58640E-05-2.33550E-05-3.10916E-05-7.12504E-06-2.63836E-18-3.62577E-19
 -1      2604 9.54020E-05-2.24853E-05-3.12442E-05-6.61970E-06-2.42246E-18-1.02658E-18
 -1      2605 9.35085E-05-1.76715E-05-3.25322E-05-1.04810E-05-2.82318E-18-1.49119E-18
 -1      2606 9.67269E-05-2.51644E-05-3.06907E-05 6.92111E-06 2.87525E-18 2.54662E-18
 -1      2607 9.77367E-05-2.38432E-05-3.16884E-05 1.00550E-05 3.03502E-18 3.05755E-18
 -1      2608 9.61930E-05-2.13667E-05-3.21242E-05 1.11906E-05 3.31384E-18 1.90874E-18
 -1      2609 9.62896E-05-2.41836E-05-3.09370E-05 6.84462E-06 2.96618E-18 1.30283E-18
 -1      2610 1.44602E-04-4.77540E-05-4.18603E-05 1.13570E-05 4.58896E-18-1.66378E-18
 -1      2611 1.35980E-04-5.21092E-05-3.60311E-05 1.78670E-05 3.54716E-18-1.43318E-18
 -1      2612 1.31130E-04-1.28612E-05-5.10842E-05 5.78694E-06 6.68860E-18 7.55130E-19
 -1      2613 9.05801E-05-1.44787E-05-3.26078E-05-5.93668E-06-1.60225E-18-2.86341E-18
 -1      2614 8.96214E-05-1.27932E-05-3.29804E-05-7.15030E-06-1.75229E-18-3.05070E-18
 -1      2615 9.03904E-05-1.36683E-05-3.29397E-05-8.28649E-06-2.15296E-18-2.74768E-18
 -1      2616 9.55416E-05-2.69131E-05-2.94283E-05 5.61459E-07 2.00940E-18 7.02941E-19
 -1      2617 9.45490E-05-1.91047E-05-3.23779E-05 1.08390E-05 3.26489E-18 5.49420E-19
 -1      2618 1.43997E-04-4.43489E-05-4.27133E-05 3.57799E-07 4.19345E-18-2.52098E-18
 -1      2619 4.06519E-05-2.37124E-05-6.67691E-06 2.92488E-05-3.16547E-18 8.41188E-18
 -1      2620 1.44381E-04-1.74142E-05-5.46129E-05-6.44473E-06-6.91962E-18 1.76744E-18
 -1      2621 1.37051E-04-2.06091E-05-5.02390E-05-1.05916E-05-6.53867E-18 1.11745E-18
 -1      2622 1.34068E-04-1.23298E-05-5.28900E-05-5.84030E-06-6.98082E-18 8.39833E-19
 -1      2623 1.44989E-04-3.45408E-05-4.73860E-05-9.39824E-06-4.96393E-18 2.36343E-18
 -1      2624 7.14567E-05-4.06021E-05-1.27912E-05 4.06873E-05-4.28048E-18 2.71633E-18
 -1      2625 9.52451E-05-2.85640E-05-2.85777E-05-1.03660E-08-1.19776E-18 1.82415E-20
 -1      2626 6.64215E-05-3.77004E-05-1.18505E-05-3.83292E-05 1.69661E-18 5.22524E-18
 -1      2627 9.52478E-05-2.85606E-05-2.85801E-05-3.87219E-09-4.82593E-19 6.50933E-19
 -1      2628 1.43644E-04-5.20037E-05-3.92831E-05 1.98301E-06-3.36574E-18 3.78179E-18
 -1      2629 9.52467E-05-2.85599E-05-2.85798E-05 6.39426E-09 1.70854E-18 3.63136E-18
 -1      2630 9.52488E-05-2.85578E-05-2.85821E-05 1.11755E-09 3.86425E-19-3.42578E-19
 -1      2631 9.52498E-05-2.85409E-05-2.85893E-05-1.45748E-08 7.92056E-19-2.04825E-18
 -1      2632 9.52502E-05-2.85545E-05-2.85833E-05-1.90835E-09 1.48282E-18 3.15326E-18
 -1      2633 1.27500E-04-6.00507E-05-2.88480E-05 2.21500E-05 2.36640E-19 2.48763E-18
 -1      2634 9.48449E-05-5.13174E-05-1.82519E-05 3.81211E-05 2.31134E-18-5.12640E-19
 -1      2635 2.51534E-05-1.49000E-05-3.80072E-06 8.93834E-07-9.00211E-19 7.56718E-18
 -1      2636 3.25343E-05-1.32749E-05-7.66039E-06-7.60148E-06-3.30032E-19 6.85059E-18
 -1      2637 3.05719E-05-1.34248E-05-6.96349E-06 9.98200E-06-2.17992E-18 7.78868E-18
 -1      2638 9.49948E-05-2.05409E-05-3.18653E-05 8.80753E-06 3.02498E-18 2.78211E-19
 -1      2639 1.08835E-04-5.57544E-05-2.24952E-05 3.45674E-05-9.78323E-19-1.72096E-18
 -1      2640 2.89136E-05-1.77726E-05-4.21823E-06 1.42342E-05 1.11369E-18-5.81658E-18
 -1      2641 1.04953E-04-5.51402E-05-2.10618E-05-3.52268E-05 1.74510E-18 2.02405E-18
 -1      2642 5.09328E-05-2.98528E-05-8.53383E-06-3.58167E-05-2.22431E-18-6.13548E-18
 -1      2643 6.43377E-05-3.40236E-05-1.29843E-05-3.79387E-05-2.98632E-18-4.56583E-18
 -1      2644 4.71572E-05-2.29346E-05-9.75381E-06-3.00926E-05-1.81974E-18-5.51778E-18
 -1      2645 1.34243E-04-5.94657E-05-3.20520E-05-1.59776E-05-1.53313E-19 2.51675E-19
 -1      2646 9.08143E-05-4.90229E-05-1.75300E-05-3.95161E-05-2.92968E-18-3.87994E-18
 -1      2647 1.39763E-04-5.15686E-05-3.77841E-05-3.72953E-06 9.29556E-19 1.16086E-18
 -1      2648 1.39717E-04-1.34512E-05-5.46108E-05 4.26730E-06-6.53740E-18 1.05360E-18
 -1      2649 1.31593E-04-1.06764E-05-5.25963E-05 1.28512E-06-6.63523E-18 6.45995E-20
 -1      2650 1.30375E-04-1.48185E-05-4.98903E-05 8.58640E-06-5.58534E-18-7.02137E-19
 -1      2651 1.23060E-04-5.86852E-05-2.73760E-05-2.48588E-05-2.23956E-18-1.79412E-18
 -1      2652 1.45591E-04-4.44919E-05-4.36271E-05 5.51557E-06-2.47016E-18 1.76183E-19
 -1      2653 1.39245E-04-3.79160E-05-4.38331E-05 1.26854E-05-2.51135E-18-5.18914E-19
 -1      2654 1.41215E-04-4.92037E-05-3.94263E-05 3.47965E-06-9.76655E-19-1.05646E-18
 -1      2655 1.33699E-04-5.68362E-05-3.28235E-05 1.74660E-05 1.58342E-18-2.70098E-18
 -1      2656 1.39602E-04-2.34046E-05-4.99804E-05-8.60058E-06 5.88328E-18-2.65270E-18
 -1      2657 9.12613E-05-1.48089E-05-3.28209E-05-8.95809E-06-2.35290E-18-2.45677E-18
 -1      2658 9.23740E-05-1.61704E-05-3.27358E-05-9.99095E-06-2.67333E-18-2.02563E-18
 -1      2659 9.38875E-05-1.90554E-05-3.20535E-05-8.26440E-06-2.60025E-18-1.64705E-18
 -1      2660 9.21083E-05-1.64749E-05-3.23978E-05-7.36796E-06-2.10156E-18-2.31854E-18
 -1      2661 1.39550E-04-3.09197E-05-4.67797E-05 8.80460E-06 3.94897E-18 1.57718E-18
 -1      2662 5.49584E-05-3.26484E-05-9.07313E-06 3.62385E-05 2.08476E-18-2.71559E-18
 -1      2663 9.52489E-05-2.85453E-05-2.85871E-05 9.92662E-09-5.60450E-19 1.25134E-18
 -1      2664 9.52560E-05-2.85438E-05-2.85914E-05-2.02479E-08 2.24932E-18 1.93185E-18
 -1      2665 8.97880E-05-1.40947E-05-3.24609E-05 2.60026E-06 1.37174E-18-2.98217E-18
 -1      2666 8.95069E-05-1.37550E-05-3.24873E-05 1.80479E-06 1.06091E-18-3.08900E-18
 -1      2667 8.93020E-05-1.34879E-05-3.25114E-05 1.14655E-06 9.14645E-19-3.11944E-18
 -1      2668 8.92016E-05-1.33684E-05-3.25203E-05 3.48952E-07 6.12515E-19-3.01548E-18
 -1      2669 9.03718E-05-1.52217E-05-3.21908E-05 1.23046E-06 9.26715E-19-2.88882E-18
 -1      2670 9.19408E-05-1.69529E-05-3.21726E-05 5.46439E-06 2.36207E-18-1.94880E-18
 -1      2671 9.12620E-05-1.60380E-05-3.22645E-05 4.68696E-06 2.10527E-18-2.29806E-18
 -1      2672 9.36638E-05-1.94513E-05-3.18450E-05 6.54783E-06 2.69371E-18-1.02106E-18
 -1      2673 9.27354E-05-1.80802E-05-3.20153E-05 5.97402E-06 2.47390E-18-1.55274E-18
 -1      2674 9.32627E-05-1.92389E-05-3.17009E-05 4.59221E-06 2.21363E-18-1.54614E-18
 -1      2675 9.57186E-05-2.52605E-05-3.02031E-05 2.77803E-06 2.30985E-18 2.36184E-19
 -1      2676 9.59523E-05-2.44340E-05-3.06182E-05 4.53849E-06 2.50340E-18 3.69387E-19
 -1      2677 1.18034E-04-5.81919E-05-2.59061E-05 2.85064E-05-9.15854E-19-2.32553E-18
 -1      2678 1.02985E-04-5.31552E-05-2.09399E-05 3.48860E-05-2.52511E-18-1.91318E-18
 -1      2679 1.32238E-04-2.86295E-05-4.48737E-05 1.52606E-05-3.87422E-18-2.12521E-18
 -1      2680 1.29646E-04-2.27171E-05-4.65574E-05 1.31301E-05-4.16116E-18-1.97666E-18
 -1      2681 9.56662E-05-2.64814E-05-2.96500E-05 2.37716E-07 1.91298E-18 1.38052E-19
 -1      2682 9.57953E-05-2.59997E-05-2.98762E-05 1.42152E-06 2.09047E-18 2.97844E-19
 -1      2683 9.56197E-05-2.47051E-05-3.03925E-05 2.42346E-06 2.29885E-18-3.79902E-19
 -1      2684 9.50328E-05-2.18095E-05-3.13858E-05 6.89414E-06 2.81341E-18 4.69673E-20
 -1      2685 5.03913E-05-2.49365E-05-1.06203E-05 3.29219E-05-4.59611E-18 5.96332E-18
 -1      2686 4.02150E-05-1.82426E-05-8.69051E-06 2.34910E-05-3.89672E-18 7.54071E-18
 -1      2687 9.47770E-05-2.12942E-05-3.15221E-05-6.64197E-06-2.37198E-18-1.43919E-18
 -1      2688 9.52666E-05-2.29938E-05-3.09667E-05-4.85976E-06-2.05787E-18-1.27727E-18
 -1      2689 9.38954E-05-1.98399E-05-3.17438E-05-6.47436E-06-2.09375E-18-1.73388E-18
 -1      2690 9.57406E-05-2.54941E-05-3.00820E-05-1.12243E-06-1.48257E-18-1.06696E-18
 -1      2691 9.56745E-05-2.60159E-05-2.98584E-05 8.58786E-08-1.36116E-18-9.34168E-19
 -1      2692 9.57138E-05-2.64479E-05-2.96649E-05 1.09375E-06-1.31082E-18-8.64134E-19
 -1      2693 9.57185E-05-2.67529E-05-2.95551E-05 1.98038E-06-1.14698E-18-9.15562E-19
 -1      2694 9.55801E-05-2.55592E-05-3.00156E-05 4.34835E-07-1.34632E-18-1.17821E-18
 -1      2695 9.57008E-05-2.69642E-05-2.94466E-05 2.77310E-06-1.06469E-18-7.97548E-19
 -1      2696 9.58001E-05-2.71432E-05-2.94183E-05 3.47377E-06-9.77021E-19-9.94099E-19
 -1      2697 9.56130E-05-2.63424E-05-2.96955E-05 2.31096E-06-1.20434E-18-1.18192E-18
 -1      2698 9.57795E-05-2.72312E-05-2.93721E-05 4.14280E-06-7.89235E-19-9.82035E-19
 -1      2699 9.59741E-05-2.73465E-05-2.94025E-05 4.74575E-06-6.25585E-19-1.04171E-18
 -1      2700 9.55876E-05-2.67242E-05-2.95200E-05 3.84119E-06-9.26458E-19-1.29093E-18
 -1      2701 9.59702E-05-2.73688E-05-2.93994E-05 5.35442E-06-6.55731E-19-1.04661E-18
 -1      2702 9.62573E-05-2.74647E-05-2.94712E-05 5.91511E-06-5.49351E-19-1.19407E-18
 -1      2703 9.55749E-05-2.68785E-05-2.94469E-05 5.17171E-06-6.80817E-19-1.32210E-18
 -1      2704 9.62857E-05-2.74696E-05-2.94942E-05 6.50682E-06-3.07829E-19-9.94282E-19
 -1      2705 9.66703E-05-2.75916E-05-2.95925E-05 7.05123E-06-1.88603E-19-8.81965E-19
 -1      2706 9.56079E-05-2.69250E-05-2.94399E-05 6.41351E-06-3.95614E-19-1.13901E-18
 -1      2707 9.67565E-05-2.76349E-05-2.96258E-05 7.64695E-06-1.22054E-19-8.30886E-19
 -1      2708 9.72588E-05-2.78432E-05-2.97364E-05 8.17063E-06-2.84435E-19-5.29982E-19
 -1      2709 9.57260E-05-2.69836E-05-2.94653E-05 7.63539E-06 4.76022E-21-7.93512E-19
 -1      2710 9.74532E-05-2.80027E-05-2.97647E-05 8.76625E-06-2.13508E-19 4.69439E-20
 -1      2711 9.81174E-05-2.83831E-05-2.98736E-05 9.22867E-06 2.89486E-20 1.31878E-19
 -1      2712 9.60021E-05-2.72054E-05-2.94907E-05 8.86126E-06 1.89700E-19-2.54047E-19
 -1      2713 9.85144E-05-2.87725E-05-2.98834E-05 9.78791E-06-2.70637E-19 3.19411E-19
 -1      2714 9.94183E-05-2.94450E-05-2.99784E-05 1.01020E-05 2.45360E-20-2.08603E-20
 -1      2715 9.65755E-05-2.78041E-05-2.94862E-05 1.00636E-05 1.40072E-20-6.29679E-20
 -1      2716 1.00178E-04-3.02205E-05-2.99634E-05 1.05403E-05 4.25910E-19 1.45197E-19
 -1      2717 1.01436E-04-3.13323E-05-3.00401E-05 1.05588E-05 4.32563E-19 1.51724E-19
 -1      2718 9.76928E-05-2.90812E-05-2.94308E-05 1.11454E-05 2.58136E-20-1.55934E-19
 -1      2719 1.02798E-04-3.26769E-05-3.00128E-05 1.07100E-05 1.82855E-19 1.06232E-19
 -1      2720 1.04536E-04-3.43513E-05-3.00866E-05 1.02112E-05-1.56841E-19 4.14707E-20
 -1      2721 9.97477E-05-3.14236E-05-2.93306E-05 1.18969E-05 3.97089E-19 2.95573E-19
 -1      2722 1.06782E-04-3.63847E-05-3.00988E-05 9.78479E-06 7.91620E-20 7.15856E-19
 -1      2723 1.09059E-04-3.86039E-05-3.02251E-05 8.48858E-06 1.72944E-19 8.60081E-19
 -1      2724 1.03268E-04-3.52033E-05-2.92523E-05 1.19033E-05 3.17943E-19 3.52065E-19
 -1      2725 1.12414E-04-4.11988E-05-3.04075E-05 6.97021E-06 3.03787E-19 1.24775E-18
 -1      2726 1.14989E-04-4.34023E-05-3.07186E-05 4.62291E-06 2.93087E-19 1.63420E-18
 -1      2727 1.08758E-04-4.05677E-05-2.93819E-05 1.04039E-05 4.16485E-19 1.25564E-18
 -1      2728 1.19229E-04-4.58812E-05-3.13454E-05 1.41106E-06 3.23593E-21 2.18675E-18
 -1      2729 1.21235E-04-4.67359E-05-3.20361E-05-2.10942E-06-6.48119E-19 2.35425E-18
 -1      2730 1.16583E-04-4.62191E-05-3.02381E-05 5.97547E-06 3.01689E-19 1.91396E-18
 -1      2731 1.24810E-04-4.69824E-05-3.34009E-05-6.76210E-06-6.07968E-19 2.94026E-18
 -1      2732 1.25125E-04-4.44932E-05-3.46263E-05-1.02532E-05-7.39840E-19 3.11089E-18
 -1      2733 1.24499E-04-4.95054E-05-3.22156E-05-1.33593E-06-3.39128E-19 2.85393E-18
 -1      2734 1.25900E-04-4.04150E-05-3.69497E-05-1.43547E-05-1.50846E-18 3.44380E-18
 -1      2735 1.23786E-04-3.39450E-05-3.86077E-05-1.52864E-05-1.60936E-18 2.94799E-18
 -1      2736 1.29625E-04-4.52475E-05-3.62183E-05-1.08553E-05-1.00781E-18 4.21814E-18
 -1      2737 1.18325E-04-1.55686E-05-4.45012E-05-8.34012E-07-4.43496E-18-1.20173E-18
 -1      2738 1.18781E-04-1.66582E-05-4.42429E-05 6.09349E-06-4.13892E-18-2.11525E-18
 -1      2739 1.18578E-04-2.22621E-05-4.15155E-05 1.11261E-05-2.83184E-18-3.32429E-18
 -1      2740 1.21456E-04-2.84495E-05-4.03267E-05 1.54517E-05-2.21626E-18-4.11258E-18
 -1      2741 1.23517E-04-3.54094E-05-3.79137E-05 1.51111E-05-1.06996E-18-4.77373E-18
 -1      2742 1.25690E-04-4.12844E-05-3.63206E-05 1.44389E-05 1.10644E-20-4.95940E-18
 -1      2743 1.27417E-04-3.40769E-05-4.01823E-05 1.59376E-05-1.72562E-18-4.82068E-18
 -1      2744 1.24402E-04-4.46349E-05-3.43219E-05 9.78076E-06 1.22039E-18-5.05983E-18
 -1      2745 1.23993E-04-4.64864E-05-3.31653E-05 6.50231E-06 1.95300E-18-4.57948E-18
 -1      2746 1.28092E-04-4.61085E-05-3.53108E-05 1.00600E-05 8.63788E-19-4.64615E-18
 -1      2747 1.20479E-04-4.60124E-05-3.20098E-05 2.04277E-06 1.86792E-18-3.75993E-18
 -1      2748 1.18409E-04-4.49583E-05-3.13601E-05-1.36298E-06 2.38457E-18-3.36042E-18
 -1      2749 1.22614E-04-4.85322E-05-3.19120E-05 8.16051E-07 2.38214E-18-4.19013E-18
 -1      2750 1.14498E-04-4.25809E-05-3.08670E-05-4.20924E-06 2.20177E-18-3.40534E-18
 -1      2751 1.11979E-04-4.03953E-05-3.05798E-05-6.57591E-06 1.76486E-18-3.11843E-18
 -1      2752 1.14985E-04-4.47187E-05-3.02587E-05-6.15246E-06 2.15247E-18-3.10939E-18
 -1      2753 1.08890E-04-3.78897E-05-3.04404E-05-7.85608E-06 1.48116E-18-2.44871E-18
 -1      2754 1.06691E-04-3.57951E-05-3.03261E-05-9.11880E-06 1.28506E-18-2.49858E-18
 -1      2755 1.08074E-04-3.90742E-05-2.96844E-05-9.71998E-06 1.87936E-18-3.17745E-18
 -1      2756 1.04621E-04-3.38663E-05-3.03201E-05-9.41271E-06 1.43547E-18-2.24422E-18
 -1      2757 1.02957E-04-3.22937E-05-3.02572E-05-9.85601E-06 1.22981E-18-2.08190E-18
 -1      2758 1.03113E-04-3.42217E-05-2.95986E-05-1.08918E-05 1.57884E-18-2.67780E-18
 -1      2759 1.01696E-04-3.10358E-05-3.02743E-05-9.60726E-06 3.49999E-19-1.37848E-18
 -1      2760 1.00507E-04-3.00036E-05-3.02069E-05-9.52916E-06-3.67297E-19-1.07409E-18
 -1      2761 9.99468E-05-3.08334E-05-2.96603E-05-1.07140E-05 6.81471E-19-2.25204E-18
 -1      2762 9.97866E-05-2.92845E-05-3.02047E-05-9.01346E-06-6.28504E-19-3.82476E-19
 -1      2763 9.89424E-05-2.86700E-05-3.01175E-05-8.64189E-06-4.37354E-19-2.54015E-19
 -1      2764 9.80695E-05-2.87715E-05-2.97175E-05-9.84484E-06-2.56645E-19-8.54983E-19
 -1      2765 9.85453E-05-2.83175E-05-3.00872E-05-8.02006E-06-6.29145E-20 1.99063E-19
 -1      2766 9.79322E-05-2.79843E-05-2.99830E-05-7.51012E-06 4.27555E-19 3.67113E-19
 -1      2767 9.70040E-05-2.76716E-05-2.97199E-05-8.66741E-06-1.20598E-19 1.44532E-19
 -1      2768 9.77151E-05-2.78557E-05-2.99298E-05-6.87388E-06-4.23371E-19 5.81375E-19
 -1      2769 9.72542E-05-2.76961E-05-2.98176E-05-6.32401E-06-4.82714E-19 1.58294E-19
 -1      2770 9.64078E-05-2.71897E-05-2.96649E-05-7.39873E-06-1.43736E-19 9.67887E-19
 -1      2771 9.71317E-05-2.76917E-05-2.97508E-05-5.72399E-06-4.55926E-19 6.32603E-20
 -1      2772 9.67745E-05-2.76325E-05-2.96394E-05-5.19239E-06-2.61475E-19-1.18284E-20
 -1      2773 9.60667E-05-2.70698E-05-2.95679E-05-6.16165E-06-4.83182E-19 1.56693E-19
 -1      2774 9.66997E-05-2.76895E-05-2.95675E-05-4.65440E-06-3.05059E-19-2.74320E-19
 -1      2775 9.64173E-05-2.76847E-05-2.94634E-05-4.17220E-06-1.28536E-18-3.74524E-19
 -1      2776 9.58589E-05-2.71426E-05-2.94471E-05-5.02358E-06-4.91076E-19-2.04928E-18
 -1      2777 9.63665E-05-2.77666E-05-2.93926E-05-3.70677E-06-1.31444E-18-4.95525E-19
 -1      2778 9.61415E-05-2.77889E-05-2.92996E-05-3.28770E-06-7.06559E-19 2.83789E-19
 -1      2779 9.57199E-05-2.73049E-05-2.93183E-05-4.01769E-06-7.29230E-19-1.76602E-18
 -1      2780 9.61033E-05-2.78754E-05-2.92341E-05-2.89600E-06-7.33725E-19 4.55732E-19
 -1      2781 9.59244E-05-2.79093E-05-2.91540E-05-2.54305E-06-3.73704E-19 2.08499E-19
 -1      2782 9.56175E-05-2.74974E-05-2.91926E-05-3.15531E-06-7.10372E-19-3.41069E-19
 -1      2783 9.58937E-05-2.79904E-05-2.90960E-05-2.22079E-06-2.42709E-19 1.30367E-19
 -1      2784 9.57526E-05-2.80272E-05-2.90289E-05-1.93078E-06 1.06579E-19 3.20505E-19
 -1      2785 9.55368E-05-2.76882E-05-2.90768E-05-2.43408E-06-5.60215E-19 6.39507E-19
 -1      2786 9.57272E-05-2.80985E-05-2.89792E-05-1.67079E-06 6.51178E-19 2.92242E-20
 -1      2787 9.56173E-05-2.81340E-05-2.89244E-05-1.43736E-06 8.40905E-19-5.65762E-19
 -1      2788 9.54710E-05-2.78619E-05-2.89746E-05-1.84345E-06 2.08798E-19 3.96289E-19
 -1      2789 9.55963E-05-2.81942E-05-2.88829E-05-1.23125E-06 8.90023E-19-2.58091E-19
 -1      2790 9.55121E-05-2.82262E-05-2.88391E-05-1.04675E-06 6.19899E-19-3.51800E-19
 -1      2791 9.54168E-05-2.80123E-05-2.88873E-05-1.36869E-06 7.51984E-19 3.15902E-19
 -1      2792 9.54949E-05-2.82756E-05-2.88053E-05-8.86067E-07 7.01830E-19 1.56852E-19
 -1      2793 9.54316E-05-2.83035E-05-2.87709E-05-7.42684E-07 6.02375E-19 4.33317E-20
 -1      2794 9.53727E-05-2.81382E-05-2.88147E-05-9.93599E-07 5.69759E-19 1.07452E-18
 -1      2795 9.54178E-05-2.83433E-05-2.87439E-05-6.19473E-07 5.16392E-19 5.30540E-19
 -1      2796 9.53712E-05-2.83669E-05-2.87174E-05-5.09901E-07 1.01695E-18 3.77078E-19
 -1      2797 9.53372E-05-2.82411E-05-2.87556E-05-7.02127E-07 4.50923E-19 2.17454E-18
 -1      2798 9.53603E-05-2.83984E-05-2.86962E-05-4.17080E-07 1.72047E-18-2.85937E-19
 -1      2799 9.53268E-05-2.84181E-05-2.86761E-05-3.34839E-07 2.27114E-18 2.42000E-19
 -1      2800 9.53094E-05-2.83238E-05-2.87083E-05-4.79458E-07 1.41815E-18 3.25568E-18
 -1      2801 9.53184E-05-2.84428E-05-2.86596E-05-2.66313E-07 2.05791E-18 5.40855E-20
 -1      2802 9.52951E-05-2.84592E-05-2.86447E-05-2.05884E-07 1.90105E-18 4.03573E-19
 -1      2803 9.52879E-05-2.83893E-05-2.86710E-05-3.12496E-07 2.32131E-18 1.21704E-18
 -1      2804 9.52887E-05-2.84786E-05-2.86319E-05-1.56757E-07 2.10020E-18 1.55541E-18
 -1      2805 9.52729E-05-2.84922E-05-2.86208E-05-1.13713E-07 2.08916E-18 1.92745E-18
 -1      2806 9.52716E-05-2.84409E-05-2.86419E-05-1.90174E-07 2.73205E-18 1.18593E-18
 -1      2807 9.52682E-05-2.85078E-05-2.86109E-05-7.96529E-08 2.02707E-18 1.14237E-18
 -1      2808 9.52585E-05-2.85195E-05-2.86026E-05-5.10980E-08 3.33274E-18 1.04478E-18
 -1      2809 9.52594E-05-2.84818E-05-2.86191E-05-1.03355E-07 1.94430E-18 1.48293E-18
 -1      2810 1.33218E-04-5.97822E-05-3.17818E-05 1.38073E-05-5.38131E-19 3.52641E-18
 -1      2811 1.21435E-04-5.89727E-05-2.65853E-05 2.34572E-05 8.36022E-19 2.23299E-18
 -1      2812 1.41174E-04-4.86078E-05-4.02673E-05-5.19213E-06-3.36643E-18 3.77883E-18
 -1      2813 1.39004E-04-5.50371E-05-3.59351E-05 2.16012E-06-1.80222E-18 4.06470E-18
 -1      2814 9.58196E-05-2.75874E-05-2.92350E-05-2.96156E-06 8.85171E-19-1.41132E-19
 -1      2815 9.56747E-05-2.73840E-05-2.92505E-05-2.34772E-06 1.12423E-18-2.17642E-20
 -1      2816 9.74187E-05-2.85276E-05-2.95160E-05-5.73672E-06 9.47051E-20 1.46285E-19
 -1      2817 9.69098E-05-2.83046E-05-2.93987E-05-5.39069E-06 4.21529E-19-3.66491E-20
 -1      2818 9.83644E-05-2.90163E-05-2.97142E-05-6.38033E-06 4.40463E-19 1.90479E-19
 -1      2819 9.77408E-05-2.87094E-05-2.95812E-05-6.11522E-06 1.99507E-19 1.46919E-19
 -1      2820 9.69664E-05-2.82437E-05-2.94617E-05-6.39166E-06 2.95452E-19-2.39177E-19
 -1      2821 9.95750E-05-2.97511E-05-2.99227E-05-6.80648E-06 4.66281E-19 2.18380E-19
 -1      2822 9.88283E-05-2.93128E-05-2.97861E-05-6.67347E-06 5.49719E-19 1.29388E-19
 -1      2823 9.77541E-05-2.87867E-05-2.95684E-05-7.11268E-06 4.49865E-19-3.10311E-19
 -1      2824 1.01117E-04-3.08451E-05-3.01224E-05-6.86457E-06 3.25415E-19 2.68479E-19
 -1      2825 1.00237E-04-3.02267E-05-2.99929E-05-6.95069E-06 4.30168E-19 4.10444E-19
 -1      2826 9.88777E-05-2.96640E-05-2.96780E-05-7.60502E-06 3.85536E-19 6.47566E-20
 -1      2827 1.03064E-04-3.23940E-05-3.03041E-05-6.32829E-06-3.19610E-19 3.34122E-19
 -1      2828 1.02050E-04-3.15648E-05-3.01884E-05-6.75337E-06 1.34059E-19 4.23881E-19
 -1      2829 1.00467E-04-3.10281E-05-2.97808E-05-7.70674E-06 1.44876E-19 1.15520E-19
 -1      2830 1.05448E-04-3.43995E-05-3.04805E-05-4.90913E-06-1.17651E-18 4.88157E-19
 -1      2831 1.04337E-04-3.33927E-05-3.03758E-05-5.80805E-06-7.67768E-19 3.15810E-19
 -1      2832 1.02669E-04-3.29999E-05-2.98873E-05-7.16585E-06-4.27538E-19 7.97364E-19
 -1      2833 1.08156E-04-3.66312E-05-3.07007E-05-2.32859E-06-1.07500E-18 6.60227E-19
 -1      2834 1.07071E-04-3.56146E-05-3.05876E-05-3.79712E-06-1.38061E-18 4.61003E-19
 -1      2835 1.05576E-04-3.55540E-05-3.00441E-05-5.64179E-06-1.26008E-18 4.16925E-19
 -1      2836 1.10792E-04-3.84479E-05-3.10607E-05 1.52363E-06-1.46752E-19 8.86501E-19
 -1      2837 1.09989E-04-3.78117E-05-3.09001E-05-4.74466E-07-5.49336E-19 9.52472E-19
 -1      2838 1.09075E-04-3.83319E-05-3.03497E-05-2.77509E-06-9.85481E-19 7.81888E-19
 -1      2839 1.12534E-04-3.86804E-05-3.16903E-05 6.23682E-06 5.45195E-20 1.73172E-18
 -1      2840 1.12397E-04-3.90409E-05-3.14314E-05 4.06305E-06-3.55200E-19 1.45176E-18
 -1      2841 1.12608E-04-4.04042E-05-3.09607E-05 1.61781E-06-5.06818E-19 1.62385E-18
 -1      2842 1.12389E-04-3.61129E-05-3.26806E-05 1.03535E-05 6.84458E-19 2.56252E-18
 -1      2843 1.13178E-04-3.79253E-05-3.22962E-05 8.83473E-06 7.29105E-19 2.48915E-18
 -1      2844 1.14962E-04-4.01252E-05-3.20473E-05 6.99817E-06-8.55582E-20 2.75174E-18
 -1      2845 1.09910E-04-3.05712E-05-3.39547E-05 1.15029E-05 6.49317E-19 2.45404E-18
 -1      2846 1.11498E-04-3.36148E-05-3.35001E-05 1.17437E-05 4.76062E-19 2.72246E-18
 -1      2847 1.14739E-04-3.61317E-05-3.36679E-05 1.15702E-05 4.24033E-19 3.42919E-18
 -1      2848 1.06471E-04-2.44063E-05-3.51056E-05 7.85439E-06 1.50884E-18 2.01302E-18
 -1      2849 1.08033E-04-2.72749E-05-3.47447E-05 1.02951E-05 9.46523E-19 1.94628E-18
 -1      2850 1.11906E-04-2.93363E-05-3.54410E-05 1.18405E-05 8.74515E-19 2.82883E-18
 -1      2851 1.04745E-04-2.18341E-05-3.56168E-05-2.26464E-07 2.62758E-18 1.05709E-18
 -1      2852 1.05048E-04-2.23957E-05-3.55435E-05 3.50507E-06 2.17705E-18 1.34057E-18
 -1      2853 1.08056E-04-2.16356E-05-3.70566E-05 6.55423E-06 2.27934E-18 1.45053E-18
 -1      2854 1.06601E-04-2.48577E-05-3.51626E-05-8.25483E-06 2.89428E-18-2.77086E-19
 -1      2855 1.05468E-04-2.27556E-05-3.54206E-05-5.10444E-06 2.94132E-18 8.16336E-20
 -1      2856 1.07370E-04-2.05812E-05-3.72246E-05-3.13072E-06 3.44650E-18 4.13736E-19
 -1      2857 1.10286E-04-3.11373E-05-3.40532E-05-1.20228E-05 2.02301E-18-1.41390E-18
 -1      2858 1.08543E-04-2.79226E-05-3.44822E-05-1.09172E-05 2.79570E-18-1.06227E-18
 -1      2859 1.10209E-04-2.55496E-05-3.62721E-05-1.07137E-05 3.56672E-18-1.53852E-18
 -1      2860 1.12915E-04-3.65588E-05-3.28037E-05-1.06472E-05 6.89419E-19-2.21436E-18
 -1      2861 1.11713E-04-3.41444E-05-3.32175E-05-1.15850E-05 1.46527E-18-1.14092E-18
 -1      2862 1.13919E-04-3.34678E-05-3.44543E-05-1.25648E-05 1.77327E-18-1.71394E-18
 -1      2863 1.13107E-04-3.89107E-05-3.18142E-05-6.37195E-06-4.84969E-19-2.73040E-18
 -1      2864 1.12869E-04-3.79986E-05-3.21115E-05-8.38216E-06 3.94834E-20-2.02929E-18
 -1      2865 1.15314E-04-3.89388E-05-3.26954E-05-9.36628E-06 4.34094E-19-1.39730E-18
 -1      2866 1.11256E-04-3.84422E-05-3.11818E-05-1.64906E-06-9.34302E-19-2.57477E-18
 -1      2867 1.11815E-04-3.87571E-05-3.13628E-05-3.74483E-06-7.05466E-19-2.67546E-18
 -1      2868 1.13858E-04-4.05656E-05-3.14062E-05-4.10077E-06-4.20499E-19-2.15913E-18
 -1      2869 1.08499E-04-3.64939E-05-3.08230E-05 2.10585E-06-8.32077E-19-2.04303E-18
 -1      2870 1.09472E-04-3.74126E-05-3.09339E-05 4.50553E-07-7.67672E-19-2.42445E-18
 -1      2871 1.10652E-04-3.92070E-05-3.06404E-05 7.10617E-07-1.21506E-18-2.90416E-18
 -1      2872 1.05710E-04-3.42056E-05-3.06117E-05 4.51050E-06-7.70676E-19-1.78789E-18
 -1      2873 1.06783E-04-3.52408E-05-3.06989E-05 3.44416E-06-8.94386E-19-1.92488E-18
 -1      2874 1.07074E-04-3.65545E-05-3.02543E-05 4.08214E-06-1.10527E-18-2.61857E-18
 -1      2875 1.03310E-04-3.22019E-05-3.04510E-05 5.71782E-06 6.17449E-19-1.52093E-18
 -1      2876 1.04313E-04-3.31005E-05-3.05424E-05 5.18008E-06-3.47416E-20-1.70428E-18
 -1      2877 1.03933E-04-3.38278E-05-3.00744E-05 5.97950E-06-5.18210E-19-1.76147E-18
 -1      2878 1.01399E-04-3.06881E-05-3.02896E-05 6.04724E-06 8.25867E-19-1.47300E-18
 -1      2879 1.02268E-04-3.13713E-05-3.03949E-05 5.90530E-06 7.60054E-19-1.36357E-18
 -1      2880 1.01492E-04-3.16042E-05-2.99742E-05 6.73712E-06 3.22832E-19-1.48603E-18
 -1      2881 9.99294E-05-2.96495E-05-3.01113E-05 5.80864E-06 4.74398E-19-8.34805E-19
 -1      2882 1.00656E-04-3.01274E-05-3.02285E-05 5.92645E-06 8.11740E-19-7.62696E-19
 -1      2883 9.97137E-05-3.00166E-05-2.98856E-05 6.72679E-06 5.42497E-19-6.39041E-19
 -1      2884 9.88091E-05-2.89891E-05-2.99186E-05 5.24708E-06-1.08953E-19-5.40545E-19
 -1      2885 9.94078E-05-2.93036E-05-3.00409E-05 5.51326E-06 4.92818E-19-3.11811E-19
 -1      2886 9.84568E-05-2.89908E-05-2.97814E-05 6.25263E-06 3.18435E-20 3.11049E-20
 -1      2887 9.79529E-05-2.85992E-05-2.97215E-05 4.53664E-06-7.42129E-19-4.52614E-19
 -1      2888 9.84417E-05-2.87955E-05-2.98415E-05 4.87045E-06-3.82119E-19-5.90300E-19
 -1      2889 9.75748E-05-2.83894E-05-2.96578E-05 5.53551E-06-1.44381E-19-5.45927E-19
 -1      2890 9.72941E-05-2.83896E-05-2.95304E-05 3.79153E-06 8.36044E-20-6.60835E-19
 -1      2891 9.76902E-05-2.85053E-05-2.96423E-05 4.13960E-06-3.79125E-19-4.96222E-19
 -1      2892 9.69507E-05-2.80789E-05-2.95214E-05 4.72476E-06-7.22126E-19-7.37615E-19
 -1      2893 9.67844E-05-2.82938E-05-2.93537E-05 3.08094E-06-4.44187E-19 2.94170E-19
 -1      2894 9.71025E-05-2.83568E-05-2.94538E-05 3.41104E-06-3.96089E-19-8.19830E-20
 -1      2895 9.65019E-05-2.79539E-05-2.93814E-05 3.91538E-06-7.47453E-19-1.68369E-18
 -1      2896 9.63894E-05-2.82662E-05-2.91965E-05 2.44234E-06 2.04584E-19 5.35756E-20
 -1      2897 9.66420E-05-2.82960E-05-2.92829E-05 2.73733E-06 1.66932E-19 3.97864E-19
 -1      2898 9.61732E-05-2.79393E-05-2.92461E-05 3.16337E-06 2.04518E-19-7.79227E-19
 -1      2899 9.60841E-05-2.82767E-05-2.90612E-05 1.89193E-06 1.76744E-18-1.06198E-18
 -1      2900 9.62822E-05-2.82863E-05-2.91337E-05 2.14474E-06 1.51159E-18 2.40249E-19
 -1      2901 9.59287E-05-2.79845E-05-2.91215E-05 2.49768E-06 6.91369E-19-9.84738E-19
 -1      2902 9.58498E-05-2.83065E-05-2.89479E-05 1.43245E-06 5.43396E-21-7.47613E-19
 -1      2903 9.60028E-05-2.83045E-05-2.90071E-05 1.64229E-06 6.43399E-19-7.79783E-19
 -1      2904 9.57449E-05-2.80579E-05-2.90109E-05 1.92918E-06 9.06161E-19-1.52951E-18
 -1      2905 9.56719E-05-2.83441E-05-2.88554E-05 1.05876E-06-1.45354E-18-9.72761E-19
 -1      2906 9.57881E-05-2.83359E-05-2.89027E-05 1.22844E-06-3.43979E-19-2.73397E-19
 -1      2907 9.56063E-05-2.81399E-05-2.89160E-05 1.45735E-06-5.95898E-19-1.47657E-18
 -1      2908 9.55387E-05-2.83829E-05-2.87816E-05 7.61604E-07-1.25687E-18-1.23245E-18
 -1      2909 9.56252E-05-2.83719E-05-2.88185E-05 8.95747E-07-1.96093E-18-1.37173E-18
 -1      2910 9.55018E-05-2.82199E-05-2.88367E-05 1.07506E-06-1.43512E-18-1.05433E-18
 -1      2911 9.54408E-05-2.84194E-05-2.87238E-05 5.30154E-07 5.60137E-19-1.45763E-18
 -1      2912 9.55038E-05-2.84075E-05-2.87520E-05 6.34003E-07-3.95731E-20-1.25809E-18
 -1      2913 9.54236E-05-2.82922E-05-2.87719E-05 7.71860E-07-9.90544E-19-3.05492E-18
 -1      2914 9.53704E-05-2.84520E-05-2.86796E-05 3.53519E-07 1.59488E-18-1.16635E-18
 -1      2915 9.54150E-05-2.84404E-05-2.87007E-05 4.32249E-07 9.93903E-19-1.38942E-18
 -1      2916 9.53658E-05-2.83547E-05-2.87201E-05 5.36185E-07 7.74535E-19-2.69018E-18
 -1      2917 9.53210E-05-2.84801E-05-2.86463E-05 2.21730E-07 2.48443E-18-7.31467E-19
 -1      2918 9.53516E-05-2.84694E-05-2.86617E-05 2.80017E-07 2.14898E-18-8.05471E-19
 -1      2919 9.53237E-05-2.84070E-05-2.86795E-05 3.56727E-07 2.06914E-18-1.85873E-18
 -1      2920 9.52874E-05-2.85041E-05-2.86216E-05 1.26032E-07 2.25106E-18 4.84785E-19
 -1      2921 9.53075E-05-2.84943E-05-2.86327E-05 1.67906E-07 2.55272E-18-2.13765E-19
 -1      2922 9.52935E-05-2.84499E-05-2.86479E-05 2.23245E-07 1.85448E-18-1.38714E-18
 -1      2923 9.52660E-05-2.85247E-05-2.86033E-05 5.96424E-08-8.73953E-21 1.81466E-18
 -1      2924 9.52781E-05-2.85160E-05-2.86112E-05 8.77401E-08 1.85595E-18 1.03202E-18
 -1      2925 9.52721E-05-2.84847E-05-2.86237E-05 1.26697E-07 7.74637E-19 1.50628E-18
 -1      2926 9.52530E-05-2.85383E-05-2.85918E-05 2.28963E-08 4.87024E-19 1.48677E-18
 -1      2927 9.52595E-05-2.85295E-05-2.85979E-05 4.11738E-08 5.04265E-19 1.27695E-18
 -1      2928 9.52581E-05-2.85085E-05-2.86077E-05 6.77068E-08 1.25944E-18 9.13497E-19
 -1      2929 9.52493E-05-2.85250E-05-2.85966E-05 3.45440E-08 1.27261E-19 7.80185E-20
 -1      2930 6.15086E-05-3.15607E-05-1.23644E-05-3.51009E-05 1.42577E-18 4.96425E-18
 -1      2931 8.02976E-05-4.29564E-05-1.59162E-05-3.92525E-05 2.04601E-18 3.86745E-18
 -1      2932 9.51566E-05-2.83879E-05-2.86155E-05 7.09501E-09-1.06128E-18-2.42566E-18
 -1      2933 9.51592E-05-2.83907E-05-2.86152E-05 1.88305E-08 5.52960E-20-2.74149E-18
 -1      2934 9.52562E-05-2.85262E-05-2.85981E-05-3.84406E-08 2.52065E-18-1.03585E-18
 -1      2935 9.52522E-05-2.85342E-05-2.85934E-05-2.49778E-08 1.43937E-18-1.01646E-18
 -1      2936 9.52483E-05-2.85259E-05-2.85955E-05-3.05984E-08 8.03150E-19-3.49632E-18
 -1      2937 9.52520E-05-2.85087E-05-2.86045E-05-5.49209E-08 1.57414E-18-1.16619E-18
 -1      2938 9.51846E-05-2.84240E-05-2.86123E-05 5.19700E-08 2.16693E-18-1.44384E-18
 -1      2939 9.51955E-05-2.84364E-05-2.86108E-05 5.59111E-08 3.45736E-18-1.04684E-18
 -1      2940 9.51597E-05-2.83911E-05-2.86153E-05-2.08698E-08-1.76368E-18 1.51063E-18
 -1      2941 9.51568E-05-2.83879E-05-2.86156E-05-9.21238E-09-1.57446E-18-5.01987E-19
 -1      2942 9.51363E-05-2.83437E-05-2.86246E-05-1.14263E-09-2.60433E-19-2.13532E-18
 -1      2943 9.51656E-05-2.83994E-05-2.86146E-05 3.34167E-08 2.07322E-19-3.04866E-18
 -1      2944 9.51732E-05-2.84078E-05-2.86137E-05 4.23589E-08 5.87517E-19-1.59096E-18
 -1      2945 9.51635E-05-2.83778E-05-2.86219E-05 6.01146E-08 1.53002E-18-3.07798E-18
 -1      2946 9.51433E-05-2.83525E-05-2.86239E-05 3.30417E-08 8.98674E-20-3.69740E-18
 -1      2947 9.51739E-05-2.84081E-05-2.86138E-05-4.36846E-08-1.50570E-18 1.20019E-18
 -1      2948 9.51662E-05-2.83998E-05-2.86147E-05-3.50727E-08-2.03302E-18 2.34624E-18
 -1      2949 9.51439E-05-2.83527E-05-2.86241E-05-3.49061E-08-1.49846E-18 1.72806E-18
 -1      2950 9.51966E-05-2.84369E-05-2.86110E-05-5.67768E-08-9.07990E-19-1.61947E-18
 -1      2951 9.51856E-05-2.84244E-05-2.86125E-05-5.31106E-08-1.30760E-18-7.00189E-21
 -1      2952 9.51644E-05-2.83779E-05-2.86222E-05-6.14221E-08-2.00283E-18 5.26027E-19
 -1      2953 9.52223E-05-2.84727E-05-2.86067E-05-5.63790E-08-8.97531E-19-2.29033E-18
 -1      2954 9.52110E-05-2.84582E-05-2.86089E-05-5.88960E-08-5.93779E-19-2.44760E-18
 -1      2955 9.51940E-05-2.84162E-05-2.86187E-05-7.50978E-08-1.50795E-18-1.60774E-18
 -1      2956 9.56629E-05-2.71648E-05-2.93518E-05-1.59488E-06 1.39726E-18-3.87195E-20
 -1      2957 9.56616E-05-2.68743E-05-2.94538E-05-7.67161E-07 1.70169E-18 2.09219E-19
 -1      2958 9.57163E-05-2.60736E-05-2.98560E-05-6.53073E-08 1.77300E-18-2.23921E-19
 -1      2959 9.57516E-05-2.68544E-05-2.95393E-05-1.93238E-06 1.34387E-18-2.26964E-19
 -1      2960 3.65168E-05-1.82089E-05-7.47119E-06 2.18846E-05 1.81403E-18-4.36158E-18
 -1      2961 3.02920E-05-1.37033E-05-6.65491E-06 7.48637E-06 1.09127E-18-6.08741E-18
 -1      2962 4.11339E-05-1.72384E-05-9.72608E-06-2.04273E-05 7.69265E-19 7.35246E-18
 -1      2963 4.90028E-05-2.26351E-05-1.08480E-05-2.87356E-05 7.33107E-19 6.20198E-18
 -1      2964 1.37106E-04-3.01441E-05-4.65351E-05-1.28725E-05-4.37175E-18 2.10054E-18
 -1      2965 1.39396E-04-3.88199E-05-4.33962E-05-1.15647E-05-3.79227E-18 3.21280E-18
 -1      2966 1.21137E-04-1.06439E-05-4.79799E-05-3.50759E-06 6.12468E-18-1.86188E-19
 -1      2967 1.24528E-04-1.38717E-05-4.79844E-05-8.82704E-06 5.68253E-18-1.58543E-18
 -1      2968 9.66924E-05-2.81829E-05-2.93517E-05-4.95386E-06 5.67516E-19-8.41349E-20
 -1      2969 9.62962E-05-2.80030E-05-2.92629E-05-4.54427E-06 7.07004E-19-1.88696E-19
 -1      2970 9.64213E-05-2.78947E-05-2.93774E-05-5.52595E-06 3.35485E-19-1.65781E-19
 -1      2971 9.61618E-05-2.78959E-05-2.92478E-05-4.04476E-06 8.75106E-19-2.28585E-19
 -1      2972 9.58847E-05-2.77233E-05-2.92020E-05-3.55702E-06 8.53442E-19-1.28079E-20
 -1      2973 9.60599E-05-2.76200E-05-2.93410E-05-4.53265E-06 7.59535E-19-1.90820E-19
 -1      2974 9.55851E-05-2.40074E-05-3.06661E-05-3.66539E-06-1.73907E-18-1.28230E-18
 -1      2975 9.55822E-05-2.49071E-05-3.02969E-05-2.03711E-06-1.59924E-18-1.25225E-18
 -1      2976 9.54317E-05-2.44364E-05-3.04410E-05-1.61377E-06-1.44774E-18-1.38343E-18
 -1      2977 9.50175E-05-2.27780E-05-3.09529E-05-3.80571E-06-1.67437E-18-1.42390E-18
 -1      2978 9.06635E-05-1.52239E-05-3.23569E-05 4.06795E-06 1.94763E-18-2.56410E-18
 -1      2979 9.01871E-05-1.46237E-05-3.24088E-05 3.25338E-06 1.59246E-18-2.79604E-18
 -1      2980 9.09753E-05-1.60070E-05-3.21112E-05 2.44795E-06 1.37953E-18-2.71829E-18
 -1      2981 9.19522E-05-1.73275E-05-3.19603E-05 3.61079E-06 1.89212E-18-2.20704E-18
 -1      2982 9.81255E-05-5.12160E-05-1.96539E-05-3.53993E-05 2.62570E-18 2.21851E-18
 -1      2983 1.13833E-04-5.76685E-05-2.44521E-05-2.96850E-05 2.06210E-18 3.38046E-19
 -1      2984 1.39666E-04-4.03924E-05-4.31893E-05-6.78578E-06 4.19747E-18-3.24657E-18
 -1      2985 1.39246E-04-4.90372E-05-3.87317E-05-2.49016E-07 2.86080E-18-2.93825E-18
 -1      2986 9.01290E-05-1.45434E-05-3.24184E-05-3.20636E-06-7.75835E-19-2.94494E-18
 -1      2987 9.05964E-05-1.51280E-05-3.23689E-05-4.01813E-06-1.15702E-18-2.89246E-18
 -1      2988 1.36708E-04-3.68987E-05-4.29456E-05 1.01134E-05 2.59033E-18 2.96980E-18
 -1      2989 1.32026E-04-2.62406E-05-4.59810E-05 1.23929E-05 3.80540E-18 2.93380E-18
 -1      2990 1.28628E-04-5.95200E-05-2.92506E-05-1.68101E-05 1.35700E-18-4.46916E-19
 -1      2991 1.37334E-04-5.79408E-05-3.45483E-05-7.38934E-06 9.93146E-20-5.58830E-19
 -1      2992 6.69489E-05-3.58110E-05-1.33271E-05 3.83648E-05 2.74957E-18-1.38479E-18
 -1      2993 4.96172E-05-2.56679E-05-9.64106E-06 3.10721E-05 2.12118E-18-2.45047E-18
 -1      2994 1.34870E-04-5.41188E-05-3.44077E-05-4.06634E-06-1.56463E-19 2.12626E-18
 -1      2995 1.37626E-04-4.75405E-05-3.92636E-05 3.86475E-06 1.36552E-18 3.00358E-18
 -1      2996 8.42486E-05-4.34690E-05-1.67988E-05-3.82021E-05-3.27156E-18-3.42138E-18
 -1      2997 1.00282E-04-5.18256E-05-2.10320E-05-3.56895E-05-3.41217E-18-2.46145E-18
 -1      2998 1.36177E-04-5.60804E-05-3.47951E-05 9.86326E-06 1.46947E-18-3.03587E-18
 -1      2999 1.29083E-04-5.82351E-05-3.01968E-05 1.77351E-05 3.22772E-19-3.30724E-18
 -1      3000 3.18058E-05-1.28592E-05-7.43584E-06-5.15272E-06 1.16990E-19-6.43745E-18
 -1      3001 3.67212E-05-1.55633E-05-8.62969E-06-1.74556E-05-8.80808E-19-5.91758E-18
 -1      3002 1.04522E-04-5.35663E-05-2.19013E-05 3.33546E-05 2.31018E-18 9.92855E-19
 -1      3003 8.73998E-05-4.58256E-05-1.72577E-05 3.74688E-05 3.05197E-18-7.49836E-19
 -1      3004 8.44750E-05-4.51961E-05-1.68622E-05 4.03621E-05-3.82457E-18 6.64286E-19
 -1      3005 6.59867E-05-3.46964E-05-1.29033E-05 3.79524E-05-5.00215E-18 3.75469E-18
 -1      3006 1.16560E-04-5.68207E-05-2.51404E-05-2.63614E-05-3.59073E-18-1.79889E-18
 -1      3007 1.27388E-04-5.89251E-05-2.99013E-05-1.71958E-05-2.26073E-18-4.29102E-19
 -1      3008 1.29369E-04-1.98151E-05-4.76338E-05-1.17431E-05 5.61392E-18-1.88317E-18
 -1      3009 1.35915E-04-3.03275E-05-4.55908E-05-1.18015E-05 4.86313E-18-2.67017E-18
 -1      3010 1.25958E-04-1.63156E-05-4.75398E-05 9.95931E-06 5.42768E-18 2.11636E-18
 -1      3011 1.22294E-04-1.03654E-05-4.85011E-05 3.89725E-06 6.52491E-18 1.37096E-18
 -1      3012 9.11844E-05-1.59275E-05-3.22794E-05-4.64031E-06-1.33124E-18-2.77222E-18
 -1      3013 9.18587E-05-1.68303E-05-3.21888E-05-5.40232E-06-1.65586E-18-2.54703E-18
 -1      3014 9.18799E-05-1.72158E-05-3.19760E-05-3.57634E-06-1.13432E-18-2.57450E-18
 -1      3015 9.01577E-05-1.49478E-05-3.22170E-05 5.76193E-09 4.52938E-19-2.71633E-18
 -1      3016 8.91930E-05-1.33572E-05-3.25214E-05-3.05451E-07 3.46384E-19-3.00866E-18
 -1      3017 8.92783E-05-1.34574E-05-3.25143E-05-1.10137E-06 2.21787E-20-3.04709E-18
 -1      3018 9.45823E-05-2.11964E-05-3.14583E-05 6.13464E-06 2.71395E-18-4.38432E-19
 -1      3019 9.71709E-05-4.86691E-05-2.03938E-05 3.42753E-05-3.57130E-18-1.57548E-19
 -1      3020 1.25033E-04-1.87856E-05-4.59337E-05 1.16425E-05-4.36783E-18-2.15125E-18
 -1      3021 1.25956E-04-2.22273E-05-4.49409E-05 1.23540E-05 3.85919E-18 2.65900E-18
 -1      3022 1.18135E-04-1.83280E-05-4.30431E-05 1.11521E-05 3.96316E-18 2.63713E-18
 -1      3023 1.24457E-04-2.75130E-05-4.17238E-05 1.34762E-05 2.69071E-18 3.67295E-18
 -1      3024 1.22333E-04-1.97078E-05-4.43057E-05-1.10639E-05 5.22418E-18-1.18616E-18
 -1      3025 1.09525E-04-5.30599E-05-2.39420E-05-2.77438E-05-3.76157E-18-1.40258E-18
 -1      3026 1.27990E-04-1.22389E-05-4.98965E-05-1.98046E-06-6.49357E-18-4.63645E-19
 -1      3027 6.47685E-05-3.00113E-05-1.43885E-05 3.31876E-05-4.77801E-18 4.20700E-18
 -1      3028 1.22405E-04-5.75439E-05-2.74704E-05-1.94468E-05 2.51685E-18-5.90170E-19
 -1      3029 1.14649E-04-5.64087E-05-2.47984E-05 2.65805E-05 1.80598E-18 1.56090E-18
 -1      3030 1.06544E-04-5.11165E-05-2.35707E-05 2.79788E-05 2.20149E-18 1.28958E-18
 -1      3031 1.20764E-04-5.64825E-05-2.76327E-05 1.79642E-05 1.23021E-18 2.60838E-18
 -1      3032 1.20917E-04-2.66305E-05-4.09221E-05-1.42391E-05-2.76440E-18 2.17625E-18
 -1      3033 1.17983E-04-2.00410E-05-4.22345E-05-1.04401E-05-3.81927E-18 6.40251E-19
 -1      3034 9.51924E-05-2.84155E-05-2.86183E-05 7.44056E-08 3.60345E-18 4.96724E-19
 -1      3035 9.52095E-05-2.84573E-05-2.86086E-05 5.84380E-08 3.51484E-18 1.72777E-18
 -1      3036 9.52209E-05-2.84719E-05-2.86064E-05 5.64128E-08 1.93328E-18 2.74414E-18
 -1      3037 1.34139E-04-5.70128E-05-3.31862E-05 5.37938E-06-5.40222E-19 3.75839E-18
 -1      3038 3.81890E-05-1.31243E-05-1.01211E-05 1.98489E-06 9.91942E-19-5.48687E-18
 -1      3039 9.58462E-05-2.73122E-05-2.93828E-05-3.36880E-06 9.15493E-19-3.28425E-19
 -1      3040 6.26818E-05-2.79492E-05-1.43957E-05-3.04709E-05 1.21020E-18 5.23668E-18
 -1      3041 1.35743E-04-5.21972E-05-3.58740E-05 1.33794E-06 1.19662E-18-3.30798E-18
 -1      3042 9.52323E-05-2.84922E-05-2.86034E-05 5.14185E-08 8.32076E-19 8.22552E-19
 -1      3043 9.52413E-05-2.85064E-05-2.86004E-05 4.44021E-08 5.01631E-19-6.17597E-19
 -1      3044 9.52446E-05-2.84963E-05-2.86060E-05 5.90642E-08 2.81716E-19-8.35404E-19
 -1      3045 9.52219E-05-2.84575E-05-2.86130E-05 7.29847E-08 2.53712E-18 3.07521E-18
 -1      3046 1.32962E-04-2.34585E-05-4.73576E-05-1.35251E-05-5.31577E-18 2.14575E-18
 -1      3047 1.29313E-04-2.77484E-05-4.35804E-05-1.48058E-05-3.84108E-18 2.77271E-18
 -1      3048 7.68968E-05-3.73783E-05-1.64854E-05-3.57764E-05-3.10236E-18-3.65246E-18
 -1      3049 1.29777E-04-5.53141E-05-3.18560E-05-7.46029E-06-1.64436E-18 1.58194E-18
 -1      3050 9.26326E-05-4.61792E-05-1.94629E-05-3.41989E-05 2.59171E-18 2.38974E-18
 -1      3051 9.52445E-05-2.85100E-05-2.86003E-05-4.30341E-08 1.26622E-19-3.40807E-18
 -1      3052 9.52358E-05-2.84953E-05-2.86034E-05-5.12223E-08 7.02282E-20-1.94634E-18
 -1      3053 8.05888E-05-3.94489E-05-1.71543E-05 3.48196E-05 2.85609E-18-6.25428E-19
 -1      3054 4.00085E-05-1.43646E-05-1.03982E-05-1.35263E-05-4.68568E-19 7.55363E-18
 -1      3055 4.88156E-05-1.61291E-05-1.36559E-05-1.63567E-05-9.70779E-20 6.55212E-18
 -1      3056 4.01515E-05-1.19280E-05-1.17761E-05-4.59600E-06-1.47110E-18 6.07905E-18
 -1      3057 1.33054E-04-4.19353E-05-3.92336E-05 9.36194E-06 1.28008E-18 3.80789E-18
 -1      3058 4.10724E-05-1.51898E-05-1.04901E-05 1.46540E-05-2.93460E-18 6.89464E-18
 -1      3059 1.17707E-04-1.30912E-05-4.52117E-05 2.67948E-07 5.61943E-18 3.05415E-19
 -1      3060 4.58370E-05-1.88133E-05-1.09363E-05-2.30090E-05-1.37442E-18-5.29321E-18
 -1      3061 5.55976E-05-2.29406E-05-1.39696E-05-2.73883E-05-1.84913E-18-4.21208E-18
 -1      3062 4.69001E-05-1.55171E-05-1.30533E-05-1.63107E-05-5.99011E-19-4.66249E-18
 -1      3063 1.36759E-04-4.37721E-05-4.00774E-05-1.05664E-05-2.75238E-18 3.46648E-18
 -1      3064 9.47725E-05-2.20982E-05-3.11365E-05 4.48552E-06 2.48903E-18-6.72128E-19
 -1      3065 1.37215E-04-5.27368E-05-3.63242E-05 2.67566E-06 1.28696E-19-1.11893E-18
 -1      3066 8.94672E-05-1.37027E-05-3.24927E-05-1.75253E-06-1.86060E-19-2.97744E-18
 -1      3067 8.97408E-05-1.40312E-05-3.24679E-05-2.55771E-06-5.53415E-19-2.98371E-18
 -1      3068 9.09176E-05-1.59251E-05-3.21210E-05-2.41643E-06-6.14503E-19-2.72855E-18
 -1      3069 9.03402E-05-1.51793E-05-3.21953E-05-1.21163E-06-1.18937E-19-2.77720E-18
 -1      3070 1.32966E-04-3.62010E-05-4.17382E-05-1.12073E-05 3.70635E-18-2.51103E-18
 -1      3071 4.99532E-05-2.15525E-05-1.14987E-05 2.50926E-05 2.21849E-18-3.13296E-18
 -1      3072 1.23860E-04-5.77891E-05-2.81732E-05 1.98318E-05-1.11337E-18-3.06134E-18
 -1      3073 1.32121E-04-3.45338E-05-4.21688E-05 1.39115E-05-2.62866E-18-2.84238E-18
 -1      3074 9.52245E-05-2.84608E-05-2.86132E-05-7.26993E-08-1.24772E-18-1.57617E-18
 -1      3075 1.26604E-04-1.92448E-05-4.70499E-05-1.20512E-05-5.35028E-18 1.56045E-18
 -1      3076 1.06006E-04-5.16567E-05-2.34961E-05 2.93549E-05-2.93592E-18-1.81416E-18
 -1      3077 9.08915E-05-4.30574E-05-2.00748E-05 3.28388E-05-4.07656E-18 4.74497E-19
 -1      3078 9.41447E-05-2.11952E-05-3.12839E-05 3.66701E-06 2.16822E-18-1.15846E-18
 -1      3079 9.34817E-05-2.00915E-05-3.14580E-05 3.35096E-06 1.93531E-18-1.63281E-18
 -1      3080 1.27746E-04-3.12269E-05-4.16653E-05-1.52657E-05-2.92523E-18 3.36653E-18
 -1      3081 9.54128E-05-2.56228E-05-2.99007E-05 1.73179E-06-1.27173E-18-1.21828E-18
 -1      3082 9.53995E-05-2.59347E-05-2.97728E-05 2.59047E-06-1.13351E-18-1.35370E-18
 -1      3083 9.53080E-05-2.61343E-05-2.96413E-05 3.33369E-06-1.04797E-18-1.20128E-18
 -1      3084 9.52900E-05-2.62823E-05-2.95726E-05 4.05313E-06-9.52571E-19-1.38952E-18
 -1      3085 9.50440E-05-2.54588E-05-2.98223E-05 2.81331E-06-1.06818E-18-1.27290E-18
 -1      3086 9.51158E-05-2.63230E-05-2.94826E-05 4.71053E-06-7.53429E-19-1.26867E-18
 -1      3087 9.51124E-05-2.63734E-05-2.94542E-05 5.35586E-06-5.72865E-19-1.27101E-18
 -1      3088 9.47860E-05-2.57592E-05-2.95828E-05 4.23918E-06-8.21725E-19-1.00096E-18
 -1      3089 9.48861E-05-2.63228E-05-2.93879E-05 5.97952E-06-2.71694E-19-1.20144E-18
 -1      3090 9.49139E-05-2.63366E-05-2.93822E-05 6.59615E-06-7.96883E-20-1.02140E-18
 -1      3091 9.43935E-05-2.57779E-05-2.94056E-05 5.53622E-06-3.75705E-19-1.19302E-18
 -1      3092 9.46629E-05-2.62601E-05-2.93216E-05 7.22613E-06 1.69691E-19-9.79317E-19
 -1      3093 9.47483E-05-2.63059E-05-2.93218E-05 7.83959E-06 2.31041E-19-8.64367E-19
 -1      3094 9.39217E-05-2.56576E-05-2.92542E-05 6.79623E-06 2.16421E-19-1.01278E-18
 -1      3095 9.45135E-05-2.62834E-05-2.92484E-05 8.50572E-06 3.21209E-19-5.86441E-19
 -1      3096 9.47085E-05-2.64536E-05-2.92380E-05 9.12083E-06 5.05517E-19-2.24820E-19
 -1      3097 9.34348E-05-2.55518E-05-2.90913E-05 8.09319E-06 4.52959E-19-8.08716E-19
 -1      3098 9.45633E-05-2.65963E-05-2.91338E-05 9.84376E-06 1.53024E-19-3.29186E-19
 -1      3099 9.49641E-05-2.70235E-05-2.90987E-05 1.04417E-05-1.11856E-19-4.43432E-19
 -1      3100 9.30403E-05-2.56604E-05-2.88790E-05 9.48706E-06 2.56556E-19-7.49637E-19
 -1      3101 9.50417E-05-2.74911E-05-2.89492E-05 1.12313E-05 1.85161E-20-2.74174E-19
 -1      3102 9.58129E-05-2.83622E-05-2.88824E-05 1.17598E-05 4.41090E-19-8.27056E-20
 -1      3103 9.29322E-05-2.62653E-05-2.85825E-05 1.10287E-05 1.82704E-19-5.74481E-19
 -1      3104 9.63449E-05-2.93768E-05-2.86848E-05 1.25984E-05 4.90904E-19 1.44699E-19
 -1      3105 9.77366E-05-3.09303E-05-2.85995E-05 1.29460E-05 3.17763E-19 8.49808E-20
 -1      3106 9.34568E-05-2.77724E-05-2.81807E-05 1.27517E-05 5.28596E-19-1.00538E-19
 -1      3107 9.91032E-05-3.27707E-05-2.83824E-05 1.37302E-05 4.87696E-19-3.72678E-20
 -1      3108 1.01415E-04-3.52191E-05-2.83344E-05 1.36592E-05 6.61475E-19 2.67677E-19
 -1      3109 9.51970E-05-3.07324E-05-2.76927E-05 1.46126E-05 4.69867E-19-6.99160E-19
 -1      3110 1.04145E-04-3.80261E-05-2.81922E-05 1.41124E-05 8.70879E-19 5.67833E-19
 -1      3111 1.07760E-04-4.15890E-05-2.83224E-05 1.31892E-05 7.56983E-19 9.87455E-19
 -1      3112 9.90679E-05-3.57507E-05-2.72315E-05 1.63679E-05 9.43601E-19-9.14299E-20
 -1      3113 1.23264E-04-5.21807E-05-3.04957E-05 5.97391E-06 2.05346E-19 3.00813E-18
 -1      3114 1.26994E-04-5.28782E-05-3.18336E-05 1.90870E-06 1.55033E-19 3.58745E-18
 -1      3115 1.24563E-04-1.53188E-05-4.72607E-05-5.10542E-06-5.56977E-18 2.40028E-19
 -1      3116 1.25137E-04-5.20577E-05-3.13182E-05-2.69724E-06 2.35207E-18-3.03810E-18
 -1      3117 1.21021E-04-5.04071E-05-3.00446E-05-6.67244E-06 3.14945E-18-2.60012E-18
 -1      3118 1.14988E-04-4.68076E-05-2.92204E-05-9.51460E-06 2.71569E-18-2.09316E-18
 -1      3119 1.10880E-04-4.33896E-05-2.87686E-05-1.15422E-05 2.13274E-18-1.96553E-18
 -1      3120 1.15389E-04-4.98863E-05-2.83175E-05-1.34005E-05 3.08049E-18-1.42568E-18
 -1      3121 1.06763E-04-3.98166E-05-2.86564E-05-1.21272E-05 2.02705E-18-1.44291E-18
 -1      3122 1.03616E-04-3.67325E-05-2.85740E-05-1.28594E-05 1.97763E-18-1.57593E-18
 -1      3123 1.05172E-04-4.13301E-05-2.75158E-05-1.53965E-05 2.49739E-18-4.54552E-19
 -1      3124 1.01183E-04-3.41046E-05-2.87141E-05-1.24748E-05 1.29271E-18-1.89356E-18
 -1      3125 9.91020E-05-3.18994E-05-2.87622E-05-1.24635E-05 1.42383E-18-1.62986E-18
 -1      3126 9.88676E-05-3.45535E-05-2.76633E-05-1.48320E-05 1.35284E-18-1.10794E-18
 -1      3127 9.78692E-05-3.02484E-05-2.89508E-05-1.17129E-05 1.36587E-18-2.04093E-18
 -1      3128 9.66062E-05-2.88733E-05-2.90156E-05-1.13227E-05 8.52360E-19-1.84380E-18
 -1      3129 9.53654E-05-2.99713E-05-2.80801E-05-1.32405E-05 1.17980E-18-1.93020E-18
 -1      3130 9.60968E-05-2.79709E-05-2.91745E-05-1.04928E-05 1.87338E-19-1.32052E-18
 -1      3131 9.53756E-05-2.72115E-05-2.92134E-05-9.92687E-06 7.06242E-20-1.78855E-19
 -1      3132 9.37313E-05-2.73079E-05-2.84914E-05-1.14601E-05 7.09640E-19-1.74845E-18
 -1      3133 9.52611E-05-2.68088E-05-2.93205E-05-9.12298E-06-6.56379E-20-1.69884E-19
 -1      3134 9.48629E-05-2.64532E-05-2.93245E-05-8.49440E-06-3.42853E-19-1.05628E-19
 -1      3135 9.31689E-05-2.59743E-05-2.88054E-05-9.75443E-06 1.46748E-19-7.77071E-19
 -1      3136 9.49397E-05-2.63535E-05-2.93820E-05-7.75315E-06-5.56436E-19-8.79733E-20
 -1      3137 9.47205E-05-2.62406E-05-2.93567E-05-7.12637E-06-3.77300E-19-3.88837E-19
 -1      3138 9.31634E-05-2.54802E-05-2.90067E-05-8.19886E-06-3.77418E-19-1.04274E-18
 -1      3139 9.48728E-05-2.63078E-05-2.93755E-05-6.46026E-06-4.79051E-19-5.90669E-19
 -1      3140 9.47475E-05-2.63291E-05-2.93307E-05-5.87244E-06-6.92278E-19-8.82613E-19
 -1      3141 9.34086E-05-2.54736E-05-2.91114E-05-6.80571E-06-2.19284E-19-1.12841E-18
 -1      3142 9.49148E-05-2.64768E-05-2.93227E-05-5.28564E-06-1.07293E-18-1.46759E-18
 -1      3143 9.48372E-05-2.65644E-05-2.92677E-05-4.75704E-06-6.35769E-19-1.19624E-18
 -1      3144 9.37362E-05-2.57237E-05-2.91439E-05-5.57366E-06-1.20453E-18-1.14102E-18
 -1      3145 9.49910E-05-2.67410E-05-2.92432E-05-4.24977E-06-5.36737E-19-1.59843E-18
 -1      3146 9.49374E-05-2.68549E-05-2.91851E-05-3.78947E-06-5.57846E-19-9.00952E-19
 -1      3147 9.40619E-05-2.60874E-05-2.91279E-05-4.49919E-06-3.71064E-19-6.16953E-19
 -1      3148 9.50670E-05-2.70317E-05-2.91520E-05-3.35906E-06-4.31638E-19-1.32542E-18
 -1      3149 9.50262E-05-2.71495E-05-2.90959E-05-2.96863E-06-4.12075E-19-9.55902E-19
 -1      3150 9.43485E-05-2.64814E-05-2.90827E-05-3.57709E-06-4.64310E-19-1.09905E-18
 -1      3151 9.51296E-05-2.73117E-05-2.90597E-05-2.60999E-06-3.29448E-19-4.81954E-19
 -1      3152 9.50966E-05-2.74218E-05-2.90083E-05-2.28612E-06-4.43331E-19-9.03252E-20
 -1      3153 9.45841E-05-2.68595E-05-2.90224E-05-2.79922E-06 5.22817E-20-4.99818E-19
 -1      3154 9.51761E-05-2.75631E-05-2.89726E-05-1.99240E-06-2.57326E-19 8.63604E-19
 -1      3155 9.51488E-05-2.76602E-05-2.89275E-05-1.72895E-06 6.88636E-20 8.11547E-19
 -1      3156 9.47695E-05-2.71992E-05-2.89570E-05-2.15419E-06 2.22764E-19-6.74817E-20
 -1      3157 9.52081E-05-2.77791E-05-2.88945E-05-1.49237E-06 6.72176E-19 1.30096E-18
 -1      3158 9.51855E-05-2.78617E-05-2.88560E-05-1.28184E-06 1.35344E-18 1.74478E-18
 -1      3159 9.49107E-05-2.74915E-05-2.88928E-05-1.62821E-06 8.37361E-19 1.00515E-18
 -1      3160 9.52286E-05-2.79591E-05-2.88267E-05-1.09435E-06 1.03302E-18 2.11777E-18
 -1      3161 9.52101E-05-2.80275E-05-2.87948E-05-9.28946E-07 3.12456E-19 2.34835E-18
 -1      3162 9.50155E-05-2.77357E-05-2.88335E-05-1.20630E-06 8.11645E-19 2.49448E-18
 -1      3163 9.52407E-05-2.81057E-05-2.87696E-05-7.82746E-07 5.95124E-19 3.13900E-18
 -1      3164 9.52259E-05-2.81613E-05-2.87437E-05-6.54947E-07 1.28452E-18 3.74047E-18
 -1      3165 9.50914E-05-2.79350E-05-2.87809E-05-8.73344E-07 1.11702E-18 3.81637E-18
 -1      3166 9.52469E-05-2.82231E-05-2.87225E-05-5.42867E-07 1.15265E-18 2.89047E-18
 -1      3167 9.52352E-05-2.82675E-05-2.87018E-05-4.45875E-07 1.09469E-18 2.77048E-18
 -1      3168 9.51450E-05-2.80947E-05-2.87357E-05-6.14899E-07 1.22579E-18 3.57812E-18
 -1      3169 9.52492E-05-2.83156E-05-2.86842E-05-3.61587E-07 1.05627E-18 3.19743E-18
 -1      3170 9.52401E-05-2.83507E-05-2.86678E-05-2.89477E-07 2.25982E-18 2.88996E-18
 -1      3171 9.51817E-05-2.82207E-05-2.86975E-05-4.17891E-07 8.68926E-19 3.52415E-18
 -1      3172 9.52490E-05-2.83883E-05-2.86535E-05-2.27388E-07 2.57321E-18 1.81759E-18
 -1      3173 9.52419E-05-2.84159E-05-2.86406E-05-1.75731E-07 2.41349E-18 9.48593E-19
 -1      3174 9.52060E-05-2.83192E-05-2.86658E-05-2.70704E-07 1.67924E-18 2.86523E-18
 -1      3175 4.35946E-05-1.33509E-05-1.25136E-05 9.92336E-06 1.45314E-18-4.69267E-18
 -1      3176 4.37486E-05-1.25660E-05-1.30717E-05-2.23981E-06 6.75201E-19-4.99474E-18
 -1      3177 9.57540E-05-2.69675E-05-2.94770E-05-3.65133E-06 8.32797E-19-4.38101E-19
 -1      3178 9.56838E-05-2.67520E-05-2.95332E-05-2.98501E-06 9.19191E-19-2.84517E-19
 -1      3179 9.64419E-05-2.78566E-05-2.93854E-05-6.78827E-06 3.83667E-19-4.99849E-19
 -1      3180 9.61165E-05-2.76309E-05-2.93492E-05-6.36793E-06 3.21419E-19-3.29962E-19
 -1      3181 9.96801E-05-3.10081E-05-2.94269E-05-8.47927E-06-2.77326E-19 5.81105E-20
 -1      3182 9.87284E-05-3.01024E-05-2.93934E-05-8.50497E-06-4.76054E-20-2.50808E-19
 -1      3183 1.02073E-04-3.33752E-05-2.94458E-05-8.15544E-06-9.08028E-19 5.48750E-19
 -1      3184 1.00771E-04-3.20908E-05-2.94021E-05-8.54657E-06-3.36889E-19 3.57680E-19
 -1      3185 9.88086E-05-3.12432E-05-2.89927E-05-9.48261E-06-6.73933E-19-2.39221E-19
 -1      3186 1.05436E-04-3.65175E-05-2.95534E-05-6.85986E-06-1.28897E-18 8.03569E-20
 -1      3187 1.03775E-04-3.49119E-05-2.94615E-05-7.79920E-06-1.19531E-18 3.84747E-19
 -1      3188 1.01550E-04-3.41420E-05-2.89441E-05-9.40704E-06-7.34031E-19-4.21485E-19
 -1      3189 1.09725E-04-4.00610E-05-2.98941E-05-4.13689E-06-1.07920E-18 5.29029E-19
 -1      3190 1.07837E-04-3.84082E-05-2.96841E-05-5.80264E-06-1.32659E-18 3.70339E-19
 -1      3191 1.05617E-04-3.79909E-05-2.90548E-05-8.29227E-06-1.36258E-18-2.60085E-19
 -1      3192 1.14227E-04-4.27668E-05-3.07008E-05 3.86444E-07-1.12285E-18 1.74783E-18
 -1      3193 1.12610E-04-4.18105E-05-3.02718E-05-1.99256E-06-1.18685E-18 1.18203E-18
 -1      3194 1.10974E-04-4.21891E-05-2.95450E-05-5.40541E-06-1.63750E-18 6.40537E-19
 -1      3195 1.17541E-04-4.23892E-05-3.22456E-05 6.46359E-06-3.47317E-19 2.69165E-18
 -1      3196 1.16987E-04-4.33850E-05-3.14966E-05 3.79441E-06-7.87762E-19 2.32566E-18
 -1      3197 1.16828E-04-4.53374E-05-3.07413E-05-2.97926E-07-1.32967E-18 1.87725E-18
 -1      3198 1.17890E-04-3.70993E-05-3.46581E-05 1.18010E-05 2.31756E-19 3.36838E-18
 -1      3199 1.18792E-04-4.06446E-05-3.35630E-05 9.90139E-06 3.87766E-20 3.06513E-18
 -1      3200 1.20794E-04-4.38005E-05-3.30409E-05 6.82036E-06-4.01970E-19 3.03740E-18
 -1      3201 1.13672E-04-2.40371E-05-3.85878E-05 1.16872E-05 2.24125E-18 2.34710E-18
 -1      3202 1.15769E-04-2.89363E-05-3.74369E-05 1.31165E-05 1.69004E-18 2.89457E-18
 -1      3203 1.11892E-04-2.03990E-05-3.93817E-05 7.44493E-06 3.17214E-18 1.45184E-18
 -1      3204 1.12037E-04-1.83867E-05-4.04562E-05-7.51922E-06 4.88193E-18-1.15177E-18
 -1      3205 1.10674E-04-1.58910E-05-4.08568E-05-2.48758E-06 4.52501E-18-2.00257E-19
 -1      3206 1.17938E-04-3.74873E-05-3.46240E-05-1.22934E-05 7.47473E-19-2.15786E-18
 -1      3207 1.16253E-04-3.30296E-05-3.57293E-05-1.29900E-05 1.97593E-18-2.25088E-18
 -1      3208 1.17884E-04-4.26080E-05-3.22880E-05-6.82360E-06-1.03431E-20-1.55628E-18
 -1      3209 1.17850E-04-4.05810E-05-3.31590E-05-9.32712E-06 5.16968E-19-1.85474E-18
 -1      3210 1.20942E-04-4.10408E-05-3.42595E-05-1.01161E-05 6.29008E-19-1.78385E-18
 -1      3211 1.14461E-04-4.25158E-05-3.07804E-05-7.15031E-07-1.01678E-18-1.62271E-18
 -1      3212 1.15753E-04-4.28320E-05-3.13190E-05-3.32264E-06-1.78573E-19-1.43963E-18
 -1      3213 1.18461E-04-4.48049E-05-3.16067E-05-3.19422E-06-1.34746E-19-1.28347E-18
 -1      3214 1.09773E-04-3.96202E-05-2.99953E-05 3.79461E-06-1.01448E-18-2.38301E-18
 -1      3215 1.11584E-04-4.10762E-05-3.02712E-05 1.85849E-06-7.82812E-19-2.15683E-18
 -1      3216 1.13288E-04-4.32174E-05-3.00821E-05 2.73714E-06-5.55442E-19-9.78690E-19
 -1      3217 1.05412E-04-3.60481E-05-2.96698E-05 6.39386E-06-1.50807E-18-2.74293E-18
 -1      3218 1.07160E-04-3.77277E-05-2.97889E-05 5.23917E-06-1.39898E-18-2.71358E-18
 -1      3219 1.07740E-04-3.93758E-05-2.93665E-05 6.44630E-06-9.81772E-19-2.19270E-18
 -1      3220 1.02017E-04-3.29310E-05-2.95699E-05 7.50320E-06-2.19603E-19-2.38542E-18
 -1      3221 1.03440E-04-3.43631E-05-2.96187E-05 6.97724E-06-8.34702E-19-2.42043E-18
 -1      3222 1.03181E-04-3.53313E-05-2.91352E-05 8.16404E-06-1.12071E-18-3.41887E-18
 -1      3223 9.96217E-05-3.06210E-05-2.95491E-05 7.64012E-06-4.31417E-19-1.22673E-18
 -1      3224 1.00683E-04-3.16733E-05-2.95788E-05 7.55043E-06-3.55292E-19-1.94441E-18
 -1      3225 9.99245E-05-3.20587E-05-2.91251E-05 8.56649E-06-5.36210E-19-1.92104E-18
 -1      3226 9.80313E-05-2.90923E-05-2.95339E-05 7.20068E-06-4.36886E-20 8.87807E-20
 -1      3227 9.87877E-05-2.97892E-05-2.95682E-05 7.38425E-06 1.41750E-19-4.95481E-19
 -1      3228 9.77987E-05-2.97606E-05-2.91841E-05 8.21101E-06-6.96722E-19-9.46563E-19
 -1      3229 9.70148E-05-2.81819E-05-2.94957E-05 6.45581E-06 1.51467E-19 2.84389E-20
 -1      3230 9.75449E-05-2.86016E-05-2.95416E-05 6.79190E-06-1.53685E-19 2.57169E-19
 -1      3231 9.65062E-05-2.83169E-05-2.92384E-05 7.45877E-06-3.61805E-19-7.28711E-20
 -1      3232 9.63786E-05-2.77083E-05-2.94302E-05 5.58142E-06-5.23462E-20-5.19869E-19
 -1      3233 9.67511E-05-2.79332E-05-2.94865E-05 5.98646E-06 4.26082E-19 4.01772E-20
 -1      3234 9.57709E-05-2.75150E-05-2.92602E-05 6.53032E-06 2.64816E-19-4.74441E-20
 -1      3235 9.59832E-05-2.75195E-05-2.93439E-05 4.68776E-06-9.87055E-19-6.98746E-19
 -1      3236 9.62486E-05-2.76172E-05-2.94062E-05 5.10689E-06-6.79480E-19-1.04292E-18
 -1      3237 9.53828E-05-2.71510E-05-2.92460E-05 5.55728E-06 4.16436E-20-2.69074E-19
 -1      3238 9.57361E-05-2.75031E-05-2.92461E-05 3.84111E-06-4.21855E-19-1.56544E-18
 -1      3239 9.59289E-05-2.75230E-05-2.93096E-05 4.24041E-06-6.85514E-19-1.43084E-18
 -1      3240 9.51989E-05-2.70633E-05-2.92027E-05 4.61725E-06-5.77204E-19-1.35257E-18
 -1      3241 9.55793E-05-2.75819E-05-2.91454E-05 3.07820E-06 6.84129E-19-1.34836E-18
 -1      3242 9.57219E-05-2.75580E-05-2.92063E-05 3.43863E-06 1.13658E-19-8.12990E-19
 -1      3243 9.51283E-05-2.71360E-05-2.91403E-05 3.75471E-06-5.71628E-19-2.41060E-18
 -1      3244 9.54773E-05-2.77057E-05-2.90484E-05 2.41569E-06 6.62546E-19-6.93465E-19
 -1      3245 9.55842E-05-2.76601E-05-2.91041E-05 2.72853E-06 7.26011E-19-6.23102E-19
 -1      3246 9.51159E-05-2.72913E-05-2.90680E-05 2.99253E-06 5.00321E-19-1.71663E-18
 -1      3247 9.54088E-05-2.78437E-05-2.89595E-05 1.85696E-06 3.30295E-19-1.33718E-18
 -1      3248 9.54895E-05-2.77901E-05-2.90086E-05 2.12031E-06 1.28070E-18-8.17525E-19
 -1      3249 9.51301E-05-2.74794E-05-2.89934E-05 2.33883E-06 6.53582E-19-7.74676E-19
 -1      3250 9.53613E-05-2.79781E-05-2.88811E-05 1.39717E-06-8.03717E-19-8.43069E-19
 -1      3251 9.54224E-05-2.79244E-05-2.89230E-05 1.61330E-06-1.03110E-18-1.24471E-18
 -1      3252 9.51535E-05-2.76702E-05-2.89216E-05 1.79204E-06-1.23156E-19-1.43979E-18
 -1      3253 9.53274E-05-2.80997E-05-2.88140E-05 1.02687E-06-1.29841E-18-1.75606E-18
 -1      3254 9.53734E-05-2.80503E-05-2.88489E-05 1.20036E-06-1.04443E-18-1.16922E-18
 -1      3255 9.51774E-05-2.78473E-05-2.88560E-05 1.34457E-06-8.28371E-19-2.04196E-18
 -1      3256 9.53027E-05-2.82047E-05-2.87580E-05 7.34525E-07-7.16610E-19-2.17252E-18
 -1      3257 9.53371E-05-2.81614E-05-2.87864E-05 8.70975E-07-8.48572E-19-1.16137E-18
 -1      3258 9.51980E-05-2.80029E-05-2.87982E-05 9.85626E-07-1.23153E-18-1.77153E-18
 -1      3259 9.52845E-05-2.82923E-05-2.87123E-05 5.08129E-07 8.27737E-19-6.14366E-19
 -1      3260 9.53098E-05-2.82557E-05-2.87349E-05 6.13335E-07-1.68192E-19-1.31231E-18
 -1      3261 9.52140E-05-2.81343E-05-2.87487E-05 7.03112E-07-1.27617E-18-6.33429E-19
 -1      3262 9.52710E-05-2.83638E-05-2.86755E-05 3.36358E-07 2.18489E-18 1.62639E-20
 -1      3263 9.52893E-05-2.83335E-05-2.86933E-05 4.15736E-07 1.81112E-18 2.12805E-19
 -1      3264 9.52255E-05-2.82423E-05-2.87073E-05 4.84903E-07 1.04372E-18 1.00492E-18
 -1      3265 9.52606E-05-2.84209E-05-2.86464E-05 2.09313E-07 1.20341E-18 7.61444E-19
 -1      3266 9.52738E-05-2.83964E-05-2.86602E-05 2.67713E-07 2.07188E-18 8.74675E-20
 -1      3267 9.52330E-05-2.83293E-05-2.86732E-05 3.20013E-07 1.60544E-18 3.10620E-18
 -1      3268 9.52533E-05-2.84662E-05-2.86232E-05 1.18517E-07 6.43417E-19 1.33445E-18
 -1      3269 9.52621E-05-2.84469E-05-2.86340E-05 1.59305E-07 1.07328E-18 1.02807E-18
 -1      3270 9.52370E-05-2.83982E-05-2.86454E-05 1.98393E-07 1.23609E-18 3.62693E-18
 -1      3271 9.52459E-05-2.84856E-05-2.86114E-05 7.62189E-08 1.54339E-18-2.68560E-19
 -1      3272 9.52515E-05-2.84762E-05-2.86174E-05 9.66987E-08 1.27199E-18 6.67226E-19
 -1      3273 9.52366E-05-2.84408E-05-2.86270E-05 1.25693E-07 1.56380E-18 1.94376E-18
 -1      3274 9.52347E-05-2.84670E-05-2.86153E-05 8.51338E-08 1.44067E-18 1.09755E-18
 -1      3275 9.51197E-05-2.83087E-05-2.86334E-05-5.34777E-08-1.55128E-18 1.83370E-18
 -1      3276 9.51111E-05-2.83000E-05-2.86339E-05-3.61105E-08-9.36830E-19 8.96457E-19
 -1      3277 9.51496E-05-2.83433E-05-2.86311E-05-8.61133E-08-1.93282E-18 2.36245E-19
 -1      3278 9.51341E-05-2.83269E-05-2.86324E-05-7.39105E-08-2.43921E-18 2.22861E-18
 -1      3279 9.51030E-05-2.82684E-05-2.86425E-05-7.84078E-08-1.74434E-18 1.22377E-18
 -1      3280 9.51058E-05-2.82936E-05-2.86342E-05-1.08069E-08-2.45104E-19-1.56420E-18
 -1      3281 9.51057E-05-2.82935E-05-2.86341E-05 8.92864E-09 1.57241E-19-3.77512E-18
 -1      3282 9.50809E-05-2.82433E-05-2.86437E-05-2.83376E-08-4.13388E-19-9.19473E-19
 -1      3283 6.98747E-05-3.03551E-05-1.62480E-05-3.21147E-05-2.88817E-18-3.58554E-18
 -1      3284 8.51449E-05-4.01025E-05-1.95900E-05-3.33927E-05-3.34038E-18-2.17052E-18
 -1      3285 8.95755E-05-4.20645E-05-2.03412E-05 3.20394E-05 2.39250E-18-9.10031E-20
 -1      3286 7.34373E-05-3.24560E-05-1.70647E-05 3.18794E-05 2.40017E-18-9.95793E-19
 -1      3287 9.60703E-05-2.75171E-05-2.93725E-05-5.86052E-06 2.52598E-19-3.15995E-19
 -1      3288 9.58510E-05-2.73565E-05-2.93523E-05-5.37748E-06 3.87520E-19-2.54638E-19
 -1      3289 9.54747E-05-2.71076E-05-2.93064E-05-6.25182E-06 2.81269E-19-3.97780E-19
 -1      3290 9.80850E-05-2.94158E-05-2.94225E-05-8.21047E-06 3.35130E-19-4.00993E-19
 -1      3291 9.74116E-05-2.88261E-05-2.93852E-05-8.00803E-06 2.82481E-19-5.40696E-19
 -1      3292 9.71168E-05-2.93083E-05-2.90834E-05-8.98979E-06-6.00595E-20-6.23980E-19
 -1      3293 9.70680E-05-2.84306E-05-2.94078E-05-7.59658E-06 1.84555E-19-6.65089E-19
 -1      3294 9.65978E-05-2.80663E-05-2.93671E-05-7.25860E-06 3.56467E-19-5.65340E-19
 -1      3295 9.56720E-05-2.74690E-05-2.92386E-05-7.26925E-06 4.05648E-19-7.82740E-19
 -1      3296 9.61571E-05-2.81301E-05-2.91682E-05-8.20328E-06 1.82128E-19-9.40367E-19
 -1      3297 1.33461E-04-4.87949E-05-3.67100E-05-4.29052E-06 1.09749E-18-2.74026E-18
 -1      3298 1.32210E-04-5.41374E-05-3.33421E-05 3.34429E-06-5.23102E-19-3.44520E-18
 -1      3299 6.10000E-05-2.38399E-05-1.56251E-05-2.62509E-05 1.19122E-18 4.25729E-18
 -1      3300 7.30422E-05-3.26208E-05-1.71311E-05-3.23753E-05 1.69481E-18 3.15784E-18
 -1      3301 9.53913E-05-2.38370E-05-3.06681E-05 2.88379E-06 2.28099E-18-5.51574E-19
 -1      3302 9.46533E-05-2.21860E-05-3.10500E-05 3.41532E-06 2.27413E-18-8.11666E-19
 -1      3303 9.47961E-05-2.28456E-05-3.08329E-05 2.17138E-06 2.09903E-18-9.06614E-19
 -1      3304 9.54675E-05-2.46967E-05-3.03390E-05 1.43089E-06 2.02927E-18-4.79499E-19
 -1      3305 1.34326E-04-4.36977E-05-3.91783E-05 1.29980E-05-4.63698E-19-2.99199E-18
 -1      3306 1.02717E-04-4.79988E-05-2.28113E-05-2.86493E-05-3.81988E-18-1.70877E-18
 -1      3307 1.14184E-04-5.40024E-05-2.62926E-05-2.19310E-05-3.48578E-18-1.19532E-18
 -1      3308 7.53220E-05-3.45358E-05-1.74116E-05 3.41569E-05-4.55974E-18 3.33683E-18
 -1      3309 6.17954E-05-2.49967E-05-1.54098E-05 2.85377E-05-4.52972E-18 4.62252E-18
 -1      3310 9.53587E-05-2.46099E-05-3.02978E-05-2.28012E-07-1.24023E-18-1.56036E-18
 -1      3311 9.53795E-05-2.51814E-05-3.00921E-05 8.51378E-07-1.22553E-18-1.47961E-18
 -1      3312 9.50952E-05-2.47260E-05-3.01590E-05 1.15537E-06-1.10880E-18-1.56798E-18
 -1      3313 1.31714E-04-5.49154E-05-3.30378E-05 2.50426E-06-9.68595E-20 4.17164E-18
 -1      3314 1.27144E-04-5.76728E-05-2.95778E-05 1.19026E-05 7.74718E-19 3.92923E-18
 -1      3315 9.58619E-05-2.72639E-05-2.93935E-05-4.82754E-06 4.27890E-19-2.59096E-19
 -1      3316 9.57252E-05-2.71058E-05-2.94032E-05-4.27193E-06 6.11135E-19-5.74992E-19
 -1      3317 9.54375E-05-2.68636E-05-2.93943E-05-5.15703E-06 3.85142E-19-4.30669E-19
 -1      3318 9.24787E-05-1.77097E-05-3.20639E-05-5.77184E-06-1.69519E-18-2.26559E-18
 -1      3319 9.32285E-05-1.88160E-05-3.19261E-05-6.26228E-06-2.00015E-18-2.00636E-18
 -1      3320 9.41466E-05-2.07555E-05-3.14396E-05-4.83150E-06-1.83318E-18-1.80521E-18
 -1      3321 9.30337E-05-1.88874E-05-3.17522E-05-4.43254E-06-1.45603E-18-2.21570E-18
 -1      3322 1.27001E-04-3.27560E-05-4.07939E-05-1.37811E-05 3.37352E-18-1.86453E-18
 -1      3323 1.31955E-04-4.16677E-05-3.88114E-05-1.05681E-05 2.49033E-18-2.87187E-18
 -1      3324 1.27311E-04-5.74288E-05-3.02880E-05 1.28221E-05-1.14453E-18-3.47178E-18
 -1      3325 1.18437E-04-5.56801E-05-2.65929E-05 2.11006E-05-2.08333E-18-2.75991E-18
 -1      3326 4.84593E-05-1.65777E-05-1.34070E-05 1.90984E-05-4.24596E-18 5.40651E-18
 -1      3327 4.10408E-05-1.20594E-05-1.18537E-05 6.52510E-06-2.15972E-18 6.00059E-18
 -1      3328 1.32505E-04-5.08016E-05-3.51482E-05 4.48611E-06 5.55918E-19-2.52681E-18
 -1      3329 1.29690E-04-4.42798E-05-3.64766E-05 8.88624E-06 4.05808E-19 3.94712E-18
 -1      3330 1.27696E-04-3.69033E-05-3.94802E-05 1.25168E-05 1.42333E-18 3.59274E-18
 -1      3331 1.16740E-04-5.42916E-05-2.64167E-05-1.99475E-05 2.94384E-18-9.87998E-19
 -1      3332 1.26687E-04-5.66229E-05-3.04045E-05-9.70856E-06 2.34158E-18-9.91856E-19
 -1      3333 9.51896E-05-2.83920E-05-2.86271E-05-1.02145E-07-2.00727E-18-2.55514E-18
 -1      3334 9.51706E-05-2.83707E-05-2.86293E-05-9.80184E-08-1.79173E-18-1.58840E-18
 -1      3335 9.51422E-05-2.83145E-05-2.86397E-05-1.13968E-07-2.44678E-18-3.45038E-19
 -1      3336 8.66031E-05-4.01453E-05-1.95023E-05-3.19429E-05 2.19323E-18 2.29832E-18
 -1      3337 1.01288E-04-4.90438E-05-2.26444E-05-2.99105E-05 2.67774E-18-9.07384E-20
 -1      3338 5.98721E-05-2.45103E-05-1.50578E-05 2.80988E-05 2.39684E-18-1.67617E-18
 -1      3339 4.89591E-05-1.72171E-05-1.32044E-05 1.88949E-05 2.36161E-18-3.35976E-18
 -1      3340 5.40256E-05-1.62695E-05-1.57323E-05 1.36993E-05 1.85435E-18-3.27442E-18
 -1      3341 1.24966E-04-5.47654E-05-2.96560E-05-1.01168E-05-2.76979E-18 1.33561E-18
 -1      3342 1.29257E-04-5.25285E-05-3.34210E-05-3.31145E-07-6.68481E-19 3.43128E-18
 -1      3343 9.11632E-05-1.67867E-05-3.18903E-05 1.24523E-06 9.95021E-19-2.81299E-18
 -1      3344 9.09589E-05-1.65203E-05-3.19167E-05 6.84040E-07 7.62990E-19-2.82693E-18
 -1      3345 1.12626E-04-2.43423E-05-3.79133E-05-1.09900E-05 3.96898E-18-2.18702E-18
 -1      3346 1.17302E-04-2.07738E-05-4.15985E-05-1.17839E-05 4.56847E-18-2.10482E-18
 -1      3347 1.22720E-04-2.78908E-05-4.10445E-05-1.44338E-05 3.89799E-18-2.01700E-18
 -1      3348 1.14980E-04-2.92532E-05-3.70143E-05-1.34241E-05 3.12640E-18-2.46539E-18
 -1      3349 1.30244E-04-5.37994E-05-3.27268E-05-1.38748E-08 1.69900E-18-2.33535E-18
 -1      3350 9.08488E-05-1.63739E-05-3.19319E-05 2.75202E-07 5.61505E-19-2.51714E-18
 -1      3351 9.08392E-05-1.63630E-05-3.19329E-05-2.86176E-07 2.22775E-19-2.45368E-18
 -1      3352 9.16358E-05-1.77550E-05-3.16413E-05 3.41302E-07 5.95309E-19-2.46353E-18
 -1      3353 9.22411E-05-1.82701E-05-3.17168E-05-2.54290E-06-8.54588E-19-2.42989E-18
 -1      3354 9.27939E-05-1.90595E-05-3.16214E-05-3.01677E-06-1.18196E-18-2.34799E-18
 -1      3355 9.38193E-05-2.09309E-05-3.12137E-05 2.26634E-06 1.74002E-18-1.65755E-18
 -1      3356 9.28784E-05-1.91984E-05-3.16000E-05 3.04836E-06 1.84081E-18-2.04278E-18
 -1      3357 9.23254E-05-1.83896E-05-3.17009E-05 2.56686E-06 1.65985E-18-2.23338E-18
 -1      3358 1.22377E-04-3.20906E-05-3.89005E-05 1.35361E-05 1.73073E-18 2.90797E-18
 -1      3359 1.22377E-04-3.31318E-05-3.84492E-05-1.33970E-05 2.63078E-18-2.44726E-18
 -1      3360 9.51691E-05-2.83704E-05-2.86288E-05 9.66433E-08 1.33247E-18-2.56290E-18
 -1      3361 9.51874E-05-2.83917E-05-2.86265E-05 1.00752E-07 2.22366E-18 1.93217E-18
 -1      3362 9.18549E-05-1.77247E-05-3.17870E-05 2.19231E-06 1.48843E-18-2.39479E-18
 -1      3363 9.14664E-05-1.71971E-05-3.18442E-05 1.64730E-06 1.16902E-18-2.52597E-18
 -1      3364 9.20439E-05-1.83072E-05-3.15791E-05 1.04961E-06 9.87337E-19-2.47723E-18
 -1      3365 9.28019E-05-1.93719E-05-3.14450E-05 1.71789E-06 1.53401E-18-2.09690E-18
 -1      3366 1.20697E-04-5.47950E-05-2.80614E-05 1.52051E-05 1.27645E-18 3.15800E-18
 -1      3367 9.14046E-05-1.71148E-05-3.18535E-05-1.64004E-06-4.03201E-19-2.55723E-18
 -1      3368 9.17840E-05-1.76256E-05-3.17993E-05-2.17735E-06-7.38908E-19-2.47509E-18
 -1      3369 9.27227E-05-1.92444E-05-3.14604E-05-1.73109E-06-7.75447E-19-2.27352E-18
 -1      3370 1.07117E-04-4.55540E-05-2.64299E-05 1.91718E-05 1.53709E-18 1.28728E-18
 -1      3371 1.13934E-04-4.82781E-05-2.80440E-05 1.41880E-05 1.10746E-18 2.11521E-18
 -1      3372 1.33323E-04-5.17183E-05-3.51539E-05-5.31501E-06-7.03914E-19 4.11970E-18
 -1      3373 1.18901E-04-5.16250E-05-2.88256E-05 1.17846E-05 7.53882E-19 2.60013E-18
 -1      3374 1.34189E-04-4.53827E-05-3.81610E-05-1.02071E-05-2.01112E-18 4.15994E-18
 -1      3375 5.13268E-05-1.31492E-05-1.61112E-05-1.41512E-06 4.41688E-19-4.06438E-18
 -1      3376 4.77613E-05-1.34287E-05-1.41858E-05-8.44301E-06-1.50812E-20-4.72390E-18
 -1      3377 5.30917E-05-1.59393E-05-1.59310E-05-1.39944E-05-4.31060E-19-3.96088E-18
 -1      3378 1.26365E-04-4.69579E-05-3.40956E-05 5.27052E-06-2.12109E-19 3.29681E-18
 -1      3379 9.52471E-05-2.84447E-05-2.86287E-05-1.30870E-07 6.92483E-19 5.60703E-19
 -1      3380 9.52426E-05-2.84670E-05-2.86184E-05-9.49063E-08 4.70478E-19-6.02193E-19
 -1      3381 9.55031E-05-2.61092E-05-2.97458E-05-2.53579E-06 1.20083E-18-3.05110E-19
 -1      3382 9.56926E-05-2.64954E-05-2.96568E-05-2.24806E-06 1.16372E-18-2.38517E-19
 -1      3383 9.56630E-05-2.61475E-05-2.97803E-05-1.40533E-06 1.53853E-18-2.56929E-19
 -1      3384 1.27602E-04-5.43968E-05-3.14444E-05 6.04302E-06-1.00829E-18-2.91943E-18
 -1      3385 1.11765E-04-1.65830E-05-4.12070E-05 5.23422E-06 4.04924E-18 8.48740E-19
 -1      3386 1.19535E-04-3.25748E-05-3.73043E-05-1.38415E-05 2.25986E-18-2.16105E-18
 -1      3387 9.50807E-05-2.82434E-05-2.86435E-05 2.69288E-08-2.60802E-19-3.54345E-18
 -1      3388 9.51107E-05-2.83000E-05-2.86338E-05 3.42987E-08-2.76170E-19-3.74044E-18
 -1      3389 9.51191E-05-2.83088E-05-2.86331E-05 5.20999E-08-1.55734E-19-3.74657E-18
 -1      3390 1.10637E-04-4.96052E-05-2.59264E-05-2.02813E-05 2.84833E-18-9.99287E-19
 -1      3391 8.68246E-05-3.81729E-05-2.05353E-05 2.98785E-05-4.38763E-18 1.34223E-18
 -1      3392 9.51332E-05-2.83270E-05-2.86320E-05 7.25155E-08 2.02902E-19-2.87336E-18
 -1      3393 9.51485E-05-2.83431E-05-2.86307E-05 8.48218E-08 1.49247E-18-4.00752E-18
 -1      3394 9.51410E-05-2.83148E-05-2.86392E-05 1.13100E-07-3.14482E-19-3.37645E-18
 -1      3395 9.51023E-05-2.82686E-05-2.86421E-05 7.69709E-08-1.70701E-19-3.06145E-18
 -1      3396 9.52459E-05-2.85014E-05-2.86047E-05-5.42754E-08 3.66161E-19-2.34070E-18
 -1      3397 6.64592E-05-2.58307E-05-1.70250E-05-2.68859E-05-2.02819E-18-3.43684E-18
 -1      3398 9.52483E-05-2.84919E-05-2.86095E-05-6.86422E-08 4.24466E-19-9.11533E-19
 -1      3399 9.52344E-05-2.84572E-05-2.86186E-05-9.36107E-08-8.05035E-19-8.63707E-19
 -1      3400 1.31878E-04-3.81477E-05-4.08631E-05-1.47795E-05-2.44020E-18 3.60915E-18
 -1      3401 9.52203E-05-2.83938E-05-2.86396E-05-1.64155E-07 1.21177E-18-2.95560E-20
 -1      3402 7.14630E-05-2.79998E-05-1.82207E-05 2.66812E-05 1.99471E-18-1.52164E-18
 -1      3403 9.56358E-05-2.58263E-05-2.99229E-05-6.27744E-07 1.67974E-18-3.53775E-19
 -1      3404 9.56107E-05-2.52737E-05-3.01329E-05 4.66621E-07 1.82048E-18-4.16273E-19
 -1      3405 9.53369E-05-2.44226E-05-3.03896E-05 8.54752E-07 1.88229E-18-5.18683E-19
 -1      3406 9.54794E-05-2.54137E-05-3.00315E-05-9.55885E-07 1.54844E-18-3.75445E-19
 -1      3407 9.40202E-05-2.09405E-05-3.13303E-05-3.70663E-06-1.52688E-18-1.97360E-18
 -1      3408 9.46095E-05-2.19422E-05-3.11480E-05-3.79383E-06-1.61651E-18-1.73428E-18
 -1      3409 9.48947E-05-2.28421E-05-3.08588E-05-2.65658E-06-1.40299E-18-1.66581E-18
 -1      3410 4.70235E-05-1.27846E-05-1.42116E-05 1.02848E-06-1.84611E-18 5.77258E-18
 -1      3411 9.52175E-05-2.84336E-05-2.86221E-05-9.91905E-08-1.11158E-18-1.91021E-18
 -1      3412 9.51955E-05-2.83863E-05-2.86330E-05-1.24630E-07-7.40652E-19-1.74245E-18
 -1      3413 5.77341E-05-2.02966E-05-1.56243E-05 2.34075E-05-4.55508E-18 4.66292E-18
 -1      3414 5.55852E-05-1.65741E-05-1.65264E-05 1.64296E-05-3.87217E-18 4.45317E-18
 -1      3415 6.75828E-05-2.43966E-05-1.82818E-05 2.43041E-05-4.79922E-18 4.08619E-18
 -1      3416 5.66262E-05-1.94083E-05-1.55024E-05-2.16174E-05 3.81482E-19 5.70413E-18
 -1      3417 6.60374E-05-2.36472E-05-1.79058E-05-2.35536E-05 8.67984E-19 3.39973E-18
 -1      3418 5.41201E-05-1.62318E-05-1.59792E-05-1.52603E-05-7.56453E-19 5.75924E-18
 -1      3419 8.39195E-05-3.57770E-05-2.02755E-05-2.87260E-05 1.92430E-18 1.73239E-18
 -1      3420 9.41039E-05-4.19289E-05-2.21581E-05-2.80409E-05-3.24914E-18-1.95113E-18
 -1      3421 9.50605E-05-2.36241E-05-3.06309E-05-1.65949E-06-1.32954E-18-1.67901E-18
 -1      3422 9.54713E-05-2.65804E-05-2.95301E-05-3.94516E-06 6.27399E-19-7.05787E-19
 -1      3423 1.29451E-04-4.52565E-05-3.62808E-05-7.80256E-06 1.12290E-18-2.36825E-18
 -1      3424 9.48047E-05-2.32242E-05-3.06892E-05-1.17444E-06-1.30040E-18-1.82845E-18
 -1      3425 1.12064E-04-5.18289E-05-2.57065E-05 2.19020E-05-2.55563E-18-1.80000E-18
 -1      3426 1.18229E-04-5.20149E-05-2.82377E-05-1.32790E-05-2.86432E-18 3.10464E-19
 -1      3427 1.23874E-04-3.80198E-05-3.69692E-05-1.29318E-05 1.25782E-18-1.87078E-18
 -1      3428 9.44361E-05-2.52113E-05-2.96692E-05 3.58752E-06-7.72502E-19-1.19067E-18
 -1      3429 9.42628E-05-2.52913E-05-2.95597E-05 4.25668E-06-6.23665E-19-1.12517E-18
 -1      3430 9.39004E-05-2.52546E-05-2.94245E-05 4.84408E-06-4.55576E-19-1.03486E-18
 -1      3431 9.36733E-05-2.52179E-05-2.93356E-05 5.46793E-06-1.66401E-19-8.70194E-19
 -1      3432 9.35649E-05-2.47231E-05-2.94968E-05 4.20212E-06-5.03452E-19-8.58192E-19
 -1      3433 9.31983E-05-2.50754E-05-2.92040E-05 6.04932E-06 3.16618E-20-9.17228E-19
 -1      3434 9.29448E-05-2.49923E-05-2.91170E-05 6.66889E-06 2.93446E-19-9.15640E-19
 -1      3435 9.27357E-05-2.45556E-05-2.92120E-05 5.35040E-06-1.03485E-19-6.40547E-19
 -1      3436 9.23840E-05-2.48185E-05-2.89685E-05 7.28743E-06 5.30432E-19-1.08486E-18
 -1      3437 9.21447E-05-2.47732E-05-2.88639E-05 7.93712E-06 4.94829E-19-1.01846E-18
 -1      3438 9.17064E-05-2.42264E-05-2.89106E-05 6.51842E-06 3.33702E-19-9.85659E-19
 -1      3439 9.15354E-05-2.46596E-05-2.86758E-05 8.64103E-06 3.84092E-19-9.59242E-19
 -1      3440 9.13831E-05-2.47660E-05-2.85342E-05 9.35278E-06 3.01833E-19-1.01936E-18
 -1      3441 9.05365E-05-2.39007E-05-2.85481E-05 7.79944E-06 5.55731E-19-1.29863E-18
 -1      3442 9.07905E-05-2.48373E-05-2.82825E-05 1.02052E-05 2.99112E-19-7.85914E-19
 -1      3443 9.08573E-05-2.52586E-05-2.80873E-05 1.10129E-05 3.90651E-19-4.75741E-19
 -1      3444 8.93196E-05-2.37890E-05-2.80759E-05 9.31262E-06 3.97592E-19-1.11384E-18
 -1      3445 9.04029E-05-2.56938E-05-2.77496E-05 1.21030E-05 2.98425E-19-5.86621E-19
 -1      3446 9.09227E-05-2.66689E-05-2.74940E-05 1.30358E-05 4.80072E-19-8.82370E-19
 -1      3447 8.82250E-05-2.41855E-05-2.74440E-05 1.12288E-05 3.46587E-19-1.07309E-18
 -1      3448 9.08452E-05-2.77377E-05-2.70532E-05 1.44805E-05 6.27414E-19-9.02840E-19
 -1      3449 9.21726E-05-2.96113E-05-2.67570E-05 1.55357E-05 7.90855E-19-8.32008E-19
 -1      3450 8.75723E-05-2.55386E-05-2.66052E-05 1.38010E-05 5.99476E-19-1.17298E-18
 -1      3451 9.29217E-05-3.16481E-05-2.62359E-05 1.72660E-05 1.09743E-18-4.37029E-19
 -1      3452 9.56212E-05-3.48549E-05-2.59916E-05 1.83881E-05 1.29223E-18-2.63374E-20
 -1      3453 8.81044E-05-2.86323E-05-2.55399E-05 1.73001E-05 1.20319E-18-4.48061E-19
 -1      3454 1.23358E-04-4.26601E-05-3.47251E-05-9.38457E-06 5.12680E-19-2.12727E-18
 -1      3455 1.26309E-04-4.34070E-05-3.56724E-05-9.27294E-06 8.23925E-19-2.33887E-18
 -1      3456 1.28479E-04-4.95278E-05-3.37940E-05-3.89947E-06-2.49901E-19-2.50814E-18
 -1      3457 1.23162E-04-4.60597E-05-3.30339E-05-6.15281E-06 9.77496E-20-2.25848E-18
 -1      3458 7.87017E-05-3.07833E-05-2.05223E-05 2.63539E-05 1.88741E-18-9.55241E-19
 -1      3459 6.78926E-05-2.33409E-05-1.88097E-05 2.27078E-05 2.08129E-18-1.93854E-18
 -1      3460 1.02450E-04-4.11865E-05-2.60874E-05-1.86923E-05 3.24304E-18-1.24315E-18
 -1      3461 9.80788E-05-3.69818E-05-2.60547E-05-1.85589E-05 2.44227E-18-5.66494E-19
 -1      3462 9.56829E-05-3.36381E-05-2.65062E-05-1.67075E-05 1.35323E-18-1.12984E-18
 -1      3463 9.32497E-05-3.07639E-05-2.67395E-05-1.57938E-05 8.38460E-19-1.62831E-18
 -1      3464 9.12116E-05-3.29773E-05-2.50247E-05-1.98106E-05 1.77329E-18-1.27634E-18
 -1      3465 9.24828E-05-2.88894E-05-2.71966E-05-1.41445E-05 6.94398E-19-1.21876E-18
 -1      3466 9.12397E-05-2.71880E-05-2.74528E-05-1.31670E-05 1.06691E-18-1.37846E-18
 -1      3467 8.86428E-05-2.79265E-05-2.60687E-05-1.58000E-05 8.32571E-19-7.72190E-19
 -1      3468 9.12281E-05-2.62053E-05-2.78283E-05-1.18202E-05 1.04606E-18-1.64563E-18
 -1      3469 9.07172E-05-2.53245E-05-2.80386E-05-1.09158E-05 1.14627E-18-1.21176E-18
 -1      3470 8.80451E-05-2.51051E-05-2.69868E-05-1.26014E-05 6.88223E-19-4.56385E-19
 -1      3471 9.10554E-05-2.49308E-05-2.83159E-05-9.85794E-06 4.80899E-19-9.30868E-19
 -1      3472 9.09449E-05-2.45672E-05-2.84630E-05-9.05054E-06 6.65070E-20-1.24854E-18
 -1      3473 8.84750E-05-2.38486E-05-2.76940E-05-1.01658E-05 9.96817E-19-1.25526E-18
 -1      3474 9.14146E-05-2.45256E-05-2.86527E-05-8.20203E-06-3.73422E-19-1.05284E-18
 -1      3475 9.14968E-05-2.44678E-05-2.87415E-05-7.48595E-06-3.53093E-19-8.29779E-19
 -1      3476 8.93267E-05-2.35089E-05-2.81985E-05-8.28800E-06 1.14549E-19-1.25883E-18
 -1      3477 9.19858E-05-2.46213E-05-2.88615E-05-6.78619E-06 4.84105E-20-1.29196E-18
 -1      3478 9.21439E-05-2.47307E-05-2.89046E-05-6.15280E-06-6.11519E-19-9.21719E-19
 -1      3479 9.03007E-05-2.36924E-05-2.85356E-05-6.78676E-06-4.73683E-19-1.54536E-18
 -1      3480 9.25969E-05-2.49787E-05-2.89729E-05-5.56424E-06-8.47014E-19-1.04461E-18
 -1      3481 9.27699E-05-2.51684E-05-2.89837E-05-5.00799E-06-7.63066E-19 6.31532E-20
 -1      3482 9.12447E-05-2.41503E-05-2.87444E-05-5.54633E-06-8.46061E-19-6.50282E-19
 -1      3483 9.31639E-05-2.54494E-05-2.90155E-05-4.50901E-06-1.21493E-18-2.29339E-19
 -1      3484 9.33231E-05-2.56673E-05-2.90053E-05-4.02658E-06-1.02982E-18-9.56880E-19
 -1      3485 9.20882E-05-2.47267E-05-2.88602E-05-4.50020E-06-1.12759E-18-2.97597E-19
 -1      3486 9.36519E-05-2.59454E-05-2.90128E-05-3.60467E-06-4.16386E-19-1.87641E-19
 -1      3487 9.37863E-05-2.61618E-05-2.89903E-05-3.19279E-06 2.68069E-19 2.43507E-19
 -1      3488 9.28057E-05-2.53284E-05-2.89115E-05-3.61243E-06-6.41604E-19 6.98266E-19
 -1      3489 9.40524E-05-2.64176E-05-2.89826E-05-2.83924E-06 4.23920E-19 1.09830E-18
 -1      3490 9.41601E-05-2.66165E-05-2.89541E-05-2.49347E-06 2.31128E-19 1.20912E-18
 -1      3491 9.33954E-05-2.59012E-05-2.89203E-05-2.86214E-06 3.92672E-19 1.41088E-18
 -1      3492 9.43704E-05-2.68410E-05-2.89378E-05-2.20085E-06 2.12975E-19 1.41800E-18
 -1      3493 9.44534E-05-2.70154E-05-2.89076E-05-1.91546E-06 6.79190E-19 2.03808E-18
 -1      3494 9.38673E-05-2.64169E-05-2.89029E-05-2.23428E-06 4.45520E-19 2.23680E-18
 -1      3495 9.46163E-05-2.72060E-05-2.88872E-05-1.67666E-06 1.29497E-18 1.08306E-18
 -1      3496 9.46786E-05-2.73539E-05-2.88579E-05-1.44503E-06 1.50078E-18 1.87680E-18
 -1      3497 9.42370E-05-2.68637E-05-2.88709E-05-1.71567E-06 7.31939E-19 2.45456E-18
 -1      3498 9.48025E-05-2.75117E-05-2.88364E-05-1.25307E-06 1.35303E-18 2.48569E-18
 -1      3499 9.48480E-05-2.76341E-05-2.88095E-05-1.06815E-06 1.04960E-18 2.84967E-18
 -1      3500 9.45211E-05-2.72400E-05-2.88323E-05-1.29357E-06 1.42739E-18 1.83470E-18
 -1      3501 9.49404E-05-2.77620E-05-2.87886E-05-9.16300E-07 1.25871E-18 2.80765E-18
 -1      3502 9.49730E-05-2.78612E-05-2.87649E-05-7.71126E-07 1.56310E-18 3.34887E-18
 -1      3503 9.47355E-05-2.75498E-05-2.87921E-05-9.55370E-07 1.58421E-18 1.80857E-18
 -1      3504 9.50405E-05-2.79631E-05-2.87457E-05-6.52940E-07 5.79724E-19 3.91032E-18
 -1      3505 9.50630E-05-2.80422E-05-2.87253E-05-5.40884E-07 5.52464E-19 3.07463E-18
 -1      3506 9.48942E-05-2.78000E-05-2.87534E-05-6.88880E-07 1.07716E-18 2.50535E-18
 -1      3507 9.51113E-05-2.81223E-05-2.87082E-05-4.50534E-07 1.02013E-18 2.65722E-18
 -1      3508 9.51266E-05-2.81846E-05-2.86909E-05-3.65775E-07 7.43272E-19 3.34806E-18
 -1      3509 9.50092E-05-2.79990E-05-2.87179E-05-4.82215E-07 5.73056E-19 2.32887E-18
 -1      3510 9.51598E-05-2.82463E-05-2.86760E-05-2.98052E-07 2.11510E-19 3.02998E-18
 -1      3511 9.51691E-05-2.82949E-05-2.86616E-05-2.34359E-07 1.32301E-18 1.39577E-18
 -1      3512 9.50901E-05-2.81546E-05-2.86862E-05-3.25668E-07 4.30909E-19 1.73906E-18
 -1      3513 9.51264E-05-2.61879E-05-2.95438E-05-4.10780E-06 5.23090E-19-8.74570E-19
 -1      3514 9.51520E-05-2.59920E-05-2.96372E-05-3.44946E-06 9.00291E-19-8.35270E-19
 -1      3515 9.76757E-05-3.10455E-05-2.85340E-05-1.03653E-05-5.52671E-19-3.99523E-19
 -1      3516 9.65676E-05-2.98020E-05-2.85954E-05-1.01404E-05-4.20775E-19-1.91740E-19
 -1      3517 1.11600E-04-4.41290E-05-2.89412E-05-7.83231E-06-2.07639E-18 5.44007E-19
 -1      3518 1.08538E-04-4.17104E-05-2.85540E-05-9.67525E-06-2.13318E-18-5.68141E-20
 -1      3519 1.18867E-04-3.55913E-05-3.56983E-05 1.30256E-05 4.26905E-19 3.47040E-18
 -1      3520 1.23428E-04-4.07801E-05-3.56580E-05 1.13493E-05 2.02348E-19 3.44671E-18
 -1      3521 1.04937E-04-3.81506E-05-2.85388E-05 9.67217E-06-1.26604E-18-1.82060E-18
 -1      3522 1.07624E-04-4.06180E-05-2.87244E-05 8.62824E-06-6.65685E-19-1.45998E-18
 -1      3523 1.00327E-04-3.37006E-05-2.85038E-05 1.00830E-05-1.36063E-18-1.41197E-18
 -1      3524 1.02343E-04-3.57545E-05-2.85242E-05 9.79142E-06-1.49790E-18-1.84600E-18
 -1      3525 1.01420E-04-3.66619E-05-2.78400E-05 1.19588E-05-1.19322E-18-1.13366E-18
 -1      3526 9.73792E-05-3.04902E-05-2.86409E-05 9.55421E-06-1.06337E-18 4.44103E-20
 -1      3527 9.87387E-05-3.19630E-05-2.86002E-05 9.69010E-06-1.11169E-18-4.61373E-19
 -1      3528 9.73501E-05-3.21962E-05-2.79822E-05 1.12698E-05-1.82413E-18 1.22459E-18
 -1      3529 9.56621E-05-2.84174E-05-2.88085E-05 8.60178E-06-8.86456E-19 4.74767E-19
 -1      3530 9.65105E-05-2.93643E-05-2.87601E-05 8.96138E-06-1.01424E-18-1.59906E-19
 -1      3531 9.49897E-05-2.91645E-05-2.82457E-05 1.00409E-05-1.18046E-18 1.95174E-18
 -1      3532 9.47664E-05-2.72248E-05-2.89443E-05 7.49923E-06-8.28471E-20 1.24843E-19
 -1      3533 9.52609E-05-2.77696E-05-2.89110E-05 7.96195E-06-4.91657E-19 3.51283E-19
 -1      3534 9.37893E-05-2.73229E-05-2.85040E-05 8.68086E-06-5.25478E-19 1.89427E-18
 -1      3535 9.43784E-05-2.66483E-05-2.90297E-05 6.38499E-06 2.75542E-19-1.30120E-19
 -1      3536 9.46467E-05-2.69141E-05-2.90173E-05 6.87983E-06 7.14375E-20 1.02465E-20
 -1      3537 9.33129E-05-2.63469E-05-2.87078E-05 7.36133E-06 7.42785E-20-2.33916E-21
 -1      3538 9.42813E-05-2.64704E-05-2.90665E-05 5.32860E-06-6.50117E-20-9.70744E-19
 -1      3539 9.44138E-05-2.65565E-05-2.90730E-05 5.81421E-06 3.94702E-19-2.18735E-19
 -1      3540 9.32549E-05-2.59532E-05-2.88460E-05 6.14811E-06 3.54425E-19 1.54641E-19
 -1      3541 9.43370E-05-2.65325E-05-2.90646E-05 4.36553E-06-3.89449E-19-1.39806E-18
 -1      3542 9.43925E-05-2.65107E-05-2.90851E-05 4.81750E-06-1.06169E-19-1.14362E-18
 -1      3543 9.34163E-05-2.59235E-05-2.89250E-05 5.06126E-06 2.50479E-19-7.93147E-19
 -1      3544 9.44617E-05-2.67249E-05-2.90356E-05 3.51339E-06-5.74091E-19-1.88918E-18
 -1      3545 9.44764E-05-2.66445E-05-2.90649E-05 3.91817E-06-8.65689E-19-2.17241E-18
 -1      3546 9.36749E-05-2.61046E-05-2.89570E-05 4.10586E-06-1.49473E-19-1.31272E-18
 -1      3547 9.46072E-05-2.69753E-05-2.89902E-05 2.77819E-06 2.24933E-19-1.10224E-18
 -1      3548 9.46023E-05-2.68687E-05-2.90236E-05 3.12979E-06-9.27962E-20-1.74194E-18
 -1      3549 9.39592E-05-2.63922E-05-2.89551E-05 3.28066E-06-6.91275E-19-1.59254E-18
 -1      3550 9.47474E-05-2.72387E-05-2.89368E-05 2.15776E-06 3.77787E-19-1.25261E-18
 -1      3551 9.47349E-05-2.71258E-05-2.89709E-05 2.45544E-06 4.33567E-19-1.00816E-18
 -1      3552 9.42297E-05-2.67188E-05-2.89312E-05 2.58016E-06 2.08904E-19-9.13838E-19
 -1      3553 9.48703E-05-2.74889E-05-2.88815E-05 1.64465E-06-3.70813E-20-5.93545E-19
 -1      3554 9.48563E-05-2.73814E-05-2.89141E-05 1.89108E-06 2.93385E-19 2.10363E-20
 -1      3555 9.44675E-05-2.70429E-05-2.88945E-05 1.99549E-06 1.43809E-19 4.07674E-19
 -1      3556 9.49716E-05-2.77126E-05-2.88284E-05 1.22817E-06-1.57431E-18-3.41488E-19
 -1      3557 9.49591E-05-2.76163E-05-2.88580E-05 1.42807E-06-6.56383E-19 2.56134E-20
 -1      3558 9.46659E-05-2.73412E-05-2.88520E-05 1.51567E-06-7.81096E-19 1.26117E-18
 -1      3559 9.50515E-05-2.79043E-05-2.87799E-05 8.96175E-07-1.63952E-18-3.62284E-19
 -1      3560 9.50415E-05-2.78216E-05-2.88059E-05 1.05526E-06-1.59632E-18-9.96105E-19
 -1      3561 9.48251E-05-2.76027E-05-2.88085E-05 1.12832E-06-1.36762E-18 1.59186E-18
 -1      3562 9.51121E-05-2.80635E-05-2.87371E-05 6.36225E-07-1.05228E-18-9.40188E-19
 -1      3563 9.51047E-05-2.79947E-05-2.87593E-05 7.60493E-07-1.25672E-18-1.38006E-18
 -1      3564 9.49486E-05-2.78239E-05-2.87670E-05 8.20930E-07-1.00764E-18-4.97400E-19
 -1      3565 9.51563E-05-2.81926E-05-2.87002E-05 4.36439E-07 1.38367E-20 1.01949E-18
 -1      3566 9.51514E-05-2.81367E-05-2.87188E-05 5.31564E-07-7.78048E-19-3.08380E-19
 -1      3567 9.50414E-05-2.80060E-05-2.87290E-05 5.80993E-07-1.02548E-18-1.74000E-18
 -1      3568 9.51876E-05-2.82961E-05-2.86691E-05 2.86840E-07 4.09976E-19 2.58348E-18
 -1      3569 9.51847E-05-2.82515E-05-2.86844E-05 3.57042E-07 1.79949E-19 1.59604E-18
 -1      3570 9.51093E-05-2.81528E-05-2.86953E-05 3.96904E-07-1.20252E-18-5.30524E-19
 -1      3571 9.52088E-05-2.83764E-05-2.86430E-05 1.75853E-07 5.65841E-19 4.03982E-18
 -1      3572 9.52065E-05-2.83410E-05-2.86556E-05 2.27505E-07 1.28809E-18 4.05989E-18
 -1      3573 9.51560E-05-2.82668E-05-2.86661E-05 2.60058E-07-2.03182E-19 3.75793E-19
 -1      3574 9.52055E-05-2.84204E-05-2.86228E-05 9.83929E-08 3.00380E-18 4.00503E-18
 -1      3575 9.52205E-05-2.84411E-05-2.86196E-05 9.40311E-08 2.26084E-18 3.96404E-18
 -1      3576 9.52203E-05-2.84275E-05-2.86254E-05 1.12303E-07 2.43377E-18 4.66992E-18
 -1      3577 9.51828E-05-2.83715E-05-2.86334E-05 1.23080E-07 1.25866E-18 2.05448E-18
 -1      3578 9.50760E-05-2.82206E-05-2.86522E-05-1.10179E-07-1.54226E-18 1.53824E-18
 -1      3579 9.50577E-05-2.82026E-05-2.86531E-05-8.58101E-08-9.05547E-19 5.20677E-20
 -1      3580 9.50430E-05-2.81853E-05-2.86535E-05-5.01851E-08-6.70598E-19-8.05800E-20
 -1      3581 9.50361E-05-2.81790E-05-2.86537E-05-2.03183E-08-7.03392E-19-1.51838E-18
 -1      3582 9.50147E-05-2.81300E-05-2.86635E-05-8.14851E-08-1.30969E-18-6.24947E-19
 -1      3583 1.04230E-04-4.46258E-05-2.52795E-05-2.14497E-05 3.39552E-18-8.68162E-19
 -1      3584 6.24083E-05-2.07869E-05-1.72722E-05-2.20456E-05-1.04741E-18-2.89849E-18
 -1      3585 7.26960E-05-2.82587E-05-1.93174E-05-2.67285E-05-2.43976E-18-1.87681E-18
 -1      3586 1.25963E-04-5.21655E-05-3.18054E-05 2.93783E-06-7.20067E-19-2.20612E-18
 -1      3587 1.22556E-04-5.37969E-05-2.91991E-05 1.05831E-05-1.29053E-18-2.59242E-18
 -1      3588 1.23726E-04-5.04194E-05-3.15419E-05 1.16943E-06-8.72722E-19-2.04368E-18
 -1      3589 1.06022E-04-4.85674E-05-2.45491E-05 2.42781E-05 2.10546E-18 1.25237E-18
 -1      3590 9.77989E-05-4.57120E-05-2.20553E-05 2.98062E-05 2.34279E-18 4.08879E-19
 -1      3591 9.38188E-05-4.05721E-05-2.29306E-05 2.65712E-05-3.13765E-18 3.76983E-19
 -1      3592 8.14741E-05-3.25128E-05-2.07767E-05 2.69716E-05-4.16792E-18 2.70505E-18
 -1      3593 9.59945E-05-2.89039E-05-2.87351E-05-9.53852E-06-1.97051E-19-2.66543E-19
 -1      3594 9.53426E-05-2.81320E-05-2.87980E-05-9.15315E-06-1.02040E-19-3.59431E-19
 -1      3595 9.45814E-05-2.86342E-05-2.82911E-05-1.03786E-05-2.06945E-19-4.26573E-19
 -1      3596 9.49599E-05-2.64271E-05-2.93666E-05-5.29302E-06 2.04598E-19-8.40963E-19
 -1      3597 9.49692E-05-2.62986E-05-2.94298E-05-4.71212E-06 2.31939E-19-8.30998E-19
 -1      3598 9.46116E-05-2.57324E-05-2.95198E-05-4.24791E-06 4.85086E-19-1.18378E-18
 -1      3599 9.35098E-05-2.01069E-05-3.14663E-05-3.47130E-06-1.37209E-18-2.11640E-18
 -1      3600 9.50626E-05-2.36780E-05-3.05918E-05 1.18889E-06 1.88091E-18-8.10647E-19
 -1      3601 9.46039E-05-2.27192E-05-3.08130E-05 1.47217E-06 1.88559E-18-1.05102E-18
 -1      3602 9.51614E-05-2.42870E-05-3.03809E-05 1.78694E-07 1.69875E-18-7.94628E-19
 -1      3603 1.14087E-04-5.16431E-05-2.69489E-05 1.81031E-05-1.85606E-18-2.40008E-18
 -1      3604 1.03987E-04-4.64889E-05-2.43540E-05 2.41167E-05-2.20534E-18-1.09593E-18
 -1      3605 1.14729E-04-5.01172E-05-2.76562E-05 1.43031E-05-1.55188E-18-1.56264E-18
 -1      3606 9.47657E-05-2.38987E-05-3.03773E-05 5.50644E-07-1.03418E-18-1.81688E-18
 -1      3607 9.47879E-05-2.44086E-05-3.01707E-05 1.46056E-06-9.90227E-19-1.69516E-18
 -1      3608 9.48289E-05-2.66280E-05-2.92214E-05-6.40314E-06 2.34010E-19-6.59413E-19
 -1      3609 9.47815E-05-2.64895E-05-2.92692E-05-5.86713E-06 1.38889E-19-7.38330E-19
 -1      3610 9.42764E-05-2.59353E-05-2.92901E-05-5.44166E-06 1.29989E-19-1.25499E-18
 -1      3611 8.98521E-05-3.90407E-05-2.16727E-05 2.84307E-05 2.18664E-18-2.15464E-19
 -1      3612 5.18223E-05-1.31249E-05-1.64180E-05 5.44266E-06-2.83380E-18 4.99972E-18
 -1      3613 5.14114E-05-1.28988E-05-1.62693E-05-4.52886E-06-1.88732E-18 4.92963E-18
 -1      3614 1.05206E-04-3.88006E-05-2.84201E-05-1.03149E-05-1.81013E-18-2.97719E-19
 -1      3615 1.02687E-04-3.64256E-05-2.83198E-05-1.09273E-05-1.39357E-18-2.93889E-19
 -1      3616 1.04763E-04-4.02516E-05-2.77857E-05-1.26695E-05-2.13177E-18-8.06402E-20
 -1      3617 1.00608E-04-3.43463E-05-2.83792E-05-1.07816E-05-9.84497E-19-4.83724E-19
 -1      3618 9.88631E-05-3.25004E-05-2.84016E-05-1.08662E-05-7.21582E-19-5.00247E-19
 -1      3619 9.62539E-05-3.10987E-05-2.79733E-05-1.16694E-05-5.14070E-19-2.72407E-19
 -1      3620 9.93861E-05-3.49474E-05-2.77203E-05-1.26428E-05-1.42779E-18-7.66002E-20
 -1      3621 9.51885E-05-2.83492E-05-2.86448E-05-1.68128E-07-1.92358E-19-9.03206E-19
 -1      3622 9.09302E-05-1.64834E-05-3.19202E-05-6.89455E-07 5.55008E-20-2.51360E-18
 -1      3623 9.11188E-05-1.67287E-05-3.18964E-05-1.24417E-06-2.65842E-19-2.62376E-18
 -1      3624 9.19887E-05-1.82319E-05-3.15873E-05-1.06767E-06-2.94711E-19-2.38201E-18
 -1      3625 9.47474E-05-2.48003E-05-2.99747E-05 2.19356E-06-8.67306E-19-1.57437E-18
 -1      3626 9.46588E-05-2.50726E-05-2.98267E-05 2.95438E-06-8.12796E-19-1.36328E-18
 -1      3627 9.41449E-05-2.45863E-05-2.98046E-05 2.99087E-06-6.55775E-19-1.40934E-18
 -1      3628 7.89428E-05-3.07288E-05-2.04414E-05-2.62031E-05 2.10840E-18 1.42251E-18
 -1      3629 9.00871E-05-3.76399E-05-2.24246E-05-2.60718E-05 2.62898E-18 2.66551E-19
 -1      3630 9.51290E-05-2.82822E-05-2.86491E-05-1.50383E-07-2.53652E-18-1.77090E-18
 -1      3631 9.51034E-05-2.82536E-05-2.86510E-05-1.37885E-07-2.35328E-18 1.73461E-19
 -1      3632 9.50577E-05-2.81791E-05-2.86619E-05-1.49026E-07-1.20561E-18-3.68530E-19
 -1      3633 8.75725E-05-3.56325E-05-2.17286E-05-2.68191E-05-2.93354E-18-1.77015E-18
 -1      3634 9.97504E-05-4.37473E-05-2.44075E-05-2.41346E-05-3.19575E-18-1.97880E-18
 -1      3635 5.97253E-05-1.82385E-05-1.76787E-05 1.72155E-05 2.13542E-18-2.52617E-18
 -1      3636 5.49746E-05-1.47112E-05-1.70795E-05 8.79955E-06 1.60345E-18-3.27876E-18
 -1      3637 9.38473E-05-2.09361E-05-3.12199E-05-2.39552E-06-1.21694E-18-2.01969E-18
 -1      3638 1.12882E-04-4.89316E-05-2.69762E-05-1.62818E-05-3.39070E-18-1.23018E-20
 -1      3639 1.19400E-04-5.07190E-05-2.97765E-05-7.32474E-06-2.47036E-18 1.61689E-18
 -1      3640 9.41932E-05-2.22041E-05-3.08618E-05-9.71478E-07-1.01340E-18-1.88892E-18
 -1      3641 9.13361E-05-3.74120E-05-2.30575E-05 2.49514E-05 2.10460E-18 2.91088E-19
 -1      3642 8.50192E-05-3.38266E-05-2.16028E-05 2.61982E-05 1.97024E-18-3.29999E-19
 -1      3643 8.06363E-05-2.93447E-05-2.19678E-05 2.33305E-05 1.86812E-18-3.86459E-19
 -1      3644 9.33959E-05-2.07567E-05-3.11482E-05-1.24947E-06-8.78799E-19-2.16671E-18
 -1      3645 9.43475E-05-2.27650E-05-3.06608E-05-1.69280E-07-9.66510E-19-1.90162E-18
 -1      3646 9.40230E-05-2.25216E-05-3.06525E-05 1.84747E-07-8.37125E-19-1.83772E-18
 -1      3647 9.29415E-05-2.00986E-05-3.12336E-05-9.81905E-07-6.15410E-19-2.30951E-18
 -1      3648 9.26270E-05-1.96386E-05-3.12934E-05 7.97062E-07 1.07782E-18-2.20846E-18
 -1      3649 9.23327E-05-1.92308E-05-3.13409E-05 5.02552E-07 8.70714E-19-2.55558E-18
 -1      3650 9.27112E-05-2.00993E-05-3.10969E-05 1.52388E-07 8.54915E-19-2.20702E-18
 -1      3651 9.21275E-05-1.89542E-05-3.13722E-05 3.48791E-07 7.91737E-19-2.32797E-18
 -1      3652 9.20198E-05-1.88104E-05-3.13879E-05 4.43468E-08 4.01860E-19-2.05971E-18
 -1      3653 1.24295E-04-4.70796E-05-3.30895E-05 4.33590E-06-6.37174E-19 3.30731E-18
 -1      3654 6.10166E-05-1.81863E-05-1.81131E-05-1.53270E-05-6.50574E-19-3.19204E-18
 -1      3655 5.92092E-05-1.44005E-05-1.91245E-05-5.03246E-06-1.74043E-18 3.93161E-18
 -1      3656 5.55573E-05-1.44475E-05-1.73380E-05-9.33953E-06-1.01002E-18 5.02238E-18
 -1      3657 6.14452E-05-1.73343E-05-1.88706E-05-1.44501E-05-4.64508E-19 4.53343E-18
 -1      3658 1.19987E-04-4.66873E-05-3.15050E-05-1.77632E-06-1.59884E-19-1.22398E-18
 -1      3659 1.22202E-04-4.83381E-05-3.17369E-05-9.44407E-07-6.37380E-19-1.77756E-18
 -1      3660 1.20116E-04-4.97615E-05-3.00289E-05 4.88134E-06-1.24300E-18-1.40478E-18
 -1      3661 1.17808E-04-4.64508E-05-3.04899E-05 1.47483E-06-8.55887E-19-8.37656E-19
 -1      3662 5.53032E-05-1.38054E-05-1.74873E-05 3.89383E-06 1.02795E-18-3.13932E-18
 -1      3663 5.65509E-05-1.40846E-05-1.82744E-05-2.12275E-06 4.97152E-19-3.28019E-18
 -1      3664 6.06093E-05-1.53413E-05-1.92315E-05 7.22386E-06 1.49366E-18-2.21473E-18
 -1      3665 9.52372E-05-2.57448E-05-2.97833E-05-2.77885E-06 1.05506E-18-7.12803E-19
 -1      3666 9.52362E-05-2.54013E-05-2.99248E-05-1.99186E-06 1.21728E-18-6.65689E-19
 -1      3667 9.48569E-05-2.53338E-05-2.97954E-05-2.95398E-06 1.03597E-18-1.14615E-18
 -1      3668 9.16158E-05-1.77285E-05-3.16437E-05-3.72633E-07 6.36631E-20-2.28225E-18
 -1      3669 1.17669E-04-4.75187E-05-3.01198E-05-3.68796E-06-1.79665E-18 1.68829E-18
 -1      3670 1.22833E-04-4.90333E-05-3.15027E-05 6.17819E-07-1.40732E-18 2.75110E-18
 -1      3671 9.48425E-05-2.69632E-05-2.90805E-05-7.48215E-06 2.90783E-19-4.19339E-19
 -1      3672 9.46848E-05-2.67271E-05-2.91261E-05-6.97788E-06 4.49552E-19-4.32126E-19
 -1      3673 9.39488E-05-2.61112E-05-2.90763E-05-6.60733E-06 2.17267E-19-6.94846E-19
 -1      3674 1.14756E-04-4.58306E-05-2.93226E-05-6.43076E-06-2.16630E-18 8.92197E-19
 -1      3675 9.50359E-05-2.81788E-05-2.86536E-05 1.92165E-08-7.32115E-19-3.54595E-18
 -1      3676 9.50425E-05-2.81857E-05-2.86533E-05 4.91443E-08 9.53463E-20-4.70519E-18
 -1      3677 9.49972E-05-2.81120E-05-2.86637E-05-8.88999E-10-8.05399E-19-2.29274E-18
 -1      3678 9.41021E-05-2.18591E-05-3.09643E-05 1.32887E-06 1.59002E-18-1.58050E-18
 -1      3679 6.82009E-05-2.12732E-05-1.98768E-05 1.79906E-05 1.92934E-18-2.23770E-18
 -1      3680 9.51682E-05-2.83316E-05-2.86449E-05 1.63335E-07-7.07662E-21 7.51163E-19
 -1      3681 9.51905E-05-2.83608E-05-2.86411E-05 1.60192E-07 9.71092E-19 4.01082E-18
 -1      3682 9.52212E-05-2.84133E-05-2.86316E-05 1.35521E-07 1.35796E-18 4.82442E-18
 -1      3683 1.05352E-04-4.39289E-05-2.62275E-05-1.76687E-05-3.03537E-18-6.45787E-19
 -1      3684 9.81292E-05-4.11677E-05-2.42609E-05 2.27562E-05-2.15398E-18 3.79371E-19
 -1      3685 9.44025E-05-2.39865E-05-3.01710E-05 1.63801E-06-8.12249E-19-1.66955E-18
 -1      3686 7.62604E-05-2.81281E-05-2.04823E-05 2.51456E-05-4.26163E-18 4.49984E-18
 -1      3687 7.13417E-05-2.33272E-05-2.04357E-05 2.07377E-05-4.27655E-18 4.33845E-18
 -1      3688 8.41397E-05-3.08057E-05-2.27299E-05 2.20833E-05-3.34607E-18 3.44477E-18
 -1      3689 6.25125E-05-1.76425E-05-1.92550E-05 1.47691E-05-3.77336E-18 3.71607E-18
 -1      3690 5.65718E-05-1.47659E-05-1.76033E-05 1.02901E-05-3.13744E-18 4.62131E-18
 -1      3691 5.94142E-05-1.43499E-05-1.92144E-05 5.12528E-06-2.78943E-18 4.22598E-18
 -1      3692 9.38765E-05-2.71982E-05-2.85912E-05-9.06076E-06-3.76862E-20-1.97903E-19
 -1      3693 9.51556E-05-2.76383E-05-2.89218E-05-8.53966E-06 4.97080E-20-4.13136E-19
 -1      3694 9.48081E-05-2.71985E-05-2.89748E-05-8.07588E-06 2.50810E-19-4.05730E-19
 -1      3695 1.11366E-04-4.59992E-05-2.81984E-05-1.15626E-05-2.60295E-18 3.62543E-19
 -1      3696 9.51438E-05-2.82837E-05-2.86543E-05-1.89205E-07-1.06378E-18-6.92947E-19
 -1      3697 1.11358E-04-4.33713E-05-2.90303E-05 7.38826E-06-7.48367E-19-1.39677E-18
 -1      3698 1.14440E-04-4.55089E-05-2.95647E-05 5.24329E-06-8.52977E-19-1.21361E-18
 -1      3699 8.18374E-05-3.08474E-05-2.17190E-05-2.36910E-05-2.11361E-18-1.55255E-18
 -1      3700 7.35499E-05-2.65562E-05-1.99858E-05-2.44256E-05 1.55159E-18 1.78915E-18
 -1      3701 8.06414E-05-2.87997E-05-2.20535E-05-2.22899E-05 1.93022E-18 6.62975E-19
 -1      3702 6.84628E-05-2.21985E-05-1.97024E-05-2.03297E-05 1.12231E-18 2.85633E-18
 -1      3703 9.51061E-05-2.82165E-05-2.86661E-05-2.17114E-07-7.73521E-19-3.72511E-19
 -1      3704 9.51015E-05-2.82538E-05-2.86503E-05 1.35091E-07-5.30404E-19-4.00416E-18
 -1      3705 9.51275E-05-2.82798E-05-2.86485E-05 1.50519E-07-7.29934E-19-2.99470E-18
 -1      3706 9.51291E-05-2.82648E-05-2.86565E-05 1.90359E-07-4.85567E-19-1.19134E-18
 -1      3707 8.75739E-05-3.13995E-05-2.39811E-05 2.13167E-05 1.82634E-18 2.06511E-19
 -1      3708 9.48158E-05-3.62600E-05-2.51028E-05 2.06813E-05 1.63458E-18 1.58885E-19
 -1      3709 1.15470E-04-4.71894E-05-2.93057E-05 6.72780E-06-9.16999E-19-1.19124E-18
 -1      3710 1.07710E-04-4.24513E-05-2.80800E-05 1.12745E-05-8.02713E-19-1.74088E-18
 -1      3711 9.34363E-05-2.08112E-05-3.11401E-05 1.19712E-06 1.51018E-18-1.95093E-18
 -1      3712 9.29883E-05-2.01535E-05-3.12264E-05 9.43195E-07 1.26279E-18-1.94556E-18
 -1      3713 9.32777E-05-2.08887E-05-3.09997E-05 3.47297E-07 1.07943E-18-1.88930E-18
 -1      3714 8.93094E-05-3.43764E-05-2.34993E-05-2.31038E-05 2.26732E-18-6.65874E-19
 -1      3715 9.45991E-05-3.98187E-05-2.35362E-05-2.49495E-05 2.96610E-18-5.75996E-19
 -1      3716 9.38855E-05-2.40680E-05-2.99238E-05 2.29945E-06-4.71280E-19-1.30953E-18
 -1      3717 9.36543E-05-2.42457E-05-2.97527E-05 2.91796E-06-4.20087E-19-1.22997E-18
 -1      3718 9.97738E-05-4.04914E-05-2.52244E-05 2.11421E-05 1.77910E-18 6.60931E-19
 -1      3719 9.23365E-05-2.41428E-05-2.92352E-05 4.43502E-06-2.26851E-19-6.32290E-19
 -1      3720 9.18590E-05-2.39984E-05-2.90840E-05 4.98026E-06 1.24530E-19-7.37632E-19
 -1      3721 9.11176E-05-2.37479E-05-2.88862E-05 5.45971E-06 2.13409E-19-7.76629E-19
 -1      3722 9.05511E-05-2.35467E-05-2.87144E-05 6.02782E-06 4.32160E-19-9.18684E-19
 -1      3723 9.08157E-05-2.33328E-05-2.89061E-05 4.51344E-06 1.13817E-19-9.40237E-19
 -1      3724 8.96493E-05-2.32519E-05-2.84749E-05 6.56831E-06 5.84047E-19-1.02778E-18
 -1      3725 8.90292E-05-2.30788E-05-2.82584E-05 7.20921E-06 4.49744E-19-1.21861E-18
 -1      3726 8.91871E-05-2.27559E-05-2.84519E-05 5.45789E-06 2.52570E-19-1.00317E-18
 -1      3727 8.79723E-05-2.28229E-05-2.79472E-05 7.87700E-06 4.42620E-19-1.12958E-18
 -1      3728 8.73604E-05-2.27880E-05-2.76598E-05 8.66052E-06 5.00276E-19-1.01567E-18
 -1      3729 8.72424E-05-2.21342E-05-2.78802E-05 6.56772E-06 5.10152E-19-9.57921E-19
 -1      3730 8.61551E-05-2.26778E-05-2.72406E-05 9.56425E-06 3.47590E-19-1.01015E-18
 -1      3731 8.56671E-05-2.29429E-05-2.68557E-05 1.05990E-05 2.49846E-19-1.03773E-18
 -1      3732 8.49860E-05-2.16314E-05-2.71223E-05 8.01413E-06 4.88348E-19-1.05367E-18
 -1      3733 8.43300E-05-2.31050E-05-2.62834E-05 1.18997E-05 4.89777E-19-9.62399E-19
 -1      3734 8.41890E-05-2.39403E-05-2.57719E-05 1.33789E-05 8.78936E-19-7.62976E-19
 -1      3735 8.24431E-05-2.14691E-05-2.60915E-05 1.00836E-05 5.76636E-19-1.13685E-18
 -1      3736 8.27368E-05-2.45145E-05-2.49694E-05 1.53115E-05 1.31964E-18-5.31556E-19
 -1      3737 8.31034E-05-2.63658E-05-2.42922E-05 1.75342E-05 1.68698E-18-3.84305E-19
 -1      3738 7.96582E-05-2.21106E-05-2.46755E-05 1.32885E-05 1.37466E-18-8.15843E-19
 -1      3739 9.20004E-05-1.87866E-05-3.13891E-05-1.04990E-07 1.94951E-19-2.17137E-18
 -1      3740 9.20881E-05-1.89144E-05-3.13759E-05-3.96148E-07 1.03155E-20-2.23544E-18
 -1      3741 9.24919E-05-1.97931E-05-3.11292E-05-5.77925E-08 3.50936E-19-1.89065E-18
 -1      3742 8.42925E-05-2.59421E-05-2.49402E-05-1.60818E-05 1.48473E-18-1.02804E-19
 -1      3743 8.37125E-05-2.42463E-05-2.55136E-05-1.42008E-05 5.02875E-19 3.14163E-20
 -1      3744 8.48321E-05-2.35811E-05-2.62009E-05-1.23358E-05 3.27031E-19 5.11466E-19
 -1      3745 8.48668E-05-2.28049E-05-2.66382E-05-1.09851E-05 9.36237E-19-5.40521E-20
 -1      3746 8.05973E-05-2.18119E-05-2.51728E-05-1.23545E-05 9.71778E-19-5.83522E-19
 -1      3747 8.59698E-05-2.26105E-05-2.71287E-05-9.72467E-06 8.50221E-19-5.85745E-19
 -1      3748 8.63371E-05-2.23662E-05-2.74483E-05-8.72283E-06 5.09695E-19-7.94150E-19
 -1      3749 8.28873E-05-2.12003E-05-2.64058E-05-9.39537E-06 2.32985E-19-5.75086E-19
 -1      3750 8.73492E-05-2.24738E-05-2.77914E-05-7.82846E-06 2.62299E-19-1.35344E-18
 -1      3751 8.78354E-05-2.25318E-05-2.80120E-05-7.05098E-06-1.55841E-19-1.58948E-18
 -1      3752 8.50204E-05-2.13176E-05-2.72747E-05-7.37776E-06-3.88430E-20-1.07098E-18
 -1      3753 8.87277E-05-2.28093E-05-2.82450E-05-6.37791E-06-4.38879E-19-1.53423E-18
 -1      3754 8.92264E-05-2.30317E-05-2.83882E-05-5.74721E-06-2.69197E-19-1.09272E-18
 -1      3755 8.69215E-05-2.18277E-05-2.78749E-05-5.92902E-06-4.49652E-19-1.62113E-18
 -1      3756 8.99915E-05-2.33904E-05-2.85406E-05-5.21359E-06-2.08690E-19-1.12178E-18
 -1      3757 9.04503E-05-2.36899E-05-2.86267E-05-4.68468E-06-8.09496E-19-5.39594E-19
 -1      3758 8.85686E-05-2.25445E-05-2.82777E-05-4.82252E-06-1.43623E-20-1.17074E-18
 -1      3759 9.10941E-05-2.40748E-05-2.87211E-05-4.24502E-06-5.87086E-19-6.51846E-20
 -1      3760 9.14918E-05-2.43984E-05-2.87666E-05-3.79467E-06-3.70509E-19 6.06647E-19
 -1      3761 8.99652E-05-2.33419E-05-2.85378E-05-3.92905E-06-2.60560E-19-6.77282E-19
 -1      3762 9.20235E-05-2.47746E-05-2.88199E-05-3.42631E-06-6.69561E-19 1.23668E-18
 -1      3763 9.23550E-05-2.50903E-05-2.88378E-05-3.04232E-06 1.08920E-19 1.53401E-18
 -1      3764 9.11293E-05-2.41443E-05-2.86957E-05-3.18414E-06 4.41450E-20 1.16820E-18
 -1      3765 9.27866E-05-2.54372E-05-2.88630E-05-2.73271E-06 2.32164E-19 9.16171E-19
 -1      3766 9.30548E-05-2.57268E-05-2.88630E-05-2.40776E-06 1.87496E-19 8.11132E-19
 -1      3767 9.20826E-05-2.49020E-05-2.87821E-05-2.55512E-06-2.49696E-19 1.34957E-18
 -1      3768 9.33994E-05-2.60337E-05-2.88699E-05-2.14884E-06 9.65538E-19 1.60202E-18
 -1      3769 9.36114E-05-2.62887E-05-2.88592E-05-1.87699E-06 1.33078E-18 2.40152E-18
 -1      3770 9.28503E-05-2.55863E-05-2.88199E-05-2.02396E-06 9.22143E-19 1.00832E-18
 -1      3771 9.38826E-05-2.65524E-05-2.88546E-05-1.66274E-06 7.66679E-19 2.58257E-18
 -1      3772 9.40468E-05-2.67701E-05-2.88382E-05-1.43871E-06 4.87957E-19 2.27411E-18
 -1      3773 9.34592E-05-2.61838E-05-2.88265E-05-1.57860E-06 9.90794E-19 5.23625E-19
 -1      3774 9.42569E-05-2.69909E-05-2.88271E-05-1.26387E-06 6.59270E-19 2.87937E-18
 -1      3775 9.43818E-05-2.71724E-05-2.88083E-05-1.08208E-06 1.85270E-18 2.98249E-18
 -1      3776 9.39351E-05-2.66925E-05-2.88138E-05-1.21013E-06 8.85377E-19 1.35666E-18
 -1      3777 9.45421E-05-2.73538E-05-2.87939E-05-9.41642E-07 1.52665E-18 2.42414E-18
 -1      3778 9.46354E-05-2.75021E-05-2.87748E-05-7.96642E-07 6.07541E-19 1.70685E-18
 -1      3779 9.43013E-05-2.71158E-05-2.87905E-05-9.09694E-07 9.91269E-19 2.56948E-18
 -1      3780 9.47554E-05-2.76482E-05-2.87592E-05-6.85809E-07 8.29939E-19 1.23707E-18
 -1      3781 9.48236E-05-2.77672E-05-2.87411E-05-5.72046E-07 1.16016E-18 1.18253E-18
 -1      3782 9.45785E-05-2.74616E-05-2.87619E-05-6.69172E-07 7.01390E-19 1.43722E-18
 -1      3783 9.49116E-05-2.78826E-05-2.87257E-05-4.86389E-07 4.69879E-19 1.08703E-18
 -1      3784 9.49599E-05-2.79769E-05-2.87091E-05-3.98296E-07 5.54646E-19 1.08531E-18
 -1      3785 9.47848E-05-2.77397E-05-2.87319E-05-4.80057E-07 6.24075E-19 7.50353E-19
 -1      3786 9.50244E-05-2.80681E-05-2.86947E-05-3.33118E-07 1.51152E-19 1.19667E-19
 -1      3787 9.50589E-05-2.81424E-05-2.86800E-05-2.67277E-07 1.03722E-19-7.61869E-19
 -1      3788 9.49334E-05-2.79586E-05-2.87025E-05-3.34398E-07-8.48004E-20-1.69695E-19
 -1      3789 9.40837E-05-2.53184E-05-2.94700E-05-4.23812E-06 4.38273E-19-1.29529E-18
 -1      3790 9.42397E-05-2.51761E-05-2.96010E-05-3.62553E-06 6.65442E-19-1.23614E-18
 -1      3791 9.23517E-05-2.72923E-05-2.78815E-05 1.00453E-05-7.69728E-19 2.46027E-18
 -1      3792 9.32235E-05-2.84525E-05-2.77235E-05 1.07781E-05-1.62202E-18 2.54398E-18
 -1      3793 9.38824E-05-2.97730E-05-2.74579E-05 1.19301E-05-2.70073E-18 2.25029E-18
 -1      3794 9.54896E-05-3.16492E-05-2.73119E-05 1.25944E-05-2.30473E-18 1.33685E-18
 -1      3795 9.09310E-05-2.78443E-05-2.70703E-05 1.19936E-05-2.43623E-18 1.41524E-18
 -1      3796 9.70503E-05-3.38071E-05-2.70555E-05 1.38244E-05-2.17000E-18 4.28976E-19
 -1      3797 9.97088E-05-3.65405E-05-2.70073E-05 1.41565E-05-1.78749E-18-4.67857E-19
 -1      3798 9.29504E-05-3.12963E-05-2.64741E-05 1.46639E-05-3.22075E-18 1.43804E-18
 -1      3799 9.18058E-05-2.59264E-05-2.82403E-05 8.35420E-06-1.04658E-19 1.64231E-18
 -1      3800 9.22044E-05-2.65638E-05-2.81075E-05 9.05695E-06 3.89994E-20 2.35852E-18
 -1      3801 9.02312E-05-2.58453E-05-2.76092E-05 9.72314E-06-5.69773E-19 1.95125E-18
 -1      3802 9.18264E-05-2.53237E-05-2.85099E-05 6.89331E-06 8.58739E-19 4.26587E-19
 -1      3803 9.19419E-05-2.56062E-05-2.84132E-05 7.53101E-06 3.56158E-19 9.78416E-19
 -1      3804 9.02792E-05-2.48599E-05-2.80404E-05 7.86429E-06 4.04236E-19 1.49444E-18
 -1      3805 9.21354E-05-2.52030E-05-2.86947E-05 5.64394E-06 7.67795E-19 1.17613E-19
 -1      3806 9.20961E-05-2.52611E-05-2.86327E-05 6.21225E-06 7.59596E-19 6.86437E-19
 -1      3807 9.07156E-05-2.45412E-05-2.83588E-05 6.36036E-06 8.38610E-19 7.03741E-19
 -1      3808 9.25718E-05-2.53732E-05-2.88084E-05 4.57716E-06 4.24144E-19-9.34934E-19
 -1      3809 9.24570E-05-2.52973E-05-2.87752E-05 5.07640E-06 7.87524E-19-4.98140E-19
 -1      3810 9.13207E-05-2.46263E-05-2.85789E-05 5.12883E-06 1.04336E-18-5.58013E-19
 -1      3811 9.30379E-05-2.57000E-05-2.88673E-05 3.67031E-06-6.69023E-19-1.59623E-18
 -1      3812 9.28952E-05-2.55523E-05-2.88558E-05 4.10352E-06 3.12211E-20-1.37189E-18
 -1      3813 9.19710E-05-2.49465E-05-2.87194E-05 4.11211E-06 3.50210E-19-9.97326E-19
 -1      3814 9.34806E-05-2.60952E-05-2.88867E-05 2.90601E-06-5.16197E-19-1.91074E-18
 -1      3815 9.33372E-05-2.59169E-05-2.88902E-05 3.27604E-06-9.21680E-19-1.64466E-18
 -1      3816 9.25944E-05-2.53840E-05-2.87991E-05 3.26851E-06-6.57253E-19-1.30200E-18
 -1      3817 9.38721E-05-2.65009E-05-2.88795E-05 2.26830E-06-4.31390E-19-3.38879E-19
 -1      3818 9.37419E-05-2.63180E-05-2.88926E-05 2.57995E-06-3.96553E-19-1.17173E-18
 -1      3819 9.31535E-05-2.58608E-05-2.88349E-05 2.57062E-06-1.15602E-18-1.20663E-18
 -1      3820 9.42031E-05-2.68841E-05-2.88562E-05 1.74297E-06-4.86980E-19 4.28174E-19
 -1      3821 9.40921E-05-2.67119E-05-2.88745E-05 2.00101E-06-1.16971E-19 4.69245E-20
 -1      3822 9.36325E-05-2.63276E-05-2.88408E-05 1.99555E-06-6.02929E-19-2.39712E-19
 -1      3823 9.44728E-05-2.72263E-05-2.88242E-05 1.31603E-06-8.34527E-19 2.02545E-19
 -1      3824 9.43823E-05-2.70729E-05-2.88446E-05 1.52644E-06-3.36270E-19 4.02185E-19
 -1      3825 9.40292E-05-2.67566E-05-2.88277E-05 1.52658E-06-3.52743E-19-1.94277E-19
 -1      3826 9.46863E-05-2.75208E-05-2.87887E-05 9.74027E-07-1.16762E-18-3.22170E-19
 -1      3827 9.46150E-05-2.73891E-05-2.88092E-05 1.14274E-06-1.29187E-18 1.43085E-19
 -1      3828 9.43482E-05-2.71335E-05-2.88037E-05 1.14796E-06-1.07696E-18-1.07639E-18
 -1      3829 9.48507E-05-2.77665E-05-2.87531E-05 7.04450E-07-1.26024E-19-1.64793E-18
 -1      3830 9.47964E-05-2.76568E-05-2.87725E-05 8.37480E-07-2.16002E-19-8.93544E-19
 -1      3831 9.45986E-05-2.74541E-05-2.87742E-05 8.46513E-07-6.02726E-19-1.72979E-18
 -1      3832 9.49737E-05-2.79666E-05-2.87195E-05 4.94859E-07-1.24361E-18-1.68585E-18
 -1      3833 9.49335E-05-2.78769E-05-2.87371E-05 5.98703E-07-7.70338E-19-1.21415E-18
 -1      3834 9.47902E-05-2.77198E-05-2.87430E-05 6.10363E-07-8.24498E-19-2.52700E-19
 -1      3835 9.50620E-05-2.81258E-05-2.86887E-05 3.33417E-07-8.51647E-19-9.77708E-19
 -1      3836 9.50345E-05-2.80543E-05-2.87044E-05 4.14960E-07-9.42788E-19-1.80912E-18
 -1      3837 9.49321E-05-2.79354E-05-2.87125E-05 4.28577E-07-1.05046E-18-1.72660E-18
 -1      3838 9.51094E-05-2.82122E-05-2.86696E-05 2.46673E-07-1.25712E-18-1.79357E-18
 -1      3839 9.50571E-05-2.82030E-05-2.86527E-05 8.51265E-08 1.00848E-19-3.30767E-18
 -1      3840 9.50755E-05-2.82214E-05-2.86517E-05 1.09644E-07 1.94638E-19-3.54056E-18
 -1      3841 9.50621E-05-2.81822E-05-2.86612E-05 1.47923E-07-5.09196E-19-3.06953E-18
 -1      3842 9.49693E-05-2.80638E-05-2.86739E-05-1.19998E-07-8.78245E-20-1.60165E-19
 -1      3843 9.49508E-05-2.80471E-05-2.86741E-05-7.89749E-08-6.15512E-19-9.58588E-20
 -1      3844 9.42477E-05-2.24237E-05-3.07649E-05 5.16410E-07 1.41453E-18-1.50160E-18
 -1      3845 9.52734E-05-2.51407E-05-3.00598E-05-1.37701E-06 1.31383E-18-5.69541E-19
 -1      3846 9.52519E-05-2.47396E-05-3.02139E-05-5.56530E-07 1.49729E-18-7.11444E-19
 -1      3847 9.49410E-05-2.40129E-05-3.04022E-05-2.63567E-07 1.51401E-18-9.78135E-19
 -1      3848 9.49642E-05-2.47571E-05-3.00920E-05-1.64287E-06 1.27545E-18-9.98053E-19
 -1      3849 1.16315E-04-4.89927E-05-2.89715E-05 9.21088E-06-8.70002E-19-1.64656E-18
 -1      3850 6.02494E-05-1.54939E-05-1.88331E-05-9.68992E-06-4.78878E-19-3.35444E-18
 -1      3851 6.63795E-05-2.02146E-05-1.99895E-05-1.72015E-05-1.11653E-18-2.11030E-18
 -1      3852 1.09762E-04-4.61059E-05-2.71363E-05 1.50315E-05-1.52045E-18-1.35699E-18
 -1      3853 9.35809E-05-2.54414E-05-2.91981E-05-5.37867E-06 6.44566E-20-1.09443E-18
 -1      3854 9.37597E-05-2.53683E-05-2.93150E-05-4.79821E-06 6.02568E-20-1.23539E-18
 -1      3855 9.33968E-05-2.48209E-05-2.93848E-05-4.18101E-06 2.84059E-19-1.24921E-18
 -1      3856 7.40325E-05-2.33432E-05-2.16302E-05 1.85624E-05 1.89105E-18-1.73576E-18
 -1      3857 6.70350E-05-1.85612E-05-2.06550E-05 1.38615E-05 1.83935E-18-2.30523E-18
 -1      3858 9.29741E-05-2.79313E-05-2.78426E-05-1.08252E-05-1.86341E-19-5.38622E-19
 -1      3859 9.23994E-05-2.70254E-05-2.80208E-05-1.01131E-05-1.25152E-20-6.79386E-19
 -1      3860 9.41205E-05-2.33032E-05-3.03358E-05 1.04476E-06-7.68223E-19-1.48424E-18
 -1      3861 9.40454E-05-2.37615E-05-3.01309E-05 1.76936E-06-6.60600E-19-1.50602E-18
 -1      3862 9.36073E-05-2.34210E-05-3.00770E-05 1.72773E-06-4.92098E-19-1.24272E-18
 -1      3863 7.62728E-05-2.52521E-05-2.14802E-05-2.09294E-05-1.38083E-18-1.06129E-18
 -1      3864 8.70410E-05-3.22813E-05-2.35301E-05-2.14275E-05-1.81665E-18-1.34198E-18
 -1      3865 9.22785E-05-1.91613E-05-3.13484E-05-5.51580E-07-1.22428E-19-2.15690E-18
 -1      3866 9.25534E-05-1.95404E-05-3.13045E-05-8.40748E-07-4.32801E-19-2.16829E-18
 -1      3867 9.26914E-05-2.00510E-05-3.11016E-05-2.54054E-07 1.11640E-20-2.07235E-18
 -1      3868 9.32721E-05-2.42925E-05-2.95679E-05 3.40828E-06-4.00195E-19-1.02330E-18
 -1      3869 9.29084E-05-2.42781E-05-2.94161E-05 3.97116E-06-4.56603E-19-8.96407E-19
 -1      3870 9.30599E-05-2.37834E-05-2.96766E-05 2.71743E-06-3.29367E-19-9.47737E-19
 -1      3871 8.12787E-05-2.69174E-05-2.32851E-05 1.92544E-05 1.80326E-18-3.52392E-19
 -1      3872 9.50440E-05-2.81351E-05-2.86744E-05-2.21986E-07-9.54711E-19-1.81234E-18
 -1      3873 8.44214E-05-3.08501E-05-2.28816E-05-2.24638E-05 1.90749E-18 6.53274E-20
 -1      3874 8.85300E-05-3.26376E-05-2.38500E-05-2.15490E-05 1.97038E-18-5.43967E-19
 -1      3875 7.92452E-05-2.68481E-05-2.24098E-05-2.08115E-05 1.74836E-18 9.54911E-19
 -1      3876 9.50408E-05-2.81266E-05-2.86782E-05 2.57250E-07-7.96259E-19-1.87844E-18
 -1      3877 1.06010E-04-4.24970E-05-2.71432E-05 1.43704E-05-1.26259E-18-1.35143E-18
 -1      3878 1.02817E-04-4.29579E-05-2.57677E-05 1.93994E-05-1.43542E-18-7.32286E-19
 -1      3879 9.43829E-05-3.70289E-05-2.45159E-05 2.10709E-05-1.83656E-18 7.70635E-19
 -1      3880 1.02130E-04-3.90952E-05-2.69101E-05 1.49325E-05-1.24735E-18-1.44893E-18
 -1      3881 8.64021E-05-2.92855E-05-2.44440E-05-1.90804E-05 2.00256E-18-7.62227E-19
 -1      3882 9.39356E-05-2.45689E-05-2.97234E-05-3.05104E-06 7.36078E-19-1.16142E-18
 -1      3883 9.44528E-05-2.49894E-05-2.97715E-05-3.04361E-06 8.31783E-19-1.29398E-18
 -1      3884 9.45421E-05-2.46922E-05-2.99334E-05-2.36948E-06 9.75245E-19-1.35659E-18
 -1      3885 9.67321E-05-3.62182E-05-2.60317E-05 1.71284E-05-2.19538E-18 2.94572E-19
 -1      3886 9.21167E-05-2.37226E-05-2.92990E-05 3.62589E-06-1.75667E-19-8.55872E-19
 -1      3887 5.99878E-05-1.36394E-05-1.95670E-05 1.10887E-07-1.92813E-18 3.91258E-18
 -1      3888 6.26928E-05-1.49620E-05-2.04301E-05-4.49307E-06-8.29771E-19 2.93276E-18
 -1      3889 6.29049E-05-1.50901E-05-2.04858E-05 4.64518E-06-2.10362E-18 4.01091E-18
 -1      3890 9.37553E-05-2.64539E-05-2.88505E-05-7.80215E-06 2.70705E-19-3.01316E-19
 -1      3891 8.08685E-05-2.53185E-05-2.38073E-05-1.75661E-05 2.05143E-18 5.24763E-21
 -1      3892 7.10339E-05-1.90296E-05-2.22494E-05 1.18356E-05 1.31706E-18-2.10296E-18
 -1      3893 6.55401E-05-1.70225E-05-2.06770E-05 1.05345E-05 1.45101E-18-2.11433E-18
 -1      3894 6.46003E-05-1.59393E-05-2.09259E-05 5.80214E-06 1.04760E-18-1.87881E-18
 -1      3895 9.30512E-05-2.55388E-05-2.89251E-05-6.54232E-06 1.41706E-19-6.70326E-19
 -1      3896 9.31970E-05-2.54450E-05-2.90429E-05-5.95895E-06 1.99662E-19-9.20587E-19
 -1      3897 9.26871E-05-2.48738E-05-2.90589E-05-5.31016E-06 4.44057E-20-1.11899E-18
 -1      3898 9.44651E-05-3.04712E-05-2.73792E-05-1.26162E-05-7.42546E-19-3.60951E-19
 -1      3899 9.32680E-05-2.89436E-05-2.75593E-05-1.19057E-05-4.73563E-19-3.89995E-19
 -1      3900 9.08425E-05-2.72707E-05-2.72695E-05-1.16735E-05-2.71139E-19-5.90668E-19
 -1      3901 9.36464E-05-2.19387E-05-3.07402E-05-1.30700E-07 1.25723E-18-1.62364E-18
 -1      3902 9.32834E-05-2.14413E-05-3.08017E-05-1.66615E-07 9.57996E-19-1.77953E-18
 -1      3903 9.37293E-05-2.23468E-05-3.06009E-05 3.89465E-07-7.20691E-19-1.69062E-18
 -1      3904 9.38848E-05-3.48901E-05-2.51825E-05 1.86214E-05-1.96213E-18 1.93459E-18
 -1      3905 8.86375E-05-3.30903E-05-2.37917E-05 2.15043E-05-2.81166E-18 2.51946E-18
 -1      3906 8.35670E-05-2.88801E-05-2.34594E-05 1.98136E-05-3.25052E-18 4.46202E-18
 -1      3907 9.14735E-05-3.22932E-05-2.53497E-05 1.75008E-05-3.17574E-18 2.44355E-18
 -1      3908 9.50143E-05-2.81302E-05-2.86630E-05 7.99813E-08 1.08644E-19-4.31154E-18
 -1      3909 1.02275E-04-4.11003E-05-2.60324E-05-1.79980E-05-2.58323E-18-6.86960E-19
 -1      3910 9.43377E-05-2.29814E-05-3.05868E-05-2.17519E-07 1.29447E-18-1.53076E-18
 -1      3911 6.85237E-05-1.99297E-05-2.06788E-05-1.56290E-05 7.52311E-19 2.42150E-18
 -1      3912 9.50079E-05-2.81003E-05-2.86754E-05-1.90850E-07-1.82060E-19-7.59771E-19
 -1      3913 7.03372E-05-2.08027E-05-2.11378E-05 1.59529E-05-3.30695E-18 3.85837E-18
 -1      3914 6.25686E-05-1.56210E-05-1.99836E-05-4.83500E-06 2.15358E-19-2.81932E-18
 -1      3915 9.25051E-05-2.65039E-05-2.82642E-05-9.21240E-06-5.67139E-20-4.75081E-19
 -1      3916 9.23207E-05-2.60250E-05-2.84194E-05-8.54831E-06 1.02376E-19-4.49553E-19
 -1      3917 9.07387E-05-2.58041E-05-2.78394E-05-9.59647E-06 1.16782E-19-5.54718E-19
 -1      3918 9.32245E-05-2.08214E-05-3.10040E-05-4.07294E-07-4.93923E-19-2.03770E-18
 -1      3919 9.33897E-05-2.19641E-05-3.05907E-05-5.07664E-07 8.69580E-19-1.78346E-18
 -1      3920 9.30120E-05-2.10649E-05-3.08448E-05-8.70251E-08 8.48591E-19-2.10673E-18
 -1      3921 9.28069E-05-2.07914E-05-3.08754E-05-1.40118E-07 6.22116E-19-1.95604E-18
 -1      3922 9.87159E-05-3.78472E-05-2.60331E-05-1.75514E-05-2.10750E-18-8.66240E-19
 -1      3923 9.78824E-05-3.46629E-05-2.70178E-05-1.42482E-05-1.63502E-18-2.44885E-19
 -1      3924 9.54954E-05-3.22066E-05-2.70836E-05-1.38570E-05-1.16735E-18-3.91061E-19
 -1      3925 9.20442E-05-3.00059E-05-2.66307E-05-1.42649E-05-8.28314E-19-6.84961E-19
 -1      3926 8.73810E-05-2.95818E-05-2.48597E-05-1.75627E-05-1.11291E-18-9.41828E-19
 -1      3927 9.33854E-05-3.45990E-05-2.52123E-05-1.92215E-05-1.82346E-18-1.09494E-18
 -1      3928 7.33757E-05-2.23343E-05-2.18823E-05-1.63974E-05-9.99790E-19-1.59298E-18
 -1      3929 9.49448E-05-2.80073E-05-2.86866E-05-1.97987E-07 7.56660E-19-4.71610E-19
 -1      3930 9.48939E-05-2.79598E-05-2.86846E-05-5.89916E-08 2.90916E-19-6.34259E-19
 -1      3931 9.49414E-05-2.80370E-05-2.86740E-05-2.23156E-08-1.31108E-19-8.82244E-19
 -1      3932 9.49403E-05-2.80377E-05-2.86738E-05 2.07165E-08 9.97547E-20-3.45378E-18
 -1      3933 9.49572E-05-2.80398E-05-2.86801E-05 1.82230E-07-1.02905E-18-3.78902E-18
 -1      3934 9.49904E-05-2.80742E-05-2.86790E-05 2.14585E-07-9.44637E-19-3.04803E-18
 -1      3935 9.49379E-05-2.79709E-05-2.86982E-05 3.04128E-07-6.01284E-19-3.11625E-18
 -1      3936 8.87761E-05-2.37278E-05-2.78972E-05 6.93622E-06 5.41231E-19 1.93272E-18
 -1      3937 8.86251E-05-2.39480E-05-2.76991E-05 7.74694E-06 3.41908E-19 2.49176E-18
 -1      3938 8.88981E-05-2.24858E-05-2.84803E-05 4.11271E-06 2.63415E-19-1.00230E-18
 -1      3939 8.79881E-05-2.21495E-05-2.82219E-05 4.55593E-06 2.55141E-19-8.87036E-19
 -1      3940 8.67431E-05-2.17212E-05-2.78922E-05 4.91452E-06 3.77016E-19-8.54355E-19
 -1      3941 8.56693E-05-2.13781E-05-2.75571E-05 5.45433E-06 7.07316E-19-9.22526E-19
 -1      3942 8.66809E-05-2.14342E-05-2.79331E-05 3.49117E-06 3.60707E-19-4.83372E-19
 -1      3943 8.41268E-05-2.09387E-05-2.71188E-05 5.92822E-06 6.27890E-19-1.09016E-18
 -1      3944 8.28821E-05-2.06572E-05-2.66675E-05 6.66099E-06 3.31169E-19-1.12062E-18
 -1      3945 8.39391E-05-2.04865E-05-2.71521E-05 4.15883E-06 4.08420E-19-8.16101E-19
 -1      3946 8.09379E-05-2.02734E-05-2.60626E-05 7.36949E-06 5.76533E-19-1.43050E-18
 -1      3947 7.96831E-05-2.01931E-05-2.54787E-05 8.40988E-06 9.69542E-19-1.01212E-18
 -1      3948 8.05333E-05-1.94776E-05-2.60933E-05 5.11289E-06 5.48571E-19-9.45826E-19
 -1      3949 8.77612E-05-2.54163E-05-2.67417E-05 1.11850E-05-2.27189E-18 1.79079E-18
 -1      3950 8.83551E-05-2.65980E-05-2.64186E-05 1.24714E-05-3.04246E-18 1.81768E-18
 -1      3951 9.49305E-05-2.80189E-05-2.86772E-05 8.00697E-08-8.45887E-19-3.74509E-18
 -1      3952 9.49478E-05-2.80386E-05-2.86766E-05 1.20137E-07-1.29637E-18-3.09998E-18
 -1      3953 9.48686E-05-2.79103E-05-2.86948E-05 1.87088E-07-1.28872E-18-2.93833E-18
 -1      3954 9.48678E-05-2.79293E-05-2.86877E-05 6.21396E-08-3.34845E-19-2.77618E-18
 -1      3955 7.67225E-05-1.99812E-05-2.42723E-05-1.08304E-05 1.20363E-18-1.23756E-18
 -1      3956 7.79509E-05-1.96630E-05-2.50405E-05-9.26172E-06 7.17019E-19-1.10610E-18
 -1      3957 8.01178E-05-1.99027E-05-2.57917E-05-8.08495E-06 3.14327E-19-1.06194E-18
 -1      3958 8.12692E-05-1.99651E-05-2.63244E-05-7.02625E-06 1.54561E-19-1.27455E-18
 -1      3959 7.68340E-05-1.82879E-05-2.50013E-05-6.60429E-06 4.20270E-19-8.58407E-19
 -1      3960 8.29483E-05-2.03177E-05-2.68408E-05-6.28881E-06-1.82270E-19-1.13264E-18
 -1      3961 8.39891E-05-2.05771E-05-2.72125E-05-5.55256E-06-3.35199E-19-1.38940E-18
 -1      3962 8.06269E-05-1.91508E-05-2.62938E-05-5.04032E-06 1.72351E-20-8.18955E-19
 -1      3963 8.53294E-05-2.10154E-05-2.75659E-05-5.04443E-06 2.93428E-19-1.29611E-18
 -1      3964 8.62366E-05-2.13834E-05-2.78192E-05-4.49957E-06 4.42607E-19-8.11844E-19
 -1      3965 8.36019E-05-2.00900E-05-2.71804E-05-3.99528E-06 3.71348E-19-4.41614E-19
 -1      3966 8.73153E-05-2.18549E-05-2.80588E-05-4.11821E-06-6.23818E-20-6.07948E-19
 -1      3967 8.80886E-05-2.22694E-05-2.82267E-05-3.68474E-06-1.41173E-19-7.10292E-19
 -1      3968 8.59802E-05-2.10860E-05-2.77842E-05-3.28225E-06 4.75307E-19-2.46370E-19
 -1      3969 8.89725E-05-2.27488E-05-2.83854E-05-3.37667E-06 2.33946E-19-1.01749E-19
 -1      3970 8.96205E-05-2.31729E-05-2.84916E-05-3.01687E-06 4.01564E-19 2.26492E-19
 -1      3971 8.79160E-05-2.20852E-05-2.81919E-05-2.70981E-06 5.93543E-19 1.12825E-18
 -1      3972 9.03420E-05-2.36340E-05-2.85923E-05-2.75937E-06-2.93601E-19 1.86719E-19
 -1      3973 9.08766E-05-2.40412E-05-2.86547E-05-2.45411E-06-3.21951E-19 3.65597E-19
 -1      3974 8.95013E-05-2.30599E-05-2.84583E-05-2.23935E-06 1.83446E-19 9.57958E-20
 -1      3975 9.14610E-05-2.44659E-05-2.87146E-05-2.23508E-06-5.56675E-19 4.10657E-19
 -1      3976 9.18947E-05-2.48398E-05-2.87466E-05-1.97400E-06-5.69988E-20 7.12915E-19
 -1      3977 9.07918E-05-2.39713E-05-2.86245E-05-1.83410E-06-6.86628E-19-5.78696E-19
 -1      3978 9.23636E-05-2.52182E-05-2.87782E-05-1.78807E-06 4.57960E-19 6.12246E-19
 -1      3979 9.27092E-05-2.55486E-05-2.87902E-05-1.56539E-06 6.64960E-19 6.93277E-20
 -1      3980 9.18329E-05-2.47952E-05-2.87201E-05-1.48567E-06-8.30021E-20 3.10238E-19
 -1      3981 9.30827E-05-2.58781E-05-2.88030E-05-1.40719E-06 4.91820E-19-1.92828E-19
 -1      3982 9.33548E-05-2.61632E-05-2.88021E-05-1.22032E-06 7.87951E-19-7.81425E-20
 -1      3983 9.26644E-05-2.55202E-05-2.87678E-05-1.18170E-06 3.92682E-19-2.94399E-19
 -1      3984 9.36476E-05-2.64425E-05-2.88029E-05-1.08851E-06 1.20858E-18-6.29008E-19
 -1      3985 9.38585E-05-2.66824E-05-2.87944E-05-9.33684E-07 1.60837E-18 3.26982E-19
 -1      3986 9.33226E-05-2.61463E-05-2.87838E-05-9.25042E-07 1.36690E-18 3.81091E-20
 -1      3987 9.40857E-05-2.69150E-05-2.87878E-05-8.25516E-07 1.25552E-18 4.87020E-19
 -1      3988 9.42466E-05-2.71133E-05-2.87751E-05-6.99717E-07 1.43004E-18 8.52730E-19
 -1      3989 9.38370E-05-2.66733E-05-2.87797E-05-7.08188E-07 1.57679E-18-7.07350E-19
 -1      3990 9.44197E-05-2.73032E-05-2.87643E-05-6.13047E-07 9.52357E-19 7.91908E-19
 -1      3991 9.45403E-05-2.74639E-05-2.87499E-05-5.12685E-07 9.25310E-19 1.02119E-18
 -1      3992 9.42327E-05-2.71099E-05-2.87633E-05-5.31020E-07 1.43480E-18-1.99298E-19
 -1      3993 9.46693E-05-2.76152E-05-2.87372E-05-4.44296E-07 1.13498E-18 5.77358E-20
 -1      3994 9.47568E-05-2.77434E-05-2.87225E-05-3.65263E-07-1.75533E-19-3.14958E-21
 -1      3995 9.45313E-05-2.74642E-05-2.87406E-05-3.89945E-07 5.17261E-19-2.96381E-19
 -1      3996 9.48259E-05-2.78308E-05-2.87113E-05-3.03196E-07-7.77462E-19 2.02835E-19
 -1      3997 9.48905E-05-2.79334E-05-2.86973E-05-2.44707E-07-2.22708E-19-3.03654E-19
 -1      3998 9.48490E-05-2.78940E-05-2.86952E-05-1.60844E-07 4.86457E-19 5.22452E-19
 -1      3999 9.47226E-05-2.77144E-05-2.87169E-05-2.64164E-07-5.33743E-19-4.20610E-19
 -1      4000 9.43219E-05-2.33416E-05-3.04089E-05-8.07132E-07 1.26548E-18-1.37795E-18
 -1      4001 9.33427E-05-2.18175E-05-3.06696E-05 3.70843E-07-4.02185E-19-1.73846E-18
 -1      4002 8.80509E-05-2.41671E-05-2.74011E-05 8.78254E-06-6.26699E-19 2.61496E-18
 -1      4003 8.81828E-05-2.47853E-05-2.71386E-05 9.80870E-06-1.10182E-18 2.16279E-18
 -1      4004 8.55318E-05-2.36283E-05-2.65322E-05 1.01697E-05-2.14338E-18 2.29956E-18
 -1      4005 8.65856E-05-2.29471E-05-2.72639E-05 7.77241E-06-3.02344E-19 2.97834E-18
 -1      4006 8.96538E-05-2.37645E-05-2.82549E-05 5.51230E-06 1.73082E-18 8.38440E-19
 -1      4007 8.93769E-05-2.37541E-05-2.81132E-05 6.16659E-06 1.23174E-18 1.62373E-18
 -1      4008 8.77888E-05-2.29005E-05-2.77996E-05 6.02519E-06 1.47038E-18 2.42987E-18
 -1      4009 9.05664E-05-2.40986E-05-2.84999E-05 4.37924E-06 7.06735E-19 5.69027E-20
 -1      4010 9.02404E-05-2.39454E-05-2.84054E-05 4.91257E-06 1.22176E-18 3.26233E-19
 -1      4011 8.89793E-05-2.31947E-05-2.81822E-05 4.70656E-06 1.85017E-18 1.37007E-18
 -1      4012 9.14304E-05-2.45878E-05-2.86579E-05 3.47049E-06 2.37335E-19-2.58453E-19
 -1      4013 9.11041E-05-2.43618E-05-2.85997E-05 3.90933E-06 7.17473E-19 2.01326E-19
 -1      4014 9.01035E-05-2.37100E-05-2.84435E-05 3.69147E-06 6.32343E-19 1.43362E-18
 -1      4015 9.22051E-05-2.51419E-05-2.87506E-05 2.73039E-06-6.64666E-19-9.68456E-19
 -1      4016 9.19028E-05-2.48842E-05-2.87198E-05 3.09360E-06-6.48702E-19-5.34972E-19
 -1      4017 9.11093E-05-2.43238E-05-2.86133E-05 2.89387E-06 9.34472E-20 1.69375E-18
 -1      4018 9.28714E-05-2.56969E-05-2.87965E-05 2.12991E-06-1.52836E-18-2.36900E-20
 -1      4019 9.26085E-05-2.54404E-05-2.87846E-05 2.43019E-06-7.33143E-19-1.82142E-19
 -1      4020 9.19817E-05-2.49618E-05-2.87147E-05 2.25787E-06-7.80606E-19 8.96079E-19
 -1      4021 9.34293E-05-2.62188E-05-2.88108E-05 1.64022E-06 3.74924E-20-4.50113E-19
 -1      4022 9.32077E-05-2.59778E-05-2.88115E-05 1.88659E-06-1.29401E-18-5.22620E-19
 -1      4023 9.27153E-05-2.55742E-05-2.87681E-05 1.74817E-06-1.10951E-18-1.70537E-19
 -1      4024 9.38832E-05-2.66847E-05-2.88045E-05 1.24587E-06-7.34075E-19 2.11471E-19
 -1      4025 9.37032E-05-2.64706E-05-2.88131E-05 1.44646E-06 3.72580E-19 3.13613E-19
 -1      4026 9.33211E-05-2.61358E-05-2.87884E-05 1.33815E-06-4.98188E-19-2.25228E-19
 -1      4027 9.42450E-05-2.70877E-05-2.87859E-05 9.29998E-07-1.44188E-18-1.86806E-19
 -1      4028 9.41021E-05-2.69031E-05-2.87988E-05 1.09113E-06-8.59558E-19-3.00640E-19
 -1      4029 9.38090E-05-2.66288E-05-2.87873E-05 1.01070E-06-6.97382E-19 1.42127E-18
 -1      4030 9.45269E-05-2.74264E-05-2.87607E-05 6.80800E-07-7.06134E-19-9.23067E-19
 -1      4031 9.44162E-05-2.72717E-05-2.87755E-05 8.08374E-07-1.50233E-18-1.20047E-18
 -1      4032 9.41952E-05-2.70514E-05-2.87726E-05 7.50416E-07-6.86209E-19 8.59211E-20
 -1      4033 9.47409E-05-2.77031E-05-2.87329E-05 4.87716E-07-8.54492E-19-5.17534E-19
 -1      4034 9.46575E-05-2.75771E-05-2.87480E-05 5.86600E-07-5.10018E-19-6.50534E-19
 -1      4035 9.44941E-05-2.74040E-05-2.87504E-05 5.47499E-07-1.01703E-18-1.82778E-19
 -1      4036 9.48775E-05-2.78945E-05-2.87082E-05 3.53631E-07 2.77035E-19-3.31256E-18
 -1      4037 9.48146E-05-2.77921E-05-2.87228E-05 4.28557E-07-2.09750E-19-2.23568E-18
 -1      4038 9.46913E-05-2.76561E-05-2.87281E-05 4.02130E-07 9.53926E-19-3.43518E-18
 -1      4039 9.48217E-05-2.78355E-05-2.87084E-05 2.99037E-07 2.24125E-19-4.84682E-18
 -1      4040 9.19918E-05-2.34744E-05-2.93735E-05 2.70315E-06-2.65020E-19-1.01088E-18
 -1      4041 9.14189E-05-2.33486E-05-2.91796E-05 3.11239E-06-5.94693E-20-1.00875E-18
 -1      4042 9.28676E-05-2.11532E-05-3.07434E-05 1.70323E-07-9.08141E-21-1.73597E-18
 -1      4043 9.30596E-05-2.14300E-05-3.07129E-05 1.62516E-07-2.94169E-19-1.75175E-18
 -1      4044 9.34809E-05-2.26605E-05-3.03316E-05 8.95257E-07-4.21743E-19-1.54230E-18
 -1      4045 9.06426E-05-2.31100E-05-2.89552E-05 3.40179E-06 1.12327E-20-9.66906E-19
 -1      4046 8.98975E-05-2.28473E-05-2.87418E-05 3.80829E-06 4.00244E-20-9.77459E-19
 -1      4047 8.88934E-05-2.22603E-05-2.85348E-05 2.95034E-06 1.72972E-19-7.16527E-19
 -1      4048 9.26284E-05-2.58109E-05-2.86217E-05-7.79906E-06 1.67014E-19-6.49032E-19
 -1      4049 9.26654E-05-2.55908E-05-2.87537E-05-7.18474E-06 1.80796E-19-7.93052E-19
 -1      4050 9.19096E-05-2.49070E-05-2.87133E-05-6.52354E-06 2.62460E-19-9.67055E-19
 -1      4051 8.27251E-05-2.59837E-05-2.42190E-05-1.66246E-05-9.44045E-19-1.05718E-18
 -1      4052 8.85339E-05-2.83582E-05-2.57144E-05-1.50017E-05-9.80937E-19-8.54722E-19
 -1      4053 7.02086E-05-1.78666E-05-2.21650E-05-1.00297E-05-5.47845E-19-1.86778E-18
 -1      4054 7.68903E-05-2.26046E-05-2.32974E-05-1.40413E-05-9.30499E-19-1.27276E-18
 -1      4055 7.84207E-05-2.19042E-05-2.42959E-05-1.16939E-05-5.53225E-19-1.11793E-18
 -1      4056 9.33121E-05-2.30626E-05-3.01152E-05 1.38056E-06-2.64693E-19-1.31679E-18
 -1      4057 6.47610E-05-1.51004E-05-2.10953E-05 6.96489E-07 6.65866E-19-1.97680E-18
 -1      4058 6.67441E-05-1.66225E-05-2.15591E-05-6.04768E-06-2.47717E-19-2.03534E-18
 -1      4059 7.11317E-05-1.73678E-05-2.30869E-05-5.09272E-06-9.75345E-20-1.40764E-18
 -1      4060 6.90489E-05-1.66308E-05-2.23934E-05 3.65150E-06 7.14188E-19-1.66306E-18
 -1      4061 9.29411E-05-2.34646E-05-2.97792E-05 1.96068E-06-2.44956E-19-1.05897E-18
 -1      4062 9.25494E-05-2.35395E-05-2.95852E-05 2.40441E-06-2.99934E-19-9.79445E-19
 -1      4063 9.19624E-05-2.31556E-05-2.94734E-05 1.92406E-06-2.87194E-19-9.12593E-19
 -1      4064 7.58955E-05-2.31370E-05-2.26091E-05 1.68887E-05-2.74207E-18 4.25439E-18
 -1      4065 6.85237E-05-1.78929E-05-2.15986E-05 1.15885E-05-2.81328E-18 3.66649E-18
 -1      4066 9.27417E-05-2.44039E-05-2.92874E-05-3.95191E-06 2.04331E-19-1.34867E-18
 -1      4067 9.30675E-05-2.43520E-05-2.94566E-05-3.41003E-06 4.97950E-19-1.26955E-18
 -1      4068 7.68934E-05-2.41196E-05-2.24508E-05 1.85244E-05 1.94758E-18-1.06489E-18
 -1      4069 9.27003E-05-2.06515E-05-3.08894E-05-3.83835E-08 6.12010E-19-1.77079E-18
 -1      4070 9.26910E-05-2.06640E-05-3.08893E-05-1.17483E-07 3.41266E-19-1.86095E-18
 -1      4071 9.29893E-05-2.14327E-05-3.06458E-05-2.30502E-07 5.66999E-19-1.76591E-18
 -1      4072 8.87263E-05-2.79683E-05-2.60513E-05 1.41240E-05-3.06703E-18 1.89785E-18
 -1      4073 9.01635E-05-3.00116E-05-2.57127E-05 1.56115E-05-3.02737E-18 1.86280E-18
 -1      4074 8.68079E-05-2.87104E-05-2.48926E-05 1.69821E-05-2.80250E-18 3.60951E-18
 -1      4075 8.53334E-05-2.53619E-05-2.57071E-05 1.32245E-05-2.76486E-18 2.50182E-18
 -1      4076 9.34443E-05-2.42583E-05-2.96527E-05-2.94505E-06 6.01822E-19-1.25075E-18
 -1      4077 9.36562E-05-2.40562E-05-2.98352E-05-2.37467E-06 6.49992E-19-1.21071E-18
 -1      4078 9.28432E-05-2.38509E-05-2.95602E-05-2.73779E-06 4.59455E-19-1.19515E-18
 -1      4079 9.30158E-05-2.17648E-05-3.05184E-05 2.37443E-07 1.42686E-19-1.47445E-18
 -1      4080 6.70558E-05-1.63368E-05-2.16576E-05 8.24597E-06-2.36754E-18 2.63109E-18
 -1      4081 6.68844E-05-1.56758E-05-2.19742E-05 3.81215E-06-1.41272E-18 3.37299E-18
 -1      4082 7.23571E-05-1.86105E-05-2.29845E-05 9.59117E-06-2.02944E-18 3.10986E-18
 -1      4083 7.43413E-05-1.81917E-05-2.39907E-05 7.22886E-06 8.03426E-19-1.58337E-18
 -1      4084 7.53790E-05-1.95317E-05-2.39590E-05 1.02610E-05 9.63562E-19-1.35229E-18
 -1      4085 9.47092E-05-2.43651E-05-3.01486E-05-1.55029E-06 1.19475E-18-1.34156E-18
 -1      4086 9.40076E-05-2.33276E-05-3.02991E-05-1.29591E-06 1.00851E-18-1.51563E-18
 -1      4087 8.75971E-05-2.67930E-05-2.60798E-05-1.35127E-05-6.04858E-19-6.87122E-19
 -1      4088 9.29137E-05-2.28308E-05-3.00252E-05 1.14118E-06-1.48918E-19-1.14744E-18
 -1      4089 9.06466E-05-2.28694E-05-2.90297E-05 2.44688E-06-1.40534E-19-9.29189E-19
 -1      4090 9.11958E-05-2.51296E-05-2.83160E-05-7.91625E-06-7.52533E-21-8.00186E-19
 -1      4091 9.47664E-05-2.77846E-05-2.87052E-05-1.27300E-07 7.97214E-19-6.16421E-19
 -1      4092 9.48233E-05-2.78715E-05-2.86947E-05-8.54215E-08 1.19865E-18-1.74224E-19
 -1      4093 9.48135E-05-2.78588E-05-2.86944E-05-2.05508E-08 1.05339E-18-2.24729E-18
 -1      4094 9.46505E-05-2.46358E-05-3.00053E-05-2.14804E-06 9.82578E-19-1.34410E-18
 -1      4095 8.39016E-05-2.70922E-05-2.42886E-05 1.69570E-05-2.48211E-18 4.49037E-18
 -1      4096 7.96473E-05-2.50713E-05-2.32942E-05 1.75169E-05-2.91031E-18 4.11672E-18
 -1      4097 7.66692E-05-2.18442E-05-2.35641E-05 1.39254E-05-1.75780E-18 3.32729E-18
 -1      4098 8.27549E-05-2.51784E-05-2.47296E-05 1.49232E-05-2.03593E-18 3.31225E-18
 -1      4099 9.18273E-05-2.43415E-05-2.89186E-05-5.00188E-06 2.56653E-21-1.09939E-18
 -1      4100 9.22142E-05-2.43587E-05-2.90907E-05-4.44238E-06 2.27994E-20-1.20841E-18
 -1      4101 9.19409E-05-2.38835E-05-2.91573E-05-3.65168E-06 6.51978E-20-9.22348E-19
 -1      4102 8.89255E-05-2.48437E-05-2.74374E-05-9.42467E-06 1.46563E-19-5.53435E-19
 -1      4103 8.90485E-05-2.44331E-05-2.77146E-05-8.50447E-06-2.86148E-20-6.70087E-19
 -1      4104 9.35185E-05-2.26876E-05-3.03617E-05-9.53520E-07 1.00417E-18-1.45369E-18
 -1      4105 9.32263E-05-2.23149E-05-3.04009E-05-7.80050E-07 6.42749E-19-1.71361E-18
 -1      4106 8.85464E-05-2.61227E-05-2.67161E-05-1.17861E-05-3.85115E-19-6.27449E-19
 -1      4107 8.82769E-05-2.52488E-05-2.70410E-05-1.06299E-05-1.08146E-19-5.53985E-19
 -1      4108 8.65809E-05-2.37595E-05-2.69159E-05-9.46656E-06-1.32362E-19-8.34660E-19
 -1      4109 6.89864E-05-1.62068E-05-2.26519E-05-4.32664E-06-4.68320E-19 1.71995E-18
 -1      4110 6.93219E-05-1.69841E-05-2.23054E-05-8.63874E-06 1.28891E-19 1.58963E-18
 -1      4111 7.54150E-05-2.14926E-05-2.30444E-05 1.51661E-05 1.65066E-18-1.58215E-18
 -1      4112 6.81166E-05-1.77618E-05-2.14937E-05-1.18406E-05 5.52060E-21 1.64134E-18
 -1      4113 7.40139E-05-2.21168E-05-2.21975E-05-1.71179E-05 1.35594E-18 8.81364E-19
 -1      4114 9.38349E-05-2.35376E-05-3.01199E-05-1.62256E-06 7.83383E-19-1.37279E-18
 -1      4115 7.37946E-05-1.99947E-05-2.29834E-05 1.21931E-05 1.32493E-18-1.76128E-18
 -1      4116 7.37312E-05-1.76031E-05-2.41054E-05 2.81361E-06 5.50912E-19-1.34543E-18
 -1      4117 8.41274E-05-2.05196E-05-2.72918E-05 2.20643E-06 2.70628E-19-6.94613E-19
 -1      4118 8.25617E-05-2.00042E-05-2.68377E-05 2.44723E-06 2.18551E-19-8.33757E-19
 -1      4119 8.06315E-05-1.94325E-05-2.62830E-05 2.52314E-06 1.46094E-19-8.43517E-19
 -1      4120 7.87639E-05-1.88573E-05-2.56965E-05 2.89685E-06 4.08204E-19-9.61996E-19
 -1      4121 8.12886E-05-1.93355E-05-2.64449E-05 4.25603E-07 1.29313E-19-7.69912E-19
 -1      4122 8.97515E-05-2.34644E-05-2.84244E-05 2.83658E-06 1.19068E-18 2.47360E-18
 -1      4123 8.92065E-05-2.31351E-05-2.83159E-05 3.23491E-06 1.75222E-18 3.31117E-18
 -1      4124 7.43731E-05-1.73919E-05-2.44462E-05-4.10270E-06 5.48818E-19 5.35526E-19
 -1      4125 7.64636E-05-1.78756E-05-2.51881E-05-3.39606E-06 4.51083E-19 7.27978E-19
 -1      4126 8.49628E-05-2.46103E-05-2.58401E-05-1.23517E-05-4.83993E-19-9.24475E-19
 -1      4127 7.87501E-05-1.84460E-05-2.58793E-05-3.11029E-06 1.35707E-20 7.86146E-19
 -1      4128 8.05133E-05-1.89563E-05-2.64188E-05-2.65901E-06 2.29442E-19 3.28077E-19
 -1      4129 7.68757E-05-1.75133E-05-2.53474E-05-7.38570E-07 5.61272E-19 1.24900E-18
 -1      4130 8.22369E-05-1.95496E-05-2.68857E-05-2.59798E-06 1.15519E-19 2.78334E-19
 -1      4131 8.35686E-05-2.00580E-05-2.72528E-05-2.31140E-06 3.15237E-19 5.46878E-19
 -1      4132 8.10729E-05-1.89933E-05-2.65294E-05-7.97526E-07 2.02378E-19 1.00133E-18
 -1      4133 8.48950E-05-2.05933E-05-2.75758E-05-2.16633E-06 8.07750E-19-4.83801E-20
 -1      4134 8.59850E-05-2.11061E-05-2.78266E-05-1.94654E-06 5.37651E-19 4.59601E-19
 -1      4135 8.38388E-05-1.99850E-05-2.73084E-05-7.96520E-07 2.69766E-19 9.47712E-19
 -1      4136 8.70493E-05-2.16463E-05-2.80455E-05-1.84412E-06 2.08653E-19-1.56085E-20
 -1      4137 8.79455E-05-2.21542E-05-2.82122E-05-1.66063E-06 7.76557E-19-6.46502E-20
 -1      4138 8.62482E-05-2.11246E-05-2.78561E-05-8.03483E-07 1.66057E-19-2.55533E-20
 -1      4139 8.88026E-05-2.26611E-05-2.83572E-05-1.56317E-06 5.81731E-19-8.45338E-19
 -1      4140 8.95395E-05-2.31457E-05-2.84641E-05-1.39262E-06-2.43548E-19-9.03137E-19
 -1      4141 8.81388E-05-2.22005E-05-2.82242E-05-7.78918E-07 2.16965E-19-1.88804E-18
 -1      4142 9.02359E-05-2.36195E-05-2.85563E-05-1.32596E-06-5.01063E-19-2.61230E-19
 -1      4143 9.08228E-05-2.40572E-05-2.86211E-05-1.16896E-06-2.02589E-20-2.15951E-19
 -1      4144 8.97154E-05-2.32594E-05-2.84705E-05-6.80596E-07-3.77898E-19-6.09020E-19
 -1      4145 9.13899E-05-2.44900E-05-2.86764E-05-1.09345E-06 4.07415E-20 7.75781E-19
 -1      4146 9.18570E-05-2.48793E-05-2.87120E-05-9.59054E-07 1.64036E-19 1.06667E-18
 -1      4147 9.09497E-05-2.41501E-05-2.86193E-05-6.19110E-07 5.65844E-19 1.31189E-18
 -1      4148 9.23177E-05-2.52576E-05-2.87423E-05-8.89219E-07 4.21185E-20 1.04835E-18
 -1      4149 9.26848E-05-2.55992E-05-2.87580E-05-7.72656E-07 9.08343E-19 7.35241E-19
 -1      4150 9.19688E-05-2.49562E-05-2.87062E-05-5.11200E-07 6.25450E-19 1.31498E-18
 -1      4151 9.30479E-05-2.59234E-05-2.87708E-05-7.02231E-07 1.13940E-18 1.10686E-18
 -1      4152 9.33416E-05-2.62146E-05-2.87737E-05-6.01293E-07 1.30839E-18 3.87473E-19
 -1      4153 9.27555E-05-2.56465E-05-2.87490E-05-4.15242E-07 1.12188E-18 1.55415E-18
 -1      4154 9.36264E-05-2.64908E-05-2.87750E-05-5.45496E-07 1.43114E-18-2.68281E-19
 -1      4155 9.38549E-05-2.67348E-05-2.87698E-05-4.61136E-07 1.47001E-18-4.51460E-19
 -1      4156 9.34057E-05-2.62607E-05-2.87644E-05-3.35085E-07 1.28241E-18 9.68689E-19
 -1      4157 9.40734E-05-2.69618E-05-2.87640E-05-4.14987E-07 1.70587E-18-1.23967E-18
 -1      4158 9.42476E-05-2.71618E-05-2.87541E-05-3.45425E-07 1.61511E-18-1.55977E-18
 -1      4159 9.39038E-05-2.67735E-05-2.87607E-05-2.63115E-07 1.06114E-18-1.77914E-18
 -1      4160 9.44136E-05-2.73465E-05-2.87444E-05-3.06680E-07 1.08324E-18-1.93359E-18
 -1      4161 9.45444E-05-2.75070E-05-2.87322E-05-2.52164E-07 1.46296E-19-1.79163E-18
 -1      4162 9.42822E-05-2.71949E-05-2.87458E-05-2.01352E-07 8.34419E-19-2.99450E-18
 -1      4163 9.46255E-05-2.76007E-05-2.87242E-05-2.13579E-07-6.51130E-20-1.68341E-18
 -1      4164 9.46968E-05-2.77025E-05-2.87133E-05-1.55180E-07-1.46773E-19-1.47269E-18
 -1      4165 9.46754E-05-2.76801E-05-2.87125E-05-7.38687E-08 1.71604E-18-2.74915E-18
 -1      4166 9.45302E-05-2.74900E-05-2.87284E-05-1.34826E-07 2.56138E-19-3.77160E-18
 -1      4167 8.84236E-05-2.27705E-05-2.81609E-05 3.67308E-06 1.20649E-18 2.48902E-18
 -1      4168 8.78433E-05-2.25054E-05-2.79979E-05 4.18736E-06 1.10105E-18 2.77826E-18
 -1      4169 8.81940E-05-2.24267E-05-2.81438E-05 2.78302E-06 1.19552E-18 4.03094E-18
 -1      4170 9.08815E-05-2.41778E-05-2.85965E-05 2.19430E-06-2.45342E-19 3.24755E-18
 -1      4171 9.04009E-05-2.38354E-05-2.85278E-05 2.52312E-06 6.50067E-19 2.66022E-18
 -1      4172 8.96297E-05-2.33036E-05-2.84174E-05 2.05652E-06 6.89491E-19 3.94227E-18
 -1      4173 9.18314E-05-2.48895E-05-2.86981E-05 1.69917E-06-1.02912E-18 1.37346E-18
 -1      4174 9.14243E-05-2.45569E-05-2.86591E-05 1.95684E-06-5.38685E-19 1.67198E-18
 -1      4175 9.08226E-05-2.40982E-05-2.85853E-05 1.59731E-06 3.50967E-19 2.89715E-18
 -1      4176 9.26182E-05-2.55424E-05-2.87531E-05 1.29877E-06-1.07376E-19 1.89863E-19
 -1      4177 9.22810E-05-2.52329E-05-2.87345E-05 1.51107E-06-6.85524E-19 7.15170E-19
 -1      4178 9.18053E-05-2.48492E-05-2.86875E-05 1.21396E-06 1.57415E-20 1.24183E-18
 -1      4179 9.32559E-05-2.61301E-05-2.87752E-05 9.88402E-07-9.78518E-19 1.27516E-19
 -1      4180 9.29848E-05-2.58573E-05-2.87700E-05 1.15536E-06-7.14007E-19 3.37116E-19
 -1      4181 9.26152E-05-2.55409E-05-2.87430E-05 9.34195E-07-1.46776E-19 1.06159E-18
 -1      4182 9.37702E-05-2.66400E-05-2.87756E-05 7.37162E-07-3.59093E-19 2.79304E-19
 -1      4183 9.35530E-05-2.64022E-05-2.87795E-05 8.69287E-07-6.77785E-19 2.14896E-19
 -1      4184 9.32608E-05-2.61171E-05-2.87638E-05 6.93491E-07-7.34045E-19-7.48513E-19
 -1      4185 9.41725E-05-2.70701E-05-2.87624E-05 5.42598E-07-8.28505E-19 2.74201E-19
 -1      4186 9.40022E-05-2.68699E-05-2.87716E-05 6.47187E-07-5.64650E-20 4.71058E-19
 -1      4187 9.37834E-05-2.66398E-05-2.87654E-05 5.16801E-07-6.02407E-19-1.38981E-18
 -1      4188 9.44824E-05-2.74252E-05-2.87415E-05 3.91413E-07 2.90961E-19-1.06536E-18
 -1      4189 9.43508E-05-2.72605E-05-2.87535E-05 4.72111E-07-5.11242E-19-2.46601E-19
 -1      4190 9.41841E-05-2.70754E-05-2.87534E-05 3.79163E-07-1.46938E-19-5.60378E-19
 -1      4191 9.20457E-05-2.30565E-05-2.95777E-05 1.11383E-06-1.94078E-19-1.04301E-18
 -1      4192 9.14924E-05-2.30103E-05-2.93593E-05 1.35859E-06-2.02538E-19-8.99795E-19
 -1      4193 9.31411E-05-2.26412E-05-3.01978E-05-8.76349E-07 3.79962E-19-1.60159E-18
 -1      4194 9.30203E-05-2.20581E-05-3.04211E-05-4.75809E-07 4.42572E-19-1.86136E-18
 -1      4195 9.28797E-05-2.19109E-05-3.04334E-05-2.90633E-07 4.73970E-19-1.62925E-18
 -1      4196 9.07929E-05-2.28624E-05-2.91255E-05 1.44322E-06-1.12804E-19-7.69521E-19
 -1      4197 9.00179E-05-2.26286E-05-2.88927E-05 1.64552E-06 6.79901E-20-6.97883E-19
 -1      4198 9.10160E-05-2.27376E-05-2.92287E-05 6.29346E-07-1.85288E-21-6.16121E-19
 -1      4199 8.90805E-05-2.23111E-05-2.86314E-05 1.71550E-06 9.83659E-20-5.94994E-19
 -1      4200 8.80774E-05-2.19394E-05-2.83598E-05 1.90003E-06 1.65835E-19-5.26502E-19
 -1      4201 8.94036E-05-2.22672E-05-2.87289E-05 6.89828E-07 1.08153E-19-4.83964E-19
 -1      4202 6.97316E-05-1.59128E-05-2.29528E-05-5.45358E-07-7.38052E-19 2.43772E-18
 -1      4203 8.69162E-05-2.21938E-05-2.77694E-05 4.77915E-06 1.61286E-18 1.70878E-18
 -1      4204 8.63134E-05-2.20634E-05-2.75337E-05 5.47188E-06 1.20603E-18 1.86132E-18
 -1      4205 8.65273E-05-2.16560E-05-2.77495E-05 3.66644E-06 2.56015E-19 1.03452E-18
 -1      4206 7.78575E-05-2.40302E-05-2.29780E-05-1.73721E-05 1.44571E-18 5.14665E-19
 -1      4207 7.62165E-05-2.10772E-05-2.36425E-05-1.37748E-05 1.13953E-18-8.25698E-19
 -1      4208 9.29300E-05-2.25152E-05-3.01921E-05 4.95043E-07-5.27419E-20-1.22338E-18
 -1      4209 9.25768E-05-2.29463E-05-2.98468E-05 9.54817E-07-1.87746E-19-1.20735E-18
 -1      4210 8.79888E-05-2.34300E-05-2.76574E-05-7.39369E-06-1.59162E-19-1.01594E-18
 -1      4211 8.97730E-05-2.43347E-05-2.80289E-05-7.61083E-06-1.49365E-19-8.58364E-19
 -1      4212 9.00907E-05-2.41983E-05-2.82569E-05-6.87138E-06 7.99306E-20-8.14162E-19
 -1      4213 7.38151E-05-1.87829E-05-2.36010E-05-1.02819E-05 8.21284E-19-5.28916E-19
 -1      4214 9.28207E-05-2.20270E-05-3.03309E-05 7.86817E-08 2.59275E-19-1.24054E-18
 -1      4215 8.68861E-05-2.15030E-05-2.80431E-05 1.95871E-06 2.51832E-19-4.85415E-19
 -1      4216 8.56293E-05-2.10400E-05-2.77013E-05 2.14929E-06 3.11086E-19-6.03501E-19
 -1      4217 8.73088E-05-2.14966E-05-2.81459E-05 6.85599E-07 1.34019E-19-6.32165E-19
 -1      4218 9.07981E-05-2.42514E-05-2.85111E-05-6.18449E-06 8.98498E-20-8.53150E-19
 -1      4219 9.11897E-05-2.42466E-05-2.87031E-05-5.56173E-06 1.35930E-20-9.87305E-19
 -1      4220 8.94323E-05-2.34956E-05-2.82472E-05-5.86055E-06-6.51173E-20-8.17708E-19
 -1      4221 7.87145E-05-2.16703E-05-2.44182E-05 1.19998E-05-1.82572E-18 3.45035E-18
 -1      4222 7.59451E-05-2.00858E-05-2.38668E-05 1.10413E-05-1.68741E-18 3.38239E-18
 -1      4223 7.40213E-05-1.84426E-05-2.38368E-05 8.08464E-06-1.88534E-18 2.94381E-18
 -1      4224 8.46648E-05-2.05054E-05-2.74146E-05 6.04466E-07 9.48354E-20-7.39211E-19
 -1      4225 7.47375E-05-1.76041E-05-2.43836E-05-1.33400E-08 2.99135E-19-1.18561E-18
 -1      4226 9.27738E-05-2.25038E-05-3.01120E-05-1.28949E-07 1.41951E-19-1.38789E-18
 -1      4227 9.47950E-05-2.78248E-05-2.87004E-05 1.46256E-07 4.52457E-19-9.87539E-19
 -1      4228 9.48015E-05-2.78292E-05-2.87041E-05 2.14572E-07 2.64601E-19-3.34594E-18
 -1      4229 9.47433E-05-2.77438E-05-2.87138E-05 2.59687E-07 1.28267E-18-2.53683E-18
 -1      4230 8.63278E-05-2.25327E-05-2.73299E-05-6.62235E-06-2.54614E-20-1.22316E-18
 -1      4231 8.70605E-05-2.25840E-05-2.76683E-05-5.82899E-06-7.58216E-20-1.11990E-18
 -1      4232 9.42315E-05-2.42809E-05-2.99792E-05-2.24797E-06 8.41930E-19-1.37546E-18
 -1      4233 9.30320E-05-2.30677E-05-2.99911E-05-1.31484E-06 5.25971E-19-1.31455E-18
 -1      4234 9.27964E-05-2.27674E-05-3.00088E-05-9.27691E-07 1.95376E-19-1.38083E-18
 -1      4235 8.52877E-05-2.18617E-05-2.72102E-05 6.22884E-06 3.54812E-19 1.65055E-18
 -1      4236 8.46743E-05-2.18920E-05-2.68868E-05 7.18359E-06-1.01208E-18 1.63659E-18
 -1      4237 8.46255E-05-2.11467E-05-2.72003E-05 4.92160E-06 6.84707E-19 1.92134E-19
 -1      4238 9.07782E-05-2.37099E-05-2.87327E-05-4.66027E-06-5.39524E-20-8.89853E-19
 -1      4239 9.45825E-05-2.75382E-05-2.87331E-05 3.47879E-07 1.81764E-18-1.45958E-18
 -1      4240 9.44615E-05-2.74065E-05-2.87369E-05 2.69246E-07 1.23527E-18-1.00633E-18
 -1      4241 9.46556E-05-2.76379E-05-2.87234E-05 2.91916E-07 2.20941E-18-2.42362E-18
 -1      4242 9.22094E-05-2.27725E-05-2.97365E-05 4.63906E-07-1.85166E-20-1.05370E-18
 -1      4243 7.22770E-05-1.66952E-05-2.38392E-05 2.78381E-06-6.75532E-19 2.29999E-18
 -1      4244 8.43040E-05-2.25783E-05-2.64457E-05-8.71145E-06-1.24501E-19-1.12018E-18
 -1      4245 8.50028E-05-2.23976E-05-2.68839E-05-7.57810E-06-2.70244E-20-1.06852E-18
 -1      4246 8.42952E-05-2.13554E-05-2.68960E-05-5.84226E-06-8.88450E-20-1.02600E-18
 -1      4247 7.74321E-05-1.98795E-05-2.45890E-05-8.48555E-06-3.94032E-19-1.30907E-18
 -1      4248 8.18599E-05-2.29488E-05-2.52999E-05-1.15613E-05-6.06702E-19-1.00532E-18
 -1      4249 9.12195E-05-2.34897E-05-2.90291E-05-3.16201E-06-4.38389E-20-7.31387E-19
 -1      4250 9.17522E-05-2.35601E-05-2.92367E-05-2.72321E-06 4.95213E-20-9.55181E-19
 -1      4251 9.47949E-05-2.78348E-05-2.86977E-05 4.37349E-08 5.31004E-19-2.24690E-18
 -1      4252 9.32767E-05-2.33562E-05-2.99670E-05-1.74443E-06 5.89106E-19-1.32360E-18
 -1      4253 9.29395E-05-2.34324E-05-2.97842E-05-1.84104E-06 3.90571E-19-1.10252E-18
 -1      4254 7.52642E-05-1.80437E-05-2.45616E-05 4.40614E-06-1.02888E-18 2.11962E-18
 -1      4255 9.37191E-05-2.36244E-05-3.00427E-05-1.83359E-06 7.33247E-19-1.40120E-18
 -1      4256 9.08549E-05-2.41331E-05-2.85997E-05 9.52541E-07 1.49297E-18 1.54733E-18
 -1      4257 9.03137E-05-2.37368E-05-2.85339E-05 1.13419E-06 1.32807E-18 3.07398E-18
 -1      4258 8.24535E-05-2.03972E-05-2.66528E-05-3.09511E-06-2.06315E-20-8.02140E-19
 -1      4259 8.05117E-05-1.98194E-05-2.60838E-05-3.46930E-06 7.00291E-21-9.41395E-19
 -1      4260 8.30658E-05-2.25662E-05-2.60066E-05-9.81856E-06-3.55152E-19-1.17228E-18
 -1      4261 7.99439E-05-1.87763E-05-2.62595E-05 1.02793E-06 1.65004E-19 1.74122E-19
 -1      4262 8.16653E-05-1.93711E-05-2.67477E-05 9.98579E-07 4.03522E-19 2.48303E-19
 -1      4263 8.37297E-05-2.03090E-05-2.72055E-05 1.85501E-06 3.83665E-19 4.08571E-19
 -1      4264 8.49709E-05-2.08260E-05-2.75216E-05 1.69340E-06 2.40074E-19 3.23682E-19
 -1      4265 8.59431E-05-2.12568E-05-2.77675E-05 1.27570E-06 1.80838E-19 9.20218E-19
 -1      4266 8.70182E-05-2.17720E-05-2.79911E-05 1.18621E-06 1.22096E-20 5.91340E-19
 -1      4267 8.78474E-05-2.22141E-05-2.81594E-05 8.84575E-07 4.78385E-19 1.38309E-18
 -1      4268 8.87449E-05-2.27082E-05-2.83125E-05 8.14969E-07 3.58258E-19 1.46869E-18
 -1      4269 8.96471E-05-2.32564E-05-2.84601E-05-1.41117E-07 6.79756E-19 7.63332E-19
 -1      4270 9.03787E-05-2.37508E-05-2.85548E-05-1.13162E-07 1.47470E-18 1.46705E-18
 -1      4271 9.09355E-05-2.41758E-05-2.86151E-05-9.06316E-08 1.46824E-18 2.11347E-18
 -1      4272 9.16876E-05-2.47643E-05-2.86857E-05-1.01270E-07 2.52680E-19 1.97881E-18
 -1      4273 9.21229E-05-2.51443E-05-2.87146E-05-6.23657E-08 3.36185E-19 1.35470E-18
 -1      4274 9.26088E-05-2.55599E-05-2.87408E-05 1.94571E-07 2.90184E-19 6.86413E-19
 -1      4275 9.29623E-05-2.58862E-05-2.87538E-05 2.03028E-07 6.29676E-19 2.57474E-19
 -1      4276 9.32640E-05-2.61788E-05-2.87600E-05 1.27533E-07 1.66478E-20-8.75763E-19
 -1      4277 9.35502E-05-2.64541E-05-2.87624E-05 1.44993E-07-4.36797E-19-1.73823E-18
 -1      4278 9.37891E-05-2.67001E-05-2.87600E-05 8.42060E-08 1.44509E-19-2.30276E-18
 -1      4279 9.40123E-05-2.69290E-05-2.87553E-05 1.02382E-07 2.48486E-19-2.56977E-18
 -1      4280 9.41973E-05-2.71311E-05-2.87476E-05 5.61714E-08 5.53019E-19-2.25212E-18
 -1      4281 9.43682E-05-2.73165E-05-2.87387E-05 6.90478E-08 5.45323E-19-2.17321E-18
 -1      4282 9.20814E-05-2.50911E-05-2.87103E-05 6.90207E-07-3.85783E-20 1.62662E-18
 -1      4283 9.16177E-05-2.47197E-05-2.86738E-05 8.23278E-07-5.77858E-21 2.00672E-18
 -1      4284 9.23149E-05-2.35897E-05-2.94573E-05-2.38736E-06 2.75710E-19-8.97966E-19
 -1      4285 9.27050E-05-2.35047E-05-2.96629E-05-1.97660E-06 4.20883E-19-9.91575E-19
 -1      4286 9.24493E-05-2.53992E-05-2.87295E-05 5.80501E-07-3.21132E-19 1.08315E-18
 -1      4287 9.24694E-05-2.31891E-05-2.96825E-05-1.49973E-06 3.34645E-19-9.52389E-19
 -1      4288 9.23605E-05-2.29017E-05-2.97815E-05-5.59115E-07 8.60084E-20-1.09856E-18
 -1      4289 9.18359E-05-2.30117E-05-2.95076E-05-5.40797E-07 1.65938E-19-9.62321E-19
 -1      4290 8.66886E-05-2.19040E-05-2.77063E-05-4.40404E-06 1.06978E-19-1.06816E-18
 -1      4291 8.81764E-05-2.28020E-05-2.80126E-05-5.15344E-06-6.86849E-20-9.58495E-19
 -1      4292 8.88879E-05-2.29483E-05-2.82844E-05-4.54889E-06-4.33681E-20-8.88270E-19
 -1      4293 7.62328E-05-1.85212E-05-2.47873E-05-3.71454E-06 9.49934E-21-8.62323E-19
 -1      4294 8.34010E-05-2.42152E-05-2.53309E-05 1.28804E-05-2.58370E-18 3.01273E-18
 -1      4295 8.07010E-05-2.27625E-05-2.47926E-05 1.27200E-05-2.42849E-18 3.21665E-18
 -1      4296 7.93724E-05-2.10287E-05-2.50499E-05 1.02483E-05-2.27425E-18 2.94697E-18
 -1      4297 8.31055E-05-2.31434E-05-2.57372E-05 1.12168E-05-3.13375E-18 3.26803E-18
 -1      4298 8.98231E-05-2.31762E-05-2.85620E-05-4.04824E-06 1.65618E-20-8.26183E-19
 -1      4299 9.04640E-05-2.33251E-05-2.87911E-05-3.55368E-06 3.39333E-20-7.34001E-19
 -1      4300 8.87085E-05-2.24753E-05-2.83424E-05-3.36333E-06 1.08627E-19-8.80418E-19
 -1      4301 9.03823E-05-2.29458E-05-2.88684E-05-2.57111E-06 7.31327E-20-8.45190E-19
 -1      4302 9.12504E-05-2.29851E-05-2.92787E-05-7.91159E-07 1.17891E-19-9.19043E-19
 -1      4303 9.05259E-05-2.28213E-05-2.90392E-05-8.07199E-07 2.70246E-20-7.55920E-19
 -1      4304 8.97435E-05-2.26273E-05-2.87913E-05-1.10707E-06 5.15664E-21-7.11066E-19
 -1      4305 8.87812E-05-2.23043E-05-2.85225E-05-1.16409E-06 5.11272E-20-6.72691E-19
 -1      4306 7.94138E-05-1.96610E-05-2.56362E-05-4.21310E-06 8.12788E-21-9.63445E-19
 -1      4307 8.53987E-05-2.12372E-05-2.75445E-05-2.18192E-06 1.36121E-19-7.02060E-19
 -1      4308 8.38649E-05-2.07273E-05-2.71237E-05-2.37112E-06 2.82730E-20-7.07989E-19
 -1      4309 8.34530E-05-2.18855E-05-2.64310E-05 8.30249E-06-2.02815E-18 2.34480E-18
 -1      4310 8.28830E-05-2.22667E-05-2.59797E-05 9.59217E-06-2.46328E-18 2.65697E-18
 -1      4311 9.16886E-05-2.31810E-05-2.93350E-05-1.92518E-06 1.93585E-19-8.78578E-19
 -1      4312 9.47294E-05-2.77456E-05-2.87068E-05 6.36241E-08 1.93666E-18-2.16050E-18
 -1      4313 8.78028E-05-2.20092E-05-2.82324E-05-1.54899E-06 6.82168E-20-5.84663E-19
 -1      4314 8.65809E-05-2.15741E-05-2.79062E-05-1.66076E-06 9.68972E-20-6.51394E-19
 -1      4315 8.18376E-05-2.10272E-05-2.59716E-05-7.63691E-06-1.96608E-19-1.25195E-18
 -1      4316 8.10207E-05-2.12179E-05-2.56514E-05 9.17044E-06-2.50481E-18 2.87246E-18
 -1      4317 7.93217E-05-2.00806E-05-2.52994E-05 8.52033E-06-2.19170E-18 2.71813E-18
 -1      4318 8.23939E-05-2.06955E-05-2.63999E-05 6.55277E-06-7.61686E-19 1.76623E-18
 -1      4319 7.70790E-05-1.84502E-05-2.51824E-05 4.00561E-06-5.96708E-19 1.66553E-18
 -1      4320 9.12107E-05-2.43842E-05-2.86329E-05 3.77248E-07 9.10217E-19 2.70250E-18
 -1      4321 8.35215E-05-2.03404E-05-2.70438E-05 3.58327E-06 7.86715E-19 4.23318E-19
 -1      4322 8.24844E-05-2.01839E-05-2.66975E-05 4.26287E-06-2.36261E-19 5.92769E-19
 -1      4323 7.93112E-05-1.90310E-05-2.58673E-05 3.51075E-06-4.00111E-19 1.08818E-18
 -1      4324 8.96233E-05-2.32708E-05-2.84298E-05 1.37791E-06 1.05195E-18 2.96144E-18
 -1      4325 9.44732E-05-2.74254E-05-2.87323E-05 1.97066E-07 1.58645E-18-4.80768E-19
 -1      4326 9.45046E-05-2.74795E-05-2.87274E-05-3.81737E-08 8.19239E-19-2.72456E-18
 -1      4327 9.46498E-05-2.76347E-05-2.87192E-05 2.01271E-07 1.46629E-18-8.88415E-19
 -1      4328 9.26017E-05-2.28213E-05-2.99075E-05-4.90582E-07 1.24678E-20-1.23458E-18
 -1      4329 8.09315E-05-1.97341E-05-2.61975E-05 5.17335E-06-7.07850E-19 1.35212E-18
 -1      4330 9.45908E-05-2.75786E-05-2.87200E-05-4.59150E-09 1.52180E-18-2.29387E-18
 -1      4331 9.46614E-05-2.76675E-05-2.87123E-05 1.96040E-08 2.53658E-18-2.22072E-18
 -1      4332 9.46614E-05-2.76631E-05-2.87150E-05 1.33952E-07 2.03264E-18-8.77291E-19
 -1      4333 9.45793E-05-2.75514E-05-2.87245E-05 1.59603E-07 1.93950E-18-3.48185E-19
 -3
    1PSTEP                         4           1           1          
  100CL  101 1.000000000        4333                     0    1           1
 -4  ERROR       1    1
 -5  STR(%)      1    1    0    0
 -1         1 2.25959E+01
 -1         2 2.46968E+01
 -1         3 1.67259E-03
 -1         4 1.80172E-03
 -1         5 1.39644E+01
 -1         6 1.30674E+01
 -1         7 1.30674E+01
 -1         8 3.58480E+00
 -1         9 1.78766E+00
 -1        10 1.28098E+00
 -1        11 1.03014E+00
 -1        12 8.76237E-01
 -1        13 7.72707E-01
 -1        14 7.04556E-01
 -1        15 7.07791E-01
 -1        16 7.77899E-01
 -1        17 8.77562E-01
 -1        18 1.03995E+00
 -1        19 1.29926E+00
 -1        20 1.79774E+00
 -1        21 3.42933E+00
 -1        22 8.52342E+00
 -1        23 1.30674E+01
 -1        24 4.33780E+00
 -1        25 3.33284E+00
 -1        26 2.09673E+00
 -1        27 1.45702E+00
 -1        28 1.13860E+00
 -1        29 9.17144E-01
 -1        30 7.47209E-01
 -1        31 6.89023E-01
 -1        32 7.62325E-01
 -1        33 8.22529E-01
 -1        34 9.59143E-01
 -1        35 1.23628E+00
 -1        36 1.50131E+00
 -1        37 1.65171E+00
 -1        38 1.65171E+00
 -1        39 1.62858E+00
 -1        40 1.64503E+00
 -1        41 2.17395E+00
 -1        42 3.98034E+00
 -1        43 4.72299E+00
 -1        44 4.73246E+00
 -1        45 4.73246E+00
 -1        46 3.97223E+00
 -1        47 2.17839E+00
 -1        48 1.65395E+00
 -1        49 1.63973E+00
 -1        50 1.63142E+00
 -1        51 1.63142E+00
 -1        52 1.48147E+00
 -1        53 1.22388E+00
 -1        54 9.75592E-01
 -1        55 7.65040E-01
 -1        56 6.06897E-01
 -1        57 5.06896E-01
 -1        58 4.08754E-01
 -1        59 3.20169E-01
 -1        60 2.44399E-01
 -1        61 1.82019E-01
 -1        62 1.32143E-01
 -1        63 1.04569E-01
 -1        64 8.51728E-02
 -1        65 6.74980E-02
 -1        66 5.18272E-02
 -1        67 3.81313E-02
 -1        68 2.61788E-02
 -1        69 1.89785E-02
 -1        70 1.21003E-02
 -1        71 5.94158E-03
 -1        72 1.39644E+01
 -1        73 3.42882E+00
 -1        74 2.43496E+00
 -1        75 1.68567E+00
 -1        76 1.26888E+00
 -1        77 1.08187E+00
 -1        78 9.38125E-01
 -1        79 8.21283E-01
 -1        80 7.17122E-01
 -1        81 6.37227E-01
 -1        82 6.43457E-01
 -1        83 6.43457E-01
 -1        84 6.84284E-01
 -1        85 8.48074E-01
 -1        86 9.26769E-01
 -1        87 1.14050E+00
 -1        88 1.27138E+00
 -1        89 1.40178E+00
 -1        90 1.65160E+00
 -1        91 2.35617E+00
 -1        92 2.90935E+00
 -1        93 3.26754E+00
 -1        94 3.26754E+00
 -1        95 3.20639E+00
 -1        96 2.35341E+00
 -1        97 1.39330E+00
 -1        98 9.59482E-01
 -1        99 9.45984E-01
 -1       100 1.07407E+00
 -1       101 1.07407E+00
 -1       102 1.04014E+00
 -1       103 9.17892E-01
 -1       104 7.74033E-01
 -1       105 6.38347E-01
 -1       106 5.03396E-01
 -1       107 3.81300E-01
 -1       108 2.88139E-01
 -1       109 2.26043E-01
 -1       110 1.72162E-01
 -1       111 1.27330E-01
 -1       112 9.12347E-02
 -1       113 6.29594E-02
 -1       114 4.58684E-02
 -1       115 3.75233E-02
 -1       116 2.93620E-02
 -1       117 2.15507E-02
 -1       118 1.70093E-02
 -1       119 1.22324E-02
 -1       120 5.85500E-03
 -1       121 3.26067E-03
 -1       122 1.17706E-03
 -1       123 1.49687E-03
 -1       124 1.49687E-03
 -1       125 1.15636E-03
 -1       126 5.55525E-04
 -1       127 7.06663E-04
 -1       128 8.31596E-04
 -1       129 8.31596E-04
 -1       130 6.85913E-04
 -1       131 6.13032E-04
 -1       132 1.22802E-03
 -1       133 1.57290E-03
 -1       134 1.57290E-03
 -1       135 9.53264E-04
 -1       136 3.09620E-03
 -1       137 2.46968E+01
 -1       138 4.65657E+01
 -1       139 4.65657E+01
 -1       140 1.87652E+01
 -1       141 1.23873E+01
 -1       142 1.24937E+01
 -1       143 1.25472E+01
 -1       144 1.36681E+01
 -1       145 1.36681E+01
 -1       146 1.37963E+01
 -1       147 3.26125E+01
 -1       148 3.26125E+01
 -1       149 2.74972E+01
 -1       150 2.45360E+01
 -1       151 2.58021E+01
 -1       152 2.78016E+01
 -1       153 3.08993E+01
 -1       154 3.08993E+01
 -1       155 1.33230E+01
 -1       156 1.23831E+01
 -1       157 1.31489E+01
 -1       158 1.31489E+01
 -1       159 1.23342E+01
 -1       160 1.27578E+01
 -1       161 4.80264E+01
 -1       162 4.80264E+01
 -1       163 2.46876E+01
 -1       164 5.96054E+00
 -1       165 2.26125E+00
 -1       166 1.50281E+00
 -1       167 1.15238E+00
 -1       168 9.55827E-01
 -1       169 8.34828E-01
 -1       170 7.53356E-01
 -1       171 7.03709E-01
 -1       172 7.57339E-01
 -1       173 8.38204E-01
 -1       174 9.65544E-01
 -1       175 1.16723E+00
 -1       176 1.52507E+00
 -1       177 2.24974E+00
 -1       178 3.86474E+00
 -1       179 1.39644E+01
 -1       180 4.33780E+00
 -1       181 3.33284E+00
 -1       182 2.09673E+00
 -1       183 1.45702E+00
 -1       184 1.13860E+00
 -1       185 9.17144E-01
 -1       186 7.47209E-01
 -1       187 6.14463E-01
 -1       188 6.89023E-01
 -1       189 7.62325E-01
 -1       190 8.26964E-01
 -1       191 1.00550E+00
 -1       192 1.23628E+00
 -1       193 1.50131E+00
 -1       194 1.65171E+00
 -1       195 1.53966E+00
 -1       196 1.62858E+00
 -1       197 1.64503E+00
 -1       198 2.41859E+00
 -1       199 3.98034E+00
 -1       200 4.72299E+00
 -1       201 4.73246E+00
 -1       202 3.97223E+00
 -1       203 2.41495E+00
 -1       204 1.65395E+00
 -1       205 1.63973E+00
 -1       206 1.55033E+00
 -1       207 1.63142E+00
 -1       208 1.48147E+00
 -1       209 1.22388E+00
 -1       210 1.03599E+00
 -1       211 8.97312E-01
 -1       212 7.35237E-01
 -1       213 5.76500E-01
 -1       214 4.35350E-01
 -1       215 3.20169E-01
 -1       216 2.48835E-01
 -1       217 1.91529E-01
 -1       218 1.44122E-01
 -1       219 1.05954E-01
 -1       220 8.51728E-02
 -1       221 6.74980E-02
 -1       222 5.18272E-02
 -1       223 3.81313E-02
 -1       224 2.69158E-02
 -1       225 1.89785E-02
 -1       226 1.21003E-02
 -1       227 6.18009E-03
 -1       228 3.42882E+00
 -1       229 2.43496E+00
 -1       230 1.68567E+00
 -1       231 1.26888E+00
 -1       232 1.08187E+00
 -1       233 9.38125E-01
 -1       234 8.21283E-01
 -1       235 7.17122E-01
 -1       236 6.12278E-01
 -1       237 6.37227E-01
 -1       238 6.43457E-01
 -1       239 6.42136E-01
 -1       240 6.84284E-01
 -1       241 8.48074E-01
 -1       242 9.26769E-01
 -1       243 1.14050E+00
 -1       244 1.27138E+00
 -1       245 1.40178E+00
 -1       246 1.67829E+00
 -1       247 2.35617E+00
 -1       248 2.90935E+00
 -1       249 3.26754E+00
 -1       250 3.20639E+00
 -1       251 2.35341E+00
 -1       252 1.39330E+00
 -1       253 9.59482E-01
 -1       254 8.98212E-01
 -1       255 9.45984E-01
 -1       256 1.07407E+00
 -1       257 1.04014E+00
 -1       258 9.17892E-01
 -1       259 7.74033E-01
 -1       260 6.44121E-01
 -1       261 5.23560E-01
 -1       262 4.08777E-01
 -1       263 3.07521E-01
 -1       264 2.26043E-01
 -1       265 1.72162E-01
 -1       266 1.27330E-01
 -1       267 9.30884E-02
 -1       268 6.64347E-02
 -1       269 4.58684E-02
 -1       270 3.75233E-02
 -1       271 2.93620E-02
 -1       272 2.15507E-02
 -1       273 1.70093E-02
 -1       274 1.22324E-02
 -1       275 5.85500E-03
 -1       276 2.30536E-03
 -1       277 2.78784E-03
 -1       278 2.78784E-03
 -1       279 2.62667E-03
 -1       280 1.79157E-03
 -1       281 1.74491E-03
 -1       282 2.10495E-03
 -1       283 2.10495E-03
 -1       284 2.10107E-03
 -1       285 1.69398E-03
 -1       286 1.89395E-03
 -1       287 2.69339E-03
 -1       288 3.38615E-03
 -1       289 3.38615E-03
 -1       290 4.12163E-03
 -1       291 3.23729E+01
 -1       292 2.85281E+01
 -1       293 4.65657E+01
 -1       294 2.00067E+01
 -1       295 1.11646E+01
 -1       296 1.23873E+01
 -1       297 1.24937E+01
 -1       298 1.25472E+01
 -1       299 1.36681E+01
 -1       300 1.28465E+01
 -1       301 1.37963E+01
 -1       302 3.26125E+01
 -1       303 3.18149E+01
 -1       304 2.60963E+01
 -1       305 2.61737E+01
 -1       306 2.61737E+01
 -1       307 3.06477E+01
 -1       308 3.08993E+01
 -1       309 1.33230E+01
 -1       310 1.14310E+01
 -1       311 1.23831E+01
 -1       312 1.31489E+01
 -1       313 1.23342E+01
 -1       314 1.22634E+01
 -1       315 1.27578E+01
 -1       316 2.35056E+01
 -1       317 4.80264E+01
 -1       318 2.98784E+01
 -1       319 3.23729E+01
 -1       320 1.05160E+00
 -1       321 2.40962E+00
 -1       322 7.83490E-01
 -1       323 6.80600E-01
 -1       324 6.06976E-01
 -1       325 5.52684E-01
 -1       326 5.56635E-01
 -1       327 6.10367E-01
 -1       328 6.87857E-01
 -1       329 7.91972E-01
 -1       330 9.33127E-01
 -1       331 1.14123E+00
 -1       332 1.29455E+00
 -1       333 2.14536E+00
 -1       334 1.83671E+00
 -1       335 1.69614E+00
 -1       336 1.21096E+00
 -1       337 8.21879E-01
 -1       338 6.97173E-01
 -1       339 5.80283E-01
 -1       340 4.61908E-01
 -1       341 5.09309E-01
 -1       342 5.79048E-01
 -1       343 7.08541E-01
 -1       344 8.71910E-01
 -1       345 1.00879E+00
 -1       346 1.16815E+00
 -1       347 1.24649E+00
 -1       348 1.14806E+00
 -1       349 1.07904E+00
 -1       350 1.21495E+00
 -1       351 1.61309E+00
 -1       352 2.19465E+00
 -1       353 2.74196E+00
 -1       354 2.74840E+00
 -1       355 2.75559E+00
 -1       356 2.19286E+00
 -1       357 1.60162E+00
 -1       358 1.17873E+00
 -1       359 1.05981E+00
 -1       360 1.17144E+00
 -1       361 1.25585E+00
 -1       362 1.18733E+00
 -1       363 1.06184E+00
 -1       364 9.54575E-01
 -1       365 8.19465E-01
 -1       366 6.72086E-01
 -1       367 5.31454E-01
 -1       368 4.07410E-01
 -1       369 3.03626E-01
 -1       370 2.20113E-01
 -1       371 1.54986E-01
 -1       372 1.05954E-01
 -1       373 7.59056E-02
 -1       374 5.48981E-02
 -1       375 3.99102E-02
 -1       376 3.15418E-02
 -1       377 2.35862E-02
 -1       378 1.61942E-02
 -1       379 1.02850E-02
 -1       380 6.98523E-03
 -1       381 1.12636E+00
 -1       382 8.13473E-01
 -1       383 6.48038E-01
 -1       384 6.13149E-01
 -1       385 5.67679E-01
 -1       386 5.13017E-01
 -1       387 4.92335E-01
 -1       388 5.25350E-01
 -1       389 6.08396E-01
 -1       390 6.96696E-01
 -1       391 7.09926E-01
 -1       392 7.09926E-01
 -1       393 6.07729E-01
 -1       394 5.28411E-01
 -1       395 7.30508E-01
 -1       396 1.27998E+00
 -1       397 1.68480E+00
 -1       398 1.72792E+00
 -1       399 1.72792E+00
 -1       400 1.82161E+00
 -1       401 1.99675E+00
 -1       402 1.66733E+00
 -1       403 1.09362E+00
 -1       404 6.91844E-01
 -1       405 5.31871E-01
 -1       406 7.08596E-01
 -1       407 7.55659E-01
 -1       408 7.91755E-01
 -1       409 7.46071E-01
 -1       410 6.68871E-01
 -1       411 5.85869E-01
 -1       412 4.88152E-01
 -1       413 3.90352E-01
 -1       414 3.01057E-01
 -1       415 2.24404E-01
 -1       416 1.67036E-01
 -1       417 1.26452E-01
 -1       418 9.30884E-02
 -1       419 6.64347E-02
 -1       420 4.56623E-02
 -1       421 2.98392E-02
 -1       422 2.15276E-02
 -1       423 1.65777E-02
 -1       424 1.16260E-02
 -1       425 6.97011E-03
 -1       426 3.61429E-03
 -1       427 3.75258E-03
 -1       428 3.76693E-03
 -1       429 4.03462E-03
 -1       430 3.13667E-03
 -1       431 3.07532E-03
 -1       432 3.83108E-03
 -1       433 3.83108E-03
 -1       434 3.81014E-03
 -1       435 3.81014E-03
 -1       436 3.04751E-03
 -1       437 3.28737E-03
 -1       438 3.80818E-03
 -1       439 4.85326E-03
 -1       440 2.85281E+01
 -1       441 3.23729E+01
 -1       442 2.72728E+01
 -1       443 1.58727E+01
 -1       444 9.29336E+00
 -1       445 9.13516E-01
 -1       446 9.30912E+00
 -1       447 1.02678E+01
 -1       448 1.08850E+01
 -1       449 8.46823E+00
 -1       450 7.33444E+00
 -1       451 1.19848E+01
 -1       452 2.15716E+01
 -1       453 2.44191E+01
 -1       454 3.72474E+01
 -1       455 3.72474E+01
 -1       456 2.68686E+01
 -1       457 2.05263E+01
 -1       458 1.20027E+01
 -1       459 7.55295E+00
 -1       460 8.85079E+00
 -1       461 9.31701E+00
 -1       462 1.07380E+01
 -1       463 1.01909E+01
 -1       464 7.64314E+00
 -1       465 9.86776E+00
 -1       466 1.73940E+01
 -1       467 2.98784E+01
 -1       468 3.08340E+01
 -1       469 6.72133E+00
 -1       470 9.08570E+00
 -1       471 6.13047E+00
 -1       472 9.98568E-01
 -1       473 4.72715E-01
 -1       474 5.09506E-01
 -1       475 3.94923E-01
 -1       476 4.32049E-01
 -1       477 4.74480E-01
 -1       478 5.10819E-01
 -1       479 5.17721E-01
 -1       480 6.28550E-01
 -1       481 8.13473E-01
 -1       482 7.27979E-01
 -1       483 5.21407E+00
 -1       484 6.05435E-01
 -1       485 4.47115E-01
 -1       486 3.68711E-01
 -1       487 2.93429E-01
 -1       488 3.11176E-01
 -1       489 4.25342E-01
 -1       490 6.00048E-01
 -1       491 7.78374E-01
 -1       492 9.44258E-01
 -1       493 1.07273E+00
 -1       494 1.25355E+00
 -1       495 1.46957E+00
 -1       496 1.64738E+00
 -1       497 2.01356E+00
 -1       498 2.09287E+00
 -1       499 2.23097E+00
 -1       500 2.60500E+00
 -1       501 4.57143E+00
 -1       502 4.04425E+00
 -1       503 2.53189E+00
 -1       504 2.02080E+00
 -1       505 2.01672E+00
 -1       506 1.72719E+00
 -1       507 1.63840E+00
 -1       508 1.43123E+00
 -1       509 1.20587E+00
 -1       510 1.12121E+00
 -1       511 9.97512E-01
 -1       512 8.44353E-01
 -1       513 6.89816E-01
 -1       514 5.52897E-01
 -1       515 4.36113E-01
 -1       516 3.36996E-01
 -1       517 2.55309E-01
 -1       518 1.89622E-01
 -1       519 1.37942E-01
 -1       520 9.81081E-02
 -1       521 6.80317E-02
 -1       522 4.58214E-02
 -1       523 2.98371E-02
 -1       524 1.87965E-02
 -1       525 1.32643E-02
 -1       526 9.26857E-03
 -1       527 1.92799E+01
 -1       528 4.96912E-01
 -1       529 4.09544E-01
 -1       530 3.25459E-01
 -1       531 3.75978E-01
 -1       532 4.18582E-01
 -1       533 5.26570E-01
 -1       534 6.18010E-01
 -1       535 6.96696E-01
 -1       536 7.38753E-01
 -1       537 7.26224E-01
 -1       538 8.12620E-01
 -1       539 8.98535E-01
 -1       540 1.16286E+00
 -1       541 1.45406E+00
 -1       542 1.72599E+00
 -1       543 1.95900E+00
 -1       544 2.04889E+00
 -1       545 1.82188E+00
 -1       546 1.52179E+00
 -1       547 1.23549E+00
 -1       548 9.11926E-01
 -1       549 8.47486E-01
 -1       550 7.32727E-01
 -1       551 8.00567E-01
 -1       552 7.83823E-01
 -1       553 7.21437E-01
 -1       554 6.65058E-01
 -1       555 5.94134E-01
 -1       556 5.07814E-01
 -1       557 4.16962E-01
 -1       558 3.30891E-01
 -1       559 2.54675E-01
 -1       560 1.90397E-01
 -1       561 1.38229E-01
 -1       562 9.72510E-02
 -1       563 6.60230E-02
 -1       564 4.35503E-02
 -1       565 3.06928E-02
 -1       566 2.17723E-02
 -1       567 1.65777E-02
 -1       568 1.16260E-02
 -1       569 7.46756E-03
 -1       570 4.73904E-03
 -1       571 6.19542E-03
 -1       572 4.05134E-03
 -1       573 4.59082E-03
 -1       574 6.39345E-03
 -1       575 6.42460E-03
 -1       576 6.42460E-03
 -1       577 6.21913E-03
 -1       578 4.72126E-03
 -1       579 5.31748E-03
 -1       580 5.31748E-03
 -1       581 3.08340E+01
 -1       582 5.89680E-01
 -1       583 1.37281E+01
 -1       584 1.42292E+01
 -1       585 8.69634E+00
 -1       586 5.30935E+00
 -1       587 7.01857E+00
 -1       588 4.31099E-01
 -1       589 8.78474E+00
 -1       590 2.44191E+01
 -1       591 7.72731E+00
 -1       592 6.25877E+00
 -1       593 3.83742E+00
 -1       594 1.04434E+01
 -1       595 1.62089E+01
 -1       596 3.72474E+01
 -1       597 2.68686E+01
 -1       598 1.66534E+01
 -1       599 1.08588E+01
 -1       600 6.85091E+00
 -1       601 4.26364E+00
 -1       602 6.07478E+00
 -1       603 7.27328E+00
 -1       604 9.50660E+00
 -1       605 2.72728E+01
 -1       606 1.93021E+01
 -1       607 8.32387E-01
 -1       608 1.26769E+00
 -1       609 5.03604E+00
 -1       610 5.09506E-01
 -1       611 7.58591E+00
 -1       612 6.98523E-03
 -1       613 1.91705E+01
 -1       614 1.47508E+01
 -1       615 7.96519E+00
 -1       616 3.16639E+00
 -1       617 4.68826E-01
 -1       618 3.38996E-01
 -1       619 3.04578E-01
 -1       620 3.62687E-01
 -1       621 3.59357E-01
 -1       622 4.80603E-01
 -1       623 8.43923E+00
 -1       624 4.04425E+00
 -1       625 4.02638E-01
 -1       626 1.39305E+01
 -1       627 3.50072E-01
 -1       628 2.66380E-01
 -1       629 1.99837E-01
 -1       630 1.39385E-01
 -1       631 2.00261E-01
 -1       632 3.25728E-01
 -1       633 4.79277E-01
 -1       634 6.59878E-01
 -1       635 8.67020E-01
 -1       636 1.09729E+00
 -1       637 1.33788E+00
 -1       638 1.59276E+00
 -1       639 2.06671E+00
 -1       640 2.83703E+00
 -1       641 2.33819E+00
 -1       642 3.63083E+00
 -1       643 2.54437E+00
 -1       644 2.57414E+00
 -1       645 2.61995E+00
 -1       646 2.80295E+00
 -1       647 2.45479E+00
 -1       648 1.96749E+00
 -1       649 1.54042E+00
 -1       650 1.32839E+00
 -1       651 1.12206E+00
 -1       652 9.23788E-01
 -1       653 7.46178E-01
 -1       654 5.93042E-01
 -1       655 4.64198E-01
 -1       656 3.57856E-01
 -1       657 2.71589E-01
 -1       658 2.02754E-01
 -1       659 1.48714E-01
 -1       660 1.06982E-01
 -1       661 7.53142E-02
 -1       662 5.17439E-02
 -1       663 3.45795E-02
 -1       664 2.24098E-02
 -1       665 1.40944E-02
 -1       666 9.09914E-03
 -1       667 5.39418E+00
 -1       668 3.83551E+00
 -1       669 2.39268E-01
 -1       670 3.58525E-01
 -1       671 4.79938E-01
 -1       672 5.91952E-01
 -1       673 6.81261E-01
 -1       674 8.34124E-01
 -1       675 9.71495E-01
 -1       676 1.05403E+00
 -1       677 1.30477E+00
 -1       678 1.61096E+00
 -1       679 1.66944E+00
 -1       680 2.47825E+00
 -1       681 2.35523E+00
 -1       682 4.57324E+00
 -1       683 2.95150E+00
 -1       684 1.82188E+00
 -1       685 1.62034E+00
 -1       686 1.42111E+00
 -1       687 1.41607E+00
 -1       688 1.10279E+00
 -1       689 9.95931E-01
 -1       690 8.94029E-01
 -1       691 7.83823E-01
 -1       692 7.18812E-01
 -1       693 6.33813E-01
 -1       694 5.33900E-01
 -1       695 4.33744E-01
 -1       696 3.42985E-01
 -1       697 2.66025E-01
 -1       698 2.04075E-01
 -1       699 1.53099E-01
 -1       700 1.12263E-01
 -1       701 8.03486E-02
 -1       702 5.60026E-02
 -1       703 3.78963E-02
 -1       704 2.47998E-02
 -1       705 1.56482E-02
 -1       706 1.01759E-02
 -1       707 7.46756E-03
 -1       708 1.26702E+01
 -1       709 1.00735E-02
 -1       710 4.67621E-03
 -1       711 9.16427E-03
 -1       712 1.01499E-02
 -1       713 1.00735E-02
 -1       714 1.01499E-02
 -1       715 9.21844E-03
 -1       716 7.99720E-03
 -1       717 3.05240E-01
 -1       718 1.62681E+01
 -1       719 1.25924E+01
 -1       720 3.31908E+00
 -1       721 5.63741E+00
 -1       722 2.39375E-01
 -1       723 1.77279E-01
 -1       724 3.38592E-01
 -1       725 3.62687E-01
 -1       726 8.46023E+00
 -1       727 3.01672E+00
 -1       728 3.59133E-01
 -1       729 3.36252E+00
 -1       730 6.74503E+00
 -1       731 1.40860E+01
 -1       732 4.57489E+00
 -1       733 1.13997E+01
 -1       734 5.43636E+00
 -1       735 1.38607E+01
 -1       736 1.06768E+01
 -1       737 1.16622E+01
 -1       738 7.22759E+00
 -1       739 4.63590E+00
 -1       740 5.03769E+00
 -1       741 3.59133E-01
 -1       742 3.02714E-01
 -1       743 4.11942E+00
 -1       744 5.34252E+00
 -1       745 5.33615E+00
 -1       746 7.31390E-03
 -1       747 5.72461E-03
 -1       748 7.93504E-03
 -1       749 1.02094E+01
 -1       750 9.79992E+00
 -1       751 3.36246E-01
 -1       752 7.20191E+00
 -1       753 2.62372E-01
 -1       754 1.80303E-01
 -1       755 2.29370E-01
 -1       756 3.11995E-01
 -1       757 4.26795E-01
 -1       758 5.75063E-01
 -1       759 7.67816E-01
 -1       760 1.01712E+00
 -1       761 1.35119E+00
 -1       762 1.84634E+00
 -1       763 2.52430E+00
 -1       764 4.07235E+00
 -1       765 3.78650E+00
 -1       766 6.37545E+00
 -1       767 4.00329E+00
 -1       768 2.81328E+00
 -1       769 2.26479E+00
 -1       770 1.74573E+00
 -1       771 1.32453E+00
 -1       772 1.02048E+00
 -1       773 8.04776E-01
 -1       774 6.49581E-01
 -1       775 5.11076E-01
 -1       776 3.93523E-01
 -1       777 2.96979E-01
 -1       778 2.19676E-01
 -1       779 1.59127E-01
 -1       780 1.13856E-01
 -1       781 8.05358E-02
 -1       782 5.67434E-02
 -1       783 3.96558E-02
 -1       784 2.71348E-02
 -1       785 1.81047E-02
 -1       786 1.01255E+01
 -1       787 1.59272E-01
 -1       788 4.20412E-01
 -1       789 8.75818E-01
 -1       790 1.09496E+00
 -1       791 1.40959E+00
 -1       792 1.65791E+00
 -1       793 1.77797E+00
 -1       794 2.64294E+00
 -1       795 1.89186E+00
 -1       796 1.62034E+00
 -1       797 2.05976E+00
 -1       798 1.73900E+00
 -1       799 1.71652E+00
 -1       800 1.51879E+00
 -1       801 1.25052E+00
 -1       802 1.00035E+00
 -1       803 8.57893E-01
 -1       804 7.22252E-01
 -1       805 5.97128E-01
 -1       806 4.82022E-01
 -1       807 3.80573E-01
 -1       808 2.97429E-01
 -1       809 2.28935E-01
 -1       810 1.73421E-01
 -1       811 1.29150E-01
 -1       812 9.44332E-02
 -1       813 6.76808E-02
 -1       814 4.74692E-02
 -1       815 3.25346E-02
 -1       816 2.18104E-02
 -1       817 1.40991E-02
 -1       818 8.54306E-03
 -1       819 1.49839E-02
 -1       820 1.49839E-02
 -1       821 1.47853E-02
 -1       822 9.30900E+00
 -1       823 7.88123E+00
 -1       824 2.96040E-01
 -1       825 7.18896E-01
 -1       826 5.63265E-01
 -1       827 3.16632E+00
 -1       828 9.19108E+00
 -1       829 2.39896E-01
 -1       830 7.87629E+00
 -1       831 9.46623E+00
 -1       832 2.42716E-01
 -1       833 2.12936E-01
 -1       834 3.09542E-01
 -1       835 2.21686E+00
 -1       836 5.22819E+00
 -1       837 1.02094E+01
 -1       838 2.47825E+00
 -1       839 1.50355E-02
 -1       840 6.86940E+00
 -1       841 1.05264E+01
 -1       842 5.03650E+00
 -1       843 2.53296E-01
 -1       844 2.97397E+00
 -1       845 2.23630E-01
 -1       846 2.84681E-01
 -1       847 2.71116E-01
 -1       848 1.28195E-02
 -1       849 2.71116E-01
 -1       850 2.68393E-01
 -1       851 7.81413E+00
 -1       852 1.50355E-02
 -1       853 1.33928E-01
 -1       854 1.47876E-02
 -1       855 1.47876E-02
 -1       856 1.65083E-01
 -1       857 2.84681E-01
 -1       858 7.09601E+00
 -1       859 7.18425E+00
 -1       860 3.01111E-01
 -1       861 4.02533E-01
 -1       862 5.65265E-01
 -1       863 7.67816E-01
 -1       864 1.01712E+00
 -1       865 1.32220E+00
 -1       866 1.78402E+00
 -1       867 2.62838E+00
 -1       868 3.26574E+00
 -1       869 2.84752E+00
 -1       870 6.09527E+00
 -1       871 3.77600E+00
 -1       872 2.81328E+00
 -1       873 2.35893E+00
 -1       874 1.68163E+00
 -1       875 1.28178E+00
 -1       876 1.02031E+00
 -1       877 8.02813E-01
 -1       878 6.25492E-01
 -1       879 4.82689E-01
 -1       880 3.68375E-01
 -1       881 2.77588E-01
 -1       882 2.06232E-01
 -1       883 1.50741E-01
 -1       884 1.08140E-01
 -1       885 7.58807E-02
 -1       886 5.27005E-02
 -1       887 3.59340E-02
 -1       888 2.38362E-02
 -1       889 2.36189E-01
 -1       890 1.21789E+00
 -1       891 3.32785E+00
 -1       892 2.24265E+00
 -1       893 1.68955E+00
 -1       894 1.39017E+00
 -1       895 1.09582E+00
 -1       896 8.46124E-01
 -1       897 6.63934E-01
 -1       898 5.34209E-01
 -1       899 4.36538E-01
 -1       900 3.49659E-01
 -1       901 2.73330E-01
 -1       902 2.08904E-01
 -1       903 1.56106E-01
 -1       904 1.13974E-01
 -1       905 8.11351E-02
 -1       906 5.71011E-02
 -1       907 3.92548E-02
 -1       908 2.60080E-02
 -1       909 1.88064E-02
 -1       910 9.30325E-03
 -1       911 2.23542E-02
 -1       912 2.23542E-02
 -1       913 7.81413E+00
 -1       914 3.89906E+00
 -1       915 4.54264E+00
 -1       916 5.59845E+00
 -1       917 9.19232E-01
 -1       918 3.05978E-01
 -1       919 2.19871E-01
 -1       920 4.13774E+00
 -1       921 1.89358E-01
 -1       922 3.98241E-01
 -1       923 7.21295E+00
 -1       924 2.17230E+00
 -1       925 1.49538E+00
 -1       926 2.49683E-01
 -1       927 2.33664E-01
 -1       928 5.27951E+00
 -1       929 1.99471E-02
 -1       930 7.36259E+00
 -1       931 5.67237E+00
 -1       932 5.46156E+00
 -1       933 4.07235E+00
 -1       934 2.42716E-01
 -1       935 1.79563E-01
 -1       936 1.58684E-01
 -1       937 7.21295E+00
 -1       938 2.05976E+00
 -1       939 5.97332E+00
 -1       940 1.89031E-01
 -1       941 5.33302E-01
 -1       942 2.87013E-02
 -1       943 5.98263E+00
 -1       944 6.52080E+00
 -1       945 6.89876E-01
 -1       946 2.86313E+00
 -1       947 5.07843E+00
 -1       948 3.62390E-02
 -1       949 2.23197E-01
 -1       950 2.60682E-01
 -1       951 4.89694E-01
 -1       952 6.77082E-01
 -1       953 9.29358E-01
 -1       954 1.28162E+00
 -1       955 1.78402E+00
 -1       956 3.42911E+00
 -1       957 3.27912E+00
 -1       958 1.56432E-01
 -1       959 2.62856E+00
 -1       960 2.30657E+00
 -1       961 1.68163E+00
 -1       962 1.24044E+00
 -1       963 9.30453E-01
 -1       964 7.04967E-01
 -1       965 5.37874E-01
 -1       966 4.10026E-01
 -1       967 3.11053E-01
 -1       968 2.34213E-01
 -1       969 1.74397E-01
 -1       970 1.28001E-01
 -1       971 9.23676E-02
 -1       972 6.52193E-02
 -1       973 4.48580E-02
 -1       974 3.76757E-02
 -1       975 3.01602E-01
 -1       976 1.42752E+00
 -1       977 1.88213E+00
 -1       978 2.27246E+00
 -1       979 1.05724E+00
 -1       980 8.12768E-01
 -1       981 6.63934E-01
 -1       982 5.34209E-01
 -1       983 4.22629E-01
 -1       984 3.29623E-01
 -1       985 2.53340E-01
 -1       986 1.91679E-01
 -1       987 1.42558E-01
 -1       988 1.04108E-01
 -1       989 7.43235E-02
 -1       990 5.17852E-02
 -1       991 4.06777E-02
 -1       992 3.62390E-02
 -1       993 3.39439E-02
 -1       994 2.24710E-01
 -1       995 5.97332E+00
 -1       996 3.98241E-01
 -1       997 4.26734E+00
 -1       998 1.22186E+00
 -1       999 1.87314E-01
 -1      1000 5.82983E+00
 -1      1001 1.83749E-01
 -1      1002 3.47235E-01
 -1      1003 2.93408E+00
 -1      1004 3.60471E+00
 -1      1005 2.34815E-01
 -1      1006 4.75262E+00
 -1      1007 4.13967E+00
 -1      1008 5.33302E-01
 -1      1009 2.04064E+00
 -1      1010 2.24710E-01
 -1      1011 2.81186E+00
 -1      1012 9.15541E-01
 -1      1013 1.63392E-01
 -1      1014 3.11120E+00
 -1      1015 2.83512E-02
 -1      1016 4.06777E-02
 -1      1017 1.05724E+00
 -1      1018 7.02722E-01
 -1      1019 9.82965E-01
 -1      1020 1.40302E+00
 -1      1021 3.45623E+00
 -1      1022 1.57696E+00
 -1      1023 2.87013E-02
 -1      1024 4.75262E+00
 -1      1025 2.03467E+00
 -1      1026 1.36976E+00
 -1      1027 9.71662E-01
 -1      1028 7.11825E-01
 -1      1029 5.36039E-01
 -1      1030 4.06760E-01
 -1      1031 3.08858E-01
 -1      1032 2.34854E-01
 -1      1033 1.77841E-01
 -1      1034 1.32720E-01
 -1      1035 9.76678E-02
 -1      1036 7.04847E-02
 -1      1037 4.99261E-02
 -1      1038 3.76757E-02
 -1      1039 1.37365E+00
 -1      1040 8.07276E-01
 -1      1041 6.25396E-01
 -1      1042 4.80753E-01
 -1      1043 3.67064E-01
 -1      1044 2.80461E-01
 -1      1045 2.12181E-01
 -1      1046 1.58888E-01
 -1      1047 1.17690E-01
 -1      1048 8.53398E-02
 -1      1049 6.06837E-02
 -1      1050 4.40812E-02
 -1      1051 3.92207E-01
 -1      1052 2.67851E-01
 -1      1053 5.16311E-01
 -1      1054 6.89876E-01
 -1      1055 3.26071E+00
 -1      1056 3.77818E+00
 -1      1057 3.94382E+00
 -1      1058 2.99518E-01
 -1      1059 4.32235E+00
 -1      1060 3.63781E-01
 -1      1061 1.81985E-01
 -1      1062 2.08760E+00
 -1      1063 2.62234E-01
 -1      1064 3.95193E+00
 -1      1065 2.24710E-01
 -1      1066 3.17861E-02
 -1      1067 2.10475E+00
 -1      1068 5.02104E-01
 -1      1069 1.22186E+00
 -1      1070 2.07543E-01
 -1      1071 1.80094E+00
 -1      1072 3.91942E+00
 -1      1073 1.14180E+00
 -1      1074 3.23272E+00
 -1      1075 6.31490E-01
 -1      1076 3.95193E+00
 -1      1077 1.45992E+00
 -1      1078 1.27780E+00
 -1      1079 8.72609E-01
 -1      1080 6.31490E-01
 -1      1081 4.25095E-01
 -1      1082 3.30846E-01
 -1      1083 3.38320E-01
 -1      1084 2.25518E-01
 -1      1085 1.52942E-01
 -1      1086 1.12378E-01
 -1      1087 8.29496E-02
 -1      1088 5.94022E-02
 -1      1089 3.20762E-02
 -1      1090 8.72609E-01
 -1      1091 3.72203E-01
 -1      1092 3.29344E-01
 -1      1093 2.14665E-01
 -1      1094 2.25518E-01
 -1      1095 1.40300E-01
 -1      1096 1.05947E-01
 -1      1097 7.48265E-02
 -1      1098 3.67421E-01
 -1      1099 2.07543E-01
 -1      1100 4.87224E-01
 -1      1101 6.35070E-01
 -1      1102 1.27780E+00
 -1      1103 2.99518E-01
 -1      1104 9.15541E-01
 -1      1105 8.35461E-01
 -1      1106 6.80719E-01
 -1      1107 2.63356E+00
 -1      1108 3.24887E-02
 -1      1109 1.12087E+00
 -1      1110 2.08464E-01
 -1      1111 1.27491E+00
 -1      1112 4.39395E-02
 -1      1113 1.60818E+00
 -1      1114 2.20980E+00
 -1      1115 4.05200E-01
 -1      1116 3.77041E-01
 -1      1117 1.27780E+00
 -1      1118 3.38320E-01
 -1      1119 2.98657E-01
 -1      1120 7.89702E-01
 -1      1121 1.46646E+00
 -1      1122 5.66243E-01
 -1      1123 2.63356E+00
 -1      1124 4.16665E-02
 -1      1125 1.30674E+01
 -1      1126 8.32612E+00
 -1      1127 2.68623E+00
 -1      1128 1.53432E+00
 -1      1129 1.15556E+00
 -1      1130 9.53186E-01
 -1      1131 8.24472E-01
 -1      1132 7.38632E-01
 -1      1133 7.06174E-01
 -1      1134 7.42845E-01
 -1      1135 8.27730E-01
 -1      1136 9.58758E-01
 -1      1137 1.16961E+00
 -1      1138 1.54850E+00
 -1      1139 2.61353E+00
 -1      1140 5.97637E+00
 -1      1141 1.12439E+01
 -1      1142 1.30674E+01
 -1      1143 8.70262E+00
 -1      1144 3.83532E+00
 -1      1145 2.71478E+00
 -1      1146 1.77687E+00
 -1      1147 1.29781E+00
 -1      1148 1.02787E+00
 -1      1149 8.32176E-01
 -1      1150 7.18116E-01
 -1      1151 7.25674E-01
 -1      1152 7.92427E-01
 -1      1153 8.90836E-01
 -1      1154 1.09771E+00
 -1      1155 1.36879E+00
 -1      1156 1.57651E+00
 -1      1157 1.65171E+00
 -1      1158 1.64015E+00
 -1      1159 1.63681E+00
 -1      1160 1.90949E+00
 -1      1161 3.07715E+00
 -1      1162 4.35167E+00
 -1      1163 4.72772E+00
 -1      1164 4.73246E+00
 -1      1165 4.35234E+00
 -1      1166 3.07531E+00
 -1      1167 1.91617E+00
 -1      1168 1.64684E+00
 -1      1169 1.63557E+00
 -1      1170 1.63142E+00
 -1      1171 1.55645E+00
 -1      1172 1.35268E+00
 -1      1173 1.09974E+00
 -1      1174 8.70316E-01
 -1      1175 6.85968E-01
 -1      1176 5.56897E-01
 -1      1177 4.57825E-01
 -1      1178 3.64462E-01
 -1      1179 2.82284E-01
 -1      1180 2.13209E-01
 -1      1181 1.57081E-01
 -1      1182 1.18356E-01
 -1      1183 9.48710E-02
 -1      1184 7.63354E-02
 -1      1185 5.96626E-02
 -1      1186 4.49793E-02
 -1      1187 3.21551E-02
 -1      1188 2.25787E-02
 -1      1189 1.55394E-02
 -1      1190 9.02092E-03
 -1      1191 3.87165E-03
 -1      1192 1.39644E+01
 -1      1193 8.69662E+00
 -1      1194 2.93189E+00
 -1      1195 2.06031E+00
 -1      1196 1.47728E+00
 -1      1197 1.17538E+00
 -1      1198 1.01000E+00
 -1      1199 8.79704E-01
 -1      1200 7.69202E-01
 -1      1201 6.77174E-01
 -1      1202 6.40342E-01
 -1      1203 6.43457E-01
 -1      1204 6.63870E-01
 -1      1205 7.66179E-01
 -1      1206 8.87421E-01
 -1      1207 1.03363E+00
 -1      1208 1.20594E+00
 -1      1209 1.33658E+00
 -1      1210 1.52669E+00
 -1      1211 2.00388E+00
 -1      1212 2.63276E+00
 -1      1213 3.08844E+00
 -1      1214 3.26754E+00
 -1      1215 3.23696E+00
 -1      1216 2.77990E+00
 -1      1217 1.87335E+00
 -1      1218 1.17639E+00
 -1      1219 9.52733E-01
 -1      1220 1.01003E+00
 -1      1221 1.07407E+00
 -1      1222 1.05711E+00
 -1      1223 9.79015E-01
 -1      1224 8.45962E-01
 -1      1225 7.06190E-01
 -1      1226 5.70872E-01
 -1      1227 4.42348E-01
 -1      1228 3.34720E-01
 -1      1229 2.57091E-01
 -1      1230 1.99103E-01
 -1      1231 1.49746E-01
 -1      1232 1.09282E-01
 -1      1233 7.70970E-02
 -1      1234 5.44139E-02
 -1      1235 4.16958E-02
 -1      1236 3.34427E-02
 -1      1237 2.54564E-02
 -1      1238 1.92800E-02
 -1      1239 1.46208E-02
 -1      1240 9.04372E-03
 -1      1241 3.76380E-03
 -1      1242 2.46663E-03
 -1      1243 2.21887E-03
 -1      1244 1.33697E-03
 -1      1245 1.49687E-03
 -1      1246 1.32661E-03
 -1      1247 8.55941E-04
 -1      1248 6.31094E-04
 -1      1249 7.69129E-04
 -1      1250 8.31596E-04
 -1      1251 7.58754E-04
 -1      1252 6.49473E-04
 -1      1253 9.20527E-04
 -1      1254 1.40046E-03
 -1      1255 1.57290E-03
 -1      1256 1.26308E-03
 -1      1257 2.02473E-03
 -1      1258 2.44896E-03
 -1      1259 2.46968E+01
 -1      1260 3.56312E+01
 -1      1261 4.65657E+01
 -1      1262 3.26654E+01
 -1      1263 1.55762E+01
 -1      1264 1.24405E+01
 -1      1265 1.25205E+01
 -1      1266 1.31076E+01
 -1      1267 1.36681E+01
 -1      1268 1.37322E+01
 -1      1269 2.32044E+01
 -1      1270 3.26125E+01
 -1      1271 3.00549E+01
 -1      1272 2.60166E+01
 -1      1273 2.51691E+01
 -1      1274 2.68019E+01
 -1      1275 2.93505E+01
 -1      1276 3.08993E+01
 -1      1277 2.21111E+01
 -1      1278 1.28531E+01
 -1      1279 1.27660E+01
 -1      1280 1.31489E+01
 -1      1281 1.27415E+01
 -1      1282 1.25460E+01
 -1      1283 1.76768E+01
 -1      1284 3.53112E+01
 -1      1285 4.80264E+01
 -1      1286 3.63570E+01
 -1      1287 2.46922E+01
 -1      1288 1.30674E+01
 -1      1289 4.77267E+00
 -1      1290 9.51399E+00
 -1      1291 2.02446E+00
 -1      1292 2.92303E+00
 -1      1293 4.11089E+00
 -1      1294 1.39189E+00
 -1      1295 1.64523E+00
 -1      1296 1.88203E+00
 -1      1297 1.09126E+00
 -1      1298 1.21668E+00
 -1      1299 1.32759E+00
 -1      1300 9.16032E-01
 -1      1301 9.92981E-01
 -1      1302 1.05411E+00
 -1      1303 8.03768E-01
 -1      1304 8.55533E-01
 -1      1305 8.95327E-01
 -1      1306 7.28956E-01
 -1      1307 7.63032E-01
 -1      1308 7.94092E-01
 -1      1309 7.05750E-01
 -1      1310 7.04133E-01
 -1      1311 7.28532E-01
 -1      1312 7.67619E-01
 -1      1313 7.32565E-01
 -1      1314 7.30524E-01
 -1      1315 8.57883E-01
 -1      1316 8.08052E-01
 -1      1317 7.97772E-01
 -1      1318 1.00275E+00
 -1      1319 9.21553E-01
 -1      1320 9.01874E-01
 -1      1321 1.23324E+00
 -1      1322 1.10359E+00
 -1      1323 1.06639E+00
 -1      1324 1.66140E+00
 -1      1325 1.41216E+00
 -1      1326 1.34615E+00
 -1      1327 2.83953E+00
 -1      1328 2.02374E+00
 -1      1329 1.88740E+00
 -1      1330 6.19408E+00
 -1      1331 3.64703E+00
 -1      1332 3.05724E+00
 -1      1333 1.39644E+01
 -1      1334 1.12439E+01
 -1      1335 8.91457E+00
 -1      1336 1.39644E+01
 -1      1337 8.70262E+00
 -1      1338 4.33780E+00
 -1      1339 3.83532E+00
 -1      1340 3.33284E+00
 -1      1341 3.83532E+00
 -1      1342 2.71478E+00
 -1      1343 2.09673E+00
 -1      1344 2.71478E+00
 -1      1345 1.77687E+00
 -1      1346 1.45702E+00
 -1      1347 1.77687E+00
 -1      1348 1.29781E+00
 -1      1349 1.13860E+00
 -1      1350 1.29781E+00
 -1      1351 1.02787E+00
 -1      1352 9.17144E-01
 -1      1353 1.02787E+00
 -1      1354 8.32176E-01
 -1      1355 7.47209E-01
 -1      1356 8.32176E-01
 -1      1357 6.80836E-01
 -1      1358 6.51743E-01
 -1      1359 6.80836E-01
 -1      1360 6.89023E-01
 -1      1361 7.25674E-01
 -1      1362 6.51743E-01
 -1      1363 7.62325E-01
 -1      1364 7.92427E-01
 -1      1365 7.25674E-01
 -1      1366 8.24746E-01
 -1      1367 8.93053E-01
 -1      1368 7.94644E-01
 -1      1369 9.82323E-01
 -1      1370 1.12089E+00
 -1      1371 9.16234E-01
 -1      1372 1.23628E+00
 -1      1373 1.36879E+00
 -1      1374 1.12089E+00
 -1      1375 1.50131E+00
 -1      1376 1.57651E+00
 -1      1377 1.36879E+00
 -1      1378 1.65171E+00
 -1      1379 1.65171E+00
 -1      1380 1.57651E+00
 -1      1381 1.59569E+00
 -1      1382 1.58412E+00
 -1      1383 1.59569E+00
 -1      1384 1.62858E+00
 -1      1385 1.63681E+00
 -1      1386 1.58412E+00
 -1      1387 1.64503E+00
 -1      1388 1.90949E+00
 -1      1389 1.63681E+00
 -1      1390 2.29627E+00
 -1      1391 3.19947E+00
 -1      1392 2.03181E+00
 -1      1393 3.98034E+00
 -1      1394 4.35167E+00
 -1      1395 3.19947E+00
 -1      1396 4.72299E+00
 -1      1397 4.72772E+00
 -1      1398 4.35167E+00
 -1      1399 4.73246E+00
 -1      1400 4.73246E+00
 -1      1401 4.72772E+00
 -1      1402 4.35234E+00
 -1      1403 3.97223E+00
 -1      1404 4.35234E+00
 -1      1405 3.19359E+00
 -1      1406 2.29667E+00
 -1      1407 3.19359E+00
 -1      1408 1.91617E+00
 -1      1409 1.65395E+00
 -1      1410 2.03445E+00
 -1      1411 1.64684E+00
 -1      1412 1.63973E+00
 -1      1413 1.64684E+00
 -1      1414 1.59503E+00
 -1      1415 1.59088E+00
 -1      1416 1.59503E+00
 -1      1417 1.63142E+00
 -1      1418 1.63142E+00
 -1      1419 1.59088E+00
 -1      1420 1.55645E+00
 -1      1421 1.48147E+00
 -1      1422 1.55645E+00
 -1      1423 1.35268E+00
 -1      1424 1.22388E+00
 -1      1425 1.35268E+00
 -1      1426 1.12994E+00
 -1      1427 1.00579E+00
 -1      1428 1.12994E+00
 -1      1429 9.36452E-01
 -1      1430 8.31176E-01
 -1      1431 9.66650E-01
 -1      1432 7.50138E-01
 -1      1433 6.71067E-01
 -1      1434 8.16275E-01
 -1      1435 5.91699E-01
 -1      1436 5.41698E-01
 -1      1437 6.55869E-01
 -1      1438 4.71123E-01
 -1      1439 4.22052E-01
 -1      1440 5.05925E-01
 -1      1441 3.64462E-01
 -1      1442 3.20169E-01
 -1      1443 3.77759E-01
 -1      1444 2.84502E-01
 -1      1445 2.46617E-01
 -1      1446 2.84502E-01
 -1      1447 2.17964E-01
 -1      1448 1.86774E-01
 -1      1449 2.20182E-01
 -1      1450 1.63070E-01
 -1      1451 1.38132E-01
 -1      1452 1.67826E-01
 -1      1453 1.19048E-01
 -1      1454 1.05261E-01
 -1      1455 1.25038E-01
 -1      1456 9.48710E-02
 -1      1457 8.51728E-02
 -1      1458 9.55632E-02
 -1      1459 7.63354E-02
 -1      1460 6.74980E-02
 -1      1461 7.63354E-02
 -1      1462 5.96626E-02
 -1      1463 5.18272E-02
 -1      1464 5.96626E-02
 -1      1465 4.49793E-02
 -1      1466 3.81313E-02
 -1      1467 4.49793E-02
 -1      1468 3.25236E-02
 -1      1469 2.65473E-02
 -1      1470 3.25236E-02
 -1      1471 2.25787E-02
 -1      1472 1.89785E-02
 -1      1473 2.29472E-02
 -1      1474 1.55394E-02
 -1      1475 1.21003E-02
 -1      1476 1.55394E-02
 -1      1477 9.14018E-03
 -1      1478 6.06083E-03
 -1      1479 9.14018E-03
 -1      1480 4.51889E-03
 -1      1481 4.63815E-03
 -1      1482 3.42882E+00
 -1      1483 8.69662E+00
 -1      1484 8.69662E+00
 -1      1485 2.43496E+00
 -1      1486 2.93189E+00
 -1      1487 2.93189E+00
 -1      1488 1.68567E+00
 -1      1489 2.06031E+00
 -1      1490 2.06031E+00
 -1      1491 1.26888E+00
 -1      1492 1.47728E+00
 -1      1493 1.47728E+00
 -1      1494 1.08187E+00
 -1      1495 1.17538E+00
 -1      1496 1.17538E+00
 -1      1497 9.38125E-01
 -1      1498 1.01000E+00
 -1      1499 1.01000E+00
 -1      1500 8.21283E-01
 -1      1501 8.79704E-01
 -1      1502 8.79704E-01
 -1      1503 7.17122E-01
 -1      1504 7.69202E-01
 -1      1505 7.69202E-01
 -1      1506 6.24752E-01
 -1      1507 6.64700E-01
 -1      1508 6.64700E-01
 -1      1509 6.40342E-01
 -1      1510 6.37227E-01
 -1      1511 6.24752E-01
 -1      1512 6.43457E-01
 -1      1513 6.43457E-01
 -1      1514 6.40342E-01
 -1      1515 6.63210E-01
 -1      1516 6.42796E-01
 -1      1517 6.42796E-01
 -1      1518 7.66179E-01
 -1      1519 6.84284E-01
 -1      1520 6.63210E-01
 -1      1521 8.87421E-01
 -1      1522 8.48074E-01
 -1      1523 7.66179E-01
 -1      1524 1.03363E+00
 -1      1525 9.26769E-01
 -1      1526 8.87421E-01
 -1      1527 1.20594E+00
 -1      1528 1.14050E+00
 -1      1529 1.03363E+00
 -1      1530 1.33658E+00
 -1      1531 1.27138E+00
 -1      1532 1.20594E+00
 -1      1533 1.52669E+00
 -1      1534 1.40178E+00
 -1      1535 1.33658E+00
 -1      1536 2.01723E+00
 -1      1537 1.66495E+00
 -1      1538 1.54004E+00
 -1      1539 2.63276E+00
 -1      1540 2.35617E+00
 -1      1541 2.01723E+00
 -1      1542 3.08844E+00
 -1      1543 2.90935E+00
 -1      1544 2.63276E+00
 -1      1545 3.26754E+00
 -1      1546 3.26754E+00
 -1      1547 3.08844E+00
 -1      1548 3.20639E+00
 -1      1549 3.23696E+00
 -1      1550 3.23696E+00
 -1      1551 2.35341E+00
 -1      1552 2.77990E+00
 -1      1553 2.77990E+00
 -1      1554 1.39330E+00
 -1      1555 1.87335E+00
 -1      1556 1.87335E+00
 -1      1557 9.59482E-01
 -1      1558 1.17639E+00
 -1      1559 1.17639E+00
 -1      1560 9.22098E-01
 -1      1561 9.28847E-01
 -1      1562 9.28847E-01
 -1      1563 1.01003E+00
 -1      1564 9.45984E-01
 -1      1565 9.22098E-01
 -1      1566 1.07407E+00
 -1      1567 1.07407E+00
 -1      1568 1.01003E+00
 -1      1569 1.04014E+00
 -1      1570 1.05711E+00
 -1      1571 1.05711E+00
 -1      1572 9.17892E-01
 -1      1573 9.79015E-01
 -1      1574 9.79015E-01
 -1      1575 7.74033E-01
 -1      1576 8.45962E-01
 -1      1577 8.45962E-01
 -1      1578 6.41234E-01
 -1      1579 7.09077E-01
 -1      1580 7.09077E-01
 -1      1581 5.13478E-01
 -1      1582 5.80953E-01
 -1      1583 5.83840E-01
 -1      1584 3.95038E-01
 -1      1585 4.56086E-01
 -1      1586 4.66168E-01
 -1      1587 2.97830E-01
 -1      1588 3.44410E-01
 -1      1589 3.58149E-01
 -1      1590 2.26043E-01
 -1      1591 2.57091E-01
 -1      1592 2.66782E-01
 -1      1593 1.72162E-01
 -1      1594 1.99103E-01
 -1      1595 1.99103E-01
 -1      1596 1.27330E-01
 -1      1597 1.49746E-01
 -1      1598 1.49746E-01
 -1      1599 9.21616E-02
 -1      1600 1.10209E-01
 -1      1601 1.10209E-01
 -1      1602 6.46970E-02
 -1      1603 7.88347E-02
 -1      1604 7.97616E-02
 -1      1605 4.58684E-02
 -1      1606 5.44139E-02
 -1      1607 5.61516E-02
 -1      1608 3.75233E-02
 -1      1609 4.16958E-02
 -1      1610 4.16958E-02
 -1      1611 2.93620E-02
 -1      1612 3.34427E-02
 -1      1613 3.34427E-02
 -1      1614 2.15507E-02
 -1      1615 2.54564E-02
 -1      1616 2.54564E-02
 -1      1617 1.70093E-02
 -1      1618 1.92800E-02
 -1      1619 1.92800E-02
 -1      1620 1.22324E-02
 -1      1621 1.46208E-02
 -1      1622 1.46208E-02
 -1      1623 5.85500E-03
 -1      1624 9.04372E-03
 -1      1625 9.04372E-03
 -1      1626 4.55784E-03
 -1      1627 1.74121E-03
 -1      1628 2.78301E-03
 -1      1629 2.14236E-03
 -1      1630 1.98245E-03
 -1      1631 2.54660E-03
 -1      1632 2.14236E-03
 -1      1633 2.14236E-03
 -1      1634 2.78784E-03
 -1      1635 1.89151E-03
 -1      1636 2.06177E-03
 -1      1637 2.70726E-03
 -1      1638 1.17355E-03
 -1      1639 1.47396E-03
 -1      1640 2.20912E-03
 -1      1641 1.22579E-03
 -1      1642 1.15022E-03
 -1      1643 1.76824E-03
 -1      1644 1.46827E-03
 -1      1645 1.40581E-03
 -1      1646 1.92493E-03
 -1      1647 1.46827E-03
 -1      1648 1.46827E-03
 -1      1649 2.10495E-03
 -1      1650 1.39349E-03
 -1      1651 1.46633E-03
 -1      1652 2.10301E-03
 -1      1653 1.15350E-03
 -1      1654 1.18994E-03
 -1      1655 1.89752E-03
 -1      1656 1.56099E-03
 -1      1657 1.25349E-03
 -1      1658 1.79396E-03
 -1      1659 2.13315E-03
 -1      1660 1.96070E-03
 -1      1661 2.29367E-03
 -1      1662 2.47953E-03
 -1      1663 2.47953E-03
 -1      1664 3.03977E-03
 -1      1665 2.16971E-03
 -1      1666 2.47953E-03
 -1      1667 3.38615E-03
 -1      1668 3.60892E-03
 -1      1669 2.53745E-03
 -1      1670 3.75389E-03
 -1      1671 5.15086E-03
 -1      1672 2.85349E+01
 -1      1673 2.85349E+01
 -1      1674 3.75469E+01
 -1      1675 2.66125E+01
 -1      1676 4.65657E+01
 -1      1677 4.65657E+01
 -1      1678 1.93859E+01
 -1      1679 3.32862E+01
 -1      1680 1.17760E+01
 -1      1681 1.49649E+01
 -1      1682 1.24405E+01
 -1      1683 1.23873E+01
 -1      1684 1.25205E+01
 -1      1685 1.24937E+01
 -1      1686 1.31076E+01
 -1      1687 1.25472E+01
 -1      1688 1.36681E+01
 -1      1689 1.36681E+01
 -1      1690 1.33214E+01
 -1      1691 1.32573E+01
 -1      1692 2.32044E+01
 -1      1693 1.37963E+01
 -1      1694 3.26125E+01
 -1      1695 3.26125E+01
 -1      1696 2.96561E+01
 -1      1697 3.22137E+01
 -1      1698 2.53161E+01
 -1      1699 2.67968E+01
 -1      1700 2.59879E+01
 -1      1701 2.53549E+01
 -1      1702 2.69877E+01
 -1      1703 2.59879E+01
 -1      1704 3.07735E+01
 -1      1705 2.92247E+01
 -1      1706 3.08993E+01
 -1      1707 3.08993E+01
 -1      1708 1.33230E+01
 -1      1709 2.21111E+01
 -1      1710 1.19070E+01
 -1      1711 1.23770E+01
 -1      1712 1.27660E+01
 -1      1713 1.23831E+01
 -1      1714 1.31489E+01
 -1      1715 1.31489E+01
 -1      1716 1.23342E+01
 -1      1717 1.27415E+01
 -1      1718 1.25106E+01
 -1      1719 1.22988E+01
 -1      1720 1.76768E+01
 -1      1721 1.27578E+01
 -1      1722 3.57660E+01
 -1      1723 2.30507E+01
 -1      1724 4.80264E+01
 -1      1725 4.80264E+01
 -1      1726 2.72830E+01
 -1      1727 3.89524E+01
 -1      1728 2.85349E+01
 -1      1729 2.85303E+01
 -1      1730 1.55857E+01
 -1      1731 3.32862E+01
 -1      1732 4.55784E-03
 -1      1733 4.08018E-03
 -1      1734 3.04505E+01
 -1      1735 3.75469E+01
 -1      1736 3.23729E+01
 -1      1737 1.17760E+01
 -1      1738 1.24405E+01
 -1      1739 1.25205E+01
 -1      1740 1.31076E+01
 -1      1741 1.32573E+01
 -1      1742 1.33214E+01
 -1      1743 2.32044E+01
 -1      1744 3.22137E+01
 -1      1745 2.89556E+01
 -1      1746 2.61350E+01
 -1      1747 2.61737E+01
 -1      1748 2.84107E+01
 -1      1749 3.07735E+01
 -1      1750 2.21111E+01
 -1      1751 1.23770E+01
 -1      1752 1.19070E+01
 -1      1753 1.27660E+01
 -1      1754 1.27415E+01
 -1      1755 1.22988E+01
 -1      1756 1.25106E+01
 -1      1757 1.81317E+01
 -1      1758 3.57660E+01
 -1      1759 3.89524E+01
 -1      1760 3.11257E+01
 -1      1761 9.51399E+00
 -1      1762 1.27720E+00
 -1      1763 1.65643E+00
 -1      1764 2.33544E+00
 -1      1765 4.18508E+00
 -1      1766 1.73061E+00
 -1      1767 8.69658E-01
 -1      1768 9.67937E-01
 -1      1769 7.57714E-01
 -1      1770 8.18213E-01
 -1      1771 7.32045E-01
 -1      1772 6.80166E-01
 -1      1773 7.20902E-01
 -1      1774 6.43788E-01
 -1      1775 6.28197E-01
 -1      1776 6.53020E-01
 -1      1777 5.79830E-01
 -1      1778 6.56987E-01
 -1      1779 6.30172E-01
 -1      1780 5.54659E-01
 -1      1781 7.24286E-01
 -1      1782 6.83853E-01
 -1      1783 5.83501E-01
 -1      1784 8.26701E-01
 -1      1785 7.63031E-01
 -1      1786 6.49112E-01
 -1      1787 9.79600E-01
 -1      1788 8.78758E-01
 -1      1789 7.39915E-01
 -1      1790 1.22910E+00
 -1      1791 1.05018E+00
 -1      1792 8.62549E-01
 -1      1793 1.69548E+00
 -1      1794 1.33315E+00
 -1      1795 1.03718E+00
 -1      1796 2.57965E+00
 -1      1797 1.77215E+00
 -1      1798 1.21789E+00
 -1      1799 8.05488E+00
 -1      1800 3.00505E+00
 -1      1801 1.71996E+00
 -1      1802 2.78709E+00
 -1      1803 5.14917E+00
 -1      1804 2.13583E+00
 -1      1805 2.63276E+00
 -1      1806 1.99103E+00
 -1      1807 3.37371E+00
 -1      1808 2.51449E+00
 -1      1809 1.89643E+00
 -1      1810 1.65385E+00
 -1      1811 1.33399E+00
 -1      1812 1.45355E+00
 -1      1813 1.13945E+00
 -1      1814 9.80241E-01
 -1      1815 1.01642E+00
 -1      1816 9.17887E-01
 -1      1817 8.07158E-01
 -1      1818 7.59526E-01
 -1      1819 7.48713E-01
 -1      1820 6.63746E-01
 -1      1821 6.38728E-01
 -1      1822 6.04558E-01
 -1      1823 5.38185E-01
 -1      1824 5.21095E-01
 -1      1825 5.61886E-01
 -1      1826 5.99166E-01
 -1      1827 4.85609E-01
 -1      1828 6.34036E-01
 -1      1829 6.70686E-01
 -1      1830 5.44179E-01
 -1      1831 7.35433E-01
 -1      1832 7.67752E-01
 -1      1833 6.43795E-01
 -1      1834 8.49437E-01
 -1      1835 9.38707E-01
 -1      1836 7.90225E-01
 -1      1837 1.00715E+00
 -1      1838 1.12253E+00
 -1      1839 9.40350E-01
 -1      1840 1.20221E+00
 -1      1841 1.33473E+00
 -1      1842 1.08847E+00
 -1      1843 1.37390E+00
 -1      1844 1.44910E+00
 -1      1845 1.20732E+00
 -1      1846 1.39988E+00
 -1      1847 1.34386E+00
 -1      1848 1.19727E+00
 -1      1849 1.30935E+00
 -1      1850 1.35381E+00
 -1      1851 1.11355E+00
 -1      1852 1.42177E+00
 -1      1853 1.42999E+00
 -1      1854 1.14700E+00
 -1      1855 1.62906E+00
 -1      1856 2.01584E+00
 -1      1857 1.41402E+00
 -1      1858 2.30662E+00
 -1      1859 3.08750E+00
 -1      1860 1.90387E+00
 -1      1861 3.36115E+00
 -1      1862 3.73248E+00
 -1      1863 2.46831E+00
 -1      1864 3.73570E+00
 -1      1865 3.74043E+00
 -1      1866 2.74518E+00
 -1      1867 3.74402E+00
 -1      1868 3.36391E+00
 -1      1869 2.75200E+00
 -1      1870 3.08254E+00
 -1      1871 2.30390E+00
 -1      1872 2.47422E+00
 -1      1873 2.00828E+00
 -1      1874 1.62778E+00
 -1      1875 1.89724E+00
 -1      1876 1.41634E+00
 -1      1877 1.40923E+00
 -1      1878 1.39017E+00
 -1      1879 1.34977E+00
 -1      1880 1.30507E+00
 -1      1881 1.11927E+00
 -1      1882 1.36089E+00
 -1      1883 1.40143E+00
 -1      1884 1.11562E+00
 -1      1885 1.44363E+00
 -1      1886 1.36866E+00
 -1      1887 1.21364E+00
 -1      1888 1.33440E+00
 -1      1889 1.20560E+00
 -1      1890 1.22159E+00
 -1      1891 1.14286E+00
 -1      1892 1.04891E+00
 -1      1893 1.12458E+00
 -1      1894 9.95282E-01
 -1      1895 9.25944E-01
 -1      1896 1.00821E+00
 -1      1897 8.58389E-01
 -1      1898 7.77351E-01
 -1      1899 8.87020E-01
 -1      1900 7.03661E-01
 -1      1901 6.24293E-01
 -1      1902 7.45775E-01
 -1      1903 5.53977E-01
 -1      1904 4.83402E-01
 -1      1905 6.01770E-01
 -1      1906 4.21380E-01
 -1      1907 3.63790E-01
 -1      1908 4.69432E-01
 -1      1909 3.11897E-01
 -1      1910 2.76230E-01
 -1      1911 3.55518E-01
 -1      1912 2.34474E-01
 -1      1913 2.05821E-01
 -1      1914 2.61869E-01
 -1      1915 1.73258E-01
 -1      1916 1.49554E-01
 -1      1917 1.87549E-01
 -1      1918 1.25038E-01
 -1      1919 1.05954E-01
 -1      1920 1.30470E-01
 -1      1921 9.09296E-02
 -1      1922 8.05392E-02
 -1      1923 9.09296E-02
 -1      1924 7.00355E-02
 -1      1925 6.11980E-02
 -1      1926 6.54018E-02
 -1      1927 5.37041E-02
 -1      1928 4.58687E-02
 -1      1929 4.74042E-02
 -1      1930 4.16845E-02
 -1      1931 3.48366E-02
 -1      1932 3.57260E-02
 -1      1933 3.08588E-02
 -1      1934 2.52510E-02
 -1      1935 2.75640E-02
 -1      1936 2.15550E-02
 -1      1937 1.75864E-02
 -1      1938 1.98902E-02
 -1      1939 1.46317E-02
 -1      1940 1.11926E-02
 -1      1941 1.32396E-02
 -1      1942 9.54275E-03
 -1      1943 6.58266E-03
 -1      1944 5.55343E-03
 -1      1945 8.63509E-03
 -1      1946 1.40601E+00
 -1      1947 1.78066E+00
 -1      1948 1.48153E+00
 -1      1949 1.04118E+00
 -1      1950 1.24957E+00
 -1      1951 9.69914E-01
 -1      1952 8.64953E-01
 -1      1953 9.58461E-01
 -1      1954 7.30755E-01
 -1      1955 7.75637E-01
 -1      1956 8.47509E-01
 -1      1957 6.30594E-01
 -1      1958 6.94481E-01
 -1      1959 7.52902E-01
 -1      1960 5.90414E-01
 -1      1961 6.15070E-01
 -1      1962 6.67150E-01
 -1      1963 5.40348E-01
 -1      1964 5.52307E-01
 -1      1965 6.04729E-01
 -1      1966 5.02676E-01
 -1      1967 5.81288E-01
 -1      1968 5.68814E-01
 -1      1969 5.08843E-01
 -1      1970 6.25926E-01
 -1      1971 6.22811E-01
 -1      1972 5.66873E-01
 -1      1973 6.69416E-01
 -1      1974 6.70077E-01
 -1      1975 6.52546E-01
 -1      1976 6.97105E-01
 -1      1977 6.76031E-01
 -1      1978 7.03311E-01
 -1      1979 7.79000E-01
 -1      1980 6.97105E-01
 -1      1981 7.09926E-01
 -1      1982 7.67249E-01
 -1      1983 7.27902E-01
 -1      1984 6.58827E-01
 -1      1985 8.34453E-01
 -1      1986 7.27590E-01
 -1      1987 5.68070E-01
 -1      1988 1.00095E+00
 -1      1989 9.35502E-01
 -1      1990 6.29460E-01
 -1      1991 1.34088E+00
 -1      1992 1.27568E+00
 -1      1993 1.00524E+00
 -1      1994 1.68155E+00
 -1      1995 1.54329E+00
 -1      1996 1.48239E+00
 -1      1997 2.04204E+00
 -1      1998 1.70311E+00
 -1      1999 1.70636E+00
 -1      2000 2.31863E+00
 -1      2001 2.04204E+00
 -1      2002 1.72792E+00
 -1      2003 2.54457E+00
 -1      2004 2.36548E+00
 -1      2005 1.77476E+00
 -1      2006 2.60157E+00
 -1      2007 2.63215E+00
 -1      2008 1.90918E+00
 -1      2009 2.01037E+00
 -1      2010 2.43686E+00
 -1      2011 1.83204E+00
 -1      2012 1.24346E+00
 -1      2013 1.72351E+00
 -1      2014 1.38047E+00
 -1      2015 8.25663E-01
 -1      2016 1.04257E+00
 -1      2017 8.92730E-01
 -1      2018 7.15042E-01
 -1      2019 7.45676E-01
 -1      2020 6.11858E-01
 -1      2021 8.27290E-01
 -1      2022 8.03404E-01
 -1      2023 6.20234E-01
 -1      2024 9.14867E-01
 -1      2025 8.50822E-01
 -1      2026 7.32127E-01
 -1      2027 9.15946E-01
 -1      2028 9.32915E-01
 -1      2029 7.73707E-01
 -1      2030 8.31981E-01
 -1      2031 8.93104E-01
 -1      2032 7.68912E-01
 -1      2033 7.21452E-01
 -1      2034 7.93381E-01
 -1      2035 7.07470E-01
 -1      2036 6.14995E-01
 -1      2037 6.79951E-01
 -1      2038 6.27370E-01
 -1      2039 5.05856E-01
 -1      2040 5.66136E-01
 -1      2041 5.37010E-01
 -1      2042 3.99564E-01
 -1      2043 4.56956E-01
 -1      2044 4.39252E-01
 -1      2045 3.04289E-01
 -1      2046 3.54917E-01
 -1      2047 3.45704E-01
 -1      2048 2.25223E-01
 -1      2049 2.65962E-01
 -1      2050 2.62730E-01
 -1      2051 1.69599E-01
 -1      2052 1.96539E-01
 -1      2053 1.95720E-01
 -1      2054 1.26891E-01
 -1      2055 1.49307E-01
 -1      2056 1.46744E-01
 -1      2057 9.30884E-02
 -1      2058 1.10209E-01
 -1      2059 1.09770E-01
 -1      2060 6.64347E-02
 -1      2061 7.97616E-02
 -1      2062 7.97616E-02
 -1      2063 4.57654E-02
 -1      2064 5.60485E-02
 -1      2065 5.60485E-02
 -1      2066 3.36813E-02
 -1      2067 3.78538E-02
 -1      2068 3.77508E-02
 -1      2069 2.54448E-02
 -1      2070 2.95255E-02
 -1      2071 2.56834E-02
 -1      2072 1.90642E-02
 -1      2073 2.29699E-02
 -1      2074 1.90527E-02
 -1      2075 1.43176E-02
 -1      2076 1.65884E-02
 -1      2077 1.41019E-02
 -1      2078 9.60127E-03
 -1      2079 1.19897E-02
 -1      2080 9.29806E-03
 -1      2081 4.73465E-03
 -1      2082 7.92336E-03
 -1      2083 5.29220E-03
 -1      2084 2.95982E-03
 -1      2085 3.18963E-03
 -1      2086 3.27021E-03
 -1      2087 3.27739E-03
 -1      2088 3.27739E-03
 -1      2089 3.75976E-03
 -1      2090 3.41123E-03
 -1      2091 3.16999E-03
 -1      2092 3.82446E-03
 -1      2093 3.90078E-03
 -1      2094 2.46412E-03
 -1      2095 2.88167E-03
 -1      2096 3.44463E-03
 -1      2097 2.41012E-03
 -1      2098 2.43344E-03
 -1      2099 3.10600E-03
 -1      2100 2.96801E-03
 -1      2101 2.78799E-03
 -1      2102 3.45320E-03
 -1      2103 2.96801E-03
 -1      2104 2.96801E-03
 -1      2105 3.83108E-03
 -1      2106 2.95561E-03
 -1      2107 2.95755E-03
 -1      2108 3.82061E-03
 -1      2109 2.75206E-03
 -1      2110 2.95561E-03
 -1      2111 3.81014E-03
 -1      2112 2.47073E-03
 -1      2113 2.37074E-03
 -1      2114 3.42882E-03
 -1      2115 2.99038E-03
 -1      2116 2.59066E-03
 -1      2117 3.16744E-03
 -1      2118 3.59716E-03
 -1      2119 3.25078E-03
 -1      2120 3.54777E-03
 -1      2121 4.11971E-03
 -1      2122 4.11971E-03
 -1      2123 4.33072E-03
 -1      2124 3.75469E+01
 -1      2125 2.85281E+01
 -1      2126 3.23729E+01
 -1      2127 3.23729E+01
 -1      2128 2.79004E+01
 -1      2129 2.98229E+01
 -1      2130 2.79004E+01
 -1      2131 1.79397E+01
 -1      2132 3.12192E+01
 -1      2133 1.02290E+01
 -1      2134 1.46500E+01
 -1      2135 1.03295E+00
 -1      2136 1.20816E+00
 -1      2137 9.82559E-01
 -1      2138 8.48503E-01
 -1      2139 1.09014E+01
 -1      2140 1.08482E+01
 -1      2141 1.14075E+01
 -1      2142 1.13807E+01
 -1      2143 1.22765E+01
 -1      2144 1.17161E+01
 -1      2145 1.06574E+01
 -1      2146 1.10681E+01
 -1      2147 1.05654E+01
 -1      2148 1.00905E+01
 -1      2149 2.22987E+01
 -1      2150 1.28906E+01
 -1      2151 2.66933E+01
 -1      2152 2.70921E+01
 -1      2153 1.67782E+01
 -1      2154 2.52577E+01
 -1      2155 2.81170E+01
 -1      2156 3.17106E+01
 -1      2157 3.16719E+01
 -1      2158 3.17106E+01
 -1      2159 3.17106E+01
 -1      2160 2.87582E+01
 -1      2161 2.65212E+01
 -1      2162 2.57128E+01
 -1      2163 2.55870E+01
 -1      2164 1.26629E+01
 -1      2165 2.14510E+01
 -1      2166 9.49197E+00
 -1      2167 1.04380E+01
 -1      2168 1.06169E+01
 -1      2169 1.01409E+01
 -1      2170 1.12329E+01
 -1      2171 1.08501E+01
 -1      2172 1.15361E+01
 -1      2173 1.19434E+01
 -1      2174 1.12271E+01
 -1      2175 1.12626E+01
 -1      2176 1.04645E+01
 -1      2177 1.02005E+01
 -1      2178 9.95325E+00
 -1      2179 1.66867E+01
 -1      2180 1.13128E+01
 -1      2181 3.27102E+01
 -1      2182 2.04498E+01
 -1      2183 1.36309E+01
 -1      2184 2.98784E+01
 -1      2185 3.89524E+01
 -1      2186 3.16035E+01
 -1      2187 3.03562E+01
 -1      2188 3.03562E+01
 -1      2189 9.55430E+00
 -1      2190 8.94299E+00
 -1      2191 8.00735E+00
 -1      2192 2.87123E+00
 -1      2193 8.01522E+00
 -1      2194 2.05288E+00
 -1      2195 2.98229E+01
 -1      2196 2.22004E+01
 -1      2197 4.48745E-03
 -1      2198 3.16035E+01
 -1      2199 1.25830E+01
 -1      2200 2.36362E+01
 -1      2201 8.91703E+00
 -1      2202 1.11173E+01
 -1      2203 9.20135E+00
 -1      2204 9.91186E+00
 -1      2205 9.08390E+00
 -1      2206 8.20187E+00
 -1      2207 9.77784E+00
 -1      2208 1.62645E+01
 -1      2209 2.36974E+01
 -1      2210 3.20580E+01
 -1      2211 3.72474E+01
 -1      2212 2.29954E+01
 -1      2213 9.65961E+00
 -1      2214 7.90134E+00
 -1      2215 9.67663E+00
 -1      2216 9.78844E+00
 -1      2217 1.05764E+01
 -1      2218 3.08333E+01
 -1      2219 9.44412E+00
 -1      2220 6.88681E+00
 -1      2221 7.99911E+00
 -1      2222 1.06246E+00
 -1      2223 1.41764E+00
 -1      2224 5.39845E-01
 -1      2225 5.76657E-01
 -1      2226 5.95053E-01
 -1      2227 6.46498E-01
 -1      2228 4.91110E-01
 -1      2229 4.75779E-01
 -1      2230 4.73804E-01
 -1      2231 5.21208E-01
 -1      2232 4.94342E-01
 -1      2233 4.13486E-01
 -1      2234 5.81169E-01
 -1      2235 5.42424E-01
 -1      2236 4.53265E-01
 -1      2237 6.51396E-01
 -1      2238 5.99338E-01
 -1      2239 4.92650E-01
 -1      2240 7.25424E-01
 -1      2241 6.54847E-01
 -1      2242 5.14270E-01
 -1      2243 8.84888E-01
 -1      2244 7.80838E-01
 -1      2245 5.73135E-01
 -1      2246 8.13473E-01
 -1      2247 9.69914E-01
 -1      2248 9.06021E-01
 -1      2249 1.21206E+00
 -1      2250 9.69471E-01
 -1      2251 7.26159E+00
 -1      2252 5.96770E+00
 -1      2253 9.08199E-01
 -1      2254 7.13657E-01
 -1      2255 6.66707E-01
 -1      2256 6.34497E-01
 -1      2257 5.72144E-01
 -1      2258 5.26275E-01
 -1      2259 5.32942E-01
 -1      2260 4.74497E-01
 -1      2261 4.07913E-01
 -1      2262 4.36856E-01
 -1      2263 3.77668E-01
 -1      2264 3.31070E-01
 -1      2265 3.86542E-01
 -1      2266 4.10243E-01
 -1      2267 3.02302E-01
 -1      2268 4.67326E-01
 -1      2269 5.02195E-01
 -1      2270 3.68259E-01
 -1      2271 5.89548E-01
 -1      2272 6.54295E-01
 -1      2273 5.12695E-01
 -1      2274 7.43457E-01
 -1      2275 8.25142E-01
 -1      2276 6.89211E-01
 -1      2277 9.08084E-01
 -1      2278 9.76524E-01
 -1      2279 8.61316E-01
 -1      2280 1.04076E+00
 -1      2281 1.12044E+00
 -1      2282 1.00849E+00
 -1      2283 1.21085E+00
 -1      2284 1.25002E+00
 -1      2285 1.16314E+00
 -1      2286 1.35803E+00
 -1      2287 1.30881E+00
 -1      2288 1.36156E+00
 -1      2289 1.39772E+00
 -1      2290 1.36321E+00
 -1      2291 1.55847E+00
 -1      2292 1.54630E+00
 -1      2293 1.61425E+00
 -1      2294 1.83047E+00
 -1      2295 1.65391E+00
 -1      2296 1.85298E+00
 -1      2297 2.05321E+00
 -1      2298 1.92203E+00
 -1      2299 2.21281E+00
 -1      2300 2.16192E+00
 -1      2301 2.39982E+00
 -1      2302 2.67348E+00
 -1      2303 2.41798E+00
 -1      2304 3.65670E+00
 -1      2305 3.65992E+00
 -1      2306 3.58821E+00
 -1      2307 3.39633E+00
 -1      2308 3.39992E+00
 -1      2309 4.30784E+00
 -1      2310 2.64374E+00
 -1      2311 2.36238E+00
 -1      2312 3.28807E+00
 -1      2313 2.10683E+00
 -1      2314 1.81121E+00
 -1      2315 2.27634E+00
 -1      2316 1.80917E+00
 -1      2317 1.59772E+00
 -1      2318 2.01876E+00
 -1      2319 1.45296E+00
 -1      2320 1.39350E+00
 -1      2321 1.87195E+00
 -1      2322 1.34910E+00
 -1      2323 1.40492E+00
 -1      2324 1.68279E+00
 -1      2325 1.30133E+00
 -1      2326 1.34354E+00
 -1      2327 1.53481E+00
 -1      2328 1.23086E+00
 -1      2329 1.19660E+00
 -1      2330 1.31855E+00
 -1      2331 1.15427E+00
 -1      2332 1.09152E+00
 -1      2333 1.16354E+00
 -1      2334 1.02967E+00
 -1      2335 9.76044E-01
 -1      2336 1.05936E+00
 -1      2337 8.99464E-01
 -1      2338 8.31909E-01
 -1      2339 9.20933E-01
 -1      2340 7.54640E-01
 -1      2341 6.80951E-01
 -1      2342 7.67084E-01
 -1      2343 6.12491E-01
 -1      2344 5.42175E-01
 -1      2345 6.21356E-01
 -1      2346 4.83783E-01
 -1      2347 4.21761E-01
 -1      2348 4.94505E-01
 -1      2349 3.72203E-01
 -1      2350 3.20311E-01
 -1      2351 3.86554E-01
 -1      2352 2.79467E-01
 -1      2353 2.37711E-01
 -1      2354 2.96153E-01
 -1      2355 2.04867E-01
 -1      2356 1.72304E-01
 -1      2357 2.22466E-01
 -1      2358 1.46464E-01
 -1      2359 1.21948E-01
 -1      2360 1.63782E-01
 -1      2361 1.02031E-01
 -1      2362 8.70068E-02
 -1      2363 1.18025E-01
 -1      2364 7.19686E-02
 -1      2365 6.14649E-02
 -1      2366 8.30699E-02
 -1      2367 5.03598E-02
 -1      2368 4.28658E-02
 -1      2369 5.69266E-02
 -1      2370 3.48736E-02
 -1      2371 3.06895E-02
 -1      2372 3.78292E-02
 -1      2373 2.51692E-02
 -1      2374 2.11914E-02
 -1      2375 2.43168E-02
 -1      2376 1.84252E-02
 -1      2377 1.47292E-02
 -1      2378 1.60304E-02
 -1      2379 1.27314E-02
 -1      2380 9.77676E-03
 -1      2381 1.12664E-02
 -1      2382 2.39040E+01
 -1      2383 2.32763E+01
 -1      2384 5.55031E-01
 -1      2385 5.72475E-01
 -1      2386 4.88611E-01
 -1      2387 5.11347E-01
 -1      2388 4.53228E-01
 -1      2389 4.19238E-01
 -1      2390 4.46569E-01
 -1      2391 3.67501E-01
 -1      2392 4.34157E-01
 -1      2393 4.44498E-01
 -1      2394 3.50718E-01
 -1      2395 4.71966E-01
 -1      2396 4.55459E-01
 -1      2397 3.97280E-01
 -1      2398 5.67483E-01
 -1      2399 5.25960E-01
 -1      2400 4.72576E-01
 -1      2401 6.57353E-01
 -1      2402 6.13203E-01
 -1      2403 5.72290E-01
 -1      2404 7.03311E-01
 -1      2405 6.96696E-01
 -1      2406 6.57353E-01
 -1      2407 7.24339E-01
 -1      2408 7.24339E-01
 -1      2409 7.17725E-01
 -1      2410 6.66977E-01
 -1      2411 7.18075E-01
 -1      2412 7.32489E-01
 -1      2413 6.70516E-01
 -1      2414 7.10175E-01
 -1      2415 7.69422E-01
 -1      2416 8.14522E-01
 -1      2417 7.13473E-01
 -1      2418 8.55577E-01
 -1      2419 1.22142E+00
 -1      2420 9.46686E-01
 -1      2421 1.03070E+00
 -1      2422 1.56943E+00
 -1      2423 1.36702E+00
 -1      2424 1.30846E+00
 -1      2425 1.72696E+00
 -1      2426 1.70540E+00
 -1      2427 1.59003E+00
 -1      2428 1.84346E+00
 -1      2429 1.84346E+00
 -1      2430 1.84250E+00
 -1      2431 1.93525E+00
 -1      2432 1.88840E+00
 -1      2433 2.00395E+00
 -1      2434 1.90932E+00
 -1      2435 1.82174E+00
 -1      2436 1.93538E+00
 -1      2437 1.59456E+00
 -1      2438 1.75927E+00
 -1      2439 1.67184E+00
 -1      2440 1.16455E+00
 -1      2441 1.45141E+00
 -1      2442 1.37864E+00
 -1      2443 8.01885E-01
 -1      2444 1.00277E+00
 -1      2445 1.07371E+00
 -1      2446 6.89679E-01
 -1      2447 7.69665E-01
 -1      2448 8.79706E-01
 -1      2449 7.20661E-01
 -1      2450 6.32299E-01
 -1      2451 7.90106E-01
 -1      2452 7.78113E-01
 -1      2453 7.54582E-01
 -1      2454 7.66647E-01
 -1      2455 7.87789E-01
 -1      2456 7.69741E-01
 -1      2457 7.92195E-01
 -1      2458 7.33754E-01
 -1      2459 7.56596E-01
 -1      2460 7.52630E-01
 -1      2461 6.66964E-01
 -1      2462 7.05564E-01
 -1      2463 6.93247E-01
 -1      2464 5.90001E-01
 -1      2465 6.31502E-01
 -1      2466 6.29596E-01
 -1      2467 4.97983E-01
 -1      2468 5.46842E-01
 -1      2469 5.50974E-01
 -1      2470 4.03657E-01
 -1      2471 4.52557E-01
 -1      2472 4.62388E-01
 -1      2473 3.15974E-01
 -1      2474 3.60621E-01
 -1      2475 3.73927E-01
 -1      2476 2.39540E-01
 -1      2477 2.77866E-01
 -1      2478 2.92783E-01
 -1      2479 1.78717E-01
 -1      2480 2.07400E-01
 -1      2481 2.22536E-01
 -1      2482 1.32340E-01
 -1      2483 1.52632E-01
 -1      2484 1.64313E-01
 -1      2485 9.51697E-02
 -1      2486 1.11851E-01
 -1      2487 1.17740E-01
 -1      2488 6.62289E-02
 -1      2489 7.95557E-02
 -1      2490 8.16370E-02
 -1      2491 4.46063E-02
 -1      2492 5.49925E-02
 -1      2493 5.47866E-02
 -1      2494 3.02660E-02
 -1      2495 3.81776E-02
 -1      2496 3.71215E-02
 -1      2497 2.16500E-02
 -1      2498 2.58058E-02
 -1      2499 2.62326E-02
 -1      2500 1.65777E-02
 -1      2501 1.90527E-02
 -1      2502 1.91750E-02
 -1      2503 1.16260E-02
 -1      2504 1.41019E-02
 -1      2505 1.41019E-02
 -1      2506 7.21884E-03
 -1      2507 9.54678E-03
 -1      2508 9.54678E-03
 -1      2509 5.50237E-03
 -1      2510 3.90718E-03
 -1      2511 3.93785E-03
 -1      2512 5.01325E-03
 -1      2513 4.63537E-03
 -1      2514 5.46723E-03
 -1      2515 3.90196E-03
 -1      2516 3.90913E-03
 -1      2517 3.86374E-03
 -1      2518 4.17170E-03
 -1      2519 4.32108E-03
 -1      2520 4.66493E-03
 -1      2521 5.11226E-03
 -1      2522 5.11226E-03
 -1      2523 6.29443E-03
 -1      2524 5.11737E-03
 -1      2525 5.12784E-03
 -1      2526 6.40902E-03
 -1      2527 5.11737E-03
 -1      2528 5.11737E-03
 -1      2529 6.42460E-03
 -1      2530 4.63332E-03
 -1      2531 5.01463E-03
 -1      2532 6.32186E-03
 -1      2533 4.00432E-03
 -1      2534 3.88439E-03
 -1      2535 5.47020E-03
 -1      2536 4.56283E-03
 -1      2537 4.30243E-03
 -1      2538 5.01937E-03
 -1      2539 5.08537E-03
 -1      2540 4.56283E-03
 -1      2541 5.31748E-03
 -1      2542 5.91924E-03
 -1      2543 3.16035E+01
 -1      2544 3.08340E+01
 -1      2545 6.18859E-01
 -1      2546 7.01576E-01
 -1      2547 5.43296E-01
 -1      2548 1.48004E+01
 -1      2549 2.11281E+01
 -1      2550 2.20538E+01
 -1      2551 1.58116E+01
 -1      2552 8.99485E+00
 -1      2553 1.22845E+01
 -1      2554 6.47625E+00
 -1      2555 7.75014E+00
 -1      2556 9.50167E+00
 -1      2557 7.17651E+00
 -1      2558 4.91892E-01
 -1      2559 5.19038E-01
 -1      2560 4.51907E-01
 -1      2561 4.13011E-01
 -1      2562 9.83488E+00
 -1      2563 9.52625E+00
 -1      2564 3.08333E+01
 -1      2565 2.44191E+01
 -1      2566 8.99754E+00
 -1      2567 8.51821E+00
 -1      2568 8.25603E+00
 -1      2569 7.36350E+00
 -1      2570 8.57190E+00
 -1      2571 5.58593E+00
 -1      2572 6.15283E+00
 -1      2573 1.60075E+01
 -1      2574 1.12141E+01
 -1      2575 2.03140E+01
 -1      2576 1.88902E+01
 -1      2577 3.72474E+01
 -1      2578 3.72474E+01
 -1      2579 3.08333E+01
 -1      2580 2.68686E+01
 -1      2581 3.20580E+01
 -1      2582 1.85898E+01
 -1      2583 2.17610E+01
 -1      2584 1.14308E+01
 -1      2585 1.56925E+01
 -1      2586 7.20193E+00
 -1      2587 9.42682E+00
 -1      2588 6.55721E+00
 -1      2589 5.90830E+00
 -1      2590 7.69590E+00
 -1      2591 7.46278E+00
 -1      2592 8.73210E+00
 -1      2593 9.00565E+00
 -1      2594 6.29132E+00
 -1      2595 1.34503E+01
 -1      2596 9.68718E+00
 -1      2597 2.72728E+01
 -1      2598 2.98229E+01
 -1      2599 2.50680E+01
 -1      2600 2.45902E+01
 -1      2601 2.50680E+01
 -1      2602 1.62100E+00
 -1      2603 1.26426E+00
 -1      2604 7.80183E-01
 -1      2605 9.41994E-01
 -1      2606 1.55220E+00
 -1      2607 1.70652E+00
 -1      2608 1.28112E+00
 -1      2609 1.13313E+00
 -1      2610 5.87869E+00
 -1      2611 7.16470E+00
 -1      2612 7.52176E+00
 -1      2613 5.09506E-01
 -1      2614 6.46498E-01
 -1      2615 7.11511E-01
 -1      2616 7.01576E-01
 -1      2617 1.20446E+00
 -1      2618 5.12506E+00
 -1      2619 2.32763E+01
 -1      2620 8.45146E+00
 -1      2621 6.83035E+00
 -1      2622 8.33581E+00
 -1      2623 5.16921E+00
 -1      2624 1.65040E+01
 -1      2625 5.75109E-03
 -1      2626 1.67656E+01
 -1      2627 5.61725E-03
 -1      2628 5.55727E+00
 -1      2629 6.98523E-03
 -1      2630 5.91924E-03
 -1      2631 6.15136E-03
 -1      2632 8.63509E-03
 -1      2633 8.85486E+00
 -1      2634 1.37561E+01
 -1      2635 2.57717E+01
 -1      2636 2.50023E+01
 -1      2637 2.32216E+01
 -1      2638 9.48118E-01
 -1      2639 1.12122E+01
 -1      2640 3.20580E+01
 -1      2641 1.18679E+01
 -1      2642 1.95850E+01
 -1      2643 1.54799E+01
 -1      2644 1.95850E+01
 -1      2645 7.81854E+00
 -1      2646 1.33261E+01
 -1      2647 5.42800E+00
 -1      2648 9.35160E+00
 -1      2649 8.52545E+00
 -1      2650 7.61924E+00
 -1      2651 8.73098E+00
 -1      2652 5.40477E+00
 -1      2653 4.23787E+00
 -1      2654 4.64843E+00
 -1      2655 6.86619E+00
 -1      2656 6.47069E+00
 -1      2657 6.91171E-01
 -1      2658 7.60214E-01
 -1      2659 6.50607E-01
 -1      2660 4.89166E-01
 -1      2661 5.04810E+00
 -1      2662 2.17610E+01
 -1      2663 5.75945E-03
 -1      2664 8.12690E-03
 -1      2665 4.06738E-01
 -1      2666 3.85522E-01
 -1      2667 3.68313E-01
 -1      2668 3.49751E-01
 -1      2669 3.21787E-01
 -1      2670 4.40204E-01
 -1      2671 4.36753E-01
 -1      2672 4.93953E-01
 -1      2673 4.38539E-01
 -1      2674 3.61022E-01
 -1      2675 6.47038E-01
 -1      2676 7.39586E-01
 -1      2677 8.56779E+00
 -1      2678 1.10837E+01
 -1      2679 4.67680E+00
 -1      2680 5.65877E+00
 -1      2681 4.96159E-01
 -1      2682 6.08056E-01
 -1      2683 4.41621E-01
 -1      2684 8.13559E-01
 -1      2685 1.66052E+01
 -1      2686 2.06016E+01
 -1      2687 5.91229E-01
 -1      2688 5.39025E-01
 -1      2689 4.09449E-01
 -1      2690 4.35907E-01
 -1      2691 3.56747E-01
 -1      2692 3.23476E-01
 -1      2693 2.84274E-01
 -1      2694 2.33108E-01
 -1      2695 2.54048E-01
 -1      2696 2.16407E-01
 -1      2697 1.69611E-01
 -1      2698 2.46845E-01
 -1      2699 2.55719E-01
 -1      2700 1.69823E-01
 -1      2701 3.18452E-01
 -1      2702 3.75535E-01
 -1      2703 2.62995E-01
 -1      2704 4.52310E-01
 -1      2705 5.39663E-01
 -1      2706 4.02503E-01
 -1      2707 6.29963E-01
 -1      2708 7.19126E-01
 -1      2709 5.69578E-01
 -1      2710 8.22697E-01
 -1      2711 9.05639E-01
 -1      2712 7.63449E-01
 -1      2713 1.02077E+00
 -1      2714 1.08501E+00
 -1      2715 9.82154E-01
 -1      2716 1.20530E+00
 -1      2717 1.29572E+00
 -1      2718 1.21758E+00
 -1      2719 1.42316E+00
 -1      2720 1.53117E+00
 -1      2721 1.46532E+00
 -1      2722 1.76814E+00
 -1      2723 1.85704E+00
 -1      2724 1.82973E+00
 -1      2725 2.24220E+00
 -1      2726 2.42529E+00
 -1      2727 2.45187E+00
 -1      2728 2.17587E+00
 -1      2729 2.21553E+00
 -1      2730 2.58761E+00
 -1      2731 2.86185E+00
 -1      2732 2.93090E+00
 -1      2733 2.98451E+00
 -1      2734 2.38767E+00
 -1      2735 2.57468E+00
 -1      2736 3.08760E+00
 -1      2737 6.26831E+00
 -1      2738 6.00472E+00
 -1      2739 4.04425E+00
 -1      2740 3.28807E+00
 -1      2741 2.55302E+00
 -1      2742 2.29747E+00
 -1      2743 3.30920E+00
 -1      2744 2.32038E+00
 -1      2745 2.31834E+00
 -1      2746 2.59705E+00
 -1      2747 2.40983E+00
 -1      2748 2.26507E+00
 -1      2749 2.71145E+00
 -1      2750 2.09099E+00
 -1      2751 2.04660E+00
 -1      2752 2.62887E+00
 -1      2753 1.80295E+00
 -1      2754 1.69936E+00
 -1      2755 2.21114E+00
 -1      2756 1.48583E+00
 -1      2757 1.37314E+00
 -1      2758 1.75396E+00
 -1      2759 1.26713E+00
 -1      2760 1.22480E+00
 -1      2761 1.43441E+00
 -1      2762 1.12164E+00
 -1      2763 1.05979E+00
 -1      2764 1.22523E+00
 -1      2765 9.60650E-01
 -1      2766 8.84071E-01
 -1      2767 1.02293E+00
 -1      2768 7.95266E-01
 -1      2769 7.17997E-01
 -1      2770 8.34983E-01
 -1      2771 6.41429E-01
 -1      2772 5.72969E-01
 -1      2773 6.69610E-01
 -1      2774 5.08547E-01
 -1      2775 4.50155E-01
 -1      2776 5.28620E-01
 -1      2777 3.96984E-01
 -1      2778 3.47426E-01
 -1      2779 4.11027E-01
 -1      2780 3.04293E-01
 -1      2781 2.63449E-01
 -1      2782 3.14723E-01
 -1      2783 2.29031E-01
 -1      2784 1.96188E-01
 -1      2785 2.37171E-01
 -1      2786 1.69168E-01
 -1      2787 1.43328E-01
 -1      2788 1.75734E-01
 -1      2789 1.22462E-01
 -1      2790 1.02545E-01
 -1      2791 1.27848E-01
 -1      2792 8.67112E-02
 -1      2793 7.16730E-02
 -1      2794 9.11480E-02
 -1      2795 5.98878E-02
 -1      2796 4.87826E-02
 -1      2797 6.35291E-02
 -1      2798 4.02005E-02
 -1      2799 3.22083E-02
 -1      2800 4.31617E-02
 -1      2801 2.61234E-02
 -1      2802 2.06032E-02
 -1      2803 2.84947E-02
 -1      2804 1.64455E-02
 -1      2805 1.36793E-02
 -1      2806 1.82521E-02
 -1      2807 1.11817E-02
 -1      2808 9.18386E-03
 -1      2809 1.15968E-02
 -1      2810 6.12255E+00
 -1      2811 8.12650E+00
 -1      2812 4.04957E+00
 -1      2813 5.34321E+00
 -1      2814 3.24406E-01
 -1      2815 3.68090E-01
 -1      2816 3.88554E-01
 -1      2817 3.67252E-01
 -1      2818 5.03254E-01
 -1      2819 4.49260E-01
 -1      2820 4.19231E-01
 -1      2821 6.04981E-01
 -1      2822 5.59261E-01
 -1      2823 5.35945E-01
 -1      2824 6.88978E-01
 -1      2825 6.49635E-01
 -1      2826 6.36607E-01
 -1      2827 7.86439E-01
 -1      2828 7.65410E-01
 -1      2829 7.57692E-01
 -1      2830 8.48860E-01
 -1      2831 8.55124E-01
 -1      2832 9.02809E-01
 -1      2833 9.33326E-01
 -1      2834 8.90128E-01
 -1      2835 1.01276E+00
 -1      2836 1.10165E+00
 -1      2837 1.05869E+00
 -1      2838 1.17940E+00
 -1      2839 1.38691E+00
 -1      2840 1.25475E+00
 -1      2841 1.45786E+00
 -1      2842 1.56175E+00
 -1      2843 1.41615E+00
 -1      2844 1.64020E+00
 -1      2845 2.10212E+00
 -1      2846 1.96616E+00
 -1      2847 2.07385E+00
 -1      2848 2.15712E+00
 -1      2849 2.04061E+00
 -1      2850 2.41674E+00
 -1      2851 3.31106E+00
 -1      2852 3.26612E+00
 -1      2853 3.46424E+00
 -1      2854 2.38669E+00
 -1      2855 2.50019E+00
 -1      2856 3.76237E+00
 -1      2857 1.67184E+00
 -1      2858 1.82188E+00
 -1      2859 2.38669E+00
 -1      2860 1.42791E+00
 -1      2861 1.57107E+00
 -1      2862 1.72111E+00
 -1      2863 1.16652E+00
 -1      2864 1.32830E+00
 -1      2865 1.52072E+00
 -1      2866 1.13178E+00
 -1      2867 1.16400E+00
 -1      2868 1.41859E+00
 -1      2869 9.17760E-01
 -1      2870 9.75139E-01
 -1      2871 1.25943E+00
 -1      2872 8.98249E-01
 -1      2873 8.64329E-01
 -1      2874 1.04936E+00
 -1      2875 8.38926E-01
 -1      2876 8.47298E-01
 -1      2877 9.44980E-01
 -1      2878 7.52630E-01
 -1      2879 7.83823E-01
 -1      2880 8.38926E-01
 -1      2881 6.91935E-01
 -1      2882 7.20124E-01
 -1      2883 7.51318E-01
 -1      2884 6.13973E-01
 -1      2885 6.49435E-01
 -1      2886 6.76312E-01
 -1      2887 5.20857E-01
 -1      2888 5.64017E-01
 -1      2889 5.83857E-01
 -1      2890 4.25353E-01
 -1      2891 4.70779E-01
 -1      2892 4.83822E-01
 -1      2893 3.36938E-01
 -1      2894 3.79973E-01
 -1      2895 3.88364E-01
 -1      2896 2.60350E-01
 -1      2897 2.98458E-01
 -1      2898 3.04505E-01
 -1      2899 1.97236E-01
 -1      2900 2.29375E-01
 -1      2901 2.35050E-01
 -1      2902 1.45664E-01
 -1      2903 1.71748E-01
 -1      2904 1.78587E-01
 -1      2905 1.04757E-01
 -1      2906 1.25246E-01
 -1      2907 1.32681E-01
 -1      2908 7.31858E-02
 -1      2909 8.87998E-02
 -1      2910 9.63060E-02
 -1      2911 4.97765E-02
 -1      2912 6.10128E-02
 -1      2913 6.81756E-02
 -1      2914 3.42945E-02
 -1      2915 4.07233E-02
 -1      2916 4.69495E-02
 -1      2917 2.32861E-02
 -1      2918 2.77463E-02
 -1      2919 3.13481E-02
 -1      2920 1.61130E-02
 -1      2921 1.87103E-02
 -1      2922 2.02240E-02
 -1      2923 1.09010E-02
 -1      2924 1.33768E-02
 -1      2925 1.29121E-02
 -1      2926 7.46756E-03
 -1      2927 9.54678E-03
 -1      2928 8.82175E-03
 -1      2929 5.75945E-03
 -1      2930 1.59862E+01
 -1      2931 1.34497E+01
 -1      2932 8.24907E-03
 -1      2933 8.23349E-03
 -1      2934 6.97239E-03
 -1      2935 5.83072E-03
 -1      2936 4.99685E-03
 -1      2937 6.88768E-03
 -1      2938 7.67985E-03
 -1      2939 6.95165E-03
 -1      2940 8.28727E-03
 -1      2941 8.28727E-03
 -1      2942 1.01117E-02
 -1      2943 8.23349E-03
 -1      2944 8.13448E-03
 -1      2945 9.61890E-03
 -1      2946 1.00735E-02
 -1      2947 8.18453E-03
 -1      2948 8.28727E-03
 -1      2949 1.01499E-02
 -1      2950 6.96985E-03
 -1      2951 7.71878E-03
 -1      2952 9.68418E-03
 -1      2953 6.65734E-03
 -1      2954 6.35923E-03
 -1      2955 8.60782E-03
 -1      2956 4.01076E-01
 -1      2957 4.47460E-01
 -1      2958 3.53939E-01
 -1      2959 2.72254E-01
 -1      2960 2.15684E+01
 -1      2961 2.67578E+01
 -1      2962 2.17132E+01
 -1      2963 1.59472E+01
 -1      2964 4.69693E+00
 -1      2965 3.79136E+00
 -1      2966 7.21108E+00
 -1      2967 6.68236E+00
 -1      2968 3.07677E-01
 -1      2969 2.82417E-01
 -1      2970 2.98950E-01
 -1      2971 2.51369E-01
 -1      2972 2.93412E-01
 -1      2973 2.08327E-01
 -1      2974 5.33285E-01
 -1      2975 4.72013E-01
 -1      2976 3.02486E-01
 -1      2977 3.44332E-01
 -1      2978 4.36753E-01
 -1      2979 4.18584E-01
 -1      2980 3.50842E-01
 -1      2981 3.62687E-01
 -1      2982 1.13447E+01
 -1      2983 8.98341E+00
 -1      2984 4.11540E+00
 -1      2985 4.02638E+00
 -1      2986 4.15924E-01
 -1      2987 4.34320E-01
 -1      2988 3.59997E+00
 -1      2989 4.81064E+00
 -1      2990 8.12582E+00
 -1      2991 6.43775E+00
 -1      2992 1.53697E+01
 -1      2993 2.04773E+01
 -1      2994 5.79673E+00
 -1      2995 4.20615E+00
 -1      2996 1.38043E+01
 -1      2997 1.09215E+01
 -1      2998 5.23620E+00
 -1      2999 7.06635E+00
 -1      3000 2.55541E+01
 -1      3001 1.91399E+01
 -1      3002 1.07678E+01
 -1      3003 1.36651E+01
 -1      3004 1.26952E+01
 -1      3005 1.54710E+01
 -1      3006 8.83549E+00
 -1      3007 7.12308E+00
 -1      3008 6.18160E+00
 -1      3009 4.92498E+00
 -1      3010 5.64823E+00
 -1      3011 6.91121E+00
 -1      3012 4.34320E-01
 -1      3013 4.34320E-01
 -1      3014 3.59133E-01
 -1      3015 3.03646E-01
 -1      3016 3.48819E-01
 -1      3017 3.66907E-01
 -1      3018 5.54576E-01
 -1      3019 1.00507E+01
 -1      3020 6.00472E+00
 -1      3021 5.18910E+00
 -1      3022 4.57855E+00
 -1      3023 3.74097E+00
 -1      3024 5.13665E+00
 -1      3025 9.31364E+00
 -1      3026 7.77555E+00
 -1      3027 1.27963E+01
 -1      3028 7.60263E+00
 -1      3029 8.10066E+00
 -1      3030 8.00966E+00
 -1      3031 5.36835E+00
 -1      3032 3.97057E+00
 -1      3033 4.95379E+00
 -1      3034 8.23908E-03
 -1      3035 6.02647E-03
 -1      3036 5.95236E-03
 -1      3037 4.61484E+00
 -1      3038 1.50644E+01
 -1      3039 2.08273E-01
 -1      3040 1.26313E+01
 -1      3041 4.22654E+00
 -1      3042 5.15771E-03
 -1      3043 4.88798E-03
 -1      3044 6.59609E-03
 -1      3045 6.51925E-03
 -1      3046 5.70547E+00
 -1      3047 4.32762E+00
 -1      3048 1.30753E+01
 -1      3049 5.90124E+00
 -1      3050 1.05652E+01
 -1      3051 6.62626E-03
 -1      3052 6.62626E-03
 -1      3053 1.23814E+01
 -1      3054 2.05217E+01
 -1      3055 1.14009E+01
 -1      3056 1.46900E+01
 -1      3057 3.96870E+00
 -1      3058 1.65505E+01
 -1      3059 5.33755E+00
 -1      3060 1.71095E+01
 -1      3061 1.22754E+01
 -1      3062 1.18303E+01
 -1      3063 3.57729E+00
 -1      3064 4.19980E-01
 -1      3065 4.95571E+00
 -1      3066 3.83673E-01
 -1      3067 4.04480E-01
 -1      3068 3.47689E-01
 -1      3069 3.19480E-01
 -1      3070 3.82631E+00
 -1      3071 1.51771E+01
 -1      3072 6.93780E+00
 -1      3073 3.60532E+00
 -1      3074 7.96612E-03
 -1      3075 6.46103E+00
 -1      3076 7.82057E+00
 -1      3077 9.43206E+00
 -1      3078 3.10864E-01
 -1      3079 3.12529E-01
 -1      3080 3.94026E+00
 -1      3081 1.90070E-01
 -1      3082 1.59844E-01
 -1      3083 1.84377E-01
 -1      3084 2.14816E-01
 -1      3085 2.04836E-01
 -1      3086 2.56128E-01
 -1      3087 3.18861E-01
 -1      3088 2.70682E-01
 -1      3089 3.76262E-01
 -1      3090 4.53036E-01
 -1      3091 3.69395E-01
 -1      3092 5.27170E-01
 -1      3093 6.17470E-01
 -1      3094 5.00929E-01
 -1      3095 7.13847E-01
 -1      3096 8.17418E-01
 -1      3097 6.71439E-01
 -1      3098 9.42068E-01
 -1      3099 1.05720E+00
 -1      3100 8.92466E-01
 -1      3101 1.22424E+00
 -1      3102 1.34453E+00
 -1      3103 1.18415E+00
 -1      3104 1.59211E+00
 -1      3105 1.71955E+00
 -1      3106 1.59876E+00
 -1      3107 2.05853E+00
 -1      3108 2.29551E+00
 -1      3109 2.18532E+00
 -1      3110 3.06953E+00
 -1      3111 3.45469E+00
 -1      3112 3.29833E+00
 -1      3113 3.06235E+00
 -1      3114 3.70867E+00
 -1      3115 6.65067E+00
 -1      3116 4.49770E+00
 -1      3117 4.58920E+00
 -1      3118 3.40312E+00
 -1      3119 3.22904E+00
 -1      3120 5.18937E+00
 -1      3121 2.63404E+00
 -1      3122 2.39039E+00
 -1      3123 3.40828E+00
 -1      3124 2.11614E+00
 -1      3125 1.90261E+00
 -1      3126 2.53903E+00
 -1      3127 1.64308E+00
 -1      3128 1.53706E+00
 -1      3129 2.00526E+00
 -1      3130 1.32646E+00
 -1      3131 1.22330E+00
 -1      3132 1.53513E+00
 -1      3133 1.07127E+00
 -1      3134 9.72136E-01
 -1      3135 1.17251E+00
 -1      3136 8.64282E-01
 -1      3137 7.75477E-01
 -1      3138 9.12630E-01
 -1      3139 6.97880E-01
 -1      3140 6.21311E-01
 -1      3141 7.27179E-01
 -1      3142 5.52059E-01
 -1      3143 4.87637E-01
 -1      3144 5.80329E-01
 -1      3145 4.28860E-01
 -1      3146 3.75690E-01
 -1      3147 4.52300E-01
 -1      3148 3.27417E-01
 -1      3149 2.84284E-01
 -1      3150 3.45251E-01
 -1      3151 2.45633E-01
 -1      3152 2.11215E-01
 -1      3153 2.58328E-01
 -1      3154 1.80940E-01
 -1      3155 1.53920E-01
 -1      3156 1.89401E-01
 -1      3157 1.31285E-01
 -1      3158 1.10419E-01
 -1      3159 1.36491E-01
 -1      3160 9.37588E-02
 -1      3161 7.79250E-02
 -1      3162 9.71958E-02
 -1      3163 6.60288E-02
 -1      3164 5.42437E-02
 -1      3165 6.86396E-02
 -1      3166 4.56998E-02
 -1      3167 3.71177E-02
 -1      3168 4.81996E-02
 -1      3169 3.08572E-02
 -1      3170 2.47723E-02
 -1      3171 3.33953E-02
 -1      3172 2.02572E-02
 -1      3173 1.60995E-02
 -1      3174 2.26198E-02
 -1      3175 1.31968E+01
 -1      3176 1.19931E+01
 -1      3177 1.68276E-01
 -1      3178 1.99270E-01
 -1      3179 4.50175E-01
 -1      3180 3.89469E-01
 -1      3181 8.54971E-01
 -1      3182 7.78539E-01
 -1      3183 1.03323E+00
 -1      3184 9.64541E-01
 -1      3185 9.85388E-01
 -1      3186 1.23181E+00
 -1      3187 1.19054E+00
 -1      3188 1.25227E+00
 -1      3189 1.48134E+00
 -1      3190 1.35597E+00
 -1      3191 1.53375E+00
 -1      3192 1.69447E+00
 -1      3193 1.54137E+00
 -1      3194 1.71794E+00
 -1      3195 2.15619E+00
 -1      3196 2.12695E+00
 -1      3197 2.21046E+00
 -1      3198 2.18506E+00
 -1      3199 1.78065E+00
 -1      3200 2.26740E+00
 -1      3201 3.23733E+00
 -1      3202 3.29884E+00
 -1      3203 4.34633E+00
 -1      3204 4.29446E+00
 -1      3205 5.10532E+00
 -1      3206 1.62034E+00
 -1      3207 1.72111E+00
 -1      3208 1.74043E+00
 -1      3209 1.84005E+00
 -1      3210 1.84005E+00
 -1      3211 1.57754E+00
 -1      3212 1.58006E+00
 -1      3213 1.89938E+00
 -1      3214 1.40966E+00
 -1      3215 1.56629E+00
 -1      3216 1.72776E+00
 -1      3217 1.25736E+00
 -1      3218 1.31079E+00
 -1      3219 1.61766E+00
 -1      3220 1.07227E+00
 -1      3221 1.12322E+00
 -1      3222 1.38465E+00
 -1      3223 8.92089E-01
 -1      3224 9.47192E-01
 -1      3225 1.12544E+00
 -1      3226 7.88352E-01
 -1      3227 8.20858E-01
 -1      3228 9.29124E-01
 -1      3229 6.78033E-01
 -1      3230 7.20532E-01
 -1      3231 7.90073E-01
 -1      3232 5.65514E-01
 -1      3233 6.15470E-01
 -1      3234 6.59690E-01
 -1      3235 4.57883E-01
 -1      3236 5.07962E-01
 -1      3237 5.39575E-01
 -1      3238 3.61779E-01
 -1      3239 4.07159E-01
 -1      3240 4.31298E-01
 -1      3241 2.81727E-01
 -1      3242 3.20207E-01
 -1      3243 3.39001E-01
 -1      3244 2.16505E-01
 -1      3245 2.47480E-01
 -1      3246 2.63182E-01
 -1      3247 1.63260E-01
 -1      3248 1.88748E-01
 -1      3249 2.01178E-01
 -1      3250 1.20707E-01
 -1      3251 1.41124E-01
 -1      3252 1.51285E-01
 -1      3253 8.73909E-02
 -1      3254 1.03348E-01
 -1      3255 1.11791E-01
 -1      3256 6.18417E-02
 -1      3257 7.40147E-02
 -1      3258 8.10570E-02
 -1      3259 4.26827E-02
 -1      3260 5.17359E-02
 -1      3261 5.75750E-02
 -1      3262 2.86672E-02
 -1      3263 3.52155E-02
 -1      3264 4.00019E-02
 -1      3265 1.87293E-02
 -1      3266 2.33051E-02
 -1      3267 2.71725E-02
 -1      3268 1.21375E-02
 -1      3269 1.48737E-02
 -1      3270 1.79548E-02
 -1      3271 8.00531E-03
 -1      3272 9.35950E-03
 -1      3273 1.13211E-02
 -1      3274 7.13383E-03
 -1      3275 1.25669E-02
 -1      3276 1.25669E-02
 -1      3277 1.21012E-02
 -1      3278 1.25669E-02
 -1      3279 1.49839E-02
 -1      3280 1.24676E-02
 -1      3281 1.24294E-02
 -1      3282 1.48846E-02
 -1      3283 1.20299E+01
 -1      3284 1.03543E+01
 -1      3285 9.27902E+00
 -1      3286 1.09836E+01
 -1      3287 3.27283E-01
 -1      3288 2.67708E-01
 -1      3289 3.58226E-01
 -1      3290 7.00078E-01
 -1      3291 6.55424E-01
 -1      3292 7.97357E-01
 -1      3293 5.77609E-01
 -1      3294 5.21601E-01
 -1      3295 4.91838E-01
 -1      3296 6.41080E-01
 -1      3297 3.09152E+00
 -1      3298 4.30134E+00
 -1      3299 1.08917E+01
 -1      3300 1.09306E+01
 -1      3301 3.60249E-01
 -1      3302 2.99627E-01
 -1      3303 2.51134E-01
 -1      3304 3.21267E-01
 -1      3305 2.87027E+00
 -1      3306 9.63799E+00
 -1      3307 7.55194E+00
 -1      3308 1.05642E+01
 -1      3309 1.16984E+01
 -1      3310 2.54548E-01
 -1      3311 2.21277E-01
 -1      3312 2.11510E-01
 -1      3313 3.81100E+00
 -1      3314 4.59034E+00
 -1      3315 2.26156E-01
 -1      3316 1.95107E-01
 -1      3317 2.54488E-01
 -1      3318 4.09524E-01
 -1      3319 3.89184E-01
 -1      3320 3.29807E-01
 -1      3321 3.34337E-01
 -1      3322 3.42638E+00
 -1      3323 2.61679E+00
 -1      3324 5.33228E+00
 -1      3325 6.83371E+00
 -1      3326 1.20699E+01
 -1      3327 1.46900E+01
 -1      3328 4.65959E+00
 -1      3329 3.52657E+00
 -1      3330 2.92038E+00
 -1      3331 7.41784E+00
 -1      3332 6.56024E+00
 -1      3333 1.15163E-02
 -1      3334 1.21270E-02
 -1      3335 1.50097E-02
 -1      3336 9.76981E+00
 -1      3337 7.66482E+00
 -1      3338 1.23062E+01
 -1      3339 1.33973E+01
 -1      3340 1.03260E+01
 -1      3341 6.13204E+00
 -1      3342 4.80569E+00
 -1      3343 2.96146E-01
 -1      3344 2.78937E-01
 -1      3345 2.96274E+00
 -1      3346 4.30569E+00
 -1      3347 3.80493E+00
 -1      3348 2.39793E+00
 -1      3349 4.68249E+00
 -1      3350 2.64104E-01
 -1      3351 2.63172E-01
 -1      3352 2.38463E-01
 -1      3353 3.21907E-01
 -1      3354 3.21907E-01
 -1      3355 2.66744E-01
 -1      3356 3.16902E-01
 -1      3357 3.16902E-01
 -1      3358 3.29884E+00
 -1      3359 2.59542E+00
 -1      3360 1.09919E-02
 -1      3361 1.00667E-02
 -1      3362 3.16902E-01
 -1      3363 3.05056E-01
 -1      3364 2.62206E-01
 -1      3365 2.71116E-01
 -1      3366 4.56451E+00
 -1      3367 3.02319E-01
 -1      3368 3.13763E-01
 -1      3369 2.76537E-01
 -1      3370 4.70743E+00
 -1      3371 4.08977E+00
 -1      3372 3.73317E+00
 -1      3373 3.84035E+00
 -1      3374 3.18994E+00
 -1      3375 8.96982E+00
 -1      3376 1.08374E+01
 -1      3377 8.80703E+00
 -1      3378 3.75738E+00
 -1      3379 1.45649E-02
 -1      3380 1.20673E-02
 -1      3381 1.46600E-01
 -1      3382 1.86598E-01
 -1      3383 2.19584E-01
 -1      3384 4.19726E+00
 -1      3385 4.80546E+00
 -1      3386 2.29716E+00
 -1      3387 1.47864E-02
 -1      3388 1.24305E-02
 -1      3389 1.24305E-02
 -1      3390 6.62243E+00
 -1      3391 8.33407E+00
 -1      3392 1.24305E-02
 -1      3393 1.19759E-02
 -1      3394 1.38035E-02
 -1      3395 1.47876E-02
 -1      3396 6.30562E-03
 -1      3397 9.55446E+00
 -1      3398 8.51709E-03
 -1      3399 1.14853E-02
 -1      3400 2.93173E+00
 -1      3401 1.65701E-02
 -1      3402 9.20382E+00
 -1      3403 2.35161E-01
 -1      3404 2.83861E-01
 -1      3405 2.02489E-01
 -1      3406 1.49505E-01
 -1      3407 2.97112E-01
 -1      3408 3.17377E-01
 -1      3409 3.11637E-01
 -1      3410 1.02094E+01
 -1      3411 1.15163E-02
 -1      3412 1.50355E-02
 -1      3413 1.05132E+01
 -1      3414 8.65269E+00
 -1      3415 8.28112E+00
 -1      3416 9.88831E+00
 -1      3417 8.18767E+00
 -1      3418 8.69681E+00
 -1      3419 8.03024E+00
 -1      3420 8.59264E+00
 -1      3421 2.75531E-01
 -1      3422 1.86104E-01
 -1      3423 2.69159E+00
 -1      3424 2.63699E-01
 -1      3425 6.21505E+00
 -1      3426 6.45639E+00
 -1      3427 1.91860E+00
 -1      3428 2.65241E-01
 -1      3429 3.06553E-01
 -1      3430 3.57264E-01
 -1      3431 4.14664E-01
 -1      3432 3.51822E-01
 -1      3433 4.96030E-01
 -1      3434 5.70164E-01
 -1      3435 4.83899E-01
 -1      3436 6.71439E-01
 -1      3437 7.67816E-01
 -1      3438 6.66540E-01
 -1      3439 8.92466E-01
 -1      3440 1.01712E+00
 -1      3441 8.92466E-01
 -1      3442 1.16966E+00
 -1      3443 1.33670E+00
 -1      3444 1.16966E+00
 -1      3445 1.56760E+00
 -1      3446 1.81518E+00
 -1      3447 1.55311E+00
 -1      3448 2.23736E+00
 -1      3449 2.57634E+00
 -1      3450 2.20620E+00
 -1      3451 2.89502E+00
 -1      3452 3.66904E+00
 -1      3453 2.94706E+00
 -1      3454 2.23393E+00
 -1      3455 2.53219E+00
 -1      3456 3.00692E+00
 -1      3457 2.45364E+00
 -1      3458 6.98825E+00
 -1      3459 8.31084E+00
 -1      3460 3.88965E+00
 -1      3461 3.29464E+00
 -1      3462 2.81328E+00
 -1      3463 2.53903E+00
 -1      3464 3.29464E+00
 -1      3465 2.31186E+00
 -1      3466 2.05233E+00
 -1      3467 2.58610E+00
 -1      3468 1.71368E+00
 -1      3469 1.50308E+00
 -1      3470 2.02028E+00
 -1      3471 1.30316E+00
 -1      3472 1.15113E+00
 -1      3473 1.48171E+00
 -1      3474 1.02039E+00
 -1      3475 9.12541E-01
 -1      3476 1.15104E+00
 -1      3477 8.03795E-01
 -1      3478 7.26197E-01
 -1      3479 9.11559E-01
 -1      3480 6.37537E-01
 -1      3481 5.68284E-01
 -1      3482 7.14153E-01
 -1      3483 4.96883E-01
 -1      3484 4.38106E-01
 -1      3485 5.54091E-01
 -1      3486 3.80949E-01
 -1      3487 3.32677E-01
 -1      3488 4.25532E-01
 -1      3489 2.87284E-01
 -1      3490 2.48632E-01
 -1      3491 3.22981E-01
 -1      3492 2.12954E-01
 -1      3493 1.82679E-01
 -1      3494 2.41910E-01
 -1      3495 1.54934E-01
 -1      3496 1.32299E-01
 -1      3497 1.78487E-01
 -1      3498 1.10998E-01
 -1      3499 9.43377E-02
 -1      3500 1.29441E-01
 -1      3501 7.82082E-02
 -1      3502 6.63121E-02
 -1      3503 9.20101E-02
 -1      3504 5.47220E-02
 -1      3505 4.61782E-02
 -1      3506 6.42906E-02
 -1      3507 3.77949E-02
 -1      3508 3.15344E-02
 -1      3509 4.43172E-02
 -1      3510 2.54855E-02
 -1      3511 2.09704E-02
 -1      3512 2.98851E-02
 -1      3513 2.24562E-01
 -1      3514 1.97731E-01
 -1      3515 1.15643E+00
 -1      3516 1.04686E+00
 -1      3517 2.55291E+00
 -1      3518 2.49288E+00
 -1      3519 2.47825E+00
 -1      3520 2.18506E+00
 -1      3521 1.88072E+00
 -1      3522 1.97958E+00
 -1      3523 1.47003E+00
 -1      3524 1.60417E+00
 -1      3525 1.96610E+00
 -1      3526 1.19526E+00
 -1      3527 1.32034E+00
 -1      3528 1.53986E+00
 -1      3529 9.76856E-01
 -1      3530 1.04809E+00
 -1      3531 1.24299E+00
 -1      3532 7.84188E-01
 -1      3533 8.52008E-01
 -1      3534 9.70971E-01
 -1      3535 6.30531E-01
 -1      3536 6.93093E-01
 -1      3537 7.55029E-01
 -1      3538 5.08116E-01
 -1      3539 5.65668E-01
 -1      3540 5.99072E-01
 -1      3541 4.08555E-01
 -1      3542 4.59280E-01
 -1      3543 4.85373E-01
 -1      3544 3.23544E-01
 -1      3545 3.65116E-01
 -1      3546 3.93098E-01
 -1      3547 2.51133E-01
 -1      3548 2.85380E-01
 -1      3549 3.11494E-01
 -1      3550 1.91162E-01
 -1      3551 2.18919E-01
 -1      3552 2.41117E-01
 -1      3553 1.42628E-01
 -1      3554 1.64764E-01
 -1      3555 1.82505E-01
 -1      3556 1.04204E-01
 -1      3557 1.21562E-01
 -1      3558 1.35040E-01
 -1      3559 7.44079E-02
 -1      3560 8.77841E-02
 -1      3561 9.75547E-02
 -1      3562 5.22851E-02
 -1      3563 6.23909E-02
 -1      3564 6.91181E-02
 -1      3565 3.58947E-02
 -1      3566 4.33620E-02
 -1      3567 4.81779E-02
 -1      3568 2.39092E-02
 -1      3569 2.92713E-02
 -1      3570 3.26314E-02
 -1      3571 1.64528E-02
 -1      3572 2.03084E-02
 -1      3573 2.24072E-02
 -1      3574 8.30857E-03
 -1      3575 7.51393E-03
 -1      3576 8.92315E-03
 -1      3577 1.10614E-02
 -1      3578 1.86691E-02
 -1      3579 1.86691E-02
 -1      3580 1.86691E-02
 -1      3581 1.85698E-02
 -1      3582 2.23542E-02
 -1      3583 5.43635E+00
 -1      3584 8.80703E+00
 -1      3585 8.56156E+00
 -1      3586 3.53269E+00
 -1      3587 4.56363E+00
 -1      3588 3.37329E+00
 -1      3589 4.94258E+00
 -1      3590 7.60972E+00
 -1      3591 6.40018E+00
 -1      3592 7.53234E+00
 -1      3593 8.97525E-01
 -1      3594 8.19064E-01
 -1      3595 1.06856E+00
 -1      3596 3.01009E-01
 -1      3597 2.59457E-01
 -1      3598 2.71084E-01
 -1      3599 3.21907E-01
 -1      3600 2.29884E-01
 -1      3601 2.41121E-01
 -1      3602 1.92477E-01
 -1      3603 4.68297E+00
 -1      3604 5.66983E+00
 -1      3605 4.01840E+00
 -1      3606 2.16037E-01
 -1      3607 1.84831E-01
 -1      3608 4.09327E-01
 -1      3609 3.47141E-01
 -1      3610 3.52110E-01
 -1      3611 6.21193E+00
 -1      3612 8.71116E+00
 -1      3613 8.71116E+00
 -1      3614 1.91511E+00
 -1      3615 1.79095E+00
 -1      3616 2.75007E+00
 -1      3617 1.45248E+00
 -1      3618 1.29517E+00
 -1      3619 1.35663E+00
 -1      3620 1.83384E+00
 -1      3621 1.65701E-02
 -1      3622 2.76199E-01
 -1      3623 2.92964E-01
 -1      3624 2.59038E-01
 -1      3625 2.06984E-01
 -1      3626 2.31517E-01
 -1      3627 2.67388E-01
 -1      3628 7.23530E+00
 -1      3629 6.07445E+00
 -1      3630 1.74913E-02
 -1      3631 1.74655E-02
 -1      3632 2.11507E-02
 -1      3633 8.33579E+00
 -1      3634 7.61944E+00
 -1      3635 8.09939E+00
 -1      3636 7.89894E+00
 -1      3637 2.84681E-01
 -1      3638 6.66892E+00
 -1      3639 5.24903E+00
 -1      3640 2.63699E-01
 -1      3641 4.30749E+00
 -1      3642 5.97679E+00
 -1      3643 5.08381E+00
 -1      3644 2.63699E-01
 -1      3645 2.42716E-01
 -1      3646 2.16037E-01
 -1      3647 2.55555E-01
 -1      3648 2.25339E-01
 -1      3649 2.16429E-01
 -1      3650 1.69123E-01
 -1      3651 2.05990E-01
 -1      3652 1.91157E-01
 -1      3653 3.46418E+00
 -1      3654 7.81413E+00
 -1      3655 7.21295E+00
 -1      3656 8.71116E+00
 -1      3657 7.19860E+00
 -1      3658 2.05976E+00
 -1      3659 2.45364E+00
 -1      3660 2.97941E+00
 -1      3661 1.89938E+00
 -1      3662 8.04942E+00
 -1      3663 6.89373E+00
 -1      3664 5.82285E+00
 -1      3665 1.74152E-01
 -1      3666 1.61480E-01
 -1      3667 2.12610E-01
 -1      3668 2.36657E-01
 -1      3669 4.05225E+00
 -1      3670 3.83972E+00
 -1      3671 5.48283E-01
 -1      3672 4.76857E-01
 -1      3673 4.65772E-01
 -1      3674 3.61977E+00
 -1      3675 2.17433E-02
 -1      3676 2.17444E-02
 -1      3677 2.55277E-02
 -1      3678 2.45494E-01
 -1      3679 5.88382E+00
 -1      3680 1.58129E-02
 -1      3681 1.40548E-02
 -1      3682 1.17012E-02
 -1      3683 6.41207E+00
 -1      3684 4.86810E+00
 -1      3685 2.11511E-01
 -1      3686 7.72443E+00
 -1      3687 6.53932E+00
 -1      3688 5.79054E+00
 -1      3689 6.80841E+00
 -1      3690 8.36509E+00
 -1      3691 6.86687E+00
 -1      3692 8.04554E-01
 -1      3693 7.04386E-01
 -1      3694 6.26570E-01
 -1      3695 4.39470E+00
 -1      3696 1.94358E-02
 -1      3697 2.28982E+00
 -1      3698 2.30106E+00
 -1      3699 7.58836E+00
 -1      3700 7.13476E+00
 -1      3701 5.17897E+00
 -1      3702 6.13134E+00
 -1      3703 2.18916E-02
 -1      3704 2.55133E-02
 -1      3705 2.45292E-02
 -1      3706 2.75227E-02
 -1      3707 3.66904E+00
 -1      3708 4.07235E+00
 -1      3709 2.46144E+00
 -1      3710 2.55289E+00
 -1      3711 2.47157E-01
 -1      3712 2.47157E-01
 -1      3713 2.01380E-01
 -1      3714 4.52775E+00
 -1      3715 5.32270E+00
 -1      3716 2.47173E-01
 -1      3717 2.80897E-01
 -1      3718 4.30749E+00
 -1      3719 4.46114E-01
 -1      3720 5.27479E-01
 -1      3721 6.21174E-01
 -1      3722 7.22449E-01
 -1      3723 5.83388E-01
 -1      3724 8.48587E-01
 -1      3725 9.73237E-01
 -1      3726 8.03220E-01
 -1      3727 1.14937E+00
 -1      3728 1.30191E+00
 -1      3729 1.10549E+00
 -1      3730 1.55311E+00
 -1      3731 1.78402E+00
 -1      3732 1.53282E+00
 -1      3733 2.60657E+00
 -1      3734 3.02875E+00
 -1      3735 2.60657E+00
 -1      3736 2.95375E+00
 -1      3737 3.27243E+00
 -1      3738 3.35412E+00
 -1      3739 1.90031E-01
 -1      3740 2.03058E-01
 -1      3741 1.57558E-01
 -1      3742 2.72092E+00
 -1      3743 2.49375E+00
 -1      3744 2.33275E+00
 -1      3745 1.99410E+00
 -1      3746 2.46757E+00
 -1      3747 1.68163E+00
 -1      3748 1.48171E+00
 -1      3749 1.99410E+00
 -1      3750 1.26111E+00
 -1      3751 1.13037E+00
 -1      3752 1.46104E+00
 -1      3753 9.75379E-01
 -1      3754 8.66633E-01
 -1      3755 1.08545E+00
 -1      3756 7.53890E-01
 -1      3757 6.65230E-01
 -1      3758 8.17710E-01
 -1      3759 5.81683E-01
 -1      3760 5.10282E-01
 -1      3761 6.21420E-01
 -1      3762 4.46358E-01
 -1      3763 3.89200E-01
 -1      3764 4.73950E-01
 -1      3765 3.39714E-01
 -1      3766 2.94321E-01
 -1      3767 3.60539E-01
 -1      3768 2.55901E-01
 -1      3769 2.20223E-01
 -1      3770 2.72633E-01
 -1      3771 1.90315E-01
 -1      3772 1.62569E-01
 -1      3773 2.04305E-01
 -1      3774 1.39371E-01
 -1      3775 1.18070E-01
 -1      3776 1.51199E-01
 -1      3777 1.00254E-01
 -1      3778 8.41241E-02
 -1      3779 1.10184E-01
 -1      3780 7.05500E-02
 -1      3781 5.89599E-02
 -1      3782 7.87934E-02
 -1      3783 4.87793E-02
 -1      3784 4.03960E-02
 -1      3785 5.50386E-02
 -1      3786 3.68048E-02
 -1      3787 3.07559E-02
 -1      3788 4.12668E-02
 -1      3789 3.03790E-01
 -1      3790 2.68895E-01
 -1      3791 1.26167E+00
 -1      3792 1.40885E+00
 -1      3793 1.63615E+00
 -1      3794 1.78584E+00
 -1      3795 1.65483E+00
 -1      3796 1.98100E+00
 -1      3797 2.25755E+00
 -1      3798 2.07729E+00
 -1      3799 9.51682E-01
 -1      3800 1.07653E+00
 -1      3801 1.24238E+00
 -1      3802 7.38351E-01
 -1      3803 8.29446E-01
 -1      3804 9.35005E-01
 -1      3805 5.99072E-01
 -1      3806 6.63934E-01
 -1      3807 7.38351E-01
 -1      3808 4.85373E-01
 -1      3809 5.34209E-01
 -1      3810 5.99072E-01
 -1      3811 3.86144E-01
 -1      3812 4.29583E-01
 -1      3813 4.78419E-01
 -1      3814 3.01477E-01
 -1      3815 3.39641E-01
 -1      3816 3.76126E-01
 -1      3817 2.31122E-01
 -1      3818 2.63335E-01
 -1      3819 2.91482E-01
 -1      3820 1.73892E-01
 -1      3821 2.00291E-01
 -1      3822 2.22509E-01
 -1      3823 1.28266E-01
 -1      3824 1.49332E-01
 -1      3825 1.67118E-01
 -1      3826 9.26214E-02
 -1      3827 1.09041E-01
 -1      3828 1.23333E-01
 -1      3829 6.57123E-02
 -1      3830 7.77293E-02
 -1      3831 8.92156E-02
 -1      3832 4.55200E-02
 -1      3833 5.44432E-02
 -1      3834 6.30544E-02
 -1      3835 3.33428E-02
 -1      3836 3.99662E-02
 -1      3837 4.62314E-02
 -1      3838 3.11235E-02
 -1      3839 2.55133E-02
 -1      3840 2.55133E-02
 -1      3841 3.62390E-02
 -1      3842 2.81490E-02
 -1      3843 2.81490E-02
 -1      3844 2.21534E-01
 -1      3845 1.79319E-01
 -1      3846 1.94896E-01
 -1      3847 2.22291E-01
 -1      3848 2.06871E-01
 -1      3849 3.38109E+00
 -1      3850 6.89373E+00
 -1      3851 6.89373E+00
 -1      3852 3.50043E+00
 -1      3853 3.98241E-01
 -1      3854 3.52110E-01
 -1      3855 3.49922E-01
 -1      3856 5.18130E+00
 -1      3857 4.96986E+00
 -1      3858 1.21988E+00
 -1      3859 1.07054E+00
 -1      3860 1.88336E-01
 -1      3861 2.10489E-01
 -1      3862 2.23998E-01
 -1      3863 6.82198E+00
 -1      3864 6.59621E+00
 -1      3865 2.16716E-01
 -1      3866 2.26071E-01
 -1      3867 1.70091E-01
 -1      3868 3.24173E-01
 -1      3869 3.74884E-01
 -1      3870 3.03958E-01
 -1      3871 3.67573E+00
 -1      3872 2.88114E-02
 -1      3873 4.10679E+00
 -1      3874 3.35504E+00
 -1      3875 4.00626E+00
 -1      3876 3.84583E-02
 -1      3877 3.23392E+00
 -1      3878 3.87123E+00
 -1      3879 4.60158E+00
 -1      3880 2.92368E+00
 -1      3881 2.87368E+00
 -1      3882 2.68208E-01
 -1      3883 2.35502E-01
 -1      3884 2.11923E-01
 -1      3885 2.93858E+00
 -1      3886 4.18464E-01
 -1      3887 5.98278E+00
 -1      3888 5.98278E+00
 -1      3889 5.63671E+00
 -1      3890 6.11589E-01
 -1      3891 2.78132E+00
 -1      3892 4.20351E+00
 -1      3893 4.90602E+00
 -1      3894 5.05649E+00
 -1      3895 5.33302E-01
 -1      3896 4.65772E-01
 -1      3897 4.65772E-01
 -1      3898 1.76801E+00
 -1      3899 1.62927E+00
 -1      3900 1.63125E+00
 -1      3901 2.23954E-01
 -1      3902 2.02137E-01
 -1      3903 2.15015E-01
 -1      3904 3.20829E+00
 -1      3905 4.20516E+00
 -1      3906 4.39725E+00
 -1      3907 2.54216E+00
 -1      3908 3.24701E-02
 -1      3909 5.34522E+00
 -1      3910 2.23954E-01
 -1      3911 6.14569E+00
 -1      3912 3.00149E-02
 -1      3913 6.25172E+00
 -1      3914 5.97332E+00
 -1      3915 9.17386E-01
 -1      3916 8.02708E-01
 -1      3917 1.06870E+00
 -1      3918 2.13233E-01
 -1      3919 1.94051E-01
 -1      3920 1.71477E-01
 -1      3921 1.61038E-01
 -1      3922 4.76744E+00
 -1      3923 2.64175E+00
 -1      3924 2.30329E+00
 -1      3925 2.57592E+00
 -1      3926 4.47051E+00
 -1      3927 5.23689E+00
 -1      3928 5.90157E+00
 -1      3929 3.58098E-02
 -1      3930 3.11475E-02
 -1      3931 2.53527E-02
 -1      3932 2.85262E-02
 -1      3933 3.84583E-02
 -1      3934 3.84583E-02
 -1      3935 4.06777E-02
 -1      3936 9.35005E-01
 -1      3937 1.05724E+00
 -1      3938 6.89902E-01
 -1      3939 8.16040E-01
 -1      3940 9.56162E-01
 -1      3941 1.13229E+00
 -1      3942 8.42844E-01
 -1      3943 1.34232E+00
 -1      3944 1.59352E+00
 -1      3945 1.19299E+00
 -1      3946 2.62012E+00
 -1      3947 3.44267E+00
 -1      3948 2.42962E+00
 -1      3949 1.50224E+00
 -1      3950 1.72954E+00
 -1      3951 2.87013E-02
 -1      3952 3.24701E-02
 -1      3953 3.46895E-02
 -1      3954 2.85262E-02
 -1      3955 3.69059E+00
 -1      3956 3.52959E+00
 -1      3957 2.17062E+00
 -1      3958 1.85815E+00
 -1      3959 3.39364E+00
 -1      3960 1.52570E+00
 -1      3961 1.30510E+00
 -1      3962 1.70222E+00
 -1      3963 1.10605E+00
 -1      3964 9.51057E-01
 -1      3965 1.17071E+00
 -1      3966 8.21139E-01
 -1      3967 7.08396E-01
 -1      3968 8.41743E-01
 -1      3969 6.20503E-01
 -1      3970 5.36956E-01
 -1      3971 6.23932E-01
 -1      3972 4.72317E-01
 -1      3973 4.08393E-01
 -1      3974 4.71399E-01
 -1      3975 3.59442E-01
 -1      3976 3.09955E-01
 -1      3977 3.57809E-01
 -1      3978 2.72954E-01
 -1      3979 2.34534E-01
 -1      3980 2.71856E-01
 -1      3981 2.06027E-01
 -1      3982 1.76119E-01
 -1      3983 2.06347E-01
 -1      3984 1.53559E-01
 -1      3985 1.30361E-01
 -1      3986 1.55280E-01
 -1      3987 1.12834E-01
 -1      3988 9.50177E-02
 -1      3989 1.15194E-01
 -1      3990 8.14262E-02
 -1      3991 6.78520E-02
 -1      3992 8.40763E-02
 -1      3993 5.75727E-02
 -1      3994 4.73920E-02
 -1      3995 6.02054E-02
 -1      3996 4.12668E-02
 -1      3997 3.76757E-02
 -1      3998 3.58098E-02
 -1      3999 4.38009E-02
 -1      4000 2.24710E-01
 -1      4001 1.85531E-01
 -1      4002 1.21545E+00
 -1      4003 1.40059E+00
 -1      4004 1.47531E+00
 -1      4005 1.21545E+00
 -1      4006 7.35605E-01
 -1      4007 8.10022E-01
 -1      4008 9.32259E-01
 -1      4009 5.79803E-01
 -1      4010 6.44665E-01
 -1      4011 7.16336E-01
 -1      4012 4.51691E-01
 -1      4013 5.07481E-01
 -1      4014 5.53074E-01
 -1      4015 3.48344E-01
 -1      4016 3.94847E-01
 -1      4017 4.23909E-01
 -1      4018 2.66901E-01
 -1      4019 3.05042E-01
 -1      4020 3.23763E-01
 -1      4021 2.01930E-01
 -1      4022 2.32761E-01
 -1      4023 2.46321E-01
 -1      4024 1.50723E-01
 -1      4025 1.75284E-01
 -1      4026 1.85535E-01
 -1      4027 1.10899E-01
 -1      4028 1.30124E-01
 -1      4029 1.38289E-01
 -1      4030 7.98317E-02
 -1      4031 9.47237E-02
 -1      4032 1.01515E-01
 -1      4033 5.62345E-02
 -1      4034 6.75036E-02
 -1      4035 7.30118E-02
 -1      4036 4.23794E-02
 -1      4037 4.79332E-02
 -1      4038 5.23824E-02
 -1      4039 4.23794E-02
 -1      4040 3.69721E-01
 -1      4041 4.40950E-01
 -1      4042 2.12142E-01
 -1      4043 2.25800E-01
 -1      4044 2.27583E-01
 -1      4045 5.03002E-01
 -1      4046 5.96697E-01
 -1      4047 6.09517E-01
 -1      4048 6.89876E-01
 -1      4049 6.11589E-01
 -1      4050 6.11589E-01
 -1      4051 4.54527E+00
 -1      4052 3.18595E+00
 -1      4053 4.87575E+00
 -1      4054 4.80400E+00
 -1      4055 3.51944E+00
 -1      4056 2.64267E-01
 -1      4057 4.95857E+00
 -1      4058 4.95857E+00
 -1      4059 3.86100E+00
 -1      4060 4.04175E+00
 -1      4061 2.80100E-01
 -1      4062 3.23376E-01
 -1      4063 3.45862E-01
 -1      4064 5.15249E+00
 -1      4065 5.42157E+00
 -1      4066 3.81011E-01
 -1      4067 3.32691E-01
 -1      4068 4.68719E+00
 -1      4069 1.70334E-01
 -1      4070 1.69209E-01
 -1      4071 1.72688E-01
 -1      4072 1.98487E+00
 -1      4073 2.18003E+00
 -1      4074 2.44973E+00
 -1      4075 1.83228E+00
 -1      4076 2.81918E-01
 -1      4077 2.48524E-01
 -1      4078 3.13008E-01
 -1      4079 2.24918E-01
 -1      4080 5.23637E+00
 -1      4081 4.35227E+00
 -1      4082 4.13714E+00
 -1      4083 3.79795E+00
 -1      4084 3.78439E+00
 -1      4085 2.24710E-01
 -1      4086 2.24710E-01
 -1      4087 2.65068E+00
 -1      4088 2.83685E-01
 -1      4089 4.54259E-01
 -1      4090 8.02708E-01
 -1      4091 3.47309E-02
 -1      4092 3.28650E-02
 -1      4093 3.00686E-02
 -1      4094 2.06871E-01
 -1      4095 2.45831E+00
 -1      4096 4.04369E+00
 -1      4097 3.21355E+00
 -1      4098 2.09618E+00
 -1      4099 5.17703E-01
 -1      4100 4.50173E-01
 -1      4101 4.32943E-01
 -1      4102 1.22186E+00
 -1      4103 1.06870E+00
 -1      4104 2.16126E-01
 -1      4105 1.85467E-01
 -1      4106 1.92079E+00
 -1      4107 1.51140E+00
 -1      4108 1.51140E+00
 -1      4109 4.75262E+00
 -1      4110 5.98278E+00
 -1      4111 3.77323E+00
 -1      4112 5.56618E+00
 -1      4113 4.49893E+00
 -1      4114 2.16126E-01
 -1      4115 3.70939E+00
 -1      4116 3.70002E+00
 -1      4117 1.06238E+00
 -1      4118 1.27241E+00
 -1      4119 2.31787E+00
 -1      4120 3.34447E+00
 -1      4121 2.18726E+00
 -1      4122 5.56121E-01
 -1      4123 6.28443E-01
 -1      4124 4.35227E+00
 -1      4125 2.99330E+00
 -1      4126 2.53082E+00
 -1      4127 1.74730E+00
 -1      4128 1.41484E+00
 -1      4129 2.70593E+00
 -1      4130 1.32378E+00
 -1      4131 1.12473E+00
 -1      4132 1.36886E+00
 -1      4133 9.22135E-01
 -1      4134 7.92217E-01
 -1      4135 1.07521E+00
 -1      4136 6.71658E-01
 -1      4137 5.83764E-01
 -1      4138 7.52049E-01
 -1      4139 4.80567E-01
 -1      4140 4.15928E-01
 -1      4141 5.28293E-01
 -1      4142 3.68803E-01
 -1      4143 3.19852E-01
 -1      4144 3.77971E-01
 -1      4145 3.23589E-01
 -1      4146 2.86587E-01
 -1      4147 3.34583E-01
 -1      4148 2.30186E-01
 -1      4149 2.01679E-01
 -1      4150 2.81919E-01
 -1      4151 1.65391E-01
 -1      4152 1.42831E-01
 -1      4153 1.89230E-01
 -1      4154 1.22549E-01
 -1      4155 1.05023E-01
 -1      4156 1.32660E-01
 -1      4157 9.03087E-02
 -1      4158 7.67172E-02
 -1      4159 9.76638E-02
 -1      4160 6.49435E-02
 -1      4161 5.46641E-02
 -1      4162 7.11759E-02
 -1      4163 4.10011E-02
 -1      4164 3.48759E-02
 -1      4165 3.19311E-02
 -1      4166 4.57392E-02
 -1      4167 7.49003E-01
 -1      4168 8.39943E-01
 -1      4169 7.52049E-01
 -1      4170 3.69634E-01
 -1      4171 4.26478E-01
 -1      4172 5.01846E-01
 -1      4173 3.04902E-01
 -1      4174 3.48204E-01
 -1      4175 3.50774E-01
 -1      4176 2.13423E-01
 -1      4177 2.47563E-01
 -1      4178 2.72004E-01
 -1      4179 1.92203E-01
 -1      4180 2.18850E-01
 -1      4181 2.20091E-01
 -1      4182 1.28995E-01
 -1      4183 1.49594E-01
 -1      4184 1.82909E-01
 -1      4185 9.56434E-02
 -1      4186 1.11818E-01
 -1      4187 1.23123E-01
 -1      4188 6.77551E-02
 -1      4189 8.00831E-02
 -1      4190 9.03867E-02
 -1      4191 3.33469E-01
 -1      4192 3.79814E-01
 -1      4193 2.07543E-01
 -1      4194 1.85467E-01
 -1      4195 1.94764E-01
 -1      4196 4.39715E-01
 -1      4197 5.01767E-01
 -1      4198 4.27322E-01
 -1      4199 5.75691E-01
 -1      4200 6.68896E-01
 -1      4201 5.61147E-01
 -1      4202 4.35227E+00
 -1      4203 1.04254E+00
 -1      4204 1.16752E+00
 -1      4205 1.07521E+00
 -1      4206 3.42675E+00
 -1      4207 3.27399E+00
 -1      4208 2.83685E-01
 -1      4209 2.99518E-01
 -1      4210 1.06870E+00
 -1      4211 9.15541E-01
 -1      4212 8.02708E-01
 -1      4213 4.33602E+00
 -1      4214 2.40751E-01
 -1      4215 7.69092E-01
 -1      4216 9.09213E-01
 -1      4217 7.35266E-01
 -1      4218 6.85297E-01
 -1      4219 6.07010E-01
 -1      4220 7.98130E-01
 -1      4221 2.36916E+00
 -1      4222 3.47795E+00
 -1      4223 3.29275E+00
 -1      4224 9.88632E-01
 -1      4225 3.58827E+00
 -1      4226 2.53530E-01
 -1      4227 3.05950E-02
 -1      4228 3.65832E-02
 -1      4229 3.82849E-02
 -1      4230 1.17137E+00
 -1      4231 1.01821E+00
 -1      4232 2.29763E-01
 -1      4233 2.08003E-01
 -1      4234 2.08003E-01
 -1      4235 1.16608E+00
 -1      4236 1.32428E+00
 -1      4237 1.27636E+00
 -1      4238 5.91412E-01
 -1      4239 5.23116E-02
 -1      4240 5.93830E-02
 -1      4241 4.40103E-02
 -1      4242 3.33469E-01
 -1      4243 3.95193E+00
 -1      4244 1.70456E+00
 -1      4245 1.41502E+00
 -1      4246 1.36452E+00
 -1      4247 2.99399E+00
 -1      4248 2.73526E+00
 -1      4249 4.53652E-01
 -1      4250 3.84490E-01
 -1      4251 3.02437E-02
 -1      4252 2.34888E-01
 -1      4253 2.35349E-01
 -1      4254 3.29275E+00
 -1      4255 2.21179E-01
 -1      4256 3.53193E-01
 -1      4257 3.74622E-01
 -1      4258 1.37499E+00
 -1      4259 2.42045E+00
 -1      4260 2.00537E+00
 -1      4261 1.36886E+00
 -1      4262 1.27780E+00
 -1      4263 1.27780E+00
 -1      4264 1.07521E+00
 -1      4265 8.72609E-01
 -1      4266 7.52049E-01
 -1      4267 6.31490E-01
 -1      4268 5.28293E-01
 -1      4269 4.01068E-01
 -1      4270 3.53944E-01
 -1      4271 3.57681E-01
 -1      4272 3.38320E-01
 -1      4273 2.81919E-01
 -1      4274 2.25518E-01
 -1      4275 1.89230E-01
 -1      4276 1.46621E-01
 -1      4277 1.26339E-01
 -1      4278 1.09163E-01
 -1      4279 9.44483E-02
 -1      4280 7.88880E-02
 -1      4281 6.71143E-02
 -1      4282 2.76492E-01
 -1      4283 3.33832E-01
 -1      4284 3.31219E-01
 -1      4285 2.80446E-01
 -1      4286 2.81919E-01
 -1      4287 2.53561E-01
 -1      4288 2.99088E-01
 -1      4289 3.33039E-01
 -1      4290 9.55287E-01
 -1      4291 8.52621E-01
 -1      4292 7.35210E-01
 -1      4293 3.50545E+00
 -1      4294 1.77703E+00
 -1      4295 1.78561E+00
 -1      4296 2.05001E+00
 -1      4297 1.52171E+00
 -1      4298 6.23481E-01
 -1      4299 5.34174E-01
 -1      4300 6.77972E-01
 -1      4301 4.85721E-01
 -1      4302 3.86310E-01
 -1      4303 4.46212E-01
 -1      4304 5.26733E-01
 -1      4305 6.00656E-01
 -1      4306 2.72126E+00
 -1      4307 9.78167E-01
 -1      4308 1.13134E+00
 -1      4309 2.00361E+00
 -1      4310 2.10526E+00
 -1      4311 3.51929E-01
 -1      4312 3.21374E-02
 -1      4313 7.12386E-01
 -1      4314 8.12582E-01
 -1      4315 1.90899E+00
 -1      4316 2.05001E+00
 -1      4317 2.63356E+00
 -1      4318 1.95424E+00
 -1      4319 3.29275E+00
 -1      4320 3.57681E-01
 -1      4321 1.27780E+00
 -1      4322 1.27636E+00
 -1      4323 2.04674E+00
 -1      4324 5.04266E-01
 -1      4325 5.82465E-02
 -1      4326 5.05344E-02
 -1      4327 3.82141E-02
 -1      4328 2.53991E-01
 -1      4329 1.95568E+00
 -1      4330 3.68713E-02
 -1      4331 3.67263E-02
 -1      4332 3.70776E-02
 -1      4333 4.28030E-02
 -3
 9999
