    1C
    1UUSER                                                              
    1UDATE              27.october.2022                                 
    1UTIME              00:27:21                                        
    1UHOST                                                              
    1UPGM               CalculiX                                        
    1UVERSION           Version 2.17                             
    1UCOMPILETIME       Thu Jul 23 21:43:50 CEST 2020                    
    1UDIR                                                               
    1UDBN                                                               
    1UMAT    1SOLIDMATERIAL                                             
    2C                          4320                                     1
 -1         1 3.55957E+01 3.11078E+01 0.00000E+00
 -1         2 4.25957E+01 2.41078E+01 0.00000E+00
 -1         3 1.50000E+02 0.00000E+00 0.00000E+00
 -1         4 1.50000E+02 5.00000E+01 0.00000E+00
 -1         5 0.00000E+00 0.00000E+00 0.00000E+00
 -1         6 0.00000E+00 5.00000E+01 0.00000E+00
 -1         7 0.00000E+00 4.70500E+01 0.00000E+00
 -1         8 0.00000E+00 4.41000E+01 0.00000E+00
 -1         9 0.00000E+00 4.11500E+01 0.00000E+00
 -1        10 0.00000E+00 3.82000E+01 0.00000E+00
 -1        11 0.00000E+00 3.52500E+01 0.00000E+00
 -1        12 0.00000E+00 3.23500E+01 0.00000E+00
 -1        13 0.00000E+00 2.94000E+01 0.00000E+00
 -1        14 0.00000E+00 2.64500E+01 0.00000E+00
 -1        15 0.00000E+00 2.35000E+01 0.00000E+00
 -1        16 0.00000E+00 2.05500E+01 0.00000E+00
 -1        17 0.00000E+00 1.76000E+01 0.00000E+00
 -1        18 0.00000E+00 1.47000E+01 0.00000E+00
 -1        19 0.00000E+00 1.17500E+01 0.00000E+00
 -1        20 0.00000E+00 8.80000E+00 0.00000E+00
 -1        21 0.00000E+00 5.85000E+00 0.00000E+00
 -1        22 0.00000E+00 2.90000E+00 0.00000E+00
 -1        23 3.15000E+00 5.00000E+01 0.00000E+00
 -1        24 6.15000E+00 5.00000E+01 0.00000E+00
 -1        25 9.15000E+00 5.00000E+01 0.00000E+00
 -1        26 1.21500E+01 5.00000E+01 0.00000E+00
 -1        27 1.51500E+01 5.00000E+01 0.00000E+00
 -1        28 1.81500E+01 5.00000E+01 0.00000E+00
 -1        29 2.11500E+01 5.00000E+01 0.00000E+00
 -1        30 2.41500E+01 5.00000E+01 0.00000E+00
 -1        31 2.71500E+01 5.00000E+01 0.00000E+00
 -1        32 3.01500E+01 5.00000E+01 0.00000E+00
 -1        33 3.31500E+01 5.00000E+01 0.00000E+00
 -1        34 3.61500E+01 5.00000E+01 0.00000E+00
 -1        35 3.91500E+01 5.00000E+01 0.00000E+00
 -1        36 4.21500E+01 5.00000E+01 0.00000E+00
 -1        37 4.51500E+01 5.00000E+01 0.00000E+00
 -1        38 4.81500E+01 5.00000E+01 0.00000E+00
 -1        39 5.11500E+01 5.00000E+01 0.00000E+00
 -1        40 5.41500E+01 5.00000E+01 0.00000E+00
 -1        41 5.71500E+01 5.00000E+01 0.00000E+00
 -1        42 6.01500E+01 5.00000E+01 0.00000E+00
 -1        43 6.31500E+01 5.00000E+01 0.00000E+00
 -1        44 6.61500E+01 5.00000E+01 0.00000E+00
 -1        45 6.91500E+01 5.00000E+01 0.00000E+00
 -1        46 7.21500E+01 5.00000E+01 0.00000E+00
 -1        47 7.51500E+01 5.00000E+01 0.00000E+00
 -1        48 7.81500E+01 5.00000E+01 0.00000E+00
 -1        49 8.11500E+01 5.00000E+01 0.00000E+00
 -1        50 8.41500E+01 5.00000E+01 0.00000E+00
 -1        51 8.71500E+01 5.00000E+01 0.00000E+00
 -1        52 9.01500E+01 5.00000E+01 0.00000E+00
 -1        53 9.31500E+01 5.00000E+01 0.00000E+00
 -1        54 9.61500E+01 5.00000E+01 0.00000E+00
 -1        55 9.91500E+01 5.00000E+01 0.00000E+00
 -1        56 1.02150E+02 5.00000E+01 0.00000E+00
 -1        57 1.05150E+02 5.00000E+01 0.00000E+00
 -1        58 1.08150E+02 5.00000E+01 0.00000E+00
 -1        59 1.11150E+02 5.00000E+01 0.00000E+00
 -1        60 1.14150E+02 5.00000E+01 0.00000E+00
 -1        61 1.17150E+02 5.00000E+01 0.00000E+00
 -1        62 1.20150E+02 5.00000E+01 0.00000E+00
 -1        63 1.23150E+02 5.00000E+01 0.00000E+00
 -1        64 1.26150E+02 5.00000E+01 0.00000E+00
 -1        65 1.29150E+02 5.00000E+01 0.00000E+00
 -1        66 1.32150E+02 5.00000E+01 0.00000E+00
 -1        67 1.35150E+02 5.00000E+01 0.00000E+00
 -1        68 1.38150E+02 5.00000E+01 0.00000E+00
 -1        69 1.41150E+02 5.00000E+01 0.00000E+00
 -1        70 1.44150E+02 5.00000E+01 0.00000E+00
 -1        71 1.47150E+02 5.00000E+01 0.00000E+00
 -1        72 3.15000E+00 0.00000E+00 0.00000E+00
 -1        73 6.15000E+00 0.00000E+00 0.00000E+00
 -1        74 9.15000E+00 0.00000E+00 0.00000E+00
 -1        75 1.21500E+01 0.00000E+00 0.00000E+00
 -1        76 1.51500E+01 0.00000E+00 0.00000E+00
 -1        77 1.81500E+01 0.00000E+00 0.00000E+00
 -1        78 2.11500E+01 0.00000E+00 0.00000E+00
 -1        79 2.41500E+01 0.00000E+00 0.00000E+00
 -1        80 2.71500E+01 0.00000E+00 0.00000E+00
 -1        81 3.01500E+01 0.00000E+00 0.00000E+00
 -1        82 3.31500E+01 0.00000E+00 0.00000E+00
 -1        83 3.61500E+01 0.00000E+00 0.00000E+00
 -1        84 3.91500E+01 0.00000E+00 0.00000E+00
 -1        85 4.21500E+01 0.00000E+00 0.00000E+00
 -1        86 4.51500E+01 0.00000E+00 0.00000E+00
 -1        87 4.81500E+01 0.00000E+00 0.00000E+00
 -1        88 5.11500E+01 0.00000E+00 0.00000E+00
 -1        89 5.41500E+01 0.00000E+00 0.00000E+00
 -1        90 5.71500E+01 0.00000E+00 0.00000E+00
 -1        91 6.01500E+01 0.00000E+00 0.00000E+00
 -1        92 6.31500E+01 0.00000E+00 0.00000E+00
 -1        93 6.61500E+01 0.00000E+00 0.00000E+00
 -1        94 6.91500E+01 0.00000E+00 0.00000E+00
 -1        95 7.21500E+01 0.00000E+00 0.00000E+00
 -1        96 7.51500E+01 0.00000E+00 0.00000E+00
 -1        97 7.81500E+01 0.00000E+00 0.00000E+00
 -1        98 8.11500E+01 0.00000E+00 0.00000E+00
 -1        99 8.41500E+01 0.00000E+00 0.00000E+00
 -1       100 8.71500E+01 0.00000E+00 0.00000E+00
 -1       101 9.01500E+01 0.00000E+00 0.00000E+00
 -1       102 9.31500E+01 0.00000E+00 0.00000E+00
 -1       103 9.61500E+01 0.00000E+00 0.00000E+00
 -1       104 9.91500E+01 0.00000E+00 0.00000E+00
 -1       105 1.02150E+02 0.00000E+00 0.00000E+00
 -1       106 1.05150E+02 0.00000E+00 0.00000E+00
 -1       107 1.08150E+02 0.00000E+00 0.00000E+00
 -1       108 1.11150E+02 0.00000E+00 0.00000E+00
 -1       109 1.14150E+02 0.00000E+00 0.00000E+00
 -1       110 1.17150E+02 0.00000E+00 0.00000E+00
 -1       111 1.20150E+02 0.00000E+00 0.00000E+00
 -1       112 1.23150E+02 0.00000E+00 0.00000E+00
 -1       113 1.26150E+02 0.00000E+00 0.00000E+00
 -1       114 1.29150E+02 0.00000E+00 0.00000E+00
 -1       115 1.32150E+02 0.00000E+00 0.00000E+00
 -1       116 1.35150E+02 0.00000E+00 0.00000E+00
 -1       117 1.38150E+02 0.00000E+00 0.00000E+00
 -1       118 1.41150E+02 0.00000E+00 0.00000E+00
 -1       119 1.44150E+02 0.00000E+00 0.00000E+00
 -1       120 1.47150E+02 0.00000E+00 0.00000E+00
 -1       121 1.50000E+02 2.95000E+00 0.00000E+00
 -1       122 1.50000E+02 5.90000E+00 0.00000E+00
 -1       123 1.50000E+02 8.85000E+00 0.00000E+00
 -1       124 1.50000E+02 1.18000E+01 0.00000E+00
 -1       125 1.50000E+02 1.47500E+01 0.00000E+00
 -1       126 1.50000E+02 1.76500E+01 0.00000E+00
 -1       127 1.50000E+02 2.06000E+01 0.00000E+00
 -1       128 1.50000E+02 2.35500E+01 0.00000E+00
 -1       129 1.50000E+02 2.65000E+01 0.00000E+00
 -1       130 1.50000E+02 2.94500E+01 0.00000E+00
 -1       131 1.50000E+02 3.24000E+01 0.00000E+00
 -1       132 1.50000E+02 3.53000E+01 0.00000E+00
 -1       133 1.50000E+02 3.82500E+01 0.00000E+00
 -1       134 1.50000E+02 4.12000E+01 0.00000E+00
 -1       135 1.50000E+02 4.41500E+01 0.00000E+00
 -1       136 1.50000E+02 4.71000E+01 0.00000E+00
 -1       137 4.24568E+01 2.27201E+01 0.00000E+00
 -1       138 4.20230E+01 2.13346E+01 0.00000E+00
 -1       139 4.11843E+01 1.98926E+01 0.00000E+00
 -1       140 4.02423E+01 1.88724E+01 0.00000E+00
 -1       141 3.89363E+01 1.79563E+01 0.00000E+00
 -1       142 3.75930E+01 1.73988E+01 0.00000E+00
 -1       143 3.61667E+01 1.71311E+01 0.00000E+00
 -1       144 3.46927E+01 1.71663E+01 0.00000E+00
 -1       145 3.30793E+01 1.75758E+01 0.00000E+00
 -1       146 3.18134E+01 1.82176E+01 0.00000E+00
 -1       147 3.06283E+01 1.91758E+01 0.00000E+00
 -1       148 2.97166E+01 2.03083E+01 0.00000E+00
 -1       149 2.90752E+01 2.15617E+01 0.00000E+00
 -1       150 2.86915E+01 2.29541E+01 0.00000E+00
 -1       151 2.86044E+01 2.44568E+01 0.00000E+00
 -1       152 2.88278E+01 2.58954E+01 0.00000E+00
 -1       153 2.93755E+01 2.73185E+01 0.00000E+00
 -1       154 3.01673E+01 2.85274E+01 0.00000E+00
 -1       155 3.12922E+01 2.96287E+01 0.00000E+00
 -1       156 3.26211E+01 3.04443E+01 0.00000E+00
 -1       157 3.40973E+01 3.09455E+01 0.00000E+00
 -1       158 3.69526E+01 3.09751E+01 0.00000E+00
 -1       159 3.82281E+01 3.05940E+01 0.00000E+00
 -1       160 3.94075E+01 2.99790E+01 0.00000E+00
 -1       161 4.04699E+01 2.91320E+01 0.00000E+00
 -1       162 4.13373E+01 2.81121E+01 0.00000E+00
 -1       163 4.20309E+01 2.68625E+01 0.00000E+00
 -1       164 4.24413E+01 2.55703E+01 0.00000E+00
 -1       165 2.59800E+00 4.55750E+01 0.00000E+00
 -1       166 2.59800E+00 4.26250E+01 0.00000E+00
 -1       167 2.59800E+00 3.96750E+01 0.00000E+00
 -1       168 2.59800E+00 3.67250E+01 0.00000E+00
 -1       169 2.59800E+00 3.38250E+01 0.00000E+00
 -1       170 2.59800E+00 3.08750E+01 0.00000E+00
 -1       171 2.59800E+00 2.79250E+01 0.00000E+00
 -1       172 2.59800E+00 2.49750E+01 0.00000E+00
 -1       173 2.59800E+00 2.20250E+01 0.00000E+00
 -1       174 2.59800E+00 1.90750E+01 0.00000E+00
 -1       175 2.59800E+00 1.61750E+01 0.00000E+00
 -1       176 2.59800E+00 1.32250E+01 0.00000E+00
 -1       177 2.59800E+00 1.02750E+01 0.00000E+00
 -1       178 2.59800E+00 7.32500E+00 0.00000E+00
 -1       179 2.59800E+00 4.37500E+00 0.00000E+00
 -1       180 2.87400E+00 2.18750E+00 0.00000E+00
 -1       181 4.65000E+00 4.74020E+01 0.00000E+00
 -1       182 7.65000E+00 4.74020E+01 0.00000E+00
 -1       183 1.06500E+01 4.74020E+01 0.00000E+00
 -1       184 1.36500E+01 4.74020E+01 0.00000E+00
 -1       185 1.66500E+01 4.74020E+01 0.00000E+00
 -1       186 1.96500E+01 4.74020E+01 0.00000E+00
 -1       187 2.26500E+01 4.74020E+01 0.00000E+00
 -1       188 2.56500E+01 4.74020E+01 0.00000E+00
 -1       189 2.86500E+01 4.74020E+01 0.00000E+00
 -1       190 3.16500E+01 4.74020E+01 0.00000E+00
 -1       191 3.46500E+01 4.74020E+01 0.00000E+00
 -1       192 3.76500E+01 4.74020E+01 0.00000E+00
 -1       193 4.06500E+01 4.74020E+01 0.00000E+00
 -1       194 4.36500E+01 4.74020E+01 0.00000E+00
 -1       195 4.66500E+01 4.74020E+01 0.00000E+00
 -1       196 4.96500E+01 4.74020E+01 0.00000E+00
 -1       197 5.26500E+01 4.74020E+01 0.00000E+00
 -1       198 5.56500E+01 4.74020E+01 0.00000E+00
 -1       199 5.86500E+01 4.74020E+01 0.00000E+00
 -1       200 6.16500E+01 4.74020E+01 0.00000E+00
 -1       201 6.46500E+01 4.74020E+01 0.00000E+00
 -1       202 6.76500E+01 4.74020E+01 0.00000E+00
 -1       203 7.06500E+01 4.74020E+01 0.00000E+00
 -1       204 7.36500E+01 4.74020E+01 0.00000E+00
 -1       205 7.66500E+01 4.74020E+01 0.00000E+00
 -1       206 7.96500E+01 4.74020E+01 0.00000E+00
 -1       207 8.26500E+01 4.74020E+01 0.00000E+00
 -1       208 8.56500E+01 4.74020E+01 0.00000E+00
 -1       209 8.86500E+01 4.74020E+01 0.00000E+00
 -1       210 9.16500E+01 4.74020E+01 0.00000E+00
 -1       211 9.46500E+01 4.74020E+01 0.00000E+00
 -1       212 9.76500E+01 4.74020E+01 0.00000E+00
 -1       213 1.00650E+02 4.74020E+01 0.00000E+00
 -1       214 1.03650E+02 4.74020E+01 0.00000E+00
 -1       215 1.06650E+02 4.74020E+01 0.00000E+00
 -1       216 1.09650E+02 4.74020E+01 0.00000E+00
 -1       217 1.12650E+02 4.74020E+01 0.00000E+00
 -1       218 1.15650E+02 4.74020E+01 0.00000E+00
 -1       219 1.18650E+02 4.74020E+01 0.00000E+00
 -1       220 1.21650E+02 4.74020E+01 0.00000E+00
 -1       221 1.24650E+02 4.74020E+01 0.00000E+00
 -1       222 1.27650E+02 4.74020E+01 0.00000E+00
 -1       223 1.30650E+02 4.74020E+01 0.00000E+00
 -1       224 1.33650E+02 4.74020E+01 0.00000E+00
 -1       225 1.36650E+02 4.74020E+01 0.00000E+00
 -1       226 1.39650E+02 4.74020E+01 0.00000E+00
 -1       227 1.42650E+02 4.74020E+01 0.00000E+00
 -1       228 1.45650E+02 4.74020E+01 0.00000E+00
 -1       229 5.87400E+00 2.18750E+00 0.00000E+00
 -1       230 8.87400E+00 2.18750E+00 0.00000E+00
 -1       231 1.18740E+01 2.18750E+00 0.00000E+00
 -1       232 1.48740E+01 2.18750E+00 0.00000E+00
 -1       233 1.78740E+01 2.18750E+00 0.00000E+00
 -1       234 2.08740E+01 2.18750E+00 0.00000E+00
 -1       235 2.38740E+01 2.18750E+00 0.00000E+00
 -1       236 2.68740E+01 2.18750E+00 0.00000E+00
 -1       237 2.98740E+01 2.18750E+00 0.00000E+00
 -1       238 3.28740E+01 2.18750E+00 0.00000E+00
 -1       239 3.58740E+01 2.18750E+00 0.00000E+00
 -1       240 3.88740E+01 2.18750E+00 0.00000E+00
 -1       241 4.18740E+01 2.18750E+00 0.00000E+00
 -1       242 4.48740E+01 2.18750E+00 0.00000E+00
 -1       243 4.78740E+01 2.18750E+00 0.00000E+00
 -1       244 5.08740E+01 2.18750E+00 0.00000E+00
 -1       245 5.38740E+01 2.18750E+00 0.00000E+00
 -1       246 5.68740E+01 2.18750E+00 0.00000E+00
 -1       247 5.98740E+01 2.18750E+00 0.00000E+00
 -1       248 6.28740E+01 2.18750E+00 0.00000E+00
 -1       249 6.58740E+01 2.18750E+00 0.00000E+00
 -1       250 6.88740E+01 2.18750E+00 0.00000E+00
 -1       251 7.18740E+01 2.18750E+00 0.00000E+00
 -1       252 7.48740E+01 2.18750E+00 0.00000E+00
 -1       253 7.78740E+01 2.18750E+00 0.00000E+00
 -1       254 8.08740E+01 2.18750E+00 0.00000E+00
 -1       255 8.38740E+01 2.18750E+00 0.00000E+00
 -1       256 8.68740E+01 2.18750E+00 0.00000E+00
 -1       257 8.98740E+01 2.18750E+00 0.00000E+00
 -1       258 9.28740E+01 2.18750E+00 0.00000E+00
 -1       259 9.58740E+01 2.18750E+00 0.00000E+00
 -1       260 9.88740E+01 2.18750E+00 0.00000E+00
 -1       261 1.01874E+02 2.18750E+00 0.00000E+00
 -1       262 1.04874E+02 2.18750E+00 0.00000E+00
 -1       263 1.07874E+02 2.18750E+00 0.00000E+00
 -1       264 1.10874E+02 2.18750E+00 0.00000E+00
 -1       265 1.13874E+02 2.18750E+00 0.00000E+00
 -1       266 1.16874E+02 2.18750E+00 0.00000E+00
 -1       267 1.19874E+02 2.18750E+00 0.00000E+00
 -1       268 1.22874E+02 2.18750E+00 0.00000E+00
 -1       269 1.25874E+02 2.18750E+00 0.00000E+00
 -1       270 1.28874E+02 2.18750E+00 0.00000E+00
 -1       271 1.31874E+02 2.18750E+00 0.00000E+00
 -1       272 1.34874E+02 2.18750E+00 0.00000E+00
 -1       273 1.37874E+02 2.18750E+00 0.00000E+00
 -1       274 1.40874E+02 2.18750E+00 0.00000E+00
 -1       275 1.43874E+02 2.18750E+00 0.00000E+00
 -1       276 1.46874E+02 2.18750E+00 0.00000E+00
 -1       277 1.47402E+02 4.42500E+00 0.00000E+00
 -1       278 1.47402E+02 7.37500E+00 0.00000E+00
 -1       279 1.47402E+02 1.03250E+01 0.00000E+00
 -1       280 1.47402E+02 1.32750E+01 0.00000E+00
 -1       281 1.47402E+02 1.61750E+01 0.00000E+00
 -1       282 1.47402E+02 1.91250E+01 0.00000E+00
 -1       283 1.47402E+02 2.20750E+01 0.00000E+00
 -1       284 1.47402E+02 2.50250E+01 0.00000E+00
 -1       285 1.47402E+02 2.79750E+01 0.00000E+00
 -1       286 1.47402E+02 3.09250E+01 0.00000E+00
 -1       287 1.47402E+02 3.38250E+01 0.00000E+00
 -1       288 1.47402E+02 3.67750E+01 0.00000E+00
 -1       289 1.47402E+02 3.97250E+01 0.00000E+00
 -1       290 1.47402E+02 4.26750E+01 0.00000E+00
 -1       291 1.46526E+02 4.50385E+01 0.00000E+00
 -1       292 4.37326E+01 2.32932E+01 0.00000E+00
 -1       293 4.34768E+01 2.16400E+01 0.00000E+00
 -1       294 4.29413E+01 1.98355E+01 0.00000E+00
 -1       295 4.16656E+01 1.85032E+01 0.00000E+00
 -1       296 4.03336E+01 1.73532E+01 0.00000E+00
 -1       297 3.87294E+01 1.65578E+01 0.00000E+00
 -1       298 3.71035E+01 1.60734E+01 0.00000E+00
 -1       299 3.53988E+01 1.58529E+01 0.00000E+00
 -1       300 3.35259E+01 1.59523E+01 0.00000E+00
 -1       301 3.18981E+01 1.68154E+01 0.00000E+00
 -1       302 3.04586E+01 1.77539E+01 0.00000E+00
 -1       303 2.92281E+01 1.89818E+01 0.00000E+00
 -1       304 2.83166E+01 2.03827E+01 0.00000E+00
 -1       305 2.76337E+01 2.19135E+01 0.00000E+00
 -1       306 2.72703E+01 2.36257E+01 0.00000E+00
 -1       307 2.74353E+01 2.53750E+01 0.00000E+00
 -1       308 2.78138E+01 2.71026E+01 0.00000E+00
 -1       309 2.87572E+01 2.85872E+01 0.00000E+00
 -1       310 2.98816E+01 2.99443E+01 0.00000E+00
 -1       311 3.13224E+01 3.10698E+01 0.00000E+00
 -1       312 3.29155E+01 3.20016E+01 0.00000E+00
 -1       313 3.46979E+01 3.23986E+01 0.00000E+00
 -1       314 3.63922E+01 3.22481E+01 0.00000E+00
 -1       315 3.79374E+01 3.19462E+01 0.00000E+00
 -1       316 3.93784E+01 3.13615E+01 0.00000E+00
 -1       317 4.06945E+01 3.05035E+01 0.00000E+00
 -1       318 4.18272E+01 2.94075E+01 0.00000E+00
 -1       319 4.28174E+01 2.81163E+01 0.00000E+00
 -1       320 4.33916E+01 2.65833E+01 0.00000E+00
 -1       321 4.38908E+01 2.49840E+01 0.00000E+00
 -1       322 5.19600E+00 4.11500E+01 0.00000E+00
 -1       323 5.19600E+00 4.41000E+01 0.00000E+00
 -1       324 5.19600E+00 3.52750E+01 0.00000E+00
 -1       325 5.19600E+00 3.23250E+01 0.00000E+00
 -1       326 5.19600E+00 2.93750E+01 0.00000E+00
 -1       327 5.19600E+00 2.64250E+01 0.00000E+00
 -1       328 5.19600E+00 2.34750E+01 0.00000E+00
 -1       329 5.19600E+00 2.05250E+01 0.00000E+00
 -1       330 5.19600E+00 1.76250E+01 0.00000E+00
 -1       331 5.19600E+00 1.46750E+01 0.00000E+00
 -1       332 5.19600E+00 1.17250E+01 0.00000E+00
 -1       333 5.19600E+00 8.77500E+00 0.00000E+00
 -1       334 5.19600E+00 5.82500E+00 0.00000E+00
 -1       335 5.53500E+00 4.00625E+00 0.00000E+00
 -1       336 8.53500E+00 4.00625E+00 0.00000E+00
 -1       337 9.15000E+00 4.48040E+01 0.00000E+00
 -1       338 1.21500E+01 4.48040E+01 0.00000E+00
 -1       339 1.51500E+01 4.48040E+01 0.00000E+00
 -1       340 1.81500E+01 4.48040E+01 0.00000E+00
 -1       341 2.11500E+01 4.48040E+01 0.00000E+00
 -1       342 2.41500E+01 4.48040E+01 0.00000E+00
 -1       343 2.71500E+01 4.48040E+01 0.00000E+00
 -1       344 3.01500E+01 4.48040E+01 0.00000E+00
 -1       345 3.31500E+01 4.48040E+01 0.00000E+00
 -1       346 3.61500E+01 4.48040E+01 0.00000E+00
 -1       347 3.91500E+01 4.48040E+01 0.00000E+00
 -1       348 4.21500E+01 4.48040E+01 0.00000E+00
 -1       349 4.51500E+01 4.48040E+01 0.00000E+00
 -1       350 4.81500E+01 4.48040E+01 0.00000E+00
 -1       351 5.11500E+01 4.48040E+01 0.00000E+00
 -1       352 5.41500E+01 4.48040E+01 0.00000E+00
 -1       353 5.71500E+01 4.48040E+01 0.00000E+00
 -1       354 6.01500E+01 4.48040E+01 0.00000E+00
 -1       355 6.31500E+01 4.48040E+01 0.00000E+00
 -1       356 6.61500E+01 4.48040E+01 0.00000E+00
 -1       357 6.91500E+01 4.48040E+01 0.00000E+00
 -1       358 7.21500E+01 4.48040E+01 0.00000E+00
 -1       359 7.51500E+01 4.48040E+01 0.00000E+00
 -1       360 7.81500E+01 4.48040E+01 0.00000E+00
 -1       361 8.11500E+01 4.48040E+01 0.00000E+00
 -1       362 8.41500E+01 4.48040E+01 0.00000E+00
 -1       363 8.71500E+01 4.48040E+01 0.00000E+00
 -1       364 9.01500E+01 4.48040E+01 0.00000E+00
 -1       365 9.31500E+01 4.48040E+01 0.00000E+00
 -1       366 9.61500E+01 4.48040E+01 0.00000E+00
 -1       367 9.91500E+01 4.48040E+01 0.00000E+00
 -1       368 1.02150E+02 4.48040E+01 0.00000E+00
 -1       369 1.05150E+02 4.48040E+01 0.00000E+00
 -1       370 1.08150E+02 4.48040E+01 0.00000E+00
 -1       371 1.11150E+02 4.48040E+01 0.00000E+00
 -1       372 1.14150E+02 4.48040E+01 0.00000E+00
 -1       373 1.17150E+02 4.48040E+01 0.00000E+00
 -1       374 1.20150E+02 4.48040E+01 0.00000E+00
 -1       375 1.23150E+02 4.48040E+01 0.00000E+00
 -1       376 1.26150E+02 4.48040E+01 0.00000E+00
 -1       377 1.29150E+02 4.48040E+01 0.00000E+00
 -1       378 1.32150E+02 4.48040E+01 0.00000E+00
 -1       379 1.35150E+02 4.48040E+01 0.00000E+00
 -1       380 1.38150E+02 4.48040E+01 0.00000E+00
 -1       381 1.41150E+02 4.48040E+01 0.00000E+00
 -1       382 1.43838E+02 4.49212E+01 0.00000E+00
 -1       383 1.15350E+01 4.00625E+00 0.00000E+00
 -1       384 1.45350E+01 4.00625E+00 0.00000E+00
 -1       385 1.75350E+01 4.00625E+00 0.00000E+00
 -1       386 2.05350E+01 4.00625E+00 0.00000E+00
 -1       387 2.35350E+01 4.00625E+00 0.00000E+00
 -1       388 2.65350E+01 4.00625E+00 0.00000E+00
 -1       389 2.95350E+01 4.00625E+00 0.00000E+00
 -1       390 3.25350E+01 4.00625E+00 0.00000E+00
 -1       391 3.55350E+01 4.00625E+00 0.00000E+00
 -1       392 3.85350E+01 4.00625E+00 0.00000E+00
 -1       393 4.15350E+01 4.00625E+00 0.00000E+00
 -1       394 4.45350E+01 4.00625E+00 0.00000E+00
 -1       395 4.75350E+01 4.00625E+00 0.00000E+00
 -1       396 5.05350E+01 4.00625E+00 0.00000E+00
 -1       397 5.35350E+01 4.00625E+00 0.00000E+00
 -1       398 5.65350E+01 4.00625E+00 0.00000E+00
 -1       399 5.95350E+01 4.00625E+00 0.00000E+00
 -1       400 6.25350E+01 4.00625E+00 0.00000E+00
 -1       401 6.55350E+01 4.00625E+00 0.00000E+00
 -1       402 6.85350E+01 4.00625E+00 0.00000E+00
 -1       403 7.15350E+01 4.00625E+00 0.00000E+00
 -1       404 7.45350E+01 4.00625E+00 0.00000E+00
 -1       405 7.75350E+01 4.00625E+00 0.00000E+00
 -1       406 8.05350E+01 4.00625E+00 0.00000E+00
 -1       407 8.35350E+01 4.00625E+00 0.00000E+00
 -1       408 8.65350E+01 4.00625E+00 0.00000E+00
 -1       409 8.95350E+01 4.00625E+00 0.00000E+00
 -1       410 9.25350E+01 4.00625E+00 0.00000E+00
 -1       411 9.55350E+01 4.00625E+00 0.00000E+00
 -1       412 9.85350E+01 4.00625E+00 0.00000E+00
 -1       413 1.01535E+02 4.00625E+00 0.00000E+00
 -1       414 1.04535E+02 4.00625E+00 0.00000E+00
 -1       415 1.07535E+02 4.00625E+00 0.00000E+00
 -1       416 1.10535E+02 4.00625E+00 0.00000E+00
 -1       417 1.13535E+02 4.00625E+00 0.00000E+00
 -1       418 1.16535E+02 4.00625E+00 0.00000E+00
 -1       419 1.19535E+02 4.00625E+00 0.00000E+00
 -1       420 1.22535E+02 4.00625E+00 0.00000E+00
 -1       421 1.25535E+02 4.00625E+00 0.00000E+00
 -1       422 1.28535E+02 4.00625E+00 0.00000E+00
 -1       423 1.31535E+02 4.00625E+00 0.00000E+00
 -1       424 1.34535E+02 4.00625E+00 0.00000E+00
 -1       425 1.37535E+02 4.00625E+00 0.00000E+00
 -1       426 1.40535E+02 4.00625E+00 0.00000E+00
 -1       427 1.43535E+02 4.00625E+00 0.00000E+00
 -1       428 1.45469E+02 4.21562E+00 0.00000E+00
 -1       429 1.44804E+02 1.18000E+01 0.00000E+00
 -1       430 1.44804E+02 8.85000E+00 0.00000E+00
 -1       431 1.45136E+02 6.53281E+00 0.00000E+00
 -1       432 1.44804E+02 1.47000E+01 0.00000E+00
 -1       433 1.44804E+02 1.76500E+01 0.00000E+00
 -1       434 1.44804E+02 2.06000E+01 0.00000E+00
 -1       435 1.44804E+02 2.35500E+01 0.00000E+00
 -1       436 1.44804E+02 2.65000E+01 0.00000E+00
 -1       437 1.44804E+02 2.94500E+01 0.00000E+00
 -1       438 1.44804E+02 3.23500E+01 0.00000E+00
 -1       439 1.44804E+02 3.53000E+01 0.00000E+00
 -1       440 1.44804E+02 3.82500E+01 0.00000E+00
 -1       441 1.44804E+02 4.12000E+01 0.00000E+00
 -1       442 4.47730E+01 2.02737E+01 0.00000E+00
 -1       443 4.54360E+01 2.39866E+01 0.00000E+00
 -1       444 4.51802E+01 2.23335E+01 0.00000E+00
 -1       445 4.33002E+01 1.82150E+01 0.00000E+00
 -1       446 4.19014E+01 1.68836E+01 0.00000E+00
 -1       447 5.19600E+00 3.82125E+01 0.00000E+00
 -1       448 3.83822E+01 1.47522E+01 0.00000E+00
 -1       449 3.64388E+01 1.45115E+01 0.00000E+00
 -1       450 3.43848E+01 1.44409E+01 0.00000E+00
 -1       451 3.18301E+01 1.47205E+01 0.00000E+00
 -1       452 3.03906E+01 1.56590E+01 0.00000E+00
 -1       453 2.88686E+01 1.73910E+01 0.00000E+00
 -1       454 2.76157E+01 1.89297E+01 0.00000E+00
 -1       455 2.65619E+01 2.05176E+01 0.00000E+00
 -1       456 2.61021E+01 2.24830E+01 0.00000E+00
 -1       457 2.60623E+01 2.46221E+01 0.00000E+00
 -1       458 2.60310E+01 2.65879E+01 0.00000E+00
 -1       459 2.71915E+01 2.85401E+01 0.00000E+00
 -1       460 2.81277E+01 3.02531E+01 0.00000E+00
 -1       461 2.98041E+01 3.15285E+01 0.00000E+00
 -1       462 3.13376E+01 3.28715E+01 0.00000E+00
 -1       463 3.34338E+01 3.38742E+01 0.00000E+00
 -1       464 3.56820E+01 3.38648E+01 0.00000E+00
 -1       465 3.72272E+01 3.35629E+01 0.00000E+00
 -1       466 3.91767E+01 3.29326E+01 0.00000E+00
 -1       467 4.07443E+01 3.20183E+01 0.00000E+00
 -1       468 4.22787E+01 3.10074E+01 0.00000E+00
 -1       469 4.33508E+01 2.95507E+01 0.00000E+00
 -1       470 4.46322E+01 2.79220E+01 0.00000E+00
 -1       471 4.51314E+01 2.63227E+01 0.00000E+00
 -1       472 4.01817E+01 1.56441E+01 0.00000E+00
 -1       473 4.51319E+01 1.86531E+01 0.00000E+00
 -1       474 1.00350E+01 6.60425E+00 0.00000E+00
 -1       475 7.79400E+00 3.08500E+01 0.00000E+00
 -1       476 7.79400E+00 3.38000E+01 0.00000E+00
 -1       477 7.79400E+00 2.49500E+01 0.00000E+00
 -1       478 7.79400E+00 2.20000E+01 0.00000E+00
 -1       479 7.79400E+00 1.91000E+01 0.00000E+00
 -1       480 7.79400E+00 1.61500E+01 0.00000E+00
 -1       481 7.79400E+00 1.32000E+01 0.00000E+00
 -1       482 7.79400E+00 1.02500E+01 0.00000E+00
 -1       483 1.30350E+01 6.60425E+00 0.00000E+00
 -1       484 1.06500E+01 4.22060E+01 0.00000E+00
 -1       485 4.00064E+01 1.37365E+01 0.00000E+00
 -1       486 1.36500E+01 4.22060E+01 0.00000E+00
 -1       487 1.66500E+01 4.22060E+01 0.00000E+00
 -1       488 1.96500E+01 4.22060E+01 0.00000E+00
 -1       489 2.26500E+01 4.22060E+01 0.00000E+00
 -1       490 2.56500E+01 4.22060E+01 0.00000E+00
 -1       491 2.86500E+01 4.22060E+01 0.00000E+00
 -1       492 3.16500E+01 4.22060E+01 0.00000E+00
 -1       493 3.46500E+01 4.22060E+01 0.00000E+00
 -1       494 3.76500E+01 4.22060E+01 0.00000E+00
 -1       495 4.06500E+01 4.22060E+01 0.00000E+00
 -1       496 4.36500E+01 4.22060E+01 0.00000E+00
 -1       497 4.66500E+01 4.22060E+01 0.00000E+00
 -1       498 4.96500E+01 4.22060E+01 0.00000E+00
 -1       499 5.26500E+01 4.22060E+01 0.00000E+00
 -1       500 5.56500E+01 4.22060E+01 0.00000E+00
 -1       501 5.86500E+01 4.22060E+01 0.00000E+00
 -1       502 6.16500E+01 4.22060E+01 0.00000E+00
 -1       503 6.46500E+01 4.22060E+01 0.00000E+00
 -1       504 6.76500E+01 4.22060E+01 0.00000E+00
 -1       505 7.06500E+01 4.22060E+01 0.00000E+00
 -1       506 7.36500E+01 4.22060E+01 0.00000E+00
 -1       507 7.66500E+01 4.22060E+01 0.00000E+00
 -1       508 7.96500E+01 4.22060E+01 0.00000E+00
 -1       509 8.26500E+01 4.22060E+01 0.00000E+00
 -1       510 8.56500E+01 4.22060E+01 0.00000E+00
 -1       511 8.86500E+01 4.22060E+01 0.00000E+00
 -1       512 9.16500E+01 4.22060E+01 0.00000E+00
 -1       513 9.46500E+01 4.22060E+01 0.00000E+00
 -1       514 9.76500E+01 4.22060E+01 0.00000E+00
 -1       515 1.00650E+02 4.22060E+01 0.00000E+00
 -1       516 1.03650E+02 4.22060E+01 0.00000E+00
 -1       517 1.06650E+02 4.22060E+01 0.00000E+00
 -1       518 1.09650E+02 4.22060E+01 0.00000E+00
 -1       519 1.12650E+02 4.22060E+01 0.00000E+00
 -1       520 1.15650E+02 4.22060E+01 0.00000E+00
 -1       521 1.18650E+02 4.22060E+01 0.00000E+00
 -1       522 1.21650E+02 4.22060E+01 0.00000E+00
 -1       523 1.24650E+02 4.22060E+01 0.00000E+00
 -1       524 1.27650E+02 4.22060E+01 0.00000E+00
 -1       525 1.30650E+02 4.22060E+01 0.00000E+00
 -1       526 1.33650E+02 4.22060E+01 0.00000E+00
 -1       527 1.36650E+02 4.22060E+01 0.00000E+00
 -1       528 1.39650E+02 4.22060E+01 0.00000E+00
 -1       529 1.90350E+01 6.60425E+00 0.00000E+00
 -1       530 2.20350E+01 6.60425E+00 0.00000E+00
 -1       531 2.50350E+01 6.60425E+00 0.00000E+00
 -1       532 2.80350E+01 6.60425E+00 0.00000E+00
 -1       533 3.10350E+01 6.60425E+00 0.00000E+00
 -1       534 3.40350E+01 6.60425E+00 0.00000E+00
 -1       535 3.70350E+01 6.60425E+00 0.00000E+00
 -1       536 4.00350E+01 6.60425E+00 0.00000E+00
 -1       537 4.30350E+01 6.60425E+00 0.00000E+00
 -1       538 4.60350E+01 6.60425E+00 0.00000E+00
 -1       539 4.90350E+01 6.60425E+00 0.00000E+00
 -1       540 5.20350E+01 6.60425E+00 0.00000E+00
 -1       541 5.50350E+01 6.60425E+00 0.00000E+00
 -1       542 5.80350E+01 6.60425E+00 0.00000E+00
 -1       543 6.10350E+01 6.60425E+00 0.00000E+00
 -1       544 6.40350E+01 6.60425E+00 0.00000E+00
 -1       545 6.70350E+01 6.60425E+00 0.00000E+00
 -1       546 7.00350E+01 6.60425E+00 0.00000E+00
 -1       547 7.30350E+01 6.60425E+00 0.00000E+00
 -1       548 7.60350E+01 6.60425E+00 0.00000E+00
 -1       549 7.90350E+01 6.60425E+00 0.00000E+00
 -1       550 8.20350E+01 6.60425E+00 0.00000E+00
 -1       551 8.50350E+01 6.60425E+00 0.00000E+00
 -1       552 8.80350E+01 6.60425E+00 0.00000E+00
 -1       553 9.10350E+01 6.60425E+00 0.00000E+00
 -1       554 9.40350E+01 6.60425E+00 0.00000E+00
 -1       555 9.70350E+01 6.60425E+00 0.00000E+00
 -1       556 1.00035E+02 6.60425E+00 0.00000E+00
 -1       557 1.03035E+02 6.60425E+00 0.00000E+00
 -1       558 1.06035E+02 6.60425E+00 0.00000E+00
 -1       559 1.09035E+02 6.60425E+00 0.00000E+00
 -1       560 1.12035E+02 6.60425E+00 0.00000E+00
 -1       561 1.15035E+02 6.60425E+00 0.00000E+00
 -1       562 1.18035E+02 6.60425E+00 0.00000E+00
 -1       563 1.21035E+02 6.60425E+00 0.00000E+00
 -1       564 1.24035E+02 6.60425E+00 0.00000E+00
 -1       565 1.27035E+02 6.60425E+00 0.00000E+00
 -1       566 1.30035E+02 6.60425E+00 0.00000E+00
 -1       567 1.33035E+02 6.60425E+00 0.00000E+00
 -1       568 1.36035E+02 6.60425E+00 0.00000E+00
 -1       569 1.39035E+02 6.60425E+00 0.00000E+00
 -1       570 1.42035E+02 6.60425E+00 0.00000E+00
 -1       571 1.42206E+02 1.61750E+01 0.00000E+00
 -1       572 1.42206E+02 1.91250E+01 0.00000E+00
 -1       573 1.42206E+02 1.03250E+01 0.00000E+00
 -1       574 1.42206E+02 1.32500E+01 0.00000E+00
 -1       575 1.42206E+02 2.20750E+01 0.00000E+00
 -1       576 1.42206E+02 2.50250E+01 0.00000E+00
 -1       577 1.42206E+02 2.79750E+01 0.00000E+00
 -1       578 1.42206E+02 3.08750E+01 0.00000E+00
 -1       579 1.42206E+02 3.38250E+01 0.00000E+00
 -1       580 1.42206E+02 3.67750E+01 0.00000E+00
 -1       581 1.42206E+02 3.97250E+01 0.00000E+00
 -1       582 4.69844E+01 2.53764E+01 0.00000E+00
 -1       583 1.60350E+01 6.60425E+00 0.00000E+00
 -1       584 4.70030E+01 2.28978E+01 0.00000E+00
 -1       585 4.51419E+01 2.96415E+01 0.00000E+00
 -1       586 4.36100E+01 1.64890E+01 0.00000E+00
 -1       587 4.65958E+01 2.08380E+01 0.00000E+00
 -1       588 3.45651E+01 3.55846E+01 0.00000E+00
 -1       589 3.29026E+01 1.27092E+01 0.00000E+00
 -1       590 7.79400E+00 2.79000E+01 0.00000E+00
 -1       591 3.54822E+01 1.24271E+01 0.00000E+00
 -1       592 2.70422E+01 1.71832E+01 0.00000E+00
 -1       593 3.74256E+01 1.26678E+01 0.00000E+00
 -1       594 3.01736E+01 1.37530E+01 0.00000E+00
 -1       595 4.07824E+01 3.38846E+01 0.00000E+00
 -1       596 2.83413E+01 1.53929E+01 0.00000E+00
 -1       597 2.57993E+01 1.88680E+01 0.00000E+00
 -1       598 2.49883E+01 2.11860E+01 0.00000E+00
 -1       599 2.43674E+01 2.35207E+01 0.00000E+00
 -1       600 2.43361E+01 2.54865E+01 0.00000E+00
 -1       601 2.52090E+01 2.83976E+01 0.00000E+00
 -1       602 2.61452E+01 3.01106E+01 0.00000E+00
 -1       603 2.80289E+01 3.21224E+01 0.00000E+00
 -1       604 2.95624E+01 3.34654E+01 0.00000E+00
 -1       605 3.16456E+01 3.49201E+01 0.00000E+00
 -1       606 3.67514E+01 3.52327E+01 0.00000E+00
 -1       607 3.87009E+01 3.46023E+01 0.00000E+00
 -1       608 4.23167E+01 3.28737E+01 0.00000E+00
 -1       609 4.40697E+01 3.10982E+01 0.00000E+00
 -1       610 4.64390E+01 2.76084E+01 0.00000E+00
 -1       611 7.92300E+00 4.16780E+01 0.00000E+00
 -1       612 7.61550E+00 6.21462E+00 0.00000E+00
 -1       613 4.19465E+01 1.50085E+01 0.00000E+00
 -1       614 7.79400E+00 3.67375E+01 0.00000E+00
 -1       615 4.54416E+01 1.69271E+01 0.00000E+00
 -1       616 1.41678E+02 4.22645E+01 0.00000E+00
 -1       617 4.69547E+01 1.92174E+01 0.00000E+00
 -1       618 3.27769E+01 3.66305E+01 0.00000E+00
 -1       619 2.60464E+01 3.19799E+01 0.00000E+00
 -1       620 2.35141E+01 2.72962E+01 0.00000E+00
 -1       621 1.03920E+01 2.05500E+01 0.00000E+00
 -1       622 1.03920E+01 2.35000E+01 0.00000E+00
 -1       623 1.03920E+01 1.46750E+01 0.00000E+00
 -1       624 1.03920E+01 1.17250E+01 0.00000E+00
 -1       625 1.15350E+01 9.20225E+00 0.00000E+00
 -1       626 1.45350E+01 9.20225E+00 0.00000E+00
 -1       627 4.85406E+01 2.69393E+01 0.00000E+00
 -1       628 1.51500E+01 3.96080E+01 0.00000E+00
 -1       629 1.81500E+01 3.96080E+01 0.00000E+00
 -1       630 2.11500E+01 3.96080E+01 0.00000E+00
 -1       631 2.41500E+01 3.96080E+01 0.00000E+00
 -1       632 2.71500E+01 3.96080E+01 0.00000E+00
 -1       633 3.01500E+01 3.96080E+01 0.00000E+00
 -1       634 3.31500E+01 3.96080E+01 0.00000E+00
 -1       635 3.61500E+01 3.96080E+01 0.00000E+00
 -1       636 3.91500E+01 3.96080E+01 0.00000E+00
 -1       637 4.21500E+01 3.96080E+01 0.00000E+00
 -1       638 4.51500E+01 3.96080E+01 0.00000E+00
 -1       639 4.81500E+01 3.96080E+01 0.00000E+00
 -1       640 5.11500E+01 3.96080E+01 0.00000E+00
 -1       641 5.41500E+01 3.96080E+01 0.00000E+00
 -1       642 5.71500E+01 3.96080E+01 0.00000E+00
 -1       643 6.01500E+01 3.96080E+01 0.00000E+00
 -1       644 6.31500E+01 3.96080E+01 0.00000E+00
 -1       645 6.61500E+01 3.96080E+01 0.00000E+00
 -1       646 6.91500E+01 3.96080E+01 0.00000E+00
 -1       647 7.21500E+01 3.96080E+01 0.00000E+00
 -1       648 7.51500E+01 3.96080E+01 0.00000E+00
 -1       649 7.81500E+01 3.96080E+01 0.00000E+00
 -1       650 8.11500E+01 3.96080E+01 0.00000E+00
 -1       651 8.41500E+01 3.96080E+01 0.00000E+00
 -1       652 8.71500E+01 3.96080E+01 0.00000E+00
 -1       653 9.01500E+01 3.96080E+01 0.00000E+00
 -1       654 9.31500E+01 3.96080E+01 0.00000E+00
 -1       655 9.61500E+01 3.96080E+01 0.00000E+00
 -1       656 9.91500E+01 3.96080E+01 0.00000E+00
 -1       657 1.02150E+02 3.96080E+01 0.00000E+00
 -1       658 1.05150E+02 3.96080E+01 0.00000E+00
 -1       659 1.08150E+02 3.96080E+01 0.00000E+00
 -1       660 1.11150E+02 3.96080E+01 0.00000E+00
 -1       661 1.14150E+02 3.96080E+01 0.00000E+00
 -1       662 1.17150E+02 3.96080E+01 0.00000E+00
 -1       663 1.20150E+02 3.96080E+01 0.00000E+00
 -1       664 1.23150E+02 3.96080E+01 0.00000E+00
 -1       665 1.26150E+02 3.96080E+01 0.00000E+00
 -1       666 1.29150E+02 3.96080E+01 0.00000E+00
 -1       667 1.32150E+02 3.96080E+01 0.00000E+00
 -1       668 1.35150E+02 3.96080E+01 0.00000E+00
 -1       669 1.38150E+02 3.96080E+01 0.00000E+00
 -1       670 2.35350E+01 9.20225E+00 0.00000E+00
 -1       671 2.05350E+01 9.20225E+00 0.00000E+00
 -1       672 2.95350E+01 9.20225E+00 0.00000E+00
 -1       673 3.25350E+01 9.20225E+00 0.00000E+00
 -1       674 3.55350E+01 9.20225E+00 0.00000E+00
 -1       675 3.85350E+01 9.20225E+00 0.00000E+00
 -1       676 4.15350E+01 9.20225E+00 0.00000E+00
 -1       677 4.45350E+01 9.20225E+00 0.00000E+00
 -1       678 4.75350E+01 9.20225E+00 0.00000E+00
 -1       679 5.05350E+01 9.20225E+00 0.00000E+00
 -1       680 5.35350E+01 9.20225E+00 0.00000E+00
 -1       681 5.65350E+01 9.20225E+00 0.00000E+00
 -1       682 5.95350E+01 9.20225E+00 0.00000E+00
 -1       683 6.25350E+01 9.20225E+00 0.00000E+00
 -1       684 6.55350E+01 9.20225E+00 0.00000E+00
 -1       685 6.85350E+01 9.20225E+00 0.00000E+00
 -1       686 7.15350E+01 9.20225E+00 0.00000E+00
 -1       687 7.45350E+01 9.20225E+00 0.00000E+00
 -1       688 7.75350E+01 9.20225E+00 0.00000E+00
 -1       689 8.05350E+01 9.20225E+00 0.00000E+00
 -1       690 8.35350E+01 9.20225E+00 0.00000E+00
 -1       691 8.65350E+01 9.20225E+00 0.00000E+00
 -1       692 8.95350E+01 9.20225E+00 0.00000E+00
 -1       693 9.25350E+01 9.20225E+00 0.00000E+00
 -1       694 9.55350E+01 9.20225E+00 0.00000E+00
 -1       695 9.85350E+01 9.20225E+00 0.00000E+00
 -1       696 1.01535E+02 9.20225E+00 0.00000E+00
 -1       697 1.04535E+02 9.20225E+00 0.00000E+00
 -1       698 1.07535E+02 9.20225E+00 0.00000E+00
 -1       699 1.10535E+02 9.20225E+00 0.00000E+00
 -1       700 1.13535E+02 9.20225E+00 0.00000E+00
 -1       701 1.16535E+02 9.20225E+00 0.00000E+00
 -1       702 1.19535E+02 9.20225E+00 0.00000E+00
 -1       703 1.22535E+02 9.20225E+00 0.00000E+00
 -1       704 1.25535E+02 9.20225E+00 0.00000E+00
 -1       705 1.28535E+02 9.20225E+00 0.00000E+00
 -1       706 1.31535E+02 9.20225E+00 0.00000E+00
 -1       707 1.34535E+02 9.20225E+00 0.00000E+00
 -1       708 1.37535E+02 9.20225E+00 0.00000E+00
 -1       709 1.39870E+02 9.76363E+00 0.00000E+00
 -1       710 4.71657E+01 2.95024E+01 0.00000E+00
 -1       711 1.39608E+02 2.35500E+01 0.00000E+00
 -1       712 2.95261E+01 3.57363E+01 0.00000E+00
 -1       713 1.39608E+02 1.76500E+01 0.00000E+00
 -1       714 1.39608E+02 2.65000E+01 0.00000E+00
 -1       715 1.39608E+02 2.06000E+01 0.00000E+00
 -1       716 1.39608E+02 2.94000E+01 0.00000E+00
 -1       717 1.39608E+02 3.23500E+01 0.00000E+00
 -1       718 1.39608E+02 3.53000E+01 0.00000E+00
 -1       719 1.75350E+01 9.20225E+00 0.00000E+00
 -1       720 4.26775E+01 3.50913E+01 0.00000E+00
 -1       721 4.88108E+01 2.14703E+01 0.00000E+00
 -1       722 2.30204E+01 2.19125E+01 0.00000E+00
 -1       723 4.03007E+01 3.58649E+01 0.00000E+00
 -1       724 2.65350E+01 9.20225E+00 0.00000E+00
 -1       725 1.21500E+01 3.96080E+01 0.00000E+00
 -1       726 4.21006E+01 1.26579E+01 0.00000E+00
 -1       727 1.40178E+02 3.96665E+01 0.00000E+00
 -1       728 1.03920E+01 1.76125E+01 0.00000E+00
 -1       729 1.03920E+01 3.23250E+01 0.00000E+00
 -1       730 4.45330E+01 3.33087E+01 0.00000E+00
 -1       731 2.50405E+01 1.70074E+01 0.00000E+00
 -1       732 4.87922E+01 2.39489E+01 0.00000E+00
 -1       733 2.38540E+01 1.94882E+01 0.00000E+00
 -1       734 2.80019E+01 1.31700E+01 0.00000E+00
 -1       735 2.63397E+01 1.52171E+01 0.00000E+00
 -1       736 2.28044E+01 2.44789E+01 0.00000E+00
 -1       737 2.40251E+01 3.01570E+01 0.00000E+00
 -1       738 3.59308E+01 3.71020E+01 0.00000E+00
 -1       739 2.77209E+01 3.40211E+01 0.00000E+00
 -1       740 3.82280E+01 3.64697E+01 0.00000E+00
 -1       741 3.95198E+01 1.15892E+01 0.00000E+00
 -1       742 4.41413E+01 1.42172E+01 0.00000E+00
 -1       743 4.61221E+01 3.14858E+01 0.00000E+00
 -1       744 1.03920E+01 3.52625E+01 0.00000E+00
 -1       745 1.03920E+01 2.64500E+01 0.00000E+00
 -1       746 4.59730E+01 1.46554E+01 0.00000E+00
 -1       747 4.91696E+01 1.98497E+01 0.00000E+00
 -1       748 1.39870E+02 1.26886E+01 0.00000E+00
 -1       749 3.75764E+01 1.13485E+01 0.00000E+00
 -1       750 4.72645E+01 1.74915E+01 0.00000E+00
 -1       751 2.19824E+01 2.62886E+01 0.00000E+00
 -1       752 1.05210E+01 3.87342E+01 0.00000E+00
 -1       753 1.38879E+02 3.74540E+01 0.00000E+00
 -1       754 1.39739E+02 1.51693E+01 0.00000E+00
 -1       755 1.03920E+01 2.93875E+01 0.00000E+00
 -1       756 2.97062E+01 1.11577E+01 0.00000E+00
 -1       757 4.44675E+01 1.16753E+01 0.00000E+00
 -1       758 1.29900E+01 1.32000E+01 0.00000E+00
 -1       759 3.05012E+01 3.69063E+01 0.00000E+00
 -1       760 1.36500E+01 3.70100E+01 0.00000E+00
 -1       761 4.50257E+01 3.56785E+01 0.00000E+00
 -1       762 1.96500E+01 3.70100E+01 0.00000E+00
 -1       763 2.26500E+01 3.70100E+01 0.00000E+00
 -1       764 2.56500E+01 3.70100E+01 0.00000E+00
 -1       765 2.86500E+01 3.75578E+01 0.00000E+00
 -1       766 4.80257E+01 3.56785E+01 0.00000E+00
 -1       767 5.10257E+01 3.56785E+01 0.00000E+00
 -1       768 5.40257E+01 3.56785E+01 0.00000E+00
 -1       769 5.70257E+01 3.56785E+01 0.00000E+00
 -1       770 6.00257E+01 3.56785E+01 0.00000E+00
 -1       771 6.30257E+01 3.56785E+01 0.00000E+00
 -1       772 6.60257E+01 3.56785E+01 0.00000E+00
 -1       773 6.90257E+01 3.56785E+01 0.00000E+00
 -1       774 7.20257E+01 3.56785E+01 0.00000E+00
 -1       775 7.50257E+01 3.56785E+01 0.00000E+00
 -1       776 7.80257E+01 3.56785E+01 0.00000E+00
 -1       777 8.10257E+01 3.56785E+01 0.00000E+00
 -1       778 8.40257E+01 3.56785E+01 0.00000E+00
 -1       779 8.70257E+01 3.56785E+01 0.00000E+00
 -1       780 9.00257E+01 3.56785E+01 0.00000E+00
 -1       781 9.30257E+01 3.56785E+01 0.00000E+00
 -1       782 9.60257E+01 3.56785E+01 0.00000E+00
 -1       783 9.90257E+01 3.56785E+01 0.00000E+00
 -1       784 1.02026E+02 3.56785E+01 0.00000E+00
 -1       785 1.05026E+02 3.56785E+01 0.00000E+00
 -1       786 1.08026E+02 3.56785E+01 0.00000E+00
 -1       787 1.11026E+02 3.56785E+01 0.00000E+00
 -1       788 1.14026E+02 3.56785E+01 0.00000E+00
 -1       789 1.17026E+02 3.56785E+01 0.00000E+00
 -1       790 1.20026E+02 3.56785E+01 0.00000E+00
 -1       791 1.23026E+02 3.56785E+01 0.00000E+00
 -1       792 1.26026E+02 3.56785E+01 0.00000E+00
 -1       793 1.29026E+02 3.56785E+01 0.00000E+00
 -1       794 1.32026E+02 3.56785E+01 0.00000E+00
 -1       795 1.35026E+02 3.56785E+01 0.00000E+00
 -1       796 4.74675E+01 1.16753E+01 0.00000E+00
 -1       797 5.04675E+01 1.16753E+01 0.00000E+00
 -1       798 5.34675E+01 1.16753E+01 0.00000E+00
 -1       799 5.64675E+01 1.16753E+01 0.00000E+00
 -1       800 5.94675E+01 1.16753E+01 0.00000E+00
 -1       801 6.24675E+01 1.16753E+01 0.00000E+00
 -1       802 6.54675E+01 1.16753E+01 0.00000E+00
 -1       803 6.84675E+01 1.16753E+01 0.00000E+00
 -1       804 7.14675E+01 1.16753E+01 0.00000E+00
 -1       805 7.44675E+01 1.16753E+01 0.00000E+00
 -1       806 7.74675E+01 1.16753E+01 0.00000E+00
 -1       807 8.04675E+01 1.16753E+01 0.00000E+00
 -1       808 8.34675E+01 1.16753E+01 0.00000E+00
 -1       809 8.64675E+01 1.16753E+01 0.00000E+00
 -1       810 8.94675E+01 1.16753E+01 0.00000E+00
 -1       811 9.24675E+01 1.16753E+01 0.00000E+00
 -1       812 9.54675E+01 1.16753E+01 0.00000E+00
 -1       813 9.84675E+01 1.16753E+01 0.00000E+00
 -1       814 1.01468E+02 1.16753E+01 0.00000E+00
 -1       815 1.04468E+02 1.16753E+01 0.00000E+00
 -1       816 1.07468E+02 1.16753E+01 0.00000E+00
 -1       817 1.10468E+02 1.16753E+01 0.00000E+00
 -1       818 1.13468E+02 1.16753E+01 0.00000E+00
 -1       819 1.16468E+02 1.16753E+01 0.00000E+00
 -1       820 1.19468E+02 1.16753E+01 0.00000E+00
 -1       821 1.22468E+02 1.16753E+01 0.00000E+00
 -1       822 1.25468E+02 1.16753E+01 0.00000E+00
 -1       823 1.28468E+02 1.16753E+01 0.00000E+00
 -1       824 1.31468E+02 1.16753E+01 0.00000E+00
 -1       825 1.34468E+02 1.16753E+01 0.00000E+00
 -1       826 1.37535E+02 1.21272E+01 0.00000E+00
 -1       827 1.37010E+02 2.79500E+01 0.00000E+00
 -1       828 1.37010E+02 2.50000E+01 0.00000E+00
 -1       829 2.38951E+01 1.48097E+01 0.00000E+00
 -1       830 5.06841E+01 2.27237E+01 0.00000E+00
 -1       831 4.84583E+01 3.14488E+01 0.00000E+00
 -1       832 1.37010E+02 3.09000E+01 0.00000E+00
 -1       833 2.20350E+01 1.18003E+01 0.00000E+00
 -1       834 2.74422E+01 3.61221E+01 0.00000E+00
 -1       835 2.16569E+01 2.00882E+01 0.00000E+00
 -1       836 1.66500E+01 3.70100E+01 0.00000E+00
 -1       837 1.37625E+01 1.12011E+01 0.00000E+00
 -1       838 4.67420E+01 3.35636E+01 0.00000E+00
 -1       839 1.29900E+01 2.20250E+01 0.00000E+00
 -1       840 2.55576E+01 3.40883E+01 0.00000E+00
 -1       841 1.20210E+01 3.61362E+01 0.00000E+00
 -1       842 2.35363E+01 3.22654E+01 0.00000E+00
 -1       843 2.55574E+01 1.27626E+01 0.00000E+00
 -1       844 2.17513E+01 2.90871E+01 0.00000E+00
 -1       845 4.98332E+01 2.88857E+01 0.00000E+00
 -1       846 5.08764E+01 2.56300E+01 0.00000E+00
 -1       847 2.27086E+01 1.72905E+01 0.00000E+00
 -1       848 2.08694E+01 2.30238E+01 0.00000E+00
 -1       849 1.29900E+01 2.49750E+01 0.00000E+00
 -1       850 1.29900E+01 1.61375E+01 0.00000E+00
 -1       851 1.20210E+01 3.31987E+01 0.00000E+00
 -1       852 4.94794E+01 1.81238E+01 0.00000E+00
 -1       853 1.37010E+02 1.91250E+01 0.00000E+00
 -1       854 1.20210E+01 3.02612E+01 0.00000E+00
 -1       855 1.37010E+02 2.20625E+01 0.00000E+00
 -1       856 5.10429E+01 2.11032E+01 0.00000E+00
 -1       857 1.67625E+01 1.12011E+01 0.00000E+00
 -1       858 1.93988E+01 1.15007E+01 0.00000E+00
 -1       859 4.77958E+01 1.52197E+01 0.00000E+00
 -1       860 1.37141E+02 1.66443E+01 0.00000E+00
 -1       861 2.12625E+01 3.11955E+01 0.00000E+00
 -1       862 1.37010E+02 3.38250E+01 0.00000E+00
 -1       863 1.29900E+01 1.90875E+01 0.00000E+00
 -1       864 2.00474E+01 2.48335E+01 0.00000E+00
 -1       865 1.59900E+01 1.32000E+01 0.00000E+00
 -1       866 5.31604E+01 2.40194E+01 0.00000E+00
 -1       867 5.25257E+01 3.30805E+01 0.00000E+00
 -1       868 5.55257E+01 3.30805E+01 0.00000E+00
 -1       869 5.85257E+01 3.30805E+01 0.00000E+00
 -1       870 6.15257E+01 3.30805E+01 0.00000E+00
 -1       871 6.45257E+01 3.30805E+01 0.00000E+00
 -1       872 6.75257E+01 3.30805E+01 0.00000E+00
 -1       873 7.05257E+01 3.30805E+01 0.00000E+00
 -1       874 7.35257E+01 3.30805E+01 0.00000E+00
 -1       875 7.65257E+01 3.30805E+01 0.00000E+00
 -1       876 7.95257E+01 3.30805E+01 0.00000E+00
 -1       877 8.25257E+01 3.30805E+01 0.00000E+00
 -1       878 8.55257E+01 3.30805E+01 0.00000E+00
 -1       879 8.85257E+01 3.30805E+01 0.00000E+00
 -1       880 9.15257E+01 3.30805E+01 0.00000E+00
 -1       881 9.45257E+01 3.30805E+01 0.00000E+00
 -1       882 9.75257E+01 3.30805E+01 0.00000E+00
 -1       883 1.00526E+02 3.30805E+01 0.00000E+00
 -1       884 1.03526E+02 3.30805E+01 0.00000E+00
 -1       885 1.06526E+02 3.30805E+01 0.00000E+00
 -1       886 1.09526E+02 3.30805E+01 0.00000E+00
 -1       887 1.12526E+02 3.30805E+01 0.00000E+00
 -1       888 1.15526E+02 3.30805E+01 0.00000E+00
 -1       889 1.18526E+02 3.30805E+01 0.00000E+00
 -1       890 1.21526E+02 3.30805E+01 0.00000E+00
 -1       891 1.24526E+02 3.30805E+01 0.00000E+00
 -1       892 1.27526E+02 3.30805E+01 0.00000E+00
 -1       893 1.30526E+02 3.30805E+01 0.00000E+00
 -1       894 1.33526E+02 3.30805E+01 0.00000E+00
 -1       895 5.49675E+01 1.42733E+01 0.00000E+00
 -1       896 5.79675E+01 1.42733E+01 0.00000E+00
 -1       897 6.09675E+01 1.42733E+01 0.00000E+00
 -1       898 6.39675E+01 1.42733E+01 0.00000E+00
 -1       899 6.69675E+01 1.42733E+01 0.00000E+00
 -1       900 6.99675E+01 1.42733E+01 0.00000E+00
 -1       901 7.29675E+01 1.42733E+01 0.00000E+00
 -1       902 7.59675E+01 1.42733E+01 0.00000E+00
 -1       903 7.89675E+01 1.42733E+01 0.00000E+00
 -1       904 8.19675E+01 1.42733E+01 0.00000E+00
 -1       905 8.49675E+01 1.42733E+01 0.00000E+00
 -1       906 8.79675E+01 1.42733E+01 0.00000E+00
 -1       907 9.09675E+01 1.42733E+01 0.00000E+00
 -1       908 9.39675E+01 1.42733E+01 0.00000E+00
 -1       909 9.69675E+01 1.42733E+01 0.00000E+00
 -1       910 9.99675E+01 1.42733E+01 0.00000E+00
 -1       911 1.02968E+02 1.42733E+01 0.00000E+00
 -1       912 1.05968E+02 1.42733E+01 0.00000E+00
 -1       913 1.08968E+02 1.42733E+01 0.00000E+00
 -1       914 1.11968E+02 1.42733E+01 0.00000E+00
 -1       915 1.14968E+02 1.42733E+01 0.00000E+00
 -1       916 1.17968E+02 1.42733E+01 0.00000E+00
 -1       917 1.20968E+02 1.42733E+01 0.00000E+00
 -1       918 1.23968E+02 1.42733E+01 0.00000E+00
 -1       919 1.26968E+02 1.42733E+01 0.00000E+00
 -1       920 1.29968E+02 1.42733E+01 0.00000E+00
 -1       921 1.32968E+02 1.42733E+01 0.00000E+00
 -1       922 1.34412E+02 2.64750E+01 0.00000E+00
 -1       923 1.25055E+01 2.76181E+01 0.00000E+00
 -1       924 1.34412E+02 2.94250E+01 0.00000E+00
 -1       925 1.51500E+01 3.44120E+01 0.00000E+00
 -1       926 1.98235E+01 2.75191E+01 0.00000E+00
 -1       927 1.81500E+01 3.44120E+01 0.00000E+00
 -1       928 5.24668E+01 2.79346E+01 0.00000E+00
 -1       929 1.92829E+01 2.10248E+01 0.00000E+00
 -1       930 2.01068E+01 1.79089E+01 0.00000E+00
 -1       931 2.32861E+01 3.45749E+01 0.00000E+00
 -1       932 1.35855E+01 3.38054E+01 0.00000E+00
 -1       933 5.11002E+01 3.12156E+01 0.00000E+00
 -1       934 2.12932E+01 1.54281E+01 0.00000E+00
 -1       935 5.19675E+01 1.42733E+01 0.00000E+00
 -1       936 1.34412E+02 2.05938E+01 0.00000E+00
 -1       937 5.35193E+01 2.23988E+01 0.00000E+00
 -1       938 4.95257E+01 3.30805E+01 0.00000E+00
 -1       939 1.93348E+01 2.96275E+01 0.00000E+00
 -1       940 1.35855E+01 3.08679E+01 0.00000E+00
 -1       941 1.55880E+01 2.35000E+01 0.00000E+00
 -1       942 5.13527E+01 1.93772E+01 0.00000E+00
 -1       943 2.10123E+01 3.35050E+01 0.00000E+00
 -1       944 1.55880E+01 2.05625E+01 0.00000E+00
 -1       945 1.34412E+02 2.35313E+01 0.00000E+00
 -1       946 1.34543E+02 1.81131E+01 0.00000E+00
 -1       947 5.47509E+01 2.63240E+01 0.00000E+00
 -1       948 1.84609E+01 2.28345E+01 0.00000E+00
 -1       949 1.35623E+02 1.44715E+01 0.00000E+00
 -1       950 1.31814E+02 2.79500E+01 0.00000E+00
 -1       951 1.80060E+01 1.45932E+01 0.00000E+00
 -1       952 1.77253E+01 2.59921E+01 0.00000E+00
 -1       953 5.70257E+01 3.04825E+01 0.00000E+00
 -1       954 6.00257E+01 3.04825E+01 0.00000E+00
 -1       955 6.30257E+01 3.04825E+01 0.00000E+00
 -1       956 6.60257E+01 3.04825E+01 0.00000E+00
 -1       957 6.90257E+01 3.04825E+01 0.00000E+00
 -1       958 7.20257E+01 3.04825E+01 0.00000E+00
 -1       959 7.50257E+01 3.04825E+01 0.00000E+00
 -1       960 7.80257E+01 3.04825E+01 0.00000E+00
 -1       961 8.10257E+01 3.04825E+01 0.00000E+00
 -1       962 8.40257E+01 3.04825E+01 0.00000E+00
 -1       963 8.70257E+01 3.04825E+01 0.00000E+00
 -1       964 9.00257E+01 3.04825E+01 0.00000E+00
 -1       965 9.30257E+01 3.04825E+01 0.00000E+00
 -1       966 9.60257E+01 3.04825E+01 0.00000E+00
 -1       967 9.90257E+01 3.04825E+01 0.00000E+00
 -1       968 1.02026E+02 3.04825E+01 0.00000E+00
 -1       969 1.05026E+02 3.04825E+01 0.00000E+00
 -1       970 1.08026E+02 3.04825E+01 0.00000E+00
 -1       971 1.11026E+02 3.04825E+01 0.00000E+00
 -1       972 1.14026E+02 3.04825E+01 0.00000E+00
 -1       973 1.17026E+02 3.04825E+01 0.00000E+00
 -1       974 1.20026E+02 3.04825E+01 0.00000E+00
 -1       975 1.23026E+02 3.04825E+01 0.00000E+00
 -1       976 1.26026E+02 3.04825E+01 0.00000E+00
 -1       977 1.29026E+02 3.04825E+01 0.00000E+00
 -1       978 5.94675E+01 1.68713E+01 0.00000E+00
 -1       979 5.64675E+01 1.68713E+01 0.00000E+00
 -1       980 6.54675E+01 1.68713E+01 0.00000E+00
 -1       981 6.84675E+01 1.68713E+01 0.00000E+00
 -1       982 7.14675E+01 1.68713E+01 0.00000E+00
 -1       983 7.44675E+01 1.68713E+01 0.00000E+00
 -1       984 7.74675E+01 1.68713E+01 0.00000E+00
 -1       985 8.04675E+01 1.68713E+01 0.00000E+00
 -1       986 8.34675E+01 1.68713E+01 0.00000E+00
 -1       987 8.64675E+01 1.68713E+01 0.00000E+00
 -1       988 8.94675E+01 1.68713E+01 0.00000E+00
 -1       989 9.24675E+01 1.68713E+01 0.00000E+00
 -1       990 9.54675E+01 1.68713E+01 0.00000E+00
 -1       991 9.84675E+01 1.68713E+01 0.00000E+00
 -1       992 1.01468E+02 1.68713E+01 0.00000E+00
 -1       993 1.04468E+02 1.68713E+01 0.00000E+00
 -1       994 1.07468E+02 1.68713E+01 0.00000E+00
 -1       995 1.10468E+02 1.68713E+01 0.00000E+00
 -1       996 1.13468E+02 1.68713E+01 0.00000E+00
 -1       997 1.16468E+02 1.68713E+01 0.00000E+00
 -1       998 1.19468E+02 1.68713E+01 0.00000E+00
 -1       999 1.22468E+02 1.68713E+01 0.00000E+00
 -1      1000 1.25468E+02 1.68713E+01 0.00000E+00
 -1      1001 1.28468E+02 1.68713E+01 0.00000E+00
 -1      1002 1.31468E+02 1.68713E+01 0.00000E+00
 -1      1003 1.55717E+01 2.64968E+01 0.00000E+00
 -1      1004 1.66500E+01 3.18140E+01 0.00000E+00
 -1      1005 1.31170E+02 3.05152E+01 0.00000E+00
 -1      1006 1.55880E+01 1.76125E+01 0.00000E+00
 -1      1007 1.31814E+02 2.20625E+01 0.00000E+00
 -1      1008 5.38308E+01 3.04279E+01 0.00000E+00
 -1      1009 1.89562E+01 3.15047E+01 0.00000E+00
 -1      1010 5.34675E+01 1.68713E+01 0.00000E+00
 -1      1011 1.31814E+02 2.50063E+01 0.00000E+00
 -1      1012 6.24675E+01 1.68713E+01 0.00000E+00
 -1      1013 5.51097E+01 2.47034E+01 0.00000E+00
 -1      1014 1.31945E+02 1.95818E+01 0.00000E+00
 -1      1015 5.58883E+01 2.84032E+01 0.00000E+00
 -1      1016 1.45786E+01 2.86823E+01 0.00000E+00
 -1      1017 5.38290E+01 2.06728E+01 0.00000E+00
 -1      1018 1.51178E+01 3.13409E+01 0.00000E+00
 -1      1019 1.74532E+01 2.80621E+01 0.00000E+00
 -1      1020 5.88883E+01 2.84032E+01 0.00000E+00
 -1      1021 6.18883E+01 2.84032E+01 0.00000E+00
 -1      1022 6.48883E+01 2.84032E+01 0.00000E+00
 -1      1023 6.78883E+01 2.84032E+01 0.00000E+00
 -1      1024 7.08883E+01 2.84032E+01 0.00000E+00
 -1      1025 7.38883E+01 2.84032E+01 0.00000E+00
 -1      1026 7.68883E+01 2.84032E+01 0.00000E+00
 -1      1027 7.98883E+01 2.84032E+01 0.00000E+00
 -1      1028 8.28883E+01 2.84032E+01 0.00000E+00
 -1      1029 8.58883E+01 2.84032E+01 0.00000E+00
 -1      1030 8.88883E+01 2.84032E+01 0.00000E+00
 -1      1031 9.18883E+01 2.84032E+01 0.00000E+00
 -1      1032 9.48883E+01 2.84032E+01 0.00000E+00
 -1      1033 9.78883E+01 2.84032E+01 0.00000E+00
 -1      1034 1.00888E+02 2.84032E+01 0.00000E+00
 -1      1035 1.03888E+02 2.84032E+01 0.00000E+00
 -1      1036 1.06888E+02 2.84032E+01 0.00000E+00
 -1      1037 1.09888E+02 2.84032E+01 0.00000E+00
 -1      1038 1.12888E+02 2.84032E+01 0.00000E+00
 -1      1039 1.15888E+02 2.84032E+01 0.00000E+00
 -1      1040 1.18888E+02 2.84032E+01 0.00000E+00
 -1      1041 1.21888E+02 2.84032E+01 0.00000E+00
 -1      1042 1.24888E+02 2.84032E+01 0.00000E+00
 -1      1043 1.27888E+02 2.84032E+01 0.00000E+00
 -1      1044 5.79675E+01 1.94693E+01 0.00000E+00
 -1      1045 6.99675E+01 1.94693E+01 0.00000E+00
 -1      1046 6.69675E+01 1.94693E+01 0.00000E+00
 -1      1047 7.59675E+01 1.94693E+01 0.00000E+00
 -1      1048 7.89675E+01 1.94693E+01 0.00000E+00
 -1      1049 8.19675E+01 1.94693E+01 0.00000E+00
 -1      1050 8.49675E+01 1.94693E+01 0.00000E+00
 -1      1051 8.79675E+01 1.94693E+01 0.00000E+00
 -1      1052 9.09675E+01 1.94693E+01 0.00000E+00
 -1      1053 9.39675E+01 1.94693E+01 0.00000E+00
 -1      1054 9.69675E+01 1.94693E+01 0.00000E+00
 -1      1055 9.99675E+01 1.94693E+01 0.00000E+00
 -1      1056 1.02968E+02 1.94693E+01 0.00000E+00
 -1      1057 1.05968E+02 1.94693E+01 0.00000E+00
 -1      1058 1.08968E+02 1.94693E+01 0.00000E+00
 -1      1059 1.11968E+02 1.94693E+01 0.00000E+00
 -1      1060 1.14968E+02 1.94693E+01 0.00000E+00
 -1      1061 1.17968E+02 1.94693E+01 0.00000E+00
 -1      1062 1.20968E+02 1.94693E+01 0.00000E+00
 -1      1063 1.23968E+02 1.94693E+01 0.00000E+00
 -1      1064 1.26968E+02 1.94693E+01 0.00000E+00
 -1      1065 1.70516E+01 2.99381E+01 0.00000E+00
 -1      1066 6.09675E+01 1.94693E+01 0.00000E+00
 -1      1067 1.29851E+02 2.81766E+01 0.00000E+00
 -1      1068 1.29216E+02 2.35344E+01 0.00000E+00
 -1      1069 7.29675E+01 1.94693E+01 0.00000E+00
 -1      1070 1.29534E+02 2.58555E+01 0.00000E+00
 -1      1071 6.39675E+01 1.94693E+01 0.00000E+00
 -1      1072 5.62778E+01 2.21962E+01 0.00000E+00
 -1      1073 1.29347E+02 2.10537E+01 0.00000E+00
 -1      1074 5.77509E+01 2.63240E+01 0.00000E+00
 -1      1075 6.84675E+01 2.20673E+01 0.00000E+00
 -1      1076 6.07509E+01 2.63240E+01 0.00000E+00
 -1      1077 6.37509E+01 2.63240E+01 0.00000E+00
 -1      1078 6.67509E+01 2.63240E+01 0.00000E+00
 -1      1079 6.97509E+01 2.63240E+01 0.00000E+00
 -1      1080 7.27509E+01 2.63240E+01 0.00000E+00
 -1      1081 7.57509E+01 2.63240E+01 0.00000E+00
 -1      1082 7.87509E+01 2.63240E+01 0.00000E+00
 -1      1083 8.17509E+01 2.63240E+01 0.00000E+00
 -1      1084 8.47509E+01 2.63240E+01 0.00000E+00
 -1      1085 8.77509E+01 2.63240E+01 0.00000E+00
 -1      1086 9.07509E+01 2.63240E+01 0.00000E+00
 -1      1087 9.37509E+01 2.63240E+01 0.00000E+00
 -1      1088 9.67509E+01 2.63240E+01 0.00000E+00
 -1      1089 9.97509E+01 2.63240E+01 0.00000E+00
 -1      1090 1.02751E+02 2.63240E+01 0.00000E+00
 -1      1091 1.05751E+02 2.63240E+01 0.00000E+00
 -1      1092 1.08751E+02 2.63240E+01 0.00000E+00
 -1      1093 1.11751E+02 2.63240E+01 0.00000E+00
 -1      1094 1.14751E+02 2.63240E+01 0.00000E+00
 -1      1095 1.17751E+02 2.63240E+01 0.00000E+00
 -1      1096 1.20751E+02 2.63240E+01 0.00000E+00
 -1      1097 1.23751E+02 2.63240E+01 0.00000E+00
 -1      1098 6.24675E+01 2.20673E+01 0.00000E+00
 -1      1099 8.34675E+01 2.20673E+01 0.00000E+00
 -1      1100 7.14675E+01 2.20673E+01 0.00000E+00
 -1      1101 8.04675E+01 2.20673E+01 0.00000E+00
 -1      1102 7.74675E+01 2.20673E+01 0.00000E+00
 -1      1103 8.64675E+01 2.20673E+01 0.00000E+00
 -1      1104 8.94675E+01 2.20673E+01 0.00000E+00
 -1      1105 9.24675E+01 2.20673E+01 0.00000E+00
 -1      1106 9.54675E+01 2.20673E+01 0.00000E+00
 -1      1107 9.84675E+01 2.20673E+01 0.00000E+00
 -1      1108 1.01468E+02 2.20673E+01 0.00000E+00
 -1      1109 1.04468E+02 2.20673E+01 0.00000E+00
 -1      1110 1.07468E+02 2.20673E+01 0.00000E+00
 -1      1111 1.10468E+02 2.20673E+01 0.00000E+00
 -1      1112 1.13468E+02 2.20673E+01 0.00000E+00
 -1      1113 1.16468E+02 2.20673E+01 0.00000E+00
 -1      1114 1.19468E+02 2.20673E+01 0.00000E+00
 -1      1115 1.22468E+02 2.20673E+01 0.00000E+00
 -1      1116 1.25468E+02 2.20673E+01 0.00000E+00
 -1      1117 5.89189E+01 2.38168E+01 0.00000E+00
 -1      1118 7.44675E+01 2.20673E+01 0.00000E+00
 -1      1119 6.54675E+01 2.20673E+01 0.00000E+00
 -1      1120 5.99432E+01 2.16431E+01 0.00000E+00
 -1      1121 1.26388E+02 2.58052E+01 0.00000E+00
 -1      1122 0.00000E+00 4.85250E+01 0.00000E+00
 -1      1123 0.00000E+00 4.55750E+01 0.00000E+00
 -1      1124 0.00000E+00 4.26250E+01 0.00000E+00
 -1      1125 0.00000E+00 3.96750E+01 0.00000E+00
 -1      1126 0.00000E+00 3.67250E+01 0.00000E+00
 -1      1127 0.00000E+00 3.38000E+01 0.00000E+00
 -1      1128 0.00000E+00 3.08750E+01 0.00000E+00
 -1      1129 0.00000E+00 2.79250E+01 0.00000E+00
 -1      1130 0.00000E+00 2.49750E+01 0.00000E+00
 -1      1131 0.00000E+00 2.20250E+01 0.00000E+00
 -1      1132 0.00000E+00 1.90750E+01 0.00000E+00
 -1      1133 0.00000E+00 1.61500E+01 0.00000E+00
 -1      1134 0.00000E+00 1.32250E+01 0.00000E+00
 -1      1135 0.00000E+00 1.02750E+01 0.00000E+00
 -1      1136 0.00000E+00 7.32500E+00 0.00000E+00
 -1      1137 0.00000E+00 4.37500E+00 0.00000E+00
 -1      1138 0.00000E+00 1.45000E+00 0.00000E+00
 -1      1139 1.57500E+00 5.00000E+01 0.00000E+00
 -1      1140 4.65000E+00 5.00000E+01 0.00000E+00
 -1      1141 7.65000E+00 5.00000E+01 0.00000E+00
 -1      1142 1.06500E+01 5.00000E+01 0.00000E+00
 -1      1143 1.36500E+01 5.00000E+01 0.00000E+00
 -1      1144 1.66500E+01 5.00000E+01 0.00000E+00
 -1      1145 1.96500E+01 5.00000E+01 0.00000E+00
 -1      1146 2.26500E+01 5.00000E+01 0.00000E+00
 -1      1147 2.56500E+01 5.00000E+01 0.00000E+00
 -1      1148 2.86500E+01 5.00000E+01 0.00000E+00
 -1      1149 3.16500E+01 5.00000E+01 0.00000E+00
 -1      1150 3.46500E+01 5.00000E+01 0.00000E+00
 -1      1151 3.76500E+01 5.00000E+01 0.00000E+00
 -1      1152 4.06500E+01 5.00000E+01 0.00000E+00
 -1      1153 4.36500E+01 5.00000E+01 0.00000E+00
 -1      1154 4.66500E+01 5.00000E+01 0.00000E+00
 -1      1155 4.96500E+01 5.00000E+01 0.00000E+00
 -1      1156 5.26500E+01 5.00000E+01 0.00000E+00
 -1      1157 5.56500E+01 5.00000E+01 0.00000E+00
 -1      1158 5.86500E+01 5.00000E+01 0.00000E+00
 -1      1159 6.16500E+01 5.00000E+01 0.00000E+00
 -1      1160 6.46500E+01 5.00000E+01 0.00000E+00
 -1      1161 6.76500E+01 5.00000E+01 0.00000E+00
 -1      1162 7.06500E+01 5.00000E+01 0.00000E+00
 -1      1163 7.36500E+01 5.00000E+01 0.00000E+00
 -1      1164 7.66500E+01 5.00000E+01 0.00000E+00
 -1      1165 7.96500E+01 5.00000E+01 0.00000E+00
 -1      1166 8.26500E+01 5.00000E+01 0.00000E+00
 -1      1167 8.56500E+01 5.00000E+01 0.00000E+00
 -1      1168 8.86500E+01 5.00000E+01 0.00000E+00
 -1      1169 9.16500E+01 5.00000E+01 0.00000E+00
 -1      1170 9.46500E+01 5.00000E+01 0.00000E+00
 -1      1171 9.76500E+01 5.00000E+01 0.00000E+00
 -1      1172 1.00650E+02 5.00000E+01 0.00000E+00
 -1      1173 1.03650E+02 5.00000E+01 0.00000E+00
 -1      1174 1.06650E+02 5.00000E+01 0.00000E+00
 -1      1175 1.09650E+02 5.00000E+01 0.00000E+00
 -1      1176 1.12650E+02 5.00000E+01 0.00000E+00
 -1      1177 1.15650E+02 5.00000E+01 0.00000E+00
 -1      1178 1.18650E+02 5.00000E+01 0.00000E+00
 -1      1179 1.21650E+02 5.00000E+01 0.00000E+00
 -1      1180 1.24650E+02 5.00000E+01 0.00000E+00
 -1      1181 1.27650E+02 5.00000E+01 0.00000E+00
 -1      1182 1.30650E+02 5.00000E+01 0.00000E+00
 -1      1183 1.33650E+02 5.00000E+01 0.00000E+00
 -1      1184 1.36650E+02 5.00000E+01 0.00000E+00
 -1      1185 1.39650E+02 5.00000E+01 0.00000E+00
 -1      1186 1.42650E+02 5.00000E+01 0.00000E+00
 -1      1187 1.45650E+02 5.00000E+01 0.00000E+00
 -1      1188 1.48575E+02 5.00000E+01 0.00000E+00
 -1      1189 1.57500E+00 0.00000E+00 0.00000E+00
 -1      1190 4.65000E+00 0.00000E+00 0.00000E+00
 -1      1191 7.65000E+00 0.00000E+00 0.00000E+00
 -1      1192 1.06500E+01 0.00000E+00 0.00000E+00
 -1      1193 1.36500E+01 0.00000E+00 0.00000E+00
 -1      1194 1.66500E+01 0.00000E+00 0.00000E+00
 -1      1195 1.96500E+01 0.00000E+00 0.00000E+00
 -1      1196 2.26500E+01 0.00000E+00 0.00000E+00
 -1      1197 2.56500E+01 0.00000E+00 0.00000E+00
 -1      1198 2.86500E+01 0.00000E+00 0.00000E+00
 -1      1199 3.16500E+01 0.00000E+00 0.00000E+00
 -1      1200 3.46500E+01 0.00000E+00 0.00000E+00
 -1      1201 3.76500E+01 0.00000E+00 0.00000E+00
 -1      1202 4.06500E+01 0.00000E+00 0.00000E+00
 -1      1203 4.36500E+01 0.00000E+00 0.00000E+00
 -1      1204 4.66500E+01 0.00000E+00 0.00000E+00
 -1      1205 4.96500E+01 0.00000E+00 0.00000E+00
 -1      1206 5.26500E+01 0.00000E+00 0.00000E+00
 -1      1207 5.56500E+01 0.00000E+00 0.00000E+00
 -1      1208 5.86500E+01 0.00000E+00 0.00000E+00
 -1      1209 6.16500E+01 0.00000E+00 0.00000E+00
 -1      1210 6.46500E+01 0.00000E+00 0.00000E+00
 -1      1211 6.76500E+01 0.00000E+00 0.00000E+00
 -1      1212 7.06500E+01 0.00000E+00 0.00000E+00
 -1      1213 7.36500E+01 0.00000E+00 0.00000E+00
 -1      1214 7.66500E+01 0.00000E+00 0.00000E+00
 -1      1215 7.96500E+01 0.00000E+00 0.00000E+00
 -1      1216 8.26500E+01 0.00000E+00 0.00000E+00
 -1      1217 8.56500E+01 0.00000E+00 0.00000E+00
 -1      1218 8.86500E+01 0.00000E+00 0.00000E+00
 -1      1219 9.16500E+01 0.00000E+00 0.00000E+00
 -1      1220 9.46500E+01 0.00000E+00 0.00000E+00
 -1      1221 9.76500E+01 0.00000E+00 0.00000E+00
 -1      1222 1.00650E+02 0.00000E+00 0.00000E+00
 -1      1223 1.03650E+02 0.00000E+00 0.00000E+00
 -1      1224 1.06650E+02 0.00000E+00 0.00000E+00
 -1      1225 1.09650E+02 0.00000E+00 0.00000E+00
 -1      1226 1.12650E+02 0.00000E+00 0.00000E+00
 -1      1227 1.15650E+02 0.00000E+00 0.00000E+00
 -1      1228 1.18650E+02 0.00000E+00 0.00000E+00
 -1      1229 1.21650E+02 0.00000E+00 0.00000E+00
 -1      1230 1.24650E+02 0.00000E+00 0.00000E+00
 -1      1231 1.27650E+02 0.00000E+00 0.00000E+00
 -1      1232 1.30650E+02 0.00000E+00 0.00000E+00
 -1      1233 1.33650E+02 0.00000E+00 0.00000E+00
 -1      1234 1.36650E+02 0.00000E+00 0.00000E+00
 -1      1235 1.39650E+02 0.00000E+00 0.00000E+00
 -1      1236 1.42650E+02 0.00000E+00 0.00000E+00
 -1      1237 1.45650E+02 0.00000E+00 0.00000E+00
 -1      1238 1.48575E+02 0.00000E+00 0.00000E+00
 -1      1239 1.50000E+02 1.47500E+00 0.00000E+00
 -1      1240 1.50000E+02 4.42500E+00 0.00000E+00
 -1      1241 1.50000E+02 7.37500E+00 0.00000E+00
 -1      1242 1.50000E+02 1.03250E+01 0.00000E+00
 -1      1243 1.50000E+02 1.32750E+01 0.00000E+00
 -1      1244 1.50000E+02 1.62000E+01 0.00000E+00
 -1      1245 1.50000E+02 1.91250E+01 0.00000E+00
 -1      1246 1.50000E+02 2.20750E+01 0.00000E+00
 -1      1247 1.50000E+02 2.50250E+01 0.00000E+00
 -1      1248 1.50000E+02 2.79750E+01 0.00000E+00
 -1      1249 1.50000E+02 3.09250E+01 0.00000E+00
 -1      1250 1.50000E+02 3.38500E+01 0.00000E+00
 -1      1251 1.50000E+02 3.67750E+01 0.00000E+00
 -1      1252 1.50000E+02 3.97250E+01 0.00000E+00
 -1      1253 1.50000E+02 4.26750E+01 0.00000E+00
 -1      1254 1.50000E+02 4.56250E+01 0.00000E+00
 -1      1255 1.50000E+02 4.85500E+01 0.00000E+00
 -1      1256 4.25609E+01 2.34105E+01 0.00000E+00
 -1      1257 4.22759E+01 2.20161E+01 0.00000E+00
 -1      1258 4.16467E+01 2.05885E+01 0.00000E+00
 -1      1259 4.07386E+01 1.93591E+01 0.00000E+00
 -1      1260 3.96155E+01 1.83770E+01 0.00000E+00
 -1      1261 3.82792E+01 1.76426E+01 0.00000E+00
 -1      1262 3.68868E+01 1.72279E+01 0.00000E+00
 -1      1263 3.54288E+01 1.71098E+01 0.00000E+00
 -1      1264 3.38738E+01 1.73229E+01 0.00000E+00
 -1      1265 3.24301E+01 1.78645E+01 0.00000E+00
 -1      1266 3.11947E+01 1.86644E+01 0.00000E+00
 -1      1267 3.01430E+01 1.97183E+01 0.00000E+00
 -1      1268 2.93643E+01 2.09188E+01 0.00000E+00
 -1      1269 2.88473E+01 2.22480E+01 0.00000E+00
 -1      1270 2.86074E+01 2.37031E+01 0.00000E+00
 -1      1271 2.86786E+01 2.51819E+01 0.00000E+00
 -1      1272 2.90628E+01 2.66219E+01 0.00000E+00
 -1      1273 2.97401E+01 2.79434E+01 0.00000E+00
 -1      1274 3.06987E+01 2.91097E+01 0.00000E+00
 -1      1275 3.19339E+01 3.00736E+01 0.00000E+00
 -1      1276 3.33452E+01 3.07362E+01 0.00000E+00
 -1      1277 3.48421E+01 3.10671E+01 0.00000E+00
 -1      1278 3.62774E+01 3.10745E+01 0.00000E+00
 -1      1279 3.75994E+01 3.08149E+01 0.00000E+00
 -1      1280 3.88324E+01 3.03146E+01 0.00000E+00
 -1      1281 3.99593E+01 2.95813E+01 0.00000E+00
 -1      1282 4.09281E+01 2.86428E+01 0.00000E+00
 -1      1283 4.17161E+01 2.75050E+01 0.00000E+00
 -1      1284 4.22675E+01 2.62264E+01 0.00000E+00
 -1      1285 4.25570E+01 2.48431E+01 0.00000E+00
 -1      1286 1.57500E+00 4.85250E+01 0.00000E+00
 -1      1287 1.29900E+00 4.48375E+01 0.00000E+00
 -1      1288 1.29900E+00 4.63125E+01 0.00000E+00
 -1      1289 1.29900E+00 4.18875E+01 0.00000E+00
 -1      1290 1.29900E+00 4.33625E+01 0.00000E+00
 -1      1291 2.59800E+00 4.41000E+01 0.00000E+00
 -1      1292 1.29900E+00 3.89375E+01 0.00000E+00
 -1      1293 1.29900E+00 4.04125E+01 0.00000E+00
 -1      1294 2.59800E+00 4.11500E+01 0.00000E+00
 -1      1295 1.29900E+00 3.59875E+01 0.00000E+00
 -1      1296 1.29900E+00 3.74625E+01 0.00000E+00
 -1      1297 2.59800E+00 3.82000E+01 0.00000E+00
 -1      1298 1.29900E+00 3.30875E+01 0.00000E+00
 -1      1299 1.29900E+00 3.45375E+01 0.00000E+00
 -1      1300 2.59800E+00 3.52750E+01 0.00000E+00
 -1      1301 1.29900E+00 3.01375E+01 0.00000E+00
 -1      1302 1.29900E+00 3.16125E+01 0.00000E+00
 -1      1303 2.59800E+00 3.23500E+01 0.00000E+00
 -1      1304 1.29900E+00 2.71875E+01 0.00000E+00
 -1      1305 1.29900E+00 2.86625E+01 0.00000E+00
 -1      1306 2.59800E+00 2.94000E+01 0.00000E+00
 -1      1307 1.29900E+00 2.42375E+01 0.00000E+00
 -1      1308 1.29900E+00 2.57125E+01 0.00000E+00
 -1      1309 2.59800E+00 2.64500E+01 0.00000E+00
 -1      1310 1.29900E+00 2.12875E+01 0.00000E+00
 -1      1311 1.29900E+00 2.27625E+01 0.00000E+00
 -1      1312 2.59800E+00 2.35000E+01 0.00000E+00
 -1      1313 1.29900E+00 1.83375E+01 0.00000E+00
 -1      1314 1.29900E+00 1.98125E+01 0.00000E+00
 -1      1315 2.59800E+00 2.05500E+01 0.00000E+00
 -1      1316 1.29900E+00 1.54375E+01 0.00000E+00
 -1      1317 1.29900E+00 1.68875E+01 0.00000E+00
 -1      1318 2.59800E+00 1.76250E+01 0.00000E+00
 -1      1319 1.29900E+00 1.24875E+01 0.00000E+00
 -1      1320 1.29900E+00 1.39625E+01 0.00000E+00
 -1      1321 2.59800E+00 1.47000E+01 0.00000E+00
 -1      1322 1.29900E+00 9.53750E+00 0.00000E+00
 -1      1323 1.29900E+00 1.10125E+01 0.00000E+00
 -1      1324 2.59800E+00 1.17500E+01 0.00000E+00
 -1      1325 1.29900E+00 6.58750E+00 0.00000E+00
 -1      1326 1.29900E+00 8.06250E+00 0.00000E+00
 -1      1327 2.59800E+00 8.80000E+00 0.00000E+00
 -1      1328 1.29900E+00 3.63750E+00 0.00000E+00
 -1      1329 1.29900E+00 5.11250E+00 0.00000E+00
 -1      1330 2.59800E+00 5.85000E+00 0.00000E+00
 -1      1331 1.43700E+00 1.09375E+00 0.00000E+00
 -1      1332 1.43700E+00 2.54375E+00 0.00000E+00
 -1      1333 2.73600E+00 3.28125E+00 0.00000E+00
 -1      1334 3.01200E+00 1.09375E+00 0.00000E+00
 -1      1335 3.90000E+00 4.87010E+01 0.00000E+00
 -1      1336 5.40000E+00 4.87010E+01 0.00000E+00
 -1      1337 6.90000E+00 4.87010E+01 0.00000E+00
 -1      1338 8.40000E+00 4.87010E+01 0.00000E+00
 -1      1339 6.15000E+00 4.74020E+01 0.00000E+00
 -1      1340 9.90000E+00 4.87010E+01 0.00000E+00
 -1      1341 1.14000E+01 4.87010E+01 0.00000E+00
 -1      1342 9.15000E+00 4.74020E+01 0.00000E+00
 -1      1343 1.29000E+01 4.87010E+01 0.00000E+00
 -1      1344 1.44000E+01 4.87010E+01 0.00000E+00
 -1      1345 1.21500E+01 4.74020E+01 0.00000E+00
 -1      1346 1.59000E+01 4.87010E+01 0.00000E+00
 -1      1347 1.74000E+01 4.87010E+01 0.00000E+00
 -1      1348 1.51500E+01 4.74020E+01 0.00000E+00
 -1      1349 1.89000E+01 4.87010E+01 0.00000E+00
 -1      1350 2.04000E+01 4.87010E+01 0.00000E+00
 -1      1351 1.81500E+01 4.74020E+01 0.00000E+00
 -1      1352 2.19000E+01 4.87010E+01 0.00000E+00
 -1      1353 2.34000E+01 4.87010E+01 0.00000E+00
 -1      1354 2.11500E+01 4.74020E+01 0.00000E+00
 -1      1355 2.49000E+01 4.87010E+01 0.00000E+00
 -1      1356 2.64000E+01 4.87010E+01 0.00000E+00
 -1      1357 2.41500E+01 4.74020E+01 0.00000E+00
 -1      1358 2.79000E+01 4.87010E+01 0.00000E+00
 -1      1359 2.94000E+01 4.87010E+01 0.00000E+00
 -1      1360 2.71500E+01 4.74020E+01 0.00000E+00
 -1      1361 3.09000E+01 4.87010E+01 0.00000E+00
 -1      1362 3.24000E+01 4.87010E+01 0.00000E+00
 -1      1363 3.01500E+01 4.74020E+01 0.00000E+00
 -1      1364 3.39000E+01 4.87010E+01 0.00000E+00
 -1      1365 3.54000E+01 4.87010E+01 0.00000E+00
 -1      1366 3.31500E+01 4.74020E+01 0.00000E+00
 -1      1367 3.69000E+01 4.87010E+01 0.00000E+00
 -1      1368 3.84000E+01 4.87010E+01 0.00000E+00
 -1      1369 3.61500E+01 4.74020E+01 0.00000E+00
 -1      1370 3.99000E+01 4.87010E+01 0.00000E+00
 -1      1371 4.14000E+01 4.87010E+01 0.00000E+00
 -1      1372 3.91500E+01 4.74020E+01 0.00000E+00
 -1      1373 4.29000E+01 4.87010E+01 0.00000E+00
 -1      1374 4.44000E+01 4.87010E+01 0.00000E+00
 -1      1375 4.21500E+01 4.74020E+01 0.00000E+00
 -1      1376 4.59000E+01 4.87010E+01 0.00000E+00
 -1      1377 4.74000E+01 4.87010E+01 0.00000E+00
 -1      1378 4.51500E+01 4.74020E+01 0.00000E+00
 -1      1379 4.89000E+01 4.87010E+01 0.00000E+00
 -1      1380 5.04000E+01 4.87010E+01 0.00000E+00
 -1      1381 4.81500E+01 4.74020E+01 0.00000E+00
 -1      1382 5.19000E+01 4.87010E+01 0.00000E+00
 -1      1383 5.34000E+01 4.87010E+01 0.00000E+00
 -1      1384 5.11500E+01 4.74020E+01 0.00000E+00
 -1      1385 5.49000E+01 4.87010E+01 0.00000E+00
 -1      1386 5.64000E+01 4.87010E+01 0.00000E+00
 -1      1387 5.41500E+01 4.74020E+01 0.00000E+00
 -1      1388 5.79000E+01 4.87010E+01 0.00000E+00
 -1      1389 5.94000E+01 4.87010E+01 0.00000E+00
 -1      1390 5.71500E+01 4.74020E+01 0.00000E+00
 -1      1391 6.09000E+01 4.87010E+01 0.00000E+00
 -1      1392 6.24000E+01 4.87010E+01 0.00000E+00
 -1      1393 6.01500E+01 4.74020E+01 0.00000E+00
 -1      1394 6.39000E+01 4.87010E+01 0.00000E+00
 -1      1395 6.54000E+01 4.87010E+01 0.00000E+00
 -1      1396 6.31500E+01 4.74020E+01 0.00000E+00
 -1      1397 6.69000E+01 4.87010E+01 0.00000E+00
 -1      1398 6.84000E+01 4.87010E+01 0.00000E+00
 -1      1399 6.61500E+01 4.74020E+01 0.00000E+00
 -1      1400 6.99000E+01 4.87010E+01 0.00000E+00
 -1      1401 7.14000E+01 4.87010E+01 0.00000E+00
 -1      1402 6.91500E+01 4.74020E+01 0.00000E+00
 -1      1403 7.29000E+01 4.87010E+01 0.00000E+00
 -1      1404 7.44000E+01 4.87010E+01 0.00000E+00
 -1      1405 7.21500E+01 4.74020E+01 0.00000E+00
 -1      1406 7.59000E+01 4.87010E+01 0.00000E+00
 -1      1407 7.74000E+01 4.87010E+01 0.00000E+00
 -1      1408 7.51500E+01 4.74020E+01 0.00000E+00
 -1      1409 7.89000E+01 4.87010E+01 0.00000E+00
 -1      1410 8.04000E+01 4.87010E+01 0.00000E+00
 -1      1411 7.81500E+01 4.74020E+01 0.00000E+00
 -1      1412 8.19000E+01 4.87010E+01 0.00000E+00
 -1      1413 8.34000E+01 4.87010E+01 0.00000E+00
 -1      1414 8.11500E+01 4.74020E+01 0.00000E+00
 -1      1415 8.49000E+01 4.87010E+01 0.00000E+00
 -1      1416 8.64000E+01 4.87010E+01 0.00000E+00
 -1      1417 8.41500E+01 4.74020E+01 0.00000E+00
 -1      1418 8.79000E+01 4.87010E+01 0.00000E+00
 -1      1419 8.94000E+01 4.87010E+01 0.00000E+00
 -1      1420 8.71500E+01 4.74020E+01 0.00000E+00
 -1      1421 9.09000E+01 4.87010E+01 0.00000E+00
 -1      1422 9.24000E+01 4.87010E+01 0.00000E+00
 -1      1423 9.01500E+01 4.74020E+01 0.00000E+00
 -1      1424 9.39000E+01 4.87010E+01 0.00000E+00
 -1      1425 9.54000E+01 4.87010E+01 0.00000E+00
 -1      1426 9.31500E+01 4.74020E+01 0.00000E+00
 -1      1427 9.69000E+01 4.87010E+01 0.00000E+00
 -1      1428 9.84000E+01 4.87010E+01 0.00000E+00
 -1      1429 9.61500E+01 4.74020E+01 0.00000E+00
 -1      1430 9.99000E+01 4.87010E+01 0.00000E+00
 -1      1431 1.01400E+02 4.87010E+01 0.00000E+00
 -1      1432 9.91500E+01 4.74020E+01 0.00000E+00
 -1      1433 1.02900E+02 4.87010E+01 0.00000E+00
 -1      1434 1.04400E+02 4.87010E+01 0.00000E+00
 -1      1435 1.02150E+02 4.74020E+01 0.00000E+00
 -1      1436 1.05900E+02 4.87010E+01 0.00000E+00
 -1      1437 1.07400E+02 4.87010E+01 0.00000E+00
 -1      1438 1.05150E+02 4.74020E+01 0.00000E+00
 -1      1439 1.08900E+02 4.87010E+01 0.00000E+00
 -1      1440 1.10400E+02 4.87010E+01 0.00000E+00
 -1      1441 1.08150E+02 4.74020E+01 0.00000E+00
 -1      1442 1.11900E+02 4.87010E+01 0.00000E+00
 -1      1443 1.13400E+02 4.87010E+01 0.00000E+00
 -1      1444 1.11150E+02 4.74020E+01 0.00000E+00
 -1      1445 1.14900E+02 4.87010E+01 0.00000E+00
 -1      1446 1.16400E+02 4.87010E+01 0.00000E+00
 -1      1447 1.14150E+02 4.74020E+01 0.00000E+00
 -1      1448 1.17900E+02 4.87010E+01 0.00000E+00
 -1      1449 1.19400E+02 4.87010E+01 0.00000E+00
 -1      1450 1.17150E+02 4.74020E+01 0.00000E+00
 -1      1451 1.20900E+02 4.87010E+01 0.00000E+00
 -1      1452 1.22400E+02 4.87010E+01 0.00000E+00
 -1      1453 1.20150E+02 4.74020E+01 0.00000E+00
 -1      1454 1.23900E+02 4.87010E+01 0.00000E+00
 -1      1455 1.25400E+02 4.87010E+01 0.00000E+00
 -1      1456 1.23150E+02 4.74020E+01 0.00000E+00
 -1      1457 1.26900E+02 4.87010E+01 0.00000E+00
 -1      1458 1.28400E+02 4.87010E+01 0.00000E+00
 -1      1459 1.26150E+02 4.74020E+01 0.00000E+00
 -1      1460 1.29900E+02 4.87010E+01 0.00000E+00
 -1      1461 1.31400E+02 4.87010E+01 0.00000E+00
 -1      1462 1.29150E+02 4.74020E+01 0.00000E+00
 -1      1463 1.32900E+02 4.87010E+01 0.00000E+00
 -1      1464 1.34400E+02 4.87010E+01 0.00000E+00
 -1      1465 1.32150E+02 4.74020E+01 0.00000E+00
 -1      1466 1.35900E+02 4.87010E+01 0.00000E+00
 -1      1467 1.37400E+02 4.87010E+01 0.00000E+00
 -1      1468 1.35150E+02 4.74020E+01 0.00000E+00
 -1      1469 1.38900E+02 4.87010E+01 0.00000E+00
 -1      1470 1.40400E+02 4.87010E+01 0.00000E+00
 -1      1471 1.38150E+02 4.74020E+01 0.00000E+00
 -1      1472 1.41900E+02 4.87010E+01 0.00000E+00
 -1      1473 1.43400E+02 4.87010E+01 0.00000E+00
 -1      1474 1.41150E+02 4.74020E+01 0.00000E+00
 -1      1475 1.44900E+02 4.87010E+01 0.00000E+00
 -1      1476 1.46400E+02 4.87010E+01 0.00000E+00
 -1      1477 1.44150E+02 4.74020E+01 0.00000E+00
 -1      1478 1.48575E+02 4.85500E+01 0.00000E+00
 -1      1479 1.47825E+02 4.72510E+01 0.00000E+00
 -1      1480 6.01200E+00 1.09375E+00 0.00000E+00
 -1      1481 4.51200E+00 1.09375E+00 0.00000E+00
 -1      1482 4.37400E+00 2.18750E+00 0.00000E+00
 -1      1483 9.01200E+00 1.09375E+00 0.00000E+00
 -1      1484 7.51200E+00 1.09375E+00 0.00000E+00
 -1      1485 7.37400E+00 2.18750E+00 0.00000E+00
 -1      1486 1.20120E+01 1.09375E+00 0.00000E+00
 -1      1487 1.05120E+01 1.09375E+00 0.00000E+00
 -1      1488 1.03740E+01 2.18750E+00 0.00000E+00
 -1      1489 1.50120E+01 1.09375E+00 0.00000E+00
 -1      1490 1.35120E+01 1.09375E+00 0.00000E+00
 -1      1491 1.33740E+01 2.18750E+00 0.00000E+00
 -1      1492 1.80120E+01 1.09375E+00 0.00000E+00
 -1      1493 1.65120E+01 1.09375E+00 0.00000E+00
 -1      1494 1.63740E+01 2.18750E+00 0.00000E+00
 -1      1495 2.10120E+01 1.09375E+00 0.00000E+00
 -1      1496 1.95120E+01 1.09375E+00 0.00000E+00
 -1      1497 1.93740E+01 2.18750E+00 0.00000E+00
 -1      1498 2.40120E+01 1.09375E+00 0.00000E+00
 -1      1499 2.25120E+01 1.09375E+00 0.00000E+00
 -1      1500 2.23740E+01 2.18750E+00 0.00000E+00
 -1      1501 2.70120E+01 1.09375E+00 0.00000E+00
 -1      1502 2.55120E+01 1.09375E+00 0.00000E+00
 -1      1503 2.53740E+01 2.18750E+00 0.00000E+00
 -1      1504 3.00120E+01 1.09375E+00 0.00000E+00
 -1      1505 2.85120E+01 1.09375E+00 0.00000E+00
 -1      1506 2.83740E+01 2.18750E+00 0.00000E+00
 -1      1507 3.30120E+01 1.09375E+00 0.00000E+00
 -1      1508 3.15120E+01 1.09375E+00 0.00000E+00
 -1      1509 3.13740E+01 2.18750E+00 0.00000E+00
 -1      1510 3.60120E+01 1.09375E+00 0.00000E+00
 -1      1511 3.45120E+01 1.09375E+00 0.00000E+00
 -1      1512 3.43740E+01 2.18750E+00 0.00000E+00
 -1      1513 3.90120E+01 1.09375E+00 0.00000E+00
 -1      1514 3.75120E+01 1.09375E+00 0.00000E+00
 -1      1515 3.73740E+01 2.18750E+00 0.00000E+00
 -1      1516 4.20120E+01 1.09375E+00 0.00000E+00
 -1      1517 4.05120E+01 1.09375E+00 0.00000E+00
 -1      1518 4.03740E+01 2.18750E+00 0.00000E+00
 -1      1519 4.50120E+01 1.09375E+00 0.00000E+00
 -1      1520 4.35120E+01 1.09375E+00 0.00000E+00
 -1      1521 4.33740E+01 2.18750E+00 0.00000E+00
 -1      1522 4.80120E+01 1.09375E+00 0.00000E+00
 -1      1523 4.65120E+01 1.09375E+00 0.00000E+00
 -1      1524 4.63740E+01 2.18750E+00 0.00000E+00
 -1      1525 5.10120E+01 1.09375E+00 0.00000E+00
 -1      1526 4.95120E+01 1.09375E+00 0.00000E+00
 -1      1527 4.93740E+01 2.18750E+00 0.00000E+00
 -1      1528 5.40120E+01 1.09375E+00 0.00000E+00
 -1      1529 5.25120E+01 1.09375E+00 0.00000E+00
 -1      1530 5.23740E+01 2.18750E+00 0.00000E+00
 -1      1531 5.70120E+01 1.09375E+00 0.00000E+00
 -1      1532 5.55120E+01 1.09375E+00 0.00000E+00
 -1      1533 5.53740E+01 2.18750E+00 0.00000E+00
 -1      1534 6.00120E+01 1.09375E+00 0.00000E+00
 -1      1535 5.85120E+01 1.09375E+00 0.00000E+00
 -1      1536 5.83740E+01 2.18750E+00 0.00000E+00
 -1      1537 6.30120E+01 1.09375E+00 0.00000E+00
 -1      1538 6.15120E+01 1.09375E+00 0.00000E+00
 -1      1539 6.13740E+01 2.18750E+00 0.00000E+00
 -1      1540 6.60120E+01 1.09375E+00 0.00000E+00
 -1      1541 6.45120E+01 1.09375E+00 0.00000E+00
 -1      1542 6.43740E+01 2.18750E+00 0.00000E+00
 -1      1543 6.90120E+01 1.09375E+00 0.00000E+00
 -1      1544 6.75120E+01 1.09375E+00 0.00000E+00
 -1      1545 6.73740E+01 2.18750E+00 0.00000E+00
 -1      1546 7.20120E+01 1.09375E+00 0.00000E+00
 -1      1547 7.05120E+01 1.09375E+00 0.00000E+00
 -1      1548 7.03740E+01 2.18750E+00 0.00000E+00
 -1      1549 7.50120E+01 1.09375E+00 0.00000E+00
 -1      1550 7.35120E+01 1.09375E+00 0.00000E+00
 -1      1551 7.33740E+01 2.18750E+00 0.00000E+00
 -1      1552 7.80120E+01 1.09375E+00 0.00000E+00
 -1      1553 7.65120E+01 1.09375E+00 0.00000E+00
 -1      1554 7.63740E+01 2.18750E+00 0.00000E+00
 -1      1555 8.10120E+01 1.09375E+00 0.00000E+00
 -1      1556 7.95120E+01 1.09375E+00 0.00000E+00
 -1      1557 7.93740E+01 2.18750E+00 0.00000E+00
 -1      1558 8.40120E+01 1.09375E+00 0.00000E+00
 -1      1559 8.25120E+01 1.09375E+00 0.00000E+00
 -1      1560 8.23740E+01 2.18750E+00 0.00000E+00
 -1      1561 8.70120E+01 1.09375E+00 0.00000E+00
 -1      1562 8.55120E+01 1.09375E+00 0.00000E+00
 -1      1563 8.53740E+01 2.18750E+00 0.00000E+00
 -1      1564 9.00120E+01 1.09375E+00 0.00000E+00
 -1      1565 8.85120E+01 1.09375E+00 0.00000E+00
 -1      1566 8.83740E+01 2.18750E+00 0.00000E+00
 -1      1567 9.30120E+01 1.09375E+00 0.00000E+00
 -1      1568 9.15120E+01 1.09375E+00 0.00000E+00
 -1      1569 9.13740E+01 2.18750E+00 0.00000E+00
 -1      1570 9.60120E+01 1.09375E+00 0.00000E+00
 -1      1571 9.45120E+01 1.09375E+00 0.00000E+00
 -1      1572 9.43740E+01 2.18750E+00 0.00000E+00
 -1      1573 9.90120E+01 1.09375E+00 0.00000E+00
 -1      1574 9.75120E+01 1.09375E+00 0.00000E+00
 -1      1575 9.73740E+01 2.18750E+00 0.00000E+00
 -1      1576 1.02012E+02 1.09375E+00 0.00000E+00
 -1      1577 1.00512E+02 1.09375E+00 0.00000E+00
 -1      1578 1.00374E+02 2.18750E+00 0.00000E+00
 -1      1579 1.05012E+02 1.09375E+00 0.00000E+00
 -1      1580 1.03512E+02 1.09375E+00 0.00000E+00
 -1      1581 1.03374E+02 2.18750E+00 0.00000E+00
 -1      1582 1.08012E+02 1.09375E+00 0.00000E+00
 -1      1583 1.06512E+02 1.09375E+00 0.00000E+00
 -1      1584 1.06374E+02 2.18750E+00 0.00000E+00
 -1      1585 1.11012E+02 1.09375E+00 0.00000E+00
 -1      1586 1.09512E+02 1.09375E+00 0.00000E+00
 -1      1587 1.09374E+02 2.18750E+00 0.00000E+00
 -1      1588 1.14012E+02 1.09375E+00 0.00000E+00
 -1      1589 1.12512E+02 1.09375E+00 0.00000E+00
 -1      1590 1.12374E+02 2.18750E+00 0.00000E+00
 -1      1591 1.17012E+02 1.09375E+00 0.00000E+00
 -1      1592 1.15512E+02 1.09375E+00 0.00000E+00
 -1      1593 1.15374E+02 2.18750E+00 0.00000E+00
 -1      1594 1.20012E+02 1.09375E+00 0.00000E+00
 -1      1595 1.18512E+02 1.09375E+00 0.00000E+00
 -1      1596 1.18374E+02 2.18750E+00 0.00000E+00
 -1      1597 1.23012E+02 1.09375E+00 0.00000E+00
 -1      1598 1.21512E+02 1.09375E+00 0.00000E+00
 -1      1599 1.21374E+02 2.18750E+00 0.00000E+00
 -1      1600 1.26012E+02 1.09375E+00 0.00000E+00
 -1      1601 1.24512E+02 1.09375E+00 0.00000E+00
 -1      1602 1.24374E+02 2.18750E+00 0.00000E+00
 -1      1603 1.29012E+02 1.09375E+00 0.00000E+00
 -1      1604 1.27512E+02 1.09375E+00 0.00000E+00
 -1      1605 1.27374E+02 2.18750E+00 0.00000E+00
 -1      1606 1.32012E+02 1.09375E+00 0.00000E+00
 -1      1607 1.30512E+02 1.09375E+00 0.00000E+00
 -1      1608 1.30374E+02 2.18750E+00 0.00000E+00
 -1      1609 1.35012E+02 1.09375E+00 0.00000E+00
 -1      1610 1.33512E+02 1.09375E+00 0.00000E+00
 -1      1611 1.33374E+02 2.18750E+00 0.00000E+00
 -1      1612 1.38012E+02 1.09375E+00 0.00000E+00
 -1      1613 1.36512E+02 1.09375E+00 0.00000E+00
 -1      1614 1.36374E+02 2.18750E+00 0.00000E+00
 -1      1615 1.41012E+02 1.09375E+00 0.00000E+00
 -1      1616 1.39512E+02 1.09375E+00 0.00000E+00
 -1      1617 1.39374E+02 2.18750E+00 0.00000E+00
 -1      1618 1.44012E+02 1.09375E+00 0.00000E+00
 -1      1619 1.42512E+02 1.09375E+00 0.00000E+00
 -1      1620 1.42374E+02 2.18750E+00 0.00000E+00
 -1      1621 1.47012E+02 1.09375E+00 0.00000E+00
 -1      1622 1.45512E+02 1.09375E+00 0.00000E+00
 -1      1623 1.45374E+02 2.18750E+00 0.00000E+00
 -1      1624 1.48575E+02 1.47500E+00 0.00000E+00
 -1      1625 1.48701E+02 5.16250E+00 0.00000E+00
 -1      1626 1.48701E+02 3.68750E+00 0.00000E+00
 -1      1627 1.48701E+02 8.11250E+00 0.00000E+00
 -1      1628 1.48701E+02 6.63750E+00 0.00000E+00
 -1      1629 1.47402E+02 5.90000E+00 0.00000E+00
 -1      1630 1.48701E+02 1.10625E+01 0.00000E+00
 -1      1631 1.48701E+02 9.58750E+00 0.00000E+00
 -1      1632 1.47402E+02 8.85000E+00 0.00000E+00
 -1      1633 1.48701E+02 1.40125E+01 0.00000E+00
 -1      1634 1.48701E+02 1.25375E+01 0.00000E+00
 -1      1635 1.47402E+02 1.18000E+01 0.00000E+00
 -1      1636 1.48701E+02 1.69125E+01 0.00000E+00
 -1      1637 1.48701E+02 1.54625E+01 0.00000E+00
 -1      1638 1.47402E+02 1.47250E+01 0.00000E+00
 -1      1639 1.48701E+02 1.98625E+01 0.00000E+00
 -1      1640 1.48701E+02 1.83875E+01 0.00000E+00
 -1      1641 1.47402E+02 1.76500E+01 0.00000E+00
 -1      1642 1.48701E+02 2.28125E+01 0.00000E+00
 -1      1643 1.48701E+02 2.13375E+01 0.00000E+00
 -1      1644 1.47402E+02 2.06000E+01 0.00000E+00
 -1      1645 1.48701E+02 2.57625E+01 0.00000E+00
 -1      1646 1.48701E+02 2.42875E+01 0.00000E+00
 -1      1647 1.47402E+02 2.35500E+01 0.00000E+00
 -1      1648 1.48701E+02 2.87125E+01 0.00000E+00
 -1      1649 1.48701E+02 2.72375E+01 0.00000E+00
 -1      1650 1.47402E+02 2.65000E+01 0.00000E+00
 -1      1651 1.48701E+02 3.16625E+01 0.00000E+00
 -1      1652 1.48701E+02 3.01875E+01 0.00000E+00
 -1      1653 1.47402E+02 2.94500E+01 0.00000E+00
 -1      1654 1.48701E+02 3.45625E+01 0.00000E+00
 -1      1655 1.48701E+02 3.31125E+01 0.00000E+00
 -1      1656 1.47402E+02 3.23750E+01 0.00000E+00
 -1      1657 1.48701E+02 3.75125E+01 0.00000E+00
 -1      1658 1.48701E+02 3.60375E+01 0.00000E+00
 -1      1659 1.47402E+02 3.53000E+01 0.00000E+00
 -1      1660 1.48701E+02 4.04625E+01 0.00000E+00
 -1      1661 1.48701E+02 3.89875E+01 0.00000E+00
 -1      1662 1.47402E+02 3.82500E+01 0.00000E+00
 -1      1663 1.48701E+02 4.34125E+01 0.00000E+00
 -1      1664 1.48701E+02 4.19375E+01 0.00000E+00
 -1      1665 1.47402E+02 4.12000E+01 0.00000E+00
 -1      1666 1.48263E+02 4.60692E+01 0.00000E+00
 -1      1667 1.48263E+02 4.45942E+01 0.00000E+00
 -1      1668 1.46964E+02 4.38568E+01 0.00000E+00
 -1      1669 1.46088E+02 4.62202E+01 0.00000E+00
 -1      1670 4.30947E+01 2.30066E+01 0.00000E+00
 -1      1671 4.31642E+01 2.37005E+01 0.00000E+00
 -1      1672 4.27499E+01 2.14873E+01 0.00000E+00
 -1      1673 4.29668E+01 2.21800E+01 0.00000E+00
 -1      1674 4.20628E+01 1.98640E+01 0.00000E+00
 -1      1675 4.24822E+01 2.05851E+01 0.00000E+00
 -1      1676 4.09539E+01 1.86878E+01 0.00000E+00
 -1      1677 4.14249E+01 1.91979E+01 0.00000E+00
 -1      1678 3.96350E+01 1.76548E+01 0.00000E+00
 -1      1679 4.02880E+01 1.81128E+01 0.00000E+00
 -1      1680 3.81612E+01 1.69783E+01 0.00000E+00
 -1      1681 3.88328E+01 1.72571E+01 0.00000E+00
 -1      1682 3.66351E+01 1.66023E+01 0.00000E+00
 -1      1683 3.73482E+01 1.67361E+01 0.00000E+00
 -1      1684 3.50457E+01 1.65096E+01 0.00000E+00
 -1      1685 3.57827E+01 1.64920E+01 0.00000E+00
 -1      1686 3.33026E+01 1.67640E+01 0.00000E+00
 -1      1687 3.41093E+01 1.65593E+01 0.00000E+00
 -1      1688 3.18558E+01 1.75165E+01 0.00000E+00
 -1      1689 3.24887E+01 1.71956E+01 0.00000E+00
 -1      1690 3.05435E+01 1.84648E+01 0.00000E+00
 -1      1691 3.11360E+01 1.79858E+01 0.00000E+00
 -1      1692 2.94724E+01 1.96451E+01 0.00000E+00
 -1      1693 2.99282E+01 1.90788E+01 0.00000E+00
 -1      1694 2.86959E+01 2.09722E+01 0.00000E+00
 -1      1695 2.90166E+01 2.03455E+01 0.00000E+00
 -1      1696 2.81626E+01 2.24338E+01 0.00000E+00
 -1      1697 2.83545E+01 2.17376E+01 0.00000E+00
 -1      1698 2.79374E+01 2.40412E+01 0.00000E+00
 -1      1699 2.79809E+01 2.32899E+01 0.00000E+00
 -1      1700 2.81316E+01 2.56352E+01 0.00000E+00
 -1      1701 2.80199E+01 2.49159E+01 0.00000E+00
 -1      1702 2.85946E+01 2.72105E+01 0.00000E+00
 -1      1703 2.83208E+01 2.64990E+01 0.00000E+00
 -1      1704 2.94623E+01 2.85573E+01 0.00000E+00
 -1      1705 2.90664E+01 2.79529E+01 0.00000E+00
 -1      1706 3.05869E+01 2.97865E+01 0.00000E+00
 -1      1707 3.00245E+01 2.92358E+01 0.00000E+00
 -1      1708 3.19717E+01 3.07570E+01 0.00000E+00
 -1      1709 3.13073E+01 3.03492E+01 0.00000E+00
 -1      1710 3.35064E+01 3.14736E+01 0.00000E+00
 -1      1711 3.27683E+01 3.12230E+01 0.00000E+00
 -1      1712 3.51468E+01 3.17532E+01 0.00000E+00
 -1      1713 3.43976E+01 3.16721E+01 0.00000E+00
 -1      1714 3.66724E+01 3.16116E+01 0.00000E+00
 -1      1715 3.59940E+01 3.16779E+01 0.00000E+00
 -1      1716 3.80827E+01 3.12701E+01 0.00000E+00
 -1      1717 3.74450E+01 3.14606E+01 0.00000E+00
 -1      1718 3.93929E+01 3.06702E+01 0.00000E+00
 -1      1719 3.88032E+01 3.09778E+01 0.00000E+00
 -1      1720 4.05822E+01 2.98178E+01 0.00000E+00
 -1      1721 4.00510E+01 3.02413E+01 0.00000E+00
 -1      1722 4.15823E+01 2.87598E+01 0.00000E+00
 -1      1723 4.11485E+01 2.92697E+01 0.00000E+00
 -1      1724 4.24242E+01 2.74894E+01 0.00000E+00
 -1      1725 4.20774E+01 2.81142E+01 0.00000E+00
 -1      1726 4.29164E+01 2.60768E+01 0.00000E+00
 -1      1727 4.27113E+01 2.67229E+01 0.00000E+00
 -1      1728 4.32433E+01 2.45459E+01 0.00000E+00
 -1      1729 4.31660E+01 2.52771E+01 0.00000E+00
 -1      1730 4.09996E+01 1.79282E+01 0.00000E+00
 -1      1731 4.23035E+01 1.91693E+01 0.00000E+00
 -1      1732 1.48437E+02 2.56875E+00 0.00000E+00
 -1      1733 1.47138E+02 3.30625E+00 0.00000E+00
 -1      1734 4.36047E+01 2.24666E+01 0.00000E+00
 -1      1735 4.32091E+01 2.07378E+01 0.00000E+00
 -1      1736 4.38117E+01 2.41386E+01 0.00000E+00
 -1      1737 3.95315E+01 1.69555E+01 0.00000E+00
 -1      1738 3.79164E+01 1.63156E+01 0.00000E+00
 -1      1739 3.62511E+01 1.59631E+01 0.00000E+00
 -1      1740 3.44623E+01 1.59026E+01 0.00000E+00
 -1      1741 3.27120E+01 1.63838E+01 0.00000E+00
 -1      1742 3.11784E+01 1.72846E+01 0.00000E+00
 -1      1743 2.98434E+01 1.83678E+01 0.00000E+00
 -1      1744 2.87724E+01 1.96822E+01 0.00000E+00
 -1      1745 2.79752E+01 2.11481E+01 0.00000E+00
 -1      1746 2.74520E+01 2.27696E+01 0.00000E+00
 -1      1747 2.73528E+01 2.45003E+01 0.00000E+00
 -1      1748 2.76245E+01 2.62388E+01 0.00000E+00
 -1      1749 2.82855E+01 2.78449E+01 0.00000E+00
 -1      1750 2.93194E+01 2.92658E+01 0.00000E+00
 -1      1751 3.06020E+01 3.05070E+01 0.00000E+00
 -1      1752 3.21189E+01 3.15357E+01 0.00000E+00
 -1      1753 3.38067E+01 3.22001E+01 0.00000E+00
 -1      1754 3.55451E+01 3.23234E+01 0.00000E+00
 -1      1755 3.71648E+01 3.20971E+01 0.00000E+00
 -1      1756 3.86579E+01 3.16539E+01 0.00000E+00
 -1      1757 4.00364E+01 3.09325E+01 0.00000E+00
 -1      1758 4.12608E+01 2.99555E+01 0.00000E+00
 -1      1759 4.23223E+01 2.87619E+01 0.00000E+00
 -1      1760 4.31045E+01 2.73498E+01 0.00000E+00
 -1      1761 4.36412E+01 2.57837E+01 0.00000E+00
 -1      1762 2.87400E+00 4.77875E+01 0.00000E+00
 -1      1763 3.89700E+00 4.04125E+01 0.00000E+00
 -1      1764 3.89700E+00 4.18875E+01 0.00000E+00
 -1      1765 3.89700E+00 4.33625E+01 0.00000E+00
 -1      1766 3.89700E+00 4.48375E+01 0.00000E+00
 -1      1767 5.19600E+00 4.26250E+01 0.00000E+00
 -1      1768 3.89700E+00 3.45500E+01 0.00000E+00
 -1      1769 3.89700E+00 3.60000E+01 0.00000E+00
 -1      1770 3.89700E+00 3.16000E+01 0.00000E+00
 -1      1771 3.89700E+00 3.30750E+01 0.00000E+00
 -1      1772 5.19600E+00 3.38000E+01 0.00000E+00
 -1      1773 3.89700E+00 2.86500E+01 0.00000E+00
 -1      1774 3.89700E+00 3.01250E+01 0.00000E+00
 -1      1775 5.19600E+00 3.08500E+01 0.00000E+00
 -1      1776 3.89700E+00 2.57000E+01 0.00000E+00
 -1      1777 3.89700E+00 2.71750E+01 0.00000E+00
 -1      1778 5.19600E+00 2.79000E+01 0.00000E+00
 -1      1779 3.89700E+00 2.27500E+01 0.00000E+00
 -1      1780 3.89700E+00 2.42250E+01 0.00000E+00
 -1      1781 5.19600E+00 2.49500E+01 0.00000E+00
 -1      1782 3.89700E+00 1.98000E+01 0.00000E+00
 -1      1783 3.89700E+00 2.12750E+01 0.00000E+00
 -1      1784 5.19600E+00 2.20000E+01 0.00000E+00
 -1      1785 3.89700E+00 1.69000E+01 0.00000E+00
 -1      1786 3.89700E+00 1.83500E+01 0.00000E+00
 -1      1787 5.19600E+00 1.90750E+01 0.00000E+00
 -1      1788 3.89700E+00 1.39500E+01 0.00000E+00
 -1      1789 3.89700E+00 1.54250E+01 0.00000E+00
 -1      1790 5.19600E+00 1.61500E+01 0.00000E+00
 -1      1791 3.89700E+00 1.10000E+01 0.00000E+00
 -1      1792 3.89700E+00 1.24750E+01 0.00000E+00
 -1      1793 5.19600E+00 1.32000E+01 0.00000E+00
 -1      1794 3.89700E+00 8.05000E+00 0.00000E+00
 -1      1795 3.89700E+00 9.52500E+00 0.00000E+00
 -1      1796 5.19600E+00 1.02500E+01 0.00000E+00
 -1      1797 3.89700E+00 5.10000E+00 0.00000E+00
 -1      1798 3.89700E+00 6.57500E+00 0.00000E+00
 -1      1799 5.19600E+00 7.30000E+00 0.00000E+00
 -1      1800 4.20450E+00 3.09687E+00 0.00000E+00
 -1      1801 4.06650E+00 4.19063E+00 0.00000E+00
 -1      1802 5.36550E+00 4.91563E+00 0.00000E+00
 -1      1803 5.70450E+00 3.09687E+00 0.00000E+00
 -1      1804 3.62400E+00 4.64885E+01 0.00000E+00
 -1      1805 8.70450E+00 3.09687E+00 0.00000E+00
 -1      1806 7.20450E+00 3.09687E+00 0.00000E+00
 -1      1807 7.03500E+00 4.00625E+00 0.00000E+00
 -1      1808 4.92300E+00 4.57510E+01 0.00000E+00
 -1      1809 8.40000E+00 4.61030E+01 0.00000E+00
 -1      1810 9.90000E+00 4.61030E+01 0.00000E+00
 -1      1811 1.14000E+01 4.61030E+01 0.00000E+00
 -1      1812 1.29000E+01 4.61030E+01 0.00000E+00
 -1      1813 1.06500E+01 4.48040E+01 0.00000E+00
 -1      1814 1.44000E+01 4.61030E+01 0.00000E+00
 -1      1815 1.59000E+01 4.61030E+01 0.00000E+00
 -1      1816 1.36500E+01 4.48040E+01 0.00000E+00
 -1      1817 1.74000E+01 4.61030E+01 0.00000E+00
 -1      1818 1.89000E+01 4.61030E+01 0.00000E+00
 -1      1819 1.66500E+01 4.48040E+01 0.00000E+00
 -1      1820 2.04000E+01 4.61030E+01 0.00000E+00
 -1      1821 2.19000E+01 4.61030E+01 0.00000E+00
 -1      1822 1.96500E+01 4.48040E+01 0.00000E+00
 -1      1823 2.34000E+01 4.61030E+01 0.00000E+00
 -1      1824 2.49000E+01 4.61030E+01 0.00000E+00
 -1      1825 2.26500E+01 4.48040E+01 0.00000E+00
 -1      1826 2.64000E+01 4.61030E+01 0.00000E+00
 -1      1827 2.79000E+01 4.61030E+01 0.00000E+00
 -1      1828 2.56500E+01 4.48040E+01 0.00000E+00
 -1      1829 2.94000E+01 4.61030E+01 0.00000E+00
 -1      1830 3.09000E+01 4.61030E+01 0.00000E+00
 -1      1831 2.86500E+01 4.48040E+01 0.00000E+00
 -1      1832 3.24000E+01 4.61030E+01 0.00000E+00
 -1      1833 3.39000E+01 4.61030E+01 0.00000E+00
 -1      1834 3.16500E+01 4.48040E+01 0.00000E+00
 -1      1835 3.54000E+01 4.61030E+01 0.00000E+00
 -1      1836 3.69000E+01 4.61030E+01 0.00000E+00
 -1      1837 3.46500E+01 4.48040E+01 0.00000E+00
 -1      1838 3.84000E+01 4.61030E+01 0.00000E+00
 -1      1839 3.99000E+01 4.61030E+01 0.00000E+00
 -1      1840 3.76500E+01 4.48040E+01 0.00000E+00
 -1      1841 4.14000E+01 4.61030E+01 0.00000E+00
 -1      1842 4.29000E+01 4.61030E+01 0.00000E+00
 -1      1843 4.06500E+01 4.48040E+01 0.00000E+00
 -1      1844 4.44000E+01 4.61030E+01 0.00000E+00
 -1      1845 4.59000E+01 4.61030E+01 0.00000E+00
 -1      1846 4.36500E+01 4.48040E+01 0.00000E+00
 -1      1847 4.74000E+01 4.61030E+01 0.00000E+00
 -1      1848 4.89000E+01 4.61030E+01 0.00000E+00
 -1      1849 4.66500E+01 4.48040E+01 0.00000E+00
 -1      1850 5.04000E+01 4.61030E+01 0.00000E+00
 -1      1851 5.19000E+01 4.61030E+01 0.00000E+00
 -1      1852 4.96500E+01 4.48040E+01 0.00000E+00
 -1      1853 5.34000E+01 4.61030E+01 0.00000E+00
 -1      1854 5.49000E+01 4.61030E+01 0.00000E+00
 -1      1855 5.26500E+01 4.48040E+01 0.00000E+00
 -1      1856 5.64000E+01 4.61030E+01 0.00000E+00
 -1      1857 5.79000E+01 4.61030E+01 0.00000E+00
 -1      1858 5.56500E+01 4.48040E+01 0.00000E+00
 -1      1859 5.94000E+01 4.61030E+01 0.00000E+00
 -1      1860 6.09000E+01 4.61030E+01 0.00000E+00
 -1      1861 5.86500E+01 4.48040E+01 0.00000E+00
 -1      1862 6.24000E+01 4.61030E+01 0.00000E+00
 -1      1863 6.39000E+01 4.61030E+01 0.00000E+00
 -1      1864 6.16500E+01 4.48040E+01 0.00000E+00
 -1      1865 6.54000E+01 4.61030E+01 0.00000E+00
 -1      1866 6.69000E+01 4.61030E+01 0.00000E+00
 -1      1867 6.46500E+01 4.48040E+01 0.00000E+00
 -1      1868 6.84000E+01 4.61030E+01 0.00000E+00
 -1      1869 6.99000E+01 4.61030E+01 0.00000E+00
 -1      1870 6.76500E+01 4.48040E+01 0.00000E+00
 -1      1871 7.14000E+01 4.61030E+01 0.00000E+00
 -1      1872 7.29000E+01 4.61030E+01 0.00000E+00
 -1      1873 7.06500E+01 4.48040E+01 0.00000E+00
 -1      1874 7.44000E+01 4.61030E+01 0.00000E+00
 -1      1875 7.59000E+01 4.61030E+01 0.00000E+00
 -1      1876 7.36500E+01 4.48040E+01 0.00000E+00
 -1      1877 7.74000E+01 4.61030E+01 0.00000E+00
 -1      1878 7.89000E+01 4.61030E+01 0.00000E+00
 -1      1879 7.66500E+01 4.48040E+01 0.00000E+00
 -1      1880 8.04000E+01 4.61030E+01 0.00000E+00
 -1      1881 8.19000E+01 4.61030E+01 0.00000E+00
 -1      1882 7.96500E+01 4.48040E+01 0.00000E+00
 -1      1883 8.34000E+01 4.61030E+01 0.00000E+00
 -1      1884 8.49000E+01 4.61030E+01 0.00000E+00
 -1      1885 8.26500E+01 4.48040E+01 0.00000E+00
 -1      1886 8.64000E+01 4.61030E+01 0.00000E+00
 -1      1887 8.79000E+01 4.61030E+01 0.00000E+00
 -1      1888 8.56500E+01 4.48040E+01 0.00000E+00
 -1      1889 8.94000E+01 4.61030E+01 0.00000E+00
 -1      1890 9.09000E+01 4.61030E+01 0.00000E+00
 -1      1891 8.86500E+01 4.48040E+01 0.00000E+00
 -1      1892 9.24000E+01 4.61030E+01 0.00000E+00
 -1      1893 9.39000E+01 4.61030E+01 0.00000E+00
 -1      1894 9.16500E+01 4.48040E+01 0.00000E+00
 -1      1895 9.54000E+01 4.61030E+01 0.00000E+00
 -1      1896 9.69000E+01 4.61030E+01 0.00000E+00
 -1      1897 9.46500E+01 4.48040E+01 0.00000E+00
 -1      1898 9.84000E+01 4.61030E+01 0.00000E+00
 -1      1899 9.99000E+01 4.61030E+01 0.00000E+00
 -1      1900 9.76500E+01 4.48040E+01 0.00000E+00
 -1      1901 1.01400E+02 4.61030E+01 0.00000E+00
 -1      1902 1.02900E+02 4.61030E+01 0.00000E+00
 -1      1903 1.00650E+02 4.48040E+01 0.00000E+00
 -1      1904 1.04400E+02 4.61030E+01 0.00000E+00
 -1      1905 1.05900E+02 4.61030E+01 0.00000E+00
 -1      1906 1.03650E+02 4.48040E+01 0.00000E+00
 -1      1907 1.07400E+02 4.61030E+01 0.00000E+00
 -1      1908 1.08900E+02 4.61030E+01 0.00000E+00
 -1      1909 1.06650E+02 4.48040E+01 0.00000E+00
 -1      1910 1.10400E+02 4.61030E+01 0.00000E+00
 -1      1911 1.11900E+02 4.61030E+01 0.00000E+00
 -1      1912 1.09650E+02 4.48040E+01 0.00000E+00
 -1      1913 1.13400E+02 4.61030E+01 0.00000E+00
 -1      1914 1.14900E+02 4.61030E+01 0.00000E+00
 -1      1915 1.12650E+02 4.48040E+01 0.00000E+00
 -1      1916 1.16400E+02 4.61030E+01 0.00000E+00
 -1      1917 1.17900E+02 4.61030E+01 0.00000E+00
 -1      1918 1.15650E+02 4.48040E+01 0.00000E+00
 -1      1919 1.19400E+02 4.61030E+01 0.00000E+00
 -1      1920 1.20900E+02 4.61030E+01 0.00000E+00
 -1      1921 1.18650E+02 4.48040E+01 0.00000E+00
 -1      1922 1.22400E+02 4.61030E+01 0.00000E+00
 -1      1923 1.23900E+02 4.61030E+01 0.00000E+00
 -1      1924 1.21650E+02 4.48040E+01 0.00000E+00
 -1      1925 1.25400E+02 4.61030E+01 0.00000E+00
 -1      1926 1.26900E+02 4.61030E+01 0.00000E+00
 -1      1927 1.24650E+02 4.48040E+01 0.00000E+00
 -1      1928 1.28400E+02 4.61030E+01 0.00000E+00
 -1      1929 1.29900E+02 4.61030E+01 0.00000E+00
 -1      1930 1.27650E+02 4.48040E+01 0.00000E+00
 -1      1931 1.31400E+02 4.61030E+01 0.00000E+00
 -1      1932 1.32900E+02 4.61030E+01 0.00000E+00
 -1      1933 1.30650E+02 4.48040E+01 0.00000E+00
 -1      1934 1.34400E+02 4.61030E+01 0.00000E+00
 -1      1935 1.35900E+02 4.61030E+01 0.00000E+00
 -1      1936 1.33650E+02 4.48040E+01 0.00000E+00
 -1      1937 1.37400E+02 4.61030E+01 0.00000E+00
 -1      1938 1.38900E+02 4.61030E+01 0.00000E+00
 -1      1939 1.36650E+02 4.48040E+01 0.00000E+00
 -1      1940 1.40400E+02 4.61030E+01 0.00000E+00
 -1      1941 1.41900E+02 4.61030E+01 0.00000E+00
 -1      1942 1.39650E+02 4.48040E+01 0.00000E+00
 -1      1943 1.43244E+02 4.61616E+01 0.00000E+00
 -1      1944 1.44744E+02 4.61616E+01 0.00000E+00
 -1      1945 1.45182E+02 4.49799E+01 0.00000E+00
 -1      1946 1.42494E+02 4.48626E+01 0.00000E+00
 -1      1947 1.17045E+01 3.09687E+00 0.00000E+00
 -1      1948 1.02045E+01 3.09687E+00 0.00000E+00
 -1      1949 1.00350E+01 4.00625E+00 0.00000E+00
 -1      1950 1.47045E+01 3.09687E+00 0.00000E+00
 -1      1951 1.32045E+01 3.09687E+00 0.00000E+00
 -1      1952 1.30350E+01 4.00625E+00 0.00000E+00
 -1      1953 1.77045E+01 3.09687E+00 0.00000E+00
 -1      1954 1.62045E+01 3.09687E+00 0.00000E+00
 -1      1955 1.60350E+01 4.00625E+00 0.00000E+00
 -1      1956 2.07045E+01 3.09687E+00 0.00000E+00
 -1      1957 1.92045E+01 3.09687E+00 0.00000E+00
 -1      1958 1.90350E+01 4.00625E+00 0.00000E+00
 -1      1959 2.37045E+01 3.09687E+00 0.00000E+00
 -1      1960 2.22045E+01 3.09687E+00 0.00000E+00
 -1      1961 2.20350E+01 4.00625E+00 0.00000E+00
 -1      1962 2.67045E+01 3.09687E+00 0.00000E+00
 -1      1963 2.52045E+01 3.09687E+00 0.00000E+00
 -1      1964 2.50350E+01 4.00625E+00 0.00000E+00
 -1      1965 2.97045E+01 3.09687E+00 0.00000E+00
 -1      1966 2.82045E+01 3.09687E+00 0.00000E+00
 -1      1967 2.80350E+01 4.00625E+00 0.00000E+00
 -1      1968 3.27045E+01 3.09687E+00 0.00000E+00
 -1      1969 3.12045E+01 3.09687E+00 0.00000E+00
 -1      1970 3.10350E+01 4.00625E+00 0.00000E+00
 -1      1971 3.57045E+01 3.09687E+00 0.00000E+00
 -1      1972 3.42045E+01 3.09687E+00 0.00000E+00
 -1      1973 3.40350E+01 4.00625E+00 0.00000E+00
 -1      1974 3.87045E+01 3.09687E+00 0.00000E+00
 -1      1975 3.72045E+01 3.09687E+00 0.00000E+00
 -1      1976 3.70350E+01 4.00625E+00 0.00000E+00
 -1      1977 4.17045E+01 3.09687E+00 0.00000E+00
 -1      1978 4.02045E+01 3.09687E+00 0.00000E+00
 -1      1979 4.00350E+01 4.00625E+00 0.00000E+00
 -1      1980 4.47045E+01 3.09687E+00 0.00000E+00
 -1      1981 4.32045E+01 3.09687E+00 0.00000E+00
 -1      1982 4.30350E+01 4.00625E+00 0.00000E+00
 -1      1983 4.77045E+01 3.09687E+00 0.00000E+00
 -1      1984 4.62045E+01 3.09687E+00 0.00000E+00
 -1      1985 4.60350E+01 4.00625E+00 0.00000E+00
 -1      1986 5.07045E+01 3.09687E+00 0.00000E+00
 -1      1987 4.92045E+01 3.09687E+00 0.00000E+00
 -1      1988 4.90350E+01 4.00625E+00 0.00000E+00
 -1      1989 5.37045E+01 3.09687E+00 0.00000E+00
 -1      1990 5.22045E+01 3.09687E+00 0.00000E+00
 -1      1991 5.20350E+01 4.00625E+00 0.00000E+00
 -1      1992 5.67045E+01 3.09687E+00 0.00000E+00
 -1      1993 5.52045E+01 3.09687E+00 0.00000E+00
 -1      1994 5.50350E+01 4.00625E+00 0.00000E+00
 -1      1995 5.97045E+01 3.09687E+00 0.00000E+00
 -1      1996 5.82045E+01 3.09687E+00 0.00000E+00
 -1      1997 5.80350E+01 4.00625E+00 0.00000E+00
 -1      1998 6.27045E+01 3.09687E+00 0.00000E+00
 -1      1999 6.12045E+01 3.09687E+00 0.00000E+00
 -1      2000 6.10350E+01 4.00625E+00 0.00000E+00
 -1      2001 6.57045E+01 3.09687E+00 0.00000E+00
 -1      2002 6.42045E+01 3.09687E+00 0.00000E+00
 -1      2003 6.40350E+01 4.00625E+00 0.00000E+00
 -1      2004 6.87045E+01 3.09687E+00 0.00000E+00
 -1      2005 6.72045E+01 3.09687E+00 0.00000E+00
 -1      2006 6.70350E+01 4.00625E+00 0.00000E+00
 -1      2007 7.17045E+01 3.09687E+00 0.00000E+00
 -1      2008 7.02045E+01 3.09687E+00 0.00000E+00
 -1      2009 7.00350E+01 4.00625E+00 0.00000E+00
 -1      2010 7.47045E+01 3.09687E+00 0.00000E+00
 -1      2011 7.32045E+01 3.09687E+00 0.00000E+00
 -1      2012 7.30350E+01 4.00625E+00 0.00000E+00
 -1      2013 7.77045E+01 3.09687E+00 0.00000E+00
 -1      2014 7.62045E+01 3.09687E+00 0.00000E+00
 -1      2015 7.60350E+01 4.00625E+00 0.00000E+00
 -1      2016 8.07045E+01 3.09687E+00 0.00000E+00
 -1      2017 7.92045E+01 3.09687E+00 0.00000E+00
 -1      2018 7.90350E+01 4.00625E+00 0.00000E+00
 -1      2019 8.37045E+01 3.09687E+00 0.00000E+00
 -1      2020 8.22045E+01 3.09687E+00 0.00000E+00
 -1      2021 8.20350E+01 4.00625E+00 0.00000E+00
 -1      2022 8.67045E+01 3.09687E+00 0.00000E+00
 -1      2023 8.52045E+01 3.09687E+00 0.00000E+00
 -1      2024 8.50350E+01 4.00625E+00 0.00000E+00
 -1      2025 8.97045E+01 3.09687E+00 0.00000E+00
 -1      2026 8.82045E+01 3.09687E+00 0.00000E+00
 -1      2027 8.80350E+01 4.00625E+00 0.00000E+00
 -1      2028 9.27045E+01 3.09687E+00 0.00000E+00
 -1      2029 9.12045E+01 3.09687E+00 0.00000E+00
 -1      2030 9.10350E+01 4.00625E+00 0.00000E+00
 -1      2031 9.57045E+01 3.09687E+00 0.00000E+00
 -1      2032 9.42045E+01 3.09687E+00 0.00000E+00
 -1      2033 9.40350E+01 4.00625E+00 0.00000E+00
 -1      2034 9.87045E+01 3.09687E+00 0.00000E+00
 -1      2035 9.72045E+01 3.09687E+00 0.00000E+00
 -1      2036 9.70350E+01 4.00625E+00 0.00000E+00
 -1      2037 1.01704E+02 3.09687E+00 0.00000E+00
 -1      2038 1.00204E+02 3.09687E+00 0.00000E+00
 -1      2039 1.00035E+02 4.00625E+00 0.00000E+00
 -1      2040 1.04704E+02 3.09687E+00 0.00000E+00
 -1      2041 1.03204E+02 3.09687E+00 0.00000E+00
 -1      2042 1.03035E+02 4.00625E+00 0.00000E+00
 -1      2043 1.07704E+02 3.09687E+00 0.00000E+00
 -1      2044 1.06204E+02 3.09687E+00 0.00000E+00
 -1      2045 1.06035E+02 4.00625E+00 0.00000E+00
 -1      2046 1.10704E+02 3.09687E+00 0.00000E+00
 -1      2047 1.09204E+02 3.09687E+00 0.00000E+00
 -1      2048 1.09035E+02 4.00625E+00 0.00000E+00
 -1      2049 1.13704E+02 3.09687E+00 0.00000E+00
 -1      2050 1.12204E+02 3.09687E+00 0.00000E+00
 -1      2051 1.12035E+02 4.00625E+00 0.00000E+00
 -1      2052 1.16704E+02 3.09687E+00 0.00000E+00
 -1      2053 1.15204E+02 3.09687E+00 0.00000E+00
 -1      2054 1.15035E+02 4.00625E+00 0.00000E+00
 -1      2055 1.19704E+02 3.09687E+00 0.00000E+00
 -1      2056 1.18204E+02 3.09687E+00 0.00000E+00
 -1      2057 1.18035E+02 4.00625E+00 0.00000E+00
 -1      2058 1.22704E+02 3.09687E+00 0.00000E+00
 -1      2059 1.21204E+02 3.09687E+00 0.00000E+00
 -1      2060 1.21035E+02 4.00625E+00 0.00000E+00
 -1      2061 1.25704E+02 3.09687E+00 0.00000E+00
 -1      2062 1.24204E+02 3.09687E+00 0.00000E+00
 -1      2063 1.24035E+02 4.00625E+00 0.00000E+00
 -1      2064 1.28704E+02 3.09687E+00 0.00000E+00
 -1      2065 1.27204E+02 3.09687E+00 0.00000E+00
 -1      2066 1.27035E+02 4.00625E+00 0.00000E+00
 -1      2067 1.31704E+02 3.09687E+00 0.00000E+00
 -1      2068 1.30204E+02 3.09687E+00 0.00000E+00
 -1      2069 1.30035E+02 4.00625E+00 0.00000E+00
 -1      2070 1.34704E+02 3.09687E+00 0.00000E+00
 -1      2071 1.33204E+02 3.09687E+00 0.00000E+00
 -1      2072 1.33035E+02 4.00625E+00 0.00000E+00
 -1      2073 1.37704E+02 3.09687E+00 0.00000E+00
 -1      2074 1.36204E+02 3.09687E+00 0.00000E+00
 -1      2075 1.36035E+02 4.00625E+00 0.00000E+00
 -1      2076 1.40704E+02 3.09687E+00 0.00000E+00
 -1      2077 1.39204E+02 3.09687E+00 0.00000E+00
 -1      2078 1.39035E+02 4.00625E+00 0.00000E+00
 -1      2079 1.43704E+02 3.09687E+00 0.00000E+00
 -1      2080 1.42204E+02 3.09687E+00 0.00000E+00
 -1      2081 1.42035E+02 4.00625E+00 0.00000E+00
 -1      2082 1.46171E+02 3.20156E+00 0.00000E+00
 -1      2083 1.44671E+02 3.20156E+00 0.00000E+00
 -1      2084 1.44502E+02 4.11094E+00 0.00000E+00
 -1      2085 1.46435E+02 4.32031E+00 0.00000E+00
 -1      2086 1.46103E+02 1.25375E+01 0.00000E+00
 -1      2087 1.46103E+02 1.10625E+01 0.00000E+00
 -1      2088 1.46103E+02 9.58750E+00 0.00000E+00
 -1      2089 1.46103E+02 8.11250E+00 0.00000E+00
 -1      2090 1.44804E+02 1.03250E+01 0.00000E+00
 -1      2091 1.46269E+02 6.95391E+00 0.00000E+00
 -1      2092 1.46269E+02 5.47891E+00 0.00000E+00
 -1      2093 1.45302E+02 5.37422E+00 0.00000E+00
 -1      2094 1.44970E+02 7.69141E+00 0.00000E+00
 -1      2095 1.46103E+02 1.54375E+01 0.00000E+00
 -1      2096 1.46103E+02 1.39875E+01 0.00000E+00
 -1      2097 1.44804E+02 1.32500E+01 0.00000E+00
 -1      2098 1.46103E+02 1.83875E+01 0.00000E+00
 -1      2099 1.46103E+02 1.69125E+01 0.00000E+00
 -1      2100 1.44804E+02 1.61750E+01 0.00000E+00
 -1      2101 1.46103E+02 2.13375E+01 0.00000E+00
 -1      2102 1.46103E+02 1.98625E+01 0.00000E+00
 -1      2103 1.44804E+02 1.91250E+01 0.00000E+00
 -1      2104 1.46103E+02 2.42875E+01 0.00000E+00
 -1      2105 1.46103E+02 2.28125E+01 0.00000E+00
 -1      2106 1.44804E+02 2.20750E+01 0.00000E+00
 -1      2107 1.46103E+02 2.72375E+01 0.00000E+00
 -1      2108 1.46103E+02 2.57625E+01 0.00000E+00
 -1      2109 1.44804E+02 2.50250E+01 0.00000E+00
 -1      2110 1.46103E+02 3.01875E+01 0.00000E+00
 -1      2111 1.46103E+02 2.87125E+01 0.00000E+00
 -1      2112 1.44804E+02 2.79750E+01 0.00000E+00
 -1      2113 1.46103E+02 3.30875E+01 0.00000E+00
 -1      2114 1.46103E+02 3.16375E+01 0.00000E+00
 -1      2115 1.44804E+02 3.09000E+01 0.00000E+00
 -1      2116 1.46103E+02 3.60375E+01 0.00000E+00
 -1      2117 1.46103E+02 3.45625E+01 0.00000E+00
 -1      2118 1.44804E+02 3.38250E+01 0.00000E+00
 -1      2119 1.46103E+02 3.89875E+01 0.00000E+00
 -1      2120 1.46103E+02 3.75125E+01 0.00000E+00
 -1      2121 1.44804E+02 3.67750E+01 0.00000E+00
 -1      2122 1.46103E+02 4.19375E+01 0.00000E+00
 -1      2123 1.46103E+02 4.04625E+01 0.00000E+00
 -1      2124 1.44804E+02 3.97250E+01 0.00000E+00
 -1      2125 4.38572E+01 2.00546E+01 0.00000E+00
 -1      2126 4.41249E+01 2.09568E+01 0.00000E+00
 -1      2127 4.45843E+01 2.36399E+01 0.00000E+00
 -1      2128 4.46634E+01 2.44853E+01 0.00000E+00
 -1      2129 4.43285E+01 2.19867E+01 0.00000E+00
 -1      2130 4.44564E+01 2.28133E+01 0.00000E+00
 -1      2131 4.53081E+01 2.31600E+01 0.00000E+00
 -1      2132 4.24829E+01 1.83591E+01 0.00000E+00
 -1      2133 4.31208E+01 1.90252E+01 0.00000E+00
 -1      2134 4.11175E+01 1.71184E+01 0.00000E+00
 -1      2135 4.17835E+01 1.76934E+01 0.00000E+00
 -1      2136 3.89700E+00 3.74688E+01 0.00000E+00
 -1      2137 3.89700E+00 3.89437E+01 0.00000E+00
 -1      2138 5.19600E+00 3.96813E+01 0.00000E+00
 -1      2139 5.19600E+00 3.67438E+01 0.00000E+00
 -1      2140 3.77428E+01 1.54128E+01 0.00000E+00
 -1      2141 3.85558E+01 1.56550E+01 0.00000E+00
 -1      2142 3.59188E+01 1.51822E+01 0.00000E+00
 -1      2143 3.67711E+01 1.52924E+01 0.00000E+00
 -1      2144 3.39553E+01 1.51966E+01 0.00000E+00
 -1      2145 3.48918E+01 1.51469E+01 0.00000E+00
 -1      2146 3.18641E+01 1.57679E+01 0.00000E+00
 -1      2147 3.26780E+01 1.53364E+01 0.00000E+00
 -1      2148 3.04246E+01 1.67065E+01 0.00000E+00
 -1      2149 3.11444E+01 1.62372E+01 0.00000E+00
 -1      2150 3.11104E+01 1.51897E+01 0.00000E+00
 -1      2151 2.90484E+01 1.81864E+01 0.00000E+00
 -1      2152 2.96636E+01 1.75725E+01 0.00000E+00
 -1      2153 2.79662E+01 1.96562E+01 0.00000E+00
 -1      2154 2.84219E+01 1.89557E+01 0.00000E+00
 -1      2155 2.70978E+01 2.12156E+01 0.00000E+00
 -1      2156 2.74393E+01 2.04502E+01 0.00000E+00
 -1      2157 2.66862E+01 2.30544E+01 0.00000E+00
 -1      2158 2.68679E+01 2.21983E+01 0.00000E+00
 -1      2159 2.67488E+01 2.49985E+01 0.00000E+00
 -1      2160 2.66663E+01 2.41239E+01 0.00000E+00
 -1      2161 2.69224E+01 2.68452E+01 0.00000E+00
 -1      2162 2.67332E+01 2.59814E+01 0.00000E+00
 -1      2163 2.79744E+01 2.85637E+01 0.00000E+00
 -1      2164 2.75026E+01 2.78213E+01 0.00000E+00
 -1      2165 2.90047E+01 3.00987E+01 0.00000E+00
 -1      2166 2.84425E+01 2.94202E+01 0.00000E+00
 -1      2167 3.05632E+01 3.12991E+01 0.00000E+00
 -1      2168 2.98429E+01 3.07364E+01 0.00000E+00
 -1      2169 3.21265E+01 3.24366E+01 0.00000E+00
 -1      2170 3.13300E+01 3.19706E+01 0.00000E+00
 -1      2171 3.40659E+01 3.31364E+01 0.00000E+00
 -1      2172 3.31747E+01 3.29379E+01 0.00000E+00
 -1      2173 3.60371E+01 3.30564E+01 0.00000E+00
 -1      2174 3.51900E+01 3.31317E+01 0.00000E+00
 -1      2175 3.75823E+01 3.27546E+01 0.00000E+00
 -1      2176 3.68097E+01 3.29055E+01 0.00000E+00
 -1      2177 3.64546E+01 3.37139E+01 0.00000E+00
 -1      2178 3.92775E+01 3.21470E+01 0.00000E+00
 -1      2179 3.85570E+01 3.24394E+01 0.00000E+00
 -1      2180 4.07194E+01 3.12609E+01 0.00000E+00
 -1      2181 4.00613E+01 3.16899E+01 0.00000E+00
 -1      2182 4.20529E+01 3.02075E+01 0.00000E+00
 -1      2183 4.14866E+01 3.07555E+01 0.00000E+00
 -1      2184 4.30841E+01 2.88335E+01 0.00000E+00
 -1      2185 4.25890E+01 2.94791E+01 0.00000E+00
 -1      2186 4.40119E+01 2.72527E+01 0.00000E+00
 -1      2187 4.37248E+01 2.80192E+01 0.00000E+00
 -1      2188 4.45111E+01 2.56534E+01 0.00000E+00
 -1      2189 4.42615E+01 2.64530E+01 0.00000E+00
 -1      2190 4.48818E+01 2.71224E+01 0.00000E+00
 -1      2191 3.94556E+01 1.61009E+01 0.00000E+00
 -1      2192 4.02577E+01 1.64986E+01 0.00000E+00
 -1      2193 4.10416E+01 1.62639E+01 0.00000E+00
 -1      2194 6.42300E+00 4.57510E+01 0.00000E+00
 -1      2195 3.92820E+01 1.51981E+01 0.00000E+00
 -1      2196 7.17300E+00 4.44520E+01 0.00000E+00
 -1      2197 4.49766E+01 2.13036E+01 0.00000E+00
 -1      2198 4.42160E+01 1.84340E+01 0.00000E+00
 -1      2199 4.40366E+01 1.92443E+01 0.00000E+00
 -1      2200 4.49524E+01 1.94634E+01 0.00000E+00
 -1      2201 1.45665E+02 4.31193E+01 0.00000E+00
 -1      2202 4.52837E+01 2.51547E+01 0.00000E+00
 -1      2203 4.26008E+01 1.75493E+01 0.00000E+00
 -1      2204 4.39915E+01 2.87364E+01 0.00000E+00
 -1      2205 4.28147E+01 3.02791E+01 0.00000E+00
 -1      2206 4.15115E+01 3.15129E+01 0.00000E+00
 -1      2207 3.82020E+01 3.32478E+01 0.00000E+00
 -1      2208 3.45579E+01 3.38695E+01 0.00000E+00
 -1      2209 3.23857E+01 3.33729E+01 0.00000E+00
 -1      2210 3.05708E+01 3.22000E+01 0.00000E+00
 -1      2211 2.89659E+01 3.08908E+01 0.00000E+00
 -1      2212 2.76596E+01 2.93966E+01 0.00000E+00
 -1      2213 2.66113E+01 2.75640E+01 0.00000E+00
 -1      2214 2.60467E+01 2.56050E+01 0.00000E+00
 -1      2215 2.60822E+01 2.35525E+01 0.00000E+00
 -1      2216 2.63320E+01 2.15003E+01 0.00000E+00
 -1      2217 2.70888E+01 1.97237E+01 0.00000E+00
 -1      2218 2.96296E+01 1.65250E+01 0.00000E+00
 -1      2219 3.31074E+01 1.45807E+01 0.00000E+00
 -1      2220 3.74105E+01 1.46318E+01 0.00000E+00
 -1      2221 3.54118E+01 1.44762E+01 0.00000E+00
 -1      2222 2.82421E+01 1.81603E+01 0.00000E+00
 -1      2223 3.99605E+01 3.24754E+01 0.00000E+00
 -1      2224 1.07850E+01 5.30525E+00 0.00000E+00
 -1      2225 9.28500E+00 5.30525E+00 0.00000E+00
 -1      2226 6.49500E+00 3.01125E+01 0.00000E+00
 -1      2227 6.49500E+00 3.15875E+01 0.00000E+00
 -1      2228 6.49500E+00 3.30625E+01 0.00000E+00
 -1      2229 6.49500E+00 3.45375E+01 0.00000E+00
 -1      2230 7.79400E+00 3.23250E+01 0.00000E+00
 -1      2231 6.49500E+00 2.42125E+01 0.00000E+00
 -1      2232 6.49500E+00 2.56875E+01 0.00000E+00
 -1      2233 6.49500E+00 2.12625E+01 0.00000E+00
 -1      2234 6.49500E+00 2.27375E+01 0.00000E+00
 -1      2235 7.79400E+00 2.34750E+01 0.00000E+00
 -1      2236 6.49500E+00 1.83625E+01 0.00000E+00
 -1      2237 6.49500E+00 1.98125E+01 0.00000E+00
 -1      2238 7.79400E+00 2.05500E+01 0.00000E+00
 -1      2239 6.49500E+00 1.54125E+01 0.00000E+00
 -1      2240 6.49500E+00 1.68875E+01 0.00000E+00
 -1      2241 7.79400E+00 1.76250E+01 0.00000E+00
 -1      2242 6.49500E+00 1.24625E+01 0.00000E+00
 -1      2243 6.49500E+00 1.39375E+01 0.00000E+00
 -1      2244 7.79400E+00 1.46750E+01 0.00000E+00
 -1      2245 6.49500E+00 9.51250E+00 0.00000E+00
 -1      2246 6.49500E+00 1.09875E+01 0.00000E+00
 -1      2247 7.79400E+00 1.17250E+01 0.00000E+00
 -1      2248 1.37850E+01 5.30525E+00 0.00000E+00
 -1      2249 1.22850E+01 5.30525E+00 0.00000E+00
 -1      2250 1.15350E+01 6.60425E+00 0.00000E+00
 -1      2251 9.90000E+00 4.35050E+01 0.00000E+00
 -1      2252 1.14000E+01 4.35050E+01 0.00000E+00
 -1      2253 3.91943E+01 1.42443E+01 0.00000E+00
 -1      2254 4.00941E+01 1.46903E+01 0.00000E+00
 -1      2255 1.29000E+01 4.35050E+01 0.00000E+00
 -1      2256 1.44000E+01 4.35050E+01 0.00000E+00
 -1      2257 1.21500E+01 4.22060E+01 0.00000E+00
 -1      2258 1.59000E+01 4.35050E+01 0.00000E+00
 -1      2259 1.74000E+01 4.35050E+01 0.00000E+00
 -1      2260 1.51500E+01 4.22060E+01 0.00000E+00
 -1      2261 1.89000E+01 4.35050E+01 0.00000E+00
 -1      2262 2.04000E+01 4.35050E+01 0.00000E+00
 -1      2263 1.81500E+01 4.22060E+01 0.00000E+00
 -1      2264 2.19000E+01 4.35050E+01 0.00000E+00
 -1      2265 2.34000E+01 4.35050E+01 0.00000E+00
 -1      2266 2.11500E+01 4.22060E+01 0.00000E+00
 -1      2267 2.49000E+01 4.35050E+01 0.00000E+00
 -1      2268 2.64000E+01 4.35050E+01 0.00000E+00
 -1      2269 2.41500E+01 4.22060E+01 0.00000E+00
 -1      2270 2.79000E+01 4.35050E+01 0.00000E+00
 -1      2271 2.94000E+01 4.35050E+01 0.00000E+00
 -1      2272 2.71500E+01 4.22060E+01 0.00000E+00
 -1      2273 3.09000E+01 4.35050E+01 0.00000E+00
 -1      2274 3.24000E+01 4.35050E+01 0.00000E+00
 -1      2275 3.01500E+01 4.22060E+01 0.00000E+00
 -1      2276 3.39000E+01 4.35050E+01 0.00000E+00
 -1      2277 3.54000E+01 4.35050E+01 0.00000E+00
 -1      2278 3.31500E+01 4.22060E+01 0.00000E+00
 -1      2279 3.69000E+01 4.35050E+01 0.00000E+00
 -1      2280 3.84000E+01 4.35050E+01 0.00000E+00
 -1      2281 3.61500E+01 4.22060E+01 0.00000E+00
 -1      2282 3.99000E+01 4.35050E+01 0.00000E+00
 -1      2283 4.14000E+01 4.35050E+01 0.00000E+00
 -1      2284 3.91500E+01 4.22060E+01 0.00000E+00
 -1      2285 4.29000E+01 4.35050E+01 0.00000E+00
 -1      2286 4.44000E+01 4.35050E+01 0.00000E+00
 -1      2287 4.21500E+01 4.22060E+01 0.00000E+00
 -1      2288 4.59000E+01 4.35050E+01 0.00000E+00
 -1      2289 4.74000E+01 4.35050E+01 0.00000E+00
 -1      2290 4.51500E+01 4.22060E+01 0.00000E+00
 -1      2291 4.89000E+01 4.35050E+01 0.00000E+00
 -1      2292 5.04000E+01 4.35050E+01 0.00000E+00
 -1      2293 4.81500E+01 4.22060E+01 0.00000E+00
 -1      2294 5.19000E+01 4.35050E+01 0.00000E+00
 -1      2295 5.34000E+01 4.35050E+01 0.00000E+00
 -1      2296 5.11500E+01 4.22060E+01 0.00000E+00
 -1      2297 5.49000E+01 4.35050E+01 0.00000E+00
 -1      2298 5.64000E+01 4.35050E+01 0.00000E+00
 -1      2299 5.41500E+01 4.22060E+01 0.00000E+00
 -1      2300 5.79000E+01 4.35050E+01 0.00000E+00
 -1      2301 5.94000E+01 4.35050E+01 0.00000E+00
 -1      2302 5.71500E+01 4.22060E+01 0.00000E+00
 -1      2303 6.09000E+01 4.35050E+01 0.00000E+00
 -1      2304 6.24000E+01 4.35050E+01 0.00000E+00
 -1      2305 6.01500E+01 4.22060E+01 0.00000E+00
 -1      2306 6.39000E+01 4.35050E+01 0.00000E+00
 -1      2307 6.54000E+01 4.35050E+01 0.00000E+00
 -1      2308 6.31500E+01 4.22060E+01 0.00000E+00
 -1      2309 6.69000E+01 4.35050E+01 0.00000E+00
 -1      2310 6.84000E+01 4.35050E+01 0.00000E+00
 -1      2311 6.61500E+01 4.22060E+01 0.00000E+00
 -1      2312 6.99000E+01 4.35050E+01 0.00000E+00
 -1      2313 7.14000E+01 4.35050E+01 0.00000E+00
 -1      2314 6.91500E+01 4.22060E+01 0.00000E+00
 -1      2315 7.29000E+01 4.35050E+01 0.00000E+00
 -1      2316 7.44000E+01 4.35050E+01 0.00000E+00
 -1      2317 7.21500E+01 4.22060E+01 0.00000E+00
 -1      2318 7.59000E+01 4.35050E+01 0.00000E+00
 -1      2319 7.74000E+01 4.35050E+01 0.00000E+00
 -1      2320 7.51500E+01 4.22060E+01 0.00000E+00
 -1      2321 7.89000E+01 4.35050E+01 0.00000E+00
 -1      2322 8.04000E+01 4.35050E+01 0.00000E+00
 -1      2323 7.81500E+01 4.22060E+01 0.00000E+00
 -1      2324 8.19000E+01 4.35050E+01 0.00000E+00
 -1      2325 8.34000E+01 4.35050E+01 0.00000E+00
 -1      2326 8.11500E+01 4.22060E+01 0.00000E+00
 -1      2327 8.49000E+01 4.35050E+01 0.00000E+00
 -1      2328 8.64000E+01 4.35050E+01 0.00000E+00
 -1      2329 8.41500E+01 4.22060E+01 0.00000E+00
 -1      2330 8.79000E+01 4.35050E+01 0.00000E+00
 -1      2331 8.94000E+01 4.35050E+01 0.00000E+00
 -1      2332 8.71500E+01 4.22060E+01 0.00000E+00
 -1      2333 9.09000E+01 4.35050E+01 0.00000E+00
 -1      2334 9.24000E+01 4.35050E+01 0.00000E+00
 -1      2335 9.01500E+01 4.22060E+01 0.00000E+00
 -1      2336 9.39000E+01 4.35050E+01 0.00000E+00
 -1      2337 9.54000E+01 4.35050E+01 0.00000E+00
 -1      2338 9.31500E+01 4.22060E+01 0.00000E+00
 -1      2339 9.69000E+01 4.35050E+01 0.00000E+00
 -1      2340 9.84000E+01 4.35050E+01 0.00000E+00
 -1      2341 9.61500E+01 4.22060E+01 0.00000E+00
 -1      2342 9.99000E+01 4.35050E+01 0.00000E+00
 -1      2343 1.01400E+02 4.35050E+01 0.00000E+00
 -1      2344 9.91500E+01 4.22060E+01 0.00000E+00
 -1      2345 1.02900E+02 4.35050E+01 0.00000E+00
 -1      2346 1.04400E+02 4.35050E+01 0.00000E+00
 -1      2347 1.02150E+02 4.22060E+01 0.00000E+00
 -1      2348 1.05900E+02 4.35050E+01 0.00000E+00
 -1      2349 1.07400E+02 4.35050E+01 0.00000E+00
 -1      2350 1.05150E+02 4.22060E+01 0.00000E+00
 -1      2351 1.08900E+02 4.35050E+01 0.00000E+00
 -1      2352 1.10400E+02 4.35050E+01 0.00000E+00
 -1      2353 1.08150E+02 4.22060E+01 0.00000E+00
 -1      2354 1.11900E+02 4.35050E+01 0.00000E+00
 -1      2355 1.13400E+02 4.35050E+01 0.00000E+00
 -1      2356 1.11150E+02 4.22060E+01 0.00000E+00
 -1      2357 1.14900E+02 4.35050E+01 0.00000E+00
 -1      2358 1.16400E+02 4.35050E+01 0.00000E+00
 -1      2359 1.14150E+02 4.22060E+01 0.00000E+00
 -1      2360 1.17900E+02 4.35050E+01 0.00000E+00
 -1      2361 1.19400E+02 4.35050E+01 0.00000E+00
 -1      2362 1.17150E+02 4.22060E+01 0.00000E+00
 -1      2363 1.20900E+02 4.35050E+01 0.00000E+00
 -1      2364 1.22400E+02 4.35050E+01 0.00000E+00
 -1      2365 1.20150E+02 4.22060E+01 0.00000E+00
 -1      2366 1.23900E+02 4.35050E+01 0.00000E+00
 -1      2367 1.25400E+02 4.35050E+01 0.00000E+00
 -1      2368 1.23150E+02 4.22060E+01 0.00000E+00
 -1      2369 1.26900E+02 4.35050E+01 0.00000E+00
 -1      2370 1.28400E+02 4.35050E+01 0.00000E+00
 -1      2371 1.26150E+02 4.22060E+01 0.00000E+00
 -1      2372 1.29900E+02 4.35050E+01 0.00000E+00
 -1      2373 1.31400E+02 4.35050E+01 0.00000E+00
 -1      2374 1.29150E+02 4.22060E+01 0.00000E+00
 -1      2375 1.32900E+02 4.35050E+01 0.00000E+00
 -1      2376 1.34400E+02 4.35050E+01 0.00000E+00
 -1      2377 1.32150E+02 4.22060E+01 0.00000E+00
 -1      2378 1.35900E+02 4.35050E+01 0.00000E+00
 -1      2379 1.37400E+02 4.35050E+01 0.00000E+00
 -1      2380 1.35150E+02 4.22060E+01 0.00000E+00
 -1      2381 1.38900E+02 4.35050E+01 0.00000E+00
 -1      2382 1.40400E+02 4.35050E+01 0.00000E+00
 -1      2383 1.38150E+02 4.22060E+01 0.00000E+00
 -1      2384 1.97850E+01 5.30525E+00 0.00000E+00
 -1      2385 1.82850E+01 5.30525E+00 0.00000E+00
 -1      2386 2.27850E+01 5.30525E+00 0.00000E+00
 -1      2387 2.12850E+01 5.30525E+00 0.00000E+00
 -1      2388 2.05350E+01 6.60425E+00 0.00000E+00
 -1      2389 2.57850E+01 5.30525E+00 0.00000E+00
 -1      2390 2.42850E+01 5.30525E+00 0.00000E+00
 -1      2391 2.35350E+01 6.60425E+00 0.00000E+00
 -1      2392 2.87850E+01 5.30525E+00 0.00000E+00
 -1      2393 2.72850E+01 5.30525E+00 0.00000E+00
 -1      2394 2.65350E+01 6.60425E+00 0.00000E+00
 -1      2395 3.17850E+01 5.30525E+00 0.00000E+00
 -1      2396 3.02850E+01 5.30525E+00 0.00000E+00
 -1      2397 2.95350E+01 6.60425E+00 0.00000E+00
 -1      2398 3.47850E+01 5.30525E+00 0.00000E+00
 -1      2399 3.32850E+01 5.30525E+00 0.00000E+00
 -1      2400 3.25350E+01 6.60425E+00 0.00000E+00
 -1      2401 3.77850E+01 5.30525E+00 0.00000E+00
 -1      2402 3.62850E+01 5.30525E+00 0.00000E+00
 -1      2403 3.55350E+01 6.60425E+00 0.00000E+00
 -1      2404 4.07850E+01 5.30525E+00 0.00000E+00
 -1      2405 3.92850E+01 5.30525E+00 0.00000E+00
 -1      2406 3.85350E+01 6.60425E+00 0.00000E+00
 -1      2407 4.37850E+01 5.30525E+00 0.00000E+00
 -1      2408 4.22850E+01 5.30525E+00 0.00000E+00
 -1      2409 4.15350E+01 6.60425E+00 0.00000E+00
 -1      2410 4.67850E+01 5.30525E+00 0.00000E+00
 -1      2411 4.52850E+01 5.30525E+00 0.00000E+00
 -1      2412 4.45350E+01 6.60425E+00 0.00000E+00
 -1      2413 4.97850E+01 5.30525E+00 0.00000E+00
 -1      2414 4.82850E+01 5.30525E+00 0.00000E+00
 -1      2415 4.75350E+01 6.60425E+00 0.00000E+00
 -1      2416 5.27850E+01 5.30525E+00 0.00000E+00
 -1      2417 5.12850E+01 5.30525E+00 0.00000E+00
 -1      2418 5.05350E+01 6.60425E+00 0.00000E+00
 -1      2419 5.57850E+01 5.30525E+00 0.00000E+00
 -1      2420 5.42850E+01 5.30525E+00 0.00000E+00
 -1      2421 5.35350E+01 6.60425E+00 0.00000E+00
 -1      2422 5.87850E+01 5.30525E+00 0.00000E+00
 -1      2423 5.72850E+01 5.30525E+00 0.00000E+00
 -1      2424 5.65350E+01 6.60425E+00 0.00000E+00
 -1      2425 6.17850E+01 5.30525E+00 0.00000E+00
 -1      2426 6.02850E+01 5.30525E+00 0.00000E+00
 -1      2427 5.95350E+01 6.60425E+00 0.00000E+00
 -1      2428 6.47850E+01 5.30525E+00 0.00000E+00
 -1      2429 6.32850E+01 5.30525E+00 0.00000E+00
 -1      2430 6.25350E+01 6.60425E+00 0.00000E+00
 -1      2431 6.77850E+01 5.30525E+00 0.00000E+00
 -1      2432 6.62850E+01 5.30525E+00 0.00000E+00
 -1      2433 6.55350E+01 6.60425E+00 0.00000E+00
 -1      2434 7.07850E+01 5.30525E+00 0.00000E+00
 -1      2435 6.92850E+01 5.30525E+00 0.00000E+00
 -1      2436 6.85350E+01 6.60425E+00 0.00000E+00
 -1      2437 7.37850E+01 5.30525E+00 0.00000E+00
 -1      2438 7.22850E+01 5.30525E+00 0.00000E+00
 -1      2439 7.15350E+01 6.60425E+00 0.00000E+00
 -1      2440 7.67850E+01 5.30525E+00 0.00000E+00
 -1      2441 7.52850E+01 5.30525E+00 0.00000E+00
 -1      2442 7.45350E+01 6.60425E+00 0.00000E+00
 -1      2443 7.97850E+01 5.30525E+00 0.00000E+00
 -1      2444 7.82850E+01 5.30525E+00 0.00000E+00
 -1      2445 7.75350E+01 6.60425E+00 0.00000E+00
 -1      2446 8.27850E+01 5.30525E+00 0.00000E+00
 -1      2447 8.12850E+01 5.30525E+00 0.00000E+00
 -1      2448 8.05350E+01 6.60425E+00 0.00000E+00
 -1      2449 8.57850E+01 5.30525E+00 0.00000E+00
 -1      2450 8.42850E+01 5.30525E+00 0.00000E+00
 -1      2451 8.35350E+01 6.60425E+00 0.00000E+00
 -1      2452 8.87850E+01 5.30525E+00 0.00000E+00
 -1      2453 8.72850E+01 5.30525E+00 0.00000E+00
 -1      2454 8.65350E+01 6.60425E+00 0.00000E+00
 -1      2455 9.17850E+01 5.30525E+00 0.00000E+00
 -1      2456 9.02850E+01 5.30525E+00 0.00000E+00
 -1      2457 8.95350E+01 6.60425E+00 0.00000E+00
 -1      2458 9.47850E+01 5.30525E+00 0.00000E+00
 -1      2459 9.32850E+01 5.30525E+00 0.00000E+00
 -1      2460 9.25350E+01 6.60425E+00 0.00000E+00
 -1      2461 9.77850E+01 5.30525E+00 0.00000E+00
 -1      2462 9.62850E+01 5.30525E+00 0.00000E+00
 -1      2463 9.55350E+01 6.60425E+00 0.00000E+00
 -1      2464 1.00785E+02 5.30525E+00 0.00000E+00
 -1      2465 9.92850E+01 5.30525E+00 0.00000E+00
 -1      2466 9.85350E+01 6.60425E+00 0.00000E+00
 -1      2467 1.03785E+02 5.30525E+00 0.00000E+00
 -1      2468 1.02285E+02 5.30525E+00 0.00000E+00
 -1      2469 1.01535E+02 6.60425E+00 0.00000E+00
 -1      2470 1.06785E+02 5.30525E+00 0.00000E+00
 -1      2471 1.05285E+02 5.30525E+00 0.00000E+00
 -1      2472 1.04535E+02 6.60425E+00 0.00000E+00
 -1      2473 1.09785E+02 5.30525E+00 0.00000E+00
 -1      2474 1.08285E+02 5.30525E+00 0.00000E+00
 -1      2475 1.07535E+02 6.60425E+00 0.00000E+00
 -1      2476 1.12785E+02 5.30525E+00 0.00000E+00
 -1      2477 1.11285E+02 5.30525E+00 0.00000E+00
 -1      2478 1.10535E+02 6.60425E+00 0.00000E+00
 -1      2479 1.15785E+02 5.30525E+00 0.00000E+00
 -1      2480 1.14285E+02 5.30525E+00 0.00000E+00
 -1      2481 1.13535E+02 6.60425E+00 0.00000E+00
 -1      2482 1.18785E+02 5.30525E+00 0.00000E+00
 -1      2483 1.17285E+02 5.30525E+00 0.00000E+00
 -1      2484 1.16535E+02 6.60425E+00 0.00000E+00
 -1      2485 1.21785E+02 5.30525E+00 0.00000E+00
 -1      2486 1.20285E+02 5.30525E+00 0.00000E+00
 -1      2487 1.19535E+02 6.60425E+00 0.00000E+00
 -1      2488 1.24785E+02 5.30525E+00 0.00000E+00
 -1      2489 1.23285E+02 5.30525E+00 0.00000E+00
 -1      2490 1.22535E+02 6.60425E+00 0.00000E+00
 -1      2491 1.27785E+02 5.30525E+00 0.00000E+00
 -1      2492 1.26285E+02 5.30525E+00 0.00000E+00
 -1      2493 1.25535E+02 6.60425E+00 0.00000E+00
 -1      2494 1.30785E+02 5.30525E+00 0.00000E+00
 -1      2495 1.29285E+02 5.30525E+00 0.00000E+00
 -1      2496 1.28535E+02 6.60425E+00 0.00000E+00
 -1      2497 1.33785E+02 5.30525E+00 0.00000E+00
 -1      2498 1.32285E+02 5.30525E+00 0.00000E+00
 -1      2499 1.31535E+02 6.60425E+00 0.00000E+00
 -1      2500 1.36785E+02 5.30525E+00 0.00000E+00
 -1      2501 1.35285E+02 5.30525E+00 0.00000E+00
 -1      2502 1.34535E+02 6.60425E+00 0.00000E+00
 -1      2503 1.39785E+02 5.30525E+00 0.00000E+00
 -1      2504 1.38285E+02 5.30525E+00 0.00000E+00
 -1      2505 1.37535E+02 6.60425E+00 0.00000E+00
 -1      2506 1.42785E+02 5.30525E+00 0.00000E+00
 -1      2507 1.41285E+02 5.30525E+00 0.00000E+00
 -1      2508 1.40535E+02 6.60425E+00 0.00000E+00
 -1      2509 1.44336E+02 5.26953E+00 0.00000E+00
 -1      2510 1.43505E+02 1.69125E+01 0.00000E+00
 -1      2511 1.43505E+02 1.54375E+01 0.00000E+00
 -1      2512 1.43505E+02 1.98625E+01 0.00000E+00
 -1      2513 1.43505E+02 1.83875E+01 0.00000E+00
 -1      2514 1.42206E+02 1.76500E+01 0.00000E+00
 -1      2515 1.43505E+02 1.10625E+01 0.00000E+00
 -1      2516 1.43505E+02 9.58750E+00 0.00000E+00
 -1      2517 1.43505E+02 1.39750E+01 0.00000E+00
 -1      2518 1.43505E+02 1.25250E+01 0.00000E+00
 -1      2519 1.42206E+02 1.17875E+01 0.00000E+00
 -1      2520 1.42206E+02 1.47125E+01 0.00000E+00
 -1      2521 1.43505E+02 2.28125E+01 0.00000E+00
 -1      2522 1.43505E+02 2.13375E+01 0.00000E+00
 -1      2523 1.42206E+02 2.06000E+01 0.00000E+00
 -1      2524 1.43505E+02 2.57625E+01 0.00000E+00
 -1      2525 1.43505E+02 2.42875E+01 0.00000E+00
 -1      2526 1.42206E+02 2.35500E+01 0.00000E+00
 -1      2527 1.43505E+02 2.87125E+01 0.00000E+00
 -1      2528 1.43505E+02 2.72375E+01 0.00000E+00
 -1      2529 1.42206E+02 2.65000E+01 0.00000E+00
 -1      2530 1.43505E+02 3.16125E+01 0.00000E+00
 -1      2531 1.43505E+02 3.01625E+01 0.00000E+00
 -1      2532 1.42206E+02 2.94250E+01 0.00000E+00
 -1      2533 1.43505E+02 3.45625E+01 0.00000E+00
 -1      2534 1.43505E+02 3.30875E+01 0.00000E+00
 -1      2535 1.42206E+02 3.23500E+01 0.00000E+00
 -1      2536 1.43505E+02 3.75125E+01 0.00000E+00
 -1      2537 1.43505E+02 3.60375E+01 0.00000E+00
 -1      2538 1.42206E+02 3.53000E+01 0.00000E+00
 -1      2539 1.43505E+02 4.04625E+01 0.00000E+00
 -1      2540 1.43505E+02 3.89875E+01 0.00000E+00
 -1      2541 1.42206E+02 3.82500E+01 0.00000E+00
 -1      2542 1.44321E+02 4.30606E+01 0.00000E+00
 -1      2543 4.62102E+01 2.46815E+01 0.00000E+00
 -1      2544 4.60579E+01 2.58495E+01 0.00000E+00
 -1      2545 1.67850E+01 5.30525E+00 0.00000E+00
 -1      2546 1.52850E+01 5.30525E+00 0.00000E+00
 -1      2547 1.75350E+01 6.60425E+00 0.00000E+00
 -1      2548 4.60916E+01 2.26156E+01 0.00000E+00
 -1      2549 4.62195E+01 2.34422E+01 0.00000E+00
 -1      2550 4.48871E+01 2.87818E+01 0.00000E+00
 -1      2551 4.42464E+01 2.95961E+01 0.00000E+00
 -1      2552 4.27557E+01 1.66863E+01 0.00000E+00
 -1      2553 4.34551E+01 1.73520E+01 0.00000E+00
 -1      2554 4.56844E+01 2.05558E+01 0.00000E+00
 -1      2555 4.58880E+01 2.15857E+01 0.00000E+00
 -1      2556 4.67994E+01 2.18679E+01 0.00000E+00
 -1      2557 3.51236E+01 3.47247E+01 0.00000E+00
 -1      2558 3.39995E+01 3.47294E+01 0.00000E+00
 -1      2559 3.23663E+01 1.37148E+01 0.00000E+00
 -1      2560 3.36437E+01 1.35750E+01 0.00000E+00
 -1      2561 6.49500E+00 2.71625E+01 0.00000E+00
 -1      2562 6.49500E+00 2.86375E+01 0.00000E+00
 -1      2563 7.79400E+00 2.93750E+01 0.00000E+00
 -1      2564 7.79400E+00 2.64250E+01 0.00000E+00
 -1      2565 3.49335E+01 1.34340E+01 0.00000E+00
 -1      2566 3.59605E+01 1.34693E+01 0.00000E+00
 -1      2567 2.73289E+01 1.80564E+01 0.00000E+00
 -1      2568 2.79554E+01 1.72871E+01 0.00000E+00
 -1      2569 3.69322E+01 1.35897E+01 0.00000E+00
 -1      2570 3.79039E+01 1.37100E+01 0.00000E+00
 -1      2571 3.64539E+01 1.25475E+01 0.00000E+00
 -1      2572 3.02821E+01 1.47060E+01 0.00000E+00
 -1      2573 3.10018E+01 1.42368E+01 0.00000E+00
 -1      2574 4.07633E+01 3.29515E+01 0.00000E+00
 -1      2575 3.99795E+01 3.34086E+01 0.00000E+00
 -1      2576 2.86050E+01 1.63919E+01 0.00000E+00
 -1      2577 2.93660E+01 1.55259E+01 0.00000E+00
 -1      2578 2.61806E+01 1.96928E+01 0.00000E+00
 -1      2579 2.67075E+01 1.88988E+01 0.00000E+00
 -1      2580 2.55452E+01 2.18345E+01 0.00000E+00
 -1      2581 2.57751E+01 2.08518E+01 0.00000E+00
 -1      2582 2.52149E+01 2.40714E+01 0.00000E+00
 -1      2583 2.52348E+01 2.30019E+01 0.00000E+00
 -1      2584 2.51835E+01 2.60372E+01 0.00000E+00
 -1      2585 2.51992E+01 2.50543E+01 0.00000E+00
 -1      2586 2.43517E+01 2.45036E+01 0.00000E+00
 -1      2587 2.62002E+01 2.84688E+01 0.00000E+00
 -1      2588 2.56200E+01 2.74927E+01 0.00000E+00
 -1      2589 2.71365E+01 3.01819E+01 0.00000E+00
 -1      2590 2.66684E+01 2.93253E+01 0.00000E+00
 -1      2591 2.56771E+01 2.92541E+01 0.00000E+00
 -1      2592 2.89165E+01 3.18255E+01 0.00000E+00
 -1      2593 2.80783E+01 3.11878E+01 0.00000E+00
 -1      2594 3.04500E+01 3.31684E+01 0.00000E+00
 -1      2595 2.96832E+01 3.24970E+01 0.00000E+00
 -1      2596 2.87956E+01 3.27939E+01 0.00000E+00
 -1      2597 3.25397E+01 3.43971E+01 0.00000E+00
 -1      2598 3.14916E+01 3.38958E+01 0.00000E+00
 -1      2599 3.69893E+01 3.43978E+01 0.00000E+00
 -1      2600 3.62167E+01 3.45488E+01 0.00000E+00
 -1      2601 3.89388E+01 3.37674E+01 0.00000E+00
 -1      2602 3.79640E+01 3.40826E+01 0.00000E+00
 -1      2603 3.77261E+01 3.49175E+01 0.00000E+00
 -1      2604 4.22977E+01 3.19406E+01 0.00000E+00
 -1      2605 4.15305E+01 3.24460E+01 0.00000E+00
 -1      2606 4.15495E+01 3.33792E+01 0.00000E+00
 -1      2607 4.37103E+01 3.03245E+01 0.00000E+00
 -1      2608 4.31742E+01 3.10528E+01 0.00000E+00
 -1      2609 4.46058E+01 3.03698E+01 0.00000E+00
 -1      2610 4.57852E+01 2.69656E+01 0.00000E+00
 -1      2611 4.55356E+01 2.77652E+01 0.00000E+00
 -1      2612 6.55950E+00 4.28890E+01 0.00000E+00
 -1      2613 8.53650E+00 4.32410E+01 0.00000E+00
 -1      2614 9.28650E+00 4.19420E+01 0.00000E+00
 -1      2615 6.55950E+00 4.14140E+01 0.00000E+00
 -1      2616 8.07525E+00 5.11044E+00 0.00000E+00
 -1      2617 6.57525E+00 5.11044E+00 0.00000E+00
 -1      2618 6.40575E+00 6.01981E+00 0.00000E+00
 -1      2619 8.82525E+00 6.40944E+00 0.00000E+00
 -1      2620 4.10641E+01 1.53263E+01 0.00000E+00
 -1      2621 4.19239E+01 1.59460E+01 0.00000E+00
 -1      2622 3.15381E+01 1.32311E+01 0.00000E+00
 -1      2623 7.79400E+00 3.52687E+01 0.00000E+00
 -1      2624 6.49500E+00 3.60062E+01 0.00000E+00
 -1      2625 6.49500E+00 3.74750E+01 0.00000E+00
 -1      2626 1.45350E+01 6.60425E+00 0.00000E+00
 -1      2627 6.40575E+00 7.49481E+00 0.00000E+00
 -1      2628 4.09765E+01 1.43725E+01 0.00000E+00
 -1      2629 4.67117E+01 2.64924E+01 0.00000E+00
 -1      2630 4.43709E+01 1.75711E+01 0.00000E+00
 -1      2631 4.52867E+01 1.77901E+01 0.00000E+00
 -1      2632 4.45258E+01 1.67081E+01 0.00000E+00
 -1      2633 1.43586E+02 6.56853E+00 0.00000E+00
 -1      2634 4.57905E+01 2.86250E+01 0.00000E+00
 -1      2635 1.43419E+02 7.72713E+00 0.00000E+00
 -1      2636 6.55950E+00 3.99453E+01 0.00000E+00
 -1      2637 1.42758E+02 4.35929E+01 0.00000E+00
 -1      2638 1.43241E+02 4.17323E+01 0.00000E+00
 -1      2639 1.41942E+02 4.09948E+01 0.00000E+00
 -1      2640 1.41414E+02 4.35342E+01 0.00000E+00
 -1      2641 4.60433E+01 1.89353E+01 0.00000E+00
 -1      2642 4.58639E+01 1.97455E+01 0.00000E+00
 -1      2643 4.67753E+01 2.00277E+01 0.00000E+00
 -1      2644 3.97416E+01 3.42435E+01 0.00000E+00
 -1      2645 4.69937E+01 2.41371E+01 0.00000E+00
 -1      2646 7.70475E+00 8.23231E+00 0.00000E+00
 -1      2647 3.36710E+01 3.61075E+01 0.00000E+00
 -1      2648 3.31054E+01 3.52523E+01 0.00000E+00
 -1      2649 3.22113E+01 3.57753E+01 0.00000E+00
 -1      2650 1.42120E+02 8.46463E+00 0.00000E+00
 -1      2651 3.06040E+01 3.41927E+01 0.00000E+00
 -1      2652 3.56582E+01 3.54087E+01 0.00000E+00
 -1      2653 2.70871E+01 3.11165E+01 0.00000E+00
 -1      2654 2.60958E+01 3.10452E+01 0.00000E+00
 -1      2655 2.70376E+01 3.20512E+01 0.00000E+00
 -1      2656 2.47725E+01 2.69420E+01 0.00000E+00
 -1      2657 2.39251E+01 2.63913E+01 0.00000E+00
 -1      2658 2.43615E+01 2.78469E+01 0.00000E+00
 -1      2659 2.46779E+01 2.23533E+01 0.00000E+00
 -1      2660 3.41924E+01 1.25682E+01 0.00000E+00
 -1      2661 2.53938E+01 2.00270E+01 0.00000E+00
 -1      2662 2.76917E+01 1.62880E+01 0.00000E+00
 -1      2663 4.31932E+01 3.19859E+01 0.00000E+00
 -1      2664 4.27782E+01 1.57487E+01 0.00000E+00
 -1      2665 3.87160E+01 1.32022E+01 0.00000E+00
 -1      2666 2.64207E+01 1.80256E+01 0.00000E+00
 -1      2667 2.92574E+01 1.45730E+01 0.00000E+00
 -1      2668 1.40664E+02 4.22352E+01 0.00000E+00
 -1      2669 9.09300E+00 1.98250E+01 0.00000E+00
 -1      2670 9.09300E+00 2.12750E+01 0.00000E+00
 -1      2671 9.09300E+00 2.27500E+01 0.00000E+00
 -1      2672 9.09300E+00 2.42250E+01 0.00000E+00
 -1      2673 1.03920E+01 2.20250E+01 0.00000E+00
 -1      2674 9.09300E+00 1.39375E+01 0.00000E+00
 -1      2675 9.09300E+00 1.54125E+01 0.00000E+00
 -1      2676 9.09300E+00 1.09875E+01 0.00000E+00
 -1      2677 9.09300E+00 1.24625E+01 0.00000E+00
 -1      2678 1.03920E+01 1.32000E+01 0.00000E+00
 -1      2679 1.22850E+01 7.90325E+00 0.00000E+00
 -1      2680 1.07850E+01 7.90325E+00 0.00000E+00
 -1      2681 1.52850E+01 7.90325E+00 0.00000E+00
 -1      2682 1.37850E+01 7.90325E+00 0.00000E+00
 -1      2683 1.30350E+01 9.20225E+00 0.00000E+00
 -1      2684 8.91450E+00 8.42712E+00 0.00000E+00
 -1      2685 4.77625E+01 2.61578E+01 0.00000E+00
 -1      2686 4.74898E+01 2.72738E+01 0.00000E+00
 -1      2687 1.44000E+01 4.09070E+01 0.00000E+00
 -1      2688 1.59000E+01 4.09070E+01 0.00000E+00
 -1      2689 1.74000E+01 4.09070E+01 0.00000E+00
 -1      2690 1.89000E+01 4.09070E+01 0.00000E+00
 -1      2691 1.66500E+01 3.96080E+01 0.00000E+00
 -1      2692 2.04000E+01 4.09070E+01 0.00000E+00
 -1      2693 2.19000E+01 4.09070E+01 0.00000E+00
 -1      2694 1.96500E+01 3.96080E+01 0.00000E+00
 -1      2695 2.34000E+01 4.09070E+01 0.00000E+00
 -1      2696 2.49000E+01 4.09070E+01 0.00000E+00
 -1      2697 2.26500E+01 3.96080E+01 0.00000E+00
 -1      2698 2.64000E+01 4.09070E+01 0.00000E+00
 -1      2699 2.79000E+01 4.09070E+01 0.00000E+00
 -1      2700 2.56500E+01 3.96080E+01 0.00000E+00
 -1      2701 2.94000E+01 4.09070E+01 0.00000E+00
 -1      2702 3.09000E+01 4.09070E+01 0.00000E+00
 -1      2703 2.86500E+01 3.96080E+01 0.00000E+00
 -1      2704 3.24000E+01 4.09070E+01 0.00000E+00
 -1      2705 3.39000E+01 4.09070E+01 0.00000E+00
 -1      2706 3.16500E+01 3.96080E+01 0.00000E+00
 -1      2707 3.54000E+01 4.09070E+01 0.00000E+00
 -1      2708 3.69000E+01 4.09070E+01 0.00000E+00
 -1      2709 3.46500E+01 3.96080E+01 0.00000E+00
 -1      2710 3.84000E+01 4.09070E+01 0.00000E+00
 -1      2711 3.99000E+01 4.09070E+01 0.00000E+00
 -1      2712 3.76500E+01 3.96080E+01 0.00000E+00
 -1      2713 4.14000E+01 4.09070E+01 0.00000E+00
 -1      2714 4.29000E+01 4.09070E+01 0.00000E+00
 -1      2715 4.06500E+01 3.96080E+01 0.00000E+00
 -1      2716 4.44000E+01 4.09070E+01 0.00000E+00
 -1      2717 4.59000E+01 4.09070E+01 0.00000E+00
 -1      2718 4.36500E+01 3.96080E+01 0.00000E+00
 -1      2719 4.74000E+01 4.09070E+01 0.00000E+00
 -1      2720 4.89000E+01 4.09070E+01 0.00000E+00
 -1      2721 4.66500E+01 3.96080E+01 0.00000E+00
 -1      2722 5.04000E+01 4.09070E+01 0.00000E+00
 -1      2723 5.19000E+01 4.09070E+01 0.00000E+00
 -1      2724 4.96500E+01 3.96080E+01 0.00000E+00
 -1      2725 5.34000E+01 4.09070E+01 0.00000E+00
 -1      2726 5.49000E+01 4.09070E+01 0.00000E+00
 -1      2727 5.26500E+01 3.96080E+01 0.00000E+00
 -1      2728 5.64000E+01 4.09070E+01 0.00000E+00
 -1      2729 5.79000E+01 4.09070E+01 0.00000E+00
 -1      2730 5.56500E+01 3.96080E+01 0.00000E+00
 -1      2731 5.94000E+01 4.09070E+01 0.00000E+00
 -1      2732 6.09000E+01 4.09070E+01 0.00000E+00
 -1      2733 5.86500E+01 3.96080E+01 0.00000E+00
 -1      2734 6.24000E+01 4.09070E+01 0.00000E+00
 -1      2735 6.39000E+01 4.09070E+01 0.00000E+00
 -1      2736 6.16500E+01 3.96080E+01 0.00000E+00
 -1      2737 6.54000E+01 4.09070E+01 0.00000E+00
 -1      2738 6.69000E+01 4.09070E+01 0.00000E+00
 -1      2739 6.46500E+01 3.96080E+01 0.00000E+00
 -1      2740 6.84000E+01 4.09070E+01 0.00000E+00
 -1      2741 6.99000E+01 4.09070E+01 0.00000E+00
 -1      2742 6.76500E+01 3.96080E+01 0.00000E+00
 -1      2743 7.14000E+01 4.09070E+01 0.00000E+00
 -1      2744 7.29000E+01 4.09070E+01 0.00000E+00
 -1      2745 7.06500E+01 3.96080E+01 0.00000E+00
 -1      2746 7.44000E+01 4.09070E+01 0.00000E+00
 -1      2747 7.59000E+01 4.09070E+01 0.00000E+00
 -1      2748 7.36500E+01 3.96080E+01 0.00000E+00
 -1      2749 7.74000E+01 4.09070E+01 0.00000E+00
 -1      2750 7.89000E+01 4.09070E+01 0.00000E+00
 -1      2751 7.66500E+01 3.96080E+01 0.00000E+00
 -1      2752 8.04000E+01 4.09070E+01 0.00000E+00
 -1      2753 8.19000E+01 4.09070E+01 0.00000E+00
 -1      2754 7.96500E+01 3.96080E+01 0.00000E+00
 -1      2755 8.34000E+01 4.09070E+01 0.00000E+00
 -1      2756 8.49000E+01 4.09070E+01 0.00000E+00
 -1      2757 8.26500E+01 3.96080E+01 0.00000E+00
 -1      2758 8.64000E+01 4.09070E+01 0.00000E+00
 -1      2759 8.79000E+01 4.09070E+01 0.00000E+00
 -1      2760 8.56500E+01 3.96080E+01 0.00000E+00
 -1      2761 8.94000E+01 4.09070E+01 0.00000E+00
 -1      2762 9.09000E+01 4.09070E+01 0.00000E+00
 -1      2763 8.86500E+01 3.96080E+01 0.00000E+00
 -1      2764 9.24000E+01 4.09070E+01 0.00000E+00
 -1      2765 9.39000E+01 4.09070E+01 0.00000E+00
 -1      2766 9.16500E+01 3.96080E+01 0.00000E+00
 -1      2767 9.54000E+01 4.09070E+01 0.00000E+00
 -1      2768 9.69000E+01 4.09070E+01 0.00000E+00
 -1      2769 9.46500E+01 3.96080E+01 0.00000E+00
 -1      2770 9.84000E+01 4.09070E+01 0.00000E+00
 -1      2771 9.99000E+01 4.09070E+01 0.00000E+00
 -1      2772 9.76500E+01 3.96080E+01 0.00000E+00
 -1      2773 1.01400E+02 4.09070E+01 0.00000E+00
 -1      2774 1.02900E+02 4.09070E+01 0.00000E+00
 -1      2775 1.00650E+02 3.96080E+01 0.00000E+00
 -1      2776 1.04400E+02 4.09070E+01 0.00000E+00
 -1      2777 1.05900E+02 4.09070E+01 0.00000E+00
 -1      2778 1.03650E+02 3.96080E+01 0.00000E+00
 -1      2779 1.07400E+02 4.09070E+01 0.00000E+00
 -1      2780 1.08900E+02 4.09070E+01 0.00000E+00
 -1      2781 1.06650E+02 3.96080E+01 0.00000E+00
 -1      2782 1.10400E+02 4.09070E+01 0.00000E+00
 -1      2783 1.11900E+02 4.09070E+01 0.00000E+00
 -1      2784 1.09650E+02 3.96080E+01 0.00000E+00
 -1      2785 1.13400E+02 4.09070E+01 0.00000E+00
 -1      2786 1.14900E+02 4.09070E+01 0.00000E+00
 -1      2787 1.12650E+02 3.96080E+01 0.00000E+00
 -1      2788 1.16400E+02 4.09070E+01 0.00000E+00
 -1      2789 1.17900E+02 4.09070E+01 0.00000E+00
 -1      2790 1.15650E+02 3.96080E+01 0.00000E+00
 -1      2791 1.19400E+02 4.09070E+01 0.00000E+00
 -1      2792 1.20900E+02 4.09070E+01 0.00000E+00
 -1      2793 1.18650E+02 3.96080E+01 0.00000E+00
 -1      2794 1.22400E+02 4.09070E+01 0.00000E+00
 -1      2795 1.23900E+02 4.09070E+01 0.00000E+00
 -1      2796 1.21650E+02 3.96080E+01 0.00000E+00
 -1      2797 1.25400E+02 4.09070E+01 0.00000E+00
 -1      2798 1.26900E+02 4.09070E+01 0.00000E+00
 -1      2799 1.24650E+02 3.96080E+01 0.00000E+00
 -1      2800 1.28400E+02 4.09070E+01 0.00000E+00
 -1      2801 1.29900E+02 4.09070E+01 0.00000E+00
 -1      2802 1.27650E+02 3.96080E+01 0.00000E+00
 -1      2803 1.31400E+02 4.09070E+01 0.00000E+00
 -1      2804 1.32900E+02 4.09070E+01 0.00000E+00
 -1      2805 1.30650E+02 3.96080E+01 0.00000E+00
 -1      2806 1.34400E+02 4.09070E+01 0.00000E+00
 -1      2807 1.35900E+02 4.09070E+01 0.00000E+00
 -1      2808 1.33650E+02 3.96080E+01 0.00000E+00
 -1      2809 1.37400E+02 4.09070E+01 0.00000E+00
 -1      2810 1.38900E+02 4.09070E+01 0.00000E+00
 -1      2811 1.36650E+02 3.96080E+01 0.00000E+00
 -1      2812 2.42850E+01 7.90325E+00 0.00000E+00
 -1      2813 2.27850E+01 7.90325E+00 0.00000E+00
 -1      2814 2.12850E+01 7.90325E+00 0.00000E+00
 -1      2815 1.97850E+01 7.90325E+00 0.00000E+00
 -1      2816 2.20350E+01 9.20225E+00 0.00000E+00
 -1      2817 3.02850E+01 7.90325E+00 0.00000E+00
 -1      2818 2.87850E+01 7.90325E+00 0.00000E+00
 -1      2819 3.32850E+01 7.90325E+00 0.00000E+00
 -1      2820 3.17850E+01 7.90325E+00 0.00000E+00
 -1      2821 3.10350E+01 9.20225E+00 0.00000E+00
 -1      2822 3.62850E+01 7.90325E+00 0.00000E+00
 -1      2823 3.47850E+01 7.90325E+00 0.00000E+00
 -1      2824 3.40350E+01 9.20225E+00 0.00000E+00
 -1      2825 3.92850E+01 7.90325E+00 0.00000E+00
 -1      2826 3.77850E+01 7.90325E+00 0.00000E+00
 -1      2827 3.70350E+01 9.20225E+00 0.00000E+00
 -1      2828 4.22850E+01 7.90325E+00 0.00000E+00
 -1      2829 4.07850E+01 7.90325E+00 0.00000E+00
 -1      2830 4.00350E+01 9.20225E+00 0.00000E+00
 -1      2831 4.52850E+01 7.90325E+00 0.00000E+00
 -1      2832 4.37850E+01 7.90325E+00 0.00000E+00
 -1      2833 4.30350E+01 9.20225E+00 0.00000E+00
 -1      2834 4.82850E+01 7.90325E+00 0.00000E+00
 -1      2835 4.67850E+01 7.90325E+00 0.00000E+00
 -1      2836 4.60350E+01 9.20225E+00 0.00000E+00
 -1      2837 5.12850E+01 7.90325E+00 0.00000E+00
 -1      2838 4.97850E+01 7.90325E+00 0.00000E+00
 -1      2839 4.90350E+01 9.20225E+00 0.00000E+00
 -1      2840 5.42850E+01 7.90325E+00 0.00000E+00
 -1      2841 5.27850E+01 7.90325E+00 0.00000E+00
 -1      2842 5.20350E+01 9.20225E+00 0.00000E+00
 -1      2843 5.72850E+01 7.90325E+00 0.00000E+00
 -1      2844 5.57850E+01 7.90325E+00 0.00000E+00
 -1      2845 5.50350E+01 9.20225E+00 0.00000E+00
 -1      2846 6.02850E+01 7.90325E+00 0.00000E+00
 -1      2847 5.87850E+01 7.90325E+00 0.00000E+00
 -1      2848 5.80350E+01 9.20225E+00 0.00000E+00
 -1      2849 6.32850E+01 7.90325E+00 0.00000E+00
 -1      2850 6.17850E+01 7.90325E+00 0.00000E+00
 -1      2851 6.10350E+01 9.20225E+00 0.00000E+00
 -1      2852 6.62850E+01 7.90325E+00 0.00000E+00
 -1      2853 6.47850E+01 7.90325E+00 0.00000E+00
 -1      2854 6.40350E+01 9.20225E+00 0.00000E+00
 -1      2855 6.92850E+01 7.90325E+00 0.00000E+00
 -1      2856 6.77850E+01 7.90325E+00 0.00000E+00
 -1      2857 6.70350E+01 9.20225E+00 0.00000E+00
 -1      2858 7.22850E+01 7.90325E+00 0.00000E+00
 -1      2859 7.07850E+01 7.90325E+00 0.00000E+00
 -1      2860 7.00350E+01 9.20225E+00 0.00000E+00
 -1      2861 7.52850E+01 7.90325E+00 0.00000E+00
 -1      2862 7.37850E+01 7.90325E+00 0.00000E+00
 -1      2863 7.30350E+01 9.20225E+00 0.00000E+00
 -1      2864 7.82850E+01 7.90325E+00 0.00000E+00
 -1      2865 7.67850E+01 7.90325E+00 0.00000E+00
 -1      2866 7.60350E+01 9.20225E+00 0.00000E+00
 -1      2867 8.12850E+01 7.90325E+00 0.00000E+00
 -1      2868 7.97850E+01 7.90325E+00 0.00000E+00
 -1      2869 7.90350E+01 9.20225E+00 0.00000E+00
 -1      2870 8.42850E+01 7.90325E+00 0.00000E+00
 -1      2871 8.27850E+01 7.90325E+00 0.00000E+00
 -1      2872 8.20350E+01 9.20225E+00 0.00000E+00
 -1      2873 8.72850E+01 7.90325E+00 0.00000E+00
 -1      2874 8.57850E+01 7.90325E+00 0.00000E+00
 -1      2875 8.50350E+01 9.20225E+00 0.00000E+00
 -1      2876 9.02850E+01 7.90325E+00 0.00000E+00
 -1      2877 8.87850E+01 7.90325E+00 0.00000E+00
 -1      2878 8.80350E+01 9.20225E+00 0.00000E+00
 -1      2879 9.32850E+01 7.90325E+00 0.00000E+00
 -1      2880 9.17850E+01 7.90325E+00 0.00000E+00
 -1      2881 9.10350E+01 9.20225E+00 0.00000E+00
 -1      2882 9.62850E+01 7.90325E+00 0.00000E+00
 -1      2883 9.47850E+01 7.90325E+00 0.00000E+00
 -1      2884 9.40350E+01 9.20225E+00 0.00000E+00
 -1      2885 9.92850E+01 7.90325E+00 0.00000E+00
 -1      2886 9.77850E+01 7.90325E+00 0.00000E+00
 -1      2887 9.70350E+01 9.20225E+00 0.00000E+00
 -1      2888 1.02285E+02 7.90325E+00 0.00000E+00
 -1      2889 1.00785E+02 7.90325E+00 0.00000E+00
 -1      2890 1.00035E+02 9.20225E+00 0.00000E+00
 -1      2891 1.05285E+02 7.90325E+00 0.00000E+00
 -1      2892 1.03785E+02 7.90325E+00 0.00000E+00
 -1      2893 1.03035E+02 9.20225E+00 0.00000E+00
 -1      2894 1.08285E+02 7.90325E+00 0.00000E+00
 -1      2895 1.06785E+02 7.90325E+00 0.00000E+00
 -1      2896 1.06035E+02 9.20225E+00 0.00000E+00
 -1      2897 1.11285E+02 7.90325E+00 0.00000E+00
 -1      2898 1.09785E+02 7.90325E+00 0.00000E+00
 -1      2899 1.09035E+02 9.20225E+00 0.00000E+00
 -1      2900 1.14285E+02 7.90325E+00 0.00000E+00
 -1      2901 1.12785E+02 7.90325E+00 0.00000E+00
 -1      2902 1.12035E+02 9.20225E+00 0.00000E+00
 -1      2903 1.17285E+02 7.90325E+00 0.00000E+00
 -1      2904 1.15785E+02 7.90325E+00 0.00000E+00
 -1      2905 1.15035E+02 9.20225E+00 0.00000E+00
 -1      2906 1.20285E+02 7.90325E+00 0.00000E+00
 -1      2907 1.18785E+02 7.90325E+00 0.00000E+00
 -1      2908 1.18035E+02 9.20225E+00 0.00000E+00
 -1      2909 1.23285E+02 7.90325E+00 0.00000E+00
 -1      2910 1.21785E+02 7.90325E+00 0.00000E+00
 -1      2911 1.21035E+02 9.20225E+00 0.00000E+00
 -1      2912 1.26285E+02 7.90325E+00 0.00000E+00
 -1      2913 1.24785E+02 7.90325E+00 0.00000E+00
 -1      2914 1.24035E+02 9.20225E+00 0.00000E+00
 -1      2915 1.29285E+02 7.90325E+00 0.00000E+00
 -1      2916 1.27785E+02 7.90325E+00 0.00000E+00
 -1      2917 1.27035E+02 9.20225E+00 0.00000E+00
 -1      2918 1.32285E+02 7.90325E+00 0.00000E+00
 -1      2919 1.30785E+02 7.90325E+00 0.00000E+00
 -1      2920 1.30035E+02 9.20225E+00 0.00000E+00
 -1      2921 1.35285E+02 7.90325E+00 0.00000E+00
 -1      2922 1.33785E+02 7.90325E+00 0.00000E+00
 -1      2923 1.33035E+02 9.20225E+00 0.00000E+00
 -1      2924 1.38285E+02 7.90325E+00 0.00000E+00
 -1      2925 1.36785E+02 7.90325E+00 0.00000E+00
 -1      2926 1.36035E+02 9.20225E+00 0.00000E+00
 -1      2927 1.40953E+02 8.18394E+00 0.00000E+00
 -1      2928 1.39453E+02 8.18394E+00 0.00000E+00
 -1      2929 1.38703E+02 9.48294E+00 0.00000E+00
 -1      2930 1.41038E+02 1.00443E+01 0.00000E+00
 -1      2931 4.68024E+01 2.85554E+01 0.00000E+00
 -1      2932 4.61538E+01 2.95719E+01 0.00000E+00
 -1      2933 1.40907E+02 2.42875E+01 0.00000E+00
 -1      2934 1.40907E+02 2.28125E+01 0.00000E+00
 -1      2935 3.05859E+01 3.53282E+01 0.00000E+00
 -1      2936 2.95443E+01 3.46008E+01 0.00000E+00
 -1      2937 1.40907E+02 1.83875E+01 0.00000E+00
 -1      2938 1.40907E+02 1.69125E+01 0.00000E+00
 -1      2939 1.40907E+02 2.72375E+01 0.00000E+00
 -1      2940 1.40907E+02 2.57625E+01 0.00000E+00
 -1      2941 1.39608E+02 2.50250E+01 0.00000E+00
 -1      2942 1.40907E+02 2.13375E+01 0.00000E+00
 -1      2943 1.40907E+02 1.98625E+01 0.00000E+00
 -1      2944 1.39608E+02 1.91250E+01 0.00000E+00
 -1      2945 1.39608E+02 2.20750E+01 0.00000E+00
 -1      2946 1.40907E+02 3.01375E+01 0.00000E+00
 -1      2947 1.40907E+02 2.86875E+01 0.00000E+00
 -1      2948 1.39608E+02 2.79500E+01 0.00000E+00
 -1      2949 1.40907E+02 3.30875E+01 0.00000E+00
 -1      2950 1.40907E+02 3.16125E+01 0.00000E+00
 -1      2951 1.39608E+02 3.08750E+01 0.00000E+00
 -1      2952 1.40907E+02 3.60375E+01 0.00000E+00
 -1      2953 1.40907E+02 3.45625E+01 0.00000E+00
 -1      2954 1.39608E+02 3.38250E+01 0.00000E+00
 -1      2955 1.82850E+01 7.90325E+00 0.00000E+00
 -1      2956 1.67850E+01 7.90325E+00 0.00000E+00
 -1      2957 1.60350E+01 9.20225E+00 0.00000E+00
 -1      2958 1.90350E+01 9.20225E+00 0.00000E+00
 -1      2959 4.24971E+01 3.39825E+01 0.00000E+00
 -1      2960 4.17299E+01 3.44879E+01 0.00000E+00
 -1      2961 7.85850E+00 3.92077E+01 0.00000E+00
 -1      2962 4.77033E+01 2.11541E+01 0.00000E+00
 -1      2963 4.79069E+01 2.21840E+01 0.00000E+00
 -1      2964 2.36939E+01 2.27166E+01 0.00000E+00
 -1      2965 2.40044E+01 2.15493E+01 0.00000E+00
 -1      2966 4.05415E+01 3.48748E+01 0.00000E+00
 -1      2967 3.95008E+01 3.52336E+01 0.00000E+00
 -1      2968 2.72850E+01 7.90325E+00 0.00000E+00
 -1      2969 2.57850E+01 7.90325E+00 0.00000E+00
 -1      2970 2.50350E+01 9.20225E+00 0.00000E+00
 -1      2971 2.80350E+01 9.20225E+00 0.00000E+00
 -1      2972 1.14000E+01 4.09070E+01 0.00000E+00
 -1      2973 1.29000E+01 4.09070E+01 0.00000E+00
 -1      2974 1.36500E+01 3.96080E+01 0.00000E+00
 -1      2975 4.10535E+01 1.31972E+01 0.00000E+00
 -1      2976 4.20235E+01 1.38332E+01 0.00000E+00
 -1      2977 1.40928E+02 4.09655E+01 0.00000E+00
 -1      2978 1.41192E+02 3.96958E+01 0.00000E+00
 -1      2979 1.39914E+02 4.09362E+01 0.00000E+00
 -1      2980 9.09300E+00 1.68813E+01 0.00000E+00
 -1      2981 9.09300E+00 1.83563E+01 0.00000E+00
 -1      2982 1.03920E+01 1.90812E+01 0.00000E+00
 -1      2983 1.03920E+01 1.61437E+01 0.00000E+00
 -1      2984 9.09300E+00 3.15875E+01 0.00000E+00
 -1      2985 9.09300E+00 3.30625E+01 0.00000E+00
 -1      2986 4.43014E+01 3.22034E+01 0.00000E+00
 -1      2987 4.34249E+01 3.30912E+01 0.00000E+00
 -1      2988 2.54199E+01 1.79377E+01 0.00000E+00
 -1      2989 2.60413E+01 1.70953E+01 0.00000E+00
 -1      2990 4.78976E+01 2.34233E+01 0.00000E+00
 -1      2991 4.78883E+01 2.46626E+01 0.00000E+00
 -1      2992 4.88015E+01 2.27096E+01 0.00000E+00
 -1      2993 2.44212E+01 2.03371E+01 0.00000E+00
 -1      2994 2.48267E+01 1.91781E+01 0.00000E+00
 -1      2995 2.81716E+01 1.42815E+01 0.00000E+00
 -1      2996 2.90878E+01 1.34615E+01 0.00000E+00
 -1      2997 2.66909E+01 1.62002E+01 0.00000E+00
 -1      2998 2.73405E+01 1.53050E+01 0.00000E+00
 -1      2999 2.56901E+01 1.61123E+01 0.00000E+00
 -1      3000 3.27188E+01 1.09557E+01 0.00000E+00
 -1      3001 3.40086E+01 1.08147E+01 0.00000E+00
 -1      3002 2.35702E+01 2.49827E+01 0.00000E+00
 -1      3003 2.35859E+01 2.39998E+01 0.00000E+00
 -1      3004 2.50851E+01 3.01338E+01 0.00000E+00
 -1      3005 2.46170E+01 2.92773E+01 0.00000E+00
 -1      3006 3.63411E+01 3.61673E+01 0.00000E+00
 -1      3007 3.52480E+01 3.63433E+01 0.00000E+00
 -1      3008 2.86416E+01 3.37433E+01 0.00000E+00
 -1      3009 2.78749E+01 3.30718E+01 0.00000E+00
 -1      3010 3.84644E+01 3.55360E+01 0.00000E+00
 -1      3011 3.74897E+01 3.58512E+01 0.00000E+00
 -1      3012 3.84727E+01 1.21285E+01 0.00000E+00
 -1      3013 3.97631E+01 1.26629E+01 0.00000E+00
 -1      3014 4.08102E+01 1.21236E+01 0.00000E+00
 -1      3015 4.30439E+01 1.46129E+01 0.00000E+00
 -1      3016 4.38756E+01 1.53531E+01 0.00000E+00
 -1      3017 4.56320E+01 3.05636E+01 0.00000E+00
 -1      3018 4.50959E+01 3.12920E+01 0.00000E+00
 -1      3019 9.09300E+00 3.45313E+01 0.00000E+00
 -1      3020 9.09300E+00 3.60000E+01 0.00000E+00
 -1      3021 1.03920E+01 3.37938E+01 0.00000E+00
 -1      3022 1.03920E+01 2.49750E+01 0.00000E+00
 -1      3023 9.09300E+00 2.57000E+01 0.00000E+00
 -1      3024 9.09300E+00 2.71750E+01 0.00000E+00
 -1      3025 9.66450E+00 9.72612E+00 0.00000E+00
 -1      3026 4.31210E+01 1.34376E+01 0.00000E+00
 -1      3027 4.86664E+01 2.54441E+01 0.00000E+00
 -1      3028 4.47915E+01 1.55722E+01 0.00000E+00
 -1      3029 4.57073E+01 1.57913E+01 0.00000E+00
 -1      3030 4.50571E+01 1.44363E+01 0.00000E+00
 -1      3031 1.39164E+02 3.96372E+01 0.00000E+00
 -1      3032 4.14891E+01 3.54781E+01 0.00000E+00
 -1      3033 4.80622E+01 1.95336E+01 0.00000E+00
 -1      3034 4.78827E+01 2.03439E+01 0.00000E+00
 -1      3035 4.89902E+01 2.06600E+01 0.00000E+00
 -1      3036 4.66439E+01 3.04941E+01 0.00000E+00
 -1      3037 4.78532E+01 2.82208E+01 0.00000E+00
 -1      3038 1.41038E+02 1.15068E+01 0.00000E+00
 -1      3039 1.39870E+02 1.12261E+01 0.00000E+00
 -1      3040 1.41038E+02 1.29693E+01 0.00000E+00
 -1      3041 3.75010E+01 1.20082E+01 0.00000E+00
 -1      3042 3.85481E+01 1.14689E+01 0.00000E+00
 -1      3043 3.65293E+01 1.18878E+01 0.00000E+00
 -1      3044 2.86235E+01 3.48787E+01 0.00000E+00
 -1      3045 3.92644E+01 3.61673E+01 0.00000E+00
 -1      3046 1.41192E+02 3.82207E+01 0.00000E+00
 -1      3047 3.70794E+01 3.67858E+01 0.00000E+00
 -1      3048 4.61982E+01 1.80723E+01 0.00000E+00
 -1      3049 4.71096E+01 1.83544E+01 0.00000E+00
 -1      3050 4.63530E+01 1.72093E+01 0.00000E+00
 -1      3051 2.29124E+01 2.31957E+01 0.00000E+00
 -1      3052 2.50357E+01 3.10684E+01 0.00000E+00
 -1      3053 2.31592E+01 2.58875E+01 0.00000E+00
 -1      3054 2.23934E+01 2.53837E+01 0.00000E+00
 -1      3055 2.27482E+01 2.67924E+01 0.00000E+00
 -1      3056 2.71708E+01 1.41936E+01 0.00000E+00
 -1      3057 9.15750E+00 3.77359E+01 0.00000E+00
 -1      3058 9.22200E+00 4.02061E+01 0.00000E+00
 -1      3059 1.05855E+01 4.04701E+01 0.00000E+00
 -1      3060 1.04565E+01 3.69984E+01 0.00000E+00
 -1      3061 2.44473E+01 1.82478E+01 0.00000E+00
 -1      3062 2.34372E+01 2.07004E+01 0.00000E+00
 -1      3063 2.68836E+01 3.30005E+01 0.00000E+00
 -1      3064 2.37696E+01 2.87266E+01 0.00000E+00
 -1      3065 1.39529E+02 3.85602E+01 0.00000E+00
 -1      3066 1.40542E+02 3.71145E+01 0.00000E+00
 -1      3067 1.39243E+02 3.63770E+01 0.00000E+00
 -1      3068 1.38514E+02 3.85310E+01 0.00000E+00
 -1      3069 1.09635E+01 1.04636E+01 0.00000E+00
 -1      3070 1.40973E+02 1.56722E+01 0.00000E+00
 -1      3071 1.40973E+02 1.42097E+01 0.00000E+00
 -1      3072 1.39805E+02 1.39290E+01 0.00000E+00
 -1      3073 1.39674E+02 1.64097E+01 0.00000E+00
 -1      3074 9.09300E+00 2.86437E+01 0.00000E+00
 -1      3075 9.09300E+00 3.01187E+01 0.00000E+00
 -1      3076 1.03920E+01 3.08563E+01 0.00000E+00
 -1      3077 1.03920E+01 2.79188E+01 0.00000E+00
 -1      3078 4.36052E+01 3.42000E+01 0.00000E+00
 -1      3079 4.53275E+01 3.23972E+01 0.00000E+00
 -1      3080 3.55086E+01 1.08147E+01 0.00000E+00
 -1      3081 2.88541E+01 1.21639E+01 0.00000E+00
 -1      3082 2.99399E+01 1.24554E+01 0.00000E+00
 -1      3083 1.13355E+01 3.91711E+01 0.00000E+00
 -1      3084 3.12188E+01 1.09557E+01 0.00000E+00
 -1      3085 3.13044E+01 1.19335E+01 0.00000E+00
 -1      3086 4.32841E+01 1.21666E+01 0.00000E+00
 -1      3087 4.43044E+01 1.29463E+01 0.00000E+00
 -1      3088 1.16910E+01 1.24625E+01 0.00000E+00
 -1      3089 1.16910E+01 1.39375E+01 0.00000E+00
 -1      3090 3.16390E+01 3.67684E+01 0.00000E+00
 -1      3091 3.10734E+01 3.59132E+01 0.00000E+00
 -1      3092 1.29000E+01 3.83090E+01 0.00000E+00
 -1      3093 1.44000E+01 3.83090E+01 0.00000E+00
 -1      3094 4.47793E+01 3.44936E+01 0.00000E+00
 -1      3095 4.38516E+01 3.53849E+01 0.00000E+00
 -1      3096 1.89000E+01 3.83090E+01 0.00000E+00
 -1      3097 2.04000E+01 3.83090E+01 0.00000E+00
 -1      3098 2.19000E+01 3.83090E+01 0.00000E+00
 -1      3099 2.34000E+01 3.83090E+01 0.00000E+00
 -1      3100 2.11500E+01 3.70100E+01 0.00000E+00
 -1      3101 2.49000E+01 3.83090E+01 0.00000E+00
 -1      3102 2.64000E+01 3.83090E+01 0.00000E+00
 -1      3103 2.41500E+01 3.70100E+01 0.00000E+00
 -1      3104 2.79000E+01 3.85829E+01 0.00000E+00
 -1      3105 2.94000E+01 3.85829E+01 0.00000E+00
 -1      3106 3.03256E+01 3.82572E+01 0.00000E+00
 -1      3107 3.18256E+01 3.82572E+01 0.00000E+00
 -1      3108 3.45404E+01 3.83550E+01 0.00000E+00
 -1      3109 3.60404E+01 3.83550E+01 0.00000E+00
 -1      3110 3.71890E+01 3.80389E+01 0.00000E+00
 -1      3111 3.86890E+01 3.80389E+01 0.00000E+00
 -1      3112 3.97253E+01 3.77365E+01 0.00000E+00
 -1      3113 4.12253E+01 3.77365E+01 0.00000E+00
 -1      3114 4.35878E+01 3.76432E+01 0.00000E+00
 -1      3115 4.50878E+01 3.76432E+01 0.00000E+00
 -1      3116 4.65878E+01 3.76432E+01 0.00000E+00
 -1      3117 4.80878E+01 3.76432E+01 0.00000E+00
 -1      3118 4.65257E+01 3.56785E+01 0.00000E+00
 -1      3119 4.95878E+01 3.76432E+01 0.00000E+00
 -1      3120 5.10878E+01 3.76432E+01 0.00000E+00
 -1      3121 4.95257E+01 3.56785E+01 0.00000E+00
 -1      3122 5.25878E+01 3.76432E+01 0.00000E+00
 -1      3123 5.40878E+01 3.76432E+01 0.00000E+00
 -1      3124 5.25257E+01 3.56785E+01 0.00000E+00
 -1      3125 5.55878E+01 3.76432E+01 0.00000E+00
 -1      3126 5.70878E+01 3.76432E+01 0.00000E+00
 -1      3127 5.55257E+01 3.56785E+01 0.00000E+00
 -1      3128 5.85878E+01 3.76432E+01 0.00000E+00
 -1      3129 6.00878E+01 3.76432E+01 0.00000E+00
 -1      3130 5.85257E+01 3.56785E+01 0.00000E+00
 -1      3131 6.15878E+01 3.76432E+01 0.00000E+00
 -1      3132 6.30878E+01 3.76432E+01 0.00000E+00
 -1      3133 6.15257E+01 3.56785E+01 0.00000E+00
 -1      3134 6.45878E+01 3.76432E+01 0.00000E+00
 -1      3135 6.60878E+01 3.76432E+01 0.00000E+00
 -1      3136 6.45257E+01 3.56785E+01 0.00000E+00
 -1      3137 6.75878E+01 3.76432E+01 0.00000E+00
 -1      3138 6.90878E+01 3.76432E+01 0.00000E+00
 -1      3139 6.75257E+01 3.56785E+01 0.00000E+00
 -1      3140 7.05878E+01 3.76432E+01 0.00000E+00
 -1      3141 7.20878E+01 3.76432E+01 0.00000E+00
 -1      3142 7.05257E+01 3.56785E+01 0.00000E+00
 -1      3143 7.35878E+01 3.76432E+01 0.00000E+00
 -1      3144 7.50878E+01 3.76432E+01 0.00000E+00
 -1      3145 7.35257E+01 3.56785E+01 0.00000E+00
 -1      3146 7.65878E+01 3.76432E+01 0.00000E+00
 -1      3147 7.80878E+01 3.76432E+01 0.00000E+00
 -1      3148 7.65257E+01 3.56785E+01 0.00000E+00
 -1      3149 7.95878E+01 3.76432E+01 0.00000E+00
 -1      3150 8.10878E+01 3.76432E+01 0.00000E+00
 -1      3151 7.95257E+01 3.56785E+01 0.00000E+00
 -1      3152 8.25878E+01 3.76432E+01 0.00000E+00
 -1      3153 8.40878E+01 3.76432E+01 0.00000E+00
 -1      3154 8.25257E+01 3.56785E+01 0.00000E+00
 -1      3155 8.55878E+01 3.76432E+01 0.00000E+00
 -1      3156 8.70878E+01 3.76432E+01 0.00000E+00
 -1      3157 8.55257E+01 3.56785E+01 0.00000E+00
 -1      3158 8.85878E+01 3.76432E+01 0.00000E+00
 -1      3159 9.00878E+01 3.76432E+01 0.00000E+00
 -1      3160 8.85257E+01 3.56785E+01 0.00000E+00
 -1      3161 9.15878E+01 3.76432E+01 0.00000E+00
 -1      3162 9.30878E+01 3.76432E+01 0.00000E+00
 -1      3163 9.15257E+01 3.56785E+01 0.00000E+00
 -1      3164 9.45878E+01 3.76432E+01 0.00000E+00
 -1      3165 9.60878E+01 3.76432E+01 0.00000E+00
 -1      3166 9.45257E+01 3.56785E+01 0.00000E+00
 -1      3167 9.75878E+01 3.76432E+01 0.00000E+00
 -1      3168 9.90878E+01 3.76432E+01 0.00000E+00
 -1      3169 9.75257E+01 3.56785E+01 0.00000E+00
 -1      3170 1.00588E+02 3.76432E+01 0.00000E+00
 -1      3171 1.02088E+02 3.76432E+01 0.00000E+00
 -1      3172 1.00526E+02 3.56785E+01 0.00000E+00
 -1      3173 1.03588E+02 3.76432E+01 0.00000E+00
 -1      3174 1.05088E+02 3.76432E+01 0.00000E+00
 -1      3175 1.03526E+02 3.56785E+01 0.00000E+00
 -1      3176 1.06588E+02 3.76432E+01 0.00000E+00
 -1      3177 1.08088E+02 3.76432E+01 0.00000E+00
 -1      3178 1.06526E+02 3.56785E+01 0.00000E+00
 -1      3179 1.09588E+02 3.76432E+01 0.00000E+00
 -1      3180 1.11088E+02 3.76432E+01 0.00000E+00
 -1      3181 1.09526E+02 3.56785E+01 0.00000E+00
 -1      3182 1.12588E+02 3.76432E+01 0.00000E+00
 -1      3183 1.14088E+02 3.76432E+01 0.00000E+00
 -1      3184 1.12526E+02 3.56785E+01 0.00000E+00
 -1      3185 1.15588E+02 3.76432E+01 0.00000E+00
 -1      3186 1.17088E+02 3.76432E+01 0.00000E+00
 -1      3187 1.15526E+02 3.56785E+01 0.00000E+00
 -1      3188 1.18588E+02 3.76432E+01 0.00000E+00
 -1      3189 1.20088E+02 3.76432E+01 0.00000E+00
 -1      3190 1.18526E+02 3.56785E+01 0.00000E+00
 -1      3191 1.21588E+02 3.76432E+01 0.00000E+00
 -1      3192 1.23088E+02 3.76432E+01 0.00000E+00
 -1      3193 1.21526E+02 3.56785E+01 0.00000E+00
 -1      3194 1.24588E+02 3.76432E+01 0.00000E+00
 -1      3195 1.26088E+02 3.76432E+01 0.00000E+00
 -1      3196 1.24526E+02 3.56785E+01 0.00000E+00
 -1      3197 1.27588E+02 3.76432E+01 0.00000E+00
 -1      3198 1.29088E+02 3.76432E+01 0.00000E+00
 -1      3199 1.27526E+02 3.56785E+01 0.00000E+00
 -1      3200 1.30588E+02 3.76432E+01 0.00000E+00
 -1      3201 1.32088E+02 3.76432E+01 0.00000E+00
 -1      3202 1.30526E+02 3.56785E+01 0.00000E+00
 -1      3203 1.33588E+02 3.76432E+01 0.00000E+00
 -1      3204 1.35088E+02 3.76432E+01 0.00000E+00
 -1      3205 1.33526E+02 3.56785E+01 0.00000E+00
 -1      3206 1.36588E+02 3.76432E+01 0.00000E+00
 -1      3207 4.05274E+01 1.03957E+01 0.00000E+00
 -1      3208 3.90274E+01 1.03957E+01 0.00000E+00
 -1      3209 4.45013E+01 1.04388E+01 0.00000E+00
 -1      3210 4.30013E+01 1.04388E+01 0.00000E+00
 -1      3211 4.75013E+01 1.04388E+01 0.00000E+00
 -1      3212 4.60013E+01 1.04388E+01 0.00000E+00
 -1      3213 4.59675E+01 1.16753E+01 0.00000E+00
 -1      3214 5.05013E+01 1.04388E+01 0.00000E+00
 -1      3215 4.90013E+01 1.04388E+01 0.00000E+00
 -1      3216 4.89675E+01 1.16753E+01 0.00000E+00
 -1      3217 5.35013E+01 1.04388E+01 0.00000E+00
 -1      3218 5.20013E+01 1.04388E+01 0.00000E+00
 -1      3219 5.19675E+01 1.16753E+01 0.00000E+00
 -1      3220 5.65013E+01 1.04388E+01 0.00000E+00
 -1      3221 5.50013E+01 1.04388E+01 0.00000E+00
 -1      3222 5.49675E+01 1.16753E+01 0.00000E+00
 -1      3223 5.95013E+01 1.04388E+01 0.00000E+00
 -1      3224 5.80013E+01 1.04388E+01 0.00000E+00
 -1      3225 5.79675E+01 1.16753E+01 0.00000E+00
 -1      3226 6.25013E+01 1.04388E+01 0.00000E+00
 -1      3227 6.10013E+01 1.04388E+01 0.00000E+00
 -1      3228 6.09675E+01 1.16753E+01 0.00000E+00
 -1      3229 6.55013E+01 1.04388E+01 0.00000E+00
 -1      3230 6.40013E+01 1.04388E+01 0.00000E+00
 -1      3231 6.39675E+01 1.16753E+01 0.00000E+00
 -1      3232 6.85013E+01 1.04388E+01 0.00000E+00
 -1      3233 6.70013E+01 1.04388E+01 0.00000E+00
 -1      3234 6.69675E+01 1.16753E+01 0.00000E+00
 -1      3235 7.15013E+01 1.04388E+01 0.00000E+00
 -1      3236 7.00013E+01 1.04388E+01 0.00000E+00
 -1      3237 6.99675E+01 1.16753E+01 0.00000E+00
 -1      3238 7.45013E+01 1.04388E+01 0.00000E+00
 -1      3239 7.30013E+01 1.04388E+01 0.00000E+00
 -1      3240 7.29675E+01 1.16753E+01 0.00000E+00
 -1      3241 7.75013E+01 1.04388E+01 0.00000E+00
 -1      3242 7.60013E+01 1.04388E+01 0.00000E+00
 -1      3243 7.59675E+01 1.16753E+01 0.00000E+00
 -1      3244 8.05013E+01 1.04388E+01 0.00000E+00
 -1      3245 7.90013E+01 1.04388E+01 0.00000E+00
 -1      3246 7.89675E+01 1.16753E+01 0.00000E+00
 -1      3247 8.35013E+01 1.04388E+01 0.00000E+00
 -1      3248 8.20013E+01 1.04388E+01 0.00000E+00
 -1      3249 8.19675E+01 1.16753E+01 0.00000E+00
 -1      3250 8.65013E+01 1.04388E+01 0.00000E+00
 -1      3251 8.50013E+01 1.04388E+01 0.00000E+00
 -1      3252 8.49675E+01 1.16753E+01 0.00000E+00
 -1      3253 8.95013E+01 1.04388E+01 0.00000E+00
 -1      3254 8.80013E+01 1.04388E+01 0.00000E+00
 -1      3255 8.79675E+01 1.16753E+01 0.00000E+00
 -1      3256 9.25013E+01 1.04388E+01 0.00000E+00
 -1      3257 9.10013E+01 1.04388E+01 0.00000E+00
 -1      3258 9.09675E+01 1.16753E+01 0.00000E+00
 -1      3259 9.55013E+01 1.04388E+01 0.00000E+00
 -1      3260 9.40013E+01 1.04388E+01 0.00000E+00
 -1      3261 9.39675E+01 1.16753E+01 0.00000E+00
 -1      3262 9.85013E+01 1.04388E+01 0.00000E+00
 -1      3263 9.70013E+01 1.04388E+01 0.00000E+00
 -1      3264 9.69675E+01 1.16753E+01 0.00000E+00
 -1      3265 1.01501E+02 1.04388E+01 0.00000E+00
 -1      3266 1.00001E+02 1.04388E+01 0.00000E+00
 -1      3267 9.99675E+01 1.16753E+01 0.00000E+00
 -1      3268 1.04501E+02 1.04388E+01 0.00000E+00
 -1      3269 1.03001E+02 1.04388E+01 0.00000E+00
 -1      3270 1.02968E+02 1.16753E+01 0.00000E+00
 -1      3271 1.07501E+02 1.04388E+01 0.00000E+00
 -1      3272 1.06001E+02 1.04388E+01 0.00000E+00
 -1      3273 1.05968E+02 1.16753E+01 0.00000E+00
 -1      3274 1.10501E+02 1.04388E+01 0.00000E+00
 -1      3275 1.09001E+02 1.04388E+01 0.00000E+00
 -1      3276 1.08968E+02 1.16753E+01 0.00000E+00
 -1      3277 1.13501E+02 1.04388E+01 0.00000E+00
 -1      3278 1.12001E+02 1.04388E+01 0.00000E+00
 -1      3279 1.11968E+02 1.16753E+01 0.00000E+00
 -1      3280 1.16501E+02 1.04388E+01 0.00000E+00
 -1      3281 1.15001E+02 1.04388E+01 0.00000E+00
 -1      3282 1.14968E+02 1.16753E+01 0.00000E+00
 -1      3283 1.19501E+02 1.04388E+01 0.00000E+00
 -1      3284 1.18001E+02 1.04388E+01 0.00000E+00
 -1      3285 1.17968E+02 1.16753E+01 0.00000E+00
 -1      3286 1.22501E+02 1.04388E+01 0.00000E+00
 -1      3287 1.21001E+02 1.04388E+01 0.00000E+00
 -1      3288 1.20968E+02 1.16753E+01 0.00000E+00
 -1      3289 1.25501E+02 1.04388E+01 0.00000E+00
 -1      3290 1.24001E+02 1.04388E+01 0.00000E+00
 -1      3291 1.23968E+02 1.16753E+01 0.00000E+00
 -1      3292 1.28501E+02 1.04388E+01 0.00000E+00
 -1      3293 1.27001E+02 1.04388E+01 0.00000E+00
 -1      3294 1.26968E+02 1.16753E+01 0.00000E+00
 -1      3295 1.31501E+02 1.04388E+01 0.00000E+00
 -1      3296 1.30001E+02 1.04388E+01 0.00000E+00
 -1      3297 1.29968E+02 1.16753E+01 0.00000E+00
 -1      3298 1.34501E+02 1.04388E+01 0.00000E+00
 -1      3299 1.33001E+02 1.04388E+01 0.00000E+00
 -1      3300 1.32968E+02 1.16753E+01 0.00000E+00
 -1      3301 1.36001E+02 1.04388E+01 0.00000E+00
 -1      3302 1.38703E+02 1.09454E+01 0.00000E+00
 -1      3303 1.37535E+02 1.06648E+01 0.00000E+00
 -1      3304 1.38703E+02 1.24079E+01 0.00000E+00
 -1      3305 3.65557E+01 1.02754E+01 0.00000E+00
 -1      3306 1.38309E+02 2.86750E+01 0.00000E+00
 -1      3307 1.38309E+02 2.72250E+01 0.00000E+00
 -1      3308 1.38309E+02 2.57500E+01 0.00000E+00
 -1      3309 1.38309E+02 2.42750E+01 0.00000E+00
 -1      3310 1.37010E+02 2.64750E+01 0.00000E+00
 -1      3311 3.80557E+01 1.02754E+01 0.00000E+00
 -1      3312 2.44678E+01 1.59086E+01 0.00000E+00
 -1      3313 2.51174E+01 1.50134E+01 0.00000E+00
 -1      3314 3.43538E+01 3.68662E+01 0.00000E+00
 -1      3315 4.97474E+01 2.20970E+01 0.00000E+00
 -1      3316 4.97381E+01 2.33363E+01 0.00000E+00
 -1      3317 4.78120E+01 3.04756E+01 0.00000E+00
 -1      3318 4.72902E+01 3.14673E+01 0.00000E+00
 -1      3319 1.38309E+02 3.16250E+01 0.00000E+00
 -1      3320 1.38309E+02 3.01500E+01 0.00000E+00
 -1      3321 1.37010E+02 2.94250E+01 0.00000E+00
 -1      3322 3.00137E+01 3.63213E+01 0.00000E+00
 -1      3323 2.27850E+01 1.05013E+01 0.00000E+00
 -1      3324 2.12850E+01 1.05013E+01 0.00000E+00
 -1      3325 2.84841E+01 3.59292E+01 0.00000E+00
 -1      3326 2.75815E+01 3.50716E+01 0.00000E+00
 -1      3327 2.23386E+01 2.10003E+01 0.00000E+00
 -1      3328 2.27554E+01 1.97882E+01 0.00000E+00
 -1      3329 1.59000E+01 3.83090E+01 0.00000E+00
 -1      3330 1.74000E+01 3.83090E+01 0.00000E+00
 -1      3331 1.81500E+01 3.70100E+01 0.00000E+00
 -1      3332 2.95756E+01 3.72320E+01 0.00000E+00
 -1      3333 1.26488E+01 1.02017E+01 0.00000E+00
 -1      3334 1.20772E+01 1.14631E+01 0.00000E+00
 -1      3335 1.33763E+01 1.22006E+01 0.00000E+00
 -1      3336 1.41488E+01 1.02017E+01 0.00000E+00
 -1      3337 4.64320E+01 3.25247E+01 0.00000E+00
 -1      3338 4.56375E+01 3.34361E+01 0.00000E+00
 -1      3339 4.58838E+01 3.46210E+01 0.00000E+00
 -1      3340 4.76001E+01 3.25062E+01 0.00000E+00
 -1      3341 1.16910E+01 2.12875E+01 0.00000E+00
 -1      3342 1.16910E+01 2.27625E+01 0.00000E+00
 -1      3343 2.66392E+01 3.40547E+01 0.00000E+00
 -1      3344 2.58020E+01 3.30341E+01 0.00000E+00
 -1      3345 1.12710E+01 3.74352E+01 0.00000E+00
 -1      3346 1.20855E+01 3.78721E+01 0.00000E+00
 -1      3347 1.12065E+01 3.56994E+01 0.00000E+00
 -1      3348 2.47913E+01 3.21226E+01 0.00000E+00
 -1      3349 2.37807E+01 3.12112E+01 0.00000E+00
 -1      3350 2.45469E+01 3.31768E+01 0.00000E+00
 -1      3351 2.59485E+01 1.39899E+01 0.00000E+00
 -1      3352 2.67796E+01 1.29663E+01 0.00000E+00
 -1      3353 2.47262E+01 1.37862E+01 0.00000E+00
 -1      3354 2.28882E+01 2.96220E+01 0.00000E+00
 -1      3355 2.26327E+01 2.81916E+01 0.00000E+00
 -1      3356 4.91869E+01 2.79125E+01 0.00000E+00
 -1      3357 4.84995E+01 2.91940E+01 0.00000E+00
 -1      3358 4.91457E+01 3.01672E+01 0.00000E+00
 -1      3359 4.18178E+01 1.09301E+01 0.00000E+00
 -1      3360 4.98343E+01 2.47894E+01 0.00000E+00
 -1      3361 4.97085E+01 2.62846E+01 0.00000E+00
 -1      3362 2.32813E+01 1.83894E+01 0.00000E+00
 -1      3363 2.38746E+01 1.71490E+01 0.00000E+00
 -1      3364 2.33018E+01 1.60501E+01 0.00000E+00
 -1      3365 2.18369E+01 2.37513E+01 0.00000E+00
 -1      3366 2.19449E+01 2.24681E+01 0.00000E+00
 -1      3367 2.90881E+01 3.66470E+01 0.00000E+00
 -1      3368 1.16910E+01 2.42375E+01 0.00000E+00
 -1      3369 1.16910E+01 2.57125E+01 0.00000E+00
 -1      3370 1.29900E+01 2.35000E+01 0.00000E+00
 -1      3371 1.29900E+01 1.46687E+01 0.00000E+00
 -1      3372 1.16910E+01 1.54063E+01 0.00000E+00
 -1      3373 1.16910E+01 1.68750E+01 0.00000E+00
 -1      3374 2.12631E+01 2.15560E+01 0.00000E+00
 -1      3375 1.51500E+01 3.70100E+01 0.00000E+00
 -1      3376 1.12065E+01 3.27619E+01 0.00000E+00
 -1      3377 1.12065E+01 3.42306E+01 0.00000E+00
 -1      3378 1.20210E+01 3.46675E+01 0.00000E+00
 -1      3379 4.52203E+01 1.31653E+01 0.00000E+00
 -1      3380 2.71500E+01 3.72839E+01 0.00000E+00
 -1      3381 3.29634E+01 3.81192E+01 0.00000E+00
 -1      3382 2.18668E+01 2.76878E+01 0.00000E+00
 -1      3383 4.24138E+01 3.73496E+01 0.00000E+00
 -1      3384 5.03548E+01 2.72578E+01 0.00000E+00
 -1      3385 4.82170E+01 1.86706E+01 0.00000E+00
 -1      3386 4.93245E+01 1.89867E+01 0.00000E+00
 -1      3387 4.83719E+01 1.78076E+01 0.00000E+00
 -1      3388 1.36001E+02 1.19013E+01 0.00000E+00
 -1      3389 1.38309E+02 1.98625E+01 0.00000E+00
 -1      3390 1.38309E+02 1.83875E+01 0.00000E+00
 -1      3391 1.12065E+01 2.98244E+01 0.00000E+00
 -1      3392 1.12065E+01 3.12931E+01 0.00000E+00
 -1      3393 1.20210E+01 3.17300E+01 0.00000E+00
 -1      3394 1.38309E+02 2.28062E+01 0.00000E+00
 -1      3395 1.38309E+02 2.13312E+01 0.00000E+00
 -1      3396 1.37010E+02 2.05938E+01 0.00000E+00
 -1      3397 1.37010E+02 2.35313E+01 0.00000E+00
 -1      3398 5.01063E+01 2.04764E+01 0.00000E+00
 -1      3399 4.99269E+01 2.12867E+01 0.00000E+00
 -1      3400 5.08635E+01 2.19134E+01 0.00000E+00
 -1      3401 1.71488E+01 1.02017E+01 0.00000E+00
 -1      3402 1.56488E+01 1.02017E+01 0.00000E+00
 -1      3403 1.52625E+01 1.12011E+01 0.00000E+00
 -1      3404 1.99669E+01 1.03515E+01 0.00000E+00
 -1      3405 1.84669E+01 1.03515E+01 0.00000E+00
 -1      3406 1.80806E+01 1.13509E+01 0.00000E+00
 -1      3407 2.07169E+01 1.16505E+01 0.00000E+00
 -1      3408 4.66187E+01 1.60734E+01 0.00000E+00
 -1      3409 4.75301E+01 1.63556E+01 0.00000E+00
 -1      3410 4.68844E+01 1.49375E+01 0.00000E+00
 -1      3411 1.37076E+02 1.78847E+01 0.00000E+00
 -1      3412 1.38375E+02 1.71472E+01 0.00000E+00
 -1      3413 1.38440E+02 1.59068E+01 0.00000E+00
 -1      3414 2.23994E+01 3.17304E+01 0.00000E+00
 -1      3415 2.26438E+01 3.06762E+01 0.00000E+00
 -1      3416 2.15069E+01 3.01413E+01 0.00000E+00
 -1      3417 1.38309E+02 3.45625E+01 0.00000E+00
 -1      3418 1.38309E+02 3.30875E+01 0.00000E+00
 -1      3419 2.64999E+01 3.51052E+01 0.00000E+00
 -1      3420 2.21827E+01 1.86894E+01 0.00000E+00
 -1      3421 2.60462E+01 1.09824E+01 0.00000E+00
 -1      3422 2.45462E+01 1.09824E+01 0.00000E+00
 -1      3423 1.16910E+01 1.98188E+01 0.00000E+00
 -1      3424 1.29900E+01 2.05562E+01 0.00000E+00
 -1      3425 1.16910E+01 1.83500E+01 0.00000E+00
 -1      3426 1.28355E+01 3.65731E+01 0.00000E+00
 -1      3427 2.72685E+01 1.11861E+01 0.00000E+00
 -1      3428 2.81206E+01 1.01800E+01 0.00000E+00
 -1      3429 1.37010E+02 3.23625E+01 0.00000E+00
 -1      3430 5.07802E+01 2.41769E+01 0.00000E+00
 -1      3431 2.37962E+01 1.22814E+01 0.00000E+00
 -1      3432 2.10149E+01 2.55610E+01 0.00000E+00
 -1      3433 2.14259E+01 2.46562E+01 0.00000E+00
 -1      3434 2.04584E+01 2.39286E+01 0.00000E+00
 -1      3435 1.48763E+01 1.22006E+01 0.00000E+00
 -1      3436 1.44900E+01 1.32000E+01 0.00000E+00
 -1      3437 1.63762E+01 1.22006E+01 0.00000E+00
 -1      3438 5.19223E+01 2.33715E+01 0.00000E+00
 -1      3439 5.20184E+01 2.48247E+01 0.00000E+00
 -1      3440 1.36952E+02 3.65662E+01 0.00000E+00
 -1      3441 5.17757E+01 3.43795E+01 0.00000E+00
 -1      3442 5.32757E+01 3.43795E+01 0.00000E+00
 -1      3443 5.47757E+01 3.43795E+01 0.00000E+00
 -1      3444 5.62757E+01 3.43795E+01 0.00000E+00
 -1      3445 5.40257E+01 3.30805E+01 0.00000E+00
 -1      3446 5.77757E+01 3.43795E+01 0.00000E+00
 -1      3447 5.92757E+01 3.43795E+01 0.00000E+00
 -1      3448 5.70257E+01 3.30805E+01 0.00000E+00
 -1      3449 6.07757E+01 3.43795E+01 0.00000E+00
 -1      3450 6.22757E+01 3.43795E+01 0.00000E+00
 -1      3451 6.00257E+01 3.30805E+01 0.00000E+00
 -1      3452 6.37757E+01 3.43795E+01 0.00000E+00
 -1      3453 6.52757E+01 3.43795E+01 0.00000E+00
 -1      3454 6.30257E+01 3.30805E+01 0.00000E+00
 -1      3455 6.67757E+01 3.43795E+01 0.00000E+00
 -1      3456 6.82757E+01 3.43795E+01 0.00000E+00
 -1      3457 6.60257E+01 3.30805E+01 0.00000E+00
 -1      3458 6.97757E+01 3.43795E+01 0.00000E+00
 -1      3459 7.12757E+01 3.43795E+01 0.00000E+00
 -1      3460 6.90257E+01 3.30805E+01 0.00000E+00
 -1      3461 7.27757E+01 3.43795E+01 0.00000E+00
 -1      3462 7.42757E+01 3.43795E+01 0.00000E+00
 -1      3463 7.20257E+01 3.30805E+01 0.00000E+00
 -1      3464 7.57757E+01 3.43795E+01 0.00000E+00
 -1      3465 7.72757E+01 3.43795E+01 0.00000E+00
 -1      3466 7.50257E+01 3.30805E+01 0.00000E+00
 -1      3467 7.87757E+01 3.43795E+01 0.00000E+00
 -1      3468 8.02757E+01 3.43795E+01 0.00000E+00
 -1      3469 7.80257E+01 3.30805E+01 0.00000E+00
 -1      3470 8.17757E+01 3.43795E+01 0.00000E+00
 -1      3471 8.32757E+01 3.43795E+01 0.00000E+00
 -1      3472 8.10257E+01 3.30805E+01 0.00000E+00
 -1      3473 8.47757E+01 3.43795E+01 0.00000E+00
 -1      3474 8.62757E+01 3.43795E+01 0.00000E+00
 -1      3475 8.40257E+01 3.30805E+01 0.00000E+00
 -1      3476 8.77757E+01 3.43795E+01 0.00000E+00
 -1      3477 8.92757E+01 3.43795E+01 0.00000E+00
 -1      3478 8.70257E+01 3.30805E+01 0.00000E+00
 -1      3479 9.07757E+01 3.43795E+01 0.00000E+00
 -1      3480 9.22757E+01 3.43795E+01 0.00000E+00
 -1      3481 9.00257E+01 3.30805E+01 0.00000E+00
 -1      3482 9.37757E+01 3.43795E+01 0.00000E+00
 -1      3483 9.52757E+01 3.43795E+01 0.00000E+00
 -1      3484 9.30257E+01 3.30805E+01 0.00000E+00
 -1      3485 9.67757E+01 3.43795E+01 0.00000E+00
 -1      3486 9.82757E+01 3.43795E+01 0.00000E+00
 -1      3487 9.60257E+01 3.30805E+01 0.00000E+00
 -1      3488 9.97757E+01 3.43795E+01 0.00000E+00
 -1      3489 1.01276E+02 3.43795E+01 0.00000E+00
 -1      3490 9.90257E+01 3.30805E+01 0.00000E+00
 -1      3491 1.02776E+02 3.43795E+01 0.00000E+00
 -1      3492 1.04276E+02 3.43795E+01 0.00000E+00
 -1      3493 1.02026E+02 3.30805E+01 0.00000E+00
 -1      3494 1.05776E+02 3.43795E+01 0.00000E+00
 -1      3495 1.07276E+02 3.43795E+01 0.00000E+00
 -1      3496 1.05026E+02 3.30805E+01 0.00000E+00
 -1      3497 1.08776E+02 3.43795E+01 0.00000E+00
 -1      3498 1.10276E+02 3.43795E+01 0.00000E+00
 -1      3499 1.08026E+02 3.30805E+01 0.00000E+00
 -1      3500 1.11776E+02 3.43795E+01 0.00000E+00
 -1      3501 1.13276E+02 3.43795E+01 0.00000E+00
 -1      3502 1.11026E+02 3.30805E+01 0.00000E+00
 -1      3503 1.14776E+02 3.43795E+01 0.00000E+00
 -1      3504 1.16276E+02 3.43795E+01 0.00000E+00
 -1      3505 1.14026E+02 3.30805E+01 0.00000E+00
 -1      3506 1.17776E+02 3.43795E+01 0.00000E+00
 -1      3507 1.19276E+02 3.43795E+01 0.00000E+00
 -1      3508 1.17026E+02 3.30805E+01 0.00000E+00
 -1      3509 1.20776E+02 3.43795E+01 0.00000E+00
 -1      3510 1.22276E+02 3.43795E+01 0.00000E+00
 -1      3511 1.20026E+02 3.30805E+01 0.00000E+00
 -1      3512 1.23776E+02 3.43795E+01 0.00000E+00
 -1      3513 1.25276E+02 3.43795E+01 0.00000E+00
 -1      3514 1.23026E+02 3.30805E+01 0.00000E+00
 -1      3515 1.26776E+02 3.43795E+01 0.00000E+00
 -1      3516 1.28276E+02 3.43795E+01 0.00000E+00
 -1      3517 1.26026E+02 3.30805E+01 0.00000E+00
 -1      3518 1.29776E+02 3.43795E+01 0.00000E+00
 -1      3519 1.31276E+02 3.43795E+01 0.00000E+00
 -1      3520 1.29026E+02 3.30805E+01 0.00000E+00
 -1      3521 1.32776E+02 3.43795E+01 0.00000E+00
 -1      3522 1.34276E+02 3.43795E+01 0.00000E+00
 -1      3523 1.32026E+02 3.30805E+01 0.00000E+00
 -1      3524 4.91317E+01 1.34475E+01 0.00000E+00
 -1      3525 4.76317E+01 1.34475E+01 0.00000E+00
 -1      3526 2.96206E+01 1.01800E+01 0.00000E+00
 -1      3527 5.57175E+01 1.29743E+01 0.00000E+00
 -1      3528 5.42175E+01 1.29743E+01 0.00000E+00
 -1      3529 5.87175E+01 1.29743E+01 0.00000E+00
 -1      3530 5.72175E+01 1.29743E+01 0.00000E+00
 -1      3531 5.64675E+01 1.42733E+01 0.00000E+00
 -1      3532 6.17175E+01 1.29743E+01 0.00000E+00
 -1      3533 6.02175E+01 1.29743E+01 0.00000E+00
 -1      3534 5.94675E+01 1.42733E+01 0.00000E+00
 -1      3535 6.47175E+01 1.29743E+01 0.00000E+00
 -1      3536 6.32175E+01 1.29743E+01 0.00000E+00
 -1      3537 6.24675E+01 1.42733E+01 0.00000E+00
 -1      3538 6.77175E+01 1.29743E+01 0.00000E+00
 -1      3539 6.62175E+01 1.29743E+01 0.00000E+00
 -1      3540 6.54675E+01 1.42733E+01 0.00000E+00
 -1      3541 7.07175E+01 1.29743E+01 0.00000E+00
 -1      3542 6.92175E+01 1.29743E+01 0.00000E+00
 -1      3543 6.84675E+01 1.42733E+01 0.00000E+00
 -1      3544 7.37175E+01 1.29743E+01 0.00000E+00
 -1      3545 7.22175E+01 1.29743E+01 0.00000E+00
 -1      3546 7.14675E+01 1.42733E+01 0.00000E+00
 -1      3547 7.67175E+01 1.29743E+01 0.00000E+00
 -1      3548 7.52175E+01 1.29743E+01 0.00000E+00
 -1      3549 7.44675E+01 1.42733E+01 0.00000E+00
 -1      3550 7.97175E+01 1.29743E+01 0.00000E+00
 -1      3551 7.82175E+01 1.29743E+01 0.00000E+00
 -1      3552 7.74675E+01 1.42733E+01 0.00000E+00
 -1      3553 8.27175E+01 1.29743E+01 0.00000E+00
 -1      3554 8.12175E+01 1.29743E+01 0.00000E+00
 -1      3555 8.04675E+01 1.42733E+01 0.00000E+00
 -1      3556 8.57175E+01 1.29743E+01 0.00000E+00
 -1      3557 8.42175E+01 1.29743E+01 0.00000E+00
 -1      3558 8.34675E+01 1.42733E+01 0.00000E+00
 -1      3559 8.87175E+01 1.29743E+01 0.00000E+00
 -1      3560 8.72175E+01 1.29743E+01 0.00000E+00
 -1      3561 8.64675E+01 1.42733E+01 0.00000E+00
 -1      3562 9.17175E+01 1.29743E+01 0.00000E+00
 -1      3563 9.02175E+01 1.29743E+01 0.00000E+00
 -1      3564 8.94675E+01 1.42733E+01 0.00000E+00
 -1      3565 9.47175E+01 1.29743E+01 0.00000E+00
 -1      3566 9.32175E+01 1.29743E+01 0.00000E+00
 -1      3567 9.24675E+01 1.42733E+01 0.00000E+00
 -1      3568 9.77175E+01 1.29743E+01 0.00000E+00
 -1      3569 9.62175E+01 1.29743E+01 0.00000E+00
 -1      3570 9.54675E+01 1.42733E+01 0.00000E+00
 -1      3571 1.00718E+02 1.29743E+01 0.00000E+00
 -1      3572 9.92175E+01 1.29743E+01 0.00000E+00
 -1      3573 9.84675E+01 1.42733E+01 0.00000E+00
 -1      3574 1.03718E+02 1.29743E+01 0.00000E+00
 -1      3575 1.02218E+02 1.29743E+01 0.00000E+00
 -1      3576 1.01468E+02 1.42733E+01 0.00000E+00
 -1      3577 1.06718E+02 1.29743E+01 0.00000E+00
 -1      3578 1.05218E+02 1.29743E+01 0.00000E+00
 -1      3579 1.04468E+02 1.42733E+01 0.00000E+00
 -1      3580 1.09718E+02 1.29743E+01 0.00000E+00
 -1      3581 1.08218E+02 1.29743E+01 0.00000E+00
 -1      3582 1.07468E+02 1.42733E+01 0.00000E+00
 -1      3583 1.12718E+02 1.29743E+01 0.00000E+00
 -1      3584 1.11218E+02 1.29743E+01 0.00000E+00
 -1      3585 1.10468E+02 1.42733E+01 0.00000E+00
 -1      3586 1.15718E+02 1.29743E+01 0.00000E+00
 -1      3587 1.14218E+02 1.29743E+01 0.00000E+00
 -1      3588 1.13468E+02 1.42733E+01 0.00000E+00
 -1      3589 1.18718E+02 1.29743E+01 0.00000E+00
 -1      3590 1.17218E+02 1.29743E+01 0.00000E+00
 -1      3591 1.16468E+02 1.42733E+01 0.00000E+00
 -1      3592 1.21718E+02 1.29743E+01 0.00000E+00
 -1      3593 1.20218E+02 1.29743E+01 0.00000E+00
 -1      3594 1.19468E+02 1.42733E+01 0.00000E+00
 -1      3595 1.24718E+02 1.29743E+01 0.00000E+00
 -1      3596 1.23218E+02 1.29743E+01 0.00000E+00
 -1      3597 1.22468E+02 1.42733E+01 0.00000E+00
 -1      3598 1.27718E+02 1.29743E+01 0.00000E+00
 -1      3599 1.26218E+02 1.29743E+01 0.00000E+00
 -1      3600 1.25468E+02 1.42733E+01 0.00000E+00
 -1      3601 1.30718E+02 1.29743E+01 0.00000E+00
 -1      3602 1.29218E+02 1.29743E+01 0.00000E+00
 -1      3603 1.28468E+02 1.42733E+01 0.00000E+00
 -1      3604 1.33718E+02 1.29743E+01 0.00000E+00
 -1      3605 1.32218E+02 1.29743E+01 0.00000E+00
 -1      3606 1.31468E+02 1.42733E+01 0.00000E+00
 -1      3607 1.38637E+02 1.36483E+01 0.00000E+00
 -1      3608 1.35711E+02 2.72125E+01 0.00000E+00
 -1      3609 1.35711E+02 2.57375E+01 0.00000E+00
 -1      3610 1.14487E+01 2.70341E+01 0.00000E+00
 -1      3611 1.14487E+01 2.85028E+01 0.00000E+00
 -1      3612 1.22633E+01 2.89397E+01 0.00000E+00
 -1      3613 1.27478E+01 2.62966E+01 0.00000E+00
 -1      3614 1.37945E+02 3.56395E+01 0.00000E+00
 -1      3615 4.73838E+01 3.46210E+01 0.00000E+00
 -1      3616 1.35711E+02 3.01625E+01 0.00000E+00
 -1      3617 1.35711E+02 2.86875E+01 0.00000E+00
 -1      3618 1.34412E+02 2.79500E+01 0.00000E+00
 -1      3619 1.44000E+01 3.57110E+01 0.00000E+00
 -1      3620 1.59000E+01 3.57110E+01 0.00000E+00
 -1      3621 2.07874E+01 2.83031E+01 0.00000E+00
 -1      3622 2.09030E+01 2.69038E+01 0.00000E+00
 -1      3623 2.80461E+01 3.68399E+01 0.00000E+00
 -1      3624 1.74000E+01 3.57110E+01 0.00000E+00
 -1      3625 1.89000E+01 3.57110E+01 0.00000E+00
 -1      3626 1.66500E+01 3.44120E+01 0.00000E+00
 -1      3627 5.16716E+01 2.67823E+01 0.00000E+00
 -1      3628 5.11500E+01 2.84101E+01 0.00000E+00
 -1      3629 2.00761E+01 2.20243E+01 0.00000E+00
 -1      3630 2.04699E+01 2.05565E+01 0.00000E+00
 -1      3631 2.08818E+01 1.89985E+01 0.00000E+00
 -1      3632 2.14077E+01 1.75997E+01 0.00000E+00
 -1      3633 2.44218E+01 3.43316E+01 0.00000E+00
 -1      3634 2.34112E+01 3.34202E+01 0.00000E+00
 -1      3635 1.28033E+01 3.49708E+01 0.00000E+00
 -1      3636 1.36178E+01 3.54077E+01 0.00000E+00
 -1      3637 1.43678E+01 3.41087E+01 0.00000E+00
 -1      3638 1.28033E+01 3.35021E+01 0.00000E+00
 -1      3639 2.29650E+01 1.33050E+01 0.00000E+00
 -1      3640 5.04667E+01 3.00506E+01 0.00000E+00
 -1      3641 4.97792E+01 3.13322E+01 0.00000E+00
 -1      3642 2.20009E+01 1.63593E+01 0.00000E+00
 -1      3643 2.25942E+01 1.51189E+01 0.00000E+00
 -1      3644 2.07000E+01 1.66685E+01 0.00000E+00
 -1      3645 5.27175E+01 1.29743E+01 0.00000E+00
 -1      3646 5.12175E+01 1.29743E+01 0.00000E+00
 -1      3647 5.34675E+01 1.42733E+01 0.00000E+00
 -1      3648 1.36018E+02 3.47517E+01 0.00000E+00
 -1      3649 1.35268E+02 3.34527E+01 0.00000E+00
 -1      3650 1.37338E+02 1.43858E+01 0.00000E+00
 -1      3651 2.16641E+01 1.36142E+01 0.00000E+00
 -1      3652 1.44900E+01 1.46687E+01 0.00000E+00
 -1      3653 1.35711E+02 2.13281E+01 0.00000E+00
 -1      3654 1.35711E+02 1.98594E+01 0.00000E+00
 -1      3655 5.21017E+01 2.25613E+01 0.00000E+00
 -1      3656 5.33399E+01 2.32091E+01 0.00000E+00
 -1      3657 5.22811E+01 2.17510E+01 0.00000E+00
 -1      3658 2.29680E+01 3.57925E+01 0.00000E+00
 -1      3659 2.44680E+01 3.57925E+01 0.00000E+00
 -1      3660 2.03460E+01 1.34644E+01 0.00000E+00
 -1      3661 1.35268E+02 3.19902E+01 0.00000E+00
 -1      3662 4.87757E+01 3.43795E+01 0.00000E+00
 -1      3663 5.02757E+01 3.43795E+01 0.00000E+00
 -1      3664 4.98817E+01 1.47465E+01 0.00000E+00
 -1      3665 2.05430E+01 2.93573E+01 0.00000E+00
 -1      3666 1.95792E+01 2.85733E+01 0.00000E+00
 -1      3667 2.02986E+01 3.04115E+01 0.00000E+00
 -1      3668 4.86376E+01 1.66717E+01 0.00000E+00
 -1      3669 1.28033E+01 3.20333E+01 0.00000E+00
 -1      3670 1.35855E+01 3.23366E+01 0.00000E+00
 -1      3671 1.28033E+01 3.05646E+01 0.00000E+00
 -1      3672 2.65461E+01 3.65661E+01 0.00000E+00
 -1      3673 1.42890E+01 2.27625E+01 0.00000E+00
 -1      3674 1.42890E+01 2.42375E+01 0.00000E+00
 -1      3675 4.67203E+01 1.31653E+01 0.00000E+00
 -1      3676 5.02612E+01 1.96135E+01 0.00000E+00
 -1      3677 5.11978E+01 2.02402E+01 0.00000E+00
 -1      3678 5.04160E+01 1.87505E+01 0.00000E+00
 -1      3679 2.22743E+01 3.28852E+01 0.00000E+00
 -1      3680 2.11374E+01 3.23503E+01 0.00000E+00
 -1      3681 2.21492E+01 3.40400E+01 0.00000E+00
 -1      3682 5.17835E+01 2.95751E+01 0.00000E+00
 -1      3683 2.56038E+01 3.55491E+01 0.00000E+00
 -1      3684 2.18311E+01 3.52575E+01 0.00000E+00
 -1      3685 4.81338E+01 3.33220E+01 0.00000E+00
 -1      3686 1.42890E+01 2.12938E+01 0.00000E+00
 -1      3687 1.55880E+01 2.20313E+01 0.00000E+00
 -1      3688 1.42890E+01 1.98250E+01 0.00000E+00
 -1      3689 1.35711E+02 2.42656E+01 0.00000E+00
 -1      3690 1.35711E+02 2.27969E+01 0.00000E+00
 -1      3691 1.34412E+02 2.20625E+01 0.00000E+00
 -1      3692 2.03311E+01 3.52575E+01 0.00000E+00
 -1      3693 1.35777E+02 1.86190E+01 0.00000E+00
 -1      3694 1.35842E+02 1.73787E+01 0.00000E+00
 -1      3695 1.34478E+02 1.93534E+01 0.00000E+00
 -1      3696 5.39556E+01 2.51717E+01 0.00000E+00
 -1      3697 5.28136E+01 2.59770E+01 0.00000E+00
 -1      3698 5.36089E+01 2.71293E+01 0.00000E+00
 -1      3699 1.29900E+01 1.76125E+01 0.00000E+00
 -1      3700 1.33969E+02 3.12527E+01 0.00000E+00
 -1      3701 1.96948E+01 1.94668E+01 0.00000E+00
 -1      3702 1.96651E+01 2.29291E+01 0.00000E+00
 -1      3703 1.88719E+01 2.19296E+01 0.00000E+00
 -1      3704 1.92541E+01 2.38340E+01 0.00000E+00
 -1      3705 1.34412E+02 2.50031E+01 0.00000E+00
 -1      3706 5.10257E+01 3.30805E+01 0.00000E+00
 -1      3707 1.99354E+01 2.61763E+01 0.00000E+00
 -1      3708 4.89920E+01 3.22646E+01 0.00000E+00
 -1      3709 1.36579E+02 1.32994E+01 0.00000E+00
 -1      3710 1.35045E+02 1.30734E+01 0.00000E+00
 -1      3711 5.03129E+01 3.21480E+01 0.00000E+00
 -1      3712 1.95811E+01 3.39585E+01 0.00000E+00
 -1      3713 1.34295E+02 1.43724E+01 0.00000E+00
 -1      3714 1.33113E+02 2.86875E+01 0.00000E+00
 -1      3715 1.33113E+02 2.72125E+01 0.00000E+00
 -1      3716 1.96496E+01 1.50106E+01 0.00000E+00
 -1      3717 1.87024E+01 1.30469E+01 0.00000E+00
 -1      3718 1.87744E+01 2.67556E+01 0.00000E+00
 -1      3719 1.88863E+01 2.54128E+01 0.00000E+00
 -1      3720 5.07235E+01 1.61986E+01 0.00000E+00
 -1      3721 1.36382E+02 1.55579E+01 0.00000E+00
 -1      3722 5.62757E+01 3.17815E+01 0.00000E+00
 -1      3723 5.77757E+01 3.17815E+01 0.00000E+00
 -1      3724 5.92757E+01 3.17815E+01 0.00000E+00
 -1      3725 6.07757E+01 3.17815E+01 0.00000E+00
 -1      3726 5.85257E+01 3.04825E+01 0.00000E+00
 -1      3727 6.22757E+01 3.17815E+01 0.00000E+00
 -1      3728 6.37757E+01 3.17815E+01 0.00000E+00
 -1      3729 6.15257E+01 3.04825E+01 0.00000E+00
 -1      3730 6.52757E+01 3.17815E+01 0.00000E+00
 -1      3731 6.67757E+01 3.17815E+01 0.00000E+00
 -1      3732 6.45257E+01 3.04825E+01 0.00000E+00
 -1      3733 6.82757E+01 3.17815E+01 0.00000E+00
 -1      3734 6.97757E+01 3.17815E+01 0.00000E+00
 -1      3735 6.75257E+01 3.04825E+01 0.00000E+00
 -1      3736 7.12757E+01 3.17815E+01 0.00000E+00
 -1      3737 7.27757E+01 3.17815E+01 0.00000E+00
 -1      3738 7.05257E+01 3.04825E+01 0.00000E+00
 -1      3739 7.42757E+01 3.17815E+01 0.00000E+00
 -1      3740 7.57757E+01 3.17815E+01 0.00000E+00
 -1      3741 7.35257E+01 3.04825E+01 0.00000E+00
 -1      3742 7.72757E+01 3.17815E+01 0.00000E+00
 -1      3743 7.87757E+01 3.17815E+01 0.00000E+00
 -1      3744 7.65257E+01 3.04825E+01 0.00000E+00
 -1      3745 8.02757E+01 3.17815E+01 0.00000E+00
 -1      3746 8.17757E+01 3.17815E+01 0.00000E+00
 -1      3747 7.95257E+01 3.04825E+01 0.00000E+00
 -1      3748 8.32757E+01 3.17815E+01 0.00000E+00
 -1      3749 8.47757E+01 3.17815E+01 0.00000E+00
 -1      3750 8.25257E+01 3.04825E+01 0.00000E+00
 -1      3751 8.62757E+01 3.17815E+01 0.00000E+00
 -1      3752 8.77757E+01 3.17815E+01 0.00000E+00
 -1      3753 8.55257E+01 3.04825E+01 0.00000E+00
 -1      3754 8.92757E+01 3.17815E+01 0.00000E+00
 -1      3755 9.07757E+01 3.17815E+01 0.00000E+00
 -1      3756 8.85257E+01 3.04825E+01 0.00000E+00
 -1      3757 9.22757E+01 3.17815E+01 0.00000E+00
 -1      3758 9.37757E+01 3.17815E+01 0.00000E+00
 -1      3759 9.15257E+01 3.04825E+01 0.00000E+00
 -1      3760 9.52757E+01 3.17815E+01 0.00000E+00
 -1      3761 9.67757E+01 3.17815E+01 0.00000E+00
 -1      3762 9.45257E+01 3.04825E+01 0.00000E+00
 -1      3763 9.82757E+01 3.17815E+01 0.00000E+00
 -1      3764 9.97757E+01 3.17815E+01 0.00000E+00
 -1      3765 9.75257E+01 3.04825E+01 0.00000E+00
 -1      3766 1.01276E+02 3.17815E+01 0.00000E+00
 -1      3767 1.02776E+02 3.17815E+01 0.00000E+00
 -1      3768 1.00526E+02 3.04825E+01 0.00000E+00
 -1      3769 1.04276E+02 3.17815E+01 0.00000E+00
 -1      3770 1.05776E+02 3.17815E+01 0.00000E+00
 -1      3771 1.03526E+02 3.04825E+01 0.00000E+00
 -1      3772 1.07276E+02 3.17815E+01 0.00000E+00
 -1      3773 1.08776E+02 3.17815E+01 0.00000E+00
 -1      3774 1.06526E+02 3.04825E+01 0.00000E+00
 -1      3775 1.10276E+02 3.17815E+01 0.00000E+00
 -1      3776 1.11776E+02 3.17815E+01 0.00000E+00
 -1      3777 1.09526E+02 3.04825E+01 0.00000E+00
 -1      3778 1.13276E+02 3.17815E+01 0.00000E+00
 -1      3779 1.14776E+02 3.17815E+01 0.00000E+00
 -1      3780 1.12526E+02 3.04825E+01 0.00000E+00
 -1      3781 1.16276E+02 3.17815E+01 0.00000E+00
 -1      3782 1.17776E+02 3.17815E+01 0.00000E+00
 -1      3783 1.15526E+02 3.04825E+01 0.00000E+00
 -1      3784 1.19276E+02 3.17815E+01 0.00000E+00
 -1      3785 1.20776E+02 3.17815E+01 0.00000E+00
 -1      3786 1.18526E+02 3.04825E+01 0.00000E+00
 -1      3787 1.22276E+02 3.17815E+01 0.00000E+00
 -1      3788 1.23776E+02 3.17815E+01 0.00000E+00
 -1      3789 1.21526E+02 3.04825E+01 0.00000E+00
 -1      3790 1.25276E+02 3.17815E+01 0.00000E+00
 -1      3791 1.26776E+02 3.17815E+01 0.00000E+00
 -1      3792 1.24526E+02 3.04825E+01 0.00000E+00
 -1      3793 1.28276E+02 3.17815E+01 0.00000E+00
 -1      3794 1.29776E+02 3.17815E+01 0.00000E+00
 -1      3795 1.27526E+02 3.04825E+01 0.00000E+00
 -1      3796 6.02175E+01 1.55723E+01 0.00000E+00
 -1      3797 5.87175E+01 1.55723E+01 0.00000E+00
 -1      3798 5.18129E+01 3.21480E+01 0.00000E+00
 -1      3799 5.72175E+01 1.55723E+01 0.00000E+00
 -1      3800 5.57175E+01 1.55723E+01 0.00000E+00
 -1      3801 5.79675E+01 1.68713E+01 0.00000E+00
 -1      3802 6.62175E+01 1.55723E+01 0.00000E+00
 -1      3803 6.47175E+01 1.55723E+01 0.00000E+00
 -1      3804 6.92175E+01 1.55723E+01 0.00000E+00
 -1      3805 6.77175E+01 1.55723E+01 0.00000E+00
 -1      3806 6.69675E+01 1.68713E+01 0.00000E+00
 -1      3807 7.22175E+01 1.55723E+01 0.00000E+00
 -1      3808 7.07175E+01 1.55723E+01 0.00000E+00
 -1      3809 6.99675E+01 1.68713E+01 0.00000E+00
 -1      3810 7.52175E+01 1.55723E+01 0.00000E+00
 -1      3811 7.37175E+01 1.55723E+01 0.00000E+00
 -1      3812 7.29675E+01 1.68713E+01 0.00000E+00
 -1      3813 7.82175E+01 1.55723E+01 0.00000E+00
 -1      3814 7.67175E+01 1.55723E+01 0.00000E+00
 -1      3815 7.59675E+01 1.68713E+01 0.00000E+00
 -1      3816 8.12175E+01 1.55723E+01 0.00000E+00
 -1      3817 7.97175E+01 1.55723E+01 0.00000E+00
 -1      3818 7.89675E+01 1.68713E+01 0.00000E+00
 -1      3819 8.42175E+01 1.55723E+01 0.00000E+00
 -1      3820 8.27175E+01 1.55723E+01 0.00000E+00
 -1      3821 8.19675E+01 1.68713E+01 0.00000E+00
 -1      3822 8.72175E+01 1.55723E+01 0.00000E+00
 -1      3823 8.57175E+01 1.55723E+01 0.00000E+00
 -1      3824 8.49675E+01 1.68713E+01 0.00000E+00
 -1      3825 9.02175E+01 1.55723E+01 0.00000E+00
 -1      3826 8.87175E+01 1.55723E+01 0.00000E+00
 -1      3827 8.79675E+01 1.68713E+01 0.00000E+00
 -1      3828 9.32175E+01 1.55723E+01 0.00000E+00
 -1      3829 9.17175E+01 1.55723E+01 0.00000E+00
 -1      3830 9.09675E+01 1.68713E+01 0.00000E+00
 -1      3831 9.62175E+01 1.55723E+01 0.00000E+00
 -1      3832 9.47175E+01 1.55723E+01 0.00000E+00
 -1      3833 9.39675E+01 1.68713E+01 0.00000E+00
 -1      3834 9.92175E+01 1.55723E+01 0.00000E+00
 -1      3835 9.77175E+01 1.55723E+01 0.00000E+00
 -1      3836 9.69675E+01 1.68713E+01 0.00000E+00
 -1      3837 1.02218E+02 1.55723E+01 0.00000E+00
 -1      3838 1.00718E+02 1.55723E+01 0.00000E+00
 -1      3839 9.99675E+01 1.68713E+01 0.00000E+00
 -1      3840 1.05218E+02 1.55723E+01 0.00000E+00
 -1      3841 1.03718E+02 1.55723E+01 0.00000E+00
 -1      3842 1.02968E+02 1.68713E+01 0.00000E+00
 -1      3843 1.08218E+02 1.55723E+01 0.00000E+00
 -1      3844 1.06718E+02 1.55723E+01 0.00000E+00
 -1      3845 1.05968E+02 1.68713E+01 0.00000E+00
 -1      3846 1.11218E+02 1.55723E+01 0.00000E+00
 -1      3847 1.09718E+02 1.55723E+01 0.00000E+00
 -1      3848 1.08968E+02 1.68713E+01 0.00000E+00
 -1      3849 1.14218E+02 1.55723E+01 0.00000E+00
 -1      3850 1.12718E+02 1.55723E+01 0.00000E+00
 -1      3851 1.11968E+02 1.68713E+01 0.00000E+00
 -1      3852 1.17218E+02 1.55723E+01 0.00000E+00
 -1      3853 1.15718E+02 1.55723E+01 0.00000E+00
 -1      3854 1.14968E+02 1.68713E+01 0.00000E+00
 -1      3855 1.20218E+02 1.55723E+01 0.00000E+00
 -1      3856 1.18718E+02 1.55723E+01 0.00000E+00
 -1      3857 1.17968E+02 1.68713E+01 0.00000E+00
 -1      3858 1.23218E+02 1.55723E+01 0.00000E+00
 -1      3859 1.21718E+02 1.55723E+01 0.00000E+00
 -1      3860 1.20968E+02 1.68713E+01 0.00000E+00
 -1      3861 1.26218E+02 1.55723E+01 0.00000E+00
 -1      3862 1.24718E+02 1.55723E+01 0.00000E+00
 -1      3863 1.23968E+02 1.68713E+01 0.00000E+00
 -1      3864 1.29218E+02 1.55723E+01 0.00000E+00
 -1      3865 1.27718E+02 1.55723E+01 0.00000E+00
 -1      3866 1.26968E+02 1.68713E+01 0.00000E+00
 -1      3867 1.32218E+02 1.55723E+01 0.00000E+00
 -1      3868 1.30718E+02 1.55723E+01 0.00000E+00
 -1      3869 1.29968E+02 1.68713E+01 0.00000E+00
 -1      3870 1.73843E+01 1.28971E+01 0.00000E+00
 -1      3871 1.90564E+01 1.62510E+01 0.00000E+00
 -1      3872 1.55798E+01 2.49984E+01 0.00000E+00
 -1      3873 1.42808E+01 2.57359E+01 0.00000E+00
 -1      3874 1.59000E+01 3.31130E+01 0.00000E+00
 -1      3875 1.74000E+01 3.31130E+01 0.00000E+00
 -1      3876 1.32348E+02 3.17978E+01 0.00000E+00
 -1      3877 1.32791E+02 2.99701E+01 0.00000E+00
 -1      3878 1.31492E+02 2.92326E+01 0.00000E+00
 -1      3879 1.30848E+02 3.17978E+01 0.00000E+00
 -1      3880 1.35083E+02 1.62923E+01 0.00000E+00
 -1      3881 1.42890E+01 1.68750E+01 0.00000E+00
 -1      3882 1.42890E+01 1.83500E+01 0.00000E+00
 -1      3883 1.55880E+01 1.90875E+01 0.00000E+00
 -1      3884 1.33113E+02 2.27969E+01 0.00000E+00
 -1      3885 1.33113E+02 2.13281E+01 0.00000E+00
 -1      3886 5.31488E+01 2.91812E+01 0.00000E+00
 -1      3887 5.24655E+01 3.08217E+01 0.00000E+00
 -1      3888 1.74354E+01 1.93186E+01 0.00000E+00
 -1      3889 1.78474E+01 1.77607E+01 0.00000E+00
 -1      3890 1.57890E+01 1.54063E+01 0.00000E+00
 -1      3891 1.85531E+01 3.29584E+01 0.00000E+00
 -1      3892 1.99843E+01 3.25049E+01 0.00000E+00
 -1      3893 2.01094E+01 3.13501E+01 0.00000E+00
 -1      3894 1.78031E+01 3.16594E+01 0.00000E+00
 -1      3895 5.42175E+01 1.55723E+01 0.00000E+00
 -1      3896 5.27175E+01 1.55723E+01 0.00000E+00
 -1      3897 5.49675E+01 1.68713E+01 0.00000E+00
 -1      3898 1.33113E+02 2.57406E+01 0.00000E+00
 -1      3899 1.33113E+02 2.42687E+01 0.00000E+00
 -1      3900 1.31814E+02 2.64781E+01 0.00000E+00
 -1      3901 6.32175E+01 1.55723E+01 0.00000E+00
 -1      3902 6.17175E+01 1.55723E+01 0.00000E+00
 -1      3903 6.39675E+01 1.68713E+01 0.00000E+00
 -1      3904 5.14735E+01 1.74976E+01 0.00000E+00
 -1      3905 5.31782E+01 3.17542E+01 0.00000E+00
 -1      3906 1.33755E+02 1.61932E+01 0.00000E+00
 -1      3907 5.43145E+01 2.35511E+01 0.00000E+00
 -1      3908 5.41351E+01 2.43614E+01 0.00000E+00
 -1      3909 5.49303E+01 2.55137E+01 0.00000E+00
 -1      3910 5.46782E+01 3.17542E+01 0.00000E+00
 -1      3911 1.80931E+01 2.44133E+01 0.00000E+00
 -1      3912 1.31880E+02 2.08222E+01 0.00000E+00
 -1      3913 1.33179E+02 2.00878E+01 0.00000E+00
 -1      3914 1.33244E+02 1.88474E+01 0.00000E+00
 -1      3915 5.54282E+01 3.04552E+01 0.00000E+00
 -1      3916 6.09675E+01 1.68713E+01 0.00000E+00
 -1      3917 1.91455E+01 3.05661E+01 0.00000E+00
 -1      3918 1.30098E+02 3.04988E+01 0.00000E+00
 -1      3919 1.40386E+01 2.70574E+01 0.00000E+00
 -1      3920 5.41776E+01 2.81689E+01 0.00000E+00
 -1      3921 5.48595E+01 2.94155E+01 0.00000E+00
 -1      3922 5.64570E+01 2.94428E+01 0.00000E+00
 -1      3923 5.53196E+01 2.73636E+01 0.00000E+00
 -1      3924 1.35420E+01 2.81502E+01 0.00000E+00
 -1      3925 1.32998E+01 2.94718E+01 0.00000E+00
 -1      3926 1.40820E+01 2.97751E+01 0.00000E+00
 -1      3927 1.50751E+01 2.75895E+01 0.00000E+00
 -1      3928 1.66566E+01 2.47460E+01 0.00000E+00
 -1      3929 1.66485E+01 2.62444E+01 0.00000E+00
 -1      3930 1.69980E+01 1.38966E+01 0.00000E+00
 -1      3931 5.24360E+01 2.08880E+01 0.00000E+00
 -1      3932 5.36742E+01 2.15358E+01 0.00000E+00
 -1      3933 5.25909E+01 2.00250E+01 0.00000E+00
 -1      3934 1.74354E+01 2.07936E+01 0.00000E+00
 -1      3935 1.31814E+02 2.35344E+01 0.00000E+00
 -1      3936 1.70244E+01 2.16985E+01 0.00000E+00
 -1      3937 1.67970E+01 1.61028E+01 0.00000E+00
 -1      3938 1.43516E+01 3.25732E+01 0.00000E+00
 -1      3939 1.51339E+01 3.28765E+01 0.00000E+00
 -1      3940 1.58839E+01 3.15775E+01 0.00000E+00
 -1      3941 1.43516E+01 3.11044E+01 0.00000E+00
 -1      3942 1.70244E+01 2.31672E+01 0.00000E+00
 -1      3943 1.86384E+01 2.77906E+01 0.00000E+00
 -1      3944 1.75893E+01 2.70271E+01 0.00000E+00
 -1      3945 1.65125E+01 2.72794E+01 0.00000E+00
 -1      3946 1.83940E+01 2.88448E+01 0.00000E+00
 -1      3947 5.79570E+01 2.94428E+01 0.00000E+00
 -1      3948 5.94570E+01 2.94428E+01 0.00000E+00
 -1      3949 5.73883E+01 2.84032E+01 0.00000E+00
 -1      3950 5.24101E+01 1.81243E+01 0.00000E+00
 -1      3951 6.09570E+01 2.94428E+01 0.00000E+00
 -1      3952 6.24570E+01 2.94428E+01 0.00000E+00
 -1      3953 6.03883E+01 2.84032E+01 0.00000E+00
 -1      3954 6.39570E+01 2.94428E+01 0.00000E+00
 -1      3955 6.54570E+01 2.94428E+01 0.00000E+00
 -1      3956 6.33883E+01 2.84032E+01 0.00000E+00
 -1      3957 6.69570E+01 2.94428E+01 0.00000E+00
 -1      3958 6.84570E+01 2.94428E+01 0.00000E+00
 -1      3959 6.63883E+01 2.84032E+01 0.00000E+00
 -1      3960 6.99570E+01 2.94428E+01 0.00000E+00
 -1      3961 7.14570E+01 2.94428E+01 0.00000E+00
 -1      3962 6.93883E+01 2.84032E+01 0.00000E+00
 -1      3963 7.29570E+01 2.94428E+01 0.00000E+00
 -1      3964 7.44570E+01 2.94428E+01 0.00000E+00
 -1      3965 7.23883E+01 2.84032E+01 0.00000E+00
 -1      3966 7.59570E+01 2.94428E+01 0.00000E+00
 -1      3967 7.74570E+01 2.94428E+01 0.00000E+00
 -1      3968 7.53883E+01 2.84032E+01 0.00000E+00
 -1      3969 7.89570E+01 2.94428E+01 0.00000E+00
 -1      3970 8.04570E+01 2.94428E+01 0.00000E+00
 -1      3971 7.83883E+01 2.84032E+01 0.00000E+00
 -1      3972 8.19570E+01 2.94428E+01 0.00000E+00
 -1      3973 8.34570E+01 2.94428E+01 0.00000E+00
 -1      3974 8.13883E+01 2.84032E+01 0.00000E+00
 -1      3975 8.49570E+01 2.94428E+01 0.00000E+00
 -1      3976 8.64570E+01 2.94428E+01 0.00000E+00
 -1      3977 8.43883E+01 2.84032E+01 0.00000E+00
 -1      3978 8.79570E+01 2.94428E+01 0.00000E+00
 -1      3979 8.94570E+01 2.94428E+01 0.00000E+00
 -1      3980 8.73883E+01 2.84032E+01 0.00000E+00
 -1      3981 9.09570E+01 2.94428E+01 0.00000E+00
 -1      3982 9.24570E+01 2.94428E+01 0.00000E+00
 -1      3983 9.03883E+01 2.84032E+01 0.00000E+00
 -1      3984 9.39570E+01 2.94428E+01 0.00000E+00
 -1      3985 9.54570E+01 2.94428E+01 0.00000E+00
 -1      3986 9.33883E+01 2.84032E+01 0.00000E+00
 -1      3987 9.69570E+01 2.94428E+01 0.00000E+00
 -1      3988 9.84570E+01 2.94428E+01 0.00000E+00
 -1      3989 9.63883E+01 2.84032E+01 0.00000E+00
 -1      3990 9.99570E+01 2.94428E+01 0.00000E+00
 -1      3991 1.01457E+02 2.94428E+01 0.00000E+00
 -1      3992 9.93883E+01 2.84032E+01 0.00000E+00
 -1      3993 1.02957E+02 2.94428E+01 0.00000E+00
 -1      3994 1.04457E+02 2.94428E+01 0.00000E+00
 -1      3995 1.02388E+02 2.84032E+01 0.00000E+00
 -1      3996 1.05957E+02 2.94428E+01 0.00000E+00
 -1      3997 1.07457E+02 2.94428E+01 0.00000E+00
 -1      3998 1.05388E+02 2.84032E+01 0.00000E+00
 -1      3999 1.08957E+02 2.94428E+01 0.00000E+00
 -1      4000 1.10457E+02 2.94428E+01 0.00000E+00
 -1      4001 1.08388E+02 2.84032E+01 0.00000E+00
 -1      4002 1.11957E+02 2.94428E+01 0.00000E+00
 -1      4003 1.13457E+02 2.94428E+01 0.00000E+00
 -1      4004 1.11388E+02 2.84032E+01 0.00000E+00
 -1      4005 1.14957E+02 2.94428E+01 0.00000E+00
 -1      4006 1.16457E+02 2.94428E+01 0.00000E+00
 -1      4007 1.14388E+02 2.84032E+01 0.00000E+00
 -1      4008 1.17957E+02 2.94428E+01 0.00000E+00
 -1      4009 1.19457E+02 2.94428E+01 0.00000E+00
 -1      4010 1.17388E+02 2.84032E+01 0.00000E+00
 -1      4011 1.20957E+02 2.94428E+01 0.00000E+00
 -1      4012 1.22457E+02 2.94428E+01 0.00000E+00
 -1      4013 1.20388E+02 2.84032E+01 0.00000E+00
 -1      4014 1.23957E+02 2.94428E+01 0.00000E+00
 -1      4015 1.25457E+02 2.94428E+01 0.00000E+00
 -1      4016 1.23388E+02 2.84032E+01 0.00000E+00
 -1      4017 1.26957E+02 2.94428E+01 0.00000E+00
 -1      4018 1.28457E+02 2.94428E+01 0.00000E+00
 -1      4019 1.26388E+02 2.84032E+01 0.00000E+00
 -1      4020 5.87175E+01 1.81703E+01 0.00000E+00
 -1      4021 5.72175E+01 1.81703E+01 0.00000E+00
 -1      4022 7.07175E+01 1.81703E+01 0.00000E+00
 -1      4023 6.92175E+01 1.81703E+01 0.00000E+00
 -1      4024 6.77175E+01 1.81703E+01 0.00000E+00
 -1      4025 6.62175E+01 1.81703E+01 0.00000E+00
 -1      4026 6.84675E+01 1.94693E+01 0.00000E+00
 -1      4027 7.67175E+01 1.81703E+01 0.00000E+00
 -1      4028 7.52175E+01 1.81703E+01 0.00000E+00
 -1      4029 7.97175E+01 1.81703E+01 0.00000E+00
 -1      4030 7.82175E+01 1.81703E+01 0.00000E+00
 -1      4031 7.74675E+01 1.94693E+01 0.00000E+00
 -1      4032 8.27175E+01 1.81703E+01 0.00000E+00
 -1      4033 8.12175E+01 1.81703E+01 0.00000E+00
 -1      4034 8.04675E+01 1.94693E+01 0.00000E+00
 -1      4035 8.57175E+01 1.81703E+01 0.00000E+00
 -1      4036 8.42175E+01 1.81703E+01 0.00000E+00
 -1      4037 8.34675E+01 1.94693E+01 0.00000E+00
 -1      4038 8.87175E+01 1.81703E+01 0.00000E+00
 -1      4039 8.72175E+01 1.81703E+01 0.00000E+00
 -1      4040 8.64675E+01 1.94693E+01 0.00000E+00
 -1      4041 9.17175E+01 1.81703E+01 0.00000E+00
 -1      4042 9.02175E+01 1.81703E+01 0.00000E+00
 -1      4043 8.94675E+01 1.94693E+01 0.00000E+00
 -1      4044 9.47175E+01 1.81703E+01 0.00000E+00
 -1      4045 9.32175E+01 1.81703E+01 0.00000E+00
 -1      4046 9.24675E+01 1.94693E+01 0.00000E+00
 -1      4047 9.77175E+01 1.81703E+01 0.00000E+00
 -1      4048 9.62175E+01 1.81703E+01 0.00000E+00
 -1      4049 9.54675E+01 1.94693E+01 0.00000E+00
 -1      4050 1.00718E+02 1.81703E+01 0.00000E+00
 -1      4051 9.92175E+01 1.81703E+01 0.00000E+00
 -1      4052 9.84675E+01 1.94693E+01 0.00000E+00
 -1      4053 1.03718E+02 1.81703E+01 0.00000E+00
 -1      4054 1.02218E+02 1.81703E+01 0.00000E+00
 -1      4055 1.01468E+02 1.94693E+01 0.00000E+00
 -1      4056 1.06718E+02 1.81703E+01 0.00000E+00
 -1      4057 1.05218E+02 1.81703E+01 0.00000E+00
 -1      4058 1.04468E+02 1.94693E+01 0.00000E+00
 -1      4059 1.09718E+02 1.81703E+01 0.00000E+00
 -1      4060 1.08218E+02 1.81703E+01 0.00000E+00
 -1      4061 1.07468E+02 1.94693E+01 0.00000E+00
 -1      4062 1.12718E+02 1.81703E+01 0.00000E+00
 -1      4063 1.11218E+02 1.81703E+01 0.00000E+00
 -1      4064 1.10468E+02 1.94693E+01 0.00000E+00
 -1      4065 1.15718E+02 1.81703E+01 0.00000E+00
 -1      4066 1.14218E+02 1.81703E+01 0.00000E+00
 -1      4067 1.13468E+02 1.94693E+01 0.00000E+00
 -1      4068 1.18718E+02 1.81703E+01 0.00000E+00
 -1      4069 1.17218E+02 1.81703E+01 0.00000E+00
 -1      4070 1.16468E+02 1.94693E+01 0.00000E+00
 -1      4071 1.21718E+02 1.81703E+01 0.00000E+00
 -1      4072 1.20218E+02 1.81703E+01 0.00000E+00
 -1      4073 1.19468E+02 1.94693E+01 0.00000E+00
 -1      4074 1.24718E+02 1.81703E+01 0.00000E+00
 -1      4075 1.23218E+02 1.81703E+01 0.00000E+00
 -1      4076 1.22468E+02 1.94693E+01 0.00000E+00
 -1      4077 1.27718E+02 1.81703E+01 0.00000E+00
 -1      4078 1.26218E+02 1.81703E+01 0.00000E+00
 -1      4079 1.25468E+02 1.94693E+01 0.00000E+00
 -1      4080 1.33005E+02 1.74922E+01 0.00000E+00
 -1      4081 1.80039E+01 3.07214E+01 0.00000E+00
 -1      4082 1.81932E+01 2.97828E+01 0.00000E+00
 -1      4083 1.72524E+01 2.90001E+01 0.00000E+00
 -1      4084 1.68508E+01 3.08760E+01 0.00000E+00
 -1      4085 6.17175E+01 1.81703E+01 0.00000E+00
 -1      4086 6.02175E+01 1.81703E+01 0.00000E+00
 -1      4087 5.94675E+01 1.94693E+01 0.00000E+00
 -1      4088 1.29438E+02 2.93295E+01 0.00000E+00
 -1      4089 1.30510E+02 2.93459E+01 0.00000E+00
 -1      4090 1.30833E+02 2.80633E+01 0.00000E+00
 -1      4091 1.28870E+02 2.82899E+01 0.00000E+00
 -1      4092 1.30515E+02 2.42703E+01 0.00000E+00
 -1      4093 1.30515E+02 2.27984E+01 0.00000E+00
 -1      4094 7.37175E+01 1.81703E+01 0.00000E+00
 -1      4095 7.22175E+01 1.81703E+01 0.00000E+00
 -1      4096 7.44675E+01 1.94693E+01 0.00000E+00
 -1      4097 1.30674E+02 2.69027E+01 0.00000E+00
 -1      4098 1.30674E+02 2.54309E+01 0.00000E+00
 -1      4099 1.29375E+02 2.46949E+01 0.00000E+00
 -1      4100 1.29692E+02 2.70160E+01 0.00000E+00
 -1      4101 6.47175E+01 1.81703E+01 0.00000E+00
 -1      4102 6.32175E+01 1.81703E+01 0.00000E+00
 -1      4103 6.24675E+01 1.94693E+01 0.00000E+00
 -1      4104 5.36483E+01 1.87721E+01 0.00000E+00
 -1      4105 1.31706E+02 1.82266E+01 0.00000E+00
 -1      4106 5.48985E+01 2.22975E+01 0.00000E+00
 -1      4107 5.56937E+01 2.34498E+01 0.00000E+00
 -1      4108 1.30581E+02 2.15581E+01 0.00000E+00
 -1      4109 1.30646E+02 2.03178E+01 0.00000E+00
 -1      4110 1.29282E+02 2.22940E+01 0.00000E+00
 -1      4111 7.14675E+01 1.94693E+01 0.00000E+00
 -1      4112 6.54675E+01 1.94693E+01 0.00000E+00
 -1      4113 5.50534E+01 2.14345E+01 0.00000E+00
 -1      4114 1.28907E+02 1.89625E+01 0.00000E+00
 -1      4115 1.28157E+02 2.02615E+01 0.00000E+00
 -1      4116 1.30407E+02 1.89625E+01 0.00000E+00
 -1      4117 1.60847E+01 3.06395E+01 0.00000E+00
 -1      4118 5.62509E+01 2.63240E+01 0.00000E+00
 -1      4119 5.68196E+01 2.73636E+01 0.00000E+00
 -1      4120 5.83196E+01 2.73636E+01 0.00000E+00
 -1      4121 1.60159E+01 2.83722E+01 0.00000E+00
 -1      4122 1.48482E+01 3.00116E+01 0.00000E+00
 -1      4123 5.51483E+01 1.87721E+01 0.00000E+00
 -1      4124 5.58983E+01 2.00711E+01 0.00000E+00
 -1      4125 5.64303E+01 2.55137E+01 0.00000E+00
 -1      4126 6.92175E+01 2.07683E+01 0.00000E+00
 -1      4127 6.77175E+01 2.07683E+01 0.00000E+00
 -1      4128 5.98196E+01 2.73636E+01 0.00000E+00
 -1      4129 6.13196E+01 2.73636E+01 0.00000E+00
 -1      4130 5.92509E+01 2.63240E+01 0.00000E+00
 -1      4131 6.28196E+01 2.73636E+01 0.00000E+00
 -1      4132 6.43196E+01 2.73636E+01 0.00000E+00
 -1      4133 6.22509E+01 2.63240E+01 0.00000E+00
 -1      4134 6.58196E+01 2.73636E+01 0.00000E+00
 -1      4135 6.73196E+01 2.73636E+01 0.00000E+00
 -1      4136 6.52509E+01 2.63240E+01 0.00000E+00
 -1      4137 6.88196E+01 2.73636E+01 0.00000E+00
 -1      4138 7.03196E+01 2.73636E+01 0.00000E+00
 -1      4139 6.82509E+01 2.63240E+01 0.00000E+00
 -1      4140 7.18196E+01 2.73636E+01 0.00000E+00
 -1      4141 7.33196E+01 2.73636E+01 0.00000E+00
 -1      4142 7.12509E+01 2.63240E+01 0.00000E+00
 -1      4143 7.48196E+01 2.73636E+01 0.00000E+00
 -1      4144 7.63196E+01 2.73636E+01 0.00000E+00
 -1      4145 7.42509E+01 2.63240E+01 0.00000E+00
 -1      4146 7.78196E+01 2.73636E+01 0.00000E+00
 -1      4147 7.93196E+01 2.73636E+01 0.00000E+00
 -1      4148 7.72509E+01 2.63240E+01 0.00000E+00
 -1      4149 8.08196E+01 2.73636E+01 0.00000E+00
 -1      4150 8.23196E+01 2.73636E+01 0.00000E+00
 -1      4151 8.02509E+01 2.63240E+01 0.00000E+00
 -1      4152 8.38196E+01 2.73636E+01 0.00000E+00
 -1      4153 8.53196E+01 2.73636E+01 0.00000E+00
 -1      4154 8.32509E+01 2.63240E+01 0.00000E+00
 -1      4155 8.68196E+01 2.73636E+01 0.00000E+00
 -1      4156 8.83196E+01 2.73636E+01 0.00000E+00
 -1      4157 8.62509E+01 2.63240E+01 0.00000E+00
 -1      4158 8.98196E+01 2.73636E+01 0.00000E+00
 -1      4159 9.13196E+01 2.73636E+01 0.00000E+00
 -1      4160 8.92509E+01 2.63240E+01 0.00000E+00
 -1      4161 9.28196E+01 2.73636E+01 0.00000E+00
 -1      4162 9.43196E+01 2.73636E+01 0.00000E+00
 -1      4163 9.22509E+01 2.63240E+01 0.00000E+00
 -1      4164 9.58196E+01 2.73636E+01 0.00000E+00
 -1      4165 9.73196E+01 2.73636E+01 0.00000E+00
 -1      4166 9.52509E+01 2.63240E+01 0.00000E+00
 -1      4167 9.88196E+01 2.73636E+01 0.00000E+00
 -1      4168 1.00320E+02 2.73636E+01 0.00000E+00
 -1      4169 9.82509E+01 2.63240E+01 0.00000E+00
 -1      4170 1.01820E+02 2.73636E+01 0.00000E+00
 -1      4171 1.03320E+02 2.73636E+01 0.00000E+00
 -1      4172 1.01251E+02 2.63240E+01 0.00000E+00
 -1      4173 1.04820E+02 2.73636E+01 0.00000E+00
 -1      4174 1.06320E+02 2.73636E+01 0.00000E+00
 -1      4175 1.04251E+02 2.63240E+01 0.00000E+00
 -1      4176 1.07820E+02 2.73636E+01 0.00000E+00
 -1      4177 1.09320E+02 2.73636E+01 0.00000E+00
 -1      4178 1.07251E+02 2.63240E+01 0.00000E+00
 -1      4179 1.10820E+02 2.73636E+01 0.00000E+00
 -1      4180 1.12320E+02 2.73636E+01 0.00000E+00
 -1      4181 1.10251E+02 2.63240E+01 0.00000E+00
 -1      4182 1.13820E+02 2.73636E+01 0.00000E+00
 -1      4183 1.15320E+02 2.73636E+01 0.00000E+00
 -1      4184 1.13251E+02 2.63240E+01 0.00000E+00
 -1      4185 1.16820E+02 2.73636E+01 0.00000E+00
 -1      4186 1.18320E+02 2.73636E+01 0.00000E+00
 -1      4187 1.16251E+02 2.63240E+01 0.00000E+00
 -1      4188 1.19820E+02 2.73636E+01 0.00000E+00
 -1      4189 1.21320E+02 2.73636E+01 0.00000E+00
 -1      4190 1.19251E+02 2.63240E+01 0.00000E+00
 -1      4191 1.22820E+02 2.73636E+01 0.00000E+00
 -1      4192 1.24320E+02 2.73636E+01 0.00000E+00
 -1      4193 1.22251E+02 2.63240E+01 0.00000E+00
 -1      4194 6.32175E+01 2.07683E+01 0.00000E+00
 -1      4195 6.17175E+01 2.07683E+01 0.00000E+00
 -1      4196 8.42175E+01 2.07683E+01 0.00000E+00
 -1      4197 8.27175E+01 2.07683E+01 0.00000E+00
 -1      4198 7.22175E+01 2.07683E+01 0.00000E+00
 -1      4199 7.07175E+01 2.07683E+01 0.00000E+00
 -1      4200 6.99675E+01 2.20673E+01 0.00000E+00
 -1      4201 8.12175E+01 2.07683E+01 0.00000E+00
 -1      4202 7.97175E+01 2.07683E+01 0.00000E+00
 -1      4203 8.19675E+01 2.20673E+01 0.00000E+00
 -1      4204 7.82175E+01 2.07683E+01 0.00000E+00
 -1      4205 7.67175E+01 2.07683E+01 0.00000E+00
 -1      4206 7.89675E+01 2.20673E+01 0.00000E+00
 -1      4207 8.72175E+01 2.07683E+01 0.00000E+00
 -1      4208 8.57175E+01 2.07683E+01 0.00000E+00
 -1      4209 8.49675E+01 2.20673E+01 0.00000E+00
 -1      4210 9.02175E+01 2.07683E+01 0.00000E+00
 -1      4211 8.87175E+01 2.07683E+01 0.00000E+00
 -1      4212 8.79675E+01 2.20673E+01 0.00000E+00
 -1      4213 9.32175E+01 2.07683E+01 0.00000E+00
 -1      4214 9.17175E+01 2.07683E+01 0.00000E+00
 -1      4215 9.09675E+01 2.20673E+01 0.00000E+00
 -1      4216 9.62175E+01 2.07683E+01 0.00000E+00
 -1      4217 9.47175E+01 2.07683E+01 0.00000E+00
 -1      4218 9.39675E+01 2.20673E+01 0.00000E+00
 -1      4219 9.92175E+01 2.07683E+01 0.00000E+00
 -1      4220 9.77175E+01 2.07683E+01 0.00000E+00
 -1      4221 9.69675E+01 2.20673E+01 0.00000E+00
 -1      4222 1.02218E+02 2.07683E+01 0.00000E+00
 -1      4223 1.00718E+02 2.07683E+01 0.00000E+00
 -1      4224 9.99675E+01 2.20673E+01 0.00000E+00
 -1      4225 1.05218E+02 2.07683E+01 0.00000E+00
 -1      4226 1.03718E+02 2.07683E+01 0.00000E+00
 -1      4227 1.02968E+02 2.20673E+01 0.00000E+00
 -1      4228 1.08218E+02 2.07683E+01 0.00000E+00
 -1      4229 1.06718E+02 2.07683E+01 0.00000E+00
 -1      4230 1.05968E+02 2.20673E+01 0.00000E+00
 -1      4231 1.11218E+02 2.07683E+01 0.00000E+00
 -1      4232 1.09718E+02 2.07683E+01 0.00000E+00
 -1      4233 1.08968E+02 2.20673E+01 0.00000E+00
 -1      4234 1.14218E+02 2.07683E+01 0.00000E+00
 -1      4235 1.12718E+02 2.07683E+01 0.00000E+00
 -1      4236 1.11968E+02 2.20673E+01 0.00000E+00
 -1      4237 1.17218E+02 2.07683E+01 0.00000E+00
 -1      4238 1.15718E+02 2.07683E+01 0.00000E+00
 -1      4239 1.14968E+02 2.20673E+01 0.00000E+00
 -1      4240 1.20218E+02 2.07683E+01 0.00000E+00
 -1      4241 1.18718E+02 2.07683E+01 0.00000E+00
 -1      4242 1.17968E+02 2.20673E+01 0.00000E+00
 -1      4243 1.23218E+02 2.07683E+01 0.00000E+00
 -1      4244 1.21718E+02 2.07683E+01 0.00000E+00
 -1      4245 1.20968E+02 2.20673E+01 0.00000E+00
 -1      4246 1.26218E+02 2.07683E+01 0.00000E+00
 -1      4247 1.24718E+02 2.07683E+01 0.00000E+00
 -1      4248 1.23968E+02 2.20673E+01 0.00000E+00
 -1      4249 1.27407E+02 2.15605E+01 0.00000E+00
 -1      4250 1.28711E+02 2.71293E+01 0.00000E+00
 -1      4251 5.75983E+01 2.30065E+01 0.00000E+00
 -1      4252 5.70143E+01 2.42601E+01 0.00000E+00
 -1      4253 5.83349E+01 2.50704E+01 0.00000E+00
 -1      4254 5.71227E+01 2.08328E+01 0.00000E+00
 -1      4255 7.52175E+01 2.07683E+01 0.00000E+00
 -1      4256 7.37175E+01 2.07683E+01 0.00000E+00
 -1      4257 7.59675E+01 2.20673E+01 0.00000E+00
 -1      4258 1.58151E+01 2.93102E+01 0.00000E+00
 -1      4259 6.62175E+01 2.07683E+01 0.00000E+00
 -1      4260 6.47175E+01 2.07683E+01 0.00000E+00
 -1      4261 6.69675E+01 2.20673E+01 0.00000E+00
 -1      4262 5.89554E+01 2.05562E+01 0.00000E+00
 -1      4263 5.81105E+01 2.19196E+01 0.00000E+00
 -1      4264 5.94311E+01 2.27299E+01 0.00000E+00
 -1      4265 6.04554E+01 2.05562E+01 0.00000E+00
 -1      4266 1.27342E+02 2.28009E+01 0.00000E+00
 -1      4267 6.12054E+01 2.18552E+01 0.00000E+00
 -1      4268 6.39675E+01 2.20673E+01 0.00000E+00
 -1      4269 1.25638E+02 2.71042E+01 0.00000E+00
 -1      4270 1.27138E+02 2.71042E+01 0.00000E+00
 -1      4271 1.27961E+02 2.58303E+01 0.00000E+00
 -1      4272 1.27802E+02 2.46698E+01 0.00000E+00
 -1      4273 1.25928E+02 2.39363E+01 0.00000E+00
 -1      4274 7.29675E+01 2.20673E+01 0.00000E+00
 -1      4275 1.25070E+02 2.60646E+01 0.00000E+00
 -1      4276 5.98349E+01 2.50704E+01 0.00000E+00
 -1      4277 1.24609E+02 2.41956E+01 0.00000E+00
 -1      4278 6.16092E+01 2.41956E+01 0.00000E+00
 -1      4279 6.31092E+01 2.41956E+01 0.00000E+00
 -1      4280 6.46092E+01 2.41956E+01 0.00000E+00
 -1      4281 6.61092E+01 2.41956E+01 0.00000E+00
 -1      4282 6.76092E+01 2.41956E+01 0.00000E+00
 -1      4283 6.91092E+01 2.41956E+01 0.00000E+00
 -1      4284 7.06092E+01 2.41956E+01 0.00000E+00
 -1      4285 7.21092E+01 2.41956E+01 0.00000E+00
 -1      4286 7.36092E+01 2.41956E+01 0.00000E+00
 -1      4287 7.51092E+01 2.41956E+01 0.00000E+00
 -1      4288 7.66092E+01 2.41956E+01 0.00000E+00
 -1      4289 7.81092E+01 2.41956E+01 0.00000E+00
 -1      4290 7.96092E+01 2.41956E+01 0.00000E+00
 -1      4291 8.11092E+01 2.41956E+01 0.00000E+00
 -1      4292 8.26092E+01 2.41956E+01 0.00000E+00
 -1      4293 8.41092E+01 2.41956E+01 0.00000E+00
 -1      4294 8.56092E+01 2.41956E+01 0.00000E+00
 -1      4295 8.71092E+01 2.41956E+01 0.00000E+00
 -1      4296 8.86092E+01 2.41956E+01 0.00000E+00
 -1      4297 9.01092E+01 2.41956E+01 0.00000E+00
 -1      4298 9.16092E+01 2.41956E+01 0.00000E+00
 -1      4299 9.31092E+01 2.41956E+01 0.00000E+00
 -1      4300 9.46092E+01 2.41956E+01 0.00000E+00
 -1      4301 9.61092E+01 2.41956E+01 0.00000E+00
 -1      4302 9.76092E+01 2.41956E+01 0.00000E+00
 -1      4303 9.91092E+01 2.41956E+01 0.00000E+00
 -1      4304 1.00609E+02 2.41956E+01 0.00000E+00
 -1      4305 1.02109E+02 2.41956E+01 0.00000E+00
 -1      4306 1.03609E+02 2.41956E+01 0.00000E+00
 -1      4307 1.05109E+02 2.41956E+01 0.00000E+00
 -1      4308 1.06609E+02 2.41956E+01 0.00000E+00
 -1      4309 1.08109E+02 2.41956E+01 0.00000E+00
 -1      4310 1.09609E+02 2.41956E+01 0.00000E+00
 -1      4311 1.11109E+02 2.41956E+01 0.00000E+00
 -1      4312 1.12609E+02 2.41956E+01 0.00000E+00
 -1      4313 1.14109E+02 2.41956E+01 0.00000E+00
 -1      4314 1.15609E+02 2.41956E+01 0.00000E+00
 -1      4315 1.17109E+02 2.41956E+01 0.00000E+00
 -1      4316 1.18609E+02 2.41956E+01 0.00000E+00
 -1      4317 1.20109E+02 2.41956E+01 0.00000E+00
 -1      4318 1.21609E+02 2.41956E+01 0.00000E+00
 -1      4319 1.23109E+02 2.41956E+01 0.00000E+00
 -1      4320 6.03470E+01 2.39835E+01 0.00000E+00
 -3
    3C                          2078                                     1
 -1       165    8    0    1
 -2         6         7        23      1122      1286      1139
 -1       166    8    0    1
 -2         7         8       165      1123      1287      1288
 -1       167    8    0    1
 -2         8         9       166      1124      1289      1290
 -1       168    8    0    1
 -2         8       166       165      1290      1291      1287
 -1       169    8    0    1
 -2         9        10       167      1125      1292      1293
 -1       170    8    0    1
 -2         9       167       166      1293      1294      1289
 -1       171    8    0    1
 -2        10        11       168      1126      1295      1296
 -1       172    8    0    1
 -2        10       168       167      1296      1297      1292
 -1       173    8    0    1
 -2        11        12       169      1127      1298      1299
 -1       174    8    0    1
 -2        11       169       168      1299      1300      1295
 -1       175    8    0    1
 -2        12        13       170      1128      1301      1302
 -1       176    8    0    1
 -2        12       170       169      1302      1303      1298
 -1       177    8    0    1
 -2        13        14       171      1129      1304      1305
 -1       178    8    0    1
 -2        13       171       170      1305      1306      1301
 -1       179    8    0    1
 -2        14        15       172      1130      1307      1308
 -1       180    8    0    1
 -2        14       172       171      1308      1309      1304
 -1       181    8    0    1
 -2        15        16       173      1131      1310      1311
 -1       182    8    0    1
 -2        15       173       172      1311      1312      1307
 -1       183    8    0    1
 -2        16        17       174      1132      1313      1314
 -1       184    8    0    1
 -2        16       174       173      1314      1315      1310
 -1       185    8    0    1
 -2        17        18       175      1133      1316      1317
 -1       186    8    0    1
 -2        17       175       174      1317      1318      1313
 -1       187    8    0    1
 -2        18        19       176      1134      1319      1320
 -1       188    8    0    1
 -2        18       176       175      1320      1321      1316
 -1       189    8    0    1
 -2        19        20       177      1135      1322      1323
 -1       190    8    0    1
 -2        19       177       176      1323      1324      1319
 -1       191    8    0    1
 -2        20        21       178      1136      1325      1326
 -1       192    8    0    1
 -2        20       178       177      1326      1327      1322
 -1       193    8    0    1
 -2        21        22       179      1137      1328      1329
 -1       194    8    0    1
 -2        21       179       178      1329      1330      1325
 -1       195    8    0    1
 -2        22         5       180      1138      1331      1332
 -1       196    8    0    1
 -2       179        22       180      1328      1332      1333
 -1       197    8    0    1
 -2         5        72       180      1189      1334      1331
 -1       198    8    0    1
 -2        24        23       181      1140      1335      1336
 -1       199    8    0    1
 -2        25        24       182      1141      1337      1338
 -1       200    8    0    1
 -2        24       181       182      1336      1339      1337
 -1       201    8    0    1
 -2        26        25       183      1142      1340      1341
 -1       202    8    0    1
 -2        25       182       183      1338      1342      1340
 -1       203    8    0    1
 -2        27        26       184      1143      1343      1344
 -1       204    8    0    1
 -2        26       183       184      1341      1345      1343
 -1       205    8    0    1
 -2        28        27       185      1144      1346      1347
 -1       206    8    0    1
 -2        27       184       185      1344      1348      1346
 -1       207    8    0    1
 -2        29        28       186      1145      1349      1350
 -1       208    8    0    1
 -2        28       185       186      1347      1351      1349
 -1       209    8    0    1
 -2        30        29       187      1146      1352      1353
 -1       210    8    0    1
 -2        29       186       187      1350      1354      1352
 -1       211    8    0    1
 -2        31        30       188      1147      1355      1356
 -1       212    8    0    1
 -2        30       187       188      1353      1357      1355
 -1       213    8    0    1
 -2        32        31       189      1148      1358      1359
 -1       214    8    0    1
 -2        31       188       189      1356      1360      1358
 -1       215    8    0    1
 -2        33        32       190      1149      1361      1362
 -1       216    8    0    1
 -2        32       189       190      1359      1363      1361
 -1       217    8    0    1
 -2        34        33       191      1150      1364      1365
 -1       218    8    0    1
 -2        33       190       191      1362      1366      1364
 -1       219    8    0    1
 -2        35        34       192      1151      1367      1368
 -1       220    8    0    1
 -2        34       191       192      1365      1369      1367
 -1       221    8    0    1
 -2        36        35       193      1152      1370      1371
 -1       222    8    0    1
 -2        35       192       193      1368      1372      1370
 -1       223    8    0    1
 -2        37        36       194      1153      1373      1374
 -1       224    8    0    1
 -2        36       193       194      1371      1375      1373
 -1       225    8    0    1
 -2        38        37       195      1154      1376      1377
 -1       226    8    0    1
 -2        37       194       195      1374      1378      1376
 -1       227    8    0    1
 -2        39        38       196      1155      1379      1380
 -1       228    8    0    1
 -2        38       195       196      1377      1381      1379
 -1       229    8    0    1
 -2        40        39       197      1156      1382      1383
 -1       230    8    0    1
 -2        39       196       197      1380      1384      1382
 -1       231    8    0    1
 -2        41        40       198      1157      1385      1386
 -1       232    8    0    1
 -2        40       197       198      1383      1387      1385
 -1       233    8    0    1
 -2        42        41       199      1158      1388      1389
 -1       234    8    0    1
 -2        41       198       199      1386      1390      1388
 -1       235    8    0    1
 -2        43        42       200      1159      1391      1392
 -1       236    8    0    1
 -2        42       199       200      1389      1393      1391
 -1       237    8    0    1
 -2        44        43       201      1160      1394      1395
 -1       238    8    0    1
 -2        43       200       201      1392      1396      1394
 -1       239    8    0    1
 -2        45        44       202      1161      1397      1398
 -1       240    8    0    1
 -2        44       201       202      1395      1399      1397
 -1       241    8    0    1
 -2        46        45       203      1162      1400      1401
 -1       242    8    0    1
 -2        45       202       203      1398      1402      1400
 -1       243    8    0    1
 -2        47        46       204      1163      1403      1404
 -1       244    8    0    1
 -2        46       203       204      1401      1405      1403
 -1       245    8    0    1
 -2        48        47       205      1164      1406      1407
 -1       246    8    0    1
 -2        47       204       205      1404      1408      1406
 -1       247    8    0    1
 -2        49        48       206      1165      1409      1410
 -1       248    8    0    1
 -2        48       205       206      1407      1411      1409
 -1       249    8    0    1
 -2        50        49       207      1166      1412      1413
 -1       250    8    0    1
 -2        49       206       207      1410      1414      1412
 -1       251    8    0    1
 -2        51        50       208      1167      1415      1416
 -1       252    8    0    1
 -2        50       207       208      1413      1417      1415
 -1       253    8    0    1
 -2        52        51       209      1168      1418      1419
 -1       254    8    0    1
 -2        51       208       209      1416      1420      1418
 -1       255    8    0    1
 -2        53        52       210      1169      1421      1422
 -1       256    8    0    1
 -2        52       209       210      1419      1423      1421
 -1       257    8    0    1
 -2        54        53       211      1170      1424      1425
 -1       258    8    0    1
 -2        53       210       211      1422      1426      1424
 -1       259    8    0    1
 -2        55        54       212      1171      1427      1428
 -1       260    8    0    1
 -2        54       211       212      1425      1429      1427
 -1       261    8    0    1
 -2        56        55       213      1172      1430      1431
 -1       262    8    0    1
 -2        55       212       213      1428      1432      1430
 -1       263    8    0    1
 -2        57        56       214      1173      1433      1434
 -1       264    8    0    1
 -2        56       213       214      1431      1435      1433
 -1       265    8    0    1
 -2        58        57       215      1174      1436      1437
 -1       266    8    0    1
 -2        57       214       215      1434      1438      1436
 -1       267    8    0    1
 -2        59        58       216      1175      1439      1440
 -1       268    8    0    1
 -2        58       215       216      1437      1441      1439
 -1       269    8    0    1
 -2        60        59       217      1176      1442      1443
 -1       270    8    0    1
 -2        59       216       217      1440      1444      1442
 -1       271    8    0    1
 -2        61        60       218      1177      1445      1446
 -1       272    8    0    1
 -2        60       217       218      1443      1447      1445
 -1       273    8    0    1
 -2        62        61       219      1178      1448      1449
 -1       274    8    0    1
 -2        61       218       219      1446      1450      1448
 -1       275    8    0    1
 -2        63        62       220      1179      1451      1452
 -1       276    8    0    1
 -2        62       219       220      1449      1453      1451
 -1       277    8    0    1
 -2        64        63       221      1180      1454      1455
 -1       278    8    0    1
 -2        63       220       221      1452      1456      1454
 -1       279    8    0    1
 -2        65        64       222      1181      1457      1458
 -1       280    8    0    1
 -2        64       221       222      1455      1459      1457
 -1       281    8    0    1
 -2        66        65       223      1182      1460      1461
 -1       282    8    0    1
 -2        65       222       223      1458      1462      1460
 -1       283    8    0    1
 -2        67        66       224      1183      1463      1464
 -1       284    8    0    1
 -2        66       223       224      1461      1465      1463
 -1       285    8    0    1
 -2        68        67       225      1184      1466      1467
 -1       286    8    0    1
 -2        67       224       225      1464      1468      1466
 -1       287    8    0    1
 -2        69        68       226      1185      1469      1470
 -1       288    8    0    1
 -2        68       225       226      1467      1471      1469
 -1       289    8    0    1
 -2        70        69       227      1186      1472      1473
 -1       290    8    0    1
 -2        69       226       227      1470      1474      1472
 -1       291    8    0    1
 -2        71        70       228      1187      1475      1476
 -1       292    8    0    1
 -2        70       227       228      1473      1477      1475
 -1       293    8    0    1
 -2         4        71       136      1188      1478      1255
 -1       294    8    0    1
 -2       136        71       228      1478      1476      1479
 -1       295    8    0    1
 -2        72        73       229      1190      1480      1481
 -1       296    8    0    1
 -2        72       229       180      1481      1482      1334
 -1       297    8    0    1
 -2        73        74       230      1191      1483      1484
 -1       298    8    0    1
 -2        73       230       229      1484      1485      1480
 -1       299    8    0    1
 -2        74        75       231      1192      1486      1487
 -1       300    8    0    1
 -2        74       231       230      1487      1488      1483
 -1       301    8    0    1
 -2        75        76       232      1193      1489      1490
 -1       302    8    0    1
 -2        75       232       231      1490      1491      1486
 -1       303    8    0    1
 -2        76        77       233      1194      1492      1493
 -1       304    8    0    1
 -2        76       233       232      1493      1494      1489
 -1       305    8    0    1
 -2        77        78       234      1195      1495      1496
 -1       306    8    0    1
 -2        77       234       233      1496      1497      1492
 -1       307    8    0    1
 -2        78        79       235      1196      1498      1499
 -1       308    8    0    1
 -2        78       235       234      1499      1500      1495
 -1       309    8    0    1
 -2        79        80       236      1197      1501      1502
 -1       310    8    0    1
 -2        79       236       235      1502      1503      1498
 -1       311    8    0    1
 -2        80        81       237      1198      1504      1505
 -1       312    8    0    1
 -2        80       237       236      1505      1506      1501
 -1       313    8    0    1
 -2        81        82       238      1199      1507      1508
 -1       314    8    0    1
 -2        81       238       237      1508      1509      1504
 -1       315    8    0    1
 -2        82        83       239      1200      1510      1511
 -1       316    8    0    1
 -2        82       239       238      1511      1512      1507
 -1       317    8    0    1
 -2        83        84       240      1201      1513      1514
 -1       318    8    0    1
 -2        83       240       239      1514      1515      1510
 -1       319    8    0    1
 -2        84        85       241      1202      1516      1517
 -1       320    8    0    1
 -2        84       241       240      1517      1518      1513
 -1       321    8    0    1
 -2        85        86       242      1203      1519      1520
 -1       322    8    0    1
 -2        85       242       241      1520      1521      1516
 -1       323    8    0    1
 -2        86        87       243      1204      1522      1523
 -1       324    8    0    1
 -2        86       243       242      1523      1524      1519
 -1       325    8    0    1
 -2        87        88       244      1205      1525      1526
 -1       326    8    0    1
 -2        87       244       243      1526      1527      1522
 -1       327    8    0    1
 -2        88        89       245      1206      1528      1529
 -1       328    8    0    1
 -2        88       245       244      1529      1530      1525
 -1       329    8    0    1
 -2        89        90       246      1207      1531      1532
 -1       330    8    0    1
 -2        89       246       245      1532      1533      1528
 -1       331    8    0    1
 -2        90        91       247      1208      1534      1535
 -1       332    8    0    1
 -2        90       247       246      1535      1536      1531
 -1       333    8    0    1
 -2        91        92       248      1209      1537      1538
 -1       334    8    0    1
 -2        91       248       247      1538      1539      1534
 -1       335    8    0    1
 -2        92        93       249      1210      1540      1541
 -1       336    8    0    1
 -2        92       249       248      1541      1542      1537
 -1       337    8    0    1
 -2        93        94       250      1211      1543      1544
 -1       338    8    0    1
 -2        93       250       249      1544      1545      1540
 -1       339    8    0    1
 -2        94        95       251      1212      1546      1547
 -1       340    8    0    1
 -2        94       251       250      1547      1548      1543
 -1       341    8    0    1
 -2        95        96       252      1213      1549      1550
 -1       342    8    0    1
 -2        95       252       251      1550      1551      1546
 -1       343    8    0    1
 -2        96        97       253      1214      1552      1553
 -1       344    8    0    1
 -2        96       253       252      1553      1554      1549
 -1       345    8    0    1
 -2        97        98       254      1215      1555      1556
 -1       346    8    0    1
 -2        97       254       253      1556      1557      1552
 -1       347    8    0    1
 -2        98        99       255      1216      1558      1559
 -1       348    8    0    1
 -2        98       255       254      1559      1560      1555
 -1       349    8    0    1
 -2        99       100       256      1217      1561      1562
 -1       350    8    0    1
 -2        99       256       255      1562      1563      1558
 -1       351    8    0    1
 -2       100       101       257      1218      1564      1565
 -1       352    8    0    1
 -2       100       257       256      1565      1566      1561
 -1       353    8    0    1
 -2       101       102       258      1219      1567      1568
 -1       354    8    0    1
 -2       101       258       257      1568      1569      1564
 -1       355    8    0    1
 -2       102       103       259      1220      1570      1571
 -1       356    8    0    1
 -2       102       259       258      1571      1572      1567
 -1       357    8    0    1
 -2       103       104       260      1221      1573      1574
 -1       358    8    0    1
 -2       103       260       259      1574      1575      1570
 -1       359    8    0    1
 -2       104       105       261      1222      1576      1577
 -1       360    8    0    1
 -2       104       261       260      1577      1578      1573
 -1       361    8    0    1
 -2       105       106       262      1223      1579      1580
 -1       362    8    0    1
 -2       105       262       261      1580      1581      1576
 -1       363    8    0    1
 -2       106       107       263      1224      1582      1583
 -1       364    8    0    1
 -2       106       263       262      1583      1584      1579
 -1       365    8    0    1
 -2       107       108       264      1225      1585      1586
 -1       366    8    0    1
 -2       107       264       263      1586      1587      1582
 -1       367    8    0    1
 -2       108       109       265      1226      1588      1589
 -1       368    8    0    1
 -2       108       265       264      1589      1590      1585
 -1       369    8    0    1
 -2       109       110       266      1227      1591      1592
 -1       370    8    0    1
 -2       109       266       265      1592      1593      1588
 -1       371    8    0    1
 -2       110       111       267      1228      1594      1595
 -1       372    8    0    1
 -2       110       267       266      1595      1596      1591
 -1       373    8    0    1
 -2       111       112       268      1229      1597      1598
 -1       374    8    0    1
 -2       111       268       267      1598      1599      1594
 -1       375    8    0    1
 -2       112       113       269      1230      1600      1601
 -1       376    8    0    1
 -2       112       269       268      1601      1602      1597
 -1       377    8    0    1
 -2       113       114       270      1231      1603      1604
 -1       378    8    0    1
 -2       113       270       269      1604      1605      1600
 -1       379    8    0    1
 -2       114       115       271      1232      1606      1607
 -1       380    8    0    1
 -2       114       271       270      1607      1608      1603
 -1       381    8    0    1
 -2       115       116       272      1233      1609      1610
 -1       382    8    0    1
 -2       115       272       271      1610      1611      1606
 -1       383    8    0    1
 -2       116       117       273      1234      1612      1613
 -1       384    8    0    1
 -2       116       273       272      1613      1614      1609
 -1       385    8    0    1
 -2       117       118       274      1235      1615      1616
 -1       386    8    0    1
 -2       117       274       273      1616      1617      1612
 -1       387    8    0    1
 -2       118       119       275      1236      1618      1619
 -1       388    8    0    1
 -2       118       275       274      1619      1620      1615
 -1       389    8    0    1
 -2       119       120       276      1237      1621      1622
 -1       390    8    0    1
 -2       119       276       275      1622      1623      1618
 -1       391    8    0    1
 -2       120         3       121      1238      1239      1624
 -1       392    8    0    1
 -2       121       122       277      1240      1625      1626
 -1       393    8    0    1
 -2       122       123       278      1241      1627      1628
 -1       394    8    0    1
 -2       122       278       277      1628      1629      1625
 -1       395    8    0    1
 -2       123       124       279      1242      1630      1631
 -1       396    8    0    1
 -2       123       279       278      1631      1632      1627
 -1       397    8    0    1
 -2       124       125       280      1243      1633      1634
 -1       398    8    0    1
 -2       124       280       279      1634      1635      1630
 -1       399    8    0    1
 -2       125       126       281      1244      1636      1637
 -1       400    8    0    1
 -2       125       281       280      1637      1638      1633
 -1       401    8    0    1
 -2       126       127       282      1245      1639      1640
 -1       402    8    0    1
 -2       126       282       281      1640      1641      1636
 -1       403    8    0    1
 -2       127       128       283      1246      1642      1643
 -1       404    8    0    1
 -2       127       283       282      1643      1644      1639
 -1       405    8    0    1
 -2       128       129       284      1247      1645      1646
 -1       406    8    0    1
 -2       128       284       283      1646      1647      1642
 -1       407    8    0    1
 -2       129       130       285      1248      1648      1649
 -1       408    8    0    1
 -2       129       285       284      1649      1650      1645
 -1       409    8    0    1
 -2       130       131       286      1249      1651      1652
 -1       410    8    0    1
 -2       130       286       285      1652      1653      1648
 -1       411    8    0    1
 -2       131       132       287      1250      1654      1655
 -1       412    8    0    1
 -2       131       287       286      1655      1656      1651
 -1       413    8    0    1
 -2       132       133       288      1251      1657      1658
 -1       414    8    0    1
 -2       132       288       287      1658      1659      1654
 -1       415    8    0    1
 -2       133       134       289      1252      1660      1661
 -1       416    8    0    1
 -2       133       289       288      1661      1662      1657
 -1       417    8    0    1
 -2       134       135       290      1253      1663      1664
 -1       418    8    0    1
 -2       134       290       289      1664      1665      1660
 -1       419    8    0    1
 -2       135       136       291      1254      1666      1667
 -1       420    8    0    1
 -2       290       135       291      1663      1667      1668
 -1       421    8    0    1
 -2       136       228       291      1479      1669      1666
 -1       422    8    0    1
 -2         2       137       292      1256      1670      1671
 -1       423    8    0    1
 -2       137       138       293      1257      1672      1673
 -1       424    8    0    1
 -2       138       139       294      1258      1674      1675
 -1       425    8    0    1
 -2       139       140       295      1259      1676      1677
 -1       426    8    0    1
 -2       140       141       296      1260      1678      1679
 -1       427    8    0    1
 -2       141       142       297      1261      1680      1681
 -1       428    8    0    1
 -2       142       143       298      1262      1682      1683
 -1       429    8    0    1
 -2       143       144       299      1263      1684      1685
 -1       430    8    0    1
 -2       144       145       300      1264      1686      1687
 -1       431    8    0    1
 -2       145       146       301      1265      1688      1689
 -1       432    8    0    1
 -2       146       147       302      1266      1690      1691
 -1       433    8    0    1
 -2       147       148       303      1267      1692      1693
 -1       434    8    0    1
 -2       148       149       304      1268      1694      1695
 -1       435    8    0    1
 -2       149       150       305      1269      1696      1697
 -1       436    8    0    1
 -2       150       151       306      1270      1698      1699
 -1       437    8    0    1
 -2       151       152       307      1271      1700      1701
 -1       438    8    0    1
 -2       152       153       308      1272      1702      1703
 -1       439    8    0    1
 -2       153       154       309      1273      1704      1705
 -1       440    8    0    1
 -2       154       155       310      1274      1706      1707
 -1       441    8    0    1
 -2       155       156       311      1275      1708      1709
 -1       442    8    0    1
 -2       156       157       312      1276      1710      1711
 -1       443    8    0    1
 -2       157         1       313      1277      1712      1713
 -1       444    8    0    1
 -2         1       158       314      1278      1714      1715
 -1       445    8    0    1
 -2       158       159       315      1279      1716      1717
 -1       446    8    0    1
 -2       159       160       316      1280      1718      1719
 -1       447    8    0    1
 -2       160       161       317      1281      1720      1721
 -1       448    8    0    1
 -2       161       162       318      1282      1722      1723
 -1       449    8    0    1
 -2       162       163       319      1283      1724      1725
 -1       450    8    0    1
 -2       163       164       320      1284      1726      1727
 -1       451    8    0    1
 -2       164         2       321      1285      1728      1729
 -1       452    8    0    1
 -2       295       140       296      1676      1679      1730
 -1       453    8    0    1
 -2       294       139       295      1674      1677      1731
 -1       454    8    0    1
 -2       120       121       276      1624      1732      1621
 -1       455    8    0    1
 -2       121       277       276      1626      1733      1732
 -1       456    8    0    1
 -2       292       137       293      1670      1673      1734
 -1       457    8    0    1
 -2       293       138       294      1672      1675      1735
 -1       458    8    0    1
 -2         2       292       321      1671      1736      1728
 -1       459    8    0    1
 -2       141       297       296      1681      1737      1678
 -1       460    8    0    1
 -2       142       298       297      1683      1738      1680
 -1       461    8    0    1
 -2       143       299       298      1685      1739      1682
 -1       462    8    0    1
 -2       144       300       299      1687      1740      1684
 -1       463    8    0    1
 -2       145       301       300      1689      1741      1686
 -1       464    8    0    1
 -2       146       302       301      1691      1742      1688
 -1       465    8    0    1
 -2       147       303       302      1693      1743      1690
 -1       466    8    0    1
 -2       148       304       303      1695      1744      1692
 -1       467    8    0    1
 -2       149       305       304      1697      1745      1694
 -1       468    8    0    1
 -2       150       306       305      1699      1746      1696
 -1       469    8    0    1
 -2       151       307       306      1701      1747      1698
 -1       470    8    0    1
 -2       152       308       307      1703      1748      1700
 -1       471    8    0    1
 -2       153       309       308      1705      1749      1702
 -1       472    8    0    1
 -2       154       310       309      1707      1750      1704
 -1       473    8    0    1
 -2       155       311       310      1709      1751      1706
 -1       474    8    0    1
 -2       156       312       311      1711      1752      1708
 -1       475    8    0    1
 -2       157       313       312      1713      1753      1710
 -1       476    8    0    1
 -2         1       314       313      1715      1754      1712
 -1       477    8    0    1
 -2       158       315       314      1717      1755      1714
 -1       478    8    0    1
 -2       159       316       315      1719      1756      1716
 -1       479    8    0    1
 -2       160       317       316      1721      1757      1718
 -1       480    8    0    1
 -2       161       318       317      1723      1758      1720
 -1       481    8    0    1
 -2       162       319       318      1725      1759      1722
 -1       482    8    0    1
 -2       163       320       319      1727      1760      1724
 -1       483    8    0    1
 -2       164       321       320      1729      1761      1726
 -1       484    8    0    1
 -2        23         7       165      1286      1288      1762
 -1       485    8    0    1
 -2       166       167       322      1294      1763      1764
 -1       486    8    0    1
 -2       165       166       323      1291      1765      1766
 -1       487    8    0    1
 -2       166       322       323      1764      1767      1765
 -1       488    8    0    1
 -2       168       169       324      1300      1768      1769
 -1       489    8    0    1
 -2       169       170       325      1303      1770      1771
 -1       490    8    0    1
 -2       169       325       324      1771      1772      1768
 -1       491    8    0    1
 -2       170       171       326      1306      1773      1774
 -1       492    8    0    1
 -2       170       326       325      1774      1775      1770
 -1       493    8    0    1
 -2       171       172       327      1309      1776      1777
 -1       494    8    0    1
 -2       171       327       326      1777      1778      1773
 -1       495    8    0    1
 -2       172       173       328      1312      1779      1780
 -1       496    8    0    1
 -2       172       328       327      1780      1781      1776
 -1       497    8    0    1
 -2       173       174       329      1315      1782      1783
 -1       498    8    0    1
 -2       173       329       328      1783      1784      1779
 -1       499    8    0    1
 -2       174       175       330      1318      1785      1786
 -1       500    8    0    1
 -2       174       330       329      1786      1787      1782
 -1       501    8    0    1
 -2       175       176       331      1321      1788      1789
 -1       502    8    0    1
 -2       175       331       330      1789      1790      1785
 -1       503    8    0    1
 -2       176       177       332      1324      1791      1792
 -1       504    8    0    1
 -2       176       332       331      1792      1793      1788
 -1       505    8    0    1
 -2       177       178       333      1327      1794      1795
 -1       506    8    0    1
 -2       177       333       332      1795      1796      1791
 -1       507    8    0    1
 -2       178       179       334      1330      1797      1798
 -1       508    8    0    1
 -2       178       334       333      1798      1799      1794
 -1       509    8    0    1
 -2       179       180       335      1333      1800      1801
 -1       510    8    0    1
 -2       334       179       335      1797      1801      1802
 -1       511    8    0    1
 -2       180       229       335      1482      1803      1800
 -1       512    8    0    1
 -2       181        23       165      1335      1762      1804
 -1       513    8    0    1
 -2       229       230       336      1485      1805      1806
 -1       514    8    0    1
 -2       229       336       335      1806      1807      1803
 -1       515    8    0    1
 -2       181       165       323      1804      1766      1808
 -1       516    8    0    1
 -2       183       182       337      1342      1809      1810
 -1       517    8    0    1
 -2       184       183       338      1345      1811      1812
 -1       518    8    0    1
 -2       183       337       338      1810      1813      1811
 -1       519    8    0    1
 -2       185       184       339      1348      1814      1815
 -1       520    8    0    1
 -2       184       338       339      1812      1816      1814
 -1       521    8    0    1
 -2       186       185       340      1351      1817      1818
 -1       522    8    0    1
 -2       185       339       340      1815      1819      1817
 -1       523    8    0    1
 -2       187       186       341      1354      1820      1821
 -1       524    8    0    1
 -2       186       340       341      1818      1822      1820
 -1       525    8    0    1
 -2       188       187       342      1357      1823      1824
 -1       526    8    0    1
 -2       187       341       342      1821      1825      1823
 -1       527    8    0    1
 -2       189       188       343      1360      1826      1827
 -1       528    8    0    1
 -2       188       342       343      1824      1828      1826
 -1       529    8    0    1
 -2       190       189       344      1363      1829      1830
 -1       530    8    0    1
 -2       189       343       344      1827      1831      1829
 -1       531    8    0    1
 -2       191       190       345      1366      1832      1833
 -1       532    8    0    1
 -2       190       344       345      1830      1834      1832
 -1       533    8    0    1
 -2       192       191       346      1369      1835      1836
 -1       534    8    0    1
 -2       191       345       346      1833      1837      1835
 -1       535    8    0    1
 -2       193       192       347      1372      1838      1839
 -1       536    8    0    1
 -2       192       346       347      1836      1840      1838
 -1       537    8    0    1
 -2       194       193       348      1375      1841      1842
 -1       538    8    0    1
 -2       193       347       348      1839      1843      1841
 -1       539    8    0    1
 -2       195       194       349      1378      1844      1845
 -1       540    8    0    1
 -2       194       348       349      1842      1846      1844
 -1       541    8    0    1
 -2       196       195       350      1381      1847      1848
 -1       542    8    0    1
 -2       195       349       350      1845      1849      1847
 -1       543    8    0    1
 -2       197       196       351      1384      1850      1851
 -1       544    8    0    1
 -2       196       350       351      1848      1852      1850
 -1       545    8    0    1
 -2       198       197       352      1387      1853      1854
 -1       546    8    0    1
 -2       197       351       352      1851      1855      1853
 -1       547    8    0    1
 -2       199       198       353      1390      1856      1857
 -1       548    8    0    1
 -2       198       352       353      1854      1858      1856
 -1       549    8    0    1
 -2       200       199       354      1393      1859      1860
 -1       550    8    0    1
 -2       199       353       354      1857      1861      1859
 -1       551    8    0    1
 -2       201       200       355      1396      1862      1863
 -1       552    8    0    1
 -2       200       354       355      1860      1864      1862
 -1       553    8    0    1
 -2       202       201       356      1399      1865      1866
 -1       554    8    0    1
 -2       201       355       356      1863      1867      1865
 -1       555    8    0    1
 -2       203       202       357      1402      1868      1869
 -1       556    8    0    1
 -2       202       356       357      1866      1870      1868
 -1       557    8    0    1
 -2       204       203       358      1405      1871      1872
 -1       558    8    0    1
 -2       203       357       358      1869      1873      1871
 -1       559    8    0    1
 -2       205       204       359      1408      1874      1875
 -1       560    8    0    1
 -2       204       358       359      1872      1876      1874
 -1       561    8    0    1
 -2       206       205       360      1411      1877      1878
 -1       562    8    0    1
 -2       205       359       360      1875      1879      1877
 -1       563    8    0    1
 -2       207       206       361      1414      1880      1881
 -1       564    8    0    1
 -2       206       360       361      1878      1882      1880
 -1       565    8    0    1
 -2       208       207       362      1417      1883      1884
 -1       566    8    0    1
 -2       207       361       362      1881      1885      1883
 -1       567    8    0    1
 -2       209       208       363      1420      1886      1887
 -1       568    8    0    1
 -2       208       362       363      1884      1888      1886
 -1       569    8    0    1
 -2       210       209       364      1423      1889      1890
 -1       570    8    0    1
 -2       209       363       364      1887      1891      1889
 -1       571    8    0    1
 -2       211       210       365      1426      1892      1893
 -1       572    8    0    1
 -2       210       364       365      1890      1894      1892
 -1       573    8    0    1
 -2       212       211       366      1429      1895      1896
 -1       574    8    0    1
 -2       211       365       366      1893      1897      1895
 -1       575    8    0    1
 -2       213       212       367      1432      1898      1899
 -1       576    8    0    1
 -2       212       366       367      1896      1900      1898
 -1       577    8    0    1
 -2       214       213       368      1435      1901      1902
 -1       578    8    0    1
 -2       213       367       368      1899      1903      1901
 -1       579    8    0    1
 -2       215       214       369      1438      1904      1905
 -1       580    8    0    1
 -2       214       368       369      1902      1906      1904
 -1       581    8    0    1
 -2       216       215       370      1441      1907      1908
 -1       582    8    0    1
 -2       215       369       370      1905      1909      1907
 -1       583    8    0    1
 -2       217       216       371      1444      1910      1911
 -1       584    8    0    1
 -2       216       370       371      1908      1912      1910
 -1       585    8    0    1
 -2       218       217       372      1447      1913      1914
 -1       586    8    0    1
 -2       217       371       372      1911      1915      1913
 -1       587    8    0    1
 -2       219       218       373      1450      1916      1917
 -1       588    8    0    1
 -2       218       372       373      1914      1918      1916
 -1       589    8    0    1
 -2       220       219       374      1453      1919      1920
 -1       590    8    0    1
 -2       219       373       374      1917      1921      1919
 -1       591    8    0    1
 -2       221       220       375      1456      1922      1923
 -1       592    8    0    1
 -2       220       374       375      1920      1924      1922
 -1       593    8    0    1
 -2       222       221       376      1459      1925      1926
 -1       594    8    0    1
 -2       221       375       376      1923      1927      1925
 -1       595    8    0    1
 -2       223       222       377      1462      1928      1929
 -1       596    8    0    1
 -2       222       376       377      1926      1930      1928
 -1       597    8    0    1
 -2       224       223       378      1465      1931      1932
 -1       598    8    0    1
 -2       223       377       378      1929      1933      1931
 -1       599    8    0    1
 -2       225       224       379      1468      1934      1935
 -1       600    8    0    1
 -2       224       378       379      1932      1936      1934
 -1       601    8    0    1
 -2       226       225       380      1471      1937      1938
 -1       602    8    0    1
 -2       225       379       380      1935      1939      1937
 -1       603    8    0    1
 -2       227       226       381      1474      1940      1941
 -1       604    8    0    1
 -2       226       380       381      1938      1942      1940
 -1       605    8    0    1
 -2       228       227       382      1477      1943      1944
 -1       606    8    0    1
 -2       291       228       382      1669      1944      1945
 -1       607    8    0    1
 -2       227       381       382      1941      1946      1943
 -1       608    8    0    1
 -2       230       231       383      1488      1947      1948
 -1       609    8    0    1
 -2       230       383       336      1948      1949      1805
 -1       610    8    0    1
 -2       231       232       384      1491      1950      1951
 -1       611    8    0    1
 -2       231       384       383      1951      1952      1947
 -1       612    8    0    1
 -2       232       233       385      1494      1953      1954
 -1       613    8    0    1
 -2       232       385       384      1954      1955      1950
 -1       614    8    0    1
 -2       233       234       386      1497      1956      1957
 -1       615    8    0    1
 -2       233       386       385      1957      1958      1953
 -1       616    8    0    1
 -2       234       235       387      1500      1959      1960
 -1       617    8    0    1
 -2       234       387       386      1960      1961      1956
 -1       618    8    0    1
 -2       235       236       388      1503      1962      1963
 -1       619    8    0    1
 -2       235       388       387      1963      1964      1959
 -1       620    8    0    1
 -2       236       237       389      1506      1965      1966
 -1       621    8    0    1
 -2       236       389       388      1966      1967      1962
 -1       622    8    0    1
 -2       237       238       390      1509      1968      1969
 -1       623    8    0    1
 -2       237       390       389      1969      1970      1965
 -1       624    8    0    1
 -2       238       239       391      1512      1971      1972
 -1       625    8    0    1
 -2       238       391       390      1972      1973      1968
 -1       626    8    0    1
 -2       239       240       392      1515      1974      1975
 -1       627    8    0    1
 -2       239       392       391      1975      1976      1971
 -1       628    8    0    1
 -2       240       241       393      1518      1977      1978
 -1       629    8    0    1
 -2       240       393       392      1978      1979      1974
 -1       630    8    0    1
 -2       241       242       394      1521      1980      1981
 -1       631    8    0    1
 -2       241       394       393      1981      1982      1977
 -1       632    8    0    1
 -2       242       243       395      1524      1983      1984
 -1       633    8    0    1
 -2       242       395       394      1984      1985      1980
 -1       634    8    0    1
 -2       243       244       396      1527      1986      1987
 -1       635    8    0    1
 -2       243       396       395      1987      1988      1983
 -1       636    8    0    1
 -2       244       245       397      1530      1989      1990
 -1       637    8    0    1
 -2       244       397       396      1990      1991      1986
 -1       638    8    0    1
 -2       245       246       398      1533      1992      1993
 -1       639    8    0    1
 -2       245       398       397      1993      1994      1989
 -1       640    8    0    1
 -2       246       247       399      1536      1995      1996
 -1       641    8    0    1
 -2       246       399       398      1996      1997      1992
 -1       642    8    0    1
 -2       247       248       400      1539      1998      1999
 -1       643    8    0    1
 -2       247       400       399      1999      2000      1995
 -1       644    8    0    1
 -2       248       249       401      1542      2001      2002
 -1       645    8    0    1
 -2       248       401       400      2002      2003      1998
 -1       646    8    0    1
 -2       249       250       402      1545      2004      2005
 -1       647    8    0    1
 -2       249       402       401      2005      2006      2001
 -1       648    8    0    1
 -2       250       251       403      1548      2007      2008
 -1       649    8    0    1
 -2       250       403       402      2008      2009      2004
 -1       650    8    0    1
 -2       251       252       404      1551      2010      2011
 -1       651    8    0    1
 -2       251       404       403      2011      2012      2007
 -1       652    8    0    1
 -2       252       253       405      1554      2013      2014
 -1       653    8    0    1
 -2       252       405       404      2014      2015      2010
 -1       654    8    0    1
 -2       253       254       406      1557      2016      2017
 -1       655    8    0    1
 -2       253       406       405      2017      2018      2013
 -1       656    8    0    1
 -2       254       255       407      1560      2019      2020
 -1       657    8    0    1
 -2       254       407       406      2020      2021      2016
 -1       658    8    0    1
 -2       255       256       408      1563      2022      2023
 -1       659    8    0    1
 -2       255       408       407      2023      2024      2019
 -1       660    8    0    1
 -2       256       257       409      1566      2025      2026
 -1       661    8    0    1
 -2       256       409       408      2026      2027      2022
 -1       662    8    0    1
 -2       257       258       410      1569      2028      2029
 -1       663    8    0    1
 -2       257       410       409      2029      2030      2025
 -1       664    8    0    1
 -2       258       259       411      1572      2031      2032
 -1       665    8    0    1
 -2       258       411       410      2032      2033      2028
 -1       666    8    0    1
 -2       259       260       412      1575      2034      2035
 -1       667    8    0    1
 -2       259       412       411      2035      2036      2031
 -1       668    8    0    1
 -2       260       261       413      1578      2037      2038
 -1       669    8    0    1
 -2       260       413       412      2038      2039      2034
 -1       670    8    0    1
 -2       261       262       414      1581      2040      2041
 -1       671    8    0    1
 -2       261       414       413      2041      2042      2037
 -1       672    8    0    1
 -2       262       263       415      1584      2043      2044
 -1       673    8    0    1
 -2       262       415       414      2044      2045      2040
 -1       674    8    0    1
 -2       263       264       416      1587      2046      2047
 -1       675    8    0    1
 -2       263       416       415      2047      2048      2043
 -1       676    8    0    1
 -2       264       265       417      1590      2049      2050
 -1       677    8    0    1
 -2       264       417       416      2050      2051      2046
 -1       678    8    0    1
 -2       265       266       418      1593      2052      2053
 -1       679    8    0    1
 -2       265       418       417      2053      2054      2049
 -1       680    8    0    1
 -2       266       267       419      1596      2055      2056
 -1       681    8    0    1
 -2       266       419       418      2056      2057      2052
 -1       682    8    0    1
 -2       267       268       420      1599      2058      2059
 -1       683    8    0    1
 -2       267       420       419      2059      2060      2055
 -1       684    8    0    1
 -2       268       269       421      1602      2061      2062
 -1       685    8    0    1
 -2       268       421       420      2062      2063      2058
 -1       686    8    0    1
 -2       269       270       422      1605      2064      2065
 -1       687    8    0    1
 -2       269       422       421      2065      2066      2061
 -1       688    8    0    1
 -2       270       271       423      1608      2067      2068
 -1       689    8    0    1
 -2       270       423       422      2068      2069      2064
 -1       690    8    0    1
 -2       271       272       424      1611      2070      2071
 -1       691    8    0    1
 -2       271       424       423      2071      2072      2067
 -1       692    8    0    1
 -2       272       273       425      1614      2073      2074
 -1       693    8    0    1
 -2       272       425       424      2074      2075      2070
 -1       694    8    0    1
 -2       273       274       426      1617      2076      2077
 -1       695    8    0    1
 -2       273       426       425      2077      2078      2073
 -1       696    8    0    1
 -2       274       275       427      1620      2079      2080
 -1       697    8    0    1
 -2       274       427       426      2080      2081      2076
 -1       698    8    0    1
 -2       275       276       428      1623      2082      2083
 -1       699    8    0    1
 -2       427       275       428      2079      2083      2084
 -1       700    8    0    1
 -2       276       277       428      1733      2085      2082
 -1       701    8    0    1
 -2       279       280       429      1635      2086      2087
 -1       702    8    0    1
 -2       278       279       430      1632      2088      2089
 -1       703    8    0    1
 -2       279       429       430      2087      2090      2088
 -1       704    8    0    1
 -2       277       278       431      1629      2091      2092
 -1       705    8    0    1
 -2       428       277       431      2085      2092      2093
 -1       706    8    0    1
 -2       278       430       431      2089      2094      2091
 -1       707    8    0    1
 -2       280       281       432      1638      2095      2096
 -1       708    8    0    1
 -2       280       432       429      2096      2097      2086
 -1       709    8    0    1
 -2       281       282       433      1641      2098      2099
 -1       710    8    0    1
 -2       281       433       432      2099      2100      2095
 -1       711    8    0    1
 -2       282       283       434      1644      2101      2102
 -1       712    8    0    1
 -2       282       434       433      2102      2103      2098
 -1       713    8    0    1
 -2       283       284       435      1647      2104      2105
 -1       714    8    0    1
 -2       283       435       434      2105      2106      2101
 -1       715    8    0    1
 -2       284       285       436      1650      2107      2108
 -1       716    8    0    1
 -2       284       436       435      2108      2109      2104
 -1       717    8    0    1
 -2       285       286       437      1653      2110      2111
 -1       718    8    0    1
 -2       285       437       436      2111      2112      2107
 -1       719    8    0    1
 -2       286       287       438      1656      2113      2114
 -1       720    8    0    1
 -2       286       438       437      2114      2115      2110
 -1       721    8    0    1
 -2       287       288       439      1659      2116      2117
 -1       722    8    0    1
 -2       287       439       438      2117      2118      2113
 -1       723    8    0    1
 -2       288       289       440      1662      2119      2120
 -1       724    8    0    1
 -2       288       440       439      2120      2121      2116
 -1       725    8    0    1
 -2       289       290       441      1665      2122      2123
 -1       726    8    0    1
 -2       289       441       440      2123      2124      2119
 -1       727    8    0    1
 -2       293       294       442      1735      2125      2126
 -1       728    8    0    1
 -2       321       292       443      1736      2127      2128
 -1       729    8    0    1
 -2       292       293       444      1734      2129      2130
 -1       730    8    0    1
 -2       292       444       443      2130      2131      2127
 -1       731    8    0    1
 -2       294       295       445      1731      2132      2133
 -1       732    8    0    1
 -2       295       296       446      1730      2134      2135
 -1       733    8    0    1
 -2       167       168       447      1297      2136      2137
 -1       734    8    0    1
 -2       322       167       447      1763      2137      2138
 -1       735    8    0    1
 -2       168       324       447      1769      2139      2136
 -1       736    8    0    1
 -2       297       298       448      1738      2140      2141
 -1       737    8    0    1
 -2       298       299       449      1739      2142      2143
 -1       738    8    0    1
 -2       299       300       450      1740      2144      2145
 -1       739    8    0    1
 -2       300       301       451      1741      2146      2147
 -1       740    8    0    1
 -2       301       302       452      1742      2148      2149
 -1       741    8    0    1
 -2       301       452       451      2149      2150      2146
 -1       742    8    0    1
 -2       302       303       453      1743      2151      2152
 -1       743    8    0    1
 -2       303       304       454      1744      2153      2154
 -1       744    8    0    1
 -2       304       305       455      1745      2155      2156
 -1       745    8    0    1
 -2       305       306       456      1746      2157      2158
 -1       746    8    0    1
 -2       306       307       457      1747      2159      2160
 -1       747    8    0    1
 -2       307       308       458      1748      2161      2162
 -1       748    8    0    1
 -2       308       309       459      1749      2163      2164
 -1       749    8    0    1
 -2       309       310       460      1750      2165      2166
 -1       750    8    0    1
 -2       310       311       461      1751      2167      2168
 -1       751    8    0    1
 -2       311       312       462      1752      2169      2170
 -1       752    8    0    1
 -2       312       313       463      1753      2171      2172
 -1       753    8    0    1
 -2       313       314       464      1754      2173      2174
 -1       754    8    0    1
 -2       314       315       465      1755      2175      2176
 -1       755    8    0    1
 -2       314       465       464      2176      2177      2173
 -1       756    8    0    1
 -2       315       316       466      1756      2178      2179
 -1       757    8    0    1
 -2       316       317       467      1757      2180      2181
 -1       758    8    0    1
 -2       317       318       468      1758      2182      2183
 -1       759    8    0    1
 -2       318       319       469      1759      2184      2185
 -1       760    8    0    1
 -2       319       320       470      1760      2186      2187
 -1       761    8    0    1
 -2       320       321       471      1761      2188      2189
 -1       762    8    0    1
 -2       320       471       470      2189      2190      2186
 -1       763    8    0    1
 -2       296       297       472      1737      2191      2192
 -1       764    8    0    1
 -2       446       296       472      2134      2192      2193
 -1       765    8    0    1
 -2       181       323       182      1808      2194      1339
 -1       766    8    0    1
 -2       297       448       472      2141      2195      2191
 -1       767    8    0    1
 -2       337       182       323      1809      2194      2196
 -1       768    8    0    1
 -2       444       293       442      2129      2126      2197
 -1       769    8    0    1
 -2       294       445       473      2133      2198      2199
 -1       770    8    0    1
 -2       294       473       442      2199      2200      2125
 -1       771    8    0    1
 -2       441       290       291      2122      1668      2201
 -1       772    8    0    1
 -2       321       443       471      2128      2202      2188
 -1       773    8    0    1
 -2       445       295       446      2132      2135      2203
 -1       774    8    0    1
 -2       469       319       470      2184      2187      2204
 -1       775    8    0    1
 -2       468       318       469      2182      2185      2205
 -1       776    8    0    1
 -2       467       317       468      2180      2183      2206
 -1       777    8    0    1
 -2       465       315       466      2175      2179      2207
 -1       778    8    0    1
 -2       463       313       464      2171      2174      2208
 -1       779    8    0    1
 -2       462       312       463      2169      2172      2209
 -1       780    8    0    1
 -2       461       311       462      2167      2170      2210
 -1       781    8    0    1
 -2       460       310       461      2165      2168      2211
 -1       782    8    0    1
 -2       459       309       460      2163      2166      2212
 -1       783    8    0    1
 -2       458       308       459      2161      2164      2213
 -1       784    8    0    1
 -2       457       307       458      2159      2162      2214
 -1       785    8    0    1
 -2       456       306       457      2157      2160      2215
 -1       786    8    0    1
 -2       455       305       456      2155      2158      2216
 -1       787    8    0    1
 -2       454       304       455      2153      2156      2217
 -1       788    8    0    1
 -2       452       302       453      2148      2152      2218
 -1       789    8    0    1
 -2       450       300       451      2144      2147      2219
 -1       790    8    0    1
 -2       448       298       449      2140      2143      2220
 -1       791    8    0    1
 -2       449       299       450      2142      2145      2221
 -1       792    8    0    1
 -2       453       303       454      2151      2154      2222
 -1       793    8    0    1
 -2       466       316       467      2178      2181      2223
 -1       794    8    0    1
 -2       336       383       474      1949      2224      2225
 -1       795    8    0    1
 -2       325       326       475      1775      2226      2227
 -1       796    8    0    1
 -2       324       325       476      1772      2228      2229
 -1       797    8    0    1
 -2       325       475       476      2227      2230      2228
 -1       798    8    0    1
 -2       327       328       477      1781      2231      2232
 -1       799    8    0    1
 -2       328       329       478      1784      2233      2234
 -1       800    8    0    1
 -2       328       478       477      2234      2235      2231
 -1       801    8    0    1
 -2       329       330       479      1787      2236      2237
 -1       802    8    0    1
 -2       329       479       478      2237      2238      2233
 -1       803    8    0    1
 -2       330       331       480      1790      2239      2240
 -1       804    8    0    1
 -2       330       480       479      2240      2241      2236
 -1       805    8    0    1
 -2       331       332       481      1793      2242      2243
 -1       806    8    0    1
 -2       331       481       480      2243      2244      2239
 -1       807    8    0    1
 -2       332       333       482      1796      2245      2246
 -1       808    8    0    1
 -2       332       482       481      2246      2247      2242
 -1       809    8    0    1
 -2       383       384       483      1952      2248      2249
 -1       810    8    0    1
 -2       383       483       474      2249      2250      2224
 -1       811    8    0    1
 -2       338       337       484      1813      2251      2252
 -1       812    8    0    1
 -2       472       448       485      2195      2253      2254
 -1       813    8    0    1
 -2       339       338       486      1816      2255      2256
 -1       814    8    0    1
 -2       338       484       486      2252      2257      2255
 -1       815    8    0    1
 -2       340       339       487      1819      2258      2259
 -1       816    8    0    1
 -2       339       486       487      2256      2260      2258
 -1       817    8    0    1
 -2       341       340       488      1822      2261      2262
 -1       818    8    0    1
 -2       340       487       488      2259      2263      2261
 -1       819    8    0    1
 -2       342       341       489      1825      2264      2265
 -1       820    8    0    1
 -2       341       488       489      2262      2266      2264
 -1       821    8    0    1
 -2       343       342       490      1828      2267      2268
 -1       822    8    0    1
 -2       342       489       490      2265      2269      2267
 -1       823    8    0    1
 -2       344       343       491      1831      2270      2271
 -1       824    8    0    1
 -2       343       490       491      2268      2272      2270
 -1       825    8    0    1
 -2       345       344       492      1834      2273      2274
 -1       826    8    0    1
 -2       344       491       492      2271      2275      2273
 -1       827    8    0    1
 -2       346       345       493      1837      2276      2277
 -1       828    8    0    1
 -2       345       492       493      2274      2278      2276
 -1       829    8    0    1
 -2       347       346       494      1840      2279      2280
 -1       830    8    0    1
 -2       346       493       494      2277      2281      2279
 -1       831    8    0    1
 -2       348       347       495      1843      2282      2283
 -1       832    8    0    1
 -2       347       494       495      2280      2284      2282
 -1       833    8    0    1
 -2       349       348       496      1846      2285      2286
 -1       834    8    0    1
 -2       348       495       496      2283      2287      2285
 -1       835    8    0    1
 -2       350       349       497      1849      2288      2289
 -1       836    8    0    1
 -2       349       496       497      2286      2290      2288
 -1       837    8    0    1
 -2       351       350       498      1852      2291      2292
 -1       838    8    0    1
 -2       350       497       498      2289      2293      2291
 -1       839    8    0    1
 -2       352       351       499      1855      2294      2295
 -1       840    8    0    1
 -2       351       498       499      2292      2296      2294
 -1       841    8    0    1
 -2       353       352       500      1858      2297      2298
 -1       842    8    0    1
 -2       352       499       500      2295      2299      2297
 -1       843    8    0    1
 -2       354       353       501      1861      2300      2301
 -1       844    8    0    1
 -2       353       500       501      2298      2302      2300
 -1       845    8    0    1
 -2       355       354       502      1864      2303      2304
 -1       846    8    0    1
 -2       354       501       502      2301      2305      2303
 -1       847    8    0    1
 -2       356       355       503      1867      2306      2307
 -1       848    8    0    1
 -2       355       502       503      2304      2308      2306
 -1       849    8    0    1
 -2       357       356       504      1870      2309      2310
 -1       850    8    0    1
 -2       356       503       504      2307      2311      2309
 -1       851    8    0    1
 -2       358       357       505      1873      2312      2313
 -1       852    8    0    1
 -2       357       504       505      2310      2314      2312
 -1       853    8    0    1
 -2       359       358       506      1876      2315      2316
 -1       854    8    0    1
 -2       358       505       506      2313      2317      2315
 -1       855    8    0    1
 -2       360       359       507      1879      2318      2319
 -1       856    8    0    1
 -2       359       506       507      2316      2320      2318
 -1       857    8    0    1
 -2       361       360       508      1882      2321      2322
 -1       858    8    0    1
 -2       360       507       508      2319      2323      2321
 -1       859    8    0    1
 -2       362       361       509      1885      2324      2325
 -1       860    8    0    1
 -2       361       508       509      2322      2326      2324
 -1       861    8    0    1
 -2       363       362       510      1888      2327      2328
 -1       862    8    0    1
 -2       362       509       510      2325      2329      2327
 -1       863    8    0    1
 -2       364       363       511      1891      2330      2331
 -1       864    8    0    1
 -2       363       510       511      2328      2332      2330
 -1       865    8    0    1
 -2       365       364       512      1894      2333      2334
 -1       866    8    0    1
 -2       364       511       512      2331      2335      2333
 -1       867    8    0    1
 -2       366       365       513      1897      2336      2337
 -1       868    8    0    1
 -2       365       512       513      2334      2338      2336
 -1       869    8    0    1
 -2       367       366       514      1900      2339      2340
 -1       870    8    0    1
 -2       366       513       514      2337      2341      2339
 -1       871    8    0    1
 -2       368       367       515      1903      2342      2343
 -1       872    8    0    1
 -2       367       514       515      2340      2344      2342
 -1       873    8    0    1
 -2       369       368       516      1906      2345      2346
 -1       874    8    0    1
 -2       368       515       516      2343      2347      2345
 -1       875    8    0    1
 -2       370       369       517      1909      2348      2349
 -1       876    8    0    1
 -2       369       516       517      2346      2350      2348
 -1       877    8    0    1
 -2       371       370       518      1912      2351      2352
 -1       878    8    0    1
 -2       370       517       518      2349      2353      2351
 -1       879    8    0    1
 -2       372       371       519      1915      2354      2355
 -1       880    8    0    1
 -2       371       518       519      2352      2356      2354
 -1       881    8    0    1
 -2       373       372       520      1918      2357      2358
 -1       882    8    0    1
 -2       372       519       520      2355      2359      2357
 -1       883    8    0    1
 -2       374       373       521      1921      2360      2361
 -1       884    8    0    1
 -2       373       520       521      2358      2362      2360
 -1       885    8    0    1
 -2       375       374       522      1924      2363      2364
 -1       886    8    0    1
 -2       374       521       522      2361      2365      2363
 -1       887    8    0    1
 -2       376       375       523      1927      2366      2367
 -1       888    8    0    1
 -2       375       522       523      2364      2368      2366
 -1       889    8    0    1
 -2       377       376       524      1930      2369      2370
 -1       890    8    0    1
 -2       376       523       524      2367      2371      2369
 -1       891    8    0    1
 -2       378       377       525      1933      2372      2373
 -1       892    8    0    1
 -2       377       524       525      2370      2374      2372
 -1       893    8    0    1
 -2       379       378       526      1936      2375      2376
 -1       894    8    0    1
 -2       378       525       526      2373      2377      2375
 -1       895    8    0    1
 -2       380       379       527      1939      2378      2379
 -1       896    8    0    1
 -2       379       526       527      2376      2380      2378
 -1       897    8    0    1
 -2       381       380       528      1942      2381      2382
 -1       898    8    0    1
 -2       380       527       528      2379      2383      2381
 -1       899    8    0    1
 -2       385       386       529      1958      2384      2385
 -1       900    8    0    1
 -2       386       387       530      1961      2386      2387
 -1       901    8    0    1
 -2       386       530       529      2387      2388      2384
 -1       902    8    0    1
 -2       387       388       531      1964      2389      2390
 -1       903    8    0    1
 -2       387       531       530      2390      2391      2386
 -1       904    8    0    1
 -2       388       389       532      1967      2392      2393
 -1       905    8    0    1
 -2       388       532       531      2393      2394      2389
 -1       906    8    0    1
 -2       389       390       533      1970      2395      2396
 -1       907    8    0    1
 -2       389       533       532      2396      2397      2392
 -1       908    8    0    1
 -2       390       391       534      1973      2398      2399
 -1       909    8    0    1
 -2       390       534       533      2399      2400      2395
 -1       910    8    0    1
 -2       391       392       535      1976      2401      2402
 -1       911    8    0    1
 -2       391       535       534      2402      2403      2398
 -1       912    8    0    1
 -2       392       393       536      1979      2404      2405
 -1       913    8    0    1
 -2       392       536       535      2405      2406      2401
 -1       914    8    0    1
 -2       393       394       537      1982      2407      2408
 -1       915    8    0    1
 -2       393       537       536      2408      2409      2404
 -1       916    8    0    1
 -2       394       395       538      1985      2410      2411
 -1       917    8    0    1
 -2       394       538       537      2411      2412      2407
 -1       918    8    0    1
 -2       395       396       539      1988      2413      2414
 -1       919    8    0    1
 -2       395       539       538      2414      2415      2410
 -1       920    8    0    1
 -2       396       397       540      1991      2416      2417
 -1       921    8    0    1
 -2       396       540       539      2417      2418      2413
 -1       922    8    0    1
 -2       397       398       541      1994      2419      2420
 -1       923    8    0    1
 -2       397       541       540      2420      2421      2416
 -1       924    8    0    1
 -2       398       399       542      1997      2422      2423
 -1       925    8    0    1
 -2       398       542       541      2423      2424      2419
 -1       926    8    0    1
 -2       399       400       543      2000      2425      2426
 -1       927    8    0    1
 -2       399       543       542      2426      2427      2422
 -1       928    8    0    1
 -2       400       401       544      2003      2428      2429
 -1       929    8    0    1
 -2       400       544       543      2429      2430      2425
 -1       930    8    0    1
 -2       401       402       545      2006      2431      2432
 -1       931    8    0    1
 -2       401       545       544      2432      2433      2428
 -1       932    8    0    1
 -2       402       403       546      2009      2434      2435
 -1       933    8    0    1
 -2       402       546       545      2435      2436      2431
 -1       934    8    0    1
 -2       403       404       547      2012      2437      2438
 -1       935    8    0    1
 -2       403       547       546      2438      2439      2434
 -1       936    8    0    1
 -2       404       405       548      2015      2440      2441
 -1       937    8    0    1
 -2       404       548       547      2441      2442      2437
 -1       938    8    0    1
 -2       405       406       549      2018      2443      2444
 -1       939    8    0    1
 -2       405       549       548      2444      2445      2440
 -1       940    8    0    1
 -2       406       407       550      2021      2446      2447
 -1       941    8    0    1
 -2       406       550       549      2447      2448      2443
 -1       942    8    0    1
 -2       407       408       551      2024      2449      2450
 -1       943    8    0    1
 -2       407       551       550      2450      2451      2446
 -1       944    8    0    1
 -2       408       409       552      2027      2452      2453
 -1       945    8    0    1
 -2       408       552       551      2453      2454      2449
 -1       946    8    0    1
 -2       409       410       553      2030      2455      2456
 -1       947    8    0    1
 -2       409       553       552      2456      2457      2452
 -1       948    8    0    1
 -2       410       411       554      2033      2458      2459
 -1       949    8    0    1
 -2       410       554       553      2459      2460      2455
 -1       950    8    0    1
 -2       411       412       555      2036      2461      2462
 -1       951    8    0    1
 -2       411       555       554      2462      2463      2458
 -1       952    8    0    1
 -2       412       413       556      2039      2464      2465
 -1       953    8    0    1
 -2       412       556       555      2465      2466      2461
 -1       954    8    0    1
 -2       413       414       557      2042      2467      2468
 -1       955    8    0    1
 -2       413       557       556      2468      2469      2464
 -1       956    8    0    1
 -2       414       415       558      2045      2470      2471
 -1       957    8    0    1
 -2       414       558       557      2471      2472      2467
 -1       958    8    0    1
 -2       415       416       559      2048      2473      2474
 -1       959    8    0    1
 -2       415       559       558      2474      2475      2470
 -1       960    8    0    1
 -2       416       417       560      2051      2476      2477
 -1       961    8    0    1
 -2       416       560       559      2477      2478      2473
 -1       962    8    0    1
 -2       417       418       561      2054      2479      2480
 -1       963    8    0    1
 -2       417       561       560      2480      2481      2476
 -1       964    8    0    1
 -2       418       419       562      2057      2482      2483
 -1       965    8    0    1
 -2       418       562       561      2483      2484      2479
 -1       966    8    0    1
 -2       419       420       563      2060      2485      2486
 -1       967    8    0    1
 -2       419       563       562      2486      2487      2482
 -1       968    8    0    1
 -2       420       421       564      2063      2488      2489
 -1       969    8    0    1
 -2       420       564       563      2489      2490      2485
 -1       970    8    0    1
 -2       421       422       565      2066      2491      2492
 -1       971    8    0    1
 -2       421       565       564      2492      2493      2488
 -1       972    8    0    1
 -2       422       423       566      2069      2494      2495
 -1       973    8    0    1
 -2       422       566       565      2495      2496      2491
 -1       974    8    0    1
 -2       423       424       567      2072      2497      2498
 -1       975    8    0    1
 -2       423       567       566      2498      2499      2494
 -1       976    8    0    1
 -2       424       425       568      2075      2500      2501
 -1       977    8    0    1
 -2       424       568       567      2501      2502      2497
 -1       978    8    0    1
 -2       425       426       569      2078      2503      2504
 -1       979    8    0    1
 -2       425       569       568      2504      2505      2500
 -1       980    8    0    1
 -2       426       427       570      2081      2506      2507
 -1       981    8    0    1
 -2       426       570       569      2507      2508      2503
 -1       982    8    0    1
 -2       427       428       431      2084      2093      2509
 -1       983    8    0    1
 -2       432       433       571      2100      2510      2511
 -1       984    8    0    1
 -2       433       434       572      2103      2512      2513
 -1       985    8    0    1
 -2       433       572       571      2513      2514      2510
 -1       986    8    0    1
 -2       430       429       573      2090      2515      2516
 -1       987    8    0    1
 -2       429       432       574      2097      2517      2518
 -1       988    8    0    1
 -2       573       429       574      2515      2518      2519
 -1       989    8    0    1
 -2       432       571       574      2511      2520      2517
 -1       990    8    0    1
 -2       434       435       575      2106      2521      2522
 -1       991    8    0    1
 -2       434       575       572      2522      2523      2512
 -1       992    8    0    1
 -2       435       436       576      2109      2524      2525
 -1       993    8    0    1
 -2       435       576       575      2525      2526      2521
 -1       994    8    0    1
 -2       436       437       577      2112      2527      2528
 -1       995    8    0    1
 -2       436       577       576      2528      2529      2524
 -1       996    8    0    1
 -2       437       438       578      2115      2530      2531
 -1       997    8    0    1
 -2       437       578       577      2531      2532      2527
 -1       998    8    0    1
 -2       438       439       579      2118      2533      2534
 -1       999    8    0    1
 -2       438       579       578      2534      2535      2530
 -1      1000    8    0    1
 -2       439       440       580      2121      2536      2537
 -1      1001    8    0    1
 -2       439       580       579      2537      2538      2533
 -1      1002    8    0    1
 -2       440       441       581      2124      2539      2540
 -1      1003    8    0    1
 -2       440       581       580      2540      2541      2536
 -1      1004    8    0    1
 -2       441       291       382      2201      1945      2542
 -1      1005    8    0    1
 -2       471       443       582      2202      2543      2544
 -1      1006    8    0    1
 -2       384       385       583      1955      2545      2546
 -1      1007    8    0    1
 -2       385       529       583      2385      2547      2545
 -1      1008    8    0    1
 -2       443       444       584      2131      2548      2549
 -1      1009    8    0    1
 -2       469       470       585      2204      2550      2551
 -1      1010    8    0    1
 -2       445       446       586      2203      2552      2553
 -1      1011    8    0    1
 -2       444       442       587      2197      2554      2555
 -1      1012    8    0    1
 -2       444       587       584      2555      2556      2548
 -1      1013    8    0    1
 -2       463       464       588      2208      2557      2558
 -1      1014    8    0    1
 -2       450       451       589      2219      2559      2560
 -1      1015    8    0    1
 -2       326       327       590      1778      2561      2562
 -1      1016    8    0    1
 -2       475       326       590      2226      2562      2563
 -1      1017    8    0    1
 -2       327       477       590      2232      2564      2561
 -1      1018    8    0    1
 -2       449       450       591      2221      2565      2566
 -1      1019    8    0    1
 -2       453       454       592      2222      2567      2568
 -1      1020    8    0    1
 -2       448       449       593      2220      2569      2570
 -1      1021    8    0    1
 -2       449       591       593      2566      2571      2569
 -1      1022    8    0    1
 -2       451       452       594      2150      2572      2573
 -1      1023    8    0    1
 -2       466       467       595      2223      2574      2575
 -1      1024    8    0    1
 -2       452       453       596      2218      2576      2577
 -1      1025    8    0    1
 -2       454       455       597      2217      2578      2579
 -1      1026    8    0    1
 -2       455       456       598      2216      2580      2581
 -1      1027    8    0    1
 -2       456       457       599      2215      2582      2583
 -1      1028    8    0    1
 -2       457       458       600      2214      2584      2585
 -1      1029    8    0    1
 -2       457       600       599      2585      2586      2582
 -1      1030    8    0    1
 -2       458       459       601      2213      2587      2588
 -1      1031    8    0    1
 -2       459       460       602      2212      2589      2590
 -1      1032    8    0    1
 -2       459       602       601      2590      2591      2587
 -1      1033    8    0    1
 -2       460       461       603      2211      2592      2593
 -1      1034    8    0    1
 -2       461       462       604      2210      2594      2595
 -1      1035    8    0    1
 -2       461       604       603      2595      2596      2592
 -1      1036    8    0    1
 -2       462       463       605      2209      2597      2598
 -1      1037    8    0    1
 -2       464       465       606      2177      2599      2600
 -1      1038    8    0    1
 -2       465       466       607      2207      2601      2602
 -1      1039    8    0    1
 -2       465       607       606      2602      2603      2599
 -1      1040    8    0    1
 -2       467       468       608      2206      2604      2605
 -1      1041    8    0    1
 -2       467       608       595      2605      2606      2574
 -1      1042    8    0    1
 -2       468       469       609      2205      2607      2608
 -1      1043    8    0    1
 -2       469       585       609      2551      2609      2607
 -1      1044    8    0    1
 -2       470       471       610      2190      2610      2611
 -1      1045    8    0    1
 -2       337       323       611      2196      2612      2613
 -1      1046    8    0    1
 -2       484       337       611      2251      2613      2614
 -1      1047    8    0    1
 -2       323       322       611      1767      2615      2612
 -1      1048    8    0    1
 -2       335       336       612      1807      2616      2617
 -1      1049    8    0    1
 -2       334       335       612      1802      2617      2618
 -1      1050    8    0    1
 -2       336       474       612      2225      2619      2616
 -1      1051    8    0    1
 -2       446       472       613      2193      2620      2621
 -1      1052    8    0    1
 -2       451       594       589      2573      2622      2559
 -1      1053    8    0    1
 -2       324       476       614      2229      2623      2624
 -1      1054    8    0    1
 -2       324       614       447      2624      2625      2139
 -1      1055    8    0    1
 -2       483       384       583      2248      2546      2626
 -1      1056    8    0    1
 -2       333       334       612      1799      2618      2627
 -1      1057    8    0    1
 -2       613       472       485      2620      2254      2628
 -1      1058    8    0    1
 -2       471       582       610      2544      2629      2610
 -1      1059    8    0    1
 -2       473       445       615      2198      2630      2631
 -1      1060    8    0    1
 -2       445       586       615      2553      2632      2630
 -1      1061    8    0    1
 -2       427       431       570      2509      2633      2506
 -1      1062    8    0    1
 -2       585       470       610      2550      2611      2634
 -1      1063    8    0    1
 -2       431       430       570      2094      2635      2633
 -1      1064    8    0    1
 -2       611       322       447      2615      2138      2636
 -1      1065    8    0    1
 -2       441       382       616      2542      2637      2638
 -1      1066    8    0    1
 -2       581       441       616      2539      2638      2639
 -1      1067    8    0    1
 -2       382       381       616      1946      2640      2637
 -1      1068    8    0    1
 -2       442       473       617      2200      2641      2642
 -1      1069    8    0    1
 -2       442       617       587      2642      2643      2554
 -1      1070    8    0    1
 -2       607       466       595      2601      2575      2644
 -1      1071    8    0    1
 -2       582       443       584      2543      2549      2645
 -1      1072    8    0    1
 -2       333       612       482      2627      2646      2245
 -1      1073    8    0    1
 -2       463       588       618      2558      2647      2648
 -1      1074    8    0    1
 -2       463       618       605      2648      2649      2597
 -1      1075    8    0    1
 -2       570       430       573      2635      2516      2650
 -1      1076    8    0    1
 -2       604       462       605      2594      2598      2651
 -1      1077    8    0    1
 -2       588       464       606      2557      2600      2652
 -1      1078    8    0    1
 -2       602       460       619      2589      2653      2654
 -1      1079    8    0    1
 -2       460       603       619      2593      2655      2653
 -1      1080    8    0    1
 -2       600       458       620      2584      2656      2657
 -1      1081    8    0    1
 -2       458       601       620      2588      2658      2656
 -1      1082    8    0    1
 -2       598       456       599      2580      2583      2659
 -1      1083    8    0    1
 -2       450       589       591      2560      2660      2565
 -1      1084    8    0    1
 -2       597       455       598      2578      2581      2661
 -1      1085    8    0    1
 -2       596       453       592      2576      2568      2662
 -1      1086    8    0    1
 -2       468       609       608      2608      2663      2604
 -1      1087    8    0    1
 -2       586       446       613      2552      2621      2664
 -1      1088    8    0    1
 -2       485       448       593      2253      2570      2665
 -1      1089    8    0    1
 -2       592       454       597      2567      2579      2666
 -1      1090    8    0    1
 -2       594       452       596      2572      2577      2667
 -1      1091    8    0    1
 -2       616       381       528      2640      2382      2668
 -1      1092    8    0    1
 -2       478       479       621      2238      2669      2670
 -1      1093    8    0    1
 -2       477       478       622      2235      2671      2672
 -1      1094    8    0    1
 -2       478       621       622      2670      2673      2671
 -1      1095    8    0    1
 -2       480       481       623      2244      2674      2675
 -1      1096    8    0    1
 -2       481       482       624      2247      2676      2677
 -1      1097    8    0    1
 -2       481       624       623      2677      2678      2674
 -1      1098    8    0    1
 -2       474       483       625      2250      2679      2680
 -1      1099    8    0    1
 -2       483       583       626      2626      2681      2682
 -1      1100    8    0    1
 -2       483       626       625      2682      2683      2679
 -1      1101    8    0    1
 -2       612       474       482      2619      2684      2646
 -1      1102    8    0    1
 -2       610       582       627      2629      2685      2686
 -1      1103    8    0    1
 -2       487       486       628      2260      2687      2688
 -1      1104    8    0    1
 -2       488       487       629      2263      2689      2690
 -1      1105    8    0    1
 -2       487       628       629      2688      2691      2689
 -1      1106    8    0    1
 -2       489       488       630      2266      2692      2693
 -1      1107    8    0    1
 -2       488       629       630      2690      2694      2692
 -1      1108    8    0    1
 -2       490       489       631      2269      2695      2696
 -1      1109    8    0    1
 -2       489       630       631      2693      2697      2695
 -1      1110    8    0    1
 -2       491       490       632      2272      2698      2699
 -1      1111    8    0    1
 -2       490       631       632      2696      2700      2698
 -1      1112    8    0    1
 -2       492       491       633      2275      2701      2702
 -1      1113    8    0    1
 -2       491       632       633      2699      2703      2701
 -1      1114    8    0    1
 -2       493       492       634      2278      2704      2705
 -1      1115    8    0    1
 -2       492       633       634      2702      2706      2704
 -1      1116    8    0    1
 -2       494       493       635      2281      2707      2708
 -1      1117    8    0    1
 -2       493       634       635      2705      2709      2707
 -1      1118    8    0    1
 -2       495       494       636      2284      2710      2711
 -1      1119    8    0    1
 -2       494       635       636      2708      2712      2710
 -1      1120    8    0    1
 -2       496       495       637      2287      2713      2714
 -1      1121    8    0    1
 -2       495       636       637      2711      2715      2713
 -1      1122    8    0    1
 -2       497       496       638      2290      2716      2717
 -1      1123    8    0    1
 -2       496       637       638      2714      2718      2716
 -1      1124    8    0    1
 -2       498       497       639      2293      2719      2720
 -1      1125    8    0    1
 -2       497       638       639      2717      2721      2719
 -1      1126    8    0    1
 -2       499       498       640      2296      2722      2723
 -1      1127    8    0    1
 -2       498       639       640      2720      2724      2722
 -1      1128    8    0    1
 -2       500       499       641      2299      2725      2726
 -1      1129    8    0    1
 -2       499       640       641      2723      2727      2725
 -1      1130    8    0    1
 -2       501       500       642      2302      2728      2729
 -1      1131    8    0    1
 -2       500       641       642      2726      2730      2728
 -1      1132    8    0    1
 -2       502       501       643      2305      2731      2732
 -1      1133    8    0    1
 -2       501       642       643      2729      2733      2731
 -1      1134    8    0    1
 -2       503       502       644      2308      2734      2735
 -1      1135    8    0    1
 -2       502       643       644      2732      2736      2734
 -1      1136    8    0    1
 -2       504       503       645      2311      2737      2738
 -1      1137    8    0    1
 -2       503       644       645      2735      2739      2737
 -1      1138    8    0    1
 -2       505       504       646      2314      2740      2741
 -1      1139    8    0    1
 -2       504       645       646      2738      2742      2740
 -1      1140    8    0    1
 -2       506       505       647      2317      2743      2744
 -1      1141    8    0    1
 -2       505       646       647      2741      2745      2743
 -1      1142    8    0    1
 -2       507       506       648      2320      2746      2747
 -1      1143    8    0    1
 -2       506       647       648      2744      2748      2746
 -1      1144    8    0    1
 -2       508       507       649      2323      2749      2750
 -1      1145    8    0    1
 -2       507       648       649      2747      2751      2749
 -1      1146    8    0    1
 -2       509       508       650      2326      2752      2753
 -1      1147    8    0    1
 -2       508       649       650      2750      2754      2752
 -1      1148    8    0    1
 -2       510       509       651      2329      2755      2756
 -1      1149    8    0    1
 -2       509       650       651      2753      2757      2755
 -1      1150    8    0    1
 -2       511       510       652      2332      2758      2759
 -1      1151    8    0    1
 -2       510       651       652      2756      2760      2758
 -1      1152    8    0    1
 -2       512       511       653      2335      2761      2762
 -1      1153    8    0    1
 -2       511       652       653      2759      2763      2761
 -1      1154    8    0    1
 -2       513       512       654      2338      2764      2765
 -1      1155    8    0    1
 -2       512       653       654      2762      2766      2764
 -1      1156    8    0    1
 -2       514       513       655      2341      2767      2768
 -1      1157    8    0    1
 -2       513       654       655      2765      2769      2767
 -1      1158    8    0    1
 -2       515       514       656      2344      2770      2771
 -1      1159    8    0    1
 -2       514       655       656      2768      2772      2770
 -1      1160    8    0    1
 -2       516       515       657      2347      2773      2774
 -1      1161    8    0    1
 -2       515       656       657      2771      2775      2773
 -1      1162    8    0    1
 -2       517       516       658      2350      2776      2777
 -1      1163    8    0    1
 -2       516       657       658      2774      2778      2776
 -1      1164    8    0    1
 -2       518       517       659      2353      2779      2780
 -1      1165    8    0    1
 -2       517       658       659      2777      2781      2779
 -1      1166    8    0    1
 -2       519       518       660      2356      2782      2783
 -1      1167    8    0    1
 -2       518       659       660      2780      2784      2782
 -1      1168    8    0    1
 -2       520       519       661      2359      2785      2786
 -1      1169    8    0    1
 -2       519       660       661      2783      2787      2785
 -1      1170    8    0    1
 -2       521       520       662      2362      2788      2789
 -1      1171    8    0    1
 -2       520       661       662      2786      2790      2788
 -1      1172    8    0    1
 -2       522       521       663      2365      2791      2792
 -1      1173    8    0    1
 -2       521       662       663      2789      2793      2791
 -1      1174    8    0    1
 -2       523       522       664      2368      2794      2795
 -1      1175    8    0    1
 -2       522       663       664      2792      2796      2794
 -1      1176    8    0    1
 -2       524       523       665      2371      2797      2798
 -1      1177    8    0    1
 -2       523       664       665      2795      2799      2797
 -1      1178    8    0    1
 -2       525       524       666      2374      2800      2801
 -1      1179    8    0    1
 -2       524       665       666      2798      2802      2800
 -1      1180    8    0    1
 -2       526       525       667      2377      2803      2804
 -1      1181    8    0    1
 -2       525       666       667      2801      2805      2803
 -1      1182    8    0    1
 -2       527       526       668      2380      2806      2807
 -1      1183    8    0    1
 -2       526       667       668      2804      2808      2806
 -1      1184    8    0    1
 -2       528       527       669      2383      2809      2810
 -1      1185    8    0    1
 -2       527       668       669      2807      2811      2809
 -1      1186    8    0    1
 -2       530       531       670      2391      2812      2813
 -1      1187    8    0    1
 -2       529       530       671      2388      2814      2815
 -1      1188    8    0    1
 -2       530       670       671      2813      2816      2814
 -1      1189    8    0    1
 -2       532       533       672      2397      2817      2818
 -1      1190    8    0    1
 -2       533       534       673      2400      2819      2820
 -1      1191    8    0    1
 -2       533       673       672      2820      2821      2817
 -1      1192    8    0    1
 -2       534       535       674      2403      2822      2823
 -1      1193    8    0    1
 -2       534       674       673      2823      2824      2819
 -1      1194    8    0    1
 -2       535       536       675      2406      2825      2826
 -1      1195    8    0    1
 -2       535       675       674      2826      2827      2822
 -1      1196    8    0    1
 -2       536       537       676      2409      2828      2829
 -1      1197    8    0    1
 -2       536       676       675      2829      2830      2825
 -1      1198    8    0    1
 -2       537       538       677      2412      2831      2832
 -1      1199    8    0    1
 -2       537       677       676      2832      2833      2828
 -1      1200    8    0    1
 -2       538       539       678      2415      2834      2835
 -1      1201    8    0    1
 -2       538       678       677      2835      2836      2831
 -1      1202    8    0    1
 -2       539       540       679      2418      2837      2838
 -1      1203    8    0    1
 -2       539       679       678      2838      2839      2834
 -1      1204    8    0    1
 -2       540       541       680      2421      2840      2841
 -1      1205    8    0    1
 -2       540       680       679      2841      2842      2837
 -1      1206    8    0    1
 -2       541       542       681      2424      2843      2844
 -1      1207    8    0    1
 -2       541       681       680      2844      2845      2840
 -1      1208    8    0    1
 -2       542       543       682      2427      2846      2847
 -1      1209    8    0    1
 -2       542       682       681      2847      2848      2843
 -1      1210    8    0    1
 -2       543       544       683      2430      2849      2850
 -1      1211    8    0    1
 -2       543       683       682      2850      2851      2846
 -1      1212    8    0    1
 -2       544       545       684      2433      2852      2853
 -1      1213    8    0    1
 -2       544       684       683      2853      2854      2849
 -1      1214    8    0    1
 -2       545       546       685      2436      2855      2856
 -1      1215    8    0    1
 -2       545       685       684      2856      2857      2852
 -1      1216    8    0    1
 -2       546       547       686      2439      2858      2859
 -1      1217    8    0    1
 -2       546       686       685      2859      2860      2855
 -1      1218    8    0    1
 -2       547       548       687      2442      2861      2862
 -1      1219    8    0    1
 -2       547       687       686      2862      2863      2858
 -1      1220    8    0    1
 -2       548       549       688      2445      2864      2865
 -1      1221    8    0    1
 -2       548       688       687      2865      2866      2861
 -1      1222    8    0    1
 -2       549       550       689      2448      2867      2868
 -1      1223    8    0    1
 -2       549       689       688      2868      2869      2864
 -1      1224    8    0    1
 -2       550       551       690      2451      2870      2871
 -1      1225    8    0    1
 -2       550       690       689      2871      2872      2867
 -1      1226    8    0    1
 -2       551       552       691      2454      2873      2874
 -1      1227    8    0    1
 -2       551       691       690      2874      2875      2870
 -1      1228    8    0    1
 -2       552       553       692      2457      2876      2877
 -1      1229    8    0    1
 -2       552       692       691      2877      2878      2873
 -1      1230    8    0    1
 -2       553       554       693      2460      2879      2880
 -1      1231    8    0    1
 -2       553       693       692      2880      2881      2876
 -1      1232    8    0    1
 -2       554       555       694      2463      2882      2883
 -1      1233    8    0    1
 -2       554       694       693      2883      2884      2879
 -1      1234    8    0    1
 -2       555       556       695      2466      2885      2886
 -1      1235    8    0    1
 -2       555       695       694      2886      2887      2882
 -1      1236    8    0    1
 -2       556       557       696      2469      2888      2889
 -1      1237    8    0    1
 -2       556       696       695      2889      2890      2885
 -1      1238    8    0    1
 -2       557       558       697      2472      2891      2892
 -1      1239    8    0    1
 -2       557       697       696      2892      2893      2888
 -1      1240    8    0    1
 -2       558       559       698      2475      2894      2895
 -1      1241    8    0    1
 -2       558       698       697      2895      2896      2891
 -1      1242    8    0    1
 -2       559       560       699      2478      2897      2898
 -1      1243    8    0    1
 -2       559       699       698      2898      2899      2894
 -1      1244    8    0    1
 -2       560       561       700      2481      2900      2901
 -1      1245    8    0    1
 -2       560       700       699      2901      2902      2897
 -1      1246    8    0    1
 -2       561       562       701      2484      2903      2904
 -1      1247    8    0    1
 -2       561       701       700      2904      2905      2900
 -1      1248    8    0    1
 -2       562       563       702      2487      2906      2907
 -1      1249    8    0    1
 -2       562       702       701      2907      2908      2903
 -1      1250    8    0    1
 -2       563       564       703      2490      2909      2910
 -1      1251    8    0    1
 -2       563       703       702      2910      2911      2906
 -1      1252    8    0    1
 -2       564       565       704      2493      2912      2913
 -1      1253    8    0    1
 -2       564       704       703      2913      2914      2909
 -1      1254    8    0    1
 -2       565       566       705      2496      2915      2916
 -1      1255    8    0    1
 -2       565       705       704      2916      2917      2912
 -1      1256    8    0    1
 -2       566       567       706      2499      2918      2919
 -1      1257    8    0    1
 -2       566       706       705      2919      2920      2915
 -1      1258    8    0    1
 -2       567       568       707      2502      2921      2922
 -1      1259    8    0    1
 -2       567       707       706      2922      2923      2918
 -1      1260    8    0    1
 -2       568       569       708      2505      2924      2925
 -1      1261    8    0    1
 -2       568       708       707      2925      2926      2921
 -1      1262    8    0    1
 -2       569       570       709      2508      2927      2928
 -1      1263    8    0    1
 -2       708       569       709      2924      2928      2929
 -1      1264    8    0    1
 -2       570       573       709      2650      2930      2927
 -1      1265    8    0    1
 -2       585       610       710      2634      2931      2932
 -1      1266    8    0    1
 -2       575       576       711      2526      2933      2934
 -1      1267    8    0    1
 -2       604       605       712      2651      2935      2936
 -1      1268    8    0    1
 -2       571       572       713      2514      2937      2938
 -1      1269    8    0    1
 -2       576       577       714      2529      2939      2940
 -1      1270    8    0    1
 -2       576       714       711      2940      2941      2933
 -1      1271    8    0    1
 -2       572       575       715      2523      2942      2943
 -1      1272    8    0    1
 -2       713       572       715      2937      2943      2944
 -1      1273    8    0    1
 -2       575       711       715      2934      2945      2942
 -1      1274    8    0    1
 -2       577       578       716      2532      2946      2947
 -1      1275    8    0    1
 -2       577       716       714      2947      2948      2939
 -1      1276    8    0    1
 -2       578       579       717      2535      2949      2950
 -1      1277    8    0    1
 -2       578       717       716      2950      2951      2946
 -1      1278    8    0    1
 -2       579       580       718      2538      2952      2953
 -1      1279    8    0    1
 -2       579       718       717      2953      2954      2949
 -1      1280    8    0    1
 -2       583       529       719      2547      2955      2956
 -1      1281    8    0    1
 -2       626       583       719      2681      2956      2957
 -1      1282    8    0    1
 -2       529       671       719      2815      2958      2955
 -1      1283    8    0    1
 -2       595       608       720      2606      2959      2960
 -1      1284    8    0    1
 -2       611       447       614      2636      2625      2961
 -1      1285    8    0    1
 -2       584       587       721      2556      2962      2963
 -1      1286    8    0    1
 -2       598       599       722      2659      2964      2965
 -1      1287    8    0    1
 -2       607       595       723      2644      2966      2967
 -1      1288    8    0    1
 -2       531       532       724      2394      2968      2969
 -1      1289    8    0    1
 -2       670       531       724      2812      2969      2970
 -1      1290    8    0    1
 -2       532       672       724      2818      2971      2968
 -1      1291    8    0    1
 -2       486       484       725      2257      2972      2973
 -1      1292    8    0    1
 -2       486       725       628      2973      2974      2687
 -1      1293    8    0    1
 -2       613       485       726      2628      2975      2976
 -1      1294    8    0    1
 -2       581       616       727      2639      2977      2978
 -1      1295    8    0    1
 -2       616       528       727      2668      2979      2977
 -1      1296    8    0    1
 -2       479       480       728      2241      2980      2981
 -1      1297    8    0    1
 -2       621       479       728      2669      2981      2982
 -1      1298    8    0    1
 -2       480       623       728      2675      2983      2980
 -1      1299    8    0    1
 -2       476       475       729      2230      2984      2985
 -1      1300    8    0    1
 -2       608       609       730      2663      2986      2987
 -1      1301    8    0    1
 -2       592       597       731      2666      2988      2989
 -1      1302    8    0    1
 -2       582       584       732      2645      2990      2991
 -1      1303    8    0    1
 -2       584       721       732      2963      2992      2990
 -1      1304    8    0    1
 -2       597       598       733      2661      2993      2994
 -1      1305    8    0    1
 -2       594       596       734      2667      2995      2996
 -1      1306    8    0    1
 -2       596       592       735      2662      2997      2998
 -1      1307    8    0    1
 -2       592       731       735      2989      2999      2997
 -1      1308    8    0    1
 -2       591       589       673      2660      3000      3001
 -1      1309    8    0    1
 -2       599       600       736      2586      3002      3003
 -1      1310    8    0    1
 -2       601       602       737      2591      3004      3005
 -1      1311    8    0    1
 -2       588       606       738      2652      3006      3007
 -1      1312    8    0    1
 -2       603       604       739      2596      3008      3009
 -1      1313    8    0    1
 -2       606       607       740      2603      3010      3011
 -1      1314    8    0    1
 -2       485       593       741      2665      3012      3013
 -1      1315    8    0    1
 -2       485       741       726      3013      3014      2975
 -1      1316    8    0    1
 -2       586       613       742      2664      3015      3016
 -1      1317    8    0    1
 -2       609       585       743      2609      3017      3018
 -1      1318    8    0    1
 -2       614       476       744      2623      3019      3020
 -1      1319    8    0    1
 -2       476       729       744      2985      3021      3019
 -1      1320    8    0    1
 -2       477       622       745      2672      3022      3023
 -1      1321    8    0    1
 -2       477       745       590      3023      3024      2564
 -1      1322    8    0    1
 -2       482       474       625      2684      2680      3025
 -1      1323    8    0    1
 -2       613       726       742      2976      3026      3015
 -1      1324    8    0    1
 -2       627       582       732      2685      2991      3027
 -1      1325    8    0    1
 -2       615       586       746      2632      3028      3029
 -1      1326    8    0    1
 -2       586       742       746      3016      3030      3028
 -1      1327    8    0    1
 -2       528       669       727      2810      3031      2979
 -1      1328    8    0    1
 -2       595       720       723      2960      3032      2966
 -1      1329    8    0    1
 -2       587       617       747      2643      3033      3034
 -1      1330    8    0    1
 -2       587       747       721      3034      3035      2962
 -1      1331    8    0    1
 -2       743       585       710      3017      2932      3036
 -1      1332    8    0    1
 -2       710       610       627      2931      2686      3037
 -1      1333    8    0    1
 -2       709       573       748      2930      3038      3039
 -1      1334    8    0    1
 -2       573       574       748      2519      3040      3038
 -1      1335    8    0    1
 -2       741       593       749      3012      3041      3042
 -1      1336    8    0    1
 -2       593       591       749      2571      3043      3041
 -1      1337    8    0    1
 -2       604       712       739      2936      3044      3008
 -1      1338    8    0    1
 -2       740       607       723      3010      2967      3045
 -1      1339    8    0    1
 -2       580       581       727      2541      2978      3046
 -1      1340    8    0    1
 -2       738       606       740      3006      3011      3047
 -1      1341    8    0    1
 -2       617       473       750      2641      3048      3049
 -1      1342    8    0    1
 -2       473       615       750      2631      3050      3048
 -1      1343    8    0    1
 -2       722       599       736      2964      3003      3051
 -1      1344    8    0    1
 -2       737       602       619      3004      2654      3052
 -1      1345    8    0    1
 -2       736       600       751      3002      3053      3054
 -1      1346    8    0    1
 -2       600       620       751      2657      3055      3053
 -1      1347    8    0    1
 -2       734       596       735      2995      2998      3056
 -1      1348    8    0    1
 -2       611       614       752      2961      3057      3058
 -1      1349    8    0    1
 -2       484       611       752      2614      3058      3059
 -1      1350    8    0    1
 -2       614       744       752      3020      3060      3057
 -1      1351    8    0    1
 -2       731       597       733      2988      2994      3061
 -1      1352    8    0    1
 -2       598       722       733      2965      3062      2993
 -1      1353    8    0    1
 -2       619       603       739      2655      3009      3063
 -1      1354    8    0    1
 -2       620       601       737      2658      3005      3064
 -1      1355    8    0    1
 -2       580       727       753      3046      3065      3066
 -1      1356    8    0    1
 -2       718       580       753      2952      3066      3067
 -1      1357    8    0    1
 -2       727       669       753      3031      3068      3065
 -1      1358    8    0    1
 -2       482       625       624      3025      3069      2676
 -1      1359    8    0    1
 -2       574       571       754      2520      3070      3071
 -1      1360    8    0    1
 -2       748       574       754      3040      3071      3072
 -1      1361    8    0    1
 -2       571       713       754      2938      3073      3070
 -1      1362    8    0    1
 -2       475       590       755      2563      3074      3075
 -1      1363    8    0    1
 -2       729       475       755      2984      3075      3076
 -1      1364    8    0    1
 -2       590       745       755      3024      3077      3074
 -1      1365    8    0    1
 -2       720       608       730      2959      2987      3078
 -1      1366    8    0    1
 -2       730       609       743      2986      3018      3079
 -1      1367    8    0    1
 -2       591       673       674      3001      2824      3080
 -1      1368    8    0    1
 -2       594       734       756      2996      3081      3082
 -1      1369    8    0    1
 -2       484       752       725      3059      3083      2972
 -1      1370    8    0    1
 -2       673       589       672      3000      3084      2821
 -1      1371    8    0    1
 -2       589       594       756      2622      3082      3085
 -1      1372    8    0    1
 -2       742       726       757      3026      3086      3087
 -1      1373    8    0    1
 -2       623       624       758      2678      3088      3089
 -1      1374    8    0    1
 -2       605       618       759      2649      3090      3091
 -1      1375    8    0    1
 -2       628       725       760      2974      3092      3093
 -1      1376    8    0    1
 -2       720       730       761      3078      3094      3095
 -1      1377    8    0    1
 -2       630       629       762      2694      3096      3097
 -1      1378    8    0    1
 -2       631       630       763      2697      3098      3099
 -1      1379    8    0    1
 -2       630       762       763      3097      3100      3098
 -1      1380    8    0    1
 -2       632       631       764      2700      3101      3102
 -1      1381    8    0    1
 -2       631       763       764      3099      3103      3101
 -1      1382    8    0    1
 -2       633       632       765      2703      3104      3105
 -1      1383    8    0    1
 -2       634       633       759      2706      3106      3107
 -1      1384    8    0    1
 -2       635       634       738      2709      3108      3109
 -1      1385    8    0    1
 -2       636       635       740      2712      3110      3111
 -1      1386    8    0    1
 -2       637       636       723      2715      3112      3113
 -1      1387    8    0    1
 -2       638       637       761      2718      3114      3115
 -1      1388    8    0    1
 -2       639       638       766      2721      3116      3117
 -1      1389    8    0    1
 -2       638       761       766      3115      3118      3116
 -1      1390    8    0    1
 -2       640       639       767      2724      3119      3120
 -1      1391    8    0    1
 -2       639       766       767      3117      3121      3119
 -1      1392    8    0    1
 -2       641       640       768      2727      3122      3123
 -1      1393    8    0    1
 -2       640       767       768      3120      3124      3122
 -1      1394    8    0    1
 -2       642       641       769      2730      3125      3126
 -1      1395    8    0    1
 -2       641       768       769      3123      3127      3125
 -1      1396    8    0    1
 -2       643       642       770      2733      3128      3129
 -1      1397    8    0    1
 -2       642       769       770      3126      3130      3128
 -1      1398    8    0    1
 -2       644       643       771      2736      3131      3132
 -1      1399    8    0    1
 -2       643       770       771      3129      3133      3131
 -1      1400    8    0    1
 -2       645       644       772      2739      3134      3135
 -1      1401    8    0    1
 -2       644       771       772      3132      3136      3134
 -1      1402    8    0    1
 -2       646       645       773      2742      3137      3138
 -1      1403    8    0    1
 -2       645       772       773      3135      3139      3137
 -1      1404    8    0    1
 -2       647       646       774      2745      3140      3141
 -1      1405    8    0    1
 -2       646       773       774      3138      3142      3140
 -1      1406    8    0    1
 -2       648       647       775      2748      3143      3144
 -1      1407    8    0    1
 -2       647       774       775      3141      3145      3143
 -1      1408    8    0    1
 -2       649       648       776      2751      3146      3147
 -1      1409    8    0    1
 -2       648       775       776      3144      3148      3146
 -1      1410    8    0    1
 -2       650       649       777      2754      3149      3150
 -1      1411    8    0    1
 -2       649       776       777      3147      3151      3149
 -1      1412    8    0    1
 -2       651       650       778      2757      3152      3153
 -1      1413    8    0    1
 -2       650       777       778      3150      3154      3152
 -1      1414    8    0    1
 -2       652       651       779      2760      3155      3156
 -1      1415    8    0    1
 -2       651       778       779      3153      3157      3155
 -1      1416    8    0    1
 -2       653       652       780      2763      3158      3159
 -1      1417    8    0    1
 -2       652       779       780      3156      3160      3158
 -1      1418    8    0    1
 -2       654       653       781      2766      3161      3162
 -1      1419    8    0    1
 -2       653       780       781      3159      3163      3161
 -1      1420    8    0    1
 -2       655       654       782      2769      3164      3165
 -1      1421    8    0    1
 -2       654       781       782      3162      3166      3164
 -1      1422    8    0    1
 -2       656       655       783      2772      3167      3168
 -1      1423    8    0    1
 -2       655       782       783      3165      3169      3167
 -1      1424    8    0    1
 -2       657       656       784      2775      3170      3171
 -1      1425    8    0    1
 -2       656       783       784      3168      3172      3170
 -1      1426    8    0    1
 -2       658       657       785      2778      3173      3174
 -1      1427    8    0    1
 -2       657       784       785      3171      3175      3173
 -1      1428    8    0    1
 -2       659       658       786      2781      3176      3177
 -1      1429    8    0    1
 -2       658       785       786      3174      3178      3176
 -1      1430    8    0    1
 -2       660       659       787      2784      3179      3180
 -1      1431    8    0    1
 -2       659       786       787      3177      3181      3179
 -1      1432    8    0    1
 -2       661       660       788      2787      3182      3183
 -1      1433    8    0    1
 -2       660       787       788      3180      3184      3182
 -1      1434    8    0    1
 -2       662       661       789      2790      3185      3186
 -1      1435    8    0    1
 -2       661       788       789      3183      3187      3185
 -1      1436    8    0    1
 -2       663       662       790      2793      3188      3189
 -1      1437    8    0    1
 -2       662       789       790      3186      3190      3188
 -1      1438    8    0    1
 -2       664       663       791      2796      3191      3192
 -1      1439    8    0    1
 -2       663       790       791      3189      3193      3191
 -1      1440    8    0    1
 -2       665       664       792      2799      3194      3195
 -1      1441    8    0    1
 -2       664       791       792      3192      3196      3194
 -1      1442    8    0    1
 -2       666       665       793      2802      3197      3198
 -1      1443    8    0    1
 -2       665       792       793      3195      3199      3197
 -1      1444    8    0    1
 -2       667       666       794      2805      3200      3201
 -1      1445    8    0    1
 -2       666       793       794      3198      3202      3200
 -1      1446    8    0    1
 -2       668       667       795      2808      3203      3204
 -1      1447    8    0    1
 -2       667       794       795      3201      3205      3203
 -1      1448    8    0    1
 -2       669       668       795      2811      3204      3206
 -1      1449    8    0    1
 -2       675       676       741      2830      3207      3208
 -1      1450    8    0    1
 -2       676       677       757      2833      3209      3210
 -1      1451    8    0    1
 -2       677       678       796      2836      3211      3212
 -1      1452    8    0    1
 -2       677       796       757      3212      3213      3209
 -1      1453    8    0    1
 -2       678       679       797      2839      3214      3215
 -1      1454    8    0    1
 -2       678       797       796      3215      3216      3211
 -1      1455    8    0    1
 -2       679       680       798      2842      3217      3218
 -1      1456    8    0    1
 -2       679       798       797      3218      3219      3214
 -1      1457    8    0    1
 -2       680       681       799      2845      3220      3221
 -1      1458    8    0    1
 -2       680       799       798      3221      3222      3217
 -1      1459    8    0    1
 -2       681       682       800      2848      3223      3224
 -1      1460    8    0    1
 -2       681       800       799      3224      3225      3220
 -1      1461    8    0    1
 -2       682       683       801      2851      3226      3227
 -1      1462    8    0    1
 -2       682       801       800      3227      3228      3223
 -1      1463    8    0    1
 -2       683       684       802      2854      3229      3230
 -1      1464    8    0    1
 -2       683       802       801      3230      3231      3226
 -1      1465    8    0    1
 -2       684       685       803      2857      3232      3233
 -1      1466    8    0    1
 -2       684       803       802      3233      3234      3229
 -1      1467    8    0    1
 -2       685       686       804      2860      3235      3236
 -1      1468    8    0    1
 -2       685       804       803      3236      3237      3232
 -1      1469    8    0    1
 -2       686       687       805      2863      3238      3239
 -1      1470    8    0    1
 -2       686       805       804      3239      3240      3235
 -1      1471    8    0    1
 -2       687       688       806      2866      3241      3242
 -1      1472    8    0    1
 -2       687       806       805      3242      3243      3238
 -1      1473    8    0    1
 -2       688       689       807      2869      3244      3245
 -1      1474    8    0    1
 -2       688       807       806      3245      3246      3241
 -1      1475    8    0    1
 -2       689       690       808      2872      3247      3248
 -1      1476    8    0    1
 -2       689       808       807      3248      3249      3244
 -1      1477    8    0    1
 -2       690       691       809      2875      3250      3251
 -1      1478    8    0    1
 -2       690       809       808      3251      3252      3247
 -1      1479    8    0    1
 -2       691       692       810      2878      3253      3254
 -1      1480    8    0    1
 -2       691       810       809      3254      3255      3250
 -1      1481    8    0    1
 -2       692       693       811      2881      3256      3257
 -1      1482    8    0    1
 -2       692       811       810      3257      3258      3253
 -1      1483    8    0    1
 -2       693       694       812      2884      3259      3260
 -1      1484    8    0    1
 -2       693       812       811      3260      3261      3256
 -1      1485    8    0    1
 -2       694       695       813      2887      3262      3263
 -1      1486    8    0    1
 -2       694       813       812      3263      3264      3259
 -1      1487    8    0    1
 -2       695       696       814      2890      3265      3266
 -1      1488    8    0    1
 -2       695       814       813      3266      3267      3262
 -1      1489    8    0    1
 -2       696       697       815      2893      3268      3269
 -1      1490    8    0    1
 -2       696       815       814      3269      3270      3265
 -1      1491    8    0    1
 -2       697       698       816      2896      3271      3272
 -1      1492    8    0    1
 -2       697       816       815      3272      3273      3268
 -1      1493    8    0    1
 -2       698       699       817      2899      3274      3275
 -1      1494    8    0    1
 -2       698       817       816      3275      3276      3271
 -1      1495    8    0    1
 -2       699       700       818      2902      3277      3278
 -1      1496    8    0    1
 -2       699       818       817      3278      3279      3274
 -1      1497    8    0    1
 -2       700       701       819      2905      3280      3281
 -1      1498    8    0    1
 -2       700       819       818      3281      3282      3277
 -1      1499    8    0    1
 -2       701       702       820      2908      3283      3284
 -1      1500    8    0    1
 -2       701       820       819      3284      3285      3280
 -1      1501    8    0    1
 -2       702       703       821      2911      3286      3287
 -1      1502    8    0    1
 -2       702       821       820      3287      3288      3283
 -1      1503    8    0    1
 -2       703       704       822      2914      3289      3290
 -1      1504    8    0    1
 -2       703       822       821      3290      3291      3286
 -1      1505    8    0    1
 -2       704       705       823      2917      3292      3293
 -1      1506    8    0    1
 -2       704       823       822      3293      3294      3289
 -1      1507    8    0    1
 -2       705       706       824      2920      3295      3296
 -1      1508    8    0    1
 -2       705       824       823      3296      3297      3292
 -1      1509    8    0    1
 -2       706       707       825      2923      3298      3299
 -1      1510    8    0    1
 -2       706       825       824      3299      3300      3295
 -1      1511    8    0    1
 -2       707       708       825      2926      3301      3298
 -1      1512    8    0    1
 -2       708       709       826      2929      3302      3303
 -1      1513    8    0    1
 -2       709       748       826      3039      3304      3302
 -1      1514    8    0    1
 -2       749       591       674      3043      3080      3305
 -1      1515    8    0    1
 -2       714       716       827      2948      3306      3307
 -1      1516    8    0    1
 -2       711       714       828      2941      3308      3309
 -1      1517    8    0    1
 -2       714       827       828      3307      3310      3308
 -1      1518    8    0    1
 -2       741       749       675      3042      3311      3208
 -1      1519    8    0    1
 -2       740       723       636      3045      3112      3111
 -1      1520    8    0    1
 -2       735       731       829      2999      3312      3313
 -1      1521    8    0    1
 -2       618       588       738      2647      3007      3314
 -1      1522    8    0    1
 -2       732       721       830      2992      3315      3316
 -1      1523    8    0    1
 -2       743       710       831      3036      3317      3318
 -1      1524    8    0    1
 -2       716       717       832      2951      3319      3320
 -1      1525    8    0    1
 -2       716       832       827      3320      3321      3306
 -1      1526    8    0    1
 -2       712       605       759      2935      3091      3322
 -1      1527    8    0    1
 -2       674       675       749      2827      3311      3305
 -1      1528    8    0    1
 -2       671       670       833      2816      3323      3324
 -1      1529    8    0    1
 -2       739       712       834      3044      3325      3326
 -1      1530    8    0    1
 -2       733       722       835      3062      3327      3328
 -1      1531    8    0    1
 -2       629       628       836      2691      3329      3330
 -1      1532    8    0    1
 -2       629       836       762      3330      3331      3096
 -1      1533    8    0    1
 -2       759       633       765      3106      3105      3332
 -1      1534    8    0    1
 -2       624       625       837      3069      3333      3334
 -1      1535    8    0    1
 -2       758       624       837      3088      3334      3335
 -1      1536    8    0    1
 -2       625       626       837      2683      3336      3333
 -1      1537    8    0    1
 -2       730       743       838      3079      3337      3338
 -1      1538    8    0    1
 -2       761       730       838      3094      3338      3339
 -1      1539    8    0    1
 -2       743       831       838      3318      3340      3337
 -1      1540    8    0    1
 -2       622       621       839      2673      3341      3342
 -1      1541    8    0    1
 -2       619       739       840      3063      3343      3344
 -1      1542    8    0    1
 -2       725       752       841      3083      3345      3346
 -1      1543    8    0    1
 -2       752       744       841      3060      3347      3345
 -1      1544    8    0    1
 -2       737       619       842      3052      3348      3349
 -1      1545    8    0    1
 -2       619       840       842      3344      3350      3348
 -1      1546    8    0    1
 -2       734       735       843      3056      3351      3352
 -1      1547    8    0    1
 -2       735       829       843      3313      3353      3351
 -1      1548    8    0    1
 -2       620       737       844      3064      3354      3355
 -1      1549    8    0    1
 -2       710       627       845      3037      3356      3357
 -1      1550    8    0    1
 -2       710       845       831      3357      3358      3317
 -1      1551    8    0    1
 -2       726       741       676      3014      3207      3359
 -1      1552    8    0    1
 -2       627       732       846      3027      3360      3361
 -1      1553    8    0    1
 -2       731       733       847      3061      3362      3363
 -1      1554    8    0    1
 -2       731       847       829      3363      3364      3312
 -1      1555    8    0    1
 -2       722       736       848      3051      3365      3366
 -1      1556    8    0    1
 -2       712       759       765      3322      3332      3367
 -1      1557    8    0    1
 -2       726       676       757      3359      3210      3086
 -1      1558    8    0    1
 -2       745       622       849      3022      3368      3369
 -1      1559    8    0    1
 -2       622       839       849      3342      3370      3368
 -1      1560    8    0    1
 -2       623       758       850      3089      3371      3372
 -1      1561    8    0    1
 -2       623       850       728      3372      3373      2983
 -1      1562    8    0    1
 -2       835       722       848      3327      3366      3374
 -1      1563    8    0    1
 -2       628       760       836      3093      3375      3329
 -1      1564    8    0    1
 -2       744       729       851      3021      3376      3377
 -1      1565    8    0    1
 -2       744       851       841      3377      3378      3347
 -1      1566    8    0    1
 -2       746       742       757      3030      3087      3379
 -1      1567    8    0    1
 -2       632       764       765      3102      3380      3104
 -1      1568    8    0    1
 -2       634       759       618      3107      3090      3381
 -1      1569    8    0    1
 -2       635       738       740      3109      3047      3110
 -1      1570    8    0    1
 -2       620       844       751      3355      3382      3055
 -1      1571    8    0    1
 -2       637       723       720      3113      3032      3383
 -1      1572    8    0    1
 -2       627       846       845      3361      3384      3356
 -1      1573    8    0    1
 -2       747       617       852      3033      3385      3386
 -1      1574    8    0    1
 -2       617       750       852      3049      3387      3385
 -1      1575    8    0    1
 -2       825       708       826      3301      3303      3388
 -1      1576    8    0    1
 -2       713       715       853      2944      3389      3390
 -1      1577    8    0    1
 -2       729       755       854      3076      3391      3392
 -1      1578    8    0    1
 -2       729       854       851      3392      3393      3376
 -1      1579    8    0    1
 -2       715       711       855      2945      3394      3395
 -1      1580    8    0    1
 -2       853       715       855      3389      3395      3396
 -1      1581    8    0    1
 -2       711       828       855      3309      3397      3394
 -1      1582    8    0    1
 -2       721       747       856      3035      3398      3399
 -1      1583    8    0    1
 -2       721       856       830      3399      3400      3315
 -1      1584    8    0    1
 -2       626       719       857      2957      3401      3402
 -1      1585    8    0    1
 -2       626       857       837      3402      3403      3336
 -1      1586    8    0    1
 -2       738       634       618      3108      3381      3314
 -1      1587    8    0    1
 -2       719       671       858      2958      3404      3405
 -1      1588    8    0    1
 -2       857       719       858      3401      3405      3406
 -1      1589    8    0    1
 -2       671       833       858      3324      3407      3404
 -1      1590    8    0    1
 -2       750       615       859      3050      3408      3409
 -1      1591    8    0    1
 -2       615       746       859      3029      3410      3408
 -1      1592    8    0    1
 -2       713       853       860      3390      3411      3412
 -1      1593    8    0    1
 -2       713       860       754      3412      3413      3073
 -1      1594    8    0    1
 -2       737       842       861      3349      3414      3415
 -1      1595    8    0    1
 -2       737       861       844      3415      3416      3354
 -1      1596    8    0    1
 -2       717       718       862      2954      3417      3418
 -1      1597    8    0    1
 -2       739       834       840      3326      3419      3343
 -1      1598    8    0    1
 -2       733       835       847      3328      3420      3362
 -1      1599    8    0    1
 -2       670       724       843      2970      3421      3422
 -1      1600    8    0    1
 -2       839       621       863      3341      3423      3424
 -1      1601    8    0    1
 -2       621       728       863      2982      3425      3423
 -1      1602    8    0    1
 -2       760       725       841      3092      3346      3426
 -1      1603    8    0    1
 -2       756       734       724      3081      3427      3428
 -1      1604    8    0    1
 -2       734       843       724      3352      3421      3427
 -1      1605    8    0    1
 -2       717       862       832      3418      3429      3319
 -1      1606    8    0    1
 -2       732       830       846      3316      3430      3360
 -1      1607    8    0    1
 -2       670       843       833      3422      3431      3323
 -1      1608    8    0    1
 -2       736       751       864      3054      3432      3433
 -1      1609    8    0    1
 -2       736       864       848      3433      3434      3365
 -1      1610    8    0    1
 -2       720       761       637      3095      3114      3383
 -1      1611    8    0    1
 -2       758       837       865      3335      3435      3436
 -1      1612    8    0    1
 -2       837       857       865      3403      3437      3435
 -1      1613    8    0    1
 -2       846       830       866      3430      3438      3439
 -1      1614    8    0    1
 -2       669       795       753      3206      3440      3068
 -1      1615    8    0    1
 -2       768       767       867      3124      3441      3442
 -1      1616    8    0    1
 -2       769       768       868      3127      3443      3444
 -1      1617    8    0    1
 -2       768       867       868      3442      3445      3443
 -1      1618    8    0    1
 -2       770       769       869      3130      3446      3447
 -1      1619    8    0    1
 -2       769       868       869      3444      3448      3446
 -1      1620    8    0    1
 -2       771       770       870      3133      3449      3450
 -1      1621    8    0    1
 -2       770       869       870      3447      3451      3449
 -1      1622    8    0    1
 -2       772       771       871      3136      3452      3453
 -1      1623    8    0    1
 -2       771       870       871      3450      3454      3452
 -1      1624    8    0    1
 -2       773       772       872      3139      3455      3456
 -1      1625    8    0    1
 -2       772       871       872      3453      3457      3455
 -1      1626    8    0    1
 -2       774       773       873      3142      3458      3459
 -1      1627    8    0    1
 -2       773       872       873      3456      3460      3458
 -1      1628    8    0    1
 -2       775       774       874      3145      3461      3462
 -1      1629    8    0    1
 -2       774       873       874      3459      3463      3461
 -1      1630    8    0    1
 -2       776       775       875      3148      3464      3465
 -1      1631    8    0    1
 -2       775       874       875      3462      3466      3464
 -1      1632    8    0    1
 -2       777       776       876      3151      3467      3468
 -1      1633    8    0    1
 -2       776       875       876      3465      3469      3467
 -1      1634    8    0    1
 -2       778       777       877      3154      3470      3471
 -1      1635    8    0    1
 -2       777       876       877      3468      3472      3470
 -1      1636    8    0    1
 -2       779       778       878      3157      3473      3474
 -1      1637    8    0    1
 -2       778       877       878      3471      3475      3473
 -1      1638    8    0    1
 -2       780       779       879      3160      3476      3477
 -1      1639    8    0    1
 -2       779       878       879      3474      3478      3476
 -1      1640    8    0    1
 -2       781       780       880      3163      3479      3480
 -1      1641    8    0    1
 -2       780       879       880      3477      3481      3479
 -1      1642    8    0    1
 -2       782       781       881      3166      3482      3483
 -1      1643    8    0    1
 -2       781       880       881      3480      3484      3482
 -1      1644    8    0    1
 -2       783       782       882      3169      3485      3486
 -1      1645    8    0    1
 -2       782       881       882      3483      3487      3485
 -1      1646    8    0    1
 -2       784       783       883      3172      3488      3489
 -1      1647    8    0    1
 -2       783       882       883      3486      3490      3488
 -1      1648    8    0    1
 -2       785       784       884      3175      3491      3492
 -1      1649    8    0    1
 -2       784       883       884      3489      3493      3491
 -1      1650    8    0    1
 -2       786       785       885      3178      3494      3495
 -1      1651    8    0    1
 -2       785       884       885      3492      3496      3494
 -1      1652    8    0    1
 -2       787       786       886      3181      3497      3498
 -1      1653    8    0    1
 -2       786       885       886      3495      3499      3497
 -1      1654    8    0    1
 -2       788       787       887      3184      3500      3501
 -1      1655    8    0    1
 -2       787       886       887      3498      3502      3500
 -1      1656    8    0    1
 -2       789       788       888      3187      3503      3504
 -1      1657    8    0    1
 -2       788       887       888      3501      3505      3503
 -1      1658    8    0    1
 -2       790       789       889      3190      3506      3507
 -1      1659    8    0    1
 -2       789       888       889      3504      3508      3506
 -1      1660    8    0    1
 -2       791       790       890      3193      3509      3510
 -1      1661    8    0    1
 -2       790       889       890      3507      3511      3509
 -1      1662    8    0    1
 -2       792       791       891      3196      3512      3513
 -1      1663    8    0    1
 -2       791       890       891      3510      3514      3512
 -1      1664    8    0    1
 -2       793       792       892      3199      3515      3516
 -1      1665    8    0    1
 -2       792       891       892      3513      3517      3515
 -1      1666    8    0    1
 -2       794       793       893      3202      3518      3519
 -1      1667    8    0    1
 -2       793       892       893      3516      3520      3518
 -1      1668    8    0    1
 -2       795       794       894      3205      3521      3522
 -1      1669    8    0    1
 -2       794       893       894      3519      3523      3521
 -1      1670    8    0    1
 -2       796       797       859      3216      3524      3525
 -1      1671    8    0    1
 -2       672       589       756      3084      3085      3526
 -1      1672    8    0    1
 -2       798       799       895      3222      3527      3528
 -1      1673    8    0    1
 -2       799       800       896      3225      3529      3530
 -1      1674    8    0    1
 -2       799       896       895      3530      3531      3527
 -1      1675    8    0    1
 -2       800       801       897      3228      3532      3533
 -1      1676    8    0    1
 -2       800       897       896      3533      3534      3529
 -1      1677    8    0    1
 -2       801       802       898      3231      3535      3536
 -1      1678    8    0    1
 -2       801       898       897      3536      3537      3532
 -1      1679    8    0    1
 -2       802       803       899      3234      3538      3539
 -1      1680    8    0    1
 -2       802       899       898      3539      3540      3535
 -1      1681    8    0    1
 -2       803       804       900      3237      3541      3542
 -1      1682    8    0    1
 -2       803       900       899      3542      3543      3538
 -1      1683    8    0    1
 -2       804       805       901      3240      3544      3545
 -1      1684    8    0    1
 -2       804       901       900      3545      3546      3541
 -1      1685    8    0    1
 -2       805       806       902      3243      3547      3548
 -1      1686    8    0    1
 -2       805       902       901      3548      3549      3544
 -1      1687    8    0    1
 -2       806       807       903      3246      3550      3551
 -1      1688    8    0    1
 -2       806       903       902      3551      3552      3547
 -1      1689    8    0    1
 -2       807       808       904      3249      3553      3554
 -1      1690    8    0    1
 -2       807       904       903      3554      3555      3550
 -1      1691    8    0    1
 -2       808       809       905      3252      3556      3557
 -1      1692    8    0    1
 -2       808       905       904      3557      3558      3553
 -1      1693    8    0    1
 -2       809       810       906      3255      3559      3560
 -1      1694    8    0    1
 -2       809       906       905      3560      3561      3556
 -1      1695    8    0    1
 -2       810       811       907      3258      3562      3563
 -1      1696    8    0    1
 -2       810       907       906      3563      3564      3559
 -1      1697    8    0    1
 -2       811       812       908      3261      3565      3566
 -1      1698    8    0    1
 -2       811       908       907      3566      3567      3562
 -1      1699    8    0    1
 -2       812       813       909      3264      3568      3569
 -1      1700    8    0    1
 -2       812       909       908      3569      3570      3565
 -1      1701    8    0    1
 -2       813       814       910      3267      3571      3572
 -1      1702    8    0    1
 -2       813       910       909      3572      3573      3568
 -1      1703    8    0    1
 -2       814       815       911      3270      3574      3575
 -1      1704    8    0    1
 -2       814       911       910      3575      3576      3571
 -1      1705    8    0    1
 -2       815       816       912      3273      3577      3578
 -1      1706    8    0    1
 -2       815       912       911      3578      3579      3574
 -1      1707    8    0    1
 -2       816       817       913      3276      3580      3581
 -1      1708    8    0    1
 -2       816       913       912      3581      3582      3577
 -1      1709    8    0    1
 -2       817       818       914      3279      3583      3584
 -1      1710    8    0    1
 -2       817       914       913      3584      3585      3580
 -1      1711    8    0    1
 -2       818       819       915      3282      3586      3587
 -1      1712    8    0    1
 -2       818       915       914      3587      3588      3583
 -1      1713    8    0    1
 -2       819       820       916      3285      3589      3590
 -1      1714    8    0    1
 -2       819       916       915      3590      3591      3586
 -1      1715    8    0    1
 -2       820       821       917      3288      3592      3593
 -1      1716    8    0    1
 -2       820       917       916      3593      3594      3589
 -1      1717    8    0    1
 -2       821       822       918      3291      3595      3596
 -1      1718    8    0    1
 -2       821       918       917      3596      3597      3592
 -1      1719    8    0    1
 -2       822       823       919      3294      3598      3599
 -1      1720    8    0    1
 -2       822       919       918      3599      3600      3595
 -1      1721    8    0    1
 -2       823       824       920      3297      3601      3602
 -1      1722    8    0    1
 -2       823       920       919      3602      3603      3598
 -1      1723    8    0    1
 -2       824       825       921      3300      3604      3605
 -1      1724    8    0    1
 -2       824       921       920      3605      3606      3601
 -1      1725    8    0    1
 -2       826       748       754      3304      3072      3607
 -1      1726    8    0    1
 -2       828       827       922      3310      3608      3609
 -1      1727    8    0    1
 -2       755       745       923      3077      3610      3611
 -1      1728    8    0    1
 -2       854       755       923      3391      3611      3612
 -1      1729    8    0    1
 -2       745       849       923      3369      3613      3610
 -1      1730    8    0    1
 -2       862       718       753      3417      3067      3614
 -1      1731    8    0    1
 -2       766       761       838      3118      3339      3615
 -1      1732    8    0    1
 -2       827       832       924      3321      3616      3617
 -1      1733    8    0    1
 -2       827       924       922      3617      3618      3608
 -1      1734    8    0    1
 -2       836       760       925      3375      3619      3620
 -1      1735    8    0    1
 -2       724       672       756      2971      3526      3428
 -1      1736    8    0    1
 -2       751       844       926      3382      3621      3622
 -1      1737    8    0    1
 -2       834       712       765      3325      3367      3623
 -1      1738    8    0    1
 -2       762       836       927      3331      3624      3625
 -1      1739    8    0    1
 -2       836       925       927      3620      3626      3624
 -1      1740    8    0    1
 -2       845       846       928      3384      3627      3628
 -1      1741    8    0    1
 -2       835       848       929      3374      3629      3630
 -1      1742    8    0    1
 -2       847       835       930      3420      3631      3632
 -1      1743    8    0    1
 -2       842       840       931      3350      3633      3634
 -1      1744    8    0    1
 -2       760       841       932      3426      3635      3636
 -1      1745    8    0    1
 -2       925       760       932      3619      3636      3637
 -1      1746    8    0    1
 -2       841       851       932      3378      3638      3635
 -1      1747    8    0    1
 -2       843       829       833      3353      3639      3431
 -1      1748    8    0    1
 -2       831       845       933      3358      3640      3641
 -1      1749    8    0    1
 -2       829       847       934      3364      3642      3643
 -1      1750    8    0    1
 -2       847       930       934      3632      3644      3642
 -1      1751    8    0    1
 -2       797       798       935      3219      3645      3646
 -1      1752    8    0    1
 -2       798       895       935      3528      3647      3645
 -1      1753    8    0    1
 -2       862       753       795      3614      3440      3648
 -1      1754    8    0    1
 -2       862       795       894      3648      3522      3649
 -1      1755    8    0    1
 -2       826       754       860      3607      3413      3650
 -1      1756    8    0    1
 -2       833       829       934      3639      3643      3651
 -1      1757    8    0    1
 -2       850       758       865      3371      3436      3652
 -1      1758    8    0    1
 -2       853       855       936      3396      3653      3654
 -1      1759    8    0    1
 -2       866       830       937      3438      3655      3656
 -1      1760    8    0    1
 -2       830       856       937      3400      3657      3655
 -1      1761    8    0    1
 -2       764       763       931      3103      3658      3659
 -1      1762    8    0    1
 -2       858       833       934      3407      3651      3660
 -1      1763    8    0    1
 -2       862       894       832      3649      3661      3429
 -1      1764    8    0    1
 -2       767       766       938      3121      3662      3663
 -1      1765    8    0    1
 -2       859       797       935      3524      3646      3664
 -1      1766    8    0    1
 -2       926       844       939      3621      3665      3666
 -1      1767    8    0    1
 -2       844       861       939      3416      3667      3665
 -1      1768    8    0    1
 -2       852       750       859      3387      3409      3668
 -1      1769    8    0    1
 -2       932       851       940      3638      3669      3670
 -1      1770    8    0    1
 -2       851       854       940      3393      3671      3669
 -1      1771    8    0    1
 -2       765       764       834      3380      3672      3623
 -1      1772    8    0    1
 -2       849       839       941      3370      3673      3674
 -1      1773    8    0    1
 -2       757       796       746      3213      3675      3379
 -1      1774    8    0    1
 -2       856       747       942      3398      3676      3677
 -1      1775    8    0    1
 -2       747       852       942      3386      3678      3676
 -1      1776    8    0    1
 -2       861       842       943      3414      3679      3680
 -1      1777    8    0    1
 -2       842       931       943      3634      3681      3679
 -1      1778    8    0    1
 -2       845       928       933      3628      3682      3640
 -1      1779    8    0    1
 -2       834       764       840      3672      3683      3419
 -1      1780    8    0    1
 -2       840       764       931      3683      3659      3633
 -1      1781    8    0    1
 -2       746       796       859      3675      3525      3410
 -1      1782    8    0    1
 -2       931       763       943      3658      3684      3681
 -1      1783    8    0    1
 -2       938       766       838      3662      3615      3685
 -1      1784    8    0    1
 -2       941       839       944      3673      3686      3687
 -1      1785    8    0    1
 -2       839       863       944      3424      3688      3686
 -1      1786    8    0    1
 -2       855       828       945      3397      3689      3690
 -1      1787    8    0    1
 -2       855       945       936      3690      3691      3653
 -1      1788    8    0    1
 -2       943       763       762      3684      3100      3692
 -1      1789    8    0    1
 -2       860       853       946      3411      3693      3694
 -1      1790    8    0    1
 -2       853       936       946      3654      3695      3693
 -1      1791    8    0    1
 -2       846       866       947      3439      3696      3697
 -1      1792    8    0    1
 -2       846       947       928      3697      3698      3627
 -1      1793    8    0    1
 -2       728       850       863      3373      3699      3425
 -1      1794    8    0    1
 -2       924       832       894      3616      3661      3700
 -1      1795    8    0    1
 -2       930       835       929      3631      3630      3701
 -1      1796    8    0    1
 -2       929       848       948      3629      3702      3703
 -1      1797    8    0    1
 -2       848       864       948      3434      3704      3702
 -1      1798    8    0    1
 -2       828       922       945      3609      3705      3689
 -1      1799    8    0    1
 -2       767       938       867      3663      3706      3441
 -1      1800    8    0    1
 -2       751       926       864      3622      3707      3432
 -1      1801    8    0    1
 -2       838       831       938      3340      3708      3685
 -1      1802    8    0    1
 -2       825       826       949      3388      3709      3710
 -1      1803    8    0    1
 -2       938       831       933      3708      3641      3711
 -1      1804    8    0    1
 -2       762       927       943      3625      3712      3692
 -1      1805    8    0    1
 -2       825       949       921      3710      3713      3604
 -1      1806    8    0    1
 -2       922       924       950      3618      3714      3715
 -1      1807    8    0    1
 -2       858       934       951      3660      3716      3717
 -1      1808    8    0    1
 -2       864       926       952      3707      3718      3719
 -1      1809    8    0    1
 -2       859       935       852      3664      3720      3668
 -1      1810    8    0    1
 -2       826       860       949      3650      3721      3709
 -1      1811    8    0    1
 -2       869       868       953      3448      3722      3723
 -1      1812    8    0    1
 -2       870       869       954      3451      3724      3725
 -1      1813    8    0    1
 -2       869       953       954      3723      3726      3724
 -1      1814    8    0    1
 -2       871       870       955      3454      3727      3728
 -1      1815    8    0    1
 -2       870       954       955      3725      3729      3727
 -1      1816    8    0    1
 -2       872       871       956      3457      3730      3731
 -1      1817    8    0    1
 -2       871       955       956      3728      3732      3730
 -1      1818    8    0    1
 -2       873       872       957      3460      3733      3734
 -1      1819    8    0    1
 -2       872       956       957      3731      3735      3733
 -1      1820    8    0    1
 -2       874       873       958      3463      3736      3737
 -1      1821    8    0    1
 -2       873       957       958      3734      3738      3736
 -1      1822    8    0    1
 -2       875       874       959      3466      3739      3740
 -1      1823    8    0    1
 -2       874       958       959      3737      3741      3739
 -1      1824    8    0    1
 -2       876       875       960      3469      3742      3743
 -1      1825    8    0    1
 -2       875       959       960      3740      3744      3742
 -1      1826    8    0    1
 -2       877       876       961      3472      3745      3746
 -1      1827    8    0    1
 -2       876       960       961      3743      3747      3745
 -1      1828    8    0    1
 -2       878       877       962      3475      3748      3749
 -1      1829    8    0    1
 -2       877       961       962      3746      3750      3748
 -1      1830    8    0    1
 -2       879       878       963      3478      3751      3752
 -1      1831    8    0    1
 -2       878       962       963      3749      3753      3751
 -1      1832    8    0    1
 -2       880       879       964      3481      3754      3755
 -1      1833    8    0    1
 -2       879       963       964      3752      3756      3754
 -1      1834    8    0    1
 -2       881       880       965      3484      3757      3758
 -1      1835    8    0    1
 -2       880       964       965      3755      3759      3757
 -1      1836    8    0    1
 -2       882       881       966      3487      3760      3761
 -1      1837    8    0    1
 -2       881       965       966      3758      3762      3760
 -1      1838    8    0    1
 -2       883       882       967      3490      3763      3764
 -1      1839    8    0    1
 -2       882       966       967      3761      3765      3763
 -1      1840    8    0    1
 -2       884       883       968      3493      3766      3767
 -1      1841    8    0    1
 -2       883       967       968      3764      3768      3766
 -1      1842    8    0    1
 -2       885       884       969      3496      3769      3770
 -1      1843    8    0    1
 -2       884       968       969      3767      3771      3769
 -1      1844    8    0    1
 -2       886       885       970      3499      3772      3773
 -1      1845    8    0    1
 -2       885       969       970      3770      3774      3772
 -1      1846    8    0    1
 -2       887       886       971      3502      3775      3776
 -1      1847    8    0    1
 -2       886       970       971      3773      3777      3775
 -1      1848    8    0    1
 -2       888       887       972      3505      3778      3779
 -1      1849    8    0    1
 -2       887       971       972      3776      3780      3778
 -1      1850    8    0    1
 -2       889       888       973      3508      3781      3782
 -1      1851    8    0    1
 -2       888       972       973      3779      3783      3781
 -1      1852    8    0    1
 -2       890       889       974      3511      3784      3785
 -1      1853    8    0    1
 -2       889       973       974      3782      3786      3784
 -1      1854    8    0    1
 -2       891       890       975      3514      3787      3788
 -1      1855    8    0    1
 -2       890       974       975      3785      3789      3787
 -1      1856    8    0    1
 -2       892       891       976      3517      3790      3791
 -1      1857    8    0    1
 -2       891       975       976      3788      3792      3790
 -1      1858    8    0    1
 -2       893       892       977      3520      3793      3794
 -1      1859    8    0    1
 -2       892       976       977      3791      3795      3793
 -1      1860    8    0    1
 -2       896       897       978      3534      3796      3797
 -1      1861    8    0    1
 -2       867       938       933      3706      3711      3798
 -1      1862    8    0    1
 -2       895       896       979      3531      3799      3800
 -1      1863    8    0    1
 -2       896       978       979      3797      3801      3799
 -1      1864    8    0    1
 -2       898       899       980      3540      3802      3803
 -1      1865    8    0    1
 -2       899       900       981      3543      3804      3805
 -1      1866    8    0    1
 -2       899       981       980      3805      3806      3802
 -1      1867    8    0    1
 -2       900       901       982      3546      3807      3808
 -1      1868    8    0    1
 -2       900       982       981      3808      3809      3804
 -1      1869    8    0    1
 -2       901       902       983      3549      3810      3811
 -1      1870    8    0    1
 -2       901       983       982      3811      3812      3807
 -1      1871    8    0    1
 -2       902       903       984      3552      3813      3814
 -1      1872    8    0    1
 -2       902       984       983      3814      3815      3810
 -1      1873    8    0    1
 -2       903       904       985      3555      3816      3817
 -1      1874    8    0    1
 -2       903       985       984      3817      3818      3813
 -1      1875    8    0    1
 -2       904       905       986      3558      3819      3820
 -1      1876    8    0    1
 -2       904       986       985      3820      3821      3816
 -1      1877    8    0    1
 -2       905       906       987      3561      3822      3823
 -1      1878    8    0    1
 -2       905       987       986      3823      3824      3819
 -1      1879    8    0    1
 -2       906       907       988      3564      3825      3826
 -1      1880    8    0    1
 -2       906       988       987      3826      3827      3822
 -1      1881    8    0    1
 -2       907       908       989      3567      3828      3829
 -1      1882    8    0    1
 -2       907       989       988      3829      3830      3825
 -1      1883    8    0    1
 -2       908       909       990      3570      3831      3832
 -1      1884    8    0    1
 -2       908       990       989      3832      3833      3828
 -1      1885    8    0    1
 -2       909       910       991      3573      3834      3835
 -1      1886    8    0    1
 -2       909       991       990      3835      3836      3831
 -1      1887    8    0    1
 -2       910       911       992      3576      3837      3838
 -1      1888    8    0    1
 -2       910       992       991      3838      3839      3834
 -1      1889    8    0    1
 -2       911       912       993      3579      3840      3841
 -1      1890    8    0    1
 -2       911       993       992      3841      3842      3837
 -1      1891    8    0    1
 -2       912       913       994      3582      3843      3844
 -1      1892    8    0    1
 -2       912       994       993      3844      3845      3840
 -1      1893    8    0    1
 -2       913       914       995      3585      3846      3847
 -1      1894    8    0    1
 -2       913       995       994      3847      3848      3843
 -1      1895    8    0    1
 -2       914       915       996      3588      3849      3850
 -1      1896    8    0    1
 -2       914       996       995      3850      3851      3846
 -1      1897    8    0    1
 -2       915       916       997      3591      3852      3853
 -1      1898    8    0    1
 -2       915       997       996      3853      3854      3849
 -1      1899    8    0    1
 -2       916       917       998      3594      3855      3856
 -1      1900    8    0    1
 -2       916       998       997      3856      3857      3852
 -1      1901    8    0    1
 -2       917       918       999      3597      3858      3859
 -1      1902    8    0    1
 -2       917       999       998      3859      3860      3855
 -1      1903    8    0    1
 -2       918       919      1000      3600      3861      3862
 -1      1904    8    0    1
 -2       918      1000       999      3862      3863      3858
 -1      1905    8    0    1
 -2       919       920      1001      3603      3864      3865
 -1      1906    8    0    1
 -2       919      1001      1000      3865      3866      3861
 -1      1907    8    0    1
 -2       920       921      1002      3606      3867      3868
 -1      1908    8    0    1
 -2       920      1002      1001      3868      3869      3864
 -1      1909    8    0    1
 -2       857       858       951      3406      3717      3870
 -1      1910    8    0    1
 -2       934       930       951      3644      3871      3716
 -1      1911    8    0    1
 -2       849       941      1003      3674      3872      3873
 -1      1912    8    0    1
 -2       927       925      1004      3626      3874      3875
 -1      1913    8    0    1
 -2       924       894      1005      3700      3876      3877
 -1      1914    8    0    1
 -2       950       924      1005      3714      3877      3878
 -1      1915    8    0    1
 -2       894       893      1005      3523      3879      3876
 -1      1916    8    0    1
 -2       949       860       946      3721      3694      3880
 -1      1917    8    0    1
 -2       863       850      1006      3699      3881      3882
 -1      1918    8    0    1
 -2       863      1006       944      3882      3883      3688
 -1      1919    8    0    1
 -2       936       945      1007      3691      3884      3885
 -1      1920    8    0    1
 -2       933       928      1008      3682      3886      3887
 -1      1921    8    0    1
 -2       930       929      1006      3701      3888      3889
 -1      1922    8    0    1
 -2       850       865      1006      3652      3890      3881
 -1      1923    8    0    1
 -2       943       927      1009      3712      3891      3892
 -1      1924    8    0    1
 -2       861       943      1009      3680      3892      3893
 -1      1925    8    0    1
 -2       927      1004      1009      3875      3894      3891
 -1      1926    8    0    1
 -2       935       895      1010      3647      3895      3896
 -1      1927    8    0    1
 -2       895       979      1010      3800      3897      3895
 -1      1928    8    0    1
 -2       945       922      1011      3705      3898      3899
 -1      1929    8    0    1
 -2       922       950      1011      3715      3900      3898
 -1      1930    8    0    1
 -2       897       898      1012      3537      3901      3902
 -1      1931    8    0    1
 -2       898       980      1012      3803      3903      3901
 -1      1932    8    0    1
 -2       852       935      1010      3720      3896      3904
 -1      1933    8    0    1
 -2       867       933      1008      3798      3887      3905
 -1      1934    8    0    1
 -2       921       949       946      3713      3880      3906
 -1      1935    8    0    1
 -2       866       937      1013      3656      3907      3908
 -1      1936    8    0    1
 -2       866      1013       947      3908      3909      3696
 -1      1937    8    0    1
 -2       868       867      1008      3445      3905      3910
 -1      1938    8    0    1
 -2       864       952       948      3719      3911      3704
 -1      1939    8    0    1
 -2       936      1007      1014      3885      3912      3913
 -1      1940    8    0    1
 -2       936      1014       946      3913      3914      3695
 -1      1941    8    0    1
 -2       953       868      1008      3722      3910      3915
 -1      1942    8    0    1
 -2       978       897      1012      3796      3902      3916
 -1      1943    8    0    1
 -2       939       861      1009      3667      3893      3917
 -1      1944    8    0    1
 -2      1005       893       977      3879      3794      3918
 -1      1945    8    0    1
 -2       923       849      1003      3613      3873      3919
 -1      1946    8    0    1
 -2      1008       928      1015      3886      3920      3921
 -1      1947    8    0    1
 -2       953      1008      1015      3915      3921      3922
 -1      1948    8    0    1
 -2       928       947      1015      3698      3923      3920
 -1      1949    8    0    1
 -2       854       923      1016      3612      3924      3925
 -1      1950    8    0    1
 -2       940       854      1016      3671      3925      3926
 -1      1951    8    0    1
 -2       923      1003      1016      3919      3927      3924
 -1      1952    8    0    1
 -2      1003       941       952      3872      3928      3929
 -1      1953    8    0    1
 -2       865       857       951      3437      3870      3930
 -1      1954    8    0    1
 -2       937       856      1017      3657      3931      3932
 -1      1955    8    0    1
 -2       856       942      1017      3677      3933      3931
 -1      1956    8    0    1
 -2      1006       929       944      3888      3934      3883
 -1      1957    8    0    1
 -2      1007       945      1011      3884      3899      3935
 -1      1958    8    0    1
 -2       929       948       944      3703      3936      3934
 -1      1959    8    0    1
 -2      1006       865       951      3890      3930      3937
 -1      1960    8    0    1
 -2       925       932      1018      3637      3938      3939
 -1      1961    8    0    1
 -2      1004       925      1018      3874      3939      3940
 -1      1962    8    0    1
 -2       932       940      1018      3670      3941      3938
 -1      1963    8    0    1
 -2       941       944       948      3687      3936      3942
 -1      1964    8    0    1
 -2       952       926      1019      3718      3943      3944
 -1      1965    8    0    1
 -2      1003       952      1019      3929      3944      3945
 -1      1966    8    0    1
 -2       926       939      1019      3666      3946      3943
 -1      1967    8    0    1
 -2       941       948       952      3942      3911      3928
 -1      1968    8    0    1
 -2       951       930      1006      3871      3889      3937
 -1      1969    8    0    1
 -2       954       953      1020      3726      3947      3948
 -1      1970    8    0    1
 -2       953      1015      1020      3922      3949      3947
 -1      1971    8    0    1
 -2       852      1010       942      3904      3950      3678
 -1      1972    8    0    1
 -2       955       954      1021      3729      3951      3952
 -1      1973    8    0    1
 -2       954      1020      1021      3948      3953      3951
 -1      1974    8    0    1
 -2       956       955      1022      3732      3954      3955
 -1      1975    8    0    1
 -2       955      1021      1022      3952      3956      3954
 -1      1976    8    0    1
 -2       957       956      1023      3735      3957      3958
 -1      1977    8    0    1
 -2       956      1022      1023      3955      3959      3957
 -1      1978    8    0    1
 -2       958       957      1024      3738      3960      3961
 -1      1979    8    0    1
 -2       957      1023      1024      3958      3962      3960
 -1      1980    8    0    1
 -2       959       958      1025      3741      3963      3964
 -1      1981    8    0    1
 -2       958      1024      1025      3961      3965      3963
 -1      1982    8    0    1
 -2       960       959      1026      3744      3966      3967
 -1      1983    8    0    1
 -2       959      1025      1026      3964      3968      3966
 -1      1984    8    0    1
 -2       961       960      1027      3747      3969      3970
 -1      1985    8    0    1
 -2       960      1026      1027      3967      3971      3969
 -1      1986    8    0    1
 -2       962       961      1028      3750      3972      3973
 -1      1987    8    0    1
 -2       961      1027      1028      3970      3974      3972
 -1      1988    8    0    1
 -2       963       962      1029      3753      3975      3976
 -1      1989    8    0    1
 -2       962      1028      1029      3973      3977      3975
 -1      1990    8    0    1
 -2       964       963      1030      3756      3978      3979
 -1      1991    8    0    1
 -2       963      1029      1030      3976      3980      3978
 -1      1992    8    0    1
 -2       965       964      1031      3759      3981      3982
 -1      1993    8    0    1
 -2       964      1030      1031      3979      3983      3981
 -1      1994    8    0    1
 -2       966       965      1032      3762      3984      3985
 -1      1995    8    0    1
 -2       965      1031      1032      3982      3986      3984
 -1      1996    8    0    1
 -2       967       966      1033      3765      3987      3988
 -1      1997    8    0    1
 -2       966      1032      1033      3985      3989      3987
 -1      1998    8    0    1
 -2       968       967      1034      3768      3990      3991
 -1      1999    8    0    1
 -2       967      1033      1034      3988      3992      3990
 -1      2000    8    0    1
 -2       969       968      1035      3771      3993      3994
 -1      2001    8    0    1
 -2       968      1034      1035      3991      3995      3993
 -1      2002    8    0    1
 -2       970       969      1036      3774      3996      3997
 -1      2003    8    0    1
 -2       969      1035      1036      3994      3998      3996
 -1      2004    8    0    1
 -2       971       970      1037      3777      3999      4000
 -1      2005    8    0    1
 -2       970      1036      1037      3997      4001      3999
 -1      2006    8    0    1
 -2       972       971      1038      3780      4002      4003
 -1      2007    8    0    1
 -2       971      1037      1038      4000      4004      4002
 -1      2008    8    0    1
 -2       973       972      1039      3783      4005      4006
 -1      2009    8    0    1
 -2       972      1038      1039      4003      4007      4005
 -1      2010    8    0    1
 -2       974       973      1040      3786      4008      4009
 -1      2011    8    0    1
 -2       973      1039      1040      4006      4010      4008
 -1      2012    8    0    1
 -2       975       974      1041      3789      4011      4012
 -1      2013    8    0    1
 -2       974      1040      1041      4009      4013      4011
 -1      2014    8    0    1
 -2       976       975      1042      3792      4014      4015
 -1      2015    8    0    1
 -2       975      1041      1042      4012      4016      4014
 -1      2016    8    0    1
 -2       977       976      1043      3795      4017      4018
 -1      2017    8    0    1
 -2       976      1042      1043      4015      4019      4017
 -1      2018    8    0    1
 -2       979       978      1044      3801      4020      4021
 -1      2019    8    0    1
 -2       981       982      1045      3809      4022      4023
 -1      2020    8    0    1
 -2       980       981      1046      3806      4024      4025
 -1      2021    8    0    1
 -2       981      1045      1046      4023      4026      4024
 -1      2022    8    0    1
 -2       983       984      1047      3815      4027      4028
 -1      2023    8    0    1
 -2       984       985      1048      3818      4029      4030
 -1      2024    8    0    1
 -2       984      1048      1047      4030      4031      4027
 -1      2025    8    0    1
 -2       985       986      1049      3821      4032      4033
 -1      2026    8    0    1
 -2       985      1049      1048      4033      4034      4029
 -1      2027    8    0    1
 -2       986       987      1050      3824      4035      4036
 -1      2028    8    0    1
 -2       986      1050      1049      4036      4037      4032
 -1      2029    8    0    1
 -2       987       988      1051      3827      4038      4039
 -1      2030    8    0    1
 -2       987      1051      1050      4039      4040      4035
 -1      2031    8    0    1
 -2       988       989      1052      3830      4041      4042
 -1      2032    8    0    1
 -2       988      1052      1051      4042      4043      4038
 -1      2033    8    0    1
 -2       989       990      1053      3833      4044      4045
 -1      2034    8    0    1
 -2       989      1053      1052      4045      4046      4041
 -1      2035    8    0    1
 -2       990       991      1054      3836      4047      4048
 -1      2036    8    0    1
 -2       990      1054      1053      4048      4049      4044
 -1      2037    8    0    1
 -2       991       992      1055      3839      4050      4051
 -1      2038    8    0    1
 -2       991      1055      1054      4051      4052      4047
 -1      2039    8    0    1
 -2       992       993      1056      3842      4053      4054
 -1      2040    8    0    1
 -2       992      1056      1055      4054      4055      4050
 -1      2041    8    0    1
 -2       993       994      1057      3845      4056      4057
 -1      2042    8    0    1
 -2       993      1057      1056      4057      4058      4053
 -1      2043    8    0    1
 -2       994       995      1058      3848      4059      4060
 -1      2044    8    0    1
 -2       994      1058      1057      4060      4061      4056
 -1      2045    8    0    1
 -2       995       996      1059      3851      4062      4063
 -1      2046    8    0    1
 -2       995      1059      1058      4063      4064      4059
 -1      2047    8    0    1
 -2       996       997      1060      3854      4065      4066
 -1      2048    8    0    1
 -2       996      1060      1059      4066      4067      4062
 -1      2049    8    0    1
 -2       997       998      1061      3857      4068      4069
 -1      2050    8    0    1
 -2       997      1061      1060      4069      4070      4065
 -1      2051    8    0    1
 -2       998       999      1062      3860      4071      4072
 -1      2052    8    0    1
 -2       998      1062      1061      4072      4073      4068
 -1      2053    8    0    1
 -2       999      1000      1063      3863      4074      4075
 -1      2054    8    0    1
 -2       999      1063      1062      4075      4076      4071
 -1      2055    8    0    1
 -2      1000      1001      1064      3866      4077      4078
 -1      2056    8    0    1
 -2      1000      1064      1063      4078      4079      4074
 -1      2057    8    0    1
 -2      1002       921       946      3867      3906      4080
 -1      2058    8    0    1
 -2       939      1009      1065      3917      4081      4082
 -1      2059    8    0    1
 -2      1019       939      1065      3946      4082      4083
 -1      2060    8    0    1
 -2      1009      1004      1065      3894      4084      4081
 -1      2061    8    0    1
 -2       978      1012      1066      3916      4085      4086
 -1      2062    8    0    1
 -2       978      1066      1044      4086      4087      4020
 -1      2063    8    0    1
 -2      1005       977      1067      3918      4088      4089
 -1      2064    8    0    1
 -2       950      1005      1067      3878      4089      4090
 -1      2065    8    0    1
 -2       977      1043      1067      4018      4091      4088
 -1      2066    8    0    1
 -2      1007      1011      1068      3935      4092      4093
 -1      2067    8    0    1
 -2       982       983      1069      3812      4094      4095
 -1      2068    8    0    1
 -2       983      1047      1069      4028      4096      4094
 -1      2069    8    0    1
 -2      1011       950      1070      3900      4097      4098
 -1      2070    8    0    1
 -2      1068      1011      1070      4092      4098      4099
 -1      2071    8    0    1
 -2       950      1067      1070      4090      4100      4097
 -1      2072    8    0    1
 -2      1012       980      1071      3903      4101      4102
 -1      2073    8    0    1
 -2      1012      1071      1066      4102      4103      4085
 -1      2074    8    0    1
 -2       942      1010      1017      3950      4104      3933
 -1      2075    8    0    1
 -2      1002       946      1014      4080      3914      4105
 -1      2076    8    0    1
 -2      1013       937      1072      3907      4106      4107
 -1      2077    8    0    1
 -2      1014      1007      1073      3912      4108      4109
 -1      2078    8    0    1
 -2      1007      1068      1073      4093      4110      4108
 -1      2079    8    0    1
 -2      1045       982      1069      4022      4095      4111
 -1      2080    8    0    1
 -2       980      1046      1071      4025      4112      4101
 -1      2081    8    0    1
 -2      1072       937      1017      4106      3932      4113
 -1      2082    8    0    1
 -2      1064      1001      1073      4077      4114      4115
 -1      2083    8    0    1
 -2      1001      1002      1073      3869      4116      4114
 -1      2084    8    0    1
 -2      1065      1004      1018      4084      3940      4117
 -1      2085    8    0    1
 -2      1015       947      1074      3923      4118      4119
 -1      2086    8    0    1
 -2      1015      1074      1020      4119      4120      3949
 -1      2087    8    0    1
 -2      1016      1003      1019      3927      3945      4121
 -1      2088    8    0    1
 -2       940      1016      1018      3926      4122      3941
 -1      2089    8    0    1
 -2      1010       979      1017      3897      4123      4104
 -1      2090    8    0    1
 -2       979      1044      1017      4021      4124      4123
 -1      2091    8    0    1
 -2      1074       947      1013      4118      3909      4125
 -1      2092    8    0    1
 -2      1046      1045      1075      4026      4126      4127
 -1      2093    8    0    1
 -2      1021      1020      1076      3953      4128      4129
 -1      2094    8    0    1
 -2      1020      1074      1076      4120      4130      4128
 -1      2095    8    0    1
 -2      1022      1021      1077      3956      4131      4132
 -1      2096    8    0    1
 -2      1021      1076      1077      4129      4133      4131
 -1      2097    8    0    1
 -2      1023      1022      1078      3959      4134      4135
 -1      2098    8    0    1
 -2      1022      1077      1078      4132      4136      4134
 -1      2099    8    0    1
 -2      1024      1023      1079      3962      4137      4138
 -1      2100    8    0    1
 -2      1023      1078      1079      4135      4139      4137
 -1      2101    8    0    1
 -2      1025      1024      1080      3965      4140      4141
 -1      2102    8    0    1
 -2      1024      1079      1080      4138      4142      4140
 -1      2103    8    0    1
 -2      1026      1025      1081      3968      4143      4144
 -1      2104    8    0    1
 -2      1025      1080      1081      4141      4145      4143
 -1      2105    8    0    1
 -2      1027      1026      1082      3971      4146      4147
 -1      2106    8    0    1
 -2      1026      1081      1082      4144      4148      4146
 -1      2107    8    0    1
 -2      1028      1027      1083      3974      4149      4150
 -1      2108    8    0    1
 -2      1027      1082      1083      4147      4151      4149
 -1      2109    8    0    1
 -2      1029      1028      1084      3977      4152      4153
 -1      2110    8    0    1
 -2      1028      1083      1084      4150      4154      4152
 -1      2111    8    0    1
 -2      1030      1029      1085      3980      4155      4156
 -1      2112    8    0    1
 -2      1029      1084      1085      4153      4157      4155
 -1      2113    8    0    1
 -2      1031      1030      1086      3983      4158      4159
 -1      2114    8    0    1
 -2      1030      1085      1086      4156      4160      4158
 -1      2115    8    0    1
 -2      1032      1031      1087      3986      4161      4162
 -1      2116    8    0    1
 -2      1031      1086      1087      4159      4163      4161
 -1      2117    8    0    1
 -2      1033      1032      1088      3989      4164      4165
 -1      2118    8    0    1
 -2      1032      1087      1088      4162      4166      4164
 -1      2119    8    0    1
 -2      1034      1033      1089      3992      4167      4168
 -1      2120    8    0    1
 -2      1033      1088      1089      4165      4169      4167
 -1      2121    8    0    1
 -2      1035      1034      1090      3995      4170      4171
 -1      2122    8    0    1
 -2      1034      1089      1090      4168      4172      4170
 -1      2123    8    0    1
 -2      1036      1035      1091      3998      4173      4174
 -1      2124    8    0    1
 -2      1035      1090      1091      4171      4175      4173
 -1      2125    8    0    1
 -2      1037      1036      1092      4001      4176      4177
 -1      2126    8    0    1
 -2      1036      1091      1092      4174      4178      4176
 -1      2127    8    0    1
 -2      1038      1037      1093      4004      4179      4180
 -1      2128    8    0    1
 -2      1037      1092      1093      4177      4181      4179
 -1      2129    8    0    1
 -2      1039      1038      1094      4007      4182      4183
 -1      2130    8    0    1
 -2      1038      1093      1094      4180      4184      4182
 -1      2131    8    0    1
 -2      1040      1039      1095      4010      4185      4186
 -1      2132    8    0    1
 -2      1039      1094      1095      4183      4187      4185
 -1      2133    8    0    1
 -2      1041      1040      1096      4013      4188      4189
 -1      2134    8    0    1
 -2      1040      1095      1096      4186      4190      4188
 -1      2135    8    0    1
 -2      1042      1041      1097      4016      4191      4192
 -1      2136    8    0    1
 -2      1041      1096      1097      4189      4193      4191
 -1      2137    8    0    1
 -2      1066      1071      1098      4103      4194      4195
 -1      2138    8    0    1
 -2      1049      1050      1099      4037      4196      4197
 -1      2139    8    0    1
 -2      1045      1069      1100      4111      4198      4199
 -1      2140    8    0    1
 -2      1045      1100      1075      4199      4200      4126
 -1      2141    8    0    1
 -2      1048      1049      1101      4034      4201      4202
 -1      2142    8    0    1
 -2      1049      1099      1101      4197      4203      4201
 -1      2143    8    0    1
 -2      1047      1048      1102      4031      4204      4205
 -1      2144    8    0    1
 -2      1048      1101      1102      4202      4206      4204
 -1      2145    8    0    1
 -2      1050      1051      1103      4040      4207      4208
 -1      2146    8    0    1
 -2      1050      1103      1099      4208      4209      4196
 -1      2147    8    0    1
 -2      1051      1052      1104      4043      4210      4211
 -1      2148    8    0    1
 -2      1051      1104      1103      4211      4212      4207
 -1      2149    8    0    1
 -2      1052      1053      1105      4046      4213      4214
 -1      2150    8    0    1
 -2      1052      1105      1104      4214      4215      4210
 -1      2151    8    0    1
 -2      1053      1054      1106      4049      4216      4217
 -1      2152    8    0    1
 -2      1053      1106      1105      4217      4218      4213
 -1      2153    8    0    1
 -2      1054      1055      1107      4052      4219      4220
 -1      2154    8    0    1
 -2      1054      1107      1106      4220      4221      4216
 -1      2155    8    0    1
 -2      1055      1056      1108      4055      4222      4223
 -1      2156    8    0    1
 -2      1055      1108      1107      4223      4224      4219
 -1      2157    8    0    1
 -2      1056      1057      1109      4058      4225      4226
 -1      2158    8    0    1
 -2      1056      1109      1108      4226      4227      4222
 -1      2159    8    0    1
 -2      1057      1058      1110      4061      4228      4229
 -1      2160    8    0    1
 -2      1057      1110      1109      4229      4230      4225
 -1      2161    8    0    1
 -2      1058      1059      1111      4064      4231      4232
 -1      2162    8    0    1
 -2      1058      1111      1110      4232      4233      4228
 -1      2163    8    0    1
 -2      1059      1060      1112      4067      4234      4235
 -1      2164    8    0    1
 -2      1059      1112      1111      4235      4236      4231
 -1      2165    8    0    1
 -2      1060      1061      1113      4070      4237      4238
 -1      2166    8    0    1
 -2      1060      1113      1112      4238      4239      4234
 -1      2167    8    0    1
 -2      1061      1062      1114      4073      4240      4241
 -1      2168    8    0    1
 -2      1061      1114      1113      4241      4242      4237
 -1      2169    8    0    1
 -2      1062      1063      1115      4076      4243      4244
 -1      2170    8    0    1
 -2      1062      1115      1114      4244      4245      4240
 -1      2171    8    0    1
 -2      1063      1064      1116      4079      4246      4247
 -1      2172    8    0    1
 -2      1063      1116      1115      4247      4248      4243
 -1      2173    8    0    1
 -2      1073      1002      1014      4116      4105      4109
 -1      2174    8    0    1
 -2      1064      1073      1116      4115      4249      4246
 -1      2175    8    0    1
 -2      1067      1043      1070      4091      4250      4100
 -1      2176    8    0    1
 -2      1013      1072      1117      4107      4251      4252
 -1      2177    8    0    1
 -2      1013      1117      1074      4252      4253      4125
 -1      2178    8    0    1
 -2      1072      1017      1044      4113      4124      4254
 -1      2179    8    0    1
 -2      1069      1047      1118      4096      4255      4256
 -1      2180    8    0    1
 -2      1047      1102      1118      4205      4257      4255
 -1      2181    8    0    1
 -2      1019      1065      1016      4083      4258      4121
 -1      2182    8    0    1
 -2      1071      1046      1119      4112      4259      4260
 -1      2183    8    0    1
 -2      1046      1075      1119      4127      4261      4259
 -1      2184    8    0    1
 -2      1072      1044      1120      4254      4262      4263
 -1      2185    8    0    1
 -2      1117      1072      1120      4251      4263      4264
 -1      2186    8    0    1
 -2      1044      1066      1120      4087      4265      4262
 -1      2187    8    0    1
 -2      1018      1016      1065      4122      4258      4117
 -1      2188    8    0    1
 -2      1073      1068      1116      4110      4266      4249
 -1      2189    8    0    1
 -2      1066      1098      1120      4195      4267      4265
 -1      2190    8    0    1
 -2      1098      1071      1119      4194      4260      4268
 -1      2191    8    0    1
 -2      1043      1042      1121      4019      4269      4270
 -1      2192    8    0    1
 -2      1068      1070      1121      4099      4271      4272
 -1      2193    8    0    1
 -2      1070      1043      1121      4250      4270      4271
 -1      2194    8    0    1
 -2      1116      1068      1121      4266      4272      4273
 -1      2195    8    0    1
 -2      1100      1069      1118      4198      4256      4274
 -1      2196    8    0    1
 -2      1042      1097      1121      4192      4275      4269
 -1      2197    8    0    1
 -2      1076      1074      1117      4130      4253      4276
 -1      2198    8    0    1
 -2      1116      1121      1097      4273      4275      4277
 -1      2199    8    0    1
 -2      1077      1076      1098      4133      4278      4279
 -1      2200    8    0    1
 -2      1078      1077      1119      4136      4280      4281
 -1      2201    8    0    1
 -2      1079      1078      1075      4139      4282      4283
 -1      2202    8    0    1
 -2      1080      1079      1100      4142      4284      4285
 -1      2203    8    0    1
 -2      1081      1080      1118      4145      4286      4287
 -1      2204    8    0    1
 -2      1082      1081      1102      4148      4288      4289
 -1      2205    8    0    1
 -2      1083      1082      1101      4151      4290      4291
 -1      2206    8    0    1
 -2      1084      1083      1099      4154      4292      4293
 -1      2207    8    0    1
 -2      1085      1084      1103      4157      4294      4295
 -1      2208    8    0    1
 -2      1086      1085      1104      4160      4296      4297
 -1      2209    8    0    1
 -2      1087      1086      1105      4163      4298      4299
 -1      2210    8    0    1
 -2      1088      1087      1106      4166      4300      4301
 -1      2211    8    0    1
 -2      1089      1088      1107      4169      4302      4303
 -1      2212    8    0    1
 -2      1090      1089      1108      4172      4304      4305
 -1      2213    8    0    1
 -2      1091      1090      1109      4175      4306      4307
 -1      2214    8    0    1
 -2      1092      1091      1110      4178      4308      4309
 -1      2215    8    0    1
 -2      1093      1092      1111      4181      4310      4311
 -1      2216    8    0    1
 -2      1094      1093      1112      4184      4312      4313
 -1      2217    8    0    1
 -2      1095      1094      1113      4187      4314      4315
 -1      2218    8    0    1
 -2      1096      1095      1114      4190      4316      4317
 -1      2219    8    0    1
 -2      1097      1096      1115      4193      4318      4319
 -1      2220    8    0    1
 -2      1100      1118      1080      4274      4286      4285
 -1      2221    8    0    1
 -2      1104      1085      1103      4296      4295      4212
 -1      2222    8    0    1
 -2      1075      1100      1079      4200      4284      4283
 -1      2223    8    0    1
 -2      1099      1083      1101      4292      4291      4203
 -1      2224    8    0    1
 -2      1102      1101      1082      4206      4290      4289
 -1      2225    8    0    1
 -2      1104      1105      1086      4215      4298      4297
 -1      2226    8    0    1
 -2      1105      1106      1087      4218      4300      4299
 -1      2227    8    0    1
 -2      1106      1107      1088      4221      4302      4301
 -1      2228    8    0    1
 -2      1107      1108      1089      4224      4304      4303
 -1      2229    8    0    1
 -2      1108      1109      1090      4227      4306      4305
 -1      2230    8    0    1
 -2      1109      1110      1091      4230      4308      4307
 -1      2231    8    0    1
 -2      1110      1111      1092      4233      4310      4309
 -1      2232    8    0    1
 -2      1111      1112      1093      4236      4312      4311
 -1      2233    8    0    1
 -2      1112      1113      1094      4239      4314      4313
 -1      2234    8    0    1
 -2      1113      1114      1095      4242      4316      4315
 -1      2235    8    0    1
 -2      1114      1115      1096      4245      4318      4317
 -1      2236    8    0    1
 -2      1115      1116      1097      4248      4277      4319
 -1      2237    8    0    1
 -2      1099      1103      1084      4209      4294      4293
 -1      2238    8    0    1
 -2      1075      1078      1119      4282      4281      4261
 -1      2239    8    0    1
 -2      1118      1102      1081      4257      4288      4287
 -1      2240    8    0    1
 -2      1119      1077      1098      4280      4279      4268
 -1      2241    8    0    1
 -2      1120      1098      1076      4267      4278      4320
 -1      2242    8    0    1
 -2      1076      1117      1120      4276      4264      4320
 -3
    1PSTEP                         1           1           1          
  100CL  101 1.000000000        4320                     0    1           1
 -4  DISP        4    1
 -5  D1          1    2    1    0
 -5  D2          1    2    2    0
 -5  D3          1    2    3    0
 -5  ALL         1    2    0    0    1ALL
 -1         1 3.80463E-03-7.69444E-04-6.85521E-15
 -1         2 6.01877E-03 8.36837E-05-9.54552E-15
 -1         3 1.53171E-02 1.19852E-03-1.06499E-13
 -1         4 1.51056E-02-2.30904E-04-1.10964E-13
 -1         5 0.00000E+00 0.00000E+00 0.00000E+00
 -1         6 0.00000E+00 0.00000E+00 0.00000E+00
 -1         7 0.00000E+00 0.00000E+00 0.00000E+00
 -1         8 0.00000E+00 0.00000E+00 0.00000E+00
 -1         9 0.00000E+00 0.00000E+00 0.00000E+00
 -1        10 0.00000E+00 0.00000E+00 0.00000E+00
 -1        11 0.00000E+00 0.00000E+00 0.00000E+00
 -1        12 0.00000E+00 0.00000E+00 0.00000E+00
 -1        13 0.00000E+00 0.00000E+00 0.00000E+00
 -1        14 0.00000E+00 0.00000E+00 0.00000E+00
 -1        15 0.00000E+00 0.00000E+00 0.00000E+00
 -1        16 0.00000E+00 0.00000E+00 0.00000E+00
 -1        17 0.00000E+00 0.00000E+00 0.00000E+00
 -1        18 0.00000E+00 0.00000E+00 0.00000E+00
 -1        19 0.00000E+00 0.00000E+00 0.00000E+00
 -1        20 0.00000E+00 0.00000E+00 0.00000E+00
 -1        21 0.00000E+00 0.00000E+00 0.00000E+00
 -1        22 0.00000E+00 0.00000E+00 0.00000E+00
 -1        23 4.39952E-04-2.51688E-04 1.06116E-17
 -1        24 7.72863E-04-3.79353E-04-1.02759E-16
 -1        25 1.09583E-03-4.74460E-04-3.34622E-16
 -1        26 1.42189E-03-5.56242E-04-6.81746E-16
 -1        27 1.75297E-03-6.37099E-04-1.13932E-15
 -1        28 2.08718E-03-7.24605E-04-1.70712E-15
 -1        29 2.41941E-03-8.22394E-04-2.38501E-15
 -1        30 2.74209E-03-9.28845E-04-3.17267E-15
 -1        31 3.04721E-03-1.03559E-03-4.06906E-15
 -1        32 3.32978E-03-1.12768E-03-5.07539E-15
 -1        33 3.59154E-03-1.18716E-03-6.19143E-15
 -1        34 3.84236E-03-1.19989E-03-7.41349E-15
 -1        35 4.09712E-03-1.16229E-03-8.74546E-15
 -1        36 4.36947E-03-1.08339E-03-1.01837E-14
 -1        37 4.66635E-03-9.80683E-04-1.17265E-14
 -1        38 4.98656E-03-8.72917E-04-1.33713E-14
 -1        39 5.32332E-03-7.74308E-04-1.51100E-14
 -1        40 5.66804E-03-6.92482E-04-1.69382E-14
 -1        41 6.01327E-03-6.29392E-04-1.88528E-14
 -1        42 6.35390E-03-5.83412E-04-2.08510E-14
 -1        43 6.68720E-03-5.51293E-04-2.29350E-14
 -1        44 7.01226E-03-5.29471E-04-2.51001E-14
 -1        45 7.32930E-03-5.14747E-04-2.73493E-14
 -1        46 7.63919E-03-5.04549E-04-2.96859E-14
 -1        47 7.94302E-03-4.96952E-04-3.20945E-14
 -1        48 8.24194E-03-4.90596E-04-3.45738E-14
 -1        49 8.53699E-03-4.84572E-04-3.71211E-14
 -1        50 8.82907E-03-4.78310E-04-3.97305E-14
 -1        51 9.11895E-03-4.71484E-04-4.23983E-14
 -1        52 9.40722E-03-4.63935E-04-4.51220E-14
 -1        53 9.69436E-03-4.55616E-04-4.79033E-14
 -1        54 9.98071E-03-4.46550E-04-5.07339E-14
 -1        55 1.02666E-02-4.36799E-04-5.36111E-14
 -1        56 1.05521E-02-4.26445E-04-5.65358E-14
 -1        57 1.08374E-02-4.15577E-04-5.95208E-14
 -1        58 1.11227E-02-4.04281E-04-6.25484E-14
 -1        59 1.14079E-02-3.92637E-04-6.56334E-14
 -1        60 1.16932E-02-3.80716E-04-6.87767E-14
 -1        61 1.19785E-02-3.68579E-04-7.19760E-14
 -1        62 1.22639E-02-3.56276E-04-7.52432E-14
 -1        63 1.25493E-02-3.43849E-04-7.85973E-14
 -1        64 1.28347E-02-3.31332E-04-8.20228E-14
 -1        65 1.31203E-02-3.18752E-04-8.55201E-14
 -1        66 1.34058E-02-3.06130E-04-8.90895E-14
 -1        67 1.36915E-02-2.93483E-04-9.27151E-14
 -1        68 1.39771E-02-2.80827E-04-9.63698E-14
 -1        69 1.42628E-02-2.68171E-04-1.00039E-13
 -1        70 1.45485E-02-2.55525E-04-1.03717E-13
 -1        71 1.48342E-02-2.42893E-04-1.07425E-13
 -1        72 4.42968E-04 2.50411E-04 7.17945E-17
 -1        73 7.77298E-04 3.77837E-04 6.64514E-17
 -1        74 1.10614E-03 4.70832E-04-2.02068E-17
 -1        75 1.43984E-03 5.52819E-04-1.92514E-16
 -1        76 1.78116E-03 6.36426E-04-4.55595E-16
 -1        77 2.12863E-03 7.30612E-04-8.11098E-16
 -1        78 2.47678E-03 8.40664E-04-1.26138E-15
 -1        79 2.81645E-03 9.66099E-04-1.80914E-15
 -1        80 3.13683E-03 1.09791E-03-2.46246E-15
 -1        81 3.43003E-03 1.21767E-03-3.23073E-15
 -1        82 3.69667E-03 1.30162E-03-4.11441E-15
 -1        83 3.94870E-03 1.33018E-03-5.11056E-15
 -1        84 4.20555E-03 1.29816E-03-6.21788E-15
 -1        85 4.48484E-03 1.21797E-03-7.44241E-15
 -1        86 4.79442E-03 1.11316E-03-8.78514E-15
 -1        87 5.13102E-03 1.00763E-03-1.02480E-14
 -1        88 5.48469E-03 9.17914E-04-1.18211E-14
 -1        89 5.84438E-03 8.51438E-04-1.34877E-14
 -1        90 6.20146E-03 8.08625E-04-1.52509E-14
 -1        91 6.55072E-03 7.86099E-04-1.71045E-14
 -1        92 6.88990E-03 7.79193E-04-1.90457E-14
 -1        93 7.21875E-03 7.83390E-04-2.10753E-14
 -1        94 7.53812E-03 7.94939E-04-2.31926E-14
 -1        95 7.84938E-03 8.10988E-04-2.53982E-14
 -1        96 8.15397E-03 8.29500E-04-2.76842E-14
 -1        97 8.45328E-03 8.49086E-04-3.00554E-14
 -1        98 8.74852E-03 8.68853E-04-3.25157E-14
 -1        99 9.04068E-03 8.88259E-04-3.50518E-14
 -1       100 9.33058E-03 9.07008E-04-3.76628E-14
 -1       101 9.61884E-03 9.24969E-04-4.03439E-14
 -1       102 9.90596E-03 9.42113E-04-4.30911E-14
 -1       103 1.01923E-02 9.58480E-04-4.59056E-14
 -1       104 1.04781E-02 9.74141E-04-4.87759E-14
 -1       105 1.07636E-02 9.89188E-04-5.17073E-14
 -1       106 1.10490E-02 1.00371E-03-5.47276E-14
 -1       107 1.13342E-02 1.01780E-03-5.78305E-14
 -1       108 1.16195E-02 1.03155E-03-6.10002E-14
 -1       109 1.19047E-02 1.04501E-03-6.42335E-14
 -1       110 1.21900E-02 1.05825E-03-6.75267E-14
 -1       111 1.24754E-02 1.07133E-03-7.08669E-14
 -1       112 1.27608E-02 1.08429E-03-7.42576E-14
 -1       113 1.30463E-02 1.09715E-03-7.76898E-14
 -1       114 1.33318E-02 1.10996E-03-8.11699E-14
 -1       115 1.36174E-02 1.12272E-03-8.46969E-14
 -1       116 1.39030E-02 1.13545E-03-8.82668E-14
 -1       117 1.41886E-02 1.14818E-03-9.18857E-14
 -1       118 1.44743E-02 1.16090E-03-9.55474E-14
 -1       119 1.47600E-02 1.17364E-03-9.92516E-14
 -1       120 1.50457E-02 1.18639E-03-1.02967E-13
 -1       121 1.53046E-02 1.11423E-03-1.06821E-13
 -1       122 1.52920E-02 1.02994E-03-1.07143E-13
 -1       123 1.52795E-02 9.45645E-04-1.07460E-13
 -1       124 1.52669E-02 8.61326E-04-1.07785E-13
 -1       125 1.52543E-02 7.76985E-04-1.08081E-13
 -1       126 1.52419E-02 6.94054E-04-1.08360E-13
 -1       127 1.52294E-02 6.09676E-04-1.08616E-13
 -1       128 1.52169E-02 5.25287E-04-1.08869E-13
 -1       129 1.52044E-02 4.40894E-04-1.09113E-13
 -1       130 1.51920E-02 3.56506E-04-1.09342E-13
 -1       131 1.51795E-02 2.72128E-04-1.09565E-13
 -1       132 1.51674E-02 1.89197E-04-1.09819E-13
 -1       133 1.51550E-02 1.04857E-04-1.10074E-13
 -1       134 1.51426E-02 2.05383E-05-1.10319E-13
 -1       135 1.51302E-02-6.37606E-05-1.10538E-13
 -1       136 1.51178E-02-1.48048E-04-1.10752E-13
 -1       137 5.98089E-03 2.45952E-04-9.40100E-15
 -1       138 5.85160E-03 4.08741E-04-9.11625E-15
 -1       139 5.59576E-03 5.80296E-04-8.65633E-15
 -1       140 5.30479E-03 7.05773E-04-8.18159E-15
 -1       141 4.89693E-03 8.20827E-04-7.56727E-15
 -1       142 4.47328E-03 8.91502E-04-6.98038E-15
 -1       143 4.02014E-03 9.24207E-04-6.39910E-15
 -1       144 3.55006E-03 9.15735E-04-5.83821E-15
 -1       145 3.03735E-03 8.55826E-04-5.27189E-15
 -1       146 2.63328E-03 7.68134E-04-4.86160E-15
 -1       147 2.25675E-03 6.42900E-04-4.50395E-15
 -1       148 1.96814E-03 5.01268E-04-4.25540E-15
 -1       149 1.76563E-03 3.50182E-04-4.10229E-15
 -1       150 1.64411E-03 1.87383E-04-4.03702E-15
 -1       151 1.61508E-03 1.55244E-05-4.06992E-15
 -1       152 1.68285E-03-1.49379E-04-4.19916E-15
 -1       153 1.85189E-03-3.12794E-04-4.43355E-15
 -1       154 2.09778E-03-4.55278E-04-4.74556E-15
 -1       155 2.44942E-03-5.87972E-04-5.17737E-15
 -1       156 2.86755E-03-6.88273E-04-5.68692E-15
 -1       157 3.33226E-03-7.50559E-04-6.26112E-15
 -1       158 4.23414E-03-7.50056E-04-7.40236E-15
 -1       159 4.63686E-03-6.98951E-04-7.92253E-15
 -1       160 5.00855E-03-6.19183E-04-8.40557E-15
 -1       161 5.34293E-03-5.12498E-04-8.83766E-15
 -1       162 5.61585E-03-3.87308E-04-9.17996E-15
 -1       163 5.83489E-03-2.38005E-04-9.43456E-15
 -1       164 5.96591E-03-8.53694E-05-9.55487E-15
 -1       165 2.63564E-04-1.05050E-04-3.20721E-17
 -1       166 2.41565E-04-6.74958E-05-4.45472E-17
 -1       167 2.27088E-04-4.19738E-05-5.03409E-17
 -1       168 2.14846E-04-2.37111E-05-5.26482E-17
 -1       169 2.04265E-04-1.12524E-05-5.29531E-17
 -1       170 1.95376E-04-3.32928E-06-5.22518E-17
 -1       171 1.89213E-04 7.71579E-07-5.09338E-17
 -1       172 1.86612E-04 2.49918E-06-4.93922E-17
 -1       173 1.88048E-04 3.75225E-06-4.70544E-17
 -1       174 1.93434E-04 6.58184E-06-4.37340E-17
 -1       175 2.02003E-04 1.26928E-05-3.94480E-17
 -1       176 2.13263E-04 2.37443E-05-3.30885E-17
 -1       177 2.26523E-04 4.09656E-05-2.39100E-17
 -1       178 2.42199E-04 6.62731E-05-1.04964E-17
 -1       179 2.64034E-04 1.04618E-04 1.00018E-17
 -1       180 3.28550E-04 1.67834E-04 3.30953E-17
 -1       181 5.18165E-04-2.36722E-04-8.50082E-17
 -1       182 8.56269E-04-3.45113E-04-2.73930E-16
 -1       183 1.18600E-03-4.31060E-04-5.71635E-16
 -1       184 1.51456E-03-5.10352E-04-9.77439E-16
 -1       185 1.84392E-03-5.93149E-04-1.48968E-15
 -1       186 2.17330E-03-6.85889E-04-2.10934E-15
 -1       187 2.49977E-03-7.90431E-04-2.83626E-15
 -1       188 2.81904E-03-9.02174E-04-3.67057E-15
 -1       189 3.12716E-03-1.00873E-03-4.61275E-15
 -1       190 3.42276E-03-1.09147E-03-5.66421E-15
 -1       191 3.70894E-03-1.13139E-03-6.82592E-15
 -1       192 3.99304E-03-1.11769E-03-8.09521E-15
 -1       193 4.28364E-03-1.05356E-03-9.47349E-15
 -1       194 4.58665E-03-9.54821E-04-1.09558E-14
 -1       195 4.90323E-03-8.42442E-04-1.25413E-14
 -1       196 5.23047E-03-7.34586E-04-1.42253E-14
 -1       197 5.56351E-03-6.42454E-04-1.60000E-14
 -1       198 5.89755E-03-5.70251E-04-1.78628E-14
 -1       199 6.22895E-03-5.17312E-04-1.98108E-14
 -1       200 6.55543E-03-4.80485E-04-2.18441E-14
 -1       201 6.87597E-03-4.55873E-04-2.39602E-14
 -1       202 7.19039E-03-4.39810E-04-2.61592E-14
 -1       203 7.49907E-03-4.29273E-04-2.84438E-14
 -1       204 7.80269E-03-4.21971E-04-3.08062E-14
 -1       205 8.10201E-03-4.16271E-04-3.32403E-14
 -1       206 8.39784E-03-4.11072E-04-3.57445E-14
 -1       207 8.69086E-03-4.05680E-04-3.83148E-14
 -1       208 8.98172E-03-3.99689E-04-4.09466E-14
 -1       209 9.27093E-03-3.92900E-04-4.36342E-14
 -1       210 9.55892E-03-3.85244E-04-4.63811E-14
 -1       211 9.84602E-03-3.76739E-04-4.91806E-14
 -1       212 1.01325E-02-3.67451E-04-5.20316E-14
 -1       213 1.04185E-02-3.57471E-04-5.49358E-14
 -1       214 1.07043E-02-3.46898E-04-5.78905E-14
 -1       215 1.09899E-02-3.35832E-04-6.09008E-14
 -1       216 1.12754E-02-3.24363E-04-6.39642E-14
 -1       217 1.15609E-02-3.12573E-04-6.70832E-14
 -1       218 1.18463E-02-3.00530E-04-7.02559E-14
 -1       219 1.21318E-02-2.88295E-04-7.34923E-14
 -1       220 1.24173E-02-2.75914E-04-7.68025E-14
 -1       221 1.27028E-02-2.63426E-04-8.01878E-14
 -1       222 1.29884E-02-2.50863E-04-8.36407E-14
 -1       223 1.32739E-02-2.38249E-04-8.71631E-14
 -1       224 1.35596E-02-2.25604E-04-9.07470E-14
 -1       225 1.38452E-02-2.12942E-04-9.43723E-14
 -1       226 1.41309E-02-2.00278E-04-9.80250E-14
 -1       227 1.44166E-02-1.87621E-04-1.01697E-13
 -1       228 1.47023E-02-1.74979E-04-1.05387E-13
 -1       229 6.75240E-04 2.95615E-04 6.46456E-18
 -1       230 1.01203E-03 3.90391E-04-9.62534E-17
 -1       231 1.34642E-03 4.71788E-04-2.82072E-16
 -1       232 1.68308E-03 5.53518E-04-5.55681E-16
 -1       233 2.02285E-03 6.45557E-04-9.19593E-16
 -1       234 2.36353E-03 7.54381E-04-1.37737E-15
 -1       235 2.70031E-03 8.80849E-04-1.93255E-15
 -1       236 3.02700E-03 1.01698E-03-2.59178E-15
 -1       237 3.33860E-03 1.14424E-03-3.36103E-15
 -1       238 3.63469E-03 1.23694E-03-4.24399E-15
 -1       239 3.92152E-03 1.27239E-03-5.24251E-15
 -1       240 4.21023E-03 1.24296E-03-6.35463E-15
 -1       241 4.51137E-03 1.16093E-03-7.58488E-15
 -1       242 4.82980E-03 1.05166E-03-8.93103E-15
 -1       243 5.16375E-03 9.41266E-04-1.03915E-14
 -1       244 5.50732E-03 8.47763E-04-1.19600E-14
 -1       245 5.85379E-03 7.79055E-04-1.36265E-14
 -1       246 6.19774E-03 7.35428E-04-1.53848E-14
 -1       247 6.53573E-03 7.13111E-04-1.72322E-14
 -1       248 6.86613E-03 7.07033E-04-1.91723E-14
 -1       249 7.18863E-03 7.12355E-04-2.11989E-14
 -1       250 7.50371E-03 7.25108E-04-2.33131E-14
 -1       251 7.81226E-03 7.42312E-04-2.55107E-14
 -1       252 8.11533E-03 7.61858E-04-2.77915E-14
 -1       253 8.41393E-03 7.82332E-04-3.01580E-14
 -1       254 8.70899E-03 8.02836E-04-3.26091E-14
 -1       255 9.00130E-03 8.22839E-04-3.51373E-14
 -1       256 9.29154E-03 8.42061E-04-3.77366E-14
 -1       257 9.58024E-03 8.60389E-04-4.04111E-14
 -1       258 9.86781E-03 8.77813E-04-4.31538E-14
 -1       259 1.01546E-02 8.94389E-04-4.59594E-14
 -1       260 1.04408E-02 9.10203E-04-4.88233E-14
 -1       261 1.07267E-02 9.25359E-04-5.17543E-14
 -1       262 1.10123E-02 9.39959E-04-5.47673E-14
 -1       263 1.12979E-02 9.54102E-04-5.78564E-14
 -1       264 1.15833E-02 9.67877E-04-6.10138E-14
 -1       265 1.18687E-02 9.81360E-04-6.42305E-14
 -1       266 1.21542E-02 9.94615E-04-6.75051E-14
 -1       267 1.24396E-02 1.00770E-03-7.08342E-14
 -1       268 1.27251E-02 1.02065E-03-7.42158E-14
 -1       269 1.30106E-02 1.03352E-03-7.76450E-14
 -1       270 1.32962E-02 1.04631E-03-8.11222E-14
 -1       271 1.35818E-02 1.05907E-03-8.46449E-14
 -1       272 1.38674E-02 1.07180E-03-8.82101E-14
 -1       273 1.41530E-02 1.08452E-03-9.18174E-14
 -1       274 1.44387E-02 1.09724E-03-9.54670E-14
 -1       275 1.47244E-02 1.10997E-03-9.91567E-14
 -1       276 1.50101E-02 1.12272E-03-1.02868E-13
 -1       277 1.50509E-02 1.06103E-03-1.03771E-13
 -1       278 1.50383E-02 9.76734E-04-1.04091E-13
 -1       279 1.50257E-02 8.92424E-04-1.04404E-13
 -1       280 1.50131E-02 8.08098E-04-1.04704E-13
 -1       281 1.50008E-02 7.25187E-04-1.04987E-13
 -1       282 1.49882E-02 6.40833E-04-1.05261E-13
 -1       283 1.49757E-02 5.56469E-04-1.05524E-13
 -1       284 1.49632E-02 4.72100E-04-1.05777E-13
 -1       285 1.49507E-02 3.87731E-04-1.06023E-13
 -1       286 1.49383E-02 3.03368E-04-1.06263E-13
 -1       287 1.49261E-02 2.20444E-04-1.06502E-13
 -1       288 1.49137E-02 1.36103E-04-1.06742E-13
 -1       289 1.49014E-02 5.17777E-05-1.06978E-13
 -1       290 1.48890E-02-3.25325E-05-1.07202E-13
 -1       291 1.47956E-02-1.03758E-04-1.06295E-13
 -1       292 6.03324E-03 1.31520E-04-1.01116E-14
 -1       293 5.91512E-03 2.25277E-04-9.88674E-15
 -1       294 5.65152E-03 3.43423E-04-9.51991E-15
 -1       295 5.31962E-03 5.23335E-04-8.82895E-15
 -1       296 4.94312E-03 7.01694E-04-8.15302E-15
 -1       297 4.55034E-03 8.67114E-04-7.40893E-15
 -1       298 4.17406E-03 9.71916E-04-6.71366E-15
 -1       299 3.80035E-03 1.00365E-03-6.04275E-15
 -1       300 3.40770E-03 9.41776E-04-5.37102E-15
 -1       301 2.98843E-03 7.95108E-04-4.85690E-15
 -1       302 2.59798E-03 6.21721E-04-4.43687E-15
 -1       303 2.22414E-03 4.42692E-04-4.11230E-15
 -1       304 1.91809E-03 2.92825E-04-3.89987E-15
 -1       305 1.69958E-03 1.70451E-04-3.76523E-15
 -1       306 1.59047E-03 7.54520E-05-3.72774E-15
 -1       307 1.62111E-03-1.05306E-05-3.83191E-15
 -1       308 1.78697E-03-1.08671E-04-4.00454E-15
 -1       309 2.05599E-03-2.52867E-04-4.33472E-15
 -1       310 2.40671E-03-4.18471E-04-4.73928E-15
 -1       311 2.81041E-03-5.98554E-04-5.26335E-15
 -1       312 3.22914E-03-7.52273E-04-5.86639E-15
 -1       313 3.61602E-03-8.40417E-04-6.55709E-15
 -1       314 3.97706E-03-8.34202E-04-7.22945E-15
 -1       315 4.32239E-03-7.63401E-04-7.86906E-15
 -1       316 4.67011E-03-6.39786E-04-8.47858E-15
 -1       317 5.02255E-03-4.85264E-04-9.03992E-15
 -1       318 5.36007E-03-3.25681E-04-9.52108E-15
 -1       319 5.66105E-03-1.72546E-04-9.93585E-15
 -1       320 5.89529E-03-5.71943E-05-1.01329E-14
 -1       321 6.02744E-03 4.53859E-05-1.02964E-14
 -1       322 4.81505E-04-1.15587E-04-1.69932E-16
 -1       323 5.17774E-04-1.71549E-04-1.51748E-16
 -1       324 4.26057E-04-4.25080E-05-1.81458E-16
 -1       325 4.03507E-04-2.05167E-05-1.80740E-16
 -1       326 3.85980E-04-6.41824E-06-1.77880E-16
 -1       327 3.75632E-04 1.90611E-06-1.73381E-16
 -1       328 3.74182E-04 7.55989E-06-1.67411E-16
 -1       329 3.82130E-04 1.42706E-05-1.59008E-16
 -1       330 3.98217E-04 2.54299E-05-1.48109E-16
 -1       331 4.21217E-04 4.43410E-05-1.33489E-16
 -1       332 4.49173E-04 7.31211E-05-1.13540E-16
 -1       333 4.81638E-04 1.14007E-04-8.63974E-17
 -1       334 5.21659E-04 1.70881E-04-4.88230E-17
 -1       335 5.91548E-04 2.28461E-04-2.64749E-17
 -1       336 9.23850E-04 3.22421E-04-1.39757E-16
 -1       337 9.54254E-04-3.08221E-04-4.58851E-16
 -1       338 1.27882E-03-3.86526E-04-8.16692E-16
 -1       339 1.60462E-03-4.64111E-04-1.27753E-15
 -1       340 1.93295E-03-5.49275E-04-1.84182E-15
 -1       341 2.26365E-03-6.47188E-04-2.50975E-15
 -1       342 2.59461E-03-7.57929E-04-3.28310E-15
 -1       343 2.92193E-03-8.73834E-04-4.16245E-15
 -1       344 3.24131E-03-9.78082E-04-5.14937E-15
 -1       345 3.55121E-03-1.04773E-03-6.24637E-15
 -1       346 3.85532E-03-1.06310E-03-7.45384E-15
 -1       347 4.16126E-03-1.01884E-03-8.77132E-15
 -1       348 4.47563E-03-9.27592E-04-1.01953E-14
 -1       349 4.79994E-03-8.12721E-04-1.17229E-14
 -1       350 5.13095E-03-6.96962E-04-1.33516E-14
 -1       351 5.46380E-03-5.95372E-04-1.50736E-14
 -1       352 5.79445E-03-5.14434E-04-1.68846E-14
 -1       353 6.12054E-03-4.54469E-04-1.87824E-14
 -1       354 6.44111E-03-4.12536E-04-2.07639E-14
 -1       355 6.75608E-03-3.84563E-04-2.28302E-14
 -1       356 7.06581E-03-3.66553E-04-2.49794E-14
 -1       357 7.37084E-03-3.55126E-04-2.72136E-14
 -1       358 7.67183E-03-3.47668E-04-2.95309E-14
 -1       359 7.96940E-03-3.42280E-04-3.19197E-14
 -1       360 8.26415E-03-3.37663E-04-3.43792E-14
 -1       361 8.55663E-03-3.32980E-04-3.69102E-14
 -1       362 8.84729E-03-3.27730E-04-3.95030E-14
 -1       363 9.13654E-03-3.21651E-04-4.21577E-14
 -1       364 9.42471E-03-3.14641E-04-4.48680E-14
 -1       365 9.71207E-03-3.06702E-04-4.76319E-14
 -1       366 9.99883E-03-2.97894E-04-5.04527E-14
 -1       367 1.02852E-02-2.88312E-04-5.33325E-14
 -1       368 1.05712E-02-2.78061E-04-5.62627E-14
 -1       369 1.08571E-02-2.67250E-04-5.92501E-14
 -1       370 1.11428E-02-2.55981E-04-6.22907E-14
 -1       371 1.14284E-02-2.44342E-04-6.53845E-14
 -1       372 1.17140E-02-2.32414E-04-6.85358E-14
 -1       373 1.19996E-02-2.20262E-04-7.17413E-14
 -1       374 1.22852E-02-2.07940E-04-7.50141E-14
 -1       375 1.25707E-02-1.95493E-04-7.83608E-14
 -1       376 1.28564E-02-1.82956E-04-8.17788E-14
 -1       377 1.31420E-02-1.70358E-04-8.52596E-14
 -1       378 1.34276E-02-1.57719E-04-8.87985E-14
 -1       379 1.37133E-02-1.45058E-04-9.23923E-14
 -1       380 1.39989E-02-1.32388E-04-9.60201E-14
 -1       381 1.42846E-02-1.19721E-04-9.96724E-14
 -1       382 1.45401E-02-1.11732E-04-1.02976E-13
 -1       383 1.25491E-03 4.02903E-04-3.33507E-16
 -1       384 1.58732E-03 4.82431E-04-6.12689E-16
 -1       385 1.92289E-03 5.71321E-04-9.80756E-16
 -1       386 2.26150E-03 6.77047E-04-1.44157E-15
 -1       387 2.60073E-03 8.02138E-04-1.99822E-15
 -1       388 2.93603E-03 9.40608E-04-2.65719E-15
 -1       389 3.26214E-03 1.07497E-03-3.42304E-15
 -1       390 3.57640E-03 1.17805E-03-4.30226E-15
 -1       391 3.88209E-03 1.22305E-03-5.29793E-15
 -1       392 4.18812E-03 1.19845E-03-6.40935E-15
 -1       393 4.50343E-03 1.11590E-03-7.63880E-15
 -1       394 4.83143E-03 1.00303E-03-8.98317E-15
 -1       395 5.16937E-03 8.88564E-04-1.04403E-14
 -1       396 5.51157E-03 7.91916E-04-1.20045E-14
 -1       397 5.85277E-03 7.21265E-04-1.36672E-14
 -1       398 6.18945E-03 6.76689E-04-1.54186E-14
 -1       399 6.51980E-03 6.54122E-04-1.72615E-14
 -1       400 6.84327E-03 6.48241E-04-1.91953E-14
 -1       401 7.16002E-03 6.54022E-04-2.12175E-14
 -1       402 7.47067E-03 6.67368E-04-2.33243E-14
 -1       403 7.77598E-03 6.85208E-04-2.55143E-14
 -1       404 8.07680E-03 7.05376E-04-2.77868E-14
 -1       405 8.37393E-03 7.26424E-04-3.01450E-14
 -1       406 8.66810E-03 7.47436E-04-3.25851E-14
 -1       407 8.95994E-03 7.67873E-04-3.51036E-14
 -1       408 9.24997E-03 7.87458E-04-3.76940E-14
 -1       409 9.53865E-03 8.06081E-04-4.03605E-14
 -1       410 9.82632E-03 8.23742E-04-4.30971E-14
 -1       411 1.01133E-02 8.40503E-04-4.58959E-14
 -1       412 1.03997E-02 8.56461E-04-4.87522E-14
 -1       413 1.06857E-02 8.71725E-04-5.16738E-14
 -1       414 1.09715E-02 8.86406E-04-5.46780E-14
 -1       415 1.12572E-02 9.00607E-04-5.77574E-14
 -1       416 1.15428E-02 9.14423E-04-6.09013E-14
 -1       417 1.18283E-02 9.27934E-04-6.41077E-14
 -1       418 1.21139E-02 9.41208E-04-6.73668E-14
 -1       419 1.23994E-02 9.54303E-04-7.06820E-14
 -1       420 1.26849E-02 9.67265E-04-7.40562E-14
 -1       421 1.29705E-02 9.80130E-04-7.74803E-14
 -1       422 1.32561E-02 9.92927E-04-8.09503E-14
 -1       423 1.35417E-02 1.00568E-03-8.44651E-14
 -1       424 1.38274E-02 1.01841E-03-8.80231E-14
 -1       425 1.41130E-02 1.03112E-03-9.16230E-14
 -1       426 1.43987E-02 1.04384E-03-9.52639E-14
 -1       427 1.46844E-02 1.05657E-03-9.89424E-14
 -1       428 1.48676E-02 1.05880E-03-1.01353E-13
 -1       429 1.47720E-02 8.39227E-04-1.01340E-13
 -1       430 1.47846E-02 9.23541E-04-1.01036E-13
 -1       431 1.48261E-02 9.91171E-04-1.01198E-13
 -1       432 1.47596E-02 7.56329E-04-1.01630E-13
 -1       433 1.47470E-02 6.71990E-04-1.01911E-13
 -1       434 1.47345E-02 5.87642E-04-1.02180E-13
 -1       435 1.47220E-02 5.03288E-04-1.02442E-13
 -1       436 1.47095E-02 4.18932E-04-1.02700E-13
 -1       437 1.46971E-02 3.34578E-04-1.02951E-13
 -1       438 1.46849E-02 2.51660E-04-1.03192E-13
 -1       439 1.46725E-02 1.67321E-04-1.03428E-13
 -1       440 1.46601E-02 8.29935E-05-1.03655E-13
 -1       441 1.46477E-02-1.32095E-06-1.03883E-13
 -1       442 5.81513E-03 2.15308E-04-1.04846E-14
 -1       443 6.06765E-03 9.47863E-05-1.10641E-14
 -1       444 6.01313E-03 1.37463E-04-1.08250E-14
 -1       445 5.42693E-03 3.89346E-04-9.60979E-15
 -1       446 5.07139E-03 5.70491E-04-8.85332E-15
 -1       447 4.51932E-04-7.36302E-05-1.78578E-16
 -1       448 4.30938E-03 9.46600E-04-7.16473E-15
 -1       449 3.98525E-03 1.03132E-03-6.37200E-15
 -1       450 3.65135E-03 1.01765E-03-5.60726E-15
 -1       451 3.23133E-03 8.60950E-04-4.76154E-15
 -1       452 2.92238E-03 6.99229E-04-4.35618E-15
 -1       453 2.47421E-03 4.71943E-04-3.97859E-15
 -1       454 2.10426E-03 2.93369E-04-3.69088E-15
 -1       455 1.81685E-03 1.66417E-04-3.47289E-15
 -1       456 1.62134E-03 9.07512E-05-3.41797E-15
 -1       457 1.57386E-03 3.80236E-05-3.47382E-15
 -1       458 1.67507E-03-1.15923E-05-3.53288E-15
 -1       459 1.94959E-03-1.25709E-04-3.90260E-15
 -1       460 2.28168E-03-2.67072E-04-4.23078E-15
 -1       461 2.67465E-03-4.71815E-04-4.78808E-15
 -1       462 3.06393E-03-6.63526E-04-5.34665E-15
 -1       463 3.46191E-03-8.31138E-04-6.13583E-15
 -1       464 3.81656E-03-8.82471E-04-7.01126E-15
 -1       465 4.07251E-03-8.43028E-04-7.64066E-15
 -1       466 4.43090E-03-7.08426E-04-8.46845E-15
 -1       467 4.77481E-03-5.37316E-04-9.15101E-15
 -1       468 5.12526E-03-3.48119E-04-9.84308E-15
 -1       469 5.46481E-03-1.87293E-04-1.03011E-14
 -1       470 5.78470E-03-3.97244E-05-1.08735E-14
 -1       471 5.96777E-03 3.14540E-05-1.10434E-14
 -1       472 4.66831E-03 7.81070E-04-7.99087E-15
 -1       473 5.65294E-03 2.73783E-04-1.05657E-14
 -1       474 1.01957E-03 2.84368E-04-3.08188E-16
 -1       475 5.96101E-04-2.45055E-05-3.79965E-16
 -1       476 6.30260E-04-5.33504E-05-3.83591E-16
 -1       477 5.61186E-04 7.36233E-06-3.62174E-16
 -1       478 5.66604E-04 1.88728E-05-3.48144E-16
 -1       479 5.87083E-04 3.42432E-05-3.29862E-16
 -1       480 6.20535E-04 5.85646E-05-3.06006E-16
 -1       481 6.63036E-04 9.47212E-05-2.75225E-16
 -1       482 7.11967E-04 1.44544E-04-2.35099E-16
 -1       483 1.34093E-03 3.57664E-04-5.67045E-16
 -1       484 1.05338E-03-2.70822E-04-6.58948E-16
 -1       485 4.49653E-03 8.69436E-04-7.79696E-15
 -1       486 1.37001E-03-3.40914E-04-1.07095E-15
 -1       487 1.69259E-03-4.15519E-04-1.58264E-15
 -1       488 2.02260E-03-5.01663E-04-2.19519E-15
 -1       489 2.36028E-03-6.04122E-04-2.90865E-15
 -1       490 2.70288E-03-7.22100E-04-3.72507E-15
 -1       491 3.04411E-03-8.44650E-04-4.64722E-15
 -1       492 3.37679E-03-9.47900E-04-5.67800E-15
 -1       493 3.69918E-03-1.00105E-03-6.82047E-15
 -1       494 4.01829E-03-9.83770E-04-8.07702E-15
 -1       495 4.34428E-03-9.01710E-04-9.44292E-15
 -1       496 4.68099E-03-7.82416E-04-1.09139E-14
 -1       497 5.02383E-03-6.56953E-04-1.24867E-14
 -1       498 5.36509E-03-5.45798E-04-1.41564E-14
 -1       499 5.69928E-03-4.57319E-04-1.59173E-14
 -1       500 6.02446E-03-3.91847E-04-1.77644E-14
 -1       501 6.34109E-03-3.45992E-04-1.96966E-14
 -1       502 6.65063E-03-3.15301E-04-2.17138E-14
 -1       503 6.95460E-03-2.95514E-04-2.38133E-14
 -1       504 7.25432E-03-2.83054E-04-2.59968E-14
 -1       505 7.55078E-03-2.75133E-04-2.82660E-14
 -1       506 7.84472E-03-2.69699E-04-3.06122E-14
 -1       507 8.13671E-03-2.65320E-04-3.30277E-14
 -1       508 8.42717E-03-2.61045E-04-3.55145E-14
 -1       509 8.71642E-03-2.56292E-04-3.80694E-14
 -1       510 9.00474E-03-2.50736E-04-4.06871E-14
 -1       511 9.29234E-03-2.44234E-04-4.33630E-14
 -1       512 9.57938E-03-2.36762E-04-4.60946E-14
 -1       513 9.86600E-03-2.28368E-04-4.88819E-14
 -1       514 1.01523E-02-2.19140E-04-5.17297E-14
 -1       515 1.04384E-02-2.09187E-04-5.46368E-14
 -1       516 1.07243E-02-1.98619E-04-5.75990E-14
 -1       517 1.10102E-02-1.87544E-04-6.06136E-14
 -1       518 1.12959E-02-1.76058E-04-6.36830E-14
 -1       519 1.15816E-02-1.64248E-04-6.68074E-14
 -1       520 1.18673E-02-1.52185E-04-6.99906E-14
 -1       521 1.21529E-02-1.39929E-04-7.32294E-14
 -1       522 1.24386E-02-1.27530E-04-7.65393E-14
 -1       523 1.27243E-02-1.15026E-04-7.99213E-14
 -1       524 1.30099E-02-1.02448E-04-8.33642E-14
 -1       525 1.32956E-02-8.98218E-05-8.68656E-14
 -1       526 1.35813E-02-7.71652E-05-9.04221E-14
 -1       527 1.38670E-02-6.44940E-05-9.40257E-14
 -1       528 1.41527E-02-5.18205E-05-9.76538E-14
 -1       529 2.00073E-03 5.27209E-04-1.34503E-15
 -1       530 2.34223E-03 6.39252E-04-1.87084E-15
 -1       531 2.69014E-03 7.73383E-04-2.49309E-15
 -1       532 3.03872E-03 9.20467E-04-3.21751E-15
 -1       533 3.37986E-03 1.05596E-03-4.05128E-15
 -1       534 3.70947E-03 1.14356E-03-5.00201E-15
 -1       535 4.03330E-03 1.15377E-03-6.07242E-15
 -1       536 4.36296E-03 1.08665E-03-7.26016E-15
 -1       537 4.70439E-03 9.71726E-04-8.56525E-15
 -1       538 5.05369E-03 8.46722E-04-9.98315E-15
 -1       539 5.40252E-03 7.38140E-04-1.15095E-14
 -1       540 5.74448E-03 6.57204E-04-1.31348E-14
 -1       541 6.07715E-03 6.04650E-04-1.48506E-14
 -1       542 6.40075E-03 5.76261E-04-1.66553E-14
 -1       543 6.71658E-03 5.66370E-04-1.85512E-14
 -1       544 7.02610E-03 5.69607E-04-2.05367E-14
 -1       545 7.33057E-03 5.81542E-04-2.26057E-14
 -1       546 7.63098E-03 5.98803E-04-2.47574E-14
 -1       547 7.92812E-03 6.18963E-04-2.69906E-14
 -1       548 8.22263E-03 6.40366E-04-2.93085E-14
 -1       549 8.51502E-03 6.61938E-04-3.17080E-14
 -1       550 8.80572E-03 6.83027E-04-3.41868E-14
 -1       551 9.09509E-03 7.03277E-04-3.67425E-14
 -1       552 9.38343E-03 7.22532E-04-3.93729E-14
 -1       553 9.67099E-03 7.40765E-04-4.20780E-14
 -1       554 9.95795E-03 7.58025E-04-4.48468E-14
 -1       555 1.02445E-02 7.74406E-04-4.76726E-14
 -1       556 1.05307E-02 7.90020E-04-5.05604E-14
 -1       557 1.08167E-02 8.04984E-04-5.35206E-14
 -1       558 1.11025E-02 8.19411E-04-5.65599E-14
 -1       559 1.13882E-02 8.33402E-04-5.96665E-14
 -1       560 1.16739E-02 8.47047E-04-6.28380E-14
 -1       561 1.19596E-02 8.60423E-04-6.60611E-14
 -1       562 1.22452E-02 8.73592E-04-6.93427E-14
 -1       563 1.25308E-02 8.86607E-04-7.26811E-14
 -1       564 1.28164E-02 8.99508E-04-7.60796E-14
 -1       565 1.31021E-02 9.12329E-04-7.95220E-14
 -1       566 1.33877E-02 9.25095E-04-8.30098E-14
 -1       567 1.36734E-02 9.37828E-04-8.65408E-14
 -1       568 1.39591E-02 9.50543E-04-9.01147E-14
 -1       569 1.42448E-02 9.63253E-04-9.37294E-14
 -1       570 1.45305E-02 9.75969E-04-9.73898E-14
 -1       571 1.45059E-02 7.03149E-04-9.85777E-14
 -1       572 1.44933E-02 6.18811E-04-9.88551E-14
 -1       573 1.45309E-02 8.70365E-04-9.79922E-14
 -1       574 1.45184E-02 7.86763E-04-9.82885E-14
 -1       575 1.44808E-02 5.34467E-04-9.91221E-14
 -1       576 1.44683E-02 4.50119E-04-9.93822E-14
 -1       577 1.44558E-02 3.65771E-04-9.96376E-14
 -1       578 1.44436E-02 2.82857E-04-9.98837E-14
 -1       579 1.44312E-02 1.98519E-04-1.00123E-13
 -1       580 1.44188E-02 1.14191E-04-1.00352E-13
 -1       581 1.44065E-02 2.98737E-05-1.00579E-13
 -1       582 6.07496E-03 7.59272E-05-1.19865E-14
 -1       583 1.66733E-03 4.35647E-04-9.11404E-16
 -1       584 6.08563E-03 1.13784E-04-1.18402E-14
 -1       585 5.61020E-03-9.42175E-05-1.12403E-14
 -1       586 5.23842E-03 4.65903E-04-9.65289E-15
 -1       587 5.96188E-03 1.59762E-04-1.14838E-14
 -1       588 3.66457E-03-8.92936E-04-6.63260E-15
 -1       589 3.48947E-03 9.84356E-04-5.01535E-15
 -1       590 5.71773E-04-5.42678E-06-3.72745E-16
 -1       591 3.83932E-03 1.06344E-03-5.89967E-15
 -1       592 2.29062E-03 3.47820E-04-3.49347E-15
 -1       593 4.09992E-03 1.03331E-03-6.65510E-15
 -1       594 3.05666E-03 7.67251E-04-4.21610E-15
 -1       595 4.59360E-03-6.16736E-04-9.25938E-15
 -1       596 2.66008E-03 5.39849E-04-3.76860E-15
 -1       597 1.96348E-03 2.02803E-04-3.24229E-15
 -1       598 1.67852E-03 1.01929E-04-3.12077E-15
 -1       599 1.54295E-03 5.38192E-05-3.04439E-15
 -1       600 1.56026E-03 2.78375E-05-3.09214E-15
 -1       601 1.80375E-03-5.05472E-05-3.38640E-15
 -1       602 2.06502E-03-1.50785E-04-3.67912E-15
 -1       603 2.51403E-03-3.62867E-04-4.27013E-15
 -1       604 2.85621E-03-5.47566E-04-4.78374E-15
 -1       605 3.24654E-03-7.55236E-04-5.52725E-15
 -1       606 3.95991E-03-8.83384E-04-7.50826E-15
 -1       607 4.25105E-03-7.88621E-04-8.32988E-15
 -1       608 4.89899E-03-4.46268E-04-9.95729E-15
 -1       609 5.32422E-03-2.23490E-04-1.07561E-14
 -1       610 5.91321E-03 1.98017E-05-1.18218E-14
 -1       611 7.60900E-04-1.92530E-04-3.74636E-16
 -1       612 7.71087E-04 2.32604E-04-1.50359E-16
 -1       613 4.86530E-03 6.67257E-04-8.75625E-15
 -1       614 6.70376E-04-9.35317E-05-3.82527E-16
 -1       615 5.49730E-03 3.51961E-04-1.06044E-14
 -1       616 1.43456E-02-4.49288E-05-1.00127E-13
 -1       617 5.85188E-03 2.08518E-04-1.15621E-14
 -1       618 3.44739E-03-8.54704E-04-5.98682E-15
 -1       619 2.25536E-03-2.46022E-04-3.70625E-15
 -1       620 1.61883E-03-1.54281E-06-2.94822E-15
 -1       621 7.68280E-04 3.78827E-05-5.85310E-16
 -1       622 7.48312E-04 1.86392E-05-6.10985E-16
 -1       623 8.65644E-04 1.06701E-04-5.11208E-16
 -1       624 9.31024E-04 1.62652E-04-4.58997E-16
 -1       625 1.10757E-03 2.46092E-04-5.04852E-16
 -1       626 1.41805E-03 3.11393E-04-8.26918E-16
 -1       627 6.06709E-03 5.50209E-05-1.29328E-14
 -1       628 1.45480E-03-2.91697E-04-1.33461E-15
 -1       629 1.77485E-03-3.61105E-04-1.89334E-15
 -1       630 2.10896E-03-4.46525E-04-2.54990E-15
 -1       631 2.45805E-03-5.54396E-04-3.30516E-15
 -1       632 2.81768E-03-6.84654E-04-4.16098E-15
 -1       633 3.17734E-03-8.21193E-04-5.12316E-15
 -1       634 3.52506E-03-9.24791E-04-6.19828E-15
 -1       635 3.86211E-03-9.50609E-04-7.39019E-15
 -1       636 4.20165E-03-8.84223E-04-8.69738E-15
 -1       637 4.55410E-03-7.56495E-04-1.01140E-14
 -1       638 4.91437E-03-6.14872E-04-1.16326E-14
 -1       639 5.27063E-03-4.90551E-04-1.32490E-14
 -1       640 5.61337E-03-3.94759E-04-1.49590E-14
 -1       641 5.94055E-03-3.25924E-04-1.67582E-14
 -1       642 6.25441E-03-2.78540E-04-1.86403E-14
 -1       643 6.55842E-03-2.46960E-04-2.06078E-14
 -1       644 6.85575E-03-2.26482E-04-2.26599E-14
 -1       645 7.14879E-03-2.13446E-04-2.47931E-14
 -1       646 7.43918E-03-2.05091E-04-2.70120E-14
 -1       647 7.72792E-03-1.99395E-04-2.93134E-14
 -1       648 8.01567E-03-1.94920E-04-3.16858E-14
 -1       649 8.30279E-03-1.90694E-04-3.41278E-14
 -1       650 8.58950E-03-1.86095E-04-3.66405E-14
 -1       651 8.87594E-03-1.80763E-04-3.92215E-14
 -1       652 9.16219E-03-1.74520E-04-4.18649E-14
 -1       653 9.44830E-03-1.67317E-04-4.45605E-14
 -1       654 9.73431E-03-1.59182E-04-4.73180E-14
 -1       655 1.00202E-02-1.50193E-04-5.01329E-14
 -1       656 1.03061E-02-1.40451E-04-5.30087E-14
 -1       657 1.05919E-02-1.30066E-04-5.59438E-14
 -1       658 1.08777E-02-1.19143E-04-5.89335E-14
 -1       659 1.11635E-02-1.07784E-04-6.19746E-14
 -1       660 1.14492E-02-9.60746E-05-6.50772E-14
 -1       661 1.17350E-02-8.40913E-05-6.82321E-14
 -1       662 1.20207E-02-7.18973E-05-7.14453E-14
 -1       663 1.23064E-02-5.95444E-05-7.47264E-14
 -1       664 1.25921E-02-4.70744E-05-7.80704E-14
 -1       665 1.28778E-02-3.45208E-05-8.14781E-14
 -1       666 1.31635E-02-2.19096E-05-8.49441E-14
 -1       667 1.34493E-02-9.26147E-06-8.84627E-14
 -1       668 1.37350E-02 3.40767E-06-9.20362E-14
 -1       669 1.40207E-02 1.60845E-05-9.56414E-14
 -1       670 2.42143E-03 5.94389E-04-2.31933E-15
 -1       671 2.07170E-03 4.76910E-04-1.73048E-15
 -1       672 3.15443E-03 9.03597E-04-3.79177E-15
 -1       673 3.51397E-03 1.04366E-03-4.69345E-15
 -1       674 3.86033E-03 1.10713E-03-5.71730E-15
 -1       675 4.20671E-03 1.06508E-03-6.86371E-15
 -1       676 4.56583E-03 9.44956E-04-8.13160E-15
 -1       677 4.93388E-03 8.02755E-04-9.51313E-15
 -1       678 5.29824E-03 6.78773E-04-1.10052E-14
 -1       679 5.64796E-03 5.88446E-04-1.25956E-14
 -1       680 5.98076E-03 5.30584E-04-1.42764E-14
 -1       681 6.29919E-03 4.98983E-04-1.60463E-14
 -1       682 6.60713E-03 4.86816E-04-1.79031E-14
 -1       683 6.90803E-03 4.88312E-04-1.98505E-14
 -1       684 7.20434E-03 4.98961E-04-2.18858E-14
 -1       685 7.49766E-03 5.15368E-04-2.40001E-14
 -1       686 7.78899E-03 5.35067E-04-2.61944E-14
 -1       687 8.07893E-03 5.56329E-04-2.84734E-14
 -1       688 8.36785E-03 5.77996E-04-3.08346E-14
 -1       689 8.65601E-03 5.99337E-04-3.32746E-14
 -1       690 8.94358E-03 6.19929E-04-3.57935E-14
 -1       691 9.23068E-03 6.39564E-04-3.83883E-14
 -1       692 9.51741E-03 6.58176E-04-4.10582E-14
 -1       693 9.80386E-03 6.75794E-04-4.37998E-14
 -1       694 1.00901E-02 6.92497E-04-4.65982E-14
 -1       695 1.03762E-02 7.08390E-04-4.94524E-14
 -1       696 1.06621E-02 7.23591E-04-5.23754E-14
 -1       697 1.09480E-02 7.38213E-04-5.53716E-14
 -1       698 1.12338E-02 7.52362E-04-5.84367E-14
 -1       699 1.15195E-02 7.66133E-04-6.15683E-14
 -1       700 1.18052E-02 7.79606E-04-6.47616E-14
 -1       701 1.20909E-02 7.92849E-04-6.80116E-14
 -1       702 1.23766E-02 8.05919E-04-7.13199E-14
 -1       703 1.26623E-02 8.18860E-04-7.46844E-14
 -1       704 1.29480E-02 8.31709E-04-7.81004E-14
 -1       705 1.32337E-02 8.44493E-04-8.15616E-14
 -1       706 1.35194E-02 8.57236E-04-8.50651E-14
 -1       707 1.38051E-02 8.69954E-04-8.86105E-14
 -1       708 1.40908E-02 8.82662E-04-9.22015E-14
 -1       709 1.43108E-02 8.76512E-04-9.50858E-14
 -1       710 5.79175E-03-3.38224E-05-1.23186E-14
 -1       711 1.42271E-02 4.81300E-04-9.60908E-14
 -1       712 2.99230E-03-6.49540E-04-4.83853E-15
 -1       713 1.42521E-02 6.49981E-04-9.55534E-14
 -1       714 1.42146E-02 3.96957E-04-9.63455E-14
 -1       715 1.42396E-02 5.65643E-04-9.58299E-14
 -1       716 1.42024E-02 3.14044E-04-9.65947E-14
 -1       717 1.41900E-02 2.29706E-04-9.68393E-14
 -1       718 1.41776E-02 1.45376E-04-9.70732E-14
 -1       719 1.73814E-03 3.85346E-04-1.23403E-15
 -1       720 4.77827E-03-5.37264E-04-1.02311E-14
 -1       721 6.10768E-03 1.38528E-04-1.27323E-14
 -1       722 1.54973E-03 6.85249E-05-2.69803E-15
 -1       723 4.42110E-03-7.25998E-04-9.11346E-15
 -1       724 2.78535E-03 7.40753E-04-3.00336E-15
 -1       725 1.14594E-03-2.30713E-04-8.72888E-16
 -1       726 4.73594E-03 7.74564E-04-8.66135E-15
 -1       727 1.42136E-02 2.29813E-05-9.81023E-14
 -1       728 8.09468E-04 6.57406E-05-5.52604E-16
 -1       729 8.25242E-04-5.52563E-05-6.54618E-16
 -1       730 5.15351E-03-3.26297E-04-1.10992E-14
 -1       731 2.09428E-03 2.64570E-04-3.00141E-15
 -1       732 6.16086E-03 1.01241E-04-1.28904E-14
 -1       733 1.75687E-03 1.31780E-04-2.81187E-15
 -1       734 2.79294E-03 6.37925E-04-3.58449E-15
 -1       735 2.41528E-03 4.21131E-04-3.24647E-15
 -1       736 1.49008E-03 3.87786E-05-2.71735E-15
 -1       737 1.87843E-03-9.60468E-05-3.13918E-15
 -1       738 3.84131E-03-9.17281E-04-7.23165E-15
 -1       739 2.64571E-03-4.50390E-04-4.23515E-15
 -1       740 4.13318E-03-8.52171E-04-8.19236E-15
 -1       741 4.35632E-03 9.66861E-04-7.44455E-15
 -1       742 5.10289E-03 5.68744E-04-9.74988E-15
 -1       743 5.50728E-03-1.52945E-04-1.18529E-14
 -1       744 8.79953E-04-1.02358E-04-6.57860E-16
 -1       745 7.53052E-04 1.24310E-06-6.30826E-16
 -1       746 5.36610E-03 4.58877E-04-1.07013E-14
 -1       747 6.04829E-03 1.75326E-04-1.28127E-14
 -1       748 1.42983E-02 7.92915E-04-9.53871E-14
 -1       749 4.10505E-03 1.05012E-03-6.63282E-15
 -1       750 5.73103E-03 2.75364E-04-1.15986E-14
 -1       751 1.49467E-03 1.71538E-05-2.57885E-15
 -1       752 9.63383E-04-1.77530E-04-6.66903E-16
 -1       753 1.40991E-02 8.07268E-05-9.63585E-14
 -1       754 1.42752E-02 7.21451E-04-9.54762E-14
 -1       755 7.80620E-04-2.15350E-05-6.45402E-16
 -1       756 3.11750E-03 8.41274E-04-3.95293E-15
 -1       757 5.00683E-03 6.88868E-04-9.70240E-15
 -1       758 1.13766E-03 1.71060E-04-7.59063E-16
 -1       759 3.16327E-03-7.51176E-04-5.19006E-15
 -1       760 1.22733E-03-1.86261E-04-1.10028E-15
 -1       761 5.05505E-03-4.32020E-04-1.14488E-14
 -1       762 1.84339E-03-2.97771E-04-2.20833E-15
 -1       763 2.18202E-03-3.81248E-04-2.90393E-15
 -1       764 2.54487E-03-4.98187E-04-3.69588E-15
 -1       765 2.94579E-03-6.74950E-04-4.59817E-15
 -1       766 5.42157E-03-3.08586E-04-1.30577E-14
 -1       767 5.75743E-03-2.30111E-04-1.47567E-14
 -1       768 6.06839E-03-1.81103E-04-1.65400E-14
 -1       769 6.36303E-03-1.49997E-04-1.84083E-14
 -1       770 6.64822E-03-1.29805E-04-2.03610E-14
 -1       771 6.92860E-03-1.16419E-04-2.23972E-14
 -1       772 7.20706E-03-1.07274E-04-2.45167E-14
 -1       773 7.48523E-03-1.00645E-04-2.67221E-14
 -1       774 7.76398E-03-9.53181E-05-2.90081E-14
 -1       775 8.04369E-03-9.04340E-05-3.13637E-14
 -1       776 8.32446E-03-8.54036E-05-3.37913E-14
 -1       777 8.60626E-03-7.98483E-05-3.62900E-14
 -1       778 8.88896E-03-7.35512E-05-3.88600E-14
 -1       779 9.17242E-03-6.64152E-05-4.14924E-14
 -1       780 9.45649E-03-5.84271E-05-4.41822E-14
 -1       781 9.74105E-03-4.96290E-05-4.69327E-14
 -1       782 1.00260E-02-4.00955E-05-4.97442E-14
 -1       783 1.03112E-02-2.99173E-05-5.26135E-14
 -1       784 1.05966E-02-1.91897E-05-5.55400E-14
 -1       785 1.08821E-02-8.00500E-06-5.85274E-14
 -1       786 1.11678E-02 3.55203E-06-6.15693E-14
 -1       787 1.14535E-02 1.54065E-05-6.46726E-14
 -1       788 1.17392E-02 2.74941E-05-6.78306E-14
 -1       789 1.20250E-02 3.97611E-05-7.10501E-14
 -1       790 1.23107E-02 5.21634E-05-7.43301E-14
 -1       791 1.25965E-02 6.46654E-05-7.76720E-14
 -1       792 1.28823E-02 7.72389E-05-8.10703E-14
 -1       793 1.31680E-02 8.98617E-05-8.45299E-14
 -1       794 1.34538E-02 1.02517E-04-8.80370E-14
 -1       795 1.37395E-02 1.15190E-04-9.15945E-14
 -1       796 5.38080E-03 5.63017E-04-1.12106E-14
 -1       797 5.72833E-03 4.83150E-04-1.28131E-14
 -1       798 6.05095E-03 4.37825E-04-1.45026E-14
 -1       799 6.35632E-03 4.16681E-04-1.62782E-14
 -1       800 6.65093E-03 4.11703E-04-1.81399E-14
 -1       801 6.93956E-03 4.17545E-04-2.00906E-14
 -1       802 7.22520E-03 4.30494E-04-2.21287E-14
 -1       803 7.50959E-03 4.47884E-04-2.42468E-14
 -1       804 7.79365E-03 4.67787E-04-2.64447E-14
 -1       805 8.07780E-03 4.88834E-04-2.87235E-14
 -1       806 8.36222E-03 5.10092E-04-3.10884E-14
 -1       807 8.64694E-03 5.30960E-04-3.35304E-14
 -1       808 8.93193E-03 5.51086E-04-3.60487E-14
 -1       809 9.21714E-03 5.70298E-04-3.86445E-14
 -1       810 9.50252E-03 5.88545E-04-4.13139E-14
 -1       811 9.78803E-03 6.05858E-04-4.40528E-14
 -1       812 1.00736E-02 6.22311E-04-4.68503E-14
 -1       813 1.03593E-02 6.38006E-04-4.97048E-14
 -1       814 1.06450E-02 6.53052E-04-5.26237E-14
 -1       815 1.09307E-02 6.67554E-04-5.56141E-14
 -1       816 1.12164E-02 6.81614E-04-5.86715E-14
 -1       817 1.15022E-02 6.95318E-04-6.17935E-14
 -1       818 1.17879E-02 7.08743E-04-6.49784E-14
 -1       819 1.20737E-02 7.21952E-04-6.82257E-14
 -1       820 1.23594E-02 7.34998E-04-7.15324E-14
 -1       821 1.26451E-02 7.47924E-04-7.48920E-14
 -1       822 1.29309E-02 7.60762E-04-7.83010E-14
 -1       823 1.32166E-02 7.73540E-04-8.17570E-14
 -1       824 1.35023E-02 7.86279E-04-8.52576E-14
 -1       825 1.37881E-02 7.98995E-04-8.87984E-14
 -1       826 1.40783E-02 7.99069E-04-9.25091E-14
 -1       827 1.39610E-02 3.44512E-04-9.33377E-14
 -1       828 1.39734E-02 4.28853E-04-9.30862E-14
 -1       829 2.15688E-03 3.35961E-04-2.65765E-15
 -1       830 6.23787E-03 1.22512E-04-1.38695E-14
 -1       831 5.74521E-03-9.29931E-05-1.31239E-14
 -1       832 1.39486E-02 2.60174E-04-9.35863E-14
 -1       833 2.12654E-03 4.16402E-04-2.13707E-15
 -1       834 2.73388E-03-5.44292E-04-4.19997E-15
 -1       835 1.57079E-03 9.38459E-05-2.35659E-15
 -1       836 1.52728E-03-2.36291E-04-1.60730E-15
 -1       837 1.27382E-03 2.35774E-04-7.97753E-16
 -1       838 5.40287E-03-2.42784E-04-1.22766E-14
 -1       839 9.40943E-04 3.61652E-05-9.14155E-16
 -1       840 2.37119E-03-3.41962E-04-3.62213E-15
 -1       841 1.04862E-03-1.40853E-04-8.65380E-16
 -1       842 2.00334E-03-1.79621E-04-3.06232E-15
 -1       843 2.49753E-03 5.16422E-04-2.95145E-15
 -1       844 1.62027E-03-3.81641E-05-2.58430E-15
 -1       845 6.03570E-03 1.37037E-05-1.37655E-14
 -1       846 6.23640E-03 8.30141E-05-1.41701E-14
 -1       847 1.84337E-03 1.90942E-04-2.49047E-15
 -1       848 1.41771E-03 4.77382E-05-2.27023E-15
 -1       849 9.30230E-04 1.37375E-05-9.46732E-16
 -1       850 1.05525E-03 1.10229E-04-8.21900E-16
 -1       851 9.80104E-04-8.10880E-05-8.62849E-16
 -1       852 5.96917E-03 2.26819E-04-1.28496E-14
 -1       853 1.39984E-02 5.96817E-04-9.25625E-14
 -1       854 9.20087E-04-3.62516E-05-8.52505E-16
 -1       855 1.39859E-02 5.12836E-04-9.28306E-14
 -1       856 6.21986E-03 1.50113E-04-1.39576E-14
 -1       857 1.57882E-03 2.96384E-04-1.19697E-15
 -1       858 1.84590E-03 3.49221E-04-1.63166E-15
 -1       859 5.61507E-03 3.73938E-04-1.16991E-14
 -1       860 1.40215E-02 6.68288E-04-9.24847E-14
 -1       861 1.71048E-03-9.96555E-05-2.51046E-15
 -1       862 1.39363E-02 1.76557E-04-9.38214E-14
 -1       863 9.85520E-04 6.58228E-05-8.73006E-16
 -1       864 1.36969E-03 2.92427E-05-2.14316E-15
 -1       865 1.42405E-03 2.18165E-04-1.15045E-15
 -1       866 6.38496E-03 1.10893E-04-1.53919E-14
 -1       867 6.03475E-03-1.03935E-04-1.55281E-14
 -1       868 6.31275E-03-7.98838E-05-1.73464E-14
 -1       869 6.58273E-03-6.45213E-05-1.92507E-14
 -1       870 6.85004E-03-5.37823E-05-2.12361E-14
 -1       871 7.11753E-03-4.56607E-05-2.33052E-14
 -1       872 7.38660E-03-3.90240E-05-2.54604E-14
 -1       873 7.65787E-03-3.31176E-05-2.76988E-14
 -1       874 7.93149E-03-2.73973E-05-3.00127E-14
 -1       875 8.20738E-03-2.14705E-05-3.23967E-14
 -1       876 8.48529E-03-1.50690E-05-3.48535E-14
 -1       877 8.76496E-03-8.02987E-06-3.73823E-14
 -1       878 9.04609E-03-2.75013E-07-3.99775E-14
 -1       879 9.32840E-03 8.20989E-06-4.26369E-14
 -1       880 9.61166E-03 1.73945E-05-4.53571E-14
 -1       881 9.89563E-03 2.72201E-05-4.81358E-14
 -1       882 1.01802E-02 3.76131E-05-5.09755E-14
 -1       883 1.04651E-02 4.84939E-05-5.38729E-14
 -1       884 1.07503E-02 5.97841E-05-5.68273E-14
 -1       885 1.10358E-02 7.14109E-05-5.98403E-14
 -1       886 1.13214E-02 8.33087E-05-6.29155E-14
 -1       887 1.16071E-02 9.54209E-05-6.60508E-14
 -1       888 1.18928E-02 1.07700E-04-6.92408E-14
 -1       889 1.21786E-02 1.20105E-04-7.24920E-14
 -1       890 1.24644E-02 1.32605E-04-7.58084E-14
 -1       891 1.27502E-02 1.45174E-04-7.91831E-14
 -1       892 1.30360E-02 1.57792E-04-8.26061E-14
 -1       893 1.33218E-02 1.70442E-04-8.60804E-14
 -1       894 1.36075E-02 1.83112E-04-8.96063E-14
 -1       895 6.28841E-03 3.37091E-04-1.56450E-14
 -1       896 6.56827E-03 3.35338E-04-1.74719E-14
 -1       897 6.84330E-03 3.42502E-04-1.93842E-14
 -1       898 7.11705E-03 3.55453E-04-2.13830E-14
 -1       899 7.39137E-03 3.72127E-04-2.34679E-14
 -1       900 7.66709E-03 3.91037E-04-2.56335E-14
 -1       901 7.94448E-03 4.11082E-04-2.78759E-14
 -1       902 8.22352E-03 4.31461E-04-3.02006E-14
 -1       903 8.50403E-03 4.51623E-04-3.26095E-14
 -1       904 8.78578E-03 4.71219E-04-3.50915E-14
 -1       905 9.06855E-03 4.90052E-04-3.76530E-14
 -1       906 9.35212E-03 5.08045E-04-4.02894E-14
 -1       907 9.63632E-03 5.25197E-04-4.29943E-14
 -1       908 9.92099E-03 5.41559E-04-4.57610E-14
 -1       909 1.02060E-02 5.57211E-04-4.85881E-14
 -1       910 1.04913E-02 5.72245E-04-5.14763E-14
 -1       911 1.07767E-02 5.86756E-04-5.44264E-14
 -1       912 1.10623E-02 6.00835E-04-5.74429E-14
 -1       913 1.13480E-02 6.14565E-04-6.05262E-14
 -1       914 1.16337E-02 6.28017E-04-6.36743E-14
 -1       915 1.19195E-02 6.41253E-04-6.68886E-14
 -1       916 1.22052E-02 6.54324E-04-7.01615E-14
 -1       917 1.24910E-02 6.67270E-04-7.34939E-14
 -1       918 1.27768E-02 6.80126E-04-7.68730E-14
 -1       919 1.30625E-02 6.92918E-04-8.03031E-14
 -1       920 1.33483E-02 7.05666E-04-8.37769E-14
 -1       921 1.36341E-02 7.18387E-04-8.72941E-14
 -1       922 1.37197E-02 3.75693E-04-9.01164E-14
 -1       923 9.16166E-04-8.27433E-06-9.02395E-16
 -1       924 1.37073E-02 2.91356E-04-9.03635E-14
 -1       925 1.29293E-03-1.36927E-04-1.33892E-15
 -1       926 1.41725E-03-3.66429E-06-2.14640E-15
 -1       927 1.57926E-03-1.73366E-04-1.88667E-15
 -1       928 6.26357E-03 4.47067E-05-1.52301E-14
 -1       929 1.38085E-03 6.68138E-05-1.91180E-15
 -1       930 1.58018E-03 1.35826E-04-1.98486E-15
 -1       931 2.13075E-03-2.84362E-04-3.03691E-15
 -1       932 1.13232E-03-1.06652E-04-1.08797E-15
 -1       933 6.00123E-03-5.11834E-05-1.46084E-14
 -1       934 1.83675E-03 2.37401E-04-2.13434E-15
 -1       935 5.99750E-03 3.53392E-04-1.39035E-14
 -1       936 1.37447E-02 5.43832E-04-8.96042E-14
 -1       937 6.39998E-03 1.36564E-04-1.54894E-14
 -1       938 5.73980E-03-1.45750E-04-1.37944E-14
 -1       939 1.46888E-03-4.39671E-05-2.07830E-15
 -1       940 1.05683E-03-5.08126E-05-1.07657E-15
 -1       941 1.10602E-03 3.06356E-05-1.31535E-15
 -1       942 6.17643E-03 1.88323E-04-1.40009E-14
 -1       943 1.82186E-03-1.83488E-04-2.48415E-15
 -1       944 1.14617E-03 5.99941E-05-1.26655E-15
 -1       945 1.37322E-02 4.59852E-04-8.98663E-14
 -1       946 1.37677E-02 6.15304E-04-8.95313E-14
 -1       947 6.46167E-03 7.81511E-05-1.64947E-14
 -1       948 1.29029E-03 4.36999E-05-1.79796E-15
 -1       949 1.38861E-02 7.23967E-04-9.04598E-14
 -1       950 1.34660E-02 3.22539E-04-8.71804E-14
 -1       951 1.56017E-03 2.08436E-04-1.50688E-15
 -1       952 1.25037E-03 1.26300E-05-1.71786E-15
 -1       953 6.52924E-03-3.07280E-06-1.81505E-14
 -1       954 6.77886E-03 4.49429E-06-2.00879E-14
 -1       955 7.03283E-03 1.14437E-05-2.21064E-14
 -1       956 7.29140E-03 1.81762E-05-2.42099E-14
 -1       957 7.55439E-03 2.49188E-05-2.63981E-14
 -1       958 7.82145E-03 3.18450E-05-2.86669E-14
 -1       959 8.09211E-03 3.91038E-05-3.10099E-14
 -1       960 8.36588E-03 4.68126E-05-3.34249E-14
 -1       961 8.64229E-03 5.50490E-05-3.59112E-14
 -1       962 8.92088E-03 6.38502E-05-3.84689E-14
 -1       963 9.20124E-03 7.32175E-05-4.10931E-14
 -1       964 9.48302E-03 8.31252E-05-4.37833E-14
 -1       965 9.76591E-03 9.35292E-05-4.65317E-14
 -1       966 1.00496E-02 1.04374E-04-4.93406E-14
 -1       967 1.03340E-02 1.15601E-04-5.22055E-14
 -1       968 1.06189E-02 1.27150E-04-5.51314E-14
 -1       969 1.09041E-02 1.38966E-04-5.81139E-14
 -1       970 1.11895E-02 1.50999E-04-6.11587E-14
 -1       971 1.14751E-02 1.63205E-04-6.42697E-14
 -1       972 1.17608E-02 1.75546E-04-6.74319E-14
 -1       973 1.20465E-02 1.87991E-04-7.06554E-14
 -1       974 1.23323E-02 2.00514E-04-7.39450E-14
 -1       975 1.26181E-02 2.13095E-04-7.72968E-14
 -1       976 1.29039E-02 2.25718E-04-8.06971E-14
 -1       977 1.31897E-02 2.38369E-04-8.41387E-14
 -1       978 6.75778E-03 2.72068E-04-1.86766E-14
 -1       979 6.50122E-03 2.62344E-04-1.67998E-14
 -1       980 7.27930E-03 3.01433E-04-2.26848E-14
 -1       981 7.54555E-03 3.19031E-04-2.48161E-14
 -1       982 7.81535E-03 3.37582E-04-2.70265E-14
 -1       983 8.08832E-03 3.56516E-04-2.93159E-14
 -1       984 8.36403E-03 3.75394E-04-3.16859E-14
 -1       985 8.64203E-03 3.93910E-04-3.41364E-14
 -1       986 8.92190E-03 4.11870E-04-3.66616E-14
 -1       987 9.20328E-03 4.29178E-04-3.92624E-14
 -1       988 9.48583E-03 4.45805E-04-4.19360E-14
 -1       989 9.76930E-03 4.61775E-04-4.46742E-14
 -1       990 1.00535E-02 4.77141E-04-4.74718E-14
 -1       991 1.03381E-02 4.91971E-04-5.03274E-14
 -1       992 1.06232E-02 5.06340E-04-5.32451E-14
 -1       993 1.09085E-02 5.20325E-04-5.62215E-14
 -1       994 1.11940E-02 5.33994E-04-5.92687E-14
 -1       995 1.14796E-02 5.47410E-04-6.23808E-14
 -1       996 1.17654E-02 5.60627E-04-6.55569E-14
 -1       997 1.20511E-02 5.73690E-04-6.87968E-14
 -1       998 1.23369E-02 5.86636E-04-7.20971E-14
 -1       999 1.26227E-02 5.99495E-04-7.54496E-14
 -1      1000 1.29085E-02 6.12293E-04-7.88501E-14
 -1      1001 1.31943E-02 6.25046E-04-8.22981E-14
 -1      1002 1.34801E-02 6.37772E-04-8.57899E-14
 -1      1003 1.11762E-03 3.94059E-06-1.35175E-15
 -1      1004 1.33848E-03-8.42971E-05-1.58649E-15
 -1      1005 1.33939E-02 2.46487E-04-8.66318E-14
 -1      1006 1.22727E-03 1.05584E-04-1.20700E-15
 -1      1007 1.34909E-02 4.90846E-04-8.66775E-14
 -1      1008 6.26912E-03-1.17296E-05-1.61768E-14
 -1      1009 1.52443E-03-9.07220E-05-2.02418E-15
 -1      1010 6.24412E-03 2.58662E-04-1.50077E-14
 -1      1011 1.34784E-02 4.06693E-04-8.69371E-14
 -1      1012 7.01678E-03 2.85493E-04-2.06383E-14
 -1      1013 6.50635E-03 1.05545E-04-1.66052E-14
 -1      1014 1.35140E-02 5.62316E-04-8.66069E-14
 -1      1015 6.49680E-03 4.09432E-05-1.73190E-14
 -1      1016 1.08492E-03-2.13916E-05-1.21395E-15
 -1      1017 6.39179E-03 1.67736E-04-1.55426E-14
 -1      1018 1.19422E-03-6.60655E-05-1.31970E-15
 -1      1019 1.27677E-03-1.35212E-05-1.69629E-15
 -1      1020 6.72926E-03 4.67884E-05-1.92181E-14
 -1      1021 6.97110E-03 5.33726E-05-2.11992E-14
 -1      1022 7.22080E-03 6.05916E-05-2.32631E-14
 -1      1023 7.47712E-03 6.83516E-05-2.54122E-14
 -1      1024 7.73902E-03 7.65731E-05-2.76438E-14
 -1      1025 8.00565E-03 8.52293E-05-2.99544E-14
 -1      1026 8.27625E-03 9.43184E-05-3.23369E-14
 -1      1027 8.55016E-03 1.03842E-04-3.47915E-14
 -1      1028 8.82680E-03 1.13794E-04-3.73196E-14
 -1      1029 9.10565E-03 1.24156E-04-3.99163E-14
 -1      1030 9.38627E-03 1.34901E-04-4.25824E-14
 -1      1031 9.66829E-03 1.45992E-04-4.53075E-14
 -1      1032 9.95137E-03 1.57390E-04-4.80930E-14
 -1      1033 1.02353E-02 1.69052E-04-5.09351E-14
 -1      1034 1.05198E-02 1.80938E-04-5.38375E-14
 -1      1035 1.08048E-02 1.93009E-04-5.67987E-14
 -1      1036 1.10900E-02 2.05231E-04-5.98189E-14
 -1      1037 1.13755E-02 2.17574E-04-6.29063E-14
 -1      1038 1.16612E-02 2.30011E-04-6.60528E-14
 -1      1039 1.19469E-02 2.42523E-04-6.92564E-14
 -1      1040 1.22327E-02 2.55090E-04-7.25283E-14
 -1      1041 1.25185E-02 2.67698E-04-7.58573E-14
 -1      1042 1.28043E-02 2.80337E-04-7.92426E-14
 -1      1043 1.30901E-02 2.92996E-04-8.26643E-14
 -1      1044 6.67877E-03 2.08116E-04-1.79628E-14
 -1      1045 7.68806E-03 2.68672E-04-2.61740E-14
 -1      1046 7.42614E-03 2.52146E-04-2.39957E-14
 -1      1047 8.22556E-03 3.02630E-04-3.07675E-14
 -1      1048 8.49966E-03 3.19520E-04-3.31843E-14
 -1      1049 8.77647E-03 3.36100E-04-3.56774E-14
 -1      1050 9.05548E-03 3.52267E-04-3.82415E-14
 -1      1051 9.33622E-03 3.67974E-04-4.08819E-14
 -1      1052 9.61833E-03 3.83214E-04-4.35884E-14
 -1      1053 9.90149E-03 3.98012E-04-4.63553E-14
 -1      1054 1.01854E-02 4.12408E-04-4.91804E-14
 -1      1055 1.04700E-02 4.26453E-04-5.20677E-14
 -1      1056 1.07549E-02 4.40198E-04-5.50135E-14
 -1      1057 1.10402E-02 4.53696E-04-5.80192E-14
 -1      1058 1.13257E-02 4.66991E-04-6.10942E-14
 -1      1059 1.16113E-02 4.80126E-04-6.42336E-14
 -1      1060 1.18971E-02 4.93135E-04-6.74391E-14
 -1      1061 1.21828E-02 5.06048E-04-7.07052E-14
 -1      1062 1.24686E-02 5.18889E-04-7.40313E-14
 -1      1063 1.27545E-02 5.31677E-04-7.74015E-14
 -1      1064 1.30403E-02 5.44427E-04-8.08228E-14
 -1      1065 1.30528E-03-4.52507E-05-1.64344E-15
 -1      1066 6.92049E-03 2.21592E-04-1.98902E-14
 -1      1067 1.32781E-02 3.07765E-04-8.49118E-14
 -1      1068 1.32372E-02 4.37774E-04-8.37885E-14
 -1      1069 7.95480E-03 2.85600E-04-2.84322E-14
 -1      1070 1.32576E-02 3.72770E-04-8.43553E-14
 -1      1071 7.16993E-03 2.36350E-04-2.19001E-14
 -1      1072 6.58511E-03 1.49972E-04-1.71367E-14
 -1      1073 1.32602E-02 5.09237E-04-8.37159E-14
 -1      1074 6.67623E-03 8.41710E-05-1.83536E-14
 -1      1075 7.55946E-03 2.04301E-04-2.53179E-14
 -1      1076 6.90619E-03 9.15462E-05-2.02961E-14
 -1      1077 7.14742E-03 9.98817E-05-2.23224E-14
 -1      1078 7.39762E-03 1.09077E-04-2.44319E-14
 -1      1079 7.65490E-03 1.18902E-04-2.66266E-14
 -1      1080 7.91795E-03 1.29224E-04-2.88999E-14
 -1      1081 8.18574E-03 1.39949E-04-3.12516E-14
 -1      1082 8.45744E-03 1.51009E-04-3.36742E-14
 -1      1083 8.73235E-03 1.62352E-04-3.61711E-14
 -1      1084 9.00985E-03 1.73935E-04-3.87402E-14
 -1      1085 9.28943E-03 1.85723E-04-4.13788E-14
 -1      1086 9.57065E-03 1.97685E-04-4.40818E-14
 -1      1087 9.85314E-03 2.09795E-04-4.68435E-14
 -1      1088 1.01366E-02 2.22027E-04-4.96641E-14
 -1      1089 1.04208E-02 2.34360E-04-5.25443E-14
 -1      1090 1.07055E-02 2.46776E-04-5.54816E-14
 -1      1091 1.09906E-02 2.59260E-04-5.84820E-14
 -1      1092 1.12760E-02 2.71796E-04-6.15438E-14
 -1      1093 1.15616E-02 2.84374E-04-6.46681E-14
 -1      1094 1.18473E-02 2.96984E-04-6.78548E-14
 -1      1095 1.21331E-02 3.09619E-04-7.11069E-14
 -1      1096 1.24189E-02 3.22273E-04-7.44183E-14
 -1      1097 1.27047E-02 3.34939E-04-7.77830E-14
 -1      1098 7.05795E-03 1.77075E-04-2.11135E-14
 -1      1099 8.90795E-03 2.77495E-04-3.72235E-14
 -1      1100 7.82053E-03 2.18709E-04-2.75442E-14
 -1      1101 8.63120E-03 2.62903E-04-3.46906E-14
 -1      1102 8.35725E-03 2.48169E-04-3.22305E-14
 -1      1103 9.18694E-03 2.91887E-04-3.98292E-14
 -1      1104 9.46770E-03 3.06053E-04-4.25048E-14
 -1      1105 9.74984E-03 3.19987E-04-4.52402E-14
 -1      1106 1.00330E-02 3.33701E-04-4.80338E-14
 -1      1107 1.03170E-02 3.47217E-04-5.08910E-14
 -1      1108 1.06016E-02 3.60559E-04-5.38075E-14
 -1      1109 1.08866E-02 3.73754E-04-5.67804E-14
 -1      1110 1.11719E-02 3.86827E-04-5.98144E-14
 -1      1111 1.14575E-02 3.99802E-04-6.29196E-14
 -1      1112 1.17431E-02 4.12700E-04-6.60864E-14
 -1      1113 1.20289E-02 4.25538E-04-6.93210E-14
 -1      1114 1.23146E-02 4.38329E-04-7.26141E-14
 -1      1115 1.26005E-02 4.51087E-04-7.59597E-14
 -1      1116 1.28863E-02 4.63820E-04-7.93520E-14
 -1      1117 6.78158E-03 1.31448E-04-1.89193E-14
 -1      1118 8.08677E-03 2.33391E-04-2.98490E-14
 -1      1119 7.30475E-03 1.90365E-04-2.31727E-14
 -1      1120 6.85616E-03 1.74482E-04-1.94095E-14
 -1      1121 1.29582E-02 3.60907E-04-8.07361E-14
 -1      1122 0.00000E+00 0.00000E+00 0.00000E+00
 -1      1123 0.00000E+00 0.00000E+00 0.00000E+00
 -1      1124 0.00000E+00 0.00000E+00 0.00000E+00
 -1      1125 0.00000E+00 0.00000E+00 0.00000E+00
 -1      1126 0.00000E+00 0.00000E+00 0.00000E+00
 -1      1127 0.00000E+00 0.00000E+00 0.00000E+00
 -1      1128 0.00000E+00 0.00000E+00 0.00000E+00
 -1      1129 0.00000E+00 0.00000E+00 0.00000E+00
 -1      1130 0.00000E+00 0.00000E+00 0.00000E+00
 -1      1131 0.00000E+00 0.00000E+00 0.00000E+00
 -1      1132 0.00000E+00 0.00000E+00 0.00000E+00
 -1      1133 0.00000E+00 0.00000E+00 0.00000E+00
 -1      1134 0.00000E+00 0.00000E+00 0.00000E+00
 -1      1135 0.00000E+00 0.00000E+00 0.00000E+00
 -1      1136 0.00000E+00 0.00000E+00 0.00000E+00
 -1      1137 0.00000E+00 0.00000E+00 0.00000E+00
 -1      1138 0.00000E+00 0.00000E+00 0.00000E+00
 -1      1139 2.24313E-04-1.45599E-04 3.19840E-18
 -1      1140 6.00415E-04-3.19507E-04-6.29379E-17
 -1      1141 9.29825E-04-4.31430E-04-2.32602E-16
 -1      1142 1.25662E-03-5.17068E-04-5.22626E-16
 -1      1143 1.58633E-03-5.95794E-04-9.26424E-16
 -1      1144 1.91938E-03-6.78429E-04-1.43894E-15
 -1      1145 2.25272E-03-7.71129E-04-2.06185E-15
 -1      1146 2.58033E-03-8.75299E-04-2.79450E-15
 -1      1147 2.89451E-03-9.85977E-04-3.63655E-15
 -1      1148 3.18865E-03-1.09075E-03-4.58857E-15
 -1      1149 3.46093E-03-1.17154E-03-5.64961E-15
 -1      1150 3.71710E-03-1.21032E-03-6.81777E-15
 -1      1151 3.96967E-03-1.19702E-03-8.09518E-15
 -1      1152 4.23316E-03-1.13462E-03-9.48035E-15
 -1      1153 4.51794E-03-1.03801E-03-1.09703E-14
 -1      1154 4.82672E-03-9.27219E-04-1.25630E-14
 -1      1155 5.15530E-03-8.20033E-04-1.42551E-14
 -1      1156 5.49594E-03-7.27729E-04-1.60369E-14
 -1      1157 5.84067E-03-6.54777E-04-1.79080E-14
 -1      1158 6.18333E-03-6.00762E-04-1.98649E-14
 -1      1159 6.52008E-03-5.62714E-04-2.19070E-14
 -1      1160 6.84913E-03-5.36857E-04-2.40304E-14
 -1      1161 7.17013E-03-5.19606E-04-2.62380E-14
 -1      1162 7.48361E-03-5.07989E-04-2.85305E-14
 -1      1163 7.79053E-03-4.99740E-04-3.09022E-14
 -1      1164 8.09198E-03-4.93235E-04-3.33460E-14
 -1      1165 8.38904E-03-4.87370E-04-3.58581E-14
 -1      1166 8.68269E-03-4.81439E-04-3.84343E-14
 -1      1167 8.97375E-03-4.75024E-04-4.10747E-14
 -1      1168 9.26288E-03-4.67905E-04-4.37708E-14
 -1      1169 9.55064E-03-4.60001E-04-4.65201E-14
 -1      1170 9.83742E-03-4.51311E-04-4.93271E-14
 -1      1171 1.01236E-02-4.41889E-04-5.21767E-14
 -1      1172 1.04093E-02-4.31815E-04-5.50788E-14
 -1      1173 1.06947E-02-4.21178E-04-5.80353E-14
 -1      1174 1.09800E-02-4.10070E-04-6.10436E-14
 -1      1175 1.12653E-02-3.98575E-04-6.41000E-14
 -1      1176 1.15506E-02-3.86770E-04-6.72151E-14
 -1      1177 1.18359E-02-3.74722E-04-7.03858E-14
 -1      1178 1.21212E-02-3.62485E-04-7.36151E-14
 -1      1179 1.24066E-02-3.50106E-04-7.69268E-14
 -1      1180 1.26920E-02-3.37622E-04-8.03211E-14
 -1      1181 1.29775E-02-3.25064E-04-8.37839E-14
 -1      1182 1.32631E-02-3.12455E-04-8.73163E-14
 -1      1183 1.35486E-02-2.99815E-04-9.09124E-14
 -1      1184 1.38343E-02-2.87158E-04-9.45493E-14
 -1      1185 1.41199E-02-2.74498E-04-9.82081E-14
 -1      1186 1.44056E-02-2.61844E-04-1.01882E-13
 -1      1187 1.46913E-02-2.49205E-04-1.05571E-13
 -1      1188 1.49699E-02-2.36896E-04-1.09199E-13
 -1      1189 2.41841E-04 1.57148E-04 3.58600E-17
 -1      1190 6.05401E-04 3.20482E-04 6.04443E-17
 -1      1191 9.38079E-04 4.28108E-04 1.33628E-17
 -1      1192 1.27112E-03 5.12517E-04-1.17487E-16
 -1      1193 1.60956E-03 5.92294E-04-3.36441E-16
 -1      1194 1.95430E-03 6.79173E-04-6.46659E-16
 -1      1195 2.30222E-03 7.80997E-04-1.05082E-15
 -1      1196 2.64632E-03 9.00898E-04-1.55018E-15
 -1      1197 2.97673E-03 1.03449E-03-2.15111E-15
 -1      1198 3.28394E-03 1.16733E-03-2.86186E-15
 -1      1199 3.56397E-03 1.27613E-03-3.68854E-15
 -1      1200 3.82294E-03 1.33625E-03-4.62964E-15
 -1      1201 4.07687E-03 1.33328E-03-5.68220E-15
 -1      1202 4.34471E-03 1.27129E-03-6.84741E-15
 -1      1203 4.63934E-03 1.17089E-03-8.12910E-15
 -1      1204 4.96276E-03 1.05870E-03-9.53147E-15
 -1      1205 5.30806E-03 9.56607E-04-1.10501E-14
 -1      1206 5.66464E-03 8.76699E-04-1.26685E-14
 -1      1207 6.02277E-03 8.22162E-04-1.43821E-14
 -1      1208 6.37565E-03 7.90630E-04-1.61924E-14
 -1      1209 6.71966E-03 7.77404E-04-1.80896E-14
 -1      1210 7.05357E-03 7.77492E-04-2.00754E-14
 -1      1211 7.37767E-03 7.86582E-04-2.21467E-14
 -1      1212 7.69303E-03 8.01325E-04-2.43074E-14
 -1      1213 8.00104E-03 8.19296E-04-2.65545E-14
 -1      1214 8.30309E-03 8.38826E-04-2.88805E-14
 -1      1215 8.60046E-03 8.58823E-04-3.12938E-14
 -1      1216 8.89425E-03 8.78610E-04-3.37934E-14
 -1      1217 9.18536E-03 8.97804E-04-3.63680E-14
 -1      1218 9.47450E-03 9.16216E-04-3.90128E-14
 -1      1219 9.76224E-03 9.33789E-04-4.17287E-14
 -1      1220 1.00490E-02 9.50540E-04-4.45109E-14
 -1      1221 1.03351E-02 9.66536E-04-4.73519E-14
 -1      1222 1.06208E-02 9.81864E-04-5.02511E-14
 -1      1223 1.09063E-02 9.96621E-04-5.32271E-14
 -1      1224 1.11916E-02 1.01090E-03-5.62862E-14
 -1      1225 1.14768E-02 1.02479E-03-5.94216E-14
 -1      1226 1.17621E-02 1.03837E-03-6.26280E-14
 -1      1227 1.20474E-02 1.05170E-03-6.58897E-14
 -1      1228 1.23327E-02 1.06485E-03-6.92048E-14
 -1      1229 1.26181E-02 1.07785E-03-7.25701E-14
 -1      1230 1.29035E-02 1.09075E-03-7.59858E-14
 -1      1231 1.31890E-02 1.10358E-03-7.94369E-14
 -1      1232 1.34746E-02 1.11635E-03-8.29368E-14
 -1      1233 1.37602E-02 1.12909E-03-8.64846E-14
 -1      1234 1.40458E-02 1.14182E-03-9.00792E-14
 -1      1235 1.43315E-02 1.15454E-03-9.37193E-14
 -1      1236 1.46172E-02 1.16727E-03-9.74056E-14
 -1      1237 1.49029E-02 1.18001E-03-1.01112E-13
 -1      1238 1.51814E-02 1.19245E-03-1.04735E-13
 -1      1239 1.53109E-02 1.15637E-03-1.06659E-13
 -1      1240 1.52983E-02 1.07209E-03-1.06983E-13
 -1      1241 1.52857E-02 9.87793E-04-1.07302E-13
 -1      1242 1.52732E-02 9.03484E-04-1.07621E-13
 -1      1243 1.52606E-02 8.19154E-04-1.07935E-13
 -1      1244 1.52481E-02 7.35518E-04-1.08220E-13
 -1      1245 1.52357E-02 6.51864E-04-1.08492E-13
 -1      1246 1.52231E-02 5.67481E-04-1.08744E-13
 -1      1247 1.52106E-02 4.83091E-04-1.08993E-13
 -1      1248 1.51982E-02 3.98700E-04-1.09229E-13
 -1      1249 1.51857E-02 3.14318E-04-1.09447E-13
 -1      1250 1.51734E-02 2.30664E-04-1.09687E-13
 -1      1251 1.51612E-02 1.47028E-04-1.09946E-13
 -1      1252 1.51488E-02 6.26987E-05-1.10198E-13
 -1      1253 1.51364E-02-2.16099E-05-1.10428E-13
 -1      1254 1.51240E-02-1.05903E-04-1.10647E-13
 -1      1255 1.51117E-02-1.89473E-04-1.10866E-13
 -1      1256 6.05014E-03 1.52772E-04-9.49472E-15
 -1      1257 5.95272E-03 2.94725E-04-9.28308E-15
 -1      1258 5.73628E-03 4.54082E-04-8.92337E-15
 -1      1259 5.43272E-03 6.11138E-04-8.45869E-15
 -1      1260 5.06875E-03 7.55084E-04-7.91947E-15
 -1      1261 4.65061E-03 8.75628E-04-7.32427E-15
 -1      1262 4.22668E-03 9.48441E-04-6.74146E-15
 -1      1263 3.78815E-03 9.66652E-04-6.16485E-15
 -1      1264 3.31828E-03 9.20890E-04-5.58993E-15
 -1      1265 2.87138E-03 8.21781E-04-5.09591E-15
 -1      1266 2.47367E-03 6.89040E-04-4.70012E-15
 -1      1267 2.12112E-03 5.35960E-04-4.38725E-15
 -1      1268 1.84982E-03 3.85286E-04-4.17927E-15
 -1      1269 1.66438E-03 2.39385E-04-4.06481E-15
 -1      1270 1.57614E-03 9.45377E-05-4.04700E-15
 -1      1271 1.59990E-03-4.87377E-05-4.13257E-15
 -1      1272 1.73654E-03-1.95070E-04-4.32100E-15
 -1      1273 1.97148E-03-3.44464E-04-4.60548E-15
 -1      1274 2.29376E-03-4.95788E-04-4.98484E-15
 -1      1275 2.69232E-03-6.38130E-04-5.46340E-15
 -1      1276 3.12992E-03-7.46134E-04-6.01252E-15
 -1      1277 3.58058E-03-8.03860E-04-6.60279E-15
 -1      1278 4.00846E-03-8.04520E-04-7.17547E-15
 -1      1279 4.40591E-03-7.55412E-04-7.70906E-15
 -1      1280 4.78521E-03-6.67254E-04-8.20717E-15
 -1      1281 5.14410E-03-5.49778E-04-8.65767E-15
 -1      1282 5.46524E-03-4.15383E-04-9.03728E-15
 -1      1283 5.73697E-03-2.72035E-04-9.33275E-15
 -1      1284 5.93490E-03-1.29009E-04-9.51568E-15
 -1      1285 6.04261E-03 1.19074E-05-9.57143E-15
 -1      1286 1.81599E-04-1.03817E-04-1.24141E-17
 -1      1287 1.22958E-04-4.41061E-05-2.80944E-17
 -1      1288 1.29277E-04-5.72015E-05-2.35678E-17
 -1      1289 1.15181E-04-2.67659E-05-3.49384E-17
 -1      1290 1.18920E-04-3.43837E-05-3.30004E-17
 -1      1291 2.46573E-04-8.12161E-05-7.82523E-17
 -1      1292 1.09328E-04-1.50226E-05-3.80826E-17
 -1      1293 1.12349E-04-2.03565E-05-3.72423E-17
 -1      1294 2.31156E-04-5.02949E-05-8.97855E-17
 -1      1295 1.04107E-04-6.87479E-06-3.94514E-17
 -1      1296 1.06769E-04-1.06139E-05-3.92210E-17
 -1      1297 2.18732E-04-2.87156E-05-9.52878E-17
 -1      1298 9.95780E-05-1.71292E-06-3.95327E-17
 -1      1299 1.01833E-04-4.07710E-06-3.96140E-17
 -1      1300 2.07776E-04-1.37841E-05-9.72394E-17
 -1      1301 9.58727E-05 1.01001E-06-3.91668E-17
 -1      1302 9.76336E-05-2.46981E-07-3.93294E-17
 -1      1303 1.98243E-04-4.21496E-06-9.70903E-17
 -1      1304 9.34962E-05 1.74656E-06-3.83672E-17
 -1      1305 9.45203E-05 1.33555E-06-3.85976E-17
 -1      1306 1.90793E-04 8.34884E-07-9.56808E-17
 -1      1307 9.27949E-05 1.36751E-06-3.72423E-17
 -1      1308 9.29277E-05 1.35176E-06-3.76083E-17
 -1      1309 1.86423E-04 2.50549E-06-9.34989E-17
 -1      1310 9.39186E-05 9.83782E-07-3.54941E-17
 -1      1311 9.31157E-05 8.21810E-07-3.60226E-17
 -1      1312 1.85825E-04 2.60070E-06-9.03005E-17
 -1      1313 9.67633E-05 1.74452E-06-3.29733E-17
 -1      1314 9.51074E-05 9.05255E-07-3.37051E-17
 -1      1315 1.89200E-04 3.28119E-06-8.55029E-17
 -1      1316 1.00936E-04 4.56202E-06-2.98698E-17
 -1      1317 9.86419E-05 2.66046E-06-3.08998E-17
 -1      1318 1.96105E-04 6.62186E-06-7.92958E-17
 -1      1319 1.06211E-04 1.02739E-05-2.55465E-17
 -1      1320 1.03370E-04 6.90312E-06-2.71186E-17
 -1      1321 2.05813E-04 1.43381E-05-7.13541E-17
 -1      1322 1.12263E-04 1.95394E-05-1.94885E-17
 -1      1323 1.08986E-04 1.43814E-05-2.18196E-17
 -1      1324 2.17653E-04 2.79214E-05-6.05256E-17
 -1      1325 1.19303E-04 3.35508E-05-1.07607E-17
 -1      1326 1.15332E-04 2.58920E-05-1.45012E-17
 -1      1327 2.31191E-04 4.88295E-05-4.56314E-17
 -1      1328 1.29283E-04 5.60379E-05 2.01933E-18
 -1      1329 1.23228E-04 4.34478E-05-4.09286E-18
 -1      1330 2.47611E-04 8.01383E-05-2.50857E-17
 -1      1331 1.71608E-04 1.03928E-04 2.07896E-17
 -1      1332 1.50291E-04 7.63050E-05 9.86624E-18
 -1      1333 2.84850E-04 1.29661E-04-1.00289E-18
 -1      1334 3.67815E-04 2.05065E-04 3.11708E-17
 -1      1335 4.63216E-04-2.42388E-04-6.71392E-17
 -1      1336 6.36393E-04-3.09573E-04-1.25754E-16
 -1      1337 8.05543E-04-3.64782E-04-2.16027E-16
 -1      1338 9.72492E-04-4.11728E-04-3.35181E-16
 -1      1339 6.82208E-04-2.94927E-04-1.96403E-16
 -1      1340 1.13807E-03-4.54275E-04-4.81521E-16
 -1      1341 1.30305E-03-4.93912E-04-6.56240E-16
 -1      1342 1.01839E-03-3.90449E-04-4.39088E-16
 -1      1343 1.46803E-03-5.33043E-04-8.58363E-16
 -1      1344 1.63320E-03-5.72425E-04-1.08796E-15
 -1      1345 1.34908E-03-4.70586E-04-7.90776E-16
 -1      1346 1.79864E-03-6.13599E-04-1.34459E-15
 -1      1347 1.96409E-03-6.56997E-04-1.62785E-15
 -1      1348 1.67857E-03-5.49658E-04-1.25018E-15
 -1      1349 2.12925E-03-7.03487E-04-1.93865E-15
 -1      1350 2.29354E-03-7.53065E-04-2.27628E-15
 -1      1351 2.00796E-03-6.36657E-04-1.81670E-15
 -1      1352 2.45637E-03-8.05789E-04-2.64076E-15
 -1      1353 2.61703E-03-8.60947E-04-3.03285E-15
 -1      1354 2.33577E-03-7.36266E-04-2.48934E-15
 -1      1355 2.77485E-03-9.17516E-04-3.45200E-15
 -1      1356 2.92920E-03-9.73908E-04-3.89832E-15
 -1      1357 2.65866E-03-8.47493E-04-3.26990E-15
 -1      1358 3.07968E-03-1.02796E-03-4.37194E-15
 -1      1359 3.22612E-03-1.07737E-03-4.87338E-15
 -1      1360 2.97259E-03-9.61646E-04-4.15829E-15
 -1      1361 3.36865E-03-1.11935E-03-5.40116E-15
 -1      1362 3.50786E-03-1.15161E-03-5.95608E-15
 -1      1363 3.27476E-03-1.06201E-03-5.15508E-15
 -1      1364 3.64456E-03-1.17186E-03-6.53819E-15
 -1      1365 3.78000E-03-1.17882E-03-7.14729E-15
 -1      1366 3.56587E-03-1.12771E-03-6.26078E-15
 -1      1367 3.91544E-03-1.17187E-03-7.78435E-15
 -1      1368 4.05231E-03-1.15141E-03-8.44877E-15
 -1      1369 3.85110E-03-1.14188E-03-7.47591E-15
 -1      1370 4.19176E-03-1.11887E-03-9.13962E-15
 -1      1371 4.33482E-03-1.07616E-03-9.85599E-15
 -1      1372 4.13856E-03-1.10014E-03-8.80025E-15
 -1      1373 4.48206E-03-1.02602E-03-1.05992E-14
 -1      1374 4.63374E-03-9.71017E-04-1.13683E-14
 -1      1375 4.43561E-03-1.01317E-03-1.02306E-14
 -1      1376 4.78974E-03-9.13955E-04-1.21626E-14
 -1      1377 4.94966E-03-8.57087E-04-1.29817E-14
 -1      1378 4.74566E-03-9.01487E-04-1.17644E-14
 -1      1379 5.11290E-03-8.02370E-04-1.38250E-14
 -1      1380 5.27871E-03-7.51256E-04-1.46915E-14
 -1      1381 5.06764E-03-7.86446E-04-1.33978E-14
 -1      1382 5.44634E-03-7.04606E-04-1.55805E-14
 -1      1383 5.61500E-03-6.63045E-04-1.64914E-14
 -1      1384 5.39759E-03-6.83495E-04-1.51263E-14
 -1      1385 5.78403E-03-6.26572E-04-1.74248E-14
 -1      1386 5.95281E-03-5.95232E-04-1.83809E-14
 -1      1387 5.73076E-03-6.00210E-04-1.69450E-14
 -1      1388 6.12088E-03-5.68550E-04-1.93569E-14
 -1      1389 6.28784E-03-5.46256E-04-2.03533E-14
 -1      1390 6.06309E-03-5.37801E-04-1.88510E-14
 -1      1391 6.45342E-03-5.27724E-04-2.13717E-14
 -1      1392 6.61743E-03-5.12558E-04-2.24125E-14
 -1      1393 6.39171E-03-4.93768E-04-2.08407E-14
 -1      1394 6.77976E-03-5.00174E-04-2.34729E-14
 -1      1395 6.94037E-03-4.90166E-04-2.45518E-14
 -1      1396 6.71503E-03-4.64142E-04-2.29155E-14
 -1      1397 7.09928E-03-4.82066E-04-2.56538E-14
 -1      1398 7.25651E-03-4.75516E-04-2.67775E-14
 -1      1399 7.03242E-03-4.44876E-04-2.50735E-14
 -1      1400 7.41216E-03-4.70176E-04-2.79216E-14
 -1      1401 7.56631E-03-4.65757E-04-2.90855E-14
 -1      1402 7.34398E-03-4.32499E-04-2.73149E-14
 -1      1403 7.71907E-03-4.62030E-04-3.02678E-14
 -1      1404 7.87056E-03-4.58772E-04-3.14693E-14
 -1      1405 7.65020E-03-4.24311E-04-2.96383E-14
 -1      1406 8.02089E-03-4.55843E-04-3.26888E-14
 -1      1407 8.17017E-03-4.53080E-04-3.39254E-14
 -1      1408 7.95176E-03-4.18358E-04-3.20342E-14
 -1      1409 8.31852E-03-4.50403E-04-3.51796E-14
 -1      1410 8.46603E-03-4.47699E-04-3.64498E-14
 -1      1411 8.24943E-03-4.13297E-04-3.45033E-14
 -1      1412 8.61281E-03-4.44930E-04-3.77367E-14
 -1      1413 8.75894E-03-4.42020E-04-3.90386E-14
 -1      1414 8.54395E-03-4.08264E-04-3.70414E-14
 -1      1415 8.90451E-03-4.38960E-04-4.03551E-14
 -1      1416 9.04959E-03-4.35701E-04-4.16881E-14
 -1      1417 8.83598E-03-4.02739E-04-3.96403E-14
 -1      1418 9.19425E-03-4.32249E-04-4.30345E-14
 -1      1419 9.33855E-03-4.28578E-04-4.43937E-14
 -1      1420 9.12608E-03-3.96447E-04-4.22990E-14
 -1      1421 9.48255E-03-4.24702E-04-4.57675E-14
 -1      1422 9.62628E-03-4.20608E-04-4.71556E-14
 -1      1423 9.41474E-03-3.89273E-04-4.50159E-14
 -1      1424 9.76980E-03-4.16316E-04-4.85581E-14
 -1      1425 9.91313E-03-4.11822E-04-4.99707E-14
 -1      1426 9.70234E-03-3.81209E-04-4.77893E-14
 -1      1427 1.00563E-02-4.07146E-04-5.13966E-14
 -1      1428 1.01994E-02-4.02290E-04-5.28336E-14
 -1      1429 9.98916E-03-3.72309E-04-5.06149E-14
 -1      1430 1.03424E-02-3.97275E-04-5.42854E-14
 -1      1431 1.04852E-02-3.92105E-04-5.57505E-14
 -1      1432 1.02755E-02-3.62658E-04-5.34920E-14
 -1      1433 1.06281E-02-3.86799E-04-5.72279E-14
 -1      1434 1.07708E-02-3.81364E-04-5.87203E-14
 -1      1435 1.05614E-02-3.52359E-04-5.64214E-14
 -1      1436 1.09136E-02-3.75816E-04-6.02236E-14
 -1      1437 1.10563E-02-3.70163E-04-6.17399E-14
 -1      1438 1.08471E-02-3.41515E-04-5.94044E-14
 -1      1439 1.11990E-02-3.64417E-04-6.32712E-14
 -1      1440 1.13417E-02-3.58587E-04-6.48149E-14
 -1      1441 1.11327E-02-3.30222E-04-6.24401E-14
 -1      1442 1.14844E-02-3.52684E-04-6.63728E-14
 -1      1443 1.16271E-02-3.46714E-04-6.79477E-14
 -1      1444 1.14181E-02-3.18570E-04-6.55327E-14
 -1      1445 1.17698E-02-3.40688E-04-6.95345E-14
 -1      1446 1.19124E-02-3.34610E-04-7.11327E-14
 -1      1447 1.17036E-02-3.06633E-04-6.86788E-14
 -1      1448 1.20551E-02-3.28488E-04-7.27514E-14
 -1      1449 1.21979E-02-3.22328E-04-7.43873E-14
 -1      1450 1.19891E-02-2.94476E-04-7.18844E-14
 -1      1451 1.23406E-02-3.16135E-04-7.60412E-14
 -1      1452 1.24833E-02-3.09913E-04-7.77181E-14
 -1      1453 1.22745E-02-2.82153E-04-7.51569E-14
 -1      1454 1.26260E-02-3.03668E-04-7.94127E-14
 -1      1455 1.27688E-02-2.97402E-04-8.11246E-14
 -1      1456 1.25600E-02-2.69706E-04-7.85066E-14
 -1      1457 1.29116E-02-2.91120E-04-8.28538E-14
 -1      1458 1.30543E-02-2.84823E-04-8.46003E-14
 -1      1459 1.28456E-02-2.57171E-04-8.19265E-14
 -1      1460 1.31971E-02-2.78516E-04-8.63629E-14
 -1      1461 1.33399E-02-2.72199E-04-8.81403E-14
 -1      1462 1.31312E-02-2.44574E-04-8.54136E-14
 -1      1463 1.34827E-02-2.65876E-04-8.99340E-14
 -1      1464 1.36255E-02-2.59549E-04-9.17417E-14
 -1      1465 1.34168E-02-2.31938E-04-8.89637E-14
 -1      1466 1.37683E-02-2.53218E-04-9.35567E-14
 -1      1467 1.39112E-02-2.46886E-04-9.53754E-14
 -1      1468 1.37024E-02-2.19279E-04-9.25672E-14
 -1      1469 1.40540E-02-2.40554E-04-9.72035E-14
 -1      1470 1.41968E-02-2.34223E-04-9.90368E-14
 -1      1471 1.39880E-02-2.06612E-04-9.62039E-14
 -1      1472 1.43397E-02-2.27895E-04-1.00874E-13
 -1      1473 1.44825E-02-2.21570E-04-1.02711E-13
 -1      1474 1.42737E-02-1.93948E-04-9.98640E-14
 -1      1475 1.46254E-02-2.15249E-04-1.04557E-13
 -1      1476 1.47682E-02-2.08933E-04-1.06410E-13
 -1      1477 1.45594E-02-1.81296E-04-1.03543E-13
 -1      1478 1.49760E-02-1.95467E-04-1.09094E-13
 -1      1479 1.49100E-02-1.61507E-04-1.08071E-13
 -1      1480 7.18815E-04 3.38244E-04 1.48807E-17
 -1      1481 5.45940E-04 2.78010E-04 3.27294E-17
 -1      1482 4.96146E-04 2.36283E-04 8.84980E-18
 -1      1483 1.05704E-03 4.31623E-04-8.26433E-17
 -1      1484 8.88650E-04 3.87625E-04-2.36763E-17
 -1      1485 8.40169E-04 3.46584E-04-5.57686E-17
 -1      1486 1.39343E-03 5.11492E-04-2.62662E-16
 -1      1487 1.22495E-03 4.72233E-04-1.61682E-16
 -1      1488 1.17773E-03 4.31767E-04-2.01133E-16
 -1      1489 1.73274E-03 5.92600E-04-5.32628E-16
 -1      1490 1.56252E-03 5.51313E-04-3.86274E-16
 -1      1491 1.51421E-03 5.10459E-04-4.31662E-16
 -1      1492 2.07529E-03 6.85067E-04-8.93152E-16
 -1      1493 1.90368E-03 6.37096E-04-7.01154E-16
 -1      1494 1.85259E-03 5.95291E-04-7.51000E-16
 -1      1495 2.41775E-03 7.95271E-04-1.34877E-15
 -1      1496 2.24685E-03 7.37975E-04-1.10887E-15
 -1      1497 2.19262E-03 6.95167E-04-1.16274E-15
 -1      1498 2.75389E-03 9.23734E-04-1.90158E-15
 -1      1499 2.58711E-03 8.57750E-04-1.61262E-15
 -1      1500 2.53115E-03 8.14538E-04-1.66992E-15
 -1      1501 3.07623E-03 1.06181E-03-2.55891E-15
 -1      1502 2.91728E-03 9.92707E-04-2.21672E-15
 -1      1503 2.86293E-03 9.50391E-04-2.27733E-15
 -1      1504 3.37929E-03 1.19001E-03-3.32862E-15
 -1      1505 3.23039E-03 1.12871E-03-2.92992E-15
 -1      1506 3.18237E-03 1.08903E-03-2.99182E-15
 -1      1507 3.66343E-03 1.28198E-03-4.21314E-15
 -1      1508 3.52340E-03 1.24197E-03-3.75638E-15
 -1      1509 3.48655E-03 1.20635E-03-3.81910E-15
 -1      1510 3.93687E-03 1.31501E-03-5.21015E-15
 -1      1511 3.80065E-03 1.30645E-03-4.69718E-15
 -1      1512 3.77817E-03 1.27504E-03-4.76014E-15
 -1      1513 4.21319E-03 1.28213E-03-6.32156E-15
 -1      1514 4.07370E-03 1.30613E-03-5.75145E-15
 -1      1515 4.06600E-03 1.27751E-03-5.81577E-15
 -1      1516 4.50503E-03 1.19653E-03-7.54723E-15
 -1      1517 4.35654E-03 1.24429E-03-6.91976E-15
 -1      1518 4.36113E-03 1.21619E-03-6.98623E-15
 -1      1519 4.81837E-03 1.08442E-03-8.89111E-15
 -1      1520 4.65893E-03 1.14201E-03-8.20404E-15
 -1      1521 4.67124E-03 1.11254E-03-8.27340E-15
 -1      1522 5.15141E-03 9.72337E-04-1.03508E-14
 -1      1523 4.98278E-03 1.02709E-03-9.60709E-15
 -1      1524 4.99763E-03 9.95424E-04-9.67625E-15
 -1      1525 5.49733E-03 8.78300E-04-1.19192E-14
 -1      1526 5.32329E-03 9.22481E-04-1.11220E-14
 -1      1527 5.33626E-03 8.88720E-04-1.11904E-14
 -1      1528 5.84809E-03 8.09858E-04-1.35840E-14
 -1      1529 5.67260E-03 8.40836E-04-1.27405E-14
 -1      1530 5.68087E-03 8.05581E-04-1.28074E-14
 -1      1531 6.19705E-03 7.66872E-04-1.53446E-14
 -1      1532 6.02316E-03 7.85429E-04-1.44525E-14
 -1      1533 6.02559E-03 7.49368E-04-1.45191E-14
 -1      1534 6.53989E-03 7.45246E-04-1.71973E-14
 -1      1535 6.36944E-03 7.53728E-04-1.62594E-14
 -1      1536 6.36615E-03 7.17441E-04-1.63236E-14
 -1      1537 6.87449E-03 7.39723E-04-1.91354E-14
 -1      1538 6.70830E-03 7.40796E-04-1.81554E-14
 -1      1539 6.70009E-03 7.04687E-04-1.82173E-14
 -1      1540 7.20036E-03 7.45404E-04-2.11640E-14
 -1      1541 7.03852E-03 7.41429E-04-2.01387E-14
 -1      1542 7.02644E-03 7.05737E-04-2.02003E-14
 -1      1543 7.51798E-03 7.58331E-04-2.32770E-14
 -1      1544 7.36015E-03 7.51162E-04-2.22097E-14
 -1      1545 7.34524E-03 7.15999E-04-2.22688E-14
 -1      1546 7.82835E-03 7.75561E-04-2.54794E-14
 -1      1547 7.67400E-03 7.66550E-04-2.43682E-14
 -1      1548 7.65714E-03 7.31940E-04-2.44246E-14
 -1      1549 8.13264E-03 7.95034E-04-2.77637E-14
 -1      1550 7.98118E-03 7.85114E-04-2.66111E-14
 -1      1551 7.96307E-03 7.51027E-04-2.66647E-14
 -1      1552 8.43202E-03 8.15377E-04-3.01289E-14
 -1      1553 8.28288E-03 8.05159E-04-2.89348E-14
 -1      1554 8.26403E-03 7.71540E-04-2.89863E-14
 -1      1555 8.72753E-03 8.35723E-04-3.25820E-14
 -1      1556 8.58020E-03 8.25588E-04-3.13450E-14
 -1      1557 8.56097E-03 7.92369E-04-3.13927E-14
 -1      1558 9.02007E-03 8.55562E-04-3.51148E-14
 -1      1559 8.87412E-03 8.45728E-04-3.38391E-14
 -1      1560 8.85476E-03 8.12840E-04-3.38815E-14
 -1      1561 9.31038E-03 8.74627E-04-3.77222E-14
 -1      1562 9.16546E-03 8.65201E-04-3.64103E-14
 -1      1563 9.14613E-03 8.32583E-04-3.64482E-14
 -1      1564 9.59905E-03 8.92813E-04-4.03971E-14
 -1      1565 9.45489E-03 8.83833E-04-3.90510E-14
 -1      1566 9.43567E-03 8.51426E-04-3.90864E-14
 -1      1567 9.88654E-03 9.10113E-04-4.31437E-14
 -1      1568 9.74292E-03 9.01572E-04-4.17613E-14
 -1      1569 9.72386E-03 8.69330E-04-4.17935E-14
 -1      1570 1.01732E-02 9.26584E-04-4.59505E-14
 -1      1571 1.00300E-02 9.18448E-04-4.45396E-14
 -1      1572 1.00111E-02 8.86332E-04-4.45671E-14
 -1      1573 1.04593E-02 9.42313E-04-4.88194E-14
 -1      1574 1.03163E-02 9.34536E-04-4.73787E-14
 -1      1575 1.02976E-02 9.02513E-04-4.74024E-14
 -1      1576 1.07451E-02 9.57399E-04-5.17559E-14
 -1      1577 1.06022E-02 9.49930E-04-5.02779E-14
 -1      1578 1.05837E-02 9.17976E-04-5.03010E-14
 -1      1579 1.10306E-02 9.71944E-04-5.47685E-14
 -1      1580 1.08879E-02 9.64733E-04-5.32517E-14
 -1      1581 1.08695E-02 9.32828E-04-5.32723E-14
 -1      1582 1.13160E-02 9.86044E-04-5.78602E-14
 -1      1583 1.11733E-02 9.79044E-04-5.63056E-14
 -1      1584 1.11551E-02 9.47173E-04-5.63220E-14
 -1      1585 1.16014E-02 9.99786E-04-6.10233E-14
 -1      1586 1.14587E-02 9.92955E-04-5.94328E-14
 -1      1587 1.14406E-02 9.61107E-04-5.94426E-14
 -1      1588 1.18867E-02 1.01324E-03-6.42501E-14
 -1      1589 1.17441E-02 1.00655E-03-6.26296E-14
 -1      1590 1.17260E-02 9.74713E-04-6.26312E-14
 -1      1591 1.21721E-02 1.02648E-03-6.75337E-14
 -1      1592 1.20294E-02 1.01989E-03-6.58866E-14
 -1      1593 1.20114E-02 9.88062E-04-6.58784E-14
 -1      1594 1.24575E-02 1.03955E-03-7.08672E-14
 -1      1595 1.23148E-02 1.03304E-03-6.91944E-14
 -1      1596 1.22969E-02 1.00122E-03-6.91815E-14
 -1      1597 1.27430E-02 1.05250E-03-7.42518E-14
 -1      1598 1.26002E-02 1.04604E-03-7.25521E-14
 -1      1599 1.25824E-02 1.01422E-03-7.25356E-14
 -1      1600 1.30285E-02 1.06536E-03-7.76854E-14
 -1      1601 1.28857E-02 1.05894E-03-7.59631E-14
 -1      1602 1.28679E-02 1.02712E-03-7.59412E-14
 -1      1603 1.33140E-02 1.07815E-03-8.11574E-14
 -1      1604 1.31712E-02 1.07176E-03-7.94164E-14
 -1      1605 1.31534E-02 1.03994E-03-7.93912E-14
 -1      1606 1.35996E-02 1.09090E-03-8.46818E-14
 -1      1607 1.34568E-02 1.08453E-03-8.29135E-14
 -1      1608 1.34390E-02 1.05271E-03-8.28892E-14
 -1      1609 1.38852E-02 1.10363E-03-8.82511E-14
 -1      1610 1.37424E-02 1.09727E-03-8.64607E-14
 -1      1611 1.37246E-02 1.06544E-03-8.64337E-14
 -1      1612 1.41708E-02 1.11635E-03-9.18613E-14
 -1      1613 1.40280E-02 1.10999E-03-9.00501E-14
 -1      1614 1.40102E-02 1.07816E-03-9.00188E-14
 -1      1615 1.44565E-02 1.12907E-03-9.55180E-14
 -1      1616 1.43137E-02 1.12271E-03-9.36842E-14
 -1      1617 1.42959E-02 1.09088E-03-9.36470E-14
 -1      1618 1.47422E-02 1.14180E-03-9.92129E-14
 -1      1619 1.45994E-02 1.13543E-03-9.73618E-14
 -1      1620 1.45816E-02 1.10360E-03-9.73187E-14
 -1      1621 1.50279E-02 1.15455E-03-1.02917E-13
 -1      1622 1.48851E-02 1.14818E-03-1.01063E-13
 -1      1623 1.48673E-02 1.11634E-03-1.01014E-13
 -1      1624 1.51752E-02 1.15031E-03-1.04896E-13
 -1      1625 1.51715E-02 1.04548E-03-1.05456E-13
 -1      1626 1.51777E-02 1.08763E-03-1.05293E-13
 -1      1627 1.51589E-02 9.61183E-04-1.05772E-13
 -1      1628 1.51652E-02 1.00333E-03-1.05616E-13
 -1      1629 1.50446E-02 1.01888E-03-1.03927E-13
 -1      1630 1.51463E-02 8.76868E-04-1.06089E-13
 -1      1631 1.51526E-02 9.19027E-04-1.05930E-13
 -1      1632 1.50320E-02 9.34577E-04-1.04244E-13
 -1      1633 1.51337E-02 7.92536E-04-1.06391E-13
 -1      1634 1.51400E-02 8.34704E-04-1.06245E-13
 -1      1635 1.50194E-02 8.50259E-04-1.04555E-13
 -1      1636 1.51214E-02 7.09616E-04-1.06674E-13
 -1      1637 1.51275E-02 7.51078E-04-1.06534E-13
 -1      1638 1.50070E-02 7.66641E-04-1.04851E-13
 -1      1639 1.51088E-02 6.25253E-04-1.06940E-13
 -1      1640 1.51151E-02 6.67436E-04-1.06809E-13
 -1      1641 1.49945E-02 6.83009E-04-1.05130E-13
 -1      1642 1.50963E-02 5.40879E-04-1.07197E-13
 -1      1643 1.51025E-02 5.83067E-04-1.07067E-13
 -1      1644 1.49819E-02 5.98650E-04-1.05394E-13
 -1      1645 1.50838E-02 4.56501E-04-1.07446E-13
 -1      1646 1.50900E-02 4.98690E-04-1.07325E-13
 -1      1647 1.49694E-02 5.14284E-04-1.05652E-13
 -1      1648 1.50713E-02 3.72124E-04-1.07683E-13
 -1      1649 1.50776E-02 4.14312E-04-1.07567E-13
 -1      1650 1.49569E-02 4.29916E-04-1.05904E-13
 -1      1651 1.50589E-02 2.87755E-04-1.07914E-13
 -1      1652 1.50651E-02 3.29938E-04-1.07799E-13
 -1      1653 1.49445E-02 3.45550E-04-1.06144E-13
 -1      1654 1.50467E-02 2.04828E-04-1.08155E-13
 -1      1655 1.50528E-02 2.46290E-04-1.08032E-13
 -1      1656 1.49322E-02 2.61907E-04-1.06380E-13
 -1      1657 1.50343E-02 1.20488E-04-1.08405E-13
 -1      1658 1.50405E-02 1.62656E-04-1.08280E-13
 -1      1659 1.49199E-02 1.78275E-04-1.06620E-13
 -1      1660 1.50220E-02 3.61647E-05-1.08646E-13
 -1      1661 1.50282E-02 7.83241E-05-1.08529E-13
 -1      1662 1.49075E-02 9.39421E-05-1.06862E-13
 -1      1663 1.50096E-02-4.81419E-05-1.08873E-13
 -1      1664 1.50158E-02-5.99044E-06-1.08762E-13
 -1      1665 1.48952E-02 9.62419E-06-1.07097E-13
 -1      1666 1.49567E-02-1.25899E-04-1.08527E-13
 -1      1667 1.49629E-02-8.37525E-05-1.08416E-13
 -1      1668 1.48423E-02-6.81431E-05-1.06755E-13
 -1      1669 1.47490E-02-1.39367E-04-1.05847E-13
 -1      1670 6.04822E-03 1.54045E-04-9.76214E-15
 -1      1671 6.07376E-03 1.11231E-04-9.83472E-15
 -1      1672 5.90056E-03 2.58450E-04-9.51052E-15
 -1      1673 5.98441E-03 2.06777E-04-9.65369E-15
 -1      1674 5.60361E-03 3.96948E-04-9.10647E-15
 -1      1675 5.75680E-03 3.21779E-04-9.33873E-15
 -1      1676 5.26846E-03 5.74418E-04-8.53296E-15
 -1      1677 5.42491E-03 4.99392E-04-8.77412E-15
 -1      1678 4.86966E-03 7.57627E-04-7.89719E-15
 -1      1679 5.06325E-03 6.71038E-04-8.20492E-15
 -1      1680 4.47605E-03 9.09480E-04-7.24304E-15
 -1      1681 4.65515E-03 8.46714E-04-7.53542E-15
 -1      1682 4.09239E-03 9.98509E-04-6.60821E-15
 -1      1683 4.26858E-03 9.65945E-04-6.89916E-15
 -1      1684 3.70900E-03 1.00943E-03-5.98954E-15
 -1      1685 3.88494E-03 1.01630E-03-6.27008E-15
 -1      1686 3.29187E-03 9.22617E-04-5.36667E-15
 -1      1687 3.49044E-03 9.77356E-04-5.64699E-15
 -1      1688 2.87846E-03 7.73073E-04-4.89769E-15
 -1      1689 3.05563E-03 8.44755E-04-5.10044E-15
 -1      1690 2.47813E-03 5.92855E-04-4.50043E-15
 -1      1691 2.66471E-03 6.79745E-04-4.67687E-15
 -1      1692 2.11544E-03 4.18516E-04-4.20405E-15
 -1      1693 2.27553E-03 4.96101E-04-4.32698E-15
 -1      1694 1.82741E-03 2.74249E-04-4.01395E-15
 -1      1695 1.95004E-03 3.36645E-04-4.08942E-15
 -1      1696 1.63177E-03 1.55409E-04-3.91001E-15
 -1      1697 1.70988E-03 2.04785E-04-3.94197E-15
 -1      1698 1.55383E-03 5.82061E-05-3.90644E-15
 -1      1699 1.57292E-03 9.99779E-05-3.89058E-15
 -1      1700 1.61549E-03-3.57765E-05-4.02592E-15
 -1      1701 1.57035E-03 7.90209E-06-3.96263E-15
 -1      1702 1.81242E-03-1.48033E-04-4.23580E-15
 -1      1703 1.70565E-03-9.17096E-05-4.12078E-15
 -1      1704 2.09964E-03-2.98887E-04-4.56526E-15
 -1      1705 1.95675E-03-2.30171E-04-4.41138E-15
 -1      1706 2.47289E-03-4.74080E-04-4.99054E-15
 -1      1707 2.28965E-03-3.89311E-04-4.77798E-15
 -1      1708 2.88474E-03-6.51151E-04-5.51295E-15
 -1      1709 2.69284E-03-5.71188E-04-5.26133E-15
 -1      1710 3.30595E-03-7.91211E-04-6.10642E-15
 -1      1711 3.11862E-03-7.32707E-04-5.82089E-15
 -1      1712 3.69982E-03-8.58401E-04-6.75087E-15
 -1      1713 3.52281E-03-8.38092E-04-6.45442E-15
 -1      1714 4.06412E-03-8.36463E-04-7.36089E-15
 -1      1715 3.90047E-03-8.54274E-04-7.08675E-15
 -1      1716 4.41682E-03-7.51439E-04-7.93804E-15
 -1      1717 4.25450E-03-7.98073E-04-7.67642E-15
 -1      1718 4.77203E-03-6.19626E-04-8.47862E-15
 -1      1719 4.60782E-03-6.85477E-04-8.23603E-15
 -1      1720 5.12923E-03-4.61328E-04-8.96574E-15
 -1      1721 4.96463E-03-5.36812E-04-8.74976E-15
 -1      1722 5.46203E-03-3.03667E-04-9.36846E-15
 -1      1723 5.31295E-03-3.75130E-04-9.19578E-15
 -1      1724 5.75500E-03-1.54226E-04-9.69710E-15
 -1      1725 5.62416E-03-2.19137E-04-9.56719E-15
 -1      1726 5.96522E-03-4.12753E-05-9.85073E-15
 -1      1727 5.88217E-03-9.12505E-05-9.78950E-15
 -1      1728 6.07034E-03 6.14136E-05-9.92584E-15
 -1      1729 6.03593E-03 1.84071E-05-9.93059E-15
 -1      1730 5.10000E-03 5.86558E-04-8.52047E-15
 -1      1731 5.47929E-03 3.89033E-04-9.19408E-15
 -1      1732 1.51574E-02 1.11847E-03-1.04846E-13
 -1      1733 1.50305E-02 1.09187E-03-1.03317E-13
 -1      1734 6.01856E-03 1.53993E-04-1.00061E-14
 -1      1735 5.80724E-03 2.43136E-04-9.71623E-15
 -1      1736 6.08164E-03 8.68540E-05-1.02093E-14
 -1      1737 4.70717E-03 7.87245E-04-7.81853E-15
 -1      1738 4.32948E-03 9.49044E-04-7.10589E-15
 -1      1739 3.97460E-03 1.03318E-03-6.42295E-15
 -1      1740 3.61736E-03 1.01638E-03-5.74635E-15
 -1      1741 3.23986E-03 8.89337E-04-5.15056E-15
 -1      1742 2.83303E-03 7.00930E-04-4.67691E-15
 -1      1743 2.43539E-03 4.99282E-04-4.29631E-15
 -1      1744 2.07039E-03 3.22597E-04-4.02050E-15
 -1      1745 1.78129E-03 1.90107E-04-3.84186E-15
 -1      1746 1.59701E-03 1.00623E-04-3.75396E-15
 -1      1747 1.55253E-03 4.03460E-05-3.78818E-15
 -1      1748 1.66340E-03-2.84941E-05-3.93161E-15
 -1      1749 1.90659E-03-1.34872E-04-4.18876E-15
 -1      1750 2.24467E-03-2.95592E-04-4.56383E-15
 -1      1751 2.64258E-03-4.90565E-04-5.03358E-15
 -1      1752 3.06185E-03-6.86326E-04-5.60142E-15
 -1      1753 3.44838E-03-8.32662E-04-6.24975E-15
 -1      1754 3.79382E-03-8.83254E-04-6.93266E-15
 -1      1755 4.12607E-03-8.36336E-04-7.58790E-15
 -1      1756 4.45716E-03-7.18563E-04-8.20898E-15
 -1      1757 4.80529E-03-5.54248E-04-8.78811E-15
 -1      1758 5.16253E-03-3.74061E-04-9.30090E-15
 -1      1759 5.50526E-03-2.04701E-04-9.74040E-15
 -1      1760 5.79946E-03-7.29834E-05-1.00422E-14
 -1      1761 6.00358E-03 2.22383E-05-1.02198E-14
 -1      1762 3.14757E-04-1.59316E-04-5.59719E-17
 -1      1763 3.47635E-04-7.22012E-05-1.40580E-16
 -1      1764 3.58653E-04-9.10887E-05-1.35092E-16
 -1      1765 3.71065E-04-1.13607E-04-1.27705E-16
 -1      1766 3.86316E-04-1.40144E-04-1.16226E-16
 -1      1767 4.93954E-04-1.39256E-04-1.96783E-16
 -1      1768 3.10675E-04-2.14251E-05-1.48563E-16
 -1      1769 3.18985E-04-3.08019E-05-1.48210E-16
 -1      1770 2.95746E-04-7.68625E-06-1.47804E-16
 -1      1771 3.02798E-04-1.36729E-05-1.48495E-16
 -1      1772 4.11879E-04-2.76230E-05-2.18778E-16
 -1      1773 2.84686E-04-1.02491E-07-1.45351E-16
 -1      1774 2.89615E-04-3.21791E-06-1.46828E-16
 -1      1775 3.91742E-04-1.04033E-05-2.16908E-16
 -1      1776 2.78967E-04 3.28636E-06-1.41475E-16
 -1      1777 2.81063E-04 1.96504E-06-1.43589E-16
 -1      1778 3.77605E-04-4.46821E-07-2.12748E-16
 -1      1779 2.79594E-04 5.20283E-06-1.36054E-16
 -1      1780 2.78456E-04 4.23967E-06-1.39062E-16
 -1      1781 3.71564E-04 4.96812E-06-2.06608E-16
 -1      1782 2.86660E-04 8.74419E-06-1.28424E-16
 -1      1783 2.82367E-04 6.58459E-06-1.32625E-16
 -1      1784 3.74812E-04 9.49392E-06-1.97989E-16
 -1      1785 2.99084E-04 1.66142E-05-1.18774E-16
 -1      1786 2.92288E-04 1.19955E-05-1.24087E-16
 -1      1787 3.86972E-04 1.69925E-05-1.86754E-16
 -1      1788 3.15985E-04 3.13721E-05-1.06089E-16
 -1      1789 3.07102E-04 2.30534E-05-1.13123E-16
 -1      1790 4.06568E-04 3.09145E-05-1.72320E-16
 -1      1791 3.36048E-04 5.48283E-05-8.86606E-17
 -1      1792 3.25687E-04 4.19542E-05-9.82558E-17
 -1      1793 4.31903E-04 5.41104E-05-1.53089E-16
 -1      1794 3.59224E-04 8.93366E-05-6.48895E-17
 -1      1795 3.47184E-04 7.06116E-05-7.79677E-17
 -1      1796 4.61443E-04 8.87093E-05-1.27272E-16
 -1      1797 3.88908E-04 1.39788E-04-3.23092E-17
 -1      1798 3.72940E-04 1.12320E-04-5.02392E-17
 -1      1799 4.95991E-04 1.37720E-04-9.26586E-17
 -1      1800 4.54903E-04 2.01383E-04-6.47811E-18
 -1      1801 4.20165E-04 1.66845E-04-2.22126E-17
 -1      1802 5.49641E-04 1.96812E-04-6.01597E-17
 -1      1803 6.25690E-04 2.60918E-04-3.14961E-17
 -1      1804 3.76745E-04-1.64547E-04-8.96906E-17
 -1      1805 9.64581E-04 3.56124E-04-1.42003E-16
 -1      1806 7.95448E-04 3.11431E-04-7.66938E-17
 -1      1807 7.53509E-04 2.77318E-04-9.49490E-17
 -1      1808 5.08050E-04-1.99864E-04-1.52656E-16
 -1      1809 9.00661E-04-3.27089E-04-3.95436E-16
 -1      1810 1.06624E-03-3.68916E-04-5.46113E-16
 -1      1811 1.23066E-03-4.08562E-04-7.23176E-16
 -1      1812 1.39487E-03-4.46999E-04-9.26912E-16
 -1      1813 1.11422E-03-3.47426E-04-6.56037E-16
 -1      1814 1.55907E-03-4.86180E-04-1.15663E-15
 -1      1815 1.72321E-03-5.26721E-04-1.41331E-15
 -1      1816 1.44027E-03-4.23585E-04-1.06462E-15
 -1      1817 1.88784E-03-5.69901E-04-1.69627E-15
 -1      1818 2.05222E-03-6.16115E-04-2.00522E-15
 -1      1819 1.76779E-03-5.03769E-04-1.57707E-15
 -1      1820 2.21697E-03-6.65882E-04-2.34045E-15
 -1      1821 2.38087E-03-7.19098E-04-2.70183E-15
 -1      1822 2.09772E-03-5.95325E-04-2.19364E-15
 -1      1823 2.54446E-03-7.75282E-04-3.09044E-15
 -1      1824 2.70632E-03-8.33433E-04-3.50561E-15
 -1      1825 2.42921E-03-7.01510E-04-2.91405E-15
 -1      1826 2.86676E-03-8.91878E-04-3.94732E-15
 -1      1827 3.02476E-03-9.48502E-04-4.41658E-15
 -1      1828 2.75928E-03-8.18895E-04-3.73994E-15
 -1      1829 3.18022E-03-1.00063E-03-4.91252E-15
 -1      1830 3.33327E-03-1.04536E-03-5.43538E-15
 -1      1831 3.08343E-03-9.34805E-04-4.67268E-15
 -1      1832 3.48342E-03-1.07990E-03-5.98676E-15
 -1      1833 3.63242E-03-1.10175E-03-6.56438E-15
 -1      1834 3.39800E-03-1.02762E-03-5.71473E-15
 -1      1835 3.77954E-03-1.10929E-03-7.16930E-15
 -1      1836 3.92757E-03-1.10184E-03-7.80296E-15
 -1      1837 3.70381E-03-1.07345E-03-6.86621E-15
 -1      1838 4.07573E-03-1.07990E-03-8.46346E-15
 -1      1839 4.22654E-03-1.04500E-03-9.15065E-15
 -1      1840 4.00727E-03-1.05799E-03-8.12870E-15
 -1      1841 4.37933E-03-9.99536E-04-9.86379E-15
 -1      1842 4.53525E-03-9.46406E-04-1.06034E-14
 -1      1843 4.31659E-03-9.85320E-04-9.49941E-15
 -1      1844 4.69386E-03-8.88698E-04-1.13691E-14
 -1      1845 4.85483E-03-8.29229E-04-1.21593E-14
 -1      1846 4.63618E-03-8.75722E-04-1.09753E-14
 -1      1847 5.01812E-03-7.70568E-04-1.29740E-14
 -1      1848 5.18246E-03-7.14585E-04-1.38125E-14
 -1      1849 4.96467E-03-7.54625E-04-1.25528E-14
 -1      1850 5.34812E-03-6.62788E-04-1.46758E-14
 -1      1851 5.51368E-03-6.15937E-04-1.55607E-14
 -1      1852 5.29732E-03-6.42155E-04-1.42273E-14
 -1      1853 5.67954E-03-5.74520E-04-1.64673E-14
 -1      1854 5.84452E-03-5.38561E-04-1.73960E-14
 -1      1855 5.62937E-03-5.49141E-04-1.59931E-14
 -1      1856 6.00902E-03-5.07849E-04-1.83474E-14
 -1      1857 6.17223E-03-4.82044E-04-1.93198E-14
 -1      1858 5.95770E-03-4.78427E-04-1.78465E-14
 -1      1859 6.33444E-03-4.60596E-04-2.03128E-14
 -1      1860 6.49523E-03-4.43054E-04-2.13265E-14
 -1      1861 6.28083E-03-4.28074E-04-1.97875E-14
 -1      1862 6.65475E-03-4.28788E-04-2.23614E-14
 -1      1863 6.81286E-03-4.17365E-04-2.34181E-14
 -1      1864 6.59838E-03-3.94094E-04-2.18108E-14
 -1      1865 6.96963E-03-4.08215E-04-2.44950E-14
 -1      1866 7.12509E-03-4.00976E-04-2.55928E-14
 -1      1867 6.91056E-03-3.72144E-04-2.39192E-14
 -1      1868 7.27927E-03-3.95196E-04-2.67111E-14
 -1      1869 7.43228E-03-3.90591E-04-2.78509E-14
 -1      1870 7.21785E-03-3.58373E-04-2.61105E-14
 -1      1871 7.58413E-03-3.86833E-04-2.90098E-14
 -1      1872 7.73498E-03-3.83711E-04-3.01870E-14
 -1      1873 7.52084E-03-3.49716E-04-2.83845E-14
 -1      1874 7.88483E-03-3.81005E-04-3.13837E-14
 -1      1875 8.03384E-03-3.78561E-04-3.25980E-14
 -1      1876 7.82013E-03-3.43905E-04-3.07362E-14
 -1      1877 8.18202E-03-3.76244E-04-3.38306E-14
 -1      1878 8.32951E-03-3.73948E-04-3.50798E-14
 -1      1879 8.11634E-03-3.39355E-04-3.31608E-14
 -1      1880 8.47632E-03-3.71597E-04-3.63474E-14
 -1      1881 8.62259E-03-3.69121E-04-3.76301E-14
 -1      1882 8.41002E-03-3.35024E-04-3.56560E-14
 -1      1883 8.76832E-03-3.66484E-04-3.89265E-14
 -1      1884 8.91363E-03-3.63643E-04-4.02394E-14
 -1      1885 8.70164E-03-3.30272E-04-3.82160E-14
 -1      1886 9.05852E-03-3.60591E-04-4.15686E-14
 -1      1887 9.20309E-03-3.57301E-04-4.29111E-14
 -1      1888 8.99166E-03-3.24744E-04-4.08390E-14
 -1      1889 9.34734E-03-3.53783E-04-4.42668E-14
 -1      1890 9.49135E-03-3.50023E-04-4.56376E-14
 -1      1891 9.28042E-03-3.18279E-04-4.35213E-14
 -1      1892 9.63512E-03-3.46039E-04-4.70231E-14
 -1      1893 9.77872E-03-3.41828E-04-4.84210E-14
 -1      1894 9.56823E-03-3.10844E-04-4.62584E-14
 -1      1895 9.92214E-03-3.37412E-04-4.98342E-14
 -1      1896 1.00654E-02-3.32790E-04-5.12590E-14
 -1      1897 9.85533E-03-3.02483E-04-4.90535E-14
 -1      1898 1.02086E-02-3.27988E-04-5.26970E-14
 -1      1899 1.03517E-02-3.23007E-04-5.41496E-14
 -1      1900 1.01419E-02-2.93284E-04-5.19037E-14
 -1      1901 1.04947E-02-3.17872E-04-5.56142E-14
 -1      1902 1.06377E-02-3.12587E-04-5.70930E-14
 -1      1903 1.04281E-02-2.83353E-04-5.48083E-14
 -1      1904 1.07806E-02-3.07174E-04-5.85844E-14
 -1      1905 1.09234E-02-3.01637E-04-6.00893E-14
 -1      1906 1.07141E-02-2.72803E-04-5.77648E-14
 -1      1907 1.10663E-02-2.95995E-04-6.16091E-14
 -1      1908 1.12091E-02-2.90254E-04-6.31436E-14
 -1      1909 1.09999E-02-2.61741E-04-6.07777E-14
 -1      1910 1.13519E-02-2.84429E-04-6.46892E-14
 -1      1911 1.14946E-02-2.78526E-04-6.62498E-14
 -1      1912 1.12856E-02-2.50266E-04-6.38462E-14
 -1      1913 1.16374E-02-2.72557E-04-6.78238E-14
 -1      1914 1.17802E-02-2.66528E-04-6.94121E-14
 -1      1915 1.15712E-02-2.38464E-04-6.69677E-14
 -1      1916 1.19229E-02-2.60449E-04-7.10171E-14
 -1      1917 1.20657E-02-2.54323E-04-7.26358E-14
 -1      1918 1.18568E-02-2.26406E-04-7.01474E-14
 -1      1919 1.22085E-02-2.48159E-04-7.42744E-14
 -1      1920 1.23512E-02-2.41962E-04-7.59287E-14
 -1      1921 1.21424E-02-2.14154E-04-7.33889E-14
 -1      1922 1.24940E-02-2.35736E-04-7.76012E-14
 -1      1923 1.26368E-02-2.29486E-04-7.92939E-14
 -1      1924 1.24280E-02-2.01757E-04-7.66995E-14
 -1      1925 1.27796E-02-2.23216E-04-8.10023E-14
 -1      1926 1.29224E-02-2.16929E-04-8.27285E-14
 -1      1927 1.27135E-02-1.89255E-04-8.00807E-14
 -1      1928 1.30652E-02-2.10628E-04-8.44688E-14
 -1      1929 1.32080E-02-2.04317E-04-8.62252E-14
 -1      1930 1.29992E-02-1.76678E-04-8.35272E-14
 -1      1931 1.33508E-02-1.97996E-04-8.79998E-14
 -1      1932 1.34936E-02-1.91670E-04-8.97857E-14
 -1      1933 1.32848E-02-1.64052E-04-8.70374E-14
 -1      1934 1.36364E-02-1.85338E-04-9.15819E-14
 -1      1935 1.37792E-02-1.79004E-04-9.33894E-14
 -1      1936 1.35704E-02-1.51397E-04-9.06024E-14
 -1      1937 1.39221E-02-1.72669E-04-9.52066E-14
 -1      1938 1.40649E-02-1.66334E-04-9.70281E-14
 -1      1939 1.38561E-02-1.38726E-04-9.42107E-14
 -1      1940 1.42078E-02-1.60001E-04-9.88578E-14
 -1      1941 1.43506E-02-1.53670E-04-1.00691E-13
 -1      1942 1.41418E-02-1.26054E-04-9.78516E-14
 -1      1943 1.44783E-02-1.49676E-04-1.02342E-13
 -1      1944 1.46212E-02-1.43353E-04-1.04186E-13
 -1      1945 1.46679E-02-1.07741E-04-1.04638E-13
 -1      1946 1.44124E-02-1.15724E-04-1.01329E-13
 -1      1947 1.29978E-03 4.36083E-04-3.32742E-16
 -1      1948 1.13214E-03 3.97064E-04-2.26829E-16
 -1      1949 1.08720E-03 3.62647E-04-2.49245E-16
 -1      1950 1.63513E-03 5.15632E-04-6.10501E-16
 -1      1951 1.46718E-03 4.75293E-04-4.60461E-16
 -1      1952 1.41997E-03 4.40270E-04-4.86346E-16
 -1      1953 1.97258E-03 6.05672E-04-9.77517E-16
 -1      1954 1.80363E-03 5.58923E-04-7.82618E-16
 -1      1955 1.75431E-03 5.22556E-04-8.10915E-16
 -1      1956 2.31145E-03 7.13708E-04-1.43772E-15
 -1      1957 2.14213E-03 6.57294E-04-1.19567E-15
 -1      1958 2.09150E-03 6.19160E-04-1.22573E-15
 -1      1959 2.64865E-03 8.41781E-04-1.99518E-15
 -1      1960 2.48076E-03 7.75562E-04-1.70396E-15
 -1      1961 2.43070E-03 7.35969E-04-1.73487E-15
 -1      1962 2.97927E-03 9.82805E-04-2.65494E-15
 -1      1963 2.81532E-03 9.11654E-04-2.31188E-15
 -1      1964 2.76866E-03 8.71996E-04-2.34302E-15
 -1      1965 3.29853E-03 1.11790E-03-3.42432E-15
 -1      1966 3.14063E-03 1.05266E-03-3.02553E-15
 -1      1967 3.10027E-03 1.01533E-03-3.05597E-15
 -1      1968 3.60485E-03 1.21916E-03-4.30688E-15
 -1      1969 3.45305E-03 1.17438E-03-3.85117E-15
 -1      1970 3.42084E-03 1.14177E-03-3.87949E-15
 -1      1971 3.90263E-03 1.26047E-03-5.30290E-15
 -1      1972 3.75392E-03 1.24812E-03-4.79022E-15
 -1      1973 3.73008E-03 1.22104E-03-4.81707E-15
 -1      1974 4.20144E-03 1.23173E-03-6.41589E-15
 -1      1975 4.05084E-03 1.25428E-03-5.84511E-15
 -1      1976 4.03451E-03 1.23114E-03-5.87083E-15
 -1      1977 4.51053E-03 1.14557E-03-7.64406E-15
 -1      1978 4.35404E-03 1.19418E-03-7.01483E-15
 -1      1979 4.34433E-03 1.17208E-03-7.03987E-15
 -1      1980 4.83366E-03 1.02997E-03-8.98844E-15
 -1      1981 4.67030E-03 1.08964E-03-8.30198E-15
 -1      1982 4.66626E-03 1.06630E-03-8.32635E-15
 -1      1983 5.16864E-03 9.13686E-04-1.04468E-14
 -1      1984 5.00007E-03 9.70656E-04-9.70421E-15
 -1      1985 5.00004E-03 9.45279E-04-9.72760E-15
 -1      1986 5.51009E-03 8.16159E-04-1.20108E-14
 -1      1987 5.33909E-03 8.62054E-04-1.12157E-14
 -1      1988 5.34072E-03 8.34897E-04-1.12380E-14
 -1      1989 5.85252E-03 7.45427E-04-1.36728E-14
 -1      1990 5.68165E-03 7.77451E-04-1.28296E-14
 -1      1991 5.68252E-03 7.49110E-04-1.28503E-14
 -1      1992 6.19177E-03 7.01301E-04-1.54284E-14
 -1      1993 6.02286E-03 7.20310E-04-1.45397E-14
 -1      1994 6.02122E-03 6.91311E-04-1.45565E-14
 -1      1995 6.52534E-03 6.79424E-04-1.72748E-14
 -1      1996 6.35945E-03 6.87924E-04-1.63398E-14
 -1      1997 6.35439E-03 6.58641E-04-1.63551E-14
 -1      1998 6.85207E-03 6.74247E-04-1.92108E-14
 -1      1999 6.68963E-03 6.75062E-04-1.82320E-14
 -1      2000 6.68102E-03 6.45746E-04-1.82438E-14
 -1      2001 7.17177E-03 6.80620E-04-2.12339E-14
 -1      2002 7.01279E-03 6.76239E-04-2.02115E-14
 -1      2003 7.00096E-03 6.47053E-04-2.02211E-14
 -1      2004 7.48488E-03 6.94397E-04-2.33422E-14
 -1      2005 7.32911E-03 6.86765E-04-2.22778E-14
 -1      2006 7.31460E-03 6.57807E-04-2.22839E-14
 -1      2007 7.79214E-03 7.12508E-04-2.55376E-14
 -1      2008 7.63918E-03 7.03035E-04-2.44294E-14
 -1      2009 7.62261E-03 6.74356E-04-2.44326E-14
 -1      2010 8.09443E-03 7.32816E-04-2.78144E-14
 -1      2011 7.94384E-03 7.22469E-04-2.66652E-14
 -1      2012 7.92575E-03 6.94084E-04-2.66639E-14
 -1      2013 8.39261E-03 7.53906E-04-3.01737E-14
 -1      2014 8.24397E-03 7.43314E-04-2.89840E-14
 -1      2015 8.22481E-03 7.15215E-04-2.89785E-14
 -1      2016 8.68751E-03 7.74896E-04-3.26179E-14
 -1      2017 8.54041E-03 7.64442E-04-3.13863E-14
 -1      2018 8.52056E-03 7.36606E-04-3.13771E-14
 -1      2019 8.97983E-03 7.95271E-04-3.51398E-14
 -1      2020 8.83394E-03 7.85174E-04-3.38687E-14
 -1      2021 8.81365E-03 7.57570E-04-3.38555E-14
 -1      2022 9.27016E-03 8.14774E-04-3.77389E-14
 -1      2023 9.12520E-03 8.05136E-04-3.64302E-14
 -1      2024 9.10466E-03 7.77730E-04-3.64108E-14
 -1      2025 9.55900E-03 8.33307E-04-4.04079E-14
 -1      2026 9.41474E-03 8.24160E-04-3.90652E-14
 -1      2027 9.39409E-03 7.96919E-04-3.90411E-14
 -1      2028 9.84675E-03 8.50880E-04-4.31450E-14
 -1      2029 9.70299E-03 8.42209E-04-4.17674E-14
 -1      2030 9.68232E-03 8.15102E-04-4.17416E-14
 -1      2031 1.01337E-02 8.67560E-04-4.59449E-14
 -1      2032 9.99030E-03 8.59326E-04-4.45378E-14
 -1      2033 9.96966E-03 8.32325E-04-4.45068E-14
 -1      2034 1.04201E-02 8.83446E-04-4.88076E-14
 -1      2035 1.02770E-02 8.75596E-04-4.73688E-14
 -1      2036 1.02564E-02 8.48679E-04-4.73342E-14
 -1      2037 1.07061E-02 8.98648E-04-5.17399E-14
 -1      2038 1.05631E-02 8.91126E-04-5.02651E-14
 -1      2039 1.05426E-02 8.64274E-04-5.02264E-14
 -1      2040 1.09919E-02 9.13277E-04-5.47443E-14
 -1      2041 1.08490E-02 9.06028E-04-5.32312E-14
 -1      2042 1.08286E-02 8.79225E-04-5.31896E-14
 -1      2043 1.12775E-02 9.27437E-04-5.78248E-14
 -1      2044 1.11347E-02 9.20410E-04-5.62765E-14
 -1      2045 1.11143E-02 8.93643E-04-5.62287E-14
 -1      2046 1.15630E-02 9.41219E-04-6.09736E-14
 -1      2047 1.14203E-02 9.34370E-04-5.93908E-14
 -1      2048 1.14000E-02 9.07629E-04-5.93377E-14
 -1      2049 1.18485E-02 9.54703E-04-6.41844E-14
 -1      2050 1.17058E-02 9.47994E-04-6.25718E-14
 -1      2051 1.16856E-02 9.21271E-04-6.25132E-14
 -1      2052 1.21340E-02 9.67957E-04-6.74549E-14
 -1      2053 1.19913E-02 9.61356E-04-6.58128E-14
 -1      2054 1.19711E-02 9.34645E-04-6.57468E-14
 -1      2055 1.24195E-02 9.81037E-04-7.07765E-14
 -1      2056 1.22768E-02 9.74516E-04-6.91085E-14
 -1      2057 1.22566E-02 9.47814E-04-6.90358E-14
 -1      2058 1.27050E-02 9.93987E-04-7.41521E-14
 -1      2059 1.25623E-02 9.87526E-04-7.24588E-14
 -1      2060 1.25422E-02 9.60828E-04-7.23804E-14
 -1      2061 1.29906E-02 1.00684E-03-7.75781E-14
 -1      2062 1.28478E-02 1.00042E-03-7.58584E-14
 -1      2063 1.28277E-02 9.73730E-04-7.57785E-14
 -1      2064 1.32761E-02 1.01963E-03-8.10490E-14
 -1      2065 1.31334E-02 1.01325E-03-7.93081E-14
 -1      2066 1.31133E-02 9.86552E-04-7.92221E-14
 -1      2067 1.35617E-02 1.03238E-03-8.45661E-14
 -1      2068 1.34189E-02 1.02601E-03-8.28020E-14
 -1      2069 1.33989E-02 9.99320E-04-8.27138E-14
 -1      2070 1.38474E-02 1.04511E-03-8.81282E-14
 -1      2071 1.37046E-02 1.03875E-03-8.63414E-14
 -1      2072 1.36845E-02 1.01205E-03-8.62493E-14
 -1      2073 1.41330E-02 1.05782E-03-9.17282E-14
 -1      2074 1.39902E-02 1.05147E-03-8.99230E-14
 -1      2075 1.39702E-02 1.02477E-03-8.98250E-14
 -1      2076 1.44187E-02 1.07054E-03-9.53768E-14
 -1      2077 1.42759E-02 1.06418E-03-9.35479E-14
 -1      2078 1.42559E-02 1.03748E-03-9.34461E-14
 -1      2079 1.47044E-02 1.08327E-03-9.90587E-14
 -1      2080 1.45616E-02 1.07690E-03-9.72145E-14
 -1      2081 1.45415E-02 1.05020E-03-9.71096E-14
 -1      2082 1.49389E-02 1.09075E-03-1.02112E-13
 -1      2083 1.47960E-02 1.08438E-03-1.00261E-13
 -1      2084 1.47760E-02 1.05768E-03-1.00153E-13
 -1      2085 1.49593E-02 1.05991E-03-1.02562E-13
 -1      2086 1.48926E-02 8.23658E-04-1.03025E-13
 -1      2087 1.48989E-02 8.65820E-04-1.02872E-13
 -1      2088 1.49052E-02 9.07978E-04-1.02719E-13
 -1      2089 1.49114E-02 9.50133E-04-1.02563E-13
 -1      2090 1.47783E-02 8.81384E-04-1.01193E-13
 -1      2091 1.49322E-02 9.83949E-04-1.02643E-13
 -1      2092 1.49385E-02 1.02610E-03-1.02483E-13
 -1      2093 1.48469E-02 1.02498E-03-1.01280E-13
 -1      2094 1.48054E-02 9.57355E-04-1.01121E-13
 -1      2095 1.48802E-02 7.40754E-04-1.03313E-13
 -1      2096 1.48864E-02 7.82207E-04-1.03170E-13
 -1      2097 1.47658E-02 7.97777E-04-1.01493E-13
 -1      2098 1.48676E-02 6.56409E-04-1.03590E-13
 -1      2099 1.48739E-02 6.98583E-04-1.03453E-13
 -1      2100 1.47533E-02 7.14159E-04-1.01779E-13
 -1      2101 1.48551E-02 5.72055E-04-1.03854E-13
 -1      2102 1.48614E-02 6.14233E-04-1.03724E-13
 -1      2103 1.47408E-02 6.29815E-04-1.02055E-13
 -1      2104 1.48426E-02 4.87695E-04-1.04114E-13
 -1      2105 1.48488E-02 5.29875E-04-1.03982E-13
 -1      2106 1.47282E-02 5.45464E-04-1.02317E-13
 -1      2107 1.48301E-02 4.03335E-04-1.04366E-13
 -1      2108 1.48363E-02 4.45515E-04-1.04242E-13
 -1      2109 1.47157E-02 4.61110E-04-1.02578E-13
 -1      2110 1.48177E-02 3.18977E-04-1.04608E-13
 -1      2111 1.48239E-02 3.61155E-04-1.04487E-13
 -1      2112 1.47033E-02 3.76755E-04-1.02830E-13
 -1      2113 1.48055E-02 2.36057E-04-1.04847E-13
 -1      2114 1.48116E-02 2.77516E-04-1.04729E-13
 -1      2115 1.46909E-02 2.93119E-04-1.03075E-13
 -1      2116 1.47931E-02 1.51718E-04-1.05085E-13
 -1      2117 1.47993E-02 1.93886E-04-1.04967E-13
 -1      2118 1.46787E-02 2.09491E-04-1.03314E-13
 -1      2119 1.47807E-02 6.73911E-05-1.05319E-13
 -1      2120 1.47869E-02 1.09553E-04-1.05201E-13
 -1      2121 1.46663E-02 1.25158E-04-1.03547E-13
 -1      2122 1.47684E-02-1.69219E-05-1.05549E-13
 -1      2123 1.47745E-02 2.52330E-05-1.05436E-13
 -1      2124 1.46539E-02 4.08367E-05-1.03777E-13
 -1      2125 5.73869E-03 2.27252E-04-1.00158E-14
 -1      2126 5.87761E-03 1.81176E-04-1.02007E-14
 -1      2127 6.08676E-03 9.84719E-05-1.05952E-14
 -1      2128 6.08495E-03 8.43684E-05-1.06882E-14
 -1      2129 5.99230E-03 1.41385E-04-1.03643E-14
 -1      2130 6.05610E-03 1.19573E-04-1.04789E-14
 -1      2131 6.08115E-03 1.04221E-04-1.09557E-14
 -1      2132 5.34547E-03 4.09087E-04-9.24293E-15
 -1      2133 5.52394E-03 3.21478E-04-9.58938E-15
 -1      2134 4.96454E-03 6.11061E-04-8.53390E-15
 -1      2135 5.15052E-03 5.10052E-04-8.87367E-15
 -1      2136 3.27908E-04-4.23660E-05-1.46869E-16
 -1      2137 3.37415E-04-5.60024E-05-1.44321E-16
 -1      2138 4.62781E-04-9.02151E-05-2.11013E-16
 -1      2139 4.35855E-04-5.37805E-05-2.17437E-16
 -1      2140 4.21860E-03 9.91064E-04-6.98503E-15
 -1      2141 4.37181E-03 9.24079E-04-7.33333E-15
 -1      2142 3.90057E-03 1.06026E-03-6.25352E-15
 -1      2143 4.04608E-03 1.03986E-03-6.59021E-15
 -1      2144 3.56850E-03 1.01259E-03-5.53258E-15
 -1      2145 3.72467E-03 1.05205E-03-5.86757E-15
 -1      2146 3.17631E-03 8.34443E-04-4.84947E-15
 -1      2147 3.34819E-03 9.24048E-04-5.10060E-15
 -1      2148 2.82499E-03 6.39233E-04-4.43185E-15
 -1      2149 3.00386E-03 7.43137E-04-4.63827E-15
 -1      2150 3.11577E-03 7.85765E-04-4.59080E-15
 -1      2151 2.38635E-03 4.14630E-04-4.07088E-15
 -1      2152 2.57487E-03 5.13575E-04-4.23137E-15
 -1      2153 2.01922E-03 2.45066E-04-3.81330E-15
 -1      2154 2.18269E-03 3.16242E-04-3.91833E-15
 -1      2155 1.73970E-03 1.32264E-04-3.63285E-15
 -1      2156 1.86129E-03 1.75728E-04-3.69880E-15
 -1      2157 1.56926E-03 7.34173E-05-3.58353E-15
 -1      2158 1.63101E-03 9.49299E-05-3.60245E-15
 -1      2159 1.56024E-03 3.48894E-05-3.66461E-15
 -1      2160 1.54253E-03 5.03079E-05-3.61305E-15
 -1      2161 1.71006E-03-1.42546E-05-3.78396E-15
 -1      2162 1.61863E-03 1.23115E-05-3.69975E-15
 -1      2163 2.00958E-03-1.35563E-04-4.14090E-15
 -1      2164 1.86104E-03-7.49064E-05-3.97704E-15
 -1      2165 2.37645E-03-2.98330E-04-4.51233E-15
 -1      2166 2.19470E-03-2.11796E-04-4.31358E-15
 -1      2167 2.78560E-03-5.19719E-04-5.05919E-15
 -1      2168 2.59010E-03-4.13854E-04-4.80073E-15
 -1      2169 3.18169E-03-7.22182E-04-5.64398E-15
 -1      2170 3.00025E-03-6.26730E-04-5.34650E-15
 -1      2171 3.55057E-03-8.72670E-04-6.38652E-15
 -1      2172 3.39632E-03-8.17226E-04-6.04294E-15
 -1      2173 3.87636E-03-8.99992E-04-7.16316E-15
 -1      2174 3.73714E-03-9.01888E-04-6.82492E-15
 -1      2175 4.15076E-03-8.33292E-04-7.79544E-15
 -1      2176 4.01301E-03-8.76998E-04-7.47541E-15
 -1      2177 3.93194E-03-9.00172E-04-7.36206E-15
 -1      2178 4.49161E-03-6.79371E-04-8.51101E-15
 -1      2179 4.34178E-03-7.56092E-04-8.20435E-15
 -1      2180 4.84249E-03-4.90730E-04-9.12680E-15
 -1      2181 4.67734E-03-5.83214E-04-8.84521E-15
 -1      2182 5.20102E-03-2.95121E-04-9.70541E-15
 -1      2183 5.03209E-03-3.84092E-04-9.46416E-15
 -1      2184 5.54992E-03-1.32716E-04-1.01341E-14
 -1      2185 5.38936E-03-2.07175E-04-9.92532E-15
 -1      2186 5.85188E-03-7.98443E-06-1.05134E-14
 -1      2187 5.72504E-03-5.17142E-05-1.04126E-14
 -1      2188 6.03010E-03 5.52464E-05-1.06777E-14
 -1      2189 5.95406E-03 2.90959E-05-1.05948E-14
 -1      2190 5.90202E-03 2.86391E-05-1.09681E-14
 -1      2191 4.56688E-03 8.30409E-04-7.74066E-15
 -1      2192 4.74507E-03 7.29700E-04-8.11163E-15
 -1      2193 4.83233E-03 6.64288E-04-8.45118E-15
 -1      2194 6.74285E-04-2.54108E-04-2.43037E-16
 -1      2195 4.45054E-03 8.79593E-04-7.61278E-15
 -1      2196 7.29970E-04-2.40936E-04-3.16668E-16
 -1      2197 5.94733E-03 1.45541E-04-1.06689E-14
 -1      2198 5.53485E-03 2.88486E-04-1.01071E-14
 -1      2199 5.63445E-03 2.53909E-04-1.00634E-14
 -1      2200 5.73593E-03 2.09449E-04-1.05462E-14
 -1      2201 1.47217E-02-5.25383E-05-1.05096E-13
 -1      2202 6.06856E-03 7.73004E-05-1.10633E-14
 -1      2203 5.22789E-03 4.45749E-04-9.25559E-15
 -1      2204 5.63420E-03-6.88278E-05-1.05986E-14
 -1      2205 5.27598E-03-2.30907E-04-1.00911E-14
 -1      2206 4.91643E-03-4.22645E-04-9.52119E-15
 -1      2207 4.22041E-03-8.05036E-04-8.08574E-15
 -1      2208 3.64840E-03-8.99298E-04-6.60477E-15
 -1      2209 3.29964E-03-7.72421E-04-5.77254E-15
 -1      2210 2.91171E-03-5.63124E-04-5.10049E-15
 -1      2211 2.50193E-03-3.38907E-04-4.53588E-15
 -1      2212 2.11854E-03-1.54705E-04-4.09126E-15
 -1      2213 1.78262E-03-2.73877E-05-3.73532E-15
 -1      2214 1.58158E-03 2.99238E-05-3.51994E-15
 -1      2215 1.54655E-03 5.75707E-05-3.45899E-15
 -1      2216 1.68336E-03 9.80755E-05-3.45946E-15
 -1      2217 1.94808E-03 1.86327E-04-3.59765E-15
 -1      2218 2.73570E-03 5.67574E-04-4.19387E-15
 -1      2219 3.46402E-03 9.74491E-04-5.21160E-15
 -1      2220 4.12729E-03 1.02512E-03-6.80543E-15
 -1      2221 3.81900E-03 1.06876E-03-6.02510E-15
 -1      2222 2.30235E-03 3.43284E-04-3.85464E-15
 -1      2223 4.56196E-03-6.27008E-04-8.83945E-15
 -1      2224 1.13340E-03 3.40604E-04-3.47162E-16
 -1      2225 9.69446E-04 3.02185E-04-2.43769E-16
 -1      2226 4.86414E-04-1.19449E-05-3.06301E-16
 -1      2227 4.98086E-04-2.08950E-05-3.08428E-16
 -1      2228 5.11649E-04-3.22389E-05-3.09838E-16
 -1      2229 5.26470E-04-4.60957E-05-3.10217E-16
 -1      2230 6.09254E-04-3.50282E-05-4.18204E-16
 -1      2231 4.64631E-04 7.95036E-06-2.90295E-16
 -1      2232 4.65662E-04 4.40102E-06-2.95323E-16
 -1      2233 4.72062E-04 1.57382E-05-2.77854E-16
 -1      2234 4.66794E-04 1.15250E-05-2.84698E-16
 -1      2235 5.58596E-04 1.24716E-05-3.89418E-16
 -1      2236 4.90852E-04 2.80958E-05-2.61794E-16
 -1      2237 4.80200E-04 2.10823E-05-2.70427E-16
 -1      2238 5.71874E-04 2.41252E-05-3.72342E-16
 -1      2239 5.19264E-04 4.93044E-05-2.40584E-16
 -1      2240 5.04132E-04 3.74395E-05-2.51765E-16
 -1      2241 5.99315E-04 4.25621E-05-3.49682E-16
 -1      2242 5.54361E-04 8.19539E-05-2.13073E-16
 -1      2243 5.36203E-04 6.40989E-05-2.27913E-16
 -1      2244 6.37780E-04 7.20180E-05-3.20775E-16
 -1      2245 5.94649E-04 1.28190E-04-1.76928E-16
 -1      2246 5.73983E-04 1.03275E-04-1.96390E-16
 -1      2247 6.83619E-04 1.14819E-04-2.83614E-16
 -1      2248 1.46214E-03 4.16477E-04-6.16965E-16
 -1      2249 1.29750E-03 3.78427E-04-4.71194E-16
 -1      2250 1.17780E-03 3.18868E-04-4.51652E-16
 -1      2251 1.00170E-03-2.88687E-04-5.88884E-16
 -1      2252 1.16229E-03-3.25841E-04-7.68550E-16
 -1      2253 4.37617E-03 9.22055E-04-7.51854E-15
 -1      2254 4.53525E-03 8.29955E-04-7.93347E-15
 -1      2255 1.32340E-03-3.62526E-04-9.73546E-16
 -1      2256 1.48529E-03-3.99635E-04-1.20410E-15
 -1      2257 1.20911E-03-3.03954E-04-8.84031E-16
 -1      2258 1.64828E-03-4.38445E-04-1.45986E-15
 -1      2259 1.81220E-03-4.79766E-04-1.74183E-15
 -1      2260 1.52942E-03-3.75078E-04-1.34532E-15
 -1      2261 1.97770E-03-5.24437E-04-2.04905E-15
 -1      2262 2.14406E-03-5.73036E-04-2.38178E-15
 -1      2263 1.85644E-03-4.54660E-04-1.90695E-15
 -1      2264 2.31196E-03-6.25716E-04-2.74021E-15
 -1      2265 2.48009E-03-6.82328E-04-3.12472E-15
 -1      2266 2.19146E-03-5.49398E-04-2.56987E-15
 -1      2267 2.64888E-03-7.42070E-04-3.53537E-15
 -1      2268 2.81663E-03-8.03312E-04-3.97260E-15
 -1      2269 2.53349E-03-6.62229E-04-3.33448E-15
 -1      2270 2.98331E-03-8.64103E-04-4.43631E-15
 -1      2271 3.14768E-03-9.21025E-04-4.92718E-15
 -1      2272 2.87756E-03-7.87926E-04-4.20340E-15
 -1      2273 3.30915E-03-9.71296E-04-5.44528E-15
 -1      2274 3.46826E-03-1.01035E-03-5.99164E-15
 -1      2275 3.21550E-03-9.08533E-04-5.17968E-15
 -1      2276 3.62416E-03-1.03576E-03-6.56562E-15
 -1      2277 3.77965E-03-1.04462E-03-7.16674E-15
 -1      2278 3.54127E-03-9.93541E-04-6.26612E-15
 -1      2279 3.93381E-03-1.03624E-03-7.79639E-15
 -1      2280 4.09032E-03-1.01139E-03-8.45328E-15
 -1      2281 3.85791E-03-1.01337E-03-7.46617E-15
 -1      2282 4.24824E-03-9.71736E-04-9.13675E-15
 -1      2283 4.40961E-03-9.21158E-04-9.84737E-15
 -1      2284 4.17693E-03-9.59303E-04-8.77647E-15
 -1      2285 4.57353E-03-8.62645E-04-1.05834E-14
 -1      2286 4.73987E-03-8.00597E-04-1.13461E-14
 -1      2287 4.50753E-03-8.50754E-04-1.01947E-14
 -1      2288 4.90813E-03-7.37706E-04-1.21341E-14
 -1      2289 5.07672E-03-6.77046E-04-1.29454E-14
 -1      2290 4.84886E-03-7.20877E-04-1.17159E-14
 -1      2291 5.24570E-03-6.20342E-04-1.37808E-14
 -1      2292 5.41343E-03-5.68706E-04-1.46404E-14
 -1      2293 5.19296E-03-5.97656E-04-1.33370E-14
 -1      2294 5.58039E-03-5.22910E-04-1.55210E-14
 -1      2295 5.74536E-03-4.82883E-04-1.64236E-14
 -1      2296 5.53208E-03-4.95663E-04-1.50510E-14
 -1      2297 5.90897E-03-4.48681E-04-1.73488E-14
 -1      2298 6.07053E-03-4.19736E-04-1.82961E-14
 -1      2299 5.86235E-03-4.18301E-04-1.68545E-14
 -1      2300 6.23058E-03-3.95696E-04-1.92646E-14
 -1      2301 6.38881E-03-3.75903E-04-2.02536E-14
 -1      2302 6.18331E-03-3.63191E-04-1.87442E-14
 -1      2303 6.54562E-03-3.59841E-04-2.12635E-14
 -1      2304 6.70093E-03-3.46930E-04-2.22946E-14
 -1      2305 6.49620E-03-3.25862E-04-2.07188E-14
 -1      2306 6.85497E-03-3.36645E-04-2.33464E-14
 -1      2307 7.00781E-03-3.28530E-04-2.44191E-14
 -1      2308 6.80271E-03-3.01651E-04-2.27773E-14
 -1      2309 7.15957E-03-3.22132E-04-2.55139E-14
 -1      2310 7.31036E-03-3.17114E-04-2.66285E-14
 -1      2311 7.10436E-03-2.86480E-04-2.49192E-14
 -1      2312 7.46023E-03-3.13121E-04-2.77635E-14
 -1      2313 7.60933E-03-3.09913E-04-2.89178E-14
 -1      2314 7.40231E-03-2.77099E-04-2.71446E-14
 -1      2315 7.75766E-03-3.07235E-04-3.00909E-14
 -1      2316 7.90537E-03-3.04920E-04-3.12833E-14
 -1      2317 7.69745E-03-2.71070E-04-2.94496E-14
 -1      2318 8.05245E-03-3.02798E-04-3.24948E-14
 -1      2319 8.19903E-03-3.00759E-04-3.37225E-14
 -1      2320 7.99039E-03-2.66659E-04-3.18300E-14
 -1      2321 8.34509E-03-2.98696E-04-3.49678E-14
 -1      2322 8.49076E-03-2.96539E-04-3.62308E-14
 -1      2323 8.28162E-03-2.62695E-04-3.42826E-14
 -1      2324 8.63601E-03-2.94232E-04-3.75091E-14
 -1      2325 8.78095E-03-2.91729E-04-3.88019E-14
 -1      2326 8.57150E-03-2.58437E-04-3.68023E-14
 -1      2327 8.92557E-03-2.89010E-04-4.01104E-14
 -1      2328 9.06994E-03-2.86049E-04-4.14367E-14
 -1      2329 8.86033E-03-2.53453E-04-3.93861E-14
 -1      2330 9.21406E-03-2.82845E-04-4.27767E-14
 -1      2331 9.35799E-03-2.79386E-04-4.41296E-14
 -1      2332 9.14832E-03-2.47533E-04-4.20324E-14
 -1      2333 9.50173E-03-2.75686E-04-4.54975E-14
 -1      2334 9.64533E-03-2.71741E-04-4.68788E-14
 -1      2335 9.43568E-03-2.40609E-04-4.47379E-14
 -1      2336 9.78879E-03-2.67570E-04-4.82740E-14
 -1      2337 9.93213E-03-2.63176E-04-4.96852E-14
 -1      2338 9.72255E-03-2.32707E-04-4.74978E-14
 -1      2339 1.00754E-02-2.58581E-04-5.11100E-14
 -1      2340 1.02185E-02-2.53790E-04-5.25485E-14
 -1      2341 1.00090E-02-2.23906E-04-5.03164E-14
 -1      2342 1.03616E-02-2.48826E-04-5.40001E-14
 -1      2343 1.05047E-02-2.43695E-04-5.54662E-14
 -1      2344 1.02953E-02-2.14311E-04-5.31928E-14
 -1      2345 1.06477E-02-2.38420E-04-5.69464E-14
 -1      2346 1.07906E-02-2.33006E-04-5.84390E-14
 -1      2347 1.05813E-02-2.04039E-04-5.61255E-14
 -1      2348 1.09335E-02-2.27473E-04-5.99463E-14
 -1      2349 1.10764E-02-2.21829E-04-6.14671E-14
 -1      2350 1.08672E-02-1.93201E-04-5.91149E-14
 -1      2351 1.12193E-02-2.16089E-04-6.30015E-14
 -1      2352 1.13621E-02-2.10260E-04-6.45483E-14
 -1      2353 1.11530E-02-1.81904E-04-6.21548E-14
 -1      2354 1.15050E-02-2.04356E-04-6.61097E-14
 -1      2355 1.16478E-02-1.98382E-04-6.76862E-14
 -1      2356 1.14387E-02-1.70239E-04-6.52518E-14
 -1      2357 1.17906E-02-1.92351E-04-6.92764E-14
 -1      2358 1.19334E-02-1.86266E-04-7.08816E-14
 -1      2359 1.17244E-02-1.58286E-04-6.84041E-14
 -1      2360 1.20762E-02-1.80138E-04-7.25059E-14
 -1      2361 1.22191E-02-1.73970E-04-7.41447E-14
 -1      2362 1.20101E-02-1.46113E-04-7.16200E-14
 -1      2363 1.23619E-02-1.67769E-04-7.57985E-14
 -1      2364 1.25047E-02-1.61539E-04-7.74704E-14
 -1      2365 1.22958E-02-1.33773E-04-7.48979E-14
 -1      2366 1.26475E-02-1.55286E-04-7.91599E-14
 -1      2367 1.27903E-02-1.49013E-04-8.08672E-14
 -1      2368 1.25814E-02-1.21311E-04-7.82422E-14
 -1      2369 1.29331E-02-1.42723E-04-8.25887E-14
 -1      2370 1.30760E-02-1.36419E-04-8.43258E-14
 -1      2371 1.28671E-02-1.08761E-04-8.16511E-14
 -1      2372 1.32188E-02-1.30104E-04-8.60801E-14
 -1      2373 1.33616E-02-1.23781E-04-8.78475E-14
 -1      2374 1.31528E-02-9.61520E-05-8.51245E-14
 -1      2375 1.35044E-02-1.17452E-04-8.96279E-14
 -1      2376 1.36473E-02-1.11118E-04-9.14178E-14
 -1      2377 1.34384E-02-8.35044E-05-8.86529E-14
 -1      2378 1.37901E-02-1.04782E-04-9.32171E-14
 -1      2379 1.39330E-02-9.84445E-05-9.50279E-14
 -1      2380 1.37241E-02-7.08356E-05-9.22295E-14
 -1      2381 1.40758E-02-9.21073E-05-9.68467E-14
 -1      2382 1.42187E-02-8.57717E-05-9.86708E-14
 -1      2383 1.40098E-02-5.81592E-05-9.58432E-14
 -1      2384 2.13119E-03 5.98899E-04-1.42158E-15
 -1      2385 1.96228E-03 5.46736E-04-1.18623E-15
 -1      2386 2.47286E-03 7.19970E-04-1.96403E-15
 -1      2387 2.30188E-03 6.56591E-04-1.68077E-15
 -1      2388 2.17098E-03 5.77712E-04-1.62301E-15
 -1      2389 2.81607E-03 8.60798E-04-2.60500E-15
 -1      2390 2.64493E-03 7.88488E-04-2.27159E-15
 -1      2391 2.51724E-03 7.03045E-04-2.19762E-15
 -1      2392 3.15477E-03 1.00700E-03-3.35178E-15
 -1      2393 2.98660E-03 9.34738E-04-2.96476E-15
 -1      2394 2.86775E-03 8.49303E-04-2.87108E-15
 -1      2395 3.48269E-03 1.13061E-03-4.21050E-15
 -1      2396 3.32014E-03 1.07392E-03-3.76679E-15
 -1      2397 3.21434E-03 9.99311E-04-3.65124E-15
 -1      2398 3.79913E-03 1.19817E-03-5.18368E-15
 -1      2399 3.64139E-03 1.17343E-03-4.68293E-15
 -1      2400 3.54874E-03 1.11981E-03-4.54431E-15
 -1      2401 4.11250E-03 1.18871E-03-6.27460E-15
 -1      2402 3.95469E-03 1.20330E-03-5.71395E-15
 -1      2403 3.87143E-03 1.17285E-03-5.55427E-15
 -1      2404 4.43415E-03 1.10944E-03-7.48215E-15
 -1      2405 4.27137E-03 1.15604E-03-6.86357E-15
 -1      2406 4.19417E-03 1.14038E-03-6.68252E-15
 -1      2407 4.76852E-03 9.90915E-04-8.80593E-15
 -1      2408 4.59981E-03 1.05270E-03-8.12974E-15
 -1      2409 4.52857E-03 1.04005E-03-7.92933E-15
 -1      2410 5.11163E-03 8.67303E-04-1.02432E-14
 -1      2411 4.93968E-03 9.27922E-04-9.51066E-15
 -1      2412 4.87548E-03 9.10726E-04-9.29053E-15
 -1      2413 5.45623E-03 7.62085E-04-1.17860E-14
 -1      2414 5.28446E-03 8.11563E-04-1.10018E-14
 -1      2415 5.22671E-03 7.87678E-04-1.07627E-14
 -1      2416 5.79676E-03 6.84918E-04-1.34262E-14
 -1      2417 5.62748E-03 7.19872E-04-1.25943E-14
 -1      2418 5.57351E-03 6.90122E-04-1.23370E-14
 -1      2419 6.13057E-03 6.35964E-04-1.51606E-14
 -1      2420 5.96474E-03 6.57147E-04-1.42817E-14
 -1      2421 5.91131E-03 6.22921E-04-1.40067E-14
 -1      2422 6.45703E-03 6.10756E-04-1.69847E-14
 -1      2423 6.29480E-03 6.20740E-04-1.60614E-14
 -1      2424 6.23938E-03 5.83241E-04-1.57668E-14
 -1      2425 6.77653E-03 6.03494E-04-1.89000E-14
 -1      2426 6.61764E-03 6.05220E-04-1.79314E-14
 -1      2427 6.55881E-03 5.65388E-04-1.76180E-14
 -1      2428 7.08980E-03 6.08754E-04-2.09017E-14
 -1      2429 6.93389E-03 6.04841E-04-1.98902E-14
 -1      2430 6.87121E-03 5.63420E-04-1.95579E-14
 -1      2431 7.39766E-03 6.22127E-04-2.29877E-14
 -1      2432 7.24434E-03 6.14643E-04-2.19339E-14
 -1      2433 7.17801E-03 5.72231E-04-2.15841E-14
 -1      2434 7.70093E-03 6.40316E-04-2.51597E-14
 -1      2435 7.54980E-03 6.30777E-04-2.40633E-14
 -1      2436 7.48034E-03 5.87842E-04-2.36943E-14
 -1      2437 8.00033E-03 6.61001E-04-2.74135E-14
 -1      2438 7.85105E-03 6.50457E-04-2.62762E-14
 -1      2439 7.77909E-03 6.07341E-04-2.58877E-14
 -1      2440 8.29655E-03 6.82628E-04-2.97485E-14
 -1      2441 8.14878E-03 6.71770E-04-2.85706E-14
 -1      2442 8.07492E-03 6.28711E-04-2.81630E-14
 -1      2443 8.59019E-03 7.04218E-04-3.21697E-14
 -1      2444 8.44365E-03 6.93475E-04-3.09497E-14
 -1      2445 8.36841E-03 6.50619E-04-3.05217E-14
 -1      2446 8.88177E-03 7.25193E-04-3.46657E-14
 -1      2447 8.73620E-03 7.14810E-04-3.34083E-14
 -1      2448 8.66001E-03 6.72239E-04-3.29620E-14
 -1      2449 9.17173E-03 7.45256E-04-3.72412E-14
 -1      2450 9.02692E-03 7.35354E-04-3.59431E-14
 -1      2451 8.95011E-03 6.93099E-04-3.54781E-14
 -1      2452 9.46045E-03 7.64290E-04-3.98888E-14
 -1      2453 9.31622E-03 7.54908E-04-3.85550E-14
 -1      2454 9.23902E-03 7.12970E-04-3.80709E-14
 -1      2455 9.74822E-03 7.82295E-04-4.26058E-14
 -1      2456 9.60443E-03 7.73422E-04-4.12388E-14
 -1      2457 9.52702E-03 7.31781E-04-4.07367E-14
 -1      2458 1.00353E-02 7.99339E-04-4.53866E-14
 -1      2459 9.89183E-03 7.90935E-04-4.39877E-14
 -1      2460 9.81432E-03 7.49559E-04-4.34713E-14
 -1      2461 1.03219E-02 8.15522E-04-4.82299E-14
 -1      2462 1.01786E-02 8.07534E-04-4.68012E-14
 -1      2463 1.01011E-02 7.66388E-04-4.62692E-14
 -1      2464 1.06081E-02 8.30964E-04-5.11405E-14
 -1      2465 1.04650E-02 8.23331E-04-4.96755E-14
 -1      2466 1.03875E-02 7.82379E-04-4.91281E-14
 -1      2467 1.08940E-02 8.45783E-04-5.41219E-14
 -1      2468 1.07511E-02 8.38446E-04-5.26237E-14
 -1      2469 1.06736E-02 7.97654E-04-5.20558E-14
 -1      2470 1.11798E-02 8.60089E-04-5.71771E-14
 -1      2471 1.10369E-02 8.52995E-04-5.56396E-14
 -1      2472 1.09595E-02 8.12331E-04-5.50552E-14
 -1      2473 1.14655E-02 8.73982E-04-6.02993E-14
 -1      2474 1.13227E-02 8.67082E-04-5.87295E-14
 -1      2475 1.12453E-02 8.26520E-04-5.81237E-14
 -1      2476 1.17511E-02 8.87550E-04-6.34853E-14
 -1      2477 1.16083E-02 8.80803E-04-6.18847E-14
 -1      2478 1.15311E-02 8.40319E-04-6.12591E-14
 -1      2479 1.20367E-02 9.00865E-04-6.67297E-14
 -1      2480 1.18939E-02 8.94235E-04-6.50999E-14
 -1      2481 1.18167E-02 8.53812E-04-6.44568E-14
 -1      2482 1.23223E-02 9.13987E-04-7.00282E-14
 -1      2483 1.21795E-02 9.07447E-04-6.83723E-14
 -1      2484 1.21024E-02 8.67069E-04-6.77106E-14
 -1      2485 1.26079E-02 9.26967E-04-7.33853E-14
 -1      2486 1.24651E-02 9.20493E-04-7.16991E-14
 -1      2487 1.23880E-02 8.80147E-04-7.10225E-14
 -1      2488 1.28935E-02 9.39842E-04-7.67932E-14
 -1      2489 1.27507E-02 9.33416E-04-7.50838E-14
 -1      2490 1.26736E-02 8.93093E-04-7.43904E-14
 -1      2491 1.31791E-02 9.52645E-04-8.02473E-14
 -1      2492 1.30363E-02 9.46251E-04-7.85134E-14
 -1      2493 1.29593E-02 9.05945E-04-7.78080E-14
 -1      2494 1.34647E-02 9.65400E-04-8.37473E-14
 -1      2495 1.33219E-02 9.59027E-04-8.19930E-14
 -1      2496 1.32449E-02 9.18731E-04-8.12716E-14
 -1      2497 1.37504E-02 9.78125E-04-8.72908E-14
 -1      2498 1.36076E-02 9.71765E-04-8.55138E-14
 -1      2499 1.35306E-02 9.31474E-04-8.47795E-14
 -1      2500 1.40361E-02 9.90837E-04-9.08765E-14
 -1      2501 1.38932E-02 9.84482E-04-8.90790E-14
 -1      2502 1.38162E-02 9.44192E-04-8.83322E-14
 -1      2503 1.43217E-02 1.00355E-03-9.45081E-14
 -1      2504 1.41789E-02 9.97192E-04-9.26868E-14
 -1      2505 1.41019E-02 9.56900E-04-9.19290E-14
 -1      2506 1.46074E-02 1.01627E-03-9.81724E-14
 -1      2507 1.44646E-02 1.00991E-03-9.63357E-14
 -1      2508 1.43876E-02 9.69610E-04-9.55639E-14
 -1      2509 1.47553E-02 1.02387E-03-1.00076E-13
 -1      2510 1.46265E-02 6.87568E-04-1.00252E-13
 -1      2511 1.46327E-02 7.29736E-04-1.00111E-13
 -1      2512 1.46139E-02 6.03226E-04-1.00523E-13
 -1      2513 1.46202E-02 6.45398E-04-1.00389E-13
 -1      2514 1.44996E-02 6.60981E-04-9.87296E-14
 -1      2515 1.46514E-02 8.54794E-04-9.96701E-14
 -1      2516 1.46577E-02 8.96950E-04-9.95181E-14
 -1      2517 1.46390E-02 7.71544E-04-9.99678E-14
 -1      2518 1.46452E-02 8.12992E-04-9.98205E-14
 -1      2519 1.45246E-02 8.28565E-04-9.81528E-14
 -1      2520 1.45121E-02 7.44957E-04-9.84481E-14
 -1      2521 1.46014E-02 5.18878E-04-1.00787E-13
 -1      2522 1.46076E-02 5.61052E-04-1.00658E-13
 -1      2523 1.44870E-02 5.76639E-04-9.90012E-14
 -1      2524 1.45889E-02 4.34527E-04-1.01049E-13
 -1      2525 1.45951E-02 4.76702E-04-1.00918E-13
 -1      2526 1.44745E-02 4.92293E-04-9.92657E-14
 -1      2527 1.45764E-02 3.50177E-04-1.01299E-13
 -1      2528 1.45827E-02 3.92351E-04-1.01174E-13
 -1      2529 1.44620E-02 4.07945E-04-9.95209E-14
 -1      2530 1.45642E-02 2.67261E-04-1.01541E-13
 -1      2531 1.45703E-02 3.08718E-04-1.01420E-13
 -1      2532 1.44497E-02 3.24314E-04-9.97698E-14
 -1      2533 1.45518E-02 1.82923E-04-1.01779E-13
 -1      2534 1.45580E-02 2.25091E-04-1.01663E-13
 -1      2535 1.44374E-02 2.40687E-04-1.00014E-13
 -1      2536 1.45395E-02 9.85952E-05-1.02011E-13
 -1      2537 1.45457E-02 1.40758E-04-1.01896E-13
 -1      2538 1.44250E-02 1.56354E-04-1.00250E-13
 -1      2539 1.45271E-02 1.42795E-05-1.02239E-13
 -1      2540 1.45333E-02 5.64358E-05-1.02123E-13
 -1      2541 1.44127E-02 7.20312E-05-1.00478E-13
 -1      2542 1.45939E-02-5.65273E-05-1.03436E-13
 -1      2543 6.10140E-03 8.77210E-05-1.15355E-14
 -1      2544 6.04892E-03 7.59642E-05-1.15239E-14
 -1      2545 1.79420E-03 4.99540E-04-9.74129E-16
 -1      2546 1.62775E-03 4.56551E-04-7.84447E-16
 -1      2547 1.83275E-03 4.76079E-04-1.14279E-15
 -1      2548 6.07510E-03 1.07494E-04-1.13437E-14
 -1      2549 6.10478E-03 1.00572E-04-1.14641E-14
 -1      2550 5.69767E-03-3.13531E-05-1.10724E-14
 -1      2551 5.52927E-03-9.75012E-05-1.07846E-14
 -1      2552 5.12699E-03 4.87674E-04-9.27851E-15
 -1      2553 5.30523E-03 3.95151E-04-9.65936E-15
 -1      2554 5.90444E-03 1.53204E-04-1.09979E-14
 -1      2555 6.00636E-03 1.26897E-04-1.11707E-14
 -1      2556 6.05639E-03 1.18341E-04-1.16790E-14
 -1      2557 3.73707E-03-9.19049E-04-6.86064E-15
 -1      2558 3.58771E-03-8.92150E-04-6.42130E-15
 -1      2559 3.39967E-03 9.44114E-04-4.92580E-15
 -1      2560 3.58194E-03 1.02768E-03-5.34677E-15
 -1      2561 4.69821E-04 2.66973E-07-2.99714E-16
 -1      2562 4.76795E-04-5.01006E-06-3.03333E-16
 -1      2563 5.79353E-04-1.20993E-05-4.12309E-16
 -1      2564 5.61346E-04 2.23497E-06-4.02632E-16
 -1      2565 3.76341E-03 1.07313E-03-5.79376E-15
 -1      2566 3.89917E-03 1.08047E-03-6.17586E-15
 -1      2567 2.21811E-03 2.83300E-04-3.61550E-15
 -1      2568 2.40421E-03 3.73191E-04-3.75673E-15
 -1      2569 4.03371E-03 1.06191E-03-6.55688E-15
 -1      2570 4.16905E-03 1.01708E-03-6.95085E-15
 -1      2571 3.96243E-03 1.08166E-03-6.30895E-15
 -1      2572 3.03285E-03 7.31153E-04-4.32110E-15
 -1      2573 3.17300E-03 8.19283E-04-4.51906E-15
 -1      2574 4.63468E-03-5.72336E-04-9.23792E-15
 -1      2575 4.47874E-03-6.66925E-04-8.89313E-15
 -1      2576 2.60965E-03 4.80294E-04-3.90280E-15
 -1      2577 2.82038E-03 6.03349E-04-4.08644E-15
 -1      2578 1.88678E-03 1.49514E-04-3.37682E-15
 -1      2579 2.03773E-03 2.04957E-04-3.48354E-15
 -1      2580 1.62673E-03 7.55700E-05-3.28441E-15
 -1      2581 1.72837E-03 9.94366E-05-3.31167E-15
 -1      2582 1.52708E-03 4.94947E-05-3.27324E-15
 -1      2583 1.55083E-03 5.56365E-05-3.24600E-15
 -1      2584 1.58770E-03 3.20536E-05-3.32861E-15
 -1      2585 1.54048E-03 4.06169E-05-3.30007E-15
 -1      2586 1.51361E-03 4.40881E-05-3.08779E-15
 -1      2587 1.87103E-03-4.59023E-05-3.66437E-15
 -1      2588 1.72380E-03-2.83131E-06-3.48271E-15
 -1      2589 2.18323E-03-1.67571E-04-3.97797E-15
 -1      2590 2.01800E-03-9.99328E-05-3.81826E-15
 -1      2591 1.92568E-03-6.65399E-05-3.55648E-15
 -1      2592 2.62649E-03-3.90876E-04-4.55843E-15
 -1      2593 2.42969E-03-2.85227E-04-4.28275E-15
 -1      2594 2.99268E-03-6.02015E-04-5.09795E-15
 -1      2595 2.81416E-03-4.95702E-04-4.82330E-15
 -1      2596 2.71444E-03-4.40851E-04-4.55532E-15
 -1      2597 3.37462E-03-8.13316E-04-5.86559E-15
 -1      2598 3.20040E-03-7.19591E-04-5.47723E-15
 -1      2599 3.99472E-03-8.92548E-04-7.61397E-15
 -1      2600 3.88782E-03-9.14804E-04-7.29722E-15
 -1      2601 4.29939E-03-7.64900E-04-8.43534E-15
 -1      2602 4.14376E-03-8.41063E-04-8.01868E-15
 -1      2603 4.08508E-03-8.66917E-04-7.94902E-15
 -1      2604 4.97055E-03-3.74704E-04-9.92835E-15
 -1      2605 4.79999E-03-4.75306E-04-9.58078E-15
 -1      2606 4.71430E-03-5.26197E-04-9.63414E-15
 -1      2607 5.37060E-03-1.68419E-04-1.05491E-14
 -1      2608 5.20222E-03-2.50701E-04-1.03186E-14
 -1      2609 5.46162E-03-1.24971E-04-1.10167E-14
 -1      2610 5.95647E-03 5.06793E-05-1.14443E-14
 -1      2611 5.86177E-03 2.57419E-05-1.13579E-14
 -1      2612 6.37062E-04-1.83238E-04-2.85782E-16
 -1      2613 8.51071E-04-2.46045E-04-4.50757E-16
 -1      2614 9.02890E-04-2.29681E-04-5.39716E-16
 -1      2615 6.15625E-04-1.51188E-04-2.96733E-16
 -1      2616 8.42219E-04 2.75068E-04-1.70179E-16
 -1      2617 6.77852E-04 2.30730E-04-1.03243E-16
 -1      2618 6.42096E-04 2.01372E-04-1.15495E-16
 -1      2619 8.92372E-04 2.57550E-04-2.45856E-16
 -1      2620 4.73270E-03 7.15005E-04-8.40498E-15
 -1      2621 4.92338E-03 6.00797E-04-8.83806E-15
 -1      2622 3.30189E-03 8.98468E-04-4.63864E-15
 -1      2623 6.46818E-04-6.91121E-05-4.19356E-16
 -1      2624 5.42477E-04-6.26865E-05-3.09336E-16
 -1      2625 5.59156E-04-8.20744E-05-3.07195E-16
 -1      2626 1.50238E-03 3.92739E-04-7.53805E-16
 -1      2627 6.17003E-04 1.66636E-04-1.42166E-16
 -1      2628 4.64680E-03 7.71632E-04-8.30366E-15
 -1      2629 6.02830E-03 6.86492E-05-1.19186E-14
 -1      2630 5.43917E-03 3.30700E-04-1.01308E-14
 -1      2631 5.56504E-03 2.83370E-04-1.06111E-14
 -1      2632 5.35718E-03 3.78376E-04-1.01504E-14
 -1      2633 1.46783E-02 9.83566E-04-9.92935E-14
 -1      2634 5.78156E-03-1.48269E-06-1.15463E-14
 -1      2635 1.46575E-02 9.49754E-04-9.92157E-14
 -1      2636 5.95829E-04-1.23105E-04-3.04430E-16
 -1      2637 1.44428E-02-7.83290E-05-1.01558E-13
 -1      2638 1.44966E-02-2.31219E-05-1.02011E-13
 -1      2639 1.43760E-02-7.52845E-06-1.00364E-13
 -1      2640 1.43151E-02-8.23260E-05-9.99104E-14
 -1      2641 5.75958E-03 2.08063E-04-1.10823E-14
 -1      2642 5.83278E-03 1.77714E-04-1.10407E-14
 -1      2643 5.91886E-03 1.60187E-04-1.15448E-14
 -1      2644 4.39208E-03-7.17870E-04-8.81996E-15
 -1      2645 6.12371E-03 9.52038E-05-1.19287E-14
 -1      2646 7.36532E-04 1.82878E-04-2.20378E-16
 -1      2647 3.56326E-03-8.98170E-04-6.34226E-15
 -1      2648 3.47846E-03-8.63086E-04-6.10189E-15
 -1      2649 3.37308E-03-8.24950E-04-5.79182E-15
 -1      2650 1.45307E-02 9.23169E-04-9.77024E-14
 -1      2651 3.08671E-03-6.61089E-04-5.18361E-15
 -1      2652 3.80890E-03-9.24822E-04-7.09987E-15
 -1      2653 2.29852E-03-2.19452E-04-3.99694E-15
 -1      2654 2.17388E-03-1.70822E-04-3.72232E-15
 -1      2655 2.39937E-03-2.76834E-04-4.01293E-15
 -1      2656 1.63584E-03 1.91049E-05-3.25847E-15
 -1      2657 1.56580E-03 2.79700E-05-3.04306E-15
 -1      2658 1.69193E-03 1.00761E-06-3.18719E-15
 -1      2659 1.56908E-03 5.96623E-05-3.10080E-15
 -1      2660 3.67662E-03 1.06056E-03-5.48273E-15
 -1      2661 1.79652E-03 1.18408E-04-3.20062E-15
 -1      2662 2.49703E-03 4.18945E-04-3.65592E-15
 -1      2663 5.08920E-03-3.10170E-04-1.03778E-14
 -1      2664 5.02552E-03 5.47274E-04-9.22863E-15
 -1      2665 4.26959E-03 9.81898E-04-7.25155E-15
 -1      2666 2.12720E-03 2.39567E-04-3.38906E-15
 -1      2667 2.89028E-03 6.49287E-04-4.01874E-15
 -1      2668 1.42491E-02-4.83745E-05-9.88979E-14
 -1      2669 6.74983E-04 3.47200E-05-4.79881E-16
 -1      2670 6.62192E-04 2.58688E-05-4.92228E-16
 -1      2671 6.53781E-04 1.85858E-05-5.02975E-16
 -1      2672 6.50495E-04 1.20903E-05-5.12516E-16
 -1      2673 7.50961E-04 2.63725E-05-6.30409E-16
 -1      2674 7.62673E-04 9.86309E-05-4.12037E-16
 -1      2675 7.36739E-04 7.76075E-05-4.32204E-16
 -1      2676 8.19922E-04 1.51871E-04-3.64034E-16
 -1      2677 7.90659E-04 1.23390E-04-3.89771E-16
 -1      2678 8.94376E-04 1.29549E-04-5.14156E-16
 -1      2679 1.22032E-03 2.97160E-04-5.63121E-16
 -1      2680 1.06246E-03 2.63004E-04-4.27921E-16
 -1      2681 1.54042E-03 3.68362E-04-8.96757E-16
 -1      2682 1.37947E-03 3.31901E-04-7.19029E-16
 -1      2683 1.25998E-03 2.75119E-04-6.81177E-16
 -1      2684 8.56232E-04 2.06400E-04-2.99863E-16
 -1      2685 6.08968E-03 7.73071E-05-1.24749E-14
 -1      2686 6.00805E-03 5.90341E-05-1.23913E-14
 -1      2687 1.41218E-03-3.14464E-04-1.23294E-15
 -1      2688 1.57202E-03-3.49225E-04-1.48819E-15
 -1      2689 1.73446E-03-3.86496E-04-1.76836E-15
 -1      2690 1.89941E-03-4.27500E-04-2.07341E-15
 -1      2691 1.61255E-03-3.21739E-04-1.63322E-15
 -1      2692 2.06767E-03-4.72739E-04-2.40308E-15
 -1      2693 2.23842E-03-5.23278E-04-2.75774E-15
 -1      2694 1.94083E-03-3.98136E-04-2.24030E-15
 -1      2695 2.41249E-03-5.79071E-04-3.13801E-15
 -1      2696 2.58793E-03-6.40132E-04-3.54329E-15
 -1      2697 2.28477E-03-4.95106E-04-2.94578E-15
 -1      2698 2.76516E-03-7.05443E-04-3.97494E-15
 -1      2699 2.94132E-03-7.72337E-04-4.43288E-15
 -1      2700 2.64297E-03-6.17688E-04-3.75107E-15
 -1      2701 3.11586E-03-8.38607E-04-4.91783E-15
 -1      2702 3.28718E-03-8.97934E-04-5.43006E-15
 -1      2703 3.00606E-03-7.59255E-04-4.66033E-15
 -1      2704 3.45416E-03-9.47090E-04-5.97082E-15
 -1      2705 3.61834E-03-9.78770E-04-6.54014E-15
 -1      2706 3.35980E-03-8.91350E-04-5.67875E-15
 -1      2707 3.77840E-03-9.91010E-04-7.13791E-15
 -1      2708 3.94012E-03-9.80891E-04-7.76431E-15
 -1      2709 3.69619E-03-9.64876E-04-6.81233E-15
 -1      2710 4.10179E-03-9.49472E-04-8.41775E-15
 -1      2711 4.26841E-03-9.01511E-04-9.09898E-15
 -1      2712 4.02627E-03-9.42368E-04-8.06084E-15
 -1      2713 4.43816E-03-8.40523E-04-9.80810E-15
 -1      2714 4.61161E-03-7.73313E-04-1.05422E-14
 -1      2715 4.36817E-03-8.34016E-04-9.42207E-15
 -1      2716 4.78809E-03-7.03213E-04-1.13011E-14
 -1      2717 4.96422E-03-6.35979E-04-1.20862E-14
 -1      2718 4.72663E-03-6.87091E-04-1.08896E-14
 -1      2719 5.14064E-03-5.72928E-04-1.28965E-14
 -1      2720 5.31413E-03-5.16257E-04-1.37290E-14
 -1      2721 5.08886E-03-5.46980E-04-1.24576E-14
 -1      2722 5.48569E-03-4.66347E-04-1.45840E-14
 -1      2723 5.65349E-03-4.23115E-04-1.54615E-14
 -1      2724 5.44119E-03-4.34905E-04-1.41198E-14
 -1      2725 5.81856E-03-3.86501E-04-1.63621E-14
 -1      2726 5.98021E-03-3.55562E-04-1.72839E-14
 -1      2727 5.77755E-03-3.52919E-04-1.58727E-14
 -1      2728 6.13930E-03-3.30051E-04-1.82271E-14
 -1      2729 6.29573E-03-3.08937E-04-1.91914E-14
 -1      2730 6.09847E-03-2.95925E-04-1.77129E-14
 -1      2731 6.45013E-03-2.91888E-04-2.01766E-14
 -1      2732 6.60264E-03-2.78052E-04-2.11833E-14
 -1      2733 6.40730E-03-2.57679E-04-1.96378E-14
 -1      2734 6.75365E-03-2.67074E-04-2.22107E-14
 -1      2735 6.90339E-03-2.58318E-04-2.32590E-14
 -1      2736 6.70769E-03-2.32788E-04-2.16468E-14
 -1      2737 7.05206E-03-2.51453E-04-2.43288E-14
 -1      2738 7.19988E-03-2.46027E-04-2.54193E-14
 -1      2739 7.00259E-03-2.17011E-04-2.37407E-14
 -1      2740 7.34694E-03-2.41762E-04-2.65296E-14
 -1      2741 7.49344E-03-2.38344E-04-2.76602E-14
 -1      2742 7.29406E-03-2.07127E-04-2.59161E-14
 -1      2743 7.63939E-03-2.35559E-04-2.88112E-14
 -1      2744 7.78496E-03-2.33192E-04-2.99800E-14
 -1      2745 7.58346E-03-2.00750E-04-2.81746E-14
 -1      2746 7.93011E-03-2.31093E-04-3.11681E-14
 -1      2747 8.07500E-03-2.29118E-04-3.23750E-14
 -1      2748 7.87161E-03-1.96167E-04-3.05103E-14
 -1      2749 8.21958E-03-2.27170E-04-3.35994E-14
 -1      2750 8.36397E-03-2.25156E-04-3.48398E-14
 -1      2751 8.15899E-03-1.92194E-04-3.29177E-14
 -1      2752 8.50812E-03-2.23020E-04-3.60974E-14
 -1      2753 8.65213E-03-2.20706E-04-3.73725E-14
 -1      2754 8.44589E-03-1.88054E-04-3.53949E-14
 -1      2755 8.79595E-03-2.18188E-04-3.86624E-14
 -1      2756 8.93967E-03-2.15433E-04-3.99678E-14
 -1      2757 8.73248E-03-1.83279E-04-3.79399E-14
 -1      2758 9.08324E-03-2.12438E-04-4.12908E-14
 -1      2759 9.22673E-03-2.09187E-04-4.26276E-14
 -1      2760 9.01884E-03-1.77618E-04-4.05510E-14
 -1      2761 9.37011E-03-2.05689E-04-4.39796E-14
 -1      2762 9.51342E-03-2.01938E-04-4.53444E-14
 -1      2763 9.30505E-03-1.70974E-04-4.32217E-14
 -1      2764 9.65665E-03-1.97953E-04-4.67224E-14
 -1      2765 9.79984E-03-1.93735E-04-4.81164E-14
 -1      2766 9.59114E-03-1.63349E-04-4.59485E-14
 -1      2767 9.94296E-03-1.89304E-04-4.95261E-14
 -1      2768 1.00860E-02-1.84666E-04-5.09491E-14
 -1      2769 9.87714E-03-1.54808E-04-4.87364E-14
 -1      2770 1.02291E-02-1.79844E-04-5.23869E-14
 -1      2771 1.03721E-02-1.74843E-04-5.38382E-14
 -1      2772 1.01631E-02-1.45448E-04-5.15813E-14
 -1      2773 1.05151E-02-1.69685E-04-5.53052E-14
 -1      2774 1.06580E-02-1.64379E-04-5.67866E-14
 -1      2775 1.04489E-02-1.35379E-04-5.44850E-14
 -1      2776 1.08009E-02-1.58943E-04-5.82797E-14
 -1      2777 1.09439E-02-1.53386E-04-5.97877E-14
 -1      2778 1.07348E-02-1.24714E-04-5.74464E-14
 -1      2779 1.10867E-02-1.47724E-04-6.13109E-14
 -1      2780 1.12296E-02-1.41964E-04-6.28458E-14
 -1      2781 1.10206E-02-1.13560E-04-6.04629E-14
 -1      2782 1.13725E-02-1.36121E-04-6.43948E-14
 -1      2783 1.15154E-02-1.30202E-04-6.59574E-14
 -1      2784 1.13063E-02-1.02011E-04-6.35362E-14
 -1      2785 1.16582E-02-1.24218E-04-6.75352E-14
 -1      2786 1.18011E-02-1.18175E-04-6.91266E-14
 -1      2787 1.15921E-02-9.01509E-05-6.66641E-14
 -1      2788 1.19440E-02-1.12082E-04-7.07314E-14
 -1      2789 1.20868E-02-1.05945E-04-7.23575E-14
 -1      2790 1.18778E-02-7.80494E-05-6.98480E-14
 -1      2791 1.22297E-02-9.97707E-05-7.39986E-14
 -1      2792 1.23725E-02-9.35635E-05-7.56530E-14
 -1      2793 1.21635E-02-6.57644E-05-7.30964E-14
 -1      2794 1.25153E-02-8.73294E-05-7.73257E-14
 -1      2795 1.26582E-02-8.10715E-05-7.90127E-14
 -1      2796 1.24493E-02-5.33431E-05-7.64092E-14
 -1      2797 1.28010E-02-7.47946E-05-8.07172E-14
 -1      2798 1.29439E-02-6.85012E-05-8.24357E-14
 -1      2799 1.27350E-02-4.08230E-05-7.97840E-14
 -1      2800 1.30867E-02-6.21950E-05-8.41685E-14
 -1      2801 1.32296E-02-5.58780E-05-8.59185E-14
 -1      2802 1.30207E-02-2.82336E-05-8.32189E-14
 -1      2803 1.33724E-02-4.95531E-05-8.76818E-14
 -1      2804 1.35153E-02-4.32219E-05-8.94567E-14
 -1      2805 1.33064E-02-1.55981E-05-8.67118E-14
 -1      2806 1.36581E-02-3.68865E-05-9.12420E-14
 -1      2807 1.38010E-02-3.05485E-05-9.30362E-14
 -1      2808 1.35921E-02-2.93464E-06-9.02558E-14
 -1      2809 1.39438E-02-2.42095E-05-9.48409E-14
 -1      2810 1.40867E-02-1.78705E-05-9.66557E-14
 -1      2811 1.38778E-02 9.74220E-06-9.38434E-14
 -1      2812 2.56199E-03 6.83647E-04-2.43498E-15
 -1      2813 2.38473E-03 6.15378E-04-2.12020E-15
 -1      2814 2.20950E-03 5.54116E-04-1.82984E-15
 -1      2815 2.03800E-03 4.99422E-04-1.56206E-15
 -1      2816 2.24673E-03 5.28360E-04-2.04074E-15
 -1      2817 3.27887E-03 9.92700E-04-3.95460E-15
 -1      2818 3.10228E-03 9.16744E-04-3.53388E-15
 -1      2819 3.61977E-03 1.11132E-03-4.88223E-15
 -1      2820 3.45074E-03 1.06063E-03-4.40360E-15
 -1      2821 3.34412E-03 9.90517E-04-4.26056E-15
 -1      2822 3.94802E-03 1.14704E-03-5.92923E-15
 -1      2823 3.78325E-03 1.14195E-03-5.39105E-15
 -1      2824 3.69112E-03 1.10505E-03-5.22365E-15
 -1      2825 4.28087E-03 1.08654E-03-7.09623E-15
 -1      2826 4.11205E-03 1.12704E-03-6.49758E-15
 -1      2827 4.02873E-03 1.11528E-03-6.30840E-15
 -1      2828 4.62925E-03 9.62940E-04-8.38155E-15
 -1      2829 4.45289E-03 1.02896E-03-7.72487E-15
 -1      2830 4.37628E-03 1.02192E-03-7.51536E-15
 -1      2831 4.98874E-03 8.24716E-04-9.78093E-15
 -1      2832 4.80890E-03 8.92629E-04-9.06659E-15
 -1      2833 4.74135E-03 8.76367E-04-8.83974E-15
 -1      2834 5.34644E-03 7.05819E-04-1.12868E-14
 -1      2835 5.16912E-03 7.61610E-04-1.05204E-14
 -1      2836 5.11179E-03 7.34386E-04-1.02757E-14
 -1      2837 5.69307E-03 6.18823E-04-1.28912E-14
 -1      2838 5.52182E-03 6.58321E-04-1.20778E-14
 -1      2839 5.47214E-03 6.24407E-04-1.18159E-14
 -1      2840 6.02620E-03 5.63126E-04-1.45892E-14
 -1      2841 5.86150E-03 5.87492E-04-1.37290E-14
 -1      2842 5.81500E-03 5.50452E-04-1.34504E-14
 -1      2843 6.34735E-03 5.33216E-04-1.63763E-14
 -1      2844 6.18820E-03 5.45457E-04-1.54712E-14
 -1      2845 6.14101E-03 5.06992E-04-1.51751E-14
 -1      2846 6.65931E-03 5.22621E-04-1.82530E-14
 -1      2847 6.50434E-03 5.25938E-04-1.73036E-14
 -1      2848 6.45402E-03 4.86620E-04-1.69883E-14
 -1      2849 6.96463E-03 5.25597E-04-2.02181E-14
 -1      2850 6.81266E-03 5.22747E-04-1.92246E-14
 -1      2851 6.75809E-03 4.82711E-04-1.88898E-14
 -1      2852 7.26518E-03 5.37543E-04-2.22672E-14
 -1      2853 7.11538E-03 5.30693E-04-2.12319E-14
 -1      2854 7.05636E-03 4.90020E-04-2.08791E-14
 -1      2855 7.56228E-03 5.54994E-04-2.44007E-14
 -1      2856 7.41407E-03 5.45753E-04-2.33240E-14
 -1      2857 7.35093E-03 5.04567E-04-2.29532E-14
 -1      2858 7.85677E-03 5.75460E-04-2.66179E-14
 -1      2859 7.70977E-03 5.64969E-04-2.54996E-14
 -1      2860 7.64311E-03 5.23427E-04-2.51101E-14
 -1      2861 8.14927E-03 5.97233E-04-2.89150E-14
 -1      2862 8.00321E-03 5.86262E-04-2.77569E-14
 -1      2863 7.93367E-03 5.44523E-04-2.73490E-14
 -1      2864 8.44018E-03 6.19200E-04-3.12951E-14
 -1      2865 8.29487E-03 6.08242E-04-3.00931E-14
 -1      2866 8.22307E-03 5.66442E-04-2.96679E-14
 -1      2867 8.72985E-03 6.40677E-04-3.37548E-14
 -1      2868 8.58514E-03 6.30028E-04-3.25163E-14
 -1      2869 8.51163E-03 5.88271E-04-3.20697E-14
 -1      2870 9.01853E-03 6.61292E-04-3.62908E-14
 -1      2871 8.87429E-03 6.51108E-04-3.50131E-14
 -1      2872 8.79951E-03 6.09460E-04-3.45497E-14
 -1      2873 9.30643E-03 6.80874E-04-3.89022E-14
 -1      2874 9.16256E-03 6.71218E-04-3.75863E-14
 -1      2875 9.08688E-03 6.29720E-04-3.71045E-14
 -1      2876 9.59372E-03 6.99391E-04-4.15876E-14
 -1      2877 9.45013E-03 6.90266E-04-4.02362E-14
 -1      2878 9.37383E-03 6.48934E-04-3.97356E-14
 -1      2879 9.88055E-03 7.16892E-04-4.43395E-14
 -1      2880 9.73718E-03 7.08265E-04-4.29563E-14
 -1      2881 9.66046E-03 6.67099E-04-4.24401E-14
 -1      2882 1.01670E-02 7.33472E-04-4.71514E-14
 -1      2883 1.00238E-02 7.25292E-04-4.57372E-14
 -1      2884 9.94683E-03 6.84282E-04-4.52085E-14
 -1      2885 1.04532E-02 7.49248E-04-5.00270E-14
 -1      2886 1.03102E-02 7.41454E-04-4.85814E-14
 -1      2887 1.02330E-02 7.00585E-04-4.80348E-14
 -1      2888 1.07393E-02 7.64341E-04-5.29708E-14
 -1      2889 1.05963E-02 7.56873E-04-5.14886E-14
 -1      2890 1.05190E-02 7.16127E-04-5.09249E-14
 -1      2891 1.10251E-02 7.78868E-04-5.59841E-14
 -1      2892 1.08822E-02 7.71669E-04-5.44697E-14
 -1      2893 1.08050E-02 7.31025E-04-5.38841E-14
 -1      2894 1.13109E-02 7.92936E-04-5.90691E-14
 -1      2895 1.11680E-02 7.85954E-04-5.75189E-14
 -1      2896 1.10908E-02 7.45396E-04-5.69154E-14
 -1      2897 1.15967E-02 8.06639E-04-6.22177E-14
 -1      2898 1.14538E-02 7.99829E-04-6.06349E-14
 -1      2899 1.13766E-02 7.59339E-04-6.00124E-14
 -1      2900 1.18824E-02 8.20058E-04-6.54246E-14
 -1      2901 1.17395E-02 8.13380E-04-6.38137E-14
 -1      2902 1.16623E-02 7.72946E-04-6.31729E-14
 -1      2903 1.21681E-02 8.33257E-04-6.86940E-14
 -1      2904 1.20252E-02 8.26682E-04-6.70536E-14
 -1      2905 1.19481E-02 7.86289E-04-6.63942E-14
 -1      2906 1.24537E-02 8.46293E-04-7.20163E-14
 -1      2907 1.23109E-02 8.39793E-04-7.03474E-14
 -1      2908 1.22338E-02 7.99433E-04-6.96754E-14
 -1      2909 1.27394E-02 8.59208E-04-7.53955E-14
 -1      2910 1.25966E-02 8.52764E-04-7.36992E-14
 -1      2911 1.25195E-02 8.12428E-04-7.30102E-14
 -1      2912 1.30251E-02 8.72037E-04-7.88216E-14
 -1      2913 1.28822E-02 8.65632E-04-7.71032E-14
 -1      2914 1.28052E-02 8.25313E-04-7.63991E-14
 -1      2915 1.33107E-02 8.84808E-04-8.22969E-14
 -1      2916 1.31679E-02 8.78429E-04-8.05541E-14
 -1      2917 1.30909E-02 8.38122E-04-7.98373E-14
 -1      2918 1.35964E-02 8.97541E-04-8.58113E-14
 -1      2919 1.34536E-02 8.91178E-04-8.40482E-14
 -1      2920 1.33766E-02 8.50879E-04-8.33191E-14
 -1      2921 1.38821E-02 9.10254E-04-8.93751E-14
 -1      2922 1.37392E-02 9.03899E-04-8.75892E-14
 -1      2923 1.36622E-02 8.63604E-04-8.68457E-14
 -1      2924 1.41678E-02 9.22960E-04-9.29776E-14
 -1      2925 1.40249E-02 9.16607E-04-9.11695E-14
 -1      2926 1.39480E-02 8.76313E-04-9.04144E-14
 -1      2927 1.44206E-02 9.26241E-04-9.62445E-14
 -1      2928 1.42778E-02 9.19886E-04-9.44222E-14
 -1      2929 1.42008E-02 8.79588E-04-9.36524E-14
 -1      2930 1.44208E-02 8.73438E-04-9.65463E-14
 -1      2931 5.86038E-03 1.75982E-05-1.20888E-14
 -1      2932 5.70431E-03-3.23068E-05-1.17947E-14
 -1      2933 1.43477E-02 4.65710E-04-9.77462E-14
 -1      2934 1.43539E-02 5.07883E-04-9.76181E-14
 -1      2935 3.14001E-03-7.07737E-04-5.21263E-15
 -1      2936 2.96028E-03-5.98352E-04-4.84793E-15
 -1      2937 1.43727E-02 6.34396E-04-9.72133E-14
 -1      2938 1.43790E-02 6.76564E-04-9.70759E-14
 -1      2939 1.43352E-02 3.81365E-04-9.80011E-14
 -1      2940 1.43414E-02 4.23537E-04-9.78757E-14
 -1      2941 1.42208E-02 4.39129E-04-9.62348E-14
 -1      2942 1.43602E-02 5.50055E-04-9.74844E-14
 -1      2943 1.43664E-02 5.92226E-04-9.73486E-14
 -1      2944 1.42459E-02 6.07813E-04-9.57049E-14
 -1      2945 1.42333E-02 5.23472E-04-9.59747E-14
 -1      2946 1.43230E-02 2.98451E-04-9.82456E-14
 -1      2947 1.43291E-02 3.39907E-04-9.81234E-14
 -1      2948 1.42085E-02 3.55499E-04-9.64855E-14
 -1      2949 1.43106E-02 2.14113E-04-9.84889E-14
 -1      2950 1.43168E-02 2.56281E-04-9.83677E-14
 -1      2951 1.41961E-02 2.71874E-04-9.67301E-14
 -1      2952 1.42982E-02 1.29784E-04-9.87236E-14
 -1      2953 1.43044E-02 1.71947E-04-9.86071E-14
 -1      2954 1.41838E-02 1.87539E-04-9.69704E-14
 -1      2955 1.86917E-03 4.51053E-04-1.31744E-15
 -1      2956 1.70361E-03 4.07600E-04-1.09606E-15
 -1      2957 1.57571E-03 3.43050E-04-1.04586E-15
 -1      2958 1.90332E-03 4.24239E-04-1.49818E-15
 -1      2959 4.80339E-03-4.83944E-04-1.01241E-14
 -1      2960 4.66040E-03-5.71584E-04-9.76981E-15
 -1      2961 7.10318E-04-1.35621E-04-4.16578E-16
 -1      2962 6.05221E-03 1.29536E-04-1.21224E-14
 -1      2963 6.11425E-03 1.15422E-04-1.23023E-14
 -1      2964 1.52174E-03 5.29626E-05-2.88901E-15
 -1      2965 1.59277E-03 6.49822E-05-2.92580E-15
 -1      2966 4.47249E-03-6.79254E-04-9.21874E-15
 -1      2967 4.31516E-03-7.68959E-04-8.75149E-15
 -1      2968 2.92232E-03 8.36583E-04-3.14097E-15
 -1      2969 2.74239E-03 7.57975E-04-2.77527E-15
 -1      2970 2.60722E-03 6.62878E-04-2.67733E-15
 -1      2971 2.97865E-03 8.25084E-04-3.41493E-15
 -1      2972 1.09858E-03-2.49078E-04-7.96428E-16
 -1      2973 1.25444E-03-2.81424E-04-1.00237E-15
 -1      2974 1.29744E-03-2.57824E-04-1.12361E-15
 -1      2975 4.59334E-03 8.22948E-04-8.25991E-15
 -1      2976 4.76369E-03 7.17575E-04-8.74386E-15
 -1      2977 1.42796E-02-1.09745E-05-9.91254E-14
 -1      2978 1.43100E-02 2.64280E-05-9.93504E-14
 -1      2979 1.41831E-02-1.44220E-05-9.78897E-14
 -1      2980 7.12985E-04 6.01787E-05-4.49714E-16
 -1      2981 6.92236E-04 4.59725E-05-4.65705E-16
 -1      2982 7.82543E-04 4.80029E-05-6.00092E-16
 -1      2983 8.32532E-04 8.13325E-05-5.61806E-16
 -1      2984 7.04749E-04-3.56132E-05-5.43212E-16
 -1      2985 7.25904E-04-5.26143E-05-5.45747E-16
 -1      2986 5.21088E-03-2.52617E-04-1.09535E-14
 -1      2987 5.00568E-03-3.65110E-04-1.05490E-14
 -1      2988 2.03622E-03 2.05656E-04-3.14537E-15
 -1      2989 2.20032E-03 2.74998E-04-3.26747E-15
 -1      2990 6.14644E-03 1.01947E-04-1.23786E-14
 -1      2991 6.14344E-03 9.44360E-05-1.24519E-14
 -1      2992 6.16472E-03 1.12332E-04-1.28318E-14
 -1      2993 1.70652E-03 9.34947E-05-2.98549E-15
 -1      2994 1.84945E-03 1.35667E-04-3.04489E-15
 -1      2995 2.75865E-03 5.79533E-04-3.70820E-15
 -1      2996 2.94521E-03 6.97771E-04-3.92481E-15
 -1      2997 2.37711E-03 3.61023E-04-3.39662E-15
 -1      2998 2.55485E-03 4.58936E-04-3.52962E-15
 -1      2999 2.26226E-03 3.18666E-04-3.14865E-15
 -1      3000 3.51920E-03 1.02911E-03-4.89524E-15
 -1      3001 3.67286E-03 1.07947E-03-5.31843E-15
 -1      3002 1.50013E-03 4.08822E-05-2.92350E-15
 -1      3003 1.49216E-03 4.39497E-05-2.90022E-15
 -1      3004 1.97145E-03-9.24704E-05-3.43128E-15
 -1      3005 1.84078E-03-4.75093E-05-3.28920E-15
 -1      3006 3.89131E-03-9.25661E-04-7.40700E-15
 -1      3007 3.75992E-03-9.31818E-04-6.96597E-15
 -1      3008 2.77500E-03-4.86866E-04-4.53828E-15
 -1      3009 2.61087E-03-3.90962E-04-4.28592E-15
 -1      3010 4.16738E-03-8.39859E-04-8.29585E-15
 -1      3011 4.03780E-03-8.91431E-04-7.88204E-15
 -1      3012 4.21584E-03 1.02068E-03-7.08187E-15
 -1      3013 4.39554E-03 9.31604E-04-7.65758E-15
 -1      3014 4.52323E-03 8.83254E-04-8.07423E-15
 -1      3015 4.96164E-03 6.00683E-04-9.27761E-15
 -1      3016 5.13928E-03 4.99200E-04-9.73166E-15
 -1      3017 5.54649E-03-9.56839E-05-1.15672E-14
 -1      3018 5.40497E-03-1.57606E-04-1.13221E-14
 -1      3019 7.49090E-04-7.28604E-05-5.46695E-16
 -1      3020 7.73450E-04-9.63320E-05-5.45950E-16
 -1      3021 8.48614E-04-7.41580E-05-6.90786E-16
 -1      3022 7.43170E-04 1.04505E-05-6.54059E-16
 -1      3023 6.52374E-04 5.68177E-06-5.20891E-16
 -1      3024 6.59200E-04-1.64934E-06-5.28318E-16
 -1      3025 9.03234E-04 1.91002E-04-3.82940E-16
 -1      3026 4.89694E-03 6.65549E-04-9.22804E-15
 -1      3027 6.15176E-03 8.72196E-05-1.29331E-14
 -1      3028 5.27855E-03 4.37150E-04-1.02020E-14
 -1      3029 5.41340E-03 3.86047E-04-1.06823E-14
 -1      3030 5.22299E-03 4.96929E-04-1.02482E-14
 -1      3031 1.41171E-02 1.95316E-05-9.68811E-14
 -1      3032 4.57760E-03-6.36311E-04-9.69346E-15
 -1      3033 5.96281E-03 1.69615E-04-1.22037E-14
 -1      3034 6.01004E-03 1.47522E-04-1.21633E-14
 -1      3035 6.09290E-03 1.43145E-04-1.27940E-14
 -1      3036 5.65379E-03-6.64993E-05-1.21071E-14
 -1      3037 5.95646E-03 3.58678E-05-1.26464E-14
 -1      3038 1.44146E-02 8.31640E-04-9.66978E-14
 -1      3039 1.43046E-02 8.34716E-04-9.52495E-14
 -1      3040 1.44083E-02 7.89838E-04-9.68473E-14
 -1      3041 4.09047E-03 1.06287E-03-6.68359E-15
 -1      3042 4.21707E-03 1.03018E-03-7.06764E-15
 -1      3043 3.97206E-03 1.08698E-03-6.29729E-15
 -1      3044 2.84538E-03-5.48327E-04-4.56403E-15
 -1      3045 4.25807E-03-8.08503E-04-8.67843E-15
 -1      3046 1.43162E-02 6.85843E-05-9.92385E-14
 -1      3047 3.97752E-03-9.14394E-04-7.73772E-15
 -1      3048 5.68394E-03 2.44462E-04-1.11024E-14
 -1      3049 5.79333E-03 2.18839E-04-1.16046E-14
 -1      3050 5.61430E-03 2.86329E-04-1.11217E-14
 -1      3051 1.48324E-03 4.73115E-05-2.73002E-15
 -1      3052 2.06139E-03-1.40008E-04-3.44360E-15
 -1      3053 1.51277E-03 3.27497E-05-2.85438E-15
 -1      3054 1.46848E-03 3.37996E-05-2.67213E-15
 -1      3055 1.53667E-03 2.19722E-05-2.78475E-15
 -1      3056 2.62496E-03 5.17466E-04-3.44200E-15
 -1      3057 8.09835E-04-1.29476E-04-5.49745E-16
 -1      3058 8.61714E-04-1.84632E-04-5.45747E-16
 -1      3059 1.00498E-03-2.19882E-04-6.98009E-16
 -1      3060 9.18061E-04-1.34628E-04-6.97278E-16
 -1      3061 1.91314E-03 1.67637E-04-2.92985E-15
 -1      3062 1.62460E-03 7.80822E-05-2.77679E-15
 -1      3063 2.46856E-03-3.28917E-04-3.99618E-15
 -1      3064 1.72794E-03-2.23528E-05-3.06888E-15
 -1      3065 1.41564E-02 5.18523E-05-9.72436E-14
 -1      3066 1.42590E-02 9.74593E-05-9.83635E-14
 -1      3067 1.41383E-02 1.13049E-04-9.67306E-14
 -1      3068 1.40599E-02 4.84027E-05-9.60119E-14
 -1      3069 1.01451E-03 1.98960E-04-5.09914E-16
 -1      3070 1.43905E-02 7.12300E-04-9.70360E-14
 -1      3071 1.43968E-02 7.54106E-04-9.68909E-14
 -1      3072 1.42868E-02 7.57185E-04-9.54448E-14
 -1      3073 1.42637E-02 6.85717E-04-9.55283E-14
 -1      3074 6.70661E-04-1.05160E-05-5.34471E-16
 -1      3075 6.86000E-04-2.17043E-05-5.39485E-16
 -1      3076 7.97646E-04-3.43225E-05-6.84389E-16
 -1      3077 7.60149E-04-7.48828E-06-6.72016E-16
 -1      3078 4.94374E-03-4.21675E-04-1.06880E-14
 -1      3079 5.32080E-03-2.16101E-04-1.14973E-14
 -1      3080 3.85151E-03 1.10416E-03-5.84935E-15
 -1      3081 2.97963E-03 7.44163E-04-3.79804E-15
 -1      3082 3.11643E-03 8.08949E-04-4.11990E-15
 -1      3083 1.05119E-03-2.00742E-04-7.99301E-16
 -1      3084 3.33166E-03 9.50495E-04-4.42208E-15
 -1      3085 3.31638E-03 9.25436E-04-4.50146E-15
 -1      3086 4.85654E-03 7.25858E-04-9.20749E-15
 -1      3087 5.03097E-03 6.22684E-04-9.75825E-15
 -1      3088 1.03311E-03 1.64391E-04-6.26438E-16
 -1      3089 9.94993E-04 1.33122E-04-6.57555E-16
 -1      3090 3.31968E-03-8.19575E-04-5.61565E-15
 -1      3091 3.22724E-03-7.61177E-04-5.39578E-15
 -1      3092 1.18619E-03-2.06105E-04-1.01746E-15
 -1      3093 1.33749E-03-2.33018E-04-1.24755E-15
 -1      3094 5.08058E-03-3.69398E-04-1.13019E-14
 -1      3095 4.90199E-03-4.75599E-04-1.08601E-14
 -1      3096 1.81185E-03-3.26412E-04-2.08145E-15
 -1      3097 1.97848E-03-3.65878E-04-2.40754E-15
 -1      3098 2.15092E-03-4.10932E-04-2.75760E-15
 -1      3099 2.32780E-03-4.63694E-04-3.13261E-15
 -1      3100 2.01195E-03-3.30369E-04-2.57484E-15
 -1      3101 2.51069E-03-5.24214E-04-3.53190E-15
 -1      3102 2.69627E-03-5.93358E-04-3.95655E-15
 -1      3103 2.36698E-03-4.29898E-04-3.31801E-15
 -1      3104 2.89223E-03-6.81230E-04-4.41140E-15
 -1      3105 3.07750E-03-7.57827E-04-4.88944E-15
 -1      3106 3.18545E-03-7.94447E-04-5.19349E-15
 -1      3107 3.36705E-03-8.63966E-04-5.71707E-15
 -1      3108 3.67990E-03-9.46170E-04-6.74147E-15
 -1      3109 3.85012E-03-9.51211E-04-7.34779E-15
 -1      3110 3.97995E-03-9.27801E-04-7.82233E-15
 -1      3111 4.15529E-03-8.80292E-04-8.47904E-15
 -1      3112 4.28302E-03-8.23778E-04-8.94045E-15
 -1      3113 4.46860E-03-7.44156E-04-9.64546E-15
 -1      3114 4.77299E-03-6.03834E-04-1.08038E-14
 -1      3115 4.96239E-03-5.24648E-04-1.15733E-14
 -1      3116 5.15040E-03-4.56297E-04-1.23679E-14
 -1      3117 5.33128E-03-3.96835E-04-1.31862E-14
 -1      3118 5.23237E-03-3.57020E-04-1.22688E-14
 -1      3119 5.50744E-03-3.48580E-04-1.40258E-14
 -1      3120 5.67681E-03-3.07757E-04-1.48873E-14
 -1      3121 5.58911E-03-2.57390E-04-1.39226E-14
 -1      3122 5.84099E-03-2.75384E-04-1.57729E-14
 -1      3123 6.00014E-03-2.48354E-04-1.66784E-14
 -1      3124 5.91470E-03-1.96494E-04-1.56632E-14
 -1      3125 6.15515E-03-2.27014E-04-1.76052E-14
 -1      3126 6.30685E-03-2.09375E-04-1.85539E-14
 -1      3127 6.21789E-03-1.58901E-04-1.74892E-14
 -1      3128 6.45576E-03-1.95438E-04-1.95232E-14
 -1      3129 6.60268E-03-1.84057E-04-2.05137E-14
 -1      3130 6.50748E-03-1.35057E-04-1.93995E-14
 -1      3131 6.74790E-03-1.75048E-04-2.15247E-14
 -1      3132 6.89204E-03-1.67777E-04-2.25566E-14
 -1      3133 6.78976E-03-1.19565E-04-2.13929E-14
 -1      3134 7.03523E-03-1.61983E-04-2.36103E-14
 -1      3135 7.17791E-03-1.57324E-04-2.46849E-14
 -1      3136 7.06870E-03-1.09254E-04-2.34703E-14
 -1      3137 7.32012E-03-1.53527E-04-2.57799E-14
 -1      3138 7.46214E-03-1.50414E-04-2.68959E-14
 -1      3139 7.34664E-03-1.02088E-04-2.56327E-14
 -1      3140 7.60398E-03-1.47736E-04-2.80299E-14
 -1      3141 7.74580E-03-1.45410E-04-2.91842E-14
 -1      3142 7.62482E-03-9.66611E-05-2.78765E-14
 -1      3143 7.88758E-03-1.43229E-04-3.03585E-14
 -1      3144 8.02945E-03-1.41162E-04-3.15486E-14
 -1      3145 7.90386E-03-9.19748E-05-3.01958E-14
 -1      3146 8.17133E-03-1.39051E-04-3.27570E-14
 -1      3147 8.31333E-03-1.36893E-04-3.39844E-14
 -1      3148 8.18399E-03-8.73323E-05-3.25876E-14
 -1      3149 8.45539E-03-1.34574E-04-3.52286E-14
 -1      3150 8.59756E-03-1.32107E-04-3.64893E-14
 -1      3151 8.46521E-03-8.22706E-05-3.50519E-14
 -1      3152 8.73979E-03-1.29418E-04-3.77665E-14
 -1      3153 8.88213E-03-1.26525E-04-3.90614E-14
 -1      3154 8.74742E-03-7.65093E-05-3.75845E-14
 -1      3155 9.02452E-03-1.23384E-04-4.03724E-14
 -1      3156 9.16700E-03-1.20016E-04-4.16966E-14
 -1      3157 9.03050E-03-6.99063E-05-4.01842E-14
 -1      3158 9.30952E-03-1.16401E-04-4.30377E-14
 -1      3159 9.45212E-03-1.12559E-04-4.43934E-14
 -1      3160 9.31427E-03-6.24189E-05-4.28456E-14
 -1      3161 9.59475E-03-1.08485E-04-4.57613E-14
 -1      3162 9.73743E-03-1.04197E-04-4.71453E-14
 -1      3163 9.59861E-03-5.40717E-05-4.55672E-14
 -1      3164 9.88014E-03-9.97003E-05-4.85455E-14
 -1      3165 1.00229E-02-9.50122E-05-4.99607E-14
 -1      3166 9.88337E-03-4.49312E-05-4.83477E-14
 -1      3167 1.01657E-02-9.01426E-05-5.13891E-14
 -1      3168 1.03085E-02-8.51069E-05-5.28319E-14
 -1      3169 1.01685E-02-3.50864E-05-5.11897E-14
 -1      3170 1.04513E-02-7.99178E-05-5.42894E-14
 -1      3171 1.05941E-02-7.45882E-05-5.57627E-14
 -1      3172 1.04538E-02-2.46353E-05-5.40865E-14
 -1      3173 1.07370E-02-6.91322E-05-5.72482E-14
 -1      3174 1.08798E-02-6.35602E-05-5.87474E-14
 -1      3175 1.07393E-02-1.36750E-05-5.70430E-14
 -1      3176 1.10227E-02-5.78861E-05-6.02637E-14
 -1      3177 1.11655E-02-5.21181E-05-6.17935E-14
 -1      3178 1.10249E-02-2.29663E-06-6.00565E-14
 -1      3179 1.13084E-02-4.62692E-05-6.33356E-14
 -1      3180 1.14513E-02-4.03459E-05-6.48936E-14
 -1      3181 1.13106E-02 9.41812E-06-6.31297E-14
 -1      3182 1.15942E-02-3.43595E-05-6.64670E-14
 -1      3183 1.17370E-02-2.83154E-05-6.80542E-14
 -1      3184 1.15963E-02 2.13985E-05-6.62606E-14
 -1      3185 1.18799E-02-2.22231E-05-6.96530E-14
 -1      3186 1.20228E-02-1.60866E-05-7.12676E-14
 -1      3187 1.18821E-02 3.35849E-05-6.94496E-14
 -1      3188 1.21657E-02-9.91420E-06-7.29013E-14
 -1      3189 1.23085E-02-3.70878E-06-7.45517E-14
 -1      3190 1.21678E-02 4.59279E-05-7.26987E-14
 -1      3191 1.24514E-02 2.52292E-06-7.62144E-14
 -1      3192 1.25943E-02 8.77869E-06-7.78924E-14
 -1      3193 1.24536E-02 5.83874E-05-7.60109E-14
 -1      3194 1.27372E-02 1.50531E-05-7.95864E-14
 -1      3195 1.28800E-02 2.13445E-05-8.12947E-14
 -1      3196 1.27394E-02 7.09315E-05-7.93822E-14
 -1      3197 1.30229E-02 2.76485E-05-8.30191E-14
 -1      3198 1.31658E-02 3.39640E-05-8.47559E-14
 -1      3199 1.30252E-02 8.35351E-05-8.28110E-14
 -1      3200 1.33087E-02 4.02874E-05-8.65055E-14
 -1      3201 1.34515E-02 4.66180E-05-8.82697E-14
 -1      3202 1.33109E-02 9.61785E-05-8.62935E-14
 -1      3203 1.35944E-02 5.29529E-05-9.00423E-14
 -1      3204 1.37373E-02 5.92914E-05-9.18255E-14
 -1      3205 1.35967E-02 1.08846E-04-8.98214E-14
 -1      3206 1.38801E-02 6.56319E-05-9.36212E-14
 -1      3207 4.44885E-03 9.62438E-04-7.82127E-15
 -1      3208 4.26425E-03 1.03326E-03-7.18722E-15
 -1      3209 4.95548E-03 7.45795E-04-9.64105E-15
 -1      3210 4.76426E-03 8.24441E-04-8.93168E-15
 -1      3211 5.33034E-03 6.16899E-04-1.11376E-14
 -1      3212 5.14598E-03 6.76528E-04-1.03765E-14
 -1      3213 5.18739E-03 6.14817E-04-1.04726E-14
 -1      3214 5.68338E-03 5.30261E-04-1.27319E-14
 -1      3215 5.51019E-03 5.69084E-04-1.19237E-14
 -1      3216 5.55374E-03 5.10992E-04-1.20267E-14
 -1      3217 6.01376E-03 4.78532E-04-1.44171E-14
 -1      3218 5.85111E-03 5.00871E-04-1.35641E-14
 -1      3219 5.89123E-03 4.50247E-04-1.36724E-14
 -1      3220 6.32696E-03 4.52695E-04-1.61884E-14
 -1      3221 6.17209E-03 4.63082E-04-1.52921E-14
 -1      3222 6.20562E-03 4.19222E-04-1.54049E-14
 -1      3223 6.62873E-03 4.44879E-04-1.80491E-14
 -1      3224 6.47891E-03 4.47001E-04-1.71081E-14
 -1      3225 6.50526E-03 4.08058E-04-1.72233E-14
 -1      3226 6.92357E-03 4.49340E-04-1.99973E-14
 -1      3227 6.77676E-03 4.45883E-04-1.90121E-14
 -1      3228 6.79634E-03 4.10003E-04-1.91296E-14
 -1      3229 7.21448E-03 4.61874E-04-2.20303E-14
 -1      3230 7.06936E-03 4.54802E-04-2.10036E-14
 -1      3231 7.08298E-03 4.20600E-04-2.11229E-14
 -1      3232 7.50325E-03 4.79416E-04-2.41470E-14
 -1      3233 7.35903E-03 4.70156E-04-2.30785E-14
 -1      3234 7.36764E-03 4.36716E-04-2.32002E-14
 -1      3235 7.79087E-03 4.99757E-04-2.63455E-14
 -1      3236 7.64714E-03 4.89327E-04-2.52353E-14
 -1      3237 7.65162E-03 4.56100E-04-2.53581E-14
 -1      3238 8.07789E-03 5.21350E-04-2.86261E-14
 -1      3239 7.93442E-03 5.10455E-04-2.74761E-14
 -1      3240 7.93558E-03 4.77138E-04-2.75981E-14
 -1      3241 8.36456E-03 5.43159E-04-3.09862E-14
 -1      3242 8.22124E-03 5.32263E-04-2.97955E-14
 -1      3243 8.21979E-03 4.98711E-04-2.99199E-14
 -1      3244 8.65103E-03 5.64531E-04-3.34278E-14
 -1      3245 8.50781E-03 5.53919E-04-3.21974E-14
 -1      3246 8.50433E-03 5.20078E-04-3.23229E-14
 -1      3247 8.93735E-03 5.85092E-04-3.59476E-14
 -1      3248 8.79420E-03 5.74921E-04-3.46792E-14
 -1      3249 8.78918E-03 5.40790E-04-3.48032E-14
 -1      3250 9.22356E-03 6.04664E-04-3.85393E-14
 -1      3251 9.08046E-03 5.95002E-04-3.72333E-14
 -1      3252 9.07430E-03 5.60605E-04-3.73613E-14
 -1      3253 9.50967E-03 6.23201E-04-4.12085E-14
 -1      3254 9.36662E-03 6.14058E-04-3.98651E-14
 -1      3255 9.35962E-03 5.79428E-04-3.99921E-14
 -1      3256 9.79570E-03 6.40740E-04-4.39435E-14
 -1      3257 9.65269E-03 6.32089E-04-4.25667E-14
 -1      3258 9.64509E-03 5.97265E-04-4.26931E-14
 -1      3259 1.00817E-02 6.57369E-04-4.67398E-14
 -1      3260 9.93868E-03 6.49161E-04-4.53355E-14
 -1      3261 9.93067E-03 6.14178E-04-4.54583E-14
 -1      3262 1.03676E-02 6.73196E-04-4.95988E-14
 -1      3263 1.02246E-02 6.65375E-04-4.81617E-14
 -1      3264 1.02163E-02 6.30264E-04-4.82859E-14
 -1      3265 1.06534E-02 6.88338E-04-5.25219E-14
 -1      3266 1.05105E-02 6.80846E-04-5.10522E-14
 -1      3267 1.05020E-02 6.45635E-04-5.11747E-14
 -1      3268 1.09392E-02 7.02912E-04-5.55130E-14
 -1      3269 1.07963E-02 6.95690E-04-5.40080E-14
 -1      3270 1.07878E-02 6.60403E-04-5.41298E-14
 -1      3271 1.12250E-02 7.17021E-04-5.85750E-14
 -1      3272 1.10821E-02 7.10019E-04-5.70364E-14
 -1      3273 1.10735E-02 6.74674E-04-5.71523E-14
 -1      3274 1.15108E-02 7.30759E-04-6.16993E-14
 -1      3275 1.13679E-02 7.23931E-04-6.01305E-14
 -1      3276 1.13593E-02 6.88543E-04-6.02440E-14
 -1      3277 1.17965E-02 7.44206E-04-6.48859E-14
 -1      3278 1.16537E-02 7.37515E-04-6.32861E-14
 -1      3279 1.16450E-02 7.02095E-04-6.33955E-14
 -1      3280 1.20823E-02 7.57429E-04-6.81381E-14
 -1      3281 1.19394E-02 7.50842E-04-6.65032E-14
 -1      3282 1.19308E-02 7.15401E-04-6.66127E-14
 -1      3283 1.23680E-02 7.70483E-04-7.14425E-14
 -1      3284 1.22251E-02 7.63975E-04-6.97836E-14
 -1      3285 1.22165E-02 7.28518E-04-6.98879E-14
 -1      3286 1.26537E-02 7.83412E-04-7.48046E-14
 -1      3287 1.25109E-02 7.76961E-04-7.31174E-14
 -1      3288 1.25023E-02 7.41495E-04-7.32207E-14
 -1      3289 1.29394E-02 7.96252E-04-7.82131E-14
 -1      3290 1.27966E-02 7.89842E-04-7.65025E-14
 -1      3291 1.27880E-02 7.54369E-04-7.66034E-14
 -1      3292 1.32252E-02 8.09030E-04-8.16733E-14
 -1      3293 1.30823E-02 8.02647E-04-7.99375E-14
 -1      3294 1.30737E-02 7.67170E-04-8.00346E-14
 -1      3295 1.35109E-02 8.21767E-04-8.51711E-14
 -1      3296 1.33680E-02 8.15402E-04-8.34159E-14
 -1      3297 1.33595E-02 7.79923E-04-8.35115E-14
 -1      3298 1.37966E-02 8.34481E-04-8.87193E-14
 -1      3299 1.36537E-02 8.28126E-04-8.69397E-14
 -1      3300 1.36452E-02 7.92645E-04-8.70324E-14
 -1      3301 1.39394E-02 8.40833E-04-9.05049E-14
 -1      3302 1.41946E-02 8.37793E-04-9.38064E-14
 -1      3303 1.40845E-02 8.40870E-04-9.23693E-14
 -1      3304 1.41883E-02 7.95994E-04-9.39584E-14
 -1      3305 3.97234E-03 1.10547E-03-6.20330E-15
 -1      3306 1.40817E-02 3.29277E-04-9.49763E-14
 -1      3307 1.40878E-02 3.70733E-04-9.48549E-14
 -1      3308 1.40940E-02 4.12905E-04-9.47288E-14
 -1      3309 1.41002E-02 4.55076E-04-9.46015E-14
 -1      3310 1.39672E-02 3.86682E-04-9.32295E-14
 -1      3311 4.14838E-03 1.07334E-03-6.78526E-15
 -1      3312 2.13821E-03 2.82266E-04-2.85479E-15
 -1      3313 2.29282E-03 3.58141E-04-2.97128E-15
 -1      3314 3.65357E-03-9.24188E-04-6.62739E-15
 -1      3315 6.19118E-03 1.21631E-04-1.33173E-14
 -1      3316 6.21529E-03 1.08986E-04-1.33960E-14
 -1      3317 5.76506E-03-4.38447E-05-1.27417E-14
 -1      3318 5.62663E-03-9.98425E-05-1.25041E-14
 -1      3319 1.40693E-02 2.44939E-04-9.52226E-14
 -1      3320 1.40755E-02 2.87107E-04-9.51010E-14
 -1      3321 1.39548E-02 3.02341E-04-9.34798E-14
 -1      3322 3.09871E-03-7.08027E-04-5.04746E-15
 -1      3323 2.28013E-03 4.99063E-04-2.25629E-15
 -1      3324 2.10415E-03 4.42601E-04-1.95903E-15
 -1      3325 2.87897E-03-5.93790E-04-4.54607E-15
 -1      3326 2.71377E-03-4.92074E-04-4.25105E-15
 -1      3327 1.54604E-03 6.82976E-05-2.54750E-15
 -1      3328 1.64988E-03 9.30931E-05-2.60253E-15
 -1      3329 1.49181E-03-2.61267E-04-1.50146E-15
 -1      3330 1.64966E-03-2.92246E-04-1.77953E-15
 -1      3331 1.68272E-03-2.60248E-04-1.92706E-15
 -1      3332 3.06831E-03-7.17907E-04-4.92333E-15
 -1      3333 1.19035E-03 2.38482E-04-6.69657E-16
 -1      3334 1.09742E-03 1.94542E-04-6.43054E-16
 -1      3335 1.20209E-03 1.98120E-04-8.06172E-16
 -1      3336 1.34331E-03 2.68744E-04-8.39620E-16
 -1      3337 5.44133E-03-1.80213E-04-1.20893E-14
 -1      3338 5.26853E-03-2.65210E-04-1.17071E-14
 -1      3339 5.21559E-03-3.24731E-04-1.18856E-14
 -1      3340 5.57429E-03-1.46903E-04-1.27213E-14
 -1      3341 8.50624E-04 3.58708E-05-7.70949E-16
 -1      3342 8.38449E-04 2.56328E-05-7.86887E-16
 -1      3343 2.52144E-03-3.80041E-04-3.95311E-15
 -1      3344 2.33226E-03-2.77338E-04-3.69577E-15
 -1      3345 1.00501E-03-1.56751E-04-7.97133E-16
 -1      3346 1.09444E-03-1.80663E-04-9.03886E-16
 -1      3347 9.60238E-04-1.17631E-04-7.91346E-16
 -1      3348 2.13353E-03-1.88557E-04-3.40609E-15
 -1      3349 1.94514E-03-1.18528E-04-3.13001E-15
 -1      3350 2.19051E-03-2.39859E-04-3.36492E-15
 -1      3351 2.47782E-03 4.57350E-04-3.12746E-15
 -1      3352 2.65700E-03 5.65837E-04-3.28876E-15
 -1      3353 2.33563E-03 4.11649E-04-2.83028E-15
 -1      3354 1.73549E-03-4.40285E-05-2.88177E-15
 -1      3355 1.61247E-03-3.74456E-06-2.79108E-15
 -1      3356 6.06190E-03 4.83662E-05-1.33687E-14
 -1      3357 5.92525E-03 1.16438E-05-1.30556E-14
 -1      3358 5.90443E-03-1.84737E-05-1.34660E-14
 -1      3359 4.62308E-03 8.69151E-04-8.43214E-15
 -1      3360 6.21582E-03 9.47326E-05-1.35453E-14
 -1      3361 6.17060E-03 7.89264E-05-1.35680E-14
 -1      3362 1.79941E-03 1.41239E-04-2.67402E-15
 -1      3363 1.96513E-03 2.03358E-04-2.76501E-15
 -1      3364 1.99870E-03 2.42712E-04-2.60036E-15
 -1      3365 1.43445E-03 4.24108E-05-2.51287E-15
 -1      3366 1.46390E-03 4.94840E-05-2.50309E-15
 -1      3367 2.98771E-03-6.64067E-04-4.75261E-15
 -1      3368 8.33798E-04 1.67368E-05-8.01239E-16
 -1      3369 8.36881E-04 7.61152E-06-8.13707E-16
 -1      3370 9.25152E-04 2.41062E-05-9.61742E-16
 -1      3371 1.09190E-03 1.34744E-04-8.19562E-16
 -1      3372 9.58585E-04 1.05893E-04-6.85162E-16
 -1      3373 9.25063E-04 8.27473E-05-7.10193E-16
 -1      3374 1.46454E-03 5.82369E-05-2.33898E-15
 -1      3375 1.37390E-03-2.06531E-04-1.37389E-15
 -1      3376 8.98085E-04-6.43482E-05-7.88608E-16
 -1      3377 9.28368E-04-8.91439E-05-7.90912E-16
 -1      3378 1.01078E-03-1.05870E-04-8.97950E-16
 -1      3379 5.16534E-03 5.65093E-04-1.02277E-14
 -1      3380 2.75656E-03-5.83558E-04-4.16453E-15
 -1      3381 3.49993E-03-9.06316E-04-6.13023E-15
 -1      3382 1.53673E-03 4.89336E-06-2.60880E-15
 -1      3383 4.63083E-03-6.57112E-04-1.02087E-14
 -1      3384 6.16458E-03 6.24811E-05-1.39910E-14
 -1      3385 5.91041E-03 1.97365E-04-1.22218E-14
 -1      3386 6.01693E-03 1.85698E-04-1.28521E-14
 -1      3387 5.85742E-03 2.29898E-04-1.22395E-14
 -1      3388 1.39332E-02 7.99036E-04-9.06596E-14
 -1      3389 1.41190E-02 5.81231E-04-9.42039E-14
 -1      3390 1.41253E-02 6.23400E-04-9.40672E-14
 -1      3391 8.45246E-04-2.58735E-05-7.78782E-16
 -1      3392 8.69949E-04-4.33095E-05-7.84569E-16
 -1      3393 9.44722E-04-5.36712E-05-8.91431E-16
 -1      3394 1.41065E-02 4.97069E-04-9.44713E-14
 -1      3395 1.41127E-02 5.39240E-04-9.43382E-14
 -1      3396 1.39921E-02 5.54828E-04-9.27112E-14
 -1      3397 1.39797E-02 4.70845E-04-9.29759E-14
 -1      3398 6.14985E-03 1.49993E-04-1.34008E-14
 -1      3399 6.17382E-03 1.34517E-04-1.33591E-14
 -1      3400 6.24439E-03 1.29612E-04-1.39332E-14
 -1      3401 1.65749E-03 3.35354E-04-1.24346E-15
 -1      3402 1.49885E-03 3.00561E-04-1.03083E-15
 -1      3403 1.42316E-03 2.60676E-04-1.01340E-15
 -1      3404 1.96008E-03 4.06429E-04-1.70945E-15
 -1      3405 1.79404E-03 3.63225E-04-1.45443E-15
 -1      3406 1.71062E-03 3.16069E-04-1.43224E-15
 -1      3407 1.98585E-03 3.73980E-04-1.90265E-15
 -1      3408 5.54290E-03 3.40944E-04-1.11733E-14
 -1      3409 5.66607E-03 3.06366E-04-1.16745E-14
 -1      3410 5.48679E-03 3.98751E-04-1.12204E-14
 -1      3411 1.40099E-02 6.32555E-04-9.25392E-14
 -1      3412 1.41368E-02 6.59136E-04-9.40300E-14
 -1      3413 1.41483E-02 6.94871E-04-9.39893E-14
 -1      3414 1.84992E-03-1.20314E-04-2.80786E-15
 -1      3415 1.79514E-03-7.96432E-05-2.84582E-15
 -1      3416 1.65995E-03-5.42878E-05-2.57629E-15
 -1      3417 1.40569E-02 1.60965E-04-9.54565E-14
 -1      3418 1.40631E-02 2.03130E-04-9.53371E-14
 -1      3419 2.56920E-03-4.33796E-04-3.93594E-15
 -1      3420 1.68911E-03 1.20472E-04-2.44917E-15
 -1      3421 2.66251E-03 6.28742E-04-3.01056E-15
 -1      3422 2.47361E-03 5.51889E-04-2.65978E-15
 -1      3423 8.69864E-04 4.81140E-05-7.52870E-16
 -1      3424 9.54080E-04 4.71744E-05-9.23889E-16
 -1      3425 8.94840E-04 6.35749E-05-7.32514E-16
 -1      3426 1.13430E-03-1.59318E-04-1.01195E-15
 -1      3427 2.81302E-03 6.88898E-04-3.32609E-15
 -1      3428 2.96043E-03 7.88955E-04-3.49407E-15
 -1      3429 1.39424E-02 2.18363E-04-9.37179E-14
 -1      3430 6.26433E-03 1.02863E-04-1.40427E-14
 -1      3431 2.31486E-03 4.52839E-04-2.55564E-15
 -1      3432 1.41267E-03 2.91960E-05-2.38136E-15
 -1      3433 1.41733E-03 3.58581E-05-2.44730E-15
 -1      3434 1.37342E-03 3.74705E-05-2.23194E-15
 -1      3435 1.34887E-03 2.23507E-04-9.93292E-16
 -1      3436 1.27689E-03 1.89561E-04-9.71337E-16
 -1      3437 1.49894E-03 2.50852E-04-1.20162E-15
 -1      3438 6.32324E-03 1.14596E-04-1.46445E-14
 -1      3439 6.32423E-03 9.87217E-05-1.47976E-14
 -1      3440 1.39193E-02 9.79551E-05-9.39789E-14
 -1      3441 5.89799E-03-1.55420E-04-1.51683E-14
 -1      3442 6.04866E-03-1.36224E-04-1.60581E-14
 -1      3443 6.19433E-03-1.21866E-04-1.69691E-14
 -1      3444 6.33692E-03-1.10189E-04-1.79015E-14
 -1      3445 6.17712E-03-8.40143E-05-1.64522E-14
 -1      3446 6.47684E-03-1.01040E-04-1.88537E-14
 -1      3447 6.61534E-03-9.34891E-05-1.98279E-14
 -1      3448 6.45039E-03-6.71367E-05-1.83124E-14
 -1      3449 6.75264E-03-8.73318E-05-2.08240E-14
 -1      3450 6.88945E-03-8.21907E-05-2.18391E-14
 -1      3451 6.71829E-03-5.57355E-05-2.02571E-14
 -1      3452 7.02591E-03-7.78453E-05-2.28756E-14
 -1      3453 7.16242E-03-7.41421E-05-2.39348E-14
 -1      3454 6.98506E-03-4.73301E-05-2.22850E-14
 -1      3455 7.29903E-03-7.08701E-05-2.50132E-14
 -1      3456 7.43594E-03-6.79748E-05-2.61135E-14
 -1      3457 7.25285E-03-4.06479E-05-2.43966E-14
 -1      3458 7.57318E-03-6.52691E-05-2.72333E-14
 -1      3459 7.71084E-03-6.27402E-05-2.83713E-14
 -1      3460 7.52265E-03-3.48755E-05-2.65918E-14
 -1      3461 7.84890E-03-6.02333E-05-2.95291E-14
 -1      3462 7.98742E-03-5.77550E-05-3.07053E-14
 -1      3463 7.79485E-03-2.94312E-05-2.88656E-14
 -1      3464 8.12634E-03-5.51847E-05-3.19011E-14
 -1      3465 8.26569E-03-5.25387E-05-3.31136E-14
 -1      3466 8.06943E-03-2.38828E-05-3.12150E-14
 -1      3467 8.40541E-03-4.97284E-05-3.43439E-14
 -1      3468 8.54551E-03-4.67751E-05-3.55918E-14
 -1      3469 8.34623E-03-1.79219E-05-3.36378E-14
 -1      3470 8.68594E-03-4.36180E-05-3.68558E-14
 -1      3471 8.82669E-03-4.02805E-05-3.81373E-14
 -1      3472 8.62497E-03-1.13489E-05-3.61289E-14
 -1      3473 8.96771E-03-3.67241E-05-3.94369E-14
 -1      3474 9.10900E-03-3.29728E-05-4.07511E-14
 -1      3475 8.90534E-03-4.05560E-06-3.86902E-14
 -1      3476 9.25050E-03-2.90049E-05-4.20800E-14
 -1      3477 9.39221E-03-2.48436E-05-4.34274E-14
 -1      3478 9.18706E-03 3.99419E-06-4.13179E-14
 -1      3479 9.53409E-03-2.04797E-05-4.47868E-14
 -1      3480 9.67614E-03-1.59343E-05-4.61605E-14
 -1      3481 9.46985E-03 1.27840E-05-4.40068E-14
 -1      3482 9.81832E-03-1.12069E-05-4.75511E-14
 -1      3483 9.96062E-03-6.31621E-06-4.89581E-14
 -1      3484 9.75348E-03 2.22626E-05-4.67555E-14
 -1      3485 1.01030E-02-1.26702E-06-5.03772E-14
 -1      3486 1.02455E-02 3.92432E-06-5.18107E-14
 -1      3487 1.00378E-02 3.23585E-05-4.95660E-14
 -1      3488 1.03881E-02 9.25006E-06-5.32601E-14
 -1      3489 1.05307E-02 1.46963E-05-5.47244E-14
 -1      3490 1.03225E-02 4.29907E-05-5.24338E-14
 -1      3491 1.06734E-02 2.02540E-05-5.62011E-14
 -1      3492 1.08161E-02 2.59115E-05-5.76913E-14
 -1      3493 1.06076E-02 5.40774E-05-5.53601E-14
 -1      3494 1.09589E-02 3.16595E-05-5.92000E-14
 -1      3495 1.11017E-02 3.74886E-05-6.07232E-14
 -1      3496 1.08930E-02 6.55405E-05-5.83441E-14
 -1      3497 1.12445E-02 4.33896E-05-6.22583E-14
 -1      3498 1.13874E-02 4.93553E-05-6.38101E-14
 -1      3499 1.11785E-02 7.73092E-05-6.13880E-14
 -1      3500 1.15302E-02 5.53773E-05-6.53752E-14
 -1      3501 1.16731E-02 6.14497E-05-6.69568E-14
 -1      3502 1.14642E-02 8.93213E-05-6.44925E-14
 -1      3503 1.18160E-02 6.75654E-05-6.85545E-14
 -1      3504 1.19589E-02 7.37198E-05-7.01626E-14
 -1      3505 1.17499E-02 1.01524E-04-6.76559E-14
 -1      3506 1.21017E-02 7.99067E-05-7.17886E-14
 -1      3507 1.22446E-02 8.61228E-05-7.34308E-14
 -1      3508 1.20357E-02 1.13873E-04-7.08792E-14
 -1      3509 1.23875E-02 9.23628E-05-7.50848E-14
 -1      3510 1.25304E-02 9.86242E-05-7.67575E-14
 -1      3511 1.23215E-02 1.26331E-04-7.41621E-14
 -1      3512 1.26733E-02 1.04903E-04-7.84424E-14
 -1      3513 1.28162E-02 1.11196E-04-8.01410E-14
 -1      3514 1.26073E-02 1.38871E-04-7.75042E-14
 -1      3515 1.29591E-02 1.17502E-04-8.18551E-14
 -1      3516 1.31020E-02 1.23818E-04-8.35820E-14
 -1      3517 1.28931E-02 1.51469E-04-8.09018E-14
 -1      3518 1.32449E-02 1.30142E-04-8.53220E-14
 -1      3519 1.33878E-02 1.36472E-04-8.70735E-14
 -1      3520 1.31789E-02 1.64107E-04-8.43521E-14
 -1      3521 1.35307E-02 1.42807E-04-8.88388E-14
 -1      3522 1.36735E-02 1.49146E-04-9.06129E-14
 -1      3523 1.34646E-02 1.76770E-04-8.78545E-14
 -1      3524 5.65641E-03 4.19725E-04-1.22808E-14
 -1      3525 5.48317E-03 4.57971E-04-1.14832E-14
 -1      3526 3.15078E-03 8.78831E-04-3.90629E-15
 -1      3527 6.32060E-03 3.71501E-04-1.59862E-14
 -1      3528 6.17246E-03 3.78119E-04-1.50970E-14
 -1      3529 6.60872E-03 3.69105E-04-1.78307E-14
 -1      3530 6.46568E-03 3.68918E-04-1.68974E-14
 -1      3531 6.43082E-03 3.29723E-04-1.65718E-14
 -1      3532 6.89082E-03 3.76415E-04-1.97622E-14
 -1      3533 6.75020E-03 3.71820E-04-1.87857E-14
 -1      3534 6.70758E-03 3.34292E-04-1.84409E-14
 -1      3535 7.17056E-03 3.90044E-04-2.17794E-14
 -1      3536 7.03080E-03 3.82601E-04-2.07600E-14
 -1      3537 6.98132E-03 3.45627E-04-2.03969E-14
 -1      3538 7.44988E-03 4.07663E-04-2.38799E-14
 -1      3539 7.31017E-03 3.98462E-04-2.28191E-14
 -1      3540 7.25485E-03 3.61359E-04-2.24375E-14
 -1      3541 7.72973E-03 4.27572E-04-2.60602E-14
 -1      3542 7.58968E-03 4.17404E-04-2.49588E-14
 -1      3543 7.52951E-03 3.79846E-04-2.45612E-14
 -1      3544 8.01050E-03 4.48540E-04-2.83250E-14
 -1      3545 7.86998E-03 4.37973E-04-2.71830E-14
 -1      3546 7.80583E-03 3.99852E-04-2.67665E-14
 -1      3547 8.29225E-03 4.69707E-04-3.06673E-14
 -1      3548 8.15124E-03 4.59131E-04-2.94857E-14
 -1      3549 8.08390E-03 4.20464E-04-2.90516E-14
 -1      3550 8.57492E-03 4.90502E-04-3.30913E-14
 -1      3551 8.43347E-03 4.80170E-04-3.18694E-14
 -1      3552 8.36359E-03 4.41032E-04-3.14168E-14
 -1      3553 8.85835E-03 5.10583E-04-3.55961E-14
 -1      3554 8.71654E-03 5.00642E-04-3.43345E-14
 -1      3555 8.64469E-03 4.61125E-04-3.38642E-14
 -1      3556 9.14241E-03 5.29776E-04-3.81708E-14
 -1      3557 9.00030E-03 5.20294E-04-3.68738E-14
 -1      3558 8.92694E-03 4.80490E-04-3.63863E-14
 -1      3559 9.42695E-03 5.48025E-04-4.08208E-14
 -1      3560 9.28462E-03 5.39018E-04-3.94864E-14
 -1      3561 9.21012E-03 4.99005E-04-3.89820E-14
 -1      3562 9.71187E-03 5.65352E-04-4.35381E-14
 -1      3563 9.56937E-03 5.56800E-04-4.21733E-14
 -1      3564 9.49403E-03 5.16642E-04-4.16501E-14
 -1      3565 9.99706E-03 5.81828E-04-4.63207E-14
 -1      3566 9.85444E-03 5.73691E-04-4.49220E-14
 -1      3567 9.77849E-03 5.33437E-04-4.43864E-14
 -1      3568 1.02825E-02 5.97550E-04-4.91636E-14
 -1      3569 1.01397E-02 5.89778E-04-4.77333E-14
 -1      3570 1.00634E-02 5.49463E-04-4.71832E-14
 -1      3571 1.05680E-02 6.12622E-04-5.20682E-14
 -1      3572 1.04252E-02 6.05161E-04-5.06069E-14
 -1      3573 1.03485E-02 5.64813E-04-5.00409E-14
 -1      3574 1.08536E-02 6.27151E-04-5.50374E-14
 -1      3575 1.07108E-02 6.19949E-04-5.35458E-14
 -1      3576 1.06339E-02 5.79584E-04-5.29609E-14
 -1      3577 1.11393E-02 6.41233E-04-5.80753E-14
 -1      3578 1.09964E-02 6.34243E-04-5.65475E-14
 -1      3579 1.09195E-02 5.93873E-04-5.59451E-14
 -1      3580 1.14250E-02 6.54958E-04-6.11770E-14
 -1      3581 1.12822E-02 6.48136E-04-5.96184E-14
 -1      3582 1.12051E-02 6.07769E-04-5.89953E-14
 -1      3583 1.17108E-02 6.68399E-04-6.43448E-14
 -1      3584 1.15679E-02 6.61710E-04-6.27537E-14
 -1      3585 1.14908E-02 6.21350E-04-6.21115E-14
 -1      3586 1.19965E-02 6.81623E-04-6.75735E-14
 -1      3587 1.18537E-02 6.75035E-04-6.59499E-14
 -1      3588 1.17766E-02 6.34685E-04-6.52926E-14
 -1      3589 1.22823E-02 6.94680E-04-7.08630E-14
 -1      3590 1.21394E-02 6.88170E-04-6.92122E-14
 -1      3591 1.20623E-02 6.47829E-04-6.85351E-14
 -1      3592 1.25681E-02 7.07614E-04-7.42056E-14
 -1      3593 1.24252E-02 7.01160E-04-7.25263E-14
 -1      3594 1.23481E-02 6.60829E-04-7.18355E-14
 -1      3595 1.28538E-02 7.20459E-04-7.75983E-14
 -1      3596 1.27109E-02 7.14046E-04-7.58980E-14
 -1      3597 1.26339E-02 6.73723E-04-7.51903E-14
 -1      3598 1.31396E-02 7.33241E-04-8.10422E-14
 -1      3599 1.29967E-02 7.26857E-04-7.93136E-14
 -1      3600 1.29197E-02 6.86541E-04-7.85940E-14
 -1      3601 1.34253E-02 7.45982E-04-8.45246E-14
 -1      3602 1.32825E-02 7.39616E-04-8.27786E-14
 -1      3603 1.32054E-02 6.99306E-04-8.20452E-14
 -1      3604 1.37111E-02 7.58697E-04-8.80555E-14
 -1      3605 1.35682E-02 7.52342E-04-8.62838E-14
 -1      3606 1.34912E-02 7.12036E-04-8.55385E-14
 -1      3607 1.41767E-02 7.60264E-04-9.40037E-14
 -1      3608 1.38404E-02 3.60102E-04-9.17388E-14
 -1      3609 1.38466E-02 4.02272E-04-9.16155E-14
 -1      3610 8.28721E-04-1.44974E-06-7.93121E-16
 -1      3611 8.44645E-04-1.34161E-05-8.02188E-16
 -1      3612 9.11717E-04-1.89096E-05-9.10608E-16
 -1      3613 9.14668E-04 4.46353E-06-9.56714E-16
 -1      3614 1.40177E-02 1.28638E-04-9.51013E-14
 -1      3615 5.40013E-03-2.65440E-04-1.26927E-14
 -1      3616 1.38279E-02 2.75763E-04-9.19866E-14
 -1      3617 1.38341E-02 3.17932E-04-9.18638E-14
 -1      3618 1.37135E-02 3.33523E-04-9.02576E-14
 -1      3619 1.25995E-03-1.58286E-04-1.25052E-15
 -1      3620 1.40559E-03-1.78656E-04-1.50246E-15
 -1      3621 1.50140E-03-7.00327E-06-2.38734E-15
 -1      3622 1.44597E-03 1.50196E-05-2.38520E-15
 -1      3623 2.85683E-03-6.11033E-04-4.42863E-15
 -1      3624 1.55499E-03-2.00550E-04-1.77733E-15
 -1      3625 1.70950E-03-2.26050E-04-2.07571E-15
 -1      3626 1.43188E-03-1.48943E-04-1.63279E-15
 -1      3627 6.26167E-03 7.05680E-05-1.47194E-14
 -1      3628 6.16152E-03 4.02079E-05-1.45119E-14
 -1      3629 1.38513E-03 5.15423E-05-2.11282E-15
 -1      3630 1.46168E-03 6.96243E-05-2.15387E-15
 -1      3631 1.57041E-03 1.02587E-04-2.19243E-15
 -1      3632 1.70242E-03 1.46451E-04-2.25600E-15
 -1      3633 2.25703E-03-2.98651E-04-3.35338E-15
 -1      3634 2.07595E-03-2.19005E-04-3.08046E-15
 -1      3635 1.08939E-03-1.20741E-04-1.00710E-15
 -1      3636 1.17687E-03-1.40652E-04-1.12794E-15
 -1      3637 1.20857E-03-1.16977E-04-1.24237E-15
 -1      3638 1.05197E-03-8.97175E-05-1.00474E-15
 -1      3639 2.15408E-03 3.67986E-04-2.42120E-15
 -1      3640 6.02113E-03-6.03417E-06-1.42081E-14
 -1      3641 5.87848E-03-5.59242E-05-1.38810E-14
 -1      3642 1.84295E-03 2.00689E-04-2.33616E-15
 -1      3643 1.99334E-03 2.68761E-04-2.41498E-15
 -1      3644 1.69959E-03 1.70417E-04-2.08630E-15
 -1      3645 6.02037E-03 3.89025E-04-1.42284E-14
 -1      3646 5.86294E-03 4.06617E-04-1.33804E-14
 -1      3647 6.14588E-03 3.35816E-04-1.47873E-14
 -1      3648 1.38379E-02 1.45869E-04-9.27155E-14
 -1      3649 1.37719E-02 1.79831E-04-9.17218E-14
 -1      3650 1.40499E-02 7.33684E-04-9.25148E-14
 -1      3651 1.98640E-03 3.14137E-04-2.16675E-15
 -1      3652 1.22704E-03 1.52871E-04-1.00954E-15
 -1      3653 1.38653E-02 5.28336E-04-9.12275E-14
 -1      3654 1.38715E-02 5.70326E-04-9.10936E-14
 -1      3655 6.32621E-03 1.25678E-04-1.46914E-14
 -1      3656 6.40433E-03 1.21877E-04-1.54616E-14
 -1      3657 6.32247E-03 1.37609E-04-1.47356E-14
 -1      3658 2.16536E-03-3.26027E-04-3.00224E-15
 -1      3659 2.34706E-03-3.79859E-04-3.38759E-15
 -1      3660 1.85173E-03 2.86476E-04-1.90643E-15
 -1      3661 1.37780E-02 2.21638E-04-9.16075E-14
 -1      3662 5.57695E-03-2.12961E-04-1.34506E-14
 -1      3663 5.74144E-03-1.79443E-04-1.42975E-14
 -1      3664 5.80676E-03 3.46670E-04-1.28071E-14
 -1      3665 1.53872E-03-2.98174E-05-2.35332E-15
 -1      3666 1.43201E-03-1.42511E-05-2.14116E-15
 -1      3667 1.57764E-03-5.75357E-05-2.31779E-15
 -1      3668 5.80104E-03 2.77192E-04-1.22924E-14
 -1      3669 1.01609E-03-6.27613E-05-1.00010E-15
 -1      3670 1.08948E-03-7.28929E-05-1.11532E-15
 -1      3671 9.83308E-04-3.99771E-05-9.93780E-16
 -1      3672 2.65057E-03-5.15710E-04-3.97553E-15
 -1      3673 1.01732E-03 3.26981E-05-1.13508E-15
 -1      3674 1.01102E-03 2.17159E-05-1.15458E-15
 -1      3675 5.35558E-03 5.02204E-04-1.09865E-14
 -1      3676 6.11886E-03 1.69598E-04-1.34215E-14
 -1      3677 6.20959E-03 1.59536E-04-1.39977E-14
 -1      3678 6.08460E-03 1.93036E-04-1.34390E-14
 -1      3679 1.91600E-03-1.68307E-04-2.79670E-15
 -1      3680 1.76623E-03-1.29359E-04-2.52763E-15
 -1      3681 1.97483E-03-2.19837E-04-2.78290E-15
 -1      3682 6.14966E-03 1.16728E-05-1.49430E-14
 -1      3683 2.47774E-03-4.13771E-04-3.69167E-15
 -1      3684 2.00575E-03-2.69167E-04-2.72113E-15
 -1      3685 5.57242E-03-1.75289E-04-1.30504E-14
 -1      3686 1.03484E-03 4.47793E-05-1.11335E-15
 -1      3687 1.11215E-03 4.22427E-05-1.32064E-15
 -1      3688 1.06185E-03 6.03389E-05-1.08903E-15
 -1      3689 1.38528E-02 4.44353E-04-9.14876E-14
 -1      3690 1.38590E-02 4.86345E-04-9.13579E-14
 -1      3691 1.37384E-02 5.01844E-04-8.97509E-14
 -1      3692 1.84079E-03-2.34679E-04-2.37858E-15
 -1      3693 1.38831E-02 6.06063E-04-9.10554E-14
 -1      3694 1.38946E-02 6.41799E-04-9.10180E-14
 -1      3695 1.37562E-02 5.79571E-04-8.95821E-14
 -1      3696 6.43498E-03 9.66927E-05-1.59633E-14
 -1      3697 6.35228E-03 8.41260E-05-1.53379E-14
 -1      3698 6.37418E-03 6.64700E-05-1.58806E-14
 -1      3699 1.01344E-03 8.23996E-05-8.76998E-16
 -1      3700 1.36574E-02 2.37230E-04-9.00031E-14
 -1      3701 1.46162E-03 8.73048E-05-1.97569E-15
 -1      3702 1.34337E-03 4.25479E-05-2.05301E-15
 -1      3703 1.31995E-03 4.97508E-05-1.88092E-15
 -1      3704 1.31327E-03 3.58224E-05-1.99291E-15
 -1      3705 1.37259E-02 4.17773E-04-9.00084E-14
 -1      3706 5.89058E-03-1.12177E-04-1.46753E-14
 -1      3707 1.37168E-03 1.95557E-05-2.17242E-15
 -1      3708 5.73880E-03-1.05832E-04-1.34804E-14
 -1      3709 1.39822E-02 7.61522E-04-9.14949E-14
 -1      3710 1.38371E-02 7.61487E-04-8.96413E-14
 -1      3711 5.87625E-03-8.33051E-05-1.42227E-14
 -1      3712 1.69958E-03-1.70464E-04-2.20657E-15
 -1      3713 1.37601E-02 7.21183E-04-8.88827E-14
 -1      3714 1.35866E-02 3.06946E-04-8.87830E-14
 -1      3715 1.35929E-02 3.49114E-04-8.86620E-14
 -1      3716 1.69663E-03 2.12728E-04-1.83383E-15
 -1      3717 1.70024E-03 2.67498E-04-1.59788E-15
 -1      3718 1.31897E-03 1.08292E-05-1.95379E-15
 -1      3719 1.29967E-03 2.31295E-05-1.95237E-15
 -1      3720 5.97202E-03 2.78678E-04-1.34007E-14
 -1      3721 1.39538E-02 6.96131E-04-9.14854E-14
 -1      3722 6.42802E-03-3.43689E-05-1.77743E-14
 -1      3723 6.55741E-03-2.95414E-05-1.87228E-14
 -1      3724 6.68637E-03-2.53272E-05-1.96926E-14
 -1      3725 6.81589E-03-2.15345E-05-2.06848E-14
 -1      3726 6.65671E-03 3.83021E-06-1.91330E-14
 -1      3727 6.94572E-03-1.80188E-05-2.16964E-14
 -1      3728 7.07638E-03-1.47569E-05-2.27286E-14
 -1      3729 6.90764E-03 1.00348E-05-2.11105E-14
 -1      3730 7.20768E-03-1.16007E-05-2.37830E-14
 -1      3731 7.33989E-03-8.59414E-06-2.48579E-14
 -1      3732 7.16327E-03 1.62254E-05-2.31720E-14
 -1      3733 7.47286E-03-5.59553E-06-2.59536E-14
 -1      3734 7.60673E-03-2.65711E-06-2.70685E-14
 -1      3735 7.42358E-03 2.25362E-05-2.53170E-14
 -1      3736 7.74137E-03 3.46143E-07-2.82036E-14
 -1      3737 7.87683E-03 3.36429E-06-2.93576E-14
 -1      3738 7.68827E-03 2.90692E-05-2.75435E-14
 -1      3739 8.01301E-03 6.50213E-06-3.05292E-14
 -1      3740 8.14992E-03 9.71467E-06-3.17219E-14
 -1      3741 7.95690E-03 3.59414E-05-2.98484E-14
 -1      3742 8.28746E-03 1.30849E-05-3.29321E-14
 -1      3743 8.42563E-03 1.65724E-05-3.41587E-14
 -1      3744 8.22897E-03 4.32628E-05-3.22269E-14
 -1      3745 8.56434E-03 2.02394E-05-3.54040E-14
 -1      3746 8.70358E-03 2.40492E-05-3.66654E-14
 -1      3747 8.50397E-03 5.11167E-05-3.46795E-14
 -1      3748 8.84327E-03 2.80460E-05-3.79441E-14
 -1      3749 8.98338E-03 3.21969E-05-3.92402E-14
 -1      3750 8.78142E-03 5.95505E-05-3.72004E-14
 -1      3751 9.12387E-03 3.65308E-05-4.05536E-14
 -1      3752 9.26470E-03 4.10186E-05-4.18826E-14
 -1      3753 9.06088E-03 6.85758E-05-3.97898E-14
 -1      3754 9.40581E-03 4.56777E-05-4.32273E-14
 -1      3755 9.54720E-03 5.04825E-05-4.45859E-14
 -1      3756 9.34195E-03 7.81743E-05-4.24481E-14
 -1      3757 9.68881E-03 5.54417E-05-4.59601E-14
 -1      3758 9.83064E-03 6.05333E-05-4.73505E-14
 -1      3759 9.62429E-03 8.83058E-05-4.51663E-14
 -1      3760 9.97263E-03 6.57601E-05-4.87551E-14
 -1      3761 1.01148E-02 7.11035E-05-5.01737E-14
 -1      3762 9.90762E-03 9.89165E-05-4.79445E-14
 -1      3763 1.02571E-02 7.65622E-05-5.16070E-14
 -1      3764 1.03995E-02 8.21207E-05-5.30559E-14
 -1      3765 1.01917E-02 1.09946E-04-5.07824E-14
 -1      3766 1.05419E-02 8.77754E-05-5.45195E-14
 -1      3767 1.06845E-02 9.35137E-05-5.59953E-14
 -1      3768 1.04763E-02 1.21333E-04-5.36777E-14
 -1      3769 1.08271E-02 9.93306E-05-5.74878E-14
 -1      3770 1.09698E-02 1.05216E-04-5.89950E-14
 -1      3771 1.07614E-02 1.33017E-04-5.66327E-14
 -1      3772 1.11126E-02 1.11165E-04-6.05180E-14
 -1      3773 1.12554E-02 1.17168E-04-6.20556E-14
 -1      3774 1.10467E-02 1.44946E-04-5.96468E-14
 -1      3775 1.13982E-02 1.23221E-04-6.36068E-14
 -1      3776 1.15410E-02 1.29318E-04-6.51735E-14
 -1      3777 1.13322E-02 1.57070E-04-6.27231E-14
 -1      3778 1.16839E-02 1.35453E-04-6.67564E-14
 -1      3779 1.18268E-02 1.41622E-04-6.83544E-14
 -1      3780 1.16179E-02 1.69348E-04-6.58585E-14
 -1      3781 1.19696E-02 1.47820E-04-6.99685E-14
 -1      3782 1.21125E-02 1.54044E-04-7.15956E-14
 -1      3783 1.19036E-02 1.81746E-04-6.90550E-14
 -1      3784 1.22554E-02 1.60290E-04-7.32369E-14
 -1      3785 1.23983E-02 1.66554E-04-7.48943E-14
 -1      3786 1.21894E-02 1.94234E-04-7.23132E-14
 -1      3787 1.25412E-02 1.72834E-04-7.65668E-14
 -1      3788 1.26841E-02 1.79129E-04-7.82530E-14
 -1      3789 1.24752E-02 2.06790E-04-7.56300E-14
 -1      3790 1.28270E-02 1.85434E-04-7.99514E-14
 -1      3791 1.29699E-02 1.91749E-04-8.16635E-14
 -1      3792 1.27610E-02 2.19396E-04-7.90034E-14
 -1      3793 1.31128E-02 1.98071E-04-8.33881E-14
 -1      3794 1.32557E-02 2.04401E-04-8.51232E-14
 -1      3795 1.30468E-02 2.32035E-04-8.24249E-14
 -1      3796 6.80125E-03 3.03410E-04-1.90549E-14
 -1      3797 6.66825E-03 2.97945E-04-1.80962E-14
 -1      3798 6.01759E-03-6.86093E-05-1.50907E-14
 -1      3799 6.53523E-03 2.93696E-04-1.71597E-14
 -1      3800 6.40104E-03 2.91331E-04-1.62448E-14
 -1      3801 6.63214E-03 2.62662E-04-1.77510E-14
 -1      3802 7.33570E-03 3.34381E-04-2.30992E-14
 -1      3803 7.20126E-03 3.25603E-04-2.20567E-14
 -1      3804 7.60645E-03 3.53138E-04-2.52468E-14
 -1      3805 7.47071E-03 3.43572E-04-2.41632E-14
 -1      3806 7.41303E-03 3.08607E-04-2.37638E-14
 -1      3807 7.87987E-03 3.72845E-04-2.74748E-14
 -1      3808 7.74281E-03 3.62901E-04-2.63495E-14
 -1      3809 7.68072E-03 3.27149E-04-2.59349E-14
 -1      3810 8.15575E-03 3.92836E-04-2.97814E-14
 -1      3811 8.01750E-03 3.82824E-04-2.86187E-14
 -1      3812 7.95189E-03 3.46248E-04-2.81840E-14
 -1      3813 8.43379E-03 4.12630E-04-3.21701E-14
 -1      3814 8.29451E-03 4.02770E-04-3.09673E-14
 -1      3815 8.22609E-03 3.65423E-04-3.05162E-14
 -1      3816 8.71363E-03 4.31905E-04-3.46378E-14
 -1      3817 8.57349E-03 4.22338E-04-3.33918E-14
 -1      3818 8.50287E-03 3.84320E-04-3.29254E-14
 -1      3819 8.99495E-03 4.50476E-04-3.71799E-14
 -1      3820 8.85412E-03 4.41279E-04-3.59009E-14
 -1      3821 8.78177E-03 4.02702E-04-3.54126E-14
 -1      3822 9.27744E-03 4.68263E-04-3.97948E-14
 -1      3823 9.13606E-03 4.59465E-04-3.84788E-14
 -1      3824 9.06238E-03 4.20436E-04-3.79757E-14
 -1      3825 9.56084E-03 4.85257E-04-4.24835E-14
 -1      3826 9.41904E-03 4.76854E-04-4.11313E-14
 -1      3827 9.34436E-03 4.37471E-04-4.06111E-14
 -1      3828 9.84494E-03 5.01501E-04-4.52333E-14
 -1      3829 9.70281E-03 4.93467E-04-4.38496E-14
 -1      3830 9.62739E-03 4.53813E-04-4.33150E-14
 -1      3831 1.01296E-02 5.17068E-04-4.80457E-14
 -1      3832 9.98719E-03 5.09363E-04-4.66323E-14
 -1      3833 9.91122E-03 4.69505E-04-4.60812E-14
 -1      3834 1.04146E-02 5.32042E-04-5.09170E-14
 -1      3835 1.02720E-02 5.24623E-04-4.94730E-14
 -1      3836 1.01957E-02 4.84614E-04-4.89070E-14
 -1      3837 1.06998E-02 5.46512E-04-5.38514E-14
 -1      3838 1.05572E-02 5.39334E-04-5.23768E-14
 -1      3839 1.04805E-02 4.99218E-04-5.17937E-14
 -1      3840 1.09853E-02 5.60564E-04-5.68508E-14
 -1      3841 1.08426E-02 5.53585E-04-5.53436E-14
 -1      3842 1.07658E-02 5.13393E-04-5.47426E-14
 -1      3843 1.12709E-02 5.74276E-04-5.99165E-14
 -1      3844 1.11281E-02 5.67458E-04-5.83761E-14
 -1      3845 1.10512E-02 5.27215E-04-5.77571E-14
 -1      3846 1.15566E-02 5.87719E-04-6.30459E-14
 -1      3847 1.14138E-02 5.81028E-04-6.14713E-14
 -1      3848 1.13368E-02 5.40751E-04-6.08366E-14
 -1      3849 1.18424E-02 6.00949E-04-6.62389E-14
 -1      3850 1.16995E-02 5.94357E-04-6.46358E-14
 -1      3851 1.16225E-02 5.54060E-04-6.39785E-14
 -1      3852 1.21281E-02 6.14018E-04-6.94980E-14
 -1      3853 1.19853E-02 6.07502E-04-6.78607E-14
 -1      3854 1.19082E-02 5.67193E-04-6.71887E-14
 -1      3855 1.24139E-02 6.26965E-04-7.28075E-14
 -1      3856 1.22710E-02 6.20505E-04-7.11457E-14
 -1      3857 1.21940E-02 5.80191E-04-7.04566E-14
 -1      3858 1.26997E-02 6.39822E-04-7.61742E-14
 -1      3859 1.25568E-02 6.33403E-04-7.44846E-14
 -1      3860 1.24798E-02 5.93088E-04-7.37808E-14
 -1      3861 1.29855E-02 6.52615E-04-7.95865E-14
 -1      3862 1.28426E-02 6.46225E-04-7.78731E-14
 -1      3863 1.27656E-02 6.05911E-04-7.71543E-14
 -1      3864 1.32713E-02 6.65364E-04-8.30465E-14
 -1      3865 1.31284E-02 6.58994E-04-8.13126E-14
 -1      3866 1.30514E-02 6.18682E-04-8.05788E-14
 -1      3867 1.35571E-02 6.78085E-04-8.65533E-14
 -1      3868 1.34142E-02 6.71728E-04-8.47953E-14
 -1      3869 1.33372E-02 6.31418E-04-8.40502E-14
 -1      3870 1.57219E-03 2.46814E-04-1.37737E-15
 -1      3871 1.57356E-03 1.63394E-04-1.76621E-15
 -1      3872 1.09694E-03 1.88510E-05-1.36386E-15
 -1      3873 1.01566E-03 1.08807E-05-1.17059E-15
 -1      3874 1.31476E-03-1.05884E-04-1.49316E-15
 -1      3875 1.45142E-03-1.18488E-04-1.76450E-15
 -1      3876 1.35007E-02 2.14795E-04-8.81332E-14
 -1      3877 1.35506E-02 2.68917E-04-8.85090E-14
 -1      3878 1.34299E-02 2.84509E-04-8.69246E-14
 -1      3879 1.33578E-02 2.08458E-04-8.63744E-14
 -1      3880 1.38269E-02 6.69640E-04-9.00089E-14
 -1      3881 1.13919E-03 1.04353E-04-1.03292E-15
 -1      3882 1.09766E-03 7.98537E-05-1.06250E-15
 -1      3883 1.17655E-03 7.62529E-05-1.26605E-15
 -1      3884 1.36115E-02 4.75352E-04-8.82826E-14
 -1      3885 1.36178E-02 5.17341E-04-8.81523E-14
 -1      3886 6.27135E-03 2.41396E-05-1.57255E-14
 -1      3887 6.14268E-03-2.09723E-05-1.54080E-14
 -1      3888 1.30509E-03 8.07792E-05-1.56735E-15
 -1      3889 1.39886E-03 1.12367E-04-1.59867E-15
 -1      3890 1.31795E-03 1.50624E-04-1.21070E-15
 -1      3891 1.55153E-03-1.23937E-04-1.98694E-15
 -1      3892 1.66466E-03-1.22754E-04-2.27779E-15
 -1      3893 1.61321E-03-8.44896E-05-2.29055E-15
 -1      3894 1.42703E-03-8.07202E-05-1.82928E-15
 -1      3895 6.26597E-03 2.91028E-04-1.53492E-14
 -1      3896 6.12770E-03 2.93857E-04-1.44761E-14
 -1      3897 6.37657E-03 2.53633E-04-1.59156E-14
 -1      3898 1.35991E-02 3.91193E-04-8.85372E-14
 -1      3899 1.36053E-02 4.33272E-04-8.84094E-14
 -1      3900 1.34722E-02 3.64615E-04-8.70747E-14
 -1      3901 7.06751E-03 3.17436E-04-2.10344E-14
 -1      3902 6.93413E-03 3.09975E-04-2.00341E-14
 -1      3903 7.14913E-03 2.91209E-04-2.16745E-14
 -1      3904 6.10622E-03 2.31193E-04-1.39342E-14
 -1      3905 6.15970E-03-4.67872E-05-1.58784E-14
 -1      3906 1.37009E-02 6.66853E-04-8.84245E-14
 -1      3907 6.46593E-03 1.20096E-04-1.60663E-14
 -1      3908 6.45319E-03 1.08546E-04-1.60157E-14
 -1      3909 6.49388E-03 9.35677E-05-1.65740E-14
 -1      3910 6.29107E-03-3.95300E-05-1.67842E-14
 -1      3911 1.24897E-03 2.83810E-05-1.78633E-15
 -1      3912 1.35024E-02 5.26584E-04-8.66584E-14
 -1      3913 1.36293E-02 5.53078E-04-8.81160E-14
 -1      3914 1.36409E-02 5.88814E-04-8.80777E-14
 -1      3915 6.40273E-03-2.18315E-06-1.71763E-14
 -1      3916 6.88903E-03 2.75652E-04-1.96703E-14
 -1      3917 1.49076E-03-5.79767E-05-2.08098E-15
 -1      3918 1.32918E-02 2.42423E-04-8.53991E-14
 -1      3919 1.01249E-03-7.59705E-07-1.14770E-15
 -1      3920 6.38342E-03 4.75563E-05-1.62837E-14
 -1      3921 6.39303E-03 2.14433E-05-1.67701E-14
 -1      3922 6.51736E-03 2.32172E-05-1.77581E-14
 -1      3923 6.48663E-03 6.34311E-05-1.69300E-14
 -1      3924 9.93502E-04-1.16197E-05-1.08390E-15
 -1      3925 9.99298E-04-2.66910E-05-1.05826E-15
 -1      3926 1.06568E-03-3.23472E-05-1.17633E-15
 -1      3927 1.09317E-03-5.47623E-06-1.31289E-15
 -1      3928 1.16387E-03 2.34087E-05-1.53850E-15
 -1      3929 1.17660E-03 1.05282E-05-1.55824E-15
 -1      3930 1.49122E-03 2.08023E-04-1.34951E-15
 -1      3931 6.31173E-03 1.52614E-04-1.47605E-14
 -1      3932 6.40635E-03 1.47707E-04-1.55361E-14
 -1      3933 6.29567E-03 1.69553E-04-1.47829E-14
 -1      3934 1.25865E-03 5.93788E-05-1.60009E-15
 -1      3935 1.34847E-02 4.48770E-04-8.68228E-14
 -1      3936 1.21065E-03 4.89377E-05-1.54823E-15
 -1      3937 1.38060E-03 1.43765E-04-1.38275E-15
 -1      3938 1.16141E-03-8.23274E-05-1.23408E-15
 -1      3939 1.23885E-03-9.44841E-05-1.36215E-15
 -1      3940 1.26092E-03-6.96665E-05-1.48109E-15
 -1      3941 1.12026E-03-5.40698E-05-1.22665E-15
 -1      3942 1.19008E-03 3.57225E-05-1.57560E-15
 -1      3943 1.33969E-03-2.65946E-06-1.94360E-15
 -1      3944 1.25122E-03 4.40467E-06-1.73583E-15
 -1      3945 1.18587E-03-8.02375E-08-1.54840E-15
 -1      3946 1.35996E-03-1.98779E-05-1.91121E-15
 -1      3947 6.63633E-03 2.58398E-05-1.87070E-14
 -1      3948 6.75742E-03 2.84798E-05-1.96758E-14
 -1      3949 6.61637E-03 4.65551E-05-1.82820E-14
 -1      3950 6.21183E-03 2.14418E-04-1.45225E-14
 -1      3951 6.88004E-03 3.14100E-05-2.06652E-14
 -1      3952 7.00449E-03 3.43797E-05-2.16759E-14
 -1      3953 6.85238E-03 5.17226E-05-2.02217E-14
 -1      3954 7.13043E-03 3.75869E-05-2.27078E-14
 -1      3955 7.25795E-03 4.08304E-05-2.37599E-14
 -1      3956 7.09737E-03 5.80424E-05-2.22445E-14
 -1      3957 7.38683E-03 4.42568E-05-2.48339E-14
 -1      3958 7.51707E-03 4.77283E-05-2.59282E-14
 -1      3959 7.34983E-03 6.51919E-05-2.43515E-14
 -1      3960 7.64852E-03 5.13590E-05-2.70421E-14
 -1      3961 7.78114E-03 5.50504E-05-2.81758E-14
 -1      3962 7.60855E-03 7.29560E-05-2.65414E-14
 -1      3963 7.91480E-03 5.88946E-05-2.93286E-14
 -1      3964 8.04947E-03 6.28189E-05-3.04997E-14
 -1      3965 7.87255E-03 8.12356E-05-2.88104E-14
 -1      3966 8.18503E-03 6.68965E-05-3.16908E-14
 -1      3967 8.32142E-03 7.10710E-05-3.29004E-14
 -1      3968 8.14098E-03 8.99938E-05-3.11553E-14
 -1      3969 8.45857E-03 7.53988E-05-3.41269E-14
 -1      3970 8.59642E-03 7.98346E-05-3.53715E-14
 -1      3971 8.41312E-03 9.92175E-05-3.35749E-14
 -1      3972 8.73488E-03 8.44202E-05-3.66328E-14
 -1      3973 8.87392E-03 8.91182E-05-3.79119E-14
 -1      3974 8.68833E-03 1.08896E-04-3.60660E-14
 -1      3975 9.01346E-03 9.39582E-05-3.92086E-14
 -1      3976 9.15345E-03 9.89092E-05-4.05226E-14
 -1      3977 8.96604E-03 1.19012E-04-3.86273E-14
 -1      3978 9.29385E-03 1.03991E-04-4.18525E-14
 -1      3979 9.43461E-03 1.09177E-04-4.31990E-14
 -1      3980 9.24577E-03 1.29538E-04-4.12582E-14
 -1      3981 9.57568E-03 1.14481E-04-4.45588E-14
 -1      3982 9.71703E-03 1.19879E-04-4.59349E-14
 -1      3983 9.52709E-03 1.40438E-04-4.39524E-14
 -1      3984 9.85863E-03 1.25380E-04-4.73250E-14
 -1      3985 1.00004E-02 1.30966E-04-4.87309E-14
 -1      3986 9.80966E-03 1.51672E-04-4.67062E-14
 -1      3987 1.01424E-02 1.36638E-04-5.01516E-14
 -1      3988 1.02846E-02 1.42384E-04-5.15858E-14
 -1      3989 1.00932E-02 1.63197E-04-4.95197E-14
 -1      3990 1.04269E-02 1.48202E-04-5.30362E-14
 -1      3991 1.05693E-02 1.54082E-04-5.44998E-14
 -1      3992 1.03774E-02 1.74969E-04-5.23944E-14
 -1      3993 1.07118E-02 1.60021E-04-5.59786E-14
 -1      3994 1.08543E-02 1.66011E-04-5.74727E-14
 -1      3995 1.06622E-02 1.86948E-04-5.53248E-14
 -1      3996 1.09970E-02 1.72049E-04-5.89830E-14
 -1      3997 1.11397E-02 1.78128E-04-6.05091E-14
 -1      3998 1.09473E-02 1.99096E-04-5.83195E-14
 -1      3999 1.12825E-02 1.84246E-04-6.20489E-14
 -1      4000 1.14252E-02 1.90396E-04-6.36019E-14
 -1      4001 1.12327E-02 2.11381E-04-6.13732E-14
 -1      4002 1.15681E-02 1.96575E-04-6.51730E-14
 -1      4003 1.17109E-02 2.02781E-04-6.67587E-14
 -1      4004 1.15183E-02 2.23774E-04-6.44880E-14
 -1      4005 1.18538E-02 2.09008E-04-6.83591E-14
 -1      4006 1.19967E-02 2.15256E-04-6.99778E-14
 -1      4007 1.18040E-02 2.36252E-04-6.76645E-14
 -1      4008 1.21396E-02 2.21520E-04-7.16075E-14
 -1      4009 1.22825E-02 2.27799E-04-7.32535E-14
 -1      4010 1.20897E-02 2.48794E-04-7.09015E-14
 -1      4011 1.24254E-02 2.34091E-04-7.49167E-14
 -1      4012 1.25683E-02 2.40393E-04-7.65925E-14
 -1      4013 1.23756E-02 2.61384E-04-7.42015E-14
 -1      4014 1.27112E-02 2.46705E-04-7.82785E-14
 -1      4015 1.28541E-02 2.53024E-04-7.99788E-14
 -1      4016 1.26614E-02 2.74010E-04-7.75550E-14
 -1      4017 1.29970E-02 2.59349E-04-8.16920E-14
 -1      4018 1.31399E-02 2.65680E-04-8.34153E-14
 -1      4019 1.29472E-02 2.86661E-04-8.09585E-14
 -1      4020 6.72126E-03 2.36112E-04-1.83443E-14
 -1      4021 6.59847E-03 2.29435E-04-1.74042E-14
 -1      4022 7.75239E-03 3.01707E-04-2.66235E-14
 -1      4023 7.61909E-03 2.92659E-04-2.55168E-14
 -1      4024 7.48694E-03 2.83794E-04-2.44307E-14
 -1      4025 7.35591E-03 2.75048E-04-2.33634E-14
 -1      4026 7.55762E-03 2.59440E-04-2.50987E-14
 -1      4027 8.29497E-03 3.38132E-04-3.12523E-14
 -1      4028 8.15805E-03 3.29040E-04-3.00650E-14
 -1      4029 8.57087E-03 3.56033E-04-3.36821E-14
 -1      4030 8.43259E-03 3.47120E-04-3.24580E-14
 -1      4031 8.36252E-03 3.10762E-04-3.19894E-14
 -1      4032 8.84913E-03 3.73465E-04-3.61908E-14
 -1      4033 8.70973E-03 3.64806E-04-3.49265E-14
 -1      4034 8.63790E-03 3.27618E-04-3.44427E-14
 -1      4035 9.12927E-03 3.90332E-04-3.87734E-14
 -1      4036 8.98898E-03 3.81965E-04-3.74739E-14
 -1      4037 8.91578E-03 3.44078E-04-3.69709E-14
 -1      4038 9.41089E-03 4.06601E-04-4.14286E-14
 -1      4039 9.26991E-03 3.98536E-04-4.00919E-14
 -1      4040 9.19565E-03 3.60075E-04-3.95742E-14
 -1      4041 9.69368E-03 4.22287E-04-4.41463E-14
 -1      4042 9.55216E-03 4.14512E-04-4.27798E-14
 -1      4043 9.47708E-03 3.75588E-04-4.22448E-14
 -1      4044 9.97734E-03 4.37430E-04-4.69294E-14
 -1      4045 9.83541E-03 4.29920E-04-4.55303E-14
 -1      4046 9.75973E-03 3.90632E-04-4.49803E-14
 -1      4047 1.02617E-02 4.52089E-04-4.97694E-14
 -1      4048 1.01194E-02 4.44815E-04-4.83432E-14
 -1      4049 1.00433E-02 4.05243E-04-4.77766E-14
 -1      4050 1.05465E-02 4.66331E-04-5.26710E-14
 -1      4051 1.04040E-02 4.59257E-04-5.12117E-14
 -1      4052 1.03276E-02 4.19470E-04-5.06315E-14
 -1      4053 1.08316E-02 4.80221E-04-5.56343E-14
 -1      4054 1.06890E-02 4.73315E-04-5.41445E-14
 -1      4055 1.06124E-02 4.33366E-04-5.35489E-14
 -1      4056 1.11170E-02 4.93822E-04-5.86635E-14
 -1      4057 1.09743E-02 4.87054E-04-5.71405E-14
 -1      4058 1.08975E-02 4.46986E-04-5.65261E-14
 -1      4059 1.14026E-02 5.07190E-04-6.17552E-14
 -1      4060 1.12598E-02 5.00532E-04-6.02018E-14
 -1      4061 1.11829E-02 4.60379E-04-5.95679E-14
 -1      4062 1.16883E-02 5.20373E-04-6.49147E-14
 -1      4063 1.15454E-02 5.13802E-04-6.33274E-14
 -1      4064 1.14685E-02 4.73589E-04-6.26766E-14
 -1      4065 1.19741E-02 5.33414E-04-6.81353E-14
 -1      4066 1.18312E-02 5.26909E-04-6.65155E-14
 -1      4067 1.17542E-02 4.86656E-04-6.58484E-14
 -1      4068 1.22598E-02 5.46347E-04-7.14156E-14
 -1      4069 1.21169E-02 5.39892E-04-6.97696E-14
 -1      4070 1.20399E-02 4.99613E-04-6.90820E-14
 -1      4071 1.25456E-02 5.59198E-04-7.47517E-14
 -1      4072 1.24027E-02 5.52781E-04-7.30768E-14
 -1      4073 1.23257E-02 5.12486E-04-7.23755E-14
 -1      4074 1.28315E-02 5.71991E-04-7.81369E-14
 -1      4075 1.26885E-02 5.65601E-04-7.64392E-14
 -1      4076 1.26115E-02 5.25297E-04-7.57229E-14
 -1      4077 1.31173E-02 5.84743E-04-8.15709E-14
 -1      4078 1.29744E-02 5.78371E-04-7.98476E-14
 -1      4079 1.28973E-02 5.38063E-04-7.91187E-14
 -1      4080 1.36239E-02 6.26544E-04-8.76684E-14
 -1      4081 1.40483E-03-5.83104E-05-1.85855E-15
 -1      4082 1.38116E-03-3.77336E-05-1.88437E-15
 -1      4083 1.28269E-03-2.32063E-05-1.69974E-15
 -1      4084 1.31639E-03-5.83639E-05-1.64579E-15
 -1      4085 6.97086E-03 2.50559E-04-2.02882E-14
 -1      4086 6.84520E-03 2.43065E-04-1.93056E-14
 -1      4087 6.80214E-03 2.12273E-04-1.89392E-14
 -1      4088 1.32339E-02 2.73063E-04-8.45411E-14
 -1      4089 1.33360E-02 2.77123E-04-8.57884E-14
 -1      4090 1.33720E-02 3.15149E-04-8.60596E-14
 -1      4091 1.31841E-02 3.00377E-04-8.37994E-14
 -1      4092 1.33578E-02 4.22235E-04-8.53691E-14
 -1      4093 1.33640E-02 4.64311E-04-8.52414E-14
 -1      4094 8.02195E-03 3.19936E-04-2.88968E-14
 -1      4095 7.88668E-03 3.10784E-04-2.77494E-14
 -1      4096 8.09021E-03 2.93639E-04-2.96134E-14
 -1      4097 1.33618E-02 3.47654E-04-8.57801E-14
 -1      4098 1.33680E-02 3.89730E-04-8.56564E-14
 -1      4099 1.32474E-02 4.05272E-04-8.40854E-14
 -1      4100 1.32678E-02 3.40266E-04-8.46499E-14
 -1      4101 7.22623E-03 2.66605E-04-2.23166E-14
 -1      4102 7.09778E-03 2.58371E-04-2.12917E-14
 -1      4103 7.04678E-03 2.27121E-04-2.09083E-14
 -1      4104 6.33216E-03 2.02130E-04-1.52994E-14
 -1      4105 1.34970E-02 6.00049E-04-8.62142E-14
 -1      4106 6.49762E-03 1.40860E-04-1.63258E-14
 -1      4107 6.55655E-03 1.26516E-04-1.68950E-14
 -1      4108 1.33756E-02 5.00046E-04-8.52072E-14
 -1      4109 1.33871E-02 5.35780E-04-8.51695E-14
 -1      4110 1.32487E-02 4.73507E-04-8.37636E-14
 -1      4111 7.82165E-03 2.76446E-04-2.73158E-14
 -1      4112 7.29898E-03 2.42911E-04-2.29617E-14
 -1      4113 6.49758E-03 1.55229E-04-1.63534E-14
 -1      4114 1.32272E-02 5.67149E-04-8.30220E-14
 -1      4115 1.31502E-02 5.26840E-04-8.22787E-14
 -1      4116 1.33701E-02 5.73508E-04-8.47647E-14
 -1      4117 1.24629E-03-5.11336E-05-1.50863E-15
 -1      4118 6.57300E-03 8.30658E-05-1.74381E-14
 -1      4119 6.59536E-03 6.56528E-05-1.78596E-14
 -1      4120 6.70803E-03 6.78809E-05-1.88093E-14
 -1      4121 1.17586E-03-1.40666E-05-1.47569E-15
 -1      4122 1.13069E-03-3.73341E-05-1.29786E-15
 -1      4123 6.44837E-03 2.07704E-04-1.61924E-14
 -1      4124 6.53543E-03 1.83659E-04-1.67568E-14
 -1      4125 6.59643E-03 9.64239E-05-1.74947E-14
 -1      4126 7.62531E-03 2.35328E-04-2.57691E-14
 -1      4127 7.49568E-03 2.27473E-04-2.46793E-14
 -1      4128 6.82374E-03 7.08389E-05-1.97794E-14
 -1      4129 6.94242E-03 7.39952E-05-2.07703E-14
 -1      4130 6.79385E-03 8.87738E-05-1.93386E-14
 -1      4131 7.06346E-03 7.75825E-05-2.17828E-14
 -1      4132 7.18683E-03 8.13292E-05-2.28162E-14
 -1      4133 7.02849E-03 9.61446E-05-2.13230E-14
 -1      4134 7.31214E-03 8.53658E-05-2.38705E-14
 -1      4135 7.43931E-03 8.95274E-05-2.49463E-14
 -1      4136 7.27359E-03 1.04749E-04-2.33910E-14
 -1      4137 7.56805E-03 9.38940E-05-2.60418E-14
 -1      4138 7.69832E-03 9.83646E-05-2.71572E-14
 -1      4139 7.52689E-03 1.14154E-04-2.55433E-14
 -1      4140 7.82990E-03 1.02997E-04-2.82923E-14
 -1      4141 7.96272E-03 1.07720E-04-2.94458E-14
 -1      4142 7.78674E-03 1.24164E-04-2.77752E-14
 -1      4143 8.09665E-03 1.12581E-04-3.06197E-14
 -1      4144 8.23160E-03 1.17526E-04-3.18132E-14
 -1      4145 8.05194E-03 1.34646E-04-3.00860E-14
 -1      4146 8.36747E-03 1.22592E-04-3.30244E-14
 -1      4147 8.50418E-03 1.27738E-04-3.42527E-14
 -1      4148 8.32155E-03 1.45512E-04-3.24735E-14
 -1      4149 8.64164E-03 1.32991E-04-3.55001E-14
 -1      4150 8.77979E-03 1.38320E-04-3.67646E-14
 -1      4151 8.59477E-03 1.56695E-04-3.49336E-14
 -1      4152 8.91854E-03 1.43744E-04-3.80462E-14
 -1      4153 9.05785E-03 1.49239E-04-3.93459E-14
 -1      4154 8.87093E-03 1.68146E-04-3.74666E-14
 -1      4155 9.19765E-03 1.54818E-04-4.06628E-14
 -1      4156 9.33788E-03 1.60462E-04-4.19965E-14
 -1      4157 9.14945E-03 1.79825E-04-4.00669E-14
 -1      4158 9.47849E-03 1.66179E-04-4.33455E-14
 -1      4159 9.61945E-03 1.71953E-04-4.47086E-14
 -1      4160 9.42985E-03 1.91696E-04-4.27379E-14
 -1      4161 9.76070E-03 1.77790E-04-4.60880E-14
 -1      4162 9.90221E-03 1.83678E-04-4.74817E-14
 -1      4163 9.71172E-03 2.03729E-04-4.54680E-14
 -1      4164 1.00439E-02 1.89619E-04-4.88906E-14
 -1      4165 1.01859E-02 1.95602E-04-5.03143E-14
 -1      4166 9.99471E-03 2.15899E-04-4.82604E-14
 -1      4167 1.03280E-02 2.01630E-04-5.17531E-14
 -1      4168 1.04702E-02 2.07694E-04-5.32065E-14
 -1      4169 1.02786E-02 2.28182E-04-5.11117E-14
 -1      4170 1.06126E-02 2.13794E-04-5.46733E-14
 -1      4171 1.07551E-02 2.19924E-04-5.61559E-14
 -1      4172 1.05630E-02 2.40558E-04-5.40208E-14
 -1      4173 1.08976E-02 2.26084E-04-5.76554E-14
 -1      4174 1.10403E-02 2.32267E-04-5.91699E-14
 -1      4175 1.08480E-02 2.53008E-04-5.69921E-14
 -1      4176 1.11830E-02 2.38473E-04-6.06987E-14
 -1      4177 1.13257E-02 2.44699E-04-6.22415E-14
 -1      4178 1.11333E-02 2.65519E-04-6.00221E-14
 -1      4179 1.14685E-02 2.50942E-04-6.38025E-14
 -1      4180 1.16113E-02 2.57201E-04-6.53776E-14
 -1      4181 1.14188E-02 2.78078E-04-6.31159E-14
 -1      4182 1.17542E-02 2.63474E-04-6.69679E-14
 -1      4183 1.18971E-02 2.69758E-04-6.85756E-14
 -1      4184 1.17044E-02 2.90673E-04-6.62722E-14
 -1      4185 1.20399E-02 2.76053E-04-7.01972E-14
 -1      4186 1.21828E-02 2.82357E-04-7.18338E-14
 -1      4187 1.19901E-02 3.03297E-04-6.94896E-14
 -1      4188 1.23257E-02 2.88668E-04-7.34853E-14
 -1      4189 1.24686E-02 2.94986E-04-7.51527E-14
 -1      4190 1.22759E-02 3.15942E-04-7.27710E-14
 -1      4191 1.26116E-02 3.01309E-04-7.68327E-14
 -1      4192 1.27545E-02 3.07638E-04-7.85227E-14
 -1      4193 1.25618E-02 3.28603E-04-7.61060E-14
 -1      4194 7.11713E-03 2.04868E-04-2.15297E-14
 -1      4195 6.99493E-03 1.97559E-04-2.05231E-14
 -1      4196 8.98179E-03 3.14500E-04-3.77532E-14
 -1      4197 8.84262E-03 3.06791E-04-3.64698E-14
 -1      4198 7.88869E-03 2.51215E-04-2.80105E-14
 -1      4199 7.75633E-03 2.43213E-04-2.68796E-14
 -1      4200 7.69040E-03 2.11078E-04-2.64426E-14
 -1      4201 8.70404E-03 2.99015E-04-3.52033E-14
 -1      4202 8.56608E-03 2.91146E-04-3.39572E-14
 -1      4203 8.76941E-03 2.70117E-04-3.59668E-14
 -1      4204 8.42885E-03 2.83233E-04-3.27297E-14
 -1      4205 8.29239E-03 2.75244E-04-3.15212E-14
 -1      4206 8.49412E-03 2.55399E-04-3.34721E-14
 -1      4207 9.26158E-03 3.29636E-04-4.03757E-14
 -1      4208 9.12146E-03 3.22108E-04-3.90554E-14
 -1      4209 9.04725E-03 2.84648E-04-3.85358E-14
 -1      4210 9.54296E-03 3.44410E-04-4.30613E-14
 -1      4211 9.40209E-03 3.37064E-04-4.17103E-14
 -1      4212 9.32712E-03 2.98954E-04-4.11761E-14
 -1      4213 9.82559E-03 3.58833E-04-4.58124E-14
 -1      4214 9.68414E-03 3.51661E-04-4.44294E-14
 -1      4215 9.60858E-03 3.13022E-04-4.38793E-14
 -1      4216 1.01091E-02 3.72933E-04-4.86231E-14
 -1      4217 9.96726E-03 3.65919E-04-4.72108E-14
 -1      4218 9.89127E-03 3.26857E-04-4.66447E-14
 -1      4219 1.03934E-02 3.86748E-04-5.14955E-14
 -1      4220 1.02512E-02 3.79872E-04-5.00526E-14
 -1      4221 1.01749E-02 3.40477E-04-4.94720E-14
 -1      4222 1.06782E-02 4.00318E-04-5.44253E-14
 -1      4223 1.05358E-02 3.93560E-04-5.29516E-14
 -1      4224 1.04592E-02 3.53908E-04-5.23578E-14
 -1      4225 1.09633E-02 4.13684E-04-5.74167E-14
 -1      4226 1.08207E-02 4.07024E-04-5.59126E-14
 -1      4227 1.07440E-02 3.67176E-04-5.53010E-14
 -1      4228 1.12488E-02 4.26883E-04-6.04720E-14
 -1      4229 1.11060E-02 4.20302E-04-5.89363E-14
 -1      4230 1.10292E-02 3.80309E-04-5.83060E-14
 -1      4231 1.15343E-02 4.39948E-04-6.35961E-14
 -1      4232 1.13915E-02 4.33430E-04-6.20262E-14
 -1      4233 1.13146E-02 3.93332E-04-6.13781E-14
 -1      4234 1.18200E-02 4.52909E-04-6.67805E-14
 -1      4235 1.16772E-02 4.46440E-04-6.51808E-14
 -1      4236 1.16002E-02 4.06266E-04-6.45136E-14
 -1      4237 1.21058E-02 4.65789E-04-7.00289E-14
 -1      4238 1.19629E-02 4.59358E-04-6.83963E-14
 -1      4239 1.18859E-02 4.19131E-04-6.77131E-14
 -1      4240 1.23916E-02 4.78609E-04-7.33337E-14
 -1      4241 1.22487E-02 4.72206E-04-7.16748E-14
 -1      4242 1.21717E-02 4.31943E-04-7.09732E-14
 -1      4243 1.26774E-02 4.91383E-04-7.66926E-14
 -1      4244 1.25345E-02 4.85001E-04-7.50072E-14
 -1      4245 1.24575E-02 4.44716E-04-7.42924E-14
 -1      4246 1.29632E-02 5.04126E-04-8.00983E-14
 -1      4247 1.28203E-02 4.97758E-04-7.83908E-14
 -1      4248 1.27433E-02 4.57460E-04-7.76617E-14
 -1      4249 1.30732E-02 4.86533E-04-8.15367E-14
 -1      4250 1.31738E-02 3.32879E-04-8.35227E-14
 -1      4251 6.68935E-03 1.39725E-04-1.80433E-14
 -1      4252 6.64676E-03 1.17956E-04-1.77707E-14
 -1      4253 6.73714E-03 1.08338E-04-1.86628E-14
 -1      4254 6.63826E-03 1.75320E-04-1.75739E-14
 -1      4255 8.15682E-03 2.67250E-04-3.03316E-14
 -1      4256 8.02221E-03 2.59208E-04-2.91608E-14
 -1      4257 8.22200E-03 2.40570E-04-3.10516E-14
 -1      4258 1.18581E-03-2.75076E-05-1.45108E-15
 -1      4259 7.36769E-03 2.19812E-04-2.36095E-14
 -1      4260 7.24140E-03 2.12206E-04-2.25591E-14
 -1      4261 7.43288E-03 1.96752E-04-2.42581E-14
 -1      4262 6.77456E-03 1.88641E-04-1.87059E-14
 -1      4263 6.72233E-03 1.60146E-04-1.82805E-14
 -1      4264 6.82456E-03 1.51566E-04-1.91898E-14
 -1      4265 6.89247E-03 1.95716E-04-1.96741E-14
 -1      4266 1.30617E-02 4.50805E-04-8.15740E-14
 -1      4267 6.95963E-03 1.74695E-04-2.02765E-14
 -1      4268 7.18264E-03 1.82943E-04-2.21550E-14
 -1      4269 1.28812E-02 3.20616E-04-7.99977E-14
 -1      4270 1.30241E-02 3.26952E-04-8.17123E-14
 -1      4271 1.31079E-02 3.66838E-04-8.25514E-14
 -1      4272 1.30976E-02 3.99337E-04-8.22673E-14
 -1      4273 1.29222E-02 4.12368E-04-8.00588E-14
 -1      4274 7.95380E-03 2.25744E-04-2.87088E-14
 -1      4275 1.28314E-02 3.47920E-04-7.92663E-14
 -1      4276 6.84978E-03 1.12250E-04-1.96292E-14
 -1      4277 1.27954E-02 3.99373E-04-7.85822E-14
 -1      4278 6.99135E-03 1.33660E-04-2.07325E-14
 -1      4279 7.11078E-03 1.38813E-04-2.17437E-14
 -1      4280 7.23279E-03 1.44448E-04-2.27762E-14
 -1      4281 7.35707E-03 1.50051E-04-2.38297E-14
 -1      4282 7.48336E-03 1.55991E-04-2.49036E-14
 -1      4283 7.61145E-03 1.61931E-04-2.59975E-14
 -1      4284 7.74116E-03 1.68111E-04-2.71120E-14
 -1      4285 7.87233E-03 1.74293E-04-2.82452E-14
 -1      4286 8.00481E-03 1.80642E-04-2.93998E-14
 -1      4287 8.13847E-03 1.86985E-04-3.05728E-14
 -1      4288 8.27321E-03 1.93442E-04-3.17654E-14
 -1      4289 8.40892E-03 1.99885E-04-3.29780E-14
 -1      4290 8.54550E-03 2.06402E-04-3.42060E-14
 -1      4291 8.68286E-03 2.12897E-04-3.54542E-14
 -1      4292 8.82093E-03 2.19439E-04-3.67217E-14
 -1      4293 8.95963E-03 2.25956E-04-3.80044E-14
 -1      4294 9.09889E-03 2.32498E-04-3.93059E-14
 -1      4295 9.23865E-03 2.39015E-04-4.06259E-14
 -1      4296 9.37886E-03 2.45543E-04-4.19608E-14
 -1      4297 9.51946E-03 2.52047E-04-4.33117E-14
 -1      4298 9.66040E-03 2.58555E-04-4.46780E-14
 -1      4299 9.80164E-03 2.65040E-04-4.60596E-14
 -1      4300 9.94315E-03 2.71522E-04-4.74574E-14
 -1      4301 1.00849E-02 2.77986E-04-4.88679E-14
 -1      4302 1.02268E-02 2.84444E-04-5.02952E-14
 -1      4303 1.03689E-02 2.90887E-04-5.17388E-14
 -1      4304 1.05112E-02 2.97322E-04-5.31921E-14
 -1      4305 1.06535E-02 3.03745E-04-5.46638E-14
 -1      4306 1.07960E-02 3.10161E-04-5.61510E-14
 -1      4307 1.09386E-02 3.16567E-04-5.76527E-14
 -1      4308 1.10812E-02 3.22966E-04-5.91689E-14
 -1      4309 1.12239E-02 3.29358E-04-6.07011E-14
 -1      4310 1.13667E-02 3.35743E-04-6.22516E-14
 -1      4311 1.15095E-02 3.42123E-04-6.38165E-14
 -1      4312 1.16523E-02 3.48497E-04-6.53969E-14
 -1      4313 1.17952E-02 3.54867E-04-6.69936E-14
 -1      4314 1.19380E-02 3.61233E-04-6.86049E-14
 -1      4315 1.20809E-02 3.67597E-04-7.02334E-14
 -1      4316 1.22238E-02 3.73956E-04-7.18762E-14
 -1      4317 1.23667E-02 3.80314E-04-7.35324E-14
 -1      4318 1.25096E-02 3.86668E-04-7.52030E-14
 -1      4319 1.26525E-02 3.93022E-04-7.68860E-14
 -1      4320 6.89373E-03 1.32848E-04-1.98823E-14
 -3
    1PSTEP                         2           1           1          
  100CL  101 1.000000000        4320                     0    1           1
 -4  STRESS      6    1
 -5  SXX         1    4    1    1
 -5  SYY         1    4    2    2
 -5  SZZ         1    4    3    3
 -5  SXY         1    4    1    2
 -5  SYZ         1    4    2    3
 -5  SZX         1    4    3    1
 -1         1 6.63456E+01 8.82413E-01 3.56821E+00 2.43575E-01 4.32571E-14 7.84186E-14
 -1         2-7.25429E-01-2.43831E+01-3.35855E+00 1.19629E-01 5.55826E-13 1.18287E-13
 -1         3 1.99998E+01 5.19397E-05-1.09367E-04 5.14653E-05-2.82607E-13-2.37908E-13
 -1         4 1.99998E+01 4.63174E-05-1.14100E-04-4.68437E-05 2.98533E-13-5.42689E-14
 -1         5 3.44300E+01 6.49954E+00 2.64558E+00 6.22967E+00-3.90382E-14 2.59097E-12
 -1         6 3.71688E+01 1.26523E+01 5.00519E+00-8.64894E+00-1.54154E-13 1.79190E-12
 -1         7 2.29111E+01 6.67321E+00-6.97124E-03-4.24545E+00-2.18159E-14 9.71133E-14
 -1         8 2.12855E+01 6.40504E+00 1.08644E-01-2.40481E+00-1.92207E-14-3.66320E-13
 -1         9 2.01155E+01 6.06086E+00 7.68737E-02-1.44090E+00-1.27606E-14-5.84367E-13
 -1        10 1.91360E+01 5.76430E+00 5.54777E-02-7.80755E-01-7.53564E-15-6.74007E-13
 -1        11 1.82606E+01 5.50006E+00 3.27713E-02-3.26760E-01-3.43475E-15-6.92766E-13
 -1        12 1.75168E+01 5.27567E+00 9.42143E-03-5.09070E-02 6.83481E-16-6.80829E-13
 -1        13 1.69363E+01 5.10124E+00-1.17617E-02 7.97755E-02 3.32026E-15-6.60688E-13
 -1        14 1.66001E+01 5.00039E+00-2.58133E-02 9.92654E-02 1.03233E-14-6.42285E-13
 -1        15 1.65582E+01 4.98794E+00-2.90516E-02 6.65939E-02 1.16964E-14-6.12765E-13
 -1        16 1.68246E+01 5.06807E+00-2.03797E-02 5.28949E-02 1.47000E-14-5.63665E-13
 -1        17 1.73729E+01 5.23254E+00-1.79551E-03 1.28216E-01 1.92173E-14-4.92950E-13
 -1        18 1.81303E+01 5.46087E+00 2.22971E-02 3.43182E-01 2.21281E-14-3.91991E-13
 -1        19 1.90632E+01 5.74230E+00 4.87118E-02 7.48714E-01 2.94764E-14-2.28678E-13
 -1        20 2.01242E+01 6.06367E+00 7.49663E-02 1.38555E+00 3.32095E-14 2.18302E-14
 -1        21 2.13679E+01 6.44153E+00 1.08961E-01 2.34646E+00 3.45904E-14 4.40321E-13
 -1        22 2.33022E+01 6.95231E+00 2.26219E-01 3.97604E+00 1.33227E-15 1.17811E-12
 -1        23 2.54757E+01-1.51964E+00-1.01054E+00-5.50687E-01-1.05006E-13 1.26665E-12
 -1        24 2.27054E+01-9.63392E-02-2.94788E-01 9.94863E-02-2.74451E-14 8.46941E-13
 -1        25 2.27061E+01-4.76556E-02-5.09513E-02 8.01011E-02-1.90657E-14 4.28223E-13
 -1        26 2.30189E+01-9.19983E-03 1.35772E-02 4.76575E-02 1.33921E-14 1.24192E-13
 -1        27 2.33253E+01 7.51250E-03 3.25292E-02 2.93788E-02-2.65929E-14 5.76102E-15
 -1        28 2.33891E+01 1.95930E-02 4.78522E-02 6.44981E-03-1.04636E-14-1.05081E-13
 -1        29 2.30030E+01 2.53141E-02 5.80422E-02-2.52986E-02-5.98219E-15-2.71724E-13
 -1        30 2.20471E+01 2.08794E-02 5.09653E-02-6.23673E-02 8.14279E-15-4.06723E-13
 -1        31 2.05959E+01 4.28327E-03 1.70487E-02-9.08998E-02-1.05829E-15-4.56551E-13
 -1        32 1.89980E+01-2.03054E-02-3.83479E-02-9.08068E-02-7.17276E-15-4.76175E-13
 -1        33 1.78113E+01-4.17140E-02-8.93493E-02-5.10115E-02 4.61220E-14-5.09299E-13
 -1        34 1.75436E+01-4.77648E-02-1.04408E-01 1.53747E-02-7.46191E-15-6.25965E-13
 -1        35 1.83436E+01-3.46362E-02-7.33643E-02 7.54218E-02 3.41133E-15-7.38014E-13
 -1        36 1.99009E+01-9.99100E-03-1.68198E-02 1.01292E-01-1.96106E-14-7.20889E-13
 -1        37 2.16471E+01 1.33938E-02 3.27488E-02 8.97096E-02-4.95882E-14-7.86201E-13
 -1        38 2.30749E+01 2.67363E-02 5.64168E-02 5.74006E-02-4.31645E-14-8.93150E-13
 -1        39 2.39288E+01 2.88254E-02 5.51668E-02 2.36400E-02 1.47792E-14-8.98708E-13
 -1        40 2.42034E+01 2.34820E-02 4.05845E-02-7.56589E-04-4.04685E-14-1.00144E-12
 -1        41 2.40359E+01 1.53655E-02 2.34101E-02-1.38940E-02 4.95833E-14-1.02708E-12
 -1        42 2.35995E+01 7.70399E-03 9.48276E-03-1.84459E-02-1.90603E-14-8.32950E-13
 -1        43 2.30422E+01 1.91674E-03 3.68831E-04-1.79562E-02-2.79417E-14-7.37715E-13
 -1        44 2.24666E+01-1.79922E-03-4.58262E-03-1.51739E-02-1.70769E-14-6.32343E-13
 -1        45 2.19329E+01-3.81015E-03-6.65839E-03-1.17666E-02-3.53360E-14-6.26618E-13
 -1        46 2.14701E+01-4.62110E-03-7.02088E-03-8.57017E-03 5.39775E-15-5.41407E-13
 -1        47 2.10870E+01-4.68000E-03-6.49363E-03-5.91174E-03-6.64015E-14-3.63463E-13
 -1        48 2.07809E+01-4.31986E-03-5.58680E-03-3.85257E-03 1.73040E-14-1.74455E-13
 -1        49 2.05433E+01-3.76351E-03-4.58693E-03-2.33546E-03 6.95958E-14-6.18822E-14
 -1        50 2.03637E+01-3.14857E-03-3.63998E-03-1.26322E-03-7.66246E-14-9.36580E-14
 -1        51 2.02312E+01-2.55342E-03-2.81015E-03-5.35725E-04-2.33348E-14-6.15537E-14
 -1        52 2.01361E+01-2.01799E-03-2.11700E-03-6.49962E-05-6.35810E-14 1.56258E-13
 -1        53 2.00698E+01-1.55858E-03-1.55725E-03 2.20588E-04 1.18803E-14 1.54148E-13
 -1        54 2.00253E+01-1.17772E-03-1.11710E-03 3.76722E-04 1.48070E-14 4.91143E-13
 -1        55 1.99967E+01-8.70505E-04-7.78889E-04 4.45370E-04-4.46635E-14 1.48250E-13
 -1        56 1.99797E+01-6.28415E-04-5.24612E-04 4.57358E-04-2.85170E-14-1.96718E-13
 -1        57 1.99708E+01-4.41697E-04-3.37644E-04 4.34798E-04 6.00819E-14 3.23576E-14
 -1        58 1.99673E+01-3.00668E-04-2.03457E-04 3.93155E-04 4.63592E-14 2.16708E-13
 -1        59 1.99673E+01-1.96414E-04-1.09822E-04 3.42930E-04 5.04328E-14 3.17634E-13
 -1        60 1.99695E+01-1.21119E-04-4.67223E-05 2.90987E-04-8.97154E-14 5.17419E-13
 -1        61 1.99729E+01-6.81502E-05-6.13245E-06 2.41586E-04 7.56909E-14 3.78162E-13
 -1        62 1.99768E+01-3.20154E-05 1.82671E-05 1.97160E-04-9.35600E-14-5.60463E-13
 -1        63 1.99808E+01-8.24925E-06 3.13874E-05 1.58894E-04 3.13945E-14-1.05364E-12
 -1        64 1.99846E+01 6.74207E-06 3.70356E-05 1.27139E-04-1.16969E-13-1.08820E-12
 -1        65 1.99881E+01 1.58430E-05 3.82331E-05 1.01680E-04 6.16010E-14-8.38127E-13
 -1        66 1.99913E+01 2.13906E-05 3.75877E-05 8.18426E-05-2.36977E-14-1.07205E-12
 -1        67 1.99940E+01 2.52816E-05 3.76338E-05 6.64410E-05 6.35760E-14-7.04087E-13
 -1        68 1.99963E+01 2.90277E-05 4.13743E-05 5.34367E-05-1.13797E-14-7.41947E-14
 -1        69 1.99981E+01 3.31272E-05 5.11722E-05 3.85448E-05 2.05541E-13 1.00869E-13
 -1        70 1.99994E+01 3.15684E-05 5.85869E-05 9.50830E-06-4.52803E-14 9.02379E-14
 -1        71 1.99999E+01-5.99434E-06 1.36304E-05-3.28829E-05-7.94848E-14-1.35136E-13
 -1        72 2.36487E+01-4.28927E-01-1.03510E+00-4.12445E-01 1.91964E-14 2.51335E-12
 -1        73 2.29955E+01-6.23857E-02-2.76067E-01-8.32958E-02 2.28723E-15 2.09958E-12
 -1        74 2.31666E+01-1.41768E-02-4.95540E-02-4.31955E-02 4.54411E-15 1.80584E-12
 -1        75 2.36524E+01 1.28565E-03 8.41777E-03-4.10868E-02 9.82092E-15 1.61153E-12
 -1        76 2.41673E+01 1.28168E-02 3.31149E-02-4.07297E-02 1.37732E-15 1.42663E-12
 -1        77 2.44364E+01 2.13763E-02 5.68132E-02-3.31613E-02 1.13189E-14 1.32773E-12
 -1        78 2.41792E+01 2.30632E-02 7.62033E-02-9.30316E-03 3.25868E-15 1.37213E-12
 -1        79 2.31835E+01 1.32780E-02 7.31443E-02 3.52561E-02-7.60178E-15 1.39576E-12
 -1        80 2.14714E+01-7.68192E-03 3.01013E-02 8.96804E-02-1.30491E-14 1.18119E-12
 -1        81 1.94597E+01-3.04983E-02-4.84238E-02 1.23670E-01 1.47399E-14 1.01776E-12
 -1        82 1.79154E+01-4.10887E-02-1.22805E-01 1.04321E-01 2.88489E-14 8.47739E-13
 -1        83 1.75787E+01-3.27787E-02-1.41396E-01 2.96481E-02-2.26581E-14 8.44508E-13
 -1        84 1.86567E+01-1.21746E-02-9.04014E-02-5.83482E-02 1.57528E-14 8.91637E-13
 -1        85 2.06617E+01 8.54607E-03-7.80785E-03-1.09900E-01-1.16198E-14 8.36373E-13
 -1        86 2.27712E+01 2.09559E-02 5.64327E-02-1.09587E-01 6.18407E-15 5.55694E-13
 -1        87 2.43330E+01 2.34544E-02 7.91295E-02-7.63371E-02 2.65591E-14 3.07920E-13
 -1        88 2.51018E+01 1.91980E-02 6.87571E-02-3.68702E-02-6.99866E-14 2.48194E-13
 -1        89 2.51642E+01 1.23418E-02 4.46847E-02-6.79862E-03 7.56869E-14 1.48427E-13
 -1        90 2.47506E+01 5.87977E-03 2.14241E-02 1.04759E-02-7.08741E-14-3.10174E-13
 -1        91 2.40928E+01 1.11464E-03 4.97980E-03 1.76619E-02 2.46235E-14-5.34798E-14
 -1        92 2.33622E+01-1.81690E-03-4.35978E-03 1.87360E-02-9.16252E-15 6.36990E-14
 -1        93 2.26629E+01-3.29369E-03-8.50964E-03 1.68248E-02-4.87883E-14 3.08613E-13
 -1        94 2.20468E+01-3.79599E-03-9.54578E-03 1.38440E-02 4.84981E-14 2.14085E-13
 -1        95 2.15321E+01-3.72430E-03-8.98856E-03 1.07863E-02-3.35044E-14 2.14263E-13
 -1        96 2.11179E+01-3.35854E-03-7.76517E-03 8.08325E-03 4.28154E-14 4.51536E-13
 -1        97 2.07942E+01-2.87412E-03-6.37512E-03 5.86832E-03-1.08927E-14 3.72796E-13
 -1        98 2.05472E+01-2.37171E-03-5.05807E-03 4.13513E-03 9.70102E-14 6.27212E-14
 -1        99 2.03631E+01-1.90372E-03-3.91118E-03 2.82169E-03-1.31294E-13-3.31363E-13
 -1       100 2.02289E+01-1.49356E-03-2.95939E-03 1.85149E-03 2.50755E-14-2.50690E-13
 -1       101 2.01333E+01-1.14813E-03-2.19406E-03 1.15145E-03 2.35561E-14-4.97435E-13
 -1       102 2.00673E+01-8.65543E-04-1.59293E-03 6.58573E-04-3.08340E-14-5.36375E-13
 -1       103 2.00232E+01-6.39662E-04-1.12993E-03 3.21264E-04-3.57146E-14 3.86250E-14
 -1       104 1.99952E+01-4.62707E-04-7.79756E-04 9.85854E-05 1.20830E-14 2.16935E-13
 -1       105 1.99787E+01-3.26654E-04-5.19736E-04-4.12672E-05 6.33058E-15-1.20488E-13
 -1       106 1.99701E+01-2.23974E-04-3.30462E-04-1.22584E-04-1.18125E-13-2.34195E-13
 -1       107 1.99669E+01-1.47973E-04-1.95790E-04-1.63633E-04 2.68948E-14-5.80384E-13
 -1       108 1.99671E+01-9.29040E-05-1.02573E-04-1.77942E-04-2.01592E-16-8.70097E-13
 -1       109 1.99694E+01-5.39587E-05-4.02852E-05-1.75359E-04-4.29745E-14-3.75746E-13
 -1       110 1.99729E+01-2.71952E-05-6.27797E-07-1.62927E-04 1.05650E-13-3.51996E-13
 -1       111 1.99768E+01-9.42789E-06 2.28593E-05-1.45574E-04 5.06318E-14-1.08810E-13
 -1       112 1.99808E+01 1.89241E-06 3.51567E-05-1.26667E-04-1.50636E-13-3.73404E-14
 -1       113 1.99847E+01 8.80228E-06 4.01016E-05-1.08446E-04 6.64611E-14 7.07136E-13
 -1       114 1.99882E+01 1.29395E-05 4.07273E-05-9.23354E-05-1.56395E-13 3.06167E-13
 -1       115 1.99913E+01 1.56454E-05 3.96302E-05-7.91485E-05 1.28634E-13-1.10437E-13
 -1       116 1.99941E+01 1.80080E-05 3.94792E-05-6.91261E-05 3.10689E-14-2.47087E-13
 -1       117 1.99964E+01 2.08300E-05 4.34434E-05-6.16623E-05-2.40261E-14-6.34551E-13
 -1       118 1.99982E+01 2.40544E-05 5.38285E-05-5.42344E-05 6.87197E-14-9.47534E-13
 -1       119 1.99994E+01 2.33167E-05 6.16989E-05-3.59221E-05-4.61004E-14-9.38593E-13
 -1       120 1.99999E+01-2.21458E-05 6.38973E-06 1.72996E-05 1.38527E-13-5.25342E-13
 -1       121 1.99998E+01 4.40839E-05 9.24991E-06 3.40325E-05-3.84122E-13 9.10945E-14
 -1       122 1.99998E+01-4.49470E-04 5.59302E-05-2.08664E-05-1.30613E-14-1.73950E-13
 -1       123 1.99998E+01-1.61761E-03 3.41860E-05-4.92585E-05-2.38747E-13-2.99035E-14
 -1       124 1.99998E+01-3.12000E-03 6.01043E-06-5.72251E-05-4.00494E-13 1.81986E-13
 -1       125 1.99998E+01-4.66741E-03-1.64870E-05-5.28203E-05 3.41803E-13-8.78525E-15
 -1       126 1.99998E+01-6.00867E-03-3.23548E-05-4.21762E-05 2.15622E-13-6.35360E-15
 -1       127 1.99998E+01-7.01362E-03-4.22937E-05-2.67682E-05 6.66314E-13 1.47899E-13
 -1       128 1.99998E+01-7.54230E-03-4.71601E-05-9.04072E-06 4.43215E-13-3.87097E-14
 -1       129 1.99998E+01-7.53721E-03-4.71021E-05 9.39071E-06 6.66949E-13 1.82073E-13
 -1       130 1.99998E+01-6.99902E-03-4.21384E-05 2.70268E-05 1.03090E-12-1.00333E-13
 -1       131 1.99998E+01-5.98687E-03-3.18583E-05 4.27710E-05-1.92550E-14-6.76491E-14
 -1       132 1.99998E+01-4.64178E-03-1.63019E-05 5.29906E-05-8.88460E-13 2.29058E-13
 -1       133 1.99998E+01-3.09334E-03 6.17989E-06 5.70138E-05-9.05690E-13-2.18066E-14
 -1       134 1.99998E+01-1.59011E-03 3.69091E-05 5.30919E-05-3.59688E-13 2.94464E-13
 -1       135 1.99998E+01-4.53765E-04 4.88458E-05 2.90889E-05 2.00299E-13-1.72808E-13
 -1       136 1.99998E+01 2.74453E-05 6.88022E-06-6.53638E-05-8.15581E-14 2.93636E-14
 -1       137-1.33457E+00-2.04571E+01-3.12759E+00-3.75861E+00 1.24883E-12 1.59407E-13
 -1       138-1.75539E+00-9.64077E+00-2.38565E+00-3.31809E+00 2.37593E-12 1.26069E-12
 -1       139 3.43540E+00 3.35066E+00-1.08016E+00 3.77625E+00 2.62429E-12 1.87955E-12
 -1       140 1.50221E+01 1.01710E+01 2.97565E-01 1.23567E+01 1.80495E-12 2.08333E-12
 -1       141 3.52654E+01 1.00295E+01 1.84613E+00 1.82662E+01 1.07181E-12 1.93234E-12
 -1       142 5.45010E+01 5.12752E+00 2.98736E+00 1.55623E+01 3.37633E-13 8.47322E-13
 -1       143 6.59228E+01 1.21918E+00 3.60563E+00 5.07852E+00-1.31353E-14-5.50116E-13
 -1       144 6.41820E+01 2.04516E+00 3.54129E+00-8.19606E+00 2.67125E-13-1.80223E-12
 -1       145 4.83030E+01 6.99899E+00 2.65201E+00-1.73614E+01 9.62980E-13-2.55390E-12
 -1       146 2.84047E+01 1.09970E+01 1.36332E+00-1.73229E+01 1.85624E-12-2.76579E-12
 -1       147 1.04867E+01 9.07595E+00-1.60410E-01-9.80572E+00 2.40508E-12-2.44732E-12
 -1       148 8.34223E-01 2.46726E-01-1.53660E+00-1.04758E+00 2.19902E-12-1.43197E-12
 -1       149-1.74835E+00-1.16298E+01-2.56842E+00 3.74377E+00 1.53744E-12-6.29746E-13
 -1       150-1.18240E+00-2.12980E+01-3.19121E+00 3.08611E+00 2.19269E-13-9.99001E-14
 -1       151-7.94875E-01-2.37063E+01-3.32008E+00-9.84035E-01-1.28187E-12-1.09062E-13
 -1       152-1.60656E+00-1.72716E+01-2.92319E+00-3.99580E+00-2.34168E-12-6.61173E-13
 -1       153-9.03834E-01-5.19527E+00-2.02308E+00-1.68214E+00-2.80675E-12-1.46286E-12
 -1       154 5.03071E+00 5.91310E+00-7.82551E-01 5.67692E+00-2.55806E-12-2.10093E-12
 -1       155 2.02150E+01 1.12504E+01 7.61463E-01 1.49104E+01-1.77236E-12-2.22528E-12
 -1       156 4.13151E+01 8.79719E+00 2.22729E+00 1.83068E+01-9.56346E-13-1.93739E-12
 -1       157 5.93533E+01 3.52266E+00 3.23380E+00 1.23855E+01-3.16976E-13-1.15852E-12
 -1       158 6.06079E+01 2.91105E+00 3.26467E+00-1.14845E+01-2.44377E-13 9.95509E-13
 -1       159 4.59935E+01 7.54281E+00 2.48018E+00-1.78209E+01-8.24091E-13 1.93523E-12
 -1       160 2.79142E+01 1.09550E+01 1.34229E+00-1.71360E+01-1.58146E-12 2.39714E-12
 -1       161 1.18658E+01 9.55692E+00 2.86721E-02-1.06411E+01-2.05580E-12 2.22161E-12
 -1       162 2.08321E+00 2.15027E+00-1.24275E+00-2.47464E+00-2.09627E-12 1.53549E-12
 -1       163-1.64512E+00-9.52730E+00-2.35709E+00 3.30834E+00-1.73767E-12 7.34024E-13
 -1       164-1.32901E+00-1.98392E+01-3.07822E+00 3.60618E+00-1.00631E-12 2.43132E-13
 -1       165 2.31379E+01 3.71235E+00-5.14589E-02-2.85472E+00-2.82120E-13-1.04878E-13
 -1       166 2.14679E+01 4.26509E+00-4.37685E-02-1.87970E+00-2.21262E-13-3.94788E-13
 -1       167 2.01926E+01 4.52059E+00-3.17387E-02-1.15253E+00-1.47133E-13-5.21069E-13
 -1       168 1.90966E+01 4.64201E+00-2.31254E-02-6.10264E-01-8.26873E-14-5.76223E-13
 -1       169 1.81411E+01 4.72776E+00-1.72159E-02-2.37664E-01-1.95876E-14-5.81270E-13
 -1       170 1.73332E+01 4.80589E+00-1.37818E-02-1.28342E-02 2.96829E-14-5.76314E-13
 -1       171 1.67702E+01 4.87154E+00-1.17636E-02 8.03518E-02 8.91622E-14-5.40652E-13
 -1       172 1.65311E+01 4.90917E+00-1.10096E-02 8.85854E-02 1.38668E-13-5.26247E-13
 -1       173 1.66607E+01 4.90728E+00-1.15134E-02 7.84926E-02 1.73032E-13-4.90231E-13
 -1       174 1.71509E+01 4.86616E+00-1.33712E-02 1.22985E-01 2.11882E-13-4.47898E-13
 -1       175 1.79292E+01 4.79616E+00-1.68489E-02 2.80387E-01 2.52583E-13-3.61823E-13
 -1       176 1.89476E+01 4.69905E+00-2.25482E-02 5.98255E-01 2.95004E-13-2.41857E-13
 -1       177 2.01399E+01 4.55233E+00-3.19279E-02 1.10332E+00 3.25424E-13-5.16358E-14
 -1       178 2.15328E+01 4.26597E+00-4.39477E-02 1.81791E+00 3.34548E-13 2.42931E-13
 -1       179 2.33842E+01 3.48848E+00-5.21014E-02 2.70780E+00 2.82521E-13 7.24462E-13
 -1       180 2.50345E+01 1.05042E+00-3.37219E-01 2.41221E+00 1.72621E-13 1.30129E-12
 -1       181 2.45562E+01 7.99384E-01 4.15725E-04-1.39596E+00-2.61891E-13 2.84373E-13
 -1       182 2.34333E+01 1.43359E-01-9.59821E-03-2.61343E-01-2.31343E-13 1.80841E-13
 -1       183 2.30550E+01 5.10025E-02 1.16018E-02 1.08146E-01-1.63253E-13 9.80162E-14
 -1       184 2.30217E+01-3.21594E-02 6.36208E-03 1.66928E-01-8.53526E-14-1.04769E-14
 -1       185 2.30392E+01-1.00804E-01 9.64614E-04 2.44868E-02-7.17672E-14-4.48179E-14
 -1       186 2.29335E+01-1.55330E-01-1.11613E-03-2.77040E-01-8.46814E-14-4.44773E-14
 -1       187 2.25840E+01-1.70149E-01-5.82118E-04-6.68680E-01-7.94950E-14-5.45386E-14
 -1       188 2.19552E+01-1.11665E-01 1.10323E-03-1.01183E+00-3.04305E-14-8.80819E-14
 -1       189 2.11429E+01 3.03753E-02 2.50505E-03-1.11412E+00-3.75337E-14-6.50174E-14
 -1       190 2.03871E+01 2.07180E-01 2.65921E-03-8.27273E-01-6.58670E-14-8.64113E-14
 -1       191 1.99896E+01 3.19542E-01 2.19432E-03-1.84422E-01-1.36424E-13-3.36052E-13
 -1       192 2.01432E+01 2.91691E-01 2.29162E-03 5.62739E-01-8.67709E-14-5.10089E-13
 -1       193 2.07975E+01 1.42597E-01 2.67185E-03 1.09036E+00-1.19900E-14-5.24118E-13
 -1       194 2.16924E+01-3.27988E-02 1.88112E-03 1.21838E+00-4.77287E-14-4.94561E-13
 -1       195 2.25240E+01-1.48720E-01-2.57269E-04 9.91050E-01-1.14235E-13-4.54902E-13
 -1       196 2.30889E+01-1.81120E-01-2.65433E-03 5.84868E-01-1.82085E-14-4.85070E-13
 -1       197 2.33250E+01-1.54136E-01-3.90572E-03 1.73357E-01-2.02672E-14-4.99933E-13
 -1       198 2.32716E+01-1.03617E-01-3.88128E-03-1.43650E-01 4.18916E-14-3.84338E-13
 -1       199 2.30136E+01-5.45502E-02-3.00753E-03-3.39293E-01 3.76888E-14-3.34299E-13
 -1       200 2.26397E+01-1.76496E-02-1.82462E-03-4.29506E-01 1.00031E-14-3.84629E-13
 -1       201 2.22219E+01 5.71933E-03-7.25502E-04-4.45017E-01 3.75597E-14-3.60356E-13
 -1       202 2.18098E+01 1.82020E-02 1.01674E-04-4.15425E-01 5.56716E-15-3.64177E-13
 -1       203 2.14331E+01 2.32564E-02 6.23826E-04-3.63256E-01 1.40459E-13-1.82987E-13
 -1       204 2.11062E+01 2.38119E-02 8.89153E-04-3.03431E-01 8.43181E-14 4.78307E-15
 -1       205 2.08333E+01 2.19520E-02 9.71243E-04-2.44772E-01 2.87648E-14 8.61459E-14
 -1       206 2.06124E+01 1.90115E-02 9.38678E-04-1.91867E-01 3.51023E-14 4.40868E-14
 -1       207 2.04382E+01 1.57791E-02 8.43958E-04-1.46616E-01-9.14904E-16 1.67375E-14
 -1       208 2.03041E+01 1.26829E-02 7.22735E-04-1.09349E-01 1.99217E-15 8.32454E-14
 -1       209 2.02032E+01 9.92878E-03 5.97052E-04-7.95488E-02 9.55649E-14 9.76328E-14
 -1       210 2.01290E+01 7.59187E-03 4.79260E-04-5.63079E-02 1.89272E-14 2.39413E-13
 -1       211 2.00759E+01 5.67530E-03 3.75362E-04-3.85912E-02 6.81980E-14 2.02546E-13
 -1       212 2.00388E+01 4.14527E-03 2.87451E-04-2.53828E-02-1.93111E-13 1.35529E-13
 -1       213 2.00140E+01 2.95189E-03 2.15366E-04-1.57610E-02-2.14506E-13-8.69582E-15
 -1       214 1.99981E+01 2.04095E-03 1.57759E-04-8.92880E-03 1.57570E-13-8.31542E-14
 -1       215 1.99886E+01 1.36032E-03 1.12752E-04-4.22056E-03 1.10162E-13-2.82402E-13
 -1       216 1.99837E+01 8.63116E-04 7.83262E-05-1.09545E-03 1.49227E-13-1.27337E-13
 -1       217 1.99818E+01 5.08910E-04 5.25384E-05 8.76166E-04 5.46899E-14-8.95770E-14
 -1       218 1.99819E+01 2.63927E-04 3.36339E-05 2.02836E-03-7.95301E-14 4.75157E-14
 -1       219 1.99832E+01 1.00595E-04 2.00893E-05 2.61558E-03-4.22798E-13-1.54296E-13
 -1       220 1.99851E+01-3.19241E-06 1.06177E-05 2.82734E-03-4.15446E-13-1.49301E-13
 -1       221 1.99874E+01-6.49511E-05 4.15225E-06 2.80100E-03-2.92579E-14-4.64482E-13
 -1       222 1.99897E+01-9.85389E-05-1.78848E-07 2.63244E-03 2.61617E-13-3.71453E-13
 -1       223 1.99919E+01-1.15127E-04-3.06966E-06 2.38440E-03 1.54161E-13-1.60770E-14
 -1       224 1.99940E+01-1.24046E-04-4.97593E-06 2.09259E-03 3.36370E-13 2.01612E-13
 -1       225 1.99958E+01-1.33536E-04-6.12866E-06 1.77013E-03 3.60478E-13 4.33137E-13
 -1       226 1.99973E+01-1.52172E-04-6.26070E-06 1.41015E-03-9.07958E-14 2.59776E-13
 -1       227 1.99984E+01-1.87413E-04-5.85468E-06 9.90251E-04-4.61937E-14-1.97218E-13
 -1       228 1.99993E+01-2.32730E-04-3.96169E-06 4.97717E-04-3.48109E-14-1.85601E-14
 -1       229 2.40339E+01 2.45216E-01-4.59207E-02 6.03390E-01 2.12882E-13 1.15048E-12
 -1       230 2.34877E+01 1.05467E-01 9.54691E-03-5.45733E-02 1.53028E-13 9.89781E-13
 -1       231 2.34921E+01 2.60290E-02 1.15363E-02-2.69741E-01 1.19574E-13 8.31099E-13
 -1       232 2.36823E+01-3.59315E-02 6.48322E-03-2.65185E-01 6.60364E-14 7.51827E-13
 -1       233 2.38208E+01-9.82326E-02 4.65842E-03-7.44014E-02 4.97172E-14 7.29522E-13
 -1       234 2.37104E+01-1.52161E-01 5.83320E-03 2.87498E-01-2.29877E-14 7.09846E-13
 -1       235 2.32116E+01-1.64969E-01 6.94852E-03 7.46385E-01 3.96809E-14 7.06246E-13
 -1       236 2.23152E+01-9.59750E-02 4.06093E-03 1.12247E+00 8.50754E-14 6.46583E-13
 -1       237 2.12242E+01 6.11526E-02-4.31382E-03 1.16650E+00 9.69945E-14 5.54416E-13
 -1       238 2.03457E+01 2.37200E-01-1.32819E-02 7.20068E-01 6.97541E-14 5.43442E-13
 -1       239 2.01041E+01 3.13247E-01-1.46832E-02-9.49995E-02 2.87010E-14 4.91799E-13
 -1       240 2.06500E+01 2.29056E-01-7.04655E-03-8.85431E-01-2.47979E-15 4.07307E-13
 -1       241 2.17348E+01 5.16734E-02 2.65834E-03-1.27648E+00 1.04853E-13 2.61133E-13
 -1       242 2.29009E+01-1.01496E-01 7.54056E-03-1.17873E+00 1.88809E-13 9.86997E-14
 -1       243 2.37704E+01-1.67393E-01 6.21767E-03-7.68235E-01 1.13039E-13 1.20262E-13
 -1       244 2.41861E+01-1.56447E-01 2.27033E-03-2.88346E-01-7.00872E-15-1.53408E-14
 -1       245 2.41782E+01-1.09462E-01-1.00376E-03 1.00077E-01 1.30002E-13-6.54954E-14
 -1       246 2.38669E+01-5.91091E-02-2.44532E-03 3.43796E-01 1.14906E-13-3.59443E-14
 -1       247 2.33851E+01-2.05086E-02-2.40777E-03 4.57112E-01-1.31035E-13-9.57275E-14
 -1       248 2.28400E+01 3.68520E-03-1.66980E-03 4.78713E-01-1.11781E-13 7.59193E-14
 -1       249 2.23037E+01 1.62864E-02-8.20415E-04 4.46517E-01-8.40833E-14 9.03342E-14
 -1       250 2.18168E+01 2.11941E-02-1.43666E-04 3.88648E-01 8.84313E-14 6.03092E-14
 -1       251 2.13979E+01 2.16321E-02 2.92722E-04 3.22940E-01-7.78179E-14 3.28216E-14
 -1       252 2.10511E+01 1.97958E-02 5.22285E-04 2.59371E-01-1.03321E-13 1.24500E-13
 -1       253 2.07723E+01 1.70202E-02 6.06552E-04 2.02758E-01 9.26050E-14 2.46466E-13
 -1       254 2.05538E+01 1.40482E-02 6.01761E-04 1.54846E-01 1.74679E-13 2.24717E-14
 -1       255 2.03861E+01 1.12558E-02 5.49175E-04 1.15699E-01 1.32670E-13-2.88186E-14
 -1       256 2.02602E+01 8.80656E-03 4.75656E-04 8.45609E-02-4.43119E-14-2.08985E-13
 -1       257 2.01676E+01 6.74852E-03 3.97226E-04 6.03386E-02 7.41859E-14-2.07501E-13
 -1       258 2.01011E+01 5.07046E-03 3.22647E-04 4.18721E-02-6.15900E-14-1.81767E-13
 -1       259 2.00546E+01 3.73394E-03 2.56153E-04 2.80672E-02-2.19373E-13-1.54120E-13
 -1       260 2.00230E+01 2.69056E-03 1.99303E-04 1.79554E-02 1.19193E-15-1.84095E-13
 -1       261 2.00026E+01 1.89103E-03 1.52151E-04 1.07130E-02 2.00698E-13-2.58913E-14
 -1       262 1.99901E+01 1.28956E-03 1.13972E-04 5.65936E-03-1.24523E-13-6.86220E-14
 -1       263 1.99832E+01 8.45808E-04 8.36872E-05 2.24431E-03 1.29203E-13-1.67210E-15
 -1       264 1.99802E+01 5.25393E-04 6.01071E-05 3.17669E-05 5.96662E-14-1.51652E-13
 -1       265 1.99797E+01 2.99768E-04 4.20705E-05-1.31781E-03-2.51145E-13-2.42189E-13
 -1       266 1.99808E+01 1.45679E-04 2.85123E-05-2.06413E-03-1.09653E-14 5.74892E-15
 -1       267 1.99828E+01 4.44874E-05 1.84941E-05-2.40208E-03-1.02630E-13 3.82895E-13
 -1       268 1.99852E+01-1.85665E-05 1.12100E-05-2.47470E-03-5.26368E-14 3.36772E-13
 -1       269 1.99877E+01-5.50973E-05 5.98299E-06-2.38394E-03-2.86389E-13-2.49550E-14
 -1       270 1.99902E+01-7.43085E-05 2.25552E-06-2.19931E-03 1.45747E-13 4.58109E-13
 -1       271 1.99925E+01-8.36692E-05-3.55170E-07-1.96426E-03 3.41047E-13 6.24379E-14
 -1       272 1.99946E+01-8.96157E-05-1.99071E-06-1.70093E-03 5.07948E-14 7.10791E-14
 -1       273 1.99964E+01-9.83220E-05-2.30927E-06-1.41262E-03 2.69677E-13-3.08106E-14
 -1       274 1.99978E+01-1.15620E-04-5.66709E-07-1.08621E-03 7.05237E-14-2.27642E-13
 -1       275 1.99989E+01-1.49998E-04-3.46107E-07-6.96122E-04-4.68560E-14-1.41128E-13
 -1       276 1.99995E+01-1.60626E-04-5.23490E-06-2.49742E-04-9.31628E-14-1.44954E-13
 -1       277 1.99996E+01-5.56819E-04-4.10488E-06-5.13472E-04-1.00800E-13 2.77237E-13
 -1       278 1.99997E+01-1.32383E-03-1.59574E-06-9.27992E-04 1.43760E-13-2.17625E-13
 -1       279 1.99997E+01-2.30898E-03-7.03508E-07-1.16126E-03 2.16720E-13 9.96683E-14
 -1       280 1.99998E+01-3.37733E-03 7.18121E-07-1.19037E-03 1.87955E-13 4.35596E-13
 -1       281 1.99999E+01-4.36770E-03 2.88379E-06-1.04924E-03 7.89886E-14-7.15234E-14
 -1       282 1.99999E+01-5.18732E-03 4.73236E-06-7.73213E-04 3.94138E-14 6.75241E-14
 -1       283 2.00000E+01-5.71780E-03 5.99650E-06-4.07026E-04 1.01624E-13 3.04678E-14
 -1       284 2.00000E+01-5.89904E-03 6.42577E-06 3.93196E-06 3.20674E-13 1.67937E-13
 -1       285 2.00000E+01-5.71085E-03 5.98843E-06 4.14341E-04 4.01658E-13 5.42688E-14
 -1       286 1.99999E+01-5.17422E-03 4.71435E-06 7.79081E-04-2.67399E-14-5.01965E-13
 -1       287 1.99999E+01-4.36696E-03 2.74587E-06 1.04946E-03 6.89780E-14-3.19732E-13
 -1       288 1.99998E+01-3.35810E-03 7.02123E-07 1.19104E-03 5.17531E-14 3.48225E-14
 -1       289 1.99997E+01-2.29034E-03-9.20445E-07 1.15830E-03-7.60310E-14 1.67220E-13
 -1       290 1.99996E+01-1.31510E-03-4.16262E-06 9.15164E-04-3.12937E-13 2.64773E-13
 -1       291 1.99995E+01-7.26565E-04-5.16648E-06 8.04288E-04-2.52563E-13 2.79669E-14
 -1       292-9.19286E-01-1.07535E+01-9.64768E-01 9.29585E-01 3.55993E-13 4.45352E-13
 -1       293 2.36020E+00-8.52286E+00-7.56225E-01 3.40332E+00 5.37237E-13 9.15615E-13
 -1       294 1.06625E+01-5.59468E+00-3.49323E-01 6.16481E+00 5.77510E-13 5.95503E-13
 -1       295 1.88663E+01-1.52153E+00-1.22502E-01 6.97095E+00 9.69919E-13 6.04822E-13
 -1       296 2.91207E+01 2.07539E+00 2.93172E-01 7.20495E+00 8.14793E-13 6.10789E-13
 -1       297 3.89983E+01 4.89245E+00 7.42332E-01 6.16858E+00 7.56967E-13 2.68202E-13
 -1       298 4.54489E+01 6.30272E+00 1.01396E+00 3.28470E+00 6.02782E-13-7.61613E-14
 -1       299 4.65198E+01 6.87574E+00 9.83262E-01-4.31864E-01 6.15202E-13-3.93918E-13
 -1       300 4.21742E+01 6.19032E+00 7.23289E-01-3.27540E+00 6.13662E-13-6.43596E-13
 -1       301 3.59676E+01 4.12804E+00 5.86041E-01-6.85009E+00 8.17200E-13-1.00459E-12
 -1       302 2.58275E+01 1.51082E+00 1.88134E-01-7.72081E+00 9.32393E-13-1.04627E-12
 -1       303 1.53070E+01-2.10759E+00-2.77810E-01-6.74494E+00 8.14848E-13-1.13143E-12
 -1       304 7.03303E+00-5.89221E+00-6.37219E-01-4.86799E+00 6.29108E-13-8.41549E-13
 -1       305 1.63556E+00-8.62877E+00-7.99954E-01-2.96549E+00 2.13690E-13-8.01637E-13
 -1       306-9.76041E-01-9.53295E+00-8.21139E-01-6.53841E-01-2.20178E-13-7.51399E-13
 -1       307-2.06989E-01-9.52089E+00-8.51192E-01 1.81596E+00-6.42444E-13-6.86978E-13
 -1       308 4.41226E+00-7.16447E+00-6.36383E-01 4.42650E+00-8.71636E-13-7.09585E-13
 -1       309 1.11228E+01-3.74575E+00-4.38399E-01 5.99940E+00-1.10462E-12-8.04995E-13
 -1       310 2.08824E+01 2.28701E-01-1.85493E-02 7.56664E+00-1.06148E-12-8.12211E-13
 -1       311 3.20689E+01 3.48384E+00 4.63368E-01 7.64677E+00-8.15806E-13-8.18567E-13
 -1       312 4.04200E+01 5.47075E+00 6.89938E-01 4.63818E+00-6.54518E-13-5.29660E-13
 -1       313 4.47851E+01 6.92946E+00 8.47290E-01 1.63774E+00-6.39711E-13-2.82024E-13
 -1       314 4.64821E+01 6.53875E+00 1.01238E+00-1.74383E+00-5.13881E-13 3.98986E-14
 -1       315 4.24067E+01 5.78226E+00 8.77219E-01-4.92473E+00-6.24084E-13 2.80137E-13
 -1       316 3.50986E+01 4.14764E+00 5.77211E-01-7.03940E+00-6.87554E-13 4.73455E-13
 -1       317 2.59016E+01 1.66558E+00 2.01101E-01-7.66251E+00-7.26613E-13 6.76986E-13
 -1       318 1.65699E+01-1.62502E+00-1.87962E-01-6.93364E+00-7.30582E-13 8.37497E-13
 -1       319 8.68966E+00-5.44846E+00-5.09771E-01-5.48125E+00-5.49755E-13 7.69579E-13
 -1       320 2.35680E+00-8.62651E+00-8.03192E-01-3.24914E+00-4.46004E-13 5.42795E-13
 -1       321-7.06936E-01-9.68026E+00-8.14465E-01-1.39412E+00-5.83006E-14 8.87984E-13
 -1       322 2.13344E+01 2.94636E+00-2.11421E-02-1.09778E+00-2.22571E-13-3.28695E-13
 -1       323 2.27410E+01 2.11515E+00-1.90641E-02-1.49600E+00-2.82545E-13-1.66873E-13
 -1       324 1.89310E+01 3.80053E+00-1.29766E-02-2.17474E-01-6.79832E-14-4.39622E-13
 -1       325 1.78961E+01 4.11809E+00-9.05200E-03 5.68971E-02 5.31367E-15-4.56414E-13
 -1       326 1.70758E+01 4.38027E+00-6.19901E-03 1.74255E-01 8.01796E-14-4.24499E-13
 -1       327 1.65837E+01 4.55105E+00-4.50560E-03 1.55701E-01 1.44830E-13-4.06083E-13
 -1       328 1.65103E+01 4.59155E+00-4.19600E-03 6.66109E-02 1.95333E-13-3.93658E-13
 -1       329 1.68816E+01 4.48820E+00-5.46919E-03-1.90602E-03 2.38576E-13-3.74086E-13
 -1       330 1.76314E+01 4.26385E+00-8.26883E-03 3.23783E-02 2.75054E-13-3.15734E-13
 -1       331 1.86884E+01 3.94077E+00-1.24958E-02 2.17753E-01 3.23510E-13-2.12057E-13
 -1       332 1.99445E+01 3.52692E+00-1.80978E-02 5.55266E-01 3.51101E-13-7.89464E-14
 -1       333 2.13528E+01 2.96176E+00-2.28413E-02 9.91816E-01 3.61637E-13 1.26691E-13
 -1       334 2.28429E+01 2.07032E+00-3.09421E-02 1.33654E+00 3.40761E-13 4.56829E-13
 -1       335 2.37016E+01 1.11939E+00-2.26805E-02 1.09570E+00 2.88842E-13 7.16170E-13
 -1       336 2.33575E+01 4.25586E-01 7.39449E-03 1.39757E-01 2.25958E-13 6.04714E-13
 -1       337 2.29272E+01 5.34109E-01 1.05432E-02-2.84935E-01-2.22220E-13-6.86268E-14
 -1       338 2.28018E+01 1.11766E-01 3.98977E-03 1.25208E-01-1.63647E-13-4.19918E-14
 -1       339 2.28410E+01-1.90441E-01-3.76722E-04 1.54892E-01-1.06048E-13-7.86427E-14
 -1       340 2.29497E+01-4.41740E-01-3.44751E-03-1.15391E-01-8.32960E-14-9.20645E-14
 -1       341 2.30205E+01-5.96389E-01-4.25443E-03-6.18907E-01-5.93763E-14-1.65566E-14
 -1       342 2.29398E+01-5.44321E-01-2.82944E-03-1.21230E+00-6.49272E-14-1.40144E-15
 -1       343 2.26322E+01-1.88482E-01-4.61209E-04-1.63322E+00-5.00024E-14-3.89081E-14
 -1       344 2.21448E+01 4.22160E-01 1.90370E-03-1.56282E+00-7.41464E-14-1.25358E-13
 -1       345 2.17028E+01 9.98113E-01 2.58114E-03-8.41153E-01-2.28573E-13-2.14790E-13
 -1       346 2.15880E+01 1.16969E+00 2.29460E-03 3.08002E-01-1.89055E-13-2.48915E-13
 -1       347 2.18947E+01 8.09395E-01 2.77573E-03 1.34712E+00-1.17653E-13-2.65869E-13
 -1       348 2.24257E+01 1.68540E-01 2.15541E-03 1.81817E+00-9.97493E-15-3.08547E-13
 -1       349 2.28856E+01-3.80358E-01-6.13529E-04 1.64739E+00-5.83698E-14-2.84063E-13
 -1       350 2.31010E+01-6.38156E-01-4.32109E-03 1.07874E+00-8.99430E-14-2.52847E-13
 -1       351 2.30652E+01-6.28161E-01-5.67286E-03 4.16952E-01 3.68846E-16-2.18546E-13
 -1       352 2.28522E+01-4.74084E-01-5.13068E-03-1.37318E-01 3.07976E-14-2.23455E-13
 -1       353 2.25431E+01-2.87258E-01-3.68861E-03-5.09540E-01 1.05706E-13-2.15479E-13
 -1       354 2.21968E+01-1.28736E-01-2.12393E-03-7.06874E-01 1.64820E-14-1.34000E-13
 -1       355 2.18499E+01-1.77381E-02-8.35045E-04-7.70525E-01-3.07952E-14-5.61021E-14
 -1       356 2.15237E+01 4.88623E-02 5.96147E-05-7.46567E-01 3.65959E-14-8.03247E-14
 -1       357 2.12296E+01 8.20287E-02 5.90593E-04-6.73255E-01 1.31983E-13 1.44747E-14
 -1       358 2.09731E+01 9.31005E-02 8.44176E-04-5.77928E-01 2.04138E-13-7.50120E-14
 -1       359 2.07554E+01 9.10689E-02 9.12497E-04-4.78126E-01 1.39557E-13-5.55935E-14
 -1       360 2.05751E+01 8.21846E-02 8.71059E-04-3.84000E-01 8.99844E-14 8.11884E-14
 -1       361 2.04290E+01 7.04295E-02 7.73586E-04-3.00642E-01-1.28370E-14 6.09180E-14
 -1       362 2.03130E+01 5.81576E-02 6.54654E-04-2.29944E-01 1.21372E-14 1.35178E-13
 -1       363 2.02227E+01 4.66466E-02 5.34630E-04-1.71907E-01 4.78436E-14 8.09813E-14
 -1       364 2.01537E+01 3.65012E-02 4.24325E-04-1.25512E-01 1.73159E-13 3.68230E-14
 -1       365 2.01022E+01 2.79267E-02 3.28564E-04-8.92774E-02-5.87123E-14-2.48246E-14
 -1       366 2.00645E+01 2.09036E-02 2.48644E-04-6.15829E-02-1.18391E-13-1.33656E-13
 -1       367 2.00376E+01 1.52964E-02 1.83925E-04-4.08634E-02-1.85152E-13-5.55723E-14
 -1       368 2.00189E+01 1.09191E-02 1.32814E-04-2.57041E-02-1.25831E-13 1.51419E-13
 -1       369 2.00064E+01 7.57340E-03 9.33457E-05-1.48816E-02 7.62965E-14 3.51995E-14
 -1       370 1.99985E+01 5.06945E-03 6.35168E-05-7.37261E-03 2.21462E-13-7.54416E-14
 -1       371 1.99938E+01 3.23662E-03 4.14613E-05-2.34298E-03 7.98810E-14-2.57598E-13
 -1       372 1.99914E+01 1.92765E-03 2.55316E-05 8.71713E-04-5.83681E-14-3.54482E-13
 -1       373 1.99906E+01 1.01919E-03 1.43251E-05 2.78976E-03-1.10931E-13-2.71654E-13
 -1       374 1.99907E+01 4.10220E-04 6.67715E-06 3.80698E-03-3.01602E-13 1.43239E-13
 -1       375 1.99915E+01 1.93539E-05 1.63809E-06 4.21873E-03-2.26449E-13 3.43928E-13
 -1       376 1.99926E+01-2.18311E-04-1.55890E-06 4.23922E-03 9.09885E-14 5.15958E-13
 -1       377 1.99938E+01-3.54587E-04-3.53346E-06 4.01771E-03 3.57298E-13 2.68128E-13
 -1       378 1.99951E+01-4.31589E-04-4.78346E-06 3.65130E-03 4.19117E-13 2.21878E-13
 -1       379 1.99962E+01-4.84057E-04-5.58085E-06 3.19483E-03 2.97102E-13 9.75785E-14
 -1       380 1.99973E+01-5.40289E-04-6.16986E-06 2.67202E-03-1.56394E-13 2.04759E-13
 -1       381 1.99982E+01-6.26710E-04-7.96415E-06 2.08134E-03-2.06969E-13 3.79210E-13
 -1       382 1.99989E+01-6.85021E-04-7.12196E-06 1.46259E-03-1.44045E-13 3.70165E-13
 -1       383 2.32578E+01 1.25288E-01 7.81652E-03-2.97408E-01 1.84300E-13 5.42748E-13
 -1       384 2.33549E+01-8.59088E-02 1.64878E-03-3.79250E-01 1.18059E-13 4.76689E-13
 -1       385 2.35250E+01-2.89213E-01-2.85376E-03-1.62898E-01 5.74382E-14 4.26571E-13
 -1       386 2.36255E+01-4.62925E-01-4.47864E-03 3.24477E-01 8.82974E-15 4.27435E-13
 -1       387 2.35202E+01-5.14391E-01-3.42625E-03 9.85522E-01 1.95369E-14 3.70991E-13
 -1       388 2.31162E+01-3.19558E-01-1.74282E-03 1.57461E+00 9.19171E-14 3.68419E-13
 -1       389 2.24578E+01 1.53468E-01-2.08761E-03 1.72163E+00 1.42731E-13 4.00469E-13
 -1       390 2.18060E+01 7.10517E-01-2.77174E-03 1.14452E+00 5.96797E-14 4.14046E-13
 -1       391 2.15445E+01 9.82958E-01-2.54637E-04-3.50094E-02 9.53257E-14 3.35922E-13
 -1       392 2.18721E+01 7.47654E-01 2.83101E-03-1.23508E+00 6.29167E-14 1.94109E-13
 -1       393 2.25909E+01 1.93228E-01 2.79987E-03-1.85383E+00 2.30622E-13 4.78489E-14
 -1       394 2.33072E+01-3.05451E-01-2.71928E-04-1.72734E+00 2.31657E-13-1.35877E-14
 -1       395 2.37408E+01-5.32546E-01-4.65393E-03-1.11841E+00 8.39832E-14-1.09385E-13
 -1       396 2.38299E+01-5.09640E-01-6.95407E-03-3.97643E-01 2.40901E-14 6.16709E-14
 -1       397 2.36457E+01-3.63998E-01-6.74791E-03 1.91315E-01 1.73811E-13 7.95978E-15
 -1       398 2.32913E+01-2.01542E-01-4.99438E-03 5.66470E-01 1.34901E-13 3.37087E-14
 -1       399 2.28548E+01-7.37367E-02-2.84842E-03 7.45793E-01-6.89624E-14-2.55927E-14
 -1       400 2.23986E+01 8.41737E-03-1.03399E-03 7.84399E-01-1.42742E-13-8.65268E-14
 -1       401 2.19622E+01 5.25872E-02 2.07484E-04 7.37907E-01-1.47098E-13 3.00113E-15
 -1       402 2.15682E+01 7.08460E-02 9.09021E-04 6.48767E-01 9.46836E-14-8.22286E-16
 -1       403 2.12268E+01 7.36214E-02 1.21169E-03 5.44822E-01-1.91870E-14 1.37997E-14
 -1       404 2.09404E+01 6.82371E-02 1.26162E-03 4.42314E-01-2.00726E-13-1.65730E-14
 -1       405 2.07064E+01 5.92726E-02 1.17251E-03 3.49554E-01 5.99929E-14-3.52966E-14
 -1       406 2.05195E+01 4.93523E-02 1.02014E-03 2.69943E-01 2.28448E-13-4.53140E-14
 -1       407 2.03733E+01 3.98527E-02 8.49777E-04 2.04066E-01 1.93553E-13-1.00851E-13
 -1       408 2.02612E+01 3.14087E-02 6.85820E-04 1.51041E-01-4.79236E-14-1.77885E-13
 -1       409 2.01768E+01 2.42390E-02 5.39782E-04 1.09323E-01 1.34395E-13-6.37420E-14
 -1       410 2.01146E+01 1.83419E-02 4.15747E-04 7.71588E-02 3.15460E-14 1.07633E-13
 -1       411 2.00698E+01 1.36089E-02 3.13818E-04 5.28342E-02-1.87334E-13-1.08256E-13
 -1       412 2.00383E+01 9.88772E-03 2.32145E-04 3.47954E-02 1.97790E-14-1.56018E-13
 -1       413 2.00169E+01 7.01661E-03 1.68075E-04 2.16960E-02-9.48696E-14-4.77878E-14
 -1       414 2.00029E+01 4.84172E-03 1.18772E-04 1.24064E-02-4.27512E-14 2.71776E-13
 -1       415 1.99943E+01 3.22527E-03 8.15372E-05 6.00150E-03 5.12169E-14 2.36118E-13
 -1       416 1.99896E+01 2.04849E-03 5.39567E-05 1.73964E-03 1.80004E-13 3.69879E-13
 -1       417 1.99874E+01 1.21180E-03 3.39520E-05-9.63110E-04-1.80919E-13 2.52377E-13
 -1       418 1.99869E+01 6.33446E-04 1.97816E-05-2.55813E-03-1.72070E-13 1.77700E-13
 -1       419 1.99876E+01 2.47410E-04 1.00150E-05-3.38785E-03-3.26871E-13 3.05818E-13
 -1       420 1.99888E+01 1.10825E-06 3.49331E-06-3.70660E-03 1.35552E-13 4.88719E-13
 -1       421 1.99904E+01-1.47036E-04-7.15175E-07-3.69826E-03-2.83714E-13 3.45033E-13
 -1       422 1.99921E+01-2.29956E-04-3.35900E-06-3.49072E-03-8.50688E-15 3.40388E-13
 -1       423 1.99938E+01-2.74264E-04-5.04353E-06-3.16719E-03 3.93464E-13 5.95658E-13
 -1       424 1.99953E+01-3.01982E-04-6.09361E-06-2.77471E-03 2.72831E-13 4.57867E-13
 -1       425 1.99967E+01-3.32891E-04-6.65941E-06-2.33135E-03 3.08795E-13 3.22879E-13
 -1       426 1.99978E+01-3.81470E-04-6.42226E-06-1.83073E-03 1.14888E-13 1.97222E-13
 -1       427 1.99987E+01-4.53378E-04-5.62230E-06-1.25930E-03 9.06378E-14 2.66385E-13
 -1       428 1.99992E+01-5.28925E-04-4.56093E-06-8.98565E-04-1.73736E-13 1.75907E-13
 -1       429 1.99998E+01-2.53527E-03-9.77884E-07-2.02907E-03 9.60092E-14 5.11791E-13
 -1       430 1.99995E+01-1.70225E-03-4.67313E-06-1.86101E-03 1.10379E-13-1.08617E-14
 -1       431 1.99993E+01-1.08642E-03-6.52645E-06-1.44214E-03-1.85081E-14 4.20459E-13
 -1       432 2.00000E+01-3.31804E-03 1.96420E-06-1.90917E-03 8.69822E-15-2.59879E-13
 -1       433 2.00002E+01-3.99938E-03 4.06676E-06-1.54491E-03-7.03226E-14 1.30373E-13
 -1       434 2.00004E+01-4.49450E-03 5.58182E-06-9.98110E-04 1.83947E-13 1.60226E-13
 -1       435 2.00005E+01-4.75343E-03 6.36703E-06-3.40519E-04-1.10899E-13 2.01884E-13
 -1       436 2.00005E+01-4.75073E-03 6.36554E-06 3.53562E-04-1.06967E-14 1.81310E-13
 -1       437 2.00004E+01-4.48658E-03 5.56119E-06 1.00952E-03-1.45001E-13-5.19132E-13
 -1       438 2.00002E+01-3.99760E-03 3.98904E-06 1.54524E-03 8.04384E-14-3.53898E-13
 -1       439 2.00000E+01-3.31666E-03 1.91140E-06 1.90929E-03 2.31624E-13 7.40599E-14
 -1       440 1.99998E+01-2.51938E-03-7.59599E-07 2.02899E-03 2.40267E-13 2.10991E-15
 -1       441 1.99994E+01-1.68709E-03-4.67111E-06 1.86643E-03 1.07970E-14-2.13214E-13
 -1       442 1.00169E+01-4.98742E+00 5.48877E-02 6.70414E+00-1.78510E-13 4.90115E-13
 -1       443 1.66267E+00-3.62284E+00 2.24247E-02 1.50045E-01-5.30066E-14 8.60978E-13
 -1       444 3.38809E+00-4.28650E+00-6.03272E-03 3.81558E+00-9.12326E-14 6.11441E-13
 -1       445 1.96109E+01-5.43880E+00-1.82637E-02 6.39164E+00 1.23526E-13 1.52038E-13
 -1       446 2.67595E+01-3.33807E+00-7.73622E-03 4.34415E+00 3.99028E-13 1.18294E-13
 -1       447 2.00850E+01 3.43357E+00-1.98434E-02-6.26700E-01-1.30251E-13-4.19226E-13
 -1       448 3.46590E+01 5.02370E+00 8.83913E-03-4.88178E-01 7.87037E-13-4.49502E-14
 -1       449 3.59754E+01 7.72223E+00 3.52885E-02-3.29214E-01 7.10043E-13-5.90569E-14
 -1       450 3.54638E+01 7.49734E+00 3.17384E-02 3.55520E-01 6.65468E-13-6.74183E-14
 -1       451 3.29708E+01 2.94899E+00-8.59255E-02 5.82989E-01 4.37171E-13 3.67761E-15
 -1       452 3.13651E+01-7.33737E-01-1.56551E-04-1.55578E+00 2.93298E-13-1.05832E-13
 -1       453 2.44746E+01-3.95861E+00-2.13340E-02-5.41269E+00 1.56139E-13-3.94088E-13
 -1       454 1.61321E+01-5.36925E+00-5.35015E-02-6.95970E+00 2.64788E-14-6.66595E-13
 -1       455 8.87990E+00-4.88987E+00-2.02466E-02-6.52611E+00-6.70575E-14-7.17870E-13
 -1       456 2.85618E+00-4.13897E+00-5.24376E-02-3.48295E+00-7.02702E-14-8.78742E-13
 -1       457 1.31905E+00-4.07109E+00-7.05645E-02 1.25505E+00-1.01807E-13-8.10491E-13
 -1       458 5.46006E+00-3.93647E+00 2.56101E-02 5.27752E+00-5.02376E-15-5.88501E-13
 -1       459 1.24537E+01-5.31907E+00-5.64229E-02 7.08361E+00-2.42056E-13-3.50706E-13
 -1       460 2.11534E+01-4.96454E+00-1.47113E-02 6.30939E+00-2.98483E-13-1.53877E-13
 -1       461 2.83997E+01-1.84815E+00 2.31556E-02 4.12573E+00-4.90587E-13-2.53519E-13
 -1       462 3.29612E+01 1.85954E+00 4.13754E-03 9.06161E-01-5.39228E-13-8.82350E-14
 -1       463 3.39357E+01 6.23978E+00-6.20714E-02-7.08378E-01-6.43943E-13-4.63518E-15
 -1       464 3.52776E+01 8.11169E+00 1.75123E-02 5.76365E-02-5.97633E-13-1.07454E-13
 -1       465 3.58483E+01 6.98694E+00 7.06191E-02 2.66507E-01-6.31092E-13-1.68740E-13
 -1       466 3.42649E+01 3.41549E+00 5.98148E-02-7.92794E-01-4.44013E-13-1.58748E-13
 -1       467 3.06728E+01-4.36852E-01 3.99394E-02-2.93698E+00-3.27377E-13-7.88258E-14
 -1       468 2.49406E+01-3.87083E+00-8.19552E-03-5.06853E+00-8.92481E-14-5.44009E-15
 -1       469 1.74276E+01-5.34143E+00-3.76861E-02-6.83244E+00 5.39568E-14 2.99191E-13
 -1       470 9.88371E+00-5.25612E+00-5.28874E-03-6.81110E+00 1.65173E-13 3.07754E-13
 -1       471 4.49317E+00-4.33924E+00 1.84713E-02-4.76033E+00 1.35364E-13 5.80744E-13
 -1       472 3.24904E+01 7.59813E-01 2.83296E-02 1.42424E+00 5.52466E-13-1.65146E-14
 -1       473 1.66304E+01-5.26557E+00 8.95951E-02 6.73090E+00-2.52846E-13 1.16698E-13
 -1       474 2.26202E+01 6.89044E-01 3.01495E-03-8.87662E-02 2.26445E-13 2.66845E-13
 -1       475 1.75259E+01 3.60052E+00-2.72456E-03 4.37758E-01 5.79736E-14-3.87528E-13
 -1       476 1.86202E+01 3.14131E+00-3.97486E-03 2.96665E-01-9.42741E-15-3.85601E-13
 -1       477 1.63415E+01 4.13824E+00-1.41341E-03 1.60303E-01 1.64751E-13-3.61913E-13
 -1       478 1.65135E+01 4.08144E+00-1.47400E-03-9.93162E-02 2.04122E-13-3.57109E-13
 -1       479 1.71863E+01 3.80671E+00-2.46819E-03-2.66350E-01 2.30141E-13-3.19070E-13
 -1       480 1.82593E+01 3.36469E+00-4.02402E-03-2.60996E-01 2.84552E-13-2.37646E-13
 -1       481 1.95593E+01 2.82371E+00-5.57857E-03-7.62241E-02 3.04908E-13-1.39087E-13
 -1       482 2.09613E+01 2.19229E+00-5.43795E-03 2.09824E-01 3.13405E-13 6.73051E-15
 -1       483 2.27133E+01 1.40521E-01 2.73501E-03-4.90742E-01 1.77862E-13 2.42058E-13
 -1       484 2.22134E+01 6.86411E-01 1.77446E-03-2.11127E-02-1.52884E-13-1.90265E-13
 -1       485 3.06719E+01 1.54947E+00-1.24207E-01-1.75121E+00 5.23546E-13-1.58519E-13
 -1       486 2.23834E+01 2.38023E-02 1.13613E-04 2.93626E-01-1.35713E-13-1.31783E-13
 -1       487 2.26863E+01-5.38288E-01-1.43756E-03 2.58792E-01-9.97539E-14-1.07773E-13
 -1       488 2.31069E+01-9.99253E-01-2.47202E-03-1.21725E-01-5.97972E-14-9.25697E-14
 -1       489 2.35401E+01-1.20158E+00-2.89678E-03-7.94666E-01-4.10592E-14-1.93426E-14
 -1       490 2.37958E+01-8.91047E-01-3.45118E-03-1.56379E+00-1.24726E-13-2.30267E-14
 -1       491 2.36913E+01 8.23176E-02-7.90083E-03-2.01986E+00-1.33608E-13-7.64145E-14
 -1       492 2.32784E+01 1.42884E+00-1.17116E-02-1.66405E+00-2.30260E-13-1.65814E-13
 -1       493 2.29286E+01 2.34167E+00-1.60557E-02-4.05626E-01-2.59147E-13-1.88844E-13
 -1       494 2.30252E+01 2.10552E+00-1.49439E-02 1.14389E+00-1.43302E-13-1.60608E-13
 -1       495 2.34570E+01 9.08569E-01-8.67845E-03 2.08588E+00-4.92872E-14-1.58972E-13
 -1       496 2.37870E+01-4.11368E-01-3.65015E-03 2.06535E+00-4.19033E-14-1.66821E-13
 -1       497 2.37142E+01-1.17491E+00-5.04420E-03 1.38133E+00-7.27947E-14-6.60597E-14
 -1       498 2.33147E+01-1.31824E+00-4.43566E-03 5.16180E-01-6.35552E-14 2.70760E-14
 -1       499 2.27727E+01-1.07589E+00-3.29499E-03-2.11597E-01 2.26311E-14 3.76538E-14
 -1       500 2.22409E+01-7.05495E-01-2.04599E-03-6.96910E-01 9.95240E-14 1.61976E-14
 -1       501 2.17867E+01-3.62399E-01-1.03390E-03-9.55479E-01 6.17485E-14-7.17676E-14
 -1       502 2.14209E+01-1.06312E-01-3.37315E-04-1.04369E+00 9.83801E-14 3.21800E-14
 -1       503 2.11308E+01 5.81090E-02 9.32203E-05-1.01985E+00 5.01266E-14 1.40010E-13
 -1       504 2.08995E+01 1.48599E-01 3.32040E-04-9.30957E-01 3.92344E-14 5.11580E-14
 -1       505 2.07128E+01 1.87321E-01 4.38890E-04-8.10730E-01 1.30359E-13-6.09916E-14
 -1       506 2.05608E+01 1.93379E-01 4.61608E-04-6.81409E-01 1.64861E-13-1.81887E-13
 -1       507 2.04368E+01 1.80874E-01 4.35469E-04-5.56535E-01 1.91957E-13-2.84739E-13
 -1       508 2.03358E+01 1.59284E-01 3.84787E-04-4.43510E-01-3.06121E-14-3.32831E-13
 -1       509 2.02543E+01 1.34538E-01 3.25099E-04-3.45651E-01 3.93906E-14-1.53515E-13
 -1       510 2.01893E+01 1.10090E-01 2.65566E-04-2.63709E-01 2.67330E-15-1.73522E-13
 -1       511 2.01382E+01 8.77691E-02 2.11068E-04-1.96927E-01 4.99961E-14-8.11869E-14
 -1       512 2.00985E+01 6.83876E-02 1.63780E-04-1.43754E-01 1.56428E-14-1.63018E-13
 -1       513 2.00683E+01 5.21529E-02 1.24269E-04-1.02308E-01-1.30209E-14-1.05230E-13
 -1       514 2.00457E+01 3.89316E-02 9.22078E-05-7.06553E-02-1.97750E-13-4.45537E-14
 -1       515 2.00292E+01 2.84177E-02 6.68230E-05-4.69723E-02-1.15788E-13-1.49885E-14
 -1       516 2.00173E+01 2.02347E-02 4.71636E-05-2.96325E-02-1.31723E-14-1.74839E-14
 -1       517 2.00090E+01 1.39957E-02 3.22572E-05-1.72377E-02 1.31956E-13 9.63946E-14
 -1       518 2.00035E+01 9.33708E-03 2.11955E-05-8.62168E-03 1.31314E-13 1.74463E-13
 -1       519 1.99999E+01 5.93467E-03 1.31736E-05-2.83508E-03-5.95042E-14 1.07440E-13
 -1       520 1.99978E+01 3.51023E-03 7.50475E-06 8.77972E-04-1.58936E-13-4.57040E-14
 -1       521 1.99967E+01 1.83130E-03 3.61825E-06 3.10693E-03-4.43076E-15 1.91868E-14
 -1       522 1.99962E+01 7.07648E-04 1.04924E-06 4.30174E-03-2.27670E-16 4.40775E-13
 -1       523 1.99962E+01-1.40548E-05-5.75628E-07 4.79779E-03 2.16130E-14 7.24244E-13
 -1       524 1.99965E+01-4.56379E-04-1.55059E-06 4.83772E-03-1.05371E-13 2.96952E-13
 -1       525 1.99970E+01-7.17351E-04-2.15834E-06 4.59021E-03 2.12753E-13 1.23950E-14
 -1       526 1.99975E+01-8.77669E-04-2.60442E-06 4.16551E-03 2.24151E-13 7.49779E-14
 -1       527 1.99980E+01-9.92959E-04-2.17594E-06 3.62223E-03 1.36099E-13-1.68171E-13
 -1       528 1.99985E+01-1.12990E-03-3.11046E-06 2.99733E-03-1.57383E-13-2.13023E-13
 -1       529 2.33867E+01-8.34622E-01-3.85895E-03-1.77401E-01 4.26919E-14 2.55292E-13
 -1       530 2.38494E+01-1.16894E+00-4.77352E-03 5.22226E-01 3.46235E-14 2.36549E-13
 -1       531 2.41846E+01-1.08949E+00-3.57527E-03 1.42566E+00 3.04216E-14 2.42988E-13
 -1       532 2.41613E+01-3.29728E-01-8.95644E-03 2.12408E+00 7.31268E-14 2.75961E-13
 -1       533 2.37400E+01 1.00455E+00-1.87698E-02 2.01910E+00 1.05768E-13 3.21072E-13
 -1       534 2.32871E+01 2.14762E+00-2.04118E-02 8.18043E-01 2.09307E-13 2.37869E-13
 -1       535 2.32997E+01 2.15643E+00-1.66187E-02-9.47201E-01 2.85997E-13 1.70306E-14
 -1       536 2.37597E+01 1.04024E+00-1.37749E-02-2.17566E+00 2.03085E-13-1.58071E-13
 -1       537 2.42012E+01-3.28133E-01-9.51326E-03-2.29257E+00 2.52761E-13-2.45196E-13
 -1       538 2.42287E+01-1.13811E+00-7.79732E-03-1.57056E+00 1.09366E-13-1.69836E-13
 -1       539 2.38715E+01-1.27292E+00-6.27962E-03-5.89296E-01-6.61979E-14-3.28739E-14
 -1       540 2.33289E+01-1.00327E+00-5.20619E-03 2.41438E-01 9.15813E-14 3.89714E-14
 -1       541 2.27708E+01-6.18611E-01-3.66069E-03 7.86693E-01 1.65213E-13 1.06738E-13
 -1       542 2.22733E+01-2.81824E-01-2.03388E-03 1.06308E+00-4.48762E-15 1.75126E-13
 -1       543 2.18530E+01-4.65301E-02-7.23774E-04 1.14198E+00-3.28974E-14 1.53849E-13
 -1       544 2.15019E+01 9.26075E-02 1.66004E-04 1.09663E+00-6.03096E-14 9.59368E-15
 -1       545 2.12082E+01 1.60450E-01 6.66513E-04 9.84104E-01-4.06146E-14-1.26997E-13
 -1       546 2.09620E+01 1.82357E-01 8.83722E-04 8.43359E-01 1.64584E-14-3.16288E-14
 -1       547 2.07564E+01 1.77839E-01 9.20067E-04 6.98523E-01-2.72281E-14-9.92715E-15
 -1       548 2.05863E+01 1.60002E-01 8.55949E-04 5.63112E-01-1.80791E-14-1.42570E-13
 -1       549 2.04472E+01 1.36890E-01 7.45548E-04 4.43650E-01 1.81380E-13-1.96678E-13
 -1       550 2.03352E+01 1.13074E-01 6.21616E-04 3.42357E-01 2.59548E-13-1.06473E-13
 -1       551 2.02464E+01 9.09244E-02 5.02025E-04 2.58984E-01 1.84708E-13-1.84228E-13
 -1       552 2.01771E+01 7.14998E-02 3.95306E-04 1.91990E-01-9.14913E-14-3.10981E-13
 -1       553 2.01240E+01 5.51119E-02 3.04553E-04 1.39265E-01-2.46301E-14-2.45876E-13
 -1       554 2.00841E+01 4.16739E-02 2.29912E-04 9.85594E-02-6.52677E-14-3.64436E-14
 -1       555 2.00546E+01 3.09036E-02 1.70071E-04 6.77154E-02-1.35070E-13-4.35241E-14
 -1       556 2.00333E+01 2.24415E-02 1.23111E-04 4.47886E-02-2.67097E-13 2.19892E-13
 -1       557 2.00184E+01 1.59150E-02 8.69664E-05 2.80954E-02-1.82119E-13 4.60896E-13
 -1       558 2.00082E+01 1.09729E-02 5.96644E-05 1.62207E-02 5.85500E-14 5.12580E-13
 -1       559 2.00015E+01 7.30139E-03 3.94387E-05 8.00328E-03 1.26820E-13 3.45543E-13
 -1       560 1.99974E+01 4.63014E-03 2.47682E-05 2.50938E-03-1.23217E-13 4.61104E-13
 -1       561 1.99952E+01 2.73219E-03 1.43794E-05-9.97743E-04-9.67782E-14 4.43182E-13
 -1       562 1.99941E+01 1.42095E-03 7.22816E-06-3.08871E-03-2.01681E-13 4.41161E-13
 -1       563 1.99939E+01 5.45510E-04 2.47189E-06-4.19694E-03-2.65772E-13 1.29230E-13
 -1       564 1.99943E+01-1.47504E-05-5.59922E-07-4.64435E-03-1.10238E-13 3.60081E-13
 -1       565 1.99949E+01-3.55602E-04-2.39846E-06-4.66333E-03-6.18809E-14 4.04565E-13
 -1       566 1.99957E+01-5.53340E-04-3.49552E-06-4.41503E-03 2.12513E-14 2.78564E-13
 -1       567 1.99965E+01-6.70268E-04-4.19986E-06-4.00384E-03 3.06201E-13 3.01018E-13
 -1       568 1.99973E+01-7.50527E-04-4.11288E-06-3.48874E-03 3.99879E-13 2.55455E-13
 -1       569 1.99980E+01-8.51063E-04-6.02378E-06-2.90090E-03 3.53539E-13 3.54904E-13
 -1       570 1.99987E+01-9.75892E-04-6.16131E-06-2.23750E-03-5.53768E-14 3.56047E-13
 -1       571 2.00005E+01-3.17974E-03 1.67779E-06-2.28964E-03-2.36037E-14-2.19827E-13
 -1       572 2.00009E+01-3.64679E-03 2.27182E-06-1.67451E-03 1.26683E-13 5.49951E-13
 -1       573 1.99995E+01-1.89411E-03-1.19753E-06-2.67329E-03 2.16878E-13 9.79469E-15
 -1       574 2.00000E+01-2.58354E-03 9.11408E-07-2.64208E-03-3.40704E-13 2.19523E-13
 -1       575 2.00011E+01-3.93977E-03 2.71356E-06-8.78241E-04 2.55902E-13-1.21295E-13
 -1       576 2.00012E+01-4.03803E-03 2.89960E-06 8.75194E-06-6.42138E-14 2.77073E-13
 -1       577 2.00011E+01-3.93516E-03 2.70860E-06 8.94792E-04-1.83852E-13-1.86843E-13
 -1       578 2.00009E+01-3.64510E-03 2.12331E-06 1.67606E-03 2.85668E-15-2.26795E-13
 -1       579 2.00005E+01-3.17718E-03 1.39409E-06 2.28972E-03 2.54727E-13-4.64478E-14
 -1       580 2.00000E+01-2.57064E-03 1.07666E-06 2.64363E-03 9.86034E-14 2.61409E-14
 -1       581 1.99995E+01-1.87673E-03-1.95720E-06 2.66032E-03-2.14883E-13-2.44732E-13
 -1       582 5.68735E+00-1.32297E+00 1.74044E-01-2.59301E+00 2.10207E-13 6.29677E-13
 -1       583 2.29779E+01-3.58809E-01-1.11715E-03-5.21709E-01 9.53074E-14 2.64119E-13
 -1       584 5.73736E+00-1.26729E+00 1.86494E-01 2.29769E+00-1.68712E-13 4.96880E-13
 -1       585 1.67954E+01-5.21209E+00 9.00679E-02-6.81483E+00 4.43048E-13 6.47538E-14
 -1       586 2.47680E+01-5.35001E+00-9.79635E-03 4.07873E+00 2.31482E-14-9.10348E-14
 -1       587 9.51896E+00-2.68317E+00 1.67468E-01 5.49148E+00-2.85078E-13 5.45196E-13
 -1       588 2.95016E+01 6.83423E+00-1.81864E-01-7.57196E-01-5.63230E-13-1.69479E-13
 -1       589 2.96578E+01 4.57164E+00-1.69738E-01 1.99913E+00 4.18193E-13 8.37247E-14
 -1       590 1.67111E+01 3.95995E+00-1.97171E-03 3.77642E-01 1.19839E-13-3.67696E-13
 -1       591 2.91536E+01 6.86576E+00-1.82533E-01 4.45096E-02 7.33580E-13-5.39204E-14
 -1       592 2.24589E+01-5.41036E+00 3.43042E-02-5.40606E+00-1.95295E-13-2.17250E-13
 -1       593 2.97896E+01 5.80254E+00-1.94286E-01-1.64030E+00 7.12749E-13-1.10838E-13
 -1       594 2.99338E+01-4.33060E-01-1.25945E-01 1.27951E+00 1.83888E-13 1.72952E-13
 -1       595 3.03193E+01-8.50777E-02-9.81412E-02 6.81004E-01-1.47972E-13-4.53748E-13
 -1       596 2.78095E+01-4.05796E+00-4.27639E-02-2.00279E+00-6.83412E-14 5.06678E-14
 -1       597 1.57254E+01-4.60677E+00 9.99236E-02-6.83120E+00-2.33299E-13-4.86430E-13
 -1       598 8.09363E+00-2.54899E+00 1.29655E-01-5.37885E+00-1.57076E-13-7.42018E-13
 -1       599 4.83587E+00-7.93257E-01 1.77042E-01-1.13870E+00 3.38080E-14-8.16583E-13
 -1       600 5.85809E+00-9.25332E-01 1.87006E-01 2.80054E+00 1.43385E-13-6.22905E-13
 -1       601 1.23859E+01-3.50201E+00 1.26131E-01 6.62088E+00 1.87877E-13-2.86868E-13
 -1       602 1.84671E+01-4.93967E+00 6.85640E-02 6.52506E+00 8.86582E-14-4.15640E-14
 -1       603 2.61411E+01-4.41165E+00-1.21173E-02 3.42698E+00-8.99940E-14 3.98639E-14
 -1       604 2.96197E+01-1.80003E+00-8.17344E-02 3.83817E-01-2.73017E-13 9.08787E-14
 -1       605 3.01306E+01 2.71224E+00-1.52972E-01-1.83435E+00-4.79651E-13 4.84265E-14
 -1       606 3.03871E+01 6.86753E+00-1.64322E-01 9.79504E-01-4.85723E-13-1.76810E-13
 -1       607 3.11753E+01 4.36240E+00-1.28897E-01 1.65704E+00-4.06938E-13-3.16747E-13
 -1       608 2.83831E+01-3.38696E+00-2.99251E-02-1.69257E+00 2.89126E-14-3.70530E-13
 -1       609 2.25576E+01-5.58714E+00 1.45859E-02-5.29495E+00 3.25406E-13-1.09444E-13
 -1       610 1.00070E+01-3.07873E+00 1.41455E-01-5.99703E+00 3.45349E-13 1.38604E-13
 -1       611 2.18881E+01 1.59926E+00-7.07124E-03-5.36041E-01-2.03219E-13-2.63734E-13
 -1       612 2.27432E+01 1.21720E+00-3.19563E-03 5.09170E-01 2.96136E-13 3.39085E-13
 -1       613 2.92289E+01-2.79672E+00-5.67232E-02 7.49016E-01 2.89728E-13-1.45071E-13
 -1       614 1.98339E+01 2.64328E+00-6.10589E-03-6.26744E-03-8.83900E-14-3.89556E-13
 -1       615 2.14060E+01-5.32977E+00 5.85999E-02 5.13130E+00-1.59196E-13 1.47492E-13
 -1       616 1.99989E+01-1.22945E-03-4.02908E-06 2.51672E-03-2.85299E-13-1.19158E-13
 -1       617 1.43487E+01-3.44305E+00 1.17721E-01 6.04069E+00-2.55782E-13 1.79676E-13
 -1       618 2.77102E+01 4.29986E+00-1.37399E-01-2.04000E+00-4.63241E-13 5.78704E-15
 -1       619 2.32933E+01-5.11321E+00 3.60651E-02 4.45903E+00 9.15691E-14 7.55923E-14
 -1       620 1.04180E+01-1.20399E+00 1.35235E-01 4.97865E+00 2.40252E-13-4.00777E-13
 -1       621 1.65541E+01 3.38936E+00-1.66248E-04-4.97548E-01 1.88107E-13-3.05086E-13
 -1       622 1.60149E+01 3.63387E+00-1.90218E-04-2.89658E-02 1.69273E-13-3.34199E-13
 -1       623 1.90353E+01 2.26561E+00-1.19615E-03-7.13232E-01 2.23737E-13-1.71461E-13
 -1       624 2.04834E+01 1.62668E+00-8.41151E-04-5.01920E-01 2.33238E-13-6.58596E-14
 -1       625 2.17252E+01 7.90230E-01 2.25236E-03-4.89505E-01 2.16183E-13 7.84231E-14
 -1       626 2.20401E+01-5.77261E-03 2.69107E-04-8.55150E-01 1.12790E-13 7.56008E-14
 -1       627 1.02825E+01-9.39744E-01 1.28510E-01-4.10975E+00 3.85898E-13 2.24924E-13
 -1       628 2.19333E+01-2.33297E-01-1.94545E-04 6.84926E-01-7.12831E-14-1.96948E-13
 -1       629 2.25841E+01-1.06998E+00-5.41585E-04 6.29577E-01-5.54646E-14-1.54551E-13
 -1       630 2.34566E+01-1.74522E+00-1.41515E-03 1.67163E-01 5.50084E-15-1.29106E-13
 -1       631 2.44110E+01-1.92761E+00-5.16199E-03-7.14443E-01-3.56005E-14-9.79223E-14
 -1       632 2.50549E+01-1.08516E+00-1.95449E-02-1.75618E+00-1.15303E-13 3.94452E-14
 -1       633 2.51279E+01 9.34352E-01-3.31605E-02-2.28790E+00-2.57946E-13 4.68896E-14
 -1       634 2.46115E+01 3.28255E+00-6.86826E-02-1.50091E+00-2.86236E-13-9.16683E-14
 -1       635 2.44181E+01 3.92765E+00-8.47131E-02 5.01137E-01-2.32736E-13-1.83406E-13
 -1       636 2.47285E+01 2.41958E+00-7.74355E-02 2.16399E+00-1.48900E-13-3.32059E-13
 -1       637 2.51782E+01 2.69062E-02-3.29416E-02 2.46815E+00-4.05925E-14-3.37833E-13
 -1       638 2.49099E+01-1.65491E+00-4.95468E-03 1.54325E+00 1.12163E-13-2.41492E-13
 -1       639 2.40076E+01-2.16607E+00-4.50084E-04 3.56505E-01 8.88066E-14-4.51549E-15
 -1       640 2.29606E+01-1.87298E+00 1.55497E-04-5.42436E-01 2.29081E-14 1.95107E-13
 -1       641 2.20564E+01-1.28554E+00-2.57147E-04-1.06757E+00 3.69043E-14 1.50457E-13
 -1       642 2.13885E+01-7.09093E-01-3.42023E-04-1.30041E+00 2.11621E-14 1.65403E-13
 -1       643 2.09367E+01-2.63635E-01-2.91664E-04-1.34430E+00 1.50697E-13 7.78983E-14
 -1       644 2.06451E+01 3.36637E-02-2.17250E-04-1.27764E+00 7.07227E-14 9.48292E-14
 -1       645 2.04597E+01 2.07126E-01-1.31282E-04-1.15235E+00-8.59445E-14 6.12210E-14
 -1       646 2.03402E+01 2.90857E-01-5.38066E-05-1.00138E+00 6.61511E-14-8.28158E-15
 -1       647 2.02602E+01 3.15601E-01 5.45213E-06-8.45190E-01 8.87054E-14 3.22139E-14
 -1       648 2.02036E+01 3.04911E-01 4.45385E-05-6.96096E-01 3.83541E-14-8.81725E-14
 -1       649 2.01612E+01 2.75242E-01 6.61308E-05-5.60977E-01 8.92359E-16-1.14398E-13
 -1       650 2.01279E+01 2.37343E-01 7.46462E-05-4.43066E-01 7.97589E-15-1.58836E-13
 -1       651 2.01011E+01 1.97816E-01 7.44121E-05-3.43203E-01 1.09541E-13-2.73228E-13
 -1       652 2.00793E+01 1.60425E-01 6.89364E-05-2.60721E-01 1.25264E-14-2.53568E-13
 -1       653 2.00614E+01 1.27082E-01 6.07736E-05-1.94085E-01 3.17417E-14-2.30316E-13
 -1       654 2.00468E+01 9.85351E-02 5.16438E-05-1.41332E-01 6.42563E-14-2.54009E-13
 -1       655 2.00352E+01 7.48388E-02 4.26218E-05-1.00372E-01-9.83758E-14-2.55398E-13
 -1       656 2.00259E+01 5.56621E-02 3.43205E-05-6.91739E-02 1.95928E-14 2.95455E-14
 -1       657 2.00187E+01 4.04845E-02 2.70392E-05-4.58777E-02-1.03412E-13 1.43271E-13
 -1       658 2.00131E+01 2.87173E-02 2.08757E-05-2.88473E-02-5.43500E-14 1.91867E-14
 -1       659 2.00089E+01 1.97763E-02 1.58054E-05-1.66896E-02-1.58085E-13-2.24659E-13
 -1       660 2.00058E+01 1.31220E-02 1.17357E-05-8.24842E-03-2.44663E-14-4.08662E-13
 -1       661 2.00036E+01 8.27825E-03 8.54119E-06-2.58628E-03-8.01354E-14-4.90094E-14
 -1       662 2.00020E+01 4.83872E-03 6.08619E-06 1.04129E-03 3.87345E-14-9.72672E-14
 -1       663 2.00009E+01 2.46522E-03 4.23732E-06 3.21351E-03 1.50024E-13 5.83311E-14
 -1       664 2.00002E+01 8.81528E-04 2.86862E-06 4.37144E-03 1.43000E-14 1.42942E-14
 -1       665 1.99997E+01-1.34945E-04 1.86672E-06 4.84289E-03-2.89744E-13-1.00076E-14
 -1       666 1.99995E+01-7.62166E-04 1.20727E-06 4.86428E-03-6.10939E-14-1.21423E-13
 -1       667 1.99993E+01-1.14126E-03 1.17374E-06 4.59892E-03 2.14419E-13-1.95822E-13
 -1       668 1.99993E+01-1.39569E-03-5.20272E-06 4.15581E-03 2.28540E-15-3.16061E-13
 -1       669 1.99993E+01-1.60414E-03 4.99598E-07 3.59021E-03-1.64937E-13-3.57453E-13
 -1       670 2.45166E+01-2.08848E+00-6.72588E-03 4.08172E-01 9.53122E-15 2.00590E-13
 -1       671 2.34613E+01-1.61908E+00-2.25642E-03-4.87633E-01 1.07907E-14 1.13529E-13
 -1       672 2.56329E+01 1.54010E-01-2.20475E-02 2.44303E+00 3.71916E-14 3.21816E-13
 -1       673 2.52002E+01 2.74845E+00-8.61602E-02 2.00624E+00 2.32708E-13 2.89182E-13
 -1       674 2.50506E+01 4.03784E+00-8.17259E-02-4.77523E-02 4.71883E-13 1.35737E-13
 -1       675 2.53047E+01 2.81613E+00-7.74181E-02-2.09452E+00 4.33646E-13-1.94068E-13
 -1       676 2.57031E+01 2.40597E-01-4.93447E-02-2.68614E+00 2.69383E-13-4.29773E-13
 -1       677 2.54367E+01-1.65967E+00-6.49317E-03-1.76219E+00 4.49263E-14-2.55093E-13
 -1       678 2.44800E+01-2.23677E+00 1.34759E-03-4.45961E-01-1.35885E-13-1.14055E-13
 -1       679 2.33579E+01-1.88814E+00 2.67098E-03 5.73364E-01-6.26067E-14-1.09828E-13
 -1       680 2.23941E+01-1.24027E+00-1.26094E-04 1.17281E+00 5.47899E-14 2.61644E-14
 -1       681 2.16900E+01-6.27775E-01-7.11785E-04 1.43497E+00-3.61386E-15 9.16088E-14
 -1       682 2.12145E+01-1.78637E-01-6.96753E-04 1.47890E+00-9.50157E-15 1.13079E-13
 -1       683 2.09010E+01 1.02028E-01-4.41236E-04 1.39706E+00 9.86464E-14 4.94804E-14
 -1       684 2.06904E+01 2.51574E-01-2.03784E-04 1.25044E+00 2.26512E-14-9.88752E-14
 -1       685 2.05418E+01 3.12520E-01-3.37100E-05 1.07752E+00-4.65677E-14-2.13221E-13
 -1       686 2.04306E+01 3.19481E-01 6.88334E-05 9.01733E-01 2.06376E-14-2.26981E-13
 -1       687 2.03432E+01 2.96875E-01 1.19972E-04 7.36614E-01 6.95150E-14-2.69647E-13
 -1       688 2.02721E+01 2.60472E-01 1.37520E-04 5.89165E-01 4.93703E-14-1.82353E-13
 -1       689 2.02136E+01 2.19766E-01 1.35372E-04 4.62194E-01 1.97757E-13-1.06073E-13
 -1       690 2.01655E+01 1.80081E-01 1.22988E-04 3.55905E-01 2.15050E-13-1.55355E-14
 -1       691 2.01261E+01 1.44111E-01 1.06273E-04 2.68995E-01-2.49257E-14 1.16959E-13
 -1       692 2.00945E+01 1.12978E-01 8.86653E-05 1.99377E-01-1.22891E-13-5.03830E-14
 -1       693 2.00693E+01 8.68962E-02 7.20165E-05 1.44655E-01-1.20110E-13 1.09846E-13
 -1       694 2.00497E+01 6.55943E-02 5.72092E-05 1.02415E-01-1.10545E-13 1.03377E-13
 -1       695 2.00347E+01 4.85629E-02 4.45598E-05 7.03978E-02-2.83791E-13 3.83723E-14
 -1       696 2.00234E+01 3.52043E-02 3.40687E-05 4.65844E-02-3.68004E-13 2.52587E-14
 -1       697 2.00151E+01 2.49160E-02 2.55713E-05 2.92326E-02-1.18281E-13 3.12172E-14
 -1       698 2.00091E+01 1.71363E-02 1.88286E-05 1.68789E-02 1.23706E-13 2.62929E-13
 -1       699 2.00049E+01 1.13656E-02 1.35787E-05 8.32163E-03 5.97316E-14 3.16037E-13
 -1       700 2.00021E+01 7.17434E-03 9.56601E-06 2.59369E-03-1.28779E-14-3.00742E-14
 -1       701 2.00002E+01 4.20222E-03 6.55573E-06-1.06841E-03-1.21401E-13 3.12559E-14
 -1       702 1.99991E+01 2.15293E-03 4.33762E-06-3.25624E-03-1.73548E-13 6.15126E-14
 -1       703 1.99985E+01 7.86551E-04 2.72744E-06-4.41900E-03-2.12675E-13-2.10420E-14
 -1       704 1.99983E+01-8.89986E-05 1.58861E-06-4.88983E-03-1.17623E-13-2.95478E-14
 -1       705 1.99982E+01-6.26609E-04 8.05200E-07-4.90861E-03 1.22474E-13-1.69831E-13
 -1       706 1.99984E+01-9.48217E-04 2.26201E-07-4.64120E-03 1.53877E-13-2.73008E-13
 -1       707 1.99985E+01-1.15664E-03-2.10506E-06-4.19980E-03 1.41188E-13-2.45576E-14
 -1       708 1.99988E+01-1.32435E-03-4.78379E-08-3.63762E-03 3.47371E-13 1.44783E-13
 -1       709 1.99992E+01-1.58738E-03-5.20963E-07-3.18620E-03 1.34433E-13 1.63604E-13
 -1       710 1.55635E+01-3.58889E+00 1.03565E-01-6.09294E+00 4.94695E-13 3.95864E-15
 -1       711 2.00020E+01-3.47481E-03 9.38896E-07-5.17429E-04 2.94073E-13-3.81506E-13
 -1       712 2.81810E+01-5.67726E-01-8.33491E-02-1.64127E+00-1.86330E-13 5.69787E-14
 -1       713 2.00013E+01-3.01107E-03 5.17189E-07-2.38189E-03 1.31277E-13 5.37689E-14
 -1       714 2.00020E+01-3.47254E-03 1.00699E-06 5.38604E-04-1.29571E-13-1.69416E-13
 -1       715 2.00018E+01-3.31807E-03 9.88526E-07-1.52402E-03 9.99923E-14 5.54893E-13
 -1       716 2.00018E+01-3.31629E-03 8.09555E-07 1.52696E-03-1.59762E-13-5.47696E-14
 -1       717 2.00013E+01-3.00958E-03 8.52184E-08 2.38489E-03 1.81232E-13-1.63040E-14
 -1       718 2.00006E+01-2.54454E-03-5.75476E-07 2.98443E-03 1.59664E-13-3.52987E-13
 -1       719 2.26062E+01-8.31487E-01-1.86697E-03-8.81517E-01 5.61888E-14 5.91711E-14
 -1       720 2.78421E+01-2.31450E+00-6.99030E-02 8.05982E-01 7.25427E-14-5.18960E-13
 -1       721 1.03526E+01-6.37156E-01 1.36542E-01 3.54197E+00-1.36859E-13 6.07819E-13
 -1       722 8.91251E+00-1.76134E-01 1.47426E-01-3.37937E+00-6.02227E-14-6.26187E-13
 -1       723 2.84616E+01 1.50548E+00-9.83518E-02 2.32274E+00-1.19158E-13-4.43444E-13
 -1       724 2.53987E+01-1.65035E+00-1.74479E-02 1.61702E+00 2.81849E-15 2.87089E-13
 -1       725 2.15081E+01 6.43188E-01 9.25749E-04 4.11769E-01-8.42011E-14-2.47607E-13
 -1       726 2.81863E+01-1.50771E+00-8.26340E-02-1.66086E+00 2.13499E-13-2.33990E-13
 -1       727 1.99994E+01-1.73272E-03-2.54001E-06 3.13890E-03-1.36995E-14-4.51235E-13
 -1       728 1.76438E+01 2.88801E+00-1.02442E-03-7.44416E-01 2.06633E-13-2.56654E-13
 -1       729 1.81541E+01 2.57878E+00-1.32882E-03 8.61691E-01 4.03081E-14-3.28128E-13
 -1       730 2.56009E+01-4.80571E+00-1.39147E-02-2.43992E+00 3.68972E-13-3.25944E-13
 -1       731 2.05905E+01-4.59282E+00 6.86491E-02-5.31260E+00-2.73701E-13-2.10250E-13
 -1       732 8.05070E+00 1.18183E-01 1.44860E-01 1.56882E-01 3.94771E-14 3.31270E-13
 -1       733 1.36538E+01-2.48865E+00 1.10040E-01-5.85007E+00-2.57908E-13-4.71526E-13
 -1       734 2.77696E+01-2.84599E+00-4.42054E-02 4.72350E-01-7.74407E-14 1.71103E-13
 -1       735 2.51732E+01-4.81139E+00 1.13494E-03-2.90409E+00-1.98105E-13 7.09051E-14
 -1       736 7.62838E+00 5.56299E-01 1.59612E-01 6.84005E-01 1.21463E-13-6.77673E-13
 -1       737 1.73586E+01-3.44180E+00 1.01864E-01 5.89491E+00 2.33712E-13-8.10237E-14
 -1       738 2.69396E+01 5.85308E+00-1.62847E-01 3.11144E-01-4.48509E-13-2.40750E-13
 -1       739 2.74023E+01-3.62954E+00-2.89647E-02 9.51680E-01-4.93546E-14 1.29792E-13
 -1       740 2.78981E+01 4.58808E+00-1.35077E-01 2.00336E+00-3.68081E-13-3.70454E-13
 -1       741 2.78804E+01 2.53176E+00-1.14095E-01-2.59729E+00 5.31297E-13-2.68546E-13
 -1       742 2.65594E+01-4.28295E+00-3.08125E-02 1.13776E+00-5.88913E-14-3.08979E-13
 -1       743 2.10255E+01-4.96959E+00 5.32369E-02-5.11777E+00 5.38194E-13-1.44564E-13
 -1       744 1.94851E+01 1.98793E+00-1.80602E-03 6.44858E-01-3.30511E-14-3.31300E-13
 -1       745 1.61748E+01 3.53415E+00-1.37377E-03 4.81972E-01 1.35189E-13-3.32028E-13
 -1       746 2.43678E+01-4.73524E+00 7.75219E-03 2.62697E+00-9.45528E-14-3.51065E-13
 -1       747 1.34294E+01-1.41368E+00 9.10453E-02 4.50528E+00-6.70453E-14 4.91301E-13
 -1       748 2.00001E+01-2.21223E-03 6.00442E-07-3.18226E-03 5.01616E-14-2.83074E-13
 -1       749 2.74861E+01 4.79878E+00-1.59760E-01-1.75067E+00 6.79456E-13-1.79166E-13
 -1       750 1.84409E+01-4.01425E+00 5.17791E-02 5.36147E+00-1.54564E-13 3.40946E-13
 -1       751 1.02485E+01 4.22196E-01 1.07763E-01 3.00570E+00 2.21894E-13-4.54546E-13
 -1       752 2.09912E+01 1.30029E+00-9.24179E-04 2.58194E-01-1.09537E-13-2.99882E-13
 -1       753 2.00001E+01-2.08734E-03 1.60768E-06 3.38757E-03-1.33453E-13-3.46105E-13
 -1       754 2.00007E+01-2.65230E-03-1.36327E-06-2.88554E-03 2.64290E-15 7.67733E-14
 -1       755 1.69626E+01 3.13683E+00-2.44793E-03 8.17815E-01 9.58795E-14-3.19310E-13
 -1       756 2.71960E+01-5.00108E-02-6.99931E-02 2.34768E+00 8.91683E-14 3.39458E-13
 -1       757 2.64288E+01-2.85855E+00-1.53595E-02-8.12049E-01-1.12178E-13-2.75005E-13
 -1       758 1.99836E+01 1.05556E+00-2.94145E-03-1.18550E+00 1.39322E-13-1.01100E-13
 -1       759 2.73085E+01 1.18796E+00-8.52961E-02-2.30517E+00-3.39399E-13 1.35569E-13
 -1       760 2.07224E+01 5.07746E-01 1.58831E-03 1.00187E+00-4.04076E-14-2.60897E-13
 -1       761 2.59798E+01-3.50157E+00-1.26982E-02-1.93897E-01 2.61647E-13-4.24101E-13
 -1       762 2.23933E+01-1.73615E+00-5.77428E-05 1.38163E+00 2.07719E-14-1.05526E-13
 -1       763 2.38948E+01-2.68220E+00 1.07673E-02 9.15354E-01 1.95919E-15-3.43138E-14
 -1       764 2.55982E+01-2.80683E+00-1.97544E-02-2.63803E-01 1.61702E-14 3.34260E-14
 -1       765 2.65127E+01-7.82521E-01-3.79370E-02-1.89243E+00-1.42436E-13 1.34099E-13
 -1       766 2.37334E+01-3.55907E+00 1.02359E-02-1.61435E+00 3.41392E-13-2.28369E-13
 -1       767 2.19054E+01-2.59515E+00 2.54936E-03-2.17323E+00 2.14678E-13-3.18703E-14
 -1       768 2.07171E+01-1.52933E+00-5.32017E-04-2.20560E+00 3.55215E-14 3.59963E-14
 -1       769 2.00493E+01-6.86021E-01-9.59909E-04-2.01043E+00 5.53936E-14 7.62389E-14
 -1       770 1.97237E+01-1.08286E-01-7.48441E-04-1.75022E+00 2.47090E-15 8.70356E-14
 -1       771 1.96012E+01 2.47387E-01-4.93233E-04-1.49051E+00 6.36181E-15-5.65063E-14
 -1       772 1.95890E+01 4.40012E-01-2.73025E-04-1.25263E+00 4.84921E-14-9.31220E-14
 -1       773 1.96306E+01 5.21437E-01-1.40849E-04-1.04100E+00-6.53796E-14 4.07666E-14
 -1       774 1.96930E+01 5.31743E-01-7.10876E-05-8.55171E-01 4.26835E-14-2.58457E-14
 -1       775 1.97586E+01 4.99927E-01-3.95742E-05-6.93689E-01 1.23048E-14-1.96440E-13
 -1       776 1.98185E+01 4.45967E-01-2.80468E-05-5.55030E-01-8.09981E-14-1.08149E-14
 -1       777 1.98691E+01 3.83026E-01-2.52264E-05-4.37613E-01-2.36287E-14-9.79082E-14
 -1       778 1.99096E+01 3.19347E-01-2.51333E-05-3.39700E-01-8.76372E-14-5.65395E-14
 -1       779 1.99408E+01 2.59735E-01-2.50970E-05-2.59356E-01-7.25522E-14-2.53439E-13
 -1       780 1.99639E+01 2.06679E-01-2.42334E-05-1.94507E-01 1.83298E-14-2.90561E-13
 -1       781 1.99804E+01 1.61158E-01-2.24898E-05-1.43030E-01-3.20426E-14-3.02504E-13
 -1       782 1.99918E+01 1.23212E-01-2.01211E-05-1.02852E-01 1.16043E-13-1.85458E-13
 -1       783 1.99993E+01 9.23383E-02-1.74378E-05-7.20310E-02-4.60753E-14-2.00426E-13
 -1       784 2.00038E+01 6.77533E-02-1.47026E-05-4.88137E-02-8.33220E-14-1.69722E-13
 -1       785 2.00063E+01 4.85647E-02-1.21019E-05-3.16614E-02-3.03727E-13 2.25041E-14
 -1       786 2.00074E+01 3.38784E-02-9.74943E-06-1.92602E-02-3.01630E-13-1.99422E-13
 -1       787 2.00076E+01 2.28595E-02-7.70167E-06-1.05141E-02 3.27572E-14-3.04370E-13
 -1       788 2.00072E+01 1.47649E-02-5.97436E-06-4.52813E-03-6.77111E-15-3.02772E-13
 -1       789 2.00064E+01 8.95483E-03-4.55743E-06-5.85633E-04-1.90617E-13-5.09566E-13
 -1       790 2.00055E+01 4.89256E-03-3.42324E-06 1.87579E-03-2.10177E-14-8.64199E-13
 -1       791 2.00046E+01 2.13700E-03-2.53405E-06 3.28888E-03 1.42667E-13-8.28545E-13
 -1       792 2.00037E+01 3.31015E-04-1.86090E-06 3.97933E-03-1.37733E-14-5.19842E-13
 -1       793 2.00028E+01-8.11482E-04-1.37192E-06 4.18602E-03-2.12607E-13-1.42447E-13
 -1       794 2.00020E+01-1.51799E-03-8.81500E-07 4.07813E-03-1.13824E-13-2.79119E-13
 -1       795 2.00013E+01-1.98934E-03-1.42184E-06 3.78572E-03-1.12691E-14-5.90592E-13
 -1       796 2.44971E+01-3.26341E+00-7.47295E-04 7.18789E-01-1.38596E-13-2.81748E-13
 -1       797 2.27446E+01-2.52101E+00-6.53978E-03 1.60111E+00-1.02240E-13-3.11810E-13
 -1       798 2.14871E+01-1.50113E+00-1.46221E-03 1.92293E+00-5.65021E-14-2.69326E-13
 -1       799 2.07370E+01-6.70565E-01-6.46815E-04 1.91521E+00-5.01184E-14-1.67727E-13
 -1       800 2.03297E+01-1.04717E-01-2.67726E-04 1.76616E+00-4.98000E-15-1.69545E-13
 -1       801 2.01308E+01 2.33258E-01 7.09655E-05 1.56473E+00 2.99004E-14-1.58835E-13
 -1       802 2.00466E+01 4.05948E-01 1.91574E-04 1.34992E+00 1.12405E-13-2.39876E-14
 -1       803 2.00195E+01 4.70154E-01 2.22626E-04 1.14035E+00-6.53102E-14-1.09766E-13
 -1       804 2.00172E+01 4.68879E-01 2.04412E-04 9.45493E-01-1.53982E-14-2.25893E-13
 -1       805 2.00230E+01 4.31805E-01 1.67676E-04 7.70280E-01 7.15645E-14-1.26019E-13
 -1       806 2.00293E+01 3.78112E-01 1.28483E-04 6.16956E-01 4.77152E-14-9.95986E-14
 -1       807 2.00333E+01 3.19503E-01 9.37507E-05 4.85920E-01 1.09310E-13-2.60816E-13
 -1       808 2.00345E+01 2.62672E-01 6.56608E-05 3.76297E-01 1.08829E-13-2.36706E-14
 -1       809 2.00334E+01 2.11102E-01 4.41724E-05 2.86372E-01-1.17599E-13 1.06706E-13
 -1       810 2.00307E+01 1.66294E-01 2.83618E-05 2.13957E-01-2.61278E-13 2.10319E-13
 -1       811 2.00272E+01 1.28570E-01 1.70871E-05 1.56666E-01-1.19344E-13 2.75639E-13
 -1       812 2.00232E+01 9.75940E-02 9.27964E-06 1.12125E-01-1.05943E-14 6.88059E-14
 -1       813 2.00194E+01 7.26916E-02 4.04492E-06 7.80994E-02-3.05159E-13-2.45366E-14
 -1       814 2.00157E+01 5.30513E-02 6.75366E-07 5.25786E-02-3.43399E-13 1.37758E-13
 -1       815 2.00125E+01 3.78405E-02-1.37051E-06 3.38094E-02-1.66197E-13-9.80644E-14
 -1       816 2.00098E+01 2.62720E-02-2.49838E-06 2.03046E-02 6.63765E-14-1.83870E-13
 -1       817 2.00075E+01 1.76381E-02-3.00724E-06 1.08313E-02-3.81058E-14-7.46435E-14
 -1       818 2.00056E+01 1.13247E-02-3.11436E-06 4.38872E-03 5.24662E-14 7.74304E-14
 -1       819 2.00041E+01 6.81232E-03-2.97574E-06 1.79864E-04-7.75343E-14 2.35176E-14
 -1       820 2.00029E+01 3.67126E-03-2.70415E-06-2.41795E-03-5.48426E-14-2.52878E-13
 -1       821 2.00020E+01 1.55153E-03-2.39016E-06-3.88167E-03-1.32965E-13-3.35229E-13
 -1       822 2.00013E+01 1.71612E-04-2.06986E-06-4.56851E-03 1.25943E-14-3.38931E-13
 -1       823 2.00007E+01-6.92578E-04-1.67122E-06-4.73887E-03 1.34729E-13-2.89332E-13
 -1       824 2.00003E+01-1.21910E-03-1.07603E-06-4.57678E-03 1.43485E-13-1.89735E-13
 -1       825 2.00000E+01-1.55734E-03-1.65766E-06-4.20969E-03-1.06131E-14-2.61262E-13
 -1       826 2.00000E+01-1.90473E-03-3.58458E-06-3.68348E-03 2.53905E-13-1.52924E-13
 -1       827 2.00029E+01-2.95529E-03 5.70497E-07 1.17092E-03-7.70382E-14 4.75810E-16
 -1       828 2.00030E+01-3.01830E-03 3.16445E-07 2.66610E-06 1.62251E-13-4.89078E-13
 -1       829 2.29665E+01-3.93197E+00 1.99412E-02-3.16314E+00-1.71291E-13-6.33760E-15
 -1       830 1.10556E+01 4.78613E-01 7.81414E-02 1.44491E+00 9.71472E-14 3.41158E-13
 -1       831 1.91182E+01-3.50673E+00 4.43385E-02-4.77457E+00 4.56140E-13-7.93393E-14
 -1       832 2.00024E+01-2.77140E-03-3.09069E-07 2.23544E-03 5.74638E-14 1.54820E-13
 -1       833 2.35523E+01-2.60334E+00 7.21053E-03-1.31238E+00-7.71748E-14 9.49579E-14
 -1       834 2.68354E+01-2.45539E+00-3.36983E-02-6.60729E-01-2.87040E-14 7.72698E-14
 -1       835 1.31587E+01-4.11846E-01 7.34314E-02-4.20479E+00-1.29560E-13-4.19737E-13
 -1       836 2.13625E+01-5.91837E-01 1.80265E-03 1.34961E+00-9.78595E-15-1.87729E-13
 -1       837 2.10942E+01 4.52224E-01 1.18155E-03-1.05433E+00 1.38115E-13-2.10206E-14
 -1       838 2.33579E+01-4.50228E+00 8.48488E-03-3.06929E+00 4.61948E-13-2.37309E-13
 -1       839 1.56397E+01 3.00129E+00 1.40376E-04-5.39907E-01 1.43993E-13-3.35904E-13
 -1       840 2.50438E+01-4.19917E+00-4.41335E-04 2.11090E+00 6.36661E-14 1.02550E-13
 -1       841 2.00863E+01 1.23830E+00-1.53709E-04 8.53118E-01-2.41636E-14-3.05759E-13
 -1       842 2.10463E+01-3.69312E+00 3.16481E-02 4.28819E+00 1.76895E-13-2.95692E-14
 -1       843 2.56878E+01-3.56847E+00-6.20236E-04-7.05852E-01-1.32615E-13 1.40936E-13
 -1       844 1.48233E+01-1.02747E+00 8.35471E-02 4.68787E+00 2.47274E-13-1.92769E-13
 -1       845 1.44318E+01-1.42527E+00 6.49432E-02-4.54724E+00 3.13694E-13 3.81899E-14
 -1       846 1.13010E+01 4.92460E-01 7.69854E-02-1.73692E+00 1.57735E-13 2.17010E-13
 -1       847 1.83944E+01-2.75143E+00 5.50299E-02-4.85980E+00-2.39609E-13-3.17333E-13
 -1       848 1.04970E+01 1.29032E+00 8.96635E-02-1.20836E+00 2.99123E-14-5.58557E-13
 -1       849 1.53991E+01 3.10482E+00 4.00116E-04 3.40008E-01 1.49246E-13-3.10516E-13
 -1       850 1.83452E+01 1.75094E+00 3.69573E-03-1.36734E+00 1.15640E-13-2.23823E-13
 -1       851 1.86543E+01 1.84301E+00-7.75231E-04 1.17183E+00 3.26997E-14-2.83433E-13
 -1       852 1.66333E+01-2.27925E+00 4.44165E-02 4.64352E+00-4.82661E-14 2.64185E-13
 -1       853 2.00024E+01-2.77636E-03 7.14857E-09-2.22448E-03 1.08437E-13 4.91948E-13
 -1       854 1.72204E+01 2.50497E+00-2.04272E-03 1.19744E+00 1.04524E-13-2.94751E-13
 -1       855 2.00029E+01-2.95783E-03 3.04631E-07-1.16018E-03 5.58670E-14 4.98682E-14
 -1       856 1.27724E+01 4.26167E-03 5.94649E-02 2.78592E+00-5.13224E-14 5.45461E-13
 -1       857 2.16654E+01-5.73372E-01-3.55720E-03-1.36902E+00 5.45328E-14 2.44809E-14
 -1       858 2.24110E+01-1.59213E+00-6.18090E-03-1.48679E+00-4.09135E-14 2.71718E-14
 -1       859 2.20166E+01-4.06629E+00 3.98187E-02 3.61213E+00-1.61217E-13-2.21796E-13
 -1       860 2.00017E+01-2.53965E-03 2.42647E-06-2.96482E-03 9.87073E-14 1.34832E-13
 -1       861 1.81997E+01-1.81945E+00 3.25411E-02 4.23879E+00 2.08983E-13-1.21190E-13
 -1       862 2.00016E+01-2.46411E-03 1.38836E-06 3.09619E-03 1.13290E-13-2.23081E-13
 -1       863 1.67429E+01 2.47716E+00 1.11675E-03-1.16666E+00 1.33794E-13-2.87239E-13
 -1       864 1.12547E+01 1.59178E+00 6.17740E-02 8.23233E-01 1.37072E-13-4.80371E-13
 -1       865 2.04439E+01-5.40495E-02 4.28475E-03-1.78304E+00 4.15078E-14-5.91236E-14
 -1       866 1.29829E+01 9.52641E-01 2.66202E-02 1.73891E-02 1.61616E-13 1.82434E-13
 -1       867 1.94205E+01-1.74969E+00 1.05567E-02-3.11812E+00 1.51955E-13-5.03184E-14
 -1       868 1.88872E+01-7.10264E-01 3.18793E-03-2.52798E+00 8.37314E-14 5.27153E-14
 -1       869 1.87423E+01-3.21522E-02 1.68123E-03-2.01554E+00 2.82080E-14-4.93547E-14
 -1       870 1.87954E+01 3.73515E-01 7.70383E-04-1.60874E+00 2.09517E-14 1.04499E-14
 -1       871 1.89347E+01 5.91629E-01 4.01471E-04-1.29215E+00-2.01412E-14 1.54987E-13
 -1       872 1.91035E+01 6.83665E-01 2.04632E-04-1.04231E+00 3.42111E-14 4.04165E-14
 -1       873 1.92720E+01 6.94182E-01 1.05579E-04-8.41093E-01-1.40617E-13-2.18905E-14
 -1       874 1.94258E+01 6.55077E-01 5.47985E-05-6.76164E-01-5.80489E-14-1.09393E-13
 -1       875 1.95586E+01 5.88688E-01 2.84021E-05-5.39600E-01 1.01469E-13-6.22224E-14
 -1       876 1.96691E+01 5.10230E-01 1.45823E-05-4.26285E-01-8.47419E-14 8.42180E-14
 -1       877 1.97581E+01 4.29661E-01 7.34711E-06-3.32672E-01-6.25394E-14 1.25790E-13
 -1       878 1.98281E+01 3.53118E-01 3.59186E-06-2.56017E-01-2.25329E-13-1.20151E-13
 -1       879 1.98818E+01 2.84024E-01 1.67682E-06-1.93980E-01 3.69030E-14-1.27359E-14
 -1       880 1.99221E+01 2.23945E-01 7.27365E-07-1.44445E-01-1.33112E-13-5.42208E-14
 -1       881 1.99515E+01 1.73225E-01 2.76616E-07-1.05469E-01-9.34733E-15-3.29468E-13
 -1       882 1.99724E+01 1.31451E-01 7.70180E-08-7.52747E-02 7.43482E-15-3.20592E-13
 -1       883 1.99869E+01 9.77874E-02-9.62734E-10-5.22678E-02-4.09242E-14-2.17951E-13
 -1       884 1.99964E+01 7.11980E-02-2.36918E-08-3.50457E-02-8.23002E-14-2.95076E-13
 -1       885 2.00024E+01 5.05973E-02-2.40863E-08-2.24020E-02-3.24202E-13-3.02502E-13
 -1       886 2.00058E+01 3.49407E-02-1.76644E-08-1.33211E-02-3.43042E-13-3.29542E-13
 -1       887 2.00075E+01 2.32770E-02-1.12418E-08-6.96412E-03-1.36383E-14-4.48678E-13
 -1       888 2.00080E+01 1.47724E-02-8.00963E-09-2.65219E-03-1.60768E-13-6.96980E-13
 -1       889 2.00077E+01 8.71737E-03-1.18591E-08 1.54381E-04-2.15715E-13-3.40498E-13
 -1       890 2.00069E+01 4.52171E-03-1.52215E-08 1.87642E-03 1.89843E-13-2.38063E-13
 -1       891 2.00060E+01 1.70336E-03 1.30140E-08 2.83582E-03 1.74213E-13-2.81683E-13
 -1       892 2.00049E+01-1.26654E-04 8.94444E-08 3.27248E-03 9.02575E-14-3.41983E-13
 -1       893 2.00038E+01-1.27511E-03 5.73465E-07 3.36448E-03-1.79679E-13-3.85508E-13
 -1       894 2.00029E+01-2.00646E-03-7.04142E-07 3.23416E-03-1.93975E-13-1.34068E-13
 -1       895 1.96311E+01-8.62265E-01 1.43791E-03 2.49304E+00-7.85967E-14-1.04130E-13
 -1       896 1.93246E+01-1.22895E-01 8.31341E-04 2.09513E+00-2.75797E-14-1.71809E-13
 -1       897 1.92627E+01 3.18072E-01 5.13373E-04 1.74727E+00-1.15352E-13-5.63962E-14
 -1       898 1.93219E+01 5.48107E-01 2.61695E-04 1.45302E+00-4.90407E-14 7.32359E-14
 -1       899 1.94288E+01 6.39859E-01 1.73466E-04 1.20437E+00 4.80097E-14 8.13995E-14
 -1       900 1.95452E+01 6.46034E-01 1.22325E-04 9.91868E-01-1.33451E-14-2.02005E-14
 -1       901 1.96527E+01 6.03228E-01 8.95669E-05 8.09182E-01-9.21713E-14-8.99832E-14
 -1       902 1.97440E+01 5.35754E-01 6.76713E-05 6.52392E-01 2.25610E-14 1.06461E-13
 -1       903 1.98175E+01 4.59092E-01 5.20739E-05 5.18934E-01 2.66134E-13-1.16274E-13
 -1       904 1.98745E+01 3.82620E-01 4.03109E-05 4.06751E-01 3.09537E-14-5.37631E-15
 -1       905 1.99172E+01 3.11626E-01 3.11240E-05 3.13837E-01-6.34728E-14 2.95749E-13
 -1       906 1.99483E+01 2.48724E-01 2.38365E-05 2.38098E-01-8.38237E-14 3.05885E-13
 -1       907 1.99704E+01 1.94846E-01 1.80390E-05 1.77360E-01-2.31018E-13 8.34290E-14
 -1       908 1.99856E+01 1.49910E-01 1.34487E-05 1.29454E-01-1.04777E-13 2.21195E-13
 -1       909 1.99956E+01 1.13256E-01 9.84836E-06 9.23023E-02-1.98584E-13 3.06815E-13
 -1       910 2.00018E+01 8.39456E-02 7.05942E-06 6.39893E-02-4.16149E-13 2.06639E-13
 -1       911 2.00055E+01 6.09352E-02 4.93046E-06 4.28055E-02-7.02527E-14-7.07979E-14
 -1       912 2.00073E+01 4.31928E-02 3.33206E-06 2.72691E-02 5.77023E-14-1.82779E-14
 -1       913 2.00079E+01 2.97594E-02 2.15427E-06 1.61269E-02-9.42888E-14 1.35803E-14
 -1       914 2.00077E+01 1.97820E-02 1.30495E-06 8.34236E-03-2.25534E-13 1.67566E-13
 -1       915 2.00070E+01 1.25248E-02 7.08033E-07 3.07598E-03 1.11505E-13 6.19207E-14
 -1       916 2.00062E+01 7.36921E-03 3.00121E-07-3.39454E-04 7.55094E-14-1.23412E-13
 -1       917 2.00052E+01 3.80467E-03 1.74921E-08-2.42382E-03-1.18762E-14-3.63556E-14
 -1       918 2.00042E+01 1.41674E-03-2.61421E-07-3.57453E-03 8.34442E-14-2.60300E-13
 -1       919 2.00033E+01-1.28878E-04-3.78280E-07-4.08757E-03-8.37602E-14-2.15527E-13
 -1       920 2.00025E+01-1.09343E-03-3.33897E-07-4.17565E-03-3.29180E-14-1.11173E-13
 -1       921 2.00018E+01-1.69223E-03-1.00673E-06-3.99635E-03 1.17385E-13-3.99880E-14
 -1       922 2.00041E+01-2.47433E-03 5.06985E-08 6.40201E-04 6.89060E-14-6.49873E-13
 -1       923 1.61058E+01 2.89963E+00-1.16823E-03 9.55582E-01 1.41060E-13-3.09883E-13
 -1       924 2.00036E+01-2.39051E-03-7.92209E-07 1.86415E-03-6.23042E-14 9.62146E-14
 -1       925 1.96825E+01 3.88625E-01 2.65536E-03 1.73615E+00 5.80659E-14-2.20422E-13
 -1       926 1.33729E+01 8.21439E-01 5.36761E-02 2.97595E+00 2.18275E-13-3.24851E-13
 -1       927 2.04104E+01-9.37190E-01 5.65738E-03 2.32946E+00 6.86124E-14-1.27232E-13
 -1       928 1.43417E+01 4.21184E-03 2.36872E-02-2.86889E+00 2.53383E-13-5.48173E-15
 -1       929 1.34504E+01 1.14212E+00 3.59595E-02-2.44515E+00-2.65428E-14-3.72060E-13
 -1       930 1.68867E+01-6.85776E-01 3.65621E-02-3.79443E+00-1.11108E-13-3.11852E-13
 -1       931 2.33050E+01-3.44696E+00 8.49493E-03 2.36302E+00 1.09199E-13 4.21300E-14
 -1       932 1.91177E+01 1.13328E+00-7.11443E-04 1.47096E+00 4.59505E-14-2.66139E-13
 -1       933 1.78282E+01-1.87850E+00 2.40373E-02-3.96885E+00 3.13558E-13-1.50074E-13
 -1       934 2.04953E+01-2.33429E+00 3.35839E-02-3.45286E+00-1.58235E-13-1.49824E-13
 -1       935 2.04514E+01-1.97879E+00 5.17507E-03 2.86304E+00-1.69719E-13-2.33013E-13
 -1       936 2.00036E+01-2.39372E-03-1.73275E-07-1.84546E-03-1.96223E-14 5.76029E-13
 -1       937 1.36330E+01 8.22051E-01 1.99428E-02 1.14854E+00 6.68060E-14 2.02308E-13
 -1       938 2.06745E+01-3.19896E+00 1.94339E-02-3.59114E+00 4.75510E-13-2.13745E-13
 -1       939 1.59636E+01 2.13445E-02 2.67197E-02 3.47406E+00 1.90080E-13-2.20744E-13
 -1       940 1.74401E+01 1.86140E+00-4.92154E-03 1.59987E+00 1.11062E-13-2.54192E-13
 -1       941 1.43805E+01 2.59666E+00 5.35978E-03-2.26292E-01 1.04380E-13-3.45966E-13
 -1       942 1.49136E+01-6.69164E-01 3.52752E-02 3.55018E+00-1.26672E-13 4.11799E-13
 -1       943 2.09261E+01-2.34828E+00 9.42564E-03 3.14516E+00 1.19091E-13-7.32112E-14
 -1       944 1.54363E+01 2.13164E+00 6.66671E-03-1.47767E+00 5.41004E-14-3.23415E-13
 -1       945 2.00041E+01-2.47552E-03-8.54866E-08-6.29729E-04-1.47373E-15-1.06785E-13
 -1       946 2.00030E+01-2.28525E-03-3.22158E-07-2.77320E-03 1.07309E-13 2.53264E-13
 -1       947 1.45781E+01 8.19178E-01 6.88803E-03-1.35295E+00 1.77683E-13 1.27597E-13
 -1       948 1.28344E+01 1.91630E+00 3.74015E-02-9.19002E-01 3.49031E-14-4.44784E-13
 -1       949 2.00013E+01-2.06661E-03 3.12716E-06-3.64359E-03 6.91343E-14-2.42418E-13
 -1       950 2.00050E+01-1.73898E-03-9.27857E-07 1.30808E-03 1.21817E-13-3.32757E-13
 -1       951 2.00085E+01-7.01081E-01 1.60363E-03-2.48015E+00-3.76082E-14-1.27744E-13
 -1       952 1.34983E+01 1.99324E+00 2.69836E-02 1.33529E+00 1.59969E-13-3.52538E-13
 -1       953 1.73732E+01 1.92640E-01 2.43132E-03-2.15282E+00 5.76454E-14-5.79153E-14
 -1       954 1.77722E+01 5.78956E-01-7.10560E-06-1.60057E+00 9.72960E-14 8.54147E-14
 -1       955 1.81574E+01 7.81308E-01-2.77924E-04-1.21768E+00 8.07121E-14 9.46212E-14
 -1       956 1.85043E+01 8.61433E-01-2.70027E-04-9.43423E-01-4.78172E-14 4.08650E-14
 -1       957 1.88059E+01 8.61142E-01-2.04269E-04-7.40273E-01-1.52307E-13 1.04923E-13
 -1       958 1.90619E+01 8.10460E-01-1.50992E-04-5.84515E-01-2.86866E-14 1.94702E-13
 -1       959 1.92751E+01 7.30841E-01-1.12214E-04-4.61682E-01 1.06206E-13 2.13941E-13
 -1       960 1.94496E+01 6.37578E-01-8.37906E-05-3.63077E-01 3.23352E-15 4.44786E-14
 -1       961 1.95900E+01 5.41265E-01-6.24628E-05-2.83282E-01-1.33594E-13-5.99783E-14
 -1       962 1.97010E+01 4.48837E-01-4.61762E-05-2.18685E-01-1.37229E-13-1.10870E-13
 -1       963 1.97873E+01 3.64448E-01-3.36637E-05-1.66658E-01-1.52524E-13-3.25762E-14
 -1       964 1.98530E+01 2.90212E-01-2.40804E-05-1.25124E-01-1.25737E-13-3.21037E-13
 -1       965 1.99022E+01 2.26821E-01-1.68082E-05-9.23429E-02-1.21510E-13-2.42704E-13
 -1       966 1.99382E+01 1.74028E-01-1.13647E-05-6.68066E-02-7.48130E-15-3.45307E-13
 -1       967 1.99638E+01 1.31016E-01-7.35976E-06-4.72015E-02-5.81949E-14-4.54282E-13
 -1       968 1.99816E+01 9.66728E-02-4.47418E-06-3.23879E-02-2.06086E-13-6.25591E-13
 -1       969 1.99936E+01 6.97690E-02-2.44720E-06-2.13893E-02-1.37975E-13-5.87142E-13
 -1       970 2.00011E+01 4.90858E-02-1.06789E-06-1.33820E-02-1.99443E-13-4.45773E-13
 -1       971 2.00056E+01 3.34869E-02-1.68072E-07-7.68268E-03-2.70089E-13-3.02230E-13
 -1       972 2.00078E+01 2.19581E-02 3.83619E-07-3.73424E-03-2.07858E-13-4.64745E-13
 -1       973 2.00086E+01 1.36232E-02 6.85875E-07-1.09017E-03-6.79183E-15-4.26258E-13
 -1       974 2.00085E+01 7.74455E-03 8.02208E-07 6.01177E-04 2.53089E-13-1.30870E-13
 -1       975 2.00078E+01 3.71341E-03 7.37315E-07 1.61131E-03 2.42505E-13-1.27199E-13
 -1       976 2.00067E+01 1.03514E-03 6.73307E-07 2.14851E-03 1.63025E-13 5.17203E-14
 -1       977 2.00055E+01-6.77682E-04 9.47873E-07 2.35851E-03-1.23196E-13-6.10037E-14
 -1       978 1.81472E+01 4.83447E-01 2.04136E-04 1.82382E+00-8.35189E-14 5.40710E-14
 -1       979 1.79136E+01-1.87537E-03-2.27317E-03 2.37148E+00-7.84871E-14 1.04477E-13
 -1       980 1.87411E+01 8.24097E-01-9.54288E-05 1.15610E+00-7.24580E-15-6.93740E-14
 -1       981 1.90034E+01 8.28801E-01-6.90689E-05 9.37271E-01 6.47319E-14-1.71184E-13
 -1       982 1.92276E+01 7.78131E-01-5.70395E-05 7.61007E-01-2.83590E-14-2.43600E-13
 -1       983 1.94131E+01 6.97715E-01-4.63801E-05 6.15052E-01-1.76630E-13-2.39225E-13
 -1       984 1.95627E+01 6.04653E-01-3.67824E-05 4.92679E-01 5.60205E-14-2.70881E-14
 -1       985 1.96808E+01 5.09975E-01-2.86049E-05 3.90015E-01 7.00785E-14 1.95464E-13
 -1       986 1.97723E+01 4.20394E-01-2.18759E-05 3.04502E-01-1.68281E-13 1.04008E-13
 -1       987 1.98419E+01 3.39614E-01-1.64517E-05 2.34103E-01-1.41548E-13 2.15871E-13
 -1       988 1.98939E+01 2.69290E-01-1.21488E-05 1.76964E-01-1.85342E-13 4.59415E-13
 -1       989 1.99319E+01 2.09749E-01-8.78802E-06 1.31299E-01-2.19753E-13 5.16970E-13
 -1       990 1.99591E+01 1.60500E-01-6.20529E-06 9.53928E-02-1.40694E-13 4.94695E-13
 -1       991 1.99780E+01 1.20591E-01-4.25451E-06 6.76328E-02-1.23519E-13 2.39722E-13
 -1       992 1.99908E+01 8.88566E-02-2.80842E-06 4.65466E-02-4.34597E-14-9.11989E-14
 -1       993 1.99990E+01 6.40731E-02-1.75855E-06 3.08282E-02-9.39533E-14-9.00238E-14
 -1       994 2.00040E+01 4.50625E-02-1.01443E-06 1.93496E-02-1.11649E-13 2.99076E-13
 -1       995 2.00067E+01 3.07469E-02-5.01919E-07 1.11599E-02-1.38456E-13 1.97827E-13
 -1       996 2.00079E+01 2.01766E-02-1.61003E-07 5.47495E-03 1.73305E-14-2.53821E-13
 -1       997 2.00080E+01 1.25386E-02 5.64731E-08 1.66121E-03 1.51777E-13 9.52111E-14
 -1       998 2.00075E+01 7.15249E-03 1.85207E-07-7.82834E-04 6.79672E-14 4.34379E-14
 -1       999 2.00067E+01 3.45975E-03 2.11331E-07-2.24635E-03 9.93814E-15 4.07948E-15
 -1      1000 2.00056E+01 1.00954E-03 1.25561E-07-3.02671E-03-2.87797E-14 3.90212E-14
 -1      1001 2.00046E+01-5.58401E-04-1.50778E-06-3.34557E-03-7.55257E-14-1.44856E-13
 -1      1002 2.00035E+01-1.55907E-03 3.28011E-06-3.36535E-03-2.67123E-14-8.98207E-14
 -1      1003 1.48337E+01 2.37626E+00 1.08876E-02 1.15883E+00 1.57317E-13-3.08826E-13
 -1      1004 1.81041E+01 4.16416E-01 4.62347E-04 2.47242E+00 1.43495E-13-2.29849E-13
 -1      1005 2.00047E+01-1.50351E-03 1.28647E-06 2.39464E-03 6.76067E-14 1.97252E-14
 -1      1006 1.73451E+01 1.23917E+00-4.13676E-03-2.08732E+00 4.43028E-14-2.74216E-13
 -1      1007 2.00050E+01-1.75480E-03-1.77620E-06-1.30082E-03-1.40982E-13 2.82656E-14
 -1      1008 1.69565E+01-5.30841E-01 7.10857E-03-3.00945E+00 2.26513E-13-1.48651E-13
 -1      1009 1.80667E+01-5.83277E-01 1.24691E-02 3.28821E+00 1.43109E-13-1.82031E-13
 -1      1010 1.78967E+01-8.13234E-01 1.46346E-02 3.12833E+00-2.13195E-13-3.88105E-14
 -1      1011 2.00053E+01-1.75767E-03-1.33777E-06 7.28413E-06-2.29949E-13-2.28797E-13
 -1      1012 1.84492E+01 7.26239E-01-6.54847E-05 1.43879E+00-1.28524E-13-4.41481E-14
 -1      1013 1.43656E+01 1.05950E+00 1.78638E-02-3.78279E-01 1.01674E-13 6.81178E-14
 -1      1014 2.00044E+01-1.73214E-03-2.25585E-08-2.31314E-03 1.16430E-13 3.18240E-13
 -1      1015 1.60188E+01 4.98225E-01 5.18343E-03-1.95908E+00 1.65312E-13-5.17757E-14
 -1      1016 1.61435E+01 2.13081E+00 3.49412E-03 1.60367E+00 1.50030E-13-2.79912E-13
 -1      1017 1.47663E+01 4.63604E-01 1.25250E-02 2.13667E+00-1.29023E-14 2.83770E-13
 -1      1018 1.77171E+01 1.18534E+00 3.61263E-04 2.02839E+00 1.28516E-13-2.43373E-13
 -1      1019 1.49573E+01 1.42502E+00 1.38253E-02 2.27173E+00 1.80637E-13-3.00315E-13
 -1      1020 1.68309E+01 8.09077E-01 8.16396E-05-1.38298E+00 1.11394E-13-9.32799E-15
 -1      1021 1.74873E+01 9.59230E-01-6.75825E-04-1.00708E+00 5.79382E-14-6.14324E-14
 -1      1022 1.80116E+01 1.00991E+00-5.26365E-04-7.51920E-01 1.81417E-14 1.13615E-14
 -1      1023 1.84352E+01 9.90531E-01-3.25053E-04-5.73389E-01-2.39788E-14 7.91377E-14
 -1      1024 1.87781E+01 9.26367E-01-2.24257E-04-4.43178E-01-1.42061E-14 1.84655E-13
 -1      1025 1.90562E+01 8.35247E-01-1.63609E-04-3.44661E-01-4.62721E-14 1.94573E-14
 -1      1026 1.92806E+01 7.30859E-01-1.26269E-04-2.68195E-01-2.21707E-15-1.16920E-13
 -1      1027 1.94601E+01 6.23360E-01-1.01012E-04-2.07886E-01-1.87261E-13-1.26976E-13
 -1      1028 1.96021E+01 5.19806E-01-8.21019E-05-1.59959E-01-1.70181E-13-1.51715E-13
 -1      1029 1.97128E+01 4.24661E-01-6.68882E-05-1.21837E-01-1.10169E-13-3.31639E-13
 -1      1030 1.97978E+01 3.40362E-01-5.41786E-05-9.16384E-02-1.28303E-13-1.77941E-13
 -1      1031 1.98620E+01 2.67841E-01-4.34269E-05-6.78981E-02-1.47860E-13-1.00120E-13
 -1      1032 1.99095E+01 2.06996E-01-3.43531E-05-4.94254E-02-1.45922E-13-3.54897E-13
 -1      1033 1.99440E+01 1.57059E-01-2.67744E-05-3.52266E-02-1.15016E-13-3.37670E-13
 -1      1034 1.99684E+01 1.16892E-01-2.05335E-05-2.44643E-02-2.02203E-13-4.79420E-13
 -1      1035 1.99851E+01 8.51926E-02-1.54754E-05-1.64343E-02-8.60329E-14-4.05704E-13
 -1      1036 1.99961E+01 6.06348E-02-1.14435E-05-1.05488E-02-1.21340E-13-3.22608E-13
 -1      1037 2.00029E+01 4.19628E-02-8.28367E-06-6.32271E-03-2.16703E-13-3.56090E-13
 -1      1038 2.00068E+01 2.80404E-02-5.85036E-06-3.36110E-03-2.21017E-13-2.26740E-13
 -1      1039 2.00086E+01 1.78754E-02-4.01190E-06-1.34710E-03 3.01814E-14-2.58421E-13
 -1      1040 2.00091E+01 1.06249E-02-2.65861E-06-3.03589E-05 3.17588E-13-1.95089E-13
 -1      1041 2.00087E+01 5.58818E-03-1.69850E-06 7.84158E-04 2.61829E-13-2.71963E-13
 -1      1042 2.00078E+01 2.20140E-03 3.11724E-07 1.24042E-03 1.55077E-13-2.28758E-13
 -1      1043 2.00066E+01-1.96257E-05-1.32676E-06 1.45614E-03 1.05477E-14-5.98248E-14
 -1      1044 1.68232E+01 7.43346E-01 2.19344E-03 1.63428E+00-7.46419E-15-2.77534E-15
 -1      1045 1.87845E+01 9.42583E-01-1.78343E-04 6.09113E-01 6.24769E-14-9.16202E-14
 -1      1046 1.84319E+01 1.00494E+00-2.89148E-04 7.54766E-01 9.52014E-14-6.54030E-14
 -1      1047 1.92948E+01 7.43579E-01-9.67943E-05 3.97954E-01-1.55056E-13-2.01293E-13
 -1      1048 1.94744E+01 6.33772E-01-7.65114E-05 3.18221E-01-1.24269E-13-3.38749E-14
 -1      1049 1.96151E+01 5.28234E-01-6.13466E-05 2.51410E-01-1.05021E-13 2.58463E-13
 -1      1050 1.97238E+01 4.31515E-01-4.92589E-05 1.95809E-01-1.40323E-13 2.59429E-13
 -1      1051 1.98066E+01 3.46004E-01-3.93115E-05 1.50084E-01-3.68295E-13 1.57299E-13
 -1      1052 1.98686E+01 2.72549E-01-3.10435E-05 1.13025E-01-2.99097E-13 3.17499E-13
 -1      1053 1.99143E+01 2.10964E-01-2.41922E-05 8.34665E-02-7.76997E-14 3.11376E-13
 -1      1054 1.99472E+01 1.60422E-01-1.85715E-05 6.02851E-02 5.32174E-14 1.09950E-13
 -1      1055 1.99704E+01 1.19740E-01-1.40223E-05 4.24204E-02-2.35725E-14 1.18021E-13
 -1      1056 1.99862E+01 8.75911E-02-1.03961E-05 2.89034E-02-3.08775E-13 3.25769E-13
 -1      1057 1.99966E+01 6.26367E-02-7.55179E-06 1.88748E-02-2.15449E-13 2.45087E-13
 -1      1058 2.00030E+01 4.36140E-02-5.35768E-06 1.15931E-02 2.68062E-14 1.70614E-14
 -1      1059 2.00066E+01 2.93840E-02-3.69315E-06 6.43416E-03 1.36691E-13 1.79085E-13
 -1      1060 2.00083E+01 1.89531E-02-2.44719E-06 2.88498E-03 6.15816E-16 5.00317E-14
 -1      1061 2.00087E+01 1.14772E-02-1.51246E-06 5.32343E-04-3.98636E-14 8.84886E-15
 -1      1062 2.00083E+01 6.25395E-03-7.74317E-07-9.49579E-04-2.58051E-14 3.29463E-13
 -1      1063 2.00075E+01 2.70966E-03 9.31560E-08-1.80976E-03 7.96121E-15 3.25710E-13
 -1      1064 2.00064E+01 3.74948E-04 6.62177E-07-2.25662E-03-1.53386E-14 3.70990E-13
 -1      1065 1.65595E+01 9.03359E-01 9.48835E-03 2.56662E+00 1.73091E-13-2.16294E-13
 -1      1066 1.74548E+01 9.38120E-01-2.31568E-03 1.21791E+00-8.34372E-14 5.33362E-14
 -1      1067 2.00058E+01-9.76227E-04-5.75230E-07 1.41328E-03 1.17854E-13-1.09907E-13
 -1      1068 2.00064E+01-7.09664E-04 2.53917E-06-6.43910E-04 4.16530E-14-6.56562E-14
 -1      1069 1.90681E+01 8.50221E-01-1.26849E-04 4.93296E-01-1.72322E-13-7.73171E-14
 -1      1070 2.00063E+01-8.23375E-04 4.11858E-06 3.90536E-04 2.60840E-14-1.78399E-13
 -1      1071 1.79950E+01 1.01546E+00-5.60474E-04 9.47942E-01-4.34267E-14-5.06934E-14
 -1      1072 1.52317E+01 1.02816E+00 7.14156E-03 9.10597E-01 1.04107E-13 1.70565E-13
 -1      1073 2.00059E+01-8.18280E-04 9.23660E-07-1.73145E-03 6.86443E-15 1.00411E-13
 -1      1074 1.58945E+01 1.03063E+00 2.45318E-03-9.03944E-01 1.40812E-13 6.30431E-14
 -1      1075 1.83621E+01 1.07684E+00 4.43953E-05 3.41633E-01 5.03190E-14-1.34702E-13
 -1      1076 1.67971E+01 1.14489E+00 1.87192E-03-6.28380E-01 6.08584E-14 1.39218E-13
 -1      1077 1.75287E+01 1.14641E+00 1.00356E-04-4.44014E-01 1.10387E-13 7.00462E-14
 -1      1078 1.80799E+01 1.10521E+00-4.32728E-05-3.25533E-01-8.55652E-16 1.60358E-13
 -1      1079 1.85103E+01 1.02810E+00-1.96498E-05-2.41466E-01-2.32555E-14 1.36356E-13
 -1      1080 1.88515E+01 9.27077E-01-9.57890E-06-1.80769E-01-1.23670E-13 1.18570E-13
 -1      1081 1.91232E+01 8.13609E-01-6.86420E-06-1.36063E-01-1.57166E-13-1.59581E-14
 -1      1082 1.93391E+01 6.97040E-01-5.33928E-06-1.02575E-01-1.28200E-13-2.87680E-13
 -1      1083 1.95095E+01 5.84318E-01-3.56688E-06-7.71805E-02-2.67062E-13-1.37245E-13
 -1      1084 1.96426E+01 4.80114E-01-1.65938E-06-5.77812E-02-1.82587E-13-2.02214E-13
 -1      1085 1.97453E+01 3.87145E-01 7.00651E-08-4.29170E-02-1.14785E-13-3.90766E-13
 -1      1086 1.98233E+01 3.06596E-01 1.43246E-06-3.15366E-02-1.48214E-13-4.67941E-13
 -1      1087 1.98815E+01 2.38536E-01 2.37279E-06-2.28582E-02-8.19269E-14-4.23505E-13
 -1      1088 1.99242E+01 1.82288E-01 2.92025E-06-1.62846E-02-1.37682E-13-3.99560E-13
 -1      1089 1.99547E+01 1.36733E-01 3.14418E-06-1.13510E-02-2.08125E-13-4.12289E-13
 -1      1090 1.99760E+01 1.00529E-01 3.12548E-06-7.69110E-03-8.34142E-15-1.97175E-13
 -1      1091 1.99904E+01 7.22825E-02 2.94063E-06-5.01418E-03-7.86307E-14-3.03097E-13
 -1      1092 1.99996E+01 5.06447E-02 2.65419E-06-3.08941E-03-1.11529E-13-2.46805E-13
 -1      1093 2.00051E+01 3.43806E-02 2.31671E-06-1.73402E-03-1.85671E-13-1.99140E-13
 -1      1094 2.00081E+01 2.24002E-02 1.96647E-06-8.04107E-04-4.20613E-14-1.56807E-13
 -1      1095 2.00092E+01 1.37685E-02 1.63390E-06-1.87352E-04 1.86540E-13-9.19889E-14
 -1      1096 2.00092E+01 7.70256E-03 1.38364E-06 2.02996E-04 1.36721E-13-1.66939E-13
 -1      1097 2.00085E+01 3.56212E-03 7.55157E-07 4.35942E-04 1.31462E-13-3.14699E-13
 -1      1098 1.72535E+01 1.18128E+00 7.91009E-04 5.23834E-01-6.57498E-15-7.17087E-14
 -1      1099 1.96058E+01 5.16963E-01 2.34169E-05 1.20569E-01-1.88105E-13 1.02333E-13
 -1      1100 1.87400E+01 9.77147E-01 4.12483E-05 2.81109E-01-3.47035E-14-1.23204E-13
 -1      1101 1.94608E+01 6.25955E-01 2.63783E-05 1.51884E-01-2.10158E-13 6.27226E-14
 -1      1102 1.92750E+01 7.42859E-01 3.01272E-05 1.88497E-01-3.22496E-13-2.16707E-15
 -1      1103 1.97176E+01 4.19021E-01 2.07389E-05 9.41267E-02-2.22810E-13 2.13696E-13
 -1      1104 1.98026E+01 3.33617E-01 1.81315E-05 7.21683E-02-3.15994E-13 1.30088E-13
 -1      1105 1.98663E+01 2.61023E-01 1.55707E-05 5.42639E-02-6.97691E-14-5.24474E-14
 -1      1106 1.99131E+01 2.00682E-01 1.31127E-05 3.99376E-02 7.24803E-14-2.63735E-14
 -1      1107 1.99469E+01 1.51533E-01 1.08280E-05 2.86911E-02-1.39097E-13 1.71352E-13
 -1      1108 1.99705E+01 1.12247E-01 8.77166E-06 2.00315E-02-9.43764E-14 3.35467E-13
 -1      1109 1.99866E+01 8.14105E-02 6.97431E-06 1.34956E-02-1.96902E-13 9.44307E-14
 -1      1110 1.99972E+01 5.76379E-02 5.44381E-06 8.66579E-03-2.82746E-14 7.92342E-14
 -1      1111 2.00036E+01 3.96452E-02 4.17104E-06 5.17846E-03-1.13139E-13 3.06419E-14
 -1      1112 2.00073E+01 2.62893E-02 3.13853E-06 2.72640E-03 2.12059E-14 3.74721E-13
 -1      1113 2.00089E+01 1.65826E-02 2.33433E-06 1.05651E-03 1.48323E-13 3.28889E-13
 -1      1114 2.00092E+01 9.69286E-03 1.77543E-06-3.48335E-05 3.67469E-14 1.31388E-13
 -1      1115 2.00087E+01 4.93170E-03 1.11932E-06-7.08896E-04 9.23739E-14-3.88991E-14
 -1      1116 2.00077E+01 1.70443E-03 6.28468E-08-1.09320E-03-7.92526E-14-3.21601E-14
 -1      1117 1.60553E+01 1.19398E+00-1.07067E-02 1.11175E-01 8.14323E-14 1.05378E-13
 -1      1118 1.90388E+01 8.62460E-01 3.52676E-05 2.31094E-01-1.64415E-13-1.04121E-13
 -1      1119 1.78800E+01 1.14944E+00 5.61265E-05 4.18873E-01 4.31942E-14-2.35418E-13
 -1      1120 1.66747E+01 1.12491E+00 8.93781E-04 7.78320E-01-4.73602E-14 9.39743E-15
 -1      1121 2.00076E+01 1.08777E-03-3.34373E-06 3.46938E-04 9.15763E-14-3.28460E-13
 -1      1122 2.97816E+01 9.64602E+00 2.37158E+00-6.50627E+00-4.62963E-14 9.22512E-13
 -1      1123 2.23886E+01 6.80794E+00 3.04471E-01-3.20560E+00-1.99285E-14-8.28643E-14
 -1      1124 2.07416E+01 6.26091E+00 1.28072E-01-1.90037E+00-1.21292E-14-4.61024E-13
 -1      1125 1.96380E+01 5.91522E+00 7.93685E-02-1.09917E+00-6.60583E-15-6.18212E-13
 -1      1126 1.87005E+01 5.62478E+00 4.87250E-02-5.44010E-01-3.55271E-15-6.69800E-13
 -1      1127 1.78861E+01 5.37202E+00 2.05930E-02-1.80041E-01-1.20737E-15-6.76922E-13
 -1      1128 1.72222E+01 5.16527E+00-4.67203E-03 2.17921E-02 1.66533E-16-6.60685E-13
 -1      1129 1.67631E+01 5.02163E+00-2.43928E-02 9.42196E-02 2.47025E-15-6.38935E-13
 -1      1130 1.65740E+01 4.96203E+00-3.39007E-02 8.39345E-02 3.88491E-15-6.15583E-13
 -1      1131 1.66865E+01 4.99670E+00-3.08030E-02 5.67243E-02 6.06806E-15-5.78855E-13
 -1      1132 1.70943E+01 5.12363E+00-1.54991E-02 8.38676E-02 7.21645E-15-5.17234E-13
 -1      1133 1.77503E+01 5.32791E+00 9.36356E-03 2.26990E-01 9.43690E-15-4.31549E-13
 -1      1134 1.85993E+01 5.59167E+00 3.95593E-02 5.35064E-01 1.15741E-14-2.98993E-13
 -1      1135 1.96061E+01 5.90425E+00 7.46895E-02 1.05394E+00 1.43774E-14-9.19230E-14
 -1      1136 2.07842E+01 6.27272E+00 1.24834E-01 1.84571E+00 1.77081E-14 2.43958E-13
 -1      1137 2.23929E+01 6.79489E+00 2.56711E-01 3.10677E+00 1.45994E-14 8.12985E-13
 -1      1138 2.72171E+01 8.61637E+00 1.50397E+00 5.54217E+00 1.98730E-14 1.84663E-12
 -1      1139 3.06696E+01 3.58842E+00 1.12032E+00-4.10563E+00-1.73278E-13 1.53566E-12
 -1      1140 2.30844E+01-1.91729E-01-6.40161E-01-2.48110E-02-5.90847E-14 1.13759E-12
 -1      1141 2.25447E+01-8.74416E-02-2.13110E-01 8.92755E-02-2.46071E-14 6.30052E-13
 -1      1142 2.28184E+01-3.16095E-02-3.13557E-02 5.74204E-02-1.46055E-14 2.64490E-13
 -1      1143 2.31867E+01 2.16524E-03 2.55419E-02 3.70166E-02-7.73838E-15 5.60663E-14
 -1      1144 2.34166E+01 2.75189E-02 5.68439E-02 1.67185E-02-1.67856E-14-4.84456E-14
 -1      1145 2.32878E+01 4.60605E-02 8.02336E-02-1.04365E-02-4.48816E-15-1.71949E-13
 -1      1146 2.26228E+01 5.09142E-02 8.45832E-02-4.45971E-02-7.59419E-15-3.62474E-13
 -1      1147 2.13818E+01 3.28429E-02 5.34569E-02-7.71334E-02 2.62811E-16-4.55164E-13
 -1      1148 1.97740E+01-1.02933E-02-1.66131E-02-9.11903E-02 4.25473E-15-4.89761E-13
 -1      1149 1.82823E+01-6.35671E-02-1.01210E-01-7.11306E-02 2.45368E-14-5.16115E-13
 -1      1150 1.74934E+01-9.72567E-02-1.54087E-01-1.78467E-02 1.01395E-15-5.17648E-13
 -1      1151 1.77749E+01-8.87088E-02-1.41097E-01 4.56223E-02 2.78076E-15-7.27682E-13
 -1      1152 1.90363E+01-4.35275E-02-7.07638E-02 8.87271E-02-1.05827E-14-7.20785E-13
 -1      1153 2.07883E+01 9.90828E-03 1.36906E-02 9.59649E-02-3.01248E-14-7.48610E-13
 -1      1154 2.24452E+01 4.59827E-02 7.14284E-02 7.41937E-02-3.88630E-14-8.49293E-13
 -1      1155 2.36091E+01 5.69640E-02 8.89322E-02 4.13690E-02 5.07320E-15-9.17461E-13
 -1      1156 2.41606E+01 4.96477E-02 7.65738E-02 1.23623E-02-4.68722E-15-9.31612E-13
 -1      1157 2.41854E+01 3.43955E-02 5.17225E-02-6.53277E-03-1.44160E-14-1.09931E-12
 -1      1158 2.38538E+01 1.88777E-02 2.71636E-02-1.56394E-02 2.49718E-14-9.13160E-13
 -1      1159 2.33338E+01 6.70048E-03 8.65991E-03-1.79538E-02-3.14792E-14-8.10883E-13
 -1      1160 2.27521E+01-1.37625E-03-2.94618E-03-1.65462E-02-5.38558E-15-6.54699E-13
 -1      1161 2.21890E+01-5.95140E-03-9.01168E-03-1.35996E-02-2.52429E-14-5.61030E-13
 -1      1162 2.16871E+01-8.00840E-03-1.13501E-02-1.03731E-02-3.16531E-14-6.63393E-13
 -1      1163 2.12635E+01-8.45589E-03-1.14844E-02-7.46851E-03-2.71625E-14-4.42189E-13
 -1      1164 2.09199E+01-7.98184E-03-1.04756E-02-5.10026E-03-1.40382E-14-2.57778E-13
 -1      1165 2.06498E+01-7.05234E-03-8.98523E-03-3.28610E-03 1.97757E-14-1.29507E-13
 -1      1166 2.04432E+01-5.95861E-03-7.39146E-03-1.95920E-03-8.65627E-16-3.57284E-14
 -1      1167 2.02891E+01-4.86926E-03-5.89170E-03-1.02706E-03-5.53222E-14-8.93057E-14
 -1      1168 2.01771E+01-3.87287E-03-4.57526E-03-3.98769E-04 1.18750E-14 4.50598E-14
 -1      1169 2.00979E+01-3.00850E-03-3.47033E-03 4.16934E-06-7.66363E-14 1.30158E-13
 -1      1170 2.00437E+01-2.28608E-03-2.57259E-03 2.45182E-04 5.03747E-14 2.77623E-13
 -1      1171 2.00082E+01-1.69947E-03-1.86193E-03 3.73422E-04-2.26059E-14 3.07534E-13
 -1      1172 1.99862E+01-1.23454E-03-1.31204E-03 4.25858E-04-2.05736E-14 4.90003E-14
 -1      1173 1.99738E+01-8.73999E-04-8.95592E-04 4.29597E-04 2.32039E-14-1.75576E-13
 -1      1174 1.99681E+01-6.00204E-04-5.86983E-04 4.04043E-04 4.69664E-14 2.34810E-13
 -1      1175 1.99667E+01-3.96657E-04-3.63558E-04 3.62727E-04 2.93736E-14 2.13027E-13
 -1      1176 1.99681E+01-2.48740E-04-2.06041E-04 3.14794E-04-2.03932E-14 3.44391E-13
 -1      1177 1.99710E+01-1.43960E-04-9.84931E-05 2.66182E-04 1.61109E-14 5.24240E-13
 -1      1178 1.99747E+01-7.19277E-05-2.80157E-05 2.20538E-04-2.03143E-14-1.79834E-14
 -1      1179 1.99788E+01-2.41738E-05 1.56500E-05 1.79899E-04-5.86859E-14-9.43050E-13
 -1      1180 1.99827E+01 6.10970E-06 4.05808E-05 1.45205E-04-4.00244E-15-1.02593E-12
 -1      1181 1.99864E+01 2.43633E-05 5.31527E-05 1.16647E-04-1.39756E-14-9.60558E-13
 -1      1182 1.99898E+01 3.49567E-05 5.85615E-05 9.38601E-05 1.14533E-14-8.38736E-13
 -1      1183 1.99927E+01 4.14744E-05 6.13303E-05 7.59628E-05 1.02930E-14-9.69464E-13
 -1      1184 1.99952E+01 4.67828E-05 6.58294E-05 6.13763E-05-3.90069E-15-3.53078E-13
 -1      1185 1.99973E+01 5.32304E-05 7.61633E-05 4.70945E-05 6.78245E-14-5.96230E-14
 -1      1186 1.99989E+01 6.06319E-05 9.07938E-05 2.64103E-05 7.12734E-14 2.74416E-13
 -1      1187 1.99998E+01 7.17864E-05 8.18974E-05-1.40192E-05-2.54449E-14-2.30694E-13
 -1      1188 1.99999E+01-2.78784E-05-5.57410E-05-2.95443E-05 8.12134E-14-9.01246E-14
 -1      1189 2.96917E+01 5.34043E-01 1.97760E-01 1.94579E+00-3.57006E-14 2.64960E-12
 -1      1190 2.32303E+01-7.18629E-02-5.87622E-01 9.02052E-02 4.59355E-15 2.34682E-12
 -1      1191 2.29763E+01-3.82303E-02-1.79501E-01-4.46476E-03 5.11310E-15 1.95077E-12
 -1      1192 2.33576E+01-9.57999E-03-3.14365E-02-2.19285E-02 4.46691E-16 1.74447E-12
 -1      1193 2.39060E+01 1.44703E-02 2.28049E-02-3.26851E-02 1.02068E-14 1.52293E-12
 -1      1194 2.43497E+01 3.83255E-02 6.22696E-02-3.82940E-02 2.36573E-15 1.38102E-12
 -1      1195 2.44096E+01 5.64757E-02 9.89414E-02-3.31794E-02 1.73039E-14 1.34138E-12
 -1      1196 2.38207E+01 5.66120E-02 1.15567E-01-9.39569E-03-2.13510E-14 1.43325E-12
 -1      1197 2.24574E+01 2.77574E-02 8.55183E-02 3.46630E-02-1.61108E-14 1.34612E-12
 -1      1198 2.05187E+01-2.53768E-02-1.48914E-03 8.44247E-02 3.37442E-15 1.09483E-12
 -1      1199 1.86174E+01-7.52385E-02-1.13932E-01 1.10027E-01 1.40773E-14 9.19681E-13
 -1      1200 1.75730E+01-8.87980E-02-1.85387E-01 8.68079E-02 4.17288E-15 8.23477E-13
 -1      1201 1.79227E+01-5.96770E-02-1.67946E-01 2.12078E-02-1.21370E-14 8.73628E-13
 -1      1202 1.95287E+01-1.30821E-02-7.86628E-02-4.95838E-02-8.97806E-15 9.05095E-13
 -1      1203 2.16820E+01 2.26733E-02 2.10483E-02-8.94911E-02 1.86297E-14 7.26544E-13
 -1      1204 2.35904E+01 3.69513E-02 8.14458E-02-8.98037E-02 1.12198E-14 4.74509E-13
 -1      1205 2.47859E+01 3.48199E-02 9.29394E-02-6.50316E-02 3.26128E-16 2.17257E-13
 -1      1206 2.51994E+01 2.53127E-02 7.36348E-02-3.44630E-02-1.54100E-14 2.66998E-13
 -1      1207 2.50069E+01 1.48797E-02 4.50855E-02-9.83608E-03 2.83155E-14-1.07111E-13
 -1      1208 2.44523E+01 6.50329E-03 2.03437E-02 5.53055E-03-9.27253E-15-1.58207E-13
 -1      1209 2.37427E+01 8.48043E-04 3.66001E-03 1.29820E-02 1.71975E-14 4.08007E-14
 -1      1210 2.30173E+01-2.46662E-03-5.62872E-03 1.51990E-02-3.42046E-14 1.43559E-13
 -1      1211 2.23533E+01-4.09854E-03-9.74083E-03 1.45368E-02-1.31676E-15 3.27410E-13
 -1      1212 2.17846E+01-4.64895E-03-1.07709E-02 1.25861E-02 3.25982E-15 1.36448E-13
 -1      1213 2.13187E+01-4.56719E-03-1.01984E-02 1.02656E-02 1.52024E-14 3.11045E-13
 -1      1214 2.09495E+01-4.15504E-03-8.92502E-03 8.03947E-03 4.85012E-15 4.35807E-13
 -1      1215 2.06646E+01-3.60098E-03-7.44776E-03 6.10424E-03 3.61640E-14 2.12767E-13
 -1      1216 2.04498E+01-3.01571E-03-6.01643E-03 4.51403E-03 5.25600E-15-1.63059E-13
 -1      1217 2.02914E+01-2.45974E-03-4.74159E-03 3.25483E-03-4.24344E-14-3.17780E-13
 -1      1218 2.01773E+01-1.96266E-03-3.65999E-03 2.28469E-03-4.88943E-15-3.57303E-13
 -1      1219 2.00973E+01-1.53571E-03-2.77148E-03 1.55412E-03 2.72835E-14-6.30622E-13
 -1      1220 2.00428E+01-1.17965E-03-2.05896E-03 1.01555E-03-2.30252E-15-2.36001E-13
 -1      1221 2.00073E+01-8.89670E-04-1.49890E-03 6.27116E-04-1.41279E-14 1.38682E-13
 -1      1222 1.99855E+01-6.58279E-04-1.06661E-03 3.53735E-04-4.95910E-14 1.15018E-13
 -1      1223 1.99733E+01-4.77085E-04-7.38825E-04 1.66909E-04 3.37447E-15-1.53148E-13
 -1      1224 1.99677E+01-3.37773E-04-4.94866E-04 4.39843E-05-3.65010E-14-3.05260E-13
 -1      1225 1.99664E+01-2.32644E-04-3.16961E-04-3.27193E-05 5.04620E-14-7.68177E-13
 -1      1226 1.99679E+01-1.54871E-04-1.90237E-04-7.67845E-05-2.71022E-14-6.33601E-13
 -1      1227 1.99709E+01-9.85782E-05-1.02494E-04-9.84871E-05 2.19958E-14-4.09766E-13
 -1      1228 1.99746E+01-5.88155E-05-4.38813E-05-1.05486E-04 1.67435E-14-2.44521E-13
 -1      1229 1.99787E+01-3.14690E-05-6.53713E-06-1.03409E-04-3.64292E-14-8.77723E-14
 -1      1230 1.99827E+01-1.31297E-05 1.57859E-05-9.63346E-05-6.95831E-14 3.32507E-13
 -1      1231 1.99864E+01-9.37352E-07 2.81150E-05-8.71933E-05-2.90408E-15 6.05620E-13
 -1      1232 1.99897E+01 7.58938E-06 3.46895E-05-7.80604E-05-1.35948E-14 6.01347E-14
 -1      1233 1.99927E+01 1.47258E-05 3.95019E-05-7.03483E-05 6.95081E-14-1.39279E-13
 -1      1234 1.99952E+01 2.26117E-05 4.68267E-05-6.47811E-05-1.06640E-14-4.20160E-13
 -1      1235 1.99973E+01 3.31825E-05 6.09429E-05-6.08824E-05 4.70121E-14-7.97611E-13
 -1      1236 1.99989E+01 4.53140E-05 8.00711E-05-5.39678E-05 2.83100E-14-1.04764E-12
 -1      1237 1.99998E+01 4.14063E-05 7.15836E-05-2.77512E-05 4.82728E-14-7.23182E-13
 -1      1238 1.99999E+01-2.50376E-05-5.74769E-05 2.60665E-05-2.15089E-14-3.68222E-13
 -1      1239 1.99998E+01 7.42827E-05-5.37572E-05 2.40816E-05-3.65993E-13-4.17998E-14
 -1      1240 1.99999E+01-6.80282E-05 7.41146E-05 1.14681E-05-1.47545E-13 1.98950E-15
 -1      1241 1.99998E+01-9.47805E-04 7.05610E-05-3.55498E-05 1.80808E-14-1.48077E-13
 -1      1242 1.99998E+01-2.33488E-03 2.99075E-05-5.32234E-05-5.62272E-13-3.01259E-14
 -1      1243 1.99998E+01-3.90930E-03-1.05674E-05-5.49284E-05 9.99314E-14 8.29684E-14
 -1      1244 1.99998E+01-5.39246E-03-4.20349E-05-4.70044E-05 9.66947E-14-9.61936E-16
 -1      1245 1.99998E+01-6.59381E-03-6.34983E-05-3.44923E-05 6.05965E-13 2.81333E-15
 -1      1246 1.99997E+01-7.37798E-03-7.64206E-05-1.79079E-05 4.82236E-13-9.82581E-14
 -1      1247 1.99997E+01-7.64540E-03-8.06004E-05 1.73456E-07 5.70431E-13 5.82775E-14
 -1      1248 1.99997E+01-7.36786E-03-7.62121E-05 1.82419E-05 8.93863E-13 1.56568E-14
 -1      1249 1.99998E+01-6.57508E-03-6.30254E-05 3.47254E-05 8.28729E-13-5.38247E-14
 -1      1250 1.99998E+01-5.36720E-03-4.12988E-05 4.78644E-05-6.66085E-13-4.78900E-15
 -1      1251 1.99998E+01-3.88221E-03-1.01175E-05 5.49818E-05-9.30655E-13 7.41118E-14
 -1      1252 1.99998E+01-2.30792E-03 3.09894E-05 5.38690E-05-8.24876E-13 5.82261E-14
 -1      1253 1.99998E+01-9.06589E-04 7.74001E-05 4.24319E-05 9.11682E-14 7.71217E-14
 -1      1254 1.99999E+01-8.89683E-05 6.91034E-05-2.88573E-05 1.33415E-13-1.84897E-13
 -1      1255 1.99998E+01 8.23570E-05-5.54022E-05-2.66446E-05 5.67334E-14 1.29568E-13
 -1      1256-1.05355E+00-2.42512E+01-3.75402E+00-2.08862E+00 1.02002E-12 1.51355E-13
 -1      1257-1.81756E+00-1.63298E+01-3.17051E+00-4.23465E+00 1.74882E-12 7.24421E-13
 -1      1258 1.74108E-01-3.39523E+00-1.96402E+00-3.86847E-01 2.73381E-12 1.73861E-12
 -1      1259 8.67679E+00 7.21484E+00-4.23072E-01 7.95043E+00 2.24842E-12 2.04481E-12
 -1      1260 2.52399E+01 1.09060E+01 1.31947E+00 1.59016E+01 1.49014E-12 2.07390E-12
 -1      1261 4.61408E+01 8.12717E+00 2.91706E+00 1.77579E+01 6.89782E-13 1.50902E-12
 -1      1262 6.23801E+01 3.39323E+00 3.96025E+00 1.09040E+01 1.35100E-13 1.93512E-13
 -1      1263 6.77473E+01 1.75211E+00 4.35842E+00-1.62677E+00 1.04097E-13-1.25625E-12
 -1      1264 5.83170E+01 4.94709E+00 3.77161E+00-1.35590E+01 6.17256E-13-2.24976E-12
 -1      1265 3.93270E+01 9.74743E+00 2.50644E+00-1.82215E+01 1.43319E-12-2.72760E-12
 -1      1266 1.93741E+01 1.08035E+01 7.97420E-01-1.39605E+01 2.24265E-12-2.76734E-12
 -1      1267 5.11548E+00 4.93954E+00-9.10970E-01-5.15374E+00 2.37854E-12-1.98175E-12
 -1      1268-9.66600E-01-6.22181E+00-2.33574E+00 1.98097E+00 1.91935E-12-1.07625E-12
 -1      1269-1.74016E+00-1.78338E+01-3.33098E+00 4.01737E+00 9.11382E-13-3.70814E-13
 -1      1270-1.06347E+00-2.43373E+01-3.76869E+00 1.20830E+00-5.58692E-13-1.23027E-13
 -1      1271-1.28958E+00-2.22867E+01-3.63731E+00-2.92314E+00-1.90825E-12-3.93519E-13
 -1      1272-1.69050E+00-1.21702E+01-2.83918E+00-3.50459E+00-2.65699E-12-1.11855E-12
 -1      1273 1.47601E+00 2.52198E-01-1.59144E+00 1.46509E+00-2.77822E-12-1.85740E-12
 -1      1274 1.22106E+01 9.21517E+00 5.98690E-02 1.03912E+01-2.22866E-12-2.24132E-12
 -1      1275 3.13241E+01 1.08088E+01 1.87166E+00 1.74322E+01-1.37002E-12-2.16560E-12
 -1      1276 5.20973E+01 6.71048E+00 3.37228E+00 1.61948E+01-6.15119E-13-1.64269E-12
 -1      1277 6.53132E+01 2.45195E+00 4.14932E+00 6.65544E+00-1.04906E-13-5.40346E-13
 -1      1278 6.58556E+01 2.06874E+00 4.13583E+00-5.95475E+00-9.94205E-14 5.49893E-13
 -1      1279 5.49086E+01 5.69088E+00 3.45742E+00-1.53272E+01-5.24802E-13 1.54832E-12
 -1      1280 3.77394E+01 9.92779E+00 2.32528E+00-1.81772E+01-1.22691E-12 2.24532E-12
 -1      1281 1.98767E+01 1.09580E+01 8.82347E-01-1.42623E+01-1.90448E-12 2.36522E-12
 -1      1282 6.50472E+00 6.20905E+00-6.36839E-01-6.40645E+00-2.16405E-12 1.96310E-12
 -1      1283-3.32999E-01-3.99271E+00-2.02736E+00 9.55211E-01-1.94444E-12 1.17673E-12
 -1      1284-1.79055E+00-1.59203E+01-3.14676E+00 4.11145E+00-1.46505E-12 5.27911E-13
 -1      1285-1.18759E+00-2.37233E+01-3.69470E+00 2.12684E+00-2.59681E-13 1.68102E-13
 -1      1286 2.44925E+01 1.96812E+00-7.27881E-01-2.47597E+00-6.66134E-14 6.67910E-13
 -1      1287 2.21982E+01 4.90005E+00-3.54159E-02-2.51992E+00-1.36585E-13-2.61464E-13
 -1      1288 2.29631E+01 5.05420E+00-7.15917E-02-3.51355E+00-1.92318E-13-5.78565E-14
 -1      1289 2.07419E+01 5.14910E+00-1.54447E-02-1.65315E+00-1.15824E-13-5.33656E-13
 -1      1290 2.13840E+01 5.33998E+00 2.80725E-02-2.13876E+00-1.42025E-13-4.25465E-13
 -1      1291 2.23337E+01 4.01950E+00-1.45114E-02-2.24132E+00-2.33161E-13-2.26597E-13
 -1      1292 1.96317E+01 5.13373E+00-8.69916E-03-9.65353E-01-7.60780E-14-6.46021E-13
 -1      1293 2.01755E+01 5.30349E+00 2.71023E-02-1.29724E+00-9.43690E-14-5.99177E-13
 -1      1294 2.08377E+01 4.42748E+00-2.03414E-02-1.50115E+00-1.77532E-13-4.51250E-13
 -1      1295 1.86538E+01 5.06634E+00-9.87802E-03-4.66321E-01-4.12587E-14-6.80437E-13
 -1      1296 1.91370E+01 5.21582E+00 2.17830E-02-6.98130E-01-5.33323E-14-6.70047E-13
 -1      1297 1.96472E+01 4.58925E+00-2.04457E-02-8.73593E-01-1.09609E-13-5.44259E-13
 -1      1298 1.78097E+01 5.00230E+00-1.39841E-02-1.41295E-01-5.57193E-15-6.80529E-13
 -1      1299 1.82220E+01 5.12906E+00 1.51556E-02-2.87263E-01-1.73750E-14-6.82534E-13
 -1      1300 1.86176E+01 4.68056E+00-1.82926E-02-4.16765E-01-5.20278E-14-5.70054E-13
 -1      1301 1.71219E+01 4.95985E+00-1.81858E-02 3.77702E-02 2.21073E-14-6.62807E-13
 -1      1302 1.74453E+01 5.05840E+00 6.44191E-03-3.84229E-02 1.46549E-14-6.76927E-13
 -1      1303 1.77334E+01 4.75609E+00-1.60630E-02-1.18662E-01 5.00988E-15-5.80496E-13
 -1      1304 1.66808E+01 4.94836E+00-1.91039E-02 9.54171E-02 5.81514E-14-6.35660E-13
 -1      1305 1.68698E+01 5.00566E+00-3.39423E-03 7.25767E-02 4.65843E-14-6.45266E-13
 -1      1306 1.70465E+01 4.82440E+00-1.44808E-02 3.87480E-02 5.30799E-14-5.51519E-13
 -1      1307 1.65498E+01 4.96583E+00-1.56314E-02 8.43478E-02 8.27897E-14-6.13957E-13
 -1      1308 1.65750E+01 4.97321E+00-1.23467E-02 8.64899E-02 7.55472E-14-6.30594E-13
 -1      1309 1.66448E+01 4.87437E+00-1.34614E-02 8.68241E-02 1.10216E-13-5.31491E-13
 -1      1310 1.67565E+01 5.00748E+00-8.13838E-03 7.30545E-02 1.04215E-13-5.68367E-13
 -1      1311 1.66096E+01 4.96245E+00-1.83660E-02 6.59542E-02 9.48356E-14-5.96509E-13
 -1      1312 1.65899E+01 4.89203E+00-1.33305E-02 8.25723E-02 1.46542E-13-5.03118E-13
 -1      1313 1.72814E+01 5.06867E+00 1.50840E-03 1.32440E-01 1.29577E-13-5.06951E-13
 -1      1314 1.69781E+01 4.97639E+00-2.01731E-02 8.25749E-02 1.17295E-13-5.45782E-13
 -1      1315 1.68999E+01 4.87181E+00-1.42081E-02 9.65600E-02 1.81657E-13-4.66331E-13
 -1      1316 1.80527E+01 5.14583E+00 1.15972E-02 3.17400E-01 1.52808E-13-4.14828E-13
 -1      1317 1.76333E+01 5.01682E+00-1.81909E-02 2.00680E-01 1.43753E-13-4.68956E-13
 -1      1318 1.75364E+01 4.81970E+00-1.56334E-02 1.95596E-01 2.23351E-13-4.00685E-13
 -1      1319 1.90299E+01 5.23607E+00 2.08307E-02 6.77064E-01 1.81383E-13-2.68820E-13
 -1      1320 1.85127E+01 5.07642E+00-1.47540E-02 4.68337E-01 1.65951E-13-3.54893E-13
 -1      1321 1.84362E+01 4.74276E+00-1.78154E-02 4.31371E-01 2.58045E-13-2.98119E-13
 -1      1322 2.01576E+01 5.32368E+00 2.82630E-02 1.24534E+00 2.06044E-13-4.31946E-14
 -1      1323 1.95652E+01 5.13854E+00-1.31834E-02 9.24659E-01 1.87753E-13-1.74697E-13
 -1      1324 1.95463E+01 4.63355E+00-2.00191E-02 8.41487E-01 2.91715E-13-1.43715E-13
 -1      1325 2.14755E+01 5.37073E+00 3.74003E-02 2.08061E+00 2.12080E-13 3.13603E-13
 -1      1326 2.07729E+01 5.15078E+00-1.79815E-02 1.59954E+00 1.93290E-13 1.02522E-13
 -1      1327 2.08445E+01 4.44484E+00-1.98625E-02 1.44770E+00 3.14648E-13 1.06096E-13
 -1      1328 2.32911E+01 5.15498E+00 4.34810E-02 3.35391E+00 1.59206E-13 9.18224E-13
 -1      1329 2.22876E+01 4.94921E+00-3.15628E-02 2.53569E+00 1.62217E-13 5.60114E-13
 -1      1330 2.24608E+01 4.00184E+00-7.96948E-03 2.24572E+00 2.95243E-13 4.91857E-13
 -1      1331 2.93986E+01 3.29487E+00 8.86800E-01 4.28387E+00 5.08898E-14 1.90020E-12
 -1      1332 2.43357E+01 3.67588E+00-1.71277E-01 3.34234E+00 6.32550E-14 1.23718E-12
 -1      1333 2.45633E+01 2.58597E+00-8.47357E-03 2.72613E+00 2.44854E-13 1.03006E-12
 -1      1334 2.40627E+01 3.17988E-01-7.75484E-01 7.97467E-01 1.08150E-13 1.88685E-12
 -1      1335 2.45867E+01 9.34492E-02-4.06836E-01-9.38519E-01-1.68240E-13 7.51066E-13
 -1      1336 2.36440E+01 2.75145E-01-1.52939E-01-5.05759E-01-1.51400E-13 5.59785E-13
 -1      1337 2.32426E+01 1.36349E-01-6.89584E-02-1.32203E-01-1.24060E-13 4.92217E-13
 -1      1338 2.30984E+01 7.01311E-02-9.92210E-03-7.47895E-02-1.21549E-13 3.09822E-13
 -1      1339 2.37550E+01 3.16338E-01-1.03189E-01-7.33635E-01-2.62131E-13 2.39614E-13
 -1      1340 2.29473E+01 4.37679E-02 5.38077E-03 7.40898E-02-9.89087E-14 2.59313E-13
 -1      1341 2.30374E+01 1.41076E-02 1.44703E-02 7.99999E-02-7.47562E-14 1.14825E-13
 -1      1342 2.31185E+01 9.16217E-02-3.14939E-02-5.44830E-02-2.08378E-13 1.53197E-13
 -1      1343 2.30355E+01-1.31229E-03 1.47877E-02 1.02016E-01-3.65840E-14 5.41615E-14
 -1      1344 2.31495E+01-2.27826E-02 1.19100E-02 9.21943E-02-5.94164E-14-7.16094E-15
 -1      1345 2.30064E+01-4.71919E-06-1.92054E-03 1.47774E-01-1.26378E-13 4.06446E-14
 -1      1346 2.31680E+01-3.68879E-02 1.27171E-02 3.03593E-02-4.63353E-14-1.42057E-14
 -1      1347 2.31752E+01-5.27986E-02 9.45297E-03 3.73624E-03-3.90755E-14-7.11211E-14
 -1      1348 2.30393E+01-6.07347E-02 7.86279E-03 1.03886E-01-7.61242E-14-3.48020E-14
 -1      1349 2.31233E+01-6.65740E-02 1.29402E-02-1.24115E-01-4.73658E-14-8.01824E-14
 -1      1350 2.29252E+01-7.30628E-02 9.89227E-03-1.65610E-01-4.69616E-14-1.41021E-13
 -1      1351 2.30249E+01-1.09739E-01 1.54989E-02-1.19929E-01-7.85535E-14-4.62295E-14
 -1      1352 2.27401E+01-8.10269E-02 1.44444E-02-3.30215E-01-4.86998E-14-1.69326E-13
 -1      1353 2.22864E+01-7.07797E-02 1.01895E-02-3.77009E-01-3.85065E-14-2.17763E-13
 -1      1354 2.28131E+01-1.35871E-01 2.13293E-02-4.71516E-01-8.33118E-14-5.02927E-14
 -1      1355 2.19495E+01-6.45768E-02 1.27455E-02-5.19937E-01-7.25548E-15-2.43083E-13
 -1      1356 2.12812E+01-3.29352E-02 6.49922E-03-5.52318E-01-1.25551E-14-2.54671E-13
 -1      1357 2.23176E+01-1.14569E-01 2.06798E-02-8.48089E-01-6.25758E-14-8.30273E-14
 -1      1358 2.08438E+01-8.16361E-03 4.62468E-03-5.93367E-01-1.51513E-14-2.53852E-13
 -1      1359 2.01222E+01 3.84570E-02-2.84645E-03-5.87379E-01-2.43681E-14-2.70478E-13
 -1      1360 2.15625E+01-2.94262E-02 8.75537E-03-1.08141E+00-2.66974E-14-8.54768E-14
 -1      1361 1.97140E+01 7.30066E-02-8.33055E-03-4.65992E-01-4.71246E-14-2.69743E-13
 -1      1362 1.91855E+01 1.13972E-01-1.43827E-02-4.10602E-01-2.13813E-14-3.12649E-13
 -1      1363 2.07226E+01 1.01114E-01-1.36182E-02-9.93652E-01-5.11726E-14-7.58716E-14
 -1      1364 1.89701E+01 1.37070E-01-1.88242E-02-1.41725E-01-2.69975E-14-4.20216E-13
 -1      1365 1.88539E+01 1.48672E-01-2.04051E-02-5.43986E-02-5.37591E-14-4.83176E-13
 -1      1366 2.00950E+01 2.16875E-01-3.56918E-02-5.20475E-01-9.38555E-14-2.14320E-13
 -1      1367 1.89360E+01 1.43301E-01-1.96068E-02 2.57534E-01-5.65485E-14-5.79006E-13
 -1      1368 1.92954E+01 1.17841E-01-1.58140E-02 3.36945E-01-4.96790E-14-6.38607E-13
 -1      1369 1.99584E+01 2.50212E-01-4.24215E-02 1.92872E-01-1.24109E-13-4.32108E-13
 -1      1370 1.96479E+01 8.83152E-02-1.08558E-02 5.58254E-01 8.94250E-15-6.11594E-13
 -1      1371 2.03497E+01 4.11632E-02-3.62006E-03 5.95538E-01-1.48727E-14-6.14384E-13
 -1      1372 2.03943E+01 1.80418E-01-2.82158E-02 8.46093E-01-3.01027E-14-5.34118E-13
 -1      1373 2.08318E+01 8.58058E-03 3.32603E-04 6.50978E-01-2.32021E-14-5.97397E-13
 -1      1374 2.16285E+01-3.56494E-02 7.75814E-03 6.39795E-01-4.16299E-14-6.48107E-13
 -1      1375 2.12271E+01 4.99020E-02-3.81316E-03 1.17725E+00-4.37840E-14-5.04798E-13
 -1      1376 2.20761E+01-5.34953E-02 7.14740E-03 5.46419E-01-7.25496E-14-6.20101E-13
 -1      1377 2.27398E+01-7.91583E-02 1.26259E-02 5.04694E-01-8.03775E-14-6.89671E-13
 -1      1378 2.21424E+01-7.02974E-02 1.58428E-02 1.11993E+00-8.21383E-14-4.66571E-13
 -1      1379 2.30442E+01-7.92018E-02 8.01271E-03 3.35318E-01-4.19048E-14-6.79422E-13
 -1      1380 2.34525E+01-8.50930E-02 1.10958E-02 2.86541E-01 4.49987E-15-6.92762E-13
 -1      1381 2.28680E+01-1.34091E-01 2.36259E-02 7.92651E-01-8.82549E-14-4.94864E-13
 -1      1382 2.35812E+01-7.43025E-02 5.35998E-03 1.13894E-01-1.95850E-15-6.81163E-13
 -1      1383 2.37229E+01-6.75146E-02 6.74570E-03 7.37581E-02-4.76078E-14-7.37944E-13
 -1      1384 2.32708E+01-1.38507E-01 2.17936E-02 3.76401E-01 1.62370E-14-4.84660E-13
 -1      1385 2.36981E+01-5.41821E-02 2.15039E-03-5.97421E-02-1.33938E-14-6.74284E-13
 -1      1386 2.36300E+01-4.25774E-02 2.54166E-03-8.57795E-02 4.09247E-14-6.82414E-13
 -1      1387 2.33492E+01-1.07479E-01 1.54737E-02 9.12020E-03-2.01514E-14-4.81660E-13
 -1      1388 2.34975E+01-3.16322E-02-7.11310E-05-1.68418E-01 5.77663E-14-6.60687E-13
 -1      1389 2.32973E+01-2.02941E-02-2.00046E-04-1.81459E-01 5.26749E-15-6.23588E-13
 -1      1390 2.31755E+01-6.64289E-02 8.65436E-03-2.47221E-01 4.19925E-14-3.50960E-13
 -1      1391 2.31044E+01-1.32435E-02-1.03687E-03-2.19741E-01 1.07208E-14-6.26759E-13
 -1      1392 2.28416E+01-4.34539E-03-1.44354E-03-2.23377E-01-9.58044E-15-5.94417E-13
 -1      1393 2.28429E+01-3.07091E-02 3.25279E-03-3.88859E-01 1.68060E-14-3.83180E-13
 -1      1394 2.26263E+01-7.78381E-04-1.11122E-03-2.30191E-01 2.78172E-14-5.38711E-13
 -1      1395 2.23504E+01 5.32053E-03-1.67776E-03-2.28080E-01 3.28063E-14-4.89102E-13
 -1      1396 2.24345E+01-5.64222E-03-3.07666E-04-4.40218E-01 1.43684E-14-4.11051E-13
 -1      1397 2.21386E+01 6.43994E-03-7.59549E-04-2.15891E-01 6.11544E-15-5.29161E-13
 -1      1398 2.18800E+01 1.01784E-02-1.41082E-03-2.10840E-01-4.77721E-15-5.02040E-13
 -1      1399 2.20114E+01 9.22702E-03-2.30626E-03-4.31933E-01 2.44845E-14-3.48329E-13
 -1      1400 2.16870E+01 9.84379E-03-3.12885E-04-1.89145E-01 5.34821E-14-4.38798E-13
 -1      1401 2.14608E+01 1.18610E-02-9.86368E-04-1.83002E-01 8.74424E-14-3.53211E-13
 -1      1402 2.16125E+01 1.64590E-02-3.20582E-03-3.90175E-01 6.31285E-14-2.93961E-13
 -1      1403 2.12938E+01 1.08040E-02 6.22464E-05-1.58083E-01 4.33273E-14-2.34153E-13
 -1      1404 2.11052E+01 1.16775E-02-5.82149E-04-1.51934E-01-8.07601E-15-1.69584E-13
 -1      1405 2.12588E+01 1.87462E-02-3.41965E-03-3.33621E-01 1.26076E-13-7.78922E-14
 -1      1406 2.09662E+01 1.03630E-02 3.14168E-04-1.27502E-01-1.46904E-14-1.14428E-13
 -1      1407 2.08146E+01 1.05320E-02-2.65383E-04-1.21908E-01 3.86714E-14-2.78852E-14
 -1      1408 2.09587E+01 1.81940E-02-3.24807E-03-2.74057E-01 3.34368E-14 4.34339E-14
 -1      1409 2.07024E+01 9.22235E-03 4.50088E-04-9.98844E-02 2.61412E-14-8.20396E-14
 -1      1410 2.05841E+01 8.99194E-03-4.54859E-05-9.50834E-02 6.77944E-14-2.73410E-14
 -1      1411 2.07126E+01 1.62269E-02-2.88702E-03-2.18109E-01 3.57043E-14 4.48684E-14
 -1      1412 2.04959E+01 7.81651E-03 4.98313E-04-7.62617E-02 5.79105E-14-4.43976E-14
 -1      1413 2.04059E+01 7.38582E-03 9.19717E-05-7.23030E-02-4.96285E-14-3.27237E-14
 -1      1414 2.05163E+01 1.37205E-02-2.45563E-03-1.68961E-01 3.71795E-14 2.58359E-14
 -1      1415 2.03382E+01 6.39436E-03 4.88954E-04-5.68163E-02-2.22761E-14-4.85161E-14
 -1      1416 2.02715E+01 5.88722E-03 1.67558E-04-5.36506E-02-3.41524E-17-5.78189E-15
 -1      1417 2.03636E+01 1.11696E-02-2.02192E-03-1.27689E-01-1.81836E-14 2.19466E-14
 -1      1418 2.02208E+01 5.08580E-03 4.46493E-04-4.12795E-02 1.09369E-14 4.79976E-16
 -1      1419 2.01726E+01 4.57524E-03 2.00360E-04-3.88117E-02 1.20911E-14 7.78743E-14
 -1      1420 2.02475E+01 8.82720E-03-1.62179E-03-9.41724E-02 3.86732E-14 1.26792E-13
 -1      1421 2.01354E+01 3.94824E-03 3.88351E-04-2.91740E-02-8.58460E-15 2.14144E-13
 -1      1422 2.01016E+01 3.47430E-03 2.05558E-04-2.72942E-02 7.89250E-15 2.75457E-13
 -1      1423 2.01612E+01 6.80147E-03-1.27159E-03-6.76835E-02 7.22580E-14 8.56334E-14
 -1      1424 2.00751E+01 2.99717E-03 3.25825E-04-1.99557E-02 5.66525E-14 2.25543E-13
 -1      1425 2.00521E+01 2.57911E-03 1.94262E-04-1.85556E-02 5.95063E-14 3.64932E-13
 -1      1426 2.00986E+01 5.11911E-03-9.76202E-04-4.72414E-02 1.78915E-14 2.51861E-13
 -1      1427 2.00337E+01 2.22526E-03 2.65632E-04-1.30914E-02-8.45160E-14 3.60179E-13
 -1      1428 2.00189E+01 1.86962E-03 1.74172E-04-1.20725E-02-1.24318E-13 1.56707E-13
 -1      1429 2.00544E+01 3.76383E-03-7.34044E-04-3.18154E-02-5.71253E-14 1.42171E-13
 -1      1430 2.00066E+01 1.61403E-03 2.11342E-04-8.09776E-03-9.20881E-14 2.73479E-14
 -1      1431 1.99976E+01 1.31989E-03 1.50377E-04-7.37515E-03-9.70062E-14-1.52390E-13
 -1      1432 2.00242E+01 2.69911E-03-5.40208E-04-2.04340E-02-1.98014E-13 4.69365E-14
 -1      1433 1.99898E+01 1.14057E-03 1.64484E-04-4.55746E-03 4.41448E-14-1.43671E-13
 -1      1434 1.99849E+01 9.02963E-04 1.26081E-04-4.06027E-03 1.13678E-13-7.17969E-14
 -1      1435 2.00045E+01 1.88127E-03-3.88331E-04-1.22364E-02-7.75292E-14-3.44257E-14
 -1      1436 1.99804E+01 7.81489E-04 1.25346E-04-2.12255E-03 5.95742E-14-5.11753E-14
 -1      1437 1.99783E+01 5.93527E-04 1.03169E-04-1.79321E-03 6.59770E-14 7.49075E-16
 -1      1438 1.99922E+01 1.26656E-03-2.71719E-04-6.49106E-03 1.47556E-13-1.95250E-13
 -1      1439 1.99759E+01 5.14933E-04 9.35005E-05-5.10521E-04 8.18454E-14 3.04907E-14
 -1      1440 1.99757E+01 3.69121E-04 8.26356E-05-3.03385E-04 7.87700E-14 1.57859E-13
 -1      1441 1.99854E+01 8.14737E-04-1.83983E-04-2.59484E-03 1.43425E-13-2.49831E-13
 -1      1442 1.99749E+01 3.21572E-04 6.81590E-05 5.02717E-04 1.11702E-13 1.34047E-13
 -1      1443 1.99757E+01 2.10585E-04 6.48908E-05 6.23145E-04-1.04931E-14 2.40516E-13
 -1      1444 1.99822E+01 4.90658E-04-1.19365E-04-6.29167E-05 1.14761E-13-1.39477E-13
 -1      1445 1.99759E+01 1.84925E-04 4.83854E-05 1.09126E-03-9.76973E-14 3.44235E-13
 -1      1446 1.99774E+01 1.02030E-04 4.99740E-05 1.15201E-03-2.73816E-14 2.11726E-13
 -1      1447 1.99815E+01 2.64707E-04-7.28776E-05 1.48606E-03-2.97008E-14 3.07022E-14
 -1      1448 1.99781E+01 9.13142E-05 3.32279E-05 1.38758E-03-2.09152E-13 2.12278E-14
 -1      1449 1.99799E+01 3.05642E-05 3.77032E-05 1.40880E-03-3.24170E-13-3.48298E-13
 -1      1450 1.99823E+01 1.12567E-04-4.03235E-05 2.34581E-03-2.38428E-13-9.28615E-14
 -1      1451 1.99810E+01 2.96212E-05 2.17925E-05 1.49026E-03-2.47731E-13-3.96429E-13
 -1      1452 1.99829E+01-1.40977E-05 2.77758E-05 1.48658E-03-2.10563E-13-6.30258E-13
 -1      1453 1.99840E+01 1.46689E-05-1.82511E-05 2.73781E-03-4.44373E-13-1.31183E-13
 -1      1454 1.99841E+01-9.06619E-06 1.32829E-05 1.47070E-03 6.84997E-15-7.46730E-13
 -1      1455 1.99859E+01-4.00783E-05 1.98383E-05 1.45246E-03-5.14770E-14-8.35831E-13
 -1      1456 1.99862E+01-4.45047E-05-3.87023E-06 2.82504E-03-2.54112E-13-2.91864E-13
 -1      1457 1.99872E+01-3.18529E-05 7.02624E-06 1.37878E-03 3.87285E-14-7.19506E-13
 -1      1458 1.99889E+01-5.37953E-05 1.35481E-05 1.35285E-03 1.59178E-13-6.67714E-13
 -1      1459 1.99886E+01-7.71884E-05 5.05019E-06 2.72375E-03 1.21077E-13-4.03329E-13
 -1      1460 1.99900E+01-4.44737E-05 2.51087E-06 1.24717E-03 6.24072E-14-3.82243E-13
 -1      1461 1.99915E+01-6.04152E-05 8.66696E-06 1.21769E-03 2.73987E-14-5.04725E-13
 -1      1462 1.99909E+01-9.31324E-05 1.02959E-05 2.51295E-03 2.32823E-13-1.56228E-13
 -1      1463 1.99926E+01-5.16858E-05-5.14427E-07 1.09457E-03 1.49634E-13-4.75094E-13
 -1      1464 1.99939E+01-6.42188E-05 5.18128E-06 1.06336E-03 2.12638E-13-2.88981E-13
 -1      1465 1.99930E+01-1.00366E-04 1.33512E-05 2.24167E-03 2.22803E-13 6.61719E-14
 -1      1466 1.99949E+01-5.76224E-05-1.93524E-06 9.27945E-04 2.23373E-13-1.11127E-13
 -1      1467 1.99960E+01-6.89830E-05 3.48548E-06 8.94753E-04 1.80236E-13 2.33927E-13
 -1      1468 1.99949E+01-1.05828E-04 1.55256E-05 1.93415E-03 3.53230E-13 2.64699E-13
 -1      1469 1.99967E+01-6.62917E-05-9.37885E-07 7.43702E-04-2.77341E-14 9.75302E-14
 -1      1470 1.99976E+01-7.80794E-05 4.33353E-06 7.05921E-04 8.03383E-14 2.26183E-13
 -1      1471 1.99966E+01-1.16646E-04 1.79107E-05 1.59359E-03 1.08758E-13 3.08991E-13
 -1      1472 1.99982E+01-8.07617E-05 3.29252E-06 5.29826E-04 1.09351E-13-7.84210E-14
 -1      1473 1.99988E+01-9.23842E-05 5.93627E-06 4.82282E-04-2.82241E-14 1.51378E-14
 -1      1474 1.99979E+01-1.39316E-04 2.07748E-05 1.20456E-03-8.84240E-14 1.28452E-14
 -1      1475 1.99993E+01-1.07796E-04 5.61035E-06 2.71314E-04-5.56479E-14 3.55895E-14
 -1      1476 1.99995E+01-9.79841E-05-2.08917E-06 2.13434E-04-5.31824E-14 2.96306E-14
 -1      1477 1.99989E+01-1.77447E-04 2.19903E-05 7.49795E-04-8.92849E-16-9.92747E-14
 -1      1478 1.99998E+01-2.69291E-05-9.75727E-06-1.68987E-05-1.13324E-13 9.32755E-14
 -1      1479 1.99996E+01-1.52516E-04 8.16436E-06 2.00887E-04-3.82398E-14 2.20545E-16
 -1      1480 2.36333E+01 6.34061E-02-1.37523E-01 1.84387E-01 1.13978E-13 1.61334E-12
 -1      1481 2.44438E+01 2.18843E-01-2.28387E-01 4.01940E-01 1.05319E-13 1.78760E-12
 -1      1482 2.44970E+01 8.17755E-01-1.02940E-01 1.48870E+00 1.91736E-13 1.26879E-12
 -1      1483 2.33767E+01 2.39842E-02-1.24591E-02-7.36050E-02 8.21756E-14 1.38400E-12
 -1      1484 2.34079E+01 1.07525E-01-5.43315E-02-2.73890E-02 7.89976E-14 1.49934E-12
 -1      1485 2.36307E+01 1.54760E-01-5.78859E-02 2.60128E-01 1.83700E-13 1.08067E-12
 -1      1486 2.35872E+01 1.43323E-03 1.21710E-02-1.63109E-01 6.28620E-14 1.21162E-12
 -1      1487 2.33972E+01 3.84914E-02 5.43369E-03-1.43789E-01 5.51868E-14 1.30179E-12
 -1      1488 2.34314E+01 4.62356E-02-1.14582E-02-1.60166E-01 1.29081E-13 9.37715E-13
 -1      1489 2.39168E+01-1.91491E-02 1.72338E-02-1.46552E-01 3.43400E-14 1.08045E-12
 -1      1490 2.36965E+01-4.40756E-03 1.36161E-02-1.50937E-01 4.01816E-14 1.14815E-12
 -1      1491 2.35678E+01-8.88319E-03 3.00140E-03-2.69141E-01 9.79375E-14 7.94189E-13
 -1      1492 2.41000E+01-4.01434E-02 2.30931E-02-3.36427E-02 2.65326E-14 1.01648E-12
 -1      1493 2.39912E+01-4.38573E-02 1.26957E-02-6.51708E-02 2.31247E-14 1.05517E-12
 -1      1494 2.37679E+01-5.77304E-02 1.25638E-02-1.76990E-01 5.23453E-14 7.51500E-13
 -1      1495 2.39009E+01-5.61658E-02 2.95517E-02 1.69648E-01 3.05138E-15 1.02726E-12
 -1      1496 2.40357E+01-8.06029E-02 1.33921E-02 1.09438E-01 1.80498E-15 1.00098E-12
 -1      1497 2.38164E+01-1.04871E-01 2.34880E-02 9.49496E-02 1.73282E-14 7.28912E-13
 -1      1498 2.31524E+01-5.44027E-02 2.85175E-02 4.22084E-01 2.59150E-14 1.03210E-12
 -1      1499 2.36240E+01-9.97417E-02 1.43262E-02 3.43411E-01 5.02896E-15 1.03608E-12
 -1      1500 2.35367E+01-1.33319E-01 3.16598E-02 5.05248E-01-1.17250E-14 7.32886E-13
 -1      1501 2.18690E+01-2.21872E-02 1.07891E-02 6.23098E-01 5.36030E-14 9.18203E-13
 -1      1502 2.26598E+01-7.85958E-02 9.97025E-03 5.55337E-01 4.48495E-14 9.95801E-13
 -1      1503 2.28398E+01-1.11502E-01 2.88006E-02 9.29766E-01 5.92313E-14 6.87519E-13
 -1      1504 2.03578E+01 3.69174E-02-2.39894E-02 6.35934E-01 4.56072E-14 7.93005E-13
 -1      1505 2.12736E+01-6.43150E-03-3.79361E-03 6.20328E-01 3.86241E-14 8.51492E-13
 -1      1506 2.18120E+01-1.57064E-02 9.78717E-03 1.15227E+00 9.94573E-14 6.26742E-13
 -1      1507 1.91870E+01 9.28511E-02-5.85622E-02 3.78452E-01 5.90934E-14 7.08024E-13
 -1      1508 1.98824E+01 9.19726E-02-2.32268E-02 4.40401E-01 3.32911E-14 7.62355E-13
 -1      1509 2.07678E+01 1.32723E-01-1.86664E-02 9.60611E-01 5.44998E-14 5.28216E-13
 -1      1510 1.89142E+01 1.06089E-01-6.66688E-02-7.49347E-02 6.30052E-15 6.44436E-13
 -1      1511 1.90606E+01 1.58877E-01-3.53798E-02 4.47819E-02 4.54428E-14 6.62435E-13
 -1      1512 2.01531E+01 2.52202E-01-3.90307E-02 3.27886E-01 8.10636E-14 5.25527E-13
 -1      1513 1.97090E+01 6.59065E-02-3.96345E-02-5.04259E-01 2.21316E-14 6.24667E-13
 -1      1514 1.92159E+01 1.48603E-01-2.90082E-02-3.86607E-01-2.23779E-15 5.97130E-13
 -1      1515 2.02850E+01 2.53156E-01-3.89743E-02-4.86463E-01-7.06379E-15 4.37149E-13
 -1      1516 2.12176E+01 3.00939E-03 2.98620E-03-7.06585E-01 2.98381E-14 5.34309E-13
 -1      1517 2.03023E+01 7.31050E-02-7.76415E-03-6.44499E-01 4.33932E-14 5.86378E-13
 -1      1518 2.11178E+01 1.29246E-01-2.33548E-02-1.08663E+00 5.65381E-14 3.74051E-13
 -1      1519 2.28221E+01-4.37242E-02 3.44543E-02-6.40523E-01 1.02948E-13 3.06241E-13
 -1      1520 2.18530E+01-1.36730E-02 1.36260E-02-6.44882E-01 9.86910E-14 4.31183E-13
 -1      1521 2.22793E+01-3.14788E-02-5.25042E-03-1.23451E+00 1.47662E-13 1.76296E-13
 -1      1522 2.40202E+01-5.89994E-02 4.28529E-02-4.09145E-01 5.82590E-14 2.27991E-13
 -1      1523 2.32948E+01-6.75595E-02 2.37630E-02-4.55314E-01 5.33618E-14 2.98560E-13
 -1      1524 2.33316E+01-1.37160E-01 6.34959E-03-9.76804E-01 1.37532E-13 1.21479E-13
 -1      1525 2.46105E+01-5.05811E-02 3.41909E-02-1.47307E-01-3.39147E-14 1.18653E-13
 -1      1526 2.42469E+01-7.97874E-02 2.17079E-02-2.03430E-01 3.06595E-14 1.41089E-13
 -1      1527 2.39962E+01-1.60426E-01 1.02457E-02-5.28324E-01 8.10203E-14 6.88009E-14
 -1      1528 2.46449E+01-3.30103E-02 1.97986E-02 5.95567E-02 9.21615E-14 4.69724E-14
 -1      1529 2.46099E+01-6.52924E-02 1.35751E-02 1.35025E-02 4.59788E-15 8.06568E-14
 -1      1530 2.42088E+01-1.28333E-01 9.35229E-03-9.30279E-02 2.74572E-14-7.18256E-14
 -1      1531 2.42922E+01-1.62492E-02 7.37092E-03 1.85990E-01-3.02709E-16-2.09744E-13
 -1      1532 2.44836E+01-4.19325E-02 5.29004E-03 1.56367E-01 1.36537E-13-1.63550E-14
 -1      1533 2.40483E+01-7.86024E-02 6.67128E-03 2.22831E-01 1.89116E-13-2.65421E-14
 -1      1534 2.37310E+01-4.21291E-03-5.14713E-04 2.42319E-01-3.28951E-14-9.50975E-14
 -1      1535 2.40419E+01-2.06800E-02-3.03399E-04 2.27450E-01-9.12952E-14-2.05978E-13
 -1      1536 2.36460E+01-3.47504E-02 4.01349E-03 4.00792E-01-3.78651E-14-6.72440E-14
 -1      1537 2.30993E+01 2.91821E-03-4.34083E-03 2.50642E-01-9.29996E-14 9.29187E-14
 -1      1538 2.34487E+01-5.50769E-03-2.97038E-03 2.46145E-01-5.98783E-14 3.10082E-14
 -1      1539 2.31255E+01-4.79469E-03 2.03397E-03 4.67863E-01-1.08173E-13 1.52361E-14
 -1      1540 2.24852E+01 6.37223E-03-5.52016E-03 2.31593E-01-5.17076E-14 1.69195E-13
 -1      1541 2.28225E+01 3.62842E-03-3.61322E-03 2.33270E-01-4.19106E-14 8.39329E-14
 -1      1542 2.25787E+01 1.20632E-02 7.59704E-04 4.62432E-01-1.04559E-13 9.38507E-14
 -1      1543 2.19357E+01 7.50131E-03-5.31092E-03 2.00017E-01 8.23029E-14 1.49192E-13
 -1      1544 2.22349E+01 8.22479E-03-3.21873E-03 2.04792E-01 1.18861E-14 2.00890E-13
 -1      1545 2.20625E+01 1.95534E-02 1.19179E-05 4.17436E-01-2.11114E-14 7.71197E-14
 -1      1546 2.14696E+01 7.33949E-03-4.52842E-03 1.65083E-01-5.80811E-14 1.16502E-13
 -1      1547 2.17211E+01 9.88515E-03-2.46489E-03 1.71010E-01 1.17983E-14 1.37507E-13
 -1      1548 2.16066E+01 2.13409E-02-3.94253E-04 3.55751E-01 5.44963E-14 6.84435E-14
 -1      1549 2.10891E+01 6.55856E-03-3.61104E-03 1.31781E-01-3.05968E-14 2.79784E-13
 -1      1550 2.12924E+01 9.85315E-03-1.70580E-03 1.37754E-01-6.92380E-14 1.78382E-13
 -1      1551 2.12220E+01 2.01003E-02-5.91583E-04 2.91220E-01-1.04295E-13 3.24237E-14
 -1      1552 2.07874E+01 5.55231E-03-2.75838E-03 1.02428E-01 7.10184E-14 2.97159E-13
 -1      1553 2.09471E+01 8.96040E-03-1.08093E-03 1.07888E-01 5.24140E-14 3.67829E-13
 -1      1554 2.09084E+01 1.75150E-02-6.64000E-04 2.31211E-01-5.31237E-14 2.38773E-13
 -1      1555 2.05541E+01 4.53205E-03-2.04158E-03 7.77841E-02 1.38983E-13 8.61347E-14
 -1      1556 2.06765E+01 7.71332E-03-6.17960E-04 8.25001E-02 7.49122E-14 2.01937E-13
 -1      1557 2.06595E+01 1.45413E-02-6.62690E-04 1.78998E-01 1.42863E-13 1.45705E-13
 -1      1558 2.03776E+01 3.59970E-03-1.47100E-03 5.77834E-02-1.20919E-14-1.42460E-13
 -1      1559 2.04693E+01 6.39750E-03-2.98153E-04 6.17056E-02 1.34173E-13 1.20804E-14
 -1      1560 2.04666E+01 1.16718E-02-6.19322E-04 1.35490E-01 1.90392E-13-5.29177E-14
 -1      1561 2.02470E+01 2.79572E-03-1.03216E-03 4.19681E-02 7.65664E-15-2.20111E-13
 -1      1562 2.03141E+01 5.16080E-03-8.97784E-05 4.51404E-02-9.48958E-14-2.68385E-13
 -1      1563 2.03201E+01 9.12756E-03-5.54014E-04 1.00348E-01 1.39244E-15-9.82878E-14
 -1      1564 2.01524E+01 2.12797E-03-7.02955E-04 2.97333E-02 4.62917E-14-3.00258E-13
 -1      1565 2.02004E+01 4.06989E-03 3.77485E-05 3.22419E-02 5.73367E-14-1.99127E-13
 -1      1566 2.02112E+01 6.98172E-03-4.79712E-04 7.26540E-02 2.72537E-14-2.10502E-13
 -1      1567 2.00857E+01 1.58828E-03-4.61143E-04 2.04561E-02-1.03882E-13-3.58273E-13
 -1      1568 2.01191E+01 3.14597E-03 1.09299E-04 2.24009E-02-4.37476E-16-3.54625E-13
 -1      1569 2.01321E+01 5.23163E-03-4.04642E-04 5.12882E-02 6.02714E-14-2.38437E-13
 -1      1570 2.00401E+01 1.16152E-03-2.87151E-04 1.35593E-02-1.43990E-13-2.90653E-14
 -1      1571 2.00625E+01 2.38603E-03 1.43546E-04 1.50390E-02-1.46626E-13-2.89482E-13
 -1      1572 2.00760E+01 3.83984E-03-3.33803E-04 3.51278E-02-1.94931E-13-1.93486E-13
 -1      1573 2.00100E+01 8.30511E-04-1.64763E-04 8.53778E-03 7.20970E-15 3.39312E-14
 -1      1574 2.00244E+01 1.77530E-03 1.53894E-04 9.64273E-03-1.68022E-14-1.47054E-14
 -1      1575 2.00373E+01 2.75593E-03-2.69969E-04 2.31443E-02-9.22833E-14-1.32192E-13
 -1      1576 1.99913E+01 5.78415E-04-8.09880E-05 4.96569E-03 8.49589E-14-1.08783E-13
 -1      1577 1.99999E+01 1.29419E-03 1.49685E-04 5.77452E-03 9.15605E-14 2.56867E-14
 -1      1578 2.00116E+01 1.92771E-03-2.14396E-04 1.44435E-02 8.25552E-14-1.51612E-13
 -1      1579 1.99806E+01 3.89958E-04-2.56340E-05 2.49343E-03-1.30283E-13-1.76822E-13
 -1      1580 1.99852E+01 9.22138E-04 1.37276E-04 3.07256E-03-3.43006E-14-1.51335E-13
 -1      1581 1.99954E+01 1.30658E-03-1.67339E-04 8.27422E-03 5.88510E-14-2.11414E-14
 -1      1582 1.99754E+01 2.51856E-04 9.17328E-06 8.40141E-04 9.26572E-14-2.69770E-13
 -1      1583 1.99773E+01 6.39638E-04 1.20888E-04 1.24429E-03-1.55075E-14-1.13871E-13
 -1      1584 1.99860E+01 8.49825E-04-1.28429E-04 4.02144E-03-1.31034E-14 3.09408E-14
 -1      1585 1.99739E+01 1.52905E-04 2.94333E-05-2.15676E-04 2.03034E-14-5.20694E-13
 -1      1586 1.99740E+01 4.29174E-04 1.03236E-04 5.76672E-05 6.76216E-14-4.21672E-13
 -1      1587 1.99812E+01 5.21176E-04-9.69374E-05 1.19216E-03 1.54791E-13-6.68595E-14
 -1      1588 1.99747E+01 8.38680E-05 3.96554E-05-8.45610E-04-1.15860E-13-2.89703E-13
 -1      1589 1.99738E+01 2.75598E-04 8.59910E-05-6.68065E-04-1.67682E-13-5.20102E-13
 -1      1590 1.99796E+01 2.90653E-04-7.19598E-05-6.01599E-04-1.30106E-13-2.12994E-13
 -1      1591 1.99769E+01 3.72620E-05 4.31793E-05-1.18026E-03 7.44353E-14-1.66834E-13
 -1      1592 1.99754E+01 1.66150E-04 7.01045E-05-1.07125E-03-2.10117E-14-1.94948E-13
 -1      1593 1.99800E+01 1.33952E-04-5.25408E-05-1.65974E-03-9.62686E-14-1.33629E-13
 -1      1594 1.99798E+01 7.11766E-06 4.24396E-05-1.31712E-03-3.78535E-14 1.20865E-13
 -1      1595 1.99780E+01 9.02991E-05 5.60471E-05-1.25581E-03-3.33757E-14-2.97489E-15
 -1      1596 1.99816E+01 3.17043E-05-3.77480E-05-2.20990E-03-6.83293E-14 1.58705E-13
 -1      1597 1.99830E+01-1.12785E-05 3.91813E-05-1.32734E-03-1.06345E-13 1.05521E-13
 -1      1598 1.99811E+01 3.94780E-05 4.39715E-05-1.29811E-03 1.56547E-14 1.07212E-13
 -1      1599 1.99838E+01-3.13167E-05-2.67122E-05-2.42141E-03-3.88920E-14 4.43306E-13
 -1      1600 1.99862E+01-2.16344E-05 3.46402E-05-1.26126E-03-8.99385E-14 3.34672E-13
 -1      1601 1.99844E+01 6.77832E-06 3.38304E-05-1.25276E-03-2.38092E-13-8.88769E-15
 -1      1602 1.99864E+01-6.69600E-05-1.86413E-05-2.41710E-03-2.04683E-13 7.64965E-14
 -1      1603 1.99892E+01-2.69030E-05 2.97093E-05-1.15283E-03 1.43038E-17 3.73248E-13
 -1      1604 1.99875E+01-1.33946E-05 2.54643E-05-1.15716E-03 1.31065E-13 5.51228E-13
 -1      1605 1.99889E+01-8.44207E-05-1.28065E-05-2.28308E-03-5.99435E-14 2.66457E-13
 -1      1606 1.99919E+01-2.94990E-05 2.51309E-05-1.02285E-03 2.42524E-13-9.51752E-14
 -1      1607 1.99904E+01-2.56704E-05 1.86988E-05-1.03504E-03 9.07983E-14 1.40298E-13
 -1      1608 1.99913E+01-9.09436E-05-8.49653E-06-2.07619E-03 2.48881E-13 3.06674E-13
 -1      1609 1.99943E+01-3.15547E-05 2.17553E-05-8.81234E-04 2.08112E-14-1.49356E-13
 -1      1610 1.99930E+01-3.41031E-05 1.34694E-05-8.98918E-04 5.59161E-14-7.91800E-14
 -1      1611 1.99935E+01-9.24130E-05-4.88170E-06-1.82961E-03 1.67900E-13 7.96277E-14
 -1      1612 1.99963E+01-3.50559E-05 2.08290E-05-7.28121E-04 9.77252E-14-2.84937E-13
 -1      1613 1.99952E+01-4.25429E-05 1.00513E-05-7.51587E-04 1.25944E-13-9.70863E-14
 -1      1614 1.99955E+01-9.41033E-05-8.88227E-07-1.55655E-03 1.57355E-13 4.68586E-14
 -1      1615 1.99980E+01-4.18386E-05 2.32235E-05-5.54736E-04 7.94365E-14-5.63926E-13
 -1      1616 1.99971E+01-5.47543E-05 9.10835E-06-5.87126E-04 7.52441E-14-4.22236E-13
 -1      1617 1.99971E+01-1.01217E-04 4.76757E-06-1.25246E-03 1.94750E-13-1.76544E-13
 -1      1618 1.99991E+01-5.32402E-05 2.42864E-05-3.44290E-04-6.69065E-14-5.34565E-13
 -1      1619 1.99985E+01-7.40410E-05 1.00149E-05-3.93404E-04 1.22013E-14-4.80215E-13
 -1      1620 1.99984E+01-1.19798E-04 1.16360E-05-8.99172E-04 3.44573E-15-1.72245E-13
 -1      1621 1.99997E+01-6.33471E-05-1.91248E-06-1.06157E-04-4.91397E-14-4.06377E-13
 -1      1622 1.99994E+01-8.90600E-05 6.51483E-06-1.65999E-04-4.55637E-14-5.31280E-13
 -1      1623 1.99992E+01-1.42393E-04 1.49489E-05-4.78479E-04-2.09258E-15-1.59315E-13
 -1      1624 1.99998E+01-3.11250E-05-1.23130E-05 5.53903E-06-1.47254E-13-1.96929E-13
 -1      1625 1.99997E+01-5.47290E-04 1.28448E-05-2.82115E-04-5.57051E-14 7.96828E-14
 -1      1626 1.99997E+01-2.75470E-04-4.02536E-06-2.19574E-04-2.28050E-13 1.98072E-13
 -1      1627 1.99997E+01-1.49405E-03 7.35262E-06-4.96244E-04-1.22201E-14-1.66957E-13
 -1      1628 1.99997E+01-9.40469E-04 8.46768E-06-4.60072E-04 1.14314E-14-1.96490E-13
 -1      1629 1.99996E+01-8.89404E-04 1.56705E-05-7.25678E-04 3.72772E-14 1.70092E-14
 -1      1630 1.99998E+01-2.70944E-03 1.59392E-06-6.07388E-04-4.47229E-14 1.37679E-13
 -1      1631 1.99998E+01-2.00165E-03 5.21668E-06-5.94317E-04-4.48425E-14 1.12620E-14
 -1      1632 1.99997E+01-1.78434E-03 1.17840E-05-1.05540E-03 1.47230E-13-2.20207E-13
 -1      1633 1.99998E+01-3.99549E-03-1.54127E-06-6.13214E-04 2.39518E-13 2.37847E-13
 -1      1634 1.99998E+01-3.26353E-03 1.55492E-06-6.20554E-04-7.79168E-14 3.51326E-13
 -1      1635 1.99998E+01-2.84004E-03 9.87236E-07-1.18585E-03 2.31520E-13 2.60640E-13
 -1      1636 1.99998E+01-5.14559E-03-2.40758E-06-5.32372E-04 1.53978E-13 3.75019E-14
 -1      1637 1.99998E+01-4.50886E-03-9.19651E-08-5.54566E-04 1.91056E-13-3.49208E-14
 -1      1638 1.99998E+01-3.89951E-03-8.79529E-06-1.12738E-03 4.03902E-14 1.15015E-13
 -1      1639 1.99999E+01-6.04951E-03-2.35271E-06-3.83598E-04 3.04983E-13 1.36141E-13
 -1      1640 1.99999E+01-5.57128E-03-9.09120E-07-4.17321E-04 1.43695E-13 4.74470E-14
 -1      1641 1.99999E+01-4.82904E-03-1.59709E-05-9.17196E-04 8.25163E-14 6.00411E-14
 -1      1642 1.99999E+01-6.57662E-03-1.90793E-06-1.90601E-04 2.55008E-13-7.53515E-14
 -1      1643 1.99999E+01-6.32469E-03-1.17577E-06-2.30860E-04 3.20372E-13 1.05386E-13
 -1      1644 1.99999E+01-5.52101E-03-2.08877E-05-5.93663E-04 3.41427E-14 9.16632E-14
 -1      1645 1.99999E+01-6.66821E-03-1.47778E-06 2.32314E-05 4.87593E-13 1.59455E-13
 -1      1646 1.99999E+01-6.67062E-03-1.48316E-06-1.91630E-05 4.33275E-13 7.88304E-14
 -1      1647 1.99999E+01-5.88554E-03-2.32957E-05-2.02708E-04 2.26300E-13-7.79016E-15
 -1      1648 1.99999E+01-6.31413E-03-1.13106E-06 2.34577E-04 6.02082E-13-5.48576E-14
 -1      1649 1.99999E+01-6.57063E-03-1.91541E-06 1.94447E-04 5.63712E-13 1.82233E-13
 -1      1650 1.99999E+01-5.88197E-03-2.32640E-05 2.10370E-04 3.96791E-13 1.59894E-13
 -1      1651 1.99999E+01-5.55409E-03-7.64179E-07 4.20116E-04 8.20192E-14-3.40174E-13
 -1      1652 1.99999E+01-6.03591E-03-2.45692E-06 3.86722E-04 4.98850E-13-2.87952E-13
 -1      1653 1.99999E+01-5.51083E-03-2.07532E-05 6.00327E-04 1.93164E-13-2.29630E-13
 -1      1654 1.99998E+01-4.49702E-03-2.24319E-07 5.54880E-04-3.44732E-13-5.55603E-14
 -1      1655 1.99998E+01-5.13523E-03-2.51292E-06 5.33038E-04-3.91258E-14-2.19663E-13
 -1      1656 1.99999E+01-4.82092E-03-1.59777E-05 9.19992E-04-8.47509E-15-5.32594E-13
 -1      1657 1.99998E+01-3.24080E-03 1.50552E-06 6.20614E-04-4.40539E-13-2.81913E-14
 -1      1658 1.99998E+01-3.97338E-03-1.58755E-06 6.13631E-04-4.25363E-13 1.86488E-13
 -1      1659 1.99998E+01-3.88914E-03-8.59125E-06 1.12830E-03 5.42174E-14 2.35592E-15
 -1      1660 1.99998E+01-1.98108E-03 5.35292E-06 5.94061E-04-2.99024E-13 2.98982E-13
 -1      1661 1.99998E+01-2.68748E-03 1.48276E-06 6.06150E-04-5.20882E-13 1.13752E-13
 -1      1662 1.99998E+01-2.82064E-03 1.11619E-06 1.18473E-03-1.00182E-13-1.85705E-14
 -1      1663 1.99997E+01-9.41202E-04 2.19958E-06 4.58281E-04-1.12530E-13 5.10592E-14
 -1      1664 1.99997E+01-1.47991E-03 7.14730E-06 4.95135E-04-2.57550E-13 3.28021E-13
 -1      1665 1.99997E+01-1.76835E-03 1.14142E-05 1.05081E-03-1.70492E-13 2.80716E-13
 -1      1666 1.99996E+01-3.77259E-04-1.04830E-05 3.30785E-04-1.55618E-13-1.76781E-13
 -1      1667 1.99997E+01-6.54565E-04 6.10053E-06 4.21262E-04-2.68573E-14-1.05590E-13
 -1      1668 1.99996E+01-9.83356E-04 1.40278E-05 8.60529E-04-2.75166E-13 1.72187E-13
 -1      1669 1.99994E+01-4.67929E-04-2.32680E-06 6.54718E-04-1.34260E-13-1.27861E-13
 -1      1670-6.77464E-01-1.50741E+01-1.73404E+00-1.12127E+00 8.10185E-13 2.46581E-13
 -1      1671-6.35594E-01-1.67817E+01-1.86834E+00 2.41084E-01 4.62685E-13 2.78999E-13
 -1      1672 9.40463E-01-8.81557E+00-1.26276E+00 1.62779E-01 1.40699E-12 1.03022E-12
 -1      1673 3.81593E-01-1.36523E+01-1.74868E+00-2.20352E-01 8.76854E-13 5.61245E-13
 -1      1674 7.57641E+00-1.21994E+00-5.10564E-01 4.73622E+00 1.58895E-12 1.17484E-12
 -1      1675 4.30262E+00-6.86956E+00-1.23520E+00 1.84080E+00 1.43485E-12 9.54681E-13
 -1      1676 1.69887E+01 4.43942E+00 1.86080E-01 9.24397E+00 1.40121E-12 1.27720E-12
 -1      1677 1.10493E+01 1.04939E+00-6.45264E-01 5.79838E+00 1.72951E-12 1.20393E-12
 -1      1678 3.15653E+01 6.24218E+00 9.88747E-01 1.23600E+01 9.68114E-13 1.21125E-12
 -1      1679 2.20449E+01 5.60503E+00 7.62655E-02 1.00647E+01 1.25289E-12 1.33427E-12
 -1      1680 4.56998E+01 5.16807E+00 1.62824E+00 1.08710E+01 5.58886E-13 5.49338E-13
 -1      1681 3.69083E+01 6.61712E+00 9.31239E-01 1.21581E+01 8.62477E-13 1.05893E-12
 -1      1682 5.45504E+01 3.58881E+00 1.92745E+00 4.49506E+00 3.08920E-13-2.71505E-13
 -1      1683 4.94339E+01 4.94943E+00 1.58054E+00 9.01688E+00 4.61103E-13 3.35176E-13
 -1      1684 5.43222E+01 3.85922E+00 1.76350E+00-3.77659E+00 4.06175E-13-1.05299E-12
 -1      1685 5.52031E+01 3.64867E+00 1.86376E+00 1.84999E+00 3.16913E-13-5.19945E-13
 -1      1686 4.48620E+01 5.63425E+00 1.23672E+00-9.83517E+00 7.37285E-13-1.53966E-12
 -1      1687 5.18200E+01 4.03740E+00 1.71861E+00-5.92176E+00 4.77868E-13-1.20304E-12
 -1      1688 3.18846E+01 6.84733E+00 6.28253E-01-1.21486E+01 1.25533E-12-1.87250E-12
 -1      1689 4.09763E+01 5.74153E+00 1.36524E+00-1.20151E+01 9.37639E-13-1.77192E-12
 -1      1690 1.80042E+01 4.96048E+00-1.77491E-01-9.13116E+00 1.60516E-12-1.75659E-12
 -1      1691 2.66145E+01 6.45795E+00 7.40994E-01-1.21704E+01 1.43952E-12-1.84608E-12
 -1      1692 7.90417E+00-7.37946E-01-9.43868E-01-4.27773E+00 1.46794E-12-1.28308E-12
 -1      1693 1.30756E+01 3.54451E+00-9.51454E-02-7.91361E+00 1.59761E-12-1.70441E-12
 -1      1694 2.45261E+00-8.08084E+00-1.49013E+00-7.40836E-01 1.07514E-12-7.43350E-13
 -1      1695 4.48900E+00-2.71126E+00-8.44908E-01-2.85399E+00 1.39910E-12-1.09091E-12
 -1      1696 2.15879E-01-1.40294E+01-1.73825E+00 1.25354E-01 2.40030E-13-4.47573E-13
 -1      1697 5.92192E-01-9.80911E+00-1.36079E+00 1.62248E-01 8.52429E-13-6.76945E-13
 -1      1698-6.36700E-01-1.57520E+01-1.73369E+00-5.21604E-01-7.03285E-13-4.09506E-13
 -1      1699-6.52491E-01-1.47159E+01-1.65363E+00 8.49595E-01-2.64788E-14-4.24327E-13
 -1      1700-3.54663E-01-1.28797E+01-1.54275E+00-7.70345E-01-1.46738E-12-6.19199E-13
 -1      1701-3.97780E-01-1.57195E+01-1.79332E+00 2.07154E-01-9.55624E-13-4.12753E-13
 -1      1702 2.46909E+00-6.06209E+00-1.03555E+00 1.45812E+00-1.80744E-12-1.01119E-12
 -1      1703 1.30697E+00-1.13209E+01-1.57457E+00 3.34405E-01-1.55709E-12-7.08995E-13
 -1      1704 8.47653E+00 1.19284E+00-4.08966E-01 5.58999E+00-1.84297E-12-1.40421E-12
 -1      1705 4.90898E+00-3.96438E+00-1.17907E+00 2.46986E+00-1.90203E-12-1.15308E-12
 -1      1706 2.03598E+01 5.88237E+00 4.09620E-01 1.08025E+01-1.44118E-12-1.47549E-12
 -1      1707 1.27989E+01 2.97165E+00-5.29190E-01 6.99999E+00-1.74338E-12-1.45506E-12
 -1      1708 3.57258E+01 6.32433E+00 1.15516E+00 1.27440E+01-9.07385E-13-1.36935E-12
 -1      1709 2.59924E+01 6.74848E+00 3.34748E-01 1.14795E+01-1.22002E-12-1.52034E-12
 -1      1710 4.85224E+01 4.48741E+00 1.58075E+00 8.59568E+00-5.05065E-13-8.78853E-13
 -1      1711 4.06003E+01 6.18875E+00 1.04886E+00 1.11943E+01-7.50400E-13-1.18927E-12
 -1      1712 5.44121E+01 3.63723E+00 1.78193E+00 1.30623E+00-2.97928E-13-1.52711E-13
 -1      1713 5.12524E+01 4.48401E+00 1.54738E+00 6.43934E+00-4.79727E-13-6.57419E-13
 -1      1714 5.27982E+01 4.17760E+00 1.73227E+00-6.22297E+00-3.32512E-13 4.77174E-13
 -1      1715 5.52823E+01 3.41459E+00 1.86358E+00-1.15556E+00-2.29289E-13 1.14936E-13
 -1      1716 4.37922E+01 5.86357E+00 1.28829E+00-1.11140E+01-6.79262E-13 1.05560E-12
 -1      1717 5.03757E+01 4.33340E+00 1.75208E+00-8.30721E+00-4.65503E-13 6.69909E-13
 -1      1718 3.13598E+01 6.82343E+00 6.55833E-01-1.20957E+01-1.08458E-12 1.43086E-12
 -1      1719 3.96748E+01 5.95765E+00 1.33636E+00-1.22105E+01-7.83873E-13 1.16518E-12
 -1      1720 1.88052E+01 5.20734E+00-7.78590E-02-9.42121E+00-1.32105E-12 1.44440E-12
 -1      1721 2.65151E+01 6.39942E+00 7.23420E-01-1.20077E+01-1.16229E-12 1.52278E-12
 -1      1722 9.19189E+00 3.80723E-01-7.64232E-01-5.08222E+00-1.37046E-12 1.17750E-12
 -1      1723 1.43360E+01 4.03144E+00 2.16195E-02-8.44435E+00-1.38056E-12 1.49281E-12
 -1      1724 3.37653E+00-6.91650E+00-1.34663E+00-1.37327E+00-1.08702E-12 7.61335E-13
 -1      1725 5.93296E+00-1.64209E+00-6.63443E-01-3.83597E+00-1.31051E-12 1.11822E-12
 -1      1726 4.20080E-01-1.33890E+01-1.73328E+00 2.39439E-01-7.08988E-13 4.20049E-13
 -1      1727 9.52370E-01-8.78758E+00-1.28096E+00-8.52002E-02-1.08280E-12 5.96995E-13
 -1      1728-5.28705E-01-1.61660E+01-1.77345E+00-3.76109E-01 1.95538E-13 4.83114E-13
 -1      1729-4.89922E-01-1.41981E+01-1.59760E+00 7.53300E-01-4.92273E-13 5.22693E-13
 -1      1730 2.41965E+01 4.27146E-01 1.82485E-01 7.18951E+00 9.03277E-13 6.70908E-13
 -1      1731 1.44491E+01-3.98136E+00-4.05777E-01 6.32705E+00 8.63865E-13 6.45484E-13
 -1      1732 1.99997E+01-9.46758E-05 6.36021E-06-1.00402E-04-2.82048E-13-7.86066E-14
 -1      1733 1.99996E+01-3.46403E-04 4.11297E-06-3.75686E-04-1.04518E-13 1.43345E-13
 -1      1734 2.12366E-01-1.05017E+01-1.22981E+00 2.08342E+00 4.84723E-13 6.35658E-13
 -1      1735 6.12879E+00-7.30166E+00-7.20788E-01 4.84622E+00 5.96190E-13 8.79390E-13
 -1      1736-1.33237E+00-1.11805E+01-1.29121E+00-2.29361E-01 1.46522E-13 7.21589E-13
 -1      1737 3.47454E+01 3.96323E+00 8.47494E-01 6.83526E+00 8.05023E-13 4.79172E-13
 -1      1738 4.33978E+01 6.27051E+00 1.39119E+00 4.88006E+00 6.78096E-13 1.03584E-13
 -1      1739 4.74721E+01 7.29493E+00 1.60545E+00 1.47415E+00 6.16784E-13-2.63345E-13
 -1      1740 4.56939E+01 7.28858E+00 1.43400E+00-1.97823E+00 6.13065E-13-5.66880E-13
 -1      1741 4.04330E+01 5.79276E+00 1.19476E+00-5.26006E+00 7.23102E-13-8.79519E-13
 -1      1742 3.15719E+01 3.30851E+00 7.20114E-01-7.43835E+00 9.05942E-13-1.07125E-12
 -1      1743 2.06838E+01-1.88593E-01 3.16004E-02-7.31278E+00 8.94729E-13-1.16407E-12
 -1      1744 1.09339E+01-4.26923E+00-5.89855E-01-5.74761E+00 7.59615E-13-1.02524E-12
 -1      1745 3.91398E+00-7.94468E+00-1.01377E+00-3.79644E+00 4.36318E-13-8.31099E-13
 -1      1746-1.57909E-01-9.97431E+00-1.17996E+00-1.74234E+00-1.43219E-14-8.13904E-13
 -1      1747-1.09382E+00-1.04833E+01-1.22588E+00 5.55323E-01-4.41910E-13-7.37743E-13
 -1      1748 1.62690E+00-9.02664E+00-1.06131E+00 3.07959E+00-8.09852E-13-7.25142E-13
 -1      1749 7.42266E+00-6.04032E+00-7.71525E-01 5.03291E+00-1.03051E-12-7.92325E-13
 -1      1750 1.59364E+01-1.84313E+00-2.63673E-01 6.79174E+00-1.12388E-12-8.56648E-13
 -1      1751 2.68610E+01 2.16893E+00 4.21212E-01 7.77435E+00-9.58122E-13-8.62865E-13
 -1      1752 3.73896E+01 5.03696E+00 1.03860E+00 6.36255E+00-7.39436E-13-6.71019E-13
 -1      1753 4.38965E+01 6.95930E+00 1.33856E+00 3.22847E+00-6.73073E-13-4.30322E-13
 -1      1754 4.70864E+01 7.45871E+00 1.53550E+00 2.47150E-03-5.81202E-13-1.29348E-13
 -1      1755 4.57376E+01 6.80637E+00 1.48944E+00-3.42903E+00-5.51892E-13 1.68532E-13
 -1      1756 3.96722E+01 5.51341E+00 1.14416E+00-6.16435E+00-6.60774E-13 3.64708E-13
 -1      1757 3.10283E+01 3.30450E+00 6.50597E-01-7.52442E+00-7.45237E-13 6.55254E-13
 -1      1758 2.13708E+01 1.62983E-01 8.73238E-02-7.35852E+00-7.38631E-13 8.26006E-13
 -1      1759 1.24342E+01-3.78219E+00-4.57928E-01-6.10388E+00-6.92224E-13 8.35831E-13
 -1      1760 5.12865E+00-7.53563E+00-9.05015E-01-4.31551E+00-5.26024E-13 6.54636E-13
 -1      1761 3.47564E-01-1.01074E+01-1.19150E+00-2.20123E+00-2.48412E-13 7.50844E-13
 -1      1762 2.52038E+01 1.98521E+00-2.59739E-02-2.25245E+00-2.01651E-13 5.28882E-13
 -1      1763 2.07523E+01 3.69641E+00-4.06221E-02-1.13228E+00-1.79152E-13-3.87027E-13
 -1      1764 2.13997E+01 3.55859E+00-3.66207E-02-1.47504E+00-2.27821E-13-3.27238E-13
 -1      1765 2.20833E+01 3.15188E+00-5.05092E-02-1.69914E+00-2.41532E-13-2.25986E-13
 -1      1766 2.26612E+01 2.77781E+00-1.32460E-01-2.04581E+00-2.77209E-13-9.33559E-14
 -1      1767 2.20202E+01 2.61512E+00-5.23943E-03-1.28705E+00-2.53262E-13-2.41248E-13
 -1      1768 1.85168E+01 4.25716E+00-2.38465E-02-2.31024E-01-4.43118E-14-4.61593E-13
 -1      1769 1.90326E+01 4.22827E+00-7.65568E-03-4.20296E-01-7.92526E-14-4.63570E-13
 -1      1770 1.75973E+01 4.45768E+00-1.92661E-02 2.00846E-02 1.85303E-14-4.70896E-13
 -1      1771 1.80394E+01 4.43461E+00-2.19329E-03-9.81494E-02-8.91561E-15-4.74541E-13
 -1      1772 1.84120E+01 3.95836E+00-1.00842E-02-7.33617E-02-3.23899E-14-4.48667E-13
 -1      1773 1.69109E+01 4.62448E+00-1.47539E-02 1.26861E-01 8.38721E-14-4.36482E-13
 -1      1774 1.72230E+01 4.60544E+00-8.95065E-04 7.33129E-02 5.48520E-14-4.54084E-13
 -1      1775 1.74841E+01 4.24525E+00-6.74660E-03 1.22556E-01 4.43330E-14-4.42099E-13
 -1      1776 1.65541E+01 4.73263E+00-9.77653E-03 1.23764E-01 1.45175E-13-4.21854E-13
 -1      1777 1.66883E+01 4.72086E+00-2.98410E-03 1.12766E-01 1.14275E-13-4.28690E-13
 -1      1778 1.68292E+01 4.46286E+00-3.01977E-03 1.69982E-01 1.06782E-13-4.15553E-13
 -1      1779 1.65927E+01 4.75663E+00-4.99635E-03 7.68149E-02 1.87256E-13-3.96721E-13
 -1      1780 1.65219E+01 4.75535E+00-7.46952E-03 7.51725E-02 1.70341E-13-4.16151E-13
 -1      1781 1.65477E+01 4.57012E+00-8.14155E-04 1.12291E-01 1.71717E-13-4.06624E-13
 -1      1782 1.70321E+01 4.68795E+00-2.05425E-03 6.71915E-02 2.27219E-13-3.69314E-13
 -1      1783 1.67620E+01 4.69816E+00-1.29514E-02 3.84392E-02 2.08139E-13-3.87489E-13
 -1      1784 1.66961E+01 4.53891E+00-1.45647E-03 2.91282E-02 2.08193E-13-3.81438E-13
 -1      1785 1.78010E+01 4.54187E+00-2.14963E-03 1.64064E-01 2.67651E-13-2.98296E-13
 -1      1786 1.73751E+01 4.56121E+00-1.85081E-02 8.00393E-02 2.43590E-13-3.44549E-13
 -1      1787 1.72570E+01 4.37448E+00-4.30021E-03 9.24282E-03 2.51594E-13-3.47707E-13
 -1      1788 1.88392E+01 4.32775E+00-6.42488E-03 4.14840E-01 3.12432E-13-1.94254E-13
 -1      1789 1.82875E+01 4.36098E+00-2.45244E-02 2.53076E-01 2.87576E-13-2.52626E-13
 -1      1790 1.81588E+01 4.10335E+00-8.20824E-03 1.17552E-01 2.95604E-13-2.63328E-13
 -1      1791 2.00582E+01 4.03365E+00-1.70742E-02 8.31795E-01 3.38108E-13-3.61690E-14
 -1      1792 1.94228E+01 4.09849E+00-3.24332E-02 5.83525E-01 3.20466E-13-1.27034E-13
 -1      1793 1.93183E+01 3.74501E+00-1.04354E-02 3.80014E-01 3.26661E-13-1.46152E-13
 -1      1794 2.14328E+01 3.56858E+00-3.89644E-02 1.39236E+00 3.51639E-13 2.08358E-13
 -1      1795 2.07168E+01 3.72535E+00-4.52340E-02 1.05885E+00 3.39321E-13 6.70332E-14
 -1      1796 2.06543E+01 3.28101E+00-7.76316E-03 7.70561E-01 3.49914E-13 2.88745E-14
 -1      1797 2.30964E+01 2.66677E+00-5.23697E-02 1.95098E+00 3.11046E-13 6.01880E-13
 -1      1798 2.22080E+01 3.09665E+00-5.37943E-02 1.61573E+00 3.33204E-13 3.73430E-13
 -1      1799 2.21497E+01 2.58919E+00 3.30242E-03 1.18163E+00 3.45777E-13 2.90708E-13
 -1      1800 2.43330E+01 1.15927E+00-1.21171E-01 1.62288E+00 2.41071E-13 1.02859E-12
 -1      1801 2.36725E+01 2.22981E+00-2.13829E-03 1.92180E+00 2.78038E-13 7.50927E-13
 -1      1802 2.32980E+01 1.62868E+00-1.67494E-02 1.22950E+00 3.11931E-13 5.92103E-13
 -1      1803 2.38020E+01 7.31303E-01-5.33967E-02 8.17421E-01 2.60125E-13 9.41421E-13
 -1      1804 2.41181E+01 2.42593E+00 8.27371E-02-2.38591E+00-2.58628E-13 1.44260E-13
 -1      1805 2.34005E+01 2.53351E-01-5.90777E-03 1.06793E-02 1.94098E-13 8.02896E-13
 -1      1806 2.36796E+01 3.96390E-01-1.08780E-02 3.67348E-01 2.12996E-13 8.74750E-13
 -1      1807 2.35117E+01 7.76329E-01-2.95774E-03 6.09854E-01 2.52614E-13 6.59386E-13
 -1      1808 2.37874E+01 1.67742E+00 7.72018E-02-1.61229E+00-2.68827E-13 5.78496E-14
 -1      1809 2.32534E+01 4.12753E-01 3.28165E-02-3.01282E-01-2.19623E-13 5.34356E-14
 -1      1810 2.30125E+01 2.45521E-01 3.53712E-03-6.75475E-02-1.81587E-13 7.92248E-15
 -1      1811 2.29670E+01 1.28078E-01 2.58777E-02 9.90123E-02-1.56634E-13 1.73403E-14
 -1      1812 2.29181E+01 9.10232E-03 1.32092E-04 1.48731E-01-1.15920E-13-3.15433E-14
 -1      1813 2.28176E+01 3.01604E-01-8.56826E-03-5.80529E-02-1.98863E-13-5.03191E-14
 -1      1814 2.29494E+01-7.87310E-02 1.46966E-02 1.53361E-01-9.24415E-14-3.84866E-14
 -1      1815 2.29309E+01-1.74782E-01-9.20925E-03 8.46002E-02-8.25310E-14-7.88302E-14
 -1      1816 2.27944E+01-4.85818E-02-6.58526E-03 1.54497E-01-1.40645E-13-5.54530E-14
 -1      1817 2.29972E+01-2.48983E-01 6.39086E-03-4.50052E-02-7.88050E-14-6.79751E-14
 -1      1818 2.29227E+01-3.23600E-01-1.53845E-02-2.06943E-01-7.09545E-14-6.23334E-14
 -1      1819 2.28890E+01-3.17223E-01-2.90860E-03 3.23914E-02-9.73280E-14-9.87379E-14
 -1      1820 2.29678E+01-3.68859E-01 5.72072E-04-4.40669E-01-6.88997E-14-2.55500E-14
 -1      1821 2.27825E+01-3.92769E-01-1.46472E-02-6.56569E-01-5.69458E-14-4.17912E-14
 -1      1822 2.29969E+01-5.12529E-01 2.40327E-03-3.58274E-01-7.61999E-14-4.27989E-14
 -1      1823 2.27443E+01-3.74613E-01-4.57408E-03-9.27682E-01-7.10838E-14-3.90590E-14
 -1      1824 2.24389E+01-3.07520E-01-5.22360E-03-1.12064E+00-4.33221E-14-5.30210E-14
 -1      1825 2.30052E+01-5.57135E-01 8.58497E-03-9.16105E-01-7.59310E-14-1.59187E-14
 -1      1826 2.22746E+01-1.95610E-01-8.90138E-03-1.30855E+00-3.08841E-14-4.97128E-14
 -1      1827 2.19010E+01-2.43570E-02 1.00748E-02-1.37039E+00-3.41604E-14-4.18138E-14
 -1      1828 2.28127E+01-3.50725E-01 1.15933E-02-1.43913E+00-5.06019E-14-1.69721E-14
 -1      1829 2.16349E+01 1.66471E-01-8.60027E-03-1.33233E+00-5.79844E-14-7.22512E-14
 -1      1830 2.13011E+01 3.82648E-01 2.19587E-02-1.17559E+00-5.74480E-14-8.76634E-14
 -1      1831 2.23970E+01 1.24083E-01 5.44459E-03-1.63033E+00-6.32580E-14-7.98723E-14
 -1      1832 2.10575E+01 5.62468E-01-2.38393E-04-8.44664E-01-1.40206E-13-1.47415E-13
 -1      1833 2.08880E+01 7.00692E-01 2.10900E-02-4.84493E-01-1.97323E-13-2.35664E-13
 -1      1834 2.18974E+01 6.97307E-01-1.00398E-02-1.23459E+00-1.51890E-13-1.75805E-13
 -1      1835 2.08237E+01 7.54159E-01 1.34617E-02 3.61727E-02-1.88146E-13-2.66369E-13
 -1      1836 2.08928E+01 7.19468E-01 8.63150E-03 4.56425E-01-1.33445E-13-3.53630E-13
 -1      1837 2.15928E+01 1.05350E+00-2.34299E-02-2.76658E-01-1.97915E-13-2.26476E-13
 -1      1838 2.10604E+01 6.07019E-01 2.25467E-02 9.28574E-01-9.07364E-14-3.99852E-13
 -1      1839 2.13486E+01 4.23143E-01-4.09624E-03 1.22199E+00-5.54617E-14-4.10786E-13
 -1      1840 2.16964E+01 9.64238E-01-1.94982E-02 8.48765E-01-1.60476E-13-2.81346E-13
 -1      1841 2.16386E+01 2.22864E-01 1.81575E-02 1.44111E+00-2.86442E-14-4.50452E-13
 -1      1842 2.20424E+01 8.28846E-03-9.55327E-03 1.50688E+00-3.32144E-14-4.09544E-13
 -1      1843 2.21500E+01 4.85309E-01-2.21055E-03 1.61828E+00-4.81568E-14-2.96170E-13
 -1      1844 2.22912E+01-1.63461E-01 3.23191E-03 1.43582E+00-6.93217E-14-3.85435E-13
 -1      1845 2.26812E+01-3.03240E-01-8.54502E-03 1.30319E+00-9.07295E-14-3.24456E-13
 -1      1846 2.26786E+01-9.11655E-02 1.20338E-02 1.76061E+00-3.05572E-14-2.98760E-13
 -1      1847 2.27948E+01-3.84805E-01-1.18159E-02 1.04769E+00-1.00048E-13-3.44362E-13
 -1      1848 2.30735E+01-4.21723E-01-5.74744E-03 8.17884E-01-3.57128E-14-3.34945E-13
 -1      1849 2.30294E+01-4.91103E-01 1.37909E-02 1.37400E+00-8.21660E-14-2.85491E-13
 -1      1850 2.30507E+01-4.20369E-01-1.93491E-02 5.16273E-01 3.31332E-16-3.27864E-13
 -1      1851 2.31793E+01-3.84946E-01-3.14666E-03 2.85629E-01 9.06306E-15-3.22980E-13
 -1      1852 2.31163E+01-6.17974E-01 9.28768E-03 7.45618E-01-3.42565E-14-2.30783E-13
 -1      1853 2.30633E+01-3.39034E-01-1.90842E-02 3.13203E-02-1.09609E-14-3.64163E-13
 -1      1854 2.30522E+01-2.75067E-01-1.58134E-03-1.45909E-01 4.69676E-14-3.08712E-13
 -1      1855 2.29827E+01-5.40945E-01 4.30757E-03 1.31585E-01-7.67919E-15-2.32199E-13
 -1      1856 2.28883E+01-2.18817E-01-1.44458E-02-3.17238E-01 8.42252E-14-3.24376E-13
 -1      1857 2.27737E+01-1.56740E-01-7.24618E-04-4.26732E-01 7.97817E-14-2.53985E-13
 -1      1858 2.27121E+01-3.74907E-01 9.70281E-04-3.32422E-01 8.75658E-14-2.13754E-13
 -1      1859 2.25936E+01-1.08818E-01-8.68112E-03-5.17787E-01 2.29860E-14-1.77191E-13
 -1      1860 2.24174E+01-6.18181E-02-1.51421E-04-5.68354E-01-1.10517E-14-1.94732E-13
 -1      1861 2.23766E+01-2.05662E-01-8.19847E-04-6.15518E-01 6.11807E-14-1.79452E-13
 -1      1862 2.22398E+01-2.80893E-02-3.65446E-03-5.98042E-01-3.19316E-14-2.05455E-13
 -1      1863 2.20376E+01 1.95433E-03 3.23196E-04-6.06559E-01-8.93052E-15-2.16335E-13
 -1      1864 2.20241E+01-7.33991E-02-1.67647E-03-7.43733E-01-3.25603E-14-1.15214E-13
 -1      1865 2.18725E+01 2.24045E-02-3.55338E-05-5.96155E-01 1.85670E-14-1.76329E-13
 -1      1866 2.16700E+01 3.85919E-02 7.14735E-04-5.79004E-01-6.91412E-15-1.61404E-13
 -1      1867 2.16834E+01 1.37236E-02-2.05465E-03-7.61563E-01 3.15881E-14-5.84363E-14
 -1      1868 2.15225E+01 4.90318E-02 2.18827E-03-5.46126E-01 2.99123E-14-1.24224E-13
 -1      1869 2.13354E+01 5.55926E-02 9.94491E-04-5.15919E-01 1.33927E-13-1.04908E-13
 -1      1870 2.13707E+01 6.26166E-02-2.18811E-03-7.11434E-01 5.17460E-14-1.76389E-14
 -1      1871 2.12075E+01 5.93964E-02 3.30936E-03-4.73093E-01 1.40031E-13-9.93012E-14
 -1      1872 2.10439E+01 6.00126E-02 1.14996E-03-4.38293E-01 1.62222E-13-6.12638E-14
 -1      1873 2.10941E+01 8.42785E-02-2.18032E-03-6.26125E-01 1.66221E-13-3.62414E-14
 -1      1874 2.09359E+01 5.98510E-02 3.67119E-03-3.93504E-01 1.09631E-13 2.71956E-15
 -1      1875 2.07984E+01 5.72077E-02 1.19385E-03-3.59200E-01 6.36384E-14 2.11631E-14
 -1      1876 2.08566E+01 8.87236E-02-2.07903E-03-5.27965E-01 1.98825E-13-8.39036E-14
 -1      1877 2.07093E+01 5.49372E-02 3.56731E-03-3.17031E-01 3.36181E-14 4.41152E-14
 -1      1878 2.05974E+01 5.07976E-02 1.15290E-03-2.85922E-01 4.09811E-14 1.71446E-14
 -1      1879 2.06578E+01 8.34397E-02-1.91350E-03-4.30682E-01 1.10539E-13 1.82000E-14
 -1      1880 2.05254E+01 4.76036E-02 3.21333E-03-2.48650E-01 2.11597E-14 6.71226E-14
 -1      1881 2.04368E+01 4.30354E-02 1.05652E-03-2.21900E-01 1.77354E-14 8.50186E-14
 -1      1882 2.04952E+01 7.34373E-02-1.70773E-03-3.41799E-01 5.52695E-14 7.14528E-15
 -1      1883 2.03797E+01 3.96231E-02 2.75257E-03-1.90352E-01-2.63062E-14 7.36444E-14
 -1      1884 2.03112E+01 3.52219E-02 9.30221E-04-1.68205E-01-2.01897E-14 1.31195E-13
 -1      1885 2.03650E+01 6.18071E-02-1.48276E-03-2.64737E-01 3.39225E-15 9.95042E-14
 -1      1886 2.02668E+01 3.19792E-02 2.27257E-03-1.42357E-01 3.11490E-14 1.26240E-13
 -1      1887 2.02151E+01 2.80405E-02 7.93247E-04-1.24557E-01 1.30528E-13 1.36420E-13
 -1      1888 2.02627E+01 5.03125E-02-1.25592E-03-2.00397E-01 2.73450E-14 1.05507E-13
 -1      1889 2.01813E+01 2.51565E-02 1.82211E-03-1.03935E-01 1.75450E-13 1.18630E-13
 -1      1890 2.01431E+01 2.17954E-02 6.58664E-04-8.99801E-02 8.44346E-14 1.31882E-13
 -1      1891 2.01840E+01 3.98622E-02-1.04006E-03-1.48238E-01 1.30804E-13 5.22737E-14
 -1      1892 2.01179E+01 1.93401E-02 1.42477E-03-7.39057E-02-7.86929E-14 1.29692E-13
 -1      1893 2.00904E+01 1.65688E-02 5.34427E-04-6.32109E-02-1.91974E-14 9.57161E-14
 -1      1894 2.01245E+01 3.08430E-02-8.43525E-04-1.06992E-01 3.43130E-14 2.62270E-14
 -1      1895 2.00719E+01 1.45450E-02 1.08881E-03-5.09503E-02-6.00419E-14 4.19672E-15
 -1      1896 2.00527E+01 1.23215E-02 4.24686E-04-4.29314E-02-1.80135E-13-4.94697E-14
 -1      1897 2.00806E+01 2.33395E-02-6.70820E-04-7.50965E-02-8.10953E-14-7.09953E-14
 -1      1898 2.00396E+01 1.06962E-02 8.13620E-04-3.37789E-02-1.88892E-13 2.33635E-14
 -1      1899 2.00266E+01 8.95351E-03 3.30964E-04-2.79004E-02-1.85467E-13 2.63670E-14
 -1      1900 2.00489E+01 1.72726E-02-5.23447E-04-5.09541E-02-1.55514E-13-1.37530E-13
 -1      1901 2.00175E+01 7.67733E-03 5.94001E-04-2.12203E-02-2.35868E-13 1.66649E-13
 -1      1902 2.00091E+01 6.34074E-03 2.53089E-04-1.70155E-02-2.31305E-14 1.03141E-13
 -1      1903 2.00266E+01 1.24838E-02-4.00820E-04-3.30717E-02-1.40604E-13 1.80363E-14
 -1      1904 2.00030E+01 5.35953E-03 4.22681E-04-1.22599E-02 1.05374E-13-3.10068E-14
 -1      1905 1.99979E+01 4.35595E-03 1.89891E-04-9.33645E-03 7.61317E-14-2.03371E-13
 -1      1906 2.00115E+01 8.78540E-03-3.01040E-04-2.01291E-02-3.66731E-14 1.33454E-13
 -1      1907 1.99941E+01 3.61698E-03 2.91861E-04-6.04806E-03 1.96682E-13-2.35004E-13
 -1      1908 1.99914E+01 2.87995E-03 1.39685E-04-4.08517E-03 2.52874E-13-1.56298E-13
 -1      1909 2.00016E+01 5.98862E-03-2.21496E-04-1.10033E-02 1.47916E-13-2.43321E-14
 -1      1910 1.99891E+01 2.33526E-03 1.94062E-04-1.89229E-03 1.12881E-13-2.07572E-13
 -1      1911 1.99880E+01 1.80704E-03 1.00590E-04-6.33701E-04 1.31061E-14-2.09425E-13
 -1      1912 1.99955E+01 3.91881E-03-1.59304E-04-4.76607E-03 1.75835E-13-1.81304E-13
 -1      1913 1.99869E+01 1.41486E-03 1.22552E-04 7.59227E-04 3.25657E-15-1.89602E-13
 -1      1914 1.99868E+01 1.04686E-03 7.07289E-05 1.51379E-03-3.28538E-14-1.60456E-13
 -1      1915 1.99922E+01 2.42234E-03-1.11594E-04-6.69237E-04 2.63512E-14-2.82788E-13
 -1      1916 1.99864E+01 7.71950E-04 7.15239E-05 2.33684E-03-1.18070E-13-1.36430E-13
 -1      1917 1.99870E+01 5.24294E-04 4.83444E-05 2.74075E-03-2.31640E-13-1.14895E-13
 -1      1918 1.99907E+01 1.36869E-03-7.56883E-05 1.87758E-03-1.34385E-13-3.41628E-13
 -1      1919 1.99871E+01 3.37600E-04 3.61185E-05 3.16926E-03-2.87631E-13 6.62868E-14
 -1      1920 1.99880E+01 1.78154E-04 3.18492E-05 3.33734E-03-3.32761E-13 7.01900E-14
 -1      1921 1.99905E+01 6.49833E-04-4.91945E-05 3.33044E-03-1.68831E-13-7.96161E-14
 -1      1922 1.99884E+01 5.61249E-05 1.23712E-05 3.50189E-03-3.65040E-13 1.32121E-13
 -1      1923 1.99895E+01-4.06582E-05 1.98403E-05 3.51790E-03-1.65705E-13 2.55303E-14
 -1      1924 1.99910E+01 1.78102E-04-3.00476E-05 4.03404E-03-3.15335E-13 2.31570E-13
 -1      1925 1.99900E+01-1.16922E-04-2.88588E-06 3.51295E-03 4.98853E-14 8.45153E-14
 -1      1926 1.99912E+01-1.71263E-04 1.10886E-05 3.43582E-03 2.04355E-13 1.56844E-13
 -1      1927 1.99920E+01-1.16715E-04-1.65106E-05 4.24240E-03-3.29237E-14 3.84262E-13
 -1      1928 1.99918E+01-2.16946E-04-1.21282E-05 3.32694E-03 3.69110E-13-4.92810E-14
 -1      1929 1.99929E+01-2.45023E-04 4.50832E-06 3.19573E-03 3.67625E-13 7.73032E-14
 -1      1930 1.99932E+01-2.90582E-04-7.16154E-06 4.13664E-03 2.05097E-13 4.75415E-13
 -1      1931 1.99935E+01-2.72570E-04-1.72351E-05 3.02533E-03 2.94039E-13 1.12390E-13
 -1      1932 1.99945E+01-2.87595E-04-7.72577E-07 2.86294E-03 3.96986E-13 3.40654E-13
 -1      1933 1.99944E+01-3.88576E-04-8.82548E-07 3.83947E-03 3.75302E-13 2.49313E-13
 -1      1934 1.99951E+01-3.07332E-04-1.94682E-05 2.65469E-03 2.74720E-13 2.68718E-13
 -1      1935 1.99960E+01-3.20234E-04-5.34763E-06 2.47074E-03 3.22948E-13 3.16731E-13
 -1      1936 1.99957E+01-4.47538E-04 3.27333E-06 3.42651E-03 3.44025E-13 1.69037E-13
 -1      1937 1.99965E+01-3.40857E-04-1.95816E-05 2.23391E-03 8.99818E-14 2.82277E-13
 -1      1938 1.99973E+01-3.61282E-04-9.32076E-06 2.02710E-03-1.57022E-13 1.91201E-13
 -1      1939 1.99968E+01-4.98404E-04 5.72828E-06 2.93648E-03 1.32092E-13 5.01620E-14
 -1      1940 1.99977E+01-3.91018E-04-1.77770E-05 1.76037E-03-1.75958E-13 1.99735E-13
 -1      1941 1.99983E+01-4.22930E-04-1.21773E-05 1.52040E-03-1.12574E-13 9.29065E-14
 -1      1942 1.99978E+01-5.65558E-04 6.68241E-06 2.38037E-03-2.56042E-13 2.56449E-13
 -1      1943 1.99986E+01-4.44910E-04-1.47216E-05 1.23495E-03-4.29635E-14 9.93672E-14
 -1      1944 1.99990E+01-4.78331E-04-1.52456E-05 9.66106E-04-8.96986E-15 8.84998E-14
 -1      1945 1.99992E+01-6.73741E-04 6.99996E-06 1.13529E-03-2.24887E-13 2.91732E-13
 -1      1946 1.99986E+01-6.39370E-04 1.05786E-05 1.77051E-03-8.37845E-14 3.60711E-13
 -1      1947 2.33642E+01 6.86899E-02 4.51991E-03-2.96839E-01 1.60471E-13 6.85370E-13
 -1      1948 2.33879E+01 1.47069E-01 1.50441E-02-1.61110E-01 1.65458E-13 7.64087E-13
 -1      1949 2.32643E+01 2.63730E-01-6.05238E-03-8.93313E-02 2.04746E-13 5.81205E-13
 -1      1950 2.35032E+01-7.06086E-02-1.58912E-03-3.23873E-01 1.02630E-13 6.12243E-13
 -1      1951 2.34304E+01-8.97745E-03 9.89041E-03-3.17073E-01 1.23533E-13 6.61785E-13
 -1      1952 2.32767E+01 1.37753E-02-4.65782E-03-3.48043E-01 1.54560E-13 5.35716E-13
 -1      1953 2.36484E+01-2.04549E-01-7.31975E-03-1.09242E-01 6.18793E-14 5.81017E-13
 -1      1954 2.35984E+01-1.49407E-01 1.78061E-03-2.17136E-01 5.13253E-14 5.97610E-13
 -1      1955 2.34341E+01-1.87155E-01-2.42683E-03-2.83642E-01 8.07245E-14 4.44691E-13
 -1      1956 2.36386E+01-3.13657E-01-8.15839E-03 3.25414E-01-3.69323E-15 5.69387E-13
 -1      1957 2.37042E+01-2.79096E-01-3.74340E-03 1.10065E-01 3.72063E-14 5.88397E-13
 -1      1958 2.35912E+01-3.67060E-01 2.36397E-03 6.67373E-02 4.39978E-14 4.28360E-13
 -1      1959 2.33436E+01-3.32636E-01-2.98696E-03 8.90494E-01 4.24209E-14 5.38519E-13
 -1      1960 2.35846E+01-3.50205E-01-6.23242E-03 6.10948E-01-1.32880E-14 5.42085E-13
 -1      1961 2.36062E+01-4.70732E-01 9.19581E-03 6.45278E-01 2.97592E-15 4.11909E-13
 -1      1962 2.27138E+01-1.83741E-01 4.50445E-03 1.36752E+00 7.38212E-14 4.95284E-13
 -1      1963 2.31295E+01-2.80771E-01-6.34712E-03 1.13229E+00 6.25923E-14 5.35254E-13
 -1      1964 2.33578E+01-3.93563E-01 1.41051E-02 1.28489E+00 5.61088E-14 3.78902E-13
 -1      1965 2.18604E+01 1.38628E-01 5.90102E-03 1.44513E+00 1.34041E-13 4.68889E-13
 -1      1966 2.23629E+01-2.00221E-02-4.33555E-03 1.40558E+00 1.00055E-13 5.09072E-13
 -1      1967 2.28130E+01-6.65678E-02 9.38972E-03 1.67348E+00 1.12323E-13 3.91060E-13
 -1      1968 2.10987E+01 4.90206E-01-3.01359E-03 9.12608E-01 4.00287E-14 4.78804E-13
 -1      1969 2.15160E+01 3.55050E-01 9.35595E-04 1.16327E+00 7.60260E-14 4.53164E-13
 -1      1970 2.21249E+01 4.24567E-01-6.75584E-03 1.46845E+00 1.08028E-13 4.16545E-13
 -1      1971 2.08305E+01 6.34171E-01-1.42954E-02-9.37534E-02 5.71036E-14 4.33618E-13
 -1      1972 2.09726E+01 6.23528E-01 8.93065E-03 3.70791E-01 9.89382E-14 4.48492E-13
 -1      1973 2.16372E+01 8.15907E-01-2.05592E-02 5.74000E-01 8.05571E-14 3.86600E-13
 -1      1974 2.12507E+01 4.55161E-01-1.57029E-02-1.08316E+00 1.26218E-14 3.26149E-13
 -1      1975 2.10290E+01 5.84325E-01 1.36212E-02-6.37432E-01 2.69125E-14 3.62774E-13
 -1      1976 2.16672E+01 8.36720E-01-1.73866E-02-6.49255E-01 7.58837E-14 2.61630E-13
 -1      1977 2.21540E+01 9.36101E-02-5.31397E-03-1.57587E+00 1.96119E-13 1.46258E-13
 -1      1978 2.16562E+01 2.69714E-01 9.50959E-03-1.35592E+00 1.04687E-13 2.41463E-13
 -1      1979 2.22112E+01 4.63854E-01-3.48678E-03-1.57665E+00 1.39623E-13 1.03256E-13
 -1      1980 2.31100E+01-2.14394E-01 7.48822E-03-1.45366E+00 2.20826E-13 1.75537E-14
 -1      1981 2.25405E+01-9.50554E-02-5.21610E-04-1.49965E+00 1.79057E-13 9.57706E-14
 -1      1982 2.29508E+01-4.31635E-02 6.57901E-03-1.81509E+00 2.26161E-13 4.20271E-14
 -1      1983 2.37740E+01-3.45347E-01 1.31606E-02-9.37728E-01 6.90012E-14-4.28303E-15
 -1      1984 2.33247E+01-3.16512E-01-9.58811E-03-1.15002E+00 1.28291E-13 3.99333E-15
 -1      1985 2.35355E+01-4.03769E-01 5.53938E-03-1.42945E+00 1.82049E-13-8.68723E-14
 -1      1986 2.40288E+01-3.21928E-01 1.14121E-02-3.34735E-01-5.26142E-15 3.56199E-14
 -1      1987 2.37944E+01-3.56221E-01-1.36449E-02-5.84491E-01 6.47711E-14 9.91885E-14
 -1      1988 2.37978E+01-5.11602E-01 1.33657E-04-7.52028E-01 3.40023E-14-4.36825E-14
 -1      1989 2.39276E+01-2.26016E-01 6.41768E-03 1.53908E-01 1.27532E-13-4.16247E-14
 -1      1990 2.39066E+01-2.81966E-01-1.28942E-02-5.03120E-02 5.37383E-14 1.30924E-14
 -1      1991 2.37488E+01-4.33002E-01-3.36354E-03-9.34011E-02 1.26729E-13 6.76659E-14
 -1      1992 2.35872E+01-1.22780E-01 1.82270E-03 4.61639E-01 1.18431E-13 7.68934E-14
 -1      1993 2.37256E+01-1.73460E-01-9.55140E-03 3.30942E-01 1.60112E-13 6.74721E-15
 -1      1994 2.34776E+01-2.82105E-01-3.91401E-03 3.87356E-01 1.46721E-13-1.56012E-14
 -1      1995 2.31218E+01-4.28092E-02-9.88845E-04 6.05680E-01-1.29212E-13-5.88149E-14
 -1      1996 2.33534E+01-7.82434E-02-5.57456E-03 5.42229E-01-5.83865E-15 1.14882E-14
 -1      1997 2.30796E+01-1.38342E-01-2.92190E-03 6.61714E-01 3.73000E-14 4.71541E-14
 -1      1998 2.26173E+01 8.05669E-03-2.14916E-03 6.33664E-01-9.75333E-14-1.51979E-14
 -1      1999 2.28866E+01-1.22917E-02-2.12360E-03 6.18461E-01-1.65782E-13-9.11489E-14
 -1      2000 2.26303E+01-3.38990E-02-1.70330E-03 7.68063E-01-1.23311E-13-8.88807E-14
 -1      2001 2.21291E+01 3.50932E-02-2.27464E-03 5.92697E-01-1.38063E-13 2.95454E-14
 -1      2002 2.23978E+01 2.59462E-02 3.57023E-04 6.06638E-01-1.10679E-13-2.65118E-14
 -1      2003 2.21811E+01 2.90034E-02-8.50654E-04 7.62315E-01-1.11813E-13-5.40377E-14
 -1      2004 2.16882E+01 4.60115E-02-1.92116E-03 5.18120E-01 8.97910E-14 3.02503E-14
 -1      2005 2.19342E+01 4.39362E-02 1.86690E-03 5.46689E-01-1.10298E-14 3.15212E-14
 -1      2006 2.17634E+01 6.00588E-02-4.26638E-04 6.93440E-01-4.53739E-14 2.18803E-14
 -1      2007 2.13083E+01 4.73587E-02-1.43126E-03 4.32687E-01-5.33412E-14-1.28000E-14
 -1      2008 2.15211E+01 4.91849E-02 2.60284E-03 4.66420E-01 3.98969E-14 9.18916E-15
 -1      2009 2.13941E+01 7.04930E-02-2.96578E-04 5.96367E-01 4.67783E-14 1.61416E-14
 -1      2010 2.09923E+01 4.36971E-02-9.71185E-04 3.49381E-01-1.40279E-13 6.43260E-14
 -1      2011 2.11692E+01 4.73380E-02 2.80669E-03 3.82790E-01-1.57544E-13-3.40131E-14
 -1      2012 2.10792E+01 6.91851E-02-3.12035E-04 4.92934E-01-9.42876E-14-2.36981E-14
 -1      2013 2.07367E+01 3.78660E-02-6.00900E-04 2.74648E-01 4.14417E-14 1.01731E-13
 -1      2014 2.08792E+01 4.20817E-02 2.68846E-03 3.04937E-01-6.90628E-14 9.47217E-14
 -1      2015 2.08187E+01 6.20821E-02-3.71829E-04 3.95270E-01-1.10662E-13 3.79792E-14
 -1      2016 2.05346E+01 3.14871E-02-3.28187E-04 2.10970E-01 2.07797E-13-4.20233E-15
 -1      2017 2.06466E+01 3.56063E-02 2.40246E-03 2.36995E-01 1.88819E-13 5.55547E-14
 -1      2018 2.06084E+01 5.27695E-02-4.23417E-04 3.09141E-01 1.94500E-13-6.26576E-14
 -1      2019 2.03783E+01 2.54079E-02-1.39956E-04 1.58611E-01 1.67299E-13-8.48370E-14
 -1      2020 2.04644E+01 2.91087E-02 2.04991E-03 1.80165E-01 1.82200E-13-8.23058E-14
 -1      2021 2.04422E+01 4.32267E-02-4.47534E-04 2.36486E-01 2.19064E-13-4.76034E-14
 -1      2022 2.02597E+01 2.00165E-02-1.76263E-05 1.16709E-01-2.57567E-14-1.81228E-13
 -1      2023 2.03245E+01 2.31781E-02 1.69122E-03 1.34074E-01 3.80147E-14-9.01453E-14
 -1      2024 2.03136E+01 3.44392E-02-4.42915E-04 1.77132E-01 4.86543E-14-1.51298E-13
 -1      2025 2.01715E+01 1.54442E-02 5.64058E-05 8.39203E-02 1.13023E-13-1.41619E-13
 -1      2026 2.02193E+01 1.80536E-02 1.35885E-03 9.75960E-02 5.66994E-14-8.99542E-14
 -1      2027 2.02158E+01 2.68179E-02-4.15878E-04 1.29849E-01 5.07484E-14-1.18885E-13
 -1      2028 2.01074E+01 1.16856E-02 9.66205E-05 5.87739E-02 2.69771E-14-6.58079E-14
 -1      2029 2.01418E+01 1.37842E-02 1.06768E-03 6.93300E-02 3.30024E-14-1.03827E-13
 -1      2030 2.01431E+01 2.04600E-02-3.74536E-04 9.29847E-02 7.62646E-14-2.67836E-14
 -1      2031 2.00619E+01 8.66982E-03 1.14115E-04 3.98593E-02-1.96751E-13-1.80766E-13
 -1      2032 2.00860E+01 1.03217E-02 8.22113E-04 4.78530E-02-1.52107E-13-1.42273E-13
 -1      2033 2.00901E+01 1.53037E-02-3.26142E-04 6.48034E-02-7.53005E-14-5.36964E-14
 -1      2034 2.00305E+01 6.29910E-03 1.17029E-04 2.59126E-02 2.02532E-15-2.40428E-13
 -1      2035 2.00469E+01 7.57451E-03 6.20831E-04 3.18497E-02-7.87853E-14-1.86616E-13
 -1      2036 2.00524E+01 1.12151E-02-2.76192E-04 4.36724E-02-7.64494E-14-1.13888E-13
 -1      2037 2.00097E+01 4.47007E-03 1.11147E-04 1.58488E-02 8.79340E-14 2.49559E-14
 -1      2038 2.00204E+01 5.43667E-03 4.59613E-04 2.01682E-02-3.25946E-14-1.63326E-13
 -1      2039 2.00263E+01 8.03652E-03-2.28385E-04 2.81430E-02-4.33578E-14-1.32117E-13
 -1      2040 1.99965E+01 3.08462E-03 1.00462E-04 8.76441E-03-9.55033E-14 1.37164E-13
 -1      2041 2.00031E+01 3.80336E-03 3.33067E-04 1.18344E-02 8.90657E-14 1.85183E-13
 -1      2042 2.00089E+01 5.61090E-03-1.84925E-04 1.69790E-02-5.34852E-14 1.15533E-13
 -1      2043 1.99888E+01 2.05495E-03 8.76460E-05 3.92404E-03 5.62320E-14 1.18975E-13
 -1      2044 1.99925E+01 2.57852E-03 2.35588E-04 6.04687E-03-5.20860E-14 8.81256E-14
 -1      2045 1.99979E+01 3.79419E-03-1.46894E-04 9.15476E-03 7.32726E-15 2.58731E-13
 -1      2046 1.99849E+01 1.30542E-03 7.44158E-05 7.41330E-04 1.14434E-13 1.45442E-13
 -1      2047 1.99866E+01 1.67801E-03 1.61884E-04 2.15957E-03 1.66286E-13 1.48880E-13
 -1      2048 1.99914E+01 2.46035E-03-1.14600E-04 3.83843E-03 1.07188E-13 3.67863E-13
 -1      2049 1.99836E+01 7.72566E-04 6.18130E-05-1.24296E-03-2.47648E-13-6.49234E-14
 -1      2050 1.99839E+01 1.03045E-03 1.07219E-04-3.38041E-04-1.00539E-13 4.03171E-14
 -1      2051 1.99881E+01 1.50261E-03-8.78580E-05 3.68479E-04 2.96026E-14 3.11934E-13
 -1      2052 1.99839E+01 4.04283E-04 5.04056E-05-2.38204E-03-9.89811E-14 1.32891E-13
 -1      2053 1.99834E+01 5.76662E-04 6.75081E-05-1.84236E-03-2.24184E-13-3.71526E-14
 -1      2054 1.99869E+01 8.32614E-04-6.61908E-05-1.77164E-03-2.09319E-13 1.26990E-13
 -1      2055 1.99852E+01 1.58489E-04 4.04357E-05-2.94252E-03-2.16903E-13 3.76609E-13
 -1      2056 1.99843E+01 2.68517E-04 3.93216E-05-2.65556E-03-1.67453E-13 1.81213E-13
 -1      2057 1.99871E+01 3.78633E-04-4.89790E-05-2.97798E-03-2.46235E-13 2.20421E-13
 -1      2058 1.99871E+01 1.62489E-06 3.19215E-05-3.12127E-03 3.34228E-14 4.87823E-13
 -1      2059 1.99859E+01 6.74120E-05 1.98341E-05-3.00333E-03 3.89377E-14 4.87574E-13
 -1      2060 1.99881E+01 8.32846E-05-3.55542E-05-3.54824E-03-1.02869E-13 3.84828E-13
 -1      2061 1.99891E+01-9.28927E-05 2.47245E-05-3.05967E-03-2.93903E-13 8.18980E-14
 -1      2062 1.99878E+01-5.72986E-05 6.75368E-06-3.05021E-03-1.52346E-13 2.77682E-13
 -1      2063 1.99896E+01-9.88524E-05-2.52602E-05-3.70101E-03-2.09471E-14 4.27608E-13
 -1      2064 1.99912E+01-1.46202E-04 1.85890E-05-2.85510E-03 6.88548E-14 3.70882E-13
 -1      2065 1.99900E+01-1.29896E-04-1.75707E-06-2.91213E-03-2.00089E-13 1.78850E-13
 -1      2066 1.99912E+01-2.03611E-04-1.74902E-05-3.59183E-03-2.46702E-13 3.33997E-13
 -1      2067 1.99932E+01-1.75470E-04 1.32243E-05-2.56973E-03 3.73212E-13 3.15306E-13
 -1      2068 1.99920E+01-1.69893E-04-7.16106E-06-2.66638E-03 2.72757E-13 5.11681E-13
 -1      2069 1.99929E+01-2.59561E-04-1.17068E-05-3.32603E-03 2.30859E-13 4.90608E-13
 -1      2070 1.99950E+01-1.95085E-04 8.38302E-06-2.23723E-03 1.97450E-13 2.49378E-13
 -1      2071 1.99939E+01-1.93257E-04-1.04953E-05-2.35911E-03 2.82471E-13 2.93176E-13
 -1      2072 1.99945E+01-2.89863E-04-7.34337E-06-2.96859E-03 3.16026E-13 5.56910E-13
 -1      2073 1.99965E+01-2.18079E-04 4.15624E-06-1.86710E-03 2.58188E-13 7.03492E-14
 -1      2074 1.99956E+01-2.14097E-04-1.24066E-05-2.01108E-03 1.97582E-13 1.89462E-13
 -1      2075 1.99960E+01-3.14971E-04-4.01320E-06-2.55216E-03 3.16638E-13 3.83036E-13
 -1      2076 1.99978E+01-2.54455E-04 1.10628E-06-1.44959E-03 1.49352E-14 9.89924E-15
 -1      2077 1.99971E+01-2.44019E-04-1.28907E-05-1.62174E-03 2.21021E-13 4.40300E-14
 -1      2078 1.99973E+01-3.49996E-04-4.76363E-07-2.08204E-03 2.11091E-13 2.23388E-13
 -1      2079 1.99988E+01-3.10285E-04-4.15137E-06-9.66406E-04-1.45237E-15 9.31414E-15
 -1      2080 1.99983E+01-2.88523E-04-1.08605E-05-1.17826E-03 5.22389E-14 8.63787E-14
 -1      2081 1.99983E+01-4.08592E-04 2.11442E-06-1.54920E-03 1.13891E-13 3.13739E-13
 -1      2082 1.99994E+01-3.55492E-04-9.94163E-06-5.59525E-04-1.30942E-13 1.46254E-13
 -1      2083 1.99990E+01-3.45536E-04-8.30236E-06-7.99891E-04-8.18976E-14 5.54393E-15
 -1      2084 1.99990E+01-4.79731E-04 4.28848E-06-1.07848E-03-3.48524E-14 1.34710E-13
 -1      2085 1.99994E+01-5.35188E-04 1.09163E-06-7.02926E-04-1.51544E-13 2.66845E-13
 -1      2086 1.99998E+01-2.94503E-03 5.49165E-06-1.60437E-03 2.32214E-13 3.98274E-13
 -1      2087 1.99997E+01-2.43256E-03-6.47963E-06-1.59004E-03 1.40842E-13 3.42222E-13
 -1      2088 1.99996E+01-2.00178E-03 1.48457E-06-1.51413E-03 1.39334E-13 2.78377E-14
 -1      2089 1.99995E+01-1.52761E-03-1.01039E-05-1.38116E-03 1.37326E-13-6.11968E-14
 -1      2090 1.99996E+01-2.11446E-03-9.27019E-07-1.96329E-03 1.44119E-13 1.86419E-13
 -1      2091 1.99995E+01-1.21222E-03-1.68572E-06-1.18524E-03 9.25917E-14 1.76961E-13
 -1      2092 1.99994E+01-8.25011E-04-9.89494E-06-9.58761E-04-6.64538E-14 3.30018E-13
 -1      2093 1.99992E+01-8.06046E-04-7.16864E-06-1.16574E-03-8.69888E-14 2.50621E-13
 -1      2094 1.99994E+01-1.38944E-03 2.23664E-06-1.65291E-03 2.17285E-14 1.90605E-13
 -1      2095 2.00000E+01-3.82263E-03 9.91671E-06-1.46848E-03 1.20248E-14-2.02489E-13
 -1      2096 1.99999E+01-3.34521E-03 1.08112E-06-1.55128E-03 1.05086E-13 1.62254E-13
 -1      2097 1.99999E+01-2.93997E-03-4.73573E-06-1.98135E-03 3.60643E-14 1.39539E-13
 -1      2098 2.00001E+01-4.56560E-03 1.38161E-05-1.14411E-03 1.65475E-15 4.42219E-14
 -1      2099 2.00001E+01-4.17022E-03 7.65488E-06-1.30529E-03-3.83650E-14 9.37036E-14
 -1      2100 2.00001E+01-3.68840E-03-8.46887E-06-1.73720E-03-2.54151E-14-7.07906E-14
 -1      2101 2.00002E+01-5.07415E-03 1.63411E-05-6.85250E-04 1.39056E-13 1.28212E-13
 -1      2102 2.00002E+01-4.81756E-03 1.28639E-05-8.98872E-04 1.50457E-13 1.71206E-13
 -1      2103 2.00003E+01-4.28994E-03-1.18838E-05-1.27840E-03 1.06600E-13 1.63269E-13
 -1      2104 2.00002E+01-5.29355E-03 1.71600E-05-1.50466E-04 7.70624E-14 1.50749E-13
 -1      2105 2.00002E+01-5.20578E-03 1.60767E-05-3.90251E-04 3.80969E-14 6.89013E-14
 -1      2106 2.00004E+01-4.67545E-03-1.39155E-05-6.72734E-04 9.65024E-14 9.13008E-14
 -1      2107 2.00002E+01-5.20104E-03 1.60478E-05 4.00388E-04 2.77608E-13 7.24968E-14
 -1      2108 2.00002E+01-5.29219E-03 1.71697E-05 1.60916E-04 1.46196E-13 2.44545E-13
 -1      2109 2.00004E+01-4.80642E-03-1.45838E-05 6.57473E-06-1.25013E-13 2.73572E-13
 -1      2110 2.00002E+01-4.80720E-03 1.29240E-05 9.07307E-04-8.79324E-14-4.75585E-13
 -1      2111 2.00002E+01-5.06693E-03 1.62076E-05 6.94690E-04 9.19529E-14-2.65781E-13
 -1      2112 2.00004E+01-4.67016E-03-1.38404E-05 6.85089E-04-6.23244E-14-2.16402E-13
 -1      2113 2.00001E+01-4.16856E-03 7.65796E-06 1.30516E-03 3.65856E-14-3.65249E-13
 -1      2114 2.00001E+01-4.55846E-03 1.36782E-05 1.14757E-03-4.86545E-14-2.78345E-13
 -1      2115 2.00003E+01-4.28440E-03-1.19632E-05 1.28413E-03-1.42900E-14-3.82860E-13
 -1      2116 1.99999E+01-3.33562E-03 8.08500E-07 1.55174E-03 1.95199E-13 1.48697E-13
 -1      2117 2.00000E+01-3.82130E-03 9.88737E-06 1.46845E-03 1.34838E-13 3.50924E-14
 -1      2118 2.00001E+01-3.68653E-03-8.46933E-06 1.73723E-03 1.50493E-13-2.33685E-13
 -1      2119 1.99997E+01-2.41455E-03-6.56536E-06 1.58810E-03 1.23063E-13-8.67985E-14
 -1      2120 1.99998E+01-2.92752E-03 5.57665E-06 1.60433E-03 2.28877E-13-6.38018E-14
 -1      2121 1.99999E+01-2.93074E-03-4.29659E-06 1.98180E-03 2.56250E-13 9.33855E-14
 -1      2122 1.99995E+01-1.49574E-03-5.46311E-06 1.38406E-03-1.25474E-13 2.67498E-14
 -1      2123 1.99996E+01-1.98523E-03 2.54041E-06 1.50985E-03 3.84473E-14 5.40431E-15
 -1      2124 1.99996E+01-2.10049E-03-3.62382E-07 1.95732E-03 1.09676E-13-3.67558E-14
 -1      2125 1.02509E+01-5.41603E+00-1.60332E-01 6.42607E+00 1.72418E-13 4.99746E-13
 -1      2126 6.16676E+00-6.69127E+00-3.83889E-01 4.98035E+00 1.17073E-13 7.15206E-13
 -1      2127 5.40743E-01-6.83102E+00-3.48113E-01 7.85713E-01 1.44412E-13 6.38989E-13
 -1      2128 5.62039E-01-6.26657E+00-2.65517E-01-7.99181E-01-5.43454E-14 9.11105E-13
 -1      2129 3.01221E+00-6.22194E+00-2.62320E-01 3.80084E+00 2.15661E-13 6.93279E-13
 -1      2130 1.28541E+00-7.14035E+00-3.97641E-01 2.24601E+00 1.04639E-13 5.16309E-13
 -1      2131 2.35533E+00-4.32085E+00-1.43282E-01 1.96920E+00-9.45910E-14 6.47205E-13
 -1      2132 1.93645E+01-3.42751E+00 3.32991E-02 6.78039E+00 5.74207E-13 3.44502E-13
 -1      2133 1.51886E+01-5.17751E+00-1.31622E-01 6.38912E+00 3.71370E-13 3.47250E-13
 -1      2134 2.77842E+01-6.15789E-01 1.59423E-01 5.75702E+00 6.28553E-13 3.29514E-13
 -1      2135 2.27868E+01-2.57034E+00-1.71947E-01 5.64046E+00 6.43097E-13 3.72480E-13
 -1      2136 1.95709E+01 4.02345E+00-3.11907E-02-6.23241E-01-1.06127E-13-4.53484E-13
 -1      2137 2.01488E+01 3.96926E+00-1.89965E-02-8.90204E-01-1.43574E-13-4.21798E-13
 -1      2138 2.07155E+01 3.20789E+00-1.49581E-02-8.62232E-01-1.67734E-13-3.74471E-13
 -1      2139 1.95110E+01 3.62560E+00-1.11592E-02-4.17071E-01-9.86928E-14-4.30652E-13
 -1      2140 3.93172E+01 5.60393E+00 3.35295E-01 1.53879E+00 7.05269E-13-2.73115E-14
 -1      2141 3.65668E+01 4.52437E+00 1.47981E-01 2.43615E+00 7.61835E-13 1.10800E-13
 -1      2142 4.06608E+01 7.11243E+00 2.98419E-01-6.41396E-02 6.44484E-13-2.05898E-13
 -1      2143 4.02405E+01 6.78193E+00 3.20020E-01 1.10643E+00 6.30496E-13-5.15143E-14
 -1      2144 3.83512E+01 6.59092E+00 1.57252E-01-1.17296E+00 6.18450E-13-3.40061E-13
 -1      2145 4.05646E+01 7.11377E+00 3.91618E-01-3.88719E-01 6.58584E-13-2.13732E-13
 -1      2146 3.43548E+01 3.04772E+00 5.63314E-02-2.67237E+00 6.01783E-13-4.35652E-13
 -1      2147 3.68065E+01 4.46178E+00 1.33265E-01-1.43231E+00 5.38902E-13-3.05533E-13
 -1      2148 2.87591E+01-5.25467E-02-7.37384E-02-4.42400E+00 5.59719E-13-5.58886E-13
 -1      2149 3.31870E+01 1.50402E+00 1.67771E-01-4.01739E+00 5.67241E-13-4.90608E-13
 -1      2150 3.26922E+01 1.39026E+00 2.00142E-01-4.93048E-01 3.90965E-13-7.24976E-14
 -1      2151 1.98070E+01-3.15095E+00-2.57596E-01-6.04877E+00 4.65739E-13-7.65055E-13
 -1      2152 2.49864E+01-1.29110E+00 6.68441E-02-6.48301E+00 5.54001E-13-6.90559E-13
 -1      2153 1.15504E+01-5.50076E+00-3.70832E-01-5.95554E+00 3.09419E-13-7.59712E-13
 -1      2154 1.58769E+01-3.70845E+00-6.76379E-02-6.89676E+00 4.39981E-13-8.81129E-13
 -1      2155 5.28636E+00-6.43259E+00-3.62972E-01-4.74891E+00 6.02296E-14-7.49678E-13
 -1      2156 8.27570E+00-5.33035E+00-1.95400E-01-5.90399E+00 2.68563E-13-7.49747E-13
 -1      2157 9.85197E-01-6.57382E+00-3.78267E-01-1.89800E+00-1.43052E-13-7.98250E-13
 -1      2158 2.43893E+00-6.20621E+00-3.22572E-01-3.43446E+00 6.83897E-14-8.34943E-13
 -1      2159 6.90468E-01-6.60945E+00-3.77627E-01 1.73714E+00-3.66873E-13-7.21589E-13
 -1      2160 2.40309E-01-6.59185E+00-3.75567E-01 1.11237E-01-1.52833E-13-7.70328E-13
 -1      2161 5.11739E+00-5.40846E+00-1.80423E-01 5.06217E+00-4.36706E-13-6.09179E-13
 -1      2162 2.66452E+00-6.39339E+00-3.51351E-01 3.44018E+00-3.07254E-13-6.28886E-13
 -1      2163 1.20121E+01-4.49189E+00-1.46554E-01 6.64018E+00-6.81455E-13-5.33809E-13
 -1      2164 8.30731E+00-6.00370E+00-3.54207E-01 5.68448E+00-5.36626E-13-5.39277E-13
 -1      2165 2.10703E+01-2.42313E+00 4.93621E-02 6.91691E+00-7.02716E-13-4.47864E-13
 -1      2166 1.61803E+01-4.33663E+00-2.81462E-01 6.23454E+00-6.54921E-13-4.71567E-13
 -1      2167 2.98831E+01 8.10557E-01 1.92783E-01 5.84260E+00-6.78430E-13-5.06706E-13
 -1      2168 2.45395E+01-1.00306E+00-1.31673E-01 5.78330E+00-7.42462E-13-5.19695E-13
 -1      2169 3.59927E+01 3.56604E+00 1.74131E-01 2.81954E+00-6.03920E-13-2.76723E-13
 -1      2170 3.25479E+01 2.24076E+00 8.42149E-02 3.93522E+00-6.53803E-13-4.09450E-13
 -1      2171 3.87411E+01 6.53403E+00 2.33137E-01 7.21586E-01-6.26998E-13-1.28814E-13
 -1      2172 3.68845E+01 5.57191E+00 1.22265E-01 1.53317E+00-6.36380E-13-2.49467E-13
 -1      2173 4.03835E+01 7.18348E+00 3.50092E-01-5.07497E-01-6.00020E-13-4.57412E-14
 -1      2174 3.94039E+01 7.30807E+00 1.92539E-01 5.68804E-01-6.07459E-13-1.92263E-13
 -1      2175 3.88227E+01 6.11872E+00 2.77579E-01-1.97029E+00-5.96634E-13 6.34492E-14
 -1      2176 4.05110E+01 6.61859E+00 3.50030E-01-9.00594E-01-6.07681E-13-6.51423E-14
 -1      2177 3.61687E+01 7.95255E+00 3.40523E-01 1.75959E-01-6.32217E-13-1.50935E-13
 -1      2178 3.45001E+01 3.39734E+00 1.28268E-01-3.65994E+00-5.01987E-13 1.23679E-13
 -1      2179 3.78484E+01 4.58896E+00 3.66343E-01-2.92712E+00-5.27994E-13 8.52651E-14
 -1      2180 2.81659E+01 3.26914E-01-3.78989E-02-5.19965E+00-5.28133E-13 2.59792E-13
 -1      2181 3.25890E+01 1.91044E+00 2.84180E-01-4.99305E+00-5.24067E-13 2.01839E-13
 -1      2182 2.08177E+01-2.95542E+00-1.99693E-01-6.01703E+00-3.85192E-13 3.93019E-13
 -1      2183 2.53861E+01-1.14029E+00 1.33351E-01-6.30610E+00-4.13225E-13 2.64622E-13
 -1      2184 1.29562E+01-5.28220E+00-3.16276E-01-6.15182E+00-2.22489E-13 5.31436E-13
 -1      2185 1.71295E+01-3.43443E+00-2.78486E-02-6.91119E+00-3.56049E-13 5.25413E-13
 -1      2186 6.18435E+00-6.65051E+00-3.66075E-01-5.09270E+00-1.18627E-13 4.07757E-13
 -1      2187 9.52633E+00-5.26079E+00-1.22669E-01-6.30574E+00-1.98286E-13 5.26260E-13
 -1      2188 1.89668E+00-6.60180E+00-3.08191E-01-2.98891E+00 1.97065E-14 7.99194E-13
 -1      2189 3.73169E+00-6.28295E+00-2.53097E-01-4.26616E+00-1.62093E-13 5.55278E-13
 -1      2190 7.09033E+00-5.07174E+00-1.09114E-01-5.78680E+00 1.65590E-13 3.74173E-13
 -1      2191 3.52654E+01 2.81674E+00 3.01328E-01 3.76560E+00 6.76180E-13 1.64202E-13
 -1      2192 3.07154E+01 1.07233E+00-1.59396E-02 4.12605E+00 6.73628E-13 2.71116E-13
 -1      2193 3.00418E+01-1.19485E+00 1.40724E-01 2.94288E+00 4.86930E-13 1.67644E-14
 -1      2194 2.32107E+01 1.02212E+00-2.26385E-02-9.18635E-01-2.50647E-13-2.90740E-15
 -1      2195 3.42167E+01 3.15986E+00 2.52872E-01 4.98277E-01 6.57058E-13 2.27596E-15
 -1      2196 2.28341E+01 1.20981E+00-2.26341E-02-8.64982E-01-2.58796E-13-1.11832E-13
 -1      2197 6.51273E+00-4.87712E+00-5.28253E-02 5.33781E+00-8.83738E-14 6.26138E-13
 -1      2198 1.77795E+01-5.71280E+00-1.25712E-01 6.48918E+00-1.36086E-13 1.82528E-13
 -1      2199 1.40439E+01-5.50281E+00-7.47218E-02 6.55607E+00 1.00031E-13 2.95493E-13
 -1      2200 1.36114E+01-4.95496E+00 1.77758E-01 6.85578E+00-1.91624E-13 2.77028E-13
 -1      2201 1.99994E+01-1.20407E-03-7.29141E-06 1.33976E-03-1.42383E-13 2.22102E-14
 -1      2202 2.72696E+00-4.36528E+00-1.14034E-01-2.32780E+00 3.88301E-14 8.80240E-13
 -1      2203 2.32135E+01-4.51110E+00-2.25152E-02 5.41029E+00 3.26461E-13 1.90736E-13
 -1      2204 1.35218E+01-5.58586E+00-8.76428E-02-6.79312E+00 9.45910E-14 3.28949E-13
 -1      2205 2.13273E+01-4.63402E+00-2.44125E-04-6.06008E+00-5.27911E-14 2.01561E-13
 -1      2206 2.80461E+01-2.08025E+00 1.16884E-01-3.97042E+00-1.90126E-13 9.99201E-15
 -1      2207 3.57187E+01 5.51219E+00 2.94499E-01-2.91482E-01-5.45786E-13-1.12299E-13
 -1      2208 3.52515E+01 7.55393E+00 2.14240E-01-3.13912E-01-6.06404E-13-6.03961E-14
 -1      2209 3.41793E+01 4.38669E+00 2.17111E-01 1.15082E-01-6.03184E-13-5.34017E-14
 -1      2210 3.12829E+01 2.46214E-01 2.21947E-01 2.61511E+00-5.32761E-13-1.84019E-13
 -1      2211 2.48159E+01-3.51950E+00 1.55967E-02 5.18706E+00-4.24327E-13-2.26763E-13
 -1      2212 1.68464E+01-5.16722E+00-3.73919E-02 6.84309E+00-3.00371E-13-2.85771E-13
 -1      2213 8.66347E+00-5.04235E+00-1.37280E-01 6.18270E+00-1.26621E-13-4.95853E-13
 -1      2214 3.13722E+00-4.22481E+00-1.35593E-01 3.32724E+00-9.86156E-14-6.99552E-13
 -1      2215 1.78018E+00-4.42743E+00-1.87860E-01-1.13946E+00-8.01581E-14-8.67806E-13
 -1      2216 5.69891E+00-4.77825E+00-1.36755E-01-5.05639E+00-7.13873E-14-8.31224E-13
 -1      2217 1.24127E+01-5.40106E+00-1.11459E-01-6.71452E+00-1.67644E-14-6.98996E-13
 -1      2218 2.84668E+01-2.22881E+00 1.27914E-01-3.64678E+00 2.38254E-13-2.74725E-13
 -1      2219 3.48781E+01 5.56396E+00 2.12868E-01 4.99061E-01 5.40679E-13-6.57252E-14
 -1      2220 3.60173E+01 6.83238E+00 3.35973E-01-4.36370E-01 7.72438E-13-5.72875E-14
 -1      2221 3.64701E+01 8.08371E+00 3.48409E-01 1.06099E-02 6.88560E-13-1.01585E-13
 -1      2222 2.03741E+01-4.72374E+00-1.31627E-02-6.24325E+00 1.07636E-13-5.76400E-13
 -1      2223 3.29570E+01 1.72103E+00 2.39886E-01-1.92697E+00-3.96738E-13-1.16351E-13
 -1      2224 2.29492E+01 3.73506E-01 7.21697E-05-2.00879E-01 1.98319E-13 3.99731E-13
 -1      2225 2.30235E+01 6.08194E-01 2.15311E-02 4.98389E-02 2.23634E-13 4.34920E-13
 -1      2226 1.72792E+01 3.98125E+00-1.46712E-02 3.02719E-01 7.02713E-14-4.08160E-13
 -1      2227 1.77331E+01 3.86863E+00 2.76520E-03 2.42112E-01 3.22441E-14-4.25973E-13
 -1      2228 1.82372E+01 3.62048E+00-1.61839E-02 1.74152E-01 1.90039E-15-4.23840E-13
 -1      2229 1.87932E+01 3.47626E+00-1.09494E-03 3.56116E-02-4.00717E-14-4.16424E-13
 -1      2230 1.80725E+01 3.37160E+00-1.71621E-03 3.76007E-01 2.49835E-14-3.90666E-13
 -1      2231 1.64247E+01 4.36145E+00-5.94839E-03 1.11420E-01 1.85714E-13-3.80877E-13
 -1      2232 1.64697E+01 4.34528E+00-2.54986E-03 1.58222E-01 1.55042E-13-3.88627E-13
 -1      2233 1.67094E+01 4.28717E+00-8.65453E-04-4.96263E-02 2.23507E-13-3.72605E-13
 -1      2234 1.65048E+01 4.33070E+00-8.44450E-03-1.33000E-02 1.97649E-13-3.79368E-13
 -1      2235 1.64347E+01 4.12232E+00 8.04475E-03 2.92044E-02 1.85630E-13-3.62575E-13
 -1      2236 1.74290E+01 4.04179E+00 1.55551E-03-1.13568E-01 2.57862E-13-3.22946E-13
 -1      2237 1.70170E+01 4.13713E+00-1.36061E-02-1.30171E-01 2.32996E-13-3.57893E-13
 -1      2238 1.68561E+01 3.95315E+00 5.57966E-03-1.89595E-01 2.08612E-13-3.39659E-13
 -1      2239 1.84938E+01 3.65782E+00-6.44451E-04-1.79715E-02 3.09580E-13-2.21362E-13
 -1      2240 1.79233E+01 3.80245E+00-1.71247E-02-1.10521E-01 2.75201E-13-2.78696E-13
 -1      2241 1.77236E+01 3.59125E+00 8.84854E-04-2.73168E-01 2.53514E-13-2.78220E-13
 -1      2242 1.97621E+01 3.17027E+00-8.41513E-03 2.38972E-01 3.35125E-13-1.10337E-13
 -1      2243 1.91058E+01 3.36798E+00-1.92175E-02 7.51083E-02 3.08482E-13-1.77851E-13
 -1      2244 1.89099E+01 3.10051E+00-1.96218E-03-1.75627E-01 2.88102E-13-1.89690E-13
 -1      2245 2.11336E+01 2.55733E+00-2.32449E-02 5.87684E-01 3.44296E-13 6.57998E-14
 -1      2246 2.04366E+01 2.84293E+00-2.08927E-02 3.87562E-01 3.30259E-13-3.81570E-14
 -1      2247 2.02583E+01 2.52901E+00-2.06724E-04 6.28896E-02 3.08214E-13-6.05028E-14
 -1      2248 2.30386E+01-1.05440E-02-5.33478E-03-4.37026E-01 1.52380E-13 3.56744E-13
 -1      2249 2.30177E+01 1.76202E-01 2.21681E-02-3.79643E-01 1.80247E-13 3.97583E-13
 -1      2250 2.26212E+01 4.02301E-01-9.63184E-03-3.09711E-01 2.01618E-13 2.61811E-13
 -1      2251 2.25834E+01 6.55611E-01 1.81769E-02-1.73157E-01-1.77270E-13-1.20375E-13
 -1      2252 2.25057E+01 3.55611E-01-9.84019E-03 6.18964E-02-1.57185E-13-1.08872E-13
 -1      2253 3.23466E+01 3.12469E+00-1.60313E-01-1.00774E+00 6.39128E-13-1.18072E-13
 -1      2254 3.16094E+01 1.17771E+00-4.65570E-02-3.55861E-01 5.16032E-13-9.86988E-14
 -1      2255 2.26226E+01 1.15814E-01 2.15090E-02 1.92607E-01-1.52082E-13-7.62571E-14
 -1      2256 2.26128E+01-1.20803E-01-1.06303E-02 2.27001E-01-1.18391E-13-9.65343E-14
 -1      2257 2.22693E+01 3.37255E-01-8.74592E-03 1.54425E-01-1.55002E-13-1.60606E-13
 -1      2258 2.27895E+01-3.21053E-01 1.77009E-02 1.93920E-01-1.04783E-13-7.75473E-14
 -1      2259 2.28127E+01-5.25403E-01-1.51990E-02 7.12734E-02-9.62132E-14-9.79794E-14
 -1      2260 2.25017E+01-2.71081E-01-1.17248E-02 2.92301E-01-1.19809E-13-1.15141E-13
 -1      2261 2.30456E+01-6.86523E-01 1.26313E-02-1.26828E-01-7.08667E-14-8.61650E-14
 -1      2262 2.30531E+01-8.23792E-01-1.74851E-02-3.73474E-01-5.26345E-14-5.27190E-14
 -1      2263 2.28697E+01-7.80742E-01-1.03259E-02 8.41431E-02-8.25903E-14-1.09104E-13
 -1      2264 2.32831E+01-8.87382E-01 4.14521E-03-7.06872E-01-4.76429E-14-3.12425E-14
 -1      2265 2.32298E+01-8.71451E-01-1.24734E-02-1.00873E+00-5.56035E-14-1.71722E-14
 -1      2266 2.33124E+01-1.10683E+00-4.07576E-03-4.46353E-01-5.59097E-14-5.99029E-14
 -1      2267 2.33503E+01-7.46856E-01-9.79873E-03-1.37559E+00-8.37143E-14-3.95311E-15
 -1      2268 2.32147E+01-4.91202E-01 1.88456E-03-1.60149E+00-9.83096E-14-4.82453E-14
 -1      2269 2.36818E+01-1.03992E+00 6.55491E-03-1.18123E+00-7.49796E-14-9.31872E-15
 -1      2270 2.31293E+01-1.31043E-01-2.60332E-02-1.80339E+00-1.00773E-13-7.05473E-14
 -1      2271 2.29394E+01 3.43637E-01 1.87913E-02-1.78500E+00-1.04339E-13-1.18096E-13
 -1      2272 2.37799E+01-3.86810E-01 1.20572E-02-1.82004E+00-1.36895E-13-5.09527E-14
 -1      2273 2.26819E+01 8.31535E-01-3.02287E-02-1.59668E+00-1.49876E-13-1.61413E-13
 -1      2274 2.25219E+01 1.29518E+00 2.16151E-02-1.23439E+00-2.39173E-13-1.90381E-13
 -1      2275 2.35158E+01 7.73046E-01 1.66562E-03-1.89323E+00-1.60687E-13-1.30397E-13
 -1      2276 2.23150E+01 1.62054E+00-1.47615E-02-6.28409E-01-2.43344E-13-2.13194E-13
 -1      2277 2.22747E+01 1.76039E+00 1.19009E-03-3.24762E-02-2.19443E-13-2.28837E-13
 -1      2278 2.31091E+01 1.88116E+00-2.00390E-02-1.07577E+00-2.51257E-13-1.66886E-13
 -1      2279 2.23332E+01 1.67786E+00 1.12148E-02 7.06497E-01-1.79540E-13-2.27737E-13
 -1      2280 2.24437E+01 1.38182E+00-2.34118E-02 1.24122E+00-1.34250E-13-1.96526E-13
 -1      2281 2.29732E+01 2.21781E+00-2.63351E-02 3.82021E-01-2.17267E-13-2.00628E-13
 -1      2282 2.27061E+01 9.54418E-01 2.40866E-02 1.70333E+00-8.94805E-14-1.75129E-13
 -1      2283 2.29036E+01 4.42185E-01-3.05655E-02 1.93023E+00-2.71183E-14-1.95329E-13
 -1      2284 2.32584E+01 1.51519E+00-1.00084E-02 1.66795E+00-7.65586E-14-1.64740E-13
 -1      2285 2.31146E+01-3.51824E-02 1.44903E-02 1.94304E+00-3.48129E-14-2.12387E-13
 -1      2286 2.33022E+01-4.53614E-01-1.93927E-02 1.83418E+00-4.86763E-14-2.34879E-13
 -1      2287 2.36551E+01 2.75502E-01 1.04009E-02 2.12564E+00-4.20876E-14-1.72786E-13
 -1      2288 2.32901E+01-7.42522E-01-5.34244E-03 1.52041E+00-7.14773E-14-2.37152E-13
 -1      2289 2.33928E+01-9.20282E-01-6.37956E-03 1.21797E+00-8.51691E-14-1.86144E-13
 -1      2290 2.37744E+01-7.82025E-01 7.93240E-03 1.73805E+00-7.22676E-14-1.59617E-13
 -1      2291 2.31908E+01-9.84515E-01-1.73078E-02 8.03486E-01-8.46029E-14-1.55636E-13
 -1      2292 2.31900E+01-9.57506E-01 3.19766E-03 4.64738E-01-1.09728E-14-1.17924E-13
 -1      2293 2.35214E+01-1.24839E+00-1.14061E-04 9.43220E-01-6.71818E-14 1.39120E-14
 -1      2294 2.29038E+01-8.77399E-01-1.88881E-02 1.07141E-01-6.77843E-15-1.10787E-13
 -1      2295 2.28202E+01-7.49005E-01 6.97919E-03-1.71261E-01 3.70069E-14-9.61314E-14
 -1      2296 2.30352E+01-1.20452E+00-6.10454E-03 1.39506E-01-2.96427E-14 2.10959E-14
 -1      2297 2.25363E+01-6.17336E-01-1.47905E-02-4.13997E-01 8.62999E-14-1.22547E-13
 -1      2298 2.24013E+01-4.71722E-01 6.88441E-03-5.98847E-01 1.11418E-13-9.81155E-14
 -1      2299 2.24928E+01-8.98179E-01-7.72607E-03-4.66377E-01 6.36653E-14 3.92511E-14
 -1      2300 2.21591E+01-3.46919E-01-9.31584E-03-7.30506E-01 5.77305E-14-1.58884E-13
 -1      2301 2.19997E+01-2.26713E-01 5.23746E-03-8.27229E-01 5.89499E-14-1.24371E-13
 -1      2302 2.20008E+01-5.39623E-01-6.68166E-03-8.35278E-01 7.11728E-14-6.63418E-14
 -1      2303 2.18066E+01-1.32376E-01-4.52866E-03-8.74311E-01 7.94963E-14-9.09786E-14
 -1      2304 2.16415E+01-4.94265E-02 3.44477E-03-9.03923E-01 3.68801E-14 4.30819E-15
 -1      2305 2.15937E+01-2.38287E-01-4.89006E-03-1.00558E+00 1.02671E-13-3.19253E-14
 -1      2306 2.14906E+01 1.17417E-02-1.02917E-03-8.95146E-01 1.03591E-14 7.50744E-14
 -1      2307 2.13317E+01 6.09726E-02 2.05462E-03-8.80661E-01 6.04452E-14 1.25808E-14
 -1      2308 2.12684E+01-2.68932E-02-3.33952E-03-1.03530E+00 4.61935E-14 1.26414E-13
 -1      2309 2.12136E+01 9.50786E-02 1.22625E-03-8.39480E-01 3.89185E-14-3.48857E-14
 -1      2310 2.10679E+01 1.19161E-01 1.14311E-03-8.00016E-01 8.85490E-14 1.56498E-14
 -1      2311 2.10093E+01 1.01164E-01-2.28656E-03-9.77176E-01 5.38300E-14 1.03339E-13
 -1      2312 2.09743E+01 1.34225E-01 2.49076E-03-7.43243E-01 1.28814E-13-4.91509E-14
 -1      2313 2.08457E+01 1.41699E-01 6.07622E-04-6.92561E-01 1.61948E-13-9.40640E-14
 -1      2314 2.08012E+01 1.66047E-01-1.66392E-03-8.71453E-01 8.16283E-14 2.12837E-14
 -1      2315 2.07706E+01 1.44715E-01 3.04669E-03-6.31226E-01 2.01808E-13-1.37265E-13
 -1      2316 2.06604E+01 1.42308E-01 3.19822E-04-5.78249E-01 1.62221E-13-1.45109E-13
 -1      2317 2.06324E+01 1.88571E-01-1.32263E-03-7.45962E-01 1.57655E-13-1.22866E-13
 -1      2318 2.05999E+01 1.38449E-01 3.13856E-03-5.19003E-01 1.77185E-13-1.70662E-13
 -1      2319 2.05079E+01 1.30857E-01 1.77688E-04-4.68960E-01 1.63138E-13-2.16883E-14
 -1      2320 2.04946E+01 1.85446E-01-1.13321E-03-6.18464E-01 1.81231E-13-2.26828E-13
 -1      2321 2.04591E+01 1.23599E-01 2.95386E-03-4.15401E-01 7.01864E-14-6.19478E-14
 -1      2322 2.03840E+01 1.13841E-01 1.13590E-04-3.70960E-01-1.83867E-14-1.13704E-13
 -1      2323 2.03824E+01 1.68512E-01-1.01104E-03-4.99325E-01 6.27033E-14-3.15500E-13
 -1      2324 2.03450E+01 1.05353E-01 2.62506E-03-3.24674E-01-1.75757E-14-3.81191E-14
 -1      2325 2.02850E+01 9.52358E-02 8.73784E-05-2.86859E-01 6.54492E-14 3.56586E-14
 -1      2326 2.02915E+01 1.45484E-01-9.10796E-04-3.93829E-01 1.94912E-14-2.58063E-13
 -1      2327 2.02541E+01 8.67812E-02 2.23964E-03-2.48183E-01 2.49563E-14-3.98363E-14
 -1      2328 2.02072E+01 7.72980E-02 7.72636E-05-2.17031E-01 1.99727E-14-7.49841E-14
 -1      2329 2.02186E+01 1.21048E-01-8.13252E-04-3.03954E-01-1.70715E-14-1.55221E-13
 -1      2330 2.01829E+01 6.95467E-02 1.85154E-03-1.85581E-01 2.55958E-14-4.29612E-14
 -1      2331 2.01469E+01 6.11755E-02 7.24773E-05-1.60588E-01 1.22182E-13-7.82199E-14
 -1      2332 2.01610E+01 9.78345E-02-7.13570E-04-2.29660E-01 4.26413E-14-9.74664E-14
 -1      2333 2.01282E+01 5.44287E-02 1.49130E-03-1.35605E-01 8.91665E-14-7.96630E-14
 -1      2334 2.01012E+01 4.73360E-02 6.83467E-05-1.16012E-01 1.48596E-14-1.02842E-13
 -1      2335 2.01160E+01 7.71537E-02-6.13418E-04-1.69770E-01 5.27570E-14-1.21890E-13
 -1      2336 2.00870E+01 4.16754E-02 1.17391E-03-9.65848E-02-2.45163E-14-9.33139E-14
 -1      2337 2.00670E+01 3.58489E-02 6.33016E-05-8.15504E-02-7.39616E-14-5.80144E-14
 -1      2338 2.00815E+01 5.95065E-02-5.16452E-04-1.22552E-01 1.61809E-14-1.45618E-13
 -1      2339 2.00565E+01 3.12334E-02 9.04559E-04-6.67507E-02-1.41815E-13-1.10124E-13
 -1      2340 2.00421E+01 2.65670E-02 5.71909E-05-5.54550E-02-2.09516E-13-3.90141E-14
 -1      2341 2.00554E+01 4.49241E-02-4.26133E-04-8.60901E-02-1.29638E-13-4.41608E-14
 -1      2342 2.00344E+01 2.28929E-02 6.82557E-04-4.44116E-02-1.63444E-13-5.67797E-14
 -1      2343 2.00244E+01 1.92382E-02 5.03983E-05-3.61082E-02-6.47856E-14 1.02352E-14
 -1      2344 2.00362E+01 3.31839E-02-3.44894E-04-5.85008E-02-1.68597E-13-2.12253E-14
 -1      2345 2.00189E+01 1.63759E-02 5.04005E-04-2.80468E-02 6.14171E-15 9.77114E-15
 -1      2346 2.00122E+01 1.35729E-02 4.34167E-05-2.20867E-02 7.83236E-14 6.54885E-14
 -1      2347 2.00222E+01 2.39437E-02-2.74011E-04-3.80575E-02-4.63309E-14-8.16889E-14
 -1      2348 2.00083E+01 1.13885E-02 3.63490E-04-1.63442E-02 1.39427E-13 3.21712E-14
 -1      2349 2.00040E+01 9.28310E-03 3.66677E-05-1.21816E-02 1.60216E-13 5.77631E-15
 -1      2350 2.00124E+01 1.68226E-02-2.13778E-04-2.32473E-02 2.58074E-14 8.61480E-14
 -1      2351 2.00014E+01 7.65036E-03 2.55144E-04-8.20659E-03 1.08350E-13 3.20243E-14
 -1      2352 1.99988E+01 6.10300E-03 3.04438E-05-5.39495E-03 1.19688E-13-1.19630E-14
 -1      2353 2.00057E+01 1.14467E-02-1.63774E-04-1.27886E-02 1.57441E-13 8.94149E-14
 -1      2354 1.99972E+01 4.90917E-03 1.73270E-04-2.73971E-03 1.94601E-14-7.17962E-14
 -1      2355 1.99958E+01 3.79892E-03 2.49068E-05-9.21690E-04-1.12779E-13-1.48656E-13
 -1      2356 2.00012E+01 7.47430E-03-1.23124E-04-5.62457E-03 4.40449E-14 1.70818E-13
 -1      2357 1.99948E+01 2.94707E-03 1.12677E-04 7.69279E-04-1.19297E-13-1.91088E-13
 -1      2358 1.99943E+01 2.17216E-03 2.01071E-05 1.87349E-03-5.73727E-14-1.75126E-13
 -1      2359 1.99985E+01 4.60628E-03-9.07055E-05-9.03956E-04-1.45516E-13 2.29132E-14
 -1      2360 1.99938E+01 1.58122E-03 6.88393E-05 2.87676E-03-2.16027E-14-1.70727E-13
 -1      2361 1.99938E+01 1.05798E-03 1.60056E-05 3.48172E-03-1.44131E-13 4.09749E-14
 -1      2362 1.99970E+01 2.58945E-03-6.53137E-05 2.04465E-03-7.92950E-14-4.57273E-14
 -1      2363 1.99936E+01 6.61546E-04 3.79393E-05 4.00786E-03-1.94114E-13 2.46085E-13
 -1      2364 1.99939E+01 3.22394E-04 1.24943E-05 4.27434E-03-7.31637E-14 3.53642E-13
 -1      2365 1.99963E+01 1.21444E-03-4.57628E-05 3.73974E-03-4.93896E-15 2.18924E-13
 -1      2366 1.99939E+01 6.68426E-05 1.68419E-05 4.47987E-03-5.31675E-14 4.71924E-13
 -1      2367 1.99944E+01-1.42220E-04 9.41247E-06 4.52506E-03 4.63749E-14 5.22021E-13
 -1      2368 1.99961E+01 3.11258E-04-3.09576E-05 4.57290E-03 3.02149E-14 6.51325E-13
 -1      2369 1.99946E+01-2.99840E-04 3.03918E-06 4.52286E-03 1.67659E-14 3.96748E-13
 -1      2370 1.99952E+01-4.21810E-04 6.57332E-06 4.42894E-03 1.20042E-13 2.86732E-13
 -1      2371 1.99963E+01-2.56542E-04-1.99322E-05 4.83225E-03-2.78642E-14 5.17538E-13
 -1      2372 1.99954E+01-5.16038E-04-5.43042E-06 4.29708E-03 2.43643E-13 1.30331E-13
 -1      2373 1.99960E+01-5.85584E-04 3.71174E-06 4.11825E-03 3.69254E-13 1.67403E-14
 -1      2374 1.99967E+01-5.97949E-04-1.18816E-05 4.72265E-03-1.16864E-14 1.36274E-13
 -1      2375 1.99963E+01-6.45085E-04-1.01386E-05 3.90687E-03 2.92061E-13-3.99090E-14
 -1      2376 1.99969E+01-6.90448E-04 8.05281E-07 3.67457E-03 2.65756E-13-3.97891E-14
 -1      2377 1.99972E+01-8.00963E-04-6.21005E-06 4.38302E-03 2.50902E-13 7.11800E-14
 -1      2378 1.99971E+01-7.35778E-04-1.17932E-05 3.41060E-03 2.33506E-13-1.06227E-13
 -1      2379 1.99976E+01-7.78001E-04-2.17893E-06 3.14096E-03 5.04896E-14-3.01992E-14
 -1      2380 1.99978E+01-9.34288E-04-1.57456E-06 3.89621E-03 1.48527E-13-1.09086E-14
 -1      2381 1.99979E+01-8.32298E-04-1.16479E-05 2.83939E-03-1.56367E-13 1.41024E-13
 -1      2382 1.99984E+01-8.87985E-04-6.51163E-06 2.53152E-03-2.22165E-13 2.23464E-13
 -1      2383 1.99983E+01-1.05650E-03 2.48189E-07 3.31462E-03 9.09485E-15-3.08187E-13
 -1      2384 2.34914E+01-6.81321E-01-2.01251E-02 8.61869E-02 1.82562E-14 3.32167E-13
 -1      2385 2.34645E+01-5.25031E-01 1.03280E-02-1.60110E-01 4.39562E-14 3.30762E-13
 -1      2386 2.36690E+01-8.48333E-01-1.86376E-02 7.71298E-01 1.78260E-14 2.90633E-13
 -1      2387 2.37338E+01-7.93424E-01 4.15912E-03 4.29479E-01 1.44234E-14 3.18658E-13
 -1      2388 2.36069E+01-1.00776E+00-6.39245E-03 1.56542E-01 4.20521E-14 2.51589E-13
 -1      2389 2.36459E+01-6.58316E-01-5.30819E-03 1.51491E+00 7.62316E-14 3.10778E-13
 -1      2390 2.38336E+01-8.14040E-01-5.96190E-03 1.20224E+00 2.28550E-14 3.07207E-13
 -1      2391 2.40261E+01-1.12572E+00 3.34441E-03 9.68916E-01 2.69975E-14 2.41021E-13
 -1      2392 2.33333E+01 1.17570E-02 1.20584E-02 1.92186E+00 1.22616E-13 3.56520E-13
 -1      2393 2.36126E+01-3.89098E-01-2.19423E-02 1.83248E+00 8.52666E-14 3.39006E-13
 -1      2394 2.42057E+01-6.90496E-01 1.14645E-02 1.79884E+00 4.74421E-14 2.59902E-13
 -1      2395 2.28203E+01 9.55349E-01 1.76003E-02 1.55767E+00 9.67629E-14 3.65121E-13
 -1      2396 2.30854E+01 4.77724E-01-3.29057E-02 1.85236E+00 1.19243E-13 3.47761E-13
 -1      2397 2.39863E+01 3.53483E-01-2.85258E-05 2.12918E+00 1.00848E-13 3.01170E-13
 -1      2398 2.24551E+01 1.58026E+00 3.67236E-03 3.59110E-01 1.44187E-13 2.89719E-13
 -1      2399 2.25659E+01 1.35466E+00-2.06063E-02 9.78128E-01 1.44834E-13 3.21181E-13
 -1      2400 2.35239E+01 1.57557E+00-2.22564E-02 1.47330E+00 1.61978E-13 2.87761E-13
 -1      2401 2.25885E+01 1.36900E+00-1.94951E-02-1.09859E+00 1.69278E-13 9.64185E-14
 -1      2402 2.24673E+01 1.58942E+00 7.93453E-03-4.79518E-01 1.76532E-13 1.60415E-13
 -1      2403 2.32795E+01 2.14467E+00-3.27550E-02-6.85455E-02 2.43344E-13 1.19344E-13
 -1      2404 2.31421E+01 5.02782E-01-3.07076E-02-1.99495E+00 2.12870E-13-7.24334E-14
 -1      2405 2.28562E+01 9.83433E-01 2.19035E-02-1.69421E+00 1.50747E-13-1.71521E-14
 -1      2406 2.35345E+01 1.59654E+00-2.05789E-02-1.61609E+00 2.39496E-13-7.82781E-14
 -1      2407 2.37089E+01-3.84918E-01-2.12635E-02-1.98637E+00 2.28095E-13-1.23827E-13
 -1      2408 2.34004E+01 2.39940E-02 1.17573E-02-2.07395E+00 2.34946E-13-7.74849E-14
 -1      2409 2.40133E+01 3.78777E-01 3.00995E-03-2.29372E+00 2.28786E-13-1.68832E-13
 -1      2410 2.39510E+01-8.46662E-01-7.10688E-03-1.33245E+00 1.17739E-13-1.07291E-13
 -1      2411 2.37416E+01-6.78673E-01-8.49624E-03-1.65438E+00 1.97179E-13-5.02706E-14
 -1      2412 2.42460E+01-7.17170E-01 7.12891E-03-1.95395E+00 1.91866E-13-2.38745E-13
 -1      2413 2.38318E+01-8.66972E-01 2.05243E-03-4.93450E-01-5.87412E-14 4.73525E-15
 -1      2414 2.37689E+01-9.03186E-01-2.08171E-02-8.59677E-01 8.83495E-15-3.22448E-14
 -1      2415 2.40651E+01-1.20212E+00 1.40003E-03-1.07592E+00 3.15874E-14-1.10916E-13
 -1      2416 2.34804E+01-6.49547E-01 4.75835E-03 2.11736E-01 1.53394E-13 3.89844E-14
 -1      2417 2.35476E+01-7.77583E-01-2.19541E-02-8.27855E-02 6.98920E-14 7.63593E-14
 -1      2418 2.35979E+01-1.14161E+00-5.31605E-03-1.60069E-01-1.32797E-14 2.22998E-14
 -1      2419 2.30313E+01-3.80500E-01 4.23028E-03 6.71718E-01 1.40208E-13 1.49570E-14
 -1      2420 2.31874E+01-5.16008E-01-1.67749E-02 4.85467E-01 1.81063E-13 7.18362E-14
 -1      2421 2.30411E+01-8.15504E-01-7.51870E-03 5.27823E-01 1.52213E-13 9.31606E-14
 -1      2422 2.25681E+01-1.57225E-01 2.90199E-03 9.00900E-01-1.16177E-14 6.94657E-14
 -1      2423 2.27719E+01-2.61884E-01-1.00491E-02 8.12596E-01 7.68808E-14 7.03528E-14
 -1      2424 2.25129E+01-4.54030E-01-6.64418E-03 9.35231E-01 6.82846E-14 1.14848E-13
 -1      2425 2.21317E+01-6.87765E-03 1.81435E-03 9.60872E-01-1.07553E-13 3.65649E-14
 -1      2426 2.23513E+01-7.37447E-02-4.25705E-03 9.43053E-01-4.26336E-14 6.08868E-14
 -1      2427 2.20554E+01-1.67191E-01-4.81284E-03 1.10919E+00-7.53401E-15 1.84150E-13
 -1      2428 2.17388E+01 7.86596E-02 1.18052E-03 9.15656E-01-1.08976E-13-1.08187E-14
 -1      2429 2.19528E+01 4.27695E-02-1.69867E-04 9.40837E-01-9.20806E-14-2.03255E-14
 -1      2430 2.16708E+01 2.04015E-02-3.24377E-03 1.12308E+00-4.91978E-14 5.70752E-14
 -1      2431 2.13949E+01 1.17818E-01 8.77332E-04 8.15129E-01 3.38063E-14-1.06885E-13
 -1      2432 2.15907E+01 1.03115E-01 2.30853E-03 8.62154E-01-7.50561E-14-4.03308E-14
 -1      2433 2.13489E+01 1.23963E-01-2.24432E-03 1.04216E+00-5.76072E-14-3.81112E-14
 -1      2434 2.11008E+01 1.27944E-01 7.51585E-04 6.92887E-01 1.58279E-14 4.69641E-15
 -1      2435 2.12720E+01 1.26042E-01 3.55245E-03 7.47694E-01 4.89935E-14 5.25074E-15
 -1      2436 2.10789E+01 1.68817E-01-1.70735E-03 9.14265E-01-1.12187E-14-9.31267E-14
 -1      2437 2.08542E+01 1.21884E-01 6.96283E-04 5.69254E-01-9.38141E-14-5.40498E-14
 -1      2438 2.09989E+01 1.26840E-01 3.96225E-03 6.23502E-01-9.89681E-15-1.23016E-16
 -1      2439 2.08531E+01 1.77527E-01-1.44203E-03 7.70745E-01 6.61732E-15-9.39323E-15
 -1      2440 2.06514E+01 1.08043E-01 6.56082E-04 4.55211E-01 8.74203E-15-1.08849E-13
 -1      2441 2.07703E+01 1.16076E-01 3.86591E-03 5.04538E-01-1.53365E-13-6.00073E-14
 -1      2442 2.06654E+01 1.66451E-01-1.30023E-03 6.30245E-01-6.29168E-14-7.33049E-14
 -1      2443 2.04877E+01 9.14568E-02 6.09188E-04 3.55745E-01 1.63534E-13-9.36400E-14
 -1      2444 2.05831E+01 1.00353E-01 3.49924E-03 3.98298E-01 1.64822E-13-1.49213E-13
 -1      2445 2.05112E+01 1.46159E-01-1.19619E-03 5.02653E-01 1.08633E-13-2.19174E-13
 -1      2446 2.03578E+01 7.49169E-02 5.51283E-04 2.72258E-01 2.35865E-13-1.00104E-13
 -1      2447 2.04328E+01 8.34835E-02 3.01657E-03 3.07650E-01 2.11996E-13-6.63490E-14
 -1      2448 2.03862E+01 1.22936E-01-1.09166E-03 3.92250E-01 2.17458E-13-1.16884E-13
 -1      2449 2.02567E+01 5.98189E-02 4.85367E-04 2.04174E-01 1.06355E-14-1.94771E-13
 -1      2450 2.03144E+01 6.74845E-02 2.51107E-03 2.32805E-01 1.65420E-13-1.79200E-13
 -1      2451 2.02864E+01 1.00222E-01-9.76167E-04 2.99962E-01 2.35132E-13-1.49723E-13
 -1      2452 2.01792E+01 4.67421E-02 4.16395E-04 1.49938E-01 1.41964E-14-2.15905E-13
 -1      2453 2.02229E+01 5.32950E-02 2.03422E-03 1.72578E-01-8.21943E-14-2.81683E-13
 -1      2454 2.02080E+01 7.97090E-02-8.52192E-04 2.24858E-01 3.50767E-14-3.00419E-13
 -1      2455 2.01211E+01 3.58114E-02 3.48891E-04 1.07612E-01-2.12268E-14-5.30646E-14
 -1      2456 2.01534E+01 4.12362E-02 1.61093E-03 1.25155E-01 2.61708E-14-1.97914E-13
 -1      2457 2.01474E+01 6.20634E-02-7.26438E-04 1.65090E-01-4.69256E-14-2.50092E-13
 -1      2458 2.00783E+01 2.69150E-02 2.86135E-04 7.52062E-02-9.35904E-14-7.49639E-14
 -1      2459 2.01017E+01 3.12957E-02 1.25011E-03 8.85420E-02 1.53958E-14 8.18226E-14
 -1      2460 2.01015E+01 4.73870E-02-6.05523E-04 1.18466E-01-5.23905E-14-1.80408E-13
 -1      2461 2.00475E+01 1.98308E-02 2.30097E-04 5.08623E-02-3.61659E-14-6.86499E-14
 -1      2462 2.00640E+01 2.32953E-02 9.51602E-04 6.08064E-02-1.22843E-13-3.82883E-14
 -1      2463 2.00673E+01 3.54898E-02-4.94351E-04 8.27755E-02-1.08263E-13-3.85860E-14
 -1      2464 2.00259E+01 1.42981E-02 1.81660E-04 3.29331E-02-1.94529E-13 9.54136E-14
 -1      2465 2.00372E+01 1.69865E-02 7.10469E-04 4.01982E-02-1.13705E-13 6.93627E-14
 -1      2466 2.00424E+01 2.60496E-02-3.95817E-04 5.59643E-02-2.10557E-13 5.15403E-14
 -1      2467 2.00112E+01 1.00557E-02 1.40921E-04 2.00120E-02-1.22408E-13 3.20463E-13
 -1      2468 2.00186E+01 1.21040E-02 5.19647E-04 2.52003E-02-1.65112E-13 2.17451E-13
 -1      2469 2.00246E+01 1.87012E-02-3.11099E-04 3.62175E-02-2.37488E-13 3.13919E-13
 -1      2470 2.00016E+01 6.86239E-03 1.07456E-04 1.09299E-02 3.78764E-14 3.43407E-13
 -1      2471 2.00063E+01 8.39388E-03 3.71460E-04 1.45374E-02-4.68757E-14 3.69950E-13
 -1      2472 2.00123E+01 1.30853E-02-2.40116E-04 2.19860E-02-9.46714E-14 4.93683E-13
 -1      2473 1.99958E+01 4.50520E-03 8.05456E-05 4.73644E-03 9.60552E-14 3.74242E-13
 -1      2474 1.99984E+01 5.62744E-03 2.58466E-04 7.16327E-03 7.17830E-14 3.07608E-13
 -1      2475 2.00042E+01 8.87283E-03-1.81965E-04 1.19826E-02 1.00051E-13 4.28781E-13
 -1      2476 1.99926E+01 2.80246E-03 5.93235E-05 6.74474E-04-1.44163E-13 4.21689E-13
 -1      2477 1.99938E+01 3.60635E-03 1.73899E-04 2.23717E-03 2.95409E-14 3.57029E-13
 -1      2478 1.99990E+01 5.77513E-03-1.35284E-04 5.16088E-03 2.55088E-14 3.51753E-13
 -1      2479 1.99911E+01 1.60274E-03 4.28860E-05-1.84851E-03-1.22160E-13 3.38693E-13
 -1      2480 1.99915E+01 2.16351E-03 1.11853E-04-9.04013E-04-1.05616E-13 4.18870E-13
 -1      2481 1.99959E+01 3.54706E-03-9.85074E-05 6.86925E-04-1.16064E-13 4.95324E-13
 -1      2482 1.99909E+01 7.82301E-04 3.03525E-05-3.28752E-03-3.10671E-13 3.21132E-13
 -1      2483 1.99907E+01 1.16103E-03 6.73251E-05-2.77374E-03-1.84231E-13 3.38551E-13
 -1      2484 1.99944E+01 1.98506E-03-7.00466E-05-2.09174E-03-1.41089E-13 4.42157E-13
 -1      2485 1.99914E+01 2.41496E-04 2.08976E-05-3.98507E-03-4.90819E-14 2.79581E-13
 -1      2486 1.99908E+01 4.87135E-04 3.61789E-05-3.76203E-03-2.93919E-13 2.40674E-13
 -1      2487 1.99939E+01 9.23240E-04-4.83985E-05-3.67601E-03-2.98037E-13 2.60162E-13
 -1      2488 1.99923E+01-9.90778E-05 1.37639E-05-4.19281E-03-1.71480E-13 4.54658E-13
 -1      2489 1.99916E+01 5.23361E-05 1.50617E-05-4.15873E-03 2.32149E-14 4.12011E-13
 -1      2490 1.99940E+01 2.28278E-04-3.22072E-05-4.44260E-03-1.52232E-13 1.72431E-13
 -1      2491 1.99935E+01-3.02463E-04 8.26361E-06-4.08982E-03-3.23111E-14 2.85894E-13
 -1      2492 1.99927E+01-2.14452E-04 1.30777E-06-4.17340E-03-1.84624E-13 4.01906E-13
 -1      2493 1.99945E+01-2.05958E-04-2.02961E-05-4.66784E-03-7.19724E-14 5.13414E-13
 -1      2494 1.99947E+01-4.19204E-04 3.71875E-06-3.79736E-03 2.06895E-13 4.54867E-13
 -1      2495 1.99939E+01-3.69787E-04-7.16612E-06-3.95165E-03 5.48788E-14 3.50918E-13
 -1      2496 1.99952E+01-4.63783E-04-1.16938E-05-4.54780E-03-3.30534E-14 2.66003E-13
 -1      2497 1.99959E+01-4.90484E-04-1.58904E-07-3.38997E-03 3.21678E-13 4.26976E-13
 -1      2498 1.99951E+01-4.59672E-04-1.20127E-05-3.58795E-03 3.61460E-13 6.04341E-13
 -1      2499 1.99961E+01-6.13023E-04-5.65449E-06-4.21483E-03 1.51148E-13 3.10615E-13
 -1      2500 1.99970E+01-5.49253E-04-3.86350E-06-2.90693E-03 3.70334E-13 3.35797E-13
 -1      2501 1.99963E+01-5.20011E-04-1.40785E-05-3.13596E-03 3.29198E-13 4.40431E-13
 -1      2502 1.99969E+01-7.05882E-04-6.87302E-07-3.74878E-03 3.57131E-13 2.26613E-13
 -1      2503 1.99979E+01-6.25572E-04-6.61682E-06-2.35490E-03 2.56724E-13 2.19029E-13
 -1      2504 1.99973E+01-5.87134E-04-1.46421E-05-2.61895E-03 3.76048E-13 3.94924E-13
 -1      2505 1.99977E+01-7.89401E-04 3.21339E-06-3.19814E-03 3.86957E-13 2.88292E-13
 -1      2506 1.99987E+01-7.26224E-04-9.53804E-06-1.73494E-03-4.80271E-15 3.10737E-13
 -1      2507 1.99982E+01-6.71899E-04-1.31744E-05-2.03331E-03 4.45066E-14 2.83649E-13
 -1      2508 1.99984E+01-8.98215E-04 7.13578E-06-2.56920E-03 1.59923E-13 3.62933E-13
 -1      2509 1.99990E+01-7.63274E-04-9.62046E-06-1.35589E-03 2.72688E-14 3.27318E-13
 -1      2510 2.00004E+01-3.56821E-03 1.36290E-05-1.90571E-03-4.91129E-14-5.26637E-14
 -1      2511 2.00003E+01-3.24650E-03-5.48167E-07-2.09964E-03 2.28249E-14-2.56203E-13
 -1      2512 2.00007E+01-4.04753E-03 1.43235E-05-1.32385E-03 1.53778E-13 3.26472E-13
 -1      2513 2.00005E+01-3.81452E-03 4.22614E-06-1.61444E-03 6.77669E-14 3.37652E-13
 -1      2514 2.00007E+01-3.43906E-03-8.43084E-06-1.99215E-03 6.30504E-14 2.12499E-13
 -1      2515 1.99997E+01-2.20106E-03 9.87143E-06-2.33925E-03 1.23411E-13 2.00202E-13
 -1      2516 1.99994E+01-1.80783E-03-1.30123E-05-2.26668E-03 2.06273E-13 2.34320E-14
 -1      2517 2.00001E+01-2.93352E-03 1.16116E-05-2.26461E-03-1.98019E-13-9.41843E-14
 -1      2518 1.99999E+01-2.56262E-03-6.35439E-06-2.33242E-03-1.41773E-13 4.53724E-13
 -1      2519 1.99997E+01-2.25066E-03-7.35392E-06-2.66748E-03-8.10634E-15 1.11832E-13
 -1      2520 2.00003E+01-2.90041E-03-6.42168E-06-2.47703E-03-2.24858E-13-9.78527E-14
 -1      2521 2.00008E+01-4.32405E-03 1.36496E-05-5.97267E-04 7.42633E-14 6.34512E-14
 -1      2522 2.00007E+01-4.20198E-03 8.66824E-06-9.46405E-04 1.90900E-13 1.84972E-14
 -1      2523 2.00010E+01-3.82439E-03-1.02078E-05-1.28259E-03 1.76579E-13 1.82762E-13
 -1      2524 2.00008E+01-4.37457E-03 1.18043E-05 1.91850E-04-8.51862E-14 2.79855E-13
 -1      2525 2.00008E+01-4.37586E-03 1.18428E-05-1.76598E-04-1.42531E-13 2.71744E-13
 -1      2526 2.00011E+01-4.02294E-03-1.10451E-05-4.36757E-04 1.21737E-13 4.68167E-14
 -1      2527 2.00007E+01-4.19571E-03 8.76742E-06 9.60248E-04-1.75768E-13-4.27035E-13
 -1      2528 2.00008E+01-4.32050E-03 1.35927E-05 6.12091E-04-1.26979E-13-1.65870E-13
 -1      2529 2.00011E+01-4.02071E-03-1.10020E-05 4.53946E-04-1.11228E-13 8.07757E-14
 -1      2530 2.00005E+01-3.81277E-03 4.10527E-06 1.61533E-03 5.35482E-14-2.80075E-13
 -1      2531 2.00007E+01-4.04270E-03 1.42116E-05 1.33054E-03-7.61686E-15-3.49710E-13
 -1      2532 2.00010E+01-3.82068E-03-1.03193E-05 1.29139E-03-4.60684E-14-2.24079E-13
 -1      2533 2.00003E+01-3.24595E-03-1.23072E-06 2.09932E-03 2.63164E-13 3.39795E-14
 -1      2534 2.00004E+01-3.56540E-03 1.37538E-05 1.90567E-03 1.84975E-13-2.14897E-13
 -1      2535 2.00007E+01-3.43636E-03-8.72666E-06 1.99344E-03 5.38009E-14-1.95806E-13
 -1      2536 1.99999E+01-2.55183E-03-6.78472E-06 2.32972E-03 1.29845E-13 1.51551E-13
 -1      2537 2.00001E+01-2.92696E-03 1.18613E-05 2.26512E-03 1.36733E-13 1.07841E-15
 -1      2538 2.00003E+01-2.89060E-03-3.99937E-06 2.47943E-03 1.71467E-13-2.38873E-14
 -1      2539 1.99994E+01-1.79027E-03-1.09333E-05 2.24963E-03-1.30286E-13-2.11661E-13
 -1      2540 1.99996E+01-2.18764E-03 7.59349E-06 2.34019E-03-3.17499E-14-2.56825E-14
 -1      2541 1.99998E+01-2.23161E-03-9.46926E-08 2.66346E-03 2.22354E-15-7.37715E-14
 -1      2542 1.99992E+01-1.17578E-03-7.81565E-06 1.68421E-03-1.60882E-13 9.19942E-14
 -1      2543 3.67516E+00-2.40549E+00 1.02323E-01-1.19821E+00 6.61173E-14 7.94587E-13
 -1      2544 5.03015E+00-2.82988E+00 8.24778E-02-3.72116E+00 1.77386E-13 5.84699E-13
 -1      2545 2.32447E+01-3.62294E-01-1.38779E-02-3.36706E-01 8.23573E-14 3.42215E-13
 -1      2546 2.31860E+01-1.81415E-01 1.56559E-02-4.38880E-01 1.04531E-13 3.58334E-13
 -1      2547 2.31576E+01-6.06738E-01-1.04103E-02-3.66474E-01 6.42954E-14 2.50222E-13
 -1      2548 4.61360E+00-2.73720E+00 9.10412E-02 3.12245E+00-1.17240E-13 5.27189E-13
 -1      2549 3.75828E+00-2.36028E+00 1.12817E-01 1.16631E+00-1.15602E-13 6.23168E-13
 -1      2550 1.33623E+01-5.12611E+00 5.09794E-02-6.77634E+00 2.71116E-13 1.78232E-13
 -1      2551 1.70543E+01-5.36471E+00 8.84711E-03-6.88093E+00 2.24099E-13 1.32699E-13
 -1      2552 2.55729E+01-4.40962E+00-3.93772E-02 4.32994E+00 2.15744E-13 3.00870E-14
 -1      2553 2.22923E+01-5.21556E+00 2.72420E-02 5.24290E+00 7.68829E-14 1.83742E-14
 -1      2554 9.62588E+00-3.89635E+00 7.73145E-02 6.11703E+00-2.28123E-13 5.01793E-13
 -1      2555 6.51461E+00-3.42979E+00 8.63318E-02 4.62636E+00-1.96010E-13 6.02185E-13
 -1      2556 7.57744E+00-2.06686E+00 1.68158E-01 3.94452E+00-2.02213E-13 5.51559E-13
 -1      2557 3.23550E+01 7.39756E+00-9.19099E-02-2.17775E-01-5.77094E-13-1.45120E-13
 -1      2558 3.15891E+01 6.54507E+00-1.53944E-01-7.80369E-01-6.08957E-13-1.07081E-13
 -1      2559 3.13722E+01 3.97291E+00-1.30237E-01 1.35961E+00 4.18665E-13 3.47222E-14
 -1      2560 3.23285E+01 5.97746E+00-1.38815E-01 9.92052E-01 5.47784E-13-9.92262E-15
 -1      2561 1.66329E+01 4.24777E+00-1.13037E-02 2.63237E-01 1.32845E-13-3.91230E-13
 -1      2562 1.69118E+01 4.17701E+00 1.88510E-03 2.72765E-01 9.93786E-14-4.02227E-13
 -1      2563 1.71200E+01 3.78509E+00 2.28188E-03 4.16869E-01 8.68665E-14-3.76756E-13
 -1      2564 1.65316E+01 4.05943E+00 6.39656E-03 2.74492E-01 1.35653E-13-3.66364E-13
 -1      2565 3.19607E+01 7.10195E+00-1.91556E-01 3.98128E-01 6.87284E-13-5.27911E-14
 -1      2566 3.22663E+01 7.13768E+00-1.86562E-01-2.89441E-01 7.25475E-13-5.74193E-14
 -1      2567 1.94009E+01-5.29810E+00 2.41277E-04-6.10715E+00-1.12965E-13-4.38552E-13
 -1      2568 2.32016E+01-4.82776E+00-6.29656E-02-5.46625E+00-1.67089E-14-3.06810E-13
 -1      2569 3.25060E+01 6.61055E+00-1.75104E-01-8.45381E-01 7.15539E-13-7.46625E-14
 -1      2570 3.20665E+01 5.48078E+00-1.36928E-01-1.24925E+00 7.27585E-13-8.42382E-14
 -1      2571 2.98264E+01 6.53942E+00-4.67499E-02-7.84425E-01 7.44377E-13-8.82419E-14
 -1      2572 3.06628E+01-4.92509E-01-2.93647E-02 2.62504E-02 2.28623E-13 3.13360E-14
 -1      2573 3.11511E+01 1.08720E+00-2.02034E-01 7.45554E-01 3.20369E-13 7.60503E-14
 -1      2574 3.05189E+01-3.02357E-01-6.31588E-02-9.88335E-01-2.14231E-13-3.22464E-13
 -1      2575 3.19895E+01 1.52503E+00-9.84782E-02-1.21854E-01-3.00884E-13-3.16858E-13
 -1      2576 2.64135E+01-3.98908E+00 6.02639E-03-3.56284E+00 6.68909E-15-1.49963E-13
 -1      2577 2.91482E+01-2.56152E+00-1.40282E-01-1.86359E+00 1.18350E-13-3.36675E-14
 -1      2578 1.24282E+01-4.62539E+00 7.00308E-02-6.61465E+00-1.49353E-13-5.86253E-13
 -1      2579 1.58589E+01-5.06421E+00-4.10033E-03-6.96583E+00-9.75886E-14-5.50900E-13
 -1      2580 5.56443E+00-3.24932E+00 5.67829E-02-4.34321E+00-1.26482E-13-8.03579E-13
 -1      2581 8.35476E+00-3.75493E+00 1.44945E-02-5.99842E+00-9.64229E-14-7.30777E-13
 -1      2582 3.09644E+00-2.31672E+00 6.44517E-02 1.01366E-01-2.81199E-14-8.11240E-13
 -1      2583 3.79336E+00-2.37439E+00 6.91142E-02-2.35927E+00-1.03806E-14-8.30724E-13
 -1      2584 5.48336E+00-2.39514E+00 7.72421E-02 3.98736E+00 7.92283E-14-5.92526E-13
 -1      2585 3.71300E+00-2.39564E+00 9.14994E-02 1.96272E+00 3.79696E-14-7.07878E-13
 -1      2586 5.32007E+00-9.57690E-01 1.71518E-01 8.74692E-01 8.39190E-14-7.49067E-13
 -1      2587 1.23832E+01-4.47465E+00 3.22114E-02 6.93488E+00-2.79776E-14-3.06588E-13
 -1      2588 8.94845E+00-3.60136E+00 8.31425E-02 6.01994E+00 8.79297E-14-4.38344E-13
 -1      2589 1.95766E+01-5.02236E+00-1.58892E-02 6.38203E+00-9.79217E-14-8.77111E-14
 -1      2590 1.56416E+01-5.12358E+00 2.39914E-03 6.71241E+00-5.60108E-14-1.74832E-13
 -1      2591 1.56008E+01-4.35760E+00 1.23335E-01 6.60099E+00 1.35308E-13-1.82840E-13
 -1      2592 2.71294E+01-3.28274E+00-2.45073E-02 3.86975E+00-2.99150E-13-1.20931E-13
 -1      2593 2.37625E+01-4.57118E+00 3.88167E-03 4.88905E+00-1.92540E-13-6.13121E-14
 -1      2594 3.08876E+01-1.49431E-01-1.58436E-01 7.36091E-01-4.15570E-13-7.04992E-15
 -1      2595 2.91954E+01-1.82956E+00-1.17682E-02 2.10289E+00-3.72112E-13-7.93254E-14
 -1      2596 2.81703E+01-3.13357E+00 2.66901E-02 1.92888E+00-1.96357E-13 5.70655E-14
 -1      2597 3.17365E+01 4.38005E+00-1.82697E-01-1.20595E+00-5.78482E-13 2.13163E-14
 -1      2598 3.16654E+01 2.35223E+00-5.08265E-02-6.73433E-01-4.96075E-13-2.90878E-14
 -1      2599 3.29869E+01 6.85780E+00-7.80180E-02 7.41441E-01-5.29521E-13-1.92096E-13
 -1      2600 3.25785E+01 7.34626E+00-1.59899E-01 4.15153E-01-5.20584E-13-1.27058E-13
 -1      2601 3.26826E+01 3.89169E+00-5.96890E-02 5.85846E-01-4.25077E-13-2.63511E-13
 -1      2602 3.32515E+01 5.57251E+00-1.11464E-01 8.30658E-01-5.04152E-13-2.44388E-13
 -1      2603 3.10529E+01 5.78242E+00-5.06834E-02 1.29957E+00-4.52305E-13-2.46483E-13
 -1      2604 2.67685E+01-3.54538E+00-1.02218E-02-3.28216E+00-1.15324E-14-1.78246E-13
 -1      2605 2.93040E+01-2.03962E+00-5.58160E-02-2.37180E+00-1.37765E-13-2.26930E-13
 -1      2606 2.95661E+01-1.67675E+00 8.71662E-03-4.85400E-01-5.51165E-14-4.46143E-13
 -1      2607 2.01024E+01-5.39215E+00-2.05636E-04-5.97270E+00 1.86240E-13 8.35026E-14
 -1      2608 2.34923E+01-4.83673E+00-6.18974E-02-5.25949E+00 1.01530E-13-7.55229E-14
 -1      2609 1.97803E+01-5.42101E+00 8.27021E-02-6.06731E+00 3.85358E-13 1.93456E-14
 -1      2610 7.38185E+00-3.62383E+00 8.92924E-02-5.29035E+00 2.67036E-13 2.60958E-13
 -1      2611 9.90482E+00-4.14457E+00 5.86650E-02-6.45977E+00 2.63400E-13 2.15272E-13
 -1      2612 2.22994E+01 1.83905E+00-9.72750E-03-9.71014E-01-2.36464E-13-2.20560E-13
 -1      2613 2.23920E+01 1.04609E+00-1.10874E-02-4.08636E-01-2.15535E-13-1.74242E-13
 -1      2614 2.20477E+01 1.14940E+00 1.40936E-03-2.67929E-01-1.73975E-13-2.23862E-13
 -1      2615 2.16229E+01 2.26971E+00-7.67619E-03-8.30140E-01-2.13917E-13-2.85379E-13
 -1      2616 2.30591E+01 7.97061E-01-5.87132E-03 3.13662E-01 2.67959E-13 4.62184E-13
 -1      2617 2.32279E+01 1.18940E+00-5.45822E-03 8.02154E-01 2.87940E-13 5.14137E-13
 -1      2618 2.27645E+01 1.64827E+00-1.81099E-02 9.10666E-01 3.16835E-13 4.01656E-13
 -1      2619 2.26484E+01 9.37828E-01-1.34353E-02 1.92358E-01 2.67363E-13 3.06440E-13
 -1      2620 3.05311E+01-1.18937E+00-1.09280E-01 1.18294E+00 4.26287E-13-7.86038E-14
 -1      2621 2.81143E+01-2.99372E+00-2.04531E-02 2.42559E+00 3.25531E-13-4.95715E-14
 -1      2622 3.01618E+01 2.27419E+00-6.93641E-02 1.72461E+00 3.11501E-13 1.30590E-13
 -1      2623 1.92261E+01 2.89514E+00-3.14565E-03 1.52488E-01-5.07892E-14-3.88501E-13
 -1      2624 1.93682E+01 3.20832E+00-1.70373E-02-1.12585E-01-7.16950E-14-4.16943E-13
 -1      2625 1.99651E+01 3.03495E+00-1.07418E-02-3.15579E-01-1.11224E-13-4.08236E-13
 -1      2626 2.28127E+01-1.22565E-01-1.05182E-02-5.22696E-01 1.46811E-13 2.54132E-13
 -1      2627 2.20809E+01 2.07443E+00-1.32400E-02 7.83164E-01 3.23873E-13 2.36899E-13
 -1      2628 3.02606E+01-5.86939E-01-9.51791E-03-5.07899E-01 4.10533E-13-1.11078E-13
 -1      2629 7.87214E+00-2.26715E+00 1.71112E-01-4.34731E+00 2.85424E-13 3.61183E-13
 -1      2630 2.06553E+01-5.56737E+00 1.29595E-02 5.72191E+00-8.08520E-14 1.39277E-13
 -1      2631 1.91397E+01-5.07401E+00 1.58861E-01 6.03260E+00-1.60871E-13 1.33914E-13
 -1      2632 2.29038E+01-5.51168E+00-4.22646E-02 4.56350E+00-1.26302E-13 1.12410E-14
 -1      2633 1.99990E+01-1.02714E-03-4.38994E-06-1.83791E-03-5.09472E-14 4.09024E-13
 -1      2634 1.33508E+01-4.23705E+00 1.21360E-01-6.46522E+00 4.02289E-13 1.50324E-13
 -1      2635 1.99991E+01-1.32489E-03 1.49705E-06-2.04932E-03 2.63261E-15 1.54847E-13
 -1      2636 2.10023E+01 2.52750E+00-1.32928E-02-6.10553E-01-1.62840E-13-3.43097E-13
 -1      2637 1.99988E+01-9.70385E-04-1.26412E-05 1.98337E-03-2.23775E-13 1.50823E-13
 -1      2638 1.99992E+01-1.44580E-03 5.56505E-06 2.19369E-03-1.69419E-13-3.05459E-13
 -1      2639 1.99992E+01-1.55040E-03-3.93507E-06 2.59673E-03-2.91285E-13-2.50055E-13
 -1      2640 1.99985E+01-9.31373E-04-1.48075E-05 2.29986E-03-2.49529E-13 2.92476E-13
 -1      2641 1.51976E+01-4.46787E+00 9.25134E-03 6.28293E+00-2.69063E-13 1.48104E-13
 -1      2642 1.24659E+01-4.17857E+00 1.31690E-01 6.38384E+00-2.38948E-13 3.24588E-13
 -1      2643 1.20444E+01-3.07039E+00 1.63436E-01 5.87547E+00-2.65843E-13 3.31873E-13
 -1      2644 3.10458E+01 2.24408E+00-1.89600E-02 1.21045E+00-2.73559E-13-3.61128E-13
 -1      2645 5.57232E+00-1.32467E+00 1.80321E-01-1.41730E-01-2.15106E-14 6.40210E-13
 -1      2646 2.18889E+01 1.75848E+00 1.17842E-02 3.89487E-01 2.99575E-13 1.78792E-13
 -1      2647 2.85927E+01 5.56119E+00-1.51299E-01-1.41643E+00-4.91024E-13-1.09066E-13
 -1      2648 3.05194E+01 5.11783E+00-1.28655E-01-1.43405E+00-5.61107E-13-3.36814E-14
 -1      2649 2.88937E+01 3.63331E+00-1.12861E-01-1.88911E+00-4.90913E-13 2.33841E-14
 -1      2650 1.99991E+01-1.43791E-03-7.70726E-06-2.48166E-03 1.12863E-13 2.07592E-13
 -1      2651 3.02627E+01 5.85640E-01-2.25876E-02-7.79087E-01-3.65707E-13 5.56222E-14
 -1      2652 3.02272E+01 6.97826E+00-8.70046E-02 9.07445E-02-5.39291E-13-1.58712E-13
 -1      2653 2.24273E+01-5.09589E+00 2.91309E-02 5.28949E+00-6.31717E-14-2.49245E-14
 -1      2654 2.10575E+01-4.88051E+00 1.24348E-01 5.52782E+00 8.49043E-14 1.53471E-14
 -1      2655 2.44485E+01-4.99427E+00-1.12228E-01 3.93502E+00 1.57652E-14 6.47746E-14
 -1      2656 8.30424E+00-2.40639E+00 1.56081E-01 5.10212E+00 1.31006E-13-5.06151E-13
 -1      2657 8.18568E+00-9.91736E-01 1.84167E-01 3.98714E+00 1.73001E-13-5.18335E-13
 -1      2658 1.11167E+01-2.46820E+00 2.85074E-02 5.77323E+00 2.22253E-13-3.37647E-13
 -1      2659 6.33801E+00-1.70655E+00 1.56348E-01-3.27524E+00-6.81816E-14-7.89924E-13
 -1      2660 2.97521E+01 6.02643E+00-4.94593E-02 9.83784E-01 5.78926E-13-7.18176E-15
 -1      2661 1.18801E+01-3.64347E+00 1.18776E-01-6.24553E+00-1.90403E-13-6.22669E-13
 -1      2662 2.54015E+01-4.73584E+00 5.98302E-02-3.77363E+00-1.19377E-13-8.25173E-14
 -1      2663 2.57175E+01-4.57452E+00 3.29949E-02-3.57712E+00 1.74305E-13-2.27068E-13
 -1      2664 2.72362E+01-4.15157E+00 8.75854E-03 2.46717E+00 1.78982E-13-1.24206E-13
 -1      2665 3.05618E+01 3.92012E+00-6.50452E-02-1.79280E+00 6.25250E-13-1.63369E-13
 -1      2666 1.91937E+01-5.08753E+00 8.94667E-02-6.12191E+00-2.28373E-13-3.75743E-13
 -1      2667 2.91367E+01-2.20283E+00-1.75570E-02-3.90007E-01 7.56947E-14 7.09988E-14
 -1      2668 1.99987E+01-1.16849E-03 4.78732E-06 2.75215E-03-2.05665E-13-1.53542E-13
 -1      2669 1.68933E+01 3.60207E+00 4.38218E-03-3.79908E-01 2.06124E-13-3.08914E-13
 -1      2670 1.65132E+01 3.72008E+00-1.26846E-02-2.90646E-01 1.94206E-13-3.31797E-13
 -1      2671 1.62699E+01 3.85253E+00-2.78648E-03-6.84450E-02 1.92004E-13-3.46804E-13
 -1      2672 1.61775E+01 3.87741E+00-5.65950E-03 7.06807E-02 1.66602E-13-3.44284E-13
 -1      2673 1.62959E+01 3.53286E+00 1.34893E-02-2.70562E-01 1.83574E-13-3.32427E-13
 -1      2674 1.93142E+01 2.54934E+00 2.55594E-03-3.91880E-01 2.67398E-13-1.56410E-13
 -1      2675 1.86231E+01 2.80221E+00-1.33171E-02-4.83217E-01 2.54925E-13-2.05895E-13
 -1      2676 2.07256E+01 1.91309E+00 1.67829E-03-1.52289E-01 2.69868E-13-3.76201E-14
 -1      2677 2.00128E+01 2.21678E+00-8.08691E-03-2.81530E-01 2.70304E-13-1.04374E-13
 -1      2678 1.97600E+01 1.94354E+00-2.44506E-03-6.10348E-01 2.30534E-13-1.13239E-13
 -1      2679 2.22256E+01 4.29858E-01-5.90173E-03-4.94812E-01 1.87256E-13 1.68540E-13
 -1      2680 2.22002E+01 7.70462E-01 1.66906E-02-2.80362E-01 2.17459E-13 1.70807E-13
 -1      2681 2.25207E+01-2.25482E-01-9.26058E-03-6.92139E-01 1.07532E-13 1.80869E-13
 -1      2682 2.24115E+01 1.09534E-01 2.04224E-02-6.57993E-01 1.41456E-13 1.68264E-13
 -1      2683 2.18527E+01 3.85979E-01-7.48905E-03-6.84587E-01 1.69723E-13 8.64435E-14
 -1      2684 2.18224E+01 1.41556E+00-3.49818E-03 7.61968E-02 2.72568E-13 1.39325E-13
 -1      2685 8.09762E+00-1.09989E+00 1.56986E-01-3.34207E+00 3.42601E-13 4.15501E-13
 -1      2686 1.00328E+01-2.05575E+00 8.17137E-02-5.06963E+00 3.44613E-13 1.70419E-13
 -1      2687 2.21912E+01-5.73151E-02 2.09753E-02 4.71826E-01-1.00343E-13-1.60921E-13
 -1      2688 2.23148E+01-4.22597E-01-1.07948E-02 4.78146E-01-8.17321E-14-1.64368E-13
 -1      2689 2.26718E+01-7.50384E-01 2.34461E-02 4.24224E-01-6.94023E-14-1.29952E-13
 -1      2690 2.28469E+01-1.07371E+00-1.50915E-02 2.60042E-01-6.07335E-14-1.36087E-13
 -1      2691 2.22037E+01-6.73731E-01-1.90514E-02 6.74281E-01-6.66814E-14-1.70815E-13
 -1      2692 2.33138E+01-1.32289E+00 2.14033E-02 4.95826E-03-2.54358E-14-9.91008E-14
 -1      2693 2.34926E+01-1.50494E+00-1.91141E-02-3.10675E-01-2.08928E-14-6.29186E-14
 -1      2694 2.29630E+01-1.43623E+00-2.02447E-02 4.18389E-01-2.79093E-14-1.46002E-13
 -1      2695 2.39820E+01-1.54020E+00 7.77531E-03-7.59296E-01-2.06697E-14-3.77376E-14
 -1      2696 2.40933E+01-1.39505E+00-1.41443E-02-1.14459E+00-7.84490E-14-4.79711E-14
 -1      2697 2.38937E+01-1.85887E+00-1.34533E-02-2.50071E-01-1.56936E-14-1.25305E-13
 -1      2698 2.43988E+01-1.03558E+00-2.35780E-02-1.64015E+00-1.23289E-13 1.16964E-15
 -1      2699 2.43769E+01-4.23026E-01-4.38995E-03-1.89449E+00-1.38391E-13-2.22088E-15
 -1      2700 2.47456E+01-1.49655E+00 2.25906E-03-1.24289E+00-7.61500E-14-2.11740E-14
 -1      2701 2.43449E+01 3.85100E-01-5.60628E-02-2.11789E+00-1.86959E-13-1.40365E-14
 -1      2702 2.41995E+01 1.32117E+00 6.30115E-03-1.97520E+00-2.51056E-13-6.80254E-14
 -1      2703 2.51536E+01-8.97564E-02-4.56884E-03-2.06168E+00-1.81313E-13 5.76275E-14
 -1      2704 2.39225E+01 2.17946E+00-7.11172E-02-1.53724E+00-2.43819E-13-1.47929E-13
 -1      2705 2.37775E+01 2.83781E+00-2.67162E-02-9.34715E-01-2.48780E-13-1.47302E-13
 -1      2706 2.49637E+01 2.16333E+00-2.43445E-02-1.97026E+00-2.81289E-13-4.24938E-14
 -1      2707 2.37080E+01 3.11980E+00-3.39718E-02 4.31479E-02-2.56021E-13-1.81275E-13
 -1      2708 2.36959E+01 2.92842E+00-6.73534E-02 7.90884E-01-1.82791E-13-1.49187E-13
 -1      2709 2.46446E+01 3.68877E+00-2.77784E-02-4.66893E-01-2.58189E-13-1.37674E-13
 -1      2710 2.39443E+01 2.38272E+00 3.19267E-04 1.63345E+00-1.42025E-13-1.94858E-13
 -1      2711 2.40625E+01 1.50153E+00-7.98446E-02 2.06721E+00-9.27643E-14-2.06355E-13
 -1      2712 2.47097E+01 3.30307E+00-2.31452E-02 1.41233E+00-1.91416E-13-2.51462E-13
 -1      2713 2.43039E+01 6.11379E-01 1.56698E-02 2.22628E+00-5.02480E-14-2.45360E-13
 -1      2714 2.44281E+01-2.91485E-01-3.24452E-02 2.19943E+00-2.23883E-14-2.07430E-13
 -1      2715 2.50353E+01 1.26034E+00-4.98768E-03 2.36490E+00-9.37757E-14-3.50796E-13
 -1      2716 2.42577E+01-9.61231E-01-1.01764E-02 1.76083E+00 3.12918E-14-1.85021E-13
 -1      2717 2.42714E+01-1.39836E+00 9.28968E-03 1.45061E+00 3.21457E-14-1.40808E-13
 -1      2718 2.49391E+01-9.11235E-01-7.33845E-02 1.97435E+00 2.11393E-14-2.68251E-13
 -1      2719 2.37951E+01-1.66800E+00-2.36526E-02 8.42363E-01 1.03639E-14 1.27916E-14
 -1      2720 2.36541E+01-1.67953E+00 2.27544E-02 4.52594E-01-3.22637E-15 4.96391E-14
 -1      2721 2.43182E+01-2.05779E+00-7.18430E-02 8.99804E-01 1.13406E-13-1.19497E-13
 -1      2722 2.31061E+01-1.61696E+00-1.94408E-02-2.60836E-02-5.56183E-14 1.45487E-13
 -1      2723 2.28755E+01-1.41104E+00 2.18274E-02-3.54686E-01 3.14401E-14 1.40948E-13
 -1      2724 2.33490E+01-2.12737E+00-6.04407E-02-1.29612E-01 2.62490E-14 1.19928E-13
 -1      2725 2.24073E+01-1.20320E+00-1.13928E-02-6.42651E-01 4.34505E-14 1.12325E-13
 -1      2726 2.21621E+01-9.48384E-01 1.56660E-02-8.63016E-01 6.72822E-14 1.17794E-13
 -1      2727 2.24072E+01-1.63883E+00-4.14791E-02-8.26353E-01 5.02463E-14 1.60964E-13
 -1      2728 2.18193E+01-7.23923E-01-4.87075E-03-9.96340E-01 5.03775E-14 1.07398E-13
 -1      2729 2.15997E+01-5.05713E-01 9.37596E-03-1.11419E+00 5.12775E-14 2.38193E-14
 -1      2730 2.16594E+01-1.02327E+00-2.42852E-02-1.19406E+00 3.11561E-14 1.91465E-13
 -1      2731 2.13705E+01-3.23567E-01-8.99168E-04-1.14538E+00 1.08201E-13 4.12344E-14
 -1      2732 2.11877E+01-1.67938E-01 4.59238E-03-1.18502E+00 1.32943E-13 4.34709E-14
 -1      2733 2.11295E+01-4.93725E-01-1.20507E-02-1.32588E+00 7.31046E-14 1.31803E-13
 -1      2734 2.10424E+01-4.21730E-02 1.22868E-03-1.15582E+00 9.16464E-14 6.01739E-14
 -1      2735 2.08940E+01 5.42092E-02 1.46584E-03-1.14312E+00 8.26158E-14 1.19502E-13
 -1      2736 2.07773E+01-1.13402E-01-4.51364E-03-1.31110E+00 1.38234E-13 4.35554E-14
 -1      2737 2.08040E+01 1.30088E-01 2.29303E-03-1.08180E+00 1.29264E-15 8.71750E-14
 -1      2738 2.06835E+01 1.80739E-01-3.40889E-04-1.03813E+00-9.83259E-15 5.39948E-14
 -1      2739 2.05499E+01 1.25574E-01-3.66856E-04-1.21352E+00-1.83211E-14 1.20979E-13
 -1      2740 2.06277E+01 2.19431E-01 2.77059E-03-9.62725E-01 5.03441E-14 4.17686E-15
 -1      2741 2.05291E+01 2.38759E-01-1.24607E-03-9.03764E-01 1.06106E-13-3.27490E-14
 -1      2742 2.04029E+01 2.55068E-01 1.63614E-03-1.07473E+00-7.18134E-15 2.69748E-14
 -1      2743 2.04934E+01 2.52585E-01 2.90581E-03-8.25396E-01 1.18001E-13-3.86290E-14
 -1      2744 2.04123E+01 2.52425E-01-1.59030E-03-7.61709E-01 1.41589E-13-6.98661E-14
 -1      2745 2.03052E+01 3.08960E-01 2.38497E-03-9.20973E-01 8.13668E-14 2.08763E-14
 -1      2746 2.03882E+01 2.51090E-01 2.82984E-03-6.86959E-01 1.00957E-13-1.34338E-13
 -1      2747 2.03214E+01 2.40028E-01-1.61386E-03-6.25127E-01 1.18500E-13-1.98951E-13
 -1      2748 2.02371E+01 3.15154E-01 2.45700E-03-7.68406E-01 7.27287E-14 2.06190E-14
 -1      2749 2.03042E+01 2.30393E-01 2.62323E-03-5.57578E-01 9.30937E-14-2.49167E-13
 -1      2750 2.02494E+01 2.14173E-01-1.47241E-03-5.01301E-01-2.30767E-14-2.46510E-13
 -1      2751 2.01869E+01 2.94026E-01 2.20329E-03-6.26501E-01 6.58229E-15-1.65061E-13
 -1      2752 2.02363E+01 2.00742E-01 2.34233E-03-4.42575E-01-2.26602E-14-2.61159E-13
 -1      2753 2.01918E+01 1.82959E-01-1.26076E-03-3.93584E-01 2.60741E-14-2.30253E-13
 -1      2754 2.01481E+01 2.59351E-01 1.82546E-03-5.00244E-01 3.12757E-14-4.43952E-14
 -1      2755 2.01815E+01 1.68509E-01 2.02847E-03-3.44048E-01 3.42926E-14-2.57852E-13
 -1      2756 2.01458E+01 1.51257E-01-1.03326E-03-3.02809E-01 2.30469E-14-2.49171E-13
 -1      2757 2.01172E+01 2.19871E-01 1.43169E-03-3.91630E-01 3.55287E-14-2.87412E-13
 -1      2758 2.01374E+01 1.37381E-01 1.71127E-03-2.62064E-01 5.43607E-14-2.05078E-13
 -1      2759 2.01092E+01 1.21765E-01-8.18702E-04-2.28284E-01 3.78217E-14-1.43736E-13
 -1      2760 2.00920E+01 1.80786E-01 1.07436E-03-3.00721E-01 8.40880E-14-2.79610E-13
 -1      2761 2.01023E+01 1.09285E-01 1.41063E-03-1.95503E-01 8.25915E-15-1.35494E-13
 -1      2762 2.00803E+01 9.57826E-02-6.30427E-04-1.68473E-01-1.34078E-14-1.90681E-13
 -1      2763 2.00714E+01 1.44927E-01 7.74129E-04-2.26402E-01 4.73508E-15-1.87594E-13
 -1      2764 2.00747E+01 8.50404E-02 1.13851E-03-1.42631E-01 3.16434E-14-1.29979E-13
 -1      2765 2.00579E+01 7.37530E-02-4.72823E-04-1.21456E-01 7.48284E-14-1.10395E-13
 -1      2766 2.00547E+01 1.13605E-01 5.34590E-04-1.66917E-01 4.27443E-14-2.88894E-13
 -1      2767 2.00533E+01 6.48028E-02 9.00843E-04-1.01476E-01-6.77835E-14-2.02450E-13
 -1      2768 2.00407E+01 5.56185E-02-3.45390E-04-8.52203E-02-1.59290E-13-8.42260E-14
 -1      2769 2.00413E+01 8.72026E-02 3.50974E-04-1.20239E-01-3.66399E-14-3.12594E-13
 -1      2770 2.00370E+01 4.83548E-02 6.99216E-04-7.00711E-02-7.68149E-14-3.50598E-14
 -1      2771 2.00277E+01 4.10526E-02-2.45201E-04-5.78411E-02-7.70982E-14 7.67696E-14
 -1      2772 2.00306E+01 6.55627E-02 2.15061E-04-8.43076E-02-6.94669E-17-6.23553E-14
 -1      2773 2.00248E+01 3.52900E-02 5.32349E-04-4.65838E-02-8.81437E-14 1.11207E-13
 -1      2774 2.00181E+01 2.96057E-02-1.68353E-04-3.75747E-02-4.13925E-14 8.17057E-14
 -1      2775 2.00222E+01 4.82423E-02 1.17845E-04-5.71798E-02-8.89372E-14 7.59417E-14
 -1      2776 2.00159E+01 2.51283E-02 3.97246E-04-2.93898E-02-1.69085E-14 1.12966E-13
 -1      2777 2.00112E+01 2.07927E-02-1.10773E-04-2.29048E-02 3.40042E-14 1.51524E-13
 -1      2778 2.00157E+01 3.46722E-02 5.08655E-05-3.71111E-02-4.55322E-14 1.59453E-13
 -1      2779 2.00094E+01 1.73836E-02 2.90044E-04-1.70986E-02 2.43442E-14 4.99967E-14
 -1      2780 2.00063E+01 1.41443E-02-6.86488E-05-1.25524E-02 3.25582E-14 1.68097E-15
 -1      2781 2.00108E+01 2.42545E-02 6.78174E-06-2.25903E-02-8.65385E-14-4.15403E-14
 -1      2782 2.00050E+01 1.16016E-02 2.06603E-04-8.55238E-03 9.09362E-14-1.44277E-13
 -1      2783 2.00029E+01 9.23406E-03-3.86326E-05-5.46608E-03 1.89650E-14-1.47978E-13
 -1      2784 2.00071E+01 1.64178E-02-2.04562E-05-1.23467E-02-1.51089E-13-3.88787E-13
 -1      2785 2.00020E+01 7.37867E-03 1.42881E-04-2.80996E-03-4.88790E-14-3.70184E-14
 -1      2786 2.00007E+01 5.69020E-03-1.79041E-05-8.00086E-04-1.73299E-13-8.75880E-14
 -1      2787 2.00044E+01 1.06472E-02-3.56534E-05-5.33656E-03-3.02468E-14-2.55501E-13
 -1      2788 2.00000E+01 4.36890E-03 9.51682E-05 8.77498E-04-1.39721E-13-7.92493E-14
 -1      2789 1.99993E+01 3.19839E-03-4.16820E-06 2.11148E-03-4.10795E-15-6.92077E-14
 -1      2790 2.00025E+01 6.49600E-03-4.25111E-05-7.21937E-04-5.62725E-14 2.23113E-15
 -1      2791 1.99989E+01 2.28325E-03 6.02013E-05 3.09359E-03 1.47556E-13 7.36098E-14
 -1      2792 1.99986E+01 1.49892E-03 4.38915E-06 3.78225E-03 1.38668E-13 1.97033E-13
 -1      2793 2.00012E+01 3.58786E-03-4.38046E-05 2.15660E-03 1.12376E-13-9.13060E-14
 -1      2794 1.99982E+01 8.85159E-04 3.52068E-05 4.28349E-03 6.70186E-14 2.66840E-13
 -1      2795 1.99982E+01 3.80796E-04 9.16084E-06 4.59960E-03 8.18679E-14 3.73507E-13
 -1      2796 2.00004E+01 1.61269E-03-4.15646E-05 3.80715E-03 7.58546E-14 5.20097E-14
 -1      2797 1.99980E+01-1.62600E-05 1.78991E-05 4.77875E-03-1.26196E-13 3.17192E-13
 -1      2798 1.99981E+01-3.25390E-04 1.11931E-05 4.84807E-03-1.77547E-13 1.26629E-13
 -1      2799 1.99998E+01 3.19035E-04-3.72449E-05 4.61254E-03-1.40972E-13-5.27996E-14
 -1      2800 1.99980E+01-5.73786E-04 6.44903E-06 4.81892E-03-1.56921E-13 9.43017E-14
 -1      2801 1.99982E+01-7.55077E-04 1.12369E-05 4.72951E-03 4.82172E-14-5.79559E-14
 -1      2802 1.99995E+01-4.94780E-04-3.18323E-05 4.85359E-03-1.84155E-13-2.26973E-15
 -1      2803 1.99981E+01-9.09399E-04-6.68332E-07 4.57015E-03 1.91190E-13-2.18502E-14
 -1      2804 1.99984E+01-1.01562E-03 1.06264E-05 4.37980E-03 2.34567E-13 4.41528E-14
 -1      2805 1.99993E+01-9.89150E-04-2.56589E-05 4.72942E-03 1.31685E-13-1.91222E-13
 -1      2806 1.99984E+01-1.13219E-03-8.21943E-06 4.14368E-03 8.33008E-14-1.77834E-14
 -1      2807 1.99987E+01-1.20126E-03 6.10771E-06 3.87713E-03 3.35708E-14-1.44430E-13
 -1      2808 1.99993E+01-1.28477E-03-1.69267E-05 4.37872E-03 9.57634E-14-2.99958E-13
 -1      2809 1.99987E+01-1.28469E-03-5.26966E-06 3.59735E-03-7.11486E-14-2.33367E-13
 -1      2810 1.99989E+01-1.36933E-03 2.28590E-07 3.28670E-03-2.06624E-13-4.05092E-13
 -1      2811 1.99993E+01-1.50205E-03 9.53733E-07 3.88198E-03-7.43994E-14-3.05313E-13
 -1      2812 2.43349E+01-1.58802E+00-1.85887E-02 9.00119E-01 1.56338E-14 2.24924E-13
 -1      2813 2.41926E+01-1.58137E+00 1.44533E-02 4.64674E-01 2.54289E-14 2.34003E-13
 -1      2814 2.36546E+01-1.44022E+00-2.19380E-02 1.04419E-02 3.14627E-14 1.82145E-13
 -1      2815 2.34584E+01-1.17370E+00 2.16462E-02-3.16399E-01 3.73504E-14 1.98529E-13
 -1      2816 2.39222E+01-1.89175E+00-2.61735E-02-6.65685E-02 2.26039E-14 1.48322E-13
 -1      2817 2.47145E+01 7.61866E-01-5.47012E-03 2.24075E+00 8.18165E-14 3.25859E-13
 -1      2818 2.48749E+01-1.88342E-01-5.97217E-02 2.26051E+00 5.50705E-14 2.73235E-13
 -1      2819 2.42841E+01 2.55496E+00-3.47587E-02 1.39479E+00 2.43930E-13 2.63631E-13
 -1      2820 2.44885E+01 1.71149E+00-8.69908E-02 1.94762E+00 1.63130E-13 2.90715E-13
 -1      2821 2.55792E+01 1.44649E+00-8.97402E-03 2.24844E+00 1.12375E-13 2.94143E-13
 -1      2822 2.41462E+01 3.05505E+00-5.93997E-02-5.03249E-01 3.75703E-13 7.25114E-14
 -1      2823 2.41640E+01 3.07491E+00-4.90418E-02 3.53635E-01 3.25573E-13 1.66257E-13
 -1      2824 2.52409E+01 3.53183E+00-3.88437E-02 9.67012E-01 3.71703E-13 2.06602E-13
 -1      2825 2.44770E+01 1.77041E+00-8.30732E-02-2.10332E+00 3.03972E-13-1.70543E-13
 -1      2826 2.43230E+01 2.61381E+00-9.35977E-03-1.50842E+00 3.84810E-13-5.83075E-14
 -1      2827 2.52523E+01 3.55909E+00-5.43312E-02-1.12219E+00 4.59612E-13-8.53831E-15
 -1      2828 2.48930E+01-1.62883E-01-5.37493E-02-2.42685E+00 2.59214E-13-2.91246E-13
 -1      2829 2.47358E+01 8.11260E-01 8.41734E-03-2.39090E+00 2.42289E-13-2.59447E-13
 -1      2830 2.55666E+01 1.52422E+00-3.99853E-02-2.44047E+00 3.54633E-13-3.72546E-13
 -1      2831 2.48009E+01-1.40801E+00-4.79859E-03-1.66525E+00 7.33805E-14-2.61379E-13
 -1      2832 2.47673E+01-9.04615E-01-1.11529E-02-2.01086E+00 1.91666E-13-2.45840E-13
 -1      2833 2.55250E+01-7.82282E-01-5.77611E-02-2.21876E+00 1.85310E-13-3.29119E-13
 -1      2834 2.41834E+01-1.70647E+00 1.72562E-02-5.41042E-01-9.44040E-14-1.16429E-13
 -1      2835 2.43238E+01-1.68705E+00-2.32547E-02-1.00057E+00-2.73095E-14-1.39276E-13
 -1      2836 2.48971E+01-2.05981E+00-3.92729E-02-1.06979E+00-6.55242E-14-1.70926E-13
 -1      2837 2.33653E+01-1.39101E+00 2.01108E-02 3.81313E-01-6.33369E-15-5.81082E-14
 -1      2838 2.36060E+01-1.61343E+00-2.01059E-02-4.83153E-03-4.84322E-14-7.09902E-14
 -1      2839 2.38457E+01-2.13697E+00-3.21155E-02 9.38932E-02-1.02439E-13-1.24377E-13
 -1      2840 2.26059E+01-8.87101E-01 1.47562E-02 9.60285E-01 1.31427E-13 3.12347E-14
 -1      2841 2.28677E+01-1.15661E+00-1.33334E-02 7.05617E-01 1.06878E-13 1.30795E-16
 -1      2842 2.28181E+01-1.59948E+00-2.16390E-02 8.92427E-01-2.90891E-15 1.35308E-16
 -1      2843 2.19998E+01-4.27518E-01 8.90086E-03 1.23722E+00-1.22606E-14 1.41478E-13
 -1      2844 2.22407E+01-6.49282E-01-6.76033E-03 1.10768E+00 7.92424E-14 1.03036E-13
 -1      2845 2.20062E+01-9.44423E-01-1.26949E-02 1.31403E+00 2.77846E-14 3.11435E-14
 -1      2846 2.15460E+01-9.71439E-02 4.39910E-03 1.30424E+00 1.26989E-14 1.25660E-13
 -1      2847 2.17538E+01-2.46740E-01-2.17131E-03 1.26776E+00 1.47756E-14 1.55731E-13
 -1      2848 2.14343E+01-4.02335E-01-5.99362E-03 1.46128E+00-1.16207E-14 8.21582E-14
 -1      2849 2.12094E+01 1.04791E-01 1.57775E-03 1.24401E+00 2.78411E-14-5.80399E-15
 -1      2850 2.13854E+01 1.86486E-02 6.36513E-04 1.26708E+00 4.93008E-14 8.63893E-14
 -1      2851 2.10513E+01-3.35396E-02-1.92865E-03 1.43908E+00 4.20991E-14 1.15233E-13
 -1      2852 2.09544E+01 2.08537E-01 3.09682E-05 1.11619E+00-2.48329E-14-9.75986E-14
 -1      2853 2.11033E+01 1.68115E-01 2.22438E-03 1.17211E+00-6.60585E-15-2.99727E-14
 -1      2854 2.07952E+01 1.82206E-01 2.15478E-04 1.32314E+00 5.09409E-14-3.60962E-14
 -1      2855 2.07556E+01 2.47104E-01-6.85617E-04 9.60156E-01 9.16503E-16-1.77460E-13
 -1      2856 2.08812E+01 2.35800E-01 3.00722E-03 1.03031E+00-3.72905E-14-1.50628E-13
 -1      2857 2.06181E+01 2.86798E-01 1.11949E-03 1.16256E+00-5.50569E-15-1.59476E-13
 -1      2858 2.05964E+01 2.46825E-01-9.24284E-04 8.00135E-01 2.75455E-14-7.67323E-14
 -1      2859 2.07019E+01 2.52187E-01 3.27140E-03 8.72731E-01 1.29848E-14-1.04561E-13
 -1      2860 2.04888E+01 3.19729E-01 1.33831E-03 9.87895E-01-4.20461E-14-2.26240E-13
 -1      2861 2.04671E+01 2.25947E-01-9.16275E-04 6.49922E-01 3.85336E-14-1.83298E-13
 -1      2862 2.05548E+01 2.39654E-01 3.20905E-03 7.18197E-01-2.44222E-15-9.65504E-14
 -1      2863 2.03892E+01 3.10910E-01 1.22609E-03 8.17424E-01 7.25420E-14-2.61020E-13
 -1      2864 2.03617E+01 1.96035E-01-7.99136E-04 5.16428E-01 1.21700E-13-2.44789E-13
 -1      2865 2.04337E+01 2.12955E-01 2.95600E-03 5.77005E-01 8.76919E-14-1.74231E-13
 -1      2866 2.03093E+01 2.80576E-01 9.88658E-04 6.61271E-01 7.49842E-14-2.61647E-13
 -1      2867 2.02762E+01 1.63897E-01-6.48012E-04 4.02237E-01 2.36546E-13-9.80433E-14
 -1      2868 2.03344E+01 1.81091E-01 2.60658E-03 4.53875E-01 1.97142E-13-1.20192E-13
 -1      2869 2.02439E+01 2.41382E-01 7.32783E-04 5.24262E-01 8.14114E-14-1.18436E-13
 -1      2870 2.02074E+01 1.33241E-01-5.00189E-04 3.07357E-01 2.28559E-13-4.80953E-14
 -1      2871 2.02537E+01 1.49167E-01 2.22385E-03 3.50073E-01 2.54581E-13-4.23537E-14
 -1      2872 2.01900E+01 2.00719E-01 5.06304E-04 4.07853E-01 2.42193E-13-8.45997E-14
 -1      2873 2.01529E+01 1.05860E-01-3.71572E-04 2.30373E-01-5.12741E-14-7.63066E-14
 -1      2874 2.01891E+01 1.19824E-01 1.84755E-03 2.64860E-01 1.45307E-13-3.69927E-15
 -1      2875 2.01459E+01 1.62560E-01 3.25151E-04 3.11469E-01 9.76494E-14 9.08203E-14
 -1      2876 2.01103E+01 8.24214E-02-2.66810E-04 1.69188E-01-2.39365E-14-8.49799E-14
 -1      2877 2.01382E+01 9.42194E-02 1.50065E-03 1.96453E-01-8.99755E-14-9.29302E-14
 -1      2878 2.01101E+01 1.28782E-01 1.89650E-04 2.33400E-01-8.93000E-14 4.21683E-14
 -1      2879 2.00776E+01 6.29627E-02-1.85125E-04 1.21472E-01-1.27686E-13 6.10981E-14
 -1      2880 2.00986E+01 7.26580E-02 1.19460E-03 1.42618E-01-6.07418E-14-1.22884E-15
 -1      2881 2.00816E+01 1.00026E-01 9.36010E-05 1.71400E-01-9.24159E-14 2.44743E-14
 -1      2882 2.00529E+01 4.71939E-02-1.23493E-04 8.49380E-02-1.24154E-13 3.01921E-14
 -1      2883 2.00684E+01 5.49834E-02 9.33278E-04 1.01035E-01-1.06595E-13 6.41182E-14
 -1      2884 2.00591E+01 7.62403E-02 2.89478E-05 1.23061E-01-1.17931E-13 1.05496E-13
 -1      2885 2.00346E+01 3.46763E-02-7.82664E-05 5.74787E-02-2.49033E-13 1.01522E-13
 -1      2886 2.00459E+01 4.08119E-02 7.15913E-04 6.95022E-02-1.99807E-13 1.65501E-14
 -1      2887 2.00418E+01 5.70184E-02-1.20499E-05 8.60486E-02-1.81596E-13 6.38033E-14
 -1      2888 2.00213E+01 2.49247E-02-4.59465E-05 3.72404E-02-2.49272E-13 2.21056E-13
 -1      2889 2.00293E+01 2.96692E-02 5.39069E-04 4.60419E-02-2.86872E-13 1.67840E-13
 -1      2890 2.00287E+01 4.17945E-02-3.59691E-05 5.82263E-02-3.14131E-13 8.38953E-14
 -1      2891 2.00120E+01 1.74653E-02-2.34913E-05 2.26426E-02-1.75955E-14 2.98900E-13
 -1      2892 2.00174E+01 2.10675E-02 3.98000E-04 2.89421E-02-1.64339E-13 3.29786E-13
 -1      2893 2.00189E+01 2.99595E-02-4.80299E-05 3.77167E-02-2.79455E-13 8.87360E-15
 -1      2894 2.00056E+01 1.18642E-02-8.40022E-06 1.23718E-02 1.71013E-13 3.16265E-13
 -1      2895 2.00092E+01 1.45478E-02 2.87522E-04 1.67636E-02 1.69701E-13 4.09867E-13
 -1      2896 2.00118E+01 2.09251E-02-5.21913E-05 2.29202E-02 1.89010E-14 1.43744E-13
 -1      2897 2.00014E+01 7.74102E-03 1.30800E-06 5.35948E-03-3.60815E-14 3.54538E-13
 -1      2898 2.00036E+01 9.69950E-03 2.02536E-04 8.32385E-03 1.30712E-13 3.54152E-13
 -1      2899 2.00067E+01 1.41560E-02-5.13510E-05 1.25073E-02 7.79437E-14 3.53902E-13
 -1      2900 1.99987E+01 4.77175E-03 7.15854E-06 7.53565E-04-4.22438E-14 1.56639E-13
 -1      2901 2.00000E+01 6.16817E-03 1.38339E-04 2.67105E-03-2.64334E-14 3.03490E-13
 -1      2902 2.00033E+01 9.18480E-03-4.75628E-05 5.39635E-03 3.58875E-14 1.67517E-13
 -1      2903 1.99973E+01 2.68697E-03 1.02937E-05-2.11309E-03-1.28812E-13 3.14570E-13
 -1      2904 1.99979E+01 3.65584E-03 9.07680E-05-9.46401E-04-1.20313E-13 2.26798E-13
 -1      2905 2.00010E+01 5.61440E-03-4.22328E-05 7.24316E-04-7.23177E-14-9.61859E-14
 -1      2906 1.99966E+01 1.26661E-03 1.15411E-05-3.75287E-03-2.74766E-13 1.56874E-13
 -1      2907 1.99967E+01 1.91700E-03 5.62583E-05-3.11111E-03-1.38446E-13 2.98700E-13
 -1      2908 1.99995E+01 3.11525E-03-3.62859E-05-2.18439E-03-1.11609E-13 5.56686E-14
 -1      2909 1.99964E+01 3.33357E-04 1.14766E-05-4.55111E-03-1.54860E-13 1.23083E-13
 -1      2910 1.99963E+01 7.52634E-04 3.18383E-05-4.26577E-03-2.34853E-13 6.53484E-14
 -1      2911 1.99987E+01 1.41850E-03-3.02975E-05-3.84860E-03-2.27424E-13-2.49451E-14
 -1      2912 1.99966E+01-2.54254E-04 1.04894E-05-4.79034E-03-8.24005E-14 2.40144E-13
 -1      2913 1.99963E+01 3.29922E-06 1.50968E-05-4.73915E-03-1.31793E-13 1.54500E-13
 -1      2914 1.99983E+01 3.07786E-04-2.45884E-05-4.65822E-03-2.02540E-13 5.19614E-14
 -1      2915 1.99970E+01-6.08777E-04 8.82244E-06-4.67081E-03 3.30766E-14 6.70297E-14
 -1      2916 1.99966E+01-4.57889E-04 4.11789E-06-4.76844E-03 1.46470E-15 8.04576E-14
 -1      2917 1.99982E+01-3.89506E-04-1.93119E-05-4.89880E-03 4.19057E-14-8.64593E-14
 -1      2918 1.99974E+01-8.19850E-04 6.91516E-06-4.32740E-03 1.85510E-13-4.21117E-14
 -1      2919 1.99970E+01-7.32058E-04-2.65265E-06-4.51804E-03 7.34963E-14 5.21608E-14
 -1      2920 1.99982E+01-8.10515E-04-1.44569E-05-4.77254E-03 1.37003E-13-1.47245E-13
 -1      2921 1.99979E+01-9.61749E-04 3.49434E-06-3.83800E-03 3.29133E-13 7.49393E-14
 -1      2922 1.99975E+01-9.07849E-04-8.70440E-06-4.09554E-03 2.59017E-13 2.08258E-14
 -1      2923 1.99984E+01-1.06180E-03-8.90484E-06-4.41886E-03 1.30907E-13-1.64540E-13
 -1      2924 1.99984E+01-1.09650E-03-4.17250E-06-3.25855E-03 3.26061E-13 2.48381E-13
 -1      2925 1.99980E+01-1.03288E-03-9.68706E-06-3.56169E-03 3.78861E-13 1.66303E-13
 -1      2926 1.99987E+01-1.23535E-03 6.73055E-06-3.91930E-03 2.35877E-13 1.03095E-13
 -1      2927 1.99989E+01-1.29598E-03-7.86918E-06-2.71216E-03 8.29708E-14 2.85191E-13
 -1      2928 1.99986E+01-1.22122E-03-1.22842E-05-3.05560E-03 1.95596E-13 2.80005E-13
 -1      2929 1.99990E+01-1.43863E-03 1.30734E-05-3.40704E-03 2.26398E-13 1.16654E-13
 -1      2930 1.99994E+01-1.72069E-03 1.32054E-05-2.92773E-03 1.74012E-13 1.38350E-13
 -1      2931 1.28371E+01-3.29526E+00 1.28550E-01-6.02960E+00 4.17222E-13 2.46470E-14
 -1      2932 1.60463E+01-4.48620E+00 4.19313E-02-6.47820E+00 5.00988E-13 2.77972E-14
 -1      2933 2.00016E+01-3.74274E-03 8.03359E-06-2.47317E-04 1.85182E-13-3.58502E-14
 -1      2934 2.00015E+01-3.69794E-03 4.85363E-06-7.02756E-04 3.26756E-13-2.10202E-13
 -1      2935 2.89736E+01 9.33013E-01-1.78628E-01-1.69747E+00-3.34774E-13 4.73233E-14
 -1      2936 2.90297E+01-1.05080E+00-3.31055E-02-7.55488E-01-2.07702E-13 7.93809E-14
 -1      2937 2.00011E+01-3.30948E-03 1.20290E-05-2.01990E-03 1.31867E-13 2.75776E-13
 -1      2938 2.00009E+01-3.09552E-03-1.93529E-06-2.33550E-03 7.61029E-14-2.69028E-14
 -1      2939 2.00015E+01-3.69452E-03 4.96276E-06 7.21575E-04-1.86400E-13 1.56017E-14
 -1      2940 2.00016E+01-3.74171E-03 8.03247E-06 2.66600E-04-9.29746E-14 7.32084E-14
 -1      2941 2.00020E+01-3.49250E-03-7.96703E-06 1.06408E-05 1.27355E-13-3.13493E-13
 -1      2942 2.00015E+01-3.61219E-03 1.06420E-05-1.19260E-03 1.85356E-13 1.29520E-13
 -1      2943 2.00013E+01-3.47803E-03 1.42475E-06-1.60159E-03 5.22182E-14 5.78325E-13
 -1      2944 2.00015E+01-3.18173E-03-6.94407E-06-1.96240E-03 2.38182E-14 3.29344E-13
 -1      2945 2.00019E+01-3.41477E-03-7.74376E-06-1.02539E-03 2.35807E-13-2.72197E-14
 -1      2946 2.00013E+01-3.47632E-03 1.11221E-06 1.60366E-03-6.36007E-14-1.87951E-13
 -1      2947 2.00015E+01-3.60871E-03 1.05487E-05 1.20240E-03-1.64858E-13-1.41157E-14
 -1      2948 2.00019E+01-3.41205E-03-7.81204E-06 1.03712E-03-1.74645E-13 4.66508E-14
 -1      2949 2.00009E+01-3.09596E-03-4.29388E-06 2.33786E-03 1.99623E-13-1.03909E-13
 -1      2950 2.00011E+01-3.30696E-03 1.25466E-05 2.02074E-03 3.62594E-14-8.77958E-14
 -1      2951 2.00015E+01-3.17854E-03-7.20586E-06 1.96430E-03-1.52168E-14-6.36906E-14
 -1      2952 2.00003E+01-2.56675E-03-2.29816E-06 2.80282E-03 1.07843E-13-1.29350E-13
 -1      2953 2.00006E+01-2.84414E-03 1.23730E-05 2.62986E-03 2.24504E-13-1.80497E-13
 -1      2954 2.00010E+01-2.79324E-03-7.24685E-06 2.70723E-03 1.94276E-13-2.11102E-13
 -1      2955 2.30067E+01-8.81633E-01-1.53948E-02-5.34804E-01 5.69651E-14 1.62215E-13
 -1      2956 2.28312E+01-5.45961E-01 2.15908E-02-6.86401E-01 6.78477E-14 1.85300E-13
 -1      2957 2.22819E+01-4.25373E-01-1.16931E-02-8.81946E-01 8.41298E-14 7.97590E-14
 -1      2958 2.29807E+01-1.24586E+00-1.81282E-02-7.01764E-01 2.90915E-14 7.15807E-14
 -1      2959 2.81818E+01-2.72936E+00-7.18719E-03-3.51730E-01 5.05863E-14-4.41119E-13
 -1      2960 2.87866E+01-1.39433E+00-1.77007E-01 6.05654E-01-7.15816E-14-4.66654E-13
 -1      2961 2.08632E+01 2.15196E+00-5.19231E-03-2.85628E-01-1.44705E-13-3.30095E-13
 -1      2962 9.84889E+00-1.67923E+00 1.20073E-01 4.50570E+00-1.99785E-13 5.74873E-13
 -1      2963 8.12006E+00-9.30063E-01 1.61598E-01 2.92592E+00-1.62474E-13 5.07899E-13
 -1      2964 6.84393E+00-4.86240E-01 1.38158E-01-2.27454E+00-1.47243E-14-7.14678E-13
 -1      2965 8.41324E+00-1.37169E+00 1.01450E-01-4.39300E+00-1.02043E-13-6.75737E-13
 -1      2966 2.94241E+01 8.14702E-01-8.34782E-02 1.56938E+00-1.59928E-13-4.03982E-13
 -1      2967 2.96150E+01 2.75752E+00-1.91907E-01 1.88963E+00-2.85938E-13-3.47500E-13
 -1      2968 2.47963E+01-8.99559E-01-1.49474E-03 1.84661E+00 4.21581E-14 2.60984E-13
 -1      2969 2.47797E+01-1.37600E+00-1.04814E-02 1.48874E+00 1.26420E-14 2.62478E-13
 -1      2970 2.49315E+01-1.87255E+00-2.09890E-02 1.01927E+00-8.60423E-15 2.53755E-13
 -1      2971 2.56032E+01-8.19802E-01-1.56825E-02 2.03021E+00 3.59816E-14 2.84973E-13
 -1      2972 2.18753E+01 6.92824E-01 1.23309E-02 1.84331E-01-1.21272E-13-2.21472E-13
 -1      2973 2.19427E+01 3.01994E-01-8.83861E-03 3.60312E-01-1.11721E-13-1.96350E-13
 -1      2974 2.16796E+01 1.89611E-01-1.24520E-02 5.63470E-01-8.30881E-14-2.11001E-13
 -1      2975 2.91245E+01-2.06868E-01-2.02630E-01-1.59587E+00 3.74478E-13-1.72737E-13
 -1      2976 2.88161E+01-2.01402E+00-1.59599E-02-5.66053E-01 2.40238E-13-1.65368E-13
 -1      2977 1.99991E+01-1.48826E-03-2.18334E-06 2.82930E-03-1.19372E-13-3.51019E-13
 -1      2978 1.99994E+01-1.80334E-03-3.46736E-06 2.90084E-03-9.73176E-14-4.30514E-13
 -1      2979 1.99989E+01-1.43462E-03-7.24548E-06 3.06898E-03-8.56529E-14-3.81208E-13
 -1      2980 1.79793E+01 3.13451E+00 6.40007E-03-4.97538E-01 2.50726E-13-2.54985E-13
 -1      2981 1.73853E+01 3.33128E+00-1.55503E-02-4.98263E-01 2.22244E-13-2.89546E-13
 -1      2982 1.71037E+01 3.14865E+00 6.74569E-03-6.34149E-01 1.92787E-13-2.77162E-13
 -1      2983 1.83366E+01 2.57579E+00-9.82063E-04-7.41176E-01 2.11152E-13-2.17238E-13
 -1      2984 1.78101E+01 3.08167E+00-1.32465E-02 6.42399E-01 5.36281E-14-3.57469E-13
 -1      2985 1.84095E+01 2.86807E+00 4.97396E-03 5.74248E-01 1.33340E-14-3.51736E-13
 -1      2986 2.42749E+01-5.06258E+00 5.45086E-02-3.77690E+00 3.53551E-13-2.23668E-13
 -1      2987 2.67085E+01-4.28833E+00-1.16753E-01-2.13113E+00 1.80161E-13-3.45640E-13
 -1      2988 1.83599E+01-4.49441E+00 1.38783E-01-5.97624E+00-2.62304E-13-3.48895E-13
 -1      2989 2.12519E+01-5.11770E+00-3.80683E-02-5.41415E+00-2.23654E-13-1.94096E-13
 -1      2990 6.86734E+00-6.04778E-01 1.36462E-01 1.24294E+00-9.57706E-14 4.28241E-13
 -1      2991 6.77471E+00-6.16214E-01 1.20998E-01-1.19775E+00 1.24487E-13 4.82087E-13
 -1      2992 9.20407E+00-2.55279E-01 1.67028E-01 1.91890E+00-9.64229E-14 4.73177E-13
 -1      2993 1.10220E+01-2.43769E+00 1.50634E-01-5.58102E+00-2.15480E-13-5.87003E-13
 -1      2994 1.44044E+01-3.65979E+00 9.01230E-03-6.38620E+00-2.37144E-13-4.69763E-13
 -1      2995 2.79640E+01-3.28465E+00 3.09945E-02-6.71030E-01-6.98937E-14 1.18600E-13
 -1      2996 2.85627E+01-1.74808E+00-1.60697E-01 8.06070E-01 5.29472E-14 1.68879E-13
 -1      2997 2.40124E+01-4.97786E+00 8.00595E-02-4.04391E+00-1.95344E-13-7.08114E-14
 -1      2998 2.61553E+01-4.59310E+00-1.30515E-01-2.53780E+00-1.20827E-13 7.33025E-14
 -1      2999 2.30210E+01-4.73573E+00 6.87896E-02-4.12268E+00-2.40960E-13-7.26363E-14
 -1      3000 2.71897E+01 3.58032E+00-1.57216E-01 2.10159E+00 3.19911E-13 2.31447E-13
 -1      3001 2.69238E+01 4.76201E+00-1.64564E-01 1.10320E+00 4.68375E-13 1.38233E-13
 -1      3002 6.64304E+00-2.48470E-01 1.25201E-01 1.74451E+00 1.32300E-13-6.47399E-13
 -1      3003 6.27714E+00-1.23073E-01 1.69871E-01-2.32787E-01 8.95083E-14-7.48929E-13
 -1      3004 1.77741E+01-4.28133E+00 3.29618E-02 6.28506E+00 1.50935E-13-6.28664E-14
 -1      3005 1.51379E+01-3.36297E+00 1.89825E-01 6.21563E+00 2.12233E-13-1.77081E-13
 -1      3006 2.86848E+01 6.29940E+00-1.55297E-01 7.58834E-01-4.84363E-13-2.35312E-13
 -1      3007 2.82085E+01 6.30426E+00-1.95236E-01-2.98405E-01-4.87638E-13-1.98060E-13
 -1      3008 2.81931E+01-2.86988E+00-1.55054E-01 7.65061E-01-1.76322E-13 1.16088E-13
 -1      3009 2.69804E+01-3.92252E+00 4.81812E-02 2.06721E+00-5.78218E-14 8.56953E-14
 -1      3010 2.95438E+01 4.44183E+00-1.34436E-01 1.92094E+00-4.14030E-13-2.94251E-13
 -1      3011 2.89938E+01 5.64512E+00-2.04377E-01 1.44143E+00-4.52582E-13-2.35076E-13
 -1      3012 2.87162E+01 4.07243E+00-2.02913E-01-2.09543E+00 6.20365E-13-2.00229E-13
 -1      3013 2.93512E+01 2.16416E+00-7.70155E-02-2.29071E+00 5.30437E-13-2.34091E-13
 -1      3014 2.82485E+01 5.27927E-01-5.21945E-02-2.24081E+00 3.82694E-13-2.68452E-13
 -1      3015 2.76506E+01-3.71508E+00-1.14800E-01 1.05102E+00 1.03445E-13-2.23668E-13
 -1      3016 2.57792E+01-4.72857E+00 2.98087E-03 2.57556E+00 1.24692E-14-2.05364E-13
 -1      3017 1.90552E+01-4.98524E+00 9.98984E-02-5.86944E+00 5.21416E-13-6.29080E-14
 -1      3018 2.15737E+01-5.37700E+00-3.93839E-02-5.26981E+00 4.37247E-13-1.27199E-13
 -1      3019 1.90326E+01 2.55752E+00-1.00672E-02 4.66830E-01-1.76697E-14-3.50592E-13
 -1      3020 1.96649E+01 2.31630E+00-9.64548E-04 3.19154E-01-6.75959E-14-3.59701E-13
 -1      3021 1.88264E+01 2.28203E+00 5.21157E-04 7.61204E-01 5.51382E-15-3.22559E-13
 -1      3022 1.61055E+01 3.60779E+00 1.36064E-02 2.29809E-01 1.52364E-13-3.26290E-13
 -1      3023 1.62419E+01 3.82448E+00-1.10723E-02 3.12132E-01 1.52010E-13-3.45939E-13
 -1      3024 1.64617E+01 3.74807E+00 1.64065E-03 4.28552E-01 1.24447E-13-3.48972E-13
 -1      3025 2.13295E+01 1.46562E+00-7.88444E-03-1.50794E-01 2.65791E-13 3.71023E-14
 -1      3026 2.76345E+01-3.00682E+00-1.87941E-02-2.22539E-01 6.00045E-14-2.36852E-13
 -1      3027 9.09782E+00-3.25104E-01 1.82370E-01-2.03193E+00 2.53561E-13 3.26822E-13
 -1      3028 2.46103E+01-5.09425E+00 1.71955E-02 3.34996E+00-4.86694E-14-2.13350E-13
 -1      3029 2.29082E+01-4.86947E+00 6.48649E-02 3.92554E+00-1.13180E-13-7.70764E-14
 -1      3030 2.53435E+01-4.62772E+00-6.76061E-02 1.91693E+00-9.38451E-14-3.34940E-13
 -1      3031 1.99993E+01-1.67561E-03-6.96627E-06 3.36450E-03-9.84615E-14-4.50491E-13
 -1      3032 2.83701E+01-3.61428E-01-9.78476E-03 1.71398E+00-3.23977E-14-4.77243E-13
 -1      3033 1.37265E+01-2.45952E+00 5.93797E-02 5.21522E+00-1.64688E-13 3.15345E-13
 -1      3034 1.16989E+01-2.00803E+00 1.58004E-01 4.94344E+00-1.83312E-13 4.57273E-13
 -1      3035 1.19226E+01-1.08834E+00 1.00634E-01 4.09121E+00-7.24976E-14 5.52391E-13
 -1      3036 1.84327E+01-4.31638E+00 1.09734E-01-5.64363E+00 5.54418E-13-4.40620E-15
 -1      3037 1.28959E+01-2.25313E+00 1.54060E-01-5.17740E+00 3.99195E-13 6.89171E-14
 -1      3038 1.99997E+01-2.05957E-03-3.92151E-06-2.92176E-03 1.06278E-13-1.03512E-13
 -1      3039 1.99996E+01-1.91056E-03-1.07563E-05-3.19235E-03 8.44149E-14-1.72578E-14
 -1      3040 2.00001E+01-2.38319E-03 1.23895E-05-2.90768E-03-9.47729E-14-2.26037E-14
 -1      3041 2.86630E+01 5.15890E+00-1.88949E-01-1.71752E+00 6.88949E-13-1.40998E-13
 -1      3042 2.78027E+01 3.71099E+00-9.59826E-02-2.15518E+00 5.76025E-13-2.13801E-13
 -1      3043 2.83964E+01 5.93766E+00-1.36605E-01-9.49332E-01 7.40658E-13-1.29022E-13
 -1      3044 2.79883E+01-2.07671E+00-2.59970E-02-4.08018E-01-1.30715E-13 1.08441E-13
 -1      3045 2.84374E+01 3.13948E+00-3.20441E-02 2.24512E+00-2.32897E-13-4.00291E-13
 -1      3046 1.99998E+01-2.13349E-03 3.27797E-06 2.89256E-03 9.33302E-14-1.92566E-13
 -1      3047 2.76258E+01 5.38592E+00-6.43665E-02 1.23413E+00-4.19914E-13-3.20237E-13
 -1      3048 1.76581E+01-4.57629E+00 1.05443E-01 5.99967E+00-1.94275E-13 2.44776E-13
 -1      3049 1.64581E+01-3.70901E+00 1.03785E-01 5.80097E+00-2.18089E-13 2.56684E-13
 -1      3050 1.97658E+01-4.72455E+00 1.06104E-02 5.15510E+00-1.17031E-13 2.52555E-13
 -1      3051 8.17985E+00 2.38801E-01 1.84953E-01-1.35383E+00 2.98511E-14-6.80928E-13
 -1      3052 2.02242E+01-4.38574E+00 5.30805E-02 5.22383E+00 1.66964E-13-7.67789E-15
 -1      3053 8.33200E+00-2.03058E-01 1.96105E-01 2.88770E+00 1.76928E-13-5.37459E-13
 -1      3054 8.96816E+00 5.00350E-01 1.43102E-01 1.92784E+00 1.64271E-13-5.61953E-13
 -1      3055 1.00753E+01-4.86658E-01 2.20042E-02 3.93355E+00 2.28130E-13-4.23023E-13
 -1      3056 2.66871E+01-3.88424E+00 1.63772E-03-1.25922E+00-1.30125E-13 1.16518E-13
 -1      3057 2.04164E+01 1.96970E+00-2.45058E-03 1.20299E-01-9.59677E-14-3.41034E-13
 -1      3058 2.14282E+01 1.46117E+00-2.73548E-03-1.28865E-01-1.55669E-13-2.78888E-13
 -1      3059 2.15945E+01 9.89488E-01-6.00763E-03 1.10583E-01-1.36445E-13-2.50545E-13
 -1      3060 2.02457E+01 1.64073E+00-1.59712E-03 4.52147E-01-7.68412E-14-3.26481E-13
 -1      3061 1.72089E+01-3.58552E+00 1.23666E-01-5.70864E+00-2.65732E-13-3.70023E-13
 -1      3062 1.13287E+01-1.28463E+00 1.84390E-01-4.65822E+00-1.71696E-13-5.60246E-13
 -1      3063 2.55163E+01-4.39098E+00 3.40408E-02 2.76002E+00 3.12528E-14 8.31835E-14
 -1      3064 1.38766E+01-2.34027E+00 1.39678E-01 5.59378E+00 2.29636E-13-2.42112E-13
 -1      3065 1.99998E+01-1.91388E-03 3.02555E-06 3.24417E-03-1.12278E-13-2.69168E-13
 -1      3066 2.00001E+01-2.32416E-03-8.60008E-07 3.00976E-03 1.44307E-14-1.54132E-13
 -1      3067 2.00004E+01-2.29634E-03 1.02177E-05 3.18584E-03 7.77865E-15-3.73170E-13
 -1      3068 1.99997E+01-1.83811E-03 7.64302E-06 3.47434E-03-1.37584E-13-3.42784E-13
 -1      3069 2.10951E+01 1.19487E+00-5.67793E-03-4.98056E-01 2.26560E-13 3.51227E-15
 -1      3070 2.00007E+01-2.89675E-03 1.17637E-05-2.58143E-03-3.06350E-14-1.09112E-13
 -1      3071 2.00004E+01-2.62573E-03-2.11664E-06-2.75861E-03-2.73295E-13 1.71986E-13
 -1      3072 2.00004E+01-2.44234E-03-1.18639E-07-3.03341E-03 2.81162E-15-6.42613E-14
 -1      3073 2.00010E+01-2.84448E-03-9.94557E-06-2.65068E-03 1.55239E-13 8.88466E-14
 -1      3074 1.68067E+01 3.53798E+00-1.48981E-02 5.87924E-01 1.09405E-13-3.41105E-13
 -1      3075 1.72714E+01 3.37609E+00 5.25503E-03 6.23082E-01 7.63128E-14-3.54856E-13
 -1      3076 1.75653E+01 2.86521E+00 4.39417E-03 8.51304E-01 6.98196E-14-3.31987E-13
 -1      3077 1.65712E+01 3.35386E+00 8.08181E-03 6.60044E-01 1.11893E-13-3.23624E-13
 -1      3078 2.69300E+01-3.66778E+00-2.20948E-02-8.97597E-01 2.26548E-13-4.24008E-13
 -1      3079 2.34667E+01-4.93339E+00 5.69155E-02-3.80991E+00 4.54206E-13-2.06613E-13
 -1      3080 2.69088E+01 5.23712E+00-1.77133E-01 6.69352E-02 6.06862E-13 5.01630E-14
 -1      3081 2.76398E+01-1.42261E+00-4.02395E-02 1.41138E+00 1.78711E-14 2.47254E-13
 -1      3082 2.86459E+01-1.50019E-01-5.42983E-02 1.95137E+00 1.17101E-13 2.66717E-13
 -1      3083 2.12390E+01 9.75378E-01-1.88346E-03 3.34834E-01-9.47787E-14-2.62519E-13
 -1      3084 2.73139E+01 2.02884E+00-1.27134E-01 2.27853E+00 1.94761E-13 2.47323E-13
 -1      3085 2.82923E+01 2.03459E+00-1.68424E-01 2.24697E+00 2.25903E-13 2.09222E-13
 -1      3086 2.70780E+01-2.36051E+00-1.35045E-01-1.15086E+00 5.28362E-14-2.74020E-13
 -1      3087 2.67096E+01-3.40342E+00 7.13516E-02 8.12435E-02-8.48488E-14-2.85591E-13
 -1      3088 2.02539E+01 1.36359E+00 9.05511E-03-8.37451E-01 1.84298E-13-8.66485E-14
 -1      3089 1.94875E+01 1.66410E+00-6.30406E-03-9.46754E-01 1.76456E-13-1.37762E-13
 -1      3090 2.75339E+01 2.79257E+00-9.45374E-02-2.25057E+00-4.13891E-13 8.66529E-14
 -1      3091 2.86727E+01 1.78793E+00-1.28126E-01-2.00835E+00-4.07743E-13 8.45018E-14
 -1      3092 2.11433E+01 6.02513E-01 1.59413E-02 6.94592E-01-6.06029E-14-2.63864E-13
 -1      3093 2.13347E+01 1.12802E-01-3.32213E-03 8.52314E-01-5.55110E-14-2.44422E-13
 -1      3094 2.59369E+01-3.95081E+00 8.16682E-02-1.23488E+00 3.19989E-13-3.73590E-13
 -1      3095 2.67356E+01-3.07987E+00-1.23341E-01 2.66663E-01 1.76997E-13-4.86652E-13
 -1      3096 2.25377E+01-1.33409E+00 3.22170E-02 9.80009E-01-2.12157E-14-1.31641E-13
 -1      3097 2.29402E+01-1.79348E+00-1.23960E-02 8.00591E-01 5.22499E-15-1.29314E-13
 -1      3098 2.37240E+01-2.12758E+00 4.14033E-02 4.90350E-01-1.75641E-15-9.31822E-14
 -1      3099 2.41304E+01-2.35218E+00-2.53082E-02 1.04617E-01-3.91197E-14-8.89954E-14
 -1      3100 2.30321E+01-2.28260E+00-3.85799E-02 1.18119E+00 8.03481E-15-7.18878E-14
 -1      3101 2.50080E+01-2.31780E+00 7.84194E-03-5.09952E-01-8.70224E-15-3.32338E-14
 -1      3102 2.53472E+01-1.88722E+00-1.56427E-02-1.03478E+00-4.20601E-14 2.61917E-14
 -1      3103 2.45734E+01-2.82077E+00-5.31351E-02 3.91438E-01-9.44557E-16 3.67328E-16
 -1      3104 2.57316E+01-1.01413E+00-5.76643E-02-1.80195E+00-1.25734E-13 9.15015E-14
 -1      3105 2.58026E+01 1.48693E-01-3.68200E-02-2.06419E+00-2.16875E-13 1.13451E-13
 -1      3106 2.61405E+01 1.03019E+00-8.92542E-02-2.29662E+00-2.94834E-13 9.25197E-14
 -1      3107 2.60151E+01 2.43455E+00-6.27654E-02-1.96745E+00-3.42504E-13 3.42556E-14
 -1      3108 2.56177E+01 4.62911E+00-1.20868E-01-6.64960E-01-3.77726E-13-1.36759E-13
 -1      3109 2.55204E+01 4.74801E+00-1.76811E-01 3.36181E-01-3.31873E-13-2.29733E-13
 -1      3110 2.59885E+01 4.40620E+00-1.24343E-01 1.21690E+00-2.96596E-13-3.29265E-13
 -1      3111 2.60779E+01 3.31057E+00-1.88994E-01 2.01317E+00-2.28900E-13-4.27120E-13
 -1      3112 2.64422E+01 2.12541E+00-1.02237E-01 2.24847E+00-1.32352E-13-4.52412E-13
 -1      3113 2.65330E+01 5.25158E-01-1.50359E-01 2.30619E+00-7.17065E-14-4.21694E-13
 -1      3114 2.58913E+01-1.65134E+00 3.61964E-04 1.33756E+00 1.10009E-13-4.17291E-13
 -1      3115 2.56618E+01-2.41907E+00 6.31261E-02 7.99221E-01 1.98787E-13-3.70474E-13
 -1      3116 2.45913E+01-2.66535E+00 2.51315E-02 6.14180E-02 2.12282E-13-2.64259E-13
 -1      3117 2.41023E+01-2.73417E+00 7.85152E-02-5.20858E-01 2.09375E-13-1.80658E-13
 -1      3118 2.45613E+01-3.71052E+00-1.01213E-01-1.02210E+00 2.98184E-13-3.22745E-13
 -1      3119 2.31730E+01-2.42308E+00 3.86167E-02-8.93569E-01 1.62877E-13-5.54973E-14
 -1      3120 2.26173E+01-2.17236E+00 5.61228E-02-1.30552E+00 1.27760E-13 2.70227E-14
 -1      3121 2.25481E+01-3.21130E+00-9.60333E-02-1.97563E+00 2.79662E-13-9.69710E-14
 -1      3122 2.19826E+01-1.71594E+00 3.58202E-02-1.39637E+00 5.01257E-14 5.42448E-14
 -1      3123 2.15041E+01-1.39158E+00 3.05623E-02-1.61927E+00 3.35404E-14 4.42684E-14
 -1      3124 2.11156E+01-2.14382E+00-7.29309E-02-2.22772E+00 1.19778E-13-3.52843E-15
 -1      3125 2.11305E+01-9.85888E-01 2.54934E-02-1.57076E+00 2.42922E-14 7.41161E-14
 -1      3126 2.07803E+01-7.02773E-01 1.30446E-02-1.65555E+00 2.79681E-14 4.53264E-14
 -1      3127 2.02713E+01-1.14918E+00-4.38888E-02-2.11956E+00 5.35093E-14 7.39907E-14
 -1      3128 2.05885E+01-4.04617E-01 1.55564E-02-1.55417E+00 7.18718E-15 9.99009E-14
 -1      3129 2.03550E+01-1.98246E-01 3.06379E-03-1.55453E+00 4.34839E-14 4.83850E-14
 -1      3130 1.98326E+01-4.13855E-01-2.20926E-02-1.88003E+00 4.65288E-14 7.00755E-14
 -1      3131 2.02748E+01-4.08435E-03 8.34866E-03-1.44002E+00 1.01872E-13-5.85351E-14
 -1      3132 2.01270E+01 1.27608E-01-1.95081E-03-1.39350E+00 4.15173E-14-7.30744E-14
 -1      3133 1.96428E+01 6.60926E-02-8.79511E-03-1.61579E+00-2.01484E-14 4.91405E-14
 -1      3134 2.01094E+01 2.39731E-01 3.81826E-03-1.28180E+00 7.20183E-15-2.54169E-14
 -1      3135 2.00177E+01 3.12277E-01-4.09763E-03-1.21183E+00-4.11944E-14-5.31123E-14
 -1      3136 1.95936E+01 3.46668E-01-1.51001E-03-1.36616E+00 2.63787E-14-1.44258E-13
 -1      3137 2.00318E+01 3.66191E-01 1.27282E-03-1.10871E+00-8.08045E-14 1.44139E-15
 -1      3138 1.99744E+01 3.96944E-01-4.72937E-03-1.02956E+00 1.03632E-14-1.66950E-14
 -1      3139 1.96168E+01 4.86346E-01 2.08071E-03-1.14179E+00 6.51669E-15 7.08369E-15
 -1      3140 2.00021E+01 4.12633E-01-1.08576E-05-9.36985E-01 7.72901E-14-7.57445E-15
 -1      3141 1.99648E+01 4.16387E-01-4.60527E-03-8.57307E-01 6.84489E-14-1.60961E-14
 -1      3142 1.96719E+01 5.32883E-01 3.55278E-03-9.43799E-01-8.37687E-15 2.53596E-14
 -1      3143 1.99958E+01 4.08842E-01-5.57223E-04-7.75840E-01 3.31355E-14-6.36619E-14
 -1      3144 1.99701E+01 3.96717E-01-4.13560E-03-7.00763E-01 1.39857E-14-9.29170E-14
 -1      3145 1.97363E+01 5.21817E-01 3.88018E-03-7.70892E-01 2.75820E-14-8.75307E-14
 -1      3146 1.99994E+01 3.76443E-01-7.06172E-04-6.30355E-01-2.52748E-14-1.11389E-13
 -1      3147 1.99804E+01 3.56163E-01-3.53755E-03-5.62723E-01-3.91006E-14-7.54288E-14
 -1      3148 1.97980E+01 4.78187E-01 3.63542E-03-6.21484E-01-4.21875E-14-1.32583E-13
 -1      3149 2.00057E+01 3.30135E-01-6.62090E-04-5.02940E-01-4.35514E-14-7.01212E-14
 -1      3150 1.99908E+01 3.06740E-01-2.92427E-03-4.44055E-01-7.78720E-15-1.05471E-13
 -1      3151 1.98518E+01 4.18859E-01 3.14330E-03-4.94006E-01-4.01854E-14-1.98010E-14
 -1      3152 2.00115E+01 2.79346E-01-5.40360E-04-3.94183E-01-5.39877E-14-9.99270E-14
 -1      3153 1.99993E+01 2.55925E-01-2.35276E-03-3.44320E-01 1.46155E-14-1.37308E-13
 -1      3154 1.98957E+01 3.54688E-01 2.58103E-03-3.86807E-01-4.68766E-14-1.08918E-13
 -1      3155 2.00155E+01 2.29754E-01-4.01654E-04-3.03438E-01 4.00010E-14-2.29428E-13
 -1      3156 2.00055E+01 2.08049E-01-1.84906E-03-2.62211E-01-3.04846E-14-2.56770E-13
 -1      3157 1.99301E+01 2.92269E-01 2.03982E-03-2.98064E-01-9.71797E-14-1.84757E-13
 -1      3158 2.00176E+01 1.84477E-01-2.74747E-04-2.29274E-01-2.89913E-14-2.78139E-13
 -1      3159 2.00093E+01 1.65345E-01-1.42180E-03-1.95907E-01 4.80573E-14-2.40781E-13
 -1      3160 1.99560E+01 2.35276E-01 1.56172E-03-2.25786E-01-2.89769E-14-3.01396E-13
 -1      3161 2.00181E+01 1.44966E-01-1.70759E-04-1.69825E-01 3.75819E-14-3.10758E-13
 -1      3162 2.00113E+01 1.28700E-01-1.06993E-03-1.43349E-01 7.62496E-15-3.46641E-13
 -1      3163 1.99748E+01 1.85448E-01 1.16137E-03-1.67884E-01 2.12489E-14-3.38213E-13
 -1      3164 2.00175E+01 1.11625E-01-9.16493E-05-1.23049E-01 4.34446E-14-3.27629E-13
 -1      3165 2.00119E+01 9.81846E-02-7.87226E-04-1.02437E-01 3.76179E-14-2.62863E-13
 -1      3166 1.99879E+01 1.43285E-01 8.38712E-04-1.22267E-01-2.27686E-15-2.29506E-13
 -1      3167 2.00161E+01 8.42389E-02-3.50885E-05-8.69141E-02 1.02927E-14-1.71004E-13
 -1      3168 2.00115E+01 7.33957E-02-5.65055E-04-7.11674E-02 2.58758E-14-7.69381E-14
 -1      3169 1.99967E+01 1.08542E-01 5.86546E-04-8.69365E-02 7.65289E-14-1.62017E-13
 -1      3170 2.00142E+01 6.22570E-02 2.87363E-06-5.95153E-02-5.99167E-14-1.35609E-13
 -1      3171 2.00106E+01 5.36947E-02-3.94068E-04-4.77170E-02-1.56195E-13-1.40827E-13
 -1      3172 2.00023E+01 8.05608E-02 3.94723E-04-6.00513E-02-6.10741E-14-1.96010E-13
 -1      3173 2.00122E+01 4.49786E-02 2.64291E-05-3.91430E-02-2.23128E-13-3.59722E-14
 -1      3174 2.00094E+01 3.83525E-02-2.65180E-04-3.04847E-02-2.27302E-13-1.65862E-13
 -1      3175 2.00055E+01 5.84879E-02 2.52534E-04-3.99707E-02-2.04307E-13-2.65031E-14
 -1      3176 2.00102E+01 3.16657E-02 3.93712E-05-2.43144E-02-2.14981E-13-2.83294E-13
 -1      3177 2.00080E+01 2.66390E-02-1.70115E-04-1.81052E-02-2.25653E-13-3.67813E-13
 -1      3178 2.00071E+01 4.14165E-02 1.49931E-04-2.52737E-02-2.96489E-13-1.78540E-14
 -1      3179 2.00083E+01 2.16104E-02 4.48526E-05-1.37777E-02-1.15866E-13-3.71269E-13
 -1      3180 2.00067E+01 1.78748E-02-1.01656E-04-9.44255E-03-6.91860E-14-3.43716E-13
 -1      3181 2.00076E+01 2.84703E-02 7.80894E-05-1.47602E-02-1.56207E-13-3.22623E-13
 -1      3182 2.00066E+01 1.41719E-02 4.53509E-05-6.50150E-03-4.42260E-14-3.01382E-13
 -1      3183 2.00054E+01 1.14567E-02-5.37218E-05-3.57273E-03-4.41675E-14-1.46600E-13
 -1      3184 2.00074E+01 1.88504E-02 2.95905E-05-7.43853E-03 4.50838E-14-2.44718E-13
 -1      3185 2.00052E+01 8.79185E-03 4.27302E-05-1.65398E-03-6.73950E-14-1.78930E-13
 -1      3186 2.00043E+01 6.86673E-03-2.13232E-05 2.41060E-04-1.80294E-14-2.54425E-13
 -1      3187 2.00067E+01 1.18576E-02-1.59854E-06-2.50631E-03-1.27164E-13-3.96492E-13
 -1      3188 2.00039E+01 4.99787E-03 3.83427E-05 1.42237E-03 3.84748E-14-5.05029E-13
 -1      3189 2.00033E+01 3.67147E-03-4.65592E-07 2.57450E-03 7.74798E-15-4.41545E-13
 -1      3190 2.00059E+01 6.89726E-03-2.02560E-05 6.73152E-04-9.91999E-14-7.14273E-13
 -1      3191 2.00029E+01 2.39922E-03 3.31353E-05 3.23670E-03 1.00399E-13-3.56720E-13
 -1      3192 2.00025E+01 1.51541E-03 1.19776E-05 3.86815E-03 1.81732E-14-3.92746E-13
 -1      3193 2.00049E+01 3.47579E-03-3.00770E-05 2.59518E-03 4.92182E-14-8.79372E-13
 -1      3194 2.00021E+01 6.78057E-04 2.77478E-05 4.17492E-03-9.73740E-14-2.19001E-13
 -1      3195 2.00018E+01 1.11085E-04 1.84054E-05 4.45150E-03-2.33597E-13-2.22041E-13
 -1      3196 2.00040E+01 1.19040E-03-3.38716E-05 3.63719E-03 5.44961E-14-6.23478E-13
 -1      3197 2.00014E+01-4.21089E-04 2.25787E-05 4.52227E-03-2.25070E-13-5.61302E-14
 -1      3198 2.00012E+01-7.71719E-04 2.06445E-05 4.56425E-03-1.25283E-13-1.50403E-13
 -1      3199 2.00031E+01-2.83047E-04-3.37075E-05 4.08005E-03-9.70775E-14-3.44563E-13
 -1      3200 2.00009E+01-1.10245E-03 1.78642E-05 4.48281E-03-5.13575E-14-2.37014E-13
 -1      3201 2.00008E+01-1.31693E-03 1.95955E-05 4.37475E-03 6.32717E-14-2.59850E-13
 -1      3202 2.00023E+01-1.20399E-03-3.11738E-05 4.12648E-03-1.55326E-13-1.48350E-13
 -1      3203 2.00005E+01-1.53263E-03 1.20838E-05 4.19214E-03 7.09274E-14-3.94530E-13
 -1      3204 2.00003E+01-1.68101E-03 6.83139E-06 4.00166E-03 5.06468E-14-4.82301E-13
 -1      3205 2.00016E+01-1.78094E-03-2.73898E-05 3.91673E-03-1.18329E-13-4.15682E-13
 -1      3206 2.00003E+01-1.83186E-03-5.02463E-06 3.72499E-03 5.28148E-15-4.54103E-13
 -1      3207 2.65807E+01 1.14821E+00-1.63000E-01-2.56393E+00 3.99458E-13-3.45123E-13
 -1      3208 2.65227E+01 2.80387E+00-7.77017E-02-2.33495E+00 4.81476E-13-2.37955E-13
 -1      3209 2.60524E+01-2.15745E+00 4.59198E-02-1.34355E+00-5.07008E-14-2.63095E-13
 -1      3210 2.62321E+01-1.27762E+00-2.23000E-02-1.86863E+00 7.53356E-14-3.54525E-13
 -1      3211 2.46016E+01-2.66226E+00 5.64634E-02 9.16833E-02-1.16018E-13-1.87935E-13
 -1      3212 2.50611E+01-2.55053E+00-7.61377E-03-5.37273E-01-9.65790E-14-2.24983E-13
 -1      3213 2.52364E+01-3.20335E+00-8.44133E-02 3.55978E-02-1.48139E-13-2.58935E-13
 -1      3214 2.31355E+01-2.13096E+00 4.34532E-02 1.07075E+00-6.68836E-14-2.19353E-13
 -1      3215 2.36964E+01-2.41394E+00 1.56865E-02 6.11988E-01-1.08293E-13-2.08391E-13
 -1      3216 2.34438E+01-2.97617E+00-6.99350E-02 1.20584E+00-1.03812E-13-3.09888E-13
 -1      3217 2.19923E+01-1.35122E+00 1.85052E-02 1.53490E+00-3.26345E-14-7.07250E-14
 -1      3218 2.24714E+01-1.71077E+00 1.44311E-02 1.27863E+00-6.10506E-14-1.73352E-13
 -1      3219 2.19584E+01-2.06809E+00-5.90013E-02 1.79516E+00-6.25116E-14-2.84708E-13
 -1      3220 2.12343E+01-6.48797E-01 5.48719E-03 1.67152E+00-1.86129E-14-8.99302E-15
 -1      3221 2.15859E+01-9.54225E-01 1.11071E-02 1.57074E+00-1.09897E-14-2.46956E-14
 -1      3222 2.10375E+01-1.11385E+00-3.02209E-02 1.92901E+00-5.27892E-14-2.27919E-13
 -1      3223 2.07746E+01-1.47840E-01-9.44032E-04 1.62368E+00-2.98666E-14-5.12750E-14
 -1      3224 2.10128E+01-3.60277E-01 7.11599E-03 1.61937E+00-1.84980E-14-3.13443E-14
 -1      3225 2.04995E+01-3.97714E-01-1.41123E-02 1.84098E+00-2.71227E-14-1.84258E-13
 -1      3226 2.05093E+01 1.60398E-01-3.47457E-03 1.48387E+00 5.28885E-14-6.61047E-14
 -1      3227 2.06665E+01 3.26431E-02 3.96244E-03 1.53350E+00-1.24045E-14-2.54308E-14
 -1      3228 2.02197E+01 6.29616E-02-4.78432E-03 1.66257E+00 4.86945E-15-1.64151E-13
 -1      3229 2.03582E+01 3.22366E-01-4.17529E-03 1.30356E+00 8.25578E-14-7.68194E-14
 -1      3230 2.04640E+01 2.57728E-01 2.03446E-03 1.38007E+00 9.94940E-14 3.35055E-14
 -1      3231 2.00898E+01 3.22313E-01 7.42470E-05 1.45372E+00 5.33691E-14-6.86400E-14
 -1      3232 2.02697E+01 3.86253E-01-4.04997E-03 1.11206E+00-4.98435E-14-1.35684E-13
 -1      3233 2.03445E+01 3.63272E-01 9.64052E-04 1.19881E+00 2.27731E-15-8.16568E-14
 -1      3234 2.00392E+01 4.42175E-01 2.22670E-03 1.24173E+00 3.61085E-14-1.04073E-13
 -1      3235 2.02136E+01 3.90317E-01-3.59960E-03 9.26243E-01-3.46043E-15-2.39596E-13
 -1      3236 2.02699E+01 3.92290E-01 4.43825E-04 1.01312E+00-6.49405E-14-1.60454E-13
 -1      3237 2.00259E+01 4.73790E-01 2.92036E-03 1.03998E+00-5.71469E-14-2.06579E-13
 -1      3238 2.01741E+01 3.61462E-01-3.05349E-03 7.55534E-01 8.75486E-14-2.02072E-13
 -1      3239 2.02186E+01 3.76808E-01 2.26750E-04 8.36709E-01 6.40077E-14-2.00959E-13
 -1      3240 2.00272E+01 4.54203E-01 2.88163E-03 8.55430E-01 4.87804E-14-1.58273E-13
 -1      3241 2.01432E+01 3.17167E-01-2.51363E-03 6.04651E-01 1.79033E-14-1.41335E-13
 -1      3242 2.01796E+01 3.38463E-01 1.59160E-04 6.77068E-01 2.89772E-14-1.72683E-13
 -1      3243 2.00322E+01 4.08206E-01 2.52326E-03 6.91605E-01 5.88630E-14-1.19470E-13
 -1      3244 2.01174E+01 2.68073E-01-2.02311E-03 4.75228E-01 1.16634E-13-1.64498E-13
 -1      3245 2.01476E+01 2.90867E-01 1.53597E-04 5.37662E-01 4.32668E-14-1.71628E-13
 -1      3246 2.00360E+01 3.51419E-01 2.06474E-03 5.49806E-01 6.61811E-14-2.38724E-13
 -1      3247 2.00952E+01 2.20236E-01-1.59752E-03 3.66938E-01 1.04164E-13-2.11069E-14
 -1      3248 2.01202E+01 2.42044E-01 1.65536E-04 4.19320E-01 1.65702E-13-1.22119E-13
 -1      3249 2.00375E+01 2.93120E-01 1.61419E-03 4.29799E-01 1.36790E-13-1.55943E-13
 -1      3250 2.00761E+01 1.76781E-01-1.23940E-03 2.78262E-01-9.64953E-14 1.04540E-13
 -1      3251 2.00966E+01 1.96362E-01 1.75427E-04 3.21215E-01 4.30830E-14 7.55507E-14
 -1      3252 2.00365E+01 2.38427E-01 1.21843E-03 3.30294E-01-2.54134E-14 8.96611E-14
 -1      3253 2.00598E+01 1.39045E-01-9.45026E-04 2.07052E-01-2.12290E-13 9.21301E-14
 -1      3254 2.00765E+01 1.55908E-01 1.76874E-04 2.41566E-01-1.53250E-13 7.79604E-14
 -1      3255 2.00338E+01 1.89837E-01 8.92132E-04 2.49348E-01-1.86881E-13 6.85500E-14
 -1      3256 2.00462E+01 1.07318E-01-7.07774E-04 1.50905E-01-1.25354E-13 1.24582E-13
 -1      3257 2.00595E+01 1.21403E-01 1.69643E-04 1.78122E-01-1.39085E-13 3.65780E-14
 -1      3258 2.00301E+01 1.48253E-01 6.34147E-04 1.84679E-01-1.82171E-13 3.65250E-13
 -1      3259 2.00350E+01 8.13086E-02-5.19940E-04 1.07414E-01-7.34681E-14 1.01476E-13
 -1      3260 2.00454E+01 9.27923E-02 1.55867E-04 1.28494E-01-7.65806E-14 6.00194E-14
 -1      3261 2.00259E+01 1.13659E-01 4.36492E-04 1.33913E-01-9.65585E-14 1.84237E-13
 -1      3262 2.00260E+01 6.04374E-02-3.73737E-04 7.43226E-02-3.02998E-13 6.28143E-15
 -1      3263 2.00340E+01 6.96075E-02 1.38173E-04 9.03580E-02-1.84037E-13 1.33917E-14
 -1      3264 2.00217E+01 8.55352E-02 2.89005E-04 9.47497E-02-1.10406E-13-3.19742E-14
 -1      3265 2.00189E+01 4.40072E-02-2.61844E-04 4.96089E-02-3.12729E-13 4.76117E-14
 -1      3266 2.00249E+01 5.11930E-02 1.18864E-04 6.15812E-02-3.24385E-13 6.97095E-14
 -1      3267 2.00177E+01 6.31278E-02 1.81632E-04 6.50718E-02-3.78600E-13 9.35994E-14
 -1      3268 2.00133E+01 3.13070E-02-1.77692E-04 3.15186E-02-1.23419E-13-3.85963E-14
 -1      3269 2.00178E+01 3.68364E-02 9.96599E-05 4.02793E-02-3.29190E-13-4.19636E-14
 -1      3270 2.00142E+01 4.56040E-02 1.05431E-04 4.30010E-02-2.43012E-13 2.35557E-14
 -1      3271 2.00091E+01 2.16671E-02-1.15581E-04 1.85716E-02 4.06209E-14 5.44354E-15
 -1      3272 2.00124E+01 2.58446E-02 8.16947E-05 2.48392E-02-4.72066E-16-8.37007E-14
 -1      3273 2.00111E+01 3.21452E-02 5.28914E-05 2.69211E-02-1.46091E-14-1.73532E-13
 -1      3274 2.00060E+01 1.44879E-02-7.06926E-05 9.54685E-03-2.20384E-14 9.92753E-14
 -1      3275 2.00083E+01 1.75836E-02 6.56144E-05 1.39141E-02 5.66280E-15 2.42841E-14
 -1      3276 2.00085E+01 2.19967E-02 1.79391E-05 1.54751E-02 1.77652E-14-1.29675E-13
 -1      3277 2.00037E+01 9.25025E-03-3.90489E-05 3.45776E-03 6.71755E-14 6.59214E-14
 -1      3278 2.00053E+01 1.14963E-02 5.17016E-05 6.40324E-03 1.61037E-13 1.52197E-13
 -1      3279 2.00064E+01 1.44919E-02-4.20903E-06 7.54910E-03 9.56476E-15-1.22101E-14
 -1      3280 2.00021E+01 5.51676E-03-1.74315E-05-4.77916E-04-6.15331E-14-5.07228E-14
 -1      3281 2.00032E+01 7.10760E-03 3.99898E-05 1.42517E-03-7.52038E-14-5.11102E-14
 -1      3282 2.00047E+01 9.05956E-03-1.72391E-05 2.24656E-03-2.47582E-14 6.79631E-14
 -1      3283 2.00010E+01 2.92603E-03-3.29294E-06-2.86872E-03-1.26171E-13-1.35184E-13
 -1      3284 2.00017E+01 4.02166E-03 3.03547E-05-1.71308E-03-7.78164E-14-8.89730E-14
 -1      3285 2.00034E+01 5.22182E-03-2.39380E-05-1.14039E-03-2.80823E-14-1.24525E-13
 -1      3286 2.00003E+01 1.18435E-03 5.33013E-06-4.17870E-03-1.41667E-13-2.15443E-13
 -1      3287 2.00006E+01 1.91433E-03 2.25799E-05-3.54575E-03-1.70426E-13-1.60472E-13
 -1      3288 2.00023E+01 2.58622E-03-2.63807E-05-3.15997E-03-1.14292E-13-3.54431E-13
 -1      3289 1.99998E+01 5.58441E-05 9.96749E-06-4.75365E-03-3.71029E-14-2.24973E-13
 -1      3290 2.00000E+01 5.23984E-04 1.64268E-05-4.47609E-03-1.26859E-13-1.65211E-13
 -1      3291 2.00015E+01 8.35083E-04-2.60927E-05-4.22802E-03-1.00332E-13-2.20154E-13
 -1      3292 1.99995E+01-6.47406E-04 1.18039E-05-4.84416E-03 1.97702E-13-2.40269E-13
 -1      3293 1.99996E+01-3.58429E-04 1.16979E-05-4.80100E-03 8.00559E-14-2.49939E-13
 -1      3294 2.00009E+01-2.85658E-04-2.40402E-05-4.65228E-03 1.03502E-13-3.39677E-13
 -1      3295 1.99994E+01-1.07481E-03 1.16261E-05-4.62551E-03 1.77056E-13-2.94848E-13
 -1      3296 1.99994E+01-8.99269E-04 8.13702E-06-4.73226E-03 1.34707E-13-2.31914E-13
 -1      3297 2.00005E+01-9.77843E-04-2.08226E-05-4.65418E-03 9.86036E-14-1.89083E-13
 -1      3298 1.99993E+01-1.35611E-03-7.31179E-07-4.21477E-03-2.16236E-16-1.49247E-13
 -1      3299 1.99993E+01-1.23221E-03 4.67303E-06-4.41230E-03 6.03469E-14-3.14914E-13
 -1      3300 2.00002E+01-1.40025E-03-1.56203E-05-4.38596E-03 4.36264E-14-1.95867E-13
 -1      3301 1.99994E+01-1.46334E-03-4.75268E-06-3.92594E-03 2.00824E-13-5.23699E-14
 -1      3302 1.99996E+01-1.75335E-03-7.36637E-06-3.42209E-03 1.78990E-13-6.44569E-16
 -1      3303 1.99994E+01-1.61552E-03-8.12509E-06-3.66659E-03 3.03257E-13-4.41938E-14
 -1      3304 2.00001E+01-2.04648E-03-8.75197E-07-3.42314E-03 1.65128E-13-1.99380E-13
 -1      3305 2.61535E+01 4.59058E+00-1.11385E-01-8.46039E-01 6.09596E-13-2.52324E-14
 -1      3306 2.00023E+01-3.13578E-03-5.30668E-07 1.34863E-03-1.25901E-13 5.82671E-14
 -1      3307 2.00024E+01-3.20482E-03 6.52367E-06 8.50420E-04-6.45988E-14-6.75294E-14
 -1      3308 2.00025E+01-3.24082E-03 3.22808E-06 2.72919E-04 1.54794E-14-4.49073E-13
 -1      3309 2.00025E+01-3.24194E-03 3.00086E-06-2.59354E-04 1.91992E-13-3.83182E-13
 -1      3310 2.00029E+01-2.99113E-03-3.93972E-06 5.88870E-04 9.28004E-14-2.64101E-13
 -1      3311 2.62978E+01 3.68558E+00-1.61917E-01-1.85951E+00 5.35016E-13-1.72529E-13
 -1      3312 2.19508E+01-4.11643E+00 1.07176E-01-4.11917E+00-2.25750E-13-9.14442E-14
 -1      3313 2.37885E+01-4.47745E+00-7.50900E-02-3.09731E+00-1.83367E-13 3.29862E-14
 -1      3314 2.74458E+01 5.26931E+00-1.27707E-01-8.41420E-01-4.54137E-13-8.98934E-14
 -1      3315 1.05962E+01-1.18781E-01 7.38320E-02 2.47471E+00-3.02553E-14 5.08316E-13
 -1      3316 9.59088E+00 2.85084E-01 1.02798E-01 8.24936E-01 5.63299E-14 3.20216E-13
 -1      3317 1.75161E+01-3.47391E+00 1.09409E-01-5.34045E+00 4.76855E-13-6.93889E-16
 -1      3318 1.98480E+01-4.34596E+00-3.57289E-02-4.99030E+00 4.91510E-13-1.00413E-13
 -1      3319 2.00018E+01-2.89749E-03-6.74724E-06 2.30477E-03 1.67404E-13 1.10679E-13
 -1      3320 2.00021E+01-3.02749E-03 9.59329E-06 1.87345E-03-4.57425E-14 3.63427E-14
 -1      3321 2.00026E+01-2.86337E-03-3.22385E-06 1.71089E-03-1.12126E-13 2.65703E-15
 -1      3322 2.77476E+01 3.11137E-01-7.38890E-02-1.88064E+00-2.68188E-13 7.76046E-14
 -1      3323 2.40680E+01-2.40391E+00-9.39024E-03-4.69075E-01-2.10439E-14 1.39156E-13
 -1      3324 2.35707E+01-2.03260E+00 4.06634E-02-8.54742E-01-3.79228E-14 1.05377E-13
 -1      3325 2.73602E+01-1.58539E+00-1.03816E-01-1.11081E+00-1.14804E-13 5.84116E-14
 -1      3326 2.72783E+01-2.90588E+00 4.01296E-02 4.03085E-02-4.03124E-14 1.16115E-13
 -1      3327 1.10858E+01-2.97071E-01 1.03239E-01-3.77872E+00-1.05749E-13-5.01821E-13
 -1      3328 1.32278E+01-1.51642E+00 1.92449E-02-5.02941E+00-1.87746E-13-4.49571E-13
 -1      3329 2.16909E+01-3.63181E-01 2.43626E-02 9.94726E-01-3.85400E-14-2.03000E-13
 -1      3330 2.19935E+01-8.64784E-01-3.86620E-03 1.00318E+00-2.87678E-14-1.82067E-13
 -1      3331 2.17726E+01-1.19511E+00-3.12306E-02 1.38159E+00 7.11996E-15-1.41429E-13
 -1      3332 2.68791E+01 2.35435E-01-4.57684E-02-2.09241E+00-2.31828E-13 1.36190E-13
 -1      3333 2.14250E+01 6.50577E-01 1.29358E-02-7.61449E-01 1.81764E-13 2.44206E-14
 -1      3334 2.07751E+01 1.03897E+00-1.23271E-03-7.83746E-01 1.87060E-13-3.83159E-14
 -1      3335 2.05479E+01 7.33268E-01-5.00837E-03-1.11947E+00 1.39720E-13-5.96440E-14
 -1      3336 2.15578E+01 1.96446E-01-9.93131E-03-9.62367E-01 1.25589E-13 1.91782E-14
 -1      3337 2.23362E+01-4.59134E+00 9.27315E-02-3.99581E+00 4.98726E-13-2.01274E-13
 -1      3338 2.42493E+01-4.77883E+00-8.70097E-02-2.82620E+00 4.31245E-13-2.54938E-13
 -1      3339 2.47259E+01-4.10675E+00-1.00623E-02-1.72251E+00 3.46799E-13-3.04187E-13
 -1      3340 2.12725E+01-4.04788E+00 3.56882E-02-3.98181E+00 4.64684E-13-1.77985E-13
 -1      3341 1.61247E+01 3.19536E+00 4.68048E-03-5.20583E-01 1.70009E-13-3.19468E-13
 -1      3342 1.58088E+01 3.29938E+00-1.24682E-02-2.71948E-01 1.56974E-13-3.40282E-13
 -1      3343 2.59482E+01-4.08234E+00-1.15592E-01 1.62194E+00 1.89571E-14 1.11224E-13
 -1      3344 2.42694E+01-4.45543E+00 7.95323E-02 3.20771E+00 6.81261E-14 8.43631E-14
 -1      3345 2.05536E+01 1.27830E+00 5.40858E-03 5.49756E-01-7.04595E-14-3.08975E-13
 -1      3346 2.08057E+01 9.31384E-01-2.39698E-03 6.26700E-01-5.79766E-14-2.89875E-13
 -1      3347 1.97635E+01 1.60514E+00-9.00804E-03 7.49016E-01-2.58252E-14-3.11762E-13
 -1      3348 2.19046E+01-4.43997E+00-2.26137E-02 4.45647E+00 1.12799E-13 1.68667E-14
 -1      3349 1.92470E+01-3.53614E+00 6.53407E-02 5.03349E+00 1.93956E-13-5.73569E-14
 -1      3350 2.31524E+01-4.03182E+00 4.31946E-02 3.26531E+00 1.14332E-13 3.53753E-14
 -1      3351 2.56051E+01-4.05976E+00 6.67499E-02-1.71719E+00-1.72716E-13 1.05596E-13
 -1      3352 2.65417E+01-3.31650E+00-8.44175E-02-1.44508E-01-9.97466E-14 1.31457E-13
 -1      3353 2.44748E+01-3.84472E+00 2.66851E-02-1.96849E+00-1.64202E-13 6.73853E-14
 -1      3354 1.58352E+01-2.26385E+00 3.10205E-02 5.28300E+00 2.47850E-13-1.35621E-13
 -1      3355 1.28621E+01-1.02464E+00 1.84502E-01 4.82266E+00 2.56573E-13-2.85688E-13
 -1      3356 1.24264E+01-1.18936E+00 9.42380E-02-4.30699E+00 3.38975E-13 1.16324E-13
 -1      3357 1.47950E+01-2.55179E+00 2.06203E-02-5.33448E+00 3.67414E-13 2.79082E-14
 -1      3358 1.68589E+01-2.45673E+00 9.61821E-02-4.71367E+00 3.65742E-13-3.04999E-14
 -1      3359 2.70006E+01-3.67130E-01-4.67365E-03-2.29202E+00 2.36658E-13-3.46709E-13
 -1      3360 9.65302E+00 3.19917E-01 9.59223E-02-8.23377E-01 1.22465E-13 2.58932E-13
 -1      3361 1.06322E+01-2.50446E-01 5.01596E-02-2.90220E+00 2.68428E-13 2.44360E-13
 -1      3362 1.62280E+01-2.54459E+00 1.29845E-01-5.30864E+00-2.44867E-13-3.87405E-13
 -1      3363 1.92355E+01-3.79738E+00-3.32683E-02-5.12808E+00-2.51937E-13-2.68105E-13
 -1      3364 2.07483E+01-3.39749E+00 4.23164E-02-4.09000E+00-2.03032E-13-1.62061E-13
 -1      3365 9.02378E+00 9.03530E-01 9.57633E-02-2.95836E-01 6.91751E-14-6.24861E-13
 -1      3366 9.64443E+00 5.67434E-01 9.84098E-02-2.26003E+00-7.21645E-15-5.84477E-13
 -1      3367 2.73242E+01-7.07256E-01-6.12749E-02-1.75060E+00-1.62599E-13 8.86721E-14
 -1      3368 1.57007E+01 3.35464E+00-8.09253E-03 1.43136E-01 1.56709E-13-3.19997E-13
 -1      3369 1.58068E+01 3.31686E+00 1.02742E-03 4.16111E-01 1.43085E-13-3.24495E-13
 -1      3370 1.55361E+01 3.08437E+00 2.04759E-02-1.02516E-01 1.42046E-13-3.28021E-13
 -1      3371 1.91431E+01 1.39169E+00-7.45996E-03-1.28422E+00 1.27983E-13-1.57857E-13
 -1      3372 1.87296E+01 2.02431E+00 1.36024E-02-1.02412E+00 1.72165E-13-2.02557E-13
 -1      3373 1.79578E+01 2.30173E+00-1.47298E-02-1.05026E+00 1.59691E-13-2.36508E-13
 -1      3374 1.17493E+01 5.24582E-01 1.20826E-01-2.74467E+00-4.60361E-14-4.70360E-13
 -1      3375 2.09793E+01-6.00039E-02-1.82521E-02 1.18695E+00-2.80601E-14-2.29667E-13
 -1      3376 1.83729E+01 2.19310E+00-1.48250E-02 1.01478E+00 3.79151E-14-3.01500E-13
 -1      3377 1.90928E+01 1.92635E+00 7.64628E-03 9.05059E-01 1.14573E-16-3.11245E-13
 -1      3378 1.93797E+01 1.54149E+00 2.71105E-03 1.01795E+00 8.71048E-15-2.91520E-13
 -1      3379 2.55602E+01-3.84104E+00-1.00017E-03 9.24497E-01-1.11345E-13-2.76317E-13
 -1      3380 2.61044E+01-1.85472E+00-1.86889E-02-1.10054E+00-4.09117E-14 7.38472E-14
 -1      3381 2.60614E+01 3.72511E+00-1.44828E-01-1.77985E+00-3.83762E-13-7.76462E-15
 -1      3382 1.25661E+01-3.24374E-01 1.13328E-01 3.97662E+00 2.31280E-13-3.26475E-13
 -1      3383 2.65990E+01-8.48957E-01 9.50494E-03 1.84379E+00 1.86656E-14-4.76091E-13
 -1      3384 1.27769E+01-3.94049E-01 1.06289E-01-3.21544E+00 2.51438E-13 1.43691E-13
 -1      3385 1.55883E+01-2.78021E+00 1.16250E-01 5.26419E+00-1.08608E-13 2.50716E-13
 -1      3386 1.49750E+01-1.82824E+00 6.43905E-02 4.62971E+00-6.81052E-14 3.58602E-13
 -1      3387 1.73078E+01-3.24017E+00-2.31104E-02 5.03074E+00-8.46684E-14 3.29202E-13
 -1      3388 2.00001E+01-1.72090E-03 8.65619E-06-3.94004E-03 1.63769E-13-1.92118E-13
 -1      3389 2.00021E+01-3.03367E-03 8.86039E-06-1.86820E-03 1.00814E-13 5.69581E-13
 -1      3390 2.00018E+01-2.89544E-03-2.63730E-06-2.30177E-03 1.22742E-13 2.62204E-13
 -1      3391 1.70572E+01 2.79440E+00-1.94308E-02 1.00670E+00 1.03229E-13-3.01614E-13
 -1      3392 1.77123E+01 2.55223E+00 8.45422E-03 1.03092E+00 6.74082E-14-3.19006E-13
 -1      3393 1.79490E+01 2.18546E+00 7.91145E-03 1.19431E+00 6.20990E-14-2.94087E-13
 -1      3394 2.00024E+01-3.20744E-03 6.38510E-06-8.34653E-04 1.24467E-13-2.69124E-13
 -1      3395 2.00023E+01-3.13739E-03-4.68540E-08-1.34205E-03 1.36458E-13 3.02138E-13
 -1      3396 2.00026E+01-2.87244E-03-3.84036E-06-1.69892E-03 7.22166E-14 4.27105E-13
 -1      3397 2.00029E+01-2.99234E-03-4.13669E-06-5.81266E-04 1.14828E-13-3.07487E-13
 -1      3398 1.29809E+01-7.25752E-01 5.15766E-02 3.61719E+00-4.20809E-14 6.01297E-13
 -1      3399 1.17197E+01-2.86434E-01 1.35746E-01 3.11230E+00-6.69811E-14 5.92651E-13
 -1      3400 1.18958E+01 2.07492E-01 5.56912E-02 2.18982E+00 3.18062E-14 4.32300E-13
 -1      3401 2.21380E+01-7.32762E-01-9.90768E-03-1.14442E+00 5.96860E-14 2.84148E-14
 -1      3402 2.18698E+01-2.45537E-01 1.60811E-02-1.10352E+00 7.74914E-14 3.43655E-14
 -1      3403 2.13376E+01-5.50139E-02-8.04789E-03-1.21718E+00 9.11010E-14 9.96165E-15
 -1      3404 2.29505E+01-1.62824E+00-3.69748E-03-1.01558E+00-2.36868E-14 6.62713E-14
 -1      3405 2.25275E+01-1.14170E+00 2.43699E-02-1.16362E+00 3.79373E-15 2.91390E-14
 -1      3406 2.19444E+01-1.10918E+00-3.22947E-02-1.43741E+00 1.50509E-14 1.84418E-14
 -1      3407 2.28510E+01-2.17188E+00-5.58626E-02-1.41596E+00-6.61320E-14 5.64271E-14
 -1      3408 2.17763E+01-4.67743E+00 6.13826E-02 4.34456E+00-1.35503E-13 1.22983E-14
 -1      3409 2.03583E+01-3.97809E+00 9.52452E-02 4.52152E+00-1.15838E-13 8.34402E-14
 -1      3410 2.29863E+01-4.43602E+00-3.46239E-02 3.08758E+00-1.19842E-13-3.11588E-13
 -1      3411 2.00020E+01-2.66031E-03-5.51140E-06-2.59152E-03 1.13623E-13 2.31619E-13
 -1      3412 2.00016E+01-2.75865E-03 1.59506E-05-2.65594E-03 1.04366E-13 1.11512E-13
 -1      3413 2.00012E+01-2.61372E-03-1.15370E-05-2.93565E-03 1.09480E-13 1.23111E-13
 -1      3414 1.95766E+01-2.71613E+00 4.19491E-02 4.22725E+00 2.08554E-13-8.12024E-14
 -1      3415 1.78870E+01-2.60160E+00 8.19562E-02 4.98096E+00 2.27089E-13-1.06741E-13
 -1      3416 1.64769E+01-1.48167E+00 2.16915E-02 4.49819E+00 2.13853E-13-1.55737E-13
 -1      3417 2.00011E+01-2.53024E-03-1.27003E-05 3.05303E-03 1.28172E-13-4.56448E-13
 -1      3418 2.00015E+01-2.71655E-03 1.58591E-05 2.72698E-03 1.28457E-13-7.49296E-14
 -1      3419 2.61311E+01-3.36147E+00 1.16739E-02 6.83997E-01 3.11522E-14 1.08975E-13
 -1      3420 1.58583E+01-1.56087E+00 1.10971E-01-4.60915E+00-1.81355E-13-3.91132E-13
 -1      3421 2.56602E+01-2.56536E+00-1.23609E-02 5.02696E-01-5.23939E-14 2.13809E-13
 -1      3422 2.51447E+01-2.75246E+00 2.51752E-02-8.77502E-02-6.01585E-14 1.90718E-13
 -1      3423 1.66074E+01 2.90972E+00-1.86506E-02-8.21912E-01 1.59598E-13-2.87338E-13
 -1      3424 1.62027E+01 2.75596E+00 1.32133E-02-8.72366E-01 1.35415E-13-3.11126E-13
 -1      3425 1.72357E+01 2.69634E+00 1.29899E-02-9.48876E-01 1.71686E-13-2.61978E-13
 -1      3426 2.03750E+01 8.63603E-01-9.95974E-03 9.29450E-01-3.29942E-14-2.71275E-13
 -1      3427 2.66214E+01-2.14253E+00 1.22512E-02 1.15036E+00-3.92811E-14 2.45564E-13
 -1      3428 2.61491E+01-9.76964E-01-7.96790E-02 1.90375E+00 5.69093E-14 3.09417E-13
 -1      3429 2.00020E+01-2.61321E-03-3.10132E-07 2.67546E-03 1.28717E-13 7.20308E-14
 -1      3430 1.11237E+01 5.43227E-01 1.09104E-01-1.29861E-01 1.31379E-13 2.69347E-13
 -1      3431 2.43691E+01-3.15601E+00-5.07821E-02-1.07223E+00-1.04560E-13 1.35891E-13
 -1      3432 1.05642E+01 9.54889E-01 1.80361E-02 1.83589E+00 1.94217E-13-4.61242E-13
 -1      3433 9.67177E+00 1.10655E+00 1.42913E-01 7.23681E-01 1.33604E-13-5.67504E-13
 -1      3434 1.08761E+01 1.43846E+00 7.33214E-02-1.15368E-01 7.20066E-14-5.28355E-13
 -1      3435 2.07990E+01 2.35317E-01 1.63658E-02-1.38248E+00 8.75296E-14-4.36508E-14
 -1      3436 2.02111E+01 5.27868E-01 1.02718E-02-1.48229E+00 9.66460E-14-7.31732E-14
 -1      3437 2.10872E+01-3.20397E-01 2.81660E-03-1.54399E+00 4.40152E-14-9.37249E-15
 -1      3438 1.20238E+01 7.21344E-01 4.91940E-02 6.91441E-01 1.42618E-13 2.58793E-13
 -1      3439 1.21089E+01 7.13557E-01 3.09459E-02-7.71698E-01 1.60188E-13 2.14335E-13
 -1      3440 2.00006E+01-2.05628E-03-1.46455E-05 3.60201E-03-3.34063E-14-6.11487E-13
 -1      3441 2.06955E+01-2.15832E+00 2.63820E-02-2.67660E+00 1.77086E-13-4.90450E-15
 -1      3442 2.01217E+01-1.58869E+00 2.75040E-02-2.61219E+00 9.69875E-14 6.30826E-14
 -1      3443 1.98340E+01-1.08916E+00 2.46447E-02-2.37404E+00 5.07396E-14 1.10936E-13
 -1      3444 1.94866E+01-6.81229E-01 7.05391E-03-2.24358E+00 7.36581E-14 1.61316E-13
 -1      3445 1.90766E+01-1.26323E+00-2.52183E-02-2.81999E+00 1.25792E-13 1.33079E-14
 -1      3446 1.94206E+01-3.33314E-01 1.80771E-02-2.00791E+00 5.91043E-14 6.68590E-14
 -1      3447 1.92378E+01-7.06065E-02-1.74194E-03-1.86970E+00 5.28363E-14 4.05963E-14
 -1      3448 1.87795E+01-3.80157E-01-1.05976E-02-2.26562E+00 3.73567E-14 7.25526E-15
 -1      3449 1.92765E+01 1.50399E-01 1.18709E-02-1.67137E+00 1.64652E-14 5.86493E-14
 -1      3450 1.91971E+01 3.04434E-01-4.70480E-03-1.54368E+00-8.61743E-15 8.76222E-14
 -1      3451 1.87587E+01 1.68486E-01-3.56937E-03-1.80693E+00 4.27175E-14-4.40746E-14
 -1      3452 1.92793E+01 4.30406E-01 7.42376E-03-1.38338E+00-2.38251E-14 1.14990E-13
 -1      3453 1.92587E+01 5.08382E-01-5.25077E-03-1.27024E+00 1.70985E-14 8.76134E-14
 -1      3454 1.88659E+01 4.83595E-01-1.06578E-04-1.44684E+00-1.05794E-14 5.98096E-14
 -1      3455 1.93539E+01 5.68233E-01 4.61537E-03-1.14061E+00 6.71779E-14 8.98001E-15
 -1      3456 1.93633E+01 5.95226E-01-4.95539E-03-1.04143E+00 9.97718E-15 1.98440E-14
 -1      3457 1.90246E+01 6.40044E-01 1.52899E-03-1.16472E+00 1.91879E-14 1.23407E-13
 -1      3458 1.94566E+01 6.11558E-01 2.91839E-03-9.35449E-01-9.13145E-14 7.71128E-14
 -1      3459 1.94790E+01 6.06258E-01-4.39020E-03-8.48793E-01-4.15761E-14 1.53612E-15
 -1      3460 1.91948E+01 6.91762E-01 2.17622E-03-9.39911E-01-5.68881E-14 8.56059E-15
 -1      3461 1.95631E+01 5.95725E-01 1.92815E-03-7.61242E-01-4.62304E-14-2.51769E-14
 -1      3462 1.95890E+01 5.71543E-01-3.77680E-03-6.85918E-01-2.23268E-14-1.67077E-13
 -1      3463 1.93560E+01 6.77409E-01 2.29942E-03-7.57285E-01-1.01459E-13-9.07264E-14
 -1      3464 1.96613E+01 5.45901E-01 1.35822E-03-6.13226E-01 7.63205E-14-1.57370E-13
 -1      3465 1.96858E+01 5.12116E-01-3.19099E-03-5.48353E-01 2.23912E-14-8.30893E-15
 -1      3466 1.94986E+01 6.24374E-01 2.15929E-03-6.06815E-01 2.79539E-14-1.30816E-13
 -1      3467 1.97458E+01 4.79346E-01 1.02432E-03-4.88069E-01-9.52317E-14 7.35121E-14
 -1      3468 1.97667E+01 4.42134E-01-2.65610E-03-4.32900E-01-4.75105E-14 3.75136E-14
 -1      3469 1.96193E+01 5.51575E-01 1.89933E-03-4.82055E-01 1.44845E-14 1.30053E-14
 -1      3470 1.98152E+01 4.07422E-01 8.16800E-04-3.83222E-01-3.54215E-14 2.26775E-14
 -1      3471 1.98319E+01 3.70684E-01-2.17871E-03-3.36996E-01-4.56040E-14 9.71102E-15
 -1      3472 1.97180E+01 4.71673E-01 1.59897E-03-3.78720E-01-6.93919E-14 1.42420E-13
 -1      3473 1.98702E+01 3.37210E-01 6.74731E-04-2.96464E-01-1.81670E-13-9.95873E-14
 -1      3474 1.98829E+01 3.03229E-01-1.76025E-03-2.58345E-01-1.71040E-13-1.49528E-13
 -1      3475 1.97966E+01 3.92756E-01 1.30192E-03-2.93692E-01-1.56254E-13-2.62856E-14
 -1      3476 1.99123E+01 2.72776E-01 5.66358E-04-2.25681E-01-3.43223E-14-1.01504E-13
 -1      3477 1.99216E+01 2.42719E-01-1.39991E-03-1.94760E-01 8.83021E-15-9.51696E-14
 -1      3478 1.98577E+01 3.19622E-01 1.03092E-03-2.24439E-01-6.35746E-14-6.10793E-14
 -1      3479 1.99438E+01 2.16125E-01 4.76341E-04-1.68800E-01-3.04916E-14-1.30113E-13
 -1      3480 1.99502E+01 1.90419E-01-1.09523E-03-1.44131E-01-3.59988E-14-2.28706E-13
 -1      3481 1.99040E+01 2.54772E-01 7.96104E-04-1.68737E-01-9.89368E-14 7.03295E-15
 -1      3482 1.99666E+01 1.67914E-01 3.97967E-04-1.23804E-01-3.18482E-14-2.58877E-13
 -1      3483 1.99709E+01 1.46521E-01-8.42303E-04-1.04451E-01 5.63670E-14-2.70313E-13
 -1      3484 1.99383E+01 1.99160E-01 6.00150E-04-1.24560E-01-3.73296E-14-1.80808E-13
 -1      3485 1.99826E+01 1.27961E-01 3.28679E-04-8.87856E-02 6.05429E-14-2.13638E-13
 -1      3486 1.99853E+01 1.10565E-01-6.36132E-04-7.38620E-02-4.10349E-14-2.86602E-13
 -1      3487 1.99630E+01 1.52745E-01 4.41455E-04-9.00447E-02-6.45564E-15-3.46326E-13
 -1      3488 1.99935E+01 9.55990E-02 2.67658E-04-6.19914E-02-3.94376E-14-2.18999E-13
 -1      3489 1.99949E+01 8.17476E-02-4.71073E-04-5.06865E-02 1.47689E-14-1.37736E-13
 -1      3490 1.99804E+01 1.14898E-01 3.16212E-04-6.35065E-02-4.07549E-15-3.18296E-13
 -1      3491 2.00004E+01 6.99232E-02 2.14622E-04-4.18542E-02-8.09851E-14-1.45947E-13
 -1      3492 2.00011E+01 5.91088E-02-3.41275E-04-3.34513E-02-1.81570E-13-5.01802E-14
 -1      3493 1.99921E+01 8.46750E-02 2.19685E-04-4.34459E-02-8.66349E-14-2.05868E-13
 -1      3494 2.00046E+01 4.99473E-02 1.69308E-04-2.70109E-02-3.02928E-13-5.42377E-14
 -1      3495 2.00047E+01 4.16656E-02-2.41034E-04-2.08936E-02-2.94055E-13-4.22226E-14
 -1      3496 1.99997E+01 6.10099E-02 1.46990E-04-2.85589E-02-1.75983E-13-3.12665E-13
 -1      3497 2.00068E+01 3.47038E-02 1.31290E-04-1.63042E-02-3.50650E-13-1.33246E-13
 -1      3498 2.00066E+01 2.84853E-02-1.65054E-04-1.19548E-02-1.40484E-13-2.70793E-13
 -1      3499 2.00043E+01 4.28317E-02 9.35368E-05-1.77346E-02-3.66170E-13-3.29372E-13
 -1      3500 2.00077E+01 2.33003E-02 9.99701E-05-8.77268E-03 4.23791E-14-3.32877E-13
 -1      3501 2.00072E+01 1.87277E-02-1.08604E-04-5.76576E-03 2.20935E-14-3.84138E-13
 -1      3502 2.00067E+01 2.91376E-02 5.52470E-05-1.00467E-02-1.34795E-13-3.77178E-13
 -1      3503 2.00077E+01 1.49484E-02 7.46285E-05-3.63362E-03-4.60475E-14-4.86875E-13
 -1      3504 2.00071E+01 1.16623E-02-6.75870E-05-1.62691E-03-1.90857E-13-5.34580E-13
 -1      3505 2.00077E+01 1.90312E-02 2.86420E-05-4.73711E-03-8.89306E-14-6.26601E-13
 -1      3506 2.00071E+01 8.97282E-03 5.44909E-05-2.62291E-04-2.64988E-13-4.35840E-13
 -1      3507 2.00066E+01 6.67182E-03-3.85508E-05 1.01437E-03-1.21951E-13-5.68519E-13
 -1      3508 2.00078E+01 1.17377E-02 1.08414E-05-1.19735E-03-2.05395E-13-5.10401E-13
 -1      3509 2.00063E+01 4.80919E-03 3.87930E-05 1.83051E-03 8.43273E-14-5.66588E-13
 -1      3510 2.00057E+01 3.24547E-03-1.86402E-05 2.58605E-03 1.70569E-13-6.08755E-13
 -1      3511 2.00073E+01 6.60476E-03-4.77468E-07 1.05196E-03-1.49305E-14-2.58756E-13
 -1      3512 2.00053E+01 1.99492E-03 2.68313E-05 3.02031E-03 1.94989E-13-5.68452E-13
 -1      3513 2.00048E+01 9.67710E-04-5.59567E-06 3.41289E-03 1.74599E-13-4.41787E-13
 -1      3514 2.00064E+01 3.09433E-03-7.13217E-06 2.38134E-03 1.74228E-13-2.97138E-13
 -1      3515 2.00043E+01 1.55981E-04 1.79495E-05 3.58889E-03 1.04036E-13-4.92702E-13
 -1      3516 2.00038E+01-4.95048E-04 2.57819E-06 3.73504E-03-6.82676E-14-2.75182E-13
 -1      3517 2.00054E+01 7.69411E-04-1.05579E-05 3.07124E-03 1.51182E-13-2.90419E-13
 -1      3518 2.00033E+01-1.00679E-03 1.13061E-05 3.74334E-03-2.71550E-13-2.08661E-13
 -1      3519 2.00029E+01-1.41101E-03 6.23603E-06 3.72651E-03-1.55684E-13-3.00226E-13
 -1      3520 2.00043E+01-7.19773E-04-1.22073E-05 3.32831E-03-5.34235E-14-4.02269E-13
 -1      3521 2.00024E+01-1.72686E-03 9.23479E-06 3.62673E-03-1.85893E-13-2.12955E-13
 -1      3522 2.00021E+01-2.00284E-03 4.13523E-06 3.50944E-03-1.29190E-13-3.66994E-13
 -1      3523 2.00033E+01-1.66232E-03-1.25911E-05 3.30866E-03-2.02818E-13-2.75130E-13
 -1      3524 2.24337E+01-3.18225E+00 3.31878E-02 2.45270E+00-1.50026E-13-3.12246E-13
 -1      3525 2.33833E+01-3.65888E+00 2.32313E-02 2.14366E+00-1.46223E-13-3.07619E-13
 -1      3526 2.63460E+01 1.12998E-01-2.04081E-02 2.36128E+00 7.34690E-14 3.52396E-13
 -1      3527 2.02200E+01-7.47516E-01 1.07291E-02 2.18111E+00-7.77518E-14-1.63117E-13
 -1      3528 2.06086E+01-1.17675E+00 1.79046E-02 2.21676E+00-5.26450E-14-2.14061E-13
 -1      3529 1.98422E+01-1.10689E-01 1.75150E-03 1.92135E+00-2.32913E-14-1.70260E-13
 -1      3530 2.00615E+01-3.87723E-01 1.37494E-02 2.00604E+00-7.28768E-14-1.67514E-13
 -1      3531 1.94336E+01-5.05461E-01-1.58724E-02 2.28997E+00-5.61925E-14-1.63101E-13
 -1      3532 1.97024E+01 2.72522E-01-1.82968E-03 1.65350E+00-3.64293E-14-8.66187E-14
 -1      3533 1.98148E+01 1.12602E-01 9.11976E-03 1.75485E+00-5.51897E-14-9.24161E-14
 -1      3534 1.92759E+01 9.29484E-02-6.75161E-03 1.91839E+00-7.66901E-14-1.33166E-13
 -1      3535 1.96853E+01 4.71846E-01-3.17177E-03 1.40225E+00 3.66050E-14 3.31599E-14
 -1      3536 1.97372E+01 3.94352E-01 5.93520E-03 1.50617E+00 1.66793E-14-2.58323E-14
 -1      3537 1.92890E+01 4.33014E-01-1.75858E-03 1.59777E+00-7.77344E-14 1.80242E-14
 -1      3538 1.97233E+01 5.49446E-01-3.43744E-03 1.17444E+00-1.07404E-14 3.21717E-14
 -1      3539 1.97439E+01 5.25120E-01 3.83328E-03 1.27460E+00 1.04785E-13 4.67141E-14
 -1      3540 1.93785E+01 5.95750E-01 6.31346E-04 1.32699E+00-5.56185E-15 4.24341E-14
 -1      3541 1.97796E+01 5.52101E-01-3.26272E-03 9.71104E-01-3.55913E-14-1.69299E-13
 -1      3542 1.97860E+01 5.59677E-01 2.60583E-03 1.06405E+00-8.73012E-14-5.63662E-14
 -1      3543 1.94925E+01 6.45326E-01 1.63940E-03 1.09680E+00 1.57231E-14 5.43553E-14
 -1      3544 1.98363E+01 5.12583E-01-2.91116E-03 7.92036E-01-3.23803E-14-7.37214E-14
 -1      3545 1.98374E+01 5.37466E-01 1.90847E-03 8.75815E-01-6.05569E-14-1.49742E-13
 -1      3546 1.96047E+01 6.26978E-01 1.89390E-03 8.99432E-01-3.34949E-14-1.16750E-13
 -1      3547 1.98853E+01 4.52502E-01-2.50386E-03 6.36674E-01 6.37587E-14 4.33997E-14
 -1      3548 1.98853E+01 4.85216E-01 1.50915E-03 7.10300E-01 2.88607E-14 2.80513E-14
 -1      3549 1.97035E+01 5.71532E-01 1.78374E-03 7.29818E-01-5.36832E-14 4.86872E-14
 -1      3550 1.99243E+01 3.85400E-01-2.09797E-03 5.04074E-01 1.54024E-13-2.29098E-13
 -1      3551 1.99249E+01 4.20097E-01 1.26096E-03 5.67301E-01 1.56953E-13-9.46781E-14
 -1      3552 1.97850E+01 4.99072E-01 1.52377E-03 5.84779E-01 1.67739E-13 4.82994E-15
 -1      3553 1.99536E+01 3.19284E-01-1.72097E-03 3.92830E-01 9.16190E-14-3.04140E-15
 -1      3554 1.99552E+01 3.52576E-01 1.08259E-03 4.45984E-01 1.04750E-13-9.03264E-14
 -1      3555 1.98492E+01 4.22124E-01 1.22613E-03 4.62034E-01 1.29650E-13-9.93266E-14
 -1      3556 1.99747E+01 2.58519E-01-1.38554E-03 3.01114E-01-8.84796E-14 1.81060E-13
 -1      3557 1.99770E+01 2.88622E-01 9.34625E-04 3.44922E-01 6.53393E-14 1.73225E-13
 -1      3558 1.98982E+01 3.48059E-01 9.45284E-04 3.59564E-01-2.63526E-14 1.37343E-13
 -1      3559 1.99891E+01 2.05145E-01-1.09618E-03 2.26788E-01-2.07486E-13 2.24817E-13
 -1      3560 1.99919E+01 2.31291E-01 8.00941E-04 2.62227E-01-1.01114E-13 2.06968E-13
 -1      3561 1.99344E+01 2.80840E-01 7.03914E-04 2.75322E-01-5.67127E-14 2.80251E-13
 -1      3562 1.99985E+01 1.59779E-01-8.52666E-04 1.67574E-01-1.85028E-13 1.96372E-13
 -1      3563 2.00015E+01 1.81814E-01 6.76895E-04 1.95734E-01-2.49088E-13 1.27607E-13
 -1      3564 1.99605E+01 2.22240E-01 5.07911E-04 2.07170E-01-1.91178E-13 1.53378E-13
 -1      3565 2.00042E+01 1.22204E-01-6.52027E-04 1.21194E-01-3.86931E-14 1.47694E-13
 -1      3566 2.00072E+01 1.40328E-01 5.62569E-04 1.43182E-01-9.36689E-14 2.00119E-13
 -1      3567 1.99787E+01 1.72676E-01 3.54942E-04 1.52933E-01-1.84275E-13 2.34754E-13
 -1      3568 2.00073E+01 9.17531E-02-4.89816E-04 8.54858E-02-2.32342E-13 1.63658E-13
 -1      3569 2.00101E+01 1.06353E-01 4.59351E-04 1.02356E-01-5.48965E-14 1.52338E-13
 -1      3570 1.99910E+01 1.31766E-01 2.39216E-04 1.10485E-01-1.34203E-13 2.59396E-13
 -1      3571 2.00087E+01 6.75520E-02-3.60972E-04 5.84785E-02-4.39192E-13 1.74370E-13
 -1      3572 2.00112E+01 7.90915E-02 3.68416E-04 7.11894E-02-4.22759E-13 9.97991E-14
 -1      3573 1.99989E+01 9.87035E-02 1.54016E-04 7.78257E-02-3.10371E-13 2.89851E-13
 -1      3574 2.00090E+01 4.86669E-02-2.60362E-04 3.84353E-02-1.21667E-13-4.11270E-14
 -1      3575 2.00111E+01 5.76236E-02 2.90230E-04 4.78295E-02-2.52023E-13 2.90902E-14
 -1      3576 2.00038E+01 7.24880E-02 9.29232E-05 5.31416E-02-2.22020E-13 4.58735E-14
 -1      3577 2.00085E+01 3.41933E-02-1.83131E-04 2.38664E-02 2.63887E-14-8.99555E-14
 -1      3578 2.00103E+01 4.10208E-02 2.24523E-04 3.06633E-02-5.29866E-14-6.23378E-14
 -1      3579 2.00064E+01 5.20756E-02 5.03429E-05 3.48366E-02 3.09086E-15-7.09999E-14
 -1      3580 2.00077E+01 2.33038E-02-1.24888E-04 1.35246E-02-1.82246E-14-4.28719E-14
 -1      3581 2.00091E+01 2.84114E-02 1.70461E-04 1.83236E-02 3.18149E-14-9.57500E-14
 -1      3582 2.00075E+01 3.64655E-02 2.16459E-05 2.15433E-02-3.41774E-14 3.01728E-14
 -1      3583 2.00066E+01 1.52704E-02-8.17972E-05 6.38776E-03-1.47502E-13 1.11747E-13
 -1      3584 2.00078E+01 1.90150E-02 1.26852E-04 9.67799E-03-8.01896E-14 5.60873E-14
 -1      3585 2.00077E+01 2.47476E-02 3.13480E-06 1.21175E-02-1.42859E-13 3.87501E-14
 -1      3586 2.00056E+01 9.47119E-03-5.06008E-05 1.63475E-03-3.92147E-15 3.43117E-14
 -1      3587 2.00065E+01 1.21555E-02 9.23381E-05 3.80755E-03 1.39408E-15 1.10901E-13
 -1      3588 2.00073E+01 1.61244E-02-8.06955E-06 5.62230E-03-8.50292E-14 2.19925E-13
 -1      3589 2.00045E+01 5.38684E-03-2.85920E-05-1.38145E-03 6.27250E-14-1.28428E-13
 -1      3590 2.00052E+01 7.26194E-03 6.55297E-05-1.90925E-05 1.47247E-14-7.78402E-15
 -1      3591 2.00065E+01 9.91653E-03-1.41637E-05 1.30513E-03 9.40353E-14-1.48057E-13
 -1      3592 2.00036E+01 2.59147E-03-1.35700E-05-3.16093E-03-8.04947E-14-2.56319E-13
 -1      3593 2.00041E+01 3.86236E-03 4.51033E-05-2.37288E-03-1.10115E-15-2.02783E-13
 -1      3594 2.00056E+01 5.55766E-03-1.67966E-05-1.42646E-03 6.71593E-14-1.28132E-13
 -1      3595 2.00028E+01 7.40550E-04-3.84768E-06-4.08229E-03 6.02809E-14-2.78217E-13
 -1      3596 2.00031E+01 1.57255E-03 2.98486E-05-3.69087E-03-7.45371E-14-2.62925E-13
 -1      3597 2.00046E+01 2.58432E-03-1.72143E-05-3.03011E-03-3.17904E-14-1.09401E-13
 -1      3598 2.00020E+01-4.41606E-04 2.11321E-06-4.42455E-03-3.55424E-14-2.66649E-13
 -1      3599 2.00023E+01 8.31829E-05 1.88162E-05-4.29976E-03-1.67385E-14-4.04204E-13
 -1      3600 2.00037E+01 6.21257E-04-1.64234E-05-3.85208E-03 3.27595E-14-3.15045E-13
 -1      3601 2.00014E+01-1.17267E-03 5.64427E-06-4.38684E-03 4.57474E-14-1.04747E-13
 -1      3602 2.00016E+01-8.51552E-04 1.12459E-05-4.43660E-03-4.45933E-15-1.80631E-13
 -1      3603 2.00028E+01-6.31158E-04-1.47804E-05-4.14505E-03-5.87059E-14-8.35210E-14
 -1      3604 2.00009E+01-1.63478E-03 5.18853E-06-4.11066E-03 4.95886E-14-1.83662E-13
 -1      3605 2.00011E+01-1.42902E-03 5.17998E-06-4.27080E-03 1.30170E-13-1.43068E-13
 -1      3606 2.00021E+01-1.40637E-03-1.25687E-05-4.09570E-03 2.49827E-14-8.53769E-14
 -1      3607 2.00005E+01-2.25522E-03 1.08520E-05-3.28241E-03 1.52248E-13-1.17398E-13
 -1      3608 2.00035E+01-2.71915E-03-9.47021E-07 9.02499E-04 1.75650E-14-3.13421E-13
 -1      3609 2.00035E+01-2.74663E-03 2.07761E-06 3.22042E-04 1.77799E-13-5.54692E-13
 -1      3610 1.61043E+01 3.18909E+00-1.92162E-02 7.15133E-01 1.41084E-13-3.17271E-13
 -1      3611 1.65581E+01 3.02549E+00 6.52423E-03 8.87543E-01 1.17922E-13-3.10984E-13
 -1      3612 1.66705E+01 2.71538E+00 7.48758E-03 1.08861E+00 1.23534E-13-3.00015E-13
 -1      3613 1.57641E+01 3.01951E+00 1.16330E-02 6.69719E-01 1.47389E-13-3.11713E-13
 -1      3614 2.00008E+01-2.30434E-03-4.75494E-06 3.27803E-03 4.25241E-14-4.49761E-13
 -1      3615 2.36944E+01-3.86392E+00 1.00725E-01-2.27725E+00 4.08906E-13-2.37722E-13
 -1      3616 2.00030E+01-2.58996E-03-5.45517E-06 2.04240E-03-4.52785E-14 8.59272E-14
 -1      3617 2.00033E+01-2.66876E-03 5.94146E-06 1.51526E-03-1.37728E-13 7.86787E-15
 -1      3618 2.00039E+01-2.42020E-03 1.30321E-06 1.25610E-03-8.00641E-14-2.21177E-13
 -1      3619 2.02430E+01 4.72870E-01 1.86561E-02 1.35257E+00 9.06789E-15-2.49459E-13
 -1      3620 2.05445E+01-1.14214E-01 7.49644E-03 1.55284E+00 2.24280E-14-2.09352E-13
 -1      3621 1.39150E+01-1.57611E-01 1.44913E-02 3.80727E+00 2.31976E-13-2.54588E-13
 -1      3622 1.19817E+01 7.06361E-01 1.41481E-01 3.00775E+00 2.25575E-13-3.85740E-13
 -1      3623 2.66684E+01-1.55096E+00-2.06148E-02-1.28217E+00-9.76476E-14 8.68194E-14
 -1      3624 2.09480E+01-7.25589E-01 2.74170E-02 1.80727E+00 3.14812E-14-1.48007E-13
 -1      3625 2.14883E+01-1.34558E+00 2.32582E-02 1.85085E+00 5.48541E-14-1.18482E-13
 -1      3626 1.99575E+01-2.85558E-01-2.01463E-02 2.03956E+00 6.22373E-14-1.65258E-13
 -1      3627 1.28467E+01 2.26670E-01 4.29601E-02-2.36110E+00 2.00787E-13 7.56582E-14
 -1      3628 1.42631E+01-7.15029E-01 1.20039E-02-3.69594E+00 2.96214E-13 1.33019E-14
 -1      3629 1.19269E+01 1.19415E+00 4.63809E-02-1.85450E+00 7.89126E-15-4.54518E-13
 -1      3630 1.31620E+01 3.56416E-01 1.91291E-02-3.29740E+00-6.68424E-14-3.84977E-13
 -1      3631 1.51284E+01-5.40847E-01 6.97780E-02-3.98637E+00-1.28321E-13-3.72889E-13
 -1      3632 1.73997E+01-1.76860E+00-2.28626E-02-4.33763E+00-1.73413E-13-3.14138E-13
 -1      3633 2.40102E+01-3.94824E+00-6.30701E-02 2.29512E+00 7.98597E-14 6.32285E-14
 -1      3634 2.22077E+01-3.50062E+00 3.32053E-02 3.30263E+00 1.42454E-13 2.05391E-14
 -1      3635 1.96298E+01 1.19990E+00 1.06179E-02 1.15532E+00 9.09667E-15-2.90375E-13
 -1      3636 1.99363E+01 8.14394E-01 1.83444E-03 1.23747E+00-5.16687E-15-2.65883E-13
 -1      3637 1.93491E+01 7.38223E-01-1.99775E-02 1.60528E+00 5.25334E-14-2.39307E-13
 -1      3638 1.88425E+01 1.47264E+00-1.69845E-02 1.31734E+00 4.30075E-14-2.63240E-13
 -1      3639 2.34438E+01-3.13991E+00 8.83551E-02-2.14755E+00-1.29235E-13 4.84196E-14
 -1      3640 1.62440E+01-1.64070E+00 5.80049E-02-4.23853E+00 2.95529E-13-5.93102E-14
 -1      3641 1.83115E+01-2.74413E+00-2.33327E-02-4.38410E+00 3.79932E-13-1.21111E-13
 -1      3642 1.95680E+01-2.45182E+00 9.88156E-02-4.09970E+00-2.14018E-13-2.36262E-13
 -1      3643 2.14876E+01-3.21671E+00-4.57842E-02-3.36370E+00-1.60524E-13-7.81233E-14
 -1      3644 1.87470E+01-1.49189E+00 7.45789E-02-3.67590E+00-1.39069E-13-2.49733E-13
 -1      3645 2.10286E+01-1.67845E+00 3.42201E-02 2.34983E+00-9.42521E-14-2.36508E-13
 -1      3646 2.16903E+01-2.25340E+00 3.04005E-02 2.26018E+00-1.45217E-13-3.01318E-13
 -1      3647 1.99229E+01-1.45940E+00-3.30956E-02 2.68279E+00-9.81229E-14-1.19498E-13
 -1      3648 2.00015E+01-2.19392E-03 1.76533E-05 3.41287E-03 4.62512E-14-4.26476E-13
 -1      3649 2.00022E+01-2.24124E-03-1.11794E-05 3.16014E-03-2.22328E-14-1.66058E-13
 -1      3650 2.00009E+01-2.23468E-03 1.77269E-06-3.35727E-03 1.96690E-13-2.80848E-14
 -1      3651 2.21726E+01-2.53000E+00 2.64457E-02-2.40678E+00-1.13640E-13-2.07345E-14
 -1      3652 1.93242E+01 8.29662E-01-1.03077E-02-1.61747E+00 7.60752E-14-1.41566E-13
 -1      3653 2.00033E+01-2.67168E-03 4.59470E-06-1.50208E-03-3.32994E-15 3.55808E-13
 -1      3654 2.00030E+01-2.59152E-03-2.19020E-06-2.03027E-03 9.30026E-15 5.49681E-13
 -1      3655 1.24865E+01 6.72818E-01 7.12057E-02 1.25023E+00 6.77652E-14 2.75460E-13
 -1      3656 1.32614E+01 8.35851E-01-7.61696E-04 6.25813E-01 1.05510E-13 1.95809E-13
 -1      3657 1.31505E+01 4.05473E-01 1.93993E-02 1.92842E+00-3.51108E-15 3.41536E-13
 -1      3658 2.37875E+01-2.97684E+00 7.93186E-02 1.61068E+00 6.27212E-14 1.49863E-14
 -1      3659 2.46286E+01-3.19938E+00 1.76514E-02 1.06924E+00 4.48122E-14 4.27818E-14
 -1      3660 2.15911E+01-1.91732E+00 3.39172E-02-2.38932E+00-9.71809E-14-5.02679E-14
 -1      3661 2.00027E+01-2.37801E-03 7.37391E-06 2.73061E-03-4.94322E-14 4.77232E-14
 -1      3662 2.22223E+01-3.42769E+00 1.23834E-02-2.68833E+00 4.19397E-13-1.59254E-13
 -1      3663 2.13963E+01-2.78149E+00 6.21537E-02-2.81119E+00 3.46700E-13-8.81413E-14
 -1      3664 2.09703E+01-3.04016E+00-4.14195E-02 3.24844E+00-1.78760E-13-2.70818E-13
 -1      3665 1.55130E+01-4.59630E-01 9.08477E-02 4.03387E+00 2.14995E-13-2.09974E-13
 -1      3666 1.46129E+01 3.74602E-01 9.82504E-03 3.27042E+00 2.07979E-13-2.68046E-13
 -1      3667 1.70359E+01-8.87815E-01 3.23262E-02 3.84787E+00 1.91496E-13-1.71484E-13
 -1      3668 1.93606E+01-3.23242E+00 7.20354E-02 4.29769E+00-1.07150E-13 9.28892E-14
 -1      3669 1.80842E+01 1.86011E+00 8.27247E-03 1.38870E+00 7.04482E-14-2.77779E-13
 -1      3670 1.83066E+01 1.50500E+00 8.76902E-03 1.54807E+00 8.21071E-14-2.70401E-13
 -1      3671 1.72971E+01 2.17185E+00-1.74749E-02 1.38889E+00 1.08776E-13-2.72354E-13
 -1      3672 2.60842E+01-2.76974E+00-9.54852E-02-4.20400E-01 8.43509E-16 6.80740E-14
 -1      3673 1.50326E+01 2.77730E+00-3.28478E-03-3.83881E-01 1.24547E-13-3.39540E-13
 -1      3674 1.48992E+01 2.85185E+00 1.85206E-03 6.78322E-02 1.28523E-13-3.27669E-13
 -1      3675 2.46164E+01-3.85773E+00 7.94320E-02 1.58533E+00-1.16580E-13-3.32900E-13
 -1      3676 1.42651E+01-9.79344E-01 1.05616E-01 4.00909E+00-9.42059E-14 4.91440E-13
 -1      3677 1.37934E+01-3.69559E-01 2.81276E-02 3.23959E+00-1.04165E-13 5.37223E-13
 -1      3678 1.57234E+01-1.42204E+00 5.50821E-02 4.03970E+00-8.13368E-14 3.16230E-13
 -1      3679 2.10037E+01-2.98969E+00 3.02970E-02 3.68806E+00 1.57343E-13-6.37095E-14
 -1      3680 1.95230E+01-2.08145E+00 7.55728E-03 3.70262E+00 1.68563E-13-9.73215E-14
 -1      3681 2.19955E+01-2.94312E+00-2.80606E-02 2.79302E+00 1.07607E-13-1.37616E-14
 -1      3682 1.60758E+01-8.98103E-01 5.71147E-02-3.50889E+00 2.81733E-13-4.72244E-14
 -1      3683 2.54857E+01-3.32821E+00 5.18273E-02 8.31967E-01 2.62602E-14 8.78186E-14
 -1      3684 2.25627E+01-2.58649E+00 2.21929E-02 2.05082E+00 6.08819E-14-4.82349E-14
 -1      3685 2.17952E+01-3.92340E+00-4.64275E-02-3.39274E+00 4.49141E-13-2.43559E-13
 -1      3686 1.54751E+01 2.54988E+00-1.48165E-02-9.89293E-01 9.79494E-14-3.26429E-13
 -1      3687 1.49132E+01 2.40252E+00 2.80872E-02-8.55571E-01 6.81044E-14-3.36934E-13
 -1      3688 1.61421E+01 2.30983E+00 1.97567E-02-1.30457E+00 1.00043E-13-3.10467E-13
 -1      3689 2.00035E+01-2.74733E-03 2.02099E-06-3.14427E-04 1.08073E-13-2.66422E-13
 -1      3690 2.00035E+01-2.72127E-03-1.10386E-06-8.92429E-04 3.48845E-14-8.54078E-14
 -1      3691 2.00039E+01-2.42487E-03 3.50276E-09-1.24304E-03-3.18602E-14 2.06657E-13
 -1      3692 2.17912E+01-1.98327E+00 3.58065E-02 2.20135E+00 6.75241E-14-7.88208E-14
 -1      3693 2.00027E+01-2.52283E-03 8.36771E-06-2.48636E-03 7.53587E-14 3.42623E-13
 -1      3694 2.00023E+01-2.42941E-03-1.80026E-05-2.86396E-03 4.96718E-14 2.21979E-13
 -1      3695 2.00033E+01-2.32493E-03 1.65200E-06-2.30525E-03 6.34979E-14 4.77598E-13
 -1      3696 1.37880E+01 8.87572E-01 1.94712E-02-7.42700E-01 1.67174E-13 1.43162E-13
 -1      3697 1.31531E+01 6.51642E-01 5.38256E-02-1.52013E+00 1.82989E-13 1.53575E-13
 -1      3698 1.44255E+01 4.47307E-01 1.11115E-02-2.02096E+00 2.17637E-13 5.93640E-14
 -1      3699 1.75422E+01 2.10739E+00 1.19889E-03-1.29259E+00 1.24889E-13-2.52012E-13
 -1      3700 2.00033E+01-2.17626E-03 3.75262E-06 2.55708E-03-8.59963E-14 3.15056E-14
 -1      3701 1.52122E+01 2.81668E-01 8.36573E-02-3.17911E+00-7.26207E-14-3.50660E-13
 -1      3702 1.18433E+01 1.61508E+00 9.79748E-02-1.07565E+00 3.55883E-14-5.07365E-13
 -1      3703 1.31653E+01 1.56303E+00 5.96191E-02-1.63037E+00 2.97332E-15-4.17888E-13
 -1      3704 1.18821E+01 1.69618E+00-6.37136E-03-8.46829E-02 8.07596E-14-4.68958E-13
 -1      3705 2.00041E+01-2.46366E-03 6.64511E-07 5.00030E-06 7.81259E-14-3.96533E-13
 -1      3706 1.99031E+01-2.50614E+00-3.22618E-02-3.36569E+00 3.16615E-13-1.49644E-13
 -1      3707 1.23030E+01 1.21873E+00 7.63017E-02 1.98592E+00 1.85137E-13-4.08243E-13
 -1      3708 1.99924E+01-3.24882E+00 8.13947E-02-4.11760E+00 4.63102E-13-1.80292E-13
 -1      3709 2.00006E+01-2.00694E-03-1.57930E-05-3.66543E-03 1.42870E-13-1.50849E-13
 -1      3710 2.00007E+01-1.79280E-03-4.26889E-06-3.92231E-03 2.65251E-15-2.41737E-13
 -1      3711 1.92887E+01-2.54417E+00 3.82640E-02-3.78983E+00 4.06645E-13-1.85905E-13
 -1      3712 2.05750E+01-1.64490E+00-2.00080E-02 2.73333E+00 8.70571E-14-9.66224E-14
 -1      3713 2.00015E+01-1.89232E-03-8.12472E-06-3.82503E-03 1.12325E-13-1.67192E-13
 -1      3714 2.00043E+01-2.08306E-03-3.58448E-06 1.58032E-03 1.56329E-14-6.40395E-14
 -1      3715 2.00045E+01-2.11927E-03-1.13363E-06 9.81121E-04 1.05058E-13-5.08919E-13
 -1      3716 2.01012E+01-1.57098E+00-4.10421E-02-2.95727E+00-9.29408E-14-1.44541E-13
 -1      3717 2.13240E+01-1.16059E+00 2.65162E-02-2.00714E+00-3.07950E-14-4.92861E-14
 -1      3718 1.33224E+01 1.35120E+00-7.54346E-03 2.12387E+00 1.84958E-13-3.50480E-13
 -1      3719 1.25039E+01 1.86631E+00 9.67210E-02 1.10471E+00 1.45810E-13-4.21441E-13
 -1      3720 1.87161E+01-2.12754E+00 3.08938E-02 3.73748E+00-1.36154E-13-2.98858E-14
 -1      3721 2.00016E+01-2.28423E-03 2.18243E-05-3.30751E-03 1.21131E-13-4.18901E-14
 -1      3722 1.81543E+01-2.32355E-01 2.30921E-02-2.34827E+00 6.12126E-14-6.47941E-14
 -1      3723 1.80598E+01 5.85393E-02-6.32142E-03-2.08958E+00 1.77119E-14-8.25932E-14
 -1      3724 1.82644E+01 2.92357E-01 1.24489E-02-1.81147E+00 5.89998E-14 8.37709E-15
 -1      3725 1.82780E+01 4.58817E-01-7.66675E-03-1.61111E+00 4.79553E-14 2.79359E-14
 -1      3726 1.75859E+01 3.91467E-01 3.99649E-03-1.86716E+00 1.01739E-13 3.51446E-14
 -1      3727 1.84773E+01 5.89292E-01 6.85404E-03-1.41411E+00 4.06528E-14 5.21464E-14
 -1      3728 1.85383E+01 6.73431E-01-6.66852E-03-1.26068E+00 5.40955E-14 1.00949E-13
 -1      3729 1.79799E+01 6.86323E-01 3.91685E-03-1.40332E+00 6.01943E-14 9.50549E-14
 -1      3730 1.87176E+01 7.33789E-01 3.75380E-03-1.11738E+00-2.33736E-14 1.23847E-13
 -1      3731 1.87961E+01 7.62908E-01-5.46199E-03-9.97790E-01-4.02884E-14 8.09675E-14
 -1      3732 1.83449E+01 8.26974E-01 3.80766E-03-1.07676E+00 6.18512E-14 7.99857E-14
 -1      3733 1.89516E+01 7.76847E-01 1.99859E-03-8.90313E-01-8.85650E-14 7.44428E-14
 -1      3734 1.90319E+01 7.70464E-01-4.41143E-03-7.94784E-01-1.64658E-13 2.21502E-14
 -1      3735 1.86674E+01 8.66154E-01 3.51929E-03-8.39333E-01-1.05808E-13 4.86794E-14
 -1      3736 1.91636E+01 7.55134E-01 1.03674E-03-7.11678E-01-1.52216E-13 1.77232E-14
 -1      3737 1.92377E+01 7.27244E-01-3.58021E-03-6.33725E-01-4.82619E-14 2.71294E-14
 -1      3738 1.89443E+01 8.39905E-01 3.12479E-03-6.60680E-01-1.14717E-13 1.69711E-13
 -1      3739 1.93474E+01 6.94889E-01 5.35973E-04-5.67858E-01 1.02814E-14 5.39503E-14
 -1      3740 1.94117E+01 6.55392E-01-2.92735E-03-5.03421E-01 7.49881E-14 1.79170E-14
 -1      3741 1.91771E+01 7.74072E-01 2.70984E-03-5.21868E-01 4.60910E-14 2.22706E-13
 -1      3742 1.95015E+01 6.14597E-01 2.89066E-04-4.50427E-01 5.80862E-14-6.07479E-15
 -1      3743 1.95551E+01 5.70361E-01-2.40147E-03-3.96947E-01-1.25980E-14 1.05991E-14
 -1      3744 1.93694E+01 6.87020E-01 2.30589E-03-4.11453E-01 7.60340E-14 1.14040E-13
 -1      3745 1.96274E+01 5.26958E-01 1.76175E-04-3.54053E-01-8.27092E-14 3.15262E-14
 -1      3746 1.96707E+01 4.82554E-01-1.96573E-03-3.09805E-01-9.65753E-14 4.70850E-14
 -1      3747 1.95256E+01 5.91693E-01 1.92762E-03-3.22455E-01-5.40370E-14 3.18269E-14
 -1      3748 1.97279E+01 4.40305E-01 1.29885E-04-2.75123E-01-1.59928E-13-1.41801E-15
 -1      3749 1.97619E+01 3.98580E-01-1.59798E-03-2.38808E-01-1.72667E-13-9.02431E-14
 -1      3750 1.96501E+01 4.96855E-01 1.58339E-03-2.50403E-01-1.88832E-13-1.12340E-13
 -1      3751 1.98064E+01 3.59722E-01 1.13474E-04-2.10936E-01-1.86843E-13-4.63736E-14
 -1      3752 1.98324E+01 3.22267E-01-1.28571E-03-1.81463E-01-6.60016E-14-4.41568E-14
 -1      3753 1.97478E+01 4.08050E-01 1.27800E-03-1.92200E-01-7.97530E-14-3.11270E-14
 -1      3754 1.98665E+01 2.87953E-01 1.08016E-04-1.59276E-01-4.04582E-14-2.23268E-13
 -1      3755 1.98859E+01 2.55475E-01-1.02147E-03-1.35670E-01-1.64573E-13-2.13644E-13
 -1      3756 1.98229E+01 3.28408E-01 1.01344E-03-1.45508E-01-1.61058E-13-1.96177E-13
 -1      3757 1.99115E+01 2.26118E-01 1.04617E-04-1.18215E-01-1.58919E-13-2.09379E-13
 -1      3758 1.99256E+01 1.98732E-01-8.00034E-04-9.95798E-02-6.85677E-14-3.08882E-13
 -1      3759 1.98797E+01 2.59326E-01 7.89365E-04-1.08423E-01-1.54363E-13-2.82099E-13
 -1      3760 1.99444E+01 1.74261E-01 9.97656E-05-8.60320E-02-8.28953E-15-3.49729E-13
 -1      3761 1.99544E+01 1.51713E-01-6.16917E-04-7.15443E-02 5.39910E-15-3.43849E-13
 -1      3762 1.99217E+01 2.01020E-01 6.03592E-04-7.93256E-02-4.91499E-14-2.77158E-13
 -1      3763 1.99678E+01 1.31773E-01 9.26437E-05-6.11847E-02-5.68614E-14-4.27975E-13
 -1      3764 1.99747E+01 1.13598E-01-4.67764E-04-5.01034E-02-6.55710E-14-4.44751E-13
 -1      3765 1.99521E+01 1.52950E-01 4.52675E-04-5.68063E-02-5.73041E-14-3.78699E-13
 -1      3766 1.99841E+01 9.76791E-02 8.36191E-05-4.23102E-02-1.69399E-13-4.10209E-13
 -1      3767 1.99886E+01 8.33160E-02-3.48212E-04-3.39807E-02-1.35620E-13-4.69294E-13
 -1      3768 1.99735E+01 1.14143E-01 3.32450E-04-3.96398E-02-1.15184E-13-5.85435E-13
 -1      3769 1.99949E+01 7.08509E-02 7.34558E-05-2.82229E-02-1.22180E-13-4.41649E-13
 -1      3770 1.99977E+01 5.97137E-02-2.53965E-04-2.20795E-02-2.49165E-13-4.65228E-13
 -1      3771 1.99882E+01 8.34225E-02 2.38497E-04-2.67691E-02-1.44218E-13-5.79888E-13
 -1      3772 2.00017E+01 5.01368E-02 6.29317E-05-1.79112E-02-3.02550E-13-4.13515E-13
 -1      3773 2.00033E+01 4.16638E-02-1.80932E-04-1.34753E-02-3.01012E-13-3.99483E-13
 -1      3774 1.99977E+01 5.95574E-02 1.66479E-04-1.72949E-02-1.86823E-13-5.71463E-13
 -1      3775 2.00057E+01 3.44470E-02 5.26802E-05-1.05282E-02-2.61970E-13-3.30178E-13
 -1      3776 2.00064E+01 2.81270E-02-1.25344E-04-7.40309E-03-1.06699E-13-3.90031E-13
 -1      3777 2.00036E+01 4.13649E-02 1.12367E-04-1.04646E-02-2.33292E-13-3.45666E-13
 -1      3778 2.00077E+01 2.27985E-02 4.31489E-05-5.37809E-03-1.42813E-13-4.77069E-13
 -1      3779 2.00078E+01 1.81835E-02-8.38397E-05-3.24133E-03-2.42343E-13-6.85861E-13
 -1      3780 2.00068E+01 2.77651E-02 7.25716E-05-5.65890E-03-1.90209E-13-3.75032E-13
 -1      3781 2.00083E+01 1.43358E-02 3.46106E-05-1.89971E-03-1.44499E-13-6.74204E-13
 -1      3782 2.00081E+01 1.10441E-02-5.35096E-05-4.94004E-04-6.37646E-14-4.63097E-13
 -1      3783 2.00083E+01 1.78089E-02 4.39939E-05-2.37671E-03-1.68465E-13-5.28538E-13
 -1      3784 2.00081E+01 8.33423E-03 2.71937E-05 3.51415E-04 2.43491E-14-2.33130E-13
 -1      3785 2.00077E+01 6.04823E-03-3.18916E-05 1.22747E-03 1.67121E-13-1.57263E-13
 -1      3786 2.00086E+01 1.06865E-02 2.40263E-05-2.19686E-04 1.65337E-13-2.24872E-13
 -1      3787 2.00074E+01 4.19341E-03 2.09409E-05 1.72079E-03 2.20839E-13-1.87594E-13
 -1      3788 2.00069E+01 2.65376E-03-1.68725E-05 2.22172E-03 1.74088E-13-1.84127E-13
 -1      3789 2.00081E+01 5.72205E-03 1.04882E-05 1.12322E-03 2.29196E-13-2.62296E-13
 -1      3790 2.00064E+01 1.42420E-03 1.58796E-05 2.47241E-03 1.95250E-13-6.60547E-14
 -1      3791 2.00058E+01 4.20820E-04-6.76649E-06 2.71408E-03 1.52865E-13 3.76329E-15
 -1      3792 2.00072E+01 2.36193E-03 1.36133E-06 1.89122E-03 2.54432E-13-6.22391E-14
 -1      3793 2.00052E+01-3.67636E-04 1.19936E-05 2.80140E-03-1.36776E-14-1.67236E-13
 -1      3794 2.00047E+01-9.94028E-04 2.60133E-07 2.86530E-03-5.67706E-14-2.27470E-13
 -1      3795 2.00061E+01 1.59644E-04-4.37508E-06 2.26169E-03-2.65639E-14 3.15431E-14
 -1      3796 1.87054E+01 3.86503E-01-5.72952E-03 1.78650E+00-1.26352E-13 3.23278E-14
 -1      3797 1.87527E+01 1.95928E-01 1.38598E-02 1.96293E+00-5.77876E-14-1.64532E-14
 -1      3798 1.86845E+01-1.76923E+00 3.82878E-02-3.48991E+00 2.39829E-13-1.37439E-13
 -1      3799 1.86269E+01-7.34731E-02-2.98755E-03 2.22431E+00-3.91458E-14-1.12392E-14
 -1      3800 1.88066E+01-4.09032E-01 2.32990E-02 2.43594E+00-7.95675E-14 6.24023E-15
 -1      3801 1.80294E+01 2.50619E-01 2.05329E-03 2.08825E+00-8.34869E-14 9.91470E-14
 -1      3802 1.90787E+01 7.23543E-01-5.09945E-03 1.18339E+00-3.14682E-15-2.59705E-14
 -1      3803 1.90323E+01 6.92465E-01 4.44429E-03 1.30345E+00-4.16910E-14-1.82574E-15
 -1      3804 1.92683E+01 7.30762E-01-4.32793E-03 9.67501E-01 5.55359E-14-8.06656E-14
 -1      3805 1.92148E+01 7.38175E-01 2.54079E-03 1.06922E+00 3.27896E-14-5.31067E-14
 -1      3806 1.88847E+01 8.31482E-01 3.72888E-03 1.04459E+00 1.27128E-14-1.11152E-13
 -1      3807 1.94348E+01 6.85273E-01-3.64511E-03 7.87625E-01-6.23810E-14-2.04531E-13
 -1      3808 1.93845E+01 7.14618E-01 1.53368E-03 8.74848E-01 1.00715E-14-1.32464E-13
 -1      3809 1.91266E+01 8.07844E-01 3.48629E-03 8.47725E-01 6.72982E-14-2.20696E-13
 -1      3810 1.95740E+01 6.12217E-01-3.05935E-03 6.35826E-01-1.04645E-13-1.74048E-13
 -1      3811 1.95310E+01 6.52417E-01 1.03759E-03 7.10763E-01-1.40036E-13-1.65354E-13
 -1      3812 1.93296E+01 7.41576E-01 3.04544E-03 6.86974E-01-1.27927E-13-2.06293E-13
 -1      3813 1.96863E+01 5.28035E-01-2.55387E-03 5.07511E-01 2.39870E-13-7.62394E-14
 -1      3814 1.96518E+01 5.71910E-01 8.02186E-04 5.71483E-01 7.14092E-14-6.66604E-14
 -1      3815 1.94954E+01 6.54142E-01 2.55389E-03 5.53002E-01-7.98192E-14-1.84080E-13
 -1      3816 1.97746E+01 4.43024E-01-2.11368E-03 3.99737E-01 2.85324E-14 3.98726E-14
 -1      3817 1.97481E+01 4.86135E-01 6.85677E-04 4.53714E-01 2.20580E-13 4.99608E-14
 -1      3818 1.96277E+01 5.59651E-01 2.07937E-03 4.40598E-01 1.08252E-13 1.24765E-13
 -1      3819 1.98423E+01 3.63234E-01-1.72982E-03 3.10226E-01-1.13043E-13 1.95578E-13
 -1      3820 1.98227E+01 4.03031E-01 6.15063E-04 3.55114E-01-5.71320E-14 9.86970E-14
 -1      3821 1.97312E+01 4.66991E-01 1.65306E-03 3.46595E-01-8.26480E-14 1.42024E-13
 -1      3822 1.98933E+01 2.91839E-01-1.39734E-03 2.36911E-01-3.83793E-14 2.45366E-13
 -1      3823 1.98791E+01 3.27048E-01 5.56863E-04 2.73653E-01-5.12963E-14 3.25039E-13
 -1      3824 1.98106E+01 3.81373E-01 1.28707E-03 2.68714E-01-1.45733E-13 1.21621E-13
 -1      3825 1.99307E+01 2.30140E-01-1.11283E-03 1.77774E-01-2.01448E-13 2.31927E-13
 -1      3826 1.99209E+01 2.60312E-01 4.98554E-04 2.07358E-01-1.08457E-13 3.73252E-13
 -1      3827 1.98705E+01 3.05468E-01 9.82927E-04 2.05019E-01-1.66352E-13 3.27544E-13
 -1      3828 1.99576E+01 1.78259E-01-8.73009E-04 1.30830E-01-1.99698E-13 3.41709E-13
 -1      3829 1.99511E+01 2.03458E-01 4.37674E-04 1.54257E-01-2.08796E-13 3.13743E-13
 -1      3830 1.99147E+01 2.40259E-01 7.36552E-04 1.53689E-01-2.11955E-13 4.99910E-13
 -1      3831 1.99765E+01 1.35619E-01-6.74114E-04 9.41778E-02-2.00395E-13 3.49883E-13
 -1      3832 1.99724E+01 1.56211E-01 3.75841E-04 1.12418E-01-1.26438E-13 3.27695E-13
 -1      3833 1.99468E+01 1.85650E-01 5.41194E-04 1.12972E-01-1.53838E-13 5.28446E-13
 -1      3834 1.99893E+01 1.01276E-01-5.11876E-04 6.60461E-02-2.23166E-13 1.96010E-13
 -1      3835 1.99869E+01 1.17775E-01 3.15720E-04 8.00028E-02-1.40921E-13 2.97148E-13
 -1      3836 1.99694E+01 1.40909E-01 3.89217E-04 8.12039E-02-1.49028E-13 4.24666E-13
 -1      3837 1.99977E+01 7.41261E-02-3.81722E-04 4.48390E-02-2.94948E-14-5.04649E-14
 -1      3838 1.99965E+01 8.71057E-02 2.59677E-04 5.53256E-02-2.13040E-13 1.10810E-13
 -1      3839 1.99850E+01 1.04967E-01 2.73104E-04 5.68391E-02-1.02260E-13 3.33606E-16
 -1      3840 2.00029E+01 5.30465E-02-2.79030E-04 2.91579E-02 2.82293E-14-9.94902E-14
 -1      3841 2.00024E+01 6.30757E-02 2.09319E-04 3.68843E-02-3.25074E-14-1.03889E-13
 -1      3842 1.99953E+01 7.66200E-02 1.85982E-04 3.84877E-02-2.85838E-14-1.28549E-13
 -1      3843 2.00057E+01 3.69724E-02-1.99361E-04 1.78083E-02-1.20908E-13 1.81323E-13
 -1      3844 2.00058E+01 4.45823E-02 1.65465E-04 2.33782E-02 8.02008E-15 9.45855E-14
 -1      3845 2.00017E+01 5.46604E-02 1.21847E-04 2.49327E-02-1.54971E-13 3.23950E-14
 -1      3846 2.00071E+01 2.49431E-02-1.38624E-04 9.79321E-03-2.13904E-13 1.73178E-13
 -1      3847 2.00074E+01 3.06082E-02 1.28293E-04 1.37085E-02-1.64521E-13 1.44702E-13
 -1      3848 2.00055E+01 3.79539E-02 7.56238E-05 1.51348E-02-1.10375E-13 3.38466E-13
 -1      3849 2.00074E+01 1.61205E-02-9.31733E-05 4.29810E-03 8.88793E-14-6.92533E-14
 -1      3850 2.00079E+01 2.02514E-02 9.75249E-05 6.96718E-03-1.19542E-13 4.47307E-15
 -1      3851 2.00073E+01 2.54818E-02 4.31215E-05 8.22702E-03-8.13345E-14-4.92102E-14
 -1      3852 2.00070E+01 9.79322E-03-5.98586E-05 6.70515E-04 8.69429E-14-2.52329E-14
 -1      3853 2.00076E+01 1.27363E-02 7.26034E-05 2.41929E-03 1.64572E-13 3.65068E-14
 -1      3854 2.00079E+01 1.63591E-02 2.09506E-05 3.50126E-03 1.09044E-13-1.27199E-13
 -1      3855 2.00063E+01 5.36988E-03-3.60276E-05-1.60197E-03 1.67320E-14 5.70591E-14
 -1      3856 2.00069E+01 7.41165E-03 5.28253E-05-5.18540E-04 4.30642E-14-2.80821E-14
 -1      3857 2.00077E+01 9.83591E-03 6.41284E-06 3.90855E-04 1.14012E-13 9.29515E-14
 -1      3858 2.00054E+01 2.36769E-03-1.94804E-05-2.91385E-03 9.60555E-14-1.65609E-14
 -1      3859 2.00060E+01 3.74093E-03 3.74031E-05-2.30025E-03-6.22591E-15 5.92023E-14
 -1      3860 2.00070E+01 5.29060E-03-2.60359E-06-1.54876E-03 4.71522E-15-4.65043E-14
 -1      3861 2.00045E+01 3.97054E-04-7.91269E-06-3.56311E-03-8.49798E-14-4.34365E-14
 -1      3862 2.00050E+01 1.28935E-03 2.54812E-05-3.27272E-03 2.13330E-14-7.83858E-14
 -1      3863 2.00061E+01 2.21711E-03-7.61297E-06-2.65979E-03 1.75062E-14 5.73578E-14
 -1      3864 2.00035E+01-8.58327E-04-1.44825E-06-3.77131E-03-3.81191E-14-1.76022E-13
 -1      3865 2.00040E+01-2.95199E-04 1.61587E-05-3.69640E-03-3.64413E-14-1.41283E-13
 -1      3866 2.00050E+01 2.08004E-04-1.06848E-05-3.20014E-03-3.90756E-14-9.75607E-14
 -1      3867 2.00027E+01-1.62797E-03 2.93921E-06-3.67493E-03 4.50694E-14-8.19366E-14
 -1      3868 2.00030E+01-1.28377E-03 1.33131E-05-3.73857E-03-3.96036E-14-2.14366E-13
 -1      3869 2.00040E+01-1.08959E-03-1.48500E-05-3.37044E-03-7.08514E-14-1.93028E-13
 -1      3870 2.09208E+01-6.21078E-01 1.85681E-02-1.90837E+00 1.31639E-14-4.24658E-14
 -1      3871 1.84572E+01-6.92061E-01 2.58784E-04-3.09107E+00-7.82777E-14-2.24615E-13
 -1      3872 1.45440E+01 2.51825E+00 1.29220E-02 4.88388E-01 1.35057E-13-3.23739E-13
 -1      3873 1.50709E+01 2.70913E+00-1.79701E-02 7.38560E-01 1.55687E-13-3.04857E-13
 -1      3874 1.89407E+01 4.13136E-01 1.37162E-02 2.09407E+00 9.94140E-14-2.20195E-13
 -1      3875 1.92753E+01-2.45138E-01 1.93791E-02 2.42408E+00 1.02048E-13-1.92522E-13
 -1      3876 2.00038E+01-1.78307E-03-1.14256E-06 2.81662E-03-6.23928E-14-4.19037E-14
 -1      3877 2.00041E+01-1.96232E-03-1.54537E-06 2.14190E-03 3.68621E-14 4.73959E-14
 -1      3878 2.00048E+01-1.59056E-03 6.88154E-06 1.84730E-03 5.03345E-14-7.11140E-14
 -1      3879 2.00043E+01-1.35680E-03 9.96206E-06 2.86306E-03-6.40510E-14-2.14739E-13
 -1      3880 2.00022E+01-2.18538E-03 7.93581E-06-3.23381E-03 9.83788E-14-5.37849E-15
 -1      3881 1.79034E+01 1.52585E+00 2.65536E-02-1.70565E+00 8.05903E-14-2.56366E-13
 -1      3882 1.69565E+01 1.84482E+00-2.33411E-02-1.59687E+00 8.75745E-14-2.89315E-13
 -1      3883 1.64381E+01 1.70471E+00 2.22079E-02-1.78021E+00 5.64626E-14-3.01472E-13
 -1      3884 2.00045E+01-2.12048E-03-4.94766E-07-9.69997E-04-1.06170E-13 7.19287E-15
 -1      3885 2.00043E+01-2.08698E-03-5.05428E-06-1.56908E-03-8.82584E-14 2.93131E-13
 -1      3886 1.56899E+01-2.90548E-01 1.40562E-02-2.97647E+00 2.56115E-13-4.90614E-14
 -1      3887 1.72836E+01-1.22268E+00-1.43943E-02-3.49298E+00 2.72272E-13-1.34746E-13
 -1      3888 1.55272E+01 1.18956E+00 1.43185E-02-2.31149E+00-2.07131E-15-3.17480E-13
 -1      3889 1.70833E+01 2.78655E-01-8.24423E-03-2.90850E+00-2.51518E-14-2.80576E-13
 -1      3890 1.88820E+01 5.29870E-01-1.12686E-02-1.99745E+00 3.92698E-14-1.63626E-13
 -1      3891 1.92555E+01-7.84258E-01-1.34245E-03 2.81024E+00 1.00717E-13-1.51522E-13
 -1      3892 1.94785E+01-1.42372E+00 3.39344E-02 3.24515E+00 1.40228E-13-1.38230E-13
 -1      3893 1.81388E+01-1.16625E+00 3.50680E-02 3.75197E+00 1.68738E-13-1.61267E-13
 -1      3894 1.80826E+01-7.88321E-02 4.56571E-03 2.86541E+00 1.41454E-13-2.09029E-13
 -1      3895 1.87669E+01-8.40919E-01 6.81946E-03 2.77054E+00-1.54731E-13-5.09527E-14
 -1      3896 1.92303E+01-1.36837E+00 3.81333E-02 2.98758E+00-1.88167E-13-1.01804E-13
 -1      3897 1.78512E+01-4.45843E-01-1.74030E-02 2.74497E+00-1.39133E-13 3.03772E-15
 -1      3898 2.00047E+01-2.12549E-03-1.57076E-06 3.18267E-04-8.92709E-14-4.31788E-13
 -1      3899 2.00047E+01-2.12809E-03-2.33016E-06-3.03701E-04-1.39693E-13-1.52534E-13
 -1      3900 2.00051E+01-1.72122E-03 5.86278E-06 6.58311E-04 3.69563E-14-3.65837E-13
 -1      3901 1.88803E+01 6.26394E-01-5.82492E-03 1.44887E+00-1.01460E-13 5.47772E-14
 -1      3902 1.88617E+01 5.33236E-01 8.12100E-03 1.59325E+00-1.24481E-13-7.26497E-15
 -1      3903 1.86077E+01 7.80541E-01 3.47747E-03 1.29427E+00-5.77988E-14-5.55641E-14
 -1      3904 1.72690E+01-1.54479E+00 2.12847E-03 3.84014E+00-1.34594E-13 7.95874E-14
 -1      3905 1.82220E+01-1.13160E+00 2.99130E-02-3.10103E+00 1.72941E-13-1.18306E-13
 -1      3906 2.00024E+01-1.96184E-03 7.19195E-06-3.39112E-03 1.37062E-13 8.13973E-14
 -1      3907 1.39272E+01 9.37779E-01 9.79146E-03 3.49752E-01 8.93669E-14 1.33775E-13
 -1      3908 1.37637E+01 1.05170E+00 6.30248E-02-2.14263E-01 1.21392E-13 1.22865E-13
 -1      3909 1.44148E+01 8.93845E-01-7.48875E-03-8.52894E-01 1.19272E-13 9.72087E-14
 -1      3910 1.79612E+01-6.29595E-01 4.75987E-03-2.76820E+00 1.48900E-13-9.59476E-14
 -1      3911 1.30772E+01 2.00041E+00 4.08655E-02 2.57821E-01 1.06040E-13-4.03337E-13
 -1      3912 2.00047E+01-1.72199E-03 1.04513E-06-1.81932E-03-9.10075E-15 1.87641E-13
 -1      3913 2.00040E+01-2.07359E-03 1.29949E-06-2.08507E-03 5.85689E-14 4.75340E-13
 -1      3914 2.00037E+01-2.02883E-03-1.36161E-06-2.52827E-03 1.44599E-13 3.28934E-13
 -1      3915 1.71704E+01-1.57147E-01 4.39535E-03-2.56179E+00 1.32221E-13-1.15872E-13
 -1      3916 1.83092E+01 6.09671E-01 2.57349E-03 1.62496E+00-1.20432E-13 1.45440E-15
 -1      3917 1.69631E+01-3.20422E-01-8.54849E-03 3.39408E+00 1.56903E-13-1.91956E-13
 -1      3918 2.00051E+01-1.10381E-03-1.04377E-05 2.38136E-03-2.62774E-14-4.92797E-14
 -1      3919 1.55378E+01 2.63841E+00 1.42654E-02 1.04853E+00 1.43472E-13-3.13981E-13
 -1      3920 1.52816E+01 2.69316E-01 2.88887E-02-2.38242E+00 1.90716E-13-3.41428E-14
 -1      3921 1.64834E+01 2.77012E-02 2.29197E-02-2.45635E+00 1.86360E-13-7.17924E-14
 -1      3922 1.66509E+01 3.09134E-01-1.90188E-02-2.06491E+00 1.00185E-13-1.63198E-14
 -1      3923 1.52434E+01 6.31405E-01-1.28264E-02-1.67772E+00 1.80817E-13 1.09045E-14
 -1      3924 1.60788E+01 2.49062E+00-2.05000E-02 1.26462E+00 1.45837E-13-2.95023E-13
 -1      3925 1.67277E+01 2.31326E+00 7.18700E-03 1.39197E+00 1.34919E-13-2.90036E-13
 -1      3926 1.68153E+01 2.00258E+00 9.31441E-03 1.61330E+00 1.32830E-13-2.59476E-13
 -1      3927 1.54892E+01 2.24755E+00 4.27146E-03 1.40748E+00 1.51516E-13-2.99517E-13
 -1      3928 1.38164E+01 2.26000E+00-2.33762E-02 5.09663E-01 1.39826E-13-3.46610E-13
 -1      3929 1.42637E+01 2.21252E+00 5.07467E-02 1.22964E+00 1.59315E-13-3.19052E-13
 -1      3930 2.02320E+01-3.67026E-01 7.08164E-03-2.11673E+00 6.98768E-15-8.96436E-14
 -1      3931 1.38822E+01 2.78359E-01 7.04879E-02 2.39403E+00-1.96817E-14 3.80977E-13
 -1      3932 1.41576E+01 6.23945E-01 5.40838E-03 1.66432E+00 8.75454E-14 2.68750E-13
 -1      3933 1.47111E+01-1.29201E-01-1.23990E-02 2.83625E+00-8.95256E-14 3.41262E-13
 -1      3934 1.45277E+01 1.59820E+00 8.53787E-03-1.96130E+00 1.11226E-14-3.44898E-13
 -1      3935 2.00052E+01-1.72861E-03 5.84674E-06-6.47498E-04-2.17702E-13-1.33576E-13
 -1      3936 1.41122E+01 1.97726E+00-1.36088E-02-1.23977E+00 3.32197E-14-3.74189E-13
 -1      3937 1.86436E+01 2.90337E-01 1.51137E-02-2.31759E+00-3.60259E-15-1.99376E-13
 -1      3938 1.84631E+01 1.17515E+00 1.43804E-02 1.74629E+00 9.55485E-14-2.67637E-13
 -1      3939 1.87293E+01 7.93417E-01 1.10720E-02 1.89532E+00 9.86921E-14-2.44701E-13
 -1      3940 1.78654E+01 7.83523E-01-1.92986E-02 2.25030E+00 1.41017E-13-2.18223E-13
 -1      3941 1.75387E+01 1.51056E+00-1.56144E-02 1.81046E+00 1.19869E-13-2.45531E-13
 -1      3942 1.36787E+01 2.26539E+00 3.55317E-02-5.61212E-01 6.94072E-14-3.84777E-13
 -1      3943 1.42899E+01 1.16592E+00 7.13955E-02 2.58278E+00 1.97346E-13-3.02673E-13
 -1      3944 1.42096E+01 1.67324E+00 6.80500E-03 1.84411E+00 1.64192E-13-3.18563E-13
 -1      3945 1.48236E+01 1.88195E+00-1.08489E-02 1.69624E+00 1.71916E-13-3.12543E-13
 -1      3946 1.53900E+01 7.22762E-01 6.72895E-03 2.85883E+00 1.91425E-13-2.60399E-13
 -1      3947 1.70943E+01 5.24340E-01 1.00389E-02-1.75922E+00 1.12663E-13-1.66627E-14
 -1      3948 1.72751E+01 6.66799E-01-1.57640E-02-1.50055E+00 1.24148E-13-4.47521E-15
 -1      3949 1.64679E+01 6.70460E-01 1.72843E-02-1.66041E+00 1.41750E-13 1.26176E-14
 -1      3950 1.64423E+01-7.52793E-01 1.79603E-02 3.34098E+00-1.62770E-13 1.29459E-13
 -1      3951 1.76250E+01 7.83178E-01 4.83374E-03-1.29652E+00 7.41180E-14-1.47586E-14
 -1      3952 1.78033E+01 8.51921E-01-1.13773E-02-1.11902E+00 4.97369E-14 1.75833E-14
 -1      3953 1.71937E+01 8.97809E-01 1.10368E-02-1.18736E+00 9.27166E-14-6.50096E-14
 -1      3954 1.80805E+01 9.03587E-01 2.33171E-03-9.79017E-01 5.32949E-14 3.82381E-14
 -1      3955 1.82445E+01 9.22962E-01-7.94541E-03-8.52873E-01 1.02999E-14-7.25459E-15
 -1      3956 1.77743E+01 9.95622E-01 7.87683E-03-8.74991E-01 3.66022E-14-5.89405E-15
 -1      3957 1.84662E+01 9.30362E-01 9.92969E-04-7.53748E-01-2.15446E-14 2.93349E-14
 -1      3958 1.86107E+01 9.17123E-01-5.58520E-03-6.60896E-01-7.14540E-14 9.52037E-14
 -1      3959 1.82421E+01 1.00812E+00 5.89749E-03-6.59521E-01 2.76943E-15 2.91469E-14
 -1      3960 1.87889E+01 8.96008E-01 2.76681E-04-5.87986E-01-9.21160E-14 1.41883E-13
 -1      3961 1.89127E+01 8.62286E-01-4.04125E-03-5.17054E-01 2.08341E-14 2.36394E-13
 -1      3962 1.86208E+01 9.64408E-01 4.54070E-03-5.06223E-01-2.78568E-14 1.41075E-13
 -1      3963 1.90564E+01 8.23946E-01-8.26900E-05-4.61558E-01-1.24772E-14 1.19637E-13
 -1      3964 1.91600E+01 7.78613E-01-3.01645E-03-4.05718E-01 4.67635E-14 1.20813E-13
 -1      3965 1.89281E+01 8.85416E-01 3.57862E-03-3.92493E-01-4.71699E-14 1.65627E-13
 -1      3966 1.92756E+01 7.31322E-01-2.50537E-04-3.62483E-01 7.23292E-14 6.00286E-14
 -1      3967 1.93607E+01 6.80938E-01-2.30741E-03-3.17656E-01-3.17801E-14-2.75394E-14
 -1      3968 1.91770E+01 7.86661E-01 2.86381E-03-3.05415E-01-2.46575E-16-7.82715E-14
 -1      3969 1.94530E+01 6.30628E-01-3.09833E-04-2.83507E-01-1.18009E-13-3.55606E-14
 -1      3970 1.95216E+01 5.79840E-01-1.79342E-03-2.47178E-01-1.39509E-13-1.04197E-13
 -1      3971 1.93771E+01 6.79949E-01 2.30575E-03-2.37306E-01-1.02758E-13-8.87321E-14
 -1      3972 1.95945E+01 5.30551E-01-3.09262E-04-2.20050E-01-1.79268E-13-1.38198E-13
 -1      3973 1.96489E+01 4.82437E-01-1.40476E-03-1.90568E-01-1.57402E-13-1.17850E-13
 -1      3974 1.95364E+01 5.73816E-01 1.85438E-03-1.83383E-01-1.81455E-13-1.56417E-13
 -1      3975 1.97057E+01 4.36712E-01-2.78452E-04-1.69030E-01-7.44961E-14-2.11730E-13
 -1      3976 1.97479E+01 3.93111E-01-1.10134E-03-1.45209E-01-8.46166E-14-1.97598E-13
 -1      3977 1.96616E+01 4.73979E-01 1.48188E-03-1.40499E-01-1.07185E-13-1.82648E-13
 -1      3978 1.97916E+01 3.52360E-01-2.35164E-04-1.28199E-01-1.74349E-13-1.39491E-13
 -1      3979 1.98238E+01 3.14181E-01-8.59708E-04-1.09113E-01-1.38124E-13-1.92804E-13
 -1      3980 1.97585E+01 3.83863E-01 1.17235E-03-1.06441E-01-1.45955E-13-3.06160E-13
 -1      3981 1.98568E+01 2.78994E-01-1.89602E-04-9.57926E-02-1.37892E-13-1.42769E-13
 -1      3982 1.98808E+01 2.46488E-01-6.65573E-04-8.06678E-02-1.40752E-13-1.06548E-13
 -1      3983 1.98324E+01 3.05135E-01 9.15823E-04-7.95486E-02-9.23442E-14-9.29173E-14
 -1      3984 1.99053E+01 2.16892E-01-1.47199E-04-7.03508E-02-9.05211E-14-2.58330E-13
 -1      3985 1.99229E+01 1.89874E-01-5.09529E-04-5.85177E-02-9.08960E-14-3.30130E-13
 -1      3986 1.98876E+01 2.38197E-01 7.05093E-04-5.85001E-02-1.38613E-13-2.58977E-13
 -1      3987 1.99407E+01 1.65543E-01-1.10464E-04-5.06295E-02-1.31809E-13-3.48588E-13
 -1      3988 1.99532E+01 1.43561E-01-3.84780E-04-4.15025E-02-1.32308E-13-3.61689E-13
 -1      3989 1.99281E+01 1.82603E-01 5.34116E-04-4.22084E-02-1.13131E-13-3.30499E-13
 -1      3990 1.99658E+01 1.23967E-01-8.01719E-05-3.55592E-02-1.23848E-13-4.54772E-13
 -1      3991 1.99745E+01 1.06431E-01-2.85980E-04-2.86279E-02-2.26890E-13-5.59698E-13
 -1      3992 1.99572E+01 1.37394E-01 3.97387E-04-2.97611E-02-1.80670E-13-4.40015E-13
 -1      3993 1.99832E+01 9.09540E-02-5.61348E-05-2.42236E-02-1.69138E-13-5.54307E-13
 -1      3994 1.99889E+01 7.72260E-02-2.08661E-04-1.90485E-02-7.09750E-14-5.20213E-13
 -1      3995 1.99774E+01 1.01339E-01 2.89752E-04-2.03900E-02-1.30353E-13-4.84047E-13
 -1      3996 1.99947E+01 6.52279E-02-3.76805E-05-1.58457E-02-1.30985E-13-4.80103E-13
 -1      3997 1.99983E+01 5.46796E-02-1.48991E-04-1.20541E-02-1.47137E-13-4.34861E-13
 -1      3998 1.99910E+01 7.31181E-02 2.06422E-04-1.34509E-02-8.67361E-14-3.41432E-13
 -1      3999 2.00019E+01 4.55521E-02-2.39435E-05-9.77564E-03-1.68969E-13-3.49347E-13
 -1      4000 2.00040E+01 3.75998E-02-1.03653E-04-7.05686E-03-3.00630E-13-3.07175E-13
 -1      4001 1.99998E+01 5.14347E-02 1.43040E-04-8.40873E-03-1.33027E-13-3.51624E-13
 -1      4002 2.00061E+01 3.07910E-02-1.40318E-05-5.47824E-03-2.60606E-13-3.11821E-13
 -1      4003 2.00072E+01 2.49154E-02-6.98026E-05-3.57767E-03-1.60324E-13-3.17556E-13
 -1      4004 2.00050E+01 3.50876E-02 9.57383E-05-4.82473E-03-2.26865E-13-3.28682E-13
 -1      4005 2.00082E+01 1.99423E-02-7.11754E-06-2.51974E-03-8.53735E-14-3.35941E-13
 -1      4006 2.00086E+01 1.56954E-02-4.50310E-05-1.23228E-03-2.94446E-15-2.21521E-13
 -1      4007 2.00078E+01 2.30084E-02 6.11701E-05-2.34388E-03-9.19643E-14-2.89078E-13
 -1      4008 2.00089E+01 1.21470E-02-2.47711E-06-5.54317E-04 1.97877E-13-1.57005E-13
 -1      4009 2.00087E+01 9.15191E-03-2.73396E-05 2.82330E-04 3.37145E-13-8.21418E-14
 -1      4010 2.00089E+01 1.42763E-02 3.65000E-05-6.83292E-04 1.87030E-13-2.19114E-13
 -1      4011 2.00086E+01 6.68654E-03 5.37523E-07 6.89044E-04 2.79112E-13-1.87576E-13
 -1      4012 2.00082E+01 4.63179E-03-1.53108E-05 1.20122E-03 2.09328E-13-1.47264E-13
 -1      4013 2.00089E+01 8.11632E-03 1.93595E-05 3.78951E-04 2.76624E-13-2.67228E-13
 -1      4014 2.00078E+01 2.97344E-03 3.36268E-06 1.41711E-03 2.36954E-13-1.45837E-13
 -1      4015 2.00072E+01 1.60691E-03-7.05061E-06 1.70396E-03 1.86673E-13-1.84292E-13
 -1      4016 2.00082E+01 3.88800E-03 7.38055E-06 1.01263E-03 2.02044E-13-2.24801E-13
 -1      4017 2.00067E+01 5.22294E-04 4.78154E-06 1.79202E-03-1.15070E-14-5.76353E-14
 -1      4018 2.00061E+01-3.47801E-04 7.05093E-07 1.91310E-03-1.21828E-13-2.17006E-14
 -1      4019 2.00072E+01 1.08082E-03-6.79290E-07 1.35297E-03 5.97646E-14-1.46167E-13
 -1      4020 1.74446E+01 5.83320E-01-1.69437E-02 1.73243E+00-1.35597E-14-7.93669E-15
 -1      4021 1.73473E+01 3.94314E-01 5.32667E-03 1.99239E+00-3.22706E-14 3.47515E-14
 -1      4022 1.89976E+01 8.53559E-01-4.78981E-03 6.88994E-01 3.62138E-14-1.97716E-13
 -1      4023 1.88887E+01 8.87679E-01 3.27256E-04 7.69979E-01 9.36983E-14-1.43096E-13
 -1      4024 1.87071E+01 9.07460E-01-6.31021E-03 8.51005E-01 8.95447E-14-8.91685E-14
 -1      4025 1.85807E+01 9.18561E-01 1.20109E-03 9.51683E-01 4.19307E-14-4.64054E-14
 -1      4026 1.86274E+01 9.81089E-01 6.16199E-03 6.80368E-01 1.40629E-13-7.44812E-14
 -1      4027 1.94234E+01 6.69991E-01-3.01047E-03 4.47790E-01-1.05784E-13-5.51790E-14
 -1      4028 1.93503E+01 7.21387E-01-1.30364E-04 5.04408E-01-1.39100E-13-1.45199E-13
 -1      4029 1.95733E+01 5.68493E-01-2.43989E-03 3.56073E-01-2.68307E-14 1.46257E-13
 -1      4030 1.95157E+01 6.19892E-01-1.07422E-04 4.03834E-01-5.72953E-14 7.63207E-15
 -1      4031 1.93938E+01 6.92257E-01 3.15450E-03 3.57478E-01-1.46306E-13-2.15986E-13
 -1      4032 1.96903E+01 4.71509E-01-1.98101E-03 2.79489E-01-1.96039E-13 1.91536E-13
 -1      4033 1.96458E+01 5.19812E-01-4.49434E-05 3.19499E-01-3.89391E-14 2.29070E-13
 -1      4034 1.95518E+01 5.83800E-01 2.50285E-03 2.84291E-01-8.07709E-14 1.24008E-13
 -1      4035 1.97802E+01 3.83233E-01-1.60070E-03 2.16147E-01-1.93817E-13 1.82799E-13
 -1      4036 1.97465E+01 4.26696E-01 1.89731E-05 2.49269E-01-1.35652E-13 1.75570E-13
 -1      4037 1.96749E+01 4.82036E-01 1.96683E-03 2.23148E-01-1.57395E-13 2.49894E-13
 -1      4038 1.98482E+01 3.05723E-01-1.28155E-03 1.64437E-01-2.65525E-13 3.31090E-13
 -1      4039 1.98232E+01 3.43557E-01 6.87815E-05 1.91464E-01-3.04776E-13 1.85784E-13
 -1      4040 1.97693E+01 3.90409E-01 1.52753E-03 1.72539E-01-2.77194E-13 1.51555E-13
 -1      4041 1.98987E+01 2.39579E-01-1.01375E-03 1.22853E-01-2.73876E-13 4.08268E-13
 -1      4042 1.98805E+01 2.71641E-01 1.00704E-04 1.44561E-01-2.48801E-13 3.52889E-13
 -1      4043 1.98407E+01 3.10517E-01 1.17047E-03 1.31199E-01-3.11659E-13 1.93239E-13
 -1      4044 1.99355E+01 1.84469E-01-7.90792E-04 8.99439E-02-1.20852E-13 4.10932E-13
 -1      4045 1.99226E+01 2.11026E-01 1.16433E-04 1.07097E-01-1.57117E-13 3.98838E-13
 -1      4046 1.98937E+01 2.42675E-01 8.83468E-04 9.79420E-02-1.92809E-13 3.37650E-13
 -1      4047 1.99617E+01 1.39506E-01-6.07425E-04 6.43348E-02-5.38421E-14 2.45014E-13
 -1      4048 1.99528E+01 1.61059E-01 1.19655E-04 7.76599E-02-1.47439E-14 3.41970E-13
 -1      4049 1.99324E+01 1.86360E-01 6.55743E-04 7.16211E-02 1.22633E-14 2.34358E-13
 -1      4050 1.99799E+01 1.03518E-01-4.58780E-04 4.47523E-02-3.15379E-14-7.36446E-15
 -1      4051 1.99740E+01 1.20684E-01 1.14291E-04 5.49234E-02-7.49466E-14 1.77373E-13
 -1      4052 1.99600E+01 1.40554E-01 4.77574E-04 5.11432E-02-3.68559E-15 1.03710E-13
 -1      4053 1.99922E+01 7.52339E-02-3.40150E-04 3.00532E-02-2.12870E-13 1.79795E-13
 -1      4054 1.99884E+01 8.86620E-02 1.03721E-04 3.76739E-02-1.56492E-13 7.74226E-14
 -1      4055 1.99791E+01 1.03993E-01 3.40261E-04 3.54928E-02-1.63864E-13 1.76948E-13
 -1      4056 2.00000E+01 5.33994E-02-2.47006E-04 1.92387E-02-1.89936E-13 2.44406E-13
 -1      4057 1.99978E+01 6.37164E-02 9.05489E-05 2.48349E-02-2.10601E-13 1.80984E-13
 -1      4058 1.99919E+01 7.53324E-02 2.36132E-04 2.37553E-02-2.75077E-13 3.26403E-13
 -1      4059 2.00046E+01 3.68483E-02-1.75105E-04 1.14583E-02-1.68863E-14 1.25746E-13
 -1      4060 2.00035E+01 4.46302E-02 7.66142E-05 1.54764E-02-3.26064E-14 2.72469E-13
 -1      4061 2.00001E+01 5.32646E-02 1.58546E-04 1.51299E-02-1.10557E-13 5.60283E-14
 -1      4062 2.00071E+01 2.45405E-02-1.20586E-04 6.00438E-03 4.28175E-14-6.85999E-14
 -1      4063 2.00067E+01 3.02965E-02 6.31186E-05 8.81469E-03 2.29113E-14 1.28609E-13
 -1      4064 2.00050E+01 3.65819E-02 1.01863E-04 8.93431E-03 1.01820E-13 1.05589E-13
 -1      4065 2.00081E+01 1.55770E-02-8.00311E-05 2.30058E-03 3.03536E-14-6.67629E-15
 -1      4066 2.00081E+01 1.97443E-02 5.07770E-05 4.20389E-03-6.92591E-15-7.16976E-14
 -1      4067 2.00076E+01 2.42124E-02 6.13820E-05 4.60029E-03 5.83256E-14 8.53018E-14
 -1      4068 2.00081E+01 9.19947E-03-5.04972E-05-1.12833E-04 8.24904E-14 6.76860E-14
 -1      4069 2.00084E+01 1.21445E-02 3.99618E-05 1.12282E-03 9.20098E-14 3.02659E-14
 -1      4070 2.00086E+01 1.52329E-02 3.32572E-05 1.66528E-03-1.12347E-14-6.73320E-14
 -1      4071 2.00075E+01 4.78070E-03-2.95922E-05-1.59525E-03-4.78869E-14 1.65052E-13
 -1      4072 2.00080E+01 6.80526E-03 3.08116E-05-8.40652E-04 9.53666E-15 2.00561E-13
 -1      4073 2.00085E+01 8.86667E-03 1.43963E-05-2.39639E-04-5.07856E-14 1.81557E-13
 -1      4074 2.00066E+01 1.81400E-03-1.43728E-05-2.42027E-03 7.32937E-16 1.41046E-13
 -1      4075 2.00071E+01 3.15918E-03 2.31414E-05-2.00500E-03 1.86359E-15 1.15832E-13
 -1      4076 2.00079E+01 4.47298E-03 2.50275E-06-1.40220E-03 2.37430E-14 3.87003E-13
 -1      4077 2.00055E+01-1.09248E-04-1.84831E-06-2.78550E-03-6.49545E-14 2.11877E-13
 -1      4078 2.00060E+01 7.41404E-04 1.43623E-05-2.61619E-03 2.94052E-14 1.77433E-13
 -1      4079 2.00069E+01 1.54272E-03-4.49953E-07-2.04560E-03-2.10464E-14 3.28019E-13
 -1      4080 2.00032E+01-1.93461E-03-8.36729E-06-3.08002E-03 1.13580E-13 6.34614E-14
 -1      4081 1.72891E+01 1.81157E-01 1.79194E-02 2.91828E+00 1.65203E-13-1.93002E-13
 -1      4082 1.63230E+01 5.03909E-01 4.45044E-02 2.99708E+00 1.75420E-13-2.18957E-13
 -1      4083 1.57212E+01 1.14170E+00-5.08870E-03 2.44868E+00 1.74808E-13-2.67973E-13
 -1      4084 1.73242E+01 6.47654E-01-7.34494E-04 2.52771E+00 1.61560E-13-2.14032E-13
 -1      4085 1.79343E+01 8.13825E-01-1.24487E-02 1.33851E+00-1.13807E-13-4.95119E-14
 -1      4086 1.77934E+01 7.27811E-01 5.46644E-03 1.51818E+00-6.14828E-14 1.75688E-14
 -1      4087 1.71720E+01 8.54497E-01 1.32977E-02 1.41199E+00-4.48178E-14 4.14668E-14
 -1      4088 2.00057E+01-8.07741E-04 5.96986E-06 1.86850E-03-5.02958E-14-5.84063E-15
 -1      4089 2.00052E+01-1.25132E-03-7.44420E-08 1.90529E-03 1.40620E-13 2.05460E-14
 -1      4090 2.00054E+01-1.37275E-03-7.31448E-06 1.37020E-03 8.69417E-14-2.19005E-13
 -1      4091 2.00062E+01-4.93848E-04-6.25136E-06 1.43111E-03 4.80420E-14-4.46302E-14
 -1      4092 2.00058E+01-1.24281E-03-5.42312E-06-3.24534E-04-1.12673E-13-1.49392E-13
 -1      4093 2.00057E+01-1.24734E-03-7.73416E-06-9.53168E-04-4.67020E-14 1.69349E-14
 -1      4094 1.92339E+01 7.68789E-01-3.75555E-03 5.57292E-01-1.81467E-13-1.39373E-13
 -1      4095 1.91434E+01 8.15242E-01-3.51405E-05 6.24514E-01-1.30604E-13-1.32786E-13
 -1      4096 1.91932E+01 8.01454E-01 3.94946E-03 4.44871E-01-1.30950E-13-1.52810E-13
 -1      4097 2.00056E+01-1.30090E-03-1.78373E-06 8.48150E-04 8.27392E-14-3.06303E-13
 -1      4098 2.00057E+01-1.31388E-03-6.91507E-06 2.12185E-04-1.18875E-13-1.68475E-13
 -1      4099 2.00063E+01-7.14110E-04 1.76307E-05-1.18388E-04 1.79877E-14-1.38935E-13
 -1      4100 2.00060E+01-8.76428E-04 9.54091E-06 9.01443E-04 8.15582E-14-2.68085E-13
 -1      4101 1.83546E+01 9.06249E-01-8.61768E-03 1.05846E+00-1.23005E-14-8.04437E-14
 -1      4102 1.82163E+01 8.79033E-01 3.04819E-03 1.18958E+00-4.90241E-14-7.59605E-14
 -1      4103 1.77544E+01 9.90433E-01 8.54972E-03 1.07968E+00-4.34063E-14 1.22541E-14
 -1      4104 1.62877E+01-1.60318E-01 2.78548E-02 2.72807E+00-1.58326E-13 1.07804E-13
 -1      4105 2.00040E+01-1.62710E-03 1.11584E-05-2.83675E-03 5.20511E-14 1.73047E-13
 -1      4106 1.45191E+01 9.80153E-01 5.30867E-02 1.02201E+00 9.91390E-14 1.80338E-13
 -1      4107 1.47521E+01 1.03259E+00 3.84306E-03 3.08144E-01 1.05551E-13 1.26686E-13
 -1      4108 2.00055E+01-1.30176E-03-9.40168E-07-1.52207E-03-6.73506E-14 1.98985E-14
 -1      4109 2.00051E+01-1.30723E-03-1.41931E-05-2.03916E-03 5.09873E-14 1.86606E-13
 -1      4110 2.00061E+01-7.05169E-04 2.10659E-05-1.17792E-03-3.18696E-14-3.95811E-15
 -1      4111 1.89413E+01 9.02171E-01 4.93117E-03 5.50177E-01-1.10406E-13-7.81849E-14
 -1      4112 1.82381E+01 1.01952E+00 7.65896E-03 8.48812E-01-1.69577E-14-8.86608E-14
 -1      4113 1.49322E+01 7.43456E-01-7.91846E-03 1.46378E+00 8.90533E-14 2.88670E-13
 -1      4114 2.00053E+01-6.25096E-04 1.40697E-05-2.52715E-03-4.54385E-14 1.15896E-13
 -1      4115 2.00061E+01-2.44969E-04-1.00455E-05-1.99424E-03 7.87424E-15 2.10052E-13
 -1      4116 2.00047E+01-1.20512E-03 2.14440E-06-2.56807E-03-2.57403E-14 2.01838E-13
 -1      4117 1.71787E+01 1.05348E+00 1.43872E-02 2.28200E+00 1.44644E-13-2.20331E-13
 -1      4118 1.52920E+01 9.41139E-01 2.50046E-02-1.12380E+00 1.43471E-13 1.27899E-13
 -1      4119 1.59197E+01 7.69209E-01 1.69296E-03-1.41855E+00 1.80621E-13-1.25650E-14
 -1      4120 1.63202E+01 8.92670E-01-1.69565E-02-1.16174E+00 1.05915E-13 2.47237E-14
 -1      4121 1.56298E+01 1.80861E+00 3.17505E-02 1.91203E+00 1.61429E-13-2.99785E-13
 -1      4122 1.68991E+01 1.66267E+00 2.92494E-03 1.83560E+00 1.35689E-13-2.55262E-13
 -1      4123 1.63921E+01 2.07131E-01-1.05472E-03 2.32912E+00-8.73550E-14 1.16114E-13
 -1      4124 1.59072E+01 6.11817E-01 1.93431E-02 1.87752E+00-3.03290E-14 1.36233E-13
 -1      4125 1.51179E+01 1.01598E+00-1.06727E-02-6.53430E-01 1.14450E-13 5.56421E-14
 -1      4126 1.85670E+01 9.98414E-01-6.38301E-03 4.80625E-01 5.92969E-14-8.35058E-14
 -1      4127 1.83932E+01 1.03732E+00-2.23822E-03 5.40290E-01 8.88107E-14-1.42067E-13
 -1      4128 1.68219E+01 9.68419E-01-5.29972E-04-9.91488E-01 3.59786E-14 6.63756E-14
 -1      4129 1.71347E+01 1.01453E+00-1.59079E-02-8.32463E-01 3.88697E-14 2.73186E-14
 -1      4130 1.64224E+01 1.09992E+00 2.22693E-02-7.62231E-01 8.53783E-14 1.10656E-13
 -1      4131 1.75090E+01 1.05192E+00-1.24950E-03-7.14234E-01 8.58619E-14-1.40513E-16
 -1      4132 1.77636E+01 1.05625E+00-1.04621E-02-6.07745E-01 3.16997E-14 3.32644E-14
 -1      4133 1.72370E+01 1.17012E+00 2.46069E-02-5.28145E-01 1.03770E-13 6.88893E-14
 -1      4134 1.80465E+01 1.05519E+00-1.61931E-03-5.30134E-01-1.11242E-14 1.06146E-13
 -1      4135 1.82537E+01 1.03269E+00-7.10114E-03-4.56177E-01-3.75257E-14 8.91633E-14
 -1      4136 1.78593E+01 1.14801E+00 1.94868E-02-3.82633E-01 5.36388E-14 1.46012E-13
 -1      4137 1.84732E+01 1.00688E+00-1.40736E-03-4.01207E-01-1.16970E-14 1.42233E-13
 -1      4138 1.86417E+01 9.66487E-01-4.98399E-03-3.47404E-01-5.62430E-16 1.38491E-13
 -1      4139 1.83350E+01 1.08327E+00 1.42555E-02-2.81922E-01-2.06804E-14 1.41717E-13
 -1      4140 1.88148E+01 9.24373E-01-1.27463E-03-3.07329E-01-1.09444E-13 1.11680E-13
 -1      4141 1.89520E+01 8.73387E-01-3.59939E-03-2.66655E-01-1.20699E-13 5.29807E-14
 -1      4142 1.87105E+01 9.90017E-01 1.06663E-02-2.10045E-01-7.31230E-14 1.28517E-13
 -1      4143 1.90894E+01 8.22223E-01-1.15678E-03-2.36828E-01-5.08589E-14-3.00223E-14
 -1      4144 1.92005E+01 7.66505E-01-2.65563E-03-2.05205E-01-4.92613E-14-8.05116E-14
 -1      4145 1.90098E+01 8.79796E-01 8.16187E-03-1.57697E-01-1.23094E-13 4.30378E-14
 -1      4146 1.93094E+01 7.11939E-01-1.03388E-03-1.82667E-01-5.87066E-14-2.05205E-13
 -1      4147 1.93985E+01 6.55926E-01-1.98642E-03-1.57627E-01-1.64541E-13-1.86138E-13
 -1      4148 1.92484E+01 7.62591E-01 6.33769E-03-1.18845E-01-1.63022E-13-1.52401E-13
 -1      4149 1.94843E+01 6.02059E-01-9.04358E-04-1.40436E-01-2.48616E-13-1.53272E-13
 -1      4150 1.95550E+01 5.48853E-01-1.49585E-03-1.20424E-01-2.20601E-13-1.79196E-13
 -1      4151 1.94376E+01 6.46284E-01 4.95336E-03-8.95708E-02-1.89220E-13-2.37649E-13
 -1      4152 1.96219E+01 4.98425E-01-7.72989E-04-1.07257E-01-1.35510E-13-2.12716E-13
 -1      4153 1.96771E+01 4.49977E-01-1.12726E-03-9.12265E-02-1.41076E-13-2.93265E-13
 -1      4154 1.95863E+01 5.36528E-01 3.87005E-03-6.72878E-02-2.02523E-13-1.34318E-13
 -1      4155 1.97286E+01 4.04613E-01-6.45734E-04-8.11466E-02-1.71287E-13-3.38234E-13
 -1      4156 1.97710E+01 3.61949E-01-8.45973E-04-6.83452E-02-1.36374E-13-2.99101E-13
 -1      4157 1.97018E+01 4.36922E-01 3.00678E-03-5.02324E-02-1.52464E-13-2.68436E-13
 -1      4158 1.98101E+01 3.22420E-01-5.27606E-04-6.06593E-02-1.24455E-13-3.08239E-13
 -1      4159 1.98422E+01 2.85879E-01-6.29702E-04-5.05072E-02-1.69936E-13-3.58620E-13
 -1      4160 1.97903E+01 3.49357E-01 2.31398E-03-3.71604E-02-1.37302E-13-4.44836E-13
 -1      4161 1.98714E+01 2.52338E-01-4.21962E-04-4.46882E-02-1.24031E-13-3.09071E-13
 -1      4162 1.98952E+01 2.21783E-01-4.63256E-04-3.67142E-02-1.32556E-13-4.03689E-13
 -1      4163 1.98569E+01 2.74417E-01 1.75870E-03-2.71632E-02-1.26001E-13-4.66087E-13
 -1      4164 1.99165E+01 1.93973E-01-3.30492E-04-3.23512E-02-1.21858E-13-3.94666E-13
 -1      4165 1.99338E+01 1.68963E-01-3.35676E-04-2.61603E-02-4.62403E-14-3.74227E-13
 -1      4166 1.99061E+01 2.11767E-01 1.31673E-03-1.95572E-02-1.11143E-13-4.30566E-13
 -1      4167 1.99491E+01 1.46380E-01-2.53514E-04-2.29287E-02-1.46322E-13-3.91721E-13
 -1      4168 1.99613E+01 1.26308E-01-2.38662E-04-1.81852E-02-2.32575E-13-4.44633E-13
 -1      4169 1.99418E+01 1.60482E-01 9.68683E-04-1.38156E-02-1.88359E-13-4.59912E-13
 -1      4170 1.99720E+01 1.08322E-01-1.90359E-04-1.58269E-02-1.04637E-13-2.97542E-13
 -1      4171 1.99804E+01 9.25119E-02-1.65703E-04-1.22457E-02-7.65650E-14-2.78512E-13
 -1      4172 1.99670E+01 1.19310E-01 6.98193E-04-9.52541E-03-1.06113E-13-2.87027E-13
 -1      4173 1.99875E+01 7.84508E-02-1.39740E-04-1.05552E-02-7.86585E-14-2.93282E-13
 -1      4174 1.99931E+01 6.62242E-02-1.11592E-04-7.89578E-03-9.35897E-14-2.74539E-13
 -1      4175 1.99843E+01 8.68664E-02 4.91133E-04-6.36017E-03-5.44951E-14-3.10944E-13
 -1      4176 1.99977E+01 5.54334E-02-1.00053E-04-6.71002E-03-1.18212E-13-2.69825E-13
 -1      4177 2.00012E+01 4.61527E-02-7.21310E-05-4.77161E-03-1.51344E-13-3.06494E-13
 -1      4178 1.99957E+01 6.17633E-02 3.35286E-04-4.06043E-03-9.12239E-14-3.36070E-13
 -1      4179 2.00039E+01 3.80273E-02-6.95966E-05-3.96230E-03-2.22723E-13-3.08988E-13
 -1      4180 2.00059E+01 3.11188E-02-4.39366E-05-2.57961E-03-2.20600E-13-1.52486E-13
 -1      4181 2.00028E+01 4.26966E-02 2.20186E-04-2.42024E-03-1.61873E-13-2.27057E-13
 -1      4182 2.00073E+01 2.51226E-02-4.67245E-05-2.04658E-03-1.61838E-13-1.49614E-13
 -1      4183 2.00083E+01 2.00874E-02-2.42971E-05-1.08557E-03-3.84406E-14-2.20283E-13
 -1      4184 2.00069E+01 2.84932E-02 1.37004E-04-1.27681E-03-9.62478E-14-2.51973E-13
 -1      4185 2.00089E+01 1.57588E-02-2.99314E-05-7.51493E-04 1.30858E-13-2.22520E-13
 -1      4186 2.00091E+01 1.21739E-02-1.10611E-05-1.05083E-04 2.78741E-13-2.24597E-13
 -1      4187 2.00088E+01 1.81321E-02 7.84184E-05-5.02388E-04 6.69627E-14-1.38025E-13
 -1      4188 2.00091E+01 9.12543E-03-1.79071E-05 8.89495E-05 2.11038E-13-3.03030E-13
 -1      4189 2.00089E+01 6.64021E-03-2.50655E-06 5.04764E-04 2.22240E-13-3.40628E-13
 -1      4190 2.00093E+01 1.07476E-02 3.84872E-05 2.38826E-06 1.62400E-13-1.20781E-13
 -1      4191 2.00086E+01 4.55283E-03-9.35943E-06 6.03973E-04 2.48363E-13-3.87323E-13
 -1      4192 2.00082E+01 2.87975E-03 2.51913E-06 8.49462E-04 1.46154E-13-2.59959E-13
 -1      4193 2.00089E+01 5.62184E-03 1.27204E-05 3.14574E-04 1.48461E-13-2.90468E-13
 -1      4194 1.76126E+01 1.07451E+00-1.29327E-02 7.48850E-01-4.27618E-14-1.35331E-14
 -1      4195 1.73551E+01 1.06165E+00 6.69488E-04 8.60453E-01-2.58816E-14-2.44863E-14
 -1      4196 1.96627E+01 4.70954E-01-1.85655E-03 1.59513E-01-1.90209E-13 2.20079E-13
 -1      4197 1.96093E+01 5.21476E-01-6.46848E-04 1.83917E-01-1.14239E-13 1.73113E-13
 -1      4198 1.88993E+01 9.05411E-01-4.74152E-03 3.91178E-01-1.04529E-13-1.22890E-13
 -1      4199 1.87592E+01 9.56611E-01-1.87876E-03 4.39117E-01-1.55049E-14-7.70646E-14
 -1      4200 1.85876E+01 1.04168E+00 1.30338E-02 3.11525E-01-9.29541E-15-8.20964E-14
 -1      4201 1.95354E+01 5.73052E-01-2.31450E-03 2.03410E-01-1.32085E-13 2.03819E-13
 -1      4202 1.94661E+01 6.28280E-01-8.90337E-04 2.32334E-01-1.89543E-13 7.95075E-14
 -1      4203 1.95457E+01 5.76554E-01 4.66465E-03 1.36132E-01-1.57843E-13 3.06914E-14
 -1      4204 1.93716E+01 6.83304E-01-2.89204E-03 2.55681E-01-2.22946E-13 3.51796E-16
 -1      4205 1.92830E+01 7.41092E-01-1.18373E-03 2.89687E-01-2.28737E-13-8.92312E-14
 -1      4206 1.93840E+01 6.91012E-01 5.97604E-03 1.70164E-01-2.82165E-13 2.67374E-14
 -1      4207 1.97604E+01 3.79848E-01-1.48225E-03 1.23086E-01-3.20777E-13 2.39600E-13
 -1      4208 1.97199E+01 4.24513E-01-4.53473E-04 1.43405E-01-1.78204E-13 2.50355E-13
 -1      4209 1.96712E+01 4.71900E-01 3.62502E-03 1.07208E-01-2.14302E-13 1.53861E-13
 -1      4210 1.98343E+01 3.00939E-01-1.17240E-03 9.33108E-02-3.34965E-13 2.40931E-13
 -1      4211 1.98040E+01 3.39335E-01-3.05502E-04 1.09965E-01-3.68545E-13 2.00947E-13
 -1      4212 1.97673E+01 3.79287E-01 2.79309E-03 8.29824E-02-2.78550E-13 2.07172E-13
 -1      4213 1.98893E+01 2.34289E-01-9.15863E-04 6.93753E-02-9.07131E-14 1.16538E-13
 -1      4214 1.98671E+01 2.66513E-01-1.95961E-04 8.27960E-02-1.99332E-13 1.58544E-13
 -1      4215 1.98399E+01 2.99545E-01 2.12706E-03 6.30438E-02-2.01857E-13 5.79617E-15
 -1      4216 1.99294E+01 1.79215E-01-7.05061E-04 5.04667E-02 7.34020E-14-1.24875E-14
 -1      4217 1.99135E+01 2.05692E-01-1.17387E-04 6.10955E-02 7.08213E-14 1.20000E-13
 -1      4218 1.98937E+01 2.32494E-01 1.59686E-03 4.69340E-02 6.02682E-15-8.07151E-14
 -1      4219 1.99580E+01 1.34604E-01-5.33921E-04 3.57957E-02-1.40333E-13 1.58761E-13
 -1      4220 1.99469E+01 1.55939E-01-6.28414E-05 4.40653E-02-1.18944E-13 1.18276E-13
 -1      4221 1.99329E+01 1.77296E-01 1.17887E-03 3.41615E-02-3.34945E-14 6.26730E-14
 -1      4222 1.99779E+01 9.91357E-02-3.96982E-04 2.46229E-02-2.17117E-13 3.29138E-13
 -1      4223 1.99704E+01 1.16014E-01-2.63603E-05 3.09405E-02-9.74821E-14 2.44124E-13
 -1      4224 1.99607E+01 1.32731E-01 8.53432E-04 2.42267E-02-1.29623E-13 2.80605E-13
 -1      4225 1.99913E+01 7.14402E-02-2.89143E-04 1.62800E-02-1.82935E-13 1.12682E-13
 -1      4226 1.99864E+01 8.45545E-02-3.08630E-06 2.10150E-02-2.73894E-13 1.95543E-13
 -1      4227 1.99800E+01 9.74072E-02 6.03680E-04 1.66487E-02-1.71749E-13 2.28623E-13
 -1      4228 1.99998E+01 5.02003E-02-2.05647E-04 1.01818E-02 1.19332E-14-2.07237E-14
 -1      4229 1.99969E+01 6.02071E-02 1.07909E-05 1.36582E-02-7.32129E-14 1.47231E-13
 -1      4230 1.99928E+01 6.99081E-02 4.15102E-04 1.09854E-02-1.04457E-13 9.25177E-14
 -1      4231 2.00050E+01 3.42114E-02-1.42150E-04 5.82993E-03 2.33595E-14 1.81828E-13
 -1      4232 2.00033E+01 4.17041E-02 1.81729E-05 8.32427E-03-5.19934E-14-1.27898E-14
 -1      4233 2.00010E+01 4.88841E-02 2.75282E-04 6.84488E-03-6.86410E-14-1.02606E-13
 -1      4234 2.00077E+01 2.24111E-02-9.47814E-05 2.81069E-03 7.05729E-14 2.92241E-13
 -1      4235 2.00069E+01 2.79088E-02 2.12167E-05 4.55310E-03 1.15861E-13 3.22453E-13
 -1      4236 2.00058E+01 3.31094E-02 1.73742E-04 3.89115E-03-5.61797E-14 2.58102E-13
 -1      4237 2.00087E+01 1.38894E-02-6.01665E-05 7.88130E-04-1.09070E-14 1.71847E-13
 -1      4238 2.00086E+01 1.78337E-02 2.14965E-05 1.96581E-03 9.50135E-14 2.49649E-13
 -1      4239 2.00082E+01 2.15089E-02 1.01783E-04 1.84383E-03 1.09421E-13 2.92187E-13
 -1      4240 2.00087E+01 7.88371E-03-3.53756E-05-5.04657E-04 1.90798E-14 1.37891E-13
 -1      4241 2.00090E+01 1.06425E-02 2.01541E-05 2.57314E-04-6.34225E-14 9.06991E-14
 -1      4242 2.00091E+01 1.31648E-02 5.23231E-05 4.74556E-04 6.31855E-14 2.29326E-13
 -1      4243 2.00081E+01 3.76635E-03-1.83966E-05-1.27563E-03 2.25807E-14 1.29988E-13
 -1      4244 2.00085E+01 5.64136E-03 1.79264E-05-8.13217E-04 3.41823E-14 8.61013E-14
 -1      4245 2.00090E+01 7.31097E-03 1.96610E-05-3.98742E-04 8.67490E-14 1.46471E-14
 -1      4246 2.00070E+01 1.04255E-03 1.62403E-06-1.68548E-03-6.91377E-14 1.11064E-13
 -1      4247 2.00076E+01 2.25829E-03 1.28735E-05-1.42627E-03-3.78873E-14 1.15949E-13
 -1      4248 2.00082E+01 3.31571E-03-1.51168E-06-9.17347E-04 2.23275E-15-8.75929E-14
 -1      4249 2.00068E+01 3.62963E-04-9.96561E-06-1.40308E-03-5.01796E-15-4.23394E-14
 -1      4250 2.00064E+01-4.22406E-04-1.66805E-06 9.11361E-04 8.90558E-14-1.58448E-13
 -1      4251 1.56115E+01 1.09601E+00-1.77633E-02 4.83540E-01 7.61870E-14 1.17770E-13
 -1      4252 1.52878E+01 1.14790E+00 1.80943E-02-1.22326E-01 1.13190E-13 1.05480E-13
 -1      4253 1.59834E+01 1.11429E+00 3.02668E-03-3.70517E-01 1.14073E-13 8.69639E-14
 -1      4254 1.60062E+01 8.60900E-01-1.08813E-02 1.31592E+00 5.29117E-14 1.10363E-13
 -1      4255 1.91630E+01 7.96686E-01-3.65777E-03 3.17564E-01-1.62339E-13-1.44849E-13
 -1      4256 1.90510E+01 8.53627E-01-1.51891E-03 3.57599E-01-1.36982E-13-1.40847E-13
 -1      4257 1.91779E+01 8.11212E-01 7.66514E-03 2.09851E-01-2.28402E-13-4.52242E-14
 -1      4258 1.62858E+01 1.51849E+00-1.03040E-02 2.06449E+00 1.61288E-13-2.52390E-13
 -1      4259 1.81473E+01 1.06106E+00-8.98053E-03 5.94104E-01 6.29937E-14-1.27763E-13
 -1      4260 1.79330E+01 1.07937E+00-2.37366E-03 6.73010E-01-2.25817E-14-1.10280E-13
 -1      4261 1.81706E+01 1.13275E+00 1.74970E-02 3.80344E-01 7.52210E-14-2.11749E-13
 -1      4262 1.67239E+01 9.36890E-01-1.87190E-03 1.19984E+00-5.42262E-14 2.64068E-14
 -1      4263 1.60469E+01 1.08269E+00 2.07002E-02 8.34772E-01 3.58765E-14 7.86675E-14
 -1      4264 1.63413E+01 1.14392E+00-1.24098E-02 4.51667E-01 3.54337E-14 4.01281E-14
 -1      4265 1.70153E+01 1.00343E+00-2.38360E-02 1.01203E+00-9.78277E-14 9.03704E-14
 -1      4266 2.00070E+01 4.27356E-04-1.05003E-05-9.04371E-04-1.27045E-14 6.23153E-15
 -1      4267 1.70081E+01 1.18570E+00 2.29767E-02 6.42107E-01-1.98418E-14-4.28498E-14
 -1      4268 1.76340E+01 1.19123E+00 2.32967E-02 4.71896E-01-6.40221E-16-1.32792E-13
 -1      4269 2.00077E+01 1.66438E-03-1.13356E-06 7.76507E-04 9.35774E-14-2.97663E-13
 -1      4270 2.00071E+01 5.36580E-04 4.06787E-06 9.05098E-04 1.24603E-13-2.21333E-13
 -1      4271 2.00069E+01 8.73674E-05-7.22926E-06 3.59431E-04 8.24078E-14-1.95651E-13
 -1      4272 2.00070E+01 1.29609E-04-1.10293E-05-1.40381E-04 7.43222E-14-1.97232E-13
 -1      4273 2.00077E+01 1.47002E-03 1.26618E-05-3.60564E-04-6.54817E-14-4.45915E-14
 -1      4274 1.89169E+01 9.30941E-01 9.91407E-03 2.56231E-01-1.02207E-13-1.76266E-13
 -1      4275 2.00080E+01 2.33871E-03-1.53852E-06 3.92620E-04 8.71456E-14-3.35084E-13
 -1      4276 1.64179E+01 1.17520E+00-5.73816E-05-2.83916E-01 8.01629E-14 1.35201E-13
 -1      4277 2.00082E+01 2.65210E-03-7.47461E-06-3.16449E-04-4.43973E-14-3.61697E-14
 -1      4278 1.69368E+01 1.15802E+00-1.66089E-02-2.47604E-02 4.46573E-14 1.72022E-14
 -1      4279 1.73151E+01 1.15587E+00-1.63295E-02 2.51286E-02 4.95879E-14 1.91457E-14
 -1      4280 1.76363E+01 1.14038E+00-1.54628E-02-3.30649E-03 5.24321E-14-7.63532E-14
 -1      4281 1.79220E+01 1.12065E+00-1.29508E-02 3.67917E-02 2.09374E-14-5.75950E-14
 -1      4282 1.81709E+01 1.08586E+00-1.14678E-02 1.47368E-02 3.05437E-14 1.26483E-15
 -1      4283 1.83937E+01 1.04763E+00-9.52570E-03 4.30172E-02-2.09106E-14 1.16054E-14
 -1      4284 1.85884E+01 9.98866E-01-8.49788E-03 2.49468E-02-4.08868E-14 1.80137E-14
 -1      4285 1.87642E+01 9.48672E-01-7.08015E-03 4.49512E-02-4.12715E-14 1.72220E-14
 -1      4286 1.89176E+01 8.91936E-01-6.45710E-03 2.92510E-02-1.11570E-13 2.92426E-15
 -1      4287 1.90572E+01 8.35664E-01-5.35120E-03 4.36043E-02-1.91586E-13-2.41183E-14
 -1      4288 1.91782E+01 7.76039E-01-5.01100E-03 2.95487E-02-2.81581E-13-3.88866E-14
 -1      4289 1.92889E+01 7.18384E-01-4.08853E-03 4.00136E-02-2.52133E-13-1.09970E-13
 -1      4290 1.93840E+01 6.59767E-01-3.93514E-03 2.73889E-02-1.57341E-13-1.20815E-13
 -1      4291 1.94714E+01 6.04161E-01-3.13592E-03 3.51320E-02-2.10267E-13-6.59238E-14
 -1      4292 1.95455E+01 5.49268E-01-3.10041E-03 2.39317E-02-2.40633E-13-1.35981E-14
 -1      4293 1.96137E+01 4.97984E-01-2.40048E-03 2.97312E-02-2.27273E-13-7.67762E-15
 -1      4294 1.96709E+01 4.48482E-01-2.43456E-03 1.99868E-02-2.30863E-13-7.42462E-15
 -1      4295 1.97236E+01 4.02818E-01-1.82550E-03 2.43707E-02-1.33243E-13-1.14757E-13
 -1      4296 1.97670E+01 3.59530E-01-1.89623E-03 1.60771E-02-1.77551E-13-1.79402E-13
 -1      4297 1.98071E+01 3.20033E-01-1.37421E-03 1.94108E-02-1.84207E-13-1.73367E-13
 -1      4298 1.98396E+01 2.83151E-01-1.45994E-03 1.25072E-02-5.68103E-14-1.89030E-13
 -1      4299 1.98696E+01 2.49823E-01-1.02090E-03 1.50492E-02-3.04733E-14-1.76866E-13
 -1      4300 1.98936E+01 2.19109E-01-1.10817E-03 9.42552E-03-4.28311E-14-1.88525E-13
 -1      4301 1.99156E+01 1.91596E-01-7.46251E-04 1.13632E-02-8.19525E-14-1.02777E-13
 -1      4302 1.99328E+01 1.66537E-01-8.27348E-04 6.87696E-03-9.93140E-14-1.00953E-13
 -1      4303 1.99486E+01 1.44275E-01-5.34970E-04 8.34921E-03-1.28703E-13-1.09075E-13
 -1      4304 1.99608E+01 1.24218E-01-6.06053E-04 4.84258E-03-9.49601E-14-2.01520E-14
 -1      4305 1.99718E+01 1.06539E-01-3.74530E-04 5.95460E-03-1.04843E-14 5.17184E-14
 -1      4306 1.99801E+01 9.07771E-02-4.34260E-04 3.26873E-03-8.93004E-14-3.33662E-15
 -1      4307 1.99875E+01 7.69925E-02-2.54544E-04 4.10156E-03-1.59880E-13-4.57403E-14
 -1      4308 1.99929E+01 6.48279E-02-3.03090E-04 2.08661E-03-1.06672E-13-1.95685E-14
 -1      4309 1.99978E+01 5.42741E-02-1.66389E-04 2.70347E-03-8.58509E-14-3.25574E-14
 -1      4310 2.00011E+01 4.50579E-02-2.04744E-04 1.22475E-03-1.19317E-13-8.56147E-14
 -1      4311 2.00040E+01 3.71288E-02-1.02950E-04 1.67535E-03-1.57028E-13 2.10572E-14
 -1      4312 2.00059E+01 3.02809E-02-1.32489E-04 6.16223E-04-1.31329E-13 8.79471E-14
 -1      4313 2.00075E+01 2.44426E-02-5.84249E-05 9.39765E-04-1.28114E-14 5.25904E-14
 -1      4314 2.00083E+01 1.94607E-02-8.06175E-05 2.02276E-04 1.13122E-13 1.04951E-13
 -1      4315 2.00090E+01 1.52559E-02-2.81389E-05 4.29662E-04 1.54224E-13 9.22659E-14
 -1      4316 2.00092E+01 1.17160E-02-4.43924E-05-6.63209E-05 6.90992E-14 6.03295E-14
 -1      4317 2.00092E+01 8.76202E-03-8.39938E-06 8.92542E-05 8.62779E-14 7.80329E-14
 -1      4318 2.00090E+01 6.31303E-03-2.01787E-05-2.29592E-04 1.31040E-13 2.05098E-14
 -1      4319 2.00087E+01 4.29803E-03 4.05951E-06-1.27441E-04 1.03490E-13-1.05024E-13
 -1      4320 1.66317E+01 1.14953E+00-7.97386E-03 6.37426E-02 4.64015E-14 6.18177E-14
 -3
    1PSTEP                         3           1           1          
  100CL  101 1.000000000        4320                     0    1           1
 -4  TOSTRAIN    6    1
 -5  EXX         1    4    1    1
 -5  EYY         1    4    2    2
 -5  EZZ         1    4    3    3
 -5  EXY         1    4    1    2
 -5  EYZ         1    4    2    3
 -5  EZX         1    4    3    1
 -1         1 3.09574E-04-9.56750E-05-7.90486E-05 1.50785E-06 2.67821E-19 4.85568E-19
 -1         2 3.61764E-05-1.10276E-04 1.98762E-05 7.40558E-07 3.44066E-18 7.32101E-19
 -1         3 9.52375E-05-2.85708E-05-2.85718E-05 3.18595E-10-1.74947E-18-1.47276E-18
 -1         4 9.52375E-05-2.85708E-05-2.85718E-05-2.89985E-10 1.84806E-18-3.35950E-19
 -1         5 1.50888E-04-2.20149E-05-4.58727E-05 3.85646E-05-2.41881E-19 1.60397E-17
 -1         6 1.51769E-04 2.83266E-10-4.73387E-05-5.35410E-05-9.54606E-19 1.10940E-17
 -1         7 9.95771E-05-9.42934E-07-4.22964E-05-2.62814E-05-1.34996E-19 6.01235E-19
 -1         8 9.20543E-05-6.28987E-08-3.90406E-05-1.48869E-05-1.19061E-19-2.26766E-18
 -1         9 8.70200E-05 1.49654E-08-3.70288E-05-8.91989E-06-7.90917E-20-3.61750E-18
 -1        10 8.28098E-05 3.26659E-08-3.53077E-05-4.83325E-06-4.66133E-20-4.17243E-18
 -1        11 7.90511E-05 5.74004E-08-3.37877E-05-2.02280E-06-2.13082E-20-4.28854E-18
 -1        12 7.58631E-05 8.47832E-08-3.25158E-05-3.15139E-07 4.18223E-21-4.21466E-18
 -1        13 7.33784E-05 1.13713E-07-3.15382E-05 4.93849E-07 2.05538E-20-4.08997E-18
 -1        14 7.19415E-05 1.33829E-07-3.09807E-05 6.14500E-07 6.39245E-20-3.97605E-18
 -1        15 7.17643E-05 1.39063E-07-3.09185E-05 4.12248E-07 7.23849E-20-3.79331E-18
 -1        16 7.29062E-05 1.27619E-07-3.13723E-05 3.27445E-07 9.09634E-20-3.48936E-18
 -1        17 7.52558E-05 1.00930E-07-3.23021E-05 7.93717E-07 1.18902E-19-3.05159E-18
 -1        18 7.85019E-05 7.17911E-08-3.35956E-05 2.12446E-06 1.36981E-19-2.42661E-18
 -1        19 8.25044E-05 4.15475E-08-3.52045E-05 4.63490E-06 1.82483E-19-1.41563E-18
 -1        20 8.70599E-05 1.87335E-08-3.70542E-05 8.57721E-06 2.05617E-19 1.35125E-19
 -1        21 9.23940E-05-7.28844E-09-3.92089E-05 1.45257E-05 2.14141E-19 2.72582E-18
 -1        22 1.00708E-04-5.05784E-07-4.21435E-05 2.46136E-05 8.25857E-21 7.29307E-18
 -1        23 1.24927E-04-4.21866E-05-3.90350E-05-3.40901E-06-6.50045E-19 7.84120E-18
 -1        24 1.08680E-04-3.24739E-05-3.37024E-05 6.15867E-07-1.69910E-19 5.24299E-18
 -1        25 1.08265E-04-3.25914E-05-3.26118E-05 4.95864E-07-1.18017E-19 2.65087E-18
 -1        26 1.09607E-04-3.29473E-05-3.28063E-05 2.95023E-07 8.29069E-20 7.68841E-19
 -1        27 1.11016E-04-3.33326E-05-3.31777E-05 1.81869E-07-1.64623E-19 3.56614E-20
 -1        28 1.11280E-04-3.33881E-05-3.32131E-05 3.99274E-08-6.47765E-20-6.50496E-19
 -1        29 1.09419E-04-3.28238E-05-3.26212E-05-1.56610E-07-3.70279E-20-1.68208E-18
 -1        30 1.04884E-04-3.14692E-05-3.12830E-05-3.86083E-07 5.04109E-20-2.51775E-18
 -1        31 9.80450E-05-2.94266E-05-2.93476E-05-5.62713E-07-6.55292E-21-2.82618E-18
 -1        32 9.05503E-05-2.71819E-05-2.72936E-05-5.62137E-07-4.44080E-20-2.94778E-18
 -1        33 8.50031E-05-2.55158E-05-2.58107E-05-3.15785E-07 2.85511E-19-3.15286E-18
 -1        34 8.37584E-05-2.51406E-05-2.54913E-05 9.51769E-08-4.61931E-20-3.87500E-18
 -1        35 8.75048E-05-2.62653E-05-2.65050E-05 4.66897E-07 2.11130E-20-4.56871E-18
 -1        36 9.48044E-05-2.84534E-05-2.84956E-05 6.27044E-07-1.21398E-19-4.46270E-18
 -1        37 1.03016E-04-3.09075E-05-3.07877E-05 5.55345E-07-3.06977E-19-4.86684E-18
 -1        38 1.09761E-04-3.29174E-05-3.27336E-05 3.55337E-07-2.67211E-19-5.52902E-18
 -1        39 1.13827E-04-3.41255E-05-3.39625E-05 1.46343E-07 9.14944E-20-5.56341E-18
 -1        40 1.15163E-04-3.45225E-05-3.44166E-05-4.68365E-09-2.50522E-19-6.19941E-18
 -1        41 1.14401E-04-3.42973E-05-3.42475E-05-8.60105E-08 3.06947E-19-6.35815E-18
 -1        42 1.12354E-04-3.36904E-05-3.36794E-05-1.14189E-07-1.17991E-19-5.15637E-18
 -1        43 1.09721E-04-3.29088E-05-3.29184E-05-1.11157E-07-1.72973E-19-4.56683E-18
 -1        44 1.06993E-04-3.20971E-05-3.21143E-05-9.39334E-08-1.05715E-19-3.91452E-18
 -1        45 1.04457E-04-3.13413E-05-3.13590E-05-7.28409E-08-2.18747E-19-3.87907E-18
 -1        46 1.02255E-04-3.06836E-05-3.06984E-05-5.30535E-08 3.34146E-20-3.35157E-18
 -1        47 1.00430E-04-3.01373E-05-3.01486E-05-3.65965E-08-4.11058E-19-2.25001E-18
 -1        48 9.89709E-05-2.96996E-05-2.97074E-05-2.38492E-08 1.07121E-19-1.07997E-18
 -1        49 9.78373E-05-2.93590E-05-2.93641E-05-1.44576E-08 4.30832E-19-3.83078E-19
 -1        50 9.69795E-05-2.91007E-05-2.91038E-05-7.81991E-09-4.74343E-19-5.79785E-19
 -1        51 9.63467E-05-2.89099E-05-2.89115E-05-3.31639E-09-1.44454E-19-3.81047E-19
 -1        52 9.58921E-05-2.87724E-05-2.87730E-05-4.02358E-10-3.93597E-19 9.67313E-19
 -1        53 9.55749E-05-2.86763E-05-2.86763E-05 1.36555E-09 7.35452E-20 9.54250E-19
 -1        54 9.53616E-05-2.86115E-05-2.86111E-05 2.33209E-09 9.16623E-20 3.04041E-18
 -1        55 9.52249E-05-2.85698E-05-2.85692E-05 2.75705E-09-2.76488E-19 9.17737E-19
 -1        56 9.51432E-05-2.85447E-05-2.85441E-05 2.83126E-09-1.76533E-19-1.21778E-18
 -1        57 9.51001E-05-2.85313E-05-2.85307E-05 2.69161E-09 3.71935E-19 2.00309E-19
 -1        58 9.50831E-05-2.85258E-05-2.85252E-05 2.43382E-09 2.86986E-19 1.34153E-18
 -1        59 9.50830E-05-2.85255E-05-2.85250E-05 2.12290E-09 3.12203E-19 1.96631E-18
 -1        60 9.50932E-05-2.85284E-05-2.85279E-05 1.80135E-09-5.55381E-19 3.20307E-18
 -1        61 9.51091E-05-2.85330E-05-2.85326E-05 1.49553E-09 4.68563E-19 2.34100E-18
 -1        62 9.51275E-05-2.85384E-05-2.85381E-05 1.22052E-09-5.79181E-19-3.46953E-18
 -1        63 9.51464E-05-2.85440E-05-2.85438E-05 9.83627E-10 1.94347E-19-6.52256E-18
 -1        64 9.51647E-05-2.85494E-05-2.85492E-05 7.87048E-10-7.24093E-19-6.73649E-18
 -1        65 9.51814E-05-2.85544E-05-2.85543E-05 6.29451E-10 3.81339E-19-5.18841E-18
 -1        66 9.51964E-05-2.85589E-05-2.85588E-05 5.06645E-10-1.46700E-19-6.63653E-18
 -1        67 9.52095E-05-2.85628E-05-2.85627E-05 4.11301E-10 3.93566E-19-4.35863E-18
 -1        68 9.52204E-05-2.85661E-05-2.85660E-05 3.30798E-10-7.04458E-20-4.59301E-19
 -1        69 9.52291E-05-2.85687E-05-2.85686E-05 2.38610E-10 1.27239E-18 6.24429E-19
 -1        70 9.52350E-05-2.85705E-05-2.85703E-05 5.88609E-11-2.80307E-19 5.58616E-19
 -1        71 9.52375E-05-2.85713E-05-2.85712E-05-2.03561E-10-4.92048E-19-8.36559E-19
 -1        72 1.14704E-04-3.43476E-05-3.81001E-05-2.55323E-06 1.18796E-19 1.55585E-17
 -1        73 1.09986E-04-3.27534E-05-3.40762E-05-5.15641E-07 1.41415E-20 1.29974E-17
 -1        74 1.10408E-04-3.30918E-05-3.33108E-05-2.67400E-07 2.81365E-20 1.11790E-17
 -1        75 1.12616E-04-3.37950E-05-3.37508E-05-2.54347E-07 6.07949E-20 9.97618E-18
 -1        76 1.15017E-04-3.45111E-05-3.43854E-05-2.52136E-07 8.52161E-21 8.83150E-18
 -1        77 1.16252E-04-3.48885E-05-3.46691E-05-2.05284E-07 7.00663E-20 8.21927E-18
 -1        78 1.14997E-04-3.45408E-05-3.42118E-05-5.75910E-08 2.01733E-20 8.49414E-18
 -1        79 1.10274E-04-3.31606E-05-3.27900E-05 2.18252E-07-4.70533E-20 8.64040E-18
 -1        80 1.02213E-04-3.07531E-05-3.05192E-05 5.55165E-07-8.07804E-20 7.31199E-18
 -1        81 9.27779E-05-2.78756E-05-2.79866E-05 7.65578E-07 9.12579E-20 6.30060E-18
 -1        82 8.55454E-05-2.56136E-05-2.61195E-05 6.45798E-07 1.78588E-19 5.24787E-18
 -1        83 8.39570E-05-2.50665E-05-2.57389E-05 1.83536E-07-1.40270E-19 5.22792E-18
 -1        84 8.89881E-05-2.65813E-05-2.70656E-05-3.61203E-07 9.75180E-20 5.51961E-18
 -1        85 9.83879E-05-2.94648E-05-2.95661E-05-6.80336E-07-7.19316E-20 5.17741E-18
 -1        86 1.08324E-04-3.25111E-05-3.22915E-05-6.78397E-07 3.82770E-20 3.43993E-18
 -1        87 1.15725E-04-3.47628E-05-3.44181E-05-4.72563E-07 1.64414E-19 1.90627E-18
 -1        88 1.19407E-04-3.58665E-05-3.55597E-05-2.28244E-07-4.33249E-19 1.53644E-18
 -1        89 1.19748E-04-3.59539E-05-3.57537E-05-4.20867E-08 4.68536E-19 9.18837E-19
 -1        90 1.17821E-04-3.53606E-05-3.52644E-05 6.48508E-08-4.38744E-19-1.92011E-18
 -1        91 1.14719E-04-3.44201E-05-3.43962E-05 1.09336E-07 1.52431E-19-3.31071E-19
 -1        92 1.11257E-04-3.33770E-05-3.33928E-05 1.15985E-07-5.67205E-20 3.94353E-19
 -1        93 1.07936E-04-3.23792E-05-3.24114E-05 1.04154E-07-3.02023E-19 1.91044E-18
 -1        94 1.05004E-04-3.14999E-05-3.15355E-05 8.57007E-08 3.00226E-19 1.32529E-18
 -1        95 1.02552E-04-3.07650E-05-3.07976E-05 6.67724E-08-2.07409E-19 1.32639E-18
 -1        96 1.00577E-04-3.01734E-05-3.02006E-05 5.00392E-08 2.65049E-19 2.79522E-18
 -1        97 9.90331E-05-2.97105E-05-2.97322E-05 3.63277E-08-6.74307E-20 2.30779E-18
 -1        98 9.78546E-05-2.93573E-05-2.93739E-05 2.55984E-08 6.00540E-19 3.88282E-19
 -1        99 9.69754E-05-2.90936E-05-2.91060E-05 1.74676E-08-8.12772E-19-2.05129E-18
 -1       100 9.63342E-05-2.89012E-05-2.89103E-05 1.14616E-08 1.55229E-19-1.55189E-18
 -1       101 9.58779E-05-2.87643E-05-2.87707E-05 7.12803E-09 1.45824E-19-3.07936E-18
 -1       102 9.55621E-05-2.86694E-05-2.86739E-05 4.07688E-09-1.90877E-19-3.32042E-18
 -1       103 9.53513E-05-2.86061E-05-2.86091E-05 1.98878E-09-2.21090E-19 2.39107E-19
 -1       104 9.52172E-05-2.85657E-05-2.85677E-05 6.10291E-10 7.47998E-20 1.34293E-18
 -1       105 9.51378E-05-2.85418E-05-2.85430E-05-2.55463E-10 3.91894E-20-7.45876E-19
 -1       106 9.50965E-05-2.85293E-05-2.85300E-05-7.58853E-10-7.31248E-19-1.44978E-18
 -1       107 9.50809E-05-2.85245E-05-2.85248E-05-1.01297E-09 1.66492E-19-3.59285E-18
 -1       108 9.50817E-05-2.85247E-05-2.85248E-05-1.10154E-09-1.24791E-21-5.38632E-18
 -1       109 9.50926E-05-2.85279E-05-2.85279E-05-1.08556E-09-2.66033E-19-2.32605E-18
 -1       110 9.51089E-05-2.85328E-05-2.85326E-05-1.00860E-09 6.54025E-19-2.17902E-18
 -1       111 9.51276E-05-2.85384E-05-2.85382E-05-9.01173E-10 3.13435E-19-6.73585E-19
 -1       112 9.51467E-05-2.85441E-05-2.85439E-05-7.84131E-10-9.32510E-19-2.31155E-19
 -1       113 9.51649E-05-2.85495E-05-2.85493E-05-6.71331E-10 4.11426E-19 4.37751E-18
 -1       114 9.51817E-05-2.85545E-05-2.85544E-05-5.71600E-10-9.68160E-19 1.89532E-18
 -1       115 9.51967E-05-2.85590E-05-2.85589E-05-4.89967E-10 7.96303E-19-6.83658E-19
 -1       116 9.52097E-05-2.85629E-05-2.85628E-05-4.27923E-10 1.92331E-19-1.52958E-18
 -1       117 9.52207E-05-2.85662E-05-2.85661E-05-3.81719E-10-1.48733E-19-3.92817E-18
 -1       118 9.52293E-05-2.85688E-05-2.85686E-05-3.35737E-10 4.25408E-19-5.86569E-18
 -1       119 9.52351E-05-2.85706E-05-2.85703E-05-2.22375E-10-2.85383E-19-5.81034E-18
 -1       120 9.52375E-05-2.85714E-05-2.85712E-05 1.07093E-10 8.57551E-19-3.25212E-18
 -1       121 9.52371E-05-2.85709E-05-2.85712E-05 2.10677E-10-2.37790E-18 5.63918E-19
 -1       122 9.52378E-05-2.85734E-05-2.85703E-05-1.29173E-10-8.08558E-20-1.07684E-18
 -1       123 9.52395E-05-2.85789E-05-2.85687E-05-3.04933E-10-1.47796E-18-1.85117E-19
 -1       124 9.52416E-05-2.85860E-05-2.85667E-05-3.54251E-10-2.47925E-18 1.12658E-18
 -1       125 9.52438E-05-2.85933E-05-2.85645E-05-3.26983E-10 2.11593E-18-5.43849E-20
 -1       126 9.52457E-05-2.85997E-05-2.85627E-05-2.61090E-10 1.33480E-18-3.93318E-20
 -1       127 9.52471E-05-2.86044E-05-2.85613E-05-1.65708E-10 4.12480E-18 9.15562E-19
 -1       128 9.52478E-05-2.86069E-05-2.85605E-05-5.59664E-11 2.74371E-18-2.39631E-19
 -1       129 9.52478E-05-2.86069E-05-2.85606E-05 5.81330E-11 4.12873E-18 1.12712E-18
 -1       130 9.52471E-05-2.86044E-05-2.85613E-05 1.67309E-10 6.38176E-18-6.21109E-19
 -1       131 9.52456E-05-2.85996E-05-2.85627E-05 2.64773E-10-1.19197E-19-4.18780E-19
 -1       132 9.52437E-05-2.85932E-05-2.85646E-05 3.28037E-10-5.49999E-18 1.41798E-18
 -1       133 9.52416E-05-2.85859E-05-2.85667E-05 3.52943E-10-5.60665E-18-1.34993E-19
 -1       134 9.52395E-05-2.85788E-05-2.85687E-05 3.28664E-10-2.22664E-18 1.82287E-18
 -1       135 9.52378E-05-2.85734E-05-2.85703E-05 1.80074E-10 1.23995E-18-1.06976E-18
 -1       136 9.52372E-05-2.85711E-05-2.85712E-05-4.04633E-10-5.04883E-19 1.81775E-19
 -1       137 2.73374E-05-9.10405E-05 1.62378E-05-2.32676E-05 7.73066E-18 9.86582E-19
 -1       138 8.82159E-06-3.99926E-05 4.91999E-06-2.05406E-05 1.47079E-17 7.80435E-18
 -1       139 1.31154E-05 1.25909E-05-1.48380E-05 2.33768E-05 1.62469E-17 1.16361E-17
 -1       140 5.65789E-05 2.65480E-05-3.45732E-05 7.64941E-05 1.11736E-17 1.28990E-17
 -1       141 1.50965E-04-5.25691E-06-5.59158E-05 1.13076E-04 6.63439E-18 1.19631E-17
 -1       142 2.47936E-04-5.77095E-05-7.09581E-05 9.63378E-05 2.09005E-18 5.24610E-18
 -1       143 3.07026E-04-9.35207E-05-7.87475E-05 3.14384E-05-8.12225E-20-3.40507E-18
 -1       144 2.97648E-04-8.70087E-05-7.77470E-05-5.07375E-05 1.65361E-18-1.11561E-17
 -1       145 2.16227E-04-3.94644E-05-6.63743E-05-1.07475E-04 5.96248E-18-1.58103E-17
 -1       146 1.17603E-04 9.84088E-06-4.97961E-05-1.07237E-04 1.14913E-17-1.71211E-17
 -1       147 3.72000E-05 2.84670E-05-2.87104E-05-6.07021E-05 1.48900E-17-1.51492E-17
 -1       148 5.81516E-06 2.17827E-06-8.86133E-06-6.48500E-06 1.36122E-17-8.86462E-18
 -1       149 1.19577E-05-4.92133E-05 6.88111E-06 2.31757E-05 9.51514E-18-3.89900E-18
 -1       150 2.93540E-05-9.51708E-05 1.69185E-05 1.91045E-05 1.35674E-18-6.18413E-19
 -1       151 3.48240E-05-1.07009E-04 1.91918E-05-6.09165E-06-7.93532E-18-6.75350E-19
 -1       152 2.11995E-05-7.57748E-05 1.30489E-05-2.47359E-05-1.44955E-17-4.09281E-18
 -1       153 6.00796E-06-2.05581E-05-9.20683E-07-1.04132E-05-1.73760E-17-9.05584E-18
 -1       154 1.66264E-05 2.20888E-05-1.93605E-05 3.51428E-05-1.58378E-17-1.30079E-17
 -1       155 7.91021E-05 2.36071E-05-4.13246E-05 9.23027E-05-1.09708E-17-1.37757E-17
 -1       156 1.80989E-04-2.03120E-05-6.09828E-05 1.13328E-04-5.92076E-18-1.19961E-17
 -1       157 2.72983E-04-7.26356E-05-7.44238E-05 7.66721E-05-1.96220E-18-7.17246E-18
 -1       158 2.79786E-04-7.73843E-05-7.51953E-05-7.10946E-05-1.51293E-18 6.16216E-18
 -1       159 2.04698E-04-3.33300E-05-6.46701E-05-1.10320E-04-5.10231E-18 1.19783E-17
 -1       160 1.15357E-04 1.03716E-05-4.91356E-05-1.06080E-04-9.79043E-18 1.48400E-17
 -1       161 4.28103E-05 2.85170E-05-3.04674E-05-6.58736E-05-1.27258E-17 1.37507E-17
 -1       162 8.62361E-06 9.03873E-06-1.19657E-05-1.53192E-05-1.29774E-17 9.50456E-18
 -1       163 9.14381E-06-3.96506E-05 4.73634E-06 2.04802E-05-1.07573E-17 4.54423E-18
 -1       164 2.64105E-05-8.81761E-05 1.55820E-05 2.23240E-05-6.22887E-18 1.50515E-18
 -1       165 1.04951E-04-1.53027E-05-3.86025E-05-1.76721E-05-1.74642E-18-6.49171E-19
 -1       166 9.61977E-05-1.02960E-05-3.69699E-05-1.16363E-05-1.36973E-18-2.44398E-18
 -1       167 8.97426E-05-7.27462E-06-3.54557E-05-7.13473E-06-9.10845E-19-3.22565E-18
 -1       168 8.43379E-05-5.14305E-06-3.40224E-05-3.77782E-06-5.11879E-19-3.56710E-18
 -1       169 7.96569E-05-3.37816E-06-3.27518E-05-1.47125E-06-1.21261E-19-3.59834E-18
 -1       170 7.56933E-05-1.85684E-06-3.16929E-05-7.94495E-08 1.83750E-19-3.56766E-18
 -1       171 7.29155E-05-7.42785E-07-3.09728E-05 4.97416E-07 5.51959E-19-3.34690E-18
 -1       172 7.17222E-05-2.23147E-07-3.06814E-05 5.48386E-07 8.58418E-19-3.25772E-18
 -1       173 7.23428E-05-4.16592E-07-3.08663E-05 4.85907E-07 1.07115E-18-3.03476E-18
 -1       174 7.47384E-05-1.30998E-06-3.15166E-05 7.61337E-07 1.31164E-18-2.77270E-18
 -1       175 7.85497E-05-2.75026E-06-3.25451E-05 1.73573E-06 1.56363E-18-2.23986E-18
 -1       176 8.35457E-05-4.65927E-06-3.38882E-05 3.70349E-06 1.82624E-18-1.49719E-18
 -1       177 8.94465E-05-7.04792E-06-3.54266E-05 6.83007E-06 2.01448E-18-3.19676E-19
 -1       178 9.65059E-05-1.03843E-05-3.70647E-05 1.12537E-05 2.07098E-18 1.50380E-18
 -1       179 1.06444E-04-1.67197E-05-3.86376E-05 1.67625E-05 1.74892E-18 4.48470E-18
 -1       180 1.18193E-04-3.02798E-05-3.88700E-05 1.49327E-05 1.06862E-18 8.05565E-18
 -1       181 1.15792E-04-3.12743E-05-3.62203E-05-8.64166E-06-1.62119E-18 1.76043E-18
 -1       182 1.11396E-04-3.27798E-05-3.37266E-05-1.61784E-06-1.43212E-18 1.11950E-18
 -1       183 1.09696E-04-3.27094E-05-3.29533E-05 6.69475E-07-1.01061E-18 6.06760E-19
 -1       184 1.09664E-04-3.30504E-05-3.28119E-05 1.03337E-06-5.28372E-19-6.48543E-20
 -1       185 1.09853E-04-3.33945E-05-3.27645E-05 1.51585E-07-4.44270E-19-2.77440E-19
 -1       186 1.09430E-04-3.35002E-05-3.25455E-05-1.71501E-06-5.24226E-19-2.75335E-19
 -1       187 1.07787E-04-3.30723E-05-3.20226E-05-4.13945E-06-4.92110E-19-3.37617E-19
 -1       188 1.04707E-04-3.18979E-05-3.11998E-05-6.26369E-06-1.88382E-19-5.45261E-19
 -1       189 1.00634E-04-3.00631E-05-3.02356E-05-6.89695E-06-2.32353E-19-4.02503E-19
 -1       190 9.67815E-05-2.81416E-05-2.94077E-05-5.12121E-06-4.07744E-19-5.34934E-19
 -1       191 9.47292E-05-2.70381E-05-2.90027E-05-1.14166E-06-8.44525E-19-2.08032E-18
 -1       192 9.55000E-05-2.73903E-05-2.91818E-05 3.48362E-06-5.37155E-19-3.15769E-18
 -1       193 9.88281E-05-2.90355E-05-2.99017E-05 6.74985E-06-7.42279E-20-3.24457E-18
 -1       194 1.03342E-04-3.11481E-05-3.09334E-05 7.54233E-06-2.95464E-19-3.06159E-18
 -1       195 1.07470E-04-3.28850E-05-3.19659E-05 6.13507E-06-7.07172E-19-2.81605E-18
 -1       196 1.10210E-04-3.38429E-05-3.27381E-05 3.62061E-06-1.12712E-19-3.00281E-18
 -1       197 1.11297E-04-3.40498E-05-3.31198E-05 1.07316E-06-1.25454E-19-3.09482E-18
 -1       198 1.10971E-04-3.37330E-05-3.31156E-05-8.89264E-07 2.59329E-19-2.37924E-18
 -1       199 1.09671E-04-3.31321E-05-3.28130E-05-2.10039E-06 2.33314E-19-2.06947E-18
 -1       200 1.07836E-04-3.24239E-05-3.23260E-05-2.65885E-06 6.19244E-20-2.38104E-18
 -1       201 1.05812E-04-3.17173E-05-3.17572E-05-2.75487E-06 2.32512E-19-2.23077E-18
 -1       202 1.03830E-04-3.10704E-05-3.11824E-05-2.57168E-06 3.44626E-20-2.25443E-18
 -1       203 1.02028E-04-3.05089E-05-3.06490E-05-2.24873E-06 8.69509E-19-1.13277E-18
 -1       204 1.00470E-04-3.00396E-05-3.01815E-05-1.87838E-06 5.21968E-19 2.96089E-20
 -1       205 9.91733E-05-2.96587E-05-2.97885E-05-1.51526E-06 1.78069E-19 5.33285E-19
 -1       206 9.81256E-05-2.93570E-05-2.94689E-05-1.18775E-06 2.17300E-19 2.72918E-19
 -1       207 9.73010E-05-2.91235E-05-2.92160E-05-9.07625E-07-5.66536E-21 1.03613E-19
 -1       208 9.66671E-05-2.89465E-05-2.90206E-05-6.76922E-07 1.23337E-20 5.15329E-19
 -1       209 9.61907E-05-2.88153E-05-2.88731E-05-4.92445E-07 5.91592E-19 6.04394E-19
 -1       210 9.58410E-05-2.87203E-05-2.87643E-05-3.48573E-07 1.17168E-19 1.48208E-18
 -1       211 9.55907E-05-2.86533E-05-2.86861E-05-2.38898E-07 4.22178E-19 1.25386E-18
 -1       212 9.54167E-05-2.86076E-05-2.86315E-05-1.57132E-07-1.19545E-18 8.38989E-19
 -1       213 9.53002E-05-2.85777E-05-2.85946E-05-9.75684E-08-1.32789E-18-5.38311E-20
 -1       214 9.52259E-05-2.85592E-05-2.85709E-05-5.52735E-08 9.75434E-19-5.14764E-19
 -1       215 9.51819E-05-2.85489E-05-2.85566E-05-2.61273E-08 6.81955E-19-1.74820E-18
 -1       216 9.51591E-05-2.85441E-05-2.85490E-05-6.78133E-09 9.23786E-19-7.88280E-19
 -1       217 9.51506E-05-2.85431E-05-2.85459E-05 5.42389E-09 3.38557E-19-5.54524E-19
 -1       218 9.51514E-05-2.85443E-05-2.85457E-05 1.25565E-08-4.92329E-19 2.94145E-19
 -1       219 9.51578E-05-2.85469E-05-2.85474E-05 1.61917E-08-2.61732E-18-9.55167E-19
 -1       220 9.51673E-05-2.85502E-05-2.85501E-05 1.75026E-08-2.57181E-18-9.24247E-19
 -1       221 9.51781E-05-2.85537E-05-2.85533E-05 1.73395E-08-1.81120E-19-2.87537E-18
 -1       222 9.51892E-05-2.85572E-05-2.85566E-05 1.62961E-08 1.61953E-18-2.29947E-18
 -1       223 9.51999E-05-2.85605E-05-2.85598E-05 1.47606E-08 9.54327E-19-9.95243E-20
 -1       224 9.52096E-05-2.85634E-05-2.85627E-05 1.29541E-08 2.08229E-18 1.24807E-18
 -1       225 9.52181E-05-2.85660E-05-2.85652E-05 1.09580E-08 2.23153E-18 2.68132E-18
 -1       226 9.52253E-05-2.85682E-05-2.85673E-05 8.72948E-09-5.62069E-19 1.60814E-18
 -1       227 9.52309E-05-2.85701E-05-2.85689E-05 6.13012E-09-2.85961E-19-1.22087E-18
 -1       228 9.52349E-05-2.85715E-05-2.85701E-05 3.08110E-09-2.15496E-19-1.14896E-19
 -1       229 1.14162E-04-3.31009E-05-3.49031E-05 3.73527E-06 1.31782E-18 7.12205E-18
 -1       230 1.11682E-04-3.30653E-05-3.36591E-05-3.37835E-07 9.47314E-19 6.12720E-18
 -1       231 1.11814E-04-3.34527E-05-3.35424E-05-1.66982E-06 7.40219E-19 5.14488E-18
 -1       232 1.12815E-04-3.40122E-05-3.37496E-05-1.64162E-06 4.08801E-19 4.65417E-18
 -1       233 1.13566E-04-3.45041E-05-3.38671E-05-4.60580E-07 3.07772E-19 4.51609E-18
 -1       234 1.13116E-04-3.46049E-05-3.36268E-05 1.77975E-06-1.42302E-19 4.39429E-18
 -1       235 1.10757E-04-3.39549E-05-3.28906E-05 4.62048E-06 2.45633E-19 4.37199E-18
 -1       236 1.06394E-04-3.23417E-05-3.17224E-05 6.94861E-06 5.26653E-19 4.00261E-18
 -1       237 1.00986E-04-3.00229E-05-3.04282E-05 7.22119E-06 6.00444E-19 3.43212E-18
 -1       238 9.65645E-05-2.79168E-05-2.94674E-05 4.45756E-06 4.31835E-19 3.36416E-18
 -1       239 9.53074E-05-2.72075E-05-2.92376E-05-5.88092E-07 1.77692E-19 3.04447E-18
 -1       240 9.80162E-05-2.83992E-05-2.98608E-05-5.48124E-06-1.53525E-20 2.52141E-18
 -1       241 1.03421E-04-3.08074E-05-3.11108E-05-7.90203E-06 6.49088E-19 1.61652E-18
 -1       242 1.09186E-04-3.32097E-05-3.25347E-05-7.29690E-06 1.16881E-18 6.11015E-19
 -1       243 1.13423E-04-3.47637E-05-3.36890E-05-4.75574E-06 6.99775E-19 7.44476E-19
 -1       244 1.15392E-04-3.52997E-05-3.43172E-05-1.78500E-06-4.33906E-20-9.49649E-20
 -1       245 1.15292E-04-3.50601E-05-3.43887E-05 6.19526E-07 8.04787E-19-4.05451E-19
 -1       246 1.13740E-04-3.43736E-05-3.40228E-05 2.12826E-06 7.11321E-19-2.22510E-19
 -1       247 1.11390E-04-3.35015E-05-3.33894E-05 2.82974E-06-8.11171E-19-5.92594E-19
 -1       248 1.08759E-04-3.26087E-05-3.26419E-05 2.96346E-06-6.91976E-19 4.69983E-19
 -1       249 1.06186E-04-3.17837E-05-3.18896E-05 2.76415E-06-5.20515E-19 5.59215E-19
 -1       250 1.03860E-04-3.10658E-05-3.11979E-05 2.40592E-06 5.47433E-19 3.73343E-19
 -1       251 1.01864E-04-3.04659E-05-3.05980E-05 1.99915E-06-4.81731E-19 2.03182E-19
 -1       252 1.00214E-04-2.99795E-05-3.00988E-05 1.60563E-06-6.39605E-19 7.70713E-19
 -1       253 9.88907E-05-2.95946E-05-2.96962E-05 1.25517E-06 5.73267E-19 1.52574E-18
 -1       254 9.78542E-05-2.92965E-05-2.93798E-05 9.58569E-07 1.08135E-18 1.39111E-19
 -1       255 9.70600E-05-2.90703E-05-2.91365E-05 7.16233E-07 8.21289E-19-1.78401E-19
 -1       256 9.64640E-05-2.89019E-05-2.89535E-05 5.23472E-07-2.74313E-19-1.29372E-18
 -1       257 9.60262E-05-2.87793E-05-2.88187E-05 3.73525E-07 4.59246E-19-1.28453E-18
 -1       258 9.57118E-05-2.86922E-05-2.87216E-05 2.59208E-07-3.81271E-19-1.12522E-18
 -1       259 9.54922E-05-2.86319E-05-2.86535E-05 1.73749E-07-1.35802E-18-9.54079E-19
 -1       260 9.53436E-05-2.85918E-05-2.86072E-05 1.11152E-07 7.37866E-21-1.13964E-18
 -1       261 9.52474E-05-2.85663E-05-2.85771E-05 6.63186E-08 1.24241E-18-1.60279E-19
 -1       262 9.51889E-05-2.85513E-05-2.85586E-05 3.50341E-08-7.70858E-19-4.24803E-19
 -1       263 9.51569E-05-2.85436E-05-2.85483E-05 1.38933E-08 7.99827E-19-1.03510E-20
 -1       264 9.51430E-05-2.85407E-05-2.85436E-05 1.96653E-10 3.69362E-19-9.38797E-19
 -1       265 9.51410E-05-2.85411E-05-2.85427E-05-8.15786E-09-1.55471E-18-1.49926E-18
 -1       266 9.51464E-05-2.85433E-05-2.85441E-05-1.27779E-08-6.78805E-20 3.55886E-20
 -1       267 9.51559E-05-2.85466E-05-2.85468E-05-1.48700E-08-6.35328E-19 2.37030E-18
 -1       268 9.51675E-05-2.85504E-05-2.85502E-05-1.53196E-08-3.25847E-19 2.08478E-18
 -1       269 9.51797E-05-2.85542E-05-2.85538E-05-1.47577E-08-1.77289E-18-1.54483E-19
 -1       270 9.51916E-05-2.85578E-05-2.85573E-05-1.36147E-08 9.02242E-19 2.83592E-18
 -1       271 9.52027E-05-2.85612E-05-2.85606E-05-1.21597E-08 2.11125E-18 3.86520E-19
 -1       272 9.52125E-05-2.85641E-05-2.85636E-05-1.05296E-08 3.14444E-19 4.40013E-19
 -1       273 9.52210E-05-2.85667E-05-2.85661E-05-8.74481E-09 1.66943E-18-1.90732E-19
 -1       274 9.52278E-05-2.85688E-05-2.85681E-05-6.72414E-09 4.36575E-19-1.40921E-18
 -1       275 9.52329E-05-2.85705E-05-2.85696E-05-4.30932E-09-2.90061E-19-8.73650E-19
 -1       276 9.52360E-05-2.85715E-05-2.85705E-05-1.54602E-09-5.76722E-19-8.97334E-19
 -1       277 9.52369E-05-2.85735E-05-2.85701E-05-3.17864E-09-6.23999E-19 1.71623E-18
 -1       278 9.52383E-05-2.85772E-05-2.85690E-05-5.74471E-09 8.89944E-19-1.34720E-18
 -1       279 9.52402E-05-2.85821E-05-2.85678E-05-7.18877E-09 1.34160E-18 6.16994E-19
 -1       280 9.52421E-05-2.85873E-05-2.85664E-05-7.36898E-09 1.16353E-18 2.69655E-18
 -1       281 9.52438E-05-2.85921E-05-2.85650E-05-6.49529E-09 4.88977E-19-4.42764E-19
 -1       282 9.52452E-05-2.85960E-05-2.85639E-05-4.78656E-09 2.43990E-19 4.18006E-19
 -1       283 9.52461E-05-2.85986E-05-2.85632E-05-2.51968E-09 6.29103E-19 1.88610E-19
 -1       284 9.52464E-05-2.85995E-05-2.85629E-05 2.43407E-11 1.98512E-18 1.03961E-18
 -1       285 9.52460E-05-2.85986E-05-2.85632E-05 2.56497E-09 2.48646E-18 3.35950E-19
 -1       286 9.52452E-05-2.85960E-05-2.85639E-05 4.82288E-09-1.65533E-19-3.10740E-18
 -1       287 9.52438E-05-2.85921E-05-2.85650E-05 6.49664E-09 4.27007E-19-1.97930E-18
 -1       288 9.52421E-05-2.85872E-05-2.85664E-05 7.37308E-09 3.20376E-19 2.15568E-19
 -1       289 9.52402E-05-2.85820E-05-2.85678E-05 7.17042E-09-4.70668E-19 1.03517E-18
 -1       290 9.52383E-05-2.85772E-05-2.85691E-05 5.66530E-09-1.93723E-18 1.63907E-18
 -1       291 9.52366E-05-2.85741E-05-2.85696E-05 4.97893E-09-1.56349E-18 1.73128E-19
 -1       292 1.23628E-05-4.85157E-05 1.20813E-05 5.75458E-06 2.20393E-18 2.75677E-18
 -1       293 2.44949E-05-4.28765E-05 5.20273E-06 2.10681E-05 3.32609E-18 5.66803E-18
 -1       294 5.92651E-05-4.13744E-05-8.90314E-06 3.81631E-05 3.57575E-18 3.68639E-18
 -1       295 9.21882E-05-3.40223E-05-2.53616E-05 4.31535E-05 6.00377E-18 3.74431E-18
 -1       296 1.35286E-04-3.21370E-05-4.31698E-05 4.46020E-05 5.04387E-18 3.78179E-18
 -1       297 1.77656E-04-3.34749E-05-5.91662E-05 3.81864E-05 4.68601E-18 1.65997E-18
 -1       298 2.05971E-04-3.63626E-05-6.91026E-05 2.03339E-05 3.73139E-18-4.71374E-19
 -1       299 2.10296E-04-3.51199E-05-7.15972E-05-2.67344E-06 3.80847E-18-2.43855E-18
 -1       300 1.90953E-04-3.18044E-05-6.56479E-05-2.02763E-05 3.79873E-18-3.98423E-18
 -1       301 1.64540E-04-3.25621E-05-5.44888E-05-4.24053E-05 5.05875E-18-6.21955E-18
 -1       302 1.20561E-04-2.99709E-05-3.81589E-05-4.77955E-05 5.77189E-18-6.47768E-18
 -1       303 7.62981E-05-3.15064E-05-2.01792E-05-4.17544E-05 5.04408E-18-7.00433E-18
 -1       304 4.28184E-05-3.71950E-05-4.66411E-06-3.01352E-05 3.89445E-18-5.20970E-18
 -1       305 2.12580E-05-4.22831E-05 6.18101E-06-1.83578E-05 1.32201E-18-4.96266E-18
 -1       306 1.01437E-05-4.28276E-05 1.11027E-05-4.04759E-06-1.36301E-18-4.65190E-18
 -1       307 1.38316E-05-4.38259E-05 9.84368E-06 1.12417E-05-3.97661E-18-4.25263E-18
 -1       308 3.21548E-05-3.95106E-05 9.01340E-07 2.74021E-05-5.39539E-18-4.39255E-18
 -1       309 5.89430E-05-3.31003E-05-1.26262E-05 3.71392E-05-6.83852E-18-4.98320E-18
 -1       310 9.91396E-05-2.87164E-05-3.02470E-05 4.68411E-05-6.57171E-18-5.02820E-18
 -1       311 1.47070E-04-2.98850E-05-4.85832E-05 4.73372E-05-5.05022E-18-5.06780E-18
 -1       312 1.83675E-04-3.26772E-05-6.22728E-05 2.87125E-05-4.05199E-18-3.27823E-18
 -1       313 2.02153E-04-3.21918E-05-6.98433E-05 1.01384E-05-3.95988E-18-1.74552E-18
 -1       314 2.10556E-04-3.67123E-05-7.09232E-05-1.07951E-05-3.18103E-18 2.47069E-19
 -1       315 1.92423E-04-3.42995E-05-6.46641E-05-3.04864E-05-3.86342E-18 1.73388E-18
 -1       316 1.60387E-04-3.12148E-05-5.33175E-05-4.35772E-05-4.25645E-18 2.93073E-18
 -1       317 1.20674E-04-2.93582E-05-3.84241E-05-4.74346E-05-4.49838E-18 4.19048E-18
 -1       318 8.14944E-05-3.11410E-05-2.22449E-05-4.29225E-05-4.52231E-18 5.18405E-18
 -1       319 4.98911E-05-3.76306E-05-7.05777E-06-3.39315E-05-3.40317E-18 4.76408E-18
 -1       320 2.46939E-05-4.32981E-05 5.13200E-06-2.01137E-05-2.76112E-18 3.36034E-18
 -1       321 1.16261E-05-4.39230E-05 1.09604E-05-8.63026E-06-3.60730E-19 5.49756E-18
 -1       322 9.74133E-05-1.64171E-05-3.47874E-05-6.79576E-06-1.37782E-18-2.03477E-18
 -1       323 1.05296E-04-2.23877E-05-3.55996E-05-9.26093E-06-1.74909E-18-1.03301E-18
 -1       324 8.47370E-05-8.92803E-06-3.25355E-05-1.34627E-06-4.20848E-19-2.72147E-18
 -1       325 7.93493E-05-5.94293E-06-3.14919E-05 3.52220E-07 3.28978E-20-2.82542E-18
 -1       326 7.50646E-05-3.52669E-06-3.06810E-05 1.07872E-06 4.96350E-19-2.62785E-18
 -1       327 7.24748E-05-2.01287E-06-3.02139E-05 9.63866E-07 8.96570E-19-2.51384E-18
 -1       328 7.20671E-05-1.71561E-06-3.01655E-05 4.12353E-07 1.20921E-18-2.43693E-18
 -1       329 7.39848E-05-2.73642E-06-3.05544E-05-1.17992E-08 1.47690E-18-2.31577E-18
 -1       330 7.78796E-05-4.87182E-06-3.13183E-05 2.00437E-07 1.70272E-18-1.95454E-18
 -1       331 8.33803E-05-7.91420E-06-3.23868E-05 1.34800E-06 2.00268E-18-1.31273E-18
 -1       332 8.99613E-05-1.16715E-05-3.36168E-05 3.43736E-06 2.17348E-18-4.88688E-19
 -1       333 9.74815E-05-1.63677E-05-3.48438E-05 6.13981E-06 2.23870E-18 7.84273E-19
 -1       334 1.05862E-04-2.27298E-05-3.57376E-05 8.27380E-06 2.10948E-18 2.82795E-18
 -1       335 1.11298E-04-2.84966E-05-3.55666E-05 6.78292E-06 1.78810E-18 4.43346E-18
 -1       336 1.10608E-04-3.13518E-05-3.39406E-05 8.65161E-07 1.39878E-18 3.74347E-18
 -1       337 1.08399E-04-3.02249E-05-3.34660E-05-1.76388E-06-1.37565E-18-4.24835E-19
 -1       338 1.08414E-04-3.20474E-05-3.27146E-05 7.75099E-07-1.01306E-18-2.59955E-19
 -1       339 1.09039E-04-3.35364E-05-3.23598E-05 9.58853E-07-6.56487E-19-4.86838E-19
 -1       340 1.09920E-04-3.48839E-05-3.21707E-05-7.14325E-07-5.15643E-19-5.69923E-19
 -1       341 1.10479E-04-3.57203E-05-3.20547E-05-3.83133E-06-3.67576E-19-1.02493E-19
 -1       342 1.10019E-04-3.53591E-05-3.20070E-05-7.50472E-06-4.01930E-19-8.67795E-21
 -1       343 1.08042E-04-3.32286E-05-3.20646E-05-1.01104E-05-3.09538E-19-2.40861E-19
 -1       344 1.04846E-04-2.96279E-05-3.22294E-05-9.67458E-06-4.59007E-19-7.76016E-19
 -1       345 1.01917E-04-2.62547E-05-3.24176E-05-5.20714E-06-1.41497E-18-1.32965E-18
 -1       346 1.01126E-04-2.52733E-05-3.25000E-05 1.90668E-06-1.17033E-18-1.54090E-18
 -1       347 1.03100E-04-2.74279E-05-3.24212E-05 8.33933E-06-7.28334E-19-1.64586E-18
 -1       348 1.06545E-04-3.12373E-05-3.22673E-05 1.12554E-05-6.17497E-20-1.91005E-18
 -1       349 1.09523E-04-3.45041E-05-3.21533E-05 1.01981E-05-3.61336E-19-1.75849E-18
 -1       350 1.10923E-04-3.60341E-05-3.21103E-05 6.67789E-06-5.56793E-19-1.56524E-18
 -1       351 1.10740E-04-3.59334E-05-3.20799E-05 2.58113E-06 2.28136E-21-1.35290E-18
 -1       352 1.09504E-04-3.48962E-05-3.19931E-05-8.50061E-07 1.90649E-19-1.38330E-18
 -1       353 1.07764E-04-3.35670E-05-3.18116E-05-3.15429E-06 6.54369E-19-1.33392E-18
 -1       354 1.05886E-04-3.23197E-05-3.15359E-05-4.37589E-06 1.02032E-19-8.29526E-19
 -1       355 1.04074E-04-3.12975E-05-3.11928E-05-4.76992E-06-1.90637E-19-3.47299E-19
 -1       356 1.02424E-04-3.05155E-05-3.08176E-05-4.62160E-06 2.26546E-19-4.97249E-19
 -1       357 1.00975E-04-2.99383E-05-3.04424E-05-4.16777E-06 8.17037E-19 8.96057E-20
 -1       358 9.97378E-05-2.95195E-05-3.00906E-05-3.57765E-06 1.26371E-18-4.64360E-19
 -1       359 9.87041E-05-2.92183E-05-2.97764E-05-2.95983E-06 8.63923E-19-3.44150E-19
 -1       360 9.78582E-05-2.90029E-05-2.95063E-05-2.37714E-06 5.57046E-19 5.02595E-19
 -1       361 9.71792E-05-2.88500E-05-2.92812E-05-1.86112E-06-7.94666E-20 3.77111E-19
 -1       362 9.66445E-05-2.87425E-05-2.90985E-05-1.42346E-06 7.51357E-20 8.36814E-19
 -1       363 9.62310E-05-2.86682E-05-2.89536E-05-1.06418E-06 2.96175E-19 5.01313E-19
 -1       364 9.59174E-05-2.86178E-05-2.88412E-05-7.76982E-07 1.07194E-18 2.27952E-19
 -1       365 9.56844E-05-2.85849E-05-2.87557E-05-5.52670E-07-3.63457E-19-1.53676E-19
 -1       366 9.55149E-05-2.85644E-05-2.86922E-05-3.81227E-07-7.32897E-19-8.27396E-19
 -1       367 9.53948E-05-2.85525E-05-2.86461E-05-2.52964E-07-1.14618E-18-3.44019E-19
 -1       368 9.53122E-05-2.85466E-05-2.86134E-05-1.59121E-07-7.78951E-19 9.37353E-19
 -1       369 9.52577E-05-2.85447E-05-2.85910E-05-9.21244E-08 4.72311E-19 2.17901E-19
 -1       370 9.52235E-05-2.85452E-05-2.85762E-05-4.56400E-08 1.37095E-18-4.67020E-19
 -1       371 9.52040E-05-2.85472E-05-2.85670E-05-1.45042E-08 4.94501E-19-1.59465E-18
 -1       372 9.51945E-05-2.85501E-05-2.85618E-05 5.39632E-09-3.61326E-19-2.19441E-18
 -1       373 9.51918E-05-2.85532E-05-2.85594E-05 1.72699E-08-6.86717E-19-1.68167E-18
 -1       374 9.51934E-05-2.85563E-05-2.85588E-05 2.35670E-08-1.86706E-18 8.86718E-19
 -1       375 9.51976E-05-2.85592E-05-2.85593E-05 2.61159E-08-1.40183E-18 2.12908E-18
 -1       376 9.52031E-05-2.85619E-05-2.85605E-05 2.62428E-08 5.63262E-19 3.19403E-18
 -1       377 9.52092E-05-2.85643E-05-2.85621E-05 2.48715E-08 2.21184E-18 1.65984E-18
 -1       378 9.52152E-05-2.85664E-05-2.85638E-05 2.26033E-08 2.59453E-18 1.37353E-18
 -1       379 9.52209E-05-2.85683E-05-2.85654E-05 1.97775E-08 1.83920E-18 6.04058E-19
 -1       380 9.52260E-05-2.85701E-05-2.85668E-05 1.65411E-08-9.68155E-19 1.26755E-18
 -1       381 9.52304E-05-2.85718E-05-2.85680E-05 1.28845E-08-1.28123E-18 2.34749E-18
 -1       382 9.52337E-05-2.85731E-05-2.85689E-05 9.05411E-09-8.91708E-19 2.29150E-18
 -1       383 1.10561E-04-3.26400E-05-3.33673E-05-1.84110E-06 1.14091E-18 3.35988E-18
 -1       384 1.11334E-04-3.37756E-05-3.32336E-05-2.34774E-06 7.30843E-19 2.95094E-18
 -1       385 1.12441E-04-3.49803E-05-3.32076E-05-1.00842E-06 3.55570E-19 2.64067E-18
 -1       386 1.13170E-04-3.59487E-05-3.31107E-05 2.00867E-06 5.46617E-20 2.64603E-18
 -1       387 1.12740E-04-3.60448E-05-3.28817E-05 6.10085E-06 1.20940E-19 2.29661E-18
 -1       388 1.10536E-04-3.45424E-05-3.25750E-05 9.74759E-06 5.69009E-19 2.28069E-18
 -1       389 1.06726E-04-3.13488E-05-3.23118E-05 1.06577E-05 8.83570E-19 2.47910E-18
 -1       390 1.02827E-04-2.77640E-05-3.21796E-05 7.08515E-06 3.69439E-19 2.56315E-18
 -1       391 1.01189E-04-2.60968E-05-3.21833E-05-2.16725E-07 5.90111E-19 2.07952E-18
 -1       392 1.03081E-04-2.76896E-05-3.23004E-05-7.64573E-06 3.89483E-19 1.20162E-18
 -1       393 1.07295E-04-3.13565E-05-3.25354E-05-1.14761E-05 1.42766E-18 2.96200E-19
 -1       394 1.11423E-04-3.47501E-05-3.28609E-05-1.06930E-05 1.43406E-18-8.41143E-20
 -1       395 1.13819E-04-3.64447E-05-3.31768E-05-6.92348E-06 5.19893E-19-6.77147E-19
 -1       396 1.14214E-04-3.64596E-05-3.33478E-05-2.46160E-06 1.49124E-19 3.81772E-19
 -1       397 1.13128E-04-3.55033E-05-3.32917E-05 1.18433E-06 1.07598E-18 4.92702E-20
 -1       398 1.11206E-04-3.42259E-05-3.30092E-05 3.50672E-06 8.35105E-19 2.08670E-19
 -1       399 1.08942E-04-3.29968E-05-3.25579E-05 4.61681E-06-4.26911E-19-1.58427E-19
 -1       400 1.06649E-04-3.19564E-05-3.20149E-05 4.85580E-06-8.83638E-19-5.35643E-19
 -1       401 1.04507E-04-3.11245E-05-3.14488E-05 4.56799E-06-9.10608E-19 1.85793E-20
 -1       402 1.02603E-04-3.04756E-05-3.09086E-05 4.01617E-06 5.86136E-19-5.09047E-21
 -1       403 1.00973E-04-2.99751E-05-3.04234E-05 3.37271E-06-1.18778E-19 8.54263E-20
 -1       404 9.96168E-05-2.95917E-05-3.00063E-05 2.73813E-06-1.24259E-18-1.02595E-19
 -1       405 9.85155E-05-2.93000E-05-2.96596E-05 2.16391E-06 3.71383E-19-2.18503E-19
 -1       406 9.76400E-05-2.90800E-05-2.93792E-05 1.67107E-06 1.41420E-18-2.80515E-19
 -1       407 9.69577E-05-2.89162E-05-2.91576E-05 1.26326E-06 1.19819E-18-6.24315E-19
 -1       408 9.64360E-05-2.87960E-05-2.89862E-05 9.35019E-07-2.96670E-19-1.10119E-18
 -1       409 9.60447E-05-2.87094E-05-2.88561E-05 6.76764E-07 8.31966E-19-3.94593E-19
 -1       410 9.57572E-05-2.86485E-05-2.87594E-05 4.77650E-07 1.95285E-19 6.66301E-19
 -1       411 9.55507E-05-2.86068E-05-2.86891E-05 3.27069E-07-1.15968E-18-6.70154E-19
 -1       412 9.54062E-05-2.85794E-05-2.86392E-05 2.15400E-07 1.22441E-19-9.65824E-19
 -1       413 9.53084E-05-2.85624E-05-2.86048E-05 1.34309E-07-5.87288E-19-2.95829E-19
 -1       414 9.52450E-05-2.85527E-05-2.85820E-05 7.68014E-08-2.64650E-19 1.68242E-18
 -1       415 9.52064E-05-2.85481E-05-2.85676E-05 3.71522E-08 3.17057E-19 1.46169E-18
 -1       416 9.51854E-05-2.85468E-05-2.85592E-05 1.07692E-08 1.11431E-18 2.28972E-18
 -1       417 9.51762E-05-2.85477E-05-2.85550E-05-5.96211E-09-1.11997E-18 1.56233E-18
 -1       418 9.51749E-05-2.85498E-05-2.85536E-05-1.58360E-08-1.06520E-18 1.10005E-18
 -1       419 9.51786E-05-2.85525E-05-2.85540E-05-2.09724E-08-2.02349E-18 1.89316E-18
 -1       420 9.51850E-05-2.85555E-05-2.85555E-05-2.29456E-08 8.39131E-19 3.02541E-18
 -1       421 9.51927E-05-2.85585E-05-2.85575E-05-2.28940E-08-1.75633E-18 2.13592E-18
 -1       422 9.52009E-05-2.85613E-05-2.85599E-05-2.16092E-08-5.26616E-20 2.10716E-18
 -1       423 9.52089E-05-2.85638E-05-2.85622E-05-1.96064E-08 2.43573E-18 3.68741E-18
 -1       424 9.52162E-05-2.85662E-05-2.85643E-05-1.71767E-08 1.68896E-18 2.83441E-18
 -1       425 9.52228E-05-2.85683E-05-2.85662E-05-1.44322E-08 1.91159E-18 1.99878E-18
 -1       426 9.52283E-05-2.85701E-05-2.85678E-05-1.13331E-08 7.11212E-19 1.22090E-18
 -1       427 9.52328E-05-2.85718E-05-2.85690E-05-7.79567E-09 5.61091E-19 1.64905E-18
 -1       428 9.52351E-05-2.85728E-05-2.85696E-05-5.56254E-09-1.07551E-18 1.08895E-18
 -1       429 9.52406E-05-2.85832E-05-2.85675E-05-1.25609E-08 5.94343E-19 3.16823E-18
 -1       430 9.52379E-05-2.85788E-05-2.85682E-05-1.15205E-08 6.83299E-19-6.72392E-20
 -1       431 9.52362E-05-2.85756E-05-2.85689E-05-8.92752E-09-1.14574E-19 2.60284E-18
 -1       432 9.52430E-05-2.85873E-05-2.85667E-05-1.18187E-08 5.38461E-20-1.60878E-18
 -1       433 9.52449E-05-2.85908E-05-2.85660E-05-9.56370E-09-4.35330E-19 8.07071E-19
 -1       434 9.52463E-05-2.85934E-05-2.85655E-05-6.17877E-09 1.13872E-18 9.91878E-19
 -1       435 9.52470E-05-2.85947E-05-2.85653E-05-2.10797E-09-6.86517E-19 1.24976E-18
 -1       436 9.52470E-05-2.85947E-05-2.85653E-05 2.18872E-09-6.62179E-20 1.12239E-18
 -1       437 9.52463E-05-2.85933E-05-2.85655E-05 6.24942E-09-8.97623E-19-3.21368E-18
 -1       438 9.52449E-05-2.85908E-05-2.85660E-05 9.56579E-09 4.97952E-19-2.19080E-18
 -1       439 9.52430E-05-2.85873E-05-2.85667E-05 1.18194E-08 1.43386E-18 4.58466E-19
 -1       440 9.52406E-05-2.85831E-05-2.85675E-05 1.25604E-08 1.48737E-18 1.30614E-20
 -1       441 9.52379E-05-2.85787E-05-2.85683E-05 1.15541E-08 6.68388E-20-1.31989E-18
 -1       442 5.47459E-05-3.81379E-05-6.92357E-06 4.15018E-05-1.10548E-18 3.03386E-18
 -1       443 1.30609E-05-1.96589E-05 2.90703E-06 9.28848E-07-3.28109E-19 5.32985E-18
 -1       444 2.22659E-05-2.52434E-05 1.25472E-06 2.36203E-05-5.64759E-19 3.78518E-18
 -1       445 1.01181E-04-5.38886E-05-2.03329E-05 3.95673E-05 7.64659E-19 9.41133E-19
 -1       446 1.32206E-04-5.41123E-05-3.34960E-05 2.68924E-05 2.47032E-18 7.32366E-19
 -1       447 9.07662E-05-1.23142E-05-3.36925E-05-3.87957E-06-8.06319E-19-2.59519E-18
 -1       448 1.57853E-04-2.56031E-05-5.66475E-05-3.02206E-06 4.87192E-18-2.78250E-19
 -1       449 1.60229E-04-1.46713E-05-6.22571E-05-2.03799E-06 4.39610E-18-3.65521E-19
 -1       450 1.58120E-04-1.50063E-05-6.12220E-05 2.20084E-06 4.11965E-18-4.17217E-19
 -1       451 1.52914E-04-3.29355E-05-5.17231E-05 3.60898E-06 2.70643E-18 2.26581E-20
 -1       452 1.50406E-04-4.83011E-05-4.37599E-05-9.63100E-06 1.81569E-18-6.55286E-19
 -1       453 1.22231E-04-5.37837E-05-2.94101E-05-3.35071E-05 9.66782E-19-2.43945E-18
 -1       454 8.45661E-05-4.85372E-05-1.56302E-05-4.30838E-05 1.64430E-19-4.12657E-18
 -1       455 4.92997E-05-3.59418E-05-5.79645E-06-4.03997E-05-4.15152E-19-4.44438E-18
 -1       456 1.95886E-05-2.37147E-05 1.58286E-06-2.15611E-05-4.35110E-19-5.43975E-18
 -1       457 1.21978E-05-2.11697E-05 3.59547E-06 7.76935E-06-6.30193E-19-5.01708E-18
 -1       458 3.15872E-05-2.65818E-05-2.05461E-06 3.26704E-05-3.09696E-20-3.64309E-18
 -1       459 6.69825E-05-4.30393E-05-1.04610E-05 4.38509E-05-1.49808E-18-2.17105E-18
 -1       460 1.07843E-04-5.38387E-05-2.31969E-05 3.90581E-05-1.84770E-18-9.52647E-19
 -1       461 1.37844E-04-4.94048E-05-3.78206E-05 2.55402E-05-3.03698E-18-1.56902E-18
 -1       462 1.54296E-04-3.82384E-05-4.97242E-05 5.60957E-06-3.33802E-18-5.46336E-19
 -1       463 1.52773E-04-1.86777E-05-5.76891E-05-4.38520E-06-3.98614E-18-2.87462E-20
 -1       464 1.56375E-04-1.17945E-05-6.19013E-05 3.56798E-07-3.69973E-18-6.65185E-19
 -1       465 1.60624E-04-1.80416E-05-6.08569E-05 1.64981E-06-3.90652E-18-1.04455E-18
 -1       466 1.58201E-04-3.27710E-05-5.35442E-05-4.90777E-06-2.74857E-18-9.82664E-19
 -1       467 1.46628E-04-4.59556E-05-4.30041E-05-1.81813E-05-2.02663E-18-4.88844E-19
 -1       468 1.24306E-04-5.40503E-05-3.01387E-05-3.13766E-05-5.52477E-19-3.37754E-20
 -1       469 9.06731E-05-5.02781E-05-1.74454E-05-4.22960E-05 3.33943E-19 1.85212E-18
 -1       470 5.45816E-05-3.91412E-05-6.63602E-06-4.21640E-05 1.02290E-18 1.90503E-18
 -1       471 2.75686E-05-2.71083E-05-1.31938E-07-2.94687E-05 8.38086E-19 3.59502E-18
 -1       472 1.53590E-04-4.28372E-05-4.73654E-05 8.81674E-06 3.42004E-18-1.01962E-19
 -1       473 8.65867E-05-4.89599E-05-1.58089E-05 4.16675E-05-1.56511E-18 7.22360E-19
 -1       474 1.06727E-04-2.90378E-05-3.32846E-05-5.49505E-07 1.40180E-18 1.65189E-18
 -1       475 7.83168E-05-7.88773E-06-3.01935E-05 2.70993E-06 3.58884E-19-2.39898E-18
 -1       476 8.41857E-05-1.16360E-05-3.11068E-05 1.83649E-06-5.83599E-20-2.38705E-18
 -1       477 7.19071E-05-3.63712E-06-2.92635E-05 9.92353E-07 1.01989E-18-2.24041E-18
 -1       478 7.28070E-05-4.15310E-06-2.94283E-05-6.14815E-07 1.26361E-18-2.21068E-18
 -1       479 7.64051E-05-6.42119E-06-3.00018E-05-1.64884E-06 1.42468E-18-1.97520E-18
 -1       480 8.21480E-05-1.00566E-05-3.09106E-05-1.61569E-06 1.76151E-18-1.47114E-18
 -1       481 8.91138E-05-1.44877E-05-3.20024E-05-4.71863E-07 1.88753E-18-8.61019E-19
 -1       482 9.66918E-05-1.94975E-05-3.31025E-05 1.29891E-06 1.94013E-18 4.16667E-20
 -1       483 1.07954E-04-3.17824E-05-3.26353E-05-3.03793E-06 1.10105E-18 1.49845E-18
 -1       484 1.04795E-04-2.84674E-05-3.27056E-05-1.30698E-07-9.46423E-19-1.17783E-18
 -1       485 1.44021E-04-3.62612E-05-4.66220E-05-1.08408E-05 3.24080E-18-9.81394E-19
 -1       486 1.06553E-04-3.18630E-05-3.20097E-05 1.81769E-06-8.40130E-19-8.15803E-19
 -1       487 1.08801E-04-3.49703E-05-3.16469E-05 1.60205E-06-6.17525E-19-6.67167E-19
 -1       488 1.11464E-04-3.77647E-05-3.15941E-05-7.53535E-07-3.70171E-19-5.73049E-19
 -1       489 1.13816E-04-3.93464E-05-3.19260E-05-4.91936E-06-2.54177E-19-1.19741E-19
 -1       490 1.14591E-04-3.82321E-05-3.27375E-05-9.68062E-06-7.72112E-19-1.42547E-19
 -1       491 1.12709E-04-3.34414E-05-3.39999E-05-1.25039E-05-8.27095E-19-4.73040E-19
 -1       492 1.08825E-04-2.64342E-05-3.53519E-05-1.03012E-05-1.42544E-18-1.02648E-18
 -1       493 1.05862E-04-2.15815E-05-3.61769E-05-2.51102E-06-1.60426E-18-1.16903E-18
 -1       494 1.06657E-04-2.28455E-05-3.59722E-05 7.08122E-06-8.87115E-19-9.94234E-19
 -1       495 1.10415E-04-2.91711E-05-3.48493E-05 1.29126E-05-3.05106E-19-9.84116E-19
 -1       496 1.13864E-04-3.59351E-05-3.34111E-05 1.27855E-05-2.59401E-19-1.03270E-18
 -1       497 1.14611E-04-3.94651E-05-3.22231E-05 8.55107E-06-4.50632E-19-4.08940E-19
 -1       498 1.12912E-04-3.95777E-05-3.14446E-05 3.19540E-06-3.93438E-19 1.67614E-19
 -1       499 1.09983E-04-3.76510E-05-3.10111E-05-1.30988E-06 1.40097E-19 2.33095E-19
 -1       500 1.06920E-04-3.51292E-05-3.07746E-05-4.31420E-06 6.16101E-19 1.00272E-19
 -1       501 1.04265E-04-3.28481E-05-3.06111E-05-5.91487E-06 3.82252E-19-4.44276E-19
 -1       502 1.02157E-04-3.11070E-05-3.04510E-05-6.46096E-06 6.09019E-19 1.99210E-19
 -1       503 1.00540E-04-2.99103E-05-3.02694E-05-6.31334E-06 3.10307E-19 8.66730E-19
 -1       504 9.93085E-05-2.91492E-05-3.00671E-05-5.76307E-06 2.42880E-19 3.16692E-19
 -1       505 9.83642E-05-2.86984E-05-2.98552E-05-5.01880E-06 8.06983E-19-3.77567E-19
 -1       506 9.76318E-05-2.84524E-05-2.96467E-05-4.21825E-06 1.02057E-18-1.12597E-18
 -1       507 9.70589E-05-2.83347E-05-2.94517E-05-3.44522E-06 1.18831E-18-1.76267E-18
 -1       508 9.66090E-05-2.82932E-05-2.92768E-05-2.74554E-06-1.89504E-19-2.06038E-18
 -1       509 9.62564E-05-2.82945E-05-2.91254E-05-2.13975E-06 2.43847E-19-9.50333E-19
 -1       510 9.59819E-05-2.83180E-05-2.89979E-05-1.63249E-06 1.65491E-20-1.07418E-18
 -1       511 9.57703E-05-2.83511E-05-2.88932E-05-1.21907E-06 3.09500E-19-5.02586E-19
 -1       512 9.56093E-05-2.83868E-05-2.88091E-05-8.89907E-07 9.68363E-20-1.00916E-18
 -1       513 9.54888E-05-2.84209E-05-2.87429E-05-6.33338E-07-8.06058E-20-6.51422E-19
 -1       514 9.54001E-05-2.84515E-05-2.86919E-05-4.37390E-07-1.22417E-18-2.75809E-19
 -1       515 9.53363E-05-2.84779E-05-2.86534E-05-2.90781E-07-7.16783E-19-9.27862E-20
 -1       516 9.52915E-05-2.84998E-05-2.86248E-05-1.83439E-07-8.15430E-20-1.08234E-19
 -1       517 9.52610E-05-2.85177E-05-2.86042E-05-1.06710E-07 8.16870E-19 5.96729E-19
 -1       518 9.52412E-05-2.85319E-05-2.85896E-05-5.33723E-08 8.12896E-19 1.08001E-18
 -1       519 9.52291E-05-2.85430E-05-2.85797E-05-1.75505E-08-3.68360E-19 6.65107E-19
 -1       520 9.52225E-05-2.85515E-05-2.85732E-05 5.43506E-09-9.83888E-19-2.82930E-19
 -1       521 9.52195E-05-2.85579E-05-2.85692E-05 1.92334E-08-2.74285E-20 1.18776E-19
 -1       522 9.52191E-05-2.85627E-05-2.85670E-05 2.66298E-08-1.40939E-21 2.72860E-18
 -1       523 9.52202E-05-2.85661E-05-2.85660E-05 2.97006E-08 1.33795E-19 4.48341E-18
 -1       524 9.52222E-05-2.85686E-05-2.85658E-05 2.99478E-08-6.52299E-19 1.83828E-18
 -1       525 9.52247E-05-2.85705E-05-2.85661E-05 2.84156E-08 1.31704E-18 7.67309E-20
 -1       526 9.52274E-05-2.85720E-05-2.85666E-05 2.57865E-08 1.38760E-18 4.64149E-19
 -1       527 9.52301E-05-2.85733E-05-2.85672E-05 2.24233E-08 8.42518E-19-1.04106E-18
 -1       528 9.52327E-05-2.85747E-05-2.85677E-05 1.85549E-08-9.74279E-19-1.31871E-18
 -1       529 1.12563E-04-3.73784E-05-3.22356E-05-1.09820E-06 2.64284E-19 1.58038E-18
 -1       530 1.15245E-04-3.96302E-05-3.24234E-05 3.23283E-06 2.14333E-19 1.46435E-18
 -1       531 1.16726E-04-3.97324E-05-3.30100E-05 8.82551E-06 1.88332E-19 1.50421E-18
 -1       532 1.15538E-04-3.60735E-05-3.40878E-05 1.31491E-05 4.52689E-19 1.70832E-18
 -1       533 1.11639E-04-2.91039E-05-3.54387E-05 1.24992E-05 6.54763E-19 1.98758E-18
 -1       534 1.07852E-04-2.30114E-05-3.64325E-05 5.06408E-06 1.29570E-18 1.47252E-18
 -1       535 1.07894E-04-2.29929E-05-3.64451E-05-5.86362E-06 1.77046E-18 1.05427E-19
 -1       536 1.11675E-04-2.89692E-05-3.54941E-05-1.34684E-05 1.25721E-18-9.78539E-19
 -1       537 1.15726E-04-3.61221E-05-3.41497E-05-1.41921E-05 1.56471E-18-1.51788E-18
 -1       538 1.17012E-04-4.00209E-05-3.30237E-05-9.72249E-06 6.77026E-19-1.05137E-18
 -1       539 1.15501E-04-4.01546E-05-3.23135E-05-3.64802E-06-4.09799E-19-2.03504E-19
 -1       540 1.12531E-04-3.80970E-05-3.19185E-05 1.49461E-06 5.66931E-19 2.41253E-19
 -1       541 1.09321E-04-3.54702E-05-3.16634E-05 4.87001E-06 1.02275E-18 6.60758E-19
 -1       542 1.06469E-04-3.31581E-05-3.14261E-05 6.58098E-06-2.77804E-20 1.08411E-18
 -1       543 1.04129E-04-3.14391E-05-3.11555E-05 7.06938E-06-2.03650E-19 9.52396E-19
 -1       544 1.02258E-04-3.02763E-05-3.08486E-05 6.78866E-06-3.73345E-19 5.93895E-20
 -1       545 1.00761E-04-2.95343E-05-3.05234E-05 6.09208E-06-2.51423E-19-7.86170E-19
 -1       546 9.95572E-05-2.90786E-05-3.02020E-05 5.22079E-06 1.01886E-19-1.95797E-19
 -1       547 9.85847E-05-2.88065E-05-2.99017E-05 4.32419E-06-1.68555E-19-6.14539E-20
 -1       548 9.78001E-05-2.86483E-05-2.96335E-05 3.48593E-06-1.11919E-19-8.82575E-19
 -1       549 9.71710E-05-2.85595E-05-2.94023E-05 2.74640E-06 1.12283E-18-1.21753E-18
 -1       550 9.66718E-05-2.85127E-05-2.92088E-05 2.11935E-06 1.60672E-18-6.59118E-19
 -1       551 9.62806E-05-2.84911E-05-2.90509E-05 1.60323E-06 1.14343E-18-1.14046E-18
 -1       552 9.59787E-05-2.84845E-05-2.89247E-05 1.18851E-06-5.66375E-19-1.92512E-18
 -1       553 9.57494E-05-2.84866E-05-2.88259E-05 8.62117E-07-1.52472E-19-1.52209E-18
 -1       554 9.55785E-05-2.84934E-05-2.87500E-05 6.10129E-07-4.04038E-19-2.25603E-19
 -1       555 9.54536E-05-2.85025E-05-2.86927E-05 4.19191E-07-8.36145E-19-2.69435E-19
 -1       556 9.53645E-05-2.85123E-05-2.86505E-05 2.77263E-07-1.65346E-18 1.36124E-18
 -1       557 9.53027E-05-2.85220E-05-2.86200E-05 1.73924E-07-1.12740E-18 2.85317E-18
 -1       558 9.52613E-05-2.85309E-05-2.85985E-05 1.00414E-07 3.62452E-19 3.17311E-18
 -1       559 9.52349E-05-2.85389E-05-2.85838E-05 4.95441E-08 7.85074E-19 2.13907E-18
 -1       560 9.52192E-05-2.85457E-05-2.85743E-05 1.55342E-08-7.62769E-19 2.85445E-18
 -1       561 9.52111E-05-2.85515E-05-2.85683E-05-6.17651E-09-5.99103E-19 2.74351E-18
 -1       562 9.52081E-05-2.85563E-05-2.85650E-05-1.91206E-08-1.24850E-18 2.73100E-18
 -1       563 9.52084E-05-2.85602E-05-2.85635E-05-2.59810E-08-1.64526E-18 7.99998E-19
 -1       564 9.52108E-05-2.85633E-05-2.85632E-05-2.87508E-08-6.82423E-19 2.22907E-18
 -1       565 9.52143E-05-2.85658E-05-2.85636E-05-2.88683E-08-3.83072E-19 2.50445E-18
 -1       566 9.52182E-05-2.85679E-05-2.85645E-05-2.73311E-08 1.31556E-19 1.72445E-18
 -1       567 9.52223E-05-2.85696E-05-2.85655E-05-2.47857E-08 1.89553E-18 1.86344E-18
 -1       568 9.52262E-05-2.85711E-05-2.85665E-05-2.15970E-08 2.47544E-18 1.58139E-18
 -1       569 9.52299E-05-2.85726E-05-2.85674E-05-1.79580E-08 2.18858E-18 2.19702E-18
 -1       570 9.52332E-05-2.85742E-05-2.85682E-05-1.38512E-08-3.42809E-19 2.20410E-18
 -1       571 9.52451E-05-2.85873E-05-2.85676E-05-1.41740E-08-1.46118E-19-1.36083E-18
 -1       572 9.52475E-05-2.85901E-05-2.85675E-05-1.03660E-08 7.84226E-19 3.40446E-18
 -1       573 9.52383E-05-2.85797E-05-2.85680E-05-1.65489E-08 1.34258E-18 6.06338E-20
 -1       574 9.52420E-05-2.85838E-05-2.85678E-05-1.63558E-08-2.10912E-18 1.35895E-18
 -1       575 9.52489E-05-2.85918E-05-2.85674E-05-5.43673E-09 1.58416E-18-7.50874E-19
 -1       576 9.52494E-05-2.85923E-05-2.85673E-05 5.41787E-11-3.97514E-19 1.71521E-18
 -1       577 9.52489E-05-2.85917E-05-2.85674E-05 5.53919E-09-1.13813E-18-1.15665E-18
 -1       578 9.52475E-05-2.85900E-05-2.85675E-05 1.03756E-08 1.76842E-20-1.40397E-18
 -1       579 9.52451E-05-2.85873E-05-2.85676E-05 1.41744E-08 1.57688E-18-2.87534E-19
 -1       580 9.52420E-05-2.85837E-05-2.85678E-05 1.63653E-08 6.10402E-19 1.61824E-19
 -1       581 9.52382E-05-2.85796E-05-2.85680E-05 1.64687E-08-1.33023E-18-1.51500E-18
 -1       582 2.87239E-05-1.46733E-05-5.40605E-06-1.60520E-05 1.30125E-18 3.89836E-18
 -1       583 1.09933E-04-3.45326E-05-3.23184E-05-3.22963E-06 5.89998E-19 1.63502E-18
 -1       584 2.88648E-05-1.44974E-05-5.49775E-06 1.42238E-05-1.04437E-18 3.07568E-18
 -1       585 8.72953E-05-4.89416E-05-1.61187E-05-4.21871E-05 2.74243E-18 4.00872E-19
 -1       586 1.25600E-04-6.08451E-05-2.77866E-05 2.52493E-05 1.43360E-19-5.63674E-19
 -1       587 4.89223E-05-2.66148E-05-8.96794E-06 3.39949E-05-1.76455E-18 3.37495E-18
 -1       588 1.30980E-04-9.34134E-06-5.27743E-05-4.68740E-06-3.48671E-18-1.04916E-18
 -1       589 1.34939E-04-2.03561E-05-4.97074E-05 1.23755E-05 2.58880E-18 5.18331E-19
 -1       590 7.39223E-05-5.01325E-06-2.95394E-05 2.33779E-06 7.41862E-19-2.27622E-18
 -1       591 1.29279E-04-8.69309E-06-5.23254E-05 2.75536E-07 4.54116E-18-3.33791E-19
 -1       592 1.14627E-04-5.78968E-05-2.41917E-05-3.34661E-05-1.20882E-18-1.34492E-18
 -1       593 1.33843E-04-1.46478E-05-5.17710E-05-1.01542E-05 4.41225E-18-6.86176E-19
 -1       594 1.43341E-04-4.46449E-05-4.27437E-05 7.92075E-06 1.13843E-18 1.07070E-18
 -1       595 1.44639E-04-4.35782E-05-4.36591E-05 4.21574E-06-9.16093E-19-2.80876E-18
 -1       596 1.38284E-04-5.89904E-05-3.41344E-05-1.23982E-05-4.22961E-19 3.13667E-19
 -1       597 8.13212E-05-4.45446E-05-1.54079E-05-4.22884E-05-1.44419E-18-3.01120E-18
 -1       598 4.19973E-05-2.38856E-05-7.30352E-06-3.32976E-05-9.72394E-19-4.59346E-18
 -1       599 2.39082E-05-1.09387E-05-4.93210E-06-7.04909E-06 2.09277E-19-5.05520E-18
 -1       600 2.89504E-05-1.30422E-05-6.15629E-06 1.73367E-05 8.87730E-19-3.85580E-18
 -1       601 6.38030E-05-3.45505E-05-1.20906E-05 4.09864E-05 1.16314E-18-1.77580E-18
 -1       602 9.48973E-05-5.00018E-05-1.89984E-05 4.03932E-05 5.48983E-19-2.57339E-19
 -1       603 1.30801E-04-5.83350E-05-3.10998E-05 2.12146E-05-5.57189E-19 2.46725E-19
 -1       604 1.43734E-04-5.07687E-05-4.01316E-05 2.37601E-06-1.69012E-18 5.62748E-19
 -1       605 1.39823E-04-2.99098E-05-4.76468E-05-1.13555E-05-2.96933E-18 2.99744E-19
 -1       606 1.35124E-04-1.04728E-05-5.40034E-05 6.06360E-06-3.00686E-18-1.09457E-18
 -1       607 1.42406E-04-2.35787E-05-5.13820E-05 1.02579E-05-2.51886E-18-1.96088E-18
 -1       608 1.40039E-04-5.66329E-05-3.58512E-05-1.04778E-05 1.78989E-19-2.29387E-18
 -1       609 1.15378E-04-5.88514E-05-2.41740E-05-3.27783E-05 2.01435E-18-6.77494E-19
 -1       610 5.18486E-05-2.91585E-05-9.22396E-06-3.71245E-05 2.13781E-18 8.57938E-19
 -1       611 1.01954E-04-2.36430E-05-3.35870E-05-3.31835E-06-1.25803E-18-1.63264E-18
 -1       612 1.06567E-04-2.66896E-05-3.42444E-05 3.15200E-06 1.83324E-18 2.09909E-18
 -1       613 1.43262E-04-5.49923E-05-3.80304E-05 4.63677E-06 1.79359E-18-8.98120E-19
 -1       614 9.06798E-05-1.57384E-05-3.21394E-05-3.87984E-08-5.47175E-19-2.41154E-18
 -1       615 1.09464E-04-5.60437E-05-2.26871E-05 3.17652E-05-9.85364E-19 9.13049E-19
 -1       616 9.52344E-05-2.85756E-05-2.85681E-05 1.55797E-08-1.76613E-18-7.37643E-19
 -1       617 7.30776E-05-3.70618E-05-1.50189E-05 3.73947E-05-1.58337E-18 1.11229E-18
 -1       618 1.26007E-04-1.89141E-05-4.63829E-05-1.26286E-05-2.86771E-18 3.58401E-20
 -1       619 1.18174E-04-5.76763E-05-2.57998E-05 2.76035E-05 5.66903E-19 4.67926E-19
 -1       620 5.11364E-05-2.08094E-05-1.25189E-05 3.08202E-05 1.48739E-18-2.48112E-18
 -1       621 7.39873E-05-7.50868E-06-2.84914E-05-3.08006E-06 1.16447E-18-1.88863E-18
 -1       622 7.10705E-05-5.57402E-06-2.80706E-05-1.79312E-07 1.04788E-18-2.06885E-18
 -1       623 8.74096E-05-1.64030E-05-3.04356E-05-4.41524E-06 1.38504E-18-1.06143E-18
 -1       624 9.52173E-05-2.15147E-05-3.15898E-05-3.10712E-06 1.44386E-18-4.07702E-19
 -1       625 1.02321E-04-2.72762E-05-3.21542E-05-3.03027E-06 1.33827E-18 4.85474E-19
 -1       626 1.04961E-04-3.15137E-05-3.14763E-05-5.29378E-06 6.98223E-19 4.68004E-19
 -1       627 5.01232E-05-1.93478E-05-1.27348E-05-2.54413E-05 2.38890E-18 1.39234E-18
 -1       628 1.04778E-04-3.24439E-05-3.10009E-05 4.24002E-06-4.41276E-19-1.21920E-18
 -1       629 1.09073E-04-3.73574E-05-3.07371E-05 3.89738E-06-3.43353E-19-9.56741E-19
 -1       630 1.14193E-04-4.18180E-05-3.10230E-05 1.03482E-06 3.40503E-20-7.99228E-19
 -1       631 1.19004E-04-4.40446E-05-3.21438E-05-4.42274E-06-2.20388E-19-6.06186E-19
 -1       632 1.20887E-04-4.09322E-05-3.43355E-05-1.08716E-05-7.13776E-19 2.44187E-19
 -1       633 1.18369E-04-3.14004E-05-3.73897E-05-1.41632E-05-1.59679E-18 2.90248E-19
 -1       634 1.12606E-04-1.94300E-05-4.01757E-05-9.29136E-06-1.77190E-18-5.67459E-19
 -1       635 1.10787E-04-1.60588E-05-4.08973E-05 3.10228E-06-1.44074E-18-1.13538E-18
 -1       636 1.14409E-04-2.36940E-05-3.91517E-05 1.33961E-05-9.21810E-19-2.05559E-18
 -1       637 1.19905E-04-3.57937E-05-3.61642E-05 1.52790E-05-2.51291E-19-2.09134E-18
 -1       638 1.20990E-04-4.34590E-05-3.32450E-05 9.55344E-06 6.94352E-19-1.49495E-18
 -1       639 1.17417E-04-4.46105E-05-3.12043E-05 2.20694E-06 5.49739E-19-2.79571E-20
 -1       640 1.12012E-04-4.17200E-05-3.01245E-05-3.35793E-06 1.41813E-19 1.20781E-18
 -1       641 1.06867E-04-3.76304E-05-2.96739E-05-6.60879E-06 2.28452E-19 9.31399E-19
 -1       642 1.02864E-04-3.39312E-05-2.95437E-05-8.05017E-06 1.31002E-19 1.02392E-18
 -1       643 1.00076E-04-3.11646E-05-2.95343E-05-8.32188E-06 9.32884E-19 4.82228E-19
 -1       644 9.82620E-05-2.93323E-05-2.95421E-05-7.90918E-06 4.37807E-19 5.87038E-19
 -1       645 9.71313E-05-2.82416E-05-2.95246E-05-7.13362E-06-5.32037E-19 3.78988E-19
 -1       646 9.64427E-05-2.76723E-05-2.94732E-05-6.19903E-06 4.09507E-19-5.12665E-20
 -1       647 9.60262E-05-2.74403E-05-2.93940E-05-5.23213E-06 5.49129E-19 1.99420E-19
 -1       648 9.57718E-05-2.74103E-05-2.92976E-05-4.30917E-06 2.37430E-19-5.45830E-19
 -1       649 9.56122E-05-2.74911E-05-2.91945E-05-3.47271E-06 5.52396E-21-7.08176E-19
 -1       650 9.55081E-05-2.76241E-05-2.90929E-05-2.74279E-06 4.93744E-20-9.83274E-19
 -1       651 9.54370E-05-2.77740E-05-2.89981E-05-2.12459E-06 6.78111E-19-1.69141E-18
 -1       652 9.53862E-05-2.79208E-05-2.89135E-05-1.61399E-06 7.75443E-20-1.56970E-18
 -1       653 9.53487E-05-2.80540E-05-2.88403E-05-1.20148E-06 1.96496E-19-1.42576E-18
 -1       654 9.53203E-05-2.81692E-05-2.87789E-05-8.74913E-07 3.97777E-19-1.57244E-18
 -1       655 9.52986E-05-2.82653E-05-2.87284E-05-6.21349E-07-6.08993E-19-1.58104E-18
 -1       656 9.52819E-05-2.83434E-05-2.86878E-05-4.28219E-07 1.21289E-19 1.82901E-19
 -1       657 9.52691E-05-2.84054E-05-2.86558E-05-2.84005E-07-6.40171E-19 8.86916E-19
 -1       658 9.52595E-05-2.84534E-05-2.86311E-05-1.78579E-07-3.36452E-19 1.18775E-19
 -1       659 9.52523E-05-2.84900E-05-2.86123E-05-1.03317E-07-9.78621E-19-1.39075E-18
 -1       660 9.52470E-05-2.85173E-05-2.85984E-05-5.10616E-08-1.51458E-19-2.52982E-18
 -1       661 9.52432E-05-2.85371E-05-2.85883E-05-1.60103E-08-4.96076E-19-3.03392E-19
 -1       662 9.52405E-05-2.85512E-05-2.85811E-05 6.44610E-09 2.39785E-19-6.02130E-19
 -1       663 9.52387E-05-2.85609E-05-2.85762E-05 1.98932E-08 9.28720E-19 3.61097E-19
 -1       664 9.52376E-05-2.85675E-05-2.85729E-05 2.70613E-08 8.85239E-20 8.84879E-20
 -1       665 9.52369E-05-2.85717E-05-2.85708E-05 2.99798E-08-1.79365E-18-6.19520E-20
 -1       666 9.52366E-05-2.85743E-05-2.85696E-05 3.01122E-08-3.78200E-19-7.51668E-19
 -1       667 9.52366E-05-2.85759E-05-2.85688E-05 2.84695E-08 1.32736E-18-1.21223E-18
 -1       668 9.52366E-05-2.85770E-05-2.85684E-05 2.57265E-08 1.41477E-20-1.95657E-18
 -1       669 9.52372E-05-2.85781E-05-2.85682E-05 2.22251E-08-1.02104E-18-2.21280E-18
 -1       670 1.19739E-04-4.49592E-05-3.20722E-05 2.52678E-06 5.90059E-20 1.24175E-18
 -1       671 1.14036E-04-4.12228E-05-3.12139E-05-3.01868E-06 6.68035E-20 7.02798E-19
 -1       672 1.21873E-04-3.58536E-05-3.69434E-05 1.51235E-05 2.30241E-19 1.99220E-18
 -1       673 1.16198E-04-2.27893E-05-4.03369E-05 1.24196E-05 1.44054E-18 1.79018E-18
 -1       674 1.13637E-04-1.64421E-05-4.19441E-05-2.95609E-07 2.92117E-18 8.40250E-19
 -1       675 1.16586E-04-2.26288E-05-4.05413E-05-1.29661E-05 2.68450E-18-1.20138E-18
 -1       676 1.22123E-04-3.55026E-05-3.72974E-05-1.66285E-05 1.66756E-18-2.66047E-18
 -1       677 1.23507E-04-4.42320E-05-3.39980E-05-1.09088E-05 2.78115E-19-1.57917E-18
 -1       678 1.19765E-04-4.56246E-05-3.17696E-05-2.76071E-06-8.41192E-19-7.06054E-19
 -1       679 1.13922E-04-4.23634E-05-3.06583E-05 3.54939E-06-3.87567E-19-6.79887E-19
 -1       680 1.08411E-04-3.78974E-05-3.02204E-05 7.26027E-06 3.39176E-19 1.61968E-19
 -1       681 1.04184E-04-3.39741E-05-3.00923E-05 8.88313E-06-2.23728E-20 5.67101E-19
 -1       682 1.01278E-04-3.11561E-05-3.00546E-05 9.15510E-06-5.88191E-20 7.00015E-19
 -1       683 9.93836E-05-2.93722E-05-3.00065E-05 8.64850E-06 6.10668E-19 3.06307E-19
 -1       684 9.81666E-05-2.83594E-05-2.99181E-05 7.74085E-06 1.40222E-19-6.12084E-19
 -1       685 9.73717E-05-2.78572E-05-2.97921E-05 6.67035E-06-2.88276E-19-1.31994E-18
 -1       686 9.68323E-05-2.76654E-05-2.96427E-05 5.58216E-06 1.27757E-19-1.40512E-18
 -1       687 9.64480E-05-2.76482E-05-2.94852E-05 4.55999E-06 4.30331E-19-1.66924E-18
 -1       688 9.61616E-05-2.77200E-05-2.93316E-05 3.64721E-06 3.05625E-19-1.12885E-18
 -1       689 9.59411E-05-2.78303E-05-2.91899E-05 2.86120E-06 1.22421E-18-6.56641E-19
 -1       690 9.57685E-05-2.79504E-05-2.90645E-05 2.20322E-06 1.33126E-18-9.61720E-20
 -1       691 9.56328E-05-2.80655E-05-2.89570E-05 1.66521E-06-1.54302E-19 7.24032E-19
 -1       692 9.55264E-05-2.81685E-05-2.88674E-05 1.23424E-06-7.60752E-19-3.11895E-19
 -1       693 9.54441E-05-2.82568E-05-2.87943E-05 8.95480E-07-7.43540E-19 6.79997E-19
 -1       694 9.53812E-05-2.83302E-05-2.87359E-05 6.33997E-07-6.84328E-19 6.39953E-19
 -1       695 9.53340E-05-2.83898E-05-2.86902E-05 4.35796E-07-1.75680E-18 2.37543E-19
 -1       696 9.52993E-05-2.84373E-05-2.86550E-05 2.88380E-07-2.27812E-18 1.56363E-19
 -1       697 9.52744E-05-2.84744E-05-2.86285E-05 1.80964E-07-7.32216E-19 1.93249E-19
 -1       698 9.52570E-05-2.85029E-05-2.86088E-05 1.04489E-07 7.65800E-19 1.62765E-18
 -1       699 9.52452E-05-2.85243E-05-2.85946E-05 5.15148E-08 3.69767E-19 1.95642E-18
 -1       700 9.52377E-05-2.85402E-05-2.85846E-05 1.60562E-08-7.97203E-20-1.86173E-19
 -1       701 9.52332E-05-2.85518E-05-2.85777E-05-6.61394E-09-7.51530E-19 1.93489E-19
 -1       702 9.52308E-05-2.85599E-05-2.85732E-05-2.01577E-08-1.07435E-18 3.80792E-19
 -1       703 9.52299E-05-2.85656E-05-2.85704E-05-2.73557E-08-1.31656E-18-1.30260E-19
 -1       704 9.52299E-05-2.85694E-05-2.85688E-05-3.02704E-08-7.28145E-19-1.82915E-19
 -1       705 9.52306E-05-2.85719E-05-2.85680E-05-3.03866E-08 7.58171E-19-1.05134E-18
 -1       706 9.52316E-05-2.85736E-05-2.85677E-05-2.87312E-08 9.52574E-19-1.69005E-18
 -1       707 9.52328E-05-2.85748E-05-2.85677E-05-2.59987E-08 8.74024E-19-1.52023E-19
 -1       708 9.52342E-05-2.85760E-05-2.85678E-05-2.25186E-08 2.15039E-18 8.96277E-19
 -1       709 9.52365E-05-2.85778E-05-2.85680E-05-1.97241E-08 8.32205E-19 1.01279E-18
 -1       710 7.90910E-05-3.94715E-05-1.66134E-05-3.77182E-05 3.06242E-18 2.45640E-20
 -1       711 9.52526E-05-2.85908E-05-2.85693E-05-3.20313E-09 1.82045E-18-2.36170E-18
 -1       712 1.35125E-04-4.28430E-05-3.98445E-05-1.01602E-05-1.15342E-18 3.52736E-19
 -1       713 9.52487E-05-2.85877E-05-2.85690E-05-1.47450E-08 8.12665E-19 3.32855E-19
 -1       714 9.52526E-05-2.85908E-05-2.85693E-05 3.33422E-09-8.02108E-19-1.04877E-18
 -1       715 9.52513E-05-2.85898E-05-2.85692E-05-9.43439E-09 6.19000E-19 3.43505E-18
 -1       716 9.52513E-05-2.85898E-05-2.85692E-05 9.45260E-09-9.89004E-19-3.39050E-19
 -1       717 9.52487E-05-2.85877E-05-2.85690E-05 1.47636E-08 1.12191E-18-1.00930E-19
 -1       718 9.52447E-05-2.85844E-05-2.85687E-05 1.84750E-08 9.88399E-19-2.18516E-18
 -1       719 1.08839E-04-3.62513E-05-3.11156E-05-5.45701E-06 3.47833E-19 3.66300E-19
 -1       720 1.35988E-04-5.06960E-05-3.68009E-05 4.98941E-06 4.49060E-19-3.21256E-18
 -1       721 5.00132E-05-1.80185E-05-1.32290E-05 2.19265E-05-8.47192E-19 3.76265E-18
 -1       722 4.24815E-05-1.37815E-05-1.17785E-05-2.09199E-05-3.72734E-19-3.87634E-18
 -1       723 1.33521E-04-3.33499E-05-4.32784E-05 1.43788E-05-7.37633E-19-2.74510E-18
 -1       724 1.23329E-04-4.41177E-05-3.40092E-05 1.00101E-05 1.74469E-20 1.77722E-18
 -1       725 1.01499E-04-2.76643E-05-3.16403E-05 2.54905E-06-5.21245E-19-1.53281E-18
 -1       726 1.36492E-04-4.73277E-05-3.85058E-05-1.02815E-05 1.32168E-18-1.44848E-18
 -1       727 9.52376E-05-2.85788E-05-2.85681E-05 1.94313E-08-8.48065E-20-2.79336E-18
 -1       728 7.98940E-05-1.14516E-05-2.93361E-05-4.60829E-06 1.27916E-18-1.58881E-18
 -1       729 8.27660E-05-1.36526E-05-2.96247E-05 5.33428E-06 2.49526E-19-2.03127E-18
 -1       730 1.28794E-04-5.94372E-05-2.97737E-05-1.51043E-05 2.28412E-18-2.01771E-18
 -1       731 1.04513E-04-5.13836E-05-2.25269E-05-3.28876E-05-1.69436E-18-1.30152E-18
 -1       732 3.79609E-05-1.11452E-05-1.09800E-05 9.71174E-07 2.44402E-19 2.05077E-18
 -1       733 6.84163E-05-3.15134E-05-1.54263E-05-3.62147E-05-1.59652E-18-2.91901E-18
 -1       734 1.36365E-04-5.31601E-05-3.58157E-05 2.92407E-06-4.79414E-19 1.05929E-18
 -1       735 1.26744E-04-5.88747E-05-2.90829E-05-1.79777E-05-1.22641E-18 4.38935E-19
 -1       736 3.53029E-05-8.47666E-06-1.09323E-05 4.23432E-06 7.51897E-19-4.19514E-18
 -1       737 8.74315E-05-4.13331E-05-1.93961E-05 3.64923E-05 1.44673E-18-5.01602E-19
 -1       738 1.20155E-04-1.03807E-05-4.76222E-05 1.92613E-06-2.77657E-18-1.49034E-18
 -1       739 1.35714E-04-5.63883E-05-3.40990E-05 5.89135E-06-3.05494E-19 8.03464E-19
 -1       740 1.26486E-04-1.78134E-05-4.70520E-05 1.24018E-05-2.27868E-18-2.29337E-18
 -1       741 1.29310E-04-2.76102E-05-4.39892E-05-1.60785E-05 3.28908E-18-1.66243E-18
 -1       742 1.32636E-04-5.82930E-05-3.19702E-05 7.04328E-06-3.64577E-19-1.91279E-18
 -1       743 1.07145E-04-5.37772E-05-2.26835E-05-3.16815E-05 3.33180E-18-8.94907E-19
 -1       744 8.99488E-05-1.83670E-05-3.06843E-05 3.99198E-06-2.04602E-19-2.05090E-18
 -1       745 7.19762E-05-6.27567E-06-2.81622E-05 2.98364E-06 8.36884E-19-2.05541E-18
 -1       746 1.22791E-04-5.73709E-05-2.80095E-05 1.62622E-05-5.85326E-19-2.17324E-18
 -1       747 6.58389E-05-2.60467E-05-1.67317E-05 2.78898E-05-4.15026E-19 3.04135E-18
 -1       748 9.52416E-05-2.85821E-05-2.85684E-05-1.96997E-08 3.10524E-19-1.75236E-18
 -1       749 1.24259E-04-1.61863E-05-4.68820E-05-1.08375E-05 4.20615E-18-1.10914E-18
 -1       750 9.34744E-05-4.55336E-05-2.03629E-05 3.31900E-05-9.56763E-19 2.11066E-18
 -1       751 4.80452E-05-1.27842E-05-1.47307E-05 1.86067E-05 1.37361E-18-2.81387E-18
 -1       752 9.81021E-05-2.37943E-05-3.18495E-05 1.59834E-06-6.78087E-19-1.85642E-18
 -1       753 9.52415E-05-2.85815E-05-2.85686E-05 2.09706E-08-8.26141E-19-2.14255E-18
 -1       754 9.52454E-05-2.85851E-05-2.85687E-05-1.78629E-08 1.63608E-20 4.75263E-19
 -1       755 7.62965E-05-9.29146E-06-2.87251E-05 5.06266E-06 5.93539E-19-1.97668E-18
 -1       756 1.29676E-04-3.89896E-05-3.91133E-05 1.45332E-05 5.52001E-19 2.10141E-18
 -1       757 1.29957E-04-5.13456E-05-3.37449E-05-5.02697E-06-6.94428E-19-1.70239E-18
 -1       758 9.36565E-05-2.35174E-05-3.00700E-05-7.33880E-06 8.62471E-19-6.25861E-19
 -1       759 1.28465E-04-3.32334E-05-4.11154E-05-1.42701E-05-2.10101E-18 8.39238E-19
 -1       760 9.79503E-05-2.71878E-05-3.03212E-05 6.20204E-06-2.50144E-19-1.61507E-18
 -1       761 1.28734E-04-5.37700E-05-3.21722E-05-1.20031E-06 1.61973E-18-2.62539E-18
 -1       762 1.09115E-04-4.02577E-05-2.95105E-05 8.55296E-06 1.28582E-19-6.53257E-19
 -1       763 1.17601E-04-4.69231E-05-3.02524E-05 5.66648E-06 1.21250E-20-2.12426E-19
 -1       764 1.25934E-04-4.99065E-05-3.26531E-05-1.63306E-06 1.00092E-19 2.06924E-19
 -1       765 1.27423E-04-4.15474E-05-3.69380E-05-1.17150E-05-8.81761E-19 8.30132E-19
 -1       766 1.18086E-04-5.08675E-05-2.87718E-05-9.99362E-06 2.11338E-18-1.41371E-18
 -1       767 1.08015E-04-4.36549E-05-2.75739E-05-1.34534E-05 1.32896E-18-1.97304E-19
 -1       768 1.00838E-04-3.68776E-05-2.74136E-05-1.36537E-05 2.19888E-19 2.22830E-19
 -1       769 9.64543E-05-3.19073E-05-2.76664E-05-1.24455E-05 3.42914E-19 4.71954E-19
 -1       770 9.40781E-05-2.86913E-05-2.80256E-05-1.08347E-05 1.52950E-20 5.38791E-19
 -1       771 9.29863E-05-2.68230E-05-2.83575E-05-9.22695E-06 3.93828E-20-3.49801E-19
 -1       772 9.26530E-05-2.58887E-05-2.86142E-05-7.75438E-06 3.00189E-19-5.76470E-19
 -1       773 9.27341E-05-2.55604E-05-2.87892E-05-6.44430E-06-4.04731E-19 2.52365E-19
 -1       774 9.30167E-05-2.56006E-05-2.88928E-05-5.29392E-06 2.64231E-19-1.59997E-19
 -1       775 9.33743E-05-2.58459E-05-2.89409E-05-4.29427E-06 7.61731E-20-1.21606E-18
 -1       776 9.37366E-05-2.61884E-05-2.89493E-05-3.43590E-06-5.01417E-19-6.69495E-20
 -1       777 9.40674E-05-2.65604E-05-2.89317E-05-2.70903E-06-1.46272E-19-6.06099E-19
 -1       778 9.43514E-05-2.69215E-05-2.88986E-05-2.10290E-06-5.42516E-19-3.50007E-19
 -1       779 9.45850E-05-2.72499E-05-2.88580E-05-1.60554E-06-4.49133E-19-1.56890E-18
 -1       780 9.47709E-05-2.75356E-05-2.88152E-05-1.20409E-06 1.13470E-19-1.79871E-18
 -1       781 9.49146E-05-2.77760E-05-2.87738E-05-8.85424E-07-1.98359E-19-1.87264E-18
 -1       782 9.50230E-05-2.79730E-05-2.87358E-05-6.36700E-07 7.18363E-19-1.14807E-18
 -1       783 9.51026E-05-2.81306E-05-2.87024E-05-4.45906E-07-2.85228E-19-1.24073E-18
 -1       784 9.51596E-05-2.82542E-05-2.86738E-05-3.02180E-07-5.15803E-19-1.05066E-18
 -1       785 9.51989E-05-2.83492E-05-2.86499E-05-1.95999E-07-1.88022E-18 1.39311E-19
 -1       786 9.52252E-05-2.84207E-05-2.86305E-05-1.19230E-07-1.86723E-18-1.23452E-18
 -1       787 9.52417E-05-2.84734E-05-2.86150E-05-6.50876E-08 2.02783E-19-1.88420E-18
 -1       788 9.52513E-05-2.85114E-05-2.86028E-05-2.80313E-08-4.19164E-20-1.87430E-18
 -1       789 9.52560E-05-2.85380E-05-2.85934E-05-3.62535E-09-1.18001E-18-3.15446E-18
 -1       790 9.52575E-05-2.85560E-05-2.85863E-05 1.16120E-08-1.30110E-19-5.34980E-18
 -1       791 9.52569E-05-2.85678E-05-2.85810E-05 2.03597E-08 8.83175E-19-5.12909E-18
 -1       792 9.52550E-05-2.85751E-05-2.85771E-05 2.46340E-08-8.52636E-20-3.21807E-18
 -1       793 9.52526E-05-2.85793E-05-2.85743E-05 2.59135E-08-1.31614E-18-8.81814E-19
 -1       794 9.52499E-05-2.85816E-05-2.85722E-05 2.52456E-08-7.04627E-19-1.72788E-18
 -1       795 9.52473E-05-2.85828E-05-2.85705E-05 2.34354E-08-6.97613E-20-3.65605E-18
 -1       796 1.21316E-04-5.05349E-05-3.03374E-05 4.44965E-06-8.57979E-19-1.74414E-18
 -1       797 1.11918E-04-4.44877E-05-2.89219E-05 9.91164E-06-6.32925E-19-1.93025E-18
 -1       798 1.04466E-04-3.78420E-05-2.85584E-05 1.19038E-05-3.49783E-19-1.66726E-18
 -1       799 9.97064E-05-3.28165E-05-2.86694E-05 1.18561E-05-3.10256E-19-1.03831E-18
 -1       800 9.69581E-05-2.95407E-05-2.88941E-05 1.09334E-05-3.08295E-20-1.04957E-18
 -1       801 9.55277E-05-2.76477E-05-2.90912E-05 9.68640E-06 1.85098E-19-9.83267E-19
 -1       802 9.48799E-05-2.67052E-05-2.92170E-05 8.35665E-06 6.95844E-19-1.48495E-19
 -1       803 9.46592E-05-2.63608E-05-2.92699E-05 7.05934E-06-4.04301E-19-6.79507E-19
 -1       804 9.46499E-05-2.63636E-05-2.92649E-05 5.85305E-06-9.53226E-20-1.39839E-18
 -1       805 9.47305E-05-2.65483E-05-2.92203E-05 4.76840E-06 4.43018E-19-7.80119E-19
 -1       806 9.48372E-05-2.68129E-05-2.91528E-05 3.81925E-06 2.95380E-19-6.16563E-19
 -1       807 9.49400E-05-2.70977E-05-2.90749E-05 3.00808E-06 6.76680E-19-1.61458E-18
 -1       808 9.50270E-05-2.73700E-05-2.89956E-05 2.32946E-06 6.73704E-19-1.46533E-19
 -1       809 9.50955E-05-2.76140E-05-2.89205E-05 1.77278E-06-7.27996E-19 6.60563E-19
 -1       810 9.51468E-05-2.78235E-05-2.88527E-05 1.32449E-06-1.61743E-18 1.30198E-18
 -1       811 9.51837E-05-2.79980E-05-2.87938E-05 9.69839E-07-7.38798E-19 1.70634E-18
 -1       812 9.52093E-05-2.81399E-05-2.87440E-05 6.94106E-07-6.55836E-20 4.25942E-19
 -1       813 9.52264E-05-2.82529E-05-2.87029E-05 4.83473E-07-1.88908E-18-1.51894E-19
 -1       814 9.52373E-05-2.83413E-05-2.86697E-05 3.25487E-07-2.12580E-18 8.52787E-19
 -1       815 9.52437E-05-2.84091E-05-2.86434E-05 2.09296E-07-1.02884E-18-6.07065E-19
 -1       816 9.52471E-05-2.84603E-05-2.86229E-05 1.25695E-07 4.10902E-19-1.13824E-18
 -1       817 9.52484E-05-2.84981E-05-2.86073E-05 6.70508E-08-2.35893E-19-4.62079E-19
 -1       818 9.52485E-05-2.85255E-05-2.85956E-05 2.71683E-08 3.24791E-19 4.79331E-19
 -1       819 9.52477E-05-2.85448E-05-2.85870E-05 1.11344E-09-4.79975E-19 1.45585E-19
 -1       820 9.52466E-05-2.85581E-05-2.85808E-05-1.49682E-08-3.39502E-19-1.56543E-18
 -1       821 9.52452E-05-2.85668E-05-2.85765E-05-2.40294E-08-8.23119E-19-2.07523E-18
 -1       822 9.52438E-05-2.85724E-05-2.85735E-05-2.82812E-08 7.79647E-20-2.09814E-18
 -1       823 9.52426E-05-2.85758E-05-2.85715E-05-2.93359E-08 8.34037E-19-1.79110E-18
 -1       824 9.52415E-05-2.85777E-05-2.85702E-05-2.83325E-08 8.88241E-19-1.17455E-18
 -1       825 9.52405E-05-2.85789E-05-2.85693E-05-2.60600E-08-6.56998E-20-1.61734E-18
 -1       826 9.52410E-05-2.85806E-05-2.85688E-05-2.28025E-08 1.57179E-18-9.46672E-19
 -1       827 9.52559E-05-2.85896E-05-2.85713E-05 7.24855E-09-4.76903E-19 2.94549E-21
 -1       828 9.52568E-05-2.85901E-05-2.85714E-05 1.65044E-11 1.00441E-18-3.02763E-18
 -1       829 1.14953E-04-5.15615E-05-2.70973E-05-1.95813E-05-1.06037E-18-3.92257E-20
 -1       830 5.18503E-05-1.36262E-05-1.61053E-05 8.94469E-06 6.01391E-19 2.11193E-18
 -1       831 9.59853E-05-4.40738E-05-2.20910E-05-2.95569E-05 2.82372E-18-4.91160E-19
 -1       832 9.52534E-05-2.85880E-05-2.85709E-05 1.38384E-08 3.55728E-19 9.58407E-19
 -1       833 1.15863E-04-4.60533E-05-2.98928E-05-8.12423E-06-4.77735E-19 5.87838E-19
 -1       834 1.31344E-04-4.99805E-05-3.49891E-05-4.09023E-06-1.77698E-19 4.78335E-19
 -1       835 6.31441E-05-2.08643E-05-1.78602E-05-2.60297E-05-8.02034E-19-2.59835E-18
 -1       836 1.02569E-04-3.33387E-05-2.96637E-05 8.35474E-06-6.05823E-20-1.16213E-18
 -1       837 9.98008E-05-2.79828E-05-3.07750E-05-6.52683E-06 8.54997E-19-1.30127E-19
 -1       838 1.17648E-04-5.48200E-05-2.68962E-05-1.90004E-05 2.85966E-18-1.46907E-18
 -1       839 7.01869E-05-8.05073E-06-2.66293E-05-3.34228E-06 8.91384E-19-2.07941E-18
 -1       840 1.25256E-04-5.57723E-05-2.97802E-05 1.30675E-05 3.94138E-19 6.34838E-19
 -1       841 9.38803E-05-2.27979E-05-3.04645E-05 5.28121E-06-1.49583E-19-1.89279E-18
 -1       842 1.05451E-04-4.76977E-05-2.46396E-05 2.65460E-05 1.09504E-18-1.83039E-19
 -1       843 1.27421E-04-5.36887E-05-3.16020E-05-4.36956E-06-8.20947E-19 8.72477E-19
 -1       844 7.19354E-05-2.61882E-05-1.93104E-05 2.90201E-05 1.53072E-18-1.19335E-18
 -1       845 7.06663E-05-2.74967E-05-1.82715E-05-2.81496E-05 1.94194E-18 2.36362E-19
 -1       846 5.30008E-05-1.39092E-05-1.64812E-05-1.07524E-05 9.76454E-19 1.34349E-18
 -1       847 9.14443E-05-3.94583E-05-2.20850E-05-3.00845E-05-1.48325E-18-1.96444E-18
 -1       848 4.80145E-05-8.97946E-06-1.64121E-05-7.48031E-06 1.85176E-19-3.45772E-18
 -1       849 6.88930E-05-7.21441E-06-2.64322E-05 2.10481E-06 9.23901E-19-1.92225E-18
 -1       850 8.48514E-05-1.78749E-05-2.86911E-05-8.46448E-06 7.15865E-19-1.38557E-18
 -1       851 8.61983E-05-1.78717E-05-2.92856E-05 7.25420E-06 2.02426E-19-1.75459E-18
 -1       852 8.23987E-05-3.46788E-05-2.02943E-05 2.87456E-05-2.98784E-19 1.63542E-18
 -1       853 9.52534E-05-2.85881E-05-2.85709E-05-1.37706E-08 6.71279E-19 3.04539E-18
 -1       854 7.84262E-05-1.26692E-05-2.81888E-05 7.41269E-06 6.47054E-19-1.82465E-18
 -1       855 9.52560E-05-2.85896E-05-2.85713E-05-7.18206E-09 3.45844E-19 3.08708E-19
 -1       856 6.07298E-05-1.83109E-05-1.79692E-05 1.72462E-05-3.17713E-19 3.37668E-18
 -1       857 1.03993E-04-3.36758E-05-3.01484E-05-8.47489E-06 3.37586E-19 1.51544E-19
 -1       858 1.09002E-04-3.95885E-05-2.97707E-05-9.20391E-06-2.53276E-19 1.68207E-19
 -1       859 1.10593E-04-5.08725E-05-2.54537E-05 2.23608E-05-9.98003E-19-1.37300E-18
 -1       860 9.52499E-05-2.85860E-05-2.85702E-05-1.83537E-08 6.11045E-19 8.34673E-19
 -1       861 8.92178E-05-3.47101E-05-2.32454E-05 2.62402E-05 1.29373E-18-7.50226E-19
 -1       862 9.52492E-05-2.85854E-05-2.85702E-05 1.91669E-08 7.01321E-19-1.38098E-18
 -1       863 7.61879E-05-1.21241E-05-2.74520E-05-7.22217E-06 8.28244E-19-1.77815E-18
 -1       864 5.12318E-05-8.58653E-06-1.80580E-05 5.09620E-06 8.48538E-19-2.97375E-18
 -1       865 9.74228E-05-2.94690E-05-2.91079E-05-1.10379E-05 2.56952E-19-3.66004E-19
 -1       866 6.04243E-05-1.40486E-05-1.97811E-05 1.07647E-07 1.00048E-18 1.12936E-18
 -1       867 9.49629E-05-3.60905E-05-2.51937E-05-1.93026E-05 9.40674E-19-3.11499E-19
 -1       868 9.09494E-05-3.03685E-05-2.59519E-05-1.56494E-05 5.18336E-19 3.26332E-19
 -1       869 8.92925E-05-2.69302E-05-2.67207E-05-1.24772E-05 1.74619E-19-3.05529E-19
 -1       870 8.89670E-05-2.50730E-05-2.73804E-05-9.95884E-06 1.29701E-19 6.46896E-20
 -1       871 8.93197E-05-2.42329E-05-2.78929E-05-7.99904E-06-1.24684E-19 9.59446E-19
 -1       872 8.99920E-05-2.40354E-05-2.82664E-05-6.45242E-06 2.11783E-19 2.50198E-19
 -1       873 9.07797E-05-2.42260E-05-2.85226E-05-5.20677E-06-8.70487E-19-1.35512E-19
 -1       874 9.15678E-05-2.46318E-05-2.86867E-05-4.18578E-06-3.59350E-19-6.77193E-19
 -1       875 9.22952E-05-2.51376E-05-2.87817E-05-3.34038E-06 6.28142E-19-3.85186E-19
 -1       876 9.29332E-05-2.56690E-05-2.88275E-05-2.63891E-06-5.24593E-19 5.21350E-19
 -1       877 9.34725E-05-2.61799E-05-2.88397E-05-2.05940E-06-3.87149E-19 7.78698E-19
 -1       878 9.39152E-05-2.66444E-05-2.88303E-05-1.58487E-06-1.39489E-18-7.43790E-19
 -1       879 9.42696E-05-2.70501E-05-2.88084E-05-1.20083E-06 2.28447E-19-7.88411E-20
 -1       880 9.45471E-05-2.73937E-05-2.87800E-05-8.94184E-07-8.24026E-19-3.35653E-19
 -1       881 9.47597E-05-2.76773E-05-2.87496E-05-6.52902E-07-5.78644E-20-2.03956E-18
 -1       882 9.49191E-05-2.79061E-05-2.87198E-05-4.65987E-07 4.60251E-20-1.98462E-18
 -1       883 9.50359E-05-2.80870E-05-2.86924E-05-3.23563E-07-2.53340E-19-1.34922E-18
 -1       884 9.51194E-05-2.82273E-05-2.86680E-05-2.16949E-07-5.09478E-19-1.82666E-18
 -1       885 9.51773E-05-2.83339E-05-2.86472E-05-1.38679E-07-2.00696E-18-1.87263E-18
 -1       886 9.52160E-05-2.84134E-05-2.86297E-05-8.24637E-08-2.12359E-18-2.04002E-18
 -1       887 9.52405E-05-2.84713E-05-2.86154E-05-4.31112E-08-8.44277E-20-2.77753E-18
 -1       888 9.52549E-05-2.85125E-05-2.86039E-05-1.64183E-08-9.95230E-19-4.31464E-18
 -1       889 9.52622E-05-2.85409E-05-2.85948E-05 9.55692E-10-1.33538E-18-2.10785E-18
 -1       890 9.52647E-05-2.85598E-05-2.85878E-05 1.16160E-08 1.17522E-18-1.47373E-18
 -1       891 9.52641E-05-2.85718E-05-2.85824E-05 1.75551E-08 1.07846E-18-1.74375E-18
 -1       892 9.52616E-05-2.85790E-05-2.85783E-05 2.02582E-08 5.58737E-19-2.11704E-18
 -1       893 9.52582E-05-2.85830E-05-2.85751E-05 2.08277E-08-1.11230E-18-2.38648E-18
 -1       894 9.52546E-05-2.85851E-05-2.85727E-05 2.00210E-08-1.20080E-18-8.29945E-19
 -1       895 9.47113E-05-3.21526E-05-2.68058E-05 1.54331E-05-4.86549E-19-6.44615E-19
 -1       896 9.21961E-05-2.81929E-05-2.74270E-05 1.29699E-05-1.70732E-19-1.06358E-18
 -1       897 9.12719E-05-2.60042E-05-2.79700E-05 1.08164E-05-7.14084E-19-3.49119E-19
 -1       898 9.12256E-05-2.49930E-05-2.83845E-05 8.99487E-06-3.03585E-19 4.53365E-19
 -1       899 9.16037E-05-2.47087E-05-2.86687E-05 7.45560E-06 2.97203E-19 5.03902E-19
 -1       900 9.21492E-05-2.48455E-05-2.88440E-05 6.14014E-06-8.26126E-20-1.25051E-19
 -1       901 9.27225E-05-2.52029E-05-2.89366E-05 5.00922E-06-5.70584E-19-5.57039E-19
 -1       902 9.32537E-05-2.56546E-05-2.89708E-05 4.03862E-06 1.39664E-19 6.59044E-19
 -1       903 9.37133E-05-2.61247E-05-2.89664E-05 3.21245E-06 1.64750E-18-7.19790E-19
 -1       904 9.40936E-05-2.65701E-05-2.89385E-05 2.51798E-06 1.91618E-19-3.32818E-20
 -1       905 9.43985E-05-2.69692E-05-2.88981E-05 1.94280E-06-3.92927E-19 1.83083E-18
 -1       906 9.46367E-05-2.73132E-05-2.88528E-05 1.47394E-06-5.18908E-19 1.89357E-18
 -1       907 9.48188E-05-2.76013E-05-2.88074E-05 1.09794E-06-1.43011E-18 5.16465E-19
 -1       908 9.49552E-05-2.78370E-05-2.87649E-05 8.01381E-07-6.48617E-19 1.36930E-18
 -1       909 9.50552E-05-2.80258E-05-2.87269E-05 5.71395E-07-1.22933E-18 1.89933E-18
 -1       910 9.51270E-05-2.81743E-05-2.86940E-05 3.96124E-07-2.57616E-18 1.27919E-18
 -1       911 9.51771E-05-2.82891E-05-2.86663E-05 2.64987E-07-4.34898E-19-4.38272E-19
 -1       912 9.52110E-05-2.83761E-05-2.86435E-05 1.68809E-07 3.57205E-19-1.13149E-19
 -1       913 9.52330E-05-2.84409E-05-2.86252E-05 9.98329E-08-5.83693E-19 8.40683E-20
 -1       914 9.52464E-05-2.84882E-05-2.86106E-05 5.16432E-08-1.39616E-18 1.03731E-18
 -1       915 9.52537E-05-2.85218E-05-2.85994E-05 1.90418E-08 6.90271E-19 3.83319E-19
 -1       916 9.52569E-05-2.85451E-05-2.85908E-05-2.10138E-09 4.67439E-19-7.63981E-19
 -1       917 9.52574E-05-2.85607E-05-2.85843E-05-1.50046E-08-7.35195E-20-2.25058E-19
 -1       918 9.52562E-05-2.85707E-05-2.85795E-05-2.21280E-08 5.16560E-19-1.61138E-18
 -1       919 9.52540E-05-2.85768E-05-2.85760E-05-2.53040E-08-5.18515E-19-1.33422E-18
 -1       920 9.52515E-05-2.85802E-05-2.85734E-05-2.58492E-08-2.03778E-19-6.88216E-19
 -1       921 9.52489E-05-2.85820E-05-2.85715E-05-2.47393E-08 7.26671E-19-2.47545E-19
 -1       922 9.52610E-05-2.85890E-05-2.85737E-05 3.96315E-09 4.26561E-19-4.02302E-18
 -1       923 7.25537E-05-9.19888E-06-2.71562E-05 5.91551E-06 8.73232E-19-1.91833E-18
 -1       924 9.52589E-05-2.85880E-05-2.85732E-05 1.15400E-08-3.85693E-19 5.95614E-19
 -1       925 9.31673E-05-2.62711E-05-2.86604E-05 1.07476E-05 3.59456E-19-1.36452E-18
 -1       926 6.24305E-05-1.52693E-05-2.00221E-05 1.84226E-05 1.35122E-18-2.01101E-18
 -1       927 9.85233E-05-3.36287E-05-2.77920E-05 1.44205E-05 4.24742E-19-7.87629E-19
 -1       928 6.82540E-05-2.05020E-05-2.03814E-05-1.77598E-05 1.56856E-18-3.39409E-20
 -1       929 6.23665E-05-1.38275E-05-2.06752E-05-1.51366E-05-1.64321E-19-2.30327E-18
 -1       930 8.13405E-05-2.74417E-05-2.29701E-05-2.34893E-05-6.87827E-19-1.93049E-18
 -1       931 1.15888E-04-4.97191E-05-2.83282E-05 1.46282E-05 6.75985E-19 2.60798E-19
 -1       932 8.94188E-05-2.19135E-05-2.89334E-05 9.10591E-06 2.84455E-19-1.64753E-18
 -1       933 8.75454E-05-3.44484E-05-2.26708E-05-2.45690E-05 1.94108E-18-9.29010E-19
 -1       934 1.00883E-04-4.04426E-05-2.57843E-05-2.13749E-05-9.79544E-19-9.27463E-19
 -1       935 1.00207E-04-3.86466E-05-2.63649E-05 1.77236E-05-1.05064E-18-1.44247E-18
 -1       936 9.52589E-05-2.85880E-05-2.85732E-05-1.14243E-08-1.21472E-19 3.56589E-18
 -1       937 6.37163E-05-1.55897E-05-2.05551E-05 7.10998E-06 4.13560E-19 1.25239E-18
 -1       938 1.02992E-04-4.47959E-05-2.48725E-05-2.22309E-05 2.94363E-18-1.32318E-18
 -1       939 7.59485E-05-2.27417E-05-2.27084E-05 2.15061E-05 1.17669E-18-1.36651E-18
 -1       940 8.03958E-05-1.60435E-05-2.75969E-05 9.90395E-06 6.87528E-19-1.57357E-18
 -1       941 6.47614E-05-8.18618E-06-2.42276E-05-1.40085E-06 6.46154E-19-2.14169E-18
 -1       942 7.19227E-05-2.45420E-05-2.01812E-05 2.19773E-05-7.84166E-19 2.54926E-18
 -1       943 1.02989E-04-4.10902E-05-2.64949E-05 1.94700E-05 7.37243E-19-4.53212E-19
 -1       944 7.04515E-05-1.19107E-05-2.50653E-05-9.14746E-06 3.34909E-19-2.00209E-18
 -1       945 9.52610E-05-2.85890E-05-2.85737E-05-3.89832E-09-9.12310E-21-6.61048E-19
 -1       946 9.52555E-05-2.85866E-05-2.85724E-05-1.71674E-08 6.64294E-19 1.56782E-18
 -1       947 6.82392E-05-1.69348E-05-2.19632E-05-8.37540E-06 1.09993E-18 7.89888E-19
 -1       948 5.83250E-05-9.26299E-06-2.08943E-05-5.68906E-06 2.16063E-19-2.75342E-18
 -1       949 9.52472E-05-2.85831E-05-2.85703E-05-2.25555E-08 4.27974E-19-1.50068E-18
 -1       950 9.52644E-05-2.85869E-05-2.85761E-05 8.09765E-09 7.54108E-19-2.05992E-18
 -1       951 9.62776E-05-3.19243E-05-2.75743E-05-1.53533E-05-2.32813E-19-7.90795E-19
 -1       952 6.13915E-05-9.83016E-06-2.20023E-05 8.26610E-06 9.90277E-19-2.18237E-18
 -1       953 8.24509E-05-2.39050E-05-2.50825E-05-1.33270E-05 3.56852E-19-3.58522E-19
 -1       954 8.38026E-05-2.26319E-05-2.62160E-05-9.90829E-06 6.02308E-19 5.28759E-19
 -1       955 8.53482E-05-2.22183E-05-2.70567E-05-7.53803E-06 4.99646E-19 5.85751E-19
 -1       956 8.68855E-05-2.23323E-05-2.76666E-05-5.84024E-06-2.96012E-19 2.52974E-19
 -1       957 8.83220E-05-2.27646E-05-2.80967E-05-4.58264E-06-9.42856E-19 6.49523E-19
 -1       958 8.96132E-05-2.33717E-05-2.83897E-05-3.61843E-06-1.77584E-19 1.20530E-18
 -1       959 9.07421E-05-2.40555E-05-2.85804E-05-2.85803E-06 6.57465E-19 1.32439E-18
 -1       960 9.17064E-05-2.47489E-05-2.86964E-05-2.24762E-06 2.00171E-20 2.75344E-19
 -1       961 9.25126E-05-2.54082E-05-2.87593E-05-1.75365E-06-8.27009E-19-3.71294E-19
 -1       962 9.31733E-05-2.60069E-05-2.87857E-05-1.35376E-06-8.49512E-19-6.86336E-19
 -1       963 9.37045E-05-2.65320E-05-2.87883E-05-1.03169E-06-9.44194E-19-2.01662E-19
 -1       964 9.41236E-05-2.69795E-05-2.87762E-05-7.74580E-07-7.78372E-19-1.98737E-18
 -1       965 9.44483E-05-2.73516E-05-2.87558E-05-5.71647E-07-7.52206E-19-1.50245E-18
 -1       966 9.46950E-05-2.76544E-05-2.87317E-05-4.13564E-07-4.63128E-20-2.13762E-18
 -1       967 9.48787E-05-2.78959E-05-2.87070E-05-2.92200E-07-3.60254E-19-2.81222E-18
 -1       968 9.50126E-05-2.80849E-05-2.86833E-05-2.00497E-07-1.27577E-18-3.87271E-18
 -1       969 9.51077E-05-2.82300E-05-2.86619E-05-1.32410E-07-8.54132E-19-3.63469E-18
 -1       970 9.51733E-05-2.83393E-05-2.86432E-05-8.28409E-08-1.23465E-18-2.75955E-18
 -1       971 9.52168E-05-2.84199E-05-2.86272E-05-4.75594E-08-1.67198E-18-1.87095E-18
 -1       972 9.52441E-05-2.84781E-05-2.86140E-05-2.31167E-08-1.28674E-18-2.87700E-18
 -1       973 9.52598E-05-2.85189E-05-2.86032E-05-6.74865E-09-4.20447E-20-2.63874E-18
 -1       974 9.52675E-05-2.85467E-05-2.85946E-05 3.72157E-09 1.56674E-18-8.10146E-19
 -1       975 9.52697E-05-2.85648E-05-2.85878E-05 9.97476E-09 1.50122E-18-7.87420E-19
 -1       976 9.52686E-05-2.85761E-05-2.85825E-05 1.33003E-08 1.00920E-18 3.20174E-19
 -1       977 9.52654E-05-2.85825E-05-2.85783E-05 1.46003E-08-7.62641E-19-3.77642E-19
 -1       978 8.57244E-05-2.36228E-05-2.66143E-05 1.12903E-05-5.17020E-19 3.34725E-19
 -1       979 8.53087E-05-2.55965E-05-2.55990E-05 1.46806E-05-4.85874E-19 6.46760E-19
 -1       980 8.80663E-05-2.28486E-05-2.79508E-05 7.15680E-06-4.48550E-20-4.29458E-19
 -1       981 8.93086E-05-2.32010E-05-2.83321E-05 5.80216E-06 4.00722E-19-1.05971E-18
 -1       982 9.04485E-05-2.37625E-05-2.85799E-05 4.71099E-06-1.75555E-19-1.50800E-18
 -1       983 9.14465E-05-2.44104E-05-2.87299E-05 3.80747E-06-1.09342E-18-1.48092E-18
 -1       984 9.22918E-05-2.50673E-05-2.88106E-05 3.04992E-06 3.46793E-19-1.67689E-19
 -1       985 9.29897E-05-2.56870E-05-2.88441E-05 2.41438E-06 4.33819E-19 1.21002E-18
 -1       986 9.35535E-05-2.62443E-05-2.88469E-05 1.88501E-06-1.04174E-18 6.43862E-19
 -1       987 9.40003E-05-2.67284E-05-2.88309E-05 1.44921E-06-8.76250E-19 1.33635E-18
 -1       988 9.43481E-05-2.71375E-05-2.88046E-05 1.09549E-06-1.14735E-18 2.84400E-18
 -1       989 9.46141E-05-2.74753E-05-2.87738E-05 8.12803E-07-1.36038E-18 3.20029E-18
 -1       990 9.48138E-05-2.77486E-05-2.87422E-05 5.90527E-07-8.70963E-19 3.06240E-18
 -1       991 9.49610E-05-2.79657E-05-2.87123E-05 4.18679E-07-7.64643E-19 1.48399E-18
 -1       992 9.50672E-05-2.81351E-05-2.86852E-05 2.88146E-07-2.69036E-19-5.64564E-19
 -1       993 9.51419E-05-2.82649E-05-2.86616E-05 1.90841E-07-5.81616E-19-5.57290E-19
 -1       994 9.51928E-05-2.83626E-05-2.86415E-05 1.19784E-07-6.91161E-19 1.85142E-18
 -1       995 9.52262E-05-2.84346E-05-2.86250E-05 6.90854E-08-8.57111E-19 1.22464E-18
 -1       996 9.52468E-05-2.84866E-05-2.86115E-05 3.38925E-08 1.07284E-19-1.57127E-18
 -1       997 9.52583E-05-2.85232E-05-2.86008E-05 1.02837E-08 9.39569E-19 5.89402E-19
 -1       998 9.52637E-05-2.85481E-05-2.85924E-05-4.84612E-09 4.20749E-19 2.68901E-19
 -1       999 9.52649E-05-2.85645E-05-2.85859E-05-1.39060E-08 6.15218E-20 2.52539E-20
 -1      1000 9.52635E-05-2.85747E-05-2.85809E-05-1.87368E-08-1.78160E-19 2.41560E-19
 -1      1001 9.52606E-05-2.85806E-05-2.85772E-05-2.07107E-08-4.67540E-19-8.96725E-19
 -1      1002 9.52572E-05-2.85839E-05-2.85743E-05-2.08331E-08-1.65362E-19-5.56033E-19
 -1      1003 6.72266E-05-9.89110E-06-2.45339E-05 7.17369E-06 9.73868E-19-1.91178E-18
 -1      1004 8.56144E-05-2.38807E-05-2.64557E-05 1.53055E-05 8.88300E-19-1.42287E-18
 -1      1005 9.52624E-05-2.85852E-05-2.85759E-05 1.48239E-08 4.18518E-19 1.22108E-19
 -1      1006 8.08313E-05-1.88720E-05-2.65686E-05-1.29215E-05 2.74252E-19-1.69753E-18
 -1      1007 9.52645E-05-2.85869E-05-2.85761E-05-8.05271E-09-8.72749E-19 1.74978E-19
 -1      1008 8.14935E-05-2.67616E-05-2.34314E-05-1.86299E-05 1.40223E-18-9.20202E-19
 -1      1009 8.68474E-05-2.86049E-05-2.49169E-05 2.03556E-05 8.85912E-19-1.12685E-18
 -1      1010 8.63633E-05-2.94602E-05-2.43353E-05 1.93659E-05-1.31977E-18-2.40260E-19
 -1      1011 9.52656E-05-2.85873E-05-2.85764E-05 4.50922E-11-1.42349E-18-1.41636E-18
 -1      1012 8.68162E-05-2.28977E-05-2.73939E-05 8.90680E-06-7.95626E-19-2.73298E-19
 -1      1013 6.68684E-05-1.55025E-05-2.19508E-05-2.34173E-06 6.29410E-19 4.21693E-19
 -1      1014 9.52613E-05-2.85859E-05-2.85752E-05-1.43195E-08 7.20760E-19 1.97006E-18
 -1      1015 7.55608E-05-2.05189E-05-2.35710E-05-1.21276E-05 1.02336E-18-3.20516E-19
 -1      1016 7.38249E-05-1.29205E-05-2.60895E-05 9.92747E-06 9.28757E-19-1.73279E-18
 -1      1017 6.96355E-05-1.89050E-05-2.16974E-05 1.32270E-05-7.98676E-20 1.75666E-18
 -1      1018 8.26731E-05-1.96661E-05-2.70017E-05 1.25567E-05 7.95579E-19-1.50659E-18
 -1      1019 6.91697E-05-1.46015E-05-2.33375E-05 1.40631E-05 1.11823E-18-1.85909E-18
 -1      1020 7.89910E-05-2.01914E-05-2.51995E-05-8.56129E-06 6.89583E-19-5.77451E-20
 -1      1021 8.19034E-05-2.04131E-05-2.63554E-05-6.23431E-06 3.58666E-19-3.80294E-19
 -1      1022 8.43276E-05-2.09210E-05-2.71761E-05-4.65474E-06 1.12306E-19 7.03331E-20
 -1      1023 8.63721E-05-2.16187E-05-2.77526E-05-3.54955E-06-1.48440E-19 4.89900E-19
 -1      1024 8.80967E-05-2.24143E-05-2.81504E-05-2.74348E-06-8.79426E-20 1.14310E-18
 -1      1025 8.95508E-05-2.32455E-05-2.84171E-05-2.13362E-06-2.86446E-19 1.20450E-19
 -1      1026 9.07685E-05-2.40632E-05-2.85884E-05-1.66025E-06-1.37248E-20-7.23789E-19
 -1      1027 9.17769E-05-2.48317E-05-2.86912E-05-1.28691E-06-1.15924E-18-7.86044E-19
 -1      1028 9.26008E-05-2.55276E-05-2.87460E-05-9.90224E-07-1.05350E-18-9.39186E-19
 -1      1029 9.32639E-05-2.61389E-05-2.87681E-05-7.54232E-07-6.81996E-19-2.05300E-18
 -1      1030 9.37892E-05-2.66617E-05-2.87691E-05-5.67285E-07-7.94255E-19-1.10154E-18
 -1      1031 9.41984E-05-2.70988E-05-2.87571E-05-4.20321E-07-9.15324E-19-6.19792E-19
 -1      1032 9.45116E-05-2.74564E-05-2.87381E-05-3.05967E-07-9.03325E-19-2.19698E-18
 -1      1033 9.47470E-05-2.77435E-05-2.87159E-05-2.18069E-07-7.12004E-19-2.09034E-18
 -1      1034 9.49204E-05-2.79696E-05-2.86933E-05-1.51446E-07-1.25174E-18-2.96784E-18
 -1      1035 9.50452E-05-2.81444E-05-2.86719E-05-1.01736E-07-5.32584E-19-2.51150E-18
 -1      1036 9.51327E-05-2.82770E-05-2.86525E-05-6.53022E-08-7.51153E-19-1.99709E-18
 -1      1037 9.51920E-05-2.83757E-05-2.86356E-05-3.91406E-08-1.34149E-18-2.20437E-18
 -1      1038 9.52303E-05-2.84476E-05-2.86212E-05-2.08068E-08-1.36820E-18-1.40363E-18
 -1      1039 9.52536E-05-2.84986E-05-2.86093E-05-8.33919E-09 1.86838E-19-1.59975E-18
 -1      1040 9.52662E-05-2.85338E-05-2.85996E-05-1.87936E-10 1.96602E-18-1.20769E-18
 -1      1041 9.52715E-05-2.85572E-05-2.85918E-05 4.85431E-09 1.62085E-18-1.68358E-18
 -1      1042 9.52720E-05-2.85721E-05-2.85857E-05 7.67877E-09 9.60000E-19-1.41612E-18
 -1      1043 9.52696E-05-2.85810E-05-2.85809E-05 9.01417E-09 6.52953E-20-3.70344E-19
 -1      1044 7.90453E-05-2.04965E-05-2.50846E-05 1.01170E-05-4.62042E-20-1.71888E-20
 -1      1045 8.81038E-05-2.23463E-05-2.81824E-05 3.77070E-06 3.86762E-19-5.67173E-19
 -1      1046 8.63360E-05-2.15455E-05-2.77684E-05 4.67236E-06 5.89343E-19-4.04876E-19
 -1      1047 9.08180E-05-2.40230E-05-2.86268E-05 2.46353E-06-9.59872E-19-1.24610E-18
 -1      1048 9.18300E-05-2.48025E-05-2.87264E-05 1.96994E-06-7.69284E-19-2.09702E-19
 -1      1049 9.26505E-05-2.55060E-05-2.87764E-05 1.55635E-06-6.50129E-19 1.60001E-18
 -1      1050 9.33063E-05-2.61219E-05-2.87935E-05 1.21215E-06-8.68664E-19 1.60599E-18
 -1      1051 9.38227E-05-2.66474E-05-2.87896E-05 9.29089E-07-2.27992E-18 9.73756E-19
 -1      1052 9.42231E-05-2.70858E-05-2.87732E-05 6.99676E-07-1.85156E-18 1.96547E-18
 -1      1053 9.45286E-05-2.74444E-05-2.87505E-05 5.16698E-07-4.80998E-19 1.92756E-18
 -1      1054 9.47576E-05-2.77321E-05-2.87253E-05 3.73194E-07 3.29441E-19 6.80643E-19
 -1      1055 9.49261E-05-2.79589E-05-2.87003E-05 2.62602E-07-1.45925E-19 7.30607E-19
 -1      1056 9.50473E-05-2.81346E-05-2.86769E-05 1.78926E-07-1.91146E-18 2.01667E-18
 -1      1057 9.51323E-05-2.82683E-05-2.86560E-05 1.16844E-07-1.33373E-18 1.51720E-18
 -1      1058 9.51901E-05-2.83680E-05-2.86380E-05 7.17666E-08 1.65943E-19 1.05618E-19
 -1      1059 9.52277E-05-2.84410E-05-2.86229E-05 3.98305E-08 8.46180E-19 1.10862E-18
 -1      1060 9.52506E-05-2.84931E-05-2.86104E-05 1.78594E-08 3.81219E-21 3.09720E-19
 -1      1061 9.52633E-05-2.85293E-05-2.86003E-05 3.29545E-09-2.46774E-19 5.47786E-20
 -1      1062 9.52689E-05-2.85536E-05-2.85923E-05-5.87835E-09-1.59746E-19 2.03953E-18
 -1      1063 9.52698E-05-2.85692E-05-2.85860E-05-1.12033E-08 4.92837E-20 2.01630E-18
 -1      1064 9.52679E-05-2.85787E-05-2.85811E-05-1.39695E-08-9.49534E-20 2.29660E-18
 -1      1065 7.75508E-05-1.93683E-05-2.49018E-05 1.58886E-05 1.07152E-18-1.33896E-18
 -1      1066 8.17812E-05-2.04649E-05-2.62866E-05 7.53944E-06-5.16517E-19 3.30176E-19
 -1      1067 9.52671E-05-2.85844E-05-2.85783E-05 8.74887E-09 7.29575E-19-6.80378E-19
 -1      1068 9.52694E-05-2.85839E-05-2.85795E-05-3.98611E-09 2.57852E-19-4.06443E-19
 -1      1069 8.95861E-05-2.31913E-05-2.84554E-05 3.05374E-06-1.06676E-18-4.78629E-19
 -1      1070 9.52690E-05-2.85843E-05-2.85792E-05 2.41760E-09 1.61472E-19-1.10437E-18
 -1      1071 8.42405E-05-2.08708E-05-2.71604E-05 5.86821E-06-2.68832E-19-3.13817E-19
 -1      1072 7.10527E-05-1.68737E-05-2.31943E-05 5.63703E-06 6.44471E-19 1.05588E-18
 -1      1073 9.52673E-05-2.85837E-05-2.85787E-05-1.07185E-08 4.24941E-20 6.21594E-19
 -1      1074 7.42122E-05-1.78021E-05-2.41670E-05-5.59585E-06 8.71693E-19 3.90266E-19
 -1      1075 8.59001E-05-2.11038E-05-2.77697E-05 2.11487E-06 3.11499E-19-8.33870E-19
 -1      1076 7.83482E-05-1.85468E-05-2.56226E-05-3.88997E-06 3.76740E-19 8.61823E-19
 -1      1077 8.18321E-05-1.95821E-05-2.66782E-05-2.74866E-06 6.83344E-19 4.33620E-19
 -1      1078 8.45159E-05-2.05654E-05-2.74075E-05-2.01520E-06-5.29644E-21 9.92691E-19
 -1      1079 8.66757E-05-2.15476E-05-2.79121E-05-1.49479E-06-1.43963E-19 8.44109E-19
 -1      1080 8.84445E-05-2.25160E-05-2.82551E-05-1.11905E-06-7.65578E-19 7.34006E-19
 -1      1081 8.99003E-05-2.34445E-05-2.84811E-05-8.42297E-07-9.72932E-19-9.87878E-20
 -1      1082 9.10951E-05-2.43080E-05-2.86230E-05-6.34987E-07-7.93616E-19-1.78088E-18
 -1      1083 9.20676E-05-2.50882E-05-2.87055E-05-4.77784E-07-1.65324E-18-8.49615E-19
 -1      1084 9.28505E-05-2.57746E-05-2.87468E-05-3.57693E-07-1.13030E-18-1.25180E-18
 -1      1085 9.34721E-05-2.63640E-05-2.87606E-05-2.65677E-07-7.10572E-19-2.41903E-18
 -1      1086 9.39586E-05-2.68590E-05-2.87570E-05-1.95227E-07-9.17515E-19-2.89678E-18
 -1      1087 9.43331E-05-2.72663E-05-2.87429E-05-1.41503E-07-5.07167E-19-2.62170E-18
 -1      1088 9.46166E-05-2.75951E-05-2.87235E-05-1.00809E-07-8.52316E-19-2.47347E-18
 -1      1089 9.48272E-05-2.78556E-05-2.87021E-05-7.02682E-08-1.28839E-18-2.55226E-18
 -1      1090 9.49803E-05-2.80585E-05-2.86808E-05-4.76116E-08-5.16374E-20-1.22061E-18
 -1      1091 9.50889E-05-2.82135E-05-2.86609E-05-3.10401E-08-4.86762E-19-1.87631E-18
 -1      1092 9.51637E-05-2.83297E-05-2.86432E-05-1.91249E-08-6.90420E-19-1.52784E-18
 -1      1093 9.52133E-05-2.84150E-05-2.86278E-05-1.07344E-08-1.14939E-18-1.23277E-18
 -1      1094 9.52444E-05-2.84763E-05-2.86149E-05-4.97781E-09-2.60379E-19-9.70708E-19
 -1      1095 9.52624E-05-2.85190E-05-2.86043E-05-1.15980E-09 1.15477E-18-5.69455E-19
 -1      1096 9.52711E-05-2.85480E-05-2.85956E-05 1.25664E-09 8.46367E-19-1.03343E-18
 -1      1097 9.52737E-05-2.85667E-05-2.85887E-05 2.69869E-09 8.13813E-19-1.94813E-18
 -1      1098 8.04709E-05-1.90239E-05-2.63316E-05 3.24278E-06-4.06998E-20-4.43910E-19
 -1      1099 9.26224E-05-2.55466E-05-2.87467E-05 7.46378E-07-1.16446E-18 6.33490E-19
 -1      1100 8.78423E-05-2.21185E-05-2.81672E-05 1.74020E-06-2.14830E-19-7.62691E-19
 -1      1101 9.17763E-05-2.48205E-05-2.86953E-05 9.40232E-07-1.30098E-18 3.88283E-19
 -1      1102 9.07243E-05-2.39983E-05-2.85967E-05 1.16689E-06-1.99640E-18-1.34156E-20
 -1      1103 9.32947E-05-2.61727E-05-2.87665E-05 5.82689E-07-1.37930E-18 1.32288E-18
 -1      1104 9.38217E-05-2.67009E-05-2.87660E-05 4.46756E-07-1.95615E-18 8.05309E-19
 -1      1105 9.42286E-05-2.71375E-05-2.87533E-05 3.35919E-07-4.31904E-19-3.24674E-19
 -1      1106 9.45378E-05-2.74917E-05-2.87340E-05 2.47233E-07 4.48688E-19-1.63264E-19
 -1      1107 9.47685E-05-2.77739E-05-2.87119E-05 1.77612E-07-8.61074E-19 1.06075E-18
 -1      1108 9.49374E-05-2.79948E-05-2.86896E-05 1.24005E-07-5.84235E-19 2.07670E-18
 -1      1109 9.50582E-05-2.81647E-05-2.86686E-05 8.35444E-08-1.21892E-18 5.84571E-19
 -1      1110 9.51423E-05-2.82929E-05-2.86497E-05 5.36453E-08-1.75033E-19 4.90497E-19
 -1      1111 9.51988E-05-2.83879E-05-2.86333E-05 3.20572E-08-7.00386E-19 1.89688E-19
 -1      1112 9.52351E-05-2.84566E-05-2.86193E-05 1.68777E-08 1.31274E-19 2.31970E-18
 -1      1113 9.52567E-05-2.85052E-05-2.86078E-05 6.54033E-09 9.18188E-19 2.03598E-18
 -1      1114 9.52681E-05-2.85384E-05-2.85984E-05-2.15636E-10 2.27481E-19 8.13353E-19
 -1      1115 9.52725E-05-2.85604E-05-2.85909E-05-4.38840E-09 5.71839E-19-2.40804E-19
 -1      1116 9.52725E-05-2.85744E-05-2.85849E-05-6.76744E-09-4.90611E-19-1.99087E-19
 -1      1117 7.47633E-05-1.72352E-05-2.46928E-05 6.88228E-07 5.04103E-19 6.52347E-19
 -1      1118 8.94286E-05-2.30913E-05-2.84301E-05 1.43058E-06-1.01781E-18-6.44560E-19
 -1      1119 8.35009E-05-2.00694E-05-2.71847E-05 2.59303E-06 2.67394E-19-1.45735E-18
 -1      1120 7.77949E-05-1.84655E-05-2.54237E-05 4.81817E-06-2.93185E-19 5.81764E-20
 -1      1121 9.52727E-05-2.85771E-05-2.85839E-05 2.14771E-09 5.66901E-19-2.03332E-18
 -1      1122 1.24649E-04 2.83266E-10-4.50320E-05-4.02769E-05-2.86297E-19 5.71154E-18
 -1      1123 9.64518E-05 8.87823E-11-4.02595E-05-1.98442E-05-1.23667E-19-5.13037E-19
 -1      1124 8.96424E-05 5.16463E-11-3.79651E-05-1.17642E-05-7.52801E-20-2.85397E-18
 -1      1125 8.49507E-05 3.61621E-11-3.61267E-05-6.80439E-06-4.09752E-20-3.82702E-18
 -1      1126 8.09451E-05 2.53499E-11-3.45184E-05-3.36768E-06-2.20229E-20-4.14640E-18
 -1      1127 7.74683E-05 1.63047E-11-3.31279E-05-1.11454E-06-7.30566E-21-4.19045E-18
 -1      1128 7.46384E-05 8.52196E-12-3.20044E-05 1.34903E-07 9.52912E-22-4.08995E-18
 -1      1129 7.26856E-05 2.78652E-12-3.12373E-05 5.83264E-07 1.52995E-20-3.95531E-18
 -1      1130 7.18836E-05 1.06806E-13-3.09272E-05 5.19594E-07 2.40412E-20-3.81075E-18
 -1      1131 7.23653E-05 1.09812E-12-3.11226E-05 3.51150E-07 3.75606E-20-3.58339E-18
 -1      1132 7.41039E-05 5.68994E-12-3.18136E-05 5.19180E-07 4.46810E-20-3.20192E-18
 -1      1133 7.69007E-05 1.31142E-11-3.29243E-05 1.40517E-06 5.85512E-20-2.67150E-18
 -1      1134 8.05236E-05 2.28526E-11-3.43702E-05 3.31230E-06 7.15743E-20-1.85091E-18
 -1      1135 8.48211E-05 3.49693E-11-3.60877E-05 6.52438E-06 8.90443E-20-5.69067E-19
 -1      1136 8.98330E-05 5.19240E-11-3.80583E-05 1.14258E-05 1.09585E-19 1.51023E-18
 -1      1137 9.65590E-05 8.53571E-11-4.04744E-05 1.92324E-05 9.06325E-20 5.03281E-18
 -1      1138 1.15148E-04 1.90501E-10-4.40290E-05 3.43087E-05 1.22820E-19 1.14317E-17
 -1      1139 1.39319E-04-2.83265E-05-4.36052E-05-2.54158E-05-1.07277E-18 9.50710E-18
 -1      1140 1.11114E-04-3.29761E-05-3.57521E-05-1.53592E-07-3.65706E-19 7.04213E-18
 -1      1141 1.07785E-04-3.23186E-05-3.30966E-05 5.52658E-07-1.52334E-19 3.90035E-18
 -1      1142 1.08749E-04-3.27035E-05-3.27019E-05 3.55460E-07-9.04108E-20 1.63737E-18
 -1      1143 1.10373E-04-3.31500E-05-3.30053E-05 2.29150E-07-4.79037E-20 3.47072E-19
 -1      1144 1.11387E-04-3.34025E-05-3.32209E-05 1.03496E-07-1.03910E-19-2.99916E-19
 -1      1145 1.10714E-04-3.31635E-05-3.29520E-05-6.46066E-08-2.77833E-20-1.06447E-18
 -1      1146 1.07534E-04-3.21967E-05-3.19883E-05-2.76077E-07-4.70070E-20-2.24390E-18
 -1      1147 1.01695E-04-3.04654E-05-3.03378E-05-4.77492E-07 1.62624E-21-2.81755E-18
 -1      1148 9.42004E-05-2.82739E-05-2.83130E-05-5.64511E-07 2.63374E-20-3.03185E-18
 -1      1149 8.72941E-05-2.62757E-05-2.65087E-05-4.40332E-07 1.51890E-19-3.19517E-18
 -1      1150 8.36608E-05-2.52335E-05-2.55853E-05-1.10479E-07 6.27334E-21-3.20447E-18
 -1      1151 8.49706E-05-2.56135E-05-2.59379E-05 2.82424E-07 1.72252E-20-4.50468E-18
 -1      1152 9.08124E-05-2.73009E-05-2.74695E-05 5.49263E-07-6.55094E-20-4.46206E-18
 -1      1153 9.89583E-05-2.96700E-05-2.96466E-05 5.94068E-07-1.86486E-19-4.63433E-18
 -1      1154 1.06714E-04-3.19477E-05-3.17902E-05 4.59294E-07-2.40584E-19-5.25743E-18
 -1      1155 1.12216E-04-3.35831E-05-3.33852E-05 2.56094E-07 3.14130E-20-5.67951E-18
 -1      1156 1.14870E-04-3.43881E-05-3.42215E-05 7.65285E-08-2.90142E-20-5.76713E-18
 -1      1157 1.15045E-04-3.44606E-05-3.43534E-05-4.04410E-08-8.92362E-20-6.80527E-18
 -1      1158 1.13524E-04-3.40257E-05-3.39744E-05-9.68154E-08 1.54588E-19-5.65291E-18
 -1      1159 1.11091E-04-3.33144E-05-3.33023E-05-1.11143E-07-1.94871E-19-5.01978E-18
 -1      1160 1.08349E-04-3.25053E-05-3.25151E-05-1.02429E-07-3.33392E-20-4.05289E-18
 -1      1161 1.05683E-04-3.17140E-05-3.17330E-05-8.41877E-08-1.56266E-19-3.47305E-18
 -1      1162 1.03300E-04-3.10035E-05-3.10242E-05-6.42145E-08-1.95948E-19-4.10671E-18
 -1      1163 1.01283E-04-3.04003E-05-3.04190E-05-4.62336E-08-1.68149E-19-2.73736E-18
 -1      1164 9.96448E-05-2.99086E-05-2.99240E-05-3.15731E-08-8.69036E-20-1.59577E-18
 -1      1165 9.83552E-05-2.95204E-05-2.95324E-05-2.03425E-08 1.22423E-19-8.01707E-19
 -1      1166 9.73674E-05-2.92223E-05-2.92312E-05-1.21284E-08-5.35724E-21-2.21173E-19
 -1      1167 9.66300E-05-2.89992E-05-2.90055E-05-6.35798E-09-3.42471E-19-5.52845E-19
 -1      1168 9.60933E-05-2.88363E-05-2.88406E-05-2.46857E-09 7.35120E-20 2.78942E-19
 -1      1169 9.57134E-05-2.87206E-05-2.87235E-05 2.58102E-11-4.74415E-19 8.05742E-19
 -1      1170 9.54532E-05-2.86411E-05-2.86429E-05 1.51779E-09 3.11843E-19 1.71862E-18
 -1      1171 9.52821E-05-2.85885E-05-2.85896E-05 2.31166E-09-1.39941E-19 1.90379E-18
 -1      1172 9.51761E-05-2.85557E-05-2.85562E-05 2.63626E-09-1.27360E-19 3.03335E-19
 -1      1173 9.51161E-05-2.85369E-05-2.85371E-05 2.65941E-09 1.43643E-19-1.08690E-18
 -1      1174 9.50878E-05-2.85279E-05-2.85278E-05 2.50122E-09 2.90744E-19 1.45359E-18
 -1      1175 9.50806E-05-2.85252E-05-2.85250E-05 2.24545E-09 1.81836E-19 1.31874E-18
 -1      1176 9.50866E-05-2.85267E-05-2.85264E-05 1.94872E-09-1.26244E-19 2.13195E-18
 -1      1177 9.51003E-05-2.85305E-05-2.85303E-05 1.64780E-09 9.97339E-20 3.24529E-18
 -1      1178 9.51179E-05-2.85356E-05-2.85354E-05 1.36524E-09-1.25755E-19-1.11326E-19
 -1      1179 9.51369E-05-2.85412E-05-2.85410E-05 1.11366E-09-3.63294E-19-5.83793E-18
 -1      1180 9.51557E-05-2.85468E-05-2.85465E-05 8.98890E-10-2.47770E-20-6.35098E-18
 -1      1181 9.51733E-05-2.85520E-05-2.85518E-05 7.22100E-10-8.65157E-20-5.94631E-18
 -1      1182 9.51892E-05-2.85567E-05-2.85566E-05 5.81039E-10 7.09012E-20-5.19218E-18
 -1      1183 9.52033E-05-2.85609E-05-2.85608E-05 4.70246E-10 6.37186E-20-6.00145E-18
 -1      1184 9.52153E-05-2.85645E-05-2.85644E-05 3.79949E-10-2.41471E-20-2.18572E-18
 -1      1185 9.52251E-05-2.85675E-05-2.85673E-05 2.91538E-10 4.19866E-19-3.69095E-19
 -1      1186 9.52325E-05-2.85697E-05-2.85695E-05 1.63492E-10 4.41216E-19 1.69877E-18
 -1      1187 9.52367E-05-2.85709E-05-2.85708E-05-8.67853E-11-1.57516E-19-1.42810E-18
 -1      1188 9.52377E-05-2.85713E-05-2.85715E-05-1.82893E-10 5.02750E-19-5.57914E-19
 -1      1189 1.40344E-04-4.01562E-05-4.22379E-05 1.20454E-05-2.20943E-19 1.64028E-17
 -1      1190 1.11563E-04-3.26889E-05-3.58817E-05 5.58413E-07 2.84021E-20 1.45278E-17
 -1      1191 1.09722E-04-3.27489E-05-3.36234E-05-2.76390E-08 3.16314E-20 1.20762E-17
 -1      1192 1.11285E-04-3.33688E-05-3.35041E-05-1.35748E-07 2.76444E-21 1.07991E-17
 -1      1193 1.13785E-04-3.41151E-05-3.40635E-05-2.02337E-07 6.31850E-20 9.42764E-18
 -1      1194 1.15807E-04-3.46917E-05-3.45435E-05-2.37058E-07 1.46394E-20 8.54918E-18
 -1      1195 1.16014E-04-3.47432E-05-3.44803E-05-2.05396E-07 1.07113E-19 8.30376E-18
 -1      1196 1.13186E-04-3.39251E-05-3.35602E-05-5.81638E-08-1.32170E-19 8.87251E-18
 -1      1197 1.06778E-04-3.20719E-05-3.17144E-05 2.14580E-07-9.97315E-20 8.33311E-18
 -1      1198 9.77464E-05-2.94311E-05-2.92833E-05 5.22629E-07 2.08888E-20 6.77743E-18
 -1      1199 8.89248E-05-2.67919E-05-2.70314E-05 6.81121E-07 8.71584E-20 5.69333E-18
 -1      1200 8.40728E-05-2.52623E-05-2.58603E-05 5.37382E-07 2.58213E-20 5.09766E-18
 -1      1201 8.56712E-05-2.56481E-05-2.63183E-05 1.31287E-07-7.51543E-20 5.40815E-18
 -1      1202 9.31251E-05-2.78481E-05-2.82541E-05-3.06947E-07-5.55832E-20 5.60291E-18
 -1      1203 1.03185E-04-3.08964E-05-3.09065E-05-5.53992E-07 1.15329E-19 4.49764E-18
 -1      1204 1.12166E-04-3.36410E-05-3.33655E-05-5.55928E-07 6.94435E-20 2.93740E-18
 -1      1205 1.17846E-04-3.53754E-05-3.50156E-05-4.02577E-07 2.02494E-21 1.34493E-18
 -1      1206 1.19856E-04-3.59837E-05-3.56846E-05-2.13342E-07-9.54037E-20 1.65284E-18
 -1      1207 1.18995E-04-3.57177E-05-3.55308E-05-6.08900E-08 1.75288E-19-6.63042E-19
 -1      1208 1.16401E-04-3.49299E-05-3.48442E-05 3.42368E-08-5.74022E-20-9.79329E-19
 -1      1209 1.13054E-04-3.39193E-05-3.39019E-05 8.03645E-08 1.06461E-19 2.52575E-19
 -1      1210 1.09618E-04-3.28855E-05-3.29051E-05 9.40890E-08-2.11743E-19 8.88670E-19
 -1      1211 1.06464E-04-3.19389E-05-3.19738E-05 8.99894E-08-8.15186E-21 2.02682E-18
 -1      1212 1.03758E-04-3.11276E-05-3.11655E-05 7.79137E-08 2.01799E-20 8.44664E-19
 -1      1213 1.01539E-04-3.04625E-05-3.04974E-05 6.35488E-08 9.41096E-20 1.92550E-18
 -1      1214 9.97784E-05-2.99350E-05-2.99645E-05 4.97682E-08 3.00246E-20 2.69785E-18
 -1      1215 9.84187E-05-2.95274E-05-2.95512E-05 3.77881E-08 2.23872E-19 1.31713E-18
 -1      1216 9.73928E-05-2.92197E-05-2.92383E-05 2.79440E-08 3.25371E-20-1.00941E-18
 -1      1217 9.66359E-05-2.89926E-05-2.90068E-05 2.01489E-08-2.62689E-19-1.96721E-18
 -1      1218 9.60904E-05-2.88288E-05-2.88393E-05 1.41433E-08-3.02676E-20-2.21188E-18
 -1      1219 9.57074E-05-2.87137E-05-2.87214E-05 9.62076E-09 1.68898E-19-3.90385E-18
 -1      1220 9.54467E-05-2.86353E-05-2.86408E-05 6.28676E-09-1.42538E-20-1.46096E-18
 -1      1221 9.52765E-05-2.85840E-05-2.85878E-05 3.88215E-09-8.74581E-20 8.58505E-19
 -1      1222 9.51716E-05-2.85523E-05-2.85549E-05 2.18979E-09-3.06992E-19 7.12015E-19
 -1      1223 9.51127E-05-2.85345E-05-2.85361E-05 1.03324E-09 2.08895E-20-9.48058E-19
 -1      1224 9.50854E-05-2.85262E-05-2.85271E-05 2.72284E-10-2.25958E-19-1.88970E-18
 -1      1225 9.50790E-05-2.85241E-05-2.85246E-05-2.02548E-10 3.12384E-19-4.75538E-18
 -1      1226 9.50855E-05-2.85260E-05-2.85262E-05-4.75332E-10-1.67775E-19-3.92229E-18
 -1      1227 9.50996E-05-2.85301E-05-2.85301E-05-6.09682E-10 1.36165E-19-2.53665E-18
 -1      1228 9.51175E-05-2.85354E-05-2.85353E-05-6.53010E-10 1.03650E-19-1.51370E-18
 -1      1229 9.51366E-05-2.85411E-05-2.85410E-05-6.40149E-10-2.25514E-19-5.43352E-19
 -1      1230 9.51555E-05-2.85467E-05-2.85466E-05-5.96357E-10-4.30752E-19 2.05838E-18
 -1      1231 9.51732E-05-2.85520E-05-2.85518E-05-5.39768E-10-1.79777E-20 3.74908E-18
 -1      1232 9.51892E-05-2.85568E-05-2.85566E-05-4.83231E-10-8.41583E-20 3.72262E-19
 -1      1233 9.52032E-05-2.85610E-05-2.85608E-05-4.35490E-10 4.30288E-19-8.62204E-19
 -1      1234 9.52153E-05-2.85646E-05-2.85644E-05-4.01026E-10-6.60150E-20-2.60099E-18
 -1      1235 9.52251E-05-2.85675E-05-2.85673E-05-3.76891E-10 2.91027E-19-4.93759E-18
 -1      1236 9.52325E-05-2.85697E-05-2.85695E-05-3.34086E-10 1.75252E-19-6.48540E-18
 -1      1237 9.52368E-05-2.85710E-05-2.85708E-05-1.71793E-10 2.98832E-19-4.47684E-18
 -1      1238 9.52376E-05-2.85713E-05-2.85715E-05 1.61364E-10-1.33150E-19-2.27947E-18
 -1      1239 9.52370E-05-2.85707E-05-2.85715E-05 1.49077E-10-2.26567E-18-2.58761E-19
 -1      1240 9.52374E-05-2.85716E-05-2.85708E-05 7.09928E-11-9.13375E-19 1.23160E-20
 -1      1241 9.52386E-05-2.85758E-05-2.85695E-05-2.20070E-10 1.11928E-19-9.16666E-19
 -1      1242 9.52405E-05-2.85823E-05-2.85677E-05-3.29478E-10-3.48073E-18-1.86494E-19
 -1      1243 9.52427E-05-2.85897E-05-2.85656E-05-3.40033E-10 6.18623E-19 5.13614E-19
 -1      1244 9.52448E-05-2.85967E-05-2.85636E-05-2.90979E-10 5.98586E-19-5.95484E-21
 -1      1245 9.52464E-05-2.86024E-05-2.85620E-05-2.13524E-10 3.75121E-18 1.74159E-20
 -1      1246 9.52475E-05-2.86061E-05-2.85609E-05-1.10859E-10 2.98527E-18-6.08265E-19
 -1      1247 9.52479E-05-2.86073E-05-2.85605E-05 1.07378E-12 3.53124E-18 3.60766E-19
 -1      1248 9.52475E-05-2.86060E-05-2.85609E-05 1.12926E-10 5.53344E-18 9.69233E-20
 -1      1249 9.52464E-05-2.86023E-05-2.85620E-05 2.14966E-10 5.13023E-18-3.33201E-19
 -1      1250 9.52447E-05-2.85966E-05-2.85636E-05 2.96304E-10-4.12339E-18-2.96462E-20
 -1      1251 9.52427E-05-2.85896E-05-2.85656E-05 3.40363E-10-5.76120E-18 4.58788E-19
 -1      1252 9.52405E-05-2.85822E-05-2.85677E-05 3.33475E-10-5.10637E-18 3.60447E-19
 -1      1253 9.52385E-05-2.85756E-05-2.85695E-05 2.62674E-10 5.64375E-19 4.77420E-19
 -1      1254 9.52375E-05-2.85718E-05-2.85708E-05-1.78641E-10 8.25904E-19-1.14460E-18
 -1      1255 9.52370E-05-2.85706E-05-2.85715E-05-1.64943E-10 3.51207E-19 8.02088E-19
 -1      1256 3.49906E-05-1.08614E-04 1.82734E-05-1.29295E-05 6.31378E-18 9.36818E-19
 -1      1257 1.92025E-05-7.06351E-05 1.08271E-05-2.62145E-05 1.08268E-17 4.48440E-18
 -1      1258 8.48515E-06-1.36108E-05-4.75085E-06-2.39477E-06 1.69220E-17 1.07624E-17
 -1      1259 3.16155E-05 2.25654E-05-2.47170E-05 4.92170E-05 1.39184E-17 1.26614E-17
 -1      1260 1.02725E-04 1.39914E-05-4.53538E-05 9.84387E-05 9.22334E-18 1.28393E-17
 -1      1261 2.03940E-04-3.13818E-05-6.36349E-05 1.09930E-04 4.26905E-18 9.33939E-18
 -1      1262 2.86543E-04-7.86137E-05-7.51035E-05 6.75010E-05 8.36233E-19 1.19770E-18
 -1      1263 3.13877E-04-9.46647E-05-7.85304E-05-1.00705E-05 6.44327E-19-7.77661E-18
 -1      1264 2.65245E-04-6.51404E-05-7.24172E-05-8.39368E-05 3.82097E-18-1.39261E-17
 -1      1265 1.69766E-04-1.33457E-05-5.81709E-05-1.12800E-04 8.87182E-18-1.68814E-17
 -1      1266 7.56851E-05 2.26286E-05-3.93136E-05-8.64223E-05 1.38837E-17-1.71321E-17
 -1      1267 1.86043E-05 1.75152E-05-1.87023E-05-3.19041E-05 1.47282E-17-1.22667E-17
 -1      1268 7.62221E-06-2.49101E-05-8.53390E-07 1.22632E-05 1.18788E-17-6.66276E-18
 -1      1269 2.19490E-05-7.76785E-05 1.21010E-05 2.48695E-05 5.64039E-18-2.29546E-18
 -1      1270 3.50872E-05-1.08989E-04 1.83407E-05 7.47995E-06-3.45865E-18-7.61694E-19
 -1      1271 3.08935E-05-9.90889E-05 1.63599E-05-1.80956E-05-1.18123E-17-2.43601E-18
 -1      1272 1.33920E-05-5.14825E-05 6.28116E-06-2.16951E-05-1.64477E-17-6.92365E-18
 -1      1273 8.94181E-06 1.36585E-06-1.00472E-05 9.06959E-06-1.71982E-17-1.14993E-17
 -1      1274 4.48955E-05 2.63526E-05-3.03231E-05 6.43266E-05-1.37965E-17-1.38761E-17
 -1      1275 1.31047E-04 4.04807E-06-5.12772E-05 1.07914E-04-8.48303E-18-1.34068E-17
 -1      1276 2.33678E-04-4.72875E-05-6.79526E-05 1.00254E-04-3.80741E-18-1.01712E-17
 -1      1277 3.01585E-04-8.75562E-05-7.70488E-05 4.12003E-05-6.49357E-19-3.34536E-18
 -1      1278 3.04734E-04-9.01365E-05-7.73403E-05-3.68627E-05-6.15528E-19 3.40423E-18
 -1      1279 2.48400E-04-5.62805E-05-7.01067E-05-9.48828E-05-3.24901E-18 9.58333E-18
 -1      1280 1.62207E-04-9.96014E-06-5.70233E-05-1.12525E-04-7.59619E-18 1.39015E-17
 -1      1281 7.77364E-05 2.25253E-05-3.98480E-05-8.82903E-05-1.17907E-17 1.46418E-17
 -1      1282 2.30145E-05 2.11842E-05-2.11951E-05-3.96590E-05-1.33984E-17 1.21515E-17
 -1      1283 7.01439E-06-1.56410E-05-3.47453E-06 5.91321E-06-1.20380E-17 7.28364E-18
 -1      1284 1.87123E-05-6.87578E-05 1.03167E-05 2.54518E-05-9.06833E-18 3.26828E-18
 -1      1285 3.35133E-05-1.05993E-04 1.79931E-05 1.31662E-05-1.60725E-18 1.04061E-18
 -1      1286 1.14859E-04-2.45774E-05-4.12670E-05-1.53275E-05-4.12082E-19 4.13458E-18
 -1      1287 9.87565E-05-8.32762E-06-3.88805E-05-1.55995E-05-8.45445E-19-1.61852E-18
 -1      1288 1.02230E-04-8.63460E-06-4.03657E-05-2.17505E-05-1.19029E-18-3.58136E-19
 -1      1289 9.14374E-05-5.08979E-06-3.70607E-05-1.02338E-05-7.17013E-19-3.30359E-18
 -1      1290 9.41600E-05-5.16025E-06-3.80435E-05-1.32399E-05-8.79114E-19-2.63380E-18
 -1      1291 1.00629E-04-1.27440E-05-3.77165E-05-1.38748E-05-1.44337E-18-1.40263E-18
 -1      1292 8.61628E-05-3.58654E-06-3.54206E-05-5.97600E-06-4.71109E-19-3.99916E-18
 -1      1293 8.84587E-05-3.60615E-06-3.62695E-05-8.03055E-06-5.84135E-19-3.70918E-18
 -1      1294 9.29312E-05-8.65584E-06-3.61900E-05-9.29285E-06-1.09900E-18-2.79346E-18
 -1      1295 8.16039E-05-2.50868E-06-3.39329E-05-2.88675E-06-2.55486E-19-4.21222E-18
 -1      1296 8.36461E-05-2.53243E-06-3.46860E-05-4.32176E-06-3.30184E-19-4.14791E-18
 -1      1297 8.70313E-05-6.18466E-06-3.47209E-05-5.40796E-06-6.78553E-19-3.36923E-18
 -1      1298 7.76818E-05-1.60195E-06-3.26551E-05-8.74685E-07-3.45166E-20-4.21278E-18
 -1      1299 7.94226E-05-1.62902E-06-3.32865E-05-1.77829E-06-1.07573E-19-4.22519E-18
 -1      1300 8.19950E-05-4.28211E-06-3.33702E-05-2.57997E-06-3.22084E-19-3.52891E-18
 -1      1301 7.44734E-05-8.15574E-07-3.16320E-05 2.33815E-07 1.36902E-19-4.10309E-18
 -1      1302 7.58373E-05-8.43425E-07-3.21174E-05-2.37856E-07 9.06855E-20-4.19051E-18
 -1      1303 7.76733E-05-2.66241E-06-3.22043E-05-7.34577E-07 3.10093E-20-3.59355E-18
 -1      1304 7.23905E-05-2.38779E-07-3.09897E-05 5.90677E-07 3.59976E-19-3.93503E-18
 -1      1305 7.31861E-05-2.58353E-07-3.12668E-05 4.49284E-07 2.88362E-19-3.99451E-18
 -1      1306 7.43026E-05-1.35813E-06-3.13131E-05 2.39869E-07 3.28602E-19-3.41417E-18
 -1      1307 7.17368E-05 2.65881E-08-3.08111E-05 5.22153E-07 5.12508E-19-3.80069E-18
 -1      1308 7.18417E-05 2.09738E-08-3.08420E-05 5.35414E-07 4.67681E-19-3.90368E-18
 -1      1309 7.23168E-05-5.47757E-07-3.08058E-05 5.37482E-07 6.82288E-19-3.29017E-18
 -1      1310 7.26510E-05-8.11153E-08-3.11302E-05 4.52242E-07 6.45121E-19-3.51847E-18
 -1      1311 7.20301E-05-7.09561E-08-3.09046E-05 4.08288E-07 5.87073E-19-3.69268E-18
 -1      1312 7.20300E-05-3.85427E-07-3.07520E-05 5.11162E-07 9.07162E-19-3.11455E-18
 -1      1313 7.50494E-05-5.53386E-07-3.19215E-05 8.19866E-07 8.02140E-19-3.13827E-18
 -1      1314 7.37677E-05-5.28483E-07-3.14596E-05 5.11178E-07 7.26093E-19-3.37866E-18
 -1      1315 7.35361E-05-9.23237E-07-3.11700E-05 5.97752E-07 1.12452E-18-2.88681E-18
 -1      1316 7.85975E-05-1.30221E-06-3.30855E-05 1.96486E-06 9.45924E-19-2.56799E-18
 -1      1317 7.68272E-05-1.27480E-06-3.24439E-05 1.24230E-06 8.89914E-19-2.90305E-18
 -1      1318 7.66437E-05-2.07873E-06-3.20117E-05 1.21083E-06 1.38266E-18-2.48043E-18
 -1      1319 8.31086E-05-2.28163E-06-3.45665E-05 4.19135E-06 1.12285E-18-1.66412E-18
 -1      1320 8.09246E-05-2.25219E-06-3.37690E-05 2.89923E-06 1.02724E-18-2.19697E-18
 -1      1321 8.10416E-05-3.72745E-06-3.31977E-05 2.67039E-06 1.59745E-18-1.84550E-18
 -1      1322 8.83429E-05-3.48606E-06-3.62672E-05 7.70924E-06 1.27553E-18-2.67424E-19
 -1      1323 8.58458E-05-3.46224E-06-3.53539E-05 5.72408E-06 1.16234E-18-1.08146E-18
 -1      1324 8.64868E-05-5.83013E-06-3.46380E-05 5.20921E-06 1.80586E-18-8.89649E-19
 -1      1325 9.45386E-05-5.15786E-06-3.81737E-05 1.28800E-05 1.31280E-18 1.94124E-18
 -1      1326 9.15859E-05-5.12231E-06-3.71194E-05 9.90189E-06 1.19675E-18 6.34639E-19
 -1      1327 9.29380E-05-8.58352E-06-3.62222E-05 8.96196E-06 1.94781E-18 6.56662E-19
 -1      1328 1.03484E-04-8.78761E-06-4.04302E-05 2.07623E-05 9.85735E-19 5.68412E-18
 -1      1329 9.91064E-05-8.22674E-06-3.90601E-05 1.56971E-05 1.00437E-18 3.46728E-18
 -1      1330 1.01251E-04-1.30191E-05-3.78417E-05 1.39021E-05 1.82763E-18 3.04466E-18
 -1      1331 1.34020E-04-2.75750E-05-4.24821E-05 2.65192E-05 3.14990E-19 1.17634E-17
 -1      1332 1.10878E-04-1.70165E-05-4.08322E-05 2.06907E-05 3.91753E-19 7.65866E-18
 -1      1333 1.13286E-04-2.27642E-05-3.88251E-05 1.68761E-05 1.51573E-18 6.37646E-18
 -1      1334 1.15238E-04-3.17533E-05-3.85224E-05 4.93670E-06 6.69527E-19 1.16802E-17
 -1      1335 1.17527E-04-3.40977E-05-3.71947E-05-5.80988E-06-1.04153E-18 4.64947E-18
 -1      1336 1.12416E-04-3.22485E-05-3.48985E-05-3.13089E-06-9.37136E-19 3.46534E-18
 -1      1337 1.10583E-04-3.24559E-05-3.37269E-05-8.18397E-07-7.68021E-19 3.04704E-18
 -1      1338 1.09906E-04-3.26495E-05-3.31451E-05-4.62983E-07-7.52430E-19 1.91795E-18
 -1      1339 1.12814E-04-3.22819E-05-3.48790E-05-4.54155E-06-1.62270E-18 1.48337E-18
 -1      1340 1.09203E-04-3.25811E-05-3.28188E-05 4.58651E-07-6.12289E-19 1.60518E-18
 -1      1341 1.09661E-04-3.28641E-05-3.28619E-05 4.95237E-07-4.62771E-19 7.10846E-19
 -1      1342 1.10002E-04-3.25452E-05-3.33073E-05-3.37276E-07-1.28995E-18 9.48412E-19
 -1      1343 1.09674E-04-3.29353E-05-3.28356E-05 6.31529E-07-2.26471E-19 3.35266E-19
 -1      1344 1.10251E-04-3.31963E-05-3.29815E-05 5.70727E-07-3.67815E-19-4.43104E-20
 -1      1345 1.09557E-04-3.28635E-05-3.28754E-05 9.14794E-07-7.82347E-19 2.51595E-19
 -1      1346 1.10358E-04-3.32909E-05-3.29838E-05 1.87939E-07-2.86833E-19-8.79326E-20
 -1      1347 1.10420E-04-3.33724E-05-3.29870E-05 2.31291E-08-2.41901E-19-4.40269E-19
 -1      1348 1.09787E-04-3.32138E-05-3.27892E-05 6.43105E-07-4.71240E-19-2.15424E-19
 -1      1349 1.10187E-04-3.33688E-05-3.28765E-05-7.68332E-07-2.93219E-19-4.96366E-19
 -1      1350 1.09258E-04-3.31123E-05-3.25988E-05-1.02520E-06-2.90711E-19-8.72987E-19
 -1      1351 1.09777E-04-3.34375E-05-3.26622E-05-7.42418E-07-4.86283E-19-2.86178E-19
 -1      1352 1.08381E-04-3.28924E-05-3.23014E-05-2.04419E-06-3.01471E-19-1.04816E-18
 -1      1353 1.06212E-04-3.21892E-05-3.16880E-05-2.33386E-06-2.38374E-19-1.34803E-18
 -1      1354 1.08797E-04-3.32676E-05-3.22944E-05-2.91891E-06-5.15750E-19-3.11338E-19
 -1      1355 1.04595E-04-3.16821E-05-3.12034E-05-3.21866E-06-4.49192E-20-1.50475E-18
 -1      1356 1.01377E-04-3.05678E-05-3.03237E-05-3.41911E-06-7.77186E-20-1.57643E-18
 -1      1357 1.06408E-04-3.24574E-05-3.16202E-05-5.25007E-06-3.87392E-19-5.13950E-19
 -1      1358 9.92614E-05-2.98224E-05-2.97432E-05-3.67322E-06-9.37948E-20-1.57151E-18
 -1      1359 9.57690E-05-2.85588E-05-2.88145E-05-3.63616E-06-1.50851E-19-1.67437E-18
 -1      1360 1.02708E-04-3.09562E-05-3.07198E-05-6.69443E-06-1.65267E-19-5.29171E-19
 -1      1361 9.37838E-05-2.78033E-05-2.83068E-05-2.88471E-06-2.91730E-19-1.66977E-18
 -1      1362 9.12173E-05-2.68446E-05-2.76392E-05-2.54182E-06-1.32369E-19-1.93547E-18
 -1      1363 9.85541E-05-2.91028E-05-2.98130E-05-6.15118E-06-3.16784E-19-4.69680E-19
 -1      1364 9.01650E-05-2.64206E-05-2.73856E-05-8.77348E-07-1.67130E-19-2.60132E-18
 -1      1365 8.95972E-05-2.61970E-05-2.72437E-05-3.36753E-07-3.32831E-19-2.99108E-18
 -1      1366 9.54319E-05-2.76235E-05-2.91870E-05-3.22199E-06-5.80985E-19-1.32673E-18
 -1      1367 8.99948E-05-2.63411E-05-2.73495E-05 1.59426E-06-3.50063E-19-3.58430E-18
 -1      1368 9.17371E-05-2.69811E-05-2.78085E-05 2.08585E-06-3.07539E-19-3.95334E-18
 -1      1369 9.47431E-05-2.72599E-05-2.90714E-05 1.19397E-06-7.68285E-19-2.67495E-18
 -1      1370 9.34509E-05-2.76324E-05-2.82463E-05 3.45586E-06 5.53549E-20-3.78603E-18
 -1      1371 9.68498E-05-2.88699E-05-2.91471E-05 3.68667E-06-9.20784E-20-3.80339E-18
 -1      1372 9.68985E-05-2.82353E-05-2.95269E-05 5.23772E-06-1.86334E-19-3.30647E-18
 -1      1373 9.91865E-05-2.97194E-05-2.97704E-05 4.02986E-06-1.43632E-19-3.69825E-18
 -1      1374 1.03033E-04-3.10788E-05-3.08100E-05 3.96064E-06-2.57710E-19-4.01202E-18
 -1      1375 1.01015E-04-3.00813E-05-3.04138E-05 7.28774E-06-2.71054E-19-3.12497E-18
 -1      1376 1.05190E-04-3.18022E-05-3.14268E-05 3.38259E-06-4.49119E-19-3.83870E-18
 -1      1377 1.08380E-04-3.28804E-05-3.23123E-05 3.12430E-06-4.97579E-19-4.26936E-18
 -1      1378 1.05518E-04-3.19894E-05-3.14562E-05 6.93292E-06-5.08471E-19-2.88829E-18
 -1      1379 1.09836E-04-3.33088E-05-3.27689E-05 2.07578E-06-2.59410E-19-4.20594E-18
 -1      1380 1.11784E-04-3.39247E-05-3.33292E-05 1.77383E-06 2.78594E-20-4.28850E-18
 -1      1381 1.09053E-04-3.33408E-05-3.23645E-05 4.90689E-06-5.46330E-19-3.06345E-18
 -1      1382 1.12390E-04-3.40489E-05-3.35558E-05 7.05060E-07-1.21165E-20-4.21674E-18
 -1      1383 1.13053E-04-3.42210E-05-3.37613E-05 4.56598E-07-2.94715E-19-4.56823E-18
 -1      1384 1.10980E-04-3.39347E-05-3.29423E-05 2.33010E-06 1.00506E-19-3.00027E-18
 -1      1385 1.12922E-04-3.41155E-05-3.37668E-05-3.69832E-07-8.29199E-20-4.17414E-18
 -1      1386 1.12581E-04-3.39635E-05-3.36842E-05-5.31016E-07 2.53355E-19-4.22448E-18
 -1      1387 1.11318E-04-3.38899E-05-3.31288E-05 5.64584E-08-1.24739E-19-2.98170E-18
 -1      1388 1.11938E-04-3.37184E-05-3.35230E-05-1.04259E-06 3.57603E-19-4.08996E-18
 -1      1389 1.10969E-04-3.33782E-05-3.32538E-05-1.12332E-06 3.26042E-20-3.86032E-18
 -1      1390 1.10442E-04-3.34365E-05-3.29717E-05-1.53041E-06 2.59960E-19-2.17261E-18
 -1      1391 1.10042E-04-3.30679E-05-3.29924E-05-1.36030E-06 6.63680E-20-3.87992E-18
 -1      1392 1.08778E-04-3.26494E-05-3.26315E-05-1.38281E-06-5.93072E-20-3.67975E-18
 -1      1393 1.08815E-04-3.27836E-05-3.25733E-05-2.40722E-06 1.04033E-19-2.37207E-18
 -1      1394 1.07747E-04-3.23254E-05-3.23274E-05-1.42499E-06 1.72202E-19-3.33489E-18
 -1      1395 1.06425E-04-3.19015E-05-3.19448E-05-1.41192E-06 2.03087E-19-3.02779E-18
 -1      1396 1.06839E-04-3.20757E-05-3.20426E-05-2.72516E-06 8.89467E-20-2.54460E-18
 -1      1397 1.05414E-04-3.15949E-05-3.16394E-05-1.33647E-06 3.78567E-20-3.27575E-18
 -1      1398 1.04178E-04-3.12067E-05-3.12785E-05-1.30520E-06-2.95734E-20-3.10787E-18
 -1      1399 1.04806E-04-3.13976E-05-3.14690E-05-2.67387E-06 1.51570E-19-2.15632E-18
 -1      1400 1.03258E-04-3.09341E-05-3.09969E-05-1.17090E-06 3.31080E-19-2.71638E-18
 -1      1401 1.02179E-04-3.06004E-05-3.06799E-05-1.13287E-06 5.41310E-19-2.18655E-18
 -1      1402 1.02898E-04-3.07920E-05-3.09137E-05-2.41537E-06 3.90795E-19-1.81976E-18
 -1      1403 1.01383E-04-3.03683E-05-3.04348E-05-9.78612E-07 2.68217E-19-1.44952E-18
 -1      1404 1.00485E-04-3.00938E-05-3.01697E-05-9.40544E-07-4.99948E-20-1.04981E-18
 -1      1405 1.01210E-04-3.02756E-05-3.04128E-05-2.06527E-06 7.80468E-19-4.82190E-19
 -1      1406 9.98236E-05-2.99028E-05-2.99650E-05-7.89296E-07-9.09394E-20-7.08354E-19
 -1      1407 9.91023E-05-2.96846E-05-2.97514E-05-7.54668E-07 2.39397E-19-1.72623E-19
 -1      1408 9.97820E-05-2.98497E-05-2.99825E-05-1.69654E-06 2.06992E-19 2.68877E-19
 -1      1409 9.85689E-05-2.95315E-05-2.95858E-05-6.18332E-07 1.61825E-19-5.07864E-19
 -1      1410 9.80065E-05-2.93629E-05-2.94189E-05-5.88611E-07 4.19681E-19-1.69253E-19
 -1      1411 9.86122E-05-2.95080E-05-2.96263E-05-1.35020E-06 2.21026E-19 2.77757E-19
 -1      1412 9.75875E-05-2.92433E-05-2.92886E-05-4.72096E-07 3.58493E-19-2.74840E-19
 -1      1413 9.71604E-05-2.91163E-05-2.91614E-05-4.47590E-07-3.07224E-19-2.02574E-19
 -1      1414 9.76806E-05-2.92402E-05-2.93403E-05-1.04595E-06 2.30157E-19 1.59937E-19
 -1      1415 9.68389E-05-2.90249E-05-2.90614E-05-3.51720E-07-1.37900E-19-3.00336E-19
 -1      1416 9.65225E-05-2.89316E-05-2.89670E-05-3.32123E-07-2.10931E-22-3.57929E-20
 -1      1417 9.69564E-05-2.90348E-05-2.91164E-05-7.90456E-07-1.12564E-19 1.35859E-19
 -1      1418 9.62815E-05-2.88632E-05-2.88920E-05-2.55540E-07 6.77039E-20 2.97165E-21
 -1      1419 9.60532E-05-2.87965E-05-2.88236E-05-2.40263E-07 7.48491E-20 4.82079E-19
 -1      1420 9.64063E-05-2.88806E-05-2.89453E-05-5.82972E-07 2.39404E-19 7.84902E-19
 -1      1421 9.58767E-05-2.87466E-05-2.87687E-05-1.80601E-07-5.31426E-20 1.32565E-18
 -1      1422 9.57167E-05-2.87003E-05-2.87206E-05-1.68964E-07 4.88583E-20 1.70521E-18
 -1      1423 9.59978E-05-2.87675E-05-2.88175E-05-4.18993E-07 4.47310E-19 5.30111E-19
 -1      1424 9.55907E-05-2.86648E-05-2.86814E-05-1.23535E-07 3.50706E-19 1.39622E-18
 -1      1425 9.54824E-05-2.86339E-05-2.86487E-05-1.14868E-07 3.68372E-19 2.25910E-18
 -1      1426 9.57018E-05-2.86865E-05-2.87243E-05-2.92447E-07 1.10757E-19 1.55914E-18
 -1      1427 9.53952E-05-2.86094E-05-2.86216E-05-8.10421E-08-5.23194E-19 2.22968E-18
 -1      1428 9.53252E-05-2.85898E-05-2.86003E-05-7.47347E-08-7.69588E-19 9.70091E-19
 -1      1429 9.54930E-05-2.86302E-05-2.86581E-05-1.96953E-07-3.53633E-19 8.80106E-19
 -1      1430 9.52670E-05-2.85735E-05-2.85822E-05-5.01290E-08-5.70069E-19 1.69296E-19
 -1      1431 9.52247E-05-2.85620E-05-2.85692E-05-4.56557E-08-6.00515E-19-9.43367E-19
 -1      1432 9.53504E-05-2.85924E-05-2.86125E-05-1.26496E-07-1.22580E-18 2.90560E-19
 -1      1433 9.51878E-05-2.85517E-05-2.85578E-05-2.82129E-08 2.73277E-19-8.89392E-19
 -1      1434 9.51649E-05-2.85458E-05-2.85506E-05-2.51350E-08 7.03723E-19-4.44457E-19
 -1      1435 9.52572E-05-2.85683E-05-2.85823E-05-7.57492E-08-4.79943E-19-2.13111E-19
 -1      1436 9.51433E-05-2.85398E-05-2.85439E-05-1.31396E-08 3.68792E-19-3.16799E-19
 -1      1437 9.51336E-05-2.85377E-05-2.85407E-05-1.11009E-08 4.08429E-19 4.63655E-21
 -1      1438 9.51997E-05-2.85539E-05-2.85634E-05-4.01827E-08 9.13443E-19-1.20869E-18
 -1      1439 9.51227E-05-2.85348E-05-2.85374E-05-3.16037E-09 5.06662E-19 1.88751E-19
 -1      1440 9.51216E-05-2.85350E-05-2.85368E-05-1.87810E-09 4.87624E-19 9.77220E-19
 -1      1441 9.51676E-05-2.85464E-05-2.85526E-05-1.60633E-08 8.87868E-19-1.54658E-18
 -1      1442 9.51179E-05-2.85341E-05-2.85357E-05 3.11206E-09 6.91492E-19 8.29812E-19
 -1      1443 9.51221E-05-2.85359E-05-2.85368E-05 3.85757E-09-6.49571E-20 1.48891E-18
 -1      1444 9.51529E-05-2.85435E-05-2.85473E-05-3.89485E-10 7.10428E-19-8.63429E-19
 -1      1445 9.51230E-05-2.85362E-05-2.85370E-05 6.75543E-09-6.04793E-19 2.13098E-18
 -1      1446 9.51302E-05-2.85387E-05-2.85390E-05 7.13149E-09-1.69505E-19 1.31068E-18
 -1      1447 9.51497E-05-2.85436E-05-2.85457E-05 9.19940E-09-1.83862E-19 1.90061E-19
 -1      1448 9.51338E-05-2.85398E-05-2.85402E-05 8.58980E-09-1.29475E-18 1.31410E-19
 -1      1449 9.51425E-05-2.85427E-05-2.85427E-05 8.72112E-09-2.00677E-18-2.15613E-18
 -1      1450 9.51538E-05-2.85456E-05-2.85465E-05 1.45217E-08-1.47598E-18-5.74857E-19
 -1      1451 9.51476E-05-2.85442E-05-2.85442E-05 9.22539E-09-1.53357E-18-2.45409E-18
 -1      1452 9.51567E-05-2.85471E-05-2.85469E-05 9.20267E-09-1.30348E-18-3.90159E-18
 -1      1453 9.51621E-05-2.85485E-05-2.85487E-05 1.69483E-08-2.75088E-18-8.12084E-19
 -1      1454 9.51624E-05-2.85488E-05-2.85486E-05 9.10434E-09 4.24046E-20-4.62262E-18
 -1      1455 9.51712E-05-2.85516E-05-2.85512E-05 8.99140E-09-3.18667E-19-5.17419E-18
 -1      1456 9.51726E-05-2.85520E-05-2.85517E-05 1.74884E-08-1.57307E-18-1.80678E-18
 -1      1457 9.51770E-05-2.85532E-05-2.85530E-05 8.53531E-09 2.39748E-19-4.45409E-18
 -1      1458 9.51851E-05-2.85558E-05-2.85554E-05 8.37479E-09 9.85388E-19-4.13347E-18
 -1      1459 9.51837E-05-2.85555E-05-2.85549E-05 1.68613E-08 7.49525E-19-2.49680E-18
 -1      1460 9.51906E-05-2.85574E-05-2.85571E-05 7.72058E-09 3.86330E-19-2.36627E-18
 -1      1461 9.51979E-05-2.85597E-05-2.85592E-05 7.53806E-09 1.69611E-19-3.12449E-18
 -1      1462 9.51947E-05-2.85588E-05-2.85582E-05 1.55564E-08 1.44129E-18-9.67127E-19
 -1      1463 9.52029E-05-2.85611E-05-2.85608E-05 6.77593E-09 9.26305E-19-2.94106E-18
 -1      1464 9.52093E-05-2.85631E-05-2.85627E-05 6.58270E-09 1.31633E-18-1.78893E-18
 -1      1465 9.52049E-05-2.85619E-05-2.85612E-05 1.38770E-08 1.37926E-18 4.09636E-19
 -1      1466 9.52137E-05-2.85644E-05-2.85640E-05 5.74442E-09 1.38279E-18-6.87927E-19
 -1      1467 9.52190E-05-2.85660E-05-2.85656E-05 5.53895E-09 1.11575E-18 1.44812E-18
 -1      1468 9.52141E-05-2.85647E-05-2.85640E-05 1.19733E-08 2.18666E-18 1.63861E-18
 -1      1469 9.52227E-05-2.85671E-05-2.85667E-05 4.60387E-09-1.71687E-19 6.03758E-19
 -1      1470 9.52269E-05-2.85684E-05-2.85679E-05 4.36999E-09 4.97332E-19 1.40018E-18
 -1      1471 9.52219E-05-2.85671E-05-2.85663E-05 9.86509E-09 6.73262E-19 1.91280E-18
 -1      1472 9.52298E-05-2.85693E-05-2.85688E-05 3.27988E-09 6.76933E-19-4.85463E-19
 -1      1473 9.52327E-05-2.85702E-05-2.85696E-05 2.98556E-09-1.74720E-19 9.37104E-20
 -1      1474 9.52283E-05-2.85691E-05-2.85682E-05 7.45678E-09-5.47387E-19 7.95180E-20
 -1      1475 9.52347E-05-2.85709E-05-2.85702E-05 1.67956E-09-3.44487E-19 2.20316E-19
 -1      1476 9.52360E-05-2.85712E-05-2.85706E-05 1.32126E-09-3.29225E-19 1.83427E-19
 -1      1477 9.52332E-05-2.85708E-05-2.85695E-05 4.64159E-09-5.52715E-21-6.14558E-19
 -1      1478 9.52372E-05-2.85713E-05-2.85712E-05-1.04611E-10-7.01531E-19 5.77419E-19
 -1      1479 9.52365E-05-2.85716E-05-2.85706E-05 1.24359E-09-2.36723E-19 1.36527E-21
 -1      1480 1.12645E-04-3.32635E-05-3.45073E-05 1.14144E-06 7.05658E-19 9.98735E-18
 -1      1481 1.16413E-04-3.35514E-05-3.63199E-05 2.48820E-06 6.52004E-19 1.10659E-17
 -1      1482 1.15631E-04-3.09546E-05-3.66541E-05 9.21573E-06 1.18701E-18 7.85448E-18
 -1      1483 1.11301E-04-3.32633E-05-3.34889E-05-4.55650E-07 5.08723E-19 8.56763E-18
 -1      1484 1.11390E-04-3.28502E-05-3.38522E-05-1.69551E-07 4.89016E-19 9.28163E-18
 -1      1485 1.12389E-04-3.29385E-05-3.42549E-05 1.61032E-06 1.13725E-18 6.68987E-18
 -1      1486 1.12300E-04-3.37065E-05-3.36400E-05-1.00972E-06 3.89142E-19 7.50056E-18
 -1      1487 1.11352E-04-3.32490E-05-3.34537E-05-8.90120E-07 3.41636E-19 8.05870E-18
 -1      1488 1.11528E-04-3.32368E-05-3.35940E-05-9.91504E-07 7.99043E-19 5.80488E-18
 -1      1489 1.13892E-04-3.42826E-05-3.40574E-05-9.07225E-07 2.12581E-19 6.68849E-18
 -1      1490 1.12827E-04-3.38926E-05-3.37810E-05-9.34374E-07 2.48743E-19 7.10764E-18
 -1      1491 1.12236E-04-3.37149E-05-3.36413E-05-1.66611E-06 6.06278E-19 4.91642E-18
 -1      1492 1.14786E-04-3.46527E-05-3.42612E-05-2.08264E-07 1.64252E-19 6.29246E-18
 -1      1493 1.14288E-04-3.45001E-05-3.41500E-05-4.03438E-07 1.43135E-19 6.53204E-18
 -1      1494 1.13245E-04-3.42470E-05-3.38118E-05-1.09565E-06 3.24056E-19 4.65215E-18
 -1      1495 1.13852E-04-3.44538E-05-3.39232E-05 1.05020E-06 1.88862E-20 6.35925E-18
 -1      1496 1.14552E-04-3.47396E-05-3.41578E-05 6.77475E-07 1.11636E-20 6.19653E-18
 -1      1497 1.13528E-04-3.45563E-05-3.37617E-05 5.87784E-07 1.07282E-19 4.51231E-18
 -1      1498 1.10287E-04-3.33747E-05-3.28614E-05 2.61290E-06 1.60420E-19 6.38917E-18
 -1      1499 1.12617E-04-3.42439E-05-3.35378E-05 2.12588E-06 3.11351E-20 6.41379E-18
 -1      1500 1.12225E-04-3.43040E-05-3.32827E-05 3.12773E-06-7.26066E-20 4.53691E-18
 -1      1501 1.04155E-04-3.13625E-05-3.11584E-05 3.85727E-06 3.31828E-19 5.68401E-18
 -1      1502 1.08002E-04-3.27597E-05-3.22114E-05 3.43780E-06 2.77648E-19 6.16455E-18
 -1      1503 1.08879E-04-3.32004E-05-3.23318E-05 5.75569E-06 3.66666E-19 4.25608E-18
 -1      1504 9.69236E-05-2.88726E-05-2.92496E-05 3.93673E-06 2.82337E-19 4.90919E-18
 -1      1505 1.01318E-04-3.04161E-05-3.03998E-05 3.84012E-06 2.39098E-19 5.27103E-18
 -1      1506 1.03875E-04-3.12488E-05-3.10910E-05 7.13307E-06 6.15690E-19 3.87981E-18
 -1      1507 9.13177E-05-2.68842E-05-2.78215E-05 2.34280E-06 3.65819E-19 4.38297E-18
 -1      1508 9.45798E-05-2.79323E-05-2.86454E-05 2.72629E-06 2.06107E-19 4.71940E-18
 -1      1509 9.87312E-05-2.90096E-05-2.99467E-05 5.94664E-06 3.37397E-19 3.26992E-18
 -1      1510 9.00111E-05-2.64198E-05-2.74893E-05-4.63881E-07 3.90032E-20 3.98937E-18
 -1      1511 9.05881E-05-2.64223E-05-2.76248E-05 2.77222E-07 2.81347E-19 4.10075E-18
 -1      1512 9.56625E-05-2.75334E-05-2.93362E-05 2.02977E-06 5.01814E-19 3.25325E-18
 -1      1513 9.38150E-05-2.77853E-05-2.84386E-05-3.12160E-06 1.37008E-19 3.86702E-18
 -1      1514 9.13333E-05-2.67022E-05-2.78017E-05-2.39328E-06-1.38702E-20 3.69653E-18
 -1      1515 9.62895E-05-2.77175E-05-2.95259E-05-3.01144E-06-4.37545E-20 2.70615E-18
 -1      1516 1.01028E-04-3.03008E-05-3.03010E-05-4.37410E-06 1.84711E-19 3.30766E-18
 -1      1517 9.65841E-05-2.86440E-05-2.91446E-05-3.98976E-06 2.68629E-19 3.63001E-18
 -1      1518 1.00409E-04-2.95194E-05-3.04641E-05-6.72678E-06 3.49990E-19 2.31552E-18
 -1      1519 1.08690E-04-3.28605E-05-3.23765E-05-3.96514E-06 6.37296E-19 1.89566E-18
 -1      1520 1.04062E-04-3.13031E-05-3.11341E-05-3.99213E-06 6.10946E-19 2.66921E-18
 -1      1521 1.06145E-04-3.19700E-05-3.18077E-05-7.64218E-06 9.14101E-19 1.09138E-18
 -1      1522 1.14405E-04-3.46568E-05-3.40263E-05-2.53280E-06 3.60638E-19 1.41142E-18
 -1      1523 1.10990E-04-3.36339E-05-3.30686E-05-2.81861E-06 3.30343E-19 1.84812E-18
 -1      1524 1.11289E-04-3.39930E-05-3.31046E-05-6.04688E-06 8.51414E-19 7.51993E-19
 -1      1525 1.17216E-04-3.54476E-05-3.49228E-05-9.11898E-07-2.09958E-19 7.34523E-19
 -1      1526 1.15544E-04-3.50493E-05-3.44210E-05-1.25933E-06 1.89802E-19 8.73423E-19
 -1      1527 1.14482E-04-3.50588E-05-3.40023E-05-3.27058E-06 5.01549E-19 4.25925E-19
 -1      1528 1.17375E-04-3.53925E-05-3.50656E-05 3.68684E-07 5.70516E-19 2.90777E-19
 -1      1529 1.17264E-04-3.54874E-05-3.49991E-05 8.35867E-08 2.84815E-20 4.99293E-19
 -1      1530 1.15450E-04-3.52085E-05-3.43561E-05-5.75887E-07 1.69989E-19-4.44634E-19
 -1      1531 1.15690E-04-3.47910E-05-3.46448E-05 1.15137E-06-1.87274E-21-1.29840E-18
 -1      1532 1.16641E-04-3.51837E-05-3.48914E-05 9.67989E-07 8.45233E-19-1.01247E-19
 -1      1533 1.14618E-04-3.47385E-05-3.42106E-05 1.37943E-06 1.17073E-18-1.64311E-19
 -1      1534 1.13011E-04-3.39207E-05-3.38978E-05 1.50007E-06-2.03635E-19-5.88714E-19
 -1      1535 1.14515E-04-3.44436E-05-3.43175E-05 1.40802E-06-5.65161E-19-1.27508E-18
 -1      1536 1.12644E-04-3.39511E-05-3.37112E-05 2.48110E-06-2.34410E-19-4.16270E-19
 -1      1537 1.09999E-04-3.29789E-05-3.30238E-05 1.55159E-06-5.75712E-19 5.75241E-19
 -1      1538 1.11672E-04-3.35201E-05-3.35044E-05 1.52376E-06-3.70675E-19 1.91932E-19
 -1      1539 1.10126E-04-3.30622E-05-3.30199E-05 2.89629E-06-6.69644E-19 9.43184E-20
 -1      1540 1.07071E-04-3.20835E-05-3.21571E-05 1.43367E-06-3.20095E-19 1.04740E-18
 -1      1541 1.08679E-04-3.25812E-05-3.26260E-05 1.44405E-06-2.59445E-19 5.19602E-19
 -1      1542 1.07499E-04-3.21989E-05-3.22689E-05 2.86268E-06-6.47269E-19 5.80979E-19
 -1      1543 1.04452E-04-3.12934E-05-3.13727E-05 1.23820E-06 5.09494E-19 9.23570E-19
 -1      1544 1.05873E-04-3.17204E-05-3.17913E-05 1.26776E-06 7.35827E-20 1.24360E-18
 -1      1545 1.05032E-04-3.14248E-05-3.15457E-05 2.58413E-06-1.30688E-19 4.77409E-19
 -1      1546 1.02232E-04-3.06294E-05-3.07029E-05 1.02194E-06-3.59552E-19 7.21209E-19
 -1      1547 1.03423E-04-3.09795E-05-3.10559E-05 1.05863E-06 7.30351E-20 8.51228E-19
 -1      1548 1.02859E-04-3.07644E-05-3.08990E-05 2.20227E-06 3.37357E-19 4.23700E-19
 -1      1549 1.00420E-04-3.00908E-05-3.01538E-05 8.15789E-07-1.89410E-19 1.73199E-18
 -1      1550 1.01381E-04-3.03684E-05-3.04400E-05 8.52764E-07-4.28615E-19 1.10428E-18
 -1      1551 1.01029E-04-3.02206E-05-3.03487E-05 1.80279E-06-6.45639E-19 2.00719E-19
 -1      1552 9.89837E-05-2.96659E-05-2.97174E-05 6.34079E-07 4.39637E-19 1.83956E-18
 -1      1553 9.97370E-05-2.98803E-05-2.99424E-05 6.67880E-07 3.24467E-19 2.27704E-18
 -1      1554 9.95398E-05-2.97848E-05-2.98974E-05 1.43131E-06-3.28861E-19 1.47812E-18
 -1      1555 9.78732E-05-2.93385E-05-2.93792E-05 4.81521E-07 8.60375E-19 5.33217E-19
 -1      1556 9.84493E-05-2.95002E-05-2.95518E-05 5.10715E-07 4.63742E-19 1.25009E-18
 -1      1557 9.83589E-05-2.94434E-05-2.95375E-05 1.10808E-06 8.84388E-19 9.01986E-19
 -1      1558 9.70334E-05-2.90917E-05-2.91231E-05 3.57707E-07-7.48532E-20-8.81892E-19
 -1      1559 9.74640E-05-2.92109E-05-2.92524E-05 3.81987E-07 8.30596E-19 7.47871E-20
 -1      1560 9.74440E-05-2.91815E-05-2.92576E-05 8.38748E-07 1.17862E-18-3.27586E-19
 -1      1561 9.64117E-05-2.89095E-05-2.89332E-05 2.59803E-07 4.73974E-20-1.36259E-18
 -1      1562 9.67266E-05-2.89954E-05-2.90279E-05 2.79441E-07-5.87450E-19-1.66143E-18
 -1      1563 9.67501E-05-2.89844E-05-2.90444E-05 6.21201E-07 8.61922E-21-6.08448E-19
 -1      1564 9.59620E-05-2.87781E-05-2.87956E-05 1.84063E-07 2.86568E-19-1.85874E-18
 -1      1565 9.61866E-05-2.88384E-05-2.88634E-05 1.99592E-07 3.54942E-19-1.23269E-18
 -1      1566 9.62347E-05-2.88393E-05-2.88855E-05 4.49763E-07 1.68713E-19-1.30311E-18
 -1      1567 9.56447E-05-2.86857E-05-2.86984E-05 1.26633E-07-6.43077E-19-2.21788E-18
 -1      1568 9.58006E-05-2.87268E-05-2.87456E-05 1.38672E-07-2.70736E-21-2.19530E-18
 -1      1569 9.58603E-05-2.87347E-05-2.87695E-05 3.17499E-07 3.73108E-19-1.47604E-18
 -1      1570 9.54276E-05-2.86227E-05-2.86317E-05 8.39385E-08-8.91364E-19-1.79928E-19
 -1      1571 9.55321E-05-2.86496E-05-2.86634E-05 9.30988E-08-9.07686E-19-1.79203E-18
 -1      1572 9.55948E-05-2.86612E-05-2.86870E-05 2.17458E-07-1.20671E-18-1.19777E-18
 -1      1573 9.52848E-05-2.85815E-05-2.85877E-05 5.28529E-08 4.46318E-20 2.10050E-19
 -1      1574 9.53516E-05-2.85981E-05-2.86081E-05 5.96931E-08-1.04013E-19-9.10333E-20
 -1      1575 9.54121E-05-2.86112E-05-2.86299E-05 1.43274E-07-5.71277E-19-8.18331E-19
 -1      1576 9.51958E-05-2.85561E-05-2.85602E-05 3.07400E-08 5.25936E-19-6.73421E-19
 -1      1577 9.52357E-05-2.85654E-05-2.85725E-05 3.57470E-08 5.66803E-19 1.59012E-19
 -1      1578 9.52909E-05-2.85785E-05-2.85918E-05 8.94122E-08 5.11056E-19-9.38551E-19
 -1      1579 9.51450E-05-2.85418E-05-2.85443E-05 1.54355E-08-8.06515E-19-1.09461E-18
 -1      1580 9.51661E-05-2.85461E-05-2.85509E-05 1.90206E-08-2.12337E-19-9.36835E-19
 -1      1581 9.52146E-05-2.85584E-05-2.85675E-05 5.12213E-08 3.64315E-19-1.30875E-19
 -1      1582 9.51205E-05-2.85351E-05-2.85366E-05 5.20087E-09 5.73592E-19-1.67001E-18
 -1      1583 9.51289E-05-2.85361E-05-2.85393E-05 7.70275E-09-9.59990E-20-7.04917E-19
 -1      1584 9.51702E-05-2.85471E-05-2.85532E-05 2.48947E-08-8.11162E-20 1.91538E-19
 -1      1585 9.51135E-05-2.85334E-05-2.85342E-05-1.33514E-09 1.25688E-19-3.22334E-18
 -1      1586 9.51136E-05-2.85324E-05-2.85344E-05 3.56987E-10 4.18610E-19-2.61035E-18
 -1      1587 9.51480E-05-2.85419E-05-2.85458E-05 7.38005E-09 9.58229E-19-4.13892E-19
 -1      1588 9.51175E-05-2.85350E-05-2.85352E-05-5.23473E-09-7.17227E-19-1.79340E-18
 -1      1589 9.51127E-05-2.85328E-05-2.85339E-05-4.13564E-09-1.03803E-18-3.21968E-18
 -1      1590 9.51405E-05-2.85408E-05-2.85430E-05-3.72418E-09-8.05420E-19-1.31853E-18
 -1      1591 9.51281E-05-2.85383E-05-2.85383E-05-7.30637E-09 4.60790E-19-1.03278E-18
 -1      1592 9.51205E-05-2.85355E-05-2.85361E-05-6.63155E-09-1.30072E-19-1.20682E-18
 -1      1593 9.51426E-05-2.85421E-05-2.85433E-05-1.02746E-08-5.95948E-19-8.27230E-19
 -1      1594 9.51420E-05-2.85426E-05-2.85424E-05-8.15362E-09-2.34331E-19 7.48210E-19
 -1      1595 9.51331E-05-2.85397E-05-2.85399E-05-7.77405E-09-2.06612E-19-1.84159E-20
 -1      1596 9.51504E-05-2.85449E-05-2.85453E-05-1.36804E-08-4.22991E-19 9.82461E-19
 -1      1597 9.51572E-05-2.85473E-05-2.85470E-05-8.21687E-09-6.58326E-19 6.53225E-19
 -1      1598 9.51481E-05-2.85443E-05-2.85443E-05-8.03595E-09 9.69099E-20 6.63693E-19
 -1      1599 9.51612E-05-2.85484E-05-2.85484E-05-1.49897E-08-2.40760E-19 2.74428E-18
 -1      1600 9.51723E-05-2.85519E-05-2.85515E-05-7.80780E-09-5.56762E-19 2.07178E-18
 -1      1601 9.51636E-05-2.85491E-05-2.85489E-05-7.75520E-09-1.47391E-18-5.50191E-20
 -1      1602 9.51733E-05-2.85522E-05-2.85519E-05-1.49630E-08-1.26709E-18 4.73550E-19
 -1      1603 9.51866E-05-2.85562E-05-2.85558E-05-7.13655E-09 8.85487E-23 2.31058E-18
 -1      1604 9.51785E-05-2.85537E-05-2.85534E-05-7.16340E-09 8.11356E-19 3.41236E-18
 -1      1605 9.51854E-05-2.85560E-05-2.85555E-05-1.41333E-08-3.71079E-19 1.64949E-18
 -1      1606 9.51996E-05-2.85601E-05-2.85597E-05-6.33196E-09 1.50134E-18-5.89180E-19
 -1      1607 9.51924E-05-2.85579E-05-2.85576E-05-6.40741E-09 5.62085E-19 8.68512E-19
 -1      1608 9.51970E-05-2.85595E-05-2.85590E-05-1.28526E-08 1.54069E-18 1.89846E-18
 -1      1609 9.52110E-05-2.85635E-05-2.85632E-05-5.45526E-09 1.28831E-19-9.24584E-19
 -1      1610 9.52047E-05-2.85616E-05-2.85613E-05-5.56473E-09 3.46148E-19-4.90162E-19
 -1      1611 9.52075E-05-2.85626E-05-2.85621E-05-1.13262E-08 1.03938E-18 4.92933E-19
 -1      1612 9.52207E-05-2.85664E-05-2.85661E-05-4.50742E-09 6.04965E-19-1.76389E-18
 -1      1613 9.52154E-05-2.85648E-05-2.85645E-05-4.65268E-09 7.79651E-19-6.01010E-19
 -1      1614 9.52167E-05-2.85654E-05-2.85648E-05-9.63579E-09 9.74104E-19 2.90077E-19
 -1      1615 9.52284E-05-2.85687E-05-2.85683E-05-3.43408E-09 4.91750E-19-3.49097E-18
 -1      1616 9.52243E-05-2.85675E-05-2.85671E-05-3.63459E-09 4.65797E-19-2.61384E-18
 -1      1617 9.52244E-05-2.85678E-05-2.85671E-05-7.75330E-09 1.20560E-18-1.09289E-18
 -1      1618 9.52338E-05-2.85704E-05-2.85699E-05-2.13132E-09-4.14183E-19-3.30921E-18
 -1      1619 9.52310E-05-2.85696E-05-2.85691E-05-2.43536E-09 7.55320E-20-2.97276E-18
 -1      1620 9.52305E-05-2.85697E-05-2.85689E-05-5.56630E-09 2.13307E-20-1.06628E-18
 -1      1621 9.52366E-05-2.85712E-05-2.85709E-05-6.57161E-10-3.04198E-19-2.51567E-18
 -1      1622 9.52354E-05-2.85710E-05-2.85704E-05-1.02761E-09-2.82061E-19-3.28887E-18
 -1      1623 9.52347E-05-2.85710E-05-2.85701E-05-2.96201E-09-1.29540E-20-9.86234E-19
 -1      1624 9.52372E-05-2.85713E-05-2.85711E-05 3.42892E-11-9.11571E-19-1.21908E-18
 -1      1625 9.52375E-05-2.85736E-05-2.85702E-05-1.74643E-09-3.44841E-19 4.93274E-19
 -1      1626 9.52371E-05-2.85723E-05-2.85706E-05-1.35927E-09-1.41174E-18 1.22616E-18
 -1      1627 9.52390E-05-2.85782E-05-2.85689E-05-3.07199E-09-7.56483E-20-1.03354E-18
 -1      1628 9.52381E-05-2.85755E-05-2.85696E-05-2.84806E-09 7.07655E-20-1.21637E-18
 -1      1629 9.52376E-05-2.85752E-05-2.85696E-05-4.49229E-09 2.30764E-19 1.05295E-19
 -1      1630 9.52410E-05-2.85840E-05-2.85672E-05-3.76002E-09-2.76856E-19 8.52302E-19
 -1      1631 9.52398E-05-2.85806E-05-2.85682E-05-3.67911E-09-2.77597E-19 6.97172E-20
 -1      1632 9.52393E-05-2.85795E-05-2.85684E-05-6.53343E-09 9.11426E-19-1.36318E-18
 -1      1633 9.52430E-05-2.85902E-05-2.85655E-05-3.79609E-09 1.48273E-18 1.47239E-18
 -1      1634 9.52418E-05-2.85867E-05-2.85665E-05-3.84153E-09-4.82342E-19 2.17487E-18
 -1      1635 9.52411E-05-2.85846E-05-2.85671E-05-7.34101E-09 1.43322E-18 1.61348E-18
 -1      1636 9.52447E-05-2.85957E-05-2.85639E-05-3.29564E-09 9.53195E-19 2.32155E-19
 -1      1637 9.52437E-05-2.85927E-05-2.85647E-05-3.43303E-09 1.18273E-18-2.16177E-19
 -1      1638 9.52429E-05-2.85898E-05-2.85657E-05-6.97903E-09 2.50034E-19 7.11999E-19
 -1      1639 9.52461E-05-2.86000E-05-2.85626E-05-2.37466E-09 1.88799E-18 8.42777E-19
 -1      1640 9.52454E-05-2.85978E-05-2.85633E-05-2.58341E-09 8.89538E-19 2.93720E-19
 -1      1641 9.52445E-05-2.85942E-05-2.85644E-05-5.67788E-09 5.10815E-19 3.71683E-19
 -1      1642 9.52469E-05-2.86026E-05-2.85619E-05-1.17991E-09 1.57862E-18-4.66462E-19
 -1      1643 9.52465E-05-2.86014E-05-2.85622E-05-1.42914E-09 1.98326E-18 6.52387E-19
 -1      1644 9.52456E-05-2.85976E-05-2.85635E-05-3.67506E-09 2.11360E-19 5.67439E-19
 -1      1645 9.52471E-05-2.86030E-05-2.85617E-05 1.43813E-10 3.01843E-18 9.87103E-19
 -1      1646 9.52471E-05-2.86030E-05-2.85617E-05-1.18628E-10 2.68218E-18 4.87998E-19
 -1      1647 9.52462E-05-2.85993E-05-2.85630E-05-1.25486E-09 1.40090E-18-4.82248E-20
 -1      1648 9.52465E-05-2.86013E-05-2.85622E-05 1.45215E-09 3.72717E-18-3.39595E-19
 -1      1649 9.52469E-05-2.86025E-05-2.85619E-05 1.20372E-09 3.48965E-18 1.12811E-18
 -1      1650 9.52462E-05-2.85993E-05-2.85630E-05 1.30229E-09 2.45632E-18 9.89822E-19
 -1      1651 9.52453E-05-2.85977E-05-2.85633E-05 2.60072E-09 5.07738E-19-2.10584E-18
 -1      1652 9.52461E-05-2.86000E-05-2.85626E-05 2.39400E-09 3.08812E-18-1.78256E-18
 -1      1653 9.52456E-05-2.85975E-05-2.85635E-05 3.71631E-09 1.19578E-18-1.42152E-18
 -1      1654 9.52437E-05-2.85926E-05-2.85648E-05 3.43497E-09-2.13406E-18-3.43945E-19
 -1      1655 9.52447E-05-2.85957E-05-2.85639E-05 3.29976E-09-2.42207E-19-1.35982E-18
 -1      1656 9.52445E-05-2.85942E-05-2.85645E-05 5.69519E-09-5.24648E-20-3.29701E-18
 -1      1657 9.52418E-05-2.85866E-05-2.85665E-05 3.84190E-09-2.72714E-18-1.74518E-19
 -1      1658 9.52429E-05-2.85901E-05-2.85655E-05 3.79867E-09-2.63320E-18 1.15445E-18
 -1      1659 9.52429E-05-2.85897E-05-2.85657E-05 6.98473E-09 3.35631E-19 1.45842E-20
 -1      1660 9.52398E-05-2.85805E-05-2.85682E-05 3.67752E-09-1.85110E-18 1.85084E-18
 -1      1661 9.52409E-05-2.85839E-05-2.85673E-05 3.75236E-09-3.22451E-18 7.04176E-19
 -1      1662 9.52411E-05-2.85846E-05-2.85671E-05 7.33404E-09-6.20172E-19-1.14960E-19
 -1      1663 9.52381E-05-2.85755E-05-2.85697E-05 2.83698E-09-6.96615E-19 3.16081E-19
 -1      1664 9.52390E-05-2.85781E-05-2.85689E-05 3.06512E-09-1.59436E-18 2.03060E-18
 -1      1665 9.52393E-05-2.85795E-05-2.85684E-05 6.50501E-09-1.05543E-18 1.73777E-18
 -1      1666 9.52370E-05-2.85727E-05-2.85704E-05 2.04772E-09-9.63351E-19-1.09436E-18
 -1      1667 9.52374E-05-2.85741E-05-2.85700E-05 2.60781E-09-1.66259E-19-6.53655E-19
 -1      1668 9.52375E-05-2.85755E-05-2.85694E-05 5.32708E-09-1.70341E-18 1.06592E-18
 -1      1669 9.52357E-05-2.85727E-05-2.85698E-05 4.05302E-09-8.31132E-19-7.91520E-19
 -1      1670 2.07856E-05-6.83363E-05 1.42449E-05-6.94122E-06 5.01528E-18 1.52635E-18
 -1      1671 2.36163E-05-7.63357E-05 1.59850E-05 1.49242E-06 2.86435E-18 1.72689E-18
 -1      1672 1.88760E-05-4.15185E-05 5.23699E-06 1.00768E-06 8.71089E-18 6.37742E-18
 -1      1673 2.38184E-05-6.30578E-05 1.06311E-05-1.36409E-06 5.42821E-18 3.47411E-18
 -1      1674 3.85503E-05-1.59033E-05-1.15119E-05 2.93195E-05 9.83575E-18 7.27305E-18
 -1      1675 3.20669E-05-3.70942E-05-2.21484E-06 1.13954E-05 8.88114E-18 5.90954E-18
 -1      1676 7.42906E-05-3.39528E-06-2.97255E-05 5.72246E-05 8.67362E-18 7.90875E-18
 -1      1677 5.20384E-05-9.86583E-06-2.03565E-05 3.58948E-05 1.07073E-17 7.45220E-18
 -1      1678 1.39981E-04-1.67811E-05-4.93023E-05 7.65143E-05 5.99191E-18 7.49963E-18
 -1      1679 9.68598E-05-4.91109E-06-3.91368E-05 6.23055E-05 7.75628E-18 8.26027E-18
 -1      1680 2.07909E-04-4.30016E-05-6.49149E-05 6.72965E-05 3.45971E-18 3.40338E-18
 -1      1681 1.64971E-04-2.25464E-05-5.77447E-05 7.52646E-05 5.33843E-18 6.55434E-18
 -1      1682 2.51883E-04-6.35930E-05-7.38777E-05 2.78266E-05 1.91260E-18-1.68009E-18
 -1      1683 2.26071E-04-4.93091E-05-7.01641E-05 5.58188E-05 2.85418E-18 2.07523E-18
 -1      1684 2.50645E-04-6.17451E-05-7.47186E-05-2.33789E-05 2.51399E-18-6.51855E-18
 -1      1685 2.54997E-04-6.41495E-05-7.51990E-05 1.14523E-05 1.96173E-18-3.21873E-18
 -1      1686 2.03813E-04-3.90256E-05-6.62483E-05-6.08844E-05 4.56445E-18-9.53166E-18
 -1      1687 2.38539E-04-5.72580E-05-7.16124E-05-3.66585E-05 2.95826E-18-7.44627E-18
 -1      1688 1.41152E-04-1.38406E-05-5.23397E-05-7.52054E-05 7.77110E-18-1.15925E-17
 -1      1689 1.84973E-04-3.31474E-05-6.02387E-05-7.43791E-05 5.80514E-18-1.09691E-17
 -1      1690 7.89016E-05-1.84542E-06-3.36519E-05-5.65262E-05 9.93739E-18-1.08742E-17
 -1      1691 1.16452E-04-8.32716E-06-4.37178E-05-7.53406E-05 8.91248E-18-1.14299E-17
 -1      1692 4.00415E-05-1.34573E-05-1.47321E-05-2.64812E-05 9.08866E-18-7.94263E-18
 -1      1693 5.73371E-05-1.66488E-06-2.41961E-05-4.89890E-05 9.89080E-18-1.05506E-17
 -1      1694 2.53519E-05-3.98551E-05 9.44454E-07-4.58613E-06 6.65514E-18-4.60235E-18
 -1      1695 2.64564E-05-1.81166E-05-6.56300E-06-1.76675E-05 8.66006E-18-6.75339E-18
 -1      1696 2.35532E-05-6.46318E-05 1.14562E-05 7.75999E-07 1.48485E-18-2.77054E-18
 -1      1697 1.87770E-05-4.56120E-05 6.68706E-06 1.00439E-06 5.27532E-18-4.19048E-18
 -1      1698 2.19476E-05-7.16232E-05 1.51567E-05-3.22898E-06-4.35354E-18-2.53559E-18
 -1      1699 2.02779E-05-6.67811E-05 1.40804E-05 5.25940E-06-1.63901E-19-2.62686E-18
 -1      1700 1.89147E-05-5.86215E-05 1.15599E-05-4.76880E-06-9.08316E-18-3.83314E-18
 -1      1701 2.31241E-05-7.17245E-05 1.44850E-05 1.28238E-06-5.91610E-18-2.55507E-18
 -1      1702 2.18971E-05-3.09150E-05 2.01659E-07 9.02644E-06-1.11902E-17-6.25979E-18
 -1      1703 2.46458E-05-5.35270E-05 6.80772E-06 2.07012E-06-9.63923E-18-4.38874E-18
 -1      1704 3.92446E-05-5.84489E-06-1.57609E-05 3.46047E-05-1.14087E-17-8.69395E-18
 -1      1705 3.07239E-05-2.42065E-05-6.96405E-06 1.52896E-05-1.17771E-17-7.13879E-18
 -1      1706 8.79628E-05-1.65928E-06-3.55382E-05 6.68728E-05-8.92095E-18-9.13440E-18
 -1      1707 5.74581E-05-3.37752E-06-2.50494E-05 4.33333E-05-1.07946E-17-9.00904E-18
 -1      1708 1.59438E-04-2.25712E-05-5.45708E-05 7.88914E-05-5.61752E-18-8.47965E-18
 -1      1709 1.13655E-04-5.47465E-06-4.51787E-05 7.10634E-05-7.55215E-18-9.41308E-18
 -1      1710 2.22390E-04-5.02073E-05-6.82009E-05 5.32113E-05-3.12672E-18-5.44134E-18
 -1      1711 1.82996E-04-3.00286E-05-6.18470E-05 6.92982E-05-4.64576E-18-7.36241E-18
 -1      1712 2.51364E-04-6.29571E-05-7.44423E-05 8.08619E-06-1.84441E-18-9.45183E-19
 -1      1713 2.35443E-04-5.40759E-05-7.22550E-05 3.98626E-05-2.96970E-18-4.06957E-18
 -1      1714 2.42977E-04-5.80073E-05-7.31451E-05-3.85232E-05-2.05829E-18 2.95360E-18
 -1      1715 2.55709E-04-6.53770E-05-7.49785E-05-7.15346E-06-1.41942E-18 7.11614E-19
 -1      1716 1.98317E-04-3.64789E-05-6.48021E-05-6.88010E-05-4.20488E-18 6.53232E-18
 -1      1717 2.31191E-04-5.38331E-05-6.98127E-05-5.14256E-05-2.88171E-18 4.14877E-18
 -1      1718 1.38648E-04-1.32440E-05-5.14244E-05-7.48781E-05-6.71358E-18 8.85658E-18
 -1      1719 1.78508E-04-3.02177E-05-5.88257E-05-7.55887E-05-4.85286E-18 7.21249E-18
 -1      1720 8.22210E-05-1.95653E-06-3.46745E-05-5.83218E-05-8.17726E-18 8.93959E-18
 -1      1721 1.16087E-04-8.43881E-06-4.35760E-05-7.43336E-05-7.19639E-18 9.42578E-18
 -1      1722 4.43188E-05-1.02265E-05-1.73144E-05-3.14614E-05-8.48388E-18 7.29041E-18
 -1      1723 6.24764E-05-1.31351E-06-2.61362E-05-5.22745E-05-8.54572E-18 9.24113E-18
 -1      1724 2.78832E-05-3.58356E-05-1.35544E-06-8.50119E-06-6.72968E-18 4.71289E-18
 -1      1725 3.15458E-05-1.53474E-05-9.28906E-06-2.37465E-05-8.11203E-18 6.92195E-18
 -1      1726 2.36037E-05-6.18814E-05 1.02734E-05 1.48224E-06-4.38848E-18 2.60044E-18
 -1      1727 1.89187E-05-4.13762E-05 5.09336E-06-5.27430E-07-6.70342E-18 3.69582E-18
 -1      1728 2.31101E-05-7.36922E-05 1.54046E-05-2.32829E-06 1.21052E-18 2.99087E-18
 -1      1729 2.02323E-05-6.46278E-05 1.33753E-05 4.66329E-06-3.04678E-18 3.23567E-18
 -1      1730 1.14351E-04-3.27931E-05-3.43077E-05 4.45065E-05 5.59211E-18 4.15300E-18
 -1      1731 7.50727E-05-3.90208E-05-1.68862E-05 3.91675E-05 5.34817E-18 3.99630E-18
 -1      1732 9.52368E-05-2.85715E-05-2.85708E-05-6.21534E-10-1.74601E-18-4.86612E-19
 -1      1733 9.52365E-05-2.85725E-05-2.85703E-05-2.32568E-09-6.47017E-19 8.87371E-19
 -1      1734 1.77706E-05-4.85547E-05 8.84284E-06 1.28974E-05 3.00061E-18 3.93532E-18
 -1      1735 4.06454E-05-4.24955E-05-1.75680E-06 3.00004E-05 3.69137E-18 5.44385E-18
 -1      1736 1.14721E-05-4.94926E-05 1.17269E-05-1.41985E-06 9.06908E-19 4.46640E-18
 -1      1737 1.58582E-04-3.19744E-05-5.12623E-05 4.23135E-05 4.98352E-18 2.96546E-18
 -1      1738 1.95711E-04-3.41247E-05-6.43300E-05 3.02099E-05 4.19747E-18 6.41204E-19
 -1      1739 2.13343E-04-3.53731E-05-7.05937E-05 9.12570E-06 3.81842E-18-1.63033E-18
 -1      1740 2.05129E-04-3.26180E-05-6.88607E-05-1.22462E-05 3.79598E-18-3.50883E-18
 -1      1741 1.82556E-04-3.18837E-05-6.03475E-05-3.25623E-05 4.47646E-18-5.44473E-18
 -1      1742 1.44587E-04-3.03767E-05-4.64001E-05-4.60470E-05 5.60821E-18-6.63142E-18
 -1      1743 9.87188E-05-3.04916E-05-2.91285E-05-4.52696E-05 5.53875E-18-7.20740E-18
 -1      1744 5.90076E-05-3.51068E-05-1.23298E-05-3.55805E-05 4.70188E-18-6.34703E-18
 -1      1745 3.14358E-05-4.19749E-05 9.30652E-07-2.35017E-05 2.69949E-18-5.14477E-18
 -1      1746 1.51827E-05-4.55855E-05 8.85572E-06-1.07859E-05-8.85149E-20-5.03900E-18
 -1      1747 1.15188E-05-4.66067E-05 1.07012E-05 3.43772E-06-2.73549E-18-4.56678E-18
 -1      1748 2.21585E-05-4.37920E-05 5.51722E-06 1.90641E-05-5.01274E-18-4.48885E-18
 -1      1749 4.50772E-05-3.82650E-05-5.64871E-06 3.11561E-05-6.37985E-18-4.90485E-18
 -1      1750 7.88973E-05-3.11664E-05-2.13888E-05 4.20441E-05-6.95922E-18-5.30243E-18
 -1      1751 1.24209E-04-2.86463E-05-3.94655E-05 4.81269E-05-5.93050E-18-5.34054E-18
 -1      1752 1.69367E-04-3.09119E-05-5.56637E-05 3.93872E-05-4.57763E-18-4.15216E-18
 -1      1753 1.97177E-04-3.14819E-05-6.62770E-05 1.99858E-05-4.16698E-18-2.66350E-18
 -1      1754 2.11372E-04-3.39422E-05-7.06096E-05 1.52998E-08-3.59777E-18-8.00658E-19
 -1      1755 2.05947E-04-3.50559E-05-6.79703E-05-2.12273E-05-3.41608E-18 1.04270E-18
 -1      1756 1.79404E-04-3.20547E-05-5.91024E-05-3.81603E-05-4.09056E-18 2.25734E-18
 -1      1757 1.42103E-04-2.95198E-05-4.59487E-05-4.65797E-05-4.61294E-18 4.05644E-18
 -1      1758 1.01408E-04-2.98783E-05-3.03467E-05-4.55527E-05-4.57313E-18 5.11184E-18
 -1      1759 6.52677E-05-3.51194E-05-1.45406E-05-3.77859E-05-4.28599E-18 5.17452E-18
 -1      1760 3.64802E-05-4.19177E-05-8.71041E-07-2.67151E-05-3.25599E-18 4.05266E-18
 -1      1761 1.77963E-05-4.69247E-05 8.26878E-06-1.36267E-05-1.53779E-18 4.64852E-18
 -1      1762 1.17219E-04-2.65149E-05-3.89651E-05-1.39437E-05-1.24826E-18 3.27399E-18
 -1      1763 9.35977E-05-1.19861E-05-3.51201E-05-7.00938E-06-1.10906E-18-2.39591E-18
 -1      1764 9.68719E-05-1.35730E-05-3.58291E-05-9.13120E-06-1.41030E-18-2.02579E-18
 -1      1765 1.00728E-04-1.64664E-05-3.62908E-05-1.05185E-05-1.49517E-18-1.39890E-18
 -1      1766 1.04131E-04-1.89563E-05-3.69722E-05-1.26645E-05-1.71602E-18-5.77888E-19
 -1      1767 1.01130E-04-1.89970E-05-3.52183E-05-7.96746E-06-1.56781E-18-1.49342E-18
 -1      1768 8.21278E-05-6.14636E-06-3.26478E-05-1.43015E-06-2.74313E-19-2.85751E-18
 -1      1769 8.46022E-05-7.04396E-06-3.32663E-05-2.60183E-06-4.90604E-19-2.86972E-18
 -1      1770 7.74560E-05-3.88443E-06-3.15988E-05 1.24333E-07 1.14707E-19-2.91507E-18
 -1      1771 7.95700E-05-4.65028E-06-3.21162E-05-6.07592E-07-5.51829E-20-2.93763E-18
 -1      1772 8.20358E-05-7.43912E-06-3.20057E-05-4.54144E-07-2.00505E-19-2.77746E-18
 -1      1773 7.39428E-05-2.11603E-06-3.08351E-05 7.85329E-07 5.19211E-19-2.70202E-18
 -1      1774 7.54362E-05-2.67226E-06-3.11877E-05 4.53842E-07 3.39554E-19-2.81099E-18
 -1      1775 7.72025E-05-4.75216E-06-3.10740E-05 7.58680E-07 2.74442E-19-2.73680E-18
 -1      1776 7.20823E-05-1.09846E-06-3.04562E-05 7.66159E-07 8.98703E-19-2.61148E-18
 -1      1777 7.27285E-05-1.35596E-06-3.05988E-05 6.98077E-07 7.07421E-19-2.65380E-18
 -1      1778 7.37680E-05-2.78575E-06-3.04317E-05 1.05227E-06 6.61028E-19-2.57247E-18
 -1      1779 7.22248E-05-1.04609E-06-3.05228E-05 4.75521E-07 1.15920E-18-2.45589E-18
 -1      1780 7.18932E-05-9.47577E-07-3.04317E-05 4.65354E-07 1.05449E-18-2.57617E-18
 -1      1781 7.22712E-05-1.87599E-06-3.01722E-05 6.95135E-07 1.06301E-18-2.51719E-18
 -1      1782 7.44109E-05-2.00501E-06-3.10384E-05 4.15947E-07 1.40660E-18-2.28622E-18
 -1      1783 7.31261E-05-1.55508E-06-3.07191E-05 2.37957E-07 1.28848E-18-2.39874E-18
 -1      1784 7.30234E-05-2.23570E-06-3.03427E-05 1.80318E-07 1.28881E-18-2.36128E-18
 -1      1785 7.82813E-05-3.79899E-06-3.19286E-05 1.01563E-06 1.65689E-18-1.84658E-18
 -1      1786 7.62490E-05-3.07509E-06-3.14257E-05 4.95481E-07 1.50794E-18-2.13291E-18
 -1      1787 7.59329E-05-3.81580E-06-3.09226E-05 5.72175E-08 1.55749E-18-2.15247E-18
 -1      1788 8.35374E-05-6.29570E-06-3.31263E-05 2.56806E-06 1.93411E-18-1.20255E-18
 -1      1789 8.08884E-05-5.32342E-06-3.24718E-05 1.56666E-06 1.78023E-18-1.56386E-18
 -1      1790 8.06201E-05-6.38959E-06-3.18421E-05 7.27705E-07 1.82994E-18-1.63013E-18
 -1      1791 8.97773E-05-9.42231E-06-3.44982E-05 5.14921E-06 2.09306E-18-2.23934E-19
 -1      1792 8.66811E-05-8.18397E-06-3.37563E-05 3.61230E-06 1.98384E-18-7.86377E-19
 -1      1793 8.66570E-05-9.74933E-06-3.29973E-05 2.35247E-06 2.02219E-18-9.04737E-19
 -1      1794 9.70184E-05-1.35693E-05-3.59017E-05 8.61939E-06 2.17681E-18 1.28982E-18
 -1      1795 9.33942E-05-1.17911E-05-3.51328E-05 6.55482E-06 2.10054E-18 4.14940E-19
 -1      1796 9.36778E-05-1.38712E-05-3.42303E-05 4.77014E-06 2.16614E-18 1.78737E-19
 -1      1797 1.06248E-04-2.02212E-05-3.70540E-05 1.20775E-05 1.92550E-18 3.72594E-18
 -1      1798 1.01406E-04-1.69029E-05-3.64057E-05 1.00021E-05 2.06269E-18 2.31176E-18
 -1      1799 1.01771E-04-1.93177E-05-3.53255E-05 7.31484E-06 2.14052E-18 1.79963E-18
 -1      1800 1.14389E-04-2.90680E-05-3.69946E-05 1.00464E-05 1.49237E-18 6.36746E-18
 -1      1801 1.09544E-04-2.31966E-05-3.70135E-05 1.18969E-05 1.72122E-18 4.64868E-18
 -1      1802 1.08640E-04-2.55034E-05-3.56894E-05 7.61117E-06 1.93100E-18 3.66538E-18
 -1      1803 1.12374E-04-3.04442E-05-3.53018E-05 5.06023E-06 1.61032E-18 5.82786E-18
 -1      1804 1.11264E-04-2.30206E-05-3.75260E-05-1.47699E-05-1.60098E-18 8.93090E-19
 -1      1805 1.11077E-04-3.22144E-05-3.38194E-05 6.61099E-08 1.20160E-18 4.97030E-18
 -1      1806 1.12209E-04-3.19249E-05-3.44461E-05 2.27406E-06 1.31857E-18 5.41513E-18
 -1      1807 1.10856E-04-2.98871E-05-3.47112E-05 3.77528E-06 1.56381E-18 4.08193E-18
 -1      1808 1.10767E-04-2.61045E-05-3.60106E-05-9.98083E-06-1.66416E-18 3.58136E-19
 -1      1809 1.10094E-04-3.13005E-05-3.36525E-05-1.86508E-06-1.35959E-18 3.30776E-19
 -1      1810 1.09228E-04-3.17110E-05-3.32090E-05-4.18151E-07-1.12411E-18 4.90485E-20
 -1      1811 1.09147E-04-3.22371E-05-3.28698E-05 6.12933E-07-9.69644E-19 1.07348E-19
 -1      1812 1.09121E-04-3.26970E-05-3.27525E-05 9.20715E-07-7.17602E-19-1.95268E-19
 -1      1813 1.08237E-04-3.11482E-05-3.30683E-05-3.59375E-07-1.23106E-18-3.11506E-19
 -1      1814 1.09374E-04-3.31807E-05-3.26024E-05 9.49376E-07-5.72257E-19-2.38248E-19
 -1      1815 1.09458E-04-3.35775E-05-3.25526E-05 5.23716E-07-5.10906E-19-4.87997E-19
 -1      1816 1.08624E-04-3.27854E-05-3.25254E-05 9.56411E-07-8.70658E-19-3.43280E-19
 -1      1817 1.09857E-04-3.40479E-05-3.24670E-05-2.78604E-07-4.87841E-19-4.20803E-19
 -1      1818 1.09640E-04-3.42657E-05-3.23577E-05-1.28107E-06-4.39246E-19-3.85874E-19
 -1      1819 1.09453E-04-3.42051E-05-3.22593E-05 2.00518E-07-6.02508E-19-6.11237E-19
 -1      1820 1.09897E-04-3.45684E-05-3.22815E-05-2.72795E-06-4.26534E-19-1.58164E-19
 -1      1821 1.09070E-04-3.43958E-05-3.20550E-05-4.06447E-06-3.52531E-19-2.58709E-19
 -1      1822 1.10238E-04-3.52968E-05-3.21091E-05-2.21788E-06-4.71711E-19-2.64946E-19
 -1      1823 1.08848E-04-3.42692E-05-3.19785E-05-5.74279E-06-4.40040E-19-2.41788E-19
 -1      1824 1.07299E-04-3.35125E-05-3.16411E-05-6.93731E-06-2.68185E-19-3.28219E-19
 -1      1825 1.10332E-04-3.55299E-05-3.20278E-05-5.67112E-06-4.70050E-19-9.85462E-20
 -1      1826 1.06361E-04-3.27396E-05-3.15837E-05-8.10057E-06-1.91181E-19-3.07751E-19
 -1      1827 1.04311E-04-3.14175E-05-3.12044E-05-8.48334E-06-2.11469E-19-2.58848E-19
 -1      1828 1.09116E-04-3.42762E-05-3.20333E-05-8.90890E-06-3.13250E-19-1.05065E-19
 -1      1829 1.02798E-04-3.01019E-05-3.11857E-05-8.24778E-06-3.58953E-19-4.47266E-19
 -1      1830 1.00856E-04-2.86394E-05-3.08723E-05-7.27748E-06-3.55635E-19-5.42677E-19
 -1      1831 1.06467E-04-3.14126E-05-3.21470E-05-1.00925E-05-3.91597E-19-4.94446E-19
 -1      1832 9.94708E-05-2.74034E-05-3.08869E-05-5.22887E-06-8.67924E-19-9.12566E-19
 -1      1833 9.84353E-05-2.65334E-05-3.07405E-05-2.99924E-06-1.22151E-18-1.45887E-18
 -1      1834 1.03292E-04-2.79472E-05-3.23260E-05-7.64270E-06-9.40273E-19-1.08831E-18
 -1      1835 9.80640E-05-2.61762E-05-3.07614E-05 2.23926E-07-1.16470E-18-1.64895E-18
 -1      1836 9.84496E-05-2.64332E-05-3.08336E-05 2.82549E-06-8.26069E-19-2.18914E-18
 -1      1837 1.01351E-04-2.57967E-05-3.24634E-05-1.71265E-06-1.22517E-18-1.40199E-18
 -1      1838 9.93881E-05-2.72279E-05-3.08461E-05 5.74832E-06-5.61715E-19-2.47527E-18
 -1      1839 1.01061E-04-2.84771E-05-3.11220E-05 7.56468E-06-3.43333E-19-2.54296E-18
 -1      1840 1.01966E-04-2.63754E-05-3.24652E-05 5.25426E-06-9.93431E-19-1.74167E-18
 -1      1841 1.02697E-04-2.98770E-05-3.11442E-05 8.92115E-06-1.77321E-19-2.78853E-18
 -1      1842 1.04966E-04-3.14361E-05-3.15465E-05 9.32829E-06-2.05611E-19-2.53526E-18
 -1      1843 1.04786E-04-2.93288E-05-3.23467E-05 1.00179E-05-2.98109E-19-1.83344E-18
 -1      1844 1.06378E-04-3.26276E-05-3.15957E-05 8.88840E-06-4.29135E-19-2.38603E-18
 -1      1845 1.08451E-04-3.38335E-05-3.20092E-05 8.06737E-06-5.61662E-19-2.00853E-18
 -1      1846 1.08106E-04-3.28493E-05-3.22105E-05 1.08990E-05-1.89159E-19-1.84946E-18
 -1      1847 1.09113E-04-3.43795E-05-3.20705E-05 6.48572E-06-6.19340E-19-2.13176E-18
 -1      1848 1.10484E-04-3.49621E-05-3.23870E-05 5.06309E-06-2.21076E-19-2.07347E-18
 -1      1849 1.10345E-04-3.52574E-05-3.21318E-05 8.50573E-06-5.08650E-19-1.76733E-18
 -1      1850 1.10393E-04-3.49036E-05-3.24211E-05 3.19597E-06 2.05141E-21-2.02964E-18
 -1      1851 1.10932E-04-3.49419E-05-3.25784E-05 1.76818E-06 5.61093E-20-1.99940E-18
 -1      1852 1.10947E-04-3.59793E-05-3.20963E-05 4.61573E-06-2.12073E-19-1.42866E-18
 -1      1853 1.10337E-04-3.45347E-05-3.25541E-05 1.93888E-07-6.78487E-20-2.25435E-18
 -1      1854 1.10168E-04-3.42393E-05-3.25463E-05-9.03245E-07 2.90754E-19-1.91108E-18
 -1      1855 1.10208E-04-3.54145E-05-3.20391E-05 8.14575E-07-4.75397E-20-1.43743E-18
 -1      1856 1.09325E-04-3.37189E-05-3.24537E-05-1.96385E-06 5.21395E-19-2.00804E-18
 -1      1857 1.08671E-04-3.32792E-05-3.23134E-05-2.64167E-06 4.93890E-19-1.57229E-18
 -1      1858 1.08687E-04-3.42325E-05-3.19057E-05-2.05785E-06 5.42075E-19-1.32324E-18
 -1      1859 1.07757E-04-3.27824E-05-3.21625E-05-3.20535E-06 1.42293E-19-1.09690E-18
 -1      1860 1.06838E-04-3.23190E-05-3.19373E-05-3.51838E-06-6.84145E-20-1.20548E-18
 -1      1861 1.06850E-04-3.29447E-05-3.16767E-05-3.81035E-06 3.78736E-19-1.11089E-18
 -1      1862 1.05949E-04-3.18996E-05-3.17484E-05-3.70217E-06-1.97672E-19-1.27186E-18
 -1      1863 1.04938E-04-3.14734E-05-3.14835E-05-3.75489E-06-5.52842E-20-1.33921E-18
 -1      1864 1.04984E-04-3.18102E-05-3.13662E-05-4.60406E-06-2.01562E-19-7.13227E-19
 -1      1865 1.04123E-04-3.11397E-05-3.12786E-05-3.69048E-06 1.14939E-19-1.09156E-18
 -1      1866 1.03134E-04-3.07744E-05-3.10089E-05-3.58431E-06-4.28016E-20-9.99166E-19
 -1      1867 1.03238E-04-3.09081E-05-3.10057E-05-4.71444E-06 1.95545E-19-3.61749E-19
 -1      1868 1.02415E-04-3.05161E-05-3.08061E-05-3.38078E-06 1.85171E-19-7.69008E-19
 -1      1869 1.01516E-04-3.02158E-05-3.05538E-05-3.19378E-06 8.29070E-19-6.49432E-19
 -1      1870 1.01679E-04-3.02283E-05-3.06294E-05-4.40411E-06 3.20333E-19-1.09194E-19
 -1      1871 1.00899E-04-3.00184E-05-3.03656E-05-2.92867E-06 8.66859E-19-6.14722E-19
 -1      1872 1.00121E-04-2.97785E-05-3.01429E-05-2.71324E-06 1.00423E-18-3.79252E-19
 -1      1873 1.00331E-04-2.97299E-05-3.02652E-05-3.87601E-06 1.02899E-18-2.24351E-19
 -1      1874 9.96040E-05-2.96287E-05-2.99764E-05-2.43598E-06 6.78669E-19 1.68364E-20
 -1      1875 9.89566E-05-2.94413E-05-2.97880E-05-2.22362E-06 3.93952E-19 1.31010E-19
 -1      1876 9.91932E-05-2.93696E-05-2.99317E-05-3.26836E-06 1.23082E-18-5.19403E-19
 -1      1877 9.85320E-05-2.93282E-05-2.96462E-05-1.96257E-06 2.08111E-19 2.73094E-19
 -1      1878 9.80087E-05-2.91846E-05-2.94920E-05-1.76999E-06 2.53692E-19 1.06133E-19
 -1      1879 9.82540E-05-2.91111E-05-2.96395E-05-2.66613E-06 6.84286E-19 1.12667E-19
 -1      1880 9.76672E-05-2.90998E-05-2.93746E-05-1.53926E-06 1.30988E-19 4.15521E-19
 -1      1881 9.72551E-05-2.89920E-05-2.92519E-05-1.37367E-06 1.09788E-19 5.26306E-19
 -1      1882 9.74937E-05-2.89267E-05-2.93919E-05-2.11590E-06 3.42144E-19 4.42326E-20
 -1      1883 9.69856E-05-2.89291E-05-2.91573E-05-1.17837E-06-1.62849E-19 4.55893E-19
 -1      1884 9.66685E-05-2.88496E-05-2.90619E-05-1.04127E-06-1.24984E-19 8.12158E-19
 -1      1885 9.68898E-05-2.87964E-05-2.91881E-05-1.63885E-06 2.10000E-20 6.15978E-19
 -1      1886 9.64599E-05-2.88036E-05-2.89875E-05-8.81258E-07 1.92827E-19 7.81488E-19
 -1      1887 9.62214E-05-2.87464E-05-2.89150E-05-7.71066E-07 8.08029E-19 8.44506E-19
 -1      1888 9.64189E-05-2.87053E-05-2.90246E-05-1.24055E-06 1.69280E-19 6.53141E-19
 -1      1889 9.60629E-05-2.87132E-05-2.88577E-05-6.43405E-07 1.08612E-18 7.34377E-19
 -1      1890 9.58876E-05-2.86731E-05-2.88039E-05-5.57020E-07 5.22690E-19 8.16410E-19
 -1      1891 9.60586E-05-2.86429E-05-2.88961E-05-9.17662E-07 8.09742E-19 3.23599E-19
 -1      1892 9.57697E-05-2.86498E-05-2.87607E-05-4.57511E-07-4.87147E-19 8.02852E-19
 -1      1893 9.56441E-05-2.86224E-05-2.87217E-05-3.91305E-07-1.18840E-19 5.92528E-19
 -1      1894 9.57883E-05-2.86013E-05-2.87974E-05-6.62330E-07 2.12414E-19 1.62358E-19
 -1      1895 9.55583E-05-2.86065E-05-2.86898E-05-3.15407E-07-3.71688E-19 2.59798E-20
 -1      1896 9.54709E-05-2.85887E-05-2.86623E-05-2.65766E-07-1.11512E-18-3.06241E-19
 -1      1897 9.55896E-05-2.85745E-05-2.87231E-05-4.64883E-07-5.02018E-19-4.39495E-19
 -1      1898 9.54100E-05-2.85782E-05-2.86393E-05-2.09107E-07-1.16933E-18 1.44631E-19
 -1      1899 9.53513E-05-2.85672E-05-2.86206E-05-1.72717E-07-1.14813E-18 1.63224E-19
 -1      1900 9.54471E-05-2.85583E-05-2.86685E-05-3.15430E-07-9.62705E-19-8.51374E-19
 -1      1901 9.53094E-05-2.85606E-05-2.86045E-05-1.31364E-07-1.46013E-18 1.03164E-18
 -1      1902 9.52719E-05-2.85546E-05-2.85922E-05-1.05334E-07-1.43189E-19 6.38494E-19
 -1      1903 9.53476E-05-2.85494E-05-2.86292E-05-2.04729E-07-8.70404E-19 1.11653E-19
 -1      1904 9.52441E-05-2.85508E-05-2.85813E-05-7.58944E-08 6.52316E-19-1.91947E-19
 -1      1905 9.52218E-05-2.85480E-05-2.85738E-05-5.77971E-08 4.71291E-19-1.25896E-18
 -1      1906 9.52805E-05-2.85455E-05-2.86018E-05-1.24609E-07-2.27024E-19 8.26145E-19
 -1      1907 9.52044E-05-2.85462E-05-2.85668E-05-3.74404E-08 1.21756E-18-1.45479E-18
 -1      1908 9.51927E-05-2.85456E-05-2.85626E-05-2.52891E-08 1.56541E-18-9.67561E-19
 -1      1909 9.52374E-05-2.85449E-05-2.85833E-05-6.81154E-08 9.15669E-19-1.50628E-19
 -1      1910 9.51827E-05-2.85450E-05-2.85583E-05-1.17141E-08 6.98789E-19-1.28497E-18
 -1      1911 9.51782E-05-2.85458E-05-2.85564E-05-3.92291E-09 8.11333E-20-1.29644E-18
 -1      1912 9.52115E-05-2.85462E-05-2.85714E-05-2.95042E-08 1.08850E-18-1.12236E-18
 -1      1913 9.51733E-05-2.85461E-05-2.85541E-05 4.69998E-09 2.01597E-20-1.17372E-18
 -1      1914 9.51736E-05-2.85477E-05-2.85537E-05 9.37111E-09-2.03381E-19-9.93300E-19
 -1      1915 9.51977E-05-2.85486E-05-2.85643E-05-4.14290E-09 1.63127E-19-1.75059E-18
 -1      1916 9.51721E-05-2.85484E-05-2.85528E-05 1.44661E-08-7.30911E-19-8.44566E-19
 -1      1917 9.51752E-05-2.85504E-05-2.85533E-05 1.69665E-08-1.43396E-18-7.11252E-19
 -1      1918 9.51921E-05-2.85516E-05-2.85605E-05 1.16231E-08-8.31908E-19-2.11484E-18
 -1      1919 9.51759E-05-2.85514E-05-2.85532E-05 1.96192E-08-1.78057E-18 4.10347E-19
 -1      1920 9.51806E-05-2.85535E-05-2.85544E-05 2.06597E-08-2.05995E-18 4.34509E-19
 -1      1921 9.51920E-05-2.85547E-05-2.85590E-05 2.06170E-08-1.04515E-18-4.92862E-19
 -1      1922 9.51826E-05-2.85546E-05-2.85548E-05 2.16784E-08-2.25977E-18 8.17890E-19
 -1      1923 9.51880E-05-2.85566E-05-2.85562E-05 2.17775E-08-1.02580E-18 1.58045E-19
 -1      1924 9.51951E-05-2.85577E-05-2.85590E-05 2.49726E-08-1.95207E-18 1.43353E-18
 -1      1925 9.51907E-05-2.85577E-05-2.85570E-05 2.17468E-08 3.08814E-19 5.23190E-19
 -1      1926 9.51962E-05-2.85596E-05-2.85585E-05 2.12693E-08 1.26506E-18 9.70939E-19
 -1      1927 9.52002E-05-2.85605E-05-2.85599E-05 2.62625E-08-2.03813E-19 2.37876E-18
 -1      1928 9.51992E-05-2.85607E-05-2.85594E-05 2.05954E-08 2.28497E-18-3.05073E-19
 -1      1929 9.52045E-05-2.85624E-05-2.85609E-05 1.97831E-08 2.27577E-18 4.78543E-19
 -1      1930 9.52061E-05-2.85631E-05-2.85613E-05 2.56078E-08 1.26965E-18 2.94305E-18
 -1      1931 9.52075E-05-2.85634E-05-2.85618E-05 1.87282E-08 1.82024E-18 6.95749E-19
 -1      1932 9.52123E-05-2.85649E-05-2.85632E-05 1.77230E-08 2.45753E-18 2.10881E-18
 -1      1933 9.52122E-05-2.85653E-05-2.85629E-05 2.37681E-08 2.32330E-18 1.54337E-18
 -1      1934 9.52152E-05-2.85658E-05-2.85641E-05 1.64338E-08 1.70065E-18 1.66349E-18
 -1      1935 9.52194E-05-2.85672E-05-2.85653E-05 1.52951E-08 1.99920E-18 1.96072E-18
 -1      1936 9.52181E-05-2.85674E-05-2.85646E-05 2.12117E-08 2.12968E-18 1.04642E-18
 -1      1937 9.52220E-05-2.85680E-05-2.85660E-05 1.38290E-08 5.57030E-19 1.74743E-18
 -1      1938 9.52255E-05-2.85692E-05-2.85670E-05 1.25487E-08-9.72042E-19 1.18363E-18
 -1      1939 9.52235E-05-2.85692E-05-2.85661E-05 1.81782E-08 8.17710E-19 3.10526E-19
 -1      1940 9.52278E-05-2.85700E-05-2.85677E-05 1.08975E-08-1.08926E-18 1.23645E-18
 -1      1941 9.52306E-05-2.85710E-05-2.85684E-05 9.41202E-09-6.96884E-19 5.75136E-19
 -1      1942 9.52283E-05-2.85710E-05-2.85674E-05 1.47357E-08-1.58502E-18 1.58754E-18
 -1      1943 9.52322E-05-2.85716E-05-2.85689E-05 7.64494E-09-2.65965E-19 6.15130E-19
 -1      1944 9.52343E-05-2.85723E-05-2.85695E-05 5.98066E-09-5.55277E-20 5.47856E-19
 -1      1945 9.52351E-05-2.85735E-05-2.85693E-05 7.02796E-09-1.39216E-18 1.80596E-18
 -1      1946 9.52322E-05-2.85725E-05-2.85684E-05 1.09603E-08-5.18666E-19 2.23297E-18
 -1      1947 1.11153E-04-3.30568E-05-3.34540E-05-1.83757E-06 9.93391E-19 4.24275E-18
 -1      1948 1.11139E-04-3.27325E-05-3.35498E-05-9.97348E-07 1.02427E-18 4.73004E-18
 -1      1949 1.10414E-04-3.19702E-05-3.36403E-05-5.53003E-07 1.26748E-18 3.59796E-18
 -1      1950 1.12023E-04-3.39099E-05-3.34827E-05-2.00493E-06 6.35327E-19 3.79009E-18
 -1      1951 1.11572E-04-3.35289E-05-3.34121E-05-1.96283E-06 7.64734E-19 4.09677E-18
 -1      1952 1.10828E-04-3.31802E-05-3.32943E-05-2.15455E-06 9.56800E-19 3.31635E-18
 -1      1953 1.12914E-04-3.47470E-05-3.35261E-05-6.76260E-07 3.83064E-19 3.59678E-18
 -1      1954 1.12584E-04-3.44260E-05-3.34901E-05-1.34418E-06 3.17723E-19 3.69949E-18
 -1      1955 1.11862E-04-3.43650E-05-3.32215E-05-1.75588E-06 4.99723E-19 2.75286E-18
 -1      1956 1.13025E-04-3.52514E-05-3.33603E-05 2.01447E-06-2.28633E-20 3.52478E-18
 -1      1957 1.13281E-04-3.51868E-05-3.34823E-05 6.81356E-07 2.30340E-19 3.64246E-18
 -1      1958 1.12860E-04-3.54530E-05-3.31661E-05 4.13136E-07 2.72381E-19 2.65176E-18
 -1      1959 1.11640E-04-3.49277E-05-3.28871E-05 5.51258E-06 2.62607E-19 3.33368E-18
 -1      1960 1.12817E-04-3.53510E-05-3.32216E-05 3.78206E-06-8.22416E-20 3.35577E-18
 -1      1961 1.13070E-04-3.59779E-05-3.30069E-05 3.99458E-06 1.84296E-20 2.54992E-18
 -1      1962 1.08417E-04-3.33297E-05-3.21644E-05 8.46561E-06 4.56988E-19 3.06602E-18
 -1      1963 1.10551E-04-3.43701E-05-3.26713E-05 7.00939E-06 3.87458E-19 3.31347E-18
 -1      1964 1.11770E-04-3.52625E-05-3.27389E-05 7.95410E-06 3.47336E-19 2.34558E-18
 -1      1965 1.03891E-04-3.05774E-05-3.13990E-05 8.94602E-06 8.29778E-19 2.90264E-18
 -1      1966 1.06525E-04-3.20361E-05-3.19390E-05 8.70123E-06 6.19383E-19 3.15139E-18
 -1      1967 1.08715E-04-3.29205E-05-3.24503E-05 1.03596E-05 6.95334E-19 2.42087E-18
 -1      1968 9.97740E-05-2.78024E-05-3.08557E-05 5.64948E-06 2.47797E-19 2.96404E-18
 -1      1969 1.01949E-04-2.90478E-05-3.12399E-05 7.20121E-06 4.70633E-19 2.80529E-18
 -1      1970 1.04760E-04-2.95756E-05-3.22457E-05 9.09041E-06 6.68726E-19 2.57861E-18
 -1      1971 9.83074E-05-2.67176E-05-3.07319E-05-5.80378E-07 3.53491E-19 2.68431E-18
 -1      1972 9.89660E-05-2.70044E-05-3.08091E-05 2.29537E-06 6.12484E-19 2.77638E-18
 -1      1973 1.01898E-04-2.69956E-05-3.21738E-05 3.55333E-06 4.98677E-19 2.39324E-18
 -1      1974 1.00566E-04-2.81683E-05-3.10832E-05-6.70530E-06 7.81388E-20 2.01901E-18
 -1      1975 9.92839E-05-2.72784E-05-3.08113E-05-3.94600E-06 1.66601E-19 2.24575E-18
 -1      1976 1.02007E-04-2.69440E-05-3.22313E-05-4.01920E-06 4.69719E-19 1.61961E-18
 -1      1977 1.05369E-04-3.11952E-05-3.18076E-05-9.75537E-06 1.21407E-18 9.05399E-19
 -1      1978 1.02726E-04-2.96667E-05-3.12775E-05-8.39380E-06 6.48060E-19 1.49475E-18
 -1      1979 1.05110E-04-2.95165E-05-3.24096E-05-9.76020E-06 8.64324E-19 6.39205E-19
 -1      1980 1.10343E-04-3.40459E-05-3.26723E-05-8.99886E-06 1.36702E-18 1.08672E-19
 -1      1981 1.07472E-04-3.26526E-05-3.20674E-05-9.28356E-06 1.10845E-18 5.92857E-19
 -1      1982 1.09342E-04-3.30018E-05-3.26939E-05-1.12363E-05 1.40004E-18 2.60185E-19
 -1      1983 1.13684E-04-3.56262E-05-3.34069E-05-5.80498E-06 4.27163E-19-2.65161E-20
 -1      1984 1.11536E-04-3.48145E-05-3.29145E-05-7.11916E-06 7.94173E-19 2.47360E-20
 -1      1985 1.12642E-04-3.55527E-05-3.30189E-05-8.84896E-06 1.12696E-18-5.37793E-19
 -1      1986 1.14867E-04-3.58762E-05-3.38126E-05-2.07217E-06-3.25711E-20 2.20503E-19
 -1      1987 1.13835E-04-3.56688E-05-3.35481E-05-3.61828E-06 4.00977E-19 6.14019E-19
 -1      1988 1.14054E-04-3.64332E-05-3.32654E-05-4.65541E-06 2.10488E-19-2.70419E-19
 -1      1989 1.14255E-04-3.52677E-05-3.38288E-05 9.52767E-07 7.89481E-19-2.57677E-19
 -1      1990 1.14262E-04-3.54766E-05-3.38109E-05-3.11455E-07 3.32659E-19 8.10488E-20
 -1      1991 1.13713E-04-3.59840E-05-3.33243E-05-5.78197E-07 7.84505E-19 4.18883E-19
 -1      1992 1.12493E-04-3.42833E-05-3.35120E-05 2.85776E-06 7.33143E-19 4.75999E-19
 -1      1993 1.13240E-04-3.47061E-05-3.36914E-05 2.04869E-06 9.91174E-19 4.17660E-20
 -1      1994 1.12207E-04-3.48772E-05-3.31551E-05 2.39792E-06 9.08271E-19-9.65783E-20
 -1      1995 1.10166E-04-3.32336E-05-3.29747E-05 3.74945E-06-7.99887E-19-3.64092E-19
 -1      1996 1.11327E-04-3.37267E-05-3.32768E-05 3.35666E-06-3.61478E-20 7.11309E-20
 -1      1997 1.10105E-04-3.36255E-05-3.27872E-05 4.09633E-06 2.30909E-19 2.91909E-19
 -1      1998 1.07693E-04-3.22689E-05-3.23321E-05 3.92268E-06-6.03778E-19-9.40769E-20
 -1      1999 1.09004E-04-3.27506E-05-3.26877E-05 3.82857E-06-1.02627E-18-5.64256E-19
 -1      2000 1.07814E-04-3.24880E-05-3.22887E-05 4.75468E-06-7.63356E-19-5.50217E-19
 -1      2001 1.05330E-04-3.14426E-05-3.16739E-05 3.66908E-06-8.54674E-19 1.82903E-19
 -1      2002 1.06619E-04-3.18739E-05-3.20323E-05 3.75538E-06-6.85158E-19-1.64116E-19
 -1      2003 1.05584E-04-3.15479E-05-3.17327E-05 4.71909E-06-6.92174E-19-3.34520E-19
 -1      2004 1.03214E-04-3.07612E-05-3.10580E-05 3.20741E-06 5.55849E-19 1.87264E-19
 -1      2005 1.04383E-04-3.11280E-05-3.13884E-05 3.38427E-06-6.82771E-20 1.95134E-19
 -1      2006 1.03550E-04-3.08040E-05-3.11785E-05 4.29272E-06-2.80886E-19 1.35449E-19
 -1      2007 1.01403E-04-3.02129E-05-3.05149E-05 2.67854E-06-3.30209E-19-7.92381E-20
 -1      2008 1.02408E-04-3.05140E-05-3.08024E-05 2.88736E-06 2.46981E-19 5.68852E-20
 -1      2009 1.01776E-04-3.02268E-05-3.06651E-05 3.69180E-06 2.89579E-19 9.99238E-20
 -1      2010 9.99025E-05-2.97796E-05-3.00561E-05 2.16283E-06-8.68397E-19 3.98209E-19
 -1      2011 1.00734E-04-3.00203E-05-3.02960E-05 2.36965E-06-9.75276E-19-2.10558E-19
 -1      2012 1.00279E-04-2.97833E-05-3.02135E-05 3.05150E-06-5.83685E-19-1.46703E-19
 -1      2013 9.86928E-05-2.94426E-05-2.96808E-05 1.70020E-06 2.56545E-19 6.29764E-19
 -1      2014 9.93610E-05-2.96309E-05-2.98748E-05 1.88771E-06-4.27533E-19 5.86372E-19
 -1      2015 9.90486E-05-2.94449E-05-2.98315E-05 2.44691E-06-6.85048E-19 2.35109E-19
 -1      2016 9.77393E-05-2.91848E-05-2.93817E-05 1.30601E-06 1.28636E-18-2.60145E-20
 -1      2017 9.82631E-05-2.93291E-05-2.95346E-05 1.46711E-06 1.16888E-18 3.43910E-19
 -1      2018 9.80604E-05-2.91887E-05-2.95180E-05 1.91373E-06 1.20405E-18-3.87880E-19
 -1      2019 9.70032E-05-2.89906E-05-2.91487E-05 9.81879E-07 1.03566E-18-5.25181E-19
 -1      2020 9.74048E-05-2.90991E-05-2.92666E-05 1.11531E-06 1.12790E-18-5.09512E-19
 -1      2021 9.72828E-05-2.89967E-05-2.92671E-05 1.46396E-06 1.35611E-18-2.94688E-19
 -1      2022 9.64460E-05-2.88470E-05-2.89711E-05 7.22486E-07-1.59447E-19-1.12188E-18
 -1      2023 9.67476E-05-2.89270E-05-2.90600E-05 8.29980E-07 2.35330E-19-5.58042E-19
 -1      2024 9.66826E-05-2.88547E-05-2.90707E-05 1.09653E-06 3.01195E-19-9.36608E-19
 -1      2025 9.60327E-05-2.87430E-05-2.88383E-05 5.19507E-07 6.99665E-19-8.76689E-19
 -1      2026 9.62545E-05-2.88006E-05-2.89040E-05 6.04166E-07 3.50996E-19-5.56859E-19
 -1      2027 9.62282E-05-2.87515E-05-2.89201E-05 8.03830E-07 3.14157E-19-7.35955E-19
 -1      2028 9.57328E-05-2.86694E-05-2.87411E-05 3.63839E-07 1.67001E-19-4.07382E-19
 -1      2029 9.58921E-05-2.87099E-05-2.87886E-05 4.29186E-07 2.04300E-19-6.42736E-19
 -1      2030 9.58909E-05-2.86779E-05-2.88069E-05 5.75620E-07 4.72114E-19-1.65803E-19
 -1      2031 9.55204E-05-2.86187E-05-2.86717E-05 2.46748E-07-1.21798E-18-1.11903E-18
 -1      2032 9.56318E-05-2.86463E-05-2.87051E-05 2.96233E-07-9.41614E-19-8.80735E-19
 -1      2033 9.56457E-05-2.86268E-05-2.87236E-05 4.01164E-07-4.66146E-19-3.32406E-19
 -1      2034 9.53743E-05-2.85852E-05-2.86235E-05 1.60411E-07 1.25376E-20-1.48836E-18
 -1      2035 9.54498E-05-2.86033E-05-2.86463E-05 1.97165E-07-4.87719E-19-1.15524E-18
 -1      2036 9.54719E-05-2.85925E-05-2.86636E-05 2.70353E-07-4.73259E-19-7.05021E-19
 -1      2037 9.52776E-05-2.85641E-05-2.85911E-05 9.81118E-08 5.44353E-19 1.54489E-19
 -1      2038 9.53266E-05-2.85753E-05-2.86061E-05 1.24851E-07-2.01776E-19-1.01106E-18
 -1      2039 9.53522E-05-2.85704E-05-2.86216E-05 1.74219E-07-2.68405E-19-8.17869E-19
 -1      2040 9.52169E-05-2.85519E-05-2.85704E-05 5.42559E-08-5.91211E-19 8.49114E-19
 -1      2041 9.52467E-05-2.85582E-05-2.85796E-05 7.32608E-08 5.51359E-19 1.14637E-18
 -1      2042 9.52728E-05-2.85572E-05-2.85931E-05 1.05108E-07-3.31099E-19 7.15203E-19
 -1      2043 9.51818E-05-2.85458E-05-2.85580E-05 2.42917E-08 3.48103E-19 7.36510E-19
 -1      2044 9.51982E-05-2.85487E-05-2.85632E-05 3.74330E-08-3.22437E-19 5.45539E-19
 -1      2045 9.52228E-05-2.85501E-05-2.85745E-05 5.66724E-08 4.53591E-20 1.60167E-18
 -1      2046 9.51644E-05-2.85438E-05-2.85514E-05 4.58918E-09 7.08400E-19 9.00353E-19
 -1      2047 9.51716E-05-2.85445E-05-2.85539E-05 1.33688E-08 1.02939E-18 9.21635E-19
 -1      2048 9.51937E-05-2.85472E-05-2.85632E-05 2.37617E-08 6.63546E-19 2.27725E-18
 -1      2049 9.51588E-05-2.85444E-05-2.85488E-05-7.69449E-09-1.53306E-18-4.01907E-19
 -1      2050 9.51600E-05-2.85437E-05-2.85494E-05-2.09263E-09-6.22384E-19 2.49582E-19
 -1      2051 9.51792E-05-2.85471E-05-2.85569E-05 2.28106E-09 1.83254E-19 1.93102E-18
 -1      2052 9.51609E-05-2.85466E-05-2.85488E-05-1.47460E-08-6.12740E-19 8.22658E-19
 -1      2053 9.51583E-05-2.85451E-05-2.85483E-05-1.14051E-08-1.38780E-18-2.29993E-19
 -1      2054 9.51745E-05-2.85486E-05-2.85542E-05-1.09673E-08-1.29578E-18 7.86128E-19
 -1      2055 9.51675E-05-2.85496E-05-2.85504E-05-1.82156E-08-1.34273E-18 2.33139E-18
 -1      2056 9.51627E-05-2.85477E-05-2.85491E-05-1.64392E-08-1.03661E-18 1.12180E-18
 -1      2057 9.51760E-05-2.85511E-05-2.85537E-05-1.84351E-08-1.52431E-18 1.36451E-18
 -1      2058 9.51764E-05-2.85530E-05-2.85528E-05-1.93222E-08 2.06903E-19 3.01986E-18
 -1      2059 9.51706E-05-2.85509E-05-2.85512E-05-1.85920E-08 2.41043E-19 3.01831E-18
 -1      2060 9.51812E-05-2.85539E-05-2.85547E-05-2.19653E-08-6.36809E-19 2.38227E-18
 -1      2061 9.51864E-05-2.85564E-05-2.85556E-05-1.89408E-08-1.81940E-18 5.06988E-19
 -1      2062 9.51803E-05-2.85543E-05-2.85539E-05-1.88823E-08-9.43094E-19 1.71899E-18
 -1      2063 9.51885E-05-2.85569E-05-2.85565E-05-2.29110E-08-1.29673E-19 2.64710E-18
 -1      2064 9.51964E-05-2.85596E-05-2.85586E-05-1.76744E-08 4.26244E-19 2.29594E-18
 -1      2065 9.51904E-05-2.85577E-05-2.85569E-05-1.80275E-08-1.23864E-18 1.10717E-18
 -1      2066 9.51966E-05-2.85598E-05-2.85587E-05-2.22351E-08-1.52721E-18 2.06760E-18
 -1      2067 9.52059E-05-2.85626E-05-2.85614E-05-1.59078E-08 2.31036E-18 1.95189E-18
 -1      2068 9.52003E-05-2.85608E-05-2.85598E-05-1.65062E-08 1.68850E-18 3.16755E-18
 -1      2069 9.52048E-05-2.85625E-05-2.85610E-05-2.05897E-08 1.42913E-18 3.03709E-18
 -1      2070 9.52145E-05-2.85652E-05-2.85639E-05-1.38495E-08 1.22231E-18 1.54377E-18
 -1      2071 9.52095E-05-2.85637E-05-2.85625E-05-1.46040E-08 1.74863E-18 1.81490E-18
 -1      2072 9.52125E-05-2.85650E-05-2.85633E-05-1.83770E-08 1.95635E-18 3.44754E-18
 -1      2073 9.52219E-05-2.85675E-05-2.85662E-05-1.15582E-08 1.59831E-18 4.35495E-19
 -1      2074 9.52177E-05-2.85662E-05-2.85650E-05-1.24495E-08 1.22313E-18 1.17286E-18
 -1      2075 9.52195E-05-2.85672E-05-2.85653E-05-1.57991E-08 1.96014E-18 2.37117E-18
 -1      2076 9.52281E-05-2.85695E-05-2.85680E-05-8.97367E-09 9.24563E-20 6.12810E-20
 -1      2077 9.52247E-05-2.85684E-05-2.85670E-05-1.00393E-08 1.36822E-18 2.72567E-19
 -1      2078 9.52256E-05-2.85692E-05-2.85670E-05-1.28888E-08 1.30675E-18 1.38288E-18
 -1      2079 9.52328E-05-2.85712E-05-2.85693E-05-5.98251E-09-8.99085E-21 5.76590E-20
 -1      2080 9.52303E-05-2.85703E-05-2.85686E-05-7.29400E-09 3.23384E-19 5.34725E-19
 -1      2081 9.52306E-05-2.85710E-05-2.85684E-05-9.59031E-09 7.05038E-19 1.94219E-18
 -1      2082 9.52356E-05-2.85722E-05-2.85700E-05-3.46372E-09-8.10591E-19 9.05380E-19
 -1      2083 9.52339E-05-2.85717E-05-2.85696E-05-4.95170E-09-5.06985E-19 3.43196E-20
 -1      2084 9.52340E-05-2.85723E-05-2.85693E-05-6.67633E-09-2.15753E-19 8.33918E-19
 -1      2085 9.52360E-05-2.85731E-05-2.85698E-05-4.35145E-09-9.38128E-19 1.65190E-18
 -1      2086 9.52415E-05-2.85852E-05-2.85669E-05-9.93180E-09 1.43752E-18 2.46551E-18
 -1      2087 9.52403E-05-2.85826E-05-2.85676E-05-9.84312E-09 8.71877E-19 2.11852E-18
 -1      2088 9.52392E-05-2.85804E-05-2.85680E-05-9.37321E-09 8.62546E-19 1.72329E-19
 -1      2089 9.52380E-05-2.85780E-05-2.85686E-05-8.55006E-09 8.50116E-19-3.78837E-19
 -1      2090 9.52393E-05-2.85809E-05-2.85679E-05-1.21537E-08 8.92165E-19 1.15402E-18
 -1      2091 9.52373E-05-2.85765E-05-2.85690E-05-7.33718E-09 5.73186E-19 1.09548E-18
 -1      2092 9.52365E-05-2.85745E-05-2.85694E-05-5.93519E-09-4.11380E-19 2.04297E-18
 -1      2093 9.52356E-05-2.85742E-05-2.85692E-05-7.21650E-09-5.38502E-19 1.55146E-18
 -1      2094 9.52372E-05-2.85772E-05-2.85686E-05-1.02323E-08 1.34510E-19 1.17993E-18
 -1      2095 9.52435E-05-2.85896E-05-2.85659E-05-9.09056E-09 7.44394E-20-1.25350E-18
 -1      2096 9.52424E-05-2.85872E-05-2.85665E-05-9.60317E-09 6.50535E-19 1.00443E-18
 -1      2097 9.52418E-05-2.85853E-05-2.85671E-05-1.22655E-08 2.23255E-19 8.63816E-19
 -1      2098 9.52451E-05-2.85933E-05-2.85650E-05-7.08257E-09 1.02437E-20 2.73755E-19
 -1      2099 9.52443E-05-2.85914E-05-2.85655E-05-8.08040E-09-2.37497E-19 5.80070E-19
 -1      2100 9.52440E-05-2.85892E-05-2.85664E-05-1.07541E-08-1.57331E-19-4.38227E-19
 -1      2101 9.52462E-05-2.85959E-05-2.85644E-05-4.24202E-09 8.60821E-19 7.93695E-19
 -1      2102 9.52457E-05-2.85946E-05-2.85647E-05-5.56444E-09 9.31401E-19 1.05985E-18
 -1      2103 9.52456E-05-2.85923E-05-2.85658E-05-7.91388E-09 6.59907E-19 1.01071E-18
 -1      2104 9.52467E-05-2.85970E-05-2.85641E-05-9.31459E-10 4.77053E-19 9.33209E-19
 -1      2105 9.52465E-05-2.85965E-05-2.85642E-05-2.41584E-09 2.35838E-19 4.26532E-19
 -1      2106 9.52467E-05-2.85942E-05-2.85654E-05-4.16455E-09 5.97396E-19 5.65195E-19
 -1      2107 9.52465E-05-2.85965E-05-2.85642E-05 2.47859E-09 1.71853E-18 4.48790E-19
 -1      2108 9.52467E-05-2.85970E-05-2.85641E-05 9.96148E-10 9.05025E-19 1.51385E-18
 -1      2109 9.52470E-05-2.85949E-05-2.85652E-05 4.07007E-11-7.73890E-19 1.69354E-18
 -1      2110 9.52457E-05-2.85946E-05-2.85647E-05 5.61666E-09-5.44343E-19-2.94410E-18
 -1      2111 9.52462E-05-2.85958E-05-2.85644E-05 4.30046E-09 5.69232E-19-1.64531E-18
 -1      2112 9.52467E-05-2.85942E-05-2.85654E-05 4.24103E-09-3.85818E-19-1.33963E-18
 -1      2113 9.52443E-05-2.85914E-05-2.85655E-05 8.07958E-09 2.26482E-19-2.26106E-18
 -1      2114 9.52451E-05-2.85933E-05-2.85650E-05 7.10399E-09-3.01194E-19-1.72309E-18
 -1      2115 9.52456E-05-2.85922E-05-2.85658E-05 7.94936E-09-8.84617E-20-2.37009E-18
 -1      2116 9.52424E-05-2.85872E-05-2.85665E-05 9.60604E-09 1.20837E-18 9.20507E-19
 -1      2117 9.52435E-05-2.85896E-05-2.85659E-05 9.09040E-09 8.34711E-19 2.17239E-19
 -1      2118 9.52440E-05-2.85891E-05-2.85664E-05 1.07543E-08 9.31624E-19-1.44662E-18
 -1      2119 9.52402E-05-2.85825E-05-2.85676E-05 9.83107E-09 7.61821E-19-5.37324E-19
 -1      2120 9.52414E-05-2.85851E-05-2.85670E-05 9.93159E-09 1.41686E-18-3.94963E-19
 -1      2121 9.52418E-05-2.85852E-05-2.85671E-05 1.22683E-08 1.58631E-18 5.78100E-19
 -1      2122 9.52379E-05-2.85779E-05-2.85686E-05 8.56801E-09-7.76742E-19 1.65594E-19
 -1      2123 9.52392E-05-2.85804E-05-2.85681E-05 9.34672E-09 2.38007E-19 3.34552E-20
 -1      2124 9.52393E-05-2.85809E-05-2.85679E-05 1.21167E-08 6.78948E-19-2.27536E-19
 -1      2125 5.67801E-05-4.02057E-05-7.67048E-06 3.97804E-05 1.06811E-18 3.09363E-18
 -1      2126 3.94729E-05-4.01244E-05-1.07875E-06 3.08307E-05 7.24637E-19 4.42712E-18
 -1      2127 1.28309E-05-3.28039E-05 7.32844E-06 4.86393E-06 8.93832E-19 3.95522E-18
 -1      2128 1.20079E-05-3.02644E-05 6.88497E-06-4.94731E-06-3.36484E-19 5.64039E-18
 -1      2129 2.36071E-05-3.35567E-05 3.33620E-06 2.35290E-05 1.33492E-18 4.29170E-18
 -1      2130 1.68896E-05-3.52699E-05 6.47066E-06 1.39039E-05 6.47980E-19 3.19670E-18
 -1      2131 1.75932E-05-2.37356E-05 2.12559E-06 1.21903E-05-5.85406E-19 4.00689E-18
 -1      2132 9.70607E-05-4.40326E-05-2.26085E-05 4.19738E-05 3.55457E-18 2.13368E-18
 -1      2133 7.99110E-05-4.61647E-05-1.49283E-05 3.95517E-05 2.29969E-18 2.14977E-18
 -1      2134 1.32958E-04-4.28518E-05-3.80529E-05 3.56387E-05 3.89127E-18 2.03966E-18
 -1      2135 1.12426E-04-4.45466E-05-2.96994E-05 3.49171E-05 3.98148E-18 2.30562E-18
 -1      2136 8.74914E-05-8.75451E-06-3.38547E-05-3.85816E-06-6.56987E-19-2.80728E-18
 -1      2137 9.03032E-05-9.85558E-06-3.45448E-05-5.51078E-06-8.88802E-19-2.61114E-18
 -1      2138 9.40838E-05-1.42965E-05-3.42475E-05-5.33762E-06-1.03836E-18-2.31814E-18
 -1      2139 8.77462E-05-1.05922E-05-3.31055E-05-2.58187E-06-6.10949E-19-2.66596E-18
 -1      2140 1.78740E-04-2.99610E-05-6.25763E-05 9.52585E-06 4.36624E-18-1.68983E-19
 -1      2141 1.67453E-04-3.09051E-05-5.79971E-05 1.50809E-05 4.71586E-18 6.86944E-19
 -1      2142 1.83036E-04-2.46445E-05-6.68264E-05-3.97055E-07 3.98995E-18-1.27471E-18
 -1      2143 1.81476E-04-2.56487E-05-6.56510E-05 6.84934E-06 3.90355E-18-3.18696E-19
 -1      2144 1.72985E-04-2.36268E-05-6.34542E-05-7.26117E-06 3.82944E-18-2.10509E-18
 -1      2145 1.82443E-04-2.46338E-05-6.62472E-05-2.40635E-06 4.07677E-18-1.32317E-18
 -1      2146 1.59160E-04-3.46459E-05-5.31640E-05-1.65433E-05 3.72546E-18-2.69738E-18
 -1      2147 1.68705E-04-3.15245E-05-5.83200E-05-8.86669E-06 3.33604E-18-1.89142E-18
 -1      2148 1.37129E-04-4.12294E-05-4.13606E-05-2.73867E-05 3.46479E-18-3.45971E-18
 -1      2149 1.55645E-04-4.04876E-05-4.87596E-05-2.48695E-05 3.51148E-18-3.03704E-18
 -1      2150 1.53405E-04-4.03688E-05-4.77362E-05-3.05220E-06 2.42029E-18-4.48927E-19
 -1      2151 9.91885E-05-4.29323E-05-2.50210E-05-3.74448E-05 2.88415E-18-4.73618E-18
 -1      2152 1.20732E-04-4.19385E-05-3.35322E-05-4.01329E-05 3.42964E-18-4.27582E-18
 -1      2153 6.33901E-05-4.21649E-05-1.04083E-05-3.68676E-05 1.91684E-18-4.70294E-18
 -1      2154 8.09985E-05-4.02439E-05-1.77055E-05-4.26942E-05 2.72363E-18-5.45489E-18
 -1      2155 3.48811E-05-3.76648E-05-9.09706E-08-2.93980E-05 3.72271E-19-4.64111E-18
 -1      2156 4.73020E-05-3.69259E-05-5.13811E-06-3.65485E-05 1.66146E-18-4.64153E-18
 -1      2157 1.46230E-05-3.21709E-05 6.18247E-06-1.17495E-05-8.85361E-19-4.94159E-18
 -1      2158 2.09408E-05-3.25767E-05 3.84577E-06-2.12610E-05 4.23093E-19-5.16902E-18
 -1      2159 1.32695E-05-3.19205E-05 6.65747E-06 1.07537E-05-2.27068E-18-4.46725E-18
 -1      2160 1.10978E-05-3.11966E-05 7.28522E-06 6.88609E-07-9.46136E-19-4.76880E-18
 -1      2161 3.23527E-05-3.28074E-05-4.43344E-07 3.13372E-05-2.70288E-18-3.77120E-18
 -1      2162 2.23236E-05-3.37493E-05 3.65386E-06 2.12963E-05-1.90159E-18-3.89318E-18
 -1      2163 6.38266E-05-3.83406E-05-1.14410E-05 4.11059E-05-4.21822E-18-3.30438E-18
 -1      2164 4.86413E-05-3.99506E-05-4.97756E-06 3.51896E-05-3.32164E-18-3.33842E-18
 -1      2165 1.03726E-04-4.17097E-05-2.64038E-05 4.28190E-05-4.35078E-18-2.77319E-18
 -1      2166 8.36461E-05-4.33632E-05-1.82598E-05 3.85947E-05-4.05390E-18-2.91845E-18
 -1      2167 1.40867E-04-3.91058E-05-4.29301E-05 3.61685E-05-4.19980E-18-3.13656E-18
 -1      2168 1.18476E-04-3.96448E-05-3.42504E-05 3.58014E-05-4.59600E-18-3.21661E-18
 -1      2169 1.66051E-04-3.46858E-05-5.56833E-05 1.74543E-05-3.73859E-18-1.71312E-18
 -1      2170 1.51669E-04-3.59470E-05-4.92971E-05 2.43609E-05-4.04739E-18-2.53390E-18
 -1      2171 1.74814E-04-2.45630E-05-6.35686E-05 4.46696E-06-3.88153E-18-7.97482E-19
 -1      2172 1.67506E-04-2.63340E-05-6.00698E-05 9.49102E-06-3.93955E-18-1.54414E-18
 -1      2173 1.81540E-04-2.39838E-05-6.62858E-05-3.14165E-06-3.71382E-18-2.83015E-19
 -1      2174 1.76923E-04-2.17660E-05-6.58146E-05 3.52117E-06-3.76083E-18-1.19008E-18
 -1      2175 1.75732E-04-2.67208E-05-6.28802E-05-1.21970E-05-3.69349E-18 3.92600E-19
 -1      2176 1.82954E-04-2.68558E-05-6.56612E-05-5.57511E-06-3.76167E-18-4.03188E-19
 -1      2177 1.60385E-04-1.42868E-05-6.14088E-05 1.08927E-06-3.91329E-18-9.34277E-19
 -1      2178 1.59249E-04-3.32912E-05-5.35283E-05-2.26568E-05-3.10750E-18 7.66565E-19
 -1      2179 1.73151E-04-3.27403E-05-5.88803E-05-1.81203E-05-3.26870E-18 5.27702E-19
 -1      2180 1.33710E-04-3.86261E-05-4.08845E-05-3.21883E-05-3.26997E-18 1.60767E-18
 -1      2181 1.52051E-04-3.78644E-05-4.79317E-05-3.09093E-05-3.24424E-18 1.24937E-18
 -1      2182 1.03639E-04-4.35278E-05-2.64685E-05-3.72483E-05-2.38440E-18 2.43268E-18
 -1      2183 1.22325E-04-4.18863E-05-3.40018E-05-3.90378E-05-2.55846E-18 1.63816E-18
 -1      2184 6.96939E-05-4.32103E-05-1.24689E-05-3.80827E-05-1.37685E-18 3.28977E-18
 -1      2185 8.65151E-05-4.07853E-05-1.96970E-05-4.27836E-05-2.20398E-18 3.25218E-18
 -1      2186 3.94730E-05-3.99809E-05-1.07728E-06-3.15262E-05-7.34378E-19 2.52448E-18
 -1      2187 5.30542E-05-3.84852E-05-6.67778E-06-3.90355E-05-1.22693E-18 3.25774E-18
 -1      2188 1.89032E-05-3.37064E-05 5.25403E-06-1.85028E-05 1.21973E-19 4.94837E-18
 -1      2189 2.71071E-05-3.48882E-05 2.43944E-06-2.64096E-05-1.00373E-18 3.43747E-18
 -1      2190 4.11647E-05-3.41243E-05-3.40329E-06-3.58230E-05 1.02555E-18 2.31642E-18
 -1      2191 1.63476E-04-3.73966E-05-5.29682E-05 2.33109E-05 4.18580E-18 1.01602E-18
 -1      2192 1.44754E-04-3.87500E-05-4.54869E-05 2.55422E-05 4.17015E-18 1.67967E-18
 -1      2193 1.44562E-04-4.88077E-05-4.05398E-05 1.82178E-05 3.01459E-18 1.03762E-19
 -1      2194 1.09099E-04-2.82586E-05-3.47261E-05-5.68679E-06-1.55161E-18-1.79730E-20
 -1      2195 1.58061E-04-3.41953E-05-5.21909E-05 3.08457E-06 4.06745E-18 1.35525E-20
 -1      2196 1.07038E-04-2.68268E-05-3.44562E-05-5.35465E-06-1.60206E-18-6.92277E-19
 -1      2197 3.80558E-05-3.24528E-05-2.58814E-06 3.30436E-05-5.47395E-19 3.87581E-18
 -1      2198 9.30049E-05-5.24235E-05-1.78367E-05 4.01711E-05-8.42374E-19 1.12992E-18
 -1      2199 7.48436E-05-4.61598E-05-1.25574E-05 4.05852E-05 6.19181E-19 1.82925E-18
 -1      2200 7.16405E-05-4.32938E-05-1.15198E-05 4.24406E-05-1.18648E-18 1.71503E-18
 -1      2201 9.52371E-05-2.85763E-05-2.85689E-05 8.29377E-09-8.81422E-19 1.37492E-19
 -1      2202 1.93845E-05-2.45198E-05 1.79743E-06-1.44102E-05 2.40346E-19 5.44939E-18
 -1      2203 1.17017E-04-5.46115E-05-2.68250E-05 3.34923E-05 2.02102E-18 1.18076E-18
 -1      2204 7.24944E-05-4.57910E-05-1.17544E-05-4.20527E-05 5.85723E-19 2.03621E-18
 -1      2205 1.08179E-04-5.25340E-05-2.38487E-05-3.75148E-05-3.26531E-19 1.24810E-18
 -1      2206 1.36358E-04-5.01388E-05-3.65375E-05-2.45788E-05-1.17695E-18 6.14099E-20
 -1      2207 1.61794E-04-2.51989E-05-5.74989E-05-1.80441E-06-3.37860E-18-6.94991E-19
 -1      2208 1.56767E-04-1.46942E-05-6.01304E-05-1.94327E-06-3.75405E-18-3.73965E-19
 -1      2209 1.56182E-04-2.82487E-05-5.40604E-05 7.12412E-07-3.73393E-18-3.30555E-19
 -1      2210 1.48297E-04-4.38344E-05-4.39846E-05 1.61888E-05-3.29819E-18-1.13884E-18
 -1      2211 1.23177E-04-5.22332E-05-3.03492E-05 3.21104E-05-2.62644E-18-1.40396E-18
 -1      2212 8.76560E-05-4.86187E-05-1.68626E-05 4.23620E-05-1.85881E-18-1.76903E-18
 -1      2213 4.86541E-05-3.61914E-05-5.82675E-06 3.82739E-05-7.84353E-19-3.06965E-18
 -1      2214 2.11683E-05-2.44062E-05 9.08017E-07 2.05972E-05-6.10711E-19-4.33046E-18
 -1      2215 1.50703E-05-2.33578E-05 2.88722E-06-7.05380E-06-4.96202E-19-5.37146E-18
 -1      2216 3.41591E-05-3.06995E-05-1.96644E-06-3.13015E-05-4.41728E-19-5.14573E-18
 -1      2217 6.69831E-05-4.32925E-05-1.05474E-05-4.15661E-05-1.03762E-19-4.32717E-18
 -1      2218 1.38558E-04-5.14630E-05-3.68737E-05-2.25753E-05 1.47490E-18-1.70084E-18
 -1      2219 1.57834E-04-2.36349E-05-5.67607E-05 3.08943E-06 3.34705E-18-4.06364E-19
 -1      2220 1.61270E-04-1.93981E-05-5.96139E-05-2.70134E-06 4.78108E-18-3.54695E-19
 -1      2221 1.61621E-04-1.41041E-05-6.19893E-05 6.56800E-08 4.26312E-18-6.28843E-19
 -1      2222 1.03787E-04-5.15811E-05-2.24204E-05-3.86487E-05 6.67038E-19-3.56791E-18
 -1      2223 1.54137E-04-3.92287E-05-4.83977E-05-1.19289E-05-2.45600E-18-7.19978E-19
 -1      2224 1.08748E-04-3.10061E-05-3.33179E-05-1.24353E-06 1.22769E-18 2.47453E-18
 -1      2225 1.08736E-04-3.00253E-05-3.36570E-05 3.08527E-07 1.38438E-18 2.69236E-18
 -1      2226 7.66155E-05-5.70531E-06-3.04420E-05 1.87398E-06 4.35013E-19-2.52671E-18
 -1      2227 7.89128E-05-6.91494E-06-3.08465E-05 1.49879E-06 1.99605E-19-2.63697E-18
 -1      2228 8.16950E-05-8.78970E-06-3.13024E-05 1.07808E-06 1.17642E-20-2.62377E-18
 -1      2229 8.45271E-05-1.02923E-05-3.18188E-05 2.20453E-07-2.48066E-19-2.57786E-18
 -1      2230 8.12452E-05-9.76012E-06-3.06425E-05 2.32766E-06 1.54661E-19-2.41841E-18
 -1      2231 7.19906E-05-2.68648E-06-2.97228E-05 6.89742E-07 1.14966E-18-2.35781E-18
 -1      2232 7.22234E-05-2.83274E-06-2.97479E-05 9.79469E-07 9.59783E-19-2.40578E-18
 -1      2233 7.34452E-05-3.45421E-06-2.99992E-05-3.07210E-07 1.38362E-18-2.30660E-18
 -1      2234 7.24194E-05-2.94378E-06-2.98052E-05-8.23333E-08 1.22354E-18-2.34847E-18
 -1      2235 7.23600E-05-3.85955E-06-2.93289E-05 1.80789E-07 1.14914E-18-2.24451E-18
 -1      2236 7.72189E-05-5.65412E-06-3.06651E-05-7.03040E-07 1.59629E-18-1.99918E-18
 -1      2237 7.51424E-05-4.58989E-06-3.02849E-05-8.05820E-07 1.44235E-18-2.21553E-18
 -1      2238 7.46116E-05-5.26355E-06-2.97009E-05-1.17368E-06 1.29141E-18-2.10265E-18
 -1      2239 8.28412E-05-9.00063E-06-3.16483E-05-1.11252E-07 1.91645E-18-1.37034E-18
 -1      2240 7.99416E-05-7.47342E-06-3.11184E-05-6.84176E-07 1.70363E-18-1.72525E-18
 -1      2241 7.92667E-05-8.21957E-06-3.04456E-05-1.69104E-06 1.56937E-18-1.72231E-18
 -1      2242 8.95885E-05-1.31231E-05-3.28006E-05 1.47935E-06 2.07458E-18-6.83039E-19
 -1      2243 8.61958E-05-1.12285E-05-3.21968E-05 4.64956E-07 1.90965E-18-1.10098E-18
 -1      2244 8.56207E-05-1.22470E-05-3.14528E-05-1.08722E-06 1.78349E-18-1.17427E-18
 -1      2245 9.70159E-05-1.79798E-05-3.39548E-05 3.63804E-06 2.13135E-18 4.07324E-19
 -1      2246 9.32856E-05-1.56275E-05-3.33559E-05 2.39919E-06 2.04446E-18-2.36190E-19
 -1      2247 9.28555E-05-1.68972E-05-3.25543E-05 3.89317E-07 1.90799E-18-3.74534E-19
 -1      2248 1.09730E-04-3.29548E-05-3.29226E-05-2.70540E-06 9.43302E-19 2.20841E-18
 -1      2249 1.09325E-04-3.20751E-05-3.30286E-05-2.35017E-06 1.11582E-18 2.46122E-18
 -1      2250 1.07159E-04-3.03866E-05-3.29366E-05-1.91726E-06 1.24811E-18 1.62073E-18
 -1      2251 1.06577E-04-2.91660E-05-3.31120E-05-1.07193E-06-1.09739E-18-7.45174E-19
 -1      2252 1.06676E-04-3.04436E-05-3.27059E-05 3.83168E-07-9.73046E-19-6.73973E-19
 -1      2253 1.49797E-04-3.11010E-05-5.14367E-05-6.23837E-06 3.95649E-18-7.30989E-19
 -1      2254 1.48905E-04-3.94817E-05-4.70604E-05-2.20295E-06 3.19437E-18-6.11134E-19
 -1      2255 1.07530E-04-3.17972E-05-3.23810E-05 1.19233E-06-9.41461E-19-4.72072E-19
 -1      2256 1.07868E-04-3.28641E-05-3.21820E-05 1.40525E-06-7.32896E-19-5.97597E-19
 -1      2257 1.05575E-04-3.01949E-05-3.23368E-05 9.55964E-07-9.59539E-19-9.94230E-19
 -1      2258 1.08955E-04-3.41106E-05-3.20136E-05 1.20046E-06-6.48656E-19-4.80054E-19
 -1      2259 1.09404E-04-3.50697E-05-3.19113E-05 4.41216E-07-5.95606E-19-6.06538E-19
 -1      2260 1.07555E-04-3.34194E-05-3.18139E-05 1.80948E-06-7.41677E-19-7.12775E-19
 -1      2261 1.10704E-04-3.62095E-05-3.18814E-05-7.85125E-07-4.38699E-19-5.33402E-19
 -1      2262 1.10979E-04-3.68309E-05-3.18395E-05-2.31198E-06-3.25833E-19-3.26356E-19
 -1      2263 1.10033E-04-3.63741E-05-3.16048E-05 5.20886E-07-5.11275E-19-6.75404E-19
 -1      2264 1.12134E-04-3.74931E-05-3.19741E-05-4.37588E-06-2.94936E-19-1.93406E-19
 -1      2265 1.11881E-04-3.73174E-05-3.19999E-05-6.24454E-06-3.44213E-19-1.06305E-19
 -1      2266 1.12599E-04-3.85683E-05-3.17417E-05-2.76314E-06-3.46107E-19-3.70827E-19
 -1      2267 1.12273E-04-3.69000E-05-3.23372E-05-8.51556E-06-5.18232E-19-2.44705E-20
 -1      2268 1.11245E-04-3.55056E-05-3.24532E-05-9.91396E-06-6.08584E-19-2.98665E-19
 -1      2269 1.14247E-04-3.87925E-05-3.23143E-05-7.31235E-06-4.64159E-19-5.76880E-20
 -1      2270 1.10364E-04-3.36287E-05-3.29786E-05-1.11639E-05-6.23832E-19-4.36725E-19
 -1      2271 1.08717E-04-3.11610E-05-3.31719E-05-1.10500E-05-6.45916E-19-7.31066E-19
 -1      2272 1.13773E-04-3.58305E-05-3.33613E-05-1.12669E-05-8.47445E-19-3.15417E-19
 -1      2273 1.06864E-04-2.83999E-05-3.37346E-05-9.88422E-06-9.27809E-19-9.99214E-19
 -1      2274 1.05366E-04-2.60375E-05-3.39215E-05-7.64144E-06-1.48059E-18-1.17855E-18
 -1      2275 1.10873E-04-2.99152E-05-3.46904E-05-1.17200E-05-9.94734E-19-8.07222E-19
 -1      2276 1.03968E-04-2.41406E-05-3.42640E-05-3.89015E-06-1.50640E-18-1.31977E-18
 -1      2277 1.03553E-04-2.34398E-05-3.43301E-05-2.01043E-07-1.35844E-18-1.41661E-18
 -1      2278 1.07385E-04-2.40265E-05-3.57959E-05-6.65952E-06-1.55544E-18-1.03311E-18
 -1      2279 1.03935E-04-2.39307E-05-3.42480E-05 4.37355E-06-1.11145E-18-1.40980E-18
 -1      2280 1.04934E-04-2.54489E-05-3.41479E-05 7.68375E-06-8.31092E-19-1.21659E-18
 -1      2281 1.06266E-04-2.22202E-05-3.61126E-05 2.36489E-06-1.34501E-18-1.24198E-18
 -1      2282 1.06727E-04-2.79269E-05-3.36861E-05 1.05444E-05-5.53926E-19-1.08414E-18
 -1      2283 1.08477E-04-3.05701E-05-3.34967E-05 1.19490E-05-1.67875E-19-1.20918E-18
 -1      2284 1.08604E-04-2.59968E-05-3.54384E-05 1.03254E-05-4.73928E-19-1.01981E-18
 -1      2285 1.10099E-04-3.32091E-05-3.29016E-05 1.20283E-05-2.15508E-19-1.31477E-18
 -1      2286 1.11638E-04-3.54212E-05-3.27332E-05 1.13544E-05-3.01325E-19-1.45401E-18
 -1      2287 1.12235E-04-3.24960E-05-3.41371E-05 1.31587E-05-2.60539E-19-1.06963E-18
 -1      2288 1.11974E-04-3.67997E-05-3.22362E-05 9.41205E-06-4.42479E-19-1.46809E-18
 -1      2289 1.12718E-04-3.77914E-05-3.21339E-05 7.53984E-06-5.27238E-19-1.15232E-18
 -1      2290 1.14317E-04-3.76986E-05-3.28084E-05 1.07594E-05-4.47375E-19-9.88106E-19
 -1      2291 1.11864E-04-3.77931E-05-3.18057E-05 4.97396E-06-5.23738E-19-9.63463E-19
 -1      2292 1.11792E-04-3.76927E-05-3.17455E-05 2.87695E-06-6.79281E-20-7.30006E-19
 -1      2293 1.13790E-04-3.95466E-05-3.18192E-05 5.83898E-06-4.15886E-19 8.61219E-20
 -1      2294 1.10346E-04-3.68709E-05-3.15563E-05 6.63255E-07-4.19645E-20-6.85823E-19
 -1      2295 1.09728E-04-3.61769E-05-3.14970E-05-1.06019E-06 2.29091E-19-5.95098E-19
 -1      2296 1.11421E-04-3.86345E-05-3.12158E-05 8.63606E-07-1.83503E-19 1.30594E-19
 -1      2297 1.08219E-04-3.51132E-05-3.13832E-05-2.56284E-06 5.34240E-19-7.58622E-19
 -1      2298 1.07337E-04-3.42579E-05-3.12951E-05-3.70715E-06 6.89728E-19-6.07381E-19
 -1      2299 1.08403E-04-3.63986E-05-3.08863E-05-2.88710E-06 3.94118E-19 2.42983E-19
 -1      2300 1.06029E-04-3.32946E-05-3.12047E-05-4.52218E-06 3.57378E-19-9.83571E-19
 -1      2301 1.05077E-04-3.25153E-05-3.10794E-05-5.12094E-06 3.64929E-19-7.69917E-19
 -1      2302 1.05546E-04-3.39897E-05-3.06906E-05-5.17077E-06 4.40592E-19-4.10687E-19
 -1      2303 1.04036E-04-3.17761E-05-3.09847E-05-5.41240E-06 4.92120E-19-5.63201E-19
 -1      2304 1.03120E-04-3.11567E-05-3.08294E-05-5.59572E-06 2.28305E-19 2.66704E-20
 -1      2305 1.03175E-04-3.19759E-05-3.05310E-05-6.22501E-06 6.35582E-19-1.97632E-19
 -1      2306 1.02321E-04-3.06435E-05-3.07226E-05-5.54138E-06 6.41279E-20 4.64746E-19
 -1      2307 1.01490E-04-3.01865E-05-3.05512E-05-5.45171E-06 3.74184E-19 7.78803E-20
 -1      2308 1.01321E-04-3.05067E-05-3.03609E-05-6.40901E-06 2.85959E-19 7.82561E-19
 -1      2309 1.00880E-04-2.98541E-05-3.04351E-05-5.19678E-06 2.40924E-19-2.15959E-19
 -1      2310 1.00152E-04-2.95312E-05-3.02618E-05-4.95248E-06 5.48160E-19 9.68799E-20
 -1      2311 9.99032E-05-2.95283E-05-3.01687E-05-6.04918E-06 3.33234E-19 6.39715E-19
 -1      2312 9.96824E-05-2.93277E-05-3.01432E-05-4.60103E-06 7.97424E-19-3.04267E-19
 -1      2313 9.90617E-05-2.91056E-05-2.99790E-05-4.28728E-06 1.00254E-18-5.82301E-19
 -1      2314 9.88186E-05-2.89230E-05-2.99612E-05-5.39471E-06 5.05318E-19 1.31756E-19
 -1      2315 9.86967E-05-2.89876E-05-2.98646E-05-3.90759E-06 1.24929E-18-8.49736E-19
 -1      2316 9.81790E-05-2.88376E-05-2.97166E-05-3.57964E-06 1.00423E-18-8.98295E-19
 -1      2317 9.79819E-05-2.85750E-05-2.97505E-05-4.61786E-06 9.75959E-19-7.60598E-19
 -1      2318 9.78926E-05-2.87737E-05-2.96113E-05-3.21288E-06 1.09686E-18-1.05648E-18
 -1      2319 9.74693E-05-2.86741E-05-2.94830E-05-2.90308E-06 1.00990E-18-1.34261E-19
 -1      2320 9.73302E-05-2.83934E-05-2.95484E-05-3.82859E-06 1.12190E-18-1.40417E-18
 -1      2321 9.72437E-05-2.86430E-05-2.93899E-05-2.57153E-06 4.34487E-19-3.83486E-19
 -1      2322 9.69041E-05-2.85781E-05-2.92821E-05-2.29642E-06-1.13823E-19-7.03884E-19
 -1      2323 9.68197E-05-2.83138E-05-2.93633E-05-3.09106E-06 3.88164E-19-1.95309E-18
 -1      2324 9.67268E-05-2.85664E-05-2.92023E-05-2.00988E-06-1.08802E-19-2.35975E-19
 -1      2325 9.64593E-05-2.85253E-05-2.91143E-05-1.77579E-06 4.05162E-19 2.20744E-19
 -1      2326 9.64196E-05-2.82938E-05-2.92000E-05-2.43799E-06 1.20660E-19-1.59753E-18
 -1      2327 9.63210E-05-2.85244E-05-2.90478E-05-1.53637E-06 1.54492E-19-2.46606E-19
 -1      2328 9.61141E-05-2.84994E-05-2.89774E-05-1.34353E-06 1.23641E-19-4.64187E-19
 -1      2329 9.61074E-05-2.83062E-05-2.90606E-05-1.88162E-06-1.05681E-19-9.60894E-19
 -1      2330 9.60073E-05-2.85042E-05-2.89233E-05-1.14883E-06 1.58451E-19-2.65950E-19
 -1      2331 9.58503E-05-2.84901E-05-2.88684E-05-9.94117E-07 7.56368E-19-4.84219E-19
 -1      2332 9.58658E-05-2.83345E-05-2.89445E-05-1.42170E-06 2.63970E-19-6.03364E-19
 -1      2333 9.57688E-05-2.84976E-05-2.88253E-05-8.39460E-07 5.51983E-19-4.93152E-19
 -1      2334 9.56521E-05-2.84906E-05-2.87832E-05-7.18168E-07 9.19887E-20-6.36644E-19
 -1      2335 9.56811E-05-2.83688E-05-2.88503E-05-1.05095E-06 3.26591E-19-7.54558E-19
 -1      2336 9.55910E-05-2.84989E-05-2.87496E-05-5.97906E-07-1.51767E-19-5.77657E-19
 -1      2337 9.55061E-05-2.84966E-05-2.87181E-05-5.04836E-07-4.57858E-19-3.59137E-19
 -1      2338 9.55417E-05-2.84037E-05-2.87753E-05-7.58656E-07 1.00167E-19-9.01442E-19
 -1      2339 9.54610E-05-2.85046E-05-2.86924E-05-4.13219E-07-8.77901E-19-6.81720E-19
 -1      2340 9.54008E-05-2.85052E-05-2.86693E-05-3.43293E-07-1.29700E-18-2.41516E-19
 -1      2341 9.54385E-05-2.84361E-05-2.87168E-05-5.32939E-07-8.02521E-19-2.73376E-19
 -1      2342 9.53683E-05-2.85125E-05-2.86500E-05-2.74929E-07-1.01179E-18-3.51493E-19
 -1      2343 9.53268E-05-2.85148E-05-2.86336E-05-2.23527E-07-4.01054E-19 6.33607E-20
 -1      2344 9.53634E-05-2.84646E-05-2.86721E-05-3.62148E-07-1.04370E-18-1.31395E-19
 -1      2345 9.53040E-05-2.85212E-05-2.86194E-05-1.73623E-07 3.80201E-20 6.04881E-20
 -1      2346 9.52765E-05-2.85242E-05-2.86080E-05-1.36727E-07 4.84861E-19 4.05405E-19
 -1      2347 9.53101E-05-2.84888E-05-2.86387E-05-2.35594E-07-2.86810E-19-5.05693E-19
 -1      2348 9.52609E-05-2.85296E-05-2.85979E-05-1.01178E-07 8.63119E-19 1.99155E-19
 -1      2349 9.52437E-05-2.85330E-05-2.85902E-05-7.54100E-08 9.91814E-19 3.57581E-20
 -1      2350 9.52734E-05-2.85087E-05-2.86142E-05-1.43912E-07 1.59760E-19 5.33297E-19
 -1      2351 9.52335E-05-2.85374E-05-2.85832E-05-5.08027E-08 6.70741E-19 1.98246E-19
 -1      2352 9.52237E-05-2.85407E-05-2.85783E-05-3.33973E-08 7.40929E-19-7.40568E-20
 -1      2353 9.52489E-05-2.85248E-05-2.85967E-05-7.91674E-08 9.74637E-19 5.53521E-19
 -1      2354 9.52174E-05-2.85443E-05-2.85736E-05-1.69601E-08 1.20467E-19-4.44453E-19
 -1      2355 9.52126E-05-2.85474E-05-2.85707E-05-5.70570E-09-6.98155E-19-9.20254E-19
 -1      2356 9.52335E-05-2.85374E-05-2.85845E-05-3.48188E-08 2.72659E-19 1.05745E-18
 -1      2357 9.52091E-05-2.85502E-05-2.85677E-05 4.76220E-09-7.38506E-19-1.18293E-18
 -1      2358 9.52076E-05-2.85529E-05-2.85662E-05 1.15978E-08-3.55164E-19-1.08411E-18
 -1      2359 9.52246E-05-2.85473E-05-2.85763E-05-5.59592E-09-9.00816E-19 1.41844E-19
 -1      2360 9.52061E-05-2.85551E-05-2.85645E-05 1.78085E-08-1.33731E-19-1.05688E-18
 -1      2361 9.52068E-05-2.85575E-05-2.85639E-05 2.15535E-08-8.92242E-19 2.53654E-19
 -1      2362 9.52202E-05-2.85547E-05-2.85711E-05 1.26574E-08-4.90874E-19-2.83074E-19
 -1      2363 9.52065E-05-2.85592E-05-2.85630E-05 2.48105E-08-1.20166E-18 1.52338E-18
 -1      2364 9.52086E-05-2.85612E-05-2.85631E-05 2.64602E-08-4.52918E-19 2.18922E-18
 -1      2365 9.52187E-05-2.85603E-05-2.85681E-05 2.31507E-08-3.05745E-20 1.35525E-18
 -1      2366 9.52091E-05-2.85625E-05-2.85628E-05 2.77325E-08-3.29132E-19 2.92143E-18
 -1      2367 9.52118E-05-2.85642E-05-2.85632E-05 2.80123E-08 2.87083E-19 3.23156E-18
 -1      2368 9.52193E-05-2.85644E-05-2.85665E-05 2.83084E-08 1.87045E-19 4.03201E-18
 -1      2369 9.52128E-05-2.85651E-05-2.85633E-05 2.79987E-08 1.03789E-19 2.45606E-18
 -1      2370 9.52158E-05-2.85666E-05-2.85639E-05 2.74173E-08 7.43114E-19 1.77501E-18
 -1      2371 9.52210E-05-2.85674E-05-2.85659E-05 2.99139E-08-1.72493E-19 3.20381E-18
 -1      2372 9.52170E-05-2.85673E-05-2.85642E-05 2.66010E-08 1.50827E-18 8.06811E-19
 -1      2373 9.52200E-05-2.85685E-05-2.85649E-05 2.54939E-08 2.28586E-18 1.03630E-19
 -1      2374 9.52234E-05-2.85696E-05-2.85659E-05 2.92355E-08-7.23446E-20 8.43602E-19
 -1      2375 9.52213E-05-2.85692E-05-2.85652E-05 2.41854E-08 1.80800E-18-2.47056E-19
 -1      2376 9.52241E-05-2.85702E-05-2.85660E-05 2.27473E-08 1.64515E-18-2.46313E-19
 -1      2377 9.52260E-05-2.85713E-05-2.85663E-05 2.71330E-08 1.55320E-18 4.40638E-19
 -1      2378 9.52255E-05-2.85708E-05-2.85663E-05 2.11132E-08 1.44551E-18-6.57596E-19
 -1      2379 9.52280E-05-2.85718E-05-2.85670E-05 1.94440E-08 3.12555E-19-1.86947E-19
 -1      2380 9.52288E-05-2.85727E-05-2.85669E-05 2.41194E-08 9.19456E-19-6.75294E-20
 -1      2381 9.52293E-05-2.85724E-05-2.85673E-05 1.75772E-08-9.67985E-19 8.73006E-19
 -1      2382 9.52315E-05-2.85733E-05-2.85678E-05 1.56713E-08-1.37531E-18 1.38335E-18
 -1      2383 9.52314E-05-2.85740E-05-2.85675E-05 2.05191E-08 5.63015E-20-1.90782E-18
 -1      2384 1.12866E-04-3.67748E-05-3.26817E-05 5.33538E-07 1.13013E-19 2.05627E-18
 -1      2385 1.12471E-04-3.60356E-05-3.27215E-05-9.91157E-07 2.72113E-19 2.04757E-18
 -1      2386 1.13948E-04-3.78259E-05-3.26896E-05 4.77470E-06 1.10353E-19 1.79916E-18
 -1      2387 1.14146E-04-3.76896E-05-3.27522E-05 2.65868E-06 8.92826E-20 1.97264E-18
 -1      2388 1.13862E-04-3.85138E-05-3.23149E-05 9.69072E-07 2.60320E-19 1.55745E-18
 -1      2389 1.13548E-04-3.69071E-05-3.28647E-05 9.37802E-06 4.71913E-19 1.92386E-18
 -1      2390 1.14665E-04-3.79158E-05-3.29134E-05 7.44244E-06 1.41481E-19 1.90176E-18
 -1      2391 1.16013E-04-3.96883E-05-3.26989E-05 5.99805E-06 1.67127E-19 1.49203E-18
 -1      2392 1.11077E-04-3.32945E-05-3.32926E-05 1.18972E-05 7.59054E-19 2.20703E-18
 -1      2393 1.13028E-04-3.55539E-05-3.32810E-05 1.13439E-05 5.27840E-19 2.09861E-18
 -1      2394 1.16235E-04-3.78840E-05-3.35385E-05 1.11357E-05 2.93694E-19 1.60891E-18
 -1      2395 1.07278E-04-2.80763E-05-3.38814E-05 9.64275E-06 5.98985E-19 2.26027E-18
 -1      2396 1.09295E-04-3.06572E-05-3.38182E-05 1.14670E-05 7.38176E-19 2.15279E-18
 -1      2397 1.13716E-04-3.25829E-05-3.47713E-05 1.31806E-05 6.24290E-19 1.86438E-18
 -1      2398 1.04666E-04-2.45589E-05-3.43187E-05 2.22306E-06 8.92614E-19 1.79350E-18
 -1      2399 1.05551E-04-2.57568E-05-3.42704E-05 6.05508E-06 8.96611E-19 1.98826E-18
 -1      2400 1.09800E-04-2.60711E-05-3.59624E-05 9.12040E-06 1.00271E-18 1.78138E-18
 -1      2401 1.05636E-04-2.57223E-05-3.43178E-05-6.80080E-06 1.04791E-18 5.96867E-19
 -1      2402 1.04705E-04-2.45389E-05-3.43290E-05-2.96844E-06 1.09284E-18 9.93049E-19
 -1      2403 1.07838E-04-2.29969E-05-3.64762E-05-4.24329E-07 1.50642E-18 7.38796E-19
 -1      2404 1.09526E-04-3.06221E-05-3.39247E-05-1.23497E-05 1.31776E-18-4.48398E-19
 -1      2405 1.07403E-04-2.80000E-05-3.39523E-05-1.04880E-05 9.33205E-19-1.06184E-19
 -1      2406 1.09818E-04-2.59888E-05-3.59995E-05-1.00044E-05 1.48261E-18-4.84579E-19
 -1      2407 1.13480E-04-3.56725E-05-3.34213E-05-1.22965E-05 1.41201E-18-7.66552E-19
 -1      2408 1.11379E-04-3.33316E-05-3.34074E-05-1.28387E-05 1.45443E-18-4.79672E-19
 -1      2409 1.13803E-04-3.25052E-05-3.48314E-05-1.41992E-05 1.41631E-18-1.04515E-18
 -1      2410 1.15272E-04-3.82374E-05-3.30401E-05-8.24849E-06 7.28855E-19-6.64178E-19
 -1      2411 1.14037E-04-3.71362E-05-3.29875E-05-1.02414E-05 1.22063E-18-3.11202E-19
 -1      2412 1.16472E-04-3.80625E-05-3.35787E-05-1.20959E-05 1.18774E-18-1.47795E-18
 -1      2413 1.14720E-04-3.81768E-05-3.27971E-05-3.05469E-06-3.63645E-19 2.93128E-20
 -1      2414 1.14505E-04-3.82267E-05-3.27644E-05-5.32181E-06 5.46998E-20-1.99609E-19
 -1      2415 1.16311E-04-4.01051E-05-3.26547E-05-6.66044E-06 1.95540E-19-6.86624E-19
 -1      2416 1.12732E-04-3.66433E-05-3.25928E-05 1.31074E-06 9.49580E-19 2.41330E-19
 -1      2417 1.13273E-04-3.73108E-05-3.26331E-05-5.12482E-07 4.32649E-19 4.72701E-19
 -1      2418 1.14009E-04-3.91399E-05-3.21057E-05-9.90901E-07-8.22085E-20 1.38046E-19
 -1      2419 1.10210E-04-3.47198E-05-3.23381E-05 4.15825E-06 8.67957E-19 9.25896E-20
 -1      2420 1.11178E-04-3.55581E-05-3.24676E-05 3.00527E-06 1.12088E-18 4.44696E-19
 -1      2421 1.10895E-04-3.67884E-05-3.17866E-05 3.26747E-06 9.42271E-19 5.76708E-19
 -1      2422 1.07688E-04-3.29930E-05-3.20017E-05 5.57700E-06-7.19234E-20 4.30026E-19
 -1      2423 1.08826E-04-3.37640E-05-3.22050E-05 5.03036E-06 4.75933E-19 4.35521E-19
 -1      2424 1.07862E-04-3.43138E-05-3.15443E-05 5.78952E-06 4.22714E-19 7.10964E-19
 -1      2425 1.05396E-04-3.16521E-05-3.15982E-05 5.94825E-06-6.65805E-19 2.26352E-19
 -1      2426 1.06546E-04-3.22755E-05-3.18453E-05 5.83795E-06-2.63926E-19 3.76918E-19
 -1      2427 1.05271E-04-3.22970E-05-3.12918E-05 6.86641E-06-4.66381E-20 1.13998E-18
 -1      2428 1.03404E-04-3.06825E-05-3.11621E-05 5.66835E-06-6.74615E-19-6.69727E-20
 -1      2429 1.04476E-04-3.11572E-05-3.14230E-05 5.82423E-06-5.70022E-19-1.25824E-19
 -1      2430 1.03170E-04-3.08565E-05-3.10029E-05 6.95242E-06-3.04557E-19 3.53322E-19
 -1      2431 1.01711E-04-3.00044E-05-3.07283E-05 5.04604E-06 2.09278E-19-6.61668E-19
 -1      2432 1.02662E-04-3.03562E-05-3.09802E-05 5.33715E-06-4.64632E-19-2.49667E-19
 -1      2433 1.01487E-04-2.99049E-05-3.06861E-05 6.45145E-06-3.56616E-19-2.35926E-19
 -1      2434 1.00296E-04-2.95358E-05-3.03232E-05 4.28930E-06 9.79812E-20 2.90729E-20
 -1      2435 1.01110E-04-2.97935E-05-3.05518E-05 4.62858E-06 3.03292E-19 3.25041E-20
 -1      2436 1.00137E-04-2.93065E-05-3.03621E-05 5.65973E-06-6.94484E-20-5.76499E-19
 -1      2437 9.91306E-05-2.92123E-05-2.99625E-05 3.52395E-06-5.80754E-19-3.34594E-19
 -1      2438 9.98079E-05-2.94001E-05-3.01607E-05 3.85978E-06-6.12660E-20-7.61730E-22
 -1      2439 9.90489E-05-2.89427E-05-3.00506E-05 4.77128E-06 4.09657E-20-5.81483E-20
 -1      2440 9.81847E-05-2.89885E-05-2.96532E-05 2.81798E-06 5.41175E-20-6.73826E-19
 -1      2441 9.87348E-05-2.91246E-05-2.98193E-05 3.12333E-06-9.49402E-19-3.71474E-19
 -1      2442 9.81709E-05-2.87276E-05-2.97660E-05 3.90152E-06-3.89485E-19-4.53792E-19
 -1      2443 9.74288E-05-2.88335E-05-2.93958E-05 2.20223E-06 1.01235E-18-5.79676E-19
 -1      2444 9.78663E-05-2.89315E-05-2.95311E-05 2.46565E-06 1.02032E-18-9.23699E-19
 -1      2445 9.74653E-05-2.86040E-05-2.95162E-05 3.11166E-06 6.72492E-19-1.35679E-18
 -1      2446 9.68342E-05-2.87266E-05-2.91870E-05 1.68540E-06 1.46012E-18-6.19689E-19
 -1      2447 9.71754E-05-2.87965E-05-2.92946E-05 1.90450E-06 1.31236E-18-4.10732E-19
 -1      2448 9.69030E-05-2.85361E-05-2.93039E-05 2.42821E-06 1.34617E-18-7.23565E-19
 -1      2449 9.63741E-05-2.86539E-05-2.90212E-05 1.26393E-06 6.58394E-20-1.20573E-18
 -1      2450 9.66352E-05-2.87028E-05-2.91050E-05 1.44118E-06 1.02403E-18-1.10933E-18
 -1      2451 9.64600E-05-2.85019E-05-2.91284E-05 1.85691E-06 1.45558E-18-9.26858E-19
 -1      2452 9.60243E-05-2.86055E-05-2.88923E-05 9.28189E-07 8.78821E-20-1.33655E-18
 -1      2453 9.62203E-05-2.86389E-05-2.89562E-05 1.06834E-06-5.08822E-19-1.74375E-18
 -1      2454 9.61158E-05-2.84877E-05-2.89865E-05 1.39198E-06 2.17142E-19-1.85974E-18
 -1      2455 9.57631E-05-2.85744E-05-2.87939E-05 6.66168E-07-1.31404E-19-3.28495E-19
 -1      2456 9.59073E-05-2.85965E-05-2.88418E-05 7.74768E-07 1.62010E-19-1.22518E-18
 -1      2457 9.58525E-05-2.84855E-05-2.88742E-05 1.02199E-06-2.90492E-19-1.54819E-18
 -1      2458 9.55721E-05-2.85555E-05-2.87204E-05 4.65562E-07-5.79369E-19-4.64063E-19
 -1      2459 9.56758E-05-2.85694E-05-2.87554E-05 5.48117E-07 9.53073E-20 5.06521E-19
 -1      2460 9.56545E-05-2.84899E-05-2.87870E-05 7.33362E-07-3.24322E-19-1.11681E-18
 -1      2461 9.54355E-05-2.85452E-05-2.86665E-05 3.14862E-07-2.23884E-19-4.24976E-19
 -1      2462 9.55082E-05-2.85533E-05-2.86916E-05 3.76421E-07-7.60457E-19-2.37023E-19
 -1      2463 9.55085E-05-2.84978E-05-2.87206E-05 5.12420E-07-6.70198E-19-2.38866E-19
 -1      2464 9.53406E-05-2.85406E-05-2.86279E-05 2.03872E-07-1.20423E-18 5.90656E-19
 -1      2465 9.53899E-05-2.85447E-05-2.86454E-05 2.48846E-07-7.03891E-19 4.29388E-19
 -1      2466 9.54031E-05-2.85073E-05-2.86710E-05 3.46446E-07-1.30345E-18 3.19059E-19
 -1      2467 9.52768E-05-2.85397E-05-2.86011E-05 1.23884E-07-7.57765E-19 1.98382E-18
 -1      2468 9.53088E-05-2.85412E-05-2.86129E-05 1.56002E-07-1.02212E-18 1.34612E-18
 -1      2469 9.53290E-05-2.85171E-05-2.86348E-05 2.24204E-07-1.47016E-18 1.94331E-18
 -1      2470 9.52359E-05-2.85412E-05-2.85831E-05 6.76611E-08 2.34473E-19 2.12585E-18
 -1      2471 9.52555E-05-2.85410E-05-2.85906E-05 8.99933E-08-2.90183E-19 2.29016E-18
 -1      2472 9.52785E-05-2.85264E-05-2.86089E-05 1.36104E-07-5.86061E-19 3.05613E-18
 -1      2473 9.52115E-05-2.85441E-05-2.85715E-05 2.93208E-08 5.94627E-19 2.31674E-18
 -1      2474 9.52223E-05-2.85428E-05-2.85760E-05 4.43440E-08 4.44371E-19 1.90424E-18
 -1      2475 9.52455E-05-2.85349E-05-2.85909E-05 7.41780E-08 6.19364E-19 2.65436E-18
 -1      2476 9.51986E-05-2.85476E-05-2.85645E-05 4.17531E-09-8.92438E-19 2.61045E-18
 -1      2477 9.52034E-05-2.85457E-05-2.85670E-05 1.38492E-08 1.82872E-19 2.21018E-18
 -1      2478 9.52252E-05-2.85423E-05-2.85789E-05 3.19483E-08 1.57912E-19 2.17752E-18
 -1      2479 9.51936E-05-2.85512E-05-2.85609E-05-1.14431E-08-7.56227E-19 2.09667E-18
 -1      2480 9.51944E-05-2.85491E-05-2.85618E-05-5.59627E-09-6.53814E-19 2.59301E-18
 -1      2481 9.52138E-05-2.85486E-05-2.85712E-05 4.25239E-09-7.18489E-19 3.06629E-18
 -1      2482 9.51937E-05-2.85548E-05-2.85594E-05-2.03513E-08-1.92320E-18 1.98796E-18
 -1      2483 9.51920E-05-2.85527E-05-2.85595E-05-1.71708E-08-1.14048E-18 2.09579E-18
 -1      2484 9.52087E-05-2.85539E-05-2.85666E-05-1.29488E-08-8.73408E-19 2.73716E-18
 -1      2485 9.51968E-05-2.85580E-05-2.85594E-05-2.46695E-08-3.03840E-19 1.73074E-18
 -1      2486 9.51937E-05-2.85561E-05-2.85589E-05-2.32887E-08-1.81950E-18 1.48989E-18
 -1      2487 9.52077E-05-2.85582E-05-2.85642E-05-2.27563E-08-1.84499E-18 1.61053E-18
 -1      2488 9.52018E-05-2.85610E-05-2.85603E-05-2.59555E-08-1.06154E-18 2.81455E-18
 -1      2489 9.51980E-05-2.85592E-05-2.85594E-05-2.57445E-08 1.43711E-19 2.55054E-18
 -1      2490 9.52092E-05-2.85617E-05-2.85633E-05-2.75018E-08-9.42391E-19 1.06743E-18
 -1      2491 9.52075E-05-2.85636E-05-2.85617E-05-2.53179E-08-2.00021E-19 1.76982E-18
 -1      2492 9.52035E-05-2.85620E-05-2.85606E-05-2.58353E-08-1.14291E-18 2.48799E-18
 -1      2493 9.52123E-05-2.85645E-05-2.85634E-05-2.88961E-08-4.45543E-19 3.17828E-18
 -1      2494 9.52135E-05-2.85659E-05-2.85632E-05-2.35075E-08 1.28078E-18 2.81584E-18
 -1      2495 9.52095E-05-2.85644E-05-2.85622E-05-2.44626E-08 3.39726E-19 2.17235E-18
 -1      2496 9.52161E-05-2.85668E-05-2.85640E-05-2.81530E-08-2.04616E-19 1.64668E-18
 -1      2497 9.52192E-05-2.85679E-05-2.85648E-05-2.09856E-08 1.99134E-18 2.64319E-18
 -1      2498 9.52155E-05-2.85666E-05-2.85638E-05-2.22111E-08 2.23761E-18 3.74116E-18
 -1      2499 9.52202E-05-2.85687E-05-2.85650E-05-2.60918E-08 9.35679E-19 1.92286E-18
 -1      2500 9.52244E-05-2.85697E-05-2.85663E-05-1.79953E-08 2.29254E-18 2.07875E-18
 -1      2501 9.52211E-05-2.85686E-05-2.85654E-05-1.94131E-08 2.03789E-18 2.72648E-18
 -1      2502 9.52243E-05-2.85703E-05-2.85660E-05-2.32067E-08 2.21081E-18 1.40284E-18
 -1      2503 9.52290E-05-2.85714E-05-2.85676E-05-1.45780E-08 1.58924E-18 1.35589E-18
 -1      2504 9.52262E-05-2.85704E-05-2.85668E-05-1.62126E-08 2.32792E-18 2.44477E-18
 -1      2505 9.52281E-05-2.85719E-05-2.85670E-05-1.97980E-08 2.39545E-18 1.78466E-18
 -1      2506 9.52329E-05-2.85730E-05-2.85686E-05-1.07401E-08-2.97311E-20 1.92361E-18
 -1      2507 9.52307E-05-2.85721E-05-2.85680E-05-1.25871E-08 2.75517E-19 1.75592E-18
 -1      2508 9.52317E-05-2.85734E-05-2.85678E-05-1.59046E-08 9.89999E-19 2.24673E-18
 -1      2509 9.52344E-05-2.85736E-05-2.85690E-05-8.39358E-09 1.68807E-19 2.02626E-18
 -1      2510 9.52451E-05-2.85890E-05-2.85669E-05-1.17972E-08-3.04032E-19-3.26013E-19
 -1      2511 9.52439E-05-2.85872E-05-2.85672E-05-1.29978E-08 1.41297E-19-1.58602E-18
 -1      2512 9.52470E-05-2.85917E-05-2.85665E-05-8.19526E-09 9.51962E-19 2.02102E-18
 -1      2513 9.52461E-05-2.85904E-05-2.85667E-05-9.99415E-09 4.19509E-19 2.09023E-18
 -1      2514 9.52463E-05-2.85888E-05-2.85675E-05-1.23323E-08 3.90312E-19 1.31547E-18
 -1      2515 9.52396E-05-2.85814E-05-2.85678E-05-1.44811E-08 7.63975E-19 1.23934E-18
 -1      2516 9.52380E-05-2.85792E-05-2.85681E-05-1.40318E-08 1.27693E-18 1.45055E-19
 -1      2517 9.52426E-05-2.85855E-05-2.85673E-05-1.40190E-08-1.22583E-18-5.83045E-19
 -1      2518 9.52412E-05-2.85834E-05-2.85676E-05-1.44388E-08-8.77643E-19 2.80877E-18
 -1      2519 9.52401E-05-2.85818E-05-2.85679E-05-1.65129E-08-5.01821E-20 6.92296E-19
 -1      2520 9.52436E-05-2.85856E-05-2.85677E-05-1.53340E-08-1.39198E-18-6.05755E-19
 -1      2521 9.52480E-05-2.85932E-05-2.85663E-05-3.69736E-09 4.59725E-19 3.92793E-19
 -1      2522 9.52476E-05-2.85925E-05-2.85664E-05-5.85870E-09 1.18176E-18 1.14506E-19
 -1      2523 9.52482E-05-2.85910E-05-2.85674E-05-7.93984E-09 1.09311E-18 1.13139E-18
 -1      2524 9.52482E-05-2.85934E-05-2.85663E-05 1.18764E-09-5.27343E-19 1.73244E-18
 -1      2525 9.52482E-05-2.85934E-05-2.85663E-05-1.09323E-09-8.82337E-19 1.68222E-18
 -1      2526 9.52492E-05-2.85922E-05-2.85673E-05-2.70374E-09 7.53609E-19 2.89818E-19
 -1      2527 9.52476E-05-2.85925E-05-2.85664E-05 5.94439E-09-1.08809E-18-2.64355E-18
 -1      2528 9.52480E-05-2.85931E-05-2.85663E-05 3.78914E-09-7.86063E-19-1.02682E-18
 -1      2529 9.52492E-05-2.85922E-05-2.85673E-05 2.81014E-09-6.88556E-19 5.00040E-19
 -1      2530 9.52461E-05-2.85904E-05-2.85667E-05 9.99968E-09 3.31489E-19-1.73380E-18
 -1      2531 9.52470E-05-2.85916E-05-2.85665E-05 8.23669E-09-4.71520E-20-2.16487E-18
 -1      2532 9.52482E-05-2.85910E-05-2.85674E-05 7.99429E-09-2.85185E-19-1.38715E-18
 -1      2533 9.52439E-05-2.85872E-05-2.85672E-05 1.29958E-08 1.62911E-18 2.10349E-19
 -1      2534 9.52451E-05-2.85890E-05-2.85669E-05 1.17970E-08 1.14508E-18-1.33032E-18
 -1      2535 9.52463E-05-2.85888E-05-2.85675E-05 1.23404E-08 3.33053E-19-1.21213E-18
 -1      2536 9.52411E-05-2.85834E-05-2.85676E-05 1.44220E-08 8.03800E-19 9.38176E-19
 -1      2537 9.52426E-05-2.85855E-05-2.85673E-05 1.40222E-08 8.46444E-19 6.67589E-21
 -1      2538 9.52436E-05-2.85856E-05-2.85677E-05 1.53489E-08 1.06146E-18-1.47874E-19
 -1      2539 9.52379E-05-2.85791E-05-2.85681E-05 1.39263E-08-8.06535E-19-1.31028E-18
 -1      2540 9.52395E-05-2.85814E-05-2.85678E-05 1.44869E-08-1.96547E-19-1.58987E-19
 -1      2541 9.52402E-05-2.85817E-05-2.85679E-05 1.64881E-08 1.37648E-20-4.56681E-19
 -1      2542 9.52358E-05-2.85758E-05-2.85686E-05 1.04260E-08-9.95936E-19 5.69488E-19
 -1      2543 2.07910E-05-1.68511E-05-1.32656E-06-7.41748E-06 4.09329E-19 4.91872E-18
 -1      2544 2.78780E-05-2.07794E-05-2.75050E-06-2.30358E-05 1.09828E-18 3.61958E-18
 -1      2545 1.11226E-04-3.49121E-05-3.27552E-05-2.08437E-06 5.09836E-19 2.11847E-18
 -1      2546 1.10646E-04-3.40092E-05-3.27892E-05-2.71688E-06 6.47093E-19 2.21826E-18
 -1      2547 1.11156E-04-3.59567E-05-3.22651E-05-2.26865E-06 3.98021E-19 1.54899E-18
 -1      2548 2.57497E-05-1.97552E-05-2.24704E-06 1.93295E-05-7.25695E-19 3.26277E-18
 -1      2549 2.11072E-05-1.67696E-05-1.45992E-06 7.21999E-06-7.15637E-19 3.85781E-18
 -1      2550 7.08803E-05-4.35719E-05-1.15233E-05-4.19488E-05 1.67797E-18 1.10315E-18
 -1      2551 8.88621E-05-4.99221E-05-1.66573E-05-4.25963E-05 1.38702E-18 8.21490E-19
 -1      2552 1.28131E-04-5.74747E-05-3.04208E-05 2.68044E-05 1.33535E-18 1.86347E-19
 -1      2553 1.13566E-04-5.67211E-05-2.42657E-05 3.24561E-05 4.76033E-19 1.13502E-19
 -1      2554 5.12933E-05-3.24158E-05-7.81687E-06 3.78673E-05-1.41222E-18 3.10649E-18
 -1      2555 3.57983E-05-2.57623E-05-3.99579E-06 2.86393E-05-1.21316E-18 3.72779E-18
 -1      2556 3.87955E-05-2.09074E-05-7.07150E-06 2.44185E-05-1.25170E-18 3.41439E-18
 -1      2557 1.43635E-04-1.08636E-05-5.72270E-05-1.34813E-06-3.57236E-18-8.98358E-19
 -1      2558 1.41294E-04-1.37404E-05-5.52105E-05-4.83086E-06-3.76972E-18-6.62803E-19
 -1      2559 1.43902E-04-2.57128E-05-5.11132E-05 8.41663E-06 2.59192E-18 2.15570E-19
 -1      2560 1.45604E-04-1.75211E-05-5.53838E-05 6.14128E-06 3.39131E-18-6.14099E-20
 -1      2561 7.31523E-05-3.51772E-06-2.98834E-05 1.62956E-06 8.22377E-19-2.42190E-18
 -1      2562 7.45623E-05-4.27181E-06-3.01178E-05 1.68855E-06 6.15201E-19-2.48998E-18
 -1      2563 7.61133E-05-6.43618E-06-2.98536E-05 2.58062E-06 5.37746E-19-2.33230E-18
 -1      2564 7.29134E-05-4.29504E-06-2.93852E-05 1.69924E-06 8.39760E-19-2.26797E-18
 -1      2565 1.42322E-04-1.15657E-05-5.67160E-05 2.46460E-06 4.25422E-18-3.26743E-19
 -1      2566 1.43719E-04-1.18392E-05-5.71797E-05-1.79178E-06 4.49182E-18-3.55436E-19
 -1      2567 9.99538E-05-5.29450E-05-2.01458E-05-3.78062E-05-6.99226E-19-2.71490E-18
 -1      2568 1.17471E-04-5.60445E-05-2.65482E-05-3.38387E-05-1.03338E-19-1.89937E-18
 -1      2569 1.45597E-04-1.47081E-05-5.67146E-05-5.23331E-06 4.42998E-18-4.62268E-19
 -1      2570 1.45063E-04-1.95147E-05-5.42910E-05-7.73344E-06 4.50410E-18-5.21561E-19
 -1      2571 1.32755E-04-1.14022E-05-5.21738E-05-4.85597E-06 4.60807E-18-5.46336E-19
 -1      2572 1.46759E-04-4.61073E-05-4.32402E-05 1.62502E-07 1.41523E-18 1.93971E-19
 -1      2573 1.47074E-04-3.90359E-05-4.70168E-05 4.61533E-06 1.98354E-18 4.70950E-19
 -1      2574 1.45850E-04-4.49480E-05-4.34672E-05-6.11826E-06-1.32629E-18-1.99646E-18
 -1      2575 1.50293E-04-3.82966E-05-4.83469E-05-7.54335E-07-1.86252E-18-1.96130E-18
 -1      2576 1.31469E-04-5.67378E-05-3.20061E-05-2.20557E-05 4.12929E-20-9.28560E-19
 -1      2577 1.42661E-04-5.36377E-05-3.86490E-05-1.15365E-05 7.32631E-19-2.08582E-19
 -1      2578 6.56897E-05-3.98803E-05-1.08134E-05-4.09479E-05-9.24960E-19-3.62932E-18
 -1      2579 8.27592E-05-4.67650E-05-1.54406E-05-4.31218E-05-6.03723E-19-3.41029E-18
 -1      2580 3.10581E-05-2.35032E-05-3.03691E-06-2.68865E-05-7.82976E-19-4.97420E-18
 -1      2581 4.51280E-05-2.98367E-05-6.50216E-06-3.71331E-05-5.96523E-19-4.52400E-18
 -1      2582 1.79625E-05-1.55476E-05-8.06971E-07 6.27502E-07-1.74079E-19-5.02248E-18
 -1      2583 2.13569E-05-1.68244E-05-1.69799E-06-1.46050E-05-6.42686E-20-5.14318E-18
 -1      2584 2.94225E-05-1.93492E-05-4.04392E-06 2.46836E-05 4.90432E-19-3.66808E-18
 -1      2585 2.09726E-05-1.68428E-05-1.44622E-06 1.21502E-05 2.35158E-19-4.38191E-18
 -1      2586 2.64568E-05-1.24056E-05-5.41522E-06 5.41476E-06 5.19496E-19-4.63687E-18
 -1      2587 6.53138E-05-3.90441E-05-1.11445E-05 4.29302E-05-1.73430E-19-1.89820E-18
 -1      2588 4.76377E-05-3.00516E-05-7.24277E-06 3.72663E-05 5.44430E-19-2.71368E-18
 -1      2589 1.00420E-04-5.18599E-05-2.08675E-05 3.95078E-05-6.06264E-19-5.42948E-19
 -1      2590 8.17998E-05-4.67466E-05-1.50143E-05 4.15530E-05-3.46648E-19-1.08227E-18
 -1      2591 8.03386E-05-4.32136E-05-1.54745E-05 4.08633E-05 8.37927E-19-1.13164E-18
 -1      2592 1.33912E-04-5.43534E-05-3.41833E-05 2.39556E-05-1.85204E-18-7.48777E-19
 -1      2593 1.19679E-04-5.57194E-05-2.73976E-05 3.02655E-05-1.19178E-18-3.79683E-19
 -1      2594 1.47523E-04-4.46103E-05-4.46661E-05 4.55675E-06-2.57270E-18-4.38340E-20
 -1      2595 1.41656E-04-5.04031E-05-3.91501E-05 1.30179E-05-2.30388E-18-4.91067E-19
 -1      2596 1.38583E-04-5.52031E-05-3.56397E-05 1.19407E-05-1.21560E-18 3.53424E-19
 -1      2597 1.45130E-04-2.42194E-05-5.24650E-05-7.46540E-06-3.58083E-18 1.31925E-19
 -1      2598 1.47500E-04-3.39626E-05-4.88387E-05-4.16887E-06-3.07102E-18-1.80206E-19
 -1      2599 1.47395E-04-1.43565E-05-5.72925E-05 4.58987E-06-3.27802E-18-1.18913E-18
 -1      2600 1.44870E-04-1.13301E-05-5.77968E-05 2.57000E-06-3.22296E-18-7.86655E-19
 -1      2601 1.50157E-04-2.80724E-05-5.25333E-05 3.62666E-06-2.63110E-18-1.63096E-18
 -1      2602 1.50539E-04-2.08072E-05-5.59937E-05 5.14217E-06-3.12026E-18-1.51280E-18
 -1      2603 1.39683E-04-1.67535E-05-5.28632E-05 8.04496E-06-2.79987E-18-1.52572E-18
 -1      2604 1.32548E-04-5.51089E-05-3.32245E-05-2.03182E-05-7.13625E-20-1.10347E-18
 -1      2605 1.42536E-04-5.14956E-05-3.92149E-05-1.46826E-05-8.52909E-19-1.40502E-18
 -1      2606 1.43174E-04-5.02343E-05-3.98005E-05-3.00486E-06-3.41262E-19-2.76175E-18
 -1      2607 1.03429E-04-5.43944E-05-2.10157E-05-3.69739E-05 1.15324E-18 5.17114E-19
 -1      2608 1.18866E-04-5.65040E-05-2.69455E-05-3.25587E-05 6.28710E-19-4.67668E-19
 -1      2609 1.01818E-04-5.41901E-05-2.01195E-05-3.75595E-05 2.38567E-18 1.19789E-19
 -1      2610 4.02010E-05-2.79294E-05-4.94340E-06-3.27498E-05 1.65320E-18 1.61529E-18
 -1      2611 5.30028E-05-3.39696E-05-7.94957E-06-3.99891E-05 1.63054E-18 1.33281E-18
 -1      2612 1.03574E-04-2.30850E-05-3.45298E-05-6.01104E-06-1.46383E-18-1.36536E-18
 -1      2613 1.05150E-04-2.69913E-05-3.35357E-05-2.52965E-06-1.33427E-18-1.07864E-18
 -1      2614 1.03345E-04-2.60255E-05-3.31321E-05-1.65861E-06-1.07699E-18-1.38581E-18
 -1      2615 9.97348E-05-2.00708E-05-3.41689E-05-5.13896E-06-1.32424E-18-1.76663E-18
 -1      2616 1.08675E-04-2.91377E-05-3.41082E-05 1.94172E-06 1.65877E-18 2.86114E-18
 -1      2617 1.08918E-04-2.75111E-05-3.49078E-05 4.96571E-06 1.78247E-18 3.18279E-18
 -1      2618 1.06073E-04-2.46459E-05-3.49616E-05 5.63745E-06 1.96137E-18 2.48644E-18
 -1      2619 1.06529E-04-2.78698E-05-3.37585E-05 1.19079E-06 1.65511E-18 1.89701E-18
 -1      2620 1.47241E-04-4.91234E-05-4.24371E-05 7.32299E-06 2.63888E-18-4.86409E-19
 -1      2621 1.38184E-04-5.43899E-05-3.59839E-05 1.50156E-05 2.01499E-18-3.07049E-19
 -1      2622 1.40478E-04-3.21598E-05-4.66675E-05 1.06761E-05 1.92848E-18 8.08705E-19
 -1      2623 8.74214E-05-1.36750E-05-3.16167E-05 9.43972E-07-3.14411E-19-2.40501E-18
 -1      2624 8.76705E-05-1.23668E-05-3.23333E-05-6.96957E-07-4.43825E-19-2.58107E-18
 -1      2625 9.07517E-05-1.40541E-05-3.29084E-05-1.95358E-06-6.88532E-19-2.52717E-18
 -1      2626 1.08822E-04-3.31581E-05-3.24645E-05-3.23573E-06 9.08827E-19 1.57320E-18
 -1      2627 1.02203E-04-2.16470E-05-3.45707E-05 4.84816E-06 2.00494E-18 1.46653E-18
 -1      2628 1.44950E-04-4.60108E-05-4.24363E-05-3.14414E-06 2.54142E-18-6.87367E-19
 -1      2629 4.04807E-05-2.22863E-05-7.19230E-06-2.69119E-05 1.76680E-18 2.23617E-18
 -1      2630 1.06293E-04-5.60373E-05-2.14924E-05 3.54214E-05-5.00596E-19 8.62147E-19
 -1      2631 9.81630E-05-5.17313E-05-1.93373E-05 3.73447E-05-9.95581E-19 8.29033E-19
 -1      2632 1.17000E-04-5.89054E-05-2.50471E-05 2.82502E-05-7.81811E-19 6.96155E-20
 -1      2633 9.52348E-05-2.85749E-05-2.85685E-05-1.13775E-08-3.15387E-19 2.53205E-18
 -1      2634 6.94549E-05-3.94224E-05-1.24418E-05-4.00228E-05 2.49028E-18 9.30572E-19
 -1      2635 9.52358E-05-2.85765E-05-2.85683E-05-1.26863E-08 1.62971E-20 9.58578E-19
 -1      2636 9.64191E-05-1.79485E-05-3.36773E-05-3.77961E-06-1.00806E-18-2.12394E-18
 -1      2637 9.52339E-05-2.85744E-05-2.85684E-05 1.22780E-08-1.38528E-18 9.33663E-19
 -1      2638 9.52363E-05-2.85772E-05-2.85682E-05 1.35800E-08-1.04878E-18-1.89094E-18
 -1      2639 9.52363E-05-2.85776E-05-2.85680E-05 1.60750E-08-1.80319E-18-1.54796E-18
 -1      2640 9.52323E-05-2.85737E-05-2.85680E-05 1.42372E-08-1.54471E-18 1.81056E-18
 -1      2641 7.87392E-05-4.29997E-05-1.52842E-05 3.88944E-05-1.66558E-18 9.16913E-19
 -1      2642 6.51427E-05-3.78945E-05-1.12119E-05 3.95190E-05-1.47913E-18 2.00937E-18
 -1      2643 6.15069E-05-3.20606E-05-1.20417E-05 3.63719E-05-1.64557E-18 2.05437E-18
 -1      2644 1.44658E-04-3.36380E-05-4.76473E-05 7.49325E-06-1.69322E-18-2.23553E-18
 -1      2645 2.81697E-05-1.45260E-05-5.20940E-06-8.77379E-07-1.33156E-19 3.96306E-18
 -1      2646 1.01704E-04-2.29130E-05-3.37259E-05 2.41111E-06 1.85451E-18 1.10679E-18
 -1      2647 1.28428E-04-1.41488E-05-4.95118E-05-8.76835E-06-3.04000E-18-6.75297E-19
 -1      2648 1.38203E-04-1.90447E-05-5.15230E-05-8.87747E-06-3.47347E-18-2.08476E-19
 -1      2649 1.32560E-04-2.38141E-05-4.70047E-05-1.16945E-05-3.03937E-18 1.44737E-19
 -1      2650 9.52357E-05-2.85769E-05-2.85681E-05-1.53626E-08 6.98677E-19 1.28510E-18
 -1      2651 1.43304E-04-4.04114E-05-4.41767E-05-4.82292E-06-2.26412E-18 3.44742E-19
 -1      2652 1.34094E-04-9.82761E-06-5.35650E-05 5.61751E-07-3.33837E-18-9.82532E-19
 -1      2653 1.14035E-04-5.63468E-05-2.46205E-05 3.27445E-05-3.90906E-19-1.54266E-19
 -1      2654 1.07068E-04-5.35003E-05-2.25178E-05 3.42198E-05 5.25478E-19 9.49603E-20
 -1      2655 1.23716E-04-5.85483E-05-2.83261E-05 2.43596E-05 9.75147E-20 4.00911E-19
 -1      2656 4.27587E-05-2.35452E-05-7.68226E-06 3.15846E-05 8.10928E-19-3.13339E-18
 -1      2657 4.01331E-05-1.66795E-05-9.40008E-06 2.46823E-05 1.07102E-18-3.20835E-18
 -1      2658 5.64220E-05-2.76751E-05-1.22193E-05 3.57390E-05 1.37611E-18-2.09048E-18
 -1      2659 3.23956E-05-1.74041E-05-5.87185E-06-2.02753E-05-4.21928E-19-4.89013E-18
 -1      2660 1.33138E-04-1.37351E-05-5.13477E-05 6.09009E-06 3.58380E-18-4.44692E-20
 -1      2661 6.16071E-05-3.44911E-05-1.12010E-05-3.86628E-05-1.17886E-18-3.85464E-18
 -1      2662 1.27640E-04-5.89250E-05-2.92375E-05-2.33606E-05-7.38719E-19-5.10973E-19
 -1      2663 1.28952E-04-5.85698E-05-3.00471E-05-2.21441E-05 1.07923E-18-1.40565E-18
 -1      2664 1.35614E-04-5.86907E-05-3.29363E-05 1.52730E-05 1.10792E-18-7.68894E-19
 -1      2665 1.40025E-04-2.48996E-05-4.95697E-05-1.10983E-05 3.87073E-18-1.01136E-18
 -1      2666 9.85386E-05-5.17737E-05-1.97256E-05-3.78976E-05-1.41349E-18-2.32609E-18
 -1      2667 1.41918E-04-5.20884E-05-3.85605E-05-2.41433E-06 4.68581E-19 4.39398E-19
 -1      2668 9.52336E-05-2.85752E-05-2.85679E-05 1.70371E-08-1.27317E-18-9.50498E-19
 -1      2669 7.52923E-05-6.98688E-06-2.92583E-05-2.35181E-06 1.27600E-18-1.91233E-18
 -1      2670 7.33382E-05-5.85753E-06-2.89651E-05-1.79924E-06 1.20223E-18-2.05398E-18
 -1      2671 7.19762E-05-4.89336E-06-2.87596E-05-4.23707E-07 1.18859E-18-2.14688E-18
 -1      2672 7.15046E-05-4.63876E-06-2.86768E-05 4.37547E-07 1.03135E-18-2.13128E-18
 -1      2673 7.25335E-05-6.47603E-06-2.82626E-05-1.67491E-06 1.13641E-18-2.05788E-18
 -1      2674 8.83267E-05-1.54556E-05-3.12214E-05-2.42592E-06 1.65532E-18-9.68254E-19
 -1      2675 8.46975E-05-1.32416E-05-3.06710E-05-2.99134E-06 1.57811E-18-1.27459E-18
 -1      2676 9.59579E-05-2.05004E-05-3.23330E-05-9.42742E-07 1.67061E-18-2.32884E-19
 -1      2677 9.21439E-05-1.80221E-05-3.17951E-05-1.74281E-06 1.67331E-18-6.46127E-19
 -1      2678 9.13224E-05-1.89702E-05-3.10168E-05-3.77834E-06 1.42712E-18-7.01001E-19
 -1      2679 1.05231E-04-2.96955E-05-3.23931E-05-3.06312E-06 1.15920E-18 1.04334E-18
 -1      2680 1.04591E-04-2.80696E-05-3.27358E-05-1.73557E-06 1.34617E-18 1.05737E-18
 -1      2681 1.07577E-04-3.32329E-05-3.18944E-05-4.28467E-06 6.65676E-19 1.11966E-18
 -1      2682 1.06536E-04-3.15241E-05-3.20757E-05-4.07329E-06 8.75681E-19 1.04163E-18
 -1      2683 1.03520E-04-2.93694E-05-3.18052E-05-4.23792E-06 1.05066E-18 5.35126E-19
 -1      2684 1.01899E-04-2.44292E-05-3.32138E-05 4.71694E-07 1.68733E-18 8.62488E-19
 -1      2685 3.99071E-05-1.70298E-05-9.24921E-06-2.06890E-05 2.12086E-18 2.57223E-18
 -1      2686 5.05955E-05-2.42386E-05-1.10067E-05-3.13834E-05 2.13325E-18 1.05498E-18
 -1      2687 1.05724E-04-3.20046E-05-3.15200E-05 2.92083E-06-6.21174E-19-9.96177E-19
 -1      2688 1.06880E-04-3.38752E-05-3.13260E-05 2.95995E-06-5.05961E-19-1.01751E-18
 -1      2689 1.08999E-04-3.59950E-05-3.12046E-05 2.62615E-06-4.29634E-19-8.04466E-19
 -1      2690 1.10350E-04-3.77298E-05-3.11764E-05 1.60978E-06-3.75970E-19-8.42440E-19
 -1      2691 1.06722E-04-3.49007E-05-3.08479E-05 4.17412E-06-4.12790E-19-1.05743E-18
 -1      2692 1.12877E-04-3.96355E-05-3.13137E-05 3.06940E-08-1.57460E-19-6.13477E-19
 -1      2693 1.14047E-04-4.06999E-05-3.15019E-05-1.92323E-06-1.29338E-19-3.89498E-19
 -1      2694 1.11428E-04-3.96145E-05-3.08489E-05 2.59003E-06-1.72773E-19-9.03821E-19
 -1      2695 1.16389E-04-4.16054E-05-3.20227E-05-4.70040E-06-1.27957E-19-2.33619E-19
 -1      2696 1.16743E-04-4.10418E-05-3.24934E-05-7.08556E-06-4.85636E-19-2.96963E-19
 -1      2697 1.16454E-04-4.29664E-05-3.15424E-05-1.54806E-06-9.71565E-20-7.75697E-19
 -1      2698 1.17698E-04-3.97531E-05-3.34883E-05-1.01533E-05-7.63221E-19 7.24445E-21
 -1      2699 1.16691E-04-3.68323E-05-3.42407E-05-1.17278E-05-8.56694E-19-1.37469E-20
 -1      2700 1.19971E-04-4.24805E-05-3.32022E-05-7.69406E-06-4.71407E-19-1.31072E-19
 -1      2701 1.15458E-04-3.28646E-05-3.55956E-05-1.31108E-05-1.15737E-18-8.69003E-20
 -1      2702 1.13339E-04-2.82884E-05-3.64280E-05-1.22275E-05-1.55420E-18-4.21131E-19
 -1      2703 1.19914E-04-3.63545E-05-3.58272E-05-1.27628E-05-1.12240E-18 3.56746E-19
 -1      2704 1.10905E-04-2.36950E-05-3.76271E-05-9.51622E-06-1.50939E-18-9.15758E-19
 -1      2705 1.09210E-04-2.04163E-05-3.81490E-05-5.78633E-06-1.54006E-18-9.11871E-19
 -1      2706 1.15819E-04-2.53261E-05-3.88689E-05-1.21968E-05-1.74137E-18-2.63057E-19
 -1      2707 1.08487E-04-1.89639E-05-3.84873E-05 2.67106E-07-1.58493E-18-1.12218E-18
 -1      2708 1.08750E-04-1.98102E-05-3.83555E-05 4.89595E-06-1.13158E-18-9.23529E-19
 -1      2709 1.12125E-04-1.76014E-05-4.06086E-05-2.89029E-06-1.59830E-18-8.52274E-19
 -1      2710 1.10616E-04-2.28604E-05-3.76085E-05 1.01118E-05-8.79220E-19-1.20627E-18
 -1      2711 1.12552E-04-2.71108E-05-3.69002E-05 1.27970E-05-5.74249E-19-1.27744E-18
 -1      2712 1.12980E-04-1.95376E-05-4.01285E-05 8.74300E-06-1.18500E-18-1.55667E-18
 -1      2713 1.14837E-04-3.18309E-05-3.55186E-05 1.37817E-05-3.11086E-19-1.51889E-18
 -1      2714 1.16787E-04-3.62390E-05-3.46354E-05 1.36155E-05-1.38596E-19-1.28408E-18
 -1      2715 1.17422E-04-2.97560E-05-3.75890E-05 1.46398E-05-5.80535E-19-2.17159E-18
 -1      2716 1.16901E-04-3.92166E-05-3.33291E-05 1.09004E-05 1.93712E-19-1.14537E-18
 -1      2717 1.17562E-04-4.13455E-05-3.26315E-05 8.97998E-06 1.98993E-19-8.71663E-19
 -1      2718 1.20164E-04-3.98616E-05-3.46749E-05 1.22222E-05 1.30827E-19-1.66059E-18
 -1      2719 1.15726E-04-4.19020E-05-3.17227E-05 5.21463E-06 6.41599E-20 7.91877E-20
 -1      2720 1.15005E-04-4.18219E-05-3.12839E-05 2.80177E-06-1.99698E-20 3.07294E-19
 -1      2721 1.18843E-04-4.44367E-05-3.21427E-05 5.57022E-06 7.02018E-19-7.39751E-19
 -1      2722 1.12367E-04-4.06808E-05-3.07914E-05-1.61470E-07-3.44306E-19 9.00636E-19
 -1      2723 1.10915E-04-3.94297E-05-3.05595E-05-2.19567E-06 1.94632E-19 8.72533E-19
 -1      2724 1.14311E-04-4.33997E-05-3.06044E-05-8.02361E-07 1.62498E-19 7.42406E-19
 -1      2725 1.08436E-04-3.77236E-05-3.03458E-05-3.97832E-06 2.68978E-19 6.95348E-19
 -1      2726 1.06866E-04-3.61986E-05-3.02306E-05-5.34248E-06 4.16510E-19 7.29201E-19
 -1      2727 1.09102E-04-3.97550E-05-2.98667E-05-5.11552E-06 3.11042E-19 9.96448E-19
 -1      2728 1.04943E-04-3.46107E-05-3.01595E-05-6.16782E-06 3.11860E-19 6.64847E-19
 -1      2729 1.03565E-04-3.32782E-05-3.00896E-05-6.89739E-06 3.17431E-19 1.47452E-19
 -1      2730 1.04637E-04-3.57800E-05-2.95959E-05-7.39178E-06 1.92870E-19 1.18526E-18
 -1      2731 1.02228E-04-3.20688E-05-3.00713E-05-7.09048E-06 6.69814E-19 2.55259E-19
 -1      2732 1.01127E-04-3.10745E-05-3.00064E-05-7.33584E-06 8.22983E-19 2.69106E-19
 -1      2733 1.01339E-04-3.25189E-05-2.95371E-05-8.20782E-06 4.52553E-19 8.15921E-19
 -1      2734 1.00260E-04-3.02631E-05-2.99944E-05-7.15506E-06 5.67335E-19 3.72506E-19
 -1      2735 9.94157E-05-2.95925E-05-2.99190E-05-7.07644E-06 5.11431E-19 7.39774E-19
 -1      2736 9.91081E-05-3.02155E-05-2.95414E-05-8.11635E-06 8.55735E-19 2.69629E-19
 -1      2737 9.88775E-05-2.91038E-05-2.98949E-05-6.69683E-06 8.00209E-21 5.39655E-19
 -1      2738 9.82353E-05-2.86867E-05-2.98077E-05-6.42653E-06-6.08681E-20 3.34254E-19
 -1      2739 9.76779E-05-2.87585E-05-2.95382E-05-7.51229E-06-1.13416E-19 7.48920E-19
 -1      2740 9.79095E-05-2.84271E-05-2.97684E-05-5.95972E-06 3.11654E-19 2.58569E-20
 -1      2741 9.74183E-05-2.81885E-05-2.96743E-05-5.59473E-06 6.56846E-19-2.02732E-19
 -1      2742 9.67900E-05-2.79347E-05-2.95036E-05-6.65310E-06-4.44561E-20 1.66987E-19
 -1      2743 9.72226E-05-2.80776E-05-2.96233E-05-5.10960E-06 7.30483E-19-2.39132E-19
 -1      2744 9.68429E-05-2.79561E-05-2.95285E-05-4.71534E-06 8.76502E-19-4.32504E-19
 -1      2745 9.62467E-05-2.75396E-05-2.94374E-05-5.70126E-06 5.03700E-19 1.29234E-19
 -1      2746 9.67241E-05-2.79344E-05-2.94713E-05-4.25260E-06 6.24970E-19-8.31615E-19
 -1      2747 9.64280E-05-2.78853E-05-2.93812E-05-3.86984E-06 7.33571E-19-1.23160E-18
 -1      2748 9.59133E-05-2.74129E-05-2.93486E-05-4.75680E-06 4.50225E-19 1.27641E-19
 -1      2749 9.63536E-05-2.79126E-05-2.93226E-05-3.45167E-06 5.76295E-19-1.54246E-18
 -1      2750 9.61219E-05-2.79057E-05-2.92407E-05-3.10329E-06-1.42856E-19-1.52601E-18
 -1      2751 9.57049E-05-2.74414E-05-2.92480E-05-3.87834E-06 4.07473E-20-1.02181E-18
 -1      2752 9.60732E-05-2.79564E-05-2.91846E-05-2.73975E-06-1.40277E-19-1.61670E-18
 -1      2753 9.58921E-05-2.79725E-05-2.91129E-05-2.43647E-06 1.61411E-19-1.42538E-18
 -1      2754 9.55703E-05-2.75506E-05-2.91448E-05-3.09675E-06 1.93611E-19-2.74828E-19
 -1      2755 9.58585E-05-2.80311E-05-2.90617E-05-2.12982E-06 2.12287E-19-1.59623E-18
 -1      2756 9.57178E-05-2.80580E-05-2.90007E-05-1.87453E-06 1.42671E-19-1.54248E-18
 -1      2757 9.54798E-05-2.76938E-05-2.90461E-05-2.42437E-06 2.19939E-19-1.77922E-18
 -1      2758 9.56935E-05-2.81159E-05-2.89558E-05-1.62230E-06 3.36518E-19-1.26953E-18
 -1      2759 9.55852E-05-2.81464E-05-2.89052E-05-1.41319E-06 2.34135E-19-8.89797E-19
 -1      2760 9.54163E-05-2.78435E-05-2.89560E-05-1.86160E-06 5.20544E-19-1.73092E-18
 -1      2761 9.55669E-05-2.81991E-05-2.88669E-05-1.21026E-06 5.11281E-20-8.38771E-19
 -1      2762 9.54847E-05-2.82292E-05-2.88260E-05-1.04293E-06-8.30004E-20-1.18041E-18
 -1      2763 9.53701E-05-2.79844E-05-2.88768E-05-1.40153E-06 2.93123E-20-1.16130E-18
 -1      2764 9.54705E-05-2.82748E-05-2.87942E-05-8.82952E-07 1.95888E-19-8.04633E-19
 -1      2765 9.54090E-05-2.83022E-05-2.87617E-05-7.51868E-07 4.63224E-19-6.83400E-19
 -1      2766 9.53356E-05-2.81094E-05-2.88093E-05-1.03330E-06 2.64608E-19-1.78839E-18
 -1      2767 9.53980E-05-2.83403E-05-2.87358E-05-6.28186E-07-4.19612E-19-1.25327E-18
 -1      2768 9.53529E-05-2.83642E-05-2.87106E-05-5.27554E-07-9.86078E-19-5.21399E-19
 -1      2769 9.53095E-05-2.82156E-05-2.87533E-05-7.44337E-07-2.26818E-19-1.93511E-18
 -1      2770 9.53442E-05-2.83950E-05-2.86900E-05-4.33774E-07-4.75521E-19-2.17037E-19
 -1      2771 9.53118E-05-2.84152E-05-2.86708E-05-3.58064E-07-4.77274E-19 4.75241E-19
 -1      2772 9.52896E-05-2.83032E-05-2.87077E-05-5.21904E-07-4.30082E-22-3.86009E-19
 -1      2773 9.53051E-05-2.84396E-05-2.86548E-05-2.88376E-07-5.45651E-19 6.88425E-19
 -1      2774 9.52823E-05-2.84561E-05-2.86404E-05-2.32605E-07-2.56239E-19 5.05797E-19
 -1      2775 9.52745E-05-2.83735E-05-2.86714E-05-3.53970E-07-5.50564E-19 4.70115E-19
 -1      2776 9.52772E-05-2.84750E-05-2.86281E-05-1.81937E-07-1.04671E-19 6.99313E-19
 -1      2777 9.52618E-05-2.84882E-05-2.86176E-05-1.41791E-07 2.10502E-19 9.38007E-19
 -1      2778 9.52632E-05-2.84288E-05-2.86431E-05-2.29735E-07-2.81866E-19 9.87088E-19
 -1      2779 9.52578E-05-2.85026E-05-2.86084E-05-1.05848E-07 1.50702E-19 3.09503E-19
 -1      2780 9.52478E-05-2.85129E-05-2.86009E-05-7.77055E-08 2.01551E-19 1.04060E-20
 -1      2781 9.52547E-05-2.84713E-05-2.86214E-05-1.39845E-07-5.35715E-19-2.57155E-19
 -1      2782 9.52449E-05-2.85236E-05-2.85941E-05-5.29433E-08 5.62938E-19-8.93146E-19
 -1      2783 9.52388E-05-2.85316E-05-2.85890E-05-3.38376E-08 1.17402E-19-9.16056E-19
 -1      2784 9.52485E-05-2.85034E-05-2.86051E-05-7.64318E-08-9.35313E-19-2.40678E-18
 -1      2785 9.52367E-05-2.85393E-05-2.85841E-05-1.73950E-08-3.02585E-19-2.29162E-19
 -1      2786 9.52333E-05-2.85453E-05-2.85806E-05-4.95291E-09-1.07280E-18-5.42212E-19
 -1      2787 9.52441E-05-2.85270E-05-2.85931E-05-3.30359E-08-1.87242E-19-1.58167E-18
 -1      2788 9.52318E-05-2.85508E-05-2.85772E-05 5.43213E-09-8.64938E-19-4.90591E-19
 -1      2789 9.52304E-05-2.85552E-05-2.85751E-05 1.30711E-08-2.54302E-20-4.28429E-19
 -1      2790 9.52410E-05-2.85441E-05-2.85845E-05-4.46914E-09-3.48354E-19 1.38118E-20
 -1      2791 9.52293E-05-2.85590E-05-2.85728E-05 1.91508E-08 9.13443E-19 4.55680E-19
 -1      2792 9.52291E-05-2.85623E-05-2.85715E-05 2.34139E-08 8.58424E-19 1.21973E-18
 -1      2793 9.52389E-05-2.85560E-05-2.85785E-05 1.33504E-08 6.95659E-19-5.65228E-19
 -1      2794 9.52284E-05-2.85647E-05-2.85700E-05 2.65169E-08 4.14877E-19 1.65187E-18
 -1      2795 9.52290E-05-2.85671E-05-2.85694E-05 2.84737E-08 5.06802E-19 2.31219E-18
 -1      2796 9.52375E-05-2.85642E-05-2.85744E-05 2.35681E-08 4.69576E-19 3.21965E-19
 -1      2797 9.52286E-05-2.85687E-05-2.85685E-05 2.95827E-08-7.81212E-19 1.96357E-18
 -1      2798 9.52296E-05-2.85703E-05-2.85682E-05 3.00119E-08-1.09910E-18 7.83892E-19
 -1      2799 9.52367E-05-2.85696E-05-2.85718E-05 2.85538E-08-8.72681E-19-3.26855E-19
 -1      2800 9.52294E-05-2.85713E-05-2.85677E-05 2.98314E-08-9.71415E-19 5.83772E-19
 -1      2801 9.52307E-05-2.85725E-05-2.85678E-05 2.92779E-08 2.98488E-19-3.58775E-19
 -1      2802 9.52363E-05-2.85730E-05-2.85701E-05 3.00460E-08-1.14001E-18-1.40507E-20
 -1      2803 9.52306E-05-2.85731E-05-2.85675E-05 2.82914E-08 1.18356E-18-1.35263E-19
 -1      2804 9.52320E-05-2.85740E-05-2.85677E-05 2.71130E-08 1.45208E-18 2.73327E-19
 -1      2805 9.52363E-05-2.85751E-05-2.85692E-05 2.92774E-08 8.15196E-19-1.18375E-18
 -1      2806 9.52320E-05-2.85745E-05-2.85675E-05 2.56514E-08 5.15671E-19-1.10088E-19
 -1      2807 9.52334E-05-2.85752E-05-2.85678E-05 2.40013E-08 2.07819E-19-8.94088E-19
 -1      2808 9.52364E-05-2.85765E-05-2.85686E-05 2.71063E-08 5.92821E-19-1.85688E-18
 -1      2809 9.52336E-05-2.85756E-05-2.85677E-05 2.22693E-08-4.40444E-19-1.44465E-18
 -1      2810 9.52349E-05-2.85764E-05-2.85679E-05 2.03462E-08-1.27910E-18-2.50771E-18
 -1      2811 9.52369E-05-2.85776E-05-2.85683E-05 2.40313E-08-4.60568E-19-1.89003E-18
 -1      2812 1.18176E-04-4.22996E-05-3.25840E-05 5.57216E-06 9.67867E-20 1.39240E-18
 -1      2813 1.17441E-04-4.21118E-05-3.22329E-05 2.87655E-06 1.57417E-19 1.44859E-18
 -1      2814 1.14730E-04-4.06191E-05-3.18392E-05 6.46401E-08 1.94766E-19 1.12757E-18
 -1      2815 1.13352E-04-3.91319E-05-3.17322E-05-1.95866E-06 2.31216E-19 1.22899E-18
 -1      2816 1.16655E-04-4.31456E-05-3.15968E-05-4.12091E-07 1.39937E-19 9.18190E-19
 -1      2817 1.16607E-04-3.16706E-05-3.64208E-05 1.38713E-05 5.06526E-19 2.01722E-18
 -1      2818 1.18806E-04-3.63471E-05-3.55509E-05 1.39937E-05 3.40891E-19 1.69145E-18
 -1      2819 1.12039E-04-2.24755E-05-3.85071E-05 8.63442E-06 1.51000E-18 1.63199E-18
 -1      2820 1.14291E-04-2.67093E-05-3.78427E-05 1.20567E-05 1.00982E-18 1.79967E-18
 -1      2821 1.19752E-04-2.96409E-05-3.86509E-05 1.39189E-05 6.95705E-19 1.82090E-18
 -1      2822 1.10702E-04-1.98619E-05-3.91418E-05-3.11535E-06 2.32577E-18 4.48875E-19
 -1      2823 1.10744E-04-1.98075E-05-3.91462E-05 2.18917E-06 2.01544E-18 1.02921E-18
 -1      2824 1.15205E-04-1.91847E-05-4.12888E-05 5.98627E-06 2.30097E-18 1.27894E-18
 -1      2825 1.14147E-04-2.64179E-05-3.78919E-05-1.30206E-05 1.88168E-18-1.05576E-18
 -1      2826 1.12103E-04-2.22870E-05-3.85257E-05-9.33782E-06 2.38215E-18-3.60962E-19
 -1      2827 1.15242E-04-1.90490E-05-4.14178E-05-6.94689E-06 2.84518E-18-5.28601E-20
 -1      2828 1.18848E-04-3.62603E-05-3.55847E-05-1.50234E-05 1.60464E-18-1.80294E-18
 -1      2829 1.16619E-04-3.14857E-05-3.64557E-05-1.48008E-05 1.49988E-18-1.60610E-18
 -1      2830 1.19625E-04-2.92084E-05-3.88916E-05-1.51077E-05 2.19535E-18-2.30623E-18
 -1      2831 1.20118E-04-4.21278E-05-3.34412E-05-1.03087E-05 4.54264E-19-1.61806E-18
 -1      2832 1.19248E-04-3.96736E-05-3.41426E-05-1.24482E-05 1.18651E-18-1.52187E-18
 -1      2833 1.22748E-04-4.01069E-05-3.56217E-05-1.37352E-05 1.14712E-18-2.03741E-18
 -1      2834 1.17572E-04-4.26985E-05-3.20278E-05-3.34931E-06-5.84409E-19-7.20756E-19
 -1      2835 1.18271E-04-4.27486E-05-3.24489E-05-6.19398E-06-1.69059E-19-8.62185E-19
 -1      2836 1.21556E-04-4.53198E-05-3.28117E-05-6.62249E-06-4.05621E-19-1.05812E-18
 -1      2837 1.13222E-04-4.00316E-05-3.12961E-05 2.36051E-06-3.92075E-20-3.59716E-19
 -1      2838 1.14743E-04-4.13771E-05-3.15137E-05-2.99095E-08-2.99823E-19-4.39459E-19
 -1      2839 1.16650E-04-4.41955E-05-3.11654E-05 5.81244E-07-6.34146E-19-7.69953E-19
 -1      2840 1.08893E-04-3.65395E-05-3.09566E-05 5.94462E-06 8.13595E-19 1.93358E-19
 -1      2841 1.10565E-04-3.81567E-05-3.10793E-05 4.36811E-06 6.61632E-19 8.09706E-22
 -1      2842 1.10974E-04-4.01830E-05-3.04154E-05 5.52455E-06-1.80061E-20 8.33798E-22
 -1      2843 1.05359E-04-3.34768E-05-3.07752E-05 7.65897E-06-7.58992E-20 8.75818E-19
 -1      2844 1.06845E-04-3.48545E-05-3.08770E-05 6.85705E-06 4.90545E-19 6.37844E-19
 -1      2845 1.06159E-04-3.59165E-05-3.01487E-05 8.13447E-06 1.71996E-19 1.92791E-19
 -1      2846 1.02733E-04-3.12489E-05-3.06203E-05 8.07387E-06 7.86136E-20 7.77896E-19
 -1      2847 1.03945E-04-3.22487E-05-3.07347E-05 7.84805E-06 9.14688E-20 9.64049E-19
 -1      2848 1.02651E-04-3.25278E-05-3.00742E-05 9.04599E-06-7.19382E-20 5.08599E-19
 -1      2849 1.00845E-04-2.98023E-05-3.04413E-05 7.70099E-06 1.72349E-19-3.59295E-20
 -1      2850 1.01808E-04-3.04627E-05-3.05742E-05 7.84382E-06 3.05196E-19 5.34791E-19
 -1      2851 1.00295E-04-3.02302E-05-3.00345E-05 8.90858E-06 2.60613E-19 7.13345E-19
 -1      2852 9.94851E-05-2.89419E-05-3.02327E-05 6.90977E-06-1.53727E-19-6.04182E-19
 -1      2853 1.00248E-04-2.93501E-05-3.03771E-05 7.25594E-06-4.08937E-20-1.85545E-19
 -1      2854 9.87642E-05-2.88401E-05-2.99667E-05 8.19088E-06 3.15348E-19-2.23453E-19
 -1      2855 9.84839E-05-2.84731E-05-3.00071E-05 5.94382E-06 5.67363E-21-1.09856E-18
 -1      2856 9.90931E-05-2.87117E-05-3.01528E-05 6.37810E-06-2.30845E-19-9.32456E-19
 -1      2857 9.77702E-05-2.80903E-05-2.98588E-05 7.19677E-06-3.40825E-20-9.87233E-19
 -1      2858 9.77267E-05-2.82467E-05-2.97804E-05 4.95322E-06 1.70520E-19-4.75010E-19
 -1      2859 9.82154E-05-2.83779E-05-2.99188E-05 5.40262E-06 8.03825E-20-6.47281E-19
 -1      2860 9.71072E-05-2.77491E-05-2.97201E-05 6.11554E-06-2.60285E-19-1.40053E-18
 -1      2861 9.71409E-05-2.81615E-05-2.95659E-05 4.02333E-06 2.38541E-19-1.13470E-18
 -1      2862 9.75331E-05-2.82274E-05-2.96911E-05 4.44598E-06-1.51184E-20-5.97693E-19
 -1      2863 9.66455E-05-2.76486E-05-2.95657E-05 5.06024E-06 4.49070E-19-1.61584E-18
 -1      2864 9.66816E-05-2.81535E-05-2.93720E-05 3.19694E-06 7.53381E-19-1.51536E-18
 -1      2865 9.69949E-05-2.81811E-05-2.94811E-05 3.57193E-06 5.42855E-19-1.07857E-18
 -1      2866 9.63087E-05-2.76786E-05-2.94094E-05 4.09358E-06 4.64188E-19-1.61972E-18
 -1      2867 9.63200E-05-2.81846E-05-2.92032E-05 2.49004E-06 1.46433E-18-6.06935E-19
 -1      2868 9.65679E-05-2.81905E-05-2.92954E-05 2.80970E-06 1.22040E-18-7.44045E-19
 -1      2869 9.60535E-05-2.77714E-05-2.92611E-05 3.24543E-06 5.03976E-19-7.33174E-19
 -1      2870 9.60363E-05-2.82326E-05-2.90605E-05 1.90269E-06 1.41489E-18-2.97733E-19
 -1      2871 9.62300E-05-2.82268E-05-2.91364E-05 2.16712E-06 1.57598E-18-2.62189E-19
 -1      2872 9.58554E-05-2.78878E-05-2.91272E-05 2.52480E-06 1.49929E-18-5.23712E-19
 -1      2873 9.58156E-05-2.82853E-05-2.89429E-05 1.42612E-06-3.17411E-19-4.72374E-19
 -1      2874 9.59649E-05-2.82737E-05-2.90040E-05 1.63961E-06 8.99523E-19-2.29003E-20
 -1      2875 9.57000E-05-2.80062E-05-2.90105E-05 1.92814E-06 6.04496E-19 5.62221E-19
 -1      2876 9.56461E-05-2.83362E-05-2.88481E-05 1.04735E-06-1.48178E-19-5.26066E-19
 -1      2877 9.57593E-05-2.83223E-05-2.88963E-05 1.21614E-06-5.56991E-19-5.75282E-19
 -1      2878 9.55783E-05-2.81158E-05-2.89118E-05 1.44486E-06-5.52809E-19 2.61042E-19
 -1      2879 9.55179E-05-2.83822E-05-2.87731E-05 7.51971E-07-7.90435E-19 3.78227E-19
 -1      2880 9.56021E-05-2.83680E-05-2.88104E-05 8.82873E-07-3.76020E-19-7.60701E-21
 -1      2881 9.54835E-05-2.82118E-05-2.88304E-05 1.06105E-06-5.72099E-19 1.51507E-19
 -1      2882 9.54227E-05-2.84221E-05-2.87150E-05 5.25807E-07-7.68572E-19 1.86903E-19
 -1      2883 9.54841E-05-2.84087E-05-2.87433E-05 6.25454E-07-6.59876E-19 3.96922E-19
 -1      2884 9.54108E-05-2.82929E-05-2.87647E-05 7.61805E-07-7.30047E-19 6.53068E-19
 -1      2885 9.53534E-05-2.84556E-05-2.86707E-05 3.55820E-07-1.54163E-18 6.28469E-19
 -1      2886 9.53971E-05-2.84436E-05-2.86918E-05 4.30252E-07-1.23690E-18 1.02453E-19
 -1      2887 9.53557E-05-2.83596E-05-2.87127E-05 5.32682E-07-1.12417E-18 3.94972E-19
 -1      2888 9.53041E-05-2.84831E-05-2.86377E-05 2.30536E-07-1.54311E-18 1.36844E-18
 -1      2889 9.53344E-05-2.84728E-05-2.86531E-05 2.85021E-07-1.77587E-18 1.03901E-18
 -1      2890 9.53149E-05-2.84133E-05-2.86723E-05 3.60449E-07-1.94462E-18 5.19352E-19
 -1      2891 9.52702E-05-2.85053E-05-2.86136E-05 1.40169E-07-1.08924E-19 1.85033E-18
 -1      2892 9.52904E-05-2.84966E-05-2.86245E-05 1.79166E-07-1.01734E-18 2.04153E-18
 -1      2893 9.52853E-05-2.84557E-05-2.86414E-05 2.33485E-07-1.72996E-18 5.49318E-20
 -1      2894 9.52476E-05-2.85229E-05-2.85964E-05 7.65872E-08 1.05865E-18 1.95783E-18
 -1      2895 9.52605E-05-2.85156E-05-2.86039E-05 1.03775E-07 1.05053E-18 2.53727E-18
 -1      2896 9.52644E-05-2.84885E-05-2.86184E-05 1.41887E-07 1.17006E-19 8.89846E-19
 -1      2897 9.52335E-05-2.85365E-05-2.85844E-05 3.31778E-08-2.23362E-19 2.19476E-18
 -1      2898 9.52410E-05-2.85307E-05-2.85894E-05 5.15286E-08 8.09168E-19 2.19237E-18
 -1      2899 9.52500E-05-2.85136E-05-2.86015E-05 7.74264E-08 4.82509E-19 2.19082E-18
 -1      2900 9.52253E-05-2.85469E-05-2.85764E-05 4.66493E-09-2.61509E-19 9.69672E-19
 -1      2901 9.52291E-05-2.85423E-05-2.85796E-05 1.65351E-08-1.63635E-19 1.87875E-18
 -1      2902 9.52406E-05-2.85323E-05-2.85894E-05 3.34060E-08 2.22161E-19 1.03701E-18
 -1      2903 9.52212E-05-2.85547E-05-2.85713E-05-1.30811E-08-7.97407E-19 1.94734E-18
 -1      2904 9.52226E-05-2.85511E-05-2.85732E-05-5.85867E-09-7.44794E-19 1.40399E-18
 -1      2905 9.52347E-05-2.85460E-05-2.85810E-05 4.48386E-09-4.47681E-19-5.95436E-19
 -1      2906 9.52200E-05-2.85605E-05-2.85683E-05-2.32321E-08-1.70093E-18 9.71127E-19
 -1      2907 9.52198E-05-2.85577E-05-2.85692E-05-1.92593E-08-8.57045E-19 1.84909E-18
 -1      2908 9.52314E-05-2.85559E-05-2.85754E-05-1.35224E-08-6.90913E-19 3.44615E-19
 -1      2909 9.52206E-05-2.85647E-05-2.85667E-05-2.81735E-08-9.58657E-19 7.61942E-19
 -1      2910 9.52193E-05-2.85626E-05-2.85671E-05-2.64071E-08-1.45385E-18 4.04538E-19
 -1      2911 9.52299E-05-2.85628E-05-2.85717E-05-2.38246E-08-1.40786E-18-1.54422E-19
 -1      2912 9.52222E-05-2.85678E-05-2.85661E-05-2.96545E-08-5.10098E-19 1.48661E-18
 -1      2913 9.52204E-05-2.85661E-05-2.85661E-05-2.93376E-08-8.15862E-19 9.56426E-19
 -1      2914 9.52296E-05-2.85675E-05-2.85695E-05-2.88366E-08-1.25382E-18 3.21666E-19
 -1      2915 9.52245E-05-2.85700E-05-2.85662E-05-2.89145E-08 2.04760E-19 4.14946E-19
 -1      2916 9.52225E-05-2.85687E-05-2.85659E-05-2.95189E-08 9.06721E-21 4.98071E-19
 -1      2917 9.52300E-05-2.85707E-05-2.85684E-05-3.03259E-08 2.59416E-19-5.35224E-19
 -1      2918 9.52270E-05-2.85717E-05-2.85665E-05-2.67887E-08 1.14840E-18-2.60692E-19
 -1      2919 9.52249E-05-2.85706E-05-2.85661E-05-2.79688E-08 4.54977E-19 3.22900E-19
 -1      2920 9.52309E-05-2.85728E-05-2.85678E-05-2.95443E-08 8.48111E-19-9.11516E-19
 -1      2921 9.52295E-05-2.85730E-05-2.85671E-05-2.37590E-08 2.03749E-18 4.63910E-19
 -1      2922 9.52276E-05-2.85722E-05-2.85666E-05-2.53533E-08 1.60344E-18 1.28922E-19
 -1      2923 9.52321E-05-2.85742E-05-2.85677E-05-2.73548E-08 8.10375E-19-1.01858E-18
 -1      2924 9.52320E-05-2.85743E-05-2.85676E-05-2.01720E-08 2.01847E-18 1.53760E-18
 -1      2925 9.52302E-05-2.85735E-05-2.85672E-05-2.20486E-08 2.34533E-18 1.02950E-18
 -1      2926 9.52335E-05-2.85754E-05-2.85677E-05-2.42623E-08 1.46019E-18 6.38208E-19
 -1      2927 9.52347E-05-2.85760E-05-2.85680E-05-1.67896E-08 5.13629E-19 1.76547E-18
 -1      2928 9.52331E-05-2.85752E-05-2.85677E-05-1.89156E-08 1.21083E-18 1.73336E-18
 -1      2929 9.52355E-05-2.85769E-05-2.85679E-05-2.10912E-08 1.40151E-18 7.22143E-19
 -1      2930 9.52375E-05-2.85787E-05-2.85680E-05-1.81240E-08 1.07721E-18 8.56455E-19
 -1      2931 6.56527E-05-3.42140E-05-1.30190E-05-3.73261E-05 2.58282E-18 1.52466E-19
 -1      2932 8.27599E-05-4.43460E-05-1.63147E-05-4.01031E-05 3.10141E-18 1.72054E-19
 -1      2933 9.52510E-05-2.85915E-05-2.85683E-05-1.53101E-09 1.14636E-18-2.21930E-19
 -1      2934 9.52507E-05-2.85913E-05-2.85683E-05-4.35040E-09 2.02277E-18-1.30125E-18
 -1      2935 1.36892E-04-3.66927E-05-4.35743E-05-1.05082E-05-2.07248E-18 2.92968E-19
 -1      2936 1.39785E-04-4.64275E-05-4.01275E-05-4.67683E-06-1.28580E-18 4.91703E-19
 -1      2937 9.52482E-05-2.85888E-05-2.85683E-05-1.25042E-08 8.16317E-19 1.70718E-18
 -1      2938 9.52468E-05-2.85874E-05-2.85683E-05-1.44579E-08 4.71113E-19-1.66541E-19
 -1      2939 9.52507E-05-2.85912E-05-2.85683E-05 4.46689E-09-1.15391E-18 9.65820E-20
 -1      2940 9.52510E-05-2.85915E-05-2.85683E-05 1.65038E-09-5.75557E-19 4.53195E-19
 -1      2941 9.52526E-05-2.85909E-05-2.85693E-05 6.58717E-11 7.88389E-19-1.94067E-18
 -1      2942 9.52502E-05-2.85907E-05-2.85683E-05-7.38279E-09 1.14744E-18 8.01793E-19
 -1      2943 9.52493E-05-2.85899E-05-2.85683E-05-9.91458E-09 3.23256E-19 3.58011E-18
 -1      2944 9.52500E-05-2.85888E-05-2.85691E-05-1.21482E-08 1.47446E-19 2.03880E-18
 -1      2945 9.52519E-05-2.85904E-05-2.85693E-05-6.34764E-09 1.45976E-18-1.68503E-19
 -1      2946 9.52493E-05-2.85899E-05-2.85683E-05 9.92744E-09-3.93719E-19-1.16351E-18
 -1      2947 9.52502E-05-2.85907E-05-2.85683E-05 7.44343E-09-1.02055E-18-8.73831E-20
 -1      2948 9.52519E-05-2.85903E-05-2.85693E-05 6.42028E-09-1.08114E-18 2.88791E-19
 -1      2949 9.52468E-05-2.85874E-05-2.85683E-05 1.44724E-08 1.23576E-18-6.43248E-19
 -1      2950 9.52482E-05-2.85888E-05-2.85683E-05 1.25094E-08 2.24463E-19-5.43498E-19
 -1      2951 9.52500E-05-2.85888E-05-2.85691E-05 1.21600E-08-9.41990E-20-3.94275E-19
 -1      2952 9.52433E-05-2.85841E-05-2.85682E-05 1.73508E-08 6.67597E-19-8.00736E-19
 -1      2953 9.52451E-05-2.85859E-05-2.85682E-05 1.62801E-08 1.38978E-18-1.11736E-18
 -1      2954 9.52467E-05-2.85861E-05-2.85689E-05 1.67591E-08 1.20266E-18-1.30682E-18
 -1      2955 1.10837E-04-3.70430E-05-3.16806E-05-3.31069E-06 3.52640E-19 1.00419E-18
 -1      2956 1.09469E-04-3.52467E-05-3.17333E-05-4.24915E-06 4.20009E-19 1.14709E-18
 -1      2957 1.06728E-04-3.38401E-05-3.12792E-05-5.45967E-06 5.20803E-19 4.93746E-19
 -1      2958 1.11238E-04-3.87364E-05-3.11361E-05-4.34425E-06 1.80089E-19 4.43119E-19
 -1      2959 1.38108E-04-5.32464E-05-3.63949E-05-2.17738E-06 3.13124E-19-2.73094E-18
 -1      2960 1.39324E-04-4.75105E-05-3.99747E-05 3.74929E-06-4.43078E-19-2.88891E-18
 -1      2961 9.62818E-05-1.95497E-05-3.29035E-05-1.76817E-06-8.95792E-19-2.04346E-18
 -1      2962 4.91268E-05-2.22377E-05-1.10992E-05 2.78924E-05-1.23677E-18 3.55881E-18
 -1      2963 3.97648E-05-1.62598E-05-9.50191E-06 1.81128E-05-1.00569E-18 3.14397E-18
 -1      2964 3.30874E-05-1.22898E-05-8.42452E-06-1.40805E-05-9.10825E-20-4.42405E-18
 -1      2965 4.18777E-05-1.86957E-05-9.57626E-06-2.71947E-05-6.31569E-19-4.18286E-18
 -1      2966 1.39070E-04-3.80356E-05-4.35958E-05 9.71522E-06-9.90287E-19-2.50065E-18
 -1      2967 1.37359E-04-2.89020E-05-4.71603E-05 1.16977E-05-1.77019E-18-2.15125E-18
 -1      2968 1.19365E-04-3.97047E-05-3.41453E-05 1.14314E-05 2.60979E-19 1.61561E-18
 -1      2969 1.19979E-04-4.19371E-05-3.34838E-05 9.21598E-06 7.82662E-20 1.62486E-18
 -1      2970 1.21427E-04-4.45034E-05-3.30413E-05 6.30975E-06-5.32770E-20 1.57086E-18
 -1      2971 1.23114E-04-4.04574E-05-3.54795E-05 1.25680E-05 2.22730E-19 1.76414E-18
 -1      2972 1.03161E-04-2.79689E-05-3.21814E-05 1.14109E-06-7.50729E-19-1.37102E-18
 -1      2973 1.04070E-04-2.98960E-05-3.18202E-05 2.23050E-06-6.91607E-19-1.21550E-18
 -1      2974 1.02983E-04-3.00502E-05-3.13011E-05 3.48815E-06-5.14355E-19-1.30620E-18
 -1      2975 1.39273E-04-4.23020E-05-4.22758E-05-9.87919E-06 2.31833E-18-1.06938E-18
 -1      2976 1.40119E-04-5.07336E-05-3.83646E-05-3.50414E-06 1.48723E-18-1.02385E-18
 -1      2977 9.52360E-05-2.85772E-05-2.85680E-05 1.75147E-08-7.38967E-19-2.17298E-18
 -1      2978 9.52379E-05-2.85792E-05-2.85680E-05 1.79576E-08-6.02443E-19-2.66509E-18
 -1      2979 9.52351E-05-2.85767E-05-2.85679E-05 1.89985E-08-5.30232E-19-2.35986E-18
 -1      2980 8.11289E-05-1.07677E-05-3.01322E-05-3.07999E-06 1.55212E-18-1.57848E-18
 -1      2981 7.80505E-05-8.95070E-06-2.96692E-05-3.08449E-06 1.37580E-18-1.79242E-18
 -1      2982 7.69386E-05-9.44997E-06-2.88998E-05-3.92568E-06 1.19344E-18-1.71576E-18
 -1      2983 8.36390E-05-1.39281E-05-2.98796E-05-4.58823E-06 1.30713E-18-1.34481E-18
 -1      2984 8.04266E-05-1.07495E-05-2.99085E-05 3.97675E-06 3.31985E-19-2.21290E-18
 -1      2985 8.35597E-05-1.26489E-05-3.03728E-05 3.55487E-06 8.25450E-20-2.17741E-18
 -1      2986 1.22749E-04-5.88639E-05-2.71866E-05-2.33808E-05 2.18863E-18-1.38463E-18
 -1      2987 1.33476E-04-5.84089E-05-3.25848E-05-1.31927E-05 1.11533E-18-2.13971E-18
 -1      2988 9.36505E-05-4.78287E-05-1.91470E-05-3.69957E-05-1.62344E-18-2.15985E-18
 -1      2989 1.08565E-04-5.46754E-05-2.32301E-05-3.35162E-05-1.38458E-18-1.20153E-18
 -1      2990 3.33706E-05-1.28853E-05-8.29670E-06 7.69441E-06-5.92817E-19 2.65121E-18
 -1      2991 3.29680E-05-1.27854E-05-8.22166E-06-7.41467E-06 7.70668E-19 2.98431E-18
 -1      2992 4.39550E-05-1.46029E-05-1.19886E-05 1.18789E-05-5.96841E-19 2.92936E-18
 -1      2993 5.57530E-05-2.75690E-05-1.15460E-05-3.45492E-05-1.33397E-18-3.63388E-18
 -1      2994 7.38079E-05-3.80182E-05-1.53066E-05-3.95336E-05-1.46812E-18-2.90797E-18
 -1      2995 1.37810E-04-5.56340E-05-3.51086E-05-4.15400E-06-4.32701E-19 7.34166E-19
 -1      2996 1.38740E-04-4.88985E-05-3.90718E-05 4.98996E-06 3.27749E-19 1.04545E-18
 -1      2997 1.21342E-04-5.81219E-05-2.68109E-05-2.50338E-05-1.20925E-18-4.38340E-19
 -1      2998 1.31297E-04-5.90502E-05-3.14246E-05-1.57102E-05-7.47877E-19 4.53798E-19
 -1      2999 1.16291E-04-5.55364E-05-2.57942E-05-2.55213E-05-1.49163E-18-4.49669E-19
 -1      3000 1.24585E-04-2.15687E-05-4.47059E-05 1.30098E-05 1.98026E-18 1.43270E-18
 -1      3001 1.21641E-04-1.55512E-05-4.60490E-05 6.82934E-06 2.89939E-18 8.55742E-19
 -1      3002 3.18096E-05-1.08521E-05-8.53890E-06 1.07993E-05 8.19001E-19-4.00752E-18
 -1      3003 2.98243E-05-9.79608E-06-7.98261E-06-1.44106E-06 5.54112E-19-4.63623E-18
 -1      3004 9.07078E-05-4.58260E-05-1.91185E-05 3.89075E-05 9.34489E-19-3.89159E-19
 -1      3005 7.66181E-05-3.79108E-05-1.59173E-05 3.84777E-05 1.31396E-18-1.09617E-18
 -1      3006 1.27817E-04-1.07593E-05-5.07169E-05 4.69754E-06-2.99850E-18-1.45663E-18
 -1      3007 1.25599E-04-9.99863E-06-5.02336E-05-1.84727E-06-3.01883E-18-1.22605E-18
 -1      3008 1.38574E-04-5.37204E-05-3.69143E-05 4.73609E-06-1.09147E-18 7.18707E-19
 -1      3009 1.34013E-04-5.72909E-05-3.27103E-05 1.27970E-05-3.57924E-19 5.30560E-19
 -1      3010 1.34532E-04-2.08619E-05-4.91911E-05 1.18915E-05-2.56291E-18-1.82165E-18
 -1      3011 1.30293E-04-1.42462E-05-5.04573E-05 8.92316E-06-2.80198E-18-1.45520E-18
 -1      3012 1.31216E-04-2.13408E-05-4.78072E-05-1.29717E-05 3.84045E-18-1.23958E-18
 -1      3013 1.36786E-04-3.15147E-05-4.53886E-05-1.41806E-05 3.28363E-18-1.44906E-18
 -1      3014 1.33837E-04-3.77665E-05-4.13577E-05-1.38717E-05 2.36894E-18-1.66188E-18
 -1      3015 1.37141E-04-5.70277E-05-3.47402E-05 6.50634E-06 6.40383E-19-1.38469E-18
 -1      3016 1.29509E-04-5.93487E-05-3.00582E-05 1.59439E-05 7.71329E-20-1.27140E-18
 -1      3017 9.77179E-05-5.11036E-05-1.96242E-05-3.63346E-05 3.22762E-18-3.89476E-19
 -1      3018 1.10470E-04-5.63681E-05-2.33257E-05-3.26226E-05 2.70680E-18-7.87449E-19
 -1      3019 8.69924E-05-1.49965E-05-3.08910E-05 2.88990E-06-1.09383E-19-2.17033E-18
 -1      3020 9.03348E-05-1.70614E-05-3.14063E-05 1.97572E-06-4.18451E-19-2.22672E-18
 -1      3021 8.63887E-05-1.60288E-05-3.01524E-05 4.71222E-06 3.41328E-20-1.99679E-18
 -1      3022 7.15192E-05-5.84726E-06-2.80970E-05 1.42263E-06 9.43203E-19-2.01989E-18
 -1      3023 7.18944E-05-4.97501E-06-2.87189E-05 1.93225E-06 9.41016E-19-2.14153E-18
 -1      3024 7.30324E-05-5.67113E-06-2.88633E-05 2.65294E-06 7.70386E-19-2.16030E-18
 -1      3025 9.94865E-05-2.34803E-05-3.26020E-05-9.33487E-07 1.64537E-18 2.29685E-19
 -1      3026 1.35915E-04-5.37692E-05-3.52719E-05-1.37762E-06 3.71421E-19-1.46627E-18
 -1      3027 4.35268E-05-1.48055E-05-1.16640E-05-1.25786E-05 1.56966E-18 2.02314E-18
 -1      3028 1.24445E-04-5.94405E-05-2.77982E-05 2.07378E-05-3.01332E-19-1.32071E-18
 -1      3029 1.15950E-04-5.60066E-05-2.54607E-05 2.43010E-05-7.00655E-19-4.77118E-19
 -1      3030 1.27391E-04-5.81451E-05-2.99159E-05 1.18667E-05-5.80932E-19-2.07346E-18
 -1      3031 9.52374E-05-2.85785E-05-2.85681E-05 2.08278E-08-6.09523E-19-2.78875E-18
 -1      3032 1.35626E-04-4.22358E-05-4.00589E-05 1.06103E-05-2.00535E-19-2.95445E-18
 -1      3033 6.87931E-05-3.14061E-05-1.58129E-05 3.22847E-05-1.01951E-18 1.95220E-18
 -1      3034 5.83521E-05-2.65005E-05-1.30917E-05 3.06023E-05-1.13481E-18 2.83068E-18
 -1      3035 5.81854E-05-2.23586E-05-1.49983E-05 2.53265E-05-4.48716E-19 3.41958E-18
 -1      3036 9.37841E-05-4.70434E-05-1.96436E-05-3.49367E-05 3.43218E-18-2.72903E-20
 -1      3037 6.44075E-05-2.93720E-05-1.44703E-05-3.20506E-05 2.47122E-18 4.26799E-19
 -1      3038 9.52398E-05-2.85809E-05-2.85681E-05-1.80871E-08 6.57911E-19-6.40786E-19
 -1      3039 9.52389E-05-2.85799E-05-2.85682E-05-1.97621E-08 5.22569E-19-1.06834E-19
 -1      3040 9.52419E-05-2.85829E-05-2.85681E-05-1.79999E-08-5.86690E-19-1.39928E-19
 -1      3041 1.29391E-04-1.61111E-05-4.92168E-05-1.06323E-05 4.26481E-18-8.72762E-19
 -1      3042 1.27230E-04-2.19097E-05-4.54766E-05-1.33416E-05 3.56601E-18-1.32354E-18
 -1      3043 1.26934E-04-1.20965E-05-4.96991E-05-5.87682E-06 4.58520E-18-7.98699E-19
 -1      3044 1.36281E-04-4.98352E-05-3.71403E-05-2.52583E-06-8.09181E-19 6.71379E-19
 -1      3045 1.30977E-04-2.56292E-05-4.52624E-05 1.38984E-05-1.44154E-18-2.47821E-18
 -1      3046 9.52399E-05-2.85812E-05-2.85680E-05 1.79063E-08 5.77758E-19-1.19208E-18
 -1      3047 1.23949E-04-1.37262E-05-4.74660E-05 7.63983E-06-2.59976E-18-1.98237E-18
 -1      3048 9.04732E-05-4.71684E-05-1.81862E-05 3.71408E-05-1.20247E-18 1.51539E-18
 -1      3049 8.35222E-05-4.13218E-05-1.77188E-05 3.59107E-05-1.35006E-18 1.58903E-18
 -1      3050 1.00857E-04-5.07499E-05-2.14370E-05 3.19125E-05-7.24266E-19 1.56344E-18
 -1      3051 3.83463E-05-1.08126E-05-1.11459E-05-8.38087E-06 1.84759E-19-4.21547E-18
 -1      3052 1.02495E-04-4.98520E-05-2.23736E-05 3.23380E-05 1.03359E-18-4.75199E-20
 -1      3053 3.96861E-05-1.31499E-05-1.06789E-05 1.78763E-05 1.09537E-18-3.32736E-18
 -1      3054 4.17863E-05-1.06335E-05-1.28450E-05 1.19343E-05 1.01692E-18-3.47898E-18
 -1      3055 4.86413E-05-1.67421E-05-1.35932E-05 2.43506E-05 1.41227E-18-2.61881E-18
 -1      3056 1.32628E-04-5.66232E-05-3.25678E-05-7.79516E-06-8.05528E-19 7.21460E-19
 -1      3057 9.44108E-05-1.97833E-05-3.19919E-05 7.44710E-07-5.94088E-19-2.11117E-18
 -1      3058 9.99555E-05-2.36498E-05-3.27121E-05-7.97733E-07-9.63672E-19-1.72645E-18
 -1      3059 1.01426E-04-2.61289E-05-3.22915E-05 6.84559E-07-8.44656E-19-1.55100E-18
 -1      3060 9.40663E-05-2.11071E-05-3.12739E-05 2.79901E-06-4.75684E-19-2.02107E-18
 -1      3061 8.68929E-05-4.18348E-05-1.88732E-05-3.53392E-05-1.64504E-18-2.29059E-18
 -1      3062 5.55181E-05-2.25646E-05-1.34707E-05-2.88366E-05-1.06271E-18-3.46796E-18
 -1      3063 1.27730E-04-5.74099E-05-3.00169E-05 1.70859E-05 1.93600E-19 5.14837E-19
 -1      3064 6.92229E-05-3.11675E-05-1.58154E-05 3.46282E-05 1.42164E-18-1.49882E-18
 -1      3065 9.52397E-05-2.85802E-05-2.85683E-05 2.00829E-08-6.95054E-19-1.66628E-18
 -1      3066 9.52418E-05-2.85826E-05-2.85682E-05 1.86318E-08 8.93328E-20-9.54152E-19
 -1      3067 9.52432E-05-2.85829E-05-2.85686E-05 1.97219E-08 4.81535E-20-2.31010E-18
 -1      3068 9.52394E-05-2.85798E-05-2.85684E-05 2.15078E-08-8.51712E-19-2.12199E-18
 -1      3069 9.87542E-05-2.44379E-05-3.18699E-05-3.08320E-06 1.40251E-18 2.17416E-20
 -1      3070 9.52453E-05-2.85862E-05-2.85682E-05-1.59803E-08-1.89645E-19-6.75454E-19
 -1      3071 9.52436E-05-2.85845E-05-2.85682E-05-1.70771E-08-1.69183E-18 1.06468E-18
 -1      3072 9.52437E-05-2.85837E-05-2.85686E-05-1.87782E-08 1.74053E-20-3.97808E-19
 -1      3073 9.52470E-05-2.85864E-05-2.85689E-05-1.64090E-08 9.61004E-19 5.50003E-19
 -1      3074 7.49987E-05-7.14069E-06-2.91347E-05 3.63953E-06 6.77272E-19-2.11160E-18
 -1      3075 7.74141E-05-8.60424E-06-2.94713E-05 3.85717E-06 4.72413E-19-2.19673E-18
 -1      3076 7.95448E-05-1.14557E-05-2.91655E-05 5.26998E-06 4.32214E-19-2.05516E-18
 -1      3077 7.41077E-05-7.71396E-06-2.84259E-05 4.08598E-06 6.92670E-19-2.00339E-18
 -1      3078 1.33509E-04-5.59055E-05-3.33370E-05-5.55655E-06 1.40242E-18-2.62480E-18
 -1      3079 1.18712E-04-5.70975E-05-2.62051E-05-2.35852E-05 2.81194E-18-1.27902E-18
 -1      3080 1.20909E-04-1.32495E-05-4.67663E-05 4.14361E-07 3.75691E-18 3.10530E-19
 -1      3081 1.33708E-04-4.62022E-05-3.76447E-05 8.73713E-06 1.10644E-19 1.53064E-18
 -1      3082 1.36701E-04-4.15596E-05-4.09670E-05 1.20799E-05 7.24954E-19 1.65118E-18
 -1      3083 9.97476E-05-2.56941E-05-3.17438E-05 2.07278E-06-5.86724E-19-1.62512E-18
 -1      3084 1.27350E-04-2.91772E-05-4.25236E-05 1.41052E-05 1.20549E-18 1.53101E-18
 -1      3085 1.32059E-04-3.04884E-05-4.41261E-05 1.39098E-05 1.39835E-18 1.29522E-18
 -1      3086 1.32508E-04-4.97304E-05-3.59537E-05-7.12437E-06 3.27127E-19-1.69632E-18
 -1      3087 1.31949E-04-5.44652E-05-3.29547E-05 5.02936E-07-5.25253E-19-1.76797E-18
 -1      3088 9.44860E-05-2.24537E-05-3.08389E-05-5.18422E-06 1.14089E-18-5.36397E-19
 -1      3089 9.04291E-05-1.99059E-05-3.02465E-05-5.86086E-06 1.09235E-18-8.52810E-19
 -1      3090 1.27259E-04-2.59011E-05-4.37737E-05-1.39321E-05-2.56217E-18 5.36489E-19
 -1      3091 1.34166E-04-3.22640E-05-4.41253E-05-1.24327E-05-2.52395E-18 5.22937E-19
 -1      3092 9.97990E-05-2.73584E-05-3.09896E-05 4.29986E-06-3.75161E-19-1.63345E-18
 -1      3093 1.01437E-04-2.99362E-05-3.06551E-05 5.27623E-06-3.43640E-19-1.51309E-18
 -1      3094 1.29036E-04-5.59827E-05-3.10198E-05-7.64451E-06 1.98091E-18-2.31264E-18
 -1      3095 1.31888E-04-5.26836E-05-3.43813E-05 1.65077E-06 1.09570E-18-3.01258E-18
 -1      3096 1.09182E-04-3.85955E-05-3.01374E-05 6.06672E-06-1.31335E-19-8.14914E-19
 -1      3097 1.11819E-04-4.12943E-05-3.02686E-05 4.95604E-06 3.23494E-20-8.00523E-19
 -1      3098 1.15952E-04-4.40818E-05-3.06548E-05 3.03550E-06-1.08774E-20-5.76846E-19
 -1      3099 1.18303E-04-4.56367E-05-3.12323E-05 6.47631E-07-2.42175E-19-5.50934E-19
 -1      3100 1.12993E-04-4.37174E-05-2.98258E-05 7.31213E-06 4.97367E-20-4.45017E-19
 -1      3101 1.22386E-04-4.67741E-05-3.23772E-05-3.15685E-06-5.38792E-20-2.05723E-19
 -1      3102 1.23419E-04-4.51747E-05-3.35888E-05-6.40579E-06-2.60383E-19 1.62127E-19
 -1      3103 1.21122E-04-4.84611E-05-3.13282E-05 2.42319E-06-5.84982E-21 2.26978E-21
 -1      3104 1.24062E-04-4.15062E-05-3.55852E-05-1.11549E-05-7.78337E-19 5.66440E-19
 -1      3105 1.22710E-04-3.61002E-05-3.72486E-05-1.27783E-05-1.34255E-18 7.02296E-19
 -1      3106 1.23134E-04-3.23104E-05-3.92403E-05-1.42172E-05-1.82512E-18 5.72700E-19
 -1      3107 1.20493E-04-2.54817E-05-4.09412E-05-1.21795E-05-2.12023E-18 2.12063E-19
 -1      3108 1.15549E-04-1.43807E-05-4.37854E-05-4.11642E-06-2.33845E-18-8.46570E-19
 -1      3109 1.14995E-04-1.35955E-05-4.40825E-05 2.08112E-06-2.05448E-18-1.42217E-18
 -1      3110 1.17638E-04-1.59670E-05-4.40132E-05 7.53316E-06-1.83616E-18-2.03833E-18
 -1      3111 1.19721E-04-2.12195E-05-4.28835E-05 1.24625E-05-1.41698E-18-2.64408E-18
 -1      3112 1.23025E-04-2.75075E-05-4.12977E-05 1.39191E-05-8.19346E-19-2.80061E-18
 -1      3113 1.25812E-04-3.51887E-05-3.93705E-05 1.42764E-05-4.43872E-19-2.61050E-18
 -1      3114 1.25650E-04-4.48516E-05-3.46268E-05 8.28012E-06 6.81014E-19-2.58323E-18
 -1      3115 1.25565E-04-4.82693E-05-3.29034E-05 4.94756E-06 1.23059E-18-2.29345E-18
 -1      3116 1.20873E-04-4.78584E-05-3.12031E-05 3.80207E-07 1.31415E-18-1.63591E-18
 -1      3117 1.18567E-04-4.75639E-05-3.01521E-05-3.22436E-06 1.29611E-18-1.11838E-18
 -1      3118 1.22404E-04-5.26122E-05-3.02688E-05-6.32731E-06 1.84590E-18-1.99794E-18
 -1      3119 1.13754E-04-4.46980E-05-2.94589E-05-5.53162E-06 1.00825E-18-3.43558E-19
 -1      3120 1.10725E-04-4.27352E-05-2.89398E-05-8.08179E-06 7.90904E-19 1.67282E-19
 -1      3121 1.12097E-04-4.73663E-05-2.80813E-05-1.22301E-05 1.73124E-18-6.00295E-19
 -1      3122 1.07079E-04-3.96260E-05-2.87818E-05-8.64421E-06 3.10302E-19 3.35802E-19
 -1      3123 1.04345E-04-3.73904E-05-2.85867E-05-1.00240E-05 2.07627E-19 2.74038E-19
 -1      3124 1.03717E-04-4.02696E-05-2.74498E-05-1.37907E-05 7.41471E-19-2.18376E-20
 -1      3125 1.01993E-04-3.49175E-05-2.86566E-05-9.72376E-06 1.50380E-19 4.58807E-19
 -1      3126 9.99392E-05-3.30513E-05-2.86201E-05-1.02486E-05 1.73136E-19 2.80591E-19
 -1      3127 9.82344E-05-3.43686E-05-2.75263E-05-1.31211E-05 3.31243E-19 4.58033E-19
 -1      3128 9.85963E-05-3.13611E-05-2.87600E-05-9.62108E-06 4.44924E-20 6.18434E-19
 -1      3129 9.72072E-05-3.00269E-05-2.87807E-05-9.62326E-06 2.69186E-19 2.99526E-19
 -1      3130 9.50635E-05-3.02714E-05-2.78462E-05-1.16383E-05 2.88038E-19 4.33802E-19
 -1      3131 9.65407E-05-2.89954E-05-2.89185E-05-8.91442E-06 6.30639E-19-3.62361E-19
 -1      3132 9.56631E-05-2.81423E-05-2.89444E-05-8.62640E-06 2.57011E-19-4.52366E-19
 -1      3133 9.34553E-05-2.77339E-05-2.81974E-05-1.00025E-05-1.24728E-19 3.04204E-19
 -1      3134 9.54111E-05-2.75916E-05-2.90520E-05-7.93494E-06 4.45829E-20-1.57342E-19
 -1      3135 9.48820E-05-2.71038E-05-2.90623E-05-7.50182E-06-2.55013E-19-3.28790E-19
 -1      3136 9.28099E-05-2.63379E-05-2.84933E-05-8.45716E-06 1.63297E-19-8.93023E-19
 -1      3137 9.48646E-05-2.68749E-05-2.91339E-05-6.86342E-06-5.00218E-19 8.92362E-21
 -1      3138 9.45560E-05-2.66379E-05-2.91245E-05-6.37350E-06 6.41528E-20-1.03349E-19
 -1      3139 9.27156E-05-2.57110E-05-2.87089E-05-7.06824E-06 4.03414E-20 4.38513E-20
 -1      3140 9.46585E-05-2.66095E-05-2.91639E-05-5.80038E-06 4.78462E-19-4.68887E-20
 -1      3141 9.44820E-05-2.65317E-05-2.91378E-05-5.30714E-06 4.23732E-19-9.96418E-20
 -1      3142 9.29095E-05-2.55703E-05-2.88471E-05-5.84256E-06-5.18570E-20 1.56988E-19
 -1      3143 9.46350E-05-2.66178E-05-2.91522E-05-4.80282E-06 2.05125E-19-3.94097E-19
 -1      3144 9.45347E-05-2.66336E-05-2.91151E-05-4.33806E-06 8.65777E-20-5.75201E-19
 -1      3145 9.32313E-05-2.57154E-05-2.89217E-05-4.77219E-06 1.70746E-19-5.41857E-19
 -1      3146 9.46986E-05-2.67770E-05-2.91117E-05-3.90220E-06-1.56463E-19-6.89550E-19
 -1      3147 9.46409E-05-2.68423E-05-2.90690E-05-3.48352E-06-2.42052E-19-4.66941E-19
 -1      3148 9.35880E-05-2.60110E-05-2.89487E-05-3.84728E-06-2.61161E-19-8.20749E-19
 -1      3149 9.47947E-05-2.70066E-05-2.90544E-05-3.11344E-06-2.69603E-19-4.34084E-19
 -1      3150 9.47603E-05-2.70934E-05-2.90104E-05-2.74891E-06-4.82064E-20-6.52916E-19
 -1      3151 9.39293E-05-2.63696E-05-2.89431E-05-3.05813E-06-2.48766E-19-1.22577E-19
 -1      3152 9.48945E-05-2.72568E-05-2.89895E-05-2.44018E-06-3.34210E-19-6.18596E-19
 -1      3153 9.48727E-05-2.73484E-05-2.89473E-05-2.13151E-06 9.04766E-20-8.50001E-19
 -1      3154 9.42312E-05-2.67372E-05-2.89169E-05-2.39452E-06-2.90188E-19-6.74252E-19
 -1      3155 9.49843E-05-2.74989E-05-2.89237E-05-1.87843E-06 2.47625E-19-1.42027E-18
 -1      3156 9.49695E-05-2.75859E-05-2.88852E-05-1.62321E-06-1.88714E-19-1.58953E-18
 -1      3157 9.44849E-05-2.70827E-05-2.88794E-05-1.84516E-06-6.01589E-19-1.14373E-18
 -1      3158 9.50589E-05-2.77178E-05-2.88615E-05-1.41932E-06-1.79470E-19-1.72181E-18
 -1      3159 9.50481E-05-2.77953E-05-2.88277E-05-1.21276E-06 2.97497E-19-1.49055E-18
 -1      3160 9.46902E-05-2.73904E-05-2.88372E-05-1.39772E-06-1.79381E-19-1.86578E-18
 -1      3161 9.51177E-05-2.79068E-05-2.88053E-05-1.05130E-06 2.32650E-19-1.92374E-18
 -1      3162 9.51094E-05-2.79731E-05-2.87765E-05-8.87400E-07 4.72021E-20-2.14587E-18
 -1      3163 9.48514E-05-2.76540E-05-2.87948E-05-1.03928E-06 1.31541E-19-2.09370E-18
 -1      3164 9.51620E-05-2.80647E-05-2.87563E-05-7.61732E-07 2.68942E-19-2.02818E-18
 -1      3165 9.51554E-05-2.81197E-05-2.87324E-05-6.34134E-07 2.32873E-19-1.62725E-18
 -1      3166 9.49747E-05-2.78731E-05-2.87549E-05-7.56890E-07-1.40948E-20-1.42075E-18
 -1      3167 9.51943E-05-2.81932E-05-2.87149E-05-5.38040E-07 6.37170E-20-1.05860E-18
 -1      3168 9.51889E-05-2.82376E-05-2.86954E-05-4.40560E-07 1.60184E-19-4.76284E-19
 -1      3169 9.50667E-05-2.80507E-05-2.87190E-05-5.38178E-07 4.73750E-19-1.00296E-18
 -1      3170 9.52168E-05-2.82953E-05-2.86806E-05-3.68428E-07-3.70913E-19-8.39486E-19
 -1      3171 9.52124E-05-2.83303E-05-2.86652E-05-2.95391E-07-9.66921E-19-8.71789E-19
 -1      3172 9.51334E-05-2.81917E-05-2.86879E-05-3.71746E-07-3.78078E-19-1.21340E-18
 -1      3173 9.52318E-05-2.83747E-05-2.86530E-05-2.42314E-07-1.38127E-18-2.22685E-19
 -1      3174 9.52283E-05-2.84018E-05-2.86409E-05-1.88715E-07-1.40710E-18-1.02677E-18
 -1      3175 9.51805E-05-2.83012E-05-2.86617E-05-2.47438E-07-1.26476E-18-1.64067E-19
 -1      3176 9.52413E-05-2.84352E-05-2.86310E-05-1.50518E-07-1.33084E-18-1.75372E-18
 -1      3177 9.52385E-05-2.84558E-05-2.86218E-05-1.12080E-07-1.39690E-18-2.27694E-18
 -1      3178 9.52125E-05-2.83846E-05-2.86400E-05-1.56456E-07-1.83541E-18-1.10525E-19
 -1      3179 9.52468E-05-2.84805E-05-2.86140E-05-8.52904E-08-7.17268E-19-2.29833E-18
 -1      3180 9.52445E-05-2.84957E-05-2.86070E-05-5.84539E-08-4.28294E-19-2.12777E-18
 -1      3181 9.52334E-05-2.84468E-05-2.86226E-05-9.13727E-08-9.66997E-19-1.99719E-18
 -1      3182 9.52494E-05-2.85135E-05-2.86009E-05-4.02474E-08-2.73780E-19-1.86570E-18
 -1      3183 9.52477E-05-2.85246E-05-2.85958E-05-2.21169E-08-2.73418E-19-9.07523E-19
 -1      3184 9.52462E-05-2.84922E-05-2.86087E-05-4.60481E-08 2.79090E-19-1.51492E-18
 -1      3185 9.52501E-05-2.85370E-05-2.85912E-05-1.02389E-08-4.17207E-19-1.10766E-18
 -1      3186 9.52488E-05-2.85448E-05-2.85875E-05 1.49228E-09-1.11611E-19-1.57501E-18
 -1      3187 9.52532E-05-2.85246E-05-2.85980E-05-1.55153E-08-7.87208E-19-2.45448E-18
 -1      3188 9.52497E-05-2.85533E-05-2.85840E-05 8.80512E-09 2.38177E-19-3.12637E-18
 -1      3189 9.52487E-05-2.85587E-05-2.85814E-05 1.59374E-08 4.79637E-20-2.73338E-18
 -1      3190 9.52562E-05-2.85469E-05-2.85898E-05 4.16713E-09-6.14095E-19-4.42169E-18
 -1      3191 9.52485E-05-2.85642E-05-2.85789E-05 2.00367E-08 6.21521E-19-2.20826E-18
 -1      3192 9.52478E-05-2.85678E-05-2.85771E-05 2.39457E-08 1.12500E-19-2.43129E-18
 -1      3193 9.52566E-05-2.85619E-05-2.85836E-05 1.60654E-08 3.04684E-19-5.44373E-18
 -1      3194 9.52470E-05-2.85712E-05-2.85752E-05 2.58447E-08-6.02791E-19-1.35572E-18
 -1      3195 9.52465E-05-2.85735E-05-2.85741E-05 2.75569E-08-1.44608E-18-1.37454E-18
 -1      3196 9.52554E-05-2.85714E-05-2.85790E-05 2.25159E-08 3.37357E-19-3.85962E-18
 -1      3197 9.52454E-05-2.85755E-05-2.85727E-05 2.79950E-08-1.39329E-18-3.47473E-19
 -1      3198 9.52450E-05-2.85769E-05-2.85720E-05 2.82549E-08-7.75563E-19-9.31064E-19
 -1      3199 9.52534E-05-2.85772E-05-2.85756E-05 2.52575E-08-6.00956E-19-2.13301E-18
 -1      3200 9.52438E-05-2.85780E-05-2.85710E-05 2.77507E-08-3.17927E-19-1.46723E-18
 -1      3201 9.52436E-05-2.85788E-05-2.85706E-05 2.70818E-08 3.91682E-19-1.60860E-18
 -1      3202 9.52509E-05-2.85804E-05-2.85732E-05 2.55448E-08-9.61541E-19-9.18358E-19
 -1      3203 9.52425E-05-2.85794E-05-2.85698E-05 2.59513E-08 4.39075E-19-2.44233E-18
 -1      3204 9.52421E-05-2.85799E-05-2.85695E-05 2.47722E-08 3.13528E-19-2.98567E-18
 -1      3205 9.52484E-05-2.85822E-05-2.85713E-05 2.42464E-08-7.32513E-19-2.57327E-18
 -1      3206 9.52420E-05-2.85805E-05-2.85692E-05 2.30594E-08 3.26949E-20-2.81112E-18
 -1      3207 1.25167E-04-3.22718E-05-4.03889E-05-1.58720E-05 2.47281E-18-2.13648E-18
 -1      3208 1.22404E-04-2.44268E-05-4.22651E-05-1.44544E-05 2.98060E-18-1.47302E-18
 -1      3209 1.27075E-04-4.75569E-05-3.39169E-05-8.31723E-06-3.13865E-19-1.62873E-18
 -1      3210 1.26772E-04-4.35265E-05-3.57555E-05-1.15677E-05 4.66371E-19-2.19466E-18
 -1      3211 1.20873E-04-4.79032E-05-3.10730E-05 5.67563E-07-7.18201E-19-1.16340E-18
 -1      3212 1.22993E-04-4.79361E-05-3.21942E-05-3.32597E-06-5.97873E-19-1.39279E-18
 -1      3213 1.24870E-04-5.11854E-05-3.18777E-05 2.20368E-07-9.17059E-19-1.60293E-18
 -1      3214 1.13151E-04-4.32602E-05-2.97995E-05 6.62842E-06-4.14043E-19-1.35789E-18
 -1      3215 1.16266E-04-4.53694E-05-3.03289E-05 3.78850E-06-6.70393E-19-1.29002E-18
 -1      3216 1.15989E-04-4.75634E-05-2.95725E-05 7.46473E-06-6.42666E-19-1.91834E-18
 -1      3217 1.06629E-04-3.78785E-05-2.93992E-05 9.50175E-06-2.02023E-19-4.37824E-19
 -1      3218 1.09430E-04-4.02691E-05-2.95893E-05 7.91535E-06-3.77939E-19-1.07313E-18
 -1      3219 1.07602E-04-4.11329E-05-2.86957E-05 1.11129E-05-3.86982E-19-1.76247E-18
 -1      3220 1.02035E-04-3.34320E-05-2.93817E-05 1.03475E-05-1.15223E-19-5.56740E-20
 -1      3221 1.04137E-04-3.53968E-05-2.94209E-05 9.72362E-06-6.80323E-20-1.52879E-19
 -1      3222 1.01813E-04-3.53144E-05-2.86062E-05 1.19415E-05-3.26789E-19-1.41093E-18
 -1      3223 9.91391E-05-3.03806E-05-2.94713E-05 1.00513E-05-1.84889E-19-3.17416E-19
 -1      3224 1.00565E-04-3.17440E-05-2.94697E-05 1.00247E-05-1.14512E-19-1.94036E-19
 -1      3225 9.82049E-05-3.11587E-05-2.87840E-05 1.13966E-05-1.67903E-19-1.14065E-18
 -1      3226 9.74392E-05-2.85302E-05-2.95447E-05 9.18586E-06 3.27405E-19-4.09220E-19
 -1      3227 9.83596E-05-2.93738E-05-2.95513E-05 9.49308E-06-7.67902E-20-1.57430E-19
 -1      3228 9.62010E-05-2.85786E-05-2.89980E-05 1.02921E-05 3.01442E-20-1.01617E-18
 -1      3229 9.64894E-05-2.75421E-05-2.95636E-05 8.06966E-06 5.11072E-19-4.75549E-19
 -1      3230 9.70767E-05-2.80100E-05-2.95928E-05 8.54329E-06 6.15915E-19 2.07416E-19
 -1      3231 9.52052E-05-2.71650E-05-2.91598E-05 8.99922E-06 3.30380E-19-4.24914E-19
 -1      3232 9.59762E-05-2.71116E-05-2.95277E-05 6.88420E-06-3.08555E-19-8.39948E-19
 -1      3233 9.63583E-05-2.73351E-05-2.95780E-05 7.42119E-06 1.40976E-20-5.05495E-19
 -1      3234 9.47897E-05-2.65250E-05-2.92485E-05 7.68691E-06 2.23528E-19-6.44262E-19
 -1      3235 9.57029E-05-2.70128E-05-2.94513E-05 5.73388E-06-2.14217E-20-1.48321E-18
 -1      3236 9.59622E-05-2.70896E-05-2.95153E-05 6.27172E-06-4.02012E-19-9.93289E-19
 -1      3237 9.46802E-05-2.63564E-05-2.92713E-05 6.43796E-06-3.53767E-19-1.27882E-18
 -1      3238 9.55550E-05-2.70945E-05-2.93510E-05 4.67712E-06 5.41967E-19-1.25092E-18
 -1      3239 9.57406E-05-2.70898E-05-2.94210E-05 5.17963E-06 3.96238E-19-1.24403E-18
 -1      3240 9.47147E-05-2.64515E-05-2.92454E-05 5.29552E-06 3.01974E-19-9.79782E-19
 -1      3241 9.54704E-05-2.72621E-05-2.92410E-05 3.74307E-06 1.10830E-19-8.74929E-19
 -1      3242 9.56097E-05-2.72165E-05-2.93108E-05 4.19137E-06 1.79383E-19-1.06899E-18
 -1      3243 9.48045E-05-2.66771E-05-2.91885E-05 4.28137E-06 3.64390E-19-7.39574E-19
 -1      3244 9.54169E-05-2.74597E-05-2.91317E-05 2.94189E-06 7.22021E-19-1.01832E-18
 -1      3245 9.55251E-05-2.73974E-05-2.91971E-05 3.32839E-06 2.67842E-19-1.06246E-18
 -1      3246 9.49047E-05-2.69524E-05-2.91151E-05 3.40356E-06 4.09692E-19-1.47781E-18
 -1      3247 9.53791E-05-2.76564E-05-2.90296E-05 2.27152E-06 6.44827E-19-1.30661E-19
 -1      3248 9.54645E-05-2.75908E-05-2.90882E-05 2.59579E-06 1.02578E-18-7.55973E-19
 -1      3249 9.49954E-05-2.72314E-05-2.90360E-05 2.66066E-06 8.46794E-19-9.65364E-19
 -1      3250 9.53496E-05-2.78365E-05-2.89386E-05 1.72258E-06-5.97352E-19 6.47151E-19
 -1      3251 9.54175E-05-2.77747E-05-2.89892E-05 1.98848E-06 2.66705E-19 4.67695E-19
 -1      3252 9.50697E-05-2.74900E-05-2.89584E-05 2.04468E-06-1.57321E-19 5.55045E-19
 -1      3253 9.53257E-05-2.79934E-05-2.88600E-05 1.28175E-06-1.31417E-18 5.70329E-19
 -1      3254 9.53792E-05-2.79385E-05-2.89025E-05 1.49541E-06-9.48693E-19 4.82612E-19
 -1      3255 9.51268E-05-2.77171E-05-2.88867E-05 1.54358E-06-1.15688E-18 4.24357E-19
 -1      3256 9.53058E-05-2.81254E-05-2.87941E-05 9.34172E-07-7.76001E-19 7.71221E-19
 -1      3257 9.53476E-05-2.80785E-05-2.88290E-05 1.10266E-06-8.61005E-19 2.26435E-19
 -1      3258 9.51688E-05-2.79094E-05-2.88232E-05 1.14325E-06-1.12773E-18 2.26107E-18
 -1      3259 9.52894E-05-2.82335E-05-2.87401E-05 6.64941E-07-4.54803E-19 6.28186E-19
 -1      3260 9.53215E-05-2.81947E-05-2.87681E-05 7.95436E-07-4.74070E-19 3.71549E-19
 -1      3261 9.51985E-05-2.80679E-05-2.87688E-05 8.28985E-07-5.97743E-19 1.14051E-18
 -1      3262 9.52761E-05-2.83202E-05-2.86967E-05 4.60092E-07-1.87570E-18 3.88851E-20
 -1      3263 9.53004E-05-2.82887E-05-2.87188E-05 5.59359E-07-1.13928E-18 8.29008E-20
 -1      3264 9.52189E-05-2.81955E-05-2.87233E-05 5.86546E-07-6.83465E-19-1.97936E-19
 -1      3265 9.52654E-05-2.83884E-05-2.86625E-05 3.07103E-07-1.93594E-18 2.94739E-19
 -1      3266 9.52835E-05-2.83634E-05-2.86796E-05 3.81217E-07-2.00810E-18 4.31535E-19
 -1      3267 9.52321E-05-2.82964E-05-2.86861E-05 4.02825E-07-2.34372E-18 5.79425E-19
 -1      3268 9.52572E-05-2.84412E-05-2.86361E-05 1.95115E-07-7.64023E-19-2.38929E-19
 -1      3269 9.52703E-05-2.84216E-05-2.86491E-05 2.49348E-07-2.03784E-18-2.59775E-19
 -1      3270 9.52404E-05-2.83747E-05-2.86563E-05 2.66197E-07-1.50436E-18 1.45821E-19
 -1      3271 9.52509E-05-2.84812E-05-2.86160E-05 1.14967E-07 2.51463E-19 3.36981E-20
 -1      3272 9.52601E-05-2.84662E-05-2.86257E-05 1.53767E-07-2.92230E-21-5.18147E-19
 -1      3273 9.52450E-05-2.84343E-05-2.86330E-05 1.66654E-07-9.04372E-20-1.07425E-18
 -1      3274 9.52462E-05-2.85109E-05-2.86011E-05 5.90995E-08-1.36428E-19 6.14561E-19
 -1      3275 9.52525E-05-2.84997E-05-2.86081E-05 8.61347E-08 3.50554E-20 1.50330E-19
 -1      3276 9.52473E-05-2.84789E-05-2.86150E-05 9.57981E-08 1.09975E-19-8.02753E-19
 -1      3277 9.52428E-05-2.85327E-05-2.85902E-05 2.14052E-08 4.15848E-19 4.08085E-19
 -1      3278 9.52469E-05-2.85244E-05-2.85952E-05 3.96391E-08 9.96898E-19 9.42173E-19
 -1      3279 9.52479E-05-2.85116E-05-2.86013E-05 4.67325E-08 5.92104E-20-7.55865E-20
 -1      3280 9.52404E-05-2.85482E-05-2.85824E-05-2.95853E-09-3.80919E-19-3.13998E-19
 -1      3281 9.52429E-05-2.85422E-05-2.85859E-05 8.82248E-09-4.65548E-19-3.16396E-19
 -1      3282 9.52476E-05-2.85350E-05-2.85912E-05 1.39073E-08-1.53265E-19 4.20724E-19
 -1      3283 9.52387E-05-2.85589E-05-2.85771E-05-1.77587E-08-7.81060E-19-8.36856E-19
 -1      3284 9.52402E-05-2.85547E-05-2.85794E-05-1.06048E-08-4.81720E-19-5.50785E-19
 -1      3285 9.52467E-05-2.85513E-05-2.85838E-05-7.05959E-09-1.73843E-19-7.70871E-19
 -1      3286 9.52377E-05-2.85662E-05-2.85735E-05-2.58681E-08-8.76989E-19-1.33370E-18
 -1      3287 9.52383E-05-2.85632E-05-2.85750E-05-2.19499E-08-1.05502E-18-9.93396E-19
 -1      3288 9.52454E-05-2.85624E-05-2.85786E-05-1.95617E-08-7.07520E-19-2.19410E-18
 -1      3289 9.52371E-05-2.85709E-05-2.85712E-05-2.94273E-08-2.29685E-19-1.39269E-18
 -1      3290 9.52372E-05-2.85689E-05-2.85721E-05-2.77092E-08-7.85317E-19-1.02274E-18
 -1      3291 9.52441E-05-2.85696E-05-2.85749E-05-2.61734E-08-6.21105E-19-1.36286E-18
 -1      3292 9.52368E-05-2.85739E-05-2.85698E-05-2.99877E-08 1.22387E-18-1.48738E-18
 -1      3293 9.52366E-05-2.85725E-05-2.85702E-05-2.97205E-08 4.95584E-19-1.54724E-18
 -1      3294 9.52429E-05-2.85741E-05-2.85724E-05-2.87999E-08 6.40727E-19-2.10276E-18
 -1      3295 9.52367E-05-2.85757E-05-2.85690E-05-2.86341E-08 1.09606E-18-1.82525E-18
 -1      3296 9.52363E-05-2.85748E-05-2.85692E-05-2.92949E-08 8.33898E-19-1.43566E-18
 -1      3297 9.52417E-05-2.85767E-05-2.85708E-05-2.88116E-08 6.10403E-19-1.17051E-18
 -1      3298 9.52367E-05-2.85769E-05-2.85685E-05-2.60914E-08-1.33860E-21-9.23912E-19
 -1      3299 9.52363E-05-2.85763E-05-2.85686E-05-2.73143E-08 3.73576E-19-1.94947E-18
 -1      3300 9.52408E-05-2.85783E-05-2.85697E-05-2.71512E-08 2.70068E-19-1.21251E-18
 -1      3301 9.52371E-05-2.85775E-05-2.85684E-05-2.43034E-08 1.24320E-18-3.24195E-19
 -1      3302 9.52386E-05-2.85792E-05-2.85683E-05-2.11844E-08 1.10804E-18-3.99019E-21
 -1      3303 9.52375E-05-2.85782E-05-2.85683E-05-2.26979E-08 1.87730E-18-2.73581E-19
 -1      3304 9.52413E-05-2.85813E-05-2.85686E-05-2.11908E-08 1.02222E-18-1.23426E-18
 -1      3305 1.18142E-04-1.53431E-05-4.44505E-05-5.23739E-06 3.77374E-18-1.56241E-19
 -1      3306 9.52536E-05-2.85897E-05-2.85702E-05 8.34865E-09-7.79384E-19 3.60701E-19
 -1      3307 9.52543E-05-2.85902E-05-2.85703E-05 5.26450E-09-3.99898E-19-4.18039E-19
 -1      3308 9.52547E-05-2.85905E-05-2.85704E-05 1.68950E-09 9.58251E-20-2.77997E-18
 -1      3309 9.52547E-05-2.85905E-05-2.85704E-05-1.60552E-09 1.18852E-18-2.37208E-18
 -1      3310 9.52564E-05-2.85899E-05-2.85714E-05 3.64539E-09 5.74479E-19-1.63491E-18
 -1      3311 1.20194E-04-1.97866E-05-4.36044E-05-1.15113E-05 3.31200E-18-1.06804E-18
 -1      3312 1.10255E-04-5.11135E-05-2.49673E-05-2.54996E-05-1.39755E-18-5.66086E-19
 -1      3313 1.19782E-04-5.51974E-05-2.79447E-05-1.91739E-05-1.13516E-18 2.04204E-19
 -1      3314 1.23349E-04-1.39339E-05-4.73440E-05-5.20879E-06-2.81141E-18-5.56501E-19
 -1      3315 5.05221E-05-1.58085E-05-1.46161E-05 1.53196E-05-1.87300E-19 3.14662E-18
 -1      3316 4.51167E-05-1.24906E-05-1.36190E-05 5.10674E-06 3.48719E-19 1.98237E-18
 -1      3317 8.82165E-05-4.17217E-05-1.95393E-05-3.30599E-05 2.95212E-18-4.26163E-21
 -1      3318 1.00774E-04-4.89983E-05-2.23159E-05-3.08923E-05 3.04275E-18-6.21590E-19
 -1      3319 9.52509E-05-2.85878E-05-2.85699E-05 1.42676E-08 1.03631E-18 6.85156E-19
 -1      3320 9.52524E-05-2.85889E-05-2.85701E-05 1.15975E-08-2.83168E-19 2.24978E-19
 -1      3321 9.52547E-05-2.85888E-05-2.85711E-05 1.05912E-08-6.94112E-19 1.64483E-20
 -1      3322 1.31792E-04-3.80522E-05-4.04357E-05-1.16420E-05-1.66024E-18 4.80374E-19
 -1      3323 1.18057E-04-4.58167E-05-3.09934E-05-2.90380E-06-1.30278E-19 8.61456E-19
 -1      3324 1.15087E-04-4.34096E-05-3.05751E-05-5.29126E-06-2.34755E-19 6.52331E-19
 -1      3325 1.32700E-04-4.64872E-05-3.73156E-05-6.87645E-06-7.10634E-19 3.61524E-19
 -1      3326 1.33991E-04-5.28639E-05-3.46267E-05 2.49529E-07-2.49570E-19 7.18813E-19
 -1      3327 5.30663E-05-1.73989E-05-1.49208E-05-2.33921E-05-6.54624E-19-3.10649E-18
 -1      3328 6.51283E-05-2.61454E-05-1.66389E-05-3.11344E-05-1.16208E-18-2.78293E-18
 -1      3329 1.03774E-04-3.27513E-05-3.03522E-05 6.15782E-06-2.38581E-19-1.25666E-18
 -1      3330 1.05972E-04-3.55318E-05-3.02023E-05 6.21016E-06-1.78089E-19-1.12708E-18
 -1      3331 1.05431E-04-3.67501E-05-2.95452E-05 8.55268E-06 4.40697E-20-8.75511E-19
 -1      3332 1.27725E-04-3.72122E-05-3.89530E-05-1.29530E-05-1.43519E-18 8.43089E-19
 -1      3333 1.01076E-04-2.75276E-05-3.14749E-05-4.71373E-06 1.12520E-18 1.51174E-19
 -1      3334 9.74465E-05-2.47294E-05-3.11688E-05-4.85176E-06 1.15799E-18-2.37194E-19
 -1      3335 9.68067E-05-2.58552E-05-3.04255E-05-6.93005E-06 8.64935E-19-3.69225E-19
 -1      3336 1.02390E-04-2.98472E-05-3.11248E-05-5.95751E-06 7.77455E-19 1.18722E-19
 -1      3337 1.12789E-04-5.39048E-05-2.49082E-05-2.47359E-05 3.08736E-18-1.24595E-18
 -1      3338 1.22424E-04-5.72738E-05-2.82292E-05-1.74955E-05 2.66961E-18-1.57817E-18
 -1      3339 1.23624E-04-5.48644E-05-2.95039E-05-1.06631E-05 2.14683E-18-1.88307E-18
 -1      3340 1.07029E-04-4.97159E-05-2.44367E-05-2.46493E-05 2.87660E-18-1.10184E-18
 -1      3341 7.22127E-05-7.82595E-06-2.75778E-05-3.22266E-06 1.05244E-18-1.97766E-18
 -1      3342 7.05844E-05-6.85486E-06-2.73568E-05-1.68349E-06 9.71742E-19-2.10651E-18
 -1      3343 1.29560E-04-5.63435E-05-3.17874E-05 1.00406E-05 1.17367E-19 6.88532E-19
 -1      3344 1.21820E-04-5.60006E-05-2.79270E-05 1.98572E-05 4.21717E-19 5.22222E-19
 -1      3345 9.60406E-05-2.32829E-05-3.11627E-05 3.40325E-06-4.36177E-19-1.91270E-18
 -1      3346 9.77477E-05-2.52839E-05-3.10644E-05 3.87957E-06-3.58903E-19-1.79446E-18
 -1      3347 9.18315E-05-2.05771E-05-3.05695E-05 4.63676E-06-1.59870E-19-1.92995E-18
 -1      3348 1.10683E-04-5.24026E-05-2.50571E-05 2.75877E-05 6.98114E-19 1.04450E-19
 -1      3349 9.66105E-05-4.44278E-05-2.21329E-05 3.11597E-05 1.20062E-18-3.55092E-19
 -1      3350 1.15948E-04-5.23357E-05-2.71094E-05 2.02138E-05 7.07749E-19 2.19004E-19
 -1      3351 1.27633E-04-5.60063E-05-3.04612E-05-1.06302E-05-1.06913E-18 6.53698E-19
 -1      3352 1.31247E-04-5.35889E-05-3.35808E-05-8.94576E-07-6.17461E-19 8.13813E-19
 -1      3353 1.22001E-04-5.33103E-05-2.93445E-05-1.21859E-05-1.01647E-18 4.17177E-19
 -1      3354 7.85954E-05-3.34463E-05-1.92399E-05 3.27043E-05 1.53429E-18-8.39621E-19
 -1      3355 6.24484E-05-2.35173E-05-1.60321E-05 2.98545E-05 1.58835E-18-1.76855E-18
 -1      3356 6.07377E-05-2.35502E-05-1.56041E-05-2.66623E-05 2.09842E-18 7.20137E-19
 -1      3357 7.40683E-05-3.33166E-05-1.73921E-05-3.30230E-05 2.27460E-18 1.72795E-19
 -1      3358 8.36525E-05-3.59202E-05-2.01165E-05-2.91799E-05 2.26415E-18-1.88809E-19
 -1      3359 1.29105E-04-4.03138E-05-3.80700E-05-1.41887E-05 1.46510E-18-2.14617E-18
 -1      3360 4.53727E-05-1.24037E-05-1.37903E-05-5.09709E-06 7.58119E-19 1.60301E-18
 -1      3361 5.09158E-05-1.64532E-05-1.45923E-05-1.79660E-05 1.66172E-18 1.51259E-18
 -1      3362 8.07256E-05-3.54854E-05-1.89294E-05-3.28630E-05-1.51577E-18-2.39827E-18
 -1      3363 9.70699E-05-4.55145E-05-2.22129E-05-3.17453E-05-1.55955E-18-1.65960E-18
 -1      3364 1.03594E-04-4.58793E-05-2.45853E-05-2.53190E-05-1.25689E-18-1.00326E-18
 -1      3365 4.15428E-05-8.72539E-06-1.37259E-05-1.83136E-06 4.28221E-19-3.86808E-18
 -1      3366 4.49746E-05-1.12163E-05-1.41198E-05-1.39906E-05-4.46810E-20-3.61831E-18
 -1      3367 1.31213E-04-4.23149E-05-3.83159E-05-1.08370E-05-1.00649E-18 5.48983E-19
 -1      3368 6.99844E-05-6.44349E-06-2.72604E-05 8.86079E-07 9.70100E-19-1.98093E-18
 -1      3369 7.05308E-05-6.78811E-06-2.73147E-05 2.57593E-06 8.85767E-19-2.00878E-18
 -1      3370 6.95461E-05-7.53625E-06-2.65032E-05-6.34622E-07 8.79331E-19-2.03061E-18
 -1      3371 8.91800E-05-2.07095E-05-2.93709E-05-7.94991E-06 7.92272E-19-9.77205E-19
 -1      3372 8.62773E-05-1.71364E-05-2.95837E-05-6.33981E-06 1.06578E-18-1.25393E-18
 -1      3373 8.22464E-05-1.46724E-05-2.90124E-05-6.50164E-06 9.88564E-19-1.46410E-18
 -1      3374 5.50270E-05-1.44593E-05-1.69587E-05-1.69908E-05-2.84987E-19-2.91168E-18
 -1      3375 1.00013E-04-3.02301E-05-2.99716E-05 7.34776E-06-1.73707E-19-1.42175E-18
 -1      3376 8.43779E-05-1.57824E-05-2.94505E-05 6.28199E-06 2.34711E-19-1.86643E-18
 -1      3377 8.81552E-05-1.81133E-05-2.99909E-05 5.60274E-06 7.08118E-22-1.92675E-18
 -1      3378 9.00782E-05-2.03487E-05-2.98745E-05 6.30161E-06 5.39222E-20-1.80465E-18
 -1      3379 1.27204E-04-5.48039E-05-3.10322E-05 5.72308E-06-6.89273E-19-1.71050E-18
 -1      3380 1.26983E-04-4.60973E-05-3.47314E-05-6.81284E-06-2.53289E-19 4.57133E-19
 -1      3381 1.18987E-04-1.92850E-05-4.32418E-05-1.10181E-05-2.37561E-18-4.80162E-20
 -1      3382 6.01402E-05-1.96582E-05-1.69486E-05 2.46172E-05 1.43180E-18-2.02113E-18
 -1      3383 1.27861E-04-4.20547E-05-3.67404E-05 1.14139E-05 1.15567E-19-2.94712E-18
 -1      3384 6.12533E-05-2.02809E-05-1.71836E-05-1.99051E-05 1.55656E-18 8.89490E-19
 -1      3385 7.80356E-05-3.56741E-05-1.77437E-05 3.25878E-05-6.72385E-19 1.55208E-18
 -1      3386 7.38292E-05-3.01907E-05-1.84744E-05 2.86601E-05-4.21611E-19 2.21997E-18
 -1      3387 8.70798E-05-4.01218E-05-2.02066E-05 3.11427E-05-5.24155E-19 2.03796E-18
 -1      3388 9.52408E-05-2.85797E-05-2.85690E-05-2.43907E-08 1.01381E-18-1.18930E-18
 -1      3389 9.52524E-05-2.85889E-05-2.85701E-05-1.15650E-08 6.24086E-19 3.52598E-18
 -1      3390 9.52510E-05-2.85878E-05-2.85699E-05-1.42491E-08 7.59833E-19 1.62317E-18
 -1      3391 7.72607E-05-1.10330E-05-2.84520E-05 6.23196E-06 6.39035E-19-1.86713E-18
 -1      3392 8.06861E-05-1.31619E-05-2.89090E-05 6.38188E-06 4.17287E-19-1.97480E-18
 -1      3393 8.23380E-05-1.52458E-05-2.87258E-05 7.39336E-06 3.84421E-19-1.82054E-18
 -1      3394 9.52543E-05-2.85902E-05-2.85703E-05-5.16690E-09 7.70508E-19-1.66601E-18
 -1      3395 9.52536E-05-2.85897E-05-2.85702E-05-8.30792E-09 8.44740E-19 1.87038E-18
 -1      3396 9.52547E-05-2.85889E-05-2.85711E-05-1.05171E-08 4.47055E-19 2.64398E-18
 -1      3397 9.52564E-05-2.85899E-05-2.85714E-05-3.59831E-09 7.10842E-19-1.90349E-18
 -1      3398 6.27769E-05-2.20738E-05-1.72617E-05 2.23921E-05-2.60489E-19 3.72239E-18
 -1      3399 5.60234E-05-1.83003E-05-1.56868E-05 1.92666E-05-4.14609E-19 3.66882E-18
 -1      3400 5.62708E-05-1.60855E-05-1.70253E-05 1.35561E-05 1.96895E-19 2.67615E-18
 -1      3401 1.06480E-04-3.51010E-05-3.06262E-05-7.08449E-06 3.69485E-19 1.75897E-19
 -1      3402 1.04470E-04-3.24347E-05-3.08152E-05-6.83130E-06 4.79709E-19 2.12739E-19
 -1      3403 1.01698E-04-3.07328E-05-3.04420E-05-7.53490E-06 5.63957E-19 6.16713E-20
 -1      3404 1.11620E-04-4.05347E-05-3.04780E-05-6.28695E-06-1.46636E-19 4.10254E-19
 -1      3405 1.08870E-04-3.76536E-05-3.04350E-05-7.20334E-06 2.34837E-20 1.80387E-19
 -1      3406 1.06128E-04-3.65848E-05-2.99184E-05-8.89824E-06 9.31753E-20 1.14164E-19
 -1      3407 1.11997E-04-4.29067E-05-2.98076E-05-8.76546E-06-4.09385E-19 3.49295E-19
 -1      3408 1.10291E-04-5.34702E-05-2.41347E-05 2.68949E-05-8.38774E-19 7.61271E-20
 -1      3409 1.02491E-04-4.81627E-05-2.29468E-05 2.79904E-05-7.17066E-19 5.16584E-19
 -1      3410 1.15845E-04-5.39120E-05-2.66653E-05 1.91136E-05-7.41869E-19-1.92885E-18
 -1      3411 9.52516E-05-2.85870E-05-2.85706E-05-1.60427E-08 7.03381E-19 1.43383E-18
 -1      3412 9.52494E-05-2.85868E-05-2.85696E-05-1.64416E-08 6.46077E-19 6.90314E-19
 -1      3413 9.52475E-05-2.85856E-05-2.85695E-05-1.81731E-08 6.77732E-19 7.62113E-19
 -1      3414 9.70420E-05-4.09604E-05-2.38866E-05 2.61687E-05 1.29105E-18-5.02688E-19
 -1      3415 8.87756E-05-3.80585E-05-2.14460E-05 3.08345E-05 1.40586E-18-6.60845E-19
 -1      3416 8.05471E-05-3.06250E-05-2.13185E-05 2.78459E-05 1.32389E-18-9.64109E-19
 -1      3417 9.52468E-05-2.85850E-05-2.85694E-05 1.88997E-08 7.93447E-19-2.82563E-18
 -1      3418 9.52491E-05-2.85865E-05-2.85696E-05 1.68813E-08 7.95212E-19-4.63850E-19
 -1      3419 1.29219E-04-5.33538E-05-3.24725E-05 4.23426E-06 1.92872E-19 6.74688E-19
 -1      3420 7.75871E-05-3.02460E-05-1.98965E-05-2.85328E-05-1.12274E-18-2.42124E-18
 -1      3421 1.25874E-04-4.88558E-05-3.30515E-05 3.11193E-06-3.24334E-19 1.32358E-18
 -1      3422 1.23633E-04-4.90639E-05-3.18691E-05-5.43215E-07-3.72410E-19 1.18064E-18
 -1      3423 7.49529E-05-9.84243E-06-2.79704E-05-5.08802E-06 9.87989E-19-1.77876E-18
 -1      3424 7.31999E-05-1.00420E-05-2.70209E-05-5.40036E-06 8.38281E-19-1.92602E-18
 -1      3425 7.82041E-05-1.18012E-05-2.84124E-05-5.87399E-06 1.06282E-18-1.62177E-18
 -1      3426 9.58041E-05-2.49805E-05-3.03882E-05 5.75374E-06-2.04250E-19-1.67932E-18
 -1      3427 1.29812E-04-4.82506E-05-3.49115E-05 7.12130E-06-2.43165E-19 1.52019E-18
 -1      3428 1.26029E-04-4.18943E-05-3.63396E-05 1.17851E-05 3.52286E-19 1.91544E-18
 -1      3429 9.52514E-05-2.85867E-05-2.85706E-05 1.65624E-08 7.96821E-19 4.45905E-19
 -1      3430 5.20383E-05-1.34601E-05-1.61475E-05-8.03901E-07 8.13294E-19 1.66738E-18
 -1      3431 1.20625E-04-4.97691E-05-3.05462E-05-6.63760E-06-6.47246E-19 8.41236E-19
 -1      3432 4.89158E-05-1.05704E-05-1.63699E-05 1.13650E-05 1.20226E-18-2.85530E-18
 -1      3433 4.42711E-05-8.75171E-06-1.47171E-05 4.47993E-06 8.27071E-19-3.51318E-18
 -1      3434 4.96314E-05-8.79226E-06-1.72431E-05-7.14182E-07 4.45758E-19-3.27076E-18
 -1      3435 9.86835E-05-2.86157E-05-2.99712E-05-8.55818E-06 5.41849E-19-2.70220E-19
 -1      3436 9.54745E-05-2.63740E-05-2.95782E-05-9.17608E-06 5.98282E-19-4.52977E-19
 -1      3437 1.00869E-04-3.16542E-05-2.96534E-05-9.55803E-06 2.72476E-19-5.80234E-20
 -1      3438 5.61556E-05-1.38122E-05-1.79732E-05 4.28035E-06 8.82873E-19 1.60203E-18
 -1      3439 5.65980E-05-1.39448E-05-1.81705E-05-4.77718E-06 9.91642E-19 1.32685E-18
 -1      3440 9.52440E-05-2.85821E-05-2.85694E-05 2.22982E-08-2.06801E-19-3.78539E-18
 -1      3441 1.01596E-04-3.98805E-05-2.63561E-05-1.65694E-05 1.09625E-18-3.03608E-20
 -1      3442 9.80478E-05-3.63497E-05-2.63447E-05-1.61707E-05 6.00391E-19 3.90502E-19
 -1      3443 9.59684E-05-3.35560E-05-2.66610E-05-1.46964E-05 3.14100E-19 6.86744E-19
 -1      3444 9.37564E-05-3.10920E-05-2.68312E-05-1.38889E-05 4.55980E-19 9.98620E-19
 -1      3445 9.26816E-05-3.32316E-05-2.55677E-05-1.74571E-05 7.78707E-19 8.23839E-20
 -1      3446 9.29295E-05-2.93568E-05-2.71815E-05-1.24299E-05 3.65881E-19 4.13889E-19
 -1      3447 9.17120E-05-2.78163E-05-2.73900E-05-1.15744E-05 3.27081E-19 2.51310E-19
 -1      3448 8.99843E-05-2.86230E-05-2.63352E-05-1.40253E-05 2.31252E-19 4.49126E-20
 -1      3449 9.15609E-05-2.68386E-05-2.76962E-05-1.03466E-05 1.01927E-19 3.63067E-19
 -1      3450 9.09865E-05-2.59680E-05-2.78817E-05-9.55612E-06-5.33459E-20 5.42424E-19
 -1      3451 8.90915E-05-2.59907E-05-2.70558E-05-1.11857E-05 2.64443E-19-2.72841E-19
 -1      3452 9.11809E-05-2.55030E-05-2.81214E-05-8.56378E-06-1.47489E-19 7.11845E-19
 -1      3453 9.09892E-05-2.50840E-05-2.82636E-05-7.86342E-06 1.05848E-19 5.42369E-19
 -1      3454 8.91470E-05-2.46483E-05-2.76427E-05-8.95666E-06-6.54911E-20 3.70250E-19
 -1      3455 9.13433E-05-2.49492E-05-2.84383E-05-7.06093E-06 4.15863E-19 5.55907E-20
 -1      3456 9.13631E-05-2.48204E-05-2.85358E-05-6.44698E-06 6.17638E-20 1.22844E-19
 -1      3457 8.96770E-05-2.41324E-05-2.80851E-05-7.21019E-06 1.18782E-19 7.63951E-19
 -1      3458 9.17725E-05-2.48871E-05-2.86549E-05-5.79088E-06-5.65281E-19 4.77365E-19
 -1      3459 9.18972E-05-2.49339E-05-2.87141E-05-5.25444E-06-2.57376E-19 9.50999E-21
 -1      3460 9.04126E-05-2.41302E-05-2.83991E-05-5.81849E-06-3.52165E-19 5.29942E-20
 -1      3461 9.23040E-05-2.51133E-05-2.87892E-05-4.71245E-06-2.86188E-19-1.55857E-19
 -1      3462 9.24698E-05-2.52572E-05-2.88187E-05-4.24616E-06-1.38214E-19-1.03428E-18
 -1      3463 9.12004E-05-2.44290E-05-2.86082E-05-4.68796E-06-6.28079E-19-5.61640E-19
 -1      3464 9.28436E-05-2.54900E-05-2.88610E-05-3.79616E-06 4.72460E-19-9.74196E-19
 -1      3465 9.30148E-05-2.56793E-05-2.88693E-05-3.39456E-06 1.38612E-19-5.14364E-20
 -1      3466 9.19555E-05-2.48850E-05-2.87368E-05-3.75647E-06 1.73048E-19-8.09811E-19
 -1      3467 9.33416E-05-2.59272E-05-2.88883E-05-3.02138E-06-5.89530E-19 4.55075E-19
 -1      3468 9.34994E-05-2.61290E-05-2.88824E-05-2.67985E-06-2.94112E-19 2.32227E-19
 -1      3469 9.26345E-05-2.54037E-05-2.88065E-05-2.98415E-06 8.96657E-20 8.05091E-20
 -1      3470 9.37750E-05-2.63685E-05-2.88856E-05-2.37232E-06-2.19276E-19 1.40384E-19
 -1      3471 9.39113E-05-2.65630E-05-2.88712E-05-2.08617E-06-2.82310E-19 6.01158E-20
 -1      3472 9.32193E-05-2.59249E-05-2.88348E-05-2.34446E-06-4.29569E-19 8.81646E-19
 -1      3473 9.41371E-05-2.67811E-05-2.88644E-05-1.83525E-06-1.12462E-18-6.16493E-19
 -1      3474 9.42496E-05-2.69576E-05-2.88457E-05-1.59928E-06-1.05882E-18-9.25650E-19
 -1      3475 9.37068E-05-2.64125E-05-2.88358E-05-1.81809E-06-9.67284E-19-1.62720E-19
 -1      3476 9.44301E-05-2.71481E-05-2.88332E-05-1.39708E-06-2.12471E-19-6.28357E-19
 -1      3477 9.45200E-05-2.73016E-05-2.88128E-05-1.20566E-06 5.46632E-20-5.89145E-19
 -1      3478 9.41023E-05-2.68476E-05-2.88198E-05-1.38938E-06-3.93557E-19-3.78110E-19
 -1      3479 9.46610E-05-2.74627E-05-2.87976E-05-1.04495E-06-1.88758E-19-8.05463E-19
 -1      3480 9.47307E-05-2.75920E-05-2.87776E-05-8.92237E-07-2.22850E-19-1.41580E-18
 -1      3481 9.44158E-05-2.72222E-05-2.87944E-05-1.04456E-06-6.12466E-19 4.35373E-20
 -1      3482 9.48386E-05-2.77247E-05-2.87617E-05-7.66403E-07-1.97156E-19-1.60257E-18
 -1      3483 9.48913E-05-2.78309E-05-2.87431E-05-6.46601E-07 3.48939E-19-1.67337E-18
 -1      3484 9.46587E-05-2.75357E-05-2.87649E-05-7.71083E-07-2.31088E-19-1.11929E-18
 -1      3485 9.49721E-05-2.79377E-05-2.87278E-05-5.49625E-07 3.74789E-19-1.32252E-18
 -1      3486 9.50109E-05-2.80230E-05-2.87113E-05-4.57241E-07-2.54025E-19-1.77420E-18
 -1      3487 9.48431E-05-2.77919E-05-2.87347E-05-5.57419E-07-3.99634E-20-2.14392E-18
 -1      3488 9.50700E-05-2.81072E-05-2.86974E-05-3.83756E-07-2.44137E-19-1.35571E-18
 -1      3489 9.50978E-05-2.81742E-05-2.86832E-05-3.13774E-07 9.14266E-20-8.52650E-19
 -1      3490 9.49800E-05-2.79967E-05-2.87060E-05-3.93135E-07-2.52292E-20-1.97041E-18
 -1      3491 9.51400E-05-2.82394E-05-2.86709E-05-2.59097E-07-5.01336E-19-9.03482E-19
 -1      3492 9.51592E-05-2.82910E-05-2.86590E-05-2.07080E-07-1.12400E-18-3.10639E-19
 -1      3493 9.50793E-05-2.81573E-05-2.86801E-05-2.68951E-07-5.36311E-19-1.27442E-18
 -1      3494 9.51884E-05-2.83404E-05-2.86486E-05-1.67210E-07-1.87527E-18-3.35757E-19
 -1      3495 9.52013E-05-2.83794E-05-2.86388E-05-1.29341E-07-1.82034E-18-2.61378E-19
 -1      3496 9.51493E-05-2.82807E-05-2.86575E-05-1.76793E-07-1.08942E-18-1.93554E-18
 -1      3497 9.52208E-05-2.84161E-05-2.86301E-05-1.00931E-07-2.17069E-18-8.24856E-19
 -1      3498 9.52289E-05-2.84449E-05-2.86223E-05-7.40057E-08-8.69666E-19-1.67634E-18
 -1      3499 9.51972E-05-2.83737E-05-2.86383E-05-1.09786E-07-2.26677E-18-2.03897E-18
 -1      3500 9.52412E-05-2.84716E-05-2.86152E-05-5.43071E-08 2.62347E-19-2.06066E-18
 -1      3501 9.52460E-05-2.84924E-05-2.86090E-05-3.56928E-08 1.36769E-19-2.37800E-18
 -1      3502 9.52285E-05-2.84424E-05-2.86224E-05-6.21940E-08-8.34444E-19-2.33491E-18
 -1      3503 9.52531E-05-2.85113E-05-2.86034E-05-2.24938E-08-2.85056E-19-3.01399E-18
 -1      3504 9.52555E-05-2.85260E-05-2.85986E-05-1.00713E-08-1.18149E-18-3.30931E-18
 -1      3505 9.52477E-05-2.84919E-05-2.86095E-05-2.93250E-08-5.50523E-19-3.87896E-18
 -1      3506 9.52591E-05-2.85389E-05-2.85942E-05-1.62371E-09-1.64040E-18-2.69806E-18
 -1      3507 9.52599E-05-2.85490E-05-2.85905E-05 6.27942E-09-7.54933E-19-3.51940E-18
 -1      3508 9.52584E-05-2.85267E-05-2.85993E-05-7.41214E-09-1.27149E-18-3.15963E-18
 -1      3509 9.52610E-05-2.85575E-05-2.85871E-05 1.13317E-08 5.22026E-19-3.50745E-18
 -1      3510 9.52608E-05-2.85641E-05-2.85843E-05 1.60089E-08 1.05590E-18-3.76848E-18
 -1      3511 9.52633E-05-2.85504E-05-2.85912E-05 6.51214E-09-9.24267E-20-1.60182E-18
 -1      3512 9.52604E-05-2.85695E-05-2.85817E-05 1.86972E-08 1.20708E-18-3.51899E-18
 -1      3513 9.52596E-05-2.85737E-05-2.85797E-05 2.11274E-08 1.08085E-18-2.73487E-18
 -1      3514 9.52642E-05-2.85658E-05-2.85850E-05 1.47416E-08 1.07855E-18-1.83943E-18
 -1      3515 9.52583E-05-2.85768E-05-2.85777E-05 2.22170E-08 6.44030E-19-3.05006E-18
 -1      3516 9.52571E-05-2.85793E-05-2.85762E-05 2.31217E-08-4.22609E-19-1.70351E-18
 -1      3517 9.52627E-05-2.85754E-05-2.85803E-05 1.90124E-08 9.35887E-19-1.79783E-18
 -1      3518 9.52553E-05-2.85810E-05-2.85747E-05 2.31731E-08-1.68102E-18-1.29171E-18
 -1      3519 9.52541E-05-2.85824E-05-2.85736E-05 2.30689E-08-9.63760E-19-1.85854E-18
 -1      3520 9.52598E-05-2.85810E-05-2.85766E-05 2.06039E-08-3.30717E-19-2.49024E-18
 -1      3521 9.52522E-05-2.85832E-05-2.85724E-05 2.24512E-08-1.15077E-18-1.31829E-18
 -1      3522 9.52510E-05-2.85840E-05-2.85716E-05 2.17251E-08-7.99745E-19-2.27186E-18
 -1      3523 9.52563E-05-2.85841E-05-2.85738E-05 2.04822E-08-1.25554E-18-1.70319E-18
 -1      3524 1.11326E-04-4.72491E-05-2.73440E-05 1.51834E-05-9.28740E-19-1.93295E-18
 -1      3525 1.16543E-04-5.08611E-05-2.80671E-05 1.32703E-05-9.05187E-19-1.90429E-18
 -1      3526 1.25325E-04-3.70699E-05-3.78958E-05 1.46175E-05 4.54751E-19 2.18150E-18
 -1      3527 9.73384E-05-3.24607E-05-2.77668E-05 1.35021E-05-4.81320E-19-1.00977E-18
 -1      3528 9.97919E-05-3.50701E-05-2.76746E-05 1.37228E-05-3.25898E-19-1.32513E-18
 -1      3529 9.46421E-05-2.88755E-05-2.81795E-05 1.18941E-05-1.44184E-19-1.05399E-18
 -1      3530 9.60652E-05-3.05252E-05-2.80399E-05 1.24184E-05-4.51142E-19-1.03699E-18
 -1      3531 9.32857E-05-3.01466E-05-2.71158E-05 1.41760E-05-3.47859E-19-1.00967E-18
 -1      3532 9.34342E-05-2.68459E-05-2.85443E-05 1.02359E-05-2.25514E-19-5.36211E-19
 -1      3533 9.41822E-05-2.77837E-05-2.84243E-05 1.08634E-05-3.41650E-19-5.72100E-19
 -1      3534 9.16670E-05-2.70848E-05-2.77020E-05 1.18758E-05-4.74748E-19-8.24363E-19
 -1      3535 9.30700E-05-2.58704E-05-2.88110E-05 8.68057E-06 2.26602E-19 2.05275E-19
 -1      3536 9.34148E-05-2.63266E-05-2.87311E-05 9.32393E-06 1.03253E-19-1.59914E-19
 -1      3537 9.12362E-05-2.54912E-05-2.81827E-05 9.89096E-06-4.81213E-19 1.11578E-19
 -1      3538 9.31402E-05-2.55548E-05-2.89774E-05 7.27037E-06-6.64884E-20 1.99158E-19
 -1      3539 9.32628E-05-2.57104E-05-2.89375E-05 7.89040E-06 6.48667E-19 2.89182E-19
 -1      3540 9.14266E-05-2.48476E-05-2.85316E-05 8.21468E-06-3.44304E-20 2.62687E-19
 -1      3541 9.34047E-05-2.56229E-05-2.90609E-05 6.01159E-06-2.20328E-19-1.04804E-18
 -1      3542 9.34159E-05-2.56043E-05-2.90529E-05 6.58696E-06-5.40436E-19-3.48933E-19
 -1      3543 9.18971E-05-2.47758E-05-2.87605E-05 6.78972E-06 9.73338E-20 3.36485E-19
 -1      3544 9.37303E-05-2.58925E-05-2.90836E-05 4.90308E-06-2.00449E-19-4.56370E-19
 -1      3545 9.36931E-05-2.57824E-05-2.90978E-05 5.42171E-06-3.74876E-19-9.26975E-19
 -1      3546 9.24574E-05-2.50238E-05-2.88934E-05 5.56791E-06-2.07349E-19-7.22736E-19
 -1      3547 9.40488E-05-2.62492E-05-2.90659E-05 3.94132E-06 3.94697E-19 2.68664E-19
 -1      3548 9.39965E-05-2.60992E-05-2.90935E-05 4.39710E-06 1.78661E-19 1.73651E-19
 -1      3549 9.30072E-05-2.54288E-05-2.89559E-05 4.51792E-06-3.32324E-19 3.01397E-19
 -1      3550 9.43300E-05-2.66250E-05-2.90238E-05 3.12046E-06 9.53484E-19-1.41823E-18
 -1      3551 9.42784E-05-2.64655E-05-2.90583E-05 3.51186E-06 9.71614E-19-5.86103E-19
 -1      3552 9.34991E-05-2.58899E-05-2.89700E-05 3.62006E-06 1.03838E-18 2.98996E-20
 -1      3553 9.45636E-05-2.69823E-05-2.89695E-05 2.43181E-06 5.67165E-19-1.88278E-20
 -1      3554 9.45194E-05-2.68300E-05-2.90059E-05 2.76085E-06 6.48455E-19-5.59164E-19
 -1      3555 9.39154E-05-2.63477E-05-2.89532E-05 2.86021E-06 8.02594E-19-6.14879E-19
 -1      3556 9.47501E-05-2.73022E-05-2.89111E-05 1.86404E-06-5.47731E-19 1.12085E-18
 -1      3557 9.47150E-05-2.71655E-05-2.89465E-05 2.13523E-06 4.04482E-19 1.07235E-18
 -1      3558 9.42548E-05-2.67699E-05-2.89187E-05 2.22587E-06-1.63135E-19 8.50221E-19
 -1      3559 9.48946E-05-2.75774E-05-2.88541E-05 1.40393E-06-1.28444E-18 1.39172E-18
 -1      3560 9.48681E-05-2.74596E-05-2.88865E-05 1.62331E-06-6.25943E-19 1.28123E-18
 -1      3561 9.45237E-05-2.71415E-05-2.88756E-05 1.70437E-06-3.51079E-19 1.73489E-18
 -1      3562 9.50038E-05-2.78072E-05-2.88016E-05 1.03737E-06-1.14541E-18 1.21564E-18
 -1      3563 9.49845E-05-2.77087E-05-2.88301E-05 1.21169E-06-1.54198E-18 7.89946E-19
 -1      3564 9.47319E-05-2.74575E-05-2.88301E-05 1.28248E-06-1.18348E-18 9.49484E-19
 -1      3565 9.50845E-05-2.79946E-05-2.87551E-05 7.50251E-07-2.39528E-19 9.14295E-19
 -1      3566 9.50709E-05-2.79142E-05-2.87794E-05 8.86365E-07-5.79855E-19 1.23883E-18
 -1      3567 9.48896E-05-2.77193E-05-2.87860E-05 9.46728E-07-1.14075E-18 1.45324E-18
 -1      3568 9.51427E-05-2.81443E-05-2.87153E-05 5.29198E-07-1.43831E-18 1.01312E-18
 -1      3569 9.51335E-05-2.80800E-05-2.87356E-05 6.33631E-07-3.39835E-19 9.43046E-19
 -1      3570 9.50067E-05-2.79315E-05-2.87457E-05 6.83954E-07-8.30781E-19 1.60579E-18
 -1      3571 9.51837E-05-2.82617E-05-2.86821E-05 3.62010E-07-2.71881E-18 1.07943E-18
 -1      3572 9.51777E-05-2.82113E-05-2.86986E-05 4.40696E-07-2.61708E-18 6.17804E-19
 -1      3573 9.50919E-05-2.81001E-05-2.87102E-05 4.81778E-07-1.92135E-18 1.79432E-18
 -1      3574 9.52117E-05-2.83521E-05-2.86550E-05 2.37933E-07-7.53174E-19-2.54596E-19
 -1      3575 9.52080E-05-2.83132E-05-2.86682E-05 2.96088E-07-1.56014E-18 1.80082E-19
 -1      3576 9.51523E-05-2.82317E-05-2.86799E-05 3.28972E-07-1.37441E-18 2.83979E-19
 -1      3577 9.52300E-05-2.84205E-05-2.86333E-05 1.47745E-07 1.63359E-19-5.56868E-19
 -1      3578 9.52280E-05-2.83911E-05-2.86436E-05 1.89820E-07-3.28012E-19-3.85901E-19
 -1      3579 9.51940E-05-2.83326E-05-2.86547E-05 2.15655E-07 1.91339E-20-4.39523E-19
 -1      3580 9.52415E-05-2.84712E-05-2.86163E-05 8.37239E-08-1.12819E-19-2.65397E-19
 -1      3581 9.52405E-05-2.84494E-05-2.86242E-05 1.13432E-07 1.96950E-19-5.92738E-19
 -1      3582 9.52218E-05-2.84086E-05-2.86342E-05 1.33363E-07-2.11574E-19 1.86784E-19
 -1      3583 9.52480E-05-2.85081E-05-2.86031E-05 3.95433E-08-9.13107E-19 6.91766E-19
 -1      3584 9.52478E-05-2.84922E-05-2.86091E-05 5.99113E-08-4.96412E-19 3.47207E-19
 -1      3585 9.52393E-05-2.84646E-05-2.86178E-05 7.50133E-08-8.84368E-19 2.39882E-19
 -1      3586 9.52512E-05-2.85342E-05-2.85932E-05 1.01199E-08-2.42758E-20 2.12406E-19
 -1      3587 9.52514E-05-2.85229E-05-2.85976E-05 2.35705E-08 8.63002E-21 6.86532E-19
 -1      3588 9.52497E-05-2.85050E-05-2.86049E-05 3.48047E-08-5.26371E-19 1.36144E-18
 -1      3589 9.52521E-05-2.85522E-05-2.85857E-05-8.55184E-09 3.88298E-19-7.95028E-19
 -1      3590 9.52525E-05-2.85444E-05-2.85890E-05-1.18191E-10 9.11527E-20-4.81868E-20
 -1      3591 9.52549E-05-2.85335E-05-2.85950E-05 8.07939E-09 5.82124E-19-9.16544E-19
 -1      3592 9.52515E-05-2.85642E-05-2.85803E-05-1.95676E-08-4.98301E-19-1.58674E-18
 -1      3593 9.52521E-05-2.85590E-05-2.85826E-05-1.46893E-08-6.81665E-21-1.25533E-18
 -1      3594 9.52568E-05-2.85529E-05-2.85874E-05-8.83047E-09 4.15748E-19-7.93197E-19
 -1      3595 9.52502E-05-2.85718E-05-2.85764E-05-2.52713E-08 3.73167E-19-1.72229E-18
 -1      3596 9.52508E-05-2.85685E-05-2.85780E-05-2.28482E-08-4.61420E-19-1.62763E-18
 -1      3597 9.52565E-05-2.85657E-05-2.85818E-05-1.87578E-08-1.96797E-19-6.77243E-19
 -1      3598 9.52484E-05-2.85764E-05-2.85737E-05-2.73900E-08-2.20024E-19-1.65069E-18
 -1      3599 9.52490E-05-2.85744E-05-2.85748E-05-2.66175E-08-1.03619E-19-2.50222E-18
 -1      3600 9.52549E-05-2.85737E-05-2.85777E-05-2.38462E-08 2.02797E-19-1.95028E-18
 -1      3601 9.52465E-05-2.85790E-05-2.85718E-05-2.71567E-08 2.83198E-19-6.48436E-19
 -1      3602 9.52470E-05-2.85778E-05-2.85725E-05-2.74646E-08-2.76054E-20-1.11819E-18
 -1      3603 9.52525E-05-2.85785E-05-2.85747E-05-2.56598E-08-3.63418E-19-5.17035E-19
 -1      3604 9.52448E-05-2.85805E-05-2.85704E-05-2.54469E-08 3.06977E-19-1.13696E-18
 -1      3605 9.52452E-05-2.85798E-05-2.85709E-05-2.64383E-08 8.05812E-19-8.85661E-19
 -1      3606 9.52500E-05-2.85811E-05-2.85724E-05-2.53544E-08 1.54655E-19-5.28524E-19
 -1      3607 9.52435E-05-2.85829E-05-2.85688E-05-2.03197E-08 9.42486E-19-7.26747E-19
 -1      3608 9.52584E-05-2.85893E-05-2.85725E-05 5.58690E-09 1.08736E-19-1.94022E-18
 -1      3609 9.52589E-05-2.85896E-05-2.85726E-05 1.99360E-09 1.10066E-18-3.43381E-18
 -1      3610 7.21587E-05-7.79251E-06-2.76535E-05 4.42701E-06 8.73377E-19-1.96406E-18
 -1      3611 7.45164E-05-9.25657E-06-2.79454E-05 5.49431E-06 7.29994E-19-1.92514E-18
 -1      3612 7.54933E-05-1.08953E-05-2.76584E-05 6.73903E-06 7.64735E-19-1.85723E-18
 -1      3613 7.07370E-05-8.15817E-06-2.67784E-05 4.14588E-06 9.12405E-19-1.92966E-18
 -1      3614 9.52453E-05-2.85836E-05-2.85693E-05 2.02925E-08 2.63245E-19-2.78424E-18
 -1      3615 1.18207E-04-5.23927E-05-2.78496E-05-1.40972E-05 2.53131E-18-1.47162E-18
 -1      3616 9.52561E-05-2.85880E-05-2.85720E-05 1.26434E-08-2.80296E-19 5.31931E-19
 -1      3617 9.52575E-05-2.85888E-05-2.85723E-05 9.38019E-09-8.52600E-19 4.87059E-20
 -1      3618 9.52599E-05-2.85885E-05-2.85735E-05 7.77587E-09-4.95635E-19-1.36919E-18
 -1      3619 9.56932E-05-2.66935E-05-2.95053E-05 8.37305E-06 5.61333E-20-1.54427E-18
 -1      3620 9.79834E-05-2.99039E-05-2.91504E-05 9.61284E-06 1.38841E-19-1.29599E-18
 -1      3621 6.64665E-05-2.06499E-05-1.95845E-05 2.35688E-05 1.43605E-18-1.57601E-18
 -1      3622 5.58443E-05-1.39552E-05-1.74520E-05 1.86194E-05 1.39645E-18-2.38789E-18
 -1      3623 1.29237E-04-4.54537E-05-3.59802E-05-7.93723E-06-6.04490E-19 5.37442E-19
 -1      3624 1.00750E-04-3.34200E-05-2.87585E-05 1.11879E-05 1.94881E-19-9.16236E-19
 -1      3625 1.04214E-04-3.71383E-05-2.86646E-05 1.14576E-05 3.39574E-19-7.33461E-19
 -1      3626 9.54725E-05-2.98418E-05-2.81987E-05 1.26259E-05 3.85278E-19-1.02303E-18
 -1      3627 6.07894E-05-1.73344E-05-1.84716E-05-1.46163E-05 1.24297E-18 4.68356E-19
 -1      3628 6.89236E-05-2.37978E-05-1.92972E-05-2.28796E-05 1.83372E-18 8.22681E-20
 -1      3629 5.50226E-05-1.14182E-05-1.85235E-05-1.14803E-05 4.88566E-20-2.81368E-18
 -1      3630 6.21398E-05-1.71330E-05-1.92210E-05-2.04125E-05-4.13829E-19-2.38318E-18
 -1      3631 7.27128E-05-2.42871E-05-2.05070E-05-2.46775E-05-7.94424E-19-2.30832E-18
 -1      3632 8.54151E-05-3.32460E-05-2.24390E-05-2.68520E-05-1.07348E-18-1.94466E-18
 -1      3633 1.20065E-04-5.30114E-05-2.89603E-05 1.42079E-05 4.94376E-19 3.91424E-19
 -1      3634 1.10705E-04-4.84424E-05-2.65663E-05 2.04449E-05 8.81854E-19 1.27154E-19
 -1      3635 9.17461E-05-2.23440E-05-2.97062E-05 7.15197E-06 5.63136E-20-1.79756E-18
 -1      3636 9.37689E-05-2.46050E-05-2.96352E-05 7.66050E-06-3.19846E-20-1.64594E-18
 -1      3637 9.11125E-05-2.40977E-05-2.87913E-05 9.93745E-06 3.25208E-19-1.48142E-18
 -1      3638 8.76467E-05-1.98811E-05-2.91025E-05 8.15494E-06 2.66238E-19-1.62959E-18
 -1      3639 1.15996E-04-4.85693E-05-2.85848E-05-1.32943E-05-7.99999E-19 2.99764E-19
 -1      3640 7.96135E-05-3.11015E-05-2.05857E-05-2.62385E-05 1.82946E-18-3.67189E-19
 -1      3641 9.11513E-05-3.91933E-05-2.23502E-05-2.71397E-05 2.35197E-18-7.49730E-19
 -1      3642 9.65425E-05-3.97708E-05-2.39812E-05-2.53791E-05-1.32484E-18-1.46253E-18
 -1      3643 1.06983E-04-4.59489E-05-2.63193E-05-2.08229E-05-9.93702E-19-4.83629E-19
 -1      3644 9.12960E-05-3.39922E-05-2.42950E-05-2.27556E-05-8.60916E-19-1.54595E-18
 -1      3645 1.02485E-04-3.80824E-05-2.74801E-05 1.45466E-05-5.83469E-19-1.46409E-18
 -1      3646 1.06463E-04-4.17600E-05-2.76222E-05 1.39916E-05-8.98953E-19-1.86530E-18
 -1      3647 9.70032E-05-3.53636E-05-2.65341E-05 1.66078E-05-6.07427E-19-7.39744E-19
 -1      3648 9.52483E-05-2.85840E-05-2.85703E-05 2.11273E-08 2.86317E-19-2.64009E-18
 -1      3649 9.52517E-05-2.85852E-05-2.85714E-05 1.95628E-08-1.37632E-19-1.02798E-18
 -1      3650 9.52457E-05-2.85834E-05-2.85695E-05-2.07831E-08 1.21760E-18-1.73858E-19
 -1      3651 1.09160E-04-4.37606E-05-2.79350E-05-1.48991E-05-7.03474E-19-1.28337E-19
 -1      3652 9.08493E-05-2.36405E-05-2.88403E-05-1.00129E-05 4.70937E-19-8.76360E-19
 -1      3653 9.52575E-05-2.85888E-05-2.85723E-05-9.29857E-09-2.06139E-20 2.20262E-18
 -1      3654 9.52561E-05-2.85881E-05-2.85720E-05-1.25684E-08 5.75730E-20 3.40279E-18
 -1      3655 5.83967E-05-1.47357E-05-1.84600E-05 7.73950E-06 4.19500E-19 1.70524E-18
 -1      3656 6.19568E-05-1.49636E-05-2.01426E-05 3.87408E-06 6.53155E-19 1.21218E-18
 -1      3657 6.20146E-05-1.68834E-05-1.92733E-05 1.19378E-05-2.17350E-20 2.11427E-18
 -1      3658 1.17413E-04-4.82709E-05-2.93518E-05 9.97088E-06 3.88265E-19 9.27700E-20
 -1      3659 1.21824E-04-5.04441E-05-3.05291E-05 6.61909E-06 2.77397E-19 2.64817E-19
 -1      3660 1.05505E-04-4.00229E-05-2.79438E-05-1.47911E-05-6.01595E-19-3.11195E-19
 -1      3661 9.52542E-05-2.85866E-05-2.85718E-05 1.69038E-08-3.06009E-19 2.95429E-19
 -1      3662 1.10699E-04-4.80861E-05-2.67905E-05-1.66420E-05 2.59626E-18-9.85867E-19
 -1      3663 1.05772E-04-4.39001E-05-2.62966E-05-1.74026E-05 2.14625E-18-5.45648E-19
 -1      3664 1.04261E-04-4.43753E-05-2.58117E-05 2.01094E-05-1.10658E-18-1.67646E-18
 -1      3665 7.43984E-05-2.44800E-05-2.10723E-05 2.49716E-05 1.33091E-18-1.29982E-18
 -1      3666 6.90360E-05-1.91058E-05-2.13639E-05 2.02455E-05 1.28748E-18-1.65936E-18
 -1      3667 8.23456E-05-2.86109E-05-2.29148E-05 2.38201E-05 1.18546E-18-1.06156E-18
 -1      3668 9.67082E-05-4.31534E-05-2.26972E-05 2.66048E-05-6.63280E-19 5.75063E-19
 -1      3669 8.34462E-05-1.69888E-05-2.84525E-05 8.59670E-06 4.36109E-19-1.71959E-18
 -1      3670 8.50115E-05-1.89981E-05-2.82605E-05 9.58327E-06 5.08283E-19-1.67391E-18
 -1      3671 7.92894E-05-1.43430E-05-2.78960E-05 8.59787E-06 6.73373E-19-1.68600E-18
 -1      3672 1.28304E-04-5.03160E-05-3.37611E-05-2.60248E-06 5.21951E-21 4.21412E-19
 -1      3673 6.76210E-05-8.24521E-06-2.54584E-05-2.37641E-06 7.71002E-19-2.10191E-18
 -1      3674 6.68718E-05-7.70696E-06-2.53498E-05 4.19914E-07 7.95619E-19-2.02843E-18
 -1      3675 1.22618E-04-5.36499E-05-2.92769E-05 9.81395E-06-7.21672E-19-2.06080E-18
 -1      3676 6.91771E-05-2.51931E-05-1.84767E-05 2.48182E-05-5.83182E-19 3.04233E-18
 -1      3677 6.61704E-05-2.15048E-05-1.90429E-05 2.00546E-05-6.44817E-19 3.32569E-18
 -1      3678 7.68260E-05-2.93123E-05-2.01682E-05 2.50077E-05-5.03521E-19 1.95763E-18
 -1      3679 1.04245E-04-4.42852E-05-2.55901E-05 2.28308E-05 9.74061E-19-3.94386E-19
 -1      3680 9.59294E-05-3.78125E-05-2.48805E-05 2.29210E-05 1.04350E-18-6.02465E-19
 -1      3681 1.08985E-04-4.53969E-05-2.73513E-05 1.72901E-05 6.66138E-19-8.51930E-20
 -1      3682 7.77526E-05-2.73236E-05-2.14104E-05-2.17217E-05 1.74405E-18-2.92359E-19
 -1      3683 1.26041E-04-5.23308E-05-3.14068E-05 5.15027E-06 1.62551E-19 5.43650E-19
 -1      3684 1.11105E-04-4.45808E-05-2.84318E-05 1.26955E-05 3.76877E-19-2.98599E-19
 -1      3685 1.09458E-04-4.97525E-05-2.57522E-05-2.10027E-05 2.78039E-18-1.50776E-18
 -1      3686 7.00693E-05-9.94381E-06-2.58205E-05-6.12420E-06 6.06353E-19-2.02075E-18
 -1      3687 6.75428E-05-9.90409E-06-2.46030E-05-5.29639E-06 4.21591E-19-2.08578E-18
 -1      3688 7.35392E-05-1.20892E-05-2.62658E-05-8.07593E-06 6.19310E-19-1.92194E-18
 -1      3689 9.52589E-05-2.85896E-05-2.85726E-05-1.94645E-09 6.69022E-19-1.64928E-18
 -1      3690 9.52584E-05-2.85893E-05-2.85725E-05-5.52456E-09 2.15951E-19-5.28715E-19
 -1      3691 9.52599E-05-2.85885E-05-2.85735E-05-7.69503E-09-1.97230E-19 1.27930E-18
 -1      3692 1.06550E-04-4.06256E-05-2.81266E-05 1.36274E-05 4.18001E-19-4.87932E-19
 -1      3693 9.52545E-05-2.85873E-05-2.85716E-05-1.53918E-08 4.66506E-19 2.12100E-18
 -1      3694 9.52524E-05-2.85862E-05-2.85713E-05-1.77293E-08 3.07492E-19 1.37416E-18
 -1      3695 9.52571E-05-2.85872E-05-2.85728E-05-1.42706E-08 3.93082E-19 2.95656E-18
 -1      3696 6.43614E-05-1.54984E-05-2.08724E-05-4.59767E-06 1.03488E-18 8.86235E-19
 -1      3697 6.16258E-05-1.57639E-05-1.94647E-05-9.41034E-06 1.13276E-18 9.50689E-19
 -1      3698 6.80379E-05-1.84937E-05-2.11939E-05-1.25107E-05 1.34727E-18 3.67493E-19
 -1      3699 8.05218E-05-1.50267E-05-2.80651E-05-8.00172E-06 7.73119E-19-1.56007E-18
 -1      3700 9.52569E-05-2.85865E-05-2.85730E-05 1.58295E-08-5.32358E-19 1.95035E-19
 -1      3701 7.19171E-05-2.05099E-05-2.17357E-05-1.96802E-05-4.49576E-19-2.17075E-18
 -1      3702 5.39493E-05-9.36804E-06-1.87597E-05-6.65881E-06 2.20311E-19-3.14082E-18
 -1      3703 6.03736E-05-1.14497E-05-2.07565E-05-1.00928E-05 1.83965E-20-2.58689E-18
 -1      3704 5.41676E-05-8.88830E-06-1.94279E-05-5.24228E-07 4.99941E-19-2.90307E-18
 -1      3705 9.52610E-05-2.85890E-05-2.85737E-05 3.09542E-11 4.83637E-19-2.45473E-18
 -1      3706 9.84032E-05-4.03210E-05-2.50065E-05-2.08352E-05 1.95999E-18-9.26350E-19
 -1      3707 5.67355E-05-1.18812E-05-1.89534E-05 1.22938E-05 1.14606E-18-2.52723E-18
 -1      3708 9.97269E-05-4.41474E-05-2.35318E-05-2.54899E-05 2.86680E-18-1.11611E-18
 -1      3709 9.52439E-05-2.85818E-05-2.85695E-05-2.26908E-08 8.84436E-19-9.33824E-19
 -1      3710 9.52438E-05-2.85809E-05-2.85698E-05-2.42810E-08 1.64203E-20-1.49647E-18
 -1      3711 9.54308E-05-3.97250E-05-2.37385E-05-2.34609E-05 2.51733E-18-1.15084E-18
 -1      3712 1.00355E-04-3.71972E-05-2.71383E-05 1.69206E-05 5.38925E-19-5.98138E-19
 -1      3713 9.52480E-05-2.85826E-05-2.85709E-05-2.36788E-08 6.95348E-19-1.03500E-18
 -1      3714 9.52616E-05-2.85875E-05-2.85746E-05 9.78292E-09 9.67751E-20-3.96435E-19
 -1      3715 9.52627E-05-2.85880E-05-2.85749E-05 6.07361E-09 6.50358E-19-3.15045E-18
 -1      3716 9.80231E-05-3.61383E-05-2.66672E-05-1.83069E-05-5.75350E-19-8.94765E-19
 -1      3717 1.03163E-04-3.60273E-05-2.86785E-05-1.24252E-05-1.90637E-19-3.05104E-19
 -1      3718 6.15203E-05-1.25869E-05-2.09981E-05 1.31478E-05 1.14497E-18-2.16965E-18
 -1      3719 5.67382E-05-9.11372E-06-2.00683E-05 6.83870E-06 9.02624E-19-2.60891E-18
 -1      3720 9.21197E-05-3.69126E-05-2.35509E-05 2.31368E-05-8.42851E-19-1.85024E-19
 -1      3721 9.52488E-05-2.85846E-05-2.85703E-05-2.04751E-08 7.49858E-19-2.59320E-19
 -1      3722 8.67482E-05-2.70742E-05-2.54929E-05-1.45369E-05 3.78938E-19-4.01107E-19
 -1      3723 8.59245E-05-2.55119E-05-2.59135E-05-1.29355E-05 1.09644E-19-5.11290E-19
 -1      3724 8.65378E-05-2.47176E-05-2.64504E-05-1.12139E-05 3.65237E-19 5.18593E-20
 -1      3725 8.63938E-05-2.39157E-05-2.68035E-05-9.97352E-06 2.96866E-19 1.72937E-19
 -1      3726 8.31775E-05-2.32643E-05-2.56629E-05-1.15586E-05 6.29810E-19 2.17562E-19
 -1      3727 8.71353E-05-2.35997E-05-2.72053E-05-8.75400E-06 2.51660E-19 3.22810E-19
 -1      3728 8.73249E-05-2.32669E-05-2.74770E-05-7.80419E-06 3.34877E-19 6.24924E-19
 -1      3729 8.46325E-05-2.24230E-05-2.66474E-05-8.68722E-06 3.72631E-19 5.88436E-19
 -1      3730 8.80776E-05-2.32505E-05-2.77698E-05-6.91709E-06-1.44694E-19 7.66672E-19
 -1      3731 8.84231E-05-2.32108E-05-2.79674E-05-6.17679E-06-2.49404E-19 5.01228E-19
 -1      3732 8.61700E-05-2.22745E-05-2.73703E-05-6.66569E-06 3.82888E-19 4.95150E-19
 -1      3733 8.91331E-05-2.33773E-05-2.81740E-05-5.51146E-06-5.48260E-19 4.60836E-19
 -1      3734 8.95337E-05-2.35133E-05-2.83101E-05-4.92009E-06-1.01931E-18 1.37121E-19
 -1      3735 8.76501E-05-2.25482E-05-2.78884E-05-5.19587E-06-6.55005E-19 3.01349E-19
 -1      3736 9.01752E-05-2.37822E-05-2.84505E-05-4.40563E-06-9.42290E-19 1.09716E-19
 -1      3737 9.05745E-05-2.40143E-05-2.85385E-05-3.92306E-06-2.98764E-19 1.67944E-19
 -1      3738 8.90067E-05-2.30682E-05-2.82483E-05-4.08992E-06-7.10154E-19 1.05059E-18
 -1      3739 9.11369E-05-2.43309E-05-2.86292E-05-3.51531E-06 6.36472E-20 3.33978E-19
 -1      3740 9.15048E-05-2.46060E-05-2.86813E-05-3.11642E-06 4.64212E-19 1.10914E-19
 -1      3741 9.02100E-05-2.37137E-05-2.84888E-05-3.23061E-06 2.85325E-19 1.37866E-18
 -1      3742 9.19858E-05-2.49330E-05-2.87359E-05-2.78836E-06 3.59581E-19-3.76061E-20
 -1      3743 9.23083E-05-2.52165E-05-2.87621E-05-2.45729E-06-7.79879E-20 6.56135E-20
 -1      3744 9.12507E-05-2.44024E-05-2.86411E-05-2.54709E-06 4.70687E-19 7.05959E-19
 -1      3745 9.27107E-05-2.55300E-05-2.87911E-05-2.19176E-06-5.12010E-19 1.95162E-19
 -1      3746 9.29833E-05-2.58003E-05-2.87997E-05-1.91784E-06-5.97847E-19 2.91479E-19
 -1      3747 9.21308E-05-2.50788E-05-2.87298E-05-1.99615E-06-3.34515E-19 1.97024E-19
 -1      3748 9.33132E-05-2.60862E-05-2.88111E-05-1.70314E-06-9.90030E-19-8.77812E-21
 -1      3749 9.35370E-05-2.63310E-05-2.88083E-05-1.47833E-06-1.06889E-18-5.58648E-19
 -1      3750 9.28599E-05-2.57079E-05-2.87738E-05-1.55011E-06-1.16896E-18-6.95440E-19
 -1      3751 9.38022E-05-2.65821E-05-2.88082E-05-1.30579E-06-1.15664E-18-2.87075E-19
 -1      3752 9.39816E-05-2.67956E-05-2.87985E-05-1.12334E-06-4.08581E-19-2.73352E-19
 -1      3753 9.34522E-05-2.62698E-05-2.87879E-05-1.18981E-06-4.93709E-19-1.92691E-19
 -1      3754 9.41908E-05-2.70096E-05-2.87915E-05-9.85993E-07-2.50456E-19-1.38214E-18
 -1      3755 9.43313E-05-2.71904E-05-2.87783E-05-8.39864E-07-1.01878E-18-1.32256E-18
 -1      3756 9.39243E-05-2.67561E-05-2.87828E-05-9.00764E-07-9.97028E-19-1.21443E-18
 -1      3757 9.44933E-05-2.73683E-05-2.87675E-05-7.31810E-07-9.83785E-19-1.29616E-18
 -1      3758 9.46011E-05-2.75177E-05-2.87529E-05-6.16446E-07-4.24467E-19-1.91212E-18
 -1      3759 9.42937E-05-2.71658E-05-2.87663E-05-6.71192E-07-9.55580E-19-1.74633E-18
 -1      3760 9.47241E-05-2.76623E-05-2.87404E-05-5.32579E-07-5.13161E-20-2.16499E-18
 -1      3761 9.48050E-05-2.77829E-05-2.87259E-05-4.42893E-07 3.34230E-20-2.12859E-18
 -1      3762 9.45773E-05-2.75032E-05-2.87439E-05-4.91063E-07-3.04261E-19-1.71574E-18
 -1      3763 9.48966E-05-2.78981E-05-2.87133E-05-3.78762E-07-3.51999E-19-2.64937E-18
 -1      3764 9.49560E-05-2.79937E-05-2.86998E-05-3.10164E-07-4.05916E-19-2.75322E-18
 -1      3765 9.47910E-05-2.77754E-05-2.87194E-05-3.51658E-07-3.54740E-19-2.34433E-18
 -1      3766 9.50227E-05-2.80837E-05-2.86878E-05-2.61920E-07-1.04866E-18-2.53939E-18
 -1      3767 9.50652E-05-2.81579E-05-2.86758E-05-2.10357E-07-8.39551E-19-2.90515E-18
 -1      3768 9.49486E-05-2.79906E-05-2.86951E-05-2.45389E-07-7.13043E-19-3.62412E-18
 -1      3769 9.51125E-05-2.82269E-05-2.86650E-05-1.74713E-07-7.56351E-19-2.73401E-18
 -1      3770 9.51420E-05-2.82834E-05-2.86546E-05-1.36683E-07-1.54245E-18-2.87999E-18
 -1      3771 9.50622E-05-2.81576E-05-2.86725E-05-1.65714E-07-8.92778E-19-3.58978E-18
 -1      3772 9.51746E-05-2.83352E-05-2.86452E-05-1.10879E-07-1.87293E-18-2.55985E-18
 -1      3773 9.51944E-05-2.83774E-05-2.86365E-05-8.34185E-08-1.86341E-18-2.47299E-18
 -1      3774 9.51418E-05-2.82848E-05-2.86524E-05-1.07064E-07-1.15652E-18-3.53763E-18
 -1      3775 9.52160E-05-2.84156E-05-2.86285E-05-6.51745E-08-1.62172E-18-2.04396E-18
 -1      3776 9.52286E-05-2.84465E-05-2.86213E-05-4.58287E-08-6.60518E-19-2.41448E-18
 -1      3777 9.51959E-05-2.83797E-05-2.86351E-05-6.47810E-08-1.44419E-18-2.13983E-18
 -1      3778 9.52421E-05-2.84739E-05-2.86148E-05-3.32929E-08-8.84083E-19-2.95328E-18
 -1      3779 9.52495E-05-2.84959E-05-2.86090E-05-2.00653E-08-1.50022E-18-4.24581E-18
 -1      3780 9.52309E-05-2.84491E-05-2.86205E-05-3.50313E-08-1.17748E-18-2.32163E-18
 -1      3781 9.52573E-05-2.85151E-05-2.86037E-05-1.17601E-08-8.94520E-19-4.17365E-18
 -1      3782 9.52611E-05-2.85304E-05-2.85991E-05-3.05812E-09-3.94733E-19-2.86679E-18
 -1      3783 9.52522E-05-2.84986E-05-2.86085E-05-1.47129E-08-1.04288E-18-3.27190E-18
 -1      3784 9.52648E-05-2.85434E-05-2.85948E-05 2.17543E-09 1.50733E-19-1.44319E-18
 -1      3785 9.52662E-05-2.85536E-05-2.85912E-05 7.59862E-09 1.03456E-18-9.73532E-19
 -1      3786 9.52637E-05-2.85328E-05-2.85988E-05-1.35996E-09 1.02351E-18-1.39207E-18
 -1      3787 9.52672E-05-2.85620E-05-2.85879E-05 1.06525E-08 1.36710E-18-1.16130E-18
 -1      3788 9.52670E-05-2.85686E-05-2.85851E-05 1.37535E-08 1.07769E-18-1.13983E-18
 -1      3789 9.52686E-05-2.85558E-05-2.85912E-05 6.95328E-09 1.41883E-18-1.62373E-18
 -1      3790 9.52664E-05-2.85738E-05-2.85825E-05 1.53054E-08 1.20869E-18-4.08910E-19
 -1      3791 9.52652E-05-2.85777E-05-2.85804E-05 1.68014E-08 9.46306E-19 2.32965E-20
 -1      3792 9.52691E-05-2.85705E-05-2.85851E-05 1.17076E-08 1.57505E-18-3.85290E-19
 -1      3793 9.52636E-05-2.85807E-05-2.85783E-05 1.73420E-08-8.46709E-20-1.03527E-18
 -1      3794 9.52619E-05-2.85829E-05-2.85767E-05 1.77376E-08-3.51437E-19-1.40815E-18
 -1      3795 9.52669E-05-2.85794E-05-2.85804E-05 1.40010E-08-1.64443E-19 1.95267E-19
 -1      3796 8.85291E-05-2.48733E-05-2.73014E-05 1.10593E-05-7.82176E-19 2.00124E-19
 -1      3797 8.89987E-05-2.58763E-05-2.70034E-05 1.21515E-05-3.57732E-19-1.01853E-19
 -1      3798 9.14468E-05-3.51718E-05-2.39824E-05-2.16042E-05 1.48465E-18-8.50818E-19
 -1      3799 8.88088E-05-2.69555E-05-2.65191E-05 1.37696E-05-2.42329E-19-6.95766E-20
 -1      3800 9.01064E-05-2.88476E-05-2.61713E-05 1.50796E-05-4.92561E-19 3.86293E-20
 -1      3801 8.54933E-05-2.45658E-05-2.61045E-05 1.29273E-05-5.16821E-19 6.13767E-19
 -1      3802 8.98247E-05-2.38026E-05-2.83132E-05 7.32577E-06-1.94801E-20-1.60770E-19
 -1      3803 8.96343E-05-2.38979E-05-2.81570E-05 8.06901E-06-2.58087E-19-1.13026E-20
 -1      3804 9.07158E-05-2.40401E-05-2.85906E-05 5.98929E-06 3.43794E-19-4.99358E-19
 -1      3805 9.04410E-05-2.39383E-05-2.84922E-05 6.61895E-06 2.02983E-19-3.28756E-19
 -1      3806 8.87340E-05-2.30240E-05-2.81482E-05 6.46648E-06 7.86984E-20-6.88086E-19
 -1      3807 9.15728E-05-2.44956E-05-2.87603E-05 4.87578E-06-3.86168E-19-1.26614E-18
 -1      3808 9.12840E-05-2.42914E-05-2.87057E-05 5.41573E-06 6.23477E-20-8.20015E-19
 -1      3809 8.99198E-05-2.34817E-05-2.84611E-05 5.24782E-06 4.16608E-19-1.36621E-18
 -1      3810 9.23392E-05-2.50431E-05-2.88520E-05 3.93606E-06-6.47801E-19-1.07744E-18
 -1      3811 9.20714E-05-2.47962E-05-2.88286E-05 4.39996E-06-8.66892E-19-1.02362E-18
 -1      3812 9.09820E-05-2.40868E-05-2.86586E-05 4.25270E-06-7.91931E-19-1.27705E-18
 -1      3813 9.29937E-05-2.56052E-05-2.88898E-05 3.14174E-06 1.48491E-18-4.71958E-19
 -1      3814 9.27620E-05-2.53518E-05-2.88872E-05 3.53775E-06 4.42057E-19-4.12660E-19
 -1      3815 9.18971E-05-2.47392E-05-2.87729E-05 3.42334E-06-4.94119E-19-1.13954E-18
 -1      3816 9.35348E-05-2.61367E-05-2.88924E-05 2.47456E-06 1.76629E-19 2.46831E-19
 -1      3817 9.33430E-05-2.58976E-05-2.89027E-05 2.80871E-06 1.36550E-18 3.09281E-19
 -1      3818 9.26627E-05-2.53775E-05-2.88292E-05 2.72751E-06 6.70134E-19 7.72352E-19
 -1      3819 9.39709E-05-2.66140E-05-2.88733E-05 1.92045E-06-6.99788E-19 1.21072E-18
 -1      3820 9.38170E-05-2.63998E-05-2.88909E-05 2.19833E-06-3.53674E-19 6.10981E-19
 -1      3821 9.32885E-05-2.59660E-05-2.88467E-05 2.14559E-06-5.11631E-19 8.79199E-19
 -1      3822 9.43148E-05-2.70272E-05-2.88425E-05 1.46659E-06-2.37586E-19 1.51893E-18
 -1      3823 9.41946E-05-2.68422E-05-2.88633E-05 1.69404E-06-3.17548E-19 2.01214E-18
 -1      3824 9.37896E-05-2.64867E-05-2.88396E-05 1.66347E-06-9.02156E-19 7.52893E-19
 -1      3825 9.45809E-05-2.73749E-05-2.88065E-05 1.10050E-06-1.24706E-18 1.43574E-18
 -1      3826 9.44889E-05-2.72196E-05-2.88279E-05 1.28364E-06-6.71400E-19 2.31061E-18
 -1      3827 9.41836E-05-2.69332E-05-2.88181E-05 1.26916E-06-1.02980E-18 2.02766E-18
 -1      3828 9.47829E-05-2.76608E-05-2.87697E-05 8.09902E-07-1.23623E-18 2.11534E-18
 -1      3829 9.47140E-05-2.75334E-05-2.87902E-05 9.54925E-07-1.29255E-18 1.94222E-18
 -1      3830 9.44878E-05-2.73066E-05-2.87894E-05 9.51405E-07-1.31210E-18 3.09468E-18
 -1      3831 9.49335E-05-2.78911E-05-2.87348E-05 5.83006E-07-1.24054E-18 2.16594E-18
 -1      3832 9.48829E-05-2.77886E-05-2.87533E-05 6.95919E-07-7.82711E-19 2.02859E-18
 -1      3833 9.47187E-05-2.76121E-05-2.87580E-05 6.99353E-07-9.52331E-19 3.27133E-18
 -1      3834 9.50434E-05-2.80732E-05-2.87033E-05 4.08857E-07-1.38150E-18 1.21340E-18
 -1      3835 9.50071E-05-2.79923E-05-2.87195E-05 4.95256E-07-8.72370E-19 1.83949E-18
 -1      3836 9.48907E-05-2.78573E-05-2.87272E-05 5.02691E-07-9.22557E-19 2.62889E-18
 -1      3837 9.51218E-05-2.82146E-05-2.86759E-05 2.77575E-07-1.82587E-19-3.12402E-19
 -1      3838 9.50964E-05-2.81520E-05-2.86896E-05 3.42492E-07-1.31882E-18 6.85964E-19
 -1      3839 9.50162E-05-2.80505E-05-2.86986E-05 3.51861E-07-6.33035E-19 2.06518E-21
 -1      3840 9.51763E-05-2.83225E-05-2.86526E-05 1.80501E-07 1.74753E-19-6.15892E-19
 -1      3841 9.51591E-05-2.82748E-05-2.86640E-05 2.28331E-07-2.01236E-19-6.43123E-19
 -1      3842 9.51059E-05-2.82001E-05-2.86732E-05 2.38257E-07-1.76947E-19-7.95776E-19
 -1      3843 9.52129E-05-2.84033E-05-2.86334E-05 1.10242E-07-7.48479E-19 1.12248E-18
 -1      3844 9.52018E-05-2.83676E-05-2.86426E-05 1.44722E-07 4.96481E-20 5.85529E-19
 -1      3845 9.51681E-05-2.83138E-05-2.86514E-05 1.54345E-07-9.59345E-19 2.00541E-19
 -1      3846 9.52364E-05-2.84626E-05-2.86178E-05 6.06246E-08-1.32416E-18 1.07206E-18
 -1      3847 9.52296E-05-2.84365E-05-2.86252E-05 8.48619E-08-1.01847E-18 8.95777E-19
 -1      3848 9.52099E-05-2.83986E-05-2.86331E-05 9.36917E-08-6.83271E-19 2.09526E-18
 -1      3849 9.52504E-05-2.85051E-05-2.86055E-05 2.66073E-08 5.50205E-19-4.28711E-19
 -1      3850 9.52466E-05-2.84864E-05-2.86112E-05 4.31302E-08-7.40023E-19 2.76905E-20
 -1      3851 9.52366E-05-2.84606E-05-2.86181E-05 5.09291E-08-5.03499E-19-3.04635E-19
 -1      3852 9.52578E-05-2.85348E-05-2.85958E-05 4.15081E-09 5.38218E-19-1.56204E-19
 -1      3853 9.52561E-05-2.85218E-05-2.86002E-05 1.49766E-08 1.01878E-18 2.25995E-19
 -1      3854 9.52525E-05-2.85049E-05-2.86060E-05 2.16745E-08 6.75034E-19-7.87424E-19
 -1      3855 9.52607E-05-2.85549E-05-2.85883E-05-9.91695E-09 1.03579E-19 3.53223E-19
 -1      3856 9.52604E-05-2.85461E-05-2.85917E-05-3.21001E-09 2.66588E-19-1.73841E-19
 -1      3857 9.52609E-05-2.85357E-05-2.85965E-05 2.41958E-09 7.05791E-19 5.75414E-19
 -1      3858 9.52607E-05-2.85679E-05-2.85827E-05-1.80381E-08 5.94629E-19-1.02520E-19
 -1      3859 9.52612E-05-2.85622E-05-2.85852E-05-1.42396E-08-3.85414E-20 3.66491E-19
 -1      3860 9.52641E-05-2.85563E-05-2.85891E-05-9.58759E-09 2.91894E-20-2.87884E-19
 -1      3861 9.52589E-05-2.85759E-05-2.85784E-05-2.20573E-08-5.26065E-19-2.68893E-19
 -1      3862 9.52599E-05-2.85724E-05-2.85803E-05-2.02597E-08 1.32061E-19-4.85245E-19
 -1      3863 9.52640E-05-2.85696E-05-2.85833E-05-1.64654E-08 1.08372E-19 3.55072E-19
 -1      3864 9.52561E-05-2.85806E-05-2.85753E-05-2.33462E-08-2.35975E-19-1.08966E-18
 -1      3865 9.52574E-05-2.85785E-05-2.85766E-05-2.28825E-08-2.25589E-19-8.74608E-19
 -1      3866 9.52618E-05-2.85776E-05-2.85790E-05-1.98104E-08-2.41896E-19-6.03947E-19
 -1      3867 9.52531E-05-2.85830E-05-2.85729E-05-2.27496E-08 2.79001E-19-5.07227E-19
 -1      3868 9.52544E-05-2.85819E-05-2.85739E-05-2.31436E-08-2.45165E-19-1.32703E-18
 -1      3869 9.52588E-05-2.85823E-05-2.85757E-05-2.08647E-08-4.38604E-19-1.19493E-18
 -1      3870 1.00484E-04-3.28710E-05-2.89113E-05-1.18137E-05 8.14938E-20-2.62888E-19
 -1      3871 8.88796E-05-2.96633E-05-2.53775E-05-1.91352E-05-4.84581E-19-1.39047E-18
 -1      3872 6.56410E-05-8.80390E-06-2.43130E-05 3.02335E-06 8.36063E-19-2.00410E-18
 -1      3873 6.79219E-05-8.60361E-06-2.54857E-05 4.57204E-06 9.63780E-19-1.88721E-18
 -1      3874 8.95842E-05-2.51105E-05-2.75831E-05 1.29633E-05 6.15421E-19-1.36312E-18
 -1      3875 9.21096E-05-2.87311E-05-2.70936E-05 1.50062E-05 6.31724E-19-1.19180E-18
 -1      3876 9.52585E-05-2.85853E-05-2.85743E-05 1.74362E-08-3.86241E-19-2.59404E-19
 -1      3877 9.52607E-05-2.85867E-05-2.85746E-05 1.32594E-08 2.28194E-19 2.93403E-19
 -1      3878 9.52634E-05-2.85859E-05-2.85760E-05 1.14357E-08 3.11594E-19-4.40229E-19
 -1      3879 9.52603E-05-2.85840E-05-2.85755E-05 1.77237E-08-3.96506E-19-1.32934E-18
 -1      3880 9.52515E-05-2.85849E-05-2.85714E-05-2.00188E-08 6.09011E-19-3.32954E-20
 -1      3881 8.30368E-05-1.83483E-05-2.76297E-05-1.05588E-05 4.98888E-19-1.58703E-18
 -1      3882 7.81429E-05-1.54053E-05-2.69701E-05-9.88540E-06 5.42121E-19-1.79099E-18
 -1      3883 7.58098E-05-1.53971E-05-2.58126E-05-1.10203E-05 3.49524E-19-1.86625E-18
 -1      3884 9.52628E-05-2.85880E-05-2.85749E-05-6.00474E-09-6.57245E-19 4.45273E-20
 -1      3885 9.52616E-05-2.85875E-05-2.85746E-05-9.71334E-09-5.46362E-19 1.81462E-18
 -1      3886 7.51090E-05-2.38179E-05-2.19322E-05-1.84258E-05 1.58547E-18-3.03701E-19
 -1      3887 8.40701E-05-3.04926E-05-2.30127E-05-2.16232E-05 1.68550E-18-8.34129E-19
 -1      3888 7.22192E-05-1.65376E-05-2.38129E-05-1.43092E-05-1.28254E-20-1.96535E-18
 -1      3889 8.09629E-05-2.30661E-05-2.48421E-05-1.80050E-05-1.55707E-19-1.73687E-18
 -1      3890 8.91734E-05-2.44350E-05-2.77849E-05-1.23651E-05 2.43098E-19-1.01293E-18
 -1      3891 9.28150E-05-3.12405E-05-2.63938E-05 1.73967E-05 6.23486E-19-9.37996E-19
 -1      3892 9.47401E-05-3.46545E-05-2.56309E-05 2.00890E-05 8.68070E-19-8.55702E-19
 -1      3893 8.79914E-05-3.15163E-05-2.40796E-05 2.32265E-05 1.04459E-18-9.98308E-19
 -1      3894 8.62138E-05-2.62142E-05-2.56979E-05 1.77382E-05 8.75670E-19-1.29399E-18
 -1      3895 9.05577E-05-3.08239E-05-2.55760E-05 1.71510E-05-9.57849E-19-3.15429E-19
 -1      3896 9.34730E-05-3.40423E-05-2.53354E-05 1.84945E-05-1.16484E-18-6.30226E-19
 -1      3897 8.56673E-05-2.75999E-05-2.49476E-05 1.69927E-05-8.61313E-19 1.88084E-20
 -1      3898 9.52633E-05-2.85882E-05-2.85750E-05 1.97022E-09-5.52629E-19-2.67297E-18
 -1      3899 9.52633E-05-2.85882E-05-2.85750E-05-1.88005E-09-8.64765E-19-9.44257E-19
 -1      3900 9.52651E-05-2.85870E-05-2.85763E-05 4.07526E-09 2.28777E-19-2.26471E-18
 -1      3901 8.90197E-05-2.39807E-05-2.78944E-05 8.96922E-06-6.28086E-19 3.39097E-19
 -1      3902 8.90441E-05-2.44176E-05-2.76683E-05 9.86299E-06-7.70599E-19-4.49736E-20
 -1      3903 8.74881E-05-2.28706E-05-2.76809E-05 8.01217E-06-3.57802E-19-3.43968E-19
 -1      3904 8.44370E-05-3.20291E-05-2.24530E-05 2.37723E-05-8.33202E-19 4.92669E-19
 -1      3905 8.83453E-05-3.14627E-05-2.42724E-05-1.91968E-05 1.07058E-18-7.32366E-19
 -1      3906 9.52524E-05-2.85842E-05-2.85721E-05-2.09927E-08 8.48478E-19 5.03888E-19
 -1      3907 6.49661E-05-1.54443E-05-2.11890E-05 2.16513E-06 5.53232E-19 8.28147E-19
 -1      3908 6.39490E-05-1.47444E-05-2.08647E-05-1.32639E-06 7.51470E-19 7.60596E-19
 -1      3909 6.73758E-05-1.63255E-05-2.19052E-05-5.27982E-06 7.38348E-19 6.01771E-19
 -1      3910 8.64221E-05-2.86637E-05-2.47368E-05-1.71365E-05 9.21761E-19-5.93962E-19
 -1      3911 5.93563E-05-9.21435E-06-2.13449E-05 1.59603E-06 6.56444E-19-2.49687E-18
 -1      3912 9.52628E-05-2.85863E-05-2.85756E-05-1.12625E-08-5.63380E-20 1.16159E-18
 -1      3913 9.52602E-05-2.85870E-05-2.85742E-05-1.29076E-08 3.62569E-19 2.94258E-18
 -1      3914 9.52584E-05-2.85863E-05-2.85738E-05-1.56512E-08 8.95140E-19 2.03626E-18
 -1      3915 8.19820E-05-2.52837E-05-2.42837E-05-1.58587E-05 8.18514E-19-7.17298E-19
 -1      3916 8.63120E-05-2.32565E-05-2.70147E-05 1.00593E-05-7.45530E-19 9.00345E-21
 -1      3917 8.12466E-05-2.57466E-05-2.38159E-05 2.10110E-05 9.71295E-19-1.18829E-18
 -1      3918 9.52638E-05-2.85839E-05-2.85771E-05 1.47417E-08-1.62670E-19-3.05065E-19
 -1      3919 7.02000E-05-9.65338E-06-2.58981E-05 6.49093E-06 8.88163E-19-1.94369E-18
 -1      3920 7.23434E-05-2.05896E-05-2.20780E-05-1.47483E-05 1.18062E-18-2.11348E-19
 -1      3921 7.84203E-05-2.34486E-05-2.34782E-05-1.52060E-05 1.15365E-18-4.44428E-19
 -1      3922 7.88755E-05-2.22878E-05-2.43192E-05-1.27828E-05 6.20194E-19-1.01022E-19
 -1      3923 7.17040E-05-1.87513E-05-2.27394E-05-1.03859E-05 1.11934E-18 6.75046E-20
 -1      3924 7.30370E-05-1.10803E-05-2.66254E-05 7.82859E-06 9.02801E-19-1.82633E-18
 -1      3925 7.63409E-05-1.28915E-05-2.71672E-05 8.61694E-06 8.35215E-19-1.79546E-18
 -1      3926 7.71987E-05-1.44991E-05-2.68383E-05 9.98708E-06 8.22284E-19-1.60628E-18
 -1      3927 7.05410E-05-1.14309E-05-2.53178E-05 8.71298E-06 9.37960E-19-1.85415E-18
 -1      3928 6.25974E-05-8.94246E-06-2.30777E-05 3.15506E-06 8.65592E-19-2.14567E-18
 -1      3929 6.46891E-05-9.91340E-06-2.32958E-05 7.61209E-06 9.86239E-19-1.97507E-18
 -1      3930 9.68572E-05-3.06608E-05-2.83449E-05-1.31036E-05 4.32591E-20-5.54937E-19
 -1      3931 6.56073E-05-1.86069E-05-1.98937E-05 1.48202E-05-1.21830E-19 2.35840E-18
 -1      3932 6.65182E-05-1.72617E-05-2.10908E-05 1.03029E-05 5.41952E-19 1.66371E-18
 -1      3933 7.02553E-05-2.16134E-05-2.08904E-05 1.75577E-05-5.54204E-19 2.11258E-18
 -1      3934 6.68840E-05-1.31555E-05-2.29963E-05-1.21414E-05 6.88512E-20-2.13509E-18
 -1      3935 9.52651E-05-2.85870E-05-2.85763E-05-4.00832E-09-1.34768E-18-8.26901E-19
 -1      3936 6.43959E-05-1.07254E-05-2.30498E-05-7.67474E-06 2.05642E-19-2.31639E-18
 -1      3937 8.83427E-05-2.52727E-05-2.69765E-05-1.43470E-05-2.23041E-20-1.23423E-18
 -1      3938 8.62203E-05-2.08005E-05-2.79862E-05 1.08103E-05 5.91490E-19-1.65681E-18
 -1      3939 8.80377E-05-2.29937E-05-2.78368E-05 1.17330E-05 6.10952E-19-1.51481E-18
 -1      3940 8.39814E-05-2.17633E-05-2.67332E-05 1.39304E-05 8.72967E-19-1.35090E-18
 -1      3941 8.13818E-05-1.78398E-05-2.72875E-05 1.12076E-05 7.42046E-19-1.51995E-18
 -1      3942 6.18494E-05-8.80410E-06-2.26080E-05-3.47417E-06 4.29659E-19-2.38195E-18
 -1      3943 6.62794E-05-1.49641E-05-2.17397E-05 1.59886E-05 1.22167E-18-1.87368E-18
 -1      3944 6.52646E-05-1.23413E-05-2.26573E-05 1.14159E-05 1.01643E-18-1.97204E-18
 -1      3945 6.79157E-05-1.21994E-05-2.39168E-05 1.05005E-05 1.06424E-18-1.93478E-18
 -1      3946 7.22438E-05-1.85537E-05-2.29862E-05 1.76975E-05 1.18501E-18-1.61197E-18
 -1      3947 8.06381E-05-2.19379E-05-2.51217E-05-1.08904E-05 6.97433E-19-1.03148E-19
 -1      3948 8.13324E-05-2.14810E-05-2.57064E-05-9.28915E-06 7.68531E-19-2.77027E-20
 -1      3949 7.74360E-05-2.03576E-05-2.44010E-05-1.02787E-05 8.77495E-19 7.81082E-20
 -1      3950 7.93466E-05-2.70994E-05-2.23281E-05 2.06823E-05-1.00762E-18 8.01412E-19
 -1      3951 8.28026E-05-2.14560E-05-2.62743E-05-8.02606E-06 4.58826E-19-9.13611E-20
 -1      3952 8.35769E-05-2.13603E-05-2.67045E-05-6.92727E-06 3.07895E-19 1.08850E-19
 -1      3953 8.05764E-05-2.03029E-05-2.57925E-05-7.35035E-06 5.73962E-19-4.02440E-19
 -1      3954 8.48034E-05-2.15298E-05-2.71090E-05-6.06058E-06 3.29920E-19 2.36713E-19
 -1      3955 8.55714E-05-2.16572E-05-2.74199E-05-5.27969E-06 6.37603E-20-4.49087E-20
 -1      3956 8.32062E-05-2.06621E-05-2.67767E-05-5.41661E-06 2.26584E-19-3.64869E-20
 -1      3957 8.66036E-05-2.19514E-05-2.77046E-05-4.66606E-06-1.33370E-19 1.81598E-19
 -1      3958 8.73202E-05-2.22115E-05-2.79235E-05-4.09126E-06-4.42334E-19 5.89356E-19
 -1      3959 8.54188E-05-2.12681E-05-2.74723E-05-4.08275E-06 1.71446E-20 1.80434E-19
 -1      3960 8.81906E-05-2.25750E-05-2.81200E-05-3.63991E-06-5.70242E-19 8.78324E-19
 -1      3961 8.88342E-05-2.29062E-05-2.82692E-05-3.20081E-06 1.28973E-19 1.46339E-18
 -1      3962 8.72863E-05-2.20152E-05-2.79572E-05-3.13376E-06-1.72448E-19 8.73324E-19
 -1      3963 8.95677E-05-2.32997E-05-2.84008E-05-2.85727E-06-7.72401E-20 7.40610E-19
 -1      3964 9.01302E-05-2.36595E-05-2.84981E-05-2.51159E-06 2.89488E-19 7.47890E-19
 -1      3965 8.88637E-05-2.28290E-05-2.82880E-05-2.42972E-06-2.92004E-19 1.02531E-18
 -1      3966 9.07442E-05-2.40537E-05-2.85825E-05-2.24394E-06 4.47752E-19 3.71606E-19
 -1      3967 9.12245E-05-2.44123E-05-2.86419E-05-1.96644E-06-1.96734E-19-1.70482E-19
 -1      3968 9.01909E-05-2.36537E-05-2.85058E-05-1.89066E-06-1.52687E-21-4.84538E-19
 -1      3969 9.17329E-05-2.47866E-05-2.86924E-05-1.75504E-06-7.30530E-19-2.20137E-19
 -1      3970 9.21344E-05-2.51243E-05-2.87249E-05-1.53015E-06-8.63625E-19-6.45027E-19
 -1      3971 9.12974E-05-2.44470E-05-2.86420E-05-1.46904E-06-6.36120E-19-5.49294E-19
 -1      3972 9.25498E-05-2.54653E-05-2.87516E-05-1.36221E-06-1.10975E-18-8.55511E-19
 -1      3973 9.28788E-05-2.57705E-05-2.87657E-05-1.17970E-06-9.74396E-19-7.29550E-19
 -1      3974 9.22083E-05-2.51794E-05-2.87201E-05-1.13523E-06-1.12329E-18-9.68298E-19
 -1      3975 9.32132E-05-2.60710E-05-2.87762E-05-1.04638E-06-4.61166E-19-1.31071E-18
 -1      3976 9.34777E-05-2.63378E-05-2.87781E-05-8.98914E-07-5.23817E-19-1.22322E-18
 -1      3977 9.29475E-05-2.58331E-05-2.87581E-05-8.69755E-07-6.63528E-19-1.13068E-18
 -1      3978 9.37427E-05-2.65955E-05-2.87782E-05-7.93612E-07-1.07931E-18-8.63518E-19
 -1      3979 9.39513E-05-2.68223E-05-2.87726E-05-6.75461E-07-8.55056E-19-1.19355E-18
 -1      3980 9.35382E-05-2.64002E-05-2.87693E-05-6.58922E-07-9.03531E-19-1.89528E-18
 -1      3981 9.41578E-05-2.70380E-05-2.87663E-05-5.93002E-07-8.53615E-19-8.83808E-19
 -1      3982 9.43194E-05-2.72265E-05-2.87565E-05-4.99372E-07-8.71321E-19-6.59581E-19
 -1      3983 9.40027E-05-2.68803E-05-2.87635E-05-4.92443E-07-5.71655E-19-5.75202E-19
 -1      3984 9.44776E-05-2.74031E-05-2.87467E-05-4.35505E-07-5.60368E-19-1.59919E-18
 -1      3985 9.46003E-05-2.75564E-05-2.87349E-05-3.62252E-07-5.62690E-19-2.04366E-18
 -1      3986 9.43617E-05-2.72776E-05-2.87478E-05-3.62144E-07-8.58083E-19-1.60319E-18
 -1      3987 9.47192E-05-2.76982E-05-2.87237E-05-3.13421E-07-8.15960E-19-2.15793E-18
 -1      3988 9.48106E-05-2.78204E-05-2.87115E-05-2.56920E-07-8.19049E-19-2.23903E-18
 -1      3989 9.46343E-05-2.76000E-05-2.87271E-05-2.61290E-07-7.00336E-19-2.04595E-18
 -1      3990 9.48983E-05-2.79322E-05-2.87001E-05-2.20129E-07-7.66680E-19-2.81526E-18
 -1      3991 9.49649E-05-2.80277E-05-2.86884E-05-1.77220E-07-1.40456E-18-3.46480E-18
 -1      3992 9.48373E-05-2.78566E-05-2.87046E-05-1.84235E-07-1.11844E-18-2.72390E-18
 -1      3993 9.50280E-05-2.81142E-05-2.86776E-05-1.49956E-07-1.04704E-18-3.43143E-18
 -1      3994 9.50753E-05-2.81876E-05-2.86669E-05-1.17919E-07-4.39369E-19-3.22037E-18
 -1      3995 9.49853E-05-2.80570E-05-2.86825E-05-1.26224E-07-8.06948E-19-2.99648E-18
 -1      3996 9.51196E-05-2.82532E-05-2.86572E-05-9.80924E-08-8.10862E-19-2.97206E-18
 -1      3997 9.51522E-05-2.83084E-05-2.86478E-05-7.46205E-08-9.10850E-19-2.69200E-18
 -1      3998 9.50907E-05-2.82107E-05-2.86621E-05-8.32673E-08-5.36938E-19-2.11362E-18
 -1      3999 9.51822E-05-2.83572E-05-2.86394E-05-6.05159E-08-1.04600E-18-2.16263E-18
 -1      4000 9.52038E-05-2.83980E-05-2.86314E-05-4.36853E-08-1.86105E-18-1.90156E-18
 -1      4001 9.51634E-05-2.83264E-05-2.86439E-05-5.20540E-08-8.23501E-19-2.17672E-18
 -1      4002 9.52233E-05-2.84335E-05-2.86242E-05-3.39129E-08-1.61327E-18-1.93032E-18
 -1      4003 9.52368E-05-2.84630E-05-2.86176E-05-2.21475E-08-9.92483E-19-1.96582E-18
 -1      4004 9.52118E-05-2.84117E-05-2.86283E-05-2.98674E-08-1.40440E-18-2.03470E-18
 -1      4005 9.52487E-05-2.84882E-05-2.86117E-05-1.55984E-08-5.28503E-19-2.07964E-18
 -1      4006 9.52565E-05-2.85088E-05-2.86063E-05-7.62839E-09-1.82276E-20-1.37132E-18
 -1      4007 9.52424E-05-2.84731E-05-2.86152E-05-1.45098E-08-5.69303E-19-1.78953E-18
 -1      4008 9.52629E-05-2.85262E-05-2.86014E-05-3.43149E-09 1.22495E-18-9.71938E-19
 -1      4009 9.52667E-05-2.85403E-05-2.85971E-05 1.74776E-09 2.08709E-18-5.08497E-19
 -1      4010 9.52601E-05-2.85162E-05-2.86044E-05-4.22990E-09 1.15781E-18-1.35642E-18
 -1      4011 9.52695E-05-2.85519E-05-2.85933E-05 4.26551E-09 1.72783E-18-1.16119E-18
 -1      4012 9.52706E-05-2.85611E-05-2.85898E-05 7.43615E-09 1.29584E-18-9.11632E-19
 -1      4013 9.52689E-05-2.85455E-05-2.85957E-05 2.34589E-09 1.71244E-18-1.65427E-18
 -1      4014 9.52709E-05-2.85684E-05-2.85868E-05 8.77262E-09 1.46686E-18-9.02800E-19
 -1      4015 9.52703E-05-2.85741E-05-2.85841E-05 1.05483E-08 1.15560E-18-1.14085E-18
 -1      4016 9.52717E-05-2.85647E-05-2.85887E-05 6.26866E-09 1.25075E-18-1.39162E-18
 -1      4017 9.52691E-05-2.85785E-05-2.85817E-05 1.10935E-08-7.12341E-20-3.56790E-19
 -1      4018 9.52675E-05-2.85818E-05-2.85796E-05 1.18430E-08-7.54174E-19-1.34337E-19
 -1      4019 9.52707E-05-2.85765E-05-2.85832E-05 8.37553E-09 3.69972E-19-9.04844E-19
 -1      4020 8.22605E-05-2.21190E-05-2.58349E-05 1.07246E-05-8.39390E-20-4.91329E-20
 -1      4021 8.20353E-05-2.29118E-05-2.53198E-05 1.23338E-05-1.99771E-19 2.15127E-19
 -1      4022 8.92524E-05-2.30681E-05-2.83816E-05 4.26520E-06 2.24181E-19-1.22396E-18
 -1      4023 8.86774E-05-2.27572E-05-2.82504E-05 4.76654E-06 5.80037E-19-8.85830E-19
 -1      4024 8.77939E-05-2.23941E-05-2.80508E-05 5.26813E-06 5.54325E-19-5.51995E-19
 -1      4025 8.71654E-05-2.21714E-05-2.78503E-05 5.89137E-06 2.59571E-19-2.87271E-19
 -1      4026 8.72917E-05-2.19476E-05-2.79828E-05 4.21180E-06 8.70560E-19-4.61074E-19
 -1      4027 9.15394E-05-2.45529E-05-2.87191E-05 2.77203E-06-6.54853E-19-3.41585E-19
 -1      4028 9.11141E-05-2.42080E-05-2.86745E-05 3.12253E-06-8.61093E-19-8.98854E-19
 -1      4029 9.23977E-05-2.52513E-05-2.87857E-05 2.20426E-06-1.66095E-19 9.05401E-19
 -1      4030 9.20467E-05-2.49276E-05-2.87657E-05 2.49992E-06-3.54686E-19 4.72460E-20
 -1      4031 9.13579E-05-2.44134E-05-2.86793E-05 2.21296E-06-9.05705E-19-1.33705E-18
 -1      4032 9.30926E-05-2.58809E-05-2.88120E-05 1.73017E-06-1.21358E-18 1.18570E-18
 -1      4033 9.28090E-05-2.55901E-05-2.88083E-05 1.97785E-06-2.41051E-19 1.41805E-18
 -1      4034 9.22665E-05-2.51548E-05-2.87533E-05 1.75990E-06-5.00011E-19 7.67671E-19
 -1      4035 9.36462E-05-2.64302E-05-2.88125E-05 1.33805E-06-1.19982E-18 1.13162E-18
 -1      4036 9.34214E-05-2.61775E-05-2.88188E-05 1.54309E-06-8.39748E-19 1.08686E-18
 -1      4037 9.29985E-05-2.58144E-05-2.87862E-05 1.38139E-06-9.74351E-19 1.54696E-18
 -1      4038 9.40801E-05-2.68969E-05-2.87974E-05 1.01794E-06-1.64373E-18 2.04961E-18
 -1      4039 9.39051E-05-2.66829E-05-2.88093E-05 1.18525E-06-1.88671E-18 1.15009E-18
 -1      4040 9.35797E-05-2.63850E-05-2.87923E-05 1.06810E-06-1.71596E-18 9.38195E-19
 -1      4041 9.44147E-05-2.72844E-05-2.87737E-05 7.60516E-07-1.69542E-18 2.52737E-18
 -1      4042 9.42809E-05-2.71073E-05-2.87883E-05 8.94903E-07-1.54019E-18 2.18455E-18
 -1      4043 9.40343E-05-2.68669E-05-2.87819E-05 8.12187E-07-1.92931E-18 1.19624E-18
 -1      4044 9.46685E-05-2.75997E-05-2.87465E-05 5.56796E-07-7.48134E-19 2.54386E-18
 -1      4045 9.45679E-05-2.74561E-05-2.87618E-05 6.62980E-07-9.72628E-19 2.46899E-18
 -1      4046 9.43842E-05-2.72653E-05-2.87621E-05 6.06308E-07-1.19358E-18 2.09021E-18
 -1      4047 9.48574E-05-2.78516E-05-2.87189E-05 3.98263E-07-3.33308E-19 1.51675E-18
 -1      4048 9.47833E-05-2.77373E-05-2.87336E-05 4.80752E-07-9.12719E-20 2.11696E-18
 -1      4049 9.46491E-05-2.75884E-05-2.87380E-05 4.43369E-07 7.59158E-20 1.45079E-18
 -1      4050 9.49953E-05-2.80492E-05-2.86928E-05 2.77038E-07-1.95235E-19-4.55895E-20
 -1      4051 9.49419E-05-2.79598E-05-2.87062E-05 3.40002E-07-4.63955E-19 1.09802E-18
 -1      4052 9.48460E-05-2.78456E-05-2.87128E-05 3.16601E-07-2.28156E-20 6.42016E-19
 -1      4053 9.50937E-05-2.82015E-05-2.86693E-05 1.86044E-07-1.31777E-18 1.11302E-18
 -1      4054 9.50561E-05-2.81328E-05-2.86810E-05 2.33219E-07-9.68762E-19 4.79283E-19
 -1      4055 9.49895E-05-2.80469E-05-2.86885E-05 2.19718E-07-1.01440E-18 1.09539E-18
 -1      4056 9.51620E-05-2.83168E-05-2.86489E-05 1.19097E-07-1.17579E-18 1.51299E-18
 -1      4057 9.51364E-05-2.82650E-05-2.86588E-05 1.53740E-07-1.30372E-18 1.12038E-18
 -1      4058 9.50917E-05-2.82015E-05-2.86664E-05 1.47056E-07-1.70286E-18 2.02059E-18
 -1      4059 9.52078E-05-2.84023E-05-2.86315E-05 7.09326E-08-1.04534E-19 7.78430E-19
 -1      4060 9.51910E-05-2.83640E-05-2.86399E-05 9.58063E-08-2.01849E-19 1.68671E-18
 -1      4061 9.51623E-05-2.83182E-05-2.86469E-05 9.36615E-08-6.84399E-19 3.46842E-19
 -1      4062 9.52371E-05-2.84646E-05-2.86172E-05 3.71700E-08 2.65061E-19-4.24666E-19
 -1      4063 9.52267E-05-2.84368E-05-2.86240E-05 5.45671E-08 1.41832E-19 7.96154E-19
 -1      4064 9.52095E-05-2.84045E-05-2.86304E-05 5.53076E-08 6.30315E-19 6.53646E-19
 -1      4065 9.52545E-05-2.85087E-05-2.86056E-05 1.42417E-08 1.87903E-19-4.13294E-20
 -1      4066 9.52486E-05-2.84891E-05-2.86110E-05 2.60241E-08-4.28747E-20-4.43842E-19
 -1      4067 9.52395E-05-2.84670E-05-2.86165E-05 2.84780E-08 3.61063E-19 5.28059E-19
 -1      4068 9.52635E-05-2.85391E-05-2.85964E-05-6.98489E-10 5.10655E-19 4.19009E-19
 -1      4069 9.52608E-05-2.85257E-05-2.86006E-05 6.95079E-09 5.69584E-19 1.87360E-19
 -1      4070 9.52571E-05-2.85112E-05-2.86053E-05 1.03089E-08-6.95483E-20-4.16817E-19
 -1      4071 9.52670E-05-2.85593E-05-2.85891E-05-9.87538E-09-2.96443E-19 1.02175E-18
 -1      4072 9.52663E-05-2.85505E-05-2.85924E-05-5.20404E-09 5.90364E-20 1.24157E-18
 -1      4073 9.52661E-05-2.85414E-05-2.85962E-05-1.48348E-09-3.14387E-19 1.12393E-18
 -1      4074 9.52667E-05-2.85721E-05-2.85835E-05-1.49826E-08 4.53723E-21 8.73142E-19
 -1      4075 9.52674E-05-2.85666E-05-2.85860E-05-1.24119E-08 1.15365E-20 7.17052E-19
 -1      4076 9.52692E-05-2.85614E-05-2.85891E-05-8.68030E-09 1.46981E-19 2.39573E-18
 -1      4077 9.52644E-05-2.85798E-05-2.85791E-05-1.72435E-08-4.02099E-19 1.31162E-18
 -1      4078 9.52657E-05-2.85765E-05-2.85810E-05-1.61955E-08 1.82032E-19 1.09839E-18
 -1      4079 9.52687E-05-2.85739E-05-2.85835E-05-1.26633E-08-1.30287E-19 2.03059E-18
 -1      4080 9.52563E-05-2.85853E-05-2.85733E-05-1.90668E-08 7.03117E-19 3.92857E-19
 -1      4081 8.20449E-05-2.38617E-05-2.48722E-05 1.80655E-05 1.02268E-18-1.19477E-18
 -1      4082 7.69453E-05-2.09826E-05-2.38266E-05 1.85534E-05 1.08593E-18-1.35544E-18
 -1      4083 7.32393E-05-1.70149E-05-2.41141E-05 1.51585E-05 1.08214E-18-1.65889E-18
 -1      4084 8.15722E-05-2.16638E-05-2.56776E-05 1.56477E-05 1.00013E-18-1.32496E-18
 -1      4085 8.42568E-05-2.17273E-05-2.68424E-05 8.28603E-06-7.04520E-19-3.06503E-19
 -1      4086 8.36831E-05-2.19612E-05-2.64329E-05 9.39828E-06-3.80609E-19 1.08759E-19
 -1      4087 8.05317E-05-2.04814E-05-2.56888E-05 8.74089E-06-2.77445E-19 2.56697E-19
 -1      4088 9.52663E-05-2.85834E-05-2.85784E-05 1.15669E-08-3.11355E-19-3.61563E-20
 -1      4089 9.52648E-05-2.85849E-05-2.85771E-05 1.17946E-08 8.70505E-19 1.27190E-19
 -1      4090 9.52657E-05-2.85856E-05-2.85772E-05 8.48217E-09 5.38211E-19-1.35574E-18
 -1      4091 9.52682E-05-2.85826E-05-2.85796E-05 8.85928E-09 2.97403E-19-2.76282E-19
 -1      4092 9.52675E-05-2.85856E-05-2.85780E-05-2.00902E-09-6.97500E-19-9.24805E-19
 -1      4093 9.52669E-05-2.85855E-05-2.85778E-05-5.90056E-09-2.89108E-19 1.04835E-19
 -1      4094 9.04969E-05-2.38107E-05-2.85931E-05 3.44990E-06-1.12337E-18-8.62787E-19
 -1      4095 8.99944E-05-2.34655E-05-2.85125E-05 3.86604E-06-8.08503E-19-8.22010E-19
 -1      4096 9.02455E-05-2.36080E-05-2.85450E-05 2.75396E-06-8.10644E-19-9.45966E-19
 -1      4097 9.52668E-05-2.85857E-05-2.85776E-05 5.25045E-09 5.12195E-19-1.89616E-18
 -1      4098 9.52673E-05-2.85859E-05-2.85778E-05 1.31353E-09-7.35894E-19-1.04294E-18
 -1      4099 9.52692E-05-2.85839E-05-2.85794E-05-7.32877E-10 1.11352E-19-8.60075E-19
 -1      4100 9.52681E-05-2.85843E-05-2.85788E-05 5.58036E-09 5.04884E-19-1.65958E-18
 -1      4101 8.61205E-05-2.18931E-05-2.75565E-05 6.55237E-06-7.61459E-20-4.97985E-19
 -1      4102 8.54841E-05-2.18417E-05-2.72645E-05 7.36405E-06-3.03483E-19-4.70233E-19
 -1      4103 8.31174E-05-2.06592E-05-2.67376E-05 6.68374E-06-2.68705E-19 7.58591E-20
 -1      4104 7.77498E-05-2.40714E-05-2.29065E-05 1.68880E-05-9.80110E-19 6.67352E-19
 -1      4105 9.52594E-05-2.85849E-05-2.85747E-05-1.75608E-08 3.22221E-19 1.07124E-18
 -1      4106 6.76625E-05-1.61500E-05-2.18890E-05 6.32673E-06 6.13720E-19 1.11638E-18
 -1      4107 6.87674E-05-1.61628E-05-2.25312E-05 1.90756E-06 6.53410E-19 7.84260E-19
 -1      4108 9.52659E-05-2.85854E-05-2.85774E-05-9.42232E-09-4.16932E-19 1.23181E-19
 -1      4109 9.52642E-05-2.85849E-05-2.85769E-05-1.26234E-08 3.15636E-19 1.15518E-18
 -1      4110 9.52683E-05-2.85836E-05-2.85791E-05-7.29186E-09-1.97288E-19-2.45026E-20
 -1      4111 8.89007E-05-2.27700E-05-2.83243E-05 3.40586E-06-6.83466E-19-4.84001E-19
 -1      4112 8.53809E-05-2.12106E-05-2.74745E-05 5.25455E-06-1.04975E-19-5.48853E-19
 -1      4113 7.00548E-05-1.77801E-05-2.24314E-05 9.06148E-06 5.51279E-19 1.78700E-18
 -1      4114 9.52642E-05-2.85820E-05-2.85780E-05-1.56442E-08-2.81286E-19 7.17454E-19
 -1      4115 9.52676E-05-2.85813E-05-2.85799E-05-1.23453E-08 4.87453E-20 1.30032E-18
 -1      4116 9.52624E-05-2.85840E-05-2.85765E-05-1.58976E-08-1.59345E-19 1.24948E-18
 -1      4117 8.02779E-05-1.95450E-05-2.59775E-05 1.41267E-05 8.95421E-19-1.36395E-18
 -1      4118 7.14389E-05-1.73998E-05-2.30712E-05-6.95686E-06 8.88147E-19 7.91754E-19
 -1      4119 7.47070E-05-1.90820E-05-2.38333E-05-8.78152E-06 1.11812E-18-7.77881E-20
 -1      4120 7.64643E-05-1.90396E-05-2.46706E-05-7.19170E-06 6.55663E-19 1.53051E-19
 -1      4121 7.17985E-05-1.37612E-05-2.47608E-05 1.18364E-05 9.99321E-19-1.85582E-18
 -1      4122 7.80925E-05-1.62283E-05-2.65029E-05 1.13633E-05 8.39975E-19-1.58019E-18
 -1      4123 7.77634E-05-2.24295E-05-2.37183E-05 1.44184E-05-5.40768E-19 7.18803E-19
 -1      4124 7.48470E-05-1.98388E-05-2.35065E-05 1.16228E-05-1.87750E-19 8.43340E-19
 -1      4125 7.05539E-05-1.67438E-05-2.30992E-05-4.04504E-06 7.08499E-19 3.44448E-19
 -1      4126 8.69972E-05-2.17608E-05-2.79810E-05 2.97530E-06 3.67076E-19-5.16941E-19
 -1      4127 8.61079E-05-2.13331E-05-2.77685E-05 3.34466E-06 5.49781E-19-8.79465E-19
 -1      4128 7.87214E-05-1.94189E-05-2.54172E-05-6.13778E-06 2.22726E-19 4.10897E-19
 -1      4129 8.01670E-05-1.96243E-05-2.60032E-05-5.15334E-06 2.40624E-19 1.69115E-19
 -1      4130 7.65987E-05-1.82546E-05-2.49258E-05-4.71857E-06 5.28530E-19 6.85016E-19
 -1      4131 8.18750E-05-2.00019E-05-2.65215E-05-4.42145E-06 5.31526E-19-8.68953E-22
 -1      4132 8.30945E-05-2.03318E-05-2.69353E-05-3.76223E-06 1.96236E-19 2.05922E-19
 -1      4133 8.03742E-05-1.90875E-05-2.61787E-05-3.26947E-06 6.42384E-19 4.26460E-19
 -1      4134 8.44305E-05-2.07537E-05-2.72958E-05-3.28178E-06-6.88644E-20 6.57098E-19
 -1      4135 8.54574E-05-2.11490E-05-2.75858E-05-2.82395E-06-2.32301E-19 5.51963E-19
 -1      4136 8.33765E-05-2.00744E-05-2.70605E-05-2.36868E-06 3.32048E-19 9.03883E-19
 -1      4137 8.65311E-05-2.15936E-05-2.78354E-05-2.48366E-06-7.24102E-20 8.80489E-19
 -1      4138 8.73962E-05-2.20215E-05-2.80354E-05-2.15060E-06-3.48212E-21 8.57326E-19
 -1      4139 8.57414E-05-2.10547E-05-2.76725E-05-1.74523E-06-1.28023E-19 8.77292E-19
 -1      4140 8.82758E-05-2.24747E-05-2.82049E-05-1.90251E-06-6.77508E-19 6.91352E-19
 -1      4141 8.90049E-05-2.29101E-05-2.83391E-05-1.65072E-06-7.47183E-19 3.27976E-19
 -1      4142 8.76680E-05-2.20301E-05-2.80928E-05-1.30028E-06-4.52665E-19 7.95584E-19
 -1      4143 8.97291E-05-2.33536E-05-2.84507E-05-1.46608E-06-3.14842E-19-1.85852E-19
 -1      4144 9.03397E-05-2.37754E-05-2.85369E-05-1.27031E-06-3.04951E-19-4.98405E-19
 -1      4145 8.92541E-05-2.29790E-05-2.83748E-05-9.76222E-07-7.62012E-19 2.66425E-19
 -1      4146 9.09341E-05-2.41932E-05-2.86069E-05-1.13079E-06-3.63422E-19-1.27032E-18
 -1      4147 9.14398E-05-2.45859E-05-2.86587E-05-9.75789E-07-1.01858E-18-1.15228E-18
 -1      4148 9.05604E-05-2.38753E-05-2.85569E-05-7.35705E-07-1.00918E-18-9.43435E-19
 -1      4149 9.19237E-05-2.49665E-05-2.86991E-05-8.69368E-07-1.53905E-18-9.48828E-19
 -1      4150 9.23369E-05-2.53199E-05-2.87269E-05-7.45480E-07-1.36562E-18-1.10931E-18
 -1      4151 9.16297E-05-2.46975E-05-2.86677E-05-5.54486E-07-1.17136E-18-1.47116E-18
 -1      4152 9.27265E-05-2.56567E-05-2.87469E-05-6.63975E-07-8.38869E-19-1.31681E-18
 -1      4153 9.30591E-05-2.59657E-05-2.87583E-05-5.64736E-07-8.73325E-19-1.81545E-18
 -1      4154 9.24963E-05-2.54311E-05-2.87285E-05-4.16544E-07-1.25371E-18-8.31493E-19
 -1      4155 9.33684E-05-2.62560E-05-2.87648E-05-5.02336E-07-1.06035E-18-2.09383E-18
 -1      4156 9.36319E-05-2.65196E-05-2.87654E-05-4.23089E-07-8.44218E-19-1.85158E-18
 -1      4157 9.31898E-05-2.60692E-05-2.87553E-05-3.10963E-07-9.43824E-19-1.66174E-18
 -1      4158 9.38740E-05-2.67641E-05-2.87633E-05-3.75510E-07-7.70438E-19-1.90814E-18
 -1      4159 9.40793E-05-2.69838E-05-2.87574E-05-3.12664E-07-1.05198E-18-2.22003E-18
 -1      4160 9.37369E-05-2.66115E-05-2.87599E-05-2.30040E-07-8.49966E-19-2.75375E-18
 -1      4161 9.42657E-05-2.71855E-05-2.87502E-05-2.76641E-07-7.67809E-19-1.91329E-18
 -1      4162 9.44229E-05-2.73649E-05-2.87408E-05-2.27278E-07-8.20585E-19-2.49903E-18
 -1      4163 9.41620E-05-2.70627E-05-2.87506E-05-1.68153E-07-7.80008E-19-2.88530E-18
 -1      4164 9.45640E-05-2.75280E-05-2.87309E-05-2.00269E-07-7.54356E-19-2.44317E-18
 -1      4165 9.46821E-05-2.76718E-05-2.87199E-05-1.61944E-07-2.86249E-19-2.31664E-18
 -1      4166 9.44867E-05-2.74308E-05-2.87336E-05-1.21069E-07-6.88028E-19-2.66541E-18
 -1      4167 9.47869E-05-2.78013E-05-2.87090E-05-1.41940E-07-9.05800E-19-2.42494E-18
 -1      4168 9.48739E-05-2.79144E-05-2.86978E-05-1.12575E-07-1.43975E-18-2.75249E-18
 -1      4169 9.47304E-05-2.77255E-05-2.87130E-05-8.55249E-08-1.16603E-18-2.84707E-18
 -1      4170 9.49501E-05-2.80153E-05-2.86870E-05-9.79759E-08-6.47750E-19-1.84193E-18
 -1      4171 9.50128E-05-2.81026E-05-2.86764E-05-7.58070E-08-4.73974E-19-1.72412E-18
 -1      4172 9.49097E-05-2.79572E-05-2.86915E-05-5.89668E-08-6.56889E-19-1.77683E-18
 -1      4173 9.50669E-05-2.81799E-05-2.86664E-05-6.53416E-08-4.86934E-19-1.81555E-18
 -1      4174 9.51108E-05-2.82461E-05-2.86567E-05-4.88786E-08-5.79365E-19-1.69953E-18
 -1      4175 9.50387E-05-2.81361E-05-2.86708E-05-3.93725E-08-3.37351E-19-1.92489E-18
 -1      4176 9.51480E-05-2.83040E-05-2.86478E-05-4.15382E-08-7.31788E-19-1.67034E-18
 -1      4177 9.51778E-05-2.83532E-05-2.86394E-05-2.95385E-08-9.36889E-19-1.89734E-18
 -1      4178 9.51290E-05-2.82717E-05-2.86520E-05-2.51360E-08-5.64720E-19-2.08044E-18
 -1      4179 9.52025E-05-2.83958E-05-2.86317E-05-2.45285E-08-1.37876E-18-1.91278E-18
 -1      4180 9.52217E-05-2.84316E-05-2.86245E-05-1.59690E-08-1.36562E-18-9.43959E-19
 -1      4181 9.51902E-05-2.83724E-05-2.86354E-05-1.49824E-08-1.00207E-18-1.40559E-18
 -1      4182 9.52373E-05-2.84622E-05-2.86180E-05-1.26693E-08-1.00185E-18-9.26182E-19
 -1      4183 9.52489E-05-2.84876E-05-2.86121E-05-6.72018E-09-2.37966E-19-1.36366E-18
 -1      4184 9.52298E-05-2.84457E-05-2.86213E-05-7.90406E-09-5.95820E-19-1.55983E-18
 -1      4185 9.52579E-05-2.85090E-05-2.86068E-05-4.65210E-09 8.10076E-19-1.37750E-18
 -1      4186 9.52642E-05-2.85265E-05-2.86019E-05-6.50516E-10 1.72554E-18-1.39036E-18
 -1      4187 9.52538E-05-2.84977E-05-2.86095E-05-3.11002E-09 4.14531E-19-8.54443E-19
 -1      4188 9.52686E-05-2.85410E-05-2.85976E-05 5.50640E-10 1.30643E-18-1.87590E-18
 -1      4189 9.52712E-05-2.85526E-05-2.85937E-05 3.12473E-09 1.37577E-18-2.10865E-18
 -1      4190 9.52669E-05-2.85336E-05-2.85999E-05 1.47845E-11 1.00533E-18-7.47690E-19
 -1      4191 9.52725E-05-2.85620E-05-2.85903E-05 3.73888E-09 1.53748E-18-2.39772E-18
 -1      4192 9.52728E-05-2.85694E-05-2.85872E-05 5.25858E-09 9.04764E-19-1.60927E-18
 -1      4193 9.52723E-05-2.85574E-05-2.85921E-05 1.94736E-09 9.19042E-19-1.79814E-18
 -1      4194 8.23531E-05-2.00257E-05-2.67575E-05 4.63574E-06-2.64716E-19-8.37769E-20
 -1      4195 8.11259E-05-1.97386E-05-2.63065E-05 5.32661E-06-1.60219E-19-1.51580E-19
 -1      4196 9.29619E-05-2.58443E-05-2.87712E-05 9.87459E-07-1.17749E-18 1.36239E-18
 -1      4197 9.26337E-05-2.55292E-05-2.87614E-05 1.13853E-06-7.07191E-19 1.07165E-18
 -1      4198 8.87099E-05-2.26807E-05-2.83150E-05 2.42158E-06-6.47083E-19-7.60745E-19
 -1      4199 8.79656E-05-2.22409E-05-2.81744E-05 2.71834E-06-9.59836E-20-4.77067E-19
 -1      4200 8.70056E-05-2.16119E-05-2.79797E-05 1.92849E-06-5.75416E-20-5.08217E-19
 -1      4201 9.22104E-05-2.51756E-05-2.87374E-05 1.25920E-06-8.17667E-19 1.26174E-18
 -1      4202 9.17996E-05-2.48157E-05-2.87106E-05 1.43826E-06-1.17336E-18 4.92190E-19
 -1      4203 9.22446E-05-2.51836E-05-2.87239E-05 8.42724E-07-9.77123E-19 1.89995E-19
 -1      4204 9.12737E-05-2.44157E-05-2.86636E-05 1.58279E-06-1.38014E-18 2.17797E-21
 -1      4205 9.07666E-05-2.40164E-05-2.86114E-05 1.79330E-06-1.41599E-18-5.52384E-19
 -1      4206 9.13093E-05-2.44095E-05-2.86502E-05 1.05340E-06-1.74673E-18 1.65518E-19
 -1      4207 9.35567E-05-2.64182E-05-2.87789E-05 7.61959E-07-1.98576E-18 1.48324E-18
 -1      4208 9.32984E-05-2.61491E-05-2.87799E-05 8.87746E-07-1.10317E-18 1.54982E-18
 -1      4209 9.29931E-05-2.58598E-05-2.87586E-05 6.63666E-07-1.32663E-18 9.52471E-19
 -1      4210 9.40208E-05-2.69000E-05-2.87702E-05 5.77638E-07-2.07359E-18 1.49148E-18
 -1      4211 9.38206E-05-2.66752E-05-2.87777E-05 6.80733E-07-2.28147E-18 1.24396E-18
 -1      4212 9.35843E-05-2.64369E-05-2.87676E-05 5.13701E-07-1.72436E-18 1.28249E-18
 -1      4213 9.43773E-05-2.72963E-05-2.87523E-05 4.29466E-07-5.61557E-19 7.21424E-19
 -1      4214 9.42247E-05-2.71121E-05-2.87632E-05 5.12547E-07-1.23396E-18 9.81460E-19
 -1      4215 9.40446E-05-2.69193E-05-2.87605E-05 3.90271E-07-1.24959E-18 3.58810E-20
 -1      4216 9.46467E-05-2.76161E-05-2.87299E-05 3.12413E-07 4.54393E-19-7.73034E-20
 -1      4217 9.45323E-05-2.74681E-05-2.87422E-05 3.78210E-07 4.38418E-19 7.42858E-19
 -1      4218 9.43975E-05-2.73147E-05-2.87441E-05 2.90544E-07 3.73089E-20-4.99665E-19
 -1      4219 9.48466E-05-2.78697E-05-2.87063E-05 2.21592E-07-8.68726E-19 9.82809E-19
 -1      4220 9.47624E-05-2.77529E-05-2.87186E-05 2.72785E-07-7.36321E-19 7.32186E-19
 -1      4221 9.46635E-05-2.76330E-05-2.87232E-05 2.11476E-07-2.07347E-19 3.87976E-19
 -1      4222 9.49918E-05-2.80672E-05-2.86834E-05 1.52427E-07-1.34406E-18 2.03752E-18
 -1      4223 9.49313E-05-2.79766E-05-2.86950E-05 1.91537E-07-6.03461E-19 1.51125E-18
 -1      4224 9.48602E-05-2.78845E-05-2.87009E-05 1.49975E-07-8.02430E-19 1.73708E-18
 -1      4225 9.50949E-05-2.82183E-05-2.86624E-05 1.00781E-07-1.13245E-18 6.97557E-19
 -1      4226 9.50524E-05-2.81493E-05-2.86728E-05 1.30093E-07-1.69554E-18 1.21050E-18
 -1      4227 9.50028E-05-2.80799E-05-2.86791E-05 1.03064E-07-1.06321E-18 1.41529E-18
 -1      4228 9.51659E-05-2.83318E-05-2.86439E-05 6.30299E-08 7.38725E-20-1.28290E-19
 -1      4229 9.51371E-05-2.82802E-05-2.86529E-05 8.45505E-08-4.53223E-19 9.11431E-19
 -1      4230 9.51035E-05-2.82289E-05-2.86591E-05 6.80049E-08-6.46641E-19 5.72729E-19
 -1      4231 9.52130E-05-2.84154E-05-2.86281E-05 3.60900E-08 1.44606E-19 1.12560E-18
 -1      4232 9.51943E-05-2.83776E-05-2.86357E-05 5.15312E-08-3.21864E-19-7.91748E-20
 -1      4233 9.51726E-05-2.83405E-05-2.86414E-05 4.23731E-08-4.24920E-19-6.35179E-19
 -1      4234 9.52427E-05-2.84755E-05-2.86148E-05 1.73995E-08 4.36880E-19 1.80911E-18
 -1      4235 9.52313E-05-2.84485E-05-2.86211E-05 2.81859E-08 7.17236E-19 1.99614E-18
 -1      4236 9.52181E-05-2.84223E-05-2.86262E-05 2.40881E-08-3.47779E-19 1.59777E-18
 -1      4237 9.52599E-05-2.85177E-05-2.86040E-05 4.87890E-09-6.75197E-20 1.06382E-18
 -1      4238 9.52536E-05-2.84988E-05-2.86091E-05 1.21693E-08 5.88179E-19 1.54544E-18
 -1      4239 9.52465E-05-2.84809E-05-2.86134E-05 1.14142E-08 6.77367E-19 1.80877E-18
 -1      4240 9.52685E-05-2.85463E-05-2.85953E-05-3.12407E-09 1.18113E-19 8.53608E-19
 -1      4241 9.52657E-05-2.85336E-05-2.85994E-05 1.59289E-09-3.92616E-19 5.61471E-19
 -1      4242 9.52626E-05-2.85218E-05-2.86030E-05 2.93773E-09 3.91148E-19 1.41964E-18
 -1      4243 9.52712E-05-2.85650E-05-2.85884E-05-7.89674E-09 1.39785E-19 8.04686E-19
 -1      4244 9.52707E-05-2.85568E-05-2.85916E-05-5.03420E-09 2.11605E-19 5.33008E-19
 -1      4245 9.52703E-05-2.85494E-05-2.85946E-05-2.46841E-09 5.37018E-19 9.06722E-20
 -1      4246 9.52701E-05-2.85765E-05-2.85830E-05-1.04339E-08-4.27995E-19 6.87537E-19
 -1      4247 9.52711E-05-2.85716E-05-2.85855E-05-8.82932E-09-2.34541E-19 7.17783E-19
 -1      4248 9.52723E-05-2.85673E-05-2.85879E-05-5.67882E-09 1.38218E-20-5.42242E-19
 -1      4249 9.52697E-05-2.85793E-05-2.85816E-05-8.68571E-09-3.10635E-20-2.62101E-19
 -1      4250 9.52694E-05-2.85826E-05-2.85800E-05 5.64176E-09 5.51298E-19-9.80867E-19
 -1      4251 7.28001E-05-1.70577E-05-2.39525E-05 2.99334E-06 4.71635E-19 7.29051E-19
 -1      4252 7.11331E-05-1.63993E-05-2.33933E-05-7.57254E-07 7.00701E-19 6.52970E-19
 -1      4253 7.45151E-05-1.75316E-05-2.44108E-05-2.29368E-06 7.06167E-19 5.38350E-19
 -1      4254 7.50056E-05-1.87509E-05-2.41477E-05 8.14619E-06 3.27550E-19 6.83190E-19
 -1      4255 9.01194E-05-2.35767E-05-2.85312E-05 1.96587E-06-1.00495E-18-8.96684E-19
 -1      4256 8.95016E-05-2.31486E-05-2.84424E-05 2.21371E-06-8.47985E-19-8.71911E-19
 -1      4257 9.01533E-05-2.35450E-05-2.85193E-05 1.29908E-06-1.41392E-18-2.79960E-19
 -1      4258 7.53968E-05-1.60198E-05-2.54838E-05 1.27802E-05 9.98450E-19-1.56241E-18
 -1      4259 8.49127E-05-2.08592E-05-2.74833E-05 3.67779E-06 3.89962E-19-7.90917E-19
 -1      4260 8.38566E-05-2.04753E-05-2.71718E-05 4.16625E-06-1.39792E-19-6.82685E-19
 -1      4261 8.48835E-05-2.05890E-05-2.74929E-05 2.35451E-06 4.65654E-19-1.31083E-18
 -1      4262 7.83019E-05-1.94272E-05-2.52386E-05 7.42757E-06-3.35686E-19 1.63469E-19
 -1      4263 7.48374E-05-1.77980E-05-2.43722E-05 5.16764E-06 2.22088E-19 4.86991E-19
 -1      4264 7.61995E-05-1.78798E-05-2.50380E-05 2.79603E-06 2.19348E-19 2.48417E-19
 -1      4265 7.96256E-05-1.94952E-05-2.58545E-05 6.26493E-06-6.05602E-19 5.59434E-19
 -1      4266 9.52709E-05-2.85794E-05-2.85821E-05-5.59849E-09-7.86469E-20 3.85761E-20
 -1      4267 7.92641E-05-1.86838E-05-2.58817E-05 3.97495E-06-1.22826E-19-2.65262E-19
 -1      4268 8.22363E-05-1.95522E-05-2.67822E-05 2.92126E-06-3.96054E-21-8.22050E-19
 -1      4269 9.52724E-05-2.85745E-05-2.85848E-05 4.80695E-09 5.79289E-19-1.84267E-18
 -1      4270 9.52713E-05-2.85791E-05-2.85824E-05 5.60299E-09 7.71354E-19-1.37016E-18
 -1      4271 9.52708E-05-2.85809E-05-2.85814E-05 2.22505E-09 5.10144E-19-1.21117E-18
 -1      4272 9.52712E-05-2.85808E-05-2.85817E-05-8.69027E-10 4.60090E-19-1.22096E-18
 -1      4273 9.52727E-05-2.85755E-05-2.85845E-05-2.23206E-09-4.05363E-19-2.76042E-19
 -1      4274 8.87364E-05-2.26052E-05-2.83068E-05 1.58619E-06-6.32713E-19-1.09117E-18
 -1      4275 9.52730E-05-2.85718E-05-2.85863E-05 2.43050E-09 5.39473E-19-2.07433E-18
 -1      4276 7.65017E-05-1.78579E-05-2.51333E-05-1.75758E-06 4.96242E-19 8.36963E-19
 -1      4277 9.52733E-05-2.85705E-05-2.85870E-05-1.95897E-09-2.74840E-19-2.23907E-19
 -1      4278 7.90209E-05-1.86573E-05-2.59289E-05-1.53279E-07 2.76451E-19 1.06488E-19
 -1      4279 8.08252E-05-1.92085E-05-2.64649E-05 1.55558E-07 3.06971E-19 1.18524E-19
 -1      4280 8.23754E-05-1.97423E-05-2.68975E-05-2.04687E-08 3.24579E-19-4.72664E-19
 -1      4281 8.37606E-05-2.02480E-05-2.72655E-05 2.27758E-07 1.29613E-19-3.56543E-19
 -1      4282 8.49932E-05-2.07713E-05-2.75643E-05 9.12278E-08 1.89081E-19 7.83092E-21
 -1      4283 8.61062E-05-2.12744E-05-2.78187E-05 2.66297E-07-1.29446E-19 7.18415E-20
 -1      4284 8.71013E-05-2.17862E-05-2.80222E-05 1.54432E-07-2.53107E-19 1.11513E-19
 -1      4285 8.80083E-05-2.22784E-05-2.81950E-05 2.78269E-07-2.55490E-19 1.06613E-19
 -1      4286 8.88189E-05-2.27686E-05-2.83301E-05 1.81077E-07-6.90670E-19 1.81024E-20
 -1      4287 8.95624E-05-2.32376E-05-2.84439E-05 2.69931E-07-1.18601E-18-1.49303E-19
 -1      4288 9.02233E-05-2.36949E-05-2.85299E-05 1.82921E-07-1.74312E-18-2.40727E-19
 -1      4289 9.08317E-05-2.41289E-05-2.86014E-05 2.47703E-07-1.56082E-18-6.80769E-19
 -1      4290 9.13680E-05-2.45441E-05-2.86527E-05 1.69550E-07-9.74015E-19-7.47904E-19
 -1      4291 9.18623E-05-2.49348E-05-2.86943E-05 2.17484E-07-1.30165E-18-4.08100E-19
 -1      4292 9.22936E-05-2.53022E-05-2.87216E-05 1.48149E-07-1.48964E-18-8.41787E-20
 -1      4293 9.26908E-05-2.56449E-05-2.87425E-05 1.84050E-07-1.40693E-18-4.75285E-20
 -1      4294 9.30337E-05-2.59622E-05-2.87536E-05 1.23728E-07-1.42915E-18-4.59620E-20
 -1      4295 9.33489E-05-2.62557E-05-2.87607E-05 1.50866E-07-8.24836E-19-7.10400E-19
 -1      4296 9.36178E-05-2.65239E-05-2.87613E-05 9.95251E-08-1.09913E-18-1.11059E-18
 -1      4297 9.38643E-05-2.67699E-05-2.87596E-05 1.20162E-07-1.14033E-18-1.07322E-18
 -1      4298 9.40721E-05-2.69919E-05-2.87538E-05 7.74254E-08-3.51683E-19-1.17018E-18
 -1      4299 9.42618E-05-2.71941E-05-2.87469E-05 9.31614E-08-1.88644E-19-1.09489E-18
 -1      4300 9.44199E-05-2.73744E-05-2.87377E-05 5.83485E-08-2.65145E-19-1.16706E-18
 -1      4301 9.45634E-05-2.75374E-05-2.87281E-05 7.03435E-08-5.07325E-19-6.36239E-19
 -1      4302 9.46815E-05-2.76812E-05-2.87173E-05 4.25717E-08-6.14801E-19-6.24946E-19
 -1      4303 9.47881E-05-2.78102E-05-2.87067E-05 5.16856E-08-7.96735E-19-6.75225E-19
 -1      4304 9.48746E-05-2.79230E-05-2.86957E-05 2.99779E-08-5.87848E-19-1.24751E-19
 -1      4305 9.49521E-05-2.80233E-05-2.86851E-05 3.68618E-08-6.49029E-20 3.20161E-19
 -1      4306 9.50141E-05-2.81101E-05-2.86747E-05 2.02350E-08-5.52812E-19-2.06553E-20
 -1      4307 9.50691E-05-2.81866E-05-2.86648E-05 2.53906E-08-9.89736E-19-2.83154E-19
 -1      4308 9.51123E-05-2.82522E-05-2.86554E-05 1.29171E-08-6.60352E-19-1.21138E-19
 -1      4309 9.51502E-05-2.83096E-05-2.86466E-05 1.67357E-08-5.31458E-19-2.01546E-19
 -1      4310 9.51793E-05-2.83582E-05-2.86384E-05 7.58180E-09-7.38631E-19-5.29996E-19
 -1      4311 9.52044E-05-2.84002E-05-2.86307E-05 1.03712E-08-9.72076E-19 1.30354E-19
 -1      4312 9.52231E-05-2.84355E-05-2.86238E-05 3.81472E-09-8.12987E-19 5.44434E-19
 -1      4313 9.52389E-05-2.84656E-05-2.86173E-05 5.81759E-09-7.93087E-20 3.25560E-19
 -1      4314 9.52501E-05-2.84906E-05-2.86115E-05 1.25218E-09 7.00277E-19 6.49699E-19
 -1      4315 9.52592E-05-2.85116E-05-2.86062E-05 2.65981E-09 9.54719E-19 5.71170E-19
 -1      4316 9.52652E-05-2.85287E-05-2.86015E-05-4.10558E-10 4.27757E-19 3.73468E-19
 -1      4317 9.52696E-05-2.85429E-05-2.85972E-05 5.52526E-10 5.34101E-19 4.83061E-19
 -1      4318 9.52720E-05-2.85542E-05-2.85934E-05-1.42128E-09 8.11200E-19 1.26965E-19
 -1      4319 9.52733E-05-2.85634E-05-2.85900E-05-7.88920E-10 6.40653E-19-6.50147E-19
 -1      4320 7.75678E-05-1.82742E-05-2.54397E-05 3.94597E-07 2.87244E-19 3.82681E-19
 -3
    1PSTEP                         4           1           1          
  100CL  101 1.000000000        4320                     0    1           1
 -4  ERROR       1    1
 -5  STR(%)      1    1    0    0
 -1         1 1.25880E+01
 -1         2 2.53253E+01
 -1         3 2.41888E-04
 -1         4 2.83453E-04
 -1         5 1.25300E+01
 -1         6 1.19512E+01
 -1         7 1.19512E+01
 -1         8 3.83178E+00
 -1         9 2.44478E+00
 -1        10 1.93374E+00
 -1        11 1.66466E+00
 -1        12 1.42300E+00
 -1        13 1.16829E+00
 -1        14 7.98885E-01
 -1        15 6.87532E-01
 -1        16 1.12185E+00
 -1        17 1.44515E+00
 -1        18 1.73924E+00
 -1        19 2.03344E+00
 -1        20 2.53190E+00
 -1        21 3.70896E+00
 -1        22 7.93928E+00
 -1        23 1.19512E+01
 -1        24 3.21064E+00
 -1        25 1.77218E+00
 -1        26 7.41689E-01
 -1        27 5.81524E-01
 -1        28 8.10952E-01
 -1        29 1.02620E+00
 -1        30 1.50138E+00
 -1        31 2.54170E+00
 -1        32 3.61053E+00
 -1        33 3.82202E+00
 -1        34 3.89524E+00
 -1        35 3.89524E+00
 -1        36 3.22961E+00
 -1        37 1.91137E+00
 -1        38 1.45485E+00
 -1        39 1.23110E+00
 -1        40 1.23110E+00
 -1        41 1.19966E+00
 -1        42 1.16181E+00
 -1        43 1.00826E+00
 -1        44 8.12481E-01
 -1        45 6.50179E-01
 -1        46 5.01204E-01
 -1        47 4.32405E-01
 -1        48 3.57978E-01
 -1        49 2.86461E-01
 -1        50 2.22554E-01
 -1        51 1.68235E-01
 -1        52 1.23781E-01
 -1        53 9.80600E-02
 -1        54 8.13256E-02
 -1        55 6.58927E-02
 -1        56 5.22797E-02
 -1        57 4.06656E-02
 -1        58 3.10178E-02
 -1        59 2.31816E-02
 -1        60 1.90301E-02
 -1        61 1.55438E-02
 -1        62 1.24337E-02
 -1        63 9.74087E-03
 -1        64 7.45786E-03
 -1        65 5.72049E-03
 -1        66 4.24539E-03
 -1        67 3.19900E-03
 -1        68 2.75585E-03
 -1        69 2.25606E-03
 -1        70 1.68138E-03
 -1        71 1.27651E-03
 -1        72 1.25300E+01
 -1        73 2.54585E+00
 -1        74 1.26991E+00
 -1        75 7.05905E-01
 -1        76 7.66536E-01
 -1        77 1.06991E+00
 -1        78 1.38418E+00
 -1        79 1.66311E+00
 -1        80 2.09322E+00
 -1        81 3.23668E+00
 -1        82 3.86710E+00
 -1        83 4.42010E+00
 -1        84 4.42010E+00
 -1        85 3.86990E+00
 -1        86 2.37446E+00
 -1        87 1.50635E+00
 -1        88 1.22589E+00
 -1        89 1.43492E+00
 -1        90 1.43492E+00
 -1        91 1.41922E+00
 -1        92 1.26109E+00
 -1        93 1.06189E+00
 -1        94 8.78025E-01
 -1        95 6.94785E-01
 -1        96 5.29434E-01
 -1        97 3.89525E-01
 -1        98 3.00843E-01
 -1        99 2.30760E-01
 -1       100 1.72682E-01
 -1       101 1.26047E-01
 -1       102 8.95711E-02
 -1       103 6.17042E-02
 -1       104 4.72080E-02
 -1       105 3.90674E-02
 -1       106 3.16492E-02
 -1       107 2.51447E-02
 -1       108 1.96072E-02
 -1       109 1.71572E-02
 -1       110 1.47773E-02
 -1       111 1.24045E-02
 -1       112 1.01812E-02
 -1       113 8.17854E-03
 -1       114 6.53969E-03
 -1       115 5.13851E-03
 -1       116 3.88811E-03
 -1       117 2.76646E-03
 -1       118 2.24139E-03
 -1       119 1.61610E-03
 -1       120 9.25637E-04
 -1       121 4.28274E-04
 -1       122 4.28274E-04
 -1       123 3.14929E-04
 -1       124 1.32470E-04
 -1       125 1.98716E-04
 -1       126 2.92301E-04
 -1       127 3.45967E-04
 -1       128 3.60727E-04
 -1       129 3.60727E-04
 -1       130 3.45069E-04
 -1       131 2.88228E-04
 -1       132 1.97555E-04
 -1       133 1.35092E-04
 -1       134 3.17025E-04
 -1       135 5.67832E-04
 -1       136 6.71101E-04
 -1       137 2.50144E+01
 -1       138 4.74835E+01
 -1       139 4.74835E+01
 -1       140 2.02261E+01
 -1       141 1.20520E+01
 -1       142 1.20342E+01
 -1       143 1.20342E+01
 -1       144 1.31837E+01
 -1       145 1.31837E+01
 -1       146 1.31448E+01
 -1       147 2.85457E+01
 -1       148 2.97918E+01
 -1       149 2.83853E+01
 -1       150 2.56501E+01
 -1       151 2.55996E+01
 -1       152 2.54992E+01
 -1       153 4.40798E+01
 -1       154 4.40798E+01
 -1       155 1.74145E+01
 -1       156 1.27536E+01
 -1       157 1.27536E+01
 -1       158 1.19040E+01
 -1       159 1.19040E+01
 -1       160 1.16392E+01
 -1       161 2.32951E+01
 -1       162 4.86128E+01
 -1       163 4.86128E+01
 -1       164 2.53253E+01
 -1       165 6.01985E+00
 -1       166 2.80189E+00
 -1       167 2.08742E+00
 -1       168 1.69950E+00
 -1       169 1.45937E+00
 -1       170 1.31581E+00
 -1       171 1.01698E+00
 -1       172 5.62380E-01
 -1       173 9.22851E-01
 -1       174 1.29690E+00
 -1       175 1.56550E+00
 -1       176 1.78199E+00
 -1       177 2.12966E+00
 -1       178 2.82282E+00
 -1       179 3.93855E+00
 -1       180 1.25300E+01
 -1       181 3.21064E+00
 -1       182 1.77218E+00
 -1       183 7.41689E-01
 -1       184 4.28623E-01
 -1       185 5.81524E-01
 -1       186 8.10952E-01
 -1       187 1.02620E+00
 -1       188 1.64296E+00
 -1       189 2.54170E+00
 -1       190 3.61053E+00
 -1       191 3.82202E+00
 -1       192 3.89524E+00
 -1       193 3.22961E+00
 -1       194 2.07265E+00
 -1       195 1.45485E+00
 -1       196 1.21774E+00
 -1       197 1.23110E+00
 -1       198 1.19966E+00
 -1       199 1.16181E+00
 -1       200 1.00826E+00
 -1       201 8.33592E-01
 -1       202 7.10230E-01
 -1       203 6.02741E-01
 -1       204 4.86701E-01
 -1       205 3.76713E-01
 -1       206 2.86461E-01
 -1       207 2.23027E-01
 -1       208 1.74504E-01
 -1       209 1.33164E-01
 -1       210 9.91579E-02
 -1       211 8.13256E-02
 -1       212 6.58927E-02
 -1       213 5.22797E-02
 -1       214 4.06656E-02
 -1       215 3.10178E-02
 -1       216 2.40892E-02
 -1       217 1.90301E-02
 -1       218 1.55438E-02
 -1       219 1.24337E-02
 -1       220 9.82918E-03
 -1       221 7.81679E-03
 -1       222 6.10372E-03
 -1       223 4.80559E-03
 -1       224 3.64410E-03
 -1       225 2.75585E-03
 -1       226 2.25606E-03
 -1       227 1.68138E-03
 -1       228 1.27651E-03
 -1       229 2.54585E+00
 -1       230 1.26991E+00
 -1       231 7.05905E-01
 -1       232 5.09264E-01
 -1       233 7.66536E-01
 -1       234 1.06991E+00
 -1       235 1.38418E+00
 -1       236 1.66311E+00
 -1       237 2.25917E+00
 -1       238 3.23668E+00
 -1       239 3.86710E+00
 -1       240 4.42010E+00
 -1       241 3.86990E+00
 -1       242 2.37446E+00
 -1       243 1.50635E+00
 -1       244 1.14968E+00
 -1       245 1.22589E+00
 -1       246 1.43492E+00
 -1       247 1.41922E+00
 -1       248 1.26109E+00
 -1       249 1.06189E+00
 -1       250 8.82517E-01
 -1       251 7.19029E-01
 -1       252 5.63501E-01
 -1       253 4.26720E-01
 -1       254 3.12768E-01
 -1       255 2.30760E-01
 -1       256 1.72682E-01
 -1       257 1.26515E-01
 -1       258 9.22404E-02
 -1       259 6.55409E-02
 -1       260 4.72080E-02
 -1       261 3.90674E-02
 -1       262 3.16492E-02
 -1       263 2.51447E-02
 -1       264 1.96072E-02
 -1       265 1.71572E-02
 -1       266 1.47773E-02
 -1       267 1.24045E-02
 -1       268 1.01812E-02
 -1       269 8.17854E-03
 -1       270 6.53969E-03
 -1       271 5.13851E-03
 -1       272 3.89285E-03
 -1       273 2.86839E-03
 -1       274 2.24139E-03
 -1       275 1.61610E-03
 -1       276 9.47091E-04
 -1       277 5.19167E-04
 -1       278 5.19167E-04
 -1       279 4.55569E-04
 -1       280 3.21856E-04
 -1       281 5.08703E-04
 -1       282 6.23593E-04
 -1       283 6.68000E-04
 -1       284 6.68000E-04
 -1       285 6.67729E-04
 -1       286 6.19505E-04
 -1       287 5.07336E-04
 -1       288 3.24447E-04
 -1       289 4.51964E-04
 -1       290 4.51964E-04
 -1       291 6.71101E-04
 -1       292 3.23712E+01
 -1       293 2.84154E+01
 -1       294 4.74835E+01
 -1       295 2.16323E+01
 -1       296 1.20520E+01
 -1       297 1.17916E+01
 -1       298 1.20342E+01
 -1       299 1.19984E+01
 -1       300 1.31837E+01
 -1       301 1.16676E+01
 -1       302 1.31448E+01
 -1       303 2.97918E+01
 -1       304 3.34523E+01
 -1       305 3.34523E+01
 -1       306 2.93284E+01
 -1       307 2.93284E+01
 -1       308 3.68233E+01
 -1       309 4.40798E+01
 -1       310 1.74145E+01
 -1       311 1.11701E+01
 -1       312 1.27536E+01
 -1       313 1.25880E+01
 -1       314 1.18819E+01
 -1       315 1.19040E+01
 -1       316 1.11704E+01
 -1       317 1.16392E+01
 -1       318 2.50701E+01
 -1       319 4.86128E+01
 -1       320 3.04042E+01
 -1       321 3.23712E+01
 -1       322 1.97340E+00
 -1       323 2.76195E+00
 -1       324 1.50987E+00
 -1       325 1.44136E+00
 -1       326 1.28064E+00
 -1       327 9.02353E-01
 -1       328 7.26118E-01
 -1       329 1.21700E+00
 -1       330 1.51729E+00
 -1       331 1.61758E+00
 -1       332 1.76340E+00
 -1       333 1.99415E+00
 -1       334 1.99391E+00
 -1       335 1.71556E+00
 -1       336 1.25860E+00
 -1       337 1.19690E+00
 -1       338 8.24088E-01
 -1       339 6.79131E-01
 -1       340 6.09333E-01
 -1       341 6.97143E-01
 -1       342 1.20701E+00
 -1       343 1.72778E+00
 -1       344 2.18981E+00
 -1       345 2.40544E+00
 -1       346 2.34196E+00
 -1       347 2.37499E+00
 -1       348 1.91587E+00
 -1       349 1.44145E+00
 -1       350 8.58850E-01
 -1       351 7.10523E-01
 -1       352 7.30003E-01
 -1       353 8.91386E-01
 -1       354 8.99101E-01
 -1       355 8.16675E-01
 -1       356 7.27663E-01
 -1       357 6.47275E-01
 -1       358 5.49833E-01
 -1       359 4.47510E-01
 -1       360 3.51273E-01
 -1       361 2.66850E-01
 -1       362 1.96379E-01
 -1       363 1.39789E-01
 -1       364 9.91579E-02
 -1       365 7.19760E-02
 -1       366 5.20943E-02
 -1       367 4.06159E-02
 -1       368 3.37660E-02
 -1       369 2.74500E-02
 -1       370 2.18588E-02
 -1       371 1.70598E-02
 -1       372 1.33481E-02
 -1       373 1.12876E-02
 -1       374 9.38864E-03
 -1       375 7.60681E-03
 -1       376 6.10372E-03
 -1       377 4.83202E-03
 -1       378 3.71027E-03
 -1       379 2.85447E-03
 -1       380 2.09695E-03
 -1       381 1.55947E-03
 -1       382 1.11984E-03
 -1       383 9.49883E-01
 -1       384 8.41390E-01
 -1       385 6.93529E-01
 -1       386 6.59556E-01
 -1       387 9.25035E-01
 -1       388 1.62496E+00
 -1       389 2.15217E+00
 -1       390 2.28892E+00
 -1       391 2.14396E+00
 -1       392 2.44164E+00
 -1       393 2.44498E+00
 -1       394 1.74604E+00
 -1       395 9.74791E-01
 -1       396 6.92343E-01
 -1       397 9.53353E-01
 -1       398 1.04586E+00
 -1       399 1.07123E+00
 -1       400 1.01851E+00
 -1       401 9.12973E-01
 -1       402 8.01755E-01
 -1       403 6.68764E-01
 -1       404 5.35643E-01
 -1       405 4.14600E-01
 -1       406 3.11162E-01
 -1       407 2.26631E-01
 -1       408 1.69496E-01
 -1       409 1.26515E-01
 -1       410 9.22404E-02
 -1       411 6.55409E-02
 -1       412 4.51858E-02
 -1       413 2.99916E-02
 -1       414 2.56182E-02
 -1       415 2.16034E-02
 -1       416 1.77845E-02
 -1       417 1.43212E-02
 -1       418 1.12862E-02
 -1       419 9.43751E-03
 -1       420 7.99988E-03
 -1       421 6.57977E-03
 -1       422 5.39382E-03
 -1       423 4.41874E-03
 -1       424 3.49918E-03
 -1       425 2.65831E-03
 -1       426 1.92529E-03
 -1       427 1.47580E-03
 -1       428 9.47091E-04
 -1       429 5.47866E-04
 -1       430 1.01827E-03
 -1       431 1.01827E-03
 -1       432 6.76930E-04
 -1       433 8.43213E-04
 -1       434 9.13539E-04
 -1       435 9.13539E-04
 -1       436 9.10914E-04
 -1       437 9.10914E-04
 -1       438 8.42454E-04
 -1       439 6.75628E-04
 -1       440 5.34094E-04
 -1       441 8.89698E-04
 -1       442 2.84154E+01
 -1       443 3.24103E+01
 -1       444 3.24103E+01
 -1       445 1.61512E+01
 -1       446 9.75858E+00
 -1       447 2.31624E+00
 -1       448 1.03036E+01
 -1       449 1.05594E+01
 -1       450 1.07466E+01
 -1       451 9.32565E+00
 -1       452 7.04415E+00
 -1       453 1.21036E+01
 -1       454 2.04100E+01
 -1       455 3.34523E+01
 -1       456 3.86288E+01
 -1       457 3.86288E+01
 -1       458 2.64841E+01
 -1       459 2.54938E+01
 -1       460 1.52453E+01
 -1       461 8.51109E+00
 -1       462 8.24541E+00
 -1       463 1.06613E+01
 -1       464 1.11250E+01
 -1       465 1.03490E+01
 -1       466 8.68714E+00
 -1       467 6.86441E+00
 -1       468 1.05276E+01
 -1       469 1.78191E+01
 -1       470 3.04042E+01
 -1       471 3.09778E+01
 -1       472 7.47823E+00
 -1       473 1.46222E+01
 -1       474 1.86258E+00
 -1       475 1.52767E+00
 -1       476 1.52767E+00
 -1       477 1.01347E+00
 -1       478 1.17925E+00
 -1       479 1.59615E+00
 -1       480 1.66385E+00
 -1       481 1.66385E+00
 -1       482 1.99415E+00
 -1       483 1.21272E+00
 -1       484 1.41853E+00
 -1       485 4.97982E+00
 -1       486 1.12411E+00
 -1       487 1.05051E+00
 -1       488 1.14580E+00
 -1       489 1.32919E+00
 -1       490 1.60154E+00
 -1       491 1.72668E+00
 -1       492 2.23821E+00
 -1       493 2.63683E+00
 -1       494 2.75020E+00
 -1       495 1.96068E+00
 -1       496 1.73741E+00
 -1       497 1.48444E+00
 -1       498 1.38464E+00
 -1       499 1.06266E+00
 -1       500 1.00694E+00
 -1       501 9.43805E-01
 -1       502 8.40125E-01
 -1       503 7.67591E-01
 -1       504 6.92040E-01
 -1       505 5.96528E-01
 -1       506 4.95088E-01
 -1       507 3.98096E-01
 -1       508 3.11302E-01
 -1       509 2.37192E-01
 -1       510 1.76150E-01
 -1       511 1.27342E-01
 -1       512 8.93215E-02
 -1       513 6.04167E-02
 -1       514 3.89685E-02
 -1       515 2.64568E-02
 -1       516 1.97244E-02
 -1       517 1.73749E-02
 -1       518 1.48283E-02
 -1       519 1.23177E-02
 -1       520 9.98150E-03
 -1       521 8.03593E-03
 -1       522 6.94324E-03
 -1       523 5.79401E-03
 -1       524 4.67293E-03
 -1       525 3.72290E-03
 -1       526 2.87147E-03
 -1       527 2.11635E-03
 -1       528 1.55722E-03
 -1       529 1.07390E+00
 -1       530 1.33919E+00
 -1       531 1.59357E+00
 -1       532 1.89408E+00
 -1       533 2.33883E+00
 -1       534 3.00042E+00
 -1       535 2.93647E+00
 -1       536 2.27127E+00
 -1       537 1.82606E+00
 -1       538 1.53896E+00
 -1       539 1.42909E+00
 -1       540 1.15245E+00
 -1       541 1.18989E+00
 -1       542 1.12237E+00
 -1       543 1.00994E+00
 -1       544 9.35904E-01
 -1       545 8.34965E-01
 -1       546 7.09175E-01
 -1       547 5.79579E-01
 -1       548 4.58845E-01
 -1       549 3.53305E-01
 -1       550 2.65088E-01
 -1       551 1.93831E-01
 -1       552 1.37871E-01
 -1       553 9.50016E-02
 -1       554 6.29245E-02
 -1       555 4.32222E-02
 -1       556 3.05659E-02
 -1       557 2.56182E-02
 -1       558 2.16034E-02
 -1       559 1.77845E-02
 -1       560 1.43212E-02
 -1       561 1.12862E-02
 -1       562 9.43751E-03
 -1       563 7.99988E-03
 -1       564 6.57977E-03
 -1       565 5.28130E-03
 -1       566 4.19602E-03
 -1       567 3.22003E-03
 -1       568 2.43316E-03
 -1       569 1.77720E-03
 -1       570 1.27761E-03
 -1       571 1.04873E-03
 -1       572 1.15469E-03
 -1       573 1.10683E-03
 -1       574 9.07692E-04
 -1       575 1.15469E-03
 -1       576 1.14559E-03
 -1       577 1.15370E-03
 -1       578 1.15370E-03
 -1       579 1.06182E-03
 -1       580 8.69294E-04
 -1       581 8.69294E-04
 -1       582 3.09778E+01
 -1       583 1.18596E+00
 -1       584 3.24103E+01
 -1       585 1.36643E+01
 -1       586 7.88068E+00
 -1       587 2.12048E+01
 -1       588 7.68863E+00
 -1       589 6.96769E+00
 -1       590 1.34293E+00
 -1       591 9.02119E+00
 -1       592 9.79479E+00
 -1       593 7.97350E+00
 -1       594 3.54101E+00
 -1       595 4.16949E+00
 -1       596 6.72722E+00
 -1       597 1.47888E+01
 -1       598 2.28517E+01
 -1       599 3.86288E+01
 -1       600 2.64841E+01
 -1       601 1.85601E+01
 -1       602 1.14000E+01
 -1       603 7.46453E+00
 -1       604 4.33249E+00
 -1       605 5.14642E+00
 -1       606 7.73059E+00
 -1       607 6.16730E+00
 -1       608 6.78091E+00
 -1       609 8.40251E+00
 -1       610 1.83372E+01
 -1       611 2.31624E+00
 -1       612 1.99415E+00
 -1       613 5.36727E+00
 -1       614 2.31624E+00
 -1       615 8.24166E+00
 -1       616 9.78070E-04
 -1       617 1.14927E+01
 -1       618 6.17358E+00
 -1       619 7.30630E+00
 -1       620 1.64221E+01
 -1       621 1.79626E+00
 -1       622 1.66103E+00
 -1       623 1.90385E+00
 -1       624 1.74886E+00
 -1       625 1.85750E+00
 -1       626 1.21272E+00
 -1       627 1.41582E+01
 -1       628 1.54150E+00
 -1       629 1.65089E+00
 -1       630 1.89434E+00
 -1       631 2.24358E+00
 -1       632 1.86952E+00
 -1       633 2.25576E+00
 -1       634 4.50145E+00
 -1       635 5.42103E+00
 -1       636 4.78004E+00
 -1       637 3.53320E+00
 -1       638 2.79239E+00
 -1       639 3.20049E+00
 -1       640 2.93062E+00
 -1       641 2.44230E+00
 -1       642 1.94603E+00
 -1       643 1.60262E+00
 -1       644 1.40860E+00
 -1       645 1.19228E+00
 -1       646 9.83438E-01
 -1       647 7.95065E-01
 -1       648 6.31625E-01
 -1       649 4.93506E-01
 -1       650 3.79189E-01
 -1       651 2.86297E-01
 -1       652 2.12112E-01
 -1       653 1.53871E-01
 -1       654 1.08927E-01
 -1       655 7.48591E-02
 -1       656 4.95248E-02
 -1       657 3.10794E-02
 -1       658 1.79729E-02
 -1       659 1.01230E-02
 -1       660 9.60932E-03
 -1       661 8.65989E-03
 -1       662 7.50006E-03
 -1       663 6.81876E-03
 -1       664 6.32127E-03
 -1       665 5.54831E-03
 -1       666 4.64888E-03
 -1       667 3.72030E-03
 -1       668 2.80863E-03
 -1       669 2.29829E-03
 -1       670 2.43824E+00
 -1       671 1.54414E+00
 -1       672 3.57879E+00
 -1       673 6.24868E+00
 -1       674 5.35953E+00
 -1       675 3.59684E+00
 -1       676 2.87788E+00
 -1       677 2.54771E+00
 -1       678 2.50214E+00
 -1       679 2.25610E+00
 -1       680 1.85059E+00
 -1       681 1.52753E+00
 -1       682 1.36444E+00
 -1       683 1.16688E+00
 -1       684 9.72583E-01
 -1       685 7.95966E-01
 -1       686 6.41460E-01
 -1       687 5.09424E-01
 -1       688 3.98610E-01
 -1       689 3.07117E-01
 -1       690 2.32773E-01
 -1       691 1.73322E-01
 -1       692 1.26541E-01
 -1       693 9.03275E-02
 -1       694 6.27689E-02
 -1       695 4.21717E-02
 -1       696 2.70786E-02
 -1       697 1.62641E-02
 -1       698 1.32837E-02
 -1       699 1.18861E-02
 -1       700 1.02572E-02
 -1       701 8.58559E-03
 -1       702 6.98714E-03
 -1       703 5.94164E-03
 -1       704 4.95016E-03
 -1       705 4.02008E-03
 -1       706 3.15262E-03
 -1       707 2.43316E-03
 -1       708 1.81653E-03
 -1       709 1.50960E-03
 -1       710 1.14651E+01
 -1       711 1.39542E-03
 -1       712 2.55142E+00
 -1       713 1.37754E-03
 -1       714 1.39702E-03
 -1       715 1.39542E-03
 -1       716 1.39702E-03
 -1       717 1.37499E-03
 -1       718 1.54947E-03
 -1       719 1.22189E+00
 -1       720 3.66829E+00
 -1       721 1.32966E+01
 -1       722 1.64742E+01
 -1       723 4.78004E+00
 -1       724 2.57482E+00
 -1       725 1.69370E+00
 -1       726 3.03482E+00
 -1       727 1.01641E-03
 -1       728 1.90385E+00
 -1       729 1.77381E+00
 -1       730 5.62972E+00
 -1       731 9.71612E+00
 -1       732 1.26902E+01
 -1       733 1.28830E+01
 -1       734 4.14061E+00
 -1       735 5.97439E+00
 -1       736 1.37239E+01
 -1       737 1.25835E+01
 -1       738 5.57590E+00
 -1       739 5.55133E+00
 -1       740 5.42103E+00
 -1       741 4.02167E+00
 -1       742 3.82504E+00
 -1       743 7.47749E+00
 -1       744 1.75684E+00
 -1       745 1.48727E+00
 -1       746 4.79684E+00
 -1       747 7.61235E+00
 -1       748 1.19298E-03
 -1       749 5.35953E+00
 -1       750 7.70402E+00
 -1       751 1.11780E+01
 -1       752 2.20653E+00
 -1       753 2.12663E-03
 -1       754 1.63044E-03
 -1       755 1.77381E+00
 -1       756 3.57879E+00
 -1       757 3.59659E+00
 -1       758 2.67176E+00
 -1       759 3.14531E+00
 -1       760 1.98089E+00
 -1       761 3.64710E+00
 -1       762 2.44126E+00
 -1       763 3.89584E+00
 -1       764 3.14051E+00
 -1       765 2.22964E+00
 -1       766 3.92549E+00
 -1       767 3.20049E+00
 -1       768 2.93062E+00
 -1       769 2.44230E+00
 -1       770 1.94603E+00
 -1       771 1.55453E+00
 -1       772 1.21785E+00
 -1       773 9.83438E-01
 -1       774 7.95065E-01
 -1       775 6.31625E-01
 -1       776 4.93506E-01
 -1       777 3.79189E-01
 -1       778 2.86297E-01
 -1       779 2.12112E-01
 -1       780 1.53871E-01
 -1       781 1.08927E-01
 -1       782 7.48591E-02
 -1       783 4.95248E-02
 -1       784 3.10794E-02
 -1       785 1.79729E-02
 -1       786 8.93098E-03
 -1       787 5.44212E-03
 -1       788 6.02835E-03
 -1       789 6.82360E-03
 -1       790 6.81876E-03
 -1       791 6.32127E-03
 -1       792 5.54831E-03
 -1       793 4.64888E-03
 -1       794 3.72030E-03
 -1       795 2.80863E-03
 -1       796 3.75092E+00
 -1       797 2.84104E+00
 -1       798 2.26021E+00
 -1       799 1.85059E+00
 -1       800 1.47316E+00
 -1       801 1.18755E+00
 -1       802 9.72583E-01
 -1       803 7.95966E-01
 -1       804 6.41460E-01
 -1       805 5.09424E-01
 -1       806 3.98610E-01
 -1       807 3.07117E-01
 -1       808 2.32773E-01
 -1       809 1.73322E-01
 -1       810 1.26541E-01
 -1       811 9.03275E-02
 -1       812 6.27689E-02
 -1       813 4.21717E-02
 -1       814 2.70786E-02
 -1       815 1.62641E-02
 -1       816 9.80880E-03
 -1       817 7.03272E-03
 -1       818 5.80862E-03
 -1       819 5.86878E-03
 -1       820 5.49812E-03
 -1       821 4.88456E-03
 -1       822 4.15680E-03
 -1       823 3.43348E-03
 -1       824 2.79144E-03
 -1       825 2.21781E-03
 -1       826 2.41100E-03
 -1       827 1.66839E-03
 -1       828 1.54495E-03
 -1       829 5.80075E+00
 -1       830 9.05357E+00
 -1       831 6.75464E+00
 -1       832 1.66839E-03
 -1       833 4.16847E+00
 -1       834 3.31467E+00
 -1       835 9.99372E+00
 -1       836 2.10977E+00
 -1       837 1.43371E+00
 -1       838 5.15343E+00
 -1       839 2.39279E+00
 -1       840 4.64526E+00
 -1       841 1.76069E+00
 -1       842 6.42403E+00
 -1       843 3.90885E+00
 -1       844 1.00372E+01
 -1       845 9.17190E+00
 -1       846 9.05357E+00
 -1       847 7.87617E+00
 -1       848 9.23106E+00
 -1       849 2.39279E+00
 -1       850 3.16007E+00
 -1       851 2.03164E+00
 -1       852 6.79461E+00
 -1       853 1.67355E-03
 -1       854 2.03164E+00
 -1       855 1.62452E-03
 -1       856 4.88285E+00
 -1       857 2.08172E+00
 -1       858 2.90696E+00
 -1       859 6.79461E+00
 -1       860 2.41100E-03
 -1       861 5.50705E+00
 -1       862 2.12663E-03
 -1       863 2.36873E+00
 -1       864 9.23106E+00
 -1       865 3.94465E+00
 -1       866 6.05653E+00
 -1       867 3.25280E+00
 -1       868 2.78278E+00
 -1       869 1.90023E+00
 -1       870 1.32368E+00
 -1       871 1.00092E+00
 -1       872 8.11866E-01
 -1       873 6.48947E-01
 -1       874 5.12690E-01
 -1       875 4.00559E-01
 -1       876 3.09205E-01
 -1       877 2.35472E-01
 -1       878 1.76581E-01
 -1       879 1.30105E-01
 -1       880 9.39173E-02
 -1       881 6.61577E-02
 -1       882 4.53500E-02
 -1       883 3.08190E-02
 -1       884 2.00927E-02
 -1       885 1.23419E-02
 -1       886 6.92502E-03
 -1       887 3.50333E-03
 -1       888 2.95346E-03
 -1       889 3.47331E-03
 -1       890 3.53815E-03
 -1       891 3.31901E-03
 -1       892 2.93678E-03
 -1       893 2.55156E-03
 -1       894 2.33686E-03
 -1       895 2.73992E+00
 -1       896 1.96826E+00
 -1       897 1.41882E+00
 -1       898 1.09216E+00
 -1       899 8.65698E-01
 -1       900 7.01259E-01
 -1       901 5.56533E-01
 -1       902 4.33990E-01
 -1       903 3.32831E-01
 -1       904 2.50939E-01
 -1       905 1.85771E-01
 -1       906 1.34750E-01
 -1       907 9.54553E-02
 -1       908 6.65970E-02
 -1       909 4.55309E-02
 -1       910 2.99404E-02
 -1       911 1.88161E-02
 -1       912 1.09287E-02
 -1       913 5.74539E-03
 -1       914 4.14103E-03
 -1       915 4.80526E-03
 -1       916 4.87048E-03
 -1       917 4.56474E-03
 -1       918 4.04872E-03
 -1       919 3.49103E-03
 -1       920 3.02972E-03
 -1       921 2.50376E-03
 -1       922 1.77284E-03
 -1       923 2.23662E+00
 -1       924 2.21274E-03
 -1       925 2.50591E+00
 -1       926 6.72728E+00
 -1       927 3.37578E+00
 -1       928 6.60541E+00
 -1       929 6.59812E+00
 -1       930 6.37253E+00
 -1       931 3.89584E+00
 -1       932 2.26670E+00
 -1       933 5.52895E+00
 -1       934 4.82735E+00
 -1       935 5.18975E+00
 -1       936 1.83470E-03
 -1       937 5.27422E+00
 -1       938 3.92549E+00
 -1       939 4.95181E+00
 -1       940 2.26670E+00
 -1       941 4.71592E+00
 -1       942 5.12296E+00
 -1       943 3.99634E+00
 -1       944 5.50666E+00
 -1       945 1.77708E-03
 -1       946 2.21420E-03
 -1       947 6.05653E+00
 -1       948 5.60571E+00
 -1       949 2.41100E-03
 -1       950 1.77284E-03
 -1       951 3.94997E+00
 -1       952 5.49251E+00
 -1       953 2.35942E+00
 -1       954 1.75487E+00
 -1       955 1.32368E+00
 -1       956 9.96177E-01
 -1       957 7.55151E-01
 -1       958 5.75940E-01
 -1       959 4.40628E-01
 -1       960 3.36651E-01
 -1       961 2.55800E-01
 -1       962 1.92613E-01
 -1       963 1.43269E-01
 -1       964 1.04942E-01
 -1       965 7.54345E-02
 -1       966 5.29822E-02
 -1       967 3.61385E-02
 -1       968 2.44278E-02
 -1       969 1.60162E-02
 -1       970 9.93088E-03
 -1       971 6.06769E-03
 -1       972 3.50333E-03
 -1       973 1.95175E-03
 -1       974 2.53605E-03
 -1       975 2.70548E-03
 -1       976 2.60901E-03
 -1       977 2.35858E-03
 -1       978 1.85692E+00
 -1       979 4.11156E+00
 -1       980 1.09216E+00
 -1       981 8.47469E-01
 -1       982 6.56472E-01
 -1       983 5.06933E-01
 -1       984 3.89122E-01
 -1       985 2.96039E-01
 -1       986 2.22614E-01
 -1       987 1.65022E-01
 -1       988 1.20245E-01
 -1       989 8.58259E-02
 -1       990 5.97252E-02
 -1       991 4.08869E-02
 -1       992 2.73954E-02
 -1       993 1.75313E-02
 -1       994 1.04759E-02
 -1       995 5.64962E-03
 -1       996 3.02163E-03
 -1       997 3.25723E-03
 -1       998 3.59859E-03
 -1       999 3.54540E-03
 -1      1000 3.25030E-03
 -1      1001 3.22461E-03
 -1      1002 3.22461E-03
 -1      1003 2.59229E+00
 -1      1004 2.71792E+00
 -1      1005 2.33686E-03
 -1      1006 5.50666E+00
 -1      1007 2.10119E-03
 -1      1008 4.68785E+00
 -1      1009 3.70742E+00
 -1      1010 5.12296E+00
 -1      1011 1.72474E-03
 -1      1012 1.40484E+00
 -1      1013 3.05601E+00
 -1      1014 2.64906E-03
 -1      1015 3.44340E+00
 -1      1016 2.59229E+00
 -1      1017 5.12296E+00
 -1      1018 2.52536E+00
 -1      1019 3.37343E+00
 -1      1020 1.89894E+00
 -1      1021 1.31031E+00
 -1      1022 9.11948E-01
 -1      1023 6.52761E-01
 -1      1024 4.78290E-01
 -1      1025 3.72249E-01
 -1      1026 2.94442E-01
 -1      1027 2.31291E-01
 -1      1028 1.79866E-01
 -1      1029 1.38135E-01
 -1      1030 1.04542E-01
 -1      1031 7.77987E-02
 -1      1032 5.67870E-02
 -1      1033 4.05199E-02
 -1      1034 2.82065E-02
 -1      1035 1.97396E-02
 -1      1036 1.33619E-02
 -1      1037 8.64816E-03
 -1      1038 5.23705E-03
 -1      1039 2.82769E-03
 -1      1040 1.36484E-03
 -1      1041 1.64056E-03
 -1      1042 1.73420E-03
 -1      1043 1.93125E-03
 -1      1044 3.98937E+00
 -1      1045 7.14034E-01
 -1      1046 9.58362E-01
 -1      1047 4.11226E-01
 -1      1048 3.13153E-01
 -1      1049 2.37238E-01
 -1      1050 1.78068E-01
 -1      1051 1.31963E-01
 -1      1052 9.62348E-02
 -1      1053 6.88052E-02
 -1      1054 4.80026E-02
 -1      1055 3.25511E-02
 -1      1056 2.20056E-02
 -1      1057 1.42570E-02
 -1      1058 8.70514E-03
 -1      1059 5.38222E-03
 -1      1060 3.02163E-03
 -1      1061 2.22523E-03
 -1      1062 2.65499E-03
 -1      1063 2.71973E-03
 -1      1064 2.56356E-03
 -1      1065 2.69880E+00
 -1      1066 1.78579E+00
 -1      1067 1.72622E-03
 -1      1068 2.38208E-03
 -1      1069 5.40029E-01
 -1      1070 1.93125E-03
 -1      1071 1.32157E+00
 -1      1072 3.12616E+00
 -1      1073 3.22461E-03
 -1      1074 2.93806E+00
 -1      1075 7.05412E-01
 -1      1076 1.49787E+00
 -1      1077 1.09197E+00
 -1      1078 7.92379E-01
 -1      1079 6.00390E-01
 -1      1080 4.62985E-01
 -1      1081 3.59753E-01
 -1      1082 2.79663E-01
 -1      1083 2.16358E-01
 -1      1084 1.65933E-01
 -1      1085 1.25776E-01
 -1      1086 9.39769E-02
 -1      1087 6.90318E-02
 -1      1088 4.96953E-02
 -1      1089 3.49137E-02
 -1      1090 2.43849E-02
 -1      1091 1.67934E-02
 -1      1092 1.11343E-02
 -1      1093 6.99723E-03
 -1      1094 4.03889E-03
 -1      1095 1.97779E-03
 -1      1096 1.34183E-03
 -1      1097 1.62601E-03
 -1      1098 1.22639E+00
 -1      1099 1.88328E-01
 -1      1100 5.34231E-01
 -1      1101 2.45267E-01
 -1      1102 3.17436E-01
 -1      1103 1.43133E-01
 -1      1104 1.07328E-01
 -1      1105 7.91698E-02
 -1      1106 5.72667E-02
 -1      1107 4.04773E-02
 -1      1108 2.84507E-02
 -1      1109 1.96384E-02
 -1      1110 1.32743E-02
 -1      1111 8.59093E-03
 -1      1112 5.20460E-03
 -1      1113 2.81331E-03
 -1      1114 1.60988E-03
 -1      1115 1.98812E-03
 -1      1116 2.47710E-03
 -1      1117 2.93806E+00
 -1      1118 4.10502E-01
 -1      1119 9.47503E-01
 -1      1120 2.38227E+00
 -1      1121 1.93125E-03
 -1      1122 1.19512E+01
 -1      1123 7.89148E+00
 -1      1124 3.13828E+00
 -1      1125 2.18926E+00
 -1      1126 1.79920E+00
 -1      1127 1.54383E+00
 -1      1128 1.29564E+00
 -1      1129 9.83587E-01
 -1      1130 7.43208E-01
 -1      1131 9.04691E-01
 -1      1132 1.28350E+00
 -1      1133 1.59220E+00
 -1      1134 1.88634E+00
 -1      1135 2.28267E+00
 -1      1136 3.12043E+00
 -1      1137 5.82412E+00
 -1      1138 1.02347E+01
 -1      1139 1.19512E+01
 -1      1140 7.58091E+00
 -1      1141 2.49141E+00
 -1      1142 1.25693E+00
 -1      1143 6.61607E-01
 -1      1144 6.96238E-01
 -1      1145 9.18574E-01
 -1      1146 1.26379E+00
 -1      1147 2.02154E+00
 -1      1148 3.07612E+00
 -1      1149 3.71628E+00
 -1      1150 3.85863E+00
 -1      1151 3.89524E+00
 -1      1152 3.56243E+00
 -1      1153 2.57049E+00
 -1      1154 1.68311E+00
 -1      1155 1.34298E+00
 -1      1156 1.23110E+00
 -1      1157 1.21538E+00
 -1      1158 1.18073E+00
 -1      1159 1.08504E+00
 -1      1160 9.10371E-01
 -1      1161 7.31330E-01
 -1      1162 5.75692E-01
 -1      1163 4.66805E-01
 -1      1164 3.95192E-01
 -1      1165 3.22219E-01
 -1      1166 2.54507E-01
 -1      1167 1.95395E-01
 -1      1168 1.46008E-01
 -1      1169 1.10921E-01
 -1      1170 8.96928E-02
 -1      1171 7.36092E-02
 -1      1172 5.90862E-02
 -1      1173 4.64727E-02
 -1      1174 3.58417E-02
 -1      1175 2.70997E-02
 -1      1176 2.11059E-02
 -1      1177 1.72870E-02
 -1      1178 1.39888E-02
 -1      1179 1.10873E-02
 -1      1180 8.59936E-03
 -1      1181 6.58917E-03
 -1      1182 4.98294E-03
 -1      1183 3.72220E-03
 -1      1184 2.97743E-03
 -1      1185 2.50595E-03
 -1      1186 1.96872E-03
 -1      1187 1.47894E-03
 -1      1188 7.79982E-04
 -1      1189 1.25300E+01
 -1      1190 7.53795E+00
 -1      1191 1.90788E+00
 -1      1192 9.87906E-01
 -1      1193 7.36221E-01
 -1      1194 9.18224E-01
 -1      1195 1.22704E+00
 -1      1196 1.52364E+00
 -1      1197 1.87816E+00
 -1      1198 2.66495E+00
 -1      1199 3.55189E+00
 -1      1200 4.14360E+00
 -1      1201 4.42010E+00
 -1      1202 4.14500E+00
 -1      1203 3.12218E+00
 -1      1204 1.94041E+00
 -1      1205 1.36612E+00
 -1      1206 1.33041E+00
 -1      1207 1.43492E+00
 -1      1208 1.42707E+00
 -1      1209 1.34016E+00
 -1      1210 1.16149E+00
 -1      1211 9.69958E-01
 -1      1212 7.86405E-01
 -1      1213 6.12109E-01
 -1      1214 4.59479E-01
 -1      1215 3.45184E-01
 -1      1216 2.65801E-01
 -1      1217 2.01721E-01
 -1      1218 1.49365E-01
 -1      1219 1.07809E-01
 -1      1220 7.56376E-02
 -1      1221 5.44561E-02
 -1      1222 4.31377E-02
 -1      1223 3.53583E-02
 -1      1224 2.83970E-02
 -1      1225 2.23760E-02
 -1      1226 1.83822E-02
 -1      1227 1.59673E-02
 -1      1228 1.35909E-02
 -1      1229 1.12929E-02
 -1      1230 9.17987E-03
 -1      1231 7.35911E-03
 -1      1232 5.83910E-03
 -1      1233 4.51331E-03
 -1      1234 3.32728E-03
 -1      1235 2.50392E-03
 -1      1236 1.92874E-03
 -1      1237 1.27087E-03
 -1      1238 5.83762E-04
 -1      1239 3.35081E-04
 -1      1240 4.28274E-04
 -1      1241 3.71601E-04
 -1      1242 2.23699E-04
 -1      1243 1.65593E-04
 -1      1244 2.45509E-04
 -1      1245 3.19134E-04
 -1      1246 3.53347E-04
 -1      1247 3.60727E-04
 -1      1248 3.52898E-04
 -1      1249 3.16649E-04
 -1      1250 2.42891E-04
 -1      1251 1.66324E-04
 -1      1252 2.26059E-04
 -1      1253 4.42428E-04
 -1      1254 6.19466E-04
 -1      1255 4.77277E-04
 -1      1256 2.51699E+01
 -1      1257 3.62490E+01
 -1      1258 4.74835E+01
 -1      1259 3.38548E+01
 -1      1260 1.61390E+01
 -1      1261 1.20431E+01
 -1      1262 1.20342E+01
 -1      1263 1.26089E+01
 -1      1264 1.31837E+01
 -1      1265 1.31642E+01
 -1      1266 2.08452E+01
 -1      1267 2.91688E+01
 -1      1268 2.90885E+01
 -1      1269 2.70177E+01
 -1      1270 2.56248E+01
 -1      1271 2.55494E+01
 -1      1272 3.47895E+01
 -1      1273 4.40798E+01
 -1      1274 3.07472E+01
 -1      1275 1.50841E+01
 -1      1276 1.27536E+01
 -1      1277 1.26708E+01
 -1      1278 1.22460E+01
 -1      1279 1.19040E+01
 -1      1280 1.17716E+01
 -1      1281 1.74672E+01
 -1      1282 3.59540E+01
 -1      1283 4.86128E+01
 -1      1284 3.69691E+01
 -1      1285 2.53253E+01
 -1      1286 1.19512E+01
 -1      1287 4.92581E+00
 -1      1288 8.98551E+00
 -1      1289 2.62333E+00
 -1      1290 3.31683E+00
 -1      1291 4.41087E+00
 -1      1292 2.01058E+00
 -1      1293 2.26610E+00
 -1      1294 2.44465E+00
 -1      1295 1.68208E+00
 -1      1296 1.81662E+00
 -1      1297 1.89346E+00
 -1      1298 1.44118E+00
 -1      1299 1.56201E+00
 -1      1300 1.57943E+00
 -1      1301 1.24205E+00
 -1      1302 1.36941E+00
 -1      1303 1.38759E+00
 -1      1304 9.07933E-01
 -1      1305 1.09263E+00
 -1      1306 1.16640E+00
 -1      1307 6.24956E-01
 -1      1308 6.80633E-01
 -1      1309 7.89680E-01
 -1      1310 1.02235E+00
 -1      1311 8.05191E-01
 -1      1312 7.42615E-01
 -1      1313 1.37103E+00
 -1      1314 1.20938E+00
 -1      1315 1.10988E+00
 -1      1316 1.65237E+00
 -1      1317 1.50533E+00
 -1      1318 1.43120E+00
 -1      1319 1.90772E+00
 -1      1320 1.76061E+00
 -1      1321 1.67374E+00
 -1      1322 2.33078E+00
 -1      1323 2.08155E+00
 -1      1324 1.95582E+00
 -1      1325 3.26589E+00
 -1      1326 2.67736E+00
 -1      1327 2.47624E+00
 -1      1328 5.93891E+00
 -1      1329 3.82375E+00
 -1      1330 3.38068E+00
 -1      1331 1.25300E+01
 -1      1332 1.02347E+01
 -1      1333 8.23430E+00
 -1      1334 1.25300E+01
 -1      1335 7.58091E+00
 -1      1336 3.21064E+00
 -1      1337 2.49141E+00
 -1      1338 1.77218E+00
 -1      1339 2.49141E+00
 -1      1340 1.25693E+00
 -1      1341 7.41689E-01
 -1      1342 1.25693E+00
 -1      1343 5.85156E-01
 -1      1344 5.05074E-01
 -1      1345 5.85156E-01
 -1      1346 5.81524E-01
 -1      1347 6.96238E-01
 -1      1348 5.05074E-01
 -1      1349 8.10952E-01
 -1      1350 9.18574E-01
 -1      1351 6.96238E-01
 -1      1352 1.02620E+00
 -1      1353 1.26379E+00
 -1      1354 9.18574E-01
 -1      1355 1.57217E+00
 -1      1356 2.09233E+00
 -1      1357 1.33458E+00
 -1      1358 2.54170E+00
 -1      1359 3.07612E+00
 -1      1360 2.09233E+00
 -1      1361 3.61053E+00
 -1      1362 3.71628E+00
 -1      1363 3.07612E+00
 -1      1364 3.82202E+00
 -1      1365 3.85863E+00
 -1      1366 3.71628E+00
 -1      1367 3.89524E+00
 -1      1368 3.89524E+00
 -1      1369 3.85863E+00
 -1      1370 3.56243E+00
 -1      1371 3.22961E+00
 -1      1372 3.56243E+00
 -1      1373 2.65113E+00
 -1      1374 1.99201E+00
 -1      1375 2.65113E+00
 -1      1376 1.68311E+00
 -1      1377 1.45485E+00
 -1      1378 1.76375E+00
 -1      1379 1.33630E+00
 -1      1380 1.22442E+00
 -1      1381 1.33630E+00
 -1      1382 1.23110E+00
 -1      1383 1.23110E+00
 -1      1384 1.22442E+00
 -1      1385 1.21538E+00
 -1      1386 1.19966E+00
 -1      1387 1.21538E+00
 -1      1388 1.18073E+00
 -1      1389 1.16181E+00
 -1      1390 1.18073E+00
 -1      1391 1.08504E+00
 -1      1392 1.00826E+00
 -1      1393 1.08504E+00
 -1      1394 9.20926E-01
 -1      1395 8.23036E-01
 -1      1396 9.20926E-01
 -1      1397 7.61355E-01
 -1      1398 6.80204E-01
 -1      1399 7.71911E-01
 -1      1400 6.26460E-01
 -1      1401 5.51973E-01
 -1      1402 6.56485E-01
 -1      1403 4.93952E-01
 -1      1404 4.59553E-01
 -1      1405 5.44721E-01
 -1      1406 4.04559E-01
 -1      1407 3.67345E-01
 -1      1408 4.31707E-01
 -1      1409 3.22219E-01
 -1      1410 2.86461E-01
 -1      1411 3.31587E-01
 -1      1412 2.54744E-01
 -1      1413 2.22790E-01
 -1      1414 2.54744E-01
 -1      1415 1.98529E-01
 -1      1416 1.71370E-01
 -1      1417 1.98765E-01
 -1      1418 1.50700E-01
 -1      1419 1.28473E-01
 -1      1420 1.53834E-01
 -1      1421 1.11469E-01
 -1      1422 9.86089E-02
 -1      1423 1.16161E-01
 -1      1424 8.96928E-02
 -1      1425 8.13256E-02
 -1      1426 9.02417E-02
 -1      1427 7.36092E-02
 -1      1428 6.58927E-02
 -1      1429 7.36092E-02
 -1      1430 5.90862E-02
 -1      1431 5.22797E-02
 -1      1432 5.90862E-02
 -1      1433 4.64727E-02
 -1      1434 4.06656E-02
 -1      1435 4.64727E-02
 -1      1436 3.58417E-02
 -1      1437 3.10178E-02
 -1      1438 3.58417E-02
 -1      1439 2.75535E-02
 -1      1440 2.36354E-02
 -1      1441 2.75535E-02
 -1      1442 2.11059E-02
 -1      1443 1.90301E-02
 -1      1444 2.15597E-02
 -1      1445 1.72870E-02
 -1      1446 1.55438E-02
 -1      1447 1.72870E-02
 -1      1448 1.39888E-02
 -1      1449 1.24337E-02
 -1      1450 1.39888E-02
 -1      1451 1.11314E-02
 -1      1452 9.78502E-03
 -1      1453 1.11314E-02
 -1      1454 8.77883E-03
 -1      1455 7.63732E-03
 -1      1456 8.82298E-03
 -1      1457 6.78079E-03
 -1      1458 5.91211E-03
 -1      1459 6.96026E-03
 -1      1460 5.26304E-03
 -1      1461 4.52549E-03
 -1      1462 5.45466E-03
 -1      1463 3.94474E-03
 -1      1464 3.42155E-03
 -1      1465 4.22484E-03
 -1      1466 2.97743E-03
 -1      1467 2.75585E-03
 -1      1468 3.19998E-03
 -1      1469 2.50595E-03
 -1      1470 2.25606E-03
 -1      1471 2.50595E-03
 -1      1472 1.96872E-03
 -1      1473 1.68138E-03
 -1      1474 1.96872E-03
 -1      1475 1.47894E-03
 -1      1476 1.27651E-03
 -1      1477 1.47894E-03
 -1      1478 9.73807E-04
 -1      1479 9.73807E-04
 -1      1480 2.54585E+00
 -1      1481 7.53795E+00
 -1      1482 7.53795E+00
 -1      1483 1.26991E+00
 -1      1484 1.90788E+00
 -1      1485 1.90788E+00
 -1      1486 7.05905E-01
 -1      1487 9.87906E-01
 -1      1488 9.87906E-01
 -1      1489 6.37900E-01
 -1      1490 6.07584E-01
 -1      1491 6.07584E-01
 -1      1492 9.18224E-01
 -1      1493 7.66536E-01
 -1      1494 6.37900E-01
 -1      1495 1.22704E+00
 -1      1496 1.06991E+00
 -1      1497 9.18224E-01
 -1      1498 1.52364E+00
 -1      1499 1.38418E+00
 -1      1500 1.22704E+00
 -1      1501 1.87816E+00
 -1      1502 1.66311E+00
 -1      1503 1.52364E+00
 -1      1504 2.74793E+00
 -1      1505 2.17620E+00
 -1      1506 1.96114E+00
 -1      1507 3.55189E+00
 -1      1508 3.23668E+00
 -1      1509 2.74793E+00
 -1      1510 4.14360E+00
 -1      1511 3.86710E+00
 -1      1512 3.55189E+00
 -1      1513 4.42010E+00
 -1      1514 4.42010E+00
 -1      1515 4.14360E+00
 -1      1516 3.86990E+00
 -1      1517 4.14500E+00
 -1      1518 4.14500E+00
 -1      1519 2.37446E+00
 -1      1520 3.12218E+00
 -1      1521 3.12218E+00
 -1      1522 1.50635E+00
 -1      1523 1.94041E+00
 -1      1524 1.94041E+00
 -1      1525 1.18779E+00
 -1      1526 1.32802E+00
 -1      1527 1.32802E+00
 -1      1528 1.33041E+00
 -1      1529 1.22589E+00
 -1      1530 1.18779E+00
 -1      1531 1.43492E+00
 -1      1532 1.43492E+00
 -1      1533 1.33041E+00
 -1      1534 1.41922E+00
 -1      1535 1.42707E+00
 -1      1536 1.42707E+00
 -1      1537 1.26109E+00
 -1      1538 1.34016E+00
 -1      1539 1.34016E+00
 -1      1540 1.06189E+00
 -1      1541 1.16149E+00
 -1      1542 1.16149E+00
 -1      1543 8.80271E-01
 -1      1544 9.72204E-01
 -1      1545 9.72204E-01
 -1      1546 7.06907E-01
 -1      1547 7.98527E-01
 -1      1548 8.00773E-01
 -1      1549 5.46467E-01
 -1      1550 6.29143E-01
 -1      1551 6.41265E-01
 -1      1552 4.08122E-01
 -1      1553 4.78077E-01
 -1      1554 4.95110E-01
 -1      1555 3.06806E-01
 -1      1556 3.51147E-01
 -1      1557 3.69744E-01
 -1      1558 2.30760E-01
 -1      1559 2.65801E-01
 -1      1560 2.71764E-01
 -1      1561 1.72682E-01
 -1      1562 2.01721E-01
 -1      1563 2.01721E-01
 -1      1564 1.26281E-01
 -1      1565 1.49599E-01
 -1      1566 1.49599E-01
 -1      1567 9.09058E-02
 -1      1568 1.09144E-01
 -1      1569 1.09378E-01
 -1      1570 6.36225E-02
 -1      1571 7.75560E-02
 -1      1572 7.88907E-02
 -1      1573 4.72080E-02
 -1      1574 5.44561E-02
 -1      1575 5.63744E-02
 -1      1576 3.90674E-02
 -1      1577 4.31377E-02
 -1      1578 4.31377E-02
 -1      1579 3.16492E-02
 -1      1580 3.53583E-02
 -1      1581 3.53583E-02
 -1      1582 2.51447E-02
 -1      1583 2.83970E-02
 -1      1584 2.83970E-02
 -1      1585 1.96072E-02
 -1      1586 2.23760E-02
 -1      1587 2.23760E-02
 -1      1588 1.71572E-02
 -1      1589 1.83822E-02
 -1      1590 1.83822E-02
 -1      1591 1.47773E-02
 -1      1592 1.59673E-02
 -1      1593 1.59673E-02
 -1      1594 1.24045E-02
 -1      1595 1.35909E-02
 -1      1596 1.35909E-02
 -1      1597 1.01812E-02
 -1      1598 1.12929E-02
 -1      1599 1.12929E-02
 -1      1600 8.17854E-03
 -1      1601 9.17987E-03
 -1      1602 9.17987E-03
 -1      1603 6.53969E-03
 -1      1604 7.35911E-03
 -1      1605 7.35911E-03
 -1      1606 5.13851E-03
 -1      1607 5.83910E-03
 -1      1608 5.83910E-03
 -1      1609 3.89048E-03
 -1      1610 4.51568E-03
 -1      1611 4.51568E-03
 -1      1612 2.81742E-03
 -1      1613 3.37825E-03
 -1      1614 3.38062E-03
 -1      1615 2.24139E-03
 -1      1616 2.50392E-03
 -1      1617 2.55489E-03
 -1      1618 1.61610E-03
 -1      1619 1.92874E-03
 -1      1620 1.92874E-03
 -1      1621 9.36364E-04
 -1      1622 1.28159E-03
 -1      1623 1.28159E-03
 -1      1624 6.76955E-04
 -1      1625 4.73720E-04
 -1      1626 4.73720E-04
 -1      1627 4.17048E-04
 -1      1628 4.73720E-04
 -1      1629 5.19167E-04
 -1      1630 2.94019E-04
 -1      1631 3.85249E-04
 -1      1632 4.87368E-04
 -1      1633 2.60286E-04
 -1      1634 2.27163E-04
 -1      1635 3.88712E-04
 -1      1636 4.00502E-04
 -1      1637 3.53709E-04
 -1      1638 4.15279E-04
 -1      1639 4.84780E-04
 -1      1640 4.57947E-04
 -1      1641 5.66148E-04
 -1      1642 5.14363E-04
 -1      1643 5.06983E-04
 -1      1644 6.45797E-04
 -1      1645 5.14363E-04
 -1      1646 5.14363E-04
 -1      1647 6.68000E-04
 -1      1648 5.06399E-04
 -1      1649 5.14228E-04
 -1      1650 6.67865E-04
 -1      1651 4.53867E-04
 -1      1652 4.82287E-04
 -1      1653 6.43617E-04
 -1      1654 3.52445E-04
 -1      1655 3.97782E-04
 -1      1656 5.63421E-04
 -1      1657 2.29769E-04
 -1      1658 2.61001E-04
 -1      1659 4.15891E-04
 -1      1660 3.84495E-04
 -1      1661 2.93528E-04
 -1      1662 3.88205E-04
 -1      1663 5.09898E-04
 -1      1664 3.84495E-04
 -1      1665 4.51964E-04
 -1      1666 6.71101E-04
 -1      1667 6.19466E-04
 -1      1668 5.61533E-04
 -1      1669 9.73807E-04
 -1      1670 2.86928E+01
 -1      1671 2.88482E+01
 -1      1672 3.79495E+01
 -1      1673 2.67149E+01
 -1      1674 4.74835E+01
 -1      1675 4.74835E+01
 -1      1676 2.09292E+01
 -1      1677 3.45579E+01
 -1      1678 1.20520E+01
 -1      1679 1.61390E+01
 -1      1680 1.19129E+01
 -1      1681 1.19218E+01
 -1      1682 1.20342E+01
 -1      1683 1.20342E+01
 -1      1684 1.25910E+01
 -1      1685 1.20163E+01
 -1      1686 1.31837E+01
 -1      1687 1.31837E+01
 -1      1688 1.24062E+01
 -1      1689 1.24256E+01
 -1      1690 2.08452E+01
 -1      1691 1.31448E+01
 -1      1692 2.97918E+01
 -1      1693 2.91688E+01
 -1      1694 3.09188E+01
 -1      1695 3.16220E+01
 -1      1696 2.95512E+01
 -1      1697 3.09188E+01
 -1      1698 2.74640E+01
 -1      1699 2.74893E+01
 -1      1700 2.74138E+01
 -1      1701 2.74640E+01
 -1      1702 4.04516E+01
 -1      1703 3.11612E+01
 -1      1704 4.40798E+01
 -1      1705 4.40798E+01
 -1      1706 1.74145E+01
 -1      1707 3.07472E+01
 -1      1708 1.19619E+01
 -1      1709 1.42923E+01
 -1      1710 1.27536E+01
 -1      1711 1.27536E+01
 -1      1712 1.25880E+01
 -1      1713 1.26708E+01
 -1      1714 1.18930E+01
 -1      1715 1.22350E+01
 -1      1716 1.19040E+01
 -1      1717 1.19040E+01
 -1      1718 1.14048E+01
 -1      1719 1.15372E+01
 -1      1720 1.74672E+01
 -1      1721 1.16392E+01
 -1      1722 3.68415E+01
 -1      1723 2.41826E+01
 -1      1724 4.86128E+01
 -1      1725 4.86128E+01
 -1      1726 2.78648E+01
 -1      1727 3.95085E+01
 -1      1728 2.88482E+01
 -1      1729 2.88482E+01
 -1      1730 1.68422E+01
 -1      1731 3.45579E+01
 -1      1732 6.87682E-04
 -1      1733 7.33129E-04
 -1      1734 3.03933E+01
 -1      1735 3.79495E+01
 -1      1736 3.23712E+01
 -1      1737 1.19218E+01
 -1      1738 1.19129E+01
 -1      1739 1.20163E+01
 -1      1740 1.25910E+01
 -1      1741 1.24256E+01
 -1      1742 1.24062E+01
 -1      1743 2.14683E+01
 -1      1744 3.16220E+01
 -1      1745 3.34523E+01
 -1      1746 3.13904E+01
 -1      1747 2.93284E+01
 -1      1748 3.30758E+01
 -1      1749 4.04516E+01
 -1      1750 3.07472E+01
 -1      1751 1.42923E+01
 -1      1752 1.19619E+01
 -1      1753 1.26708E+01
 -1      1754 1.22350E+01
 -1      1755 1.18930E+01
 -1      1756 1.15372E+01
 -1      1757 1.14048E+01
 -1      1758 1.83547E+01
 -1      1759 3.68415E+01
 -1      1760 3.95085E+01
 -1      1761 3.13877E+01
 -1      1762 8.98551E+00
 -1      1763 2.03041E+00
 -1      1764 2.38764E+00
 -1      1765 2.78192E+00
 -1      1766 4.39090E+00
 -1      1767 2.36767E+00
 -1      1768 1.48462E+00
 -1      1769 1.60469E+00
 -1      1770 1.37859E+00
 -1      1771 1.45036E+00
 -1      1772 1.47562E+00
 -1      1773 1.14881E+00
 -1      1774 1.29823E+00
 -1      1775 1.36100E+00
 -1      1776 7.32367E-01
 -1      1777 9.59667E-01
 -1      1778 1.09150E+00
 -1      1779 8.24484E-01
 -1      1780 6.44249E-01
 -1      1781 8.14235E-01
 -1      1782 1.25695E+00
 -1      1783 1.06993E+00
 -1      1784 9.71559E-01
 -1      1785 1.54139E+00
 -1      1786 1.40710E+00
 -1      1787 1.36715E+00
 -1      1788 1.69978E+00
 -1      1789 1.59154E+00
 -1      1790 1.56744E+00
 -1      1791 1.94653E+00
 -1      1792 1.77269E+00
 -1      1793 1.69049E+00
 -1      1794 2.40848E+00
 -1      1795 2.06190E+00
 -1      1796 1.87877E+00
 -1      1797 2.96623E+00
 -1      1798 2.40836E+00
 -1      1799 1.99403E+00
 -1      1800 7.12281E+00
 -1      1801 2.82705E+00
 -1      1802 1.85474E+00
 -1      1803 2.13070E+00
 -1      1804 4.61524E+00
 -1      1805 1.26426E+00
 -1      1806 1.90223E+00
 -1      1807 1.48708E+00
 -1      1808 2.98629E+00
 -1      1809 1.48454E+00
 -1      1810 9.69295E-01
 -1      1811 7.82889E-01
 -1      1812 6.26356E-01
 -1      1813 1.01049E+00
 -1      1814 5.53877E-01
 -1      1815 6.30328E-01
 -1      1816 7.51610E-01
 -1      1817 5.95428E-01
 -1      1818 7.10142E-01
 -1      1819 6.44232E-01
 -1      1820 7.54048E-01
 -1      1821 8.61669E-01
 -1      1822 6.53238E-01
 -1      1823 1.11660E+00
 -1      1824 1.42498E+00
 -1      1825 9.52079E-01
 -1      1826 1.68537E+00
 -1      1827 2.13474E+00
 -1      1828 1.46740E+00
 -1      1829 2.36575E+00
 -1      1830 2.90017E+00
 -1      1831 1.95879E+00
 -1      1832 3.00799E+00
 -1      1833 3.11373E+00
 -1      1834 2.29762E+00
 -1      1835 3.08199E+00
 -1      1836 3.11860E+00
 -1      1837 2.37370E+00
 -1      1838 3.13512E+00
 -1      1839 2.80230E+00
 -1      1840 2.35848E+00
 -1      1841 2.57274E+00
 -1      1842 1.99426E+00
 -1      1843 2.14543E+00
 -1      1844 1.75705E+00
 -1      1845 1.44815E+00
 -1      1846 1.67866E+00
 -1      1847 1.15685E+00
 -1      1848 1.03830E+00
 -1      1849 1.15015E+00
 -1      1850 9.64133E-01
 -1      1851 9.70811E-01
 -1      1852 7.84686E-01
 -1      1853 9.80551E-01
 -1      1854 9.64830E-01
 -1      1855 7.20263E-01
 -1      1856 1.04552E+00
 -1      1857 1.02660E+00
 -1      1858 8.10695E-01
 -1      1859 1.03046E+00
 -1      1860 9.53681E-01
 -1      1861 8.95244E-01
 -1      1862 9.12468E-01
 -1      1863 8.25134E-01
 -1      1864 8.57888E-01
 -1      1865 7.80627E-01
 -1      1866 7.18946E-01
 -1      1867 7.72169E-01
 -1      1868 6.78752E-01
 -1      1869 6.25008E-01
 -1      1870 6.87469E-01
 -1      1871 5.76287E-01
 -1      1872 5.18267E-01
 -1      1873 5.98554E-01
 -1      1874 4.67105E-01
 -1      1875 4.12112E-01
 -1      1876 4.98671E-01
 -1      1877 3.63993E-01
 -1      1878 3.18867E-01
 -1      1879 3.99392E-01
 -1      1880 2.76655E-01
 -1      1881 2.44939E-01
 -1      1882 3.09062E-01
 -1      1883 2.09703E-01
 -1      1884 1.85442E-01
 -1      1885 2.31615E-01
 -1      1886 1.57146E-01
 -1      1887 1.36476E-01
 -1      1888 1.68084E-01
 -1      1889 1.16161E-01
 -1      1890 9.91579E-02
 -1      1891 1.19473E-01
 -1      1892 8.55669E-02
 -1      1893 7.66508E-02
 -1      1894 8.55669E-02
 -1      1895 6.67100E-02
 -1      1896 5.89935E-02
 -1      1897 6.20352E-02
 -1      1898 5.32543E-02
 -1      1899 4.64478E-02
 -1      1900 4.63551E-02
 -1      1901 4.30229E-02
 -1      1902 3.72158E-02
 -1      1903 3.71910E-02
 -1      1904 3.40578E-02
 -1      1905 2.92339E-02
 -1      1906 3.06080E-02
 -1      1907 2.64383E-02
 -1      1908 2.29740E-02
 -1      1909 2.46544E-02
 -1      1910 2.05745E-02
 -1      1911 1.80449E-02
 -1      1912 1.94593E-02
 -1      1913 1.61891E-02
 -1      1914 1.44460E-02
 -1      1915 1.52039E-02
 -1      1916 1.34157E-02
 -1      1917 1.18607E-02
 -1      1918 1.23179E-02
 -1      1919 1.09112E-02
 -1      1920 9.60891E-03
 -1      1921 1.03381E-02
 -1      1922 8.71799E-03
 -1      1923 7.71180E-03
 -1      1924 8.49772E-03
 -1      1925 6.96026E-03
 -1      1926 6.10372E-03
 -1      1927 6.85527E-03
 -1      1928 5.46787E-03
 -1      1929 4.81880E-03
 -1      1930 5.46787E-03
 -1      1931 4.25793E-03
 -1      1932 3.67718E-03
 -1      1933 4.27114E-03
 -1      1934 3.24929E-03
 -1      1935 2.80516E-03
 -1      1936 3.28237E-03
 -1      1937 2.42640E-03
 -1      1938 2.17650E-03
 -1      1939 2.47571E-03
 -1      1940 1.90776E-03
 -1      1941 1.62042E-03
 -1      1942 1.82821E-03
 -1      1943 1.40061E-03
 -1      1944 1.19817E-03
 -1      1945 8.95469E-04
 -1      1946 1.33965E-03
 -1      1947 8.27894E-01
 -1      1948 1.10990E+00
 -1      1949 1.10424E+00
 -1      1950 6.75327E-01
 -1      1951 7.73647E-01
 -1      1952 8.95636E-01
 -1      1953 7.30033E-01
 -1      1954 6.01396E-01
 -1      1955 7.67459E-01
 -1      1956 8.64734E-01
 -1      1957 7.13046E-01
 -1      1958 6.76543E-01
 -1      1959 1.15461E+00
 -1      1960 9.97474E-01
 -1      1961 7.92296E-01
 -1      1962 1.64403E+00
 -1      1963 1.50457E+00
 -1      1964 1.27500E+00
 -1      1965 2.20567E+00
 -1      1966 1.90764E+00
 -1      1967 1.88857E+00
 -1      1968 2.76280E+00
 -1      1969 2.27405E+00
 -1      1970 2.22055E+00
 -1      1971 3.00553E+00
 -1      1972 2.69032E+00
 -1      1973 2.21644E+00
 -1      1974 3.43087E+00
 -1      1975 3.15437E+00
 -1      1976 2.29280E+00
 -1      1977 3.15744E+00
 -1      1978 3.43254E+00
 -1      1979 2.44331E+00
 -1      1980 2.06025E+00
 -1      1981 2.80797E+00
 -1      1982 2.09551E+00
 -1      1983 1.24057E+00
 -1      1984 1.67463E+00
 -1      1985 1.36041E+00
 -1      1986 9.21011E-01
 -1      1987 1.09935E+00
 -1      1988 8.33567E-01
 -1      1989 1.08962E+00
 -1      1990 1.05152E+00
 -1      1991 8.22848E-01
 -1      1992 1.24039E+00
 -1      1993 1.13588E+00
 -1      1994 9.99607E-01
 -1      1995 1.24522E+00
 -1      1996 1.25307E+00
 -1      1997 1.05854E+00
 -1      1998 1.13980E+00
 -1      1999 1.21887E+00
 -1      2000 1.04487E+00
 -1      2001 9.87432E-01
 -1      2002 1.08703E+00
 -1      2003 9.65743E-01
 -1      2004 8.42136E-01
 -1      2005 9.31823E-01
 -1      2006 8.57364E-01
 -1      2007 6.93896E-01
 -1      2008 7.75640E-01
 -1      2009 7.35259E-01
 -1      2010 5.49572E-01
 -1      2011 6.27336E-01
 -1      2012 6.02203E-01
 -1      2013 4.20660E-01
 -1      2014 4.89051E-01
 -1      2015 4.75121E-01
 -1      2016 3.11965E-01
 -1      2017 3.68941E-01
 -1      2018 3.62881E-01
 -1      2019 2.28696E-01
 -1      2020 2.69700E-01
 -1      2021 2.68897E-01
 -1      2022 1.71089E-01
 -1      2023 2.00128E-01
 -1      2024 1.98064E-01
 -1      2025 1.26515E-01
 -1      2026 1.49599E-01
 -1      2027 1.48006E-01
 -1      2028 9.22404E-02
 -1      2029 1.09378E-01
 -1      2030 1.09378E-01
 -1      2031 6.55409E-02
 -1      2032 7.88907E-02
 -1      2033 7.88907E-02
 -1      2034 4.61969E-02
 -1      2035 5.53633E-02
 -1      2036 5.53633E-02
 -1      2037 3.45295E-02
 -1      2038 3.85998E-02
 -1      2039 3.75887E-02
 -1      2040 2.86337E-02
 -1      2041 3.23428E-02
 -1      2042 2.78049E-02
 -1      2043 2.33741E-02
 -1      2044 2.66263E-02
 -1      2045 2.36108E-02
 -1      2046 1.86958E-02
 -1      2047 2.14646E-02
 -1      2048 1.96939E-02
 -1      2049 1.57392E-02
 -1      2050 1.69642E-02
 -1      2051 1.60529E-02
 -1      2052 1.30318E-02
 -1      2053 1.42217E-02
 -1      2054 1.28037E-02
 -1      2055 1.09210E-02
 -1      2056 1.21074E-02
 -1      2057 1.03619E-02
 -1      2058 9.09054E-03
 -1      2059 1.02022E-02
 -1      2060 8.71870E-03
 -1      2061 7.37915E-03
 -1      2062 8.38049E-03
 -1      2063 7.28982E-03
 -1      2064 5.96676E-03
 -1      2065 6.78618E-03
 -1      2066 5.98679E-03
 -1      2067 4.77862E-03
 -1      2068 5.47922E-03
 -1      2069 4.90628E-03
 -1      2070 3.69601E-03
 -1      2071 4.31884E-03
 -1      2072 3.95896E-03
 -1      2073 2.76335E-03
 -1      2074 3.27558E-03
 -1      2075 3.07875E-03
 -1      2076 2.08334E-03
 -1      2077 2.39684E-03
 -1      2078 2.29180E-03
 -1      2079 1.54595E-03
 -1      2080 1.85860E-03
 -1      2081 1.70055E-03
 -1      2082 9.47091E-04
 -1      2083 1.28159E-03
 -1      2084 1.21145E-03
 -1      2085 7.33129E-04
 -1      2086 4.34861E-04
 -1      2087 5.01718E-04
 -1      2088 7.36917E-04
 -1      2089 7.68716E-04
 -1      2090 7.83066E-04
 -1      2091 7.68716E-04
 -1      2092 7.68716E-04
 -1      2093 9.82678E-04
 -1      2094 1.01827E-03
 -1      2095 5.92817E-04
 -1      2096 4.99393E-04
 -1      2097 6.12398E-04
 -1      2098 7.33403E-04
 -1      2099 6.75958E-04
 -1      2100 7.60071E-04
 -1      2101 7.90769E-04
 -1      2102 7.68566E-04
 -1      2103 8.78376E-04
 -1      2104 7.90769E-04
 -1      2105 7.90769E-04
 -1      2106 9.13539E-04
 -1      2107 7.89322E-04
 -1      2108 7.89457E-04
 -1      2109 9.12227E-04
 -1      2110 7.65210E-04
 -1      2111 7.89322E-04
 -1      2112 9.10914E-04
 -1      2113 6.74895E-04
 -1      2114 7.30980E-04
 -1      2115 8.76684E-04
 -1      2116 5.00037E-04
 -1      2117 5.91482E-04
 -1      2118 7.59041E-04
 -1      2119 4.93029E-04
 -1      2120 4.29270E-04
 -1      2121 6.04861E-04
 -1      2122 6.70831E-04
 -1      2123 6.70831E-04
 -1      2124 7.11896E-04
 -1      2125 3.79495E+01
 -1      2126 2.84154E+01
 -1      2127 3.23907E+01
 -1      2128 3.23907E+01
 -1      2129 3.04129E+01
 -1      2130 3.23907E+01
 -1      2131 3.24103E+01
 -1      2132 1.88918E+01
 -1      2133 3.18173E+01
 -1      2134 1.09053E+01
 -1      2135 1.56955E+01
 -1      2136 2.00787E+00
 -1      2137 2.20183E+00
 -1      2138 2.14482E+00
 -1      2139 1.91306E+00
 -1      2140 1.11689E+01
 -1      2141 1.10476E+01
 -1      2142 1.12789E+01
 -1      2143 1.12968E+01
 -1      2144 1.19651E+01
 -1      2145 1.13725E+01
 -1      2146 1.04966E+01
 -1      2147 1.12547E+01
 -1      2148 1.00945E+01
 -1      2149 9.35589E+00
 -1      2150 8.18490E+00
 -1      2151 2.09477E+01
 -1      2152 1.26242E+01
 -1      2153 2.69311E+01
 -1      2154 2.51009E+01
 -1      2155 3.34523E+01
 -1      2156 3.34523E+01
 -1      2157 3.39786E+01
 -1      2158 3.60406E+01
 -1      2159 3.39786E+01
 -1      2160 3.39786E+01
 -1      2161 3.16537E+01
 -1      2162 2.79063E+01
 -1      2163 3.47868E+01
 -1      2164 3.11585E+01
 -1      2165 1.63299E+01
 -1      2166 2.96626E+01
 -1      2167 9.84059E+00
 -1      2168 1.29628E+01
 -1      2169 1.04995E+01
 -1      2170 9.70775E+00
 -1      2171 1.16247E+01
 -1      2172 1.17075E+01
 -1      2173 1.15034E+01
 -1      2174 1.18565E+01
 -1      2175 1.11265E+01
 -1      2176 1.11154E+01
 -1      2177 1.07370E+01
 -1      2178 9.92878E+00
 -1      2179 1.02956E+01
 -1      2180 9.25181E+00
 -1      2181 9.01742E+00
 -1      2182 1.77989E+01
 -1      2183 1.10834E+01
 -1      2184 3.32160E+01
 -1      2185 2.14446E+01
 -1      2186 3.04042E+01
 -1      2187 3.95085E+01
 -1      2188 3.16745E+01
 -1      2189 3.06910E+01
 -1      2190 3.06910E+01
 -1      2191 9.63494E+00
 -1      2192 9.76510E+00
 -1      2193 8.61841E+00
 -1      2194 2.26706E+00
 -1      2195 8.89089E+00
 -1      2196 1.97942E+00
 -1      2197 3.04129E+01
 -1      2198 1.53867E+01
 -1      2199 3.10529E+01
 -1      2200 2.15188E+01
 -1      2201 7.80400E-04
 -1      2202 3.16941E+01
 -1      2203 1.29549E+01
 -1      2204 2.41117E+01
 -1      2205 1.41734E+01
 -1      2206 8.69602E+00
 -1      2207 9.51805E+00
 -1      2208 1.08931E+01
 -1      2209 9.45336E+00
 -1      2210 8.37825E+00
 -1      2211 1.18782E+01
 -1      2212 2.03695E+01
 -1      2213 2.59890E+01
 -1      2214 3.25565E+01
 -1      2215 3.86288E+01
 -1      2216 3.60406E+01
 -1      2217 2.69311E+01
 -1      2218 9.57385E+00
 -1      2219 1.00361E+01
 -1      2220 1.04315E+01
 -1      2221 1.06530E+01
 -1      2222 1.62568E+01
 -1      2223 7.77577E+00
 -1      2224 1.40623E+00
 -1      2225 1.56059E+00
 -1      2226 1.40416E+00
 -1      2227 1.48452E+00
 -1      2228 1.48452E+00
 -1      2229 1.51877E+00
 -1      2230 1.52767E+00
 -1      2231 8.69795E-01
 -1      2232 9.57913E-01
 -1      2233 1.19812E+00
 -1      2234 9.52683E-01
 -1      2235 1.09636E+00
 -1      2236 1.55672E+00
 -1      2237 1.40657E+00
 -1      2238 1.38770E+00
 -1      2239 1.64071E+00
 -1      2240 1.59057E+00
 -1      2241 1.63000E+00
 -1      2242 1.71362E+00
 -1      2243 1.64071E+00
 -1      2244 1.66385E+00
 -1      2245 1.99415E+00
 -1      2246 1.87877E+00
 -1      2247 1.82900E+00
 -1      2248 1.02706E+00
 -1      2249 1.08130E+00
 -1      2250 1.53765E+00
 -1      2251 1.30772E+00
 -1      2252 1.12131E+00
 -1      2253 7.64168E+00
 -1      2254 6.22902E+00
 -1      2255 9.74101E-01
 -1      2256 9.01623E-01
 -1      2257 1.27132E+00
 -1      2258 8.64821E-01
 -1      2259 8.29921E-01
 -1      2260 1.08731E+00
 -1      2261 8.77564E-01
 -1      2262 9.21469E-01
 -1      2263 1.09815E+00
 -1      2264 1.01317E+00
 -1      2265 1.26810E+00
 -1      2266 1.23749E+00
 -1      2267 1.40427E+00
 -1      2268 1.66466E+00
 -1      2269 1.46536E+00
 -1      2270 1.72723E+00
 -1      2271 1.95824E+00
 -1      2272 1.66411E+00
 -1      2273 2.21401E+00
 -1      2274 2.32183E+00
 -1      2275 1.98245E+00
 -1      2276 2.52113E+00
 -1      2277 2.48939E+00
 -1      2278 2.43752E+00
 -1      2279 2.54608E+00
 -1      2280 2.56260E+00
 -1      2281 2.69351E+00
 -1      2282 2.16784E+00
 -1      2283 1.93828E+00
 -1      2284 2.35544E+00
 -1      2285 1.82664E+00
 -1      2286 1.58943E+00
 -1      2287 1.84904E+00
 -1      2288 1.46295E+00
 -1      2289 1.17165E+00
 -1      2290 1.61093E+00
 -1      2291 1.12175E+00
 -1      2292 1.04758E+00
 -1      2293 1.43454E+00
 -1      2294 8.86590E-01
 -1      2295 8.96330E-01
 -1      2296 1.22365E+00
 -1      2297 8.68473E-01
 -1      2298 9.49165E-01
 -1      2299 1.03480E+00
 -1      2300 9.17596E-01
 -1      2301 9.21453E-01
 -1      2302 9.75374E-01
 -1      2303 8.69613E-01
 -1      2304 8.28400E-01
 -1      2305 8.91965E-01
 -1      2306 7.92133E-01
 -1      2307 7.47627E-01
 -1      2308 8.03858E-01
 -1      2309 7.09851E-01
 -1      2310 6.69657E-01
 -1      2311 7.29815E-01
 -1      2312 6.21901E-01
 -1      2313 5.73180E-01
 -1      2314 6.44284E-01
 -1      2315 5.22461E-01
 -1      2316 4.71299E-01
 -1      2317 5.45808E-01
 -1      2318 4.22803E-01
 -1      2319 3.74685E-01
 -1      2320 4.46592E-01
 -1      2321 3.31288E-01
 -1      2322 2.89076E-01
 -1      2323 3.54699E-01
 -1      2324 2.52021E-01
 -1      2325 2.16785E-01
 -1      2326 2.74247E-01
 -1      2327 1.86265E-01
 -1      2328 1.57969E-01
 -1      2329 2.06671E-01
 -1      2330 1.33565E-01
 -1      2331 1.13250E-01
 -1      2332 1.51746E-01
 -1      2333 9.42397E-02
 -1      2334 8.06487E-02
 -1      2335 1.08332E-01
 -1      2336 6.61964E-02
 -1      2337 5.62555E-02
 -1      2338 7.48691E-02
 -1      2339 4.55314E-02
 -1      2340 3.97922E-02
 -1      2341 4.96926E-02
 -1      2342 3.35363E-02
 -1      2343 3.01114E-02
 -1      2344 3.27127E-02
 -1      2345 2.67452E-02
 -1      2346 2.35872E-02
 -1      2347 2.30906E-02
 -1      2348 2.24124E-02
 -1      2349 1.96168E-02
 -1      2350 1.85497E-02
 -1      2351 1.83436E-02
 -1      2352 1.59440E-02
 -1      2353 1.61016E-02
 -1      2354 1.46887E-02
 -1      2355 1.28329E-02
 -1      2356 1.35730E-02
 -1      2357 1.16648E-02
 -1      2358 1.06346E-02
 -1      2359 1.11496E-02
 -1      2360 9.66177E-03
 -1      2361 8.71228E-03
 -1      2362 9.00871E-03
 -1      2363 8.16594E-03
 -1      2364 7.27503E-03
 -1      2365 7.48959E-03
 -1      2366 6.70041E-03
 -1      2367 5.94887E-03
 -1      2368 6.36863E-03
 -1      2369 5.38833E-03
 -1      2370 4.75248E-03
 -1      2371 5.23347E-03
 -1      2372 4.27746E-03
 -1      2373 3.71658E-03
 -1      2374 4.19791E-03
 -1      2375 3.29087E-03
 -1      2376 2.86297E-03
 -1      2377 3.29718E-03
 -1      2378 2.48541E-03
 -1      2379 2.10665E-03
 -1      2380 2.49391E-03
 -1      2381 1.82708E-03
 -1      2382 1.55834E-03
 -1      2383 1.83678E-03
 -1      2384 8.66731E-01
 -1      2385 8.83717E-01
 -1      2386 1.13211E+00
 -1      2387 9.99371E-01
 -1      2388 1.20655E+00
 -1      2389 1.60926E+00
 -1      2390 1.25930E+00
 -1      2391 1.46638E+00
 -1      2392 2.02313E+00
 -1      2393 1.75952E+00
 -1      2394 1.74382E+00
 -1      2395 2.31388E+00
 -1      2396 2.24550E+00
 -1      2397 2.11646E+00
 -1      2398 2.57219E+00
 -1      2399 2.64467E+00
 -1      2400 2.66962E+00
 -1      2401 2.68905E+00
 -1      2402 2.54022E+00
 -1      2403 2.96844E+00
 -1      2404 2.35812E+00
 -1      2405 2.35645E+00
 -1      2406 2.60387E+00
 -1      2407 1.78605E+00
 -1      2408 2.13552E+00
 -1      2409 2.04866E+00
 -1      2410 1.25688E+00
 -1      2411 1.64250E+00
 -1      2412 1.68251E+00
 -1      2413 1.06072E+00
 -1      2414 1.20194E+00
 -1      2415 1.48403E+00
 -1      2416 1.05290E+00
 -1      2417 9.22397E-01
 -1      2418 1.29077E+00
 -1      2419 1.11788E+00
 -1      2420 1.07162E+00
 -1      2421 1.17117E+00
 -1      2422 1.09680E+00
 -1      2423 1.08411E+00
 -1      2424 1.15613E+00
 -1      2425 1.01422E+00
 -1      2426 1.04058E+00
 -1      2427 1.06615E+00
 -1      2428 9.24439E-01
 -1      2429 9.77208E-01
 -1      2430 9.72920E-01
 -1      2431 8.18360E-01
 -1      2432 8.73969E-01
 -1      2433 8.85435E-01
 -1      2434 6.88969E-01
 -1      2435 7.55465E-01
 -1      2436 7.72070E-01
 -1      2437 5.57611E-01
 -1      2438 6.24171E-01
 -1      2439 6.44377E-01
 -1      2440 4.36723E-01
 -1      2441 4.97244E-01
 -1      2442 5.19212E-01
 -1      2443 3.32234E-01
 -1      2444 3.83952E-01
 -1      2445 4.06075E-01
 -1      2446 2.45860E-01
 -1      2447 2.88125E-01
 -1      2448 3.09196E-01
 -1      2449 1.81664E-01
 -1      2450 2.10231E-01
 -1      2451 2.29460E-01
 -1      2452 1.32193E-01
 -1      2453 1.53684E-01
 -1      2454 1.65851E-01
 -1      2455 9.36210E-02
 -1      2456 1.10758E-01
 -1      2457 1.16436E-01
 -1      2458 6.42327E-02
 -1      2459 7.75825E-02
 -1      2460 7.89631E-02
 -1      2461 4.42040E-02
 -1      2462 5.43815E-02
 -1      2463 5.30734E-02
 -1      2464 3.02787E-02
 -1      2465 3.78758E-02
 -1      2466 3.68940E-02
 -1      2467 2.56182E-02
 -1      2468 2.78049E-02
 -1      2469 2.80920E-02
 -1      2470 2.16034E-02
 -1      2471 2.36108E-02
 -1      2472 2.36108E-02
 -1      2473 1.77845E-02
 -1      2474 1.96939E-02
 -1      2475 1.96939E-02
 -1      2476 1.43212E-02
 -1      2477 1.60529E-02
 -1      2478 1.60529E-02
 -1      2479 1.12862E-02
 -1      2480 1.28037E-02
 -1      2481 1.28037E-02
 -1      2482 9.43751E-03
 -1      2483 1.03619E-02
 -1      2484 1.03619E-02
 -1      2485 7.99988E-03
 -1      2486 8.71870E-03
 -1      2487 8.71870E-03
 -1      2488 6.57977E-03
 -1      2489 7.28982E-03
 -1      2490 7.28982E-03
 -1      2491 5.33756E-03
 -1      2492 5.93053E-03
 -1      2493 5.93053E-03
 -1      2494 4.30738E-03
 -1      2495 4.79492E-03
 -1      2496 4.73866E-03
 -1      2497 3.35960E-03
 -1      2498 3.81939E-03
 -1      2499 3.70802E-03
 -1      2500 2.54573E-03
 -1      2501 2.96617E-03
 -1      2502 2.82659E-03
 -1      2503 1.85124E-03
 -1      2504 2.21776E-03
 -1      2505 2.10518E-03
 -1      2506 1.37671E-03
 -1      2507 1.60145E-03
 -1      2508 1.52741E-03
 -1      2509 1.24703E-03
 -1      2510 9.45969E-04
 -1      2511 8.62828E-04
 -1      2512 1.03412E-03
 -1      2513 9.98953E-04
 -1      2514 1.10171E-03
 -1      2515 8.27350E-04
 -1      2516 1.06255E-03
 -1      2517 7.92311E-04
 -1      2518 7.27779E-04
 -1      2519 1.00726E-03
 -1      2520 9.78209E-04
 -1      2521 1.03412E-03
 -1      2522 1.03412E-03
 -1      2523 1.15469E-03
 -1      2524 1.02825E-03
 -1      2525 1.02956E-03
 -1      2526 1.15014E-03
 -1      2527 1.03231E-03
 -1      2528 1.03231E-03
 -1      2529 1.14964E-03
 -1      2530 9.98076E-04
 -1      2531 1.03231E-03
 -1      2532 1.15370E-03
 -1      2533 8.68724E-04
 -1      2534 9.52137E-04
 -1      2535 1.10776E-03
 -1      2536 7.01694E-04
 -1      2537 7.72461E-04
 -1      2538 9.65557E-04
 -1      2539 8.79496E-04
 -1      2540 7.01694E-04
 -1      2541 8.69294E-04
 -1      2542 1.00477E-03
 -1      2543 3.16941E+01
 -1      2544 3.09778E+01
 -1      2545 9.39745E-01
 -1      2546 1.01368E+00
 -1      2547 1.12993E+00
 -1      2548 3.24103E+01
 -1      2549 3.24103E+01
 -1      2550 2.20343E+01
 -1      2551 1.57417E+01
 -1      2552 8.81963E+00
 -1      2553 1.20159E+01
 -1      2554 2.48101E+01
 -1      2555 2.68076E+01
 -1      2556 2.68076E+01
 -1      2557 9.40679E+00
 -1      2558 9.17497E+00
 -1      2559 8.14667E+00
 -1      2560 8.85713E+00
 -1      2561 1.12264E+00
 -1      2562 1.31179E+00
 -1      2563 1.43530E+00
 -1      2564 1.17820E+00
 -1      2565 9.88388E+00
 -1      2566 9.79030E+00
 -1      2567 1.51024E+01
 -1      2568 1.09492E+01
 -1      2569 9.26645E+00
 -1      2570 9.13853E+00
 -1      2571 8.49734E+00
 -1      2572 5.29258E+00
 -1      2573 6.43333E+00
 -1      2574 5.51695E+00
 -1      2575 6.42832E+00
 -1      2576 9.41539E+00
 -1      2577 6.88569E+00
 -1      2578 2.41205E+01
 -1      2579 1.75994E+01
 -1      2580 3.07402E+01
 -1      2581 2.81520E+01
 -1      2582 3.86288E+01
 -1      2583 3.86288E+01
 -1      2584 2.64841E+01
 -1      2585 3.25565E+01
 -1      2586 3.25565E+01
 -1      2587 2.20269E+01
 -1      2588 2.25221E+01
 -1      2589 1.33226E+01
 -1      2590 1.84469E+01
 -1      2591 1.49800E+01
 -1      2592 7.98781E+00
 -1      2593 1.13549E+01
 -1      2594 6.28895E+00
 -1      2595 6.42179E+00
 -1      2596 5.89851E+00
 -1      2597 7.90387E+00
 -1      2598 6.69592E+00
 -1      2599 9.03978E+00
 -1      2600 9.42778E+00
 -1      2601 7.42722E+00
 -1      2602 8.25813E+00
 -1      2603 6.94895E+00
 -1      2604 8.65427E+00
 -1      2605 6.82266E+00
 -1      2606 5.47520E+00
 -1      2607 1.31108E+01
 -1      2608 9.46507E+00
 -1      2609 1.10334E+01
 -1      2610 2.46575E+01
 -1      2611 2.43707E+01
 -1      2612 2.53909E+00
 -1      2613 1.75657E+00
 -1      2614 1.86738E+00
 -1      2615 2.14482E+00
 -1      2616 1.62638E+00
 -1      2617 1.85486E+00
 -1      2618 1.99403E+00
 -1      2619 1.92837E+00
 -1      2620 6.42275E+00
 -1      2621 7.56293E+00
 -1      2622 5.25435E+00
 -1      2623 1.92195E+00
 -1      2624 1.91306E+00
 -1      2625 2.31624E+00
 -1      2626 1.19934E+00
 -1      2627 1.99415E+00
 -1      2628 5.17354E+00
 -1      2629 2.46575E+01
 -1      2630 1.21964E+01
 -1      2631 1.14319E+01
 -1      2632 8.06117E+00
 -1      2633 1.14794E-03
 -1      2634 1.60008E+01
 -1      2635 1.14794E-03
 -1      2636 2.31624E+00
 -1      2637 1.04895E-03
 -1      2638 9.33884E-04
 -1      2639 9.23682E-04
 -1      2640 1.26877E-03
 -1      2641 1.30575E+01
 -1      2642 1.99541E+01
 -1      2643 1.63488E+01
 -1      2644 5.16840E+00
 -1      2645 3.16941E+01
 -1      2646 1.99415E+00
 -1      2647 6.93111E+00
 -1      2648 8.41745E+00
 -1      2649 5.66000E+00
 -1      2650 1.19222E-03
 -1      2651 4.73946E+00
 -1      2652 7.70961E+00
 -1      2653 1.12758E+01
 -1      2654 9.35315E+00
 -1      2655 7.38542E+00
 -1      2656 2.14531E+01
 -1      2657 2.14531E+01
 -1      2658 1.74911E+01
 -1      2659 3.07402E+01
 -1      2660 7.99444E+00
 -1      2661 1.88202E+01
 -1      2662 8.26101E+00
 -1      2663 7.59171E+00
 -1      2664 6.62398E+00
 -1      2665 6.47666E+00
 -1      2666 1.22918E+01
 -1      2667 5.13412E+00
 -1      2668 1.26764E-03
 -1      2669 1.69620E+00
 -1      2670 1.48775E+00
 -1      2671 1.42014E+00
 -1      2672 1.33725E+00
 -1      2673 1.72864E+00
 -1      2674 1.78385E+00
 -1      2675 1.78385E+00
 -1      2676 1.87151E+00
 -1      2677 1.70635E+00
 -1      2678 1.82635E+00
 -1      2679 1.53511E+00
 -1      2680 1.86004E+00
 -1      2681 1.19934E+00
 -1      2682 1.21272E+00
 -1      2683 1.53511E+00
 -1      2684 1.92837E+00
 -1      2685 2.25680E+01
 -1      2686 1.62477E+01
 -1      2687 1.33281E+00
 -1      2688 1.29601E+00
 -1      2689 1.35070E+00
 -1      2690 1.39834E+00
 -1      2691 1.59620E+00
 -1      2692 1.52007E+00
 -1      2693 1.61176E+00
 -1      2694 1.77261E+00
 -1      2695 1.78639E+00
 -1      2696 1.92256E+00
 -1      2697 2.06896E+00
 -1      2698 1.73553E+00
 -1      2699 1.79810E+00
 -1      2700 2.05655E+00
 -1      2701 1.99122E+00
 -1      2702 2.24699E+00
 -1      2703 2.06264E+00
 -1      2704 3.36983E+00
 -1      2705 3.56914E+00
 -1      2706 3.37861E+00
 -1      2707 4.02893E+00
 -1      2708 4.08561E+00
 -1      2709 4.96124E+00
 -1      2710 3.76512E+00
 -1      2711 3.37036E+00
 -1      2712 5.10054E+00
 -1      2713 2.74694E+00
 -1      2714 2.63531E+00
 -1      2715 4.15662E+00
 -1      2716 2.26490E+00
 -1      2717 2.13842E+00
 -1      2718 3.16280E+00
 -1      2719 2.34247E+00
 -1      2720 2.29257E+00
 -1      2721 2.99644E+00
 -1      2722 2.15763E+00
 -1      2723 1.99664E+00
 -1      2724 3.06555E+00
 -1      2725 1.75248E+00
 -1      2726 1.72462E+00
 -1      2727 2.68646E+00
 -1      2728 1.47649E+00
 -1      2729 1.44492E+00
 -1      2730 2.19416E+00
 -1      2731 1.27321E+00
 -1      2732 1.22137E+00
 -1      2733 1.77432E+00
 -1      2734 1.12436E+00
 -1      2735 1.08810E+00
 -1      2736 1.50561E+00
 -1      2737 9.79937E-01
 -1      2738 9.42162E-01
 -1      2739 1.30044E+00
 -1      2740 8.37739E-01
 -1      2741 7.89983E-01
 -1      2742 1.08786E+00
 -1      2743 6.95796E-01
 -1      2744 6.45076E-01
 -1      2745 8.89252E-01
 -1      2746 5.63357E-01
 -1      2747 5.14861E-01
 -1      2748 7.13345E-01
 -1      2749 4.45801E-01
 -1      2750 4.02404E-01
 -1      2751 5.62566E-01
 -1      2752 3.45246E-01
 -1      2753 3.08190E-01
 -1      2754 4.36348E-01
 -1      2755 2.61744E-01
 -1      2756 2.31223E-01
 -1      2757 3.32743E-01
 -1      2758 1.94131E-01
 -1      2759 1.69727E-01
 -1      2760 2.49204E-01
 -1      2761 1.40607E-01
 -1      2762 1.21596E-01
 -1      2763 1.82992E-01
 -1      2764 9.91241E-02
 -1      2765 8.46717E-02
 -1      2766 1.31399E-01
 -1      2767 6.76379E-02
 -1      2768 5.69138E-02
 -1      2769 9.18929E-02
 -1      2770 4.42467E-02
 -1      2771 3.79908E-02
 -1      2772 6.21920E-02
 -1      2773 2.87681E-02
 -1      2774 2.54019E-02
 -1      2775 4.03021E-02
 -1      2776 1.88487E-02
 -1      2777 1.76739E-02
 -1      2778 2.45261E-02
 -1      2779 1.37489E-02
 -1      2780 1.24756E-02
 -1      2781 1.40479E-02
 -1      2782 1.22188E-02
 -1      2783 1.09635E-02
 -1      2784 9.86614E-03
 -1      2785 1.04888E-02
 -1      2786 9.32069E-03
 -1      2787 9.13460E-03
 -1      2788 8.74078E-03
 -1      2789 7.76799E-03
 -1      2790 8.07997E-03
 -1      2791 7.42734E-03
 -1      2792 6.88100E-03
 -1      2793 7.15941E-03
 -1      2794 6.63226E-03
 -1      2795 6.05764E-03
 -1      2796 6.57002E-03
 -1      2797 5.67116E-03
 -1      2798 5.11062E-03
 -1      2799 5.93479E-03
 -1      2800 4.66091E-03
 -1      2801 4.18589E-03
 -1      2802 5.09859E-03
 -1      2803 3.72160E-03
 -1      2804 3.29588E-03
 -1      2805 4.18459E-03
 -1      2806 2.84005E-03
 -1      2807 2.46249E-03
 -1      2808 3.26447E-03
 -1      2809 2.20732E-03
 -1      2810 1.92775E-03
 -1      2811 2.55346E-03
 -1      2812 2.01590E+00
 -1      2813 1.88871E+00
 -1      2814 1.44166E+00
 -1      2815 1.30902E+00
 -1      2816 1.99119E+00
 -1      2817 2.95881E+00
 -1      2818 2.73643E+00
 -1      2819 4.62455E+00
 -1      2820 4.29376E+00
 -1      2821 4.91373E+00
 -1      2822 4.14800E+00
 -1      2823 4.17997E+00
 -1      2824 5.80410E+00
 -1      2825 2.93405E+00
 -1      2826 3.26665E+00
 -1      2827 4.47818E+00
 -1      2828 2.35197E+00
 -1      2829 2.57457E+00
 -1      2830 3.23736E+00
 -1      2831 2.04334E+00
 -1      2832 2.18689E+00
 -1      2833 2.71280E+00
 -1      2834 1.96561E+00
 -1      2835 2.02055E+00
 -1      2836 2.52492E+00
 -1      2837 1.70428E+00
 -1      2838 1.84260E+00
 -1      2839 2.37912E+00
 -1      2840 1.52024E+00
 -1      2841 1.50152E+00
 -1      2842 2.05335E+00
 -1      2843 1.32495E+00
 -1      2844 1.35871E+00
 -1      2845 1.68906E+00
 -1      2846 1.18719E+00
 -1      2847 1.24340E+00
 -1      2848 1.44599E+00
 -1      2849 1.05139E+00
 -1      2850 1.08841E+00
 -1      2851 1.26566E+00
 -1      2852 9.03774E-01
 -1      2853 9.54243E-01
 -1      2854 1.06973E+00
 -1      2855 7.52571E-01
 -1      2856 8.15466E-01
 -1      2857 8.84274E-01
 -1      2858 6.10519E-01
 -1      2859 6.75317E-01
 -1      2860 7.18713E-01
 -1      2861 4.84135E-01
 -1      2862 5.44502E-01
 -1      2863 5.75442E-01
 -1      2864 3.75957E-01
 -1      2865 4.28728E-01
 -1      2866 4.54017E-01
 -1      2867 2.86102E-01
 -1      2868 3.30211E-01
 -1      2869 3.52863E-01
 -1      2870 2.13302E-01
 -1      2871 2.48931E-01
 -1      2872 2.69945E-01
 -1      2873 1.55597E-01
 -1      2874 1.83577E-01
 -1      2875 2.03048E-01
 -1      2876 1.10771E-01
 -1      2877 1.32206E-01
 -1      2878 1.49931E-01
 -1      2879 7.66260E-02
 -1      2880 9.26646E-02
 -1      2881 1.08434E-01
 -1      2882 5.29955E-02
 -1      2883 6.28467E-02
 -1      2884 7.65482E-02
 -1      2885 3.63688E-02
 -1      2886 4.26970E-02
 -1      2887 5.24703E-02
 -1      2888 2.63484E-02
 -1      2889 2.88223E-02
 -1      2890 3.46252E-02
 -1      2891 1.89338E-02
 -1      2892 2.09412E-02
 -1      2893 2.16714E-02
 -1      2894 1.55341E-02
 -1      2895 1.74435E-02
 -1      2896 1.47739E-02
 -1      2897 1.31036E-02
 -1      2898 1.48353E-02
 -1      2899 1.25849E-02
 -1      2900 1.07717E-02
 -1      2901 1.22892E-02
 -1      2902 1.10716E-02
 -1      2903 9.01155E-03
 -1      2904 9.93591E-03
 -1      2905 9.42138E-03
 -1      2906 7.49351E-03
 -1      2907 8.21233E-03
 -1      2908 7.78637E-03
 -1      2909 6.26070E-03
 -1      2910 6.97076E-03
 -1      2911 6.46439E-03
 -1      2912 5.11573E-03
 -1      2913 5.76496E-03
 -1      2914 5.44590E-03
 -1      2915 4.10805E-03
 -1      2916 4.65069E-03
 -1      2917 4.48512E-03
 -1      2918 3.18632E-03
 -1      2919 3.67432E-03
 -1      2920 3.58635E-03
 -1      2921 2.43316E-03
 -1      2922 2.82659E-03
 -1      2923 2.79289E-03
 -1      2924 1.79687E-03
 -1      2925 2.12484E-03
 -1      2926 2.12484E-03
 -1      2927 1.39361E-03
 -1      2928 1.64340E-03
 -1      2929 1.66307E-03
 -1      2930 1.30822E-03
 -1      2931 1.49011E+01
 -1      2932 1.25647E+01
 -1      2933 1.27050E-03
 -1      2934 1.27506E-03
 -1      2935 3.84892E+00
 -1      2936 3.44196E+00
 -1      2937 1.26611E-03
 -1      2938 1.21313E-03
 -1      2939 1.27536E-03
 -1      2940 1.27131E-03
 -1      2941 1.39622E-03
 -1      2942 1.27506E-03
 -1      2943 1.27506E-03
 -1      2944 1.38648E-03
 -1      2945 1.39542E-03
 -1      2946 1.27536E-03
 -1      2947 1.27536E-03
 -1      2948 1.39702E-03
 -1      2949 1.21841E-03
 -1      2950 1.26435E-03
 -1      2951 1.38601E-03
 -1      2952 1.20938E-03
 -1      2953 1.30565E-03
 -1      2954 1.46223E-03
 -1      2955 1.14790E+00
 -1      2956 1.20393E+00
 -1      2957 1.21731E+00
 -1      2958 1.38301E+00
 -1      2959 5.22460E+00
 -1      2960 3.91889E+00
 -1      2961 2.31624E+00
 -1      2962 1.72507E+01
 -1      2963 2.28535E+01
 -1      2964 2.75515E+01
 -1      2965 1.96629E+01
 -1      2966 4.47477E+00
 -1      2967 5.47367E+00
 -1      2968 2.23445E+00
 -1      2969 2.08419E+00
 -1      2970 2.50653E+00
 -1      2971 3.07680E+00
 -1      2972 1.55612E+00
 -1      2973 1.40891E+00
 -1      2974 1.61760E+00
 -1      2975 4.00732E+00
 -1      2976 4.20105E+00
 -1      2977 9.97238E-04
 -1      2978 9.42850E-04
 -1      2979 1.28681E-03
 -1      2980 1.78385E+00
 -1      2981 1.75000E+00
 -1      2982 1.85005E+00
 -1      2983 1.90385E+00
 -1      2984 1.65074E+00
 -1      2985 1.65074E+00
 -1      2986 7.01612E+00
 -1      2987 6.20532E+00
 -1      2988 1.22524E+01
 -1      2989 9.75546E+00
 -1      2990 2.25503E+01
 -1      2991 2.18340E+01
 -1      2992 1.29934E+01
 -1      2993 1.78674E+01
 -1      2994 1.38359E+01
 -1      2995 5.43391E+00
 -1      2996 3.84081E+00
 -1      2997 7.88459E+00
 -1      2998 6.35081E+00
 -1      2999 7.84526E+00
 -1      3000 6.60818E+00
 -1      3001 7.63493E+00
 -1      3002 2.01040E+01
 -1      3003 2.61763E+01
 -1      3004 1.19917E+01
 -1      3005 1.55718E+01
 -1      3006 6.65325E+00
 -1      3007 6.63227E+00
 -1      3008 4.94191E+00
 -1      3009 6.50793E+00
 -1      3010 5.79416E+00
 -1      3011 6.57581E+00
 -1      3012 5.99758E+00
 -1      3013 4.50074E+00
 -1      3014 3.52824E+00
 -1      3015 4.59616E+00
 -1      3016 5.85286E+00
 -1      3017 1.05709E+01
 -1      3018 7.94000E+00
 -1      3019 1.64225E+00
 -1      3020 2.03654E+00
 -1      3021 1.76532E+00
 -1      3022 1.57415E+00
 -1      3023 1.25037E+00
 -1      3024 1.41510E+00
 -1      3025 1.92582E+00
 -1      3026 3.42993E+00
 -1      3027 1.34242E+01
 -1      3028 6.33876E+00
 -1      3029 6.51925E+00
 -1      3030 4.31094E+00
 -1      3031 1.65735E-03
 -1      3032 4.22417E+00
 -1      3033 9.55254E+00
 -1      3034 1.44086E+01
 -1      3035 1.04545E+01
 -1      3036 9.47130E+00
 -1      3037 1.28117E+01
 -1      3038 1.14991E-03
 -1      3039 1.35129E-03
 -1      3040 1.05034E-03
 -1      3041 6.66651E+00
 -1      3042 4.69060E+00
 -1      3043 7.19036E+00
 -1      3044 4.05137E+00
 -1      3045 5.10054E+00
 -1      3046 9.42850E-04
 -1      3047 5.49847E+00
 -1      3048 1.11631E+01
 -1      3049 9.59838E+00
 -1      3050 7.97284E+00
 -1      3051 1.50990E+01
 -1      3052 9.94490E+00
 -1      3053 1.88311E+01
 -1      3054 1.24509E+01
 -1      3055 1.38001E+01
 -1      3056 5.05750E+00
 -1      3057 2.26138E+00
 -1      3058 2.26138E+00
 -1      3059 1.81253E+00
 -1      3060 1.98168E+00
 -1      3061 1.12996E+01
 -1      3062 1.46786E+01
 -1      3063 6.42881E+00
 -1      3064 1.45028E+01
 -1      3065 1.57152E-03
 -1      3066 1.49796E-03
 -1      3067 1.83805E-03
 -1      3068 2.21246E-03
 -1      3069 1.80318E+00
 -1      3070 1.33958E-03
 -1      3071 1.26907E-03
 -1      3072 1.41171E-03
 -1      3073 1.50399E-03
 -1      3074 1.55837E+00
 -1      3075 1.65074E+00
 -1      3076 1.77381E+00
 -1      3077 1.63054E+00
 -1      3078 4.64901E+00
 -1      3079 6.55361E+00
 -1      3080 7.19036E+00
 -1      3081 3.85970E+00
 -1      3082 3.55990E+00
 -1      3083 1.95011E+00
 -1      3084 5.27324E+00
 -1      3085 5.27324E+00
 -1      3086 3.31571E+00
 -1      3087 3.71082E+00
 -1      3088 2.21031E+00
 -1      3089 2.28780E+00
 -1      3090 4.65944E+00
 -1      3091 4.14586E+00
 -1      3092 1.83730E+00
 -1      3093 1.76120E+00
 -1      3094 4.63841E+00
 -1      3095 3.65770E+00
 -1      3096 2.04607E+00
 -1      3097 2.16780E+00
 -1      3098 2.89509E+00
 -1      3099 3.06971E+00
 -1      3100 3.16855E+00
 -1      3101 2.69205E+00
 -1      3102 2.50501E+00
 -1      3103 3.51818E+00
 -1      3104 2.04958E+00
 -1      3105 2.24270E+00
 -1      3106 2.70054E+00
 -1      3107 3.82338E+00
 -1      3108 5.03868E+00
 -1      3109 5.49847E+00
 -1      3110 5.42103E+00
 -1      3111 5.10054E+00
 -1      3112 4.78004E+00
 -1      3113 4.15662E+00
 -1      3114 3.59015E+00
 -1      3115 3.21975E+00
 -1      3116 3.35894E+00
 -1      3117 3.56299E+00
 -1      3118 3.78629E+00
 -1      3119 3.20049E+00
 -1      3120 3.06555E+00
 -1      3121 3.56299E+00
 -1      3122 2.93062E+00
 -1      3123 2.68646E+00
 -1      3124 3.06555E+00
 -1      3125 2.44230E+00
 -1      3126 2.19416E+00
 -1      3127 2.68646E+00
 -1      3128 1.94603E+00
 -1      3129 1.77432E+00
 -1      3130 2.19416E+00
 -1      3131 1.57857E+00
 -1      3132 1.48157E+00
 -1      3133 1.75028E+00
 -1      3134 1.31323E+00
 -1      3135 1.20506E+00
 -1      3136 1.38619E+00
 -1      3137 1.08786E+00
 -1      3138 9.83438E-01
 -1      3139 1.10064E+00
 -1      3140 8.89252E-01
 -1      3141 7.95065E-01
 -1      3142 8.89252E-01
 -1      3143 7.13345E-01
 -1      3144 6.31625E-01
 -1      3145 7.13345E-01
 -1      3146 5.62566E-01
 -1      3147 4.93506E-01
 -1      3148 5.62566E-01
 -1      3149 4.36348E-01
 -1      3150 3.79189E-01
 -1      3151 4.36348E-01
 -1      3152 3.32743E-01
 -1      3153 2.86297E-01
 -1      3154 3.32743E-01
 -1      3155 2.49204E-01
 -1      3156 2.12112E-01
 -1      3157 2.49204E-01
 -1      3158 1.82992E-01
 -1      3159 1.53871E-01
 -1      3160 1.82992E-01
 -1      3161 1.31399E-01
 -1      3162 1.08927E-01
 -1      3163 1.31399E-01
 -1      3164 9.18929E-02
 -1      3165 7.48591E-02
 -1      3166 9.18929E-02
 -1      3167 6.21920E-02
 -1      3168 4.95248E-02
 -1      3169 6.21920E-02
 -1      3170 4.03021E-02
 -1      3171 3.10794E-02
 -1      3172 4.03021E-02
 -1      3173 2.45261E-02
 -1      3174 1.79729E-02
 -1      3175 2.45261E-02
 -1      3176 1.34519E-02
 -1      3177 9.52697E-03
 -1      3178 1.34519E-02
 -1      3179 7.78254E-03
 -1      3180 7.52572E-03
 -1      3181 7.18655E-03
 -1      3182 7.81883E-03
 -1      3183 7.34412E-03
 -1      3184 5.73523E-03
 -1      3185 7.74174E-03
 -1      3186 7.16183E-03
 -1      3187 6.42597E-03
 -1      3188 7.15941E-03
 -1      3189 6.81876E-03
 -1      3190 6.82118E-03
 -1      3191 6.57002E-03
 -1      3192 6.32127E-03
 -1      3193 6.57002E-03
 -1      3194 5.93479E-03
 -1      3195 5.54831E-03
 -1      3196 5.93479E-03
 -1      3197 5.09859E-03
 -1      3198 4.64888E-03
 -1      3199 5.09859E-03
 -1      3200 4.18459E-03
 -1      3201 3.72030E-03
 -1      3202 4.18459E-03
 -1      3203 3.26447E-03
 -1      3204 2.80863E-03
 -1      3205 3.26447E-03
 -1      3206 2.55346E-03
 -1      3207 3.44977E+00
 -1      3208 3.80925E+00
 -1      3209 3.07215E+00
 -1      3210 3.23723E+00
 -1      3211 3.12653E+00
 -1      3212 3.14931E+00
 -1      3213 3.67375E+00
 -1      3214 2.54857E+00
 -1      3215 2.67159E+00
 -1      3216 3.29598E+00
 -1      3217 2.05540E+00
 -1      3218 2.25816E+00
 -1      3219 2.55062E+00
 -1      3220 1.68906E+00
 -1      3221 1.85059E+00
 -1      3222 2.05540E+00
 -1      3223 1.41880E+00
 -1      3224 1.50035E+00
 -1      3225 1.66188E+00
 -1      3226 1.17721E+00
 -1      3227 1.27600E+00
 -1      3228 1.33036E+00
 -1      3229 9.72583E-01
 -1      3230 1.06973E+00
 -1      3231 1.08007E+00
 -1      3232 7.95966E-01
 -1      3233 8.84274E-01
 -1      3234 8.84274E-01
 -1      3235 6.41460E-01
 -1      3236 7.18713E-01
 -1      3237 7.18713E-01
 -1      3238 5.09424E-01
 -1      3239 5.75442E-01
 -1      3240 5.75442E-01
 -1      3241 3.98610E-01
 -1      3242 4.54017E-01
 -1      3243 4.54017E-01
 -1      3244 3.07117E-01
 -1      3245 3.52863E-01
 -1      3246 3.52863E-01
 -1      3247 2.32773E-01
 -1      3248 2.69945E-01
 -1      3249 2.69945E-01
 -1      3250 1.73322E-01
 -1      3251 2.03048E-01
 -1      3252 2.03048E-01
 -1      3253 1.26541E-01
 -1      3254 1.49931E-01
 -1      3255 1.49931E-01
 -1      3256 9.03275E-02
 -1      3257 1.08434E-01
 -1      3258 1.08434E-01
 -1      3259 6.27689E-02
 -1      3260 7.65482E-02
 -1      3261 7.65482E-02
 -1      3262 4.21717E-02
 -1      3263 5.24703E-02
 -1      3264 5.24703E-02
 -1      3265 2.70786E-02
 -1      3266 3.46252E-02
 -1      3267 3.46252E-02
 -1      3268 1.62641E-02
 -1      3269 2.16714E-02
 -1      3270 2.16714E-02
 -1      3271 1.15462E-02
 -1      3272 1.30365E-02
 -1      3273 1.30365E-02
 -1      3274 9.45939E-03
 -1      3275 1.01582E-02
 -1      3276 8.42076E-03
 -1      3277 8.03289E-03
 -1      3278 8.84734E-03
 -1      3279 6.42067E-03
 -1      3280 7.22719E-03
 -1      3281 8.06297E-03
 -1      3282 5.83870E-03
 -1      3283 6.24263E-03
 -1      3284 7.04186E-03
 -1      3285 5.68345E-03
 -1      3286 5.41310E-03
 -1      3287 5.93585E-03
 -1      3288 5.19134E-03
 -1      3289 4.55348E-03
 -1      3290 5.04922E-03
 -1      3291 4.52068E-03
 -1      3292 3.72678E-03
 -1      3293 4.19182E-03
 -1      3294 3.79514E-03
 -1      3295 2.97203E-03
 -1      3296 3.40576E-03
 -1      3297 3.11246E-03
 -1      3298 2.32548E-03
 -1      3299 2.68522E-03
 -1      3300 2.50463E-03
 -1      3301 2.01717E-03
 -1      3302 1.96030E-03
 -1      3303 2.11377E-03
 -1      3304 1.80199E-03
 -1      3305 5.35953E+00
 -1      3306 1.53270E-03
 -1      3307 1.53270E-03
 -1      3308 1.47099E-03
 -1      3309 1.47019E-03
 -1      3310 1.60667E-03
 -1      3311 4.47818E+00
 -1      3312 7.75844E+00
 -1      3313 5.88757E+00
 -1      3314 5.87474E+00
 -1      3315 1.11751E+01
 -1      3316 1.08719E+01
 -1      3317 9.10987E+00
 -1      3318 7.11607E+00
 -1      3319 1.52169E-03
 -1      3320 1.53270E-03
 -1      3321 1.66839E-03
 -1      3322 2.84836E+00
 -1      3323 3.30335E+00
 -1      3324 2.85630E+00
 -1      3325 2.93304E+00
 -1      3326 4.43300E+00
 -1      3327 1.32339E+01
 -1      3328 1.14384E+01
 -1      3329 1.82563E+00
 -1      3330 1.88033E+00
 -1      3331 2.27551E+00
 -1      3332 2.68747E+00
 -1      3333 1.64561E+00
 -1      3334 1.59129E+00
 -1      3335 2.05274E+00
 -1      3336 1.32322E+00
 -1      3337 6.31546E+00
 -1      3338 5.39158E+00
 -1      3339 4.40027E+00
 -1      3340 5.95404E+00
 -1      3341 2.09452E+00
 -1      3342 2.02691E+00
 -1      3343 5.09829E+00
 -1      3344 5.97578E+00
 -1      3345 1.98361E+00
 -1      3346 1.72720E+00
 -1      3347 1.75876E+00
 -1      3348 6.86516E+00
 -1      3349 9.50376E+00
 -1      3350 5.53464E+00
 -1      3351 4.94162E+00
 -1      3352 4.02473E+00
 -1      3353 4.85480E+00
 -1      3354 1.13103E+01
 -1      3355 1.32297E+01
 -1      3356 1.16651E+01
 -1      3357 1.03185E+01
 -1      3358 7.96327E+00
 -1      3359 2.95635E+00
 -1      3360 1.08719E+01
 -1      3361 1.16059E+01
 -1      3362 1.03796E+01
 -1      3363 8.79615E+00
 -1      3364 6.83846E+00
 -1      3365 1.14775E+01
 -1      3366 1.28526E+01
 -1      3367 2.39053E+00
 -1      3368 2.02691E+00
 -1      3369 1.94003E+00
 -1      3370 2.39279E+00
 -1      3371 2.91591E+00
 -1      3372 2.53196E+00
 -1      3373 2.53196E+00
 -1      3374 9.61239E+00
 -1      3375 2.04533E+00
 -1      3376 1.90273E+00
 -1      3377 1.89424E+00
 -1      3378 1.89617E+00
 -1      3379 4.19672E+00
 -1      3380 2.68508E+00
 -1      3381 5.33751E+00
 -1      3382 1.06076E+01
 -1      3383 3.60075E+00
 -1      3384 9.11273E+00
 -1      3385 9.14367E+00
 -1      3386 7.20348E+00
 -1      3387 7.24932E+00
 -1      3388 2.31441E-03
 -1      3389 1.53448E-03
 -1      3390 1.52554E-03
 -1      3391 1.90273E+00
 -1      3392 1.90273E+00
 -1      3393 2.03164E+00
 -1      3394 1.50997E-03
 -1      3395 1.50997E-03
 -1      3396 1.64903E-03
 -1      3397 1.58473E-03
 -1      3398 6.24760E+00
 -1      3399 9.08973E+00
 -1      3400 6.96821E+00
 -1      3401 1.65181E+00
 -1      3402 1.64722E+00
 -1      3403 1.75772E+00
 -1      3404 2.22555E+00
 -1      3405 2.06443E+00
 -1      3406 2.49434E+00
 -1      3407 3.53771E+00
 -1      3408 7.51813E+00
 -1      3409 7.24932E+00
 -1      3410 5.79573E+00
 -1      3411 2.04228E-03
 -1      3412 1.89427E-03
 -1      3413 2.02072E-03
 -1      3414 5.96554E+00
 -1      3415 9.04527E+00
 -1      3416 7.77212E+00
 -1      3417 1.83805E-03
 -1      3418 1.75081E-03
 -1      3419 3.97997E+00
 -1      3420 8.93495E+00
 -1      3421 3.24184E+00
 -1      3422 3.17354E+00
 -1      3423 2.08250E+00
 -1      3424 2.38076E+00
 -1      3425 2.13629E+00
 -1      3426 1.87079E+00
 -1      3427 3.35771E+00
 -1      3428 3.07680E+00
 -1      3429 1.89751E-03
 -1      3430 9.05357E+00
 -1      3431 4.03866E+00
 -1      3432 1.02045E+01
 -1      3433 1.14775E+01
 -1      3434 9.23106E+00
 -1      3435 2.68918E+00
 -1      3436 3.30821E+00
 -1      3437 3.01319E+00
 -1      3438 7.55505E+00
 -1      3439 7.55505E+00
 -1      3440 2.46763E-03
 -1      3441 3.22664E+00
 -1      3442 3.09171E+00
 -1      3443 2.85670E+00
 -1      3444 2.61254E+00
 -1      3445 3.01779E+00
 -1      3446 2.17126E+00
 -1      3447 1.92313E+00
 -1      3448 2.34150E+00
 -1      3449 1.63485E+00
 -1      3450 1.43910E+00
 -1      3451 1.61195E+00
 -1      3452 1.27772E+00
 -1      3453 1.10938E+00
 -1      3454 1.16230E+00
 -1      3455 1.01486E+00
 -1      3456 8.97652E-01
 -1      3457 9.06391E-01
 -1      3458 8.16193E-01
 -1      3459 7.22006E-01
 -1      3460 7.30407E-01
 -1      3461 6.53877E-01
 -1      3462 5.72158E-01
 -1      3463 5.80819E-01
 -1      3464 5.16092E-01
 -1      3465 4.47033E-01
 -1      3466 4.56625E-01
 -1      3467 4.01356E-01
 -1      3468 3.44197E-01
 -1      3469 3.54882E-01
 -1      3470 3.07331E-01
 -1      3471 2.60884E-01
 -1      3472 2.72339E-01
 -1      3473 2.31439E-01
 -1      3474 1.94347E-01
 -1      3475 2.06027E-01
 -1      3476 1.71109E-01
 -1      3477 1.41988E-01
 -1      3478 1.53343E-01
 -1      3479 1.23894E-01
 -1      3480 1.01422E-01
 -1      3481 1.12011E-01
 -1      3482 8.75422E-02
 -1      3483 7.05084E-02
 -1      3484 8.00375E-02
 -1      3485 6.01045E-02
 -1      3486 4.74374E-02
 -1      3487 5.57538E-02
 -1      3488 4.01719E-02
 -1      3489 3.09492E-02
 -1      3490 3.80845E-02
 -1      3491 2.55861E-02
 -1      3492 1.90328E-02
 -1      3493 2.54559E-02
 -1      3494 1.51574E-02
 -1      3495 1.06364E-02
 -1      3496 1.62173E-02
 -1      3497 7.92800E-03
 -1      3498 6.18357E-03
 -1      3499 9.63345E-03
 -1      3500 4.47273E-03
 -1      3501 4.76584E-03
 -1      3502 5.21418E-03
 -1      3503 4.49090E-03
 -1      3504 4.88853E-03
 -1      3505 3.22840E-03
 -1      3506 5.14845E-03
 -1      3507 5.14603E-03
 -1      3508 3.21339E-03
 -1      3509 5.17846E-03
 -1      3510 4.92971E-03
 -1      3511 3.50573E-03
 -1      3512 4.82014E-03
 -1      3513 4.43366E-03
 -1      3514 3.42858E-03
 -1      3515 4.24255E-03
 -1      3516 3.79283E-03
 -1      3517 3.12790E-03
 -1      3518 3.60022E-03
 -1      3519 3.13593E-03
 -1      3520 2.74417E-03
 -1      3521 3.02858E-03
 -1      3522 2.57275E-03
 -1      3523 2.44421E-03
 -1      3524 4.81782E+00
 -1      3525 5.27276E+00
 -1      3526 3.57879E+00
 -1      3527 2.29526E+00
 -1      3528 2.50007E+00
 -1      3529 1.72071E+00
 -1      3530 1.90943E+00
 -1      3531 2.35409E+00
 -1      3532 1.30318E+00
 -1      3533 1.44599E+00
 -1      3534 1.69354E+00
 -1      3535 1.03237E+00
 -1      3536 1.13985E+00
 -1      3537 1.25549E+00
 -1      3538 8.30832E-01
 -1      3539 9.19140E-01
 -1      3540 9.78927E-01
 -1      3541 6.71359E-01
 -1      3542 7.48612E-01
 -1      3543 7.83478E-01
 -1      3544 5.32978E-01
 -1      3545 5.98996E-01
 -1      3546 6.28896E-01
 -1      3547 4.16300E-01
 -1      3548 4.71707E-01
 -1      3549 4.95261E-01
 -1      3550 3.19974E-01
 -1      3551 3.65720E-01
 -1      3552 3.83410E-01
 -1      3553 2.41856E-01
 -1      3554 2.79028E-01
 -1      3555 2.91885E-01
 -1      3556 1.79547E-01
 -1      3557 2.09272E-01
 -1      3558 2.18355E-01
 -1      3559 1.30645E-01
 -1      3560 1.54036E-01
 -1      3561 1.60260E-01
 -1      3562 9.28914E-02
 -1      3563 1.10998E-01
 -1      3564 1.15103E-01
 -1      3565 6.46829E-02
 -1      3566 7.84622E-02
 -1      3567 8.10261E-02
 -1      3568 4.38513E-02
 -1      3569 5.41499E-02
 -1      3570 5.60639E-02
 -1      3571 2.85095E-02
 -1      3572 3.60561E-02
 -1      3573 3.77357E-02
 -1      3574 1.75401E-02
 -1      3575 2.29474E-02
 -1      3576 2.43783E-02
 -1      3577 1.03688E-02
 -1      3578 1.35964E-02
 -1      3579 1.48724E-02
 -1      3580 6.38905E-03
 -1      3581 7.77710E-03
 -1      3582 8.33707E-03
 -1      3583 4.97483E-03
 -1      3584 5.58688E-03
 -1      3585 4.94321E-03
 -1      3586 5.33702E-03
 -1      3587 5.30694E-03
 -1      3588 4.47315E-03
 -1      3589 5.18430E-03
 -1      3590 5.36963E-03
 -1      3591 4.83787E-03
 -1      3592 4.72465E-03
 -1      3593 5.03143E-03
 -1      3594 4.71761E-03
 -1      3595 4.10276E-03
 -1      3596 4.46664E-03
 -1      3597 4.30673E-03
 -1      3598 3.46225E-03
 -1      3599 3.82392E-03
 -1      3600 3.76987E-03
 -1      3601 2.91058E-03
 -1      3602 3.23160E-03
 -1      3603 3.26037E-03
 -1      3604 2.36078E-03
 -1      3605 2.64760E-03
 -1      3606 2.76674E-03
 -1      3607 2.02072E-03
 -1      3608 1.72061E-03
 -1      3609 1.65890E-03
 -1      3610 1.86195E+00
 -1      3611 2.00521E+00
 -1      3612 2.13413E+00
 -1      3613 2.31470E+00
 -1      3614 2.12663E-03
 -1      3615 4.53946E+00
 -1      3616 1.94056E-03
 -1      3617 1.94056E-03
 -1      3618 1.99279E-03
 -1      3619 2.24340E+00
 -1      3620 2.30784E+00
 -1      3621 8.38224E+00
 -1      3622 8.95264E+00
 -1      3623 2.77216E+00
 -1      3624 2.74277E+00
 -1      3625 2.90852E+00
 -1      3626 2.94084E+00
 -1      3627 7.82949E+00
 -1      3628 7.88865E+00
 -1      3629 7.91459E+00
 -1      3630 8.29592E+00
 -1      3631 8.18313E+00
 -1      3632 7.12435E+00
 -1      3633 4.27055E+00
 -1      3634 5.15993E+00
 -1      3635 2.01369E+00
 -1      3636 2.12380E+00
 -1      3637 2.38630E+00
 -1      3638 2.14917E+00
 -1      3639 4.98461E+00
 -1      3640 7.35042E+00
 -1      3641 6.14179E+00
 -1      3642 6.35176E+00
 -1      3643 5.31405E+00
 -1      3644 5.59994E+00
 -1      3645 3.72498E+00
 -1      3646 4.01539E+00
 -1      3647 3.96484E+00
 -1      3648 2.46763E-03
 -1      3649 2.23175E-03
 -1      3650 2.41100E-03
 -1      3651 4.49791E+00
 -1      3652 3.55236E+00
 -1      3653 1.72961E-03
 -1      3654 1.75412E-03
 -1      3655 7.16389E+00
 -1      3656 5.66538E+00
 -1      3657 5.07853E+00
 -1      3658 3.89584E+00
 -1      3659 3.51818E+00
 -1      3660 3.86716E+00
 -1      3661 2.00262E-03
 -1      3662 3.92549E+00
 -1      3663 3.56299E+00
 -1      3664 5.99218E+00
 -1      3665 7.49450E+00
 -1      3666 5.83955E+00
 -1      3667 5.22943E+00
 -1      3668 6.79461E+00
 -1      3669 2.14917E+00
 -1      3670 2.26670E+00
 -1      3671 2.14917E+00
 -1      3672 3.22759E+00
 -1      3673 3.55436E+00
 -1      3674 3.55436E+00
 -1      3675 4.27388E+00
 -1      3676 6.36766E+00
 -1      3677 5.00291E+00
 -1      3678 5.95879E+00
 -1      3679 5.21018E+00
 -1      3680 4.75169E+00
 -1      3681 3.94609E+00
 -1      3682 6.06718E+00
 -1      3683 3.89289E+00
 -1      3684 3.94609E+00
 -1      3685 4.53946E+00
 -1      3686 3.94973E+00
 -1      3687 5.11129E+00
 -1      3688 3.93770E+00
 -1      3689 1.66101E-03
 -1      3690 1.70080E-03
 -1      3691 1.80589E-03
 -1      3692 3.21880E+00
 -1      3693 1.94387E-03
 -1      3694 2.31260E-03
 -1      3695 2.02445E-03
 -1      3696 6.05653E+00
 -1      3697 7.55505E+00
 -1      3698 6.33097E+00
 -1      3699 2.76440E+00
 -1      3700 2.27480E-03
 -1      3701 6.48533E+00
 -1      3702 7.41839E+00
 -1      3703 6.10191E+00
 -1      3704 7.41839E+00
 -1      3705 1.77496E-03
 -1      3706 3.58914E+00
 -1      3707 7.97917E+00
 -1      3708 5.34006E+00
 -1      3709 2.41100E-03
 -1      3710 2.31441E-03
 -1      3711 4.72722E+00
 -1      3712 3.68606E+00
 -1      3713 2.45738E-03
 -1      3714 1.99279E-03
 -1      3715 1.77284E-03
 -1      3716 4.38866E+00
 -1      3717 3.42847E+00
 -1      3718 6.10990E+00
 -1      3719 7.36179E+00
 -1      3720 5.99218E+00
 -1      3721 2.41100E-03
 -1      3722 2.57110E+00
 -1      3723 2.12982E+00
 -1      3724 1.82755E+00
 -1      3725 1.53928E+00
 -1      3726 2.05715E+00
 -1      3727 1.32368E+00
 -1      3728 1.16230E+00
 -1      3729 1.53928E+00
 -1      3730 9.98546E-01
 -1      3731 9.04021E-01
 -1      3732 1.15993E+00
 -1      3733 7.83508E-01
 -1      3734 7.02049E-01
 -1      3735 8.75664E-01
 -1      3736 6.12444E-01
 -1      3737 5.44315E-01
 -1      3738 6.65546E-01
 -1      3739 4.76659E-01
 -1      3740 4.20593E-01
 -1      3741 5.08284E-01
 -1      3742 3.68605E-01
 -1      3743 3.22928E-01
 -1      3744 3.88639E-01
 -1      3745 2.82503E-01
 -1      3746 2.45636E-01
 -1      3747 2.96226E-01
 -1      3748 2.14043E-01
 -1      3749 1.84597E-01
 -1      3750 2.24207E-01
 -1      3751 1.59925E-01
 -1      3752 1.36687E-01
 -1      3753 1.67941E-01
 -1      3754 1.17523E-01
 -1      3755 9.94295E-02
 -1      3756 1.24106E-01
 -1      3757 8.46759E-02
 -1      3758 7.07961E-02
 -1      3759 9.01881E-02
 -1      3760 5.95700E-02
 -1      3761 4.91661E-02
 -1      3762 6.42084E-02
 -1      3763 4.07442E-02
 -1      3764 3.34787E-02
 -1      3765 4.45603E-02
 -1      3766 2.76234E-02
 -1      3767 2.22603E-02
 -1      3768 3.02831E-02
 -1      3769 1.80545E-02
 -1      3770 1.41790E-02
 -1      3771 2.02220E-02
 -1      3772 1.11364E-02
 -1      3773 8.42795E-03
 -1      3774 1.29735E-02
 -1      3775 6.49635E-03
 -1      3776 4.78551E-03
 -1      3777 7.99928E-03
 -1      3778 3.50333E-03
 -1      3779 3.22840E-03
 -1      3780 4.78551E-03
 -1      3781 2.45261E-03
 -1      3782 2.71253E-03
 -1      3783 2.72754E-03
 -1      3784 3.00468E-03
 -1      3785 3.03710E-03
 -1      3786 2.24390E-03
 -1      3787 3.12182E-03
 -1      3788 3.01224E-03
 -1      3789 2.62076E-03
 -1      3790 2.96401E-03
 -1      3791 2.77290E-03
 -1      3792 2.65724E-03
 -1      3793 2.64768E-03
 -1      3794 2.45507E-03
 -1      3795 2.48380E-03
 -1      3796 1.63787E+00
 -1      3797 1.91259E+00
 -1      3798 4.39087E+00
 -1      3799 3.03991E+00
 -1      3800 3.42574E+00
 -1      3801 2.98424E+00
 -1      3802 9.78927E-01
 -1      3803 1.09216E+00
 -1      3804 7.74364E-01
 -1      3805 8.56583E-01
 -1      3806 9.69813E-01
 -1      3807 6.06502E-01
 -1      3808 6.78865E-01
 -1      3809 7.51970E-01
 -1      3810 4.70462E-01
 -1      3811 5.31733E-01
 -1      3812 5.81703E-01
 -1      3813 3.60976E-01
 -1      3814 4.11556E-01
 -1      3815 4.48028E-01
 -1      3816 2.73489E-01
 -1      3817 3.14435E-01
 -1      3818 3.42580E-01
 -1      3819 2.04192E-01
 -1      3820 2.36777E-01
 -1      3821 2.59327E-01
 -1      3822 1.49886E-01
 -1      3823 1.75396E-01
 -1      3824 1.93818E-01
 -1      3825 1.07850E-01
 -1      3826 1.27498E-01
 -1      3827 1.42633E-01
 -1      3828 7.62115E-02
 -1      3829 9.06406E-02
 -1      3830 1.03035E-01
 -1      3831 5.26281E-02
 -1      3832 6.31611E-02
 -1      3833 7.27756E-02
 -1      3834 3.54137E-02
 -1      3835 4.32089E-02
 -1      3836 5.03061E-02
 -1      3837 2.31058E-02
 -1      3838 2.86679E-02
 -1      3839 3.41412E-02
 -1      3840 1.42300E-02
 -1      3841 1.81737E-02
 -1      3842 2.24634E-02
 -1      3843 8.11064E-03
 -1      3844 1.07023E-02
 -1      3845 1.40036E-02
 -1      3846 4.89533E-03
 -1      3847 5.69751E-03
 -1      3848 8.06275E-03
 -1      3849 3.91344E-03
 -1      3850 3.58133E-03
 -1      3851 4.33562E-03
 -1      3852 4.06386E-03
 -1      3853 4.03125E-03
 -1      3854 3.13943E-03
 -1      3855 4.08166E-03
 -1      3856 4.23454E-03
 -1      3857 3.42791E-03
 -1      3858 3.79706E-03
 -1      3859 4.05507E-03
 -1      3860 3.57199E-03
 -1      3861 3.37066E-03
 -1      3862 3.64951E-03
 -1      3863 3.39785E-03
 -1      3864 3.12717E-03
 -1      3865 3.35782E-03
 -1      3866 3.23746E-03
 -1      3867 2.86419E-03
 -1      3868 3.12717E-03
 -1      3869 3.22461E-03
 -1      3870 3.01585E+00
 -1      3871 5.16125E+00
 -1      3872 3.65411E+00
 -1      3873 2.49254E+00
 -1      3874 2.61191E+00
 -1      3875 3.04685E+00
 -1      3876 2.33686E-03
 -1      3877 2.27480E-03
 -1      3878 2.05485E-03
 -1      3879 2.44421E-03
 -1      3880 2.31260E-03
 -1      3881 4.33336E+00
 -1      3882 3.93770E+00
 -1      3883 5.50666E+00
 -1      3884 1.93913E-03
 -1      3885 1.96794E-03
 -1      3886 5.64663E+00
 -1      3887 5.10840E+00
 -1      3888 6.05239E+00
 -1      3889 5.93960E+00
 -1      3890 4.72566E+00
 -1      3891 3.54160E+00
 -1      3892 3.85188E+00
 -1      3893 4.60724E+00
 -1      3894 3.21267E+00
 -1      3895 3.93144E+00
 -1      3896 5.15636E+00
 -1      3897 4.61726E+00
 -1      3898 1.74879E-03
 -1      3899 1.75091E-03
 -1      3900 1.74879E-03
 -1      3901 1.24850E+00
 -1      3902 1.41183E+00
 -1      3903 1.24850E+00
 -1      3904 5.95879E+00
 -1      3905 3.97032E+00
 -1      3906 2.35898E-03
 -1      3907 4.16512E+00
 -1      3908 4.55627E+00
 -1      3909 4.55627E+00
 -1      3910 3.73532E+00
 -1      3911 5.54911E+00
 -1      3912 2.37513E-03
 -1      3913 2.24188E-03
 -1      3914 2.43163E-03
 -1      3915 3.52364E+00
 -1      3916 1.63088E+00
 -1      3917 4.32962E+00
 -1      3918 2.34772E-03
 -1      3919 2.41445E+00
 -1      3920 5.02440E+00
 -1      3921 4.06562E+00
 -1      3922 2.90141E+00
 -1      3923 4.74996E+00
 -1      3924 2.41445E+00
 -1      3925 2.31197E+00
 -1      3926 2.42950E+00
 -1      3927 2.59229E+00
 -1      3928 5.10422E+00
 -1      3929 4.04240E+00
 -1      3930 3.94731E+00
 -1      3931 5.00291E+00
 -1      3932 5.19859E+00
 -1      3933 5.12296E+00
 -1      3934 6.05239E+00
 -1      3935 1.91297E-03
 -1      3936 5.55619E+00
 -1      3937 4.72832E+00
 -1      3938 2.39603E+00
 -1      3939 2.51564E+00
 -1      3940 2.62164E+00
 -1      3941 2.39603E+00
 -1      3942 5.16082E+00
 -1      3943 5.05035E+00
 -1      3944 4.43297E+00
 -1      3945 2.98286E+00
 -1      3946 4.16262E+00
 -1      3947 2.12918E+00
 -1      3948 1.82691E+00
 -1      3949 2.67117E+00
 -1      3950 5.12296E+00
 -1      3951 1.53259E+00
 -1      3952 1.31699E+00
 -1      3953 1.60463E+00
 -1      3954 1.11781E+00
 -1      3955 9.54063E-01
 -1      3956 1.11113E+00
 -1      3957 8.24469E-01
 -1      3958 7.03956E-01
 -1      3959 7.82355E-01
 -1      3960 6.16721E-01
 -1      3961 5.27115E-01
 -1      3962 5.65525E-01
 -1      3963 4.74094E-01
 -1      3964 4.06438E-01
 -1      3965 4.25269E-01
 -1      3966 3.67535E-01
 -1      3967 3.15546E-01
 -1      3968 3.33345E-01
 -1      3969 2.83971E-01
 -1      3970 2.43546E-01
 -1      3971 2.62866E-01
 -1      3972 2.17833E-01
 -1      3973 1.86240E-01
 -1      3974 2.05579E-01
 -1      3975 1.65374E-01
 -1      3976 1.40702E-01
 -1      3977 1.59001E-01
 -1      3978 1.23906E-01
 -1      3979 1.04742E-01
 -1      3980 1.21339E-01
 -1      3981 9.13702E-02
 -1      3982 7.66166E-02
 -1      3983 9.11705E-02
 -1      3984 6.61108E-02
 -1      3985 5.48846E-02
 -1      3986 6.72929E-02
 -1      3987 4.67510E-02
 -1      3988 3.83292E-02
 -1      3989 4.86534E-02
 -1      3990 3.21725E-02
 -1      3991 2.63171E-02
 -1      3992 3.43632E-02
 -1      3993 2.20837E-02
 -1      3994 1.78779E-02
 -1      3995 2.39731E-02
 -1      3996 1.46890E-02
 -1      3997 1.16464E-02
 -1      3998 1.65507E-02
 -1      3999 9.28952E-03
 -1      4000 7.35793E-03
 -1      4001 1.10050E-02
 -1      4002 5.65237E-03
 -1      4003 4.37019E-03
 -1      4004 6.94260E-03
 -1      4005 3.16551E-03
 -1      4006 2.38972E-03
 -1      4007 4.03237E-03
 -1      4008 1.65829E-03
 -1      4009 1.95044E-03
 -1      4010 2.09626E-03
 -1      4011 2.08831E-03
 -1      4012 2.17302E-03
 -1      4013 1.50270E-03
 -1      4014 2.21984E-03
 -1      4015 2.17160E-03
 -1      4016 1.68738E-03
 -1      4017 2.27013E-03
 -1      4018 2.14492E-03
 -1      4019 1.83272E-03
 -1      4020 2.92314E+00
 -1      4021 4.05046E+00
 -1      4022 6.85253E-01
 -1      4023 7.80751E-01
 -1      4024 9.02916E-01
 -1      4025 1.02526E+00
 -1      4026 8.36198E-01
 -1      4027 4.00174E-01
 -1      4028 4.59080E-01
 -1      4029 3.04596E-01
 -1      4030 3.51137E-01
 -1      4031 3.62190E-01
 -1      4032 2.29926E-01
 -1      4033 2.66639E-01
 -1      4034 2.75196E-01
 -1      4035 1.71545E-01
 -1      4036 2.00341E-01
 -1      4037 2.07653E-01
 -1      4038 1.26104E-01
 -1      4039 1.48492E-01
 -1      4040 1.55015E-01
 -1      4041 9.10304E-02
 -1      4042 1.08240E-01
 -1      4043 1.14099E-01
 -1      4044 6.42652E-02
 -1      4045 7.73155E-02
 -1      4046 8.25200E-02
 -1      4047 4.44447E-02
 -1      4048 5.38639E-02
 -1      4049 5.84039E-02
 -1      4050 2.99733E-02
 -1      4051 3.67190E-02
 -1      4052 4.02768E-02
 -1      4053 1.97685E-02
 -1      4054 2.47005E-02
 -1      4055 2.72783E-02
 -1      4056 1.23664E-02
 -1      4057 1.58942E-02
 -1      4058 1.81313E-02
 -1      4059 7.17738E-03
 -1      4060 9.59051E-03
 -1      4061 1.14811E-02
 -1      4062 4.20192E-03
 -1      4063 5.51592E-03
 -1      4064 7.04368E-03
 -1      4065 3.13943E-03
 -1      4066 3.02163E-03
 -1      4067 4.20192E-03
 -1      4068 2.91191E-03
 -1      4069 2.74123E-03
 -1      4070 2.62343E-03
 -1      4071 3.10019E-03
 -1      4072 3.12679E-03
 -1      4073 2.44011E-03
 -1      4074 2.98501E-03
 -1      4075 3.13256E-03
 -1      4076 2.68736E-03
 -1      4077 2.89409E-03
 -1      4078 2.90693E-03
 -1      4079 2.64164E-03
 -1      4080 2.71941E-03
 -1      4081 3.20311E+00
 -1      4082 3.82530E+00
 -1      4083 3.03611E+00
 -1      4084 2.70836E+00
 -1      4085 1.59532E+00
 -1      4086 1.82136E+00
 -1      4087 2.88758E+00
 -1      4088 2.04240E-03
 -1      4089 2.03154E-03
 -1      4090 1.74953E-03
 -1      4091 1.82873E-03
 -1      4092 2.05341E-03
 -1      4093 2.24164E-03
 -1      4094 5.23481E-01
 -1      4095 5.98251E-01
 -1      4096 4.75628E-01
 -1      4097 1.85204E-03
 -1      4098 1.82800E-03
 -1      4099 2.15667E-03
 -1      4100 1.82873E-03
 -1      4101 1.20686E+00
 -1      4102 1.36320E+00
 -1      4103 1.55368E+00
 -1      4104 5.12296E+00
 -1      4105 2.93684E-03
 -1      4106 4.20019E+00
 -1      4107 3.09109E+00
 -1      4108 2.66290E-03
 -1      4109 2.93684E-03
 -1      4110 2.80335E-03
 -1      4111 6.27032E-01
 -1      4112 1.13997E+00
 -1      4113 4.12456E+00
 -1      4114 3.22461E-03
 -1      4115 2.89409E-03
 -1      4116 3.22461E-03
 -1      4117 2.61208E+00
 -1      4118 4.49730E+00
 -1      4119 3.19073E+00
 -1      4120 2.41850E+00
 -1      4121 2.98286E+00
 -1      4122 2.55883E+00
 -1      4123 4.61726E+00
 -1      4124 4.55617E+00
 -1      4125 2.99704E+00
 -1      4126 7.09723E-01
 -1      4127 8.31887E-01
 -1      4128 1.69841E+00
 -1      4129 1.40409E+00
 -1      4130 2.21797E+00
 -1      4131 1.20114E+00
 -1      4132 1.00196E+00
 -1      4133 1.29492E+00
 -1      4134 8.52164E-01
 -1      4135 7.22570E-01
 -1      4136 9.42176E-01
 -1      4137 6.26575E-01
 -1      4138 5.39340E-01
 -1      4139 6.96385E-01
 -1      4140 4.70638E-01
 -1      4141 4.17617E-01
 -1      4142 5.31688E-01
 -1      4143 3.66001E-01
 -1      4144 3.27097E-01
 -1      4145 4.11369E-01
 -1      4146 2.87052E-01
 -1      4147 2.55477E-01
 -1      4148 3.19708E-01
 -1      4149 2.23825E-01
 -1      4150 1.98112E-01
 -1      4151 2.48011E-01
 -1      4152 1.72900E-01
 -1      4153 1.52034E-01
 -1      4154 1.91146E-01
 -1      4155 1.31956E-01
 -1      4156 1.15159E-01
 -1      4157 1.45854E-01
 -1      4158 9.92596E-02
 -1      4159 8.58878E-02
 -1      4160 1.09876E-01
 -1      4161 7.34153E-02
 -1      4162 6.29094E-02
 -1      4163 8.15044E-02
 -1      4164 5.32412E-02
 -1      4165 4.51076E-02
 -1      4166 5.93636E-02
 -1      4167 3.77168E-02
 -1      4168 3.15601E-02
 -1      4169 4.23045E-02
 -1      4170 2.62957E-02
 -1      4171 2.20623E-02
 -1      4172 2.96493E-02
 -1      4173 1.82665E-02
 -1      4174 1.50776E-02
 -1      4175 2.05891E-02
 -1      4176 1.22481E-02
 -1      4177 9.89124E-03
 -1      4178 1.39638E-02
 -1      4179 7.82270E-03
 -1      4180 6.11714E-03
 -1      4181 9.06577E-03
 -1      4182 4.63797E-03
 -1      4183 3.43329E-03
 -1      4184 5.51806E-03
 -1      4185 2.40274E-03
 -1      4186 1.67131E-03
 -1      4187 3.00834E-03
 -1      4188 1.35333E-03
 -1      4189 1.49120E-03
 -1      4190 1.65981E-03
 -1      4191 1.63329E-03
 -1      4192 1.68010E-03
 -1      4193 1.48392E-03
 -1      4194 1.27398E+00
 -1      4195 1.50609E+00
 -1      4196 1.83198E-01
 -1      4197 2.12783E-01
 -1      4198 5.37130E-01
 -1      4199 6.24133E-01
 -1      4200 6.19822E-01
 -1      4201 2.41252E-01
 -1      4202 2.79210E-01
 -1      4203 2.16797E-01
 -1      4204 3.15295E-01
 -1      4205 3.64331E-01
 -1      4206 2.81351E-01
 -1      4207 1.37548E-01
 -1      4208 1.60600E-01
 -1      4209 1.65730E-01
 -1      4210 1.01781E-01
 -1      4211 1.19645E-01
 -1      4212 1.25230E-01
 -1      4213 7.39875E-02
 -1      4214 8.77023E-02
 -1      4215 9.32487E-02
 -1      4216 5.26346E-02
 -1      4217 6.30359E-02
 -1      4218 6.82182E-02
 -1      4219 3.65142E-02
 -1      4220 4.42399E-02
 -1      4221 4.88720E-02
 -1      4222 2.52282E-02
 -1      4223 3.05009E-02
 -1      4224 3.44640E-02
 -1      4225 1.69477E-02
 -1      4226 2.08220E-02
 -1      4227 2.40445E-02
 -1      4228 1.09897E-02
 -1      4229 1.37656E-02
 -1      4230 1.64563E-02
 -1      4231 6.98658E-03
 -1      4232 8.64804E-03
 -1      4233 1.09326E-02
 -1      4234 4.11311E-03
 -1      4235 5.29341E-03
 -1      4236 6.89777E-03
 -1      4237 2.51927E-03
 -1      4238 2.91747E-03
 -1      4239 4.00895E-03
 -1      4240 2.13244E-03
 -1      4241 1.91756E-03
 -1      4242 2.21160E-03
 -1      4243 2.35392E-03
 -1      4244 2.32155E-03
 -1      4245 1.79900E-03
 -1      4246 2.52033E-03
 -1      4247 2.59841E-03
 -1      4248 2.23261E-03
 -1      4249 2.85085E-03
 -1      4250 1.93125E-03
 -1      4251 3.03211E+00
 -1      4252 2.99704E+00
 -1      4253 2.93806E+00
 -1      4254 3.55776E+00
 -1      4255 4.10864E-01
 -1      4256 4.75266E-01
 -1      4257 3.63969E-01
 -1      4258 2.64555E+00
 -1      4259 9.52933E-01
 -1      4260 1.13454E+00
 -1      4261 8.26458E-01
 -1      4262 3.18582E+00
 -1      4263 2.75422E+00
 -1      4264 2.66017E+00
 -1      4265 2.08403E+00
 -1      4266 2.42959E-03
 -1      4267 1.80433E+00
 -1      4268 1.08695E+00
 -1      4269 1.83272E-03
 -1      4270 1.93125E-03
 -1      4271 1.93125E-03
 -1      4272 2.15667E-03
 -1      4273 2.20417E-03
 -1      4274 4.72367E-01
 -1      4275 1.77863E-03
 -1      4276 2.21797E+00
 -1      4277 2.05155E-03
 -1      4278 1.36213E+00
 -1      4279 1.15918E+00
 -1      4280 1.01974E+00
 -1      4281 8.69941E-01
 -1      4282 7.48896E-01
 -1      4283 6.52901E-01
 -1      4284 5.67311E-01
 -1      4285 4.98608E-01
 -1      4286 4.36744E-01
 -1      4287 3.85127E-01
 -1      4288 3.38594E-01
 -1      4289 2.98549E-01
 -1      4290 2.62465E-01
 -1      4291 2.30812E-01
 -1      4292 2.02343E-01
 -1      4293 1.77131E-01
 -1      4294 1.54533E-01
 -1      4295 1.34454E-01
 -1      4296 1.16552E-01
 -1      4297 1.00652E-01
 -1      4298 8.65733E-02
 -1      4299 7.41008E-02
 -1      4300 6.31493E-02
 -1      4301 5.34810E-02
 -1      4302 4.50863E-02
 -1      4303 3.76955E-02
 -1      4304 3.16822E-02
 -1      4305 2.64178E-02
 -1      4306 2.20116E-02
 -1      4307 1.82159E-02
 -1      4308 1.50338E-02
 -1      4309 1.22043E-02
 -1      4310 9.86263E-03
 -1      4311 7.79408E-03
 -1      4312 6.10092E-03
 -1      4313 4.62175E-03
 -1      4314 3.42610E-03
 -1      4315 2.39555E-03
 -1      4316 1.79384E-03
 -1      4317 1.47586E-03
 -1      4318 1.66497E-03
 -1      4319 1.80706E-03
 -1      4320 1.94007E+00
 -3
 9999
