    1C
    1UUSER                                                              
    1UDATE              27.october.2022                                 
    1UTIME              00:43:21                                        
    1UHOST                                                              
    1UPGM               CalculiX                                        
    1UVERSION           Version 2.17                             
    1UCOMPILETIME       Thu Jul 23 21:43:50 CEST 2020                    
    1UDIR                                                               
    1UDBN                                                               
    1UMAT    1SOLIDMATERIAL                                             
    2C                          4253                                     1
 -1         1 1.25382E+02 3.22072E+01 0.00000E+00
 -1         2 1.29505E+02 2.58258E+01 0.00000E+00
 -1         3 1.50000E+02 0.00000E+00 0.00000E+00
 -1         4 1.50000E+02 5.00000E+01 0.00000E+00
 -1         5 0.00000E+00 0.00000E+00 0.00000E+00
 -1         6 0.00000E+00 5.00000E+01 0.00000E+00
 -1         7 0.00000E+00 4.70500E+01 0.00000E+00
 -1         8 0.00000E+00 4.41000E+01 0.00000E+00
 -1         9 0.00000E+00 4.11500E+01 0.00000E+00
 -1        10 0.00000E+00 3.82000E+01 0.00000E+00
 -1        11 0.00000E+00 3.52500E+01 0.00000E+00
 -1        12 0.00000E+00 3.23500E+01 0.00000E+00
 -1        13 0.00000E+00 2.94000E+01 0.00000E+00
 -1        14 0.00000E+00 2.64500E+01 0.00000E+00
 -1        15 0.00000E+00 2.35000E+01 0.00000E+00
 -1        16 0.00000E+00 2.05500E+01 0.00000E+00
 -1        17 0.00000E+00 1.76000E+01 0.00000E+00
 -1        18 0.00000E+00 1.47000E+01 0.00000E+00
 -1        19 0.00000E+00 1.17500E+01 0.00000E+00
 -1        20 0.00000E+00 8.80000E+00 0.00000E+00
 -1        21 0.00000E+00 5.85000E+00 0.00000E+00
 -1        22 0.00000E+00 2.90000E+00 0.00000E+00
 -1        23 3.15000E+00 5.00000E+01 0.00000E+00
 -1        24 6.15000E+00 5.00000E+01 0.00000E+00
 -1        25 9.15000E+00 5.00000E+01 0.00000E+00
 -1        26 1.21500E+01 5.00000E+01 0.00000E+00
 -1        27 1.51500E+01 5.00000E+01 0.00000E+00
 -1        28 1.81500E+01 5.00000E+01 0.00000E+00
 -1        29 2.11500E+01 5.00000E+01 0.00000E+00
 -1        30 2.41500E+01 5.00000E+01 0.00000E+00
 -1        31 2.71500E+01 5.00000E+01 0.00000E+00
 -1        32 3.01500E+01 5.00000E+01 0.00000E+00
 -1        33 3.31500E+01 5.00000E+01 0.00000E+00
 -1        34 3.61500E+01 5.00000E+01 0.00000E+00
 -1        35 3.91500E+01 5.00000E+01 0.00000E+00
 -1        36 4.21500E+01 5.00000E+01 0.00000E+00
 -1        37 4.51500E+01 5.00000E+01 0.00000E+00
 -1        38 4.81500E+01 5.00000E+01 0.00000E+00
 -1        39 5.11500E+01 5.00000E+01 0.00000E+00
 -1        40 5.41500E+01 5.00000E+01 0.00000E+00
 -1        41 5.71500E+01 5.00000E+01 0.00000E+00
 -1        42 6.01500E+01 5.00000E+01 0.00000E+00
 -1        43 6.31500E+01 5.00000E+01 0.00000E+00
 -1        44 6.61500E+01 5.00000E+01 0.00000E+00
 -1        45 6.91500E+01 5.00000E+01 0.00000E+00
 -1        46 7.21500E+01 5.00000E+01 0.00000E+00
 -1        47 7.51500E+01 5.00000E+01 0.00000E+00
 -1        48 7.81500E+01 5.00000E+01 0.00000E+00
 -1        49 8.11500E+01 5.00000E+01 0.00000E+00
 -1        50 8.41500E+01 5.00000E+01 0.00000E+00
 -1        51 8.71500E+01 5.00000E+01 0.00000E+00
 -1        52 9.01500E+01 5.00000E+01 0.00000E+00
 -1        53 9.31500E+01 5.00000E+01 0.00000E+00
 -1        54 9.61500E+01 5.00000E+01 0.00000E+00
 -1        55 9.91500E+01 5.00000E+01 0.00000E+00
 -1        56 1.02150E+02 5.00000E+01 0.00000E+00
 -1        57 1.05150E+02 5.00000E+01 0.00000E+00
 -1        58 1.08150E+02 5.00000E+01 0.00000E+00
 -1        59 1.11150E+02 5.00000E+01 0.00000E+00
 -1        60 1.14150E+02 5.00000E+01 0.00000E+00
 -1        61 1.17150E+02 5.00000E+01 0.00000E+00
 -1        62 1.20150E+02 5.00000E+01 0.00000E+00
 -1        63 1.23150E+02 5.00000E+01 0.00000E+00
 -1        64 1.26150E+02 5.00000E+01 0.00000E+00
 -1        65 1.29150E+02 5.00000E+01 0.00000E+00
 -1        66 1.32150E+02 5.00000E+01 0.00000E+00
 -1        67 1.35150E+02 5.00000E+01 0.00000E+00
 -1        68 1.38150E+02 5.00000E+01 0.00000E+00
 -1        69 1.41150E+02 5.00000E+01 0.00000E+00
 -1        70 1.44150E+02 5.00000E+01 0.00000E+00
 -1        71 1.47150E+02 5.00000E+01 0.00000E+00
 -1        72 3.15000E+00 0.00000E+00 0.00000E+00
 -1        73 6.15000E+00 0.00000E+00 0.00000E+00
 -1        74 9.15000E+00 0.00000E+00 0.00000E+00
 -1        75 1.21500E+01 0.00000E+00 0.00000E+00
 -1        76 1.51500E+01 0.00000E+00 0.00000E+00
 -1        77 1.81500E+01 0.00000E+00 0.00000E+00
 -1        78 2.11500E+01 0.00000E+00 0.00000E+00
 -1        79 2.41500E+01 0.00000E+00 0.00000E+00
 -1        80 2.71500E+01 0.00000E+00 0.00000E+00
 -1        81 3.01500E+01 0.00000E+00 0.00000E+00
 -1        82 3.31500E+01 0.00000E+00 0.00000E+00
 -1        83 3.61500E+01 0.00000E+00 0.00000E+00
 -1        84 3.91500E+01 0.00000E+00 0.00000E+00
 -1        85 4.21500E+01 0.00000E+00 0.00000E+00
 -1        86 4.51500E+01 0.00000E+00 0.00000E+00
 -1        87 4.81500E+01 0.00000E+00 0.00000E+00
 -1        88 5.11500E+01 0.00000E+00 0.00000E+00
 -1        89 5.41500E+01 0.00000E+00 0.00000E+00
 -1        90 5.71500E+01 0.00000E+00 0.00000E+00
 -1        91 6.01500E+01 0.00000E+00 0.00000E+00
 -1        92 6.31500E+01 0.00000E+00 0.00000E+00
 -1        93 6.61500E+01 0.00000E+00 0.00000E+00
 -1        94 6.91500E+01 0.00000E+00 0.00000E+00
 -1        95 7.21500E+01 0.00000E+00 0.00000E+00
 -1        96 7.51500E+01 0.00000E+00 0.00000E+00
 -1        97 7.81500E+01 0.00000E+00 0.00000E+00
 -1        98 8.11500E+01 0.00000E+00 0.00000E+00
 -1        99 8.41500E+01 0.00000E+00 0.00000E+00
 -1       100 8.71500E+01 0.00000E+00 0.00000E+00
 -1       101 9.01500E+01 0.00000E+00 0.00000E+00
 -1       102 9.31500E+01 0.00000E+00 0.00000E+00
 -1       103 9.61500E+01 0.00000E+00 0.00000E+00
 -1       104 9.91500E+01 0.00000E+00 0.00000E+00
 -1       105 1.02150E+02 0.00000E+00 0.00000E+00
 -1       106 1.05150E+02 0.00000E+00 0.00000E+00
 -1       107 1.08150E+02 0.00000E+00 0.00000E+00
 -1       108 1.11150E+02 0.00000E+00 0.00000E+00
 -1       109 1.14150E+02 0.00000E+00 0.00000E+00
 -1       110 1.17150E+02 0.00000E+00 0.00000E+00
 -1       111 1.20150E+02 0.00000E+00 0.00000E+00
 -1       112 1.23150E+02 0.00000E+00 0.00000E+00
 -1       113 1.26150E+02 0.00000E+00 0.00000E+00
 -1       114 1.29150E+02 0.00000E+00 0.00000E+00
 -1       115 1.32150E+02 0.00000E+00 0.00000E+00
 -1       116 1.35150E+02 0.00000E+00 0.00000E+00
 -1       117 1.38150E+02 0.00000E+00 0.00000E+00
 -1       118 1.41150E+02 0.00000E+00 0.00000E+00
 -1       119 1.44150E+02 0.00000E+00 0.00000E+00
 -1       120 1.47150E+02 0.00000E+00 0.00000E+00
 -1       121 1.50000E+02 2.95000E+00 0.00000E+00
 -1       122 1.50000E+02 5.90000E+00 0.00000E+00
 -1       123 1.50000E+02 8.85000E+00 0.00000E+00
 -1       124 1.50000E+02 1.18000E+01 0.00000E+00
 -1       125 1.50000E+02 1.47500E+01 0.00000E+00
 -1       126 1.50000E+02 1.76500E+01 0.00000E+00
 -1       127 1.50000E+02 2.06000E+01 0.00000E+00
 -1       128 1.50000E+02 2.35500E+01 0.00000E+00
 -1       129 1.50000E+02 2.65000E+01 0.00000E+00
 -1       130 1.50000E+02 2.94500E+01 0.00000E+00
 -1       131 1.50000E+02 3.24000E+01 0.00000E+00
 -1       132 1.50000E+02 3.53000E+01 0.00000E+00
 -1       133 1.50000E+02 3.82500E+01 0.00000E+00
 -1       134 1.50000E+02 4.12000E+01 0.00000E+00
 -1       135 1.50000E+02 4.41500E+01 0.00000E+00
 -1       136 1.50000E+02 4.71000E+01 0.00000E+00
 -1       137 1.29344E+02 2.43338E+01 0.00000E+00
 -1       138 1.28867E+02 2.29078E+01 0.00000E+00
 -1       139 1.28157E+02 2.16961E+01 0.00000E+00
 -1       140 1.27128E+02 2.05698E+01 0.00000E+00
 -1       141 1.25977E+02 1.97479E+01 0.00000E+00
 -1       142 1.24626E+02 1.91551E+01 0.00000E+00
 -1       143 1.22970E+02 1.88413E+01 0.00000E+00
 -1       144 1.21556E+02 1.88903E+01 0.00000E+00
 -1       145 1.20060E+02 1.92664E+01 0.00000E+00
 -1       146 1.18726E+02 1.99330E+01 0.00000E+00
 -1       147 1.17561E+02 2.08703E+01 0.00000E+00
 -1       148 1.16602E+02 2.20631E+01 0.00000E+00
 -1       149 1.15954E+02 2.33580E+01 0.00000E+00
 -1       150 1.15589E+02 2.47389E+01 0.00000E+00
 -1       151 1.15518E+02 2.62651E+01 0.00000E+00
 -1       152 1.15758E+02 2.76905E+01 0.00000E+00
 -1       153 1.16273E+02 2.90151E+01 0.00000E+00
 -1       154 1.17046E+02 3.02079E+01 0.00000E+00
 -1       155 1.18172E+02 3.13238E+01 0.00000E+00
 -1       156 1.19569E+02 3.21803E+01 0.00000E+00
 -1       157 1.20921E+02 3.26443E+01 0.00000E+00
 -1       158 1.22404E+02 3.28251E+01 0.00000E+00
 -1       159 1.24018E+02 3.26602E+01 0.00000E+00
 -1       160 1.26798E+02 3.13546E+01 0.00000E+00
 -1       161 1.27938E+02 3.02393E+01 0.00000E+00
 -1       162 1.28805E+02 2.88765E+01 0.00000E+00
 -1       163 1.29318E+02 2.74330E+01 0.00000E+00
 -1       164 2.59800E+00 4.55750E+01 0.00000E+00
 -1       165 2.59800E+00 4.26250E+01 0.00000E+00
 -1       166 2.59800E+00 3.96750E+01 0.00000E+00
 -1       167 2.59800E+00 3.67250E+01 0.00000E+00
 -1       168 2.59800E+00 3.38250E+01 0.00000E+00
 -1       169 2.59800E+00 3.08750E+01 0.00000E+00
 -1       170 2.59800E+00 2.79250E+01 0.00000E+00
 -1       171 2.59800E+00 2.49750E+01 0.00000E+00
 -1       172 2.59800E+00 2.20250E+01 0.00000E+00
 -1       173 2.59800E+00 1.90750E+01 0.00000E+00
 -1       174 2.59800E+00 1.61750E+01 0.00000E+00
 -1       175 2.59800E+00 1.32250E+01 0.00000E+00
 -1       176 2.59800E+00 1.02750E+01 0.00000E+00
 -1       177 2.59800E+00 7.32500E+00 0.00000E+00
 -1       178 2.59800E+00 4.37500E+00 0.00000E+00
 -1       179 2.87400E+00 2.18750E+00 0.00000E+00
 -1       180 4.65000E+00 4.74020E+01 0.00000E+00
 -1       181 7.65000E+00 4.74020E+01 0.00000E+00
 -1       182 1.06500E+01 4.74020E+01 0.00000E+00
 -1       183 1.36500E+01 4.74020E+01 0.00000E+00
 -1       184 1.66500E+01 4.74020E+01 0.00000E+00
 -1       185 1.96500E+01 4.74020E+01 0.00000E+00
 -1       186 2.26500E+01 4.74020E+01 0.00000E+00
 -1       187 2.56500E+01 4.74020E+01 0.00000E+00
 -1       188 2.86500E+01 4.74020E+01 0.00000E+00
 -1       189 3.16500E+01 4.74020E+01 0.00000E+00
 -1       190 3.46500E+01 4.74020E+01 0.00000E+00
 -1       191 3.76500E+01 4.74020E+01 0.00000E+00
 -1       192 4.06500E+01 4.74020E+01 0.00000E+00
 -1       193 4.36500E+01 4.74020E+01 0.00000E+00
 -1       194 4.66500E+01 4.74020E+01 0.00000E+00
 -1       195 4.96500E+01 4.74020E+01 0.00000E+00
 -1       196 5.26500E+01 4.74020E+01 0.00000E+00
 -1       197 5.56500E+01 4.74020E+01 0.00000E+00
 -1       198 5.86500E+01 4.74020E+01 0.00000E+00
 -1       199 6.16500E+01 4.74020E+01 0.00000E+00
 -1       200 6.46500E+01 4.74020E+01 0.00000E+00
 -1       201 6.76500E+01 4.74020E+01 0.00000E+00
 -1       202 7.06500E+01 4.74020E+01 0.00000E+00
 -1       203 7.36500E+01 4.74020E+01 0.00000E+00
 -1       204 7.66500E+01 4.74020E+01 0.00000E+00
 -1       205 7.96500E+01 4.74020E+01 0.00000E+00
 -1       206 8.26500E+01 4.74020E+01 0.00000E+00
 -1       207 8.56500E+01 4.74020E+01 0.00000E+00
 -1       208 8.86500E+01 4.74020E+01 0.00000E+00
 -1       209 9.16500E+01 4.74020E+01 0.00000E+00
 -1       210 9.46500E+01 4.74020E+01 0.00000E+00
 -1       211 9.76500E+01 4.74020E+01 0.00000E+00
 -1       212 1.00650E+02 4.74020E+01 0.00000E+00
 -1       213 1.03650E+02 4.74020E+01 0.00000E+00
 -1       214 1.06650E+02 4.74020E+01 0.00000E+00
 -1       215 1.09650E+02 4.74020E+01 0.00000E+00
 -1       216 1.12650E+02 4.74020E+01 0.00000E+00
 -1       217 1.15650E+02 4.74020E+01 0.00000E+00
 -1       218 1.18650E+02 4.74020E+01 0.00000E+00
 -1       219 1.21650E+02 4.74020E+01 0.00000E+00
 -1       220 1.24650E+02 4.74020E+01 0.00000E+00
 -1       221 1.27650E+02 4.74020E+01 0.00000E+00
 -1       222 1.30650E+02 4.74020E+01 0.00000E+00
 -1       223 1.33650E+02 4.74020E+01 0.00000E+00
 -1       224 1.36650E+02 4.74020E+01 0.00000E+00
 -1       225 1.39650E+02 4.74020E+01 0.00000E+00
 -1       226 1.42650E+02 4.74020E+01 0.00000E+00
 -1       227 1.45650E+02 4.74020E+01 0.00000E+00
 -1       228 5.87400E+00 2.18750E+00 0.00000E+00
 -1       229 8.87400E+00 2.18750E+00 0.00000E+00
 -1       230 1.18740E+01 2.18750E+00 0.00000E+00
 -1       231 1.48740E+01 2.18750E+00 0.00000E+00
 -1       232 1.78740E+01 2.18750E+00 0.00000E+00
 -1       233 2.08740E+01 2.18750E+00 0.00000E+00
 -1       234 2.38740E+01 2.18750E+00 0.00000E+00
 -1       235 2.68740E+01 2.18750E+00 0.00000E+00
 -1       236 2.98740E+01 2.18750E+00 0.00000E+00
 -1       237 3.28740E+01 2.18750E+00 0.00000E+00
 -1       238 3.58740E+01 2.18750E+00 0.00000E+00
 -1       239 3.88740E+01 2.18750E+00 0.00000E+00
 -1       240 4.18740E+01 2.18750E+00 0.00000E+00
 -1       241 4.48740E+01 2.18750E+00 0.00000E+00
 -1       242 4.78740E+01 2.18750E+00 0.00000E+00
 -1       243 5.08740E+01 2.18750E+00 0.00000E+00
 -1       244 5.38740E+01 2.18750E+00 0.00000E+00
 -1       245 5.68740E+01 2.18750E+00 0.00000E+00
 -1       246 5.98740E+01 2.18750E+00 0.00000E+00
 -1       247 6.28740E+01 2.18750E+00 0.00000E+00
 -1       248 6.58740E+01 2.18750E+00 0.00000E+00
 -1       249 6.88740E+01 2.18750E+00 0.00000E+00
 -1       250 7.18740E+01 2.18750E+00 0.00000E+00
 -1       251 7.48740E+01 2.18750E+00 0.00000E+00
 -1       252 7.78740E+01 2.18750E+00 0.00000E+00
 -1       253 8.08740E+01 2.18750E+00 0.00000E+00
 -1       254 8.38740E+01 2.18750E+00 0.00000E+00
 -1       255 8.68740E+01 2.18750E+00 0.00000E+00
 -1       256 8.98740E+01 2.18750E+00 0.00000E+00
 -1       257 9.28740E+01 2.18750E+00 0.00000E+00
 -1       258 9.58740E+01 2.18750E+00 0.00000E+00
 -1       259 9.88740E+01 2.18750E+00 0.00000E+00
 -1       260 1.01874E+02 2.18750E+00 0.00000E+00
 -1       261 1.04874E+02 2.18750E+00 0.00000E+00
 -1       262 1.07874E+02 2.18750E+00 0.00000E+00
 -1       263 1.10874E+02 2.18750E+00 0.00000E+00
 -1       264 1.13874E+02 2.18750E+00 0.00000E+00
 -1       265 1.16874E+02 2.18750E+00 0.00000E+00
 -1       266 1.19874E+02 2.18750E+00 0.00000E+00
 -1       267 1.22874E+02 2.18750E+00 0.00000E+00
 -1       268 1.25874E+02 2.18750E+00 0.00000E+00
 -1       269 1.28874E+02 2.18750E+00 0.00000E+00
 -1       270 1.31874E+02 2.18750E+00 0.00000E+00
 -1       271 1.34874E+02 2.18750E+00 0.00000E+00
 -1       272 1.37874E+02 2.18750E+00 0.00000E+00
 -1       273 1.40874E+02 2.18750E+00 0.00000E+00
 -1       274 1.43874E+02 2.18750E+00 0.00000E+00
 -1       275 1.46874E+02 2.18750E+00 0.00000E+00
 -1       276 1.47402E+02 4.42500E+00 0.00000E+00
 -1       277 1.47402E+02 7.37500E+00 0.00000E+00
 -1       278 1.47402E+02 1.03250E+01 0.00000E+00
 -1       279 1.47402E+02 1.32750E+01 0.00000E+00
 -1       280 1.47402E+02 1.61750E+01 0.00000E+00
 -1       281 1.47402E+02 1.91250E+01 0.00000E+00
 -1       282 1.47402E+02 2.20750E+01 0.00000E+00
 -1       283 1.47402E+02 2.50250E+01 0.00000E+00
 -1       284 1.47402E+02 2.79750E+01 0.00000E+00
 -1       285 1.47402E+02 3.09250E+01 0.00000E+00
 -1       286 1.47402E+02 3.38250E+01 0.00000E+00
 -1       287 1.47402E+02 3.67750E+01 0.00000E+00
 -1       288 1.47402E+02 3.97250E+01 0.00000E+00
 -1       289 1.47402E+02 4.26750E+01 0.00000E+00
 -1       290 1.46526E+02 4.50385E+01 0.00000E+00
 -1       291 1.30630E+02 2.49498E+01 0.00000E+00
 -1       292 1.30335E+02 2.32102E+01 0.00000E+00
 -1       293 1.29558E+02 2.16885E+01 0.00000E+00
 -1       294 1.28661E+02 2.02023E+01 0.00000E+00
 -1       295 1.27257E+02 1.91723E+01 0.00000E+00
 -1       296 1.25823E+02 1.82646E+01 0.00000E+00
 -1       297 1.24087E+02 1.74777E+01 0.00000E+00
 -1       298 1.22221E+02 1.76541E+01 0.00000E+00
 -1       299 1.20472E+02 1.77401E+01 0.00000E+00
 -1       300 1.18814E+02 1.84403E+01 0.00000E+00
 -1       301 1.17279E+02 1.93262E+01 0.00000E+00
 -1       302 1.16071E+02 2.06547E+01 0.00000E+00
 -1       303 1.15194E+02 2.21681E+01 0.00000E+00
 -1       304 1.14600E+02 2.37390E+01 0.00000E+00
 -1       305 1.14175E+02 2.54377E+01 0.00000E+00
 -1       306 1.14442E+02 2.71784E+01 0.00000E+00
 -1       307 1.14886E+02 2.87928E+01 0.00000E+00
 -1       308 1.15642E+02 3.02706E+01 0.00000E+00
 -1       309 1.16520E+02 3.18650E+01 0.00000E+00
 -1       310 1.18061E+02 3.30712E+01 0.00000E+00
 -1       311 1.19824E+02 3.36383E+01 0.00000E+00
 -1       312 1.21516E+02 3.39382E+01 0.00000E+00
 -1       313 1.23351E+02 3.41155E+01 0.00000E+00
 -1       314 1.25109E+02 3.36638E+01 0.00000E+00
 -1       315 1.26802E+02 3.29632E+01 0.00000E+00
 -1       316 1.28274E+02 3.17235E+01 0.00000E+00
 -1       317 1.29465E+02 3.02536E+01 0.00000E+00
 -1       318 1.30204E+02 2.85606E+01 0.00000E+00
 -1       319 1.30699E+02 2.67792E+01 0.00000E+00
 -1       320 5.19600E+00 4.11500E+01 0.00000E+00
 -1       321 5.19600E+00 4.41000E+01 0.00000E+00
 -1       322 5.19600E+00 3.52750E+01 0.00000E+00
 -1       323 5.19600E+00 3.23250E+01 0.00000E+00
 -1       324 5.19600E+00 2.93750E+01 0.00000E+00
 -1       325 5.19600E+00 2.64250E+01 0.00000E+00
 -1       326 5.19600E+00 2.34750E+01 0.00000E+00
 -1       327 5.19600E+00 2.05250E+01 0.00000E+00
 -1       328 5.19600E+00 1.76250E+01 0.00000E+00
 -1       329 5.19600E+00 1.46750E+01 0.00000E+00
 -1       330 5.19600E+00 1.17250E+01 0.00000E+00
 -1       331 5.19600E+00 8.77500E+00 0.00000E+00
 -1       332 5.19600E+00 5.82500E+00 0.00000E+00
 -1       333 5.53500E+00 4.00625E+00 0.00000E+00
 -1       334 8.53500E+00 4.00625E+00 0.00000E+00
 -1       335 9.15000E+00 4.48040E+01 0.00000E+00
 -1       336 1.21500E+01 4.48040E+01 0.00000E+00
 -1       337 1.51500E+01 4.48040E+01 0.00000E+00
 -1       338 1.81500E+01 4.48040E+01 0.00000E+00
 -1       339 2.11500E+01 4.48040E+01 0.00000E+00
 -1       340 2.41500E+01 4.48040E+01 0.00000E+00
 -1       341 2.71500E+01 4.48040E+01 0.00000E+00
 -1       342 3.01500E+01 4.48040E+01 0.00000E+00
 -1       343 3.31500E+01 4.48040E+01 0.00000E+00
 -1       344 3.61500E+01 4.48040E+01 0.00000E+00
 -1       345 3.91500E+01 4.48040E+01 0.00000E+00
 -1       346 4.21500E+01 4.48040E+01 0.00000E+00
 -1       347 4.51500E+01 4.48040E+01 0.00000E+00
 -1       348 4.81500E+01 4.48040E+01 0.00000E+00
 -1       349 5.11500E+01 4.48040E+01 0.00000E+00
 -1       350 5.41500E+01 4.48040E+01 0.00000E+00
 -1       351 5.71500E+01 4.48040E+01 0.00000E+00
 -1       352 6.01500E+01 4.48040E+01 0.00000E+00
 -1       353 6.31500E+01 4.48040E+01 0.00000E+00
 -1       354 6.61500E+01 4.48040E+01 0.00000E+00
 -1       355 6.91500E+01 4.48040E+01 0.00000E+00
 -1       356 7.21500E+01 4.48040E+01 0.00000E+00
 -1       357 7.51500E+01 4.48040E+01 0.00000E+00
 -1       358 7.81500E+01 4.48040E+01 0.00000E+00
 -1       359 8.11500E+01 4.48040E+01 0.00000E+00
 -1       360 8.41500E+01 4.48040E+01 0.00000E+00
 -1       361 8.71500E+01 4.48040E+01 0.00000E+00
 -1       362 9.01500E+01 4.48040E+01 0.00000E+00
 -1       363 9.31500E+01 4.48040E+01 0.00000E+00
 -1       364 9.61500E+01 4.48040E+01 0.00000E+00
 -1       365 9.91500E+01 4.48040E+01 0.00000E+00
 -1       366 1.02150E+02 4.48040E+01 0.00000E+00
 -1       367 1.05150E+02 4.48040E+01 0.00000E+00
 -1       368 1.08150E+02 4.48040E+01 0.00000E+00
 -1       369 1.11150E+02 4.48040E+01 0.00000E+00
 -1       370 1.14150E+02 4.48040E+01 0.00000E+00
 -1       371 1.17150E+02 4.48040E+01 0.00000E+00
 -1       372 1.20150E+02 4.48040E+01 0.00000E+00
 -1       373 1.23150E+02 4.48040E+01 0.00000E+00
 -1       374 1.26150E+02 4.48040E+01 0.00000E+00
 -1       375 1.29150E+02 4.48040E+01 0.00000E+00
 -1       376 1.32150E+02 4.48040E+01 0.00000E+00
 -1       377 1.35150E+02 4.48040E+01 0.00000E+00
 -1       378 1.38150E+02 4.48040E+01 0.00000E+00
 -1       379 1.41150E+02 4.48040E+01 0.00000E+00
 -1       380 1.43838E+02 4.49212E+01 0.00000E+00
 -1       381 1.15350E+01 4.00625E+00 0.00000E+00
 -1       382 1.45350E+01 4.00625E+00 0.00000E+00
 -1       383 1.75350E+01 4.00625E+00 0.00000E+00
 -1       384 2.05350E+01 4.00625E+00 0.00000E+00
 -1       385 2.35350E+01 4.00625E+00 0.00000E+00
 -1       386 2.65350E+01 4.00625E+00 0.00000E+00
 -1       387 2.95350E+01 4.00625E+00 0.00000E+00
 -1       388 3.25350E+01 4.00625E+00 0.00000E+00
 -1       389 3.55350E+01 4.00625E+00 0.00000E+00
 -1       390 3.85350E+01 4.00625E+00 0.00000E+00
 -1       391 4.15350E+01 4.00625E+00 0.00000E+00
 -1       392 4.45350E+01 4.00625E+00 0.00000E+00
 -1       393 4.75350E+01 4.00625E+00 0.00000E+00
 -1       394 5.05350E+01 4.00625E+00 0.00000E+00
 -1       395 5.35350E+01 4.00625E+00 0.00000E+00
 -1       396 5.65350E+01 4.00625E+00 0.00000E+00
 -1       397 5.95350E+01 4.00625E+00 0.00000E+00
 -1       398 6.25350E+01 4.00625E+00 0.00000E+00
 -1       399 6.55350E+01 4.00625E+00 0.00000E+00
 -1       400 6.85350E+01 4.00625E+00 0.00000E+00
 -1       401 7.15350E+01 4.00625E+00 0.00000E+00
 -1       402 7.45350E+01 4.00625E+00 0.00000E+00
 -1       403 7.75350E+01 4.00625E+00 0.00000E+00
 -1       404 8.05350E+01 4.00625E+00 0.00000E+00
 -1       405 8.35350E+01 4.00625E+00 0.00000E+00
 -1       406 8.65350E+01 4.00625E+00 0.00000E+00
 -1       407 8.95350E+01 4.00625E+00 0.00000E+00
 -1       408 9.25350E+01 4.00625E+00 0.00000E+00
 -1       409 9.55350E+01 4.00625E+00 0.00000E+00
 -1       410 9.85350E+01 4.00625E+00 0.00000E+00
 -1       411 1.01535E+02 4.00625E+00 0.00000E+00
 -1       412 1.04535E+02 4.00625E+00 0.00000E+00
 -1       413 1.07535E+02 4.00625E+00 0.00000E+00
 -1       414 1.10535E+02 4.00625E+00 0.00000E+00
 -1       415 1.13535E+02 4.00625E+00 0.00000E+00
 -1       416 1.16535E+02 4.00625E+00 0.00000E+00
 -1       417 1.19535E+02 4.00625E+00 0.00000E+00
 -1       418 1.22535E+02 4.00625E+00 0.00000E+00
 -1       419 1.25535E+02 4.00625E+00 0.00000E+00
 -1       420 1.28535E+02 4.00625E+00 0.00000E+00
 -1       421 1.31535E+02 4.00625E+00 0.00000E+00
 -1       422 1.34535E+02 4.00625E+00 0.00000E+00
 -1       423 1.37535E+02 4.00625E+00 0.00000E+00
 -1       424 1.40535E+02 4.00625E+00 0.00000E+00
 -1       425 1.43535E+02 4.00625E+00 0.00000E+00
 -1       426 1.45469E+02 4.21562E+00 0.00000E+00
 -1       427 1.44804E+02 1.18000E+01 0.00000E+00
 -1       428 1.44804E+02 8.85000E+00 0.00000E+00
 -1       429 1.45136E+02 6.53281E+00 0.00000E+00
 -1       430 1.44804E+02 1.47000E+01 0.00000E+00
 -1       431 1.44804E+02 1.76500E+01 0.00000E+00
 -1       432 1.44804E+02 2.06000E+01 0.00000E+00
 -1       433 1.44804E+02 2.35500E+01 0.00000E+00
 -1       434 1.44804E+02 2.65000E+01 0.00000E+00
 -1       435 1.44804E+02 2.94500E+01 0.00000E+00
 -1       436 1.44804E+02 3.23500E+01 0.00000E+00
 -1       437 1.44804E+02 3.53000E+01 0.00000E+00
 -1       438 1.44804E+02 3.82500E+01 0.00000E+00
 -1       439 1.44804E+02 4.12000E+01 0.00000E+00
 -1       440 1.31474E+02 2.16692E+01 0.00000E+00
 -1       441 1.32294E+02 2.58031E+01 0.00000E+00
 -1       442 1.31843E+02 2.38496E+01 0.00000E+00
 -1       443 1.30577E+02 2.01829E+01 0.00000E+00
 -1       444 1.28776E+02 1.85747E+01 0.00000E+00
 -1       445 5.19600E+00 3.82125E+01 0.00000E+00
 -1       446 1.25524E+02 1.66143E+01 0.00000E+00
 -1       447 1.23024E+02 1.61921E+01 0.00000E+00
 -1       448 1.21274E+02 1.62780E+01 0.00000E+00
 -1       449 1.19041E+02 1.66646E+01 0.00000E+00
 -1       450 1.17273E+02 1.75429E+01 0.00000E+00
 -1       451 1.15654E+02 1.90621E+01 0.00000E+00
 -1       452 1.14438E+02 2.07193E+01 0.00000E+00
 -1       453 1.13606E+02 2.24653E+01 0.00000E+00
 -1       454 1.13049E+02 2.42541E+01 0.00000E+00
 -1       455 1.12945E+02 2.65172E+01 0.00000E+00
 -1       456 1.13172E+02 2.83955E+01 0.00000E+00
 -1       457 1.14035E+02 3.01604E+01 0.00000E+00
 -1       458 1.14913E+02 3.17548E+01 0.00000E+00
 -1       459 1.16337E+02 3.36869E+01 0.00000E+00
 -1       460 1.18520E+02 3.46685E+01 0.00000E+00
 -1       461 1.20429E+02 3.51470E+01 0.00000E+00
 -1       462 1.22276E+02 3.56506E+01 0.00000E+00
 -1       463 1.24594E+02 3.53073E+01 0.00000E+00
 -1       464 1.26547E+02 3.47434E+01 0.00000E+00
 -1       465 1.28427E+02 3.33991E+01 0.00000E+00
 -1       466 1.30137E+02 3.20154E+01 0.00000E+00
 -1       467 1.31176E+02 2.99925E+01 0.00000E+00
 -1       468 1.31700E+02 2.80169E+01 0.00000E+00
 -1       469 1.27323E+02 1.74815E+01 0.00000E+00
 -1       470 1.24462E+02 1.53286E+01 0.00000E+00
 -1       471 1.00350E+01 6.60425E+00 0.00000E+00
 -1       472 7.79400E+00 3.08500E+01 0.00000E+00
 -1       473 7.79400E+00 3.38000E+01 0.00000E+00
 -1       474 7.79400E+00 2.49500E+01 0.00000E+00
 -1       475 7.79400E+00 2.20000E+01 0.00000E+00
 -1       476 7.79400E+00 1.91000E+01 0.00000E+00
 -1       477 7.79400E+00 1.61500E+01 0.00000E+00
 -1       478 7.79400E+00 1.32000E+01 0.00000E+00
 -1       479 7.79400E+00 1.02500E+01 0.00000E+00
 -1       480 1.30350E+01 6.60425E+00 0.00000E+00
 -1       481 1.06500E+01 4.22060E+01 0.00000E+00
 -1       482 1.27132E+02 1.55785E+01 0.00000E+00
 -1       483 1.36500E+01 4.22060E+01 0.00000E+00
 -1       484 1.66500E+01 4.22060E+01 0.00000E+00
 -1       485 1.96500E+01 4.22060E+01 0.00000E+00
 -1       486 2.26500E+01 4.22060E+01 0.00000E+00
 -1       487 2.56500E+01 4.22060E+01 0.00000E+00
 -1       488 2.86500E+01 4.22060E+01 0.00000E+00
 -1       489 3.16500E+01 4.22060E+01 0.00000E+00
 -1       490 3.46500E+01 4.22060E+01 0.00000E+00
 -1       491 3.76500E+01 4.22060E+01 0.00000E+00
 -1       492 4.06500E+01 4.22060E+01 0.00000E+00
 -1       493 4.36500E+01 4.22060E+01 0.00000E+00
 -1       494 4.66500E+01 4.22060E+01 0.00000E+00
 -1       495 4.96500E+01 4.22060E+01 0.00000E+00
 -1       496 5.26500E+01 4.22060E+01 0.00000E+00
 -1       497 5.56500E+01 4.22060E+01 0.00000E+00
 -1       498 5.86500E+01 4.22060E+01 0.00000E+00
 -1       499 6.16500E+01 4.22060E+01 0.00000E+00
 -1       500 6.46500E+01 4.22060E+01 0.00000E+00
 -1       501 6.76500E+01 4.22060E+01 0.00000E+00
 -1       502 7.06500E+01 4.22060E+01 0.00000E+00
 -1       503 7.36500E+01 4.22060E+01 0.00000E+00
 -1       504 7.66500E+01 4.22060E+01 0.00000E+00
 -1       505 7.96500E+01 4.22060E+01 0.00000E+00
 -1       506 8.26500E+01 4.22060E+01 0.00000E+00
 -1       507 8.56500E+01 4.22060E+01 0.00000E+00
 -1       508 8.86500E+01 4.22060E+01 0.00000E+00
 -1       509 9.16500E+01 4.22060E+01 0.00000E+00
 -1       510 9.46500E+01 4.22060E+01 0.00000E+00
 -1       511 9.76500E+01 4.22060E+01 0.00000E+00
 -1       512 1.00650E+02 4.22060E+01 0.00000E+00
 -1       513 1.03650E+02 4.22060E+01 0.00000E+00
 -1       514 1.06650E+02 4.22060E+01 0.00000E+00
 -1       515 1.09650E+02 4.22060E+01 0.00000E+00
 -1       516 1.12650E+02 4.22060E+01 0.00000E+00
 -1       517 1.15650E+02 4.22060E+01 0.00000E+00
 -1       518 1.18650E+02 4.22060E+01 0.00000E+00
 -1       519 1.21650E+02 4.22060E+01 0.00000E+00
 -1       520 1.24650E+02 4.22060E+01 0.00000E+00
 -1       521 1.27650E+02 4.22060E+01 0.00000E+00
 -1       522 1.30650E+02 4.22060E+01 0.00000E+00
 -1       523 1.33650E+02 4.22060E+01 0.00000E+00
 -1       524 1.36650E+02 4.22060E+01 0.00000E+00
 -1       525 1.39650E+02 4.22060E+01 0.00000E+00
 -1       526 1.90350E+01 6.60425E+00 0.00000E+00
 -1       527 2.20350E+01 6.60425E+00 0.00000E+00
 -1       528 2.50350E+01 6.60425E+00 0.00000E+00
 -1       529 2.80350E+01 6.60425E+00 0.00000E+00
 -1       530 3.10350E+01 6.60425E+00 0.00000E+00
 -1       531 3.40350E+01 6.60425E+00 0.00000E+00
 -1       532 3.70350E+01 6.60425E+00 0.00000E+00
 -1       533 4.00350E+01 6.60425E+00 0.00000E+00
 -1       534 4.30350E+01 6.60425E+00 0.00000E+00
 -1       535 4.60350E+01 6.60425E+00 0.00000E+00
 -1       536 4.90350E+01 6.60425E+00 0.00000E+00
 -1       537 5.20350E+01 6.60425E+00 0.00000E+00
 -1       538 5.50350E+01 6.60425E+00 0.00000E+00
 -1       539 5.80350E+01 6.60425E+00 0.00000E+00
 -1       540 6.10350E+01 6.60425E+00 0.00000E+00
 -1       541 6.40350E+01 6.60425E+00 0.00000E+00
 -1       542 6.70350E+01 6.60425E+00 0.00000E+00
 -1       543 7.00350E+01 6.60425E+00 0.00000E+00
 -1       544 7.30350E+01 6.60425E+00 0.00000E+00
 -1       545 7.60350E+01 6.60425E+00 0.00000E+00
 -1       546 7.90350E+01 6.60425E+00 0.00000E+00
 -1       547 8.20350E+01 6.60425E+00 0.00000E+00
 -1       548 8.50350E+01 6.60425E+00 0.00000E+00
 -1       549 8.80350E+01 6.60425E+00 0.00000E+00
 -1       550 9.10350E+01 6.60425E+00 0.00000E+00
 -1       551 9.40350E+01 6.60425E+00 0.00000E+00
 -1       552 9.70350E+01 6.60425E+00 0.00000E+00
 -1       553 1.00035E+02 6.60425E+00 0.00000E+00
 -1       554 1.03035E+02 6.60425E+00 0.00000E+00
 -1       555 1.06035E+02 6.60425E+00 0.00000E+00
 -1       556 1.09035E+02 6.60425E+00 0.00000E+00
 -1       557 1.12035E+02 6.60425E+00 0.00000E+00
 -1       558 1.15035E+02 6.60425E+00 0.00000E+00
 -1       559 1.18035E+02 6.60425E+00 0.00000E+00
 -1       560 1.21035E+02 6.60425E+00 0.00000E+00
 -1       561 1.24035E+02 6.60425E+00 0.00000E+00
 -1       562 1.27035E+02 6.60425E+00 0.00000E+00
 -1       563 1.30035E+02 6.60425E+00 0.00000E+00
 -1       564 1.33035E+02 6.60425E+00 0.00000E+00
 -1       565 1.36035E+02 6.60425E+00 0.00000E+00
 -1       566 1.39035E+02 6.60425E+00 0.00000E+00
 -1       567 1.42035E+02 6.60425E+00 0.00000E+00
 -1       568 1.42206E+02 1.61750E+01 0.00000E+00
 -1       569 1.42206E+02 1.91250E+01 0.00000E+00
 -1       570 1.42206E+02 1.03250E+01 0.00000E+00
 -1       571 1.42206E+02 1.32500E+01 0.00000E+00
 -1       572 1.42206E+02 2.20750E+01 0.00000E+00
 -1       573 1.42206E+02 2.50250E+01 0.00000E+00
 -1       574 1.42206E+02 2.79750E+01 0.00000E+00
 -1       575 1.42206E+02 3.08750E+01 0.00000E+00
 -1       576 1.42206E+02 3.38250E+01 0.00000E+00
 -1       577 1.42206E+02 3.67750E+01 0.00000E+00
 -1       578 1.42206E+02 3.97250E+01 0.00000E+00
 -1       579 1.33903E+02 2.44025E+01 0.00000E+00
 -1       580 1.33534E+02 2.22221E+01 0.00000E+00
 -1       581 1.33654E+02 2.73546E+01 0.00000E+00
 -1       582 1.60350E+01 6.60425E+00 0.00000E+00
 -1       583 1.32781E+02 1.98670E+01 0.00000E+00
 -1       584 7.92300E+00 4.16780E+01 0.00000E+00
 -1       585 1.28980E+02 1.67915E+01 0.00000E+00
 -1       586 1.12138E+02 2.99950E+01 0.00000E+00
 -1       587 7.79400E+00 2.79000E+01 0.00000E+00
 -1       588 1.17394E+02 1.55677E+01 0.00000E+00
 -1       589 1.22069E+02 1.46057E+01 0.00000E+00
 -1       590 1.16794E+02 3.55892E+01 0.00000E+00
 -1       591 1.19894E+02 1.49464E+01 0.00000E+00
 -1       592 1.15175E+02 1.69296E+01 0.00000E+00
 -1       593 1.13798E+02 1.89755E+01 0.00000E+00
 -1       594 1.12625E+02 2.09263E+01 0.00000E+00
 -1       595 1.11770E+02 2.28746E+01 0.00000E+00
 -1       596 1.11283E+02 2.53071E+01 0.00000E+00
 -1       597 1.11522E+02 2.76419E+01 0.00000E+00
 -1       598 1.13016E+02 3.15895E+01 0.00000E+00
 -1       599 1.14379E+02 3.36389E+01 0.00000E+00
 -1       600 1.19057E+02 3.65714E+01 0.00000E+00
 -1       601 1.20905E+02 3.70749E+01 0.00000E+00
 -1       602 1.23711E+02 3.73413E+01 0.00000E+00
 -1       603 1.26046E+02 3.66731E+01 0.00000E+00
 -1       604 1.28387E+02 3.53300E+01 0.00000E+00
 -1       605 1.30255E+02 3.39105E+01 0.00000E+00
 -1       606 1.32108E+02 3.17491E+01 0.00000E+00
 -1       607 1.33130E+02 2.93302E+01 0.00000E+00
 -1       608 7.61550E+00 6.21462E+00 0.00000E+00
 -1       609 1.30979E+02 1.82587E+01 0.00000E+00
 -1       610 7.79400E+00 3.67375E+01 0.00000E+00
 -1       611 1.32226E+02 3.36441E+01 0.00000E+00
 -1       612 1.26070E+02 1.42929E+01 0.00000E+00
 -1       613 1.14836E+02 3.55412E+01 0.00000E+00
 -1       614 1.41678E+02 4.22645E+01 0.00000E+00
 -1       615 1.03920E+01 2.05500E+01 0.00000E+00
 -1       616 1.03920E+01 2.35000E+01 0.00000E+00
 -1       617 1.03920E+01 1.46750E+01 0.00000E+00
 -1       618 1.03920E+01 1.17250E+01 0.00000E+00
 -1       619 1.15350E+01 9.20225E+00 0.00000E+00
 -1       620 1.45350E+01 9.20225E+00 0.00000E+00
 -1       621 1.34044E+02 3.11418E+01 0.00000E+00
 -1       622 1.35211E+02 2.88251E+01 0.00000E+00
 -1       623 1.51500E+01 3.96080E+01 0.00000E+00
 -1       624 1.81500E+01 3.96080E+01 0.00000E+00
 -1       625 2.11500E+01 3.96080E+01 0.00000E+00
 -1       626 2.41500E+01 3.96080E+01 0.00000E+00
 -1       627 2.71500E+01 3.96080E+01 0.00000E+00
 -1       628 3.01500E+01 3.96080E+01 0.00000E+00
 -1       629 3.31500E+01 3.96080E+01 0.00000E+00
 -1       630 3.61500E+01 3.96080E+01 0.00000E+00
 -1       631 3.91500E+01 3.96080E+01 0.00000E+00
 -1       632 4.21500E+01 3.96080E+01 0.00000E+00
 -1       633 4.51500E+01 3.96080E+01 0.00000E+00
 -1       634 4.81500E+01 3.96080E+01 0.00000E+00
 -1       635 5.11500E+01 3.96080E+01 0.00000E+00
 -1       636 5.41500E+01 3.96080E+01 0.00000E+00
 -1       637 5.71500E+01 3.96080E+01 0.00000E+00
 -1       638 6.01500E+01 3.96080E+01 0.00000E+00
 -1       639 6.31500E+01 3.96080E+01 0.00000E+00
 -1       640 6.61500E+01 3.96080E+01 0.00000E+00
 -1       641 6.91500E+01 3.96080E+01 0.00000E+00
 -1       642 7.21500E+01 3.96080E+01 0.00000E+00
 -1       643 7.51500E+01 3.96080E+01 0.00000E+00
 -1       644 7.81500E+01 3.96080E+01 0.00000E+00
 -1       645 8.11500E+01 3.96080E+01 0.00000E+00
 -1       646 8.41500E+01 3.96080E+01 0.00000E+00
 -1       647 8.71500E+01 3.96080E+01 0.00000E+00
 -1       648 9.01500E+01 3.96080E+01 0.00000E+00
 -1       649 9.31500E+01 3.96080E+01 0.00000E+00
 -1       650 9.61500E+01 3.96080E+01 0.00000E+00
 -1       651 9.91500E+01 3.96080E+01 0.00000E+00
 -1       652 1.02150E+02 3.96080E+01 0.00000E+00
 -1       653 1.05150E+02 3.96080E+01 0.00000E+00
 -1       654 1.08150E+02 3.96080E+01 0.00000E+00
 -1       655 1.11150E+02 3.96080E+01 0.00000E+00
 -1       656 1.14150E+02 3.96080E+01 0.00000E+00
 -1       657 1.17150E+02 3.96080E+01 0.00000E+00
 -1       658 1.23150E+02 3.96530E+01 0.00000E+00
 -1       659 1.26150E+02 3.96530E+01 0.00000E+00
 -1       660 1.29150E+02 3.96530E+01 0.00000E+00
 -1       661 1.32150E+02 3.96530E+01 0.00000E+00
 -1       662 1.35150E+02 3.96530E+01 0.00000E+00
 -1       663 1.38150E+02 3.96530E+01 0.00000E+00
 -1       664 2.35350E+01 9.20225E+00 0.00000E+00
 -1       665 2.05350E+01 9.20225E+00 0.00000E+00
 -1       666 2.95350E+01 9.20225E+00 0.00000E+00
 -1       667 3.25350E+01 9.20225E+00 0.00000E+00
 -1       668 3.55350E+01 9.20225E+00 0.00000E+00
 -1       669 3.85350E+01 9.20225E+00 0.00000E+00
 -1       670 4.15350E+01 9.20225E+00 0.00000E+00
 -1       671 4.45350E+01 9.20225E+00 0.00000E+00
 -1       672 4.75350E+01 9.20225E+00 0.00000E+00
 -1       673 5.05350E+01 9.20225E+00 0.00000E+00
 -1       674 5.35350E+01 9.20225E+00 0.00000E+00
 -1       675 5.65350E+01 9.20225E+00 0.00000E+00
 -1       676 5.95350E+01 9.20225E+00 0.00000E+00
 -1       677 6.25350E+01 9.20225E+00 0.00000E+00
 -1       678 6.55350E+01 9.20225E+00 0.00000E+00
 -1       679 6.85350E+01 9.20225E+00 0.00000E+00
 -1       680 7.15350E+01 9.20225E+00 0.00000E+00
 -1       681 7.45350E+01 9.20225E+00 0.00000E+00
 -1       682 7.75350E+01 9.20225E+00 0.00000E+00
 -1       683 8.05350E+01 9.20225E+00 0.00000E+00
 -1       684 8.35350E+01 9.20225E+00 0.00000E+00
 -1       685 8.65350E+01 9.20225E+00 0.00000E+00
 -1       686 8.95350E+01 9.20225E+00 0.00000E+00
 -1       687 9.25350E+01 9.20225E+00 0.00000E+00
 -1       688 9.55350E+01 9.20225E+00 0.00000E+00
 -1       689 9.85350E+01 9.20225E+00 0.00000E+00
 -1       690 1.01535E+02 9.20225E+00 0.00000E+00
 -1       691 1.04535E+02 9.20225E+00 0.00000E+00
 -1       692 1.07535E+02 9.20225E+00 0.00000E+00
 -1       693 1.10535E+02 9.20225E+00 0.00000E+00
 -1       694 1.13535E+02 9.20225E+00 0.00000E+00
 -1       695 1.16535E+02 9.20225E+00 0.00000E+00
 -1       696 1.19535E+02 9.20225E+00 0.00000E+00
 -1       697 1.22535E+02 9.20225E+00 0.00000E+00
 -1       698 1.25535E+02 9.20225E+00 0.00000E+00
 -1       699 1.28535E+02 9.20225E+00 0.00000E+00
 -1       700 1.31535E+02 9.20225E+00 0.00000E+00
 -1       701 1.34535E+02 9.20225E+00 0.00000E+00
 -1       702 1.37535E+02 9.20225E+00 0.00000E+00
 -1       703 1.39870E+02 9.76363E+00 0.00000E+00
 -1       704 1.39821E+02 2.35500E+01 0.00000E+00
 -1       705 1.40178E+02 3.96890E+01 0.00000E+00
 -1       706 1.39608E+02 1.76500E+01 0.00000E+00
 -1       707 1.39821E+02 2.65000E+01 0.00000E+00
 -1       708 1.39608E+02 2.06000E+01 0.00000E+00
 -1       709 1.39821E+02 2.94000E+01 0.00000E+00
 -1       710 1.39821E+02 3.23500E+01 0.00000E+00
 -1       711 1.39821E+02 3.53000E+01 0.00000E+00
 -1       712 1.31192E+02 1.58720E+01 0.00000E+00
 -1       713 1.35409E+02 2.30260E+01 0.00000E+00
 -1       714 1.28070E+02 3.74892E+01 0.00000E+00
 -1       715 1.18190E+02 1.34300E+01 0.00000E+00
 -1       716 1.07220E+01 3.94717E+01 0.00000E+00
 -1       717 1.12269E+02 3.35641E+01 0.00000E+00
 -1       718 1.10171E+02 2.92531E+01 0.00000E+00
 -1       719 1.09780E+02 2.66403E+01 0.00000E+00
 -1       720 1.75350E+01 9.20225E+00 0.00000E+00
 -1       721 2.65350E+01 9.20225E+00 0.00000E+00
 -1       722 1.03920E+01 1.76125E+01 0.00000E+00
 -1       723 1.29345E+02 1.46591E+01 0.00000E+00
 -1       724 1.22146E+02 3.89156E+01 0.00000E+00
 -1       725 1.03920E+01 3.23250E+01 0.00000E+00
 -1       726 1.23810E+02 1.31650E+01 0.00000E+00
 -1       727 1.20716E+02 1.30816E+01 0.00000E+00
 -1       728 1.17243E+02 3.76537E+01 0.00000E+00
 -1       729 1.12786E+02 1.68079E+01 0.00000E+00
 -1       730 1.11742E+02 1.90671E+01 0.00000E+00
 -1       731 1.10474E+02 2.11435E+01 0.00000E+00
 -1       732 1.09516E+02 2.36889E+01 0.00000E+00
 -1       733 1.11148E+02 3.15788E+01 0.00000E+00
 -1       734 1.15212E+02 1.45014E+01 0.00000E+00
 -1       735 1.32994E+02 1.74803E+01 0.00000E+00
 -1       736 1.19486E+02 3.86396E+01 0.00000E+00
 -1       737 1.35487E+02 2.60229E+01 0.00000E+00
 -1       738 1.30460E+02 3.61193E+01 0.00000E+00
 -1       739 1.34951E+02 2.04713E+01 0.00000E+00
 -1       740 1.03920E+01 3.52625E+01 0.00000E+00
 -1       741 1.03920E+01 2.64500E+01 0.00000E+00
 -1       742 1.34162E+02 3.30368E+01 0.00000E+00
 -1       743 1.39608E+02 1.47250E+01 0.00000E+00
 -1       744 1.35164E+02 1.80846E+01 0.00000E+00
 -1       745 1.32431E+02 3.58529E+01 0.00000E+00
 -1       746 1.39739E+02 1.22443E+01 0.00000E+00
 -1       747 1.38985E+02 3.74765E+01 0.00000E+00
 -1       748 1.25735E+02 3.81574E+01 0.00000E+00
 -1       749 1.03920E+01 2.93875E+01 0.00000E+00
 -1       750 1.12726E+02 3.54663E+01 0.00000E+00
 -1       751 1.28282E+02 1.33734E+01 0.00000E+00
 -1       752 1.33920E+01 1.17250E+01 0.00000E+00
 -1       753 1.12471E+02 1.40473E+01 0.00000E+00
 -1       754 1.31486E+02 1.34116E+01 0.00000E+00
 -1       755 1.10069E+02 3.34975E+01 0.00000E+00
 -1       756 1.96500E+01 3.70100E+01 0.00000E+00
 -1       757 2.26500E+01 3.70100E+01 0.00000E+00
 -1       758 2.56500E+01 3.70100E+01 0.00000E+00
 -1       759 2.86500E+01 3.70100E+01 0.00000E+00
 -1       760 3.16500E+01 3.70100E+01 0.00000E+00
 -1       761 3.46500E+01 3.70100E+01 0.00000E+00
 -1       762 3.76500E+01 3.70100E+01 0.00000E+00
 -1       763 4.06500E+01 3.70100E+01 0.00000E+00
 -1       764 4.36500E+01 3.70100E+01 0.00000E+00
 -1       765 4.66500E+01 3.70100E+01 0.00000E+00
 -1       766 4.96500E+01 3.70100E+01 0.00000E+00
 -1       767 5.26500E+01 3.70100E+01 0.00000E+00
 -1       768 5.56500E+01 3.70100E+01 0.00000E+00
 -1       769 5.86500E+01 3.70100E+01 0.00000E+00
 -1       770 6.16500E+01 3.70100E+01 0.00000E+00
 -1       771 6.46500E+01 3.70100E+01 0.00000E+00
 -1       772 6.76500E+01 3.70100E+01 0.00000E+00
 -1       773 7.06500E+01 3.70100E+01 0.00000E+00
 -1       774 7.36500E+01 3.70100E+01 0.00000E+00
 -1       775 7.66500E+01 3.70100E+01 0.00000E+00
 -1       776 7.96500E+01 3.70100E+01 0.00000E+00
 -1       777 8.26500E+01 3.70100E+01 0.00000E+00
 -1       778 8.56500E+01 3.70100E+01 0.00000E+00
 -1       779 8.86500E+01 3.70100E+01 0.00000E+00
 -1       780 9.16500E+01 3.70100E+01 0.00000E+00
 -1       781 9.46500E+01 3.70100E+01 0.00000E+00
 -1       782 9.76500E+01 3.70100E+01 0.00000E+00
 -1       783 1.00650E+02 3.70100E+01 0.00000E+00
 -1       784 1.03650E+02 3.70100E+01 0.00000E+00
 -1       785 1.06650E+02 3.70100E+01 0.00000E+00
 -1       786 1.09650E+02 3.70100E+01 0.00000E+00
 -1       787 1.35708E+02 3.66647E+01 0.00000E+00
 -1       788 1.07773E+02 2.53322E+01 0.00000E+00
 -1       789 3.40350E+01 1.18003E+01 0.00000E+00
 -1       790 3.10350E+01 1.18003E+01 0.00000E+00
 -1       791 4.00350E+01 1.18003E+01 0.00000E+00
 -1       792 4.30350E+01 1.18003E+01 0.00000E+00
 -1       793 4.60350E+01 1.18003E+01 0.00000E+00
 -1       794 4.90350E+01 1.18003E+01 0.00000E+00
 -1       795 5.20350E+01 1.18003E+01 0.00000E+00
 -1       796 5.50350E+01 1.18003E+01 0.00000E+00
 -1       797 5.80350E+01 1.18003E+01 0.00000E+00
 -1       798 6.10350E+01 1.18003E+01 0.00000E+00
 -1       799 6.40350E+01 1.18003E+01 0.00000E+00
 -1       800 6.70350E+01 1.18003E+01 0.00000E+00
 -1       801 7.00350E+01 1.18003E+01 0.00000E+00
 -1       802 7.30350E+01 1.18003E+01 0.00000E+00
 -1       803 7.60350E+01 1.18003E+01 0.00000E+00
 -1       804 7.90350E+01 1.18003E+01 0.00000E+00
 -1       805 8.20350E+01 1.18003E+01 0.00000E+00
 -1       806 8.50350E+01 1.18003E+01 0.00000E+00
 -1       807 8.80350E+01 1.18003E+01 0.00000E+00
 -1       808 9.10350E+01 1.18003E+01 0.00000E+00
 -1       809 9.40350E+01 1.18003E+01 0.00000E+00
 -1       810 9.70350E+01 1.18003E+01 0.00000E+00
 -1       811 1.00035E+02 1.18003E+01 0.00000E+00
 -1       812 1.03035E+02 1.18003E+01 0.00000E+00
 -1       813 1.06035E+02 1.18003E+01 0.00000E+00
 -1       814 1.09035E+02 1.18003E+01 0.00000E+00
 -1       815 1.34486E+02 1.34116E+01 0.00000E+00
 -1       816 1.37178E+02 1.15876E+01 0.00000E+00
 -1       817 1.37055E+02 1.91250E+01 0.00000E+00
 -1       818 1.29900E+01 2.20250E+01 0.00000E+00
 -1       819 1.37223E+02 3.08750E+01 0.00000E+00
 -1       820 1.37223E+02 3.38250E+01 0.00000E+00
 -1       821 1.33325E+02 1.57481E+01 0.00000E+00
 -1       822 3.70350E+01 1.18003E+01 0.00000E+00
 -1       823 1.08389E+02 2.18123E+01 0.00000E+00
 -1       824 1.21846E+02 1.25640E+01 0.00000E+00
 -1       825 2.20350E+01 1.18003E+01 0.00000E+00
 -1       826 1.15773E+02 3.72798E+01 0.00000E+00
 -1       827 1.66500E+01 3.70100E+01 0.00000E+00
 -1       828 1.35210E+01 3.61362E+01 0.00000E+00
 -1       829 1.10250E+02 1.70072E+01 0.00000E+00
 -1       830 1.08982E+02 1.90837E+01 0.00000E+00
 -1       831 1.08164E+02 2.79450E+01 0.00000E+00
 -1       832 1.08615E+02 3.12749E+01 0.00000E+00
 -1       833 1.29900E+01 2.49750E+01 0.00000E+00
 -1       834 2.80350E+01 1.18003E+01 0.00000E+00
 -1       835 1.35210E+01 3.31987E+01 0.00000E+00
 -1       836 1.29900E+01 1.90875E+01 0.00000E+00
 -1       837 1.06646E+02 2.34556E+01 0.00000E+00
 -1       838 1.29900E+01 1.61500E+01 0.00000E+00
 -1       839 2.50350E+01 1.18003E+01 0.00000E+00
 -1       840 1.34935E+02 3.48508E+01 0.00000E+00
 -1       841 1.15141E+02 1.21855E+01 0.00000E+00
 -1       842 1.37393E+02 2.86325E+01 0.00000E+00
 -1       843 1.90350E+01 1.18003E+01 0.00000E+00
 -1       844 1.62135E+01 1.17626E+01 0.00000E+00
 -1       845 1.35210E+01 3.02612E+01 0.00000E+00
 -1       846 2.41500E+01 3.44120E+01 0.00000E+00
 -1       847 2.71500E+01 3.44120E+01 0.00000E+00
 -1       848 3.01500E+01 3.44120E+01 0.00000E+00
 -1       849 3.31500E+01 3.44120E+01 0.00000E+00
 -1       850 3.61500E+01 3.44120E+01 0.00000E+00
 -1       851 3.91500E+01 3.44120E+01 0.00000E+00
 -1       852 4.21500E+01 3.44120E+01 0.00000E+00
 -1       853 4.51500E+01 3.44120E+01 0.00000E+00
 -1       854 4.81500E+01 3.44120E+01 0.00000E+00
 -1       855 5.11500E+01 3.44120E+01 0.00000E+00
 -1       856 5.41500E+01 3.44120E+01 0.00000E+00
 -1       857 5.71500E+01 3.44120E+01 0.00000E+00
 -1       858 6.01500E+01 3.44120E+01 0.00000E+00
 -1       859 6.31500E+01 3.44120E+01 0.00000E+00
 -1       860 6.61500E+01 3.44120E+01 0.00000E+00
 -1       861 6.91500E+01 3.44120E+01 0.00000E+00
 -1       862 7.21500E+01 3.44120E+01 0.00000E+00
 -1       863 7.51500E+01 3.44120E+01 0.00000E+00
 -1       864 7.81500E+01 3.44120E+01 0.00000E+00
 -1       865 8.11500E+01 3.44120E+01 0.00000E+00
 -1       866 8.41500E+01 3.44120E+01 0.00000E+00
 -1       867 8.71500E+01 3.44120E+01 0.00000E+00
 -1       868 9.01500E+01 3.44120E+01 0.00000E+00
 -1       869 9.31500E+01 3.44120E+01 0.00000E+00
 -1       870 9.61500E+01 3.44120E+01 0.00000E+00
 -1       871 9.91500E+01 3.44120E+01 0.00000E+00
 -1       872 1.02150E+02 3.44120E+01 0.00000E+00
 -1       873 1.05150E+02 3.44120E+01 0.00000E+00
 -1       874 1.37010E+02 1.61875E+01 0.00000E+00
 -1       875 2.35350E+01 1.43982E+01 0.00000E+00
 -1       876 4.45350E+01 1.43982E+01 0.00000E+00
 -1       877 4.15350E+01 1.43982E+01 0.00000E+00
 -1       878 5.05350E+01 1.43982E+01 0.00000E+00
 -1       879 5.35350E+01 1.43982E+01 0.00000E+00
 -1       880 5.65350E+01 1.43982E+01 0.00000E+00
 -1       881 5.95350E+01 1.43982E+01 0.00000E+00
 -1       882 6.25350E+01 1.43982E+01 0.00000E+00
 -1       883 6.55350E+01 1.43982E+01 0.00000E+00
 -1       884 6.85350E+01 1.43982E+01 0.00000E+00
 -1       885 7.15350E+01 1.43982E+01 0.00000E+00
 -1       886 7.45350E+01 1.43982E+01 0.00000E+00
 -1       887 7.75350E+01 1.43982E+01 0.00000E+00
 -1       888 8.05350E+01 1.43982E+01 0.00000E+00
 -1       889 8.35350E+01 1.43982E+01 0.00000E+00
 -1       890 8.65350E+01 1.43982E+01 0.00000E+00
 -1       891 8.95350E+01 1.43982E+01 0.00000E+00
 -1       892 9.25350E+01 1.43982E+01 0.00000E+00
 -1       893 9.55350E+01 1.43982E+01 0.00000E+00
 -1       894 9.85350E+01 1.43982E+01 0.00000E+00
 -1       895 1.01535E+02 1.43982E+01 0.00000E+00
 -1       896 1.04535E+02 1.43982E+01 0.00000E+00
 -1       897 1.07393E+02 1.57027E+01 0.00000E+00
 -1       898 1.37047E+02 1.40683E+01 0.00000E+00
 -1       899 1.06519E+02 1.99772E+01 0.00000E+00
 -1       900 1.07486E+02 3.36008E+01 0.00000E+00
 -1       901 1.06358E+02 2.98850E+01 0.00000E+00
 -1       902 1.81500E+01 3.44120E+01 0.00000E+00
 -1       903 4.75350E+01 1.43982E+01 0.00000E+00
 -1       904 3.25350E+01 1.43982E+01 0.00000E+00
 -1       905 1.32555E+01 2.76181E+01 0.00000E+00
 -1       906 1.06106E+02 2.69174E+01 0.00000E+00
 -1       907 2.11500E+01 3.44120E+01 0.00000E+00
 -1       908 1.58115E+01 1.61876E+01 0.00000E+00
 -1       909 2.95350E+01 1.43982E+01 0.00000E+00
 -1       910 1.61190E+01 3.17300E+01 0.00000E+00
 -1       911 1.05527E+02 1.71877E+01 0.00000E+00
 -1       912 2.65350E+01 1.43982E+01 0.00000E+00
 -1       913 1.55880E+01 2.05562E+01 0.00000E+00
 -1       914 1.04980E+02 2.50408E+01 0.00000E+00
 -1       915 2.05350E+01 1.43982E+01 0.00000E+00
 -1       916 3.55350E+01 1.43982E+01 0.00000E+00
 -1       917 3.85350E+01 1.43982E+01 0.00000E+00
 -1       918 1.55880E+01 2.35063E+01 0.00000E+00
 -1       919 1.58535E+01 2.90869E+01 0.00000E+00
 -1       920 4.30350E+01 1.69963E+01 0.00000E+00
 -1       921 2.56500E+01 3.18140E+01 0.00000E+00
 -1       922 2.86500E+01 3.18140E+01 0.00000E+00
 -1       923 3.16500E+01 3.18140E+01 0.00000E+00
 -1       924 3.46500E+01 3.18140E+01 0.00000E+00
 -1       925 3.76500E+01 3.18140E+01 0.00000E+00
 -1       926 4.06500E+01 3.18140E+01 0.00000E+00
 -1       927 4.36500E+01 3.18140E+01 0.00000E+00
 -1       928 4.66500E+01 3.18140E+01 0.00000E+00
 -1       929 4.96500E+01 3.18140E+01 0.00000E+00
 -1       930 5.26500E+01 3.18140E+01 0.00000E+00
 -1       931 5.56500E+01 3.18140E+01 0.00000E+00
 -1       932 5.86500E+01 3.18140E+01 0.00000E+00
 -1       933 6.16500E+01 3.18140E+01 0.00000E+00
 -1       934 6.46500E+01 3.18140E+01 0.00000E+00
 -1       935 6.76500E+01 3.18140E+01 0.00000E+00
 -1       936 7.06500E+01 3.18140E+01 0.00000E+00
 -1       937 7.36500E+01 3.18140E+01 0.00000E+00
 -1       938 7.66500E+01 3.18140E+01 0.00000E+00
 -1       939 7.96500E+01 3.18140E+01 0.00000E+00
 -1       940 8.26500E+01 3.18140E+01 0.00000E+00
 -1       941 8.56500E+01 3.18140E+01 0.00000E+00
 -1       942 8.86500E+01 3.18140E+01 0.00000E+00
 -1       943 9.16500E+01 3.18140E+01 0.00000E+00
 -1       944 9.46500E+01 3.18140E+01 0.00000E+00
 -1       945 9.76500E+01 3.18140E+01 0.00000E+00
 -1       946 1.00650E+02 3.18140E+01 0.00000E+00
 -1       947 1.03650E+02 3.18140E+01 0.00000E+00
 -1       948 5.50350E+01 1.69963E+01 0.00000E+00
 -1       949 5.20350E+01 1.69963E+01 0.00000E+00
 -1       950 6.10350E+01 1.69963E+01 0.00000E+00
 -1       951 6.40350E+01 1.69963E+01 0.00000E+00
 -1       952 6.70350E+01 1.69963E+01 0.00000E+00
 -1       953 7.00350E+01 1.69963E+01 0.00000E+00
 -1       954 7.30350E+01 1.69963E+01 0.00000E+00
 -1       955 7.60350E+01 1.69963E+01 0.00000E+00
 -1       956 7.90350E+01 1.69963E+01 0.00000E+00
 -1       957 8.20350E+01 1.69963E+01 0.00000E+00
 -1       958 8.50350E+01 1.69963E+01 0.00000E+00
 -1       959 8.80350E+01 1.69963E+01 0.00000E+00
 -1       960 9.10350E+01 1.69963E+01 0.00000E+00
 -1       961 9.40350E+01 1.69963E+01 0.00000E+00
 -1       962 9.70350E+01 1.69963E+01 0.00000E+00
 -1       963 1.00035E+02 1.69963E+01 0.00000E+00
 -1       964 1.02781E+02 1.70920E+01 0.00000E+00
 -1       965 1.81733E+01 1.52929E+01 0.00000E+00
 -1       966 5.80350E+01 1.69963E+01 0.00000E+00
 -1       967 1.96500E+01 3.18140E+01 0.00000E+00
 -1       968 1.04366E+02 2.17977E+01 0.00000E+00
 -1       969 1.04022E+02 2.85883E+01 0.00000E+00
 -1       970 2.26500E+01 3.18140E+01 0.00000E+00
 -1       971 1.82944E+01 1.85047E+01 0.00000E+00
 -1       972 1.03573E+02 1.94448E+01 0.00000E+00
 -1       973 4.60350E+01 1.69963E+01 0.00000E+00
 -1       974 2.50350E+01 1.69963E+01 0.00000E+00
 -1       975 1.02896E+02 2.67117E+01 0.00000E+00
 -1       976 2.20350E+01 1.69963E+01 0.00000E+00
 -1       977 4.00350E+01 1.69963E+01 0.00000E+00
 -1       978 1.81860E+01 2.20313E+01 0.00000E+00
 -1       979 1.58535E+01 2.61494E+01 0.00000E+00
 -1       980 1.93845E+01 2.91709E+01 0.00000E+00
 -1       981 3.40350E+01 1.69963E+01 0.00000E+00
 -1       982 4.90350E+01 1.69963E+01 0.00000E+00
 -1       983 3.10350E+01 1.69963E+01 0.00000E+00
 -1       984 1.84515E+01 2.46744E+01 0.00000E+00
 -1       985 3.01500E+01 2.92160E+01 0.00000E+00
 -1       986 3.31500E+01 2.92160E+01 0.00000E+00
 -1       987 3.61500E+01 2.92160E+01 0.00000E+00
 -1       988 3.91500E+01 2.92160E+01 0.00000E+00
 -1       989 4.21500E+01 2.92160E+01 0.00000E+00
 -1       990 4.51500E+01 2.92160E+01 0.00000E+00
 -1       991 4.81500E+01 2.92160E+01 0.00000E+00
 -1       992 5.11500E+01 2.92160E+01 0.00000E+00
 -1       993 5.41500E+01 2.92160E+01 0.00000E+00
 -1       994 5.71500E+01 2.92160E+01 0.00000E+00
 -1       995 6.01500E+01 2.92160E+01 0.00000E+00
 -1       996 6.31500E+01 2.92160E+01 0.00000E+00
 -1       997 6.61500E+01 2.92160E+01 0.00000E+00
 -1       998 6.91500E+01 2.92160E+01 0.00000E+00
 -1       999 7.21500E+01 2.92160E+01 0.00000E+00
 -1      1000 7.51500E+01 2.92160E+01 0.00000E+00
 -1      1001 7.81500E+01 2.92160E+01 0.00000E+00
 -1      1002 8.11500E+01 2.92160E+01 0.00000E+00
 -1      1003 8.41500E+01 2.92160E+01 0.00000E+00
 -1      1004 8.71500E+01 2.92160E+01 0.00000E+00
 -1      1005 9.01500E+01 2.92160E+01 0.00000E+00
 -1      1006 9.31500E+01 2.92160E+01 0.00000E+00
 -1      1007 9.61500E+01 2.92160E+01 0.00000E+00
 -1      1008 9.91500E+01 2.92160E+01 0.00000E+00
 -1      1009 1.01586E+02 2.89021E+01 0.00000E+00
 -1      1010 5.35350E+01 1.95942E+01 0.00000E+00
 -1      1011 6.55350E+01 1.95942E+01 0.00000E+00
 -1      1012 6.25350E+01 1.95942E+01 0.00000E+00
 -1      1013 7.15350E+01 1.95942E+01 0.00000E+00
 -1      1014 7.45350E+01 1.95942E+01 0.00000E+00
 -1      1015 7.75350E+01 1.95942E+01 0.00000E+00
 -1      1016 8.05350E+01 1.95942E+01 0.00000E+00
 -1      1017 8.35350E+01 1.95942E+01 0.00000E+00
 -1      1018 8.65350E+01 1.95942E+01 0.00000E+00
 -1      1019 8.95350E+01 1.95942E+01 0.00000E+00
 -1      1020 9.25350E+01 1.95942E+01 0.00000E+00
 -1      1021 9.55350E+01 1.95942E+01 0.00000E+00
 -1      1022 9.85350E+01 1.95942E+01 0.00000E+00
 -1      1023 2.01647E+01 1.77505E+01 0.00000E+00
 -1      1024 2.23845E+01 2.91709E+01 0.00000E+00
 -1      1025 3.70350E+01 1.69963E+01 0.00000E+00
 -1      1026 6.85350E+01 1.95942E+01 0.00000E+00
 -1      1027 2.53845E+01 2.91709E+01 0.00000E+00
 -1      1028 2.00563E+01 2.12770E+01 0.00000E+00
 -1      1029 1.02494E+02 2.38317E+01 0.00000E+00
 -1      1030 5.05350E+01 1.95942E+01 0.00000E+00
 -1      1031 2.77673E+01 2.91934E+01 0.00000E+00
 -1      1032 2.80350E+01 1.69963E+01 0.00000E+00
 -1      1033 5.65350E+01 1.95942E+01 0.00000E+00
 -1      1034 5.95350E+01 1.95942E+01 0.00000E+00
 -1      1035 2.65350E+01 1.95942E+01 0.00000E+00
 -1      1036 2.35350E+01 1.95942E+01 0.00000E+00
 -1      1037 4.15350E+01 1.95942E+01 0.00000E+00
 -1      1038 1.01701E+02 2.14788E+01 0.00000E+00
 -1      1039 1.89180E+01 2.69226E+01 0.00000E+00
 -1      1040 4.45350E+01 1.95942E+01 0.00000E+00
 -1      1041 2.03218E+01 2.39202E+01 0.00000E+00
 -1      1042 4.75350E+01 1.95942E+01 0.00000E+00
 -1      1043 3.25350E+01 1.95942E+01 0.00000E+00
 -1      1044 3.55350E+01 1.95942E+01 0.00000E+00
 -1      1045 2.95350E+01 1.95942E+01 0.00000E+00
 -1      1046 3.46500E+01 2.66180E+01 0.00000E+00
 -1      1047 3.76500E+01 2.66180E+01 0.00000E+00
 -1      1048 4.06500E+01 2.66180E+01 0.00000E+00
 -1      1049 4.36500E+01 2.66180E+01 0.00000E+00
 -1      1050 4.66500E+01 2.66180E+01 0.00000E+00
 -1      1051 4.96500E+01 2.66180E+01 0.00000E+00
 -1      1052 5.26500E+01 2.66180E+01 0.00000E+00
 -1      1053 5.56500E+01 2.66180E+01 0.00000E+00
 -1      1054 5.86500E+01 2.66180E+01 0.00000E+00
 -1      1055 6.16500E+01 2.66180E+01 0.00000E+00
 -1      1056 6.46500E+01 2.66180E+01 0.00000E+00
 -1      1057 6.76500E+01 2.66180E+01 0.00000E+00
 -1      1058 7.06500E+01 2.66180E+01 0.00000E+00
 -1      1059 7.36500E+01 2.66180E+01 0.00000E+00
 -1      1060 7.66500E+01 2.66180E+01 0.00000E+00
 -1      1061 7.96500E+01 2.66180E+01 0.00000E+00
 -1      1062 8.26500E+01 2.66180E+01 0.00000E+00
 -1      1063 8.56500E+01 2.66180E+01 0.00000E+00
 -1      1064 8.86500E+01 2.66180E+01 0.00000E+00
 -1      1065 9.16500E+01 2.66180E+01 0.00000E+00
 -1      1066 9.46500E+01 2.66180E+01 0.00000E+00
 -1      1067 9.76500E+01 2.66180E+01 0.00000E+00
 -1      1068 1.00273E+02 2.66648E+01 0.00000E+00
 -1      1069 6.10350E+01 2.21922E+01 0.00000E+00
 -1      1070 9.98368E+01 2.34167E+01 0.00000E+00
 -1      1071 7.60350E+01 2.21922E+01 0.00000E+00
 -1      1072 7.30350E+01 2.21922E+01 0.00000E+00
 -1      1073 8.20350E+01 2.21922E+01 0.00000E+00
 -1      1074 8.50350E+01 2.21922E+01 0.00000E+00
 -1      1075 8.80350E+01 2.21922E+01 0.00000E+00
 -1      1076 9.10350E+01 2.21922E+01 0.00000E+00
 -1      1077 9.40350E+01 2.21922E+01 0.00000E+00
 -1      1078 9.70350E+01 2.21922E+01 0.00000E+00
 -1      1079 2.17957E+01 2.04356E+01 0.00000E+00
 -1      1080 3.85350E+01 1.95942E+01 0.00000E+00
 -1      1081 5.50350E+01 2.21922E+01 0.00000E+00
 -1      1082 5.20350E+01 2.21922E+01 0.00000E+00
 -1      1083 2.38845E+01 2.65729E+01 0.00000E+00
 -1      1084 4.90350E+01 2.21922E+01 0.00000E+00
 -1      1085 7.90350E+01 2.21922E+01 0.00000E+00
 -1      1086 2.14013E+01 2.67477E+01 0.00000E+00
 -1      1087 6.40350E+01 2.21922E+01 0.00000E+00
 -1      1088 3.16500E+01 2.66180E+01 0.00000E+00
 -1      1089 7.00350E+01 2.21922E+01 0.00000E+00
 -1      1090 5.80350E+01 2.21922E+01 0.00000E+00
 -1      1091 6.70350E+01 2.21922E+01 0.00000E+00
 -1      1092 4.00350E+01 2.21922E+01 0.00000E+00
 -1      1093 2.50350E+01 2.21922E+01 0.00000E+00
 -1      1094 2.62673E+01 2.65954E+01 0.00000E+00
 -1      1095 2.89586E+01 2.66067E+01 0.00000E+00
 -1      1096 4.30350E+01 2.21922E+01 0.00000E+00
 -1      1097 3.10350E+01 2.21922E+01 0.00000E+00
 -1      1098 2.20612E+01 2.30788E+01 0.00000E+00
 -1      1099 2.80350E+01 2.21922E+01 0.00000E+00
 -1      1100 4.60350E+01 2.21922E+01 0.00000E+00
 -1      1101 3.40350E+01 2.21922E+01 0.00000E+00
 -1      1102 3.91500E+01 2.40200E+01 0.00000E+00
 -1      1103 3.70350E+01 2.21922E+01 0.00000E+00
 -1      1104 2.69725E+01 2.50425E+01 0.00000E+00
 -1      1105 0.00000E+00 4.85250E+01 0.00000E+00
 -1      1106 0.00000E+00 4.55750E+01 0.00000E+00
 -1      1107 0.00000E+00 4.26250E+01 0.00000E+00
 -1      1108 0.00000E+00 3.96750E+01 0.00000E+00
 -1      1109 0.00000E+00 3.67250E+01 0.00000E+00
 -1      1110 0.00000E+00 3.38000E+01 0.00000E+00
 -1      1111 0.00000E+00 3.08750E+01 0.00000E+00
 -1      1112 0.00000E+00 2.79250E+01 0.00000E+00
 -1      1113 0.00000E+00 2.49750E+01 0.00000E+00
 -1      1114 0.00000E+00 2.20250E+01 0.00000E+00
 -1      1115 0.00000E+00 1.90750E+01 0.00000E+00
 -1      1116 0.00000E+00 1.61500E+01 0.00000E+00
 -1      1117 0.00000E+00 1.32250E+01 0.00000E+00
 -1      1118 0.00000E+00 1.02750E+01 0.00000E+00
 -1      1119 0.00000E+00 7.32500E+00 0.00000E+00
 -1      1120 0.00000E+00 4.37500E+00 0.00000E+00
 -1      1121 0.00000E+00 1.45000E+00 0.00000E+00
 -1      1122 1.57500E+00 5.00000E+01 0.00000E+00
 -1      1123 4.65000E+00 5.00000E+01 0.00000E+00
 -1      1124 7.65000E+00 5.00000E+01 0.00000E+00
 -1      1125 1.06500E+01 5.00000E+01 0.00000E+00
 -1      1126 1.36500E+01 5.00000E+01 0.00000E+00
 -1      1127 1.66500E+01 5.00000E+01 0.00000E+00
 -1      1128 1.96500E+01 5.00000E+01 0.00000E+00
 -1      1129 2.26500E+01 5.00000E+01 0.00000E+00
 -1      1130 2.56500E+01 5.00000E+01 0.00000E+00
 -1      1131 2.86500E+01 5.00000E+01 0.00000E+00
 -1      1132 3.16500E+01 5.00000E+01 0.00000E+00
 -1      1133 3.46500E+01 5.00000E+01 0.00000E+00
 -1      1134 3.76500E+01 5.00000E+01 0.00000E+00
 -1      1135 4.06500E+01 5.00000E+01 0.00000E+00
 -1      1136 4.36500E+01 5.00000E+01 0.00000E+00
 -1      1137 4.66500E+01 5.00000E+01 0.00000E+00
 -1      1138 4.96500E+01 5.00000E+01 0.00000E+00
 -1      1139 5.26500E+01 5.00000E+01 0.00000E+00
 -1      1140 5.56500E+01 5.00000E+01 0.00000E+00
 -1      1141 5.86500E+01 5.00000E+01 0.00000E+00
 -1      1142 6.16500E+01 5.00000E+01 0.00000E+00
 -1      1143 6.46500E+01 5.00000E+01 0.00000E+00
 -1      1144 6.76500E+01 5.00000E+01 0.00000E+00
 -1      1145 7.06500E+01 5.00000E+01 0.00000E+00
 -1      1146 7.36500E+01 5.00000E+01 0.00000E+00
 -1      1147 7.66500E+01 5.00000E+01 0.00000E+00
 -1      1148 7.96500E+01 5.00000E+01 0.00000E+00
 -1      1149 8.26500E+01 5.00000E+01 0.00000E+00
 -1      1150 8.56500E+01 5.00000E+01 0.00000E+00
 -1      1151 8.86500E+01 5.00000E+01 0.00000E+00
 -1      1152 9.16500E+01 5.00000E+01 0.00000E+00
 -1      1153 9.46500E+01 5.00000E+01 0.00000E+00
 -1      1154 9.76500E+01 5.00000E+01 0.00000E+00
 -1      1155 1.00650E+02 5.00000E+01 0.00000E+00
 -1      1156 1.03650E+02 5.00000E+01 0.00000E+00
 -1      1157 1.06650E+02 5.00000E+01 0.00000E+00
 -1      1158 1.09650E+02 5.00000E+01 0.00000E+00
 -1      1159 1.12650E+02 5.00000E+01 0.00000E+00
 -1      1160 1.15650E+02 5.00000E+01 0.00000E+00
 -1      1161 1.18650E+02 5.00000E+01 0.00000E+00
 -1      1162 1.21650E+02 5.00000E+01 0.00000E+00
 -1      1163 1.24650E+02 5.00000E+01 0.00000E+00
 -1      1164 1.27650E+02 5.00000E+01 0.00000E+00
 -1      1165 1.30650E+02 5.00000E+01 0.00000E+00
 -1      1166 1.33650E+02 5.00000E+01 0.00000E+00
 -1      1167 1.36650E+02 5.00000E+01 0.00000E+00
 -1      1168 1.39650E+02 5.00000E+01 0.00000E+00
 -1      1169 1.42650E+02 5.00000E+01 0.00000E+00
 -1      1170 1.45650E+02 5.00000E+01 0.00000E+00
 -1      1171 1.48575E+02 5.00000E+01 0.00000E+00
 -1      1172 1.57500E+00 0.00000E+00 0.00000E+00
 -1      1173 4.65000E+00 0.00000E+00 0.00000E+00
 -1      1174 7.65000E+00 0.00000E+00 0.00000E+00
 -1      1175 1.06500E+01 0.00000E+00 0.00000E+00
 -1      1176 1.36500E+01 0.00000E+00 0.00000E+00
 -1      1177 1.66500E+01 0.00000E+00 0.00000E+00
 -1      1178 1.96500E+01 0.00000E+00 0.00000E+00
 -1      1179 2.26500E+01 0.00000E+00 0.00000E+00
 -1      1180 2.56500E+01 0.00000E+00 0.00000E+00
 -1      1181 2.86500E+01 0.00000E+00 0.00000E+00
 -1      1182 3.16500E+01 0.00000E+00 0.00000E+00
 -1      1183 3.46500E+01 0.00000E+00 0.00000E+00
 -1      1184 3.76500E+01 0.00000E+00 0.00000E+00
 -1      1185 4.06500E+01 0.00000E+00 0.00000E+00
 -1      1186 4.36500E+01 0.00000E+00 0.00000E+00
 -1      1187 4.66500E+01 0.00000E+00 0.00000E+00
 -1      1188 4.96500E+01 0.00000E+00 0.00000E+00
 -1      1189 5.26500E+01 0.00000E+00 0.00000E+00
 -1      1190 5.56500E+01 0.00000E+00 0.00000E+00
 -1      1191 5.86500E+01 0.00000E+00 0.00000E+00
 -1      1192 6.16500E+01 0.00000E+00 0.00000E+00
 -1      1193 6.46500E+01 0.00000E+00 0.00000E+00
 -1      1194 6.76500E+01 0.00000E+00 0.00000E+00
 -1      1195 7.06500E+01 0.00000E+00 0.00000E+00
 -1      1196 7.36500E+01 0.00000E+00 0.00000E+00
 -1      1197 7.66500E+01 0.00000E+00 0.00000E+00
 -1      1198 7.96500E+01 0.00000E+00 0.00000E+00
 -1      1199 8.26500E+01 0.00000E+00 0.00000E+00
 -1      1200 8.56500E+01 0.00000E+00 0.00000E+00
 -1      1201 8.86500E+01 0.00000E+00 0.00000E+00
 -1      1202 9.16500E+01 0.00000E+00 0.00000E+00
 -1      1203 9.46500E+01 0.00000E+00 0.00000E+00
 -1      1204 9.76500E+01 0.00000E+00 0.00000E+00
 -1      1205 1.00650E+02 0.00000E+00 0.00000E+00
 -1      1206 1.03650E+02 0.00000E+00 0.00000E+00
 -1      1207 1.06650E+02 0.00000E+00 0.00000E+00
 -1      1208 1.09650E+02 0.00000E+00 0.00000E+00
 -1      1209 1.12650E+02 0.00000E+00 0.00000E+00
 -1      1210 1.15650E+02 0.00000E+00 0.00000E+00
 -1      1211 1.18650E+02 0.00000E+00 0.00000E+00
 -1      1212 1.21650E+02 0.00000E+00 0.00000E+00
 -1      1213 1.24650E+02 0.00000E+00 0.00000E+00
 -1      1214 1.27650E+02 0.00000E+00 0.00000E+00
 -1      1215 1.30650E+02 0.00000E+00 0.00000E+00
 -1      1216 1.33650E+02 0.00000E+00 0.00000E+00
 -1      1217 1.36650E+02 0.00000E+00 0.00000E+00
 -1      1218 1.39650E+02 0.00000E+00 0.00000E+00
 -1      1219 1.42650E+02 0.00000E+00 0.00000E+00
 -1      1220 1.45650E+02 0.00000E+00 0.00000E+00
 -1      1221 1.48575E+02 0.00000E+00 0.00000E+00
 -1      1222 1.50000E+02 1.47500E+00 0.00000E+00
 -1      1223 1.50000E+02 4.42500E+00 0.00000E+00
 -1      1224 1.50000E+02 7.37500E+00 0.00000E+00
 -1      1225 1.50000E+02 1.03250E+01 0.00000E+00
 -1      1226 1.50000E+02 1.32750E+01 0.00000E+00
 -1      1227 1.50000E+02 1.62000E+01 0.00000E+00
 -1      1228 1.50000E+02 1.91250E+01 0.00000E+00
 -1      1229 1.50000E+02 2.20750E+01 0.00000E+00
 -1      1230 1.50000E+02 2.50250E+01 0.00000E+00
 -1      1231 1.50000E+02 2.79750E+01 0.00000E+00
 -1      1232 1.50000E+02 3.09250E+01 0.00000E+00
 -1      1233 1.50000E+02 3.38500E+01 0.00000E+00
 -1      1234 1.50000E+02 3.67750E+01 0.00000E+00
 -1      1235 1.50000E+02 3.97250E+01 0.00000E+00
 -1      1236 1.50000E+02 4.26750E+01 0.00000E+00
 -1      1237 1.50000E+02 4.56250E+01 0.00000E+00
 -1      1238 1.50000E+02 4.85500E+01 0.00000E+00
 -1      1239 1.29464E+02 2.50755E+01 0.00000E+00
 -1      1240 1.29144E+02 2.36080E+01 0.00000E+00
 -1      1241 1.28542E+02 2.22841E+01 0.00000E+00
 -1      1242 1.27673E+02 2.11049E+01 0.00000E+00
 -1      1243 1.26573E+02 2.01297E+01 0.00000E+00
 -1      1244 1.25318E+02 1.94158E+01 0.00000E+00
 -1      1245 1.23808E+02 1.89482E+01 0.00000E+00
 -1      1246 1.22262E+02 1.88300E+01 0.00000E+00
 -1      1247 1.20798E+02 1.90371E+01 0.00000E+00
 -1      1248 1.19375E+02 1.95641E+01 0.00000E+00
 -1      1249 1.18118E+02 2.03704E+01 0.00000E+00
 -1      1250 1.17048E+02 2.14405E+01 0.00000E+00
 -1      1251 1.16244E+02 2.26937E+01 0.00000E+00
 -1      1252 1.15736E+02 2.40391E+01 0.00000E+00
 -1      1253 1.15512E+02 2.55000E+01 0.00000E+00
 -1      1254 1.15601E+02 2.69840E+01 0.00000E+00
 -1      1255 1.15982E+02 2.83660E+01 0.00000E+00
 -1      1256 1.16629E+02 2.96312E+01 0.00000E+00
 -1      1257 1.17577E+02 3.07978E+01 0.00000E+00
 -1      1258 1.18845E+02 3.17930E+01 0.00000E+00
 -1      1259 1.20233E+02 3.24469E+01 0.00000E+00
 -1      1260 1.21657E+02 3.27743E+01 0.00000E+00
 -1      1261 1.23216E+02 3.27896E+01 0.00000E+00
 -1      1262 1.24712E+02 3.24688E+01 0.00000E+00
 -1      1263 1.26115E+02 3.18228E+01 0.00000E+00
 -1      1264 1.27400E+02 3.08295E+01 0.00000E+00
 -1      1265 1.28411E+02 2.95830E+01 0.00000E+00
 -1      1266 1.29101E+02 2.81689E+01 0.00000E+00
 -1      1267 1.29458E+02 2.66348E+01 0.00000E+00
 -1      1268 1.57500E+00 4.85250E+01 0.00000E+00
 -1      1269 1.29900E+00 4.48375E+01 0.00000E+00
 -1      1270 1.29900E+00 4.63125E+01 0.00000E+00
 -1      1271 1.29900E+00 4.18875E+01 0.00000E+00
 -1      1272 1.29900E+00 4.33625E+01 0.00000E+00
 -1      1273 2.59800E+00 4.41000E+01 0.00000E+00
 -1      1274 1.29900E+00 3.89375E+01 0.00000E+00
 -1      1275 1.29900E+00 4.04125E+01 0.00000E+00
 -1      1276 2.59800E+00 4.11500E+01 0.00000E+00
 -1      1277 1.29900E+00 3.59875E+01 0.00000E+00
 -1      1278 1.29900E+00 3.74625E+01 0.00000E+00
 -1      1279 2.59800E+00 3.82000E+01 0.00000E+00
 -1      1280 1.29900E+00 3.30875E+01 0.00000E+00
 -1      1281 1.29900E+00 3.45375E+01 0.00000E+00
 -1      1282 2.59800E+00 3.52750E+01 0.00000E+00
 -1      1283 1.29900E+00 3.01375E+01 0.00000E+00
 -1      1284 1.29900E+00 3.16125E+01 0.00000E+00
 -1      1285 2.59800E+00 3.23500E+01 0.00000E+00
 -1      1286 1.29900E+00 2.71875E+01 0.00000E+00
 -1      1287 1.29900E+00 2.86625E+01 0.00000E+00
 -1      1288 2.59800E+00 2.94000E+01 0.00000E+00
 -1      1289 1.29900E+00 2.42375E+01 0.00000E+00
 -1      1290 1.29900E+00 2.57125E+01 0.00000E+00
 -1      1291 2.59800E+00 2.64500E+01 0.00000E+00
 -1      1292 1.29900E+00 2.12875E+01 0.00000E+00
 -1      1293 1.29900E+00 2.27625E+01 0.00000E+00
 -1      1294 2.59800E+00 2.35000E+01 0.00000E+00
 -1      1295 1.29900E+00 1.83375E+01 0.00000E+00
 -1      1296 1.29900E+00 1.98125E+01 0.00000E+00
 -1      1297 2.59800E+00 2.05500E+01 0.00000E+00
 -1      1298 1.29900E+00 1.54375E+01 0.00000E+00
 -1      1299 1.29900E+00 1.68875E+01 0.00000E+00
 -1      1300 2.59800E+00 1.76250E+01 0.00000E+00
 -1      1301 1.29900E+00 1.24875E+01 0.00000E+00
 -1      1302 1.29900E+00 1.39625E+01 0.00000E+00
 -1      1303 2.59800E+00 1.47000E+01 0.00000E+00
 -1      1304 1.29900E+00 9.53750E+00 0.00000E+00
 -1      1305 1.29900E+00 1.10125E+01 0.00000E+00
 -1      1306 2.59800E+00 1.17500E+01 0.00000E+00
 -1      1307 1.29900E+00 6.58750E+00 0.00000E+00
 -1      1308 1.29900E+00 8.06250E+00 0.00000E+00
 -1      1309 2.59800E+00 8.80000E+00 0.00000E+00
 -1      1310 1.29900E+00 3.63750E+00 0.00000E+00
 -1      1311 1.29900E+00 5.11250E+00 0.00000E+00
 -1      1312 2.59800E+00 5.85000E+00 0.00000E+00
 -1      1313 1.43700E+00 1.09375E+00 0.00000E+00
 -1      1314 1.43700E+00 2.54375E+00 0.00000E+00
 -1      1315 2.73600E+00 3.28125E+00 0.00000E+00
 -1      1316 3.01200E+00 1.09375E+00 0.00000E+00
 -1      1317 3.90000E+00 4.87010E+01 0.00000E+00
 -1      1318 5.40000E+00 4.87010E+01 0.00000E+00
 -1      1319 6.90000E+00 4.87010E+01 0.00000E+00
 -1      1320 8.40000E+00 4.87010E+01 0.00000E+00
 -1      1321 6.15000E+00 4.74020E+01 0.00000E+00
 -1      1322 9.90000E+00 4.87010E+01 0.00000E+00
 -1      1323 1.14000E+01 4.87010E+01 0.00000E+00
 -1      1324 9.15000E+00 4.74020E+01 0.00000E+00
 -1      1325 1.29000E+01 4.87010E+01 0.00000E+00
 -1      1326 1.44000E+01 4.87010E+01 0.00000E+00
 -1      1327 1.21500E+01 4.74020E+01 0.00000E+00
 -1      1328 1.59000E+01 4.87010E+01 0.00000E+00
 -1      1329 1.74000E+01 4.87010E+01 0.00000E+00
 -1      1330 1.51500E+01 4.74020E+01 0.00000E+00
 -1      1331 1.89000E+01 4.87010E+01 0.00000E+00
 -1      1332 2.04000E+01 4.87010E+01 0.00000E+00
 -1      1333 1.81500E+01 4.74020E+01 0.00000E+00
 -1      1334 2.19000E+01 4.87010E+01 0.00000E+00
 -1      1335 2.34000E+01 4.87010E+01 0.00000E+00
 -1      1336 2.11500E+01 4.74020E+01 0.00000E+00
 -1      1337 2.49000E+01 4.87010E+01 0.00000E+00
 -1      1338 2.64000E+01 4.87010E+01 0.00000E+00
 -1      1339 2.41500E+01 4.74020E+01 0.00000E+00
 -1      1340 2.79000E+01 4.87010E+01 0.00000E+00
 -1      1341 2.94000E+01 4.87010E+01 0.00000E+00
 -1      1342 2.71500E+01 4.74020E+01 0.00000E+00
 -1      1343 3.09000E+01 4.87010E+01 0.00000E+00
 -1      1344 3.24000E+01 4.87010E+01 0.00000E+00
 -1      1345 3.01500E+01 4.74020E+01 0.00000E+00
 -1      1346 3.39000E+01 4.87010E+01 0.00000E+00
 -1      1347 3.54000E+01 4.87010E+01 0.00000E+00
 -1      1348 3.31500E+01 4.74020E+01 0.00000E+00
 -1      1349 3.69000E+01 4.87010E+01 0.00000E+00
 -1      1350 3.84000E+01 4.87010E+01 0.00000E+00
 -1      1351 3.61500E+01 4.74020E+01 0.00000E+00
 -1      1352 3.99000E+01 4.87010E+01 0.00000E+00
 -1      1353 4.14000E+01 4.87010E+01 0.00000E+00
 -1      1354 3.91500E+01 4.74020E+01 0.00000E+00
 -1      1355 4.29000E+01 4.87010E+01 0.00000E+00
 -1      1356 4.44000E+01 4.87010E+01 0.00000E+00
 -1      1357 4.21500E+01 4.74020E+01 0.00000E+00
 -1      1358 4.59000E+01 4.87010E+01 0.00000E+00
 -1      1359 4.74000E+01 4.87010E+01 0.00000E+00
 -1      1360 4.51500E+01 4.74020E+01 0.00000E+00
 -1      1361 4.89000E+01 4.87010E+01 0.00000E+00
 -1      1362 5.04000E+01 4.87010E+01 0.00000E+00
 -1      1363 4.81500E+01 4.74020E+01 0.00000E+00
 -1      1364 5.19000E+01 4.87010E+01 0.00000E+00
 -1      1365 5.34000E+01 4.87010E+01 0.00000E+00
 -1      1366 5.11500E+01 4.74020E+01 0.00000E+00
 -1      1367 5.49000E+01 4.87010E+01 0.00000E+00
 -1      1368 5.64000E+01 4.87010E+01 0.00000E+00
 -1      1369 5.41500E+01 4.74020E+01 0.00000E+00
 -1      1370 5.79000E+01 4.87010E+01 0.00000E+00
 -1      1371 5.94000E+01 4.87010E+01 0.00000E+00
 -1      1372 5.71500E+01 4.74020E+01 0.00000E+00
 -1      1373 6.09000E+01 4.87010E+01 0.00000E+00
 -1      1374 6.24000E+01 4.87010E+01 0.00000E+00
 -1      1375 6.01500E+01 4.74020E+01 0.00000E+00
 -1      1376 6.39000E+01 4.87010E+01 0.00000E+00
 -1      1377 6.54000E+01 4.87010E+01 0.00000E+00
 -1      1378 6.31500E+01 4.74020E+01 0.00000E+00
 -1      1379 6.69000E+01 4.87010E+01 0.00000E+00
 -1      1380 6.84000E+01 4.87010E+01 0.00000E+00
 -1      1381 6.61500E+01 4.74020E+01 0.00000E+00
 -1      1382 6.99000E+01 4.87010E+01 0.00000E+00
 -1      1383 7.14000E+01 4.87010E+01 0.00000E+00
 -1      1384 6.91500E+01 4.74020E+01 0.00000E+00
 -1      1385 7.29000E+01 4.87010E+01 0.00000E+00
 -1      1386 7.44000E+01 4.87010E+01 0.00000E+00
 -1      1387 7.21500E+01 4.74020E+01 0.00000E+00
 -1      1388 7.59000E+01 4.87010E+01 0.00000E+00
 -1      1389 7.74000E+01 4.87010E+01 0.00000E+00
 -1      1390 7.51500E+01 4.74020E+01 0.00000E+00
 -1      1391 7.89000E+01 4.87010E+01 0.00000E+00
 -1      1392 8.04000E+01 4.87010E+01 0.00000E+00
 -1      1393 7.81500E+01 4.74020E+01 0.00000E+00
 -1      1394 8.19000E+01 4.87010E+01 0.00000E+00
 -1      1395 8.34000E+01 4.87010E+01 0.00000E+00
 -1      1396 8.11500E+01 4.74020E+01 0.00000E+00
 -1      1397 8.49000E+01 4.87010E+01 0.00000E+00
 -1      1398 8.64000E+01 4.87010E+01 0.00000E+00
 -1      1399 8.41500E+01 4.74020E+01 0.00000E+00
 -1      1400 8.79000E+01 4.87010E+01 0.00000E+00
 -1      1401 8.94000E+01 4.87010E+01 0.00000E+00
 -1      1402 8.71500E+01 4.74020E+01 0.00000E+00
 -1      1403 9.09000E+01 4.87010E+01 0.00000E+00
 -1      1404 9.24000E+01 4.87010E+01 0.00000E+00
 -1      1405 9.01500E+01 4.74020E+01 0.00000E+00
 -1      1406 9.39000E+01 4.87010E+01 0.00000E+00
 -1      1407 9.54000E+01 4.87010E+01 0.00000E+00
 -1      1408 9.31500E+01 4.74020E+01 0.00000E+00
 -1      1409 9.69000E+01 4.87010E+01 0.00000E+00
 -1      1410 9.84000E+01 4.87010E+01 0.00000E+00
 -1      1411 9.61500E+01 4.74020E+01 0.00000E+00
 -1      1412 9.99000E+01 4.87010E+01 0.00000E+00
 -1      1413 1.01400E+02 4.87010E+01 0.00000E+00
 -1      1414 9.91500E+01 4.74020E+01 0.00000E+00
 -1      1415 1.02900E+02 4.87010E+01 0.00000E+00
 -1      1416 1.04400E+02 4.87010E+01 0.00000E+00
 -1      1417 1.02150E+02 4.74020E+01 0.00000E+00
 -1      1418 1.05900E+02 4.87010E+01 0.00000E+00
 -1      1419 1.07400E+02 4.87010E+01 0.00000E+00
 -1      1420 1.05150E+02 4.74020E+01 0.00000E+00
 -1      1421 1.08900E+02 4.87010E+01 0.00000E+00
 -1      1422 1.10400E+02 4.87010E+01 0.00000E+00
 -1      1423 1.08150E+02 4.74020E+01 0.00000E+00
 -1      1424 1.11900E+02 4.87010E+01 0.00000E+00
 -1      1425 1.13400E+02 4.87010E+01 0.00000E+00
 -1      1426 1.11150E+02 4.74020E+01 0.00000E+00
 -1      1427 1.14900E+02 4.87010E+01 0.00000E+00
 -1      1428 1.16400E+02 4.87010E+01 0.00000E+00
 -1      1429 1.14150E+02 4.74020E+01 0.00000E+00
 -1      1430 1.17900E+02 4.87010E+01 0.00000E+00
 -1      1431 1.19400E+02 4.87010E+01 0.00000E+00
 -1      1432 1.17150E+02 4.74020E+01 0.00000E+00
 -1      1433 1.20900E+02 4.87010E+01 0.00000E+00
 -1      1434 1.22400E+02 4.87010E+01 0.00000E+00
 -1      1435 1.20150E+02 4.74020E+01 0.00000E+00
 -1      1436 1.23900E+02 4.87010E+01 0.00000E+00
 -1      1437 1.25400E+02 4.87010E+01 0.00000E+00
 -1      1438 1.23150E+02 4.74020E+01 0.00000E+00
 -1      1439 1.26900E+02 4.87010E+01 0.00000E+00
 -1      1440 1.28400E+02 4.87010E+01 0.00000E+00
 -1      1441 1.26150E+02 4.74020E+01 0.00000E+00
 -1      1442 1.29900E+02 4.87010E+01 0.00000E+00
 -1      1443 1.31400E+02 4.87010E+01 0.00000E+00
 -1      1444 1.29150E+02 4.74020E+01 0.00000E+00
 -1      1445 1.32900E+02 4.87010E+01 0.00000E+00
 -1      1446 1.34400E+02 4.87010E+01 0.00000E+00
 -1      1447 1.32150E+02 4.74020E+01 0.00000E+00
 -1      1448 1.35900E+02 4.87010E+01 0.00000E+00
 -1      1449 1.37400E+02 4.87010E+01 0.00000E+00
 -1      1450 1.35150E+02 4.74020E+01 0.00000E+00
 -1      1451 1.38900E+02 4.87010E+01 0.00000E+00
 -1      1452 1.40400E+02 4.87010E+01 0.00000E+00
 -1      1453 1.38150E+02 4.74020E+01 0.00000E+00
 -1      1454 1.41900E+02 4.87010E+01 0.00000E+00
 -1      1455 1.43400E+02 4.87010E+01 0.00000E+00
 -1      1456 1.41150E+02 4.74020E+01 0.00000E+00
 -1      1457 1.44900E+02 4.87010E+01 0.00000E+00
 -1      1458 1.46400E+02 4.87010E+01 0.00000E+00
 -1      1459 1.44150E+02 4.74020E+01 0.00000E+00
 -1      1460 1.48575E+02 4.85500E+01 0.00000E+00
 -1      1461 1.47825E+02 4.72510E+01 0.00000E+00
 -1      1462 6.01200E+00 1.09375E+00 0.00000E+00
 -1      1463 4.51200E+00 1.09375E+00 0.00000E+00
 -1      1464 4.37400E+00 2.18750E+00 0.00000E+00
 -1      1465 9.01200E+00 1.09375E+00 0.00000E+00
 -1      1466 7.51200E+00 1.09375E+00 0.00000E+00
 -1      1467 7.37400E+00 2.18750E+00 0.00000E+00
 -1      1468 1.20120E+01 1.09375E+00 0.00000E+00
 -1      1469 1.05120E+01 1.09375E+00 0.00000E+00
 -1      1470 1.03740E+01 2.18750E+00 0.00000E+00
 -1      1471 1.50120E+01 1.09375E+00 0.00000E+00
 -1      1472 1.35120E+01 1.09375E+00 0.00000E+00
 -1      1473 1.33740E+01 2.18750E+00 0.00000E+00
 -1      1474 1.80120E+01 1.09375E+00 0.00000E+00
 -1      1475 1.65120E+01 1.09375E+00 0.00000E+00
 -1      1476 1.63740E+01 2.18750E+00 0.00000E+00
 -1      1477 2.10120E+01 1.09375E+00 0.00000E+00
 -1      1478 1.95120E+01 1.09375E+00 0.00000E+00
 -1      1479 1.93740E+01 2.18750E+00 0.00000E+00
 -1      1480 2.40120E+01 1.09375E+00 0.00000E+00
 -1      1481 2.25120E+01 1.09375E+00 0.00000E+00
 -1      1482 2.23740E+01 2.18750E+00 0.00000E+00
 -1      1483 2.70120E+01 1.09375E+00 0.00000E+00
 -1      1484 2.55120E+01 1.09375E+00 0.00000E+00
 -1      1485 2.53740E+01 2.18750E+00 0.00000E+00
 -1      1486 3.00120E+01 1.09375E+00 0.00000E+00
 -1      1487 2.85120E+01 1.09375E+00 0.00000E+00
 -1      1488 2.83740E+01 2.18750E+00 0.00000E+00
 -1      1489 3.30120E+01 1.09375E+00 0.00000E+00
 -1      1490 3.15120E+01 1.09375E+00 0.00000E+00
 -1      1491 3.13740E+01 2.18750E+00 0.00000E+00
 -1      1492 3.60120E+01 1.09375E+00 0.00000E+00
 -1      1493 3.45120E+01 1.09375E+00 0.00000E+00
 -1      1494 3.43740E+01 2.18750E+00 0.00000E+00
 -1      1495 3.90120E+01 1.09375E+00 0.00000E+00
 -1      1496 3.75120E+01 1.09375E+00 0.00000E+00
 -1      1497 3.73740E+01 2.18750E+00 0.00000E+00
 -1      1498 4.20120E+01 1.09375E+00 0.00000E+00
 -1      1499 4.05120E+01 1.09375E+00 0.00000E+00
 -1      1500 4.03740E+01 2.18750E+00 0.00000E+00
 -1      1501 4.50120E+01 1.09375E+00 0.00000E+00
 -1      1502 4.35120E+01 1.09375E+00 0.00000E+00
 -1      1503 4.33740E+01 2.18750E+00 0.00000E+00
 -1      1504 4.80120E+01 1.09375E+00 0.00000E+00
 -1      1505 4.65120E+01 1.09375E+00 0.00000E+00
 -1      1506 4.63740E+01 2.18750E+00 0.00000E+00
 -1      1507 5.10120E+01 1.09375E+00 0.00000E+00
 -1      1508 4.95120E+01 1.09375E+00 0.00000E+00
 -1      1509 4.93740E+01 2.18750E+00 0.00000E+00
 -1      1510 5.40120E+01 1.09375E+00 0.00000E+00
 -1      1511 5.25120E+01 1.09375E+00 0.00000E+00
 -1      1512 5.23740E+01 2.18750E+00 0.00000E+00
 -1      1513 5.70120E+01 1.09375E+00 0.00000E+00
 -1      1514 5.55120E+01 1.09375E+00 0.00000E+00
 -1      1515 5.53740E+01 2.18750E+00 0.00000E+00
 -1      1516 6.00120E+01 1.09375E+00 0.00000E+00
 -1      1517 5.85120E+01 1.09375E+00 0.00000E+00
 -1      1518 5.83740E+01 2.18750E+00 0.00000E+00
 -1      1519 6.30120E+01 1.09375E+00 0.00000E+00
 -1      1520 6.15120E+01 1.09375E+00 0.00000E+00
 -1      1521 6.13740E+01 2.18750E+00 0.00000E+00
 -1      1522 6.60120E+01 1.09375E+00 0.00000E+00
 -1      1523 6.45120E+01 1.09375E+00 0.00000E+00
 -1      1524 6.43740E+01 2.18750E+00 0.00000E+00
 -1      1525 6.90120E+01 1.09375E+00 0.00000E+00
 -1      1526 6.75120E+01 1.09375E+00 0.00000E+00
 -1      1527 6.73740E+01 2.18750E+00 0.00000E+00
 -1      1528 7.20120E+01 1.09375E+00 0.00000E+00
 -1      1529 7.05120E+01 1.09375E+00 0.00000E+00
 -1      1530 7.03740E+01 2.18750E+00 0.00000E+00
 -1      1531 7.50120E+01 1.09375E+00 0.00000E+00
 -1      1532 7.35120E+01 1.09375E+00 0.00000E+00
 -1      1533 7.33740E+01 2.18750E+00 0.00000E+00
 -1      1534 7.80120E+01 1.09375E+00 0.00000E+00
 -1      1535 7.65120E+01 1.09375E+00 0.00000E+00
 -1      1536 7.63740E+01 2.18750E+00 0.00000E+00
 -1      1537 8.10120E+01 1.09375E+00 0.00000E+00
 -1      1538 7.95120E+01 1.09375E+00 0.00000E+00
 -1      1539 7.93740E+01 2.18750E+00 0.00000E+00
 -1      1540 8.40120E+01 1.09375E+00 0.00000E+00
 -1      1541 8.25120E+01 1.09375E+00 0.00000E+00
 -1      1542 8.23740E+01 2.18750E+00 0.00000E+00
 -1      1543 8.70120E+01 1.09375E+00 0.00000E+00
 -1      1544 8.55120E+01 1.09375E+00 0.00000E+00
 -1      1545 8.53740E+01 2.18750E+00 0.00000E+00
 -1      1546 9.00120E+01 1.09375E+00 0.00000E+00
 -1      1547 8.85120E+01 1.09375E+00 0.00000E+00
 -1      1548 8.83740E+01 2.18750E+00 0.00000E+00
 -1      1549 9.30120E+01 1.09375E+00 0.00000E+00
 -1      1550 9.15120E+01 1.09375E+00 0.00000E+00
 -1      1551 9.13740E+01 2.18750E+00 0.00000E+00
 -1      1552 9.60120E+01 1.09375E+00 0.00000E+00
 -1      1553 9.45120E+01 1.09375E+00 0.00000E+00
 -1      1554 9.43740E+01 2.18750E+00 0.00000E+00
 -1      1555 9.90120E+01 1.09375E+00 0.00000E+00
 -1      1556 9.75120E+01 1.09375E+00 0.00000E+00
 -1      1557 9.73740E+01 2.18750E+00 0.00000E+00
 -1      1558 1.02012E+02 1.09375E+00 0.00000E+00
 -1      1559 1.00512E+02 1.09375E+00 0.00000E+00
 -1      1560 1.00374E+02 2.18750E+00 0.00000E+00
 -1      1561 1.05012E+02 1.09375E+00 0.00000E+00
 -1      1562 1.03512E+02 1.09375E+00 0.00000E+00
 -1      1563 1.03374E+02 2.18750E+00 0.00000E+00
 -1      1564 1.08012E+02 1.09375E+00 0.00000E+00
 -1      1565 1.06512E+02 1.09375E+00 0.00000E+00
 -1      1566 1.06374E+02 2.18750E+00 0.00000E+00
 -1      1567 1.11012E+02 1.09375E+00 0.00000E+00
 -1      1568 1.09512E+02 1.09375E+00 0.00000E+00
 -1      1569 1.09374E+02 2.18750E+00 0.00000E+00
 -1      1570 1.14012E+02 1.09375E+00 0.00000E+00
 -1      1571 1.12512E+02 1.09375E+00 0.00000E+00
 -1      1572 1.12374E+02 2.18750E+00 0.00000E+00
 -1      1573 1.17012E+02 1.09375E+00 0.00000E+00
 -1      1574 1.15512E+02 1.09375E+00 0.00000E+00
 -1      1575 1.15374E+02 2.18750E+00 0.00000E+00
 -1      1576 1.20012E+02 1.09375E+00 0.00000E+00
 -1      1577 1.18512E+02 1.09375E+00 0.00000E+00
 -1      1578 1.18374E+02 2.18750E+00 0.00000E+00
 -1      1579 1.23012E+02 1.09375E+00 0.00000E+00
 -1      1580 1.21512E+02 1.09375E+00 0.00000E+00
 -1      1581 1.21374E+02 2.18750E+00 0.00000E+00
 -1      1582 1.26012E+02 1.09375E+00 0.00000E+00
 -1      1583 1.24512E+02 1.09375E+00 0.00000E+00
 -1      1584 1.24374E+02 2.18750E+00 0.00000E+00
 -1      1585 1.29012E+02 1.09375E+00 0.00000E+00
 -1      1586 1.27512E+02 1.09375E+00 0.00000E+00
 -1      1587 1.27374E+02 2.18750E+00 0.00000E+00
 -1      1588 1.32012E+02 1.09375E+00 0.00000E+00
 -1      1589 1.30512E+02 1.09375E+00 0.00000E+00
 -1      1590 1.30374E+02 2.18750E+00 0.00000E+00
 -1      1591 1.35012E+02 1.09375E+00 0.00000E+00
 -1      1592 1.33512E+02 1.09375E+00 0.00000E+00
 -1      1593 1.33374E+02 2.18750E+00 0.00000E+00
 -1      1594 1.38012E+02 1.09375E+00 0.00000E+00
 -1      1595 1.36512E+02 1.09375E+00 0.00000E+00
 -1      1596 1.36374E+02 2.18750E+00 0.00000E+00
 -1      1597 1.41012E+02 1.09375E+00 0.00000E+00
 -1      1598 1.39512E+02 1.09375E+00 0.00000E+00
 -1      1599 1.39374E+02 2.18750E+00 0.00000E+00
 -1      1600 1.44012E+02 1.09375E+00 0.00000E+00
 -1      1601 1.42512E+02 1.09375E+00 0.00000E+00
 -1      1602 1.42374E+02 2.18750E+00 0.00000E+00
 -1      1603 1.47012E+02 1.09375E+00 0.00000E+00
 -1      1604 1.45512E+02 1.09375E+00 0.00000E+00
 -1      1605 1.45374E+02 2.18750E+00 0.00000E+00
 -1      1606 1.48575E+02 1.47500E+00 0.00000E+00
 -1      1607 1.48701E+02 5.16250E+00 0.00000E+00
 -1      1608 1.48701E+02 3.68750E+00 0.00000E+00
 -1      1609 1.48701E+02 8.11250E+00 0.00000E+00
 -1      1610 1.48701E+02 6.63750E+00 0.00000E+00
 -1      1611 1.47402E+02 5.90000E+00 0.00000E+00
 -1      1612 1.48701E+02 1.10625E+01 0.00000E+00
 -1      1613 1.48701E+02 9.58750E+00 0.00000E+00
 -1      1614 1.47402E+02 8.85000E+00 0.00000E+00
 -1      1615 1.48701E+02 1.40125E+01 0.00000E+00
 -1      1616 1.48701E+02 1.25375E+01 0.00000E+00
 -1      1617 1.47402E+02 1.18000E+01 0.00000E+00
 -1      1618 1.48701E+02 1.69125E+01 0.00000E+00
 -1      1619 1.48701E+02 1.54625E+01 0.00000E+00
 -1      1620 1.47402E+02 1.47250E+01 0.00000E+00
 -1      1621 1.48701E+02 1.98625E+01 0.00000E+00
 -1      1622 1.48701E+02 1.83875E+01 0.00000E+00
 -1      1623 1.47402E+02 1.76500E+01 0.00000E+00
 -1      1624 1.48701E+02 2.28125E+01 0.00000E+00
 -1      1625 1.48701E+02 2.13375E+01 0.00000E+00
 -1      1626 1.47402E+02 2.06000E+01 0.00000E+00
 -1      1627 1.48701E+02 2.57625E+01 0.00000E+00
 -1      1628 1.48701E+02 2.42875E+01 0.00000E+00
 -1      1629 1.47402E+02 2.35500E+01 0.00000E+00
 -1      1630 1.48701E+02 2.87125E+01 0.00000E+00
 -1      1631 1.48701E+02 2.72375E+01 0.00000E+00
 -1      1632 1.47402E+02 2.65000E+01 0.00000E+00
 -1      1633 1.48701E+02 3.16625E+01 0.00000E+00
 -1      1634 1.48701E+02 3.01875E+01 0.00000E+00
 -1      1635 1.47402E+02 2.94500E+01 0.00000E+00
 -1      1636 1.48701E+02 3.45625E+01 0.00000E+00
 -1      1637 1.48701E+02 3.31125E+01 0.00000E+00
 -1      1638 1.47402E+02 3.23750E+01 0.00000E+00
 -1      1639 1.48701E+02 3.75125E+01 0.00000E+00
 -1      1640 1.48701E+02 3.60375E+01 0.00000E+00
 -1      1641 1.47402E+02 3.53000E+01 0.00000E+00
 -1      1642 1.48701E+02 4.04625E+01 0.00000E+00
 -1      1643 1.48701E+02 3.89875E+01 0.00000E+00
 -1      1644 1.47402E+02 3.82500E+01 0.00000E+00
 -1      1645 1.48701E+02 4.34125E+01 0.00000E+00
 -1      1646 1.48701E+02 4.19375E+01 0.00000E+00
 -1      1647 1.47402E+02 4.12000E+01 0.00000E+00
 -1      1648 1.48263E+02 4.60692E+01 0.00000E+00
 -1      1649 1.48263E+02 4.45942E+01 0.00000E+00
 -1      1650 1.46964E+02 4.38568E+01 0.00000E+00
 -1      1651 1.46088E+02 4.62202E+01 0.00000E+00
 -1      1652 1.29987E+02 2.46418E+01 0.00000E+00
 -1      1653 1.30067E+02 2.53878E+01 0.00000E+00
 -1      1654 1.29601E+02 2.30590E+01 0.00000E+00
 -1      1655 1.29839E+02 2.37720E+01 0.00000E+00
 -1      1656 1.28857E+02 2.16923E+01 0.00000E+00
 -1      1657 1.29213E+02 2.22982E+01 0.00000E+00
 -1      1658 1.27895E+02 2.03861E+01 0.00000E+00
 -1      1659 1.28409E+02 2.09492E+01 0.00000E+00
 -1      1660 1.26617E+02 1.94601E+01 0.00000E+00
 -1      1661 1.27193E+02 1.98711E+01 0.00000E+00
 -1      1662 1.25225E+02 1.87099E+01 0.00000E+00
 -1      1663 1.25900E+02 1.90063E+01 0.00000E+00
 -1      1664 1.23529E+02 1.81595E+01 0.00000E+00
 -1      1665 1.24357E+02 1.83164E+01 0.00000E+00
 -1      1666 1.21889E+02 1.82722E+01 0.00000E+00
 -1      1667 1.22596E+02 1.82477E+01 0.00000E+00
 -1      1668 1.20266E+02 1.85033E+01 0.00000E+00
 -1      1669 1.21014E+02 1.83152E+01 0.00000E+00
 -1      1670 1.18770E+02 1.91866E+01 0.00000E+00
 -1      1671 1.19437E+02 1.88533E+01 0.00000E+00
 -1      1672 1.17420E+02 2.00983E+01 0.00000E+00
 -1      1673 1.18003E+02 1.96296E+01 0.00000E+00
 -1      1674 1.16336E+02 2.13589E+01 0.00000E+00
 -1      1675 1.16816E+02 2.07625E+01 0.00000E+00
 -1      1676 1.15574E+02 2.27630E+01 0.00000E+00
 -1      1677 1.15898E+02 2.21156E+01 0.00000E+00
 -1      1678 1.15094E+02 2.42389E+01 0.00000E+00
 -1      1679 1.15277E+02 2.35485E+01 0.00000E+00
 -1      1680 1.14847E+02 2.58514E+01 0.00000E+00
 -1      1681 1.14882E+02 2.50883E+01 0.00000E+00
 -1      1682 1.15100E+02 2.74345E+01 0.00000E+00
 -1      1683 1.14980E+02 2.67217E+01 0.00000E+00
 -1      1684 1.15580E+02 2.89040E+01 0.00000E+00
 -1      1685 1.15322E+02 2.82417E+01 0.00000E+00
 -1      1686 1.16344E+02 3.02393E+01 0.00000E+00
 -1      1687 1.15958E+02 2.96429E+01 0.00000E+00
 -1      1688 1.17346E+02 3.15944E+01 0.00000E+00
 -1      1689 1.16783E+02 3.10365E+01 0.00000E+00
 -1      1690 1.18815E+02 3.26258E+01 0.00000E+00
 -1      1691 1.18117E+02 3.21975E+01 0.00000E+00
 -1      1692 1.20373E+02 3.31413E+01 0.00000E+00
 -1      1693 1.19696E+02 3.29093E+01 0.00000E+00
 -1      1694 1.21960E+02 3.33816E+01 0.00000E+00
 -1      1695 1.21218E+02 3.32912E+01 0.00000E+00
 -1      1696 1.23685E+02 3.33878E+01 0.00000E+00
 -1      1697 1.22877E+02 3.34703E+01 0.00000E+00
 -1      1698 1.25245E+02 3.29355E+01 0.00000E+00
 -1      1699 1.24563E+02 3.31620E+01 0.00000E+00
 -1      1700 1.26800E+02 3.21589E+01 0.00000E+00
 -1      1701 1.26092E+02 3.25852E+01 0.00000E+00
 -1      1702 1.28106E+02 3.09814E+01 0.00000E+00
 -1      1703 1.27536E+02 3.15391E+01 0.00000E+00
 -1      1704 1.29135E+02 2.95651E+01 0.00000E+00
 -1      1705 1.28701E+02 3.02465E+01 0.00000E+00
 -1      1706 1.29761E+02 2.79968E+01 0.00000E+00
 -1      1707 1.29504E+02 2.87186E+01 0.00000E+00
 -1      1708 1.30102E+02 2.63025E+01 0.00000E+00
 -1      1709 1.30008E+02 2.71061E+01 0.00000E+00
 -1      1710 1.27959E+02 1.96873E+01 0.00000E+00
 -1      1711 1.29109E+02 2.09454E+01 0.00000E+00
 -1      1712 1.48437E+02 2.56875E+00 0.00000E+00
 -1      1713 1.47138E+02 3.30625E+00 0.00000E+00
 -1      1714 1.30482E+02 2.40800E+01 0.00000E+00
 -1      1715 1.29946E+02 2.24493E+01 0.00000E+00
 -1      1716 1.30664E+02 2.58645E+01 0.00000E+00
 -1      1717 1.26540E+02 1.87185E+01 0.00000E+00
 -1      1718 1.24955E+02 1.78712E+01 0.00000E+00
 -1      1719 1.23154E+02 1.75659E+01 0.00000E+00
 -1      1720 1.21346E+02 1.76971E+01 0.00000E+00
 -1      1721 1.19643E+02 1.80902E+01 0.00000E+00
 -1      1722 1.18046E+02 1.88832E+01 0.00000E+00
 -1      1723 1.16675E+02 1.99905E+01 0.00000E+00
 -1      1724 1.15632E+02 2.14114E+01 0.00000E+00
 -1      1725 1.14897E+02 2.29535E+01 0.00000E+00
 -1      1726 1.14387E+02 2.45884E+01 0.00000E+00
 -1      1727 1.14309E+02 2.63081E+01 0.00000E+00
 -1      1728 1.14664E+02 2.79856E+01 0.00000E+00
 -1      1729 1.15264E+02 2.95317E+01 0.00000E+00
 -1      1730 1.16081E+02 3.10678E+01 0.00000E+00
 -1      1731 1.17290E+02 3.24681E+01 0.00000E+00
 -1      1732 1.18943E+02 3.33548E+01 0.00000E+00
 -1      1733 1.20670E+02 3.37882E+01 0.00000E+00
 -1      1734 1.22433E+02 3.40268E+01 0.00000E+00
 -1      1735 1.24230E+02 3.38896E+01 0.00000E+00
 -1      1736 1.25955E+02 3.33135E+01 0.00000E+00
 -1      1737 1.27538E+02 3.23433E+01 0.00000E+00
 -1      1738 1.28870E+02 3.09886E+01 0.00000E+00
 -1      1739 1.29834E+02 2.94071E+01 0.00000E+00
 -1      1740 1.30451E+02 2.76699E+01 0.00000E+00
 -1      1741 2.87400E+00 4.77875E+01 0.00000E+00
 -1      1742 3.89700E+00 4.04125E+01 0.00000E+00
 -1      1743 3.89700E+00 4.18875E+01 0.00000E+00
 -1      1744 3.89700E+00 4.33625E+01 0.00000E+00
 -1      1745 3.89700E+00 4.48375E+01 0.00000E+00
 -1      1746 5.19600E+00 4.26250E+01 0.00000E+00
 -1      1747 3.89700E+00 3.45500E+01 0.00000E+00
 -1      1748 3.89700E+00 3.60000E+01 0.00000E+00
 -1      1749 3.89700E+00 3.16000E+01 0.00000E+00
 -1      1750 3.89700E+00 3.30750E+01 0.00000E+00
 -1      1751 5.19600E+00 3.38000E+01 0.00000E+00
 -1      1752 3.89700E+00 2.86500E+01 0.00000E+00
 -1      1753 3.89700E+00 3.01250E+01 0.00000E+00
 -1      1754 5.19600E+00 3.08500E+01 0.00000E+00
 -1      1755 3.89700E+00 2.57000E+01 0.00000E+00
 -1      1756 3.89700E+00 2.71750E+01 0.00000E+00
 -1      1757 5.19600E+00 2.79000E+01 0.00000E+00
 -1      1758 3.89700E+00 2.27500E+01 0.00000E+00
 -1      1759 3.89700E+00 2.42250E+01 0.00000E+00
 -1      1760 5.19600E+00 2.49500E+01 0.00000E+00
 -1      1761 3.89700E+00 1.98000E+01 0.00000E+00
 -1      1762 3.89700E+00 2.12750E+01 0.00000E+00
 -1      1763 5.19600E+00 2.20000E+01 0.00000E+00
 -1      1764 3.89700E+00 1.69000E+01 0.00000E+00
 -1      1765 3.89700E+00 1.83500E+01 0.00000E+00
 -1      1766 5.19600E+00 1.90750E+01 0.00000E+00
 -1      1767 3.89700E+00 1.39500E+01 0.00000E+00
 -1      1768 3.89700E+00 1.54250E+01 0.00000E+00
 -1      1769 5.19600E+00 1.61500E+01 0.00000E+00
 -1      1770 3.89700E+00 1.10000E+01 0.00000E+00
 -1      1771 3.89700E+00 1.24750E+01 0.00000E+00
 -1      1772 5.19600E+00 1.32000E+01 0.00000E+00
 -1      1773 3.89700E+00 8.05000E+00 0.00000E+00
 -1      1774 3.89700E+00 9.52500E+00 0.00000E+00
 -1      1775 5.19600E+00 1.02500E+01 0.00000E+00
 -1      1776 3.89700E+00 5.10000E+00 0.00000E+00
 -1      1777 3.89700E+00 6.57500E+00 0.00000E+00
 -1      1778 5.19600E+00 7.30000E+00 0.00000E+00
 -1      1779 4.20450E+00 3.09687E+00 0.00000E+00
 -1      1780 4.06650E+00 4.19063E+00 0.00000E+00
 -1      1781 5.36550E+00 4.91563E+00 0.00000E+00
 -1      1782 5.70450E+00 3.09687E+00 0.00000E+00
 -1      1783 3.62400E+00 4.64885E+01 0.00000E+00
 -1      1784 8.70450E+00 3.09687E+00 0.00000E+00
 -1      1785 7.20450E+00 3.09687E+00 0.00000E+00
 -1      1786 7.03500E+00 4.00625E+00 0.00000E+00
 -1      1787 4.92300E+00 4.57510E+01 0.00000E+00
 -1      1788 8.40000E+00 4.61030E+01 0.00000E+00
 -1      1789 9.90000E+00 4.61030E+01 0.00000E+00
 -1      1790 1.14000E+01 4.61030E+01 0.00000E+00
 -1      1791 1.29000E+01 4.61030E+01 0.00000E+00
 -1      1792 1.06500E+01 4.48040E+01 0.00000E+00
 -1      1793 1.44000E+01 4.61030E+01 0.00000E+00
 -1      1794 1.59000E+01 4.61030E+01 0.00000E+00
 -1      1795 1.36500E+01 4.48040E+01 0.00000E+00
 -1      1796 1.74000E+01 4.61030E+01 0.00000E+00
 -1      1797 1.89000E+01 4.61030E+01 0.00000E+00
 -1      1798 1.66500E+01 4.48040E+01 0.00000E+00
 -1      1799 2.04000E+01 4.61030E+01 0.00000E+00
 -1      1800 2.19000E+01 4.61030E+01 0.00000E+00
 -1      1801 1.96500E+01 4.48040E+01 0.00000E+00
 -1      1802 2.34000E+01 4.61030E+01 0.00000E+00
 -1      1803 2.49000E+01 4.61030E+01 0.00000E+00
 -1      1804 2.26500E+01 4.48040E+01 0.00000E+00
 -1      1805 2.64000E+01 4.61030E+01 0.00000E+00
 -1      1806 2.79000E+01 4.61030E+01 0.00000E+00
 -1      1807 2.56500E+01 4.48040E+01 0.00000E+00
 -1      1808 2.94000E+01 4.61030E+01 0.00000E+00
 -1      1809 3.09000E+01 4.61030E+01 0.00000E+00
 -1      1810 2.86500E+01 4.48040E+01 0.00000E+00
 -1      1811 3.24000E+01 4.61030E+01 0.00000E+00
 -1      1812 3.39000E+01 4.61030E+01 0.00000E+00
 -1      1813 3.16500E+01 4.48040E+01 0.00000E+00
 -1      1814 3.54000E+01 4.61030E+01 0.00000E+00
 -1      1815 3.69000E+01 4.61030E+01 0.00000E+00
 -1      1816 3.46500E+01 4.48040E+01 0.00000E+00
 -1      1817 3.84000E+01 4.61030E+01 0.00000E+00
 -1      1818 3.99000E+01 4.61030E+01 0.00000E+00
 -1      1819 3.76500E+01 4.48040E+01 0.00000E+00
 -1      1820 4.14000E+01 4.61030E+01 0.00000E+00
 -1      1821 4.29000E+01 4.61030E+01 0.00000E+00
 -1      1822 4.06500E+01 4.48040E+01 0.00000E+00
 -1      1823 4.44000E+01 4.61030E+01 0.00000E+00
 -1      1824 4.59000E+01 4.61030E+01 0.00000E+00
 -1      1825 4.36500E+01 4.48040E+01 0.00000E+00
 -1      1826 4.74000E+01 4.61030E+01 0.00000E+00
 -1      1827 4.89000E+01 4.61030E+01 0.00000E+00
 -1      1828 4.66500E+01 4.48040E+01 0.00000E+00
 -1      1829 5.04000E+01 4.61030E+01 0.00000E+00
 -1      1830 5.19000E+01 4.61030E+01 0.00000E+00
 -1      1831 4.96500E+01 4.48040E+01 0.00000E+00
 -1      1832 5.34000E+01 4.61030E+01 0.00000E+00
 -1      1833 5.49000E+01 4.61030E+01 0.00000E+00
 -1      1834 5.26500E+01 4.48040E+01 0.00000E+00
 -1      1835 5.64000E+01 4.61030E+01 0.00000E+00
 -1      1836 5.79000E+01 4.61030E+01 0.00000E+00
 -1      1837 5.56500E+01 4.48040E+01 0.00000E+00
 -1      1838 5.94000E+01 4.61030E+01 0.00000E+00
 -1      1839 6.09000E+01 4.61030E+01 0.00000E+00
 -1      1840 5.86500E+01 4.48040E+01 0.00000E+00
 -1      1841 6.24000E+01 4.61030E+01 0.00000E+00
 -1      1842 6.39000E+01 4.61030E+01 0.00000E+00
 -1      1843 6.16500E+01 4.48040E+01 0.00000E+00
 -1      1844 6.54000E+01 4.61030E+01 0.00000E+00
 -1      1845 6.69000E+01 4.61030E+01 0.00000E+00
 -1      1846 6.46500E+01 4.48040E+01 0.00000E+00
 -1      1847 6.84000E+01 4.61030E+01 0.00000E+00
 -1      1848 6.99000E+01 4.61030E+01 0.00000E+00
 -1      1849 6.76500E+01 4.48040E+01 0.00000E+00
 -1      1850 7.14000E+01 4.61030E+01 0.00000E+00
 -1      1851 7.29000E+01 4.61030E+01 0.00000E+00
 -1      1852 7.06500E+01 4.48040E+01 0.00000E+00
 -1      1853 7.44000E+01 4.61030E+01 0.00000E+00
 -1      1854 7.59000E+01 4.61030E+01 0.00000E+00
 -1      1855 7.36500E+01 4.48040E+01 0.00000E+00
 -1      1856 7.74000E+01 4.61030E+01 0.00000E+00
 -1      1857 7.89000E+01 4.61030E+01 0.00000E+00
 -1      1858 7.66500E+01 4.48040E+01 0.00000E+00
 -1      1859 8.04000E+01 4.61030E+01 0.00000E+00
 -1      1860 8.19000E+01 4.61030E+01 0.00000E+00
 -1      1861 7.96500E+01 4.48040E+01 0.00000E+00
 -1      1862 8.34000E+01 4.61030E+01 0.00000E+00
 -1      1863 8.49000E+01 4.61030E+01 0.00000E+00
 -1      1864 8.26500E+01 4.48040E+01 0.00000E+00
 -1      1865 8.64000E+01 4.61030E+01 0.00000E+00
 -1      1866 8.79000E+01 4.61030E+01 0.00000E+00
 -1      1867 8.56500E+01 4.48040E+01 0.00000E+00
 -1      1868 8.94000E+01 4.61030E+01 0.00000E+00
 -1      1869 9.09000E+01 4.61030E+01 0.00000E+00
 -1      1870 8.86500E+01 4.48040E+01 0.00000E+00
 -1      1871 9.24000E+01 4.61030E+01 0.00000E+00
 -1      1872 9.39000E+01 4.61030E+01 0.00000E+00
 -1      1873 9.16500E+01 4.48040E+01 0.00000E+00
 -1      1874 9.54000E+01 4.61030E+01 0.00000E+00
 -1      1875 9.69000E+01 4.61030E+01 0.00000E+00
 -1      1876 9.46500E+01 4.48040E+01 0.00000E+00
 -1      1877 9.84000E+01 4.61030E+01 0.00000E+00
 -1      1878 9.99000E+01 4.61030E+01 0.00000E+00
 -1      1879 9.76500E+01 4.48040E+01 0.00000E+00
 -1      1880 1.01400E+02 4.61030E+01 0.00000E+00
 -1      1881 1.02900E+02 4.61030E+01 0.00000E+00
 -1      1882 1.00650E+02 4.48040E+01 0.00000E+00
 -1      1883 1.04400E+02 4.61030E+01 0.00000E+00
 -1      1884 1.05900E+02 4.61030E+01 0.00000E+00
 -1      1885 1.03650E+02 4.48040E+01 0.00000E+00
 -1      1886 1.07400E+02 4.61030E+01 0.00000E+00
 -1      1887 1.08900E+02 4.61030E+01 0.00000E+00
 -1      1888 1.06650E+02 4.48040E+01 0.00000E+00
 -1      1889 1.10400E+02 4.61030E+01 0.00000E+00
 -1      1890 1.11900E+02 4.61030E+01 0.00000E+00
 -1      1891 1.09650E+02 4.48040E+01 0.00000E+00
 -1      1892 1.13400E+02 4.61030E+01 0.00000E+00
 -1      1893 1.14900E+02 4.61030E+01 0.00000E+00
 -1      1894 1.12650E+02 4.48040E+01 0.00000E+00
 -1      1895 1.16400E+02 4.61030E+01 0.00000E+00
 -1      1896 1.17900E+02 4.61030E+01 0.00000E+00
 -1      1897 1.15650E+02 4.48040E+01 0.00000E+00
 -1      1898 1.19400E+02 4.61030E+01 0.00000E+00
 -1      1899 1.20900E+02 4.61030E+01 0.00000E+00
 -1      1900 1.18650E+02 4.48040E+01 0.00000E+00
 -1      1901 1.22400E+02 4.61030E+01 0.00000E+00
 -1      1902 1.23900E+02 4.61030E+01 0.00000E+00
 -1      1903 1.21650E+02 4.48040E+01 0.00000E+00
 -1      1904 1.25400E+02 4.61030E+01 0.00000E+00
 -1      1905 1.26900E+02 4.61030E+01 0.00000E+00
 -1      1906 1.24650E+02 4.48040E+01 0.00000E+00
 -1      1907 1.28400E+02 4.61030E+01 0.00000E+00
 -1      1908 1.29900E+02 4.61030E+01 0.00000E+00
 -1      1909 1.27650E+02 4.48040E+01 0.00000E+00
 -1      1910 1.31400E+02 4.61030E+01 0.00000E+00
 -1      1911 1.32900E+02 4.61030E+01 0.00000E+00
 -1      1912 1.30650E+02 4.48040E+01 0.00000E+00
 -1      1913 1.34400E+02 4.61030E+01 0.00000E+00
 -1      1914 1.35900E+02 4.61030E+01 0.00000E+00
 -1      1915 1.33650E+02 4.48040E+01 0.00000E+00
 -1      1916 1.37400E+02 4.61030E+01 0.00000E+00
 -1      1917 1.38900E+02 4.61030E+01 0.00000E+00
 -1      1918 1.36650E+02 4.48040E+01 0.00000E+00
 -1      1919 1.40400E+02 4.61030E+01 0.00000E+00
 -1      1920 1.41900E+02 4.61030E+01 0.00000E+00
 -1      1921 1.39650E+02 4.48040E+01 0.00000E+00
 -1      1922 1.43244E+02 4.61616E+01 0.00000E+00
 -1      1923 1.44744E+02 4.61616E+01 0.00000E+00
 -1      1924 1.45182E+02 4.49799E+01 0.00000E+00
 -1      1925 1.42494E+02 4.48626E+01 0.00000E+00
 -1      1926 1.17045E+01 3.09687E+00 0.00000E+00
 -1      1927 1.02045E+01 3.09687E+00 0.00000E+00
 -1      1928 1.00350E+01 4.00625E+00 0.00000E+00
 -1      1929 1.47045E+01 3.09687E+00 0.00000E+00
 -1      1930 1.32045E+01 3.09687E+00 0.00000E+00
 -1      1931 1.30350E+01 4.00625E+00 0.00000E+00
 -1      1932 1.77045E+01 3.09687E+00 0.00000E+00
 -1      1933 1.62045E+01 3.09687E+00 0.00000E+00
 -1      1934 1.60350E+01 4.00625E+00 0.00000E+00
 -1      1935 2.07045E+01 3.09687E+00 0.00000E+00
 -1      1936 1.92045E+01 3.09687E+00 0.00000E+00
 -1      1937 1.90350E+01 4.00625E+00 0.00000E+00
 -1      1938 2.37045E+01 3.09687E+00 0.00000E+00
 -1      1939 2.22045E+01 3.09687E+00 0.00000E+00
 -1      1940 2.20350E+01 4.00625E+00 0.00000E+00
 -1      1941 2.67045E+01 3.09687E+00 0.00000E+00
 -1      1942 2.52045E+01 3.09687E+00 0.00000E+00
 -1      1943 2.50350E+01 4.00625E+00 0.00000E+00
 -1      1944 2.97045E+01 3.09687E+00 0.00000E+00
 -1      1945 2.82045E+01 3.09687E+00 0.00000E+00
 -1      1946 2.80350E+01 4.00625E+00 0.00000E+00
 -1      1947 3.27045E+01 3.09687E+00 0.00000E+00
 -1      1948 3.12045E+01 3.09687E+00 0.00000E+00
 -1      1949 3.10350E+01 4.00625E+00 0.00000E+00
 -1      1950 3.57045E+01 3.09687E+00 0.00000E+00
 -1      1951 3.42045E+01 3.09687E+00 0.00000E+00
 -1      1952 3.40350E+01 4.00625E+00 0.00000E+00
 -1      1953 3.87045E+01 3.09687E+00 0.00000E+00
 -1      1954 3.72045E+01 3.09687E+00 0.00000E+00
 -1      1955 3.70350E+01 4.00625E+00 0.00000E+00
 -1      1956 4.17045E+01 3.09687E+00 0.00000E+00
 -1      1957 4.02045E+01 3.09687E+00 0.00000E+00
 -1      1958 4.00350E+01 4.00625E+00 0.00000E+00
 -1      1959 4.47045E+01 3.09687E+00 0.00000E+00
 -1      1960 4.32045E+01 3.09687E+00 0.00000E+00
 -1      1961 4.30350E+01 4.00625E+00 0.00000E+00
 -1      1962 4.77045E+01 3.09687E+00 0.00000E+00
 -1      1963 4.62045E+01 3.09687E+00 0.00000E+00
 -1      1964 4.60350E+01 4.00625E+00 0.00000E+00
 -1      1965 5.07045E+01 3.09687E+00 0.00000E+00
 -1      1966 4.92045E+01 3.09687E+00 0.00000E+00
 -1      1967 4.90350E+01 4.00625E+00 0.00000E+00
 -1      1968 5.37045E+01 3.09687E+00 0.00000E+00
 -1      1969 5.22045E+01 3.09687E+00 0.00000E+00
 -1      1970 5.20350E+01 4.00625E+00 0.00000E+00
 -1      1971 5.67045E+01 3.09687E+00 0.00000E+00
 -1      1972 5.52045E+01 3.09687E+00 0.00000E+00
 -1      1973 5.50350E+01 4.00625E+00 0.00000E+00
 -1      1974 5.97045E+01 3.09687E+00 0.00000E+00
 -1      1975 5.82045E+01 3.09687E+00 0.00000E+00
 -1      1976 5.80350E+01 4.00625E+00 0.00000E+00
 -1      1977 6.27045E+01 3.09687E+00 0.00000E+00
 -1      1978 6.12045E+01 3.09687E+00 0.00000E+00
 -1      1979 6.10350E+01 4.00625E+00 0.00000E+00
 -1      1980 6.57045E+01 3.09687E+00 0.00000E+00
 -1      1981 6.42045E+01 3.09687E+00 0.00000E+00
 -1      1982 6.40350E+01 4.00625E+00 0.00000E+00
 -1      1983 6.87045E+01 3.09687E+00 0.00000E+00
 -1      1984 6.72045E+01 3.09687E+00 0.00000E+00
 -1      1985 6.70350E+01 4.00625E+00 0.00000E+00
 -1      1986 7.17045E+01 3.09687E+00 0.00000E+00
 -1      1987 7.02045E+01 3.09687E+00 0.00000E+00
 -1      1988 7.00350E+01 4.00625E+00 0.00000E+00
 -1      1989 7.47045E+01 3.09687E+00 0.00000E+00
 -1      1990 7.32045E+01 3.09687E+00 0.00000E+00
 -1      1991 7.30350E+01 4.00625E+00 0.00000E+00
 -1      1992 7.77045E+01 3.09687E+00 0.00000E+00
 -1      1993 7.62045E+01 3.09687E+00 0.00000E+00
 -1      1994 7.60350E+01 4.00625E+00 0.00000E+00
 -1      1995 8.07045E+01 3.09687E+00 0.00000E+00
 -1      1996 7.92045E+01 3.09687E+00 0.00000E+00
 -1      1997 7.90350E+01 4.00625E+00 0.00000E+00
 -1      1998 8.37045E+01 3.09687E+00 0.00000E+00
 -1      1999 8.22045E+01 3.09687E+00 0.00000E+00
 -1      2000 8.20350E+01 4.00625E+00 0.00000E+00
 -1      2001 8.67045E+01 3.09687E+00 0.00000E+00
 -1      2002 8.52045E+01 3.09687E+00 0.00000E+00
 -1      2003 8.50350E+01 4.00625E+00 0.00000E+00
 -1      2004 8.97045E+01 3.09687E+00 0.00000E+00
 -1      2005 8.82045E+01 3.09687E+00 0.00000E+00
 -1      2006 8.80350E+01 4.00625E+00 0.00000E+00
 -1      2007 9.27045E+01 3.09687E+00 0.00000E+00
 -1      2008 9.12045E+01 3.09687E+00 0.00000E+00
 -1      2009 9.10350E+01 4.00625E+00 0.00000E+00
 -1      2010 9.57045E+01 3.09687E+00 0.00000E+00
 -1      2011 9.42045E+01 3.09687E+00 0.00000E+00
 -1      2012 9.40350E+01 4.00625E+00 0.00000E+00
 -1      2013 9.87045E+01 3.09687E+00 0.00000E+00
 -1      2014 9.72045E+01 3.09687E+00 0.00000E+00
 -1      2015 9.70350E+01 4.00625E+00 0.00000E+00
 -1      2016 1.01704E+02 3.09687E+00 0.00000E+00
 -1      2017 1.00204E+02 3.09687E+00 0.00000E+00
 -1      2018 1.00035E+02 4.00625E+00 0.00000E+00
 -1      2019 1.04704E+02 3.09687E+00 0.00000E+00
 -1      2020 1.03204E+02 3.09687E+00 0.00000E+00
 -1      2021 1.03035E+02 4.00625E+00 0.00000E+00
 -1      2022 1.07704E+02 3.09687E+00 0.00000E+00
 -1      2023 1.06204E+02 3.09687E+00 0.00000E+00
 -1      2024 1.06035E+02 4.00625E+00 0.00000E+00
 -1      2025 1.10704E+02 3.09687E+00 0.00000E+00
 -1      2026 1.09204E+02 3.09687E+00 0.00000E+00
 -1      2027 1.09035E+02 4.00625E+00 0.00000E+00
 -1      2028 1.13704E+02 3.09687E+00 0.00000E+00
 -1      2029 1.12204E+02 3.09687E+00 0.00000E+00
 -1      2030 1.12035E+02 4.00625E+00 0.00000E+00
 -1      2031 1.16704E+02 3.09687E+00 0.00000E+00
 -1      2032 1.15204E+02 3.09687E+00 0.00000E+00
 -1      2033 1.15035E+02 4.00625E+00 0.00000E+00
 -1      2034 1.19704E+02 3.09687E+00 0.00000E+00
 -1      2035 1.18204E+02 3.09687E+00 0.00000E+00
 -1      2036 1.18035E+02 4.00625E+00 0.00000E+00
 -1      2037 1.22704E+02 3.09687E+00 0.00000E+00
 -1      2038 1.21204E+02 3.09687E+00 0.00000E+00
 -1      2039 1.21035E+02 4.00625E+00 0.00000E+00
 -1      2040 1.25704E+02 3.09687E+00 0.00000E+00
 -1      2041 1.24204E+02 3.09687E+00 0.00000E+00
 -1      2042 1.24035E+02 4.00625E+00 0.00000E+00
 -1      2043 1.28704E+02 3.09687E+00 0.00000E+00
 -1      2044 1.27204E+02 3.09687E+00 0.00000E+00
 -1      2045 1.27035E+02 4.00625E+00 0.00000E+00
 -1      2046 1.31704E+02 3.09687E+00 0.00000E+00
 -1      2047 1.30204E+02 3.09687E+00 0.00000E+00
 -1      2048 1.30035E+02 4.00625E+00 0.00000E+00
 -1      2049 1.34704E+02 3.09687E+00 0.00000E+00
 -1      2050 1.33204E+02 3.09687E+00 0.00000E+00
 -1      2051 1.33035E+02 4.00625E+00 0.00000E+00
 -1      2052 1.37704E+02 3.09687E+00 0.00000E+00
 -1      2053 1.36204E+02 3.09687E+00 0.00000E+00
 -1      2054 1.36035E+02 4.00625E+00 0.00000E+00
 -1      2055 1.40704E+02 3.09687E+00 0.00000E+00
 -1      2056 1.39204E+02 3.09687E+00 0.00000E+00
 -1      2057 1.39035E+02 4.00625E+00 0.00000E+00
 -1      2058 1.43704E+02 3.09687E+00 0.00000E+00
 -1      2059 1.42204E+02 3.09687E+00 0.00000E+00
 -1      2060 1.42035E+02 4.00625E+00 0.00000E+00
 -1      2061 1.46171E+02 3.20156E+00 0.00000E+00
 -1      2062 1.44671E+02 3.20156E+00 0.00000E+00
 -1      2063 1.44502E+02 4.11094E+00 0.00000E+00
 -1      2064 1.46435E+02 4.32031E+00 0.00000E+00
 -1      2065 1.46103E+02 1.25375E+01 0.00000E+00
 -1      2066 1.46103E+02 1.10625E+01 0.00000E+00
 -1      2067 1.46103E+02 9.58750E+00 0.00000E+00
 -1      2068 1.46103E+02 8.11250E+00 0.00000E+00
 -1      2069 1.44804E+02 1.03250E+01 0.00000E+00
 -1      2070 1.46269E+02 6.95391E+00 0.00000E+00
 -1      2071 1.46269E+02 5.47891E+00 0.00000E+00
 -1      2072 1.45302E+02 5.37422E+00 0.00000E+00
 -1      2073 1.44970E+02 7.69141E+00 0.00000E+00
 -1      2074 1.46103E+02 1.54375E+01 0.00000E+00
 -1      2075 1.46103E+02 1.39875E+01 0.00000E+00
 -1      2076 1.44804E+02 1.32500E+01 0.00000E+00
 -1      2077 1.46103E+02 1.83875E+01 0.00000E+00
 -1      2078 1.46103E+02 1.69125E+01 0.00000E+00
 -1      2079 1.44804E+02 1.61750E+01 0.00000E+00
 -1      2080 1.46103E+02 2.13375E+01 0.00000E+00
 -1      2081 1.46103E+02 1.98625E+01 0.00000E+00
 -1      2082 1.44804E+02 1.91250E+01 0.00000E+00
 -1      2083 1.46103E+02 2.42875E+01 0.00000E+00
 -1      2084 1.46103E+02 2.28125E+01 0.00000E+00
 -1      2085 1.44804E+02 2.20750E+01 0.00000E+00
 -1      2086 1.46103E+02 2.72375E+01 0.00000E+00
 -1      2087 1.46103E+02 2.57625E+01 0.00000E+00
 -1      2088 1.44804E+02 2.50250E+01 0.00000E+00
 -1      2089 1.46103E+02 3.01875E+01 0.00000E+00
 -1      2090 1.46103E+02 2.87125E+01 0.00000E+00
 -1      2091 1.44804E+02 2.79750E+01 0.00000E+00
 -1      2092 1.46103E+02 3.30875E+01 0.00000E+00
 -1      2093 1.46103E+02 3.16375E+01 0.00000E+00
 -1      2094 1.44804E+02 3.09000E+01 0.00000E+00
 -1      2095 1.46103E+02 3.60375E+01 0.00000E+00
 -1      2096 1.46103E+02 3.45625E+01 0.00000E+00
 -1      2097 1.44804E+02 3.38250E+01 0.00000E+00
 -1      2098 1.46103E+02 3.89875E+01 0.00000E+00
 -1      2099 1.46103E+02 3.75125E+01 0.00000E+00
 -1      2100 1.44804E+02 3.67750E+01 0.00000E+00
 -1      2101 1.46103E+02 4.19375E+01 0.00000E+00
 -1      2102 1.46103E+02 4.04625E+01 0.00000E+00
 -1      2103 1.44804E+02 3.97250E+01 0.00000E+00
 -1      2104 1.30516E+02 2.16789E+01 0.00000E+00
 -1      2105 1.30904E+02 2.24397E+01 0.00000E+00
 -1      2106 1.31462E+02 2.53764E+01 0.00000E+00
 -1      2107 1.31496E+02 2.62911E+01 0.00000E+00
 -1      2108 1.31089E+02 2.35299E+01 0.00000E+00
 -1      2109 1.31236E+02 2.43997E+01 0.00000E+00
 -1      2110 1.29619E+02 2.01926E+01 0.00000E+00
 -1      2111 1.30067E+02 2.09357E+01 0.00000E+00
 -1      2112 1.31025E+02 2.09261E+01 0.00000E+00
 -1      2113 1.28016E+02 1.88735E+01 0.00000E+00
 -1      2114 1.28718E+02 1.93885E+01 0.00000E+00
 -1      2115 3.89700E+00 3.74688E+01 0.00000E+00
 -1      2116 3.89700E+00 3.89437E+01 0.00000E+00
 -1      2117 5.19600E+00 3.96813E+01 0.00000E+00
 -1      2118 5.19600E+00 3.67438E+01 0.00000E+00
 -1      2119 1.24805E+02 1.70460E+01 0.00000E+00
 -1      2120 1.25674E+02 1.74394E+01 0.00000E+00
 -1      2121 1.22623E+02 1.69231E+01 0.00000E+00
 -1      2122 1.23555E+02 1.68349E+01 0.00000E+00
 -1      2123 1.20873E+02 1.70090E+01 0.00000E+00
 -1      2124 1.21748E+02 1.69661E+01 0.00000E+00
 -1      2125 1.22149E+02 1.62351E+01 0.00000E+00
 -1      2126 1.18927E+02 1.75524E+01 0.00000E+00
 -1      2127 1.19756E+02 1.72023E+01 0.00000E+00
 -1      2128 1.17276E+02 1.84346E+01 0.00000E+00
 -1      2129 1.18043E+02 1.79916E+01 0.00000E+00
 -1      2130 1.15862E+02 1.98584E+01 0.00000E+00
 -1      2131 1.16466E+02 1.91942E+01 0.00000E+00
 -1      2132 1.14816E+02 2.14437E+01 0.00000E+00
 -1      2133 1.15255E+02 2.06870E+01 0.00000E+00
 -1      2134 1.14103E+02 2.31021E+01 0.00000E+00
 -1      2135 1.14400E+02 2.23167E+01 0.00000E+00
 -1      2136 1.13612E+02 2.48459E+01 0.00000E+00
 -1      2137 1.13824E+02 2.39966E+01 0.00000E+00
 -1      2138 1.13694E+02 2.68478E+01 0.00000E+00
 -1      2139 1.13560E+02 2.59775E+01 0.00000E+00
 -1      2140 1.14029E+02 2.85941E+01 0.00000E+00
 -1      2141 1.13807E+02 2.77869E+01 0.00000E+00
 -1      2142 1.14839E+02 3.02155E+01 0.00000E+00
 -1      2143 1.14461E+02 2.94766E+01 0.00000E+00
 -1      2144 1.15716E+02 3.18099E+01 0.00000E+00
 -1      2145 1.15278E+02 3.10127E+01 0.00000E+00
 -1      2146 1.14474E+02 3.09576E+01 0.00000E+00
 -1      2147 1.17199E+02 3.33791E+01 0.00000E+00
 -1      2148 1.16428E+02 3.27760E+01 0.00000E+00
 -1      2149 1.19172E+02 3.41534E+01 0.00000E+00
 -1      2150 1.18291E+02 3.38699E+01 0.00000E+00
 -1      2151 1.20972E+02 3.45426E+01 0.00000E+00
 -1      2152 1.20127E+02 3.43927E+01 0.00000E+00
 -1      2153 1.22814E+02 3.48830E+01 0.00000E+00
 -1      2154 1.21896E+02 3.47944E+01 0.00000E+00
 -1      2155 1.24851E+02 3.44855E+01 0.00000E+00
 -1      2156 1.23973E+02 3.47114E+01 0.00000E+00
 -1      2157 1.26674E+02 3.38533E+01 0.00000E+00
 -1      2158 1.25828E+02 3.42036E+01 0.00000E+00
 -1      2159 1.28350E+02 3.25613E+01 0.00000E+00
 -1      2160 1.27614E+02 3.31811E+01 0.00000E+00
 -1      2161 1.29801E+02 3.11345E+01 0.00000E+00
 -1      2162 1.29206E+02 3.18695E+01 0.00000E+00
 -1      2163 1.30690E+02 2.92765E+01 0.00000E+00
 -1      2164 1.30320E+02 3.01231E+01 0.00000E+00
 -1      2165 1.31199E+02 2.73981E+01 0.00000E+00
 -1      2166 1.30952E+02 2.82887E+01 0.00000E+00
 -1      2167 1.26573E+02 1.78731E+01 0.00000E+00
 -1      2168 1.27290E+02 1.83269E+01 0.00000E+00
 -1      2169 1.29676E+02 1.93788E+01 0.00000E+00
 -1      2170 6.42300E+00 4.57510E+01 0.00000E+00
 -1      2171 1.26424E+02 1.70479E+01 0.00000E+00
 -1      2172 7.17300E+00 4.44520E+01 0.00000E+00
 -1      2173 1.31658E+02 2.27594E+01 0.00000E+00
 -1      2174 1.32069E+02 2.48263E+01 0.00000E+00
 -1      2175 1.45665E+02 4.31193E+01 0.00000E+00
 -1      2176 1.31997E+02 2.69100E+01 0.00000E+00
 -1      2177 1.28049E+02 1.80281E+01 0.00000E+00
 -1      2178 1.31438E+02 2.90047E+01 0.00000E+00
 -1      2179 1.30657E+02 3.10039E+01 0.00000E+00
 -1      2180 1.29282E+02 3.27073E+01 0.00000E+00
 -1      2181 1.27487E+02 3.40712E+01 0.00000E+00
 -1      2182 1.25570E+02 3.50254E+01 0.00000E+00
 -1      2183 1.23435E+02 3.54790E+01 0.00000E+00
 -1      2184 1.21353E+02 3.53988E+01 0.00000E+00
 -1      2185 1.19474E+02 3.49078E+01 0.00000E+00
 -1      2186 1.15625E+02 3.27209E+01 0.00000E+00
 -1      2187 1.13604E+02 2.92780E+01 0.00000E+00
 -1      2188 1.13058E+02 2.74563E+01 0.00000E+00
 -1      2189 1.12997E+02 2.53857E+01 0.00000E+00
 -1      2190 1.13327E+02 2.33597E+01 0.00000E+00
 -1      2191 1.14022E+02 2.15923E+01 0.00000E+00
 -1      2192 1.15046E+02 1.98907E+01 0.00000E+00
 -1      2193 1.16463E+02 1.83025E+01 0.00000E+00
 -1      2194 1.20158E+02 1.64713E+01 0.00000E+00
 -1      2195 1.24274E+02 1.64032E+01 0.00000E+00
 -1      2196 1.24993E+02 1.59714E+01 0.00000E+00
 -1      2197 1.23743E+02 1.57604E+01 0.00000E+00
 -1      2198 1.18157E+02 1.71037E+01 0.00000E+00
 -1      2199 1.17428E+02 3.41777E+01 0.00000E+00
 -1      2200 1.07850E+01 5.30525E+00 0.00000E+00
 -1      2201 9.28500E+00 5.30525E+00 0.00000E+00
 -1      2202 6.49500E+00 3.01125E+01 0.00000E+00
 -1      2203 6.49500E+00 3.15875E+01 0.00000E+00
 -1      2204 6.49500E+00 3.30625E+01 0.00000E+00
 -1      2205 6.49500E+00 3.45375E+01 0.00000E+00
 -1      2206 7.79400E+00 3.23250E+01 0.00000E+00
 -1      2207 6.49500E+00 2.42125E+01 0.00000E+00
 -1      2208 6.49500E+00 2.56875E+01 0.00000E+00
 -1      2209 6.49500E+00 2.12625E+01 0.00000E+00
 -1      2210 6.49500E+00 2.27375E+01 0.00000E+00
 -1      2211 7.79400E+00 2.34750E+01 0.00000E+00
 -1      2212 6.49500E+00 1.83625E+01 0.00000E+00
 -1      2213 6.49500E+00 1.98125E+01 0.00000E+00
 -1      2214 7.79400E+00 2.05500E+01 0.00000E+00
 -1      2215 6.49500E+00 1.54125E+01 0.00000E+00
 -1      2216 6.49500E+00 1.68875E+01 0.00000E+00
 -1      2217 7.79400E+00 1.76250E+01 0.00000E+00
 -1      2218 6.49500E+00 1.24625E+01 0.00000E+00
 -1      2219 6.49500E+00 1.39375E+01 0.00000E+00
 -1      2220 7.79400E+00 1.46750E+01 0.00000E+00
 -1      2221 6.49500E+00 9.51250E+00 0.00000E+00
 -1      2222 6.49500E+00 1.09875E+01 0.00000E+00
 -1      2223 7.79400E+00 1.17250E+01 0.00000E+00
 -1      2224 1.37850E+01 5.30525E+00 0.00000E+00
 -1      2225 1.22850E+01 5.30525E+00 0.00000E+00
 -1      2226 1.15350E+01 6.60425E+00 0.00000E+00
 -1      2227 9.90000E+00 4.35050E+01 0.00000E+00
 -1      2228 1.14000E+01 4.35050E+01 0.00000E+00
 -1      2229 1.26328E+02 1.60964E+01 0.00000E+00
 -1      2230 1.27227E+02 1.65300E+01 0.00000E+00
 -1      2231 1.29000E+01 4.35050E+01 0.00000E+00
 -1      2232 1.44000E+01 4.35050E+01 0.00000E+00
 -1      2233 1.21500E+01 4.22060E+01 0.00000E+00
 -1      2234 1.59000E+01 4.35050E+01 0.00000E+00
 -1      2235 1.74000E+01 4.35050E+01 0.00000E+00
 -1      2236 1.51500E+01 4.22060E+01 0.00000E+00
 -1      2237 1.89000E+01 4.35050E+01 0.00000E+00
 -1      2238 2.04000E+01 4.35050E+01 0.00000E+00
 -1      2239 1.81500E+01 4.22060E+01 0.00000E+00
 -1      2240 2.19000E+01 4.35050E+01 0.00000E+00
 -1      2241 2.34000E+01 4.35050E+01 0.00000E+00
 -1      2242 2.11500E+01 4.22060E+01 0.00000E+00
 -1      2243 2.49000E+01 4.35050E+01 0.00000E+00
 -1      2244 2.64000E+01 4.35050E+01 0.00000E+00
 -1      2245 2.41500E+01 4.22060E+01 0.00000E+00
 -1      2246 2.79000E+01 4.35050E+01 0.00000E+00
 -1      2247 2.94000E+01 4.35050E+01 0.00000E+00
 -1      2248 2.71500E+01 4.22060E+01 0.00000E+00
 -1      2249 3.09000E+01 4.35050E+01 0.00000E+00
 -1      2250 3.24000E+01 4.35050E+01 0.00000E+00
 -1      2251 3.01500E+01 4.22060E+01 0.00000E+00
 -1      2252 3.39000E+01 4.35050E+01 0.00000E+00
 -1      2253 3.54000E+01 4.35050E+01 0.00000E+00
 -1      2254 3.31500E+01 4.22060E+01 0.00000E+00
 -1      2255 3.69000E+01 4.35050E+01 0.00000E+00
 -1      2256 3.84000E+01 4.35050E+01 0.00000E+00
 -1      2257 3.61500E+01 4.22060E+01 0.00000E+00
 -1      2258 3.99000E+01 4.35050E+01 0.00000E+00
 -1      2259 4.14000E+01 4.35050E+01 0.00000E+00
 -1      2260 3.91500E+01 4.22060E+01 0.00000E+00
 -1      2261 4.29000E+01 4.35050E+01 0.00000E+00
 -1      2262 4.44000E+01 4.35050E+01 0.00000E+00
 -1      2263 4.21500E+01 4.22060E+01 0.00000E+00
 -1      2264 4.59000E+01 4.35050E+01 0.00000E+00
 -1      2265 4.74000E+01 4.35050E+01 0.00000E+00
 -1      2266 4.51500E+01 4.22060E+01 0.00000E+00
 -1      2267 4.89000E+01 4.35050E+01 0.00000E+00
 -1      2268 5.04000E+01 4.35050E+01 0.00000E+00
 -1      2269 4.81500E+01 4.22060E+01 0.00000E+00
 -1      2270 5.19000E+01 4.35050E+01 0.00000E+00
 -1      2271 5.34000E+01 4.35050E+01 0.00000E+00
 -1      2272 5.11500E+01 4.22060E+01 0.00000E+00
 -1      2273 5.49000E+01 4.35050E+01 0.00000E+00
 -1      2274 5.64000E+01 4.35050E+01 0.00000E+00
 -1      2275 5.41500E+01 4.22060E+01 0.00000E+00
 -1      2276 5.79000E+01 4.35050E+01 0.00000E+00
 -1      2277 5.94000E+01 4.35050E+01 0.00000E+00
 -1      2278 5.71500E+01 4.22060E+01 0.00000E+00
 -1      2279 6.09000E+01 4.35050E+01 0.00000E+00
 -1      2280 6.24000E+01 4.35050E+01 0.00000E+00
 -1      2281 6.01500E+01 4.22060E+01 0.00000E+00
 -1      2282 6.39000E+01 4.35050E+01 0.00000E+00
 -1      2283 6.54000E+01 4.35050E+01 0.00000E+00
 -1      2284 6.31500E+01 4.22060E+01 0.00000E+00
 -1      2285 6.69000E+01 4.35050E+01 0.00000E+00
 -1      2286 6.84000E+01 4.35050E+01 0.00000E+00
 -1      2287 6.61500E+01 4.22060E+01 0.00000E+00
 -1      2288 6.99000E+01 4.35050E+01 0.00000E+00
 -1      2289 7.14000E+01 4.35050E+01 0.00000E+00
 -1      2290 6.91500E+01 4.22060E+01 0.00000E+00
 -1      2291 7.29000E+01 4.35050E+01 0.00000E+00
 -1      2292 7.44000E+01 4.35050E+01 0.00000E+00
 -1      2293 7.21500E+01 4.22060E+01 0.00000E+00
 -1      2294 7.59000E+01 4.35050E+01 0.00000E+00
 -1      2295 7.74000E+01 4.35050E+01 0.00000E+00
 -1      2296 7.51500E+01 4.22060E+01 0.00000E+00
 -1      2297 7.89000E+01 4.35050E+01 0.00000E+00
 -1      2298 8.04000E+01 4.35050E+01 0.00000E+00
 -1      2299 7.81500E+01 4.22060E+01 0.00000E+00
 -1      2300 8.19000E+01 4.35050E+01 0.00000E+00
 -1      2301 8.34000E+01 4.35050E+01 0.00000E+00
 -1      2302 8.11500E+01 4.22060E+01 0.00000E+00
 -1      2303 8.49000E+01 4.35050E+01 0.00000E+00
 -1      2304 8.64000E+01 4.35050E+01 0.00000E+00
 -1      2305 8.41500E+01 4.22060E+01 0.00000E+00
 -1      2306 8.79000E+01 4.35050E+01 0.00000E+00
 -1      2307 8.94000E+01 4.35050E+01 0.00000E+00
 -1      2308 8.71500E+01 4.22060E+01 0.00000E+00
 -1      2309 9.09000E+01 4.35050E+01 0.00000E+00
 -1      2310 9.24000E+01 4.35050E+01 0.00000E+00
 -1      2311 9.01500E+01 4.22060E+01 0.00000E+00
 -1      2312 9.39000E+01 4.35050E+01 0.00000E+00
 -1      2313 9.54000E+01 4.35050E+01 0.00000E+00
 -1      2314 9.31500E+01 4.22060E+01 0.00000E+00
 -1      2315 9.69000E+01 4.35050E+01 0.00000E+00
 -1      2316 9.84000E+01 4.35050E+01 0.00000E+00
 -1      2317 9.61500E+01 4.22060E+01 0.00000E+00
 -1      2318 9.99000E+01 4.35050E+01 0.00000E+00
 -1      2319 1.01400E+02 4.35050E+01 0.00000E+00
 -1      2320 9.91500E+01 4.22060E+01 0.00000E+00
 -1      2321 1.02900E+02 4.35050E+01 0.00000E+00
 -1      2322 1.04400E+02 4.35050E+01 0.00000E+00
 -1      2323 1.02150E+02 4.22060E+01 0.00000E+00
 -1      2324 1.05900E+02 4.35050E+01 0.00000E+00
 -1      2325 1.07400E+02 4.35050E+01 0.00000E+00
 -1      2326 1.05150E+02 4.22060E+01 0.00000E+00
 -1      2327 1.08900E+02 4.35050E+01 0.00000E+00
 -1      2328 1.10400E+02 4.35050E+01 0.00000E+00
 -1      2329 1.08150E+02 4.22060E+01 0.00000E+00
 -1      2330 1.11900E+02 4.35050E+01 0.00000E+00
 -1      2331 1.13400E+02 4.35050E+01 0.00000E+00
 -1      2332 1.11150E+02 4.22060E+01 0.00000E+00
 -1      2333 1.14900E+02 4.35050E+01 0.00000E+00
 -1      2334 1.16400E+02 4.35050E+01 0.00000E+00
 -1      2335 1.14150E+02 4.22060E+01 0.00000E+00
 -1      2336 1.17900E+02 4.35050E+01 0.00000E+00
 -1      2337 1.19400E+02 4.35050E+01 0.00000E+00
 -1      2338 1.17150E+02 4.22060E+01 0.00000E+00
 -1      2339 1.20900E+02 4.35050E+01 0.00000E+00
 -1      2340 1.22400E+02 4.35050E+01 0.00000E+00
 -1      2341 1.20150E+02 4.22060E+01 0.00000E+00
 -1      2342 1.23900E+02 4.35050E+01 0.00000E+00
 -1      2343 1.25400E+02 4.35050E+01 0.00000E+00
 -1      2344 1.23150E+02 4.22060E+01 0.00000E+00
 -1      2345 1.26900E+02 4.35050E+01 0.00000E+00
 -1      2346 1.28400E+02 4.35050E+01 0.00000E+00
 -1      2347 1.26150E+02 4.22060E+01 0.00000E+00
 -1      2348 1.29900E+02 4.35050E+01 0.00000E+00
 -1      2349 1.31400E+02 4.35050E+01 0.00000E+00
 -1      2350 1.29150E+02 4.22060E+01 0.00000E+00
 -1      2351 1.32900E+02 4.35050E+01 0.00000E+00
 -1      2352 1.34400E+02 4.35050E+01 0.00000E+00
 -1      2353 1.32150E+02 4.22060E+01 0.00000E+00
 -1      2354 1.35900E+02 4.35050E+01 0.00000E+00
 -1      2355 1.37400E+02 4.35050E+01 0.00000E+00
 -1      2356 1.35150E+02 4.22060E+01 0.00000E+00
 -1      2357 1.38900E+02 4.35050E+01 0.00000E+00
 -1      2358 1.40400E+02 4.35050E+01 0.00000E+00
 -1      2359 1.38150E+02 4.22060E+01 0.00000E+00
 -1      2360 1.97850E+01 5.30525E+00 0.00000E+00
 -1      2361 1.82850E+01 5.30525E+00 0.00000E+00
 -1      2362 2.27850E+01 5.30525E+00 0.00000E+00
 -1      2363 2.12850E+01 5.30525E+00 0.00000E+00
 -1      2364 2.05350E+01 6.60425E+00 0.00000E+00
 -1      2365 2.57850E+01 5.30525E+00 0.00000E+00
 -1      2366 2.42850E+01 5.30525E+00 0.00000E+00
 -1      2367 2.35350E+01 6.60425E+00 0.00000E+00
 -1      2368 2.87850E+01 5.30525E+00 0.00000E+00
 -1      2369 2.72850E+01 5.30525E+00 0.00000E+00
 -1      2370 2.65350E+01 6.60425E+00 0.00000E+00
 -1      2371 3.17850E+01 5.30525E+00 0.00000E+00
 -1      2372 3.02850E+01 5.30525E+00 0.00000E+00
 -1      2373 2.95350E+01 6.60425E+00 0.00000E+00
 -1      2374 3.47850E+01 5.30525E+00 0.00000E+00
 -1      2375 3.32850E+01 5.30525E+00 0.00000E+00
 -1      2376 3.25350E+01 6.60425E+00 0.00000E+00
 -1      2377 3.77850E+01 5.30525E+00 0.00000E+00
 -1      2378 3.62850E+01 5.30525E+00 0.00000E+00
 -1      2379 3.55350E+01 6.60425E+00 0.00000E+00
 -1      2380 4.07850E+01 5.30525E+00 0.00000E+00
 -1      2381 3.92850E+01 5.30525E+00 0.00000E+00
 -1      2382 3.85350E+01 6.60425E+00 0.00000E+00
 -1      2383 4.37850E+01 5.30525E+00 0.00000E+00
 -1      2384 4.22850E+01 5.30525E+00 0.00000E+00
 -1      2385 4.15350E+01 6.60425E+00 0.00000E+00
 -1      2386 4.67850E+01 5.30525E+00 0.00000E+00
 -1      2387 4.52850E+01 5.30525E+00 0.00000E+00
 -1      2388 4.45350E+01 6.60425E+00 0.00000E+00
 -1      2389 4.97850E+01 5.30525E+00 0.00000E+00
 -1      2390 4.82850E+01 5.30525E+00 0.00000E+00
 -1      2391 4.75350E+01 6.60425E+00 0.00000E+00
 -1      2392 5.27850E+01 5.30525E+00 0.00000E+00
 -1      2393 5.12850E+01 5.30525E+00 0.00000E+00
 -1      2394 5.05350E+01 6.60425E+00 0.00000E+00
 -1      2395 5.57850E+01 5.30525E+00 0.00000E+00
 -1      2396 5.42850E+01 5.30525E+00 0.00000E+00
 -1      2397 5.35350E+01 6.60425E+00 0.00000E+00
 -1      2398 5.87850E+01 5.30525E+00 0.00000E+00
 -1      2399 5.72850E+01 5.30525E+00 0.00000E+00
 -1      2400 5.65350E+01 6.60425E+00 0.00000E+00
 -1      2401 6.17850E+01 5.30525E+00 0.00000E+00
 -1      2402 6.02850E+01 5.30525E+00 0.00000E+00
 -1      2403 5.95350E+01 6.60425E+00 0.00000E+00
 -1      2404 6.47850E+01 5.30525E+00 0.00000E+00
 -1      2405 6.32850E+01 5.30525E+00 0.00000E+00
 -1      2406 6.25350E+01 6.60425E+00 0.00000E+00
 -1      2407 6.77850E+01 5.30525E+00 0.00000E+00
 -1      2408 6.62850E+01 5.30525E+00 0.00000E+00
 -1      2409 6.55350E+01 6.60425E+00 0.00000E+00
 -1      2410 7.07850E+01 5.30525E+00 0.00000E+00
 -1      2411 6.92850E+01 5.30525E+00 0.00000E+00
 -1      2412 6.85350E+01 6.60425E+00 0.00000E+00
 -1      2413 7.37850E+01 5.30525E+00 0.00000E+00
 -1      2414 7.22850E+01 5.30525E+00 0.00000E+00
 -1      2415 7.15350E+01 6.60425E+00 0.00000E+00
 -1      2416 7.67850E+01 5.30525E+00 0.00000E+00
 -1      2417 7.52850E+01 5.30525E+00 0.00000E+00
 -1      2418 7.45350E+01 6.60425E+00 0.00000E+00
 -1      2419 7.97850E+01 5.30525E+00 0.00000E+00
 -1      2420 7.82850E+01 5.30525E+00 0.00000E+00
 -1      2421 7.75350E+01 6.60425E+00 0.00000E+00
 -1      2422 8.27850E+01 5.30525E+00 0.00000E+00
 -1      2423 8.12850E+01 5.30525E+00 0.00000E+00
 -1      2424 8.05350E+01 6.60425E+00 0.00000E+00
 -1      2425 8.57850E+01 5.30525E+00 0.00000E+00
 -1      2426 8.42850E+01 5.30525E+00 0.00000E+00
 -1      2427 8.35350E+01 6.60425E+00 0.00000E+00
 -1      2428 8.87850E+01 5.30525E+00 0.00000E+00
 -1      2429 8.72850E+01 5.30525E+00 0.00000E+00
 -1      2430 8.65350E+01 6.60425E+00 0.00000E+00
 -1      2431 9.17850E+01 5.30525E+00 0.00000E+00
 -1      2432 9.02850E+01 5.30525E+00 0.00000E+00
 -1      2433 8.95350E+01 6.60425E+00 0.00000E+00
 -1      2434 9.47850E+01 5.30525E+00 0.00000E+00
 -1      2435 9.32850E+01 5.30525E+00 0.00000E+00
 -1      2436 9.25350E+01 6.60425E+00 0.00000E+00
 -1      2437 9.77850E+01 5.30525E+00 0.00000E+00
 -1      2438 9.62850E+01 5.30525E+00 0.00000E+00
 -1      2439 9.55350E+01 6.60425E+00 0.00000E+00
 -1      2440 1.00785E+02 5.30525E+00 0.00000E+00
 -1      2441 9.92850E+01 5.30525E+00 0.00000E+00
 -1      2442 9.85350E+01 6.60425E+00 0.00000E+00
 -1      2443 1.03785E+02 5.30525E+00 0.00000E+00
 -1      2444 1.02285E+02 5.30525E+00 0.00000E+00
 -1      2445 1.01535E+02 6.60425E+00 0.00000E+00
 -1      2446 1.06785E+02 5.30525E+00 0.00000E+00
 -1      2447 1.05285E+02 5.30525E+00 0.00000E+00
 -1      2448 1.04535E+02 6.60425E+00 0.00000E+00
 -1      2449 1.09785E+02 5.30525E+00 0.00000E+00
 -1      2450 1.08285E+02 5.30525E+00 0.00000E+00
 -1      2451 1.07535E+02 6.60425E+00 0.00000E+00
 -1      2452 1.12785E+02 5.30525E+00 0.00000E+00
 -1      2453 1.11285E+02 5.30525E+00 0.00000E+00
 -1      2454 1.10535E+02 6.60425E+00 0.00000E+00
 -1      2455 1.15785E+02 5.30525E+00 0.00000E+00
 -1      2456 1.14285E+02 5.30525E+00 0.00000E+00
 -1      2457 1.13535E+02 6.60425E+00 0.00000E+00
 -1      2458 1.18785E+02 5.30525E+00 0.00000E+00
 -1      2459 1.17285E+02 5.30525E+00 0.00000E+00
 -1      2460 1.16535E+02 6.60425E+00 0.00000E+00
 -1      2461 1.21785E+02 5.30525E+00 0.00000E+00
 -1      2462 1.20285E+02 5.30525E+00 0.00000E+00
 -1      2463 1.19535E+02 6.60425E+00 0.00000E+00
 -1      2464 1.24785E+02 5.30525E+00 0.00000E+00
 -1      2465 1.23285E+02 5.30525E+00 0.00000E+00
 -1      2466 1.22535E+02 6.60425E+00 0.00000E+00
 -1      2467 1.27785E+02 5.30525E+00 0.00000E+00
 -1      2468 1.26285E+02 5.30525E+00 0.00000E+00
 -1      2469 1.25535E+02 6.60425E+00 0.00000E+00
 -1      2470 1.30785E+02 5.30525E+00 0.00000E+00
 -1      2471 1.29285E+02 5.30525E+00 0.00000E+00
 -1      2472 1.28535E+02 6.60425E+00 0.00000E+00
 -1      2473 1.33785E+02 5.30525E+00 0.00000E+00
 -1      2474 1.32285E+02 5.30525E+00 0.00000E+00
 -1      2475 1.31535E+02 6.60425E+00 0.00000E+00
 -1      2476 1.36785E+02 5.30525E+00 0.00000E+00
 -1      2477 1.35285E+02 5.30525E+00 0.00000E+00
 -1      2478 1.34535E+02 6.60425E+00 0.00000E+00
 -1      2479 1.39785E+02 5.30525E+00 0.00000E+00
 -1      2480 1.38285E+02 5.30525E+00 0.00000E+00
 -1      2481 1.37535E+02 6.60425E+00 0.00000E+00
 -1      2482 1.42785E+02 5.30525E+00 0.00000E+00
 -1      2483 1.41285E+02 5.30525E+00 0.00000E+00
 -1      2484 1.40535E+02 6.60425E+00 0.00000E+00
 -1      2485 1.44336E+02 5.26953E+00 0.00000E+00
 -1      2486 1.43505E+02 1.69125E+01 0.00000E+00
 -1      2487 1.43505E+02 1.54375E+01 0.00000E+00
 -1      2488 1.43505E+02 1.98625E+01 0.00000E+00
 -1      2489 1.43505E+02 1.83875E+01 0.00000E+00
 -1      2490 1.42206E+02 1.76500E+01 0.00000E+00
 -1      2491 1.43505E+02 1.10625E+01 0.00000E+00
 -1      2492 1.43505E+02 9.58750E+00 0.00000E+00
 -1      2493 1.43505E+02 1.39750E+01 0.00000E+00
 -1      2494 1.43505E+02 1.25250E+01 0.00000E+00
 -1      2495 1.42206E+02 1.17875E+01 0.00000E+00
 -1      2496 1.42206E+02 1.47125E+01 0.00000E+00
 -1      2497 1.43505E+02 2.28125E+01 0.00000E+00
 -1      2498 1.43505E+02 2.13375E+01 0.00000E+00
 -1      2499 1.42206E+02 2.06000E+01 0.00000E+00
 -1      2500 1.43505E+02 2.57625E+01 0.00000E+00
 -1      2501 1.43505E+02 2.42875E+01 0.00000E+00
 -1      2502 1.42206E+02 2.35500E+01 0.00000E+00
 -1      2503 1.43505E+02 2.87125E+01 0.00000E+00
 -1      2504 1.43505E+02 2.72375E+01 0.00000E+00
 -1      2505 1.42206E+02 2.65000E+01 0.00000E+00
 -1      2506 1.43505E+02 3.16125E+01 0.00000E+00
 -1      2507 1.43505E+02 3.01625E+01 0.00000E+00
 -1      2508 1.42206E+02 2.94250E+01 0.00000E+00
 -1      2509 1.43505E+02 3.45625E+01 0.00000E+00
 -1      2510 1.43505E+02 3.30875E+01 0.00000E+00
 -1      2511 1.42206E+02 3.23500E+01 0.00000E+00
 -1      2512 1.43505E+02 3.75125E+01 0.00000E+00
 -1      2513 1.43505E+02 3.60375E+01 0.00000E+00
 -1      2514 1.42206E+02 3.53000E+01 0.00000E+00
 -1      2515 1.43505E+02 4.04625E+01 0.00000E+00
 -1      2516 1.43505E+02 3.89875E+01 0.00000E+00
 -1      2517 1.42206E+02 3.82500E+01 0.00000E+00
 -1      2518 1.32873E+02 2.41260E+01 0.00000E+00
 -1      2519 1.33099E+02 2.51028E+01 0.00000E+00
 -1      2520 1.32504E+02 2.19456E+01 0.00000E+00
 -1      2521 1.32688E+02 2.30358E+01 0.00000E+00
 -1      2522 1.33718E+02 2.33123E+01 0.00000E+00
 -1      2523 1.32974E+02 2.65788E+01 0.00000E+00
 -1      2524 1.32677E+02 2.76857E+01 0.00000E+00
 -1      2525 1.67850E+01 5.30525E+00 0.00000E+00
 -1      2526 1.52850E+01 5.30525E+00 0.00000E+00
 -1      2527 1.75350E+01 6.60425E+00 0.00000E+00
 -1      2528 1.44321E+02 4.30606E+01 0.00000E+00
 -1      2529 1.31679E+02 2.00250E+01 0.00000E+00
 -1      2530 1.32127E+02 2.07681E+01 0.00000E+00
 -1      2531 6.55950E+00 4.28890E+01 0.00000E+00
 -1      2532 8.53650E+00 4.32410E+01 0.00000E+00
 -1      2533 9.28650E+00 4.19420E+01 0.00000E+00
 -1      2534 6.55950E+00 4.14140E+01 0.00000E+00
 -1      2535 1.28151E+02 1.71365E+01 0.00000E+00
 -1      2536 1.28878E+02 1.76831E+01 0.00000E+00
 -1      2537 1.13087E+02 3.00777E+01 0.00000E+00
 -1      2538 1.12655E+02 2.91953E+01 0.00000E+00
 -1      2539 6.49500E+00 2.71625E+01 0.00000E+00
 -1      2540 6.49500E+00 2.86375E+01 0.00000E+00
 -1      2541 7.79400E+00 2.93750E+01 0.00000E+00
 -1      2542 7.79400E+00 2.64250E+01 0.00000E+00
 -1      2543 1.17333E+02 1.65553E+01 0.00000E+00
 -1      2544 1.18217E+02 1.61161E+01 0.00000E+00
 -1      2545 1.21672E+02 1.54419E+01 0.00000E+00
 -1      2546 1.22547E+02 1.53989E+01 0.00000E+00
 -1      2547 1.17657E+02 3.51288E+01 0.00000E+00
 -1      2548 1.16565E+02 3.46381E+01 0.00000E+00
 -1      2549 1.19467E+02 1.58055E+01 0.00000E+00
 -1      2550 1.20584E+02 1.56122E+01 0.00000E+00
 -1      2551 1.15414E+02 1.79959E+01 0.00000E+00
 -1      2552 1.16224E+02 1.72363E+01 0.00000E+00
 -1      2553 1.14118E+02 1.98474E+01 0.00000E+00
 -1      2554 1.14726E+02 1.90188E+01 0.00000E+00
 -1      2555 1.13115E+02 2.16958E+01 0.00000E+00
 -1      2556 1.13532E+02 2.08228E+01 0.00000E+00
 -1      2557 1.12409E+02 2.35644E+01 0.00000E+00
 -1      2558 1.12688E+02 2.26700E+01 0.00000E+00
 -1      2559 1.12114E+02 2.59121E+01 0.00000E+00
 -1      2560 1.12166E+02 2.47806E+01 0.00000E+00
 -1      2561 1.12347E+02 2.80187E+01 0.00000E+00
 -1      2562 1.12233E+02 2.70795E+01 0.00000E+00
 -1      2563 1.13964E+02 3.16722E+01 0.00000E+00
 -1      2564 1.13526E+02 3.08749E+01 0.00000E+00
 -1      2565 1.12577E+02 3.07923E+01 0.00000E+00
 -1      2566 1.15358E+02 3.36629E+01 0.00000E+00
 -1      2567 1.14646E+02 3.26969E+01 0.00000E+00
 -1      2568 1.19743E+02 3.58592E+01 0.00000E+00
 -1      2569 1.18789E+02 3.56199E+01 0.00000E+00
 -1      2570 1.21591E+02 3.63628E+01 0.00000E+00
 -1      2571 1.20667E+02 3.61110E+01 0.00000E+00
 -1      2572 1.19981E+02 3.68232E+01 0.00000E+00
 -1      2573 1.24153E+02 3.63243E+01 0.00000E+00
 -1      2574 1.22994E+02 3.64960E+01 0.00000E+00
 -1      2575 1.26297E+02 3.57083E+01 0.00000E+00
 -1      2576 1.25320E+02 3.59902E+01 0.00000E+00
 -1      2577 1.28407E+02 3.43646E+01 0.00000E+00
 -1      2578 1.27467E+02 3.50367E+01 0.00000E+00
 -1      2579 1.30196E+02 3.29630E+01 0.00000E+00
 -1      2580 1.29341E+02 3.36548E+01 0.00000E+00
 -1      2581 1.31642E+02 3.08708E+01 0.00000E+00
 -1      2582 1.31123E+02 3.18823E+01 0.00000E+00
 -1      2583 1.32415E+02 2.86735E+01 0.00000E+00
 -1      2584 1.32153E+02 2.96613E+01 0.00000E+00
 -1      2585 1.33392E+02 2.83424E+01 0.00000E+00
 -1      2586 8.07525E+00 5.11044E+00 0.00000E+00
 -1      2587 6.57525E+00 5.11044E+00 0.00000E+00
 -1      2588 6.40575E+00 6.01981E+00 0.00000E+00
 -1      2589 8.82525E+00 6.40944E+00 0.00000E+00
 -1      2590 1.29877E+02 1.84167E+01 0.00000E+00
 -1      2591 1.30778E+02 1.92208E+01 0.00000E+00
 -1      2592 1.31880E+02 1.90629E+01 0.00000E+00
 -1      2593 1.18644E+02 1.52571E+01 0.00000E+00
 -1      2594 7.79400E+00 3.52687E+01 0.00000E+00
 -1      2595 6.49500E+00 3.60062E+01 0.00000E+00
 -1      2596 6.49500E+00 3.74750E+01 0.00000E+00
 -1      2597 1.45350E+01 6.60425E+00 0.00000E+00
 -1      2598 6.40575E+00 7.49481E+00 0.00000E+00
 -1      2599 1.29979E+02 1.75251E+01 0.00000E+00
 -1      2600 1.28056E+02 1.61850E+01 0.00000E+00
 -1      2601 1.32619E+02 3.05396E+01 0.00000E+00
 -1      2602 1.33157E+02 2.10445E+01 0.00000E+00
 -1      2603 1.31181E+02 3.28298E+01 0.00000E+00
 -1      2604 1.31240E+02 3.37773E+01 0.00000E+00
 -1      2605 1.32167E+02 3.26966E+01 0.00000E+00
 -1      2606 1.43586E+02 6.56853E+00 0.00000E+00
 -1      2607 1.43419E+02 7.72713E+00 0.00000E+00
 -1      2608 1.29321E+02 3.46203E+01 0.00000E+00
 -1      2609 1.33778E+02 2.58785E+01 0.00000E+00
 -1      2610 1.27217E+02 3.60016E+01 0.00000E+00
 -1      2611 7.70475E+00 8.23231E+00 0.00000E+00
 -1      2612 6.55950E+00 3.99453E+01 0.00000E+00
 -1      2613 1.22308E+02 3.72081E+01 0.00000E+00
 -1      2614 1.13697E+02 3.26142E+01 0.00000E+00
 -1      2615 1.11830E+02 2.88185E+01 0.00000E+00
 -1      2616 1.11403E+02 2.64745E+01 0.00000E+00
 -1      2617 1.11527E+02 2.40908E+01 0.00000E+00
 -1      2618 1.12197E+02 2.19004E+01 0.00000E+00
 -1      2619 1.13212E+02 1.99509E+01 0.00000E+00
 -1      2620 1.14487E+02 1.79526E+01 0.00000E+00
 -1      2621 1.17926E+02 3.60803E+01 0.00000E+00
 -1      2622 1.25797E+02 1.54536E+01 0.00000E+00
 -1      2623 1.26601E+02 1.49357E+01 0.00000E+00
 -1      2624 1.25266E+02 1.48108E+01 0.00000E+00
 -1      2625 1.23265E+02 1.49672E+01 0.00000E+00
 -1      2626 1.20981E+02 1.47761E+01 0.00000E+00
 -1      2627 1.15815E+02 3.55652E+01 0.00000E+00
 -1      2628 1.15586E+02 3.46141E+01 0.00000E+00
 -1      2629 1.14608E+02 3.45901E+01 0.00000E+00
 -1      2630 1.16284E+02 1.62487E+01 0.00000E+00
 -1      2631 1.42758E+02 4.35929E+01 0.00000E+00
 -1      2632 1.43241E+02 4.17323E+01 0.00000E+00
 -1      2633 1.41942E+02 4.09948E+01 0.00000E+00
 -1      2634 1.41414E+02 4.35342E+01 0.00000E+00
 -1      2635 1.24879E+02 3.70072E+01 0.00000E+00
 -1      2636 1.42120E+02 8.46463E+00 0.00000E+00
 -1      2637 1.40664E+02 4.22352E+01 0.00000E+00
 -1      2638 9.09300E+00 1.98250E+01 0.00000E+00
 -1      2639 9.09300E+00 2.12750E+01 0.00000E+00
 -1      2640 9.09300E+00 2.27500E+01 0.00000E+00
 -1      2641 9.09300E+00 2.42250E+01 0.00000E+00
 -1      2642 1.03920E+01 2.20250E+01 0.00000E+00
 -1      2643 9.09300E+00 1.39375E+01 0.00000E+00
 -1      2644 9.09300E+00 1.54125E+01 0.00000E+00
 -1      2645 9.09300E+00 1.09875E+01 0.00000E+00
 -1      2646 9.09300E+00 1.24625E+01 0.00000E+00
 -1      2647 1.03920E+01 1.32000E+01 0.00000E+00
 -1      2648 1.22850E+01 7.90325E+00 0.00000E+00
 -1      2649 1.07850E+01 7.90325E+00 0.00000E+00
 -1      2650 7.85850E+00 3.92077E+01 0.00000E+00
 -1      2651 1.52850E+01 7.90325E+00 0.00000E+00
 -1      2652 1.37850E+01 7.90325E+00 0.00000E+00
 -1      2653 1.30350E+01 9.20225E+00 0.00000E+00
 -1      2654 1.33587E+02 3.02360E+01 0.00000E+00
 -1      2655 1.33076E+02 3.14454E+01 0.00000E+00
 -1      2656 1.34432E+02 2.80899E+01 0.00000E+00
 -1      2657 1.34170E+02 2.90776E+01 0.00000E+00
 -1      2658 1.44000E+01 4.09070E+01 0.00000E+00
 -1      2659 1.59000E+01 4.09070E+01 0.00000E+00
 -1      2660 1.74000E+01 4.09070E+01 0.00000E+00
 -1      2661 1.89000E+01 4.09070E+01 0.00000E+00
 -1      2662 1.66500E+01 3.96080E+01 0.00000E+00
 -1      2663 2.04000E+01 4.09070E+01 0.00000E+00
 -1      2664 2.19000E+01 4.09070E+01 0.00000E+00
 -1      2665 1.96500E+01 3.96080E+01 0.00000E+00
 -1      2666 2.34000E+01 4.09070E+01 0.00000E+00
 -1      2667 2.49000E+01 4.09070E+01 0.00000E+00
 -1      2668 2.26500E+01 3.96080E+01 0.00000E+00
 -1      2669 2.64000E+01 4.09070E+01 0.00000E+00
 -1      2670 2.79000E+01 4.09070E+01 0.00000E+00
 -1      2671 2.56500E+01 3.96080E+01 0.00000E+00
 -1      2672 2.94000E+01 4.09070E+01 0.00000E+00
 -1      2673 3.09000E+01 4.09070E+01 0.00000E+00
 -1      2674 2.86500E+01 3.96080E+01 0.00000E+00
 -1      2675 3.24000E+01 4.09070E+01 0.00000E+00
 -1      2676 3.39000E+01 4.09070E+01 0.00000E+00
 -1      2677 3.16500E+01 3.96080E+01 0.00000E+00
 -1      2678 3.54000E+01 4.09070E+01 0.00000E+00
 -1      2679 3.69000E+01 4.09070E+01 0.00000E+00
 -1      2680 3.46500E+01 3.96080E+01 0.00000E+00
 -1      2681 3.84000E+01 4.09070E+01 0.00000E+00
 -1      2682 3.99000E+01 4.09070E+01 0.00000E+00
 -1      2683 3.76500E+01 3.96080E+01 0.00000E+00
 -1      2684 4.14000E+01 4.09070E+01 0.00000E+00
 -1      2685 4.29000E+01 4.09070E+01 0.00000E+00
 -1      2686 4.06500E+01 3.96080E+01 0.00000E+00
 -1      2687 4.44000E+01 4.09070E+01 0.00000E+00
 -1      2688 4.59000E+01 4.09070E+01 0.00000E+00
 -1      2689 4.36500E+01 3.96080E+01 0.00000E+00
 -1      2690 4.74000E+01 4.09070E+01 0.00000E+00
 -1      2691 4.89000E+01 4.09070E+01 0.00000E+00
 -1      2692 4.66500E+01 3.96080E+01 0.00000E+00
 -1      2693 5.04000E+01 4.09070E+01 0.00000E+00
 -1      2694 5.19000E+01 4.09070E+01 0.00000E+00
 -1      2695 4.96500E+01 3.96080E+01 0.00000E+00
 -1      2696 5.34000E+01 4.09070E+01 0.00000E+00
 -1      2697 5.49000E+01 4.09070E+01 0.00000E+00
 -1      2698 5.26500E+01 3.96080E+01 0.00000E+00
 -1      2699 5.64000E+01 4.09070E+01 0.00000E+00
 -1      2700 5.79000E+01 4.09070E+01 0.00000E+00
 -1      2701 5.56500E+01 3.96080E+01 0.00000E+00
 -1      2702 5.94000E+01 4.09070E+01 0.00000E+00
 -1      2703 6.09000E+01 4.09070E+01 0.00000E+00
 -1      2704 5.86500E+01 3.96080E+01 0.00000E+00
 -1      2705 6.24000E+01 4.09070E+01 0.00000E+00
 -1      2706 6.39000E+01 4.09070E+01 0.00000E+00
 -1      2707 6.16500E+01 3.96080E+01 0.00000E+00
 -1      2708 6.54000E+01 4.09070E+01 0.00000E+00
 -1      2709 6.69000E+01 4.09070E+01 0.00000E+00
 -1      2710 6.46500E+01 3.96080E+01 0.00000E+00
 -1      2711 6.84000E+01 4.09070E+01 0.00000E+00
 -1      2712 6.99000E+01 4.09070E+01 0.00000E+00
 -1      2713 6.76500E+01 3.96080E+01 0.00000E+00
 -1      2714 7.14000E+01 4.09070E+01 0.00000E+00
 -1      2715 7.29000E+01 4.09070E+01 0.00000E+00
 -1      2716 7.06500E+01 3.96080E+01 0.00000E+00
 -1      2717 7.44000E+01 4.09070E+01 0.00000E+00
 -1      2718 7.59000E+01 4.09070E+01 0.00000E+00
 -1      2719 7.36500E+01 3.96080E+01 0.00000E+00
 -1      2720 7.74000E+01 4.09070E+01 0.00000E+00
 -1      2721 7.89000E+01 4.09070E+01 0.00000E+00
 -1      2722 7.66500E+01 3.96080E+01 0.00000E+00
 -1      2723 8.04000E+01 4.09070E+01 0.00000E+00
 -1      2724 8.19000E+01 4.09070E+01 0.00000E+00
 -1      2725 7.96500E+01 3.96080E+01 0.00000E+00
 -1      2726 8.34000E+01 4.09070E+01 0.00000E+00
 -1      2727 8.49000E+01 4.09070E+01 0.00000E+00
 -1      2728 8.26500E+01 3.96080E+01 0.00000E+00
 -1      2729 8.64000E+01 4.09070E+01 0.00000E+00
 -1      2730 8.79000E+01 4.09070E+01 0.00000E+00
 -1      2731 8.56500E+01 3.96080E+01 0.00000E+00
 -1      2732 8.94000E+01 4.09070E+01 0.00000E+00
 -1      2733 9.09000E+01 4.09070E+01 0.00000E+00
 -1      2734 8.86500E+01 3.96080E+01 0.00000E+00
 -1      2735 9.24000E+01 4.09070E+01 0.00000E+00
 -1      2736 9.39000E+01 4.09070E+01 0.00000E+00
 -1      2737 9.16500E+01 3.96080E+01 0.00000E+00
 -1      2738 9.54000E+01 4.09070E+01 0.00000E+00
 -1      2739 9.69000E+01 4.09070E+01 0.00000E+00
 -1      2740 9.46500E+01 3.96080E+01 0.00000E+00
 -1      2741 9.84000E+01 4.09070E+01 0.00000E+00
 -1      2742 9.99000E+01 4.09070E+01 0.00000E+00
 -1      2743 9.76500E+01 3.96080E+01 0.00000E+00
 -1      2744 1.01400E+02 4.09070E+01 0.00000E+00
 -1      2745 1.02900E+02 4.09070E+01 0.00000E+00
 -1      2746 1.00650E+02 3.96080E+01 0.00000E+00
 -1      2747 1.04400E+02 4.09070E+01 0.00000E+00
 -1      2748 1.05900E+02 4.09070E+01 0.00000E+00
 -1      2749 1.03650E+02 3.96080E+01 0.00000E+00
 -1      2750 1.07400E+02 4.09070E+01 0.00000E+00
 -1      2751 1.08900E+02 4.09070E+01 0.00000E+00
 -1      2752 1.06650E+02 3.96080E+01 0.00000E+00
 -1      2753 1.10400E+02 4.09070E+01 0.00000E+00
 -1      2754 1.11900E+02 4.09070E+01 0.00000E+00
 -1      2755 1.09650E+02 3.96080E+01 0.00000E+00
 -1      2756 1.13400E+02 4.09070E+01 0.00000E+00
 -1      2757 1.14900E+02 4.09070E+01 0.00000E+00
 -1      2758 1.12650E+02 3.96080E+01 0.00000E+00
 -1      2759 1.16400E+02 4.09070E+01 0.00000E+00
 -1      2760 1.17900E+02 4.09070E+01 0.00000E+00
 -1      2761 1.15650E+02 3.96080E+01 0.00000E+00
 -1      2762 1.22400E+02 4.09295E+01 0.00000E+00
 -1      2763 1.23900E+02 4.09295E+01 0.00000E+00
 -1      2764 1.25400E+02 4.09295E+01 0.00000E+00
 -1      2765 1.26900E+02 4.09295E+01 0.00000E+00
 -1      2766 1.24650E+02 3.96530E+01 0.00000E+00
 -1      2767 1.28400E+02 4.09295E+01 0.00000E+00
 -1      2768 1.29900E+02 4.09295E+01 0.00000E+00
 -1      2769 1.27650E+02 3.96530E+01 0.00000E+00
 -1      2770 1.31400E+02 4.09295E+01 0.00000E+00
 -1      2771 1.32900E+02 4.09295E+01 0.00000E+00
 -1      2772 1.30650E+02 3.96530E+01 0.00000E+00
 -1      2773 1.34400E+02 4.09295E+01 0.00000E+00
 -1      2774 1.35900E+02 4.09295E+01 0.00000E+00
 -1      2775 1.33650E+02 3.96530E+01 0.00000E+00
 -1      2776 1.37400E+02 4.09295E+01 0.00000E+00
 -1      2777 1.38900E+02 4.09295E+01 0.00000E+00
 -1      2778 1.36650E+02 3.96530E+01 0.00000E+00
 -1      2779 2.42850E+01 7.90325E+00 0.00000E+00
 -1      2780 2.27850E+01 7.90325E+00 0.00000E+00
 -1      2781 2.12850E+01 7.90325E+00 0.00000E+00
 -1      2782 1.97850E+01 7.90325E+00 0.00000E+00
 -1      2783 2.20350E+01 9.20225E+00 0.00000E+00
 -1      2784 3.02850E+01 7.90325E+00 0.00000E+00
 -1      2785 2.87850E+01 7.90325E+00 0.00000E+00
 -1      2786 3.32850E+01 7.90325E+00 0.00000E+00
 -1      2787 3.17850E+01 7.90325E+00 0.00000E+00
 -1      2788 3.10350E+01 9.20225E+00 0.00000E+00
 -1      2789 3.62850E+01 7.90325E+00 0.00000E+00
 -1      2790 3.47850E+01 7.90325E+00 0.00000E+00
 -1      2791 3.40350E+01 9.20225E+00 0.00000E+00
 -1      2792 3.92850E+01 7.90325E+00 0.00000E+00
 -1      2793 3.77850E+01 7.90325E+00 0.00000E+00
 -1      2794 3.70350E+01 9.20225E+00 0.00000E+00
 -1      2795 4.22850E+01 7.90325E+00 0.00000E+00
 -1      2796 4.07850E+01 7.90325E+00 0.00000E+00
 -1      2797 4.00350E+01 9.20225E+00 0.00000E+00
 -1      2798 4.52850E+01 7.90325E+00 0.00000E+00
 -1      2799 4.37850E+01 7.90325E+00 0.00000E+00
 -1      2800 4.30350E+01 9.20225E+00 0.00000E+00
 -1      2801 4.82850E+01 7.90325E+00 0.00000E+00
 -1      2802 4.67850E+01 7.90325E+00 0.00000E+00
 -1      2803 4.60350E+01 9.20225E+00 0.00000E+00
 -1      2804 5.12850E+01 7.90325E+00 0.00000E+00
 -1      2805 4.97850E+01 7.90325E+00 0.00000E+00
 -1      2806 4.90350E+01 9.20225E+00 0.00000E+00
 -1      2807 5.42850E+01 7.90325E+00 0.00000E+00
 -1      2808 5.27850E+01 7.90325E+00 0.00000E+00
 -1      2809 5.20350E+01 9.20225E+00 0.00000E+00
 -1      2810 5.72850E+01 7.90325E+00 0.00000E+00
 -1      2811 5.57850E+01 7.90325E+00 0.00000E+00
 -1      2812 5.50350E+01 9.20225E+00 0.00000E+00
 -1      2813 6.02850E+01 7.90325E+00 0.00000E+00
 -1      2814 5.87850E+01 7.90325E+00 0.00000E+00
 -1      2815 5.80350E+01 9.20225E+00 0.00000E+00
 -1      2816 6.32850E+01 7.90325E+00 0.00000E+00
 -1      2817 6.17850E+01 7.90325E+00 0.00000E+00
 -1      2818 6.10350E+01 9.20225E+00 0.00000E+00
 -1      2819 6.62850E+01 7.90325E+00 0.00000E+00
 -1      2820 6.47850E+01 7.90325E+00 0.00000E+00
 -1      2821 6.40350E+01 9.20225E+00 0.00000E+00
 -1      2822 6.92850E+01 7.90325E+00 0.00000E+00
 -1      2823 6.77850E+01 7.90325E+00 0.00000E+00
 -1      2824 6.70350E+01 9.20225E+00 0.00000E+00
 -1      2825 7.22850E+01 7.90325E+00 0.00000E+00
 -1      2826 7.07850E+01 7.90325E+00 0.00000E+00
 -1      2827 7.00350E+01 9.20225E+00 0.00000E+00
 -1      2828 7.52850E+01 7.90325E+00 0.00000E+00
 -1      2829 7.37850E+01 7.90325E+00 0.00000E+00
 -1      2830 7.30350E+01 9.20225E+00 0.00000E+00
 -1      2831 7.82850E+01 7.90325E+00 0.00000E+00
 -1      2832 7.67850E+01 7.90325E+00 0.00000E+00
 -1      2833 7.60350E+01 9.20225E+00 0.00000E+00
 -1      2834 8.12850E+01 7.90325E+00 0.00000E+00
 -1      2835 7.97850E+01 7.90325E+00 0.00000E+00
 -1      2836 7.90350E+01 9.20225E+00 0.00000E+00
 -1      2837 8.42850E+01 7.90325E+00 0.00000E+00
 -1      2838 8.27850E+01 7.90325E+00 0.00000E+00
 -1      2839 8.20350E+01 9.20225E+00 0.00000E+00
 -1      2840 8.72850E+01 7.90325E+00 0.00000E+00
 -1      2841 8.57850E+01 7.90325E+00 0.00000E+00
 -1      2842 8.50350E+01 9.20225E+00 0.00000E+00
 -1      2843 9.02850E+01 7.90325E+00 0.00000E+00
 -1      2844 8.87850E+01 7.90325E+00 0.00000E+00
 -1      2845 8.80350E+01 9.20225E+00 0.00000E+00
 -1      2846 9.32850E+01 7.90325E+00 0.00000E+00
 -1      2847 9.17850E+01 7.90325E+00 0.00000E+00
 -1      2848 9.10350E+01 9.20225E+00 0.00000E+00
 -1      2849 9.62850E+01 7.90325E+00 0.00000E+00
 -1      2850 9.47850E+01 7.90325E+00 0.00000E+00
 -1      2851 9.40350E+01 9.20225E+00 0.00000E+00
 -1      2852 9.92850E+01 7.90325E+00 0.00000E+00
 -1      2853 9.77850E+01 7.90325E+00 0.00000E+00
 -1      2854 9.70350E+01 9.20225E+00 0.00000E+00
 -1      2855 1.02285E+02 7.90325E+00 0.00000E+00
 -1      2856 1.00785E+02 7.90325E+00 0.00000E+00
 -1      2857 1.00035E+02 9.20225E+00 0.00000E+00
 -1      2858 1.05285E+02 7.90325E+00 0.00000E+00
 -1      2859 1.03785E+02 7.90325E+00 0.00000E+00
 -1      2860 1.03035E+02 9.20225E+00 0.00000E+00
 -1      2861 1.08285E+02 7.90325E+00 0.00000E+00
 -1      2862 1.06785E+02 7.90325E+00 0.00000E+00
 -1      2863 1.06035E+02 9.20225E+00 0.00000E+00
 -1      2864 1.11285E+02 7.90325E+00 0.00000E+00
 -1      2865 1.09785E+02 7.90325E+00 0.00000E+00
 -1      2866 1.09035E+02 9.20225E+00 0.00000E+00
 -1      2867 1.14285E+02 7.90325E+00 0.00000E+00
 -1      2868 1.12785E+02 7.90325E+00 0.00000E+00
 -1      2869 1.12035E+02 9.20225E+00 0.00000E+00
 -1      2870 1.17285E+02 7.90325E+00 0.00000E+00
 -1      2871 1.15785E+02 7.90325E+00 0.00000E+00
 -1      2872 1.15035E+02 9.20225E+00 0.00000E+00
 -1      2873 1.20285E+02 7.90325E+00 0.00000E+00
 -1      2874 1.18785E+02 7.90325E+00 0.00000E+00
 -1      2875 1.18035E+02 9.20225E+00 0.00000E+00
 -1      2876 1.23285E+02 7.90325E+00 0.00000E+00
 -1      2877 1.21785E+02 7.90325E+00 0.00000E+00
 -1      2878 1.21035E+02 9.20225E+00 0.00000E+00
 -1      2879 1.26285E+02 7.90325E+00 0.00000E+00
 -1      2880 1.24785E+02 7.90325E+00 0.00000E+00
 -1      2881 1.24035E+02 9.20225E+00 0.00000E+00
 -1      2882 1.29285E+02 7.90325E+00 0.00000E+00
 -1      2883 1.27785E+02 7.90325E+00 0.00000E+00
 -1      2884 1.27035E+02 9.20225E+00 0.00000E+00
 -1      2885 1.32285E+02 7.90325E+00 0.00000E+00
 -1      2886 1.30785E+02 7.90325E+00 0.00000E+00
 -1      2887 1.30035E+02 9.20225E+00 0.00000E+00
 -1      2888 1.35285E+02 7.90325E+00 0.00000E+00
 -1      2889 1.33785E+02 7.90325E+00 0.00000E+00
 -1      2890 1.33035E+02 9.20225E+00 0.00000E+00
 -1      2891 1.38285E+02 7.90325E+00 0.00000E+00
 -1      2892 1.36785E+02 7.90325E+00 0.00000E+00
 -1      2893 1.36035E+02 9.20225E+00 0.00000E+00
 -1      2894 1.40953E+02 8.18394E+00 0.00000E+00
 -1      2895 1.39453E+02 8.18394E+00 0.00000E+00
 -1      2896 1.38703E+02 9.48294E+00 0.00000E+00
 -1      2897 1.41038E+02 1.00443E+01 0.00000E+00
 -1      2898 1.41013E+02 2.42875E+01 0.00000E+00
 -1      2899 1.41013E+02 2.28125E+01 0.00000E+00
 -1      2900 1.39914E+02 4.09475E+01 0.00000E+00
 -1      2901 1.40928E+02 4.09768E+01 0.00000E+00
 -1      2902 1.41192E+02 3.97070E+01 0.00000E+00
 -1      2903 1.39164E+02 3.96710E+01 0.00000E+00
 -1      2904 1.40907E+02 1.83875E+01 0.00000E+00
 -1      2905 1.40907E+02 1.69125E+01 0.00000E+00
 -1      2906 1.41013E+02 2.72375E+01 0.00000E+00
 -1      2907 1.41013E+02 2.57625E+01 0.00000E+00
 -1      2908 1.39821E+02 2.50250E+01 0.00000E+00
 -1      2909 1.40907E+02 2.13375E+01 0.00000E+00
 -1      2910 1.40907E+02 1.98625E+01 0.00000E+00
 -1      2911 1.39608E+02 1.91250E+01 0.00000E+00
 -1      2912 1.41013E+02 3.01375E+01 0.00000E+00
 -1      2913 1.41013E+02 2.86875E+01 0.00000E+00
 -1      2914 1.39821E+02 2.79500E+01 0.00000E+00
 -1      2915 1.41013E+02 3.30875E+01 0.00000E+00
 -1      2916 1.41013E+02 3.16125E+01 0.00000E+00
 -1      2917 1.39821E+02 3.08750E+01 0.00000E+00
 -1      2918 1.41013E+02 3.60375E+01 0.00000E+00
 -1      2919 1.41013E+02 3.45625E+01 0.00000E+00
 -1      2920 1.39821E+02 3.38250E+01 0.00000E+00
 -1      2921 1.41192E+02 3.82320E+01 0.00000E+00
 -1      2922 1.30086E+02 1.63318E+01 0.00000E+00
 -1      2923 1.31086E+02 1.70654E+01 0.00000E+00
 -1      2924 1.34472E+02 2.26240E+01 0.00000E+00
 -1      2925 1.34656E+02 2.37143E+01 0.00000E+00
 -1      2926 1.28229E+02 3.64096E+01 0.00000E+00
 -1      2927 1.27058E+02 3.70812E+01 0.00000E+00
 -1      2928 1.17792E+02 1.44989E+01 0.00000E+00
 -1      2929 1.19042E+02 1.41882E+01 0.00000E+00
 -1      2930 9.32250E+00 4.05749E+01 0.00000E+00
 -1      2931 1.06860E+01 4.08389E+01 0.00000E+00
 -1      2932 1.21860E+01 4.08389E+01 0.00000E+00
 -1      2933 9.25800E+00 3.81046E+01 0.00000E+00
 -1      2934 1.13324E+02 3.36015E+01 0.00000E+00
 -1      2935 1.12643E+02 3.25768E+01 0.00000E+00
 -1      2936 1.11155E+02 2.96241E+01 0.00000E+00
 -1      2937 1.10846E+02 2.84475E+01 0.00000E+00
 -1      2938 1.10651E+02 2.71411E+01 0.00000E+00
 -1      2939 1.10532E+02 2.59737E+01 0.00000E+00
 -1      2940 1.82850E+01 7.90325E+00 0.00000E+00
 -1      2941 1.67850E+01 7.90325E+00 0.00000E+00
 -1      2942 1.60350E+01 9.20225E+00 0.00000E+00
 -1      2943 1.90350E+01 9.20225E+00 0.00000E+00
 -1      2944 2.72850E+01 7.90325E+00 0.00000E+00
 -1      2945 2.57850E+01 7.90325E+00 0.00000E+00
 -1      2946 2.50350E+01 9.20225E+00 0.00000E+00
 -1      2947 2.80350E+01 9.20225E+00 0.00000E+00
 -1      2948 9.09300E+00 1.68813E+01 0.00000E+00
 -1      2949 9.09300E+00 1.83563E+01 0.00000E+00
 -1      2950 1.03920E+01 1.90812E+01 0.00000E+00
 -1      2951 1.03920E+01 1.61437E+01 0.00000E+00
 -1      2952 1.28238E+02 1.51188E+01 0.00000E+00
 -1      2953 1.29162E+02 1.57253E+01 0.00000E+00
 -1      2954 1.30269E+02 1.52655E+01 0.00000E+00
 -1      2955 1.22929E+02 3.81284E+01 0.00000E+00
 -1      2956 1.21525E+02 3.79953E+01 0.00000E+00
 -1      2957 9.09300E+00 3.15875E+01 0.00000E+00
 -1      2958 9.09300E+00 3.30625E+01 0.00000E+00
 -1      2959 1.22940E+02 1.38853E+01 0.00000E+00
 -1      2960 1.24136E+02 1.42468E+01 0.00000E+00
 -1      2961 1.20305E+02 1.40140E+01 0.00000E+00
 -1      2962 1.21393E+02 1.38437E+01 0.00000E+00
 -1      2963 1.18150E+02 3.71125E+01 0.00000E+00
 -1      2964 1.17018E+02 3.66214E+01 0.00000E+00
 -1      2965 1.13292E+02 1.78917E+01 0.00000E+00
 -1      2966 1.13980E+02 1.68687E+01 0.00000E+00
 -1      2967 1.12183E+02 1.99967E+01 0.00000E+00
 -1      2968 1.12770E+02 1.90213E+01 0.00000E+00
 -1      2969 1.11122E+02 2.20090E+01 0.00000E+00
 -1      2970 1.11549E+02 2.10349E+01 0.00000E+00
 -1      2971 1.10400E+02 2.44980E+01 0.00000E+00
 -1      2972 1.10643E+02 2.32817E+01 0.00000E+00
 -1      2973 1.12082E+02 3.15842E+01 0.00000E+00
 -1      2974 1.11643E+02 3.07869E+01 0.00000E+00
 -1      2975 1.15193E+02 1.57155E+01 0.00000E+00
 -1      2976 1.16303E+02 1.50346E+01 0.00000E+00
 -1      2977 1.31987E+02 1.78695E+01 0.00000E+00
 -1      2978 1.32887E+02 1.86737E+01 0.00000E+00
 -1      2979 1.32093E+02 1.66762E+01 0.00000E+00
 -1      2980 1.20195E+02 3.78573E+01 0.00000E+00
 -1      2981 1.19272E+02 3.76055E+01 0.00000E+00
 -1      2982 8.91450E+00 8.42712E+00 0.00000E+00
 -1      2983 1.34695E+02 2.52127E+01 0.00000E+00
 -1      2984 1.34570E+02 2.66887E+01 0.00000E+00
 -1      2985 1.30358E+02 3.50149E+01 0.00000E+00
 -1      2986 1.29423E+02 3.57247E+01 0.00000E+00
 -1      2987 1.33866E+02 2.01691E+01 0.00000E+00
 -1      2988 1.34242E+02 2.13467E+01 0.00000E+00
 -1      2989 9.09300E+00 3.45313E+01 0.00000E+00
 -1      2990 9.09300E+00 3.60000E+01 0.00000E+00
 -1      2991 1.03920E+01 3.37938E+01 0.00000E+00
 -1      2992 1.03920E+01 2.49750E+01 0.00000E+00
 -1      2993 9.09300E+00 2.57000E+01 0.00000E+00
 -1      2994 9.09300E+00 2.71750E+01 0.00000E+00
 -1      2995 1.34103E+02 3.20893E+01 0.00000E+00
 -1      2996 1.33135E+02 3.23930E+01 0.00000E+00
 -1      2997 1.33194E+02 3.33405E+01 0.00000E+00
 -1      2998 1.11709E+02 3.25715E+01 0.00000E+00
 -1      2999 1.34628E+02 2.99834E+01 0.00000E+00
 -1      3000 1.18318E+02 3.91238E+01 0.00000E+00
 -1      3001 1.19068E+02 4.04228E+01 0.00000E+00
 -1      3002 1.20568E+02 4.04228E+01 0.00000E+00
 -1      3003 1.39608E+02 1.61875E+01 0.00000E+00
 -1      3004 1.40907E+02 1.54500E+01 0.00000E+00
 -1      3005 1.40907E+02 1.39875E+01 0.00000E+00
 -1      3006 1.33972E+02 1.89758E+01 0.00000E+00
 -1      3007 1.35057E+02 1.92780E+01 0.00000E+00
 -1      3008 1.34079E+02 1.77825E+01 0.00000E+00
 -1      3009 1.31343E+02 3.48817E+01 0.00000E+00
 -1      3010 1.31445E+02 3.59861E+01 0.00000E+00
 -1      3011 1.32328E+02 3.47485E+01 0.00000E+00
 -1      3012 1.18364E+02 3.81466E+01 0.00000E+00
 -1      3013 1.39714E+02 2.20750E+01 0.00000E+00
 -1      3014 1.40973E+02 1.27472E+01 0.00000E+00
 -1      3015 1.40973E+02 1.12847E+01 0.00000E+00
 -1      3016 1.39805E+02 1.10040E+01 0.00000E+00
 -1      3017 1.39674E+02 1.34847E+01 0.00000E+00
 -1      3018 1.13999E+02 1.56546E+01 0.00000E+00
 -1      3019 1.39582E+02 3.85828E+01 0.00000E+00
 -1      3020 1.40596E+02 3.71258E+01 0.00000E+00
 -1      3021 1.39403E+02 3.63883E+01 0.00000E+00
 -1      3022 1.38568E+02 3.85648E+01 0.00000E+00
 -1      3023 1.35180E+02 2.17487E+01 0.00000E+00
 -1      3024 1.20816E+02 3.87776E+01 0.00000E+00
 -1      3025 1.35349E+02 2.74240E+01 0.00000E+00
 -1      3026 1.35448E+02 2.45245E+01 0.00000E+00
 -1      3027 1.26903E+02 3.78233E+01 0.00000E+00
 -1      3028 1.25891E+02 3.74152E+01 0.00000E+00
 -1      3029 1.24723E+02 3.77493E+01 0.00000E+00
 -1      3030 1.09648E+02 2.51646E+01 0.00000E+00
 -1      3031 1.19453E+02 1.32558E+01 0.00000E+00
 -1      3032 1.09995E+02 2.24162E+01 0.00000E+00
 -1      3033 1.11108E+02 2.01053E+01 0.00000E+00
 -1      3034 1.12264E+02 1.79375E+01 0.00000E+00
 -1      3035 1.29360E+01 3.95399E+01 0.00000E+00
 -1      3036 1.10659E+02 3.04160E+01 0.00000E+00
 -1      3037 1.09975E+02 2.79467E+01 0.00000E+00
 -1      3038 1.16701E+02 1.39657E+01 0.00000E+00
 -1      3039 1.29265E+02 3.68042E+01 0.00000E+00
 -1      3040 1.24940E+02 1.37289E+01 0.00000E+00
 -1      3041 9.09300E+00 2.86437E+01 0.00000E+00
 -1      3042 9.09300E+00 3.01187E+01 0.00000E+00
 -1      3043 1.03920E+01 3.08563E+01 0.00000E+00
 -1      3044 1.03920E+01 2.79188E+01 0.00000E+00
 -1      3045 1.13553E+02 3.45526E+01 0.00000E+00
 -1      3046 1.12498E+02 3.45152E+01 0.00000E+00
 -1      3047 1.13781E+02 3.55037E+01 0.00000E+00
 -1      3048 1.23431E+02 3.84972E+01 0.00000E+00
 -1      3049 1.22648E+02 3.92843E+01 0.00000E+00
 -1      3050 1.27707E+02 1.44760E+01 0.00000E+00
 -1      3051 1.28814E+02 1.40162E+01 0.00000E+00
 -1      3052 1.27176E+02 1.38332E+01 0.00000E+00
 -1      3053 9.66450E+00 9.72612E+00 0.00000E+00
 -1      3054 1.09635E+01 1.04636E+01 0.00000E+00
 -1      3055 1.24635E+01 1.04636E+01 0.00000E+00
 -1      3056 1.18920E+01 1.17250E+01 0.00000E+00
 -1      3057 1.39635E+01 1.04636E+01 0.00000E+00
 -1      3058 1.18920E+01 1.32000E+01 0.00000E+00
 -1      3059 1.17196E+02 3.86308E+01 0.00000E+00
 -1      3060 1.12628E+02 1.54276E+01 0.00000E+00
 -1      3061 1.13841E+02 1.42743E+01 0.00000E+00
 -1      3062 1.30415E+02 1.40353E+01 0.00000E+00
 -1      3063 1.31339E+02 1.46418E+01 0.00000E+00
 -1      3064 1.11169E+02 3.35308E+01 0.00000E+00
 -1      3065 1.10609E+02 3.25381E+01 0.00000E+00
 -1      3066 1.89000E+01 3.83090E+01 0.00000E+00
 -1      3067 2.04000E+01 3.83090E+01 0.00000E+00
 -1      3068 2.19000E+01 3.83090E+01 0.00000E+00
 -1      3069 2.34000E+01 3.83090E+01 0.00000E+00
 -1      3070 2.11500E+01 3.70100E+01 0.00000E+00
 -1      3071 2.49000E+01 3.83090E+01 0.00000E+00
 -1      3072 2.64000E+01 3.83090E+01 0.00000E+00
 -1      3073 2.41500E+01 3.70100E+01 0.00000E+00
 -1      3074 2.79000E+01 3.83090E+01 0.00000E+00
 -1      3075 2.94000E+01 3.83090E+01 0.00000E+00
 -1      3076 2.71500E+01 3.70100E+01 0.00000E+00
 -1      3077 3.09000E+01 3.83090E+01 0.00000E+00
 -1      3078 3.24000E+01 3.83090E+01 0.00000E+00
 -1      3079 3.01500E+01 3.70100E+01 0.00000E+00
 -1      3080 3.39000E+01 3.83090E+01 0.00000E+00
 -1      3081 3.54000E+01 3.83090E+01 0.00000E+00
 -1      3082 3.31500E+01 3.70100E+01 0.00000E+00
 -1      3083 3.69000E+01 3.83090E+01 0.00000E+00
 -1      3084 3.84000E+01 3.83090E+01 0.00000E+00
 -1      3085 3.61500E+01 3.70100E+01 0.00000E+00
 -1      3086 3.99000E+01 3.83090E+01 0.00000E+00
 -1      3087 4.14000E+01 3.83090E+01 0.00000E+00
 -1      3088 3.91500E+01 3.70100E+01 0.00000E+00
 -1      3089 4.29000E+01 3.83090E+01 0.00000E+00
 -1      3090 4.44000E+01 3.83090E+01 0.00000E+00
 -1      3091 4.21500E+01 3.70100E+01 0.00000E+00
 -1      3092 4.59000E+01 3.83090E+01 0.00000E+00
 -1      3093 4.74000E+01 3.83090E+01 0.00000E+00
 -1      3094 4.51500E+01 3.70100E+01 0.00000E+00
 -1      3095 4.89000E+01 3.83090E+01 0.00000E+00
 -1      3096 5.04000E+01 3.83090E+01 0.00000E+00
 -1      3097 4.81500E+01 3.70100E+01 0.00000E+00
 -1      3098 5.19000E+01 3.83090E+01 0.00000E+00
 -1      3099 5.34000E+01 3.83090E+01 0.00000E+00
 -1      3100 5.11500E+01 3.70100E+01 0.00000E+00
 -1      3101 5.49000E+01 3.83090E+01 0.00000E+00
 -1      3102 5.64000E+01 3.83090E+01 0.00000E+00
 -1      3103 5.41500E+01 3.70100E+01 0.00000E+00
 -1      3104 5.79000E+01 3.83090E+01 0.00000E+00
 -1      3105 5.94000E+01 3.83090E+01 0.00000E+00
 -1      3106 5.71500E+01 3.70100E+01 0.00000E+00
 -1      3107 6.09000E+01 3.83090E+01 0.00000E+00
 -1      3108 6.24000E+01 3.83090E+01 0.00000E+00
 -1      3109 6.01500E+01 3.70100E+01 0.00000E+00
 -1      3110 6.39000E+01 3.83090E+01 0.00000E+00
 -1      3111 6.54000E+01 3.83090E+01 0.00000E+00
 -1      3112 6.31500E+01 3.70100E+01 0.00000E+00
 -1      3113 6.69000E+01 3.83090E+01 0.00000E+00
 -1      3114 6.84000E+01 3.83090E+01 0.00000E+00
 -1      3115 6.61500E+01 3.70100E+01 0.00000E+00
 -1      3116 6.99000E+01 3.83090E+01 0.00000E+00
 -1      3117 7.14000E+01 3.83090E+01 0.00000E+00
 -1      3118 6.91500E+01 3.70100E+01 0.00000E+00
 -1      3119 7.29000E+01 3.83090E+01 0.00000E+00
 -1      3120 7.44000E+01 3.83090E+01 0.00000E+00
 -1      3121 7.21500E+01 3.70100E+01 0.00000E+00
 -1      3122 7.59000E+01 3.83090E+01 0.00000E+00
 -1      3123 7.74000E+01 3.83090E+01 0.00000E+00
 -1      3124 7.51500E+01 3.70100E+01 0.00000E+00
 -1      3125 7.89000E+01 3.83090E+01 0.00000E+00
 -1      3126 8.04000E+01 3.83090E+01 0.00000E+00
 -1      3127 7.81500E+01 3.70100E+01 0.00000E+00
 -1      3128 8.19000E+01 3.83090E+01 0.00000E+00
 -1      3129 8.34000E+01 3.83090E+01 0.00000E+00
 -1      3130 8.11500E+01 3.70100E+01 0.00000E+00
 -1      3131 8.49000E+01 3.83090E+01 0.00000E+00
 -1      3132 8.64000E+01 3.83090E+01 0.00000E+00
 -1      3133 8.41500E+01 3.70100E+01 0.00000E+00
 -1      3134 8.79000E+01 3.83090E+01 0.00000E+00
 -1      3135 8.94000E+01 3.83090E+01 0.00000E+00
 -1      3136 8.71500E+01 3.70100E+01 0.00000E+00
 -1      3137 9.09000E+01 3.83090E+01 0.00000E+00
 -1      3138 9.24000E+01 3.83090E+01 0.00000E+00
 -1      3139 9.01500E+01 3.70100E+01 0.00000E+00
 -1      3140 9.39000E+01 3.83090E+01 0.00000E+00
 -1      3141 9.54000E+01 3.83090E+01 0.00000E+00
 -1      3142 9.31500E+01 3.70100E+01 0.00000E+00
 -1      3143 9.69000E+01 3.83090E+01 0.00000E+00
 -1      3144 9.84000E+01 3.83090E+01 0.00000E+00
 -1      3145 9.61500E+01 3.70100E+01 0.00000E+00
 -1      3146 9.99000E+01 3.83090E+01 0.00000E+00
 -1      3147 1.01400E+02 3.83090E+01 0.00000E+00
 -1      3148 9.91500E+01 3.70100E+01 0.00000E+00
 -1      3149 1.02900E+02 3.83090E+01 0.00000E+00
 -1      3150 1.04400E+02 3.83090E+01 0.00000E+00
 -1      3151 1.02150E+02 3.70100E+01 0.00000E+00
 -1      3152 1.05900E+02 3.83090E+01 0.00000E+00
 -1      3153 1.07400E+02 3.83090E+01 0.00000E+00
 -1      3154 1.05150E+02 3.70100E+01 0.00000E+00
 -1      3155 1.08900E+02 3.83090E+01 0.00000E+00
 -1      3156 1.10400E+02 3.83090E+01 0.00000E+00
 -1      3157 1.08150E+02 3.70100E+01 0.00000E+00
 -1      3158 1.11938E+02 3.75372E+01 0.00000E+00
 -1      3159 1.13438E+02 3.75372E+01 0.00000E+00
 -1      3160 1.15696E+02 3.86308E+01 0.00000E+00
 -1      3161 1.30790E+02 3.77530E+01 0.00000E+00
 -1      3162 1.32290E+02 3.77530E+01 0.00000E+00
 -1      3163 1.33790E+02 3.77530E+01 0.00000E+00
 -1      3164 1.35429E+02 3.81589E+01 0.00000E+00
 -1      3165 1.36929E+02 3.81589E+01 0.00000E+00
 -1      3166 1.37347E+02 3.70706E+01 0.00000E+00
 -1      3167 1.34069E+02 3.62588E+01 0.00000E+00
 -1      3168 1.08776E+02 2.59862E+01 0.00000E+00
 -1      3169 1.08644E+02 2.45105E+01 0.00000E+00
 -1      3170 3.47850E+01 1.05013E+01 0.00000E+00
 -1      3171 3.32850E+01 1.05013E+01 0.00000E+00
 -1      3172 3.17850E+01 1.05013E+01 0.00000E+00
 -1      3173 3.02850E+01 1.05013E+01 0.00000E+00
 -1      3174 3.25350E+01 1.18003E+01 0.00000E+00
 -1      3175 4.07850E+01 1.05013E+01 0.00000E+00
 -1      3176 3.92850E+01 1.05013E+01 0.00000E+00
 -1      3177 4.37850E+01 1.05013E+01 0.00000E+00
 -1      3178 4.22850E+01 1.05013E+01 0.00000E+00
 -1      3179 4.15350E+01 1.18003E+01 0.00000E+00
 -1      3180 4.67850E+01 1.05013E+01 0.00000E+00
 -1      3181 4.52850E+01 1.05013E+01 0.00000E+00
 -1      3182 4.45350E+01 1.18003E+01 0.00000E+00
 -1      3183 4.97850E+01 1.05013E+01 0.00000E+00
 -1      3184 4.82850E+01 1.05013E+01 0.00000E+00
 -1      3185 4.75350E+01 1.18003E+01 0.00000E+00
 -1      3186 5.27850E+01 1.05013E+01 0.00000E+00
 -1      3187 5.12850E+01 1.05013E+01 0.00000E+00
 -1      3188 5.05350E+01 1.18003E+01 0.00000E+00
 -1      3189 5.57850E+01 1.05013E+01 0.00000E+00
 -1      3190 5.42850E+01 1.05013E+01 0.00000E+00
 -1      3191 5.35350E+01 1.18003E+01 0.00000E+00
 -1      3192 5.87850E+01 1.05013E+01 0.00000E+00
 -1      3193 5.72850E+01 1.05013E+01 0.00000E+00
 -1      3194 5.65350E+01 1.18003E+01 0.00000E+00
 -1      3195 6.17850E+01 1.05013E+01 0.00000E+00
 -1      3196 6.02850E+01 1.05013E+01 0.00000E+00
 -1      3197 5.95350E+01 1.18003E+01 0.00000E+00
 -1      3198 6.47850E+01 1.05013E+01 0.00000E+00
 -1      3199 6.32850E+01 1.05013E+01 0.00000E+00
 -1      3200 6.25350E+01 1.18003E+01 0.00000E+00
 -1      3201 6.77850E+01 1.05013E+01 0.00000E+00
 -1      3202 6.62850E+01 1.05013E+01 0.00000E+00
 -1      3203 6.55350E+01 1.18003E+01 0.00000E+00
 -1      3204 7.07850E+01 1.05013E+01 0.00000E+00
 -1      3205 6.92850E+01 1.05013E+01 0.00000E+00
 -1      3206 6.85350E+01 1.18003E+01 0.00000E+00
 -1      3207 7.37850E+01 1.05013E+01 0.00000E+00
 -1      3208 7.22850E+01 1.05013E+01 0.00000E+00
 -1      3209 7.15350E+01 1.18003E+01 0.00000E+00
 -1      3210 7.67850E+01 1.05013E+01 0.00000E+00
 -1      3211 7.52850E+01 1.05013E+01 0.00000E+00
 -1      3212 7.45350E+01 1.18003E+01 0.00000E+00
 -1      3213 7.97850E+01 1.05013E+01 0.00000E+00
 -1      3214 7.82850E+01 1.05013E+01 0.00000E+00
 -1      3215 7.75350E+01 1.18003E+01 0.00000E+00
 -1      3216 8.27850E+01 1.05013E+01 0.00000E+00
 -1      3217 8.12850E+01 1.05013E+01 0.00000E+00
 -1      3218 8.05350E+01 1.18003E+01 0.00000E+00
 -1      3219 8.57850E+01 1.05013E+01 0.00000E+00
 -1      3220 8.42850E+01 1.05013E+01 0.00000E+00
 -1      3221 8.35350E+01 1.18003E+01 0.00000E+00
 -1      3222 8.87850E+01 1.05013E+01 0.00000E+00
 -1      3223 8.72850E+01 1.05013E+01 0.00000E+00
 -1      3224 8.65350E+01 1.18003E+01 0.00000E+00
 -1      3225 9.17850E+01 1.05013E+01 0.00000E+00
 -1      3226 9.02850E+01 1.05013E+01 0.00000E+00
 -1      3227 8.95350E+01 1.18003E+01 0.00000E+00
 -1      3228 9.47850E+01 1.05013E+01 0.00000E+00
 -1      3229 9.32850E+01 1.05013E+01 0.00000E+00
 -1      3230 9.25350E+01 1.18003E+01 0.00000E+00
 -1      3231 9.77850E+01 1.05013E+01 0.00000E+00
 -1      3232 9.62850E+01 1.05013E+01 0.00000E+00
 -1      3233 9.55350E+01 1.18003E+01 0.00000E+00
 -1      3234 1.00785E+02 1.05013E+01 0.00000E+00
 -1      3235 9.92850E+01 1.05013E+01 0.00000E+00
 -1      3236 9.85350E+01 1.18003E+01 0.00000E+00
 -1      3237 1.03785E+02 1.05013E+01 0.00000E+00
 -1      3238 1.02285E+02 1.05013E+01 0.00000E+00
 -1      3239 1.01535E+02 1.18003E+01 0.00000E+00
 -1      3240 1.06785E+02 1.05013E+01 0.00000E+00
 -1      3241 1.05285E+02 1.05013E+01 0.00000E+00
 -1      3242 1.04535E+02 1.18003E+01 0.00000E+00
 -1      3243 1.09785E+02 1.05013E+01 0.00000E+00
 -1      3244 1.08285E+02 1.05013E+01 0.00000E+00
 -1      3245 1.07535E+02 1.18003E+01 0.00000E+00
 -1      3246 1.13003E+02 1.16248E+01 0.00000E+00
 -1      3247 1.11503E+02 1.16248E+01 0.00000E+00
 -1      3248 1.18862E+02 1.13161E+01 0.00000E+00
 -1      3249 1.17362E+02 1.13161E+01 0.00000E+00
 -1      3250 1.21626E+02 1.11419E+01 0.00000E+00
 -1      3251 1.20126E+02 1.11419E+01 0.00000E+00
 -1      3252 1.24673E+02 1.11836E+01 0.00000E+00
 -1      3253 1.23173E+02 1.11836E+01 0.00000E+00
 -1      3254 1.28409E+02 1.12878E+01 0.00000E+00
 -1      3255 1.26909E+02 1.12878E+01 0.00000E+00
 -1      3256 1.31510E+02 1.13069E+01 0.00000E+00
 -1      3257 1.30010E+02 1.13069E+01 0.00000E+00
 -1      3258 1.34510E+02 1.13069E+01 0.00000E+00
 -1      3259 1.33010E+02 1.13069E+01 0.00000E+00
 -1      3260 1.32986E+02 1.34116E+01 0.00000E+00
 -1      3261 1.37357E+02 1.03949E+01 0.00000E+00
 -1      3262 1.35857E+02 1.03949E+01 0.00000E+00
 -1      3263 1.35832E+02 1.24996E+01 0.00000E+00
 -1      3264 1.38524E+02 1.06756E+01 0.00000E+00
 -1      3265 1.38332E+02 1.98625E+01 0.00000E+00
 -1      3266 1.38332E+02 1.83875E+01 0.00000E+00
 -1      3267 1.16910E+01 2.12875E+01 0.00000E+00
 -1      3268 1.16910E+01 2.27625E+01 0.00000E+00
 -1      3269 1.38522E+02 3.16125E+01 0.00000E+00
 -1      3270 1.38522E+02 3.01375E+01 0.00000E+00
 -1      3271 1.37654E+02 2.62614E+01 0.00000E+00
 -1      3272 1.37654E+02 2.47864E+01 0.00000E+00
 -1      3273 1.38522E+02 3.45625E+01 0.00000E+00
 -1      3274 1.38522E+02 3.30875E+01 0.00000E+00
 -1      3275 1.37223E+02 3.23500E+01 0.00000E+00
 -1      3276 1.32258E+02 1.58101E+01 0.00000E+00
 -1      3277 1.33159E+02 1.66142E+01 0.00000E+00
 -1      3278 1.34244E+02 1.69164E+01 0.00000E+00
 -1      3279 1.32405E+02 1.45799E+01 0.00000E+00
 -1      3280 1.36217E+02 2.98501E+01 0.00000E+00
 -1      3281 1.35633E+02 3.10084E+01 0.00000E+00
 -1      3282 1.37615E+02 2.32880E+01 0.00000E+00
 -1      3283 1.37509E+02 2.18130E+01 0.00000E+00
 -1      3284 1.05570E+01 3.73671E+01 0.00000E+00
 -1      3285 3.77850E+01 1.05013E+01 0.00000E+00
 -1      3286 3.62850E+01 1.05013E+01 0.00000E+00
 -1      3287 3.55350E+01 1.18003E+01 0.00000E+00
 -1      3288 3.85350E+01 1.18003E+01 0.00000E+00
 -1      3289 1.08953E+02 2.27506E+01 0.00000E+00
 -1      3290 1.09432E+02 2.14779E+01 0.00000E+00
 -1      3291 1.21958E+02 1.35849E+01 0.00000E+00
 -1      3292 1.22828E+02 1.28645E+01 0.00000E+00
 -1      3293 1.24931E+02 3.84972E+01 0.00000E+00
 -1      3294 2.27850E+01 1.05013E+01 0.00000E+00
 -1      3295 2.12850E+01 1.05013E+01 0.00000E+00
 -1      3296 1.16283E+02 3.64345E+01 0.00000E+00
 -1      3297 1.15305E+02 3.64105E+01 0.00000E+00
 -1      3298 1.21281E+02 1.28228E+01 0.00000E+00
 -1      3299 1.16508E+02 3.74667E+01 0.00000E+00
 -1      3300 1.59000E+01 3.83090E+01 0.00000E+00
 -1      3301 1.74000E+01 3.83090E+01 0.00000E+00
 -1      3302 1.81500E+01 3.70100E+01 0.00000E+00
 -1      3303 1.21215E+01 3.78040E+01 0.00000E+00
 -1      3304 1.43355E+01 3.78721E+01 0.00000E+00
 -1      3305 1.50855E+01 3.65731E+01 0.00000E+00
 -1      3306 1.19565E+01 3.56994E+01 0.00000E+00
 -1      3307 1.10996E+02 1.80372E+01 0.00000E+00
 -1      3308 1.11518E+02 1.69076E+01 0.00000E+00
 -1      3309 1.09728E+02 2.01136E+01 0.00000E+00
 -1      3310 1.10362E+02 1.90754E+01 0.00000E+00
 -1      3311 1.09616E+02 1.80455E+01 0.00000E+00
 -1      3312 1.09167E+02 2.85990E+01 0.00000E+00
 -1      3313 1.08972E+02 2.72926E+01 0.00000E+00
 -1      3314 1.07968E+02 2.66386E+01 0.00000E+00
 -1      3315 1.09881E+02 3.14269E+01 0.00000E+00
 -1      3316 1.09393E+02 3.02640E+01 0.00000E+00
 -1      3317 1.16910E+01 2.42375E+01 0.00000E+00
 -1      3318 1.16910E+01 2.57125E+01 0.00000E+00
 -1      3319 1.29900E+01 2.35000E+01 0.00000E+00
 -1      3320 2.87850E+01 1.05013E+01 0.00000E+00
 -1      3321 2.72850E+01 1.05013E+01 0.00000E+00
 -1      3322 2.95350E+01 1.18003E+01 0.00000E+00
 -1      3323 1.11360E+02 1.55273E+01 0.00000E+00
 -1      3324 1.35633E+02 3.24834E+01 0.00000E+00
 -1      3325 1.09342E+02 3.23862E+01 0.00000E+00
 -1      3326 1.21898E+02 4.05608E+01 0.00000E+00
 -1      3327 1.19565E+01 3.27619E+01 0.00000E+00
 -1      3328 1.19565E+01 3.42306E+01 0.00000E+00
 -1      3329 1.35210E+01 3.46675E+01 0.00000E+00
 -1      3330 1.11188E+02 3.62382E+01 0.00000E+00
 -1      3331 1.16910E+01 1.83500E+01 0.00000E+00
 -1      3332 1.16910E+01 1.98188E+01 0.00000E+00
 -1      3333 1.29900E+01 2.05562E+01 0.00000E+00
 -1      3334 1.27110E+02 3.85711E+01 0.00000E+00
 -1      3335 1.28610E+02 3.85711E+01 0.00000E+00
 -1      3336 1.07209E+02 2.43939E+01 0.00000E+00
 -1      3337 1.08081E+02 2.35722E+01 0.00000E+00
 -1      3338 1.07518E+02 2.26339E+01 0.00000E+00
 -1      3339 1.16910E+01 1.54125E+01 0.00000E+00
 -1      3340 1.16910E+01 1.68813E+01 0.00000E+00
 -1      3341 1.29900E+01 1.76187E+01 0.00000E+00
 -1      3342 2.57850E+01 1.05013E+01 0.00000E+00
 -1      3343 2.42850E+01 1.05013E+01 0.00000E+00
 -1      3344 2.65350E+01 1.18003E+01 0.00000E+00
 -1      3345 1.08686E+02 2.04480E+01 0.00000E+00
 -1      3346 1.33580E+02 3.42475E+01 0.00000E+00
 -1      3347 1.33683E+02 3.53519E+01 0.00000E+00
 -1      3348 1.35321E+02 3.57578E+01 0.00000E+00
 -1      3349 1.34549E+02 3.39438E+01 0.00000E+00
 -1      3350 1.10753E+02 1.29238E+01 0.00000E+00
 -1      3351 1.16665E+02 1.28077E+01 0.00000E+00
 -1      3352 1.15838E+02 1.06939E+01 0.00000E+00
 -1      3353 1.14338E+02 1.06939E+01 0.00000E+00
 -1      3354 1.38459E+02 1.19160E+01 0.00000E+00
 -1      3355 1.37279E+02 2.05357E+01 0.00000E+00
 -1      3356 1.13806E+02 1.31164E+01 0.00000E+00
 -1      3357 1.15176E+02 1.33434E+01 0.00000E+00
 -1      3358 1.08389E+02 2.96099E+01 0.00000E+00
 -1      3359 1.38104E+02 3.56508E+01 0.00000E+00
 -1      3360 1.38607E+02 2.75662E+01 0.00000E+00
 -1      3361 1.36440E+02 2.73277E+01 0.00000E+00
 -1      3362 1.25802E+02 1.17476E+01 0.00000E+00
 -1      3363 1.97850E+01 1.05013E+01 0.00000E+00
 -1      3364 1.82850E+01 1.05013E+01 0.00000E+00
 -1      3365 2.05350E+01 1.18003E+01 0.00000E+00
 -1      3366 1.68743E+01 1.04824E+01 0.00000E+00
 -1      3367 1.53743E+01 1.04824E+01 0.00000E+00
 -1      3368 1.48027E+01 1.17438E+01 0.00000E+00
 -1      3369 1.76243E+01 1.17814E+01 0.00000E+00
 -1      3370 1.31910E+01 1.39375E+01 0.00000E+00
 -1      3371 2.35350E+01 1.18003E+01 0.00000E+00
 -1      3372 1.19565E+01 2.98244E+01 0.00000E+00
 -1      3373 1.19565E+01 3.12931E+01 0.00000E+00
 -1      3374 1.35210E+01 3.17300E+01 0.00000E+00
 -1      3375 1.38607E+02 2.90162E+01 0.00000E+00
 -1      3376 1.29805E+02 3.78862E+01 0.00000E+00
 -1      3377 1.36302E+02 2.87288E+01 0.00000E+00
 -1      3378 1.37308E+02 2.97537E+01 0.00000E+00
 -1      3379 1.11398E+02 3.44819E+01 0.00000E+00
 -1      3380 1.29884E+02 1.33925E+01 0.00000E+00
 -1      3381 1.14493E+02 3.75746E+01 0.00000E+00
 -1      3382 2.34000E+01 3.57110E+01 0.00000E+00
 -1      3383 2.49000E+01 3.57110E+01 0.00000E+00
 -1      3384 2.64000E+01 3.57110E+01 0.00000E+00
 -1      3385 2.79000E+01 3.57110E+01 0.00000E+00
 -1      3386 2.56500E+01 3.44120E+01 0.00000E+00
 -1      3387 2.94000E+01 3.57110E+01 0.00000E+00
 -1      3388 3.09000E+01 3.57110E+01 0.00000E+00
 -1      3389 2.86500E+01 3.44120E+01 0.00000E+00
 -1      3390 3.24000E+01 3.57110E+01 0.00000E+00
 -1      3391 3.39000E+01 3.57110E+01 0.00000E+00
 -1      3392 3.16500E+01 3.44120E+01 0.00000E+00
 -1      3393 3.54000E+01 3.57110E+01 0.00000E+00
 -1      3394 3.69000E+01 3.57110E+01 0.00000E+00
 -1      3395 3.46500E+01 3.44120E+01 0.00000E+00
 -1      3396 3.84000E+01 3.57110E+01 0.00000E+00
 -1      3397 3.99000E+01 3.57110E+01 0.00000E+00
 -1      3398 3.76500E+01 3.44120E+01 0.00000E+00
 -1      3399 4.14000E+01 3.57110E+01 0.00000E+00
 -1      3400 4.29000E+01 3.57110E+01 0.00000E+00
 -1      3401 4.06500E+01 3.44120E+01 0.00000E+00
 -1      3402 4.44000E+01 3.57110E+01 0.00000E+00
 -1      3403 4.59000E+01 3.57110E+01 0.00000E+00
 -1      3404 4.36500E+01 3.44120E+01 0.00000E+00
 -1      3405 4.74000E+01 3.57110E+01 0.00000E+00
 -1      3406 4.89000E+01 3.57110E+01 0.00000E+00
 -1      3407 4.66500E+01 3.44120E+01 0.00000E+00
 -1      3408 5.04000E+01 3.57110E+01 0.00000E+00
 -1      3409 5.19000E+01 3.57110E+01 0.00000E+00
 -1      3410 4.96500E+01 3.44120E+01 0.00000E+00
 -1      3411 5.34000E+01 3.57110E+01 0.00000E+00
 -1      3412 5.49000E+01 3.57110E+01 0.00000E+00
 -1      3413 5.26500E+01 3.44120E+01 0.00000E+00
 -1      3414 5.64000E+01 3.57110E+01 0.00000E+00
 -1      3415 5.79000E+01 3.57110E+01 0.00000E+00
 -1      3416 5.56500E+01 3.44120E+01 0.00000E+00
 -1      3417 5.94000E+01 3.57110E+01 0.00000E+00
 -1      3418 6.09000E+01 3.57110E+01 0.00000E+00
 -1      3419 5.86500E+01 3.44120E+01 0.00000E+00
 -1      3420 6.24000E+01 3.57110E+01 0.00000E+00
 -1      3421 6.39000E+01 3.57110E+01 0.00000E+00
 -1      3422 6.16500E+01 3.44120E+01 0.00000E+00
 -1      3423 6.54000E+01 3.57110E+01 0.00000E+00
 -1      3424 6.69000E+01 3.57110E+01 0.00000E+00
 -1      3425 6.46500E+01 3.44120E+01 0.00000E+00
 -1      3426 6.84000E+01 3.57110E+01 0.00000E+00
 -1      3427 6.99000E+01 3.57110E+01 0.00000E+00
 -1      3428 6.76500E+01 3.44120E+01 0.00000E+00
 -1      3429 7.14000E+01 3.57110E+01 0.00000E+00
 -1      3430 7.29000E+01 3.57110E+01 0.00000E+00
 -1      3431 7.06500E+01 3.44120E+01 0.00000E+00
 -1      3432 7.44000E+01 3.57110E+01 0.00000E+00
 -1      3433 7.59000E+01 3.57110E+01 0.00000E+00
 -1      3434 7.36500E+01 3.44120E+01 0.00000E+00
 -1      3435 7.74000E+01 3.57110E+01 0.00000E+00
 -1      3436 7.89000E+01 3.57110E+01 0.00000E+00
 -1      3437 7.66500E+01 3.44120E+01 0.00000E+00
 -1      3438 8.04000E+01 3.57110E+01 0.00000E+00
 -1      3439 8.19000E+01 3.57110E+01 0.00000E+00
 -1      3440 7.96500E+01 3.44120E+01 0.00000E+00
 -1      3441 8.34000E+01 3.57110E+01 0.00000E+00
 -1      3442 8.49000E+01 3.57110E+01 0.00000E+00
 -1      3443 8.26500E+01 3.44120E+01 0.00000E+00
 -1      3444 8.64000E+01 3.57110E+01 0.00000E+00
 -1      3445 8.79000E+01 3.57110E+01 0.00000E+00
 -1      3446 8.56500E+01 3.44120E+01 0.00000E+00
 -1      3447 8.94000E+01 3.57110E+01 0.00000E+00
 -1      3448 9.09000E+01 3.57110E+01 0.00000E+00
 -1      3449 8.86500E+01 3.44120E+01 0.00000E+00
 -1      3450 9.24000E+01 3.57110E+01 0.00000E+00
 -1      3451 9.39000E+01 3.57110E+01 0.00000E+00
 -1      3452 9.16500E+01 3.44120E+01 0.00000E+00
 -1      3453 9.54000E+01 3.57110E+01 0.00000E+00
 -1      3454 9.69000E+01 3.57110E+01 0.00000E+00
 -1      3455 9.46500E+01 3.44120E+01 0.00000E+00
 -1      3456 9.84000E+01 3.57110E+01 0.00000E+00
 -1      3457 9.99000E+01 3.57110E+01 0.00000E+00
 -1      3458 9.76500E+01 3.44120E+01 0.00000E+00
 -1      3459 1.01400E+02 3.57110E+01 0.00000E+00
 -1      3460 1.02900E+02 3.57110E+01 0.00000E+00
 -1      3461 1.00650E+02 3.44120E+01 0.00000E+00
 -1      3462 1.04400E+02 3.57110E+01 0.00000E+00
 -1      3463 1.05900E+02 3.57110E+01 0.00000E+00
 -1      3464 1.03650E+02 3.44120E+01 0.00000E+00
 -1      3465 1.14961E+02 3.84439E+01 0.00000E+00
 -1      3466 1.38309E+02 1.69188E+01 0.00000E+00
 -1      3467 1.38309E+02 1.54563E+01 0.00000E+00
 -1      3468 2.42850E+01 1.30992E+01 0.00000E+00
 -1      3469 2.27850E+01 1.30992E+01 0.00000E+00
 -1      3470 1.09643E+02 1.44037E+01 0.00000E+00
 -1      3471 4.52850E+01 1.30992E+01 0.00000E+00
 -1      3472 4.37850E+01 1.30992E+01 0.00000E+00
 -1      3473 4.22850E+01 1.30992E+01 0.00000E+00
 -1      3474 4.07850E+01 1.30992E+01 0.00000E+00
 -1      3475 4.30350E+01 1.43982E+01 0.00000E+00
 -1      3476 5.12850E+01 1.30992E+01 0.00000E+00
 -1      3477 4.97850E+01 1.30992E+01 0.00000E+00
 -1      3478 5.42850E+01 1.30992E+01 0.00000E+00
 -1      3479 5.27850E+01 1.30992E+01 0.00000E+00
 -1      3480 5.20350E+01 1.43982E+01 0.00000E+00
 -1      3481 5.72850E+01 1.30992E+01 0.00000E+00
 -1      3482 5.57850E+01 1.30992E+01 0.00000E+00
 -1      3483 5.50350E+01 1.43982E+01 0.00000E+00
 -1      3484 6.02850E+01 1.30992E+01 0.00000E+00
 -1      3485 5.87850E+01 1.30992E+01 0.00000E+00
 -1      3486 5.80350E+01 1.43982E+01 0.00000E+00
 -1      3487 6.32850E+01 1.30992E+01 0.00000E+00
 -1      3488 6.17850E+01 1.30992E+01 0.00000E+00
 -1      3489 6.10350E+01 1.43982E+01 0.00000E+00
 -1      3490 6.62850E+01 1.30992E+01 0.00000E+00
 -1      3491 6.47850E+01 1.30992E+01 0.00000E+00
 -1      3492 6.40350E+01 1.43982E+01 0.00000E+00
 -1      3493 6.92850E+01 1.30992E+01 0.00000E+00
 -1      3494 6.77850E+01 1.30992E+01 0.00000E+00
 -1      3495 6.70350E+01 1.43982E+01 0.00000E+00
 -1      3496 7.22850E+01 1.30992E+01 0.00000E+00
 -1      3497 7.07850E+01 1.30992E+01 0.00000E+00
 -1      3498 7.00350E+01 1.43982E+01 0.00000E+00
 -1      3499 7.52850E+01 1.30992E+01 0.00000E+00
 -1      3500 7.37850E+01 1.30992E+01 0.00000E+00
 -1      3501 7.30350E+01 1.43982E+01 0.00000E+00
 -1      3502 7.82850E+01 1.30992E+01 0.00000E+00
 -1      3503 7.67850E+01 1.30992E+01 0.00000E+00
 -1      3504 7.60350E+01 1.43982E+01 0.00000E+00
 -1      3505 8.12850E+01 1.30992E+01 0.00000E+00
 -1      3506 7.97850E+01 1.30992E+01 0.00000E+00
 -1      3507 7.90350E+01 1.43982E+01 0.00000E+00
 -1      3508 8.42850E+01 1.30992E+01 0.00000E+00
 -1      3509 8.27850E+01 1.30992E+01 0.00000E+00
 -1      3510 8.20350E+01 1.43982E+01 0.00000E+00
 -1      3511 8.72850E+01 1.30992E+01 0.00000E+00
 -1      3512 8.57850E+01 1.30992E+01 0.00000E+00
 -1      3513 8.50350E+01 1.43982E+01 0.00000E+00
 -1      3514 9.02850E+01 1.30992E+01 0.00000E+00
 -1      3515 8.87850E+01 1.30992E+01 0.00000E+00
 -1      3516 8.80350E+01 1.43982E+01 0.00000E+00
 -1      3517 9.32850E+01 1.30992E+01 0.00000E+00
 -1      3518 9.17850E+01 1.30992E+01 0.00000E+00
 -1      3519 9.10350E+01 1.43982E+01 0.00000E+00
 -1      3520 9.62850E+01 1.30992E+01 0.00000E+00
 -1      3521 9.47850E+01 1.30992E+01 0.00000E+00
 -1      3522 9.40350E+01 1.43982E+01 0.00000E+00
 -1      3523 9.92850E+01 1.30992E+01 0.00000E+00
 -1      3524 9.77850E+01 1.30992E+01 0.00000E+00
 -1      3525 9.70350E+01 1.43982E+01 0.00000E+00
 -1      3526 1.02285E+02 1.30992E+01 0.00000E+00
 -1      3527 1.00785E+02 1.30992E+01 0.00000E+00
 -1      3528 1.00035E+02 1.43982E+01 0.00000E+00
 -1      3529 1.05285E+02 1.30992E+01 0.00000E+00
 -1      3530 1.03785E+02 1.30992E+01 0.00000E+00
 -1      3531 1.03035E+02 1.43982E+01 0.00000E+00
 -1      3532 1.08214E+02 1.37515E+01 0.00000E+00
 -1      3533 1.06714E+02 1.37515E+01 0.00000E+00
 -1      3534 1.05964E+02 1.50505E+01 0.00000E+00
 -1      3535 1.08822E+02 1.63550E+01 0.00000E+00
 -1      3536 1.38393E+02 1.31563E+01 0.00000E+00
 -1      3537 1.37113E+02 1.28280E+01 0.00000E+00
 -1      3538 1.35766E+02 1.37400E+01 0.00000E+00
 -1      3539 1.38327E+02 1.43967E+01 0.00000E+00
 -1      3540 1.33905E+02 1.45799E+01 0.00000E+00
 -1      3541 1.37033E+02 1.76563E+01 0.00000E+00
 -1      3542 1.07454E+02 2.08948E+01 0.00000E+00
 -1      3543 1.07750E+02 1.95305E+01 0.00000E+00
 -1      3544 1.08778E+02 3.35491E+01 0.00000E+00
 -1      3545 1.08051E+02 3.24378E+01 0.00000E+00
 -1      3546 1.36109E+02 1.86048E+01 0.00000E+00
 -1      3547 1.36087E+02 1.71361E+01 0.00000E+00
 -1      3548 1.07486E+02 3.05799E+01 0.00000E+00
 -1      3549 1.07261E+02 2.89150E+01 0.00000E+00
 -1      3550 1.74000E+01 3.57110E+01 0.00000E+00
 -1      3551 1.89000E+01 3.57110E+01 0.00000E+00
 -1      3552 4.82850E+01 1.30992E+01 0.00000E+00
 -1      3553 4.67850E+01 1.30992E+01 0.00000E+00
 -1      3554 4.60350E+01 1.43982E+01 0.00000E+00
 -1      3555 4.90350E+01 1.43982E+01 0.00000E+00
 -1      3556 3.32850E+01 1.30992E+01 0.00000E+00
 -1      3557 3.17850E+01 1.30992E+01 0.00000E+00
 -1      3558 1.37028E+02 1.51279E+01 0.00000E+00
 -1      3559 1.18237E+01 2.70341E+01 0.00000E+00
 -1      3560 1.18237E+01 2.85028E+01 0.00000E+00
 -1      3561 1.33883E+01 2.89397E+01 0.00000E+00
 -1      3562 1.31228E+01 2.62966E+01 0.00000E+00
 -1      3563 1.36003E+02 1.97982E+01 0.00000E+00
 -1      3564 1.25943E+02 3.89052E+01 0.00000E+00
 -1      3565 1.35167E+02 1.59678E+01 0.00000E+00
 -1      3566 1.07135E+02 2.74312E+01 0.00000E+00
 -1      3567 1.06939E+02 2.61248E+01 0.00000E+00
 -1      3568 1.09860E+02 3.52537E+01 0.00000E+00
 -1      3569 2.04000E+01 3.57110E+01 0.00000E+00
 -1      3570 2.19000E+01 3.57110E+01 0.00000E+00
 -1      3571 2.26500E+01 3.44120E+01 0.00000E+00
 -1      3572 1.08187E+02 1.73932E+01 0.00000E+00
 -1      3573 1.36465E+02 3.52449E+01 0.00000E+00
 -1      3574 1.46018E+01 1.39563E+01 0.00000E+00
 -1      3575 1.44008E+01 1.61688E+01 0.00000E+00
 -1      3576 1.60125E+01 1.39751E+01 0.00000E+00
 -1      3577 1.08568E+02 3.53054E+01 0.00000E+00
 -1      3578 3.02850E+01 1.30992E+01 0.00000E+00
 -1      3579 2.87850E+01 1.30992E+01 0.00000E+00
 -1      3580 3.10350E+01 1.43982E+01 0.00000E+00
 -1      3581 1.35692E+02 3.34309E+01 0.00000E+00
 -1      3582 1.48200E+01 3.09956E+01 0.00000E+00
 -1      3583 1.48200E+01 3.24644E+01 0.00000E+00
 -1      3584 1.07254E+02 1.81357E+01 0.00000E+00
 -1      3585 1.06460E+02 1.64452E+01 0.00000E+00
 -1      3586 1.05031E+02 1.57930E+01 0.00000E+00
 -1      3587 1.06023E+02 1.85825E+01 0.00000E+00
 -1      3588 1.06318E+02 3.40064E+01 0.00000E+00
 -1      3589 1.07068E+02 3.53054E+01 0.00000E+00
 -1      3590 2.57850E+01 1.30992E+01 0.00000E+00
 -1      3591 2.50350E+01 1.43982E+01 0.00000E+00
 -1      3592 2.72850E+01 1.30992E+01 0.00000E+00
 -1      3593 1.42890E+01 1.98219E+01 0.00000E+00
 -1      3594 1.42890E+01 2.12906E+01 0.00000E+00
 -1      3595 1.06376E+02 2.51865E+01 0.00000E+00
 -1      3596 1.05813E+02 2.42482E+01 0.00000E+00
 -1      3597 1.05543E+02 2.59791E+01 0.00000E+00
 -1      3598 2.20350E+01 1.43982E+01 0.00000E+00
 -1      3599 2.12850E+01 1.30992E+01 0.00000E+00
 -1      3600 1.97850E+01 1.30992E+01 0.00000E+00
 -1      3601 1.06582E+02 2.17164E+01 0.00000E+00
 -1      3602 1.44008E+01 1.76376E+01 0.00000E+00
 -1      3603 3.47850E+01 1.30992E+01 0.00000E+00
 -1      3604 3.40350E+01 1.43982E+01 0.00000E+00
 -1      3605 3.62850E+01 1.30992E+01 0.00000E+00
 -1      3606 4.00350E+01 1.43982E+01 0.00000E+00
 -1      3607 3.92850E+01 1.30992E+01 0.00000E+00
 -1      3608 3.77850E+01 1.30992E+01 0.00000E+00
 -1      3609 1.22191E+02 1.08831E+01 0.00000E+00
 -1      3610 1.06922E+02 3.17429E+01 0.00000E+00
 -1      3611 1.42890E+01 2.27656E+01 0.00000E+00
 -1      3612 1.42890E+01 2.42406E+01 0.00000E+00
 -1      3613 1.55880E+01 2.20313E+01 0.00000E+00
 -1      3614 1.06232E+02 2.84012E+01 0.00000E+00
 -1      3615 1.96500E+01 3.44120E+01 0.00000E+00
 -1      3616 1.35748E+02 1.47996E+01 0.00000E+00
 -1      3617 1.71345E+01 3.30710E+01 0.00000E+00
 -1      3618 1.58355E+01 3.38054E+01 0.00000E+00
 -1      3619 1.36079E+02 3.43379E+01 0.00000E+00
 -1      3620 1.50855E+01 3.51044E+01 0.00000E+00
 -1      3621 1.46873E+01 2.96741E+01 0.00000E+00
 -1      3622 1.59862E+01 3.04084E+01 0.00000E+00
 -1      3623 1.45545E+01 2.83525E+01 0.00000E+00
 -1      3624 4.37850E+01 1.56973E+01 0.00000E+00
 -1      3625 4.22850E+01 1.56973E+01 0.00000E+00
 -1      3626 2.49000E+01 3.31130E+01 0.00000E+00
 -1      3627 2.64000E+01 3.31130E+01 0.00000E+00
 -1      3628 2.79000E+01 3.31130E+01 0.00000E+00
 -1      3629 2.94000E+01 3.31130E+01 0.00000E+00
 -1      3630 2.71500E+01 3.18140E+01 0.00000E+00
 -1      3631 3.09000E+01 3.31130E+01 0.00000E+00
 -1      3632 3.24000E+01 3.31130E+01 0.00000E+00
 -1      3633 3.01500E+01 3.18140E+01 0.00000E+00
 -1      3634 3.39000E+01 3.31130E+01 0.00000E+00
 -1      3635 3.54000E+01 3.31130E+01 0.00000E+00
 -1      3636 3.31500E+01 3.18140E+01 0.00000E+00
 -1      3637 3.69000E+01 3.31130E+01 0.00000E+00
 -1      3638 3.84000E+01 3.31130E+01 0.00000E+00
 -1      3639 3.61500E+01 3.18140E+01 0.00000E+00
 -1      3640 3.99000E+01 3.31130E+01 0.00000E+00
 -1      3641 4.14000E+01 3.31130E+01 0.00000E+00
 -1      3642 3.91500E+01 3.18140E+01 0.00000E+00
 -1      3643 4.29000E+01 3.31130E+01 0.00000E+00
 -1      3644 4.44000E+01 3.31130E+01 0.00000E+00
 -1      3645 4.21500E+01 3.18140E+01 0.00000E+00
 -1      3646 4.59000E+01 3.31130E+01 0.00000E+00
 -1      3647 4.74000E+01 3.31130E+01 0.00000E+00
 -1      3648 4.51500E+01 3.18140E+01 0.00000E+00
 -1      3649 4.89000E+01 3.31130E+01 0.00000E+00
 -1      3650 5.04000E+01 3.31130E+01 0.00000E+00
 -1      3651 4.81500E+01 3.18140E+01 0.00000E+00
 -1      3652 5.19000E+01 3.31130E+01 0.00000E+00
 -1      3653 5.34000E+01 3.31130E+01 0.00000E+00
 -1      3654 5.11500E+01 3.18140E+01 0.00000E+00
 -1      3655 5.49000E+01 3.31130E+01 0.00000E+00
 -1      3656 5.64000E+01 3.31130E+01 0.00000E+00
 -1      3657 5.41500E+01 3.18140E+01 0.00000E+00
 -1      3658 5.79000E+01 3.31130E+01 0.00000E+00
 -1      3659 5.94000E+01 3.31130E+01 0.00000E+00
 -1      3660 5.71500E+01 3.18140E+01 0.00000E+00
 -1      3661 6.09000E+01 3.31130E+01 0.00000E+00
 -1      3662 6.24000E+01 3.31130E+01 0.00000E+00
 -1      3663 6.01500E+01 3.18140E+01 0.00000E+00
 -1      3664 6.39000E+01 3.31130E+01 0.00000E+00
 -1      3665 6.54000E+01 3.31130E+01 0.00000E+00
 -1      3666 6.31500E+01 3.18140E+01 0.00000E+00
 -1      3667 6.69000E+01 3.31130E+01 0.00000E+00
 -1      3668 6.84000E+01 3.31130E+01 0.00000E+00
 -1      3669 6.61500E+01 3.18140E+01 0.00000E+00
 -1      3670 6.99000E+01 3.31130E+01 0.00000E+00
 -1      3671 7.14000E+01 3.31130E+01 0.00000E+00
 -1      3672 6.91500E+01 3.18140E+01 0.00000E+00
 -1      3673 7.29000E+01 3.31130E+01 0.00000E+00
 -1      3674 7.44000E+01 3.31130E+01 0.00000E+00
 -1      3675 7.21500E+01 3.18140E+01 0.00000E+00
 -1      3676 7.59000E+01 3.31130E+01 0.00000E+00
 -1      3677 7.74000E+01 3.31130E+01 0.00000E+00
 -1      3678 7.51500E+01 3.18140E+01 0.00000E+00
 -1      3679 7.89000E+01 3.31130E+01 0.00000E+00
 -1      3680 8.04000E+01 3.31130E+01 0.00000E+00
 -1      3681 7.81500E+01 3.18140E+01 0.00000E+00
 -1      3682 8.19000E+01 3.31130E+01 0.00000E+00
 -1      3683 8.34000E+01 3.31130E+01 0.00000E+00
 -1      3684 8.11500E+01 3.18140E+01 0.00000E+00
 -1      3685 8.49000E+01 3.31130E+01 0.00000E+00
 -1      3686 8.64000E+01 3.31130E+01 0.00000E+00
 -1      3687 8.41500E+01 3.18140E+01 0.00000E+00
 -1      3688 8.79000E+01 3.31130E+01 0.00000E+00
 -1      3689 8.94000E+01 3.31130E+01 0.00000E+00
 -1      3690 8.71500E+01 3.18140E+01 0.00000E+00
 -1      3691 9.09000E+01 3.31130E+01 0.00000E+00
 -1      3692 9.24000E+01 3.31130E+01 0.00000E+00
 -1      3693 9.01500E+01 3.18140E+01 0.00000E+00
 -1      3694 9.39000E+01 3.31130E+01 0.00000E+00
 -1      3695 9.54000E+01 3.31130E+01 0.00000E+00
 -1      3696 9.31500E+01 3.18140E+01 0.00000E+00
 -1      3697 9.69000E+01 3.31130E+01 0.00000E+00
 -1      3698 9.84000E+01 3.31130E+01 0.00000E+00
 -1      3699 9.61500E+01 3.18140E+01 0.00000E+00
 -1      3700 9.99000E+01 3.31130E+01 0.00000E+00
 -1      3701 1.01400E+02 3.31130E+01 0.00000E+00
 -1      3702 9.91500E+01 3.18140E+01 0.00000E+00
 -1      3703 1.02900E+02 3.31130E+01 0.00000E+00
 -1      3704 1.04400E+02 3.31130E+01 0.00000E+00
 -1      3705 1.02150E+02 3.18140E+01 0.00000E+00
 -1      3706 1.56997E+01 1.83719E+01 0.00000E+00
 -1      3707 5.57850E+01 1.56973E+01 0.00000E+00
 -1      3708 5.42850E+01 1.56973E+01 0.00000E+00
 -1      3709 5.27850E+01 1.56973E+01 0.00000E+00
 -1      3710 5.12850E+01 1.56973E+01 0.00000E+00
 -1      3711 5.35350E+01 1.69963E+01 0.00000E+00
 -1      3712 6.17850E+01 1.56973E+01 0.00000E+00
 -1      3713 6.02850E+01 1.56973E+01 0.00000E+00
 -1      3714 6.47850E+01 1.56973E+01 0.00000E+00
 -1      3715 6.32850E+01 1.56973E+01 0.00000E+00
 -1      3716 6.25350E+01 1.69963E+01 0.00000E+00
 -1      3717 6.77850E+01 1.56973E+01 0.00000E+00
 -1      3718 6.62850E+01 1.56973E+01 0.00000E+00
 -1      3719 6.55350E+01 1.69963E+01 0.00000E+00
 -1      3720 7.07850E+01 1.56973E+01 0.00000E+00
 -1      3721 6.92850E+01 1.56973E+01 0.00000E+00
 -1      3722 6.85350E+01 1.69963E+01 0.00000E+00
 -1      3723 7.37850E+01 1.56973E+01 0.00000E+00
 -1      3724 7.22850E+01 1.56973E+01 0.00000E+00
 -1      3725 7.15350E+01 1.69963E+01 0.00000E+00
 -1      3726 7.67850E+01 1.56973E+01 0.00000E+00
 -1      3727 7.52850E+01 1.56973E+01 0.00000E+00
 -1      3728 7.45350E+01 1.69963E+01 0.00000E+00
 -1      3729 7.97850E+01 1.56973E+01 0.00000E+00
 -1      3730 7.82850E+01 1.56973E+01 0.00000E+00
 -1      3731 7.75350E+01 1.69963E+01 0.00000E+00
 -1      3732 8.27850E+01 1.56973E+01 0.00000E+00
 -1      3733 8.12850E+01 1.56973E+01 0.00000E+00
 -1      3734 8.05350E+01 1.69963E+01 0.00000E+00
 -1      3735 8.57850E+01 1.56973E+01 0.00000E+00
 -1      3736 8.42850E+01 1.56973E+01 0.00000E+00
 -1      3737 8.35350E+01 1.69963E+01 0.00000E+00
 -1      3738 8.87850E+01 1.56973E+01 0.00000E+00
 -1      3739 8.72850E+01 1.56973E+01 0.00000E+00
 -1      3740 8.65350E+01 1.69963E+01 0.00000E+00
 -1      3741 9.17850E+01 1.56973E+01 0.00000E+00
 -1      3742 9.02850E+01 1.56973E+01 0.00000E+00
 -1      3743 8.95350E+01 1.69963E+01 0.00000E+00
 -1      3744 9.47850E+01 1.56973E+01 0.00000E+00
 -1      3745 9.32850E+01 1.56973E+01 0.00000E+00
 -1      3746 9.25350E+01 1.69963E+01 0.00000E+00
 -1      3747 9.77850E+01 1.56973E+01 0.00000E+00
 -1      3748 9.62850E+01 1.56973E+01 0.00000E+00
 -1      3749 9.55350E+01 1.69963E+01 0.00000E+00
 -1      3750 1.00785E+02 1.56973E+01 0.00000E+00
 -1      3751 9.92850E+01 1.56973E+01 0.00000E+00
 -1      3752 9.85350E+01 1.69963E+01 0.00000E+00
 -1      3753 1.03658E+02 1.57451E+01 0.00000E+00
 -1      3754 1.02158E+02 1.57451E+01 0.00000E+00
 -1      3755 1.01408E+02 1.70441E+01 0.00000E+00
 -1      3756 1.04154E+02 1.71399E+01 0.00000E+00
 -1      3757 1.86041E+01 1.35466E+01 0.00000E+00
 -1      3758 1.71934E+01 1.35278E+01 0.00000E+00
 -1      3759 1.69924E+01 1.57403E+01 0.00000E+00
 -1      3760 1.93541E+01 1.48456E+01 0.00000E+00
 -1      3761 5.87850E+01 1.56973E+01 0.00000E+00
 -1      3762 5.72850E+01 1.56973E+01 0.00000E+00
 -1      3763 5.95350E+01 1.69963E+01 0.00000E+00
 -1      3764 1.89000E+01 3.31130E+01 0.00000E+00
 -1      3765 2.04000E+01 3.31130E+01 0.00000E+00
 -1      3766 1.78845E+01 3.17720E+01 0.00000E+00
 -1      3767 1.05506E+02 2.26266E+01 0.00000E+00
 -1      3768 1.05442E+02 2.08875E+01 0.00000E+00
 -1      3769 1.05190E+02 2.92366E+01 0.00000E+00
 -1      3770 1.05064E+02 2.77528E+01 0.00000E+00
 -1      3771 2.19000E+01 3.31130E+01 0.00000E+00
 -1      3772 2.34000E+01 3.31130E+01 0.00000E+00
 -1      3773 2.41500E+01 3.18140E+01 0.00000E+00
 -1      3774 1.70529E+01 1.73462E+01 0.00000E+00
 -1      3775 1.69412E+01 1.95305E+01 0.00000E+00
 -1      3776 1.05046E+02 1.97110E+01 0.00000E+00
 -1      3777 1.04550E+02 1.83163E+01 0.00000E+00
 -1      3778 1.03177E+02 1.82684E+01 0.00000E+00
 -1      3779 1.03970E+02 2.06213E+01 0.00000E+00
 -1      3780 4.52850E+01 1.56973E+01 0.00000E+00
 -1      3781 4.45350E+01 1.69963E+01 0.00000E+00
 -1      3782 4.67850E+01 1.56973E+01 0.00000E+00
 -1      3783 1.82338E+01 1.68988E+01 0.00000E+00
 -1      3784 2.80350E+01 1.43982E+01 0.00000E+00
 -1      3785 2.57850E+01 1.56973E+01 0.00000E+00
 -1      3786 2.42850E+01 1.56973E+01 0.00000E+00
 -1      3787 1.04501E+02 2.68145E+01 0.00000E+00
 -1      3788 1.03938E+02 2.58762E+01 0.00000E+00
 -1      3789 1.03459E+02 2.76500E+01 0.00000E+00
 -1      3790 1.04673E+02 2.34192E+01 0.00000E+00
 -1      3791 2.27850E+01 1.56973E+01 0.00000E+00
 -1      3792 2.12850E+01 1.56973E+01 0.00000E+00
 -1      3793 2.35350E+01 1.69963E+01 0.00000E+00
 -1      3794 3.70350E+01 1.43982E+01 0.00000E+00
 -1      3795 4.07850E+01 1.56973E+01 0.00000E+00
 -1      3796 3.92850E+01 1.56973E+01 0.00000E+00
 -1      3797 4.15350E+01 1.69963E+01 0.00000E+00
 -1      3798 1.05754E+02 3.21485E+01 0.00000E+00
 -1      3799 1.05004E+02 3.08495E+01 0.00000E+00
 -1      3800 1.68870E+01 2.12938E+01 0.00000E+00
 -1      3801 1.68870E+01 2.27687E+01 0.00000E+00
 -1      3802 1.57207E+01 2.48278E+01 0.00000E+00
 -1      3803 1.44218E+01 2.55622E+01 0.00000E+00
 -1      3804 1.45545E+01 2.68838E+01 0.00000E+00
 -1      3805 1.77518E+01 3.04504E+01 0.00000E+00
 -1      3806 1.95173E+01 3.04924E+01 0.00000E+00
 -1      3807 1.76190E+01 2.91289E+01 0.00000E+00
 -1      3808 5.65350E+01 1.69963E+01 0.00000E+00
 -1      3809 3.47850E+01 1.56973E+01 0.00000E+00
 -1      3810 3.32850E+01 1.56973E+01 0.00000E+00
 -1      3811 4.97850E+01 1.56973E+01 0.00000E+00
 -1      3812 4.82850E+01 1.56973E+01 0.00000E+00
 -1      3813 4.75350E+01 1.69963E+01 0.00000E+00
 -1      3814 2.11500E+01 3.18140E+01 0.00000E+00
 -1      3815 1.03836E+02 3.02011E+01 0.00000E+00
 -1      3816 1.82402E+01 2.02680E+01 0.00000E+00
 -1      3817 3.25350E+01 1.69963E+01 0.00000E+00
 -1      3818 3.17850E+01 1.56973E+01 0.00000E+00
 -1      3819 3.02850E+01 1.56973E+01 0.00000E+00
 -1      3820 5.05350E+01 1.69963E+01 0.00000E+00
 -1      3821 1.83188E+01 2.33528E+01 0.00000E+00
 -1      3822 1.70198E+01 2.40903E+01 0.00000E+00
 -1      3823 1.71525E+01 2.54119E+01 0.00000E+00
 -1      3824 2.94000E+01 3.05150E+01 0.00000E+00
 -1      3825 3.09000E+01 3.05150E+01 0.00000E+00
 -1      3826 3.24000E+01 3.05150E+01 0.00000E+00
 -1      3827 3.39000E+01 3.05150E+01 0.00000E+00
 -1      3828 3.16500E+01 2.92160E+01 0.00000E+00
 -1      3829 3.54000E+01 3.05150E+01 0.00000E+00
 -1      3830 3.69000E+01 3.05150E+01 0.00000E+00
 -1      3831 3.46500E+01 2.92160E+01 0.00000E+00
 -1      3832 3.84000E+01 3.05150E+01 0.00000E+00
 -1      3833 3.99000E+01 3.05150E+01 0.00000E+00
 -1      3834 3.76500E+01 2.92160E+01 0.00000E+00
 -1      3835 4.14000E+01 3.05150E+01 0.00000E+00
 -1      3836 4.29000E+01 3.05150E+01 0.00000E+00
 -1      3837 4.06500E+01 2.92160E+01 0.00000E+00
 -1      3838 4.44000E+01 3.05150E+01 0.00000E+00
 -1      3839 4.59000E+01 3.05150E+01 0.00000E+00
 -1      3840 4.36500E+01 2.92160E+01 0.00000E+00
 -1      3841 4.74000E+01 3.05150E+01 0.00000E+00
 -1      3842 4.89000E+01 3.05150E+01 0.00000E+00
 -1      3843 4.66500E+01 2.92160E+01 0.00000E+00
 -1      3844 5.04000E+01 3.05150E+01 0.00000E+00
 -1      3845 5.19000E+01 3.05150E+01 0.00000E+00
 -1      3846 4.96500E+01 2.92160E+01 0.00000E+00
 -1      3847 5.34000E+01 3.05150E+01 0.00000E+00
 -1      3848 5.49000E+01 3.05150E+01 0.00000E+00
 -1      3849 5.26500E+01 2.92160E+01 0.00000E+00
 -1      3850 5.64000E+01 3.05150E+01 0.00000E+00
 -1      3851 5.79000E+01 3.05150E+01 0.00000E+00
 -1      3852 5.56500E+01 2.92160E+01 0.00000E+00
 -1      3853 5.94000E+01 3.05150E+01 0.00000E+00
 -1      3854 6.09000E+01 3.05150E+01 0.00000E+00
 -1      3855 5.86500E+01 2.92160E+01 0.00000E+00
 -1      3856 6.24000E+01 3.05150E+01 0.00000E+00
 -1      3857 6.39000E+01 3.05150E+01 0.00000E+00
 -1      3858 6.16500E+01 2.92160E+01 0.00000E+00
 -1      3859 6.54000E+01 3.05150E+01 0.00000E+00
 -1      3860 6.69000E+01 3.05150E+01 0.00000E+00
 -1      3861 6.46500E+01 2.92160E+01 0.00000E+00
 -1      3862 6.84000E+01 3.05150E+01 0.00000E+00
 -1      3863 6.99000E+01 3.05150E+01 0.00000E+00
 -1      3864 6.76500E+01 2.92160E+01 0.00000E+00
 -1      3865 7.14000E+01 3.05150E+01 0.00000E+00
 -1      3866 7.29000E+01 3.05150E+01 0.00000E+00
 -1      3867 7.06500E+01 2.92160E+01 0.00000E+00
 -1      3868 7.44000E+01 3.05150E+01 0.00000E+00
 -1      3869 7.59000E+01 3.05150E+01 0.00000E+00
 -1      3870 7.36500E+01 2.92160E+01 0.00000E+00
 -1      3871 7.74000E+01 3.05150E+01 0.00000E+00
 -1      3872 7.89000E+01 3.05150E+01 0.00000E+00
 -1      3873 7.66500E+01 2.92160E+01 0.00000E+00
 -1      3874 8.04000E+01 3.05150E+01 0.00000E+00
 -1      3875 8.19000E+01 3.05150E+01 0.00000E+00
 -1      3876 7.96500E+01 2.92160E+01 0.00000E+00
 -1      3877 8.34000E+01 3.05150E+01 0.00000E+00
 -1      3878 8.49000E+01 3.05150E+01 0.00000E+00
 -1      3879 8.26500E+01 2.92160E+01 0.00000E+00
 -1      3880 8.64000E+01 3.05150E+01 0.00000E+00
 -1      3881 8.79000E+01 3.05150E+01 0.00000E+00
 -1      3882 8.56500E+01 2.92160E+01 0.00000E+00
 -1      3883 8.94000E+01 3.05150E+01 0.00000E+00
 -1      3884 9.09000E+01 3.05150E+01 0.00000E+00
 -1      3885 8.86500E+01 2.92160E+01 0.00000E+00
 -1      3886 9.24000E+01 3.05150E+01 0.00000E+00
 -1      3887 9.39000E+01 3.05150E+01 0.00000E+00
 -1      3888 9.16500E+01 2.92160E+01 0.00000E+00
 -1      3889 9.54000E+01 3.05150E+01 0.00000E+00
 -1      3890 9.69000E+01 3.05150E+01 0.00000E+00
 -1      3891 9.46500E+01 2.92160E+01 0.00000E+00
 -1      3892 9.84000E+01 3.05150E+01 0.00000E+00
 -1      3893 9.99000E+01 3.05150E+01 0.00000E+00
 -1      3894 9.76500E+01 2.92160E+01 0.00000E+00
 -1      3895 1.01118E+02 3.03581E+01 0.00000E+00
 -1      3896 1.02618E+02 3.03581E+01 0.00000E+00
 -1      3897 1.02804E+02 2.87452E+01 0.00000E+00
 -1      3898 1.00368E+02 2.90591E+01 0.00000E+00
 -1      3899 5.42850E+01 1.82952E+01 0.00000E+00
 -1      3900 5.27850E+01 1.82952E+01 0.00000E+00
 -1      3901 6.62850E+01 1.82952E+01 0.00000E+00
 -1      3902 6.47850E+01 1.82952E+01 0.00000E+00
 -1      3903 6.32850E+01 1.82952E+01 0.00000E+00
 -1      3904 6.17850E+01 1.82952E+01 0.00000E+00
 -1      3905 6.40350E+01 1.95942E+01 0.00000E+00
 -1      3906 7.22850E+01 1.82952E+01 0.00000E+00
 -1      3907 7.07850E+01 1.82952E+01 0.00000E+00
 -1      3908 7.52850E+01 1.82952E+01 0.00000E+00
 -1      3909 7.37850E+01 1.82952E+01 0.00000E+00
 -1      3910 7.30350E+01 1.95942E+01 0.00000E+00
 -1      3911 7.82850E+01 1.82952E+01 0.00000E+00
 -1      3912 7.67850E+01 1.82952E+01 0.00000E+00
 -1      3913 7.60350E+01 1.95942E+01 0.00000E+00
 -1      3914 8.12850E+01 1.82952E+01 0.00000E+00
 -1      3915 7.97850E+01 1.82952E+01 0.00000E+00
 -1      3916 7.90350E+01 1.95942E+01 0.00000E+00
 -1      3917 8.42850E+01 1.82952E+01 0.00000E+00
 -1      3918 8.27850E+01 1.82952E+01 0.00000E+00
 -1      3919 8.20350E+01 1.95942E+01 0.00000E+00
 -1      3920 8.72850E+01 1.82952E+01 0.00000E+00
 -1      3921 8.57850E+01 1.82952E+01 0.00000E+00
 -1      3922 8.50350E+01 1.95942E+01 0.00000E+00
 -1      3923 9.02850E+01 1.82952E+01 0.00000E+00
 -1      3924 8.87850E+01 1.82952E+01 0.00000E+00
 -1      3925 8.80350E+01 1.95942E+01 0.00000E+00
 -1      3926 9.32850E+01 1.82952E+01 0.00000E+00
 -1      3927 9.17850E+01 1.82952E+01 0.00000E+00
 -1      3928 9.10350E+01 1.95942E+01 0.00000E+00
 -1      3929 9.62850E+01 1.82952E+01 0.00000E+00
 -1      3930 9.47850E+01 1.82952E+01 0.00000E+00
 -1      3931 9.40350E+01 1.95942E+01 0.00000E+00
 -1      3932 9.92850E+01 1.82952E+01 0.00000E+00
 -1      3933 9.77850E+01 1.82952E+01 0.00000E+00
 -1      3934 9.70350E+01 1.95942E+01 0.00000E+00
 -1      3935 2.03498E+01 1.60744E+01 0.00000E+00
 -1      3936 1.91690E+01 1.65217E+01 0.00000E+00
 -1      3937 1.92295E+01 1.81276E+01 0.00000E+00
 -1      3938 2.10998E+01 1.73734E+01 0.00000E+00
 -1      3939 2.10173E+01 3.04924E+01 0.00000E+00
 -1      3940 2.25173E+01 3.04924E+01 0.00000E+00
 -1      3941 2.08845E+01 2.91709E+01 0.00000E+00
 -1      3942 3.77850E+01 1.56973E+01 0.00000E+00
 -1      3943 3.62850E+01 1.56973E+01 0.00000E+00
 -1      3944 3.55350E+01 1.69963E+01 0.00000E+00
 -1      3945 3.85350E+01 1.69963E+01 0.00000E+00
 -1      3946 6.92850E+01 1.82952E+01 0.00000E+00
 -1      3947 6.77850E+01 1.82952E+01 0.00000E+00
 -1      3948 6.70350E+01 1.95942E+01 0.00000E+00
 -1      3949 2.40173E+01 3.04924E+01 0.00000E+00
 -1      3950 2.55173E+01 3.04924E+01 0.00000E+00
 -1      3951 2.38845E+01 2.91709E+01 0.00000E+00
 -1      3952 1.91753E+01 1.98909E+01 0.00000E+00
 -1      3953 1.91212E+01 2.16541E+01 0.00000E+00
 -1      3954 2.01105E+01 1.95138E+01 0.00000E+00
 -1      3955 1.03737E+02 2.44362E+01 0.00000E+00
 -1      3956 1.03430E+02 2.28147E+01 0.00000E+00
 -1      3957 5.12850E+01 1.82952E+01 0.00000E+00
 -1      3958 4.97850E+01 1.82952E+01 0.00000E+00
 -1      3959 5.20350E+01 1.95942E+01 0.00000E+00
 -1      3960 2.67086E+01 3.05037E+01 0.00000E+00
 -1      3961 2.82086E+01 3.05037E+01 0.00000E+00
 -1      3962 2.89586E+01 2.92047E+01 0.00000E+00
 -1      3963 2.65759E+01 2.91822E+01 0.00000E+00
 -1      3964 2.87850E+01 1.56973E+01 0.00000E+00
 -1      3965 2.72850E+01 1.56973E+01 0.00000E+00
 -1      3966 2.65350E+01 1.69963E+01 0.00000E+00
 -1      3967 2.95350E+01 1.69963E+01 0.00000E+00
 -1      3968 1.58535E+01 2.76181E+01 0.00000E+00
 -1      3969 5.72850E+01 1.82952E+01 0.00000E+00
 -1      3970 5.57850E+01 1.82952E+01 0.00000E+00
 -1      3971 5.50350E+01 1.95942E+01 0.00000E+00
 -1      3972 6.02850E+01 1.82952E+01 0.00000E+00
 -1      3973 5.87850E+01 1.82952E+01 0.00000E+00
 -1      3974 5.80350E+01 1.95942E+01 0.00000E+00
 -1      3975 1.02241E+02 2.78069E+01 0.00000E+00
 -1      3976 1.02695E+02 2.52717E+01 0.00000E+00
 -1      3977 2.72850E+01 1.82952E+01 0.00000E+00
 -1      3978 2.57850E+01 1.82952E+01 0.00000E+00
 -1      3979 2.42850E+01 1.82952E+01 0.00000E+00
 -1      3980 2.27850E+01 1.82952E+01 0.00000E+00
 -1      3981 2.50350E+01 1.95942E+01 0.00000E+00
 -1      3982 7.00350E+01 1.95942E+01 0.00000E+00
 -1      3983 4.22850E+01 1.82952E+01 0.00000E+00
 -1      3984 4.07850E+01 1.82952E+01 0.00000E+00
 -1      3985 6.10350E+01 1.95942E+01 0.00000E+00
 -1      3986 1.02097E+02 2.26553E+01 0.00000E+00
 -1      3987 1.03034E+02 2.16383E+01 0.00000E+00
 -1      3988 1.02637E+02 2.04618E+01 0.00000E+00
 -1      3989 1.00868E+02 1.92375E+01 0.00000E+00
 -1      3990 1.00118E+02 2.05365E+01 0.00000E+00
 -1      3991 1.73857E+01 2.65360E+01 0.00000E+00
 -1      3992 1.73857E+01 2.80047E+01 0.00000E+00
 -1      3993 1.91513E+01 2.80467E+01 0.00000E+00
 -1      3994 1.86847E+01 2.57985E+01 0.00000E+00
 -1      3995 4.52850E+01 1.82952E+01 0.00000E+00
 -1      3996 4.37850E+01 1.82952E+01 0.00000E+00
 -1      3997 4.30350E+01 1.95942E+01 0.00000E+00
 -1      3998 1.92539E+01 2.29757E+01 0.00000E+00
 -1      3999 1.93867E+01 2.42973E+01 0.00000E+00
 -1      4000 2.01891E+01 2.25986E+01 0.00000E+00
 -1      4001 4.82850E+01 1.82952E+01 0.00000E+00
 -1      4002 4.67850E+01 1.82952E+01 0.00000E+00
 -1      4003 4.60350E+01 1.95942E+01 0.00000E+00
 -1      4004 3.32850E+01 1.82952E+01 0.00000E+00
 -1      4005 3.17850E+01 1.82952E+01 0.00000E+00
 -1      4006 3.62850E+01 1.82952E+01 0.00000E+00
 -1      4007 3.47850E+01 1.82952E+01 0.00000E+00
 -1      4008 3.40350E+01 1.95942E+01 0.00000E+00
 -1      4009 4.90350E+01 1.95942E+01 0.00000E+00
 -1      4010 3.02850E+01 1.82952E+01 0.00000E+00
 -1      4011 2.87850E+01 1.82952E+01 0.00000E+00
 -1      4012 2.80350E+01 1.95942E+01 0.00000E+00
 -1      4013 3.39000E+01 2.79170E+01 0.00000E+00
 -1      4014 3.54000E+01 2.79170E+01 0.00000E+00
 -1      4015 3.69000E+01 2.79170E+01 0.00000E+00
 -1      4016 3.84000E+01 2.79170E+01 0.00000E+00
 -1      4017 3.61500E+01 2.66180E+01 0.00000E+00
 -1      4018 3.99000E+01 2.79170E+01 0.00000E+00
 -1      4019 4.14000E+01 2.79170E+01 0.00000E+00
 -1      4020 3.91500E+01 2.66180E+01 0.00000E+00
 -1      4021 4.29000E+01 2.79170E+01 0.00000E+00
 -1      4022 4.44000E+01 2.79170E+01 0.00000E+00
 -1      4023 4.21500E+01 2.66180E+01 0.00000E+00
 -1      4024 4.59000E+01 2.79170E+01 0.00000E+00
 -1      4025 4.74000E+01 2.79170E+01 0.00000E+00
 -1      4026 4.51500E+01 2.66180E+01 0.00000E+00
 -1      4027 4.89000E+01 2.79170E+01 0.00000E+00
 -1      4028 5.04000E+01 2.79170E+01 0.00000E+00
 -1      4029 4.81500E+01 2.66180E+01 0.00000E+00
 -1      4030 5.19000E+01 2.79170E+01 0.00000E+00
 -1      4031 5.34000E+01 2.79170E+01 0.00000E+00
 -1      4032 5.11500E+01 2.66180E+01 0.00000E+00
 -1      4033 5.49000E+01 2.79170E+01 0.00000E+00
 -1      4034 5.64000E+01 2.79170E+01 0.00000E+00
 -1      4035 5.41500E+01 2.66180E+01 0.00000E+00
 -1      4036 5.79000E+01 2.79170E+01 0.00000E+00
 -1      4037 5.94000E+01 2.79170E+01 0.00000E+00
 -1      4038 5.71500E+01 2.66180E+01 0.00000E+00
 -1      4039 6.09000E+01 2.79170E+01 0.00000E+00
 -1      4040 6.24000E+01 2.79170E+01 0.00000E+00
 -1      4041 6.01500E+01 2.66180E+01 0.00000E+00
 -1      4042 6.39000E+01 2.79170E+01 0.00000E+00
 -1      4043 6.54000E+01 2.79170E+01 0.00000E+00
 -1      4044 6.31500E+01 2.66180E+01 0.00000E+00
 -1      4045 6.69000E+01 2.79170E+01 0.00000E+00
 -1      4046 6.84000E+01 2.79170E+01 0.00000E+00
 -1      4047 6.61500E+01 2.66180E+01 0.00000E+00
 -1      4048 6.99000E+01 2.79170E+01 0.00000E+00
 -1      4049 7.14000E+01 2.79170E+01 0.00000E+00
 -1      4050 6.91500E+01 2.66180E+01 0.00000E+00
 -1      4051 7.29000E+01 2.79170E+01 0.00000E+00
 -1      4052 7.44000E+01 2.79170E+01 0.00000E+00
 -1      4053 7.21500E+01 2.66180E+01 0.00000E+00
 -1      4054 7.59000E+01 2.79170E+01 0.00000E+00
 -1      4055 7.74000E+01 2.79170E+01 0.00000E+00
 -1      4056 7.51500E+01 2.66180E+01 0.00000E+00
 -1      4057 7.89000E+01 2.79170E+01 0.00000E+00
 -1      4058 8.04000E+01 2.79170E+01 0.00000E+00
 -1      4059 7.81500E+01 2.66180E+01 0.00000E+00
 -1      4060 8.19000E+01 2.79170E+01 0.00000E+00
 -1      4061 8.34000E+01 2.79170E+01 0.00000E+00
 -1      4062 8.11500E+01 2.66180E+01 0.00000E+00
 -1      4063 8.49000E+01 2.79170E+01 0.00000E+00
 -1      4064 8.64000E+01 2.79170E+01 0.00000E+00
 -1      4065 8.41500E+01 2.66180E+01 0.00000E+00
 -1      4066 8.79000E+01 2.79170E+01 0.00000E+00
 -1      4067 8.94000E+01 2.79170E+01 0.00000E+00
 -1      4068 8.71500E+01 2.66180E+01 0.00000E+00
 -1      4069 9.09000E+01 2.79170E+01 0.00000E+00
 -1      4070 9.24000E+01 2.79170E+01 0.00000E+00
 -1      4071 9.01500E+01 2.66180E+01 0.00000E+00
 -1      4072 9.39000E+01 2.79170E+01 0.00000E+00
 -1      4073 9.54000E+01 2.79170E+01 0.00000E+00
 -1      4074 9.31500E+01 2.66180E+01 0.00000E+00
 -1      4075 9.69000E+01 2.79170E+01 0.00000E+00
 -1      4076 9.84000E+01 2.79170E+01 0.00000E+00
 -1      4077 9.61500E+01 2.66180E+01 0.00000E+00
 -1      4078 9.97114E+01 2.79404E+01 0.00000E+00
 -1      4079 1.00929E+02 2.77835E+01 0.00000E+00
 -1      4080 1.01584E+02 2.66882E+01 0.00000E+00
 -1      4081 9.89614E+01 2.66414E+01 0.00000E+00
 -1      4082 6.17850E+01 2.08932E+01 0.00000E+00
 -1      4083 6.02850E+01 2.08932E+01 0.00000E+00
 -1      4084 1.01165E+02 2.36242E+01 0.00000E+00
 -1      4085 1.00769E+02 2.24478E+01 0.00000E+00
 -1      4086 7.67850E+01 2.08932E+01 0.00000E+00
 -1      4087 7.52850E+01 2.08932E+01 0.00000E+00
 -1      4088 7.37850E+01 2.08932E+01 0.00000E+00
 -1      4089 7.22850E+01 2.08932E+01 0.00000E+00
 -1      4090 7.45350E+01 2.21922E+01 0.00000E+00
 -1      4091 8.27850E+01 2.08932E+01 0.00000E+00
 -1      4092 8.12850E+01 2.08932E+01 0.00000E+00
 -1      4093 8.57850E+01 2.08932E+01 0.00000E+00
 -1      4094 8.42850E+01 2.08932E+01 0.00000E+00
 -1      4095 8.35350E+01 2.21922E+01 0.00000E+00
 -1      4096 8.87850E+01 2.08932E+01 0.00000E+00
 -1      4097 8.72850E+01 2.08932E+01 0.00000E+00
 -1      4098 8.65350E+01 2.21922E+01 0.00000E+00
 -1      4099 9.17850E+01 2.08932E+01 0.00000E+00
 -1      4100 9.02850E+01 2.08932E+01 0.00000E+00
 -1      4101 8.95350E+01 2.21922E+01 0.00000E+00
 -1      4102 9.47850E+01 2.08932E+01 0.00000E+00
 -1      4103 9.32850E+01 2.08932E+01 0.00000E+00
 -1      4104 9.25350E+01 2.21922E+01 0.00000E+00
 -1      4105 9.77850E+01 2.08932E+01 0.00000E+00
 -1      4106 9.62850E+01 2.08932E+01 0.00000E+00
 -1      4107 9.55350E+01 2.21922E+01 0.00000E+00
 -1      4108 1.01804E+02 1.82205E+01 0.00000E+00
 -1      4109 2.19153E+01 1.87159E+01 0.00000E+00
 -1      4110 2.09802E+01 1.90931E+01 0.00000E+00
 -1      4111 2.09260E+01 2.08563E+01 0.00000E+00
 -1      4112 2.26653E+01 2.00149E+01 0.00000E+00
 -1      4113 3.92850E+01 1.82952E+01 0.00000E+00
 -1      4114 3.77850E+01 1.82952E+01 0.00000E+00
 -1      4115 4.00350E+01 1.95942E+01 0.00000E+00
 -1      4116 1.01383E+02 2.52483E+01 0.00000E+00
 -1      4117 5.57850E+01 2.08932E+01 0.00000E+00
 -1      4118 5.42850E+01 2.08932E+01 0.00000E+00
 -1      4119 5.27850E+01 2.08932E+01 0.00000E+00
 -1      4120 5.12850E+01 2.08932E+01 0.00000E+00
 -1      4121 5.35350E+01 2.21922E+01 0.00000E+00
 -1      4122 2.31345E+01 2.78719E+01 0.00000E+00
 -1      4123 2.46345E+01 2.78719E+01 0.00000E+00
 -1      4124 3.10350E+01 1.95942E+01 0.00000E+00
 -1      4125 4.97850E+01 2.08932E+01 0.00000E+00
 -1      4126 4.82850E+01 2.08932E+01 0.00000E+00
 -1      4127 5.05350E+01 2.21922E+01 0.00000E+00
 -1      4128 9.91859E+01 2.15055E+01 0.00000E+00
 -1      4129 7.97850E+01 2.08932E+01 0.00000E+00
 -1      4130 7.82850E+01 2.08932E+01 0.00000E+00
 -1      4131 8.05350E+01 2.21922E+01 0.00000E+00
 -1      4132 2.03929E+01 2.79593E+01 0.00000E+00
 -1      4133 2.18929E+01 2.79593E+01 0.00000E+00
 -1      4134 2.26429E+01 2.66603E+01 0.00000E+00
 -1      4135 2.01596E+01 2.68352E+01 0.00000E+00
 -1      4136 6.47850E+01 2.08932E+01 0.00000E+00
 -1      4137 6.32850E+01 2.08932E+01 0.00000E+00
 -1      4138 6.25350E+01 2.21922E+01 0.00000E+00
 -1      4139 3.09000E+01 2.79170E+01 0.00000E+00
 -1      4140 3.24000E+01 2.79170E+01 0.00000E+00
 -1      4141 3.31500E+01 2.66180E+01 0.00000E+00
 -1      4142 7.07850E+01 2.08932E+01 0.00000E+00
 -1      4143 6.92850E+01 2.08932E+01 0.00000E+00
 -1      4144 7.15350E+01 2.21922E+01 0.00000E+00
 -1      4145 5.87850E+01 2.08932E+01 0.00000E+00
 -1      4146 5.72850E+01 2.08932E+01 0.00000E+00
 -1      4147 5.95350E+01 2.21922E+01 0.00000E+00
 -1      4148 6.77850E+01 2.08932E+01 0.00000E+00
 -1      4149 6.62850E+01 2.08932E+01 0.00000E+00
 -1      4150 6.55350E+01 2.21922E+01 0.00000E+00
 -1      4151 6.85350E+01 2.21922E+01 0.00000E+00
 -1      4152 4.07850E+01 2.08932E+01 0.00000E+00
 -1      4153 3.92850E+01 2.08932E+01 0.00000E+00
 -1      4154 2.57850E+01 2.08932E+01 0.00000E+00
 -1      4155 2.42850E+01 2.08932E+01 0.00000E+00
 -1      4156 2.50759E+01 2.65842E+01 0.00000E+00
 -1      4157 2.58259E+01 2.78832E+01 0.00000E+00
 -1      4158 2.70173E+01 2.78944E+01 0.00000E+00
 -1      4159 2.83629E+01 2.79001E+01 0.00000E+00
 -1      4160 2.95543E+01 2.79114E+01 0.00000E+00
 -1      4161 3.03043E+01 2.66124E+01 0.00000E+00
 -1      4162 2.76129E+01 2.66011E+01 0.00000E+00
 -1      4163 1.00055E+02 2.50408E+01 0.00000E+00
 -1      4164 1.99264E+01 2.57111E+01 0.00000E+00
 -1      4165 2.08615E+01 2.53340E+01 0.00000E+00
 -1      4166 7.75350E+01 2.21922E+01 0.00000E+00
 -1      4167 4.37850E+01 2.08932E+01 0.00000E+00
 -1      4168 4.22850E+01 2.08932E+01 0.00000E+00
 -1      4169 4.15350E+01 2.21922E+01 0.00000E+00
 -1      4170 5.65350E+01 2.21922E+01 0.00000E+00
 -1      4171 3.70350E+01 1.95942E+01 0.00000E+00
 -1      4172 9.84359E+01 2.28045E+01 0.00000E+00
 -1      4173 3.17850E+01 2.08932E+01 0.00000E+00
 -1      4174 3.02850E+01 2.08932E+01 0.00000E+00
 -1      4175 2.10587E+01 2.21779E+01 0.00000E+00
 -1      4176 2.11915E+01 2.34995E+01 0.00000E+00
 -1      4177 2.19284E+01 2.17572E+01 0.00000E+00
 -1      4178 2.87850E+01 2.08932E+01 0.00000E+00
 -1      4179 2.72850E+01 2.08932E+01 0.00000E+00
 -1      4180 2.65350E+01 2.21922E+01 0.00000E+00
 -1      4181 4.67850E+01 2.08932E+01 0.00000E+00
 -1      4182 4.52850E+01 2.08932E+01 0.00000E+00
 -1      4183 4.45350E+01 2.21922E+01 0.00000E+00
 -1      4184 3.47850E+01 2.08932E+01 0.00000E+00
 -1      4185 3.32850E+01 2.08932E+01 0.00000E+00
 -1      4186 3.25350E+01 2.21922E+01 0.00000E+00
 -1      4187 4.75350E+01 2.21922E+01 0.00000E+00
 -1      4188 9.87434E+01 2.50174E+01 0.00000E+00
 -1      4189 7.48425E+01 2.44051E+01 0.00000E+00
 -1      4190 7.33425E+01 2.44051E+01 0.00000E+00
 -1      4191 3.84000E+01 2.53190E+01 0.00000E+00
 -1      4192 3.99000E+01 2.53190E+01 0.00000E+00
 -1      4193 4.18425E+01 2.44051E+01 0.00000E+00
 -1      4194 4.33425E+01 2.44051E+01 0.00000E+00
 -1      4195 4.48425E+01 2.44051E+01 0.00000E+00
 -1      4196 4.63425E+01 2.44051E+01 0.00000E+00
 -1      4197 4.78425E+01 2.44051E+01 0.00000E+00
 -1      4198 4.93425E+01 2.44051E+01 0.00000E+00
 -1      4199 5.08425E+01 2.44051E+01 0.00000E+00
 -1      4200 5.23425E+01 2.44051E+01 0.00000E+00
 -1      4201 5.38425E+01 2.44051E+01 0.00000E+00
 -1      4202 5.53425E+01 2.44051E+01 0.00000E+00
 -1      4203 5.68425E+01 2.44051E+01 0.00000E+00
 -1      4204 5.83425E+01 2.44051E+01 0.00000E+00
 -1      4205 5.98425E+01 2.44051E+01 0.00000E+00
 -1      4206 6.13425E+01 2.44051E+01 0.00000E+00
 -1      4207 6.28425E+01 2.44051E+01 0.00000E+00
 -1      4208 6.43425E+01 2.44051E+01 0.00000E+00
 -1      4209 6.58425E+01 2.44051E+01 0.00000E+00
 -1      4210 6.73425E+01 2.44051E+01 0.00000E+00
 -1      4211 6.88425E+01 2.44051E+01 0.00000E+00
 -1      4212 7.03425E+01 2.44051E+01 0.00000E+00
 -1      4213 7.18425E+01 2.44051E+01 0.00000E+00
 -1      4214 7.63425E+01 2.44051E+01 0.00000E+00
 -1      4215 7.78425E+01 2.44051E+01 0.00000E+00
 -1      4216 7.93425E+01 2.44051E+01 0.00000E+00
 -1      4217 8.08425E+01 2.44051E+01 0.00000E+00
 -1      4218 8.23425E+01 2.44051E+01 0.00000E+00
 -1      4219 8.38425E+01 2.44051E+01 0.00000E+00
 -1      4220 8.53425E+01 2.44051E+01 0.00000E+00
 -1      4221 8.68425E+01 2.44051E+01 0.00000E+00
 -1      4222 8.83425E+01 2.44051E+01 0.00000E+00
 -1      4223 8.98425E+01 2.44051E+01 0.00000E+00
 -1      4224 9.13425E+01 2.44051E+01 0.00000E+00
 -1      4225 9.28425E+01 2.44051E+01 0.00000E+00
 -1      4226 9.43425E+01 2.44051E+01 0.00000E+00
 -1      4227 9.58425E+01 2.44051E+01 0.00000E+00
 -1      4228 9.73425E+01 2.44051E+01 0.00000E+00
 -1      4229 2.17312E+01 2.49133E+01 0.00000E+00
 -1      4230 2.29728E+01 2.48258E+01 0.00000E+00
 -1      4231 3.77850E+01 2.08932E+01 0.00000E+00
 -1      4232 3.62850E+01 2.08932E+01 0.00000E+00
 -1      4233 3.85350E+01 2.21922E+01 0.00000E+00
 -1      4234 2.95350E+01 2.21922E+01 0.00000E+00
 -1      4235 3.58425E+01 2.44051E+01 0.00000E+00
 -1      4236 3.73425E+01 2.44051E+01 0.00000E+00
 -1      4237 3.28425E+01 2.44051E+01 0.00000E+00
 -1      4238 3.43425E+01 2.44051E+01 0.00000E+00
 -1      4239 2.35481E+01 2.26355E+01 0.00000E+00
 -1      4240 2.27981E+01 2.13365E+01 0.00000E+00
 -1      4241 2.44597E+01 2.43826E+01 0.00000E+00
 -1      4242 3.13425E+01 2.44051E+01 0.00000E+00
 -1      4243 2.99968E+01 2.43995E+01 0.00000E+00
 -1      4244 2.84968E+01 2.43995E+01 0.00000E+00
 -1      4245 2.60038E+01 2.36174E+01 0.00000E+00
 -1      4246 2.54285E+01 2.58077E+01 0.00000E+00
 -1      4247 3.55350E+01 2.21922E+01 0.00000E+00
 -1      4248 4.10925E+01 2.31061E+01 0.00000E+00
 -1      4249 3.95925E+01 2.31061E+01 0.00000E+00
 -1      4250 3.80925E+01 2.31061E+01 0.00000E+00
 -1      4251 2.75038E+01 2.36174E+01 0.00000E+00
 -1      4252 2.66199E+01 2.58190E+01 0.00000E+00
 -1      4253 2.79656E+01 2.58246E+01 0.00000E+00
 -3
    3C                          2045                                     1
 -1       164    8    0    1
 -2         6         7        23      1105      1268      1122
 -1       165    8    0    1
 -2         7         8       164      1106      1269      1270
 -1       166    8    0    1
 -2         8         9       165      1107      1271      1272
 -1       167    8    0    1
 -2         8       165       164      1272      1273      1269
 -1       168    8    0    1
 -2         9        10       166      1108      1274      1275
 -1       169    8    0    1
 -2         9       166       165      1275      1276      1271
 -1       170    8    0    1
 -2        10        11       167      1109      1277      1278
 -1       171    8    0    1
 -2        10       167       166      1278      1279      1274
 -1       172    8    0    1
 -2        11        12       168      1110      1280      1281
 -1       173    8    0    1
 -2        11       168       167      1281      1282      1277
 -1       174    8    0    1
 -2        12        13       169      1111      1283      1284
 -1       175    8    0    1
 -2        12       169       168      1284      1285      1280
 -1       176    8    0    1
 -2        13        14       170      1112      1286      1287
 -1       177    8    0    1
 -2        13       170       169      1287      1288      1283
 -1       178    8    0    1
 -2        14        15       171      1113      1289      1290
 -1       179    8    0    1
 -2        14       171       170      1290      1291      1286
 -1       180    8    0    1
 -2        15        16       172      1114      1292      1293
 -1       181    8    0    1
 -2        15       172       171      1293      1294      1289
 -1       182    8    0    1
 -2        16        17       173      1115      1295      1296
 -1       183    8    0    1
 -2        16       173       172      1296      1297      1292
 -1       184    8    0    1
 -2        17        18       174      1116      1298      1299
 -1       185    8    0    1
 -2        17       174       173      1299      1300      1295
 -1       186    8    0    1
 -2        18        19       175      1117      1301      1302
 -1       187    8    0    1
 -2        18       175       174      1302      1303      1298
 -1       188    8    0    1
 -2        19        20       176      1118      1304      1305
 -1       189    8    0    1
 -2        19       176       175      1305      1306      1301
 -1       190    8    0    1
 -2        20        21       177      1119      1307      1308
 -1       191    8    0    1
 -2        20       177       176      1308      1309      1304
 -1       192    8    0    1
 -2        21        22       178      1120      1310      1311
 -1       193    8    0    1
 -2        21       178       177      1311      1312      1307
 -1       194    8    0    1
 -2        22         5       179      1121      1313      1314
 -1       195    8    0    1
 -2       178        22       179      1310      1314      1315
 -1       196    8    0    1
 -2         5        72       179      1172      1316      1313
 -1       197    8    0    1
 -2        24        23       180      1123      1317      1318
 -1       198    8    0    1
 -2        25        24       181      1124      1319      1320
 -1       199    8    0    1
 -2        24       180       181      1318      1321      1319
 -1       200    8    0    1
 -2        26        25       182      1125      1322      1323
 -1       201    8    0    1
 -2        25       181       182      1320      1324      1322
 -1       202    8    0    1
 -2        27        26       183      1126      1325      1326
 -1       203    8    0    1
 -2        26       182       183      1323      1327      1325
 -1       204    8    0    1
 -2        28        27       184      1127      1328      1329
 -1       205    8    0    1
 -2        27       183       184      1326      1330      1328
 -1       206    8    0    1
 -2        29        28       185      1128      1331      1332
 -1       207    8    0    1
 -2        28       184       185      1329      1333      1331
 -1       208    8    0    1
 -2        30        29       186      1129      1334      1335
 -1       209    8    0    1
 -2        29       185       186      1332      1336      1334
 -1       210    8    0    1
 -2        31        30       187      1130      1337      1338
 -1       211    8    0    1
 -2        30       186       187      1335      1339      1337
 -1       212    8    0    1
 -2        32        31       188      1131      1340      1341
 -1       213    8    0    1
 -2        31       187       188      1338      1342      1340
 -1       214    8    0    1
 -2        33        32       189      1132      1343      1344
 -1       215    8    0    1
 -2        32       188       189      1341      1345      1343
 -1       216    8    0    1
 -2        34        33       190      1133      1346      1347
 -1       217    8    0    1
 -2        33       189       190      1344      1348      1346
 -1       218    8    0    1
 -2        35        34       191      1134      1349      1350
 -1       219    8    0    1
 -2        34       190       191      1347      1351      1349
 -1       220    8    0    1
 -2        36        35       192      1135      1352      1353
 -1       221    8    0    1
 -2        35       191       192      1350      1354      1352
 -1       222    8    0    1
 -2        37        36       193      1136      1355      1356
 -1       223    8    0    1
 -2        36       192       193      1353      1357      1355
 -1       224    8    0    1
 -2        38        37       194      1137      1358      1359
 -1       225    8    0    1
 -2        37       193       194      1356      1360      1358
 -1       226    8    0    1
 -2        39        38       195      1138      1361      1362
 -1       227    8    0    1
 -2        38       194       195      1359      1363      1361
 -1       228    8    0    1
 -2        40        39       196      1139      1364      1365
 -1       229    8    0    1
 -2        39       195       196      1362      1366      1364
 -1       230    8    0    1
 -2        41        40       197      1140      1367      1368
 -1       231    8    0    1
 -2        40       196       197      1365      1369      1367
 -1       232    8    0    1
 -2        42        41       198      1141      1370      1371
 -1       233    8    0    1
 -2        41       197       198      1368      1372      1370
 -1       234    8    0    1
 -2        43        42       199      1142      1373      1374
 -1       235    8    0    1
 -2        42       198       199      1371      1375      1373
 -1       236    8    0    1
 -2        44        43       200      1143      1376      1377
 -1       237    8    0    1
 -2        43       199       200      1374      1378      1376
 -1       238    8    0    1
 -2        45        44       201      1144      1379      1380
 -1       239    8    0    1
 -2        44       200       201      1377      1381      1379
 -1       240    8    0    1
 -2        46        45       202      1145      1382      1383
 -1       241    8    0    1
 -2        45       201       202      1380      1384      1382
 -1       242    8    0    1
 -2        47        46       203      1146      1385      1386
 -1       243    8    0    1
 -2        46       202       203      1383      1387      1385
 -1       244    8    0    1
 -2        48        47       204      1147      1388      1389
 -1       245    8    0    1
 -2        47       203       204      1386      1390      1388
 -1       246    8    0    1
 -2        49        48       205      1148      1391      1392
 -1       247    8    0    1
 -2        48       204       205      1389      1393      1391
 -1       248    8    0    1
 -2        50        49       206      1149      1394      1395
 -1       249    8    0    1
 -2        49       205       206      1392      1396      1394
 -1       250    8    0    1
 -2        51        50       207      1150      1397      1398
 -1       251    8    0    1
 -2        50       206       207      1395      1399      1397
 -1       252    8    0    1
 -2        52        51       208      1151      1400      1401
 -1       253    8    0    1
 -2        51       207       208      1398      1402      1400
 -1       254    8    0    1
 -2        53        52       209      1152      1403      1404
 -1       255    8    0    1
 -2        52       208       209      1401      1405      1403
 -1       256    8    0    1
 -2        54        53       210      1153      1406      1407
 -1       257    8    0    1
 -2        53       209       210      1404      1408      1406
 -1       258    8    0    1
 -2        55        54       211      1154      1409      1410
 -1       259    8    0    1
 -2        54       210       211      1407      1411      1409
 -1       260    8    0    1
 -2        56        55       212      1155      1412      1413
 -1       261    8    0    1
 -2        55       211       212      1410      1414      1412
 -1       262    8    0    1
 -2        57        56       213      1156      1415      1416
 -1       263    8    0    1
 -2        56       212       213      1413      1417      1415
 -1       264    8    0    1
 -2        58        57       214      1157      1418      1419
 -1       265    8    0    1
 -2        57       213       214      1416      1420      1418
 -1       266    8    0    1
 -2        59        58       215      1158      1421      1422
 -1       267    8    0    1
 -2        58       214       215      1419      1423      1421
 -1       268    8    0    1
 -2        60        59       216      1159      1424      1425
 -1       269    8    0    1
 -2        59       215       216      1422      1426      1424
 -1       270    8    0    1
 -2        61        60       217      1160      1427      1428
 -1       271    8    0    1
 -2        60       216       217      1425      1429      1427
 -1       272    8    0    1
 -2        62        61       218      1161      1430      1431
 -1       273    8    0    1
 -2        61       217       218      1428      1432      1430
 -1       274    8    0    1
 -2        63        62       219      1162      1433      1434
 -1       275    8    0    1
 -2        62       218       219      1431      1435      1433
 -1       276    8    0    1
 -2        64        63       220      1163      1436      1437
 -1       277    8    0    1
 -2        63       219       220      1434      1438      1436
 -1       278    8    0    1
 -2        65        64       221      1164      1439      1440
 -1       279    8    0    1
 -2        64       220       221      1437      1441      1439
 -1       280    8    0    1
 -2        66        65       222      1165      1442      1443
 -1       281    8    0    1
 -2        65       221       222      1440      1444      1442
 -1       282    8    0    1
 -2        67        66       223      1166      1445      1446
 -1       283    8    0    1
 -2        66       222       223      1443      1447      1445
 -1       284    8    0    1
 -2        68        67       224      1167      1448      1449
 -1       285    8    0    1
 -2        67       223       224      1446      1450      1448
 -1       286    8    0    1
 -2        69        68       225      1168      1451      1452
 -1       287    8    0    1
 -2        68       224       225      1449      1453      1451
 -1       288    8    0    1
 -2        70        69       226      1169      1454      1455
 -1       289    8    0    1
 -2        69       225       226      1452      1456      1454
 -1       290    8    0    1
 -2        71        70       227      1170      1457      1458
 -1       291    8    0    1
 -2        70       226       227      1455      1459      1457
 -1       292    8    0    1
 -2         4        71       136      1171      1460      1238
 -1       293    8    0    1
 -2       136        71       227      1460      1458      1461
 -1       294    8    0    1
 -2        72        73       228      1173      1462      1463
 -1       295    8    0    1
 -2        72       228       179      1463      1464      1316
 -1       296    8    0    1
 -2        73        74       229      1174      1465      1466
 -1       297    8    0    1
 -2        73       229       228      1466      1467      1462
 -1       298    8    0    1
 -2        74        75       230      1175      1468      1469
 -1       299    8    0    1
 -2        74       230       229      1469      1470      1465
 -1       300    8    0    1
 -2        75        76       231      1176      1471      1472
 -1       301    8    0    1
 -2        75       231       230      1472      1473      1468
 -1       302    8    0    1
 -2        76        77       232      1177      1474      1475
 -1       303    8    0    1
 -2        76       232       231      1475      1476      1471
 -1       304    8    0    1
 -2        77        78       233      1178      1477      1478
 -1       305    8    0    1
 -2        77       233       232      1478      1479      1474
 -1       306    8    0    1
 -2        78        79       234      1179      1480      1481
 -1       307    8    0    1
 -2        78       234       233      1481      1482      1477
 -1       308    8    0    1
 -2        79        80       235      1180      1483      1484
 -1       309    8    0    1
 -2        79       235       234      1484      1485      1480
 -1       310    8    0    1
 -2        80        81       236      1181      1486      1487
 -1       311    8    0    1
 -2        80       236       235      1487      1488      1483
 -1       312    8    0    1
 -2        81        82       237      1182      1489      1490
 -1       313    8    0    1
 -2        81       237       236      1490      1491      1486
 -1       314    8    0    1
 -2        82        83       238      1183      1492      1493
 -1       315    8    0    1
 -2        82       238       237      1493      1494      1489
 -1       316    8    0    1
 -2        83        84       239      1184      1495      1496
 -1       317    8    0    1
 -2        83       239       238      1496      1497      1492
 -1       318    8    0    1
 -2        84        85       240      1185      1498      1499
 -1       319    8    0    1
 -2        84       240       239      1499      1500      1495
 -1       320    8    0    1
 -2        85        86       241      1186      1501      1502
 -1       321    8    0    1
 -2        85       241       240      1502      1503      1498
 -1       322    8    0    1
 -2        86        87       242      1187      1504      1505
 -1       323    8    0    1
 -2        86       242       241      1505      1506      1501
 -1       324    8    0    1
 -2        87        88       243      1188      1507      1508
 -1       325    8    0    1
 -2        87       243       242      1508      1509      1504
 -1       326    8    0    1
 -2        88        89       244      1189      1510      1511
 -1       327    8    0    1
 -2        88       244       243      1511      1512      1507
 -1       328    8    0    1
 -2        89        90       245      1190      1513      1514
 -1       329    8    0    1
 -2        89       245       244      1514      1515      1510
 -1       330    8    0    1
 -2        90        91       246      1191      1516      1517
 -1       331    8    0    1
 -2        90       246       245      1517      1518      1513
 -1       332    8    0    1
 -2        91        92       247      1192      1519      1520
 -1       333    8    0    1
 -2        91       247       246      1520      1521      1516
 -1       334    8    0    1
 -2        92        93       248      1193      1522      1523
 -1       335    8    0    1
 -2        92       248       247      1523      1524      1519
 -1       336    8    0    1
 -2        93        94       249      1194      1525      1526
 -1       337    8    0    1
 -2        93       249       248      1526      1527      1522
 -1       338    8    0    1
 -2        94        95       250      1195      1528      1529
 -1       339    8    0    1
 -2        94       250       249      1529      1530      1525
 -1       340    8    0    1
 -2        95        96       251      1196      1531      1532
 -1       341    8    0    1
 -2        95       251       250      1532      1533      1528
 -1       342    8    0    1
 -2        96        97       252      1197      1534      1535
 -1       343    8    0    1
 -2        96       252       251      1535      1536      1531
 -1       344    8    0    1
 -2        97        98       253      1198      1537      1538
 -1       345    8    0    1
 -2        97       253       252      1538      1539      1534
 -1       346    8    0    1
 -2        98        99       254      1199      1540      1541
 -1       347    8    0    1
 -2        98       254       253      1541      1542      1537
 -1       348    8    0    1
 -2        99       100       255      1200      1543      1544
 -1       349    8    0    1
 -2        99       255       254      1544      1545      1540
 -1       350    8    0    1
 -2       100       101       256      1201      1546      1547
 -1       351    8    0    1
 -2       100       256       255      1547      1548      1543
 -1       352    8    0    1
 -2       101       102       257      1202      1549      1550
 -1       353    8    0    1
 -2       101       257       256      1550      1551      1546
 -1       354    8    0    1
 -2       102       103       258      1203      1552      1553
 -1       355    8    0    1
 -2       102       258       257      1553      1554      1549
 -1       356    8    0    1
 -2       103       104       259      1204      1555      1556
 -1       357    8    0    1
 -2       103       259       258      1556      1557      1552
 -1       358    8    0    1
 -2       104       105       260      1205      1558      1559
 -1       359    8    0    1
 -2       104       260       259      1559      1560      1555
 -1       360    8    0    1
 -2       105       106       261      1206      1561      1562
 -1       361    8    0    1
 -2       105       261       260      1562      1563      1558
 -1       362    8    0    1
 -2       106       107       262      1207      1564      1565
 -1       363    8    0    1
 -2       106       262       261      1565      1566      1561
 -1       364    8    0    1
 -2       107       108       263      1208      1567      1568
 -1       365    8    0    1
 -2       107       263       262      1568      1569      1564
 -1       366    8    0    1
 -2       108       109       264      1209      1570      1571
 -1       367    8    0    1
 -2       108       264       263      1571      1572      1567
 -1       368    8    0    1
 -2       109       110       265      1210      1573      1574
 -1       369    8    0    1
 -2       109       265       264      1574      1575      1570
 -1       370    8    0    1
 -2       110       111       266      1211      1576      1577
 -1       371    8    0    1
 -2       110       266       265      1577      1578      1573
 -1       372    8    0    1
 -2       111       112       267      1212      1579      1580
 -1       373    8    0    1
 -2       111       267       266      1580      1581      1576
 -1       374    8    0    1
 -2       112       113       268      1213      1582      1583
 -1       375    8    0    1
 -2       112       268       267      1583      1584      1579
 -1       376    8    0    1
 -2       113       114       269      1214      1585      1586
 -1       377    8    0    1
 -2       113       269       268      1586      1587      1582
 -1       378    8    0    1
 -2       114       115       270      1215      1588      1589
 -1       379    8    0    1
 -2       114       270       269      1589      1590      1585
 -1       380    8    0    1
 -2       115       116       271      1216      1591      1592
 -1       381    8    0    1
 -2       115       271       270      1592      1593      1588
 -1       382    8    0    1
 -2       116       117       272      1217      1594      1595
 -1       383    8    0    1
 -2       116       272       271      1595      1596      1591
 -1       384    8    0    1
 -2       117       118       273      1218      1597      1598
 -1       385    8    0    1
 -2       117       273       272      1598      1599      1594
 -1       386    8    0    1
 -2       118       119       274      1219      1600      1601
 -1       387    8    0    1
 -2       118       274       273      1601      1602      1597
 -1       388    8    0    1
 -2       119       120       275      1220      1603      1604
 -1       389    8    0    1
 -2       119       275       274      1604      1605      1600
 -1       390    8    0    1
 -2       120         3       121      1221      1222      1606
 -1       391    8    0    1
 -2       121       122       276      1223      1607      1608
 -1       392    8    0    1
 -2       122       123       277      1224      1609      1610
 -1       393    8    0    1
 -2       122       277       276      1610      1611      1607
 -1       394    8    0    1
 -2       123       124       278      1225      1612      1613
 -1       395    8    0    1
 -2       123       278       277      1613      1614      1609
 -1       396    8    0    1
 -2       124       125       279      1226      1615      1616
 -1       397    8    0    1
 -2       124       279       278      1616      1617      1612
 -1       398    8    0    1
 -2       125       126       280      1227      1618      1619
 -1       399    8    0    1
 -2       125       280       279      1619      1620      1615
 -1       400    8    0    1
 -2       126       127       281      1228      1621      1622
 -1       401    8    0    1
 -2       126       281       280      1622      1623      1618
 -1       402    8    0    1
 -2       127       128       282      1229      1624      1625
 -1       403    8    0    1
 -2       127       282       281      1625      1626      1621
 -1       404    8    0    1
 -2       128       129       283      1230      1627      1628
 -1       405    8    0    1
 -2       128       283       282      1628      1629      1624
 -1       406    8    0    1
 -2       129       130       284      1231      1630      1631
 -1       407    8    0    1
 -2       129       284       283      1631      1632      1627
 -1       408    8    0    1
 -2       130       131       285      1232      1633      1634
 -1       409    8    0    1
 -2       130       285       284      1634      1635      1630
 -1       410    8    0    1
 -2       131       132       286      1233      1636      1637
 -1       411    8    0    1
 -2       131       286       285      1637      1638      1633
 -1       412    8    0    1
 -2       132       133       287      1234      1639      1640
 -1       413    8    0    1
 -2       132       287       286      1640      1641      1636
 -1       414    8    0    1
 -2       133       134       288      1235      1642      1643
 -1       415    8    0    1
 -2       133       288       287      1643      1644      1639
 -1       416    8    0    1
 -2       134       135       289      1236      1645      1646
 -1       417    8    0    1
 -2       134       289       288      1646      1647      1642
 -1       418    8    0    1
 -2       135       136       290      1237      1648      1649
 -1       419    8    0    1
 -2       289       135       290      1645      1649      1650
 -1       420    8    0    1
 -2       136       227       290      1461      1651      1648
 -1       421    8    0    1
 -2         2       137       291      1239      1652      1653
 -1       422    8    0    1
 -2       137       138       292      1240      1654      1655
 -1       423    8    0    1
 -2       138       139       293      1241      1656      1657
 -1       424    8    0    1
 -2       139       140       294      1242      1658      1659
 -1       425    8    0    1
 -2       140       141       295      1243      1660      1661
 -1       426    8    0    1
 -2       141       142       296      1244      1662      1663
 -1       427    8    0    1
 -2       142       143       297      1245      1664      1665
 -1       428    8    0    1
 -2       143       144       298      1246      1666      1667
 -1       429    8    0    1
 -2       144       145       299      1247      1668      1669
 -1       430    8    0    1
 -2       145       146       300      1248      1670      1671
 -1       431    8    0    1
 -2       146       147       301      1249      1672      1673
 -1       432    8    0    1
 -2       147       148       302      1250      1674      1675
 -1       433    8    0    1
 -2       148       149       303      1251      1676      1677
 -1       434    8    0    1
 -2       149       150       304      1252      1678      1679
 -1       435    8    0    1
 -2       150       151       305      1253      1680      1681
 -1       436    8    0    1
 -2       151       152       306      1254      1682      1683
 -1       437    8    0    1
 -2       152       153       307      1255      1684      1685
 -1       438    8    0    1
 -2       153       154       308      1256      1686      1687
 -1       439    8    0    1
 -2       154       155       309      1257      1688      1689
 -1       440    8    0    1
 -2       155       156       310      1258      1690      1691
 -1       441    8    0    1
 -2       156       157       311      1259      1692      1693
 -1       442    8    0    1
 -2       157       158       312      1260      1694      1695
 -1       443    8    0    1
 -2       158       159       313      1261      1696      1697
 -1       444    8    0    1
 -2       159         1       314      1262      1698      1699
 -1       445    8    0    1
 -2         1       160       315      1263      1700      1701
 -1       446    8    0    1
 -2       160       161       316      1264      1702      1703
 -1       447    8    0    1
 -2       161       162       317      1265      1704      1705
 -1       448    8    0    1
 -2       162       163       318      1266      1706      1707
 -1       449    8    0    1
 -2       163         2       319      1267      1708      1709
 -1       450    8    0    1
 -2       294       140       295      1658      1661      1710
 -1       451    8    0    1
 -2       293       139       294      1656      1659      1711
 -1       452    8    0    1
 -2       120       121       275      1606      1712      1603
 -1       453    8    0    1
 -2       121       276       275      1608      1713      1712
 -1       454    8    0    1
 -2       291       137       292      1652      1655      1714
 -1       455    8    0    1
 -2       292       138       293      1654      1657      1715
 -1       456    8    0    1
 -2         2       291       319      1653      1716      1708
 -1       457    8    0    1
 -2       141       296       295      1663      1717      1660
 -1       458    8    0    1
 -2       142       297       296      1665      1718      1662
 -1       459    8    0    1
 -2       143       298       297      1667      1719      1664
 -1       460    8    0    1
 -2       144       299       298      1669      1720      1666
 -1       461    8    0    1
 -2       145       300       299      1671      1721      1668
 -1       462    8    0    1
 -2       146       301       300      1673      1722      1670
 -1       463    8    0    1
 -2       147       302       301      1675      1723      1672
 -1       464    8    0    1
 -2       148       303       302      1677      1724      1674
 -1       465    8    0    1
 -2       149       304       303      1679      1725      1676
 -1       466    8    0    1
 -2       150       305       304      1681      1726      1678
 -1       467    8    0    1
 -2       151       306       305      1683      1727      1680
 -1       468    8    0    1
 -2       152       307       306      1685      1728      1682
 -1       469    8    0    1
 -2       153       308       307      1687      1729      1684
 -1       470    8    0    1
 -2       154       309       308      1689      1730      1686
 -1       471    8    0    1
 -2       155       310       309      1691      1731      1688
 -1       472    8    0    1
 -2       156       311       310      1693      1732      1690
 -1       473    8    0    1
 -2       157       312       311      1695      1733      1692
 -1       474    8    0    1
 -2       158       313       312      1697      1734      1694
 -1       475    8    0    1
 -2       159       314       313      1699      1735      1696
 -1       476    8    0    1
 -2         1       315       314      1701      1736      1698
 -1       477    8    0    1
 -2       160       316       315      1703      1737      1700
 -1       478    8    0    1
 -2       161       317       316      1705      1738      1702
 -1       479    8    0    1
 -2       162       318       317      1707      1739      1704
 -1       480    8    0    1
 -2       163       319       318      1709      1740      1706
 -1       481    8    0    1
 -2        23         7       164      1268      1270      1741
 -1       482    8    0    1
 -2       165       166       320      1276      1742      1743
 -1       483    8    0    1
 -2       164       165       321      1273      1744      1745
 -1       484    8    0    1
 -2       165       320       321      1743      1746      1744
 -1       485    8    0    1
 -2       167       168       322      1282      1747      1748
 -1       486    8    0    1
 -2       168       169       323      1285      1749      1750
 -1       487    8    0    1
 -2       168       323       322      1750      1751      1747
 -1       488    8    0    1
 -2       169       170       324      1288      1752      1753
 -1       489    8    0    1
 -2       169       324       323      1753      1754      1749
 -1       490    8    0    1
 -2       170       171       325      1291      1755      1756
 -1       491    8    0    1
 -2       170       325       324      1756      1757      1752
 -1       492    8    0    1
 -2       171       172       326      1294      1758      1759
 -1       493    8    0    1
 -2       171       326       325      1759      1760      1755
 -1       494    8    0    1
 -2       172       173       327      1297      1761      1762
 -1       495    8    0    1
 -2       172       327       326      1762      1763      1758
 -1       496    8    0    1
 -2       173       174       328      1300      1764      1765
 -1       497    8    0    1
 -2       173       328       327      1765      1766      1761
 -1       498    8    0    1
 -2       174       175       329      1303      1767      1768
 -1       499    8    0    1
 -2       174       329       328      1768      1769      1764
 -1       500    8    0    1
 -2       175       176       330      1306      1770      1771
 -1       501    8    0    1
 -2       175       330       329      1771      1772      1767
 -1       502    8    0    1
 -2       176       177       331      1309      1773      1774
 -1       503    8    0    1
 -2       176       331       330      1774      1775      1770
 -1       504    8    0    1
 -2       177       178       332      1312      1776      1777
 -1       505    8    0    1
 -2       177       332       331      1777      1778      1773
 -1       506    8    0    1
 -2       178       179       333      1315      1779      1780
 -1       507    8    0    1
 -2       332       178       333      1776      1780      1781
 -1       508    8    0    1
 -2       179       228       333      1464      1782      1779
 -1       509    8    0    1
 -2       180        23       164      1317      1741      1783
 -1       510    8    0    1
 -2       228       229       334      1467      1784      1785
 -1       511    8    0    1
 -2       228       334       333      1785      1786      1782
 -1       512    8    0    1
 -2       180       164       321      1783      1745      1787
 -1       513    8    0    1
 -2       182       181       335      1324      1788      1789
 -1       514    8    0    1
 -2       183       182       336      1327      1790      1791
 -1       515    8    0    1
 -2       182       335       336      1789      1792      1790
 -1       516    8    0    1
 -2       184       183       337      1330      1793      1794
 -1       517    8    0    1
 -2       183       336       337      1791      1795      1793
 -1       518    8    0    1
 -2       185       184       338      1333      1796      1797
 -1       519    8    0    1
 -2       184       337       338      1794      1798      1796
 -1       520    8    0    1
 -2       186       185       339      1336      1799      1800
 -1       521    8    0    1
 -2       185       338       339      1797      1801      1799
 -1       522    8    0    1
 -2       187       186       340      1339      1802      1803
 -1       523    8    0    1
 -2       186       339       340      1800      1804      1802
 -1       524    8    0    1
 -2       188       187       341      1342      1805      1806
 -1       525    8    0    1
 -2       187       340       341      1803      1807      1805
 -1       526    8    0    1
 -2       189       188       342      1345      1808      1809
 -1       527    8    0    1
 -2       188       341       342      1806      1810      1808
 -1       528    8    0    1
 -2       190       189       343      1348      1811      1812
 -1       529    8    0    1
 -2       189       342       343      1809      1813      1811
 -1       530    8    0    1
 -2       191       190       344      1351      1814      1815
 -1       531    8    0    1
 -2       190       343       344      1812      1816      1814
 -1       532    8    0    1
 -2       192       191       345      1354      1817      1818
 -1       533    8    0    1
 -2       191       344       345      1815      1819      1817
 -1       534    8    0    1
 -2       193       192       346      1357      1820      1821
 -1       535    8    0    1
 -2       192       345       346      1818      1822      1820
 -1       536    8    0    1
 -2       194       193       347      1360      1823      1824
 -1       537    8    0    1
 -2       193       346       347      1821      1825      1823
 -1       538    8    0    1
 -2       195       194       348      1363      1826      1827
 -1       539    8    0    1
 -2       194       347       348      1824      1828      1826
 -1       540    8    0    1
 -2       196       195       349      1366      1829      1830
 -1       541    8    0    1
 -2       195       348       349      1827      1831      1829
 -1       542    8    0    1
 -2       197       196       350      1369      1832      1833
 -1       543    8    0    1
 -2       196       349       350      1830      1834      1832
 -1       544    8    0    1
 -2       198       197       351      1372      1835      1836
 -1       545    8    0    1
 -2       197       350       351      1833      1837      1835
 -1       546    8    0    1
 -2       199       198       352      1375      1838      1839
 -1       547    8    0    1
 -2       198       351       352      1836      1840      1838
 -1       548    8    0    1
 -2       200       199       353      1378      1841      1842
 -1       549    8    0    1
 -2       199       352       353      1839      1843      1841
 -1       550    8    0    1
 -2       201       200       354      1381      1844      1845
 -1       551    8    0    1
 -2       200       353       354      1842      1846      1844
 -1       552    8    0    1
 -2       202       201       355      1384      1847      1848
 -1       553    8    0    1
 -2       201       354       355      1845      1849      1847
 -1       554    8    0    1
 -2       203       202       356      1387      1850      1851
 -1       555    8    0    1
 -2       202       355       356      1848      1852      1850
 -1       556    8    0    1
 -2       204       203       357      1390      1853      1854
 -1       557    8    0    1
 -2       203       356       357      1851      1855      1853
 -1       558    8    0    1
 -2       205       204       358      1393      1856      1857
 -1       559    8    0    1
 -2       204       357       358      1854      1858      1856
 -1       560    8    0    1
 -2       206       205       359      1396      1859      1860
 -1       561    8    0    1
 -2       205       358       359      1857      1861      1859
 -1       562    8    0    1
 -2       207       206       360      1399      1862      1863
 -1       563    8    0    1
 -2       206       359       360      1860      1864      1862
 -1       564    8    0    1
 -2       208       207       361      1402      1865      1866
 -1       565    8    0    1
 -2       207       360       361      1863      1867      1865
 -1       566    8    0    1
 -2       209       208       362      1405      1868      1869
 -1       567    8    0    1
 -2       208       361       362      1866      1870      1868
 -1       568    8    0    1
 -2       210       209       363      1408      1871      1872
 -1       569    8    0    1
 -2       209       362       363      1869      1873      1871
 -1       570    8    0    1
 -2       211       210       364      1411      1874      1875
 -1       571    8    0    1
 -2       210       363       364      1872      1876      1874
 -1       572    8    0    1
 -2       212       211       365      1414      1877      1878
 -1       573    8    0    1
 -2       211       364       365      1875      1879      1877
 -1       574    8    0    1
 -2       213       212       366      1417      1880      1881
 -1       575    8    0    1
 -2       212       365       366      1878      1882      1880
 -1       576    8    0    1
 -2       214       213       367      1420      1883      1884
 -1       577    8    0    1
 -2       213       366       367      1881      1885      1883
 -1       578    8    0    1
 -2       215       214       368      1423      1886      1887
 -1       579    8    0    1
 -2       214       367       368      1884      1888      1886
 -1       580    8    0    1
 -2       216       215       369      1426      1889      1890
 -1       581    8    0    1
 -2       215       368       369      1887      1891      1889
 -1       582    8    0    1
 -2       217       216       370      1429      1892      1893
 -1       583    8    0    1
 -2       216       369       370      1890      1894      1892
 -1       584    8    0    1
 -2       218       217       371      1432      1895      1896
 -1       585    8    0    1
 -2       217       370       371      1893      1897      1895
 -1       586    8    0    1
 -2       219       218       372      1435      1898      1899
 -1       587    8    0    1
 -2       218       371       372      1896      1900      1898
 -1       588    8    0    1
 -2       220       219       373      1438      1901      1902
 -1       589    8    0    1
 -2       219       372       373      1899      1903      1901
 -1       590    8    0    1
 -2       221       220       374      1441      1904      1905
 -1       591    8    0    1
 -2       220       373       374      1902      1906      1904
 -1       592    8    0    1
 -2       222       221       375      1444      1907      1908
 -1       593    8    0    1
 -2       221       374       375      1905      1909      1907
 -1       594    8    0    1
 -2       223       222       376      1447      1910      1911
 -1       595    8    0    1
 -2       222       375       376      1908      1912      1910
 -1       596    8    0    1
 -2       224       223       377      1450      1913      1914
 -1       597    8    0    1
 -2       223       376       377      1911      1915      1913
 -1       598    8    0    1
 -2       225       224       378      1453      1916      1917
 -1       599    8    0    1
 -2       224       377       378      1914      1918      1916
 -1       600    8    0    1
 -2       226       225       379      1456      1919      1920
 -1       601    8    0    1
 -2       225       378       379      1917      1921      1919
 -1       602    8    0    1
 -2       227       226       380      1459      1922      1923
 -1       603    8    0    1
 -2       290       227       380      1651      1923      1924
 -1       604    8    0    1
 -2       226       379       380      1920      1925      1922
 -1       605    8    0    1
 -2       229       230       381      1470      1926      1927
 -1       606    8    0    1
 -2       229       381       334      1927      1928      1784
 -1       607    8    0    1
 -2       230       231       382      1473      1929      1930
 -1       608    8    0    1
 -2       230       382       381      1930      1931      1926
 -1       609    8    0    1
 -2       231       232       383      1476      1932      1933
 -1       610    8    0    1
 -2       231       383       382      1933      1934      1929
 -1       611    8    0    1
 -2       232       233       384      1479      1935      1936
 -1       612    8    0    1
 -2       232       384       383      1936      1937      1932
 -1       613    8    0    1
 -2       233       234       385      1482      1938      1939
 -1       614    8    0    1
 -2       233       385       384      1939      1940      1935
 -1       615    8    0    1
 -2       234       235       386      1485      1941      1942
 -1       616    8    0    1
 -2       234       386       385      1942      1943      1938
 -1       617    8    0    1
 -2       235       236       387      1488      1944      1945
 -1       618    8    0    1
 -2       235       387       386      1945      1946      1941
 -1       619    8    0    1
 -2       236       237       388      1491      1947      1948
 -1       620    8    0    1
 -2       236       388       387      1948      1949      1944
 -1       621    8    0    1
 -2       237       238       389      1494      1950      1951
 -1       622    8    0    1
 -2       237       389       388      1951      1952      1947
 -1       623    8    0    1
 -2       238       239       390      1497      1953      1954
 -1       624    8    0    1
 -2       238       390       389      1954      1955      1950
 -1       625    8    0    1
 -2       239       240       391      1500      1956      1957
 -1       626    8    0    1
 -2       239       391       390      1957      1958      1953
 -1       627    8    0    1
 -2       240       241       392      1503      1959      1960
 -1       628    8    0    1
 -2       240       392       391      1960      1961      1956
 -1       629    8    0    1
 -2       241       242       393      1506      1962      1963
 -1       630    8    0    1
 -2       241       393       392      1963      1964      1959
 -1       631    8    0    1
 -2       242       243       394      1509      1965      1966
 -1       632    8    0    1
 -2       242       394       393      1966      1967      1962
 -1       633    8    0    1
 -2       243       244       395      1512      1968      1969
 -1       634    8    0    1
 -2       243       395       394      1969      1970      1965
 -1       635    8    0    1
 -2       244       245       396      1515      1971      1972
 -1       636    8    0    1
 -2       244       396       395      1972      1973      1968
 -1       637    8    0    1
 -2       245       246       397      1518      1974      1975
 -1       638    8    0    1
 -2       245       397       396      1975      1976      1971
 -1       639    8    0    1
 -2       246       247       398      1521      1977      1978
 -1       640    8    0    1
 -2       246       398       397      1978      1979      1974
 -1       641    8    0    1
 -2       247       248       399      1524      1980      1981
 -1       642    8    0    1
 -2       247       399       398      1981      1982      1977
 -1       643    8    0    1
 -2       248       249       400      1527      1983      1984
 -1       644    8    0    1
 -2       248       400       399      1984      1985      1980
 -1       645    8    0    1
 -2       249       250       401      1530      1986      1987
 -1       646    8    0    1
 -2       249       401       400      1987      1988      1983
 -1       647    8    0    1
 -2       250       251       402      1533      1989      1990
 -1       648    8    0    1
 -2       250       402       401      1990      1991      1986
 -1       649    8    0    1
 -2       251       252       403      1536      1992      1993
 -1       650    8    0    1
 -2       251       403       402      1993      1994      1989
 -1       651    8    0    1
 -2       252       253       404      1539      1995      1996
 -1       652    8    0    1
 -2       252       404       403      1996      1997      1992
 -1       653    8    0    1
 -2       253       254       405      1542      1998      1999
 -1       654    8    0    1
 -2       253       405       404      1999      2000      1995
 -1       655    8    0    1
 -2       254       255       406      1545      2001      2002
 -1       656    8    0    1
 -2       254       406       405      2002      2003      1998
 -1       657    8    0    1
 -2       255       256       407      1548      2004      2005
 -1       658    8    0    1
 -2       255       407       406      2005      2006      2001
 -1       659    8    0    1
 -2       256       257       408      1551      2007      2008
 -1       660    8    0    1
 -2       256       408       407      2008      2009      2004
 -1       661    8    0    1
 -2       257       258       409      1554      2010      2011
 -1       662    8    0    1
 -2       257       409       408      2011      2012      2007
 -1       663    8    0    1
 -2       258       259       410      1557      2013      2014
 -1       664    8    0    1
 -2       258       410       409      2014      2015      2010
 -1       665    8    0    1
 -2       259       260       411      1560      2016      2017
 -1       666    8    0    1
 -2       259       411       410      2017      2018      2013
 -1       667    8    0    1
 -2       260       261       412      1563      2019      2020
 -1       668    8    0    1
 -2       260       412       411      2020      2021      2016
 -1       669    8    0    1
 -2       261       262       413      1566      2022      2023
 -1       670    8    0    1
 -2       261       413       412      2023      2024      2019
 -1       671    8    0    1
 -2       262       263       414      1569      2025      2026
 -1       672    8    0    1
 -2       262       414       413      2026      2027      2022
 -1       673    8    0    1
 -2       263       264       415      1572      2028      2029
 -1       674    8    0    1
 -2       263       415       414      2029      2030      2025
 -1       675    8    0    1
 -2       264       265       416      1575      2031      2032
 -1       676    8    0    1
 -2       264       416       415      2032      2033      2028
 -1       677    8    0    1
 -2       265       266       417      1578      2034      2035
 -1       678    8    0    1
 -2       265       417       416      2035      2036      2031
 -1       679    8    0    1
 -2       266       267       418      1581      2037      2038
 -1       680    8    0    1
 -2       266       418       417      2038      2039      2034
 -1       681    8    0    1
 -2       267       268       419      1584      2040      2041
 -1       682    8    0    1
 -2       267       419       418      2041      2042      2037
 -1       683    8    0    1
 -2       268       269       420      1587      2043      2044
 -1       684    8    0    1
 -2       268       420       419      2044      2045      2040
 -1       685    8    0    1
 -2       269       270       421      1590      2046      2047
 -1       686    8    0    1
 -2       269       421       420      2047      2048      2043
 -1       687    8    0    1
 -2       270       271       422      1593      2049      2050
 -1       688    8    0    1
 -2       270       422       421      2050      2051      2046
 -1       689    8    0    1
 -2       271       272       423      1596      2052      2053
 -1       690    8    0    1
 -2       271       423       422      2053      2054      2049
 -1       691    8    0    1
 -2       272       273       424      1599      2055      2056
 -1       692    8    0    1
 -2       272       424       423      2056      2057      2052
 -1       693    8    0    1
 -2       273       274       425      1602      2058      2059
 -1       694    8    0    1
 -2       273       425       424      2059      2060      2055
 -1       695    8    0    1
 -2       274       275       426      1605      2061      2062
 -1       696    8    0    1
 -2       425       274       426      2058      2062      2063
 -1       697    8    0    1
 -2       275       276       426      1713      2064      2061
 -1       698    8    0    1
 -2       278       279       427      1617      2065      2066
 -1       699    8    0    1
 -2       277       278       428      1614      2067      2068
 -1       700    8    0    1
 -2       278       427       428      2066      2069      2067
 -1       701    8    0    1
 -2       276       277       429      1611      2070      2071
 -1       702    8    0    1
 -2       426       276       429      2064      2071      2072
 -1       703    8    0    1
 -2       277       428       429      2068      2073      2070
 -1       704    8    0    1
 -2       279       280       430      1620      2074      2075
 -1       705    8    0    1
 -2       279       430       427      2075      2076      2065
 -1       706    8    0    1
 -2       280       281       431      1623      2077      2078
 -1       707    8    0    1
 -2       280       431       430      2078      2079      2074
 -1       708    8    0    1
 -2       281       282       432      1626      2080      2081
 -1       709    8    0    1
 -2       281       432       431      2081      2082      2077
 -1       710    8    0    1
 -2       282       283       433      1629      2083      2084
 -1       711    8    0    1
 -2       282       433       432      2084      2085      2080
 -1       712    8    0    1
 -2       283       284       434      1632      2086      2087
 -1       713    8    0    1
 -2       283       434       433      2087      2088      2083
 -1       714    8    0    1
 -2       284       285       435      1635      2089      2090
 -1       715    8    0    1
 -2       284       435       434      2090      2091      2086
 -1       716    8    0    1
 -2       285       286       436      1638      2092      2093
 -1       717    8    0    1
 -2       285       436       435      2093      2094      2089
 -1       718    8    0    1
 -2       286       287       437      1641      2095      2096
 -1       719    8    0    1
 -2       286       437       436      2096      2097      2092
 -1       720    8    0    1
 -2       287       288       438      1644      2098      2099
 -1       721    8    0    1
 -2       287       438       437      2099      2100      2095
 -1       722    8    0    1
 -2       288       289       439      1647      2101      2102
 -1       723    8    0    1
 -2       288       439       438      2102      2103      2098
 -1       724    8    0    1
 -2       292       293       440      1715      2104      2105
 -1       725    8    0    1
 -2       319       291       441      1716      2106      2107
 -1       726    8    0    1
 -2       291       292       442      1714      2108      2109
 -1       727    8    0    1
 -2       293       294       443      1711      2110      2111
 -1       728    8    0    1
 -2       293       443       440      2111      2112      2104
 -1       729    8    0    1
 -2       294       295       444      1710      2113      2114
 -1       730    8    0    1
 -2       166       167       445      1279      2115      2116
 -1       731    8    0    1
 -2       320       166       445      1742      2116      2117
 -1       732    8    0    1
 -2       167       322       445      1748      2118      2115
 -1       733    8    0    1
 -2       296       297       446      1718      2119      2120
 -1       734    8    0    1
 -2       297       298       447      1719      2121      2122
 -1       735    8    0    1
 -2       298       299       448      1720      2123      2124
 -1       736    8    0    1
 -2       298       448       447      2124      2125      2121
 -1       737    8    0    1
 -2       299       300       449      1721      2126      2127
 -1       738    8    0    1
 -2       300       301       450      1722      2128      2129
 -1       739    8    0    1
 -2       301       302       451      1723      2130      2131
 -1       740    8    0    1
 -2       302       303       452      1724      2132      2133
 -1       741    8    0    1
 -2       303       304       453      1725      2134      2135
 -1       742    8    0    1
 -2       304       305       454      1726      2136      2137
 -1       743    8    0    1
 -2       305       306       455      1727      2138      2139
 -1       744    8    0    1
 -2       306       307       456      1728      2140      2141
 -1       745    8    0    1
 -2       307       308       457      1729      2142      2143
 -1       746    8    0    1
 -2       308       309       458      1730      2144      2145
 -1       747    8    0    1
 -2       308       458       457      2145      2146      2142
 -1       748    8    0    1
 -2       309       310       459      1731      2147      2148
 -1       749    8    0    1
 -2       310       311       460      1732      2149      2150
 -1       750    8    0    1
 -2       311       312       461      1733      2151      2152
 -1       751    8    0    1
 -2       312       313       462      1734      2153      2154
 -1       752    8    0    1
 -2       313       314       463      1735      2155      2156
 -1       753    8    0    1
 -2       314       315       464      1736      2157      2158
 -1       754    8    0    1
 -2       315       316       465      1737      2159      2160
 -1       755    8    0    1
 -2       316       317       466      1738      2161      2162
 -1       756    8    0    1
 -2       317       318       467      1739      2163      2164
 -1       757    8    0    1
 -2       318       319       468      1740      2165      2166
 -1       758    8    0    1
 -2       295       296       469      1717      2167      2168
 -1       759    8    0    1
 -2       443       294       444      2110      2114      2169
 -1       760    8    0    1
 -2       180       321       181      1787      2170      1321
 -1       761    8    0    1
 -2       296       446       469      2120      2171      2167
 -1       762    8    0    1
 -2       335       181       321      1788      2170      2172
 -1       763    8    0    1
 -2       442       292       440      2108      2105      2173
 -1       764    8    0    1
 -2       441       291       442      2106      2109      2174
 -1       765    8    0    1
 -2       439       289       290      2101      1650      2175
 -1       766    8    0    1
 -2       319       441       468      2107      2176      2165
 -1       767    8    0    1
 -2       444       295       469      2113      2168      2177
 -1       768    8    0    1
 -2       467       318       468      2163      2166      2178
 -1       769    8    0    1
 -2       466       317       467      2161      2164      2179
 -1       770    8    0    1
 -2       465       316       466      2159      2162      2180
 -1       771    8    0    1
 -2       464       315       465      2157      2160      2181
 -1       772    8    0    1
 -2       463       314       464      2155      2158      2182
 -1       773    8    0    1
 -2       462       313       463      2153      2156      2183
 -1       774    8    0    1
 -2       461       312       462      2151      2154      2184
 -1       775    8    0    1
 -2       460       311       461      2149      2152      2185
 -1       776    8    0    1
 -2       458       309       459      2144      2148      2186
 -1       777    8    0    1
 -2       456       307       457      2140      2143      2187
 -1       778    8    0    1
 -2       455       306       456      2138      2141      2188
 -1       779    8    0    1
 -2       454       305       455      2136      2139      2189
 -1       780    8    0    1
 -2       453       304       454      2134      2137      2190
 -1       781    8    0    1
 -2       452       303       453      2132      2135      2191
 -1       782    8    0    1
 -2       451       302       452      2130      2133      2192
 -1       783    8    0    1
 -2       450       301       451      2128      2131      2193
 -1       784    8    0    1
 -2       448       299       449      2123      2127      2194
 -1       785    8    0    1
 -2       446       297       470      2119      2195      2196
 -1       786    8    0    1
 -2       297       447       470      2122      2197      2195
 -1       787    8    0    1
 -2       449       300       450      2126      2129      2198
 -1       788    8    0    1
 -2       459       310       460      2147      2150      2199
 -1       789    8    0    1
 -2       334       381       471      1928      2200      2201
 -1       790    8    0    1
 -2       323       324       472      1754      2202      2203
 -1       791    8    0    1
 -2       322       323       473      1751      2204      2205
 -1       792    8    0    1
 -2       323       472       473      2203      2206      2204
 -1       793    8    0    1
 -2       325       326       474      1760      2207      2208
 -1       794    8    0    1
 -2       326       327       475      1763      2209      2210
 -1       795    8    0    1
 -2       326       475       474      2210      2211      2207
 -1       796    8    0    1
 -2       327       328       476      1766      2212      2213
 -1       797    8    0    1
 -2       327       476       475      2213      2214      2209
 -1       798    8    0    1
 -2       328       329       477      1769      2215      2216
 -1       799    8    0    1
 -2       328       477       476      2216      2217      2212
 -1       800    8    0    1
 -2       329       330       478      1772      2218      2219
 -1       801    8    0    1
 -2       329       478       477      2219      2220      2215
 -1       802    8    0    1
 -2       330       331       479      1775      2221      2222
 -1       803    8    0    1
 -2       330       479       478      2222      2223      2218
 -1       804    8    0    1
 -2       381       382       480      1931      2224      2225
 -1       805    8    0    1
 -2       381       480       471      2225      2226      2200
 -1       806    8    0    1
 -2       336       335       481      1792      2227      2228
 -1       807    8    0    1
 -2       469       446       482      2171      2229      2230
 -1       808    8    0    1
 -2       337       336       483      1795      2231      2232
 -1       809    8    0    1
 -2       336       481       483      2228      2233      2231
 -1       810    8    0    1
 -2       338       337       484      1798      2234      2235
 -1       811    8    0    1
 -2       337       483       484      2232      2236      2234
 -1       812    8    0    1
 -2       339       338       485      1801      2237      2238
 -1       813    8    0    1
 -2       338       484       485      2235      2239      2237
 -1       814    8    0    1
 -2       340       339       486      1804      2240      2241
 -1       815    8    0    1
 -2       339       485       486      2238      2242      2240
 -1       816    8    0    1
 -2       341       340       487      1807      2243      2244
 -1       817    8    0    1
 -2       340       486       487      2241      2245      2243
 -1       818    8    0    1
 -2       342       341       488      1810      2246      2247
 -1       819    8    0    1
 -2       341       487       488      2244      2248      2246
 -1       820    8    0    1
 -2       343       342       489      1813      2249      2250
 -1       821    8    0    1
 -2       342       488       489      2247      2251      2249
 -1       822    8    0    1
 -2       344       343       490      1816      2252      2253
 -1       823    8    0    1
 -2       343       489       490      2250      2254      2252
 -1       824    8    0    1
 -2       345       344       491      1819      2255      2256
 -1       825    8    0    1
 -2       344       490       491      2253      2257      2255
 -1       826    8    0    1
 -2       346       345       492      1822      2258      2259
 -1       827    8    0    1
 -2       345       491       492      2256      2260      2258
 -1       828    8    0    1
 -2       347       346       493      1825      2261      2262
 -1       829    8    0    1
 -2       346       492       493      2259      2263      2261
 -1       830    8    0    1
 -2       348       347       494      1828      2264      2265
 -1       831    8    0    1
 -2       347       493       494      2262      2266      2264
 -1       832    8    0    1
 -2       349       348       495      1831      2267      2268
 -1       833    8    0    1
 -2       348       494       495      2265      2269      2267
 -1       834    8    0    1
 -2       350       349       496      1834      2270      2271
 -1       835    8    0    1
 -2       349       495       496      2268      2272      2270
 -1       836    8    0    1
 -2       351       350       497      1837      2273      2274
 -1       837    8    0    1
 -2       350       496       497      2271      2275      2273
 -1       838    8    0    1
 -2       352       351       498      1840      2276      2277
 -1       839    8    0    1
 -2       351       497       498      2274      2278      2276
 -1       840    8    0    1
 -2       353       352       499      1843      2279      2280
 -1       841    8    0    1
 -2       352       498       499      2277      2281      2279
 -1       842    8    0    1
 -2       354       353       500      1846      2282      2283
 -1       843    8    0    1
 -2       353       499       500      2280      2284      2282
 -1       844    8    0    1
 -2       355       354       501      1849      2285      2286
 -1       845    8    0    1
 -2       354       500       501      2283      2287      2285
 -1       846    8    0    1
 -2       356       355       502      1852      2288      2289
 -1       847    8    0    1
 -2       355       501       502      2286      2290      2288
 -1       848    8    0    1
 -2       357       356       503      1855      2291      2292
 -1       849    8    0    1
 -2       356       502       503      2289      2293      2291
 -1       850    8    0    1
 -2       358       357       504      1858      2294      2295
 -1       851    8    0    1
 -2       357       503       504      2292      2296      2294
 -1       852    8    0    1
 -2       359       358       505      1861      2297      2298
 -1       853    8    0    1
 -2       358       504       505      2295      2299      2297
 -1       854    8    0    1
 -2       360       359       506      1864      2300      2301
 -1       855    8    0    1
 -2       359       505       506      2298      2302      2300
 -1       856    8    0    1
 -2       361       360       507      1867      2303      2304
 -1       857    8    0    1
 -2       360       506       507      2301      2305      2303
 -1       858    8    0    1
 -2       362       361       508      1870      2306      2307
 -1       859    8    0    1
 -2       361       507       508      2304      2308      2306
 -1       860    8    0    1
 -2       363       362       509      1873      2309      2310
 -1       861    8    0    1
 -2       362       508       509      2307      2311      2309
 -1       862    8    0    1
 -2       364       363       510      1876      2312      2313
 -1       863    8    0    1
 -2       363       509       510      2310      2314      2312
 -1       864    8    0    1
 -2       365       364       511      1879      2315      2316
 -1       865    8    0    1
 -2       364       510       511      2313      2317      2315
 -1       866    8    0    1
 -2       366       365       512      1882      2318      2319
 -1       867    8    0    1
 -2       365       511       512      2316      2320      2318
 -1       868    8    0    1
 -2       367       366       513      1885      2321      2322
 -1       869    8    0    1
 -2       366       512       513      2319      2323      2321
 -1       870    8    0    1
 -2       368       367       514      1888      2324      2325
 -1       871    8    0    1
 -2       367       513       514      2322      2326      2324
 -1       872    8    0    1
 -2       369       368       515      1891      2327      2328
 -1       873    8    0    1
 -2       368       514       515      2325      2329      2327
 -1       874    8    0    1
 -2       370       369       516      1894      2330      2331
 -1       875    8    0    1
 -2       369       515       516      2328      2332      2330
 -1       876    8    0    1
 -2       371       370       517      1897      2333      2334
 -1       877    8    0    1
 -2       370       516       517      2331      2335      2333
 -1       878    8    0    1
 -2       372       371       518      1900      2336      2337
 -1       879    8    0    1
 -2       371       517       518      2334      2338      2336
 -1       880    8    0    1
 -2       373       372       519      1903      2339      2340
 -1       881    8    0    1
 -2       372       518       519      2337      2341      2339
 -1       882    8    0    1
 -2       374       373       520      1906      2342      2343
 -1       883    8    0    1
 -2       373       519       520      2340      2344      2342
 -1       884    8    0    1
 -2       375       374       521      1909      2345      2346
 -1       885    8    0    1
 -2       374       520       521      2343      2347      2345
 -1       886    8    0    1
 -2       376       375       522      1912      2348      2349
 -1       887    8    0    1
 -2       375       521       522      2346      2350      2348
 -1       888    8    0    1
 -2       377       376       523      1915      2351      2352
 -1       889    8    0    1
 -2       376       522       523      2349      2353      2351
 -1       890    8    0    1
 -2       378       377       524      1918      2354      2355
 -1       891    8    0    1
 -2       377       523       524      2352      2356      2354
 -1       892    8    0    1
 -2       379       378       525      1921      2357      2358
 -1       893    8    0    1
 -2       378       524       525      2355      2359      2357
 -1       894    8    0    1
 -2       383       384       526      1937      2360      2361
 -1       895    8    0    1
 -2       384       385       527      1940      2362      2363
 -1       896    8    0    1
 -2       384       527       526      2363      2364      2360
 -1       897    8    0    1
 -2       385       386       528      1943      2365      2366
 -1       898    8    0    1
 -2       385       528       527      2366      2367      2362
 -1       899    8    0    1
 -2       386       387       529      1946      2368      2369
 -1       900    8    0    1
 -2       386       529       528      2369      2370      2365
 -1       901    8    0    1
 -2       387       388       530      1949      2371      2372
 -1       902    8    0    1
 -2       387       530       529      2372      2373      2368
 -1       903    8    0    1
 -2       388       389       531      1952      2374      2375
 -1       904    8    0    1
 -2       388       531       530      2375      2376      2371
 -1       905    8    0    1
 -2       389       390       532      1955      2377      2378
 -1       906    8    0    1
 -2       389       532       531      2378      2379      2374
 -1       907    8    0    1
 -2       390       391       533      1958      2380      2381
 -1       908    8    0    1
 -2       390       533       532      2381      2382      2377
 -1       909    8    0    1
 -2       391       392       534      1961      2383      2384
 -1       910    8    0    1
 -2       391       534       533      2384      2385      2380
 -1       911    8    0    1
 -2       392       393       535      1964      2386      2387
 -1       912    8    0    1
 -2       392       535       534      2387      2388      2383
 -1       913    8    0    1
 -2       393       394       536      1967      2389      2390
 -1       914    8    0    1
 -2       393       536       535      2390      2391      2386
 -1       915    8    0    1
 -2       394       395       537      1970      2392      2393
 -1       916    8    0    1
 -2       394       537       536      2393      2394      2389
 -1       917    8    0    1
 -2       395       396       538      1973      2395      2396
 -1       918    8    0    1
 -2       395       538       537      2396      2397      2392
 -1       919    8    0    1
 -2       396       397       539      1976      2398      2399
 -1       920    8    0    1
 -2       396       539       538      2399      2400      2395
 -1       921    8    0    1
 -2       397       398       540      1979      2401      2402
 -1       922    8    0    1
 -2       397       540       539      2402      2403      2398
 -1       923    8    0    1
 -2       398       399       541      1982      2404      2405
 -1       924    8    0    1
 -2       398       541       540      2405      2406      2401
 -1       925    8    0    1
 -2       399       400       542      1985      2407      2408
 -1       926    8    0    1
 -2       399       542       541      2408      2409      2404
 -1       927    8    0    1
 -2       400       401       543      1988      2410      2411
 -1       928    8    0    1
 -2       400       543       542      2411      2412      2407
 -1       929    8    0    1
 -2       401       402       544      1991      2413      2414
 -1       930    8    0    1
 -2       401       544       543      2414      2415      2410
 -1       931    8    0    1
 -2       402       403       545      1994      2416      2417
 -1       932    8    0    1
 -2       402       545       544      2417      2418      2413
 -1       933    8    0    1
 -2       403       404       546      1997      2419      2420
 -1       934    8    0    1
 -2       403       546       545      2420      2421      2416
 -1       935    8    0    1
 -2       404       405       547      2000      2422      2423
 -1       936    8    0    1
 -2       404       547       546      2423      2424      2419
 -1       937    8    0    1
 -2       405       406       548      2003      2425      2426
 -1       938    8    0    1
 -2       405       548       547      2426      2427      2422
 -1       939    8    0    1
 -2       406       407       549      2006      2428      2429
 -1       940    8    0    1
 -2       406       549       548      2429      2430      2425
 -1       941    8    0    1
 -2       407       408       550      2009      2431      2432
 -1       942    8    0    1
 -2       407       550       549      2432      2433      2428
 -1       943    8    0    1
 -2       408       409       551      2012      2434      2435
 -1       944    8    0    1
 -2       408       551       550      2435      2436      2431
 -1       945    8    0    1
 -2       409       410       552      2015      2437      2438
 -1       946    8    0    1
 -2       409       552       551      2438      2439      2434
 -1       947    8    0    1
 -2       410       411       553      2018      2440      2441
 -1       948    8    0    1
 -2       410       553       552      2441      2442      2437
 -1       949    8    0    1
 -2       411       412       554      2021      2443      2444
 -1       950    8    0    1
 -2       411       554       553      2444      2445      2440
 -1       951    8    0    1
 -2       412       413       555      2024      2446      2447
 -1       952    8    0    1
 -2       412       555       554      2447      2448      2443
 -1       953    8    0    1
 -2       413       414       556      2027      2449      2450
 -1       954    8    0    1
 -2       413       556       555      2450      2451      2446
 -1       955    8    0    1
 -2       414       415       557      2030      2452      2453
 -1       956    8    0    1
 -2       414       557       556      2453      2454      2449
 -1       957    8    0    1
 -2       415       416       558      2033      2455      2456
 -1       958    8    0    1
 -2       415       558       557      2456      2457      2452
 -1       959    8    0    1
 -2       416       417       559      2036      2458      2459
 -1       960    8    0    1
 -2       416       559       558      2459      2460      2455
 -1       961    8    0    1
 -2       417       418       560      2039      2461      2462
 -1       962    8    0    1
 -2       417       560       559      2462      2463      2458
 -1       963    8    0    1
 -2       418       419       561      2042      2464      2465
 -1       964    8    0    1
 -2       418       561       560      2465      2466      2461
 -1       965    8    0    1
 -2       419       420       562      2045      2467      2468
 -1       966    8    0    1
 -2       419       562       561      2468      2469      2464
 -1       967    8    0    1
 -2       420       421       563      2048      2470      2471
 -1       968    8    0    1
 -2       420       563       562      2471      2472      2467
 -1       969    8    0    1
 -2       421       422       564      2051      2473      2474
 -1       970    8    0    1
 -2       421       564       563      2474      2475      2470
 -1       971    8    0    1
 -2       422       423       565      2054      2476      2477
 -1       972    8    0    1
 -2       422       565       564      2477      2478      2473
 -1       973    8    0    1
 -2       423       424       566      2057      2479      2480
 -1       974    8    0    1
 -2       423       566       565      2480      2481      2476
 -1       975    8    0    1
 -2       424       425       567      2060      2482      2483
 -1       976    8    0    1
 -2       424       567       566      2483      2484      2479
 -1       977    8    0    1
 -2       425       426       429      2063      2072      2485
 -1       978    8    0    1
 -2       430       431       568      2079      2486      2487
 -1       979    8    0    1
 -2       431       432       569      2082      2488      2489
 -1       980    8    0    1
 -2       431       569       568      2489      2490      2486
 -1       981    8    0    1
 -2       428       427       570      2069      2491      2492
 -1       982    8    0    1
 -2       427       430       571      2076      2493      2494
 -1       983    8    0    1
 -2       570       427       571      2491      2494      2495
 -1       984    8    0    1
 -2       430       568       571      2487      2496      2493
 -1       985    8    0    1
 -2       432       433       572      2085      2497      2498
 -1       986    8    0    1
 -2       432       572       569      2498      2499      2488
 -1       987    8    0    1
 -2       433       434       573      2088      2500      2501
 -1       988    8    0    1
 -2       433       573       572      2501      2502      2497
 -1       989    8    0    1
 -2       434       435       574      2091      2503      2504
 -1       990    8    0    1
 -2       434       574       573      2504      2505      2500
 -1       991    8    0    1
 -2       435       436       575      2094      2506      2507
 -1       992    8    0    1
 -2       435       575       574      2507      2508      2503
 -1       993    8    0    1
 -2       436       437       576      2097      2509      2510
 -1       994    8    0    1
 -2       436       576       575      2510      2511      2506
 -1       995    8    0    1
 -2       437       438       577      2100      2512      2513
 -1       996    8    0    1
 -2       437       577       576      2513      2514      2509
 -1       997    8    0    1
 -2       438       439       578      2103      2515      2516
 -1       998    8    0    1
 -2       438       578       577      2516      2517      2512
 -1       999    8    0    1
 -2       441       442       579      2174      2518      2519
 -1      1000    8    0    1
 -2       442       440       580      2173      2520      2521
 -1      1001    8    0    1
 -2       442       580       579      2521      2522      2518
 -1      1002    8    0    1
 -2       468       441       581      2176      2523      2524
 -1      1003    8    0    1
 -2       382       383       582      1934      2525      2526
 -1      1004    8    0    1
 -2       383       526       582      2361      2527      2525
 -1      1005    8    0    1
 -2       439       290       380      2175      1924      2528
 -1      1006    8    0    1
 -2       440       443       583      2112      2529      2530
 -1      1007    8    0    1
 -2       335       321       584      2172      2531      2532
 -1      1008    8    0    1
 -2       481       335       584      2227      2532      2533
 -1      1009    8    0    1
 -2       321       320       584      1746      2534      2531
 -1      1010    8    0    1
 -2       444       469       585      2177      2535      2536
 -1      1011    8    0    1
 -2       456       457       586      2187      2537      2538
 -1      1012    8    0    1
 -2       324       325       587      1757      2539      2540
 -1      1013    8    0    1
 -2       472       324       587      2202      2540      2541
 -1      1014    8    0    1
 -2       325       474       587      2208      2542      2539
 -1      1015    8    0    1
 -2       449       450       588      2198      2543      2544
 -1      1016    8    0    1
 -2       447       448       589      2125      2545      2546
 -1      1017    8    0    1
 -2       459       460       590      2199      2547      2548
 -1      1018    8    0    1
 -2       448       449       591      2194      2549      2550
 -1      1019    8    0    1
 -2       450       451       592      2193      2551      2552
 -1      1020    8    0    1
 -2       451       452       593      2192      2553      2554
 -1      1021    8    0    1
 -2       452       453       594      2191      2555      2556
 -1      1022    8    0    1
 -2       453       454       595      2190      2557      2558
 -1      1023    8    0    1
 -2       454       455       596      2189      2559      2560
 -1      1024    8    0    1
 -2       455       456       597      2188      2561      2562
 -1      1025    8    0    1
 -2       457       458       598      2146      2563      2564
 -1      1026    8    0    1
 -2       457       598       586      2564      2565      2537
 -1      1027    8    0    1
 -2       458       459       599      2186      2566      2567
 -1      1028    8    0    1
 -2       460       461       600      2185      2568      2569
 -1      1029    8    0    1
 -2       461       462       601      2184      2570      2571
 -1      1030    8    0    1
 -2       461       601       600      2571      2572      2568
 -1      1031    8    0    1
 -2       462       463       602      2183      2573      2574
 -1      1032    8    0    1
 -2       463       464       603      2182      2575      2576
 -1      1033    8    0    1
 -2       464       465       604      2181      2577      2578
 -1      1034    8    0    1
 -2       465       466       605      2180      2579      2580
 -1      1035    8    0    1
 -2       466       467       606      2179      2581      2582
 -1      1036    8    0    1
 -2       467       468       607      2178      2583      2584
 -1      1037    8    0    1
 -2       468       581       607      2524      2585      2583
 -1      1038    8    0    1
 -2       333       334       608      1786      2586      2587
 -1      1039    8    0    1
 -2       332       333       608      1781      2587      2588
 -1      1040    8    0    1
 -2       334       471       608      2201      2589      2586
 -1      1041    8    0    1
 -2       443       444       609      2169      2590      2591
 -1      1042    8    0    1
 -2       443       609       583      2591      2592      2529
 -1      1043    8    0    1
 -2       449       588       591      2544      2593      2549
 -1      1044    8    0    1
 -2       322       473       610      2205      2594      2595
 -1      1045    8    0    1
 -2       322       610       445      2595      2596      2118
 -1      1046    8    0    1
 -2       480       382       582      2224      2526      2597
 -1      1047    8    0    1
 -2       331       332       608      1778      2588      2598
 -1      1048    8    0    1
 -2       609       444       585      2590      2536      2599
 -1      1049    8    0    1
 -2       585       469       482      2535      2230      2600
 -1      1050    8    0    1
 -2       606       467       607      2581      2584      2601
 -1      1051    8    0    1
 -2       440       583       580      2530      2602      2520
 -1      1052    8    0    1
 -2       605       466       611      2579      2603      2604
 -1      1053    8    0    1
 -2       466       606       611      2582      2605      2603
 -1      1054    8    0    1
 -2       425       429       567      2485      2606      2482
 -1      1055    8    0    1
 -2       429       428       567      2073      2607      2606
 -1      1056    8    0    1
 -2       604       465       605      2577      2580      2608
 -1      1057    8    0    1
 -2       441       579       581      2519      2609      2523
 -1      1058    8    0    1
 -2       603       464       604      2575      2578      2610
 -1      1059    8    0    1
 -2       331       608       479      2598      2611      2221
 -1      1060    8    0    1
 -2       584       320       445      2534      2117      2612
 -1      1061    8    0    1
 -2       601       462       602      2570      2574      2613
 -1      1062    8    0    1
 -2       458       599       598      2567      2614      2563
 -1      1063    8    0    1
 -2       456       586       597      2538      2615      2561
 -1      1064    8    0    1
 -2       596       455       597      2559      2562      2616
 -1      1065    8    0    1
 -2       595       454       596      2557      2560      2617
 -1      1066    8    0    1
 -2       594       453       595      2555      2558      2618
 -1      1067    8    0    1
 -2       593       452       594      2553      2556      2619
 -1      1068    8    0    1
 -2       592       451       593      2551      2554      2620
 -1      1069    8    0    1
 -2       590       460       600      2547      2569      2621
 -1      1070    8    0    1
 -2       482       446       612      2229      2622      2623
 -1      1071    8    0    1
 -2       446       470       612      2196      2624      2622
 -1      1072    8    0    1
 -2       470       447       589      2197      2546      2625
 -1      1073    8    0    1
 -2       589       448       591      2545      2550      2626
 -1      1074    8    0    1
 -2       459       590       613      2548      2627      2628
 -1      1075    8    0    1
 -2       459       613       599      2628      2629      2566
 -1      1076    8    0    1
 -2       588       450       592      2543      2552      2630
 -1      1077    8    0    1
 -2       439       380       614      2528      2631      2632
 -1      1078    8    0    1
 -2       578       439       614      2515      2632      2633
 -1      1079    8    0    1
 -2       380       379       614      1925      2634      2631
 -1      1080    8    0    1
 -2       602       463       603      2573      2576      2635
 -1      1081    8    0    1
 -2       567       428       570      2607      2492      2636
 -1      1082    8    0    1
 -2       614       379       525      2634      2358      2637
 -1      1083    8    0    1
 -2       475       476       615      2214      2638      2639
 -1      1084    8    0    1
 -2       474       475       616      2211      2640      2641
 -1      1085    8    0    1
 -2       475       615       616      2639      2642      2640
 -1      1086    8    0    1
 -2       477       478       617      2220      2643      2644
 -1      1087    8    0    1
 -2       478       479       618      2223      2645      2646
 -1      1088    8    0    1
 -2       478       618       617      2646      2647      2643
 -1      1089    8    0    1
 -2       471       480       619      2226      2648      2649
 -1      1090    8    0    1
 -2       584       445       610      2612      2596      2650
 -1      1091    8    0    1
 -2       480       582       620      2597      2651      2652
 -1      1092    8    0    1
 -2       480       620       619      2652      2653      2648
 -1      1093    8    0    1
 -2       606       607       621      2601      2654      2655
 -1      1094    8    0    1
 -2       607       581       622      2585      2656      2657
 -1      1095    8    0    1
 -2       484       483       623      2236      2658      2659
 -1      1096    8    0    1
 -2       485       484       624      2239      2660      2661
 -1      1097    8    0    1
 -2       484       623       624      2659      2662      2660
 -1      1098    8    0    1
 -2       486       485       625      2242      2663      2664
 -1      1099    8    0    1
 -2       485       624       625      2661      2665      2663
 -1      1100    8    0    1
 -2       487       486       626      2245      2666      2667
 -1      1101    8    0    1
 -2       486       625       626      2664      2668      2666
 -1      1102    8    0    1
 -2       488       487       627      2248      2669      2670
 -1      1103    8    0    1
 -2       487       626       627      2667      2671      2669
 -1      1104    8    0    1
 -2       489       488       628      2251      2672      2673
 -1      1105    8    0    1
 -2       488       627       628      2670      2674      2672
 -1      1106    8    0    1
 -2       490       489       629      2254      2675      2676
 -1      1107    8    0    1
 -2       489       628       629      2673      2677      2675
 -1      1108    8    0    1
 -2       491       490       630      2257      2678      2679
 -1      1109    8    0    1
 -2       490       629       630      2676      2680      2678
 -1      1110    8    0    1
 -2       492       491       631      2260      2681      2682
 -1      1111    8    0    1
 -2       491       630       631      2679      2683      2681
 -1      1112    8    0    1
 -2       493       492       632      2263      2684      2685
 -1      1113    8    0    1
 -2       492       631       632      2682      2686      2684
 -1      1114    8    0    1
 -2       494       493       633      2266      2687      2688
 -1      1115    8    0    1
 -2       493       632       633      2685      2689      2687
 -1      1116    8    0    1
 -2       495       494       634      2269      2690      2691
 -1      1117    8    0    1
 -2       494       633       634      2688      2692      2690
 -1      1118    8    0    1
 -2       496       495       635      2272      2693      2694
 -1      1119    8    0    1
 -2       495       634       635      2691      2695      2693
 -1      1120    8    0    1
 -2       497       496       636      2275      2696      2697
 -1      1121    8    0    1
 -2       496       635       636      2694      2698      2696
 -1      1122    8    0    1
 -2       498       497       637      2278      2699      2700
 -1      1123    8    0    1
 -2       497       636       637      2697      2701      2699
 -1      1124    8    0    1
 -2       499       498       638      2281      2702      2703
 -1      1125    8    0    1
 -2       498       637       638      2700      2704      2702
 -1      1126    8    0    1
 -2       500       499       639      2284      2705      2706
 -1      1127    8    0    1
 -2       499       638       639      2703      2707      2705
 -1      1128    8    0    1
 -2       501       500       640      2287      2708      2709
 -1      1129    8    0    1
 -2       500       639       640      2706      2710      2708
 -1      1130    8    0    1
 -2       502       501       641      2290      2711      2712
 -1      1131    8    0    1
 -2       501       640       641      2709      2713      2711
 -1      1132    8    0    1
 -2       503       502       642      2293      2714      2715
 -1      1133    8    0    1
 -2       502       641       642      2712      2716      2714
 -1      1134    8    0    1
 -2       504       503       643      2296      2717      2718
 -1      1135    8    0    1
 -2       503       642       643      2715      2719      2717
 -1      1136    8    0    1
 -2       505       504       644      2299      2720      2721
 -1      1137    8    0    1
 -2       504       643       644      2718      2722      2720
 -1      1138    8    0    1
 -2       506       505       645      2302      2723      2724
 -1      1139    8    0    1
 -2       505       644       645      2721      2725      2723
 -1      1140    8    0    1
 -2       507       506       646      2305      2726      2727
 -1      1141    8    0    1
 -2       506       645       646      2724      2728      2726
 -1      1142    8    0    1
 -2       508       507       647      2308      2729      2730
 -1      1143    8    0    1
 -2       507       646       647      2727      2731      2729
 -1      1144    8    0    1
 -2       509       508       648      2311      2732      2733
 -1      1145    8    0    1
 -2       508       647       648      2730      2734      2732
 -1      1146    8    0    1
 -2       510       509       649      2314      2735      2736
 -1      1147    8    0    1
 -2       509       648       649      2733      2737      2735
 -1      1148    8    0    1
 -2       511       510       650      2317      2738      2739
 -1      1149    8    0    1
 -2       510       649       650      2736      2740      2738
 -1      1150    8    0    1
 -2       512       511       651      2320      2741      2742
 -1      1151    8    0    1
 -2       511       650       651      2739      2743      2741
 -1      1152    8    0    1
 -2       513       512       652      2323      2744      2745
 -1      1153    8    0    1
 -2       512       651       652      2742      2746      2744
 -1      1154    8    0    1
 -2       514       513       653      2326      2747      2748
 -1      1155    8    0    1
 -2       513       652       653      2745      2749      2747
 -1      1156    8    0    1
 -2       515       514       654      2329      2750      2751
 -1      1157    8    0    1
 -2       514       653       654      2748      2752      2750
 -1      1158    8    0    1
 -2       516       515       655      2332      2753      2754
 -1      1159    8    0    1
 -2       515       654       655      2751      2755      2753
 -1      1160    8    0    1
 -2       517       516       656      2335      2756      2757
 -1      1161    8    0    1
 -2       516       655       656      2754      2758      2756
 -1      1162    8    0    1
 -2       518       517       657      2338      2759      2760
 -1      1163    8    0    1
 -2       517       656       657      2757      2761      2759
 -1      1164    8    0    1
 -2       520       519       658      2344      2762      2763
 -1      1165    8    0    1
 -2       521       520       659      2347      2764      2765
 -1      1166    8    0    1
 -2       520       658       659      2763      2766      2764
 -1      1167    8    0    1
 -2       522       521       660      2350      2767      2768
 -1      1168    8    0    1
 -2       521       659       660      2765      2769      2767
 -1      1169    8    0    1
 -2       523       522       661      2353      2770      2771
 -1      1170    8    0    1
 -2       522       660       661      2768      2772      2770
 -1      1171    8    0    1
 -2       524       523       662      2356      2773      2774
 -1      1172    8    0    1
 -2       523       661       662      2771      2775      2773
 -1      1173    8    0    1
 -2       525       524       663      2359      2776      2777
 -1      1174    8    0    1
 -2       524       662       663      2774      2778      2776
 -1      1175    8    0    1
 -2       527       528       664      2367      2779      2780
 -1      1176    8    0    1
 -2       526       527       665      2364      2781      2782
 -1      1177    8    0    1
 -2       527       664       665      2780      2783      2781
 -1      1178    8    0    1
 -2       529       530       666      2373      2784      2785
 -1      1179    8    0    1
 -2       530       531       667      2376      2786      2787
 -1      1180    8    0    1
 -2       530       667       666      2787      2788      2784
 -1      1181    8    0    1
 -2       531       532       668      2379      2789      2790
 -1      1182    8    0    1
 -2       531       668       667      2790      2791      2786
 -1      1183    8    0    1
 -2       532       533       669      2382      2792      2793
 -1      1184    8    0    1
 -2       532       669       668      2793      2794      2789
 -1      1185    8    0    1
 -2       533       534       670      2385      2795      2796
 -1      1186    8    0    1
 -2       533       670       669      2796      2797      2792
 -1      1187    8    0    1
 -2       534       535       671      2388      2798      2799
 -1      1188    8    0    1
 -2       534       671       670      2799      2800      2795
 -1      1189    8    0    1
 -2       535       536       672      2391      2801      2802
 -1      1190    8    0    1
 -2       535       672       671      2802      2803      2798
 -1      1191    8    0    1
 -2       536       537       673      2394      2804      2805
 -1      1192    8    0    1
 -2       536       673       672      2805      2806      2801
 -1      1193    8    0    1
 -2       537       538       674      2397      2807      2808
 -1      1194    8    0    1
 -2       537       674       673      2808      2809      2804
 -1      1195    8    0    1
 -2       538       539       675      2400      2810      2811
 -1      1196    8    0    1
 -2       538       675       674      2811      2812      2807
 -1      1197    8    0    1
 -2       539       540       676      2403      2813      2814
 -1      1198    8    0    1
 -2       539       676       675      2814      2815      2810
 -1      1199    8    0    1
 -2       540       541       677      2406      2816      2817
 -1      1200    8    0    1
 -2       540       677       676      2817      2818      2813
 -1      1201    8    0    1
 -2       541       542       678      2409      2819      2820
 -1      1202    8    0    1
 -2       541       678       677      2820      2821      2816
 -1      1203    8    0    1
 -2       542       543       679      2412      2822      2823
 -1      1204    8    0    1
 -2       542       679       678      2823      2824      2819
 -1      1205    8    0    1
 -2       543       544       680      2415      2825      2826
 -1      1206    8    0    1
 -2       543       680       679      2826      2827      2822
 -1      1207    8    0    1
 -2       544       545       681      2418      2828      2829
 -1      1208    8    0    1
 -2       544       681       680      2829      2830      2825
 -1      1209    8    0    1
 -2       545       546       682      2421      2831      2832
 -1      1210    8    0    1
 -2       545       682       681      2832      2833      2828
 -1      1211    8    0    1
 -2       546       547       683      2424      2834      2835
 -1      1212    8    0    1
 -2       546       683       682      2835      2836      2831
 -1      1213    8    0    1
 -2       547       548       684      2427      2837      2838
 -1      1214    8    0    1
 -2       547       684       683      2838      2839      2834
 -1      1215    8    0    1
 -2       548       549       685      2430      2840      2841
 -1      1216    8    0    1
 -2       548       685       684      2841      2842      2837
 -1      1217    8    0    1
 -2       549       550       686      2433      2843      2844
 -1      1218    8    0    1
 -2       549       686       685      2844      2845      2840
 -1      1219    8    0    1
 -2       550       551       687      2436      2846      2847
 -1      1220    8    0    1
 -2       550       687       686      2847      2848      2843
 -1      1221    8    0    1
 -2       551       552       688      2439      2849      2850
 -1      1222    8    0    1
 -2       551       688       687      2850      2851      2846
 -1      1223    8    0    1
 -2       552       553       689      2442      2852      2853
 -1      1224    8    0    1
 -2       552       689       688      2853      2854      2849
 -1      1225    8    0    1
 -2       553       554       690      2445      2855      2856
 -1      1226    8    0    1
 -2       553       690       689      2856      2857      2852
 -1      1227    8    0    1
 -2       554       555       691      2448      2858      2859
 -1      1228    8    0    1
 -2       554       691       690      2859      2860      2855
 -1      1229    8    0    1
 -2       555       556       692      2451      2861      2862
 -1      1230    8    0    1
 -2       555       692       691      2862      2863      2858
 -1      1231    8    0    1
 -2       556       557       693      2454      2864      2865
 -1      1232    8    0    1
 -2       556       693       692      2865      2866      2861
 -1      1233    8    0    1
 -2       557       558       694      2457      2867      2868
 -1      1234    8    0    1
 -2       557       694       693      2868      2869      2864
 -1      1235    8    0    1
 -2       558       559       695      2460      2870      2871
 -1      1236    8    0    1
 -2       558       695       694      2871      2872      2867
 -1      1237    8    0    1
 -2       559       560       696      2463      2873      2874
 -1      1238    8    0    1
 -2       559       696       695      2874      2875      2870
 -1      1239    8    0    1
 -2       560       561       697      2466      2876      2877
 -1      1240    8    0    1
 -2       560       697       696      2877      2878      2873
 -1      1241    8    0    1
 -2       561       562       698      2469      2879      2880
 -1      1242    8    0    1
 -2       561       698       697      2880      2881      2876
 -1      1243    8    0    1
 -2       562       563       699      2472      2882      2883
 -1      1244    8    0    1
 -2       562       699       698      2883      2884      2879
 -1      1245    8    0    1
 -2       563       564       700      2475      2885      2886
 -1      1246    8    0    1
 -2       563       700       699      2886      2887      2882
 -1      1247    8    0    1
 -2       564       565       701      2478      2888      2889
 -1      1248    8    0    1
 -2       564       701       700      2889      2890      2885
 -1      1249    8    0    1
 -2       565       566       702      2481      2891      2892
 -1      1250    8    0    1
 -2       565       702       701      2892      2893      2888
 -1      1251    8    0    1
 -2       566       567       703      2484      2894      2895
 -1      1252    8    0    1
 -2       702       566       703      2891      2895      2896
 -1      1253    8    0    1
 -2       567       570       703      2636      2897      2894
 -1      1254    8    0    1
 -2       572       573       704      2502      2898      2899
 -1      1255    8    0    1
 -2       614       525       705      2637      2900      2901
 -1      1256    8    0    1
 -2       578       614       705      2633      2901      2902
 -1      1257    8    0    1
 -2       525       663       705      2777      2903      2900
 -1      1258    8    0    1
 -2       568       569       706      2490      2904      2905
 -1      1259    8    0    1
 -2       573       574       707      2505      2906      2907
 -1      1260    8    0    1
 -2       573       707       704      2907      2908      2898
 -1      1261    8    0    1
 -2       569       572       708      2499      2909      2910
 -1      1262    8    0    1
 -2       569       708       706      2910      2911      2904
 -1      1263    8    0    1
 -2       574       575       709      2508      2912      2913
 -1      1264    8    0    1
 -2       574       709       707      2913      2914      2906
 -1      1265    8    0    1
 -2       575       576       710      2511      2915      2916
 -1      1266    8    0    1
 -2       575       710       709      2916      2917      2912
 -1      1267    8    0    1
 -2       576       577       711      2514      2918      2919
 -1      1268    8    0    1
 -2       576       711       710      2919      2920      2915
 -1      1269    8    0    1
 -2       577       578       705      2517      2902      2921
 -1      1270    8    0    1
 -2       609       585       712      2599      2922      2923
 -1      1271    8    0    1
 -2       579       580       713      2522      2924      2925
 -1      1272    8    0    1
 -2       603       604       714      2610      2926      2927
 -1      1273    8    0    1
 -2       591       588       715      2593      2928      2929
 -1      1274    8    0    1
 -2       481       584       716      2533      2930      2931
 -1      1275    8    0    1
 -2       483       481       716      2233      2931      2932
 -1      1276    8    0    1
 -2       584       610       716      2650      2933      2930
 -1      1277    8    0    1
 -2       598       599       717      2614      2934      2935
 -1      1278    8    0    1
 -2       597       586       718      2615      2936      2937
 -1      1279    8    0    1
 -2       596       597       719      2616      2938      2939
 -1      1280    8    0    1
 -2       582       526       720      2527      2940      2941
 -1      1281    8    0    1
 -2       620       582       720      2651      2941      2942
 -1      1282    8    0    1
 -2       526       665       720      2782      2943      2940
 -1      1283    8    0    1
 -2       528       529       721      2370      2944      2945
 -1      1284    8    0    1
 -2       664       528       721      2779      2945      2946
 -1      1285    8    0    1
 -2       529       666       721      2785      2947      2944
 -1      1286    8    0    1
 -2       476       477       722      2217      2948      2949
 -1      1287    8    0    1
 -2       615       476       722      2638      2949      2950
 -1      1288    8    0    1
 -2       477       617       722      2644      2951      2948
 -1      1289    8    0    1
 -2       585       482       723      2600      2952      2953
 -1      1290    8    0    1
 -2       585       723       712      2953      2954      2922
 -1      1291    8    0    1
 -2       601       602       724      2613      2955      2956
 -1      1292    8    0    1
 -2       473       472       725      2206      2957      2958
 -1      1293    8    0    1
 -2       470       589       726      2625      2959      2960
 -1      1294    8    0    1
 -2       589       591       727      2626      2961      2962
 -1      1295    8    0    1
 -2       590       600       728      2621      2963      2964
 -1      1296    8    0    1
 -2       592       593       729      2620      2965      2966
 -1      1297    8    0    1
 -2       593       594       730      2619      2967      2968
 -1      1298    8    0    1
 -2       594       595       731      2618      2969      2970
 -1      1299    8    0    1
 -2       595       596       732      2617      2971      2972
 -1      1300    8    0    1
 -2       586       598       733      2565      2973      2974
 -1      1301    8    0    1
 -2       588       592       734      2630      2975      2976
 -1      1302    8    0    1
 -2       583       609       735      2592      2977      2978
 -1      1303    8    0    1
 -2       609       712       735      2923      2979      2977
 -1      1304    8    0    1
 -2       600       601       736      2572      2980      2981
 -1      1305    8    0    1
 -2       479       608       471      2611      2589      2982
 -1      1306    8    0    1
 -2       581       579       737      2609      2983      2984
 -1      1307    8    0    1
 -2       604       605       738      2608      2985      2986
 -1      1308    8    0    1
 -2       580       583       739      2602      2987      2988
 -1      1309    8    0    1
 -2       610       473       740      2594      2989      2990
 -1      1310    8    0    1
 -2       473       725       740      2958      2991      2989
 -1      1311    8    0    1
 -2       474       616       741      2641      2992      2993
 -1      1312    8    0    1
 -2       474       741       587      2993      2994      2542
 -1      1313    8    0    1
 -2       606       621       742      2655      2995      2996
 -1      1314    8    0    1
 -2       606       742       611      2996      2997      2605
 -1      1315    8    0    1
 -2       598       717       733      2935      2998      2973
 -1      1316    8    0    1
 -2       621       607       622      2654      2657      2999
 -1      1317    8    0    1
 -2       518       657       736      2760      3000      3001
 -1      1318    8    0    1
 -2       519       518       736      2341      3001      3002
 -1      1319    8    0    1
 -2       568       706       743      2905      3003      3004
 -1      1320    8    0    1
 -2       568       743       571      3004      3005      2496
 -1      1321    8    0    1
 -2       739       583       744      2987      3006      3007
 -1      1322    8    0    1
 -2       583       735       744      2978      3008      3006
 -1      1323    8    0    1
 -2       738       605       745      2985      3009      3010
 -1      1324    8    0    1
 -2       605       611       745      2604      3011      3009
 -1      1325    8    0    1
 -2       600       736       728      2981      3012      2963
 -1      1326    8    0    1
 -2       708       572       704      2909      2899      3013
 -1      1327    8    0    1
 -2       570       571       746      2495      3014      3015
 -1      1328    8    0    1
 -2       703       570       746      2897      3015      3016
 -1      1329    8    0    1
 -2       571       743       746      3005      3017      3014
 -1      1330    8    0    1
 -2       734       592       729      2975      2966      3018
 -1      1331    8    0    1
 -2       577       705       747      2921      3019      3020
 -1      1332    8    0    1
 -2       711       577       747      2918      3020      3021
 -1      1333    8    0    1
 -2       705       663       747      2903      3022      3019
 -1      1334    8    0    1
 -2       713       580       739      2924      2988      3023
 -1      1335    8    0    1
 -2       601       724       736      2956      3024      2980
 -1      1336    8    0    1
 -2       622       581       737      2656      2984      3025
 -1      1337    8    0    1
 -2       579       713       737      2925      3026      2983
 -1      1338    8    0    1
 -2       603       714       748      2927      3027      3028
 -1      1339    8    0    1
 -2       603       748       602      3028      3029      2635
 -1      1340    8    0    1
 -2       732       596       719      2971      2939      3030
 -1      1341    8    0    1
 -2       591       715       727      2929      3031      2961
 -1      1342    8    0    1
 -2       731       595       732      2969      2972      3032
 -1      1343    8    0    1
 -2       730       594       731      2967      2970      3033
 -1      1344    8    0    1
 -2       729       593       730      2965      2968      3034
 -1      1345    8    0    1
 -2       483       716       623      2932      3035      2658
 -1      1346    8    0    1
 -2       718       586       733      2936      2974      3036
 -1      1347    8    0    1
 -2       597       718       719      2937      3037      2938
 -1      1348    8    0    1
 -2       715       588       734      2928      2976      3038
 -1      1349    8    0    1
 -2       714       604       738      2926      2986      3039
 -1      1350    8    0    1
 -2       612       470       726      2624      2960      3040
 -1      1351    8    0    1
 -2       472       587       749      2541      3041      3042
 -1      1352    8    0    1
 -2       725       472       749      2957      3042      3043
 -1      1353    8    0    1
 -2       587       741       749      2994      3044      3041
 -1      1354    8    0    1
 -2       717       599       750      2934      3045      3046
 -1      1355    8    0    1
 -2       599       613       750      2629      3047      3045
 -1      1356    8    0    1
 -2       724       602       658      2955      3048      3049
 -1      1357    8    0    1
 -2       723       482       751      2952      3050      3051
 -1      1358    8    0    1
 -2       482       612       751      2623      3052      3050
 -1      1359    8    0    1
 -2       479       471       619      2982      2649      3053
 -1      1360    8    0    1
 -2       618       479       619      2645      3053      3054
 -1      1361    8    0    1
 -2       618       619       752      3054      3055      3056
 -1      1362    8    0    1
 -2       619       620       752      2653      3057      3055
 -1      1363    8    0    1
 -2       617       618       752      2647      3056      3058
 -1      1364    8    0    1
 -2       736       657       728      3000      3059      3012
 -1      1365    8    0    1
 -2       734       729       753      3018      3060      3061
 -1      1366    8    0    1
 -2       712       723       754      2954      3062      3063
 -1      1367    8    0    1
 -2       733       717       755      2998      3064      3065
 -1      1368    8    0    1
 -2       625       624       756      2665      3066      3067
 -1      1369    8    0    1
 -2       626       625       757      2668      3068      3069
 -1      1370    8    0    1
 -2       625       756       757      3067      3070      3068
 -1      1371    8    0    1
 -2       627       626       758      2671      3071      3072
 -1      1372    8    0    1
 -2       626       757       758      3069      3073      3071
 -1      1373    8    0    1
 -2       628       627       759      2674      3074      3075
 -1      1374    8    0    1
 -2       627       758       759      3072      3076      3074
 -1      1375    8    0    1
 -2       629       628       760      2677      3077      3078
 -1      1376    8    0    1
 -2       628       759       760      3075      3079      3077
 -1      1377    8    0    1
 -2       630       629       761      2680      3080      3081
 -1      1378    8    0    1
 -2       629       760       761      3078      3082      3080
 -1      1379    8    0    1
 -2       631       630       762      2683      3083      3084
 -1      1380    8    0    1
 -2       630       761       762      3081      3085      3083
 -1      1381    8    0    1
 -2       632       631       763      2686      3086      3087
 -1      1382    8    0    1
 -2       631       762       763      3084      3088      3086
 -1      1383    8    0    1
 -2       633       632       764      2689      3089      3090
 -1      1384    8    0    1
 -2       632       763       764      3087      3091      3089
 -1      1385    8    0    1
 -2       634       633       765      2692      3092      3093
 -1      1386    8    0    1
 -2       633       764       765      3090      3094      3092
 -1      1387    8    0    1
 -2       635       634       766      2695      3095      3096
 -1      1388    8    0    1
 -2       634       765       766      3093      3097      3095
 -1      1389    8    0    1
 -2       636       635       767      2698      3098      3099
 -1      1390    8    0    1
 -2       635       766       767      3096      3100      3098
 -1      1391    8    0    1
 -2       637       636       768      2701      3101      3102
 -1      1392    8    0    1
 -2       636       767       768      3099      3103      3101
 -1      1393    8    0    1
 -2       638       637       769      2704      3104      3105
 -1      1394    8    0    1
 -2       637       768       769      3102      3106      3104
 -1      1395    8    0    1
 -2       639       638       770      2707      3107      3108
 -1      1396    8    0    1
 -2       638       769       770      3105      3109      3107
 -1      1397    8    0    1
 -2       640       639       771      2710      3110      3111
 -1      1398    8    0    1
 -2       639       770       771      3108      3112      3110
 -1      1399    8    0    1
 -2       641       640       772      2713      3113      3114
 -1      1400    8    0    1
 -2       640       771       772      3111      3115      3113
 -1      1401    8    0    1
 -2       642       641       773      2716      3116      3117
 -1      1402    8    0    1
 -2       641       772       773      3114      3118      3116
 -1      1403    8    0    1
 -2       643       642       774      2719      3119      3120
 -1      1404    8    0    1
 -2       642       773       774      3117      3121      3119
 -1      1405    8    0    1
 -2       644       643       775      2722      3122      3123
 -1      1406    8    0    1
 -2       643       774       775      3120      3124      3122
 -1      1407    8    0    1
 -2       645       644       776      2725      3125      3126
 -1      1408    8    0    1
 -2       644       775       776      3123      3127      3125
 -1      1409    8    0    1
 -2       646       645       777      2728      3128      3129
 -1      1410    8    0    1
 -2       645       776       777      3126      3130      3128
 -1      1411    8    0    1
 -2       647       646       778      2731      3131      3132
 -1      1412    8    0    1
 -2       646       777       778      3129      3133      3131
 -1      1413    8    0    1
 -2       648       647       779      2734      3134      3135
 -1      1414    8    0    1
 -2       647       778       779      3132      3136      3134
 -1      1415    8    0    1
 -2       649       648       780      2737      3137      3138
 -1      1416    8    0    1
 -2       648       779       780      3135      3139      3137
 -1      1417    8    0    1
 -2       650       649       781      2740      3140      3141
 -1      1418    8    0    1
 -2       649       780       781      3138      3142      3140
 -1      1419    8    0    1
 -2       651       650       782      2743      3143      3144
 -1      1420    8    0    1
 -2       650       781       782      3141      3145      3143
 -1      1421    8    0    1
 -2       652       651       783      2746      3146      3147
 -1      1422    8    0    1
 -2       651       782       783      3144      3148      3146
 -1      1423    8    0    1
 -2       653       652       784      2749      3149      3150
 -1      1424    8    0    1
 -2       652       783       784      3147      3151      3149
 -1      1425    8    0    1
 -2       654       653       785      2752      3152      3153
 -1      1426    8    0    1
 -2       653       784       785      3150      3154      3152
 -1      1427    8    0    1
 -2       655       654       786      2755      3155      3156
 -1      1428    8    0    1
 -2       654       785       786      3153      3157      3155
 -1      1429    8    0    1
 -2       656       655       750      2758      3158      3159
 -1      1430    8    0    1
 -2       657       656       728      2761      3160      3059
 -1      1431    8    0    1
 -2       661       660       745      2772      3161      3162
 -1      1432    8    0    1
 -2       662       661       745      2775      3162      3163
 -1      1433    8    0    1
 -2       663       662       787      2778      3164      3165
 -1      1434    8    0    1
 -2       747       663       787      3022      3165      3166
 -1      1435    8    0    1
 -2       662       745       787      3163      3167      3164
 -1      1436    8    0    1
 -2       732       719       788      3030      3168      3169
 -1      1437    8    0    1
 -2       667       668       789      2791      3170      3171
 -1      1438    8    0    1
 -2       666       667       790      2788      3172      3173
 -1      1439    8    0    1
 -2       667       789       790      3171      3174      3172
 -1      1440    8    0    1
 -2       669       670       791      2797      3175      3176
 -1      1441    8    0    1
 -2       670       671       792      2800      3177      3178
 -1      1442    8    0    1
 -2       670       792       791      3178      3179      3175
 -1      1443    8    0    1
 -2       671       672       793      2803      3180      3181
 -1      1444    8    0    1
 -2       671       793       792      3181      3182      3177
 -1      1445    8    0    1
 -2       672       673       794      2806      3183      3184
 -1      1446    8    0    1
 -2       672       794       793      3184      3185      3180
 -1      1447    8    0    1
 -2       673       674       795      2809      3186      3187
 -1      1448    8    0    1
 -2       673       795       794      3187      3188      3183
 -1      1449    8    0    1
 -2       674       675       796      2812      3189      3190
 -1      1450    8    0    1
 -2       674       796       795      3190      3191      3186
 -1      1451    8    0    1
 -2       675       676       797      2815      3192      3193
 -1      1452    8    0    1
 -2       675       797       796      3193      3194      3189
 -1      1453    8    0    1
 -2       676       677       798      2818      3195      3196
 -1      1454    8    0    1
 -2       676       798       797      3196      3197      3192
 -1      1455    8    0    1
 -2       677       678       799      2821      3198      3199
 -1      1456    8    0    1
 -2       677       799       798      3199      3200      3195
 -1      1457    8    0    1
 -2       678       679       800      2824      3201      3202
 -1      1458    8    0    1
 -2       678       800       799      3202      3203      3198
 -1      1459    8    0    1
 -2       679       680       801      2827      3204      3205
 -1      1460    8    0    1
 -2       679       801       800      3205      3206      3201
 -1      1461    8    0    1
 -2       680       681       802      2830      3207      3208
 -1      1462    8    0    1
 -2       680       802       801      3208      3209      3204
 -1      1463    8    0    1
 -2       681       682       803      2833      3210      3211
 -1      1464    8    0    1
 -2       681       803       802      3211      3212      3207
 -1      1465    8    0    1
 -2       682       683       804      2836      3213      3214
 -1      1466    8    0    1
 -2       682       804       803      3214      3215      3210
 -1      1467    8    0    1
 -2       683       684       805      2839      3216      3217
 -1      1468    8    0    1
 -2       683       805       804      3217      3218      3213
 -1      1469    8    0    1
 -2       684       685       806      2842      3219      3220
 -1      1470    8    0    1
 -2       684       806       805      3220      3221      3216
 -1      1471    8    0    1
 -2       685       686       807      2845      3222      3223
 -1      1472    8    0    1
 -2       685       807       806      3223      3224      3219
 -1      1473    8    0    1
 -2       686       687       808      2848      3225      3226
 -1      1474    8    0    1
 -2       686       808       807      3226      3227      3222
 -1      1475    8    0    1
 -2       687       688       809      2851      3228      3229
 -1      1476    8    0    1
 -2       687       809       808      3229      3230      3225
 -1      1477    8    0    1
 -2       688       689       810      2854      3231      3232
 -1      1478    8    0    1
 -2       688       810       809      3232      3233      3228
 -1      1479    8    0    1
 -2       689       690       811      2857      3234      3235
 -1      1480    8    0    1
 -2       689       811       810      3235      3236      3231
 -1      1481    8    0    1
 -2       690       691       812      2860      3237      3238
 -1      1482    8    0    1
 -2       690       812       811      3238      3239      3234
 -1      1483    8    0    1
 -2       691       692       813      2863      3240      3241
 -1      1484    8    0    1
 -2       691       813       812      3241      3242      3237
 -1      1485    8    0    1
 -2       692       693       814      2866      3243      3244
 -1      1486    8    0    1
 -2       692       814       813      3244      3245      3240
 -1      1487    8    0    1
 -2       693       694       753      2869      3246      3247
 -1      1488    8    0    1
 -2       695       696       715      2875      3248      3249
 -1      1489    8    0    1
 -2       696       697       727      2878      3250      3251
 -1      1490    8    0    1
 -2       697       698       726      2881      3252      3253
 -1      1491    8    0    1
 -2       698       699       751      2884      3254      3255
 -1      1492    8    0    1
 -2       699       700       754      2887      3256      3257
 -1      1493    8    0    1
 -2       700       701       815      2890      3258      3259
 -1      1494    8    0    1
 -2       700       815       754      3259      3260      3256
 -1      1495    8    0    1
 -2       701       702       816      2893      3261      3262
 -1      1496    8    0    1
 -2       815       701       816      3258      3262      3263
 -1      1497    8    0    1
 -2       702       703       816      2896      3264      3261
 -1      1498    8    0    1
 -2       706       708       817      2911      3265      3266
 -1      1499    8    0    1
 -2       616       615       818      2642      3267      3268
 -1      1500    8    0    1
 -2       709       710       819      2917      3269      3270
 -1      1501    8    0    1
 -2       704       707       737      2908      3271      3272
 -1      1502    8    0    1
 -2       710       711       820      2920      3273      3274
 -1      1503    8    0    1
 -2       710       820       819      3274      3275      3269
 -1      1504    8    0    1
 -2       735       712       821      2979      3276      3277
 -1      1505    8    0    1
 -2       744       735       821      3008      3277      3278
 -1      1506    8    0    1
 -2       712       754       821      3063      3279      3276
 -1      1507    8    0    1
 -2       621       622       819      2999      3280      3281
 -1      1508    8    0    1
 -2       715       696       727      3248      3251      3031
 -1      1509    8    0    1
 -2       708       704       713      3013      3282      3283
 -1      1510    8    0    1
 -2       716       610       740      2933      2990      3284
 -1      1511    8    0    1
 -2       668       669       822      2794      3285      3286
 -1      1512    8    0    1
 -2       789       668       822      3170      3286      3287
 -1      1513    8    0    1
 -2       669       791       822      3176      3288      3285
 -1      1514    8    0    1
 -2       731       732       823      3032      3289      3290
 -1      1515    8    0    1
 -2       726       589       824      2959      3291      3292
 -1      1516    8    0    1
 -2       658       602       659      3048      3293      2766
 -1      1517    8    0    1
 -2       665       664       825      2783      3294      3295
 -1      1518    8    0    1
 -2       613       590       826      2627      3296      3297
 -1      1519    8    0    1
 -2       589       727       824      2962      3298      3291
 -1      1520    8    0    1
 -2       590       728       826      2964      3299      3296
 -1      1521    8    0    1
 -2       624       623       827      2662      3300      3301
 -1      1522    8    0    1
 -2       624       827       756      3301      3302      3066
 -1      1523    8    0    1
 -2       623       716       828      3035      3303      3304
 -1      1524    8    0    1
 -2       827       623       828      3300      3304      3305
 -1      1525    8    0    1
 -2       716       740       828      3284      3306      3303
 -1      1526    8    0    1
 -2       729       730       829      3034      3307      3308
 -1      1527    8    0    1
 -2       730       731       830      3033      3309      3310
 -1      1528    8    0    1
 -2       730       830       829      3310      3311      3307
 -1      1529    8    0    1
 -2       719       718       831      3037      3312      3313
 -1      1530    8    0    1
 -2       719       831       788      3313      3314      3168
 -1      1531    8    0    1
 -2       718       733       832      3036      3315      3316
 -1      1532    8    0    1
 -2       713       704       737      3282      3272      3026
 -1      1533    8    0    1
 -2       741       616       833      2992      3317      3318
 -1      1534    8    0    1
 -2       616       818       833      3268      3319      3317
 -1      1535    8    0    1
 -2       721       666       834      2947      3320      3321
 -1      1536    8    0    1
 -2       666       790       834      3173      3322      3320
 -1      1537    8    0    1
 -2       753       729       829      3060      3308      3323
 -1      1538    8    0    1
 -2       621       819       820      3281      3275      3324
 -1      1539    8    0    1
 -2       733       755       832      3065      3325      3315
 -1      1540    8    0    1
 -2       519       736       724      3002      3024      3326
 -1      1541    8    0    1
 -2       740       725       835      2991      3327      3328
 -1      1542    8    0    1
 -2       740       835       828      3328      3329      3306
 -1      1543    8    0    1
 -2       655       786       750      3156      3330      3158
 -1      1544    8    0    1
 -2       615       722       836      2950      3331      3332
 -1      1545    8    0    1
 -2       615       836       818      3332      3333      3267
 -1      1546    8    0    1
 -2       658       519       724      2762      3326      3049
 -1      1547    8    0    1
 -2       660       659       714      2769      3334      3335
 -1      1548    8    0    1
 -2       732       788       837      3169      3336      3337
 -1      1549    8    0    1
 -2       732       837       823      3337      3338      3289
 -1      1550    8    0    1
 -2       722       617       838      2951      3339      3340
 -1      1551    8    0    1
 -2       722       838       836      3340      3341      3331
 -1      1552    8    0    1
 -2       664       721       839      2946      3342      3343
 -1      1553    8    0    1
 -2       721       834       839      3321      3344      3342
 -1      1554    8    0    1
 -2       731       823       830      3290      3345      3309
 -1      1555    8    0    1
 -2       745       611       840      3011      3346      3347
 -1      1556    8    0    1
 -2       787       745       840      3167      3347      3348
 -1      1557    8    0    1
 -2       611       742       840      2997      3349      3346
 -1      1558    8    0    1
 -2       693       753       814      3247      3350      3243
 -1      1559    8    0    1
 -2       695       715       841      3249      3351      3352
 -1      1560    8    0    1
 -2       694       695       841      2872      3352      3353
 -1      1561    8    0    1
 -2       816       703       746      3264      3016      3354
 -1      1562    8    0    1
 -2       713       739       708      3023      3355      3283
 -1      1563    8    0    1
 -2       734       753       841      3061      3356      3357
 -1      1564    8    0    1
 -2       718       832       831      3316      3358      3312
 -1      1565    8    0    1
 -2       820       711       747      3273      3021      3359
 -1      1566    8    0    1
 -2       737       707       842      3271      3360      3361
 -1      1567    8    0    1
 -2       726       698       612      3252      3362      3040
 -1      1568    8    0    1
 -2       720       665       843      2943      3363      3364
 -1      1569    8    0    1
 -2       665       825       843      3295      3365      3363
 -1      1570    8    0    1
 -2       734       841       715      3357      3351      3038
 -1      1571    8    0    1
 -2       620       720       844      2942      3366      3367
 -1      1572    8    0    1
 -2       752       620       844      3057      3367      3368
 -1      1573    8    0    1
 -2       720       843       844      3364      3369      3366
 -1      1574    8    0    1
 -2       617       752       838      3058      3370      3339
 -1      1575    8    0    1
 -2       825       664       839      3294      3343      3371
 -1      1576    8    0    1
 -2       725       749       845      3043      3372      3373
 -1      1577    8    0    1
 -2       725       845       835      3373      3374      3327
 -1      1578    8    0    1
 -2       694       841       753      3353      3356      3246
 -1      1579    8    0    1
 -2       842       707       709      3360      2914      3375
 -1      1580    8    0    1
 -2       612       698       751      3362      3255      3052
 -1      1581    8    0    1
 -2       660       714       738      3335      3039      3376
 -1      1582    8    0    1
 -2       737       842       622      3361      3377      3025
 -1      1583    8    0    1
 -2       622       842       819      3377      3378      3280
 -1      1584    8    0    1
 -2       842       709       819      3375      3270      3378
 -1      1585    8    0    1
 -2       755       717       750      3064      3046      3379
 -1      1586    8    0    1
 -2       754       723       751      3062      3051      3380
 -1      1587    8    0    1
 -2       656       750       613      3159      3047      3381
 -1      1588    8    0    1
 -2       758       757       846      3073      3382      3383
 -1      1589    8    0    1
 -2       759       758       847      3076      3384      3385
 -1      1590    8    0    1
 -2       758       846       847      3383      3386      3384
 -1      1591    8    0    1
 -2       760       759       848      3079      3387      3388
 -1      1592    8    0    1
 -2       759       847       848      3385      3389      3387
 -1      1593    8    0    1
 -2       761       760       849      3082      3390      3391
 -1      1594    8    0    1
 -2       760       848       849      3388      3392      3390
 -1      1595    8    0    1
 -2       762       761       850      3085      3393      3394
 -1      1596    8    0    1
 -2       761       849       850      3391      3395      3393
 -1      1597    8    0    1
 -2       763       762       851      3088      3396      3397
 -1      1598    8    0    1
 -2       762       850       851      3394      3398      3396
 -1      1599    8    0    1
 -2       764       763       852      3091      3399      3400
 -1      1600    8    0    1
 -2       763       851       852      3397      3401      3399
 -1      1601    8    0    1
 -2       765       764       853      3094      3402      3403
 -1      1602    8    0    1
 -2       764       852       853      3400      3404      3402
 -1      1603    8    0    1
 -2       766       765       854      3097      3405      3406
 -1      1604    8    0    1
 -2       765       853       854      3403      3407      3405
 -1      1605    8    0    1
 -2       767       766       855      3100      3408      3409
 -1      1606    8    0    1
 -2       766       854       855      3406      3410      3408
 -1      1607    8    0    1
 -2       768       767       856      3103      3411      3412
 -1      1608    8    0    1
 -2       767       855       856      3409      3413      3411
 -1      1609    8    0    1
 -2       769       768       857      3106      3414      3415
 -1      1610    8    0    1
 -2       768       856       857      3412      3416      3414
 -1      1611    8    0    1
 -2       770       769       858      3109      3417      3418
 -1      1612    8    0    1
 -2       769       857       858      3415      3419      3417
 -1      1613    8    0    1
 -2       771       770       859      3112      3420      3421
 -1      1614    8    0    1
 -2       770       858       859      3418      3422      3420
 -1      1615    8    0    1
 -2       772       771       860      3115      3423      3424
 -1      1616    8    0    1
 -2       771       859       860      3421      3425      3423
 -1      1617    8    0    1
 -2       773       772       861      3118      3426      3427
 -1      1618    8    0    1
 -2       772       860       861      3424      3428      3426
 -1      1619    8    0    1
 -2       774       773       862      3121      3429      3430
 -1      1620    8    0    1
 -2       773       861       862      3427      3431      3429
 -1      1621    8    0    1
 -2       775       774       863      3124      3432      3433
 -1      1622    8    0    1
 -2       774       862       863      3430      3434      3432
 -1      1623    8    0    1
 -2       776       775       864      3127      3435      3436
 -1      1624    8    0    1
 -2       775       863       864      3433      3437      3435
 -1      1625    8    0    1
 -2       777       776       865      3130      3438      3439
 -1      1626    8    0    1
 -2       776       864       865      3436      3440      3438
 -1      1627    8    0    1
 -2       778       777       866      3133      3441      3442
 -1      1628    8    0    1
 -2       777       865       866      3439      3443      3441
 -1      1629    8    0    1
 -2       779       778       867      3136      3444      3445
 -1      1630    8    0    1
 -2       778       866       867      3442      3446      3444
 -1      1631    8    0    1
 -2       780       779       868      3139      3447      3448
 -1      1632    8    0    1
 -2       779       867       868      3445      3449      3447
 -1      1633    8    0    1
 -2       781       780       869      3142      3450      3451
 -1      1634    8    0    1
 -2       780       868       869      3448      3452      3450
 -1      1635    8    0    1
 -2       782       781       870      3145      3453      3454
 -1      1636    8    0    1
 -2       781       869       870      3451      3455      3453
 -1      1637    8    0    1
 -2       783       782       871      3148      3456      3457
 -1      1638    8    0    1
 -2       782       870       871      3454      3458      3456
 -1      1639    8    0    1
 -2       784       783       872      3151      3459      3460
 -1      1640    8    0    1
 -2       783       871       872      3457      3461      3459
 -1      1641    8    0    1
 -2       785       784       873      3154      3462      3463
 -1      1642    8    0    1
 -2       784       872       873      3460      3464      3462
 -1      1643    8    0    1
 -2       728       656       826      3160      3465      3299
 -1      1644    8    0    1
 -2       743       706       874      3003      3466      3467
 -1      1645    8    0    1
 -2       825       839       875      3371      3468      3469
 -1      1646    8    0    1
 -2       753       829       814      3323      3470      3350
 -1      1647    8    0    1
 -2       792       793       876      3182      3471      3472
 -1      1648    8    0    1
 -2       791       792       877      3179      3473      3474
 -1      1649    8    0    1
 -2       792       876       877      3472      3475      3473
 -1      1650    8    0    1
 -2       794       795       878      3188      3476      3477
 -1      1651    8    0    1
 -2       795       796       879      3191      3478      3479
 -1      1652    8    0    1
 -2       795       879       878      3479      3480      3476
 -1      1653    8    0    1
 -2       796       797       880      3194      3481      3482
 -1      1654    8    0    1
 -2       796       880       879      3482      3483      3478
 -1      1655    8    0    1
 -2       797       798       881      3197      3484      3485
 -1      1656    8    0    1
 -2       797       881       880      3485      3486      3481
 -1      1657    8    0    1
 -2       798       799       882      3200      3487      3488
 -1      1658    8    0    1
 -2       798       882       881      3488      3489      3484
 -1      1659    8    0    1
 -2       799       800       883      3203      3490      3491
 -1      1660    8    0    1
 -2       799       883       882      3491      3492      3487
 -1      1661    8    0    1
 -2       800       801       884      3206      3493      3494
 -1      1662    8    0    1
 -2       800       884       883      3494      3495      3490
 -1      1663    8    0    1
 -2       801       802       885      3209      3496      3497
 -1      1664    8    0    1
 -2       801       885       884      3497      3498      3493
 -1      1665    8    0    1
 -2       802       803       886      3212      3499      3500
 -1      1666    8    0    1
 -2       802       886       885      3500      3501      3496
 -1      1667    8    0    1
 -2       803       804       887      3215      3502      3503
 -1      1668    8    0    1
 -2       803       887       886      3503      3504      3499
 -1      1669    8    0    1
 -2       804       805       888      3218      3505      3506
 -1      1670    8    0    1
 -2       804       888       887      3506      3507      3502
 -1      1671    8    0    1
 -2       805       806       889      3221      3508      3509
 -1      1672    8    0    1
 -2       805       889       888      3509      3510      3505
 -1      1673    8    0    1
 -2       806       807       890      3224      3511      3512
 -1      1674    8    0    1
 -2       806       890       889      3512      3513      3508
 -1      1675    8    0    1
 -2       807       808       891      3227      3514      3515
 -1      1676    8    0    1
 -2       807       891       890      3515      3516      3511
 -1      1677    8    0    1
 -2       808       809       892      3230      3517      3518
 -1      1678    8    0    1
 -2       808       892       891      3518      3519      3514
 -1      1679    8    0    1
 -2       809       810       893      3233      3520      3521
 -1      1680    8    0    1
 -2       809       893       892      3521      3522      3517
 -1      1681    8    0    1
 -2       810       811       894      3236      3523      3524
 -1      1682    8    0    1
 -2       810       894       893      3524      3525      3520
 -1      1683    8    0    1
 -2       811       812       895      3239      3526      3527
 -1      1684    8    0    1
 -2       811       895       894      3527      3528      3523
 -1      1685    8    0    1
 -2       812       813       896      3242      3529      3530
 -1      1686    8    0    1
 -2       812       896       895      3530      3531      3526
 -1      1687    8    0    1
 -2       813       814       897      3245      3532      3533
 -1      1688    8    0    1
 -2       896       813       897      3529      3533      3534
 -1      1689    8    0    1
 -2       814       829       897      3470      3535      3532
 -1      1690    8    0    1
 -2       816       746       898      3354      3536      3537
 -1      1691    8    0    1
 -2       815       816       898      3263      3537      3538
 -1      1692    8    0    1
 -2       746       743       898      3017      3539      3536
 -1      1693    8    0    1
 -2       699       754       751      3257      3380      3254
 -1      1694    8    0    1
 -2       754       815       821      3260      3540      3279
 -1      1695    8    0    1
 -2       706       817       874      3266      3541      3466
 -1      1696    8    0    1
 -2       830       823       899      3345      3542      3543
 -1      1697    8    0    1
 -2       832       755       900      3325      3544      3545
 -1      1698    8    0    1
 -2       874       817       744      3541      3546      3547
 -1      1699    8    0    1
 -2       831       832       901      3358      3548      3549
 -1      1700    8    0    1
 -2       756       827       902      3302      3550      3551
 -1      1701    8    0    1
 -2       793       794       903      3185      3552      3553
 -1      1702    8    0    1
 -2       876       793       903      3471      3553      3554
 -1      1703    8    0    1
 -2       794       878       903      3477      3555      3552
 -1      1704    8    0    1
 -2       790       789       904      3174      3556      3557
 -1      1705    8    0    1
 -2       743       874       898      3467      3558      3539
 -1      1706    8    0    1
 -2       749       741       905      3044      3559      3560
 -1      1707    8    0    1
 -2       845       749       905      3372      3560      3561
 -1      1708    8    0    1
 -2       741       833       905      3318      3562      3559
 -1      1709    8    0    1
 -2       739       744       817      3007      3546      3563
 -1      1710    8    0    1
 -2       659       602       748      3293      3029      3564
 -1      1711    8    0    1
 -2       613       826       656      3297      3465      3381
 -1      1712    8    0    1
 -2       659       748       714      3564      3027      3334
 -1      1713    8    0    1
 -2       874       744       821      3547      3278      3565
 -1      1714    8    0    1
 -2       788       831       906      3314      3566      3567
 -1      1715    8    0    1
 -2       750       786       755      3330      3568      3379
 -1      1716    8    0    1
 -2       757       756       907      3070      3569      3570
 -1      1717    8    0    1
 -2       757       907       846      3570      3571      3382
 -1      1718    8    0    1
 -2       829       830       897      3311      3572      3535
 -1      1719    8    0    1
 -2       820       747       787      3359      3166      3573
 -1      1720    8    0    1
 -2       708       739       817      3355      3563      3265
 -1      1721    8    0    1
 -2       838       752       908      3370      3574      3575
 -1      1722    8    0    1
 -2       752       844       908      3368      3576      3574
 -1      1723    8    0    1
 -2       755       786       900      3568      3577      3544
 -1      1724    8    0    1
 -2       834       790       909      3322      3578      3579
 -1      1725    8    0    1
 -2       790       904       909      3557      3580      3578
 -1      1726    8    0    1
 -2       742       621       820      2995      3324      3581
 -1      1727    8    0    1
 -2       835       845       910      3374      3582      3583
 -1      1728    8    0    1
 -2       897       830       911      3572      3584      3585
 -1      1729    8    0    1
 -2       896       897       911      3534      3585      3586
 -1      1730    8    0    1
 -2       830       899       911      3543      3587      3584
 -1      1731    8    0    1
 -2       785       873       900      3463      3588      3589
 -1      1732    8    0    1
 -2       875       839       912      3468      3590      3591
 -1      1733    8    0    1
 -2       839       834       912      3344      3592      3590
 -1      1734    8    0    1
 -2       786       785       900      3157      3589      3577
 -1      1735    8    0    1
 -2       818       836       913      3333      3593      3594
 -1      1736    8    0    1
 -2       837       788       914      3336      3595      3596
 -1      1737    8    0    1
 -2       788       906       914      3567      3597      3595
 -1      1738    8    0    1
 -2       825       875       915      3469      3598      3599
 -1      1739    8    0    1
 -2       825       915       843      3599      3600      3365
 -1      1740    8    0    1
 -2       823       837       899      3338      3601      3542
 -1      1741    8    0    1
 -2       836       838       908      3341      3575      3602
 -1      1742    8    0    1
 -2       904       789       916      3556      3603      3604
 -1      1743    8    0    1
 -2       789       822       916      3287      3605      3603
 -1      1744    8    0    1
 -2       791       877       917      3474      3606      3607
 -1      1745    8    0    1
 -2       791       917       822      3607      3608      3288
 -1      1746    8    0    1
 -2       697       726       824      3253      3292      3609
 -1      1747    8    0    1
 -2       901       832       900      3548      3545      3610
 -1      1748    8    0    1
 -2       833       818       918      3319      3611      3612
 -1      1749    8    0    1
 -2       818       913       918      3594      3613      3611
 -1      1750    8    0    1
 -2       906       831       901      3566      3549      3614
 -1      1751    8    0    1
 -2       756       902       907      3551      3615      3569
 -1      1752    8    0    1
 -2       821       815       874      3540      3616      3565
 -1      1753    8    0    1
 -2       835       910       902      3583      3617      3618
 -1      1754    8    0    1
 -2       742       820       840      3581      3619      3349
 -1      1755    8    0    1
 -2       874       815       898      3616      3538      3558
 -1      1756    8    0    1
 -2       835       902       827      3618      3550      3620
 -1      1757    8    0    1
 -2       840       820       787      3619      3573      3348
 -1      1758    8    0    1
 -2       835       827       828      3620      3305      3329
 -1      1759    8    0    1
 -2       910       845       919      3582      3621      3622
 -1      1760    8    0    1
 -2       845       905       919      3561      3623      3621
 -1      1761    8    0    1
 -2       877       876       920      3475      3624      3625
 -1      1762    8    0    1
 -2       847       846       921      3386      3626      3627
 -1      1763    8    0    1
 -2       848       847       922      3389      3628      3629
 -1      1764    8    0    1
 -2       847       921       922      3627      3630      3628
 -1      1765    8    0    1
 -2       849       848       923      3392      3631      3632
 -1      1766    8    0    1
 -2       848       922       923      3629      3633      3631
 -1      1767    8    0    1
 -2       850       849       924      3395      3634      3635
 -1      1768    8    0    1
 -2       849       923       924      3632      3636      3634
 -1      1769    8    0    1
 -2       851       850       925      3398      3637      3638
 -1      1770    8    0    1
 -2       850       924       925      3635      3639      3637
 -1      1771    8    0    1
 -2       852       851       926      3401      3640      3641
 -1      1772    8    0    1
 -2       851       925       926      3638      3642      3640
 -1      1773    8    0    1
 -2       853       852       927      3404      3643      3644
 -1      1774    8    0    1
 -2       852       926       927      3641      3645      3643
 -1      1775    8    0    1
 -2       854       853       928      3407      3646      3647
 -1      1776    8    0    1
 -2       853       927       928      3644      3648      3646
 -1      1777    8    0    1
 -2       855       854       929      3410      3649      3650
 -1      1778    8    0    1
 -2       854       928       929      3647      3651      3649
 -1      1779    8    0    1
 -2       856       855       930      3413      3652      3653
 -1      1780    8    0    1
 -2       855       929       930      3650      3654      3652
 -1      1781    8    0    1
 -2       857       856       931      3416      3655      3656
 -1      1782    8    0    1
 -2       856       930       931      3653      3657      3655
 -1      1783    8    0    1
 -2       858       857       932      3419      3658      3659
 -1      1784    8    0    1
 -2       857       931       932      3656      3660      3658
 -1      1785    8    0    1
 -2       859       858       933      3422      3661      3662
 -1      1786    8    0    1
 -2       858       932       933      3659      3663      3661
 -1      1787    8    0    1
 -2       860       859       934      3425      3664      3665
 -1      1788    8    0    1
 -2       859       933       934      3662      3666      3664
 -1      1789    8    0    1
 -2       861       860       935      3428      3667      3668
 -1      1790    8    0    1
 -2       860       934       935      3665      3669      3667
 -1      1791    8    0    1
 -2       862       861       936      3431      3670      3671
 -1      1792    8    0    1
 -2       861       935       936      3668      3672      3670
 -1      1793    8    0    1
 -2       863       862       937      3434      3673      3674
 -1      1794    8    0    1
 -2       862       936       937      3671      3675      3673
 -1      1795    8    0    1
 -2       864       863       938      3437      3676      3677
 -1      1796    8    0    1
 -2       863       937       938      3674      3678      3676
 -1      1797    8    0    1
 -2       865       864       939      3440      3679      3680
 -1      1798    8    0    1
 -2       864       938       939      3677      3681      3679
 -1      1799    8    0    1
 -2       866       865       940      3443      3682      3683
 -1      1800    8    0    1
 -2       865       939       940      3680      3684      3682
 -1      1801    8    0    1
 -2       867       866       941      3446      3685      3686
 -1      1802    8    0    1
 -2       866       940       941      3683      3687      3685
 -1      1803    8    0    1
 -2       868       867       942      3449      3688      3689
 -1      1804    8    0    1
 -2       867       941       942      3686      3690      3688
 -1      1805    8    0    1
 -2       869       868       943      3452      3691      3692
 -1      1806    8    0    1
 -2       868       942       943      3689      3693      3691
 -1      1807    8    0    1
 -2       870       869       944      3455      3694      3695
 -1      1808    8    0    1
 -2       869       943       944      3692      3696      3694
 -1      1809    8    0    1
 -2       871       870       945      3458      3697      3698
 -1      1810    8    0    1
 -2       870       944       945      3695      3699      3697
 -1      1811    8    0    1
 -2       872       871       946      3461      3700      3701
 -1      1812    8    0    1
 -2       871       945       946      3698      3702      3700
 -1      1813    8    0    1
 -2       873       872       947      3464      3703      3704
 -1      1814    8    0    1
 -2       872       946       947      3701      3705      3703
 -1      1815    8    0    1
 -2       913       836       908      3593      3602      3706
 -1      1816    8    0    1
 -2       745       660       738      3161      3376      3010
 -1      1817    8    0    1
 -2       879       880       948      3483      3707      3708
 -1      1818    8    0    1
 -2       878       879       949      3480      3709      3710
 -1      1819    8    0    1
 -2       879       948       949      3708      3711      3709
 -1      1820    8    0    1
 -2       881       882       950      3489      3712      3713
 -1      1821    8    0    1
 -2       882       883       951      3492      3714      3715
 -1      1822    8    0    1
 -2       882       951       950      3715      3716      3712
 -1      1823    8    0    1
 -2       883       884       952      3495      3717      3718
 -1      1824    8    0    1
 -2       883       952       951      3718      3719      3714
 -1      1825    8    0    1
 -2       884       885       953      3498      3720      3721
 -1      1826    8    0    1
 -2       884       953       952      3721      3722      3717
 -1      1827    8    0    1
 -2       885       886       954      3501      3723      3724
 -1      1828    8    0    1
 -2       885       954       953      3724      3725      3720
 -1      1829    8    0    1
 -2       886       887       955      3504      3726      3727
 -1      1830    8    0    1
 -2       886       955       954      3727      3728      3723
 -1      1831    8    0    1
 -2       887       888       956      3507      3729      3730
 -1      1832    8    0    1
 -2       887       956       955      3730      3731      3726
 -1      1833    8    0    1
 -2       888       889       957      3510      3732      3733
 -1      1834    8    0    1
 -2       888       957       956      3733      3734      3729
 -1      1835    8    0    1
 -2       889       890       958      3513      3735      3736
 -1      1836    8    0    1
 -2       889       958       957      3736      3737      3732
 -1      1837    8    0    1
 -2       890       891       959      3516      3738      3739
 -1      1838    8    0    1
 -2       890       959       958      3739      3740      3735
 -1      1839    8    0    1
 -2       891       892       960      3519      3741      3742
 -1      1840    8    0    1
 -2       891       960       959      3742      3743      3738
 -1      1841    8    0    1
 -2       892       893       961      3522      3744      3745
 -1      1842    8    0    1
 -2       892       961       960      3745      3746      3741
 -1      1843    8    0    1
 -2       893       894       962      3525      3747      3748
 -1      1844    8    0    1
 -2       893       962       961      3748      3749      3744
 -1      1845    8    0    1
 -2       894       895       963      3528      3750      3751
 -1      1846    8    0    1
 -2       894       963       962      3751      3752      3747
 -1      1847    8    0    1
 -2       895       896       964      3531      3753      3754
 -1      1848    8    0    1
 -2       963       895       964      3750      3754      3755
 -1      1849    8    0    1
 -2       896       911       964      3586      3756      3753
 -1      1850    8    0    1
 -2       844       843       965      3369      3757      3758
 -1      1851    8    0    1
 -2       908       844       965      3576      3758      3759
 -1      1852    8    0    1
 -2       843       915       965      3600      3760      3757
 -1      1853    8    0    1
 -2       880       881       966      3486      3761      3762
 -1      1854    8    0    1
 -2       881       950       966      3713      3763      3761
 -1      1855    8    0    1
 -2       907       902       967      3615      3764      3765
 -1      1856    8    0    1
 -2       902       910       967      3617      3766      3764
 -1      1857    8    0    1
 -2       899       837       968      3601      3767      3768
 -1      1858    8    0    1
 -2       727       697       824      3250      3609      3298
 -1      1859    8    0    1
 -2       906       901       969      3614      3769      3770
 -1      1860    8    0    1
 -2       846       907       970      3571      3771      3772
 -1      1861    8    0    1
 -2       846       970       921      3772      3773      3626
 -1      1862    8    0    1
 -2       913       908       971      3706      3774      3775
 -1      1863    8    0    1
 -2       911       899       972      3587      3776      3777
 -1      1864    8    0    1
 -2       964       911       972      3756      3777      3778
 -1      1865    8    0    1
 -2       899       968       972      3768      3779      3776
 -1      1866    8    0    1
 -2       920       876       973      3624      3780      3781
 -1      1867    8    0    1
 -2       876       903       973      3554      3782      3780
 -1      1868    8    0    1
 -2       908       965       971      3759      3783      3774
 -1      1869    8    0    1
 -2       912       834       909      3592      3579      3784
 -1      1870    8    0    1
 -2       875       912       974      3591      3785      3786
 -1      1871    8    0    1
 -2       914       906       975      3597      3787      3788
 -1      1872    8    0    1
 -2       906       969       975      3770      3789      3787
 -1      1873    8    0    1
 -2       837       914       968      3596      3790      3767
 -1      1874    8    0    1
 -2       915       875       976      3598      3791      3792
 -1      1875    8    0    1
 -2       875       974       976      3786      3793      3791
 -1      1876    8    0    1
 -2       916       822       917      3605      3608      3794
 -1      1877    8    0    1
 -2       917       877       977      3606      3795      3796
 -1      1878    8    0    1
 -2       877       920       977      3625      3797      3795
 -1      1879    8    0    1
 -2       900       873       901      3588      3798      3610
 -1      1880    8    0    1
 -2       901       873       947      3798      3704      3799
 -1      1881    8    0    1
 -2       918       913       978      3613      3800      3801
 -1      1882    8    0    1
 -2       833       918       979      3612      3802      3803
 -1      1883    8    0    1
 -2       833       979       905      3803      3804      3562
 -1      1884    8    0    1
 -2       967       910       980      3766      3805      3806
 -1      1885    8    0    1
 -2       910       919       980      3622      3807      3805
 -1      1886    8    0    1
 -2       880       966       948      3762      3808      3707
 -1      1887    8    0    1
 -2       904       916       981      3604      3809      3810
 -1      1888    8    0    1
 -2       903       878       982      3555      3811      3812
 -1      1889    8    0    1
 -2       903       982       973      3812      3813      3782
 -1      1890    8    0    1
 -2       970       907       967      3771      3765      3814
 -1      1891    8    0    1
 -2       969       901       947      3769      3799      3815
 -1      1892    8    0    1
 -2       913       971       978      3775      3816      3800
 -1      1893    8    0    1
 -2       904       981       983      3810      3817      3818
 -1      1894    8    0    1
 -2       904       983       909      3818      3819      3580
 -1      1895    8    0    1
 -2       982       878       949      3811      3710      3820
 -1      1896    8    0    1
 -2       918       978       984      3801      3821      3822
 -1      1897    8    0    1
 -2       918       984       979      3822      3823      3802
 -1      1898    8    0    1
 -2       923       922       985      3633      3824      3825
 -1      1899    8    0    1
 -2       924       923       986      3636      3826      3827
 -1      1900    8    0    1
 -2       923       985       986      3825      3828      3826
 -1      1901    8    0    1
 -2       925       924       987      3639      3829      3830
 -1      1902    8    0    1
 -2       924       986       987      3827      3831      3829
 -1      1903    8    0    1
 -2       926       925       988      3642      3832      3833
 -1      1904    8    0    1
 -2       925       987       988      3830      3834      3832
 -1      1905    8    0    1
 -2       927       926       989      3645      3835      3836
 -1      1906    8    0    1
 -2       926       988       989      3833      3837      3835
 -1      1907    8    0    1
 -2       928       927       990      3648      3838      3839
 -1      1908    8    0    1
 -2       927       989       990      3836      3840      3838
 -1      1909    8    0    1
 -2       929       928       991      3651      3841      3842
 -1      1910    8    0    1
 -2       928       990       991      3839      3843      3841
 -1      1911    8    0    1
 -2       930       929       992      3654      3844      3845
 -1      1912    8    0    1
 -2       929       991       992      3842      3846      3844
 -1      1913    8    0    1
 -2       931       930       993      3657      3847      3848
 -1      1914    8    0    1
 -2       930       992       993      3845      3849      3847
 -1      1915    8    0    1
 -2       932       931       994      3660      3850      3851
 -1      1916    8    0    1
 -2       931       993       994      3848      3852      3850
 -1      1917    8    0    1
 -2       933       932       995      3663      3853      3854
 -1      1918    8    0    1
 -2       932       994       995      3851      3855      3853
 -1      1919    8    0    1
 -2       934       933       996      3666      3856      3857
 -1      1920    8    0    1
 -2       933       995       996      3854      3858      3856
 -1      1921    8    0    1
 -2       935       934       997      3669      3859      3860
 -1      1922    8    0    1
 -2       934       996       997      3857      3861      3859
 -1      1923    8    0    1
 -2       936       935       998      3672      3862      3863
 -1      1924    8    0    1
 -2       935       997       998      3860      3864      3862
 -1      1925    8    0    1
 -2       937       936       999      3675      3865      3866
 -1      1926    8    0    1
 -2       936       998       999      3863      3867      3865
 -1      1927    8    0    1
 -2       938       937      1000      3678      3868      3869
 -1      1928    8    0    1
 -2       937       999      1000      3866      3870      3868
 -1      1929    8    0    1
 -2       939       938      1001      3681      3871      3872
 -1      1930    8    0    1
 -2       938      1000      1001      3869      3873      3871
 -1      1931    8    0    1
 -2       940       939      1002      3684      3874      3875
 -1      1932    8    0    1
 -2       939      1001      1002      3872      3876      3874
 -1      1933    8    0    1
 -2       941       940      1003      3687      3877      3878
 -1      1934    8    0    1
 -2       940      1002      1003      3875      3879      3877
 -1      1935    8    0    1
 -2       942       941      1004      3690      3880      3881
 -1      1936    8    0    1
 -2       941      1003      1004      3878      3882      3880
 -1      1937    8    0    1
 -2       943       942      1005      3693      3883      3884
 -1      1938    8    0    1
 -2       942      1004      1005      3881      3885      3883
 -1      1939    8    0    1
 -2       944       943      1006      3696      3886      3887
 -1      1940    8    0    1
 -2       943      1005      1006      3884      3888      3886
 -1      1941    8    0    1
 -2       945       944      1007      3699      3889      3890
 -1      1942    8    0    1
 -2       944      1006      1007      3887      3891      3889
 -1      1943    8    0    1
 -2       946       945      1008      3702      3892      3893
 -1      1944    8    0    1
 -2       945      1007      1008      3890      3894      3892
 -1      1945    8    0    1
 -2       947       946      1009      3705      3895      3896
 -1      1946    8    0    1
 -2       969       947      1009      3815      3896      3897
 -1      1947    8    0    1
 -2       946      1008      1009      3893      3898      3895
 -1      1948    8    0    1
 -2       949       948      1010      3711      3899      3900
 -1      1949    8    0    1
 -2       951       952      1011      3719      3901      3902
 -1      1950    8    0    1
 -2       950       951      1012      3716      3903      3904
 -1      1951    8    0    1
 -2       951      1011      1012      3902      3905      3903
 -1      1952    8    0    1
 -2       953       954      1013      3725      3906      3907
 -1      1953    8    0    1
 -2       954       955      1014      3728      3908      3909
 -1      1954    8    0    1
 -2       954      1014      1013      3909      3910      3906
 -1      1955    8    0    1
 -2       955       956      1015      3731      3911      3912
 -1      1956    8    0    1
 -2       955      1015      1014      3912      3913      3908
 -1      1957    8    0    1
 -2       956       957      1016      3734      3914      3915
 -1      1958    8    0    1
 -2       956      1016      1015      3915      3916      3911
 -1      1959    8    0    1
 -2       957       958      1017      3737      3917      3918
 -1      1960    8    0    1
 -2       957      1017      1016      3918      3919      3914
 -1      1961    8    0    1
 -2       958       959      1018      3740      3920      3921
 -1      1962    8    0    1
 -2       958      1018      1017      3921      3922      3917
 -1      1963    8    0    1
 -2       959       960      1019      3743      3923      3924
 -1      1964    8    0    1
 -2       959      1019      1018      3924      3925      3920
 -1      1965    8    0    1
 -2       960       961      1020      3746      3926      3927
 -1      1966    8    0    1
 -2       960      1020      1019      3927      3928      3923
 -1      1967    8    0    1
 -2       961       962      1021      3749      3929      3930
 -1      1968    8    0    1
 -2       961      1021      1020      3930      3931      3926
 -1      1969    8    0    1
 -2       962       963      1022      3752      3932      3933
 -1      1970    8    0    1
 -2       962      1022      1021      3933      3934      3929
 -1      1971    8    0    1
 -2       965       915      1023      3760      3935      3936
 -1      1972    8    0    1
 -2       971       965      1023      3783      3936      3937
 -1      1973    8    0    1
 -2       915       976      1023      3792      3938      3935
 -1      1974    8    0    1
 -2       970       967      1024      3814      3939      3940
 -1      1975    8    0    1
 -2       967       980      1024      3806      3941      3939
 -1      1976    8    0    1
 -2       916       917      1025      3794      3942      3943
 -1      1977    8    0    1
 -2       981       916      1025      3809      3943      3944
 -1      1978    8    0    1
 -2       917       977      1025      3796      3945      3942
 -1      1979    8    0    1
 -2       952       953      1026      3722      3946      3947
 -1      1980    8    0    1
 -2       952      1026      1011      3947      3948      3901
 -1      1981    8    0    1
 -2       921       970      1027      3773      3949      3950
 -1      1982    8    0    1
 -2       970      1024      1027      3940      3951      3949
 -1      1983    8    0    1
 -2       978       971      1028      3816      3952      3953
 -1      1984    8    0    1
 -2       971      1023      1028      3937      3954      3952
 -1      1985    8    0    1
 -2       968       914      1029      3790      3955      3956
 -1      1986    8    0    1
 -2       982       949      1030      3820      3957      3958
 -1      1987    8    0    1
 -2       949      1010      1030      3900      3959      3957
 -1      1988    8    0    1
 -2       922       921      1031      3630      3960      3961
 -1      1989    8    0    1
 -2       985       922      1031      3824      3961      3962
 -1      1990    8    0    1
 -2       921      1027      1031      3950      3963      3960
 -1      1991    8    0    1
 -2       912       909      1032      3784      3964      3965
 -1      1992    8    0    1
 -2       974       912      1032      3785      3965      3966
 -1      1993    8    0    1
 -2       909       983      1032      3819      3967      3964
 -1      1994    8    0    1
 -2       919       905       979      3623      3804      3968
 -1      1995    8    0    1
 -2       948       966      1033      3808      3969      3970
 -1      1996    8    0    1
 -2       948      1033      1010      3970      3971      3899
 -1      1997    8    0    1
 -2       966       950      1034      3763      3972      3973
 -1      1998    8    0    1
 -2       966      1034      1033      3973      3974      3969
 -1      1999    8    0    1
 -2       975       969      1009      3789      3897      3975
 -1      2000    8    0    1
 -2       914       975      1029      3788      3976      3955
 -1      2001    8    0    1
 -2       974      1032      1035      3966      3977      3978
 -1      2002    8    0    1
 -2       976       974      1036      3793      3979      3980
 -1      2003    8    0    1
 -2       974      1035      1036      3978      3981      3979
 -1      2004    8    0    1
 -2       953      1013      1026      3907      3982      3946
 -1      2005    8    0    1
 -2       977       920      1037      3797      3983      3984
 -1      2006    8    0    1
 -2       950      1012      1034      3904      3985      3972
 -1      2007    8    0    1
 -2       968      1029      1038      3956      3986      3987
 -1      2008    8    0    1
 -2       968      1038       972      3987      3988      3779
 -1      2009    8    0    1
 -2      1022       963      1038      3932      3989      3990
 -1      2010    8    0    1
 -2       919       979      1039      3968      3991      3992
 -1      2011    8    0    1
 -2       980       919      1039      3807      3992      3993
 -1      2012    8    0    1
 -2       979       984      1039      3823      3994      3991
 -1      2013    8    0    1
 -2       920       973      1040      3781      3995      3996
 -1      2014    8    0    1
 -2       920      1040      1037      3996      3997      3983
 -1      2015    8    0    1
 -2       984       978      1041      3821      3998      3999
 -1      2016    8    0    1
 -2       978      1028      1041      3953      4000      3998
 -1      2017    8    0    1
 -2       973       982      1042      3813      4001      4002
 -1      2018    8    0    1
 -2       973      1042      1040      4002      4003      3995
 -1      2019    8    0    1
 -2       983       981      1043      3817      4004      4005
 -1      2020    8    0    1
 -2       981      1025      1044      3944      4006      4007
 -1      2021    8    0    1
 -2       981      1044      1043      4007      4008      4004
 -1      2022    8    0    1
 -2       982      1030      1042      3958      4009      4001
 -1      2023    8    0    1
 -2      1032       983      1045      3967      4010      4011
 -1      2024    8    0    1
 -2      1032      1045      1035      4011      4012      3977
 -1      2025    8    0    1
 -2       987       986      1046      3831      4013      4014
 -1      2026    8    0    1
 -2       988       987      1047      3834      4015      4016
 -1      2027    8    0    1
 -2       987      1046      1047      4014      4017      4015
 -1      2028    8    0    1
 -2       989       988      1048      3837      4018      4019
 -1      2029    8    0    1
 -2       988      1047      1048      4016      4020      4018
 -1      2030    8    0    1
 -2       990       989      1049      3840      4021      4022
 -1      2031    8    0    1
 -2       989      1048      1049      4019      4023      4021
 -1      2032    8    0    1
 -2       991       990      1050      3843      4024      4025
 -1      2033    8    0    1
 -2       990      1049      1050      4022      4026      4024
 -1      2034    8    0    1
 -2       992       991      1051      3846      4027      4028
 -1      2035    8    0    1
 -2       991      1050      1051      4025      4029      4027
 -1      2036    8    0    1
 -2       993       992      1052      3849      4030      4031
 -1      2037    8    0    1
 -2       992      1051      1052      4028      4032      4030
 -1      2038    8    0    1
 -2       994       993      1053      3852      4033      4034
 -1      2039    8    0    1
 -2       993      1052      1053      4031      4035      4033
 -1      2040    8    0    1
 -2       995       994      1054      3855      4036      4037
 -1      2041    8    0    1
 -2       994      1053      1054      4034      4038      4036
 -1      2042    8    0    1
 -2       996       995      1055      3858      4039      4040
 -1      2043    8    0    1
 -2       995      1054      1055      4037      4041      4039
 -1      2044    8    0    1
 -2       997       996      1056      3861      4042      4043
 -1      2045    8    0    1
 -2       996      1055      1056      4040      4044      4042
 -1      2046    8    0    1
 -2       998       997      1057      3864      4045      4046
 -1      2047    8    0    1
 -2       997      1056      1057      4043      4047      4045
 -1      2048    8    0    1
 -2       999       998      1058      3867      4048      4049
 -1      2049    8    0    1
 -2       998      1057      1058      4046      4050      4048
 -1      2050    8    0    1
 -2      1000       999      1059      3870      4051      4052
 -1      2051    8    0    1
 -2       999      1058      1059      4049      4053      4051
 -1      2052    8    0    1
 -2      1001      1000      1060      3873      4054      4055
 -1      2053    8    0    1
 -2      1000      1059      1060      4052      4056      4054
 -1      2054    8    0    1
 -2      1002      1001      1061      3876      4057      4058
 -1      2055    8    0    1
 -2      1001      1060      1061      4055      4059      4057
 -1      2056    8    0    1
 -2      1003      1002      1062      3879      4060      4061
 -1      2057    8    0    1
 -2      1002      1061      1062      4058      4062      4060
 -1      2058    8    0    1
 -2      1004      1003      1063      3882      4063      4064
 -1      2059    8    0    1
 -2      1003      1062      1063      4061      4065      4063
 -1      2060    8    0    1
 -2      1005      1004      1064      3885      4066      4067
 -1      2061    8    0    1
 -2      1004      1063      1064      4064      4068      4066
 -1      2062    8    0    1
 -2      1006      1005      1065      3888      4069      4070
 -1      2063    8    0    1
 -2      1005      1064      1065      4067      4071      4069
 -1      2064    8    0    1
 -2      1007      1006      1066      3891      4072      4073
 -1      2065    8    0    1
 -2      1006      1065      1066      4070      4074      4072
 -1      2066    8    0    1
 -2      1008      1007      1067      3894      4075      4076
 -1      2067    8    0    1
 -2      1007      1066      1067      4073      4077      4075
 -1      2068    8    0    1
 -2      1009      1008      1068      3898      4078      4079
 -1      2069    8    0    1
 -2       975      1009      1068      3975      4079      4080
 -1      2070    8    0    1
 -2      1008      1067      1068      4076      4081      4078
 -1      2071    8    0    1
 -2      1034      1012      1069      3985      4082      4083
 -1      2072    8    0    1
 -2      1038      1029      1070      3986      4084      4085
 -1      2073    8    0    1
 -2      1014      1015      1071      3913      4086      4087
 -1      2074    8    0    1
 -2      1013      1014      1072      3910      4088      4089
 -1      2075    8    0    1
 -2      1014      1071      1072      4087      4090      4088
 -1      2076    8    0    1
 -2      1016      1017      1073      3919      4091      4092
 -1      2077    8    0    1
 -2      1017      1018      1074      3922      4093      4094
 -1      2078    8    0    1
 -2      1017      1074      1073      4094      4095      4091
 -1      2079    8    0    1
 -2      1018      1019      1075      3925      4096      4097
 -1      2080    8    0    1
 -2      1018      1075      1074      4097      4098      4093
 -1      2081    8    0    1
 -2      1019      1020      1076      3928      4099      4100
 -1      2082    8    0    1
 -2      1019      1076      1075      4100      4101      4096
 -1      2083    8    0    1
 -2      1020      1021      1077      3931      4102      4103
 -1      2084    8    0    1
 -2      1020      1077      1076      4103      4104      4099
 -1      2085    8    0    1
 -2      1021      1022      1078      3934      4105      4106
 -1      2086    8    0    1
 -2      1021      1078      1077      4106      4107      4102
 -1      2087    8    0    1
 -2      1038       963       972      3989      4108      3988
 -1      2088    8    0    1
 -2      1023       976      1079      3938      4109      4110
 -1      2089    8    0    1
 -2      1028      1023      1079      3954      4110      4111
 -1      2090    8    0    1
 -2       976      1036      1079      3980      4112      4109
 -1      2091    8    0    1
 -2       963       964       972      3755      3778      4108
 -1      2092    8    0    1
 -2      1025       977      1080      3945      4113      4114
 -1      2093    8    0    1
 -2       977      1037      1080      3984      4115      4113
 -1      2094    8    0    1
 -2      1029       975      1068      3976      4080      4116
 -1      2095    8    0    1
 -2      1010      1033      1081      3971      4117      4118
 -1      2096    8    0    1
 -2      1030      1010      1082      3959      4119      4120
 -1      2097    8    0    1
 -2      1010      1081      1082      4118      4121      4119
 -1      2098    8    0    1
 -2      1027      1024      1083      3951      4122      4123
 -1      2099    8    0    1
 -2       983      1043      1045      4005      4124      4010
 -1      2100    8    0    1
 -2      1042      1030      1084      4009      4125      4126
 -1      2101    8    0    1
 -2      1030      1082      1084      4120      4127      4125
 -1      2102    8    0    1
 -2      1022      1038      1070      3990      4085      4128
 -1      2103    8    0    1
 -2      1015      1016      1085      3916      4129      4130
 -1      2104    8    0    1
 -2      1016      1073      1085      4092      4131      4129
 -1      2105    8    0    1
 -2      1024       980      1086      3941      4132      4133
 -1      2106    8    0    1
 -2      1083      1024      1086      4122      4133      4134
 -1      2107    8    0    1
 -2       980      1039      1086      3993      4135      4132
 -1      2108    8    0    1
 -2      1012      1011      1087      3905      4136      4137
 -1      2109    8    0    1
 -2      1012      1087      1069      4137      4138      4082
 -1      2110    8    0    1
 -2       986       985      1088      3828      4139      4140
 -1      2111    8    0    1
 -2       986      1088      1046      4140      4141      4013
 -1      2112    8    0    1
 -2      1026      1013      1089      3982      4142      4143
 -1      2113    8    0    1
 -2      1013      1072      1089      4089      4144      4142
 -1      2114    8    0    1
 -2      1033      1034      1090      3974      4145      4146
 -1      2115    8    0    1
 -2      1034      1069      1090      4083      4147      4145
 -1      2116    8    0    1
 -2      1011      1026      1091      3948      4148      4149
 -1      2117    8    0    1
 -2      1087      1011      1091      4136      4149      4150
 -1      2118    8    0    1
 -2      1026      1089      1091      4143      4151      4148
 -1      2119    8    0    1
 -2      1080      1037      1092      4115      4152      4153
 -1      2120    8    0    1
 -2      1036      1035      1093      3981      4154      4155
 -1      2121    8    0    1
 -2      1027      1083      1094      4123      4156      4157
 -1      2122    8    0    1
 -2      1027      1094      1031      4157      4158      3963
 -1      2123    8    0    1
 -2       985      1031      1095      3962      4159      4160
 -1      2124    8    0    1
 -2      1088       985      1095      4139      4160      4161
 -1      2125    8    0    1
 -2      1031      1094      1095      4158      4162      4159
 -1      2126    8    0    1
 -2      1070      1029      1068      4084      4116      4163
 -1      2127    8    0    1
 -2      1039       984      1086      3994      4164      4135
 -1      2128    8    0    1
 -2       984      1041      1086      3999      4165      4164
 -1      2129    8    0    1
 -2      1015      1085      1071      4130      4166      4086
 -1      2130    8    0    1
 -2      1037      1040      1096      3997      4167      4168
 -1      2131    8    0    1
 -2      1037      1096      1092      4168      4169      4152
 -1      2132    8    0    1
 -2      1033      1090      1081      4146      4170      4117
 -1      2133    8    0    1
 -2      1025      1080      1044      4114      4171      4006
 -1      2134    8    0    1
 -2      1078      1022      1070      4105      4128      4172
 -1      2135    8    0    1
 -2      1045      1043      1097      4124      4173      4174
 -1      2136    8    0    1
 -2      1041      1028      1098      4000      4175      4176
 -1      2137    8    0    1
 -2      1028      1079      1098      4111      4177      4175
 -1      2138    8    0    1
 -2      1035      1045      1099      4012      4178      4179
 -1      2139    8    0    1
 -2      1035      1099      1093      4179      4180      4154
 -1      2140    8    0    1
 -2      1040      1042      1100      4003      4181      4182
 -1      2141    8    0    1
 -2      1040      1100      1096      4182      4183      4167
 -1      2142    8    0    1
 -2      1043      1044      1101      4008      4184      4185
 -1      2143    8    0    1
 -2      1043      1101      1097      4185      4186      4173
 -1      2144    8    0    1
 -2      1042      1084      1100      4126      4187      4181
 -1      2145    8    0    1
 -2      1070      1068      1067      4163      4081      4188
 -1      2146    8    0    1
 -2      1072      1071      1059      4090      4189      4190
 -1      2147    8    0    1
 -2      1048      1047      1102      4020      4191      4192
 -1      2148    8    0    1
 -2      1049      1048      1096      4023      4193      4194
 -1      2149    8    0    1
 -2      1050      1049      1100      4026      4195      4196
 -1      2150    8    0    1
 -2      1051      1050      1084      4029      4197      4198
 -1      2151    8    0    1
 -2      1052      1051      1082      4032      4199      4200
 -1      2152    8    0    1
 -2      1053      1052      1081      4035      4201      4202
 -1      2153    8    0    1
 -2      1054      1053      1090      4038      4203      4204
 -1      2154    8    0    1
 -2      1055      1054      1069      4041      4205      4206
 -1      2155    8    0    1
 -2      1056      1055      1087      4044      4207      4208
 -1      2156    8    0    1
 -2      1057      1056      1091      4047      4209      4210
 -1      2157    8    0    1
 -2      1058      1057      1089      4050      4211      4212
 -1      2158    8    0    1
 -2      1059      1058      1072      4053      4213      4190
 -1      2159    8    0    1
 -2      1060      1059      1071      4056      4189      4214
 -1      2160    8    0    1
 -2      1061      1060      1085      4059      4215      4216
 -1      2161    8    0    1
 -2      1062      1061      1073      4062      4217      4218
 -1      2162    8    0    1
 -2      1063      1062      1074      4065      4219      4220
 -1      2163    8    0    1
 -2      1064      1063      1075      4068      4221      4222
 -1      2164    8    0    1
 -2      1065      1064      1076      4071      4223      4224
 -1      2165    8    0    1
 -2      1066      1065      1077      4074      4225      4226
 -1      2166    8    0    1
 -2      1067      1066      1078      4077      4227      4228
 -1      2167    8    0    1
 -2      1060      1071      1085      4214      4166      4215
 -1      2168    8    0    1
 -2      1090      1053      1081      4203      4202      4170
 -1      2169    8    0    1
 -2      1074      1062      1073      4219      4218      4095
 -1      2170    8    0    1
 -2      1081      1052      1082      4201      4200      4121
 -1      2171    8    0    1
 -2      1082      1051      1084      4199      4198      4127
 -1      2172    8    0    1
 -2      1084      1050      1100      4197      4196      4187
 -1      2173    8    0    1
 -2      1083      1086      1098      4134      4229      4230
 -1      2174    8    0    1
 -2      1100      1049      1096      4195      4194      4183
 -1      2175    8    0    1
 -2      1074      1075      1063      4098      4221      4220
 -1      2176    8    0    1
 -2      1076      1077      1065      4104      4225      4224
 -1      2177    8    0    1
 -2      1077      1078      1066      4107      4227      4226
 -1      2178    8    0    1
 -2      1069      1087      1055      4138      4207      4206
 -1      2179    8    0    1
 -2      1076      1064      1075      4223      4222      4101
 -1      2180    8    0    1
 -2      1089      1057      1091      4211      4210      4151
 -1      2181    8    0    1
 -2      1044      1080      1103      4171      4231      4232
 -1      2182    8    0    1
 -2      1080      1092      1103      4153      4233      4231
 -1      2183    8    0    1
 -2      1078      1070      1067      4172      4188      4228
 -1      2184    8    0    1
 -2      1045      1097      1099      4174      4234      4178
 -1      2185    8    0    1
 -2      1085      1073      1061      4131      4217      4216
 -1      2186    8    0    1
 -2      1069      1054      1090      4205      4204      4147
 -1      2187    8    0    1
 -2      1047      1046      1103      4017      4235      4236
 -1      2188    8    0    1
 -2      1089      1072      1058      4144      4213      4212
 -1      2189    8    0    1
 -2      1046      1088      1101      4141      4237      4238
 -1      2190    8    0    1
 -2      1056      1087      1091      4208      4150      4209
 -1      2191    8    0    1
 -2      1036      1093      1098      4155      4239      4240
 -1      2192    8    0    1
 -2      1098      1093      1083      4239      4241      4230
 -1      2193    8    0    1
 -2      1101      1088      1097      4237      4242      4186
 -1      2194    8    0    1
 -2      1099      1097      1095      4234      4243      4244
 -1      2195    8    0    1
 -2      1097      1088      1095      4242      4161      4243
 -1      2196    8    0    1
 -2      1083      1093      1104      4241      4245      4246
 -1      2197    8    0    1
 -2      1101      1044      1103      4184      4232      4247
 -1      2198    8    0    1
 -2      1086      1041      1098      4165      4176      4229
 -1      2199    8    0    1
 -2      1101      1103      1046      4247      4235      4238
 -1      2200    8    0    1
 -2      1048      1102      1096      4192      4248      4193
 -1      2201    8    0    1
 -2      1103      1092      1102      4233      4249      4250
 -1      2202    8    0    1
 -2      1079      1036      1098      4112      4240      4177
 -1      2203    8    0    1
 -2      1103      1102      1047      4250      4191      4236
 -1      2204    8    0    1
 -2      1104      1093      1099      4245      4180      4251
 -1      2205    8    0    1
 -2      1102      1092      1096      4249      4169      4248
 -1      2206    8    0    1
 -2      1095      1094      1104      4162      4252      4253
 -1      2207    8    0    1
 -2      1095      1104      1099      4253      4251      4244
 -1      2208    8    0    1
 -2      1083      1104      1094      4246      4252      4156
 -3
    1PSTEP                         1           1           1          
  100CL  101 1.000000000        4253                     0    1           1
 -4  DISP        4    1
 -5  D1          1    2    1    0
 -5  D2          1    2    2    0
 -5  D3          1    2    3    0
 -5  ALL         1    2    0    0    1ALL
 -1         1 1.31041E-02-9.45593E-04-1.12924E-13
 -1         2 1.45091E-02-8.97387E-05-1.19318E-13
 -1         3 1.45229E-02 1.57168E-04-1.52734E-13
 -1         4 1.46819E-02-3.48216E-04-1.53419E-13
 -1         5 0.00000E+00 0.00000E+00 0.00000E+00
 -1         6 0.00000E+00 0.00000E+00 0.00000E+00
 -1         7 0.00000E+00 0.00000E+00 0.00000E+00
 -1         8 0.00000E+00 0.00000E+00 0.00000E+00
 -1         9 0.00000E+00 0.00000E+00 0.00000E+00
 -1        10 0.00000E+00 0.00000E+00 0.00000E+00
 -1        11 0.00000E+00 0.00000E+00 0.00000E+00
 -1        12 0.00000E+00 0.00000E+00 0.00000E+00
 -1        13 0.00000E+00 0.00000E+00 0.00000E+00
 -1        14 0.00000E+00 0.00000E+00 0.00000E+00
 -1        15 0.00000E+00 0.00000E+00 0.00000E+00
 -1        16 0.00000E+00 0.00000E+00 0.00000E+00
 -1        17 0.00000E+00 0.00000E+00 0.00000E+00
 -1        18 0.00000E+00 0.00000E+00 0.00000E+00
 -1        19 0.00000E+00 0.00000E+00 0.00000E+00
 -1        20 0.00000E+00 0.00000E+00 0.00000E+00
 -1        21 0.00000E+00 0.00000E+00 0.00000E+00
 -1        22 0.00000E+00 0.00000E+00 0.00000E+00
 -1        23 4.11410E-04-2.60748E-04 4.94091E-17
 -1        24 7.03423E-04-4.01004E-04-7.24247E-17
 -1        25 9.73524E-04-4.98397E-04-3.62120E-16
 -1        26 1.23805E-03-5.67167E-04-8.17045E-16
 -1        27 1.50161E-03-6.16458E-04-1.43389E-15
 -1        28 1.76631E-03-6.51650E-04-2.21184E-15
 -1        29 2.03310E-03-6.76456E-04-3.15002E-15
 -1        30 2.30234E-03-6.93575E-04-4.24615E-15
 -1        31 2.57408E-03-7.05028E-04-5.49616E-15
 -1        32 2.84817E-03-7.12342E-04-6.89962E-15
 -1        33 3.12439E-03-7.16666E-04-8.45159E-15
 -1        34 3.40245E-03-7.18861E-04-1.01452E-14
 -1        35 3.68207E-03-7.19553E-04-1.19824E-14
 -1        36 3.96297E-03-7.19188E-04-1.39567E-14
 -1        37 4.24491E-03-7.18066E-04-1.60607E-14
 -1        38 4.52769E-03-7.16377E-04-1.82934E-14
 -1        39 4.81116E-03-7.14220E-04-2.06479E-14
 -1        40 5.09521E-03-7.11628E-04-2.31264E-14
 -1        41 5.37979E-03-7.08583E-04-2.57228E-14
 -1        42 5.66493E-03-7.05033E-04-2.84406E-14
 -1        43 5.95071E-03-7.00906E-04-3.12846E-14
 -1        44 6.23732E-03-6.96127E-04-3.42548E-14
 -1        45 6.52503E-03-6.90642E-04-3.73488E-14
 -1        46 6.81425E-03-6.84444E-04-4.05617E-14
 -1        47 7.10553E-03-6.77610E-04-4.38882E-14
 -1        48 7.39959E-03-6.70360E-04-4.73248E-14
 -1        49 7.69734E-03-6.63122E-04-5.08665E-14
 -1        50 7.99992E-03-6.56634E-04-5.45146E-14
 -1        51 8.30863E-03-6.52070E-04-5.82681E-14
 -1        52 8.62495E-03-6.51195E-04-6.21204E-14
 -1        53 8.95035E-03-6.56539E-04-6.60679E-14
 -1        54 9.28601E-03-6.71544E-04-7.01003E-14
 -1        55 9.63235E-03-7.00577E-04-7.42050E-14
 -1        56 9.98824E-03-7.48634E-04-7.83800E-14
 -1        57 1.03500E-02-8.20391E-04-8.26267E-14
 -1        58 1.07103E-02-9.18262E-04-8.69290E-14
 -1        59 1.10587E-02-1.03937E-03-9.12943E-14
 -1        60 1.13829E-02-1.17226E-03-9.57177E-14
 -1        61 1.16738E-02-1.29578E-03-1.00218E-13
 -1        62 1.19316E-02-1.38320E-03-1.04790E-13
 -1        63 1.21682E-02-1.41207E-03-1.09440E-13
 -1        64 1.24030E-02-1.37484E-03-1.14160E-13
 -1        65 1.26539E-02-1.28214E-03-1.18955E-13
 -1        66 1.29284E-02-1.15594E-03-1.23819E-13
 -1        67 1.32228E-02-1.01806E-03-1.28742E-13
 -1        68 1.35265E-02-8.81870E-04-1.33694E-13
 -1        69 1.38290E-02-7.50532E-04-1.38667E-13
 -1        70 1.41239E-02-6.19895E-04-1.43648E-13
 -1        71 1.44113E-02-4.83913E-04-1.48653E-13
 -1        72 4.13856E-04 2.61453E-04 7.00903E-17
 -1        73 7.03248E-04 4.03711E-04-1.42403E-17
 -1        74 9.74062E-04 5.00173E-04-2.49678E-16
 -1        75 1.23888E-03 5.68881E-04-6.40398E-16
 -1        76 1.50257E-03 6.18217E-04-1.18833E-15
 -1        77 1.76734E-03 6.53500E-04-1.89131E-15
 -1        78 2.03416E-03 6.78418E-04-2.74880E-15
 -1        79 2.30343E-03 6.95659E-04-3.75494E-15
 -1        80 2.57518E-03 7.07240E-04-4.91270E-15
 -1        81 2.84928E-03 7.14684E-04-6.22104E-15
 -1        82 3.12551E-03 7.19142E-04-7.67681E-15
 -1        83 3.40358E-03 7.21470E-04-9.27653E-15
 -1        84 3.68320E-03 7.22296E-04-1.10163E-14
 -1        85 3.96410E-03 7.22065E-04-1.28977E-14
 -1        86 4.24604E-03 7.21078E-04-1.49232E-14
 -1        87 4.52883E-03 7.19525E-04-1.70947E-14
 -1        88 4.81230E-03 7.17505E-04-1.94029E-14
 -1        89 5.09636E-03 7.15054E-04-2.18450E-14
 -1        90 5.38096E-03 7.12155E-04-2.44270E-14
 -1        91 5.66611E-03 7.08760E-04-2.71524E-14
 -1        92 5.95191E-03 7.04803E-04-3.00156E-14
 -1        93 6.23853E-03 7.00217E-04-3.30044E-14
 -1        94 6.52626E-03 6.94960E-04-3.61158E-14
 -1        95 6.81548E-03 6.89042E-04-3.93378E-14
 -1        96 7.10673E-03 6.82565E-04-4.26778E-14
 -1        97 7.40067E-03 6.75772E-04-4.61250E-14
 -1        98 7.69817E-03 6.69126E-04-4.96876E-14
 -1        99 8.00023E-03 6.63388E-04-5.33443E-14
 -1       100 8.30797E-03 6.59735E-04-5.70972E-14
 -1       101 8.62259E-03 6.59881E-04-6.09543E-14
 -1       102 8.94515E-03 6.66190E-04-6.48971E-14
 -1       103 9.27628E-03 6.81734E-04-6.89276E-14
 -1       104 9.61575E-03 7.10191E-04-7.30323E-14
 -1       105 9.96177E-03 7.55417E-04-7.72141E-14
 -1       106 1.03104E-02 8.20479E-04-8.14760E-14
 -1       107 1.06548E-02 9.05961E-04-8.58078E-14
 -1       108 1.09861E-02 1.00768E-03-9.02209E-14
 -1       109 1.12949E-02 1.11468E-03-9.47122E-14
 -1       110 1.15753E-02 1.20922E-03-9.92669E-14
 -1       111 1.18285E-02 1.27043E-03-1.03880E-13
 -1       112 1.20643E-02 1.28151E-03-1.08561E-13
 -1       113 1.22983E-02 1.23688E-03-1.13305E-13
 -1       114 1.25442E-02 1.14410E-03-1.18108E-13
 -1       115 1.28091E-02 1.01936E-03-1.22949E-13
 -1       116 1.30910E-02 8.79610E-04-1.27839E-13
 -1       117 1.33827E-02 7.36373E-04-1.32788E-13
 -1       118 1.36761E-02 5.93725E-04-1.37785E-13
 -1       119 1.39661E-02 4.50029E-04-1.42823E-13
 -1       120 1.42521E-02 3.01915E-04-1.47900E-13
 -1       121 1.46739E-02 7.22590E-05-1.52825E-13
 -1       122 1.48298E-02-1.17379E-05-1.52912E-13
 -1       123 1.49935E-02-8.96143E-05-1.52972E-13
 -1       124 1.51636E-02-1.54246E-04-1.53016E-13
 -1       125 1.53338E-02-1.97604E-04-1.53064E-13
 -1       126 1.54893E-02-2.12885E-04-1.53132E-13
 -1       127 1.56188E-02-1.98315E-04-1.53200E-13
 -1       128 1.57010E-02-1.58275E-04-1.53244E-13
 -1       129 1.57228E-02-1.05301E-04-1.53283E-13
 -1       130 1.56807E-02-5.62456E-05-1.53294E-13
 -1       131 1.55832E-02-2.66331E-05-1.53305E-13
 -1       132 1.54491E-02-2.55631E-05-1.53353E-13
 -1       133 1.52920E-02-5.45183E-05-1.53399E-13
 -1       134 1.51293E-02-1.09231E-04-1.53420E-13
 -1       135 1.49712E-02-1.82307E-04-1.53421E-13
 -1       136 1.48218E-02-2.64570E-04-1.53420E-13
 -1       137 1.44504E-02 1.11068E-04-1.19023E-13
 -1       138 1.42819E-02 3.02999E-04-1.18222E-13
 -1       139 1.40339E-02 4.67953E-04-1.17069E-13
 -1       140 1.36800E-02 6.22289E-04-1.15421E-13
 -1       141 1.32884E-02 7.35923E-04-1.13598E-13
 -1       142 1.28338E-02 8.17677E-04-1.11479E-13
 -1       143 1.22880E-02 8.59989E-04-1.08905E-13
 -1       144 1.18221E-02 8.50492E-04-1.06721E-13
 -1       145 1.13384E-02 7.95434E-04-1.04427E-13
 -1       146 1.09102E-02 7.02790E-04-1.02401E-13
 -1       147 1.05402E-02 5.77089E-04-1.00644E-13
 -1       148 1.02379E-02 4.22366E-04-9.92126E-14
 -1       149 1.00349E-02 2.57969E-04-9.82623E-14
 -1       150 9.92140E-03 8.45578E-05-9.77404E-14
 -1       151 9.89947E-03-1.04731E-04-9.76659E-14
 -1       152 9.97441E-03-2.85230E-04-9.80484E-14
 -1       153 1.01364E-02-4.56458E-04-9.88496E-14
 -1       154 1.03807E-02-6.16196E-04-1.00040E-13
 -1       155 1.07388E-02-7.72473E-04-1.01772E-13
 -1       156 1.11867E-02-9.01254E-04-1.03916E-13
 -1       157 1.16263E-02-9.77365E-04-1.05992E-13
 -1       158 1.21140E-02-1.01473E-03-1.08276E-13
 -1       159 1.26475E-02-1.00208E-03-1.10786E-13
 -1       160 1.35818E-02-8.32347E-04-1.15147E-13
 -1       161 1.39709E-02-6.82107E-04-1.16924E-13
 -1       162 1.42691E-02-4.98752E-04-1.18265E-13
 -1       163 1.44460E-02-3.04516E-04-1.19052E-13
 -1       164 2.40419E-04-1.25520E-04-2.88838E-17
 -1       165 2.25284E-04-9.46189E-05-5.28006E-17
 -1       166 2.19525E-04-7.27738E-05-6.59059E-17
 -1       167 2.16704E-04-5.51043E-05-7.29363E-17
 -1       168 2.15214E-04-3.99659E-05-7.64600E-17
 -1       169 2.14377E-04-2.59133E-05-7.78559E-17
 -1       170 2.13956E-04-1.26427E-05-7.80693E-17
 -1       171 2.13833E-04 2.73438E-07-7.76153E-17
 -1       172 2.13975E-04 1.32019E-05-7.63109E-17
 -1       173 2.14417E-04 2.65120E-05-7.41527E-17
 -1       174 2.15262E-04 4.03911E-05-7.05070E-17
 -1       175 2.16815E-04 5.59108E-05-6.48556E-17
 -1       176 2.19676E-04 7.38142E-05-5.56433E-17
 -1       177 2.25453E-04 9.60173E-05-4.02036E-17
 -1       178 2.39349E-04 1.27598E-04-1.38066E-17
 -1       179 2.97730E-04 1.85507E-04 1.46604E-17
 -1       180 4.68657E-04-2.63562E-04-8.00683E-17
 -1       181 7.66822E-04-3.82164E-04-3.19623E-16
 -1       182 1.05069E-03-4.65063E-04-7.15963E-16
 -1       183 1.32811E-03-5.23867E-04-1.27029E-15
 -1       184 1.60273E-03-5.65590E-04-1.98177E-15
 -1       185 1.87664E-03-5.94919E-04-2.85030E-15
 -1       186 2.15097E-03-6.15164E-04-3.87454E-15
 -1       187 2.42630E-03-6.28749E-04-5.05142E-15
 -1       188 2.70290E-03-6.37486E-04-6.37927E-15
 -1       189 2.98082E-03-6.42733E-04-7.85593E-15
 -1       190 3.26003E-03-6.45503E-04-9.47582E-15
 -1       191 3.54040E-03-6.46538E-04-1.12367E-14
 -1       192 3.82179E-03-6.46367E-04-1.31375E-14
 -1       193 4.10405E-03-6.45356E-04-1.51713E-14
 -1       194 4.38706E-03-6.43737E-04-1.73352E-14
 -1       195 4.67070E-03-6.41643E-04-1.96247E-14
 -1       196 4.95489E-03-6.39126E-04-2.20362E-14
 -1       197 5.23961E-03-6.36180E-04-2.45690E-14
 -1       198 5.52485E-03-6.32751E-04-2.72233E-14
 -1       199 5.81068E-03-6.28759E-04-3.00000E-14
 -1       200 6.09722E-03-6.24109E-04-3.29040E-14
 -1       201 6.38467E-03-6.18710E-04-3.59318E-14
 -1       202 6.67332E-03-6.12498E-04-3.90821E-14
 -1       203 6.96354E-03-6.05472E-04-4.23479E-14
 -1       204 7.25583E-03-5.97735E-04-4.57239E-14
 -1       205 7.55081E-03-5.89556E-04-4.92099E-14
 -1       206 7.84924E-03-5.81460E-04-5.28016E-14
 -1       207 8.15198E-03-5.74344E-04-5.64981E-14
 -1       208 8.46002E-03-5.69624E-04-6.02942E-14
 -1       209 8.77434E-03-5.69425E-04-6.41881E-14
 -1       210 9.09580E-03-5.76770E-04-6.81693E-14
 -1       211 9.42494E-03-5.95725E-04-7.22299E-14
 -1       212 9.76158E-03-6.31344E-04-7.63611E-14
 -1       213 1.01044E-02-6.89147E-04-8.05628E-14
 -1       214 1.04503E-02-7.73730E-04-8.48309E-14
 -1       215 1.07943E-02-8.86123E-04-8.91614E-14
 -1       216 1.11296E-02-1.02004E-03-9.35530E-14
 -1       217 1.14495E-02-1.15860E-03-9.80100E-14
 -1       218 1.17505E-02-1.27499E-03-1.02542E-13
 -1       219 1.20350E-02-1.34018E-03-1.07153E-13
 -1       220 1.23119E-02-1.33609E-03-1.11839E-13
 -1       221 1.25922E-02-1.26503E-03-1.16592E-13
 -1       222 1.28826E-02-1.14727E-03-1.21418E-13
 -1       223 1.31836E-02-1.00884E-03-1.26307E-13
 -1       224 1.34902E-02-8.69302E-04-1.31237E-13
 -1       225 1.37963E-02-7.36591E-04-1.36198E-13
 -1       226 1.40970E-02-6.08636E-04-1.41171E-13
 -1       227 1.43907E-02-4.78112E-04-1.46159E-13
 -1       228 6.04610E-04 3.31053E-04-9.38208E-17
 -1       229 8.93727E-04 4.32683E-04-3.44956E-16
 -1       230 1.17264E-03 5.04449E-04-7.45464E-16
 -1       231 1.44701E-03 5.55563E-04-1.29822E-15
 -1       232 1.71985E-03 5.91844E-04-2.00371E-15
 -1       233 1.99276E-03 6.17275E-04-2.86089E-15
 -1       234 2.26661E-03 6.34728E-04-3.86720E-15
 -1       235 2.54177E-03 6.46336E-04-5.02213E-15
 -1       236 2.81840E-03 6.53701E-04-6.32429E-15
 -1       237 3.09646E-03 6.58023E-04-7.77322E-15
 -1       238 3.37586E-03 6.60195E-04-9.36652E-15
 -1       239 3.65643E-03 6.60863E-04-1.11003E-14
 -1       240 3.93803E-03 6.60487E-04-1.29743E-14
 -1       241 4.22048E-03 6.59372E-04-1.49911E-14
 -1       242 4.50365E-03 6.57711E-04-1.71492E-14
 -1       243 4.78745E-03 6.55602E-04-1.94443E-14
 -1       244 5.07179E-03 6.53074E-04-2.18744E-14
 -1       245 5.35667E-03 6.50105E-04-2.44415E-14
 -1       246 5.64209E-03 6.46633E-04-2.71476E-14
 -1       247 5.92816E-03 6.42580E-04-2.99927E-14
 -1       248 6.21501E-03 6.37859E-04-3.29637E-14
 -1       249 6.50290E-03 6.32404E-04-3.60573E-14
 -1       250 6.79213E-03 6.26196E-04-3.92624E-14
 -1       251 7.08314E-03 6.19296E-04-4.25822E-14
 -1       252 7.37646E-03 6.11905E-04-4.60164E-14
 -1       253 7.67274E-03 6.04427E-04-4.95611E-14
 -1       254 7.97275E-03 5.97564E-04-5.32050E-14
 -1       255 8.27732E-03 5.92432E-04-5.69455E-14
 -1       256 8.58729E-03 5.90690E-04-6.07840E-14
 -1       257 8.90340E-03 5.94679E-04-6.47128E-14
 -1       258 9.22607E-03 6.07514E-04-6.87251E-14
 -1       259 9.55512E-03 6.33028E-04-7.28182E-14
 -1       260 9.88942E-03 6.75425E-04-7.69890E-14
 -1       261 1.02264E-02 7.38371E-04-8.12388E-14
 -1       262 1.05619E-02 8.23292E-04-8.55626E-14
 -1       263 1.08903E-02 9.26927E-04-8.99609E-14
 -1       264 1.12057E-02 1.03889E-03-9.44299E-14
 -1       265 1.15038E-02 1.14103E-03-9.89667E-14
 -1       266 1.17846E-02 1.21081E-03-1.03563E-13
 -1       267 1.20534E-02 1.22907E-03-1.08230E-13
 -1       268 1.23193E-02 1.18842E-03-1.12966E-13
 -1       269 1.25908E-02 1.09629E-03-1.17761E-13
 -1       270 1.28724E-02 9.70143E-04-1.22597E-13
 -1       271 1.31632E-02 8.28660E-04-1.27482E-13
 -1       272 1.34591E-02 6.84623E-04-1.32421E-13
 -1       273 1.37551E-02 5.42472E-04-1.37409E-13
 -1       274 1.40478E-02 4.00149E-04-1.42438E-13
 -1       275 1.43365E-02 2.53351E-04-1.47506E-13
 -1       276 1.45036E-02 1.63987E-04-1.48471E-13
 -1       277 1.46647E-02 8.45404E-05-1.48554E-13
 -1       278 1.48349E-02 1.22825E-05-1.48626E-13
 -1       279 1.50109E-02-4.82386E-05-1.48694E-13
 -1       280 1.51805E-02-9.17433E-05-1.48756E-13
 -1       281 1.53338E-02-1.16792E-04-1.48818E-13
 -1       282 1.54479E-02-1.23213E-04-1.48877E-13
 -1       283 1.55042E-02-1.16739E-04-1.48927E-13
 -1       284 1.54927E-02-1.07218E-04-1.48966E-13
 -1       285 1.54166E-02-1.05540E-04-1.48997E-13
 -1       286 1.52928E-02-1.19575E-04-1.49029E-13
 -1       287 1.51370E-02-1.53250E-04-1.49056E-13
 -1       288 1.49698E-02-2.05429E-04-1.49072E-13
 -1       289 1.48045E-02-2.72215E-04-1.49080E-13
 -1       290 1.45945E-02-3.73050E-04-1.47621E-13
 -1       291 1.45186E-02-3.60924E-05-1.21154E-13
 -1       292 1.43588E-02 8.21734E-05-1.20642E-13
 -1       293 1.40814E-02 2.35502E-04-1.19355E-13
 -1       294 1.37056E-02 4.04069E-04-1.17893E-13
 -1       295 1.33130E-02 6.08369E-04-1.15634E-13
 -1       296 1.29015E-02 7.79345E-04-1.13352E-13
 -1       297 1.24635E-02 9.14100E-04-1.10616E-13
 -1       298 1.20681E-02 9.36623E-04-1.07721E-13
 -1       299 1.16877E-02 8.78721E-04-1.05027E-13
 -1       300 1.12824E-02 7.34372E-04-1.02509E-13
 -1       301 1.08921E-02 5.48954E-04-1.00202E-13
 -1       302 1.05040E-02 3.64421E-04-9.84138E-14
 -1       303 1.01830E-02 2.08174E-04-9.71332E-14
 -1       304 9.96827E-03 8.10302E-05-9.62837E-14
 -1       305 9.86741E-03-2.83743E-05-9.56927E-14
 -1       306 9.90940E-03-1.31959E-04-9.61156E-14
 -1       307 1.00749E-02-2.49307E-04-9.68020E-14
 -1       308 1.03416E-02-3.94776E-04-9.79541E-14
 -1       309 1.07234E-02-5.59970E-04-9.92982E-14
 -1       310 1.11521E-02-7.81461E-04-1.01641E-13
 -1       311 1.15454E-02-9.65991E-04-1.04329E-13
 -1       312 1.19281E-02-1.07053E-03-1.06924E-13
 -1       313 1.23350E-02-1.09480E-03-1.09770E-13
 -1       314 1.27440E-02-1.00915E-03-1.12522E-13
 -1       315 1.31636E-02-8.45735E-04-1.15195E-13
 -1       316 1.36222E-02-6.38294E-04-1.17518E-13
 -1       317 1.40325E-02-4.37948E-04-1.19394E-13
 -1       318 1.43470E-02-2.80831E-04-1.20543E-13
 -1       319 1.45190E-02-1.48516E-04-1.21307E-13
 -1       320 4.55410E-04-1.64798E-04-2.26432E-16
 -1       321 4.74280E-04-2.12984E-04-1.87028E-16
 -1       322 4.40437E-04-9.40135E-05-2.63458E-16
 -1       323 4.37470E-04-6.49088E-05-2.70376E-16
 -1       324 4.35844E-04-3.79041E-05-2.73341E-16
 -1       325 4.35131E-04-1.20163E-05-2.73141E-16
 -1       326 4.35162E-04 1.35367E-05-2.70556E-16
 -1       327 4.35940E-04 3.94821E-05-2.65314E-16
 -1       328 4.37609E-04 6.61387E-05-2.57037E-16
 -1       329 4.40671E-04 9.54134E-05-2.44101E-16
 -1       330 4.46069E-04 1.28327E-04-2.24626E-16
 -1       331 4.55912E-04 1.67309E-04-1.95095E-16
 -1       332 4.75914E-04 2.17052E-04-1.49427E-16
 -1       333 5.32050E-04 2.69983E-04-1.29870E-16
 -1       334 8.24548E-04 3.73529E-04-3.88910E-16
 -1       335 8.63311E-04-3.57425E-04-5.96603E-16
 -1       336 1.14969E-03-4.26187E-04-1.09295E-15
 -1       337 1.43249E-03-4.75402E-04-1.74234E-15
 -1       338 1.71322E-03-5.10164E-04-2.54491E-15
 -1       339 1.99301E-03-5.34298E-04-3.49994E-15
 -1       340 2.27262E-03-5.50625E-04-4.60670E-15
 -1       341 2.55251E-03-5.61262E-04-5.86168E-15
 -1       342 2.83294E-03-5.67796E-04-7.26448E-15
 -1       343 3.11403E-03-5.71414E-04-8.81141E-15
 -1       344 3.39580E-03-5.72993E-04-1.04986E-14
 -1       345 3.67823E-03-5.73162E-04-1.23265E-14
 -1       346 3.96126E-03-5.72363E-04-1.42907E-14
 -1       347 4.24483E-03-5.70886E-04-1.63854E-14
 -1       348 4.52888E-03-5.68904E-04-1.86087E-14
 -1       349 4.81337E-03-5.66501E-04-2.09542E-14
 -1       350 5.09826E-03-5.63688E-04-2.34216E-14
 -1       351 5.38356E-03-5.60426E-04-2.60112E-14
 -1       352 5.66931E-03-5.56636E-04-2.87227E-14
 -1       353 5.95558E-03-5.52215E-04-3.15609E-14
 -1       354 6.24250E-03-5.47054E-04-3.45243E-14
 -1       355 6.53022E-03-5.41056E-04-3.76089E-14
 -1       356 6.81900E-03-5.34163E-04-4.08149E-14
 -1       357 7.10912E-03-5.26394E-04-4.41312E-14
 -1       358 7.40097E-03-5.17896E-04-4.75592E-14
 -1       359 7.69501E-03-5.09018E-04-5.10957E-14
 -1       360 7.99178E-03-5.00408E-04-5.47352E-14
 -1       361 8.29192E-03-4.93143E-04-5.84786E-14
 -1       362 8.59611E-03-4.88901E-04-6.23185E-14
 -1       363 8.90514E-03-4.90150E-04-6.62480E-14
 -1       364 9.21980E-03-5.00348E-04-7.02598E-14
 -1       365 9.54084E-03-5.24052E-04-7.43514E-14
 -1       366 9.86883E-03-5.66791E-04-7.85113E-14
 -1       367 1.02039E-02-6.34376E-04-8.27395E-14
 -1       368 1.05449E-02-7.31180E-04-8.70333E-14
 -1       369 1.08887E-02-8.56888E-04-9.13897E-14
 -1       370 1.12295E-02-1.00183E-03-9.58138E-14
 -1       371 1.15604E-02-1.14311E-03-1.00304E-13
 -1       372 1.18770E-02-1.24706E-03-1.04873E-13
 -1       373 1.21831E-02-1.28230E-03-1.09518E-13
 -1       374 1.24884E-02-1.23838E-03-1.14238E-13
 -1       375 1.28013E-02-1.13184E-03-1.19026E-13
 -1       376 1.31224E-02-9.93613E-04-1.23879E-13
 -1       377 1.34461E-02-8.50823E-04-1.28787E-13
 -1       378 1.37653E-02-7.16778E-04-1.33725E-13
 -1       379 1.40759E-02-5.92012E-04-1.38690E-13
 -1       380 1.43390E-02-4.85522E-04-1.43151E-13
 -1       381 1.11005E-03 4.47866E-04-7.92823E-16
 -1       382 1.39082E-03 5.00952E-04-1.34552E-15
 -1       383 1.66915E-03 5.38595E-04-2.04823E-15
 -1       384 1.94656E-03 5.64915E-04-2.90049E-15
 -1       385 2.22400E-03 5.82921E-04-3.90095E-15
 -1       386 2.50199E-03 5.94852E-04-5.04869E-15
 -1       387 2.78081E-03 6.02384E-04-6.34188E-15
 -1       388 3.06056E-03 6.06773E-04-7.78071E-15
 -1       389 3.34124E-03 6.08949E-04-9.36322E-15
 -1       390 3.62278E-03 6.09588E-04-1.10856E-14
 -1       391 3.90511E-03 6.09166E-04-1.29495E-14
 -1       392 4.18811E-03 6.08003E-04-1.49534E-14
 -1       393 4.47171E-03 6.06297E-04-1.70973E-14
 -1       394 4.75583E-03 6.04151E-04-1.93776E-14
 -1       395 5.04043E-03 6.01596E-04-2.17922E-14
 -1       396 5.32549E-03 5.98606E-04-2.43419E-14
 -1       397 5.61105E-03 5.95115E-04-2.70288E-14
 -1       398 5.89718E-03 5.91036E-04-2.98540E-14
 -1       399 6.18399E-03 5.86273E-04-3.28068E-14
 -1       400 6.47168E-03 5.80741E-04-3.58814E-14
 -1       401 6.76051E-03 5.74400E-04-3.90691E-14
 -1       402 7.05080E-03 5.67281E-04-4.23707E-14
 -1       403 7.34297E-03 5.59546E-04-4.57877E-14
 -1       404 7.63752E-03 5.51549E-04-4.93154E-14
 -1       405 7.93505E-03 5.43930E-04-5.29440E-14
 -1       406 8.23620E-03 5.37726E-04-5.66687E-14
 -1       407 8.54165E-03 5.34507E-04-6.04929E-14
 -1       408 8.85206E-03 5.36523E-04-6.44056E-14
 -1       409 9.16792E-03 5.46813E-04-6.84031E-14
 -1       410 9.48945E-03 5.69207E-04-7.24832E-14
 -1       411 9.81632E-03 6.08057E-04-7.66402E-14
 -1       412 1.01473E-02 6.67474E-04-8.08769E-14
 -1       413 1.04801E-02 7.49769E-04-8.51879E-14
 -1       414 1.08109E-02 8.52983E-04-8.95728E-14
 -1       415 1.11345E-02 9.68051E-04-9.40277E-14
 -1       416 1.14465E-02 1.07726E-03-9.85462E-14
 -1       417 1.17449E-02 1.15660E-03-1.03127E-13
 -1       418 1.20328E-02 1.18381E-03-1.07781E-13
 -1       419 1.23177E-02 1.14870E-03-1.12507E-13
 -1       420 1.26067E-02 1.05818E-03-1.17293E-13
 -1       421 1.29033E-02 9.31207E-04-1.22123E-13
 -1       422 1.32059E-02 7.88524E-04-1.27001E-13
 -1       423 1.35102E-02 6.44305E-04-1.31932E-13
 -1       424 1.38118E-02 5.03384E-04-1.36910E-13
 -1       425 1.41081E-02 3.63391E-04-1.41931E-13
 -1       426 1.43069E-02 2.65156E-04-1.45197E-13
 -1       427 1.46753E-02 8.96135E-05-1.44307E-13
 -1       428 1.44992E-02 1.67085E-04-1.44221E-13
 -1       429 1.44000E-02 2.15981E-04-1.44710E-13
 -1       430 1.48532E-02 2.18457E-05-1.44381E-13
 -1       431 1.50265E-02-3.39405E-05-1.44444E-13
 -1       432 1.51720E-02-7.33712E-05-1.44505E-13
 -1       433 1.52663E-02-9.76824E-05-1.44565E-13
 -1       434 1.52909E-02-1.13836E-04-1.44617E-13
 -1       435 1.52414E-02-1.32446E-04-1.44662E-13
 -1       436 1.51317E-02-1.62321E-04-1.44701E-13
 -1       437 1.49795E-02-2.08818E-04-1.44728E-13
 -1       438 1.48091E-02-2.70574E-04-1.44743E-13
 -1       439 1.46376E-02-3.43563E-04-1.44754E-13
 -1       440 1.41999E-02 7.98688E-05-1.22487E-13
 -1       441 1.45647E-02-9.26827E-05-1.23910E-13
 -1       442 1.44714E-02-2.50466E-05-1.23129E-13
 -1       443 1.38945E-02 2.14311E-04-1.21002E-13
 -1       444 1.34098E-02 4.67931E-04-1.18065E-13
 -1       445 4.45599E-04-1.26481E-04-2.49837E-16
 -1       446 1.26505E-02 8.54705E-04-1.12861E-13
 -1       447 1.22106E-02 9.73154E-04-1.08938E-13
 -1       448 1.19186E-02 9.53440E-04-1.06230E-13
 -1       449 1.15306E-02 8.15654E-04-1.02816E-13
 -1       450 1.11690E-02 6.26182E-04-1.00159E-13
 -1       451 1.07392E-02 3.96858E-04-9.77651E-14
 -1       452 1.03604E-02 2.11766E-04-9.59968E-14
 -1       453 1.00713E-02 8.40697E-05-9.48058E-14
 -1       454 9.89552E-03 1.60663E-06-9.40258E-14
 -1       455 9.85711E-03-6.78675E-05-9.39162E-14
 -1       456 9.97494E-03-1.33728E-04-9.42823E-14
 -1       457 1.02236E-02-2.47971E-04-9.55815E-14
 -1       458 1.05369E-02-3.93520E-04-9.69064E-14
 -1       459 1.09972E-02-6.32082E-04-9.90570E-14
 -1       460 1.14412E-02-8.91113E-04-1.02361E-13
 -1       461 1.17920E-02-1.05424E-03-1.05274E-13
 -1       462 1.21130E-02-1.13224E-03-1.08125E-13
 -1       463 1.25045E-02-1.08455E-03-1.11739E-13
 -1       464 1.28684E-02-9.35622E-04-1.14821E-13
 -1       465 1.33315E-02-6.97522E-04-1.17802E-13
 -1       466 1.37748E-02-4.61852E-04-1.20531E-13
 -1       467 1.41908E-02-2.80049E-04-1.22174E-13
 -1       468 1.44550E-02-1.72419E-04-1.22984E-13
 -1       469 1.30336E-02 6.68227E-04-1.15725E-13
 -1       470 1.24095E-02 9.44293E-04-1.11167E-13
 -1       471 9.31293E-04 3.46058E-04-6.75448E-16
 -1       472 6.65818E-04-7.51391E-05-5.80936E-16
 -1       473 6.69786E-04-1.15900E-04-5.71730E-16
 -1       474 6.63145E-04 1.10564E-06-5.81359E-16
 -1       475 6.63865E-04 3.87704E-05-5.73966E-16
 -1       476 6.66005E-04 7.68269E-05-5.61166E-16
 -1       477 6.70099E-04 1.17742E-04-5.41468E-16
 -1       478 6.77117E-04 1.62362E-04-5.12723E-16
 -1       479 6.89038E-04 2.12733E-04-4.70849E-16
 -1       480 1.21719E-03 4.06564E-04-1.17928E-15
 -1       481 9.76315E-04-3.28702E-04-9.05793E-16
 -1       482 1.28192E-02 7.64433E-04-1.15392E-13
 -1       483 1.26229E-03-3.83605E-04-1.49604E-15
 -1       484 1.54728E-03-4.23335E-04-2.23574E-15
 -1       485 1.83142E-03-4.51423E-04-3.12490E-15
 -1       486 2.11496E-03-4.70728E-04-4.16238E-15
 -1       487 2.39823E-03-4.83539E-04-5.34737E-15
 -1       488 2.68148E-03-4.91625E-04-6.67801E-15
 -1       489 2.96487E-03-4.96327E-04-8.15278E-15
 -1       490 3.24848E-03-4.98649E-04-9.76824E-15
 -1       491 3.53237E-03-4.99323E-04-1.15237E-14
 -1       492 3.81654E-03-4.98869E-04-1.34169E-14
 -1       493 4.10099E-03-4.97640E-04-1.54435E-14
 -1       494 4.38569E-03-4.95858E-04-1.75986E-14
 -1       495 4.67065E-03-4.93643E-04-1.98796E-14
 -1       496 4.95584E-03-4.91036E-04-2.22822E-14
 -1       497 5.24127E-03-4.88017E-04-2.48068E-14
 -1       498 5.52696E-03-4.84520E-04-2.74552E-14
 -1       499 5.81295E-03-4.80449E-04-3.02287E-14
 -1       500 6.09928E-03-4.75691E-04-3.31267E-14
 -1       501 6.38604E-03-4.70133E-04-3.61473E-14
 -1       502 6.67333E-03-4.63685E-04-3.92899E-14
 -1       503 6.96131E-03-4.56309E-04-4.25483E-14
 -1       504 7.25015E-03-4.48059E-04-4.59179E-14
 -1       505 7.54006E-03-4.39140E-04-4.93977E-14
 -1       506 7.83134E-03-4.29984E-04-5.29822E-14
 -1       507 8.12431E-03-4.21354E-04-5.66693E-14
 -1       508 8.41943E-03-4.14472E-04-6.04563E-14
 -1       509 8.71729E-03-4.11188E-04-6.43349E-14
 -1       510 9.01877E-03-4.14159E-04-6.82979E-14
 -1       511 9.32509E-03-4.27042E-04-7.23438E-14
 -1       512 9.63800E-03-4.54621E-04-7.64653E-14
 -1       513 9.95979E-03-5.02758E-04-8.06527E-14
 -1       514 1.02929E-02-5.77862E-04-8.49106E-14
 -1       515 1.06383E-02-6.85193E-04-8.92313E-14
 -1       516 1.09939E-02-8.24706E-04-9.36170E-14
 -1       517 1.13513E-02-9.83877E-04-9.80714E-14
 -1       518 1.16995E-02-1.13021E-03-1.02599E-13
 -1       519 1.20325E-02-1.21646E-03-1.07203E-13
 -1       520 1.23601E-02-1.20922E-03-1.11880E-13
 -1       521 1.26952E-02-1.11414E-03-1.16634E-13
 -1       522 1.30417E-02-9.71051E-04-1.21453E-13
 -1       523 1.33910E-02-8.21089E-04-1.26333E-13
 -1       524 1.37317E-02-6.84878E-04-1.31257E-13
 -1       525 1.40576E-02-5.64777E-04-1.36202E-13
 -1       526 1.78406E-03 4.81183E-04-2.62569E-15
 -1       527 2.06606E-03 5.02569E-04-3.56821E-15
 -1       528 2.34781E-03 5.16926E-04-4.65599E-15
 -1       529 2.62965E-03 5.26161E-04-5.88823E-15
 -1       530 2.91179E-03 5.31721E-04-7.26526E-15
 -1       531 3.19434E-03 5.34682E-04-8.78562E-15
 -1       532 3.47732E-03 5.35838E-04-1.04463E-14
 -1       533 3.76075E-03 5.35753E-04-1.22465E-14
 -1       534 4.04459E-03 5.34817E-04-1.41861E-14
 -1       535 4.32881E-03 5.33280E-04-1.62647E-14
 -1       536 4.61338E-03 5.31282E-04-1.84785E-14
 -1       537 4.89828E-03 5.28884E-04-2.08271E-14
 -1       538 5.18349E-03 5.26078E-04-2.33084E-14
 -1       539 5.46904E-03 5.22811E-04-2.59245E-14
 -1       540 5.75497E-03 5.18998E-04-2.86757E-14
 -1       541 6.04133E-03 5.14535E-04-3.15593E-14
 -1       542 6.32824E-03 5.09318E-04-3.45674E-14
 -1       543 6.61583E-03 5.03267E-04-3.76930E-14
 -1       544 6.90429E-03 4.96354E-04-4.09312E-14
 -1       545 7.19386E-03 4.88645E-04-4.42857E-14
 -1       546 7.48484E-03 4.80357E-04-4.77506E-14
 -1       547 7.77758E-03 4.71928E-04-5.13229E-14
 -1       548 8.07251E-03 4.64119E-04-5.49938E-14
 -1       549 8.37014E-03 4.58131E-04-5.87625E-14
 -1       550 8.67107E-03 4.55748E-04-6.26280E-14
 -1       551 8.97602E-03 4.59470E-04-6.65797E-14
 -1       552 9.28583E-03 4.72624E-04-7.06128E-14
 -1       553 9.60142E-03 4.99339E-04-7.47245E-14
 -1       554 9.92364E-03 5.44249E-04-7.89148E-14
 -1       555 1.02528E-02 6.11656E-04-8.31828E-14
 -1       556 1.05880E-02 7.03731E-04-8.75248E-14
 -1       557 1.09259E-02 8.17287E-04-9.19341E-14
 -1       558 1.12604E-02 9.40280E-04-9.64106E-14
 -1       559 1.15850E-02 1.04906E-03-1.00951E-13
 -1       560 1.18976E-02 1.11350E-03-1.05557E-13
 -1       561 1.22035E-02 1.11051E-03-1.10241E-13
 -1       562 1.25120E-02 1.03842E-03-1.14993E-13
 -1       563 1.28288E-02 9.16956E-04-1.19800E-13
 -1       564 1.31519E-02 7.73213E-04-1.24651E-13
 -1       565 1.34748E-02 6.27666E-04-1.29558E-13
 -1       566 1.37913E-02 4.88626E-04-1.34507E-13
 -1       567 1.40979E-02 3.54600E-04-1.39504E-13
 -1       568 1.46953E-02 5.73834E-05-1.40078E-13
 -1       569 1.48724E-02-1.26754E-05-1.40145E-13
 -1       570 1.43276E-02 2.31206E-04-1.39914E-13
 -1       571 1.45087E-02 1.40900E-04-1.40002E-13
 -1       572 1.50109E-02-6.37024E-05-1.40205E-13
 -1       573 1.50812E-02-9.86424E-05-1.40264E-13
 -1       574 1.50654E-02-1.29355E-04-1.40320E-13
 -1       575 1.49714E-02-1.69587E-04-1.40365E-13
 -1       576 1.48207E-02-2.28797E-04-1.40395E-13
 -1       577 1.46444E-02-3.05414E-04-1.40416E-13
 -1       578 1.44657E-02-3.92684E-04-1.40431E-13
 -1       579 1.45709E-02-6.94547E-05-1.26528E-13
 -1       580 1.43963E-02-7.22687E-06-1.25878E-13
 -1       581 1.45621E-02-1.24954E-04-1.26181E-13
 -1       582 1.50131E-03 4.50263E-04-1.82929E-15
 -1       583 1.40692E-02 1.16217E-04-1.24596E-13
 -1       584 7.12631E-04-2.51849E-04-5.09067E-16
 -1       585 1.32029E-02 5.50134E-04-1.18366E-13
 -1       586 1.00832E-02-1.63295E-04-9.27971E-14
 -1       587 6.63754E-04-3.65235E-05-5.83778E-16
 -1       588 1.13550E-02 7.28414E-04-1.00294E-13
 -1       589 1.20535E-02 9.92497E-04-1.07422E-13
 -1       590 1.12579E-02-7.76618E-04-9.97675E-14
 -1       591 1.17435E-02 9.17337E-04-1.04080E-13
 -1       592 1.09320E-02 4.85329E-04-9.70011E-14
 -1       593 1.05338E-02 2.71085E-04-9.50127E-14
 -1       594 1.01895E-02 1.15813E-04-9.33371E-14
 -1       595 9.94950E-03 2.38514E-05-9.21322E-14
 -1       596 9.81928E-03-3.49339E-05-9.14740E-14
 -1       597 9.86935E-03-8.12153E-05-9.18634E-14
 -1       598 1.03310E-02-2.67645E-04-9.41048E-14
 -1       599 1.07298E-02-4.67263E-04-9.61412E-14
 -1       600 1.16483E-02-9.99699E-04-1.03200E-13
 -1       601 1.19244E-02-1.11407E-03-1.06028E-13
 -1       602 1.23090E-02-1.14584E-03-1.10381E-13
 -1       603 1.26567E-02-1.03475E-03-1.14054E-13
 -1       604 1.30962E-02-8.04016E-04-1.17769E-13
 -1       605 1.35195E-02-5.70851E-04-1.20756E-13
 -1       606 1.40248E-02-3.27942E-04-1.23733E-13
 -1       607 1.43929E-02-1.86001E-04-1.25359E-13
 -1       608 7.03845E-04 2.90910E-04-3.63367E-16
 -1       609 1.36579E-02 3.04180E-04-1.21623E-13
 -1       610 6.76577E-04-1.60057E-04-5.53685E-16
 -1       611 1.38069E-02-4.35311E-04-1.23953E-13
 -1       612 1.25949E-02 8.79633E-04-1.13683E-13
 -1       613 1.09765E-02-6.17195E-04-9.68401E-14
 -1       614 1.42655E-02-4.90607E-04-1.39560E-13
 -1       615 8.99758E-04 7.41254E-05-9.80847E-16
 -1       616 8.97669E-04 2.51822E-05-9.96768E-16
 -1       617 9.11786E-04 1.78240E-04-9.19925E-16
 -1       618 9.24223E-04 2.36861E-04-8.68185E-16
 -1       619 1.04891E-03 3.13966E-04-9.99102E-16
 -1       620 1.33465E-03 3.61619E-04-1.59808E-15
 -1       621 1.42742E-02-2.40981E-04-1.26891E-13
 -1       622 1.45533E-02-1.51761E-04-1.28769E-13
 -1       623 1.38330E-03-3.37078E-04-1.92589E-15
 -1       624 1.66951E-03-3.68063E-04-2.75111E-15
 -1       625 1.95573E-03-3.89874E-04-3.72183E-15
 -1       626 2.24177E-03-4.04706E-04-4.83812E-15
 -1       627 2.52762E-03-4.14348E-04-6.09813E-15
 -1       628 2.81334E-03-4.20215E-04-7.50142E-15
 -1       629 3.09896E-03-4.23393E-04-9.04522E-15
 -1       630 3.38453E-03-4.24694E-04-1.07291E-14
 -1       631 3.67008E-03-4.24704E-04-1.25517E-14
 -1       632 3.95564E-03-4.23834E-04-1.45090E-14
 -1       633 4.24122E-03-4.22352E-04-1.65967E-14
 -1       634 4.52683E-03-4.20418E-04-1.88117E-14
 -1       635 4.81248E-03-4.18103E-04-2.11500E-14
 -1       636 5.09817E-03-4.15415E-04-2.36109E-14
 -1       637 5.38390E-03-4.12309E-04-2.61968E-14
 -1       638 5.66969E-03-4.08705E-04-2.89058E-14
 -1       639 5.95555E-03-4.04500E-04-3.17398E-14
 -1       640 6.24148E-03-3.99581E-04-3.46963E-14
 -1       641 6.52750E-03-3.93845E-04-3.77751E-14
 -1       642 6.81363E-03-3.87220E-04-4.09730E-14
 -1       643 7.09988E-03-3.79697E-04-4.42833E-14
 -1       644 7.38627E-03-3.71374E-04-4.77068E-14
 -1       645 7.67287E-03-3.62510E-04-5.12374E-14
 -1       646 7.95976E-03-3.53598E-04-5.48677E-14
 -1       647 8.24710E-03-3.45458E-04-5.86024E-14
 -1       648 8.53522E-03-3.39351E-04-6.24304E-14
 -1       649 8.82477E-03-3.37118E-04-6.63450E-14
 -1       650 9.11687E-03-3.41336E-04-7.03433E-14
 -1       651 9.41349E-03-3.55535E-04-7.44242E-14
 -1       652 9.71781E-03-3.84465E-04-7.85745E-14
 -1       653 1.00344E-02-4.34469E-04-8.27917E-14
 -1       654 1.03687E-02-5.13761E-04-8.70768E-14
 -1       655 1.07244E-02-6.31340E-04-9.14253E-14
 -1       656 1.11004E-02-7.90063E-04-9.58418E-14
 -1       657 1.14830E-02-9.73987E-04-1.00330E-13
 -1       658 1.22128E-02-1.18201E-03-1.09525E-13
 -1       659 1.25734E-02-1.10620E-03-1.14243E-13
 -1       660 1.29486E-02-9.50527E-04-1.19031E-13
 -1       661 1.33297E-02-7.81958E-04-1.23881E-13
 -1       662 1.36966E-02-6.38260E-04-1.28784E-13
 -1       663 1.40409E-02-5.22831E-04-1.33719E-13
 -1       664 2.19070E-03 4.37598E-04-4.25644E-15
 -1       665 1.90571E-03 4.20811E-04-3.22663E-15
 -1       666 2.76015E-03 4.55545E-04-6.74527E-15
 -1       667 3.04482E-03 4.59458E-04-8.20402E-15
 -1       668 3.32956E-03 4.61287E-04-9.80312E-15
 -1       669 3.61441E-03 4.61680E-04-1.15420E-14
 -1       670 3.89938E-03 4.61093E-04-1.34193E-14
 -1       671 4.18448E-03 4.59828E-04-1.54336E-14
 -1       672 4.46971E-03 4.58072E-04-1.75831E-14
 -1       673 4.75507E-03 4.55914E-04-1.98648E-14
 -1       674 5.04056E-03 4.53377E-04-2.22809E-14
 -1       675 5.32619E-03 4.50427E-04-2.48309E-14
 -1       676 5.61197E-03 4.46990E-04-2.75116E-14
 -1       677 5.89793E-03 4.42968E-04-3.03232E-14
 -1       678 6.18411E-03 4.38254E-04-3.32630E-14
 -1       679 6.47055E-03 4.32747E-04-3.63246E-14
 -1       680 6.75733E-03 4.26378E-04-3.95016E-14
 -1       681 7.04454E-03 4.19144E-04-4.27937E-14
 -1       682 7.33229E-03 4.11148E-04-4.61989E-14
 -1       683 7.62075E-03 4.02655E-04-4.97121E-14
 -1       684 7.91014E-03 3.94171E-04-5.33285E-14
 -1       685 8.20078E-03 3.86532E-04-5.70438E-14
 -1       686 8.49314E-03 3.81021E-04-6.08582E-14
 -1       687 8.78794E-03 3.79496E-04-6.47625E-14
 -1       688 9.08625E-03 3.84528E-04-6.87514E-14
 -1       689 9.38968E-03 3.99529E-04-7.28205E-14
 -1       690 9.70039E-03 4.28818E-04-7.69660E-14
 -1       691 1.00210E-02 4.77506E-04-8.11873E-14
 -1       692 1.03538E-02 5.50928E-04-8.54836E-14
 -1       693 1.06987E-02 6.52847E-04-8.98526E-14
 -1       694 1.10522E-02 7.79294E-04-9.42869E-14
 -1       695 1.14042E-02 9.15309E-04-9.87858E-14
 -1       696 1.17440E-02 1.02498E-03-1.03351E-13
 -1       697 1.20719E-02 1.06675E-03-1.07989E-13
 -1       698 1.23992E-02 1.01964E-03-1.12699E-13
 -1       699 1.27355E-02 9.01593E-04-1.17475E-13
 -1       700 1.30831E-02 7.50607E-04-1.22301E-13
 -1       701 1.34312E-02 5.98931E-04-1.27184E-13
 -1       702 1.37679E-02 4.60806E-04-1.32114E-13
 -1       703 1.40519E-02 3.41838E-04-1.36002E-13
 -1       704 1.48760E-02-7.36514E-05-1.36279E-13
 -1       705 1.42579E-02-4.56557E-04-1.37069E-13
 -1       706 1.45399E-02 6.58693E-05-1.35795E-13
 -1       707 1.49097E-02-1.12227E-04-1.36336E-13
 -1       708 1.47290E-02-1.62906E-05-1.35866E-13
 -1       709 1.48395E-02-1.54538E-04-1.36387E-13
 -1       710 1.46883E-02-2.20529E-04-1.36425E-13
 -1       711 1.44995E-02-3.10638E-04-1.36451E-13
 -1       712 1.34266E-02 4.40022E-04-1.21920E-13
 -1       713 1.45686E-02-4.87501E-05-1.28980E-13
 -1       714 1.29015E-02-9.28763E-04-1.17287E-13
 -1       715 1.15488E-02 8.61309E-04-1.01442E-13
 -1       716 9.61627E-04-2.66794E-04-9.78513E-16
 -1       717 1.04698E-02-3.46690E-04-9.30311E-14
 -1       718 9.90735E-03-1.08465E-04-8.99276E-14
 -1       719 9.77665E-03-5.34617E-05-8.93222E-14
 -1       720 1.62036E-03 3.96303E-04-2.34032E-15
 -1       721 2.47547E-03 4.48655E-04-5.42885E-15
 -1       722 9.04213E-04 1.24637E-04-9.55992E-16
 -1       723 1.30726E-02 6.36059E-04-1.18910E-13
 -1       724 1.20951E-02-1.16906E-03-1.07959E-13
 -1       725 9.03840E-04-1.22227E-04-9.94898E-16
 -1       726 1.22658E-02 9.95539E-04-1.10097E-13
 -1       727 1.18783E-02 9.83648E-04-1.05295E-13
 -1       728 1.14370E-02-9.06038E-04-1.00463E-13
 -1       729 1.06289E-02 3.51892E-04-9.34577E-14
 -1       730 1.03060E-02 1.82990E-04-9.19951E-14
 -1       731 1.00124E-02 6.68034E-05-9.02069E-14
 -1       732 9.80256E-03-5.73546E-06-8.88855E-14
 -1       733 1.01657E-02-2.06686E-04-9.13726E-14
 -1       734 1.11061E-02 6.25053E-04-9.69868E-14
 -1       735 1.38192E-02 2.43474E-04-1.24891E-13
 -1       736 1.17616E-02-1.07859E-03-1.03869E-13
 -1       737 1.46639E-02-1.00709E-04-1.29172E-13
 -1       738 1.33264E-02-6.92578E-04-1.21118E-13
 -1       739 1.43321E-02 3.47490E-05-1.28173E-13
 -1       740 9.11299E-04-1.75644E-04-9.75206E-16
 -1       741 8.97609E-04-2.31585E-05-1.00422E-15
 -1       742 1.40927E-02-3.29698E-04-1.27109E-13
 -1       743 1.43380E-02 1.67767E-04-1.35718E-13
 -1       744 1.41260E-02 1.36517E-04-1.28465E-13
 -1       745 1.36170E-02-5.59303E-04-1.24312E-13
 -1       746 1.41885E-02 2.55999E-04-1.35863E-13
 -1       747 1.42691E-02-4.09520E-04-1.35086E-13
 -1       748 1.25590E-02-1.08963E-03-1.13575E-13
 -1       749 8.99557E-04-7.18329E-05-1.00374E-15
 -1       750 1.06904E-02-4.81406E-04-9.37180E-14
 -1       751 1.28536E-02 7.67439E-04-1.17179E-13
 -1       752 1.20772E-03 2.83282E-04-1.43218E-15
 -1       753 1.07676E-02 4.98106E-04-9.29025E-14
 -1       754 1.32819E-02 5.60310E-04-1.22339E-13
 -1       755 1.02300E-02-2.72238E-04-8.98262E-14
 -1       756 1.79731E-03-3.09585E-04-3.28637E-15
 -1       757 2.08498E-03-3.25692E-04-4.33564E-15
 -1       758 2.37277E-03-3.36496E-04-5.52696E-15
 -1       759 2.66048E-03-3.43345E-04-6.85984E-15
 -1       760 2.94798E-03-3.47324E-04-8.33311E-15
 -1       761 3.23525E-03-3.49268E-04-9.94601E-15
 -1       762 3.52228E-03-3.49799E-04-1.16971E-14
 -1       763 3.80908E-03-3.49364E-04-1.35848E-14
 -1       764 4.09567E-03-3.48266E-04-1.56045E-14
 -1       765 4.38208E-03-3.46696E-04-1.77527E-14
 -1       766 4.66832E-03-3.44758E-04-2.00260E-14
 -1       767 4.95440E-03-3.42484E-04-2.24225E-14
 -1       768 5.24033E-03-3.39857E-04-2.49451E-14
 -1       769 5.52609E-03-3.36820E-04-2.75913E-14
 -1       770 5.81167E-03-3.33286E-04-3.03616E-14
 -1       771 6.09702E-03-3.29157E-04-3.32538E-14
 -1       772 6.38209E-03-3.24333E-04-3.62701E-14
 -1       773 6.66681E-03-3.18729E-04-3.94072E-14
 -1       774 6.95107E-03-3.12301E-04-4.26590E-14
 -1       775 7.23475E-03-3.05075E-04-4.60243E-14
 -1       776 7.51772E-03-2.97185E-04-4.94993E-14
 -1       777 7.79985E-03-2.88922E-04-5.30771E-14
 -1       778 8.08103E-03-2.80791E-04-5.67536E-14
 -1       779 8.36125E-03-2.73580E-04-6.05326E-14
 -1       780 8.64073E-03-2.68436E-04-6.44014E-14
 -1       781 8.92009E-03-2.66956E-04-6.83528E-14
 -1       782 9.20068E-03-2.71327E-04-7.23906E-14
 -1       783 9.48507E-03-2.84593E-04-7.65023E-14
 -1       784 9.77778E-03-3.11259E-04-8.06799E-14
 -1       785 1.00856E-02-3.58374E-04-8.49295E-14
 -1       786 1.04189E-02-4.37882E-04-8.92418E-14
 -1       787 1.39582E-02-4.70546E-04-1.29683E-13
 -1       788 9.68577E-03-2.98045E-05-8.64150E-14
 -1       789 3.18004E-03 3.85889E-04-9.15849E-15
 -1       790 2.89346E-03 3.83328E-04-7.62058E-15
 -1       791 3.75272E-03 3.86702E-04-1.26523E-14
 -1       792 4.03888E-03 3.85806E-04-1.46045E-14
 -1       793 4.32495E-03 3.84382E-04-1.66905E-14
 -1       794 4.61093E-03 3.82555E-04-1.89085E-14
 -1       795 4.89683E-03 3.80374E-04-2.12587E-14
 -1       796 5.18268E-03 3.77831E-04-2.37420E-14
 -1       797 5.46846E-03 3.74873E-04-2.63557E-14
 -1       798 5.75417E-03 3.71417E-04-2.90992E-14
 -1       799 6.03980E-03 3.67364E-04-3.19716E-14
 -1       800 6.32534E-03 3.62608E-04-3.49675E-14
 -1       801 6.61075E-03 3.57062E-04-3.80818E-14
 -1       802 6.89602E-03 3.50676E-04-4.13125E-14
 -1       803 7.18112E-03 3.43470E-04-4.46573E-14
 -1       804 7.46604E-03 3.35573E-04-4.81134E-14
 -1       805 7.75081E-03 3.27279E-04-5.16767E-14
 -1       806 8.03553E-03 3.19106E-04-5.53375E-14
 -1       807 8.32046E-03 3.11879E-04-5.90971E-14
 -1       808 8.60608E-03 3.06823E-04-6.29550E-14
 -1       809 8.89330E-03 3.05676E-04-6.68978E-14
 -1       810 9.18371E-03 3.10844E-04-7.09238E-14
 -1       811 9.47983E-03 3.25618E-04-7.50298E-14
 -1       812 9.78540E-03 3.54545E-04-7.92058E-14
 -1       813 1.01049E-02 4.03784E-04-8.34560E-14
 -1       814 1.04439E-02 4.80974E-04-8.77825E-14
 -1       815 1.36641E-02 4.05166E-04-1.27229E-13
 -1       816 1.38652E-02 3.77446E-04-1.31602E-13
 -1       817 1.44040E-02 5.47628E-05-1.31611E-13
 -1       818 1.13826E-03 5.90684E-05-1.51291E-15
 -1       819 1.45591E-02-1.97679E-04-1.32111E-13
 -1       820 1.43414E-02-3.02013E-04-1.32146E-13
 -1       821 1.36965E-02 3.30264E-04-1.25389E-13
 -1       822 3.46645E-03 3.86845E-04-1.08363E-14
 -1       823 9.82865E-03 3.66292E-05-8.72184E-14
 -1       824 1.20169E-02 1.01254E-03-1.07024E-13
 -1       825 2.03275E-03 3.57759E-04-3.85295E-15
 -1       826 1.12180E-02-7.82301E-04-9.82525E-14
 -1       827 1.51022E-03-2.86596E-04-2.38150E-15
 -1       828 1.20813E-03-2.33455E-04-1.60376E-15
 -1       829 1.03179E-02 2.52468E-04-8.97545E-14
 -1       830 1.00450E-02 1.32386E-04-8.79866E-14
 -1       831 9.73845E-03-7.11075E-05-8.70189E-14
 -1       832 9.93845E-03-1.57094E-04-8.77075E-14
 -1       833 1.13690E-03 1.20042E-06-1.52939E-15
 -1       834 2.60672E-03 3.78461E-04-6.22287E-15
 -1       835 1.19733E-03-1.68238E-04-1.63563E-15
 -1       836 1.14235E-03 1.17828E-04-1.48508E-15
 -1       837 9.65789E-03 2.93898E-06-8.47660E-14
 -1       838 1.14982E-03 1.78910E-04-1.44365E-15
 -1       839 2.31980E-03 3.70345E-04-4.96705E-15
 -1       840 1.40113E-02-4.02096E-04-1.28397E-13
 -1       841 1.11832E-02 7.32749E-04-9.68038E-14
 -1       842 1.46982E-02-1.42840E-04-1.32359E-13
 -1       843 1.74570E-03 3.39176E-04-2.87980E-15
 -1       844 1.47625E-03 3.15574E-04-2.09306E-15
 -1       845 1.19066E-03-1.06225E-04-1.65207E-15
 -1       846 2.21836E-03-2.58968E-04-4.96589E-15
 -1       847 2.50744E-03-2.66283E-04-6.22969E-15
 -1       848 2.79646E-03-2.70769E-04-7.63293E-15
 -1       849 3.08523E-03-2.73210E-04-9.17564E-15
 -1       850 3.37366E-03-2.74210E-04-1.08555E-14
 -1       851 3.66170E-03-2.74216E-04-1.26721E-14
 -1       852 3.94935E-03-2.73540E-04-1.46229E-14
 -1       853 4.23664E-03-2.72390E-04-1.67035E-14
 -1       854 4.52357E-03-2.70890E-04-1.89122E-14
 -1       855 4.81016E-03-2.69096E-04-2.12447E-14
 -1       856 5.09642E-03-2.67014E-04-2.37012E-14
 -1       857 5.38232E-03-2.64612E-04-2.62835E-14
 -1       858 5.66783E-03-2.61829E-04-2.89919E-14
 -1       859 5.95289E-03-2.58586E-04-3.18215E-14
 -1       860 6.23739E-03-2.54799E-04-3.47748E-14
 -1       861 6.52120E-03-2.50388E-04-3.78509E-14
 -1       862 6.80414E-03-2.45298E-04-4.10432E-14
 -1       863 7.08599E-03-2.39514E-04-4.43487E-14
 -1       864 7.36647E-03-2.33093E-04-4.77688E-14
 -1       865 7.64530E-03-2.26189E-04-5.12950E-14
 -1       866 7.92213E-03-2.19093E-04-5.49182E-14
 -1       867 8.19665E-03-2.12261E-04-5.86419E-14
 -1       868 8.46864E-03-2.06350E-04-6.24634E-14
 -1       869 8.73804E-03-2.02246E-04-6.63729E-14
 -1       870 9.00520E-03-2.01095E-04-7.03673E-14
 -1       871 9.27122E-03-2.04407E-04-7.44396E-14
 -1       872 9.53846E-03-2.14372E-04-7.85793E-14
 -1       873 9.81218E-03-2.34800E-04-8.27903E-14
 -1       874 1.41655E-02 1.77592E-04-1.31459E-13
 -1       875 2.16423E-03 2.92143E-04-4.50434E-15
 -1       876 4.17932E-03 3.10112E-04-1.58009E-14
 -1       877 3.89232E-03 3.11134E-04-1.37759E-14
 -1       878 4.75250E-03 3.06939E-04-2.02416E-14
 -1       879 5.03869E-03 3.04880E-04-2.26603E-14
 -1       880 5.32463E-03 3.02483E-04-2.52085E-14
 -1       881 5.61028E-03 2.99686E-04-2.78853E-14
 -1       882 5.89561E-03 2.96408E-04-3.06921E-14
 -1       883 6.18055E-03 2.92553E-04-3.36232E-14
 -1       884 6.46501E-03 2.88031E-04-3.66739E-14
 -1       885 6.74888E-03 2.82771E-04-3.98418E-14
 -1       886 7.03203E-03 2.76739E-04-4.31262E-14
 -1       887 7.31431E-03 2.69973E-04-4.65256E-14
 -1       888 7.59557E-03 2.62607E-04-5.00322E-14
 -1       889 7.87571E-03 2.54918E-04-5.36413E-14
 -1       890 8.15469E-03 2.47368E-04-5.73496E-14
 -1       891 8.43267E-03 2.40657E-04-6.11543E-14
 -1       892 8.71011E-03 2.35792E-04-6.50511E-14
 -1       893 8.98803E-03 2.34176E-04-6.90330E-14
 -1       894 9.26834E-03 2.37796E-04-7.30973E-14
 -1       895 9.55429E-03 2.49560E-04-7.72380E-14
 -1       896 9.85133E-03 2.74201E-04-8.14472E-14
 -1       897 1.00882E-02 2.58425E-04-8.55750E-14
 -1       898 1.40128E-02 2.72543E-04-1.31460E-13
 -1       899 9.78595E-03 8.75655E-05-8.44828E-14
 -1       900 9.98653E-03-2.30743E-04-8.61090E-14
 -1       901 9.70183E-03-1.07061E-04-8.44689E-14
 -1       902 1.64160E-03-2.31799E-04-2.86104E-15
 -1       903 4.46604E-03 3.08688E-04-1.79560E-14
 -1       904 3.02947E-03 3.09781E-04-8.51341E-15
 -1       905 1.16261E-03-5.13672E-05-1.59481E-15
 -1       906 9.60473E-03-5.05922E-05-8.40700E-14
 -1       907 1.92956E-03-2.47854E-04-3.84285E-15
 -1       908 1.41653E-03 2.02477E-04-2.11066E-15
 -1       909 2.74123E-03 3.06596E-04-7.03707E-15
 -1       910 1.43908E-03-1.53647E-04-2.30249E-15
 -1       911 9.83189E-03 1.77883E-04-8.29711E-14
 -1       912 2.45276E-03 3.01020E-04-5.70072E-15
 -1       913 1.38421E-03 1.00014E-04-2.12561E-15
 -1       914 9.53397E-03-1.97177E-05-8.24402E-14
 -1       915 1.87590E-03 2.78841E-04-3.44770E-15
 -1       916 3.31741E-03 3.11277E-04-1.01303E-14
 -1       917 3.60502E-03 3.11605E-04-1.18845E-14
 -1       918 1.38104E-03 3.39847E-05-2.15459E-15
 -1       919 1.40862E-03-9.13084E-05-2.24136E-15
 -1       920 4.03314E-03 2.35217E-04-1.49119E-14
 -1       921 2.35531E-03-1.89832E-04-5.61239E-15
 -1       922 2.64532E-03-1.94263E-04-6.94600E-15
 -1       923 2.93524E-03-1.96856E-04-8.41781E-15
 -1       924 3.22484E-03-1.98130E-04-1.00270E-14
 -1       925 3.51399E-03-1.98481E-04-1.17731E-14
 -1       926 3.80265E-03-1.98195E-04-1.36535E-14
 -1       927 4.09080E-03-1.97471E-04-1.56658E-14
 -1       928 4.37845E-03-1.96435E-04-1.78080E-14
 -1       929 4.66562E-03-1.95155E-04-2.00771E-14
 -1       930 4.95231E-03-1.93654E-04-2.24680E-14
 -1       931 5.23850E-03-1.91923E-04-2.49859E-14
 -1       932 5.52415E-03-1.89926E-04-2.76297E-14
 -1       933 5.80918E-03-1.87609E-04-3.03981E-14
 -1       934 6.09347E-03-1.84911E-04-3.32886E-14
 -1       935 6.37686E-03-1.81769E-04-3.63035E-14
 -1       936 6.65913E-03-1.78133E-04-3.94371E-14
 -1       937 6.93999E-03-1.73977E-04-4.26852E-14
 -1       938 7.21911E-03-1.69317E-04-4.60465E-14
 -1       939 7.49606E-03-1.64227E-04-4.95184E-14
 -1       940 7.77037E-03-1.58866E-04-5.30919E-14
 -1       941 8.04152E-03-1.53488E-04-5.67612E-14
 -1       942 8.30892E-03-1.48455E-04-6.05335E-14
 -1       943 8.57200E-03-1.44231E-04-6.43984E-14
 -1       944 8.83022E-03-1.41363E-04-6.83508E-14
 -1       945 9.08316E-03-1.40453E-04-7.23849E-14
 -1       946 9.33075E-03-1.42184E-04-7.64921E-14
 -1       947 9.57382E-03-1.47962E-04-8.06666E-14
 -1       948 5.18063E-03 2.29661E-04-2.40683E-14
 -1       949 4.89439E-03 2.31444E-04-2.15845E-14
 -1       950 5.75167E-03 2.25144E-04-2.94219E-14
 -1       951 6.03634E-03 2.22275E-04-3.22895E-14
 -1       952 6.32028E-03 2.18895E-04-3.52770E-14
 -1       953 6.60332E-03 2.14931E-04-3.83820E-14
 -1       954 6.88526E-03 2.10328E-04-4.16061E-14
 -1       955 7.16585E-03 2.05068E-04-4.49472E-14
 -1       956 7.44480E-03 1.99185E-04-4.83997E-14
 -1       957 7.72183E-03 1.92793E-04-5.19554E-14
 -1       958 7.99666E-03 1.86105E-04-5.56102E-14
 -1       959 8.26908E-03 1.79452E-04-5.93640E-14
 -1       960 8.53903E-03 1.73312E-04-6.32144E-14
 -1       961 8.80675E-03 1.68329E-04-6.71501E-14
 -1       962 9.07299E-03 1.65379E-04-7.11732E-14
 -1       963 9.33964E-03 1.65842E-04-7.52756E-14
 -1       964 9.58294E-03 1.68184E-04-7.90977E-14
 -1       965 1.64548E-03 2.41335E-04-2.74035E-15
 -1       966 5.46641E-03 2.27581E-04-2.66807E-14
 -1       967 1.77678E-03-1.72761E-04-3.36354E-15
 -1       968 9.55462E-03 4.17011E-05-8.14899E-14
 -1       969 9.50433E-03-7.71534E-05-8.11544E-14
 -1       970 2.06559E-03-1.82916E-04-4.41782E-15
 -1       971 1.64630E-03 1.60710E-04-2.85210E-15
 -1       972 9.56938E-03 1.00149E-04-8.02974E-14
 -1       973 4.32065E-03 2.34237E-04-1.70071E-14
 -1       974 2.29951E-03 2.24062E-04-5.18027E-15
 -1       975 9.40255E-03-4.33385E-05-7.95467E-14
 -1       976 2.01017E-03 2.15283E-04-4.04284E-15
 -1       977 3.74519E-03 2.35817E-04-1.29477E-14
 -1       978 1.62931E-03 7.32121E-05-2.87551E-15
 -1       979 1.40593E-03-2.49846E-05-2.23906E-15
 -1       980 1.74558E-03-1.04211E-04-3.28959E-15
 -1       981 3.16793E-03 2.35156E-04-9.42514E-15
 -1       982 4.60773E-03 2.32967E-04-1.92304E-14
 -1       983 2.87867E-03 2.33293E-04-7.87111E-15
 -1       984 1.65296E-03 8.87113E-06-2.98198E-15
 -1       985 2.78604E-03-1.20680E-04-7.67451E-15
 -1       986 3.07648E-03-1.21873E-04-9.21295E-15
 -1       987 3.36651E-03-1.22355E-04-1.08877E-14
 -1       988 3.65601E-03-1.22341E-04-1.26978E-14
 -1       989 3.94493E-03-1.21985E-04-1.46407E-14
 -1       990 4.23326E-03-1.21390E-04-1.67155E-14
 -1       991 4.52100E-03-1.20619E-04-1.89190E-14
 -1       992 4.80816E-03-1.19701E-04-2.12467E-14
 -1       993 5.09472E-03-1.18641E-04-2.36977E-14
 -1       994 5.38065E-03-1.17423E-04-2.62777E-14
 -1       995 5.66587E-03-1.16019E-04-2.89829E-14
 -1       996 5.95027E-03-1.14394E-04-3.18111E-14
 -1       997 6.23366E-03-1.12510E-04-3.47639E-14
 -1       998 6.51582E-03-1.10333E-04-3.78375E-14
 -1       999 6.79645E-03-1.07844E-04-4.10279E-14
 -1      1000 7.07517E-03-1.05045E-04-4.43324E-14
 -1      1001 7.35153E-03-1.01973E-04-4.77485E-14
 -1      1002 7.62498E-03-9.87135E-05-5.12700E-14
 -1      1003 7.89489E-03-9.54057E-05-5.48921E-14
 -1      1004 8.16053E-03-9.22519E-05-5.86127E-14
 -1      1005 8.42102E-03-8.95074E-05-6.24316E-14
 -1      1006 8.67533E-03-8.74531E-05-6.63394E-14
 -1      1007 8.92215E-03-8.63529E-05-7.03303E-14
 -1      1008 9.15983E-03-8.64166E-05-7.44038E-14
 -1      1009 9.33875E-03-8.13198E-05-7.77577E-14
 -1      1010 5.03657E-03 1.56287E-04-2.29349E-14
 -1      1011 6.17654E-03 1.49296E-04-3.38888E-14
 -1      1012 5.89273E-03 1.51499E-04-3.09633E-14
 -1      1013 6.74071E-03 1.43637E-04-4.00980E-14
 -1      1014 7.02051E-03 1.40087E-04-4.33807E-14
 -1      1015 7.29832E-03 1.36028E-04-4.67790E-14
 -1      1016 7.57373E-03 1.31478E-04-5.02807E-14
 -1      1017 7.84627E-03 1.26499E-04-5.38836E-14
 -1      1018 8.11547E-03 1.21204E-04-5.75860E-14
 -1      1019 8.38084E-03 1.15753E-04-6.13872E-14
 -1      1020 8.64196E-03 1.10348E-04-6.52799E-14
 -1      1021 8.89846E-03 1.05213E-04-6.92562E-14
 -1      1022 9.15046E-03 1.00727E-04-7.33176E-14
 -1      1023 1.82783E-03 1.88052E-04-3.42268E-15
 -1      1024 2.03435E-03-1.10786E-04-4.33206E-15
 -1      1025 3.45678E-03 2.35880E-04-1.11184E-14
 -1      1026 6.45929E-03 1.46694E-04-3.69335E-14
 -1      1027 2.32439E-03-1.15310E-04-5.51361E-15
 -1      1028 1.80957E-03 9.62346E-05-3.45726E-15
 -1      1029 9.38297E-03 5.97353E-06-7.89207E-14
 -1      1030 4.74994E-03 1.57437E-04-2.05147E-14
 -1      1031 2.55519E-03-1.18390E-04-6.55056E-15
 -1      1032 2.58913E-03 2.29806E-04-6.45612E-15
 -1      1033 5.32263E-03 1.54940E-04-2.54832E-14
 -1      1034 5.60804E-03 1.53361E-04-2.81604E-14
 -1      1035 2.43811E-03 1.53688E-04-5.88026E-15
 -1      1036 2.14798E-03 1.48608E-04-4.66403E-15
 -1      1037 3.88678E-03 1.59732E-04-1.40246E-14
 -1      1038 9.36497E-03 5.35103E-05-7.77488E-14
 -1      1039 1.69825E-03-4.68665E-05-3.13917E-15
 -1      1040 4.17505E-03 1.59187E-04-1.60601E-14
 -1      1041 1.83256E-03 2.86868E-05-3.57907E-15
 -1      1042 4.46277E-03 1.58407E-04-1.82234E-14
 -1      1043 3.01872E-03 1.58804E-04-8.72520E-15
 -1      1044 3.30859E-03 1.59718E-04-1.03558E-14
 -1      1045 2.72849E-03 1.56923E-04-7.23323E-15
 -1      1046 3.21980E-03-4.61311E-05-1.00166E-14
 -1      1047 3.50991E-03-4.61711E-05-1.17549E-14
 -1      1048 3.79940E-03-4.60550E-05-1.36295E-14
 -1      1049 4.08829E-03-4.58230E-05-1.56347E-14
 -1      1050 4.37653E-03-4.55127E-05-1.77715E-14
 -1      1051 4.66413E-03-4.51403E-05-2.00349E-14
 -1      1052 4.95108E-03-4.47123E-05-2.24214E-14
 -1      1053 5.23737E-03-4.42274E-05-2.49340E-14
 -1      1054 5.52292E-03-4.36781E-05-2.75767E-14
 -1      1055 5.80763E-03-4.30536E-05-3.03420E-14
 -1      1056 6.09134E-03-4.23423E-05-3.32326E-14
 -1      1057 6.37383E-03-4.15349E-05-3.62439E-14
 -1      1058 6.65481E-03-4.06283E-05-3.93758E-14
 -1      1059 6.93392E-03-3.96301E-05-4.26237E-14
 -1      1060 7.21072E-03-3.85646E-05-4.59867E-14
 -1      1061 7.48466E-03-3.74790E-05-4.94538E-14
 -1      1062 7.75512E-03-3.64497E-05-5.30232E-14
 -1      1063 8.02133E-03-3.55874E-05-5.66955E-14
 -1      1064 8.28239E-03-3.50378E-05-6.04682E-14
 -1      1065 8.53718E-03-3.49766E-05-6.43321E-14
 -1      1066 8.78421E-03-3.55944E-05-6.82771E-14
 -1      1067 9.02123E-03-3.70501E-05-7.23112E-14
 -1      1068 9.21847E-03-3.98540E-05-7.59026E-14
 -1      1069 5.74964E-03 8.00141E-05-2.96482E-14
 -1      1070 9.19493E-03 1.87175E-05-7.52257E-14
 -1      1071 7.15552E-03 7.22442E-05-4.51670E-14
 -1      1072 6.87783E-03 7.43573E-05-4.18240E-14
 -1      1073 7.70262E-03 6.69942E-05-5.21645E-14
 -1      1074 7.97085E-03 6.38377E-05-5.58159E-14
 -1      1075 8.23460E-03 6.03239E-05-5.95690E-14
 -1      1076 8.49305E-03 5.64455E-05-6.34143E-14
 -1      1077 8.74520E-03 5.21717E-05-6.73469E-14
 -1      1078 8.98974E-03 4.74287E-05-7.13642E-14
 -1      1079 1.97843E-03 1.22128E-04-4.04040E-15
 -1      1080 3.59796E-03 1.59957E-04-1.21227E-14
 -1      1081 5.17900E-03 8.16587E-05-2.42932E-14
 -1      1082 4.89259E-03 8.22949E-05-2.18072E-14
 -1      1083 2.17649E-03-4.20365E-05-4.90033E-15
 -1      1084 4.60553E-03 8.28305E-05-1.94502E-14
 -1      1085 7.43064E-03 6.97946E-05-4.86158E-14
 -1      1086 1.93677E-03-4.49957E-05-3.97232E-15
 -1      1087 6.03365E-03 7.89493E-05-3.25106E-14
 -1      1088 2.92920E-03-4.58546E-05-8.41402E-15
 -1      1089 6.59803E-03 7.61575E-05-3.85995E-14
 -1      1090 5.46471E-03 8.09067E-05-2.69080E-14
 -1      1091 6.31653E-03 7.76762E-05-3.54944E-14
 -1      1092 3.74064E-03 8.37710E-05-1.31424E-14
 -1      1093 2.28896E-03 7.90628E-05-5.31084E-15
 -1      1094 2.40726E-03-4.38033E-05-5.88016E-15
 -1      1095 2.66823E-03-4.49992E-05-7.09169E-15
 -1      1096 4.02956E-03 8.35940E-05-1.51161E-14
 -1      1097 2.87047E-03 8.26613E-05-8.03207E-15
 -1      1098 2.00062E-03 5.21171E-05-4.17859E-15
 -1      1099 2.57966E-03 8.12857E-05-6.60253E-15
 -1      1100 4.31786E-03 8.32680E-05-1.72204E-14
 -1      1101 3.16102E-03 8.34216E-05-9.59873E-15
 -1      1102 3.65464E-03 3.01492E-05-1.26311E-14
 -1      1103 3.45113E-03 8.37491E-05-1.13031E-14
 -1      1104 2.47523E-03-1.02824E-07-6.17299E-15
 -1      1105 0.00000E+00 0.00000E+00 0.00000E+00
 -1      1106 0.00000E+00 0.00000E+00 0.00000E+00
 -1      1107 0.00000E+00 0.00000E+00 0.00000E+00
 -1      1108 0.00000E+00 0.00000E+00 0.00000E+00
 -1      1109 0.00000E+00 0.00000E+00 0.00000E+00
 -1      1110 0.00000E+00 0.00000E+00 0.00000E+00
 -1      1111 0.00000E+00 0.00000E+00 0.00000E+00
 -1      1112 0.00000E+00 0.00000E+00 0.00000E+00
 -1      1113 0.00000E+00 0.00000E+00 0.00000E+00
 -1      1114 0.00000E+00 0.00000E+00 0.00000E+00
 -1      1115 0.00000E+00 0.00000E+00 0.00000E+00
 -1      1116 0.00000E+00 0.00000E+00 0.00000E+00
 -1      1117 0.00000E+00 0.00000E+00 0.00000E+00
 -1      1118 0.00000E+00 0.00000E+00 0.00000E+00
 -1      1119 0.00000E+00 0.00000E+00 0.00000E+00
 -1      1120 0.00000E+00 0.00000E+00 0.00000E+00
 -1      1121 0.00000E+00 0.00000E+00 0.00000E+00
 -1      1122 2.11677E-04-1.48335E-04 2.16705E-17
 -1      1123 5.51669E-04-3.37521E-04-3.41930E-17
 -1      1124 8.33514E-04-4.59018E-04-2.36763E-16
 -1      1125 1.10312E-03-5.40712E-04-6.10636E-16
 -1      1126 1.36857E-03-5.97983E-04-1.14763E-15
 -1      1127 1.63341E-03-6.38721E-04-1.84556E-15
 -1      1128 1.89951E-03-6.67575E-04-2.70372E-15
 -1      1129 2.16770E-03-6.87668E-04-3.72028E-15
 -1      1130 2.43828E-03-7.01288E-04-4.89258E-15
 -1      1131 2.71124E-03-7.10159E-04-6.21839E-15
 -1      1132 2.98642E-03-7.15587E-04-7.69683E-15
 -1      1133 3.26356E-03-7.18552E-04-9.31992E-15
 -1      1134 3.54239E-03-7.19778E-04-1.10838E-14
 -1      1135 3.82264E-03-7.19785E-04-1.29892E-14
 -1      1136 4.10405E-03-7.18935E-04-1.50279E-14
 -1      1137 4.38640E-03-7.17462E-04-1.71956E-14
 -1      1138 4.66952E-03-7.15501E-04-1.94896E-14
 -1      1139 4.95328E-03-7.13111E-04-2.19054E-14
 -1      1140 5.23760E-03-7.10293E-04-2.44414E-14
 -1      1141 5.52247E-03-7.07004E-04-2.71002E-14
 -1      1142 5.80795E-03-7.03176E-04-2.98825E-14
 -1      1143 6.09418E-03-6.98726E-04-3.27895E-14
 -1      1144 6.38138E-03-6.93580E-04-3.58211E-14
 -1      1145 6.66990E-03-6.87692E-04-3.89728E-14
 -1      1146 6.96022E-03-6.81080E-04-4.22408E-14
 -1      1147 7.25298E-03-6.73868E-04-4.56246E-14
 -1      1148 7.54898E-03-6.66346E-04-4.91141E-14
 -1      1149 7.84925E-03-6.59059E-04-5.27064E-14
 -1      1150 8.15498E-03-6.52916E-04-5.64070E-14
 -1      1151 8.46757E-03-6.49340E-04-6.02089E-14
 -1      1152 8.78845E-03-6.50445E-04-6.41055E-14
 -1      1153 9.11891E-03-6.59226E-04-6.80972E-14
 -1      1154 9.45972E-03-6.79694E-04-7.21624E-14
 -1      1155 9.81053E-03-7.16816E-04-7.63019E-14
 -1      1156 1.01690E-02-7.75966E-04-8.05129E-14
 -1      1157 1.05297E-02-8.61502E-04-8.47870E-14
 -1      1158 1.08840E-02-9.74071E-04-8.91196E-14
 -1      1159 1.12206E-02-1.10695E-03-9.35178E-14
 -1      1160 1.15284E-02-1.24311E-03-9.79804E-14
 -1      1161 1.18029E-02-1.35637E-03-1.02514E-13
 -1      1162 1.20496E-02-1.41921E-03-1.07124E-13
 -1      1163 1.22847E-02-1.41473E-03-1.11811E-13
 -1      1164 1.25273E-02-1.34497E-03-1.16571E-13
 -1      1165 1.27902E-02-1.22875E-03-1.21399E-13
 -1      1166 1.30752E-02-1.09088E-03-1.26287E-13
 -1      1167 1.33746E-02-9.50615E-04-1.31222E-13
 -1      1168 1.36779E-02-8.16287E-04-1.36182E-13
 -1      1169 1.39764E-02-6.86328E-04-1.41156E-13
 -1      1170 1.42671E-02-5.53962E-04-1.46151E-13
 -1      1171 1.45453E-02-4.17952E-04-1.51041E-13
 -1      1172 2.28437E-04 1.60714E-04 3.58193E-17
 -1      1173 5.53843E-04 3.42153E-04 1.00289E-17
 -1      1174 8.34446E-04 4.61188E-04-1.50555E-16
 -1      1175 1.10402E-03 5.42402E-04-4.64947E-16
 -1      1176 1.36947E-03 5.99665E-04-9.35829E-16
 -1      1177 1.63437E-03 6.40490E-04-1.56163E-15
 -1      1178 1.90052E-03 6.69450E-04-2.34220E-15
 -1      1179 2.16875E-03 6.89663E-04-3.27349E-15
 -1      1180 2.43936E-03 7.03410E-04-4.35506E-15
 -1      1181 2.71234E-03 7.12413E-04-5.58824E-15
 -1      1182 2.98752E-03 7.17976E-04-6.97039E-15
 -1      1183 3.26467E-03 7.21077E-04-8.49730E-15
 -1      1184 3.54351E-03 7.22440E-04-1.01676E-14
 -1      1185 3.82376E-03 7.22585E-04-1.19789E-14
 -1      1186 4.10518E-03 7.21872E-04-1.39317E-14
 -1      1187 4.38753E-03 7.20536E-04-1.60293E-14
 -1      1188 4.67066E-03 7.18713E-04-1.82688E-14
 -1      1189 4.95442E-03 7.16463E-04-2.06436E-14
 -1      1190 5.23875E-03 7.13789E-04-2.31563E-14
 -1      1191 5.52364E-03 7.10651E-04-2.58098E-14
 -1      1192 5.80913E-03 7.06984E-04-2.86029E-14
 -1      1193 6.09538E-03 7.02714E-04-3.15288E-14
 -1      1194 6.38259E-03 6.97775E-04-3.45774E-14
 -1      1195 6.67112E-03 6.92138E-04-3.77435E-14
 -1      1196 6.96141E-03 6.85838E-04-4.10266E-14
 -1      1197 7.25408E-03 6.79027E-04-4.44200E-14
 -1      1198 7.54989E-03 6.72028E-04-4.79235E-14
 -1      1199 7.84974E-03 6.65418E-04-5.15309E-14
 -1      1200 8.15471E-03 6.60131E-04-5.52335E-14
 -1      1201 8.46594E-03 6.57581E-04-5.90381E-14
 -1      1202 8.78452E-03 6.59800E-04-6.29372E-14
 -1      1203 9.11127E-03 6.69547E-04-6.69253E-14
 -1      1204 9.44638E-03 6.90334E-04-7.09957E-14
 -1      1205 9.78885E-03 7.26215E-04-7.51353E-14
 -1      1206 1.01359E-02 7.81128E-04-7.93566E-14
 -1      1207 1.04821E-02 8.57525E-04-8.36505E-14
 -1      1208 1.08199E-02 9.54195E-04-8.80207E-14
 -1      1209 1.11401E-02 1.06373E-03-9.24767E-14
 -1      1210 1.14350E-02 1.17105E-03-9.70008E-14
 -1      1211 1.17017E-02 1.25510E-03-1.01585E-13
 -1      1212 1.19460E-02 1.29490E-03-1.06233E-13
 -1      1213 1.21806E-02 1.27788E-03-1.10943E-13
 -1      1214 1.24205E-02 1.20542E-03-1.15714E-13
 -1      1215 1.26761E-02 1.09128E-03-1.20539E-13
 -1      1216 1.29498E-02 9.54190E-04-1.25399E-13
 -1      1217 1.32368E-02 8.09766E-04-1.30319E-13
 -1      1218 1.35295E-02 6.65946E-04-1.35293E-13
 -1      1219 1.38211E-02 5.23139E-04-1.40310E-13
 -1      1220 1.41087E-02 3.77685E-04-1.45363E-13
 -1      1221 1.43867E-02 2.30888E-04-1.50319E-13
 -1      1222 1.45973E-02 1.15957E-04-1.52780E-13
 -1      1223 1.47501E-02 3.14429E-05-1.52875E-13
 -1      1224 1.49102E-02-4.93454E-05-1.52948E-13
 -1      1225 1.50789E-02-1.20439E-04-1.52992E-13
 -1      1226 1.52525E-02-1.74450E-04-1.53037E-13
 -1      1227 1.54203E-02-2.03898E-04-1.53092E-13
 -1      1228 1.55686E-02-2.04781E-04-1.53168E-13
 -1      1229 1.56795E-02-1.77885E-04-1.53225E-13
 -1      1230 1.57341E-02-1.31707E-04-1.53265E-13
 -1      1231 1.57232E-02-8.09965E-05-1.53290E-13
 -1      1232 1.56495E-02-4.20329E-05-1.53285E-13
 -1      1233 1.55280E-02-2.72430E-05-1.53319E-13
 -1      1234 1.53769E-02-4.14040E-05-1.53378E-13
 -1      1235 1.52124E-02-8.33785E-05-1.53413E-13
 -1      1236 1.50491E-02-1.47163E-04-1.53419E-13
 -1      1237 1.48944E-02-2.24821E-04-1.53421E-13
 -1      1238 1.47502E-02-3.08136E-04-1.53428E-13
 -1      1239 1.45381E-02-3.36562E-06-1.19239E-13
 -1      1240 1.44062E-02 1.70946E-04-1.18681E-13
 -1      1241 1.41681E-02 3.42228E-04-1.17696E-13
 -1      1242 1.38399E-02 5.12817E-04-1.16305E-13
 -1      1243 1.34481E-02 6.70895E-04-1.14558E-13
 -1      1244 1.30245E-02 7.97313E-04-1.12587E-13
 -1      1245 1.25405E-02 8.82847E-04-1.10239E-13
 -1      1246 1.20597E-02 9.04616E-04-1.07843E-13
 -1      1247 1.16074E-02 8.59501E-04-1.05583E-13
 -1      1248 1.11622E-02 7.59776E-04-1.03411E-13
 -1      1249 1.07565E-02 6.22337E-04-1.01505E-13
 -1      1250 1.03981E-02 4.62492E-04-9.98916E-14
 -1      1251 1.01182E-02 2.98611E-04-9.86928E-14
 -1      1252 9.93656E-03 1.41756E-04-9.79497E-14
 -1      1253 9.85593E-03-1.60335E-05-9.76391E-14
 -1      1254 9.88756E-03-1.75021E-04-9.78031E-14
 -1      1255 1.00252E-02-3.32689E-04-9.84003E-14
 -1      1256 1.02550E-02-4.94070E-04-9.94092E-14
 -1      1257 1.05809E-02-6.64880E-04-1.00877E-13
 -1      1258 1.09989E-02-8.35364E-04-1.02830E-13
 -1      1259 1.14410E-02-9.66819E-04-1.04963E-13
 -1      1260 1.18854E-02-1.04298E-03-1.07161E-13
 -1      1261 1.23695E-02-1.05726E-03-1.09571E-13
 -1      1262 1.28433E-02-1.00533E-03-1.11897E-13
 -1      1263 1.33067E-02-8.92542E-04-1.14094E-13
 -1      1264 1.37542E-02-7.31065E-04-1.16102E-13
 -1      1265 1.41279E-02-5.48862E-04-1.17662E-13
 -1      1266 1.43959E-02-3.64566E-04-1.18718E-13
 -1      1267 1.45371E-02-1.82279E-04-1.19259E-13
 -1      1268 1.66709E-04-1.10343E-04-2.50722E-18
 -1      1269 1.12546E-04-5.69739E-05-3.16180E-17
 -1      1270 1.17628E-04-6.75823E-05-2.36763E-17
 -1      1271 1.08428E-04-4.34913E-05-4.47911E-17
 -1      1272 1.10290E-04-4.96059E-05-4.08202E-17
 -1      1273 2.26340E-04-1.07624E-04-9.60739E-17
 -1      1274 1.06841E-04-3.36061E-05-5.19062E-17
 -1      1275 1.07691E-04-3.83304E-05-4.97784E-17
 -1      1276 2.19116E-04-8.24567E-05-1.19547E-16
 -1      1277 1.06058E-04-2.53531E-05-5.62023E-17
 -1      1278 1.06489E-04-2.93836E-05-5.51859E-17
 -1      1279 2.15861E-04-6.32724E-05-1.33221E-16
 -1      1280 1.05658E-04-1.80915E-05-5.83165E-17
 -1      1281 1.05888E-04-2.16598E-05-5.79099E-17
 -1      1282 2.14203E-04-4.71907E-05-1.41122E-16
 -1      1283 1.05436E-04-1.12389E-05-5.93872E-17
 -1      1284 1.05559E-04-1.46243E-05-5.92652E-17
 -1      1285 2.13290E-04-3.27528E-05-1.45283E-16
 -1      1286 1.05335E-04-4.68875E-06-5.96176E-17
 -1      1287 1.05388E-04-7.94209E-06-5.96989E-17
 -1      1288 2.12790E-04-1.91894E-05-1.47113E-16
 -1      1289 1.05324E-04 1.74333E-06-5.94414E-17
 -1      1290 1.05322E-04-1.47009E-06-5.96040E-17
 -1      1291 2.12574E-04-6.15970E-06-1.47316E-16
 -1      1292 1.05396E-04 8.22499E-06-5.84249E-17
 -1      1293 1.05339E-04 4.96520E-06-5.86824E-17
 -1      1294 2.12582E-04 6.70913E-06-1.46028E-16
 -1      1295 1.05575E-04 1.49321E-05-5.67580E-17
 -1      1296 1.05447E-04 1.15322E-05-5.73272E-17
 -1      1297 2.12814E-04 1.97647E-05-1.43142E-16
 -1      1298 1.05909E-04 2.19505E-05-5.38171E-17
 -1      1299 1.05673E-04 1.83595E-05-5.47387E-17
 -1      1300 2.13327E-04 3.32668E-05-1.38182E-16
 -1      1301 1.06535E-04 2.98171E-05-4.96836E-17
 -1      1302 1.06095E-04 2.57401E-05-5.11066E-17
 -1      1303 2.14271E-04 4.77940E-05-1.30728E-16
 -1      1304 1.07728E-04 3.89163E-05-4.31377E-17
 -1      1305 1.06875E-04 3.41224E-05-4.56043E-17
 -1      1306 2.15980E-04 6.42069E-05-1.19737E-16
 -1      1307 1.10269E-04 5.03439E-05-3.24312E-17
 -1      1308 1.08430E-04 4.41599E-05-3.70120E-17
 -1      1309 2.19210E-04 8.37059E-05-1.02891E-16
 -1      1310 1.16944E-04 6.76179E-05-1.52873E-17
 -1      1311 1.12193E-04 5.77728E-05-2.35678E-17
 -1      1312 2.26328E-04 1.09443E-04-7.71816E-17
 -1      1313 1.57588E-04 1.09860E-04 1.18720E-17
 -1      1314 1.35670E-04 8.60903E-05-5.02799E-18
 -1      1315 2.56054E-04 1.52092E-04-4.61192E-17
 -1      1316 3.35105E-04 2.20739E-04-1.26039E-18
 -1      1317 4.21565E-04-2.61741E-04-5.50504E-17
 -1      1318 5.74672E-04-3.36802E-04-1.22176E-16
 -1      1319 7.21871E-04-3.97406E-04-2.33700E-16
 -1      1320 8.65051E-04-4.46704E-04-3.86315E-16
 -1      1321 6.12109E-04-3.30895E-04-2.23332E-16
 -1      1322 1.00509E-03-4.87782E-04-5.78530E-16
 -1      1323 1.14294E-03-5.21778E-04-8.11444E-16
 -1      1324 9.05361E-04-4.31598E-04-5.40963E-16
 -1      1325 1.27945E-03-5.50563E-04-1.08396E-15
 -1      1326 1.41511E-03-5.74612E-04-1.39674E-15
 -1      1327 1.18781E-03-5.01034E-04-1.01658E-15
 -1      1328 1.55037E-03-5.94991E-04-1.74903E-15
 -1      1329 1.68548E-03-6.12032E-04-2.14116E-15
 -1      1330 1.46477E-03-5.49833E-04-1.64956E-15
 -1      1331 1.82067E-03-6.26365E-04-2.57270E-15
 -1      1332 1.95607E-03-6.38284E-04-3.04352E-15
 -1      1333 1.73948E-03-5.84165E-04-2.43948E-15
 -1      1334 2.09180E-03-6.48189E-04-3.55320E-15
 -1      1335 2.22789E-03-6.56332E-04-4.10219E-15
 -1      1336 2.01381E-03-6.08018E-04-3.38545E-15
 -1      1337 2.36441E-03-6.62987E-04-4.68955E-15
 -1      1338 2.50136E-03-6.68360E-04-5.31450E-15
 -1      1339 2.28874E-03-6.24205E-04-4.48552E-15
 -1      1340 2.63876E-03-6.72644E-04-5.97805E-15
 -1      1341 2.77659E-03-6.76005E-04-6.67917E-15
 -1      1342 2.56475E-03-6.34801E-04-5.73757E-15
 -1      1343 2.91485E-03-6.78582E-04-7.41692E-15
 -1      1344 3.05352E-03-6.80502E-04-8.19248E-15
 -1      1345 2.84203E-03-6.41357E-04-7.13931E-15
 -1      1346 3.19259E-03-6.81864E-04-9.00305E-15
 -1      1347 3.33202E-03-6.82766E-04-9.84827E-15
 -1      1348 3.12060E-03-6.45033E-04-8.68694E-15
 -1      1349 3.47179E-03-6.83277E-04-1.07297E-14
 -1      1350 3.61188E-03-6.83469E-04-1.16463E-14
 -1      1351 3.40037E-03-6.46686E-04-1.03767E-14
 -1      1352 3.75226E-03-6.83388E-04-1.25979E-14
 -1      1353 3.89291E-03-6.83088E-04-1.35827E-14
 -1      1354 3.68124E-03-6.46936E-04-1.22078E-14
 -1      1355 4.03380E-03-6.82593E-04-1.46007E-14
 -1      1356 4.17492E-03-6.81943E-04-1.56508E-14
 -1      1357 3.96304E-03-6.46217E-04-1.41751E-14
 -1      1358 4.31624E-03-6.81151E-04-1.67334E-14
 -1      1359 4.45775E-03-6.80240E-04-1.78479E-14
 -1      1360 4.24566E-03-6.44816E-04-1.62730E-14
 -1      1361 4.59942E-03-6.79213E-04-1.89931E-14
 -1      1362 4.74125E-03-6.78086E-04-2.01700E-14
 -1      1363 4.52898E-03-6.42908E-04-1.84991E-14
 -1      1364 4.88323E-03-6.76852E-04-2.13766E-14
 -1      1365 5.02536E-03-6.75518E-04-2.26127E-14
 -1      1366 4.81289E-03-6.40576E-04-2.08487E-14
 -1      1367 5.16762E-03-6.74072E-04-2.38809E-14
 -1      1368 5.31001E-03-6.72517E-04-2.51785E-14
 -1      1369 5.09734E-03-6.37836E-04-2.33209E-14
 -1      1370 5.45255E-03-6.70835E-04-2.65065E-14
 -1      1371 5.59524E-03-6.69026E-04-2.78664E-14
 -1      1372 5.38233E-03-6.34652E-04-2.59148E-14
 -1      1373 5.73809E-03-6.67068E-04-2.92562E-14
 -1      1374 5.88112E-03-6.64961E-04-3.06772E-14
 -1      1375 5.66788E-03-6.30950E-04-2.86309E-14
 -1      1376 6.02434E-03-6.62680E-04-3.21299E-14
 -1      1377 6.16779E-03-6.60228E-04-3.36131E-14
 -1      1378 5.95409E-03-6.26635E-04-3.14715E-14
 -1      1379 6.31151E-03-6.57580E-04-3.51288E-14
 -1      1380 6.45552E-03-6.54745E-04-3.66745E-14
 -1      1381 6.24113E-03-6.21603E-04-3.44381E-14
 -1      1382 6.59988E-03-6.51700E-04-3.82494E-14
 -1      1383 6.74464E-03-6.48464E-04-3.98530E-14
 -1      1384 6.52923E-03-6.15767E-04-3.75268E-14
 -1      1385 6.88986E-03-6.45020E-04-4.14856E-14
 -1      1386 7.03561E-03-6.41406E-04-4.31479E-14
 -1      1387 6.81873E-03-6.09078E-04-4.07333E-14
 -1      1388 7.18199E-03-6.37614E-04-4.48380E-14
 -1      1389 7.32906E-03-6.33708E-04-4.65556E-14
 -1      1390 7.11007E-03-6.01564E-04-4.40533E-14
 -1      1391 7.47694E-03-6.29701E-04-4.82996E-14
 -1      1392 7.62573E-03-6.25694E-04-5.00679E-14
 -1      1393 7.40381E-03-5.93386E-04-4.74851E-14
 -1      1394 7.77556E-03-6.21731E-04-5.18636E-14
 -1      1395 7.92655E-03-6.17963E-04-5.36866E-14
 -1      1396 7.70064E-03-5.84906E-04-5.10228E-14
 -1      1397 8.07884E-03-6.14487E-04-5.55355E-14
 -1      1398 8.23257E-03-6.11516E-04-5.74102E-14
 -1      1399 8.00135E-03-5.76793E-04-5.46659E-14
 -1      1400 8.38790E-03-6.09229E-04-5.93101E-14
 -1      1401 8.54496E-03-6.07918E-04-6.12324E-14
 -1      1402 8.30685E-03-5.70157E-04-5.84118E-14
 -1      1403 8.70390E-03-6.07876E-04-6.31796E-14
 -1      1404 8.86484E-03-6.09489E-04-6.51504E-14
 -1      1405 8.61811E-03-5.66725E-04-6.22554E-14
 -1      1406 9.02788E-03-6.13207E-04-6.71424E-14
 -1      1407 9.19310E-03-6.19513E-04-6.91551E-14
 -1      1408 8.93601E-03-5.69053E-04-6.61913E-14
 -1      1409 9.36051E-03-6.29042E-04-7.11864E-14
 -1      1410 9.53006E-03-6.42356E-04-7.32344E-14
 -1      1411 9.26120E-03-5.80728E-04-7.02108E-14
 -1      1412 9.70161E-03-6.60272E-04-7.53031E-14
 -1      1413 9.87492E-03-6.83357E-04-7.73897E-14
 -1      1414 9.59381E-03-6.06476E-04-7.43066E-14
 -1      1415 1.00496E-02-7.12505E-04-7.94924E-14
 -1      1416 1.02252E-02-7.48128E-04-8.16114E-14
 -1      1417 9.93309E-03-6.51959E-04-7.84738E-14
 -1      1418 1.04009E-02-7.90918E-04-8.37460E-14
 -1      1419 1.05760E-02-8.40837E-04-8.58957E-14
 -1      1420 1.02769E-02-7.22895E-04-8.27082E-14
 -1      1421 1.07495E-02-8.97875E-04-8.80616E-14
 -1      1422 1.09202E-02-9.61101E-04-9.02435E-14
 -1      1423 1.06214E-02-8.23014E-04-8.70054E-14
 -1      1424 1.10872E-02-1.02920E-03-9.24409E-14
 -1      1425 1.12494E-02-1.09999E-03-9.46571E-14
 -1      1426 1.09609E-02-9.50542E-04-9.13673E-14
 -1      1427 1.14060E-02-1.17051E-03-9.68878E-14
 -1      1428 1.15565E-02-1.23738E-03-9.91335E-14
 -1      1429 1.12887E-02-1.09402E-03-9.57932E-14
 -1      1430 1.17009E-02-1.29655E-03-1.01402E-13
 -1      1431 1.18396E-02-1.34443E-03-1.03688E-13
 -1      1432 1.15995E-02-1.23016E-03-1.00290E-13
 -1      1433 1.19737E-02-1.37749E-03-1.05991E-13
 -1      1434 1.21048E-02-1.39350E-03-1.08315E-13
 -1      1435 1.18923E-02-1.32804E-03-1.04861E-13
 -1      1436 1.22343E-02-1.39132E-03-1.10658E-13
 -1      1437 1.23643E-02-1.37119E-03-1.13020E-13
 -1      1438 1.21728E-02-1.36105E-03-1.09507E-13
 -1      1439 1.24961E-02-1.33494E-03-1.15398E-13
 -1      1440 1.26309E-02-1.28502E-03-1.17796E-13
 -1      1441 1.24513E-02-1.32037E-03-1.14228E-13
 -1      1442 1.27695E-02-1.22502E-03-1.20209E-13
 -1      1443 1.29119E-02-1.15813E-03-1.22632E-13
 -1      1444 1.27369E-02-1.21924E-03-1.19016E-13
 -1      1445 1.30578E-02-1.08770E-03-1.25075E-13
 -1      1446 1.32065E-02-1.01621E-03-1.27533E-13
 -1      1447 1.30331E-02-1.08418E-03-1.23869E-13
 -1      1448 1.33572E-02-9.45444E-04-1.30000E-13
 -1      1449 1.35087E-02-8.76522E-04-1.32472E-13
 -1      1450 1.33371E-02-9.40514E-04-1.28777E-13
 -1      1451 1.36603E-02-8.09530E-04-1.34948E-13
 -1      1452 1.38111E-02-7.44387E-04-1.37432E-13
 -1      1453 1.36434E-02-8.02727E-04-1.33719E-13
 -1      1454 1.39606E-02-6.80043E-04-1.39921E-13
 -1      1455 1.41085E-02-6.15757E-04-1.42411E-13
 -1      1456 1.39467E-02-6.73042E-04-1.38683E-13
 -1      1457 1.42547E-02-5.50233E-04-1.44908E-13
 -1      1458 1.43994E-02-4.82766E-04-1.47409E-13
 -1      1459 1.42437E-02-5.45392E-04-1.43666E-13
 -1      1460 1.46144E-02-3.76679E-04-1.51042E-13
 -1      1461 1.46060E-02-3.75666E-04-1.49792E-13
 -1      1462 6.43120E-04 3.72017E-04-9.55318E-17
 -1      1463 4.92983E-04 3.03693E-04-2.92328E-17
 -1      1464 4.44910E-04 2.65894E-04-6.26127E-17
 -1      1465 9.28729E-04 4.71989E-04-3.40724E-16
 -1      1466 7.87854E-04 4.26494E-04-1.99290E-16
 -1      1467 7.44791E-04 3.90720E-04-2.40069E-16
 -1      1468 1.20364E-03 5.41424E-04-7.37339E-16
 -1      1469 1.06697E-03 5.09737E-04-5.19658E-16
 -1      1470 1.03086E-03 4.76171E-04-5.66631E-16
 -1      1471 1.47422E-03 5.90643E-04-1.28853E-15
 -1      1472 1.33915E-03 5.68172E-04-9.93590E-16
 -1      1473 1.30879E-03 5.36013E-04-1.04425E-15
 -1      1474 1.74377E-03 6.25566E-04-1.99228E-15
 -1      1475 1.60895E-03 6.09650E-04-1.62117E-15
 -1      1476 1.58304E-03 5.78325E-04-1.67357E-15
 -1      1477 2.01400E-03 6.50062E-04-2.84870E-15
 -1      1478 1.87872E-03 6.38945E-04-2.40147E-15
 -1      1479 1.85623E-03 6.08083E-04-2.45444E-15
 -1      1480 2.28570E-03 6.66879E-04-3.85451E-15
 -1      1481 2.14963E-03 6.59299E-04-3.33338E-15
 -1      1482 2.12976E-03 6.28672E-04-3.38604E-15
 -1      1483 2.55920E-03 6.78059E-04-5.01041E-15
 -1      1484 2.42221E-03 6.73073E-04-4.41354E-15
 -1      1485 2.40433E-03 6.42540E-04-4.46629E-15
 -1      1486 2.83454E-03 6.85142E-04-6.31628E-15
 -1      1487 2.69664E-03 6.82036E-04-5.64502E-15
 -1      1488 2.68026E-03 6.51514E-04-5.69484E-15
 -1      1489 3.11162E-03 6.89285E-04-7.76736E-15
 -1      1490 2.97287E-03 6.87523E-04-7.02361E-15
 -1      1491 2.95761E-03 6.56964E-04-7.07072E-15
 -1      1492 3.39027E-03 6.91348E-04-9.36252E-15
 -1      1493 3.25076E-03 6.90534E-04-8.54705E-15
 -1      1494 3.23633E-03 6.59913E-04-8.59118E-15
 -1      1495 3.67029E-03 6.91957E-04-1.11008E-14
 -1      1496 3.53012E-03 6.91804E-04-1.02138E-14
 -1      1497 3.51630E-03 6.61112E-04-1.02543E-14
 -1      1498 3.95146E-03 6.91555E-04-1.29780E-14
 -1      1499 3.81074E-03 6.91862E-04-1.20217E-14
 -1      1500 3.79737E-03 6.61099E-04-1.20587E-14
 -1      1501 4.23359E-03 6.90437E-04-1.49990E-14
 -1      1502 4.09242E-03 6.91072E-04-1.39701E-14
 -1      1503 4.07937E-03 6.60244E-04-1.40033E-14
 -1      1504 4.51653E-03 6.88787E-04-1.71615E-14
 -1      1505 4.37497E-03 6.89671E-04-1.60633E-14
 -1      1506 4.36217E-03 6.58785E-04-1.60906E-14
 -1      1507 4.80013E-03 6.86698E-04-1.94629E-14
 -1      1508 4.65825E-03 6.87794E-04-1.82954E-14
 -1      1509 4.64565E-03 6.56859E-04-1.83169E-14
 -1      1510 5.08432E-03 6.84197E-04-2.18998E-14
 -1      1511 4.94216E-03 6.85499E-04-2.06644E-14
 -1      1512 4.92971E-03 6.54522E-04-2.06799E-14
 -1      1513 5.36907E-03 6.81259E-04-2.44759E-14
 -1      1514 5.22663E-03 6.82784E-04-2.31704E-14
 -1      1515 5.21432E-03 6.51770E-04-2.31793E-14
 -1      1516 5.65440E-03 6.77825E-04-2.71905E-14
 -1      1517 5.51166E-03 6.79606E-04-2.58159E-14
 -1      1518 5.49948E-03 6.48555E-04-2.58159E-14
 -1      1519 5.94040E-03 6.73814E-04-3.00408E-14
 -1      1520 5.79731E-03 6.75893E-04-2.85988E-14
 -1      1521 5.78525E-03 6.44799E-04-2.85910E-14
 -1      1522 6.22725E-03 6.69145E-04-3.30206E-14
 -1      1523 6.08371E-03 6.71561E-04-3.15150E-14
 -1      1524 6.07174E-03 6.40411E-04-3.14974E-14
 -1      1525 6.51520E-03 6.63753E-04-3.61181E-14
 -1      1526 6.37107E-03 6.66534E-04-3.45545E-14
 -1      1527 6.35916E-03 6.35305E-04-3.45277E-14
 -1      1528 6.80462E-03 6.57622E-04-3.93350E-14
 -1      1529 6.65970E-03 6.60768E-04-3.77127E-14
 -1      1530 6.64777E-03 6.29424E-04-3.76772E-14
 -1      1531 7.09598E-03 6.50819E-04-4.26659E-14
 -1      1532 6.95002E-03 6.54282E-04-4.09858E-14
 -1      1533 6.93796E-03 6.22772E-04-4.09416E-14
 -1      1534 7.38989E-03 6.43549E-04-4.61057E-14
 -1      1535 7.24258E-03 6.47205E-04-4.43714E-14
 -1      1536 7.23021E-03 6.15459E-04-4.43186E-14
 -1      1537 7.68710E-03 6.36223E-04-4.96536E-14
 -1      1538 7.53804E-03 6.39836E-04-4.78666E-14
 -1      1539 7.52511E-03 6.07759E-04-4.78060E-14
 -1      1540 7.98848E-03 6.29552E-04-5.33024E-14
 -1      1541 7.83721E-03 6.32722E-04-5.14659E-14
 -1      1542 7.82336E-03 6.00194E-04-5.13979E-14
 -1      1543 8.29496E-03 6.24661E-04-5.70492E-14
 -1      1544 8.14102E-03 6.26768E-04-5.51636E-14
 -1      1545 8.12574E-03 5.93637E-04-5.50890E-14
 -1      1546 8.60750E-03 6.23230E-04-6.08936E-14
 -1      1547 8.45041E-03 6.23359E-04-5.89596E-14
 -1      1548 8.43308E-03 5.89448E-04-5.88782E-14
 -1      1549 8.92690E-03 6.27630E-04-6.48299E-14
 -1      1550 8.76630E-03 6.24509E-04-6.28515E-14
 -1      1551 8.74614E-03 5.89614E-04-6.27612E-14
 -1      1552 9.25357E-03 6.41024E-04-6.88512E-14
 -1      1553 9.08931E-03 6.32980E-04-6.68292E-14
 -1      1554 9.06546E-03 5.96895E-04-6.67319E-14
 -1      1555 9.58714E-03 6.67321E-04-7.29508E-14
 -1      1556 9.41953E-03 6.52334E-04-7.08918E-14
 -1      1557 9.39113E-03 6.14881E-04-7.07863E-14
 -1      1558 9.92602E-03 7.10814E-04-7.71250E-14
 -1      1559 9.75605E-03 6.86746E-04-7.50273E-14
 -1      1560 9.72247E-03 6.47841E-04-7.49160E-14
 -1      1561 1.02669E-02 7.75235E-04-8.13786E-14
 -1      1562 1.00965E-02 7.40386E-04-7.92427E-14
 -1      1563 1.00577E-02 7.00139E-04-7.91255E-14
 -1      1564 1.06047E-02 8.61977E-04-8.57046E-14
 -1      1565 1.04366E-02 8.16077E-04-8.35331E-14
 -1      1566 1.03935E-02 7.74925E-04-8.34115E-14
 -1      1567 1.09325E-02 9.67536E-04-9.01107E-14
 -1      1568 1.07703E-02 9.13080E-04-8.78965E-14
 -1      1569 1.07251E-02 8.71912E-04-8.77703E-14
 -1      1570 1.12436E-02 1.08102E-03-9.45913E-14
 -1      1571 1.10906E-02 1.02441E-03-9.23428E-14
 -1      1572 1.10469E-02 9.84570E-04-9.22063E-14
 -1      1573 1.15334E-02 1.18365E-03-9.91346E-14
 -1      1574 1.13913E-02 1.13508E-03-9.68561E-14
 -1      1575 1.13537E-02 1.09810E-03-9.67095E-14
 -1      1576 1.18027E-02 1.25250E-03-1.03745E-13
 -1      1577 1.16704E-02 1.22353E-03-1.01432E-13
 -1      1578 1.16434E-02 1.19055E-03-1.01277E-13
 -1      1579 1.20584E-02 1.26846E-03-1.08418E-13
 -1      1580 1.19316E-02 1.26764E-03-1.06073E-13
 -1      1581 1.19184E-02 1.23877E-03-1.05911E-13
 -1      1582 1.23113E-02 1.22469E-03-1.13154E-13
 -1      1583 1.21845E-02 1.25366E-03-1.10779E-13
 -1      1584 1.21859E-02 1.22786E-03-1.10612E-13
 -1      1585 1.25716E-02 1.12934E-03-1.17945E-13
 -1      1586 1.24400E-02 1.18237E-03-1.15541E-13
 -1      1587 1.24548E-02 1.15796E-03-1.15371E-13
 -1      1588 1.28445E-02 1.00048E-03-1.22788E-13
 -1      1589 1.27064E-02 1.06785E-03-1.20363E-13
 -1      1590 1.27317E-02 1.04339E-03-1.20186E-13
 -1      1591 1.31294E-02 8.57094E-04-1.27676E-13
 -1      1592 1.29857E-02 9.29685E-04-1.25226E-13
 -1      1593 1.30181E-02 9.04506E-04-1.25047E-13
 -1      1594 1.34214E-02 7.11932E-04-1.32618E-13
 -1      1595 1.32749E-02 7.84365E-04-1.30140E-13
 -1      1596 1.33115E-02 7.58569E-04-1.29960E-13
 -1      1597 1.37148E-02 5.69118E-04-1.37609E-13
 -1      1598 1.35683E-02 6.40309E-04-1.35107E-13
 -1      1599 1.36073E-02 6.14438E-04-1.34923E-13
 -1      1600 1.40058E-02 4.26209E-04-1.42643E-13
 -1      1601 1.38608E-02 4.97941E-04-1.40121E-13
 -1      1602 1.39014E-02 4.72585E-04-1.39930E-13
 -1      1603 1.42933E-02 2.78777E-04-1.47703E-13
 -1      1604 1.41499E-02 3.53228E-04-1.45170E-13
 -1      1605 1.41919E-02 3.28688E-04-1.44976E-13
 -1      1606 1.44616E-02 1.88830E-04-1.50365E-13
 -1      1607 1.46657E-02 7.91131E-05-1.50693E-13
 -1      1608 1.45876E-02 1.19824E-04-1.50647E-13
 -1      1609 1.48290E-02 2.16378E-06-1.50763E-13
 -1      1610 1.47462E-02 3.97067E-05-1.50732E-13
 -1      1611 1.45823E-02 1.25528E-04-1.48513E-13
 -1      1612 1.50013E-02-6.46942E-05-1.50821E-13
 -1      1613 1.49142E-02-3.28725E-05-1.50794E-13
 -1      1614 1.47489E-02 5.00566E-05-1.48589E-13
 -1      1615 1.51777E-02-1.15852E-04-1.50880E-13
 -1      1616 1.50895E-02-9.25917E-05-1.50851E-13
 -1      1617 1.49246E-02-1.60710E-05-1.48658E-13
 -1      1618 1.53444E-02-1.45945E-04-1.50940E-13
 -1      1619 1.52628E-02-1.33629E-04-1.50910E-13
 -1      1620 1.51016E-02-6.80191E-05-1.48724E-13
 -1      1621 1.54900E-02-1.53780E-04-1.51009E-13
 -1      1622 1.54214E-02-1.52707E-04-1.50974E-13
 -1      1623 1.52687E-02-1.02695E-04-1.48788E-13
 -1      1624 1.55912E-02-1.41222E-04-1.51060E-13
 -1      1625 1.55473E-02-1.49668E-04-1.51037E-13
 -1      1626 1.54082E-02-1.18961E-04-1.48848E-13
 -1      1627 1.56309E-02-1.16409E-04-1.51105E-13
 -1      1628 1.56194E-02-1.29656E-04-1.51083E-13
 -1      1629 1.54976E-02-1.19528E-04-1.48903E-13
 -1      1630 1.56025E-02-9.12987E-05-1.51128E-13
 -1      1631 1.56252E-02-1.03092E-04-1.51122E-13
 -1      1632 1.55210E-02-1.12112E-04-1.48945E-13
 -1      1633 1.55121E-02-7.79550E-05-1.51148E-13
 -1      1634 1.55642E-02-8.25129E-05-1.51136E-13
 -1      1635 1.54746E-02-1.07103E-04-1.48977E-13
 -1      1636 1.53789E-02-8.44822E-05-1.51182E-13
 -1      1637 1.54498E-02-7.84827E-05-1.51163E-13
 -1      1638 1.53694E-02-1.13946E-04-1.49005E-13
 -1      1639 1.52183E-02-1.14018E-04-1.51224E-13
 -1      1640 1.53006E-02-9.63934E-05-1.51204E-13
 -1      1641 1.52238E-02-1.38172E-04-1.49039E-13
 -1      1642 1.50503E-02-1.64706E-04-1.51245E-13
 -1      1643 1.51344E-02-1.36979E-04-1.51238E-13
 -1      1644 1.50570E-02-1.81281E-04-1.49066E-13
 -1      1645 1.48868E-02-2.31627E-04-1.51250E-13
 -1      1646 1.49675E-02-1.96519E-04-1.51250E-13
 -1      1647 1.48871E-02-2.40622E-04-1.49080E-13
 -1      1648 1.47067E-02-3.22296E-04-1.50524E-13
 -1      1649 1.47825E-02-2.82869E-04-1.50520E-13
 -1      1650 1.46983E-02-3.24423E-04-1.48354E-13
 -1      1651 1.44907E-02-4.26908E-04-1.46895E-13
 -1      1652 1.45305E-02-3.68704E-06-1.20090E-13
 -1      1653 1.45686E-02-5.87019E-05-1.20239E-13
 -1      1654 1.43368E-02 1.26994E-04-1.19432E-13
 -1      1655 1.44440E-02 6.23871E-05-1.19831E-13
 -1      1656 1.40409E-02 2.88982E-04-1.18217E-13
 -1      1657 1.41875E-02 2.13820E-04-1.18793E-13
 -1      1658 1.36452E-02 4.71123E-04-1.16670E-13
 -1      1659 1.38344E-02 3.78181E-04-1.17495E-13
 -1      1660 1.32481E-02 6.68227E-04-1.14629E-13
 -1      1661 1.34341E-02 5.83613E-04-1.15545E-13
 -1      1662 1.28299E-02 8.31065E-04-1.12442E-13
 -1      1663 1.30206E-02 7.59344E-04-1.13499E-13
 -1      1664 1.23777E-02 9.45446E-04-1.09791E-13
 -1      1665 1.25818E-02 9.03707E-04-1.11082E-13
 -1      1666 1.19822E-02 9.44878E-04-1.07251E-13
 -1      1667 1.21571E-02 9.53798E-04-1.08345E-13
 -1      1668 1.15830E-02 8.62876E-04-1.04754E-13
 -1      1669 1.17715E-02 9.14043E-04-1.05901E-13
 -1      1670 1.11699E-02 7.08767E-04-1.02480E-13
 -1      1671 1.13562E-02 7.85718E-04-1.03490E-13
 -1      1672 1.07741E-02 5.19825E-04-1.00444E-13
 -1      1673 1.09564E-02 6.07987E-04-1.01322E-13
 -1      1674 1.03919E-02 3.36728E-04-9.88290E-14
 -1      1675 1.05602E-02 4.21302E-04-9.95425E-14
 -1      1676 1.00929E-02 1.84888E-04-9.77071E-14
 -1      1677 1.02171E-02 2.52337E-04-9.81816E-14
 -1      1678 9.90320E-03 6.00833E-05-9.70131E-14
 -1      1679 9.97694E-03 1.14201E-04-9.72747E-14
 -1      1680 9.83387E-03-5.18154E-05-9.66782E-14
 -1      1681 9.84881E-03-3.50019E-06-9.67154E-14
 -1      1682 9.90543E-03-1.63246E-04-9.70831E-14
 -1      1683 9.85630E-03-1.11611E-04-9.68922E-14
 -1      1684 1.00970E-02-2.90841E-04-9.78291E-14
 -1      1685 9.99486E-03-2.29062E-04-9.74296E-14
 -1      1686 1.03838E-02-4.46937E-04-9.90083E-14
 -1      1687 1.02407E-02-3.71051E-04-9.84117E-14
 -1      1688 1.07843E-02-6.28500E-04-1.00553E-13
 -1      1689 1.05967E-02-5.31453E-04-9.96898E-14
 -1      1690 1.12248E-02-8.47356E-04-1.02799E-13
 -1      1691 1.10216E-02-7.48269E-04-1.01732E-13
 -1      1692 1.16180E-02-1.01159E-03-1.05187E-13
 -1      1693 1.14390E-02-9.46870E-04-1.04146E-13
 -1      1694 1.20150E-02-1.09823E-03-1.07636E-13
 -1      1695 1.18286E-02-1.06755E-03-1.06490E-13
 -1      1696 1.24411E-02-1.09569E-03-1.10312E-13
 -1      1697 1.22422E-02-1.11223E-03-1.09059E-13
 -1      1698 1.28529E-02-9.95690E-04-1.12745E-13
 -1      1699 1.26698E-02-1.05007E-03-1.11680E-13
 -1      1700 1.32995E-02-8.15620E-04-1.15188E-13
 -1      1701 1.30845E-02-9.08413E-04-1.14074E-13
 -1      1702 1.37540E-02-6.08273E-04-1.17236E-13
 -1      1703 1.35526E-02-7.05033E-04-1.16344E-13
 -1      1704 1.41515E-02-4.11078E-04-1.18835E-13
 -1      1705 1.39773E-02-4.98801E-04-1.18164E-13
 -1      1706 1.44345E-02-2.57306E-04-1.19796E-13
 -1      1707 1.43224E-02-3.25101E-04-1.19403E-13
 -1      1708 1.45692E-02-1.23755E-04-1.20314E-13
 -1      1709 1.45271E-02-1.81687E-04-1.20177E-13
 -1      1710 1.34766E-02 4.80095E-04-1.16773E-13
 -1      1711 1.38847E-02 2.74477E-04-1.18630E-13
 -1      1712 1.45044E-02 1.64792E-04-1.50166E-13
 -1      1713 1.44187E-02 2.09848E-04-1.47989E-13
 -1      1714 1.44895E-02-5.29764E-06-1.20896E-13
 -1      1715 1.42433E-02 1.11130E-04-1.19997E-13
 -1      1716 1.45809E-02-9.30229E-05-1.21230E-13
 -1      1717 1.30620E-02 6.96473E-04-1.14510E-13
 -1      1718 1.26425E-02 8.79694E-04-1.12010E-13
 -1      1719 1.22649E-02 9.76534E-04-1.09197E-13
 -1      1720 1.18943E-02 9.52694E-04-1.06399E-13
 -1      1721 1.15261E-02 8.28932E-04-1.03790E-13
 -1      1722 1.11285E-02 6.34199E-04-1.01375E-13
 -1      1723 1.07251E-02 4.22375E-04-9.93239E-14
 -1      1724 1.03424E-02 2.39959E-04-9.77850E-14
 -1      1725 1.00465E-02 1.03286E-04-9.67129E-14
 -1      1726 9.86881E-03 3.35511E-06-9.59866E-14
 -1      1727 9.83486E-03-6.96174E-05-9.59032E-14
 -1      1728 9.95235E-03-1.57163E-04-9.64609E-14
 -1      1729 1.01935E-02-2.75722E-04-9.73848E-14
 -1      1730 1.05476E-02-4.34721E-04-9.86412E-14
 -1      1731 1.09742E-02-6.49543E-04-1.00488E-13
 -1      1732 1.13879E-02-8.85954E-04-1.03006E-13
 -1      1733 1.17640E-02-1.05688E-03-1.05652E-13
 -1      1734 1.21383E-02-1.13350E-03-1.08377E-13
 -1      1735 1.25121E-02-1.09383E-03-1.11172E-13
 -1      1736 1.29130E-02-9.44191E-04-1.13875E-13
 -1      1737 1.33545E-02-7.25296E-04-1.16368E-13
 -1      1738 1.38145E-02-4.95901E-04-1.18463E-13
 -1      1739 1.42116E-02-3.12507E-04-1.19969E-13
 -1      1740 1.44841E-02-1.82701E-04-1.20923E-13
 -1      1741 2.85257E-04-1.76230E-04-5.22314E-17
 -1      1742 3.32200E-04-1.16765E-04-1.90914E-16
 -1      1743 3.36340E-04-1.33012E-04-1.78053E-16
 -1      1744 3.42223E-04-1.52001E-04-1.62170E-16
 -1      1745 3.51779E-04-1.74004E-04-1.40079E-16
 -1      1746 4.58349E-04-1.88069E-04-2.58325E-16
 -1      1747 3.24560E-04-6.53704E-05-2.18020E-16
 -1      1748 3.25698E-04-7.66685E-05-2.13832E-16
 -1      1749 3.23064E-04-4.38807E-05-2.23075E-16
 -1      1750 3.23719E-04-5.43690E-05-2.21015E-16
 -1      1751 4.36503E-04-7.92726E-05-3.24583E-16
 -1      1752 3.22280E-04-2.37664E-05-2.25216E-16
 -1      1753 3.22611E-04-3.36781E-05-2.24511E-16
 -1      1754 4.34500E-04-5.13075E-05-3.30560E-16
 -1      1755 3.21986E-04-4.33543E-06-2.24701E-16
 -1      1756 3.22083E-04-1.39860E-05-2.25080E-16
 -1      1757 4.33480E-04-2.49187E-05-3.32416E-16
 -1      1758 3.22108E-04 1.49790E-05-2.22017E-16
 -1      1759 3.21994E-04 5.31832E-06-2.23739E-16
 -1      1760 4.33183E-04 7.58269E-07-3.30885E-16
 -1      1761 3.22673E-04 3.47245E-05-2.17098E-16
 -1      1762 3.22322E-04 2.47803E-05-2.19836E-16
 -1      1763 4.33538E-04 2.64640E-05-3.26372E-16
 -1      1764 3.23802E-04 5.51584E-05-2.09061E-16
 -1      1765 3.23139E-04 4.47976E-05-2.13696E-16
 -1      1766 4.34613E-04 5.27154E-05-3.18349E-16
 -1      1767 3.25860E-04 7.78058E-05-1.97176E-16
 -1      1768 3.24661E-04 6.62267E-05-2.03925E-16
 -1      1769 4.36667E-04 8.05911E-05-3.06246E-16
 -1      1770 3.29552E-04 1.03642E-04-1.79151E-16
 -1      1771 3.27402E-04 9.02921E-05-1.89315E-16
 -1      1772 4.40319E-04 1.11556E-04-2.87896E-16
 -1      1773 3.36589E-04 1.35100E-04-1.51856E-16
 -1      1774 3.32406E-04 1.18602E-04-1.67292E-16
 -1      1775 4.46794E-04 1.47324E-04-2.60507E-16
 -1      1776 3.52317E-04 1.77595E-04-1.10101E-16
 -1      1777 3.42821E-04 1.54749E-04-1.33452E-16
 -1      1778 4.59331E-04 1.91446E-04-2.19727E-16
 -1      1779 4.07722E-04 2.33680E-04-8.10848E-17
 -1      1780 3.78109E-04 2.02655E-04-1.00262E-16
 -1      1781 4.95879E-04 2.43986E-04-1.82918E-16
 -1      1782 5.58578E-04 3.02498E-04-1.53428E-16
 -1      1783 3.40041E-04-1.90904E-04-9.82694E-17
 -1      1784 8.53620E-04 4.07113E-04-4.10221E-16
 -1      1785 7.07205E-04 3.59370E-04-2.63786E-16
 -1      1786 6.73436E-04 3.28801E-04-2.82692E-16
 -1      1787 4.58979E-04-2.36711E-04-1.81387E-16
 -1      1788 8.07273E-04-3.74108E-04-4.98381E-16
 -1      1789 9.52548E-04-4.15292E-04-7.02671E-16
 -1      1790 1.09540E-03-4.49981E-04-9.45207E-16
 -1      1791 1.23708E-03-4.78884E-04-1.22703E-15
 -1      1792 1.00397E-03-3.97904E-04-8.70872E-16
 -1      1793 1.37750E-03-5.03379E-04-1.54744E-15
 -1      1794 1.51719E-03-5.23759E-04-1.90694E-15
 -1      1795 1.28968E-03-4.55886E-04-1.44305E-15
 -1      1796 1.65637E-03-5.40947E-04-2.30495E-15
 -1      1797 1.79522E-03-5.55181E-04-2.74166E-15
 -1      1798 1.57210E-03-4.96847E-04-2.16869E-15
 -1      1799 1.93395E-03-5.67069E-04-3.21675E-15
 -1      1800 2.07261E-03-5.76816E-04-3.72994E-15
 -1      1801 1.85273E-03-5.25409E-04-3.04714E-15
 -1      1802 2.21137E-03-5.84840E-04-4.28153E-15
 -1      1803 2.35022E-03-5.91310E-04-4.87071E-15
 -1      1804 2.13265E-03-5.44913E-04-4.07730E-15
 -1      1805 2.48927E-03-5.96525E-04-5.49742E-15
 -1      1806 2.62848E-03-6.00622E-04-6.16153E-15
 -1      1807 2.41252E-03-5.57812E-04-5.25769E-15
 -1      1808 2.76795E-03-6.03814E-04-6.86225E-15
 -1      1809 2.90763E-03-6.06213E-04-7.59944E-15
 -1      1810 2.69276E-03-5.65936E-04-6.58601E-15
 -1      1811 3.04756E-03-6.07971E-04-8.37305E-15
 -1      1812 3.18770E-03-6.09173E-04-9.18174E-15
 -1      1813 2.97356E-03-5.70654E-04-8.06046E-15
 -1      1814 3.32810E-03-6.09928E-04-1.00259E-14
 -1      1815 3.46869E-03-6.10300E-04-1.09056E-14
 -1      1816 3.25501E-03-5.72978E-04-9.67664E-15
 -1      1817 3.60951E-03-6.10363E-04-1.18202E-14
 -1      1818 3.75052E-03-6.10165E-04-1.27691E-14
 -1      1819 3.53712E-03-5.73646E-04-1.14343E-14
 -1      1820 3.89172E-03-6.09753E-04-1.37513E-14
 -1      1821 4.03309E-03-6.09162E-04-1.47669E-14
 -1      1822 3.81985E-03-5.73182E-04-1.33297E-14
 -1      1823 4.17463E-03-6.08418E-04-1.58149E-14
 -1      1824 4.31632E-03-6.07545E-04-1.68950E-14
 -1      1825 4.10314E-03-5.71939E-04-1.53583E-14
 -1      1826 4.45815E-03-6.06554E-04-1.80064E-14
 -1      1827 4.60012E-03-6.05460E-04-1.91493E-14
 -1      1828 4.38695E-03-5.70140E-04-1.75163E-14
 -1      1829 4.74221E-03-6.04263E-04-2.03236E-14
 -1      1830 4.88443E-03-6.02969E-04-2.15278E-14
 -1      1831 4.67121E-03-5.67906E-04-1.97995E-14
 -1      1832 5.02677E-03-6.01571E-04-2.27626E-14
 -1      1833 5.16922E-03-6.00070E-04-2.40280E-14
 -1      1834 4.95590E-03-5.65276E-04-2.22065E-14
 -1      1835 5.31180E-03-5.98449E-04-2.53251E-14
 -1      1836 5.45451E-03-5.96709E-04-2.66514E-14
 -1      1837 5.24101E-03-5.62232E-04-2.47361E-14
 -1      1838 5.59735E-03-5.94826E-04-2.80088E-14
 -1      1839 5.74034E-03-5.92800E-04-2.93971E-14
 -1      1840 5.52655E-03-5.58705E-04-2.73886E-14
 -1      1841 5.88348E-03-5.90604E-04-3.08162E-14
 -1      1842 6.02681E-03-5.88237E-04-3.22673E-14
 -1      1843 5.81258E-03-5.54599E-04-3.01630E-14
 -1      1844 6.17032E-03-5.85671E-04-3.37497E-14
 -1      1845 6.31408E-03-5.82910E-04-3.52632E-14
 -1      1846 6.09920E-03-5.49800E-04-3.30641E-14
 -1      1847 6.45807E-03-5.79926E-04-3.68060E-14
 -1      1848 6.60237E-03-5.76728E-04-3.83783E-14
 -1      1849 6.38656E-03-5.44193E-04-3.60871E-14
 -1      1850 6.74699E-03-5.73296E-04-3.99814E-14
 -1      1851 6.89201E-03-5.69647E-04-4.16117E-14
 -1      1852 6.67486E-03-5.37688E-04-3.92309E-14
 -1      1853 7.03744E-03-5.65773E-04-4.32707E-14
 -1      1854 7.18338E-03-5.61708E-04-4.49588E-14
 -1      1855 6.96437E-03-5.30248E-04-4.24914E-14
 -1      1856 7.32985E-03-5.57464E-04-4.66740E-14
 -1      1857 7.47698E-03-5.53099E-04-4.84154E-14
 -1      1858 7.25543E-03-5.21934E-04-4.58639E-14
 -1      1859 7.62477E-03-5.48658E-04-5.01839E-14
 -1      1860 7.77339E-03-5.44230E-04-5.19774E-14
 -1      1861 7.54845E-03-5.12964E-04-4.93460E-14
 -1      1862 7.92284E-03-5.39915E-04-5.37978E-14
 -1      1863 8.07331E-03-5.35846E-04-5.56448E-14
 -1      1864 7.84393E-03-5.03803E-04-5.29321E-14
 -1      1865 8.22480E-03-5.32199E-04-5.75168E-14
 -1      1866 8.37751E-03-5.29171E-04-5.94132E-14
 -1      1867 8.14244E-03-4.95273E-04-5.66231E-14
 -1      1868 8.53143E-03-5.27044E-04-6.13326E-14
 -1      1869 8.68677E-03-5.26096E-04-6.32760E-14
 -1      1870 8.44462E-03-4.88713E-04-6.04124E-14
 -1      1871 8.84353E-03-5.26754E-04-6.52424E-14
 -1      1872 9.00188E-03-5.29396E-04-6.72292E-14
 -1      1873 8.75120E-03-4.86166E-04-6.42952E-14
 -1      1874 9.16182E-03-5.34625E-04-6.92377E-14
 -1      1875 9.32342E-03-5.42933E-04-7.12648E-14
 -1      1876 9.06290E-03-4.90601E-04-6.82665E-14
 -1      1877 9.48676E-03-5.55099E-04-7.33089E-14
 -1      1878 9.65167E-03-5.71730E-04-7.53743E-14
 -1      1879 9.38051E-03-5.06104E-04-7.23154E-14
 -1      1880 9.81837E-03-5.93707E-04-7.74562E-14
 -1      1881 9.98630E-03-6.21696E-04-7.95546E-14
 -1      1882 9.70470E-03-5.37933E-04-7.64405E-14
 -1      1883 1.01559E-02-6.56476E-04-8.16709E-14
 -1      1884 1.03260E-02-6.98587E-04-8.38022E-14
 -1      1885 1.00359E-02-5.92194E-04-8.06341E-14
 -1      1886 1.04973E-02-7.48321E-04-8.59509E-14
 -1      1887 1.06681E-02-8.05701E-04-8.81150E-14
 -1      1888 1.03739E-02-6.74707E-04-8.48973E-14
 -1      1889 1.08389E-02-8.69995E-04-9.02934E-14
 -1      1890 1.10078E-02-9.40018E-04-9.24896E-14
 -1      1891 1.07169E-02-7.88513E-04-8.92227E-14
 -1      1892 1.11751E-02-1.01351E-03-9.47011E-14
 -1      1893 1.13390E-02-1.08762E-03-9.69310E-14
 -1      1894 1.10604E-02-9.29476E-04-9.36109E-14
 -1      1895 1.14994E-02-1.15855E-03-9.91797E-14
 -1      1896 1.16560E-02-1.22196E-03-1.01446E-13
 -1      1897 1.13975E-02-1.08114E-03-9.80699E-14
 -1      1898 1.18080E-02-1.27365E-03-1.03731E-13
 -1      1899 1.19577E-02-1.30957E-03-1.06033E-13
 -1      1900 1.17212E-02-1.21300E-03-1.02601E-13
 -1      1901 1.21037E-02-1.32707E-03-1.08355E-13
 -1      1902 1.22500E-02-1.32485E-03-1.10696E-13
 -1      1903 1.20305E-02-1.28836E-03-1.07206E-13
 -1      1904 1.23955E-02-1.30322E-03-1.13056E-13
 -1      1905 1.25435E-02-1.26438E-03-1.15435E-13
 -1      1906 1.23335E-02-1.28345E-03-1.11886E-13
 -1      1907 1.26929E-02-1.21136E-03-1.17830E-13
 -1      1908 1.28452E-02-1.14818E-03-1.20238E-13
 -1      1909 1.26414E-02-1.20196E-03-1.16641E-13
 -1      1910 1.29996E-02-1.07862E-03-1.22667E-13
 -1      1911 1.31554E-02-1.00620E-03-1.25107E-13
 -1      1912 1.29590E-02-1.07153E-03-1.21461E-13
 -1      1913 1.33125E-02-9.33609E-04-1.27555E-13
 -1      1914 1.34691E-02-8.62605E-04-1.30019E-13
 -1      1915 1.32830E-02-9.24831E-04-1.26340E-13
 -1      1916 1.36256E-02-7.94145E-04-1.32490E-13
 -1      1917 1.37804E-02-7.28270E-04-1.34963E-13
 -1      1918 1.36057E-02-7.83528E-04-1.31258E-13
 -1      1919 1.39339E-02-6.64512E-04-1.37446E-13
 -1      1920 1.40852E-02-6.01952E-04-1.39934E-13
 -1      1921 1.39212E-02-6.54061E-04-1.36209E-13
 -1      1922 1.42161E-02-5.47733E-04-1.42163E-13
 -1      1923 1.43634E-02-4.84061E-04-1.44657E-13
 -1      1924 1.44670E-02-4.32038E-04-1.45386E-13
 -1      1925 1.42079E-02-5.40013E-04-1.40920E-13
 -1      1926 1.13869E-03 4.80083E-04-8.12894E-16
 -1      1927 9.96911E-04 4.46828E-04-5.92571E-16
 -1      1928 9.64522E-04 4.17371E-04-6.14160E-16
 -1      1929 1.41783E-03 5.31578E-04-1.36628E-15
 -1      1930 1.27866E-03 5.08122E-04-1.07055E-15
 -1      1931 1.24902E-03 4.79982E-04-1.09252E-15
 -1      1932 1.69423E-03 5.67890E-04-2.07011E-15
 -1      1933 1.55619E-03 5.51387E-04-1.69939E-15
 -1      1934 1.52930E-03 5.24212E-04-1.72036E-15
 -1      1935 1.96981E-03 5.93200E-04-2.92373E-15
 -1      1936 1.83203E-03 5.81750E-04-2.47817E-15
 -1      1937 1.80756E-03 5.55213E-04-2.49760E-15
 -1      1938 2.24566E-03 6.10461E-04-3.92671E-15
 -1      1939 2.10766E-03 6.02711E-04-3.40644E-15
 -1      1940 2.08520E-03 5.76580E-04-3.42312E-15
 -1      1941 2.52234E-03 6.21852E-04-5.07702E-15
 -1      1942 2.38388E-03 6.16797E-04-4.48369E-15
 -1      1943 2.36303E-03 5.90913E-04-4.49657E-15
 -1      1944 2.80008E-03 6.29000E-04-6.37576E-15
 -1      1945 2.66107E-03 6.25886E-04-5.70784E-15
 -1      1946 2.64149E-03 6.00143E-04-5.71697E-15
 -1      1947 3.07897E-03 6.33119E-04-7.81851E-15
 -1      1948 2.93939E-03 6.31386E-04-7.07891E-15
 -1      1949 2.92081E-03 6.05714E-04-7.08289E-15
 -1      1950 3.35897E-03 6.35110E-04-9.40536E-15
 -1      1951 3.21884E-03 6.34343E-04-8.59440E-15
 -1      1952 3.20103E-03 6.08699E-04-8.59336E-15
 -1      1953 3.63998E-03 6.35627E-04-1.11343E-14
 -1      1954 3.49936E-03 6.35526E-04-1.02521E-14
 -1      1955 3.48214E-03 6.09882E-04-1.02462E-14
 -1      1956 3.92188E-03 6.35126E-04-1.30028E-14
 -1      1957 3.78083E-03 6.35486E-04-1.20507E-14
 -1      1958 3.76406E-03 6.09827E-04-1.20393E-14
 -1      1959 4.20457E-03 6.33916E-04-1.50124E-14
 -1      1960 4.06314E-03 6.34599E-04-1.39898E-14
 -1      1961 4.04672E-03 6.08919E-04-1.39724E-14
 -1      1962 4.48792E-03 6.32184E-04-1.71625E-14
 -1      1963 4.34617E-03 6.33109E-04-1.60705E-14
 -1      1964 4.33001E-03 6.07408E-04-1.60467E-14
 -1      1965 4.77186E-03 6.30026E-04-1.94498E-14
 -1      1966 4.62982E-03 6.31156E-04-1.82889E-14
 -1      1967 4.61386E-03 6.05436E-04-1.82577E-14
 -1      1968 5.05632E-03 6.27466E-04-2.18726E-14
 -1      1969 4.91403E-03 6.28797E-04-2.06447E-14
 -1      1970 4.89822E-03 6.03061E-04-2.06059E-14
 -1      1971 5.34131E-03 6.24474E-04-2.44320E-14
 -1      1972 5.19875E-03 6.26026E-04-2.31348E-14
 -1      1973 5.18306E-03 6.00279E-04-2.30880E-14
 -1      1974 5.62683E-03 6.20984E-04-2.71297E-14
 -1      1975 5.48400E-03 6.22794E-04-2.57638E-14
 -1      1976 5.46838E-03 5.97038E-04-2.57074E-14
 -1      1977 5.91298E-03 6.16903E-04-2.99602E-14
 -1      1978 5.76982E-03 6.19020E-04-2.85280E-14
 -1      1979 5.75424E-03 5.93255E-04-2.84631E-14
 -1      1980 6.19990E-03 6.12136E-04-3.29214E-14
 -1      1981 6.05633E-03 6.14607E-04-3.14254E-14
 -1      1982 6.04074E-03 5.88829E-04-3.13505E-14
 -1      1983 6.48779E-03 6.06598E-04-3.60003E-14
 -1      1984 6.34371E-03 6.09461E-04-3.44461E-14
 -1      1985 6.32803E-03 5.83660E-04-3.43619E-14
 -1      1986 6.77696E-03 6.00246E-04-3.92003E-14
 -1      1987 6.63220E-03 6.03517E-04-3.75865E-14
 -1      1988 6.61634E-03 5.77673E-04-3.74935E-14
 -1      1989 7.06778E-03 5.93117E-04-4.25117E-14
 -1      1990 6.92213E-03 5.96764E-04-4.08406E-14
 -1      1991 6.90596E-03 5.70846E-04-4.07384E-14
 -1      1992 7.36073E-03 5.85374E-04-4.59360E-14
 -1      1993 7.21395E-03 5.89297E-04-4.42101E-14
 -1      1994 7.19726E-03 5.63256E-04-4.40991E-14
 -1      1995 7.65638E-03 5.77380E-04-4.94680E-14
 -1      1996 7.50817E-03 5.81367E-04-4.76890E-14
 -1      1997 7.49070E-03 5.55135E-04-4.75692E-14
 -1      1998 7.95538E-03 5.69786E-04-5.31018E-14
 -1      1999 7.80540E-03 5.73469E-04-5.12727E-14
 -1      2000 7.78681E-03 5.46951E-04-5.11456E-14
 -1      2001 8.25846E-03 5.63654E-04-5.68358E-14
 -1      2002 8.10635E-03 5.66445E-04-5.49566E-14
 -1      2003 8.08622E-03 5.39509E-04-5.48216E-14
 -1      2004 8.56632E-03 5.60597E-04-6.06640E-14
 -1      2005 8.41173E-03 5.61614E-04-5.87384E-14
 -1      2006 8.38955E-03 5.34084E-04-5.85958E-14
 -1      2007 8.87961E-03 5.62932E-04-6.45844E-14
 -1      2008 8.72224E-03 5.60924E-04-6.26126E-14
 -1      2009 8.69746E-03 5.32573E-04-6.24635E-14
 -1      2010 9.19871E-03 5.73803E-04-6.85888E-14
 -1      2011 9.03841E-03 5.67095E-04-6.65762E-14
 -1      2012 9.01050E-03 5.37644E-04-6.64187E-14
 -1      2013 9.52355E-03 5.97181E-04-7.26751E-14
 -1      2014 9.36044E-03 5.83699E-04-7.06223E-14
 -1      2015 9.32900E-03 5.52827E-04-7.04580E-14
 -1      2016 9.85335E-03 6.37574E-04-7.68379E-14
 -1      2017 9.68795E-03 6.15036E-04-7.47471E-14
 -1      2018 9.65290E-03 5.82433E-04-7.45752E-14
 -1      2019 1.01863E-02 6.99188E-04-8.10802E-14
 -1      2020 1.00197E-02 6.65611E-04-7.89492E-14
 -1      2021 9.98152E-03 6.31084E-04-7.87716E-14
 -1      2022 1.05192E-02 7.84223E-04-8.53958E-14
 -1      2023 1.03531E-02 7.38887E-04-8.32286E-14
 -1      2024 1.03132E-02 7.02571E-04-8.30451E-14
 -1      2025 1.08477E-02 8.90275E-04-8.97853E-14
 -1      2026 1.06845E-02 8.35131E-04-8.75803E-14
 -1      2027 1.06450E-02 7.97745E-04-8.73901E-14
 -1      2028 1.11667E-02 1.00742E-03-9.42471E-14
 -1      2029 1.10089E-02 9.48457E-04-9.20077E-14
 -1      2030 1.09726E-02 9.11507E-04-9.18086E-14
 -1      2031 1.14720E-02 1.11698E-03-9.87752E-14
 -1      2032 1.13213E-02 1.06453E-03-9.65040E-14
 -1      2033 1.12909E-02 1.03010E-03-9.62961E-14
 -1      2034 1.17626E-02 1.19463E-03-1.03369E-13
 -1      2035 1.16189E-02 1.16114E-03-1.01064E-13
 -1      2036 1.15963E-02 1.13110E-03-1.00850E-13
 -1      2037 1.20424E-02 1.21867E-03-1.08029E-13
 -1      2038 1.19032E-02 1.21404E-03-1.05690E-13
 -1      2039 1.18889E-02 1.18897E-03-1.05468E-13
 -1      2040 1.23192E-02 1.17999E-03-1.12758E-13
 -1      2041 1.21804E-02 1.20685E-03-1.10385E-13
 -1      2042 1.21744E-02 1.18562E-03-1.10158E-13
 -1      2043 1.26003E-02 1.08626E-03-1.17538E-13
 -1      2044 1.24587E-02 1.13890E-03-1.15141E-13
 -1      2045 1.24607E-02 1.11943E-03-1.14909E-13
 -1      2046 1.28895E-02 9.56697E-04-1.22373E-13
 -1      2047 1.27438E-02 1.02466E-03-1.19951E-13
 -1      2048 1.27537E-02 1.00523E-03-1.19715E-13
 -1      2049 1.31856E-02 8.12041E-04-1.27257E-13
 -1      2050 1.30370E-02 8.85325E-04-1.24809E-13
 -1      2051 1.30540E-02 8.65265E-04-1.24570E-13
 -1      2052 1.34849E-02 6.66338E-04-1.32189E-13
 -1      2053 1.33353E-02 7.38974E-04-1.29715E-13
 -1      2054 1.33581E-02 7.18547E-04-1.29473E-13
 -1      2055 1.37829E-02 5.24210E-04-1.37172E-13
 -1      2056 1.36344E-02 5.94963E-04-1.34677E-13
 -1      2057 1.36614E-02 5.74872E-04-1.34428E-13
 -1      2058 1.40770E-02 3.82994E-04-1.42199E-13
 -1      2059 1.39306E-02 4.53834E-04-1.39680E-13
 -1      2060 1.39603E-02 4.34767E-04-1.39429E-13
 -1      2061 1.43207E-02 2.60778E-04-1.46354E-13
 -1      2062 1.41762E-02 3.33779E-04-1.43827E-13
 -1      2063 1.42072E-02 3.15797E-04-1.43573E-13
 -1      2064 1.44047E-02 2.16464E-04-1.46836E-13
 -1      2065 1.48472E-02 2.40264E-05-1.46502E-13
 -1      2066 1.47570E-02 5.69447E-05-1.46464E-13
 -1      2067 1.46685E-02 9.27233E-05-1.46426E-13
 -1      2068 1.45823E-02 1.30081E-04-1.46387E-13
 -1      2069 1.45873E-02 1.29444E-04-1.44267E-13
 -1      2070 1.45324E-02 1.52871E-04-1.46635E-13
 -1      2071 1.44510E-02 1.92570E-04-1.46591E-13
 -1      2072 1.43522E-02 2.41927E-04-1.44959E-13
 -1      2073 1.44487E-02 1.93166E-04-1.44470E-13
 -1      2074 1.50245E-02-3.18725E-05-1.46568E-13
 -1      2075 1.49363E-02-5.76988E-06-1.46534E-13
 -1      2076 1.47675E-02 5.62976E-05-1.44345E-13
 -1      2077 1.51916E-02-7.33026E-05-1.46632E-13
 -1      2078 1.51108E-02-5.47216E-05-1.46601E-13
 -1      2079 1.49480E-02-6.35770E-06-1.44414E-13
 -1      2080 1.53244E-02-9.80005E-05-1.46691E-13
 -1      2081 1.52636E-02-8.74968E-05-1.46663E-13
 -1      2082 1.51134E-02-5.46541E-05-1.44479E-13
 -1      2083 1.54009E-02-1.09277E-04-1.46748E-13
 -1      2084 1.53708E-02-1.04571E-04-1.46720E-13
 -1      2085 1.52389E-02-8.65522E-05-1.44539E-13
 -1      2086 1.54067E-02-1.15131E-04-1.46792E-13
 -1      2087 1.54130E-02-1.11824E-04-1.46771E-13
 -1      2088 1.53013E-02-1.06046E-04-1.44595E-13
 -1      2089 1.53415E-02-1.25753E-04-1.46830E-13
 -1      2090 1.53824E-02-1.18879E-04-1.46812E-13
 -1      2091 1.52880E-02-1.22450E-04-1.44642E-13
 -1      2092 1.52215E-02-1.48901E-04-1.46861E-13
 -1      2093 1.52872E-02-1.35253E-04-1.46843E-13
 -1      2094 1.52038E-02-1.46332E-04-1.44681E-13
 -1      2095 1.50641E-02-1.88961E-04-1.46889E-13
 -1      2096 1.51459E-02-1.66831E-04-1.46875E-13
 -1      2097 1.50671E-02-1.84817E-04-1.44710E-13
 -1      2098 1.48923E-02-2.44821E-04-1.46907E-13
 -1      2099 1.49789E-02-2.15248E-04-1.46898E-13
 -1      2100 1.49000E-02-2.39749E-04-1.44732E-13
 -1      2101 1.47218E-02-3.12987E-04-1.46917E-13
 -1      2102 1.48062E-02-2.77811E-04-1.46913E-13
 -1      2103 1.47247E-02-3.07830E-04-1.44747E-13
 -1      2104 1.41392E-02 9.58408E-05-1.20926E-13
 -1      2105 1.42917E-02 3.58542E-05-1.21568E-13
 -1      2106 1.45848E-02-8.20697E-05-1.22538E-13
 -1      2107 1.45856E-02-1.02658E-04-1.22613E-13
 -1      2108 1.44452E-02-1.66689E-05-1.21886E-13
 -1      2109 1.45340E-02-4.83051E-05-1.22145E-13
 -1      2110 1.37758E-02 2.56435E-04-1.19457E-13
 -1      2111 1.39681E-02 1.70872E-04-1.20189E-13
 -1      2112 1.40520E-02 1.03176E-04-1.21752E-13
 -1      2113 1.33148E-02 5.12673E-04-1.16862E-13
 -1      2114 1.35115E-02 3.98653E-04-1.17995E-13
 -1      2115 3.27126E-04-8.89724E-05-2.08099E-16
 -1      2116 3.29243E-04-1.02116E-04-2.00293E-16
 -1      2117 4.46327E-04-1.45094E-04-2.92152E-16
 -1      2118 4.39986E-04-1.09931E-04-3.12616E-16
 -1      2119 1.25351E-02 9.17654E-04-1.11763E-13
 -1      2120 1.27176E-02 8.34003E-04-1.13132E-13
 -1      2121 1.21529E-02 9.99813E-04-1.08357E-13
 -1      2122 1.23091E-02 9.84353E-04-1.09806E-13
 -1      2123 1.18453E-02 9.50895E-04-1.05654E-13
 -1      2124 1.19967E-02 9.88973E-04-1.07003E-13
 -1      2125 1.20714E-02 1.00619E-03-1.07607E-13
 -1      2126 1.14706E-02 7.83270E-04-1.02687E-13
 -1      2127 1.16412E-02 8.71844E-04-1.03945E-13
 -1      2128 1.10914E-02 5.66323E-04-1.00202E-13
 -1      2129 1.12737E-02 6.75604E-04-1.01353E-13
 -1      2130 1.06604E-02 3.36318E-04-9.81090E-14
 -1      2131 1.08547E-02 4.38322E-04-9.90007E-14
 -1      2132 1.02797E-02 1.60154E-04-9.65785E-14
 -1      2133 1.04501E-02 2.34724E-04-9.72176E-14
 -1      2134 9.99885E-03 4.63777E-05-9.55501E-14
 -1      2135 1.01183E-02 9.20825E-05-9.59779E-14
 -1      2136 9.84354E-03-2.23925E-05-9.48612E-14
 -1      2137 9.90167E-03 4.34015E-06-9.51569E-14
 -1      2138 9.84636E-03-7.56896E-05-9.50192E-14
 -1      2139 9.82166E-03-5.36969E-05-9.48065E-14
 -1      2140 1.00050E-02-1.42481E-04-9.55477E-14
 -1      2141 9.91203E-03-1.07789E-04-9.52055E-14
 -1      2142 1.02880E-02-2.64983E-04-9.67773E-14
 -1      2143 1.01425E-02-2.03368E-04-9.62010E-14
 -1      2144 1.06572E-02-4.31989E-04-9.81181E-14
 -1      2145 1.04638E-02-3.43778E-04-9.74461E-14
 -1      2146 1.03822E-02-2.77038E-04-9.62572E-14
 -1      2147 1.11194E-02-6.87895E-04-1.00368E-13
 -1      2148 1.09120E-02-5.63171E-04-9.92001E-14
 -1      2149 1.15345E-02-9.43624E-04-1.03364E-13
 -1      2150 1.13568E-02-8.34304E-04-1.02021E-13
 -1      2151 1.18765E-02-1.10174E-03-1.06127E-13
 -1      2152 1.17207E-02-1.03697E-03-1.04826E-13
 -1      2153 1.22041E-02-1.15799E-03-1.08980E-13
 -1      2154 1.20488E-02-1.14579E-03-1.07556E-13
 -1      2155 1.25739E-02-1.07681E-03-1.12157E-13
 -1      2156 1.24104E-02-1.13068E-03-1.10785E-13
 -1      2157 1.29518E-02-8.90992E-04-1.15025E-13
 -1      2158 1.27685E-02-9.91968E-04-1.13691E-13
 -1      2159 1.34227E-02-6.35865E-04-1.17673E-13
 -1      2160 1.32031E-02-7.57259E-04-1.16508E-13
 -1      2161 1.38772E-02-3.98702E-04-1.19973E-13
 -1      2162 1.36652E-02-5.02778E-04-1.19034E-13
 -1      2163 1.42805E-02-2.34404E-04-1.21361E-13
 -1      2164 1.41097E-02-3.00060E-04-1.20785E-13
 -1      2165 1.45263E-02-1.41197E-04-1.22144E-13
 -1      2166 1.44289E-02-1.79015E-04-1.21762E-13
 -1      2167 1.29236E-02 7.29321E-04-1.14557E-13
 -1      2168 1.31091E-02 6.25132E-04-1.15697E-13
 -1      2169 1.36354E-02 3.03414E-04-1.19542E-13
 -1      2170 6.07910E-04-2.98122E-04-2.98833E-16
 -1      2171 1.28015E-02 7.77192E-04-1.14310E-13
 -1      2172 6.63630E-04-2.92409E-04-4.08365E-16
 -1      2173 1.43721E-02-9.06843E-06-1.22813E-13
 -1      2174 1.45710E-02-7.51104E-05-1.23526E-13
 -1      2175 1.46139E-02-3.61209E-04-1.46189E-13
 -1      2176 1.45683E-02-1.13580E-04-1.23451E-13
 -1      2177 1.31817E-02 5.56125E-04-1.16908E-13
 -1      2178 1.43562E-02-1.87575E-04-1.22579E-13
 -1      2179 1.39858E-02-3.26357E-04-1.21359E-13
 -1      2180 1.35280E-02-5.49121E-04-1.19175E-13
 -1      2181 1.30565E-02-8.17366E-04-1.16322E-13
 -1      2182 1.26536E-02-1.03870E-03-1.13299E-13
 -1      2183 1.22957E-02-1.15754E-03-1.09955E-13
 -1      2184 1.19725E-02-1.13547E-03-1.06723E-13
 -1      2185 1.16504E-02-9.97509E-04-1.03835E-13
 -1      2186 1.07944E-02-4.80954E-04-9.79985E-14
 -1      2187 1.00732E-02-1.50222E-04-9.49410E-14
 -1      2188 9.87329E-03-8.06082E-05-9.41072E-14
 -1      2189 9.82202E-03-3.97225E-05-9.39766E-14
 -1      2190 9.94791E-03 1.12521E-05-9.44223E-14
 -1      2191 1.02027E-02 1.04291E-04-9.54116E-14
 -1      2192 1.05636E-02 2.63637E-04-9.68959E-14
 -1      2193 1.09905E-02 4.91045E-04-9.89787E-14
 -1      2194 1.17519E-02 9.19971E-04-1.04543E-13
 -1      2195 1.24079E-02 9.63392E-04-1.10920E-13
 -1      2196 1.24964E-02 9.27688E-04-1.12037E-13
 -1      2197 1.23051E-02 9.93819E-04-1.10075E-13
 -1      2198 1.13906E-02 7.27844E-04-1.01506E-13
 -1      2199 1.12559E-02-7.57807E-04-1.00723E-13
 -1      2200 1.01663E-03 3.99812E-04-7.79325E-16
 -1      2201 8.72161E-04 3.63425E-04-5.70223E-16
 -1      2202 5.47768E-04-5.52975E-05-4.71018E-16
 -1      2203 5.48806E-04-7.20126E-05-4.68321E-16
 -1      2204 5.50229E-04-8.93316E-05-4.64255E-16
 -1      2205 5.52105E-04-1.07305E-04-4.58550E-16
 -1      2206 6.65271E-04-9.54893E-05-6.32700E-16
 -1      2207 5.46383E-04 8.85739E-06-4.69229E-16
 -1      2208 5.46364E-04-6.97995E-06-4.71221E-16
 -1      2209 5.47139E-04 4.08681E-05-4.61870E-16
 -1      2210 5.46638E-04 2.47937E-05-4.66207E-16
 -1      2211 6.61317E-04 1.99317E-05-6.34529E-16
 -1      2212 5.48968E-04 7.34896E-05-4.49903E-16
 -1      2213 5.47904E-04 5.69974E-05-4.56598E-16
 -1      2214 6.62644E-04 5.77880E-05-6.23714E-16
 -1      2215 5.52363E-04 1.08962E-04-4.31662E-16
 -1      2216 5.50438E-04 9.08874E-05-4.41704E-16
 -1      2217 6.65510E-04 9.72572E-05-6.06286E-16
 -1      2218 5.58254E-04 1.48293E-04-4.04611E-16
 -1      2219 5.54928E-04 1.28068E-04-4.19464E-16
 -1      2220 6.70601E-04 1.40026E-04-5.80468E-16
 -1      2221 5.68595E-04 1.93894E-04-3.65241E-16
 -1      2222 5.62752E-04 1.70176E-04-3.86898E-16
 -1      2223 6.79274E-04 1.87572E-04-5.42996E-16
 -1      2224 1.30210E-03 4.56760E-04-1.30724E-15
 -1      2225 1.15977E-03 4.30814E-04-1.02463E-15
 -1      2226 1.07180E-03 3.81333E-04-9.52770E-16
 -1      2227 9.15213E-04-3.46385E-04-7.93622E-16
 -1      2228 1.05930E-03-3.79684E-04-1.04635E-15
 -1      2229 1.27060E-02 8.23433E-04-1.14145E-13
 -1      2230 1.28773E-02 7.20765E-04-1.15577E-13
 -1      2231 1.20259E-03-4.08079E-04-1.33652E-15
 -1      2232 1.34539E-03-4.31968E-04-1.66505E-15
 -1      2233 1.11697E-03-3.60440E-04-1.22879E-15
 -1      2234 1.48756E-03-4.52192E-04-2.03104E-15
 -1      2235 1.62935E-03-4.69034E-04-2.43525E-15
 -1      2236 1.40334E-03-4.07295E-04-1.89277E-15
 -1      2237 1.77077E-03-4.83167E-04-2.87682E-15
 -1      2238 1.91195E-03-4.94812E-04-3.35617E-15
 -1      2239 1.68846E-03-4.40536E-04-2.70639E-15
 -1      2240 2.05298E-03-5.04460E-04-3.87281E-15
 -1      2241 2.19390E-03-5.12286E-04-4.42714E-15
 -1      2242 1.97265E-03-4.63590E-04-3.66879E-15
 -1      2243 2.33480E-03-5.18650E-04-5.01790E-15
 -1      2244 2.47568E-03-5.23697E-04-5.64619E-15
 -1      2245 2.25628E-03-4.79099E-04-4.77929E-15
 -1      2246 2.61663E-03-5.27687E-04-6.31086E-15
 -1      2247 2.75762E-03-5.30737E-04-7.01183E-15
 -1      2248 2.53969E-03-4.89095E-04-6.03657E-15
 -1      2249 2.89871E-03-5.33036E-04-7.74868E-15
 -1      2250 3.03989E-03-5.34673E-04-8.52135E-15
 -1      2251 2.82311E-03-4.95124E-04-7.43882E-15
 -1      2252 3.18118E-03-5.35786E-04-9.32914E-15
 -1      2253 3.32257E-03-5.36442E-04-1.01720E-14
 -1      2254 3.10667E-03-4.98350E-04-8.98289E-15
 -1      2255 3.46409E-03-5.36737E-04-1.10504E-14
 -1      2256 3.60570E-03-5.36721E-04-1.19634E-14
 -1      2257 3.39046E-03-4.99627E-04-1.06683E-14
 -1      2258 3.74744E-03-5.36458E-04-1.29100E-14
 -1      2259 3.88927E-03-5.35985E-04-1.38904E-14
 -1      2260 3.67451E-03-4.99572E-04-1.24924E-14
 -1      2261 4.03121E-03-5.35340E-04-1.49029E-14
 -1      2262 4.17324E-03-5.34549E-04-1.59493E-14
 -1      2263 3.95883E-03-4.98610E-04-1.44505E-14
 -1      2264 4.31537E-03-5.33633E-04-1.70284E-14
 -1      2265 4.45758E-03-5.32606E-04-1.81378E-14
 -1      2266 4.24342E-03-4.97021E-04-1.65406E-14
 -1      2267 4.59989E-03-5.31477E-04-1.92777E-14
 -1      2268 4.74228E-03-5.30253E-04-2.04498E-14
 -1      2269 4.52825E-03-4.94968E-04-1.87584E-14
 -1      2270 4.88475E-03-5.28930E-04-2.16531E-14
 -1      2271 5.02731E-03-5.27510E-04-2.28856E-14
 -1      2272 4.81333E-03-4.92524E-04-2.11000E-14
 -1      2273 5.16995E-03-5.25981E-04-2.41487E-14
 -1      2274 5.31268E-03-5.24342E-04-2.54439E-14
 -1      2275 5.09866E-03-4.89692E-04-2.35646E-14
 -1      2276 5.45550E-03-5.22573E-04-2.67686E-14
 -1      2277 5.59841E-03-5.20671E-04-2.81247E-14
 -1      2278 5.38423E-03-4.86425E-04-2.61514E-14
 -1      2279 5.74143E-03-5.18612E-04-2.95125E-14
 -1      2280 5.88457E-03-5.16391E-04-3.09306E-14
 -1      2281 5.67009E-03-4.82634E-04-2.88629E-14
 -1      2282 6.02783E-03-5.13982E-04-3.23794E-14
 -1      2283 6.17123E-03-5.11382E-04-3.38599E-14
 -1      2284 5.95627E-03-4.78209E-04-3.16984E-14
 -1      2285 6.31479E-03-5.08564E-04-3.53724E-14
 -1      2286 6.45853E-03-5.05529E-04-3.69129E-14
 -1      2287 6.24284E-03-4.73026E-04-3.46578E-14
 -1      2288 6.60246E-03-5.02255E-04-3.84833E-14
 -1      2289 6.74663E-03-4.98747E-04-4.00839E-14
 -1      2290 6.52991E-03-4.66973E-04-3.77391E-14
 -1      2291 6.89103E-03-4.94994E-04-4.17134E-14
 -1      2292 7.03574E-03-4.91010E-04-4.33708E-14
 -1      2293 6.81759E-03-4.59972E-04-4.09373E-14
 -1      2294 7.18075E-03-4.86802E-04-4.50563E-14
 -1      2295 7.32615E-03-4.82401E-04-4.67699E-14
 -1      2296 7.10604E-03-4.52012E-04-4.42506E-14
 -1      2297 7.47192E-03-4.77840E-04-4.85099E-14
 -1      2298 7.61818E-03-4.73174E-04-5.02766E-14
 -1      2299 7.39546E-03-4.43202E-04-4.76758E-14
 -1      2300 7.76490E-03-4.68479E-04-5.20689E-14
 -1      2301 7.91222E-03-4.63846E-04-5.38862E-14
 -1      2302 7.68608E-03-4.33831E-04-5.12072E-14
 -1      2303 8.06012E-03-4.59410E-04-5.57299E-14
 -1      2304 8.20875E-03-4.55312E-04-5.76005E-14
 -1      2305 7.97821E-03-4.24464E-04-5.48401E-14
 -1      2306 8.35809E-03-4.51774E-04-5.94947E-14
 -1      2307 8.50832E-03-4.49006E-04-6.14111E-14
 -1      2308 8.27222E-03-4.16060E-04-5.85770E-14
 -1      2309 8.65942E-03-4.47342E-04-6.33518E-14
 -1      2310 8.81160E-03-4.47091E-04-6.53137E-14
 -1      2311 8.56861E-03-4.10120E-04-6.24095E-14
 -1      2312 8.96488E-03-4.48718E-04-6.72966E-14
 -1      2313 9.11944E-03-4.52668E-04-6.93006E-14
 -1      2314 8.86809E-03-4.08880E-04-6.63300E-14
 -1      2315 9.27541E-03-4.59545E-04-7.13247E-14
 -1      2316 9.43290E-03-4.69969E-04-7.33657E-14
 -1      2317 9.17169E-03-4.15507E-04-7.03322E-14
 -1      2318 9.59221E-03-4.84648E-04-7.54262E-14
 -1      2319 9.75330E-03-5.04406E-04-7.75054E-14
 -1      2320 9.48094E-03-4.34297E-04-7.44156E-14
 -1      2321 9.91672E-03-5.29949E-04-7.96016E-14
 -1      2322 1.00821E-02-5.62268E-04-8.17141E-14
 -1      2323 9.79800E-03-4.70766E-04-7.85691E-14
 -1      2324 1.02502E-02-6.01846E-04-8.38430E-14
 -1      2325 1.04202E-02-6.49607E-04-8.59895E-14
 -1      2326 1.01255E-02-5.31474E-04-8.27917E-14
 -1      2327 1.05930E-02-7.05447E-04-8.81515E-14
 -1      2328 1.07669E-02-7.69619E-04-9.03285E-14
 -1      2329 1.04657E-02-6.23077E-04-8.70805E-14
 -1      2330 1.09426E-02-8.41031E-04-9.25228E-14
 -1      2331 1.11174E-02-9.17769E-04-9.47341E-14
 -1      2332 1.08185E-02-7.49696E-04-9.14348E-14
 -1      2333 1.12916E-02-9.97157E-04-9.69617E-14
 -1      2334 1.14629E-02-1.07472E-03-9.92087E-14
 -1      2335 1.11781E-02-9.06402E-04-9.58551E-14
 -1      2336 1.16304E-02-1.14645E-03-1.01474E-13
 -1      2337 1.17942E-02-1.20515E-03-1.03758E-13
 -1      2338 1.15327E-02-1.07052E-03-1.00347E-13
 -1      2339 1.19527E-02-1.24682E-03-1.06060E-13
 -1      2340 1.21104E-02-1.26679E-03-1.08378E-13
 -1      2341 1.18710E-02-1.19864E-03-1.04913E-13
 -1      2342 1.22655E-02-1.26345E-03-1.10718E-13
 -1      2343 1.24235E-02-1.23797E-03-1.13078E-13
 -1      2344 1.21947E-02-1.24167E-03-1.09552E-13
 -1      2345 1.25828E-02-1.19249E-03-1.15455E-13
 -1      2346 1.27461E-02-1.13281E-03-1.17848E-13
 -1      2347 1.25208E-02-1.18420E-03-1.14268E-13
 -1      2348 1.29122E-02-1.06265E-03-1.20257E-13
 -1      2349 1.30801E-02-9.88247E-04-1.22682E-13
 -1      2350 1.28610E-02-1.05446E-03-1.19054E-13
 -1      2351 1.32495E-02-9.12724E-04-1.25122E-13
 -1      2352 1.34173E-02-8.39227E-04-1.27569E-13
 -1      2353 1.32119E-02-8.98808E-04-1.23901E-13
 -1      2354 1.35841E-02-7.69210E-04-1.30027E-13
 -1      2355 1.37476E-02-7.02908E-04-1.32495E-13
 -1      2356 1.35602E-02-7.51548E-04-1.28799E-13
 -1      2357 1.39087E-02-6.40346E-04-1.34971E-13
 -1      2358 1.40659E-02-5.80239E-04-1.37451E-13
 -1      2359 1.38956E-02-6.22962E-04-1.33732E-13
 -1      2360 1.86528E-03 5.25277E-04-2.80643E-15
 -1      2361 1.72505E-03 5.12528E-04-2.37639E-15
 -1      2362 2.14536E-03 5.44550E-04-3.77695E-15
 -1      2363 2.00537E-03 5.35891E-04-3.27337E-15
 -1      2364 1.92459E-03 4.94659E-04-3.12084E-15
 -1      2365 2.42540E-03 5.57321E-04-4.89379E-15
 -1      2366 2.28537E-03 5.51643E-04-4.31708E-15
 -1      2367 2.20669E-03 5.11910E-04-4.13559E-15
 -1      2368 2.70580E-03 5.65392E-04-6.15653E-15
 -1      2369 2.56555E-03 5.61863E-04-5.50685E-15
 -1      2370 2.48862E-03 5.23201E-04-5.29531E-15
 -1      2371 2.98675E-03 5.70112E-04-7.56386E-15
 -1      2372 2.84621E-03 5.68109E-04-6.84216E-15
 -1      2373 2.77070E-03 5.30195E-04-6.59959E-15
 -1      2374 3.26832E-03 5.72477E-04-9.11441E-15
 -1      2375 3.12746E-03 5.71542E-04-8.32156E-15
 -1      2376 3.05309E-03 5.34140E-04-8.04833E-15
 -1      2377 3.55053E-03 5.73216E-04-1.08061E-14
 -1      2378 3.40936E-03 5.73016E-04-9.94262E-15
 -1      2379 3.33588E-03 5.35956E-04-9.63846E-15
 -1      2380 3.83335E-03 5.72842E-04-1.26373E-14
 -1      2381 3.69188E-03 5.73144E-04-1.17038E-14
 -1      2382 3.61911E-03 5.36309E-04-1.13682E-14
 -1      2383 4.11672E-03 5.71704E-04-1.46084E-14
 -1      2384 3.97498E-03 5.72352E-04-1.36054E-14
 -1      2385 3.90275E-03 5.35667E-04-1.32380E-14
 -1      2386 4.40059E-03 5.70017E-04-1.67189E-14
 -1      2387 4.25860E-03 5.70919E-04-1.56468E-14
 -1      2388 4.18678E-03 5.34338E-04-1.52468E-14
 -1      2389 4.68490E-03 5.67901E-04-1.89651E-14
 -1      2390 4.54269E-03 5.69007E-04-1.78248E-14
 -1      2391 4.47118E-03 5.32509E-04-1.73928E-14
 -1      2392 4.96963E-03 5.65391E-04-2.13467E-14
 -1      2393 4.82722E-03 5.66693E-04-2.01393E-14
 -1      2394 4.75592E-03 5.30275E-04-1.96736E-14
 -1      2395 5.25477E-03 5.62468E-04-2.38624E-14
 -1      2396 5.11215E-03 5.63982E-04-2.25878E-14
 -1      2397 5.04098E-03 5.27653E-04-2.20886E-14
 -1      2398 5.54034E-03 5.59067E-04-2.65150E-14
 -1      2399 5.39750E-03 5.60830E-04-2.51711E-14
 -1      2400 5.32637E-03 5.24608E-04-2.46383E-14
 -1      2401 5.82640E-03 5.55092E-04-2.93003E-14
 -1      2402 5.68330E-03 5.57155E-04-2.78922E-14
 -1      2403 5.61213E-03 5.21064E-04-2.73223E-14
 -1      2404 6.11303E-03 5.50438E-04-3.22174E-14
 -1      2405 5.96963E-03 5.52853E-04-3.07426E-14
 -1      2406 5.89829E-03 5.16917E-04-3.01390E-14
 -1      2407 6.40040E-03 5.45000E-04-3.52550E-14
 -1      2408 6.25661E-03 5.47818E-04-3.37217E-14
 -1      2409 6.18496E-03 5.12057E-04-3.30829E-14
 -1      2410 6.68869E-03 5.38706E-04-3.84127E-14
 -1      2411 6.54441E-03 5.41958E-04-3.68184E-14
 -1      2412 6.47224E-03 5.06380E-04-3.61489E-14
 -1      2413 6.97816E-03 5.31545E-04-4.16837E-14
 -1      2414 6.83325E-03 5.35227E-04-4.00338E-14
 -1      2415 6.76031E-03 4.99819E-04-3.93308E-14
 -1      2416 7.26913E-03 5.23614E-04-4.50675E-14
 -1      2417 7.12342E-03 5.27660E-04-4.33609E-14
 -1      2418 7.04937E-03 4.92376E-04-4.26270E-14
 -1      2419 7.56199E-03 5.15180E-04-4.85621E-14
 -1      2420 7.41528E-03 5.19432E-04-4.68018E-14
 -1      2421 7.33969E-03 4.84171E-04-4.60360E-14
 -1      2422 7.85720E-03 5.06763E-04-5.21594E-14
 -1      2423 7.70925E-03 5.10923E-04-5.03482E-14
 -1      2424 7.63159E-03 4.75506E-04-4.95540E-14
 -1      2425 8.15528E-03 4.99247E-04-5.58588E-14
 -1      2426 8.00582E-03 5.02822E-04-5.39968E-14
 -1      2427 7.92545E-03 4.66953E-04-5.31749E-14
 -1      2428 8.45680E-03 4.94013E-04-5.96541E-14
 -1      2429 8.30555E-03 4.96242E-04-5.77446E-14
 -1      2430 8.22172E-03 4.59468E-04-5.68950E-14
 -1      2431 8.76236E-03 4.93094E-04-6.35408E-14
 -1      2432 8.60902E-03 4.92870E-04-6.15857E-14
 -1      2433 8.52093E-03 4.54520E-04-6.07116E-14
 -1      2434 9.07257E-03 4.99324E-04-6.75146E-14
 -1      2435 8.91685E-03 4.95122E-04-6.55164E-14
 -1      2436 8.82374E-03 4.54251E-04-6.46177E-14
 -1      2437 9.38796E-03 5.16411E-04-7.15687E-14
 -1      2438 9.22962E-03 5.06264E-04-6.95312E-14
 -1      2439 9.13092E-03 4.61616E-04-6.86085E-14
 -1      2440 9.70892E-03 5.48832E-04-7.57041E-14
 -1      2441 9.54781E-03 5.30420E-04-7.36274E-14
 -1      2442 9.44336E-03 4.80457E-04-7.26808E-14
 -1      2443 1.00354E-02 6.01317E-04-7.99166E-14
 -1      2444 9.87163E-03 5.72289E-04-7.78004E-14
 -1      2445 9.76205E-03 5.15391E-04-7.68327E-14
 -1      2446 1.03666E-02 6.77615E-04-8.42052E-14
 -1      2447 1.02007E-02 6.36334E-04-8.20519E-14
 -1      2448 1.00878E-02 5.71305E-04-8.10612E-14
 -1      2449 1.07001E-02 7.78165E-04-8.85645E-14
 -1      2450 1.05335E-02 7.25011E-04-8.63762E-14
 -1      2451 1.04205E-02 6.52081E-04-8.53644E-14
 -1      2452 1.10317E-02 8.96848E-04-9.29972E-14
 -1      2453 1.08667E-02 8.36003E-04-9.07726E-14
 -1      2454 1.07581E-02 7.58082E-04-8.97391E-14
 -1      2455 1.13556E-02 1.01769E-03-9.74940E-14
 -1      2456 1.11951E-02 9.58407E-04-9.52366E-14
 -1      2457 1.10958E-02 8.82045E-04-9.41824E-14
 -1      2458 1.16673E-02 1.11549E-03-1.02059E-13
 -1      2459 1.15129E-02 1.07137E-03-9.97693E-14
 -1      2460 1.14263E-02 1.00566E-03-9.86914E-14
 -1      2461 1.19671E-02 1.16261E-03-1.06691E-13
 -1      2462 1.18179E-02 1.14688E-03-1.04366E-13
 -1      2463 1.17439E-02 1.09956E-03-1.03269E-13
 -1      2464 1.22619E-02 1.14237E-03-1.11394E-13
 -1      2465 1.21140E-02 1.16117E-03-1.09033E-13
 -1      2466 1.20503E-02 1.13372E-03-1.07913E-13
 -1      2467 1.25605E-02 1.05846E-03-1.16155E-13
 -1      2468 1.24100E-02 1.10730E-03-1.13768E-13
 -1      2469 1.23547E-02 1.09404E-03-1.12627E-13
 -1      2470 1.28672E-02 9.31237E-04-1.20973E-13
 -1      2471 1.27128E-02 9.98549E-04-1.18557E-13
 -1      2472 1.26663E-02 9.91240E-04-1.17403E-13
 -1      2473 1.31799E-02 7.85498E-04-1.25842E-13
 -1      2474 1.30233E-02 8.59281E-04-1.23402E-13
 -1      2475 1.29873E-02 8.51972E-04-1.22233E-13
 -1      2476 1.34931E-02 6.39021E-04-1.30755E-13
 -1      2477 1.33370E-02 7.11702E-04-1.28292E-13
 -1      2478 1.33121E-02 7.02650E-04-1.27112E-13
 -1      2479 1.38015E-02 4.98367E-04-1.35722E-13
 -1      2480 1.36483E-02 5.67982E-04-1.33233E-13
 -1      2481 1.36332E-02 5.58559E-04-1.32042E-13
 -1      2482 1.41023E-02 3.61146E-04-1.40730E-13
 -1      2483 1.39531E-02 4.29742E-04-1.38220E-13
 -1      2484 1.39454E-02 4.22351E-04-1.37015E-13
 -1      2485 1.42527E-02 2.90503E-04-1.43330E-13
 -1      2486 1.48707E-02 1.00886E-05-1.42265E-13
 -1      2487 1.47794E-02 4.37765E-05-1.42230E-13
 -1      2488 1.50355E-02-4.51882E-05-1.42330E-13
 -1      2489 1.49572E-02-1.97372E-05-1.42298E-13
 -1      2490 1.47940E-02 1.86103E-05-1.40119E-13
 -1      2491 1.45042E-02 1.60551E-04-1.42114E-13
 -1      2492 1.44150E-02 2.02778E-04-1.42070E-13
 -1      2493 1.46868E-02 8.07168E-05-1.42192E-13
 -1      2494 1.45951E-02 1.19408E-04-1.42154E-13
 -1      2495 1.44185E-02 1.85895E-04-1.39963E-13
 -1      2496 1.46061E-02 9.72127E-05-1.40045E-13
 -1      2497 1.51537E-02-8.28769E-05-1.42390E-13
 -1      2498 1.51023E-02-6.58305E-05-1.42360E-13
 -1      2499 1.49591E-02-4.24562E-05-1.40184E-13
 -1      2500 1.52007E-02-1.08269E-04-1.42444E-13
 -1      2501 1.51873E-02-9.60404E-05-1.42417E-13
 -1      2502 1.50692E-02-8.37064E-05-1.40244E-13
 -1      2503 1.51659E-02-1.33157E-04-1.42493E-13
 -1      2504 1.51934E-02-1.19467E-04-1.42468E-13
 -1      2505 1.50980E-02-1.13161E-04-1.40298E-13
 -1      2506 1.50611E-02-1.68996E-04-1.42528E-13
 -1      2507 1.51209E-02-1.48888E-04-1.42513E-13
 -1      2508 1.50392E-02-1.45918E-04-1.40344E-13
 -1      2509 1.49067E-02-2.22649E-04-1.42559E-13
 -1      2510 1.49881E-02-1.93570E-04-1.42546E-13
 -1      2511 1.49104E-02-1.94953E-04-1.40381E-13
 -1      2512 1.47307E-02-2.92105E-04-1.42581E-13
 -1      2513 1.48199E-02-2.55836E-04-1.42572E-13
 -1      2514 1.47397E-02-2.64073E-04-1.40410E-13
 -1      2515 1.45537E-02-3.71797E-04-1.42592E-13
 -1      2516 1.46415E-02-3.31288E-04-1.42584E-13
 -1      2517 1.45569E-02-3.47947E-04-1.40428E-13
 -1      2518 1.45505E-02-7.14227E-05-1.24833E-13
 -1      2519 1.46034E-02-8.43619E-05-1.25227E-13
 -1      2520 1.43150E-02-4.72377E-06-1.24187E-13
 -1      2521 1.44529E-02-4.27430E-05-1.24509E-13
 -1      2522 1.45218E-02-5.97833E-05-1.26207E-13
 -1      2523 1.46016E-02-1.04940E-04-1.25054E-13
 -1      2524 1.45392E-02-1.21357E-04-1.24584E-13
 -1      2525 1.58453E-03 4.97095E-04-1.98309E-15
 -1      2526 1.44359E-03 4.78766E-04-1.62648E-15
 -1      2527 1.64186E-03 4.69241E-04-2.25187E-15
 -1      2528 1.44863E-02-4.14346E-04-1.43951E-13
 -1      2529 1.39747E-02 1.21346E-04-1.22809E-13
 -1      2530 1.41296E-02 6.07462E-05-1.23552E-13
 -1      2531 5.88521E-04-2.37972E-04-3.78373E-16
 -1      2532 7.81331E-04-3.04830E-04-6.03833E-16
 -1      2533 8.40777E-04-2.93601E-04-7.41337E-16
 -1      2534 5.78982E-04-2.10179E-04-4.03526E-16
 -1      2535 1.30822E-02 5.99309E-04-1.17062E-13
 -1      2536 1.32609E-02 4.90901E-04-1.18234E-13
 -1      2537 1.01462E-02-1.62310E-04-9.42013E-14
 -1      2538 1.00148E-02-1.18359E-04-9.35540E-14
 -1      2539 5.46578E-04-2.28996E-05-4.72129E-16
 -1      2540 5.47036E-04-3.89402E-05-4.72251E-16
 -1      2541 6.62496E-04-5.58153E-05-6.39300E-16
 -1      2542 6.61265E-04-1.77046E-05-6.39652E-16
 -1      2543 1.13114E-02 6.75571E-04-1.00248E-13
 -1      2544 1.14755E-02 7.78748E-04-1.01576E-13
 -1      2545 1.20050E-02 1.00726E-03-1.06851E-13
 -1      2546 1.21256E-02 1.01768E-03-1.08205E-13
 -1      2547 1.13845E-02-8.32613E-04-1.01078E-13
 -1      2548 1.11737E-02-6.95101E-04-9.94326E-14
 -1      2549 1.16784E-02 8.88346E-04-1.03470E-13
 -1      2550 1.18460E-02 9.64473E-04-1.05177E-13
 -1      2551 1.08804E-02 4.15151E-04-9.74040E-14
 -1      2552 1.10833E-02 5.36935E-04-9.85955E-14
 -1      2553 1.04680E-02 2.02791E-04-9.55230E-14
 -1      2554 1.06577E-02 2.95659E-04-9.64053E-14
 -1      2555 1.01266E-02 6.35481E-05-9.40839E-14
 -1      2556 1.02758E-02 1.18875E-04-9.46785E-14
 -1      2557 9.89949E-03-8.64448E-06-9.30878E-14
 -1      2558 9.99250E-03 1.70098E-05-9.34775E-14
 -1      2559 9.80501E-03-4.61384E-05-9.27040E-14
 -1      2560 9.82535E-03-3.40163E-05-9.27578E-14
 -1      2561 9.89551E-03-8.00955E-05-9.30825E-14
 -1      2562 9.83451E-03-6.41226E-05-9.28991E-14
 -1      2563 1.04430E-02-2.86385E-04-9.55196E-14
 -1      2564 1.02854E-02-2.18049E-04-9.48577E-14
 -1      2565 1.01970E-02-1.80370E-04-9.34674E-14
 -1      2566 1.08888E-02-5.20924E-04-9.76163E-14
 -1      2567 1.06655E-02-3.96047E-04-9.65436E-14
 -1      2568 1.17446E-02-1.04924E-03-1.04258E-13
 -1      2569 1.15912E-02-9.59855E-04-1.02799E-13
 -1      2570 1.20213E-02-1.15758E-03-1.07104E-13
 -1      2571 1.18892E-02-1.11412E-03-1.05677E-13
 -1      2572 1.18086E-02-1.08602E-03-1.04634E-13
 -1      2573 1.23783E-02-1.14861E-03-1.11089E-13
 -1      2574 1.22174E-02-1.17583E-03-1.09281E-13
 -1      2575 1.27179E-02-1.00176E-03-1.14455E-13
 -1      2576 1.25593E-02-1.08432E-03-1.12918E-13
 -1      2577 1.31640E-02-7.40125E-04-1.17800E-13
 -1      2578 1.29493E-02-8.71063E-04-1.16308E-13
 -1      2579 1.36150E-02-4.86694E-04-1.20659E-13
 -1      2580 1.33936E-02-6.07984E-04-1.19289E-13
 -1      2581 1.41017E-02-2.64633E-04-1.22958E-13
 -1      2582 1.38924E-02-3.51675E-04-1.22137E-13
 -1      2583 1.44433E-02-1.50412E-04-1.24174E-13
 -1      2584 1.43093E-02-1.89324E-04-1.23768E-13
 -1      2585 1.45149E-02-1.31992E-04-1.25775E-13
 -1      2586 7.57916E-04 3.34218E-04-4.21700E-16
 -1      2587 6.11496E-04 2.84855E-04-2.77935E-16
 -1      2588 5.84769E-04 2.58085E-04-2.87707E-16
 -1      2589 8.13738E-04 3.22891E-04-5.50856E-16
 -1      2590 1.35079E-02 3.50999E-04-1.19857E-13
 -1      2591 1.37507E-02 2.24551E-04-1.21330E-13
 -1      2592 1.38627E-02 1.74464E-04-1.23122E-13
 -1      2593 1.15780E-02 8.44196E-04-1.02202E-13
 -1      2594 6.70229E-04-1.37945E-04-6.17914E-16
 -1      2595 5.54598E-04-1.26203E-04-4.50771E-16
 -1      2596 5.57756E-04-1.46189E-04-4.40254E-16
 -1      2597 1.35783E-03 4.32745E-04-1.52905E-15
 -1      2598 5.72266E-04 2.27889E-04-3.20978E-16
 -1      2599 1.34068E-02 4.05710E-04-1.20009E-13
 -1      2600 1.29760E-02 6.60725E-04-1.16894E-13
 -1      2601 1.42310E-02-2.18695E-04-1.24550E-13
 -1      2602 1.42530E-02 2.11671E-05-1.25246E-13
 -1      2603 1.37630E-02-4.10970E-04-1.22254E-13
 -1      2604 1.36496E-02-4.75395E-04-1.22366E-13
 -1      2605 1.39039E-02-3.53889E-04-1.23852E-13
 -1      2606 1.42499E-02 2.87424E-04-1.42111E-13
 -1      2607 1.42985E-02 2.61008E-04-1.41870E-13
 -1      2608 1.32770E-02-6.75211E-04-1.19276E-13
 -1      2609 1.46281E-02-9.53592E-05-1.26359E-13
 -1      2610 1.28396E-02-9.36788E-04-1.15923E-13
 -1      2611 6.89549E-04 2.51243E-04-4.67793E-16
 -1      2612 5.71844E-04-1.85205E-04-4.23313E-16
 -1      2613 1.21214E-02-1.17753E-03-1.08223E-13
 -1      2614 1.05390E-02-3.32257E-04-9.51397E-14
 -1      2615 9.94175E-03-9.46476E-05-9.23465E-14
 -1      2616 9.79981E-03-5.14041E-05-9.16832E-14
 -1      2617 9.84148E-03-2.34345E-05-9.18170E-14
 -1      2618 1.00468E-02 3.67606E-05-9.27476E-14
 -1      2619 1.03605E-02 1.56055E-04-9.41907E-14
 -1      2620 1.07566E-02 3.52604E-04-9.60240E-14
 -1      2621 1.14862E-02-9.01507E-04-1.01497E-13
 -1      2622 1.25880E-02 8.84819E-04-1.13295E-13
 -1      2623 1.26773E-02 8.39020E-04-1.14555E-13
 -1      2624 1.24875E-02 9.35307E-04-1.12444E-13
 -1      2625 1.22193E-02 1.01240E-03-1.09313E-13
 -1      2626 1.19135E-02 9.91788E-04-1.05769E-13
 -1      2627 1.11413E-02-6.85991E-04-9.83194E-14
 -1      2628 1.10264E-02-6.03984E-04-9.79700E-14
 -1      2629 1.08820E-02-5.24564E-04-9.65120E-14
 -1      2630 1.11752E-02 6.02157E-04-9.86615E-14
 -1      2631 1.43019E-02-4.91040E-04-1.41358E-13
 -1      2632 1.44538E-02-4.17745E-04-1.42158E-13
 -1      2633 1.43651E-02-4.41160E-04-1.39999E-13
 -1      2634 1.41690E-02-5.41616E-04-1.39129E-13
 -1      2635 1.24612E-02-1.12673E-03-1.12235E-13
 -1      2636 1.42103E-02 2.93782E-04-1.39721E-13
 -1      2637 1.41624E-02-5.27565E-04-1.37887E-13
 -1      2638 7.80179E-04 7.73391E-05-8.10617E-16
 -1      2639 7.78917E-04 5.54761E-05-8.19237E-16
 -1      2640 7.78070E-04 3.35625E-05-8.26108E-16
 -1      2641 7.77648E-04 1.18972E-05-8.31204E-16
 -1      2642 8.96481E-04 4.96844E-05-1.04307E-15
 -1      2643 7.91512E-04 1.73127E-04-7.51691E-16
 -1      2644 7.87504E-04 1.47723E-04-7.70868E-16
 -1      2645 8.03416E-04 2.28352E-04-7.02184E-16
 -1      2646 7.96785E-04 1.99956E-04-7.29289E-16
 -1      2647 9.14856E-04 2.07848E-04-9.44842E-16
 -1      2648 1.12982E-03 3.61970E-04-1.13498E-15
 -1      2649 9.86227E-04 3.32907E-04-8.77214E-16
 -1      2650 6.88572E-04-2.04019E-04-5.88681E-16
 -1      2651 1.41606E-03 4.07874E-04-1.75859E-15
 -1      2652 1.27302E-03 3.86842E-04-1.42853E-15
 -1      2653 1.18965E-03 3.41514E-04-1.32557E-15
 -1      2654 1.43433E-02-1.87508E-04-1.26130E-13
 -1      2655 1.41576E-02-2.50659E-04-1.25315E-13
 -1      2656 1.45805E-02-1.24267E-04-1.27479E-13
 -1      2657 1.44938E-02-1.44504E-04-1.27065E-13
 -1      2658 1.32013E-03-3.62829E-04-1.75401E-15
 -1      2659 1.46337E-03-3.81789E-04-2.12659E-15
 -1      2660 1.60641E-03-3.97871E-04-2.53610E-15
 -1      2661 1.74935E-03-4.11284E-04-2.98250E-15
 -1      2662 1.52496E-03-3.55461E-04-2.36623E-15
 -1      2663 1.89212E-03-4.22498E-04-3.46561E-15
 -1      2664 2.03477E-03-4.31695E-04-3.98546E-15
 -1      2665 1.81165E-03-3.81370E-04-3.26314E-15
 -1      2666 2.17732E-03-4.39253E-04-4.54194E-15
 -1      2667 2.31978E-03-4.45323E-04-5.13462E-15
 -1      2668 2.09811E-03-3.99232E-04-4.30583E-15
 -1      2669 2.46220E-03-4.50194E-04-5.76393E-15
 -1      2670 2.60456E-03-4.53988E-04-6.42941E-15
 -1      2671 2.38429E-03-4.11061E-04-5.49323E-15
 -1      2672 2.74691E-03-4.56921E-04-7.13119E-15
 -1      2673 2.88924E-03-4.59089E-04-7.86766E-15
 -1      2674 2.67023E-03-4.18470E-04-6.82474E-15
 -1      2675 3.03158E-03-4.60651E-04-8.63903E-15
 -1      2676 3.17393E-03-4.61679E-04-9.44610E-15
 -1      2677 2.95601E-03-4.22712E-04-8.29816E-15
 -1      2678 3.31630E-03-4.62288E-04-1.02882E-14
 -1      2679 3.45869E-03-4.62531E-04-1.11657E-14
 -1      2680 3.24168E-03-4.24729E-04-9.91117E-15
 -1      2681 3.60112E-03-4.62490E-04-1.20772E-14
 -1      2682 3.74356E-03-4.62200E-04-1.30224E-14
 -1      2683 3.52729E-03-4.25213E-04-1.16641E-14
 -1      2684 3.88605E-03-4.61716E-04-1.40010E-14
 -1      2685 4.02856E-03-4.61064E-04-1.50118E-14
 -1      2686 3.81289E-03-4.24655E-04-1.35528E-14
 -1      2687 4.17111E-03-4.60275E-04-1.60559E-14
 -1      2688 4.31369E-03-4.59364E-04-1.71332E-14
 -1      2689 4.09848E-03-4.23386E-04-1.55748E-14
 -1      2690 4.45632E-03-4.58350E-04-1.82408E-14
 -1      2691 4.59897E-03-4.57237E-04-1.93792E-14
 -1      2692 4.38409E-03-4.21613E-04-1.77246E-14
 -1      2693 4.74166E-03-4.56032E-04-2.05497E-14
 -1      2694 4.88438E-03-4.54735E-04-2.17506E-14
 -1      2695 4.66974E-03-4.19446E-04-2.00015E-14
 -1      2696 5.02714E-03-4.53342E-04-2.29818E-14
 -1      2697 5.16993E-03-4.51847E-04-2.42439E-14
 -1      2698 4.95542E-03-4.16918E-04-2.24009E-14
 -1      2699 5.31277E-03-4.50240E-04-2.55370E-14
 -1      2700 5.45565E-03-4.48513E-04-2.68612E-14
 -1      2701 5.24115E-03-4.14005E-04-2.49247E-14
 -1      2702 5.59857E-03-4.46649E-04-2.82158E-14
 -1      2703 5.74154E-03-4.44639E-04-2.96028E-14
 -1      2704 5.52693E-03-4.10638E-04-2.75720E-14
 -1      2705 5.88457E-03-4.42463E-04-3.10198E-14
 -1      2706 6.02765E-03-4.40110E-04-3.24668E-14
 -1      2707 5.81277E-03-4.06721E-04-3.03426E-14
 -1      2708 6.17079E-03-4.37560E-04-3.39471E-14
 -1      2709 6.31401E-03-4.34805E-04-3.54579E-14
 -1      2710 6.09870E-03-4.02136E-04-3.32386E-14
 -1      2711 6.45729E-03-4.31825E-04-3.69967E-14
 -1      2712 6.60068E-03-4.28616E-04-3.85650E-14
 -1      2713 6.38470E-03-3.96767E-04-3.62564E-14
 -1      2714 6.74414E-03-4.25167E-04-4.01646E-14
 -1      2715 6.88773E-03-4.21477E-04-4.17920E-14
 -1      2716 6.67080E-03-3.90516E-04-3.93934E-14
 -1      2717 7.03141E-03-4.17549E-04-4.34478E-14
 -1      2718 7.17525E-03-4.13395E-04-4.51320E-14
 -1      2719 6.95702E-03-3.83328E-04-4.26474E-14
 -1      2720 7.31921E-03-4.09037E-04-4.68441E-14
 -1      2721 7.46337E-03-4.04502E-04-4.85828E-14
 -1      2722 7.24336E-03-3.75230E-04-4.60140E-14
 -1      2723 7.60767E-03-3.99846E-04-5.03471E-14
 -1      2724 7.75222E-03-3.95122E-04-5.21376E-14
 -1      2725 7.52986E-03-3.66379E-04-4.94894E-14
 -1      2726 7.89695E-03-3.90430E-04-5.39548E-14
 -1      2727 8.04200E-03-3.85858E-04-5.57958E-14
 -1      2728 7.81658E-03-3.57125E-04-5.30696E-14
 -1      2729 8.18731E-03-3.81571E-04-5.76626E-14
 -1      2730 8.33302E-03-3.77708E-04-5.95545E-14
 -1      2731 8.10362E-03-3.48097E-04-5.67512E-14
 -1      2732 8.47910E-03-3.74514E-04-6.14697E-14
 -1      2733 8.62574E-03-3.72207E-04-6.34066E-14
 -1      2734 8.39121E-03-3.40304E-04-6.05314E-14
 -1      2735 8.77295E-03-3.71123E-04-6.53644E-14
 -1      2736 8.92094E-03-3.71598E-04-6.73436E-14
 -1      2737 8.67980E-03-3.35267E-04-6.44019E-14
 -1      2738 9.06983E-03-3.74064E-04-6.93446E-14
 -1      2739 9.21989E-03-3.79030E-04-7.13650E-14
 -1      2740 8.97027E-03-3.35168E-04-6.83578E-14
 -1      2741 9.37140E-03-3.87005E-04-7.34056E-14
 -1      2742 9.52466E-03-3.98765E-04-7.54634E-14
 -1      2743 9.26417E-03-3.43039E-04-7.23969E-14
 -1      2744 9.68021E-03-4.14836E-04-7.75388E-14
 -1      2745 9.83832E-03-4.36370E-04-7.96321E-14
 -1      2746 9.56417E-03-3.63018E-04-7.65115E-14
 -1      2747 9.99988E-03-4.63820E-04-8.17429E-14
 -1      2748 1.01649E-02-4.98778E-04-8.38698E-14
 -1      2749 9.87439E-03-4.00719E-04-8.06942E-14
 -1      2750 1.03346E-02-5.41470E-04-8.60103E-14
 -1      2751 1.05082E-02-5.93685E-04-8.81703E-14
 -1      2752 1.02004E-02-4.63687E-04-8.49455E-14
 -1      2753 1.06871E-02-6.55195E-04-9.03479E-14
 -1      2754 1.08689E-02-7.26909E-04-9.25400E-14
 -1      2755 1.05478E-02-5.61619E-04-8.92614E-14
 -1      2756 1.10555E-02-8.07635E-04-9.47509E-14
 -1      2757 1.12412E-02-8.94381E-04-9.69773E-14
 -1      2758 1.09187E-02-7.02951E-04-9.36454E-14
 -1      2759 1.14262E-02-9.84031E-04-9.92211E-14
 -1      2760 1.16071E-02-1.06840E-03-1.01485E-13
 -1      2761 1.13042E-02-8.85250E-04-9.81002E-14
 -1      2762 1.21191E-02-1.22029E-03-1.08385E-13
 -1      2763 1.22862E-02-1.21478E-03-1.10724E-13
 -1      2764 1.24527E-02-1.17913E-03-1.13080E-13
 -1      2765 1.26264E-02-1.12207E-03-1.15457E-13
 -1      2766 1.23850E-02-1.17759E-03-1.11895E-13
 -1      2767 1.28044E-02-1.04749E-03-1.17851E-13
 -1      2768 1.29862E-02-9.66380E-04-1.20260E-13
 -1      2769 1.27470E-02-1.04506E-03-1.16648E-13
 -1      2770 1.31714E-02-8.82369E-04-1.22683E-13
 -1      2771 1.33539E-02-8.03288E-04-1.25119E-13
 -1      2772 1.31296E-02-8.66429E-04-1.21465E-13
 -1      2773 1.35352E-02-7.30122E-04-1.27568E-13
 -1      2774 1.37108E-02-6.62722E-04-1.30027E-13
 -1      2775 1.35094E-02-7.04836E-04-1.26337E-13
 -1      2776 1.38824E-02-6.01642E-04-1.32493E-13
 -1      2777 1.40480E-02-5.44978E-04-1.34967E-13
 -1      2778 1.38698E-02-5.75511E-04-1.31255E-13
 -1      2779 2.26918E-03 4.78630E-04-4.49890E-15
 -1      2780 2.12736E-03 4.71784E-04-3.95193E-15
 -1      2781 1.98544E-03 4.63313E-04-3.44089E-15
 -1      2782 1.84340E-03 4.53054E-04-2.96607E-15
 -1      2783 2.04761E-03 4.31381E-04-3.76674E-15
 -1      2784 2.83622E-03 4.94537E-04-7.04730E-15
 -1      2785 2.69446E-03 4.91954E-04-6.35596E-15
 -1      2786 3.11988E-03 4.97788E-04-8.53544E-15
 -1      2787 2.97804E-03 4.96456E-04-7.77330E-15
 -1      2788 2.90237E-03 4.58509E-04-7.49834E-15
 -1      2789 3.40376E-03 4.99127E-04-1.01650E-14
 -1      2790 3.26180E-03 4.98659E-04-9.33281E-15
 -1      2791 3.18715E-03 4.61132E-04-9.02627E-15
 -1      2792 3.68789E-03 4.99158E-04-1.19341E-14
 -1      2793 3.54580E-03 4.99279E-04-1.10323E-14
 -1      2794 3.47199E-03 4.62051E-04-1.06952E-14
 -1      2795 3.97228E-03 4.98300E-04-1.38419E-14
 -1      2796 3.83006E-03 4.98822E-04-1.28706E-14
 -1      2797 3.75693E-03 4.61810E-04-1.25030E-14
 -1      2798 4.25692E-03 4.96824E-04-1.58876E-14
 -1      2799 4.11457E-03 4.97628E-04-1.48473E-14
 -1      2800 4.04198E-03 4.60780E-04-1.44484E-14
 -1      2801 4.54180E-03 4.94891E-04-1.80679E-14
 -1      2802 4.39933E-03 4.95909E-04-1.69609E-14
 -1      2803 4.32716E-03 4.59197E-04-1.65298E-14
 -1      2804 4.82691E-03 4.92571E-04-2.03837E-14
 -1      2805 4.68433E-03 4.93777E-04-1.92094E-14
 -1      2806 4.61247E-03 4.57192E-04-1.87455E-14
 -1      2807 5.11226E-03 4.89865E-04-2.28322E-14
 -1      2808 4.96956E-03 4.91267E-04-2.15909E-14
 -1      2809 4.89790E-03 4.54815E-04-2.10945E-14
 -1      2810 5.39785E-03 4.86726E-04-2.54152E-14
 -1      2811 5.25503E-03 4.88353E-04-2.41072E-14
 -1      2812 5.18348E-03 4.52054E-04-2.35775E-14
 -1      2813 5.68372E-03 4.83067E-04-2.81301E-14
 -1      2814 5.54075E-03 4.84966E-04-2.67555E-14
 -1      2815 5.46920E-03 4.48849E-04-2.61917E-14
 -1      2816 5.96990E-03 4.78782E-04-3.09757E-14
 -1      2817 5.82676E-03 4.81008E-04-2.95372E-14
 -1      2818 5.75509E-03 4.45109E-04-2.89375E-14
 -1      2819 6.25646E-03 4.73755E-04-3.39480E-14
 -1      2820 6.11312E-03 4.76366E-04-3.24467E-14
 -1      2821 6.04119E-03 4.40722E-04-3.18132E-14
 -1      2822 6.54351E-03 4.67888E-04-3.70405E-14
 -1      2823 6.39991E-03 4.70930E-04-3.54796E-14
 -1      2824 6.32752E-03 4.35576E-04-3.48135E-14
 -1      2825 6.83116E-03 4.61121E-04-4.02502E-14
 -1      2826 6.68724E-03 4.64617E-04-3.86306E-14
 -1      2827 6.61416E-03 4.29575E-04-3.79332E-14
 -1      2828 7.11957E-03 4.53470E-04-4.35699E-14
 -1      2829 6.97524E-03 4.57400E-04-4.18958E-14
 -1      2830 6.90118E-03 4.22670E-04-4.11666E-14
 -1      2831 7.40893E-03 4.45078E-04-4.70052E-14
 -1      2832 7.26410E-03 4.49351E-04-4.52734E-14
 -1      2833 7.18869E-03 4.14892E-04-4.45140E-14
 -1      2834 7.69951E-03 4.36281E-04-5.05457E-14
 -1      2835 7.55404E-03 4.40701E-04-4.87625E-14
 -1      2836 7.47680E-03 4.06407E-04-4.79730E-14
 -1      2837 7.99161E-03 4.27695E-04-5.41893E-14
 -1      2838 7.84533E-03 4.31914E-04-5.23548E-14
 -1      2839 7.76571E-03 3.97578E-04-5.15387E-14
 -1      2840 8.28564E-03 4.20326E-04-5.79320E-14
 -1      2841 8.13833E-03 4.23783E-04-5.60486E-14
 -1      2842 8.05567E-03 3.89050E-04-5.52041E-14
 -1      2843 8.58214E-03 4.15705E-04-6.17680E-14
 -1      2844 8.43352E-03 4.17560E-04-5.98378E-14
 -1      2845 8.34707E-03 3.81860E-04-5.89674E-14
 -1      2846 8.88185E-03 4.16036E-04-6.56940E-14
 -1      2847 8.73153E-03 4.15090E-04-6.37205E-14
 -1      2848 8.64047E-03 3.77562E-04-6.28249E-14
 -1      2849 9.18578E-03 4.24335E-04-6.97033E-14
 -1      2850 9.03322E-03 4.18965E-04-6.76892E-14
 -1      2851 8.93678E-03 3.78368E-04-6.67708E-14
 -1      2852 9.49533E-03 4.44521E-04-7.37937E-14
 -1      2853 9.33979E-03 4.32644E-04-7.17378E-14
 -1      2854 9.23734E-03 3.87300E-04-7.07988E-14
 -1      2855 9.81222E-03 4.81339E-04-7.79612E-14
 -1      2856 9.65283E-03 4.60484E-04-7.58688E-14
 -1      2857 9.54413E-03 4.08311E-04-7.49061E-14
 -1      2858 1.01382E-02 5.39938E-04-8.22062E-14
 -1      2859 9.97412E-03 5.07520E-04-8.00756E-14
 -1      2860 9.85971E-03 4.46314E-04-7.90911E-14
 -1      2861 1.04740E-02 6.24686E-04-8.65227E-14
 -1      2862 1.03051E-02 5.78788E-04-8.43548E-14
 -1      2863 1.01869E-02 5.06954E-04-8.33488E-14
 -1      2864 1.08177E-02 7.36260E-04-9.09106E-14
 -1      2865 1.06454E-02 6.77325E-04-8.87079E-14
 -1      2866 1.05273E-02 5.95637E-04-8.76796E-14
 -1      2867 1.11642E-02 8.66656E-04-9.53634E-14
 -1      2868 1.09917E-02 8.00076E-04-9.31292E-14
 -1      2869 1.08794E-02 7.13446E-04-9.20793E-14
 -1      2870 1.15025E-02 9.94759E-04-9.98877E-14
 -1      2871 1.13349E-02 9.33363E-04-9.76167E-14
 -1      2872 1.12353E-02 8.52838E-04-9.65460E-14
 -1      2873 1.18264E-02 1.08509E-03-1.04474E-13
 -1      2874 1.16659E-02 1.04732E-03-1.02171E-13
 -1      2875 1.15817E-02 9.86637E-04-1.01079E-13
 -1      2876 1.21391E-02 1.10386E-03-1.09134E-13
 -1      2877 1.19826E-02 1.10490E-03-1.06797E-13
 -1      2878 1.19115E-02 1.07144E-03-1.05681E-13
 -1      2879 1.24533E-02 1.04096E-03-1.13861E-13
 -1      2880 1.22944E-02 1.08180E-03-1.11490E-13
 -1      2881 1.22321E-02 1.06970E-03-1.10354E-13
 -1      2882 1.27792E-02 9.17185E-04-1.18648E-13
 -1      2883 1.26144E-02 9.84245E-04-1.16248E-13
 -1      2884 1.25596E-02 9.79474E-04-1.15094E-13
 -1      2885 1.31152E-02 7.66604E-04-1.23493E-13
 -1      2886 1.29468E-02 8.42779E-04-1.21064E-13
 -1      2887 1.29027E-02 8.33949E-04-1.19897E-13
 -1      2888 1.34515E-02 6.16243E-04-1.28384E-13
 -1      2889 1.32845E-02 6.90150E-04-1.25933E-13
 -1      2890 1.32539E-02 6.75312E-04-1.24751E-13
 -1      2891 1.37787E-02 4.77098E-04-1.33326E-13
 -1      2892 1.36169E-02 5.45311E-04-1.30849E-13
 -1      2893 1.35990E-02 5.28355E-04-1.29660E-13
 -1      2894 1.40747E-02 3.51885E-04-1.37764E-13
 -1      2895 1.39182E-02 4.15973E-04-1.35270E-13
 -1      2896 1.39099E-02 4.00141E-04-1.34070E-13
 -1      2897 1.41911E-02 2.86157E-04-1.37966E-13
 -1      2898 1.49954E-02-8.89084E-05-1.38276E-13
 -1      2899 1.49556E-02-6.96647E-05-1.38246E-13
 -1      2900 1.41563E-02-5.09667E-04-1.36643E-13
 -1      2901 1.42614E-02-4.75311E-04-1.38321E-13
 -1      2902 1.43640E-02-4.24025E-04-1.38753E-13
 -1      2903 1.41509E-02-4.87468E-04-1.35398E-13
 -1      2904 1.47186E-02 1.99475E-05-1.37975E-13
 -1      2905 1.46226E-02 6.13543E-05-1.37939E-13
 -1      2906 1.50023E-02-1.20249E-04-1.38332E-13
 -1      2907 1.50116E-02-1.03850E-04-1.38306E-13
 -1      2908 1.49227E-02-9.42479E-05-1.36314E-13
 -1      2909 1.48859E-02-4.60356E-05-1.38040E-13
 -1      2910 1.48083E-02-1.61018E-05-1.38008E-13
 -1      2911 1.46472E-02 1.59265E-05-1.35835E-13
 -1      2912 1.49159E-02-1.60516E-04-1.38375E-13
 -1      2913 1.49692E-02-1.37776E-04-1.38355E-13
 -1      2914 1.49021E-02-1.28193E-04-1.36367E-13
 -1      2915 1.47612E-02-2.23580E-04-1.38411E-13
 -1      2916 1.48444E-02-1.88909E-04-1.38393E-13
 -1      2917 1.47827E-02-1.79203E-04-1.36410E-13
 -1      2918 1.45759E-02-3.08256E-04-1.38439E-13
 -1      2919 1.46701E-02-2.63842E-04-1.38425E-13
 -1      2920 1.46030E-02-2.58386E-04-1.36443E-13
 -1      2921 1.44548E-02-3.75149E-04-1.38749E-13
 -1      2922 1.32916E-02 4.77950E-04-1.20158E-13
 -1      2923 1.35124E-02 3.54755E-04-1.21792E-13
 -1      2924 1.45050E-02-4.96525E-05-1.27433E-13
 -1      2925 1.45928E-02-7.10367E-05-1.27758E-13
 -1      2926 1.29616E-02-8.71269E-04-1.17547E-13
 -1      2927 1.27580E-02-9.93698E-04-1.15685E-13
 -1      2928 1.14862E-02 8.07355E-04-1.00888E-13
 -1      2929 1.16639E-02 9.04556E-04-1.02780E-13
 -1      2930 8.33601E-04-2.63936E-04-7.75083E-16
 -1      2931 9.65173E-04-2.98876E-04-9.92926E-16
 -1      2932 1.10821E-03-3.26671E-04-1.27364E-15
 -1      2933 8.14015E-04-2.12302E-04-8.04736E-16
 -1      2934 1.06107E-02-3.76268E-04-9.46038E-14
 -1      2935 1.04154E-02-2.78949E-04-9.35881E-14
 -1      2936 9.97790E-03-1.07987E-04-9.13764E-14
 -1      2937 9.86993E-03-7.79282E-05-9.09095E-14
 -1      2938 9.79733E-03-5.55849E-05-9.06065E-14
 -1      2939 9.77102E-03-4.51243E-05-9.04136E-14
 -1      2940 1.70119E-03 4.40586E-04-2.52729E-15
 -1      2941 1.55874E-03 4.25708E-04-2.12477E-15
 -1      2942 1.47609E-03 3.82226E-04-1.99528E-15
 -1      2943 1.76211E-03 4.11266E-04-2.80913E-15
 -1      2944 2.55270E-03 4.88532E-04-5.70118E-15
 -1      2945 2.41096E-03 4.84169E-04-5.08201E-15
 -1      2946 2.33272E-03 4.44838E-04-4.86755E-15
 -1      2947 2.61760E-03 4.53423E-04-6.11161E-15
 -1      2948 7.84372E-04 1.23468E-04-7.86643E-16
 -1      2949 7.81983E-04 1.00029E-04-7.99789E-16
 -1      2950 8.99592E-04 9.94562E-05-1.02189E-15
 -1      2951 9.05329E-04 1.51590E-04-9.90188E-16
 -1      2952 1.29227E-02 7.00512E-04-1.17168E-13
 -1      2953 1.31020E-02 5.88994E-04-1.18661E-13
 -1      2954 1.32279E-02 5.31775E-04-1.20434E-13
 -1      2955 1.21938E-02-1.18857E-03-1.09197E-13
 -1      2956 1.20239E-02-1.17079E-03-1.07019E-13
 -1      2957 7.81717E-04-9.79785E-05-8.29659E-16
 -1      2958 7.84029E-04-1.21332E-04-8.23357E-16
 -1      2959 1.21637E-02 1.02604E-03-1.08781E-13
 -1      2960 1.23193E-02 9.96667E-04-1.10658E-13
 -1      2961 1.18328E-02 9.74732E-04-1.04708E-13
 -1      2962 1.19692E-02 1.01492E-03-1.06379E-13
 -1      2963 1.15646E-02-9.62509E-04-1.01847E-13
 -1      2964 1.13840E-02-8.46561E-04-1.00133E-13
 -1      2965 1.06077E-02 2.87135E-04-9.42566E-14
 -1      2966 1.07968E-02 3.95023E-04-9.52441E-14
 -1      2967 1.02548E-02 1.20131E-04-9.26833E-14
 -1      2968 1.04258E-02 1.93673E-04-9.35195E-14
 -1      2969 9.97095E-03 2.19414E-05-9.11847E-14
 -1      2970 1.00926E-02 5.94718E-05-9.17837E-14
 -1      2971 9.78778E-03-2.79017E-05-9.01912E-14
 -1      2972 9.85434E-03-1.15620E-05-9.05173E-14
 -1      2973 1.02471E-02-2.04621E-04-9.27545E-14
 -1      2974 1.01218E-02-1.57681E-04-9.21050E-14
 -1      2975 1.10547E-02 5.48066E-04-9.70154E-14
 -1      2976 1.12542E-02 6.72394E-04-9.86580E-14
 -1      2977 1.37247E-02 2.47287E-04-1.23273E-13
 -1      2978 1.39340E-02 1.55772E-04-1.24759E-13
 -1      2979 1.36107E-02 3.22786E-04-1.23421E-13
 -1      2980 1.18542E-02-1.11864E-03-1.04973E-13
 -1      2981 1.17314E-02-1.05841E-03-1.03556E-13
 -1      2982 8.03095E-04 2.78245E-04-6.20109E-16
 -1      2983 1.46511E-02-9.21806E-05-1.27852E-13
 -1      2984 1.46440E-02-1.04277E-04-1.27680E-13
 -1      2985 1.33897E-02-6.18866E-04-1.20955E-13
 -1      2986 1.31873E-02-7.37493E-04-1.19456E-13
 -1      2987 1.42116E-02 4.63042E-05-1.26391E-13
 -1      2988 1.43723E-02-8.31129E-06-1.27032E-13
 -1      2989 7.87109E-04-1.45491E-04-8.14263E-16
 -1      2990 7.91011E-04-1.70685E-04-8.02296E-16
 -1      2991 9.04878E-04-1.49097E-04-1.03914E-15
 -1      2992 8.95455E-04 1.00954E-06-1.05523E-15
 -1      2993 7.77620E-04-9.72029E-06-8.34239E-16
 -1      2994 7.77983E-04-3.13694E-05-8.35757E-16
 -1      2995 1.41869E-02-2.62894E-04-1.27006E-13
 -1      2996 1.40508E-02-3.00492E-04-1.25425E-13
 -1      2997 1.39495E-02-3.56669E-04-1.25539E-13
 -1      2998 1.03160E-02-2.48223E-04-9.22235E-14
 -1      2999 1.44426E-02-1.70378E-04-1.27832E-13
 -1      3000 1.16341E-02-1.04020E-03-1.02117E-13
 -1      3001 1.17409E-02-1.11633E-03-1.03261E-13
 -1      3002 1.19163E-02-1.17579E-03-1.05554E-13
 -1      3003 1.44432E-02 1.10881E-04-1.35763E-13
 -1      3004 1.45242E-02 1.07151E-04-1.37902E-13
 -1      3005 1.44263E-02 1.55406E-04-1.37861E-13
 -1      3006 1.40895E-02 1.03549E-04-1.26539E-13
 -1      3007 1.42331E-02 6.71539E-05-1.28327E-13
 -1      3008 1.39739E-02 1.68692E-04-1.26688E-13
 -1      3009 1.35428E-02-5.45034E-04-1.22547E-13
 -1      3010 1.34570E-02-6.14162E-04-1.22726E-13
 -1      3011 1.36926E-02-4.82055E-04-1.24147E-13
 -1      3012 1.16221E-02-1.01229E-03-1.02181E-13
 -1      3013 1.48260E-02-5.29715E-05-1.36077E-13
 -1      3014 1.43521E-02 1.95984E-04-1.37937E-13
 -1      3015 1.42596E-02 2.46004E-04-1.37895E-13
 -1      3016 1.41188E-02 2.98887E-04-1.35946E-13
 -1      3017 1.42633E-02 2.09687E-04-1.35800E-13
 -1      3018 1.08896E-02 4.75555E-04-9.52373E-14
 -1      3019 1.42633E-02-4.32434E-04-1.36086E-13
 -1      3020 1.44630E-02-3.53353E-04-1.37755E-13
 -1      3021 1.43875E-02-3.54274E-04-1.35775E-13
 -1      3022 1.41542E-02-4.62190E-04-1.34409E-13
 -1      3023 1.44767E-02-2.74120E-05-1.28582E-13
 -1      3024 1.19381E-02-1.15731E-03-1.05931E-13
 -1      3025 1.46519E-02-1.15130E-04-1.28974E-13
 -1      3026 1.46619E-02-8.41029E-05-1.29080E-13
 -1      3027 1.27086E-02-1.02903E-03-1.15445E-13
 -1      3028 1.25845E-02-1.08176E-03-1.13833E-13
 -1      3029 1.24247E-02-1.14627E-03-1.11999E-13
 -1      3030 9.74889E-03-3.36761E-05-8.91212E-14
 -1      3031 1.17292E-02 9.47845E-04-1.03382E-13
 -1      3032 9.87803E-03 8.64440E-06-8.95616E-14
 -1      3033 1.01475E-02 9.55486E-05-9.11176E-14
 -1      3034 1.04772E-02 2.42957E-04-9.27456E-14
 -1      3035 1.16983E-03-3.06971E-04-1.46019E-15
 -1      3036 1.00155E-02-1.30338E-04-9.06697E-14
 -1      3037 9.80727E-03-6.63956E-05-8.96435E-14
 -1      3038 1.13515E-02 7.52597E-04-9.92253E-14
 -1      3039 1.30888E-02-8.11680E-04-1.19215E-13
 -1      3040 1.24119E-02 9.69381E-04-1.11908E-13
 -1      3041 7.78764E-04-5.31558E-05-8.35554E-16
 -1      3042 7.79980E-04-7.53473E-05-8.33508E-16
 -1      3043 8.99312E-04-9.71121E-05-1.05403E-15
 -1      3044 8.96352E-04-4.75323E-05-1.05885E-15
 -1      3045 1.07354E-02-4.51950E-04-9.49507E-14
 -1      3046 1.05944E-02-3.94494E-04-9.33991E-14
 -1      3047 1.08478E-02-5.31375E-04-9.52975E-14
 -1      3048 1.22521E-02-1.18884E-03-1.09981E-13
 -1      3049 1.21553E-02-1.20006E-03-1.08766E-13
 -1      3050 1.28085E-02 7.71356E-04-1.16306E-13
 -1      3051 1.29394E-02 7.07653E-04-1.18066E-13
 -1      3052 1.27079E-02 8.35675E-04-1.15447E-13
 -1      3053 8.64854E-04 2.66566E-04-7.57342E-16
 -1      3054 9.82939E-04 2.75795E-04-9.81732E-16
 -1      3055 1.12550E-03 3.01325E-04-1.25422E-15
 -1      3056 1.06324E-03 2.62771E-04-1.17965E-15
 -1      3057 1.26858E-03 3.23426E-04-1.56216E-15
 -1      3058 1.05579E-03 2.30111E-04-1.21370E-15
 -1      3059 1.14811E-02-9.48112E-04-1.00417E-13
 -1      3060 1.07211E-02 4.14906E-04-9.32020E-14
 -1      3061 1.09492E-02 5.50212E-04-9.49587E-14
 -1      3062 1.31616E-02 5.93536E-04-1.20642E-13
 -1      3063 1.33310E-02 4.95983E-04-1.22149E-13
 -1      3064 1.03514E-02-2.84661E-04-9.14463E-14
 -1      3065 1.02025E-02-2.18211E-04-9.06213E-14
 -1      3066 1.73166E-03-3.40526E-04-3.06192E-15
 -1      3067 1.87533E-03-3.50738E-04-3.54843E-15
 -1      3068 2.01899E-03-3.59232E-04-4.07127E-15
 -1      3069 2.16263E-03-3.66163E-04-4.63004E-15
 -1      3070 1.94015E-03-3.19422E-04-3.83840E-15
 -1      3071 2.30623E-03-3.71806E-04-5.22431E-15
 -1      3072 2.44978E-03-3.76288E-04-5.85449E-15
 -1      3073 2.22819E-03-3.32548E-04-4.95773E-15
 -1      3074 2.59327E-03-3.79829E-04-6.52089E-15
 -1      3075 2.73671E-03-3.82529E-04-7.22266E-15
 -1      3076 2.51616E-03-3.41076E-04-6.21939E-15
 -1      3077 2.88009E-03-3.84557E-04-7.95903E-15
 -1      3078 3.02342E-03-3.85989E-04-8.73012E-15
 -1      3079 2.80393E-03-3.46235E-04-7.62242E-15
 -1      3080 3.16670E-03-3.86952E-04-9.53671E-15
 -1      3081 3.30993E-03-3.87502E-04-1.03782E-14
 -1      3082 3.09144E-03-3.48986E-04-9.16517E-15
 -1      3083 3.45313E-03-3.87730E-04-1.12537E-14
 -1      3084 3.59628E-03-3.87677E-04-1.21639E-14
 -1      3085 3.37867E-03-3.50057E-04-1.08468E-14
 -1      3086 3.73941E-03-3.87406E-04-1.31070E-14
 -1      3087 3.88249E-03-3.86944E-04-1.40839E-14
 -1      3088 3.66564E-03-3.49977E-04-1.26642E-14
 -1      3089 4.02556E-03-3.86333E-04-1.50941E-14
 -1      3090 4.16860E-03-3.85588E-04-1.61364E-14
 -1      3091 3.95239E-03-3.49115E-04-1.46164E-14
 -1      3092 4.31162E-03-3.84736E-04-1.72119E-14
 -1      3093 4.45462E-03-3.83782E-04-1.83178E-14
 -1      3094 4.23892E-03-3.47712E-04-1.67002E-14
 -1      3095 4.59760E-03-3.82741E-04-1.94540E-14
 -1      3096 4.74056E-03-3.81612E-04-2.06225E-14
 -1      3097 4.52527E-03-3.45909E-04-1.89108E-14
 -1      3098 4.88351E-03-3.80398E-04-2.18228E-14
 -1      3099 5.02645E-03-3.79095E-04-2.30528E-14
 -1      3100 4.81145E-03-3.43771E-04-2.12452E-14
 -1      3101 5.16937E-03-3.77697E-04-2.43131E-14
 -1      3102 5.31228E-03-3.76195E-04-2.56061E-14
 -1      3103 5.09747E-03-3.41300E-04-2.37049E-14
 -1      3104 5.45517E-03-3.74580E-04-2.69296E-14
 -1      3105 5.59806E-03-3.72840E-04-2.82837E-14
 -1      3106 5.38334E-03-3.38453E-04-2.62881E-14
 -1      3107 5.74092E-03-3.70960E-04-2.96690E-14
 -1      3108 5.88377E-03-3.68929E-04-3.10842E-14
 -1      3109 5.66903E-03-3.35153E-04-2.89965E-14
 -1      3110 6.02659E-03-3.66730E-04-3.25319E-14
 -1      3111 6.16940E-03-3.64350E-04-3.40108E-14
 -1      3112 5.95452E-03-3.31303E-04-3.18280E-14
 -1      3113 6.31217E-03-3.61775E-04-3.55193E-14
 -1      3114 6.45492E-03-3.58992E-04-3.70567E-14
 -1      3115 6.23975E-03-3.26794E-04-3.47830E-14
 -1      3116 6.59763E-03-3.55993E-04-3.86249E-14
 -1      3117 6.74030E-03-3.52768E-04-4.02229E-14
 -1      3118 6.52467E-03-3.21527E-04-3.78595E-14
 -1      3119 6.88291E-03-3.49318E-04-4.18491E-14
 -1      3120 7.02549E-03-3.45639E-04-4.35032E-14
 -1      3121 6.80918E-03-3.15426E-04-4.10527E-14
 -1      3122 7.16798E-03-3.41749E-04-4.51862E-14
 -1      3123 7.31042E-03-3.37652E-04-4.68967E-14
 -1      3124 7.09315E-03-3.08469E-04-4.43604E-14
 -1      3125 7.45276E-03-3.33390E-04-4.86334E-14
 -1      3126 7.59505E-03-3.28983E-04-5.03966E-14
 -1      3127 7.37647E-03-3.00721E-04-4.77793E-14
 -1      3128 7.73721E-03-3.24507E-04-5.21859E-14
 -1      3129 7.87933E-03-3.20001E-04-5.40007E-14
 -1      3130 7.65898E-03-2.92375E-04-5.13053E-14
 -1      3131 8.02131E-03-3.15589E-04-5.58409E-14
 -1      3132 8.16328E-03-3.11343E-04-5.77050E-14
 -1      3133 7.94054E-03-2.83807E-04-5.49315E-14
 -1      3134 8.30514E-03-3.07439E-04-5.95935E-14
 -1      3135 8.44705E-03-3.03999E-04-6.15067E-14
 -1      3136 8.22108E-03-2.75638E-04-5.86592E-14
 -1      3137 8.58896E-03-3.01262E-04-6.34416E-14
 -1      3138 8.73108E-03-2.99425E-04-6.53968E-14
 -1      3139 8.50068E-03-2.68807E-04-6.24817E-14
 -1      3140 8.87343E-03-2.98786E-04-6.73742E-14
 -1      3141 9.01631E-03-2.99669E-04-6.93728E-14
 -1      3142 8.77971E-03-2.64648E-04-6.63925E-14
 -1      3143 9.15986E-03-3.02413E-04-7.13904E-14
 -1      3144 9.30454E-03-3.07558E-04-7.34281E-14
 -1      3145 9.05916E-03-2.64994E-04-7.03867E-14
 -1      3146 9.45069E-03-3.15444E-04-7.54844E-14
 -1      3147 9.59898E-03-3.27008E-04-7.75573E-14
 -1      3148 9.34102E-03-2.72352E-04-7.44598E-14
 -1      3149 9.75007E-03-3.42529E-04-7.96469E-14
 -1      3150 9.90477E-03-3.63626E-04-8.17561E-14
 -1      3151 9.62897E-03-2.90304E-04-7.86026E-14
 -1      3152 1.00643E-02-3.90392E-04-8.38818E-14
 -1      3153 1.02294E-02-4.25705E-04-8.60201E-14
 -1      3154 9.92923E-03-3.24456E-04-8.28175E-14
 -1      3155 1.04017E-02-4.69498E-04-8.81775E-14
 -1      3156 1.05811E-02-5.25607E-04-9.03526E-14
 -1      3157 1.02511E-02-3.84228E-04-8.70976E-14
 -1      3158 1.07346E-02-5.50841E-04-9.25966E-14
 -1      3159 1.09298E-02-6.34285E-04-9.48045E-14
 -1      3160 1.12829E-02-8.44478E-04-9.81662E-14
 -1      3161 1.32458E-02-7.60497E-04-1.21681E-13
 -1      3162 1.34459E-02-6.71800E-04-1.24113E-13
 -1      3163 1.36405E-02-5.96312E-04-1.26556E-13
 -1      3164 1.38182E-02-5.50093E-04-1.29241E-13
 -1      3165 1.39949E-02-4.95866E-04-1.31706E-13
 -1      3166 1.41160E-02-4.33260E-04-1.32387E-13
 -1      3167 1.37849E-02-5.00463E-04-1.27002E-13
 -1      3168 9.71171E-03-4.02038E-05-8.78833E-14
 -1      3169 9.72089E-03-2.50883E-05-8.76629E-14
 -1      3170 3.25491E-03 4.24167E-04-9.52210E-15
 -1      3171 3.11206E-03 4.23367E-04-8.72043E-15
 -1      3172 2.96917E-03 4.22103E-04-7.95321E-15
 -1      3173 2.82627E-03 4.20313E-04-7.22247E-15
 -1      3174 3.03659E-03 3.85391E-04-8.41369E-15
 -1      3175 3.82623E-03 4.24272E-04-1.30751E-14
 -1      3176 3.68342E-03 4.24608E-04-1.21350E-14
 -1      3177 4.11187E-03 4.23117E-04-1.50575E-14
 -1      3178 3.96905E-03 4.23768E-04-1.40493E-14
 -1      3179 3.89582E-03 3.86590E-04-1.36506E-14
 -1      3180 4.39752E-03 4.21467E-04-1.71739E-14
 -1      3181 4.25469E-03 4.22346E-04-1.60992E-14
 -1      3182 4.18196E-03 3.85351E-04-1.56687E-14
 -1      3183 4.68318E-03 4.19427E-04-1.94245E-14
 -1      3184 4.54035E-03 4.20493E-04-1.82825E-14
 -1      3185 4.46800E-03 3.83671E-04-1.78211E-14
 -1      3186 4.96888E-03 4.17029E-04-2.18075E-14
 -1      3187 4.82603E-03 4.18273E-04-2.05996E-14
 -1      3188 4.75396E-03 3.81630E-04-2.01053E-14
 -1      3189 5.25462E-03 4.14248E-04-2.43232E-14
 -1      3190 5.11175E-03 4.15690E-04-2.30482E-14
 -1      3191 5.03986E-03 3.79245E-04-2.25221E-14
 -1      3192 5.54040E-03 4.11016E-04-2.69695E-14
 -1      3193 5.39750E-03 4.12693E-04-2.56304E-14
 -1      3194 5.32569E-03 3.76479E-04-2.50699E-14
 -1      3195 5.82624E-03 4.07237E-04-2.97473E-14
 -1      3196 5.68331E-03 4.09201E-04-2.83426E-14
 -1      3197 5.61145E-03 3.73259E-04-2.77494E-14
 -1      3198 6.11214E-03 4.02799E-04-3.26514E-14
 -1      3199 5.96918E-03 4.05107E-04-3.11834E-14
 -1      3200 5.89715E-03 3.69487E-04-3.05569E-14
 -1      3201 6.39812E-03 3.97594E-04-3.56782E-14
 -1      3202 6.25512E-03 4.00298E-04-3.41497E-14
 -1      3203 6.18275E-03 3.65053E-04-3.34898E-14
 -1      3204 6.68420E-03 3.91532E-04-3.88251E-14
 -1      3205 6.54114E-03 3.94674E-04-3.72374E-14
 -1      3206 6.46825E-03 3.59855E-04-3.65446E-14
 -1      3207 6.97040E-03 3.84575E-04-4.20849E-14
 -1      3208 6.82728E-03 3.88165E-04-4.04413E-14
 -1      3209 6.75361E-03 3.53810E-04-3.97169E-14
 -1      3210 7.25677E-03 3.76769E-04-4.54592E-14
 -1      3211 7.11355E-03 3.80772E-04-4.37575E-14
 -1      3212 7.03880E-03 3.46892E-04-4.30043E-14
 -1      3213 7.54336E-03 3.68298E-04-4.89424E-14
 -1      3214 7.40001E-03 3.72602E-04-4.71875E-14
 -1      3215 7.32380E-03 3.39161E-04-4.64042E-14
 -1      3216 7.83030E-03 3.59540E-04-5.25309E-14
 -1      3217 7.68676E-03 3.63926E-04-5.07239E-14
 -1      3218 7.60862E-03 3.30808E-04-4.99125E-14
 -1      3219 8.11778E-03 3.51156E-04-5.62197E-14
 -1      3220 7.97394E-03 3.55254E-04-5.43625E-14
 -1      3221 7.89329E-03 3.22220E-04-5.35249E-14
 -1      3222 8.40618E-03 3.44181E-04-6.00047E-14
 -1      3223 8.26182E-03 3.47417E-04-5.81010E-14
 -1      3224 8.17799E-03 3.14047E-04-5.72351E-14
 -1      3225 8.69613E-03 3.40147E-04-6.38823E-14
 -1      3226 8.55089E-03 3.41681E-04-6.19315E-14
 -1      3227 8.46305E-03 3.07289E-04-6.10425E-14
 -1      3228 8.98868E-03 3.41216E-04-6.78480E-14
 -1      3229 8.84198E-03 3.39873E-04-6.58549E-14
 -1      3230 8.74917E-03 3.03405E-04-6.49408E-14
 -1      3231 9.28556E-03 3.50344E-04-7.18949E-14
 -1      3232 9.13644E-03 3.44523E-04-6.98612E-14
 -1      3233 9.03761E-03 3.04442E-04-6.89252E-14
 -1      3234 9.58936E-03 3.71476E-04-7.60185E-14
 -1      3235 9.43642E-03 3.59052E-04-7.39467E-14
 -1      3236 9.33046E-03 3.13221E-04-7.29900E-14
 -1      3237 9.90362E-03 4.09729E-04-8.02184E-14
 -1      3238 9.74502E-03 3.87974E-04-7.81079E-14
 -1      3239 9.63102E-03 3.33646E-04-7.71299E-14
 -1      3240 1.02324E-02 4.71428E-04-8.44901E-14
 -1      3241 1.00661E-02 4.37003E-04-8.23464E-14
 -1      3242 9.94387E-03 3.71169E-04-8.13445E-14
 -1      3243 1.05791E-02 5.63635E-04-8.88354E-14
 -1      3244 1.04039E-02 5.13080E-04-8.66539E-14
 -1      3245 1.02745E-02 4.33110E-04-8.56320E-14
 -1      3246 1.09383E-02 6.45446E-04-9.36162E-14
 -1      3247 1.07523E-02 5.75712E-04-9.14029E-14
 -1      3248 1.16721E-02 9.64574E-04-1.02418E-13
 -1      3249 1.14913E-02 8.93643E-04-1.00137E-13
 -1      3250 1.19889E-02 1.04851E-03-1.06662E-13
 -1      3251 1.18179E-02 1.01701E-03-1.04347E-13
 -1      3252 1.23289E-02 1.02267E-03-1.11420E-13
 -1      3253 1.21588E-02 1.05085E-03-1.09070E-13
 -1      3254 1.27732E-02 8.45766E-04-1.17347E-13
 -1      3255 1.25905E-02 9.26119E-04-1.14958E-13
 -1      3256 1.31621E-02 6.62779E-04-1.22340E-13
 -1      3257 1.29749E-02 7.50092E-04-1.19917E-13
 -1      3258 1.35325E-02 5.05565E-04-1.27224E-13
 -1      3259 1.33503E-02 5.81249E-04-1.24774E-13
 -1      3260 1.34664E-02 4.74852E-04-1.24793E-13
 -1      3261 1.38129E-02 4.19730E-04-1.31872E-13
 -1      3262 1.36417E-02 4.85630E-04-1.29403E-13
 -1      3263 1.37626E-02 3.88589E-04-1.29426E-13
 -1      3264 1.39593E-02 3.60653E-04-1.33811E-13
 -1      3265 1.45828E-02 5.39493E-06-1.33741E-13
 -1      3266 1.44758E-02 5.35594E-05-1.33706E-13
 -1      3267 1.01655E-03 6.82128E-05-1.28521E-15
 -1      3268 1.01538E-03 4.12273E-05-1.29500E-15
 -1      3269 1.46296E-02-2.02563E-04-1.34271E-13
 -1      3270 1.47182E-02-1.65368E-04-1.34252E-13
 -1      3271 1.47942E-02-1.05210E-04-1.32753E-13
 -1      3272 1.47837E-02-8.76648E-05-1.32724E-13
 -1      3273 1.44235E-02-3.01775E-04-1.34304E-13
 -1      3274 1.45284E-02-2.48864E-04-1.34287E-13
 -1      3275 1.44609E-02-2.35561E-04-1.32138E-13
 -1      3276 1.35511E-02 3.69990E-04-1.23669E-13
 -1      3277 1.37455E-02 2.73025E-04-1.25157E-13
 -1      3278 1.39101E-02 2.13960E-04-1.26937E-13
 -1      3279 1.34723E-02 4.38162E-04-1.23878E-13
 -1      3280 1.45668E-02-1.61618E-04-1.30445E-13
 -1      3281 1.44290E-02-1.97910E-04-1.29503E-13
 -1      3282 1.47336E-02-7.02031E-05-1.32631E-13
 -1      3283 1.46490E-02-4.08731E-05-1.32423E-13
 -1      3284 9.32134E-04-2.20430E-04-1.03207E-15
 -1      3285 3.54059E-03 4.24730E-04-1.12294E-14
 -1      3286 3.39776E-03 4.24607E-04-1.03578E-14
 -1      3287 3.32316E-03 3.86959E-04-1.00211E-14
 -1      3288 3.60956E-03 3.87219E-04-1.17671E-14
 -1      3289 9.80093E-03 3.02732E-06-8.80651E-14
 -1      3290 9.90716E-03 3.24477E-05-8.87241E-14
 -1      3291 1.20391E-02 1.02750E-03-1.07248E-13
 -1      3292 1.21380E-02 1.03458E-03-1.08581E-13
 -1      3293 1.24366E-02-1.15097E-03-1.12332E-13
 -1      3294 2.11106E-03 3.98821E-04-4.09834E-15
 -1      3295 1.96784E-03 3.90895E-04-3.58025E-15
 -1      3296 1.12679E-02-7.75834E-04-9.90278E-14
 -1      3297 1.11235E-02-6.95665E-04-9.75657E-14
 -1      3298 1.19545E-02 1.02233E-03-1.06179E-13
 -1      3299 1.13492E-02-8.47668E-04-9.93738E-14
 -1      3300 1.44457E-03-3.13789E-04-2.19745E-15
 -1      3301 1.58808E-03-3.28267E-04-2.61146E-15
 -1      3302 1.65236E-03-3.00199E-04-2.86229E-15
 -1      3303 1.08175E-03-2.54020E-04-1.32424E-15
 -1      3304 1.29260E-03-2.85216E-04-1.81333E-15
 -1      3305 1.35701E-03-2.61738E-04-2.02190E-15
 -1      3306 1.05671E-03-2.05782E-04-1.32111E-15
 -1      3307 1.03243E-02 1.98335E-04-9.08929E-14
 -1      3308 1.04773E-02 2.79953E-04-9.16203E-14
 -1      3309 1.00289E-02 8.06473E-05-8.91151E-14
 -1      3310 1.01722E-02 1.32390E-04-9.00027E-14
 -1      3311 1.01782E-02 1.72302E-04-8.88869E-14
 -1      3312 9.80173E-03-7.46844E-05-8.84874E-14
 -1      3313 9.73991E-03-5.56892E-05-8.81877E-14
 -1      3314 9.68382E-03-4.65119E-05-8.67362E-14
 -1      3315 1.00431E-02-1.58075E-04-8.95552E-14
 -1      3316 9.91587E-03-1.15494E-04-8.88345E-14
 -1      3317 1.01478E-03 1.44479E-05-1.30225E-15
 -1      3318 1.01474E-03-1.22371E-05-1.30691E-15
 -1      3319 1.13547E-03 3.01684E-05-1.57422E-15
 -1      3320 2.68332E-03 4.17857E-04-6.52676E-15
 -1      3321 2.54034E-03 4.14651E-04-5.86620E-15
 -1      3322 2.74981E-03 3.81916E-04-6.94628E-15
 -1      3323 1.05523E-02 3.57306E-04-9.13412E-14
 -1      3324 1.42994E-02-2.56114E-04-1.29522E-13
 -1      3325 1.00727E-02-1.91478E-04-8.87857E-14
 -1      3326 1.20651E-02-1.21020E-03-1.07608E-13
 -1      3327 1.04767E-03-1.45795E-04-1.34807E-15
 -1      3328 1.05163E-03-1.75306E-04-1.33640E-15
 -1      3329 1.20028E-03-2.01237E-04-1.67173E-15
 -1      3330 1.05630E-02-4.42761E-04-9.14948E-14
 -1      3331 1.02082E-03 1.23243E-04-1.25735E-15
 -1      3332 1.01835E-03 9.54765E-05-1.27265E-15
 -1      3333 1.13813E-03 8.85661E-05-1.55137E-15
 -1      3334 1.27093E-02-1.03929E-03-1.15780E-13
 -1      3335 1.29058E-02-9.45268E-04-1.18178E-13
 -1      3336 9.65474E-03-1.79971E-05-8.56080E-14
 -1      3337 9.72011E-03-9.73047E-06-8.68347E-14
 -1      3338 9.72550E-03 8.92611E-06-8.60050E-14
 -1      3339 1.02828E-03 1.81077E-04-1.21657E-15
 -1      3340 1.02413E-03 1.51738E-04-1.23890E-15
 -1      3341 1.14373E-03 1.48607E-04-1.51577E-15
 -1      3342 2.39730E-03 4.10506E-04-5.24118E-15
 -1      3343 2.25422E-03 4.05312E-04-4.65200E-15
 -1      3344 2.46282E-03 3.75717E-04-5.62030E-15
 -1      3345 9.92273E-03 6.53327E-05-8.76195E-14
 -1      3346 1.39014E-02-3.97451E-04-1.26181E-13
 -1      3347 1.38121E-02-4.62417E-04-1.26360E-13
 -1      3348 1.39799E-02-4.27394E-04-1.29046E-13
 -1      3349 1.40470E-02-3.50430E-04-1.27759E-13
 -1      3350 1.06128E-02 4.79356E-04-9.03551E-14
 -1      3351 1.13787E-02 8.00209E-04-9.91355E-14
 -1      3352 1.13125E-02 8.34845E-04-9.78142E-14
 -1      3353 1.11291E-02 7.57336E-04-9.55658E-14
 -1      3354 1.40282E-02 3.13099E-04-1.33739E-13
 -1      3355 1.45409E-02-7.40185E-06-1.32018E-13
 -1      3356 1.09921E-02 6.11909E-04-9.48664E-14
 -1      3357 1.11675E-02 6.80400E-04-9.69187E-14
 -1      3358 9.81167E-03-9.60348E-05-8.73842E-14
 -1      3359 1.43014E-02-3.52602E-04-1.33624E-13
 -1      3360 1.48295E-02-1.21029E-04-1.34353E-13
 -1      3361 1.47092E-02-1.17367E-04-1.30771E-13
 -1      3362 1.24687E-02 9.69623E-04-1.13215E-13
 -1      3363 1.82455E-03 3.81223E-04-3.09757E-15
 -1      3364 1.68120E-03 3.69628E-04-2.65075E-15
 -1      3365 1.88825E-03 3.50504E-04-3.39301E-15
 -1      3366 1.54650E-03 3.57134E-04-2.26245E-15
 -1      3367 1.40313E-03 3.40877E-04-1.88498E-15
 -1      3368 1.34006E-03 3.01967E-04-1.79286E-15
 -1      3369 1.60958E-03 3.29663E-04-2.51563E-15
 -1      3370 1.17510E-03 2.30526E-04-1.49177E-15
 -1      3371 2.17561E-03 3.65709E-04-4.43604E-15
 -1      3372 1.04229E-03-8.90093E-05-1.36122E-15
 -1      3373 1.04458E-03-1.17077E-04-1.35617E-15
 -1      3374 1.19173E-03-1.37455E-04-1.69644E-15
 -1      3375 1.47806E-02-1.43685E-04-1.34377E-13
 -1      3376 1.31017E-02-8.29239E-04-1.20093E-13
 -1      3377 1.46425E-02-1.36168E-04-1.30568E-13
 -1      3378 1.46496E-02-1.58774E-04-1.32245E-13
 -1      3379 1.04583E-02-3.48410E-04-9.17887E-14
 -1      3380 1.30527E-02 6.64192E-04-1.19768E-13
 -1      3381 1.10757E-02-7.03168E-04-9.63671E-14
 -1      3382 2.15040E-03-2.93458E-04-4.69343E-15
 -1      3383 2.29475E-03-2.98367E-04-5.28900E-15
 -1      3384 2.43910E-03-3.02320E-04-5.92053E-15
 -1      3385 2.58342E-03-3.05412E-04-6.58742E-15
 -1      3386 2.36221E-03-2.63665E-04-5.62475E-15
 -1      3387 2.72769E-03-3.07809E-04-7.28807E-15
 -1      3388 2.87189E-03-3.09583E-04-8.02453E-15
 -1      3389 2.65147E-03-2.69353E-04-6.95739E-15
 -1      3390 3.01602E-03-3.10864E-04-8.79581E-15
 -1      3391 3.16006E-03-3.11706E-04-9.60155E-15
 -1      3392 2.94053E-03-2.72635E-04-8.42939E-15
 -1      3393 3.30402E-03-3.12206E-04-1.04423E-14
 -1      3394 3.44789E-03-3.12402E-04-1.13166E-14
 -1      3395 3.22925E-03-2.74206E-04-1.00404E-14
 -1      3396 3.59168E-03-3.12366E-04-1.22248E-14
 -1      3397 3.73538E-03-3.12123E-04-1.31668E-14
 -1      3398 3.51757E-03-2.74591E-04-1.17882E-14
 -1      3399 3.87901E-03-3.11723E-04-1.41420E-14
 -1      3400 4.02256E-03-3.11180E-04-1.51502E-14
 -1      3401 3.80548E-03-2.74165E-04-1.36707E-14
 -1      3402 4.16604E-03-3.10528E-04-1.61912E-14
 -1      3403 4.30944E-03-3.09773E-04-1.72647E-14
 -1      3404 4.09300E-03-2.73184E-04-1.56856E-14
 -1      3405 4.45277E-03-3.08934E-04-1.83689E-14
 -1      3406 4.59604E-03-3.08013E-04-1.95039E-14
 -1      3407 4.38015E-03-2.71811E-04-1.78294E-14
 -1      3408 4.73925E-03-3.07018E-04-2.06706E-14
 -1      3409 4.88239E-03-3.05945E-04-2.18694E-14
 -1      3410 4.66694E-03-2.70130E-04-2.00998E-14
 -1      3411 5.02547E-03-3.04796E-04-2.30987E-14
 -1      3412 5.16849E-03-3.03561E-04-2.43586E-14
 -1      3413 4.95339E-03-2.68169E-04-2.24942E-14
 -1      3414 5.31144E-03-3.02237E-04-2.56508E-14
 -1      3415 5.45432E-03-3.00811E-04-2.69736E-14
 -1      3416 5.23949E-03-2.65911E-04-2.50145E-14
 -1      3417 5.59712E-03-2.99277E-04-2.83262E-14
 -1      3418 5.73985E-03-2.97620E-04-2.97109E-14
 -1      3419 5.52522E-03-2.63304E-04-2.76590E-14
 -1      3420 5.88249E-03-2.95830E-04-3.11272E-14
 -1      3421 6.02504E-03-2.93893E-04-3.25730E-14
 -1      3422 5.81053E-03-2.60275E-04-3.04279E-14
 -1      3423 6.16747E-03-2.91798E-04-3.40503E-14
 -1      3424 6.30978E-03-2.89531E-04-3.55580E-14
 -1      3425 6.09533E-03-2.56737E-04-3.33197E-14
 -1      3426 6.45196E-03-2.87085E-04-3.70954E-14
 -1      3427 6.59399E-03-2.84445E-04-3.86629E-14
 -1      3428 6.37951E-03-2.52600E-04-3.63345E-14
 -1      3429 6.73583E-03-2.81613E-04-4.02582E-14
 -1      3430 6.87749E-03-2.78575E-04-4.18832E-14
 -1      3431 6.66289E-03-2.47790E-04-3.94672E-14
 -1      3432 7.01892E-03-2.75347E-04-4.35369E-14
 -1      3433 7.16012E-03-2.71916E-04-4.52183E-14
 -1      3434 6.94529E-03-2.42263E-04-4.27155E-14
 -1      3435 7.30103E-03-2.68318E-04-4.69277E-14
 -1      3436 7.44165E-03-2.64547E-04-4.86639E-14
 -1      3437 7.22644E-03-2.36028E-04-4.60771E-14
 -1      3438 7.58192E-03-2.60664E-04-5.04262E-14
 -1      3439 7.72185E-03-2.56672E-04-5.22144E-14
 -1      3440 7.50605E-03-2.29178E-04-4.95496E-14
 -1      3441 7.86136E-03-2.52666E-04-5.40268E-14
 -1      3442 8.00048E-03-2.48663E-04-5.58644E-14
 -1      3443 7.78378E-03-2.21919E-04-5.31243E-14
 -1      3444 8.13913E-03-2.44797E-04-5.77280E-14
 -1      3445 8.27737E-03-2.41108E-04-5.96149E-14
 -1      3446 8.05930E-03-2.14607E-04-5.67979E-14
 -1      3447 8.41510E-03-2.37772E-04-6.15239E-14
 -1      3448 8.55247E-03-2.34862E-04-6.34576E-14
 -1      3449 8.33231E-03-2.07777E-04-6.05701E-14
 -1      3450 8.68938E-03-2.32593E-04-6.54124E-14
 -1      3451 8.82608E-03-2.31095E-04-6.73889E-14
 -1      3452 8.60263E-03-2.02168E-04-6.44343E-14
 -1      3453 8.96252E-03-2.30606E-04-6.93842E-14
 -1      3454 9.09911E-03-2.31368E-04-7.14006E-14
 -1      3455 8.87038E-03-1.98740E-04-6.83843E-14
 -1      3456 9.23587E-03-2.33610E-04-7.34369E-14
 -1      3457 9.37353E-03-2.37799E-04-7.54909E-14
 -1      3458 9.13626E-03-1.98711E-04-7.24165E-14
 -1      3459 9.51222E-03-2.44087E-04-7.75617E-14
 -1      3460 9.65323E-03-2.53525E-04-7.96498E-14
 -1      3461 9.40201E-03-2.03688E-04-7.65236E-14
 -1      3462 9.79695E-03-2.66089E-04-8.17548E-14
 -1      3463 9.94535E-03-2.84102E-04-8.38780E-14
 -1      3464 9.67149E-03-2.16140E-04-8.06973E-14
 -1      3465 1.11785E-02-7.84162E-04-9.70676E-14
 -1      3466 1.43623E-02 1.09686E-04-1.33632E-13
 -1      3467 1.42532E-02 1.68773E-04-1.33592E-13
 -1      3468 2.24124E-03 3.32018E-04-4.77933E-15
 -1      3469 2.09719E-03 3.26212E-04-4.21944E-15
 -1      3470 1.04080E-02 3.61955E-04-8.87935E-14
 -1      3471 4.25224E-03 3.47498E-04-1.62829E-14
 -1      3472 4.10899E-03 3.48195E-04-1.52392E-14
 -1      3473 3.96568E-03 3.48776E-04-1.42293E-14
 -1      3474 3.82233E-03 3.49233E-04-1.32522E-14
 -1      3475 4.03583E-03 3.10876E-04-1.48105E-14
 -1      3476 4.82480E-03 3.43823E-04-2.07884E-14
 -1      3477 4.68173E-03 3.44866E-04-1.96125E-14
 -1      3478 5.11082E-03 3.41488E-04-2.32377E-14
 -1      3479 4.96783E-03 3.42699E-04-2.19967E-14
 -1      3480 4.89569E-03 3.06039E-04-2.14722E-14
 -1      3481 5.39668E-03 3.38779E-04-2.58183E-14
 -1      3482 5.25377E-03 3.40185E-04-2.45118E-14
 -1      3483 5.18178E-03 3.03793E-04-2.39554E-14
 -1      3484 5.68235E-03 3.35618E-04-2.85295E-14
 -1      3485 5.53954E-03 3.37261E-04-2.71576E-14
 -1      3486 5.46759E-03 3.01182E-04-2.65683E-14
 -1      3487 5.96782E-03 3.31909E-04-3.13673E-14
 -1      3488 5.82511E-03 3.33839E-04-2.99328E-14
 -1      3489 5.75310E-03 2.98130E-04-2.93102E-14
 -1      3490 6.25303E-03 3.27546E-04-3.43286E-14
 -1      3491 6.11045E-03 3.29817E-04-3.28325E-14
 -1      3492 6.03825E-03 2.94542E-04-3.21790E-14
 -1      3493 6.53792E-03 3.22432E-04-3.74112E-14
 -1      3494 6.39551E-03 3.25090E-04-3.58553E-14
 -1      3495 6.32297E-03 2.90319E-04-3.51690E-14
 -1      3496 6.82242E-03 3.16497E-04-4.06103E-14
 -1      3497 6.68022E-03 3.19572E-04-3.89967E-14
 -1      3498 6.60715E-03 2.85372E-04-3.82785E-14
 -1      3499 7.10644E-03 3.09722E-04-4.39242E-14
 -1      3500 6.96449E-03 3.13216E-04-4.22526E-14
 -1      3501 6.89066E-03 2.79641E-04-4.15042E-14
 -1      3502 7.38990E-03 3.02176E-04-4.73494E-14
 -1      3503 7.24824E-03 3.06042E-04-4.56229E-14
 -1      3504 7.17337E-03 2.73114E-04-4.48451E-14
 -1      3505 7.67272E-03 2.94055E-04-5.08831E-14
 -1      3506 7.53138E-03 2.98176E-04-4.91038E-14
 -1      3507 7.45510E-03 2.65865E-04-4.82973E-14
 -1      3508 7.95488E-03 2.85735E-04-5.45188E-14
 -1      3509 7.81386E-03 2.89896E-04-5.26883E-14
 -1      3510 7.73572E-03 2.58084E-04-5.18554E-14
 -1      3511 8.23649E-03 2.77834E-04-5.82513E-14
 -1      3512 8.09572E-03 2.81691E-04-5.63722E-14
 -1      3513 8.01514E-03 2.50121E-04-5.55126E-14
 -1      3514 8.51789E-03 2.71284E-04-6.20788E-14
 -1      3515 8.37716E-03 2.74324E-04-6.01545E-14
 -1      3516 8.29341E-03 2.42535E-04-5.92673E-14
 -1      3517 8.79979E-03 2.67421E-04-6.59986E-14
 -1      3518 8.65868E-03 2.68913E-04-6.40281E-14
 -1      3519 8.57080E-03 2.36152E-04-6.31181E-14
 -1      3520 9.08360E-03 2.68114E-04-7.00023E-14
 -1      3521 8.94131E-03 2.67035E-04-6.79899E-14
 -1      3522 8.84806E-03 2.32129E-04-6.70570E-14
 -1      3523 9.37173E-03 2.75978E-04-7.40856E-14
 -1      3524 9.22689E-03 2.70889E-04-7.20348E-14
 -1      3525 9.12664E-03 2.32087E-04-7.10804E-14
 -1      3526 9.66813E-03 2.94828E-04-7.82420E-14
 -1      3527 9.51854E-03 2.83589E-04-7.61541E-14
 -1      3528 9.40922E-03 2.38352E-04-7.51808E-14
 -1      3529 9.97869E-03 3.30498E-04-8.24718E-14
 -1      3530 9.82114E-03 3.09837E-04-8.03474E-14
 -1      3531 9.70030E-03 2.54601E-04-7.93544E-14
 -1      3532 1.02741E-02 3.58378E-04-8.66968E-14
 -1      3533 1.01070E-02 3.26025E-04-8.45406E-14
 -1      3534 9.97071E-03 2.58184E-04-8.35241E-14
 -1      3535 1.02063E-02 2.42080E-04-8.76775E-14
 -1      3536 1.41012E-02 2.63281E-04-1.33668E-13
 -1      3537 1.39348E-02 3.22554E-04-1.31541E-13
 -1      3538 1.38379E-02 3.29769E-04-1.29353E-13
 -1      3539 1.41789E-02 2.13344E-04-1.33593E-13
 -1      3540 1.36682E-02 3.61899E-04-1.26325E-13
 -1      3541 1.42884E-02 1.03407E-04-1.31541E-13
 -1      3542 9.80323E-03 5.05166E-05-8.58653E-14
 -1      3543 9.90563E-03 9.37306E-05-8.62483E-14
 -1      3544 1.01049E-02-2.33584E-04-8.79831E-14
 -1      3545 9.96101E-03-1.79685E-04-8.69281E-14
 -1      3546 1.42741E-02 7.86632E-05-1.30044E-13
 -1      3547 1.41430E-02 1.46977E-04-1.29969E-13
 -1      3548 9.80522E-03-1.16992E-04-8.61017E-14
 -1      3549 9.71001E-03-7.97096E-05-8.57604E-14
 -1      3550 1.57401E-03-2.60770E-04-2.66505E-15
 -1      3551 1.71782E-03-2.71226E-04-3.11884E-15
 -1      3552 4.53861E-03 3.45826E-04-1.84695E-14
 -1      3553 4.39545E-03 3.46707E-04-1.73599E-14
 -1      3554 4.32272E-03 3.09596E-04-1.69001E-14
 -1      3555 4.60934E-03 3.07970E-04-1.91204E-14
 -1      3556 3.10462E-03 3.48371E-04-8.87830E-15
 -1      3557 2.96089E-03 3.47232E-04-8.10655E-15
 -1      3558 1.40868E-02 2.18627E-04-1.31468E-13
 -1      3559 1.02745E-03-3.65386E-05-1.33614E-15
 -1      3560 1.02849E-03-6.35918E-05-1.33609E-15
 -1      3561 1.17454E-03-7.87539E-05-1.67607E-15
 -1      3562 1.14771E-03-2.49351E-05-1.61486E-15
 -1      3563 1.43714E-02 3.03066E-05-1.29897E-13
 -1      3564 1.25524E-02-1.11490E-03-1.13928E-13
 -1      3565 1.39357E-02 2.34818E-04-1.28428E-13
 -1      3566 9.65670E-03-5.55357E-05-8.55596E-14
 -1      3567 9.62928E-03-3.96222E-05-8.52573E-14
 -1      3568 1.03372E-02-3.41058E-04-8.95570E-14
 -1      3569 1.86186E-03-2.80059E-04-3.60808E-15
 -1      3570 2.00609E-03-2.87395E-04-4.13297E-15
 -1      3571 2.07298E-03-2.54682E-04-4.43187E-15
 -1      3572 1.00760E-02 1.83582E-04-8.68015E-14
 -1      3573 1.41527E-02-3.71531E-04-1.30921E-13
 -1      3574 1.30891E-03 2.45731E-04-1.80780E-15
 -1      3575 1.28098E-03 1.92206E-04-1.80978E-15
 -1      3576 1.44335E-03 2.58943E-04-2.15531E-15
 -1      3577 1.01989E-02-3.13091E-04-8.76919E-14
 -1      3578 2.81707E-03 3.45589E-04-7.37049E-15
 -1      3579 2.67320E-03 3.43377E-04-6.67051E-15
 -1      3580 2.88504E-03 3.08941E-04-7.80037E-15
 -1      3581 1.42187E-02-2.98850E-04-1.29631E-13
 -1      3582 1.31258E-03-1.29857E-04-2.01488E-15
 -1      3583 1.31612E-03-1.62854E-04-2.00530E-15
 -1      3584 9.94248E-03 1.43465E-04-8.54893E-14
 -1      3585 9.95571E-03 2.06110E-04-8.42899E-14
 -1      3586 9.84343E-03 2.19013E-04-8.22308E-14
 -1      3587 9.80750E-03 1.22345E-04-8.37477E-14
 -1      3588 9.89786E-03-2.22434E-04-8.44646E-14
 -1      3589 1.00420E-02-2.84210E-04-8.55412E-14
 -1      3590 2.38527E-03 3.36728E-04-5.37454E-15
 -1      3591 2.30781E-03 2.97796E-04-5.12872E-15
 -1      3592 2.52926E-03 3.40452E-04-6.00504E-15
 -1      3593 1.26113E-03 1.10575E-04-1.84084E-15
 -1      3594 1.25893E-03 7.90817E-05-1.85747E-15
 -1      3595 9.60088E-03-2.63258E-05-8.44374E-14
 -1      3596 9.58110E-03-1.20413E-05-8.36181E-14
 -1      3597 9.55402E-03-3.47325E-05-8.32718E-14
 -1      3598 2.01910E-03 2.86973E-04-4.00290E-15
 -1      3599 1.95316E-03 3.19084E-04-3.69469E-15
 -1      3600 1.80918E-03 3.10487E-04-3.20496E-15
 -1      3601 9.70359E-03 3.23127E-05-8.46468E-14
 -1      3602 1.27657E-03 1.59156E-04-1.83639E-15
 -1      3603 3.24830E-03 3.49116E-04-9.68424E-15
 -1      3604 3.17325E-03 3.11107E-04-9.34670E-15
 -1      3605 3.39190E-03 3.49511E-04-1.05243E-14
 -1      3606 3.74863E-03 3.11703E-04-1.28532E-14
 -1      3607 3.67891E-03 3.49526E-04-1.23083E-14
 -1      3608 3.53544E-03 3.49638E-04-1.13989E-14
 -1      3609 1.20490E-02 1.05817E-03-1.07532E-13
 -1      3610 9.82648E-03-1.49568E-04-8.53085E-14
 -1      3611 1.25746E-03 4.77937E-05-1.87070E-15
 -1      3612 1.25672E-03 1.67201E-05-1.88030E-15
 -1      3613 1.38063E-03 6.71087E-05-2.19101E-15
 -1      3614 9.63219E-03-7.06018E-05-8.42885E-14
 -1      3615 1.78424E-03-2.41335E-04-3.38072E-15
 -1      3616 1.39131E-02 2.76592E-04-1.29351E-13
 -1      3617 1.53824E-03-1.92546E-04-2.62438E-15
 -1      3618 1.41682E-03-2.01581E-04-2.25616E-15
 -1      3619 1.41825E-02-3.35928E-04-1.30275E-13
 -1      3620 1.35037E-03-2.26385E-04-2.04452E-15
 -1      3621 1.29761E-03-1.00016E-04-1.98664E-15
 -1      3622 1.42188E-03-1.22600E-04-2.32259E-15
 -1      3623 1.28335E-03-7.08366E-05-1.95583E-15
 -1      3624 4.10624E-03 2.72905E-04-1.53944E-14
 -1      3625 3.96253E-03 2.73392E-04-1.43816E-14
 -1      3626 2.28565E-03-2.25253E-04-5.33173E-15
 -1      3627 2.43053E-03-2.28439E-04-5.96383E-15
 -1      3628 2.57543E-03-2.30963E-04-6.63026E-15
 -1      3629 2.72030E-03-2.32899E-04-7.33089E-15
 -1      3630 2.49965E-03-1.92729E-04-6.30613E-15
 -1      3631 2.86511E-03-2.34359E-04-8.06656E-15
 -1      3632 3.00983E-03-2.35394E-04-8.83716E-15
 -1      3633 2.78982E-03-1.96102E-04-7.70770E-15
 -1      3634 3.15446E-03-2.36095E-04-9.64232E-15
 -1      3635 3.29899E-03-2.36497E-04-1.04817E-14
 -1      3636 3.07973E-03-1.97917E-04-9.24765E-15
 -1      3637 3.44340E-03-2.36670E-04-1.13551E-14
 -1      3638 3.58769E-03-2.36636E-04-1.22617E-14
 -1      3639 3.36923E-03-1.98631E-04-1.09247E-14
 -1      3640 3.73187E-03-2.36447E-04-1.32028E-14
 -1      3641 3.87593E-03-2.36116E-04-1.41761E-14
 -1      3642 3.65822E-03-1.98587E-04-1.27374E-14
 -1      3643 4.01987E-03-2.35680E-04-1.51824E-14
 -1      3644 4.16370E-03-2.35144E-04-1.62221E-14
 -1      3645 3.94669E-03-1.98023E-04-1.46830E-14
 -1      3646 4.30742E-03-2.34532E-04-1.72932E-14
 -1      3647 4.45104E-03-2.33844E-04-1.83961E-14
 -1      3648 4.23464E-03-1.97100E-04-1.67594E-14
 -1      3649 4.59454E-03-2.33095E-04-1.95297E-14
 -1      3650 4.73794E-03-2.32280E-04-2.06955E-14
 -1      3651 4.52209E-03-1.95910E-04-1.89634E-14
 -1      3652 4.88124E-03-2.31406E-04-2.18933E-14
 -1      3653 5.02443E-03-2.30465E-04-2.31214E-14
 -1      3654 4.80905E-03-1.94498E-04-2.12937E-14
 -1      3655 5.16751E-03-2.29459E-04-2.43804E-14
 -1      3656 5.31048E-03-2.28377E-04-2.56715E-14
 -1      3657 5.09552E-03-1.92867E-04-2.37494E-14
 -1      3658 5.45333E-03-2.27216E-04-2.69935E-14
 -1      3659 5.59605E-03-2.25964E-04-2.83459E-14
 -1      3660 5.38146E-03-1.90991E-04-2.63296E-14
 -1      3661 5.73864E-03-2.24616E-04-2.97303E-14
 -1      3662 5.88108E-03-2.23157E-04-3.11458E-14
 -1      3663 5.66682E-03-1.88821E-04-2.90357E-14
 -1      3664 6.02334E-03-2.21584E-04-3.25919E-14
 -1      3665 6.16543E-03-2.19879E-04-3.40685E-14
 -1      3666 5.95151E-03-1.86298E-04-3.18652E-14
 -1      3667 6.30731E-03-2.18043E-04-3.55740E-14
 -1      3668 6.44897E-03-2.16054E-04-3.71107E-14
 -1      3669 6.23537E-03-1.83353E-04-3.48169E-14
 -1      3670 6.59036E-03-2.13921E-04-3.86775E-14
 -1      3671 6.73147E-03-2.11622E-04-4.02724E-14
 -1      3672 6.51821E-03-1.79927E-04-3.78892E-14
 -1      3673 6.87225E-03-2.09173E-04-4.18966E-14
 -1      3674 7.01268E-03-2.06553E-04-4.35487E-14
 -1      3675 6.79978E-03-1.75973E-04-4.10798E-14
 -1      3676 7.15270E-03-2.03794E-04-4.52304E-14
 -1      3677 7.29228E-03-2.00873E-04-4.69386E-14
 -1      3678 7.07975E-03-1.71480E-04-4.43847E-14
 -1      3679 7.43134E-03-1.97843E-04-4.86735E-14
 -1      3680 7.56988E-03-1.94683E-04-5.04354E-14
 -1      3681 7.35774E-03-1.66485E-04-4.78004E-14
 -1      3682 7.70779E-03-1.91471E-04-5.22222E-14
 -1      3683 7.84506E-03-1.88187E-04-5.40340E-14
 -1      3684 7.63329E-03-1.61093E-04-5.13224E-14
 -1      3685 7.98159E-03-1.84940E-04-5.58697E-14
 -1      3686 8.11737E-03-1.81714E-04-5.77308E-14
 -1      3687 7.90587E-03-1.55501E-04-5.49435E-14
 -1      3688 8.25229E-03-1.78650E-04-5.96168E-14
 -1      3689 8.38637E-03-1.75733E-04-6.15249E-14
 -1      3690 8.17492E-03-1.50001E-04-5.86641E-14
 -1      3691 8.51947E-03-1.73139E-04-6.34560E-14
 -1      3692 8.65169E-03-1.70855E-04-6.54109E-14
 -1      3693 8.43983E-03-1.44988E-04-6.24814E-14
 -1      3694 8.78286E-03-1.69084E-04-6.73869E-14
 -1      3695 8.91320E-03-1.67818E-04-6.93821E-14
 -1      3696 8.69999E-03-1.40933E-04-6.63892E-14
 -1      3697 9.04248E-03-1.67272E-04-7.13963E-14
 -1      3698 9.17118E-03-1.67484E-04-7.34320E-14
 -1      3699 8.95487E-03-1.38337E-04-7.03804E-14
 -1      3700 9.29897E-03-1.68667E-04-7.54853E-14
 -1      3701 9.42679E-03-1.70990E-04-7.75567E-14
 -1      3702 9.20415E-03-1.37688E-04-7.44491E-14
 -1      3703 9.55405E-03-1.74571E-04-7.96427E-14
 -1      3704 9.68259E-03-1.80058E-04-8.17448E-14
 -1      3705 9.44806E-03-1.39540E-04-7.85889E-14
 -1      3706 1.39769E-03 1.51022E-04-2.17135E-15
 -1      3707 5.25272E-03 2.66187E-04-2.46746E-14
 -1      3708 5.10972E-03 2.67286E-04-2.34008E-14
 -1      3709 4.96663E-03 2.68303E-04-2.21595E-14
 -1      3710 4.82345E-03 2.69249E-04-2.09505E-14
 -1      3711 5.03762E-03 2.30647E-04-2.28484E-14
 -1      3712 5.82371E-03 2.60834E-04-3.00931E-14
 -1      3713 5.68112E-03 2.62338E-04-2.86903E-14
 -1      3714 6.10848E-03 2.57432E-04-3.29901E-14
 -1      3715 5.96616E-03 2.59204E-04-3.15266E-14
 -1      3716 5.89418E-03 2.23763E-04-3.08760E-14
 -1      3717 6.39262E-03 2.53427E-04-3.60086E-14
 -1      3718 6.25063E-03 2.55513E-04-3.44846E-14
 -1      3719 6.17850E-03 2.20616E-04-3.38031E-14
 -1      3720 6.67600E-03 2.48738E-04-3.91464E-14
 -1      3721 6.53441E-03 2.51175E-04-3.75625E-14
 -1      3722 6.46200E-03 2.16908E-04-3.68501E-14
 -1      3723 6.95842E-03 2.43313E-04-4.23999E-14
 -1      3724 6.81733E-03 2.46124E-04-4.07589E-14
 -1      3725 6.74450E-03 2.12569E-04-4.00155E-14
 -1      3726 7.23969E-03 2.37148E-04-4.57681E-14
 -1      3727 7.09921E-03 2.40327E-04-4.40701E-14
 -1      3728 7.02575E-03 2.07554E-04-4.32979E-14
 -1      3729 7.51957E-03 2.30313E-04-4.92458E-14
 -1      3730 7.37980E-03 2.33814E-04-4.74928E-14
 -1      3731 7.30548E-03 2.01863E-04-4.66926E-14
 -1      3732 7.79784E-03 2.22984E-04-5.28267E-14
 -1      3733 7.65890E-03 2.26705E-04-5.10233E-14
 -1      3734 7.58339E-03 1.95558E-04-5.01950E-14
 -1      3735 8.07434E-03 2.15471E-04-5.65081E-14
 -1      3736 7.93630E-03 2.19237E-04-5.46564E-14
 -1      3737 7.85919E-03 1.88788E-04-5.38007E-14
 -1      3738 8.34902E-03 2.08254E-04-6.02857E-14
 -1      3739 8.21188E-03 2.11800E-04-5.83846E-14
 -1      3740 8.13261E-03 1.81810E-04-5.75045E-14
 -1      3741 8.62209E-03 2.02021E-04-6.41571E-14
 -1      3742 8.48570E-03 2.04973E-04-6.22102E-14
 -1      3743 8.40350E-03 1.75004E-04-6.13057E-14
 -1      3744 8.89420E-03 1.97717E-04-6.81165E-14
 -1      3745 8.75816E-03 1.99557E-04-6.61257E-14
 -1      3746 8.67191E-03 1.68889E-04-6.51981E-14
 -1      3747 9.16679E-03 1.96665E-04-7.21590E-14
 -1      3748 9.03024E-03 1.96654E-04-7.01271E-14
 -1      3749 8.93834E-03 1.64151E-04-6.91762E-14
 -1      3750 9.44254E-03 2.00824E-04-7.62756E-14
 -1      3751 9.30395E-03 1.97874E-04-7.42077E-14
 -1      3752 9.20403E-03 1.61731E-04-7.32365E-14
 -1      3753 9.71201E-03 2.11285E-04-8.02884E-14
 -1      3754 9.56919E-03 2.03668E-04-7.81861E-14
 -1      3755 9.45846E-03 1.61684E-04-7.71970E-14
 -1      3756 9.70392E-03 1.65280E-04-8.10445E-14
 -1      3757 1.69359E-03 2.90681E-04-2.86000E-15
 -1      3758 1.55849E-03 2.80451E-04-2.45612E-15
 -1      3759 1.52930E-03 2.22846E-04-2.46287E-15
 -1      3760 1.75940E-03 2.61177E-04-3.12983E-15
 -1      3761 5.53843E-03 2.63722E-04-2.73198E-14
 -1      3762 5.39562E-03 2.65004E-04-2.59808E-14
 -1      3763 5.60919E-03 2.26431E-04-2.80728E-14
 -1      3764 1.70748E-03-2.03513E-04-3.15660E-15
 -1      3765 1.85165E-03-2.10536E-04-3.64759E-15
 -1      3766 1.60612E-03-1.64441E-04-2.85667E-15
 -1      3767 9.59961E-03 1.61952E-05-8.31424E-14
 -1      3768 9.65672E-03 5.39113E-05-8.30011E-14
 -1      3769 9.59146E-03-8.48621E-05-8.28247E-14
 -1      3770 9.54563E-03-5.99124E-05-8.26265E-14
 -1      3771 1.99613E-03-2.16418E-04-4.17376E-15
 -1      3772 2.14083E-03-2.21279E-04-4.73520E-15
 -1      3773 2.20953E-03-1.87205E-04-5.04285E-15
 -1      3774 1.52948E-03 1.83551E-04-2.51595E-15
 -1      3775 1.51314E-03 1.30024E-04-2.52523E-15
 -1      3776 9.67404E-03 8.57317E-05-8.24010E-14
 -1      3777 9.69096E-03 1.28024E-04-8.16501E-14
 -1      3778 9.57316E-03 1.27851E-04-7.97157E-14
 -1      3779 9.55522E-03 6.39950E-05-8.09127E-14
 -1      3780 4.24987E-03 2.72329E-04-1.64401E-14
 -1      3781 4.17691E-03 2.34905E-04-1.59814E-14
 -1      3782 4.39339E-03 2.71665E-04-1.75184E-14
 -1      3783 1.64394E-03 2.01496E-04-2.84573E-15
 -1      3784 2.59653E-03 3.04774E-04-6.39460E-15
 -1      3785 2.37531E-03 2.63031E-04-5.48392E-15
 -1      3786 2.23065E-03 2.59074E-04-4.88321E-15
 -1      3787 9.49749E-03-4.51400E-05-8.18155E-14
 -1      3788 9.45796E-03-3.10690E-05-8.10055E-14
 -1      3789 9.44201E-03-5.73104E-05-8.03658E-14
 -1      3790 9.52712E-03 5.12304E-06-8.19852E-14
 -1      3791 2.08605E-03 2.54171E-04-4.31775E-15
 -1      3792 1.94156E-03 2.48214E-04-3.78701E-15
 -1      3793 2.15390E-03 2.20692E-04-4.63879E-15
 -1      3794 3.46111E-03 3.11881E-04-1.10315E-14
 -1      3795 3.81871E-03 2.73761E-04-1.34014E-14
 -1      3796 3.67480E-03 2.74003E-04-1.24544E-14
 -1      3797 3.88913E-03 2.35748E-04-1.39524E-14
 -1      3798 9.75204E-03-1.57275E-04-8.36514E-14
 -1      3799 9.63589E-03-1.19586E-04-8.25801E-14
 -1      3800 1.50489E-03 8.78747E-05-2.53553E-15
 -1      3801 1.50323E-03 5.31176E-05-2.55225E-15
 -1      3802 1.39160E-03 4.66487E-06-2.24756E-15
 -1      3803 1.26913E-03-1.11283E-05-1.91885E-15
 -1      3804 1.28211E-03-3.93635E-05-1.95506E-15
 -1      3805 1.59024E-03-1.31214E-04-2.82475E-15
 -1      3806 1.75956E-03-1.38717E-04-3.37543E-15
 -1      3807 1.57514E-03-9.85082E-05-2.78973E-15
 -1      3808 5.32365E-03 2.28702E-04-2.53955E-14
 -1      3809 3.24244E-03 2.73604E-04-9.81943E-15
 -1      3810 3.09812E-03 2.72968E-04-9.00941E-15
 -1      3811 4.68019E-03 2.70122E-04-1.97738E-14
 -1      3812 4.53684E-03 2.70930E-04-1.86297E-14
 -1      3813 4.46424E-03 2.33742E-04-1.81399E-14
 -1      3814 1.91994E-03-1.78822E-04-3.91943E-15
 -1      3815 9.52743E-03-1.04516E-04-8.09299E-14
 -1      3816 1.63576E-03 1.17058E-04-2.91471E-15
 -1      3817 3.02299E-03 2.34743E-04-8.67355E-15
 -1      3818 2.95370E-03 2.71974E-04-8.23496E-15
 -1      3819 2.80919E-03 2.70579E-04-7.49472E-15
 -1      3820 4.75114E-03 2.32319E-04-2.04294E-14
 -1      3821 1.63943E-03 4.12555E-05-2.97826E-15
 -1      3822 1.51507E-03 2.22354E-05-2.60100E-15
 -1      3823 1.52756E-03-8.87806E-06-2.64728E-15
 -1      3824 2.71480E-03-1.57945E-04-7.35233E-15
 -1      3825 2.86002E-03-1.58978E-04-8.08702E-15
 -1      3826 3.00517E-03-1.59727E-04-8.85678E-15
 -1      3827 3.15022E-03-1.60218E-04-9.66047E-15
 -1      3828 2.93084E-03-1.21579E-04-8.46958E-15
 -1      3829 3.29515E-03-1.60513E-04-1.04981E-14
 -1      3830 3.43995E-03-1.60625E-04-1.13700E-14
 -1      3831 3.22122E-03-1.22350E-04-1.00754E-14
 -1      3832 3.58461E-03-1.60606E-04-1.22758E-14
 -1      3833 3.72913E-03-1.60460E-04-1.32146E-14
 -1      3834 3.51109E-03-1.22529E-04-1.18174E-14
 -1      3835 3.87351E-03-1.60225E-04-1.41864E-14
 -1      3836 4.01775E-03-1.59902E-04-1.51914E-14
 -1      3837 3.80038E-03-1.22302E-04-1.36934E-14
 -1      3838 4.16185E-03-1.59517E-04-1.62289E-14
 -1      3839 4.30580E-03-1.59069E-04-1.72991E-14
 -1      3840 4.08907E-03-1.21794E-04-1.57015E-14
 -1      3841 4.44962E-03-1.58574E-04-1.83996E-14
 -1      3842 4.59330E-03-1.58027E-04-1.95318E-14
 -1      3843 4.37716E-03-1.21087E-04-1.78389E-14
 -1      3844 4.73685E-03-1.57439E-04-2.06968E-14
 -1      3845 4.88025E-03-1.56803E-04-2.18932E-14
 -1      3846 4.66465E-03-1.20226E-04-2.01036E-14
 -1      3847 5.02352E-03-1.56125E-04-2.31206E-14
 -1      3848 5.16665E-03-1.55395E-04-2.43790E-14
 -1      3849 4.95154E-03-1.19225E-04-2.24938E-14
 -1      3850 5.30962E-03-1.54616E-04-2.56689E-14
 -1      3851 5.45244E-03-1.53776E-04-2.69902E-14
 -1      3852 5.23782E-03-1.18076E-04-2.50098E-14
 -1      3853 5.59508E-03-1.52876E-04-2.83425E-14
 -1      3854 5.73755E-03-1.51903E-04-2.97259E-14
 -1      3855 5.52342E-03-1.16757E-04-2.76523E-14
 -1      3856 5.87981E-03-1.50858E-04-3.11401E-14
 -1      3857 6.02186E-03-1.49725E-04-3.25863E-14
 -1      3858 5.80825E-03-1.15233E-04-3.04179E-14
 -1      3859 6.16366E-03-1.48509E-04-3.40624E-14
 -1      3860 6.30519E-03-1.47190E-04-3.55673E-14
 -1      3861 6.09216E-03-1.13465E-04-3.33080E-14
 -1      3862 6.44642E-03-1.45778E-04-3.71039E-14
 -1      3863 6.58732E-03-1.44251E-04-3.86696E-14
 -1      3864 6.37495E-03-1.11413E-04-3.63203E-14
 -1      3865 6.72783E-03-1.42626E-04-4.02647E-14
 -1      3866 6.86793E-03-1.40878E-04-4.18884E-14
 -1      3867 6.65635E-03-1.09049E-04-3.94513E-14
 -1      3868 7.00755E-03-1.39038E-04-4.35409E-14
 -1      3869 7.14666E-03-1.37076E-04-4.52218E-14
 -1      3870 6.93601E-03-1.06358E-04-4.26988E-14
 -1      3871 7.28517E-03-1.35037E-04-4.69292E-14
 -1      3872 7.42305E-03-1.32889E-04-4.86630E-14
 -1      3873 7.21351E-03-1.03356E-04-4.60586E-14
 -1      3874 7.56019E-03-1.30699E-04-5.04237E-14
 -1      3875 7.69656E-03-1.28428E-04-5.22089E-14
 -1      3876 7.48834E-03-1.00098E-04-4.95270E-14
 -1      3877 7.83205E-03-1.26168E-04-5.40197E-14
 -1      3878 7.96659E-03-1.23873E-04-5.58561E-14
 -1      3879 7.75990E-03-9.66909E-05-5.30971E-14
 -1      3880 8.10007E-03-1.21663E-04-5.77164E-14
 -1      3881 8.23244E-03-1.19480E-04-5.96011E-14
 -1      3882 8.02748E-03-9.32983E-05-5.67694E-14
 -1      3883 8.36353E-03-1.17478E-04-6.15090E-14
 -1      3884 8.49331E-03-1.15572E-04-6.34397E-14
 -1      3885 8.29025E-03-9.01406E-05-6.05386E-14
 -1      3886 8.62157E-03-1.13954E-04-6.53929E-14
 -1      3887 8.74832E-03-1.12491E-04-6.73678E-14
 -1      3888 8.54723E-03-8.74723E-05-6.43988E-14
 -1      3889 8.87325E-03-1.11426E-04-6.93636E-14
 -1      3890 8.99645E-03-1.10547E-04-7.13787E-14
 -1      3891 8.79718E-03-8.55303E-05-6.83460E-14
 -1      3892 9.11746E-03-1.10153E-04-7.34132E-14
 -1      3893 9.23651E-03-1.09901E-04-7.54667E-14
 -1      3894 9.03856E-03-8.44640E-05-7.23777E-14
 -1      3895 9.32767E-03-1.06913E-04-7.71441E-14
 -1      3896 9.44182E-03-1.07029E-04-7.92267E-14
 -1      3897 9.41641E-03-7.55822E-05-7.94669E-14
 -1      3898 9.24550E-03-8.12528E-05-7.60919E-14
 -1      3899 5.10865E-03 1.93094E-04-2.35380E-14
 -1      3900 4.96549E-03 1.93867E-04-2.22968E-14
 -1      3901 6.24837E-03 1.84129E-04-3.46171E-14
 -1      3902 6.10657E-03 1.85602E-04-3.31235E-14
 -1      3903 5.96455E-03 1.86951E-04-3.16603E-14
 -1      3904 5.82231E-03 1.88196E-04-3.02283E-14
 -1      3905 6.03482E-03 1.50426E-04-3.24470E-14
 -1      3906 6.81275E-03 1.76910E-04-4.08869E-14
 -1      3907 6.67213E-03 1.78936E-04-3.92748E-14
 -1      3908 7.09277E-03 1.72413E-04-4.41985E-14
 -1      3909 6.95297E-03 1.74745E-04-4.25292E-14
 -1      3910 6.88081E-03 1.41793E-04-4.17617E-14
 -1      3911 7.37092E-03 1.67311E-04-4.76191E-14
 -1      3912 7.23210E-03 1.69945E-04-4.58945E-14
 -1      3913 7.15958E-03 1.37919E-04-4.51001E-14
 -1      3914 7.64682E-03 1.61652E-04-5.11453E-14
 -1      3915 7.50916E-03 1.64557E-04-4.93692E-14
 -1      3916 7.43612E-03 1.33517E-04-4.85466E-14
 -1      3917 7.92008E-03 1.55554E-04-5.47761E-14
 -1      3918 7.78379E-03 1.58662E-04-5.29488E-14
 -1      3919 7.70998E-03 1.28619E-04-5.20995E-14
 -1      3920 8.19032E-03 1.49208E-04-5.85039E-14
 -1      3921 8.05558E-03 1.52414E-04-5.66279E-14
 -1      3922 7.98067E-03 1.23299E-04-5.57525E-14
 -1      3923 8.45726E-03 1.42886E-04-6.23253E-14
 -1      3924 8.32419E-03 1.46044E-04-6.04020E-14
 -1      3925 8.24769E-03 1.17680E-04-5.95035E-14
 -1      3926 8.72073E-03 1.36931E-04-6.62401E-14
 -1      3927 8.58939E-03 1.39860E-04-6.42722E-14
 -1      3928 8.51055E-03 1.11916E-04-6.33481E-14
 -1      3929 8.98092E-03 1.31770E-04-7.02386E-14
 -1      3930 8.85114E-03 1.34236E-04-6.82296E-14
 -1      3931 8.76882E-03 1.06167E-04-6.72834E-14
 -1      3932 9.23846E-03 1.27972E-04-7.43151E-14
 -1      3933 9.10985E-03 1.29684E-04-7.22660E-14
 -1      3934 9.02226E-03 1.00570E-04-7.12989E-14
 -1      3935 1.85012E-03 2.33828E-04-3.48483E-15
 -1      3936 1.73496E-03 2.16193E-04-3.12040E-15
 -1      3937 1.73567E-03 1.74935E-04-3.17762E-15
 -1      3938 1.91784E-03 2.02307E-04-3.77233E-15
 -1      3939 1.90390E-03-1.43297E-04-3.88182E-15
 -1      3940 2.04863E-03-1.47123E-04-4.42300E-15
 -1      3941 1.88859E-03-1.08112E-04-3.84004E-15
 -1      3942 3.53078E-03 2.74077E-04-1.15419E-14
 -1      3943 3.38667E-03 2.73964E-04-1.06640E-14
 -1      3944 3.31217E-03 2.35916E-04-1.02965E-14
 -1      3945 3.60088E-03 2.36152E-04-1.20567E-14
 -1      3946 6.53118E-03 1.80803E-04-3.76931E-14
 -1      3947 6.38991E-03 1.82537E-04-3.61406E-14
 -1      3948 6.31812E-03 1.48003E-04-3.54327E-14
 -1      3949 2.19361E-03-1.50289E-04-4.99903E-15
 -1      3950 2.33876E-03-1.52854E-04-5.61014E-15
 -1      3951 2.17834E-03-1.13574E-04-4.95110E-15
 -1      3952 1.72616E-03 1.29635E-04-3.19619E-15
 -1      3953 1.71799E-03 8.48510E-05-3.20752E-15
 -1      3954 1.81685E-03 1.42343E-04-3.49048E-15
 -1      3955 9.45171E-03-8.96506E-06-8.06918E-14
 -1      3956 9.45654E-03 1.89409E-05-8.02197E-14
 -1      3957 4.82220E-03 1.94579E-04-2.10868E-14
 -1      3958 4.67879E-03 1.95240E-04-1.99092E-14
 -1      3959 4.89335E-03 1.56934E-04-2.17462E-14
 -1      3960 2.45414E-03-1.54851E-04-6.11987E-15
 -1      3961 2.59941E-03-1.56547E-04-6.79311E-15
 -1      3962 2.67002E-03-1.19852E-04-7.14534E-15
 -1      3963 2.43903E-03-1.17220E-04-6.06549E-15
 -1      3964 2.66461E-03 2.68677E-04-6.78933E-15
 -1      3965 2.51998E-03 2.66206E-04-6.11940E-15
 -1      3966 2.44364E-03 2.27770E-04-5.84484E-15
 -1      3967 2.73343E-03 2.32214E-04-7.18976E-15
 -1      3968 1.40531E-03-5.82507E-05-2.29168E-15
 -1      3969 5.39457E-03 1.91364E-04-2.61186E-14
 -1      3970 5.25168E-03 1.92264E-04-2.48124E-14
 -1      3971 5.17972E-03 1.55674E-04-2.42307E-14
 -1      3972 5.67990E-03 1.89338E-04-2.88274E-14
 -1      3973 5.53731E-03 1.90394E-04-2.74574E-14
 -1      3974 5.46548E-03 1.54202E-04-2.68435E-14
 -1      3975 9.36186E-03-5.95719E-05-7.86666E-14
 -1      3976 9.37901E-03-1.96001E-05-7.92506E-14
 -1      3977 2.51279E-03 1.92016E-04-6.21129E-15
 -1      3978 2.36768E-03 1.89592E-04-5.57140E-15
 -1      3979 2.22263E-03 1.86550E-04-4.96607E-15
 -1      3980 2.07770E-03 1.82822E-04-4.39544E-15
 -1      3981 2.29216E-03 1.51778E-04-5.29947E-15
 -1      3982 6.60021E-03 1.45143E-04-3.85374E-14
 -1      3983 3.95987E-03 1.97681E-04-1.45075E-14
 -1      3984 3.81570E-03 1.97956E-04-1.35245E-14
 -1      3985 5.75056E-03 1.52471E-04-2.95830E-14
 -1      3986 9.36559E-03 2.59715E-05-7.83516E-14
 -1      3987 9.45526E-03 4.31728E-05-7.96306E-14
 -1      3988 9.45769E-03 7.03244E-05-7.90384E-14
 -1      3989 9.34830E-03 1.02981E-04-7.65338E-14
 -1      3990 9.25672E-03 7.38213E-05-7.55432E-14
 -1      3991 1.55017E-03-3.57218E-05-2.71953E-15
 -1      3992 1.55137E-03-7.07984E-05-2.72201E-15
 -1      3993 1.72035E-03-7.55577E-05-3.26251E-15
 -1      3994 1.67402E-03-1.88688E-05-3.10894E-15
 -1      3995 4.24781E-03 1.96893E-04-1.65707E-14
 -1      3996 4.10391E-03 1.97327E-04-1.55228E-14
 -1      3997 4.03089E-03 1.59602E-04-1.50654E-14
 -1      3998 1.72931E-03 5.18104E-05-3.26631E-15
 -1      3999 1.74133E-03 1.86239E-05-3.32168E-15
 -1      4000 1.81950E-03 6.27029E-05-3.56688E-15
 -1      4001 4.53526E-03 1.95845E-04-1.87639E-14
 -1      4002 4.39160E-03 1.96400E-04-1.76507E-14
 -1      4003 4.31893E-03 1.58907E-04-1.71635E-14
 -1      4004 3.09290E-03 1.97259E-04-9.11763E-15
 -1      4005 2.94799E-03 1.96491E-04-8.33933E-15
 -1      4006 3.38240E-03 1.98058E-04-1.07782E-14
 -1      4007 3.23771E-03 1.97774E-04-9.93053E-15
 -1      4008 3.16337E-03 1.59578E-04-9.56632E-15
 -1      4009 4.60642E-03 1.58010E-04-1.93903E-14
 -1      4010 2.80298E-03 1.95394E-04-7.59555E-15
 -1      4011 2.65790E-03 1.93934E-04-6.88615E-15
 -1      4012 2.58267E-03 1.55818E-04-6.58376E-15
 -1      4013 3.14753E-03-8.41951E-05-9.65630E-15
 -1      4014 3.29270E-03-8.43375E-05-1.04919E-14
 -1      4015 3.43774E-03-8.43931E-05-1.13621E-14
 -1      4016 3.58263E-03-8.43634E-05-1.22665E-14
 -1      4017 3.36462E-03-4.62238E-05-1.09106E-14
 -1      4018 3.72737E-03-8.42774E-05-1.32035E-14
 -1      4019 3.87195E-03-8.41303E-05-1.41737E-14
 -1      4020 3.65452E-03-4.61746E-05-1.27168E-14
 -1      4021 4.01638E-03-8.39445E-05-1.51771E-14
 -1      4022 4.16064E-03-8.37158E-05-1.62128E-14
 -1      4023 3.94379E-03-4.59803E-05-1.46558E-14
 -1      4024 4.30474E-03-8.34608E-05-1.72811E-14
 -1      4025 4.44869E-03-8.31727E-05-1.83805E-14
 -1      4026 4.23241E-03-4.57000E-05-1.67258E-14
 -1      4027 4.59248E-03-8.28631E-05-1.95123E-14
 -1      4028 4.73612E-03-8.25249E-05-2.06757E-14
 -1      4029 4.52037E-03-4.53517E-05-1.89247E-14
 -1      4030 4.87959E-03-8.21662E-05-2.18709E-14
 -1      4031 5.02291E-03-8.17790E-05-2.30970E-14
 -1      4032 4.80769E-03-4.49465E-05-2.12499E-14
 -1      4033 5.16606E-03-8.13688E-05-2.43536E-14
 -1      4034 5.30903E-03-8.09271E-05-2.56433E-14
 -1      4035 5.09434E-03-4.44863E-05-2.37000E-14
 -1      4036 5.45182E-03-8.04578E-05-2.69634E-14
 -1      4037 5.59441E-03-7.99514E-05-2.83152E-14
 -1      4038 5.38029E-03-4.39660E-05-2.62774E-14
 -1      4039 5.73679E-03-7.94116E-05-2.96989E-14
 -1      4040 5.87895E-03-7.88278E-05-3.11128E-14
 -1      4041 5.66544E-03-4.33755E-05-2.89812E-14
 -1      4042 6.02084E-03-7.82048E-05-3.25575E-14
 -1      4043 6.16245E-03-7.75302E-05-3.40322E-14
 -1      4044 5.94967E-03-4.27028E-05-3.18091E-14
 -1      4045 6.30375E-03-7.68121E-05-3.55390E-14
 -1      4046 6.44471E-03-7.60355E-05-3.70745E-14
 -1      4047 6.23279E-03-4.19364E-05-3.47589E-14
 -1      4048 6.58527E-03-7.52138E-05-3.86399E-14
 -1      4049 6.72540E-03-7.43291E-05-4.02344E-14
 -1      4050 6.51453E-03-4.10689E-05-3.78300E-14
 -1      4051 6.86505E-03-7.34026E-05-4.18579E-14
 -1      4052 7.00416E-03-7.24125E-05-4.35110E-14
 -1      4053 6.79457E-03-4.01010E-05-4.10190E-14
 -1      4054 7.14267E-03-7.13912E-05-4.51909E-14
 -1      4055 7.28052E-03-7.03117E-05-4.68981E-14
 -1      4056 7.07250E-03-3.90471E-05-4.43244E-14
 -1      4057 7.41761E-03-6.92214E-05-4.86316E-14
 -1      4058 7.55390E-03-6.80861E-05-5.03902E-14
 -1      4059 7.34781E-03-3.79413E-05-4.77381E-14
 -1      4060 7.68927E-03-6.69729E-05-5.21753E-14
 -1      4061 7.82366E-03-6.58366E-05-5.39862E-14
 -1      4062 7.61990E-03-3.68439E-05-5.12555E-14
 -1      4063 7.95692E-03-6.47696E-05-5.58226E-14
 -1      4064 8.08900E-03-6.37095E-05-5.76839E-14
 -1      4065 7.88807E-03-3.58473E-05-5.48763E-14
 -1      4066 8.21970E-03-6.27807E-05-5.95676E-14
 -1      4067 8.34897E-03-6.18914E-05-6.14753E-14
 -1      4068 8.15145E-03-3.50792E-05-5.85971E-14
 -1      4069 8.47657E-03-6.12093E-05-6.34061E-14
 -1      4070 8.60241E-03-6.05883E-05-6.53572E-14
 -1      4071 8.40901E-03-3.47005E-05-6.24132E-14
 -1      4072 8.72618E-03-6.02607E-05-6.73326E-14
 -1      4073 8.84775E-03-5.99704E-05-6.93277E-14
 -1      4074 8.65941E-03-3.48929E-05-6.63181E-14
 -1      4075 8.96668E-03-6.00648E-05-7.13430E-14
 -1      4076 9.08284E-03-6.01151E-05-7.33778E-14
 -1      4077 8.90073E-03-3.58230E-05-7.03087E-14
 -1      4078 9.18184E-03-6.09699E-05-7.51722E-14
 -1      4079 9.26928E-03-5.84443E-05-7.68478E-14
 -1      4080 9.30567E-03-4.06273E-05-7.77359E-14
 -1      4081 9.11648E-03-3.77240E-05-7.41213E-14
 -1      4082 5.82119E-03 1.15852E-04-3.03403E-14
 -1      4083 5.67890E-03 1.16575E-04-2.89399E-14
 -1      4084 9.28485E-03 1.06555E-05-7.70848E-14
 -1      4085 9.27183E-03 3.30936E-05-7.65043E-14
 -1      4086 7.22635E-03 1.04090E-04-4.60031E-14
 -1      4087 7.08787E-03 1.05727E-04-4.43066E-14
 -1      4088 6.94881E-03 1.07236E-04-4.26381E-14
 -1      4089 6.80922E-03 1.08652E-04-4.09955E-14
 -1      4090 7.01685E-03 7.32604E-05-4.35145E-14
 -1      4091 7.77318E-03 9.64682E-05-5.30536E-14
 -1      4092 7.63766E-03 9.85494E-05-5.12515E-14
 -1      4093 8.04135E-03 9.20366E-05-5.67309E-14
 -1      4094 7.90775E-03 9.43171E-05-5.48800E-14
 -1      4095 7.83661E-03 6.52153E-05-5.40081E-14
 -1      4096 8.30519E-03 8.72520E-05-6.05040E-14
 -1      4097 8.17383E-03 8.97064E-05-5.86064E-14
 -1      4098 8.10237E-03 6.17803E-05-5.77095E-14
 -1      4099 8.56399E-03 8.21628E-05-6.43714E-14
 -1      4100 8.43523E-03 8.47704E-05-6.24257E-14
 -1      4101 8.36314E-03 5.79437E-05-6.15076E-14
 -1      4102 8.81696E-03 7.67749E-05-6.83266E-14
 -1      4103 8.69120E-03 7.95467E-05-6.63385E-14
 -1      4104 8.61797E-03 5.36621E-05-6.53951E-14
 -1      4105 9.06317E-03 7.09572E-05-7.23624E-14
 -1      4106 8.94088E-03 7.39820E-05-7.03361E-14
 -1      4107 8.86566E-03 4.88141E-05-6.93704E-14
 -1      4108 9.45625E-03 1.28519E-04-7.77970E-14
 -1      4109 1.99267E-03 1.68952E-04-4.09087E-15
 -1      4110 1.90156E-03 1.56094E-04-3.77325E-15
 -1      4111 1.89275E-03 1.09402E-04-3.78992E-15
 -1      4112 2.06213E-03 1.35680E-04-4.39247E-15
 -1      4113 3.67140E-03 1.98120E-04-1.25753E-14
 -1      4114 3.52697E-03 1.98169E-04-1.16599E-14
 -1      4115 3.74228E-03 1.60029E-04-1.30977E-14
 -1      4116 9.28967E-03-1.73144E-05-7.74263E-14
 -1      4117 5.25084E-03 1.18406E-04-2.49261E-14
 -1      4118 5.10779E-03 1.18926E-04-2.36514E-14
 -1      4119 4.96459E-03 1.19403E-04-2.24081E-14
 -1      4120 4.82123E-03 1.19848E-04-2.11977E-14
 -1      4121 5.03590E-03 8.20104E-05-2.30730E-14
 -1      4122 2.10406E-03-7.70148E-05-4.66002E-15
 -1      4123 2.24925E-03-7.85539E-05-5.24967E-15
 -1      4124 2.87317E-03 1.58270E-04-8.00644E-15
 -1      4125 4.67772E-03 1.20253E-04-2.00190E-14
 -1      4126 4.53406E-03 1.20629E-04-1.88726E-14
 -1      4127 4.74914E-03 8.26028E-05-2.06502E-14
 -1      4128 9.16539E-03 5.55219E-05-7.42947E-14
 -1      4129 7.50132E-03 1.00497E-04-4.94754E-14
 -1      4130 7.36418E-03 1.02360E-04-4.77271E-14
 -1      4131 7.56666E-03 6.82658E-05-5.04071E-14
 -1      4132 1.83957E-03-7.55530E-05-3.67180E-15
 -1      4133 1.98418E-03-7.78077E-05-4.19848E-15
 -1      4134 2.05548E-03-4.37397E-05-4.47044E-15
 -1      4135 1.81609E-03-4.62054E-05-3.59097E-15
 -1      4136 6.10506E-03 1.14210E-04-3.32344E-14
 -1      4137 5.96325E-03 1.15070E-04-3.17727E-14
 -1      4138 5.89182E-03 7.95014E-05-3.11001E-14
 -1      4139 2.85684E-03-8.35425E-05-8.08594E-15
 -1      4140 3.00223E-03-8.39323E-05-8.85407E-15
 -1      4141 3.07414E-03-4.60846E-05-9.24055E-15
 -1      4142 6.66917E-03 1.09949E-04-3.93847E-14
 -1      4143 6.52868E-03 1.11157E-04-3.78027E-14
 -1      4144 6.73813E-03 7.52423E-05-4.02338E-14
 -1      4145 5.53640E-03 1.17235E-04-2.75701E-14
 -1      4146 5.39371E-03 1.17846E-04-2.62317E-14
 -1      4147 5.60734E-03 8.04850E-05-2.82988E-14
 -1      4148 6.38781E-03 1.12259E-04-3.62497E-14
 -1      4149 6.24659E-03 1.13280E-04-3.47265E-14
 -1      4150 6.17528E-03 7.83253E-05-3.40244E-14
 -1      4151 6.45748E-03 7.69185E-05-3.70700E-14
 -1      4152 3.81351E-03 1.21896E-04-1.36233E-14
 -1      4153 3.66894E-03 1.21993E-04-1.26718E-14
 -1      4154 2.36248E-03 1.16403E-04-5.63887E-15
 -1      4155 2.21721E-03 1.14461E-04-5.02949E-15
 -1      4156 2.29097E-03-4.30581E-05-5.42456E-15
 -1      4157 2.36471E-03-7.98939E-05-5.74295E-15
 -1      4158 2.48024E-03-8.10628E-05-6.25758E-15
 -1      4159 2.61076E-03-8.20140E-05-6.86518E-15
 -1      4160 2.72633E-03-8.28872E-05-7.42634E-15
 -1      4161 2.79819E-03-4.55346E-05-7.78265E-15
 -1      4162 2.53703E-03-4.45443E-05-6.51662E-15
 -1      4163 9.19574E-03-1.14465E-05-7.55871E-14
 -1      4164 1.79314E-03-1.72305E-05-3.50817E-15
 -1      4165 1.88306E-03-7.74412E-06-3.82225E-15
 -1      4166 7.29320E-03 7.09426E-05-4.69090E-14
 -1      4167 4.10218E-03 1.21528E-04-1.56265E-14
 -1      4168 3.95792E-03 1.21745E-04-1.46087E-14
 -1      4169 3.88503E-03 8.37655E-05-1.41527E-14
 -1      4170 5.32199E-03 8.13115E-05-2.56226E-14
 -1      4171 3.45310E-03 1.60081E-04-1.12642E-14
 -1      4172 9.08983E-03 3.14112E-05-7.33114E-14
 -1      4173 2.94398E-03 1.20862E-04-8.42154E-15
 -1      4174 2.79865E-03 1.20156E-04-7.67425E-15
 -1      4175 1.90369E-03 7.49232E-05-3.85668E-15
 -1      4176 1.91534E-03 4.03621E-05-3.91985E-15
 -1      4177 1.98810E-03 8.74010E-05-4.15701E-15
 -1      4178 2.65326E-03 1.19196E-04-6.96143E-15
 -1      4179 2.50785E-03 1.17970E-04-6.28272E-15
 -1      4180 2.43351E-03 8.04691E-05-5.98415E-15
 -1      4181 4.39025E-03 1.20966E-04-1.77581E-14
 -1      4182 4.24629E-03 1.21270E-04-1.66759E-14
 -1      4183 4.17370E-03 8.34943E-05-1.61901E-14
 -1      4184 3.23436E-03 1.21717E-04-1.00186E-14
 -1      4185 3.08923E-03 1.21380E-04-9.20291E-15
 -1      4186 3.01535E-03 8.32202E-05-8.84141E-15
 -1      4187 4.46173E-03 8.30988E-05-1.83564E-14
 -1      4188 9.09905E-03-9.36181E-06-7.37877E-14
 -1      4189 7.04385E-03 1.68644E-05-4.39268E-14
 -1      4190 6.90509E-03 1.71469E-05-4.22662E-14
 -1      4191 3.58189E-03-8.02544E-06-1.22335E-14
 -1      4192 3.72672E-03-7.97952E-06-1.31691E-14
 -1      4193 3.91406E-03 1.88735E-05-1.44116E-14
 -1      4194 4.05850E-03 1.88788E-05-1.54229E-14
 -1      4195 4.20277E-03 1.88654E-05-1.64655E-14
 -1      4196 4.34689E-03 1.88559E-05-1.75408E-14
 -1      4197 4.49083E-03 1.88319E-05-1.86485E-14
 -1      4198 4.63462E-03 1.88107E-05-1.97865E-14
 -1      4199 4.77823E-03 1.87767E-05-2.09574E-14
 -1      4200 4.92169E-03 1.87445E-05-2.21606E-14
 -1      4201 5.06497E-03 1.86997E-05-2.33948E-14
 -1      4202 5.20807E-03 1.86554E-05-2.46604E-14
 -1      4203 5.35098E-03 1.85974E-05-2.59576E-14
 -1      4204 5.49371E-03 1.85385E-05-2.72862E-14
 -1      4205 5.63621E-03 1.84632E-05-2.86469E-14
 -1      4206 5.77849E-03 1.83857E-05-3.00395E-14
 -1      4207 5.92052E-03 1.82876E-05-3.14622E-14
 -1      4208 6.06228E-03 1.81862E-05-3.29146E-14
 -1      4209 6.20373E-03 1.80581E-05-3.43989E-14
 -1      4210 6.34484E-03 1.79259E-05-3.59128E-14
 -1      4211 6.48558E-03 1.77588E-05-3.74579E-14
 -1      4212 6.62590E-03 1.75870E-05-3.90309E-14
 -1      4213 6.76575E-03 1.73694E-05-4.06333E-14
 -1      4214 7.18196E-03 1.65768E-05-4.56166E-14
 -1      4215 7.31937E-03 1.62107E-05-4.73312E-14
 -1      4216 7.45600E-03 1.58394E-05-4.90713E-14
 -1      4217 7.59175E-03 1.53653E-05-5.08383E-14
 -1      4218 7.72655E-03 1.48859E-05-5.26305E-14
 -1      4219 7.86029E-03 1.42715E-05-5.44488E-14
 -1      4220 7.99287E-03 1.36518E-05-5.62924E-14
 -1      4221 8.12418E-03 1.28533E-05-5.81603E-14
 -1      4222 8.25409E-03 1.20509E-05-6.00521E-14
 -1      4223 8.38245E-03 1.10083E-05-6.19664E-14
 -1      4224 8.50910E-03 9.96829E-06-6.39029E-14
 -1      4225 8.63387E-03 8.59807E-06-6.58621E-14
 -1      4226 8.75652E-03 7.25314E-06-6.78437E-14
 -1      4227 8.87683E-03 5.42398E-06-6.98459E-14
 -1      4228 8.99446E-03 3.72062E-06-7.18681E-14
 -1      4229 1.96693E-03 3.27719E-06-4.12493E-15
 -1      4230 2.08690E-03 5.72331E-06-4.58123E-15
 -1      4231 3.52423E-03 1.22004E-04-1.17536E-14
 -1      4232 3.37937E-03 1.21924E-04-1.08693E-14
 -1      4233 3.59574E-03 8.38726E-05-1.22472E-14
 -1      4234 2.72449E-03 8.22018E-05-7.34392E-15
 -1      4235 3.33466E-03 1.87663E-05-1.07002E-14
 -1      4236 3.47974E-03 1.88170E-05-1.15778E-14
 -1      4237 3.04409E-03 1.86154E-05-9.04761E-15
 -1      4238 3.18944E-03 1.87103E-05-9.85692E-15
 -1      4239 2.14368E-03 6.56282E-05-4.77367E-15
 -1      4240 2.07269E-03 1.00079E-04-4.46796E-15
 -1      4241 2.23092E-03 1.81107E-05-5.15522E-15
 -1      4242 2.89863E-03 1.85122E-05-8.27269E-15
 -1      4243 2.76807E-03 1.85389E-05-7.60644E-15
 -1      4244 2.62250E-03 1.83684E-05-6.89630E-15
 -1      4245 2.38090E-03 3.99700E-05-5.78143E-15
 -1      4246 2.32482E-03-2.15178E-05-5.56487E-15
 -1      4247 3.30582E-03 8.37239E-05-1.04757E-14
 -1      4248 3.84205E-03 5.69874E-05-1.38881E-14
 -1      4249 3.69740E-03 5.70235E-05-1.29279E-14
 -1      4250 3.55258E-03 5.70227E-05-1.20007E-14
 -1      4251 2.52641E-03 4.05062E-05-6.43390E-15
 -1      4252 2.44037E-03-2.20796E-05-6.07155E-15
 -1      4253 2.57095E-03-2.24492E-05-6.66965E-15
 -3
    1PSTEP                         2           1           1          
  100CL  101 1.000000000        4253                     0    1           1
 -4  STRESS      6    1
 -5  SXX         1    4    1    1
 -5  SYY         1    4    2    2
 -5  SZZ         1    4    3    3
 -5  SXY         1    4    1    2
 -5  SYZ         1    4    2    3
 -5  SZX         1    4    3    1
 -1         1 4.53870E+01 9.23706E+00 2.62598E+00-1.95281E+01-5.85532E-13 1.35741E-12
 -1         2-8.03184E-01-2.82847E+01-3.86458E+00 1.01700E-01-3.49490E-14-7.81666E-14
 -1         3 1.99803E+01-2.00734E-02 4.86289E-02-2.04223E-02-4.20098E-13-5.57938E-13
 -1         4 1.99683E+01-3.17479E-02 6.07119E-02 3.23269E-02 2.51911E-13 1.13479E-13
 -1         5 3.27687E+01 6.14287E+00 2.74246E+00 6.22433E+00-4.71706E-14 3.41278E-12
 -1         6 3.57527E+01 1.22635E+01 5.12546E+00-8.64667E+00-1.98064E-13 3.30719E-12
 -1         7 2.08194E+01 6.09990E+00-1.28606E-01-4.72540E+00-2.71588E-14 6.64489E-13
 -1         8 1.96723E+01 5.93514E+00 5.09722E-02-3.27462E+00-4.00860E-14-1.52415E-13
 -1         9 1.91379E+01 5.77207E+00 4.91814E-02-2.52636E+00-3.69652E-14-5.95983E-13
 -1        10 1.88949E+01 5.69208E+00 5.09420E-02-1.95096E+00-2.03414E-14-8.21501E-13
 -1        11 1.87734E+01 5.65115E+00 5.02697E-02-1.45608E+00-1.70627E-14-9.20053E-13
 -1        12 1.87099E+01 5.62955E+00 4.88428E-02-1.01511E+00-9.53252E-15-9.55788E-13
 -1        13 1.86763E+01 5.61807E+00 4.74347E-02-5.95296E-01-3.88556E-15-9.57232E-13
 -1        14 1.86621E+01 5.61322E+00 4.67005E-02-1.91167E-01 3.30080E-15-9.48713E-13
 -1        15 1.86626E+01 5.61338E+00 4.67400E-02 2.08211E-01 5.81322E-15-9.36028E-13
 -1        16 1.86778E+01 5.61855E+00 4.75592E-02 6.13157E-01 1.18305E-14-9.14321E-13
 -1        17 1.87126E+01 5.63027E+00 4.90701E-02 1.03489E+00 1.44099E-14-8.58770E-13
 -1        18 1.87776E+01 5.65234E+00 5.08188E-02 1.47892E+00 2.33030E-14-7.70122E-13
 -1        19 1.89010E+01 5.69378E+00 5.15370E-02 1.98002E+00 3.16960E-14-6.29706E-13
 -1        20 1.91427E+01 5.77456E+00 4.87927E-02 2.56363E+00 4.09221E-14-3.70863E-13
 -1        21 1.96679E+01 5.94973E+00 4.59385E-02 3.30864E+00 4.72400E-14 1.42602E-13
 -1        22 2.12022E+01 6.38164E+00 1.39721E-01 4.52295E+00 9.78384E-15 1.14993E-12
 -1        23 2.30304E+01-1.37926E+00-9.38326E-01-7.11145E-01-1.31766E-13 2.61385E-12
 -1        24 1.93679E+01-9.94823E-02-3.09823E-01 6.32326E-02-3.52583E-14 1.99110E-12
 -1        25 1.86799E+01-5.63112E-02-6.87552E-02 6.07543E-02-1.64742E-14 1.37055E-12
 -1        26 1.84776E+01-2.20874E-02-6.45585E-03 3.29456E-02-8.56270E-15 9.73298E-13
 -1        27 1.84887E+01-1.17941E-02 1.55606E-03 2.26064E-02-1.42646E-14 6.92169E-13
 -1        28 1.86028E+01-6.23509E-03 1.77623E-03 1.63212E-02-2.04638E-14 5.06131E-13
 -1        29 1.87626E+01-3.07027E-03 1.74840E-03 1.21622E-02-8.59274E-15 3.36130E-13
 -1        30 1.89364E+01-1.21351E-03 1.93369E-03 9.19892E-03 1.35359E-14 1.97823E-13
 -1        31 1.91068E+01-1.17009E-04 2.09654E-03 6.97100E-03 8.00820E-15 5.13231E-14
 -1        32 1.92637E+01 5.08452E-04 2.13108E-03 5.24235E-03-4.72756E-14-1.99007E-13
 -1        33 1.94024E+01 8.31346E-04 2.04246E-03 3.88126E-03 6.64777E-14-2.62481E-13
 -1        34 1.95211E+01 9.55713E-04 1.86655E-03 2.80445E-03 2.15323E-15-2.43724E-13
 -1        35 1.96201E+01 9.48514E-04 1.63688E-03 1.95301E-03-4.36343E-14-4.40957E-13
 -1        36 1.97012E+01 8.53126E-04 1.37686E-03 1.28221E-03 1.20292E-14-4.64759E-13
 -1        37 1.97667E+01 6.96748E-04 1.09982E-03 7.56955E-04-2.39182E-14-4.59416E-13
 -1        38 1.98197E+01 4.94826E-04 8.10422E-04 3.49992E-04-1.34913E-14-5.08589E-13
 -1        39 1.98636E+01 2.53944E-04 5.06103E-04 4.13301E-05-1.27545E-14-5.69034E-13
 -1        40 1.99022E+01-2.61105E-05 1.78131E-04-1.81590E-04-1.51360E-14-5.44945E-13
 -1        41 1.99398E+01-3.50740E-04-1.87523E-04-3.23277E-04 1.13466E-15-6.22333E-13
 -1        42 1.99811E+01-7.29121E-04-6.09545E-04-3.79112E-04 9.99390E-15-5.95848E-13
 -1        43 2.00318E+01-1.17272E-03-1.11067E-03-3.33747E-04-5.57897E-14-6.02804E-13
 -1        44 2.00985E+01-1.69336E-03-1.71683E-03-1.58854E-04 2.20102E-14-5.60913E-13
 -1        45 2.01890E+01-2.30043E-03-2.45559E-03 1.89881E-04 1.32521E-14-4.36386E-13
 -1        46 2.03127E+01-2.99625E-03-3.35281E-03 7.76528E-04-2.57440E-14-6.15377E-13
 -1        47 2.04806E+01-3.76852E-03-4.42576E-03 1.68909E-03-2.48784E-14-5.97401E-13
 -1        48 2.07056E+01-4.57785E-03-5.66923E-03 3.04283E-03 6.96174E-14-4.74282E-13
 -1        49 2.10017E+01-5.33772E-03-7.02832E-03 4.97930E-03 2.23422E-15-3.14950E-13
 -1        50 2.13834E+01-5.88417E-03-8.34766E-03 7.65328E-03 5.67820E-14-3.83627E-13
 -1        51 2.18631E+01-5.93372E-03-9.28257E-03 1.11909E-02 3.95955E-14-3.55939E-13
 -1        52 2.24471E+01-5.03544E-03-9.15918E-03 1.55873E-02-6.29508E-14-4.42956E-13
 -1        53 2.31271E+01-2.54204E-03-6.79561E-03 2.04930E-02-6.35261E-16-7.80714E-13
 -1        54 2.38685E+01 2.33460E-03-3.80667E-04 2.48243E-02 1.29114E-13-7.46015E-13
 -1        55 2.45929E+01 1.02525E-02 1.22910E-02 2.61853E-02-7.50314E-14-7.82740E-13
 -1        56 2.51587E+01 2.10724E-02 3.26343E-02 2.03174E-02 3.79031E-14-8.61884E-13
 -1        57 2.53531E+01 3.27208E-02 5.85093E-02 1.38276E-03 2.77751E-15-7.55270E-13
 -1        58 2.49190E+01 4.02041E-02 8.03795E-02-3.52411E-02 2.44123E-14-6.87696E-13
 -1        59 2.36543E+01 3.61041E-02 7.95625E-02-8.60703E-02-2.88500E-14-6.47732E-13
 -1        60 2.15886E+01 1.51513E-02 3.82950E-02-1.31774E-01-6.14602E-15-1.96218E-13
 -1        61 1.91505E+01-1.88367E-02-4.07732E-02-1.39409E-01 4.85679E-14-2.60250E-13
 -1        62 1.71291E+01-4.99327E-02-1.18700E-01-8.60815E-02-6.61012E-14-1.62988E-13
 -1        63 1.62903E+01-5.92053E-02-1.42134E-01 9.82101E-03-3.54660E-14-2.15768E-13
 -1        64 1.68658E+01-4.06038E-02-9.34016E-02 9.50727E-02 3.09475E-15-2.83107E-13
 -1        65 1.83812E+01-6.64006E-03-8.04265E-03 1.24347E-01-4.12460E-15 6.14925E-14
 -1        66 1.99998E+01 2.24634E-02 5.96187E-02 9.63410E-02 3.87808E-14-1.85602E-13
 -1        67 2.10504E+01 3.40552E-02 8.11701E-02 4.22986E-02 1.23432E-14-2.96967E-13
 -1        68 2.13058E+01 2.78278E-02 6.20824E-02-6.01840E-03 1.28992E-13 1.83410E-13
 -1        69 2.09372E+01 1.10139E-02 2.18968E-02-3.18712E-02 1.80845E-14 1.40224E-13
 -1        70 2.03418E+01-3.21126E-03-1.58489E-02-2.45283E-02-7.39177E-15-1.36939E-13
 -1        71 1.99682E+01 1.12038E-02-8.34979E-03 7.87791E-03-7.73477E-14-1.25200E-13
 -1        72 2.10430E+01-4.04897E-01-9.80424E-01-3.11628E-01 5.22568E-14 3.11308E-12
 -1        73 1.93325E+01-6.58818E-02-2.91126E-01-5.38375E-02 2.31291E-14 2.40925E-12
 -1        74 1.86893E+01-2.05034E-02-6.42650E-02-2.03499E-02 1.15553E-14 1.88093E-12
 -1        75 1.84865E+01-9.87742E-03-9.30893E-03-1.54476E-02 6.88458E-15 1.45095E-12
 -1        76 1.84978E+01-5.16264E-03 6.76875E-04-1.23768E-02 1.08062E-15 1.21420E-12
 -1        77 1.86111E+01-2.61003E-03 1.74160E-03-1.01099E-02 8.95575E-15 1.01617E-12
 -1        78 1.87697E+01-1.13811E-03 1.88795E-03-8.37204E-03-1.55394E-14 9.19920E-13
 -1        79 1.89426E+01-2.73102E-04 2.08787E-03-6.93668E-03 1.32047E-14 8.25455E-13
 -1        80 1.91120E+01 2.26246E-04 2.23092E-03-5.69990E-03-8.91661E-15 6.17673E-13
 -1        81 1.92681E+01 4.94726E-04 2.24277E-03-4.62015E-03 3.21442E-14 4.78878E-13
 -1        82 1.94059E+01 6.13540E-04 2.13358E-03-3.67765E-03 3.71032E-15 3.73150E-13
 -1        83 1.95239E+01 6.33914E-04 1.93930E-03-2.85919E-03 1.52337E-14 3.49192E-13
 -1        84 1.96224E+01 5.88803E-04 1.69302E-03-2.15237E-03-1.15588E-14 2.12608E-13
 -1        85 1.97029E+01 4.99121E-04 1.41772E-03-1.54381E-03 4.31437E-15 2.20954E-13
 -1        86 1.97680E+01 3.77286E-04 1.12633E-03-1.01921E-03-9.48460E-16 2.75612E-14
 -1        87 1.98207E+01 2.29430E-04 8.23143E-04-5.64124E-04 2.65792E-14-6.28742E-15
 -1        88 1.98644E+01 5.69418E-05 5.05250E-04-1.64989E-04-6.10846E-14-4.09241E-14
 -1        89 1.99029E+01-1.42330E-04 1.63742E-04 1.89538E-04 2.47395E-14-2.86841E-13
 -1        90 1.99404E+01-3.73010E-04-2.15239E-04 5.07123E-04 2.61682E-15-5.25439E-13
 -1        91 1.99818E+01-6.41073E-04-6.49478E-04 7.89971E-04 1.91683E-14-7.05674E-13
 -1        92 2.00324E+01-9.52439E-04-1.15950E-03 1.03255E-03-1.88096E-16-6.73373E-13
 -1        93 2.00989E+01-1.31099E-03-1.76679E-03 1.21850E-03-8.29252E-15-6.81060E-13
 -1        94 2.01887E+01-1.71554E-03-2.49083E-03 1.31644E-03-7.64661E-15-6.63098E-13
 -1        95 2.03107E+01-2.15512E-03-3.34369E-03 1.27419E-03-1.08829E-14-5.68831E-13
 -1        96 2.04750E+01-2.60170E-03-4.32036E-03 1.01135E-03 3.85634E-15-2.74200E-13
 -1        97 2.06929E+01-2.99916E-03-5.38149E-03 4.10268E-04 7.58719E-15-8.73431E-14
 -1        98 2.09760E+01-3.24773E-03-6.42357E-03-6.92533E-04 1.54687E-14-9.57220E-14
 -1        99 2.13349E+01-3.18396E-03-7.22963E-03-2.50903E-03-2.74505E-14-2.93160E-13
 -1       100 2.17764E+01-2.56069E-03-7.39425E-03-5.28304E-03 3.39939E-14-2.17198E-13
 -1       101 2.22988E+01-1.04022E-03-6.22555E-03-9.22630E-03 1.63874E-14-5.25524E-13
 -1       102 2.28844E+01 1.76809E-03-2.65956E-03-1.43578E-02 4.82631E-14-7.18361E-13
 -1       103 2.34891E+01 6.16801E-03 4.69816E-03-2.01772E-02-2.26859E-14-6.91435E-13
 -1       104 2.40292E+01 1.20549E-02 1.71432E-02-2.51206E-02-9.55708E-15-1.58039E-13
 -1       105 2.43716E+01 1.83688E-02 3.46430E-02-2.59184E-02-5.06496E-15-2.20227E-13
 -1       106 2.43368E+01 2.26120E-02 5.37127E-02-1.75039E-02-6.48810E-14 5.47132E-14
 -1       107 2.37363E+01 2.11158E-02 6.54380E-02 5.15848E-03-6.60583E-15-2.52930E-13
 -1       108 2.24602E+01 1.08579E-02 5.68225E-02 4.22547E-02 5.47305E-14-8.33996E-13
 -1       109 2.06026E+01-6.96479E-03 1.83218E-02 8.31895E-02-3.38997E-15-7.68653E-13
 -1       110 1.85521E+01-2.49167E-02-4.27145E-02 1.05379E-01-6.49209E-15-6.92224E-13
 -1       111 1.69205E+01-3.31511E-02-9.62837E-02 8.77403E-02-4.81522E-14-6.87325E-13
 -1       112 1.62553E+01-2.72073E-02-1.08964E-01 3.15990E-02-7.84401E-14-1.50186E-13
 -1       113 1.67009E+01-1.15233E-02-7.20238E-02-3.40669E-02 9.71649E-14-4.55112E-13
 -1       114 1.79019E+01 5.03666E-03-1.01503E-02-7.52657E-02-1.15383E-13-2.09735E-13
 -1       115 1.92434E+01 1.50267E-02 4.08888E-02-7.82259E-02 2.32171E-15-1.83152E-14
 -1       116 2.02042E+01 1.59292E-02 6.03076E-02-5.22095E-02 2.00734E-13-4.56571E-13
 -1       117 2.05726E+01 9.74964E-03 4.84915E-02-1.69920E-02-4.19786E-14-6.81925E-13
 -1       118 2.04509E+01 1.04588E-03 1.87390E-02 1.02852E-02 1.21372E-15-6.92286E-13
 -1       119 2.01343E+01-4.77886E-03-9.36871E-03 1.84224E-02-2.97520E-14-6.25892E-13
 -1       120 1.99625E+01 1.21297E-02 3.29049E-03-5.75831E-03 1.90712E-13-5.88429E-13
 -1       121 1.99953E+01-2.45097E-02-7.51968E-03-2.10057E-02-4.34070E-13 1.60589E-13
 -1       122 1.99754E+01 1.82708E-01-4.12277E-02-3.02194E-03 7.70396E-13 1.85922E-13
 -1       123 1.99707E+01 8.56855E-01-5.39853E-02 2.00878E-02 1.43861E-12 4.11663E-14
 -1       124 1.99721E+01 2.08075E+00-5.61343E-02 5.04590E-02 1.28988E-12 6.04829E-14
 -1       125 1.99844E+01 3.85704E+00-3.82614E-02 8.27989E-02 8.89063E-13-1.09380E-13
 -1       126 2.00077E+01 5.95684E+00 2.69369E-03 1.01382E-01-4.03455E-13-1.08736E-13
 -1       127 2.00358E+01 8.02081E+00 5.82799E-02 9.24015E-02 3.05523E-13 3.29810E-13
 -1       128 2.00581E+01 9.45245E+00 1.04208E-01 4.89951E-02 8.34730E-13-8.62093E-14
 -1       129 2.00636E+01 9.78986E+00 1.15774E-01-1.50046E-02 1.18152E-12 1.74151E-13
 -1       130 2.00498E+01 8.91657E+00 8.64057E-02-7.24399E-02 2.00173E-12 2.60018E-14
 -1       131 2.00235E+01 7.12674E+00 3.31137E-02-1.01251E-01 1.02064E-13-4.88614E-13
 -1       132 1.99965E+01 4.99078E+00-1.68605E-02-9.62693E-02-1.28491E-12 2.36675E-13
 -1       133 1.99781E+01 2.95600E+00-4.78552E-02-7.04358E-02-6.33639E-13 3.21884E-14
 -1       134 1.99672E+01 1.38262E+00-5.94237E-02-4.18079E-02 1.30443E-13 2.21549E-13
 -1       135 1.99753E+01 4.12183E-01-4.71863E-02-2.51534E-02 2.61866E-13-1.25280E-13
 -1       136 1.99756E+01 2.08232E-02-1.48436E-02 3.45350E-02-7.83674E-14-1.98888E-14
 -1       137-1.61470E+00-2.27332E+01-3.47693E+00-4.46899E+00-5.72153E-13-1.17205E-13
 -1       138-1.68144E+00-9.58367E+00-2.45531E+00-3.39925E+00 9.76219E-13 4.54636E-13
 -1       139 3.12473E+00 3.43304E+00-1.06400E+00 3.58926E+00 2.21989E-12 1.85069E-12
 -1       140 1.66461E+01 1.12938E+01 5.59776E-01 1.35707E+01 2.11386E-12 2.08655E-12
 -1       141 3.58680E+01 1.10254E+01 2.01494E+00 1.93479E+01 1.53189E-12 2.98200E-12
 -1       142 5.60277E+01 5.89188E+00 3.15621E+00 1.65921E+01 9.79647E-13 2.83767E-12
 -1       143 6.83680E+01 1.32786E+00 3.73084E+00 4.85968E+00 2.62561E-13 1.17439E-12
 -1       144 6.54140E+01 2.02008E+00 3.53285E+00-8.74327E+00 2.96490E-14-3.51635E-13
 -1       145 4.95911E+01 6.90697E+00 2.66673E+00-1.74340E+01 2.35395E-13-1.06193E-12
 -1       146 2.86255E+01 1.08186E+01 1.34596E+00-1.72177E+01 1.02240E-12-1.32433E-12
 -1       147 1.07516E+01 8.74313E+00-1.32009E-01-9.69563E+00 1.72301E-12-1.55309E-12
 -1       148 4.14037E-01-7.96589E-01-1.57360E+00-4.06953E-01 1.82948E-12-1.13259E-12
 -1       149-1.97829E+00-1.35797E+01-2.64766E+00 4.42125E+00 9.42357E-13-3.44128E-13
 -1       150-1.14888E+00-2.35831E+01-3.28909E+00 3.19408E+00 5.00239E-13-1.75217E-13
 -1       151-8.16317E-01-2.58872E+01-3.42904E+00-1.35311E+00-5.26981E-13-9.72764E-14
 -1       152-1.77812E+00-1.90856E+01-3.03266E+00-4.73019E+00-9.93927E-13-3.30957E-13
 -1       153-1.51225E+00-7.11911E+00-2.19372E+00-2.80561E+00-1.80361E-12-1.00303E-12
 -1       154 4.33599E+00 4.25623E+00-9.47869E-01 4.55559E+00-1.68388E-12-1.39938E-12
 -1       155 1.96912E+01 1.02778E+01 6.20705E-01 1.40078E+01-1.17356E-12-1.35214E-12
 -1       156 4.17976E+01 8.77062E+00 2.19375E+00 1.83009E+01-3.83304E-13-6.16451E-13
 -1       157 6.02339E+01 3.72308E+00 3.27174E+00 1.34006E+01 6.05280E-14 1.74305E-14
 -1       158 6.92777E+01 9.21448E-01 3.81799E+00 6.70913E-01-5.06192E-14 8.02872E-13
 -1       159 6.28154E+01 3.67795E+00 3.55115E+00-1.31308E+01-2.92481E-13 1.58473E-12
 -1       160 2.22695E+01 1.19887E+01 1.06313E+00-1.60525E+01-1.39488E-12 1.75271E-12
 -1       161 5.38794E+00 5.99806E+00-7.19647E-01-5.88385E+00-2.67641E-12 2.08872E-12
 -1       162-1.61362E+00-7.99246E+00-2.33288E+00 2.99926E+00-2.12136E-12 1.36280E-12
 -1       163-1.67524E+00-2.20739E+01-3.44709E+00 4.55907E+00-5.82201E-13 2.79297E-13
 -1       164 2.10140E+01 3.69403E+00-5.73412E-02-3.61018E+00-4.72743E-13 2.30732E-13
 -1       165 1.99913E+01 4.20782E+00-4.57374E-02-2.80937E+00-4.44142E-13-2.79658E-13
 -1       166 1.95092E+01 4.47694E+00-3.16116E-02-2.19413E+00-3.53397E-13-5.63128E-13
 -1       167 1.92670E+01 4.61520E+00-2.37706E-02-1.67543E+00-2.62550E-13-7.14363E-13
 -1       168 1.91370E+01 4.69673E+00-1.94840E-02-1.21911E+00-1.80528E-13-7.78756E-13
 -1       169 1.90631E+01 4.74782E+00-1.74109E-02-7.92022E-01-1.04257E-13-7.91921E-13
 -1       170 1.90258E+01 4.77570E+00-1.64215E-02-3.86859E-01-2.37306E-14-7.94020E-13
 -1       171 1.90149E+01 4.78423E+00-1.61338E-02 8.28917E-03 5.12383E-14-7.82195E-13
 -1       172 1.90275E+01 4.77442E+00-1.64677E-02 4.03777E-01 1.21141E-13-7.58857E-13
 -1       173 1.90667E+01 4.74488E+00-1.75230E-02 8.10028E-01 1.82222E-13-7.30414E-13
 -1       174 1.91413E+01 4.69249E+00-1.96925E-02 1.23150E+00 2.58709E-13-6.65235E-13
 -1       175 1.92770E+01 4.60533E+00-2.40129E-02 1.69814E+00 3.54764E-13-5.54052E-13
 -1       176 1.95241E+01 4.45953E+00-3.28563E-02 2.22654E+00 4.43393E-13-3.82087E-13
 -1       177 2.00137E+01 4.18386E+00-4.72112E-02 2.84679E+00 4.95766E-13-5.42483E-14
 -1       178 2.11356E+01 3.46369E+00-5.97781E-02 3.53670E+00 4.73064E-13 5.63841E-13
 -1       179 2.24201E+01 1.14336E+00-3.36470E-01 3.01481E+00 3.59982E-13 1.37688E-12
 -1       180 2.19724E+01 8.58277E-01 6.70046E-04-1.95895E+00-4.05804E-13 8.25132E-13
 -1       181 2.04479E+01 1.90246E-01-9.97361E-03-7.64018E-01-3.60909E-13 6.22433E-13
 -1       182 1.96726E+01 1.01533E-01 1.35713E-02-2.85572E-01-2.54411E-13 4.46129E-13
 -1       183 1.93328E+01 4.72917E-02 1.00059E-02-6.81812E-02-1.89649E-13 2.88889E-13
 -1       184 1.92030E+01 2.25660E-02 5.13775E-03 3.92889E-02-1.24010E-13 1.90403E-13
 -1       185 1.91894E+01 9.48189E-03 2.43391E-03 9.18559E-02-1.13048E-13 1.41075E-13
 -1       186 1.92379E+01 2.08327E-03 1.12893E-03 1.14139E-01-7.83234E-14 9.71212E-14
 -1       187 1.93168E+01-2.14950E-03 4.93145E-04 1.18968E-01-1.01732E-13 2.85588E-14
 -1       188 1.94073E+01-4.45364E-03 1.57387E-04 1.13756E-01-1.27065E-13-1.73936E-14
 -1       189 1.94985E+01-5.52260E-03-2.84359E-05 1.03114E-01-8.02426E-14-5.63391E-14
 -1       190 1.95839E+01-5.78952E-03-1.27693E-04 9.00142E-02-6.86026E-14-2.39662E-13
 -1       191 1.96604E+01-5.53717E-03-1.71668E-04 7.63976E-02-1.01170E-13-3.28249E-13
 -1       192 1.97268E+01-4.95105E-03-1.78527E-04 6.35307E-02-4.64967E-14-3.39041E-13
 -1       193 1.97836E+01-4.14850E-03-1.59654E-04 5.22445E-02-1.40525E-14-2.95666E-13
 -1       194 1.98319E+01-3.19614E-03-1.22117E-04 4.31010E-02-5.55665E-14-3.10734E-13
 -1       195 1.98737E+01-2.12148E-03-6.99463E-05 3.65186E-02-4.02213E-14-3.10875E-13
 -1       196 1.99115E+01-9.21122E-04-4.93753E-06 3.28680E-02 6.21957E-15-2.74758E-13
 -1       197 1.99483E+01 4.33111E-04 7.27514E-05 3.25478E-02-8.42638E-14-3.29109E-13
 -1       198 1.99876E+01 1.98917E-03 1.64097E-04 3.60441E-02-7.42949E-14-4.03810E-13
 -1       199 2.00334E+01 3.81024E-03 2.70702E-04 4.39756E-02-3.80849E-14-4.56593E-13
 -1       200 2.00905E+01 5.96946E-03 3.94163E-04 5.71252E-02 3.66821E-14-4.26148E-13
 -1       201 2.01645E+01 8.54227E-03 5.35184E-04 7.64522E-02-6.26541E-15-4.30658E-13
 -1       202 2.02619E+01 1.15934E-02 6.92194E-04 1.03076E-01-5.29149E-14-3.64186E-13
 -1       203 2.03901E+01 1.51541E-02 8.59166E-04 1.38210E-01-2.94929E-14-2.67946E-13
 -1       204 2.05574E+01 1.91808E-02 1.02225E-03 1.83016E-01-3.11312E-15-2.89314E-13
 -1       205 2.07728E+01 2.34828E-02 1.15485E-03 2.38308E-01 4.72425E-14-2.91462E-13
 -1       206 2.10451E+01 2.75981E-02 1.21123E-03 3.04013E-01-4.43444E-14-2.88429E-13
 -1       207 2.13817E+01 3.05920E-02 1.12020E-03 3.78238E-01-3.20786E-14-3.69576E-13
 -1       208 2.17861E+01 3.07553E-02 7.83596E-04 4.55742E-01-3.82137E-14-3.65440E-13
 -1       209 2.22544E+01 2.52218E-02 9.01697E-05 5.25622E-01-8.53520E-14-2.08059E-13
 -1       210 2.27696E+01 9.65265E-03-1.03880E-03 5.68245E-01-8.30953E-14-1.92387E-13
 -1       211 2.32943E+01-2.15343E-02-2.55497E-03 5.52218E-01-9.17271E-14-4.99063E-13
 -1       212 2.37631E+01-7.33208E-02-4.15577E-03 4.33918E-01 4.14209E-14-4.16942E-13
 -1       213 2.40777E+01-1.44923E-01-5.21323E-03 1.65293E-01 6.57395E-14-3.14916E-13
 -1       214 2.41134E+01-2.20355E-01-4.93046E-03-2.81400E-01 1.47716E-14-4.27466E-13
 -1       215 2.37478E+01-2.58560E-01-2.76251E-03-8.66567E-01-2.68362E-14-4.39964E-13
 -1       216 2.29245E+01-2.00343E-01-1.23045E-04-1.43084E+00 1.55320E-13-5.94205E-13
 -1       217 2.17448E+01-1.17457E-02 1.30305E-03-1.70021E+00 3.90696E-14-2.51526E-13
 -1       218 2.05196E+01 2.49289E-01 6.86090E-05-1.42367E+00 5.43476E-14-1.41029E-13
 -1       219 1.96853E+01 4.22263E-01-1.76265E-03-6.11735E-01-2.75630E-14-9.19542E-14
 -1       220 1.95349E+01 3.80743E-01-1.06835E-03 3.62954E-01 9.80292E-15-1.09337E-13
 -1       221 2.00004E+01 1.54180E-01 1.02344E-03 1.00668E+00 1.83474E-13-1.84894E-13
 -1       222 2.07069E+01-9.36614E-02 2.17389E-03 1.07098E+00-7.52389E-14 6.25455E-14
 -1       223 2.12507E+01-2.27887E-01 8.68669E-04 6.74513E-01 1.34095E-13-1.00199E-13
 -1       224 2.14187E+01-2.24614E-01-1.15766E-03 1.26262E-01 2.27600E-13 5.78093E-14
 -1       225 2.12202E+01-1.31793E-01-2.15739E-03-3.02655E-01-8.49481E-14-1.58752E-13
 -1       226 2.08020E+01 1.10322E-03-1.59147E-03-4.65301E-01 3.80155E-14-3.37197E-13
 -1       227 2.03467E+01 1.25186E-01-4.05590E-04-3.37084E-01 2.49616E-14-1.08289E-13
 -1       228 2.09642E+01 2.77024E-01-5.13307E-02 1.16482E+00 3.34240E-13 1.16966E-12
 -1       229 1.98694E+01 1.26836E-01 8.31137E-03 4.43132E-01 2.76877E-13 9.23427E-13
 -1       230 1.93631E+01 5.80443E-02 1.27274E-02 1.50119E-01 2.20981E-13 6.98734E-13
 -1       231 1.91534E+01 2.77119E-02 7.61689E-03 1.08865E-02 1.23558E-13 5.36264E-13
 -1       232 1.91035E+01 1.30646E-02 3.81400E-03-5.82247E-02 8.62119E-14 4.51637E-13
 -1       233 1.91392E+01 5.10934E-03 1.90379E-03-9.06174E-02 2.17823E-14 4.28890E-13
 -1       234 1.92181E+01 5.61109E-04 1.00348E-03-1.02320E-01 9.40738E-14 3.31475E-13
 -1       235 1.93154E+01-2.02434E-03 5.43286E-04-1.02067E-01 1.00184E-13 2.71438E-13
 -1       236 1.94166E+01-3.39349E-03 2.80922E-04-9.50772E-02 9.12164E-14 1.55513E-13
 -1       237 1.95132E+01-3.98105E-03 1.22327E-04-8.46440E-02 2.65328E-14 1.42490E-13
 -1       238 1.96007E+01-4.06073E-03 2.74190E-05-7.28972E-02 3.79284E-14 9.98663E-14
 -1       239 1.96772E+01-3.81158E-03-2.47669E-05-6.12256E-02 7.09250E-14 6.01970E-14
 -1       240 1.97425E+01-3.35032E-03-4.71497E-05-5.05342E-02 6.98405E-14-5.15458E-14
 -1       241 1.97977E+01-2.74924E-03-4.82352E-05-4.14181E-02 3.10109E-14-2.19268E-14
 -1       242 1.98444E+01-2.04735E-03-3.36599E-05-3.42886E-02 5.57214E-15 5.75831E-14
 -1       243 1.98851E+01-1.25781E-03-7.08586E-06-2.94675E-02 1.08690E-14-5.46014E-14
 -1       244 1.99225E+01-3.73553E-04 2.91793E-05-2.72600E-02 1.76299E-13-2.15732E-13
 -1       245 1.99601E+01 6.28200E-04 7.36874E-05-2.80110E-02 4.44847E-14-3.16184E-13
 -1       246 2.00017E+01 1.78180E-03 1.25385E-04-3.21466E-02 4.67539E-14-2.43296E-13
 -1       247 2.00516E+01 3.12871E-03 1.83094E-04-4.02012E-02-9.77321E-14-2.69053E-13
 -1       248 2.01152E+01 4.71163E-03 2.44871E-04-5.28272E-02 1.94294E-14-2.49594E-13
 -1       249 2.01983E+01 6.56568E-03 3.07153E-04-7.07805E-02 4.76463E-14-3.27348E-13
 -1       250 2.03077E+01 8.70402E-03 3.63613E-04-9.48683E-02-3.53726E-14-4.37680E-13
 -1       251 2.04509E+01 1.10941E-02 4.03686E-04-1.25837E-01-1.90164E-13-3.46138E-13
 -1       252 2.06360E+01 1.36187E-02 4.10924E-04-1.64162E-01-7.60977E-14 2.19835E-14
 -1       253 2.08707E+01 1.60129E-02 3.61806E-04-2.09684E-01 9.66756E-15 2.35311E-13
 -1       254 2.11614E+01 1.77670E-02 2.26673E-04-2.61014E-01 8.19701E-14 1.80660E-13
 -1       255 2.15113E+01 1.79895E-02-2.37247E-05-3.14594E-01-5.05688E-14 8.76297E-14
 -1       256 2.19167E+01 1.52394E-02-4.00302E-04-3.63349E-01 1.70481E-13 9.75858E-15
 -1       257 2.23627E+01 7.39377E-03-8.59948E-04-3.94957E-01 8.18836E-14-1.67051E-13
 -1       258 2.28174E+01-8.26493E-03-1.25402E-03-3.90157E-01-9.12805E-14-4.98130E-14
 -1       259 2.32248E+01-3.43400E-02-1.29378E-03-3.22341E-01-1.01083E-13-8.48846E-14
 -1       260 2.35016E+01-7.12890E-02-6.05873E-04-1.61136E-01 7.18123E-14-1.05603E-13
 -1       261 2.35413E+01-1.13510E-01 9.62059E-04 1.15599E-01-7.99742E-14-3.03190E-13
 -1       262 2.32355E+01-1.44592E-01 3.02084E-03 4.97693E-01 2.09874E-13-4.72134E-13
 -1       263 2.25209E+01-1.37797E-01 4.15130E-03 9.12340E-01 2.29677E-13-6.05798E-13
 -1       264 2.14453E+01-6.81902E-02 2.24519E-03 1.21229E+00-1.46386E-13-5.01880E-13
 -1       265 2.02184E+01 6.02422E-02-3.08296E-03 1.21824E+00-1.08157E-13-2.72443E-13
 -1       266 1.91861E+01 1.91526E-01-8.26085E-03 8.40078E-01-3.75680E-14 1.19677E-13
 -1       267 1.86774E+01 2.45398E-01-8.83024E-03 1.91282E-01-9.51886E-14-9.63867E-14
 -1       268 1.88053E+01 1.84614E-01-3.63002E-03-4.38105E-01 4.43703E-14 1.02566E-14
 -1       269 1.93886E+01 5.35557E-02 3.25778E-03-7.74547E-01-2.81240E-13 1.72056E-13
 -1       270 2.00805E+01-6.80509E-02 6.85004E-03-7.36506E-01 1.70710E-13-5.34173E-14
 -1       271 2.05756E+01-1.26195E-01 6.04691E-03-4.40037E-01 2.29149E-13-6.56619E-14
 -1       272 2.07391E+01-1.13762E-01 2.84150E-03-8.54212E-02-1.07596E-13 1.63650E-13
 -1       273 2.06144E+01-5.62409E-02-7.82694E-04 1.60201E-01 2.88617E-14 2.45745E-13
 -1       274 2.03489E+01 1.80305E-02-2.48659E-03 2.12904E-01-5.34885E-14 1.84297E-13
 -1       275 2.01072E+01 6.49677E-02 1.03635E-03 9.41049E-02 5.66279E-14 1.82644E-13
 -1       276 2.01127E+01 2.37625E-01 3.13265E-03 2.21006E-01 1.38193E-13 8.99386E-13
 -1       277 2.01547E+01 6.28291E-01 4.01360E-03 5.38771E-01 3.52476E-13 1.68494E-13
 -1       278 2.01765E+01 1.29699E+00 2.43919E-03 9.41251E-01 3.02893E-13 1.45539E-13
 -1       279 2.01531E+01 2.29016E+00 6.30717E-04 1.34271E+00 3.62886E-13-2.56075E-13
 -1       280 2.00583E+01 3.52496E+00-2.38807E-03 1.59431E+00 2.22884E-13-7.16081E-13
 -1       281 1.98952E+01 4.85862E+00-4.73382E-03 1.53485E+00 3.93447E-13 2.55765E-13
 -1       282 1.97208E+01 5.96540E+00-6.25775E-03 1.06142E+00 2.09259E-13 3.13445E-13
 -1       283 1.96205E+01 6.52593E+00-6.96505E-03 2.50090E-01 5.94499E-13 2.85348E-13
 -1       284 1.96514E+01 6.35677E+00-7.16322E-03-6.46586E-01 4.21468E-13 1.18913E-13
 -1       285 1.97949E+01 5.51457E+00-6.38246E-03-1.32845E+00 1.37770E-13-1.09478E-12
 -1       286 1.99695E+01 4.28562E+00-3.76272E-03-1.61520E+00 1.54547E-13-8.49820E-13
 -1       287 2.01058E+01 2.94900E+00-8.35424E-04-1.52567E+00 3.37113E-13 3.57273E-13
 -1       288 2.01689E+01 1.78634E+00 2.10504E-03-1.19192E+00 1.05923E-13 4.28421E-13
 -1       289 2.01754E+01 9.24074E-01 2.11624E-03-7.61535E-01-3.09270E-14 7.80539E-14
 -1       290 2.02698E+01 4.45997E-01 4.28962E-03-5.78628E-01-5.31714E-14-2.64395E-13
 -1       291-1.01753E+00-1.27060E+01-1.14420E+00 1.22475E+00-1.29341E-13-1.27315E-13
 -1       292 3.14103E+00-9.78706E+00-8.40213E-01 4.00418E+00-1.70697E-13 6.97220E-13
 -1       293 1.00691E+01-5.98517E+00-5.29530E-01 6.00584E+00 2.47080E-13 1.17419E-12
 -1       294 2.04176E+01-2.13249E+00-7.35972E-02 7.52756E+00 6.21891E-13 7.82679E-13
 -1       295 3.02792E+01 2.57594E+00 3.88316E-01 8.20106E+00 6.96027E-13 1.42159E-12
 -1       296 3.95877E+01 5.12090E+00 7.15280E-01 6.57046E+00 7.97099E-13 1.27429E-12
 -1       297 4.39146E+01 7.15204E+00 6.96160E-01 2.66897E+00 8.98753E-13 5.41039E-13
 -1       298 4.85349E+01 6.87312E+00 1.07964E+00-2.47676E-01 6.94500E-13 5.01758E-13
 -1       299 4.36030E+01 6.11109E+00 7.83447E-01-3.25794E+00 4.26589E-13 1.57097E-14
 -1       300 3.64007E+01 3.83586E+00 5.39597E-01-6.19154E+00 5.68781E-13-2.59182E-13
 -1       301 2.65473E+01 3.39434E-01 1.43547E-01-6.90493E+00 8.21759E-13-3.21937E-13
 -1       302 1.56955E+01-3.07944E+00-2.44831E-01-6.60120E+00 5.55139E-13-6.50979E-13
 -1       303 6.57745E+00-7.07948E+00-6.56583E-01-4.60029E+00 2.40280E-13-7.11035E-13
 -1       304 1.05186E+00-1.05440E+01-9.10475E-01-2.50383E+00 9.27314E-14-3.27044E-13
 -1       305-1.28144E+00-1.11711E+01-8.56441E-01-6.40543E-01 1.19897E-13-4.43395E-13
 -1       306-5.11060E-01-1.16655E+01-9.86895E-01 1.43615E+00-2.50466E-13-2.78513E-13
 -1       307 3.55476E+00-9.01185E+00-8.12450E-01 3.47865E+00-4.92884E-13-6.78364E-13
 -1       308 1.06155E+01-5.09992E+00-4.80384E-01 5.55142E+00-7.01217E-13-4.10380E-13
 -1       309 2.21443E+01-2.36154E+00-4.13352E-02 6.55436E+00-5.53835E-13-1.97953E-13
 -1       310 3.24019E+01 1.53035E+00 2.58699E-01 5.34984E+00-5.27633E-13 2.07501E-13
 -1       311 4.15528E+01 5.15662E+00 7.28265E-01 4.58541E+00-4.46712E-13 1.06415E-13
 -1       312 4.78671E+01 6.60639E+00 1.08202E+00 1.77579E+00-2.46678E-13 3.57353E-13
 -1       313 4.68571E+01 7.30753E+00 9.54971E-01-2.10524E+00-3.93269E-13 4.47850E-13
 -1       314 4.29537E+01 5.98361E+00 8.38603E-01-5.48336E+00-2.43500E-13 7.98667E-13
 -1       315 3.42660E+01 3.17982E+00 4.81059E-01-7.15221E+00-6.47774E-13 4.45310E-13
 -1       316 2.28509E+01-6.11574E-01 4.42590E-02-7.85910E+00-1.06481E-12 5.08288E-13
 -1       317 1.18947E+01-5.32474E+00-4.40342E-01-6.48097E+00-8.12461E-13 1.01345E-12
 -1       318 3.32988E+00-9.82889E+00-9.10100E-01-3.81683E+00-5.44259E-13 1.26138E-12
 -1       319-8.65797E-01-1.21813E+01-1.06977E+00-1.43703E+00-2.72282E-13 1.77885E-13
 -1       320 2.01459E+01 3.01541E+00-1.78594E-02-2.11053E+00-4.54057E-13-2.65070E-13
 -1       321 2.07565E+01 2.20830E+00-1.78083E-02-2.36330E+00-5.04270E-13 2.55837E-14
 -1       322 1.95843E+01 3.69149E+00-1.50675E-02-1.31715E+00-2.74470E-13-5.61519E-13
 -1       323 1.94601E+01 3.84871E+00-1.35681E-02-9.23468E-01-1.87624E-13-6.03928E-13
 -1       324 1.93910E+01 3.93942E+00-1.26922E-02-5.43845E-01-7.71657E-14-5.91088E-13
 -1       325 1.93605E+01 3.98071E+00-1.22913E-02-1.73231E-01 2.38625E-14-5.98919E-13
 -1       326 1.93618E+01 3.97910E+00-1.23129E-02 1.94411E-01 1.11535E-13-5.81492E-13
 -1       327 1.93952E+01 3.93419E+00-1.27630E-02 5.65377E-01 1.92132E-13-5.73986E-13
 -1       328 1.94660E+01 3.84089E+00-1.37753E-02 9.39350E-01 2.77753E-13-5.26445E-13
 -1       329 1.95929E+01 3.67874E+00-1.56845E-02 1.33327E+00 3.79483E-13-4.23838E-13
 -1       330 1.98089E+01 3.40988E+00-1.88425E-02 1.73858E+00 4.68899E-13-3.04110E-13
 -1       331 2.01795E+01 2.95524E+00-2.29249E-02 2.12723E+00 5.44827E-13-1.10490E-13
 -1       332 2.07494E+01 2.12946E+00-3.04624E-02 2.32213E+00 5.42142E-13 2.66297E-13
 -1       333 2.10960E+01 1.18773E+00-2.49174E-02 1.92187E+00 4.82229E-13 6.28067E-13
 -1       334 2.03923E+01 4.89258E-01 8.33810E-03 9.27302E-01 3.89602E-13 4.71662E-13
 -1       335 2.04582E+01 6.75549E-01 1.23687E-02-1.02517E+00-3.92958E-13 9.46048E-14
 -1       336 2.00381E+01 3.34709E-01 6.81269E-03-4.58153E-01-2.97232E-13 5.28859E-14
 -1       337 1.97831E+01 1.76537E-01 4.05471E-03-1.48604E-01-2.16757E-13-7.60644E-15
 -1       338 1.96474E+01 9.03567E-02 1.91041E-03 2.22031E-02-1.42114E-13-3.98452E-14
 -1       339 1.95919E+01 4.12089E-02 7.96088E-04 1.13206E-01-1.43815E-13-4.85382E-14
 -1       340 1.95864E+01 1.22459E-02 2.73359E-04 1.56254E-01-1.25607E-13-7.54320E-14
 -1       341 1.96101E+01-4.73731E-03 1.38150E-05 1.70204E-01-1.19423E-13-6.20882E-14
 -1       342 1.96493E+01-1.41693E-02-1.20868E-04 1.66837E-01-1.52510E-13-7.33080E-14
 -1       343 1.96948E+01-1.86964E-02-1.87128E-04 1.53779E-01-1.78153E-13-1.34356E-13
 -1       344 1.97413E+01-2.00002E-02-2.11191E-04 1.36067E-01-1.25084E-13-1.77190E-13
 -1       345 1.97856E+01-1.91816E-02-2.07753E-04 1.17059E-01-8.93282E-14-1.56271E-13
 -1       346 1.98261E+01-1.69581E-02-1.85967E-04 9.90089E-02-7.97431E-15-1.67181E-13
 -1       347 1.98626E+01-1.37764E-02-1.51512E-04 8.34492E-02-2.93189E-14-1.45159E-13
 -1       348 1.98957E+01-9.88157E-03-1.07575E-04 7.14752E-02-3.31452E-14-2.20059E-13
 -1       349 1.99265E+01-5.36402E-03-5.54731E-05 6.39527E-02-2.06283E-14-2.01873E-13
 -1       350 1.99566E+01-1.93841E-04 4.92242E-06 6.16782E-02-5.66340E-14-2.63712E-13
 -1       351 1.99884E+01 5.75265E-03 7.48304E-05 6.55008E-02-8.69618E-14-2.44620E-13
 -1       352 2.00242E+01 1.26699E-02 1.56254E-04 7.64143E-02-9.97430E-14-2.74977E-13
 -1       353 2.00672E+01 2.07996E-02 2.51636E-04 9.56199E-02 3.28431E-15-2.25552E-13
 -1       354 2.01208E+01 3.04003E-02 3.63395E-04 1.24556E-01 5.44369E-14-2.93872E-13
 -1       355 2.01892E+01 4.17024E-02 4.93195E-04 1.64885E-01 4.84600E-14-2.17230E-13
 -1       356 2.02768E+01 5.48336E-02 6.40734E-04 2.18413E-01-4.25650E-14-2.05412E-13
 -1       357 2.03886E+01 6.96932E-02 8.01716E-04 2.86899E-01-2.12444E-14-1.99621E-13
 -1       358 2.05299E+01 8.57377E-02 9.64509E-04 3.71703E-01 4.36584E-15-2.07602E-13
 -1       359 2.07062E+01 1.01625E-01 1.10496E-03 4.73141E-01-1.00485E-14-1.87647E-13
 -1       360 2.09224E+01 1.14646E-01 1.17900E-03 5.89415E-01-1.34716E-13-2.10021E-13
 -1       361 2.11824E+01 1.19873E-01 1.11373E-03 7.14897E-01-1.23651E-14-2.12380E-13
 -1       362 2.14884E+01 1.09036E-01 8.00417E-04 8.37538E-01 7.46373E-14-1.40557E-13
 -1       363 2.18397E+01 6.94056E-02 9.87351E-05 9.35306E-01 1.06043E-14-3.85948E-14
 -1       364 2.22314E+01-1.63440E-02-1.13146E-03 9.72030E-01-1.91148E-13 8.38966E-14
 -1       365 2.26524E+01-1.66899E-01-2.93491E-03 8.94358E-01-5.03887E-14 6.62190E-14
 -1       366 2.30803E+01-3.91248E-01-5.10610E-03 6.34224E-01-1.96210E-14-1.84166E-13
 -1       367 2.34720E+01-6.64456E-01-7.03714E-03 1.25968E-01-7.95731E-14-2.83371E-13
 -1       368 2.37483E+01-8.92401E-01-7.62488E-03-6.48608E-01-1.83594E-14-2.36086E-13
 -1       369 2.37864E+01-8.92406E-01-5.15355E-03-1.58040E+00-8.35746E-15-1.27312E-13
 -1       370 2.34613E+01-4.66849E-01-3.33375E-03-2.35270E+00 3.39919E-13-2.27512E-13
 -1       371 2.27864E+01 3.83508E-01-3.25522E-03-2.49318E+00 1.87326E-13-2.93753E-13
 -1       372 2.20457E+01 1.26122E+00-4.84917E-03-1.68226E+00 2.19148E-13-6.45196E-14
 -1       373 2.16810E+01 1.53327E+00-6.08533E-03-2.17423E-01-9.11545E-14 5.25914E-14
 -1       374 2.18551E+01 9.79815E-01-4.89589E-03 1.09563E+00-7.24169E-14-2.36974E-14
 -1       375 2.22564E+01 5.15676E-02-2.20636E-03 1.56580E+00 1.86725E-13-2.64507E-13
 -1       376 2.24766E+01-6.55816E-01-2.84757E-03 1.16210E+00-1.86183E-13-1.51745E-13
 -1       377 2.23263E+01-8.55079E-01-4.84602E-03 3.39044E-01 1.47095E-13-2.02364E-13
 -1       378 2.18853E+01-6.50070E-01-4.68749E-03-4.26607E-01-2.31521E-13-1.70108E-13
 -1       379 2.12969E+01-2.35581E-01-3.58841E-03-8.57392E-01-1.49129E-13-1.05138E-13
 -1       380 2.07616E+01 1.53775E-01 2.82475E-03-8.63600E-01 1.51194E-14-9.72234E-14
 -1       381 1.98907E+01 2.28414E-01 1.07817E-02 3.98688E-01 3.08342E-13 3.81167E-13
 -1       382 1.96021E+01 1.15297E-01 6.14883E-03 1.20108E-01 2.05590E-13 2.74926E-13
 -1       383 1.94674E+01 5.75969E-02 2.78824E-03-2.86494E-02 1.20577E-13 2.15992E-13
 -1       384 1.94274E+01 2.56728E-02 1.17456E-03-1.05412E-01 4.82404E-14 1.59567E-13
 -1       385 1.94430E+01 7.18898E-03 4.49239E-04-1.40456E-01 1.20939E-13 6.22298E-14
 -1       386 1.94887E+01-3.52476E-03 9.98326E-05-1.50749E-01 1.43854E-13 1.99268E-14
 -1       387 1.95487E+01-9.43285E-03-8.21669E-05-1.46530E-01 1.30535E-13 6.57836E-15
 -1       388 1.96129E+01-1.22534E-02-1.76755E-04-1.34285E-01 3.23539E-14 6.32506E-14
 -1       389 1.96753E+01-1.30587E-02-2.18022E-04-1.18246E-01 9.14054E-14 1.18189E-14
 -1       390 1.97329E+01-1.25464E-02-2.24330E-04-1.01205E-01 9.25329E-14-4.59510E-14
 -1       391 1.97841E+01-1.11717E-02-2.07151E-04-8.50141E-02 1.32944E-13-1.80055E-14
 -1       392 1.98291E+01-9.22027E-03-1.73826E-04-7.09170E-02 2.90386E-14-3.62175E-14
 -1       393 1.98687E+01-6.85313E-03-1.28752E-04-5.97807E-02 2.48664E-14-9.55150E-14
 -1       394 1.99042E+01-4.13582E-03-7.41429E-05-5.22713E-02 1.04950E-13-1.57113E-13
 -1       395 1.99379E+01-1.06034E-03-1.05794E-05-4.89853E-02 1.88067E-13-1.53018E-13
 -1       396 1.99723E+01 2.43713E-03 6.25366E-05-5.05498E-02 1.19675E-13-9.00265E-14
 -1       397 2.00102E+01 6.46015E-03 1.46556E-04-5.76940E-02-3.10286E-14-5.99543E-14
 -1       398 2.00552E+01 1.11348E-02 2.43094E-04-7.12949E-02 2.41923E-14-2.13588E-14
 -1       399 2.01113E+01 1.65875E-02 3.53391E-04-9.23911E-02 5.95176E-14-1.25607E-13
 -1       400 2.01831E+01 2.29129E-02 4.77385E-04-1.22155E-01 8.47064E-14-2.12224E-13
 -1       401 2.02757E+01 3.01234E-02 6.12294E-04-1.61804E-01-1.81921E-14-1.23120E-13
 -1       402 2.03947E+01 3.80679E-02 7.50468E-04-2.12414E-01-2.57782E-13 5.87033E-14
 -1       403 2.05460E+01 4.63034E-02 8.76229E-04-2.74585E-01-2.66931E-13 4.32378E-14
 -1       404 2.07353E+01 5.38934E-02 9.61588E-04-3.47887E-01-3.47652E-14 9.10856E-14
 -1       405 2.09672E+01 5.91098E-02 9.61280E-04-4.29960E-01 1.48347E-13 2.74662E-13
 -1       406 2.12444E+01 5.90256E-02 8.08962E-04-5.15165E-01 5.16241E-14 1.69323E-13
 -1       407 2.15653E+01 4.90493E-02 4.19240E-04-5.92692E-01 2.06537E-13 1.99956E-13
 -1       408 2.19223E+01 2.26123E-02-2.95734E-04-6.44190E-01 1.08980E-13 3.68331E-13
 -1       409 2.22980E+01-2.84297E-02-1.38287E-03-6.41535E-01-8.39032E-14 2.76742E-13
 -1       410 2.26623E+01-1.11528E-01-2.77373E-03-5.46330E-01 6.88083E-14 5.69382E-14
 -1       411 2.29682E+01-2.27507E-01-4.20319E-03-3.14579E-01-1.16409E-14-4.82099E-14
 -1       412 2.31503E+01-3.59215E-01-5.16378E-03 8.77946E-02 2.48261E-14-8.50160E-14
 -1       413 2.31279E+01-4.57949E-01-5.16071E-03 6.52520E-01 2.42891E-13-3.91977E-14
 -1       414 2.28260E+01-4.42434E-01-3.11798E-03 1.28441E+00 3.13555E-13-3.25085E-14
 -1       415 2.22193E+01-2.35953E-01-7.04031E-04 1.77756E+00-2.08665E-13-2.81525E-13
 -1       416 2.13976E+01 1.60694E-01 8.46487E-04 1.85768E+00-1.23766E-13-2.04281E-13
 -1       417 2.06099E+01 5.82275E-01 2.28298E-03 1.35642E+00-2.37981E-13-1.87466E-13
 -1       418 2.01567E+01 7.76351E-01 3.72762E-03 4.07137E-01-1.11492E-13 1.42161E-13
 -1       419 2.01856E+01 6.05022E-01 5.52965E-03-5.56962E-01-1.79005E-13 4.67980E-13
 -1       420 2.05573E+01 1.95524E-01 5.63801E-03-1.09492E+00-4.28571E-14 5.95518E-13
 -1       421 2.09757E+01-1.98345E-01 2.13117E-03-1.06061E+00 1.97303E-13 2.90724E-13
 -1       422 2.12012E+01-3.97187E-01-2.38664E-03-6.23333E-01 7.17844E-14 3.59341E-13
 -1       423 2.11540E+01-3.69234E-01-4.38727E-03-8.69472E-02-1.84996E-13 4.06448E-13
 -1       424 2.08915E+01-1.92558E-01-3.15745E-03 2.97477E-01 6.25652E-14 2.31158E-13
 -1       425 2.05301E+01 2.65882E-02-1.12063E-03 4.08075E-01-1.21913E-13 4.38964E-13
 -1       426 2.03135E+01 1.54035E-01 1.38665E-03 3.60243E-01 1.02455E-14 7.47191E-13
 -1       427 2.06390E+01 9.30979E-01 4.60257E-03 1.84103E+00-2.28859E-13 1.32226E-13
 -1       428 2.06198E+01 4.75194E-01 3.83763E-03 1.18829E+00-2.04621E-13 2.24949E-13
 -1       429 2.04591E+01 3.03831E-01 3.42566E-03 7.10086E-01-3.32232E-13 6.11276E-13
 -1       430 2.04260E+01 1.62505E+00 1.51569E-03 2.40670E+00-1.26248E-13-8.05155E-13
 -1       431 1.99289E+01 2.55472E+00-2.11450E-03 2.62740E+00 1.98543E-13 1.68381E-13
 -1       432 1.92574E+01 3.53913E+00-4.99743E-03 2.22491E+00 2.38808E-13 3.73422E-13
 -1       433 1.87004E+01 4.26866E+00-6.80477E-03 1.14011E+00 4.90096E-14 3.45763E-13
 -1       434 1.85578E+01 4.44737E+00-8.49819E-03-3.44566E-01 4.73395E-14-5.30669E-14
 -1       435 1.89157E+01 3.99472E+00-8.34176E-03-1.70422E+00-2.09976E-13-6.04636E-13
 -1       436 1.95499E+01 3.13069E+00-4.99462E-03-2.48868E+00 6.85482E-14-9.65963E-13
 -1       437 2.01655E+01 2.14596E+00-4.15798E-04-2.60318E+00 4.30827E-13 3.58930E-13
 -1       438 2.05447E+01 1.30849E+00 4.12581E-03-2.20368E+00 5.67325E-13 1.34210E-13
 -1       439 2.06521E+01 7.25754E-01 7.02737E-03-1.57258E+00 1.46704E-13 1.14635E-14
 -1       440 1.24594E+01-6.25054E+00 4.72585E-02 7.92381E+00-5.14269E-13 9.44279E-13
 -1       441 1.66945E+00-4.63211E+00-2.24859E-02 5.53128E-02-3.44249E-13 2.56711E-13
 -1       442 3.89923E+00-5.81837E+00-7.69567E-02 4.83167E+00-1.65645E-13-1.45578E-14
 -1       443 1.96951E+01-6.63716E+00-1.84299E-02 7.49906E+00-5.53307E-13 4.78669E-13
 -1       444 2.84199E+01-3.52458E+00 3.06391E-02 4.85700E+00-1.17462E-13 5.04444E-13
 -1       445 1.97871E+01 3.43947E+00-2.08842E-02-1.72561E+00-3.72001E-13-4.68164E-13
 -1       446 3.56187E+01 4.93554E+00 1.37677E-02 3.42446E-01 7.53217E-13 2.04142E-14
 -1       447 3.67657E+01 8.36145E+00 5.47570E-02 5.19375E-01 4.83780E-13 3.28185E-13
 -1       448 3.67832E+01 7.59116E+00 6.85468E-02 8.43211E-01 7.96196E-13 9.10855E-13
 -1       449 3.45542E+01 3.44100E+00-1.12239E-02 4.88179E-01 2.98053E-13 4.51986E-13
 -1       450 3.14331E+01-1.17482E+00 6.22698E-03-1.65939E+00 2.56881E-13 3.81709E-13
 -1       451 2.45485E+01-4.86795E+00-1.86641E-02-5.17436E+00 1.00558E-13 3.41796E-13
 -1       452 1.57320E+01-6.33169E+00-4.96637E-02-6.96105E+00-7.94920E-14-5.17489E-13
 -1       453 7.68400E+00-6.27642E+00-7.18040E-02-6.29987E+00 4.64351E-14-5.15657E-13
 -1       454 2.41133E+00-5.52262E+00-6.42504E-02-3.52297E+00-1.88044E-14-2.40807E-13
 -1       455 1.13385E+00-5.33494E+00-5.99585E-02 1.42746E+00-6.50972E-14-2.63761E-13
 -1       456 4.98548E+00-5.67452E+00-2.89297E-02 5.13877E+00 1.24595E-13-5.88862E-13
 -1       457 1.17717E+01-6.54410E+00-5.76184E-02 6.79627E+00-1.30729E-14-1.94053E-13
 -1       458 1.99194E+01-6.11525E+00-4.64392E-02 6.25576E+00 7.72993E-15 5.78704E-15
 -1       459 2.89395E+01-3.72116E+00-1.25028E-02 2.67077E+00-2.13329E-13 6.38128E-13
 -1       460 3.41370E+01 1.89432E+00 3.10858E-02 3.65726E-02-4.09707E-13 3.69621E-13
 -1       461 3.67135E+01 6.20265E+00 6.69696E-02-8.26728E-01-3.10862E-13-4.34791E-14
 -1       462 3.59830E+01 8.32641E+00 8.71787E-04-8.24739E-01-3.33428E-13-3.73607E-13
 -1       463 3.63218E+01 6.74630E+00 2.31693E-02-1.66657E-01-2.41349E-13-3.49956E-13
 -1       464 3.45959E+01 2.47439E+00 2.10274E-02-8.30182E-01-1.23172E-13 4.86555E-14
 -1       465 3.00370E+01-2.69366E+00 1.08284E-02-4.06723E+00-2.20039E-13-3.64764E-13
 -1       466 2.26790E+01-6.25975E+00 7.61998E-03-6.87784E+00-8.72219E-14-3.07539E-13
 -1       467 1.22592E+01-6.62006E+00-5.08466E-02-7.80485E+00 1.62259E-13 7.36119E-13
 -1       468 4.26252E+00-6.24587E+00-1.18113E-01-5.16729E+00-3.97404E-13 6.82371E-13
 -1       469 3.32450E+01 3.89645E-01 3.11891E-02 2.20182E+00 1.39461E-13 5.52003E-13
 -1       470 3.25735E+01 6.73574E+00-1.13360E-01-6.97502E-01 6.08666E-13 2.46581E-13
 -1       471 2.03735E+01 8.31989E-01 4.06813E-03 9.72026E-01 3.90073E-13 8.72777E-14
 -1       472 1.97326E+01 3.10392E+00-5.38280E-03-6.34043E-01-1.29758E-13-5.09143E-13
 -1       473 1.98287E+01 2.93085E+00-5.74880E-03-9.50318E-01-2.12696E-13-5.21630E-13
 -1       474 1.96649E+01 3.22655E+00-5.02371E-03 8.84758E-03 6.75472E-14-5.34082E-13
 -1       475 1.96834E+01 3.19353E+00-5.10421E-03 3.30447E-01 1.39865E-13-5.15958E-13
 -1       476 1.97372E+01 3.09673E+00-5.43223E-03 6.45818E-01 2.24559E-13-4.99281E-13
 -1       477 1.98360E+01 2.91864E+00-5.95405E-03 9.61950E-01 3.33919E-13-3.99051E-13
 -1       478 1.99917E+01 2.63365E+00-6.48410E-03 1.25608E+00 4.01419E-13-3.17473E-13
 -1       479 2.02335E+01 2.18810E+00-5.61167E-03 1.50169E+00 4.50300E-13-1.80521E-13
 -1       480 2.01118E+01 4.53267E-01 4.95278E-03 4.64254E-01 3.14013E-13 5.93169E-14
 -1       481 2.03418E+01 9.76574E-01 3.78484E-03-9.39551E-01-3.53087E-13-1.22840E-13
 -1       482 3.14003E+01 1.22584E+00-1.39557E-01-9.27182E-01 3.17246E-13-9.72902E-14
 -1       483 2.01766E+01 5.33907E-01 8.26608E-04-4.68289E-01-2.79780E-13-1.30485E-13
 -1       484 2.00244E+01 3.03523E-01 1.19031E-03-1.66934E-01-1.95569E-13-1.25253E-13
 -1       485 1.99234E+01 1.61426E-01 4.71554E-04 1.45651E-02-1.65520E-13-1.62101E-13
 -1       486 1.98646E+01 7.51377E-02 1.68991E-04 1.17097E-01-1.32304E-13-1.53673E-13
 -1       487 1.98371E+01 2.24201E-02 2.45734E-05 1.68301E-01-1.36877E-13-1.68113E-13
 -1       488 1.98308E+01-9.00976E-03-4.65534E-05 1.86854E-01-1.60692E-13-2.08842E-13
 -1       489 1.98379E+01-2.65220E-02-8.18933E-05 1.85374E-01-2.02148E-13-1.73143E-13
 -1       490 1.98527E+01-3.47855E-02-9.65545E-05 1.72460E-01-1.16230E-13-1.00714E-13
 -1       491 1.98713E+01-3.68678E-02-9.78547E-05 1.53998E-01-8.60162E-14-5.07263E-14
 -1       492 1.98914E+01-3.48060E-02-9.02952E-05 1.34017E-01-4.79455E-14-2.96857E-14
 -1       493 1.99115E+01-2.99262E-02-7.67830E-05 1.15294E-01-2.90904E-14-1.00324E-13
 -1       494 1.99313E+01-2.30367E-02-5.90427E-05 9.97861E-02-8.78936E-14-9.01997E-14
 -1       495 1.99508E+01-1.45561E-02-3.79266E-05 8.89557E-02-4.52283E-14-1.24087E-13
 -1       496 1.99705E+01-4.60344E-03-1.35839E-05 8.40165E-02-1.09220E-13-1.96650E-13
 -1       497 1.99914E+01 6.93208E-03 1.43634E-05 8.61198E-02-8.65210E-14-1.89648E-13
 -1       498 2.00146E+01 2.03349E-02 4.67049E-05 9.64941E-02-1.02154E-13-2.07189E-13
 -1       499 2.00417E+01 3.60101E-02 8.45105E-05 1.16543E-01-1.38507E-17-1.73510E-13
 -1       500 2.00744E+01 5.44237E-02 1.28976E-04 1.47899E-01 1.25995E-14-2.44710E-13
 -1       501 2.01146E+01 7.60230E-02 1.81201E-04 1.92434E-01 6.23751E-14-1.99729E-13
 -1       502 2.01647E+01 1.01116E-01 2.41816E-04 2.52199E-01 2.69698E-14-2.13251E-13
 -1       503 2.02269E+01 1.29675E-01 3.10360E-04 3.29267E-01-3.09344E-14-2.35009E-13
 -1       504 2.03038E+01 1.61027E-01 3.84214E-04 4.25444E-01-3.78780E-14-2.62325E-13
 -1       505 2.03979E+01 1.93331E-01 4.56856E-04 5.41762E-01-1.16451E-14-2.81453E-13
 -1       506 2.05124E+01 2.22770E-01 5.15128E-04 6.77653E-01-1.04733E-15-2.30363E-13
 -1       507 2.06507E+01 2.42322E-01 5.35316E-04 8.29671E-01-1.25146E-13-1.54756E-13
 -1       508 2.08180E+01 2.40039E-01 4.78263E-04 9.89572E-01 1.31224E-13-9.76844E-14
 -1       509 2.10224E+01 1.97024E-01 2.84963E-04 1.14155E+00 7.69800E-14-3.64196E-14
 -1       510 2.12779E+01 8.59082E-02-1.21683E-04 1.25851E+00-1.34364E-13-3.85598E-14
 -1       511 2.16068E+01-1.27781E-01-8.25464E-04 1.29741E+00-1.55267E-13-1.19230E-13
 -1       512 2.20408E+01-4.76093E-01-1.83216E-03 1.19479E+00-2.12606E-13-9.48016E-14
 -1       513 2.26119E+01-9.61658E-01-3.00385E-03 8.65776E-01-1.68667E-13-2.43560E-13
 -1       514 2.33211E+01-1.50193E+00-4.42087E-03 2.18495E-01 4.52026E-14-3.78916E-13
 -1       515 2.40819E+01-1.85655E+00-5.83659E-03-7.87385E-01 1.16735E-13-4.88586E-14
 -1       516 2.46646E+01-1.60443E+00-4.48865E-03-2.00745E+00 6.19088E-14 4.25300E-15
 -1       517 2.47282E+01-3.65119E-01-1.93059E-02-2.93319E+00 1.12625E-13-1.45126E-13
 -1       518 2.42595E+01 1.56984E+00-2.94472E-02-2.81165E+00 1.98723E-13-8.08192E-14
 -1       519 2.36168E+01 3.01559E+00-6.05175E-02-1.29713E+00 2.25028E-14-3.04012E-13
 -1       520 2.37165E+01 2.66694E+00-4.56212E-02 7.22475E-01-7.89594E-14-5.05749E-13
 -1       521 2.41366E+01 8.80519E-01-2.78782E-02 1.78597E+00-1.49241E-13-4.69744E-13
 -1       522 2.42851E+01-9.17910E-01-1.41153E-02 1.49343E+00 7.67844E-14-6.42623E-13
 -1       523 2.38102E+01-1.69161E+00-5.92614E-03 4.04919E-01-1.08767E-13-3.82855E-13
 -1       524 2.29567E+01-1.53045E+00-2.14556E-03-6.67616E-01 2.03147E-13-3.79873E-13
 -1       525 2.20156E+01-8.36724E-01-9.70639E-04-1.33864E+00-6.00459E-14-1.04884E-13
 -1       526 1.98094E+01 1.28790E-01 1.00157E-03-1.93735E-02 1.62134E-13-5.07425E-14
 -1       527 1.97513E+01 5.93392E-02 3.77055E-04-1.17733E-01 1.41400E-13-8.75477E-14
 -1       528 1.97323E+01 1.75970E-02 8.77743E-05-1.65721E-01 1.61559E-13-9.57831E-14
 -1       529 1.97381E+01-7.08743E-03-5.19192E-05-1.82287E-01 1.09790E-13-6.89088E-14
 -1       530 1.97583E+01-2.08121E-02-1.21796E-04-1.79806E-01 6.51593E-14-4.58489E-14
 -1       531 1.97858E+01-2.73292E-02-1.52778E-04-1.66544E-01 1.06400E-13-1.05612E-13
 -1       532 1.98160E+01-2.90661E-02-1.59338E-04-1.48078E-01 1.42307E-13-1.05937E-13
 -1       533 1.98463E+01-2.76234E-02-1.49892E-04-1.28182E-01 6.73336E-14-9.70513E-14
 -1       534 1.98751E+01-2.40436E-02-1.29816E-04-1.09428E-01 9.91790E-14-6.78200E-14
 -1       535 1.99021E+01-1.89701E-02-1.02413E-04-9.36014E-02 6.82253E-14-9.28119E-14
 -1       536 1.99276E+01-1.27490E-02-6.94645E-05-8.20095E-02 8.08497E-14-1.26295E-13
 -1       537 1.99523E+01-5.50001E-03-3.16221E-05-7.57095E-02 1.07599E-13-1.11685E-13
 -1       538 1.99776E+01 2.82810E-03 1.12952E-05-7.56824E-02 9.15173E-14 4.66295E-14
 -1       539 2.00051E+01 1.24103E-02 6.00719E-05-8.29585E-02-3.83392E-14 6.92468E-14
 -1       540 2.00368E+01 2.34993E-02 1.15810E-04-9.87017E-02-8.98637E-14 9.00603E-14
 -1       541 2.00750E+01 3.63728E-02 1.79620E-04-1.24251E-01 1.28480E-13 1.20127E-13
 -1       542 2.01223E+01 5.12628E-02 2.52182E-04-1.61107E-01 1.11635E-13 5.70200E-14
 -1       543 2.01817E+01 6.82517E-02 3.33088E-04-2.10853E-01-5.48988E-15 7.11598E-14
 -1       544 2.02564E+01 8.71139E-02 4.19823E-04-2.74971E-01-2.12779E-13 1.04925E-13
 -1       545 2.03500E+01 1.07069E-01 5.06224E-04-3.54516E-01-1.23824E-13-7.14967E-14
 -1       546 2.04659E+01 1.26407E-01 5.80198E-04-4.49564E-01-7.48981E-14-1.18676E-13
 -1       547 2.06079E+01 1.41932E-01 6.20637E-04-5.58365E-01-7.26758E-14-1.53910E-13
 -1       548 2.07793E+01 1.48192E-01 5.93796E-04-6.76055E-01 1.01312E-13-5.32941E-14
 -1       549 2.09835E+01 1.36535E-01 4.50383E-04-7.92841E-01 1.06607E-14 1.45872E-13
 -1       550 2.12241E+01 9.42489E-02 1.27114E-04-8.91588E-01 5.08251E-14 2.79824E-13
 -1       551 2.15044E+01 4.53057E-03-4.39939E-04-9.45039E-01 1.28619E-13 4.13882E-13
 -1       552 2.18278E+01-1.50994E-01-1.27834E-03-9.13432E-01 8.37333E-14 2.02094E-13
 -1       553 2.21943E+01-3.84115E-01-2.32100E-03-7.44687E-01 2.10738E-14 3.44056E-13
 -1       554 2.25938E+01-6.82338E-01-3.34627E-03-3.81266E-01-8.07928E-14 4.71427E-13
 -1       555 2.29881E+01-9.78194E-01-4.03730E-03 2.18380E-01 2.25171E-13 3.32042E-13
 -1       556 2.32884E+01-1.12159E+00-4.45165E-03 1.02806E+00 1.94900E-13 3.09177E-13
 -1       557 2.33680E+01-9.10110E-01-1.48895E-03 1.87731E+00 1.22687E-13 4.83969E-13
 -1       558 2.30893E+01-1.79806E-01-3.20343E-03 2.43969E+00-1.12304E-13 3.85210E-13
 -1       559 2.25293E+01 8.81540E-01-4.46468E-03 2.27258E+00-2.08977E-13 2.83550E-13
 -1       560 2.19946E+01 1.72585E+00-5.87512E-03 1.25761E+00-3.64878E-13 3.68182E-13
 -1       561 2.18515E+01 1.74556E+00-4.80406E-03-1.63015E-01-1.49210E-13 4.41251E-13
 -1       562 2.21243E+01 9.18938E-01-1.54777E-03-1.19944E+00 1.70691E-14-7.28217E-14
 -1       563 2.24406E+01-1.37139E-01-1.93473E-03-1.40905E+00 2.35953E-13-1.69340E-13
 -1       564 2.24766E+01-8.33974E-01-5.02163E-03-9.12310E-01 9.90727E-14-1.55196E-14
 -1       565 2.21656E+01-9.65707E-01-6.28005E-03-1.41701E-01-1.11079E-13 4.20815E-14
 -1       566 2.16374E+01-6.67207E-01-3.82760E-03 4.89814E-01-7.14485E-14 1.83715E-13
 -1       567 2.10413E+01-1.79999E-01-3.01227E-04 7.99743E-01-2.52806E-13 5.77180E-13
 -1       568 2.05066E+01 5.44503E-01 1.21395E-03 3.30729E+00 2.29464E-13-2.12127E-13
 -1       569 1.92481E+01 1.42483E+00 2.35551E-03 3.38090E+00 1.12051E-13 2.19577E-13
 -1       570 2.13304E+01-1.81333E-01 3.64572E-03 1.73441E+00-3.96100E-13 1.58142E-13
 -1       571 2.11959E+01 1.39185E-02 2.17233E-03 2.61254E+00-3.26357E-13-6.87215E-14
 -1       572 1.78120E+01 2.41121E+00 6.90198E-03 2.44551E+00-1.19005E-13 8.41454E-14
 -1       573 1.69554E+01 2.98862E+00 3.98542E-03 5.92281E-01-1.60354E-13 3.01432E-13
 -1       574 1.72301E+01 2.80483E+00 4.62988E-04-1.50910E+00-2.10836E-13-3.23640E-13
 -1       575 1.84105E+01 2.00764E+00 1.72790E-03-2.97853E+00 1.34698E-13-6.86319E-13
 -1       576 1.98321E+01 1.03515E+00 5.45201E-04-3.45105E+00 5.29997E-13-2.69270E-13
 -1       577 2.08658E+01 2.97450E-01 4.61660E-03-3.06647E+00 2.37817E-13 3.82278E-13
 -1       578 2.12680E+01-5.31821E-02-4.39205E-03-2.24771E+00 8.38913E-14-2.06786E-13
 -1       579 6.66638E+00-1.69504E+00 1.86762E-01 3.22340E+00-3.68469E-13 2.45221E-13
 -1       580 1.15843E+01-3.48740E+00 1.56987E-01 6.79950E+00-3.38701E-13 3.62751E-13
 -1       581 6.36183E+00-2.09591E+00 1.87578E-01-3.48495E+00-2.17337E-13 4.18790E-13
 -1       582 1.99244E+01 2.46059E-01 2.36838E-03 1.58894E-01 2.01013E-13 1.36770E-14
 -1       583 1.92819E+01-5.62202E+00 1.09139E-01 7.35062E+00-7.46354E-13 4.02012E-13
 -1       584 2.03944E+01 1.76898E+00-5.34837E-03-1.54549E+00-4.37346E-13-1.82950E-13
 -1       585 3.02108E+01-3.24011E+00-6.99377E-02 1.54130E+00-3.94759E-13 1.50949E-13
 -1       586 1.17008E+01-4.60647E+00 1.41117E-01 6.51331E+00 3.00059E-13-2.02616E-13
 -1       587 1.96806E+01 3.19794E+00-5.11926E-03-3.12883E-01-2.24774E-14-5.18835E-13
 -1       588 3.05901E+01-1.57384E-01-1.19799E-01 1.77131E+00 1.82090E-13 7.34864E-13
 -1       589 3.07887E+01 7.41897E+00-1.91954E-01 1.04811E+00 2.15356E-13 3.98312E-13
 -1       590 3.03172E+01-1.74376E+00-9.40731E-02-1.04185E+00-2.80441E-13 3.98237E-13
 -1       591 3.12309E+01 5.10420E+00-1.50955E-01 2.37944E+00 6.45289E-13 9.17218E-13
 -1       592 2.80240E+01-4.64669E+00-3.89770E-02-1.54362E+00-3.98813E-15 7.72160E-13
 -1       593 2.21293E+01-6.31224E+00 3.39660E-02-5.49487E+00-2.47101E-13 4.07858E-13
 -1       594 1.44528E+01-5.46948E+00 1.01239E-01-6.96754E+00-1.15782E-13-4.09395E-13
 -1       595 8.16120E+00-3.50387E+00 1.61244E-01-5.56893E+00 1.22520E-13-3.79266E-13
 -1       596 4.41546E+00-1.96356E+00 1.84756E-01-1.21382E+00-8.74361E-14-3.17704E-13
 -1       597 5.62722E+00-2.65575E+00 1.68504E-01 3.54810E+00 7.99708E-15-1.75082E-13
 -1       598 1.76780E+01-6.10187E+00 7.05193E-02 6.51413E+00 2.71075E-13 2.26635E-13
 -1       599 2.52438E+01-5.97536E+00 1.29891E-02 3.69086E+00 1.94254E-13 5.65874E-13
 -1       600 3.11789E+01 3.25569E+00-1.48035E-01-2.70667E+00-4.00860E-14-3.55091E-13
 -1       601 3.06153E+01 6.32652E+00-1.85354E-01-2.11696E+00-2.95777E-13-4.28314E-13
 -1       602 3.00377E+01 6.78466E+00-1.89173E-01 3.54470E-01-3.88564E-13-1.15151E-13
 -1       603 3.12039E+01 3.58681E+00-1.51399E-01 1.50564E+00-1.16337E-13-4.21198E-13
 -1       604 3.10079E+01-1.77605E+00-7.93477E-02-3.31918E-01 1.55842E-13-4.69763E-13
 -1       605 2.75078E+01-5.56506E+00-3.72583E-02-3.88635E+00 5.77524E-14-6.83807E-13
 -1       606 1.95344E+01-6.06172E+00 9.94830E-02-7.40119E+00 4.89317E-13 3.25157E-14
 -1       607 1.09211E+01-3.99767E+00 1.47081E-01-6.92644E+00 1.27759E-13 2.40641E-13
 -1       608 2.05854E+01 1.30519E+00-9.99648E-04 1.54779E+00 4.87986E-13 1.56200E-13
 -1       609 2.54788E+01-6.19667E+00 1.61751E-02 5.17993E+00-6.90704E-13 4.56850E-13
 -1       610 1.99817E+01 2.66187E+00-6.31530E-03-1.25804E+00-3.02948E-13-4.56435E-13
 -1       611 2.42655E+01-5.95247E+00 3.11337E-02-5.26992E+00 1.80519E-13-5.72654E-13
 -1       612 2.96256E+01 3.62821E+00-1.40558E-01-1.78936E+00 3.82035E-13-2.89511E-13
 -1       613 2.79261E+01-4.42346E+00-2.25085E-02 3.70456E-01-3.26230E-14 1.91056E-13
 -1       614 2.14137E+01-2.58783E-01-4.06056E-04-1.49679E+00-1.13430E-13 7.64700E-14
 -1       615 1.99602E+01 2.44898E+00-1.56468E-03 3.94428E-01 1.56719E-13-4.23670E-13
 -1       616 1.99283E+01 2.52375E+00-1.53962E-03 1.35634E-01 6.97538E-14-4.79055E-13
 -1       617 2.01231E+01 2.04462E+00-1.38444E-03 8.53024E-01 3.22834E-13-3.21700E-13
 -1       618 2.02382E+01 1.68177E+00-1.40511E-03 9.96048E-01 3.68682E-13-2.22660E-13
 -1       619 2.03189E+01 1.03687E+00 2.47838E-03 8.32670E-01 3.48599E-13-1.12184E-13
 -1       620 2.02077E+01 6.13021E-01 8.07075E-04 4.21447E-01 2.82720E-13-1.17831E-13
 -1       621 1.68596E+01-4.01520E+00 1.20959E-01-6.93419E+00 3.53936E-13-8.90850E-14
 -1       622 1.17608E+01-1.33268E+00 1.65226E-01-5.02782E+00 3.84786E-13 1.62342E-13
 -1       623 2.02448E+01 6.68601E-01 1.52263E-03-3.93359E-01-2.26077E-13-2.07631E-13
 -1       624 2.01670E+01 3.91441E-01 1.92751E-04-1.39947E-01-2.02956E-13-2.04196E-13
 -1       625 2.01017E+01 2.11972E-01 8.45114E-05 2.14977E-02-1.39749E-13-2.10673E-13
 -1       626 2.00514E+01 9.77056E-02 1.39957E-05 1.16251E-01-1.48062E-13-2.66217E-13
 -1       627 2.00164E+01 2.61355E-02-1.32426E-05 1.64865E-01-1.38898E-13-2.60280E-13
 -1       628 1.99939E+01-1.69150E-02-2.54964E-05 1.82947E-01-1.19973E-13-1.21164E-13
 -1       629 1.99811E+01-4.06688E-02-3.12531E-05 1.81900E-01-8.76182E-14-2.46084E-14
 -1       630 1.99750E+01-5.13112E-02-3.26448E-05 1.69888E-01-9.75148E-14-8.51492E-14
 -1       631 1.99737E+01-5.30391E-02-3.09616E-05 1.52682E-01-7.85553E-14-1.28906E-13
 -1       632 1.99756E+01-4.86754E-02-2.72667E-05 1.34338E-01-3.71058E-14-6.92039E-14
 -1       633 1.99798E+01-4.00475E-02-2.21580E-05 1.17725E-01-7.08326E-14-8.30913E-14
 -1       634 1.99856E+01-2.82352E-02-1.59950E-05 1.04933E-01-6.53598E-14-7.27658E-14
 -1       635 1.99927E+01-1.37490E-02-8.88126E-06 9.75927E-02-1.03092E-13-6.34172E-14
 -1       636 2.00010E+01 3.33615E-03-7.92119E-07 9.71128E-02-1.17474E-13-5.14337E-14
 -1       637 2.00107E+01 2.32746E-02 8.47573E-06 1.04866E-01-5.19935E-14-7.80191E-15
 -1       638 2.00220E+01 4.65575E-02 1.92438E-05 1.22318E-01-7.16250E-14-1.45760E-14
 -1       639 2.00352E+01 7.38189E-02 3.19109E-05 1.51113E-01-5.08114E-14-5.65334E-14
 -1       640 2.00506E+01 1.05724E-01 4.69088E-05 1.93106E-01-1.13386E-14-1.14197E-13
 -1       641 2.00684E+01 1.42815E-01 6.46369E-05 2.50340E-01 3.24162E-14-2.70179E-13
 -1       642 2.00890E+01 1.85282E-01 8.53534E-05 3.24954E-01 1.84470E-14-2.03595E-13
 -1       643 2.01125E+01 2.32606E-01 1.08988E-04 4.18994E-01-3.64379E-14-1.22890E-13
 -1       644 2.01393E+01 2.83004E-01 1.34823E-04 5.34099E-01-2.79093E-14-6.02309E-14
 -1       645 2.01699E+01 3.32553E-01 1.60955E-04 6.71033E-01 1.15206E-13-4.17572E-14
 -1       646 2.02061E+01 3.73879E-01 1.83395E-04 8.29006E-01-8.00093E-14 1.28969E-14
 -1       647 2.02520E+01 3.94265E-01 1.94570E-04 1.00472E+00-1.22628E-14 8.57375E-14
 -1       648 2.03168E+01 3.73133E-01 1.80762E-04 1.19103E+00 1.09960E-13-2.57337E-14
 -1       649 2.04189E+01 2.79265E-01 1.18804E-04 1.37494E+00 6.96293E-15-8.75590E-14
 -1       650 2.05922E+01 6.90463E-02-1.89896E-05 1.53433E+00-6.58828E-14-5.39732E-15
 -1       651 2.08934E+01-3.10634E-01-2.68130E-04 1.63185E+00-1.84642E-13 2.32582E-13
 -1       652 2.14060E+01-9.06431E-01-5.48810E-04 1.60412E+00-3.52589E-13 1.53842E-13
 -1       653 2.22341E+01-1.71621E+00-5.11521E-04 1.34447E+00-8.17624E-14 3.56706E-13
 -1       654 2.34375E+01-2.57439E+00-1.53080E-03 6.80219E-01 6.95567E-14 7.67917E-14
 -1       655 2.49351E+01-3.01099E+00-1.14674E-02-5.66813E-01 6.35950E-15-2.03744E-13
 -1       656 2.62026E+01-2.25529E+00-4.13043E-02-2.21910E+00-3.98713E-14-1.22269E-13
 -1       657 2.66330E+01 4.65938E-01-6.83968E-02-3.26446E+00 3.17576E-13-2.72133E-13
 -1       658 2.61352E+01 4.94425E+00-1.21381E-01-1.18392E-01-2.39808E-13-4.16042E-13
 -1       659 2.63599E+01 2.78014E+00-1.17642E-01 1.82747E+00 8.98934E-15-6.38769E-13
 -1       660 2.67508E+01-6.71138E-01-4.31013E-02 1.84568E+00 5.79294E-14-2.24659E-13
 -1       661 2.55942E+01-2.48576E+00-3.57063E-02 2.94817E-01 1.82528E-13-2.58374E-15
 -1       662 2.42865E+01-2.69718E+00 1.68878E-03-1.13461E+00-7.58876E-14 7.78262E-14
 -1       663 2.27855E+01-1.76934E+00-6.66545E-03-2.02206E+00 3.61145E-14-2.23423E-13
 -1       664 1.99727E+01 8.74787E-02 7.81155E-05-1.18653E-01 1.48560E-13-1.39740E-13
 -1       665 2.00266E+01 1.88969E-01 2.46150E-04-2.04654E-02 1.74337E-13-1.41252E-13
 -1       666 1.99251E+01-1.32603E-02-2.83067E-05-1.86727E-01 9.29667E-14-4.58672E-14
 -1       667 1.99205E+01-3.41952E-02-4.45735E-05-1.85340E-01 1.49492E-13-7.24222E-14
 -1       668 1.99232E+01-4.37916E-02-5.09688E-05-1.72723E-01 1.33440E-13-1.16473E-13
 -1       669 1.99303E+01-4.57339E-02-5.07939E-05-1.54732E-01 6.51719E-14-1.25576E-13
 -1       670 1.99399E+01-4.24866E-02-4.62048E-05-1.35441E-01 6.62559E-14-6.62712E-14
 -1       671 1.99510E+01-3.56512E-02-3.85926E-05-1.17699E-01 5.47853E-14-5.52248E-15
 -1       672 1.99628E+01-2.61951E-02-2.87468E-05-1.03553E-01 7.41921E-14-1.20408E-15
 -1       673 1.99755E+01-1.46041E-02-1.70437E-05-9.45628E-02 1.07927E-13 2.49270E-14
 -1       674 1.99890E+01-1.00010E-03-3.58991E-06-9.20492E-02 5.31509E-16 5.70173E-14
 -1       675 2.00040E+01 1.47629E-02 1.18382E-05-9.72705E-02-3.53070E-14 2.05105E-13
 -1       676 2.00211E+01 3.30128E-02 2.96063E-05-1.11550E-01-1.94294E-14 2.08338E-13
 -1       677 2.00413E+01 5.41699E-02 5.01670E-05-1.36354E-01 4.18801E-14-4.84849E-14
 -1       678 2.00654E+01 7.86387E-02 7.39415E-05-1.73311E-01 1.22306E-13 2.17427E-14
 -1       679 2.00948E+01 1.06660E-01 1.01153E-04-2.24170E-01 7.44714E-14 8.08361E-15
 -1       680 2.01306E+01 1.38098E-01 1.31571E-04-2.90675E-01 3.96485E-14 6.76973E-14
 -1       681 2.01745E+01 1.72115E-01 1.64116E-04-3.74323E-01-1.00982E-13-7.99990E-14
 -1       682 2.02280E+01 2.06697E-01 1.96253E-04-4.75966E-01-5.79188E-14-1.27863E-13
 -1       683 2.02935E+01 2.37947E-01 2.23088E-04-5.95209E-01-5.82037E-14-1.87667E-13
 -1       684 2.03741E+01 2.59093E-01 2.36084E-04-7.29515E-01-3.00542E-14-2.35765E-13
 -1       685 2.04751E+01 2.59185E-01 2.21316E-04-8.72942E-01-6.90835E-14-1.30820E-13
 -1       686 2.06049E+01 2.21637E-01 1.57494E-04-1.01439E+00 3.33569E-14-1.28067E-13
 -1       687 2.07780E+01 1.23170E-01 1.69807E-05-1.13522E+00 4.98398E-14-1.68403E-13
 -1       688 2.10167E+01-6.53907E-02-2.22956E-04-1.20617E+00 1.28338E-13-7.37018E-14
 -1       689 2.13534E+01-3.73305E-01-5.45737E-04-1.18343E+00-7.30208E-14-2.88600E-14
 -1       690 2.18250E+01-8.13021E-01-9.72522E-04-1.00571E+00-1.19669E-13-1.27882E-13
 -1       691 2.24611E+01-1.34922E+00-1.46727E-03-5.96139E-01-5.83186E-14 1.56257E-13
 -1       692 2.32432E+01-1.83259E+00-1.51704E-03 1.29042E-01 3.26949E-13 3.31258E-13
 -1       693 2.40402E+01-1.92709E+00 1.16114E-04 1.19612E+00 2.12267E-14 2.78421E-13
 -1       694 2.44689E+01-1.26220E+00-2.57414E-02 2.32266E+00 2.16498E-14 3.22518E-13
 -1       695 2.44048E+01 3.46304E-01-1.46509E-02 2.89143E+00 7.22300E-14 3.16766E-13
 -1       696 2.38073E+01 2.34593E+00-4.93781E-02 2.33600E+00-3.40178E-13 5.22898E-14
 -1       697 2.33345E+01 3.26853E+00-8.67961E-02 6.13541E-01-2.58574E-13-1.99906E-13
 -1       698 2.36027E+01 2.47119E+00-6.41877E-02-1.12941E+00 9.13427E-14-2.03322E-13
 -1       699 2.42467E+01 4.91612E-01-2.70135E-02-1.77686E+00 4.41754E-13-3.18902E-13
 -1       700 2.42776E+01-1.15406E+00-5.93700E-03-1.18838E+00 2.01717E-13-6.08653E-13
 -1       701 2.35854E+01-1.73792E+00-1.17497E-02-7.81594E-02-2.04011E-13-4.20346E-13
 -1       702 2.26721E+01-1.42752E+00 1.40252E-03 8.35665E-01-2.56154E-13-1.01009E-13
 -1       703 2.20149E+01-9.29540E-01 2.77190E-03 1.44350E+00-4.89484E-13 4.45726E-14
 -1       704 1.55851E+01 1.71606E+00 3.29986E-02 2.21789E+00 6.83845E-14 1.63854E-13
 -1       705 2.19619E+01-9.10663E-01 2.26145E-03-2.25630E+00 2.86554E-13-2.22541E-13
 -1       706 2.01630E+01-7.35708E-01 5.98353E-03 4.23596E+00-5.97028E-14 3.55639E-14
 -1       707 1.49810E+01 1.98284E+00 3.01196E-02-6.43412E-01-2.02265E-13-7.71648E-15
 -1       708 1.77043E+01 3.97920E-01 1.17929E-02 4.04789E+00 3.46060E-14 2.96746E-13
 -1       709 1.63622E+01 1.23019E+00 2.93046E-02-3.12907E+00-4.06348E-14-2.19681E-13
 -1       710 1.88427E+01-3.50882E-03 1.39027E-02-4.19426E+00 2.92239E-13-2.90498E-13
 -1       711 2.09333E+01-8.72322E-01 7.87507E-03-3.86925E+00 2.44578E-13-5.46007E-14
 -1       712 2.75450E+01-4.73115E+00-3.60180E-02 2.07265E+00-3.38000E-13 1.92455E-13
 -1       713 1.17185E+01-1.05782E+00 1.43687E-01 4.66019E+00-2.14287E-13 1.16678E-13
 -1       714 2.92020E+01-4.12841E-02-8.34478E-02 1.62026E+00 1.69247E-13-2.55782E-13
 -1       715 2.81393E+01 1.90826E+00-1.18919E-01 3.12696E+00 2.72452E-13 4.46226E-13
 -1       716 2.02958E+01 1.42694E+00 6.35459E-04-9.74487E-01-3.25504E-13-2.77664E-13
 -1       717 2.20922E+01-5.66133E+00 3.89006E-02 4.53084E+00 9.49137E-14 3.18847E-13
 -1       718 1.07215E+01-2.22468E+00 1.35206E-01 4.86989E+00 1.56992E-14-2.19526E-13
 -1       719 7.29265E+00-7.02427E-01 1.62414E-01 1.23924E+00 1.56992E-15-2.36040E-13
 -1       720 2.01058E+01 3.51898E-01 5.51578E-04 1.49548E-01 2.26065E-13-1.22458E-13
 -1       721 1.99408E+01 2.45092E-02 5.12239E-06-1.68485E-01 1.04287E-13-4.95159E-14
 -1       722 2.00243E+01 2.29456E+00-1.58923E-03 6.37273E-01 2.68162E-13-3.68162E-13
 -1       723 2.88136E+01-2.21200E+00-9.81706E-02-4.35004E-01-2.87761E-13 2.81719E-14
 -1       724 2.71539E+01 5.61263E+00-1.63002E-01-1.15456E+00-3.12916E-13-1.08969E-13
 -1       725 2.00191E+01 2.30223E+00-1.85405E-03-6.28338E-01-1.62149E-13-4.49179E-13
 -1       726 2.77386E+01 5.81383E+00-1.73677E-01-4.57383E-01 1.37675E-13-5.33733E-13
 -1       727 2.75930E+01 5.25602E+00-1.50751E-01 2.19574E+00 2.83794E-13-2.56361E-13
 -1       728 2.86722E+01 6.02300E-02-1.20495E-01-2.84837E+00 2.25167E-14-8.56260E-15
 -1       729 2.48502E+01-5.56007E+00 6.27098E-04-2.83731E+00 8.03854E-14 4.22473E-13
 -1       730 1.95976E+01-5.36660E+00 6.73868E-02-5.65219E+00-1.92939E-13 1.87780E-13
 -1       731 1.37498E+01-3.35754E+00 1.15957E-01-5.86971E+00-6.48925E-14-1.40162E-13
 -1       732 9.12838E+00-1.00831E+00 1.55104E-01-3.36113E+00 1.62783E-13-4.82482E-13
 -1       733 1.65773E+01-4.50973E+00 1.07867E-01 5.96917E+00 1.99542E-13 1.49169E-13
 -1       734 2.80665E+01-2.87518E+00-5.94880E-02 1.32084E+00 2.13523E-13 5.45317E-13
 -1       735 2.41093E+01-5.40337E+00 3.11380E-02 4.94395E+00-5.73961E-13 8.63594E-13
 -1       736 2.76494E+01 3.61189E+00-1.36971E-01-3.04879E+00-8.06716E-14-2.32783E-13
 -1       737 8.94773E+00 3.18024E-02 1.51609E-01-3.56789E-01-1.21148E-13 1.54099E-13
 -1       738 2.82227E+01-3.88561E+00-7.06377E-02-9.63923E-01 2.19196E-13-3.77934E-13
 -1       739 1.68481E+01-3.06966E+00 1.19350E-01 6.53426E+00-2.20893E-13 2.57447E-13
 -1       740 2.01106E+01 2.06248E+00-2.85881E-03-8.43788E-01-2.35972E-13-4.30292E-13
 -1       741 1.99272E+01 2.52502E+00-1.62485E-03-1.26890E-01 1.55702E-14-4.63740E-13
 -1       742 2.11625E+01-4.60248E+00 7.51423E-02-6.02220E+00 4.50980E-13-2.29643E-13
 -1       743 2.17345E+01-1.26566E+00 5.07130E-03 3.35018E+00-2.99552E-13 2.03487E-13
 -1       744 2.13852E+01-4.03964E+00 2.60636E-02 5.52340E+00-4.59558E-13 7.13529E-13
 -1       745 2.64572E+01-5.03631E+00-1.12200E-02-2.58525E+00 1.96987E-13-3.91946E-13
 -1       746 2.21416E+01-1.19556E+00 1.11772E-03 2.34576E+00-5.19691E-13 1.81397E-13
 -1       747 2.21291E+01-1.55899E+00 4.28279E-03-3.11801E+00 9.47056E-14 1.22074E-13
 -1       748 2.85707E+01 3.61800E+00-1.69444E-01 1.77604E+00-1.75054E-13-2.52312E-13
 -1       749 1.99574E+01 2.45328E+00-1.63174E-03-3.83902E-01-6.18589E-14-4.00443E-13
 -1       750 2.54545E+01-5.30164E+00 1.81094E-02 1.92774E+00 1.33562E-13 3.15489E-13
 -1       751 2.80003E+01 1.08837E-01-7.40881E-02-1.75863E+00 5.92824E-14-7.99635E-13
 -1       752 2.02870E+01 1.06704E+00-3.67159E-04 6.08839E-01 2.94588E-13-1.89090E-13
 -1       753 2.58201E+01-3.99250E+00 1.61904E-03-1.08923E-01 2.35096E-13 5.89277E-13
 -1       754 2.68756E+01-3.10901E+00-2.26845E-02 6.59696E-02-1.35763E-13 9.08579E-14
 -1       755 2.00476E+01-4.37131E+00 4.05615E-02 4.51869E+00-1.22665E-13 2.24392E-13
 -1       756 2.02621E+01 4.32275E-01 1.61853E-06-9.43817E-02-1.70520E-13-2.43934E-13
 -1       757 2.02220E+01 2.33542E-01-1.43518E-05 3.49616E-02-1.66449E-13-2.32289E-13
 -1       758 2.01806E+01 1.03256E-01-1.03368E-05 1.12004E-01-1.37048E-13-2.00132E-13
 -1       759 2.01432E+01 2.05122E-02-8.65218E-06 1.51541E-01-6.92013E-14-2.09849E-13
 -1       760 2.01115E+01-2.91304E-02-8.82598E-06 1.65723E-01-2.47835E-14-1.89066E-13
 -1       761 2.00857E+01-5.57807E-02-8.86891E-06 1.63916E-01-1.02000E-13-6.39106E-14
 -1       762 2.00654E+01-6.65243E-02-8.19146E-06 1.53069E-01-1.11217E-13 3.31196E-15
 -1       763 2.00497E+01-6.62814E-02-7.30719E-06 1.38224E-01-2.16510E-14-1.42520E-14
 -1       764 2.00381E+01-5.83826E-02-6.27630E-06 1.23005E-01-6.20242E-14-1.40945E-13
 -1       765 2.00295E+01-4.49497E-02-5.03698E-06 1.10034E-01-1.03402E-13-1.46005E-13
 -1       766 2.00234E+01-2.71761E-02-3.44630E-06 1.01286E-01-6.71926E-14-7.89112E-14
 -1       767 2.00190E+01-5.54815E-03-1.68634E-06 9.83666E-02-5.08998E-14 9.60062E-15
 -1       768 2.00156E+01 1.99853E-02 2.49011E-07 1.02714E-01-6.43328E-14 7.91934E-14
 -1       769 2.00125E+01 4.98721E-02 2.44002E-06 1.15759E-01-1.37874E-13-6.57992E-14
 -1       770 2.00088E+01 8.48239E-02 4.99458E-06 1.39029E-01-4.14436E-14-1.38323E-13
 -1       771 2.00036E+01 1.25673E-01 8.04413E-06 1.74207E-01-6.48013E-14-9.28091E-14
 -1       772 1.99957E+01 1.73197E-01 1.17486E-05 2.23146E-01-2.85827E-14-4.02970E-14
 -1       773 1.99837E+01 2.27877E-01 1.63047E-05 2.87822E-01 3.50869E-14-8.65253E-14
 -1       774 1.99660E+01 2.89549E-01 2.19616E-05 3.70243E-01 7.71257E-14-2.45871E-14
 -1       775 1.99407E+01 3.56879E-01 2.90480E-05 4.72295E-01 2.64894E-14 3.62925E-14
 -1       776 1.99062E+01 4.26586E-01 3.80238E-05 5.95554E-01 1.12439E-14-4.08847E-14
 -1       777 1.98613E+01 4.92285E-01 4.95572E-05 7.41084E-01 1.36986E-13-6.58661E-14
 -1       778 1.98069E+01 5.42804E-01 6.45408E-05 9.09286E-01-4.15352E-14 5.57700E-14
 -1       779 1.97475E+01 5.59863E-01 8.36650E-05 1.09985E+00-5.09146E-14-2.09359E-15
 -1       780 1.96957E+01 5.15028E-01 1.06051E-04 1.31178E+00-1.09763E-13-2.36789E-14
 -1       781 1.96779E+01 3.66242E-01 1.33750E-04 1.54315E+00-3.46389E-14-4.64701E-14
 -1       782 1.97444E+01 5.49670E-02 2.21939E-04 1.78906E+00 4.41456E-14-1.47024E-14
 -1       783 1.99848E+01-4.92804E-01 6.17189E-04 2.03364E+00-3.19706E-13-1.55704E-14
 -1       784 2.05408E+01-1.34540E+00 2.60359E-03 2.22416E+00-7.47478E-14 1.44285E-13
 -1       785 2.16153E+01-2.52753E+00 1.89799E-03 2.24394E+00-1.68265E-13 2.07847E-13
 -1       786 2.34873E+01-3.83649E+00 1.63890E-02 1.83954E+00-1.49053E-13 2.07617E-13
 -1       787 2.36812E+01-3.44052E+00 2.53573E-02-3.28472E+00 3.43276E-14-8.85247E-14
 -1       788 1.00687E+01 1.61826E-01 9.52858E-02-6.86301E-01 1.91116E-13-5.80081E-13
 -1       789 2.00415E+01-4.90544E-02-1.42627E-05-1.73377E-01 1.69524E-13-2.27912E-14
 -1       790 2.00618E+01-2.36850E-02-1.23846E-05-1.75052E-01 1.31851E-13-6.75037E-15
 -1       791 2.00178E+01-6.04873E-02-1.34846E-05-1.45750E-01 2.40524E-14 7.19723E-15
 -1       792 2.00119E+01-5.42373E-02-1.17745E-05-1.29002E-01 2.35033E-14-6.23702E-14
 -1       793 2.00089E+01-4.30411E-02-9.44904E-06-1.14326E-01 5.15648E-14 1.10942E-14
 -1       794 2.00079E+01-2.80619E-02-6.50871E-06-1.03755E-01 5.62827E-14-2.66566E-14
 -1       795 2.00087E+01-9.82320E-03-3.22447E-06-9.89106E-02-2.27453E-14 1.04495E-13
 -1       796 2.00107E+01 1.16266E-02 5.52530E-07-1.01217E-01-2.48500E-14 6.83628E-14
 -1       797 2.00136E+01 3.65777E-02 4.89626E-06-1.12067E-01-4.20019E-14 4.80680E-15
 -1       798 2.00172E+01 6.55287E-02 9.94010E-06-1.32935E-01 9.82080E-14 2.04921E-14
 -1       799 2.00211E+01 9.90435E-02 1.58479E-05-1.65427E-01-6.77808E-15 1.82139E-13
 -1       800 2.00251E+01 1.37572E-01 2.27868E-05-2.11294E-01-2.52249E-14 2.60476E-13
 -1       801 2.00287E+01 1.81208E-01 3.08961E-05-2.72363E-01-1.30744E-14 2.93010E-13
 -1       802 2.00319E+01 2.29337E-01 4.02422E-05-3.50410E-01 5.05203E-14 2.01628E-13
 -1       803 2.00344E+01 2.80139E-01 5.07541E-05-4.46930E-01 2.31364E-15 8.53168E-14
 -1       804 2.00367E+01 3.29860E-01 6.21279E-05-5.62812E-01 5.58644E-14 2.27985E-14
 -1       805 2.00405E+01 3.71788E-01 7.36654E-05-6.97890E-01-3.89428E-15-1.56212E-13
 -1       806 2.00496E+01 3.94869E-01 8.39018E-05-8.50350E-01-1.87783E-14-2.55098E-13
 -1       807 2.00722E+01 3.81952E-01 8.95679E-05-1.01595E+00-1.22831E-13-1.94919E-13
 -1       808 2.01237E+01 3.07895E-01 8.36505E-05-1.18682E+00 1.01990E-13-1.26791E-13
 -1       809 2.02314E+01 1.38322E-01 6.22814E-05-1.34947E+00 3.45341E-14-1.67324E-13
 -1       810 2.04396E+01-1.69169E-01 3.66234E-05-1.48111E+00 5.25294E-14 9.04344E-15
 -1       811 2.08158E+01-6.57571E-01 2.15904E-04-1.54125E+00-9.89378E-15 7.43341E-14
 -1       812 2.14445E+01-1.33987E+00 1.25393E-03-1.45445E+00-2.57389E-13-1.02044E-14
 -1       813 2.24111E+01-2.15886E+00-2.94451E-03-1.09291E+00-1.21267E-13 1.76719E-13
 -1       814 2.38040E+01-2.89330E+00-2.96816E-03-3.16855E-01 2.34740E-13 4.78769E-13
 -1       815 2.49868E+01-3.52287E+00 3.83964E-03 1.76824E+00-2.92383E-13 3.51840E-13
 -1       816 2.32675E+01-2.14189E+00-1.74950E-03 1.71684E+00-4.01515E-13-8.65237E-15
 -1       817 1.91016E+01-2.10470E+00 2.17316E-02 5.25983E+00-1.46415E-13 3.30540E-13
 -1       818 2.01390E+01 1.88829E+00-2.69922E-04 1.99169E-01 9.32434E-14-3.72160E-13
 -1       819 1.66832E+01-1.05846E+00 5.93824E-02-5.11339E+00 3.62500E-13-1.59716E-13
 -1       820 2.07003E+01-2.44273E+00 6.54858E-03-4.89751E+00 2.51685E-13-3.93357E-13
 -1       821 2.53802E+01-4.77023E+00 1.11581E-02 3.25189E+00-5.25118E-13 2.38811E-13
 -1       822 2.00273E+01-5.97913E-02-1.44360E-05-1.61819E-01 8.44218E-14 6.82723E-14
 -1       823 1.31011E+01-1.50577E+00 6.79341E-02-4.31424E+00-1.41087E-13-7.33892E-14
 -1       824 2.71080E+01 5.45805E+00-1.11409E-01 1.31372E+00 1.20078E-14-6.48013E-13
 -1       825 2.01702E+01 2.23518E-01 2.44002E-05-3.13497E-02 1.37776E-13-1.36948E-13
 -1       826 2.85029E+01-2.28341E+00-3.74900E-02-1.79512E+00-2.91019E-13 3.51510E-13
 -1       827 2.02942E+01 7.22547E-01-7.60298E-04-2.94827E-01-2.10286E-13-2.81039E-13
 -1       828 2.02771E+01 1.27806E+00 1.54236E-03-5.67492E-01-2.13316E-13-3.36379E-13
 -1       829 2.20164E+01-4.64575E+00 2.14195E-02-3.63218E+00-1.61137E-13 9.48850E-14
 -1       830 1.79695E+01-3.30659E+00 6.07710E-02-4.81382E+00-2.52438E-13 1.52899E-14
 -1       831 1.05892E+01-3.64138E-01 9.40754E-02 2.54094E+00 1.09498E-13-9.22110E-14
 -1       832 1.54360E+01-2.35196E+00 6.72180E-02 4.76437E+00 9.67802E-14-1.05490E-13
 -1       833 2.01277E+01 1.92557E+00-3.06788E-04 3.51313E-03 2.60456E-14-4.20968E-13
 -1       834 2.00895E+01 2.29882E-02-8.32493E-06-1.59353E-01 6.19394E-14-2.92809E-14
 -1       835 2.02383E+01 1.51867E+00 1.28801E-04-4.65744E-01-1.58260E-13-3.73423E-13
 -1       836 2.01734E+01 1.77449E+00-8.85021E-05 3.83233E-01 1.73062E-13-3.13142E-13
 -1       837 1.23133E+01-3.48963E-02 4.54899E-02-2.39363E+00-1.00701E-13-2.16969E-13
 -1       838 2.02181E+01 1.58830E+00-3.38340E-05 5.36091E-01 2.36215E-13-2.81435E-13
 -1       839 2.01257E+01 1.00636E-01 7.41937E-06-1.16032E-01 5.63743E-14-8.75523E-14
 -1       840 2.30290E+01-4.20769E+00 2.44394E-02-4.45712E+00 3.23138E-13-4.95264E-13
 -1       841 2.64899E+01-1.43676E+00-1.12458E-02 2.41090E+00 7.92422E-14 3.63647E-13
 -1       842 1.37510E+01 2.36991E-01 7.75453E-02-3.54312E+00 1.39435E-13-1.08174E-13
 -1       843 2.02211E+01 4.14013E-01 2.07004E-04 1.12526E-01 2.07121E-13-1.79954E-13
 -1       844 2.02632E+01 6.81813E-01 2.99223E-04 3.17695E-01 2.45506E-13-1.72332E-13
 -1       845 2.01921E+01 1.69764E+00-6.74419E-05-3.15407E-01-9.13187E-14-3.27917E-13
 -1       846 2.03050E+01 2.26652E-01-4.28466E-05 4.66760E-02-1.23393E-13-1.89424E-13
 -1       847 2.02689E+01 9.17204E-02-1.33600E-05 1.02326E-01-1.08420E-13-1.47485E-13
 -1       848 2.02298E+01 5.90220E-03-5.49512E-06 1.30135E-01-5.52011E-14-1.28980E-13
 -1       849 2.01920E+01-4.47448E-02-3.37992E-06 1.39027E-01-2.26881E-14-2.00536E-13
 -1       850 2.01574E+01-7.05222E-02-2.12859E-06 1.36104E-01-6.90726E-14-1.80608E-13
 -1       851 2.01272E+01-7.88625E-02-1.23856E-06 1.26742E-01-7.14345E-14-1.38957E-13
 -1       852 2.01013E+01-7.49955E-02-1.40717E-06 1.14928E-01-9.77954E-14-1.54763E-13
 -1       853 2.00794E+01-6.24440E-02-1.85200E-06 1.03558E-01-5.84770E-14-1.94291E-13
 -1       854 2.00608E+01-4.33744E-02-1.49062E-06 9.47853E-02 2.25068E-15-1.35035E-13
 -1       855 2.00446E+01-1.89225E-02-1.13681E-06 9.02924E-02 5.03197E-15-1.04069E-13
 -1       856 2.00294E+01 1.05624E-02-9.64428E-07 9.14931E-02-3.53264E-14-2.00455E-13
 -1       857 2.00141E+01 4.53255E-02-9.20358E-07 9.96960E-02-1.79992E-13-1.40233E-13
 -1       858 1.99969E+01 8.60308E-02-9.60111E-07 1.16222E-01-1.01721E-13-9.30401E-14
 -1       859 1.99760E+01 1.33586E-01-1.05547E-06 1.42481E-01-4.99991E-14-1.03217E-13
 -1       860 1.99492E+01 1.88947E-01-1.17463E-06 1.79998E-01 5.22006E-14-1.34567E-13
 -1       861 1.99139E+01 2.52878E-01-1.26387E-06 2.30414E-01 2.43978E-14-9.28144E-14
 -1       862 1.98671E+01 3.25625E-01-1.22684E-06 2.95442E-01 1.06400E-13 2.04585E-14
 -1       863 1.98054E+01 4.06466E-01-8.91579E-07 3.76816E-01 4.57189E-14-1.30832E-13
 -1       864 1.97250E+01 4.93073E-01 5.24114E-08 4.76243E-01-6.03828E-14-2.49061E-13
 -1       865 1.96221E+01 5.80625E-01 2.18212E-06 5.95458E-01 5.70058E-14-2.00202E-13
 -1       866 1.94936E+01 6.60551E-01 6.54626E-06 7.36477E-01 9.38594E-14-2.74959E-13
 -1       867 1.93380E+01 7.18826E-01 1.46574E-05 9.02247E-01-1.22348E-13-3.50837E-13
 -1       868 1.91574E+01 7.33631E-01 2.70241E-05 1.09791E+00-3.00483E-14-3.11999E-13
 -1       869 1.89616E+01 6.72261E-01 3.78814E-05 1.33289E+00-4.79167E-14-1.68761E-13
 -1       870 1.87742E+01 4.86999E-01 6.30360E-05 1.62360E+00-1.34260E-14-2.26505E-13
 -1       871 1.86453E+01 1.09984E-01 4.24089E-04 1.99458E+00-2.26164E-13-4.89065E-13
 -1       872 1.86667E+01-5.52606E-01 2.81357E-04 2.48097E+00 1.51543E-13-1.96934E-13
 -1       873 1.90813E+01-1.66339E+00-1.11722E-04 3.11182E+00 2.71450E-14-3.29684E-14
 -1       874 2.22346E+01-2.86305E+00 2.06910E-02 4.24828E+00-4.73467E-13 4.55630E-13
 -1       875 2.02692E+01 2.28903E-01-7.34373E-05-4.42615E-02 9.14733E-14-1.12107E-13
 -1       876 2.00624E+01-6.09058E-02-1.33542E-06-1.12981E-01 3.21245E-14 3.88154E-15
 -1       877 2.00799E+01-7.13615E-02-1.61500E-06-1.26139E-01 1.20403E-13 2.57563E-14
 -1       878 2.00364E+01-2.30279E-02-3.60661E-07-9.60469E-02-5.47029E-14 7.13769E-14
 -1       879 2.00260E+01 2.76981E-03 1.81989E-08-9.55928E-02-3.61265E-14 3.94144E-14
 -1       880 2.00162E+01 3.30902E-02 5.04431E-07-1.02361E-01 3.01175E-14 7.66509E-14
 -1       881 2.00056E+01 6.84017E-02 1.13178E-06-1.17732E-01 6.79566E-17-5.64988E-15
 -1       882 1.99930E+01 1.09366E-01 1.96041E-06-1.43176E-01-9.06888E-14 1.36714E-13
 -1       883 1.99770E+01 1.56637E-01 3.07006E-06-1.80291E-01-2.21962E-14 1.62666E-13
 -1       884 1.99560E+01 2.10604E-01 4.56833E-06-2.30807E-01 9.56174E-14-1.26905E-14
 -1       885 1.99281E+01 2.71055E-01 6.60677E-06-2.96531E-01 5.57041E-14-9.63129E-14
 -1       886 1.98917E+01 3.36701E-01 9.40909E-06-3.79264E-01 5.73813E-14-3.60786E-14
 -1       887 1.98453E+01 4.04518E-01 1.33250E-05-4.80686E-01-1.60856E-14-1.33958E-13
 -1       888 1.97881E+01 4.68847E-01 1.89306E-05-6.02242E-01 2.14927E-14 2.33427E-14
 -1       889 1.97211E+01 5.20160E-01 2.71585E-05-7.45081E-01 3.99562E-14 1.54660E-13
 -1       890 1.96484E+01 5.43449E-01 3.91956E-05-9.10093E-01-7.73172E-14 2.24744E-13
 -1       891 1.95800E+01 5.16195E-01 5.52261E-05-1.09805E+00 6.76054E-15-1.21188E-13
 -1       892 1.95360E+01 4.06015E-01 7.01814E-05-1.30959E+00 1.49397E-13-1.21892E-13
 -1       893 1.95533E+01 1.68625E-01 1.59053E-04-1.54396E+00-8.00348E-14-3.35726E-14
 -1       894 1.96920E+01-2.50159E-01 2.05180E-04-1.79516E+00-6.43138E-14 1.13992E-13
 -1       895 2.00601E+01-9.21233E-01 1.90783E-04-2.04283E+00-1.13236E-13 3.13016E-13
 -1       896 2.08220E+01-1.87051E+00 4.19169E-03-2.22391E+00-2.59355E-13 1.69103E-13
 -1       897 2.12260E+01-3.07321E+00-7.74241E-03-2.80316E+00-2.06489E-13 1.76705E-13
 -1       898 2.30969E+01-2.61203E+00 7.39072E-03 2.93736E+00-6.14672E-13 4.98961E-13
 -1       899 1.62547E+01-1.48166E+00 3.79197E-02-3.87577E+00-1.55859E-13 2.15487E-14
 -1       900 1.89420E+01-2.68390E+00 3.25031E-02 3.90336E+00 1.25767E-14 1.14425E-13
 -1       901 1.41194E+01-5.78118E-01 3.26879E-02 3.27048E+00 1.09457E-13-6.17336E-14
 -1       902 2.03387E+01 7.20656E-01 4.13656E-04-1.90999E-01-1.29686E-13-2.55560E-13
 -1       903 2.00482E+01-4.44011E-02-6.13128E-07-1.02346E-01 1.77600E-14-2.01688E-14
 -1       904 2.01581E+01-3.80039E-02-2.87613E-06-1.52353E-01 1.06439E-13-6.88337E-14
 -1       905 2.01541E+01 1.84023E+00 3.67536E-06-1.66437E-01-2.97989E-14-4.01032E-13
 -1       906 1.20052E+01 4.48532E-01 4.73583E-02 9.59850E-01 1.13741E-13-3.22362E-13
 -1       907 2.03308E+01 4.29541E-01-1.19236E-04-4.69828E-02-1.25812E-13-2.10726E-13
 -1       908 2.03110E+01 1.08196E+00-5.83575E-04 3.30385E-01 1.72348E-13-2.39894E-13
 -1       909 2.01932E+01 1.21374E-02-6.34580E-06-1.41446E-01 6.08342E-14-1.12112E-13
 -1       910 2.03136E+01 1.14526E+00-8.89936E-04-2.50447E-01-1.04502E-13-3.09197E-13
 -1       911 1.91755E+01-1.94726E+00 1.11733E-02-3.17807E+00-1.65886E-13 1.84776E-13
 -1       912 2.02314E+01 9.64369E-02-1.42654E-05-1.08867E-01 3.66663E-14-1.20500E-13
 -1       913 2.02853E+01 1.33828E+00-2.58829E-04 1.98593E-01 1.09703E-13-2.79896E-13
 -1       914 1.28627E+01 6.38680E-01 2.40120E-02-7.12347E-01 2.81318E-14-3.08850E-13
 -1       915 2.03011E+01 4.30909E-01 1.29646E-05 6.53112E-02 1.40694E-13-6.15183E-14
 -1       916 2.01274E+01-6.41536E-02-2.21530E-06-1.49667E-01 7.49245E-14 5.91560E-14
 -1       917 2.01014E+01-7.35847E-02-1.74519E-06-1.39451E-01 9.38925E-14 4.22481E-14
 -1       918 2.02758E+01 1.40452E+00-1.94982E-05 6.90723E-02 4.94338E-14-3.60636E-13
 -1       919 2.02944E+01 1.30217E+00-2.04066E-04-1.71706E-01-9.12020E-14-3.02480E-13
 -1       920 2.01190E+01-7.70539E-02 4.06856E-06-9.94939E-02 1.19033E-13-9.80014E-15
 -1       921 2.03602E+01 1.97478E-01 1.27936E-04 5.02904E-02-6.89799E-14-1.91450E-13
 -1       922 2.03252E+01 6.70584E-02 5.89350E-05 8.48375E-02-6.02586E-14-1.57436E-13
 -1       923 2.02839E+01-1.51290E-02-8.53295E-06 1.01270E-01-2.95581E-14-1.63550E-13
 -1       924 2.02413E+01-6.16661E-02 7.24380E-07 1.05288E-01-3.02764E-14-1.56437E-13
 -1       925 2.02008E+01-8.31826E-02 2.07281E-06 1.01722E-01-2.50547E-14-1.05457E-13
 -1       926 2.01637E+01-8.69333E-02 2.63522E-06 9.43553E-02-8.36697E-14-1.01923E-13
 -1       927 2.01308E+01-7.81560E-02-3.81059E-07 8.59516E-02-7.45091E-14-9.44536E-15
 -1       928 2.01015E+01-6.02082E-02-2.01002E-07 7.85521E-02-7.08623E-15 1.25132E-14
 -1       929 2.00751E+01-3.50759E-02-2.83306E-07 7.37387E-02-3.62770E-14-1.27917E-13
 -1       930 2.00503E+01-3.70166E-03-1.06931E-06 7.27769E-02-6.84707E-14-1.61469E-13
 -1       931 2.00254E+01 3.37940E-02-2.39054E-06 7.67592E-02-7.62063E-14-2.48996E-13
 -1       932 1.99984E+01 7.78888E-02-4.18510E-06 8.67267E-02-4.64158E-14-9.61477E-14
 -1       933 1.99668E+01 1.29449E-01-6.50166E-06 1.03742E-01-6.87207E-14-3.13049E-14
 -1       934 1.99278E+01 1.89515E-01-9.44704E-06 1.28927E-01 1.45109E-14 3.76081E-14
 -1       935 1.98780E+01 2.59060E-01-1.31628E-05 1.63474E-01 4.15190E-14 1.21727E-13
 -1       936 1.98137E+01 3.38689E-01-1.78299E-05 2.08632E-01 2.17637E-14-1.23439E-13
 -1       937 1.97302E+01 4.28255E-01-2.36975E-05 2.65683E-01 3.70079E-15-2.40016E-13
 -1       938 1.96225E+01 5.26352E-01-3.11493E-05 3.35949E-01 3.92720E-15-1.43972E-13
 -1       939 1.94849E+01 6.29663E-01-4.08248E-05 4.20885E-01 6.19052E-14-1.13456E-13
 -1       940 1.93112E+01 7.32130E-01-5.38245E-05 5.22377E-01-7.35625E-14-2.04220E-13
 -1       941 1.90949E+01 8.23905E-01-7.21746E-05 6.43454E-01-3.64913E-14-2.89383E-13
 -1       942 1.88295E+01 8.90040E-01-1.00783E-04 7.89723E-01-6.65202E-16-6.51919E-14
 -1       943 1.85090E+01 9.08739E-01-1.53659E-04 9.71947E-01 9.26908E-14 2.82769E-15
 -1       944 1.81292E+01 8.48993E-01-2.55810E-04 1.21003E+00-1.10494E-13-3.27889E-14
 -1       945 1.76891E+01 6.66963E-01-5.56524E-04 1.54061E+00-1.24797E-13-1.02599E-13
 -1       946 1.72011E+01 2.87897E-01-1.53007E-03 2.02760E+00 1.17928E-13 8.35519E-15
 -1       947 1.67478E+01-3.71216E-01 1.01719E-02 2.74020E+00 1.93258E-13-5.59843E-14
 -1       948 2.00281E+01 2.29879E-02 1.40369E-06-8.45702E-02-5.59602E-15-5.44522E-14
 -1       949 2.00487E+01-1.07976E-02 2.81980E-06-8.14978E-02-1.22108E-14 4.86526E-15
 -1       950 1.99816E+01 1.08755E-01-1.54140E-06-1.11761E-01-8.74506E-14-5.41438E-14
 -1       951 1.99513E+01 1.62191E-01-3.08835E-06-1.38440E-01 9.09097E-15-1.66805E-13
 -1       952 1.99131E+01 2.23600E-01-4.70720E-06-1.75745E-01 6.25883E-14-1.80296E-13
 -1       953 1.98641E+01 2.93218E-01-6.40976E-06-2.25278E-01 1.13357E-13-6.95717E-14
 -1       954 1.98012E+01 3.70421E-01-8.20039E-06-2.88775E-01-1.75819E-14-1.56392E-13
 -1       955 1.97211E+01 4.53171E-01-1.00802E-05-3.68115E-01 5.56179E-14-7.05134E-14
 -1       956 1.96209E+01 5.37286E-01-1.20612E-05-4.65387E-01-4.62544E-14-3.58694E-14
 -1       957 1.94981E+01 6.15489E-01-1.42224E-05-5.83086E-01-1.12262E-13-3.11027E-14
 -1       958 1.93521E+01 6.76195E-01-1.69954E-05-7.24577E-01 2.57657E-14-8.51533E-14
 -1       959 1.91847E+01 7.01959E-01-2.24877E-05-8.94979E-01-8.65490E-15-3.40295E-14
 -1       960 1.90034E+01 6.67459E-01-3.85740E-05-1.10266E+00 3.23230E-14 4.70829E-14
 -1       961 1.88251E+01 5.36741E-01-4.24293E-05-1.36103E+00-1.06748E-13 1.87972E-13
 -1       962 1.86809E+01 2.59749E-01-6.20866E-04-1.69290E+00-5.93272E-14 2.46230E-13
 -1       963 1.86672E+01-2.36515E-01-9.75645E-04-2.12492E+00-2.30932E-13 2.66338E-13
 -1       964 1.87277E+01-9.35083E-01-3.74021E-03-2.60633E+00-1.86261E-13 3.05483E-13
 -1       965 2.03309E+01 7.08724E-01 2.22290E-04 1.89946E-01 1.51799E-13-1.51577E-13
 -1       966 2.00064E+01 6.26193E-02-4.90453E-08-9.42477E-02 3.40265E-14-8.22371E-14
 -1       967 2.03752E+01 6.74243E-01 2.14127E-04-1.01474E-01-8.77587E-14-2.82058E-13
 -1       968 1.49587E+01-2.79082E-02 2.21112E-02-2.53770E+00-2.82444E-13-1.89767E-13
 -1       969 1.42834E+01 4.50239E-01 1.54853E-02 1.71465E+00 1.31821E-13-4.70448E-14
 -1       970 2.03807E+01 3.92549E-01 5.98047E-05-9.37425E-03-8.31949E-14-2.22439E-13
 -1       971 2.03617E+01 8.51385E-01 1.10136E-04 1.51417E-01 1.02414E-13-2.49020E-13
 -1       972 1.70553E+01-5.99828E-01 6.27655E-03-2.81759E+00-1.43451E-13-6.54855E-14
 -1       973 2.00929E+01-6.14724E-02 5.53899E-06-9.03248E-02 1.76436E-14 9.70502E-14
 -1       974 2.03369E+01 2.08763E-01-4.13760E-05-5.12778E-02 7.29473E-14-1.50363E-13
 -1       975 1.42971E+01 8.54242E-01 1.02839E-02 4.76455E-01 1.57378E-13-3.46723E-13
 -1       976 2.03593E+01 4.09043E-01 9.90828E-07 2.36840E-02 1.33010E-13-1.60865E-13
 -1       977 2.01490E+01-8.37249E-02 1.77523E-06-1.09546E-01 1.12450E-13-3.16574E-14
 -1       978 2.03666E+01 9.70726E-01-1.31008E-04 7.91891E-02 6.31452E-14-2.60426E-13
 -1       979 2.02866E+01 1.36111E+00-1.63777E-04-4.95113E-02-3.14195E-14-3.33194E-13
 -1       980 2.03903E+01 7.84167E-01 1.45827E-04-7.48482E-02-5.48664E-14-2.81515E-13
 -1       981 2.02211E+01-5.45926E-02 8.71073E-06-1.21547E-01 3.49600E-14-9.73820E-14
 -1       982 2.00698E+01-3.90396E-02 4.20796E-06-8.38358E-02-4.13640E-14 7.34681E-14
 -1       983 2.02615E+01-6.35434E-03 3.99411E-06-1.15789E-01 4.24657E-14-1.49626E-13
 -1       984 2.03765E+01 9.58543E-01 1.34306E-04 7.35017E-03 1.68188E-14-2.90293E-13
 -1       985 2.03542E+01 3.31530E-02-5.81112E-05 5.85984E-02-3.32635E-14-1.55371E-13
 -1       986 2.03099E+01-3.89771E-02-1.95364E-05 6.59625E-02-2.73377E-14-1.41704E-13
 -1       987 2.02637E+01-7.73458E-02-8.40118E-06 6.66850E-02-4.54665E-14-1.69721E-13
 -1       988 2.02194E+01-9.20157E-02 9.17339E-06 6.34763E-02 1.30371E-14-1.97052E-13
 -1       989 2.01783E+01-8.97723E-02-4.56770E-06 5.87173E-02 4.29889E-14-2.63923E-14
 -1       990 2.01410E+01-7.54431E-02 1.07587E-06 5.37661E-02-6.13788E-14-6.65824E-14
 -1       991 2.01069E+01-5.18659E-02-4.86780E-07 4.99410E-02-4.51926E-14-2.28845E-14
 -1       992 2.00750E+01-2.07889E-02-3.07122E-06 4.81937E-02-5.35354E-14-4.90814E-14
 -1       993 2.00435E+01 1.71677E-02-7.46428E-06 4.92801E-02-6.65249E-14-5.91579E-14
 -1       994 2.00102E+01 6.21702E-02-1.33073E-05 5.38929E-02-8.93461E-15 4.54555E-14
 -1       995 1.99726E+01 1.14925E-01-2.05476E-05 6.27024E-02 4.26475E-14 4.81052E-14
 -1       996 1.99274E+01 1.76449E-01-2.92893E-05 7.63869E-02 2.90948E-14 7.93801E-14
 -1       997 1.98711E+01 2.47821E-01-3.97112E-05 9.56425E-02 2.39232E-14 8.81293E-14
 -1       998 1.97992E+01 3.29901E-01-5.20643E-05 1.21175E-01-1.02960E-13 8.11576E-15
 -1       999 1.97069E+01 4.22985E-01-6.67350E-05 1.53682E-01-9.97462E-14-5.29054E-14
 -1      1000 1.95885E+01 5.26387E-01-8.44132E-05 1.93841E-01 8.04276E-14-1.00291E-13
 -1      1001 1.94373E+01 6.37940E-01-1.06457E-04 2.42350E-01 5.80025E-14 4.77514E-15
 -1      1002 1.92458E+01 7.53420E-01-1.35600E-04 3.00078E-01-1.32844E-13-2.67574E-14
 -1      1003 1.90048E+01 8.65951E-01-1.77198E-04 3.68462E-01-7.97813E-14-2.35082E-14
 -1      1004 1.87034E+01 9.65428E-01-2.41093E-04 4.50351E-01 5.05105E-14-4.74561E-14
 -1      1005 1.83267E+01 1.03806E+00-3.45015E-04 5.51695E-01 1.95788E-13-5.10104E-14
 -1      1006 1.78540E+01 1.06577E+00-5.46196E-04 6.84827E-01-4.40506E-14-1.19246E-13
 -1      1007 1.72572E+01 1.02353E+00-5.81848E-04 8.72460E-01-1.34437E-13 7.34904E-14
 -1      1008 1.64866E+01 8.83090E-01 1.63603E-03 1.15619E+00-1.63881E-13 5.64788E-14
 -1      1009 1.55447E+01 7.26289E-01 8.16441E-03 1.39938E+00 1.32764E-13-1.32938E-13
 -1      1010 2.00471E+01 7.80492E-03 3.35715E-07-6.07476E-02 4.97881E-14-7.25411E-14
 -1      1011 1.98975E+01 2.20177E-01-2.45565E-05-1.15529E-01 5.69359E-14-1.79559E-13
 -1      1012 1.99456E+01 1.54747E-01-1.73426E-05-9.19444E-02 3.25589E-15-1.67144E-13
 -1      1013 1.97590E+01 3.79358E-01-4.09238E-05-1.89574E-01 2.76900E-14-1.85729E-13
 -1      1014 1.96601E+01 4.72055E-01-5.01436E-05-2.43016E-01-1.13731E-13-1.83296E-14
 -1      1015 1.95352E+01 5.70422E-01-6.03801E-05-3.09879E-01-1.30532E-13 1.97805E-13
 -1      1016 1.93795E+01 6.69398E-01-7.26067E-05-3.92680E-01-5.77153E-14 1.13126E-13
 -1      1017 1.91879E+01 7.60762E-01-8.96299E-05-4.95002E-01-4.47765E-14-2.21267E-14
 -1      1018 1.89559E+01 8.32202E-01-1.19337E-04-6.22398E-01-9.13791E-14 1.93648E-13
 -1      1019 1.86793E+01 8.66262E-01-1.83864E-04-7.84019E-01-1.00712E-13 2.32734E-13
 -1      1020 1.83550E+01 8.38982E-01-3.66029E-04-9.95532E-01-1.46231E-13 2.61183E-13
 -1      1021 1.79829E+01 7.14759E-01-1.20247E-03-1.28541E+00-1.00280E-13 2.80743E-13
 -1      1022 1.75917E+01 4.46151E-01 1.56974E-03-1.69855E+00-3.62999E-14 1.92164E-13
 -1      1023 2.03718E+01 6.06914E-01-9.72035E-05 8.70027E-02 1.04883E-13-2.39758E-13
 -1      1024 2.04157E+01 4.70868E-01-3.70111E-05-1.56393E-02-2.67673E-14-2.59528E-13
 -1      1025 2.01831E+01-7.79098E-02 5.97677E-06-1.17994E-01 8.35726E-14-1.32924E-14
 -1      1026 1.98366E+01 2.95043E-01-3.24171E-05-1.47612E-01 1.21487E-13-1.86230E-13
 -1      1027 2.04076E+01 2.47415E-01-1.02344E-04 2.48011E-02-2.31973E-14-2.19056E-13
 -1      1028 2.04013E+01 7.19055E-01 2.13252E-04 5.69847E-02 1.00469E-13-2.47209E-13
 -1      1029 1.47285E+01 7.57532E-01 6.67802E-03-1.10781E+00-1.16519E-13 5.13914E-14
 -1      1030 2.00758E+01-2.72631E-02 4.81005E-06-6.02649E-02 6.86289E-14-5.18063E-14
 -1      1031 2.03849E+01 1.22369E-01-1.33556E-04 4.54404E-02-3.05864E-14-1.94779E-13
 -1      1032 2.03017E+01 7.69442E-02-5.41945E-06-9.48560E-02 3.02683E-14-1.85137E-13
 -1      1033 2.00175E+01 4.94210E-02-4.88268E-06-6.55730E-02 1.19729E-14-4.61991E-14
 -1      1034 1.99845E+01 9.81228E-02-1.07829E-05-7.56496E-02-2.96938E-15-4.45606E-14
 -1      1035 2.03791E+01 1.69199E-01-2.15496E-05-4.78732E-02 3.75377E-14-1.89523E-13
 -1      1036 2.04007E+01 3.55102E-01-2.49071E-04-3.70716E-03 7.71820E-14-2.45827E-13
 -1      1037 2.01731E+01-8.89889E-02-8.35268E-06-7.50701E-02 1.36092E-13 3.09070E-14
 -1      1038 1.60987E+01 3.65793E-01 2.74150E-03-1.93326E+00-1.22969E-13-2.27237E-13
 -1      1039 2.03866E+01 8.85596E-01 6.10418E-04-4.13044E-02-2.58642E-14-2.70572E-13
 -1      1040 2.01376E+01-7.69582E-02 1.18523E-05-6.85891E-02 2.57074E-14 7.32327E-14
 -1      1041 2.04112E+01 7.20713E-01-1.78575E-04 1.63998E-02 6.92339E-14-2.38853E-13
 -1      1042 2.01054E+01-5.57830E-02 8.66811E-06-6.32130E-02-3.53363E-14 1.11365E-13
 -1      1043 2.03000E+01-2.93738E-02-1.78338E-06-8.31509E-02-2.66620E-14-4.20065E-14
 -1      1044 2.02554E+01-7.11340E-02 1.01056E-05-8.48356E-02 1.73063E-14-3.81786E-14
 -1      1045 2.03430E+01 4.64631E-02-2.82452E-05-7.23811E-02 1.03480E-15-1.42288E-13
 -1      1046 2.03121E+01-6.08184E-02 7.59932E-05 2.60366E-02-4.07256E-14-1.77054E-13
 -1      1047 2.02627E+01-8.83655E-02-3.67337E-05 2.56271E-02-4.21043E-14-1.12235E-13
 -1      1048 2.02174E+01-9.57973E-02-2.42289E-05 2.38205E-02 2.92650E-14-1.32238E-13
 -1      1049 2.01754E+01-8.70022E-02 2.32068E-05 2.19212E-02 2.67101E-14-1.90685E-13
 -1      1050 2.01361E+01-6.69595E-02 2.61806E-05 2.03825E-02 3.07876E-14-4.91615E-14
 -1      1051 2.00996E+01-3.81890E-02 2.28897E-05 1.94109E-02-3.57714E-14-9.33223E-14
 -1      1052 2.00642E+01-1.83777E-03 2.01370E-05 1.93830E-02-2.27434E-14 1.97941E-14
 -1      1053 2.00279E+01 4.18485E-02 1.92873E-05 2.05902E-02 6.12529E-15 1.15439E-13
 -1      1054 1.99881E+01 9.33111E-02 2.04567E-05 2.32817E-02 4.42243E-14 1.05396E-13
 -1      1055 1.99416E+01 1.53436E-01 2.36369E-05 2.76824E-02 7.13840E-14 1.68437E-13
 -1      1056 1.98848E+01 2.23301E-01 2.88467E-05 3.39937E-02-4.19894E-15 1.52976E-13
 -1      1057 1.98133E+01 3.03902E-01 3.61477E-05 4.23793E-02-9.58235E-14 1.11814E-13
 -1      1058 1.97222E+01 3.95831E-01 4.56501E-05 5.29401E-02-1.35053E-13 3.69504E-14
 -1      1059 1.96057E+01 4.98902E-01 5.75385E-05 6.56820E-02-9.67677E-14-4.59651E-14
 -1      1060 1.94572E+01 6.11721E-01 7.21352E-05 8.04866E-02 9.33476E-14-1.44198E-13
 -1      1061 1.92690E+01 7.31219E-01 8.99911E-05 9.71047E-02 3.18810E-16-1.59649E-13
 -1      1062 1.90317E+01 8.52217E-01 1.11853E-04 1.15204E-01-7.99448E-14-7.06329E-14
 -1      1063 1.87335E+01 9.67103E-01 1.37884E-04 1.34517E-01-1.31048E-13-8.32824E-14
 -1      1064 1.83585E+01 1.06580E+00 1.64741E-04 1.55126E-01-2.50691E-14-1.25673E-13
 -1      1065 1.78829E+01 1.13621E+00 1.77252E-04 1.77812E-01 2.79133E-15-2.79471E-13
 -1      1066 1.72679E+01 1.16574E+00 1.82402E-04 2.04031E-01-6.58119E-14-3.71524E-13
 -1      1067 1.64724E+01 1.13333E+00 3.16494E-03 2.47399E-01-1.09517E-13-4.17511E-13
 -1      1068 1.55383E+01 1.03391E+00 3.38120E-03 3.31420E-01-7.64688E-15-2.15758E-13
 -1      1069 1.99548E+01 1.36949E-01-6.75107E-06-4.56900E-02 7.57051E-14-1.08811E-13
 -1      1070 1.59544E+01 9.12361E-01 4.11813E-04-9.43646E-01 2.01835E-13 1.55279E-13
 -1      1071 1.95171E+01 5.68927E-01-5.68514E-05-1.55029E-01-2.05997E-13 1.87249E-13
 -1      1072 1.96505E+01 4.63034E-01-3.91296E-05-1.20133E-01-1.75354E-13 2.17234E-13
 -1      1073 1.91386E+01 7.91809E-01-1.07686E-04-2.55937E-01 3.17525E-14-7.90505E-16
 -1      1074 1.88775E+01 8.94775E-01-1.44664E-04-3.28426E-01-1.12529E-13-2.01534E-14
 -1      1075 1.85549E+01 9.77559E-01-2.01742E-04-4.23104E-01-1.66795E-13 1.30134E-13
 -1      1076 1.81564E+01 1.02493E+00-3.05464E-04-5.49992E-01-1.04036E-13 1.15514E-13
 -1      1077 1.76604E+01 1.01845E+00-4.43656E-04-7.25217E-01-1.18965E-13 6.41470E-14
 -1      1078 1.70288E+01 9.38253E-01-8.63940E-04-9.83336E-01-3.18798E-14 9.32143E-14
 -1      1079 2.04093E+01 5.21920E-01 3.04886E-04 3.00374E-02 8.60082E-14-2.51974E-13
 -1      1080 2.02125E+01-8.86192E-02 3.93069E-06-8.13222E-02 7.83359E-14-2.63608E-14
 -1      1081 2.00350E+01 3.12227E-02-5.54597E-06-3.44112E-02 5.20077E-14 1.98906E-14
 -1      1082 2.00695E+01-1.01371E-02-6.62205E-06-3.29654E-02 2.85717E-14 1.94291E-14
 -1      1083 2.04348E+01 3.73616E-01-3.53033E-04 1.71549E-03 1.37116E-14-2.14368E-13
 -1      1084 2.01038E+01-4.43755E-02-7.57320E-06-3.36071E-02 1.90232E-14-5.08263E-14
 -1      1085 1.93490E+01 6.80380E-01-7.94383E-05-1.99440E-01-6.41123E-14 3.01826E-14
 -1      1086 2.04251E+01 5.96200E-01-6.02798E-05-1.75431E-02-1.61441E-14-2.25424E-13
 -1      1087 1.99029E+01 2.03052E-01-1.02255E-05-5.66798E-02 5.24278E-14-1.31813E-13
 -1      1088 2.03593E+01-2.87953E-03 2.97731E-05 2.43354E-02-3.11886E-14-1.37861E-13
 -1      1089 1.97555E+01 3.65965E-01-2.58138E-05-9.29526E-02-6.23032E-14 7.24962E-14
 -1      1090 1.99977E+01 7.99976E-02-5.37720E-06-3.84705E-02 1.83321E-14 1.30107E-14
 -1      1091 1.98379E+01 2.79218E-01-1.63778E-05-7.21505E-02 1.44950E-14-1.42618E-13
 -1      1092 2.02181E+01-9.41002E-02-7.66638E-05-4.23779E-02 8.38258E-14-1.05108E-13
 -1      1093 2.04243E+01 2.83125E-01 1.35623E-05-1.24198E-02 3.17943E-14-1.70395E-13
 -1      1094 2.04219E+01 2.15576E-01 4.25719E-04 1.15788E-02 1.27163E-14-1.36974E-13
 -1      1095 2.03967E+01 8.36995E-02-1.20781E-04 1.98797E-02-2.16636E-14-1.06587E-13
 -1      1096 2.01780E+01-8.92440E-02-5.61872E-05-3.89363E-02 7.32592E-14 1.81941E-14
 -1      1097 2.03597E+01 1.18239E-02 3.98075E-05-4.08367E-02-6.86255E-14-1.86597E-13
 -1      1098 2.04293E+01 5.31561E-01 1.03955E-04 1.22230E-02 6.69545E-14-1.88072E-13
 -1      1099 2.03981E+01 1.19265E-01 6.55979E-05-3.11511E-02-1.22674E-14-2.06220E-13
 -1      1100 2.01396E+01-7.10676E-02-6.02862E-06-3.57733E-02 4.69988E-14-3.07238E-14
 -1      1101 2.03136E+01-5.24280E-02-9.98451E-06-4.48433E-02-4.30283E-14-1.45127E-13
 -1      1102 2.02428E+01-9.48297E-02 2.64263E-04-1.50880E-02 5.49893E-14-1.86039E-13
 -1      1103 2.02661E+01-8.51929E-02-8.78620E-05-4.45530E-02 2.58260E-14-1.26136E-13
 -1      1104 2.04223E+01 1.76591E-01 1.89184E-04-2.30251E-04 5.56581E-14-1.82582E-13
 -1      1105 2.79639E+01 9.08683E+00 2.32537E+00-6.69833E+00-5.45120E-14 1.95144E-12
 -1      1106 2.05481E+01 6.22737E+00 2.09761E-01-3.90401E+00-3.08364E-14 3.41754E-13
 -1      1107 1.94352E+01 5.85317E+00 7.54002E-02-2.88797E+00-2.24126E-14-3.56848E-13
 -1      1108 1.90260E+01 5.72591E+00 6.02903E-02-2.23492E+00-1.41796E-14-6.86130E-13
 -1      1109 1.88393E+01 5.66906E+00 5.75064E-02-1.70149E+00-9.76129E-15-8.54462E-13
 -1      1110 1.87457E+01 5.64039E+00 5.55587E-02-1.23423E+00-5.97526E-15-9.18932E-13
 -1      1111 1.86968E+01 5.62517E+00 5.38046E-02-8.04365E-01-3.28427E-15-9.40036E-13
 -1      1112 1.86727E+01 5.61756E+00 5.25339E-02-3.92835E-01-9.95081E-16-9.32113E-13
 -1      1113 1.86658E+01 5.61537E+00 5.21297E-02 8.50268E-03 1.31687E-15-9.25216E-13
 -1      1114 1.86737E+01 5.61790E+00 5.26400E-02 4.10243E-01 4.81321E-15-9.07399E-13
 -1      1115 1.86988E+01 5.62586E+00 5.40245E-02 8.23085E-01 5.42491E-15-8.68608E-13
 -1      1116 1.87496E+01 5.64176E+00 5.62322E-02 1.25549E+00 9.35450E-15-7.94201E-13
 -1      1117 1.88450E+01 5.67104E+00 5.84465E-02 1.72727E+00 1.32533E-14-6.82522E-13
 -1      1118 1.90316E+01 5.72762E+00 6.04023E-02 2.26834E+00 1.85477E-14-4.79244E-13
 -1      1119 1.94315E+01 5.85023E+00 6.92280E-02 2.92851E+00 2.35784E-14-9.32518E-14
 -1      1120 2.04542E+01 6.18227E+00 1.53305E-01 3.87857E+00 2.74780E-14 6.52773E-13
 -1      1121 2.52182E+01 7.99464E+00 1.43047E+00 5.84648E+00 5.77316E-14 2.18980E-12
 -1      1122 2.88136E+01 3.61639E+00 1.27127E+00-4.21713E+00-2.27013E-13 2.98117E-12
 -1      1123 2.02287E+01-1.77739E-01-6.16327E-01-1.09890E-01-7.28168E-14 2.44926E-12
 -1      1124 1.88348E+01-9.63777E-02-2.36338E-01 6.25470E-02-3.09267E-14 1.68005E-12
 -1      1125 1.85011E+01-4.80254E-02-5.95467E-02 4.05161E-02-1.64517E-14 1.16884E-12
 -1      1126 1.84458E+01-2.46306E-02-1.52120E-02 2.67754E-02-1.85815E-14 8.41202E-13
 -1      1127 1.85275E+01-1.30600E-02-5.00463E-03 1.90830E-02-1.79240E-14 6.11313E-13
 -1      1128 1.86744E+01-6.59275E-03-1.46219E-03 1.41352E-02-1.24351E-14 4.18745E-13
 -1      1129 1.88468E+01-2.82293E-03 5.92237E-04 1.06985E-02-7.66634E-15 2.55435E-13
 -1      1130 1.90221E+01-5.86283E-04 1.91323E-03 8.15624E-03 1.98023E-15 1.40676E-13
 -1      1131 1.91876E+01 7.10067E-04 2.66197E-03 6.19736E-03-9.22983E-15-9.27314E-14
 -1      1132 1.93362E+01 1.40664E-03 2.97211E-03 4.65507E-03-2.71376E-16-2.68737E-13
 -1      1133 1.94652E+01 1.71149E-03 2.97468E-03 3.43062E-03 2.42975E-14-2.07765E-13
 -1      1134 1.95740E+01 1.75814E-03 2.77442E-03 2.45748E-03-1.63389E-14-3.70962E-13
 -1      1135 1.96637E+01 1.63375E-03 2.44520E-03 1.68642E-03-5.89370E-15-4.97230E-13
 -1      1136 1.97365E+01 1.39423E-03 2.03434E-03 1.07909E-03-9.36237E-15-4.40974E-13
 -1      1137 1.97952E+01 1.07303E-03 1.56792E-03 6.05362E-04 1.18412E-15-5.11700E-13
 -1      1138 1.98429E+01 6.86754E-04 1.05513E-03 2.42343E-04-1.83882E-14-5.19612E-13
 -1      1139 1.98834E+01 2.39043E-04 4.91497E-04-2.56158E-05-1.24906E-14-5.66974E-13
 -1      1140 1.99206E+01-2.76490E-04-1.38558E-04-2.06456E-04 3.39668E-15-6.07567E-13
 -1      1141 1.99591E+01-8.73893E-04-8.59794E-04-2.99494E-04 1.84435E-14-6.18853E-13
 -1      1142 2.00039E+01-1.57262E-03-1.70434E-03-2.94050E-04-3.02125E-14-6.05177E-13
 -1      1143 2.00612E+01-2.39493E-03-2.70966E-03-1.67535E-04-2.17235E-14-5.83728E-13
 -1      1144 2.01381E+01-3.36233E-03-3.91540E-03 1.17107E-04 2.71588E-14-4.93682E-13
 -1      1145 2.02432E+01-4.48987E-03-5.35801E-03 6.14603E-04-2.71029E-14-4.88892E-13
 -1      1146 2.03867E+01-5.77686E-03-7.06049E-03 1.40096E-03 3.53743E-15-6.59665E-13
 -1      1147 2.05805E+01-7.19107E-03-9.01334E-03 2.57656E-03-1.08974E-14-5.58122E-13
 -1      1148 2.08384E+01-8.64280E-03-1.11394E-02 4.26622E-03 5.26316E-14-2.80266E-13
 -1      1149 2.11748E+01-9.94297E-03-1.32309E-02 6.61053E-03 1.00530E-14-3.63078E-13
 -1      1150 2.16039E+01-1.07399E-02-1.48429E-02 9.73613E-03 2.80876E-14-3.93319E-13
 -1      1151 2.21361E+01-1.04323E-02-1.51273E-02 1.36815E-02 5.81187E-15-3.61027E-13
 -1      1152 2.27723E+01-8.07333E-03-1.26134E-02 1.82390E-02-3.05652E-14-6.05210E-13
 -1      1153 2.34937E+01-2.32246E-03-5.02155E-03 2.26596E-02 6.60032E-14-8.38999E-13
 -1      1154 2.42470E+01 8.40569E-03 1.06074E-02 2.51884E-02-2.15041E-15-7.62730E-13
 -1      1155 2.49246E+01 2.52970E-02 3.68409E-02 2.25352E-02 2.63643E-14-8.23352E-13
 -1      1156 2.53478E+01 4.75802E-02 7.29605E-02 9.77500E-03-8.38652E-15-8.82132E-13
 -1      1157 2.52704E+01 6.99013E-02 1.10080E-01-1.81647E-02 3.23465E-14-6.87266E-13
 -1      1158 2.44382E+01 8.01663E-02 1.26861E-01-6.17859E-02 2.75526E-14-7.59406E-13
 -1      1159 2.27329E+01 6.12331E-02 9.47954E-02-1.09885E-01-2.08028E-14-3.78253E-13
 -1      1160 2.03697E+01 4.48376E-03 1.00923E-03-1.36542E-01-4.37869E-15-2.68577E-13
 -1      1161 1.79950E+01-7.30765E-02-1.23447E-01-1.13661E-01 3.65012E-14-2.37671E-13
 -1      1162 1.64710E+01-1.24406E-01-2.04535E-01-3.86111E-02-3.47673E-14-1.19151E-13
 -1      1163 1.63619E+01-1.12233E-01-1.84609E-01 5.25809E-02-2.37249E-14-2.52708E-13
 -1      1164 1.75302E+01-4.57480E-02-7.80984E-02 1.10171E-01 2.65352E-14-1.75290E-13
 -1      1165 1.92366E+01 2.75123E-02 4.19801E-02 1.10868E-01-2.05018E-14 7.01939E-14
 -1      1166 2.06520E+01 6.76124E-02 1.10464E-01 7.00296E-02-3.21791E-15-3.31915E-13
 -1      1167 2.13081E+01 6.70479E-02 1.11393E-01 1.92558E-02 6.96283E-14-5.46369E-14
 -1      1168 2.11996E+01 3.96278E-02 6.54959E-02-1.76517E-02 8.10467E-14 1.49726E-13
 -1      1169 2.06416E+01 2.26212E-03 3.18506E-03-2.84231E-02-2.40538E-14 6.60375E-14
 -1      1170 2.00990E+01-3.04779E-02-3.45779E-02-6.80289E-03-2.85885E-14-3.59953E-13
 -1      1171 1.99549E+01 1.62247E-02 2.94048E-02 1.55749E-02 8.79015E-14-1.21678E-14
 -1      1172 2.77933E+01 5.25754E-01 3.77012E-01 1.96668E+00-3.85247E-14 3.45618E-12
 -1      1173 2.00863E+01-6.62467E-02-5.73634E-01 1.29461E-01 2.14898E-14 2.78627E-12
 -1      1174 1.89093E+01-4.06108E-02-1.93232E-01 1.94074E-02 1.25889E-14 2.17039E-12
 -1      1175 1.85298E+01-2.14243E-02-5.05662E-02 1.45243E-03 1.36579E-14 1.68920E-12
 -1      1176 1.84585E+01-1.24160E-02-1.34244E-02-4.08374E-03 6.32719E-15 1.33272E-12
 -1      1177 1.85340E+01-7.40917E-03-4.68380E-03-5.54258E-03 2.73327E-15 1.14421E-12
 -1      1178 1.86777E+01-4.32679E-03-1.94614E-03-5.73672E-03 4.02797E-15 9.60844E-13
 -1      1179 1.88484E+01-2.35000E-03-3.46845E-04-5.46107E-03-1.49961E-14 9.33214E-13
 -1      1180 1.90228E+01-1.07216E-03 7.81461E-04-4.96630E-03 2.75924E-15 7.02377E-13
 -1      1181 1.91876E+01-2.60801E-04 1.50047E-03-4.36762E-03 1.94062E-14 5.59030E-13
 -1      1182 1.93361E+01 2.30225E-04 1.87593E-03-3.73222E-03 1.92845E-14 4.21684E-13
 -1      1183 1.94649E+01 4.98026E-04 1.99453E-03-3.10138E-03-4.34765E-15 3.39778E-13
 -1      1184 1.95737E+01 6.08311E-04 1.93366E-03-2.49940E-03 9.56016E-15 2.81304E-13
 -1      1185 1.96635E+01 6.05101E-04 1.75053E-03-1.93840E-03-1.92656E-14 2.50673E-13
 -1      1186 1.97363E+01 5.16500E-04 1.48255E-03-1.42171E-03 2.91762E-14 1.08476E-13
 -1      1187 1.97952E+01 3.58343E-04 1.15026E-03-9.46408E-04 2.86822E-15 1.44259E-14
 -1      1188 1.98431E+01 1.36646E-04 7.60122E-04-5.05556E-04-2.96083E-14-6.61311E-14
 -1      1189 1.98838E+01-1.50568E-04 3.06793E-04-9.00924E-05 4.51873E-15-1.23064E-13
 -1      1190 1.99213E+01-5.11766E-04-2.25066E-04 3.09291E-04 1.79618E-14-4.11585E-13
 -1      1191 1.99601E+01-9.60435E-04-8.59117E-04 7.00210E-04 4.93589E-15-6.16163E-13
 -1      1192 2.00052E+01-1.51331E-03-1.62553E-03 1.08632E-03 1.88145E-14-7.27032E-13
 -1      1193 2.00626E+01-2.18780E-03-2.55846E-03 1.46441E-03-7.31210E-15-6.85377E-13
 -1      1194 2.01393E+01-2.99783E-03-3.69190E-03 1.82034E-03 7.15438E-15-6.91203E-13
 -1      1195 2.02434E+01-3.94694E-03-5.05232E-03 2.12339E-03-1.02693E-14-5.58734E-13
 -1      1196 2.03845E+01-5.01681E-03-6.64560E-03 2.31805E-03 8.52552E-15-5.31155E-13
 -1      1197 2.05731E+01-6.14841E-03-8.43394E-03 2.31291E-03-2.26778E-14-1.36362E-13
 -1      1198 2.08208E+01-7.21250E-03-1.02964E-02 1.96614E-03 1.44806E-14-1.48855E-13
 -1      1199 2.11391E+01-7.96592E-03-1.19640E-02 1.06969E-03 2.14886E-14-2.15252E-13
 -1      1200 2.15372E+01-7.99354E-03-1.29211E-02-6.61233E-04-2.11290E-14-2.05570E-13
 -1      1201 2.20186E+01-6.64716E-03-1.22721E-02-3.57561E-03 4.01253E-14-3.90419E-13
 -1      1202 2.25754E+01-3.01971E-03-8.60834E-03-8.01308E-03 1.98053E-14-6.15626E-13
 -1      1203 2.31790E+01 3.95203E-03 9.32045E-06-1.41023E-02 2.54744E-14-7.54771E-13
 -1      1204 2.37683E+01 1.50829E-02 1.56741E-02-2.13405E-02-2.75666E-14-4.75009E-13
 -1      1205 2.42369E+01 3.00082E-02 3.93815E-02-2.79121E-02-8.08229E-15-1.75054E-13
 -1      1206 2.44271E+01 4.56791E-02 6.85114E-02-2.99982E-02-4.68835E-14-1.22779E-13
 -1      1207 2.41462E+01 5.52792E-02 9.37778E-02-2.19863E-02-5.85764E-14 2.73323E-14
 -1      1208 2.32276E+01 4.94947E-02 9.87278E-02 9.85622E-04 8.83564E-14-6.34985E-13
 -1      1209 2.16419E+01 2.21213E-02 6.62702E-02 3.76918E-02 2.37852E-14-8.48016E-13
 -1      1210 1.96204E+01-2.07340E-02-5.91003E-03 7.54981E-02-3.47031E-14-7.02702E-13
 -1      1211 1.76834E+01-5.81755E-02-9.08453E-02 9.29501E-02 9.95384E-15-7.98958E-13
 -1      1212 1.64581E+01-6.83027E-02-1.42306E-01 7.42232E-02-6.50018E-14-4.30975E-13
 -1      1213 1.63323E+01-4.71737E-02-1.29458E-01 2.51078E-02 2.15279E-15-2.37668E-13
 -1      1214 1.72021E+01-1.17134E-02-6.35761E-02-2.87096E-02 2.13098E-14-3.87759E-13
 -1      1215 1.85461E+01 1.72586E-02 1.31306E-02-6.13190E-02-5.38640E-14-1.42553E-13
 -1      1216 1.97554E+01 2.85886E-02 6.19012E-02-6.31478E-02 7.48655E-14-1.03542E-13
 -1      1217 2.04418E+01 2.26365E-02 6.85733E-02-4.18686E-02 5.17793E-14-6.64663E-13
 -1      1218 2.05508E+01 6.13417E-03 4.15930E-02-1.29013E-02 4.05489E-14-5.95712E-13
 -1      1219 2.02943E+01-1.15450E-02 1.72281E-03 8.89877E-03-1.87217E-14-6.29281E-13
 -1      1220 2.00086E+01-1.60611E-02-1.82172E-02 9.26200E-03 6.07175E-14-5.85259E-13
 -1      1221 1.99682E+01 1.28043E-02 2.90162E-02-1.08103E-02-5.20734E-14-6.29163E-13
 -1      1222 2.00097E+01-3.44070E-02 2.11045E-02-1.21189E-02-4.66051E-13-4.43643E-14
 -1      1223 1.99677E+01 1.65665E-03-4.75011E-02-1.31677E-02-1.06772E-15 1.29704E-13
 -1      1224 1.99504E+01 4.26074E-01-7.60940E-02 9.31743E-03 1.19329E-12-6.15350E-15
 -1      1225 1.99429E+01 1.36348E+00-8.78658E-02 3.59523E-02 1.55692E-12-3.68412E-14
 -1      1226 1.99526E+01 2.88203E+00-7.47903E-02 6.67011E-02 1.18366E-12-1.16841E-13
 -1      1227 1.99839E+01 4.88047E+00-2.69837E-02 9.17590E-02 1.22777E-13-7.76409E-14
 -1      1228 2.00371E+01 7.05650E+00 5.12848E-02 9.68279E-02-1.88516E-13-9.31113E-15
 -1      1229 2.00928E+01 8.90466E+00 1.34318E-01 7.05042E-02 7.73513E-13 7.68543E-14
 -1      1230 2.01245E+01 9.84557E+00 1.81398E-01 1.69394E-02 8.84660E-13 5.25621E-16
 -1      1231 2.01147E+01 9.56034E+00 1.66815E-01-4.36678E-02 1.72355E-12 1.83097E-13
 -1      1232 2.00686E+01 8.14726E+00 9.90308E-02-8.64874E-02 1.20692E-12-2.20138E-13
 -1      1233 2.00136E+01 6.08200E+00 1.50691E-02-9.83547E-02-7.67580E-13-1.36677E-13
 -1      1234 1.99682E+01 3.91654E+00-5.07837E-02-8.36107E-02-1.07266E-12 8.43952E-14
 -1      1235 1.99460E+01 2.07040E+00-8.43038E-02-5.55727E-02-2.67016E-13 1.25946E-13
 -1      1236 1.99443E+01 7.61027E-01-9.39115E-02-3.50218E-02 3.00298E-13 9.18631E-14
 -1      1237 1.99342E+01 1.09303E-01-6.89886E-02 1.45424E-02 9.11294E-14-1.86346E-13
 -1      1238 2.00157E+01-4.44732E-02 2.28580E-02 1.44393E-02 5.76171E-14 1.29005E-13
 -1      1239-1.18075E+00-2.75425E+01-4.21227E+00-2.54955E+00-2.60292E-13-8.93313E-14
 -1      1240-2.02013E+00-1.72983E+01-3.36858E+00-4.65683E+00 6.06182E-14 1.13798E-13
 -1      1241 1.19967E-01-3.27407E+00-1.97324E+00-5.20097E-01 1.70353E-12 1.23856E-12
 -1      1242 9.41769E+00 7.98286E+00-2.01792E-01 8.56049E+00 2.24043E-12 2.03393E-12
 -1      1243 2.65337E+01 1.20353E+01 1.61071E+00 1.71198E+01 1.80611E-12 2.51710E-12
 -1      1244 4.74652E+01 9.23003E+00 3.24212E+00 1.90001E+01 1.39233E-12 3.14038E-12
 -1      1245 6.45782E+01 3.95949E+00 4.16883E+00 1.13353E+01 5.78426E-13 2.10953E-12
 -1      1246 6.98574E+01 1.70885E+00 4.48381E+00-2.11700E+00 1.11050E-13 4.04676E-13
 -1      1247 5.94697E+01 4.88889E+00 3.75481E+00-1.38170E+01 1.83575E-13-7.49734E-13
 -1      1248 4.00867E+01 9.62924E+00 2.49718E+00-1.82539E+01 5.37903E-13-1.14375E-12
 -1      1249 1.96243E+01 1.06240E+01 8.29429E-01-1.38425E+01 1.44307E-12-1.58518E-12
 -1      1250 5.02114E+00 4.36830E+00-8.81142E-01-4.80212E+00 1.88738E-12-1.40754E-12
 -1      1251-1.26215E+00-7.71000E+00-2.37401E+00 2.67306E+00 1.35070E-12-6.98219E-13
 -1      1252-1.77487E+00-2.00122E+01-3.42008E+00 4.42275E+00 8.79297E-13-2.90490E-13
 -1      1253-1.06936E+00-2.64994E+01-3.85118E+00 1.05241E+00-1.25816E-13-1.47708E-13
 -1      1254-1.36692E+00-2.42033E+01-3.71865E+00-3.48863E+00-6.56142E-13-1.68948E-13
 -1      1255-2.03327E+00-1.39985E+01-2.95994E+00-4.42346E+00-1.50413E-12-7.46458E-13
 -1      1256 8.51477E-01-1.44952E+00-1.70934E+00 3.42320E-01-1.88738E-12-1.18472E-12
 -1      1257 1.16081E+01 8.05855E+00-2.84181E-02 9.33736E+00-1.53833E-12-1.50968E-12
 -1      1258 3.11970E+01 1.04580E+01 1.77991E+00 1.69589E+01-7.98028E-13-1.00053E-12
 -1      1259 5.26538E+01 6.79124E+00 3.33885E+00 1.67476E+01-1.33282E-13-3.30846E-13
 -1      1260 6.73216E+01 2.38812E+00 4.27609E+00 7.55144E+00 3.16205E-14 3.15303E-13
 -1      1261 6.86749E+01 2.46650E+00 4.43922E+00-6.61050E+00-2.09624E-13 1.21492E-12
 -1      1262 5.60919E+01 7.02613E+00 3.81243E+00-1.72598E+01-3.96794E-13 1.51168E-12
 -1      1263 3.45661E+01 1.15288E+01 2.29146E+00-1.87292E+01-9.21929E-13 1.48792E-12
 -1      1264 1.34533E+01 9.84769E+00 3.15016E-01-1.11826E+01-2.02238E-12 2.02549E-12
 -1      1265 1.24483E+00-9.72979E-01-1.67587E+00-8.63635E-01-2.63434E-12 1.87861E-12
 -1      1266-1.95469E+00-1.62040E+01-3.28379E+00 4.60469E+00-1.39311E-12 6.85785E-13
 -1      1267-1.24844E+00-2.71418E+01-4.16834E+00 2.69407E+00-2.61069E-13 1.29667E-13
 -1      1268 2.22675E+01 1.83823E+00-7.25867E-01-2.79063E+00-8.32112E-14 1.61066E-12
 -1      1269 2.03599E+01 4.69029E+00-4.86478E-02-3.30700E+00-2.44416E-13 1.19071E-14
 -1      1270 2.08674E+01 4.81078E+00-1.13345E-01-4.16124E+00-3.09530E-13 3.77726E-13
 -1      1271 1.95322E+01 4.99345E+00-1.96012E-02-2.65468E+00-2.48364E-13-5.05006E-13
 -1      1272 1.98302E+01 5.09035E+00 2.67119E-04-3.04569E+00-2.79339E-13-2.82926E-13
 -1      1273 2.05264E+01 3.95291E+00-2.58887E-02-3.07502E+00-4.27727E-13 1.86795E-14
 -1      1274 1.91841E+01 5.08413E+00-3.67399E-03-2.07030E+00-1.90237E-13-7.63556E-13
 -1      1275 1.93337E+01 5.13941E+00 1.05898E-02-2.36348E+00-2.22725E-13-6.45144E-13
 -1      1276 1.97546E+01 4.36604E+00-2.42634E-02-2.48967E+00-3.81500E-13-4.11629E-13
 -1      1277 1.90086E+01 5.13088E+00 3.26306E-03-1.56486E+00-1.43980E-13-8.85882E-13
 -1      1278 1.90862E+01 5.16081E+00 1.25488E-02-1.81476E+00-1.61754E-13-8.31397E-13
 -1      1279 1.93925E+01 4.55566E+00-1.95757E-02-1.93120E+00-2.92886E-13-6.29795E-13
 -1      1280 1.89154E+01 5.16054E+00 6.60614E-03-1.11712E+00-9.60395E-14-9.39998E-13
 -1      1281 1.89577E+01 5.17683E+00 1.27185E-02-1.33862E+00-1.13303E-13-9.13863E-13
 -1      1282 1.92054E+01 4.66134E+00-1.60748E-02-1.44506E+00-2.11818E-13-7.34086E-13
 -1      1283 1.88639E+01 5.18035E+00 8.20301E-03-6.93815E-01-5.14788E-14-9.46000E-13
 -1      1284 1.88869E+01 5.18922E+00 1.20368E-02-9.04033E-01-6.68944E-14-9.45794E-13
 -1      1285 1.91027E+01 4.72668E+00-1.39454E-02-1.00428E+00-1.38516E-13-7.85517E-13
 -1      1286 1.88399E+01 5.19228E+00 9.28768E-03-2.89147E-01-4.81001E-15-9.44151E-13
 -1      1287 1.88498E+01 5.19611E+00 1.10696E-02-4.91254E-01-2.06380E-14-9.45402E-13
 -1      1288 1.90469E+01 4.76567E+00-1.29116E-02-5.88772E-01-6.15667E-14-7.80782E-13
 -1      1289 1.88361E+01 5.19722E+00 1.02178E-02 1.08232E-01 3.44416E-14-9.29744E-13
 -1      1290 1.88358E+01 5.19708E+00 1.01465E-02-9.14246E-02 2.45149E-14-9.37191E-13
 -1      1291 1.90226E+01 4.78367E+00-1.24768E-02-1.89083E-01 1.46664E-14-7.83644E-13
 -1      1292 1.88515E+01 5.19574E+00 1.11555E-02 5.08645E-01 7.94161E-14-9.04683E-13
 -1      1293 1.88408E+01 5.19164E+00 9.22156E-03 3.06121E-01 6.14641E-14-9.18203E-13
 -1      1294 1.90235E+01 4.78303E+00-1.24963E-02 2.05794E-01 7.66373E-14-7.64749E-13
 -1      1295 1.88901E+01 5.18807E+00 1.20865E-02 9.22897E-01 1.11472E-13-8.62400E-13
 -1      1296 1.88663E+01 5.17904E+00 8.12925E-03 7.11731E-01 1.00368E-13-8.92834E-13
 -1      1297 1.90494E+01 4.76360E+00-1.29839E-02 6.06180E-01 1.49927E-13-7.37643E-13
 -1      1298 1.89620E+01 5.17512E+00 1.28934E-02 1.35609E+00 1.58576E-13-7.83418E-13
 -1      1299 1.89187E+01 5.15837E+00 6.44174E-03 1.13321E+00 1.40229E-13-8.30558E-13
 -1      1300 1.91069E+01 4.72320E+00-1.40101E-02 1.01950E+00 2.09396E-13-6.89192E-13
 -1      1301 1.90949E+01 5.15669E+00 1.28264E-02 1.84073E+00 2.18410E-13-6.55212E-13
 -1      1302 1.90153E+01 5.12631E+00 3.13299E-03 1.58793E+00 1.95158E-13-7.30489E-13
 -1      1303 1.92124E+01 4.65486E+00-1.61480E-02 1.46258E+00 2.91585E-13-6.02018E-13
 -1      1304 1.93438E+01 5.13346E+00 1.01703E-02 2.39785E+00 2.75498E-13-4.33979E-13
 -1      1305 1.91935E+01 5.07632E+00-4.38385E-03 2.10056E+00 2.45880E-13-5.69843E-13
 -1      1306 1.94053E+01 4.54241E+00-1.99965E-02 1.95826E+00 3.78994E-13-4.61180E-13
 -1      1307 1.98555E+01 5.09946E+00 6.05536E-03 3.08398E+00 3.11709E-13-1.14075E-14
 -1      1308 1.95434E+01 4.98445E+00-2.05440E-02 2.69660E+00 2.76376E-13-2.68327E-13
 -1      1309 1.97748E+01 4.34643E+00-2.45595E-02 2.52816E+00 4.47151E-13-2.03587E-13
 -1      1310 2.11035E+01 4.90705E+00 8.31819E-03 4.05405E+00 2.69562E-13 7.86676E-13
 -1      1311 2.03344E+01 4.73389E+00-4.79694E-02 3.41638E+00 2.63470E-13 2.98858E-13
 -1      1312 2.05647E+01 3.91597E+00-2.24080E-02 3.17851E+00 4.66550E-13 2.66037E-13
 -1      1313 2.72033E+01 3.20544E+00 9.29050E-01 4.58237E+00 1.37085E-13 2.30049E-12
 -1      1314 2.20204E+01 3.52222E+00-1.82002E-01 3.88509E+00 1.40665E-13 1.25111E-12
 -1      1315 2.21126E+01 2.56182E+00-3.25460E-02 3.45669E+00 4.34052E-13 9.97646E-13
 -1      1316 2.14273E+01 3.59584E-01-7.63537E-01 1.18389E+00 2.41508E-13 2.21290E-12
 -1      1317 2.20017E+01 1.31374E-01-4.00865E-01-1.28574E+00-2.50369E-13 1.68959E-12
 -1      1318 2.06790E+01 3.06736E-01-1.64803E-01-8.05785E-01-2.34111E-13 1.39463E-12
 -1      1319 2.00812E+01 1.53512E-01-7.35290E-02-4.02075E-01-1.90677E-13 1.26822E-12
 -1      1320 1.96115E+01 9.11941E-02-1.49170E-02-3.29907E-01-1.80200E-13 9.94739E-13
 -1      1321 2.09727E+01 3.69282E-01-1.04212E-01-1.27392E+00-4.12573E-13 7.37396E-13
 -1      1322 1.92542E+01 6.44557E-02 3.05093E-03-1.35333E-01-1.38770E-13 8.84477E-13
 -1      1323 1.90998E+01 4.11994E-02 1.32220E-02-1.17580E-01-1.26406E-13 7.01224E-13
 -1      1324 1.99220E+01 1.33754E-01-3.51714E-02-5.03901E-01-3.12743E-13 5.52995E-13
 -1      1325 1.89393E+01 3.15267E-02 1.32335E-02-2.81594E-02-9.68019E-14 6.12385E-13
 -1      1326 1.89198E+01 1.94206E-02 1.10386E-02-1.87515E-02-9.85106E-14 4.75404E-13
 -1      1327 1.94448E+01 5.55712E-02-8.44307E-03-1.70169E-01-2.24145E-13 3.76340E-13
 -1      1328 1.88636E+01 1.60252E-02 8.75385E-03 2.49437E-02-6.91816E-14 4.26378E-13
 -1      1329 1.89059E+01 9.06786E-03 6.41532E-03 2.95754E-02-7.29165E-14 3.46247E-13
 -1      1330 1.92356E+01 2.44173E-02-3.53305E-03-1.13519E-02-1.58313E-13 2.41236E-13
 -1      1331 1.89058E+01 7.83907E-03 4.66508E-03 5.07140E-02-6.68082E-14 3.10179E-13
 -1      1332 1.89760E+01 3.48116E-03 3.64422E-03 5.25921E-02-5.25810E-14 2.32844E-13
 -1      1333 1.91786E+01 1.01901E-02-2.21897E-03 6.73578E-02-1.26983E-13 1.71111E-13
 -1      1334 1.90053E+01 3.16489E-03 2.44675E-03 6.13384E-02-4.54361E-14 2.10872E-13
 -1      1335 1.90856E+01 3.08204E-04 2.21403E-03 6.15934E-02-3.36663E-14 1.52740E-13
 -1      1336 1.92045E+01 2.73503E-03-1.31561E-03 1.04091E-01-9.24416E-14 1.14172E-13
 -1      1337 1.91290E+01 4.20020E-04 1.33643E-03 6.32277E-02-3.91292E-14 1.21338E-13
 -1      1338 1.92095E+01-1.48604E-03 1.44161E-03 6.25327E-02-4.71169E-14 4.93217E-14
 -1      1339 1.92731E+01-1.34334E-03-5.50585E-04 1.17244E-01-9.39618E-14 8.09548E-14
 -1      1340 1.92577E+01-1.16523E-03 7.51932E-04 6.00974E-02-6.14635E-14 8.91344E-15
 -1      1341 1.93330E+01-2.42823E-03 9.73826E-04 5.88837E-02-8.38853E-14-9.55616E-14
 -1      1342 1.93608E+01-3.54699E-03 7.37980E-06 1.16793E-01-1.20654E-13-1.03214E-14
 -1      1343 1.93808E+01-2.01155E-03 4.17321E-04 5.42669E-02-6.73792E-14-1.13871E-13
 -1      1344 1.94479E+01-2.82285E-03 6.64714E-04 5.28198E-02 8.27788E-17-1.59108E-13
 -1      1345 1.94535E+01-4.60504E-03 3.58282E-04 1.08690E-01-1.11521E-13-4.04393E-14
 -1      1346 1.94923E+01-2.37525E-03 2.16279E-04 4.72366E-02 8.20283E-15-2.39272E-13
 -1      1347 1.95501E+01-2.86316E-03 4.53000E-04 4.57443E-02-3.03960E-14-2.41171E-13
 -1      1348 1.95427E+01-4.93561E-03 5.45708E-04 9.66987E-02-6.87818E-14-1.42606E-13
 -1      1349 1.95896E+01-2.42164E-03 9.62008E-05 3.99856E-02-5.47183E-14-2.87698E-13
 -1      1350 1.96382E+01-2.67563E-03 3.08539E-04 3.85705E-02-8.08603E-14-3.67013E-13
 -1      1351 1.96241E+01-4.80138E-03 6.16620E-04 8.32567E-02-8.51621E-14-2.95235E-13
 -1      1352 1.96723E+01-2.25943E-03 2.93112E-05 3.31514E-02-5.42703E-14-3.63432E-13
 -1      1353 1.97123E+01-2.34266E-03 2.13575E-04 3.18922E-02-1.03789E-14-3.88450E-13
 -1      1354 1.96956E+01-4.37274E-03 6.07907E-04 6.99565E-02-8.78244E-14-3.47982E-13
 -1      1355 1.97412E+01-1.95885E-03-1.23230E-06 2.71494E-02-1.88983E-14-3.52528E-13
 -1      1356 1.97738E+01-1.91536E-03 1.56439E-04 2.60966E-02-3.17754E-14-3.79561E-13
 -1      1357 1.97571E+01-3.75863E-03 5.45314E-04 5.78386E-02-2.46543E-14-3.13839E-13
 -1      1358 1.97983E+01-1.56223E-03-6.50209E-06 2.22573E-02-4.95474E-14-3.85287E-13
 -1      1359 1.98248E+01-1.42156E-03 1.29119E-04 2.14457E-02-4.19563E-14-4.30971E-13
 -1      1360 1.98093E+01-3.02385E-03 4.45435E-04 4.75935E-02-3.74735E-14-3.18108E-13
 -1      1361 1.98459E+01-1.09061E-03 5.88229E-06 1.86788E-02-2.40390E-14-4.18538E-13
 -1      1362 1.98681E+01-8.71160E-04 1.26054E-04 1.81371E-02-3.24684E-14-4.49581E-13
 -1      1363 1.98539E+01-2.19967E-03 3.17768E-04 3.97065E-02-4.55028E-14-3.29101E-13
 -1      1364 1.98871E+01-5.48358E-04 3.04440E-05 1.65930E-02 1.92192E-16-4.21680E-13
 -1      1365 1.99068E+01-2.60037E-04 1.43375E-04 1.63510E-02-8.62056E-15-4.10953E-13
 -1      1366 1.98931E+01-1.29099E-03 1.66322E-04 3.45682E-02-1.72449E-14-2.99565E-13
 -1      1367 1.99252E+01 7.35257E-05 6.29521E-05 1.61929E-02-5.95452E-14-4.34724E-13
 -1      1368 1.99445E+01 4.26904E-04 1.78341E-04 1.62879E-02-4.40699E-14-4.67427E-13
 -1      1369 1.99298E+01-2.81570E-04-9.15790E-06 3.25605E-02-5.90308E-14-3.13695E-13
 -1      1370 1.99640E+01 7.94783E-04 9.96886E-05 1.77163E-02-1.62288E-14-5.13354E-13
 -1      1371 1.99854E+01 1.21322E-03 2.28799E-04 1.81980E-02-2.55722E-14-5.11127E-13
 -1      1372 1.99670E+01 8.62057E-04-2.12224E-04 3.41234E-02-6.77637E-14-4.00317E-13
 -1      1373 2.00082E+01 1.64362E-03 1.36741E-04 2.14696E-02-9.96162E-15-5.35592E-13
 -1      1374 2.00343E+01 2.12840E-03 2.92558E-04 2.24040E-02-4.15387E-14-5.43951E-13
 -1      1375 2.00086E+01 2.18717E-03-4.48903E-04 3.98079E-02-6.12181E-14-4.25197E-13
 -1      1376 2.00628E+01 2.65425E-03 1.69215E-04 2.78449E-02-1.07733E-14-4.97606E-13
 -1      1377 2.00969E+01 3.20482E-03 3.66574E-04 2.93169E-02 2.93234E-14-4.71693E-13
 -1      1378 2.00590E+01 3.75141E-03-7.26877E-04 5.03141E-02-1.14095E-14-4.51512E-13
 -1      1379 2.01339E+01 3.86350E-03 1.90280E-04 3.73276E-02 2.76511E-14-4.92627E-13
 -1      1380 2.01800E+01 4.47315E-03 4.45786E-04 3.94419E-02 2.20934E-14-4.54581E-13
 -1      1381 2.01234E+01 5.61798E-03-1.05452E-03 6.65136E-02 1.26106E-14-4.44930E-13
 -1      1382 2.02289E+01 5.30528E-03 1.89956E-04 5.04914E-02-3.70928E-14-4.22341E-13
 -1      1383 2.02914E+01 5.95471E-03 5.21469E-04 5.33709E-02-7.67205E-14-4.96707E-13
 -1      1384 2.02076E+01 7.84792E-03-1.43955E-03 8.94478E-02-9.21214E-15-3.76492E-13
 -1      1385 2.03560E+01 7.00093E-03 1.53652E-04 6.79693E-02-7.74868E-15-4.50017E-13
 -1      1386 2.04405E+01 7.64829E-03 5.78980E-04 7.17475E-02-1.51086E-14-4.30503E-13
 -1      1387 2.03187E+01 1.04859E-02-1.88695E-03 1.20289E-01-5.56573E-14-3.36773E-13
 -1      1388 2.05250E+01 8.94196E-03 6.06194E-05 9.03848E-02-2.71288E-14-4.46340E-13
 -1      1389 2.06377E+01 9.50722E-03 5.95015E-04 9.51892E-02 2.60460E-14-3.97503E-13
 -1      1390 2.04647E+01 1.35345E-02-2.39556E-03 1.60234E-01-3.65970E-14-3.25226E-13
 -1      1391 2.07468E+01 1.10595E-02-1.16904E-04 1.18212E-01 8.81879E-14-3.89141E-13
 -1      1392 2.08943E+01 1.14001E-02 5.35197E-04 1.24131E-01 3.33249E-14-3.03015E-13
 -1      1393 2.06542E+01 1.69072E-02-2.95229E-03 2.10289E-01 4.24842E-14-2.87559E-13
 -1      1394 2.10328E+01 1.31718E-02-4.11877E-04 1.51516E-01-2.25460E-14-3.30915E-13
 -1      1395 2.12218E+01 1.30459E-02 3.54462E-04 1.58533E-01 1.44221E-15-3.01110E-13
 -1      1396 2.08964E+01 2.03460E-02-3.52223E-03 2.70856E-01-1.00382E-14-2.81482E-13
 -1      1397 2.13935E+01 1.48980E-02-8.53439E-04 1.89495E-01 3.47099E-14-3.77166E-13
 -1      1398 2.16297E+01 1.39141E-02 5.92554E-06 1.97378E-01 1.00397E-14-3.52114E-13
 -1      1399 2.11997E+01 2.32832E-02-4.03186E-03 3.41006E-01-2.49748E-14-3.45692E-13
 -1      1400 2.18366E+01 1.55259E-02-1.44212E-03 2.29718E-01-2.67898E-14-3.83957E-13
 -1      1401 2.21220E+01 1.30837E-02-5.31242E-04 2.37825E-01-6.22046E-14-4.31641E-13
 -1      1402 2.15701E+01 2.46245E-02-4.34125E-03 4.17257E-01-6.87911E-14-3.61887E-13
 -1      1403 2.23624E+01 1.38359E-02-2.09648E-03 2.66954E-01-7.13149E-14-3.30232E-13
 -1      1404 2.26917E+01 9.08855E-03-1.19102E-03 2.73935E-01-4.40704E-14-4.49562E-13
 -1      1405 2.20086E+01 2.24522E-02-4.20140E-03 4.91659E-01-3.54777E-14-3.20691E-13
 -1      1406 2.29571E+01 7.93019E-03-2.56116E-03 2.91570E-01-3.76702E-14-4.33580E-13
 -1      1407 2.33117E+01-1.50390E-04-1.72047E-03 2.94953E-01 3.18471E-14-4.63393E-13
 -1      1408 2.25058E+01 1.37188E-02-3.19891E-03 5.49098E-01-8.31534E-14-1.52176E-13
 -1      1409 2.35829E+01-4.75600E-03-2.29314E-03 2.87831E-01 3.41105E-14-6.28334E-13
 -1      1410 2.39232E+01-1.70300E-02-1.57742E-03 2.83617E-01-6.40542E-14-6.59995E-13
 -1      1411 2.30363E+01-5.79224E-03-7.13280E-04 5.64184E-01-9.76877E-14-4.14365E-13
 -1      1412 2.41660E+01-2.68357E-02-4.31055E-04 2.33319E-01-2.85692E-14-5.99402E-13
 -1      1413 2.44231E+01-4.30654E-02 3.57812E-05 2.15954E-01 2.49445E-14-6.49090E-13
 -1      1414 2.35500E+01-4.05544E-02 4.03012E-03 4.99321E-01-1.96856E-14-4.56540E-13
 -1      1415 2.45855E+01-5.89882E-02 3.90269E-03 1.02284E-01 2.45368E-14-5.87041E-13
 -1      1416 2.46598E+01-7.60938E-02 3.74357E-03 6.59266E-02 3.45488E-14-5.21253E-13
 -1      1417 2.39649E+01-9.22092E-02 1.16243E-02 3.08002E-01 1.70159E-14-4.17016E-13
 -1      1418 2.46749E+01-9.59717E-02 1.06630E-02-1.22480E-01 1.55778E-14-5.03748E-13
 -1      1419 2.44518E+01-1.05948E-01 8.99969E-03-1.80044E-01 2.78198E-14-5.44211E-13
 -1      1420 2.41656E+01-1.53214E-01 2.16004E-02-4.94301E-02 4.59216E-14-3.18941E-13
 -1      1421 2.42532E+01-1.21566E-01 1.74286E-02-4.25745E-01 1.84401E-14-5.86049E-13
 -1      1422 2.36501E+01-1.11593E-01 1.25958E-02-4.95848E-01-7.59635E-15-5.56014E-13
 -1      1423 2.40189E+01-1.98864E-01 3.09842E-02-5.70050E-01-1.62717E-15-5.27121E-13
 -1      1424 2.32064E+01-1.09112E-01 1.82496E-02-7.30974E-01 6.39974E-14-5.76969E-13
 -1      1425 2.22505E+01-6.82774E-02 9.20897E-03-7.87848E-01 8.94822E-14-3.72695E-13
 -1      1426 2.34198E+01-1.86437E-01 3.30500E-02-1.15682E+00 5.62710E-14-4.66139E-13
 -1      1427 2.16150E+01-3.71097E-02 7.85402E-03-8.97599E-01-1.18930E-14-1.54682E-13
 -1      1428 2.05074E+01 2.96054E-02-4.43102E-03-9.03808E-01 6.03768E-15-2.05516E-13
 -1      1429 2.23759E+01-8.03225E-02 1.89544E-02-1.59022E+00 1.09068E-13-4.85653E-13
 -1      1430 1.98482E+01 7.99040E-02-1.23340E-02-7.85144E-01 2.94487E-14-2.16605E-13
 -1      1431 1.89367E+01 1.42453E-01-2.32736E-02-7.18010E-01-3.42816E-14-2.30142E-13
 -1      1432 2.10974E+01 1.05737E-01-1.24020E-02-1.59626E+00 5.98592E-14-1.72081E-13
 -1      1433 1.84908E+01 1.77037E-01-2.96128E-02-3.77991E-01-2.19408E-14-1.85574E-13
 -1      1434 1.81032E+01 1.96604E-01-3.33243E-02-2.61312E-01-4.46830E-14-2.36731E-13
 -1      1435 1.99927E+01 2.78903E-01-4.66595E-02-1.04064E+00 2.43694E-14-1.36937E-13
 -1      1436 1.80302E+01 1.86788E-01-3.04373E-02 1.45770E-01-1.51806E-14-2.24629E-13
 -1      1437 1.82642E+01 1.50488E-01-2.51633E-02 2.50504E-01 3.99385E-14-2.23363E-13
 -1      1438 1.94775E+01 3.30579E-01-5.74686E-02-1.19274E-01-6.51042E-14-7.29668E-14
 -1      1439 1.85270E+01 1.02875E-01-1.49896E-02 5.21149E-01 5.03521E-14-2.22870E-13
 -1      1440 1.91820E+01 3.67121E-02-4.34854E-03 5.61175E-01 7.99838E-14-1.05298E-13
 -1      1441 1.96807E+01 2.24626E-01-3.56729E-02 7.14300E-01 8.77631E-14-1.64365E-13
 -1      1442 1.95757E+01-1.18094E-02 4.10652E-03 5.91054E-01-8.25173E-14 9.55763E-14
 -1      1443 2.02923E+01-6.75928E-02 1.42363E-02 5.62024E-01-1.20893E-14-1.09426E-14
 -1      1444 2.03459E+01 3.22131E-02 1.64894E-04 1.07088E+00 8.34417E-14-8.23092E-14
 -1      1445 2.05971E+01-8.90461E-02 1.47921E-02 3.98420E-01 6.31439E-14-1.96967E-13
 -1      1446 2.10767E+01-1.11954E-01 2.07701E-02 3.34059E-01 5.92547E-14-1.83444E-13
 -1      1447 2.10342E+01-1.27348E-01 2.60143E-02 8.90088E-01 3.86453E-14-9.67143E-14
 -1      1448 2.11774E+01-1.04401E-01 1.47553E-02 1.04680E-01 1.23299E-13-9.44939E-14
 -1      1449 2.13087E+01-9.63475E-02 1.63825E-02 4.33494E-02 1.73317E-13 1.10724E-13
 -1      1450 2.14108E+01-1.86885E-01 3.14408E-02 4.00495E-01 1.72248E-13-1.72622E-14
 -1      1451 2.12110E+01-7.24755E-02 8.08179E-03-1.37259E-01 4.17652E-14 2.72933E-14
 -1      1452 2.10616E+01-4.62202E-02 7.12742E-03-1.72237E-01-2.46808E-14-1.40998E-14
 -1      1453 2.13791E+01-1.49858E-01 2.23508E-02-9.89803E-02 7.22009E-14-4.11134E-14
 -1      1454 2.08461E+01-1.68406E-02-1.00184E-03-2.41147E-01-5.26727E-15-1.15812E-13
 -1      1455 2.05881E+01 1.49374E-02-1.07745E-03-2.40333E-01 1.18408E-14-1.49459E-13
 -1      1456 2.10359E+01-5.72194E-02 7.20961E-03-3.98944E-01-6.46818E-14-3.50948E-13
 -1      1457 2.03578E+01 4.29456E-02-7.09275E-03-1.81578E-01-5.87941E-15-6.55552E-14
 -1      1458 2.01810E+01 5.68597E-02-3.06316E-04-1.53783E-01-3.84409E-14-2.25204E-14
 -1      1459 2.05699E+01 5.90674E-02-3.29648E-03-4.14110E-01 6.32569E-14-1.82131E-13
 -1      1460 1.99986E+01 2.62457E-02-2.74854E-03 1.73685E-03-6.32602E-14 3.15351E-14
 -1      1461 2.01308E+01 1.15067E-01-5.18572E-03-1.49914E-01 2.59714E-14-9.95898E-14
 -1      1462 2.02600E+01 7.54763E-02-1.52092E-01 4.83885E-01 1.90813E-13 1.76640E-12
 -1      1463 2.15303E+01 2.16136E-01-2.29287E-01 7.20881E-01 1.70891E-13 2.07390E-12
 -1      1464 2.17288E+01 8.81772E-01-8.54703E-02 2.06491E+00 3.50796E-13 1.36241E-12
 -1      1465 1.93316E+01 3.23775E-02-2.13309E-02 1.86050E-01 1.51087E-13 1.38748E-12
 -1      1466 1.97523E+01 1.13617E-01-6.26992E-02 2.38059E-01 1.47195E-13 1.61731E-12
 -1      1467 2.03036E+01 1.87677E-01-5.51892E-02 7.86243E-01 2.96159E-13 1.06520E-12
 -1      1468 1.89497E+01 1.50983E-02 5.66353E-03 5.35666E-02 1.14467E-13 1.06762E-12
 -1      1469 1.90883E+01 5.16196E-02 9.75966E-04 7.98745E-02 1.19474E-13 1.26063E-12
 -1      1470 1.95584E+01 7.18281E-02-1.21579E-02 2.99074E-01 2.54404E-13 8.38211E-13
 -1      1471 1.88390E+01 7.11803E-03 6.96813E-03-8.90607E-03 6.84418E-14 8.67115E-13
 -1      1472 1.88537E+01 2.58533E-02 1.10819E-02 5.48947E-03 5.93340E-14 9.72406E-13
 -1      1473 1.92229E+01 3.10191E-02-2.47245E-03 8.36227E-02 1.64651E-13 6.29906E-13
 -1      1474 1.88648E+01 3.20455E-03 4.77516E-03-3.91447E-02 4.99895E-14 7.19431E-13
 -1      1475 1.88212E+01 1.38032E-02 8.51188E-03-3.10278E-02 4.85779E-14 8.04851E-13
 -1      1476 1.91061E+01 1.32569E-02-1.62729E-03-2.13217E-02 1.06986E-13 4.95791E-13
 -1      1477 1.89586E+01 1.04380E-03 3.29390E-03-5.25457E-02 7.96444E-15 6.51989E-13
 -1      1478 1.88883E+01 7.26886E-03 5.36197E-03-4.80792E-02 1.94645E-14 6.95966E-13
 -1      1479 1.91070E+01 4.52725E-03-1.63601E-03-7.27664E-02 5.41531E-14 4.58744E-13
 -1      1480 1.90825E+01-2.06335E-04 2.51494E-03-5.64470E-02 5.27745E-14 5.67068E-13
 -1      1481 1.90026E+01 3.42913E-03 3.42998E-03-5.42441E-02 2.59740E-14 6.11950E-13
 -1      1482 1.91694E+01-1.35790E-04-1.37514E-03-9.53295E-02 4.85249E-14 3.97714E-13
 -1      1483 1.92146E+01-9.12438E-04 2.05003E-03-5.48926E-02 4.43247E-14 4.33972E-13
 -1      1484 1.91347E+01 1.09534E-03 2.32902E-03-5.41118E-02 5.52524E-14 5.28882E-13
 -1      1485 1.92608E+01-2.65661E-03-9.97939E-04-1.01420E-01 1.00499E-13 3.04503E-13
 -1      1486 1.93424E+01-1.27114E-03 1.70520E-03-5.03265E-02 5.85938E-14 3.21132E-13
 -1      1487 1.92680E+01-3.10118E-04 1.65104E-03-5.04238E-02 3.94297E-14 3.83690E-13
 -1      1488 1.93623E+01-3.92177E-03-6.55052E-04-9.80574E-02 1.02833E-13 2.07805E-13
 -1      1489 1.94592E+01-1.40233E-03 1.41435E-03-4.42977E-02 2.38591E-14 2.69103E-13
 -1      1490 1.93928E+01-1.11113E-03 1.19172E-03-4.49098E-02 3.22569E-14 3.06232E-13
 -1      1491 1.94628E+01-4.41237E-03-3.91386E-04-8.95279E-02 5.82630E-14 1.45940E-13
 -1      1492 1.95617E+01-1.38421E-03 1.15923E-03-3.78084E-02 2.26557E-14 2.18028E-13
 -1      1493 1.95046E+01-1.50791E-03 8.61937E-04-3.86884E-02 1.29230E-14 2.41773E-13
 -1      1494 1.95558E+01-4.41649E-03-2.04044E-04-7.85636E-02 3.70450E-14 1.35173E-13
 -1      1495 1.96491E+01-1.26889E-03 9.34811E-04-3.15092E-02 2.07872E-14 1.39178E-13
 -1      1496 1.96011E+01-1.63128E-03 6.20065E-04-3.24874E-02 3.81555E-14 1.86076E-13
 -1      1497 1.96385E+01-4.11737E-03-7.87491E-05-6.69384E-02 5.31256E-14 5.52892E-14
 -1      1498 1.97221E+01-1.09023E-03 7.38555E-04-2.58202E-02 2.13197E-14 9.63524E-14
 -1      1499 1.96826E+01-1.56807E-03 4.42964E-04-2.67793E-02 1.77352E-14 9.49436E-14
 -1      1500 1.97098E+01-3.63375E-03-2.17612E-06-5.58089E-02 7.38413E-14 4.66625E-14
 -1      1501 1.97823E+01-8.68632E-04 5.67613E-04-2.10155E-02 2.68378E-14 1.79468E-14
 -1      1502 1.97502E+01-1.37448E-03 3.15618E-04-2.18720E-02 3.45206E-14 7.87738E-14
 -1      1503 1.97703E+01-3.04040E-03 3.54746E-05-4.59316E-02 5.26061E-14-5.95992E-14
 -1      1504 1.98321E+01-6.14111E-04 4.18301E-04-1.72838E-02 2.20011E-14 4.06553E-14
 -1      1505 1.98060E+01-1.08405E-03 2.27407E-04-1.79744E-02-8.36007E-15 3.48718E-14
 -1      1506 1.98212E+01-2.38025E-03 4.04284E-05-3.78136E-02 9.84700E-16 2.30805E-14
 -1      1507 1.98745E+01-3.28543E-04 2.86060E-04-1.47751E-02-4.43591E-14-6.41775E-14
 -1      1508 1.98526E+01-7.12698E-04 1.70519E-04-1.52457E-02 1.97686E-14-2.41113E-14
 -1      1509 1.98648E+01-1.67219E-03 1.56546E-05-3.18234E-02 3.04834E-14 3.04449E-14
 -1      1510 1.99127E+01-7.38590E-06 1.65568E-04-1.36368E-02 1.10866E-13-2.33121E-13
 -1      1511 1.98933E+01-2.62276E-04 1.39098E-04-1.38334E-02 6.52044E-14-1.24714E-13
 -1      1512 1.99037E+01-9.16643E-04-3.88594E-05-2.82746E-02 7.80590E-14-1.55451E-13
 -1      1513 1.99506E+01 3.58834E-04 5.08782E-05-1.40421E-02 9.41569E-15-4.29479E-13
 -1      1514 1.99315E+01 2.76699E-04 1.28711E-04-1.39029E-02 2.11444E-14-3.46333E-13
 -1      1515 1.99409E+01-9.98583E-05-1.25901E-04-2.74912E-02 1.31603E-13-2.59193E-13
 -1      1516 1.99924E+01 7.83079E-04-6.44530E-05-1.62103E-02 3.53057E-14-4.85484E-13
 -1      1517 1.99713E+01 9.22679E-04 1.35918E-04-1.56596E-02 3.25610E-14-4.10780E-13
 -1      1518 1.99800E+01 8.02341E-04-2.50858E-04-2.98562E-02 3.84647E-14-2.64460E-13
 -1      1519 2.00432E+01 1.28012E-03-1.87256E-04-2.04211E-02-6.74330E-14-4.66359E-13
 -1      1520 2.00174E+01 1.70065E-03 1.57851E-04-1.93637E-02-4.12605E-14-4.61315E-13
 -1      1521 2.00251E+01 1.82097E-03-4.21504E-04-3.58464E-02-1.73223E-15-2.52220E-13
 -1      1522 2.01087E+01 1.86422E-03-3.24595E-04-2.70193E-02-2.64247E-15-4.89267E-13
 -1      1523 2.00751E+01 2.63899E-03 1.91708E-04-2.53375E-02 2.27533E-14-4.38502E-13
 -1      1524 2.00810E+01 2.98972E-03-6.47637E-04-4.60515E-02-3.34125E-14-2.60960E-13
 -1      1525 2.01958E+01 2.54548E-03-4.83462E-04-3.64076E-02 1.50346E-14-5.02670E-13
 -1      1526 2.01506E+01 3.76482E-03 2.34098E-04-3.39601E-02 1.43327E-14-4.69487E-13
 -1      1527 2.01533E+01 4.33913E-03-9.40353E-04-6.11720E-02 2.25413E-14-2.68191E-13
 -1      1528 2.03123E+01 3.32402E-03-6.70057E-04-4.90193E-02-3.94499E-14-4.69482E-13
 -1      1529 2.02512E+01 5.09621E-03 2.80176E-04-4.56449E-02-4.47996E-14-5.27873E-13
 -1      1530 2.02483E+01 5.88762E-03-1.31062E-03-8.19878E-02-6.49654E-16-4.10669E-13
 -1      1531 2.04669E+01 4.18023E-03-8.88184E-04-6.52597E-02-9.39108E-14-3.06251E-13
 -1      1532 2.03850E+01 6.62925E-03 3.22569E-04-6.07895E-02-9.24149E-14-4.61959E-13
 -1      1533 2.03731E+01 7.62692E-03-1.76650E-03-1.09278E-01-7.75005E-14-3.97468E-13
 -1      1534 2.06693E+01 5.05909E-03-1.13573E-03-8.53949E-02-3.58802E-14-3.10437E-14
 -1      1535 2.05612E+01 8.31627E-03 3.50252E-04-7.96783E-02-4.69760E-14-1.35678E-13
 -1      1536 2.05356E+01 9.49792E-03-2.30806E-03-1.43663E-01-1.73026E-13-1.77608E-13
 -1      1537 2.09291E+01 5.84536E-03-1.39733E-03-1.09357E-01 8.47564E-15 1.04277E-13
 -1      1538 2.07892E+01 1.00302E-02 3.47980E-04-1.02313E-01 1.45924E-14 9.32024E-14
 -1      1539 2.07436E+01 1.13515E-02-2.91800E-03-1.85326E-01-7.02823E-15 1.62925E-13
 -1      1540 2.12546E+01 6.32652E-03-1.62997E-03-1.36423E-01 4.61016E-14-6.07223E-14
 -1      1541 2.10781E+01 1.15088E-02 2.97812E-04-1.28130E-01 8.21131E-14 3.21219E-14
 -1      1542 2.10046E+01 1.28867E-02-3.54554E-03-2.33541E-01 7.62084E-14 1.81236E-13
 -1      1543 2.16503E+01 6.14253E-03-1.73682E-03-1.64703E-01-1.57875E-14-9.04329E-14
 -1      1544 2.14345E+01 1.22728E-02 1.85851E-04-1.55551E-01-6.75623E-14-9.65530E-14
 -1      1545 2.13237E+01 1.35589E-02-4.07985E-03-2.85921E-01-3.53194E-14 1.67767E-13
 -1      1546 2.21132E+01 4.73044E-03-1.52538E-03-1.90397E-01 1.07098E-13-2.41416E-13
 -1      1547 2.18594E+01 1.15221E-02 1.94708E-05-1.81328E-01 9.78271E-14-1.03709E-13
 -1      1548 2.17012E+01 1.24583E-02-4.31023E-03-3.37290E-01 6.93362E-14 4.66610E-14
 -1      1549 2.26262E+01 1.29487E-03-6.54870E-04-2.06837E-01 5.91603E-14-3.82045E-13
 -1      1550 2.23438E+01 8.03804E-03-1.39048E-04-1.99670E-01 5.11645E-14-3.29023E-13
 -1      1551 2.21289E+01 8.18457E-03-3.87638E-03-3.78154E-01 1.44360E-13-1.60453E-13
 -1      1552 2.31504E+01-5.11510E-03 1.39199E-03-2.03532E-01-4.71528E-14-3.84599E-13
 -1      1553 2.28617E+01 1.86439E-04-1.23474E-04-2.01340E-01 1.00596E-14-3.75346E-13
 -1      1554 2.25847E+01-1.18769E-03-2.23150E-03-3.92972E-01 1.21958E-14-6.88460E-14
 -1      1555 2.36154E+01-1.52642E-02 5.21098E-03-1.65922E-01-6.78448E-14-1.39708E-13
 -1      1556 2.33614E+01-1.37699E-02 3.72503E-04-1.73250E-01-1.11021E-13-3.53601E-13
 -1      1557 2.30261E+01-1.78243E-02 1.31317E-03-3.59025E-01-1.39200E-13-8.85264E-14
 -1      1558 2.39131E+01-2.88767E-02 1.10597E-02-7.73775E-02 3.15767E-14-1.60817E-13
 -1      1559 2.37574E+01-3.46778E-02 1.73555E-03-9.98160E-02 4.70752E-14-1.12896E-13
 -1      1560 2.33846E+01-4.30933E-02 7.32426E-03-2.47795E-01 1.20867E-14-8.68281E-14
 -1      1561 2.39030E+01-4.31521E-02 1.79744E-02 7.40302E-02-8.37715E-14-1.24662E-13
 -1      1562 2.39289E+01-6.04603E-02 4.12132E-03 3.17980E-02-7.34603E-14-2.14670E-13
 -1      1563 2.35642E+01-7.51809E-02 1.55994E-02-3.23772E-02-4.67317E-14-2.13408E-13
 -1      1564 2.34418E+01-5.13986E-02 2.27315E-02 2.82038E-01 7.38272E-14-3.41081E-13
 -1      1565 2.37340E+01-8.34473E-02 6.88115E-03 2.20435E-01 6.16538E-14-1.95250E-13
 -1      1566 2.34530E+01-1.05577E-01 2.41654E-02 2.94796E-01 1.00257E-13-3.84640E-13
 -1      1567 2.24502E+01-4.39865E-02 1.98905E-02 5.05431E-01 1.27561E-13-7.03777E-13
 -1      1568 2.30541E+01-8.96040E-02 7.98246E-03 4.35486E-01 1.31816E-13-5.15827E-13
 -1      1569 2.29558E+01-1.16315E-01 2.89805E-02 6.94552E-01 2.42605E-13-5.43430E-13
 -1      1570 2.10039E+01-1.38885E-02 4.40803E-03 6.62262E-01-6.66472E-14-6.09179E-13
 -1      1571 2.18701E+01-6.35783E-02 4.29263E-03 6.07871E-01-4.60335E-14-6.22780E-13
 -1      1572 2.20538E+01-8.52686E-02 2.45922E-02 1.05820E+00 4.92323E-14-5.29667E-13
 -1      1573 1.93982E+01 3.31598E-02-2.19683E-02 6.55091E-01-6.45443E-14-3.94206E-13
 -1      1574 2.03459E+01-1.62049E-03-5.93499E-03 6.45530E-01-6.80593E-14-4.41612E-13
 -1      1575 2.08700E+01-7.34617E-04 8.74690E-03 1.22079E+00-1.22803E-13-4.28262E-13
 -1      1576 1.80976E+01 7.42673E-02-4.59271E-02 4.38321E-01-3.82307E-14-2.27297E-13
 -1      1577 1.88496E+01 7.44100E-02-1.90812E-02 4.88106E-01 1.44849E-14-2.99587E-13
 -1      1578 1.96917E+01 1.14917E-01-1.24329E-02 1.04142E+00-7.90722E-14-1.43503E-13
 -1      1579 1.75231E+01 8.31710E-02-5.09242E-02 7.92247E-02-9.05300E-14-1.15614E-13
 -1      1580 1.78346E+01 1.23650E-01-2.64503E-02 1.70773E-01-1.21014E-13-3.25785E-13
 -1      1581 1.88788E+01 2.01482E-01-2.72023E-02 5.26601E-01-9.64680E-14 6.94557E-14
 -1      1582 1.77975E+01 5.38159E-02-3.14891E-02-2.61040E-01 7.59236E-14-1.94129E-13
 -1      1583 1.76043E+01 1.16367E-01-2.14079E-02-1.70918E-01 1.46029E-14-7.98944E-14
 -1      1584 1.86728E+01 2.01068E-01-2.74229E-02-1.20403E-01-1.82493E-15-1.28172E-13
 -1      1585 1.86620E+01 6.77383E-03-1.04050E-06-4.35147E-01-2.01893E-13-2.94001E-14
 -1      1586 1.81230E+01 6.08729E-02-6.18636E-03-3.85127E-01-9.83679E-14-1.24206E-13
 -1      1587 1.90414E+01 1.11008E-01-1.59504E-02-6.10426E-01-1.22123E-13 1.65177E-13
 -1      1588 1.96522E+01-3.09270E-02 2.48625E-02-4.04028E-01 9.85856E-14-7.51621E-14
 -1      1589 1.90437E+01-6.21575E-03 9.75913E-03-4.04843E-01 3.14809E-14-5.69822E-14
 -1      1590 1.97072E+01-1.04827E-02-2.00740E-03-7.61666E-01-6.34588E-14 5.65450E-14
 -1      1591 2.03665E+01-4.45192E-02 3.29538E-02-2.35897E-01 2.31759E-13-2.44173E-13
 -1      1592 1.99252E+01-5.06476E-02 1.81813E-02-2.71424E-01 1.17939E-13-7.64805E-14
 -1      1593 2.03275E+01-9.74867E-02 6.92880E-03-5.92059E-01 2.00922E-13-1.12901E-13
 -1      1594 2.06338E+01-3.51100E-02 2.56275E-02-4.18703E-02-1.43952E-13-3.32294E-13
 -1      1595 2.04591E+01-5.89990E-02 1.72902E-02-8.50860E-02 8.17749E-15-2.16702E-13
 -1      1596 2.06712E+01-1.19495E-01 8.66778E-03-2.62476E-01 8.28036E-14 8.19995E-14
 -1      1597 2.05234E+01-1.26570E-02 1.05971E-02 8.80499E-02 3.35053E-14-2.20259E-13
 -1      1598 2.05713E+01-3.76937E-02 1.02302E-02 5.95335E-02 1.21864E-16-2.43201E-13
 -1      1599 2.06899E+01-8.55783E-02 4.69201E-03 4.12006E-02-3.90452E-14 1.79482E-13
 -1      1600 2.02488E+01 1.07550E-02-2.83649E-03 1.11640E-01-2.52643E-14-2.80356E-13
 -1      1601 2.03870E+01-1.82508E-03 1.56646E-03 1.09218E-01-4.22477E-14-3.17014E-13
 -1      1602 2.04831E+01-2.21112E-02-1.66243E-03 1.93759E-01-4.71949E-14 2.57001E-13
 -1      1603 2.00478E+01 2.65528E-02 2.66930E-03 4.12131E-02 7.25316E-14-1.73177E-13
 -1      1604 2.01277E+01 2.97522E-02-1.54337E-03 6.30186E-02 1.07538E-14-2.32054E-13
 -1      1605 2.02175E+01 4.17361E-02-3.43701E-03 1.59993E-01 7.33077E-14 1.91881E-13
 -1      1606 1.99973E+01 1.07936E-02 5.27043E-03-5.08095E-03-9.70318E-14-1.45952E-13
 -1      1607 2.00546E+01 2.46687E-01-4.86168E-03 1.23060E-01 4.10527E-13 5.29920E-13
 -1      1608 2.00489E+01 1.18659E-01 2.11096E-03 9.33990E-02-1.36460E-13 3.84190E-13
 -1      1609 2.00733E+01 7.87255E-01-5.63939E-03 2.95963E-01 8.31290E-13 1.01383E-13
 -1      1610 2.00680E+01 4.45977E-01-6.39000E-03 2.57515E-01 5.93751E-13 1.94501E-13
 -1      1611 2.01132E+01 3.79412E-01-1.62066E-02 3.73133E-01 2.11757E-13 5.70036E-13
 -1      1612 2.00788E+01 1.72857E+00-7.59465E-03 5.10237E-01 7.99139E-13-1.94992E-14
 -1      1613 2.00829E+01 1.13231E+00-1.02080E-02 4.64150E-01 8.26988E-13 1.18025E-13
 -1      1614 2.01377E+01 8.98097E-01-2.14894E-02 7.37750E-01 3.75430E-13 1.61848E-13
 -1      1615 2.00591E+01 3.08862E+00-7.92326E-03 7.19625E-01 6.61721E-13-1.88973E-13
 -1      1616 2.00788E+01 2.24418E+00-1.23033E-02 6.77899E-01 7.61162E-13 1.48822E-14
 -1      1617 2.01338E+01 1.73033E+00-2.41374E-02 1.14546E+00 3.40712E-13-5.24390E-14
 -1      1618 2.00056E+01 4.71320E+00-4.80511E-03 8.41484E-01-6.67522E-15-3.07692E-13
 -1      1619 2.00431E+01 3.73451E+00-1.02192E-02 8.24175E-01 4.90934E-13-3.80027E-13
 -1      1620 2.00833E+01 2.87161E+00-1.70489E-02 1.48041E+00 2.43090E-13-6.64387E-13
 -1      1621 1.99257E+01 6.36447E+00 2.91322E-03 7.90261E-01 2.87409E-13 3.39663E-13
 -1      1622 1.99736E+01 5.41536E+00-2.81379E-03 8.15539E-01-1.69517E-14 8.03437E-14
 -1      1623 1.99793E+01 4.20742E+00 9.11110E-04 1.58546E+00 2.86212E-13-1.81070E-13
 -1      1624 1.98517E+01 7.60103E+00 1.16105E-02 5.19247E-01 5.20521E-13 1.48929E-13
 -1      1625 1.98900E+01 6.94910E+00 7.44283E-03 5.92020E-01 2.75897E-13 4.37858E-13
 -1      1626 1.98444E+01 5.49463E+00 2.64873E-02 1.32046E+00 3.13116E-13 4.31009E-13
 -1      1627 1.98210E+01 8.05070E+00 1.56982E-02 8.07323E-02 8.95373E-13 1.67874E-13
 -1      1628 1.98306E+01 7.89772E+00 1.47437E-02 1.81099E-01 6.90829E-13 1.29532E-13
 -1      1629 1.97364E+01 6.38238E+00 4.81991E-02 6.68581E-01 3.82741E-13 2.12913E-13
 -1      1630 1.98517E+01 7.56437E+00 1.17937E-02-3.84410E-01 1.10070E-12 1.29351E-13
 -1      1631 1.98276E+01 7.96112E+00 1.45648E-02-2.92667E-01 8.40515E-13 2.10665E-13
 -1      1632 1.97092E+01 6.59171E+00 5.35380E-02-2.02284E-01 5.56511E-13 1.53443E-13
 -1      1633 1.99261E+01 6.30013E+00 2.27785E-03-7.21488E-01 1.29806E-13-8.41361E-13
 -1      1634 1.98821E+01 7.11913E+00 7.77538E-03-6.69241E-01 1.00819E-12-4.93924E-13
 -1      1635 1.97767E+01 6.05195E+00 3.91141E-02-1.00601E+00 3.14323E-13-3.64224E-13
 -1      1636 2.00057E+01 4.66451E+00-6.39654E-03-8.47180E-01-4.68597E-13-2.93655E-13
 -1      1637 1.99617E+01 5.65218E+00-6.93963E-04-8.42263E-01 1.67116E-13-7.40436E-13
 -1      1638 1.99043E+01 4.95235E+00 1.47884E-02-1.49372E+00 7.92005E-14-1.09842E-12
 -1      1639 2.00623E+01 3.00546E+00-1.12254E-02-7.81006E-01-1.82299E-13 1.27326E-13
 -1      1640 2.00312E+01 3.96204E+00-6.27176E-03-8.10987E-01-4.15092E-13 3.16963E-13
 -1      1641 2.00278E+01 3.60781E+00-7.93462E-03-1.58801E+00 2.30267E-13-6.22369E-14
 -1      1642 2.00848E+01 1.64650E+00-1.09691E-02-5.98333E-01-1.77219E-14 3.01501E-13
 -1      1643 2.00700E+01 2.39829E+00-7.71413E-03-6.41828E-01-2.13662E-13 2.41421E-13
 -1      1644 2.01100E+01 2.31628E+00-2.09617E-02-1.36671E+00 2.47790E-13 2.92684E-13
 -1      1645 2.00902E+01 7.35144E-01-2.70850E-04-3.84692E-01 7.91494E-14 8.57647E-15
 -1      1646 2.00723E+01 1.20402E+00-8.19011E-03-4.19930E-01 8.82731E-14 1.26304E-13
 -1      1647 2.01453E+01 1.28914E+00-2.23501E-02-9.80633E-01-3.81509E-14 2.19302E-13
 -1      1648 2.01233E+01 2.72587E-01 8.09479E-03-2.47824E-01-9.28623E-14-2.31762E-13
 -1      1649 2.01221E+01 4.87080E-01-3.58186E-03-3.13343E-01 1.37260E-13-2.17540E-13
 -1      1650 2.02055E+01 6.36206E-01-1.62928E-02-6.61301E-01 2.60772E-15 2.17309E-14
 -1      1651 2.02909E+01 2.48274E-01-1.34850E-02-4.58015E-01-3.10507E-14-3.24860E-13
 -1      1652-7.57724E-01-1.71823E+01-1.96184E+00-1.28852E+00-3.17746E-13-1.52989E-13
 -1      1653-7.24617E-01-1.96080E+01-2.18656E+00 2.76935E-01-8.85958E-14-8.98726E-14
 -1      1654 1.47519E+00-9.49841E+00-1.32186E+00 4.61804E-01 3.29736E-13 4.91718E-13
 -1      1655 6.44931E-01-1.53144E+01-1.93769E+00-2.14628E-01-3.33511E-13 2.62991E-13
 -1      1656 6.97827E+00-1.14883E+00-5.95071E-01 4.53655E+00 1.24656E-12 1.49036E-12
 -1      1657 3.86383E+00-7.17437E+00-1.45015E+00 1.52950E+00 6.91003E-13 9.01501E-13
 -1      1658 1.85852E+01 4.48320E+00 2.92740E-01 1.00303E+01 1.42952E-12 1.39411E-12
 -1      1659 1.17941E+01 5.62328E-01-6.57577E-01 6.05918E+00 1.41287E-12 1.33482E-12
 -1      1660 3.23478E+01 7.00389E+00 1.09012E+00 1.34109E+01 1.07581E-12 2.23133E-12
 -1      1661 2.32775E+01 6.43596E+00 2.17597E-01 1.11432E+01 1.33715E-12 1.76281E-12
 -1      1662 4.63963E+01 5.52922E+00 1.56073E+00 1.14837E+01 9.64312E-13 1.99141E-12
 -1      1663 3.74067E+01 7.17810E+00 9.56677E-01 1.28108E+01 1.17967E-12 2.11120E-12
 -1      1664 5.47357E+01 4.15534E+00 1.76187E+00 4.07590E+00 6.55531E-13 8.93063E-13
 -1      1665 4.93983E+01 5.66108E+00 1.43775E+00 9.06051E+00 8.94396E-13 1.59639E-12
 -1      1666 5.60052E+01 3.91334E+00 1.84369E+00-4.03351E+00 3.34621E-13 5.16809E-14
 -1      1667 5.72661E+01 3.65410E+00 1.91707E+00 1.86227E+00 4.71623E-13 7.61259E-13
 -1      1668 4.61695E+01 5.57451E+00 1.27329E+00-9.91279E+00 3.48430E-13-5.23359E-13
 -1      1669 5.32218E+01 4.04855E+00 1.78915E+00-6.13706E+00 2.71033E-13-1.89515E-13
 -1      1670 3.22966E+01 6.53383E+00 5.89326E-01-1.17391E+01 7.91756E-13-7.73825E-13
 -1      1671 4.19022E+01 5.54730E+00 1.36830E+00-1.16436E+01 4.23550E-13-6.84452E-13
 -1      1672 1.86783E+01 4.06144E+00-1.90683E-01-8.66501E+00 1.22502E-12-1.01119E-12
 -1      1673 2.71398E+01 5.62313E+00 6.84993E-01-1.15571E+01 9.39027E-13-8.76632E-13
 -1      1674 7.87756E+00-1.76562E+00-9.60348E-01-3.93104E+00 1.16485E-12-8.80074E-13
 -1      1675 1.33438E+01 2.81646E+00-9.84167E-02-7.74757E+00 1.14420E-12-9.64784E-13
 -1      1676 2.07715E+00-9.67395E+00-1.55566E+00-2.73200E-01 5.40457E-13-5.44786E-13
 -1      1677 4.05188E+00-3.85526E+00-8.78267E-01-2.39433E+00 1.00431E-12-8.91121E-13
 -1      1678-7.21413E-02-1.61447E+01-1.85038E+00 4.62234E-01 2.96208E-13-2.37713E-13
 -1      1679 1.58917E-01-1.17389E+01-1.46694E+00 7.58539E-01 5.21472E-13-3.31339E-13
 -1      1680-7.84083E-01-1.76799E+01-1.80654E+00-6.64437E-01-1.52749E-13-2.75002E-13
 -1      1681-7.87780E-01-1.66875E+01-1.72362E+00 8.93402E-01 2.59903E-13-3.00926E-13
 -1      1682-5.90052E-01-1.49263E+01-1.68616E+00-1.34684E+00-6.03628E-13-2.61596E-13
 -1      1683-5.53793E-01-1.79145E+01-1.92408E+00-1.93730E-01-3.64930E-13-1.67644E-13
 -1      1684 1.66908E+00-7.89791E+00-1.22111E+00 3.80124E-01-1.10134E-12-8.12739E-13
 -1      1685 7.29913E-01-1.32555E+01-1.76004E+00-5.87356E-01-7.84817E-13-5.69919E-13
 -1      1686 7.72625E+00-3.92054E-01-5.79735E-01 4.75102E+00-1.21148E-12-8.71858E-13
 -1      1687 4.24717E+00-5.67404E+00-1.33210E+00 1.63852E+00-1.19549E-12-6.77791E-13
 -1      1688 2.07144E+01 3.77126E+00 2.55765E-01 9.69442E+00-8.99614E-13-6.97664E-13
 -1      1689 1.33361E+01 7.02227E-01-6.03036E-01 6.08634E+00-1.04028E-12-7.82929E-13
 -1      1690 3.62383E+01 5.22863E+00 1.04870E+00 1.12882E+01-4.69291E-13-1.80300E-13
 -1      1691 2.61672E+01 5.10655E+00 1.58804E-01 9.83134E+00-7.40075E-13-5.49338E-13
 -1      1692 4.97196E+01 4.59827E+00 1.72491E+00 8.99323E+00-1.82951E-13 2.91989E-14
 -1      1693 4.13181E+01 6.07109E+00 1.04336E+00 1.12399E+01-3.99014E-13-2.73337E-13
 -1      1694 5.73642E+01 3.49664E+00 2.01400E+00 1.70552E+00-1.14325E-13 5.71460E-13
 -1      1695 5.33741E+01 4.46300E+00 1.74009E+00 7.20692E+00-1.03112E-13 2.23488E-13
 -1      1696 5.40041E+01 4.74660E+00 1.75430E+00-7.05445E+00-3.18245E-13 1.00009E-12
 -1      1697 5.68953E+01 3.81848E+00 1.94281E+00-1.23245E+00-2.32758E-13 7.13506E-13
 -1      1698 4.37000E+01 6.63729E+00 1.26125E+00-1.21905E+01-4.14113E-13 1.14508E-12
 -1      1699 5.14956E+01 4.84848E+00 1.81268E+00-9.39715E+00-2.49828E-13 1.25178E-12
 -1      1700 2.82579E+01 6.73233E+00 4.46073E-01-1.17582E+01-1.05460E-12 1.01119E-12
 -1      1701 3.87944E+01 6.33989E+00 1.33522E+00-1.29849E+01-6.68188E-13 8.62865E-13
 -1      1702 1.39335E+01 2.53360E+00-5.04834E-01-7.29654E+00-1.80256E-12 1.26610E-12
 -1      1703 2.22117E+01 5.78851E+00 5.40124E-01-1.14311E+01-1.27443E-12 1.12310E-12
 -1      1704 4.87345E+00-6.13697E+00-1.36056E+00-2.11286E+00-1.36935E-12 1.27265E-12
 -1      1705 9.04916E+00 3.29561E-01-3.93905E-01-5.85536E+00-1.78257E-12 1.48748E-12
 -1      1706 6.48166E-01-1.50081E+01-1.97905E+00 4.05513E-01-5.56000E-13 7.21916E-13
 -1      1707 1.55022E+00-8.72550E+00-1.31674E+00-4.79173E-01-1.34892E-12 1.24131E-12
 -1      1708-6.68556E-01-1.93101E+01-2.14476E+00-2.94521E-01-2.42306E-13 4.14668E-14
 -1      1709-6.75809E-01-1.66270E+01-1.90392E+00 1.17770E+00-4.27880E-13 2.39725E-13
 -1      1710 2.55077E+01 4.06848E-01 2.74026E-01 7.81892E+00 7.27973E-13 1.02141E-12
 -1      1711 1.52281E+01-4.07066E+00-3.20462E-01 6.91702E+00 4.08562E-13 9.87932E-13
 -1      1712 2.00424E+01 4.05268E-02-1.23190E-03 3.40841E-02-1.55376E-13 1.22616E-13
 -1      1713 2.00994E+01 1.33795E-01-6.62538E-03 1.52431E-01 1.09555E-13 5.16934E-13
 -1      1714 5.47799E-01-1.21551E+01-1.37274E+00 2.53295E+00-1.18572E-13 2.43361E-13
 -1      1715 6.21842E+00-8.53172E+00-9.53320E-01 4.85901E+00-8.99281E-15 1.02676E-12
 -1      1716-1.55707E+00-1.34537E+01-1.53787E+00-9.76779E-02-2.35797E-13 1.07914E-13
 -1      1717 3.58085E+01 4.41988E+00 9.52955E-01 7.63394E+00 7.80792E-13 1.51612E-12
 -1      1718 4.32661E+01 6.74076E+00 1.25871E+00 4.82999E+00 8.37663E-13 9.16933E-13
 -1      1719 4.75504E+01 7.72705E+00 1.43490E+00 1.37395E+00 8.49265E-13 6.24889E-13
 -1      1720 4.73772E+01 7.21910E+00 1.50075E+00-1.88711E+00 5.66436E-13 2.07168E-13
 -1      1721 4.11866E+01 5.58365E+00 1.15063E+00-4.91522E+00 4.83391E-13-1.57985E-13
 -1      1722 3.19993E+01 2.49886E+00 6.16423E-01-6.62925E+00 6.98497E-13-2.91545E-13
 -1      1723 2.13616E+01-1.20979E+00 6.22135E-02-6.88909E+00 7.11209E-13-5.06928E-13
 -1      1724 1.09401E+01-5.26519E+00-5.49728E-01-5.60774E+00 4.49418E-13-7.73270E-13
 -1      1725 3.39421E+00-9.45205E+00-1.06724E+00-3.43898E+00 2.05280E-13-5.14311E-13
 -1      1726-5.95065E-01-1.17959E+01-1.26037E+00-1.51498E+00 5.18474E-14-4.05398E-13
 -1      1727-1.39838E+00-1.23875E+01-1.31365E+00 3.72925E-01-6.34215E-15-4.03233E-13
 -1      1728 1.04398E+00-1.11233E+01-1.24082E+00 2.36277E+00-3.87912E-13-5.48672E-13
 -1      1729 6.73739E+00-7.50333E+00-8.51388E-01 4.39142E+00-5.93969E-13-5.13617E-13
 -1      1730 1.64950E+01-3.55669E+00-1.96737E-01 6.33603E+00-6.95222E-13-3.73868E-13
 -1      1731 2.77596E+01-2.17724E-01 3.06466E-01 6.01312E+00-6.04239E-13-3.46390E-14
 -1      1732 3.75757E+01 3.91087E+00 8.34074E-01 5.03490E+00-5.19723E-13 1.30895E-13
 -1      1733 4.59810E+01 6.53516E+00 1.44070E+00 3.33653E+00-3.46834E-13 1.55431E-13
 -1      1734 4.88647E+01 7.75265E+00 1.64599E+00-2.27886E-01-3.15914E-13 4.45213E-13
 -1      1735 4.63791E+01 7.36380E+00 1.49805E+00-3.90964E+00-3.08864E-13 6.43929E-13
 -1      1736 3.95507E+01 5.26676E+00 1.12024E+00-6.44575E+00-4.09481E-13 6.65357E-13
 -1      1737 2.91633E+01 1.64690E+00 5.19333E-01-7.73549E+00-9.27647E-13 4.62408E-13
 -1      1738 1.74108E+01-3.03860E+00-1.93196E-01-7.17944E+00-1.06737E-12 7.28306E-13
 -1      1739 7.26973E+00-7.99501E+00-8.74705E-01-5.12623E+00-7.27307E-13 1.25888E-12
 -1      1740 7.42963E-01-1.19725E+01-1.36441E+00-2.53089E+00-2.87104E-13 7.00329E-13
 -1      1741 2.28604E+01 1.98495E+00-2.35552E-02-2.72241E+00-3.06838E-13 1.32036E-12
 -1      1742 1.98259E+01 3.71364E+00-3.54109E-02-2.15303E+00-3.96936E-13-3.57991E-13
 -1      1743 2.00584E+01 3.56278E+00-4.02552E-02-2.44523E+00-4.55205E-13-2.23734E-13
 -1      1744 2.03640E+01 3.18153E+00-4.58220E-02-2.58484E+00-4.54668E-13-4.71984E-14
 -1      1745 2.05843E+01 2.80982E+00-1.42517E-01-2.85316E+00-4.85025E-13 1.88106E-13
 -1      1746 2.04248E+01 2.69313E+00-4.12575E-03-2.22443E+00-4.74420E-13-1.08212E-13
 -1      1747 1.93548E+01 4.18877E+00-2.00443E-02-1.27050E+00-2.27047E-13-6.03196E-13
 -1      1748 1.94285E+01 4.14928E+00-1.69358E-02-1.49494E+00-2.73722E-13-5.72493E-13
 -1      1749 1.92579E+01 4.29468E+00-1.67449E-02-8.59516E-01-1.46702E-13-6.28849E-13
 -1      1750 1.93008E+01 4.27075E+00-1.42230E-02-1.07027E+00-1.89391E-13-6.23378E-13
 -1      1751 1.95269E+01 3.78316E+00-8.91160E-03-1.11945E+00-2.29022E-13-5.83688E-13
 -1      1752 1.92063E+01 4.35508E+00-1.47940E-02-4.66729E-01-5.32602E-14-6.23328E-13
 -1      1753 1.92283E+01 4.34223E+00-1.33030E-02-6.67011E-01-8.98428E-14-6.23173E-13
 -1      1754 1.94292E+01 3.90333E+00-9.15239E-03-7.33103E-01-1.23949E-13-6.02060E-13
 -1      1755 1.91868E+01 4.38068E+00-1.36686E-02-8.35997E-02 3.84191E-14-6.20514E-13
 -1      1756 1.91933E+01 4.37676E+00-1.32164E-02-2.79034E-01-5.32221E-16-6.26783E-13
 -1      1757 1.93789E+01 3.96773E+00-9.15397E-03-3.58252E-01-3.14679E-14-5.96374E-13
 -1      1758 1.91949E+01 4.37538E+00-1.31719E-02 2.98128E-01 1.16802E-13-5.98684E-13
 -1      1759 1.91873E+01 4.37984E+00-1.37535E-02 1.02533E-01 7.97209E-14-6.08451E-13
 -1      1760 1.93641E+01 3.98713E+00-9.14659E-03 1.05789E-02 6.29520E-14-5.95730E-13
 -1      1761 1.92323E+01 4.33820E+00-1.33313E-02 6.86838E-01 1.93213E-13-5.78546E-13
 -1      1762 1.92090E+01 4.35188E+00-1.49200E-02 4.86045E-01 1.59165E-13-5.94922E-13
 -1      1763 1.93815E+01 3.96442E+00-9.19214E-03 3.79598E-01 1.46977E-13-5.80074E-13
 -1      1764 1.93059E+01 4.26481E+00-1.44224E-02 1.08450E+00 2.70746E-13-5.30735E-13
 -1      1765 1.92625E+01 4.28926E+00-1.69779E-02 8.76529E-01 2.28935E-13-5.62493E-13
 -1      1766 1.94344E+01 3.89691E+00-9.19885E-03 7.51745E-01 2.35472E-13-5.51365E-13
 -1      1767 1.94377E+01 4.13767E+00-1.74100E-02 1.51439E+00 3.73241E-13-4.29289E-13
 -1      1768 1.93611E+01 4.18024E+00-2.05142E-02 1.28491E+00 3.17778E-13-4.83459E-13
 -1      1769 1.95341E+01 3.77305E+00-9.26588E-03 1.13549E+00 3.20128E-13-4.75106E-13
 -1      1770 1.96674E+01 3.92105E+00-2.52021E-02 1.97948E+00 4.62787E-13-2.88068E-13
 -1      1771 1.95343E+01 3.99781E+00-2.69172E-02 1.72211E+00 4.07073E-13-3.68469E-13
 -1      1772 1.97078E+01 3.56594E+00-8.73921E-03 1.53505E+00 4.14824E-13-3.64372E-13
 -1      1773 2.00763E+01 3.52282E+00-4.51789E-02 2.47196E+00 5.25857E-13-3.77372E-14
 -1      1774 1.98361E+01 3.68325E+00-3.97173E-02 2.18285E+00 4.89526E-13-1.88974E-13
 -1      1775 2.00048E+01 3.22285E+00-5.25324E-03 1.93448E+00 5.03793E-13-2.01358E-13
 -1      1776 2.09220E+01 2.68184E+00-5.76445E-02 2.85763E+00 5.09595E-13 4.53582E-13
 -1      1777 2.04144E+01 3.09696E+00-5.04283E-02 2.61584E+00 5.08236E-13 1.51858E-13
 -1      1778 2.05181E+01 2.60998E+00 3.19463E-03 2.24445E+00 5.32518E-13 7.60191E-14
 -1      1779 2.17325E+01 1.21299E+00-1.22091E-01 2.32972E+00 4.32168E-13 1.04838E-12
 -1      1780 2.12759E+01 2.26307E+00 1.18710E-04 2.74030E+00 4.70563E-13 6.62428E-13
 -1      1781 2.09386E+01 1.68505E+00-2.29521E-02 2.14004E+00 5.11419E-13 4.47718E-13
 -1      1782 2.09539E+01 7.78685E-01-6.24450E-02 1.52402E+00 4.23508E-13 9.07744E-13
 -1      1783 2.17983E+01 2.45827E+00 9.09135E-02-3.04807E+00-4.15772E-13 5.96356E-13
 -1      1784 2.01031E+01 2.97930E-01-8.91331E-03 6.56875E-01 3.36620E-13 7.03266E-13
 -1      1785 2.06552E+01 4.40407E-01-1.24612E-02 1.03391E+00 3.47160E-13 8.17806E-13
 -1      1786 2.07462E+01 8.45129E-01 2.25547E-03 1.41496E+00 4.29684E-13 5.59160E-13
 -1      1787 2.15086E+01 1.74237E+00 7.94392E-02-2.33703E+00-4.46750E-13 4.18381E-13
 -1      1788 2.05220E+01 5.00834E-01 3.24286E-02-9.21269E-01-3.63480E-13 3.52407E-13
 -1      1789 2.00904E+01 3.51939E-01 7.52651E-03-6.29255E-01-3.13419E-13 2.65009E-13
 -1      1790 1.98968E+01 2.56665E-01 2.74104E-02-3.91192E-01-2.73251E-13 2.46282E-13
 -1      1791 1.97055E+01 1.77640E-01 1.03413E-02-2.53936E-01-2.41452E-13 1.73690E-13
 -1      1792 2.01999E+01 4.81169E-01-6.65082E-03-7.22095E-01-3.50054E-13 8.07653E-14
 -1      1793 1.95831E+01 1.32997E-01 1.66418E-02-1.20046E-01-2.03330E-13 1.54123E-13
 -1      1794 1.95049E+01 9.31284E-02 6.92161E-03-4.92166E-02-1.59342E-13 8.55978E-14
 -1      1795 1.98740E+01 2.42957E-01-6.22561E-03-2.95941E-01-2.64979E-13 2.89387E-14
 -1      1796 1.94401E+01 6.82799E-02 8.67601E-03 2.42217E-02-1.31389E-13 8.94458E-14
 -1      1797 1.94254E+01 4.65305E-02 4.10793E-03 6.03124E-02-1.21555E-13 5.62074E-14
 -1      1798 1.96915E+01 1.25205E-01-4.64367E-03-5.89828E-02-1.82313E-13-2.51849E-14
 -1      1799 1.93992E+01 3.21652E-02 4.23523E-03 9.88525E-02-1.34304E-13 6.33018E-14
 -1      1800 1.94188E+01 1.97083E-02 2.42514E-03 1.15492E-01-1.04476E-13 7.46798E-15
 -1      1801 1.96048E+01 6.06153E-02-3.44545E-03 7.02519E-02-1.52377E-13-4.07114E-14
 -1      1802 1.94168E+01 1.10581E-02 1.85076E-03 1.33234E-01-1.00038E-13 3.47140E-15
 -1      1803 1.94535E+01 3.85883E-03 1.43636E-03 1.38503E-01-1.05644E-13-2.06597E-14
 -1      1804 1.95802E+01 2.36931E-02-2.32489E-03 1.36284E-01-1.36863E-13-7.81596E-14
 -1      1805 1.94658E+01-1.34879E-03 5.47949E-04 1.43683E-01-1.13547E-13-2.45266E-14
 -1      1806 1.95095E+01-5.34829E-03 8.20631E-04 1.42292E-01-1.10700E-13-3.03638E-14
 -1      1807 1.95932E+01 2.11266E-03-1.42820E-03 1.64175E-01-1.25725E-13-6.83347E-14
 -1      1808 1.95292E+01-8.34591E-03-1.73344E-04 1.40045E-01-1.38980E-13-2.92270E-14
 -1      1809 1.95740E+01-1.03157E-02 4.25478E-04 1.34938E-01-1.14899E-13-7.29528E-14
 -1      1810 1.96272E+01-1.01882E-02-7.85462E-04 1.69075E-01-1.39373E-13-6.08085E-14
 -1      1811 1.95966E+01-1.18516E-02-5.57601E-04 1.28582E-01-1.32147E-13-1.06374E-13
 -1      1812 1.96390E+01-1.25119E-02 1.76416E-04 1.21666E-01-1.25443E-13-1.69965E-13
 -1      1813 1.96712E+01-1.65974E-02-3.55942E-04 1.60604E-01-1.74190E-13-1.17986E-13
 -1      1814 1.96621E+01-1.30700E-02-7.34545E-04 1.13386E-01-1.15733E-13-2.04359E-13
 -1      1815 1.97003E+01-1.28836E-02 3.14528E-05 1.05914E-01-1.04317E-13-2.67567E-13
 -1      1816 1.97182E+01-1.91773E-02-8.69673E-05 1.45045E-01-1.49110E-13-1.46941E-13
 -1      1817 1.97222E+01-1.27858E-02-7.80340E-04 9.71656E-02-9.09017E-14-2.70164E-13
 -1      1818 1.97556E+01-1.20530E-02-3.61359E-05 8.99635E-02-6.10617E-14-2.73470E-13
 -1      1819 1.97641E+01-1.92486E-02 6.59387E-05 1.26568E-01-1.01987E-13-1.82802E-13
 -1      1820 1.97756E+01-1.15123E-02-7.43114E-04 8.17180E-02-2.89467E-14-3.01948E-13
 -1      1821 1.98043E+01-1.04227E-02-4.37748E-05 7.53345E-02 1.58331E-14-2.29719E-13
 -1      1822 1.98066E+01-1.76719E-02 1.35809E-04 1.07959E-01-6.43986E-14-1.72881E-13
 -1      1823 1.98223E+01-9.57473E-03-6.54160E-04 6.82510E-02-2.55225E-14-2.20834E-13
 -1      1824 1.98469E+01-8.23734E-03-2.06873E-06 6.30613E-02-3.40342E-14-2.10449E-13
 -1      1825 1.98451E+01-1.49956E-02 1.45931E-04 9.10987E-02-1.35872E-14-1.56427E-13
 -1      1826 1.98632E+01-7.15904E-03-5.33657E-04 5.76095E-02-2.83846E-14-2.48270E-13
 -1      1827 1.98846E+01-5.62235E-03 8.37580E-05 5.38932E-02-2.70003E-14-2.27863E-13
 -1      1828 1.98798E+01-1.15436E-02 1.12085E-04 7.72902E-02-3.94934E-14-2.16986E-13
 -1      1829 1.98997E+01-4.34555E-03-3.94083E-04 5.04453E-02-4.04128E-14-2.28863E-13
 -1      1830 1.99191E+01-2.61088E-03 2.12827E-04 4.84457E-02-4.04838E-15-2.25610E-13
 -1      1831 1.99114E+01-7.47040E-03 4.43769E-05 6.75067E-02-2.22257E-14-2.09627E-13
 -1      1832 1.99339E+01-1.13232E-03-2.42522E-04 4.73466E-02-3.78439E-14-2.68266E-13
 -1      1833 1.99529E+01 8.36076E-04 3.87800E-04 4.73168E-02-7.21369E-14-2.86106E-13
 -1      1834 1.99414E+01-2.79932E-03-5.12821E-05 6.25731E-02-4.22353E-14-2.32481E-13
 -1      1835 1.99685E+01 2.54684E-03-8.23746E-05 4.89384E-02-6.60312E-14-3.02831E-13
 -1      1836 1.99888E+01 4.81370E-03 6.14134E-04 5.11773E-02-7.54052E-14-3.09542E-13
 -1      1837 1.99719E+01 2.54855E-03-1.72010E-04 6.33079E-02-7.06930E-14-2.70582E-13
 -1      1838 2.00064E+01 6.80735E-03 8.52644E-05 5.59591E-02-1.06734E-13-2.91021E-13
 -1      1839 2.00301E+01 9.45906E-03 8.99243E-04 6.08379E-02-7.62165E-14-3.38896E-13
 -1      1840 2.00050E+01 8.73107E-03-3.16956E-04 7.06290E-02-1.10163E-13-2.53562E-13
 -1      1841 2.00512E+01 1.17993E-02 2.60397E-04 6.93156E-02-3.63769E-14-3.18115E-13
 -1      1842 2.00808E+01 1.49354E-02 1.25134E-03 7.72957E-02 9.33647E-15-3.41823E-13
 -1      1843 2.00437E+01 1.59631E-02-4.86377E-04 8.56320E-02-3.83299E-14-2.50867E-13
 -1      1844 2.01070E+01 1.76896E-02 4.42940E-04 9.01150E-02 5.67851E-14-3.45303E-13
 -1      1845 2.01452E+01 2.14109E-02 1.67759E-03 1.01754E-01 1.52330E-14-3.50758E-13
 -1      1846 2.00912E+01 2.44911E-02-6.80680E-04 1.09636E-01 1.47963E-14-2.60773E-13
 -1      1847 2.01787E+01 2.46369E-02 6.31436E-04 1.19665E-01-1.87671E-14-2.72988E-13
 -1      1848 2.02288E+01 2.90259E-02 2.18112E-03 1.35603E-01 3.07431E-14-2.67009E-13
 -1      1849 2.01513E+01 3.45572E-02-8.99397E-04 1.44194E-01 4.20203E-14-2.39260E-13
 -1      1850 2.02718E+01 3.27497E-02 8.21567E-04 1.59427E-01-3.78679E-14-2.68676E-13
 -1      1851 2.03375E+01 3.78377E-02 2.75599E-03 1.80347E-01-2.99689E-14-2.34651E-13
 -1      1852 2.02282E+01 4.63419E-02-1.14007E-03 1.91044E-01 7.29879E-15-2.37356E-13
 -1      1853 2.03924E+01 4.20164E-02 1.00440E-03 2.10893E-01-3.91917E-14-2.13513E-13
 -1      1854 2.04779E+01 4.77260E-02 3.37893E-03 2.37431E-01-4.04813E-14-2.19572E-13
 -1      1855 2.03268E+01 5.98672E-02-1.39712E-03 2.51981E-01-1.26183E-14-2.02731E-13
 -1      1856 2.05474E+01 5.21851E-02 1.16446E-03 2.75335E-01 3.70363E-15-1.90667E-13
 -1      1857 2.06570E+01 5.82327E-02 3.99625E-03 3.07902E-01 1.29942E-14-2.23707E-13
 -1      1858 2.04523E+01 7.48306E-02-1.66095E-03 3.28584E-01-1.48782E-14-2.00061E-13
 -1      1859 2.07439E+01 6.25620E-02 1.27810E-03 3.53342E-01 4.09959E-15-2.21743E-13
 -1      1860 2.08819E+01 6.82966E-02 4.50423E-03 3.91814E-01-2.39335E-14-2.44963E-13
 -1      1861 2.06101E+01 9.03259E-02-1.91776E-03 4.21728E-01-3.44961E-15-2.19991E-13
 -1      1862 2.09886E+01 7.16826E-02 1.31332E-03 4.44022E-01-8.92194E-14-2.69338E-13
 -1      1863 2.11583E+01 7.58335E-02 4.72243E-03 4.87209E-01-8.68433E-14-3.17631E-13
 -1      1864 2.08055E+01 1.04388E-01-2.15084E-03 5.30730E-01-6.32928E-14-1.94741E-13
 -1      1865 2.12871E+01 7.68082E-02 1.23347E-03 5.43685E-01-3.72428E-14-2.97747E-13
 -1      1866 2.14899E+01 7.71225E-02 4.36340E-03 5.88476E-01 7.20127E-15-2.22676E-13
 -1      1867 2.10433E+01 1.13288E-01-2.34399E-03 6.51972E-01-7.34407E-14-2.67692E-13
 -1      1868 2.16421E+01 7.32277E-02 1.00852E-03 6.43782E-01 5.46503E-14-2.38438E-13
 -1      1869 2.18750E+01 6.60350E-02 3.01252E-03 6.83890E-01 1.80259E-14-1.83709E-13
 -1      1870 2.13268E+01 1.10555E-01-2.48646E-03 7.76757E-01 2.43873E-14-1.40962E-13
 -1      1871 2.20510E+01 5.34827E-02 6.37029E-04 7.27981E-01-3.80096E-14-1.41092E-13
 -1      1872 2.23044E+01 3.33815E-02 1.51523E-04 7.52305E-01-2.97304E-14-9.86815E-14
 -1      1873 2.16570E+01 8.58467E-02-2.57432E-03 8.88232E-01 4.91745E-14-1.01488E-13
 -1      1874 2.25026E+01 6.99841E-03 1.71670E-04 7.68552E-01-1.64323E-13-1.14945E-13
 -1      1875 2.27563E+01-3.27660E-02-4.70707E-03 7.59624E-01-1.71391E-13-1.31546E-13
 -1      1876 2.20315E+01 2.43112E-02-2.59261E-03 9.57503E-01-1.04403E-13 1.98121E-14
 -1      1877 2.29724E+01-7.85852E-02-2.79725E-04 7.23331E-01-1.04890E-13-1.65058E-13
 -1      1878 2.31924E+01-1.43829E-01-1.16738E-02 6.57204E-01 4.07842E-14-1.30685E-13
 -1      1879 2.24426E+01-9.18912E-02-2.44346E-03 9.39921E-01-1.15916E-13 8.94541E-14
 -1      1880 2.34161E+01-2.11792E-01-6.67673E-04 5.36754E-01 3.90599E-14-2.62389E-13
 -1      1881 2.35534E+01-3.01264E-01-1.98317E-02 3.87264E-01 3.83487E-14-2.36770E-13
 -1      1882 2.28739E+01-2.76453E-01-1.77798E-03 7.74517E-01-4.73501E-14-3.59218E-14
 -1      1883 2.37627E+01-3.83775E-01-1.31382E-03 1.52352E-01-5.70724E-16-3.01943E-13
 -1      1884 2.37583E+01-4.78107E-01-2.63963E-02-9.57291E-02-2.70999E-14-3.65056E-13
 -1      1885 2.32931E+01-5.21154E-01 2.23806E-04 3.93201E-01-3.66027E-14-2.74707E-13
 -1      1886 2.39101E+01-5.46290E-01-3.20203E-03-4.52453E-01-5.25274E-15-4.04042E-13
 -1      1887 2.37123E+01-5.96491E-01-2.62416E-02-7.78562E-01-3.75065E-14-3.37707E-13
 -1      1888 2.36395E+01-7.66031E-01 4.75204E-03-2.48876E-01-3.30829E-14-2.54048E-13
 -1      1889 2.37376E+01-5.93946E-01-7.20062E-03-1.20410E+00-3.44742E-14-2.45315E-13
 -1      1890 2.33326E+01-5.28323E-01-1.46837E-02-1.52280E+00 1.73958E-14-3.09062E-13
 -1      1891 2.38102E+01-8.73601E-01 1.22177E-02-1.11132E+00-4.32553E-15-1.73893E-13
 -1      1892 2.31595E+01-3.93701E-01-1.42339E-02-1.86856E+00 2.63409E-13-4.46055E-13
 -1      1893 2.26097E+01-1.69325E-01 5.63673E-03-2.02865E+00 2.22739E-13-3.17916E-13
 -1      1894 2.36729E+01-6.53351E-01 1.87101E-02-1.98507E+00 1.42413E-13-1.50122E-13
 -1      1895 2.22436E+01 9.74419E-02-1.78219E-02-2.08139E+00 1.07445E-13-2.40117E-13
 -1      1896 2.16921E+01 4.13256E-01 2.21323E-02-1.93837E+00 1.43685E-13-1.42931E-13
 -1      1897 2.31555E+01-2.46030E-02 1.05538E-02-2.46736E+00 2.38921E-13-2.48350E-13
 -1      1898 2.12884E+01 6.88298E-01-9.89178E-03-1.56238E+00 1.61628E-13-8.38912E-15
 -1      1899 2.09153E+01 8.99188E-01 1.91058E-02-1.11171E+00 1.02036E-13 6.48617E-14
 -1      1900 2.24021E+01 8.19072E-01-1.14398E-02-2.13984E+00 2.31652E-13-2.40923E-13
 -1      1901 2.07237E+01 9.83694E-01 9.93953E-03-4.46078E-01-7.85726E-14 7.92586E-14
 -1      1902 2.06378E+01 9.33228E-01 2.02184E-05 9.85306E-02-7.77954E-14 7.62073E-14
 -1      1903 2.18137E+01 1.36389E+00-3.31198E-02-9.67772E-01 6.14977E-14 1.22385E-15
 -1      1904 2.07454E+01 7.61700E-01 2.55611E-02 6.96627E-01-5.80196E-14-5.03408E-14
 -1      1905 2.09226E+01 4.86122E-01-1.65747E-02 1.04966E+00 7.17256E-14-6.02816E-14
 -1      1906 2.17249E+01 1.22888E+00-2.96879E-02 4.73767E-01-6.91513E-14-6.27480E-14
 -1      1907 2.11586E+01 1.95714E-01 2.09944E-02 1.27248E+00 2.27652E-13-1.23840E-13
 -1      1908 2.14552E+01-1.02345E-01-1.84152E-02 1.29903E+00 1.21008E-13-3.12285E-14
 -1      1909 2.20564E+01 5.18396E-01-3.81442E-03 1.38234E+00 4.46795E-14-1.54054E-13
 -1      1910 2.15892E+01-3.23813E-01 1.84749E-03 1.12492E+00-1.23704E-13 2.12105E-14
 -1      1911 2.18354E+01-4.80960E-01-1.02939E-02 8.97789E-01 4.55044E-14 1.22428E-14
 -1      1912 2.24039E+01-2.79067E-01 1.58514E-02 1.39976E+00 3.37172E-14-2.54563E-13
 -1      1913 2.17632E+01-5.44926E-01-1.63646E-02 5.24431E-01 1.48252E-13-1.18875E-13
 -1      1914 2.18550E+01-5.35327E-01-1.20612E-03 2.20034E-01 2.12002E-13-7.04015E-14
 -1      1915 2.24421E+01-7.35695E-01 1.54090E-02 7.56765E-01-6.31882E-14-1.45566E-13
 -1      1916 2.16217E+01-4.73960E-01-2.30647E-02-1.32765E-01 4.50334E-15-9.15746E-14
 -1      1917 2.15492E+01-3.58538E-01 5.90122E-03-3.67567E-01-1.57430E-13-1.88215E-13
 -1      1918 2.21325E+01-7.40126E-01 7.96601E-03-5.60026E-02 3.35409E-15-2.17741E-13
 -1      1919 2.12377E+01-2.33501E-01-2.05374E-02-5.70673E-01-1.34816E-13-2.65362E-13
 -1      1920 2.10568E+01-7.67369E-02 9.91687E-03-6.59147E-01-1.88603E-14-2.87793E-13
 -1      1921 2.16031E+01-4.44430E-01 2.25828E-04-6.62707E-01-2.22978E-13-2.06276E-13
 -1      1922 2.07630E+01 3.92165E-02-1.40234E-02-6.57941E-01 7.41898E-14-2.26038E-13
 -1      1923 2.05669E+01 1.78393E-01 1.45133E-02-5.95802E-01 7.87014E-14-2.25736E-13
 -1      1924 2.05234E+01 2.87045E-01 8.97419E-04-7.38275E-01-4.36088E-14-1.91015E-13
 -1      1925 2.10295E+01-1.98856E-02 4.89560E-03-8.76008E-01-5.39187E-14-1.13902E-13
 -1      1926 1.96205E+01 1.42001E-01 7.87211E-03 2.59281E-01 2.76081E-13 5.35075E-13
 -1      1927 1.98925E+01 2.04076E-01 1.64319E-02 4.32265E-01 2.89133E-13 6.53840E-13
 -1      1928 2.01039E+01 3.50507E-01-1.53961E-03 6.54799E-01 3.46195E-13 4.39542E-13
 -1      1929 1.93782E+01 7.18997E-02 6.92982E-03 5.63573E-02 1.71566E-13 3.99285E-13
 -1      1930 1.94931E+01 1.01772E-01 1.41797E-02 1.44859E-01 2.01050E-13 4.86548E-13
 -1      1931 1.97112E+01 1.65147E-01-1.96270E-03 2.56101E-01 2.60883E-13 3.41369E-13
 -1      1932 1.92877E+01 3.61317E-02 4.41584E-03-4.90834E-02 1.04181E-13 3.38965E-13
 -1      1933 1.93178E+01 5.19502E-02 8.32205E-03-1.88369E-03 1.23563E-13 3.73911E-13
 -1      1934 1.95110E+01 8.06701E-02-2.84108E-03 4.41613E-02 1.70164E-13 2.47101E-13
 -1      1935 1.92859E+01 1.61763E-02 2.85845E-03-1.01539E-01 3.42972E-14 3.00899E-13
 -1      1936 1.92707E+01 2.50464E-02 4.34519E-03-7.69308E-02 5.56411E-14 3.33833E-13
 -1      1937 1.94319E+01 3.74514E-02-2.84661E-03-6.77012E-02 8.25503E-14 1.96029E-13
 -1      1938 1.93330E+01 4.53223E-03 1.98682E-03-1.23563E-01 1.17882E-13 2.19515E-13
 -1      1939 1.92947E+01 9.56805E-03 2.14538E-03-1.12162E-01 6.45813E-14 2.66694E-13
 -1      1940 1.94253E+01 1.35963E-02-2.30784E-03-1.23185E-01 8.09212E-14 1.16888E-13
 -1      1941 1.94043E+01-2.25369E-03 1.44345E-03-1.27700E-01 1.14595E-13 1.49661E-13
 -1      1942 1.93559E+01 4.88864E-04 9.47483E-04-1.24232E-01 1.16797E-13 1.93408E-13
 -1      1943 1.94597E+01 3.18182E-06-1.68888E-03-1.45642E-01 1.40612E-13 4.13277E-14
 -1      1944 1.94845E+01-6.00815E-03 1.06235E-03-1.21513E-01 1.02134E-13 7.58024E-14
 -1      1945 1.94337E+01-4.69451E-03 2.75379E-04-1.22759E-01 1.11660E-13 1.16256E-13
 -1      1946 1.95150E+01-7.58771E-03-1.16888E-03-1.48571E-01 1.47750E-13-8.75493E-16
 -1      1947 1.95646E+01-7.80195E-03 7.79739E-04-1.09793E-01 1.66511E-14 8.38846E-14
 -1      1948 1.95158E+01-7.39264E-03-1.05079E-04-1.13684E-01 6.74809E-14 9.65380E-14
 -1      1949 1.95787E+01-1.14553E-02-7.78845E-04-1.40284E-01 8.01223E-14 6.44220E-14
 -1      1950 1.96392E+01-8.30946E-03 5.68942E-04-9.56595E-02 6.59257E-14 5.50986E-14
 -1      1951 1.95949E+01-8.46874E-03-3.08938E-04-1.00827E-01 6.23816E-14 6.19633E-14
 -1      1952 1.96431E+01-1.29390E-02-5.01028E-04-1.26116E-01 6.73208E-14 4.06690E-14
 -1      1953 1.97060E+01-7.97143E-03 4.15363E-04-8.11628E-02 9.07798E-14 7.51298E-16
 -1      1954 1.96671E+01-8.47928E-03-3.99095E-04-8.66926E-02 6.52888E-14 2.40671E-14
 -1      1955 1.97038E+01-1.28804E-02-3.10238E-04-1.09565E-01 8.38811E-14-1.31971E-14
 -1      1956 1.97641E+01-7.07570E-03 3.09344E-04-6.76546E-02 1.19012E-13-5.01196E-14
 -1      1957 1.97308E+01-7.78903E-03-4.13920E-04-7.29296E-02 1.07693E-13 2.80062E-14
 -1      1958 1.97586E+01-1.18236E-02-1.85452E-04-9.29466E-02 1.17931E-13-2.73932E-14
 -1      1959 1.98141E+01-5.80225E-03 2.44307E-04-5.60358E-02 3.29933E-14-3.68556E-14
 -1      1960 1.97859E+01-6.63190E-03-3.78043E-04-6.06327E-02 4.13149E-14-3.49065E-14
 -1      1961 1.98069E+01-1.01162E-02-1.11134E-04-7.78010E-02 7.05959E-14-3.84146E-15
 -1      1962 1.98571E+01-4.25096E-03 2.16167E-04-4.69345E-02 1.75963E-15-3.74250E-14
 -1      1963 1.98331E+01-5.14683E-03-3.07189E-04-5.05470E-02 3.19135E-15-5.35755E-14
 -1      1964 1.98491E+01-7.96594E-03-7.63270E-05-6.51792E-02 3.27385E-14-7.19914E-14
 -1      1965 1.98952E+01-2.46029E-03 2.22994E-04-4.08384E-02 6.37033E-14-9.61221E-14
 -1      1966 1.98743E+01-3.40096E-03-2.10851E-04-4.32196E-02 4.34592E-14-5.22123E-14
 -1      1967 1.98865E+01-5.47626E-03-7.37024E-05-5.58440E-02 5.67960E-14-1.60193E-13
 -1      1968 1.99308E+01-4.21187E-04 2.64739E-04-3.81966E-02 1.62906E-13-2.02869E-13
 -1      1969 1.99115E+01-1.40603E-03-9.40236E-05-3.91136E-02 1.01259E-13-1.14813E-13
 -1      1970 1.99209E+01-2.67104E-03-9.88124E-05-5.04234E-02 1.67382E-13-1.40543E-13
 -1      1971 1.99668E+01 1.91155E-03 3.42962E-04-3.94966E-02 1.08307E-13-1.90812E-13
 -1      1972 1.99475E+01 8.68786E-04 4.15103E-05-3.86954E-02 1.57140E-13-1.65893E-13
 -1      1973 1.99546E+01 4.86822E-04-1.49478E-04-4.95258E-02 1.43453E-13-1.31370E-13
 -1      1974 2.00067E+01 4.60868E-03 4.60457E-04-4.53202E-02-1.32101E-14-1.18046E-13
 -1      1975 1.99854E+01 3.48569E-03 1.96104E-04-4.24991E-02-3.50868E-15-1.59878E-13
 -1      1976 1.99902E+01 4.07936E-03-2.25276E-04-5.38266E-02 2.85903E-14-8.66990E-14
 -1      1977 2.00544E+01 7.75502E-03 6.20631E-04-5.63791E-02-3.23322E-14-1.77052E-13
 -1      1978 2.00289E+01 6.52691E-03 3.71216E-04-5.11706E-02 2.83569E-14-8.26195E-14
 -1      1979 2.00311E+01 8.21770E-03-3.27090E-04-6.41261E-02 1.38732E-14-2.48873E-15
 -1      1980 2.01146E+01 1.14343E-02 8.26435E-04-7.35258E-02 4.31693E-14-2.11270E-13
 -1      1981 2.00822E+01 1.00811E-02 5.68270E-04-6.54891E-02-1.87022E-14-2.04587E-13
 -1      1982 2.00810E+01 1.30234E-02-4.56631E-04-8.13802E-02 3.08345E-14-1.18224E-13
 -1      1983 2.01925E+01 1.57069E-02 1.07856E-03-9.77305E-02 7.53827E-14-3.20881E-13
 -1      1984 2.01502E+01 1.42238E-02 7.87202E-04-8.63590E-02 3.37694E-14-2.53392E-13
 -1      1985 2.01441E+01 1.86028E-02-6.15896E-04-1.06694E-01 6.44547E-14-1.74949E-13
 -1      1986 2.02940E+01 2.05746E-02 1.37240E-03-1.30008E-01-2.41244E-14-3.23510E-13
 -1      1987 2.02385E+01 1.89880E-02 1.02448E-03-1.14760E-01 1.45665E-14-3.00235E-13
 -1      1988 2.02254E+01 2.50070E-02-8.06494E-04-1.41265E-01 4.52148E-14-2.16911E-13
 -1      1989 2.04258E+01 2.59236E-02 1.69326E-03-1.71264E-01-2.06434E-13-1.93231E-13
 -1      1990 2.03532E+01 2.43164E-02 1.27031E-03-1.51631E-01-1.23757E-13-2.19995E-13
 -1      1991 2.03301E+01 3.21695E-02-1.02880E-03-1.86247E-01-1.39904E-13-4.19658E-14
 -1      1992 2.05946E+01 3.14349E-02 2.00892E-03-2.22020E-01-1.96632E-13 3.09616E-14
 -1      1993 2.05012E+01 2.99851E-02 1.50471E-03-1.97653E-01-2.75646E-13-1.47562E-13
 -1      1994 2.04642E+01 3.98050E-02-1.28081E-03-2.42494E-01-2.75339E-13 7.65987E-14
 -1      1995 2.08073E+01 3.64427E-02 2.25920E-03-2.81936E-01-4.81186E-14 1.63452E-13
 -1      1996 2.06891E+01 3.54844E-02 1.69237E-03-2.52873E-01-5.34601E-14 9.68780E-14
 -1      1997 2.06334E+01 4.72510E-02-1.55658E-03-3.10124E-01-1.16355E-13 4.06457E-14
 -1      1998 2.10691E+01 3.97276E-02 2.34314E-03-3.49055E-01 9.91030E-14 2.54439E-13
 -1      1999 2.09232E+01 3.98369E-02 1.77664E-03-3.16090E-01 7.33276E-14 2.55065E-13
 -1      2000 2.08432E+01 5.32264E-02-1.84358E-03-3.87796E-01 6.52837E-14 2.11469E-13
 -1      2001 2.13826E+01 3.92365E-02 2.10754E-03-4.18637E-01-4.42756E-15 1.55477E-13
 -1      2002 2.12079E+01 4.13422E-02 1.67442E-03-3.83896E-01 1.16363E-14 2.01478E-13
 -1      2003 2.10973E+01 5.54912E-02-2.11790E-03-4.71601E-01 7.71609E-14 2.08265E-13
 -1      2004 2.17449E+01 3.17721E-02 1.34757E-03-4.81510E-01 1.43829E-13 9.06595E-14
 -1      2005 2.15436E+01 3.72627E-02 1.27611E-03-4.49289E-01 6.14942E-14 9.43642E-14
 -1      2006 2.13967E+01 5.04262E-02-2.33493E-03-5.53449E-01 1.17786E-13 1.27449E-13
 -1      2007 2.21440E+01 1.28133E-02-1.59071E-04-5.22010E-01 7.02191E-14 1.72158E-14
 -1      2008 2.19245E+01 2.35495E-02 4.58856E-04-4.99847E-01 1.50364E-13 1.15140E-13
 -1      2009 2.17374E+01 3.26603E-02-2.41113E-03-6.18942E-01 2.04418E-13 3.43045E-13
 -1      2010 2.25548E+01-2.31206E-02-2.55030E-03-5.16021E-01-7.53414E-14 8.03793E-14
 -1      2011 2.23339E+01-5.10083E-03-8.75748E-04-5.15761E-01 1.36503E-14 8.65185E-14
 -1      2012 2.21074E+01-4.87500E-03-2.19322E-03-6.45040E-01-1.09971E-14 3.40585E-13
 -1      2013 2.29340E+01-8.07344E-02-5.68272E-03-4.30625E-01-4.17635E-15-8.74019E-14
 -1      2014 2.27399E+01-5.42165E-02-2.73350E-03-4.68719E-01-7.93220E-14 2.74971E-14
 -1      2015 2.24836E+01-6.96241E-02-1.41862E-03-5.98593E-01-2.18991E-14 1.67906E-13
 -1      2016 2.32172E+01-1.59602E-01-8.85193E-03-2.28477E-01 3.47691E-14-7.27821E-14
 -1      2017 2.30905E+01-1.26450E-01-4.94707E-03-3.23911E-01 6.44190E-15-7.86385E-14
 -1      2018 2.28278E+01-1.65397E-01 2.92970E-04-4.38199E-01 5.06583E-14-1.46953E-14
 -1      2019 2.33208E+01-2.46284E-01-1.06346E-02 1.17927E-01-4.06940E-14-2.45291E-13
 -1      2020 2.33115E+01-2.15046E-01-7.11231E-03-4.92002E-02 3.20655E-14-7.95379E-14
 -1      2021 2.30834E+01-2.83909E-01 3.35663E-03-1.23860E-01 3.72966E-17-3.60341E-14
 -1      2022 2.31550E+01-3.05873E-01-9.31314E-03 5.97227E-01 2.74179E-13-2.63891E-13
 -1      2023 2.33106E+01-2.94561E-01-8.69074E-03 3.63427E-01 1.25011E-13-2.11166E-13
 -1      2024 2.31754E+01-3.92468E-01 7.83881E-03 3.59509E-01 1.09237E-13-1.04869E-13
 -1      2025 2.26543E+01-2.83883E-01-4.00251E-03 1.12194E+00 2.87610E-13-3.14578E-13
 -1      2026 2.29994E+01-3.16198E-01-8.59670E-03 8.64553E-01 2.59629E-13-2.64588E-13
 -1      2027 2.30217E+01-4.28935E-01 1.26143E-02 9.63037E-01 2.73108E-13-5.41928E-15
 -1      2028 2.18293E+01-1.33308E-01 2.33313E-03 1.51134E+00-2.33319E-13-4.05362E-13
 -1      2029 2.23383E+01-2.23304E-01-6.62626E-03 1.31906E+00 2.23233E-14-4.95973E-13
 -1      2030 2.25657E+01-3.15994E-01 1.53918E-02 1.53722E+00 1.38143E-13-1.91611E-13
 -1      2031 2.08196E+01 1.33236E-01 3.94998E-03 1.53913E+00-9.48191E-14-2.05632E-13
 -1      2032 2.14003E+01 6.61411E-03-2.49513E-03 1.52112E+00-1.70111E-13-3.19602E-13
 -1      2033 2.18332E+01-2.47836E-02 9.81294E-03 1.83856E+00-2.57417E-13-2.59317E-13
 -1      2034 1.99110E+01 3.98510E-01-1.39652E-03 1.08321E+00-1.48530E-13-7.07706E-14
 -1      2035 2.04125E+01 2.99238E-01 4.05785E-03 1.29245E+00-1.72432E-13-2.56168E-13
 -1      2036 2.09978E+01 3.64791E-01-2.14615E-03 1.63279E+00-1.44579E-13-1.57144E-13
 -1      2037 1.94176E+01 5.01349E-01-9.35997E-03 2.76913E-01-8.70241E-14 2.84681E-14
 -1      2038 1.96904E+01 4.95876E-01 1.10914E-02 6.43623E-01-8.27047E-14 7.51916E-14
 -1      2039 2.03511E+01 6.54030E-01-1.28448E-02 8.94836E-01-1.99951E-13-1.05009E-13
 -1      2040 1.94835E+01 3.70734E-01-1.10195E-02-5.15505E-01-1.19566E-13 1.89992E-13
 -1      2041 1.94611E+01 4.66391E-01 1.45471E-02-1.62351E-01-8.45626E-14 1.00354E-14
 -1      2042 2.01347E+01 6.65489E-01-1.19583E-02-8.53565E-02-9.44522E-14 2.04251E-13
 -1      2043 1.99610E+01 1.01273E-01-4.31322E-03-9.43038E-01-1.77405E-13 3.82932E-13
 -1      2044 1.97074E+01 2.35069E-01 1.12998E-02-7.55674E-01-7.91173E-14 3.61901E-13
 -1      2045 2.03517E+01 3.93109E-01-9.20864E-04-8.49714E-01-1.65671E-13 6.36147E-13
 -1      2046 2.05272E+01-1.44234E-01 4.52968E-03-8.98212E-01 1.68652E-13 5.53706E-14
 -1      2047 2.01962E+01-4.60175E-02 3.00434E-03-9.16719E-01-2.55408E-14 1.99457E-13
 -1      2048 2.07674E+01 8.50420E-03 7.78960E-03-1.09808E+00 1.42707E-13 3.76999E-13
 -1      2049 2.09000E+01-2.58257E-01 1.00703E-02-5.26527E-01 1.62487E-13 1.64992E-13
 -1      2050 2.06424E+01-2.30894E-01-5.33050E-03-6.83688E-01 1.67496E-13 8.96765E-14
 -1      2051 2.11001E+01-2.83218E-01 7.64506E-03-8.49674E-01 1.35470E-13 2.42059E-13
 -1      2052 2.09659E+01-2.28953E-01 1.13220E-02-8.03736E-02-1.44058E-13 3.52438E-13
 -1      2053 2.08592E+01-2.63664E-01-9.35467E-03-2.66517E-01-6.40156E-14 2.79785E-13
 -1      2054 2.11887E+01-3.73743E-01 2.43295E-03-3.50183E-01-1.11123E-13 5.16164E-13
 -1      2055 2.07741E+01-1.09191E-01 9.80473E-03 2.31136E-01 2.23250E-14 3.30141E-13
 -1      2056 2.08095E+01-1.74967E-01-8.33482E-03 1.05735E-01 1.87021E-14 2.83267E-13
 -1      2057 2.10284E+01-2.77874E-01-1.45705E-03 1.17261E-01 5.65086E-15 2.45032E-13
 -1      2058 2.04563E+01 3.74454E-02 7.56836E-03 3.07583E-01-9.80461E-14 3.37105E-13
 -1      2059 2.05709E+01-3.16588E-02-4.89238E-03 2.89531E-01-4.57425E-14 2.99536E-13
 -1      2060 2.07089E+01-8.69685E-02-4.05313E-03 3.67468E-01-6.35915E-14 2.80249E-13
 -1      2061 2.02108E+01 1.26576E-01 6.76447E-03 2.23669E-01 3.23613E-14 5.31989E-13
 -1      2062 2.03314E+01 7.50259E-02-3.09191E-03 2.86589E-01-2.52955E-14 5.05184E-13
 -1      2063 2.04199E+01 7.08940E-02-5.75099E-03 3.84803E-01-4.63366E-14 5.87462E-13
 -1      2064 2.02216E+01 2.07233E-01 6.39738E-03 2.92426E-01 6.87219E-14 9.00828E-13
 -1      2065 2.03920E+01 1.62836E+00 1.22490E-02 1.60474E+00 1.14108E-13-6.80844E-14
 -1      2066 2.04192E+01 1.13534E+00 6.38706E-03 1.37630E+00 6.49697E-15 2.52819E-13
 -1      2067 2.04117E+01 9.11845E-01 1.66714E-02 1.08127E+00 7.03216E-14 1.92553E-13
 -1      2068 2.03848E+01 5.70971E-01 4.29116E-03 8.56538E-01 7.91500E-14 2.16871E-13
 -1      2069 2.06094E+01 6.65517E-01-1.22534E-02 1.51054E+00-2.02531E-13 1.32708E-13
 -1      2070 2.03242E+01 4.93069E-01 1.49151E-02 6.28984E-01-1.23313E-14 3.63767E-13
 -1      2071 2.02805E+01 2.87314E-01 5.37838E-03 4.53649E-01-1.15162E-13 8.19775E-13
 -1      2072 2.03819E+01 2.28075E-01 1.50717E-03 5.24383E-01-1.15235E-13 6.22853E-13
 -1      2073 2.05421E+01 3.75253E-01-3.98517E-04 9.42090E-01-2.72449E-13 4.04548E-13
 -1      2074 2.02051E+01 2.57218E+00-2.77153E-03 2.00333E+00 1.57305E-14-7.95225E-13
 -1      2075 2.03230E+01 1.98018E+00 8.89532E-03 1.85960E+00 1.23105E-13-5.19593E-13
 -1      2076 2.05123E+01 1.24137E+00-1.39635E-02 2.13273E+00-1.64089E-13-4.10155E-13
 -1      2077 1.98436E+01 3.67454E+00-2.10538E-02 2.06734E+00 3.11555E-13 1.55917E-14
 -1      2078 2.00484E+01 3.05501E+00 8.49825E-03 2.10027E+00 2.31592E-13-3.21977E-13
 -1      2079 2.01656E+01 2.07261E+00-9.87096E-03 2.54159E+00 6.45963E-14-3.22389E-13
 -1      2080 1.94132E+01 4.69512E+00-3.34922E-02 1.61158E+00 2.48437E-13 2.54255E-13
 -1      2081 1.96335E+01 4.19365E+00 2.42216E-03 1.88293E+00 3.91015E-13 3.23674E-13
 -1      2082 1.96003E+01 3.07052E+00 4.20816E-03 2.46212E+00 1.97737E-13 3.43262E-13
 -1      2083 1.91121E+01 5.33370E+00-3.29339E-02 6.55412E-01 2.73829E-13 3.11393E-13
 -1      2084 1.92390E+01 5.08347E+00-1.11908E-02 1.12296E+00 9.04173E-14 1.96629E-13
 -1      2085 1.90147E+01 3.97749E+00 2.50637E-02 1.71332E+00 1.04234E-13 2.95462E-13
 -1      2086 1.91066E+01 5.35403E+00-2.09800E-02-5.27373E-01 2.27996E-13-8.38270E-14
 -1      2087 1.90675E+01 5.42922E+00-2.74368E-02-9.89053E-03 2.95837E-13 1.65219E-13
 -1      2088 1.86835E+01 4.46336E+00 3.81388E-02 4.05638E-01 9.59384E-14 1.86230E-13
 -1      2089 1.93986E+01 4.73374E+00-6.29337E-03-1.52963E+00-6.64278E-14-8.08135E-13
 -1      2090 1.92191E+01 5.11293E+00-3.57180E-02-1.13799E+00 7.20734E-14-2.23047E-13
 -1      2091 1.87834E+01 4.31672E+00 3.21916E-02-1.04490E+00-7.03465E-14-3.09149E-13
 -1      2092 1.98174E+01 3.71241E+00 4.82420E-03-2.04794E+00 3.12892E-14-8.79257E-13
 -1      2093 1.95977E+01 4.27592E+00-2.96175E-02-1.88431E+00 5.22429E-14-1.00382E-12
 -1      2094 1.92578E+01 3.61425E+00 1.45807E-02-2.13044E+00-6.36123E-14-8.29477E-13
 -1      2095 2.01823E+01 2.56711E+00 9.03755E-03-2.05095E+00 4.38332E-13 4.36319E-13
 -1      2096 2.00118E+01 3.19647E+00-1.29407E-02-2.10368E+00 3.22818E-13-1.83556E-13
 -1      2097 1.98547E+01 2.64187E+00-3.68117E-03-2.57806E+00 2.60136E-13-3.96088E-13
 -1      2098 2.03807E+01 1.57029E+00 8.61588E-03-1.68150E+00 4.11501E-13 1.98406E-13
 -1      2099 2.03016E+01 2.13614E+00 4.90366E-03-1.87324E+00 5.03688E-13 1.52603E-13
 -1      2100 2.03374E+01 1.69945E+00-1.20415E-02-2.42144E+00 5.21769E-13 3.25031E-13
 -1      2101 2.04205E+01 8.40769E-01 5.12766E-03-1.16024E+00 3.63384E-14 7.54648E-14
 -1      2102 2.04075E+01 1.27225E+00 1.28095E-02-1.39885E+00 1.45596E-13 2.55186E-13
 -1      2103 2.05803E+01 9.75255E-01-1.20281E-02-1.89232E+00 3.19615E-13 2.32271E-14
 -1      2104 1.15874E+01-6.17365E+00-1.19022E-01 7.14998E+00-2.03948E-13 1.06908E-12
 -1      2105 7.83883E+00-7.70868E+00-3.63510E-01 5.99670E+00-3.97404E-13 9.05775E-13
 -1      2106 4.79251E-01-8.26952E+00-4.49579E-01 9.48625E-01-2.36311E-13 9.32587E-14
 -1      2107 5.44061E-01-7.97469E+00-3.96039E-01-9.70171E-01-3.00482E-13 1.22624E-13
 -1      2108 3.64679E+00-7.56926E+00-3.31734E-01 4.59992E+00-5.70655E-14 3.49720E-13
 -1      2109 1.45630E+00-8.87796E+00-5.28035E-01 2.84318E+00-1.50602E-13-1.32450E-13
 -1      2110 2.00111E+01-4.41572E+00 8.84231E-03 7.54210E+00-5.18474E-14 6.15341E-13
 -1      2111 1.50190E+01-6.33998E+00-3.12699E-01 6.80091E+00-2.08722E-13 7.18203E-13
 -1      2112 1.61213E+01-6.61029E+00-1.78732E-02 7.69367E+00-5.02265E-13 8.29517E-13
 -1      2113 2.92495E+01-4.81996E-01 2.27255E-01 6.48293E+00 3.11362E-13 8.37663E-13
 -1      2114 2.43039E+01-2.88744E+00-1.31431E-01 6.12530E+00 2.07112E-13 5.99520E-13
 -1      2115 1.95182E+01 4.01565E+00-2.70729E-02-1.70256E+00-3.10875E-13-5.29689E-13
 -1      2116 1.96466E+01 3.94563E+00-2.47503E-02-1.95384E+00-3.73742E-13-4.46157E-13
 -1      2117 1.99728E+01 3.24670E+00-1.36985E-02-1.91850E+00-4.03686E-13-3.67156E-13
 -1      2118 1.96973E+01 3.58529E+00-7.07998E-03-1.52080E+00-3.12327E-13-5.14120E-13
 -1      2119 3.91420E+01 5.97109E+00 1.86948E-01 1.69527E+00 7.74880E-13 3.15581E-13
 -1      2120 3.76756E+01 4.79616E+00 2.80949E-01 3.11447E+00 6.99468E-13 6.09179E-13
 -1      2121 4.24949E+01 7.60856E+00 5.40006E-01 5.25699E-01 6.30551E-13 4.62946E-13
 -1      2122 4.00841E+01 7.58520E+00 2.52377E-01 1.38990E+00 6.79290E-13 3.67012E-13
 -1      2123 3.97668E+01 6.59957E+00 2.14374E-01-9.14657E-01 6.04905E-13 4.69458E-13
 -1      2124 4.21909E+01 7.11163E+00 4.42872E-01-2.29823E-02 7.46680E-13 6.47357E-13
 -1      2125 3.73810E+01 8.39654E+00 3.40874E-01 6.57509E-01 6.44484E-13 6.49217E-13
 -1      2126 3.53543E+01 3.23042E+00 8.03705E-02-2.50945E+00 3.94129E-13 1.17351E-13
 -1      2127 3.85224E+01 4.75515E+00 2.72863E-01-1.52928E+00 3.02647E-13 2.10776E-13
 -1      2128 2.89474E+01-7.01775E-01-7.99419E-02-4.11940E+00 5.35239E-13 1.34781E-13
 -1      2129 3.35670E+01 1.26981E+00 2.22115E-01-3.88319E+00 3.86913E-13 7.79377E-14
 -1      2130 2.01132E+01-4.11789E+00-2.29783E-01-5.84038E+00 2.69063E-13-2.45359E-13
 -1      2131 2.53150E+01-2.22595E+00 6.22090E-02-6.04768E+00 4.92606E-13 6.93334E-14
 -1      2132 1.11287E+01-6.63261E+00-3.97024E-01-5.79456E+00 6.75016E-14-6.03878E-13
 -1      2133 1.57804E+01-4.70195E+00-7.74808E-02-6.80724E+00 2.57461E-13-5.43482E-13
 -1      2134 4.33900E+00-8.10973E+00-4.60352E-01-4.34790E+00 7.86038E-14-4.14668E-13
 -1      2135 7.38425E+00-6.58640E+00-2.35557E-01-5.61047E+00 1.29896E-13-5.56805E-13
 -1      2136 6.13093E-01-8.03085E+00-3.80511E-01-1.91787E+00 2.06501E-14-2.94487E-13
 -1      2137 1.98056E+00-7.86908E+00-3.73885E-01-3.27533E+00 1.80411E-14-2.63400E-13
 -1      2138 4.97570E-01-8.25135E+00-4.14170E-01 1.68907E+00-1.13548E-13-2.66842E-13
 -1      2139-4.15400E-03-7.94910E+00-3.63001E-01 2.10716E-01 4.80622E-14-3.68983E-13
 -1      2140 4.55421E+00-7.16691E+00-2.68818E-01 4.56165E+00-1.88960E-13-5.84588E-13
 -1      2141 2.26725E+00-8.25397E+00-4.27602E-01 3.22334E+00-8.33777E-14-4.23384E-13
 -1      2142 1.14046E+01-5.82103E+00-1.68251E-01 6.25947E+00-3.40616E-13-2.82968E-13
 -1      2143 7.59422E+00-7.55094E+00-4.38974E-01 5.13872E+00-2.49356E-13-3.97182E-13
 -1      2144 2.07345E+01-4.19394E+00-6.84622E-02 6.40596E+00-2.91267E-13-4.84057E-14
 -1      2145 1.53559E+01-5.69672E+00-3.17993E-01 5.89497E+00-3.71703E-13-2.27263E-13
 -1      2146 1.58739E+01-6.40074E+00-4.96458E-02 6.58458E+00-7.37188E-14-1.63640E-13
 -1      2147 3.04085E+01-1.09932E+00 1.15499E-01 4.12929E+00-4.22773E-13 4.60854E-13
 -1      2148 2.56011E+01-3.13179E+00-1.00637E-01 4.45866E+00-3.26961E-13 1.82743E-13
 -1      2149 3.75864E+01 3.59330E+00 3.81258E-01 2.44286E+00-3.76532E-13 2.98428E-13
 -1      2150 3.30556E+01 1.53516E+00-1.29917E-02 2.59917E+00-4.03656E-13 2.98428E-13
 -1      2151 4.16634E+01 6.33815E+00 4.12344E-01 6.67810E-01-2.55351E-13 1.11300E-13
 -1      2152 3.88342E+01 5.35345E+00 1.86237E-01 1.60128E+00-3.36758E-13 9.75886E-14
 -1      2153 4.07936E+01 7.58282E+00 2.41859E-01-1.06608E+00-3.91465E-13 5.25968E-15
 -1      2154 4.14323E+01 7.27941E+00 3.64227E-01 1.47408E-02-3.22076E-13 1.05471E-15
 -1      2155 3.93383E+01 6.02527E+00 2.37653E-01-2.45077E+00-2.31037E-13 1.29785E-13
 -1      2156 4.09291E+01 6.95077E+00 3.09419E-01-1.39576E+00-3.16969E-13-2.19824E-14
 -1      2157 3.43349E+01 2.44617E+00 6.95161E-02-3.68835E+00-2.15217E-13 2.91989E-13
 -1      2158 3.82204E+01 4.22129E+00 3.36485E-01-3.22821E+00-1.80522E-13 3.18912E-13
 -1      2159 2.64354E+01-1.88240E+00-9.59293E-02-5.84875E+00-5.49005E-13 7.80487E-14
 -1      2160 3.17581E+01 2.69458E-01 1.98407E-01-5.63967E+00-3.98903E-13 7.06102E-14
 -1      2161 1.73912E+01-5.77297E+00-2.62705E-01-6.71293E+00-4.84945E-13 3.41949E-13
 -1      2162 2.27283E+01-3.54801E+00 6.31653E-02-7.35690E+00-5.93303E-13 8.18234E-14
 -1      2163 7.80036E+00-7.97979E+00-4.75969E-01-5.78597E+00-2.36700E-13 1.05146E-12
 -1      2164 1.21920E+01-5.96419E+00-1.64337E-01-7.24716E+00-3.09419E-13 8.93903E-13
 -1      2165 1.67890E+00-8.83080E+00-5.19357E-01-3.12668E+00-3.20410E-13 4.15223E-13
 -1      2166 4.01713E+00-7.91772E+00-4.01532E-01-4.73923E+00-4.37428E-13 9.64312E-13
 -1      2167 3.58929E+01 2.71165E+00 2.75769E-01 4.41407E+00 4.27623E-13 9.52349E-13
 -1      2168 3.17663E+01 1.05195E+00 3.90492E-02 4.99935E+00 3.71536E-13 9.09717E-13
 -1      2169 2.41627E+01-5.27666E+00 1.87861E-02 6.23583E+00-3.54439E-13 4.46115E-13
 -1      2170 2.07367E+01 1.10863E+00-2.06927E-02-1.61581E+00-4.33705E-13 3.11182E-13
 -1      2171 3.50974E+01 3.02570E+00 2.76466E-01 1.32031E+00 4.85334E-13 3.15747E-13
 -1      2172 2.06270E+01 1.33055E+00-1.85116E-02-1.67782E+00-4.60151E-13 7.72941E-14
 -1      2173 7.98244E+00-6.30253E+00-1.17535E-01 6.52539E+00-2.96874E-13 5.60552E-13
 -1      2174 2.53739E+00-5.65345E+00-2.08169E-01 2.41589E+00-3.33025E-13 9.44245E-14
 -1      2175 2.04677E+01 6.05844E-01 8.72702E-03-1.04693E+00 1.86830E-14 3.63173E-14
 -1      2176 2.60732E+00-5.85732E+00-2.19282E-01-2.53584E+00-3.36398E-13 3.74256E-13
 -1      2177 3.12315E+01-1.38847E+00 1.75891E-01 3.55897E+00 5.84255E-15 5.92970E-13
 -1      2178 8.08055E+00-6.68211E+00-1.86216E-01-6.60045E+00-1.25566E-13 7.85372E-13
 -1      2179 1.76118E+01-6.50639E+00 7.75759E-03-7.51285E+00 3.18079E-14 3.24810E-13
 -1      2180 2.64736E+01-4.59926E+00 3.79889E-02-5.43844E+00-2.04115E-13-4.22551E-13
 -1      2181 3.28998E+01 5.02843E-02 1.80257E-01-2.52976E+00-1.48263E-13-2.84217E-14
 -1      2182 3.60127E+01 4.97721E+00 2.76518E-01-4.60230E-01-2.14662E-13-1.21958E-13
 -1      2183 3.69332E+01 7.95250E+00 2.89990E-01-4.95886E-01-3.16525E-13-3.77046E-13
 -1      2184 3.70612E+01 7.69785E+00 3.40543E-01-8.48686E-01-3.44946E-13-2.09222E-13
 -1      2185 3.59459E+01 4.35923E+00 2.63603E-01-4.08775E-01-3.25628E-13 1.56430E-13
 -1      2186 2.48277E+01-4.84661E+00 7.68282E-02 4.65426E+00-6.05072E-14 3.54411E-13
 -1      2187 8.20276E+00-6.45138E+00-1.52690E-01 5.95504E+00 7.08877E-14-3.96461E-13
 -1      2188 2.85960E+00-5.83050E+00-1.78988E-01 3.31483E+00 2.18159E-14-4.14224E-13
 -1      2189 1.44595E+00-5.78931E+00-1.90798E-01-1.06553E+00-2.97679E-14-3.00815E-13
 -1      2190 4.87011E+00-6.23162E+00-1.93154E-01-4.91541E+00-5.70655E-14-3.73146E-13
 -1      2191 1.16280E+01-6.50759E+00-1.18798E-01-6.67695E+00-4.38538E-15-5.96065E-13
 -1      2192 2.02949E+01-5.64231E+00 1.27890E-02-6.15631E+00-3.41394E-14-1.12022E-13
 -1      2193 2.84391E+01-2.96538E+00 1.15871E-01-3.50820E+00 2.68424E-13 4.44145E-13
 -1      2194 3.63058E+01 5.84058E+00 2.55849E-01 6.71312E-01 5.14200E-13 6.47482E-13
 -1      2195 3.77514E+01 6.89773E+00 2.32974E-01 7.96378E-01 7.30527E-13 3.01870E-13
 -1      2196 3.43170E+01 5.99426E+00 5.99694E-02-1.48226E-01 6.95777E-13 1.36113E-13
 -1      2197 3.45347E+01 7.48166E+00-8.43900E-02-1.23111E-01 4.92051E-13 2.73934E-13
 -1      2198 3.34777E+01 1.35810E+00 1.92774E-01-5.62659E-01 3.05866E-13 3.95795E-13
 -1      2199 3.17562E+01-9.37992E-01 6.07192E-02 1.31200E+00-3.27405E-13 4.85723E-13
 -1      2200 2.01484E+01 5.06400E-01 3.70514E-03 6.77873E-01 3.37846E-13 2.34395E-13
 -1      2201 2.04164E+01 7.00018E-01 2.08296E-02 9.69535E-01 3.84208E-13 2.77436E-13
 -1      2202 1.95596E+01 3.51610E+00-1.10903E-02-5.91567E-01-9.72645E-14-5.49362E-13
 -1      2203 1.95951E+01 3.47028E+00-1.04343E-02-7.75910E-01-1.58421E-13-5.65476E-13
 -1      2204 1.96417E+01 3.38231E+00-1.26511E-02-9.40258E-01-1.95760E-13-5.68648E-13
 -1      2205 1.97035E+01 3.30123E+00-1.25030E-02-1.12954E+00-2.49525E-13-5.42262E-13
 -1      2206 1.97865E+01 3.03334E+00 3.08589E-04-7.92438E-01-1.69493E-13-5.22546E-13
 -1      2207 1.95122E+01 3.59856E+00-9.61565E-03 9.94795E-02 9.16407E-14-5.63567E-13
 -1      2208 1.95116E+01 3.59936E+00-9.62805E-03-8.00387E-02 3.86620E-14-5.68231E-13
 -1      2209 1.95384E+01 3.55913E+00-9.72573E-03 4.45604E-01 1.70899E-13-5.51868E-13
 -1      2210 1.95209E+01 3.58170E+00-1.01415E-02 2.64727E-01 1.22126E-13-5.56046E-13
 -1      2211 1.96784E+01 3.22125E+00-9.06547E-04 1.69633E-01 1.02082E-13-5.29269E-13
 -1      2212 1.96004E+01 3.46261E+00-1.06065E-02 7.89634E-01 2.56929E-13-5.14886E-13
 -1      2213 1.95640E+01 3.50961E+00-1.12199E-02 6.08170E-01 2.05633E-13-5.44836E-13
 -1      2214 1.97153E+01 3.15771E+00-5.09156E-04 4.88146E-01 1.84003E-13-5.05690E-13
 -1      2215 1.97109E+01 3.28893E+00-1.29973E-02 1.14319E+00 3.58069E-13-4.13503E-13
 -1      2216 1.96484E+01 3.37214E+00-1.28948E-02 9.53867E-01 2.98211E-13-4.66909E-13
 -1      2217 1.97925E+01 3.02402E+00 2.72507E-04 8.03961E-01 2.77283E-13-4.53669E-13
 -1      2218 1.98909E+01 3.00317E+00-1.81677E-02 1.48997E+00 4.40291E-13-3.13635E-13
 -1      2219 1.97908E+01 3.14459E+00-1.52231E-02 1.29943E+00 3.86360E-13-3.71761E-13
 -1      2220 1.99222E+01 2.79923E+00 2.18218E-03 1.11022E+00 3.61771E-13-3.57827E-13
 -1      2221 2.01693E+01 2.54400E+00-2.83360E-02 1.79467E+00 5.09059E-13-1.49452E-13
 -1      2222 2.00181E+01 2.78312E+00-1.70836E-02 1.62023E+00 4.56874E-13-2.42119E-13
 -1      2223 2.01175E+01 2.44826E+00 6.01756E-03 1.37594E+00 4.21584E-13-2.44502E-13
 -1      2224 1.98712E+01 2.68101E-01 4.64344E-03 2.85488E-01 2.64184E-13 1.67057E-13
 -1      2225 2.00321E+01 3.67880E-01 2.01567E-02 4.42566E-01 3.04761E-13 2.25428E-13
 -1      2226 2.02109E+01 6.34299E-01-2.34875E-03 7.04709E-01 3.53722E-13 8.47534E-14
 -1      2227 2.03989E+01 8.56998E-01 1.29145E-02-1.00098E+00-3.66158E-13-1.96169E-14
 -1      2228 2.01877E+01 6.25792E-01-5.52640E-03-6.87393E-01-3.25748E-13-3.62224E-14
 -1      2229 3.31278E+01 2.98756E+00-1.65848E-01-2.06895E-01 5.78260E-13-2.52298E-14
 -1      2230 3.23690E+01 8.61514E-01-6.68767E-02 4.58945E-01 2.26694E-13 1.72085E-13
 -1      2231 2.01301E+01 4.70225E-01 1.78926E-02-4.79395E-01-2.86784E-13-3.78393E-14
 -1      2232 1.99831E+01 3.47124E-01 4.67769E-04-3.04023E-01-2.44803E-13-7.16770E-14
 -1      2233 2.02392E+01 7.25424E-01-9.53098E-03-6.90515E-01-3.28871E-13-1.22383E-13
 -1      2234 1.99208E+01 2.59340E-01 1.09850E-02-1.66208E-01-2.06594E-13-5.89146E-14
 -1      2235 1.98415E+01 1.87753E-01 7.31860E-04-6.91130E-02-1.63120E-13-8.27254E-14
 -1      2236 2.00786E+01 4.18027E-01-3.71629E-03-3.09523E-01-2.42379E-13-1.24999E-13
 -1      2237 1.97969E+01 1.38238E-01 6.40619E-03 1.27521E-02-1.54327E-13-9.79529E-14
 -1      2238 1.97617E+01 9.58975E-02 7.21072E-04 6.59277E-02-1.48701E-13-9.69290E-14
 -1      2239 1.99595E+01 2.26813E-01-3.59865E-03-7.19791E-02-1.76447E-13-1.45072E-13
 -1      2240 1.97357E+01 6.59840E-02 3.59132E-03 1.11521E-01-1.38737E-13-1.04220E-13
 -1      2241 1.97282E+01 4.04182E-02 6.15494E-04 1.37938E-01-1.33725E-13-1.28449E-13
 -1      2242 1.98835E+01 1.14448E-01-2.90918E-03 6.85108E-02-1.53129E-13-1.55609E-13
 -1      2243 1.97164E+01 2.21415E-02 1.86041E-03 1.60016E-01-1.36968E-13-1.13342E-13
 -1      2244 1.97253E+01 6.87233E-03 4.91037E-04 1.69981E-01-1.22718E-13-1.23349E-13
 -1      2245 1.98437E+01 4.62172E-02-2.11220E-03 1.44411E-01-1.44030E-13-1.52028E-13
 -1      2246 1.97232E+01-4.04795E-03 7.96116E-04 1.77192E-01-1.34153E-13-1.26799E-13
 -1      2247 1.97411E+01-1.27299E-02 3.75743E-04 1.77218E-01-1.42817E-13-1.42324E-13
 -1      2248 1.98293E+01 5.08526E-03-1.43227E-03 1.78650E-01-1.39130E-13-1.95894E-13
 -1      2249 1.97451E+01-1.88349E-02 1.46353E-04 1.75386E-01-1.82754E-13-1.38525E-13
 -1      2250 1.97670E+01-2.32015E-02 2.82691E-04 1.69723E-01-1.92987E-13-1.45059E-13
 -1      2251 1.98315E+01-1.87241E-02-9.17275E-04 1.86752E-01-1.88369E-13-2.10336E-13
 -1      2252 1.97744E+01-2.60977E-02-2.35869E-04 1.62801E-01-1.50749E-13-1.24273E-13
 -1      2253 1.97973E+01-2.76099E-02 2.17703E-04 1.54279E-01-1.03703E-13-1.20959E-13
 -1      2254 1.98437E+01-3.11649E-02-5.52826E-04 1.79258E-01-1.68273E-13-1.28991E-13
 -1      2255 1.98064E+01-2.83546E-02-4.41841E-04 1.44964E-01-9.28529E-14-1.03740E-13
 -1      2256 1.98286E+01-2.79749E-02 1.82005E-04 1.35481E-01-7.53081E-14-8.84340E-14
 -1      2257 1.98612E+01-3.60512E-02-3.08742E-04 1.63367E-01-9.43486E-14-6.93678E-14
 -1      2258 1.98383E+01-2.72721E-02-5.31980E-04 1.25613E-01-6.80882E-14-7.98723E-14
 -1      2259 1.98588E+01-2.56313E-02 1.75158E-04 1.16454E-01-2.15326E-14-5.71422E-14
 -1      2260 1.98810E+01-3.58934E-02-1.56396E-04 1.44006E-01-7.15601E-14-4.69100E-14
 -1      2261 1.98685E+01-2.39407E-02-5.47623E-04 1.07294E-01-2.75626E-14-1.08962E-13
 -1      2262 1.98872E+01-2.14350E-02 1.97069E-04 9.93380E-02-1.59997E-14-1.03017E-13
 -1      2263 1.99014E+01-3.23419E-02-7.27887E-05 1.24556E-01-3.76000E-14-7.55484E-14
 -1      2264 1.98966E+01-1.90376E-02-5.17374E-04 9.17741E-02-6.40221E-14-1.29164E-13
 -1      2265 1.99137E+01-1.58891E-02 2.48897E-04 8.56531E-02-7.31172E-14-1.58203E-13
 -1      2266 1.99214E+01-2.64411E-02-4.05845E-05 1.07370E-01-7.09084E-14-1.06845E-13
 -1      2267 1.99229E+01-1.29312E-02-4.60960E-04 8.03474E-02-3.96637E-14-1.79280E-13
 -1      2268 1.99389E+01-9.22914E-03 3.33247E-04 7.65586E-02-2.33714E-14-1.64897E-13
 -1      2269 1.99410E+01-1.87888E-02-4.73042E-05 9.41462E-02-5.10658E-14-1.06282E-13
 -1      2270 1.99482E+01-5.75281E-03-3.91818E-04 7.40635E-02-6.54320E-14-2.30343E-13
 -1      2271 1.99641E+01-1.48410E-03 4.54120E-04 7.30576E-02-7.05847E-14-2.19999E-13
 -1      2272 1.99604E+01-9.64336E-03-8.42053E-05 8.62124E-02-9.71474E-14-1.90071E-13
 -1      2273 1.99739E+01 2.54860E-03-3.18973E-04 7.39024E-02-6.58866E-14-2.28769E-13
 -1      2274 1.99906E+01 7.47602E-03 6.16684E-04 7.61501E-02-7.94846E-14-2.22551E-13
 -1      2275 1.99804E+01 9.97717E-04-1.45250E-04 8.47449E-02-9.37309E-14-1.47589E-13
 -1      2276 2.00016E+01 1.21636E-02-2.48435E-04 8.09065E-02-1.23992E-13-2.37959E-13
 -1      2277 2.00205E+01 1.79004E-02 8.26867E-04 8.69478E-02-1.11110E-13-2.62643E-13
 -1      2278 2.00022E+01 1.33361E-02-2.26210E-04 9.09285E-02-8.82500E-14-2.30084E-13
 -1      2279 2.00332E+01 2.33834E-02-1.84235E-04 9.62760E-02-3.74913E-14-2.63474E-13
 -1      2280 2.00559E+01 3.01183E-02 1.09065E-03 1.06753E-01 2.37331E-14-2.15080E-13
 -1      2281 2.00270E+01 2.77192E-02-3.23838E-04 1.06076E-01-5.46297E-14-2.15789E-13
 -1      2282 2.00713E+01 3.65583E-02-1.29156E-04 1.21429E-01 3.55347E-15-2.26055E-13
 -1      2283 2.00995E+01 4.44924E-02 1.41288E-03 1.37101E-01 1.07884E-14-2.66953E-13
 -1      2284 2.00564E+01 4.45846E-02-4.35073E-04 1.31704E-01 2.28978E-15-1.87024E-13
 -1      2285 2.01185E+01 5.20439E-02-8.51703E-05 1.58022E-01 2.82315E-14-2.59904E-13
 -1      2286 2.01543E+01 6.13529E-02 1.79541E-03 1.79755E-01 4.83379E-14-2.11082E-13
 -1      2287 2.00924E+01 6.43919E-02-5.56325E-04 1.69566E-01 4.86794E-14-2.41350E-13
 -1      2288 2.01779E+01 7.01202E-02-5.34429E-05 2.07910E-01 4.72405E-14-2.59062E-13
 -1      2289 2.02236E+01 8.08950E-02 2.23403E-03 2.36633E-01-1.37434E-14-2.22586E-13
 -1      2290 2.01371E+01 8.75236E-02-6.82949E-04 2.21627E-01 4.11404E-14-1.85961E-13
 -1      2291 2.02530E+01 9.08625E-02-3.36587E-05 2.73037E-01-2.69415E-14-2.26024E-13
 -1      2292 2.03111E+01 1.03011E-01 2.71373E-03 3.09639E-01-4.98950E-15-2.18306E-13
 -1      2293 2.01927E+01 1.14129E-01-8.09219E-04 2.89958E-01-2.40758E-15-2.49883E-13
 -1      2294 2.03476E+01 1.13928E-01-2.21557E-05 3.55190E-01-2.36713E-14-2.54400E-13
 -1      2295 2.04207E+01 1.27013E-01 3.20145E-03 4.00329E-01-5.67699E-15-2.51182E-13
 -1      2296 2.02617E+01 1.43868E-01-9.29421E-04 3.76516E-01-4.24380E-14-2.17488E-13
 -1      2297 2.04656E+01 1.38207E-01-8.03702E-06 4.55565E-01-2.47838E-15-2.72410E-13
 -1      2298 2.05562E+01 1.51181E-01 3.63553E-03 5.09339E-01-4.93312E-17-2.23616E-13
 -1      2299 2.03468E+01 1.75498E-01-1.04116E-03 4.82747E-01-2.14567E-14-2.68003E-13
 -1      2300 2.06113E+01 1.61256E-01 3.39755E-05 5.74039E-01 4.72159E-15-1.87754E-13
 -1      2301 2.07217E+01 1.72048E-01 3.91117E-03 6.35437E-01-6.02485E-14-1.64321E-13
 -1      2302 2.04508E+01 2.06207E-01-1.15269E-03 6.08926E-01 7.63544E-15-2.82258E-13
 -1      2303 2.07888E+01 1.78425E-01 1.55372E-04 7.07981E-01-1.23011E-13-1.82501E-13
 -1      2304 2.09206E+01 1.83336E-01 3.86225E-03 7.74026E-01-5.96679E-14-2.07825E-13
 -1      2305 2.05769E+01 2.30576E-01-1.29655E-03 7.53115E-01-8.24129E-14-1.86702E-13
 -1      2306 2.10030E+01 1.81614E-01 4.50949E-04 8.50421E-01 5.12466E-14-1.74330E-13
 -1      2307 2.11565E+01 1.74512E-01 3.24232E-03 9.14900E-01 1.04769E-13-9.84434E-14
 -1      2308 2.07294E+01 2.39098E-01-1.55142E-03 9.09569E-01 1.66100E-15-1.26410E-13
 -1      2309 2.12591E+01 1.57705E-01 1.07767E-03 9.87353E-01 6.38624E-14-1.14143E-13
 -1      2310 2.14331E+01 1.29224E-01 1.71263E-03 1.03911E+00 7.02934E-14-3.62624E-14
 -1      2311 2.09146E+01 2.16267E-01-2.07009E-03 1.06641E+00 1.02729E-13-5.47401E-14
 -1      2312 2.15640E+01 8.72172E-02 2.26039E-03 1.09406E+00-5.77116E-14-2.65913E-14
 -1      2313 2.17547E+01 2.45622E-02-1.14551E-03 1.11505E+00-1.59373E-13 5.16872E-15
 -1      2314 2.11430E+01 1.38760E-01-3.09763E-03 1.20237E+00-1.88099E-14-3.00145E-15
 -1      2315 2.19270E+01-5.52842E-02 4.23697E-03 1.13076E+00-1.80774E-13-2.70185E-14
 -1      2316 2.21269E+01-1.66352E-01-5.74399E-03 1.09463E+00-7.99581E-14-4.30001E-14
 -1      2317 2.14322E+01-2.46593E-02-4.93272E-03 1.28261E+00-1.67961E-13-6.29476E-14
 -1      2318 2.23581E+01-2.95370E-01 7.07175E-03 1.03893E+00-1.54522E-13-4.36711E-14
 -1      2319 2.25540E+01-4.63344E-01-1.22383E-02 9.12239E-01-1.60304E-13-1.82281E-13
 -1      2320 2.18084E+01-3.07642E-01-7.71904E-03 1.25410E+00-1.67976E-13-1.21065E-13
 -1      2321 2.28608E+01-6.41037E-01 1.01218E-02 7.42589E-01-8.81591E-14-2.68172E-13
 -1      2322 2.30300E+01-8.51770E-01-1.98729E-02 4.92474E-01-1.09316E-13-3.45483E-13
 -1      2323 2.23044E+01-7.27711E-01-1.09256E-02 1.04273E+00-1.94620E-13-1.24102E-13
 -1      2324 2.34105E+01-1.04517E+00 1.10099E-02 1.65058E-01-2.87942E-14-3.27336E-13
 -1      2325 2.35171E+01-1.23428E+00-2.57131E-02-2.20192E-01 1.79873E-14-3.02693E-13
 -1      2326 2.29413E+01-1.24373E+00-1.25598E-02 5.59062E-01-5.38371E-14-3.73919E-13
 -1      2327 2.39169E+01-1.35158E+00 5.38973E-03-7.18280E-01 2.04385E-14-1.56961E-13
 -1      2328 2.39138E+01-1.38321E+00-2.30559E-02-1.19097E+00 4.28164E-14-1.00379E-13
 -1      2329 2.36833E+01-1.68895E+00-9.22967E-03-2.66157E-01 8.22840E-14-2.28659E-13
 -1      2330 2.42024E+01-1.27297E+00-9.20615E-03-1.77826E+00 4.88923E-14-7.96871E-14
 -1      2331 2.40527E+01-9.78106E-01-5.80373E-03-2.18925E+00 1.69292E-13-5.00637E-14
 -1      2332 2.43800E+01-1.73587E+00 7.91694E-04-1.39102E+00 8.30399E-14-7.09074E-15
 -1      2333 2.40461E+01-5.14631E-01-3.83065E-02-2.60801E+00 2.00492E-13-1.39095E-13
 -1      2334 2.37726E+01 1.32364E-01 1.15906E-02-2.70994E+00 1.46818E-13-2.07421E-13
 -1      2335 2.47447E+01-9.57080E-01 1.36630E-02-2.50411E+00 7.97578E-14-6.25403E-14
 -1      2336 2.34705E+01 8.42522E-01-5.47426E-02-2.62121E+00 2.76184E-13-3.04214E-13
 -1      2337 2.31812E+01 1.55955E+00 1.75472E-02-2.23658E+00 2.66072E-13-1.98361E-13
 -1      2338 2.45545E+01 6.19557E-01-7.02092E-03-2.93982E+00 1.41987E-13-1.61491E-13
 -1      2339 2.28358E+01 2.04368E+00-5.09834E-02-1.46159E+00 1.43399E-13-2.81739E-13
 -1      2340 2.27092E+01 2.27018E+00-1.85520E-02-7.28693E-01 3.81882E-14-1.23885E-13
 -1      2341 2.39916E+01 2.39232E+00-2.28598E-02-2.13179E+00 8.17471E-14-1.47696E-13
 -1      2342 2.27239E+01 2.16035E+00-1.18351E-03 2.32102E-01-6.81885E-14-2.67549E-13
 -1      2343 2.27570E+01 1.70675E+00-5.27839E-02 8.96526E-01-7.50129E-14-2.39350E-13
 -1      2344 2.37510E+01 2.86778E+00-3.80860E-02-2.80931E-01 3.85143E-14-3.77256E-13
 -1      2345 2.30273E+01 1.06821E+00 2.05149E-02 1.42738E+00-1.14575E-13-1.93298E-13
 -1      2346 2.31416E+01 3.35646E-01-5.28001E-02 1.64174E+00-2.40875E-14-3.57431E-13
 -1      2347 2.39667E+01 1.79063E+00-2.82527E-02 1.33232E+00-1.54175E-13-4.43652E-13
 -1      2348 2.32761E+01-3.21758E-01 9.87616E-03 1.53488E+00 1.49410E-13-4.93367E-13
 -1      2349 2.33446E+01-8.50865E-01-2.70257E-02 1.29863E+00 2.55000E-14-4.85345E-13
 -1      2350 2.42609E+01 1.87039E-02 3.99073E-03 1.70320E+00-5.29281E-14-5.50129E-13
 -1      2351 2.31295E+01-1.15166E+00-1.31114E-02 7.89977E-01-2.00114E-13-3.97916E-13
 -1      2352 2.30608E+01-1.26828E+00-1.39866E-03 3.66189E-01 1.44919E-14-2.45104E-13
 -1      2353 2.40747E+01-1.31143E+00 1.45620E-03 9.55818E-01-3.55473E-14-5.36369E-13
 -1      2354 2.26234E+01-1.22423E+00-2.31641E-02-1.57391E-01 2.08772E-13-2.48332E-13
 -1      2355 2.24364E+01-1.04605E+00 1.42310E-02-5.38731E-01 1.06226E-14-1.64130E-13
 -1      2356 2.33771E+01-1.61459E+00-8.00924E-04-1.46074E-01 9.45023E-14-3.30432E-13
 -1      2357 2.19335E+01-7.97343E-01-2.26542E-02-8.83664E-01-1.75911E-13-2.03657E-15
 -1      2358 2.16693E+01-4.92651E-01 1.26683E-02-1.08667E+00-1.07118E-13 1.51975E-13
 -1      2359 2.24611E+01-1.20266E+00-9.03858E-03-1.03118E+00 6.91604E-14-2.91043E-13
 -1      2360 1.96236E+01 7.24770E-02 2.06339E-03-6.58777E-02 1.03425E-13 4.68309E-14
 -1      2361 1.96511E+01 1.04239E-01 6.90449E-03-1.97663E-02 1.36064E-13 8.60366E-14
 -1      2362 1.95999E+01 3.05887E-02 1.33962E-03-1.31446E-01 1.23898E-13-2.84424E-14
 -1      2363 1.95969E+01 4.95205E-02 3.68748E-03-1.08994E-01 9.60868E-14 2.49574E-14
 -1      2364 1.97681E+01 8.97131E-02-3.16031E-03-7.11598E-02 1.50481E-13-6.50095E-14
 -1      2365 1.96117E+01 5.55350E-03 8.69862E-04-1.59769E-01 1.54794E-13-5.41778E-14
 -1      2366 1.95918E+01 1.67986E-02 1.81907E-03-1.51585E-01 1.40075E-13-4.22856E-14
 -1      2367 1.97338E+01 3.56894E-02-2.27443E-03-1.43365E-01 1.53686E-13-9.77344E-14
 -1      2368 1.96436E+01-9.02008E-03 5.49985E-04-1.65365E-01 1.32235E-13-3.07459E-14
 -1      2369 1.96154E+01-2.60906E-03 7.18432E-04-1.65711E-01 1.30168E-13-3.34550E-14
 -1      2370 1.97303E+01 3.58783E-03-1.51179E-03-1.75026E-01 1.38713E-13-8.17371E-14
 -1      2371 1.96853E+01-1.68363E-02 3.30990E-04-1.57606E-01 4.13588E-14 4.01819E-15
 -1      2372 1.96541E+01-1.35634E-02 6.64093E-05-1.62808E-01 9.75442E-14-4.57021E-15
 -1      2373 1.97454E+01-1.48594E-02-9.39419E-04-1.81657E-01 9.66207E-14-4.14531E-14
 -1      2374 1.97300E+01-2.02005E-02 1.88423E-04-1.42696E-01 9.44980E-14-3.72200E-14
 -1      2375 1.96992E+01-1.89933E-02-3.06648E-04-1.50332E-01 7.40294E-14-1.60073E-14
 -1      2376 1.97706E+01-2.44819E-02-5.40007E-04-1.73506E-01 9.18812E-14-8.10525E-14
 -1      2377 1.97738E+01-2.06134E-02 1.06405E-04-1.24784E-01 1.12526E-13-6.91078E-14
 -1      2378 1.97451E+01-2.07703E-02-4.99104E-04-1.33242E-01 1.18475E-13-4.60225E-14
 -1      2379 1.98004E+01-2.82988E-02-2.76484E-04-1.57452E-01 1.27893E-13-1.16969E-13
 -1      2380 1.98146E+01-1.90632E-02 7.36553E-05-1.06659E-01 1.13760E-13-7.37427E-14
 -1      2381 1.97888E+01-2.01246E-02-5.73451E-04-1.14857E-01 9.10410E-14-8.84942E-14
 -1      2382 1.98311E+01-2.82721E-02-1.14682E-04-1.38140E-01 9.71177E-14-8.76935E-14
 -1      2383 1.98516E+01-1.61865E-02 8.26316E-05-9.02109E-02 6.78573E-14-7.36882E-14
 -1      2384 1.98288E+01-1.78612E-02-5.71279E-04-9.74149E-02 1.18011E-13-2.82327E-14
 -1      2385 1.98609E+01-2.56857E-02-2.80917E-05-1.18725E-01 9.35214E-14-6.36300E-14
 -1      2386 1.98851E+01-1.23647E-02 1.29236E-04-7.67562E-02 6.76309E-14-7.90245E-14
 -1      2387 1.98649E+01-1.44851E-02-5.20616E-04-8.24462E-02 6.53487E-14-6.60327E-14
 -1      2388 1.98889E+01-2.13560E-02 2.69827E-06-1.01370E-01 7.64185E-14-7.72365E-14
 -1      2389 1.99159E+01-7.78739E-03 2.12395E-04-6.72750E-02 9.02779E-14-1.45845E-13
 -1      2390 1.98975E+01-1.02794E-02-4.40185E-04-7.10500E-02 6.49193E-14-1.13647E-13
 -1      2391 1.99150E+01-1.57596E-02-8.56049E-06-8.76112E-02 8.78705E-14-1.20888E-13
 -1      2392 1.99454E+01-2.49747E-03 3.33515E-04-6.25922E-02 1.49020E-13-1.02103E-13
 -1      2393 1.99279E+01-5.35836E-03-3.42133E-04-6.40959E-02 1.25166E-13-1.09442E-13
 -1      2394 1.99399E+01-9.11791E-03-5.25857E-05-7.86223E-02 1.04555E-13-1.23216E-13
 -1      2395 1.99756E+01 3.57268E-03 4.95883E-04-6.35123E-02 9.82295E-14-2.50102E-14
 -1      2396 1.99577E+01 2.92028E-04-2.33917E-04-6.23776E-02 1.51376E-13-9.31281E-15
 -1      2397 1.99646E+01-1.45827E-03-1.23406E-04-7.54164E-02 8.68167E-14-4.69852E-15
 -1      2398 2.00087E+01 1.05694E-02 7.03962E-04-7.09175E-02-4.00172E-14-3.72617E-14
 -1      2399 1.99889E+01 6.78062E-03-1.19751E-04-6.67268E-02 2.98340E-14-8.30628E-15
 -1      2400 1.99906E+01 7.33579E-03-2.17300E-04-7.89947E-02 3.45224E-14 3.83181E-14
 -1      2401 2.00475E+01 1.86851E-02 9.62374E-04-8.58319E-02-3.89093E-14 4.14294E-14
 -1      2402 2.00241E+01 1.42796E-02-1.74084E-06-7.80921E-02-4.01858E-14 1.83271E-14
 -1      2403 2.00197E+01 1.74795E-02-3.31942E-04-9.04517E-02-6.43909E-14 5.93923E-14
 -1      2404 2.00951E+01 2.81193E-02 1.27439E-03-1.09447E-01 8.26390E-14 3.73571E-15
 -1      2405 2.00661E+01 2.29897E-02 1.19188E-04-9.75829E-02 7.44338E-14 5.42920E-14
 -1      2406 2.00541E+01 2.92386E-02-4.65590E-04-1.11038E-01 5.28733E-15 9.67123E-14
 -1      2407 2.01552E+01 3.90241E-02 1.63964E-03-1.43099E-01 7.91398E-14-3.27514E-14
 -1      2408 2.01182E+01 3.30949E-02 2.42510E-04-1.26471E-01 9.02908E-14-5.23632E-15
 -1      2409 2.00962E+01 4.28690E-02-6.16301E-04-1.42175E-01 1.28673E-13 5.81970E-14
 -1      2410 2.02317E+01 5.14217E-02 2.05051E-03-1.88185E-01 1.12104E-14 5.03656E-14
 -1      2411 2.01842E+01 4.46965E-02 3.67445E-04-1.66136E-01 5.18021E-14-8.17561E-15
 -1      2412 2.01489E+01 5.85313E-02-7.81251E-04-1.85411E-01 4.97752E-14 1.69874E-14
 -1      2413 2.03292E+01 6.50778E-02 2.48682E-03-2.45969E-01-2.59349E-13 1.11318E-13
 -1      2414 2.02684E+01 5.77127E-02 4.92486E-04-2.17930E-01-1.09817E-13 6.83455E-14
 -1      2415 2.02153E+01 7.61608E-02-9.56276E-04-2.42288E-01-8.72160E-14 8.53277E-14
 -1      2416 2.04520E+01 7.93029E-02 2.90793E-03-3.17248E-01-1.92630E-13 9.66634E-16
 -1      2417 2.03752E+01 7.17210E-02 6.15241E-04-2.82924E-01-2.20805E-13 8.26378E-14
 -1      2418 2.02988E+01 9.52670E-02-1.13597E-03-3.14093E-01-2.04221E-13 2.58660E-14
 -1      2419 2.06048E+01 9.26496E-02 3.24170E-03-4.01793E-01-5.60301E-14-5.53770E-14
 -1      2420 2.05092E+01 8.57154E-02 7.32940E-04-3.61460E-01-1.26643E-13-2.00318E-14
 -1      2421 2.04029E+01 1.14625E-01-1.31488E-03-4.01420E-01-6.71555E-14-9.81002E-14
 -1      2422 2.07916E+01 1.02469E-01 3.37052E-03-4.97462E-01 5.98759E-14 4.32986E-14
 -1      2423 2.06751E+01 9.77405E-02 8.44078E-04-4.52450E-01-2.18199E-14-2.28025E-14
 -1      2424 2.05313E+01 1.31807E-01-1.49047E-03-5.03477E-01-7.87865E-14-1.46230E-13
 -1      2425 2.10152E+01 1.04306E-01 3.11618E-03-5.98873E-01 7.90053E-14 5.22890E-14
 -1      2426 2.08769E+01 1.04371E-01 9.51842E-04-5.52276E-01 1.25188E-13 8.61139E-14
 -1      2427 2.06877E+01 1.42525E-01-1.66864E-03-6.17024E-01 3.73803E-14-1.34824E-13
 -1      2428 2.12762E+01 9.11966E-02 2.23030E-03-6.95538E-01 1.20908E-13 1.84097E-13
 -1      2429 2.11175E+01 1.00046E-01 1.06952E-03-6.53202E-01 6.15733E-14 1.74806E-13
 -1      2430 2.08755E+01 1.39759E-01-1.87111E-03-7.34825E-01 5.24845E-14 1.68156E-14
 -1      2431 2.15725E+01 5.31294E-02 4.05431E-04-7.69484E-01 1.01175E-13 3.85832E-13
 -1      2432 2.13977E+01 7.63857E-02 1.22640E-03-7.41208E-01 1.68456E-13 3.51482E-13
 -1      2433 2.10982E+01 1.12851E-01-2.14038E-03-8.43535E-01 5.12101E-15 2.31585E-13
 -1      2434 2.18968E+01-2.26083E-02-2.66388E-03-7.92762E-01-1.32717E-14 3.71947E-13
 -1      2435 2.17154E+01 2.19475E-02 1.46704E-03-7.93412E-01 1.06264E-13 4.40482E-13
 -1      2436 2.13592E+01 4.70469E-02-2.52948E-03-9.21090E-01 9.95316E-14 3.42198E-13
 -1      2437 2.22358E+01-1.48666E-01-7.12056E-03-7.26092E-01 9.78254E-14 1.79369E-13
 -1      2438 2.20634E+01-7.65401E-02 1.82472E-03-7.75778E-01-7.57369E-15 2.83537E-13
 -1      2439 2.16619E+01-7.52584E-02-3.04788E-03-9.34072E-01 9.08638E-14 3.03958E-13
 -1      2440 2.25664E+01-3.29937E-01-1.26642E-02-5.21462E-01 9.10990E-15 2.11737E-13
 -1      2441 2.24266E+01-2.29406E-01 2.22629E-03-6.43051E-01 1.29965E-13 2.04310E-13
 -1      2442 2.20080E+01-2.69100E-01-3.52033E-03-8.36477E-01 8.40492E-14 1.88444E-13
 -1      2443 2.28518E+01-5.47945E-01-1.80541E-02-1.33479E-01-3.78161E-14 2.39122E-13
 -1      2444 2.27760E+01-4.32920E-01 2.27530E-03-3.44765E-01-6.56181E-14 1.88879E-13
 -1      2445 2.23934E+01-5.33964E-01-3.40600E-03-5.73062E-01-7.10690E-14 4.23673E-13
 -1      2446 2.30353E+01-7.37865E-01-2.05341E-02 4.53336E-01 1.76426E-13 1.77044E-13
 -1      2447 2.30591E+01-6.49378E-01 9.59837E-04 1.55766E-01 1.01993E-13 1.28487E-13
 -1      2448 2.27959E+01-8.29437E-01-1.54832E-03-9.28836E-02 8.27368E-14 4.03806E-13
 -1      2449 2.30385E+01-7.77017E-01-1.61291E-02 1.17463E+00 1.93817E-13 2.03869E-13
 -1      2450 2.31906E+01-7.84784E-01-3.35796E-03 8.39007E-01 1.67200E-13 2.09930E-13
 -1      2451 2.31536E+01-1.04297E+00 3.46230E-03 6.14729E-01 1.77354E-13 2.90159E-13
 -1      2452 2.27904E+01-5.27112E-01-2.06178E-03 1.84200E+00 4.84248E-15 1.58103E-13
 -1      2453 2.30714E+01-6.99539E-01-9.46547E-03 1.57374E+00 2.57913E-13 2.34218E-13
 -1      2454 2.33541E+01-1.00459E+00 9.67378E-03 1.45531E+00 1.81284E-13 3.45159E-13
 -1      2455 2.22663E+01 7.05875E-02 1.35851E-02 2.14588E+00-1.62688E-13-1.61936E-15
 -1      2456 2.26297E+01-2.71836E-01-1.85099E-02 2.09349E+00-1.76002E-13 1.47287E-13
 -1      2457 2.32685E+01-5.23764E-01 1.63926E-02 2.18546E+00 2.86490E-14 5.11787E-13
 -1      2458 2.16116E+01 8.07505E-01 2.10323E-02 1.79431E+00-2.36321E-13 1.12075E-13
 -1      2459 2.19519E+01 4.41610E-01-1.98210E-02 2.05188E+00-1.27257E-13 2.25167E-15
 -1      2460 2.28344E+01 3.67745E-01 7.08727E-03 2.40035E+00-1.79394E-13 2.25965E-13
 -1      2461 2.11146E+01 1.26282E+00 1.01178E-02 8.07277E-01-2.54290E-13 2.81641E-13
 -1      2462 2.13203E+01 1.09963E+00-7.30809E-03 1.30724E+00-3.38288E-13 1.04691E-13
 -1      2463 2.22573E+01 1.29919E+00-1.19652E-02 1.80790E+00-3.05446E-13 3.99852E-13
 -1      2464 2.10295E+01 1.10995E+00-9.73822E-03-3.68563E-01-1.97151E-13 4.74954E-13
 -1      2465 2.10481E+01 1.27067E+00 1.36785E-02 1.35032E-01-1.23948E-13 3.29455E-13
 -1      2466 2.19060E+01 1.71495E+00-2.18793E-02 5.49816E-01-2.37621E-13 3.48595E-13
 -1      2467 2.13172E+01 4.70965E-01-1.93090E-02-1.13560E+00-4.03076E-14 3.38346E-13
 -1      2468 2.11925E+01 8.29645E-01 2.53736E-02-8.67369E-01-1.28711E-13 3.67629E-13
 -1      2469 2.19835E+01 1.32665E+00-9.81030E-03-7.25740E-01-1.15927E-13 1.79299E-13
 -1      2470 2.16747E+01-2.27048E-01-1.59321E-02-1.21499E+00 2.32936E-13 1.68582E-13
 -1      2471 2.15094E+01 1.02027E-01 1.73010E-02-1.25075E+00 1.83709E-13 2.49608E-13
 -1      2472 2.22976E+01 4.09048E-01 6.63478E-03-1.34988E+00 1.62625E-13-1.77765E-13
 -1      2473 2.18131E+01-6.29769E-01-7.11056E-03-7.54556E-01 7.83176E-14 1.83714E-13
 -1      2474 2.17091E+01-4.77303E-01-1.86887E-03-9.90609E-01 1.52800E-13 2.00448E-13
 -1      2475 2.24865E+01-4.69074E-01 1.04948E-02-1.18148E+00 1.61032E-13-9.02637E-14
 -1      2476 2.16467E+01-6.44248E-01 1.79611E-03-1.13199E-01-1.36415E-13 1.57349E-13
 -1      2477 2.16546E+01-6.83043E-01-1.63280E-02-3.87608E-01-1.17546E-13 3.01781E-13
 -1      2478 2.23414E+01-8.97235E-01 3.62873E-03-5.24963E-01-5.50205E-14 1.15204E-13
 -1      2479 2.12673E+01-3.90717E-01 9.93815E-03 3.90902E-01 5.24197E-14 1.69792E-13
 -1      2480 2.13706E+01-5.46438E-01-1.95879E-02 1.98009E-01-3.83283E-14 2.09921E-13
 -1      2481 2.19083E+01-8.16546E-01-5.70340E-04 1.88129E-01-6.50765E-14 8.97886E-14
 -1      2482 2.07867E+01-3.73411E-02 1.05528E-02 5.93795E-01-2.24277E-13 4.29712E-13
 -1      2483 2.09470E+01-2.17806E-01-1.50805E-02 5.42528E-01-6.59832E-14 3.72454E-13
 -1      2484 2.13421E+01-4.10711E-01 3.12055E-03 6.59875E-01-1.08041E-13 4.58511E-13
 -1      2485 2.04954E+01 1.41273E-01-3.71974E-03 5.59575E-01-2.29849E-13 5.98355E-13
 -1      2486 2.01408E+01 1.53039E+00-1.81205E-02 2.96256E+00 1.91613E-13 1.01613E-13
 -1      2487 2.05275E+01 1.11547E+00 2.05751E-02 2.83755E+00 2.56186E-14-5.72227E-13
 -1      2488 1.91392E+01 2.43561E+00-3.74374E-02 2.78175E+00 1.74262E-13 3.30995E-13
 -1      2489 1.96821E+01 2.02366E+00 2.83503E-02 2.98331E+00 1.37968E-13 3.71142E-13
 -1      2490 1.98601E+01 9.62491E-01-1.14130E-02 3.38416E+00 1.62398E-13 1.68130E-13
 -1      2491 2.09960E+01 3.87671E-01 1.68720E-02 1.79799E+00-2.64503E-13 7.97170E-14
 -1      2492 2.09680E+01 1.45624E-01-5.09465E-04 1.45286E+00-3.12282E-13 2.18634E-13
 -1      2493 2.07825E+01 8.23374E-01 2.84515E-03 2.51523E+00-2.06063E-13-4.83322E-13
 -1      2494 2.09373E+01 4.91860E-01 9.89952E-03 2.21656E+00-3.43112E-13-1.02305E-15
 -1      2495 2.12542E+01-1.16207E-01-1.17288E-02 2.17411E+00-3.70601E-13 1.23384E-14
 -1      2496 2.08362E+01 2.42581E-01-1.56828E-02 2.97704E+00 2.86296E-14-2.75258E-13
 -1      2497 1.81686E+01 3.27782E+00-3.78493E-02 1.75903E+00-7.57894E-14 2.45309E-13
 -1      2498 1.86274E+01 2.98523E+00 2.23780E-02 2.33089E+00 3.95079E-14 1.80973E-13
 -1      2499 1.85375E+01 1.93394E+00 1.23920E-02 2.97171E+00 5.47101E-14 8.32581E-15
 -1      2500 1.77438E+01 3.67512E+00-1.94199E-02 9.24796E-02-9.08337E-14 9.99027E-14
 -1      2501 1.78619E+01 3.60214E+00-3.40809E-03 8.88023E-01 1.31006E-14 2.88415E-13
 -1      2502 1.74230E+01 2.75974E+00 3.79018E-02 1.55443E+00-1.19502E-13 2.85995E-13
 -1      2503 1.81348E+01 3.39249E+00 5.79962E-03-1.61608E+00-2.13940E-13-4.77960E-13
 -1      2504 1.78397E+01 3.57281E+00-3.25075E-02-8.91737E-01-8.24707E-14-2.00857E-13
 -1      2505 1.71296E+01 2.97616E+00 4.05090E-02-4.73896E-01-2.08895E-13-2.37735E-14
 -1      2506 1.90761E+01 2.59056E+00 2.36809E-02-2.71963E+00 1.05051E-13-8.76221E-13
 -1      2507 1.85587E+01 2.94519E+00-4.20991E-02-2.31143E+00-3.77910E-15-6.65887E-13
 -1      2508 1.78447E+01 2.45275E+00 2.44922E-02-2.29034E+00-5.70278E-14-4.43097E-13
 -1      2509 2.00823E+01 1.62344E+00 2.54710E-02-3.00625E+00 4.01360E-13 5.60373E-14
 -1      2510 1.95919E+01 2.04924E+00-2.99995E-02-2.95667E+00 3.12284E-13-6.27980E-13
 -1      2511 1.91130E+01 1.51623E+00-2.72686E-03-3.26391E+00 3.25497E-13-6.03888E-13
 -1      2512 2.07446E+01 8.28713E-01 1.41207E-02-2.61628E+00 3.84570E-13 3.37076E-13
 -1      2513 2.04558E+01 1.21779E+00-8.98672E-03-2.82862E+00 3.13344E-13 4.88434E-13
 -1      2514 2.03323E+01 6.34635E-01-1.60860E-02-3.28016E+00 4.17507E-13 1.74773E-13
 -1      2515 2.09804E+01 3.63744E-01 1.06247E-02-1.90712E+00 1.13896E-13-1.59126E-13
 -1      2516 2.09035E+01 6.50362E-01 1.16863E-02-2.22220E+00 2.96247E-13-6.23199E-15
 -1      2517 2.10993E+01 1.11844E-01 2.65300E-03-2.65461E+00 1.48892E-13 8.25426E-14
 -1      2518 5.34361E+00-3.69906E+00 5.42348E-02 4.14131E+00-2.99899E-13 4.35763E-14
 -1      2519 4.23842E+00-2.98688E+00 1.20425E-01 1.61840E+00-3.93852E-13 2.56017E-13
 -1      2520 1.17789E+01-4.88942E+00 5.21068E-02 7.38999E+00-4.02567E-13 5.80563E-13
 -1      2521 7.95189E+00-4.45171E+00 9.21962E-02 5.80575E+00-2.76890E-13 2.41862E-13
 -1      2522 9.17609E+00-2.70687E+00 1.64167E-01 5.05070E+00-3.07365E-13 2.48274E-13
 -1      2523 3.94555E+00-3.26580E+00 7.86347E-02-1.70372E+00-2.90497E-13 4.21552E-13
 -1      2524 5.37396E+00-4.11488E+00 5.09187E-02-4.43406E+00-3.29625E-13 4.53970E-13
 -1      2525 1.97048E+01 1.43235E-01 3.21390E-03 6.01582E-02 1.49736E-13 1.14280E-13
 -1      2526 1.97834E+01 1.98108E-01 1.23620E-02 1.46306E-01 1.93988E-13 1.42114E-13
 -1      2527 1.98492E+01 1.80868E-01-3.88325E-03 6.56182E-02 1.84210E-13-1.69335E-14
 -1      2528 2.07003E+01 3.75627E-01-1.02425E-02-1.20428E+00 6.85788E-14 9.23150E-14
 -1      2529 1.93326E+01-6.13015E+00 2.45350E-02 7.55432E+00-6.33382E-13 4.02714E-13
 -1      2530 1.60721E+01-5.78575E+00 1.17764E-01 7.51683E+00-5.61134E-13 5.05360E-13
 -1      2531 2.05475E+01 1.95496E+00-1.38984E-02-1.89796E+00-4.62571E-13-9.40550E-14
 -1      2532 2.04139E+01 1.21526E+00-6.10440E-03-1.28652E+00-4.19313E-13-4.78456E-14
 -1      2533 2.03790E+01 1.37466E+00 5.47655E-03-1.23479E+00-3.86378E-13-1.43491E-13
 -1      2534 2.02886E+01 2.38490E+00-5.28665E-03-1.84322E+00-4.47926E-13-2.15666E-13
 -1      2535 3.14142E+01-1.54355E+00-1.04220E-01 1.97494E+00-9.55035E-14 3.03091E-13
 -1      2536 2.94111E+01-3.31698E+00-1.43562E-02 3.02820E+00-1.88904E-13 3.70537E-13
 -1      2537 1.17039E+01-5.60945E+00 3.31890E-02 6.72346E+00 1.20237E-13-1.54016E-13
 -1      2538 8.44011E+00-5.01975E+00 7.97739E-02 5.78980E+00 2.32481E-13-3.64764E-13
 -1      2539 1.95189E+01 3.58476E+00-1.00875E-02-2.45313E-01 1.68911E-15-5.66009E-13
 -1      2540 1.95349E+01 3.56406E+00-9.66568E-03-4.26061E-01-5.72346E-14-5.52293E-13
 -1      2541 1.97113E+01 3.16342E+00-6.09962E-04-4.73498E-01-7.39220E-14-5.04957E-13
 -1      2542 1.96770E+01 3.22335E+00-9.35591E-04-1.52037E-01 1.49055E-14-5.36306E-13
 -1      2543 3.10449E+01-5.81406E-01-4.47869E-02 2.41607E-01 1.74208E-13 5.16698E-13
 -1      2544 3.22544E+01 1.43086E+00-1.64228E-01 9.95045E-01 2.82163E-13 6.37407E-13
 -1      2545 3.35931E+01 7.43485E+00-1.16527E-01 1.11859E+00 5.14699E-13 6.33160E-13
 -1      2546 3.37102E+01 7.77626E+00-1.12770E-01 5.55495E-01 3.12195E-13 4.03903E-13
 -1      2547 3.20521E+01-9.76954E-02-8.05863E-02-3.97639E-01-3.40894E-13 4.40925E-13
 -1      2548 2.96887E+01-2.56406E+00-3.30057E-02 7.45403E-01-1.81882E-13 5.92804E-13
 -1      2549 3.28523E+01 4.35530E+00-9.52518E-02 1.55634E+00 4.73621E-13 6.43319E-13
 -1      2550 3.37647E+01 6.20296E+00-1.20990E-01 1.47722E+00 7.16649E-13 9.18432E-13
 -1      2551 2.65539E+01-4.69369E+00 1.40289E-02-3.20448E+00 6.86673E-14 6.77680E-13
 -1      2552 2.93239E+01-3.14977E+00-1.37304E-01-1.67703E+00 1.08885E-13 5.73486E-13
 -1      2553 1.90922E+01-6.20844E+00 2.70062E-02-6.13520E+00-1.52101E-13-5.14727E-14
 -1      2554 2.30231E+01-5.74546E+00-8.45392E-02-5.39918E+00-8.90399E-14 3.85317E-13
 -1      2555 1.11766E+01-5.74481E+00 3.72955E-02-6.56869E+00 1.19904E-14-5.04097E-13
 -1      2556 1.49372E+01-5.96164E+00-9.34651E-03-7.04323E+00-8.23785E-14-5.18280E-13
 -1      2557 5.37025E+00-4.35745E+00 7.44443E-02-4.48903E+00 4.09672E-14-3.17413E-13
 -1      2558 7.91116E+00-4.87979E+00 4.50882E-02-6.02045E+00 8.99558E-14-4.10283E-13
 -1      2559 2.78173E+00-3.52677E+00 8.07812E-02 1.58258E-01-1.02789E-13-2.88158E-13
 -1      2560 3.37131E+00-3.65858E+00 6.55699E-02-2.43390E+00 4.02456E-15-3.11862E-13
 -1      2561 5.24645E+00-4.13720E+00 5.60765E-02 4.40082E+00 6.85285E-14-3.96405E-13
 -1      2562 3.47007E+00-3.86769E+00 7.50490E-02 2.40064E+00-3.82749E-14-1.14520E-13
 -1      2563 1.84988E+01-6.21705E+00-5.76880E-02 6.46532E+00 1.31228E-13 4.99739E-14
 -1      2564 1.48547E+01-6.22569E+00 2.83339E-02 6.55690E+00 1.02029E-13 5.52336E-15
 -1      2565 1.47622E+01-5.41338E+00 1.20394E-01 6.49825E+00 2.46109E-13 2.49106E-14
 -1      2566 2.66866E+01-4.99549E+00-1.04929E-01 3.21826E+00-3.40283E-14 5.91527E-13
 -1      2567 2.28919E+01-5.98182E+00 3.91962E-02 4.87875E+00 1.62009E-13 2.69951E-13
 -1      2568 3.36225E+01 4.56255E+00-1.28372E-01-1.66433E+00-1.93234E-13-2.19658E-13
 -1      2569 3.25825E+01 2.63939E+00-9.19023E-02-1.51844E+00-2.96818E-13 1.66533E-15
 -1      2570 3.29637E+01 7.21511E+00-1.92616E-01-1.37530E+00-3.05256E-13-4.04121E-13
 -1      2571 3.35158E+01 6.17765E+00-1.04105E-01-1.66755E+00-3.89966E-13-2.65898E-13
 -1      2572 3.11670E+01 4.90682E+00-5.70635E-02-2.41914E+00-1.80717E-13-3.79946E-13
 -1      2573 3.29943E+01 6.72134E+00-1.50454E-01 3.00024E-01-3.51219E-13-2.63900E-13
 -1      2574 3.27884E+01 7.50784E+00-1.67790E-01-3.68136E-01-3.33400E-13-3.15347E-13
 -1      2575 3.28526E+01 3.10822E+00-6.89151E-02 5.55082E-01-2.07223E-13-2.63067E-13
 -1      2576 3.34113E+01 5.02411E+00-1.48387E-01 5.48134E-01-2.51993E-13-3.23325E-13
 -1      2577 3.06957E+01-2.14097E+00 1.30695E-03-2.04848E+00-1.09600E-14-2.94820E-13
 -1      2578 3.24451E+01 1.50422E-01-1.46625E-01-6.93161E-01 3.71925E-15-1.28453E-13
 -1      2579 2.52307E+01-5.67451E+00 3.50419E-02-5.35354E+00 7.07767E-14-6.38822E-13
 -1      2580 2.85490E+01-4.26060E+00-5.44727E-02-4.13310E+00-8.43214E-14-5.74624E-13
 -1      2581 1.61719E+01-6.27630E+00 6.80776E-02-7.50360E+00 3.47333E-13 4.34028E-13
 -1      2582 2.07311E+01-6.28825E+00-4.24888E-02-7.13766E+00 2.56073E-13-7.76740E-14
 -1      2583 7.78771E+00-4.94087E+00 5.84849E-02-5.95813E+00-1.01891E-13 5.16004E-13
 -1      2584 1.13038E+01-5.35750E+00-1.23781E-02-7.45353E+00 1.60538E-13 4.78922E-13
 -1      2585 8.72578E+00-3.14805E+00 1.67072E-01-5.21522E+00 1.16018E-14 2.85161E-13
 -1      2586 2.04908E+01 8.74879E-01-7.31812E-03 1.22669E+00 4.43645E-13 3.09984E-13
 -1      2587 2.08413E+01 1.25693E+00-6.04548E-03 1.72739E+00 4.74096E-13 3.73979E-13
 -1      2588 2.06472E+01 1.71567E+00-1.57758E-02 1.92155E+00 5.16824E-13 2.13919E-13
 -1      2589 2.04494E+01 1.05783E+00-9.40376E-03 1.24150E+00 4.46957E-13 1.31284E-13
 -1      2590 2.66904E+01-5.09710E+00-4.40913E-02 5.11631E+00-4.14113E-13 4.57440E-13
 -1      2591 2.26558E+01-6.22769E+00 2.33615E-02 6.27927E+00-6.16174E-13 4.26575E-13
 -1      2592 2.23792E+01-6.05286E+00 6.33632E-02 6.28667E+00-7.51454E-13 4.80768E-13
 -1      2593 3.11679E+01 2.59197E+00-5.60657E-02 2.18211E+00 3.97404E-13 7.68940E-13
 -1      2594 1.99141E+01 2.81680E+00 3.25438E-03-1.10049E+00-2.56174E-13-4.82008E-13
 -1      2595 1.97804E+01 3.16025E+00-1.50085E-02-1.28545E+00-2.79796E-13-5.10376E-13
 -1      2596 1.98749E+01 3.03580E+00-1.82881E-02-1.48163E+00-3.45151E-13-4.70053E-13
 -1      2597 1.99949E+01 3.40043E-01-3.66428E-03 3.04658E-01 2.66291E-13 3.67406E-14
 -1      2598 2.04227E+01 2.11577E+00-1.27847E-02 1.87458E+00 5.06713E-13 1.86032E-14
 -1      2599 2.80768E+01-4.81784E+00 2.39923E-02 3.38579E+00-5.20334E-13 3.13249E-13
 -1      2600 3.11330E+01-8.79752E-01-1.75016E-02 2.77924E-01-1.28397E-13-4.45755E-14
 -1      2601 1.52651E+01-5.13495E+00 1.49015E-01-7.34331E+00 2.41446E-13 2.82316E-13
 -1      2602 1.54692E+01-4.63913E+00 1.43917E-01 7.22074E+00-5.11202E-13 4.42910E-13
 -1      2603 2.36691E+01-6.18732E+00 3.47130E-02-5.98478E+00 9.14269E-14-5.06678E-13
 -1      2604 2.56974E+01-5.90668E+00-6.71509E-02-4.49803E+00 1.28703E-13-6.92391E-13
 -1      2605 2.21261E+01-5.90118E+00 1.22488E-01-6.38778E+00 3.48721E-13-3.64809E-13
 -1      2606 2.07420E+01 5.37056E-02-2.70180E-03 7.75660E-01-3.55789E-13 5.49207E-13
 -1      2607 2.08543E+01 1.34864E-01 8.79948E-03 1.00885E+00-2.77348E-13 4.14233E-13
 -1      2608 2.95253E+01-3.75434E+00-5.54979E-03-2.14170E+00 8.11712E-14-4.53471E-13
 -1      2609 6.15033E+00-1.90633E+00 1.67813E-01-9.99577E-02-3.86354E-13 4.32876E-13
 -1      2610 3.14349E+01 1.01342E+00-4.32420E-02 6.66365E-01 3.07671E-14-4.59910E-13
 -1      2611 2.04366E+01 1.80829E+00 1.26239E-02 1.56230E+00 4.62026E-13-1.59881E-14
 -1      2612 2.01147E+01 2.62147E+00-1.13081E-02-1.67940E+00-4.00621E-13-3.25924E-13
 -1      2613 3.06669E+01 6.82910E+00-9.72992E-02-9.17335E-01-3.61322E-13-3.28501E-13
 -1      2614 2.17011E+01-6.09874E+00 1.01590E-01 5.20701E+00 2.82357E-13 3.66915E-13
 -1      2615 8.58195E+00-3.71261E+00 1.48825E-01 5.13582E+00 2.10137E-13-3.00981E-13
 -1      2616 4.94055E+00-2.36173E+00 1.76463E-01 1.17422E+00-8.22606E-14-1.63647E-13
 -1      2617 6.20047E+00-2.81831E+00 1.69662E-01-3.44452E+00 4.77257E-14-3.74006E-13
 -1      2618 1.13136E+01-4.58305E+00 1.30397E-01-6.29913E+00 1.89848E-14-3.83332E-13
 -1      2619 1.83757E+01-5.95130E+00 9.80178E-02-6.32270E+00-1.92346E-13-2.92301E-14
 -1      2620 2.53766E+01-5.52200E+00 4.82438E-02-3.63664E+00-1.21958E-13 6.89962E-13
 -1      2621 3.10838E+01 7.47407E-01-6.50557E-02-1.91386E+00-1.98425E-13-1.92901E-14
 -1      2622 3.25487E+01 4.17491E+00-6.70794E-02-7.50880E-01 6.55254E-13 5.35683E-15
 -1      2623 3.07204E+01 2.55264E+00-5.88141E-02-1.23700E+00 4.56468E-13 2.63678E-15
 -1      2624 3.07680E+01 5.03876E+00-2.47028E-01-1.24890E+00 5.75540E-13 4.89608E-14
 -1      2625 3.19989E+01 7.29452E+00-7.75413E-02 2.03723E-01 3.77920E-13 3.55840E-13
 -1      2626 3.12956E+01 6.44498E+00-6.84979E-02 1.73049E+00 4.62186E-13 5.99423E-13
 -1      2627 2.88966E+01-3.21831E+00-1.20779E-01-3.74323E-01-1.72893E-13 2.95181E-13
 -1      2628 2.84547E+01-4.17449E+00-8.52514E-03 1.48380E+00-1.22041E-13 3.65263E-13
 -1      2629 2.66684E+01-5.13503E+00 1.62899E-02 2.18036E+00 3.26128E-14 3.55327E-13
 -1      2630 2.96146E+01-2.44234E+00-8.11716E-03 1.53442E-01 8.53571E-14 6.78291E-13
 -1      2631 2.10949E+01-1.04685E-02 1.31836E-02-1.17598E+00-6.86190E-14 9.02668E-14
 -1      2632 2.10368E+01 2.30563E-01 9.00409E-03-1.56330E+00 1.06579E-13-2.85496E-14
 -1      2633 2.13379E+01-1.96065E-01-1.57775E-02-1.87243E+00 1.79360E-14-1.35366E-13
 -1      2634 2.13364E+01-2.88574E-01-1.97868E-02-1.16972E+00-1.91463E-13 1.63752E-13
 -1      2635 3.08530E+01 5.40177E+00-8.46725E-02 9.61457E-01-3.17552E-13-2.30371E-13
 -1      2636 2.11860E+01-2.11289E-01-8.52497E-03 1.24940E+00-3.36687E-13 4.50748E-13
 -1      2637 2.17056E+01-5.38598E-01-2.97542E-05-1.42405E+00-1.10155E-13 8.21754E-14
 -1      2638 1.98448E+01 2.76483E+00-6.31035E-03 5.16373E-01 1.93534E-13-4.62314E-13
 -1      2639 1.98201E+01 2.81455E+00-5.69272E-03 3.65469E-01 1.46988E-13-4.65170E-13
 -1      2640 1.98032E+01 2.85205E+00-5.60540E-03 2.29842E-01 1.02534E-13-5.00702E-13
 -1      2641 1.97945E+01 2.86888E+00-5.47845E-03 7.51789E-02 7.63911E-14-5.05647E-13
 -1      2642 1.99497E+01 2.50068E+00 3.66910E-03 2.65299E-01 1.08226E-13-4.49360E-13
 -1      2643 2.00416E+01 2.32245E+00-1.16241E-02 1.04372E+00 3.70107E-13-3.21964E-13
 -1      2644 1.99771E+01 2.47280E+00-6.87674E-03 9.11208E-01 3.30833E-13-3.58207E-13
 -1      2645 2.02179E+01 1.91259E+00-1.03983E-02 1.22869E+00 4.09959E-13-2.03519E-13
 -1      2646 2.01257E+01 2.14536E+00-4.69586E-03 1.13533E+00 3.77997E-13-2.70002E-13
 -1      2647 2.01977E+01 1.88569E+00 8.56321E-03 9.29884E-01 3.37951E-13-2.71345E-13
 -1      2648 2.02109E+01 7.26074E-01-4.28758E-03 6.42702E-01 3.31147E-13-3.22136E-14
 -1      2649 2.03556E+01 9.52327E-01 9.64952E-03 9.06912E-01 3.66215E-13-1.44043E-14
 -1      2650 2.01887E+01 2.27582E+00 3.70673E-03-1.42725E+00-3.71399E-13-3.20044E-13
 -1      2651 2.00691E+01 4.15101E-01-1.99647E-03 2.87976E-01 2.46190E-13-5.50988E-14
 -1      2652 2.01729E+01 5.54352E-01 1.10056E-02 4.51081E-01 2.92302E-13-3.13362E-14
 -1      2653 2.02530E+01 8.21314E-01-7.58864E-05 6.18079E-01 3.24891E-13-1.12381E-13
 -1      2654 1.39905E+01-3.92641E+00 1.67729E-01-6.92869E+00 1.65840E-13 1.55376E-13
 -1      2655 1.78577E+01-5.20654E+00 8.96058E-03-7.18323E+00 4.16778E-13-3.12250E-14
 -1      2656 9.16204E+00-1.69717E+00 1.68378E-01-4.19411E+00 1.56486E-13 2.25125E-13
 -1      2657 1.11920E+01-2.71411E+00 9.27942E-02-5.99535E+00 2.56392E-13 1.50990E-13
 -1      2658 2.02271E+01 6.23564E-01 1.15915E-02-4.34332E-01-2.49017E-13-1.65012E-13
 -1      2659 2.01327E+01 4.71880E-01-4.13661E-03-2.78655E-01-2.10838E-13-1.74908E-13
 -1      2660 2.01059E+01 3.62536E-01 6.72082E-03-1.58827E-01-1.91505E-13-1.65930E-13
 -1      2661 2.00466E+01 2.67538E-01-1.80107E-03-6.14026E-02-1.80235E-13-1.90431E-13
 -1      2662 2.01961E+01 5.28394E-01-1.37949E-03-2.63152E-01-2.18544E-13-1.98600E-13
 -1      2663 2.00207E+01 1.97339E-01 4.55269E-03 1.38895E-02-1.54952E-13-1.79554E-13
 -1      2664 1.99849E+01 1.37767E-01-8.26150E-04 7.04243E-02-1.26043E-13-1.75344E-13
 -1      2665 2.01262E+01 2.98571E-01-2.01463E-03-5.59145E-02-1.77439E-13-1.94738E-13
 -1      2666 1.99639E+01 9.36430E-02 2.90859E-03 1.13718E-01-1.25815E-13-1.94896E-13
 -1      2667 1.99458E+01 5.63999E-02-2.89644E-04 1.43115E-01-1.38454E-13-2.04736E-13
 -1      2668 2.00697E+01 1.52240E-01-1.87994E-03 7.12350E-02-1.40930E-13-2.45474E-13
 -1      2669 1.99308E+01 2.90036E-02 1.73825E-03 1.64563E-01-1.41908E-13-2.15158E-13
 -1      2670 1.99248E+01 6.33744E-03 9.34343E-06 1.76455E-01-1.56789E-13-2.36405E-13
 -1      2671 2.00286E+01 5.99768E-02-1.51894E-03 1.42144E-01-1.51570E-13-2.61956E-13
 -1      2672 1.99150E+01-1.00206E-02 9.30848E-04 1.83572E-01-1.51241E-13-1.84763E-13
 -1      2673 1.99169E+01-2.29657E-02 1.71214E-04 1.84572E-01-1.55122E-13-1.48078E-13
 -1      2674 2.00013E+01 3.21132E-03-1.14404E-03 1.74925E-01-1.23188E-13-2.25920E-13
 -1      2675 1.99111E+01-3.19069E-02 3.90165E-04 1.82804E-01-1.37498E-13-8.83218E-14
 -1      2676 1.99176E+01-3.83051E-02 2.56426E-04 1.77464E-01-9.88663E-14-8.83656E-14
 -1      2677 1.99848E+01-2.97678E-02-8.27467E-04 1.83036E-01-1.04851E-13-2.51740E-14
 -1      2678 1.99148E+01-4.22272E-02 4.11645E-05 1.70685E-01-1.06533E-13-7.72125E-14
 -1      2679 1.99237E+01-4.42058E-02 3.01509E-04 1.62145E-01-9.51470E-14-8.77384E-14
 -1      2680 1.99761E+01-4.66539E-02-5.82994E-04 1.76218E-01-9.24882E-14-4.01001E-14
 -1      2681 1.99229E+01-4.47243E-02-1.73347E-04 1.53083E-01-8.70832E-14-7.89768E-14
 -1      2682 1.99330E+01-4.37146E-02 3.28671E-04 1.43506E-01-6.84336E-14-7.40681E-14
 -1      2683 1.99731E+01-5.26190E-02-4.04553E-04 1.61407E-01-9.40029E-14-1.43843E-13
 -1      2684 1.99336E+01-4.19115E-02-2.96492E-04 1.34069E-01-6.28231E-14-5.50727E-14
 -1      2685 1.99440E+01-3.88554E-02 3.52333E-04 1.24957E-01-1.52786E-14-8.24215E-14
 -1      2686 1.99738E+01-5.11543E-02-2.81137E-04 1.43489E-01-6.19184E-14-1.00355E-13
 -1      2687 1.99456E+01-3.54284E-02-3.60508E-04 1.16490E-01-4.16222E-14-1.02203E-13
 -1      2688 1.99560E+01-3.09081E-02 3.82953E-04 1.08906E-01-6.85252E-14-9.25153E-14
 -1      2689 1.99771E+01-4.45682E-02-2.01342E-04 1.25909E-01-4.04015E-14-6.24401E-14
 -1      2690 1.99583E+01-2.62675E-02-3.89410E-04 1.02386E-01-8.26611E-14-5.98888E-14
 -1      2691 1.99687E+01-2.05927E-02 4.28694E-04 9.71262E-02-5.74576E-14-7.89283E-14
 -1      2692 1.99822E+01-3.43015E-02-1.55392E-04 1.11131E-01-7.44519E-14-7.70956E-14
 -1      2693 1.99715E+01-1.49295E-02-4.01006E-04 9.33151E-02-8.60713E-14-1.01044E-13
 -1      2694 1.99822E+01-8.20166E-03 4.96342E-04 9.10362E-02-1.04747E-13-9.68714E-14
 -1      2695 1.99887E+01-2.11391E-02-1.35341E-04 1.01003E-01-9.39221E-14-1.14704E-13
 -1      2696 1.99856E+01-1.53882E-03-4.08591E-04 9.05991E-02-1.06605E-13-9.47550E-14
 -1      2697 1.99969E+01 6.29986E-03 5.91748E-04 9.19151E-02-1.08302E-13-1.08893E-13
 -1      2698 1.99964E+01-5.36559E-03-1.34661E-04 9.70352E-02-9.30199E-14-2.14975E-14
 -1      2699 2.00009E+01 1.40668E-02-4.22257E-04 9.55066E-02-6.03904E-14-1.32886E-13
 -1      2700 2.00135E+01 2.31934E-02 7.20030E-04 1.01062E-01-5.27203E-14-8.77119E-14
 -1      2701 2.00054E+01 1.31153E-02-1.47797E-04 1.00613E-01-9.43038E-14-6.26327E-14
 -1      2702 2.00182E+01 3.22607E-02-4.49782E-04 1.09390E-01-7.89531E-14-9.52890E-14
 -1      2703 2.00329E+01 4.29340E-02 8.85375E-04 1.19909E-01-3.83858E-14-7.87503E-14
 -1      2704 2.00158E+01 3.46819E-02-1.69709E-04 1.13151E-01-5.73032E-14-9.69269E-15
 -1      2705 2.00383E+01 5.35539E-02-4.97179E-04 1.33777E-01-1.66313E-14-1.05082E-13
 -1      2706 2.00561E+01 6.60731E-02 1.09054E-03 1.50093E-01 4.12533E-15-1.42679E-13
 -1      2707 2.00279E+01 5.99028E-02-1.95386E-04 1.36201E-01-7.14832E-14-7.27311E-14
 -1      2708 2.00624E+01 7.85096E-02-5.68834E-04 1.70415E-01 1.89666E-14-1.79237E-13
 -1      2709 2.00842E+01 9.31601E-02 1.33603E-03 1.93469E-01 6.15607E-14-1.63014E-13
 -1      2710 2.00420E+01 8.94337E-02-2.19463E-04 1.71512E-01-1.82305E-14-5.98250E-14
 -1      2711 2.00915E+01 1.07628E-01-6.67095E-04 2.21265E-01 5.99410E-14-2.16051E-13
 -1      2712 2.01184E+01 1.24603E-01 1.61882E-03 2.52078E-01 2.01671E-14-1.98197E-13
 -1      2713 2.00585E+01 1.23886E-01-2.36127E-04 2.21037E-01 1.02673E-14-2.18208E-13
 -1      2714 2.01268E+01 1.41175E-01-7.91008E-04 2.88426E-01 3.34339E-14-2.15514E-13
 -1      2715 2.01601E+01 1.60451E-01 1.93072E-03 3.28014E-01 2.41072E-15-2.10946E-13
 -1      2716 2.00777E+01 1.63634E-01-2.39627E-04 2.86872E-01 1.68310E-14-2.61354E-13
 -1      2717 2.01696E+01 1.78912E-01-9.33697E-04 3.73957E-01-6.18273E-14-1.95548E-13
 -1      2718 2.02105E+01 2.00057E-01 2.25629E-03 4.23186E-01-5.75833E-14-2.10554E-13
 -1      2719 2.00998E+01 2.08524E-01-2.26056E-04 3.71119E-01-3.53231E-15-1.42714E-13
 -1      2720 2.02214E+01 2.19670E-01-1.07756E-03 4.79580E-01-3.30750E-14-2.15009E-13
 -1      2721 2.02711E+01 2.41529E-01 2.57067E-03 5.38912E-01-2.64143E-14-1.93625E-13
 -1      2722 2.01250E+01 2.57409E-01-1.97491E-04 4.75638E-01-3.84986E-14-9.72477E-14
 -1      2723 2.02838E+01 2.60665E-01-1.18606E-03 6.06179E-01 3.67788E-14-1.83879E-13
 -1      2724 2.03437E+01 2.80886E-01 2.83748E-03 6.75277E-01 6.63022E-14-1.62518E-13
 -1      2725 2.01539E+01 3.07435E-01-1.70362E-04 6.01656E-01 3.31453E-14-5.57641E-14
 -1      2726 2.03592E+01 2.96465E-01-1.19037E-03 7.53041E-01-2.80656E-14-1.44458E-13
 -1      2727 2.04309E+01 3.10774E-01 3.00701E-03 8.30162E-01-1.01645E-13-1.06117E-13
 -1      2728 2.01874E+01 3.52928E-01-1.90729E-04 7.49193E-01 2.55044E-14-1.19249E-14
 -1      2729 2.04518E+01 3.17447E-01-9.69165E-04 9.16718E-01-6.13934E-14-6.68727E-14
 -1      2730 2.05375E+01 3.18656E-01 3.01374E-03 9.97831E-01 7.51988E-14-7.24617E-14
 -1      2731 2.02282E+01 3.83769E-01-3.59804E-04 9.16253E-01-6.31532E-14 2.86632E-14
 -1      2732 2.05690E+01 3.07737E-01-3.20524E-04 1.08936E+00 1.36844E-13-4.73578E-14
 -1      2733 2.06724E+01 2.84517E-01 2.76741E-03 1.16691E+00 1.04504E-13-3.86513E-15
 -1      2734 2.02826E+01 3.83150E-01-8.72269E-04 1.09768E+00 5.36950E-14 3.49386E-14
 -1      2735 2.07248E+01 2.42853E-01 1.07101E-03 1.25630E+00 3.33168E-14-2.05638E-14
 -1      2736 2.08519E+01 1.78670E-01 2.12362E-03 1.31757E+00-6.47160E-14-3.20598E-14
 -1      2737 2.03635E+01 3.24864E-01-2.06448E-03 1.28350E+00 5.77371E-14-9.71349E-14
 -1      2738 2.09438E+01 8.81396E-02 3.65908E-03 1.39246E+00-1.31618E-13-6.04247E-14
 -1      2739 2.11046E+01-3.85249E-02 8.00017E-04 1.41756E+00-1.19791E-13-7.76677E-14
 -1      2740 2.04954E+01 1.70958E-01-4.44896E-03 1.45633E+00-4.98775E-14-2.03189E-14
 -1      2741 2.12665E+01-1.99122E-01 7.97738E-03 1.45706E+00-1.81424E-13-3.11540E-15
 -1      2742 2.14746E+01-4.10486E-01-1.72770E-03 1.41682E+00-1.79963E-13 5.76558E-14
 -1      2743 2.07219E+01-1.27740E-01-8.66128E-03 1.58679E+00-1.11941E-13 7.77271E-14
 -1      2744 2.17507E+01-6.57419E-01 1.44261E-02 1.38615E+00-2.34396E-13 4.79695E-14
 -1      2745 2.20185E+01-9.62868E-01-6.39390E-03 1.24132E+00-2.33994E-13-2.44118E-14
 -1      2746 2.11115E+01-6.22112E-01-1.51175E-02 1.62510E+00-2.73840E-13 2.29889E-13
 -1      2747 2.24606E+01-1.28698E+00 2.22245E-02 1.08421E+00-1.45976E-13 9.27090E-14
 -1      2748 2.27842E+01-1.65158E+00-1.46066E-02 7.90572E-01-1.60275E-14-1.45433E-14
 -1      2749 2.17572E+01-1.33412E+00-2.31276E-02 1.48778E+00-1.90739E-13 2.12890E-13
 -1      2750 2.34193E+01-1.97449E+00 2.64856E-02 4.24962E-01 6.88507E-14-3.54300E-14
 -1      2751 2.37584E+01-2.25971E+00-2.34196E-02-4.32102E-02 1.33584E-13 1.16500E-14
 -1      2752 2.27531E+01-2.18428E+00-3.01235E-02 1.03508E+00-7.98667E-15 2.62686E-13
 -1      2753 2.45005E+01-2.37493E+00 1.69862E-02-6.63376E-01 9.83115E-14-1.30297E-13
 -1      2754 2.47668E+01-2.31289E+00-2.34743E-02-1.23630E+00 2.72603E-14-1.12175E-13
 -1      2755 2.40544E+01-2.84591E+00-4.32172E-02 8.93322E-02 4.53153E-14-1.89102E-13
 -1      2756 2.54338E+01-1.94129E+00-8.92053E-03-2.06434E+00 2.01020E-14-1.74114E-13
 -1      2757 2.54734E+01-1.18689E+00-1.05837E-02-2.54124E+00 1.01067E-13-2.33689E-13
 -1      2758 2.55335E+01-2.69630E+00-5.31818E-02-1.37208E+00-4.77500E-14-2.29866E-13
 -1      2759 2.56219E+01-9.69932E-02-8.38521E-02-3.06568E+00 2.39454E-13-2.39479E-13
 -1      2760 2.54116E+01 1.14601E+00-3.97101E-02-2.99267E+00 1.99479E-13-1.45075E-13
 -1      2761 2.64929E+01-9.80148E-01-2.40178E-02-2.75456E+00 2.29376E-13-2.22568E-13
 -1      2762 2.48343E+01 4.00113E+00-6.83583E-02-7.69400E-01-1.02696E-13-3.18523E-13
 -1      2763 2.48419E+01 3.75289E+00-1.10646E-01 2.54579E-01-1.26038E-13-5.33048E-13
 -1      2764 2.50343E+01 2.86713E+00-5.17893E-02 1.26418E+00-6.10484E-14-6.98515E-13
 -1      2765 2.52047E+01 1.60313E+00-1.19059E-01 1.75058E+00-4.16195E-14-6.36917E-13
 -1      2766 2.63328E+01 3.97907E+00-9.28226E-02 8.80633E-01-1.54599E-13-6.30170E-13
 -1      2767 2.53330E+01 3.15209E-01-4.40569E-03 1.77492E+00-9.36126E-14-4.84136E-13
 -1      2768 2.54338E+01-8.69769E-01-2.78563E-02 1.61789E+00 2.24061E-14-4.55329E-13
 -1      2769 2.65646E+01 1.07798E+00-5.62432E-02 1.86992E+00-3.03368E-14-4.84085E-13
 -1      2770 2.49269E+01-1.72674E+00-4.22715E-02 8.46385E-01 5.02601E-14-3.40914E-13
 -1      2771 2.47324E+01-2.10609E+00-2.74370E-03 3.39653E-01 2.61180E-14-2.03737E-13
 -1      2772 2.61483E+01-1.77730E+00-8.44045E-02 1.02551E+00 1.64018E-13-1.17411E-13
 -1      2773 2.40305E+01-2.22108E+00-2.01075E-02-3.90542E-01-7.85656E-14-1.17068E-13
 -1      2774 2.36341E+01-2.04275E+00 2.55451E-02-8.97335E-01 5.03113E-14-2.09208E-13
 -1      2775 2.49304E+01-2.60544E+00-9.55092E-03-3.82797E-01 9.99825E-14 8.50570E-14
 -1      2776 2.28707E+01-1.70373E+00-1.97515E-02-1.36814E+00 9.16342E-14-4.29783E-13
 -1      2777 2.24352E+01-1.24356E+00 2.10861E-02-1.66670E+00 3.02479E-14-3.64688E-13
 -1      2778 2.34325E+01-2.26998E+00-3.33190E-02-1.60431E+00-8.70675E-14-9.00443E-14
 -1      2779 1.98545E+01 4.90449E-02 5.78845E-05-1.43180E-01 1.54228E-13-9.97654E-14
 -1      2780 1.98686E+01 8.09092E-02 3.17826E-03-1.14936E-01 1.54740E-13-1.02210E-13
 -1      2781 1.98916E+01 1.18514E-01-2.26342E-04-7.05445E-02 1.51152E-13-1.14134E-13
 -1      2782 1.99274E+01 1.70200E-01 5.25671E-03-1.51226E-02 1.70201E-13-8.92842E-14
 -1      2783 1.99914E+01 1.35086E-01-2.30426E-03-7.20408E-02 1.64368E-13-1.51414E-13
 -1      2784 1.98426E+01-1.82073E-02 2.49285E-04-1.83652E-01 7.79468E-14-5.07368E-14
 -1      2785 1.98343E+01-7.21672E-03 8.82538E-04-1.83175E-01 9.86101E-14-6.02301E-14
 -1      2786 1.98538E+01-3.13106E-02 2.65396E-04-1.76161E-01 1.34134E-13-9.11650E-14
 -1      2787 1.98409E+01-2.58315E-02 2.97012E-04-1.81791E-01 1.10382E-13-5.14993E-14
 -1      2788 1.99200E+01-2.46958E-02-8.58732E-04-1.86661E-01 1.20892E-13-5.59424E-14
 -1      2789 1.98700E+01-3.65519E-02 2.67569E-04-1.60519E-01 1.40577E-13-1.31437E-13
 -1      2790 1.98553E+01-3.47634E-02-6.63824E-05-1.69222E-01 1.28782E-13-1.18538E-13
 -1      2791 1.99201E+01-3.95937E-02-5.63423E-04-1.79365E-01 1.48565E-13-9.27881E-14
 -1      2792 1.98886E+01-3.65039E-02 2.70352E-04-1.41526E-01 5.29956E-14-9.47033E-14
 -1      2793 1.98735E+01-3.71910E-02-2.78059E-04-1.51234E-01 1.02637E-13-9.50389E-14
 -1      2794 1.99257E+01-4.51157E-02-3.57677E-04-1.63857E-01 1.04493E-13-1.20250E-13
 -1      2795 1.99078E+01-3.28718E-02 2.82557E-04-1.22491E-01 8.61210E-14-8.11022E-14
 -1      2796 1.98931E+01-3.52356E-02-3.88038E-04-1.31786E-01 6.99890E-14-8.21617E-14
 -1      2797 1.99345E+01-4.43079E-02-2.23022E-04-1.45074E-01 6.51164E-14-9.98770E-14
 -1      2798 1.99268E+01-2.67429E-02 3.10378E-04-1.05725E-01 4.25454E-14-6.90573E-14
 -1      2799 1.99129E+01-3.02844E-02-4.32138E-04-1.13617E-01 6.69214E-14-3.59754E-14
 -1      2800 1.99450E+01-3.91815E-02-1.43421E-04-1.26457E-01 6.01885E-14-8.46047E-15
 -1      2801 1.99456E+01-1.87468E-02 3.59099E-04-9.28991E-02 7.67618E-14-5.62931E-14
 -1      2802 1.99322E+01-2.31907E-02-4.36101E-04-9.86612E-02 7.91945E-14-6.40867E-14
 -1      2803 1.99566E+01-3.10035E-02-1.05702E-04-1.10439E-01 7.92933E-14-2.63381E-14
 -1      2804 1.99644E+01-9.16565E-03 4.33686E-04-8.53192E-02 1.17907E-13-5.27572E-14
 -1      2805 1.99513E+01-1.44067E-02-4.18481E-04-8.83666E-02 9.56514E-14-3.96052E-14
 -1      2806 1.99689E+01-2.04878E-02-9.98321E-05-9.88113E-02 8.09171E-14 2.36294E-14
 -1      2807 1.99840E+01 1.98110E-03 5.38879E-04-8.41337E-02 3.31645E-14 2.14105E-14
 -1      2808 1.99705E+01-4.07973E-03-3.92506E-04-8.39312E-02 5.79872E-14-1.95439E-14
 -1      2809 1.99819E+01-7.92945E-03-1.18524E-04-9.30063E-02 6.76481E-14 6.96180E-14
 -1      2810 2.00054E+01 1.48650E-02 6.79174E-04-9.04859E-02-4.76475E-14 1.80146E-13
 -1      2811 1.99907E+01 7.86988E-03-3.67506E-04-8.64815E-02 1.25632E-14 9.16993E-14
 -1      2812 1.99960E+01 6.69011E-03-1.56205E-04-9.43064E-02-8.50471E-15 7.47073E-14
 -1      2813 2.00301E+01 2.97826E-02 8.58356E-04-1.05618E-01-6.73608E-14 1.60745E-13
 -1      2814 2.00131E+01 2.16811E-02-3.49992E-04-9.71989E-02-3.93754E-14 1.64725E-13
 -1      2815 2.00119E+01 2.36127E-02-2.08499E-04-1.03999E-01-2.80254E-14 2.46740E-13
 -1      2816 2.00595E+01 4.70827E-02 1.07873E-03-1.30930E-01 6.59685E-14 2.94131E-14
 -1      2817 2.00391E+01 3.76845E-02-3.44285E-04-1.17401E-01-2.32362E-14 3.69633E-14
 -1      2818 2.00302E+01 4.32166E-02-2.71703E-04-1.23475E-01 2.16570E-14 9.48080E-14
 -1      2819 2.00956E+01 6.70753E-02 1.33983E-03-1.67983E-01 1.05411E-13 8.37271E-14
 -1      2820 2.00704E+01 5.62223E-02-3.52708E-04-1.48574E-01 1.55176E-13 7.66815E-14
 -1      2821 2.00521E+01 6.59183E-02-3.42352E-04-1.54284E-01 8.52285E-14-5.61112E-14
 -1      2822 2.01403E+01 8.99015E-02 1.63655E-03-2.18434E-01 4.14084E-14 2.15849E-14
 -1      2823 2.01089E+01 7.75411E-02-3.75276E-04-1.92344E-01 1.27011E-13 6.11404E-14
 -1      2824 2.00786E+01 9.20452E-02-4.17054E-04-1.98117E-01 1.02020E-13 1.82547E-14
 -1      2825 2.01959E+01 1.15343E-01 1.95641E-03-2.83886E-01-6.28147E-14 1.19463E-14
 -1      2826 2.01566E+01 1.01637E-01-4.08639E-04-2.50376E-01 2.76598E-14 1.09203E-14
 -1      2827 2.01109E+01 1.21655E-01-4.92838E-04-2.56728E-01 5.48890E-14 2.17818E-14
 -1      2828 2.02649E+01 1.42530E-01 2.27589E-03-3.65596E-01-1.08679E-13-1.36717E-13
 -1      2829 2.02160E+01 1.28020E-01-4.43925E-04-3.24158E-01-1.63295E-13-1.92291E-14
 -1      2830 2.01505E+01 1.54267E-01-5.68458E-04-3.31752E-01-6.82473E-14 2.04518E-14
 -1      2831 2.03498E+01 1.69506E-01 2.55562E-03-4.64009E-01-7.74916E-14-1.49149E-13
 -1      2832 2.02897E+01 1.55362E-01-4.62910E-04-4.14643E-01-4.45159E-14-1.53757E-13
 -1      2833 2.01990E+01 1.88461E-01-6.47420E-04-4.24384E-01-5.45240E-14-1.37965E-13
 -1      2834 2.04536E+01 1.92588E-01 2.73441E-03-5.78026E-01-7.61112E-14-1.56426E-13
 -1      2835 2.03806E+01 1.80967E-01-4.31801E-04-5.21661E-01-1.68830E-14-1.46611E-13
 -1      2836 2.02583E+01 2.21279E-01-7.43858E-04-5.34883E-01-4.91053E-14-1.30884E-13
 -1      2837 2.05795E+01 2.05471E-01 2.72223E-03-7.03925E-01 8.99618E-14-1.18913E-13
 -1      2838 2.04922E+01 2.00018E-01-2.91937E-04-6.43044E-01-3.47044E-14-1.66184E-13
 -1      2839 2.03311E+01 2.47372E-01-8.92606E-04-6.61830E-01-4.41698E-14-2.16030E-13
 -1      2840 2.07319E+01 1.98100E-01 2.39239E-03-8.33828E-01-5.41943E-14-1.67801E-14
 -1      2841 2.06290E+01 2.04553E-01 5.24560E-05-7.73342E-01 1.30163E-14-7.19018E-14
 -1      2842 2.04214E+01 2.57830E-01-1.16441E-03-8.01049E-01-3.08319E-14-2.01304E-13
 -1      2843 2.09166E+01 1.55508E-01 1.57398E-03-9.53640E-01 3.08612E-14 3.34721E-14
 -1      2844 2.07971E+01 1.82285E-01 7.46630E-04-9.02018E-01 1.88109E-14 1.50272E-14
 -1      2845 2.05359E+01 2.38788E-01-1.68440E-03-9.44104E-01-3.44507E-14-1.32962E-13
 -1      2846 2.11426E+01 5.73003E-02 4.74568E-05-1.04048E+00 1.23637E-13 9.84120E-14
 -1      2847 2.10056E+01 1.15630E-01 1.98951E-03-1.01104E+00 7.71406E-14 2.65186E-14
 -1      2848 2.06854E+01 1.70132E-01-2.64340E-03-1.07624E+00 4.49078E-14-1.15908E-13
 -1      2849 2.14227E+01-1.20603E-01-2.45186E-03-1.05995E+00 9.79873E-14 2.26577E-14
 -1      2850 2.12681E+01-1.79825E-02 4.00786E-03-1.07196E+00 1.61509E-13 1.37198E-13
 -1      2851 2.08877E+01 2.53632E-02-4.27378E-03-1.17367E+00 1.00362E-13-1.28297E-13
 -1      2852 2.17729E+01-3.98619E-01-6.13689E-03-9.64153E-01-5.15007E-14 9.37964E-14
 -1      2853 2.16022E+01-2.42218E-01 6.94547E-03-1.04285E+00 4.28413E-14 8.81398E-14
 -1      2854 2.11697E+01-2.25118E-01-6.73311E-03-1.20008E+00 5.41966E-14-4.84766E-14
 -1      2855 2.22063E+01-7.75787E-01-1.10755E-02-6.93703E-01-9.42941E-14 2.02200E-13
 -1      2856 2.20261E+01-5.70013E-01 1.05452E-02-8.67185E-01-8.37495E-14 1.80715E-13
 -1      2857 2.15663E+01-6.02221E-01-9.75642E-03-1.10295E+00-9.77433E-14-1.00879E-13
 -1      2858 2.27161E+01-1.19699E+00-1.70484E-02-1.89072E-01 1.26787E-13 2.73725E-13
 -1      2859 2.25460E+01-9.79233E-01 1.35636E-02-4.78723E-01-5.04970E-14 2.99036E-13
 -1      2860 2.21115E+01-1.09328E+00-1.25052E-02-8.13577E-01-1.26714E-13-1.52875E-14
 -1      2861 2.32507E+01-1.49957E+00-1.98146E-02 5.79969E-01 2.70478E-13 2.67045E-13
 -1      2862 2.31278E+01-1.36972E+00 1.29346E-02 1.81611E-01 2.86561E-13 3.73806E-13
 -1      2863 2.28172E+01-1.61005E+00-1.35159E-02-2.50814E-01 1.72665E-13 3.21203E-13
 -1      2864 2.36731E+01-1.40023E+00-1.00254E-02 1.50332E+00 3.14228E-14 3.56162E-13
 -1      2865 2.36339E+01-1.50476E+00 3.18019E-03 1.08804E+00 1.90939E-13 3.10327E-13
 -1      2866 2.35829E+01-1.89990E+00-1.66985E-02 6.49746E-01 2.09995E-13 3.08280E-13
 -1      2867 2.37916E+01-6.56729E-01 1.53347E-03 2.35775E+00 2.90419E-14 3.63251E-13
 -1      2868 2.39037E+01-1.14954E+00-1.79274E-02 2.05151E+00 9.37913E-14 4.18664E-13
 -1      2869 2.42781E+01-1.59297E+00-3.33256E-03 1.77267E+00-2.17795E-14 2.78311E-13
 -1      2870 2.34926E+01 7.54042E-01 1.74745E-02 2.57430E+00-8.45053E-14 2.41829E-13
 -1      2871 2.36971E+01-1.92091E-02-4.67159E-02 2.62506E+00-3.04479E-14 2.95915E-13
 -1      2872 2.45257E+01-4.20219E-01 1.78696E-02 2.64850E+00 7.10118E-14 4.03877E-13
 -1      2873 2.29813E+01 2.12269E+00 7.98099E-03 1.78313E+00-3.20181E-13 2.19250E-13
 -1      2874 2.31543E+01 1.46959E+00-6.37488E-02 2.26247E+00-2.30291E-13 2.12677E-13
 -1      2875 2.41988E+01 1.40615E+00 2.89349E-03 2.70294E+00-1.15326E-13 1.68719E-13
 -1      2876 2.26931E+01 2.46698E+00-3.71400E-02 2.47548E-01-1.47521E-13 1.86421E-13
 -1      2877 2.27557E+01 2.44937E+00-4.00972E-02 9.33787E-01-3.10401E-13 1.82123E-13
 -1      2878 2.37907E+01 2.90533E+00 2.80638E-03 1.54452E+00-3.65718E-13-2.35766E-14
 -1      2879 2.28796E+01 1.51059E+00-7.13198E-02-1.08856E+00 1.34493E-13-1.04967E-13
 -1      2880 2.28470E+01 2.14882E+00 6.00178E-03-6.05649E-01 5.51711E-14 2.13561E-13
 -1      2881 2.37544E+01 2.91225E+00 1.13842E-02-2.75722E-01-3.21201E-14-1.79749E-13
 -1      2882 2.32910E+01 5.64140E-02-3.44294E-02-1.53693E+00 2.33554E-13-3.07236E-13
 -1      2883 2.31683E+01 8.33218E-01 2.23265E-02-1.44886E+00 2.33693E-13-2.27309E-13
 -1      2884 2.40042E+01 1.60333E+00-7.43328E-03-1.51842E+00 2.91062E-13-1.33955E-13
 -1      2885 2.33410E+01-1.01043E+00 1.50333E-03-1.02194E+00 1.96284E-13-4.10152E-13
 -1      2886 2.32848E+01-5.67278E-01-1.31980E-03-1.25317E+00 2.48255E-13-3.62985E-13
 -1      2887 2.42259E+01-3.57991E-01-3.03389E-02-1.46702E+00 3.10918E-13-3.97146E-13
 -1      2888 2.28664E+01-1.32527E+00 3.81584E-03-1.00091E-01-1.52471E-13-2.42833E-13
 -1      2889 2.29957E+01-1.29633E+00-2.41793E-02-4.61501E-01-5.98176E-14-2.48320E-13
 -1      2890 2.38989E+01-1.56256E+00-4.16907E-02-6.09018E-01 2.95684E-15-5.59856E-13
 -1      2891 2.21635E+01-1.01844E+00 8.79429E-03 6.54625E-01-2.01481E-13 4.87505E-14
 -1      2892 2.24084E+01-1.23896E+00-2.15414E-02 3.56955E-01-1.05706E-13-3.82823E-14
 -1      2893 2.30861E+01-1.64119E+00-2.21969E-02 4.05081E-01-2.47784E-13-2.15117E-13
 -1      2894 2.15338E+01-5.21527E-01 7.99163E-03 1.09829E+00-3.21256E-13 3.95202E-13
 -1      2895 2.18211E+01-8.39077E-01-1.68435E-02 9.53886E-01-2.81097E-13 1.30253E-13
 -1      2896 2.23648E+01-1.17100E+00 1.39945E-02 1.14273E+00-3.55201E-13-7.71800E-14
 -1      2897 2.16734E+01-5.22556E-01 1.46100E-02 1.59118E+00-5.07751E-13 1.49665E-13
 -1      2898 1.61650E+01 2.29123E+00-9.42727E-03 1.37031E+00-8.17701E-14 2.85664E-13
 -1      2899 1.67947E+01 2.05618E+00 5.35953E-02 2.30927E+00-3.57830E-14 1.42854E-13
 -1      2900 2.19865E+01-8.90947E-01-8.96765E-03-1.78828E+00 1.08802E-13-3.58396E-13
 -1      2901 2.17145E+01-5.38690E-01 1.58510E-02-1.84202E+00 8.77197E-14-2.04271E-13
 -1      2902 2.15971E+01-5.03370E-01-9.55795E-03-2.26281E+00 1.60371E-13-1.82200E-13
 -1      2903 2.22943E+01-1.34861E+00-2.61264E-02-2.15307E+00 2.34579E-13-1.69225E-13
 -1      2904 1.95726E+01 3.11814E-01-3.19112E-02 3.79801E+00-1.47397E-14 1.34931E-13
 -1      2905 2.04368E+01-3.94297E-02 4.11398E-02 3.73682E+00 1.51927E-13-2.73104E-14
 -1      2906 1.61538E+01 2.39827E+00 3.23121E-02-1.08495E+00-2.02730E-13-1.23669E-13
 -1      2907 1.59340E+01 2.42293E+00-5.25412E-03-2.03092E-02-2.53366E-13 2.12368E-13
 -1      2908 1.53062E+01 1.89760E+00 6.32494E-02 7.66044E-01-1.26574E-13 1.11576E-13
 -1      2909 1.75640E+01 1.32763E+00-4.79464E-02 3.20350E+00 4.69503E-14 5.29229E-14
 -1      2910 1.86088E+01 9.76800E-01 6.36316E-02 3.66905E+00 5.73053E-14 1.80000E-13
 -1      2911 1.89097E+01-1.76849E-01 1.06634E-02 4.22859E+00-9.64550E-14 2.58491E-13
 -1      2912 1.75407E+01 1.66081E+00 5.94375E-02-3.03743E+00 4.56774E-14-4.06316E-13
 -1      2913 1.66634E+01 1.94093E+00-4.31696E-02-2.29895E+00-1.37348E-13-2.78217E-13
 -1      2914 1.55726E+01 1.63855E+00 3.24670E-02-1.93902E+00-1.32604E-13-1.31298E-13
 -1      2915 1.94661E+01 5.79289E-01 5.30678E-02-3.78435E+00 4.30593E-13-3.74546E-13
 -1      2916 1.84684E+01 9.49902E-01-4.27255E-02-3.57304E+00 2.37525E-13-4.92290E-13
 -1      2917 1.76053E+01 5.95774E-01 1.92317E-02-3.74138E+00 1.40604E-13-1.91520E-13
 -1      2918 2.09729E+01-2.26395E-01 4.11806E-02-3.43213E+00 2.85637E-13 2.98363E-14
 -1      2919 2.02777E+01 6.93916E-02-1.74821E-02-3.66441E+00 4.73467E-13-1.31239E-13
 -1      2920 1.98318E+01-4.79715E-01-1.75600E-02-4.07661E+00 2.97344E-13-1.18421E-13
 -1      2921 2.14228E+01-3.64937E-01 1.71245E-03-2.69438E+00 2.15764E-13 1.06178E-13
 -1      2922 2.86477E+01-4.16749E+00-1.20724E-01 1.88569E+00-3.83235E-13 2.21489E-13
 -1      2923 2.66817E+01-5.28535E+00 3.17184E-02 3.53604E+00-4.68584E-13 2.81428E-13
 -1      2924 1.13413E+01-2.41006E+00 4.47921E-02 5.75633E+00-2.23002E-13 1.95594E-13
 -1      2925 9.33771E+00-1.37910E+00 1.94339E-01 3.86609E+00-2.87922E-13 1.82132E-13
 -1      2926 3.02341E+01-7.59838E-01-1.71628E-02 8.00470E-01 1.07594E-13-4.82975E-13
 -1      2927 2.99854E+01 1.57180E+00-1.96114E-01 1.47774E+00 7.19980E-14-3.80501E-13
 -1      2928 2.94624E+01 1.13732E+00-5.72578E-02 2.53233E+00 2.18228E-13 6.60666E-13
 -1      2929 2.94797E+01 3.28453E+00-2.29786E-01 2.62159E+00 4.62214E-13 7.23643E-13
 -1      2930 2.03089E+01 1.58879E+00-1.18715E-02-1.23622E+00-3.87926E-13-2.35363E-13
 -1      2931 2.03274E+01 1.23156E+00 1.28324E-02-9.68134E-01-3.42013E-13-1.97147E-13
 -1      2932 2.02434E+01 9.49683E-01-5.26300E-03-7.22189E-01-3.05599E-13-1.99133E-13
 -1      2933 2.01594E+01 2.04642E+00 1.67251E-04-1.13939E+00-3.08497E-13-3.64239E-13
 -1      2934 2.34266E+01-5.90910E+00-3.41962E-02 4.12798E+00 2.11442E-13 4.27118E-13
 -1      2935 2.01234E+01-5.80841E+00 1.00447E-01 5.45391E+00 2.18381E-13 3.22534E-13
 -1      2936 1.10024E+01-3.49165E+00 6.57194E-02 5.70537E+00 2.07626E-13-2.94570E-13
 -1      2937 8.28662E+00-2.37082E+00 1.72925E-01 4.19972E+00 2.38143E-14-2.10970E-13
 -1      2938 6.41177E+00-1.71585E+00 1.28299E-01 2.42308E+00-2.99344E-14-1.48465E-13
 -1      2939 5.80700E+00-1.35620E+00 1.36245E-01-1.19045E-03-6.25342E-14-2.30843E-13
 -1      2940 1.99609E+01 2.30986E-01-8.24350E-04 6.30685E-02 1.96968E-13-9.26355E-14
 -1      2941 2.00275E+01 3.15012E-01 8.07523E-03 1.60841E-01 2.21629E-13-4.72306E-14
 -1      2942 2.01457E+01 4.77273E-01-2.28791E-03 2.80754E-01 2.55955E-13-1.18997E-13
 -1      2943 2.00559E+01 2.65843E-01-2.68900E-03 6.08784E-02 2.09268E-13-1.26806E-13
 -1      2944 1.98408E+01 6.61355E-03 1.94166E-04-1.76022E-01 1.07125E-13-5.86261E-14
 -1      2945 1.98408E+01 2.58754E-02 1.79206E-03-1.64974E-01 1.39805E-13-6.06766E-14
 -1      2946 1.99507E+01 5.38004E-02-1.76139E-03-1.45216E-01 1.25810E-13-9.48969E-14
 -1      2947 1.99287E+01 4.13496E-03-1.25942E-03-1.78654E-01 9.97984E-14-3.88735E-14
 -1      2948 1.99241E+01 2.59536E+00-7.81491E-03 7.94433E-01 3.11795E-13-3.87457E-13
 -1      2949 1.98796E+01 2.68779E+00-6.15368E-03 6.45394E-01 2.41165E-13-4.34391E-13
 -1      2950 1.99986E+01 2.38837E+00 4.48856E-03 5.16794E-01 2.06315E-13-4.04898E-13
 -1      2951 2.00809E+01 2.19221E+00 6.52363E-03 7.47517E-01 3.00022E-13-3.48673E-13
 -1      2952 2.99198E+01-5.92586E-01-1.59131E-01-6.69512E-01 8.38218E-15-2.84356E-14
 -1      2953 2.95641E+01-2.59162E+00-5.42015E-02 4.12923E-01-3.22908E-13 1.23429E-13
 -1      2954 2.83675E+01-3.51598E+00-3.07165E-02 7.69633E-01-3.34615E-13 1.25469E-13
 -1      2955 2.85545E+01 6.16990E+00-2.09948E-01-4.09935E-01-3.81362E-13-1.91689E-13
 -1      2956 2.89016E+01 6.08721E+00-1.48291E-01-1.70141E+00-2.83995E-13-2.48739E-13
 -1      2957 1.98748E+01 2.69662E+00-6.06698E-03-6.35323E-01-1.45002E-13-4.83338E-13
 -1      2958 1.99168E+01 2.60604E+00-8.17425E-03-7.85200E-01-1.89676E-13-4.89674E-13
 -1      2959 2.91810E+01 6.67289E+00-2.15463E-01 2.91156E-01 1.83326E-13 6.32376E-14
 -1      2960 3.02677E+01 6.24280E+00-1.32749E-01-7.03334E-01 3.55826E-13 2.91711E-14
 -1      2961 2.94202E+01 5.24290E+00-1.46032E-01 2.37234E+00 5.40651E-13 4.84127E-13
 -1      2962 2.90774E+01 6.23784E+00-2.21033E-01 1.56796E+00 2.61124E-13 1.56340E-13
 -1      2963 2.98176E+01 1.53937E+00-1.80458E-01-2.73379E+00 3.97876E-14-2.31537E-13
 -1      2964 2.96225E+01-7.10320E-01-7.72806E-02-2.05189E+00-2.21864E-13 1.83908E-13
 -1      2965 2.37604E+01-5.74749E+00 1.12463E-01-4.03062E+00-1.70586E-13 4.63886E-13
 -1      2966 2.60313E+01-5.35480E+00-1.66802E-01-2.31366E+00 1.74513E-14 5.68615E-13
 -1      2967 1.71876E+01-5.30790E+00 1.27792E-01-6.22739E+00-1.71585E-13-3.76435E-14
 -1      2968 2.05521E+01-5.96564E+00-4.60279E-02-5.63511E+00-2.26319E-13 2.88387E-13
 -1      2969 1.10522E+01-3.35868E+00 1.48697E-01-5.67496E+00 3.81917E-14-2.29761E-13
 -1      2970 1.39300E+01-4.47589E+00 4.57492E-02-6.46201E+00-7.69940E-14-2.26236E-13
 -1      2971 6.83712E+00-1.41843E+00 1.81126E-01-2.30153E+00 3.97044E-14-4.06564E-13
 -1      2972 8.51584E+00-2.25480E+00 1.18841E-01-4.48726E+00 1.36779E-13-4.33792E-13
 -1      2973 1.69219E+01-5.39057E+00 8.94625E-03 6.27893E+00 2.26985E-13 2.38004E-13
 -1      2974 1.42831E+01-4.48569E+00 1.54717E-01 6.14649E+00 2.53048E-13-4.47004E-14
 -1      2975 2.82672E+01-3.47173E+00 6.60223E-02 5.34399E-02 1.12025E-13 6.48787E-13
 -1      2976 2.90348E+01-1.79459E+00-2.12246E-01 1.41646E+00 1.98973E-13 6.58307E-13
 -1      2977 2.47002E+01-5.88481E+00-1.72497E-02 5.13657E+00-6.30052E-13 6.18398E-13
 -1      2978 2.17893E+01-5.45576E+00 7.06399E-02 6.15104E+00-6.79234E-13 7.06074E-13
 -1      2979 2.59926E+01-5.16616E+00 2.05545E-02 3.50960E+00-4.18769E-13 4.27158E-13
 -1      2980 2.89625E+01 4.79937E+00-2.24156E-01-2.46776E+00-1.68393E-13-2.98289E-13
 -1      2981 2.94096E+01 3.47395E+00-1.30179E-01-2.93672E+00-7.72438E-14-2.38268E-13
 -1      2982 2.03375E+01 1.50001E+00-2.10490E-03 1.26693E+00 4.19717E-13-5.51486E-14
 -1      2983 7.52748E+00-9.02093E-01 9.84876E-02 1.41877E+00-3.21583E-13 2.77028E-13
 -1      2984 7.57953E+00-9.99922E-01 1.76742E-01-1.92559E+00-2.02463E-13 2.50189E-13
 -1      2985 2.79610E+01-4.67859E+00-3.89711E-02-2.45738E+00 6.55864E-14-5.44523E-13
 -1      2986 2.93082E+01-3.09137E+00-1.71396E-01-8.22939E-01 1.90167E-13-5.62619E-13
 -1      2987 1.77773E+01-4.43735E+00 3.72591E-02 6.93835E+00-5.13423E-13 3.15664E-13
 -1      2988 1.45033E+01-3.21873E+00 2.09252E-01 6.59215E+00-2.86188E-13 3.14235E-13
 -1      2989 1.99740E+01 2.48499E+00-6.22602E-03-9.00233E-01-2.17899E-13-4.69798E-13
 -1      2990 2.00282E+01 2.33736E+00-1.52777E-02-1.04465E+00-2.74882E-13-4.49277E-13
 -1      2991 2.00737E+01 2.20299E+00 5.77025E-03-7.35313E-01-1.98487E-13-4.36429E-13
 -1      2992 1.99327E+01 2.53848E+00 3.42781E-03 4.32643E-03 4.95737E-14-4.59743E-13
 -1      2993 1.97941E+01 2.87005E+00-5.36323E-03-6.18001E-02 4.65228E-14-4.94676E-13
 -1      2994 1.98013E+01 2.85488E+00-5.67217E-03-2.16693E-01-5.48402E-15-4.99130E-13
 -1      2995 1.92411E+01-4.33694E+00 1.33961E-01-6.54881E+00 4.46004E-13-2.18291E-13
 -1      2996 2.06028E+01-5.30918E+00 1.43028E-01-6.64923E+00 4.90774E-13-1.97186E-13
 -1      2997 2.25483E+01-5.37127E+00 5.85804E-03-5.59822E+00 3.46070E-13-3.33004E-13
 -1      2998 1.95293E+01-5.14729E+00 1.13844E-01 5.27152E+00 1.16906E-13 3.13249E-13
 -1      2999 1.43056E+01-2.68448E+00 1.87556E-01-6.10848E+00 3.32817E-13 1.61607E-13
 -1      3000 2.71523E+01 1.99926E+00-9.64508E-02-3.19936E+00 1.56999E-13-2.91864E-13
 -1      3001 2.58151E+01 2.42771E+00-1.13965E-01-2.89079E+00 6.10484E-14-1.04326E-13
 -1      3002 2.55625E+01 3.54147E+00-7.42985E-02-2.15618E+00-8.69582E-14-2.42151E-13
 -1      3003 2.09363E+01-1.05495E+00-1.87601E-02 3.82448E+00-1.26470E-13 3.30404E-14
 -1      3004 2.10624E+01-3.66984E-01-5.13198E-03 3.33756E+00 7.05013E-15-1.24166E-13
 -1      3005 2.14978E+01-5.95779E-01 1.77292E-02 2.96814E+00-2.65081E-13 6.33059E-14
 -1      3006 2.05672E+01-4.72488E+00 1.17968E-01 6.29907E+00-6.21975E-13 6.20956E-13
 -1      3007 1.91767E+01-3.58062E+00 6.38080E-02 6.10410E+00-3.57520E-13 4.22370E-13
 -1      3008 2.25160E+01-4.84631E+00-5.78560E-02 5.28446E+00-5.01633E-13 9.06369E-13
 -1      3009 2.70201E+01-5.38854E+00-7.26018E-03-3.20925E+00 1.34989E-13-5.55944E-13
 -1      3010 2.72471E+01-4.78298E+00-1.57654E-01-1.80615E+00 2.18230E-13-2.89387E-13
 -1      3011 2.53673E+01-5.20024E+00 9.11582E-02-3.99602E+00 1.58838E-13-5.62965E-13
 -1      3012 2.83897E+01 1.83816E+00-1.06366E-01-2.99132E+00 1.36696E-14-2.58640E-13
 -1      3013 1.67566E+01 1.05618E+00 6.22803E-02 3.18719E+00 1.49389E-13 1.98945E-13
 -1      3014 2.16626E+01-5.74717E-01 9.89556E-03 2.47839E+00-4.14518E-13 9.49191E-14
 -1      3015 2.17423E+01-6.68911E-01 5.62511E-03 2.03405E+00-4.76076E-13 1.51167E-13
 -1      3016 2.20576E+01-1.07897E+00-1.15107E-02 1.89433E+00-5.39623E-13 1.12070E-13
 -1      3017 2.19271E+01-1.25187E+00-1.14160E-02 2.84661E+00-3.78879E-13 2.34736E-13
 -1      3018 2.67452E+01-4.30390E+00 1.21008E-02-7.59962E-01 1.86424E-13 4.66044E-13
 -1      3019 2.20958E+01-1.19526E+00 3.04962E-02-2.67904E+00 2.34943E-13-2.03599E-14
 -1      3020 2.13827E+01-6.50156E-01-1.71981E-02-3.11395E+00 1.87318E-13 1.30225E-13
 -1      3021 2.15699E+01-1.23499E+00 7.11006E-03-3.48297E+00 1.12493E-13 1.51144E-14
 -1      3022 2.25196E+01-1.69557E+00 9.33491E-03-2.57989E+00 9.10990E-14 1.03359E-14
 -1      3023 1.43741E+01-2.11483E+00 1.62149E-01 5.74016E+00-1.07581E-13 2.94251E-13
 -1      3024 2.75386E+01 4.80479E+00-9.35633E-02-2.17308E+00-2.17049E-13-1.15581E-13
 -1      3025 1.02044E+01-5.95599E-01 1.94361E-01-2.79297E+00 1.54404E-13 1.00003E-13
 -1      3026 1.02016E+01-4.20789E-01 1.97384E-01 2.27131E+00-2.63914E-13 1.50713E-13
 -1      3027 2.89507E+01 1.91347E+00-8.63222E-02 1.71164E+00 7.23033E-15-3.20313E-13
 -1      3028 2.99117E+01 3.66651E+00-1.25924E-01 1.67707E+00-9.83380E-14-3.67706E-13
 -1      3029 2.92989E+01 5.18344E+00-1.72690E-01 9.88228E-01-2.63178E-13-3.45141E-14
 -1      3030 8.06686E+00-7.90450E-01 1.83055E-01-1.12168E+00 1.09978E-13-4.35818E-13
 -1      3031 2.80892E+01 3.72900E+00-7.01935E-02 2.77777E+00 3.50039E-13 1.09746E-13
 -1      3032 1.13581E+01-2.19057E+00 1.51352E-01-4.69849E+00 4.13281E-14-3.22922E-13
 -1      3033 1.67506E+01-4.40014E+00 1.26458E-01-5.80858E+00-1.42386E-13-5.00988E-15
 -1      3034 2.23674E+01-5.47628E+00 6.36340E-02-4.35854E+00-1.07220E-13 3.21239E-13
 -1      3035 2.02653E+01 1.02391E+00-1.17899E-03-6.69642E-01-2.81721E-13-2.32112E-13
 -1      3036 1.37218E+01-3.39524E+00 1.60969E-01 5.49214E+00 1.67935E-13-1.77552E-13
 -1      3037 8.98709E+00-1.41902E+00 1.87215E-01 3.14313E+00-4.04260E-14-1.29036E-13
 -1      3038 2.83134E+01-5.28907E-01-7.27318E-02 2.30835E+00 2.20171E-13 4.96048E-13
 -1      3039 2.90494E+01-1.92935E+00 2.78179E-02 5.01422E-01 1.88675E-13-2.94292E-13
 -1      3040 2.89795E+01 4.83414E+00-8.30325E-02-1.17042E+00 2.24903E-13-4.97782E-13
 -1      3041 1.98173E+01 2.82002E+00-5.53323E-03-3.51599E-01-3.77612E-14-4.54305E-13
 -1      3042 1.98412E+01 2.77089E+00-6.37183E-03-5.05522E-01-1.03087E-13-4.50226E-13
 -1      3043 1.99948E+01 2.39569E+00 4.61643E-03-5.06471E-01-1.13921E-13-4.25225E-13
 -1      3044 1.99478E+01 2.50454E+00 3.83349E-03-2.55551E-01-2.48778E-14-4.46350E-13
 -1      3045 2.54431E+01-5.62807E+00 4.74741E-02 2.74851E+00 2.09652E-13 4.33806E-13
 -1      3046 2.38430E+01-5.43186E+00 7.15783E-02 3.27010E+00 1.48694E-13 2.69337E-13
 -1      3047 2.64718E+01-4.99557E+00-9.61726E-02 1.16139E+00 9.26429E-14 1.92887E-13
 -1      3048 2.80091E+01 5.75267E+00-1.62662E-01 1.29795E-01-3.25739E-13-2.79991E-13
 -1      3049 2.66304E+01 5.26524E+00-1.35196E-01-5.67250E-01-2.51910E-13-1.96567E-13
 -1      3050 2.96796E+01 4.76073E-01-1.20209E-01-1.35611E+00 1.98702E-13-3.47056E-13
 -1      3051 2.84403E+01-9.91298E-01-5.16440E-02-1.02460E+00-2.18076E-13-3.38465E-13
 -1      3052 2.87295E+01 1.83231E+00-1.25051E-01-1.82182E+00 2.01394E-13-5.70752E-13
 -1      3053 2.02895E+01 1.58471E+00-2.27465E-03 1.16545E+00 3.98783E-13-1.32979E-13
 -1      3054 2.02729E+01 1.36436E+00-7.72347E-04 9.17805E-01 3.61756E-13-1.67188E-13
 -1      3055 2.03016E+01 1.06048E+00 3.62304E-03 7.20637E-01 3.18072E-13-1.55275E-13
 -1      3056 2.02585E+01 1.36704E+00-2.13480E-03 7.96921E-01 3.36578E-13-2.02403E-13
 -1      3057 2.02380E+01 8.31162E-01-5.25342E-03 5.11057E-01 2.89635E-13-1.47668E-13
 -1      3058 2.02190E+01 1.54606E+00-4.66757E-04 7.43925E-01 2.98843E-13-2.54310E-13
 -1      3059 2.76721E+01 2.81448E-01-8.27925E-02-3.08656E+00 1.93262E-13-1.80619E-13
 -1      3060 2.56322E+01-4.61365E+00 1.12904E-01-1.40127E+00 2.17625E-13 5.32359E-13
 -1      3061 2.65984E+01-3.68995E+00-1.58179E-01 4.22853E-01 1.88331E-13 4.93952E-13
 -1      3062 2.77334E+01-2.87934E+00-1.17144E-01-7.20998E-02-2.56161E-13 3.33761E-14
 -1      3063 2.73235E+01-3.68525E+00 5.83195E-02 1.02040E+00-2.99517E-13 2.03504E-13
 -1      3064 2.08568E+01-5.11823E+00-3.18725E-02 4.58511E+00-6.48231E-14 2.67460E-13
 -1      3065 1.84422E+01-4.33993E+00 1.11548E-01 5.16072E+00 3.85733E-14 2.08993E-13
 -1      3066 2.02212E+01 4.22677E-01 4.19920E-03-1.20562E-01-2.01350E-13-2.17642E-13
 -1      3067 2.01816E+01 3.14525E-01-2.33086E-03-3.59270E-02-1.67466E-13-2.38448E-13
 -1      3068 2.01674E+01 2.31015E-01 3.18534E-03 2.53462E-02-1.54739E-13-2.28288E-13
 -1      3069 2.01371E+01 1.60436E-01-1.30267E-03 7.61462E-02-1.66187E-13-2.54350E-13
 -1      3070 2.02378E+01 3.31198E-01-8.19713E-04-2.70910E-02-1.70074E-13-2.44404E-13
 -1      3071 2.01204E+01 1.06438E-01 2.24281E-03 1.11893E-01-1.48228E-13-2.20666E-13
 -1      3072 2.00992E+01 6.13078E-02-6.23529E-04 1.38964E-01-1.30142E-13-2.27596E-13
 -1      3073 2.01970E+01 1.66773E-01-1.01571E-03 7.53849E-02-1.52885E-13-1.96968E-13
 -1      3074 2.00830E+01 2.73960E-02 1.46956E-03 1.56549E-01-8.97815E-14-2.22467E-13
 -1      3075 2.00694E+01-2.64193E-04-1.87201E-04 1.67722E-01-8.37015E-14-1.69507E-13
 -1      3076 2.01581E+01 6.04773E-02-9.73374E-04 1.33084E-01-1.07035E-13-2.25050E-13
 -1      3077 2.00550E+01-2.03945E-02 8.82878E-04 1.73153E-01-8.49471E-14-1.29394E-13
 -1      3078 2.00471E+01-3.60152E-02 8.38134E-05 1.74229E-01-7.10614E-14-9.36472E-14
 -1      3079 2.01242E+01-5.45849E-03-8.47003E-04 1.59484E-01-4.48584E-14-2.09574E-13
 -1      3080 2.00349E+01-4.66623E-02 4.59255E-04 1.72091E-01-1.01457E-13-4.49380E-14
 -1      3081 2.00311E+01-5.39959E-02 2.47332E-04 1.67264E-01-9.50528E-14-6.59362E-14
 -1      3082 2.00961E+01-4.33695E-02-7.03290E-04 1.65329E-01-6.81686E-14-1.24077E-13
 -1      3083 2.00212E+01-5.81238E-02 1.64757E-04 1.60933E-01-1.03758E-13-6.06794E-14
 -1      3084 2.00202E+01-5.97672E-02 3.43405E-04 1.53193E-01-9.94233E-14-8.58000E-14
 -1      3085 2.00736E+01-6.18676E-02-5.68090E-04 1.58753E-01-1.09502E-13-3.40159E-14
 -1      3086 2.00123E+01-5.94130E-02-3.45978E-05 1.45105E-01-6.30316E-14-5.70672E-14
 -1      3087 2.00134E+01-5.71383E-02 3.99458E-04 1.36565E-01-1.98275E-14-5.87639E-14
 -1      3088 2.00560E+01-6.69575E-02-4.51291E-04 1.45729E-01-7.44095E-14 1.28989E-14
 -1      3089 2.00072E+01-5.36704E-02-1.68126E-04 1.28464E-01-5.78840E-14-1.06120E-13
 -1      3090 2.00096E+01-4.86387E-02 4.35505E-04 1.20629E-01-6.76299E-14-9.77140E-14
 -1      3091 2.00427E+01-6.27604E-02-3.54469E-04 1.30569E-01-3.27352E-14-8.57488E-14
 -1      3092 2.00048E+01-4.29230E-02-2.59918E-04 1.13771E-01-8.86756E-14-1.21865E-13
 -1      3093 2.00082E+01-3.58307E-02 4.66311E-04 1.07740E-01-5.35785E-14-1.02554E-13
 -1      3094 2.00329E+01-5.19969E-02-2.75425E-04 1.16379E-01-7.97555E-14-1.73179E-13
 -1      3095 2.00045E+01-2.83495E-02-3.29113E-04 1.03071E-01-7.77950E-14-9.14912E-14
 -1      3096 2.00087E+01-1.95375E-02 5.02703E-04 9.97000E-02-1.01335E-13-8.64489E-14
 -1      3097 2.00258E+01-3.63190E-02-2.10856E-04 1.05447E-01-8.78726E-14-7.72380E-14
 -1      3098 2.00057E+01-1.04803E-02-3.90876E-04 9.79900E-02-7.66424E-14-4.92300E-14
 -1      3099 2.00107E+01-1.81594E-05 5.52465E-04 9.80149E-02-9.04369E-14-1.34291E-14
 -1      3100 2.00207E+01-1.65605E-02-1.56626E-04 9.95508E-02-5.15554E-14-9.75075E-14
 -1      3101 2.00081E+01 1.06479E-02-4.57433E-04 9.99619E-02-8.86222E-14 1.66897E-14
 -1      3102 2.00139E+01 2.28950E-02 6.21328E-04 1.04088E-01-8.00072E-14 5.78919E-14
 -1      3103 2.00169E+01 7.06785E-03-1.07965E-04 1.00206E-01-5.00945E-14 7.51269E-14
 -1      3104 2.00113E+01 3.53675E-02-5.38717E-04 1.10395E-01-1.16377E-13 2.44202E-15
 -1      3105 2.00180E+01 4.96807E-02 7.13173E-04 1.19366E-01-9.74310E-14-2.33792E-14
 -1      3106 2.00137E+01 3.48222E-02-5.96506E-05 1.08840E-01-1.16133E-13 1.55405E-14
 -1      3107 2.00150E+01 6.42670E-02-6.42813E-04 1.30792E-01-4.98342E-14-3.96732E-14
 -1      3108 2.00229E+01 8.10149E-02 8.30018E-04 1.45427E-01-5.48858E-14-4.62400E-14
 -1      3109 2.00105E+01 6.72895E-02-5.89358E-06 1.26931E-01-8.83557E-14-1.34310E-13
 -1      3110 2.00188E+01 9.80725E-02-7.76114E-04 1.62823E-01-7.40267E-14-1.70384E-14
 -1      3111 2.00280E+01 1.17643E-01 9.71878E-04 1.84038E-01-3.36583E-14-8.46736E-14
 -1      3112 2.00062E+01 1.05250E-01 5.97302E-05 1.56081E-01-6.44892E-14-9.21381E-14
 -1      3113 2.00224E+01 1.37505E-01-9.43063E-04 2.08346E-01-4.82490E-14-6.53147E-14
 -1      3114 2.00331E+01 1.60213E-01 1.13658E-03 2.37136E-01 1.67280E-14-1.49796E-13
 -1      3115 1.99998E+01 1.49518E-01 1.44131E-04 1.98059E-01-4.22337E-14-9.31522E-14
 -1      3116 2.00251E+01 1.83083E-01-1.14531E-03 2.69378E-01 5.83974E-14-1.67654E-13
 -1      3117 2.00374E+01 2.09042E-01 1.31981E-03 3.06769E-01 4.06788E-14-1.60926E-13
 -1      3118 1.99902E+01 2.00734E-01 2.54086E-04 2.54783E-01 1.49537E-14-5.42879E-14
 -1      3119 2.00263E+01 2.34837E-01-1.38002E-03 3.47994E-01 2.88665E-14-1.05093E-13
 -1      3120 2.00403E+01 2.63759E-01 1.51580E-03 3.94953E-01 3.81633E-14-4.63642E-14
 -1      3121 1.99758E+01 2.59064E-01 3.94686E-04 3.28250E-01 6.40678E-14-6.73436E-14
 -1      3122 2.00251E+01 2.91873E-01-1.63699E-03 4.46159E-01 1.98793E-14-2.55172E-14
 -1      3123 2.00410E+01 3.22769E-01 1.71954E-03 5.03442E-01 5.87180E-15 5.53189E-14
 -1      3124 1.99548E+01 3.23768E-01 5.66020E-04 4.20415E-01 6.05964E-14-4.72999E-15
 -1      3125 2.00210E+01 3.51706E-01-1.89368E-03 5.65474E-01-2.78659E-14 2.48846E-14
 -1      3126 2.00390E+01 3.82431E-01 1.93158E-03 6.33406E-01 5.50232E-14 5.70034E-15
 -1      3127 1.99255E+01 3.92537E-01 7.56765E-04 5.33019E-01 1.06250E-14 1.14871E-14
 -1      3128 2.00136E+01 4.09257E-01-2.10712E-03 7.06825E-01 1.16021E-13-5.55957E-14
 -1      3129 2.00346E+01 4.35832E-01 2.16674E-03 7.85001E-01 1.96606E-14 3.31215E-14
 -1      3130 1.98865E+01 4.60517E-01 9.32531E-04 6.67390E-01 6.54773E-14-9.12175E-14
 -1      3131 2.00045E+01 4.55368E-01-2.20047E-03 8.69957E-01-8.96780E-14 8.03146E-14
 -1      3132 2.00304E+01 4.71010E-01 2.46687E-03 9.56843E-01-3.59000E-14 1.36870E-13
 -1      3133 1.98374E+01 5.18872E-01 1.01570E-03 8.24265E-01 3.57235E-14-1.74529E-14
 -1      3134 1.99983E+01 4.74715E-01-2.04011E-03 1.05294E+00-5.26012E-14 1.03913E-13
 -1      3135 2.00338E+01 4.68538E-01 2.91395E-03 1.14534E+00 1.78561E-14 1.14680E-14
 -1      3136 1.97804E+01 5.52747E-01 8.52164E-04 1.00369E+00-2.93026E-14 1.82676E-14
 -1      3137 2.00065E+01 4.43104E-01-1.39537E-03 1.25146E+00-1.26407E-14-5.18722E-14
 -1      3138 2.00607E+01 3.98570E-01 3.62837E-03 1.34378E+00-2.33324E-14-9.52876E-14
 -1      3139 1.97234E+01 5.38529E-01 1.59391E-04 1.20499E+00-9.19161E-14-4.40891E-14
 -1      3140 2.00523E+01 3.24490E-01 1.37768E-04 1.45761E+00-6.57833E-14-6.25819E-14
 -1      3141 2.01420E+01 2.18041E-01 4.71781E-03 1.54057E+00-4.79786E-14-2.20696E-14
 -1      3142 1.96844E+01 4.40517E-01-1.54748E-03 1.42672E+00-7.23106E-14 1.26265E-14
 -1      3143 2.01794E+01 6.90191E-02 3.28989E-03 1.65708E+00 2.08124E-14 8.28567E-14
 -1      3144 2.03324E+01-1.29808E-01 6.06610E-03 1.71523E+00-5.94504E-14 1.25553E-13
 -1      3145 1.96996E+01 2.07595E-01-5.03463E-03 1.66557E+00 2.30994E-14-4.09178E-15
 -1      3146 2.04627E+01-3.84336E-01 9.26927E-03 1.82192E+00-2.33273E-13 1.67885E-13
 -1      3147 2.07182E+01-7.07747E-01 6.92094E-03 1.82877E+00-3.74139E-13 1.10497E-13
 -1      3148 1.98348E+01-2.27563E-01-1.13087E-02 1.91169E+00-1.32657E-13-6.77403E-14
 -1      3149 2.10169E+01-1.09086E+00 1.99216E-02 1.89304E+00-2.56213E-13 1.90565E-13
 -1      3150 2.14246E+01-1.55073E+00 7.83365E-03 1.80127E+00-5.38393E-14 2.41403E-13
 -1      3151 2.02030E+01-9.40702E-01-2.11583E-02 2.13267E+00-2.47347E-13 8.61702E-14
 -1      3152 2.19883E+01-2.05924E+00 3.29346E-02 1.76193E+00-1.29535E-13 2.98692E-13
 -1      3153 2.25810E+01-2.60257E+00 1.25779E-03 1.48984E+00-7.70408E-14 2.07182E-13
 -1      3154 2.09578E+01-1.96038E+00-3.44364E-02 2.24410E+00-7.42236E-14 1.09707E-13
 -1      3155 2.35523E+01-3.10279E+00 5.65834E-02 1.18712E+00-3.82116E-14 9.18527E-14
 -1      3156 2.43525E+01-3.45584E+00 1.94164E-02 5.97085E-01-3.83443E-14 4.78211E-14
 -1      3157 2.23632E+01-3.25820E+00-5.04065E-02 2.07978E+00-1.98230E-13 1.87163E-13
 -1      3158 2.53187E+01-4.00916E+00 2.66572E-02 5.28582E-01 8.50622E-15 1.96402E-13
 -1      3159 2.61952E+01-3.70197E+00 1.18331E-03-2.72832E-01-1.02696E-15 1.79072E-13
 -1      3160 2.72122E+01-1.30110E+00-1.02183E-01-2.46810E+00 6.94930E-15 2.99066E-15
 -1      3161 2.70786E+01-2.89103E+00-1.18011E-02-1.60174E-01 1.41703E-13-2.24237E-13
 -1      3162 2.63151E+01-3.62385E+00 2.11538E-02-9.78692E-01 1.67850E-13-1.88773E-13
 -1      3163 2.53549E+01-3.78946E+00 6.26600E-03-1.82637E+00 6.75068E-14-2.09418E-13
 -1      3164 2.40701E+01-3.11033E+00 7.43058E-03-2.21012E+00-3.53537E-15-8.51099E-14
 -1      3165 2.33044E+01-2.52627E+00 3.13076E-02-2.58160E+00 5.89622E-15-7.02374E-14
 -1      3166 2.27820E+01-2.54201E+00-3.00035E-02-3.20729E+00 2.55950E-14 8.78464E-14
 -1      3167 2.47104E+01-4.25340E+00-3.67325E-02-3.04315E+00 1.69247E-13-2.61076E-13
 -1      3168 8.68866E+00-2.29813E-01 1.32024E-01 2.25690E-01 1.11266E-13-4.61298E-13
 -1      3169 9.45617E+00-4.47026E-01 8.35182E-02-1.94870E+00 2.08330E-13-5.30673E-13
 -1      3170 1.99831E+01-4.69333E-02 2.54170E-04-1.73378E-01 1.42820E-13-6.62611E-14
 -1      3171 1.99826E+01-4.00051E-02 4.38610E-04-1.78534E-01 1.59524E-13-6.15642E-14
 -1      3172 1.99920E+01-3.01233E-02 1.19558E-04-1.80608E-01 1.28332E-13-4.24217E-14
 -1      3173 1.99959E+01-1.57039E-02 9.11780E-04-1.79648E-01 1.14544E-13-2.72115E-14
 -1      3174 2.00491E+01-3.73061E-02-7.48961E-04-1.74770E-01 1.48379E-13-2.63501E-14
 -1      3175 1.99794E+01-5.12007E-02 3.76469E-04-1.40828E-01 2.60793E-14-5.61840E-14
 -1      3176 1.99746E+01-5.28723E-02-8.67370E-05-1.49931E-01 4.52376E-14-9.28039E-14
 -1      3177 1.99820E+01-4.44181E-02 4.08331E-04-1.23566E-01 3.16614E-14-2.64466E-14
 -1      3178 1.99762E+01-4.85190E-02-2.17169E-04-1.32055E-01 2.70744E-14-3.47193E-14
 -1      3179 2.00138E+01-5.77368E-02-3.21702E-04-1.37340E-01 8.34315E-15-2.92719E-14
 -1      3180 1.99864E+01-3.39033E-02 4.39578E-04-1.09155E-01 5.70939E-14 1.07836E-14
 -1      3181 1.99800E+01-3.97818E-02-2.98038E-04-1.15939E-01 7.47279E-14 2.07459E-14
 -1      3182 2.00096E+01-4.89212E-02-2.44514E-04-1.21529E-01 4.38758E-14-5.44559E-14
 -1      3183 1.99923E+01-2.04513E-02 4.80170E-04-9.93912E-02 6.16015E-14-1.26666E-14
 -1      3184 1.99853E+01-2.77704E-02-3.50501E-04-1.03640E-01 5.74234E-14-8.73653E-16
 -1      3185 2.00078E+01-3.57720E-02-1.89891E-04-1.08831E-01 6.81524E-14 1.49762E-14
 -1      3186 1.99995E+01-4.36321E-03 5.37438E-04-9.57426E-02-2.39728E-14 8.48735E-14
 -1      3187 1.99919E+01-1.30235E-02-3.90862E-04-9.67561E-02 4.30572E-14 6.57553E-14
 -1      3188 2.00078E+01-1.91261E-02-1.52795E-04-1.01062E-01-2.43616E-15 3.23264E-14
 -1      3189 2.00081E+01 1.44250E-02 6.17063E-04-9.95492E-02-1.78882E-14 6.69896E-14
 -1      3190 1.99997E+01 4.34848E-03-4.31391E-04-9.66700E-02-1.25990E-14 4.55571E-14
 -1      3191 2.00092E+01 7.37895E-04-1.28013E-04-9.97340E-02-1.88815E-14 1.18057E-13
 -1      3192 2.00182E+01 3.62318E-02 7.23074E-04-1.12167E-01-2.87491E-14 8.36907E-14
 -1      3193 2.00086E+01 2.45455E-02-4.81461E-04-1.04714E-01-2.29277E-14 1.12201E-13
 -1      3194 2.00117E+01 2.39470E-02-1.10680E-04-1.06253E-01-3.27190E-14 1.34579E-14
 -1      3195 2.00302E+01 6.15198E-02 8.57809E-04-1.35063E-01 7.18290E-14 1.49684E-14
 -1      3196 2.00189E+01 4.79692E-02-5.48030E-04-1.22292E-01 5.13800E-14 1.29275E-13
 -1      3197 2.00150E+01 5.09015E-02-9.62537E-05-1.22047E-01 2.07941E-14 7.23381E-15
 -1      3198 2.00444E+01 9.07692E-02 1.02153E-03-1.69850E-01 4.50947E-14 8.87700E-14
 -1      3199 2.00309E+01 7.51073E-02-6.35667E-04-1.50944E-01 2.77522E-14 7.11363E-14
 -1      3200 2.00188E+01 8.21385E-02-8.04088E-05-1.48657E-01 4.49089E-14 9.35281E-14
 -1      3201 2.00612E+01 1.24313E-01 1.21184E-03-2.18271E-01 2.21348E-14 1.07176E-13
 -1      3202 2.00449E+01 1.06390E-01-7.46137E-04-1.92364E-01 7.67553E-14 1.06314E-13
 -1      3203 2.00227E+01 1.18171E-01-5.92761E-05-1.87761E-01 3.70065E-15 2.12281E-13
 -1      3204 2.00811E+01 1.62104E-01 1.42301E-03-2.82104E-01 2.52589E-14 2.30210E-13
 -1      3205 2.00613E+01 1.41999E-01-8.77283E-04-2.48340E-01 3.53553E-14 1.40228E-13
 -1      3206 2.00266E+01 1.59276E-01-3.02044E-05-2.41152E-01-7.99714E-15 2.73564E-13
 -1      3207 2.01047E+01 2.03382E-01 1.64542E-03-3.62976E-01-5.75469E-14 1.13220E-13
 -1      3208 2.00807E+01 1.81587E-01-1.02092E-03-3.20633E-01 2.87875E-15 1.93729E-13
 -1      3209 2.00302E+01 2.05198E-01 6.52996E-06-3.10641E-01 1.54944E-14 2.36334E-13
 -1      3210 2.01329E+01 2.46175E-01 1.86535E-03-4.62054E-01-5.10672E-14-2.20277E-14
 -1      3211 2.01038E+01 2.23872E-01-1.15931E-03-4.10731E-01-2.36278E-14 1.20631E-14
 -1      3212 2.00331E+01 2.54718E-01 4.43757E-05-3.97873E-01 3.33732E-14 1.14515E-13
 -1      3213 2.01668E+01 2.86588E-01 2.06575E-03-5.79581E-01-4.39852E-14-8.86279E-14
 -1      3214 2.01317E+01 2.66044E-01-1.25950E-03-5.19491E-01 3.78554E-15-3.69506E-14
 -1      3215 2.00357E+01 3.05040E-01 6.44457E-05-5.04058E-01 1.79661E-14 7.63711E-14
 -1      3216 2.02091E+01 3.17787E-01 2.22776E-03-7.14218E-01-6.98921E-14-1.90384E-13
 -1      3217 2.01665E+01 3.02914E-01-1.26464E-03-6.46599E-01-6.96751E-14-1.98790E-13
 -1      3218 2.00388E+01 3.50901E-01 2.52103E-05-6.29579E-01 3.01854E-14-8.69786E-14
 -1      3219 2.02643E+01 3.28660E-01 2.33191E-03-8.62130E-01-5.28962E-14-2.16546E-13
 -1      3220 2.02118E+01 3.25736E-01-1.08098E-03-7.89815E-01-7.49783E-14-2.41183E-13
 -1      3221 2.00450E+01 3.83352E-01-1.53995E-04-7.73476E-01 1.97292E-15-1.65704E-13
 -1      3222 2.03410E+01 3.02188E-01 2.35345E-03-1.01573E+00-2.54508E-14-1.98897E-13
 -1      3223 2.02746E+01 3.20717E-01-5.59661E-04-9.43924E-01-5.15580E-14-1.85751E-13
 -1      3224 2.00599E+01 3.88160E-01-6.17365E-04-9.32753E-01-8.22242E-14-2.65059E-13
 -1      3225 2.04542E+01 2.13941E-01 2.24299E-03-1.16194E+00 2.10156E-14-1.87623E-13
 -1      3226 2.03673E+01 2.67377E-01 5.26255E-04-1.09924E+00 7.06979E-14-1.24162E-13
 -1      3227 2.00947E+01 3.43949E-01-1.60346E-03-1.10142E+00-5.67991E-15-1.06737E-13
 -1      3228 2.06292E+01 3.17710E-02 1.88375E-03-1.27960E+00 4.69866E-14-9.74899E-14
 -1      3229 2.05112E+01 1.37458E-01 2.50840E-03-1.23939E+00 2.09967E-14-1.76752E-13
 -1      3230 2.01698E+01 2.20574E-01-3.46620E-03-1.26889E+00 5.75651E-14-1.47128E-13
 -1      3231 2.09043E+01-2.80989E-01 9.16226E-04-1.33572E+00-1.29060E-14-1.69129E-14
 -1      3232 2.07407E+01-1.03973E-01 5.83960E-03-1.33786E+00 8.86912E-14-1.26978E-14
 -1      3233 2.03194E+01-2.08502E-02-6.64437E-03-1.41721E+00 3.58204E-14-1.28403E-13
 -1      3234 2.13306E+01-7.53008E-01-1.40734E-03-1.27920E+00-8.20389E-14-8.82606E-14
 -1      3235 2.11057E+01-4.91858E-01 1.10122E-02-1.35191E+00-6.59490E-14-3.78863E-14
 -1      3236 2.05978E+01-4.23927E-01-1.15770E-02-1.51536E+00 3.15979E-14 1.33928E-14
 -1      3237 2.19653E+01-1.37176E+00-4.54559E-03-1.03451E+00-1.43850E-13-7.24662E-15
 -1      3238 2.16656E+01-1.03920E+00 1.80336E-02-1.21400E+00-1.58778E-13-1.06865E-13
 -1      3239 2.10819E+01-1.01825E+00-1.77315E-02-1.50619E+00-1.34565E-13 1.06965E-13
 -1      3240 2.28368E+01-2.03283E+00-9.28746E-03-5.13931E-01 1.57835E-13 2.60503E-13
 -1      3241 2.24646E+01-1.69771E+00 2.40926E-02-8.37611E-01-5.42539E-14 1.03049E-13
 -1      3242 2.18340E+01-1.77806E+00-3.01866E-02-1.28984E+00-2.02514E-13 2.17829E-14
 -1      3243 2.40047E+01-2.42274E+00 2.36423E-02 4.25360E-01 1.04899E-13 3.67052E-13
 -1      3244 2.35430E+01-2.30190E+00 3.25500E-02-1.00483E-01 2.59321E-13 3.68926E-13
 -1      3245 2.29459E+01-2.60350E+00-5.64425E-02-7.45120E-01 7.32010E-14 3.43725E-13
 -1      3246 2.52494E+01-2.48626E+00-6.10206E-03 1.25434E+00 7.26207E-14 3.74738E-13
 -1      3247 2.48045E+01-2.88454E+00-2.60700E-02 6.70321E-01 1.20130E-13 3.75160E-13
 -1      3248 2.57967E+01 2.36950E+00-7.68037E-02 2.73878E+00-2.60625E-14 1.93609E-13
 -1      3249 2.60498E+01 9.66190E-01-9.65136E-02 2.98888E+00 1.76761E-13 3.59556E-13
 -1      3250 2.53123E+01 4.33657E+00-1.15287E-01 1.34933E+00-1.10773E-13-3.69448E-13
 -1      3251 2.54589E+01 3.59914E+00-1.67472E-01 2.20938E+00-1.16143E-13-1.30090E-13
 -1      3252 2.53260E+01 3.96722E+00-1.76807E-01-7.46474E-01 4.34514E-14-5.83757E-13
 -1      3253 2.53055E+01 4.54288E+00-1.37376E-01 9.81460E-02-5.14866E-15-5.70145E-13
 -1      3254 2.60834E+01 3.07592E-01-7.18613E-02-1.76604E+00 3.71172E-13-6.03389E-13
 -1      3255 2.58494E+01 1.58810E+00-6.02188E-02-1.50230E+00 1.13486E-13-6.45101E-13
 -1      3256 2.56729E+01-1.95461E+00 2.72219E-02-6.93783E-01 4.51028E-17-2.40523E-13
 -1      3257 2.56954E+01-1.20469E+00-3.52854E-02-1.04288E+00 3.09388E-13-2.56076E-13
 -1      3258 2.44065E+01-2.47777E+00 3.40600E-02 7.27404E-01-2.19035E-13-9.36673E-14
 -1      3259 2.48035E+01-2.37180E+00-1.06128E-02 1.70207E-01-1.11665E-13-1.98560E-13
 -1      3260 2.57457E+01-3.43405E+00-7.17627E-02 1.02141E+00-2.62585E-13 3.31663E-13
 -1      3261 2.30147E+01-1.76579E+00 1.24569E-02 1.25207E+00-3.27184E-13-1.57986E-13
 -1      3262 2.35432E+01-1.98001E+00 9.20675E-03 7.78636E-01-2.91907E-13-2.56776E-13
 -1      3263 2.40316E+01-2.85019E+00-2.24262E-02 1.76507E+00-3.32807E-13 1.48723E-13
 -1      3264 2.26123E+01-1.52702E+00-3.22323E-03 1.59664E+00-4.50672E-13 3.82810E-14
 -1      3265 1.82767E+01-8.90139E-01 3.45563E-03 4.65970E+00-5.16106E-14 4.32553E-13
 -1      3266 1.97905E+01-1.35338E+00 6.78964E-02 4.74054E+00-1.43535E-13 3.09124E-13
 -1      3267 2.00453E+01 2.16019E+00-4.19961E-03 2.92702E-01 1.30175E-13-3.88755E-13
 -1      3268 2.00317E+01 2.19876E+00-3.39736E-03 1.70904E-01 7.46041E-14-4.31354E-13
 -1      3269 1.79754E+01-4.50629E-01 1.05149E-01-4.63057E+00 2.87928E-13-2.49807E-13
 -1      3270 1.63098E+01 5.84656E-02-7.09316E-03-4.06178E+00 2.11226E-13-1.60164E-13
 -1      3271 1.23067E+01 9.96869E-01 8.73279E-02-4.73012E-01-7.38298E-14-4.69069E-15
 -1      3272 1.24000E+01 9.26209E-01 6.55457E-02 1.14196E+00 9.32934E-15 1.65867E-13
 -1      3273 2.08272E+01-1.60867E+00 2.11035E-02-4.34196E+00 1.63938E-13-1.58230E-13
 -1      3274 1.95544E+01-1.24897E+00-2.91361E-02-4.54131E+00 2.29671E-13-3.29394E-13
 -1      3275 1.88136E+01-1.77518E+00 5.30987E-02-5.13317E+00 2.73389E-13-2.96554E-13
 -1      3276 2.62475E+01-4.89550E+00-1.03607E-01 2.72079E+00-3.99708E-13 1.98976E-13
 -1      3277 2.49573E+01-4.90202E+00 1.27602E-01 4.00025E+00-5.80969E-13 5.08133E-13
 -1      3278 2.33777E+01-4.51102E+00 9.66233E-03 4.50487E+00-5.20771E-13 4.96825E-13
 -1      3279 2.62017E+01-4.05980E+00-3.72874E-02 1.71854E+00-3.23375E-13 3.09659E-13
 -1      3280 1.43310E+01-1.16802E+00 1.13779E-01-5.03618E+00 3.75151E-13 5.24858E-14
 -1      3281 1.65844E+01-2.58949E+00 2.92642E-02-6.02214E+00 3.42205E-13-1.29979E-13
 -1      3282 1.35976E+01 3.53816E-01 3.24554E-02 3.37928E+00-5.56361E-14 4.63449E-14
 -1      3283 1.50233E+01-2.49359E-01 8.86670E-02 4.29837E+00-8.31123E-14 1.84325E-13
 -1      3284 2.02140E+01 1.77897E+00 6.19026E-03-9.22810E-01-2.80971E-13-3.59214E-13
 -1      3285 1.99794E+01-5.28054E-02 3.31033E-04-1.58545E-01 6.95545E-14-6.09339E-14
 -1      3286 1.99762E+01-5.09850E-02 1.20223E-04-1.66748E-01 9.83046E-14-3.40586E-14
 -1      3287 2.00325E+01-5.51157E-02-5.69795E-04-1.67886E-01 1.22830E-13 1.59696E-14
 -1      3288 2.00211E+01-6.06477E-02-4.28316E-04-1.53884E-01 6.78493E-14 5.28362E-14
 -1      3289 1.11460E+01-1.26342E+00 1.02936E-01-3.85957E+00 4.06897E-14-2.49231E-13
 -1      3290 1.32720E+01-2.48044E+00 4.10813E-02-5.09344E+00-1.09787E-13-1.36682E-13
 -1      3291 2.88545E+01 6.37070E+00-1.51823E-01 1.16281E+00 9.09828E-14-7.28445E-14
 -1      3292 2.74990E+01 5.75668E+00-1.11321E-01 4.69930E-01 1.01669E-13-5.43513E-13
 -1      3293 2.80344E+01 4.66261E+00-1.51301E-01 1.09597E+00-1.43219E-13-2.13732E-13
 -1      3294 2.00725E+01 1.50014E-01-1.10222E-03-7.57888E-02 1.37110E-13-1.47580E-13
 -1      3295 2.01051E+01 2.15337E-01 3.73756E-03-2.24859E-02 1.53983E-13-1.41148E-13
 -1      3296 2.94411E+01-2.07459E+00-5.39722E-02-1.43066E+00-3.25278E-13 2.58862E-13
 -1      3297 2.83909E+01-3.24791E+00 2.72636E-02-7.96998E-01-1.59129E-13 3.38146E-13
 -1      3298 2.74125E+01 5.48449E+00-7.86142E-02 1.72342E+00 1.26357E-13-5.55389E-13
 -1      3299 2.85651E+01-1.12678E+00-8.14384E-02-2.31885E+00-1.74874E-13 2.10873E-13
 -1      3300 2.02748E+01 7.10843E-01 4.81336E-03-3.50178E-01-2.07509E-13-2.52704E-13
 -1      3301 2.02254E+01 5.50246E-01-4.05812E-03-2.15523E-01-2.05827E-13-2.51893E-13
 -1      3302 2.02729E+01 5.81415E-01 5.24323E-04-1.89798E-01-1.98319E-13-2.48287E-13
 -1      3303 2.02752E+01 1.35245E+00-1.62105E-03-7.62276E-01-2.60024E-13-3.23207E-13
 -1      3304 2.02525E+01 9.63040E-01-5.11400E-03-4.78495E-01-2.20998E-13-2.85968E-13
 -1      3305 2.02849E+01 9.92812E-01-1.21380E-03-4.25960E-01-2.16804E-13-2.98732E-13
 -1      3306 2.02032E+01 1.67042E+00 2.81069E-03-7.14511E-01-2.20987E-13-3.80326E-13
 -1      3307 2.09056E+01-4.86689E+00 9.54006E-02-4.56847E+00-1.62252E-13 9.39908E-14
 -1      3308 2.29620E+01-5.26984E+00-1.37945E-01-3.36415E+00-1.83881E-14 2.00730E-13
 -1      3309 1.60091E+01-3.25158E+00 1.27230E-01-5.30249E+00-2.10179E-13-8.07826E-14
 -1      3310 1.84952E+01-4.36919E+00-4.64170E-03-5.26515E+00-2.41931E-13 6.89171E-14
 -1      3311 2.01114E+01-3.92210E+00 1.15514E-01-4.29083E+00-1.71151E-13 9.11623E-14
 -1      3312 1.04319E+01-1.36780E+00 3.38974E-02 3.70664E+00-6.93889E-16-1.09759E-13
 -1      3313 9.01580E+00-5.36660E-01 1.25552E-01 1.87464E+00 7.40475E-14-2.06529E-13
 -1      3314 1.03457E+01-4.29563E-02 1.40962E-01 8.90887E-01 1.54492E-13-3.57048E-13
 -1      3315 1.57874E+01-3.49019E+00 1.01922E-02 5.36912E+00 1.47583E-13-2.67703E-14
 -1      3316 1.32989E+01-2.22190E+00 1.48933E-01 4.80256E+00 8.26075E-14-1.56597E-13
 -1      3317 2.00253E+01 2.21757E+00-3.54335E-03 6.62088E-02 5.11769E-14-4.50164E-13
 -1      3318 2.00239E+01 2.21633E+00-4.33318E-03-5.84674E-02 1.82384E-14-4.34832E-13
 -1      3319 2.01386E+01 1.92221E+00 5.00796E-03 1.01690E-01 5.80190E-14-4.08991E-13
 -1      3320 2.00082E+01 2.71347E-03-1.11947E-04-1.73561E-01 7.92628E-14-2.27488E-14
 -1      3321 2.00187E+01 2.81076E-02 1.59000E-03-1.62116E-01 8.46627E-14-4.04902E-14
 -1      3322 2.00722E+01-1.59502E-03-9.63105E-04-1.68129E-01 9.98480E-14-6.49979E-15
 -1      3323 2.42664E+01-4.37675E+00 9.73159E-02-1.94828E+00 3.26128E-14 4.28230E-13
 -1      3324 1.91033E+01-3.10400E+00 1.05095E-01-5.80444E+00 3.38913E-13-3.02196E-13
 -1      3325 1.78653E+01-3.33928E+00 1.10135E-01 4.63703E+00-1.30486E-14 7.37327E-14
 -1      3326 2.52230E+01 4.12844E+00-1.67779E-01-1.18044E+00-1.68504E-13-2.37759E-13
 -1      3327 2.01267E+01 1.90334E+00-2.83734E-03-5.48601E-01-1.53964E-13-3.98212E-13
 -1      3328 2.01578E+01 1.77747E+00-8.24797E-03-6.41594E-01-2.03121E-13-4.09276E-13
 -1      3329 2.02659E+01 1.41713E+00 7.37039E-03-5.22927E-01-1.90708E-13-3.61062E-13
 -1      3330 2.41732E+01-4.62239E+00-5.22528E-02 1.93782E+00-3.04409E-14 2.79345E-13
 -1      3331 2.00894E+01 2.02377E+00-5.96151E-03 5.03756E-01 2.23376E-13-3.38519E-13
 -1      3332 2.00641E+01 2.10475E+00-3.37652E-03 3.91705E-01 1.61725E-13-3.78605E-13
 -1      3333 2.01622E+01 1.84810E+00 5.91705E-03 2.92063E-01 1.32052E-13-3.41335E-13
 -1      3334 2.78053E+01 1.57288E+00-8.51910E-02 1.70045E+00 9.79078E-14-3.79689E-13
 -1      3335 2.77192E+01-6.15079E-01-1.88863E-01 1.63382E+00 1.19960E-13-1.52170E-13
 -1      3336 1.11824E+01 7.02543E-02 6.24086E-02-1.59293E+00 5.66248E-14-4.12899E-13
 -1      3337 1.09886E+01-5.14670E-01 1.29107E-01-2.80191E+00 1.32394E-14-3.34975E-13
 -1      3338 1.25340E+01-7.96348E-01 4.63993E-03-3.31084E+00-9.95749E-14-1.14117E-13
 -1      3339 2.01616E+01 1.80008E+00-7.29454E-03 6.90181E-01 2.83800E-13-3.07501E-13
 -1      3340 2.01260E+01 1.92964E+00-2.20753E-03 5.89724E-01 2.47788E-13-3.20402E-13
 -1      3341 2.02055E+01 1.69479E+00 6.35296E-03 4.61352E-01 1.97842E-13-2.87688E-13
 -1      3342 2.00343E+01 5.90447E-02-4.95975E-04-1.42903E-01 7.24936E-14-6.78155E-14
 -1      3343 2.00542E+01 1.00565E-01 2.53656E-03-1.14818E-01 9.90934E-14-1.16330E-13
 -1      3344 2.01032E+01 6.01914E-02-1.18817E-03-1.39122E-01 5.51918E-14-7.70634E-14
 -1      3345 1.56078E+01-2.41753E+00 9.89058E-02-4.67633E+00-2.69444E-13-8.22883E-14
 -1      3346 2.35899E+01-5.10084E+00 1.38269E-02-4.90134E+00 2.79707E-13-4.43343E-13
 -1      3347 2.46168E+01-4.67261E+00 7.83218E-03-3.63271E+00 2.49467E-13-4.41284E-13
 -1      3348 2.34458E+01-3.74269E+00 7.73992E-02-3.85101E+00 1.40333E-13-3.32793E-13
 -1      3349 2.20090E+01-4.30141E+00 4.16279E-02-5.23001E+00 3.93439E-13-3.70731E-13
 -1      3350 2.45066E+01-3.53477E+00-8.09837E-02-2.56952E-01 2.75131E-13 5.76476E-13
 -1      3351 2.72455E+01 5.08117E-02-8.48633E-02 2.77888E+00 1.65389E-13 3.84609E-13
 -1      3352 2.53311E+01-4.72219E-01-3.65498E-02 2.59051E+00 1.23061E-13 3.51316E-13
 -1      3353 2.53591E+01-1.45941E+00-8.31358E-02 2.34015E+00 1.84262E-14 3.15235E-13
 -1      3354 2.26861E+01-1.64556E+00 8.49929E-03 2.03826E+00-4.82794E-13 1.76341E-13
 -1      3355 1.70795E+01-1.30714E+00 1.02680E-02 5.21521E+00-1.15741E-13 2.75009E-13
 -1      3356 2.63504E+01-2.76589E+00 2.53295E-02 1.21100E+00 1.15609E-13 4.48475E-13
 -1      3357 2.73772E+01-1.98058E+00 4.07904E-02 1.98695E+00 1.50241E-13 4.75051E-13
 -1      3358 1.29735E+01-1.32077E+00 1.07596E-01 3.80089E+00 9.26689E-14-1.72917E-14
 -1      3359 2.15502E+01-1.93867E+00 3.31725E-02-3.96381E+00 1.32578E-13-1.24875E-13
 -1      3360 1.41650E+01 1.12679E+00 3.33853E-03-2.01221E+00-3.41151E-14-1.57145E-13
 -1      3361 1.13200E+01 1.63908E-01 1.11890E-01-2.15542E+00 4.01207E-14-5.48589E-14
 -1      3362 2.63746E+01 3.08367E+00-1.26255E-01-1.51688E+00 7.73825E-14-6.01769E-13
 -1      3363 2.01244E+01 2.93097E-01-1.85465E-03 4.46138E-02 1.84578E-13-1.55922E-13
 -1      3364 2.01711E+01 3.94116E-01 4.90670E-03 1.35094E-01 2.10816E-13-1.50575E-13
 -1      3365 2.01897E+01 3.15355E-01-1.33587E-03 3.73006E-02 1.73384E-13-1.70926E-13
 -1      3366 2.01831E+01 5.05745E-01-3.00622E-03 2.31360E-01 2.20928E-13-1.61919E-13
 -1      3367 2.02419E+01 6.58259E-01 5.20215E-03 3.73174E-01 2.54175E-13-1.52991E-13
 -1      3368 2.02707E+01 8.78718E-01 1.67318E-03 4.57417E-01 2.73572E-13-1.64908E-13
 -1      3369 2.02380E+01 5.46092E-01 2.60062E-05 2.11537E-01 2.31926E-13-1.68480E-13
 -1      3370 2.02554E+01 1.34390E+00 1.55343E-03 5.80908E-01 2.67419E-13-2.50417E-13
 -1      3371 2.01427E+01 1.60039E-01-1.35603E-03-7.58520E-02 1.00691E-13-1.12341E-13
 -1      3372 2.00764E+01 2.06500E+00-2.64870E-03-3.52221E-01-6.58669E-14-3.57108E-13
 -1      3373 2.00988E+01 1.98609E+00-5.92161E-03-4.64440E-01-1.23778E-13-3.83633E-13
 -1      3374 2.02181E+01 1.63226E+00 6.66737E-03-3.90707E-01-1.24417E-13-3.48471E-13
 -1      3375 1.52273E+01 7.87995E-01 1.08755E-01-3.29718E+00 4.43387E-14-1.45758E-13
 -1      3376 2.78936E+01-2.00908E+00 5.84255E-02 6.52253E-01 1.68865E-13-1.73514E-13
 -1      3377 1.27626E+01-5.63902E-01 1.05519E-01-4.27920E+00 2.61083E-13 1.20320E-14
 -1      3378 1.52673E+01-4.54544E-01 7.75188E-02-4.35603E+00 3.17329E-13-1.65284E-14
 -1      3379 2.27670E+01-4.91638E+00 6.79508E-02 3.34615E+00-1.51198E-14 2.61083E-13
 -1      3380 2.74848E+01-1.59559E+00-2.89449E-02-8.70135E-01-1.98522E-14-4.51000E-13
 -1      3381 2.73157E+01-3.13667E+00 3.00410E-02-1.09022E+00-4.52346E-14 1.97523E-13
 -1      3382 2.02671E+01 2.36170E-01 2.11343E-03 3.88859E-02-1.45914E-13-2.13099E-13
 -1      3383 2.02427E+01 1.60839E-01-1.27357E-03 7.95443E-02-1.34087E-13-1.96306E-13
 -1      3384 2.02278E+01 1.02012E-01 1.60311E-03 1.05527E-01-1.21882E-13-1.93234E-13
 -1      3385 2.02064E+01 5.33879E-02-6.41970E-04 1.27281E-01-8.78303E-14-1.84163E-13
 -1      3386 2.02842E+01 1.58092E-01-4.97503E-04 7.58390E-02-1.21357E-13-1.71048E-13
 -1      3387 2.01890E+01 1.63928E-02 1.12554E-03 1.39535E-01-7.31539E-14-1.57224E-13
 -1      3388 2.01713E+01-1.32481E-02-2.11307E-04 1.48339E-01-3.55690E-14-1.59336E-13
 -1      3389 2.02466E+01 4.77356E-02-6.14101E-04 1.17194E-01-7.12528E-14-1.26012E-13
 -1      3390 2.01536E+01-3.48300E-02 7.27524E-04 1.51376E-01-1.45895E-14-1.87661E-13
 -1      3391 2.01396E+01-5.10853E-02 7.32121E-05 1.51897E-01-5.48040E-14-1.29555E-13
 -1      3392 2.02084E+01-2.03763E-02-6.31883E-04 1.35217E-01-5.04015E-14-1.73886E-13
 -1      3393 2.01229E+01-6.18747E-02 4.19689E-04 1.49263E-01-8.77353E-14-1.19559E-13
 -1      3394 2.01122E+01-6.87676E-02 2.52151E-04 1.44998E-01-8.44152E-14-7.72110E-14
 -1      3395 2.01725E+01-5.84741E-02-6.03023E-04 1.37938E-01-4.50065E-14-1.85499E-13
 -1      3396 2.00972E+01-7.20386E-02 1.90540E-04 1.39363E-01-9.64044E-14-5.93787E-14
 -1      3397 2.00893E+01-7.24117E-02 3.57964E-04 1.32869E-01-5.24375E-14-8.44930E-14
 -1      3398 2.01404E+01-7.54117E-02-5.41605E-04 1.31600E-01-6.34160E-14-1.52021E-13
 -1      3399 2.00762E+01-7.04431E-02 2.12300E-05 1.26196E-01-6.64260E-14-1.10859E-13
 -1      3400 2.00704E+01-6.62480E-02 4.16656E-04 1.19321E-01-7.98206E-14-1.41028E-13
 -1      3401 2.01127E+01-7.75291E-02-4.66019E-04 1.20869E-01-8.22418E-14-1.44672E-13
 -1      3402 2.00591E+01-6.05616E-02-1.07118E-04 1.13032E-01-7.42939E-14-1.79498E-13
 -1      3403 2.00552E+01-5.30540E-02 4.49212E-04 1.07119E-01-8.02996E-14-1.80832E-13
 -1      3404 2.00891E+01-6.92026E-02-3.82350E-04 1.09174E-01-9.55902E-14-1.73087E-13
 -1      3405 2.00454E+01-4.45793E-02-2.11256E-04 1.02266E-01-6.87631E-14-1.30559E-13
 -1      3406 2.00428E+01-3.44760E-02 4.70934E-04 9.83303E-02-3.13796E-14-7.18735E-14
 -1      3407 2.00691E+01-5.32826E-02-2.95555E-04 9.90243E-02-2.26537E-15-1.79315E-13
 -1      3408 2.00340E+01-2.36931E-02-3.05300E-04 9.57347E-02-2.44135E-14-9.45051E-14
 -1      3409 2.00324E+01-1.13009E-02 4.91607E-04 9.45981E-02-6.33566E-15-5.37010E-14
 -1      3410 2.00520E+01-3.14181E-02-2.06401E-04 9.23281E-02-1.98606E-14-1.07900E-13
 -1      3411 2.00240E+01 1.65354E-03-4.01562E-04 9.49564E-02-3.54018E-14-4.86214E-14
 -1      3412 2.00231E+01 1.63398E-02 5.18237E-04 9.73479E-02-6.59000E-14-5.50573E-14
 -1      3413 2.00365E+01-4.34650E-03-1.12836E-04 9.06262E-02 1.93843E-14-1.59387E-13
 -1      3414 2.00145E+01 3.15880E-02-5.10489E-04 1.01312E-01-1.49434E-13-6.67800E-14
 -1      3415 2.00138E+01 4.88039E-02 5.55275E-04 1.07946E-01-1.66291E-13-1.14650E-13
 -1      3416 2.00216E+01 2.78855E-02-1.12230E-05 9.52738E-02-1.28820E-13-1.82517E-13
 -1      3417 2.00041E+01 6.66509E-02-6.40871E-04 1.16184E-01-1.24121E-13-1.27324E-13
 -1      3418 2.00033E+01 8.67841E-02 6.04793E-04 1.27812E-01-6.16338E-14-1.83949E-13
 -1      3419 2.00056E+01 6.57397E-02 1.03685E-04 1.07582E-01-1.63671E-13-8.19161E-14
 -1      3420 1.99916E+01 1.07641E-01-8.00103E-04 1.41049E-01-3.86493E-14-1.62051E-13
 -1      3421 1.99902E+01 1.31150E-01 6.66742E-04 1.58487E-01-4.89270E-14-1.30062E-13
 -1      3422 1.99869E+01 1.10011E-01 2.38447E-04 1.28913E-01-4.79231E-14-9.73263E-14
 -1      3423 1.99753E+01 1.55449E-01-9.94159E-04 1.77517E-01-7.56611E-15-1.43190E-13
 -1      3424 1.99728E+01 1.82761E-01 7.39291E-04 2.01650E-01 2.96835E-14-1.10711E-13
 -1      3425 1.99635E+01 1.61640E-01 4.00593E-04 1.60734E-01-3.49210E-15-8.16258E-14
 -1      3426 1.99534E+01 2.10843E-01-1.22730E-03 2.27344E-01-3.46321E-15-9.04507E-14
 -1      3427 1.99490E+01 2.42229E-01 8.19492E-04 2.59101E-01 8.45843E-15-9.62680E-14
 -1      3428 1.99331E+01 2.21501E-01 5.98106E-04 2.04631E-01 4.45817E-14-1.54699E-13
 -1      3429 1.99236E+01 2.74192E-01-1.50156E-03 2.92379E-01 5.27878E-14-4.81708E-14
 -1      3430 1.99166E+01 3.09578E-01 9.04845E-04 3.32692E-01 9.67292E-14 3.04110E-15
 -1      3431 1.98927E+01 2.90108E-01 8.38449E-04 2.62282E-01 7.14710E-14-4.19596E-15
 -1      3432 1.98834E+01 3.45062E-01-1.81597E-03 3.74497E-01 4.30096E-14-4.89128E-14
 -1      3433 1.98728E+01 3.83769E-01 9.96640E-04 4.24221E-01 2.76190E-14-4.47891E-14
 -1      3434 1.98393E+01 3.67236E-01 1.12673E-03 3.35414E-01 5.41615E-14-2.19280E-14
 -1      3435 1.98300E+01 4.21632E-01-2.16568E-03 4.75497E-01-1.73725E-14-1.16001E-13
 -1      3436 1.98150E+01 4.61997E-01 1.10651E-03 5.35333E-01 1.18378E-14-1.82325E-13
 -1      3437 1.97693E+01 4.51366E-01 1.46236E-03 4.25748E-01 1.49645E-15-1.83024E-13
 -1      3438 1.97607E+01 4.99858E-01-2.54054E-03 5.97026E-01 2.41273E-14-2.09786E-13
 -1      3439 1.97408E+01 5.38687E-01 1.26811E-03 6.67441E-01 9.82783E-14-1.63029E-13
 -1      3440 1.96788E+01 5.38921E-01 1.83322E-03 5.35002E-01-1.33858E-14-2.05965E-13
 -1      3441 1.96735E+01 5.72260E-01-2.92265E-03 7.40601E-01 1.33050E-13-1.93886E-13
 -1      3442 1.96492E+01 6.04058E-01 1.55606E-03 8.21802E-01 3.57649E-14-1.81994E-13
 -1      3443 1.95645E+01 6.23187E-01 2.20546E-03 6.65035E-01 9.48392E-14-2.02254E-13
 -1      3444 1.95680E+01 6.26222E-01-3.27991E-03 9.07837E-01-8.37787E-14-1.76653E-13
 -1      3445 1.95419E+01 6.42132E-01 2.11261E-03 9.99841E-01-7.17710E-14-2.02556E-13
 -1      3446 1.94236E+01 6.92810E-01 2.50558E-03 8.18287E-01-2.52443E-14-3.45037E-13
 -1      3447 1.94482E+01 6.41676E-01-3.54855E-03 1.10103E+00-5.00255E-14-1.53374E-13
 -1      3448 1.94268E+01 6.28073E-01 3.17912E-03 1.20385E+00-5.76664E-14-1.63461E-13
 -1      3449 1.92562E+01 7.29747E-01 2.58798E-03 9.98732E-01-7.09653E-14-3.34098E-13
 -1      3450 1.93256E+01 5.88111E-01-3.58457E-03 1.32415E+00-1.10461E-13-1.01137E-13
 -1      3451 1.93230E+01 5.24859E-01 5.12645E-03 1.43792E+00-1.64630E-14-1.37958E-13
 -1      3452 1.90676E+01 7.06501E-01 2.17705E-03 1.21353E+00-4.37013E-14-2.22236E-13
 -1      3453 1.92264E+01 4.21036E-01-3.01351E-03 1.58390E+00 7.37762E-15-1.69745E-13
 -1      3454 1.92687E+01 2.79435E-01 8.44270E-03 1.70846E+00 4.39327E-14-1.92007E-13
 -1      3455 1.88728E+01 5.82483E-01 7.79028E-04 1.47542E+00-3.26828E-14-1.42913E-13
 -1      3456 1.92034E+01 7.84294E-02-7.90826E-04 1.88910E+00-9.37904E-14-3.02266E-13
 -1      3457 1.93369E+01-1.79523E-01 1.40962E-02 2.02062E+00-2.61128E-13-2.91695E-13
 -1      3458 1.87061E+01 2.98720E-01-2.43458E-03 1.80493E+00-1.23185E-13-3.87546E-13
 -1      3459 1.93551E+01-5.21217E-01 5.23363E-03 2.24587E+00-1.39461E-13-8.16816E-14
 -1      3460 1.96472E+01-9.43138E-01 1.99991E-02 2.36684E+00-8.56585E-15-4.46025E-14
 -1      3461 1.86346E+01-2.23394E-01-7.94468E-03 2.22997E+00-3.80010E-14-3.08569E-13
 -1      3462 1.98741E+01-1.47939E+00 2.06664E-02 2.61162E+00-5.86315E-14 9.57680E-14
 -1      3463 2.04451E+01-2.06715E+00 3.83421E-02 2.65027E+00-1.09434E-13 8.25373E-14
 -1      3464 1.88300E+01-1.09846E+00-6.19580E-03 2.79107E+00 9.07473E-14-1.36664E-13
 -1      3465 2.70473E+01-2.30517E+00-1.10565E-01-2.00942E+00-2.13472E-13 2.20759E-13
 -1      3466 2.10660E+01-1.81284E+00-1.95196E-02 4.22834E+00-2.68102E-13 1.79095E-13
 -1      3467 2.20206E+01-2.01491E+00 2.76896E-02 3.76237E+00-4.13883E-13 3.40285E-13
 -1      3468 2.01975E+01 1.60190E-01-1.30366E-03-8.05135E-02 7.43790E-14-8.44540E-14
 -1      3469 2.02240E+01 2.32990E-01 2.42907E-03-3.55101E-02 1.09844E-13-1.00357E-13
 -1      3470 2.31259E+01-3.70386E+00 2.64024E-02-1.83074E+00 4.00235E-14 3.54825E-13
 -1      3471 2.00363E+01-5.13495E-02 4.50700E-04-1.13955E-01-6.78451E-15-1.41277E-14
 -1      3472 2.00375E+01-5.77233E-02-1.32063E-04-1.20760E-01 2.51350E-14-1.96252E-14
 -1      3473 2.00466E+01-6.23941E-02 4.15190E-04-1.27897E-01 6.54729E-14-8.38419E-15
 -1      3474 2.00495E+01-6.57109E-02-8.40363E-07-1.35580E-01 6.79280E-14 4.26374E-14
 -1      3475 2.00700E+01-6.65959E-02-3.69911E-04-1.19498E-01 7.93261E-14 2.49172E-14
 -1      3476 2.00232E+01-1.54816E-02 5.05938E-04-9.77495E-02-4.14030E-14 6.24104E-14
 -1      3477 2.00221E+01-2.61950E-02-3.14469E-04-9.98515E-02 6.91138E-15 2.99134E-14
 -1      3478 2.00190E+01 8.28898E-03 5.43860E-04-9.86694E-02-2.66518E-14 1.06312E-13
 -1      3479 2.00172E+01-4.37652E-03-3.95660E-04-9.72684E-02-2.32186E-14 6.92256E-14
 -1      3480 2.00307E+01-1.03160E-02-1.37260E-04-9.55453E-02-6.05164E-14 1.42903E-14
 -1      3481 2.00155E+01 3.60818E-02 5.96409E-04-1.07476E-01-2.55810E-14 4.82331E-14
 -1      3482 2.00131E+01 2.13110E-02-4.85022E-04-1.01866E-01-5.43640E-15 7.91548E-14
 -1      3483 2.00208E+01 1.78220E-02-6.23669E-05-9.86456E-02 4.87808E-15 5.15880E-14
 -1      3484 2.00120E+01 6.83872E-02 6.66692E-04-1.25593E-01 6.89357E-14-2.24633E-17
 -1      3485 2.00092E+01 5.12310E-02-5.91103E-04-1.15038E-01-4.61632E-15-4.95428E-15
 -1      3486 2.00108E+01 5.07205E-02 1.78613E-05-1.09656E-01 1.47250E-14 4.50606E-14
 -1      3487 2.00077E+01 1.05819E-01 7.55958E-04-1.54555E-01-9.29264E-14 1.71343E-13
 -1      3488 2.00045E+01 8.59542E-02-7.20301E-04-1.38260E-01 6.98529E-15 7.46153E-14
 -1      3489 1.99995E+01 8.89511E-02 1.08051E-04-1.30000E-01-1.39643E-14 6.08121E-14
 -1      3490 2.00017E+01 1.48922E-01 8.63804E-04-1.96029E-01-4.53227E-14 2.45752E-13
 -1      3491 1.99983E+01 1.26086E-01-8.76673E-04-1.73143E-01-1.79539E-14 2.04580E-13
 -1      3492 1.99855E+01 1.33178E-01 2.12738E-04-1.61209E-01-9.71878E-14 1.59566E-13
 -1      3493 1.99930E+01 1.97927E-01 9.88588E-04-2.51789E-01 8.42813E-15 1.43974E-13
 -1      3494 1.99895E+01 1.72050E-01-1.06126E-03-2.21427E-01 1.20457E-14 1.49440E-13
 -1      3495 1.99673E+01 1.83931E-01 3.35501E-04-2.04951E-01 6.36423E-14 6.63663E-14
 -1      3496 1.99806E+01 2.52403E-01 1.12840E-03-3.23620E-01 7.63245E-14 5.98273E-14
 -1      3497 1.99772E+01 2.23800E-01-1.27085E-03-2.84933E-01 3.57495E-16 6.36712E-14
 -1      3498 1.99433E+01 2.41303E-01 4.77438E-04-2.62996E-01 7.60228E-14-7.78443E-14
 -1      3499 1.99636E+01 3.10773E-01 1.28317E-03-4.13168E-01 2.62925E-14 3.43428E-16
 -1      3500 1.99603E+01 2.80406E-01-1.49599E-03-3.65445E-01 8.58009E-14 5.46665E-14
 -1      3501 1.99116E+01 3.04544E-01 6.34500E-04-3.37152E-01 6.51985E-14-5.27687E-14
 -1      3502 1.99415E+01 3.69630E-01 1.45872E-03-5.21722E-01 9.54166E-15-2.07679E-14
 -1      3503 1.99380E+01 3.39484E-01-1.71794E-03-4.64541E-01-7.55340E-15 3.93443E-14
 -1      3504 1.98708E+01 3.71492E-01 7.92941E-04-4.29168E-01 3.30279E-15-7.97920E-14
 -1      3505 1.99148E+01 4.22774E-01 1.67361E-03-6.49943E-01 2.71270E-14-5.10428E-14
 -1      3506 1.99104E+01 3.96376E-01-1.90397E-03-5.83365E-01 7.03852E-14 3.20173E-14
 -1      3507 1.98195E+01 4.37783E-01 9.21737E-04-5.40608E-01 2.03538E-14-1.21065E-13
 -1      3508 1.98861E+01 4.59922E-01 1.96895E-03-7.97551E-01 6.45298E-14-5.43084E-14
 -1      3509 1.98788E+01 4.43037E-01-1.99958E-03-7.22358E-01 4.93330E-14-3.21520E-14
 -1      3510 1.97577E+01 4.95773E-01 9.60176E-04-6.72772E-01 1.39235E-14 1.08013E-13
 -1      3511 1.98616E+01 4.65022E-01 2.41802E-03-9.62973E-01-1.70420E-13-9.19187E-16
 -1      3512 1.98474E+01 4.66547E-01-1.91481E-03-8.80970E-01-5.88158E-14-1.14590E-14
 -1      3513 1.96877E+01 5.33099E-01 7.97578E-04-8.26672E-01 1.64542E-15 1.94431E-13
 -1      3514 1.98546E+01 4.14261E-01 3.12394E-03-1.14285E+00 6.82088E-14-1.12316E-13
 -1      3515 1.98257E+01 4.47264E-01-1.49820E-03-1.05730E+00-6.39105E-14-9.74370E-14
 -1      3516 1.96161E+01 5.30819E-01 2.39903E-04-1.00313E+00-4.46375E-14 4.12324E-14
 -1      3517 1.98893E+01 2.74143E-01 4.18246E-03-1.33106E+00 9.83182E-14-1.36070E-13
 -1      3518 1.98320E+01 3.56806E-01-4.88570E-04-1.24742E+00 1.26592E-13-1.38882E-13
 -1      3519 1.95568E+01 4.61171E-01-1.04271E-03-1.20284E+00 5.36547E-14-1.60328E-13
 -1      3520 2.00069E+01 9.96776E-04 5.67247E-03-1.51617E+00-4.80794E-14-7.70467E-14
 -1      3521 1.98994E+01 1.56647E-01 1.59100E-03-1.44374E+00-8.43713E-15-1.64274E-13
 -1      3522 1.95369E+01 2.85292E-01-3.55336E-03-1.42586E+00 5.93060E-14-8.11048E-14
 -1      3523 2.02726E+01-4.55891E-01 7.32578E-03-1.67575E+00-1.84700E-14 9.73605E-14
 -1      3524 2.00825E+01-2.00660E-01 5.58268E-03-1.63111E+00 2.51806E-16 1.14714E-13
 -1      3525 1.96034E+01-4.73835E-02-7.95825E-03-1.66862E+00-1.05132E-13 1.00268E-14
 -1      3526 2.07845E+01-1.14024E+00 8.73804E-03-1.75955E+00-2.14874E-13 1.75765E-13
 -1      3527 2.04696E+01-7.67888E-01 1.24795E-02-1.77761E+00-2.35759E-14 2.68217E-13
 -1      3528 1.98338E+01-5.97422E-01-1.54795E-02-1.92103E+00-6.52094E-14 1.97685E-13
 -1      3529 2.17153E+01-2.02048E+00 2.35153E-02-1.64310E+00-2.26507E-13 1.71879E-13
 -1      3530 2.11943E+01-1.57086E+00 2.63589E-02-1.80742E+00-2.71549E-13 1.06275E-13
 -1      3531 2.03658E+01-1.41556E+00-2.14766E-02-2.14015E+00-1.84772E-13 2.22700E-13
 -1      3532 2.27925E+01-2.98950E+00 5.44434E-02-1.56778E+00 4.50343E-14 2.75644E-13
 -1      3533 2.19992E+01-2.57582E+00 4.06149E-02-1.90704E+00-1.86685E-13 1.81781E-13
 -1      3534 2.09344E+01-2.49141E+00-2.73484E-02-2.52021E+00-2.79570E-13 1.60403E-13
 -1      3535 2.14546E+01-3.94960E+00-6.78951E-02-3.21340E+00-1.73955E-13 1.22269E-13
 -1      3536 2.26381E+01-1.90069E+00 6.59248E-03 2.63371E+00-6.00746E-13 2.95282E-13
 -1      3537 2.31471E+01-2.37367E+00-1.10118E-02 2.33731E+00-4.99851E-13 2.42887E-13
 -1      3538 2.39410E+01-3.16411E+00-2.34763E-02 2.43831E+00-4.28555E-13 4.85712E-13
 -1      3539 2.24172E+01-1.92004E+00 1.89650E-02 3.11809E+00-4.95420E-13 3.43814E-13
 -1      3540 2.53523E+01-3.99146E+00 9.68337E-02 2.43615E+00-3.88902E-13 3.62453E-13
 -1      3541 2.06929E+01-2.53570E+00-7.31622E-03 4.82135E+00-3.42524E-13 3.61544E-13
 -1      3542 1.49036E+01-1.41356E+00 1.26655E-01-4.11287E+00-1.53566E-13 3.33414E-15
 -1      3543 1.69312E+01-2.40651E+00 6.83681E-03-4.31192E+00-2.30227E-13-3.70259E-14
 -1      3544 1.93138E+01-3.62123E+00-4.35840E-02 4.22808E+00-6.39731E-14 1.65500E-13
 -1      3545 1.73188E+01-2.46653E+00 9.14261E-02 4.24601E+00 7.11410E-14-4.37705E-14
 -1      3546 2.00402E+01-3.05868E+00-2.03332E-02 5.40608E+00-3.19971E-13 3.93637E-13
 -1      3547 2.19844E+01-3.28011E+00 1.14511E-01 4.80862E+00-4.96736E-13 5.59487E-13
 -1      3548 1.45105E+01-1.53866E+00-3.27974E-02 4.02886E+00 1.17149E-13-1.11681E-13
 -1      3549 1.24970E+01-3.99808E-01 1.09382E-01 2.88398E+00 1.34403E-13-8.83321E-15
 -1      3550 2.03192E+01 7.29983E-01 2.49497E-03-2.43862E-01-1.73383E-13-2.72755E-13
 -1      3551 2.02951E+01 5.69331E-01-4.09124E-03-1.41487E-01-1.37486E-13-2.52896E-13
 -1      3552 2.00287E+01-3.54368E-02 4.77499E-04-1.03333E-01 5.80800E-14-1.14562E-15
 -1      3553 2.00287E+01-4.41477E-02-2.30866E-04-1.08206E-01 3.10182E-14-8.66744E-15
 -1      3554 2.00544E+01-5.30114E-02-2.87564E-04-1.07517E-01 1.69477E-14-4.20505E-14
 -1      3555 2.00416E+01-3.39831E-02-2.11039E-04-9.89811E-02 1.40744E-15 8.20878E-14
 -1      3556 2.01006E+01-4.44813E-02 7.69044E-05-1.63283E-01 1.42582E-13-2.20738E-14
 -1      3557 2.01120E+01-2.85156E-02 7.95817E-04-1.62631E-01 1.23745E-13-3.94298E-14
 -1      3558 2.27569E+01-2.71183E+00 3.69264E-02 3.56999E+00-4.97529E-13 5.59611E-13
 -1      3559 2.00398E+01 2.17455E+00-2.98013E-03-1.49844E-01-7.94802E-16-4.37968E-13
 -1      3560 2.00501E+01 2.13553E+00-5.11401E-03-2.70553E-01-4.22075E-14-4.10642E-13
 -1      3561 2.01798E+01 1.78447E+00 5.82716E-03-2.42333E-01-5.86718E-14-3.64281E-13
 -1      3562 2.01475E+01 1.89690E+00 5.35702E-03-8.21089E-02-1.45768E-15-4.03878E-13
 -1      3563 1.80108E+01-2.52126E+00 7.82675E-02 5.80647E+00-1.60167E-13 2.80866E-13
 -1      3564 2.72961E+01 3.09252E+00-2.09150E-01 1.78374E+00-8.83460E-14-2.95791E-13
 -1      3565 2.35275E+01-3.90593E+00-4.22198E-02 3.85243E+00-5.25364E-13 3.86247E-13
 -1      3566 1.12266E+01 2.27827E-02 3.86683E-02 1.71397E+00 1.28642E-13-2.03428E-13
 -1      3567 1.09872E+01 2.62282E-01 4.43928E-02 1.66742E-01 1.38784E-13-4.68466E-13
 -1      3568 2.19071E+01-4.07616E+00 4.52690E-02 3.12160E+00-1.46639E-13 1.96187E-13
 -1      3569 2.02999E+01 4.38461E-01 2.44254E-03-7.27703E-02-1.36757E-13-2.34778E-13
 -1      3570 2.02753E+01 3.25761E-01-2.18531E-03-6.10244E-03-1.42046E-13-2.26817E-13
 -1      3571 2.03157E+01 3.27254E-01-1.86882E-04 1.59721E-03-1.27599E-13-2.00270E-13
 -1      3572 1.96563E+01-3.21387E+00 6.24489E-03-3.74873E+00-1.77683E-13 1.51688E-13
 -1      3573 2.22735E+01-3.01010E+00 3.44909E-02-4.16704E+00 1.22180E-13-3.02299E-13
 -1      3574 2.02961E+01 1.08434E+00-5.41074E-04 4.65919E-01 2.35986E-13-2.30932E-13
 -1      3575 2.02623E+01 1.33319E+00-4.68100E-04 4.31899E-01 2.06498E-13-2.54489E-13
 -1      3576 2.02878E+01 8.85221E-01-1.83711E-03 3.26960E-01 2.18763E-13-2.10024E-13
 -1      3577 2.13183E+01-3.29341E+00 5.22454E-02 2.96002E+00-1.39944E-13 2.17597E-13
 -1      3578 2.01282E+01-7.60013E-03-2.07953E-04-1.58682E-01 9.54858E-14-4.83678E-14
 -1      3579 2.01441E+01 2.11278E-02 1.27248E-03-1.48958E-01 6.24326E-14-6.09401E-14
 -1      3580 2.01730E+01-1.39553E-02-7.11932E-04-1.47628E-01 7.42269E-14-1.10081E-13
 -1      3581 2.07703E+01-3.55263E+00-2.23023E-02-5.41775E+00 3.81020E-13-2.30507E-13
 -1      3582 2.02538E+01 1.42073E+00-6.64467E-04-2.89946E-01-1.03714E-13-3.28749E-13
 -1      3583 2.02712E+01 1.32725E+00-2.57851E-03-3.54669E-01-1.27839E-13-3.44122E-13
 -1      3584 1.86671E+01-2.64230E+00 2.94777E-02-3.89924E+00-1.78720E-13 9.54167E-14
 -1      3585 2.01944E+01-2.44015E+00 3.20621E-02-2.97020E+00-2.29679E-13 2.59405E-13
 -1      3586 1.99731E+01-1.91885E+00-4.02954E-03-2.68134E+00-2.27219E-13 1.81135E-13
 -1      3587 1.77193E+01-1.77339E+00-5.70185E-03-3.53949E+00-1.76486E-13-2.38698E-15
 -1      3588 1.89601E+01-2.21357E+00-1.78254E-02 3.48871E+00 3.13360E-14-3.65533E-14
 -1      3589 2.03915E+01-2.59483E+00 3.08081E-02 3.03812E+00-1.21213E-13 1.50451E-13
 -1      3590 2.01821E+01 1.03669E-01 1.87742E-03-1.10574E-01 3.75160E-14-9.09448E-14
 -1      3591 2.02470E+01 1.61427E-01-6.99098E-04-7.82378E-02 6.13867E-14-1.23395E-13
 -1      3592 2.01609E+01 5.66887E-02-6.50394E-04-1.34524E-01 3.70320E-14-7.62792E-14
 -1      3593 2.02237E+01 1.54677E+00-4.24389E-03 2.86227E-01 1.48736E-13-2.86708E-13
 -1      3594 2.02113E+01 1.60519E+00-2.30356E-03 2.01466E-01 9.09939E-14-3.19406E-13
 -1      3595 1.16635E+01 4.08454E-01 9.01443E-02-6.82064E-01 1.15097E-13-4.34493E-13
 -1      3596 1.24285E+01 2.46703E-01-2.42178E-02-1.50302E+00-3.12974E-14-2.38407E-13
 -1      3597 1.24501E+01 5.54894E-01 4.35822E-02 6.35647E-02 8.90781E-14-3.82999E-13
 -1      3598 2.02824E+01 3.27154E-01-5.06271E-04 7.61082E-03 1.19463E-13-9.37300E-14
 -1      3599 2.02347E+01 3.20569E-01-1.98382E-03 1.58428E-02 1.40877E-13-1.02182E-13
 -1      3600 2.02634E+01 4.27289E-01 1.47959E-03 9.14533E-02 1.78118E-13-1.25942E-13
 -1      3601 1.42794E+01-7.77806E-01 5.64838E-02-3.25171E+00-9.88480E-14-2.45637E-14
 -1      3602 2.02462E+01 1.42089E+00-1.09049E-03 3.64740E-01 1.68690E-13-2.69212E-13
 -1      3603 2.00859E+01-5.52073E-02 4.39040E-04-1.60748E-01 1.09659E-13 3.80172E-14
 -1      3604 2.01405E+01-5.19435E-02-6.37310E-04-1.51440E-01 1.12184E-13-1.11341E-14
 -1      3605 2.00781E+01-6.23055E-02 2.51969E-04-1.56132E-01 5.91363E-14 7.84761E-14
 -1      3606 2.00891E+01-7.30516E-02-4.56101E-04-1.32849E-01 1.19186E-13 1.67371E-14
 -1      3607 2.00604E+01-6.69357E-02 3.55400E-04-1.42957E-01 7.64017E-14 8.60658E-14
 -1      3608 2.00653E+01-6.59753E-02 1.82163E-04-1.50092E-01 1.00163E-13 9.11017E-14
 -1      3609 2.48647E+01 4.25464E+00-2.01099E-01 9.21917E-01-1.30153E-13-4.71958E-13
 -1      3610 1.64619E+01-1.60577E+00 4.85860E-02 3.70139E+00 1.19588E-13-2.63869E-14
 -1      3611 2.02037E+01 1.63901E+00-3.12059E-03 1.30646E-01 7.41599E-14-3.69288E-13
 -1      3612 2.01985E+01 1.65714E+00-3.20220E-03 3.97157E-02 3.52348E-14-3.94589E-13
 -1      3613 2.02863E+01 1.38543E+00 5.15693E-03 1.33891E-01 7.10417E-14-3.28308E-13
 -1      3614 1.30519E+01 1.16343E-02 8.19254E-02 2.11349E+00 1.13459E-13-1.11577E-13
 -1      3615 2.03325E+01 5.77151E-01 6.78600E-04-1.16076E-01-1.29932E-13-2.22741E-13
 -1      3616 2.36150E+01-3.32242E+00 2.36891E-03 3.11272E+00-3.57530E-13 4.93344E-13
 -1      3617 2.03272E+01 9.31202E-01-4.56529E-04-2.24443E-01-1.13532E-13-2.84089E-13
 -1      3618 2.02970E+01 1.10208E+00 2.10834E-04-3.26882E-01-1.48742E-13-3.12831E-13
 -1      3619 2.17187E+01-3.40305E+00-2.34695E-02-4.71990E+00 3.41753E-13-4.56660E-13
 -1      3620 2.02749E+01 1.10857E+00-2.48363E-03-3.92278E-01-1.84727E-13-3.27475E-13
 -1      3621 2.02365E+01 1.49132E+00-4.60803E-03-2.43203E-01-9.35547E-14-3.16444E-13
 -1      3622 2.03082E+01 1.23641E+00 3.47562E-03-2.12968E-01-9.99928E-14-3.09884E-13
 -1      3623 2.02241E+01 1.56746E+00-1.30730E-03-1.73795E-01-6.13977E-14-3.43202E-13
 -1      3624 2.00915E+01-6.85022E-02 4.12451E-04-1.06609E-01 8.55929E-14 2.62635E-15
 -1      3625 2.01001E+01-7.40646E-02 3.25521E-05-1.12439E-01 1.28209E-13 1.18842E-14
 -1      3626 2.03343E+01 2.15520E-01 1.05649E-03 4.68173E-02-8.44360E-14-1.87707E-13
 -1      3627 2.03148E+01 1.41563E-01-7.79611E-04 7.64027E-02-9.13389E-14-1.70838E-13
 -1      3628 2.02989E+01 8.21701E-02 9.47440E-04 9.23478E-02-7.99567E-14-1.39177E-13
 -1      3629 2.02779E+01 3.43960E-02-4.51213E-04 1.07852E-01-5.16697E-14-1.38255E-13
 -1      3630 2.03412E+01 1.30566E-01-2.22376E-04 6.82794E-02-6.49531E-14-1.64441E-13
 -1      3631 2.02587E+01-2.36724E-03 7.76948E-04 1.14689E-01-4.40059E-14-1.44804E-13
 -1      3632 2.02385E+01-3.10189E-02-1.32328E-04 1.20559E-01-2.53278E-14-1.80710E-13
 -1      3633 2.03025E+01 2.47357E-02-4.24212E-04 9.37448E-02-5.60000E-14-1.62103E-13
 -1      3634 2.02182E+01-5.16717E-02 5.46529E-04 1.21328E-01-2.82609E-14-1.60701E-13
 -1      3635 2.02002E+01-6.65598E-02 1.14518E-04 1.21144E-01-5.42058E-14-1.70055E-13
 -1      3636 2.02604E+01-3.92112E-02-5.01241E-04 1.03701E-01-2.41612E-14-1.48518E-13
 -1      3637 2.01803E+01-7.59091E-02 3.42527E-04 1.18252E-01-4.35704E-14-1.43907E-13
 -1      3638 2.01648E+01-8.10390E-02 2.69587E-04 1.14678E-01-3.32172E-14-1.21513E-13
 -1      3639 2.02190E+01-7.32085E-02-5.34976E-04 1.03740E-01-3.16542E-14-1.51244E-13
 -1      3640 2.01464E+01-8.24179E-02 1.77878E-04 1.10035E-01-6.67382E-14-1.12608E-13
 -1      3641 2.01334E+01-8.06811E-02 3.55109E-04 1.05061E-01-7.11275E-14-1.03191E-13
 -1      3642 2.01804E+01-8.57666E-02-5.15049E-04 9.81298E-02-5.84686E-14-9.56926E-14
 -1      3643 2.01167E+01-7.64486E-02 4.29468E-05 1.00064E-01-9.54669E-14-9.44324E-14
 -1      3644 2.01059E+01-6.98120E-02 3.95741E-04 9.51331E-02-8.20572E-14-1.00824E-13
 -1      3645 2.01457E+01-8.31431E-02-4.53437E-04 9.01494E-02-7.39456E-14-7.46229E-14
 -1      3646 2.00909E+01-6.14812E-02-7.35859E-05 9.08006E-02-3.87313E-14-4.48909E-14
 -1      3647 2.00819E+01-5.11580E-02 4.12239E-04 8.69988E-02-5.08714E-15-5.35804E-14
 -1      3648 2.01149E+01-6.96627E-02-3.69238E-04 8.21737E-02-3.42180E-14 3.87885E-14
 -1      3649 2.00682E+01-3.96184E-02-1.80753E-04 8.41187E-02-1.65602E-14-1.00398E-13
 -1      3650 2.00604E+01-2.62593E-02 4.14318E-04 8.22919E-02-2.27001E-14-1.00258E-13
 -1      3651 2.00874E+01-4.79986E-02-2.68076E-04 7.60080E-02-3.58011E-14-8.71227E-14
 -1      3652 2.00474E+01-1.19202E-02-2.89068E-04 8.14987E-02-4.58541E-14-1.29937E-13
 -1      3653 2.00404E+01 4.25745E-03 4.10129E-04 8.23524E-02-5.61620E-14-1.92628E-13
 -1      3654 2.00622E+01-1.96091E-02-1.50784E-04 7.30724E-02-4.69120E-14-1.51858E-13
 -1      3655 2.00271E+01 2.13577E-02-4.08144E-04 8.42001E-02-5.29423E-14-2.51014E-13
 -1      3656 2.00201E+01 4.04673E-02 4.05022E-04 8.83790E-02-9.83547E-14-2.26844E-13
 -1      3657 2.00377E+01 1.49740E-02-1.74913E-05 7.45387E-02-7.93446E-14-1.87572E-13
 -1      3658 2.00057E+01 6.05614E-02-5.45971E-04 9.34042E-02-1.09615E-13-1.32529E-13
 -1      3659 1.99979E+01 8.29471E-02 4.01363E-04 1.01549E-01-9.51546E-14-8.83822E-14
 -1      3660 2.00121E+01 5.59353E-02 1.35251E-04 8.14700E-02-5.36315E-14-1.99143E-13
 -1      3661 1.99810E+01 1.06444E-01-7.09744E-04 1.10310E-01-6.32743E-14-6.53566E-14
 -1      3662 1.99715E+01 1.32584E-01 3.99096E-04 1.23091E-01-6.56326E-14-7.40401E-14
 -1      3663 1.99833E+01 1.03955E-01 3.13117E-04 9.49158E-02-5.76475E-14-6.11621E-14
 -1      3664 1.99507E+01 1.59973E-01-9.05902E-04 1.36191E-01-4.27722E-14-4.63693E-14
 -1      3665 1.99384E+01 1.90373E-01 3.96269E-04 1.54322E-01 2.66816E-14-5.59416E-14
 -1      3666 1.99486E+01 1.59996E-01 5.23354E-04 1.15968E-01-3.34403E-14-2.04512E-14
 -1      3667 1.99120E+01 2.22108E-01-1.14009E-03 1.72415E-01 2.51752E-14-1.74819E-14
 -1      3668 1.98956E+01 2.57175E-01 3.89752E-04 1.96649E-01 3.38628E-14-1.80320E-14
 -1      3669 1.99049E+01 2.25077E-01 7.74350E-04 1.45783E-01 2.56714E-14 1.11512E-13
 -1      3670 1.98617E+01 2.93531E-01-1.41728E-03 2.20434E-01 5.06415E-14-4.41996E-14
 -1      3671 1.98396E+01 3.33405E-01 3.76559E-04 2.51543E-01 7.71039E-14-4.18683E-14
 -1      3672 1.98487E+01 3.00002E-01 1.07514E-03 1.85583E-01 4.14246E-14 3.17398E-15
 -1      3673 1.97960E+01 3.74288E-01-1.74240E-03 2.81756E-01 2.82790E-14-1.14307E-13
 -1      3674 1.97666E+01 4.18623E-01 3.56454E-04 3.20499E-01 3.54410E-14-1.80826E-13
 -1      3675 1.97758E+01 3.85012E-01 1.43481E-03 2.36635E-01-1.74136E-14-2.39056E-13
 -1      3676 1.97105E+01 4.63306E-01-2.12178E-03 3.57916E-01 6.96599E-14-2.02773E-13
 -1      3677 1.96720E+01 5.10970E-01 3.36898E-04 4.05028E-01-2.04888E-14-2.15217E-13
 -1      3678 1.96815E+01 4.79345E-01 1.86166E-03 3.00241E-01 3.42617E-14-1.94120E-13
 -1      3679 1.96007E+01 5.57740E-01-2.56645E-03 4.50504E-01-2.40522E-14-2.05101E-13
 -1      3680 1.95511E+01 6.06416E-01 3.41972E-04 5.06725E-01 5.38934E-14-1.12062E-13
 -1      3681 1.95604E+01 5.80655E-01 2.36232E-03 3.77783E-01 2.18956E-14-1.22280E-13
 -1      3682 1.94614E+01 6.52088E-01-3.09790E-03 5.61340E-01 2.70325E-14-1.65308E-13
 -1      3683 1.93994E+01 6.97749E-01 4.27681E-04 6.27555E-01 1.08742E-14-1.33172E-13
 -1      3684 1.94067E+01 6.84266E-01 2.94060E-03 4.70912E-01 1.28687E-15-1.56202E-13
 -1      3685 1.92879E+01 7.37024E-01-3.75697E-03 6.92953E-01-1.90469E-14-2.81002E-13
 -1      3686 1.92129E+01 7.73235E-01 7.06687E-04 7.70552E-01-1.08274E-13-3.22549E-13
 -1      3687 1.92139E+01 7.82236E-01 3.59584E-03 5.82046E-01-6.54130E-14-2.19484E-13
 -1      3688 1.90762E+01 7.97847E-01-4.61409E-03 8.49616E-01-6.65612E-14-2.53311E-13
 -1      3689 1.89897E+01 8.14858E-01 1.38305E-03 9.41187E-01-1.29508E-14-2.36113E-13
 -1      3690 1.89756E+01 8.62178E-01 4.31845E-03 7.15419E-01-1.96004E-14-2.21349E-13
 -1      3691 1.88243E+01 8.12431E-01-5.77384E-03 1.03926E+00-2.63489E-14-2.36102E-13
 -1      3692 1.87321E+01 7.95938E-01 2.78937E-03 1.14973E+00 2.18044E-14-1.45688E-13
 -1      3693 1.86856E+01 9.05721E-01 5.07258E-03 8.79071E-01 3.33246E-14 3.81178E-15
 -1      3694 1.85355E+01 7.48488E-01-7.35376E-03 1.27648E+00-3.26703E-14-1.09151E-13
 -1      3695 1.84509E+01 6.78104E-01 5.54786E-03 1.41463E+00-4.67736E-14-6.60863E-14
 -1      3696 1.83384E+01 8.86354E-01 5.75306E-03 1.08815E+00 3.83520E-14-2.40823E-15
 -1      3697 1.82224E+01 5.59731E-01-9.32618E-03 1.58745E+00-7.90057E-14-2.33201E-13
 -1      3698 1.81719E+01 4.05580E-01 1.03614E-02 1.76728E+00-1.59831E-13-2.87198E-13
 -1      3699 1.79314E+01 7.66885E-01 6.23380E-03 1.37023E+00-1.38569E-13-1.23615E-13
 -1      3700 1.79206E+01 1.75881E-01-1.13984E-02 2.01161E+00-5.06056E-14-2.17524E-13
 -1      3701 1.79477E+01-1.04164E-01 1.63288E-02 2.25147E+00 1.77772E-13-4.47717E-14
 -1      3702 1.74727E+01 4.90028E-01 6.93894E-03 1.77537E+00-1.13624E-16-2.82446E-14
 -1      3703 1.76742E+01-4.86095E-01-1.63292E-02 2.59406E+00 2.32203E-13-1.43075E-13
 -1      3704 1.78488E+01-1.00704E+00-3.39973E-03 2.96049E+00 1.79987E-13-7.68602E-15
 -1      3705 1.70059E+01-1.48145E-02 1.83507E-02 2.35987E+00 1.49953E-13-1.32303E-14
 -1      3706 2.03017E+01 1.22740E+00 4.08446E-03 2.68552E-01 1.43664E-13-2.51177E-13
 -1      3707 2.00226E+01 2.90396E-02 4.69830E-04-9.36660E-02 2.32366E-15-1.14409E-14
 -1      3708 2.00269E+01 1.20307E-02-4.06022E-04-9.01334E-02-2.46215E-14 3.91064E-15
 -1      3709 2.00379E+01-3.12129E-03 4.58096E-04-8.87911E-02-5.31799E-14 5.50091E-15
 -1      3710 2.00425E+01-1.75483E-02-2.96552E-04-8.87278E-02-5.84475E-14 2.38200E-14
 -1      3711 2.00381E+01 5.97614E-03-6.17382E-05-8.27824E-02-8.48167E-15 5.26600E-16
 -1      3712 1.99876E+01 1.10297E-01 5.17360E-04-1.27557E-01-7.60503E-14 4.27587E-14
 -1      3713 1.99929E+01 8.72655E-02-6.77937E-04-1.15010E-01-7.11091E-14-2.44664E-14
 -1      3714 1.99644E+01 1.60782E-01 5.55855E-04-1.59379E-01-4.47393E-14-2.04495E-14
 -1      3715 1.99712E+01 1.34192E-01-8.53327E-04-1.41199E-01-4.20222E-14 1.04648E-14
 -1      3716 1.99673E+01 1.35826E-01 3.72570E-04-1.24688E-01-2.71762E-14-1.01834E-13
 -1      3717 1.99346E+01 2.18607E-01 6.04535E-04-2.03193E-01 8.59398E-14-8.87928E-14
 -1      3718 1.99438E+01 1.88225E-01-1.06088E-03-1.78559E-01 4.72033E-14-4.14948E-14
 -1      3719 1.99337E+01 1.93461E-01 5.64825E-04-1.56617E-01 3.81684E-14-2.03894E-13
 -1      3720 1.98960E+01 2.83776E-01 6.64428E-04-2.60699E-01 8.15274E-14-8.03591E-14
 -1      3721 1.99084E+01 2.49678E-01-1.30238E-03-2.28759E-01 1.21609E-13-5.67015E-14
 -1      3722 1.98907E+01 2.59227E-01 7.87509E-04-1.99968E-01 9.30716E-14-1.17565E-13
 -1      3723 1.98461E+01 3.55330E-01 7.39993E-04-3.33663E-01 1.49370E-14-5.54203E-14
 -1      3724 1.98625E+01 3.18135E-01-1.57690E-03-2.93574E-01 2.39507E-14-1.05974E-13
 -1      3725 1.98355E+01 3.32936E-01 1.04123E-03-2.56409E-01 5.11526E-14-9.44666E-14
 -1      3726 1.97826E+01 4.30744E-01 8.43645E-04-4.23867E-01 3.41978E-14-4.84309E-14
 -1      3727 1.98038E+01 3.91941E-01-1.88029E-03-3.74842E-01 5.15321E-14-2.20730E-16
 -1      3728 1.97648E+01 4.13256E-01 1.32117E-03-3.27749E-01-2.77226E-15-1.56642E-13
 -1      3729 1.97037E+01 5.05125E-01 1.00343E-03-5.33095E-01-3.33325E-14-8.74913E-14
 -1      3730 1.97300E+01 4.67496E-01-2.20473E-03-4.74437E-01-9.04970E-16-1.09727E-13
 -1      3731 1.96756E+01 4.97073E-01 1.61322E-03-4.15966E-01 2.94174E-14-2.08050E-14
 -1      3732 1.96087E+01 5.70140E-01 1.27533E-03-6.63205E-01-4.27491E-14 6.62984E-14
 -1      3733 1.96395E+01 5.38330E-01-2.53807E-03-5.94311E-01-4.79191E-14-5.22500E-15
 -1      3734 1.95652E+01 5.78636E-01 1.88788E-03-5.23342E-01-1.11225E-13-3.47432E-14
 -1      3735 1.94996E+01 6.12623E-01 1.76158E-03-8.16402E-01-4.54633E-15 1.03739E-13
 -1      3736 1.95326E+01 5.93869E-01-2.86153E-03-7.36679E-01 9.84672E-16 7.83217E-14
 -1      3737 1.94317E+01 6.48469E-01 2.09028E-03-6.52778E-01-2.18391E-14-6.54335E-14
 -1      3738 1.93826E+01 6.12807E-01 2.63401E-03-9.95768E-01 1.46769E-14-7.53010E-14
 -1      3739 1.94126E+01 6.17863E-01-3.14074E-03-9.04466E-01 2.49351E-14 1.18373E-13
 -1      3740 1.92755E+01 6.91977E-01 2.12214E-03-8.08464E-01-9.19370E-16-1.07893E-13
 -1      3741 1.92721E+01 5.42089E-01 4.14207E-03-1.20605E+00 6.61232E-14-2.33008E-14
 -1      3742 1.92885E+01 5.86409E-01-3.29502E-03-1.10208E+00 1.10199E-14-3.34688E-14
 -1      3743 1.91009E+01 6.87639E-01 1.80442E-03-9.97054E-01 2.14027E-14-1.13235E-14
 -1      3744 1.91962E+01 3.60693E-01 6.78499E-03-1.45400E+00-5.50733E-14 1.31999E-13
 -1      3745 1.91795E+01 4.65547E-01-3.10904E-03-1.33626E+00 3.62689E-14 3.09220E-14
 -1      3746 1.89190E+01 6.04508E-01 8.07874E-04-1.22940E+00-5.09577E-14 1.53961E-13
 -1      3747 1.92016E+01 1.32829E-02 9.52137E-03-1.74757E+00-1.17183E-13 1.80246E-13
 -1      3748 1.91229E+01 2.08056E-01-2.09118E-03-1.61644E+00-7.10983E-14 1.62995E-13
 -1      3749 1.87532E+01 3.99614E-01-1.30400E-03-1.52238E+00-6.83089E-14 1.62382E-13
 -1      3750 1.93712E+01-5.64601E-01 1.23884E-02-2.08441E+00-1.69538E-13 3.30565E-13
 -1      3751 1.91882E+01-2.41594E-01 3.00483E-03-1.94415E+00-9.88153E-14 2.20625E-13
 -1      3752 1.86663E+01 1.44617E-02 1.81960E-04-1.90613E+00-1.34402E-13 2.06454E-13
 -1      3753 1.97890E+01-1.38596E+00 1.77246E-02-2.44386E+00-2.29347E-13 3.10001E-13
 -1      3754 1.94234E+01-9.26919E-01 3.72899E-03-2.31328E+00-2.01333E-13 3.22056E-13
 -1      3755 1.86494E+01-5.84139E-01-2.03992E-02-2.34070E+00-2.30677E-13 2.99467E-13
 -1      3756 1.89063E+01-1.43345E+00 6.61799E-04-2.89081E+00-1.47193E-13 2.48939E-13
 -1      3757 2.02760E+01 5.57562E-01-2.07848E-03 1.52256E-01 1.87089E-13-1.53864E-13
 -1      3758 2.02968E+01 6.98424E-01-4.34605E-04 2.56424E-01 2.02639E-13-1.67786E-13
 -1      3759 2.03236E+01 8.96307E-01 1.95615E-03 2.60381E-01 1.63647E-13-1.96816E-13
 -1      3760 2.03166E+01 5.68952E-01 9.37470E-04 1.27547E-01 1.44065E-13-8.47069E-14
 -1      3761 2.00064E+01 6.66244E-02 4.88907E-04-1.06139E-01-6.29961E-15-3.11309E-14
 -1      3762 2.00108E+01 4.67850E-02-5.30743E-04-9.84569E-02 5.38494E-14-3.94575E-15
 -1      3763 1.99944E+01 8.58604E-02 2.07237E-04-1.02650E-01-4.15637E-14-5.31084E-14
 -1      3764 2.03561E+01 7.03199E-01 8.78724E-04-1.48874E-01-1.05215E-13-2.60825E-13
 -1      3765 2.03516E+01 5.46999E-01-2.16159E-03-7.49076E-02-1.04433E-13-2.44240E-13
 -1      3766 2.03458E+01 9.09328E-01 1.10123E-03-1.74930E-01-8.77672E-14-2.88176E-13
 -1      3767 1.37972E+01 4.67320E-02 9.49650E-02-2.48917E+00-1.67439E-13-2.34151E-13
 -1      3768 1.54436E+01-7.87050E-01-1.31190E-02-3.19493E+00-2.03147E-13-1.66256E-14
 -1      3769 1.40621E+01-7.80801E-02-1.93369E-02 2.43072E+00 8.70814E-14-4.06550E-14
 -1      3770 1.31948E+01 4.38297E-01 3.48924E-02 1.36458E+00 1.14523E-13-1.61371E-13
 -1      3771 2.03571E+01 4.15511E-01 1.09427E-03-3.01966E-02-1.04440E-13-2.14220E-13
 -1      3772 2.03428E+01 3.05744E-01-1.27812E-03 1.83195E-02-1.01341E-13-2.03492E-13
 -1      3773 2.03696E+01 2.93033E-01-2.40883E-06 2.10221E-02-7.67683E-14-2.05130E-13
 -1      3774 2.03291E+01 9.59625E-01-3.42358E-03 2.34748E-01 1.40296E-13-2.44260E-13
 -1      3775 2.03276E+01 1.09031E+00 1.33250E-04 1.80336E-01 1.04705E-13-2.64009E-13
 -1      3776 1.67279E+01-1.00703E+00 4.55407E-02-3.30149E+00-1.70205E-13-2.28983E-16
 -1      3777 1.80838E+01-1.26627E+00 1.81840E-02-3.02918E+00-1.57676E-13 1.00217E-13
 -1      3778 1.79242E+01-7.90634E-01 1.41973E-03-2.71969E+00-1.33165E-13 8.51029E-14
 -1      3779 1.59067E+01-3.54869E-01-2.68819E-02-2.69877E+00-2.24421E-13-9.48130E-14
 -1      3780 2.00780E+01-6.13511E-02-8.69130E-05-1.01402E-01 5.35715E-14 2.30929E-14
 -1      3781 2.01047E+01-6.97422E-02-3.69063E-04-9.48331E-02 8.41451E-14 2.63029E-14
 -1      3782 2.00712E+01-5.22878E-02 4.38068E-04-9.66659E-02-1.63799E-15 6.15243E-15
 -1      3783 2.03445E+01 7.86689E-01 1.25553E-03 1.70188E-01 1.35602E-13-2.07550E-13
 -1      3784 2.02092E+01 5.31215E-02-7.45634E-04-1.26278E-01 5.77585E-14-1.13841E-13
 -1      3785 2.02839E+01 1.49109E-01-1.14988E-03-8.02603E-02 5.13143E-14-1.49643E-13
 -1      3786 2.03059E+01 2.23638E-01 1.58592E-03-4.62681E-02 7.81860E-14-1.31962E-13
 -1      3787 1.32695E+01 6.59697E-01 4.16328E-02 7.13503E-01 1.29568E-13-4.10085E-13
 -1      3788 1.34903E+01 7.02369E-01-2.47779E-02-8.72664E-02 9.31191E-14-3.77495E-13
 -1      3789 1.42991E+01 6.58514E-01 1.79164E-02 1.05054E+00 1.70385E-13-2.42919E-13
 -1      3790 1.38895E+01 3.10957E-01 3.31747E-02-1.69772E+00-1.24467E-13-1.86181E-13
 -1      3791 2.03134E+01 3.13836E-01-1.62208E-03-1.06790E-02 1.16879E-13-1.39393E-13
 -1      3792 2.03313E+01 4.22776E-01 6.27974E-04 4.55415E-02 1.41240E-13-1.11057E-13
 -1      3793 2.03469E+01 3.06730E-01 2.76806E-05-1.58753E-02 1.03854E-13-1.41397E-13
 -1      3794 2.01125E+01-6.95865E-02-5.49160E-04-1.44771E-01 7.30414E-14 5.04929E-14
 -1      3795 2.01153E+01-7.73019E-02 3.60753E-04-1.18246E-01 1.13290E-13-3.12288E-14
 -1      3796 2.01261E+01-7.80997E-02 1.83409E-04-1.23976E-01 9.49806E-14-4.98320E-14
 -1      3797 2.01324E+01-8.09897E-02-4.55776E-04-1.04523E-01 1.09580E-13-2.68941E-14
 -1      3798 1.67196E+01-1.19075E+00 1.45222E-02 3.32238E+00 1.25414E-13-1.03563E-13
 -1      3799 1.56290E+01-4.67528E-01 4.95506E-02 2.97095E+00 1.33458E-13-6.07431E-14
 -1      3800 2.03213E+01 1.14524E+00-3.58322E-03 1.35473E-01 9.31041E-14-2.77629E-13
 -1      3801 2.03203E+01 1.17915E+00-2.26247E-03 7.72434E-02 4.27916E-14-3.12701E-13
 -1      3802 2.02874E+01 1.39676E+00 5.23579E-03 9.35263E-03 9.18121E-15-3.43409E-13
 -1      3803 2.02063E+01 1.63752E+00-1.75363E-03-2.61723E-02 5.28887E-16-3.72550E-13
 -1      3804 2.02154E+01 1.59266E+00-3.74297E-03-1.04734E-01-3.79228E-14-3.65265E-13
 -1      3805 2.03488E+01 9.59517E-01-2.53815E-03-1.55836E-01-8.67551E-14-2.91022E-13
 -1      3806 2.03818E+01 7.35289E-01 1.05441E-03-8.81854E-02-8.14872E-14-2.81411E-13
 -1      3807 2.03451E+01 1.03691E+00 2.59444E-04-1.23097E-01-6.31577E-14-2.94384E-13
 -1      3808 2.00173E+01 4.28220E-02 6.40846E-05-8.91074E-02 7.73795E-15-9.84061E-14
 -1      3809 2.01750E+01-5.99899E-02 1.01313E-04-1.36041E-01 7.03953E-14-3.63808E-14
 -1      3810 2.01913E+01-4.45288E-02 6.24984E-04-1.36055E-01 7.78481E-14-8.90641E-14
 -1      3811 2.00537E+01-3.02531E-02 4.49681E-04-9.02302E-02-4.63548E-14 5.48699E-14
 -1      3812 2.00592E+01-4.21346E-02-1.93485E-04-9.29476E-02-2.23735E-14 2.07117E-14
 -1      3813 2.00804E+01-5.06219E-02-2.76219E-04-8.69347E-02-3.03504E-14 9.74241E-14
 -1      3814 2.03783E+01 5.32162E-01 5.76266E-04-5.47160E-02-8.96604E-14-2.49200E-13
 -1      3815 1.54872E+01 1.74756E-02 4.08729E-03 2.31710E+00 1.34899E-13-8.60891E-14
 -1      3816 2.03689E+01 9.21068E-01 3.25006E-03 1.17179E-01 9.30183E-14-2.47815E-13
 -1      3817 2.02390E+01-3.13317E-02-5.35471E-04-1.19175E-01 4.97833E-14-1.22792E-13
 -1      3818 2.02104E+01-2.35058E-02-1.68750E-04-1.34473E-01 6.28411E-14-9.57024E-14
 -1      3819 2.02295E+01 5.55361E-03 9.35210E-04-1.27497E-01 4.62622E-14-1.23696E-13
 -1      3820 2.00586E+01-2.51642E-02-1.74329E-04-8.24654E-02-1.03193E-14 3.75574E-14
 -1      3821 2.03765E+01 9.75486E-01 4.12508E-03 4.28366E-02 2.91724E-14-2.92675E-13
 -1      3822 2.03241E+01 1.17476E+00-1.95702E-03 3.57941E-02 3.58816E-14-3.14194E-13
 -1      3823 2.03271E+01 1.14927E+00-3.99395E-03-1.74826E-02-7.94127E-15-2.97165E-13
 -1      3824 2.03411E+01 5.16801E-02 4.59133E-04 7.09826E-02-5.54424E-14-1.74955E-13
 -1      3825 2.03195E+01 7.96220E-03-2.19160E-04 8.02999E-02-4.02271E-14-1.75186E-13
 -1      3826 2.02982E+01-2.55460E-02 4.96797E-04 8.28479E-02-1.96411E-14-1.87442E-13
 -1      3827 2.02763E+01-5.07701E-02 4.79194E-06 8.60501E-02-1.84408E-14-1.71471E-13
 -1      3828 2.03301E+01-3.96141E-03-4.11469E-04 6.27025E-02-2.25726E-14-1.42186E-13
 -1      3829 2.02538E+01-6.84699E-02 3.85613E-04 8.52829E-02-2.61131E-14-1.96198E-13
 -1      3830 2.02331E+01-8.03615E-02 1.81755E-04 8.46587E-02-2.26812E-14-1.71393E-13
 -1      3831 2.02848E+01-5.89779E-02-5.11068E-04 6.64962E-02-4.74739E-14-1.30538E-13
 -1      3832 2.02111E+01-8.69324E-02 2.73344E-04 8.20084E-02-1.91626E-14-1.68346E-13
 -1      3833 2.01924E+01-8.92571E-02 2.87803E-04 7.93819E-02-4.26512E-14-1.47669E-13
 -1      3834 2.02396E+01-8.54837E-02-5.37836E-04 6.51993E-02-2.17302E-14-2.13315E-13
 -1      3835 2.01718E+01-8.80022E-02 1.66139E-04 7.60735E-02-2.78775E-14-7.69838E-14
 -1      3836 2.01554E+01-8.36040E-02 3.32108E-04 7.27491E-02-6.37561E-15-4.73751E-16
 -1      3837 2.01970E+01-9.15596E-02-5.07088E-04 6.11073E-02 4.57406E-14-9.02719E-14
 -1      3838 2.01365E+01-7.66895E-02 6.03540E-05 6.95092E-02-5.22938E-14 9.35904E-17
 -1      3839 2.01220E+01-6.73307E-02 3.46891E-04 6.65170E-02-8.14017E-15-2.38805E-14
 -1      3840 2.01582E+01-8.32129E-02-4.46667E-04 5.62215E-02-1.80837E-14-1.73184E-14
 -1      3841 2.01046E+01-5.61520E-02-4.18822E-05 6.40086E-02-3.66591E-14-4.87216E-14
 -1      3842 2.00916E+01-4.29110E-02 3.35012E-04 6.21284E-02-4.24170E-14-9.16881E-14
 -1      3843 2.01228E+01-6.41208E-02-3.51273E-04 5.17740E-02-6.01801E-14-7.42995E-14
 -1      3844 2.00752E+01-2.82445E-02-1.46891E-04 6.08459E-02-3.50729E-14-1.30051E-13
 -1      3845 2.00631E+01-1.16478E-02 3.06904E-04 6.06928E-02-3.64343E-14-1.41427E-13
 -1      3846 2.00902E+01-3.66372E-02-2.24825E-04 4.89562E-02-4.03143E-14-2.53623E-14
 -1      3847 2.00468E+01 6.22747E-03-2.63777E-04 6.10312E-02-4.82528E-14-1.30049E-13
 -1      3848 2.00347E+01 2.61005E-02 2.68694E-04 6.31351E-02-9.48417E-14-1.27278E-13
 -1      3849 2.00588E+01-1.94856E-03-7.68818E-05 4.85954E-02-5.09549E-14-6.60015E-14
 -1      3850 2.00174E+01 4.72749E-02-3.97513E-04 6.54623E-02-4.46744E-14-8.29964E-14
 -1      3851 2.00044E+01 7.06606E-02 2.22782E-04 7.03184E-02 5.85705E-15-4.27710E-14
 -1      3852 2.00269E+01 3.97243E-02 9.38745E-05 5.14156E-02-5.38273E-14-1.12053E-14
 -1      3853 1.99848E+01 9.54796E-02-5.53837E-04 7.50013E-02 1.33346E-15-1.99714E-14
 -1      3854 1.99695E+01 1.22819E-01 1.68877E-04 8.31036E-02-4.03257E-14 2.94370E-14
 -1      3855 1.99921E+01 8.88248E-02 2.92261E-04 5.80966E-02 2.81544E-14 3.72014E-14
 -1      3856 1.99460E+01 1.51774E-01-7.38545E-04 9.05259E-02-3.89557E-14 3.09748E-14
 -1      3857 1.99272E+01 1.83600E-01 1.04590E-04 1.02384E-01 2.85407E-14 5.22936E-14
 -1      3858 1.99513E+01 1.46224E-01 5.25168E-04 6.93119E-02 4.37686E-15 4.22792E-14
 -1      3859 1.98979E+01 2.17212E-01-9.57295E-04 1.12953E-01 2.11233E-14 9.60257E-14
 -1      3860 1.98737E+01 2.54023E-01 2.59479E-05 1.29093E-01 5.11689E-14 1.17338E-13
 -1      3861 1.99014E+01 2.12982E-01 8.01223E-04 8.57489E-02 3.33171E-14 1.05976E-13
 -1      3862 1.98366E+01 2.92704E-01-1.21582E-03 1.43242E-01-2.86339E-14 8.38145E-14
 -1      3863 1.98052E+01 3.34810E-01-7.18808E-05 1.64199E-01-4.34386E-14-2.77097E-14
 -1      3864 1.98382E+01 2.90081E-01 1.13058E-03 1.08109E-01-2.67446E-14 5.89113E-15
 -1      3865 1.97576E+01 3.78694E-01-1.52082E-03 1.82374E-01-5.51304E-14-1.18335E-13
 -1      3866 1.97168E+01 4.26026E-01-1.93328E-04 2.08678E-01-3.44096E-14-1.34511E-13
 -1      3867 1.97573E+01 3.78117E-01 1.52492E-03 1.37096E-01-9.79386E-14-3.63161E-14
 -1      3868 1.96559E+01 4.74752E-01-1.88202E-03 2.31342E-01 5.11761E-14-1.54659E-13
 -1      3869 1.96030E+01 5.26625E-01-3.40179E-04 2.63520E-01 2.69425E-14-7.25544E-14
 -1      3870 1.96534E+01 4.76912E-01 1.99803E-03 1.73397E-01-5.63350E-15-8.75683E-14
 -1      3871 1.95255E+01 5.79062E-01-2.31667E-03 2.91173E-01 6.11844E-15-5.32714E-14
 -1      3872 1.94578E+01 6.33881E-01-5.07669E-04 3.29787E-01 7.32861E-14-4.17394E-14
 -1      3873 1.95203E+01 5.85062E-01 2.56745E-03 2.17698E-01 7.57175E-14-7.36236E-14
 -1      3874 1.93598E+01 6.87792E-01-2.85802E-03 3.63050E-01-3.30809E-14-1.04176E-13
 -1      3875 1.92742E+01 7.42708E-01-6.77913E-04 4.08845E-01-1.15504E-13-1.55959E-13
 -1      3876 1.93511E+01 6.99405E-01 3.25824E-03 2.70771E-01-5.64329E-14 1.64194E-14
 -1      3877 1.91511E+01 7.94350E-01-3.57047E-03 4.48674E-01-5.03657E-14-1.87414E-13
 -1      3878 1.90444E+01 8.44865E-01-8.08829E-04 5.02914E-01-1.18415E-14-1.01387E-13
 -1      3879 1.91376E+01 8.14438E-01 4.11068E-03 3.33747E-01-8.26083E-14-5.61590E-14
 -1      3880 1.88903E+01 8.88522E-01-4.57479E-03 5.51051E-01 5.31868E-14-1.50056E-13
 -1      3881 1.87596E+01 9.28072E-01-8.13936E-04 6.16209E-01 6.07391E-14-3.92976E-14
 -1      3882 1.88700E+01 9.21749E-01 5.19512E-03 4.08718E-01-3.35058E-14 1.01519E-14
 -1      3883 1.85667E+01 9.55517E-01-6.08481E-03 6.76075E-01 9.37835E-14 5.10356E-15
 -1      3884 1.84094E+01 9.74978E-01-5.22835E-04 7.57068E-01 1.52300E-13 8.09951E-14
 -1      3885 1.85358E+01 1.00953E+00 6.63729E-03 4.99987E-01 1.14916E-13-7.47609E-14
 -1      3886 1.81664E+01 9.74742E-01-8.44425E-03 8.35443E-01 5.86647E-14 1.05844E-14
 -1      3887 1.79814E+01 9.61548E-01 2.70965E-04 9.41692E-01-9.43406E-14-1.99446E-14
 -1      3888 1.81179E+01 1.06212E+00 8.63879E-03 6.16470E-01 8.95478E-14-8.25927E-14
 -1      3889 1.76722E+01 9.17821E-01-1.20982E-02 1.05072E+00-1.82124E-13 2.63152E-15
 -1      3890 1.74597E+01 8.55119E-01 1.87109E-03 1.19952E+00-1.61153E-13 5.11130E-14
 -1      3891 1.75920E+01 1.05840E+00 1.14365E-02 7.75886E-01-8.31367E-14-1.81193E-14
 -1      3892 1.70569E+01 7.48599E-01-1.72826E-02 1.35984E+00-1.29993E-13 6.15314E-14
 -1      3893 1.68089E+01 5.98722E-01-3.18807E-04 1.58916E+00-6.67110E-16 1.70327E-14
 -1      3894 1.69243E+01 9.71204E-01 1.65224E-02 1.00725E+00-1.41204E-13 9.07924E-14
 -1      3895 1.63064E+01 4.67046E-01-2.49257E-02 1.74011E+00 9.38509E-14-8.11530E-14
 -1      3896 1.60434E+01 1.81781E-01-3.03720E-03 2.08033E+00 1.53716E-13-1.04579E-13
 -1      3897 1.50038E+01 6.54232E-01 5.24850E-02 1.55318E+00 1.84407E-13-7.21897E-14
 -1      3898 1.61034E+01 8.32280E-01 3.35868E-02 1.26540E+00-8.30898E-14-5.81386E-14
 -1      3899 2.00380E+01 1.61363E-02 3.46812E-04-7.28240E-02 3.81466E-14-3.33571E-14
 -1      3900 2.00478E+01-2.05978E-03-2.74833E-04-7.11101E-02 2.98625E-14-2.40124E-14
 -1      3901 1.99049E+01 2.22832E-01 2.54442E-04-1.45356E-01 5.38362E-14-1.80268E-13
 -1      3902 1.99231E+01 1.89615E-01-9.40824E-04-1.27565E-01 6.96687E-14-2.04195E-13
 -1      3903 1.99483E+01 1.59360E-01 2.76179E-04-1.15054E-01 1.89985E-14-1.92852E-13
 -1      3904 1.99626E+01 1.30482E-01-7.30956E-04-1.02253E-01-1.66139E-14-1.12388E-13
 -1      3905 1.99232E+01 1.88137E-01 6.54832E-04-1.03407E-01 4.61607E-14-2.14305E-13
 -1      3906 1.97790E+01 3.75933E-01 2.21499E-04-2.38507E-01-8.26115E-15-1.94943E-13
 -1      3907 1.98092E+01 3.33973E-01-1.47956E-03-2.08470E-01 6.43317E-14-1.63711E-13
 -1      3908 1.96891E+01 4.63719E-01 2.23693E-04-3.04650E-01-4.44531E-14-6.19931E-14
 -1      3909 1.97277E+01 4.18457E-01-1.81891E-03-2.67233E-01-6.23929E-14-1.41136E-13
 -1      3910 1.97141E+01 4.27523E-01 1.63334E-03-2.15771E-01-5.01953E-14-1.17355E-13
 -1      3911 1.95762E+01 5.55066E-01 2.62652E-04-3.86435E-01-8.98541E-14 9.35943E-14
 -1      3912 1.96245E+01 5.08462E-01-2.21513E-03-3.40675E-01-3.84097E-14 2.52804E-14
 -1      3913 1.96036E+01 5.23581E-01 2.06346E-03-2.75829E-01-1.24694E-13 8.48406E-14
 -1      3914 1.94365E+01 6.43874E-01 3.79643E-04-4.86384E-01-1.13319E-13 4.12358E-14
 -1      3915 1.94957E+01 5.99324E-01-2.68346E-03-4.31100E-01-5.60385E-14 7.28076E-14
 -1      3916 1.94648E+01 6.22864E-01 2.54743E-03-3.50532E-01-8.24395E-14 1.69947E-13
 -1      3917 1.92673E+01 7.20374E-01 6.49859E-04-6.08001E-01 8.98091E-15-2.23755E-14
 -1      3918 1.93376E+01 6.83213E-01-3.25296E-03-5.41547E-01-1.03590E-13-6.84441E-14
 -1      3919 1.92929E+01 7.18736E-01 3.08185E-03-4.42902E-01-8.33312E-14-7.79696E-15
 -1      3920 1.90676E+01 7.69929E-01 1.20436E-03-7.56682E-01-1.23907E-13 8.98060E-14
 -1      3921 1.91476E+01 7.48034E-01-3.97722E-03-6.76473E-01-4.01414E-14 6.68778E-15
 -1      3922 1.90831E+01 8.00934E-01 3.65898E-03-5.57453E-01-5.58651E-14 7.45642E-14
 -1      3923 1.88392E+01 7.71563E-01 2.27121E-03-9.41286E-01-1.65991E-14 1.13845E-13
 -1      3924 1.89246E+01 7.76096E-01-4.94734E-03-8.43005E-01-7.68296E-14 9.66392E-14
 -1      3925 1.88311E+01 8.54581E-01 4.26207E-03-7.01445E-01-9.35308E-14 2.55144E-13
 -1      3926 1.85896E+01 6.95885E-01 4.22663E-03-1.17664E+00-1.57656E-13 2.68720E-13
 -1      3927 1.86709E+01 7.42404E-01-6.29239E-03-1.05314E+00-8.78253E-14 1.17399E-13
 -1      3928 1.85333E+01 8.58994E-01 4.83959E-03-8.87101E-01-1.30886E-13 2.03920E-13
 -1      3929 1.83311E+01 4.98595E-01 5.20601E-03-1.48797E+00-9.36393E-14 3.00151E-13
 -1      3930 1.83955E+01 6.11203E-01-8.27201E-03-1.32675E+00-1.44684E-13 1.84017E-13
 -1      3931 1.81875E+01 7.85443E-01 5.19256E-03-1.13564E+00-1.07017E-13 2.74222E-13
 -1      3932 1.80751E+01 1.00908E-01-1.03087E-02-1.91965E+00-1.64789E-13 1.81696E-13
 -1      3933 1.81121E+01 3.37934E-01-1.16737E-02-1.68484E+00-1.86776E-14 2.65585E-13
 -1      3934 1.78135E+01 5.89923E-01 9.07419E-03-1.48086E+00-6.08307E-14 2.90381E-13
 -1      3935 2.03366E+01 5.20042E-01-5.46763E-04 7.69249E-02 1.37267E-13-1.49739E-13
 -1      3936 2.03490E+01 6.55334E-01-1.08524E-03 1.36491E-01 1.33364E-13-1.91479E-13
 -1      3937 2.03667E+01 7.30040E-01 8.73333E-04 1.20798E-01 9.83059E-14-2.32580E-13
 -1      3938 2.03657E+01 5.09295E-01 7.44613E-04 5.66999E-02 1.30555E-13-2.09899E-13
 -1      3939 2.03947E+01 5.69714E-01-1.15549E-03-5.54815E-02-5.65632E-14-2.78980E-13
 -1      3940 2.03971E+01 4.34727E-01 6.93208E-05-1.18141E-02-5.25939E-14-2.42041E-13
 -1      3941 2.04041E+01 6.27059E-01 7.87655E-04-4.62240E-02-4.72043E-14-2.69109E-13
 -1      3942 2.01431E+01-7.58646E-02 2.65078E-04-1.29156E-01 7.67949E-14 7.48980E-16
 -1      3943 2.01565E+01-6.99558E-02 3.75798E-04-1.33135E-01 8.51922E-14 1.26411E-14
 -1      3944 2.02000E+01-6.70436E-02-5.47178E-04-1.20058E-01 5.00666E-14-7.09779E-14
 -1      3945 2.01642E+01-8.15342E-02-5.23554E-04-1.13905E-01 1.10687E-13-2.01185E-14
 -1      3946 1.98497E+01 2.95124E-01 2.34976E-04-1.85989E-01 1.06632E-13-1.40347E-13
 -1      3947 1.98731E+01 2.57407E-01-1.18872E-03-1.62472E-01 8.69949E-14-1.72317E-13
 -1      3948 1.98696E+01 2.58602E-01 9.32655E-04-1.31186E-01 8.15959E-14-1.59496E-13
 -1      3949 2.03948E+01 3.18524E-01-4.03199E-04 9.81884E-03-4.69748E-14-2.26645E-13
 -1      3950 2.03834E+01 2.24531E-01 8.93326E-06 3.84606E-02-5.45163E-14-2.10228E-13
 -1      3951 2.04117E+01 3.57929E-01 3.09160E-04 4.23420E-03-1.89285E-14-2.34633E-13
 -1      3952 2.03780E+01 7.83215E-01-1.92464E-03 1.01976E-01 9.68809E-14-2.57306E-13
 -1      3953 2.03833E+01 8.44339E-01-6.56583E-05 7.07173E-02 8.26341E-14-2.34195E-13
 -1      3954 2.03875E+01 6.67322E-01 7.09585E-04 7.20311E-02 8.44883E-14-2.46302E-13
 -1      3955 1.38947E+01 7.56235E-01 5.53282E-02-9.23878E-01-9.04794E-14-1.89080E-13
 -1      3956 1.47531E+01 3.25024E-01-1.80232E-02-1.80845E+00-1.88767E-13-9.67785E-14
 -1      3957 2.00628E+01-1.83451E-02 3.68274E-04-7.11217E-02 4.03569E-14-1.87325E-14
 -1      3958 2.00729E+01-3.35069E-02-1.59722E-04-7.19219E-02 9.35374E-15 4.19935E-14
 -1      3959 2.00610E+01-9.91360E-03-1.12322E-04-6.03399E-02 4.77810E-14-8.84470E-14
 -1      3960 2.03738E+01 1.60271E-01 1.30506E-04 4.81499E-02-5.51123E-14-1.99041E-13
 -1      3961 2.03552E+01 9.47290E-02-2.18625E-04 6.56171E-02-5.02885E-14-1.82775E-13
 -1      3962 2.03676E+01 7.83619E-02-1.97978E-04 5.21909E-02-3.98056E-14-1.79537E-13
 -1      3963 2.03945E+01 1.85345E-01-1.48346E-04 3.47190E-02-2.97971E-14-1.94820E-13
 -1      3964 2.02478E+01 4.22553E-02-5.76845E-04-1.18465E-01 4.60031E-14-1.32478E-13
 -1      3965 2.02691E+01 9.04432E-02 1.30216E-03-1.00511E-01 3.97989E-14-1.41412E-13
 -1      3966 2.03172E+01 1.42084E-01-2.67391E-04-7.42591E-02 4.84684E-14-1.69662E-13
 -1      3967 2.02793E+01 3.44281E-02-4.53794E-04-1.06112E-01 3.71489E-14-1.65483E-13
 -1      3968 2.02951E+01 1.34683E+00 4.64704E-03-1.10735E-01-6.61354E-14-3.20405E-13
 -1      3969 2.00122E+01 5.68100E-02 3.22991E-04-7.99900E-02 2.66502E-14-9.33581E-14
 -1      3970 2.00225E+01 3.54281E-02-4.04002E-04-7.51815E-02 2.46249E-14-8.39868E-14
 -1      3971 2.00322E+01 2.86006E-02 3.99591E-05-6.29575E-02 4.49178E-14-6.69623E-14
 -1      3972 1.99831E+01 1.04279E-01 2.99147E-04-9.36856E-02-5.15791E-14-8.82082E-14
 -1      3973 1.99949E+01 7.93632E-02-5.53935E-04-8.51938E-02 2.26155E-14-8.03799E-14
 -1      3974 2.00014E+01 7.39546E-02 2.14894E-04-7.03706E-02 5.25244E-15-3.78211E-14
 -1      3975 1.48705E+01 7.52077E-01-1.55862E-02 9.72343E-01 1.90436E-13-2.06547E-13
 -1      3976 1.44612E+01 8.16795E-01 7.73253E-03-3.50056E-01-3.47222E-14-1.39506E-13
 -1      3977 2.03402E+01 1.20735E-01-8.50195E-04-7.15216E-02 3.36042E-14-1.92899E-13
 -1      3978 2.03598E+01 1.92189E-01 9.52258E-04-4.86318E-02 6.56742E-14-1.78580E-13
 -1      3979 2.03678E+01 2.78830E-01-1.26812E-03-2.75686E-02 9.02932E-14-2.07424E-13
 -1      3980 2.03808E+01 3.84230E-01 3.72899E-04 9.99098E-03 1.04591E-13-2.10917E-13
 -1      3981 2.03891E+01 2.61527E-01 3.26846E-04-2.70879E-02 6.85780E-14-2.34009E-13
 -1      3982 1.98012E+01 3.38569E-01 1.25726E-03-1.68145E-01 9.37426E-14-1.85353E-13
 -1      3983 2.01469E+01-8.26669E-02 3.43582E-04-8.77074E-02 1.09088E-13 1.94083E-15
 -1      3984 2.01619E+01-8.59673E-02 1.66424E-04-9.18290E-02 1.22736E-13 2.41603E-14
 -1      3985 1.99661E+01 1.26844E-01 4.17760E-04-8.35145E-02-1.26387E-14-1.02215E-13
 -1      3986 1.53627E+01 5.34395E-01-1.51873E-02-1.54142E+00-1.02983E-13-1.19791E-14
 -1      3987 1.56445E+01 2.17306E-01 5.40923E-02-2.19643E+00-2.47272E-13-2.70079E-13
 -1      3988 1.64981E+01-1.10406E-01-1.05448E-02-2.37635E+00-1.34858E-13-2.36493E-13
 -1      3989 1.74209E+01 1.44267E-02-7.31723E-03-2.09137E+00-1.61660E-13-3.90855E-14
 -1      3990 1.69469E+01 4.30349E-01 2.87241E-02-1.81629E+00-6.76854E-14-1.74175E-14
 -1      3991 2.03380E+01 1.11592E+00-8.52454E-04-4.82277E-02-2.49752E-14-3.03133E-13
 -1      3992 2.03371E+01 1.08464E+00-3.05763E-03-1.01591E-01-6.33677E-14-2.92762E-13
 -1      3993 2.03893E+01 8.40798E-01 1.81781E-03-5.75742E-02-2.91152E-14-2.76099E-13
 -1      3994 2.03861E+01 9.31331E-01 4.06495E-03-1.82482E-02-4.31268E-15-2.74416E-13
 -1      3995 2.01160E+01-6.87037E-02 3.81631E-04-7.98215E-02 2.34077E-14 1.06868E-13
 -1      3996 2.01289E+01-7.68821E-02 6.07859E-05-8.36875E-02 8.36436E-14 4.89802E-14
 -1      3997 2.01538E+01-8.35290E-02-4.44388E-04-7.18295E-02 8.09790E-14 3.28638E-14
 -1      3998 2.03869E+01 8.42488E-01-1.54022E-03 4.43268E-02 7.13912E-14-2.53799E-13
 -1      3999 2.03917E+01 8.34906E-01-1.88140E-03 1.27595E-02 3.28120E-14-2.77955E-13
 -1      4000 2.04086E+01 7.25168E-01 2.07965E-03 3.59081E-02 9.88070E-14-2.31982E-13
 -1      4001 2.00883E+01-4.67953E-02 3.82694E-04-7.38318E-02-3.18739E-14 1.19532E-13
 -1      4002 2.00995E+01-5.87629E-02-5.11419E-05-7.65271E-02-1.29704E-14 1.51890E-13
 -1      4003 2.01203E+01-6.68533E-02-3.58279E-04-6.58175E-02-1.83388E-14 9.40203E-14
 -1      4004 2.02612E+01-4.26820E-02-5.40143E-05-1.02749E-01 6.93975E-15-6.22718E-14
 -1      4005 2.02823E+01-1.59792E-02 6.45634E-04-9.86086E-02 1.31637E-14-1.13898E-13
 -1      4006 2.02201E+01-7.47261E-02 1.67673E-04-1.01850E-01 3.85074E-14-4.69594E-14
 -1      4007 2.02396E+01-6.15928E-02 4.69661E-04-1.02452E-01 1.08628E-14-6.07623E-14
 -1      4008 2.02756E+01-5.10730E-02-5.08426E-04-8.42892E-02-8.98851E-16-3.87830E-14
 -1      4009 2.00897E+01-4.18627E-02-2.45327E-04-6.16106E-02 2.07421E-14 3.74095E-14
 -1      4010 2.03026E+01 1.86488E-02-3.92499E-04-9.43952E-02 1.90447E-14-1.71448E-13
 -1      4011 2.03241E+01 6.42564E-02 8.22572E-04-8.26676E-02 1.71907E-14-1.80647E-13
 -1      4012 2.03595E+01 1.07150E-01-1.45228E-04-6.08773E-02 1.57162E-14-1.43678E-13
 -1      4013 2.03112E+01-4.91031E-02 3.20559E-04 4.50122E-02-4.66682E-14-1.43483E-13
 -1      4014 2.02883E+01-6.88775E-02 3.28733E-04 4.70517E-02-5.41723E-14-1.47599E-13
 -1      4015 2.02642E+01-8.25759E-02 2.74180E-04 4.51494E-02-7.12912E-14-1.14236E-13
 -1      4016 2.02417E+01-9.01587E-02 2.36077E-04 4.48806E-02-3.17991E-14-1.47854E-13
 -1      4017 2.02849E+01-7.63597E-02-8.38598E-04 2.56703E-02-3.09302E-14-1.25402E-13
 -1      4018 2.02189E+01-9.31381E-02 2.62616E-04 4.33966E-02 4.40785E-14-1.29270E-13
 -1      4019 2.01987E+01-9.21943E-02 4.06437E-04 4.21852E-02 6.42030E-14-9.40048E-14
 -1      4020 2.02369E+01-9.27873E-02-7.31018E-04 2.48416E-02-1.37095E-14-1.00487E-13
 -1      4021 2.01771E+01-8.80578E-02 1.70698E-04 3.98541E-02 5.55844E-15-1.30248E-13
 -1      4022 2.01586E+01-8.06756E-02 3.71165E-04 3.84588E-02-4.09498E-14-1.45008E-13
 -1      4023 2.01942E+01-9.26531E-02-8.06853E-04 2.25820E-02 3.07366E-14-1.78346E-13
 -1      4024 2.01388E+01-7.10196E-02 1.16128E-04 3.66560E-02-2.93088E-14-8.42110E-14
 -1      4025 2.01219E+01-5.88865E-02 3.32130E-04 3.56000E-02-1.00056E-15-2.69891E-14
 -1      4026 2.01533E+01-7.80719E-02-7.82291E-04 2.09519E-02 3.61361E-14-1.11797E-13
 -1      4027 2.01033E+01-4.50482E-02 1.54230E-05 3.43590E-02-1.75577E-14-3.08114E-14
 -1      4028 2.00875E+01-2.90303E-02 2.74457E-04 3.40807E-02-3.53043E-14-2.92507E-14
 -1      4029 2.01160E+01-5.33742E-02-5.53485E-04 1.97130E-02-5.25968E-15-1.01264E-13
 -1      4030 2.00695E+01-1.15615E-02-1.01704E-04 3.35691E-02-4.45159E-14-1.69403E-15
 -1      4031 2.00540E+01 8.02365E-03 2.05601E-04 3.44348E-02-4.64885E-14 2.96109E-14
 -1      4032 2.00809E+01-2.04680E-02-2.71745E-04 1.92289E-02-2.86717E-14-7.32817E-14
 -1      4033 2.00354E+01 2.90047E-02-2.37500E-04 3.48139E-02-3.85798E-14 5.05147E-14
 -1      4034 2.00191E+01 5.22391E-02 1.26085E-04 3.71463E-02-6.02256E-15 7.55907E-14
 -1      4035 2.00459E+01 1.99279E-02 5.51333E-05 1.98314E-02-1.43369E-14 1.20021E-13
 -1      4036 1.99987E+01 7.69459E-02-3.96067E-04 3.85708E-02-2.34496E-15 1.17317E-13
 -1      4037 1.99803E+01 1.04187E-01 3.35601E-05 4.26667E-02 4.85513E-14 9.52810E-14
 -1      4038 2.00089E+01 6.79237E-02 4.35103E-04 2.17947E-02 2.42847E-14 1.08553E-13
 -1      4039 1.99565E+01 1.33049E-01-5.82168E-04 4.52960E-02 5.98644E-14 1.48682E-13
 -1      4040 1.99344E+01 1.64810E-01-7.66692E-05 5.14366E-02 2.74310E-14 1.30610E-13
 -1      4041 1.99669E+01 1.24204E-01 8.82310E-04 2.53615E-02 7.91835E-14 1.50541E-13
 -1      4042 1.99052E+01 1.98351E-01-8.01018E-04 5.54396E-02 3.16347E-14 1.61477E-13
 -1      4043 1.98776E+01 2.35174E-01-2.11441E-04 6.38917E-02 2.22235E-14 1.04229E-13
 -1      4044 1.99167E+01 1.89776E-01 1.41561E-03 3.07526E-02 5.52890E-15 1.52023E-13
 -1      4045 1.98411E+01 2.73880E-01-1.05828E-03 6.94437E-02-3.51358E-14 7.71017E-14
 -1      4046 1.98058E+01 3.16190E-01-3.79631E-04 8.04511E-02-1.00433E-13 2.93552E-14
 -1      4047 1.98542E+01 2.65710E-01 2.05830E-03 3.81600E-02-2.61088E-14 1.20849E-13
 -1      4048 1.97593E+01 3.60349E-01-1.36055E-03 8.77260E-02-1.15468E-13 2.90373E-14
 -1      4049 1.97139E+01 4.08283E-01-5.92093E-04 1.01495E-01-9.73248E-14 7.34645E-15
 -1      4050 1.97751E+01 3.52836E-01 2.83873E-03 4.77280E-02-1.31049E-13 3.39061E-14
 -1      4051 1.96546E+01 4.57795E-01-1.71687E-03 1.10655E-01-1.11576E-13-4.36166E-14
 -1      4052 1.95961E+01 5.10992E-01-8.61643E-04 1.27343E-01-4.69598E-15-6.44021E-14
 -1      4053 1.96739E+01 4.51404E-01 3.79267E-03 5.95250E-02-9.99394E-14 5.50142E-15
 -1      4054 1.95208E+01 5.65148E-01-2.14230E-03 1.38532E-01 1.06597E-13-1.22046E-13
 -1      4055 1.94459E+01 6.22513E-01-1.20323E-03 1.58254E-01 9.67024E-14-7.38993E-14
 -1      4056 1.95446E+01 5.60687E-01 4.96858E-03 7.35124E-02-5.55505E-15-9.67894E-14
 -1      4057 1.93506E+01 6.79730E-01-2.66497E-03 1.71608E-01-3.65032E-15-3.76998E-14
 -1      4058 1.92555E+01 7.39178E-01-1.63478E-03 1.94491E-01-9.38954E-14-4.30920E-14
 -1      4059 1.93803E+01 6.78540E-01 6.43845E-03 8.95267E-02 4.10922E-14-1.30707E-13
 -1      4060 1.91357E+01 7.96724E-01-3.33958E-03 2.10187E-01-1.15459E-13-9.50253E-15
 -1      4061 1.90157E+01 8.54933E-01-2.18020E-03 2.36532E-01-1.25096E-13-4.04957E-14
 -1      4062 1.91728E+01 8.00976E-01 8.31833E-03 1.07301E-01-4.92989E-14-1.05662E-13
 -1      4063 1.88655E+01 9.08671E-01-4.27146E-03 2.54918E-01-1.37191E-13-4.75099E-14
 -1      4064 1.87151E+01 9.60900E-01-2.87813E-03 2.85547E-01-6.58845E-14-9.68385E-14
 -1      4065 1.89120E+01 9.21818E-01 1.08045E-02 1.26564E-01-1.07712E-13-7.09942E-14
 -1      4066 1.85263E+01 1.00511E+00-5.65811E-03 3.07394E-01-2.46718E-14-9.54518E-14
 -1      4067 1.83380E+01 1.04513E+00-3.80250E-03 3.44352E-01 8.37006E-14-9.83328E-14
 -1      4068 1.85850E+01 1.03258E+00 1.42303E-02 1.47268E-01-9.05706E-14-1.34529E-13
 -1      4069 1.80984E+01 1.07251E+00-7.85000E-03 3.71352E-01 1.31014E-13-1.68782E-13
 -1      4070 1.78617E+01 1.09266E+00-5.07531E-03 4.19270E-01-1.18645E-14-1.98497E-13
 -1      4071 1.81735E+01 1.12271E+00 1.91185E-02 1.69928E-01 8.11048E-15-1.57541E-13
 -1      4072 1.75509E+01 1.09512E+00-1.12972E-02 4.55426E-01-7.62196E-14-2.30301E-13
 -1      4073 1.72529E+01 1.08602E+00-6.00136E-03 5.23914E-01-8.40792E-14-1.85567E-13
 -1      4074 1.76482E+01 1.18001E+00 2.59109E-02 1.95868E-01-3.56505E-14-2.85075E-13
 -1      4075 1.68369E+01 1.05276E+00-1.62499E-02 5.82107E-01-1.35295E-13-1.68388E-13
 -1      4076 1.64630E+01 1.00039E+00-3.59187E-03 6.91345E-01-1.57564E-13-2.15561E-13
 -1      4077 1.69484E+01 1.18794E+00 3.08809E-02 2.27364E-01-7.72967E-14-3.99774E-13
 -1      4078 1.59713E+01 9.23519E-01-1.93114E-02 7.69398E-01-1.31332E-13-1.01571E-13
 -1      4079 1.55208E+01 8.61067E-01-5.56251E-03 8.42759E-01 5.19185E-14-1.39823E-13
 -1      4080 1.50080E+01 9.91638E-01 4.40677E-02 4.04196E-01 6.84761E-14-2.10096E-13
 -1      4081 1.61130E+01 1.12359E+00 4.16275E-02 2.92245E-01-8.76677E-14-3.17887E-13
 -1      4082 1.99500E+01 1.46029E-01 1.30584E-05-6.86099E-02 1.26853E-15-1.08819E-13
 -1      4083 1.99692E+01 1.16433E-01-5.40421E-04-6.10090E-02 2.35019E-14-1.90128E-14
 -1      4084 1.54649E+01 8.77766E-01 4.50017E-02-1.00442E+00 6.65995E-14 1.81843E-13
 -1      4085 1.59473E+01 6.16244E-01-2.64584E-02-1.41466E+00 5.27029E-14 4.97228E-14
 -1      4086 1.95253E+01 5.68833E-01-5.62878E-04-2.30808E-01-1.92208E-13 2.10176E-13
 -1      4087 1.95867E+01 5.16489E-01-2.13660E-03-2.01240E-01-1.67607E-13 1.20727E-13
 -1      4088 1.96545E+01 4.66943E-01-4.42826E-04-1.80376E-01-1.20342E-13 8.78682E-14
 -1      4089 1.97032E+01 4.18023E-01-1.67392E-03-1.56555E-01-4.93090E-14 4.66913E-14
 -1      4090 1.95950E+01 5.20559E-01 4.10651E-03-1.36929E-01-1.94255E-13 2.08174E-13
 -1      4091 1.91625E+01 7.75096E-01-6.99603E-04-3.72516E-01 2.90439E-14 2.10086E-15
 -1      4092 1.92562E+01 7.24142E-01-3.47852E-03-3.27866E-01 1.25108E-14 8.60580E-14
 -1      4093 1.89162E+01 8.62356E-01-6.31314E-04-4.71506E-01-1.06473E-13 6.80921E-14
 -1      4094 1.90292E+01 8.19351E-01-4.50589E-03-4.16148E-01-5.41635E-14 1.98234E-14
 -1      4095 1.90326E+01 8.53685E-01 8.73794E-03-2.90272E-01-2.35673E-14-3.41141E-14
 -1      4096 1.86173E+01 9.21202E-01-3.81757E-04-5.98397E-01-1.49963E-13 2.14431E-13
 -1      4097 1.87511E+01 8.93601E-01-5.97079E-03-5.28265E-01-1.06040E-13 2.17946E-13
 -1      4098 1.87481E+01 9.49775E-01 1.12893E-02-3.72994E-01-1.76636E-13 2.77403E-14
 -1      4099 1.82570E+01 9.32379E-01 1.27205E-04-7.65894E-01-9.02404E-14 2.12803E-13
 -1      4100 1.84123E+01 9.29983E-01-8.17793E-03-6.73929E-01-9.83355E-14 2.16811E-13
 -1      4101 1.83978E+01 1.01924E+00 1.48038E-02-4.82495E-01-1.20354E-13 1.55385E-13
 -1      4102 1.78238E+01 8.70027E-01 8.25734E-04-9.96288E-01-8.39624E-14 2.23012E-13
 -1      4103 1.79999E+01 9.06460E-01-1.16925E-02-8.69466E-01-9.24408E-14 2.17930E-13
 -1      4104 1.79651E+01 1.04562E+00 1.97404E-02-6.31626E-01-1.11157E-13 4.94101E-14
 -1      4105 1.72733E+01 6.70814E-01-1.44600E-02-1.34461E+00-2.27557E-14 1.92288E-13
 -1      4106 1.74892E+01 7.96656E-01-1.80135E-02-1.14554E+00-2.77921E-14 2.79646E-13
 -1      4107 1.74209E+01 1.00956E+00 2.58842E-02-8.40854E-01-8.79483E-14 1.24217E-13
 -1      4108 1.79749E+01-3.98843E-01 2.41250E-02-2.44339E+00-2.09093E-13 6.92580E-14
 -1      4109 2.03841E+01 4.67433E-01-3.07405E-04 2.66888E-02 9.67551E-14-2.12974E-13
 -1      4110 2.03895E+01 5.62993E-01-8.97223E-04 5.71575E-02 7.71964E-14-2.51978E-13
 -1      4111 2.04056E+01 6.18253E-01 2.05310E-04 4.48259E-02 9.63317E-14-2.62467E-13
 -1      4112 2.04042E+01 4.39760E-01 3.11822E-04 1.37180E-02 7.76024E-14-2.29999E-13
 -1      4113 2.01816E+01-8.60725E-02 2.77716E-04-9.58843E-02 1.04565E-13-1.82121E-15
 -1      4114 2.01989E+01-8.24686E-02 3.03397E-04-9.90276E-02 7.68880E-14-8.07651E-15
 -1      4115 2.01910E+01-8.95714E-02-5.31862E-04-7.82516E-02 1.19940E-13 1.98009E-14
 -1      4116 1.50473E+01 8.74335E-01-2.16845E-02-3.51812E-01-5.10477E-14-9.53604E-14
 -1      4117 2.00263E+01 4.07592E-02 1.85559E-04-5.00241E-02 1.08196E-14 3.60617E-14
 -1      4118 2.00408E+01 1.90317E-02-2.23785E-04-4.74965E-02 5.29527E-14-2.57068E-14
 -1      4119 2.00585E+01-6.31036E-04 2.57454E-04-4.69852E-02 4.34835E-14-5.91553E-14
 -1      4120 2.00726E+01-1.89200E-02-9.61538E-05-4.63534E-02 6.44984E-14 1.32661E-14
 -1      4121 2.00518E+01 1.02489E-02-1.42078E-04-3.37061E-02 5.01589E-14-2.47494E-14
 -1      4122 2.04246E+01 4.23699E-01-1.51747E-04-8.24269E-03-1.15965E-14-2.31118E-13
 -1      4123 2.04218E+01 3.09903E-01-1.94735E-04 1.26786E-02-1.66371E-15-2.24108E-13
 -1      4124 2.03195E+01 7.76544E-03-4.00624E-04-7.82730E-02-1.45543E-14-9.01808E-14
 -1      4125 2.00900E+01-3.52132E-02 3.17489E-04-4.71595E-02 6.50330E-14-4.96437E-14
 -1      4126 2.01047E+01-5.00522E-02 2.16220E-05-4.79848E-02-3.99576E-15 7.26671E-15
 -1      4127 2.00853E+01-2.78850E-02-4.48307E-04-3.33659E-02 3.24229E-14 1.26115E-14
 -1      4128 1.67867E+01 6.60229E-01-6.49214E-04-1.37593E+00 1.09425E-13 1.34675E-13
 -1      4129 1.93633E+01 6.73832E-01-6.59407E-04-2.93841E-01-6.67796E-14 1.11678E-13
 -1      4130 1.94398E+01 6.20342E-01-2.72021E-03-2.57488E-01-1.04979E-13 1.73435E-13
 -1      4131 1.92628E+01 7.44056E-01 6.81436E-03-2.26361E-01-1.24922E-14 3.47570E-14
 -1      4132 2.04061E+01 6.88903E-01-1.05707E-03-4.54956E-02-2.56000E-14-2.56251E-13
 -1      4133 2.04197E+01 5.35289E-01 3.83261E-05-1.57248E-02-2.16331E-14-2.36820E-13
 -1      4134 2.04286E+01 4.87431E-01 5.28089E-04-6.52412E-03-1.21046E-14-2.03459E-13
 -1      4135 2.04036E+01 7.37077E-01-1.02678E-03-2.94520E-02-1.66503E-14-2.44688E-13
 -1      4136 1.98999E+01 2.11636E-01-8.75740E-05-8.57335E-02 4.65510E-14-1.26997E-13
 -1      4137 1.99235E+01 1.77409E-01-7.46148E-04-7.49112E-02 5.74596E-14-1.25459E-13
 -1      4138 1.99317E+01 1.71034E-01 1.08317E-03-5.10379E-02 5.89953E-14-1.44964E-13
 -1      4139 2.03568E+01 1.59114E-02 2.57416E-04 4.06634E-02-6.81155E-15-1.34753E-13
 -1      4140 2.03348E+01-2.10094E-02 2.23764E-04 4.59204E-02-2.28075E-14-1.33341E-13
 -1      4141 2.03319E+01-3.39546E-02-1.06475E-03 2.47326E-02-3.67767E-14-1.74293E-13
 -1      4142 1.97566E+01 3.72290E-01-3.18072E-04-1.40413E-01 8.29008E-15-2.94858E-14
 -1      4143 1.97949E+01 3.28001E-01-1.30035E-03-1.21551E-01 4.20417E-14-6.70342E-14
 -1      4144 1.97115E+01 4.17886E-01 3.12367E-03-1.06085E-01-1.09573E-13 1.74346E-13
 -1      4145 1.99911E+01 8.93791E-02 1.03954E-04-5.69833E-02-1.41842E-14 3.14956E-14
 -1      4146 2.00072E+01 6.39373E-02-3.69163E-04-5.21367E-02-2.01753E-14 4.91972E-14
 -1      4147 1.99778E+01 1.08990E-01 6.11039E-04-4.19923E-02 6.47009E-14-3.99909E-14
 -1      4148 1.98368E+01 2.86968E-01-1.98288E-04-1.09301E-01 8.64991E-14-1.73684E-13
 -1      4149 1.98668E+01 2.47747E-01-9.95785E-04-9.47449E-02 4.64613E-14-1.29597E-13
 -1      4150 1.98747E+01 2.42795E-01 1.64329E-03-6.41940E-02 2.62460E-14-1.28334E-13
 -1      4151 1.98029E+01 3.25022E-01 2.31428E-03-8.22311E-02-3.20272E-14-8.80531E-14
 -1      4152 2.01968E+01-9.16535E-02 1.68717E-04-5.92089E-02 1.08348E-13-2.77445E-14
 -1      4153 2.02166E+01-9.10889E-02 1.81450E-04-6.12230E-02 7.58246E-14-6.00707E-14
 -1      4154 2.04011E+01 2.24176E-01-7.17363E-04-3.04323E-02 2.80640E-14-1.90442E-13
 -1      4155 2.04127E+01 3.19539E-01-3.15555E-05-7.73545E-03 4.73631E-14-2.12421E-13
 -1      4156 2.04262E+01 2.90893E-01-8.85736E-04 7.00088E-03 2.64631E-14-1.79823E-13
 -1      4157 2.04149E+01 2.33020E-01 1.20563E-04 1.63061E-02-9.42997E-15-1.68898E-13
 -1      4158 2.04042E+01 1.67574E-01-2.54820E-04 2.83489E-02-1.28021E-14-1.55223E-13
 -1      4159 2.03910E+01 1.04759E-01 4.18469E-04 3.22299E-02-1.92464E-14-1.37032E-13
 -1      4160 2.03757E+01 5.86150E-02 7.75959E-05 4.00168E-02-1.33317E-14-1.32846E-13
 -1      4161 2.03748E+01 3.91504E-02-8.39471E-04 2.14646E-02-2.57507E-14-1.30291E-13
 -1      4162 2.04076E+01 1.48102E-01 5.09423E-05 1.66187E-02-1.16609E-14-1.18997E-13
 -1      4163 1.56678E+01 9.62852E-01-1.53706E-02-3.23030E-01 7.93953E-14-6.16440E-14
 -1      4164 2.04012E+01 7.74451E-01-1.80718E-04-9.29443E-03 4.75295E-15-2.64537E-13
 -1      4165 2.04197E+01 6.63163E-01 1.10571E-03-2.58853E-03 1.32908E-14-2.39944E-13
 -1      4166 1.94477E+01 6.30726E-01 5.31170E-03-1.76306E-01-1.27080E-13 9.28268E-14
 -1      4167 2.01582E+01-8.23084E-02 3.66940E-04-5.42195E-02 5.76249E-14 4.71128E-14
 -1      4168 2.01762E+01-8.82955E-02 2.93902E-04-5.64072E-02 1.18935E-13 2.00498E-14
 -1      4169 2.01965E+01-9.26900E-02-4.50421E-04-4.08734E-02 8.15936E-14-4.64923E-14
 -1      4170 2.00168E+01 5.56925E-02 2.07710E-04-3.64053E-02 1.91849E-14 1.69090E-14
 -1      4171 2.02319E+01-8.05992E-02-5.26913E-04-8.32187E-02 3.86062E-14-5.39340E-14
 -1      4172 1.65946E+01 9.68432E-01 3.63508E-02-9.67017E-01 9.70320E-14 8.98327E-14
 -1      4173 2.03293E+01-9.56702E-03-1.40056E-04-6.29694E-02-5.39540E-14-1.07914E-13
 -1      4174 2.03521E+01 3.06689E-02 6.80257E-04-5.57943E-02-3.22446E-14-1.42239E-13
 -1      4175 2.04126E+01 6.22392E-01-8.55086E-04 3.22034E-02 9.28639E-14-2.17562E-13
 -1      4176 2.04184E+01 6.26825E-01-1.55253E-04 1.58575E-02 7.07705E-14-2.06853E-13
 -1      4177 2.04201E+01 5.29228E-01 1.08554E-03 2.21466E-02 8.51131E-14-2.22122E-13
 -1      4178 2.03703E+01 8.09949E-02-5.23156E-04-5.26589E-02-1.28406E-14-1.73288E-13
 -1      4179 2.03892E+01 1.45576E-01 4.43544E-04-3.90108E-02-4.46691E-16-1.94047E-13
 -1      4180 2.04099E+01 1.99702E-01 2.24253E-04-2.22759E-02 9.15398E-15-1.88164E-13
 -1      4181 2.01228E+01-6.27925E-02 3.60050E-04-4.98261E-02-1.80960E-14-1.68375E-15
 -1      4182 2.01388E+01-7.37525E-02 1.33382E-04-5.16195E-02 2.46300E-14 3.31919E-14
 -1      4183 2.01563E+01-8.10784E-02-8.84007E-04-3.75400E-02 7.17222E-14 3.07840E-14
 -1      4184 2.02844E+01-6.18457E-02 1.15110E-04-6.56047E-02 1.17970E-14-8.47345E-14
 -1      4185 2.03076E+01-3.94625E-02 6.37224E-04-6.30089E-02-2.92359E-14-7.47807E-14
 -1      4186 2.03327E+01-2.22397E-02-1.10562E-03-4.38592E-02-5.43367E-14-1.56836E-13
 -1      4187 2.01196E+01-5.86480E-02-7.10372E-04-3.48480E-02 1.00957E-14-9.09214E-14
 -1      4188 1.61027E+01 9.96432E-01-3.21462E-02-3.26331E-01 3.07367E-14-1.63080E-13
 -1      4189 1.95486E+01 5.32257E-01-3.30765E-03-4.20489E-02-1.41947E-13 4.60776E-14
 -1      4190 1.96170E+01 4.80522E-01-2.50573E-03-2.86907E-02-1.58121E-13 8.23091E-14
 -1      4191 2.02547E+01-9.12465E-02 4.64989E-04 5.35240E-03 2.12252E-14-1.81843E-13
 -1      4192 2.02317E+01-9.53651E-02 4.68142E-04 4.64162E-03 2.62275E-14-1.48640E-13
 -1      4193 2.02004E+01-9.23579E-02 3.95103E-04-8.17613E-03 3.03783E-14-7.59241E-14
 -1      4194 2.01797E+01-8.71862E-02 5.43573E-04-7.89179E-03 6.66701E-14-7.83826E-14
 -1      4195 2.01602E+01-7.87459E-02 5.51696E-04-7.26377E-03 8.21921E-14-6.82099E-14
 -1      4196 2.01403E+01-6.84580E-02 4.81555E-04-7.30731E-03 6.46246E-14-2.59337E-14
 -1      4197 2.01220E+01-5.54368E-02 4.31459E-04-6.84769E-03 1.06055E-14-4.26167E-14
 -1      4198 2.01034E+01-4.08499E-02 3.26471E-04-6.83257E-03-2.68043E-14-4.82445E-14
 -1      4199 2.00859E+01-2.40280E-02 2.40503E-04-6.86368E-03-2.69176E-14-3.27915E-14
 -1      4200 2.00677E+01-5.62835E-03 1.43863E-04-6.63867E-03-3.40799E-15-3.06831E-14
 -1      4201 2.00500E+01 1.47027E-02 8.71160E-06-7.40079E-03 3.62392E-14 1.24446E-14
 -1      4202 2.00313E+01 3.68542E-02-6.22737E-05-6.87279E-03 3.86736E-14 4.36799E-14
 -1      4203 2.00122E+01 6.07823E-02-2.62344E-04-8.58177E-03 2.83664E-14 5.11306E-14
 -1      4204 1.99917E+01 8.69468E-02-2.99510E-04-7.68444E-03 5.33782E-14 2.09403E-14
 -1      4205 1.99697E+01 1.14812E-01-5.78934E-04-1.05586E-02 9.17194E-14-2.51868E-14
 -1      4206 1.99457E+01 1.45453E-01-5.79856E-04-9.24697E-03 1.05762E-13-6.96557E-15
 -1      4207 1.99190E+01 1.77722E-01-9.51180E-04-1.35253E-02 4.50862E-14-5.58080E-15
 -1      4208 1.98898E+01 2.13379E-01-9.18742E-04-1.17797E-02-1.84504E-15-1.46303E-14
 -1      4209 1.98565E+01 2.50503E-01-1.39204E-03-1.77385E-02-1.78393E-14 1.68268E-14
 -1      4210 1.98197E+01 2.91648E-01-1.33533E-03-1.55743E-02-5.84085E-14-1.70639E-14
 -1      4211 1.97774E+01 3.33911E-01-1.91731E-03-2.35450E-02-1.00424E-13 1.09278E-13
 -1      4212 1.97306E+01 3.80784E-01-1.85375E-03-2.10282E-02-1.31635E-13 7.15299E-14
 -1      4213 1.96768E+01 4.28111E-01-2.54681E-03-3.14238E-02-1.94085E-13 1.56825E-13
 -1      4214 1.94724E+01 5.89363E-01-3.33582E-03-3.93280E-02-4.13837E-14-1.49187E-14
 -1      4215 1.93861E+01 6.44017E-01-4.24106E-03-5.63875E-02 5.72339E-15-7.08330E-14
 -1      4216 1.92896E+01 7.04077E-01-4.41105E-03-5.40183E-02 9.24616E-15-1.04663E-13
 -1      4217 1.91815E+01 7.59051E-01-5.41574E-03-7.58534E-02 1.82226E-14-9.41970E-14
 -1      4218 1.90596E+01 8.19196E-01-5.83862E-03-7.42949E-02-2.99136E-14-7.70370E-14
 -1      4219 1.89251E+01 8.70524E-01-6.95108E-03-1.02552E-01-5.81020E-14-7.68560E-14
 -1      4220 1.87718E+01 9.26587E-01-7.79574E-03-1.02375E-01-1.12241E-13-3.96266E-14
 -1      4221 1.86048E+01 9.68723E-01-9.05123E-03-1.39665E-01-1.31942E-13-1.28763E-14
 -1      4222 1.84114E+01 1.01519E+00-1.05701E-02-1.41551E-01-6.29692E-14-5.58393E-14
 -1      4223 1.82040E+01 1.04092E+00-1.20208E-02-1.92051E-01-6.50518E-14-4.27093E-14
 -1      4224 1.79581E+01 1.07106E+00-1.45447E-02-1.96910E-01-7.47284E-14-1.56819E-13
 -1      4225 1.76990E+01 1.07185E+00-1.59946E-02-2.67005E-01-8.43286E-14-1.57049E-13
 -1      4226 1.73824E+01 1.07840E+00-1.94443E-02-2.77022E-01-7.73662E-14-1.60109E-13
 -1      4227 1.70577E+01 1.04687E+00-1.86367E-02-3.73899E-01-6.61170E-14-1.86576E-13
 -1      4228 1.66697E+01 1.03314E+00-1.28375E-02-3.98228E-01-3.28572E-14-2.41280E-13
 -1      4229 2.04275E+01 5.68951E-01 3.45633E-04-3.17659E-03 2.17847E-14-2.13846E-13
 -1      4230 2.04332E+01 4.52472E-01-6.07638E-04 4.33753E-03 3.61802E-14-2.01521E-13
 -1      4231 2.02394E+01-8.62421E-02 3.20564E-04-6.32889E-02 4.57446E-14-5.90206E-14
 -1      4232 2.02615E+01-7.69243E-02 5.19112E-04-6.36287E-02 2.30156E-14-5.46347E-14
 -1      4233 2.02395E+01-8.99940E-02-4.63653E-04-4.31757E-02 5.80201E-14-1.00059E-13
 -1      4234 2.03765E+01 6.36938E-02-5.89501E-04-3.67589E-02-4.26574E-14-1.96172E-13
 -1      4235 2.02932E+01-7.30994E-02 4.63835E-04-9.61333E-03 1.15184E-15-1.82099E-13
 -1      4236 2.02684E+01-8.56855E-02 5.08562E-04-8.93212E-03 1.92817E-14-1.70587E-13
 -1      4237 2.03409E+01-2.77249E-02 5.20702E-04-9.79093E-03-6.21684E-14-1.45620E-13
 -1      4238 2.03172E+01-5.46536E-02 8.82675E-04-8.35202E-03-5.42771E-14-1.82272E-13
 -1      4239 2.04272E+01 4.06276E-01 5.70451E-04 1.50570E-03 4.75420E-14-1.65328E-13
 -1      4240 2.04163E+01 4.43300E-01-2.06814E-04 6.54044E-03 5.94383E-14-2.19493E-13
 -1      4241 2.04319E+01 3.33151E-01 4.14389E-04-5.30861E-03 3.10722E-14-1.94931E-13
 -1      4242 2.03639E+01 7.10693E-03 8.94417E-04-7.04116E-03-6.42735E-14-1.63290E-13
 -1      4243 2.03824E+01 4.80992E-02 2.49486E-04-9.79496E-03-5.61921E-14-1.64563E-13
 -1      4244 2.04014E+01 1.04697E-01 6.41776E-04-5.10362E-03-1.16065E-14-1.54588E-13
 -1      4245 2.04241E+01 2.28556E-01-4.89851E-04-6.78951E-03 5.12415E-14-1.82328E-13
 -1      4246 2.04283E+01 2.74213E-01 2.59754E-04 3.41812E-03 4.04128E-14-2.05269E-13
 -1      4247 2.02862E+01-7.04359E-02-1.14077E-03-4.55967E-02-6.88334E-15-1.55127E-13
 -1      4248 2.02081E+01-9.33376E-02-4.48630E-04-2.72319E-02 5.32955E-14-7.59179E-14
 -1      4249 2.02293E+01-9.35836E-02 1.44621E-04-2.89122E-02 8.04842E-14-1.46702E-13
 -1      4250 2.02532E+01-9.05980E-02-4.77613E-04-3.00272E-02 4.61916E-14-1.70179E-13
 -1      4251 2.04111E+01 1.48561E-01-3.06261E-05-1.57137E-02 3.15086E-14-1.85343E-13
 -1      4252 2.04225E+01 1.98379E-01 1.42239E-03 6.28402E-03 3.76243E-14-1.61358E-13
 -1      4253 2.04071E+01 1.28887E-01-8.87806E-04 8.28912E-03 1.29335E-14-1.44652E-13
 -3
    1PSTEP                         3           1           1          
  100CL  101 1.000000000        4253                     0    1           1
 -4  TOSTRAIN    6    1
 -5  EXX         1    4    1    1
 -5  EYY         1    4    2    2
 -5  EZZ         1    4    3    3
 -5  EXY         1    4    1    2
 -5  EYZ         1    4    2    3
 -5  EZX         1    4    3    1
 -1         1 1.99181E-04-2.46039E-05-6.55296E-05-1.20888E-04-3.62530E-18 8.40341E-18
 -1         2 4.21029E-05-1.28021E-04 2.31514E-05 6.29573E-07-2.16483E-19-4.84026E-19
 -1         3 9.51035E-05-2.87083E-05-2.82830E-05-1.26424E-07-2.60060E-18-3.45390E-18
 -1         4 9.50456E-05-2.87640E-05-2.81916E-05 2.00119E-07 1.55943E-18 7.02491E-19
 -1         5 1.43348E-04-2.14785E-05-4.25287E-05 3.85316E-05-2.91909E-19 2.11270E-17
 -1         6 1.45410E-04 2.57576E-10-4.41877E-05-5.35270E-05-1.22555E-18 2.04732E-17
 -1         7 9.06096E-05-5.11152E-07-3.90686E-05-2.92525E-05-1.68136E-19 4.11362E-18
 -1         8 8.51262E-05 8.64061E-08-3.63394E-05-2.02715E-05-2.48260E-19-9.43492E-19
 -1         9 8.28167E-05 7.59547E-08-3.53515E-05-1.56394E-05-2.28897E-19-3.68942E-18
 -1        10 8.17712E-05 3.97230E-08-3.48816E-05-1.20774E-05-1.25870E-19-5.08550E-18
 -1        11 8.12521E-05 1.93388E-08-3.46528E-05-9.01385E-06-1.05644E-19-5.69558E-18
 -1        12 8.09829E-05 9.13513E-09-3.45381E-05-6.28404E-06-5.90094E-20-5.91679E-18
 -1        13 8.08410E-05 4.58513E-09-3.44803E-05-3.68517E-06-2.40519E-20-5.92573E-18
 -1        14 8.07816E-05 2.74942E-09-3.44567E-05-1.18342E-06 2.04355E-20-5.87300E-18
 -1        15 8.07837E-05 2.74137E-09-3.44574E-05 1.28893E-06 3.59861E-20-5.79446E-18
 -1        16 8.08473E-05 4.53489E-09-3.44825E-05 3.79574E-06 7.32328E-20-5.66008E-18
 -1        17 8.09943E-05 8.42662E-09-3.45419E-05 6.40644E-06 8.92065E-20-5.31619E-18
 -1        18 8.12697E-05 1.81933E-08-3.46579E-05 9.15522E-06 1.44260E-19-4.76741E-18
 -1        19 8.17972E-05 3.81897E-08-3.48900E-05 1.22573E-05 1.96220E-19-3.89817E-18
 -1        20 8.28366E-05 8.15052E-08-3.53637E-05 1.58701E-05 2.53355E-19-2.29581E-18
 -1        21 8.50913E-05 1.69434E-07-3.63778E-05 2.04820E-05 2.92385E-19 8.82751E-19
 -1        22 9.16468E-05-9.97270E-08-3.87402E-05 2.79992E-05 6.07746E-20 7.11864E-18
 -1        23 1.12980E-04-3.81281E-05-3.53984E-05-4.40232E-06-8.15746E-19 1.61810E-17
 -1        24 9.28129E-05-2.76996E-05-2.90017E-05 3.91440E-07-2.18270E-19 1.23259E-17
 -1        25 8.91306E-05-2.68555E-05-2.69325E-05 3.76098E-07-1.01990E-19 8.48428E-18
 -1        26 8.80291E-05-2.64925E-05-2.63957E-05 2.03949E-07-5.30082E-20 6.02518E-18
 -1        27 8.80561E-05-2.64708E-05-2.63882E-05 1.39945E-07-8.83028E-20 4.28486E-18
 -1        28 8.85913E-05-2.66077E-05-2.65581E-05 1.01036E-07-1.26680E-19 3.13319E-18
 -1        29 8.93474E-05-2.68208E-05-2.67909E-05 7.52900E-08-5.31934E-20 2.08082E-18
 -1        30 9.01725E-05-2.70606E-05-2.70411E-05 5.69457E-08 8.37938E-20 1.22461E-18
 -1        31 9.09817E-05-2.72989E-05-2.72852E-05 4.31538E-08 4.95747E-20 3.17710E-19
 -1        32 9.17281E-05-2.75202E-05-2.75101E-05 3.24526E-08-2.92659E-19-1.23195E-18
 -1        33 9.23881E-05-2.77166E-05-2.77091E-05 2.40268E-08 4.11529E-19-1.62489E-18
 -1        34 9.29534E-05-2.78853E-05-2.78797E-05 1.73609E-08 1.33293E-20-1.50877E-18
 -1        35 9.34254E-05-2.80265E-05-2.80223E-05 1.20901E-08-2.70117E-19-2.72974E-18
 -1        36 9.38118E-05-2.81424E-05-2.81392E-05 7.93747E-09 7.44667E-20-2.87708E-18
 -1        37 9.41244E-05-2.82363E-05-2.82338E-05 4.68591E-09-1.48065E-19-2.84400E-18
 -1        38 9.43774E-05-2.83126E-05-2.83106E-05 2.16662E-09-8.35172E-20-3.14840E-18
 -1        39 9.45873E-05-2.83760E-05-2.83745E-05 2.55853E-10-7.89567E-20-3.52259E-18
 -1        40 9.47721E-05-2.84321E-05-2.84308E-05-1.12413E-09-9.36988E-20-3.37347E-18
 -1        41 9.49520E-05-2.84868E-05-2.84858E-05-2.00124E-09 7.02420E-21-3.85254E-18
 -1        42 9.51501E-05-2.85471E-05-2.85463E-05-2.34688E-09 6.18670E-20-3.68858E-18
 -1        43 9.53930E-05-2.86209E-05-2.86205E-05-2.06605E-09-3.45365E-19-3.73165E-18
 -1        44 9.57121E-05-2.87178E-05-2.87179E-05-9.83382E-10 1.36253E-19-3.47232E-18
 -1        45 9.61449E-05-2.88489E-05-2.88498E-05 1.17545E-09 8.20363E-20-2.70144E-18
 -1        46 9.67361E-05-2.90276E-05-2.90298E-05 4.80708E-09-1.59368E-19-3.80948E-18
 -1        47 9.75384E-05-2.92696E-05-2.92737E-05 1.04563E-08-1.54010E-19-3.69820E-18
 -1        48 9.86125E-05-2.95931E-05-2.95998E-05 1.88366E-08 4.30965E-19-2.93603E-18
 -1        49 1.00026E-04-3.00177E-05-3.00282E-05 3.08242E-08 1.38307E-20-1.94969E-18
 -1        50 1.01846E-04-3.05638E-05-3.05790E-05 4.73774E-08 3.51507E-19-2.37483E-18
 -1        51 1.04132E-04-3.12481E-05-3.12688E-05 6.92767E-08 2.45115E-19-2.20343E-18
 -1        52 1.06911E-04-3.20781E-05-3.21037E-05 9.64927E-08-3.89696E-19-2.74210E-18
 -1        53 1.10142E-04-3.30411E-05-3.30674E-05 1.26861E-07-3.93242E-21-4.83300E-18
 -1        54 1.13657E-04-3.40862E-05-3.41030E-05 1.53674E-07 7.99278E-19-4.61822E-18
 -1        55 1.17077E-04-3.51015E-05-3.50888E-05 1.62099E-07-4.64478E-19-4.84552E-18
 -1        56 1.19727E-04-3.58873E-05-3.58158E-05 1.25774E-07 2.34629E-19-5.33546E-18
 -1        57 1.20599E-04-3.61465E-05-3.59868E-05 8.55997E-09 1.72004E-20-4.67549E-18
 -1        58 1.18490E-04-3.55220E-05-3.52733E-05-2.18159E-07 1.51131E-19-4.25713E-18
 -1        59 1.12474E-04-3.37336E-05-3.34646E-05-5.32816E-07-1.78595E-19-4.00985E-18
 -1        60 1.02726E-04-3.08233E-05-3.06801E-05-8.15742E-07-3.80420E-20-1.21483E-18
 -1        61 9.12779E-05-2.73893E-05-2.75251E-05-8.63006E-07 3.00659E-19-1.61127E-18
 -1        62 8.18081E-05-2.45384E-05-2.49641E-05-5.32885E-07-4.09190E-19-1.00898E-18
 -1        63 7.78607E-05-2.33508E-05-2.38642E-05 6.07967E-08-2.19540E-19-1.33572E-18
 -1        64 8.05047E-05-2.41539E-05-2.44807E-05 5.88545E-07 1.91575E-20-1.75254E-18
 -1        65 8.75503E-05-2.62789E-05-2.62876E-05 7.69765E-07-2.55320E-20 3.80582E-19
 -1        66 9.51200E-05-2.85494E-05-2.83194E-05 5.96396E-07 2.40071E-19-1.14900E-18
 -1        67 1.00075E-04-3.00257E-05-2.97341E-05 2.61848E-07 7.64166E-20-1.83838E-18
 -1        68 1.01328E-04-3.03930E-05-3.01809E-05-3.72568E-08 7.98519E-19 1.13540E-18
 -1        69 9.96541E-05-2.98892E-05-2.98218E-05-1.97298E-07 1.11952E-19 8.68076E-19
 -1        70 9.68930E-05-2.90524E-05-2.91306E-05-1.51842E-07-4.57592E-20-8.47701E-19
 -1        71 9.50825E-05-2.84607E-05-2.85817E-05 4.87680E-08-4.78821E-19-7.75047E-19
 -1        72 1.02184E-04-3.05889E-05-3.41517E-05-1.92912E-06 3.23487E-19 1.92716E-17
 -1        73 9.25695E-05-2.75157E-05-2.89101E-05-3.33280E-07 1.43211E-19 1.49144E-17
 -1        74 8.91176E-05-2.67048E-05-2.69757E-05-1.25976E-07 7.15346E-20 1.16439E-17
 -1        75 8.80586E-05-2.64431E-05-2.64396E-05-9.56280E-08 4.26188E-20 8.98203E-18
 -1        76 8.80912E-05-2.64510E-05-2.64148E-05-7.66182E-08 6.68858E-21 7.51642E-18
 -1        77 8.86254E-05-2.66022E-05-2.65752E-05-6.25849E-08 5.54416E-20 6.29057E-18
 -1        78 8.93786E-05-2.68220E-05-2.68033E-05-5.18269E-08-9.61956E-20 5.69475E-18
 -1        79 9.02004E-05-2.70652E-05-2.70506E-05-4.29413E-08 8.17437E-20 5.10997E-18
 -1        80 9.10060E-05-2.73050E-05-2.72925E-05-3.52851E-08-5.51977E-20 3.82370E-18
 -1        81 9.17487E-05-2.75266E-05-2.75158E-05-2.86010E-08 1.98988E-19 2.96448E-18
 -1        82 9.24053E-05-2.77229E-05-2.77135E-05-2.27664E-08 2.29685E-20 2.30998E-18
 -1        83 9.29675E-05-2.78911E-05-2.78830E-05-1.76998E-08 9.43035E-20 2.16166E-18
 -1        84 9.34367E-05-2.80316E-05-2.80248E-05-1.33242E-08-7.15546E-20 1.31615E-18
 -1        85 9.38208E-05-2.81467E-05-2.81410E-05-9.55691E-09 2.67079E-20 1.36781E-18
 -1        86 9.41314E-05-2.82399E-05-2.82352E-05-6.30942E-09-5.87143E-21 1.70618E-19
 -1        87 9.43829E-05-2.83154E-05-2.83117E-05-3.49219E-09 1.64538E-19-3.89228E-20
 -1        88 9.45916E-05-2.83782E-05-2.83754E-05-1.02136E-09-3.78143E-19-2.53340E-19
 -1        89 9.47757E-05-2.84336E-05-2.84317E-05 1.17333E-09 1.53150E-19-1.77569E-18
 -1        90 9.49552E-05-2.84878E-05-2.84868E-05 3.13933E-09 1.61994E-20-3.25271E-18
 -1        91 9.51530E-05-2.85475E-05-2.85475E-05 4.89030E-09 1.18661E-19-4.36846E-18
 -1        92 9.53955E-05-2.86206E-05-2.86219E-05 6.39197E-09-1.16467E-21-4.16850E-18
 -1        93 9.57133E-05-2.87164E-05-2.87192E-05 7.54311E-09-5.13347E-20-4.21608E-18
 -1        94 9.61426E-05-2.88456E-05-2.88504E-05 8.14938E-09-4.73359E-20-4.10489E-18
 -1        95 9.67254E-05-2.90207E-05-2.90281E-05 7.88787E-09-6.73714E-20-3.52134E-18
 -1        96 9.75099E-05-2.92562E-05-2.92669E-05 6.26075E-09 2.38726E-20-1.69743E-18
 -1        97 9.85497E-05-2.95679E-05-2.95826E-05 2.53975E-09 4.69683E-20-5.40688E-19
 -1        98 9.98996E-05-2.99720E-05-2.99917E-05-4.28711E-09 9.57590E-20-5.92564E-19
 -1        99 1.01610E-04-3.04833E-05-3.05083E-05-1.55321E-08-1.69933E-19-1.81480E-18
 -1       100 1.03711E-04-3.11108E-05-3.11407E-05-3.27045E-08 2.10439E-19-1.34456E-18
 -1       101 1.06195E-04-3.18514E-05-3.18835E-05-5.71152E-08 1.01446E-19-3.25325E-18
 -1       102 1.08975E-04-3.26798E-05-3.27072E-05-8.88819E-08 2.98771E-19-4.44698E-18
 -1       103 1.11837E-04-3.35331E-05-3.35422E-05-1.24907E-07-1.40436E-19-4.28032E-18
 -1       104 1.14383E-04-3.42946E-05-3.42631E-05-1.55508E-07-5.91633E-20-9.78330E-19
 -1       105 1.15980E-04-3.47786E-05-3.46779E-05-1.60447E-07-3.13634E-20-1.36331E-18
 -1       106 1.15781E-04-3.47359E-05-3.45434E-05-1.08358E-07-4.01646E-19 3.38704E-19
 -1       107 1.12906E-04-3.39019E-05-3.36275E-05 3.19334E-08-4.08991E-20-1.56581E-18
 -1       108 1.06857E-04-3.21155E-05-3.18310E-05 2.61576E-07 3.38803E-19-5.16296E-18
 -1       109 9.80916E-05-2.94917E-05-2.93351E-05 5.14983E-07-2.09858E-20-4.75829E-18
 -1       110 8.84398E-05-2.65606E-05-2.66708E-05 6.52345E-07-4.01886E-20-4.28517E-18
 -1       111 8.07587E-05-2.41925E-05-2.45833E-05 5.43154E-07-2.98086E-19-4.25485E-18
 -1       112 7.76006E-05-2.31957E-05-2.37018E-05 1.95613E-07-4.85593E-19-9.29728E-19
 -1       113 7.96474E-05-2.38104E-05-2.41849E-05-2.10890E-07 6.01504E-19-2.81736E-18
 -1       114 8.52546E-05-2.55357E-05-2.56297E-05-4.65931E-07-7.14277E-19-1.29824E-18
 -1       115 9.15551E-05-2.74774E-05-2.73173E-05-4.84255E-07 1.43731E-20-1.13370E-19
 -1       116 9.61016E-05-2.88735E-05-2.85987E-05-3.23202E-07 1.24263E-18-2.82639E-18
 -1       117 9.78816E-05-2.94123E-05-2.91725E-05-1.05189E-07-2.59869E-19-4.22143E-18
 -1       118 9.73571E-05-2.92374E-05-2.91279E-05 6.36704E-08 7.51401E-21-4.28559E-18
 -1       119 9.58979E-05-2.87727E-05-2.88011E-05 1.14043E-07-1.84180E-19-3.87457E-18
 -1       120 9.50376E-05-2.84648E-05-2.85196E-05-3.56467E-08 1.18060E-18-3.64266E-18
 -1       121 9.52616E-05-2.86707E-05-2.85655E-05-1.30035E-07-2.68710E-18 9.94123E-19
 -1       122 9.49188E-05-2.76073E-05-2.89936E-05-1.87073E-08 4.76912E-18 1.15095E-18
 -1       123 9.39514E-05-2.43721E-05-3.00107E-05 1.24353E-07 8.90566E-18 2.54833E-19
 -1       124 9.22127E-05-1.85430E-05-3.17713E-05 3.12365E-07 7.98494E-18 3.74423E-19
 -1       125 8.97087E-05-1.01277E-05-3.42415E-05 5.12565E-07 5.50362E-18-6.77119E-19
 -1       126 8.67611E-05-2.20359E-07-3.70794E-05 6.27603E-07-2.49766E-18-6.73131E-19
 -1       127 8.38671E-05 9.48849E-06-3.98034E-05 5.72009E-07 1.89132E-18 2.04169E-18
 -1       128 8.18623E-05 1.62084E-05-4.16617E-05 3.03303E-07 5.16742E-18-5.33670E-19
 -1       129 8.13902E-05 1.77906E-05-4.20965E-05-9.28857E-08 7.31416E-18 1.07807E-18
 -1       130 8.26138E-05 1.36938E-05-4.09691E-05-4.48438E-07 1.23917E-17 1.60963E-19
 -1       131 8.51215E-05 5.28460E-06-3.86283E-05-6.26790E-07 6.31887E-19-3.02475E-18
 -1       132 8.81156E-05-4.77664E-06-3.57764E-05-5.95953E-07-7.95427E-18 1.46513E-18
 -1       133 9.09795E-05-1.43957E-05-3.29909E-05-4.36031E-07-3.92261E-18 1.99255E-19
 -1       134 9.31916E-05-2.18558E-05-3.07827E-05-2.58811E-07 8.07500E-19 1.37150E-18
 -1       135 9.45991E-05-2.65060E-05-2.93497E-05-1.55712E-07 1.62108E-18-7.75540E-19
 -1       136 9.51134E-05-2.84162E-05-2.86370E-05 2.13788E-07-4.85118E-19-1.23119E-19
 -1       137 2.97541E-05-1.00980E-04 1.82260E-05-2.76652E-05-3.54314E-18-7.25643E-19
 -1       138 9.19171E-06-3.97269E-05 4.40106E-06-2.10430E-05 6.04612E-18 2.81427E-18
 -1       139 1.14953E-05 1.34039E-05-1.44349E-05 2.22193E-05 1.37423E-17 1.14549E-17
 -1       140 6.23336E-05 2.91999E-05-3.72485E-05 8.40093E-05 1.30871E-17 1.29168E-17
 -1       141 1.52171E-04-1.61661E-06-5.73956E-05 1.19772E-04 9.48486E-18 1.84611E-17
 -1       142 2.53873E-04-5.64919E-05-7.34269E-05 1.02713E-04 6.06423E-18 1.75675E-17
 -1       143 3.18335E-04-9.66752E-05-8.17996E-05 3.00837E-05 1.62517E-18 7.26998E-18
 -1       144 3.03562E-04-8.88760E-05-7.95112E-05-5.41250E-05 1.83507E-19-2.17624E-18
 -1       145 2.22472E-04-4.17638E-05-6.80128E-05-1.07925E-04 1.45743E-18-6.57382E-18
 -1       146 1.18934E-04 8.70079E-06-4.99393E-05-1.06586E-04 6.32755E-18-8.19886E-18
 -1       147 3.88963E-05 2.64632E-05-2.84782E-05-6.00206E-05 1.06663E-17-9.61509E-18
 -1       148 5.35758E-06-2.13677E-06-6.94682E-06-2.51923E-06 1.13261E-17-7.01195E-18
 -1       149 1.37615E-05-5.80568E-05 9.61782E-06 2.73696E-05 5.83352E-18-2.13029E-18
 -1       150 3.29179E-05-1.05960E-04 1.96690E-05 1.97729E-05 3.09760E-18-1.08466E-18
 -1       151 3.79932E-05-1.17208E-04 2.18192E-05-8.37643E-06-3.26198E-18-6.02161E-19
 -1       152 2.31303E-05-8.40112E-05 1.53641E-05-2.92821E-05-6.15306E-18-2.04871E-18
 -1       153 6.10287E-06-2.86063E-05 1.88423E-06-1.73680E-05-1.11660E-17-6.20981E-18
 -1       154 1.59214E-05 1.54276E-05-1.67883E-05 2.82013E-05-1.04249E-17-8.66134E-18
 -1       155 7.81983E-05 1.99250E-05-3.98572E-05 8.67148E-05-7.26331E-18-8.37080E-18
 -1       156 1.83373E-04-2.10799E-05-6.17939E-05 1.13291E-04-2.37339E-18-3.81631E-18
 -1       157 2.76836E-04-7.29934E-05-7.57874E-05 8.29560E-05 3.74442E-19 1.06726E-19
 -1       158 3.23123E-04-1.00035E-04-8.21035E-05 4.15327E-06-3.13429E-19 4.97012E-18
 -1       159 2.88794E-04-7.72953E-05-7.80802E-05-8.12858E-05-1.81051E-18 9.81055E-18
 -1       160 8.73996E-05 2.37569E-05-4.38777E-05-9.93729E-05-8.63465E-18 1.08496E-17
 -1       161 1.81163E-05 2.18932E-05-1.96926E-05-3.64239E-05-1.65675E-17 1.29312E-17
 -1       162 7.06656E-06-3.24215E-05 2.61402E-06 1.85668E-05-1.31345E-17 8.43687E-18
 -1       163 2.84812E-05-9.77963E-05 1.75127E-05 2.82228E-05-3.60434E-18 1.72895E-18
 -1       164 9.48712E-05-1.23474E-05-3.55702E-05-2.23488E-05-2.92650E-18 1.42828E-18
 -1       165 8.92510E-05-8.45648E-06-3.47880E-05-1.73914E-05-2.74945E-18-1.73130E-18
 -1       166 8.65505E-05-6.50637E-06-3.44165E-05-1.35827E-05-2.18770E-18-3.48599E-18
 -1       167 8.51882E-05-5.51313E-06-3.42306E-05-1.03717E-05-1.62531E-18-4.42227E-18
 -1       168 8.44469E-05-4.94538E-06-3.41410E-05-7.54689E-06-1.11755E-18-4.82087E-18
 -1       169 8.40189E-05-4.59942E-06-3.40985E-05-4.90299E-06-6.45397E-19-4.90240E-18
 -1       170 8.38001E-05-4.41485E-06-3.40804E-05-2.39484E-06-1.46904E-19-4.91538E-18
 -1       171 8.37356E-05-4.35907E-06-3.40756E-05 5.13139E-08 3.17190E-19-4.84216E-18
 -1       172 8.38099E-05-4.42326E-06-3.40811E-05 2.49957E-06 7.49921E-19-4.69768E-18
 -1       173 8.40403E-05-4.61840E-06-3.40999E-05 5.01446E-06 1.12804E-18-4.52157E-18
 -1       174 8.44735E-05-4.97135E-06-3.41420E-05 7.62356E-06 1.60153E-18-4.11812E-18
 -1       175 8.52505E-05-5.57409E-06-3.42320E-05 1.05123E-05 2.19615E-18-3.42984E-18
 -1       176 8.66479E-05-6.60871E-06-3.44188E-05 1.37833E-05 2.74482E-18-2.36529E-18
 -1       177 8.93940E-05-8.60045E-06-3.47928E-05 1.76230E-05 3.06905E-18-3.35835E-19
 -1       178 9.57831E-05-1.36146E-05-3.54265E-05 2.18939E-05 2.92851E-18 3.49038E-18
 -1       179 1.05610E-04-2.61035E-05-3.52643E-05 1.86631E-05 2.22842E-18 8.52337E-18
 -1       180 1.03403E-04-2.73030E-05-3.26120E-05-1.21268E-05-2.51209E-18 5.10803E-18
 -1       181 9.71136E-05-2.82911E-05-2.95306E-05-4.72964E-06-2.23425E-18 3.85315E-18
 -1       182 9.35146E-05-2.76396E-05-2.81841E-05-1.76783E-06-1.57493E-18 2.76175E-18
 -1       183 9.19789E-05-2.74073E-05-2.76381E-05-4.22074E-07-1.17402E-18 1.78836E-18
 -1       184 9.14032E-05-2.73327E-05-2.74406E-05 2.43217E-07-7.67680E-19 1.17868E-18
 -1       185 9.13613E-05-2.73718E-05-2.74154E-05 5.68632E-07-6.99819E-19 8.73320E-19
 -1       186 9.16043E-05-2.74744E-05-2.74803E-05 7.06574E-07-4.84859E-19 6.01228E-19
 -1       187 9.19869E-05-2.76063E-05-2.75899E-05 7.36466E-07-6.29767E-19 1.76790E-19
 -1       188 9.24220E-05-2.77462E-05-2.77176E-05 7.04201E-07-7.86593E-19-1.07675E-19
 -1       189 9.28578E-05-2.78812E-05-2.78472E-05 6.38322E-07-4.96740E-19-3.48766E-19
 -1       190 9.32650E-05-2.80044E-05-2.79693E-05 5.57231E-07-4.24683E-19-1.48362E-18
 -1       191 9.36289E-05-2.81124E-05-2.80791E-05 4.72937E-07-6.26293E-19-2.03202E-18
 -1       192 9.39446E-05-2.82045E-05-2.81749E-05 3.93285E-07-2.87837E-19-2.09882E-18
 -1       193 9.42136E-05-2.82818E-05-2.82571E-05 3.23418E-07-8.69918E-20-1.83031E-18
 -1       194 9.44423E-05-2.83463E-05-2.83273E-05 2.66816E-07-3.43983E-19-1.92359E-18
 -1       195 9.46397E-05-2.84010E-05-2.83883E-05 2.26068E-07-2.48989E-19-1.92447E-18
 -1       196 9.48180E-05-2.84494E-05-2.84437E-05 2.03469E-07 3.85021E-20-1.70088E-18
 -1       197 9.49912E-05-2.84956E-05-2.84978E-05 2.01486E-07-5.21633E-19-2.03734E-18
 -1       198 9.51758E-05-2.85444E-05-2.85557E-05 2.23130E-07-4.59921E-19-2.49978E-18
 -1       199 9.53912E-05-2.86014E-05-2.86233E-05 2.72230E-07-2.35764E-19-2.82652E-18
 -1       200 9.56600E-05-2.86729E-05-2.87074E-05 3.53632E-07 2.27080E-19-2.63806E-18
 -1       201 9.60085E-05-2.87665E-05-2.88161E-05 4.73275E-07-3.87861E-20-2.66598E-18
 -1       202 9.64676E-05-2.88913E-05-2.89588E-05 6.38087E-07-3.27568E-19-2.25449E-18
 -1       203 9.70726E-05-2.90577E-05-2.91462E-05 8.55585E-07-1.82574E-19-1.65871E-18
 -1       204 9.78634E-05-2.92778E-05-2.93902E-05 1.13296E-06-1.92717E-20-1.79099E-18
 -1       205 9.88829E-05-2.95652E-05-2.97035E-05 1.47524E-06 2.92454E-19-1.80429E-18
 -1       206 1.00174E-04-2.99347E-05-3.00981E-05 1.88198E-06-2.74513E-19-1.78551E-18
 -1       207 1.01772E-04-3.04012E-05-3.05836E-05 2.34147E-06-1.98581E-19-2.28786E-18
 -1       208 1.03698E-04-3.09777E-05-3.11632E-05 2.82126E-06-2.36560E-19-2.26225E-18
 -1       209 1.05937E-04-3.16720E-05-3.18276E-05 3.25385E-06-5.28369E-19-1.28799E-18
 -1       210 1.08414E-04-3.24805E-05-3.25467E-05 3.51771E-06-5.14400E-19-1.19097E-18
 -1       211 1.10960E-04-3.33764E-05-3.32590E-05 3.41849E-06-5.67833E-19-3.08944E-18
 -1       212 1.13268E-04-3.42905E-05-3.38623E-05 2.68616E-06 2.56413E-19-2.58107E-18
 -1       213 1.14870E-04-3.50794E-05-3.42146E-05 1.02324E-06 4.06960E-19-1.94948E-18
 -1       214 1.15148E-04-3.54900E-05-3.41564E-05-1.74200E-06 9.14432E-20-2.64622E-18
 -1       215 1.13458E-04-3.51527E-05-3.35692E-05-5.36446E-06-1.66134E-19-2.72358E-18
 -1       216 1.09451E-04-3.37032E-05-3.24637E-05-8.85758E-06 9.61498E-19-3.67841E-18
 -1       217 1.03562E-04-3.11218E-05-3.10410E-05-1.05251E-05 2.41859E-19-1.55705E-18
 -1       218 9.73560E-05-2.81267E-05-2.96695E-05-8.81317E-06 3.36438E-19-8.73020E-19
 -1       219 9.31387E-05-2.61085E-05-2.87335E-05-3.78693E-06-1.70637E-19-5.69241E-19
 -1       220 9.24809E-05-2.60924E-05-2.84560E-05 2.24686E-06 6.06687E-20-6.76849E-19
 -1       221 9.50183E-05-2.78393E-05-2.87874E-05 6.23183E-06 1.13579E-18-1.14461E-18
 -1       222 9.87352E-05-3.00305E-05-2.94372E-05 6.62985E-06-4.65766E-19 3.87173E-19
 -1       223 1.01518E-04-3.14446E-05-3.00285E-05 4.17556E-06 8.30109E-19-6.20280E-19
 -1       224 1.02316E-04-3.16660E-05-3.02827E-05 7.81620E-07 1.40896E-18 3.57871E-19
 -1       225 1.01240E-04-3.09391E-05-3.01366E-05-1.87358E-06-5.25862E-19-9.82745E-19
 -1       226 9.90578E-05-2.97096E-05-2.97263E-05-2.88044E-06 2.35334E-19-2.08741E-18
 -1       227 9.67110E-05-2.84701E-05-2.92475E-05-2.08671E-06 1.54521E-19-6.70354E-19
 -1       228 9.95069E-05-2.85563E-05-3.05890E-05 7.21082E-06 2.06910E-18 7.24075E-18
 -1       229 9.44233E-05-2.77928E-05-2.85265E-05 2.74320E-06 1.71399E-18 5.71647E-18
 -1       230 9.21041E-05-2.74034E-05-2.76839E-05 9.29310E-07 1.36797E-18 4.32549E-18
 -1       231 9.11562E-05-2.72409E-05-2.73653E-05 6.73929E-08 7.64884E-19 3.31973E-18
 -1       232 9.09450E-05-2.72340E-05-2.72912E-05-3.60438E-07 5.33692E-19 2.79584E-18
 -1       233 9.11289E-05-2.73201E-05-2.73399E-05-5.60965E-07 1.34843E-19 2.65503E-18
 -1       234 9.15123E-05-2.74531E-05-2.74504E-05-6.33411E-07 5.82362E-19 2.05199E-18
 -1       235 9.19802E-05-2.76038E-05-2.75879E-05-6.31841E-07 6.20190E-19 1.68033E-18
 -1       236 9.24643E-05-2.77545E-05-2.77318E-05-5.88573E-07 5.64673E-19 9.62701E-19
 -1       237 9.29254E-05-2.78951E-05-2.78697E-05-5.23987E-07 1.64250E-19 8.82079E-19
 -1       238 9.33423E-05-2.80203E-05-2.79950E-05-4.51268E-07 2.34794E-19 6.18220E-19
 -1       239 9.37063E-05-2.81284E-05-2.81049E-05-3.79016E-07 4.39060E-19 3.72648E-19
 -1       240 9.40168E-05-2.82195E-05-2.81990E-05-3.12830E-07 4.32346E-19-3.19093E-19
 -1       241 9.42786E-05-2.82954E-05-2.82787E-05-2.56398E-07 1.91972E-19-1.35737E-19
 -1       242 9.45001E-05-2.83588E-05-2.83464E-05-2.12263E-07 3.44939E-20 3.56467E-19
 -1       243 9.46925E-05-2.84132E-05-2.84055E-05-1.82418E-07 6.72846E-20-3.38009E-19
 -1       244 9.48696E-05-2.84626E-05-2.84601E-05-1.68752E-07 1.09137E-18-1.33548E-18
 -1       245 9.50471E-05-2.85115E-05-2.85150E-05-1.73401E-07 2.75381E-19-1.95733E-18
 -1       246 9.52433E-05-2.85655E-05-2.85758E-05-1.99003E-07 2.89429E-19-1.50612E-18
 -1       247 9.54793E-05-2.86306E-05-2.86488E-05-2.48865E-07-6.05008E-19-1.66556E-18
 -1       248 9.57796E-05-2.87139E-05-2.87416E-05-3.27025E-07 1.20278E-19-1.54510E-18
 -1       249 9.61725E-05-2.88239E-05-2.88626E-05-4.38165E-07 2.94953E-19-2.02644E-18
 -1       250 9.66902E-05-2.89700E-05-2.90217E-05-5.87280E-07-2.18974E-19-2.70945E-18
 -1       251 9.73688E-05-2.91633E-05-2.92295E-05-7.78990E-07-1.17721E-18-2.14276E-18
 -1       252 9.82464E-05-2.94157E-05-2.94974E-05-1.01624E-06-4.71081E-19 1.36088E-19
 -1       253 9.93607E-05-2.97395E-05-2.98364E-05-1.29805E-06 5.98473E-20 1.45669E-18
 -1       254 1.00743E-04-3.01463E-05-3.02549E-05-1.61580E-06 5.07435E-19 1.11837E-18
 -1       255 1.02409E-04-3.06447E-05-3.07563E-05-1.94749E-06-3.13043E-19 5.42470E-19
 -1       256 1.04344E-04-3.12364E-05-3.13332E-05-2.24930E-06 1.05536E-18 6.04098E-20
 -1       257 1.06480E-04-3.19103E-05-3.19614E-05-2.44497E-06 5.06898E-19-1.03412E-18
 -1       258 1.08668E-04-3.26338E-05-3.25904E-05-2.41526E-06-5.65069E-19-3.08363E-19
 -1       259 1.10645E-04-3.33399E-05-3.31353E-05-1.99545E-06-6.25757E-19-5.25470E-19
 -1       260 1.12015E-04-3.39124E-05-3.34748E-05-9.97506E-07 4.44555E-19-6.53740E-19
 -1       261 1.12262E-04-3.41723E-05-3.34637E-05 7.15612E-07-4.95078E-19-1.87689E-18
 -1       262 1.10847E-04-3.38864E-05-3.29726E-05 3.08096E-06 1.29923E-18-2.92273E-18
 -1       263 1.07433E-04-3.28348E-05-3.19561E-05 5.64782E-06 1.42181E-18-3.75019E-18
 -1       264 1.02215E-04-3.09641E-05-3.05281E-05 7.50466E-06-9.06204E-19-3.10686E-18
 -1       265 9.61963E-05-2.85921E-05-2.89841E-05 7.54146E-06-6.69545E-19-1.68656E-18
 -1       266 9.11007E-05-2.64849E-05-2.77217E-05 5.20048E-06-2.32567E-19 7.40836E-19
 -1       267 8.86022E-05-2.55009E-05-2.70747E-05 1.18413E-06-5.89264E-19-5.96675E-19
 -1       268 8.92907E-05-2.59805E-05-2.71458E-05-2.71208E-06 2.74674E-19 6.34811E-20
 -1       269 9.22453E-05-2.74476E-05-2.77589E-05-4.79481E-06-1.74100E-18 1.06510E-18
 -1       270 9.57087E-05-2.90202E-05-2.85566E-05-4.55932E-06 1.05677E-18-3.30660E-19
 -1       271 9.81506E-05-3.00032E-05-2.91846E-05-2.72404E-06 1.41855E-18-4.06477E-19
 -1       272 9.89159E-05-3.01730E-05-2.94512E-05-5.28798E-07-6.66072E-19 1.01307E-18
 -1       273 9.82454E-05-2.97159E-05-2.93726E-05 9.91723E-07 1.78669E-19 1.52127E-18
 -1       274 9.68775E-05-2.89805E-05-2.91075E-05 1.31798E-06-3.31119E-19 1.14088E-18
 -1       275 9.56545E-05-2.84167E-05-2.88125E-05 5.82554E-07 3.50555E-19 1.13065E-18
 -1       276 9.54307E-05-2.76053E-05-2.90569E-05 1.36813E-06 8.55478E-19 5.56763E-18
 -1       277 9.50715E-05-2.58063E-05-2.96709E-05 3.33525E-06 2.18199E-18 1.04306E-18
 -1       278 9.42220E-05-2.26509E-05-3.06647E-05 5.82679E-06 1.87505E-18 9.00955E-19
 -1       279 9.26947E-05-1.78855E-05-3.20588E-05 8.31201E-06 2.24642E-18-1.58523E-18
 -1       280 9.04836E-05-1.18658E-05-3.37018E-05 9.86952E-06 1.37978E-18-4.43288E-18
 -1       281 8.78052E-05-5.27874E-06-3.53852E-05 9.50148E-06 2.43561E-18 1.58331E-18
 -1       282 8.53954E-05 2.43069E-07-3.67243E-05 6.57067E-06 1.29542E-18 1.94037E-18
 -1       283 8.41182E-05 3.05650E-06-3.73852E-05 1.54818E-06 3.68023E-18 1.76644E-18
 -1       284 8.45072E-05 2.20716E-06-3.71886E-05-4.00268E-06 2.60909E-18 7.36118E-19
 -1       285 8.63928E-05-2.00951E-06-3.61868E-05-8.22374E-06 8.52866E-19-6.77722E-18
 -1       286 8.89759E-05-8.11476E-06-3.46681E-05-9.99886E-06 9.56704E-19-5.26079E-18
 -1       287 9.15305E-05-1.46786E-05-3.29395E-05-9.44459E-06 2.08689E-18 2.21169E-18
 -1       288 9.34874E-05-2.03093E-05-3.13546E-05-7.37858E-06 6.55716E-19 2.65213E-18
 -1       289 9.47502E-05-2.44247E-05-3.01320E-05-4.71426E-06-1.91452E-19 4.83186E-19
 -1       290 9.58794E-05-2.68391E-05-2.95735E-05-3.58198E-06-3.29156E-19-1.63674E-18
 -1       291 1.49406E-05-5.74166E-05 1.41565E-05 7.58182E-06-8.00764E-19-7.87847E-19
 -1       292 3.01391E-05-4.98919E-05 5.49331E-06 2.47878E-05-1.05583E-18 4.31616E-18
 -1       293 5.72549E-05-4.21288E-05-8.35577E-06 3.71790E-05 1.52932E-18 7.26881E-18
 -1       294 1.00378E-04-3.92175E-05-2.64720E-05 4.65992E-05 3.84955E-18 4.84545E-18
 -1       295 1.39952E-04-3.15444E-05-4.50868E-05 5.07685E-05 4.30833E-18 8.80110E-18
 -1       296 1.80175E-04-3.31904E-05-6.04633E-05 4.06743E-05 4.93448E-18 7.88842E-18
 -1       297 1.97906E-04-2.96724E-05-6.96374E-05 1.65222E-05 5.56352E-18 3.34906E-18
 -1       298 2.19757E-04-3.81487E-05-7.40131E-05-1.53323E-06 4.29901E-18 3.10626E-18
 -1       299 1.97784E-04-3.43088E-05-6.72894E-05-2.01682E-05 2.64063E-18 9.76205E-20
 -1       300 1.67086E-04-3.45058E-05-5.49112E-05-3.83286E-05 3.52093E-18-1.60301E-18
 -1       301 1.25726E-04-3.65135E-05-3.77261E-05-4.27448E-05 5.08728E-18-1.99222E-18
 -1       302 7.94893E-05-3.67364E-05-1.91888E-05-4.08646E-05 3.43599E-18-4.02955E-18
 -1       303 4.23727E-05-4.21702E-05-2.40940E-06-2.84780E-05 1.48675E-18-4.40153E-18
 -1       304 2.13724E-05-5.04117E-05 9.22467E-06-1.54999E-05 5.73865E-19-2.02457E-18
 -1       305 1.10800E-05-5.01414E-05 1.37110E-05-3.96527E-06 7.42133E-19-2.74513E-18
 -1       306 1.56412E-05-5.34099E-05 1.26955E-05 8.89048E-06-1.55039E-18-1.72414E-18
 -1       307 3.09622E-05-4.68312E-05 3.92703E-06 2.15345E-05-3.05186E-18-4.19938E-18
 -1       308 5.85218E-05-3.87640E-05-1.01669E-05 3.43659E-05-4.34020E-18-2.54057E-18
 -1       309 1.08882E-04-4.28210E-05-2.84579E-05 4.05746E-05-3.42921E-18-1.22544E-18
 -1       310 1.51739E-04-3.93706E-05-4.72427E-05 3.31181E-05-3.26642E-18 1.28537E-18
 -1       311 1.89463E-04-3.58461E-05-6.32598E-05 2.83859E-05-2.76535E-18 6.58780E-19
 -1       312 2.16955E-04-3.84684E-05-7.26668E-05 1.09930E-05-1.52667E-18 2.21203E-18
 -1       313 2.11326E-04-3.35052E-05-7.28306E-05-1.30324E-05-2.43458E-18 2.77218E-18
 -1       314 1.94796E-04-3.40671E-05-6.59171E-05-3.39446E-05-1.50751E-18 4.94413E-18
 -1       315 1.57941E-04-3.44966E-05-5.12032E-05-4.42756E-05-4.00991E-18 2.75688E-18
 -1       316 1.09624E-04-3.56197E-05-3.15597E-05-4.86515E-05-6.59182E-18 3.14673E-18
 -1       317 6.48771E-05-4.17192E-05-1.14825E-05-4.01203E-05-5.02905E-18 6.27387E-18
 -1       318 3.11980E-05-5.02611E-05 4.95049E-06-2.36280E-05-3.36907E-18 7.80843E-18
 -1       319 1.48072E-05-5.52409E-05 1.35445E-05-8.89593E-06-1.68591E-18 1.10167E-18
 -1       320 9.16506E-05-1.43952E-05-3.31726E-05-1.30652E-05-2.81083E-18-1.64093E-18
 -1       321 9.57112E-05-1.91110E-05-3.28917E-05-1.46300E-05-3.12166E-18 1.58375E-19
 -1       322 8.80063E-05-1.03775E-05-3.33228E-05-8.15379E-06-1.69910E-18-3.47607E-18
 -1       323 8.71884E-05-9.45358E-06-3.33629E-05-5.71671E-06-1.16148E-18-3.73860E-18
 -1       324 8.67286E-05-8.92417E-06-3.33896E-05-3.36666E-06-4.77693E-19-3.65913E-18
 -1       325 8.65235E-05-8.68447E-06-3.34031E-05-1.07238E-06 1.47720E-19-3.70759E-18
 -1       326 8.65320E-05-8.69397E-06-3.34027E-05 1.20350E-06 6.90457E-19-3.59972E-18
 -1       327 8.67559E-05-8.95490E-06-3.33884E-05 3.49995E-06 1.18939E-18-3.55325E-18
 -1       328 8.72281E-05-9.49900E-06-3.33612E-05 5.81503E-06 1.71942E-18-3.25894E-18
 -1       329 8.80664E-05-1.04496E-05-3.33198E-05 8.25357E-06 2.34918E-18-2.62376E-18
 -1       330 8.94839E-05-1.20340E-05-3.32595E-05 1.07627E-05 2.90270E-18-1.88258E-18
 -1       331 9.19039E-05-1.47226E-05-3.31588E-05 1.31686E-05 3.37274E-18-6.83992E-19
 -1       332 9.58081E-05-1.94582E-05-3.28291E-05 1.43751E-05 3.35611E-18 1.64852E-18
 -1       333 9.87962E-05-2.44457E-05-3.19526E-05 1.18973E-05 2.98522E-18 3.88804E-18
 -1       334 9.63956E-05-2.68140E-05-2.97912E-05 5.74044E-06 2.41179E-18 2.91982E-18
 -1       335 9.64374E-05-2.60268E-05-3.01322E-05-6.34629E-06-2.43260E-18 5.85654E-19
 -1       336 9.49318E-05-2.70418E-05-2.90716E-05-2.83619E-06-1.84000E-18 3.27395E-19
 -1       337 9.39471E-05-2.74267E-05-2.84944E-05-9.19930E-07-1.34183E-18-4.70893E-20
 -1       338 9.34275E-05-2.76402E-05-2.81878E-05 1.37448E-07-8.79755E-19-2.46662E-19
 -1       339 9.32345E-05-2.77933E-05-2.80434E-05 7.00800E-07-8.90285E-19-3.00475E-19
 -1       340 9.32505E-05-2.79226E-05-2.79967E-05 9.67284E-07-7.77564E-19-4.66960E-19
 -1       341 9.33883E-05-2.80370E-05-2.80076E-05 1.05364E-06-7.39283E-19-3.84356E-19
 -1       342 9.35884E-05-2.81377E-05-2.80507E-05 1.03280E-06-9.44108E-19-4.53811E-19
 -1       343 9.38120E-05-2.82243E-05-2.81097E-05 9.51964E-07-1.10285E-18-8.31730E-19
 -1       344 9.40352E-05-2.82968E-05-2.81743E-05 8.42317E-07-7.74330E-19-1.09689E-18
 -1       345 9.42447E-05-2.83561E-05-2.82387E-05 7.24653E-07-5.52984E-19-9.67392E-19
 -1       346 9.44345E-05-2.84035E-05-2.82997E-05 6.12912E-07-4.93646E-20-1.03493E-18
 -1       347 9.46038E-05-2.84405E-05-2.83562E-05 5.16590E-07-1.81498E-19-8.98606E-19
 -1       348 9.47556E-05-2.84693E-05-2.84088E-05 4.42465E-07-2.05184E-19-1.36227E-18
 -1       349 9.48956E-05-2.84918E-05-2.84590E-05 3.95898E-07-1.27699E-19-1.24969E-18
 -1       350 9.50319E-05-2.85104E-05-2.85092E-05 3.81817E-07-3.50591E-19-1.63250E-18
 -1       351 9.51744E-05-2.85275E-05-2.85627E-05 4.05481E-07-5.38335E-19-1.51432E-18
 -1       352 9.53351E-05-2.85459E-05-2.86234E-05 4.73041E-07-6.17457E-19-1.70224E-18
 -1       353 9.55280E-05-2.85687E-05-2.86959E-05 5.91933E-07 2.03316E-20-1.39628E-18
 -1       354 9.57696E-05-2.85998E-05-2.87858E-05 7.71062E-07 3.36990E-19-1.81920E-18
 -1       355 9.60787E-05-2.86438E-05-2.88989E-05 1.02072E-06 2.99991E-19-1.34476E-18
 -1       356 9.64768E-05-2.87066E-05-2.90421E-05 1.35208E-06-2.63497E-19-1.27160E-18
 -1       357 9.69877E-05-2.87958E-05-2.92223E-05 1.77604E-06-1.31513E-19-1.23575E-18
 -1       358 9.76378E-05-2.89216E-05-2.94464E-05 2.30102E-06 2.70256E-20-1.28516E-18
 -1       359 9.84543E-05-2.90980E-05-2.97202E-05 2.92897E-06-6.22050E-20-1.16162E-18
 -1       360 9.94650E-05-2.93449E-05-3.00473E-05 3.64876E-06-8.33954E-19-1.30013E-18
 -1       361 1.00696E-04-2.96913E-05-3.04265E-05 4.42555E-06-7.65463E-20-1.31473E-18
 -1       362 1.02169E-04-3.01796E-05-3.08497E-05 5.18476E-06 4.62040E-19-8.70116E-19
 -1       363 1.03899E-04-3.08692E-05-3.12982E-05 5.78999E-06 6.56450E-20-2.38921E-19
 -1       364 1.05889E-04-3.18354E-05-3.17412E-05 6.01733E-06-1.18329E-18 5.19361E-19
 -1       365 1.08111E-04-3.31511E-05-3.21361E-05 5.53650E-06-3.11929E-19 4.09928E-19
 -1       366 1.10473E-04-3.48277E-05-3.24373E-05 3.92615E-06-1.21462E-19-1.14008E-18
 -1       367 1.12731E-04-3.66855E-05-3.26158E-05 7.79802E-07-4.92593E-19-1.75420E-18
 -1       368 1.14373E-04-3.81647E-05-3.26876E-05-4.01519E-06-1.13658E-19-1.46149E-18
 -1       369 1.14551E-04-3.82228E-05-3.27303E-05-9.78340E-06-5.17385E-20-7.88124E-19
 -1       370 1.12392E-04-3.57345E-05-3.28651E-05-1.45643E-05 2.10426E-18-1.40841E-18
 -1       371 1.07964E-04-3.07212E-05-3.31154E-05-1.54340E-05 1.15964E-18-1.81847E-18
 -1       372 1.03185E-04-2.54811E-05-3.33187E-05-1.04140E-05 1.35664E-18-3.99407E-19
 -1       373 1.01061E-04-2.36629E-05-3.31923E-05-1.34595E-06-5.64283E-19 3.25566E-19
 -1       374 1.02679E-04-2.65487E-05-3.26446E-05 6.78248E-06-4.48276E-19-1.46694E-19
 -1       375 1.05912E-04-3.15462E-05-3.18790E-05 9.69306E-06 1.15592E-18-1.63742E-18
 -1       376 1.07972E-04-3.52282E-05-3.11861E-05 7.19398E-06-1.15256E-18-9.39374E-19
 -1       377 1.07544E-04-3.59597E-05-3.06963E-05 2.09884E-06 9.10592E-19-1.25273E-18
 -1       378 1.05151E-04-3.43536E-05-3.03583E-05-2.64090E-06-1.43323E-18-1.05305E-18
 -1       379 1.01756E-04-3.15409E-05-3.01047E-05-5.30766E-06-9.23181E-19-6.50852E-19
 -1       380 9.86410E-05-2.89312E-05-2.98656E-05-5.34610E-06 9.35955E-20-6.01860E-19
 -1       381 9.43761E-05-2.73431E-05-2.86903E-05 2.46807E-06 1.90879E-18 2.35960E-18
 -1       382 9.31698E-05-2.74627E-05-2.81384E-05 7.43525E-07 1.27270E-18 1.70192E-18
 -1       383 9.26155E-05-2.75403E-05-2.78795E-05-1.77353E-07 7.46432E-19 1.33709E-18
 -1       384 9.24732E-05-2.76329E-05-2.77846E-05-6.52548E-07 2.98631E-19 9.87798E-19
 -1       385 9.25747E-05-2.77421E-05-2.77838E-05-8.69487E-07 7.48673E-19 3.85232E-19
 -1       386 9.28084E-05-2.78580E-05-2.78355E-05-9.33209E-07 8.90527E-19 1.23357E-19
 -1       387 9.31025E-05-2.79715E-05-2.79136E-05-9.07092E-07 8.08074E-19 4.07232E-20
 -1       388 9.34123E-05-2.80765E-05-2.80017E-05-8.31290E-07 2.00286E-19 3.91551E-19
 -1       389 9.37109E-05-2.81695E-05-2.80900E-05-7.31998E-07 5.65843E-19 7.31644E-20
 -1       390 9.39842E-05-2.82492E-05-2.81729E-05-6.26504E-07 5.72823E-19-2.84459E-19
 -1       391 9.42265E-05-2.83160E-05-2.82481E-05-5.26278E-07 8.22989E-19-1.11463E-19
 -1       392 9.44378E-05-2.83710E-05-2.83150E-05-4.39010E-07 1.79763E-19-2.24203E-19
 -1       393 9.46226E-05-2.84162E-05-2.83746E-05-3.70071E-07 1.53935E-19-5.91283E-19
 -1       394 9.47881E-05-2.84542E-05-2.84291E-05-3.23584E-07 6.49690E-19-9.72605E-19
 -1       395 9.49441E-05-2.84878E-05-2.84813E-05-3.03243E-07 1.16423E-18-9.47257E-19
 -1       396 9.51024E-05-2.85203E-05-2.85350E-05-3.12927E-07 7.40845E-19-5.57307E-19
 -1       397 9.52772E-05-2.85554E-05-2.85945E-05-3.57154E-07-1.92082E-19-3.71146E-19
 -1       398 9.54847E-05-2.85976E-05-2.86650E-05-4.41349E-07 1.49762E-19-1.32221E-19
 -1       399 9.57439E-05-2.86519E-05-2.87524E-05-5.71945E-07 3.68443E-19-7.77565E-19
 -1       400 9.60765E-05-2.87245E-05-2.88634E-05-7.56200E-07 5.24373E-19-1.31377E-18
 -1       401 9.65069E-05-2.88227E-05-2.90054E-05-1.00165E-06-1.12618E-19-7.62173E-19
 -1       402 9.70621E-05-2.89551E-05-2.91861E-05-1.31494E-06-1.59579E-18 3.63402E-19
 -1       403 9.77708E-05-2.91322E-05-2.94134E-05-1.69981E-06-1.65243E-18 2.67663E-19
 -1       404 9.86612E-05-2.93666E-05-2.96943E-05-2.15359E-06-2.15213E-19 5.63863E-19
 -1       405 9.97582E-05-2.96731E-05-3.00331E-05-2.66165E-06 9.18336E-19 1.70029E-18
 -1       406 1.01078E-04-3.00692E-05-3.04296E-05-3.18912E-06 3.19579E-19 1.04819E-18
 -1       407 1.02621E-04-3.05746E-05-3.08756E-05-3.66904E-06 1.27856E-18 1.23783E-18
 -1       408 1.04360E-04-3.12094E-05-3.13512E-05-3.98784E-06 6.74636E-19 2.28015E-18
 -1       409 1.06224E-04-3.19877E-05-3.18203E-05-3.97141E-06-5.19401E-19 1.71316E-18
 -1       410 1.08079E-04-3.29018E-05-3.22286E-05-3.38204E-06 4.25957E-19 3.52473E-19
 -1       411 1.09703E-04-3.38891E-05-3.25067E-05-1.94740E-06-7.20623E-20-2.98442E-19
 -1       412 1.10760E-04-3.47750E-05-3.25832E-05 5.43490E-07 1.53690E-19-5.26290E-19
 -1       413 1.10795E-04-3.52132E-05-3.24103E-05 4.03941E-06 1.50362E-18-2.42653E-19
 -1       414 1.09332E-04-3.47110E-05-3.19914E-05 7.95109E-06 1.94105E-18-2.01238E-19
 -1       415 1.06144E-04-3.28644E-05-3.14081E-05 1.10039E-05-1.29173E-18-1.74278E-18
 -1       416 1.01663E-04-2.98040E-05-3.07935E-05 1.15000E-05-7.66173E-19-1.26461E-18
 -1       417 9.73072E-05-2.66732E-05-3.02636E-05 8.39686E-06-1.47323E-18-1.16051E-18
 -1       418 9.48698E-05-2.51037E-05-2.98866E-05 2.52037E-06-6.90186E-19 8.80048E-19
 -1       419 9.52498E-05-2.59634E-05-2.96746E-05-3.44786E-06-1.10812E-18 2.89701E-18
 -1       420 9.76046E-05-2.84446E-05-2.96201E-05-6.77811E-06-2.65302E-19 3.68654E-18
 -1       421 1.00165E-04-3.09128E-05-2.96718E-05-6.56571E-06 1.22140E-18 1.79972E-18
 -1       422 1.01529E-04-3.21754E-05-2.97314E-05-3.85872E-06 4.44375E-19 2.22449E-18
 -1       423 1.01267E-04-3.19719E-05-2.97134E-05-5.38245E-07-1.14522E-18 2.51611E-18
 -1       424 9.97632E-05-3.07575E-05-2.95850E-05 1.84152E-06 3.87307E-19 1.43098E-18
 -1       425 9.77261E-05-2.92005E-05-2.93721E-05 2.52618E-06-7.54700E-19 2.71740E-18
 -1       426 9.65087E-05-2.82877E-05-2.92327E-05 2.23007E-06 6.34232E-20 4.62546E-18
 -1       427 9.69444E-05-2.50576E-05-3.07923E-05 1.13968E-05-1.41675E-18 8.18543E-19
 -1       428 9.75051E-05-2.71995E-05-3.01174E-05 7.35605E-06-1.26670E-18 1.39254E-18
 -1       429 9.69851E-05-2.77853E-05-2.96450E-05 4.39577E-06-2.05668E-18 3.78409E-18
 -1       430 9.49428E-05-2.14438E-05-3.14942E-05 1.48986E-05-7.81533E-19-4.98430E-18
 -1       431 9.12531E-05-1.63016E-05-3.21296E-05 1.62649E-05 1.22908E-18 1.04236E-18
 -1       432 8.66530E-05-1.06504E-05-3.25902E-05 1.37733E-05 1.47833E-18 2.31166E-18
 -1       433 8.29611E-05-6.37818E-06-3.28453E-05 7.05783E-06 3.03396E-19 2.14045E-18
 -1       434 8.20293E-05-5.32109E-06-3.29050E-05-2.13303E-06 2.93053E-19-3.28510E-19
 -1       435 8.43799E-05-7.98805E-06-3.27689E-05-1.05500E-05-1.29985E-18-3.74299E-18
 -1       436 8.86293E-05-1.30132E-05-3.24246E-05-1.54061E-05 4.24345E-19-5.97977E-18
 -1       437 9.29613E-05-1.85885E-05-3.18755E-05-1.61149E-05 2.66703E-18 2.22195E-18
 -1       438 9.59565E-05-2.31245E-05-3.11991E-05-1.36418E-05 3.51201E-18 8.30828E-19
 -1       439 9.72964E-05-2.60571E-05-3.05063E-05-9.73505E-06 9.08169E-19 7.09655E-20
 -1       440 6.81923E-05-4.76311E-05-8.64476E-06 4.90522E-05-3.18336E-18 5.84574E-18
 -1       441 1.45992E-05-2.44105E-05 4.12530E-06 3.42413E-07-2.13104E-18 1.58925E-18
 -1       442 2.69896E-05-3.31669E-05 2.37517E-06 2.99103E-05-1.02544E-18-8.96796E-20
 -1       443 1.03294E-04-5.97151E-05-1.87420E-05 4.64228E-05-3.42519E-18 2.96321E-18
 -1       444 1.40324E-04-5.74274E-05-3.54189E-05 3.00672E-05-7.27072E-19 3.12301E-18
 -1       445 8.93404E-05-1.18590E-05-3.32802E-05-1.06823E-05-2.30287E-18-2.89816E-18
 -1       446 1.62542E-04-2.74009E-05-5.78691E-05 2.11990E-06 4.66292E-18 1.25996E-19
 -1       447 1.63052E-04-1.27842E-05-6.42066E-05 3.21518E-06 2.99490E-18 2.03169E-18
 -1       448 1.64216E-04-1.64970E-05-6.30655E-05 5.21987E-06 4.92888E-18 5.63870E-18
 -1       449 1.59644E-04-3.29614E-05-5.43323E-05 3.02206E-06 1.84489E-18 2.79786E-18
 -1       450 1.51351E-04-5.05077E-05-4.31965E-05-1.02724E-05 1.59026E-18 2.36322E-18
 -1       451 1.23879E-04-5.82234E-05-2.82040E-05-3.20317E-05 6.22463E-19 2.11610E-18
 -1       452 8.40305E-05-5.25542E-05-1.36655E-05-4.30922E-05-4.91809E-19-3.20344E-18
 -1       453 4.56594E-05-4.07623E-05-2.35275E-06-3.89992E-05 2.87250E-19-3.19226E-18
 -1       454 1.94638E-05-2.96512E-05 4.13875E-06-2.18089E-05-1.16308E-19-1.49131E-18
 -1       455 1.31063E-05-2.69386E-05 5.71605E-06 8.83663E-06-4.03002E-19-1.63308E-18
 -1       456 3.18882E-05-3.41023E-05 8.46586E-07 3.18115E-05 7.71435E-19-3.64542E-18
 -1       457 6.54868E-05-4.78968E-05-7.74238E-06 4.20722E-05-8.12093E-20-1.20133E-18
 -1       458 1.03656E-04-5.75101E-05-1.99413E-05 3.87262E-05 4.82809E-20 3.59989E-20
 -1       459 1.43141E-04-5.90441E-05-3.60857E-05 1.65334E-05-1.32079E-18 3.95024E-18
 -1       460 1.59806E-04-3.97909E-05-5.13252E-05 2.26402E-07-2.53623E-18 2.28794E-18
 -1       461 1.65869E-04-2.30070E-05-6.09898E-05-5.11784E-06-1.92425E-18-2.69251E-19
 -1       462 1.59452E-04-1.17560E-05-6.32950E-05-5.10552E-06-2.06464E-18-2.31288E-18
 -1       463 1.63290E-04-1.97962E-05-6.14156E-05-1.03169E-06-1.49406E-18-2.16618E-18
 -1       464 1.61177E-04-3.76699E-05-5.28574E-05-5.13922E-06-7.62700E-19 3.01332E-19
 -1       465 1.46866E-04-5.57524E-05-3.90103E-05-2.51781E-05-1.36203E-18-2.25819E-18
 -1       466 1.16927E-04-6.22178E-05-2.34199E-05-4.25771E-05-5.39984E-19-1.90392E-18
 -1       467 6.79072E-05-4.89647E-05-8.29811E-06-4.83157E-05 1.00479E-18 4.55690E-18
 -1       468 2.93891E-05-3.56628E-05 2.27092E-06-3.19880E-05-2.46021E-18 4.22394E-18
 -1       469 1.57708E-04-4.56819E-05-4.79009E-05 1.36303E-05 8.63305E-19 3.41735E-18
 -1       470 1.45651E-04-1.42966E-05-5.66958E-05-4.31787E-06 3.76781E-18 1.52646E-18
 -1       471 9.58225E-05-2.51490E-05-3.02742E-05 6.01731E-06 2.41473E-18 5.40291E-19
 -1       472 8.95381E-05-1.34011E-05-3.26492E-05-3.92503E-06-8.03262E-19-3.15184E-18
 -1       473 9.02435E-05-1.43620E-05-3.25410E-05-5.88292E-06-1.31669E-18-3.22913E-18
 -1       474 8.90403E-05-1.27211E-05-3.27260E-05 5.47708E-08 4.18149E-19-3.30622E-18
 -1       475 8.91756E-05-1.29046E-05-3.27057E-05 2.04563E-06 8.65832E-19-3.19403E-18
 -1       476 8.95704E-05-1.34419E-05-3.26457E-05 3.99792E-06 1.39013E-18-3.09078E-18
 -1       477 9.02962E-05-1.44304E-05-3.25350E-05 5.95493E-06 2.06712E-18-2.47032E-18
 -1       478 9.14456E-05-1.60091E-05-3.23528E-05 7.77573E-06 2.48498E-18-1.96531E-18
 -1       479 9.32321E-05-1.84775E-05-3.20576E-05 9.29617E-06 2.78757E-18-1.11751E-18
 -1       480 9.51159E-05-2.65798E-05-2.93551E-05 2.87395E-06 1.94389E-18 3.67195E-19
 -1       481 9.54652E-05-2.44148E-05-3.04368E-05-5.81627E-06-2.18578E-18-7.60440E-19
 -1       482 1.47973E-04-3.88208E-05-4.72733E-05-5.73970E-06 1.96385E-18-6.02240E-19
 -1       483 9.53150E-05-2.62824E-05-2.95825E-05-2.89893E-06-1.73197E-18-8.07765E-19
 -1       484 9.49192E-05-2.71627E-05-2.90343E-05-1.03340E-06-1.21067E-18-7.75379E-19
 -1       485 9.46422E-05-2.76940E-05-2.86904E-05 9.01648E-08-1.02465E-18-1.00348E-18
 -1       486 9.44857E-05-2.80204E-05-2.84845E-05 7.24888E-07-8.19025E-19-9.51310E-19
 -1       487 9.44302E-05-2.82319E-05-2.83706E-05 1.04187E-06-8.47336E-19-1.04070E-18
 -1       488 9.44454E-05-2.83726E-05-2.83171E-05 1.15672E-06-9.94762E-19-1.29283E-18
 -1       489 9.45043E-05-2.84661E-05-2.83024E-05 1.14755E-06-1.25139E-18-1.07184E-18
 -1       490 9.45865E-05-2.85265E-05-2.83118E-05 1.06761E-06-7.19519E-19-6.23467E-19
 -1       491 9.46781E-05-2.85630E-05-2.83354E-05 9.53320E-07-5.32481E-19-3.14020E-19
 -1       492 9.47706E-05-2.85818E-05-2.83669E-05 8.29629E-07-2.96805E-19-1.83769E-19
 -1       493 9.48596E-05-2.85874E-05-2.84026E-05 7.13724E-07-1.80083E-19-6.21052E-19
 -1       494 9.49439E-05-2.85829E-05-2.84407E-05 6.17723E-07-5.44103E-19-5.58379E-19
 -1       495 9.50245E-05-2.85704E-05-2.84805E-05 5.50678E-07-2.79985E-19-7.68161E-19
 -1       496 9.51042E-05-2.85512E-05-2.85228E-05 5.20102E-07-6.76121E-19-1.21736E-18
 -1       497 9.51870E-05-2.85261E-05-2.85689E-05 5.33123E-07-5.35606E-19-1.17401E-18
 -1       498 9.52784E-05-2.84955E-05-2.86211E-05 5.97345E-07-6.32383E-19-1.28260E-18
 -1       499 9.53849E-05-2.84596E-05-2.86820E-05 7.21454E-07-8.57424E-23-1.07411E-18
 -1       500 9.55143E-05-2.84187E-05-2.87548E-05 9.15565E-07 7.79967E-20-1.51487E-18
 -1       501 9.56751E-05-2.83734E-05-2.88429E-05 1.19126E-06 3.86132E-19-1.23642E-18
 -1       502 9.58776E-05-2.83256E-05-2.89500E-05 1.56123E-06 1.66956E-19-1.32013E-18
 -1       503 9.61329E-05-2.82785E-05-2.90793E-05 2.03832E-06-1.91499E-19-1.45482E-18
 -1       504 9.64540E-05-2.82391E-05-2.92336E-05 2.63370E-06-2.34483E-19-1.62392E-18
 -1       505 9.68563E-05-2.82200E-05-2.94139E-05 3.35377E-06-7.20883E-20-1.74233E-18
 -1       506 9.73591E-05-2.82434E-05-2.96192E-05 4.19499E-06-6.48344E-21-1.42606E-18
 -1       507 9.79898E-05-2.83479E-05-2.98446E-05 5.13606E-06-7.74712E-19-9.58011E-19
 -1       508 9.87895E-05-2.85976E-05-3.00806E-05 6.12592E-06 8.12340E-19-6.04713E-19
 -1       509 9.98247E-05-2.90942E-05-3.03121E-05 7.06676E-06 4.76543E-19-2.25455E-19
 -1       510 1.01201E-04-2.99877E-05-3.05202E-05 7.79077E-06-8.31774E-19-2.38704E-19
 -1       511 1.03073E-04-3.14742E-05-3.06883E-05 8.03156E-06-9.61178E-19-7.38090E-19
 -1       512 1.05639E-04-3.37514E-05-3.08155E-05 7.39632E-06-1.31613E-18-5.86866E-19
 -1       513 1.09054E-04-3.68777E-05-3.09432E-05 5.35957E-06-1.04413E-18-1.50775E-18
 -1       514 1.13205E-04-4.04616E-05-3.11913E-05 1.35259E-06 2.79824E-19-2.34567E-18
 -1       515 1.17336E-04-4.32351E-05-3.17783E-05-4.87429E-06 7.22646E-19-3.02456E-19
 -1       516 1.19749E-04-4.28690E-05-3.29645E-05-1.24271E-05 3.83246E-19 2.63259E-20
 -1       517 1.18303E-04-3.70371E-05-3.48964E-05-1.81578E-05 6.97194E-19-8.98399E-19
 -1       518 1.13321E-04-2.71389E-05-3.70393E-05-1.74055E-05 1.23022E-18-5.00314E-19
 -1       519 1.08239E-04-1.92919E-05-3.83344E-05-8.02987E-06 1.39297E-19-1.88196E-18
 -1       520 1.09191E-04-2.11159E-05-3.79079E-05 4.47246E-06-4.88778E-19-3.13083E-18
 -1       521 1.13718E-04-3.02480E-05-3.58715E-05 1.10560E-05-9.23861E-19-2.90794E-18
 -1       522 1.16975E-04-3.90438E-05-3.34489E-05 9.24505E-06 4.75333E-19-3.97815E-18
 -1       523 1.15807E-04-4.20614E-05-3.16262E-05 2.50664E-06-6.73318E-19-2.37005E-18
 -1       524 1.11507E-04-4.00800E-05-3.06191E-05-4.13286E-06 1.25758E-18-2.35159E-18
 -1       525 1.06033E-04-3.54338E-05-3.02601E-05-8.28679E-06-3.71713E-19-6.49287E-19
 -1       526 9.41451E-05-2.76873E-05-2.84784E-05-1.19931E-07 1.00369E-18-3.14119E-19
 -1       527 9.39685E-05-2.79341E-05-2.82991E-05-7.28823E-07 8.75333E-19-5.41961E-19
 -1       528 9.39380E-05-2.81053E-05-2.82137E-05-1.02589E-06 1.00013E-18-5.92943E-19
 -1       529 9.40011E-05-2.82309E-05-2.81874E-05-1.12844E-06 6.79653E-19-4.26578E-19
 -1       530 9.41169E-05-2.83250E-05-2.81970E-05-1.11308E-06 4.03367E-19-2.83826E-19
 -1       531 9.42573E-05-2.83953E-05-2.82271E-05-1.03099E-06 6.58665E-19-6.53786E-19
 -1       532 9.44038E-05-2.84468E-05-2.82679E-05-9.16673E-07 8.80950E-19-6.55802E-19
 -1       533 9.45457E-05-2.84831E-05-2.83131E-05-7.93508E-07 4.16827E-19-6.00794E-19
 -1       534 9.46778E-05-2.85073E-05-2.83593E-05-6.77410E-07 6.13965E-19-4.19838E-19
 -1       535 9.47991E-05-2.85218E-05-2.84050E-05-5.79437E-07 4.22347E-19-5.74550E-19
 -1       536 9.49114E-05-2.85285E-05-2.84501E-05-5.07678E-07 5.00498E-19-7.81823E-19
 -1       537 9.50189E-05-2.85295E-05-2.84956E-05-4.68678E-07 6.66088E-19-6.91382E-19
 -1       538 9.51275E-05-2.85260E-05-2.85435E-05-4.68510E-07 5.66536E-19 2.88659E-19
 -1       539 9.52447E-05-2.85197E-05-2.85962E-05-5.13553E-07-2.37338E-19 4.28671E-19
 -1       540 9.53796E-05-2.85123E-05-2.86570E-05-6.11011E-07-5.56299E-19 5.57516E-19
 -1       541 9.55429E-05-2.85056E-05-2.87296E-05-7.69170E-07 7.95350E-19 7.43646E-19
 -1       542 9.57467E-05-2.85023E-05-2.88181E-05-9.97326E-07 6.91075E-19 3.52981E-19
 -1       543 9.60052E-05-2.85064E-05-2.89269E-05-1.30528E-06-3.39850E-20 4.40513E-19
 -1       544 9.63341E-05-2.85235E-05-2.90602E-05-1.70220E-06-1.31721E-18 6.49533E-19
 -1       545 9.67510E-05-2.85623E-05-2.92220E-05-2.19462E-06-7.66529E-19-4.42598E-19
 -1       546 9.72754E-05-2.86360E-05-2.94149E-05-2.78302E-06-4.63655E-19-7.34662E-19
 -1       547 9.79290E-05-2.87648E-05-2.96396E-05-3.45654E-06-4.49898E-19-9.52775E-19
 -1       548 9.87363E-05-2.89798E-05-2.98935E-05-4.18510E-06 6.27169E-19-3.29916E-19
 -1       549 9.97258E-05-2.93269E-05-3.01694E-05-4.90806E-06 6.59953E-20 9.03016E-19
 -1       550 1.00932E-04-2.98715E-05-3.04541E-05-5.51936E-06 3.14632E-19 1.73225E-18
 -1       551 1.02396E-04-3.06984E-05-3.07292E-05-5.85024E-06 7.96212E-19 2.56213E-18
 -1       552 1.04159E-04-3.18998E-05-3.09729E-05-5.65458E-06 5.18350E-19 1.25106E-18
 -1       553 1.06239E-04-3.35320E-05-3.11685E-05-4.60997E-06 1.30458E-19 2.12987E-18
 -1       554 1.08569E-04-3.55213E-05-3.13181E-05-2.36022E-06-5.00146E-19 2.91836E-18
 -1       555 1.10870E-04-3.74925E-05-3.14620E-05 1.35187E-06 1.39391E-18 2.05550E-18
 -1       556 1.12506E-04-3.86037E-05-3.16881E-05 6.36418E-06 1.20652E-18 1.91395E-18
 -1       557 1.12578E-04-3.77145E-05-3.20897E-05 1.16214E-05 7.59484E-19 2.99600E-18
 -1       558 1.10210E-04-3.38363E-05-3.27431E-05 1.51029E-05-6.95218E-19 2.38464E-18
 -1       559 1.06029E-04-2.79805E-05-3.34653E-05 1.40684E-05-1.29367E-18 1.75531E-18
 -1       560 1.02279E-04-2.31941E-05-3.39144E-05 7.78523E-06-2.25877E-18 2.27922E-18
 -1       561 1.01568E-04-2.28974E-05-3.37330E-05-1.00914E-06-9.23680E-19 2.73155E-18
 -1       562 1.04043E-04-2.72280E-05-3.29263E-05-7.42509E-06 1.05664E-19-4.50800E-19
 -1       563 1.07059E-04-3.27083E-05-3.18713E-05-8.72267E-06 1.46067E-18-1.04829E-18
 -1       564 1.08230E-04-3.60735E-05-3.09419E-05-5.64763E-06 6.13309E-19-9.60736E-20
 -1       565 1.06939E-04-3.62548E-05-3.03155E-05-8.77195E-07-6.87630E-19 2.60506E-19
 -1       566 1.03994E-04-3.40822E-05-2.99756E-05 3.03218E-06-4.42300E-19 1.13728E-18
 -1       567 1.00454E-04-3.09157E-05-2.98033E-05 4.95079E-06-1.56499E-18 3.57302E-18
 -1       568 9.68709E-05-2.67040E-05-3.00672E-05 2.04737E-05 1.42049E-18-1.31317E-18
 -1       569 8.96187E-05-2.07157E-05-2.95215E-05 2.09294E-05 6.93651E-19 1.35929E-18
 -1       570 1.01827E-04-3.13407E-05-3.01956E-05 1.07368E-05-2.45205E-18 9.78977E-19
 -1       571 1.00910E-04-3.02166E-05-3.02894E-05 1.61728E-05-2.02030E-18-4.25419E-19
 -1       572 8.13646E-05-1.39736E-05-2.88574E-05 1.51389E-05-7.36704E-19 5.20902E-19
 -1       573 7.64651E-05-9.99621E-06-2.84726E-05 3.66650E-06-9.92671E-19 1.86600E-18
 -1       574 7.80406E-05-1.12588E-05-2.86191E-05-9.34206E-06-1.30518E-18-2.00348E-18
 -1       575 8.47986E-05-1.67430E-05-2.91606E-05-1.84385E-05 8.33851E-19-4.24864E-18
 -1       576 9.29591E-05-2.34031E-05-2.98078E-05-2.13636E-05 3.28094E-18-1.66691E-18
 -1       577 9.89297E-05-2.83985E-05-3.02113E-05-1.89829E-05 1.47220E-18 2.36648E-18
 -1       578 1.01358E-04-3.06298E-05-3.03277E-05-1.39144E-05 5.19327E-19-1.28011E-18
 -1       579 3.38994E-05-1.78618E-05-6.21258E-06 1.99544E-05-2.28103E-18 1.51788E-18
 -1       580 5.99209E-05-3.33799E-05-1.08194E-05 4.20921E-05-2.09672E-18 2.24538E-18
 -1       581 3.30206E-05-1.93368E-05-5.20093E-06-2.15735E-05-1.34535E-18 2.59224E-18
 -1       582 9.45234E-05-2.72952E-05-2.88037E-05 9.83630E-07 1.24437E-18 8.46677E-20
 -1       583 9.96941E-05-5.44730E-05-1.89944E-05 4.55038E-05-4.62030E-18 2.48864E-18
 -1       584 9.45968E-05-2.07035E-05-3.16875E-05-9.56734E-06-2.70738E-18-1.13255E-18
 -1       585 1.48590E-04-5.84875E-05-3.88626E-05 9.54137E-06-2.44380E-18 9.34383E-19
 -1       586 6.20972E-05-3.88526E-05-9.46277E-06 4.03205E-05 1.85749E-18-1.25414E-18
 -1       587 8.91557E-05-1.28795E-05-3.27079E-05-1.93689E-06-1.39146E-19-3.21184E-18
 -1       588 1.46063E-04-4.42785E-05-4.40458E-05 1.09652E-05 1.12727E-18 4.54910E-18
 -1       589 1.36288E-04-8.38119E-06-5.54964E-05 6.48832E-06 1.33323E-18 2.46574E-18
 -1       590 1.46993E-04-5.14795E-05-4.12672E-05-6.44952E-06-1.73610E-18 2.46529E-18
 -1       591 1.41643E-04-2.00942E-05-5.26261E-05 1.47299E-05 3.99461E-18 5.67798E-18
 -1       592 1.40142E-04-6.21057E-05-3.35818E-05-9.55574E-06-2.47625E-20 4.77997E-18
 -1       593 1.14347E-04-6.17201E-05-2.24341E-05-3.40159E-05-1.52969E-18 2.52485E-18
 -1       594 7.64918E-05-4.68366E-05-1.23512E-05-4.31324E-05-7.16802E-19-2.53422E-18
 -1       595 4.36380E-05-2.85743E-05-5.88550E-06-3.44743E-05 7.58412E-19-2.34803E-18
 -1       596 2.35672E-05-1.59220E-05-2.62292E-06-7.51411E-06-5.41294E-19-1.96692E-18
 -1       597 3.03495E-05-2.09260E-05-3.44256E-06 2.19644E-05 4.94985E-20-1.08378E-18
 -1       598 9.27971E-05-5.44115E-05-1.62015E-05 4.03255E-05 1.67808E-18 1.40296E-18
 -1       599 1.28726E-04-6.45351E-05-2.74644E-05 2.28482E-05 1.20247E-18 3.50304E-18
 -1       600 1.44032E-04-2.88265E-05-4.98972E-05-1.67556E-05-2.48234E-19-2.19832E-18
 -1       601 1.37014E-04-1.33450E-05-5.36566E-05-1.31050E-05-1.83107E-18-2.65148E-18
 -1       602 1.33615E-04-1.03329E-05-5.35042E-05 2.19434E-06-2.40547E-18-7.12778E-19
 -1       603 1.43682E-04-2.72807E-05-5.04220E-05 9.32062E-06-7.20454E-19-2.60754E-18
 -1       604 1.50307E-04-5.26410E-05-4.21376E-05-2.05473E-06 9.64771E-19-2.90797E-18
 -1       605 1.38993E-04-6.57440E-05-3.15242E-05-2.40584E-05 3.57395E-19-4.23321E-18
 -1       606 1.01538E-04-5.69137E-05-1.87730E-05-4.58169E-05 3.02904E-18 2.01329E-19
 -1       607 5.75063E-05-3.48483E-05-9.19027E-06-4.28780E-05 7.90599E-19 1.48961E-18
 -1       608 9.61626E-05-2.31911E-05-3.12770E-05 9.58154E-06 3.02086E-18 9.66963E-19
 -1       609 1.30157E-04-6.59294E-05-2.74689E-05 3.20663E-05-4.27588E-18 2.82811E-18
 -1       610 9.13571E-05-1.58606E-05-3.23780E-05-7.78788E-06-1.87539E-18-2.82554E-18
 -1       611 1.24009E-04-6.30545E-05-2.60132E-05-3.26233E-05 1.11747E-18-3.54499E-18
 -1       612 1.36092E-04-2.48443E-05-4.81748E-05-1.10770E-05 2.36486E-18-1.79222E-18
 -1       613 1.39333E-04-6.09263E-05-3.36823E-05 2.29330E-06-2.01993E-19 1.18280E-18
 -1       614 1.02340E-04-3.18227E-05-3.02232E-05-9.26583E-06-7.02186E-19 4.73386E-19
 -1       615 9.15522E-05-1.68505E-05-3.20205E-05 2.44170E-06 9.70164E-19-2.62272E-18
 -1       616 9.12936E-05-1.64490E-05-3.20817E-05 8.39637E-07 4.31809E-19-2.96558E-18
 -1       617 9.29052E-05-1.90090E-05-3.16747E-05 5.28063E-06 1.99850E-18-1.99148E-18
 -1       618 9.39717E-05-2.09012E-05-3.13209E-05 6.16601E-06 2.28232E-18-1.37837E-18
 -1       619 9.52721E-05-2.40931E-05-3.04965E-05 5.15462E-06 2.15799E-18-6.94473E-19
 -1       620 9.53500E-05-2.59501E-05-2.97400E-05 2.60896E-06 1.75017E-18-7.29433E-19
 -1       621 8.58468E-05-4.33779E-05-1.77731E-05-4.29260E-05 2.19098E-18-5.51471E-19
 -1       622 5.76715E-05-2.33832E-05-1.41105E-05-3.11246E-05 2.38203E-18 1.00495E-18
 -1       623 9.54464E-05-2.57395E-05-2.98690E-05-2.43508E-06-1.39952E-18-1.28534E-18
 -1       624 9.54738E-05-2.69463E-05-2.93683E-05-8.66339E-07-1.25639E-18-1.26407E-18
 -1       625 9.54194E-05-2.77074E-05-2.90191E-05 1.33081E-07-8.65110E-19-1.30417E-18
 -1       626 9.53432E-05-2.81796E-05-2.87844E-05 7.19648E-07-9.16574E-19-1.64801E-18
 -1       627 9.52786E-05-2.84703E-05-2.86322E-05 1.02060E-06-8.59845E-19-1.61126E-18
 -1       628 9.52334E-05-2.86433E-05-2.85387E-05 1.13253E-06-7.42688E-19-7.50063E-19
 -1       629 9.52060E-05-2.87380E-05-2.84864E-05 1.12605E-06-5.42398E-19-1.52338E-19
 -1       630 9.51924E-05-2.87800E-05-2.84626E-05 1.05169E-06-6.03663E-19-5.27114E-19
 -1       631 9.51887E-05-2.87864E-05-2.84582E-05 9.45172E-07-4.86295E-19-7.97992E-19
 -1       632 9.51916E-05-2.87684E-05-2.84672E-05 8.31613E-07-2.29703E-19-4.28405E-19
 -1       633 9.51991E-05-2.87332E-05-2.84854E-05 7.28772E-07-4.38488E-19-5.14375E-19
 -1       634 9.52097E-05-2.86852E-05-2.85105E-05 6.49588E-07-4.04609E-19-4.50455E-19
 -1       635 9.52228E-05-2.86264E-05-2.85413E-05 6.04145E-07-6.38189E-19-3.92583E-19
 -1       636 9.52382E-05-2.85570E-05-2.85777E-05 6.01174E-07-7.27218E-19-3.18399E-19
 -1       637 9.52559E-05-2.84759E-05-2.86200E-05 6.49171E-07-3.21865E-19-4.82975E-20
 -1       638 9.52765E-05-2.83812E-05-2.86693E-05 7.57209E-07-4.43393E-19-9.02326E-20
 -1       639 9.53002E-05-2.82702E-05-2.87270E-05 9.35463E-07-3.14547E-19-3.49969E-19
 -1       640 9.53278E-05-2.81403E-05-2.87945E-05 1.19542E-06-7.01913E-20-7.06935E-19
 -1       641 9.53597E-05-2.79892E-05-2.88729E-05 1.54972E-06 2.00672E-19-1.67254E-18
 -1       642 9.53971E-05-2.78164E-05-2.89628E-05 2.01162E-06 1.14196E-19-1.26035E-18
 -1       643 9.54415E-05-2.76247E-05-2.90640E-05 2.59377E-06-2.25568E-19-7.60747E-19
 -1       644 9.54969E-05-2.74230E-05-2.91741E-05 3.30633E-06-1.72772E-19-3.72858E-19
 -1       645 9.55719E-05-2.72308E-05-2.92885E-05 4.15401E-06 7.13180E-19-2.58497E-19
 -1       646 9.56852E-05-2.70858E-05-2.93991E-05 5.13194E-06-4.95296E-19 7.98376E-20
 -1       647 9.58747E-05-2.70543E-05-2.94938E-05 6.21969E-06-7.59127E-20 5.30756E-19
 -1       648 9.62135E-05-2.72475E-05-2.95562E-05 7.37302E-06 6.80707E-19-1.59304E-19
 -1       649 9.68340E-05-2.78403E-05-2.95683E-05 8.51154E-06 4.31037E-20-5.42032E-19
 -1       650 9.79596E-05-2.90886E-05-2.95162E-05 9.49826E-06-4.07846E-19-3.34121E-20
 -1       651 9.99365E-05-3.13265E-05-2.94052E-05 1.01020E-05-1.14302E-18 1.43979E-18
 -1       652 1.03229E-04-3.48956E-05-2.92877E-05 9.93024E-06-2.18269E-18 9.52357E-19
 -1       653 1.08329E-04-3.99347E-05-2.93137E-05 8.32288E-06-5.06147E-19 2.20818E-18
 -1       654 1.15287E-04-4.57389E-05-2.98117E-05 4.21088E-06 4.30590E-19 4.75377E-19
 -1       655 1.23057E-04-4.99433E-05-3.13748E-05-3.50884E-06 3.93738E-20-1.26124E-18
 -1       656 1.28055E-04-4.81127E-05-3.44071E-05-1.37373E-05-2.46844E-19-7.56925E-19
 -1       657 1.26256E-04-3.57307E-05-3.90385E-05-2.02085E-05 1.96588E-18-1.68462E-18
 -1       658 1.17563E-04-1.36185E-05-4.49772E-05-7.32900E-07-1.48443E-18-2.57549E-18
 -1       659 1.21720E-04-2.42502E-05-4.21889E-05 1.13129E-05 5.56395E-20-3.95431E-18
 -1       660 1.28405E-04-4.13497E-05-3.74619E-05 1.14256E-05 3.58626E-19-1.39076E-18
 -1       661 1.25479E-04-4.83490E-05-3.31820E-05 1.82506E-06 1.12997E-18-1.59837E-20
 -1       662 1.19501E-04-4.75411E-05-3.08338E-05-7.02376E-06-4.69786E-19 4.81783E-19
 -1       663 1.11039E-04-4.09666E-05-3.00548E-05-1.25175E-05 2.23560E-19-1.38311E-18
 -1       664 9.49832E-05-2.81160E-05-2.86571E-05-7.34515E-07 9.19659E-19-8.65056E-19
 -1       665 9.50945E-05-2.77099E-05-2.88782E-05-1.26690E-07 1.07923E-18-8.74415E-19
 -1       666 9.49002E-05-2.85275E-05-2.84456E-05-1.15593E-06 5.75508E-19-2.83940E-19
 -1       667 9.49085E-05-2.86206E-05-2.84092E-05-1.14734E-06 9.25427E-19-4.48328E-19
 -1       668 9.49350E-05-2.86702E-05-2.83994E-05-1.06924E-06 8.26060E-19-7.21022E-19
 -1       669 9.49716E-05-2.86896E-05-2.84068E-05-9.57865E-07 4.03445E-19-7.77375E-19
 -1       670 9.50128E-05-2.86879E-05-2.84251E-05-8.38442E-07 4.10155E-19-4.10250E-19
 -1       671 9.50556E-05-2.86711E-05-2.84506E-05-7.28612E-07 3.39147E-19-3.41868E-20
 -1       672 9.50986E-05-2.86430E-05-2.84811E-05-6.41040E-07 4.59284E-19-7.45381E-21
 -1       673 9.51421E-05-2.86059E-05-2.85156E-05-5.85389E-07 6.68117E-19 1.54310E-19
 -1       674 9.51872E-05-2.85605E-05-2.85543E-05-5.69829E-07 3.29031E-21 3.52965E-19
 -1       675 9.52361E-05-2.85069E-05-2.85982E-05-6.02151E-07-2.18567E-19 1.26970E-18
 -1       676 9.52915E-05-2.84445E-05-2.86486E-05-6.90551E-07-1.20277E-19 1.28971E-18
 -1       677 9.53571E-05-2.83725E-05-2.87075E-05-8.44099E-07 2.59258E-19-3.00145E-19
 -1       678 9.54372E-05-2.82905E-05-2.87769E-05-1.07288E-06 7.57130E-19 1.34597E-19
 -1       679 9.55369E-05-2.81991E-05-2.88587E-05-1.38772E-06 4.61013E-19 5.00413E-20
 -1       680 9.56627E-05-2.81006E-05-2.89547E-05-1.79942E-06 2.45443E-19 4.19079E-19
 -1       681 9.58228E-05-2.80013E-05-2.90658E-05-2.31724E-06-6.25124E-19-4.95232E-19
 -1       682 9.60283E-05-2.79132E-05-2.91915E-05-2.94646E-06-3.58545E-19-7.91534E-19
 -1       683 9.62954E-05-2.78579E-05-2.93296E-05-3.68463E-06-3.60309E-19-1.16175E-18
 -1       684 9.66492E-05-2.78725E-05-2.94749E-05-4.51605E-06-1.86050E-19-1.45950E-18
 -1       685 9.71299E-05-2.80162E-05-2.96193E-05-5.40393E-06-4.27660E-19-8.09835E-19
 -1       686 9.78019E-05-2.83804E-05-2.97515E-05-6.27954E-06 2.06495E-19-7.92796E-19
 -1       687 9.87667E-05-2.90963E-05-2.98587E-05-7.02754E-06 3.08532E-19-1.04250E-18
 -1       688 1.00173E-04-3.03349E-05-2.99315E-05-7.46675E-06 7.94473E-19-4.56249E-19
 -1       689 1.02217E-04-3.22817E-05-2.99741E-05-7.32601E-06-4.52034E-19-1.78657E-19
 -1       690 1.05092E-04-3.50488E-05-3.00218E-05-6.22582E-06-7.40809E-19-7.91654E-19
 -1       691 1.08887E-04-3.85100E-05-3.01668E-05-3.69039E-06-3.61020E-19 9.67306E-19
 -1       692 1.13302E-04-4.19290E-05-3.05938E-05 7.98831E-07 2.02397E-18 2.05065E-18
 -1       693 1.17230E-04-4.35199E-05-3.15896E-05 7.40457E-06 1.31403E-19 1.72357E-18
 -1       694 1.18358E-04-4.09292E-05-3.32749E-05 1.43784E-05 1.34025E-19 1.99654E-18
 -1       695 1.15739E-04-3.31940E-05-3.54284E-05 1.78993E-05 4.47142E-19 1.96095E-18
 -1       696 1.10087E-04-2.27688E-05-3.75969E-05 1.44609E-05-2.10588E-18 3.23697E-19
 -1       697 1.06571E-04-1.76466E-05-3.84177E-05 3.79811E-06-1.60067E-18-1.23751E-18
 -1       698 1.08955E-04-2.18589E-05-3.75541E-05-6.99157E-06 5.65484E-19-1.25866E-18
 -1       699 1.14797E-04-3.22585E-05-3.54690E-05-1.09996E-05 2.73466E-18-1.97417E-18
 -1       700 1.17265E-04-4.01694E-05-3.30619E-05-7.35664E-06 1.24874E-18-3.76786E-18
 -1       701 1.14811E-04-4.19524E-05-3.12666E-05-4.83844E-07-1.26293E-18-2.60213E-18
 -1       702 1.10000E-04-3.91884E-05-3.03427E-05 5.17316E-06-1.58572E-18-6.25293E-19
 -1       703 1.06157E-04-3.58802E-05-3.01087E-05 8.93593E-06-3.03014E-18 2.75925E-19
 -1       704 7.17159E-05-1.41398E-05-2.45587E-05 1.37298E-05 4.23321E-19 1.01434E-18
 -1       705 1.05878E-04-3.57138E-05-3.00624E-05-1.39675E-05 1.77391E-18-1.37763E-18
 -1       706 9.70569E-05-3.23163E-05-2.77248E-05 2.62226E-05-3.69593E-19 2.20157E-19
 -1       707 6.84625E-05-1.20024E-05-2.40906E-05-3.98303E-06-1.25209E-18-4.77680E-20
 -1       708 8.37208E-05-2.34138E-05-2.58041E-05 2.50584E-05 2.14207E-19 1.83702E-18
 -1       709 7.61160E-05-1.75584E-05-2.49925E-05-1.93704E-05-2.51551E-19-1.35992E-18
 -1       710 8.97122E-05-2.69547E-05-2.68469E-05-2.59645E-05 1.80910E-18-1.79833E-18
 -1       711 1.00917E-04-3.40699E-05-2.86210E-05-2.39525E-05 1.51406E-18-3.38006E-19
 -1       712 1.37977E-04-6.18278E-05-3.27627E-05 1.28307E-05-2.09238E-18 1.19137E-18
 -1       713 5.71084E-05-2.19832E-05-1.45454E-05 2.88488E-05-1.32657E-18 7.22228E-19
 -1       714 1.39235E-04-4.17945E-05-4.20555E-05 1.00302E-05 1.04770E-18-1.58342E-18
 -1       715 1.31441E-04-3.09422E-05-4.34914E-05 1.93574E-05 1.68657E-18 2.76239E-18
 -1       716 9.46074E-05-2.22000E-05-3.10295E-05-6.03254E-06-2.01503E-18-1.71887E-18
 -1       717 1.13233E-04-5.85747E-05-2.32875E-05 2.80481E-05 5.87523E-19 1.97381E-18
 -1       718 5.40396E-05-2.61032E-05-1.14944E-05 3.01469E-05 9.71176E-20-1.35917E-18
 -1       719 3.54984E-05-1.39950E-05-8.64120E-06 7.67147E-06 9.73426E-21-1.46103E-18
 -1       720 9.52386E-05-2.70477E-05-2.92227E-05 9.25773E-07 1.39945E-18-7.58074E-19
 -1       721 9.49211E-05-2.83701E-05-2.85218E-05-1.04300E-06 6.45588E-19-3.06527E-19
 -1       722 9.20782E-05-1.76774E-05-3.18917E-05 3.94502E-06 1.66005E-18-2.27910E-18
 -1       723 1.40508E-04-5.15554E-05-3.84698E-05-2.69288E-06-1.78135E-18 1.74409E-19
 -1       724 1.21519E-04-1.18316E-05-4.75855E-05-7.14727E-06-1.93716E-18-6.74549E-19
 -1       725 9.20427E-05-1.76330E-05-3.18964E-05-3.88971E-06-1.00378E-18-2.78063E-18
 -1       726 1.24031E-04-1.16936E-05-4.87591E-05-2.83142E-06 8.52274E-19-3.30406E-18
 -1       727 1.24102E-04-1.41745E-05-4.76450E-05 1.35927E-05 1.75685E-18-1.58700E-18
 -1       728 1.36620E-04-4.05013E-05-4.16201E-05-1.76328E-05 1.39337E-19-5.29925E-20
 -1       729 1.26277E-04-6.19778E-05-2.75544E-05-1.75643E-05 4.97645E-19 2.61537E-18
 -1       730 1.00892E-04-5.36481E-05-2.00091E-05-3.49898E-05-1.19437E-18 1.16243E-18
 -1       731 7.01060E-05-3.57965E-05-1.42939E-05-3.63363E-05-4.01758E-19-8.67732E-19
 -1       732 4.46873E-05-1.80636E-05-1.08615E-05-2.08070E-05 1.00769E-18-2.98674E-18
 -1       733 8.52278E-05-4.53108E-05-1.67257E-05 3.69520E-05 1.23516E-18 9.23425E-19
 -1       734 1.37843E-04-5.37014E-05-3.62709E-05 8.17664E-06 1.32178E-18 3.37572E-18
 -1       735 1.22481E-04-6.02167E-05-2.65745E-05 3.06054E-05-3.55306E-18 5.34606E-18
 -1       736 1.26700E-04-2.21041E-05-4.53113E-05-1.88735E-05-4.99273E-19-1.44104E-18
 -1       737 4.23462E-05-1.28476E-05-1.21060E-05-2.20869E-06-7.49948E-19 9.53918E-19
 -1       738 1.40046E-04-5.87201E-05-3.51036E-05-5.96714E-06 1.35691E-18-2.33958E-18
 -1       739 8.44437E-05-3.88566E-05-1.91151E-05 4.04502E-05-1.36759E-18 1.59369E-18
 -1       740 9.28226E-05-1.89040E-05-3.16895E-05-5.22345E-06-1.46078E-18-2.66371E-18
 -1       741 9.12864E-05-1.64412E-05-3.20823E-05-7.85507E-07 9.63869E-20-2.87077E-18
 -1       742 1.07241E-04-5.22561E-05-2.32993E-05-3.72803E-05 2.79175E-18-1.42159E-18
 -1       743 1.05299E-04-3.70835E-05-2.92171E-05 2.07392E-05-1.85437E-18 1.25968E-18
 -1       744 1.07568E-04-4.98238E-05-2.46552E-05 3.41925E-05-2.84487E-18 4.41709E-18
 -1       745 1.33198E-04-6.17624E-05-3.06547E-05-1.60039E-05 1.21945E-18-2.42633E-18
 -1       746 1.07143E-04-3.73256E-05-2.99176E-05 1.45213E-05-3.21713E-18 1.12293E-18
 -1       747 1.07598E-04-3.90429E-05-2.93655E-05-1.93020E-05 5.86272E-19 7.55699E-19
 -1       748 1.31124E-04-2.33446E-05-4.67907E-05 1.09945E-05-1.08373E-18-1.56203E-18
 -1       749 9.15331E-05-1.68260E-05-3.20231E-05-2.37654E-06-3.82936E-19-2.47894E-18
 -1       750 1.28760E-04-6.16353E-05-2.87035E-05 1.19336E-05 8.26777E-19 1.95304E-18
 -1       751 1.33285E-04-3.93763E-05-4.05087E-05-1.08868E-05 3.67003E-19-4.95009E-18
 -1       752 9.50807E-05-2.38997E-05-3.05075E-05 3.76900E-06 1.82364E-18-1.17056E-18
 -1       753 1.28654E-04-5.59000E-05-3.11745E-05-6.74287E-07 1.45534E-18 3.64790E-18
 -1       754 1.32453E-04-5.31662E-05-3.40603E-05 4.08383E-07-8.40429E-19 5.62423E-19
 -1       755 1.01652E-04-4.95131E-05-2.22015E-05 2.79728E-05-7.59385E-19 1.38911E-18
 -1       756 9.58687E-05-2.68874E-05-2.95634E-05-5.84268E-07-1.05560E-18-1.51007E-18
 -1       757 9.59614E-05-2.77764E-05-2.92222E-05 2.16429E-07-1.03040E-18-1.43798E-18
 -1       758 9.59505E-05-2.83377E-05-2.89770E-05 6.93360E-07-8.48394E-19-1.23891E-18
 -1       759 9.58905E-05-2.86782E-05-2.88053E-05 9.38113E-07-4.28389E-19-1.29907E-18
 -1       760 9.58104E-05-2.88693E-05-2.86891E-05 1.02590E-06-1.53422E-19-1.17041E-18
 -1       761 9.57258E-05-2.89594E-05-2.86142E-05 1.01472E-06-6.31428E-19-3.95637E-19
 -1       762 9.56443E-05-2.89816E-05-2.85698E-05 9.47569E-07-6.88487E-19 2.05027E-20
 -1       763 9.55697E-05-2.89581E-05-2.85478E-05 8.55674E-07-1.34030E-19-8.82269E-20
 -1       764 9.55027E-05-2.89038E-05-2.85424E-05 7.61460E-07-3.83959E-19-8.72514E-19
 -1       765 9.54429E-05-2.88276E-05-2.85494E-05 6.81161E-07-6.40108E-19-9.03840E-19
 -1       766 9.53884E-05-2.87343E-05-2.85661E-05 6.27010E-07-4.15954E-19-4.88498E-19
 -1       767 9.53365E-05-2.86250E-05-2.85907E-05 6.08936E-07-3.15094E-19 5.94324E-20
 -1       768 9.52838E-05-2.84986E-05-2.86223E-05 6.35850E-07-3.98251E-19 4.90245E-19
 -1       769 9.52262E-05-2.83518E-05-2.86605E-05 7.16603E-07-8.53508E-19-4.07329E-19
 -1       770 9.51588E-05-2.81801E-05-2.87051E-05 8.60653E-07-2.56556E-19-8.56288E-19
 -1       771 9.50756E-05-2.79781E-05-2.87560E-05 1.07843E-06-4.01151E-19-5.74532E-19
 -1       772 9.49701E-05-2.77405E-05-2.88126E-05 1.38138E-06-1.76940E-19-2.49457E-19
 -1       773 9.48349E-05-2.74630E-05-2.88736E-05 1.78176E-06 2.17205E-19-5.35633E-19
 -1       774 9.46624E-05-2.71440E-05-2.89364E-05 2.29198E-06 4.77445E-19-1.52206E-19
 -1       775 9.44459E-05-2.67874E-05-2.89964E-05 2.92373E-06 1.63982E-19 2.24668E-19
 -1       776 9.41820E-05-2.64061E-05-2.90467E-05 3.68676E-06 6.96051E-20-2.53096E-19
 -1       777 9.38745E-05-2.60292E-05-2.90764E-05 4.58767E-06 8.48007E-19-4.07743E-19
 -1       778 9.35430E-05-2.57109E-05-2.90707E-05 5.62891E-06-2.57123E-19 3.45243E-19
 -1       779 9.32360E-05-2.55449E-05-2.90102E-05 6.80858E-06-3.15186E-19-1.29604E-20
 -1       780 9.30533E-05-2.56844E-05-2.88720E-05 8.12054E-06-6.79487E-19-1.46583E-19
 -1       781 9.31808E-05-2.63675E-05-2.86338E-05 9.55284E-06-2.14431E-19-2.87672E-19
 -1       782 9.39421E-05-2.79449E-05-2.82838E-05 1.10751E-05 2.73282E-19-9.10141E-20
 -1       783 9.58687E-05-3.08972E-05-2.78427E-05 1.25892E-05-1.97913E-18-9.63864E-20
 -1       784 9.97318E-05-3.57544E-05-2.74097E-05 1.37686E-05-4.62725E-19 8.93189E-19
 -1       785 1.06538E-04-4.29175E-05-2.72592E-05 1.38911E-05-1.04164E-18 1.28667E-18
 -1       786 1.17302E-04-5.18458E-05-2.79946E-05 1.13876E-05-9.22703E-19 1.28524E-18
 -1       787 1.17646E-04-5.02499E-05-2.87945E-05-2.03340E-05 2.12486E-19-5.47991E-19
 -1       788 4.75789E-05-1.37494E-05-1.41613E-05-4.24853E-06 1.18310E-18-3.59094E-18
 -1       789 9.55058E-05-2.88643E-05-2.85607E-05-1.07329E-06 1.04944E-18-1.41088E-19
 -1       790 9.55661E-05-2.87724E-05-2.86259E-05-1.08366E-06 8.16218E-19-4.17880E-20
 -1       791 9.54091E-05-2.88848E-05-2.85104E-05-9.02265E-07 1.48896E-19 4.45542E-20
 -1       792 9.53723E-05-2.88467E-05-2.85110E-05-7.98585E-07 1.45496E-19-3.86101E-19
 -1       793 9.53417E-05-2.87890E-05-2.85226E-05-7.07730E-07 3.19211E-19 6.86783E-20
 -1       794 9.53160E-05-2.87164E-05-2.85427E-05-6.42296E-07 3.48417E-19-1.65017E-19
 -1       795 9.52935E-05-2.86306E-05-2.85698E-05-6.12304E-07-1.40804E-19 6.46876E-19
 -1       796 9.52724E-05-2.85313E-05-2.86033E-05-6.26580E-07-1.53833E-19 4.23199E-19
 -1       797 9.52507E-05-2.84167E-05-2.86431E-05-6.93750E-07-2.60012E-19 2.97564E-20
 -1       798 9.52263E-05-2.82839E-05-2.86895E-05-8.22929E-07 6.07954E-19 1.26856E-19
 -1       799 9.51971E-05-2.81300E-05-2.87430E-05-1.02407E-06-4.19595E-20 1.12753E-18
 -1       800 9.51609E-05-2.79522E-05-2.88036E-05-1.30801E-06-1.56154E-19 1.61247E-18
 -1       801 9.51161E-05-2.77496E-05-2.88712E-05-1.68606E-06-8.09366E-20 1.81387E-18
 -1       802 9.50622E-05-2.75250E-05-2.89444E-05-2.16921E-06 3.12745E-19 1.24817E-18
 -1       803 9.50016E-05-2.72867E-05-2.90205E-05-2.76671E-06 1.43225E-20 5.28152E-19
 -1       804 9.49417E-05-2.70532E-05-2.90949E-05-3.48408E-06 3.45828E-19 1.41133E-19
 -1       805 9.48998E-05-2.68590E-05-2.91601E-05-4.32027E-06-2.41075E-20-9.67025E-19
 -1       806 9.49101E-05-2.67621E-05-2.92060E-05-5.26407E-06-1.16247E-19-1.57918E-18
 -1       807 9.50361E-05-2.68559E-05-2.92198E-05-6.28919E-06-7.60382E-19-1.20664E-18
 -1       808 9.53873E-05-2.72821E-05-2.91876E-05-7.34695E-06 6.31367E-19-7.84896E-19
 -1       809 9.61424E-05-2.82434E-05-2.90993E-05-8.35387E-06 2.13783E-19-1.03581E-18
 -1       810 9.75729E-05-3.00050E-05-2.89575E-05-9.16878E-06 3.25182E-19 5.59829E-20
 -1       811 1.00062E-04-3.28685E-05-2.87965E-05-9.54105E-06-6.12469E-20 4.60163E-19
 -1       812 1.04029E-04-3.70172E-05-2.87150E-05-9.00373E-06-1.59336E-18-6.31689E-20
 -1       813 1.09808E-04-4.22920E-05-2.89459E-05-6.76566E-06-7.50701E-19 1.09397E-18
 -1       814 1.17490E-04-4.77791E-05-2.98866E-05-1.96148E-06 1.45316E-18 2.96382E-18
 -1       815 1.24012E-04-5.24764E-05-3.06444E-05 1.09462E-05-1.80999E-18 2.17805E-18
 -1       816 1.13860E-04-4.34363E-05-3.01878E-05 1.06281E-05-2.48557E-18-5.35682E-20
 -1       817 9.39355E-05-3.73414E-05-2.41778E-05 3.25609E-05-9.06373E-19 2.04619E-18
 -1       818 9.32029E-05-1.97778E-05-3.14689E-05 1.23295E-06 5.77222E-19-2.30385E-18
 -1       819 8.08713E-05-2.89583E-05-2.20384E-05-3.16543E-05 2.24405E-18-9.88699E-19
 -1       820 1.02053E-04-4.12132E-05-2.60510E-05-3.03179E-05 1.55807E-18-2.43508E-18
 -1       821 1.27657E-04-5.89888E-05-2.93897E-05 2.01308E-05-3.25071E-18 1.47837E-18
 -1       822 9.54534E-05-2.88951E-05-2.85250E-05-1.00174E-06 5.22611E-19 4.22638E-19
 -1       823 6.44401E-05-2.59832E-05-1.62412E-05-2.67072E-05-8.73403E-19-4.54380E-19
 -1       824 1.21448E-04-1.25759E-05-4.70534E-05 8.13256E-06 7.43536E-20-4.01151E-18
 -1       825 9.57292E-05-2.77502E-05-2.91338E-05-1.94069E-07 8.52900E-19-8.47776E-19
 -1       826 1.39044E-04-5.15382E-05-3.76349E-05-1.11127E-05-1.80156E-18 2.17595E-18
 -1       827 9.56078E-05-2.55499E-05-3.00275E-05-1.82512E-06-1.30177E-18-1.73976E-18
 -1       828 9.47294E-05-2.28835E-05-3.07857E-05-3.51304E-06-1.32053E-18-2.08235E-18
 -1       829 1.11446E-04-5.36053E-05-2.47133E-05-2.24850E-05-9.97520E-19 5.87384E-19
 -1       830 9.02061E-05-4.15032E-05-2.06577E-05-2.97999E-05-1.56272E-18 9.46427E-20
 -1       831 5.08106E-05-1.69958E-05-1.41592E-05 1.57296E-05 6.77841E-19-5.70794E-19
 -1       832 7.67687E-05-3.33473E-05-1.83714E-05 2.94937E-05 5.99137E-19-6.53009E-19
 -1       833 9.30959E-05-1.95841E-05-3.15062E-05 2.17479E-08 1.61235E-19-2.60599E-18
 -1       834 9.56312E-05-2.85897E-05-2.87321E-05-9.86468E-07 3.83434E-19-1.81263E-19
 -1       835 9.42033E-05-2.16803E-05-3.10808E-05-2.88317E-06-9.79707E-19-2.31167E-18
 -1       836 9.35288E-05-2.03690E-05-3.13545E-05 2.37239E-06 1.07133E-18-1.93850E-18
 -1       837 5.86197E-05-1.78216E-05-1.73240E-05-1.48177E-05-6.23377E-19-1.34316E-18
 -1       838 9.40079E-05-2.13197E-05-3.11522E-05 3.31866E-06 1.46228E-18-1.74222E-18
 -1       839 9.56928E-05-2.82718E-05-2.88947E-05-7.18294E-07 3.48984E-19-5.41990E-19
 -1       840 1.15638E-04-5.29701E-05-2.67712E-05-2.75917E-05 2.00037E-18-3.06593E-18
 -1       841 1.28211E-04-4.46684E-05-3.58438E-05 1.49246E-05 4.90538E-19 2.25112E-18
 -1       842 6.50315E-05-1.86265E-05-1.96135E-05-2.19336E-05 8.63180E-19-6.69685E-19
 -1       843 9.56994E-05-2.69161E-05-2.94778E-05 6.96592E-07 1.28218E-18-1.11400E-18
 -1       844 9.55169E-05-2.57011E-05-2.99200E-05 1.96668E-06 1.51980E-18-1.06682E-18
 -1       845 9.37275E-05-2.07617E-05-3.12713E-05-1.95252E-06-5.65306E-19-2.02996E-18
 -1       846 9.63667E-05-2.79278E-05-2.93311E-05 2.88947E-07-7.63859E-19-1.17262E-18
 -1       847 9.63874E-05-2.85187E-05-2.90866E-05 6.33444E-07-6.71170E-19-9.13002E-19
 -1       848 9.63240E-05-2.88716E-05-2.89082E-05 8.05599E-07-3.41721E-19-7.98450E-19
 -1       849 9.62161E-05-2.90587E-05-2.87817E-05 8.60644E-07-1.40450E-19-1.24142E-18
 -1       850 9.60885E-05-2.91322E-05-2.86956E-05 8.42552E-07-4.27592E-19-1.11805E-18
 -1       851 9.59564E-05-2.91286E-05-2.86405E-05 7.84594E-07-4.42213E-19-8.60209E-19
 -1       852 9.58276E-05-2.90733E-05-2.86090E-05 7.11457E-07-6.05400E-19-9.58054E-19
 -1       853 9.57055E-05-2.89822E-05-2.85957E-05 6.41072E-07-3.62001E-19-1.20275E-18
 -1       854 9.55898E-05-2.88649E-05-2.85964E-05 5.86766E-07 1.39328E-20-8.35933E-19
 -1       855 9.54773E-05-2.87252E-05-2.86081E-05 5.58953E-07 3.11503E-20-6.44238E-19
 -1       856 9.53631E-05-2.85632E-05-2.86286E-05 5.66386E-07-2.18687E-19-1.24091E-18
 -1       857 9.52403E-05-2.83757E-05-2.86563E-05 6.17166E-07-1.11423E-18-8.68108E-19
 -1       858 9.51003E-05-2.81573E-05-2.86899E-05 7.19472E-07-6.29703E-19-5.75963E-19
 -1       859 9.49329E-05-2.79010E-05-2.87280E-05 8.82023E-07-3.09518E-19-6.38960E-19
 -1       860 9.47263E-05-2.75991E-05-2.87688E-05 1.11427E-06 3.23147E-19-8.33031E-19
 -1       861 9.44670E-05-2.72443E-05-2.88097E-05 1.42637E-06 1.51034E-19-5.74565E-19
 -1       862 9.41402E-05-2.68310E-05-2.88468E-05 1.82893E-06 6.58665E-19 1.26648E-19
 -1       863 9.37308E-05-2.63579E-05-2.88741E-05 2.33267E-06 2.83022E-19-8.09914E-19
 -1       864 9.32241E-05-2.58306E-05-2.88829E-05 2.94817E-06-3.73799E-19-1.54181E-18
 -1       865 9.26093E-05-2.52667E-05-2.88611E-05 3.68617E-06 3.52893E-19-1.23935E-18
 -1       866 9.18832E-05-2.47026E-05-2.87917E-05 4.55915E-06 5.81034E-19-1.70212E-18
 -1       867 9.10587E-05-2.42027E-05-2.86525E-05 5.58534E-06-7.57394E-19-2.17185E-18
 -1       868 9.01777E-05-2.38743E-05-2.84157E-05 6.79661E-06-1.86013E-19-1.93142E-18
 -1       869 8.93330E-05-2.38868E-05-2.80482E-05 8.25122E-06-2.96627E-19-1.04471E-18
 -1       870 8.87053E-05-2.45014E-05-2.75158E-05 1.00509E-05-8.31136E-20-1.40218E-18
 -1       871 8.86296E-05-2.61131E-05-2.67913E-05 1.23474E-05-1.40006E-18-3.02755E-18
 -1       872 8.96780E-05-2.92985E-05-2.58759E-05 1.53584E-05 9.38122E-19-1.21912E-18
 -1       873 9.32396E-05-3.51797E-05-2.48832E-05 1.92637E-05 1.68045E-19-2.04090E-19
 -1       874 1.09940E-04-4.54269E-05-2.75752E-05 2.62989E-05-2.93098E-18 2.82059E-18
 -1       875 9.61930E-05-2.78659E-05-2.92833E-05-2.74000E-07 5.66263E-19-6.93993E-19
 -1       876 9.56224E-05-2.89506E-05-2.85736E-05-6.99409E-07 1.98866E-19 2.40286E-20
 -1       877 9.57207E-05-2.90254E-05-2.85837E-05-7.80862E-07 7.45351E-19 1.59443E-19
 -1       878 9.54442E-05-2.87330E-05-2.85905E-05-5.94576E-07-3.38637E-19 4.41857E-19
 -1       879 9.53581E-05-2.85954E-05-2.86126E-05-5.91765E-07-2.23640E-19 2.43994E-19
 -1       880 9.52678E-05-2.84369E-05-2.86418E-05-6.33665E-07 1.86441E-19 4.74506E-19
 -1       881 9.51670E-05-2.82537E-05-2.86771E-05-7.28820E-07 4.20707E-22-3.49754E-20
 -1       882 9.50487E-05-2.80407E-05-2.87177E-05-8.86325E-07-5.61407E-19 8.46324E-19
 -1       883 9.49050E-05-2.77927E-05-2.87624E-05-1.11609E-06-1.37405E-19 1.00698E-18
 -1       884 9.47276E-05-2.75057E-05-2.88094E-05-1.42880E-06 5.91917E-19-7.85605E-20
 -1       885 9.45087E-05-2.71780E-05-2.88560E-05-1.83567E-06 3.44835E-19-5.96222E-19
 -1       886 9.42416E-05-2.68135E-05-2.88977E-05-2.34782E-06 3.55218E-19-2.23344E-19
 -1       887 9.39236E-05-2.64242E-05-2.89283E-05-2.97567E-06-9.95777E-20-8.29266E-19
 -1       888 9.35593E-05-2.60362E-05-2.89384E-05-3.72817E-06 1.33050E-19 1.44503E-19
 -1       889 9.31668E-05-2.56961E-05-2.89159E-05-4.61241E-06 2.47348E-19 9.57422E-19
 -1       890 9.27874E-05-2.54813E-05-2.88453E-05-5.63391E-06-4.78630E-19 1.39128E-18
 -1       891 9.25007E-05-2.55135E-05-2.87086E-05-6.79746E-06 4.18511E-20-7.50209E-19
 -1       892 9.24484E-05-2.59753E-05-2.84882E-05-8.10700E-06 9.24838E-19-7.54569E-19
 -1       893 9.28697E-05-2.71305E-05-2.81734E-05-9.55783E-06-4.95453E-19-2.07830E-19
 -1       894 9.41283E-05-2.93229E-05-2.77730E-05-1.11129E-05-3.98134E-19 7.05664E-19
 -1       895 9.68402E-05-3.30444E-05-2.73404E-05-1.26461E-05-7.00984E-19 1.93772E-18
 -1       896 1.01818E-04-3.86589E-05-2.70535E-05-1.37671E-05-1.60553E-18 1.04683E-18
 -1       897 1.05478E-04-4.49462E-05-2.59695E-05-1.73529E-05-1.27826E-18 1.09390E-18
 -1       898 1.13706E-04-4.54443E-05-2.92289E-05 1.81837E-05-3.80512E-18 3.08879E-18
 -1       899 7.94657E-05-3.03307E-05-2.09237E-05-2.39929E-05-9.64837E-19 1.33421E-19
 -1       900 9.39875E-05-3.98868E-05-2.30710E-05 2.41636E-05 7.78609E-20 7.08345E-19
 -1       901 6.80143E-05-2.29702E-05-1.91890E-05 2.02458E-05 6.77600E-19-3.82191E-19
 -1       902 9.58208E-05-2.56242E-05-3.00828E-05-1.18237E-06-8.02819E-19-1.58204E-18
 -1       903 9.55310E-05-2.88517E-05-2.85768E-05-6.33571E-07 1.09943E-19-1.24854E-19
 -1       904 9.60455E-05-2.89783E-05-2.87431E-05-9.43136E-07 6.58906E-19-4.26113E-19
 -1       905 9.33429E-05-2.00285E-05-3.14204E-05-1.03033E-06-1.84469E-19-2.48258E-18
 -1       906 5.64594E-05-1.50821E-05-1.75656E-05 5.94193E-06 7.04109E-19-1.99561E-18
 -1       907 9.61997E-05-2.69983E-05-2.96581E-05-2.90846E-07-7.78837E-19-1.30450E-18
 -1       908 9.51743E-05-2.38627E-05-3.05642E-05 2.04524E-06 1.06692E-18-1.48506E-18
 -1       909 9.61410E-05-2.87897E-05-2.88649E-05-8.75617E-07 3.76593E-19-6.94024E-19
 -1       910 9.50968E-05-2.35646E-05-3.06598E-05-1.55038E-06-6.46920E-19-1.91408E-18
 -1       911 9.40775E-05-3.66822E-05-2.45585E-05-1.96737E-05-1.02691E-18 1.14385E-18
 -1       912 9.62020E-05-2.84427E-05-2.90398E-05-6.73940E-07 2.26982E-19-7.45951E-19
 -1       913 9.46854E-05-2.26059E-05-3.08921E-05 1.22938E-06 6.79111E-19-1.73269E-18
 -1       914 6.03042E-05-1.53683E-05-1.91733E-05-4.40977E-06 1.74153E-19-1.91195E-18
 -1       915 9.60565E-05-2.69497E-05-2.96172E-05 4.04307E-07 8.70961E-19-3.80827E-19
 -1       916 9.59365E-05-2.90589E-05-2.86618E-05-9.26508E-07 4.63818E-19 3.66204E-19
 -1       917 9.58262E-05-2.90667E-05-2.86112E-05-8.63269E-07 5.81239E-19 2.61536E-19
 -1       918 9.45450E-05-2.22772E-05-3.09720E-05 4.27590E-07 3.06018E-19-2.23251E-18
 -1       919 9.47802E-05-2.27909E-05-3.08533E-05-1.06294E-06-5.64584E-19-1.87249E-18
 -1       920 9.59148E-05-2.91083E-05-2.86313E-05-6.15915E-07 7.36871E-19-6.06675E-20
 -1       921 9.66710E-05-2.81458E-05-2.93675E-05 3.11322E-07-4.27018E-19-1.18517E-18
 -1       922 9.66908E-05-2.87168E-05-2.91315E-05 5.25184E-07-3.73029E-19-9.74603E-19
 -1       923 9.66114E-05-2.90490E-05-2.89554E-05 6.26906E-07-1.82979E-19-1.01245E-18
 -1       924 9.64754E-05-2.92098E-05-2.88281E-05 6.51784E-07-1.87425E-19-9.68420E-19
 -1       925 9.63129E-05-2.92543E-05-2.87394E-05 6.29710E-07-1.55100E-19-6.52830E-19
 -1       926 9.61419E-05-2.92193E-05-2.86811E-05 5.84104E-07-5.17955E-19-6.30953E-19
 -1       927 9.59724E-05-2.91304E-05-2.86466E-05 5.32082E-07-4.61247E-19-5.84713E-20
 -1       928 9.58075E-05-2.90031E-05-2.86304E-05 4.86275E-07-4.38672E-20 7.74627E-20
 -1       929 9.56460E-05-2.88458E-05-2.86287E-05 4.56478E-07-2.24572E-19-7.91868E-19
 -1       930 9.54830E-05-2.86609E-05-2.86380E-05 4.50524E-07-4.23866E-19-9.99568E-19
 -1       931 9.53109E-05-2.84468E-05-2.86560E-05 4.75176E-07-4.71753E-19-1.54140E-18
 -1       932 9.51192E-05-2.81982E-05-2.86804E-05 5.36879E-07-2.87336E-19-5.95200E-19
 -1       933 9.48951E-05-2.79076E-05-2.87090E-05 6.42211E-07-4.25414E-19-1.93792E-19
 -1       934 9.46235E-05-2.75658E-05-2.87391E-05 7.98119E-07 8.98295E-20 2.32812E-19
 -1       935 9.42873E-05-2.71636E-05-2.87674E-05 1.01198E-06 2.57023E-19 7.53547E-19
 -1       936 9.38670E-05-2.66924E-05-2.87892E-05 1.29153E-06 1.34727E-19-7.64146E-19
 -1       937 9.33414E-05-2.61466E-05-2.87979E-05 1.64470E-06 2.29096E-20-1.48581E-18
 -1       938 9.26884E-05-2.55256E-05-2.87842E-05 2.07968E-06 2.43111E-20-8.91253E-19
 -1       939 9.18856E-05-2.48371E-05-2.87352E-05 2.60548E-06 3.83223E-19-7.02349E-19
 -1       940 9.09123E-05-2.41010E-05-2.86336E-05 3.23376E-06-4.55387E-19-1.26422E-18
 -1       941 8.97514E-05-2.33550E-05-2.84558E-05 3.98329E-06-2.25899E-19-1.79142E-18
 -1       942 8.83931E-05-2.26609E-05-2.81713E-05 4.88876E-06-4.11750E-21-4.03568E-19
 -1       943 8.68401E-05-2.21139E-05-2.77403E-05 6.01681E-06 5.73800E-19 1.75050E-20
 -1       944 8.51170E-05-2.18557E-05-2.71129E-05 7.49067E-06-6.84011E-19-2.02979E-19
 -1       945 8.32818E-05-2.20933E-05-2.62256E-05 9.53713E-06-7.72553E-19-6.35138E-19
 -1       946 8.15009E-05-2.31999E-05-2.49916E-05 1.25518E-05 7.30027E-19 5.17269E-20
 -1       947 8.02672E-05-2.57077E-05-2.33467E-05 1.69632E-05 1.19636E-18-3.46564E-19
 -1       948 9.53393E-05-2.85022E-05-2.86445E-05-5.23530E-07-3.46420E-20-3.37085E-19
 -1       949 9.54855E-05-2.86924E-05-2.86256E-05-5.04510E-07-7.55909E-20 3.01183E-20
 -1       950 9.49950E-05-2.80272E-05-2.87005E-05-6.91854E-07-5.41361E-19-3.35176E-19
 -1       951 9.47747E-05-2.77296E-05-2.87336E-05-8.57009E-07 5.62774E-20-1.03261E-18
 -1       952 9.45051E-05-2.73826E-05-2.87668E-05-1.08795E-06 3.87452E-19-1.11612E-18
 -1       953 9.41723E-05-2.69811E-05-2.87963E-05-1.39458E-06 7.01733E-19-4.30682E-19
 -1       954 9.37623E-05-2.65235E-05-2.88166E-05-1.78766E-06-1.08840E-19-9.68140E-19
 -1       955 9.32627E-05-2.60151E-05-2.88205E-05-2.27881E-06 3.44301E-19-4.36511E-19
 -1       956 9.26653E-05-2.54713E-05-2.87974E-05-2.88096E-06-2.86337E-19-2.22048E-19
 -1       957 9.19691E-05-2.49236E-05-2.87338E-05-3.60958E-06-6.94957E-19-1.92540E-19
 -1       958 9.11868E-05-2.44258E-05-2.86119E-05-4.48547E-06 1.59502E-19-5.27140E-19
 -1       959 9.03531E-05-2.40641E-05-2.84097E-05-5.54034E-06-5.35782E-20-2.10659E-19
 -1       960 8.95391E-05-2.39693E-05-2.81015E-05-6.82600E-06 2.00095E-19 2.91465E-19
 -1       961 8.88769E-05-2.43371E-05-2.76600E-05-8.42541E-06-6.60823E-19 1.16364E-18
 -1       962 8.85864E-05-2.54492E-05-2.70610E-05-1.04799E-05-3.67265E-19 1.52428E-18
 -1       963 8.92308E-05-2.77923E-05-2.63342E-05-1.31542E-05-1.42958E-18 1.64876E-18
 -1       964 9.05206E-05-3.12012E-05-2.54358E-05-1.61344E-05-1.15305E-18 1.89109E-18
 -1       965 9.58011E-05-2.56696E-05-3.00556E-05 1.17586E-06 9.39708E-19-9.38331E-19
 -1       966 9.51792E-05-2.82824E-05-2.86701E-05-5.83438E-07 2.10640E-19-5.09087E-19
 -1       967 9.60613E-05-2.58971E-05-3.00696E-05-6.28171E-07-5.43268E-19-1.74608E-18
 -1       968 7.12401E-05-2.15340E-05-2.12244E-05-1.57096E-05-1.74847E-18-1.17474E-18
 -1       969 6.73508E-05-1.82830E-05-2.09743E-05 1.06145E-05 8.16035E-19-2.91227E-19
 -1       970 9.64902E-05-2.72461E-05-2.96758E-05-5.80311E-08-5.15016E-19-1.37700E-18
 -1       971 9.57440E-05-2.50341E-05-3.03039E-05 9.37346E-07 6.33993E-19-1.54155E-18
 -1       972 8.20634E-05-2.72299E-05-2.34779E-05-1.74422E-05-8.88025E-19-4.05384E-19
 -1       973 9.57681E-05-2.89968E-05-2.86162E-05-5.59154E-07 1.09222E-19 6.00787E-19
 -1       974 9.65440E-05-2.80585E-05-2.93511E-05-3.17434E-07 4.51579E-19-9.30818E-19
 -1       975 6.68462E-05-1.63713E-05-2.15957E-05 2.94948E-06 9.74243E-19-2.14638E-18
 -1       976 9.63649E-05-2.71369E-05-2.96691E-05 1.46615E-07 8.23393E-19-9.95830E-19
 -1       977 9.60671E-05-2.91829E-05-2.86646E-05-6.78140E-07 6.96119E-19-1.95975E-19
 -1       978 9.55971E-05-2.44724E-05-3.04825E-05 4.90218E-07 3.90899E-19-1.61216E-18
 -1       979 9.46586E-05-2.24991E-05-3.09261E-05-3.06498E-07-1.94502E-19-2.06263E-18
 -1       980 9.59760E-05-2.53950E-05-3.02485E-05-4.63346E-07-3.39649E-19-1.74272E-18
 -1       981 9.63688E-05-2.91472E-05-2.88092E-05-7.52436E-07 2.16419E-19-6.02841E-19
 -1       982 9.56263E-05-2.88571E-05-2.86154E-05-5.18984E-07-2.56063E-19 4.54802E-19
 -1       983 9.64925E-05-2.89753E-05-2.89359E-05-7.16787E-07 2.62883E-19-9.26256E-19
 -1       984 9.56614E-05-2.45450E-05-3.04780E-05 4.55011E-08 1.04116E-19-1.79705E-18
 -1       985 9.68774E-05-2.89195E-05-2.91250E-05 3.62752E-07-2.05917E-19-9.61819E-19
 -1       986 9.67694E-05-2.91997E-05-2.89585E-05 4.08339E-07-1.69233E-19-8.77216E-19
 -1       987 9.66045E-05-2.93165E-05-2.88377E-05 4.12812E-07-2.81459E-19-1.05065E-18
 -1       988 9.64142E-05-2.93230E-05-2.87533E-05 3.92949E-07 8.07061E-20-1.21984E-18
 -1       989 9.62154E-05-2.92536E-05-2.86979E-05 3.63488E-07 2.66122E-19-1.63381E-19
 -1       990 9.60175E-05-2.91322E-05-2.86651E-05 3.32838E-07-3.79964E-19-4.12177E-19
 -1       991 9.58214E-05-2.89712E-05-2.86501E-05 3.09158E-07-2.79764E-19-1.41666E-19
 -1       992 9.56248E-05-2.87775E-05-2.86488E-05 2.98342E-07-3.31409E-19-3.03837E-19
 -1       993 9.54205E-05-2.85518E-05-2.86581E-05 3.05067E-07-4.11821E-19-3.66216E-19
 -1       994 9.51979E-05-2.82899E-05-2.86749E-05 3.33623E-07-5.53095E-20 2.81391E-19
 -1       995 9.49434E-05-2.79850E-05-2.86965E-05 3.88158E-07 2.64008E-19 2.97794E-19
 -1       996 9.46405E-05-2.76275E-05-2.87200E-05 4.72871E-07 1.80111E-19 4.91400E-19
 -1       997 9.42702E-05-2.72071E-05-2.87415E-05 5.92073E-07 1.48096E-19 5.45562E-19
 -1       998 9.38109E-05-2.67136E-05-2.87562E-05 7.50132E-07-6.37373E-19 5.02404E-20
 -1       999 9.32385E-05-2.61385E-05-2.87574E-05 9.51363E-07-6.17477E-19-3.27510E-19
 -1      1000 9.25267E-05-2.54768E-05-2.87360E-05 1.19997E-06 4.97885E-19-6.20851E-19
 -1      1001 9.16475E-05-2.47296E-05-2.86794E-05 1.50026E-06 3.59063E-19 2.95604E-20
 -1      1002 9.05704E-05-2.39061E-05-2.85709E-05 1.85763E-06-8.22369E-19-1.65641E-19
 -1      1003 8.92625E-05-2.30260E-05-2.83877E-05 2.28095E-06-4.93885E-19-1.45527E-19
 -1      1004 8.76850E-05-2.21215E-05-2.80995E-05 2.78789E-06 3.12685E-19-2.93776E-19
 -1      1005 8.57877E-05-2.12374E-05-2.76656E-05 3.41525E-06 1.21202E-18-3.15780E-19
 -1      1006 8.34971E-05-2.04298E-05-2.70308E-05 4.23940E-06-2.72694E-19-7.38189E-19
 -1      1007 8.07156E-05-1.97783E-05-2.61180E-05 5.40094E-06-8.32227E-19 4.54941E-19
 -1      1008 7.72437E-05-1.93494E-05-2.48061E-05 7.15739E-06-1.01450E-18 3.49634E-19
 -1      1009 7.29732E-05-1.87599E-05-2.32054E-05 8.66280E-06 8.21875E-19-8.22950E-19
 -1      1010 9.54512E-05-2.86015E-05-2.86499E-05-3.76057E-07 3.08212E-19-4.49064E-19
 -1      1011 9.44355E-05-2.73765E-05-2.87397E-05-7.15180E-07 3.52460E-19-1.11156E-18
 -1      1012 9.47580E-05-2.77568E-05-2.87149E-05-5.69180E-07 2.01555E-20-1.03470E-18
 -1      1013 9.35485E-05-2.64206E-05-2.87693E-05-1.17355E-06 1.71414E-19-1.14975E-18
 -1      1014 9.29452E-05-2.58379E-05-2.87605E-05-1.50438E-06-7.04047E-19-1.13469E-19
 -1      1015 9.22101E-05-2.51911E-05-2.87227E-05-1.91830E-06-8.08057E-19 1.22451E-18
 -1      1016 9.13270E-05-2.44972E-05-2.86416E-05-2.43088E-06-3.57285E-19 7.00302E-19
 -1      1017 9.02842E-05-2.37885E-05-2.84985E-05-3.06430E-06-2.77188E-19-1.36975E-19
 -1      1018 8.90773E-05-2.31168E-05-2.82692E-05-3.85294E-06-5.65680E-19 1.19877E-18
 -1      1019 8.77119E-05-2.25594E-05-2.79231E-05-4.85345E-06-6.23456E-19 1.44074E-18
 -1      1020 8.62068E-05-2.22258E-05-2.74217E-05-6.16282E-06-9.05237E-19 1.61685E-18
 -1      1021 8.46137E-05-2.22846E-05-2.67167E-05-7.95727E-06-6.20782E-19 1.73793E-18
 -1      1022 8.31305E-05-2.30087E-05-2.57609E-05-1.05149E-05-2.24716E-19 1.18959E-18
 -1      1023 9.61415E-05-2.62123E-05-2.99700E-05 5.38588E-07 6.49274E-19-1.48422E-18
 -1      1024 9.65448E-05-2.69229E-05-2.98381E-05-9.68149E-08-1.65702E-19-1.60660E-18
 -1      1025 9.62213E-05-2.92040E-05-2.87217E-05-7.30440E-07 5.17355E-19-8.22860E-20
 -1      1026 9.40388E-05-2.69330E-05-2.87597E-05-9.13791E-07 7.52063E-19-1.15285E-18
 -1      1027 9.68256E-05-2.79753E-05-2.95076E-05 1.53531E-07-1.43602E-19-1.35606E-18
 -1      1028 9.61213E-05-2.57209E-05-3.01708E-05 3.52763E-07 6.21952E-19-1.53034E-18
 -1      1029 6.90439E-05-1.74429E-05-2.20911E-05-6.85786E-06-7.21310E-19 3.18135E-19
 -1      1030 9.56379E-05-2.88095E-05-2.86407E-05-3.73068E-07 4.24846E-19-3.20706E-19
 -1      1031 9.68964E-05-2.85384E-05-2.92967E-05 2.81297E-07-1.89344E-19-1.20577E-18
 -1      1032 9.65650E-05-2.86361E-05-2.91124E-05-5.87204E-07 1.87375E-19-1.14609E-18
 -1      1033 9.52506E-05-2.83610E-05-2.86670E-05-4.05928E-07 7.41182E-20-2.85995E-19
 -1      1034 9.50243E-05-2.80821E-05-2.86896E-05-4.68307E-07-1.83819E-20-2.75851E-19
 -1      1035 9.68018E-05-2.83073E-05-2.93548E-05-2.96358E-07 2.32376E-19-1.17324E-18
 -1      1036 9.66393E-05-2.74526E-05-2.96523E-05-2.29491E-08 4.77793E-19-1.52179E-18
 -1      1037 9.61895E-05-2.92425E-05-2.86916E-05-4.64720E-07 8.42477E-19 1.91329E-19
 -1      1038 7.61340E-05-2.12602E-05-2.35077E-05-1.19678E-05-7.61241E-19-1.40670E-18
 -1      1039 9.58128E-05-2.49074E-05-3.03859E-05-2.55694E-07-1.60112E-19-1.67497E-18
 -1      1040 9.60031E-05-2.91344E-05-2.86580E-05-4.24599E-07 1.59141E-19 4.53345E-19
 -1      1041 9.61671E-05-2.57267E-05-3.01894E-05 1.01523E-07 4.28591E-19-1.47861E-18
 -1      1042 9.58199E-05-2.89877E-05-2.86423E-05-3.91318E-07-2.18748E-19 6.89403E-19
 -1      1043 9.67088E-05-2.91399E-05-2.89581E-05-5.14744E-07-1.65050E-19-2.60040E-19
 -1      1044 9.65560E-05-2.92751E-05-2.88347E-05-5.25173E-07 1.07134E-19-2.36344E-19
 -1      1045 9.68052E-05-2.88402E-05-2.91280E-05-4.48073E-07 6.40592E-21-8.80828E-19
 -1      1046 9.68111E-05-2.93070E-05-2.89301E-05 1.61179E-07-2.52111E-19-1.09605E-18
 -1      1047 9.66155E-05-2.93675E-05-2.88207E-05 1.58644E-07-2.60646E-19-6.94787E-19
 -1      1048 9.64100E-05-2.93381E-05-2.87452E-05 1.47460E-07 1.81164E-19-8.18619E-19
 -1      1049 9.61975E-05-2.92363E-05-2.86976E-05 1.35702E-07 1.65348E-19-1.18043E-18
 -1      1050 9.59819E-05-2.90848E-05-2.86701E-05 1.26177E-07 1.90590E-19-3.04333E-19
 -1      1051 9.57667E-05-2.88955E-05-2.86590E-05 1.20163E-07-2.21442E-19-5.77709E-19
 -1      1052 9.55463E-05-2.86719E-05-2.86604E-05 1.19990E-07-1.40792E-19 1.22535E-19
 -1      1053 9.53110E-05-2.84120E-05-2.86709E-05 1.27463E-07 3.79184E-20 7.14619E-19
 -1      1054 9.50479E-05-2.81101E-05-2.86876E-05 1.44125E-07 2.73769E-19 6.52454E-19
 -1      1055 9.47407E-05-2.77574E-05-2.87071E-05 1.71367E-07 4.41901E-19 1.04271E-18
 -1      1056 9.43703E-05-2.73435E-05-2.87257E-05 2.10437E-07-2.59935E-20 9.46992E-19
 -1      1057 9.39148E-05-2.68576E-05-2.87387E-05 2.62348E-07-5.93192E-19 6.92180E-19
 -1      1058 9.33497E-05-2.62897E-05-2.87398E-05 3.27724E-07-8.36043E-19 2.28741E-19
 -1      1059 9.26478E-05-2.56325E-05-2.87206E-05 4.06603E-07-5.99038E-19-2.84546E-19
 -1      1060 9.17795E-05-2.48832E-05-2.86696E-05 4.98251E-07 5.77866E-19-8.92652E-19
 -1      1061 9.07124E-05-2.40453E-05-2.85713E-05 6.01124E-07 1.97386E-21-9.88300E-19
 -1      1062 8.94095E-05-2.31301E-05-2.84051E-05 7.13166E-07-4.94897E-19-4.37251E-19
 -1      1063 8.78256E-05-2.21572E-05-2.81431E-05 8.32726E-07-8.11247E-19-5.15558E-19
 -1      1064 8.58988E-05-2.11515E-05-2.77483E-05 9.60302E-07-1.55191E-19-7.77977E-19
 -1      1065 8.35333E-05-2.01367E-05-2.71693E-05 1.10074E-06 1.72786E-20-1.73006E-18
 -1      1066 8.05626E-05-1.91176E-05-2.63329E-05 1.26305E-06-4.07410E-19-2.29991E-18
 -1      1067 7.68163E-05-1.81397E-05-2.51359E-05 1.53151E-06-6.77967E-19-2.58459E-18
 -1      1068 7.25101E-05-1.72791E-05-2.36585E-05 2.05165E-06-4.73379E-20-1.33565E-18
 -1      1069 9.48273E-05-2.78547E-05-2.87025E-05-2.82843E-07 4.68651E-19-6.73595E-19
 -1      1070 7.46693E-05-1.84480E-05-2.40934E-05-5.84162E-06 1.24946E-18 9.61253E-19
 -1      1071 9.21260E-05-2.51724E-05-2.86946E-05-9.59706E-07-1.27522E-18 1.15916E-18
 -1      1072 9.29123E-05-2.58672E-05-2.87338E-05-7.43682E-07-1.08553E-18 1.34478E-18
 -1      1073 9.00053E-05-2.35702E-05-2.84726E-05-1.58437E-06 1.96563E-19-4.89360E-21
 -1      1074 8.86150E-05-2.27069E-05-2.82468E-05-2.03311E-06-6.96607E-19-1.24759E-19
 -1      1075 8.69606E-05-2.18517E-05-2.79045E-05-2.61921E-06-1.03254E-18 8.05594E-19
 -1      1076 8.49951E-05-2.10566E-05-2.74033E-05-3.40471E-06-6.44036E-19 7.15086E-19
 -1      1077 8.26426E-05-2.03787E-05-2.66861E-05-4.48944E-06-7.36453E-19 3.97100E-19
 -1      1078 7.97504E-05-1.98578E-05-2.56713E-05-6.08732E-06-1.97348E-19 5.77045E-19
 -1      1079 9.64411E-05-2.66712E-05-2.99003E-05 1.85946E-07 5.32432E-19-1.55984E-18
 -1      1080 9.63767E-05-2.92970E-05-2.87484E-05-5.03423E-07 4.84937E-19-1.63186E-19
 -1      1081 9.53601E-05-2.84727E-05-2.86660E-05-2.13022E-07 3.21952E-19 1.23132E-19
 -1      1082 9.55837E-05-2.87190E-05-2.86563E-05-2.04071E-07 1.76872E-19 1.20275E-19
 -1      1083 9.67752E-05-2.74129E-05-2.97280E-05 1.06197E-08 8.48814E-20-1.32704E-18
 -1      1084 9.57955E-05-2.89309E-05-2.86563E-05-2.08044E-07 1.17763E-19-3.14639E-19
 -1      1085 9.11660E-05-2.44013E-05-2.86137E-05-1.23463E-06-3.96885E-19 1.86845E-19
 -1      1086 9.64108E-05-2.63396E-05-3.00307E-05-1.08600E-07-9.99394E-20-1.39548E-18
 -1      1087 9.44855E-05-2.74657E-05-2.87228E-05-3.50875E-07 3.24553E-19-8.15986E-19
 -1      1088 9.69533E-05-2.90985E-05-2.90805E-05 1.50647E-07-1.93073E-19-8.53423E-19
 -1      1089 9.35511E-05-2.64794E-05-2.87451E-05-5.75421E-07-3.85687E-19 4.48786E-19
 -1      1090 9.51130E-05-2.81872E-05-2.86825E-05-2.38151E-07 1.13485E-19 8.05424E-20
 -1      1091 9.40675E-05-2.70103E-05-2.87389E-05-4.46646E-07 8.97307E-20-8.82873E-19
 -1      1092 9.64114E-05-2.93311E-05-2.87490E-05-2.62340E-07 5.18921E-19-6.50671E-19
 -1      1093 9.68541E-05-2.78294E-05-2.95820E-05-7.68845E-08 1.96822E-19-1.05482E-18
 -1      1094 9.69386E-05-2.81482E-05-2.94801E-05 7.16781E-08 7.87197E-20-8.47934E-19
 -1      1095 9.70078E-05-2.87394E-05-2.92583E-05 1.23065E-07-1.34108E-19-6.59827E-19
 -1      1096 9.62131E-05-2.92506E-05-2.86984E-05-2.41034E-07 4.53510E-19 1.12630E-19
 -1      1097 9.69339E-05-2.90290E-05-2.91019E-05-2.52799E-07-4.24825E-19-1.15512E-18
 -1      1098 9.65230E-05-2.66536E-05-2.99436E-05 7.56662E-08 4.14480E-19-1.16426E-18
 -1      1099 9.69635E-05-2.85724E-05-2.93103E-05-1.92840E-07-7.59408E-20-1.27660E-18
 -1      1100 9.60042E-05-2.91092E-05-2.86693E-05-2.21454E-07 2.90945E-19-1.90195E-19
 -1      1101 9.68065E-05-2.92691E-05-2.89446E-05-2.77601E-07-2.66366E-19-8.98403E-19
 -1      1102 9.65292E-05-2.93702E-05-2.87815E-05-9.34018E-08 3.40410E-19-1.15167E-18
 -1      1103 9.66271E-05-2.93571E-05-2.88303E-05-2.75804E-07 1.59875E-19-7.80841E-19
 -1      1104 9.69964E-05-2.83341E-05-2.94261E-05-1.42536E-09 3.44550E-19-1.13027E-18
 -1      1105 1.16858E-04 2.57576E-10-4.18564E-05-4.14659E-05-3.37119E-19 1.20806E-17
 -1      1106 8.86522E-05 7.19208E-11-3.72518E-05-2.41677E-05-1.90688E-19 2.11568E-18
 -1      1107 8.40790E-05 4.14551E-11-3.57671E-05-1.78779E-05-1.38966E-19-2.20904E-18
 -1      1108 8.23342E-05 3.20289E-11-3.50728E-05-1.38352E-05-8.77738E-20-4.24748E-18
 -1      1109 8.15304E-05 2.73258E-11-3.47382E-05-1.05330E-05-6.04040E-20-5.28954E-18
 -1      1110 8.11282E-05 2.46094E-11-3.45727E-05-7.64048E-06-3.69849E-20-5.68864E-18
 -1      1111 8.09193E-05 2.29523E-11-3.44894E-05-4.97940E-06-2.03288E-20-5.81928E-18
 -1      1112 8.08173E-05 2.20566E-11-3.44501E-05-2.43183E-06-6.15919E-21-5.77025E-18
 -1      1113 8.07882E-05 2.17859E-11-3.44391E-05 5.26356E-08 8.15269E-21-5.72752E-18
 -1      1114 8.08215E-05 2.21003E-11-3.44516E-05 2.53960E-06 2.97934E-20-5.61722E-18
 -1      1115 8.09280E-05 2.30501E-11-3.44923E-05 5.09529E-06 3.35835E-20-5.37710E-18
 -1      1116 8.11439E-05 2.47659E-11-3.45771E-05 7.77210E-06 5.78960E-20-4.91647E-18
 -1      1117 8.15531E-05 2.76403E-11-3.47446E-05 1.06926E-05 8.20828E-20-4.22513E-18
 -1      1118 8.23583E-05 3.25009E-11-3.50828E-05 1.40421E-05 1.14826E-19-2.96672E-18
 -1      1119 8.40746E-05 4.19258E-11-3.57871E-05 1.81289E-05 1.45848E-19-5.77293E-19
 -1      1120 8.83502E-05 6.67468E-11-3.73221E-05 2.40102E-05 1.70465E-19 4.04104E-18
 -1      1121 1.06622E-04 1.63930E-10-4.06352E-05 3.61925E-05 3.57448E-19 1.35562E-17
 -1      1122 1.30225E-04-2.57575E-05-4.02749E-05-2.61061E-05-1.40512E-18 1.84547E-17
 -1      1123 9.74613E-05-2.88640E-05-3.15791E-05-6.80273E-07-4.50860E-19 1.51623E-17
 -1      1124 9.01646E-05-2.70281E-05-2.78945E-05 3.87196E-07-1.91469E-19 1.04003E-17
 -1      1125 8.82540E-05-2.65737E-05-2.66450E-05 2.50814E-07-1.01849E-19 7.23565E-18
 -1      1126 8.78943E-05-2.64468E-05-2.63885E-05 1.65752E-07-1.15023E-19 5.20743E-18
 -1      1127 8.82521E-05-2.65229E-05-2.64731E-05 1.18133E-07-1.10956E-19 3.78433E-18
 -1      1128 8.89374E-05-2.67071E-05-2.66753E-05 8.75037E-08-7.69799E-20 2.59226E-18
 -1      1129 8.97500E-05-2.69383E-05-2.69172E-05 6.62288E-08-4.74585E-20 1.58126E-18
 -1      1130 9.05797E-05-2.71800E-05-2.71645E-05 5.04910E-08 1.22587E-20 8.70849E-19
 -1      1131 9.13645E-05-2.74112E-05-2.73991E-05 3.83646E-08-5.71371E-20-5.74043E-19
 -1      1132 9.20711E-05-2.76207E-05-2.76111E-05 2.88171E-08-1.67990E-21-1.66362E-18
 -1      1133 9.26848E-05-2.78036E-05-2.77957E-05 2.12372E-08 1.50413E-19-1.28617E-18
 -1      1134 9.32031E-05-2.79585E-05-2.79522E-05 1.52130E-08-1.01145E-19-2.29644E-18
 -1      1135 9.36310E-05-2.80868E-05-2.80817E-05 1.04397E-08-3.64847E-20-3.07810E-18
 -1      1136 9.39785E-05-2.81913E-05-2.81873E-05 6.68011E-09-5.79575E-20-2.72984E-18
 -1      1137 9.42590E-05-2.82759E-05-2.82729E-05 3.74748E-09 7.33037E-21-3.16767E-18
 -1      1138 9.44876E-05-2.83453E-05-2.83430E-05 1.50022E-09-1.13832E-19-3.21665E-18
 -1      1139 9.46818E-05-2.84044E-05-2.84029E-05-1.58574E-10-7.73225E-20-3.50984E-18
 -1      1140 9.48607E-05-2.84591E-05-2.84583E-05-1.27806E-09 2.10270E-20-3.76113E-18
 -1      1141 9.50456E-05-2.85159E-05-2.85158E-05-1.85401E-09 1.14174E-19-3.83100E-18
 -1      1142 9.52613E-05-2.85820E-05-2.85829E-05-1.82031E-09-1.87030E-19-3.74633E-18
 -1      1143 9.55366E-05-2.86663E-05-2.86683E-05-1.03712E-09-1.34479E-19-3.61356E-18
 -1      1144 9.59059E-05-2.87791E-05-2.87825E-05 7.24946E-10 1.68125E-19-3.05613E-18
 -1      1145 9.64101E-05-2.89325E-05-2.89379E-05 3.80468E-09-1.67780E-19-3.02647E-18
 -1      1146 9.70977E-05-2.91412E-05-2.91492E-05 8.67261E-09 2.18984E-20-4.08364E-18
 -1      1147 9.80257E-05-2.94221E-05-2.94334E-05 1.59501E-08-6.74607E-20-3.45504E-18
 -1      1148 9.92586E-05-2.97943E-05-2.98098E-05 2.64099E-08 3.25815E-19-1.73498E-18
 -1      1149 1.00865E-04-3.02782E-05-3.02985E-05 4.09223E-08 6.22338E-20-2.24763E-18
 -1      1150 1.02912E-04-3.08927E-05-3.09181E-05 6.02713E-08 1.73875E-19-2.43484E-18
 -1      1151 1.05447E-04-3.16511E-05-3.16802E-05 8.46952E-08 3.59790E-20-2.23494E-18
 -1      1152 1.08469E-04-3.25522E-05-3.25803E-05 1.12908E-07-1.89213E-19-3.74652E-18
 -1      1153 1.11885E-04-3.35663E-05-3.35830E-05 1.40274E-07 4.08591E-19-5.19382E-18
 -1      1154 1.15435E-04-3.46137E-05-3.46000E-05 1.55928E-07-1.33110E-20-4.72165E-18
 -1      1155 1.18600E-04-3.55388E-05-3.54673E-05 1.39503E-07 1.63204E-19-5.09691E-18
 -1      1156 1.20531E-04-3.60888E-05-3.59316E-05 6.05119E-08-5.19205E-20-5.46081E-18
 -1      1157 1.20078E-04-3.59250E-05-3.56762E-05-1.12448E-07 2.00244E-19-4.25451E-18
 -1      1158 1.16077E-04-3.47112E-05-3.44221E-05-3.82484E-07 1.70565E-19-4.70114E-18
 -1      1159 1.08029E-04-3.23193E-05-3.21116E-05-6.80239E-07-1.28766E-19-2.34162E-18
 -1      1160 9.69909E-05-2.90797E-05-2.91012E-05-8.45263E-07-2.71061E-20-1.66294E-18
 -1      1161 8.59713E-05-2.58788E-05-2.61906E-05-7.03617E-07 2.25953E-19-1.47140E-18
 -1      1162 7.89031E-05-2.38302E-05-2.43262E-05-2.39021E-07-2.15213E-19-7.37633E-19
 -1      1163 7.83378E-05-2.36448E-05-2.40929E-05 3.25501E-07-1.46868E-19-1.56436E-18
 -1      1164 8.36542E-05-2.51495E-05-2.53497E-05 6.82009E-07 1.64268E-19-1.08516E-18
 -1      1165 9.15037E-05-2.74099E-05-2.73203E-05 6.86323E-07-1.26914E-19 4.34528E-19
 -1      1166 9.80885E-05-2.93387E-05-2.90734E-05 4.33517E-07-1.99218E-20-2.05480E-18
 -1      1167 1.01212E-04-3.02799E-05-3.00054E-05 1.19203E-07 4.31041E-19-3.38231E-19
 -1      1168 1.00800E-04-3.01900E-05-3.00298E-05-1.09273E-07 5.01718E-19 9.26886E-19
 -1      1169 9.82858E-05-2.94818E-05-2.94761E-05-1.75952E-07-1.48905E-19 4.08799E-19
 -1      1170 9.58024E-05-2.88086E-05-2.88339E-05-4.21131E-08-1.76979E-19-2.22828E-18
 -1      1171 9.49580E-05-2.84717E-05-2.83901E-05 9.64162E-08 5.44144E-19-7.53231E-20
 -1      1172 1.31059E-04-3.77397E-05-3.86605E-05 1.21747E-05-2.38466E-19 2.13952E-17
 -1      1173 9.65632E-05-2.81907E-05-3.13317E-05 8.01428E-07 1.33064E-19 1.72483E-17
 -1      1174 9.03785E-05-2.69307E-05-2.78755E-05 1.20141E-07 7.79336E-20 1.34358E-17
 -1      1175 8.83399E-05-2.65009E-05-2.66813E-05 8.99121E-09 8.45511E-20 1.04570E-17
 -1      1176 8.79347E-05-2.64093E-05-2.64155E-05-2.52803E-08 3.91687E-20 8.25018E-18
 -1      1177 8.82742E-05-2.65057E-05-2.64888E-05-3.43112E-08 1.69192E-20 7.08321E-18
 -1      1178 8.89503E-05-2.67002E-05-2.66855E-05-3.55130E-08 2.49358E-20 5.94812E-18
 -1      1179 8.97581E-05-2.69370E-05-2.69246E-05-3.38066E-08-9.28328E-20 5.77703E-18
 -1      1180 9.05850E-05-2.71816E-05-2.71701E-05-3.07437E-08 1.70813E-20 4.34805E-18
 -1      1181 9.13680E-05-2.74143E-05-2.74034E-05-2.70376E-08 1.20134E-19 3.46067E-18
 -1      1182 9.20734E-05-2.76245E-05-2.76143E-05-2.31042E-08 1.19380E-19 2.61042E-18
 -1      1183 9.26865E-05-2.78075E-05-2.77982E-05-1.91990E-08-2.69143E-20 2.10338E-18
 -1      1184 9.32044E-05-2.79623E-05-2.79541E-05-1.54725E-08 5.91821E-20 1.74140E-18
 -1      1185 9.36321E-05-2.80903E-05-2.80832E-05-1.19996E-08-1.19263E-19 1.55179E-18
 -1      1186 9.39798E-05-2.81944E-05-2.81885E-05-8.80105E-09 1.80614E-19 6.71519E-19
 -1      1187 9.42605E-05-2.82787E-05-2.82738E-05-5.85872E-09 1.77555E-20 8.93024E-20
 -1      1188 9.44897E-05-2.83477E-05-2.83439E-05-3.12963E-09-1.83290E-19-4.09384E-19
 -1      1189 9.46847E-05-2.84066E-05-2.84038E-05-5.57715E-10 2.79731E-20-7.61822E-19
 -1      1190 9.48645E-05-2.84611E-05-2.84594E-05 1.91466E-09 1.11192E-19-2.54791E-18
 -1      1191 9.50506E-05-2.85177E-05-2.85171E-05 4.33464E-09 3.05555E-20-3.81434E-18
 -1      1192 9.52673E-05-2.85837E-05-2.85844E-05 6.72486E-09 1.16471E-19-4.50068E-18
 -1      1193 9.55431E-05-2.86677E-05-2.86700E-05 9.06539E-09-4.52656E-20-4.24281E-18
 -1      1194 9.59111E-05-2.87795E-05-2.87838E-05 1.12688E-08 4.42889E-20-4.27888E-18
 -1      1195 9.64102E-05-2.89308E-05-2.89376E-05 1.31448E-08-6.35711E-20-3.45883E-18
 -1      1196 9.70855E-05-2.91350E-05-2.91451E-05 1.43499E-08 5.27770E-20-3.28810E-18
 -1      1197 9.79878E-05-2.94073E-05-2.94215E-05 1.43180E-08-1.40386E-19-8.44141E-19
 -1      1198 9.91718E-05-2.97637E-05-2.97828E-05 1.21714E-08 8.96416E-20-9.21473E-19
 -1      1199 1.00691E-04-3.02196E-05-3.02443E-05 6.62190E-09 1.33024E-19-1.33251E-18
 -1      1200 1.02588E-04-3.07870E-05-3.08175E-05-4.09335E-09-1.30800E-19-1.27258E-18
 -1      1201 1.04878E-04-3.14693E-05-3.15041E-05-2.21347E-08 2.48396E-19-2.41688E-18
 -1      1202 1.07519E-04-3.22527E-05-3.22873E-05-4.96048E-08 1.22603E-19-3.81101E-18
 -1      1203 1.10371E-04-3.30941E-05-3.31185E-05-8.72998E-08 1.57698E-19-4.67239E-18
 -1      1204 1.13139E-04-3.39054E-05-3.39017E-05-1.32108E-07-1.70651E-19-2.94057E-18
 -1      1205 1.15315E-04-3.45376E-05-3.44795E-05-1.72789E-07-5.00345E-20-1.08367E-18
 -1      1206 1.16156E-04-3.47761E-05-3.46348E-05-1.85703E-07-2.90235E-19-7.60060E-19
 -1      1207 1.14769E-04-3.43653E-05-3.41270E-05-1.36106E-07-3.62616E-19 1.69142E-19
 -1      1208 1.10396E-04-3.30877E-05-3.27829E-05 6.10147E-09 5.46958E-19-3.93097E-18
 -1      1209 1.02930E-04-3.09064E-05-3.06331E-05 2.33330E-07 1.47238E-19-5.24959E-18
 -1      1210 9.34685E-05-2.81194E-05-2.80277E-05 4.67369E-07-2.14830E-19-4.34994E-18
 -1      1211 8.44197E-05-2.54093E-05-2.56115E-05 5.75406E-07 6.16150E-20-4.94593E-18
 -1      1212 7.86728E-05-2.36335E-05-2.40916E-05 4.59477E-07-4.02400E-19-2.66792E-18
 -1      1213 7.80254E-05-2.33716E-05-2.38810E-05 1.55429E-07 1.33275E-20-1.47122E-18
 -1      1214 8.20225E-05-2.45394E-05-2.48605E-05-1.77726E-07 1.31922E-19-2.40044E-18
 -1      1215 8.82716E-05-2.64311E-05-2.64566E-05-3.79594E-07-3.33445E-19-8.82238E-19
 -1      1216 9.39441E-05-2.81743E-05-2.79681E-05-3.90915E-07 4.63456E-19-6.40992E-19
 -1      1217 9.72114E-05-2.91927E-05-2.89083E-05-2.59187E-07 3.20532E-19-4.11454E-18
 -1      1218 9.77927E-05-2.93885E-05-2.91690E-05-7.98650E-08 2.51015E-19-3.68775E-18
 -1      1219 9.66538E-05-2.90494E-05-2.89672E-05 5.50876E-08-1.15897E-19-3.89556E-18
 -1      1220 9.53279E-05-2.86341E-05-2.86475E-05 5.73362E-08 3.75871E-19-3.62303E-18
 -1      1221 9.50269E-05-2.85065E-05-2.84061E-05-6.69212E-08-3.22356E-19-3.89482E-18
 -1      1222 9.53034E-05-2.87793E-05-2.84357E-05-7.50220E-08-2.88507E-18-2.74636E-19
 -1      1223 9.51499E-05-2.84496E-05-2.87539E-05-8.15142E-08-6.61744E-21 8.02934E-19
 -1      1224 9.45018E-05-2.63629E-05-2.94716E-05 5.76793E-08 7.38704E-18-3.81066E-20
 -1      1225 9.31438E-05-2.18715E-05-3.08561E-05 2.22562E-07 9.63807E-18-2.28057E-19
 -1      1226 9.10021E-05-1.46729E-05-3.29771E-05 4.12912E-07 7.32726E-18-7.23307E-19
 -1      1227 8.82278E-05-5.26953E-06-3.56490E-05 5.68032E-07 7.60106E-19-4.80635E-19
 -1      1228 8.52607E-05 4.90473E-06-3.84609E-05 5.99411E-07-1.16700E-18-5.76379E-20
 -1      1229 8.27671E-05 1.35073E-05-4.07853E-05 4.36455E-07 4.78844E-18 4.75768E-19
 -1      1230 8.15069E-05 1.78752E-05-4.19506E-05 1.04863E-07 5.47643E-18 3.22931E-21
 -1      1231 8.18885E-05 1.65518E-05-4.15986E-05-2.70325E-07 1.06696E-17 1.13344E-18
 -1      1232 8.37845E-05 9.98554E-06-3.98369E-05-5.35398E-07 7.47157E-18-1.36276E-18
 -1      1233 8.65928E-05 3.49523E-07-3.72077E-05-6.08862E-07-4.75175E-18-8.46099E-19
 -1      1234 8.95643E-05-9.80333E-06-3.43629E-05-5.17590E-07-6.64021E-18 5.22446E-19
 -1      1235 9.21435E-05-1.85147E-05-3.18534E-05-3.44021E-07-1.65298E-18 7.79674E-19
 -1      1236 9.40198E-05-2.47338E-05-3.00262E-05-2.16801E-07 1.85900E-18 5.68687E-19
 -1      1237 9.48673E-05-2.78584E-05-2.89621E-05 9.00245E-08 5.64144E-19-1.15356E-18
 -1      1238 9.53439E-05-2.88383E-05-2.84215E-05 8.93861E-08 3.56667E-19 7.98602E-19
 -1      1239 3.97414E-05-1.23451E-04 2.09748E-05-1.57829E-05-1.61190E-18-5.53192E-19
 -1      1240 1.99044E-05-7.46746E-05 1.15569E-05-2.88280E-05 3.74389E-19 7.04308E-19
 -1      1241 8.06743E-06-1.29433E-05-4.89053E-06-3.21965E-06 1.05489E-17 7.66565E-18
 -1      1242 3.37303E-05 2.48481E-05-2.58189E-05 5.29935E-05 1.38676E-17 1.25937E-17
 -1      1243 1.06857E-04 1.71047E-05-4.74285E-05 1.05980E-04 1.11834E-17 1.55803E-17
 -1      1244 2.08207E-04-2.84864E-05-6.55544E-05 1.17620E-04 8.61941E-18 1.94428E-17
 -1      1245 2.95903E-04-7.93553E-05-7.80593E-05 7.01709E-05 3.58083E-18 1.30604E-17
 -1      1246 3.23808E-04-9.80644E-05-8.08861E-05-1.31052E-05 6.87367E-19 2.50531E-18
 -1      1247 2.70841E-04-6.70403E-05-7.40608E-05-8.55335E-05 1.13672E-18-4.64259E-18
 -1      1248 1.73565E-04-1.49806E-05-5.91314E-05-1.13000E-04 3.32969E-18-7.07950E-18
 -1      1249 7.70870E-05 2.13707E-05-3.92621E-05-8.56916E-05 8.93366E-18-9.81203E-18
 -1      1250 1.89285E-05 1.48872E-05-1.76094E-05-2.97274E-05 1.16840E-17-8.71512E-18
 -1      1251 8.39550E-06-3.15198E-05 1.51256E-06 1.65475E-05 8.36191E-18-4.32241E-18
 -1      1252 2.50229E-05-8.78749E-05 1.48383E-05 2.73789E-05 5.44219E-18-1.79846E-18
 -1      1253 3.82658E-05-1.19158E-04 2.10450E-05 6.51492E-06-7.78423E-19-9.14213E-19
 -1      1254 3.33793E-05-1.07989E-04 1.88210E-05-2.15963E-05-4.05983E-18-1.04603E-18
 -1      1255 1.45441E-05-5.95262E-05 8.80752E-06-2.73834E-05-9.31228E-18-4.62056E-18
 -1      1256 8.56731E-06-5.67696E-06-7.28536E-06 2.11912E-06-1.16857E-17-7.33615E-18
 -1      1257 4.38051E-05 2.18316E-05-2.82306E-05 5.78027E-05-9.52065E-18-9.34447E-18
 -1      1258 1.31074E-04 2.69020E-06-5.10314E-05 1.04983E-04-4.93990E-18-6.19181E-18
 -1      1259 2.36261E-04-4.76503E-05-6.90222E-05 1.03675E-04-8.25434E-19-2.04897E-18
 -1      1260 3.11059E-04-9.09104E-05-7.92230E-05 4.67470E-05 1.95665E-19 1.95156E-18
 -1      1261 3.17158E-04-9.27036E-05-8.04915E-05-4.09222E-05-1.29779E-18 7.52038E-18
 -1      1262 2.51621E-04-5.21198E-05-7.20142E-05-1.06846E-04-2.45640E-18 9.35802E-18
 -1      1263 1.44857E-04 2.24547E-06-5.49381E-05-1.15942E-04-5.70900E-18 9.21064E-18
 -1      1264 4.95452E-05 2.72247E-05-3.17871E-05-6.92253E-05-1.25191E-17 1.25395E-17
 -1      1265 9.71186E-06-4.01746E-06-8.36871E-06-5.34631E-06-1.63054E-17 1.16306E-17
 -1      1266 1.85316E-05-6.96781E-05 1.03038E-05 2.85052E-05-8.62618E-18 4.24618E-18
 -1      1267 3.87838E-05-1.21508E-04 2.07082E-05 1.66776E-05-1.61741E-18 8.02643E-19
 -1      1268 1.04447E-04-2.20203E-05-3.78933E-05-1.72753E-05-5.14996E-19 9.97064E-18
 -1      1269 9.03208E-05-6.68131E-06-3.60176E-05-2.04719E-05-1.51312E-18 7.36919E-20
 -1      1270 9.26580E-05-6.74016E-06-3.72229E-05-2.57600E-05-1.91578E-18 2.33845E-18
 -1      1271 8.59051E-05-4.09684E-06-3.51300E-05-1.64337E-05-1.53744E-18-3.12616E-18
 -1      1272 8.71572E-05-4.08946E-06-3.55995E-05-1.88543E-05-1.72932E-18-1.75151E-18
 -1      1273 9.21348E-05-1.04631E-05-3.50937E-05-1.90358E-05-2.64780E-18 1.15514E-19
 -1      1274 8.40952E-05-3.19050E-06-3.46864E-05-1.28161E-05-1.17764E-18-4.72677E-18
 -1      1275 8.47080E-05-3.16127E-06-3.49111E-05-1.46311E-05-1.37881E-18-3.99371E-18
 -1      1276 8.78672E-05-7.39560E-06-3.45737E-05-1.54122E-05-2.36165E-18-2.54811E-18
 -1      1277 8.31826E-05-2.72706E-06-3.44694E-05-9.68724E-06-8.91330E-19-5.48402E-18
 -1      1278 8.34961E-05-2.70865E-06-3.45788E-05-1.12342E-05-1.00131E-18-5.14672E-18
 -1      1279 8.58649E-05-5.98195E-06-3.43048E-05-1.19550E-05-1.81310E-18-3.89871E-18
 -1      1280 8.26916E-05-2.45741E-06-3.43627E-05-6.91552E-06-5.94531E-19-5.81904E-18
 -1      1281 8.28609E-05-2.44898E-06-3.44173E-05-8.28670E-06-7.01403E-19-5.65725E-18
 -1      1282 8.48184E-05-5.21652E-06-3.41719E-05-8.94559E-06-1.31125E-18-4.54438E-18
 -1      1283 8.24157E-05-2.29174E-06-3.43098E-05-4.29504E-06-3.18676E-19-5.85620E-18
 -1      1284 8.25071E-05-2.28784E-06-3.43371E-05-5.59639E-06-4.14116E-19-5.85493E-18
 -1      1285 8.42328E-05-4.76169E-06-3.41084E-05-6.21696E-06-8.57480E-19-4.86271E-18
 -1      1286 8.22829E-05-2.20225E-06-3.42874E-05-1.78995E-06-2.97752E-20-5.84475E-18
 -1      1287 8.23220E-05-2.20069E-06-3.42985E-05-3.04110E-06-1.27756E-19-5.85251E-18
 -1      1288 8.39097E-05-4.49770E-06-3.40794E-05-3.64478E-06-3.81127E-19-4.83341E-18
 -1      1289 8.22567E-05-2.17472E-06-3.42847E-05 6.70009E-07 2.13211E-19-5.75555E-18
 -1      1290 8.22554E-05-2.17476E-06-3.42844E-05-5.65962E-07 1.51761E-19-5.80167E-18
 -1      1291 8.37680E-05-4.37799E-06-3.40684E-05-1.17051E-06 9.07926E-20-4.85114E-18
 -1      1292 8.23304E-05-2.20496E-06-3.43000E-05 3.14875E-06 4.91623E-19-5.60042E-18
 -1      1293 8.22885E-05-2.20659E-06-3.42882E-05 1.89503E-06 3.80492E-19-5.68412E-18
 -1      1294 8.37729E-05-4.38218E-06-3.40688E-05 1.27396E-06 4.74422E-19-4.73419E-18
 -1      1295 8.25238E-05-2.29796E-06-3.43398E-05 5.71317E-06 6.90064E-19-5.33864E-18
 -1      1296 8.24292E-05-2.30133E-06-3.43117E-05 4.40595E-06 6.21325E-19-5.52706E-18
 -1      1297 8.39250E-05-4.51110E-06-3.40804E-05 3.75255E-06 9.28116E-19-4.56635E-18
 -1      1298 8.28838E-05-2.46358E-06-3.44202E-05 8.39482E-06 9.81652E-19-4.84973E-18
 -1      1299 8.27108E-05-2.47227E-06-3.43651E-05 7.01510E-06 8.68090E-19-5.14154E-18
 -1      1300 8.42576E-05-4.78409E-06-3.41097E-05 6.31117E-06 1.29626E-18-4.26637E-18
 -1      1301 8.35429E-05-2.74104E-06-3.45840E-05 1.13950E-05 1.35208E-18-4.05610E-18
 -1      1302 8.32211E-05-2.75811E-06-3.44730E-05 9.83002E-06 1.20813E-18-4.52207E-18
 -1      1303 8.48611E-05-5.25731E-06-3.41730E-05 9.05405E-06 1.80506E-18-3.72676E-18
 -1      1304 8.47651E-05-3.20340E-06-3.49190E-05 1.48438E-05 1.70550E-18-2.68658E-18
 -1      1305 8.41522E-05-3.24012E-06-3.46921E-05 1.30035E-05 1.52212E-18-3.52760E-18
 -1      1306 8.59454E-05-6.06273E-06-3.43062E-05 1.21226E-05 2.34615E-18-2.85492E-18
 -1      1307 8.72565E-05-4.09052E-06-3.56211E-05 1.90913E-05 1.92954E-18-7.06743E-20
 -1      1308 8.59727E-05-4.15438E-06-3.51377E-05 1.66932E-05 1.71093E-18-1.66106E-18
 -1      1309 8.79916E-05-7.51734E-06-3.45758E-05 1.56505E-05 2.76809E-18-1.26028E-18
 -1      1310 9.34710E-05-6.79289E-06-3.71183E-05 2.50965E-05 1.66876E-18 4.86996E-18
 -1      1311 9.01365E-05-6.43834E-06-3.60403E-05 2.11490E-05 1.63096E-18 1.84997E-18
 -1      1312 9.23649E-05-1.06987E-05-3.50791E-05 1.96765E-05 2.88820E-18 1.64684E-18
 -1      1313 1.23633E-04-2.49250E-05-3.90170E-05 2.83671E-05 8.48727E-19 1.42407E-17
 -1      1314 1.00087E-04-1.44252E-05-3.73561E-05 2.40506E-05 8.70856E-19 7.74506E-18
 -1      1315 1.01685E-04-1.93439E-05-3.54042E-05 2.13986E-05 2.68704E-18 6.17572E-18
 -1      1316 1.02612E-04-2.78074E-05-3.47600E-05 7.32884E-06 1.49504E-18 1.36986E-17
 -1      1317 1.05155E-04-3.02327E-05-3.35275E-05-7.95937E-06-1.54996E-18 1.04592E-17
 -1      1318 9.82685E-05-2.78453E-05-3.07643E-05-4.98819E-06-1.44917E-18 8.63349E-18
 -1      1319 9.55105E-05-2.78514E-05-2.92569E-05-2.48904E-06-1.18042E-18 7.85093E-18
 -1      1320 9.32790E-05-2.75608E-05-2.82177E-05-2.04228E-06-1.11557E-18 6.15782E-18
 -1      1321 9.94915E-05-2.80537E-05-3.09848E-05-7.88618E-06-2.55402E-18 4.56487E-18
 -1      1322 9.15900E-05-2.72034E-05-2.75835E-05-8.37773E-07-8.59063E-19 5.47527E-18
 -1      1323 9.08737E-05-2.71081E-05-2.72813E-05-7.27877E-07-7.82513E-19 4.34089E-18
 -1      1324 9.47258E-05-2.77728E-05-2.88185E-05-3.11938E-06-1.93600E-18 3.42327E-18
 -1      1325 9.01234E-05-2.69250E-05-2.70382E-05-1.74320E-07-5.99249E-19 3.79100E-18
 -1      1326 9.00506E-05-2.69515E-05-2.70034E-05-1.16081E-07-6.09821E-19 2.94296E-18
 -1      1327 9.25271E-05-2.75017E-05-2.78979E-05-1.05342E-06-1.38757E-18 2.32972E-18
 -1      1328 8.97913E-05-2.68842E-05-2.69292E-05 1.54413E-07-4.28268E-19 2.63949E-18
 -1      1329 9.00059E-05-2.69744E-05-2.69908E-05 1.83086E-07-4.51389E-19 2.14343E-18
 -1      1330 9.15683E-05-2.73581E-05-2.75311E-05-7.02738E-08-9.80030E-19 1.49335E-18
 -1      1331 9.00097E-05-2.69776E-05-2.69972E-05 3.13944E-07-4.13575E-19 1.92016E-18
 -1      1332 9.03517E-05-2.70972E-05-2.70962E-05 3.25570E-07-3.25502E-19 1.44143E-18
 -1      1333 9.13153E-05-2.73463E-05-2.74231E-05 4.16977E-07-7.86085E-19 1.05925E-18
 -1      1334 9.04934E-05-2.71389E-05-2.71433E-05 3.79714E-07-2.81271E-19 1.30540E-18
 -1      1335 9.08804E-05-2.72669E-05-2.72551E-05 3.81293E-07-2.08410E-19 9.45540E-19
 -1      1336 9.14478E-05-2.74200E-05-2.74451E-05 6.44374E-07-5.72257E-19 7.06784E-19
 -1      1337 9.10878E-05-2.73270E-05-2.73213E-05 3.91409E-07-2.42228E-19 7.51130E-19
 -1      1338 9.14738E-05-2.74513E-05-2.74331E-05 3.87107E-07-2.91676E-19 3.05322E-19
 -1      1339 9.17794E-05-2.75386E-05-2.75337E-05 7.25794E-07-5.81668E-19 5.01148E-19
 -1      1340 9.17041E-05-2.75177E-05-2.75058E-05 3.72031E-07-3.80488E-19 5.51763E-20
 -1      1341 9.20638E-05-2.76315E-05-2.76104E-05 3.64518E-07-5.19290E-19-5.91573E-19
 -1      1342 9.21996E-05-2.76753E-05-2.76533E-05 7.23003E-07-7.46905E-19-6.38947E-20
 -1      1343 9.22917E-05-2.76970E-05-2.76820E-05 3.35938E-07-4.17109E-19-7.04910E-19
 -1      1344 9.26120E-05-2.77971E-05-2.77755E-05 3.26980E-07 5.12438E-22-9.84957E-19
 -1      1345 9.26417E-05-2.78131E-05-2.77824E-05 6.72845E-07-6.90367E-19-2.50339E-19
 -1      1346 9.28233E-05-2.78577E-05-2.78417E-05 2.92417E-07 5.07794E-20-1.48121E-18
 -1      1347 9.30992E-05-2.79430E-05-2.79225E-05 2.83179E-07-1.88166E-19-1.49297E-18
 -1      1348 9.30668E-05-2.79424E-05-2.79085E-05 5.98611E-07-4.25792E-19-8.82801E-19
 -1      1349 9.32870E-05-2.79968E-05-2.79812E-05 2.47530E-07-3.38732E-19-1.78099E-18
 -1      1350 9.35184E-05-2.80677E-05-2.80492E-05 2.38770E-07-5.00564E-19-2.27199E-18
 -1      1351 9.34540E-05-2.80582E-05-2.80246E-05 5.15399E-07-5.27194E-19-1.82764E-18
 -1      1352 9.36806E-05-2.81140E-05-2.80999E-05 2.05223E-07-3.35959E-19-2.24982E-18
 -1      1353 9.38709E-05-2.81718E-05-2.81560E-05 1.97428E-07-6.42500E-20-2.40469E-18
 -1      1354 9.37941E-05-2.81583E-05-2.81275E-05 4.33064E-07-5.43675E-19-2.15417E-18
 -1      1355 9.40086E-05-2.82111E-05-2.81989E-05 1.68068E-07-1.16990E-19-2.18232E-18
 -1      1356 9.41633E-05-2.82576E-05-2.82448E-05 1.61550E-07-1.96704E-19-2.34966E-18
 -1      1357 9.40859E-05-2.82431E-05-2.82164E-05 3.58049E-07-1.52621E-19-1.94281E-18
 -1      1358 9.42798E-05-2.82907E-05-2.82811E-05 1.37783E-07-3.06722E-19-2.38511E-18
 -1      1359 9.44058E-05-2.83281E-05-2.83185E-05 1.32759E-07-2.59730E-19-2.66791E-18
 -1      1360 9.43335E-05-2.83140E-05-2.82925E-05 2.94627E-07-2.31979E-19-1.96924E-18
 -1      1361 9.45060E-05-2.83565E-05-2.83497E-05 1.15630E-07-1.48813E-19-2.59095E-18
 -1      1362 9.46112E-05-2.83874E-05-2.83812E-05 1.12277E-07-2.00995E-19-2.78312E-18
 -1      1363 9.45449E-05-2.83736E-05-2.83580E-05 2.45802E-07-2.81684E-19-2.03729E-18
 -1      1364 9.47012E-05-2.84128E-05-2.84092E-05 1.02718E-07 1.18977E-21-2.61040E-18
 -1      1365 9.47945E-05-2.84397E-05-2.84372E-05 1.01220E-07-5.33654E-20-2.54399E-18
 -1      1366 9.47307E-05-2.84251E-05-2.84161E-05 2.13994E-07-1.06754E-19-1.85445E-18
 -1      1367 9.48816E-05-2.84643E-05-2.84643E-05 1.00242E-07-3.68613E-19-2.69115E-18
 -1      1368 9.49729E-05-2.84904E-05-2.84919E-05 1.00830E-07-2.72814E-19-2.89359E-18
 -1      1369 9.49040E-05-2.84724E-05-2.84707E-05 2.01565E-07-3.65429E-19-1.94192E-18
 -1      1370 9.50656E-05-2.85164E-05-2.85207E-05 1.09672E-07-1.00464E-19-3.17791E-18
 -1      1371 9.51664E-05-2.85451E-05-2.85512E-05 1.12654E-07-1.58304E-19-3.16412E-18
 -1      1372 9.50800E-05-2.85199E-05-2.85265E-05 2.11240E-07-4.19490E-19-2.47815E-18
 -1      1373 9.52745E-05-2.85755E-05-2.85848E-05 1.32907E-07-6.16673E-20-3.31557E-18
 -1      1374 9.53979E-05-2.86107E-05-2.86221E-05 1.38692E-07-2.57144E-19-3.36732E-18
 -1      1375 9.52767E-05-2.85727E-05-2.85890E-05 2.46430E-07-3.78969E-19-2.63217E-18
 -1      1376 9.55330E-05-2.86487E-05-2.86641E-05 1.72373E-07-6.66923E-20-3.08042E-18
 -1      1377 9.56945E-05-2.86951E-05-2.87127E-05 1.81485E-07 1.81526E-19-2.92000E-18
 -1      1378 9.55149E-05-2.86369E-05-2.86646E-05 3.11468E-07-7.06301E-20-2.79507E-18
 -1      1379 9.58701E-05-2.87446E-05-2.87674E-05 2.31075E-07 1.71173E-19-3.04960E-18
 -1      1380 9.60882E-05-2.88079E-05-2.88328E-05 2.44164E-07 1.36768E-19-2.81408E-18
 -1      1381 9.58190E-05-2.87194E-05-2.87607E-05 4.11751E-07 7.80660E-20-2.75433E-18
 -1      1382 9.63201E-05-2.88734E-05-2.89051E-05 3.12566E-07-2.29622E-19-2.61449E-18
 -1      1383 9.66167E-05-2.89602E-05-2.89938E-05 3.30391E-07-4.74937E-19-3.07486E-18
 -1      1384 9.62175E-05-2.88286E-05-2.88861E-05 5.53724E-07-5.70275E-20-2.33066E-18
 -1      1385 9.69231E-05-2.90469E-05-2.90893E-05 4.20762E-07-4.79674E-20-2.78582E-18
 -1      1386 9.73240E-05-2.91651E-05-2.92089E-05 4.44151E-07-9.35301E-20-2.66502E-18
 -1      1387 9.67436E-05-2.89742E-05-2.90507E-05 7.44644E-07-3.44546E-19-2.08479E-18
 -1      1388 9.77255E-05-2.92790E-05-2.93340E-05 5.59525E-07-1.67942E-19-2.76306E-18
 -1      1389 9.82602E-05-2.94380E-05-2.94931E-05 5.89267E-07 1.61238E-19-2.46073E-18
 -1      1390 9.74351E-05-2.91674E-05-2.92660E-05 9.91924E-07-2.26552E-19-2.01330E-18
 -1      1391 9.87788E-05-2.95855E-05-2.96547E-05 7.31789E-07 5.45924E-19-2.40897E-18
 -1      1392 9.94797E-05-2.97955E-05-2.98628E-05 7.68427E-07 2.06296E-19-1.87580E-18
 -1      1393 9.83336E-05-2.94213E-05-2.95443E-05 1.30179E-06 2.62997E-19-1.78013E-18
 -1      1394 1.00138E-04-2.99835E-05-3.00676E-05 9.37956E-07-1.39572E-19-2.04852E-18
 -1      1395 1.01037E-04-3.02553E-05-3.03339E-05 9.81396E-07 8.92693E-21-1.86401E-18
 -1      1396 9.94826E-05-2.97501E-05-2.98978E-05 1.67673E-06-6.21395E-20-1.74251E-18
 -1      1397 1.01854E-04-3.04899E-05-3.05875E-05 1.17306E-06 2.14870E-19-2.33484E-18
 -1      1398 1.02979E-04-3.08333E-05-3.09194E-05 1.22186E-06 6.21477E-20-2.17976E-18
 -1      1399 1.00923E-04-3.01686E-05-3.03377E-05 2.11099E-06-1.54605E-19-2.14000E-18
 -1      1400 1.03964E-04-3.11191E-05-3.12242E-05 1.42206E-06-1.65839E-19-2.37687E-18
 -1      1401 1.05325E-04-3.15397E-05-3.16240E-05 1.47225E-06-3.85074E-19-2.67205E-18
 -1      1402 1.02686E-04-3.06910E-05-3.08703E-05 2.58302E-06-4.25849E-19-2.24025E-18
 -1      1403 1.06471E-04-3.18774E-05-3.19760E-05 1.65257E-06-4.41473E-19-2.04428E-18
 -1      1404 1.08044E-04-3.23717E-05-3.24353E-05 1.69579E-06-2.72816E-19-2.78302E-18
 -1      1405 1.04777E-04-3.13279E-05-3.14929E-05 3.04360E-06-2.19623E-19-1.98523E-18
 -1      1406 1.09312E-04-3.27544E-05-3.28193E-05 1.80496E-06-2.33197E-19-2.68408E-18
 -1      1407 1.11011E-04-3.33007E-05-3.33104E-05 1.82590E-06 1.97148E-19-2.86864E-18
 -1      1408 1.07156E-04-3.20813E-05-3.21860E-05 3.39918E-06-5.14759E-19-9.42046E-19
 -1      1409 1.12310E-04-3.37092E-05-3.36940E-05 1.78181E-06 2.11163E-19-3.88969E-18
 -1      1410 1.13947E-04-3.42549E-05-3.41592E-05 1.75573E-06-3.96526E-19-4.08569E-18
 -1      1411 1.09706E-04-3.29356E-05-3.29042E-05 3.49257E-06-6.04733E-19-2.56512E-18
 -1      1412 1.15115E-04-3.46500E-05-3.44865E-05 1.44436E-06-1.76858E-19-3.71059E-18
 -1      1413 1.16362E-04-3.50953E-05-3.48285E-05 1.33686E-06 1.54418E-19-4.01819E-18
 -1      1414 1.12195E-04-3.38417E-05-3.35657E-05 3.09104E-06-1.21867E-19-2.82620E-18
 -1      1415 1.17152E-04-3.54086E-05-3.50192E-05 6.33188E-07 1.51890E-19-3.63405E-18
 -1      1416 1.17531E-04-3.55960E-05-3.51018E-05 4.08117E-07 2.13876E-19-3.22681E-18
 -1      1417 1.14234E-04-3.46912E-05-3.40484E-05 1.90668E-06 1.05336E-19-2.58153E-18
 -1      1418 1.17621E-04-3.57221E-05-3.50620E-05-7.58208E-07 9.64426E-20-3.11844E-18
 -1      1419 1.16575E-04-3.54484E-05-3.47369E-05-1.11456E-06 1.72212E-19-3.36891E-18
 -1      1420 1.15262E-04-3.52827E-05-3.42005E-05-3.05996E-07 2.84272E-19-1.97439E-18
 -1      1421 1.15640E-04-3.52512E-05-3.43908E-05-2.63556E-06 1.14144E-19-3.62790E-18
 -1      1422 1.12761E-04-3.43352E-05-3.35664E-05-3.06954E-06-4.70236E-20-3.44202E-18
 -1      1423 1.14616E-04-3.53040E-05-3.38811E-05-3.52888E-06-1.00850E-20-3.26312E-18
 -1      1424 1.10637E-04-3.36977E-05-3.29093E-05-4.52507E-06 3.96160E-19-3.57173E-18
 -1      1425 1.06039E-04-3.21247E-05-3.16450E-05-4.87716E-06 5.53933E-19-2.30721E-18
 -1      1426 1.11742E-04-3.43918E-05-3.30331E-05-7.16128E-06 3.48342E-19-2.88560E-18
 -1      1427 1.02970E-04-3.10665E-05-3.07881E-05-5.55656E-06-7.36249E-20-9.57677E-19
 -1      1428 9.76185E-05-2.91490E-05-2.93597E-05-5.59500E-06 3.73771E-20-1.27230E-18
 -1      1429 1.06640E-04-3.23752E-05-3.17606E-05-9.84422E-06 6.75178E-19-3.00640E-18
 -1      1430 9.44186E-05-2.79564E-05-2.85274E-05-4.86042E-06 1.82297E-19-1.34101E-18
 -1      1431 9.00047E-05-2.63409E-05-2.73668E-05-4.44482E-06-2.12221E-19-1.42460E-18
 -1      1432 1.00330E-04-2.96179E-05-3.03492E-05-9.88159E-06 3.70550E-19-1.06528E-18
 -1      1433 8.78409E-05-2.55301E-05-2.68094E-05-2.33995E-06-1.35816E-19-1.14881E-18
 -1      1434 8.59724E-05-2.48779E-05-2.63012E-05-1.61764E-06-2.76609E-19-1.46549E-18
 -1      1435 9.48717E-05-2.71663E-05-2.91817E-05-6.44208E-06 1.50865E-19-8.47695E-19
 -1      1436 8.56347E-05-2.48245E-05-2.61692E-05 9.02388E-07-9.39810E-20-1.39055E-18
 -1      1437 8.67934E-05-2.53392E-05-2.64265E-05 1.55074E-06 2.47241E-19-1.38268E-18
 -1      1438 9.23597E-05-2.61687E-05-2.85709E-05-7.38364E-07-4.03016E-19-4.51694E-19
 -1      1439 8.80981E-05-2.59558E-05-2.66854E-05 3.22616E-06 3.11702E-19-1.37971E-18
 -1      1440 9.12968E-05-2.72219E-05-2.74761E-05 3.47394E-06 4.95137E-19-6.51898E-19
 -1      1441 9.34475E-05-2.69946E-05-2.86060E-05 4.42186E-06 5.43319E-19-1.01751E-18
 -1      1442 9.32286E-05-2.80274E-05-2.79288E-05 3.65891E-06-5.10820E-19 5.91600E-19
 -1      1443 9.67063E-05-2.93312E-05-2.88247E-05 3.47920E-06-7.48400E-20-6.77097E-20
 -1      1444 9.68391E-05-2.89125E-05-2.91108E-05 6.62925E-06 5.16545E-19-5.09530E-19
 -1      1445 9.81876E-05-2.98696E-05-2.92268E-05 2.46641E-06 3.90892E-19-1.21930E-18
 -1      1446 1.00495E-04-3.06724E-05-2.98507E-05 2.06798E-06 3.66805E-19-1.13561E-18
 -1      1447 1.00308E-04-3.06925E-05-2.97431E-05 5.51007E-06 2.39234E-19-5.98720E-19
 -1      1448 1.00973E-04-3.07716E-05-3.00340E-05 6.48020E-07 7.63283E-19-5.84929E-19
 -1      1449 1.01584E-04-3.09231E-05-3.02253E-05 2.68353E-07 1.07291E-18 6.85438E-19
 -1      1450 1.02178E-04-3.15217E-05-3.01701E-05 2.47926E-06 1.06628E-18-1.06855E-19
 -1      1451 1.01097E-04-3.06581E-05-3.01594E-05-8.49698E-07 2.58544E-19 1.68960E-19
 -1      1452 1.00349E-04-3.03183E-05-2.99881E-05-1.06623E-06-1.52787E-19-8.72576E-20
 -1      1453 1.01988E-04-3.12872E-05-3.02211E-05-6.12735E-07 4.46969E-19-2.54507E-19
 -1      1454 9.92926E-05-2.98589E-05-2.97609E-05-1.49282E-06-3.26075E-20-7.16921E-19
 -1      1455 9.80188E-05-2.93389E-05-2.94380E-05-1.48777E-06 7.33006E-20-9.25198E-19
 -1      1456 1.00242E-04-3.03341E-05-2.99352E-05-2.46965E-06-4.00412E-19-2.17253E-18
 -1      1457 9.68909E-05-2.88680E-05-2.91778E-05-1.12405E-06-3.63984E-20-4.05808E-19
 -1      1458 9.60194E-05-2.85588E-05-2.89127E-05-9.51990E-07-2.37970E-19-1.39409E-19
 -1      1459 9.78724E-05-2.90996E-05-2.94857E-05-2.56354E-06 3.91591E-19-1.12747E-18
 -1      1460 9.51980E-05-2.84406E-05-2.86201E-05 1.07519E-08-3.91601E-19 1.95218E-19
 -1      1461 9.57039E-05-2.82029E-05-2.89473E-05-9.28040E-07 1.60777E-19-6.16508E-19
 -1      1462 9.65854E-05-2.83661E-05-2.97749E-05 2.99548E-06 1.18129E-18 1.09348E-17
 -1      1463 1.02544E-04-2.94008E-05-3.21582E-05 4.46259E-06 1.05779E-18 1.28386E-17
 -1      1464 1.02333E-04-2.67202E-05-3.27079E-05 1.27828E-05 2.17158E-18 8.43401E-18
 -1      1465 9.20394E-05-2.74319E-05-2.77644E-05 1.15174E-06 9.35310E-19 8.58913E-18
 -1      1466 9.39857E-05-2.75869E-05-2.86784E-05 1.47370E-06 9.11196E-19 1.00119E-17
 -1      1467 9.64943E-05-2.80325E-05-2.95360E-05 4.86722E-06 1.83338E-18 6.59412E-18
 -1      1468 9.02070E-05-2.70072E-05-2.70656E-05 3.31602E-07 7.08609E-19 6.60905E-18
 -1      1469 9.08217E-05-2.70246E-05-2.73382E-05 4.94461E-07 7.39605E-19 7.80387E-18
 -1      1470 9.30499E-05-2.75811E-05-2.81010E-05 1.85141E-06 1.57489E-18 5.18890E-18
 -1      1471 8.96896E-05-2.68890E-05-2.68899E-05-5.51328E-08 4.23689E-19 5.36783E-18
 -1      1472 8.97269E-05-2.68266E-05-2.69181E-05 3.39825E-08 3.67306E-19 6.01966E-18
 -1      1473 9.14967E-05-2.73100E-05-2.75173E-05 5.17665E-07 1.01927E-18 3.89941E-18
 -1      1474 8.98211E-05-2.69413E-05-2.69316E-05-2.42325E-07 3.09458E-19 4.45362E-18
 -1      1475 8.95927E-05-2.68338E-05-2.68666E-05-1.92077E-07 3.00718E-19 4.98241E-18
 -1      1476 9.09647E-05-2.72289E-05-2.73211E-05-1.31991E-07 6.62297E-19 3.06919E-18
 -1      1477 9.02729E-05-2.70835E-05-2.70695E-05-3.25283E-07 4.93033E-20 4.03613E-18
 -1      1478 8.99263E-05-2.69564E-05-2.69682E-05-2.97633E-07 1.20495E-19 4.30837E-18
 -1      1479 9.09816E-05-2.72718E-05-2.73100E-05-4.50458E-07 3.35232E-19 2.83984E-18
 -1      1480 9.08655E-05-2.72652E-05-2.72484E-05-3.49434E-07 3.26700E-19 3.51041E-18
 -1      1481 9.04787E-05-2.71351E-05-2.71351E-05-3.35797E-07 1.60792E-19 3.78826E-18
 -1      1482 9.12848E-05-2.73835E-05-2.73911E-05-5.90135E-07 3.00393E-19 2.46204E-18
 -1      1483 9.14963E-05-2.74566E-05-2.74383E-05-3.39811E-07 2.74391E-19 2.68649E-18
 -1      1484 9.11128E-05-2.73334E-05-2.73258E-05-3.34978E-07 3.42039E-19 3.27405E-18
 -1      1485 9.17234E-05-2.75267E-05-2.75164E-05-6.27839E-07 6.22136E-19 1.88502E-18
 -1      1486 9.21061E-05-2.76405E-05-2.76221E-05-3.11545E-07 3.62724E-19 1.98796E-18
 -1      1487 9.17502E-05-2.75295E-05-2.75173E-05-3.12147E-07 2.44089E-19 2.37524E-18
 -1      1488 9.22082E-05-2.76782E-05-2.76580E-05-6.07022E-07 6.36583E-19 1.28641E-18
 -1      1489 9.26628E-05-2.78075E-05-2.77901E-05-2.74224E-07 1.47699E-19 1.66588E-18
 -1      1490 9.23468E-05-2.77111E-05-2.76968E-05-2.78013E-07 1.99686E-19 1.89572E-18
 -1      1491 9.26867E-05-2.78244E-05-2.77995E-05-5.54220E-07 3.60675E-19 9.03440E-19
 -1      1492 9.31513E-05-2.79535E-05-2.79378E-05-2.34052E-07 1.40249E-19 1.34969E-18
 -1      1493 9.28798E-05-2.78721E-05-2.78574E-05-2.39499E-07 7.99995E-20 1.49669E-18
 -1      1494 9.31296E-05-2.79576E-05-2.79316E-05-4.86346E-07 2.29325E-19 8.36785E-19
 -1      1495 9.35676E-05-2.80775E-05-2.80639E-05-1.95057E-07 1.28683E-19 8.61580E-19
 -1      1496 9.33402E-05-2.80103E-05-2.79963E-05-2.01112E-07 2.36201E-19 1.15190E-18
 -1      1497 9.35227E-05-2.80745E-05-2.80495E-05-4.14381E-07 3.28873E-19 3.42266E-19
 -1      1498 9.39151E-05-2.81806E-05-2.81693E-05-1.59840E-07 1.31979E-19 5.96467E-19
 -1      1499 9.37283E-05-2.81261E-05-2.81137E-05-1.65776E-07 1.09789E-19 5.87747E-19
 -1      1500 9.38615E-05-2.81742E-05-2.81517E-05-3.45484E-07 4.57113E-19 2.88863E-19
 -1      1501 9.42017E-05-2.82653E-05-2.82565E-05-1.30096E-07 1.66139E-19 1.11099E-19
 -1      1502 9.40500E-05-2.82215E-05-2.82111E-05-1.35398E-07 2.13699E-19 4.87648E-19
 -1      1503 9.41484E-05-2.82578E-05-2.82387E-05-2.84338E-07 3.25656E-19-3.68948E-19
 -1      1504 9.44390E-05-2.83351E-05-2.83287E-05-1.06995E-07 1.36197E-19 2.51675E-19
 -1      1505 9.43154E-05-2.82997E-05-2.82916E-05-1.11270E-07-5.17528E-20 2.15873E-19
 -1      1506 9.43902E-05-2.83274E-05-2.83125E-05-2.34084E-07 6.09570E-21 1.42879E-19
 -1      1507 9.46405E-05-2.83941E-05-2.83903E-05-9.14646E-08-2.74604E-19-3.97289E-19
 -1      1508 9.45371E-05-2.83645E-05-2.83591E-05-9.43781E-08 1.22377E-19-1.49261E-19
 -1      1509 9.45968E-05-2.83863E-05-2.83759E-05-1.97002E-07 1.88707E-19 1.88468E-19
 -1      1510 9.48223E-05-2.84470E-05-2.84459E-05-8.44185E-08 6.86314E-19-1.44313E-18
 -1      1511 9.47301E-05-2.84204E-05-2.84180E-05-8.56354E-08 4.03647E-19-7.72040E-19
 -1      1512 9.47808E-05-2.84381E-05-2.84327E-05-1.75033E-07 4.83222E-19-9.62317E-19
 -1      1513 9.50022E-05-2.84992E-05-2.85011E-05-8.69274E-08 5.82876E-20-2.65868E-18
 -1      1514 9.49114E-05-2.84725E-05-2.84734E-05-8.60657E-08 1.30894E-19-2.14397E-18
 -1      1515 9.49568E-05-2.84872E-05-2.84874E-05-1.70184E-07 8.14683E-19-1.60453E-18
 -1      1516 9.52009E-05-2.85567E-05-2.85620E-05-1.00350E-07 2.18559E-19-3.00538E-18
 -1      1517 9.51001E-05-2.85263E-05-2.85312E-05-9.69402E-08 2.01568E-19-2.54292E-18
 -1      1518 9.51418E-05-2.85386E-05-2.85451E-05-1.84824E-07 2.38115E-19-1.63713E-18
 -1      1519 9.54421E-05-2.86267E-05-2.86358E-05-1.26416E-07-4.17442E-19-2.88699E-18
 -1      1520 9.53183E-05-2.85884E-05-2.85980E-05-1.19871E-07-2.55422E-19-2.85576E-18
 -1      1521 9.53555E-05-2.85980E-05-2.86119E-05-2.21906E-07-1.07236E-20-1.56136E-18
 -1      1522 9.57537E-05-2.87174E-05-2.87310E-05-1.67263E-07-1.63581E-20-3.02880E-18
 -1      1523 9.55916E-05-2.86664E-05-2.86816E-05-1.56851E-07 1.40854E-19-2.71454E-18
 -1      1524 9.56206E-05-2.86720E-05-2.86945E-05-2.85080E-07-2.06839E-19-1.61546E-18
 -1      1525 9.61677E-05-2.88384E-05-2.88571E-05-2.25380E-07 9.30706E-20-3.11177E-18
 -1      1526 9.59495E-05-2.87690E-05-2.87908E-05-2.10229E-07 8.87259E-20-2.90635E-18
 -1      1527 9.59634E-05-2.87685E-05-2.88011E-05-3.78684E-07 1.39541E-19-1.66023E-18
 -1      1528 9.67214E-05-2.90008E-05-2.90255E-05-3.03453E-07-2.44215E-19-2.90632E-18
 -1      1529 9.64264E-05-2.89064E-05-2.89362E-05-2.82564E-07-2.77330E-19-3.26779E-18
 -1      1530 9.64140E-05-2.88962E-05-2.89408E-05-5.07543E-07-4.02175E-21-2.54224E-18
 -1      1531 9.74569E-05-2.92173E-05-2.92487E-05-4.03989E-07-5.81352E-19-1.89584E-18
 -1      1532 9.70615E-05-2.90903E-05-2.91294E-05-3.76316E-07-5.72092E-19-2.85975E-18
 -1      1533 9.70065E-05-2.90656E-05-2.91238E-05-6.76480E-07-4.79766E-19-2.46052E-18
 -1      1534 9.84198E-05-2.95019E-05-2.95403E-05-5.28635E-07-2.22116E-19-1.92174E-19
 -1      1535 9.78980E-05-2.93340E-05-2.93833E-05-4.93247E-07-2.90804E-19-8.39909E-19
 -1      1536 9.77781E-05-2.92880E-05-2.93611E-05-8.89339E-07-1.07111E-18-1.09948E-18
 -1      1537 9.96561E-05-2.98689E-05-2.99137E-05-6.76974E-07 5.24681E-20 6.45525E-19
 -1      1538 9.89816E-05-2.96517E-05-2.97116E-05-6.33367E-07 9.03339E-20 5.76973E-19
 -1      1539 9.87671E-05-2.95755E-05-2.96639E-05-1.14725E-06-4.35064E-20 1.00859E-18
 -1      1540 1.01206E-04-3.03312E-05-3.03805E-05-8.44524E-07 2.85391E-19-3.75897E-19
 -1      1541 1.00355E-04-3.00573E-05-3.01267E-05-7.93186E-07 5.08322E-19 1.98844E-19
 -1      1542 1.00009E-04-2.99402E-05-3.00419E-05-1.44573E-06 4.71766E-19 1.12194E-18
 -1      1543 1.03091E-04-3.08973E-05-3.09461E-05-1.01959E-06-9.77314E-20-5.59823E-19
 -1      1544 1.02051E-04-3.05625E-05-3.06373E-05-9.62936E-07-4.18242E-19-5.97714E-19
 -1      1545 1.01528E-04-3.03920E-05-3.05012E-05-1.76999E-06-2.18642E-19 1.03856E-18
 -1      1546 1.05296E-04-3.15656E-05-3.16043E-05-1.17865E-06 6.62992E-19-1.49448E-18
 -1      1547 1.04076E-04-3.11728E-05-3.12440E-05-1.12250E-06 6.05597E-19-6.42005E-19
 -1      1548 1.03327E-04-3.09362E-05-3.10400E-05-2.08799E-06 4.29226E-19 2.88853E-19
 -1      1549 1.07743E-04-3.23161E-05-3.23282E-05-1.28042E-06 3.66230E-19-2.36505E-18
 -1      1550 1.06388E-04-3.18813E-05-3.19319E-05-1.23605E-06 3.16732E-19-2.03681E-18
 -1      1551 1.05370E-04-3.15682E-05-3.16429E-05-2.34095E-06 8.93660E-19-9.93278E-19
 -1      1552 1.10245E-04-3.30984E-05-3.30581E-05-1.25996E-06-2.91898E-19-2.38082E-18
 -1      1553 1.08865E-04-3.26586E-05-3.26605E-05-1.24639E-06 6.22718E-20-2.32356E-18
 -1      1554 1.07551E-04-3.22663E-05-3.22728E-05-2.43268E-06 7.54984E-20-4.26193E-19
 -1      1555 1.12469E-04-3.38164E-05-3.36896E-05-1.02714E-06-4.19991E-19-8.64847E-19
 -1      1556 1.11264E-04-3.34395E-05-3.33519E-05-1.07250E-06-6.87266E-19-2.18896E-18
 -1      1557 1.09672E-04-3.29812E-05-3.28627E-05-2.22253E-06-8.61710E-19-5.48024E-19
 -1      1558 1.13898E-04-3.43149E-05-3.40677E-05-4.79004E-07 1.95469E-19-9.95535E-19
 -1      1559 1.13178E-04-3.41068E-05-3.38813E-05-6.17909E-07 2.91412E-19-6.98882E-19
 -1      1560 1.11406E-04-3.36222E-05-3.33101E-05-1.53397E-06 7.48168E-20-5.37502E-19
 -1      1561 1.13860E-04-3.43783E-05-3.39999E-05 4.58282E-07-5.18596E-19-7.71720E-19
 -1      1562 1.14028E-04-3.44780E-05-3.40782E-05 1.96845E-07-4.54751E-19-1.32891E-18
 -1      1563 1.12296E-04-3.40435E-05-3.34815E-05-2.00430E-07-2.89282E-19-1.32110E-18
 -1      1564 1.11668E-04-3.37655E-05-3.33066E-05 1.74595E-06 4.57027E-19-2.11152E-18
 -1      1565 1.13129E-04-3.43130E-05-3.37538E-05 1.36460E-06 3.81668E-19-1.20869E-18
 -1      1566 1.11797E-04-3.40415E-05-3.32383E-05 1.82493E-06 6.20637E-19-2.38111E-18
 -1      1567 1.06940E-04-3.23095E-05-3.19141E-05 3.12886E-06 7.89653E-19-4.35687E-18
 -1      1568 1.09898E-04-3.33725E-05-3.27683E-05 2.69587E-06 8.15997E-19-3.19329E-18
 -1      1569 1.09438E-04-3.33893E-05-3.24899E-05 4.29961E-06 1.50186E-18-3.36410E-18
 -1      1570 1.00032E-04-3.00780E-05-2.99647E-05 4.09972E-06-4.12576E-19-3.77110E-18
 -1      1571 1.04228E-04-3.15519E-05-3.11317E-05 3.76301E-06-2.84970E-19-3.85538E-18
 -1      1572 1.05105E-04-3.19466E-05-3.12666E-05 6.55076E-06 3.04780E-19-3.27889E-18
 -1      1573 9.23564E-05-2.75224E-05-2.78637E-05 4.05533E-06-3.99558E-19-2.44030E-18
 -1      1574 9.68962E-05-2.90649E-05-2.90916E-05 3.99614E-06-4.21318E-19-2.73375E-18
 -1      1575 9.93694E-05-2.98302E-05-2.97716E-05 7.55729E-06-7.60212E-19-2.65113E-18
 -1      1576 8.61384E-05-2.54344E-05-2.61785E-05 2.71342E-06-2.36666E-19-1.40711E-18
 -1      1577 8.96809E-05-2.65464E-05-2.71251E-05 3.02161E-06 8.96664E-20-1.85463E-18
 -1      1578 9.36234E-05-2.75660E-05-2.83543E-05 6.44687E-06-4.89506E-19-8.88339E-19
 -1      1579 8.33971E-05-2.45641E-05-2.53943E-05 4.90439E-07-5.60438E-19-7.15693E-19
 -1      1580 8.47876E-05-2.48513E-05-2.57805E-05 1.05717E-06-7.49134E-19-2.01673E-18
 -1      1581 8.96502E-05-2.59715E-05-2.73871E-05 3.25991E-06-5.97198E-19 4.29962E-19
 -1      1582 8.47179E-05-2.51237E-05-2.56518E-05-1.61596E-06 4.70017E-19-1.20175E-18
 -1      1583 8.36944E-05-2.45643E-05-2.54172E-05-1.05806E-06 9.03811E-20-4.94588E-19
 -1      1584 8.86700E-05-2.56788E-05-2.70932E-05-7.45355E-07-1.12894E-20-7.93445E-19
 -1      1585 8.88572E-05-2.66278E-05-2.66697E-05-2.69376E-06-1.24981E-18-1.82006E-19
 -1      1586 8.62220E-05-2.55913E-05-2.60065E-05-2.38412E-06-6.08937E-19-7.68894E-19
 -1      1587 9.05374E-05-2.66506E-05-2.74365E-05-3.77883E-06-7.55990E-19 1.02253E-18
 -1      1588 9.35907E-05-2.82574E-05-2.79120E-05-2.50112E-06 6.10291E-19-4.65233E-19
 -1      1589 9.06793E-05-2.72488E-05-2.71500E-05-2.50617E-06 1.94884E-19-3.52630E-19
 -1      1590 9.38616E-05-2.82002E-05-2.81477E-05-4.71508E-06-3.92838E-19 3.50050E-19
 -1      1591 9.69996E-05-2.93540E-05-2.88744E-05-1.46032E-06 1.43470E-18-1.51158E-18
 -1      1592 9.49283E-05-2.87317E-05-2.83057E-05-1.68024E-06 7.30116E-19-4.73438E-19
 -1      1593 9.69269E-05-2.95134E-05-2.88670E-05-3.66513E-06 1.24380E-18-6.98895E-19
 -1      1594 9.82699E-05-2.96807E-05-2.93047E-05-2.59197E-07-8.91132E-19-2.05705E-18
 -1      1595 9.74838E-05-2.95329E-05-2.90606E-05-5.26723E-07 5.06168E-20-1.34153E-18
 -1      1596 9.85927E-05-3.01117E-05-2.93183E-05-1.62485E-06 5.12587E-19 5.07611E-19
 -1      1597 9.77336E-05-2.93946E-05-2.92506E-05 5.45071E-07 2.07414E-19-1.36352E-18
 -1      1598 9.79978E-05-2.95817E-05-2.92850E-05 3.68541E-07 7.47771E-22-1.50553E-18
 -1      1599 9.86390E-05-2.99713E-05-2.94124E-05 2.55051E-07-2.41715E-19 1.11108E-18
 -1      1600 9.64117E-05-2.88716E-05-2.89558E-05 6.91103E-07-1.56399E-19-1.73554E-18
 -1      1601 9.70811E-05-2.91351E-05-2.91141E-05 6.76111E-07-2.61533E-19-1.96247E-18
 -1      1602 9.75726E-05-2.93645E-05-2.92379E-05 1.19946E-06-2.92157E-19 1.59096E-18
 -1      1603 9.54237E-05-2.85170E-05-2.86649E-05 2.55129E-07 4.49004E-19-1.07205E-18
 -1      1604 9.58057E-05-2.86099E-05-2.88036E-05 3.90115E-07 6.65707E-20-1.43652E-18
 -1      1605 9.62191E-05-2.86785E-05-2.89581E-05 9.90435E-07 4.53808E-19 1.18784E-18
 -1      1606 9.52021E-05-2.85237E-05-2.85578E-05-3.14535E-08-6.00665E-19-9.03511E-19
 -1      1607 9.51525E-05-2.74678E-05-2.90250E-05 7.61802E-07 2.54136E-18 3.28046E-18
 -1      1608 9.52983E-05-2.80792E-05-2.88007E-05 5.78184E-07-8.44757E-19 2.37832E-18
 -1      1609 9.44705E-05-2.49192E-05-2.98276E-05 1.83215E-06 5.14608E-18 6.27618E-19
 -1      1610 9.49340E-05-2.65358E-05-2.93361E-05 1.59414E-06 3.67560E-18 1.20405E-18
 -1      1611 9.52585E-05-2.69033E-05-2.93524E-05 2.30987E-06 1.31088E-18 3.52880E-18
 -1      1612 9.31549E-05-2.04419E-05-3.11896E-05 3.15861E-06 4.94704E-18-1.20702E-19
 -1      1613 9.40300E-05-2.32833E-05-3.03561E-05 2.87331E-06 5.11945E-18 7.30645E-19
 -1      1614 9.46417E-05-2.44608E-05-3.01535E-05 4.56702E-06 2.32409E-18 1.00193E-18
 -1      1615 9.11186E-05-1.39368E-05-3.31059E-05 4.45482E-06 4.09625E-18-1.16983E-18
 -1      1616 9.24250E-05-1.79799E-05-3.19486E-05 4.19652E-06 4.71191E-18 9.21281E-20
 -1      1617 9.34377E-05-2.04884E-05-3.13494E-05 7.09095E-06 2.10916E-18-3.24619E-19
 -1      1618 8.85384E-05-6.12871E-06-3.53354E-05 5.20919E-06-4.13987E-20-1.90476E-18
 -1      1619 9.01229E-05-1.08350E-05-3.40167E-05 5.10204E-06 3.03905E-18-2.35255E-18
 -1      1620 9.15570E-05-1.49918E-05-3.28740E-05 9.16447E-06 1.50483E-18-4.11287E-18
 -1      1621 8.57879E-05 1.83758E-06-3.75435E-05 4.89209E-06 1.77925E-18 2.10269E-18
 -1      1622 8.73804E-05-2.74232E-06-3.62834E-05 5.04857E-06-1.04979E-19 4.97374E-19
 -1      1623 8.91277E-05-8.50786E-06-3.45481E-05 9.81477E-06 1.77178E-18-1.12090E-18
 -1      1624 8.36566E-05 7.81926E-06-3.91629E-05 3.21438E-06 3.22230E-18 9.21969E-19
 -1      1625 8.47765E-05 4.66599E-06-3.83062E-05 3.66489E-06 1.70794E-18 2.71056E-18
 -1      1626 8.66099E-05-2.22208E-06-3.60725E-05 8.17425E-06 1.93833E-18 2.66814E-18
 -1      1627 8.28625E-05 9.99846E-06-3.97420E-05 4.99771E-07 5.54280E-18 1.03922E-18
 -1      1628 8.31280E-05 9.25765E-06-3.95417E-05 1.12109E-06 4.27656E-18 8.01862E-19
 -1      1629 8.47961E-05 2.12862E-06-3.70830E-05 4.13884E-06 2.36936E-18 1.31805E-18
 -1      1630 8.37088E-05 7.64438E-06-3.91096E-05-2.37968E-06 6.81385E-18 8.00724E-19
 -1      1631 8.30232E-05 9.56417E-06-3.96288E-05-1.81175E-06 5.20319E-18 1.30413E-18
 -1      1632 8.43602E-05 3.15658E-06-3.73178E-05-1.25224E-06 3.44507E-18 9.49895E-19
 -1      1633 8.58830E-05 1.53142E-06-3.74553E-05-4.46635E-06 8.03623E-19-5.20843E-18
 -1      1634 8.44954E-05 5.48649E-06-3.85362E-05-4.14292E-06 6.24118E-18-3.05762E-18
 -1      1635 8.54733E-05 5.10466E-07-3.67118E-05-6.22767E-06 1.94579E-18-2.25472E-18
 -1      1636 8.86108E-05-6.35850E-06-3.52736E-05-5.24445E-06-2.90088E-18-1.81787E-18
 -1      1637 8.69821E-05-1.60056E-06-3.65945E-05-5.21401E-06 1.03454E-18-4.58365E-18
 -1      1638 8.76865E-05-4.87324E-06-3.54391E-05-9.24683E-06 4.90300E-19-6.79973E-18
 -1      1639 9.12571E-05-1.43326E-05-3.30073E-05-4.83480E-06-1.12851E-18 7.88204E-19
 -1      1640 8.97353E-05-9.74012E-06-3.43059E-05-5.02040E-06-2.56958E-18 1.96215E-18
 -1      1641 9.02278E-05-1.14198E-05-3.38029E-05-9.83052E-06 1.42545E-18-3.85276E-19
 -1      1642 9.33055E-05-2.08364E-05-3.10970E-05-3.70397E-06-1.09744E-19 1.86642E-18
 -1      1643 9.21565E-05-1.72400E-05-3.21343E-05-3.97322E-06-1.32272E-18 1.49451E-18
 -1      1644 9.24830E-05-1.76688E-05-3.21374E-05-8.46061E-06 1.53396E-18 1.81186E-18
 -1      1645 9.46180E-05-2.51993E-05-2.97518E-05-2.38143E-06 4.89969E-19 5.30984E-20
 -1      1646 9.38742E-05-2.29296E-05-3.04338E-05-2.59957E-06 5.46495E-19 7.81884E-19
 -1      1647 9.41202E-05-2.26083E-05-3.07270E-05-6.07058E-06-2.36170E-19 1.35758E-18
 -1      1648 9.54245E-05-2.74612E-05-2.90985E-05-1.53415E-06-5.74851E-19-1.43471E-18
 -1      1649 9.51288E-05-2.64213E-05-2.94587E-05-1.93974E-06 8.49696E-19-1.34668E-18
 -1      1650 9.53308E-05-2.58121E-05-2.98514E-05-4.09377E-06 1.61433E-20 1.34519E-19
 -1      1651 9.62877E-05-2.77854E-05-2.94058E-05-2.83533E-06-1.92224E-19-2.01104E-18
 -1      1652 2.37406E-05-7.79354E-05 1.62865E-05-7.97657E-06-1.96766E-18-9.46771E-19
 -1      1653 2.76846E-05-8.92127E-05 1.86344E-05 1.71436E-06-5.48348E-19-5.56501E-19
 -1      1654 2.24823E-05-4.54496E-05 5.16717E-06 2.85879E-06 2.04220E-18 3.04402E-18
 -1      1655 2.77170E-05-7.10790E-05 1.17293E-05-1.32865E-06-2.06422E-18 1.62802E-18
 -1      1656 3.57212E-05-1.45895E-05-1.11615E-05 2.80834E-05 7.71478E-18 9.22504E-18
 -1      1657 3.07199E-05-3.76118E-05-2.17611E-06 9.46836E-06 4.27921E-18 5.58025E-18
 -1      1658 8.16782E-05-5.61993E-06-3.15609E-05 6.20926E-05 8.84895E-18 8.62957E-18
 -1      1659 5.62982E-05-1.32315E-05-2.07833E-05 3.75092E-05 8.74646E-18 8.26196E-18
 -1      1660 1.42474E-04-1.44166E-05-5.10256E-05 8.30200E-05 6.66107E-18 1.38126E-17
 -1      1661 1.01340E-04-2.91699E-06-4.14116E-05 6.89814E-05 8.27890E-18 1.09140E-17
 -1      1662 2.10806E-04-4.21804E-05-6.67473E-05 7.10899E-05 5.96946E-18 1.23286E-17
 -1      1663 1.66506E-04-2.06233E-05-5.91369E-05 7.93050E-05 7.30312E-18 1.30706E-17
 -1      1664 2.52193E-04-6.09235E-05-7.57402E-05 2.52318E-05 4.05771E-18 5.52816E-18
 -1      1665 2.25089E-04-4.56655E-05-7.18098E-05 5.60889E-05 5.53674E-18 9.88318E-18
 -1      1666 2.58467E-04-6.40063E-05-7.68184E-05-2.49694E-05 2.07142E-18 3.20178E-19
 -1      1667 2.64737E-04-6.71469E-05-7.78999E-05 1.15283E-05 2.91930E-18 4.71268E-18
 -1      1668 2.10072E-04-4.12301E-05-6.78567E-05-6.13649E-05 2.15686E-18-3.24075E-18
 -1      1669 2.45097E-04-5.93082E-05-7.32949E-05-3.79914E-05 1.67755E-18-1.17272E-18
 -1      1670 1.43617E-04-1.58664E-05-5.26657E-05-7.26705E-05 4.90051E-18-4.78997E-18
 -1      1671 1.89655E-04-3.53993E-05-6.12693E-05-7.20797E-05 2.62178E-18-4.23516E-18
 -1      1672 8.34148E-05-7.07074E-06-3.33934E-05-5.36405E-05 7.58518E-18-6.25957E-18
 -1      1673 1.20225E-04-1.29729E-05-4.35423E-05-7.15440E-05 5.81319E-18-5.42694E-18
 -1      1674 4.14065E-05-1.82895E-05-1.33044E-05-2.43350E-05 7.21164E-18-5.44812E-18
 -1      1675 5.96588E-05-5.51024E-06-2.35547E-05-4.79612E-05 7.08289E-18-5.97243E-18
 -1      1676 2.59335E-05-4.68114E-05 3.44466E-06-1.69124E-06 3.34493E-18-3.37225E-18
 -1      1677 2.60569E-05-2.28921E-05-4.46312E-06-1.48220E-05 6.21722E-18-5.51630E-18
 -1      1678 2.53637E-05-7.41332E-05 1.43556E-05 2.86145E-06 1.83510E-18-1.47161E-18
 -1      1679 1.96222E-05-5.40308E-05 9.55737E-06 4.69572E-06 3.22804E-18-2.05120E-18
 -1      1680 2.41040E-05-8.04889E-05 1.77745E-05-4.11318E-06-9.45686E-19-1.70232E-18
 -1      1681 2.25503E-05-7.58767E-05 1.67570E-05 5.53058E-06 1.60936E-18-1.86284E-18
 -1      1682 2.09224E-05-6.78260E-05 1.41369E-05-8.33759E-06-3.73669E-18-1.61953E-18
 -1      1683 2.57037E-05-8.17674E-05 1.72210E-05-1.19928E-06-2.25883E-18-1.03804E-18
 -1      1684 2.09752E-05-3.82491E-05 3.08353E-06 2.35315E-06-6.81946E-18-5.03138E-18
 -1      1685 2.49266E-05-6.16499E-05 9.51257E-06-3.63601E-06-4.86028E-18-3.52784E-18
 -1      1686 3.81800E-05-1.20762E-05-1.32381E-05 2.94110E-05-7.50132E-18-5.39645E-18
 -1      1687 3.02334E-05-3.11836E-05-4.30496E-06 1.01432E-05-7.40391E-18-4.19662E-18
 -1      1688 9.28873E-05-1.19991E-05-3.37616E-05 6.00131E-05-5.56839E-18-4.31817E-18
 -1      1689 6.33636E-05-1.48462E-05-2.29264E-05 3.76773E-05-6.44084E-18-4.84503E-18
 -1      1690 1.63596E-04-2.83689E-05-5.42447E-05 6.98791E-05-2.90532E-18-1.11639E-18
 -1      1691 1.17084E-04-1.32916E-05-4.39205E-05 6.08607E-05-4.57991E-18-3.39914E-18
 -1      1692 2.27727E-04-5.15956E-05-6.93831E-05 5.56723E-05-1.13262E-18 1.81265E-19
 -1      1693 1.86589E-04-3.16064E-05-6.27304E-05 6.95806E-05-2.47037E-18-1.69152E-18
 -1      1694 2.65290E-04-6.81753E-05-7.73536E-05 1.05580E-05-7.07908E-19 3.53763E-18
 -1      1695 2.45301E-04-5.74822E-05-7.43383E-05 4.46143E-05-6.38239E-19 1.38490E-18
 -1      1696 2.47875E-04-5.70520E-05-7.55758E-05-4.36704E-05-1.96978E-18 6.19096E-18
 -1      1697 2.62700E-04-6.58712E-05-7.74825E-05-7.62947E-06-1.44080E-18 4.41685E-18
 -1      1698 1.96812E-04-3.26243E-05-6.59045E-05-7.54651E-05-2.56355E-18 7.08882E-18
 -1      1699 2.35701E-04-5.30667E-05-7.18597E-05-5.81728E-05-1.54642E-18 7.74950E-18
 -1      1700 1.24307E-04-8.94697E-06-4.78619E-05-7.27888E-05-6.52808E-18 6.26042E-18
 -1      1701 1.73771E-04-2.71381E-05-5.81194E-05-8.03826E-05-4.13691E-18 5.34054E-18
 -1      1702 6.34520E-05-7.11913E-06-2.59285E-05-4.51691E-05-1.11580E-17 7.84014E-18
 -1      1703 9.67293E-05-4.93833E-06-3.74283E-05-7.07640E-05-7.89011E-18 6.95329E-18
 -1      1704 3.39177E-05-3.42421E-05-4.67383E-06-1.30796E-05-8.47795E-18 7.87868E-18
 -1      1705 4.31831E-05-1.07953E-05-1.52739E-05-3.62475E-05-1.10343E-17 9.20894E-18
 -1      1706 2.73539E-05-6.95661E-05 1.10902E-05 2.51032E-06-3.44149E-18 4.46895E-18
 -1      1707 2.17281E-05-4.18836E-05 3.98022E-06-2.96631E-06-8.35259E-18 7.68449E-18
 -1      1708 2.74662E-05-8.79340E-05 1.83278E-05-1.82323E-06-1.50031E-18 2.56439E-19
 -1      1709 2.32546E-05-7.54909E-05 1.56520E-05 7.29050E-06-2.64910E-18 1.48400E-18
 -1      1710 1.20492E-04-3.48936E-05-3.57159E-05 4.84028E-05 4.50579E-18 6.32310E-18
 -1      1711 7.87877E-05-4.06807E-05-1.74652E-05 4.28196E-05 2.52924E-18 6.11600E-18
 -1      1712 9.53840E-05-2.84373E-05-2.86958E-05 2.10997E-07-9.61839E-19 7.59052E-19
 -1      1713 9.55299E-05-2.80669E-05-2.89362E-05 9.43622E-07 6.78192E-19 3.20007E-18
 -1      1714 2.19340E-05-5.67028E-05 1.00449E-05 1.56802E-05-7.33107E-19 1.50730E-18
 -1      1715 4.31616E-05-4.81488E-05-1.23491E-06 3.00796E-05-5.59042E-20 6.35614E-18
 -1      1716 1.40019E-05-5.96440E-05 1.41208E-05-6.04673E-07-1.45976E-18 6.67885E-19
 -1      1717 1.62841E-04-3.14694E-05-5.29313E-05 4.72577E-05 4.83317E-18 9.38428E-18
 -1      1718 1.94601E-04-3.15080E-05-6.54445E-05 2.98999E-05 5.18532E-18 5.67724E-18
 -1      1719 2.13342E-04-3.31835E-05-7.21349E-05 8.50541E-06 5.25753E-18 3.86808E-18
 -1      1720 2.13149E-04-3.54490E-05-7.08484E-05-1.16821E-05 3.50545E-18 1.28283E-18
 -1      1721 1.86506E-04-3.38929E-05-6.13354E-05-3.04275E-05 2.99246E-18-9.77476E-19
 -1      1722 1.47927E-04-3.46945E-05-4.63477E-05-4.10382E-05 4.32410E-18-1.80418E-18
 -1      1723 1.03361E-04-3.63664E-05-2.84921E-05-4.26467E-05 4.40203E-18-3.13826E-18
 -1      1724 6.04029E-05-3.99158E-05-1.07248E-05-3.47146E-05 2.78166E-18-4.78722E-18
 -1      1725 3.11905E-05-4.83340E-05 3.57196E-06-2.12889E-05 1.27055E-18-3.18384E-18
 -1      1726 1.58181E-05-5.35202E-05 1.16996E-05-9.37847E-06 3.20602E-19-2.50976E-18
 -1      1727 1.29142E-05-5.51140E-05 1.34387E-05 2.30858E-06-3.91753E-20-2.49621E-18
 -1      1728 2.26344E-05-5.26870E-05 8.49040E-06 1.46267E-05-2.40134E-18-3.39639E-18
 -1      1729 4.40181E-05-4.41387E-05-2.96002E-06 2.71850E-05-3.67697E-18-3.17966E-18
 -1      1730 8.39097E-05-4.02199E-05-1.94202E-05 3.92230E-05-4.30462E-18-2.31409E-18
 -1      1731 1.32062E-04-4.11311E-05-3.78862E-05 3.72241E-05-3.74092E-18-2.13452E-19
 -1      1732 1.72153E-04-3.62479E-05-5.52947E-05 3.11684E-05-3.21730E-18 8.12305E-19
 -1      1733 2.07563E-04-3.66255E-05-6.81626E-05 2.06547E-05-2.14702E-18 9.60535E-19
 -1      1734 2.19263E-04-3.52408E-05-7.30440E-05-1.41072E-06-1.95495E-18 2.75587E-18
 -1      1735 2.08193E-04-3.33302E-05-6.96420E-05-2.42025E-05-1.91218E-18 3.98614E-18
 -1      1736 1.79213E-04-3.30216E-05-5.86905E-05-3.99022E-05-2.53485E-18 4.11827E-18
 -1      1737 1.35778E-04-3.45614E-05-4.15416E-05-4.78864E-05-5.74288E-18 2.86297E-18
 -1      1738 8.75256E-05-3.90661E-05-2.14517E-05-4.44442E-05-6.60686E-18 4.50876E-18
 -1      1739 4.72888E-05-4.72072E-05-3.12915E-06-3.17338E-05-4.50198E-18 7.79302E-18
 -1      1740 2.25906E-05-5.61240E-05 9.54495E-06-1.56674E-05-1.77835E-18 4.33554E-18
 -1      1741 1.06057E-04-2.31719E-05-3.56055E-05-1.68530E-05-1.89946E-18 8.17344E-18
 -1      1742 8.91544E-05-1.05881E-05-3.37965E-05-1.33283E-05-2.45723E-18-2.21613E-18
 -1      1743 9.04841E-05-1.16318E-05-3.39363E-05-1.51372E-05-2.81794E-18-1.38506E-18
 -1      1744 9.24917E-05-1.38758E-05-3.38546E-05-1.60014E-05-2.81459E-18-2.92253E-19
 -1      1745 9.42100E-05-1.58224E-05-3.40988E-05-1.76624E-05-3.00248E-18 1.16435E-18
 -1      1746 9.34195E-05-1.63480E-05-3.30452E-05-1.37703E-05-2.93689E-18-6.69897E-19
 -1      1747 8.62102E-05-7.67449E-06-3.37291E-05-7.86500E-06-1.40553E-18-3.73409E-18
 -1      1748 8.66135E-05-7.97238E-06-3.37633E-05-9.25441E-06-1.69447E-18-3.54403E-18
 -1      1749 8.55929E-05-7.03649E-06-3.37263E-05-5.32081E-06-9.08157E-19-3.89287E-18
 -1      1750 8.58277E-05-7.21531E-06-3.37413E-05-6.62545E-06-1.17242E-18-3.85902E-18
 -1      1751 8.75933E-05-9.86774E-06-3.33425E-05-6.92990E-06-1.41776E-18-3.61331E-18
 -1      1752 8.52581E-05-6.67794E-06-3.37296E-05-2.88927E-06-3.29707E-19-3.85870E-18
 -1      1753 8.53790E-05-6.77264E-06-3.37355E-05-4.12912E-06-5.56170E-19-3.85775E-18
 -1      1754 8.69569E-05-9.15564E-06-3.33758E-05-4.53826E-06-7.67303E-19-3.72705E-18
 -1      1755 8.51274E-05-6.52989E-06-3.37330E-05-5.17522E-07 2.37833E-19-3.84129E-18
 -1      1756 8.51630E-05-6.55840E-06-3.37344E-05-1.72735E-06-3.29487E-21-3.88010E-18
 -1      1757 8.66252E-05-8.77704E-06-3.33959E-05-2.21775E-06-1.94801E-19-3.69182E-18
 -1      1758 8.51727E-05-6.56735E-06-3.37346E-05 1.84555E-06 7.23060E-19-3.70615E-18
 -1      1759 8.51310E-05-6.53443E-06-3.37329E-05 6.34729E-07 4.93510E-19-3.76662E-18
 -1      1760 8.65270E-05-8.66355E-06-3.34024E-05 6.54886E-08 3.89703E-19-3.68784E-18
 -1      1761 8.54039E-05-6.79753E-06-3.37356E-05 4.25186E-06 1.19608E-18-3.58149E-18
 -1      1762 8.52758E-05-6.69687E-06-3.37295E-05 3.00885E-06 9.85309E-19-3.68285E-18
 -1      1763 8.66427E-05-8.79659E-06-3.33951E-05 2.34989E-06 9.09856E-19-3.59095E-18
 -1      1764 8.58608E-05-7.25063E-06-3.37411E-05 6.71354E-06 1.67604E-18-3.28548E-18
 -1      1765 8.56228E-05-7.06852E-06-3.37262E-05 5.42613E-06 1.41722E-18-3.48207E-18
 -1      1766 8.69910E-05-9.19359E-06-3.33743E-05 4.65366E-06 1.45768E-18-3.41323E-18
 -1      1767 8.66745E-05-8.04014E-06-3.37620E-05 9.37477E-06 2.31054E-18-2.65749E-18
 -1      1768 8.62532E-05-7.72348E-06-3.37281E-05 7.95419E-06 1.96720E-18-2.99282E-18
 -1      1769 8.76428E-05-9.92578E-06-3.33401E-05 7.02923E-06 1.98175E-18-2.94114E-18
 -1      1770 8.80887E-05-9.38860E-06-3.38178E-05 1.22539E-05 2.86486E-18-1.78322E-18
 -1      1771 8.73480E-05-8.83056E-06-3.37455E-05 1.06607E-05 2.51997E-18-2.28098E-18
 -1      1772 8.87650E-05-1.11609E-05-3.32898E-05 9.50271E-06 2.56796E-18-2.25562E-18
 -1      1773 9.06334E-05-1.18406E-05-3.39282E-05 1.53026E-05 3.25532E-18-2.33596E-19
 -1      1774 8.92526E-05-1.07413E-05-3.37882E-05 1.35129E-05 3.03039E-18-1.16983E-18
 -1      1775 9.06642E-05-1.32238E-05-3.32073E-05 1.19754E-05 3.11871E-18-1.24651E-18
 -1      1776 9.58795E-05-1.70355E-05-3.39942E-05 1.76901E-05 3.15464E-18 2.80786E-18
 -1      1777 9.28592E-05-1.43439E-05-3.38278E-05 1.61933E-05 3.14622E-18 9.40154E-19
 -1      1778 9.39722E-05-1.68877E-05-3.30249E-05 1.38942E-05 3.29654E-18 4.70580E-19
 -1      1779 1.01930E-04-2.50959E-05-3.33606E-05 1.44221E-05 2.67525E-18 6.48997E-18
 -1      1780 9.80806E-05-1.96178E-05-3.36265E-05 1.69638E-05 2.91305E-18 4.10075E-18
 -1      1781 9.73330E-05-2.18554E-05-3.24288E-05 1.32479E-05 3.16593E-18 2.77160E-18
 -1      1782 9.87570E-05-2.61368E-05-3.13438E-05 9.43439E-06 2.62173E-18 5.61938E-18
 -1      1783 1.00160E-04-1.95643E-05-3.42193E-05-1.88690E-05-2.57384E-18 3.69179E-18
 -1      1784 9.53162E-05-2.72873E-05-2.91868E-05 4.06637E-06 2.08381E-18 4.35356E-18
 -1      1785 9.77465E-05-2.73924E-05-3.01958E-05 6.40039E-06 2.14908E-18 5.06261E-18
 -1      1786 9.75809E-05-2.56162E-05-3.08340E-05 8.75930E-06 2.65990E-18 3.46147E-18
 -1      1787 9.98191E-05-2.25430E-05-3.28373E-05-1.44673E-05-2.76556E-18 2.59007E-18
 -1      1788 9.69622E-05-2.69786E-05-2.98783E-05-5.70310E-06-2.25014E-18 2.18157E-18
 -1      1789 9.51552E-05-2.70355E-05-2.91675E-05-3.89539E-06-1.94021E-18 1.64054E-18
 -1      1790 9.43406E-05-2.72409E-05-2.86601E-05-2.42166E-06-1.69156E-18 1.52461E-18
 -1      1791 9.35671E-05-2.73195E-05-2.83552E-05-1.57199E-06-1.49470E-18 1.07523E-18
 -1      1792 9.55120E-05-2.65562E-05-2.95760E-05-4.47011E-06-2.16700E-18 4.99979E-19
 -1      1793 9.30390E-05-2.73663E-05-2.80866E-05-7.43143E-07-1.25870E-18 9.54097E-19
 -1      1794 9.27377E-05-2.74306E-05-2.79643E-05-3.04674E-07-9.86403E-19 5.29892E-19
 -1      1795 9.42999E-05-2.72256E-05-2.87681E-05-1.83202E-06-1.64034E-18 1.79144E-19
 -1      1796 9.24618E-05-2.74588E-05-2.78278E-05 1.49944E-07-8.13365E-19 5.53715E-19
 -1      1797 9.24297E-05-2.75349E-05-2.77975E-05 3.73363E-07-7.52485E-19 3.47949E-19
 -1      1798 9.35967E-05-2.75278E-05-2.83317E-05-3.65132E-07-1.12860E-18-1.55905E-19
 -1      1799 9.23252E-05-2.75660E-05-2.77389E-05 6.11944E-07-8.31407E-19 3.91868E-19
 -1      1800 9.24387E-05-2.76507E-05-2.77577E-05 7.14951E-07-6.46758E-19 4.62286E-20
 -1      1801 9.32744E-05-2.77133E-05-2.81098E-05 4.34892E-07-9.43289E-19-2.52024E-19
 -1      1802 9.24426E-05-2.76883E-05-2.77453E-05 8.24784E-07-6.19282E-19 2.14885E-20
 -1      1803 9.26283E-05-2.77744E-05-2.77894E-05 8.57399E-07-6.53985E-19-1.27894E-19
 -1      1804 9.32084E-05-2.78555E-05-2.80166E-05 8.43660E-07-8.47244E-19-4.83845E-19
 -1      1805 9.26953E-05-2.78154E-05-2.78037E-05 8.89469E-07-7.02910E-19-1.51831E-19
 -1      1806 9.29090E-05-2.78974E-05-2.78592E-05 8.80856E-07-6.85287E-19-1.87967E-19
 -1      1807 9.33000E-05-2.79782E-05-2.80001E-05 1.01632E-06-7.78297E-19-4.23025E-19
 -1      1808 9.30082E-05-2.79383E-05-2.78877E-05 8.66947E-07-8.60352E-19-1.80929E-19
 -1      1809 9.32234E-05-2.80125E-05-2.79460E-05 8.35332E-07-7.11279E-19-4.51613E-19
 -1      1810 9.34786E-05-2.80863E-05-2.80281E-05 1.04666E-06-8.62782E-19-3.76433E-19
 -1      1811 9.33350E-05-2.80508E-05-2.79809E-05 7.95981E-07-8.18055E-19-6.58506E-19
 -1      1812 9.35369E-05-2.81156E-05-2.80371E-05 7.53168E-07-7.76553E-19-1.05217E-18
 -1      1813 9.36966E-05-2.81802E-05-2.80797E-05 9.94215E-07-1.07832E-18-7.30388E-19
 -1      1814 9.36487E-05-2.81499E-05-2.80735E-05 7.01914E-07-7.16441E-19-1.26508E-18
 -1      1815 9.38295E-05-2.82047E-05-2.81248E-05 6.55657E-07-6.45771E-19-1.65637E-18
 -1      1816 9.39236E-05-2.82600E-05-2.81419E-05 8.97896E-07-9.23061E-19-9.09632E-19
 -1      1817 9.39346E-05-2.82343E-05-2.81600E-05 6.01501E-07-5.62725E-19-1.67245E-18
 -1      1818 9.40918E-05-2.82797E-05-2.82053E-05 5.56917E-07-3.78001E-19-1.69291E-18
 -1      1819 9.41420E-05-2.83261E-05-2.82066E-05 7.83515E-07-6.31348E-19-1.13163E-18
 -1      1820 9.41872E-05-2.83047E-05-2.82380E-05 5.05873E-07-1.79194E-19-1.86921E-18
 -1      1821 9.43214E-05-2.83415E-05-2.82772E-05 4.66356E-07 9.80147E-20-1.42207E-18
 -1      1822 9.43424E-05-2.83796E-05-2.82693E-05 6.68319E-07-3.98658E-19-1.07022E-18
 -1      1823 9.44067E-05-2.83623E-05-2.83071E-05 4.22506E-07-1.57996E-19-1.36707E-18
 -1      1824 9.45208E-05-2.83919E-05-2.83410E-05 3.90379E-07-2.10688E-19-1.30278E-18
 -1      1825 9.45219E-05-2.84218E-05-2.83281E-05 5.63944E-07-8.41111E-20-9.68358E-19
 -1      1826 9.45975E-05-2.84093E-05-2.83683E-05 3.56630E-07-1.75714E-19-1.53691E-18
 -1      1827 9.46963E-05-2.84334E-05-2.83981E-05 3.33625E-07-1.67145E-19-1.41058E-18
 -1      1828 9.46818E-05-2.84548E-05-2.83826E-05 4.78463E-07-2.44483E-19-1.34325E-18
 -1      1829 9.47670E-05-2.84482E-05-2.84238E-05 3.12280E-07-2.50175E-19-1.41677E-18
 -1      1830 9.48564E-05-2.84686E-05-2.84511E-05 2.99902E-07-2.50615E-20-1.39664E-18
 -1      1831 9.48266E-05-2.84804E-05-2.84339E-05 4.17899E-07-1.37588E-19-1.29769E-18
 -1      1832 9.49254E-05-2.84821E-05-2.84766E-05 2.93098E-07-2.34272E-19-1.66069E-18
 -1      1833 9.50123E-05-2.85008E-05-2.85036E-05 2.92914E-07-4.46562E-19-1.77113E-18
 -1      1834 9.49632E-05-2.85010E-05-2.84840E-05 3.87358E-07-2.61457E-19-1.43917E-18
 -1      1835 9.50845E-05-2.85142E-05-2.85304E-05 3.02952E-07-4.08764E-19-1.87467E-18
 -1      1836 9.51772E-05-2.85334E-05-2.85594E-05 3.16812E-07-4.66794E-19-1.91621E-18
 -1      1837 9.51007E-05-2.85189E-05-2.85357E-05 3.91906E-07-4.37623E-19-1.67503E-18
 -1      1838 9.52586E-05-2.85483E-05-2.85899E-05 3.46413E-07-6.60733E-19-1.80156E-18
 -1      1839 9.53668E-05-2.85707E-05-2.86237E-05 3.76616E-07-4.71817E-19-2.09793E-18
 -1      1840 9.52501E-05-2.85366E-05-2.85926E-05 4.37227E-07-6.81959E-19-1.56967E-18
 -1      1841 9.54646E-05-2.85887E-05-2.86602E-05 4.29097E-07-2.25191E-19-1.96929E-18
 -1      1842 9.55995E-05-2.86175E-05-2.87022E-05 4.78497E-07 5.77978E-20-2.11605E-18
 -1      1843 9.54242E-05-2.85572E-05-2.86590E-05 5.30103E-07-2.37280E-19-1.55299E-18
 -1      1844 9.57219E-05-2.86407E-05-2.87475E-05 5.57855E-07 3.51527E-19-2.13759E-18
 -1      1845 9.58967E-05-2.86793E-05-2.88015E-05 6.29903E-07 9.43002E-20-2.17136E-18
 -1      1846 9.56385E-05-2.85842E-05-2.87400E-05 6.78700E-07 9.15958E-20-1.61431E-18
 -1      1847 9.60531E-05-2.87103E-05-2.88589E-05 7.40782E-07-1.16178E-19-1.68993E-18
 -1      1848 9.62831E-05-2.87632E-05-2.89294E-05 8.39446E-07 1.90315E-19-1.65291E-18
 -1      1849 9.59104E-05-2.86217E-05-2.88412E-05 8.92629E-07 2.60126E-19-1.48113E-18
 -1      1850 9.64843E-05-2.88049E-05-2.90025E-05 9.86928E-07-2.34421E-19-1.66323E-18
 -1      1851 9.67872E-05-2.88773E-05-2.90945E-05 1.11644E-06-1.85523E-19-1.45260E-18
 -1      1852 9.62602E-05-2.86751E-05-2.89691E-05 1.18265E-06 4.51827E-20-1.46935E-18
 -1      1853 9.70452E-05-2.89333E-05-2.91872E-05 1.30553E-06-2.42616E-19-1.32175E-18
 -1      1854 9.74407E-05-2.90317E-05-2.93062E-05 1.46981E-06-2.50600E-19-1.35925E-18
 -1      1855 9.67107E-05-2.87512E-05-2.91305E-05 1.55988E-06-7.81131E-20-1.25500E-18
 -1      1856 9.77685E-05-2.91066E-05-2.94224E-05 1.70445E-06 2.29270E-20-1.18032E-18
 -1      1857 9.82779E-05-2.92384E-05-2.95742E-05 1.90606E-06 8.04400E-20-1.38485E-18
 -1      1858 9.72872E-05-2.88588E-05-2.93323E-05 2.03409E-06-9.21041E-20-1.23847E-18
 -1      1859 9.86891E-05-2.93380E-05-2.97174E-05 2.18735E-06 2.53787E-20-1.37270E-18
 -1      1860 9.93335E-05-2.95125E-05-2.99074E-05 2.42552E-06-1.48160E-19-1.51644E-18
 -1      1861 9.80169E-05-2.90101E-05-2.95811E-05 2.61069E-06-2.13545E-20-1.36185E-18
 -1      1862 9.98414E-05-2.96442E-05-3.00798E-05 2.74871E-06-5.52310E-19-1.66733E-18
 -1      1863 1.00639E-04-2.98718E-05-3.03121E-05 3.01606E-06-5.37601E-19-1.96629E-18
 -1      1864 9.89278E-05-2.92220E-05-2.98815E-05 3.28547E-06-3.91812E-19-1.20554E-18
 -1      1865 1.01256E-04-3.00462E-05-3.05140E-05 3.36567E-06-2.30550E-19-1.84320E-18
 -1      1866 1.02216E-04-3.03388E-05-3.07892E-05 3.64295E-06 4.45801E-20-1.37847E-18
 -1      1867 1.00048E-04-2.95191E-05-3.02349E-05 4.03602E-06-4.54635E-19-1.65714E-18
 -1      1868 1.02952E-04-3.05700E-05-3.10171E-05 3.98532E-06 3.38311E-19-1.47604E-18
 -1      1869 1.04068E-04-3.09399E-05-3.13300E-05 4.23360E-06 1.11589E-19-1.13725E-18
 -1      1870 1.01402E-04-2.99368E-05-3.06366E-05 4.80850E-06 1.50969E-19-8.72624E-19
 -1      1871 1.04928E-04-3.12477E-05-3.15748E-05 4.50655E-06-2.35297E-19-8.73424E-19
 -1      1872 1.06163E-04-3.17047E-05-3.19104E-05 4.65712E-06-1.84046E-19-6.10886E-19
 -1      1873 1.03010E-04-3.05261E-05-3.10735E-05 5.49858E-06 3.04413E-19-6.28258E-19
 -1      1874 1.07145E-04-3.21135E-05-3.21558E-05 4.75770E-06-1.01724E-18-7.11562E-19
 -1      1875 1.08417E-04-3.26584E-05-3.24847E-05 4.70244E-06-1.06099E-18-8.14336E-19
 -1      1876 1.04881E-04-3.13541E-05-3.15206E-05 5.92740E-06-6.46303E-19 1.22646E-19
 -1      1877 1.09505E-04-3.31915E-05-3.27068E-05 4.47777E-06-6.49324E-19-1.02178E-18
 -1      1878 1.10662E-04-3.38003E-05-3.29822E-05 4.06841E-06 2.52475E-19-8.09002E-19
 -1      1879 1.07004E-04-3.24949E-05-3.19412E-05 5.81856E-06-7.17576E-19 5.53768E-19
 -1      1880 1.11809E-04-3.44591E-05-3.31522E-05 3.32276E-06 2.41801E-19-1.62431E-18
 -1      1881 1.12618E-04-3.50540E-05-3.33118E-05 2.39735E-06 2.37388E-19-1.46572E-18
 -1      1882 1.09321E-04-3.39908E-05-3.22905E-05 4.79463E-06-2.93116E-19-2.22374E-19
 -1      1883 1.13706E-04-3.57724E-05-3.34047E-05 9.43131E-07-3.52710E-21-1.86917E-18
 -1      1884 1.13856E-04-3.61795E-05-3.33832E-05-5.92609E-07-1.67765E-19-2.25987E-18
 -1      1885 1.11664E-04-3.57579E-05-3.25303E-05 2.43410E-06-2.26585E-19-1.70057E-18
 -1      1886 1.14643E-04-3.67541E-05-3.33921E-05-2.80090E-06-3.25181E-20-2.50122E-18
 -1      1887 1.13805E-04-3.66776E-05-3.31475E-05-4.81967E-06-2.32193E-19-2.09056E-18
 -1      1888 1.13656E-04-3.74252E-05-3.26537E-05-1.54066E-06-2.04817E-19-1.57268E-18
 -1      1889 1.13895E-04-3.67288E-05-3.30966E-05-7.45397E-06-2.13406E-19-1.51862E-18
 -1      1890 1.11884E-04-3.58272E-05-3.26475E-05-9.42687E-06 1.07686E-19-1.91324E-18
 -1      1891 1.14613E-04-3.81921E-05-3.27084E-05-6.87960E-06-2.67808E-20-1.07648E-18
 -1      1892 1.10866E-04-3.49394E-05-3.25903E-05-1.15673E-05 1.63061E-18-2.76129E-18
 -1      1893 1.07899E-04-3.31139E-05-3.20308E-05-1.25583E-05 1.37886E-18-1.96807E-18
 -1      1894 1.13635E-04-3.69564E-05-3.27960E-05-1.22886E-05 8.81606E-19-9.29324E-19
 -1      1895 1.05808E-04-3.12872E-05-3.20007E-05-1.28848E-05 6.65133E-19-1.48642E-18
 -1      1896 1.02674E-04-2.90524E-05-3.14736E-05-1.19994E-05 8.89477E-19-8.84819E-19
 -1      1897 1.10284E-04-3.32115E-05-3.29939E-05-1.52741E-05 1.47904E-18-1.53740E-18
 -1      1898 1.00404E-04-2.71202E-05-3.14423E-05-9.67185E-06 1.00057E-18-5.19205E-20
 -1      1899 9.82850E-05-2.56245E-05-3.10726E-05-6.88203E-06 6.31648E-19 4.01527E-19
 -1      1900 1.05523E-04-2.80863E-05-3.32276E-05-1.32466E-05 1.43401E-18-1.49143E-18
 -1      1901 9.72649E-05-2.49353E-05-3.09633E-05-2.76143E-06-4.86409E-19 4.90644E-19
 -1      1902 9.69418E-05-2.50386E-05-3.08156E-05 6.09951E-07-4.81591E-19 4.71758E-19
 -1      1903 1.01974E-04-2.46204E-05-3.32685E-05-5.99097E-06 3.80728E-19 7.58194E-21
 -1      1904 9.76631E-05-2.60457E-05-3.06027E-05 4.31245E-06-3.59168E-19-3.11632E-19
 -1      1905 9.89607E-05-2.75509E-05-3.06628E-05 6.49791E-06 4.44017E-19-3.73171E-19
 -1      1906 1.01739E-04-2.51413E-05-3.29324E-05 2.93284E-06-4.28069E-19-3.88439E-19
 -1      1907 1.00446E-04-2.93246E-05-3.04062E-05 7.87723E-06 1.40928E-18-7.66631E-19
 -1      1908 1.02340E-04-3.11114E-05-3.05918E-05 8.04163E-06 7.49100E-19-1.93296E-19
 -1      1909 1.04295E-04-2.90351E-05-3.22679E-05 8.55732E-06 2.76603E-19-9.53667E-19
 -1      1910 1.03266E-04-3.23863E-05-3.03703E-05 6.96377E-06-7.65791E-19 1.31323E-19
 -1      1911 1.04680E-04-3.34690E-05-3.05553E-05 5.55774E-06 2.81698E-19 7.57896E-20
 -1      1912 1.07061E-04-3.33571E-05-3.15315E-05 8.66515E-06 2.08725E-19-1.57586E-18
 -1      1913 1.04436E-04-3.36618E-05-3.03897E-05 3.24648E-06 9.17754E-19-7.35893E-19
 -1      1914 1.04838E-04-3.37689E-05-3.04625E-05 1.36211E-06 1.31240E-18-4.35818E-19
 -1      1915 1.07896E-04-3.55855E-05-3.09358E-05 4.68473E-06-3.91160E-19-9.01121E-19
 -1      1916 1.03671E-04-3.31122E-05-3.03209E-05-8.21880E-07 2.78859E-20-5.66891E-19
 -1      1917 1.03119E-04-3.25004E-05-3.02443E-05-2.27542E-06-9.74578E-19-1.16514E-18
 -1      1918 1.06439E-04-3.51536E-05-3.05225E-05-3.46683E-07 2.07689E-20-1.34792E-18
 -1      1919 1.01495E-04-3.14222E-05-3.01038E-05-3.53274E-06-8.34572E-19-1.64271E-18
 -1      1920 1.00366E-04-3.04608E-05-2.99243E-05-4.08043E-06-1.16755E-19-1.78156E-18
 -1      1921 1.03507E-04-3.29783E-05-3.02256E-05-4.10247E-06-1.38034E-18-1.27695E-18
 -1      1922 9.88352E-05-2.94546E-05-2.97842E-05-4.07297E-06 4.59271E-19-1.39929E-18
 -1      1923 9.76621E-05-2.85525E-05-2.95670E-05-3.68830E-06 4.87199E-19-1.39741E-18
 -1      1924 9.73193E-05-2.79536E-05-2.97250E-05-4.57028E-06-2.69957E-19-1.18248E-18
 -1      1925 1.00162E-04-3.01439E-05-2.99905E-05-5.42291E-06-3.33782E-19-7.05104E-19
 -1      1926 9.32167E-05-2.73643E-05-2.81946E-05 1.60507E-06 1.70906E-18 3.31236E-18
 -1      1927 9.44113E-05-2.74696E-05-2.86312E-05 2.67593E-06 1.78986E-18 4.04757E-18
 -1      1928 9.52345E-05-2.70486E-05-2.92280E-05 4.05352E-06 2.14313E-18 2.72097E-18
 -1      1929 9.21643E-05-2.73506E-05-2.77528E-05 3.48879E-07 1.06208E-18 2.47177E-18
 -1      1930 9.26589E-05-2.73830E-05-2.79252E-05 8.96745E-07 1.24459E-18 3.01196E-18
 -1      1931 9.36299E-05-2.73697E-05-2.84042E-05 1.58539E-06 1.61498E-18 2.11323E-18
 -1      1932 9.17882E-05-2.73881E-05-2.75844E-05-3.03849E-07 6.44930E-19 2.09835E-18
 -1      1933 9.19036E-05-2.73614E-05-2.76315E-05-1.16610E-08 7.64915E-19 2.31468E-18
 -1      1934 9.27982E-05-2.74846E-05-2.80016E-05 2.73380E-07 1.05339E-18 1.52967E-18
 -1      1935 9.18105E-05-2.74784E-05-2.75608E-05-6.28573E-07 2.12316E-19 1.86271E-18
 -1      1936 9.17233E-05-2.74165E-05-2.75447E-05-4.76238E-07 3.44443E-19 2.06658E-18
 -1      1937 9.24833E-05-2.75774E-05-2.78269E-05-4.19102E-07 5.11024E-19 1.21351E-18
 -1      1938 9.20526E-05-2.75998E-05-2.76156E-05-7.64913E-07 7.29747E-19 1.35890E-18
 -1      1939 9.18629E-05-2.75214E-05-2.75673E-05-6.94337E-07 3.99790E-19 1.65096E-18
 -1      1940 9.24851E-05-2.76823E-05-2.77808E-05-7.62574E-07 5.00940E-19 7.23594E-19
 -1      1941 9.24024E-05-2.77332E-05-2.77103E-05-7.90525E-07 7.09398E-19 9.26473E-19
 -1      1942 9.21688E-05-2.76503E-05-2.76475E-05-7.69058E-07 7.23029E-19 1.19729E-18
 -1      1943 9.26674E-05-2.77971E-05-2.78075E-05-9.01593E-07 8.70455E-19 2.55839E-19
 -1      1944 9.27904E-05-2.78651E-05-2.78214E-05-7.52225E-07 6.32258E-19 4.69253E-19
 -1      1945 9.25477E-05-2.77852E-05-2.77544E-05-7.59939E-07 6.91229E-19 7.19679E-19
 -1      1946 9.29411E-05-2.79130E-05-2.78733E-05-9.19726E-07 9.14646E-19-5.41886E-21
 -1      1947 9.31746E-05-2.79876E-05-2.79345E-05-6.79672E-07 1.03078E-19 5.19286E-19
 -1      1948 9.29430E-05-2.79147E-05-2.78696E-05-7.03759E-07 4.17739E-19 5.97616E-19
 -1      1949 9.32495E-05-2.80230E-05-2.79570E-05-8.68427E-07 4.95995E-19 3.98803E-19
 -1      1950 9.35313E-05-2.80965E-05-2.80415E-05-5.92178E-07 4.08112E-19 3.41087E-19
 -1      1951 9.33215E-05-2.80326E-05-2.79821E-05-6.24170E-07 3.86172E-19 3.83582E-19
 -1      1952 9.35579E-05-2.81225E-05-2.80455E-05-7.80719E-07 4.16747E-19 2.51760E-19
 -1      1953 9.38490E-05-2.81900E-05-2.81381E-05-5.02436E-07 5.61970E-19 4.65072E-21
 -1      1954 9.36656E-05-2.81357E-05-2.80857E-05-5.36668E-07 4.04169E-19 1.48987E-19
 -1      1955 9.38464E-05-2.82092E-05-2.81313E-05-6.78262E-07 5.19264E-19-8.16964E-20
 -1      1956 9.41246E-05-2.82686E-05-2.82229E-05-4.18814E-07 7.36740E-19-3.10264E-19
 -1      1957 9.39680E-05-2.82234E-05-2.81777E-05-4.51469E-07 6.66672E-19 1.73371E-19
 -1      1958 9.41056E-05-2.82826E-05-2.82105E-05-5.75383E-07 7.30051E-19-1.69577E-19
 -1      1959 9.43606E-05-2.83338E-05-2.82963E-05-3.46888E-07 2.04244E-19-2.28154E-19
 -1      1960 9.42284E-05-2.82966E-05-2.82578E-05-3.75345E-07 2.55759E-19-2.16088E-19
 -1      1961 9.43330E-05-2.83435E-05-2.82816E-05-4.81625E-07 4.37022E-19-2.37805E-20
 -1      1962 9.45633E-05-2.83878E-05-2.83602E-05-2.90547E-07 1.08929E-20-2.31678E-19
 -1      1963 9.44513E-05-2.83571E-05-2.83272E-05-3.12910E-07 1.97562E-20-3.31658E-19
 -1      1964 9.45311E-05-2.83937E-05-2.83449E-05-4.03490E-07 2.02666E-19-4.45661E-19
 -1      1965 9.47421E-05-2.84337E-05-2.84171E-05-2.52809E-07 3.94354E-19-5.95042E-19
 -1      1966 9.46447E-05-2.84077E-05-2.83880E-05-2.67550E-07 2.69033E-19-3.23219E-19
 -1      1967 9.47057E-05-2.84353E-05-2.84019E-05-3.45701E-07 3.51594E-19-9.91674E-19
 -1      1968 9.49086E-05-2.84749E-05-2.84707E-05-2.36455E-07 1.00846E-18-1.25586E-18
 -1      1969 9.48189E-05-2.84516E-05-2.84435E-05-2.42132E-07 6.26842E-19-7.10744E-19
 -1      1970 9.48655E-05-2.84710E-05-2.84551E-05-3.12145E-07 1.03618E-18-8.70027E-19
 -1      1971 9.50768E-05-2.85154E-05-2.85251E-05-2.44503E-07 6.70472E-19-1.18122E-18
 -1      1972 9.49868E-05-2.84923E-05-2.84975E-05-2.39543E-07 9.72774E-19-1.02696E-18
 -1      1973 9.50214E-05-2.85040E-05-2.85080E-05-3.06588E-07 8.88042E-19-8.13240E-19
 -1      1974 9.52628E-05-2.85597E-05-2.85854E-05-2.80554E-07-8.17770E-20-7.30761E-19
 -1      1975 9.51633E-05-2.85342E-05-2.85546E-05-2.63090E-07-2.17203E-20-9.89724E-19
 -1      1976 9.51862E-05-2.85378E-05-2.85644E-05-3.33212E-07 1.76988E-19-5.36708E-19
 -1      1977 9.54853E-05-2.86131E-05-2.86573E-05-3.49014E-07-2.00152E-19-1.09603E-18
 -1      1978 9.53657E-05-2.85821E-05-2.86202E-05-3.16771E-07 1.75543E-19-5.11454E-19
 -1      1979 9.53751E-05-2.85763E-05-2.86292E-05-3.96971E-07 8.58814E-20-1.54065E-20
 -1      1980 9.57663E-05-2.86819E-05-2.87475E-05-4.55160E-07 2.67238E-19-1.30786E-18
 -1      1981 9.56142E-05-2.86416E-05-2.87005E-05-4.05409E-07-1.15776E-19-1.26649E-18
 -1      1982 9.56059E-05-2.86245E-05-2.87079E-05-5.03782E-07 1.90880E-19-7.31866E-19
 -1      1983 9.61306E-05-2.87731E-05-2.88637E-05-6.04998E-07 4.66655E-19-1.98640E-18
 -1      1984 9.59318E-05-2.87194E-05-2.88025E-05-5.34604E-07 2.09048E-19-1.56862E-18
 -1      1985 9.58987E-05-2.86879E-05-2.88068E-05-6.60487E-07 3.99005E-19-1.08302E-18
 -1      1986 9.66067E-05-2.88954E-05-2.90143E-05-8.04811E-07-1.49341E-19-2.00268E-18
 -1      1987 9.63450E-05-2.88231E-05-2.89343E-05-7.10418E-07 9.01726E-20-1.85860E-18
 -1      1988 9.62767E-05-2.87731E-05-2.89329E-05-8.74497E-07 2.79901E-19-1.34278E-18
 -1      1989 9.72260E-05-2.90586E-05-2.92086E-05-1.06021E-06-1.27792E-18-1.19619E-18
 -1      1990 9.68836E-05-2.89621E-05-2.91047E-05-9.38666E-07-7.66116E-19-1.36187E-18
 -1      1991 9.67656E-05-2.88884E-05-2.90939E-05-1.15295E-06-8.66070E-19-2.59788E-19
 -1      1992 9.80219E-05-2.92741E-05-2.94563E-05-1.37441E-06-1.21725E-18 1.91667E-19
 -1      1993 9.75796E-05-2.91467E-05-2.93230E-05-1.22357E-06-1.70638E-18-9.13479E-19
 -1      1994 9.73935E-05-2.90432E-05-2.92975E-05-1.50115E-06-1.70448E-18 4.74182E-19
 -1      1995 9.90271E-05-2.95544E-05-2.97660E-05-1.74532E-06-2.97878E-19 1.01185E-18
 -1      1996 9.84664E-05-2.93893E-05-2.95985E-05-1.56541E-06-3.30943E-19 5.99721E-19
 -1      1997 9.81892E-05-2.92491E-05-2.95512E-05-1.91982E-06-7.20292E-19 2.51616E-19
 -1      1998 1.00269E-04-2.99129E-05-3.01443E-05-2.16081E-06 6.13495E-19 1.57510E-18
 -1      1999 9.95748E-05-2.97031E-05-2.99387E-05-1.95675E-06 4.53935E-19 1.57898E-18
 -1      2000 9.91798E-05-2.95199E-05-2.98608E-05-2.40064E-06 4.04139E-19 1.30910E-18
 -1      2001 1.01763E-04-3.03628E-05-3.05926E-05-2.59156E-06-2.74078E-20 9.62478E-19
 -1      2002 1.00928E-04-3.01025E-05-3.03480E-05-2.37650E-06 7.20359E-20 1.24725E-18
 -1      2003 1.00387E-04-2.98717E-05-3.02283E-05-2.91944E-06 4.77662E-19 1.28926E-18
 -1      2004 1.03500E-04-3.09148E-05-3.11031E-05-2.98078E-06 8.90371E-19 5.61224E-19
 -1      2005 1.02534E-04-3.06010E-05-3.08238E-05-2.78131E-06 3.80681E-19 5.84162E-19
 -1      2006 1.01820E-04-3.03233E-05-3.06499E-05-3.42612E-06 7.29149E-19 7.88971E-19
 -1      2007 1.05430E-04-3.15731E-05-3.16534E-05-3.23149E-06 4.34690E-19 1.06574E-19
 -1      2008 1.04368E-04-3.12093E-05-3.13522E-05-3.09429E-06 9.30823E-19 7.12768E-19
 -1      2009 1.03468E-04-3.08944E-05-3.11116E-05-3.83155E-06 1.26544E-18 2.12361E-18
 -1      2010 1.07441E-04-3.23277E-05-3.22003E-05-3.19441E-06-4.66399E-19 4.97589E-19
 -1      2011 1.06360E-04-3.19286E-05-3.19024E-05-3.19281E-06 8.45015E-20 5.35593E-19
 -1      2012 1.05283E-04-3.16021E-05-3.15855E-05-3.99311E-06-6.80774E-20 2.10838E-18
 -1      2013 1.09333E-04-3.31392E-05-3.26746E-05-2.66577E-06-2.58560E-20-5.41056E-19
 -1      2014 1.08366E-04-3.27398E-05-3.24211E-05-2.90160E-06-4.91036E-19 1.70221E-19
 -1      2015 1.07166E-04-3.24490E-05-3.20268E-05-3.70558E-06-1.35563E-19 1.03942E-18
 -1      2016 1.10799E-04-3.39147E-05-3.29815E-05-1.41438E-06 2.15242E-19-4.50555E-19
 -1      2017 1.10143E-04-3.35816E-05-3.28294E-05-2.00516E-06 3.98701E-20-4.86812E-19
 -1      2018 1.08940E-04-3.33991E-05-3.23734E-05-2.71266E-06 3.13601E-19-9.09700E-20
 -1      2019 1.11419E-04-3.44731E-05-3.30143E-05 7.30023E-07-2.51913E-19-1.51847E-18
 -1      2020 1.11325E-04-3.43161E-05-3.30289E-05-3.04572E-07 1.98510E-19-4.92381E-19
 -1      2021 1.10322E-04-3.43330E-05-3.25547E-05-7.66751E-07 2.31611E-22-2.23071E-19
 -1      2022 1.10712E-04-3.45218E-05-3.26859E-05 3.69712E-06 1.69730E-18-1.63362E-18
 -1      2023 1.11436E-04-3.46911E-05-3.29214E-05 2.24978E-06 7.73884E-19-1.30722E-18
 -1      2024 1.10909E-04-3.49878E-05-3.25097E-05 2.22553E-06 6.76237E-19-6.49190E-19
 -1      2025 1.08289E-04-3.37093E-05-3.19767E-05 6.94533E-06 1.78044E-18-1.94739E-18
 -1      2026 1.09985E-04-3.43497E-05-3.24455E-05 5.35200E-06 1.60723E-18-1.63791E-18
 -1      2027 1.10222E-04-3.49487E-05-3.22153E-05 5.96166E-06 1.69066E-18-3.35405E-20
 -1      2028 1.04136E-04-3.18228E-05-3.09832E-05 9.35591E-06-1.44435E-18-2.50939E-18
 -1      2029 1.06701E-04-3.29658E-05-3.16244E-05 8.16559E-06 1.38205E-19-3.07031E-18
 -1      2030 1.07885E-04-3.37634E-05-3.17120E-05 9.51614E-06 8.55159E-19-1.18615E-18
 -1      2031 9.89452E-05-2.91135E-05-2.99139E-05 9.52796E-06-5.86974E-19-1.27296E-18
 -1      2032 1.01900E-04-3.05368E-05-3.05932E-05 9.41643E-06-1.05306E-18-1.97850E-18
 -1      2033 1.03989E-04-3.13223E-05-3.11081E-05 1.13816E-05-1.59354E-18-1.60530E-18
 -1      2034 9.42471E-05-2.65447E-05-2.90203E-05 6.70556E-06-9.19481E-19-4.38101E-19
 -1      2035 9.67691E-05-2.77416E-05-2.95689E-05 8.00089E-06-1.06744E-18-1.58582E-18
 -1      2036 9.94717E-05-2.82568E-05-3.05283E-05 1.01077E-05-8.95023E-19-9.72804E-19
 -1      2037 9.17621E-05-2.53387E-05-2.85003E-05 1.71422E-06-5.38726E-19 1.76236E-19
 -1      2038 9.30394E-05-2.57836E-05-2.87847E-05 3.98433E-06-5.11978E-19 4.65484E-19
 -1      2039 9.59938E-05-2.59402E-05-3.00684E-05 5.53946E-06-1.23781E-18-6.50058E-19
 -1      2040 9.22647E-05-2.60524E-05-2.84157E-05-3.19122E-06-7.40168E-19 1.17612E-18
 -1      2041 9.19846E-05-2.56014E-05-2.83985E-05-1.00503E-06-5.23466E-19 6.21180E-20
 -1      2042 9.49459E-05-2.55778E-05-2.97715E-05-5.28397E-07-5.84691E-19 1.26442E-18
 -1      2043 9.49138E-05-2.80273E-05-2.86809E-05-5.83785E-06-1.09822E-18 2.37054E-18
 -1      2044 9.34927E-05-2.70502E-05-2.84354E-05-4.67798E-06-4.89784E-19 2.24035E-18
 -1      2045 9.63524E-05-2.72005E-05-2.96398E-05-5.26013E-06-1.02557E-18 3.93805E-18
 -1      2046 9.79481E-05-3.00179E-05-2.90969E-05-5.56036E-06 1.04403E-18 3.42784E-19
 -1      2047 9.62340E-05-2.90752E-05-2.87717E-05-5.67493E-06-1.58112E-19 1.23471E-18
 -1      2048 9.88693E-05-2.96384E-05-2.96428E-05-6.79763E-06 8.83426E-19 2.33379E-18
 -1      2049 9.98786E-05-3.11014E-05-2.94403E-05-3.25945E-06 1.00586E-18 1.02138E-18
 -1      2050 9.86348E-05-3.05811E-05-2.91847E-05-4.23236E-06 1.03689E-18 5.55137E-19
 -1      2051 1.00870E-04-3.15026E-05-2.97020E-05-5.25989E-06 8.38622E-19 1.49847E-18
 -1      2052 1.00148E-04-3.10577E-05-2.95703E-05-4.97551E-07-8.91787E-19 2.18176E-18
 -1      2053 9.97195E-05-3.10410E-05-2.94667E-05-1.64987E-06-3.96292E-19 1.73200E-18
 -1      2054 1.01429E-04-3.20528E-05-2.97240E-05-2.16780E-06-6.87903E-19 3.19530E-18
 -1      2055 9.90665E-05-3.02113E-05-2.94747E-05 1.43084E-06 1.38195E-19 2.04374E-18
 -1      2056 9.93546E-05-3.05491E-05-2.95176E-05 6.54551E-07 1.15779E-19 1.75356E-18
 -1      2057 1.00534E-04-3.13617E-05-2.96506E-05 7.25902E-07 3.49864E-20 1.51687E-18
 -1      2058 9.73464E-05-2.90557E-05-2.92407E-05 1.90409E-06-6.06950E-19 2.08684E-18
 -1      2059 9.80090E-05-2.95308E-05-2.93651E-05 1.79234E-06-2.83169E-19 1.85427E-18
 -1      2060 9.87439E-05-2.99925E-05-2.94792E-05 2.27480E-06-3.93665E-19 1.73487E-18
 -1      2061 9.60513E-05-2.82795E-05-2.90212E-05 1.38462E-06 2.00333E-19 3.29326E-18
 -1      2062 9.67134E-05-2.86832E-05-2.91667E-05 1.77412E-06-1.56593E-19 3.12733E-18
 -1      2063 9.71445E-05-2.88255E-05-2.92999E-05 2.38212E-06-2.86850E-19 3.63667E-18
 -1      2064 9.59881E-05-2.79103E-05-2.91536E-05 1.81025E-06 4.25422E-19 5.57656E-18
 -1      2065 9.47612E-05-2.13949E-05-3.13994E-05 9.93412E-06 7.06386E-19-4.21472E-19
 -1      2066 9.56033E-05-2.37730E-05-3.07618E-05 8.51993E-06 4.02192E-20 1.56507E-18
 -1      2067 9.58721E-05-2.48413E-05-3.03828E-05 6.69359E-06 4.35324E-19 1.19199E-18
 -1      2068 9.62485E-05-2.64083E-05-2.99163E-05 5.30238E-06 4.89974E-19 1.34254E-18
 -1      2069 9.72066E-05-2.62553E-05-3.04511E-05 9.35095E-06-1.25376E-18 8.21523E-19
 -1      2070 9.60563E-05-2.67079E-05-2.96679E-05 3.89371E-06-7.63372E-20 2.25189E-18
 -1      2071 9.61555E-05-2.76116E-05-2.93569E-05 2.80830E-06-7.12911E-19 5.07480E-18
 -1      2072 9.67288E-05-2.80331E-05-2.94357E-05 3.24618E-06-7.13359E-19 3.85576E-18
 -1      2073 9.72839E-05-2.75583E-05-2.98838E-05 5.83198E-06-1.68659E-18 2.50435E-18
 -1      2074 9.25442E-05-1.66120E-05-3.25522E-05 1.24015E-05 9.73823E-20-4.92282E-18
 -1      2075 9.39347E-05-1.96162E-05-3.18193E-05 1.15118E-05 7.62072E-19-3.21653E-18
 -1      2076 9.59240E-05-2.33720E-05-3.11431E-05 1.32026E-05-1.01579E-18-2.53906E-18
 -1      2077 8.92741E-05-1.08201E-05-3.36976E-05 1.27978E-05 1.92867E-18 9.65154E-20
 -1      2078 9.10919E-05-1.41050E-05-3.29643E-05 1.30017E-05 1.43368E-18-1.99319E-18
 -1      2079 9.30798E-05-1.89243E-05-3.18158E-05 1.57336E-05 3.99879E-19-1.99574E-18
 -1      2080 8.57846E-05-5.32765E-06-3.46000E-05 9.97644E-06 1.53795E-18 1.57397E-18
 -1      2081 8.74984E-05-8.08152E-06-3.40272E-05 1.16562E-05 2.42057E-18 2.00369E-18
 -1      2082 8.89422E-05-1.33849E-05-3.23668E-05 1.52417E-05 1.22408E-18 2.12496E-18
 -1      2083 8.34374E-05-1.85735E-06-3.50794E-05 4.05731E-06 1.69513E-18 1.92766E-18
 -1      2084 8.43680E-05-3.26126E-06-3.47996E-05 6.95164E-06 5.59737E-19 1.21720E-18
 -1      2085 8.48284E-05-8.25927E-06-3.27267E-05 1.06062E-05 6.45267E-19 1.82906E-18
 -1      2086 8.33650E-05-1.76975E-06-3.50436E-05-3.26469E-06 1.41141E-18-5.18940E-19
 -1      2087 8.30806E-05-1.34661E-06-3.51259E-05-6.12271E-08 1.83137E-18 1.02279E-18
 -1      2088 8.25385E-05-5.49116E-06-3.28854E-05 2.51109E-06 5.93902E-19 1.15286E-18
 -1      2089 8.56208E-05-5.16168E-06-3.45047E-05-9.46914E-06-4.11221E-19-5.00272E-18
 -1      2090 8.42662E-05-3.05750E-06-3.49301E-05-7.04467E-06 4.46171E-19-1.38078E-18
 -1      2091 8.32320E-05-6.32361E-06-3.28469E-05-6.46841E-06-4.35479E-19-1.91377E-18
 -1      2092 8.90584E-05-1.06394E-05-3.35911E-05-1.26777E-05 1.93699E-19-5.44302E-18
 -1      2093 8.72563E-05-7.59293E-06-3.42462E-05-1.16648E-05 3.23421E-19-6.21414E-18
 -1      2094 8.65196E-05-1.03212E-05-3.26049E-05-1.31885E-05-3.93784E-19-5.13485E-18
 -1      2095 9.24258E-05-1.66204E-05-3.24561E-05-1.26964E-05 2.71348E-18 2.70102E-18
 -1      2096 9.07464E-05-1.33485E-05-3.32163E-05-1.30228E-05 1.99839E-18-1.13630E-18
 -1      2097 9.07775E-05-1.57783E-05-3.21555E-05-1.59594E-05 1.61035E-18-2.45197E-18
 -1      2098 9.47953E-05-2.16500E-05-3.13175E-05-1.04093E-05 2.54738E-18 1.22824E-18
 -1      2099 9.36158E-05-1.88372E-05-3.20306E-05-1.15962E-05 3.11807E-18 9.44683E-19
 -1      2100 9.44342E-05-2.09436E-05-3.15386E-05-1.49899E-05 3.23000E-18 2.01209E-18
 -1      2101 9.60322E-05-2.51759E-05-3.03489E-05-7.18244E-06 2.24952E-19 4.67145E-19
 -1      2102 9.53430E-05-2.31136E-05-3.09101E-05-8.65954E-06 9.01309E-19 1.57973E-18
 -1      2103 9.66255E-05-2.47392E-05-3.08510E-05-1.17144E-05 1.97857E-18 1.43784E-19
 -1      2104 6.41676E-05-4.57817E-05-8.30070E-06 4.42618E-05-1.26250E-18 6.61819E-18
 -1      2105 4.88595E-05-4.73871E-05-1.91693E-06 3.71224E-05-2.45936E-18 5.60715E-18
 -1      2106 1.47380E-05-3.94210E-05 8.98810E-06 5.87244E-06-1.46293E-18 5.77253E-19
 -1      2107 1.45489E-05-3.81862E-05 8.72928E-06-6.00582E-06-1.86051E-18 7.58942E-19
 -1      2108 2.86528E-05-4.07799E-05 4.02385E-06 2.84757E-05-3.52789E-19 2.16523E-18
 -1      2109 2.03719E-05-4.36021E-05 8.08792E-06 1.76007E-05-9.32160E-19-8.19928E-19
 -1      2110 1.01587E-04-4.96272E-05-2.22371E-05 4.66892E-05-3.21025E-19 3.80932E-18
 -1      2111 8.10230E-05-5.11994E-05-1.38877E-05 4.21009E-05-1.29173E-18 4.44586E-18
 -1      2112 8.62370E-05-5.44825E-05-1.36723E-05 4.76275E-05-3.10861E-18 5.13519E-18
 -1      2113 1.39647E-04-4.44049E-05-4.00143E-05 4.01324E-05 1.92742E-18 5.18554E-18
 -1      2114 1.20045E-04-4.82818E-05-3.12207E-05 3.79185E-05 1.28241E-18 3.71127E-18
 -1      2115 8.72458E-05-8.72230E-06-3.37487E-05-1.05396E-05-1.92447E-18-3.27902E-18
 -1      2116 8.79542E-05-9.24255E-06-3.38211E-05-1.20952E-05-2.31365E-18-2.76192E-18
 -1      2117 9.04898E-05-1.30525E-05-3.32359E-05-1.18765E-05-2.49901E-18-2.27288E-18
 -1      2118 8.86848E-05-1.10560E-05-3.32945E-05-9.41449E-06-1.93346E-18-3.18265E-18
 -1      2119 1.77593E-04-2.77505E-05-6.35571E-05 1.04945E-05 4.79675E-18 1.95368E-18
 -1      2120 1.72155E-04-3.13848E-05-5.93361E-05 1.92801E-05 4.32982E-18 3.77099E-18
 -1      2121 1.90716E-04-2.52473E-05-6.90050E-05 3.25433E-06 3.90313E-18 2.86588E-18
 -1      2122 1.79680E-04-2.15035E-05-6.68971E-05 8.60413E-06 4.20510E-18 2.27195E-18
 -1      2123 1.79632E-04-2.56894E-05-6.52168E-05-5.66216E-06 3.74431E-18 2.90575E-18
 -1      2124 1.90117E-04-2.70405E-05-6.83233E-05-1.42271E-07 4.62226E-18 4.00742E-18
 -1      2125 1.65523E-04-1.39048E-05-6.37732E-05 4.07029E-06 3.98953E-18 4.01907E-18
 -1      2126 1.63624E-04-3.52381E-05-5.47384E-05-1.55347E-05 2.43967E-18 7.26754E-19
 -1      2127 1.76257E-04-3.27783E-05-6.05257E-05-9.46696E-06 1.87364E-18 1.30485E-18
 -1      2128 1.38962E-04-4.45810E-05-4.07316E-05-2.55011E-05 3.31359E-18 8.34327E-19
 -1      2129 1.57711E-04-4.22234E-05-4.87092E-05-2.40388E-05 2.39499E-18 4.83656E-19
 -1      2130 1.01988E-04-4.80139E-05-2.39447E-05-3.61547E-05 1.66484E-18-1.51831E-18
 -1      2131 1.23639E-04-4.68529E-05-3.26881E-05-3.74380E-05 3.04932E-18 4.29869E-19
 -1      2132 6.30362E-05-4.69148E-05-8.31359E-06-3.58711E-05 4.18011E-19-3.73838E-18
 -1      2133 8.19723E-05-4.48229E-05-1.61953E-05-4.21401E-05 1.59369E-18-3.36441E-18
 -1      2134 3.29049E-05-4.41587E-05 3.19461E-06-2.69155E-05 4.87044E-19-2.56736E-18
 -1      2135 4.49088E-05-4.15762E-05-2.26149E-06-3.47315E-05 8.03834E-19-3.44689E-18
 -1      2136 1.49357E-05-3.85744E-05 8.78484E-06-1.18725E-05 1.27796E-19-1.82281E-18
 -1      2137 2.12069E-05-3.97671E-05 6.63177E-06-2.02758E-05 1.11385E-19-1.63054E-18
 -1      2138 1.47487E-05-3.94113E-05 9.10459E-06 1.04562E-05-7.03037E-19-1.65129E-18
 -1      2139 1.18547E-05-3.73284E-05 9.63322E-06 1.30443E-06 2.97441E-19-2.28445E-18
 -1      2140 3.23092E-05-4.02501E-05 2.45234E-06 2.82388E-05-1.16891E-18-3.61895E-18
 -1      2141 2.31986E-05-4.19327E-05 6.51626E-06 1.99540E-05-5.16478E-19-2.62072E-18
 -1      2142 6.28637E-05-4.37711E-05-8.77772E-06 3.87491E-05-2.10911E-18-1.75188E-18
 -1      2143 4.75771E-05-4.61786E-05-2.15218E-06 3.18111E-05-1.54329E-18-2.45888E-18
 -1      2144 1.04825E-04-4.94941E-05-2.39554E-05 3.96560E-05-1.80249E-18-2.99638E-19
 -1      2145 8.17156E-05-4.86099E-05-1.53130E-05 3.64927E-05-2.30012E-18-1.40692E-18
 -1      2146 8.48048E-05-5.30858E-05-1.37695E-05 4.07617E-05-4.56551E-19-1.01300E-18
 -1      2147 1.46208E-04-4.88406E-05-4.13203E-05 2.55623E-05-2.61733E-18 2.85281E-18
 -1      2148 1.26528E-04-5.13426E-05-3.25783E-05 2.76013E-05-2.02399E-18 1.13121E-18
 -1      2149 1.73305E-04-3.71286E-05-5.70127E-05 1.51224E-05-2.33082E-18 1.84653E-18
 -1      2150 1.55233E-04-3.98935E-05-4.94773E-05 1.60901E-05-2.49877E-18 1.84696E-18
 -1      2151 1.88754E-04-2.99266E-05-6.66102E-05 4.13406E-06-1.58014E-18 6.88638E-19
 -1      2152 1.77011E-04-3.02509E-05-6.22384E-05 9.91272E-06-2.08455E-18 6.02664E-19
 -1      2153 1.83077E-04-2.25135E-05-6.79575E-05-6.59952E-06-2.42336E-18 3.25049E-20
 -1      2154 1.86377E-04-2.50455E-05-6.78538E-05 9.12524E-08-1.99392E-18 6.35275E-21
 -1      2155 1.78378E-04-2.78453E-05-6.36734E-05-1.51714E-05-1.43022E-18 8.03834E-19
 -1      2156 1.84529E-04-2.58132E-05-6.69264E-05-8.64045E-06-1.96300E-18-1.36161E-19
 -1      2157 1.59906E-04-3.75008E-05-5.22134E-05-2.28326E-05-1.33230E-18 1.80757E-18
 -1      2158 1.75491E-04-3.49799E-05-5.90287E-05-1.99842E-05-1.11766E-18 1.97443E-18
 -1      2159 1.28709E-04-4.65916E-05-3.55325E-05-3.62065E-05-3.39830E-18 4.83656E-19
 -1      2160 1.50561E-04-4.43691E-05-4.48089E-05-3.49123E-05-2.46910E-18 4.37069E-19
 -1      2161 9.14377E-05-5.19597E-05-1.78485E-05-4.15563E-05-3.00188E-18 2.11716E-18
 -1      2162 1.13208E-04-4.94545E-05-2.70996E-05-4.55427E-05-3.67273E-18 5.06102E-19
 -1      2163 4.92242E-05-4.84624E-05-2.01018E-06-3.58179E-05-1.46537E-18 6.50902E-18
 -1      2164 6.68120E-05-4.55832E-05-9.67938E-06-4.48634E-05-1.91429E-18 5.53361E-18
 -1      2165 2.13521E-05-4.37079E-05 7.74387E-06-1.93556E-05-1.98417E-18 2.57074E-18
 -1      2166 3.10138E-05-4.28686E-05 3.66022E-06-2.93381E-05-2.70881E-18 5.96968E-18
 -1      2167 1.66651E-04-3.87569E-05-5.38362E-05 2.73252E-05 2.64715E-18 5.89535E-18
 -1      2168 1.49710E-04-4.04270E-05-4.66973E-05 3.09483E-05 2.30001E-18 5.63277E-18
 -1      2169 1.22572E-04-5.96719E-05-2.68906E-05 3.86028E-05-2.19339E-18 2.76175E-18
 -1      2170 9.71921E-05-2.43152E-05-3.13062E-05-1.00027E-05-2.68486E-18 1.92638E-18
 -1      2171 1.62413E-04-3.61259E-05-5.31450E-05 8.17334E-06 3.00453E-18 1.95453E-18
 -1      2172 9.63496E-05-2.31048E-05-3.14561E-05-1.03865E-05-2.84855E-18 4.78468E-19
 -1      2173 4.71831E-05-4.12476E-05-2.95956E-06 4.03952E-05-1.83721E-18 3.47008E-18
 -1      2174 2.04566E-05-3.02487E-05 3.46023E-06 1.49555E-05-2.06157E-18 5.84876E-19
 -1      2175 9.65874E-05-2.63671E-05-3.00635E-05-6.48101E-06 1.15660E-19 2.24821E-19
 -1      2176 2.10967E-05-3.13035E-05 3.59866E-06-1.56981E-05-2.08264E-18 2.31664E-18
 -1      2177 1.50454E-04-5.14795E-05-4.17953E-05 2.20317E-05 3.58930E-20 3.67104E-18
 -1      2178 4.82907E-05-4.30972E-05-2.88451E-06-4.08599E-05-7.76729E-19 4.86197E-18
 -1      2179 9.31494E-05-5.61536E-05-1.58279E-05-4.65081E-05 1.96935E-19 2.01049E-18
 -1      2180 1.32581E-04-5.97749E-05-3.10681E-05-3.36665E-05-1.26335E-18-2.61564E-18
 -1      2181 1.56336E-04-4.70177E-05-4.62131E-05-1.56604E-05-9.17919E-19-1.75759E-19
 -1      2182 1.63984E-04-2.81407E-05-5.72402E-05-2.84904E-06-1.32899E-18-7.54706E-19
 -1      2183 1.64098E-04-1.53070E-05-6.27416E-05-3.06977E-06-1.95919E-18-2.33421E-18
 -1      2184 1.64999E-04-1.67747E-05-6.23199E-05-5.25377E-06-2.13622E-18-1.29533E-18
 -1      2185 1.64567E-04-3.09696E-05-5.63235E-05-2.53051E-06-2.01615E-18 9.67735E-19
 -1      2186 1.25041E-04-5.86570E-05-2.81786E-05 2.88121E-05-3.73753E-19 2.19403E-18
 -1      2187 4.84951E-05-4.22209E-05-3.22907E-06 3.68646E-05 4.39187E-19-2.45449E-18
 -1      2188 2.22021E-05-3.15937E-05 3.39182E-06 2.05204E-05 1.35525E-19-2.56439E-18
 -1      2189 1.54285E-05-2.93612E-05 5.29624E-06-6.59611E-06-1.84177E-19-1.86263E-18
 -1      2190 3.23692E-05-3.63557E-05 1.02524E-06-3.04287E-05-3.53213E-19-2.31007E-18
 -1      2191 6.48377E-05-4.74303E-05-7.88057E-06-4.13335E-05-2.62580E-20-3.68968E-18
 -1      2192 1.04685E-04-5.58791E-05-2.08714E-05-3.81105E-05-2.10911E-19-6.93296E-19
 -1      2193 1.39495E-04-5.49136E-05-3.58392E-05-2.17175E-05 1.66146E-18 2.74947E-18
 -1      2194 1.64176E-04-2.44187E-05-5.89908E-05 4.15574E-06 3.18294E-18 4.00837E-18
 -1      2195 1.69582E-04-2.14170E-05-6.26750E-05 4.92996E-06 4.52231E-18 1.86898E-18
 -1      2196 1.54765E-04-2.05659E-05-5.73020E-05-9.17593E-07 4.30822E-18 8.43010E-19
 -1      2197 1.53883E-04-1.35878E-05-6.04252E-05-7.62118E-07 3.04508E-18 1.69587E-18
 -1      2198 1.57202E-04-4.16335E-05-4.88474E-05-3.48313E-06 1.89333E-18 2.45047E-18
 -1      2199 1.52473E-04-4.99194E-05-4.37369E-05 8.12188E-06-2.02695E-18 3.00739E-18
 -1      2200 9.52159E-05-2.63772E-05-2.94892E-05 4.19636E-06 2.09144E-18 1.45102E-18
 -1      2201 9.61912E-05-2.58626E-05-3.00671E-05 6.00188E-06 2.37842E-18 1.71746E-18
 -1      2202 8.81338E-05-1.11831E-05-3.30181E-05-3.66208E-06-6.02113E-19-3.40081E-18
 -1      2203 8.83675E-05-1.14530E-05-3.30003E-05-4.80326E-06-9.80702E-19-3.50057E-18
 -1      2204 8.87183E-05-1.19353E-05-3.29517E-05-5.82064E-06-1.21185E-18-3.52020E-18
 -1      2205 8.91278E-05-1.24098E-05-3.29234E-05-6.99237E-06-1.54468E-18-3.35686E-18
 -1      2206 8.98877E-05-1.38224E-05-3.25983E-05-4.90557E-06-1.04924E-18-3.23480E-18
 -1      2207 8.77884E-05-1.07249E-05-3.30612E-05 6.15826E-07 5.67299E-19-3.48875E-18
 -1      2208 8.77841E-05-1.07201E-05-3.30615E-05-4.95478E-07 2.39336E-19-3.51762E-18
 -1      2209 8.79693E-05-1.09499E-05-3.30428E-05 2.75850E-06 1.05794E-18-3.41632E-18
 -1      2210 8.78546E-05-1.08168E-05-3.30520E-05 1.63879E-06 7.56020E-19-3.44219E-18
 -1      2211 8.91061E-05-1.27714E-05-3.27181E-05 1.05011E-06 6.31933E-19-3.27643E-18
 -1      2212 8.84036E-05-1.14967E-05-3.29976E-05 4.88821E-06 1.59051E-18-3.18738E-18
 -1      2213 8.81640E-05-1.12201E-05-3.30157E-05 3.76486E-06 1.27296E-18-3.37280E-18
 -1      2214 8.93719E-05-1.31272E-05-3.26781E-05 3.02186E-06 1.13906E-18-3.13046E-18
 -1      2215 8.91814E-05-1.24782E-05-3.29188E-05 7.07690E-06 2.21662E-18-2.55979E-18
 -1      2216 8.87649E-05-1.19929E-05-3.29479E-05 5.90489E-06 1.84606E-18-2.89039E-18
 -1      2217 8.99294E-05-1.38752E-05-3.25937E-05 4.97690E-06 1.71651E-18-2.80843E-18
 -1      2218 9.04541E-05-1.40888E-05-3.27923E-05 9.22359E-06 2.72561E-18-1.94155E-18
 -1      2219 8.97713E-05-1.32766E-05-3.28373E-05 8.04408E-06 2.39175E-18-2.30139E-18
 -1      2220 9.08655E-05-1.51337E-05-3.24488E-05 6.87277E-06 2.23954E-18-2.21511E-18
 -1      2221 9.24505E-05-1.66585E-05-3.25825E-05 1.11099E-05 3.15131E-18-9.25172E-19
 -1      2222 9.13727E-05-1.53199E-05-3.26545E-05 1.00300E-05 2.82826E-18-1.49884E-18
 -1      2223 9.22913E-05-1.70894E-05-3.22081E-05 8.51771E-06 2.60981E-18-1.51358E-18
 -1      2224 9.42353E-05-2.71174E-05-2.87484E-05 1.76730E-06 1.63543E-18 1.03417E-18
 -1      2225 9.48368E-05-2.68943E-05-2.90469E-05 2.73970E-06 1.88661E-18 1.39550E-18
 -1      2226 9.53394E-05-2.58488E-05-2.97900E-05 4.36249E-06 2.18972E-18 5.24661E-19
 -1      2227 9.58951E-05-2.50788E-05-3.03041E-05-6.19651E-06-2.26669E-18-1.21438E-19
 -1      2228 9.52456E-05-2.58517E-05-2.97598E-05-4.25529E-06-2.01653E-18-2.24231E-19
 -1      2229 1.53720E-04-3.28620E-05-5.23831E-05-1.28078E-06 3.57935E-18-1.56066E-19
 -1      2230 1.53003E-04-4.20434E-05-4.77906E-05 2.84109E-06 1.40332E-18 1.06493E-18
 -1      2231 9.51604E-05-2.65437E-05-2.93439E-05-2.96768E-06-1.77532E-18-2.34242E-19
 -1      2232 9.46610E-05-2.68950E-05-2.90409E-05-1.88205E-06-1.51545E-18-4.43714E-19
 -1      2233 9.53546E-05-2.54452E-05-2.99949E-05-4.27462E-06-2.03587E-18-7.57608E-19
 -1      2234 9.44750E-05-2.72391E-05-2.87765E-05-1.02890E-06-1.27892E-18-3.64710E-19
 -1      2235 9.42141E-05-2.74520E-05-2.86097E-05-4.27842E-07-1.00979E-18-5.12110E-19
 -1      2236 9.50205E-05-2.66878E-05-2.92986E-05-1.91609E-06-1.50044E-18-7.73802E-19
 -1      2237 9.40644E-05-2.76322E-05-2.84483E-05 7.89416E-08-9.55357E-19-6.06376E-19
 -1      2238 9.39653E-05-2.77754E-05-2.83646E-05 4.08124E-07-9.20530E-19-6.00037E-19
 -1      2239 9.47265E-05-2.74284E-05-2.88548E-05-4.45585E-07-1.09229E-18-8.98065E-19
 -1      2240 9.38803E-05-2.78848E-05-2.82711E-05 6.90368E-07-8.58845E-19-6.45168E-19
 -1      2241 9.38852E-05-2.79915E-05-2.82379E-05 8.53901E-07-8.27822E-19-7.95162E-19
 -1      2242 9.45240E-05-2.78559E-05-2.85824E-05 4.24115E-07-9.47943E-19-9.63291E-19
 -1      2243 9.38533E-05-2.80635E-05-2.81890E-05 9.90576E-07-8.47894E-19-7.01643E-19
 -1      2244 9.39196E-05-2.81470E-05-2.81865E-05 1.05226E-06-7.59680E-19-7.63588E-19
 -1      2245 9.44306E-05-2.81250E-05-2.84242E-05 8.93972E-07-8.91615E-19-9.41126E-19
 -1      2246 9.39247E-05-2.81964E-05-2.81664E-05 1.09690E-06-8.30471E-19-7.84946E-19
 -1      2247 9.40228E-05-2.82627E-05-2.81816E-05 1.09706E-06-8.84102E-19-8.81055E-19
 -1      2248 9.44200E-05-2.83013E-05-2.83417E-05 1.10593E-06-8.61284E-19-1.21267E-18
 -1      2249 9.40508E-05-2.82971E-05-2.81796E-05 1.08572E-06-1.13133E-18-8.57536E-19
 -1      2250 9.41611E-05-2.83494E-05-2.82040E-05 1.05066E-06-1.19468E-18-8.97984E-19
 -1      2251 9.44639E-05-2.84186E-05-2.83084E-05 1.15609E-06-1.16609E-18-1.30208E-18
 -1      2252 9.42014E-05-2.83731E-05-2.82130E-05 1.00782E-06-9.33205E-19-7.69309E-19
 -1      2253 9.43119E-05-2.84136E-05-2.82414E-05 9.55059E-07-6.41971E-19-7.48793E-19
 -1      2254 9.45391E-05-2.84958E-05-2.83063E-05 1.10970E-06-1.04169E-18-7.98515E-19
 -1      2255 9.43574E-05-2.84293E-05-2.82565E-05 8.97396E-07-5.74804E-19-6.42203E-19
 -1      2256 9.44614E-05-2.84600E-05-2.82857E-05 8.38695E-07-4.66193E-19-5.47449E-19
 -1      2257 9.46290E-05-2.85444E-05-2.83231E-05 1.01132E-06-5.84063E-19-4.29420E-19
 -1      2258 9.45076E-05-2.84695E-05-2.83039E-05 7.77604E-07-4.21498E-19-4.94448E-19
 -1      2259 9.46020E-05-2.84920E-05-2.83322E-05 7.20903E-07-1.33297E-19-3.53737E-19
 -1      2260 9.47229E-05-2.85721E-05-2.83509E-05 8.91463E-07-4.42991E-19-2.90395E-19
 -1      2261 9.46467E-05-2.84967E-05-2.83519E-05 6.64200E-07-1.70625E-19-6.74525E-19
 -1      2262 9.47311E-05-2.85126E-05-2.83787E-05 6.14950E-07-9.90456E-20-6.37725E-19
 -1      2263 9.48147E-05-2.85844E-05-2.83847E-05 7.71062E-07-2.32762E-19-4.67681E-19
 -1      2264 9.47736E-05-2.85136E-05-2.83990E-05 5.68125E-07-3.96327E-19-7.99589E-19
 -1      2265 9.48493E-05-2.85241E-05-2.84242E-05 5.30234E-07-4.52630E-19-9.79354E-19
 -1      2266 9.49016E-05-2.85850E-05-2.84216E-05 6.64674E-07-4.38956E-19-6.61420E-19
 -1      2267 9.48901E-05-2.85222E-05-2.84450E-05 4.97389E-07-2.45537E-19-1.10983E-18
 -1      2268 9.49601E-05-2.85286E-05-2.84694E-05 4.73934E-07-1.44680E-19-1.02079E-18
 -1      2269 9.49839E-05-2.85765E-05-2.84605E-05 5.82810E-07-3.16122E-19-6.57934E-19
 -1      2270 9.50004E-05-2.85243E-05-2.84911E-05 4.58488E-07-4.05055E-19-1.42594E-18
 -1      2271 9.50686E-05-2.85279E-05-2.85159E-05 4.52261E-07-4.36953E-19-1.36190E-18
 -1      2272 9.50634E-05-2.85607E-05-2.85015E-05 5.33696E-07-6.01389E-19-1.17663E-18
 -1      2273 9.51107E-05-2.85216E-05-2.85393E-05 4.57491E-07-4.07870E-19-1.41619E-18
 -1      2274 9.51820E-05-2.85233E-05-2.85658E-05 4.71406E-07-4.92048E-19-1.37770E-18
 -1      2275 9.51438E-05-2.85385E-05-2.85456E-05 5.24611E-07-5.80239E-19-9.13649E-19
 -1      2276 9.52285E-05-2.85154E-05-2.85922E-05 5.00850E-07-7.67569E-19-1.47308E-18
 -1      2277 9.53089E-05-2.85166E-05-2.86223E-05 5.38248E-07-6.87825E-19-1.62589E-18
 -1      2278 9.52297E-05-2.85107E-05-2.85947E-05 5.62891E-07-5.46310E-19-1.42433E-18
 -1      2279 9.53631E-05-2.85073E-05-2.86532E-05 5.95994E-07-2.32089E-19-1.63103E-18
 -1      2280 9.54597E-05-2.85094E-05-2.86891E-05 6.60852E-07 1.46919E-19-1.33145E-18
 -1      2281 9.53273E-05-2.84775E-05-2.86511E-05 6.56660E-07-3.38184E-19-1.33583E-18
 -1      2282 9.55254E-05-2.84990E-05-2.87261E-05 7.51705E-07 2.19976E-20-1.39939E-18
 -1      2283 9.56463E-05-2.85037E-05-2.87704E-05 8.48720E-07 6.67849E-20-1.65256E-18
 -1      2284 9.54437E-05-2.84391E-05-2.87178E-05 8.15309E-07 1.41749E-20-1.15777E-18
 -1      2285 9.57279E-05-2.84927E-05-2.88154E-05 9.78229E-07 1.74766E-19-1.60893E-18
 -1      2286 9.58825E-05-2.85022E-05-2.88709E-05 1.11277E-06 2.99235E-19-1.30670E-18
 -1      2287 9.55870E-05-2.83960E-05-2.87981E-05 1.04969E-06 3.01349E-19-1.49407E-18
 -1      2288 9.59851E-05-2.84916E-05-2.89260E-05 1.28706E-06 2.92441E-19-1.60372E-18
 -1      2289 9.61841E-05-2.85088E-05-2.89958E-05 1.46487E-06-8.50780E-20-1.37791E-18
 -1      2290 9.57668E-05-2.83495E-05-2.88955E-05 1.37198E-06 2.54679E-19-1.15118E-18
 -1      2291 9.63132E-05-2.85002E-05-2.90629E-05 1.69023E-06-1.66781E-19-1.39920E-18
 -1      2292 9.65685E-05-2.85292E-05-2.91501E-05 1.91681E-06-3.08882E-20-1.35142E-18
 -1      2293 9.59938E-05-2.83021E-05-2.90136E-05 1.79498E-06-1.49039E-20-1.54689E-18
 -1      2294 9.67307E-05-2.85255E-05-2.92309E-05 2.19879E-06-1.46538E-19-1.57486E-18
 -1      2295 9.70553E-05-2.85721E-05-2.93386E-05 2.47823E-06-3.51436E-20-1.55494E-18
 -1      2296 9.62803E-05-2.82589E-05-2.91553E-05 2.33081E-06-2.62711E-19-1.34635E-18
 -1      2297 9.72580E-05-2.85785E-05-2.94341E-05 2.82017E-06-1.53425E-20-1.68635E-18
 -1      2298 9.76657E-05-2.86514E-05-2.95647E-05 3.15305E-06-3.05230E-22-1.38429E-18
 -1      2299 9.66405E-05-2.82297E-05-2.93226E-05 2.98843E-06-1.32827E-19-1.65907E-18
 -1      2300 9.79185E-05-2.86768E-05-2.96749E-05 3.55358E-06 2.92293E-20-1.16229E-18
 -1      2301 9.84233E-05-2.87887E-05-2.98295E-05 3.93366E-06-3.72966E-19-1.01722E-18
 -1      2302 9.70919E-05-2.82319E-05-2.95155E-05 3.76954E-06 4.72674E-20-1.74731E-18
 -1      2303 9.87393E-05-2.88489E-05-2.99525E-05 4.38274E-06-7.61493E-19-1.12977E-18
 -1      2304 9.93545E-05-2.90191E-05-3.01301E-05 4.79159E-06-3.69373E-19-1.28653E-18
 -1      2305 9.76578E-05-2.82958E-05-2.97312E-05 4.66214E-06-5.10175E-19-1.15577E-18
 -1      2306 9.97540E-05-2.91401E-05-3.02615E-05 5.26451E-06 3.17241E-19-1.07919E-18
 -1      2307 1.00491E-04-2.93972E-05-3.04575E-05 5.66367E-06 6.48569E-19-6.09412E-19
 -1      2308 9.83720E-05-2.84726E-05-2.99624E-05 5.63067E-06 1.02827E-20-7.82536E-19
 -1      2309 1.01007E-04-2.96206E-05-3.05902E-05 6.11219E-06 3.95339E-19-7.06602E-19
 -1      2310 1.01875E-04-3.00058E-05-3.07951E-05 6.43259E-06 4.35149E-19-2.24482E-19
 -1      2311 9.92872E-05-2.88452E-05-3.01968E-05 6.60158E-06 6.35940E-19-3.38867E-19
 -1      2312 1.02558E-04-3.03937E-05-3.09196E-05 6.77278E-06-3.57262E-19-1.64613E-19
 -1      2313 1.03560E-04-3.09595E-05-3.11187E-05 6.90269E-06-9.86593E-19 3.19978E-20
 -1      2314 1.00487E-04-2.95391E-05-3.04173E-05 7.44323E-06-1.16442E-19-1.85805E-20
 -1      2315 1.04487E-04-3.15936E-05-3.12252E-05 6.99995E-06-1.11908E-18-1.67258E-19
 -1      2316 1.05612E-04-3.23938E-05-3.13995E-05 6.77630E-06-4.94977E-19-2.66190E-19
 -1      2317 1.02100E-04-3.07278E-05-3.06057E-05 7.93995E-06-1.03976E-18-3.89676E-19
 -1      2318 1.06879E-04-3.33568E-05-3.14845E-05 6.43149E-06-9.56567E-19-2.70345E-19
 -1      2319 1.08079E-04-3.44088E-05-3.16163E-05 5.64719E-06-9.92355E-19-1.12840E-18
 -1      2320 1.04300E-04-3.26089E-05-3.07522E-05 7.76348E-06-1.03985E-18-7.49450E-19
 -1      2321 1.09762E-04-3.57253E-05-3.16944E-05 4.59698E-06-5.45749E-19-1.66011E-18
 -1      2322 1.10912E-04-3.69277E-05-3.17779E-05 3.04865E-06-6.76713E-19-2.13870E-18
 -1      2323 1.07267E-04-3.53131E-05-3.08759E-05 6.45501E-06-1.20479E-18-7.68250E-19
 -1      2324 1.12956E-04-3.84363E-05-3.18980E-05 1.02179E-06-1.78247E-19-2.02636E-18
 -1      2325 1.13786E-04-3.94367E-05-3.19551E-05-1.36309E-06 1.11345E-19-1.87381E-18
 -1      2326 1.11039E-04-3.86778E-05-3.10563E-05 3.46086E-06-3.33279E-19-2.31474E-18
 -1      2327 1.15813E-04-4.06108E-05-3.22105E-05-4.44649E-06 1.26524E-19-9.71659E-19
 -1      2328 1.15884E-04-4.07163E-05-3.22963E-05-7.37266E-06 2.65055E-19-6.21397E-19
 -1      2329 1.15204E-04-4.18627E-05-3.14644E-05-1.64764E-06 5.09377E-19-1.41551E-18
 -1      2330 1.17081E-04-4.06235E-05-3.28002E-05-1.10083E-05 3.02669E-19-4.93302E-19
 -1      2331 1.15942E-04-3.90103E-05-3.29913E-05-1.35525E-05 1.04800E-18-3.09923E-19
 -1      2332 1.18574E-04-4.30958E-05-3.23450E-05-8.61108E-06 5.14055E-19-4.38948E-20
 -1      2333 1.15295E-04-3.67474E-05-3.37987E-05-1.61448E-05 1.24113E-18-8.61068E-19
 -1      2334 1.12997E-04-3.33471E-05-3.40948E-05-1.67758E-05 9.08880E-19-1.28404E-18
 -1      2335 1.19180E-04-3.99266E-05-3.39173E-05-1.55017E-05 4.93734E-19-3.87160E-19
 -1      2336 1.10639E-04-2.94390E-05-3.49935E-05-1.62265E-05 1.70970E-18-1.88324E-18
 -1      2337 1.08134E-04-2.57147E-05-3.52604E-05-1.38455E-05 1.64716E-18-1.22796E-18
 -1      2338 1.16051E-04-3.21175E-05-3.59963E-05-1.81989E-05 8.78969E-19-9.99697E-19
 -1      2339 1.05895E-04-2.28180E-05-3.57849E-05-9.04791E-06 8.87691E-19-1.74411E-18
 -1      2340 1.04922E-04-2.16048E-05-3.57731E-05-4.51096E-06 2.36402E-19-7.66906E-19
 -1      2341 1.10861E-04-2.28490E-05-3.78001E-05-1.31968E-05 5.06076E-19-9.14319E-19
 -1      2342 1.05125E-04-2.21737E-05-3.55546E-05 1.43682E-06-4.22114E-19-1.65625E-18
 -1      2343 1.06004E-04-2.43073E-05-3.51996E-05 5.54992E-06-4.64386E-19-1.48169E-18
 -1      2344 1.09058E-04-2.02196E-05-3.82082E-05-1.73910E-06 2.38413E-19-2.33540E-18
 -1      2345 1.08099E-04-2.78388E-05-3.43245E-05 8.83613E-06-7.09258E-19-1.19659E-18
 -1      2346 1.09794E-04-3.13857E-05-3.37904E-05 1.01631E-05-1.49124E-19-2.21266E-18
 -1      2347 1.11610E-04-2.56710E-05-3.69308E-05 8.24770E-06-9.54447E-19-2.74643E-18
 -1      2348 1.11284E-04-3.47979E-05-3.27449E-05 9.50164E-06 9.24927E-19-3.05418E-18
 -1      2349 1.12419E-04-3.73625E-05-3.22626E-05 8.03915E-06 1.57862E-19-3.00452E-18
 -1      2350 1.15496E-04-3.45751E-05-3.46662E-05 1.05436E-05-3.27643E-19-3.40557E-18
 -1      2351 1.11805E-04-3.85076E-05-3.14594E-05 4.89033E-06-1.23880E-18-2.46328E-18
 -1      2352 1.11627E-04-3.89814E-05-3.11388E-05 2.26689E-06 8.97094E-20-1.51731E-18
 -1      2353 1.16513E-04-4.06394E-05-3.25120E-05 5.91697E-06-2.20055E-19-3.32039E-18
 -1      2354 1.09512E-04-3.81157E-05-3.06805E-05-9.74325E-07 1.29241E-18-1.53729E-18
 -1      2355 1.08314E-04-3.70536E-05-3.04899E-05-3.33500E-06 6.57642E-20-1.01604E-18
 -1      2356 1.13627E-04-4.10832E-05-3.10931E-05-9.04266E-07 5.85017E-19-2.04553E-18
 -1      2357 1.05617E-04-3.50981E-05-3.03024E-05-5.47030E-06-1.08897E-18-1.26079E-20
 -1      2358 1.03873E-04-3.33202E-05-3.01920E-05-6.72701E-06-6.63112E-19 9.40797E-19
 -1      2359 1.08689E-04-3.78014E-05-3.04123E-05-6.38350E-06 4.28137E-19-1.80169E-18
 -1      2360 9.33394E-05-2.76916E-05-2.81275E-05-4.07814E-07 6.40249E-19 2.89904E-19
 -1      2361 9.34178E-05-2.75865E-05-2.81890E-05-1.22363E-07 8.42305E-19 5.32608E-19
 -1      2362 9.32873E-05-2.78561E-05-2.80372E-05-8.13716E-07 7.66989E-19-1.76073E-19
 -1      2363 9.32427E-05-2.77651E-05-2.80488E-05-6.74724E-07 5.94823E-19 1.54498E-19
 -1      2364 9.40104E-05-2.78085E-05-2.83834E-05-4.40513E-07 9.31551E-19-4.02439E-19
 -1      2365 9.33800E-05-2.79916E-05-2.80206E-05-9.89046E-07 9.58249E-19-3.35386E-19
 -1      2366 9.32678E-05-2.79109E-05-2.80037E-05-9.38380E-07 8.67130E-19-2.61768E-19
 -1      2367 9.39229E-05-2.80180E-05-2.82530E-05-8.87500E-07 9.51389E-19-6.05022E-19
 -1      2368 9.35533E-05-2.81061E-05-2.80468E-05-1.02369E-06 8.18599E-19-1.90332E-19
 -1      2369 9.34095E-05-2.80355E-05-2.80149E-05-1.02583E-06 8.05804E-19-2.07102E-19
 -1      2370 9.39507E-05-2.81669E-05-2.81984E-05-1.08350E-06 8.58700E-19-5.05992E-19
 -1      2371 9.37630E-05-2.82025E-05-2.80962E-05-9.75658E-07 2.56031E-19 2.48744E-20
 -1      2372 9.36104E-05-2.81420E-05-2.80577E-05-1.00786E-06 6.03845E-19-2.82919E-20
 -1      2373 9.40481E-05-2.82771E-05-2.81909E-05-1.12454E-06 5.98128E-19-2.56614E-19
 -1      2374 9.39809E-05-2.82821E-05-2.81559E-05-8.83356E-07 5.84987E-19-2.30410E-19
 -1      2375 9.38331E-05-2.82317E-05-2.81160E-05-9.30630E-07 4.58277E-19-9.90927E-20
 -1      2376 9.41816E-05-2.83596E-05-2.82113E-05-1.07409E-06 5.68789E-19-5.01753E-19
 -1      2377 9.41902E-05-2.83466E-05-2.82183E-05-7.72471E-07 6.96587E-19-4.27810E-19
 -1      2378 9.40545E-05-2.83054E-05-2.81800E-05-8.24832E-07 7.33417E-19-2.84901E-19
 -1      2379 9.43284E-05-2.84206E-05-2.82472E-05-9.74702E-07 7.91715E-19-7.24097E-19
 -1      2380 9.43823E-05-2.83974E-05-2.82790E-05-6.60268E-07 7.04231E-19-4.56502E-19
 -1      2381 9.42618E-05-2.83647E-05-2.82436E-05-7.11021E-07 5.63587E-19-5.47821E-19
 -1      2382 9.44745E-05-2.84646E-05-2.82903E-05-8.55154E-07 6.01205E-19-5.42865E-19
 -1      2383 9.45545E-05-2.84366E-05-2.83359E-05-5.58448E-07 4.20069E-19-4.56165E-19
 -1      2384 9.44492E-05-2.84111E-05-2.83040E-05-6.03044E-07 7.30543E-19-1.74774E-19
 -1      2385 9.46124E-05-2.84950E-05-2.83362E-05-7.34963E-07 5.78942E-19-3.93900E-19
 -1      2386 9.47083E-05-2.84663E-05-2.83890E-05-4.75157E-07 4.18667E-19-4.89199E-19
 -1      2387 9.46161E-05-2.84466E-05-2.83602E-05-5.10381E-07 4.04539E-19-4.08774E-19
 -1      2388 9.47393E-05-2.85144E-05-2.83821E-05-6.27528E-07 4.73067E-19-4.78131E-19
 -1      2389 9.48483E-05-2.84886E-05-2.84391E-05-4.16465E-07 5.58863E-19-9.02849E-19
 -1      2390 9.47655E-05-2.84734E-05-2.84125E-05-4.39833E-07 4.01881E-19-7.03530E-19
 -1      2391 9.48558E-05-2.85250E-05-2.84275E-05-5.42355E-07 5.43960E-19-7.48357E-19
 -1      2392 9.49812E-05-2.85058E-05-2.84883E-05-3.87476E-07 9.22507E-19-6.32064E-19
 -1      2393 9.49031E-05-2.84935E-05-2.84625E-05-3.96784E-07 7.74835E-19-6.77499E-19
 -1      2394 9.49649E-05-2.85289E-05-2.84728E-05-4.86710E-07 6.47245E-19-7.62763E-19
 -1      2395 9.51160E-05-2.85202E-05-2.85393E-05-3.93171E-07 6.08088E-19-1.54825E-19
 -1      2396 9.50367E-05-2.85093E-05-2.85126E-05-3.86147E-07 9.37089E-19-5.76507E-20
 -1      2397 9.50718E-05-2.85276E-05-2.85194E-05-4.66864E-07 5.37436E-19-2.90861E-20
 -1      2398 9.52634E-05-2.85345E-05-2.85956E-05-4.39013E-07-2.47725E-19-2.30668E-19
 -1      2399 9.51759E-05-2.85232E-05-2.85659E-05-4.13070E-07 1.84687E-19-5.14198E-20
 -1      2400 9.51832E-05-2.85228E-05-2.85695E-05-4.89015E-07 2.13710E-19 2.37207E-19
 -1      2401 9.54362E-05-2.85517E-05-2.86614E-05-5.31340E-07-2.40867E-19 2.56468E-19
 -1      2402 9.53325E-05-2.85379E-05-2.86263E-05-4.83427E-07-2.48769E-19 1.13454E-19
 -1      2403 9.53076E-05-2.85159E-05-2.86262E-05-5.59939E-07-3.98610E-19 3.67667E-19
 -1      2404 9.56491E-05-2.85752E-05-2.87414E-05-6.77527E-07 5.11575E-19 2.31258E-20
 -1      2405 9.55197E-05-2.85565E-05-2.86981E-05-6.04084E-07 4.60781E-19 3.36093E-19
 -1      2406 9.54546E-05-2.85088E-05-2.86927E-05-6.87378E-07 3.27311E-20 5.98695E-19
 -1      2407 9.59190E-05-2.86096E-05-2.88411E-05-8.85854E-07 4.89913E-19-2.02747E-19
 -1      2408 9.57533E-05-2.85830E-05-2.87864E-05-7.82914E-07 5.58943E-19-3.24153E-20
 -1      2409 9.56360E-05-2.85039E-05-2.87731E-05-8.80132E-07 7.96546E-19 3.60267E-19
 -1      2410 9.62652E-05-2.86606E-05-2.89662E-05-1.16496E-06 6.93976E-20 3.11787E-19
 -1      2411 9.60511E-05-2.86223E-05-2.88967E-05-1.02846E-06 3.20681E-19-5.06107E-20
 -1      2412 9.58647E-05-2.85043E-05-2.88715E-05-1.14778E-06 3.08132E-19 1.05160E-19
 -1      2413 9.67090E-05-2.87353E-05-2.91228E-05-1.52266E-06-1.60550E-18 6.89108E-19
 -1      2414 9.64330E-05-2.86807E-05-2.90350E-05-1.34909E-06-6.79821E-19 4.23091E-19
 -1      2415 9.61559E-05-2.85150E-05-2.89924E-05-1.49988E-06-5.39908E-19 5.28219E-19
 -1      2416 9.72731E-05-2.88437E-05-2.93166E-05-1.96392E-06-1.19247E-18 5.98403E-21
 -1      2417 9.69212E-05-2.87667E-05-2.92069E-05-1.75143E-06-1.36689E-18 5.11568E-19
 -1      2418 9.65263E-05-2.85430E-05-2.91397E-05-1.94439E-06-1.26422E-18 1.60123E-19
 -1      2419 9.79813E-05-2.89989E-05-2.95524E-05-2.48729E-06-3.46852E-19-3.42810E-19
 -1      2420 9.75394E-05-2.88917E-05-2.94178E-05-2.23761E-06-7.83983E-19-1.24007E-19
 -1      2421 9.69948E-05-2.85993E-05-2.93170E-05-2.48498E-06-4.15724E-19-6.07287E-19
 -1      2422 9.88565E-05-2.92192E-05-2.98326E-05-3.07952E-06 3.70661E-19 2.68039E-19
 -1      2423 9.83121E-05-2.90717E-05-2.96715E-05-2.80088E-06-1.35075E-19-1.41158E-19
 -1      2424 9.75821E-05-2.87007E-05-2.95259E-05-3.11677E-06-4.87726E-19-9.05234E-19
 -1      2425 9.99187E-05-2.95294E-05-3.01558E-05-3.70731E-06 4.89080E-19 3.23694E-19
 -1      2426 9.92634E-05-2.93285E-05-2.99687E-05-3.41885E-06 7.74973E-19 5.33086E-19
 -1      2427 9.83116E-05-2.88728E-05-2.97654E-05-3.81967E-06 2.31402E-19-8.34626E-19
 -1      2428 1.01182E-04-2.99635E-05-3.05143E-05-4.30571E-06 7.48481E-19 1.13965E-18
 -1      2429 1.00415E-04-2.96929E-05-3.03056E-05-4.04363E-06 3.81168E-19 1.08213E-18
 -1      2430 9.92101E-05-2.91539E-05-3.00307E-05-4.54892E-06 3.24904E-19 1.04096E-19
 -1      2431 1.02650E-04-3.05654E-05-3.08918E-05-4.76347E-06 6.26323E-19 2.38849E-18
 -1      2432 1.01783E-04-3.02061E-05-3.06714E-05-4.58843E-06 1.04282E-18 2.17584E-18
 -1      2433 1.00309E-04-2.95998E-05-3.03116E-05-5.22188E-06 3.17015E-20 1.43362E-18
 -1      2434 1.04307E-04-3.13850E-05-3.12615E-05-4.90758E-06-8.21576E-20 2.30253E-18
 -1      2435 1.03373E-04-3.09196E-05-3.10464E-05-4.91160E-06 6.57827E-19 2.72679E-18
 -1      2436 1.01647E-04-3.02855E-05-3.05924E-05-5.70198E-06 6.16148E-19 2.11837E-18
 -1      2437 1.06107E-04-3.24631E-05-3.15869E-05-4.49486E-06 6.05584E-19 1.11038E-18
 -1      2438 1.05171E-04-3.18863E-05-3.14012E-05-4.80243E-06-4.68838E-20 1.75523E-18
 -1      2439 1.03264E-04-3.12995E-05-3.08525E-05-5.78235E-06 5.62491E-19 1.88165E-18
 -1      2440 1.07948E-04-3.37907E-05-3.18266E-05-3.22810E-06 5.63939E-20 1.31075E-18
 -1      2441 1.07118E-04-3.31337E-05-3.16997E-05-3.98079E-06 8.04542E-19 1.26477E-18
 -1      2442 1.05190E-04-3.27165E-05-3.10724E-05-5.17819E-06 5.20304E-19 1.16656E-18
 -1      2443 1.09627E-04-3.52289E-05-3.19486E-05-8.26298E-07-2.34105E-19 1.48028E-18
 -1      2444 1.09072E-04-3.46019E-05-3.19078E-05-2.13426E-06-4.06205E-19 1.16925E-18
 -1      2445 1.07403E-04-3.45284E-05-3.12440E-05-3.54752E-06-4.39951E-19 2.62274E-18
 -1      2446 1.10775E-04-3.63919E-05-3.19513E-05 2.80637E-06 1.09216E-18 1.09598E-18
 -1      2447 1.10732E-04-3.60352E-05-3.20093E-05 9.64266E-07 6.31380E-19 7.95395E-19
 -1      2448 1.09739E-04-3.65130E-05-3.13880E-05-5.74994E-07 5.12180E-19 2.49975E-18
 -1      2449 1.10840E-04-3.65891E-05-3.18789E-05 7.27154E-06 1.19981E-18 1.26205E-18
 -1      2450 1.11557E-04-3.68617E-05-3.20243E-05 5.19386E-06 1.03505E-18 1.29957E-18
 -1      2451 1.11740E-04-3.80480E-05-3.15701E-05 3.80547E-06 1.09790E-18 1.79622E-18
 -1      2452 1.09282E-04-3.50649E-05-3.18146E-05 1.14029E-05 2.99770E-20 9.78733E-19
 -1      2453 1.10876E-04-3.62767E-05-3.20048E-05 9.74222E-06 1.59662E-18 1.44993E-18
 -1      2454 1.12631E-04-3.81605E-05-3.18818E-05 9.00907E-06 1.12224E-18 2.13670E-18
 -1      2455 1.05910E-04-3.14922E-05-3.18451E-05 1.32840E-05-1.00712E-18-1.00254E-20
 -1      2456 1.08175E-04-3.35961E-05-3.20279E-05 1.29597E-05-1.08954E-18 9.11781E-19
 -1      2457 1.11527E-04-3.57583E-05-3.24145E-05 1.35291E-05 1.77341E-19 3.16821E-18
 -1      2458 1.01729E-04-2.70584E-05-3.19271E-05 1.11076E-05-1.46295E-18 6.93799E-19
 -1      2459 1.03930E-04-2.92286E-05-3.20851E-05 1.27021E-05-7.87780E-19 1.39430E-20
 -1      2460 1.08200E-04-3.08796E-05-3.31122E-05 1.48593E-05-1.11053E-18 1.39884E-18
 -1      2461 9.87270E-05-2.41647E-05-3.19195E-05 4.99743E-06-1.57418E-18 1.74349E-18
 -1      2462 9.99647E-05-2.52108E-05-3.20633E-05 8.09241E-06-2.09419E-18 6.48086E-19
 -1      2463 1.04148E-04-2.55925E-05-3.37092E-05 1.11917E-05-1.89084E-18 2.47527E-18
 -1      2464 9.85688E-05-2.47428E-05-3.16742E-05-2.28158E-06-1.22048E-18 2.94019E-18
 -1      2465 9.83945E-05-2.40375E-05-3.18189E-05 8.35912E-07-7.67293E-19 2.03949E-18
 -1      2466 1.01896E-04-2.30967E-05-3.38485E-05 3.40362E-06-1.47097E-18 2.15797E-18
 -1      2467 1.00865E-04-2.81829E-05-3.12179E-05-7.02990E-06-2.49526E-19 2.09453E-18
 -1      2468 9.96952E-05-2.63605E-05-3.13394E-05-5.36943E-06-7.96780E-19 2.27579E-18
 -1      2469 1.02802E-04-2.50736E-05-3.33469E-05-4.49267E-06-7.17649E-19 1.10994E-18
 -1      2470 1.03560E-04-3.20223E-05-3.07154E-05-7.52134E-06 1.44198E-18 1.04360E-18
 -1      2471 1.02255E-04-3.02666E-05-3.07911E-05-7.74271E-06 1.13724E-18 1.54519E-18
 -1      2472 1.05585E-04-2.99154E-05-3.24065E-05-8.35640E-06 1.00673E-18-1.10045E-18
 -1      2473 1.04782E-04-3.41503E-05-3.02957E-05-4.67106E-06 4.84824E-19 1.13728E-18
 -1      2474 1.04061E-04-3.32832E-05-3.03400E-05-6.13234E-06 9.45898E-19 1.24087E-18
 -1      2475 1.07734E-04-3.43722E-05-3.14034E-05-7.31390E-06 9.96862E-19-5.58777E-19
 -1      2476 1.03998E-04-3.39943E-05-2.99950E-05-7.00755E-07-8.44474E-19 9.74066E-19
 -1      2477 1.04116E-04-3.41644E-05-3.00371E-05-2.39948E-06-7.27671E-19 1.86817E-18
 -1      2478 1.07664E-04-3.61941E-05-3.06173E-05-3.24977E-06-3.40603E-19 7.13167E-19
 -1      2479 1.01817E-04-3.22566E-05-2.97764E-05 2.41987E-06 3.24503E-19 1.05109E-18
 -1      2480 1.02573E-04-3.31035E-05-2.98420E-05 1.22577E-06-2.37272E-19 1.29951E-18
 -1      2481 1.05493E-04-3.51851E-05-3.01338E-05 1.16461E-06-4.02856E-19 5.55835E-19
 -1      2482 9.90227E-05-2.98882E-05-2.95917E-05 3.67587E-06-1.38838E-18 2.66012E-18
 -1      2483 1.00080E-04-3.09400E-05-2.96850E-05 3.35851E-06-4.08468E-19 2.30567E-18
 -1      2484 1.02211E-04-3.24489E-05-2.98871E-05 4.08494E-06-6.68828E-19 2.83840E-18
 -1      2485 9.74008E-05-2.86012E-05-2.94987E-05 3.46404E-06-1.42288E-18 3.70411E-18
 -1      2486 9.37480E-05-2.14591E-05-3.10451E-05 1.83396E-05 1.18618E-18 6.29034E-19
 -1      2487 9.61272E-05-2.40427E-05-3.08206E-05 1.75658E-05 1.58590E-19-3.54236E-18
 -1      2488 8.77133E-05-1.56901E-05-3.09995E-05 1.72204E-05 1.07876E-18 2.04902E-18
 -1      2489 9.07927E-05-1.85213E-05-3.08732E-05 1.84681E-05 8.54085E-19 2.29755E-18
 -1      2490 9.32130E-05-2.37719E-05-2.98009E-05 2.09496E-05 1.00532E-18 1.04081E-18
 -1      2491 9.94033E-05-2.81724E-05-3.04678E-05 1.11304E-05-1.63740E-18 4.93489E-19
 -1      2492 9.96405E-05-2.92602E-05-3.01648E-05 8.99390E-06-1.93318E-18 1.35345E-18
 -1      2493 9.77841E-05-2.57726E-05-3.08520E-05 1.55705E-05-1.27563E-18-2.99199E-18
 -1      2494 9.89844E-05-2.75823E-05-3.05659E-05 1.37216E-05-2.12403E-18-6.32959E-21
 -1      2495 1.01393E-04-3.08997E-05-3.02529E-05 1.34588E-05-2.29419E-18 7.63802E-20
 -1      2496 9.88961E-05-2.85885E-05-3.01873E-05 1.84293E-05 1.77230E-19-1.70398E-18
 -1      2497 8.18887E-05-1.02925E-05-3.08180E-05 1.08892E-05-4.69169E-19 1.51858E-18
 -1      2498 8.44051E-05-1.24271E-05-3.07686E-05 1.44293E-05 2.44568E-19 1.12031E-18
 -1      2499 8.54933E-05-1.72906E-05-2.91859E-05 1.83963E-05 3.38678E-19 5.15565E-20
 -1      2500 7.92719E-05-7.82000E-06-3.06909E-05 5.72493E-07-5.62301E-19 6.18427E-19
 -1      2501 7.99157E-05-8.35908E-06-3.06792E-05 5.49728E-06 8.11001E-20 1.78544E-18
 -1      2502 7.89701E-05-1.18025E-05-2.86520E-05 9.62263E-06-7.39773E-19 1.77045E-18
 -1      2503 8.15016E-05-9.76048E-06-3.07257E-05-1.00043E-05-1.32440E-18-2.95880E-18
 -1      2504 7.98931E-05-8.42537E-06-3.07440E-05-5.52027E-06-5.10533E-19-1.24338E-18
 -1      2505 7.72600E-05-1.03565E-05-2.85296E-05-2.93364E-06-1.29316E-18-1.47185E-19
 -1      2506 8.71041E-05-1.49494E-05-3.08397E-05-1.68358E-05 6.50319E-19-5.42422E-18
 -1      2507 8.42275E-05-1.24276E-05-3.09203E-05-1.43089E-05-2.33943E-20-4.12216E-18
 -1      2508 8.14357E-05-1.38476E-05-2.88797E-05-1.41783E-05-3.53030E-19-2.74298E-18
 -1      2509 9.32744E-05-2.09947E-05-3.08869E-05-1.86101E-05 2.48461E-18 3.46898E-19
 -1      2510 9.04100E-05-1.81873E-05-3.10587E-05-1.83032E-05 1.93318E-18-3.88750E-18
 -1      2511 8.88521E-05-2.00802E-05-2.94833E-05-2.02052E-05 2.01499E-18-3.73836E-18
 -1      2512 9.75800E-05-2.57091E-05-3.07518E-05-1.61960E-05 2.38067E-18 2.08666E-18
 -1      2513 9.56818E-05-2.34108E-05-3.10051E-05-1.75105E-05 1.93975E-18 3.02364E-18
 -1      2514 9.59369E-05-2.60011E-05-3.00294E-05-2.03057E-05 2.58457E-18 1.08193E-18
 -1      2515 9.93721E-05-2.82551E-05-3.04411E-05-1.18060E-05 7.05070E-19-9.85065E-19
 -1      2516 9.85947E-05-2.67819E-05-3.07356E-05-1.37565E-05 1.83391E-18-3.85780E-20
 -1      2517 1.00309E-04-2.96130E-05-3.02890E-05-1.64333E-05 9.21715E-19 5.10978E-19
 -1      2518 3.06527E-05-2.53258E-05-2.09111E-06 2.56367E-05-1.85648E-18 2.70204E-19
 -1      2519 2.42779E-05-2.04501E-05-1.21446E-06 1.00187E-05-2.43808E-18 1.58522E-18
 -1      2520 6.30003E-05-4.01843E-05-9.59393E-06 4.57475E-05-2.49239E-18 3.59438E-18
 -1      2521 4.40940E-05-3.26902E-05-4.56122E-06 3.59403E-05-1.71355E-18 1.49734E-18
 -1      2522 4.73281E-05-2.62331E-05-8.45999E-06 3.12662E-05-1.90265E-18 1.53715E-18
 -1      2523 2.33414E-05-2.13002E-05-5.96625E-07-1.05469E-05-1.79825E-18 2.60971E-18
 -1      2524 3.13960E-05-2.73445E-05-1.55623E-06-2.74490E-05-2.04071E-18 2.81046E-18
 -1      2525 9.36230E-05-2.74722E-05-2.83390E-05 3.72408E-07 9.26939E-19 7.07448E-19
 -1      2526 9.39062E-05-2.73364E-05-2.84862E-05 9.05705E-07 1.20088E-18 8.79753E-19
 -1      2527 9.42671E-05-2.74892E-05-2.86329E-05 4.06208E-07 1.14035E-18-1.04827E-19
 -1      2528 9.80508E-05-2.77685E-05-3.01572E-05-7.45508E-06 4.24537E-19 5.71476E-19
 -1      2529 1.00782E-04-5.68442E-05-1.87438E-05 4.67648E-05-3.92092E-18 2.49298E-18
 -1      2530 8.46309E-05-5.06795E-05-1.41340E-05 4.65328E-05-3.47368E-18 3.12852E-18
 -1      2531 9.50722E-05-2.00244E-05-3.22125E-05-1.17493E-05-2.86350E-18-5.82256E-19
 -1      2532 9.54818E-05-2.33671E-05-3.09279E-05-7.96418E-06-2.59575E-18-2.96186E-19
 -1      2533 9.50714E-05-2.25747E-05-3.10506E-05-7.64397E-06-2.39186E-18-8.88276E-19
 -1      2534 9.32130E-05-1.76195E-05-3.24159E-05-1.14104E-05-2.77287E-18-1.33510E-18
 -1      2535 1.51945E-04-5.20788E-05-4.31687E-05 1.22258E-05-5.91255E-19 1.87660E-18
 -1      2536 1.44812E-04-5.77905E-05-3.73457E-05 1.87460E-05-1.16933E-18 2.29377E-18
 -1      2537 6.36991E-05-4.34790E-05-8.54837E-06 4.16214E-05 7.44330E-19-9.53547E-19
 -1      2538 4.72481E-05-3.60748E-05-4.50636E-06 3.58416E-05 1.43932E-18-2.25819E-18
 -1      2539 8.78405E-05-1.07995E-05-3.30533E-05-1.51861E-06 1.04560E-20-3.50386E-18
 -1      2540 8.79458E-05-1.09215E-05-3.30446E-05-2.63752E-06-3.54310E-19-3.41897E-18
 -1      2541 8.93449E-05-1.30942E-05-3.26810E-05-2.93118E-06-4.57613E-19-3.12592E-18
 -1      2542 8.90964E-05-1.27593E-05-3.27192E-05-9.41180E-07 9.22720E-20-3.31999E-18
 -1      2543 1.48727E-04-4.70545E-05-4.37326E-05 1.49566E-06 1.07843E-18 3.19818E-18
 -1      2544 1.51783E-04-3.90294E-05-4.89038E-05 6.15980E-06 1.74669E-18 3.94611E-18
 -1      2545 1.49512E-04-1.24196E-05-5.91662E-05 6.92462E-06 3.18654E-18 3.91975E-18
 -1      2546 1.49577E-04-1.09666E-05-5.98034E-05 3.43878E-06 1.93293E-18 2.50047E-18
 -1      2547 1.52884E-04-4.61388E-05-4.60329E-05-2.46158E-06-2.11022E-18 2.72956E-18
 -1      2548 1.45085E-04-5.45751E-05-3.89066E-05 4.61440E-06-1.12598E-18 3.66935E-18
 -1      2549 1.50354E-04-2.60562E-05-5.36072E-05 9.63452E-06 2.93137E-18 3.98233E-18
 -1      2550 1.52096E-04-1.85245E-05-5.76728E-05 9.14470E-06 4.43634E-18 5.68539E-18
 -1      2551 1.33132E-04-6.03050E-05-3.11620E-05-1.98373E-05 4.25105E-19 4.19514E-18
 -1      2552 1.44333E-04-5.66941E-05-3.80455E-05-1.03816E-05 6.74079E-19 3.55055E-18
 -1      2553 9.97458E-05-5.68771E-05-1.82767E-05-3.79798E-05-9.41265E-19-3.18590E-19
 -1      2554 1.17962E-04-6.01287E-05-2.50849E-05-3.34235E-05-5.51207E-19 2.38556E-18
 -1      2555 6.13753E-05-4.33760E-05-7.58204E-06-4.06633E-05 7.41154E-20-3.12026E-18
 -1      2556 7.96596E-05-4.97143E-05-1.28668E-05-4.36010E-05-5.09067E-19-3.20814E-18
 -1      2557 3.16912E-05-2.85279E-05-1.09235E-06-2.77892E-05 2.53475E-19-1.96596E-18
 -1      2558 4.45789E-05-3.46032E-05-4.11581E-06-3.72695E-05 5.56501E-19-2.54025E-18
 -1      2559 1.81692E-05-2.08835E-05 1.44902E-06 9.79691E-07-6.36281E-19-1.78385E-18
 -1      2560 2.11868E-05-2.23317E-05 7.22622E-07-1.50670E-05 2.48816E-20-1.93124E-18
 -1      2561 3.08133E-05-2.72760E-05-1.31762E-06 2.72432E-05 4.24364E-19-2.45364E-18
 -1      2562 2.19422E-05-2.34820E-05 9.25396E-07 1.48611E-05-2.36957E-19-7.08967E-19
 -1      2563 9.70532E-05-5.59494E-05-1.78200E-05 4.00234E-05 8.12728E-19 3.09326E-19
 -1      2564 7.95899E-05-5.09076E-05-1.21922E-05 4.05903E-05 6.31887E-19 3.40931E-20
 -1      2565 7.78577E-05-4.70389E-05-1.27822E-05 4.02272E-05 1.52360E-18 1.54266E-19
 -1      2566 1.34365E-04-6.17619E-05-3.14869E-05 1.99226E-05-2.10699E-19 3.66172E-18
 -1      2567 1.17498E-04-6.12436E-05-2.39706E-05 3.02018E-05 1.00289E-18 1.67120E-18
 -1      2568 1.53773E-04-2.61224E-05-5.51614E-05-1.03030E-05-1.19622E-18-1.35991E-18
 -1      2569 1.51515E-04-3.38465E-05-5.07546E-05-9.39984E-06-1.83743E-18 1.05879E-20
 -1      2570 1.46938E-04-1.24581E-05-5.83155E-05-8.51378E-06-1.88973E-18-2.50166E-18
 -1      2571 1.50923E-04-1.83136E-05-5.72007E-05-1.03229E-05-2.41447E-18-1.64579E-18
 -1      2572 1.41486E-04-2.10769E-05-5.18058E-05-1.49756E-05-1.11872E-18-2.35210E-18
 -1      2573 1.47729E-04-1.49134E-05-5.74531E-05 1.85729E-06-2.17433E-18-1.63382E-18
 -1      2574 1.45649E-04-1.08492E-05-5.83651E-05-2.27894E-06-2.06422E-18-1.95211E-18
 -1      2575 1.52099E-04-3.20328E-05-5.17008E-05 3.43622E-06-1.28304E-18-1.62842E-18
 -1      2576 1.52136E-04-2.35941E-05-5.56143E-05 3.39321E-06-1.56002E-18-2.00133E-18
 -1      2577 1.49227E-04-5.40480E-05-4.07863E-05-1.26811E-05-6.78950E-20-1.82493E-18
 -1      2578 1.54495E-04-4.54244E-05-4.72633E-05-4.29099E-06 2.29758E-20-7.94940E-19
 -1      2579 1.28203E-04-6.31154E-05-2.77706E-05-3.31410E-05 4.37704E-19-3.95490E-18
 -1      2580 1.42112E-04-6.09951E-05-3.49572E-05-2.55859E-05-5.22196E-19-3.55711E-18
 -1      2581 8.58778E-05-5.30871E-05-1.38124E-05-4.64509E-05 2.14998E-18 2.68679E-18
 -1      2582 1.07763E-04-5.94992E-05-2.08350E-05-4.41855E-05 1.58480E-18-4.80929E-19
 -1      2583 4.40592E-05-3.47368E-05-3.78842E-06-3.68836E-05-6.30404E-19 3.19395E-18
 -1      2584 6.14990E-05-4.16425E-05-8.55370E-06-4.61409E-05 9.93993E-19 2.96462E-18
 -1      2585 4.58099E-05-2.76948E-05-7.17261E-06-3.22847E-05 7.13625E-20 1.76522E-18
 -1      2586 9.63360E-05-2.50961E-05-3.05573E-05 7.59382E-06 2.74636E-18 1.91895E-18
 -1      2587 9.74575E-05-2.37793E-05-3.15978E-05 1.06934E-05 2.93486E-18 2.31510E-18
 -1      2588 9.58914E-05-2.13035E-05-3.20220E-05 1.18953E-05 3.19938E-18 1.32428E-18
 -1      2589 9.58803E-05-2.41627E-05-3.07694E-05 7.68549E-06 2.76688E-18 8.12712E-19
 -1      2590 1.34442E-04-6.23381E-05-3.10576E-05 3.16724E-05-2.56355E-18 2.83142E-18
 -1      2591 1.16748E-04-6.20545E-05-2.33575E-05 3.88717E-05-3.81440E-18 2.64063E-18
 -1      2592 1.15124E-04-6.08839E-05-2.30216E-05 3.89175E-05-4.65212E-18 2.97624E-18
 -1      2593 1.44796E-04-3.21027E-05-4.84954E-05 1.35083E-05 2.46021E-18 4.76011E-18
 -1      2594 9.08003E-05-1.50400E-05-3.24572E-05-6.81258E-06-1.58584E-18-2.98385E-18
 -1      2595 8.96994E-05-1.31875E-05-3.28439E-05-7.95752E-06-1.73207E-18-3.15947E-18
 -1      2596 9.03318E-05-1.39104E-05-3.28167E-05-9.17203E-06-2.13664E-18-2.90985E-18
 -1      2597 9.47332E-05-2.69396E-05-2.90673E-05 1.88598E-06 1.64847E-18 2.27442E-19
 -1      2598 9.42465E-05-1.90819E-05-3.22586E-05 1.16045E-05 3.13680E-18 1.15157E-19
 -1      2599 1.40547E-04-6.30860E-05-3.31128E-05 2.09597E-05-3.22116E-18 1.93907E-18
 -1      2600 1.49534E-04-4.86399E-05-4.33022E-05 1.72048E-06-7.94782E-19-2.76344E-19
 -1      2601 7.98136E-05-4.64723E-05-1.37620E-05-4.54586E-05 1.49459E-18 1.74764E-18
 -1      2602 8.00844E-05-4.43955E-05-1.47862E-05 4.46998E-05-3.16494E-18 2.74185E-18
 -1      2603 1.21500E-04-6.33261E-05-2.48087E-05-3.70486E-05 5.65818E-19-3.13667E-18
 -1      2604 1.30902E-04-6.47416E-05-2.85922E-05-2.78449E-05 7.96740E-19-4.28636E-18
 -1      2605 1.13618E-04-5.98846E-05-2.25952E-05-3.95434E-05 2.15866E-18-2.25832E-18
 -1      2606 9.86986E-05-2.93718E-05-2.97210E-05 4.80171E-06-2.20251E-18 3.39985E-18
 -1      2607 9.91010E-05-2.91622E-05-2.99426E-05 6.24523E-06-1.71691E-18 2.56430E-18
 -1      2608 1.45968E-04-6.00489E-05-3.68421E-05-1.32581E-05 5.02449E-19-2.80749E-18
 -1      2609 3.17709E-05-1.81037E-05-5.26375E-06-6.18786E-07-2.39165E-18 2.67959E-18
 -1      2610 1.48304E-04-4.00194E-05-4.65607E-05 4.12512E-06 1.90477E-19-2.84709E-18
 -1      2611 9.47158E-05-2.06023E-05-3.17183E-05 9.67137E-06 2.86017E-18-9.89639E-20
 -1      2612 9.20553E-05-1.62359E-05-3.25340E-05-1.03963E-05-2.48003E-18-2.01763E-18
 -1      2613 1.36416E-04-1.11514E-05-5.40291E-05-5.67874E-06-2.23701E-18-2.03347E-18
 -1      2614 1.11906E-04-6.01883E-05-2.18053E-05 3.22338E-05 1.74806E-18 2.27121E-18
 -1      2615 4.59576E-05-3.01516E-05-6.24751E-06 3.17931E-05 1.30083E-18-1.86326E-18
 -1      2616 2.66483E-05-1.85564E-05-2.84373E-06 7.26897E-06-5.09226E-19-1.01305E-18
 -1      2617 3.33098E-05-2.25207E-05-4.02374E-06-2.13232E-05 2.95614E-19-2.31536E-18
 -1      2618 6.02353E-05-3.81727E-05-8.99417E-06-3.89946E-05 1.17738E-19-2.37307E-18
 -1      2619 9.58653E-05-5.47306E-05-1.72824E-05-3.91405E-05-1.19093E-18-1.80815E-19
 -1      2620 1.28661E-04-6.26165E-05-2.81341E-05-2.25125E-05-7.55130E-19 4.27116E-18
 -1      2621 1.47044E-04-4.07535E-05-4.57830E-05-1.18477E-05-1.22841E-18-1.19643E-19
 -1      2622 1.49126E-04-2.65218E-05-5.27817E-05-4.64830E-06 4.05623E-18 3.28225E-20
 -1      2623 1.42725E-04-3.16469E-05-4.78130E-05-7.65764E-06 2.82591E-18 1.64113E-20
 -1      2624 1.39669E-04-1.96073E-05-5.23289E-05-7.73128E-06 3.56283E-18 3.03026E-19
 -1      2625 1.42066E-04-1.08661E-05-5.65027E-05 1.26114E-06 2.33929E-18 2.20276E-18
 -1      2626 1.39918E-04-1.39198E-05-5.42414E-05 1.07125E-05 2.86191E-18 3.71064E-18
 -1      2627 1.42373E-04-5.64336E-05-3.72584E-05-2.31724E-06-1.07031E-18 1.82747E-18
 -1      2628 1.41474E-04-6.05159E-05-3.47266E-05 9.18541E-06-7.55606E-19 2.26094E-18
 -1      2629 1.34305E-04-6.25735E-05-3.06844E-05 1.34975E-05 2.01753E-19 2.19964E-18
 -1      2630 1.44523E-04-5.39252E-05-3.88562E-05 9.49877E-07 5.28343E-19 4.19874E-18
 -1      2631 1.00448E-04-3.02042E-05-3.00578E-05-7.27986E-06-4.24786E-19 5.58790E-19
 -1      2632 9.98328E-05-2.89675E-05-3.03390E-05-9.67758E-06 6.59774E-19-1.76732E-19
 -1      2633 1.01912E-04-3.13938E-05-3.02778E-05-1.15912E-05 1.11032E-19-8.37978E-19
 -1      2634 1.02042E-04-3.18264E-05-3.01625E-05-7.24113E-06-1.18525E-18 1.01370E-18
 -1      2635 1.39323E-04-1.82321E-05-5.21958E-05 5.95187E-06-1.96575E-18-1.42609E-18
 -1      2636 1.01200E-04-3.12597E-05-3.00045E-05 7.73438E-06-2.08425E-18 2.79034E-18
 -1      2637 1.04129E-04-3.35727E-05-3.02387E-05-8.81553E-06-6.81909E-19 5.08706E-19
 -1      2638 9.05583E-05-1.51748E-05-3.23295E-05 3.19660E-06 1.19807E-18-2.86194E-18
 -1      2639 9.03686E-05-1.49036E-05-3.23623E-05 2.26243E-06 9.09927E-19-2.87963E-18
 -1      2640 9.02344E-05-1.47010E-05-3.23913E-05 1.42283E-06 6.34736E-19-3.09958E-18
 -1      2641 9.01689E-05-1.46087E-05-3.24023E-05 4.65393E-07 4.72897E-19-3.13020E-18
 -1      2642 9.14210E-05-1.65968E-05-3.20545E-05 1.64233E-06 6.69970E-19-2.78176E-18
 -1      2643 9.21352E-05-1.75551E-05-3.20041E-05 6.46114E-06 2.29113E-18-1.99311E-18
 -1      2644 9.16064E-05-1.67537E-05-3.21041E-05 5.64081E-06 2.04801E-18-2.21748E-18
 -1      2645 9.35584E-05-1.97603E-05-3.16645E-05 7.60619E-06 2.53784E-18-1.25988E-18
 -1      2646 9.27788E-05-1.85283E-05-3.18382E-05 7.02822E-06 2.33998E-18-1.67144E-18
 -1      2647 9.34734E-05-1.98866E-05-3.15069E-05 5.75642E-06 2.09208E-18-1.67976E-18
 -1      2648 9.52112E-05-2.54091E-05-2.99304E-05 3.97863E-06 2.04995E-18-1.99415E-19
 -1      2649 9.55574E-05-2.45584E-05-3.03940E-05 5.61422E-06 2.26705E-18-8.91686E-20
 -1      2650 9.28800E-05-1.80090E-05-3.20745E-05-8.83537E-06-2.29913E-18-1.98122E-18
 -1      2651 9.49772E-05-2.66907E-05-2.92727E-05 1.78271E-06 1.52404E-18-3.41088E-19
 -1      2652 9.52536E-05-2.61943E-05-2.95579E-05 2.79241E-06 1.80949E-18-1.93989E-19
 -1      2653 9.52698E-05-2.50218E-05-3.01066E-05 3.82620E-06 2.01123E-18-6.95695E-19
 -1      2654 7.19912E-05-3.89233E-05-1.35786E-05-4.28919E-05 1.02660E-18 9.61700E-19
 -1      2655 9.24618E-05-5.03169E-05-1.80304E-05-4.44676E-05 2.57996E-18-1.93229E-19
 -1      2656 4.58127E-05-2.14109E-05-9.86229E-06-2.59635E-05 9.68688E-19 1.39358E-18
 -1      2657 5.70400E-05-2.90455E-05-1.16694E-05-3.71140E-05 1.58692E-18 9.34701E-19
 -1      2658 9.54119E-05-2.59430E-05-2.97314E-05-2.68872E-06-1.54153E-18-1.02150E-18
 -1      2659 9.52019E-05-2.65081E-05-2.94549E-05-1.72501E-06-1.30519E-18-1.08276E-18
 -1      2660 9.52149E-05-2.70060E-05-2.92086E-05-9.83217E-07-1.18551E-18-1.02719E-18
 -1      2661 9.50806E-05-2.73615E-05-2.90288E-05-3.80111E-07-1.11574E-18-1.17886E-18
 -1      2662 9.54193E-05-2.63335E-05-2.96131E-05-1.62904E-06-1.35289E-18-1.22943E-18
 -1      2663 9.50483E-05-2.76678E-05-2.88613E-05 8.59825E-08-9.59228E-19-1.11153E-18
 -1      2664 9.49704E-05-2.78926E-05-2.87505E-05 4.35960E-07-7.80268E-19-1.08546E-18
 -1      2665 9.54155E-05-2.73271E-05-2.91879E-05-3.46137E-07-1.09843E-18-1.20552E-18
 -1      2666 9.49283E-05-2.80781E-05-2.86398E-05 7.03970E-07-7.78854E-19-1.20650E-18
 -1      2667 9.48996E-05-2.82250E-05-2.85759E-05 8.85951E-07-8.57099E-19-1.26741E-18
 -1      2668 9.53553E-05-2.79434E-05-2.88975E-05 4.40979E-07-8.72424E-19-1.51960E-18
 -1      2669 9.48645E-05-2.83369E-05-2.85057E-05 1.01872E-06-8.78480E-19-1.33193E-18
 -1      2670 9.48709E-05-2.84338E-05-2.84730E-05 1.09234E-06-9.70596E-19-1.46346E-18
 -1      2671 9.52908E-05-2.83245E-05-2.87052E-05 8.79941E-07-9.38288E-19-1.62163E-18
 -1      2672 9.48464E-05-2.84991E-05-2.84313E-05 1.13640E-06-9.36252E-19-1.14377E-18
 -1      2673 9.48748E-05-2.85623E-05-2.84190E-05 1.14259E-06-9.60279E-19-9.16676E-19
 -1      2674 9.52412E-05-2.85563E-05-2.85833E-05 1.08287E-06-7.62595E-19-1.39855E-18
 -1      2675 9.48599E-05-2.85970E-05-2.83970E-05 1.13164E-06-8.51180E-19-5.46754E-19
 -1      2676 9.49000E-05-2.86365E-05-2.83978E-05 1.09859E-06-6.12029E-19-5.47025E-19
 -1      2677 9.52092E-05-2.86902E-05-2.85111E-05 1.13308E-06-6.49081E-19-1.55839E-19
 -1      2678 9.48925E-05-2.86508E-05-2.83892E-05 1.05662E-06-6.59493E-19-4.77982E-19
 -1      2679 9.49376E-05-2.86734E-05-2.83979E-05 1.00375E-06-5.89006E-19-5.43142E-19
 -1      2680 9.51919E-05-2.87587E-05-2.84735E-05 1.09088E-06-5.72546E-19-2.48239E-19
 -1      2681 9.49353E-05-2.86741E-05-2.83983E-05 9.47654E-07-5.39087E-19-4.88904E-19
 -1      2682 9.49810E-05-2.86843E-05-2.84117E-05 8.88369E-07-4.23636E-19-4.58517E-19
 -1      2683 9.51856E-05-2.87829E-05-2.84597E-05 9.99185E-07-5.81923E-19-8.90459E-19
 -1      2684 9.49823E-05-2.86758E-05-2.84182E-05 8.29951E-07-3.88905E-19-3.40926E-19
 -1      2685 9.50264E-05-2.86770E-05-2.84342E-05 7.73544E-07-9.45820E-20-5.10228E-19
 -1      2686 9.51867E-05-2.87772E-05-2.84622E-05 8.88267E-07-3.83304E-19-6.21244E-19
 -1      2687 9.50302E-05-2.86619E-05-2.84448E-05 7.21127E-07-2.57661E-19-6.32685E-19
 -1      2688 9.50721E-05-2.86563E-05-2.84626E-05 6.74181E-07-4.24204E-19-5.72714E-19
 -1      2689 9.51929E-05-2.87506E-05-2.84760E-05 7.79439E-07-2.50105E-19-3.86534E-19
 -1      2690 9.50776E-05-2.86364E-05-2.84762E-05 6.33816E-07-5.11711E-19-3.70740E-19
 -1      2691 9.51176E-05-2.86253E-05-2.84952E-05 6.01258E-07-3.55690E-19-4.88604E-19
 -1      2692 9.52025E-05-2.87091E-05-2.84977E-05 6.87955E-07-4.60893E-19-4.77259E-19
 -1      2693 9.51245E-05-2.86013E-05-2.85114E-05 5.77665E-07-5.32822E-19-6.25510E-19
 -1      2694 9.51641E-05-2.85857E-05-2.85319E-05 5.63557E-07-6.48432E-19-5.99680E-19
 -1      2695 9.52146E-05-2.86557E-05-2.85257E-05 6.25256E-07-5.81422E-19-7.10074E-19
 -1      2696 9.51722E-05-2.85576E-05-2.85506E-05 5.60852E-07-6.59936E-19-5.86579E-19
 -1      2697 9.52135E-05-2.85378E-05-2.85732E-05 5.68998E-07-6.70441E-19-6.74098E-19
 -1      2698 9.52288E-05-2.85916E-05-2.85593E-05 6.00694E-07-5.75837E-19-1.33080E-19
 -1      2699 9.52228E-05-2.85051E-05-2.85948E-05 5.91232E-07-3.73845E-19-8.22629E-19
 -1      2700 9.52684E-05-2.84814E-05-2.86205E-05 6.25622E-07-3.26364E-19-5.42978E-19
 -1      2701 9.52451E-05-2.85164E-05-2.85985E-05 6.22842E-07-5.83786E-19-3.87726E-19
 -1      2702 9.52792E-05-2.84431E-05-2.86456E-05 6.77176E-07-4.88757E-19-5.89884E-19
 -1      2703 9.53324E-05-2.84153E-05-2.86756E-05 7.42296E-07-2.37626E-19-4.87502E-19
 -1      2704 9.52639E-05-2.84286E-05-2.86443E-05 7.00457E-07-3.54734E-19-6.00024E-20
 -1      2705 9.53449E-05-2.83705E-05-2.87051E-05 8.28141E-07-1.02956E-19-6.50508E-19
 -1      2706 9.54094E-05-2.83385E-05-2.87408E-05 9.29145E-07 2.55377E-20-8.83248E-19
 -1      2707 9.52856E-05-2.83257E-05-2.86978E-05 8.43149E-07-4.42515E-19-4.50240E-19
 -1      2708 9.54239E-05-2.82859E-05-2.87754E-05 1.05495E-06 1.17412E-19-1.10957E-18
 -1      2709 9.55040E-05-2.82500E-05-2.88184E-05 1.19767E-06 3.81090E-19-1.00913E-18
 -1      2710 9.53108E-05-2.82053E-05-2.87603E-05 1.06174E-06-1.12855E-19-3.70345E-19
 -1      2711 9.55208E-05-2.81886E-05-2.88590E-05 1.36974E-06 3.71063E-19-1.33746E-18
 -1      2712 9.56217E-05-2.81496E-05-2.89109E-05 1.56048E-06 1.24844E-19-1.22693E-18
 -1      2713 9.53402E-05-2.80648E-05-2.88332E-05 1.36832E-06 6.35593E-20-1.35081E-18
 -1      2714 9.56412E-05-2.80791E-05-2.89580E-05 1.78549E-06 2.06972E-19-1.33414E-18
 -1      2715 9.57683E-05-2.80388E-05-2.90201E-05 2.03056E-06 1.49237E-20-1.30586E-18
 -1      2716 9.53747E-05-2.79029E-05-2.89173E-05 1.77587E-06 1.04192E-19-1.61791E-18
 -1      2717 9.57915E-05-2.79604E-05-2.90738E-05 2.31497E-06-3.82740E-19-1.21053E-18
 -1      2718 9.59513E-05-2.79227E-05-2.91472E-05 2.61972E-06-3.56468E-19-1.30343E-18
 -1      2719 9.54157E-05-2.77207E-05-2.90129E-05 2.29740E-06-2.18666E-20-8.83469E-19
 -1      2720 9.59800E-05-2.78401E-05-2.92066E-05 2.96883E-06-2.04750E-19-1.33101E-18
 -1      2721 9.61803E-05-2.78122E-05-2.92915E-05 3.33612E-06-1.63517E-19-1.19863E-18
 -1      2722 9.54660E-05-2.75240E-05-2.91187E-05 2.94443E-06-2.38324E-19-6.02009E-19
 -1      2723 9.62187E-05-2.77339E-05-2.93549E-05 3.75254E-06 2.27679E-19-1.13830E-18
 -1      2724 9.64694E-05-2.77289E-05-2.94502E-05 4.18029E-06 4.10442E-19-1.00606E-18
 -1      2725 9.55318E-05-2.73270E-05-2.92312E-05 3.72454E-06 2.05185E-19-3.45207E-19
 -1      2726 9.65269E-05-2.76712E-05-2.95138E-05 4.66168E-06-1.73740E-19-8.94265E-19
 -1      2727 9.68420E-05-2.77115E-05-2.96167E-05 5.13910E-06-6.29233E-19-6.56914E-19
 -1      2728 9.56264E-05-2.71582E-05-2.93442E-05 4.63786E-06 1.57884E-19-7.38206E-20
 -1      2729 9.69375E-05-2.77039E-05-2.96750E-05 5.67492E-06-3.80054E-19-4.13974E-19
 -1      2730 9.73383E-05-2.78262E-05-2.97802E-05 6.17705E-06 4.65517E-19-4.48572E-19
 -1      2731 9.57772E-05-2.70695E-05-2.94474E-05 5.67204E-06-3.90948E-19 1.77439E-19
 -1      2732 9.75086E-05-2.79185E-05-2.98255E-05 6.74366E-06 8.47128E-19-2.93167E-19
 -1      2733 9.80295E-05-2.81811E-05-2.99253E-05 7.22375E-06 6.46928E-19-2.39271E-20
 -1      2734 9.60378E-05-2.71494E-05-2.95267E-05 6.79515E-06 3.32398E-19 2.16287E-19
 -1      2735 9.83409E-05-2.84519E-05-2.99487E-05 7.77709E-06 2.06247E-19-1.27299E-19
 -1      2736 9.90366E-05-2.89407E-05-3.00336E-05 8.15640E-06-4.00623E-19-1.98466E-19
 -1      2737 9.65077E-05-2.75407E-05-2.95646E-05 7.94548E-06 3.57420E-19-6.01312E-19
 -1      2738 9.96011E-05-2.95052E-05-3.00282E-05 8.62001E-06-8.14780E-19-3.74058E-19
 -1      2739 1.00552E-04-3.03341E-05-3.00906E-05 8.77537E-06-7.41565E-19-4.80800E-19
 -1      2740 9.73594E-05-2.84587E-05-2.95446E-05 9.01539E-06-3.08765E-19-1.25784E-19
 -1      2741 1.01542E-04-3.13403E-05-3.00582E-05 9.01991E-06-1.12310E-18-1.92861E-20
 -1      2742 1.02849E-04-3.26303E-05-3.00999E-05 8.77081E-06-1.11406E-18 3.56918E-19
 -1      2743 9.88707E-05-3.01987E-05-2.94615E-05 9.82298E-06-6.92968E-19 4.81168E-19
 -1      2744 1.04493E-04-3.42236E-05-3.00646E-05 8.58091E-06-1.45102E-18 2.96955E-19
 -1      2745 1.06235E-04-3.60310E-05-3.01100E-05 7.68437E-06-1.44854E-18-1.51118E-19
 -1      2746 1.01441E-04-3.31001E-05-2.93425E-05 1.00601E-05-1.69520E-18 1.42312E-18
 -1      2747 1.08762E-04-3.82468E-05-3.01422E-05 6.71178E-06-9.03661E-19 5.73916E-19
 -1      2748 1.10876E-04-4.03926E-05-3.02590E-05 4.89402E-06-9.92154E-20-9.00287E-20
 -1      2749 1.05545E-04-3.74016E-05-2.92860E-05 9.21008E-06-1.18077E-18 1.31789E-18
 -1      2750 1.14303E-04-4.28964E-05-3.05094E-05 2.63072E-06 4.26218E-19-2.19329E-19
 -1      2751 1.16397E-04-4.46676E-05-3.08239E-05-2.67492E-07 8.26949E-19 7.21219E-20
 -1      2752 1.11512E-04-4.28628E-05-2.95275E-05 6.40761E-06-4.94406E-20 1.62615E-18
 -1      2753 1.20037E-04-4.63342E-05-3.15271E-05-4.10661E-06 6.08593E-19-8.06587E-19
 -1      2754 1.21275E-04-4.63614E-05-3.21888E-05-7.65331E-06 1.68751E-19-6.94418E-19
 -1      2755 1.18672E-04-4.78537E-05-3.05036E-05 5.53009E-07 2.80533E-19-1.17063E-18
 -1      2756 1.23899E-04-4.55655E-05-3.36032E-05-1.27793E-05 1.24441E-19-1.07785E-18
 -1      2757 1.23013E-04-4.20274E-05-3.47455E-05-1.57315E-05 6.25626E-19-1.44664E-18
 -1      2758 1.25516E-04-4.92399E-05-3.28778E-05-8.49385E-06-2.95588E-19-1.42299E-18
 -1      2759 1.22267E-04-3.69448E-05-3.68634E-05-1.89780E-05 1.48231E-18-1.48248E-18
 -1      2760 1.19427E-04-3.07884E-05-3.81286E-05-1.85261E-05 1.23482E-18-8.98083E-19
 -1      2761 1.27591E-04-4.24801E-05-3.65612E-05-1.70520E-05 1.41996E-18-1.37780E-18
 -1      2762 1.12640E-04-1.63269E-05-4.15190E-05-4.76295E-06-6.35698E-19-1.97181E-18
 -1      2763 1.13092E-04-1.74595E-05-4.13766E-05 1.57596E-06-7.80223E-19-3.29982E-18
 -1      2764 1.15189E-04-2.20362E-05-4.01058E-05 7.82587E-06-3.77936E-19-4.32416E-18
 -1      2765 1.17902E-04-2.82027E-05-3.88638E-05 1.08369E-05-2.57683E-19-3.94282E-18
 -1      2766 1.19843E-04-1.85378E-05-4.37448E-05 5.45154E-06-9.57041E-19-3.90104E-18
 -1      2767 1.20189E-04-3.46827E-05-3.66613E-05 1.09876E-05-5.79476E-19-2.99703E-18
 -1      2768 1.22396E-04-4.04359E-05-3.52241E-05 1.00155E-05 1.38702E-19-2.81872E-18
 -1      2769 1.25038E-04-3.27358E-05-3.97572E-05 1.15757E-05-1.87777E-19-2.99670E-18
 -1      2770 1.21227E-04-4.37720E-05-3.33444E-05 5.23952E-06 3.11126E-19-2.11043E-18
 -1      2771 1.20786E-04-4.53571E-05-3.23364E-05 2.10261E-06 1.61664E-19-1.26123E-18
 -1      2772 1.27175E-04-4.56974E-05-3.52176E-05 6.34841E-06 1.01535E-18-7.26827E-19
 -1      2773 1.17633E-04-4.48772E-05-3.12521E-05-2.41764E-06-4.86362E-19-7.24703E-19
 -1      2774 1.15425E-04-4.35269E-05-3.07232E-05-5.55493E-06 3.11452E-19-1.29510E-18
 -1      2775 1.22452E-04-4.80080E-05-3.19382E-05-2.36969E-06 6.18930E-19 5.26563E-19
 -1      2776 1.11370E-04-4.07573E-05-3.03326E-05-8.46944E-06 5.67251E-19-2.66056E-18
 -1      2777 1.08581E-04-3.80021E-05-3.01734E-05-1.03177E-05 1.87248E-19-2.25760E-18
 -1      2778 1.14874E-04-4.42368E-05-3.03908E-05-9.93146E-06-5.39001E-19-5.57420E-19
 -1      2779 9.44752E-05-2.81301E-05-2.84334E-05-8.86351E-07 9.54746E-19-6.17595E-19
 -1      2780 9.44921E-05-2.80029E-05-2.84841E-05-7.11507E-07 9.57916E-19-6.32726E-19
 -1      2781 9.45529E-05-2.78519E-05-2.85869E-05-4.36704E-07 9.35701E-19-7.06540E-19
 -1      2782 9.46417E-05-2.76647E-05-2.86858E-05-9.36164E-08 1.05363E-18-5.52711E-19
 -1      2783 9.50073E-05-2.79125E-05-2.87631E-05-4.45967E-07 1.01752E-18-9.37325E-19
 -1      2784 9.45143E-05-2.84337E-05-2.83194E-05-1.13689E-06 4.82528E-19-3.14085E-19
 -1      2785 9.44579E-05-2.83703E-05-2.83201E-05-1.13394E-06 6.10444E-19-3.72853E-19
 -1      2786 9.45862E-05-2.85120E-05-2.83166E-05-1.09052E-06 8.30355E-19-5.64355E-19
 -1      2787 9.45172E-05-2.84676E-05-2.83059E-05-1.12537E-06 6.83316E-19-3.18805E-19
 -1      2788 9.48936E-05-2.85735E-05-2.84259E-05-1.15552E-06 7.48382E-19-3.46310E-19
 -1      2789 9.46711E-05-2.85602E-05-2.83323E-05-9.93691E-07 8.70241E-19-8.13658E-19
 -1      2790 9.45987E-05-2.85301E-05-2.83153E-05-1.04757E-06 7.97220E-19-7.33805E-19
 -1      2791 9.49149E-05-2.86450E-05-2.84034E-05-1.11035E-06 9.19685E-19-5.74403E-19
 -1      2792 9.47593E-05-2.85865E-05-2.83588E-05-8.76111E-07 3.28068E-19-5.86259E-19
 -1      2793 9.46891E-05-2.85674E-05-2.83389E-05-9.36210E-07 6.35373E-19-5.88336E-19
 -1      2794 9.49490E-05-2.86795E-05-2.84025E-05-1.01435E-06 6.46864E-19-7.44408E-19
 -1      2795 9.48455E-05-2.85966E-05-2.83914E-05-7.58277E-07 5.33130E-19-5.02061E-19
 -1      2796 9.47799E-05-2.85859E-05-2.83702E-05-8.15821E-07 4.33265E-19-5.08620E-19
 -1      2797 9.49896E-05-2.86885E-05-2.84156E-05-8.98075E-07 4.03102E-19-6.18286E-19
 -1      2798 9.49274E-05-2.85947E-05-2.84272E-05-6.54488E-07 2.63376E-19-4.27498E-19
 -1      2799 9.48670E-05-2.85905E-05-2.84057E-05-7.03344E-07 4.14275E-19-2.22705E-19
 -1      2800 9.50326E-05-2.86793E-05-2.84376E-05-7.82826E-07 3.72595E-19-5.23743E-20
 -1      2801 9.50051E-05-2.85834E-05-2.84652E-05-5.75090E-07 4.75192E-19-3.48481E-19
 -1      2802 9.49492E-05-2.85844E-05-2.84436E-05-6.10760E-07 4.90252E-19-3.96727E-19
 -1      2803 9.50759E-05-2.86569E-05-2.84657E-05-6.83667E-07 4.90864E-19-1.63045E-19
 -1      2804 9.50809E-05-2.85648E-05-2.85054E-05-5.28167E-07 7.29900E-19-3.26592E-19
 -1      2805 9.50273E-05-2.85698E-05-2.84832E-05-5.47031E-07 5.92128E-19-2.45175E-19
 -1      2806 9.51192E-05-2.86244E-05-2.84982E-05-6.11689E-07 5.00915E-19 1.46277E-19
 -1      2807 9.51581E-05-2.85399E-05-2.85488E-05-5.20828E-07 2.05304E-19 1.32541E-19
 -1      2808 9.51039E-05-2.85481E-05-2.85253E-05-5.19574E-07 3.58968E-19-1.20986E-19
 -1      2809 9.51632E-05-2.85831E-05-2.85348E-05-5.75753E-07 4.18774E-19 4.30969E-19
 -1      2810 9.52417E-05-2.85094E-05-2.85972E-05-5.60151E-07-2.94961E-19 1.11519E-18
 -1      2811 9.51832E-05-2.85202E-05-2.85712E-05-5.35361E-07 7.77720E-20 5.67662E-19
 -1      2812 9.52097E-05-2.85336E-05-2.85760E-05-5.83802E-07-5.26482E-20 4.62474E-19
 -1      2813 9.53375E-05-2.84738E-05-2.86528E-05-6.53827E-07-4.16996E-19 9.95085E-19
 -1      2814 9.52701E-05-2.84864E-05-2.86228E-05-6.01708E-07-2.43753E-19 1.01972E-18
 -1      2815 9.52611E-05-2.84756E-05-2.86231E-05-6.43801E-07-1.73491E-19 1.52744E-18
 -1      2816 9.54526E-05-2.84338E-05-2.87186E-05-8.10520E-07 4.08376E-19 1.82081E-19
 -1      2817 9.53711E-05-2.84474E-05-2.86828E-05-7.26769E-07-1.43843E-19 2.28820E-19
 -1      2818 9.53207E-05-2.84084E-05-2.86777E-05-7.64370E-07 1.34067E-19 5.86907E-19
 -1      2819 9.55954E-05-2.83904E-05-2.87974E-05-1.03989E-06 6.52547E-19 5.18311E-19
 -1      2820 9.54936E-05-2.84038E-05-2.87540E-05-9.19742E-07 9.60611E-19 4.74695E-19
 -1      2821 9.53926E-05-2.83315E-05-2.87417E-05-9.55090E-07 5.27605E-19-3.47355E-19
 -1      2822 9.57752E-05-2.83460E-05-2.88924E-05-1.35221E-06 2.56338E-19 1.33621E-19
 -1      2823 9.56462E-05-2.83572E-05-2.88395E-05-1.19070E-06 7.86259E-19 3.78488E-19
 -1      2824 9.54815E-05-2.82448E-05-2.88172E-05-1.22644E-06 6.31554E-19 1.13005E-19
 -1      2825 9.60034E-05-2.83048E-05-2.90067E-05-1.75739E-06-3.88853E-19 7.39529E-20
 -1      2826 9.58392E-05-2.83106E-05-2.89423E-05-1.54994E-06 1.71227E-19 6.76020E-20
 -1      2827 9.55933E-05-2.81499E-05-2.89060E-05-1.58927E-06 3.39789E-19 1.34840E-19
 -1      2828 9.62926E-05-2.82744E-05-2.91426E-05-2.26322E-06-6.72772E-19-8.46344E-19
 -1      2829 9.60846E-05-2.82698E-05-2.90650E-05-2.00669E-06-1.01087E-18-1.19037E-19
 -1      2830 9.57353E-05-2.80510E-05-2.90095E-05-2.05370E-06-4.22483E-19 1.26606E-19
 -1      2831 9.66582E-05-2.82677E-05-2.93012E-05-2.87244E-06-4.79710E-19-9.23302E-19
 -1      2832 9.63965E-05-2.82448E-05-2.92095E-05-2.56684E-06-2.75575E-19-9.51826E-19
 -1      2833 9.59173E-05-2.79573E-05-2.91280E-05-2.62714E-06-3.37529E-19-8.54066E-19
 -1      2834 9.71191E-05-2.83063E-05-2.94816E-05-3.57826E-06-4.71165E-19-9.68353E-19
 -1      2835 9.67928E-05-2.82528E-05-2.93758E-05-3.22933E-06-1.04513E-19-9.07592E-19
 -1      2836 9.61529E-05-2.78856E-05-2.92600E-05-3.31118E-06-3.03985E-19-8.10232E-19
 -1      2837 9.77004E-05-2.84248E-05-2.96799E-05-4.35763E-06 5.56906E-19-7.36128E-19
 -1      2838 9.72968E-05-2.83218E-05-2.95618E-05-3.98075E-06-2.14837E-19-1.02876E-18
 -1      2839 9.64625E-05-2.78651E-05-2.94020E-05-4.09704E-06-2.73432E-19-1.33733E-18
 -1      2840 9.84368E-05-2.86770E-05-2.98886E-05-5.16179E-06-3.35489E-19-1.03877E-19
 -1      2841 9.79410E-05-2.84960E-05-2.97620E-05-4.78736E-06 8.05769E-20-4.45106E-19
 -1      2842 9.68781E-05-2.79440E-05-2.95473E-05-4.95887E-06-1.90864E-19-1.24617E-18
 -1      2843 9.93783E-05-2.91426E-05-3.00955E-05-5.90348E-06 1.91045E-19 2.07208E-19
 -1      2844 9.87722E-05-2.88431E-05-2.99670E-05-5.58392E-06 1.16449E-19 9.30252E-20
 -1      2845 9.74511E-05-2.81975E-05-2.96861E-05-5.84445E-06-2.13266E-19-8.23097E-19
 -1      2846 1.00597E-04-2.99309E-05-3.02853E-05-6.44106E-06 7.65373E-19 6.09216E-19
 -1      2847 9.98589E-05-2.94603E-05-3.01638E-05-6.25884E-06 4.77537E-19 1.64163E-19
 -1      2848 9.82625E-05-2.87366E-05-2.98062E-05-6.66247E-06 2.78001E-19-7.17528E-19
 -1      2849 1.02189E-04-3.11747E-05-3.04433E-05-6.56158E-06 6.06588E-19 1.40262E-19
 -1      2850 1.01297E-04-3.04743E-05-3.03382E-05-6.63595E-06 9.99820E-19 8.49320E-19
 -1      2851 9.94352E-05-2.97127E-05-2.98962E-05-7.26561E-06 6.21291E-19-7.94222E-19
 -1      2852 1.04259E-04-3.29936E-05-3.05640E-05-5.96857E-06-3.18813E-19 5.80645E-19
 -1      2853 1.03204E-04-3.20236E-05-3.04811E-05-6.45572E-06 2.65209E-19 5.45627E-19
 -1      2854 1.01139E-04-3.13048E-05-2.99529E-05-7.42907E-06 3.35502E-19-3.00093E-19
 -1      2855 1.06868E-04-3.54017E-05-3.06678E-05-4.29435E-06-5.83726E-19 1.25171E-18
 -1      2856 1.05685E-04-3.41952E-05-3.06013E-05-5.36829E-06-5.18449E-19 1.11871E-18
 -1      2857 1.03571E-04-3.36628E-05-2.99952E-05-6.82780E-06-6.05078E-19-6.24487E-19
 -1      2858 1.09906E-04-3.81271E-05-3.08227E-05-1.17045E-06 7.84872E-19 1.69449E-18
 -1      2859 1.08741E-04-3.68910E-05-3.07451E-05-2.96352E-06-3.12600E-19 1.85117E-18
 -1      2860 1.06873E-04-3.67761E-05-3.00856E-05-5.03643E-06-7.84420E-19-9.46369E-20
 -1      2861 1.12888E-04-4.03278E-05-3.11674E-05 3.59028E-06 1.67439E-18 1.65314E-18
 -1      2862 1.12071E-04-3.95807E-05-3.10214E-05 1.12426E-06 1.77395E-18 2.31403E-18
 -1      2863 1.10973E-04-4.02437E-05-3.03604E-05-1.55266E-06 1.06888E-18 1.98840E-18
 -1      2864 1.14744E-04-4.04722E-05-3.18662E-05 9.30628E-06 1.94518E-19 2.20481E-18
 -1      2865 1.14687E-04-4.09328E-05-3.15979E-05 6.73546E-06 1.18200E-18 1.92108E-18
 -1      2866 1.15037E-04-4.27131E-05-3.10552E-05 4.02223E-06 1.29997E-18 1.90840E-18
 -1      2867 1.14229E-04-3.71175E-05-3.30426E-05 1.45956E-05 1.79783E-19 2.24870E-18
 -1      2868 1.15495E-04-3.95965E-05-3.25913E-05 1.26998E-05 5.80611E-19 2.59173E-18
 -1      2869 1.17891E-04-4.22638E-05-3.24232E-05 1.09737E-05-1.34824E-19 1.72288E-18
 -1      2870 1.10767E-04-2.99952E-05-3.45549E-05 1.59361E-05-5.23122E-19 1.49703E-18
 -1      2871 1.12938E-04-3.38777E-05-3.40480E-05 1.62504E-05-1.88485E-19 1.83186E-18
 -1      2872 1.17364E-04-3.70633E-05-3.43513E-05 1.63955E-05 4.39600E-19 2.50020E-18
 -1      2873 1.06391E-04-2.27338E-05-3.58248E-05 1.10384E-05-1.98208E-18 1.35727E-18
 -1      2874 1.08250E-04-2.59885E-05-3.54806E-05 1.40058E-05-1.42564E-18 1.31657E-18
 -1      2875 1.13219E-04-2.78779E-05-3.65647E-05 1.67325E-05-7.13916E-19 1.04446E-18
 -1      2876 1.04591E-04-2.06180E-05-3.61198E-05 1.53244E-06-9.13194E-19 1.15404E-18
 -1      2877 1.04919E-04-2.07871E-05-3.61981E-05 5.78059E-06-1.92152E-18 1.12742E-18
 -1      2878 1.09134E-04-2.01558E-05-3.81238E-05 9.56131E-06-2.26396E-18-1.45948E-19
 -1      2879 1.06894E-04-2.53899E-05-3.51827E-05-6.73869E-06 8.32580E-19-6.49800E-19
 -1      2880 1.05717E-04-2.24147E-05-3.56798E-05-3.74925E-06 3.41526E-19 1.32204E-18
 -1      2881 1.08940E-04-2.00833E-05-3.80410E-05-1.70685E-06-1.98788E-19-1.11272E-18
 -1      2882 1.10878E-04-3.29550E-05-3.35174E-05-9.51432E-06 1.44582E-18-1.90193E-18
 -1      2883 1.09103E-04-2.91618E-05-3.41816E-05-8.96914E-06 1.44667E-18-1.40716E-18
 -1      2884 1.12026E-04-2.66461E-05-3.66175E-05-9.39977E-06 1.80182E-18-8.29258E-19
 -1      2885 1.12589E-04-3.81580E-05-3.18936E-05-6.32629E-06 1.21510E-18-2.53904E-18
 -1      2886 1.11692E-04-3.59635E-05-3.24599E-05-7.75772E-06 1.53682E-18-2.24704E-18
 -1      2887 1.15916E-04-3.62698E-05-3.42415E-05-9.08153E-06 1.92472E-18-2.45853E-18
 -1      2888 1.10775E-04-3.89825E-05-3.07548E-05-6.19608E-07-9.43869E-19-1.50325E-18
 -1      2889 1.11390E-04-3.89895E-05-3.11143E-05-2.85691E-06-3.70299E-19-1.53722E-18
 -1      2890 1.16096E-04-4.15224E-05-3.21075E-05-3.77011E-06 1.83039E-20-3.46581E-18
 -1      2891 1.06983E-04-3.65244E-05-3.01654E-05 4.05244E-06-1.24727E-18 3.01785E-19
 -1      2892 1.08508E-04-3.78811E-05-3.03447E-05 2.20972E-06-6.54371E-19-2.36983E-19
 -1      2893 1.12310E-04-4.07637E-05-3.07413E-05 2.50765E-06-1.53390E-18-1.33167E-18
 -1      2894 1.03276E-04-3.32575E-05-2.99795E-05 6.79894E-06-1.98873E-18 2.44649E-18
 -1      2895 1.05133E-04-3.51446E-05-3.00546E-05 5.90501E-06-1.74012E-18 8.06327E-19
 -1      2896 1.08152E-04-3.75459E-05-3.02102E-05 7.07404E-06-2.19887E-18-4.77784E-19
 -1      2897 1.03932E-04-3.34712E-05-3.01459E-05 9.85016E-06-3.14322E-18 9.26497E-19
 -1      2898 7.37166E-05-1.21688E-05-2.64110E-05 8.48288E-06-5.06198E-19 1.76838E-18
 -1      2899 7.69609E-05-1.42777E-05-2.66746E-05 1.42955E-05-2.21532E-19 8.84342E-19
 -1      2900 1.05983E-04-3.56391E-05-3.01792E-05-1.10703E-05 6.73537E-19-2.21865E-18
 -1      2901 1.04150E-04-3.36086E-05-3.01757E-05-1.14030E-05 5.43029E-19-1.26453E-18
 -1      2902 1.03576E-04-3.32363E-05-3.01794E-05-1.40079E-05 9.92776E-19-1.12790E-18
 -1      2903 1.08127E-04-3.82337E-05-3.00469E-05-1.33285E-05 1.45216E-18-1.04759E-18
 -1      2904 9.28031E-05-2.64305E-05-2.85583E-05 2.35115E-05-9.12446E-20 8.35290E-19
 -1      2905 9.73157E-05-2.94420E-05-2.89432E-05 2.31327E-05 9.40501E-19-1.69061E-19
 -1      2906 7.34505E-05-1.17027E-05-2.63491E-05-6.71637E-06-1.25498E-18-7.65585E-19
 -1      2907 7.24221E-05-1.12175E-05-2.62491E-05-1.25724E-07-1.56847E-18 1.31467E-18
 -1      2908 7.00855E-05-1.29202E-05-2.42757E-05 4.74218E-06-7.83552E-19 6.90722E-19
 -1      2909 8.18101E-05-1.87010E-05-2.72164E-05 1.98312E-05 2.90638E-19 3.27656E-19
 -1      2910 8.71268E-05-2.20234E-05-2.76764E-05 2.27131E-05 3.54746E-19 1.11429E-18
 -1      2911 9.02835E-05-2.78712E-05-2.67104E-05 2.61770E-05-5.97099E-19 1.60020E-18
 -1      2912 8.10696E-05-1.72344E-05-2.71477E-05-1.88031E-05 2.82767E-19-2.51528E-18
 -1      2913 7.66384E-05-1.45007E-05-2.67832E-05-1.42316E-05-8.50243E-19-1.72228E-18
 -1      2914 7.17683E-05-1.44904E-05-2.44328E-05-1.20034E-05-8.20874E-19-8.12794E-19
 -1      2915 9.17921E-05-2.51259E-05-2.83835E-05-2.34269E-05 2.66558E-18-2.31862E-18
 -1      2916 8.66487E-05-2.17990E-05-2.79438E-05-2.21188E-05 1.47040E-18-3.04752E-18
 -1      2917 8.29560E-05-2.23408E-05-2.59099E-05-2.31609E-05 8.70393E-19-1.18559E-18
 -1      2918 1.00136E-04-3.10983E-05-2.94418E-05-2.12465E-05 1.76823E-18 1.84700E-19
 -1      2919 9.64865E-05-2.86128E-05-2.91506E-05-2.26845E-05 2.93099E-18-8.12434E-19
 -1      2920 9.51474E-05-3.05904E-05-2.77294E-05-2.52361E-05 1.84070E-18-7.33081E-19
 -1      2921 1.02532E-04-3.23442E-05-3.00744E-05-1.66795E-05 1.33569E-18 6.57288E-19
 -1      2922 1.42543E-04-6.05980E-05-3.55465E-05 1.16733E-05-2.37249E-18 1.37124E-18
 -1      2923 1.34561E-04-6.33303E-05-3.04152E-05 2.18898E-05-2.90088E-18 1.74208E-18
 -1      2924 5.73853E-05-2.77423E-05-1.25457E-05 3.56345E-05-1.38045E-18 1.21062E-18
 -1      2925 4.61578E-05-2.01844E-05-1.04440E-05 2.39329E-05-1.78247E-18 1.12740E-18
 -1      2926 1.45082E-04-4.67853E-05-4.21878E-05 4.95529E-06 6.66086E-19-2.98981E-18
 -1      2927 1.40822E-04-3.50713E-05-4.60155E-05 9.14789E-06 4.45857E-19-2.35539E-18
 -1      2928 1.38754E-04-3.65916E-05-4.39866E-05 1.56763E-05 1.35102E-18 4.08990E-18
 -1      2929 1.36015E-04-2.61449E-05-4.79002E-05 1.62289E-05 2.86128E-18 4.47975E-18
 -1      2930 9.44564E-05-2.14301E-05-3.13390E-05-7.65280E-06-2.40144E-18-1.45701E-18
 -1      2931 9.50195E-05-2.31929E-05-3.07374E-05-5.99321E-06-2.11723E-18-1.22043E-18
 -1      2932 9.50480E-05-2.43893E-05-3.03009E-05-4.47070E-06-1.89180E-18-1.23273E-18
 -1      2933 9.30736E-05-1.90546E-05-3.17219E-05-7.05337E-06-1.90974E-18-2.25482E-18
 -1      2934 1.20046E-04-6.15563E-05-2.51879E-05 2.55542E-05 1.30888E-18 2.64407E-18
 -1      2935 1.03980E-04-5.65503E-05-1.99717E-05 3.37623E-05 1.35186E-18 1.99662E-18
 -1      2936 5.72867E-05-3.24385E-05-1.04167E-05 3.53190E-05 1.28527E-18-1.82387E-18
 -1      2937 4.26000E-05-2.33747E-05-7.62769E-06 2.59982E-05 1.47331E-19-1.30591E-18
 -1      2938 3.28002E-05-1.75137E-05-6.09750E-06 1.50000E-05-1.85394E-19-9.18819E-19
 -1      2939 2.93952E-05-1.49484E-05-5.70951E-06-7.36947E-09-3.87114E-19-1.42937E-18
 -1      2940 9.47231E-05-2.74145E-05-2.88495E-05 3.90424E-07 1.21933E-18-5.73458E-19
 -1      2941 9.49073E-05-2.71221E-05-2.90222E-05 9.95684E-07 1.37199E-18-2.92380E-19
 -1      2942 9.52532E-05-2.65035E-05-2.94722E-05 1.73800E-06 1.58448E-18-7.36651E-19
 -1      2943 9.51281E-05-2.73815E-05-2.90438E-05 3.76866E-07 1.29547E-18-7.84987E-19
 -1      2944 9.44704E-05-2.83128E-05-2.83526E-05-1.08966E-06 6.63152E-19-3.62923E-19
 -1      2945 9.44407E-05-2.82234E-05-2.83725E-05-1.02127E-06 8.65458E-19-3.75617E-19
 -1      2946 9.49291E-05-2.82423E-05-2.85863E-05-8.98958E-07 7.78826E-19-5.87457E-19
 -1      2947 9.48946E-05-2.84481E-05-2.84815E-05-1.10595E-06 6.17800E-19-2.40645E-19
 -1      2948 9.11803E-05-1.60930E-05-3.22079E-05 4.91792E-06 1.93016E-18-2.39854E-18
 -1      2949 9.08340E-05-1.55917E-05-3.22685E-05 3.99530E-06 1.49292E-18-2.68908E-18
 -1      2950 9.18132E-05-1.72027E-05-3.19601E-05 3.19920E-06 1.27719E-18-2.50651E-18
 -1      2951 9.24821E-05-1.82572E-05-3.17876E-05 4.62749E-06 1.85728E-18-2.15845E-18
 -1      2952 1.43549E-04-4.53371E-05-4.26538E-05-4.14460E-06 5.18278E-20-1.76077E-19
 -1      2953 1.44561E-04-5.44981E-05-3.87902E-05 2.55619E-06-1.99897E-18 7.64235E-19
 -1      2954 1.40150E-04-5.72239E-05-3.56485E-05 4.76440E-06-2.07140E-18 7.76782E-19
 -1      2955 1.27459E-04-1.11117E-05-5.06060E-05-2.53769E-06-2.36110E-18-1.18660E-18
 -1      2956 1.29143E-04-1.20895E-05-5.06902E-05-1.05325E-05-1.75844E-18-1.53985E-18
 -1      2957 9.07982E-05-1.55428E-05-3.22738E-05-3.93295E-06-8.97634E-19-2.99209E-18
 -1      2958 9.11307E-05-1.60312E-05-3.22144E-05-4.86076E-06-1.17418E-18-3.03131E-18
 -1      2959 1.29732E-04-9.60368E-06-5.22458E-05 1.80239E-06 1.13460E-18 3.91442E-19
 -1      2960 1.35403E-04-1.33223E-05-5.27900E-05-4.35397E-06 2.20271E-18 1.80630E-19
 -1      2961 1.32815E-04-1.68540E-05-5.02141E-05 1.46859E-05 3.34684E-18 2.99691E-18
 -1      2962 1.29868E-04-1.15194E-05-5.15029E-05 9.70641E-06 1.61656E-18 9.67735E-19
 -1      2963 1.40047E-04-3.50085E-05-4.56550E-05-1.69235E-05 2.46381E-19-1.43318E-18
 -1      2964 1.42185E-04-4.55899E-05-4.16711E-05-1.27022E-05-1.37357E-18 1.13862E-18
 -1      2965 1.21195E-04-6.14731E-05-2.51973E-05-2.49515E-05-1.05593E-18 2.87165E-18
 -1      2966 1.31847E-04-6.24483E-05-3.03321E-05-1.43227E-05 1.07944E-19 3.51985E-18
 -1      2967 8.92457E-05-5.00120E-05-1.63624E-05-3.85505E-05-1.06207E-18-2.33040E-19
 -1      2968 1.06455E-04-5.77022E-05-2.10570E-05-3.48840E-05-1.40110E-18 1.78528E-18
 -1      2969 5.72152E-05-3.19950E-05-1.02827E-05-3.51307E-05 2.36428E-19-1.42259E-18
 -1      2970 7.26623E-05-4.12792E-05-1.32881E-05-4.00029E-05-4.76562E-19-1.40046E-18
 -1      2971 3.43253E-05-1.67805E-05-6.87848E-06-1.42476E-05 2.45798E-19-2.51675E-18
 -1      2972 4.36030E-05-2.30724E-05-8.37843E-06-2.77782E-05 8.46715E-19-2.68509E-18
 -1      2973 8.82684E-05-4.98563E-05-1.64307E-05 3.88695E-05 1.40502E-18 1.47325E-18
 -1      2974 7.42020E-05-4.19859E-05-1.32596E-05 3.80497E-05 1.56648E-18-2.76768E-19
 -1      2975 1.39471E-04-5.70080E-05-3.51076E-05 3.30819E-07 6.93442E-19 4.01610E-18
 -1      2976 1.41128E-04-4.97207E-05-3.99253E-05 8.76856E-06 1.23172E-18 4.07529E-18
 -1      2977 1.26051E-04-6.32842E-05-2.69612E-05 3.17978E-05-3.90037E-18 3.82814E-18
 -1      2978 1.11452E-04-5.72083E-05-2.29972E-05 3.80779E-05-4.20457E-18 4.37093E-18
 -1      2979 1.31125E-04-6.17624E-05-2.96542E-05 2.17261E-05-2.59234E-18 2.64430E-18
 -1      2980 1.31381E-04-1.82006E-05-4.92987E-05-1.52766E-05-1.04249E-18-1.84658E-18
 -1      2981 1.35269E-04-2.52851E-05-4.75964E-05-1.81797E-05-4.78044E-19-1.47511E-18
 -1      2982 9.47054E-05-2.19077E-05-3.12065E-05 7.84289E-06 2.59824E-18-3.41397E-19
 -1      2983 3.69932E-05-1.51899E-05-8.99586E-06 8.78287E-06-1.99071E-18 1.71482E-18
 -1      2984 3.72690E-05-1.58419E-05-8.55781E-06-1.19203E-05-1.25329E-18 1.54859E-18
 -1      2985 1.39887E-04-6.21677E-05-3.34462E-05-1.52124E-05 4.05941E-19-3.37087E-18
 -1      2986 1.44224E-04-5.63448E-05-3.82688E-05-5.09438E-06 1.17724E-18-3.48289E-18
 -1      2987 9.09395E-05-4.65795E-05-1.88796E-05 4.29517E-05-3.17839E-18 1.95416E-18
 -1      2988 7.33626E-05-3.63452E-05-1.51244E-05 4.08085E-05-1.77178E-18 1.94500E-18
 -1      2989 9.15730E-05-1.66921E-05-3.21139E-05-5.57287E-06-1.34890E-18-2.90827E-18
 -1      2990 9.20551E-05-1.74596E-05-3.20236E-05-6.46688E-06-1.70165E-18-2.78124E-18
 -1      2991 9.24336E-05-1.81945E-05-3.17964E-05-4.55194E-06-1.22873E-18-2.70171E-18
 -1      2992 9.12863E-05-1.63922E-05-3.20854E-05 2.67827E-08 3.06885E-19-2.84602E-18
 -1      2993 9.01652E-05-1.46027E-05-3.24029E-05-3.82572E-07 2.87998E-19-3.06228E-18
 -1      2994 9.02217E-05-1.46848E-05-3.23930E-05-1.34143E-06-3.39488E-20-3.08985E-18
 -1      2995 9.76286E-05-4.83308E-05-2.06538E-05-4.05403E-05 2.76090E-18-1.35134E-18
 -1      2996 1.05489E-04-5.49187E-05-2.11670E-05-4.11619E-05 3.03820E-18-1.22063E-18
 -1      2997 1.15038E-04-5.77976E-05-2.45107E-05-3.46556E-05 2.14236E-18-2.06145E-18
 -1      2998 1.00188E-04-5.25726E-05-2.00037E-05 3.26332E-05 7.23790E-19 1.93918E-18
 -1      2999 7.16887E-05-3.34877E-05-1.57084E-05-3.78144E-05 2.06030E-18 1.00045E-18
 -1      3000 1.26578E-04-2.91309E-05-4.21044E-05-1.98056E-05 9.71864E-19-1.80672E-18
 -1      3001 1.19624E-04-2.51553E-05-4.08895E-05-1.78954E-05 3.78041E-19-6.45810E-19
 -1      3002 1.16773E-04-1.95475E-05-4.19309E-05-1.33478E-05-5.38184E-19-1.49897E-18
 -1      3003 1.01230E-04-3.49058E-05-2.84912E-05 2.36753E-05-7.82907E-19 2.04532E-19
 -1      3004 1.00829E-04-3.18293E-05-2.95893E-05 2.06611E-05 4.36462E-20-7.68648E-19
 -1      3005 1.03196E-04-3.35735E-05-2.97756E-05 1.83742E-05-1.64098E-18 3.91892E-19
 -1      3006 1.04520E-04-5.20497E-05-2.20701E-05 3.89943E-05-3.85024E-18 3.84403E-18
 -1      3007 9.63415E-05-4.45370E-05-2.19762E-05 3.77873E-05-2.21319E-18 2.61463E-18
 -1      3008 1.14225E-04-5.51608E-05-2.55179E-05 3.27133E-05-3.10538E-18 5.61085E-18
 -1      3009 1.36375E-04-6.42495E-05-3.09368E-05-1.98668E-05 8.35757E-19-3.44155E-18
 -1      3010 1.36806E-04-6.14752E-05-3.28423E-05-1.11809E-05 1.35087E-18-1.79147E-18
 -1      3011 1.28095E-04-6.11322E-05-2.83760E-05-2.47373E-05 9.83193E-19-3.48503E-18
 -1      3012 1.32715E-04-3.16515E-05-4.36891E-05-1.85177E-05 8.45974E-20-1.60100E-18
 -1      3013 7.81957E-05-1.89976E-05-2.51503E-05 1.97302E-05 9.24768E-19 1.23156E-18
 -1      3014 1.03962E-04-3.36975E-05-3.00785E-05 1.53424E-05-2.56607E-18 5.87593E-19
 -1      3015 1.04482E-04-3.42537E-05-3.00780E-05 1.25918E-05-2.94714E-18 9.35793E-19
 -1      3016 1.06594E-04-3.66324E-05-3.00243E-05 1.17268E-05-3.34053E-18 6.93764E-19
 -1      3017 1.06220E-04-3.72695E-05-2.95904E-05 1.76219E-05-2.34544E-18 1.45312E-18
 -1      3018 1.33489E-04-5.87195E-05-3.20014E-05-4.70453E-06 1.15403E-18 2.88515E-18
 -1      3019 1.06882E-04-3.73006E-05-2.97126E-05-1.65845E-05 1.45441E-18-1.26040E-19
 -1      3020 1.02776E-04-3.36181E-05-2.96998E-05-1.92768E-05 1.15959E-18 8.06150E-19
 -1      3021 1.04468E-04-3.67052E-05-2.90160E-05-2.15612E-05 6.96390E-19 9.35657E-20
 -1      3022 1.09645E-04-4.02583E-05-2.97041E-05-1.59708E-05 5.63939E-19 6.39725E-20
 -1      3023 7.12375E-05-3.08366E-05-1.67411E-05 3.55343E-05-6.66086E-19 1.82149E-18
 -1      3024 1.24406E-04-1.63272E-05-4.66504E-05-1.34524E-05-1.34361E-18-7.15531E-19
 -1      3025 4.91657E-05-1.76916E-05-1.28014E-05-1.72898E-05 9.55824E-19 6.18969E-19
 -1      3026 4.88984E-05-1.68595E-05-1.30327E-05 1.40605E-05-1.63382E-18 9.32901E-19
 -1      3027 1.35250E-04-3.21231E-05-4.45028E-05 1.05959E-05 4.48927E-20-1.98280E-18
 -1      3028 1.37378E-04-2.50915E-05-4.85684E-05 1.03819E-05-6.08805E-19-2.27640E-18
 -1      3029 1.32360E-04-1.69258E-05-5.00828E-05 6.11760E-06-1.62927E-18-2.13664E-19
 -1      3030 3.92813E-05-1.55496E-05-9.52318E-06-6.94376E-06 6.80803E-19-2.69801E-18
 -1      3031 1.28531E-04-2.22700E-05-4.57889E-05 1.71957E-05 2.16692E-18 6.79426E-19
 -1      3032 5.69995E-05-2.68734E-05-1.23758E-05-2.90859E-05 2.55804E-19-1.99900E-18
 -1      3033 8.58703E-05-4.50632E-05-1.70414E-05-3.59579E-05-8.81444E-19-3.09696E-20
 -1      3034 1.14244E-04-5.81218E-05-2.38271E-05-2.69814E-05-6.63544E-19 1.98866E-18
 -1      3035 9.50405E-05-2.40730E-05-3.04188E-05-4.14540E-06-1.74399E-18-1.43688E-18
 -1      3036 6.99623E-05-3.60003E-05-1.39857E-05 3.39990E-05 1.03952E-18-1.09924E-18
 -1      3037 4.45554E-05-1.98634E-05-9.92003E-06 1.94575E-05-2.50245E-19-7.98646E-19
 -1      3038 1.35685E-04-4.28624E-05-4.00384E-05 1.42898E-05 1.36298E-18 3.07081E-18
 -1      3039 1.41047E-04-5.07263E-05-3.86105E-05 3.10404E-06 1.16795E-18-1.82186E-18
 -1      3040 1.31210E-04-1.82610E-05-4.87006E-05-7.24547E-06 1.39231E-18-3.08161E-18
 -1      3041 9.03476E-05-1.48739E-05-3.23654E-05-2.17657E-06-2.33760E-19-2.81236E-18
 -1      3042 9.05325E-05-1.51407E-05-3.23333E-05-3.12942E-06-6.38158E-19-2.78712E-18
 -1      3043 9.17843E-05-1.71626E-05-3.19644E-05-3.13530E-06-7.05222E-19-2.63234E-18
 -1      3044 9.14060E-05-1.65759E-05-3.20565E-05-1.58198E-06-1.54006E-19-2.76312E-18
 -1      3045 1.29130E-04-6.32155E-05-2.80812E-05 1.70146E-05 1.29776E-18 2.68552E-18
 -1      3046 1.21196E-04-6.00297E-05-2.59608E-05 2.02435E-05 9.20407E-19 1.66732E-18
 -1      3047 1.33330E-04-6.14680E-05-3.11384E-05 7.18954E-06 5.73494E-19 1.19410E-18
 -1      3048 1.25391E-04-1.23870E-05-4.90057E-05 8.03491E-07-2.01657E-18-1.73329E-18
 -1      3049 1.19483E-04-1.27777E-05-4.62089E-05-3.51155E-06-1.55928E-18-1.21684E-18
 -1      3050 1.40823E-04-3.99607E-05-4.36520E-05-8.39497E-06 1.22989E-18-2.14829E-18
 -1      3051 1.36920E-04-4.52757E-05-3.94588E-05-6.34278E-06-1.34991E-18-2.09524E-18
 -1      3052 1.34368E-04-3.21382E-05-4.42552E-05-1.12779E-05 1.24673E-18-3.53319E-18
 -1      3053 9.43560E-05-2.14355E-05-3.12597E-05 7.21468E-06 2.46866E-18-8.23207E-19
 -1      3054 9.45897E-05-2.24633E-05-3.09141E-05 5.68165E-06 2.23944E-18-1.03498E-18
 -1      3055 9.51543E-05-2.39576E-05-3.05001E-05 4.46108E-06 1.96901E-18-9.61225E-19
 -1      3056 9.45193E-05-2.24280E-05-3.09038E-05 4.93332E-06 2.08358E-18-1.25297E-18
 -1      3057 9.51914E-05-2.49460E-05-3.01238E-05 3.16369E-06 1.79298E-18-9.14133E-19
 -1      3058 9.40728E-05-2.15214E-05-3.10951E-05 4.60525E-06 1.84998E-18-1.57430E-18
 -1      3059 1.31488E-04-3.80730E-05-4.03278E-05-1.91073E-05 1.19643E-18-1.11814E-18
 -1      3060 1.28488E-04-5.87485E-05-2.94889E-05-8.67453E-06 1.34721E-18 3.29562E-18
 -1      3061 1.32156E-04-5.53430E-05-3.34796E-05 2.61766E-06 1.16583E-18 3.05779E-18
 -1      3062 1.36344E-04-5.31629E-05-3.60636E-05-4.46332E-07-1.58575E-18 2.06544E-19
 -1      3063 1.35293E-04-5.66657E-05-3.34913E-05 6.31678E-06-1.85417E-18 1.25978E-18
 -1      3064 1.06675E-04-5.41224E-05-2.26354E-05 2.83840E-05-4.01335E-19 1.65574E-18
 -1      3065 9.38605E-05-4.71717E-05-1.96149E-05 3.19473E-05 2.38810E-19 1.29376E-18
 -1      3066 9.56815E-05-2.68807E-05-2.94712E-05-7.46334E-07-1.24645E-18-1.34731E-18
 -1      3067 9.56570E-05-2.73298E-05-2.92913E-05-2.22405E-07-1.03669E-18-1.47611E-18
 -1      3068 9.57007E-05-2.77151E-05-2.91254E-05 1.56905E-07-9.57907E-19-1.41321E-18
 -1      3069 9.56637E-05-2.80015E-05-2.90027E-05 4.71381E-07-1.02878E-18-1.57455E-18
 -1      3070 9.58985E-05-2.73328E-05-2.93882E-05-1.67706E-07-1.05284E-18-1.51298E-18
 -1      3071 9.56561E-05-2.82398E-05-2.88848E-05 6.92671E-07-9.17601E-19-1.36603E-18
 -1      3072 9.56239E-05-2.84203E-05-2.88037E-05 8.60252E-07-8.05638E-19-1.40892E-18
 -1      3073 9.59395E-05-2.80573E-05-2.90960E-05 4.66669E-07-9.46431E-19-1.21932E-18
 -1      3074 9.55921E-05-2.85617E-05-2.87221E-05 9.69114E-07-5.55790E-19-1.37718E-18
 -1      3075 9.55691E-05-2.86715E-05-2.86711E-05 1.03828E-06-5.18152E-19-1.04933E-18
 -1      3076 9.59061E-05-2.85079E-05-2.88884E-05 8.23853E-07-6.62597E-19-1.39317E-18
 -1      3077 9.55278E-05-2.87484E-05-2.86167E-05 1.07190E-06-5.25863E-19-8.01011E-19
 -1      3078 9.55136E-05-2.88103E-05-2.85868E-05 1.07856E-06-4.39904E-19-5.79721E-19
 -1      3079 9.58385E-05-2.87736E-05-2.87451E-05 9.87284E-07-2.77695E-19-1.29736E-18
 -1      3080 9.54704E-05-2.88442E-05-2.85525E-05 1.06532E-06-6.28068E-19-2.78188E-19
 -1      3081 9.54631E-05-2.88734E-05-2.85376E-05 1.03545E-06-5.88422E-19-4.08177E-19
 -1      3082 9.57586E-05-2.89142E-05-2.86501E-05 1.02347E-06-4.21996E-19-7.68093E-19
 -1      3083 9.54218E-05-2.88787E-05-2.85179E-05 9.96251E-07-6.42312E-19-3.75635E-19
 -1      3084 9.54194E-05-2.88854E-05-2.85133E-05 9.48335E-07-6.15477E-19-5.31143E-19
 -1      3085 9.56776E-05-2.89703E-05-2.85908E-05 9.82759E-07-6.77872E-19-2.10575E-19
 -1      3086 9.53817E-05-2.88719E-05-2.85043E-05 8.98268E-07-3.90196E-19-3.53273E-19
 -1      3087 9.53827E-05-2.88632E-05-2.85070E-05 8.45404E-07-1.22742E-19-3.63777E-19
 -1      3088 9.56012E-05-2.89697E-05-2.85580E-05 9.02129E-07-4.60630E-19 7.98505E-20
 -1      3089 9.53491E-05-2.88370E-05-2.85058E-05 7.95253E-07-3.58330E-19-6.56934E-19
 -1      3090 9.53524E-05-2.88173E-05-2.85135E-05 7.46751E-07-4.18661E-19-6.04896E-19
 -1      3091 9.55317E-05-2.89308E-05-2.85445E-05 8.08282E-07-2.02646E-19-5.30826E-19
 -1      3092 9.53225E-05-2.87823E-05-2.85182E-05 7.04296E-07-5.48944E-19-7.54403E-19
 -1      3093 9.53275E-05-2.87544E-05-2.85297E-05 6.66962E-07-3.31676E-19-6.34860E-19
 -1      3094 9.54694E-05-2.88656E-05-2.85454E-05 7.20444E-07-4.93724E-19-1.07206E-18
 -1      3095 9.53003E-05-2.87123E-05-2.85389E-05 6.38057E-07-4.81588E-19-5.66374E-19
 -1      3096 9.53065E-05-2.86776E-05-2.85535E-05 6.17191E-07-6.27309E-19-5.35160E-19
 -1      3097 9.54130E-05-2.87809E-05-2.85574E-05 6.52766E-07-5.43974E-19-4.78140E-19
 -1      3098 9.52807E-05-2.86289E-05-2.85665E-05 6.06605E-07-4.74453E-19-3.04757E-19
 -1      3099 9.52881E-05-2.85875E-05-2.85840E-05 6.06759E-07-5.59848E-19-8.31325E-20
 -1      3100 9.53604E-05-2.86796E-05-2.85780E-05 6.16267E-07-3.19152E-19-6.03618E-19
 -1      3101 9.52620E-05-2.85316E-05-2.86004E-05 6.18812E-07-5.48613E-19 1.03317E-19
 -1      3102 9.52706E-05-2.84831E-05-2.86210E-05 6.44357E-07-4.95283E-19 3.58379E-19
 -1      3103 9.53086E-05-2.85617E-05-2.86062E-05 6.20321E-07-3.10109E-19 4.65071E-19
 -1      3104 9.52421E-05-2.84184E-05-2.86406E-05 6.83397E-07-7.20432E-19 1.51173E-20
 -1      3105 9.52520E-05-2.83616E-05-2.86648E-05 7.38930E-07-6.03144E-19-1.44728E-19
 -1      3106 9.52539E-05-2.84252E-05-2.86411E-05 6.73774E-07-7.18919E-19 9.62031E-20
 -1      3107 9.52186E-05-2.82859E-05-2.86877E-05 8.09664E-07-3.08498E-19-2.45596E-19
 -1      3108 9.52300E-05-2.82195E-05-2.87159E-05 9.00265E-07-3.39769E-19-2.86248E-19
 -1      3109 9.51918E-05-2.82660E-05-2.86825E-05 7.85761E-07-5.46964E-19-8.31443E-19
 -1      3110 9.51888E-05-2.81302E-05-2.87421E-05 1.00795E-06-4.58261E-19-1.05476E-19
 -1      3111 9.52021E-05-2.80526E-05-2.87749E-05 1.13928E-06-2.08361E-19-5.24170E-19
 -1      3112 9.51171E-05-2.80792E-05-2.87303E-05 9.66214E-07-3.99219E-19-5.70379E-19
 -1      3113 9.51497E-05-2.79473E-05-2.88043E-05 1.28976E-06-2.98685E-19-4.04329E-19
 -1      3114 9.51650E-05-2.78574E-05-2.88421E-05 1.46798E-06 1.03554E-19-9.27308E-19
 -1      3115 9.50236E-05-2.78594E-05-2.87841E-05 1.22608E-06-2.61447E-19-5.76657E-19
 -1      3116 9.50978E-05-2.77338E-05-2.88743E-05 1.66758E-06 3.61508E-19-1.03786E-18
 -1      3117 9.51157E-05-2.76313E-05-2.89172E-05 1.89905E-06 2.51821E-19-9.96206E-19
 -1      3118 9.49043E-05-2.76019E-05-2.88430E-05 1.57723E-06 9.25703E-20-3.36068E-19
 -1      3119 9.50298E-05-2.74887E-05-2.89510E-05 2.15425E-06 1.78697E-19-6.50576E-19
 -1      3120 9.50510E-05-2.73752E-05-2.89986E-05 2.44495E-06 2.36249E-19-2.87016E-19
 -1      3121 9.47520E-05-2.73037E-05-2.89050E-05 2.03202E-06 3.96610E-19-4.16889E-19
 -1      3122 9.49432E-05-2.72151E-05-2.90321E-05 2.76194E-06 1.23062E-19-1.57963E-19
 -1      3123 9.49697E-05-2.70955E-05-2.90829E-05 3.11655E-06 3.63493E-20 3.42450E-19
 -1      3124 9.45595E-05-2.69659E-05-2.89667E-05 2.60257E-06 3.75121E-19-2.92809E-20
 -1      3125 9.48382E-05-2.69239E-05-2.91128E-05 3.50055E-06-1.72503E-19 1.54047E-19
 -1      3126 9.48745E-05-2.68087E-05-2.91642E-05 3.92108E-06 3.40620E-19 3.52878E-20
 -1      3127 9.43217E-05-2.65969E-05-2.90222E-05 3.29964E-06 6.57739E-20 7.11104E-20
 -1      3128 9.47213E-05-2.66390E-05-2.91856E-05 4.37559E-06 7.18228E-19-3.44164E-19
 -1      3129 9.47769E-05-2.65485E-05-2.92331E-05 4.85953E-06 1.21708E-19 2.05038E-19
 -1      3130 9.40385E-05-2.62177E-05-2.90627E-05 4.13146E-06 4.05336E-19-5.64680E-19
 -1      3131 9.46121E-05-2.64063E-05-2.92389E-05 5.38545E-06-5.55150E-19 4.97186E-19
 -1      3132 9.47066E-05-2.63755E-05-2.92760E-05 5.92331E-06-2.22238E-19 8.47288E-19
 -1      3133 9.37209E-05-2.58697E-05-2.90755E-05 5.10259E-06 2.21145E-19-1.08041E-19
 -1      3134 9.45549E-05-2.63056E-05-2.92569E-05 6.51818E-06-3.25627E-19 6.43271E-19
 -1      3135 9.47256E-05-2.63928E-05-2.92752E-05 7.09022E-06 1.10538E-19 7.09922E-20
 -1      3136 9.34015E-05-2.56268E-05-2.90433E-05 6.21329E-06-1.81397E-19 1.13085E-19
 -1      3137 9.46379E-05-2.64687E-05-2.92203E-05 7.74711E-06-7.82522E-20-3.21114E-19
 -1      3138 9.49525E-05-2.67654E-05-2.92102E-05 8.31864E-06-1.44439E-19-5.89876E-19
 -1      3139 9.31514E-05-2.56121E-05-2.89449E-05 7.45946E-06-5.69005E-19-2.72932E-19
 -1      3140 9.50233E-05-2.71011E-05-2.91090E-05 9.02328E-06-4.07230E-19-3.87412E-19
 -1      3141 9.55963E-05-2.77428E-05-2.90634E-05 9.53684E-06-2.97011E-19-1.36621E-19
 -1      3142 9.31084E-05-2.60207E-05-2.87573E-05 8.83210E-06-4.47637E-19 7.81639E-20
 -1      3143 9.59892E-05-2.85038E-05-2.89107E-05 1.02581E-05 1.28839E-19 5.12922E-19
 -1      3144 9.69976E-05-2.96731E-05-2.88319E-05 1.06181E-05-3.68028E-19 7.77234E-19
 -1      3145 9.35181E-05-2.71465E-05-2.84628E-05 1.03107E-05 1.42997E-19-2.53308E-20
 -1      3146 9.79771E-05-3.10758E-05-2.86392E-05 1.12786E-05-1.44407E-18 1.03929E-18
 -1      3147 9.96592E-05-3.29775E-05-2.85534E-05 1.13210E-05-2.31610E-18 6.84030E-19
 -1      3148 9.47927E-05-2.94029E-05-2.80642E-05 1.18343E-05-8.21212E-19-4.19346E-19
 -1      3149 1.01610E-04-3.52471E-05-2.83709E-05 1.17188E-05-1.58608E-18 1.17968E-18
 -1      3150 1.04226E-04-3.80022E-05-2.83539E-05 1.11507E-05-3.33289E-19 1.49440E-18
 -1      3151 9.75787E-05-3.33107E-05-2.76183E-05 1.32022E-05-1.53120E-18 5.33432E-19
 -1      3152 1.07601E-04-4.12648E-05-2.83133E-05 1.09072E-05-8.01882E-19 1.84905E-18
 -1      3153 1.11245E-04-4.46535E-05-2.85346E-05 9.22284E-06-4.76919E-19 1.28256E-18
 -1      3154 1.02649E-04-3.92256E-05-2.73031E-05 1.38920E-05-4.59476E-19 6.79142E-19
 -1      3155 1.16506E-04-4.85022E-05-2.89442E-05 7.34882E-06-2.36541E-19 5.68604E-19
 -1      3156 1.20873E-04-5.12734E-05-2.97599E-05 3.69624E-06-2.37355E-19 2.96051E-19
 -1      3157 1.11218E-04-4.73907E-05-2.75329E-05 1.28749E-05-1.22715E-18 1.15864E-18
 -1      3158 1.26255E-04-5.52990E-05-3.03153E-05 3.27217E-06 5.26749E-20 1.21586E-18
 -1      3159 1.30026E-04-5.50519E-05-3.21276E-05-1.68896E-06-6.34282E-21 1.10855E-18
 -1      3160 1.31587E-04-4.49243E-05-3.75025E-05-1.52787E-05 4.29869E-20 1.85553E-20
 -1      3161 1.33093E-04-5.24337E-05-3.46099E-05-9.91553E-07 8.77195E-19-1.38813E-18
 -1      3162 1.30457E-04-5.48797E-05-3.23154E-05-6.05857E-06 1.03911E-18-1.16856E-18
 -1      3163 1.26142E-04-5.42752E-05-3.07779E-05-1.13061E-05 4.17905E-19-1.29637E-18
 -1      3164 1.19052E-04-4.92076E-05-2.99072E-05-1.36817E-05-2.18905E-20-5.26868E-19
 -1      3165 1.14538E-04-4.53666E-05-2.95340E-05-1.59813E-05 3.64882E-20-4.34814E-19
 -1      3166 1.12160E-04-4.46076E-05-2.90571E-05-1.98546E-05 1.58435E-19 5.43808E-19
 -1      3167 1.23797E-04-5.55024E-05-2.93992E-05-1.88385E-05 1.04770E-18-1.61614E-18
 -1      3168 4.15143E-05-1.36953E-05-1.14554E-05 1.39713E-06 6.88790E-19-2.85556E-18
 -1      3169 4.55487E-05-1.57568E-05-1.24725E-05-1.20634E-05 1.28963E-18-3.28501E-18
 -1      3170 9.52243E-05-2.87711E-05-2.84790E-05-1.07329E-06 8.84125E-19-4.10188E-19
 -1      3171 9.52117E-05-2.87377E-05-2.84873E-05-1.10521E-06 9.87527E-19-3.81112E-19
 -1      3172 9.52429E-05-2.87036E-05-2.85164E-05-1.11805E-06 7.94438E-19-2.62611E-19
 -1      3173 9.52395E-05-2.86416E-05-2.85387E-05-1.11210E-06 7.09082E-19-1.68452E-19
 -1      3174 9.55261E-05-2.88181E-05-2.85918E-05-1.08191E-06 9.18534E-19-1.63120E-19
 -1      3175 9.52127E-05-2.87864E-05-2.84671E-05-8.71790E-07 1.61443E-19-3.47806E-19
 -1      3176 9.51926E-05-2.87867E-05-2.84600E-05-9.28142E-07 2.80042E-19-5.74500E-19
 -1      3177 9.52152E-05-2.87578E-05-2.84803E-05-7.64931E-07 1.95999E-19-1.63717E-19
 -1      3178 9.51942E-05-2.87681E-05-2.84691E-05-8.17482E-07 1.67603E-19-2.14929E-19
 -1      3179 9.53866E-05-2.88656E-05-2.85102E-05-8.50199E-07 5.16480E-20-1.81207E-19
 -1      3180 9.52211E-05-2.87141E-05-2.85015E-05-6.75720E-07 3.53439E-19 6.67559E-20
 -1      3181 9.51999E-05-2.87318E-05-2.84874E-05-7.17720E-07 4.62602E-19 1.28427E-19
 -1      3182 9.53540E-05-2.88177E-05-2.85164E-05-7.52325E-07 2.71612E-19-3.37108E-19
 -1      3183 9.52299E-05-2.86585E-05-2.85289E-05-6.15279E-07 3.81342E-19-7.84123E-20
 -1      3184 9.52084E-05-2.86822E-05-2.85125E-05-6.41579E-07 3.55478E-19-5.40833E-21
 -1      3185 9.53265E-05-2.87526E-05-2.85323E-05-6.73719E-07 4.21896E-19 9.27100E-20
 -1      3186 9.52412E-05-2.85923E-05-2.85619E-05-5.92692E-07-1.48403E-19 5.25407E-19
 -1      3187 9.52188E-05-2.86214E-05-2.85432E-05-5.98967E-07 2.66545E-19 4.07057E-19
 -1      3188 9.53028E-05-2.86734E-05-2.85560E-05-6.25619E-07-1.50810E-20 2.00116E-19
 -1      3189 9.52551E-05-2.85152E-05-2.86006E-05-6.16257E-07-1.10736E-19 4.14697E-19
 -1      3190 9.52309E-05-2.85496E-05-2.85792E-05-5.98433E-07-7.79941E-20 2.82020E-19
 -1      3191 9.52812E-05-2.85809E-05-2.85863E-05-6.17401E-07-1.16885E-19 7.30831E-19
 -1      3192 9.52721E-05-2.84260E-05-2.86458E-05-6.94370E-07-1.77971E-19 5.18085E-19
 -1      3193 9.52446E-05-2.84661E-05-2.86210E-05-6.48231E-07-1.41934E-19 6.94578E-19
 -1      3194 9.52599E-05-2.84740E-05-2.86229E-05-6.57756E-07-2.02546E-19 8.33108E-20
 -1      3195 9.52928E-05-2.83229E-05-2.86984E-05-8.36103E-07 4.44656E-19 9.26613E-20
 -1      3196 9.52603E-05-2.83692E-05-2.86696E-05-7.57045E-07 3.18066E-19 8.00272E-19
 -1      3197 9.52369E-05-2.83503E-05-2.86660E-05-7.55532E-07 1.28725E-19 4.47807E-20
 -1      3198 9.53184E-05-2.82041E-05-2.87597E-05-1.05145E-06 2.79157E-19 5.49528E-19
 -1      3199 9.52787E-05-2.82570E-05-2.87258E-05-9.34418E-07 1.71799E-19 4.40368E-19
 -1      3200 9.52102E-05-2.82070E-05-2.87160E-05-9.20256E-07 2.78008E-19 5.78983E-19
 -1      3201 9.53503E-05-2.80686E-05-2.88307E-05-1.35120E-06 1.37025E-19 6.63468E-19
 -1      3202 9.53008E-05-2.81278E-05-2.87911E-05-1.19082E-06 4.75152E-19 6.58132E-19
 -1      3203 9.51777E-05-2.80411E-05-2.87730E-05-1.16233E-06 2.29088E-20 1.31412E-18
 -1      3204 9.53908E-05-2.79174E-05-2.89121E-05-1.74636E-06 1.56365E-19 1.42511E-18
 -1      3205 9.53284E-05-2.79816E-05-2.88660E-05-1.53734E-06 2.18866E-19 8.68076E-19
 -1      3206 9.51374E-05-2.78510E-05-2.88372E-05-1.49285E-06-4.95060E-20 1.69349E-18
 -1      3207 9.54440E-05-2.77549E-05-2.90038E-05-2.24700E-06-3.56243E-19 7.00885E-19
 -1      3208 9.53645E-05-2.78206E-05-2.89510E-05-1.98487E-06 1.78208E-20 1.19927E-18
 -1      3209 9.50886E-05-2.76374E-05-2.89076E-05-1.92301E-06 9.59180E-20 1.46302E-18
 -1      3210 9.55165E-05-2.75916E-05-2.91040E-05-2.86033E-06-3.16130E-19-1.36362E-19
 -1      3211 9.54143E-05-2.76520E-05-2.90451E-05-2.54262E-06-1.46267E-19 7.46762E-20
 -1      3212 9.50320E-05-2.74059E-05-2.89824E-05-2.46302E-06 2.06596E-19 7.08903E-19
 -1      3213 9.56202E-05-2.74480E-05-2.92093E-05-3.58788E-06-2.72289E-19-5.48649E-19
 -1      3214 9.54871E-05-2.74909E-05-2.91457E-05-3.21590E-06 2.34343E-20-2.28741E-19
 -1      3215 9.49723E-05-2.71700E-05-2.90579E-05-3.12036E-06 1.11219E-19 4.72774E-19
 -1      3216 9.57768E-05-2.73601E-05-2.93135E-05-4.42135E-06-4.32666E-19-1.17857E-18
 -1      3217 9.55999E-05-2.73650E-05-2.92480E-05-4.00276E-06-4.31322E-19-1.23061E-18
 -1      3218 9.49216E-05-2.69560E-05-2.91281E-05-3.89740E-06 1.86862E-19-5.38439E-19
 -1      3219 9.60239E-05-2.73873E-05-2.94074E-05-5.33700E-06-3.27453E-19-1.34053E-18
 -1      3220 9.57828E-05-2.73213E-05-2.93445E-05-4.88933E-06-4.64151E-19-1.49304E-18
 -1      3221 9.49050E-05-2.68100E-05-2.91841E-05-4.78818E-06 1.22132E-20-1.02579E-18
 -1      3222 9.64267E-05-2.76229E-05-2.94790E-05-6.28786E-06-1.57553E-19-1.23127E-18
 -1      3223 9.60881E-05-2.74356E-05-2.94245E-05-5.84334E-06-3.19168E-19-1.14989E-18
 -1      3224 9.49699E-05-2.68078E-05-2.92145E-05-5.77419E-06-5.09007E-19-1.64084E-18
 -1      3225 9.70922E-05-2.82047E-05-2.95152E-05-7.19293E-06 1.30096E-19-1.16148E-18
 -1      3226 9.66042E-05-2.78236E-05-2.94755E-05-6.80484E-06 4.37654E-19-7.68621E-19
 -1      3227 9.52002E-05-2.70666E-05-2.92058E-05-6.81829E-06-3.51612E-20-6.60753E-19
 -1      3228 9.81862E-05-2.93217E-05-2.95067E-05-7.92131E-06 2.90869E-19-6.03509E-19
 -1      3229 9.74726E-05-2.86508E-05-2.94862E-05-7.67242E-06 1.29980E-19-1.09418E-18
 -1      3230 9.57364E-05-2.77587E-05-2.91456E-05-7.85505E-06 3.56356E-19-9.10792E-19
 -1      3231 9.99442E-05-3.12026E-05-2.94575E-05-8.26873E-06-7.98945E-20-1.04699E-19
 -1      3232 9.89054E-05-3.01330E-05-2.94532E-05-8.28201E-06 5.49040E-19-7.86052E-20
 -1      3233 9.67983E-05-2.91175E-05-2.90296E-05-8.77320E-06 2.21745E-19-7.94875E-19
 -1      3234 1.02652E-04-3.40561E-05-2.94033E-05-7.91883E-06-5.07860E-19-5.46376E-19
 -1      3235 1.01190E-04-3.25089E-05-2.93959E-05-8.36897E-06-4.08256E-19-2.34534E-19
 -1      3236 9.87070E-05-3.14276E-05-2.88750E-05-9.38077E-06 1.95605E-19 8.29058E-20
 -1      3237 1.06563E-04-3.79047E-05-2.94409E-05-6.40410E-06-8.90496E-19-4.48626E-20
 -1      3238 1.04628E-04-3.59252E-05-2.93804E-05-7.51521E-06-9.82914E-19-6.61549E-19
 -1      3239 1.01870E-04-3.49404E-05-2.87467E-05-9.32403E-06-8.33019E-19 6.62163E-19
 -1      3240 1.11664E-04-4.22909E-05-2.97642E-05-3.18148E-06 9.77066E-19 1.61265E-18
 -1      3241 1.09365E-04-4.02111E-05-2.95523E-05-5.18521E-06-3.35857E-19 6.37923E-19
 -1      3242 1.06554E-04-3.96152E-05-2.87950E-05-7.98473E-06-1.25365E-18 1.34847E-19
 -1      3243 1.17735E-04-4.58630E-05-3.07188E-05 2.63318E-06 6.49370E-19 2.27223E-18
 -1      3244 1.15352E-04-4.46408E-05-3.01895E-05-6.22036E-07 1.60532E-18 2.28383E-18
 -1      3245 1.13066E-04-4.50968E-05-2.93293E-05-4.61265E-06 4.53139E-19 2.12784E-18
 -1      3246 1.23796E-04-4.79013E-05-3.25479E-05 7.76496E-06 4.49563E-19 2.31979E-18
 -1      3247 1.22275E-04-4.91337E-05-3.14384E-05 4.14960E-06 7.43642E-19 2.32241E-18
 -1      3248 1.19566E-04-2.54593E-05-4.06032E-05 1.69544E-05-1.61148E-19 1.19847E-18
 -1      3249 1.22804E-04-3.24752E-05-3.90538E-05 1.85026E-05 1.09426E-18 2.22588E-18
 -1      3250 1.14504E-04-1.53454E-05-4.29045E-05 8.35298E-06-6.85673E-19-2.28705E-18
 -1      3251 1.16330E-04-1.89918E-05-4.23089E-05 1.36771E-05-7.19025E-19-8.05340E-19
 -1      3252 1.15185E-04-1.70359E-05-4.26894E-05-4.62103E-06 2.69039E-19-3.61371E-18
 -1      3253 1.14209E-04-1.43217E-05-4.32947E-05 6.07570E-07-3.17637E-20-3.52947E-18
 -1      3254 1.23870E-04-3.56946E-05-3.80436E-05-1.09326E-05 2.29771E-18-3.73526E-18
 -1      3255 1.20910E-04-2.92793E-05-3.94832E-05-9.29992E-06 7.02561E-19-3.99348E-18
 -1      3256 1.25005E-04-4.60221E-05-3.37537E-05-4.29485E-06 3.17637E-22-1.48895E-18
 -1      3257 1.24131E-04-4.23940E-05-3.51548E-05-6.45590E-06 1.91529E-18-1.58526E-18
 -1      3258 1.19712E-04-4.67140E-05-3.11645E-05 4.50298E-06-1.35595E-18-5.79847E-19
 -1      3259 1.21516E-04-4.67128E-05-3.20959E-05 1.05366E-06-6.91245E-19-1.22920E-18
 -1      3260 1.27607E-04-5.30297E-05-3.22156E-05 6.32298E-06-1.62552E-18 2.05313E-18
 -1      3261 1.12099E-04-4.13045E-05-3.02963E-05 7.75088E-06-2.02543E-18-9.78012E-19
 -1      3262 1.14926E-04-4.30749E-05-3.07607E-05 4.82013E-06-1.80705E-18-1.58955E-18
 -1      3263 1.18540E-04-4.78711E-05-3.03659E-05 1.09266E-05-2.06028E-18 9.20659E-19
 -1      3264 1.09864E-04-3.95702E-05-3.01372E-05 9.88398E-06-2.78987E-18 2.36976E-19
 -1      3265 8.82986E-05-3.03533E-05-2.48215E-05 2.88458E-05-3.19490E-19 2.67771E-18
 -1      3266 9.60768E-05-3.48138E-05-2.60154E-05 2.93462E-05-8.88559E-19 1.91363E-18
 -1      3267 9.23736E-05-1.83435E-05-3.17421E-05 1.81196E-06 8.05842E-19-2.40658E-18
 -1      3268 9.22529E-05-1.81416E-05-3.17740E-05 1.05798E-06 4.61835E-19-2.67029E-18
 -1      3269 8.60909E-05-2.79753E-05-2.45347E-05-2.86654E-05 1.78245E-18-1.54644E-18
 -1      3270 7.75922E-05-2.30111E-05-2.34170E-05-2.51443E-05 1.30760E-18-9.91505E-19
 -1      3271 5.70545E-05-1.29588E-05-1.85893E-05-2.92817E-06-4.56997E-19-2.91697E-20
 -1      3272 5.76307E-05-1.33974E-05-1.87253E-05 7.06925E-06 5.77554E-20 1.02666E-18
 -1      3273 1.01445E-04-3.74437E-05-2.73546E-05-2.68788E-05 1.01486E-18-9.79514E-19
 -1      3274 9.49418E-05-3.38406E-05-2.62893E-05-2.81129E-05 1.42177E-18-2.03911E-18
 -1      3275 9.20485E-05-3.54056E-05-2.40877E-05-3.17768E-05 1.69242E-18-1.83586E-18
 -1      3276 1.32130E-04-6.06603E-05-3.09963E-05 1.68430E-05-2.47439E-18 1.23176E-18
 -1      3277 1.25665E-04-5.91785E-05-2.80427E-05 2.47635E-05-3.59650E-18 3.14560E-18
 -1      3278 1.17753E-04-5.48915E-05-2.69064E-05 2.78873E-05-3.22375E-18 3.07559E-18
 -1      3279 1.30623E-04-5.67101E-05-3.18088E-05 1.06386E-05-2.00188E-18 1.91693E-18
 -1      3280 6.97489E-05-2.61974E-05-1.82625E-05-3.11763E-05 2.32241E-18 3.24996E-19
 -1      3281 8.26306E-05-3.60647E-05-1.98533E-05-3.72799E-05 2.11832E-18-8.04522E-19
 -1      3282 6.41988E-05-1.77867E-05-1.97761E-05 2.09194E-05-3.44478E-19 2.86879E-19
 -1      3283 7.17690E-05-2.27759E-05-2.06834E-05 2.66089E-05-5.14559E-19 1.14106E-18
 -1      3284 9.37069E-05-2.04147E-05-3.13890E-05-5.71263E-06-1.73935E-18-2.22371E-18
 -1      3285 9.52151E-05-2.87940E-05-2.84650E-05-9.81467E-07 4.30575E-19-3.77210E-19
 -1      3286 9.51974E-05-2.87804E-05-2.84640E-05-1.03225E-06 6.08552E-19-2.10839E-19
 -1      3287 9.54722E-05-2.88794E-05-2.85418E-05-1.03930E-06 7.60376E-19 9.88594E-20
 -1      3288 9.54258E-05-2.88897E-05-2.85170E-05-9.52613E-07 4.20020E-19 3.27081E-19
 -1      3289 5.47341E-05-2.20862E-05-1.36278E-05-2.38926E-05 2.51860E-19-1.54287E-18
 -1      3290 6.66848E-05-3.08303E-05-1.52209E-05-3.15308E-05-6.79638E-19-8.46186E-19
 -1      3291 1.28518E-04-1.06671E-05-5.10446E-05 7.19837E-06 5.63065E-19-4.50886E-19
 -1      3292 1.22883E-04-1.17124E-05-4.80382E-05 2.90909E-06 6.29240E-19-3.36462E-18
 -1      3293 1.27052E-04-1.76301E-05-4.74305E-05 6.78459E-06-8.86843E-19-1.32317E-18
 -1      3294 9.53707E-05-2.79591E-05-2.88946E-05-4.69169E-07 8.48778E-19-9.13592E-19
 -1      3295 9.54256E-05-2.77015E-05-2.90114E-05-1.39199E-07 9.53229E-19-8.73772E-19
 -1      3296 1.43237E-04-5.18607E-05-3.93521E-05-8.85648E-06-2.01366E-18 1.60237E-18
 -1      3297 1.39796E-04-5.60636E-05-3.57887E-05-4.93380E-06-9.85106E-19 2.09334E-18
 -1      3298 1.22813E-04-1.29318E-05-4.73701E-05 1.06688E-05 7.82341E-19-3.43811E-18
 -1      3299 1.37750E-04-4.60566E-05-3.95854E-05-1.43548E-05-1.08256E-18 1.30538E-18
 -1      3300 9.55241E-05-2.55859E-05-2.99565E-05-2.16777E-06-1.28458E-18-1.56436E-18
 -1      3301 9.55311E-05-2.62674E-05-2.96988E-05-1.33419E-06-1.27416E-18-1.55933E-18
 -1      3302 9.57063E-05-2.61934E-05-2.97894E-05-1.17494E-06-1.22769E-18-1.53701E-18
 -1      3303 9.46186E-05-2.25220E-05-3.09043E-05-4.71885E-06-1.60967E-18-2.00080E-18
 -1      3304 9.50720E-05-2.43389E-05-3.03323E-05-2.96211E-06-1.36808E-18-1.77028E-18
 -1      3305 9.51781E-05-2.42490E-05-3.04025E-05-2.63690E-06-1.34212E-18-1.84930E-18
 -1      3306 9.38155E-05-2.09114E-05-3.12347E-05-4.42316E-06-1.36802E-18-2.35440E-18
 -1      3307 1.06367E-04-5.31772E-05-2.24582E-05-2.82810E-05-1.00437E-18 5.81793E-19
 -1      3308 1.17068E-04-5.77003E-05-2.59315E-05-2.08257E-05-1.13820E-19 1.24261E-18
 -1      3309 8.06970E-05-3.85356E-05-1.76191E-05-3.28250E-05-1.30110E-18-5.00067E-19
 -1      3310 9.43206E-05-4.72207E-05-2.02021E-05-3.25938E-05-1.49771E-18 4.26587E-19
 -1      3311 1.01207E-04-4.75723E-05-2.25776E-05-2.65623E-05-1.05959E-18 5.64316E-19
 -1      3312 5.15813E-05-2.14645E-05-1.27873E-05 2.29458E-05-4.31457E-21-6.79532E-19
 -1      3313 4.35197E-05-1.56146E-05-1.15152E-05 1.16049E-05 4.58404E-19-1.27860E-18
 -1      3314 4.91251E-05-1.51855E-05-1.40469E-05 5.51501E-06 9.56380E-19-2.21023E-18
 -1      3315 8.01494E-05-3.91879E-05-1.75189E-05 3.32374E-05 9.13631E-19-1.65701E-19
 -1      3316 6.62896E-05-2.97917E-05-1.51151E-05 2.97301E-05 5.11317E-19-9.69429E-19
 -1      3317 9.21957E-05-1.80427E-05-3.17924E-05 4.09864E-07 3.16810E-19-2.78673E-18
 -1      3318 9.21917E-05-1.80454E-05-3.17923E-05-3.61941E-07 1.12904E-19-2.69182E-18
 -1      3319 9.31449E-05-1.96232E-05-3.14916E-05 6.29508E-07 3.59165E-19-2.53185E-18
 -1      3320 9.52736E-05-2.85701E-05-2.85876E-05-1.07442E-06 4.90675E-19-1.40826E-19
 -1      3321 9.52847E-05-2.84666E-05-2.86307E-05-1.00357E-06 5.24103E-19-2.50654E-19
 -1      3322 9.55856E-05-2.86808E-05-2.86769E-05-1.04080E-06 6.18106E-19-4.02368E-20
 -1      3323 1.21668E-04-5.56470E-05-2.79504E-05-1.20608E-05 2.01911E-19 2.65100E-18
 -1      3324 9.52525E-05-4.22216E-05-2.23558E-05-3.59323E-05 2.09805E-18-1.87067E-18
 -1      3325 8.96858E-05-4.15805E-05-2.02270E-05 2.87054E-05-8.07328E-20 4.56445E-19
 -1      3326 1.14452E-04-1.61340E-05-4.27296E-05-7.30747E-06-1.04307E-18-1.47180E-18
 -1      3327 9.31266E-05-1.96849E-05-3.14851E-05-3.39610E-06-9.53108E-19-2.46512E-18
 -1      3328 9.34621E-05-2.03209E-05-3.13754E-05-3.97178E-06-1.25742E-18-2.53361E-18
 -1      3329 9.44694E-05-2.22136E-05-3.09407E-05-3.23717E-06-1.18058E-18-2.23515E-18
 -1      3330 1.21789E-04-5.64699E-05-2.81786E-05 1.19960E-05-1.88465E-19 1.72926E-18
 -1      3331 9.27811E-05-1.90536E-05-3.16186E-05 3.11849E-06 1.38280E-18-2.09559E-18
 -1      3332 9.25415E-05-1.86356E-05-3.16859E-05 2.42484E-06 1.00115E-18-2.34375E-18
 -1      3333 9.33619E-05-2.00111E-05-3.14151E-05 1.80801E-06 8.17467E-19-2.11303E-18
 -1      3334 1.30281E-04-3.21103E-05-4.23745E-05 1.05266E-05 6.06052E-19-2.35046E-18
 -1      3335 1.33145E-04-4.22580E-05-3.96195E-05 1.01141E-05 7.42530E-19-9.42059E-19
 -1      3336 5.30600E-05-1.57295E-05-1.57780E-05-9.86102E-06 3.50513E-19-2.55608E-18
 -1      3337 5.28776E-05-1.83333E-05-1.43480E-05-1.73452E-05 8.19372E-20-2.07354E-18
 -1      3338 6.08166E-05-2.17044E-05-1.67459E-05-2.04957E-05-6.16402E-19-7.06531E-19
 -1      3339 9.34463E-05-2.02200E-05-3.14085E-05 4.27255E-06 1.75685E-18-1.90358E-18
 -1      3340 9.30845E-05-1.95595E-05-3.15185E-05 3.65067E-06 1.53393E-18-1.98344E-18
 -1      3341 9.37865E-05-2.08036E-05-3.12559E-05 2.85599E-06 1.22473E-18-1.78093E-18
 -1      3342 9.53176E-05-2.83385E-05-2.87071E-05-8.84639E-07 4.48770E-19-4.19810E-19
 -1      3343 9.53491E-05-2.81737E-05-2.87805E-05-7.10778E-07 6.13435E-19-7.20137E-19
 -1      3344 9.56453E-05-2.84306E-05-2.88105E-05-8.61231E-07 3.41663E-19-4.77059E-19
 -1      3345 7.76353E-05-3.39502E-05-1.83723E-05-2.89487E-05-1.66802E-18-5.09437E-19
 -1      3346 1.19600E-04-5.80093E-05-2.63471E-05-3.03416E-05 1.73155E-18-2.74449E-18
 -1      3347 1.23887E-04-5.74286E-05-2.84544E-05-2.24882E-05 1.54433E-18-2.73177E-18
 -1      3348 1.16883E-04-5.14269E-05-2.77788E-05-2.38396E-05 8.68722E-19-2.06013E-18
 -1      3349 1.10890E-04-5.19839E-05-2.50984E-05-3.23763E-05 2.43559E-18-2.29501E-18
 -1      3350 1.21863E-04-5.17259E-05-3.03453E-05-1.59065E-06 1.70320E-18 3.56868E-18
 -1      3351 1.29789E-04-3.85589E-05-3.93988E-05 1.72026E-05 1.02380E-18 2.38090E-18
 -1      3352 1.21351E-04-3.83837E-05-3.56867E-05 1.60365E-05 7.61787E-19 2.17482E-18
 -1      3353 1.22961E-04-4.30581E-05-3.45383E-05 1.44866E-05 1.14058E-19 1.95145E-18
 -1      3354 1.10368E-04-4.02568E-05-3.00174E-05 1.26178E-05-2.98872E-18 1.09163E-18
 -1      3355 8.31838E-05-3.06385E-05-2.24831E-05 3.22846E-05-7.16550E-19 1.70243E-18
 -1      3356 1.29393E-04-5.08505E-05-3.35716E-05 7.49664E-06 7.15644E-19 2.77626E-18
 -1      3357 1.33139E-04-4.85998E-05-3.60866E-05 1.23002E-05 9.30042E-19 2.94069E-18
 -1      3358 6.35116E-05-2.49766E-05-1.61344E-05 2.35293E-05 5.73706E-19-1.07097E-19
 -1      3359 1.05342E-04-4.00651E-05-2.78585E-05-2.45379E-05 8.20730E-19-7.73030E-19
 -1      3360 6.58381E-05-1.48749E-05-2.18296E-05-1.24565E-05-2.11149E-19-9.72817E-19
 -1      3361 5.35109E-05-1.55508E-05-1.58728E-05-1.33431E-05 2.48445E-19-3.39554E-19
 -1      3362 1.21369E-04-2.28135E-05-4.26845E-05-9.39020E-06 4.78997E-19-3.72528E-18
 -1      3363 9.54142E-05-2.73507E-05-2.91766E-05 2.76181E-07 1.14263E-18-9.65232E-19
 -1      3364 9.54826E-05-2.69461E-05-2.93555E-05 8.36297E-07 1.30505E-18-9.32130E-19
 -1      3365 9.56930E-05-2.73389E-05-2.92993E-05 2.30909E-07 1.07333E-18-1.05811E-18
 -1      3366 9.53918E-05-2.64204E-05-2.95698E-05 1.43223E-06 1.36765E-18-1.00236E-18
 -1      3367 9.54422E-05-2.57899E-05-2.98326E-05 2.31012E-06 1.57347E-18-9.47087E-19
 -1      3368 9.52695E-05-2.47762E-05-3.02055E-05 2.83163E-06 1.69354E-18-1.02086E-18
 -1      3369 9.55912E-05-2.63110E-05-2.96914E-05 1.30952E-06 1.43573E-18-1.04297E-18
 -1      3370 9.45324E-05-2.25390E-05-3.08488E-05 3.59610E-06 1.65545E-18-1.55020E-18
 -1      3371 9.56910E-05-2.80113E-05-2.90104E-05-4.69560E-07 6.23324E-19-6.95447E-19
 -1      3372 9.26558E-05-1.88435E-05-3.16432E-05-2.18041E-06-4.07747E-19-2.21067E-18
 -1      3373 9.28797E-05-1.92465E-05-3.15780E-05-2.87511E-06-7.66247E-19-2.37487E-18
 -1      3374 9.39351E-05-2.11198E-05-3.11830E-05-2.41866E-06-7.70199E-19-2.15720E-18
 -1      3375 7.12300E-05-1.81563E-05-2.23612E-05-2.04111E-05 2.74478E-19-9.02355E-19
 -1      3376 1.35613E-04-4.94986E-05-3.66997E-05 4.03776E-06 1.04534E-18-1.07404E-18
 -1      3377 6.14291E-05-2.10683E-05-1.69242E-05-2.64903E-05 1.61619E-18 7.46448E-20
 -1      3378 7.32402E-05-2.40857E-05-2.07920E-05-2.69659E-05 1.96448E-18-1.02226E-19
 -1      3379 1.15341E-04-5.60327E-05-2.51774E-05 2.07143E-05-9.36501E-20 1.61626E-18
 -1      3380 1.33201E-04-4.68207E-05-3.71224E-05-5.38655E-06-1.22820E-19-2.79187E-18
 -1      3381 1.34513E-04-5.40019E-05-3.43984E-05-6.74899E-06-2.80050E-19 1.22269E-18
 -1      3382 9.61695E-05-2.78314E-05-2.92803E-05 2.40722E-07-9.03278E-19-1.31918E-18
 -1      3383 9.61657E-05-2.81504E-05-2.91539E-05 4.92417E-07-8.30060E-19-1.21523E-18
 -1      3384 9.61749E-05-2.84134E-05-2.90350E-05 6.53259E-07-7.54505E-19-1.19621E-18
 -1      3385 9.61456E-05-2.86111E-05-2.89456E-05 7.87930E-07-5.43712E-19-1.14005E-18
 -1      3386 9.63665E-05-2.82240E-05-2.92057E-05 4.69480E-07-7.51257E-19-1.05887E-18
 -1      3387 9.61129E-05-2.87649E-05-2.88594E-05 8.63787E-07-4.52857E-19-9.73294E-19
 -1      3388 9.60729E-05-2.88789E-05-2.87982E-05 9.18287E-07-2.20189E-19-9.86369E-19
 -1      3389 9.63452E-05-2.86956E-05-2.89949E-05 7.25484E-07-4.41089E-19-7.80076E-19
 -1      3390 9.60182E-05-2.89577E-05-2.87376E-05 9.37088E-07-9.03158E-20-1.16171E-18
 -1      3391 9.59757E-05-2.90142E-05-2.86975E-05 9.40314E-07-3.39263E-19-8.02007E-19
 -1      3392 9.62603E-05-2.89652E-05-2.88430E-05 8.37055E-07-3.12010E-19-1.07644E-18
 -1      3393 9.59113E-05-2.90423E-05-2.86567E-05 9.24010E-07-5.43123E-19-7.40127E-19
 -1      3394 9.58703E-05-2.90595E-05-2.86323E-05 8.97608E-07-5.22571E-19-4.77973E-19
 -1      3395 9.61437E-05-2.90954E-05-2.87371E-05 8.53903E-07-2.78611E-19-1.14833E-18
 -1      3396 9.58038E-05-2.90537E-05-2.86065E-05 8.62725E-07-5.96789E-19-3.67583E-19
 -1      3397 9.57661E-05-2.90443E-05-2.85938E-05 8.22524E-07-3.24613E-19-5.23052E-19
 -1      3398 9.60152E-05-2.91303E-05-2.86668E-05 8.14667E-07-3.92575E-19-9.41080E-19
 -1      3399 9.57014E-05-2.90157E-05-2.85795E-05 7.81214E-07-4.11209E-19-6.86267E-19
 -1      3400 9.56676E-05-2.89881E-05-2.85754E-05 7.38653E-07-4.94127E-19-8.73028E-19
 -1      3401 9.58860E-05-2.91009E-05-2.86238E-05 7.48238E-07-5.09116E-19-8.95591E-19
 -1      3402 9.56064E-05-2.89441E-05-2.85699E-05 6.99721E-07-4.59915E-19-1.11118E-18
 -1      3403 9.55761E-05-2.89036E-05-2.85723E-05 6.63117E-07-4.97093E-19-1.11944E-18
 -1      3404 9.57617E-05-2.90277E-05-2.86017E-05 6.75839E-07-5.91749E-19-1.07149E-18
 -1      3405 9.55181E-05-2.88482E-05-2.85735E-05 6.33073E-07-4.25676E-19-8.08223E-19
 -1      3406 9.54904E-05-2.87974E-05-2.85811E-05 6.08711E-07-1.94255E-19-4.44931E-19
 -1      3407 9.56439E-05-2.89235E-05-2.85955E-05 6.13008E-07-1.40237E-20-1.11004E-18
 -1      3408 9.54341E-05-2.87323E-05-2.85876E-05 5.92644E-07-1.51131E-19-5.85032E-19
 -1      3409 9.54078E-05-2.86722E-05-2.85992E-05 5.85608E-07-3.92207E-20-3.32435E-19
 -1      3410 9.55308E-05-2.87950E-05-2.86018E-05 5.71555E-07-1.22946E-19-6.67955E-19
 -1      3411 9.53507E-05-2.85973E-05-2.86100E-05 5.87825E-07-2.19154E-19-3.00989E-19
 -1      3412 9.53240E-05-2.85274E-05-2.86253E-05 6.02630E-07-4.07952E-19-3.40831E-19
 -1      3413 9.54185E-05-2.86442E-05-2.86180E-05 5.61020E-07 1.19998E-19-9.86680E-19
 -1      3414 9.52626E-05-2.84410E-05-2.86397E-05 6.27169E-07-9.25069E-19-4.13400E-19
 -1      3415 9.52334E-05-2.83596E-05-2.86582E-05 6.68237E-07-1.02942E-18-7.09738E-19
 -1      3416 9.53010E-05-2.84694E-05-2.86421E-05 5.89790E-07-7.97458E-19-1.12986E-18
 -1      3417 9.51634E-05-2.82590E-05-2.86756E-05 7.19236E-07-7.68367E-19-7.88194E-19
 -1      3418 9.51291E-05-2.81638E-05-2.86973E-05 7.91219E-07-3.81543E-19-1.13873E-18
 -1      3419 9.51707E-05-2.82665E-05-2.86729E-05 6.65983E-07-1.01320E-18-5.07099E-19
 -1      3420 9.50455E-05-2.80457E-05-2.87170E-05 8.73158E-07-2.39258E-19-1.00317E-18
 -1      3421 9.50032E-05-2.79339E-05-2.87416E-05 9.81107E-07-3.02882E-19-8.05147E-19
 -1      3422 9.50184E-05-2.80292E-05-2.87088E-05 7.98032E-07-2.96667E-19-6.02496E-19
 -1      3423 9.48999E-05-2.77945E-05-2.87630E-05 1.09892E-06-4.68378E-20-8.86415E-19
 -1      3424 9.48464E-05-2.76633E-05-2.87901E-05 1.24831E-06 1.83755E-19-6.85355E-19
 -1      3425 9.48330E-05-2.77502E-05-2.87484E-05 9.95022E-07-2.16178E-20-5.05303E-19
 -1      3426 9.47167E-05-2.74991E-05-2.88119E-05 1.40736E-06-2.14389E-20-5.59933E-19
 -1      3427 9.46481E-05-2.73463E-05-2.88407E-05 1.60396E-06 5.23617E-20-5.95945E-19
 -1      3428 9.46020E-05-2.74219E-05-2.87894E-05 1.26676E-06 2.75982E-19-9.57659E-19
 -1      3429 9.44846E-05-2.71544E-05-2.88611E-05 1.80996E-06 3.26782E-19-2.98201E-19
 -1      3430 9.43972E-05-2.69793E-05-2.88902E-05 2.05952E-06 5.98800E-19 1.88257E-20
 -1      3431 9.43116E-05-2.70379E-05-2.88286E-05 1.62365E-06 4.42440E-19-2.59749E-20
 -1      3432 9.41923E-05-2.67591E-05-2.89064E-05 2.31831E-06 2.66250E-19-3.02794E-19
 -1      3433 9.40827E-05-2.65637E-05-2.89332E-05 2.62613E-06 1.70975E-19-2.77266E-19
 -1      3434 9.39466E-05-2.65947E-05-2.88611E-05 2.07637E-06 3.35286E-19-1.35745E-19
 -1      3435 9.38292E-05-2.63177E-05-2.89412E-05 2.94355E-06-1.07544E-19-7.18103E-19
 -1      3436 9.36956E-05-2.61088E-05-2.89619E-05 3.31396E-06 7.32818E-20-1.12868E-18
 -1      3437 9.34925E-05-2.60945E-05-2.88797E-05 2.63558E-06 9.26385E-21-1.13300E-18
 -1      3438 9.33881E-05-2.58457E-05-2.89558E-05 3.69588E-06 1.49360E-19-1.29868E-18
 -1      3439 9.32326E-05-2.56378E-05-2.89647E-05 4.13178E-06 6.08389E-19-1.00923E-18
 -1      3440 9.29362E-05-2.55489E-05-2.88738E-05 3.31192E-06-8.28649E-20-1.27502E-18
 -1      3441 9.28698E-05-2.53757E-05-2.89364E-05 4.58467E-06 8.23643E-19-1.20025E-18
 -1      3442 9.27023E-05-2.51960E-05-2.89258E-05 5.08734E-06 2.21402E-19-1.12663E-18
 -1      3443 9.22706E-05-2.49848E-05-2.88290E-05 4.11688E-06 5.87100E-19-1.25205E-18
 -1      3444 9.22912E-05-2.49676E-05-2.88645E-05 5.61994E-06-5.18630E-19-1.09356E-18
 -1      3445 9.21363E-05-2.48622E-05-2.88243E-05 6.18949E-06-4.44297E-19-1.25392E-18
 -1      3446 9.14999E-05-2.44525E-05-2.87258E-05 5.06559E-06-1.56274E-19-2.13594E-18
 -1      3447 9.16988E-05-2.47224E-05-2.87167E-05 6.81591E-06-3.09682E-19-9.49456E-19
 -1      3448 9.16070E-05-2.47664E-05-2.86347E-05 7.45238E-06-3.56983E-19-1.01190E-18
 -1      3449 9.06501E-05-2.40376E-05-2.85391E-05 6.18263E-06-4.39309E-19-2.06822E-18
 -1      3450 9.11914E-05-2.48023E-05-2.84652E-05 8.19709E-06-6.83809E-19-6.26085E-19
 -1      3451 9.12570E-05-2.51122E-05-2.83296E-05 8.90141E-06-1.01914E-19-8.54025E-19
 -1      3452 8.97856E-05-2.38782E-05-2.82383E-05 7.51232E-06-2.70532E-19-1.37575E-18
 -1      3453 9.09572E-05-2.54571E-05-2.80821E-05 9.80512E-06 4.56709E-20-1.05080E-18
 -1      3454 9.13447E-05-2.62082E-05-2.78858E-05 1.05762E-05 2.71964E-19-1.18862E-18
 -1      3455 8.90373E-05-2.41885E-05-2.77896E-05 9.13353E-06-2.02322E-19-8.84699E-19
 -1      3456 9.13340E-05-2.70589E-05-2.75493E-05 1.16944E-05-5.80607E-19-1.87117E-18
 -1      3457 9.23168E-05-2.84992E-05-2.73006E-05 1.25086E-05-1.61650E-18-1.80573E-18
 -1      3458 8.86533E-05-2.52970E-05-2.71613E-05 1.11734E-05-7.62573E-19-2.39909E-18
 -1      3459 9.29045E-05-3.01397E-05-2.68807E-05 1.39030E-05-8.63329E-19-5.05646E-19
 -1      3460 9.48766E-05-3.25871E-05-2.66248E-05 1.46519E-05-5.30272E-20-2.76110E-19
 -1      3461 8.90666E-05-2.76733E-05-2.63395E-05 1.38046E-05-2.35242E-19-1.91019E-18
 -1      3462 9.67223E-05-3.54657E-05-2.61797E-05 1.61672E-05-3.62952E-19 5.92849E-19
 -1      3463 1.00256E-04-3.91056E-05-2.60717E-05 1.64064E-05-6.77446E-19 5.10947E-19
 -1      3464 9.12447E-05-3.21219E-05-2.53603E-05 1.72780E-05 5.61771E-19-8.46014E-19
 -1      3465 1.32248E-04-4.94581E-05-3.58725E-05-1.24392E-05-1.32149E-18 1.36650E-18
 -1      3466 1.02932E-04-3.86989E-05-2.75974E-05 2.61755E-05-1.65968E-18 1.10868E-18
 -1      3467 1.07699E-04-4.10923E-05-2.84476E-05 2.32909E-05-2.56213E-18 2.10653E-18
 -1      3468 9.59518E-05-2.80890E-05-2.90887E-05-4.98417E-07 4.60442E-19-5.22811E-19
 -1      3469 9.59682E-05-2.77854E-05-2.92126E-05-2.19824E-07 6.79989E-19-6.21259E-19
 -1      3470 1.15377E-04-5.07122E-05-2.76201E-05-1.13332E-05 2.47770E-19 2.19655E-18
 -1      3471 9.54838E-05-2.88685E-05-2.85478E-05-7.05434E-07-4.19993E-20-8.74574E-20
 -1      3472 9.54994E-05-2.88997E-05-2.85432E-05-7.47561E-07 1.55598E-19-1.21489E-19
 -1      3473 9.55488E-05-2.89358E-05-2.85470E-05-7.91745E-07 4.05309E-19-5.19021E-20
 -1      3474 9.55676E-05-2.89550E-05-2.85482E-05-8.39303E-07 4.20507E-19 2.63946E-19
 -1      3475 9.56669E-05-2.89880E-05-2.85780E-05-7.39748E-07 4.91066E-19 1.54249E-19
 -1      3476 9.53698E-05-2.86790E-05-2.85800E-05-6.05116E-07-2.56304E-19 3.86350E-19
 -1      3477 9.53814E-05-2.87274E-05-2.85671E-05-6.18128E-07 4.27847E-20 1.85178E-19
 -1      3478 9.53159E-05-2.85599E-05-2.86078E-05-6.10811E-07-1.64988E-19 6.58121E-19
 -1      3479 9.53269E-05-2.86163E-05-2.85916E-05-6.02138E-07-1.43734E-19 4.28539E-19
 -1      3480 9.53992E-05-2.86642E-05-2.86012E-05-5.91471E-07-3.74625E-19 8.84639E-20
 -1      3481 9.52596E-05-2.84226E-05-2.86423E-05-6.65331E-07-1.58359E-19 2.98586E-19
 -1      3482 9.52709E-05-2.84880E-05-2.86229E-05-6.30599E-07-3.36539E-20 4.90006E-19
 -1      3483 9.53118E-05-2.85162E-05-2.86269E-05-6.10664E-07 3.01977E-20 3.19355E-19
 -1      3484 9.51968E-05-2.82639E-05-2.86831E-05-7.77483E-07 4.26745E-19-1.39070E-22
 -1      3485 9.52094E-05-2.83397E-05-2.86605E-05-7.12139E-07-2.85772E-20-3.06693E-20
 -1      3486 9.52170E-05-2.83453E-05-2.86592E-05-6.78825E-07 9.11548E-20 2.78947E-19
 -1      3487 9.51227E-05-2.80797E-05-2.87300E-05-9.56766E-07-5.75259E-19 1.06070E-18
 -1      3488 9.51378E-05-2.81675E-05-2.87041E-05-8.55897E-07 4.32422E-20 4.61904E-19
 -1      3489 9.51083E-05-2.81472E-05-2.86972E-05-8.04759E-07-8.64458E-20 3.76456E-19
 -1      3490 9.50323E-05-2.78660E-05-2.87825E-05-1.21351E-06-2.80569E-19 1.52132E-18
 -1      3491 9.50510E-05-2.79673E-05-2.87533E-05-1.07184E-06-1.11143E-19 1.26645E-18
 -1      3492 9.49783E-05-2.79168E-05-2.87399E-05-9.97962E-07-6.01639E-19 9.87792E-19
 -1      3493 9.49207E-05-2.76204E-05-2.88395E-05-1.55869E-06 5.21742E-20 8.91270E-19
 -1      3494 9.49438E-05-2.77356E-05-2.88073E-05-1.37074E-06 7.45688E-20 9.25104E-19
 -1      3495 9.48191E-05-2.76493E-05-2.87859E-05-1.26874E-06 3.93976E-19 4.10839E-19
 -1      3496 9.47837E-05-2.73435E-05-2.88990E-05-2.00336E-06 4.72485E-19 3.70360E-19
 -1      3497 9.48114E-05-2.74713E-05-2.88646E-05-1.76387E-06 2.21308E-21 3.94155E-19
 -1      3498 9.46225E-05-2.73420E-05-2.88328E-05-1.62807E-06 4.70617E-19-4.81893E-19
 -1      3499 9.46192E-05-2.70415E-05-2.89573E-05-2.55771E-06 1.62763E-19 2.12583E-21
 -1      3500 9.46504E-05-2.71772E-05-2.89223E-05-2.26228E-06 5.31148E-19 3.38412E-19
 -1      3501 9.43813E-05-2.69959E-05-2.88772E-05-2.08713E-06 4.03610E-19-3.26663E-19
 -1      3502 9.44296E-05-2.67299E-05-2.90090E-05-3.22970E-06 5.90674E-20-1.28563E-19
 -1      3503 9.44604E-05-2.68638E-05-2.89760E-05-2.87573E-06-4.67592E-20 2.43560E-19
 -1      3504 9.40908E-05-2.66189E-05-2.89137E-05-2.65675E-06 2.04458E-20-4.93950E-19
 -1      3505 9.42262E-05-2.64389E-05-2.90457E-05-4.02345E-06 1.67929E-19-3.15980E-19
 -1      3506 9.42479E-05-2.65532E-05-2.90187E-05-3.61131E-06 4.35718E-19 1.98202E-19
 -1      3507 9.37516E-05-2.62301E-05-2.89345E-05-3.34662E-06 1.26000E-19-7.49453E-19
 -1      3508 9.40357E-05-2.62214E-05-2.90563E-05-4.93722E-06 3.99470E-19-3.36195E-19
 -1      3509 9.40307E-05-2.62857E-05-2.90407E-05-4.47174E-06 3.05395E-19-1.99036E-19
 -1      3510 9.33746E-05-2.58658E-05-2.89289E-05-4.16478E-06 8.61927E-20 6.68650E-19
 -1      3511 9.39114E-05-2.61628E-05-2.90265E-05-5.96126E-06-1.05498E-18-5.69018E-21
 -1      3512 9.38475E-05-2.61290E-05-2.90290E-05-5.45362E-06-3.64098E-19-7.09368E-20
 -1      3513 9.29883E-05-2.55879E-05-2.88831E-05-5.11749E-06 1.01859E-20 1.20362E-18
 -1      3514 9.39496E-05-2.63956E-05-2.89407E-05-7.07479E-06 4.22245E-19-6.95287E-19
 -1      3515 9.37711E-05-2.61904E-05-2.89685E-05-6.54516E-06-3.95637E-19-6.03181E-19
 -1      3516 9.26512E-05-2.54956E-05-2.87801E-05-6.20983E-06-2.76327E-19 2.55248E-19
 -1      3517 9.43133E-05-2.71138E-05-2.87850E-05-8.23988E-06 6.08636E-19-8.42341E-19
 -1      3518 9.39292E-05-2.66317E-05-2.88435E-05-7.72214E-06 7.83667E-19-8.59743E-19
 -1      3519 9.24705E-05-2.57408E-05-2.86021E-05-7.44613E-06 3.32148E-19-9.92507E-19
 -1      3520 9.52613E-05-2.85846E-05-2.85557E-05-9.38582E-06-2.97635E-19-4.76955E-19
 -1      3521 9.45330E-05-2.76841E-05-2.86439E-05-8.93742E-06-5.22297E-20-1.01693E-18
 -1      3522 9.26304E-05-2.65462E-05-2.83343E-05-8.82675E-06 3.67132E-19-5.02078E-19
 -1      3523 9.71772E-05-3.11423E-05-2.82748E-05-1.03737E-05-1.14339E-19 6.02708E-19
 -1      3524 9.59098E-05-2.96528E-05-2.83761E-05-1.00974E-05 1.55924E-21 7.10131E-19
 -1      3525 9.34286E-05-2.82191E-05-2.79751E-05-1.03296E-05-6.50818E-19 6.20696E-20
 -1      3526 1.00590E-04-3.51344E-05-2.80217E-05-1.08925E-05-1.33017E-18 1.08807E-18
 -1      3527 9.85535E-05-3.29168E-05-2.80859E-05-1.10043E-05-1.45946E-19 1.66039E-18
 -1      3528 9.53221E-05-3.11567E-05-2.75542E-05-1.18921E-05-4.03679E-19 1.22377E-18
 -1      3529 1.06259E-04-4.06767E-05-2.80235E-05-1.01716E-05-1.40218E-18 1.06401E-18
 -1      3530 1.03131E-04-3.77955E-05-2.79079E-05-1.11888E-05-1.68102E-18 6.57896E-19
 -1      3531 9.90329E-05-3.58041E-05-2.71740E-05-1.32485E-05-1.14383E-18 1.37862E-18
 -1      3532 1.12728E-04-4.68741E-05-2.80307E-05-9.70534E-06 2.78793E-19 1.70637E-18
 -1      3533 1.08380E-04-4.37512E-05-2.75543E-05-1.18055E-05-1.15567E-18 1.12531E-18
 -1      3534 1.03286E-04-4.17311E-05-2.64774E-05-1.56013E-05-1.73065E-18 9.92971E-19
 -1      3535 1.07904E-04-4.93601E-05-2.53305E-05-1.98925E-05-1.07686E-18 7.56917E-19
 -1      3536 1.10506E-04-4.14004E-05-2.95934E-05 1.63039E-05-3.71891E-18 1.82792E-18
 -1      3537 1.13631E-04-4.43548E-05-2.97288E-05 1.44690E-05-3.09432E-18 1.50356E-18
 -1      3538 1.18558E-04-4.92351E-05-2.97931E-05 1.50943E-05-2.65297E-18 3.00679E-18
 -1      3539 1.09464E-04-4.11947E-05-2.91914E-05 1.93025E-05-3.06689E-18 2.12836E-18
 -1      3540 1.26289E-04-5.53629E-05-3.00544E-05 1.50810E-05-2.40749E-18 2.24375E-18
 -1      3541 1.02171E-04-4.16257E-05-2.59737E-05 2.98464E-05-2.12039E-18 2.23813E-18
 -1      3542 7.28078E-05-2.82030E-05-1.86683E-05-2.54606E-05-9.50662E-19 2.05935E-20
 -1      3543 8.40531E-05-3.56568E-05-2.07171E-05-2.66929E-05-1.42523E-18-2.29228E-19
 -1      3544 9.72057E-05-4.47728E-05-2.26254E-05 2.61738E-05-3.96041E-19 1.02449E-18
 -1      3545 8.58634E-05-3.66171E-05-2.07821E-05 2.62849E-05 4.40417E-19-2.70931E-19
 -1      3546 9.98283E-05-4.31650E-05-2.43562E-05 3.34662E-05-1.98076E-18 2.43681E-18
 -1      3547 1.09210E-04-4.71895E-05-2.61751E-05 2.97677E-05-3.07502E-18 3.46350E-18
 -1      3548 7.13425E-05-2.80094E-05-1.86873E-05 2.49405E-05 7.25232E-19-6.91391E-19
 -1      3549 5.99242E-05-1.99129E-05-1.67608E-05 1.78532E-05 8.32005E-19-5.46336E-20
 -1      3550 9.57118E-05-2.55549E-05-3.00584E-05-1.50962E-06-1.07332E-18-1.68848E-18
 -1      3551 9.58356E-05-2.62760E-05-2.98257E-05-8.75874E-07-8.51107E-19-1.56554E-18
 -1      3552 9.54248E-05-2.87819E-05-2.85596E-05-6.39682E-07 3.59543E-19-7.09192E-21
 -1      3553 9.54380E-05-2.88223E-05-2.85504E-05-6.69847E-07 1.92017E-19-5.36556E-20
 -1      3554 9.55731E-05-2.89011E-05-2.85747E-05-6.65579E-07 1.04914E-19-2.60313E-19
 -1      3555 9.54849E-05-2.87923E-05-2.85833E-05-6.12740E-07 8.71275E-21 5.08163E-19
 -1      3556 9.57806E-05-2.89271E-05-2.86512E-05-1.01080E-06 8.82652E-19-1.36647E-19
 -1      3557 9.58111E-05-2.88684E-05-2.86869E-05-1.00676E-06 7.66038E-19-2.44089E-19
 -1      3558 1.12188E-04-4.54761E-05-2.84600E-05 2.20999E-05-3.07995E-18 3.46425E-18
 -1      3559 9.23253E-05-1.82690E-05-3.17490E-05-9.27607E-07-4.92038E-21-2.71123E-18
 -1      3560 9.24334E-05-1.84666E-05-3.17182E-05-1.67485E-06-2.61285E-19-2.54207E-18
 -1      3561 9.35367E-05-2.03391E-05-3.13498E-05-1.50016E-06-3.63206E-19-2.25507E-18
 -1      3562 9.32230E-05-1.97569E-05-3.14665E-05-5.08293E-07-9.02377E-21-2.50020E-18
 -1      3563 8.92557E-05-3.78475E-05-2.17552E-05 3.59448E-05-9.91531E-19 1.73869E-18
 -1      3564 1.25862E-04-2.39693E-05-4.44083E-05 1.10422E-05-5.46972E-19-1.83113E-18
 -1      3565 1.17676E-04-5.21501E-05-2.82319E-05 2.38484E-05-3.25225E-18 2.39109E-18
 -1      3566 5.33723E-05-1.59848E-05-1.58864E-05 1.06103E-05 7.96343E-19-1.25922E-18
 -1      3567 5.18821E-05-1.45105E-05-1.58594E-05 1.03221E-06 8.59136E-19-2.89992E-18
 -1      3568 1.10078E-04-5.07708E-05-2.52572E-05 1.93242E-05-9.07781E-19 1.21447E-18
 -1      3569 9.60361E-05-2.69154E-05-2.96145E-05-4.50483E-07-8.46591E-19-1.45339E-18
 -1      3570 9.60868E-05-2.74104E-05-2.94405E-05-3.77770E-08-8.79334E-19-1.40411E-18
 -1      3571 9.62741E-05-2.74638E-05-2.94908E-05 9.88748E-09-7.89897E-19-1.23977E-18
 -1      3572 9.81838E-05-4.33935E-05-2.34595E-05-2.32064E-05-1.09994E-18 9.39029E-19
 -1      3573 1.10315E-04-4.62024E-05-2.73549E-05-2.57959E-05 7.56334E-19-1.87139E-18
 -1      3574 9.51000E-05-2.38302E-05-3.05461E-05 2.88426E-06 1.46087E-18-1.42958E-18
 -1      3575 9.45832E-05-2.25969E-05-3.08529E-05 2.67366E-06 1.27832E-18-1.57541E-18
 -1      3576 9.53468E-05-2.47647E-05-3.02560E-05 2.02404E-06 1.35425E-18-1.30015E-18
 -1      3577 1.06146E-04-4.62122E-05-2.55011E-05 1.83239E-05-8.66303E-19 1.34704E-18
 -1      3578 9.58598E-05-2.87905E-05-2.87447E-05-9.82315E-07 5.91103E-19-2.99420E-19
 -1      3579 9.58925E-05-2.86786E-05-2.88015E-05-9.22124E-07 3.86487E-19-3.77248E-19
 -1      3580 9.60826E-05-2.88839E-05-2.88020E-05-9.13886E-07 4.59500E-19-6.81457E-19
 -1      3581 1.04013E-04-4.65573E-05-2.47029E-05-3.35384E-05 2.35877E-18-1.42693E-18
 -1      3582 9.44180E-05-2.21677E-05-3.09668E-05-1.79491E-06-6.42039E-19-2.03511E-18
 -1      3583 9.46370E-05-2.26349E-05-3.08672E-05-2.19557E-06-7.91386E-19-2.13028E-18
 -1      3584 9.26235E-05-3.92918E-05-2.27522E-05-2.41381E-05-1.10635E-18 5.90680E-19
 -1      3585 9.96038E-05-4.05147E-05-2.52105E-05-1.83869E-05-1.42182E-18 1.60584E-18
 -1      3586 9.78567E-05-3.76645E-05-2.58109E-05-1.65987E-05-1.40660E-18 1.12131E-18
 -1      3587 8.69192E-05-3.37498E-05-2.28070E-05-2.19111E-05-1.09253E-18-1.47437E-20
 -1      3588 9.34739E-05-3.76012E-05-2.40085E-05 2.15968E-05 1.93997E-19-2.26286E-19
 -1      3589 1.00765E-04-4.15310E-05-2.52771E-05 1.88074E-05-7.50362E-19 9.31366E-19
 -1      3590 9.59547E-05-2.83407E-05-2.89708E-05-6.84506E-07 2.32242E-19-5.62991E-19
 -1      3591 9.61847E-05-2.81546E-05-2.91582E-05-4.84329E-07 3.80013E-19-7.63875E-19
 -1      3592 9.59242E-05-2.85304E-05-2.88854E-05-8.32768E-07 2.29245E-19-4.72205E-19
 -1      3593 9.40998E-05-2.15194E-05-3.11209E-05 1.77188E-06 9.20745E-19-1.77486E-18
 -1      3594 9.39546E-05-2.12263E-05-3.11774E-05 1.24717E-06 5.63296E-19-1.97727E-18
 -1      3595 5.48280E-05-1.48458E-05-1.68163E-05-4.22230E-06 7.12512E-19-2.68973E-18
 -1      3596 5.88655E-05-1.65456E-05-1.82228E-05-9.30443E-06-1.93727E-19-1.47590E-18
 -1      3597 5.84313E-05-1.52058E-05-1.83710E-05 3.93496E-07 5.51438E-19-2.37095E-18
 -1      3598 9.61163E-05-2.74163E-05-2.94447E-05 4.71146E-08 7.39533E-19-5.80233E-19
 -1      3599 9.59007E-05-2.73774E-05-2.93741E-05 9.80747E-08 8.72094E-19-6.32556E-19
 -1      3600 9.58797E-05-2.69151E-05-2.95510E-05 5.66140E-07 1.10264E-18-7.79639E-19
 -1      3601 6.90276E-05-2.41837E-05-1.90190E-05-2.01296E-05-6.11889E-19-1.52069E-19
 -1      3602 9.43820E-05-2.21554E-05-3.09581E-05 2.25791E-06 1.04427E-18-1.66655E-18
 -1      3603 9.57255E-05-2.89577E-05-2.86132E-05-9.95104E-07 6.78841E-19 2.35344E-19
 -1      3604 9.59821E-05-2.90185E-05-2.87009E-05-9.37484E-07 6.94472E-19-6.89254E-20
 -1      3605 9.56988E-05-2.89801E-05-2.85928E-05-9.66534E-07 3.66082E-19 4.85804E-19
 -1      3606 9.57675E-05-2.90460E-05-2.85966E-05-8.22397E-07 7.37820E-19 1.03611E-19
 -1      3607 9.56206E-05-2.89769E-05-2.85603E-05-8.84972E-07 4.72963E-19 5.32788E-19
 -1      3608 9.56432E-05-2.89792E-05-2.85696E-05-9.29141E-07 6.20059E-19 5.63963E-19
 -1      3609 1.12613E-04-1.49736E-05-4.25567E-05 5.70711E-06-8.05740E-19-2.92163E-18
 -1      3610 8.06147E-05-3.12330E-05-2.09917E-05 2.29133E-05 7.40294E-19-1.63345E-19
 -1      3611 9.38709E-05-2.10531E-05-3.12187E-05 8.08758E-07 4.59085E-19-2.28607E-18
 -1      3612 9.38204E-05-2.09592E-05-3.12375E-05 2.45859E-07 2.18120E-19-2.44269E-18
 -1      3613 9.46149E-05-2.23905E-05-3.09351E-05 8.28851E-07 4.39781E-19-2.03238E-18
 -1      3614 6.20180E-05-1.87071E-05-1.82720E-05 1.30835E-05 7.02356E-19-6.90755E-19
 -1      3615 9.59958E-05-2.62990E-05-2.98676E-05-7.18564E-07-8.04340E-19-1.37887E-18
 -1      3616 1.17196E-04-4.95602E-05-2.89782E-05 1.92692E-05-2.21328E-18 3.05404E-18
 -1      3617 9.54668E-05-2.46040E-05-3.03714E-05-1.38941E-06-7.02817E-19-1.75865E-18
 -1      3618 9.50779E-05-2.37481E-05-3.05692E-05-2.02355E-06-9.20784E-19-1.93657E-18
 -1      3619 1.08318E-04-4.71982E-05-2.62770E-05-2.92184E-05 2.11560E-18-2.82697E-18
 -1      3620 9.49671E-05-2.36817E-05-3.05597E-05-2.42839E-06-1.14355E-18-2.02723E-18
 -1      3621 9.42406E-05-2.18012E-05-3.10617E-05-1.50554E-06-5.79148E-19-1.95894E-18
 -1      3622 9.49347E-05-2.31291E-05-3.07615E-05-1.31837E-06-6.19003E-19-1.91833E-18
 -1      3623 9.40677E-05-2.14256E-05-3.11370E-05-1.07587E-06-3.80081E-19-2.12459E-18
 -1      3624 9.57710E-05-2.90289E-05-2.86023E-05-6.59962E-07 5.29861E-19 1.62584E-20
 -1      3625 9.58205E-05-2.90672E-05-2.86085E-05-6.96052E-07 7.93675E-19 7.35690E-20
 -1      3626 9.65205E-05-2.80242E-05-2.93518E-05 2.89822E-07-5.22699E-19-1.16200E-18
 -1      3627 9.65360E-05-2.83459E-05-2.92271E-05 4.72969E-07-5.65431E-19-1.05757E-18
 -1      3628 9.65429E-05-2.86086E-05-2.91114E-05 5.71677E-07-4.94970E-19-8.61574E-19
 -1      3629 9.65130E-05-2.88040E-05-2.90197E-05 6.67654E-07-3.19860E-19-8.55863E-19
 -1      3630 9.66764E-05-2.84367E-05-2.92464E-05 4.22682E-07-4.02090E-19-1.01797E-18
 -1      3631 9.64722E-05-2.89534E-05-2.89339E-05 7.09982E-07-2.72417E-19-8.96405E-19
 -1      3632 9.64185E-05-2.90597E-05-2.88685E-05 7.46315E-07-1.56791E-19-1.11868E-18
 -1      3633 9.66440E-05-2.88852E-05-2.90410E-05 5.80325E-07-3.46666E-19-1.00350E-18
 -1      3634 9.63500E-05-2.91299E-05-2.88067E-05 7.51077E-07-1.74949E-19-9.94815E-19
 -1      3635 9.62862E-05-2.91745E-05-2.87617E-05 7.49937E-07-3.35560E-19-1.05272E-18
 -1      3636 9.65351E-05-2.91295E-05-2.88899E-05 6.41956E-07-1.49569E-19-9.19396E-19
 -1      3637 9.62046E-05-2.91910E-05-2.87189E-05 7.32037E-07-2.69722E-19-8.90853E-19
 -1      3638 9.61383E-05-2.91932E-05-2.86898E-05 7.09913E-07-2.05630E-19-7.52221E-19
 -1      3639 9.63863E-05-2.92321E-05-2.87823E-05 6.42199E-07-1.95955E-19-9.36275E-19
 -1      3640 9.60525E-05-2.91732E-05-2.86619E-05 6.81168E-07-4.13141E-19-6.97096E-19
 -1      3641 9.59878E-05-2.91466E-05-2.86450E-05 6.50379E-07-4.40313E-19-6.38801E-19
 -1      3642 9.62205E-05-2.92368E-05-2.87091E-05 6.07470E-07-3.61948E-19-5.92383E-19
 -1      3643 9.59028E-05-2.91022E-05-2.86287E-05 6.19442E-07-5.90985E-19-5.84582E-19
 -1      3644 9.58414E-05-2.90557E-05-2.86211E-05 5.88919E-07-5.07973E-19-6.24149E-19
 -1      3645 9.60513E-05-2.91748E-05-2.86629E-05 5.58068E-07-4.57758E-19-4.61951E-19
 -1      3646 9.57587E-05-2.89939E-05-2.86138E-05 5.62099E-07-2.39765E-19-2.77896E-19
 -1      3647 9.57005E-05-2.89326E-05-2.86133E-05 5.38564E-07-3.14918E-20-3.31688E-19
 -1      3648 9.58852E-05-2.90668E-05-2.86378E-05 5.08695E-07-2.11826E-19 2.40119E-19
 -1      3649 9.56195E-05-2.88572E-05-2.86131E-05 5.20735E-07-1.02516E-19-6.21512E-19
 -1      3650 9.55629E-05-2.87834E-05-2.86183E-05 5.09426E-07-1.40524E-19-6.20648E-19
 -1      3651 9.57232E-05-2.89245E-05-2.86290E-05 4.70525E-07-2.21626E-19-5.39331E-19
 -1      3652 9.54812E-05-2.86955E-05-2.86235E-05 5.04516E-07-2.83859E-19-8.04369E-19
 -1      3653 9.54237E-05-2.86094E-05-2.86332E-05 5.09801E-07-3.47670E-19-1.19246E-18
 -1      3654 9.55623E-05-2.87534E-05-2.86329E-05 4.52353E-07-2.90408E-19-9.40074E-19
 -1      3655 9.53374E-05-2.85079E-05-2.86427E-05 5.21239E-07-3.27738E-19-1.55390E-18
 -1      3656 9.52755E-05-2.84080E-05-2.86561E-05 5.47108E-07-6.08863E-19-1.40427E-18
 -1      3657 9.53961E-05-2.85539E-05-2.86467E-05 4.61430E-07-4.91181E-19-1.16116E-18
 -1      3658 9.51795E-05-2.82904E-05-2.86687E-05 5.78217E-07-6.78570E-19-8.20419E-19
 -1      3659 9.51089E-05-2.81740E-05-2.86850E-05 6.28635E-07-5.89052E-19-5.47128E-19
 -1      3660 9.52157E-05-2.83226E-05-2.86680E-05 5.04338E-07-3.32005E-19-1.23279E-18
 -1      3661 9.49966E-05-2.80364E-05-2.86997E-05 6.82874E-07-3.91698E-19-4.04588E-19
 -1      3662 9.49122E-05-2.78999E-05-2.87182E-05 7.61992E-07-4.06297E-19-4.58343E-19
 -1      3663 9.50096E-05-2.80530E-05-2.86946E-05 5.87574E-07-3.56865E-19-3.78622E-19
 -1      3664 9.47762E-05-2.77380E-05-2.87339E-05 8.43090E-07-2.64780E-19-2.87048E-19
 -1      3665 9.46720E-05-2.75774E-05-2.87534E-05 9.55329E-07 1.65172E-19-3.46305E-19
 -1      3666 9.47639E-05-2.77368E-05-2.87241E-05 7.17895E-07-2.07011E-19-1.26603E-19
 -1      3667 9.45035E-05-2.73865E-05-2.87685E-05 1.06733E-06 1.55847E-19-1.08221E-19
 -1      3668 9.43729E-05-2.71982E-05-2.87878E-05 1.21735E-06 2.09627E-19-1.11626E-19
 -1      3669 9.44627E-05-2.73649E-05-2.87534E-05 9.02466E-07 1.58918E-19 6.90310E-19
 -1      3670 9.41622E-05-2.69741E-05-2.87999E-05 1.36459E-06 3.13495E-19-2.73617E-19
 -1      3671 9.39976E-05-2.67552E-05-2.88168E-05 1.55717E-06 4.77310E-19-2.59185E-19
 -1      3672 9.40875E-05-2.69283E-05-2.87787E-05 1.14885E-06 2.56438E-19 1.96484E-20
 -1      3673 9.37343E-05-2.64951E-05-2.88229E-05 1.74421E-06 1.75061E-19-7.07615E-19
 -1      3674 9.35280E-05-2.62450E-05-2.88343E-05 1.98404E-06 2.19397E-19-1.11940E-18
 -1      3675 9.36185E-05-2.64198E-05-2.87944E-05 1.46489E-06-1.07798E-19-1.47987E-18
 -1      3676 9.32008E-05-2.59486E-05-2.88299E-05 2.21567E-06 4.31228E-19-1.25526E-18
 -1      3677 9.29457E-05-2.56701E-05-2.88312E-05 2.50732E-06-1.26836E-19-1.33230E-18
 -1      3678 9.30341E-05-2.58365E-05-2.87924E-05 1.85864E-06 2.12096E-19-1.20170E-18
 -1      3679 9.25435E-05-2.53414E-05-2.88100E-05 2.78884E-06-1.48895E-19-1.26967E-18
 -1      3680 9.22338E-05-2.50430E-05-2.87949E-05 3.13687E-06 3.33626E-19-6.93715E-19
 -1      3681 9.23120E-05-2.51818E-05-2.87617E-05 2.33866E-06 1.35544E-19-7.56972E-19
 -1      3682 9.17464E-05-2.46925E-05-2.87484E-05 3.47496E-06 1.67344E-19-1.02334E-18
 -1      3683 9.13807E-05-2.43914E-05-2.87082E-05 3.88487E-06 6.73165E-20-8.24396E-19
 -1      3684 9.14310E-05-2.44696E-05-2.86873E-05 2.91517E-06 7.96668E-21-9.66967E-19
 -1      3685 9.07998E-05-2.40392E-05-2.86250E-05 4.28971E-06-1.17910E-19-1.73954E-18
 -1      3686 9.03842E-05-2.37659E-05-2.85482E-05 4.77008E-06-6.70270E-19-1.99673E-18
 -1      3687 9.03722E-05-2.37286E-05-2.85488E-05 3.60314E-06-4.04938E-19-1.35871E-18
 -1      3688 8.97056E-05-2.34458E-05-2.84134E-05 5.25953E-06-4.12045E-19-1.56812E-18
 -1      3689 8.92610E-05-2.32498E-05-2.82856E-05 5.82639E-06-8.01716E-20-1.46165E-18
 -1      3690 8.91224E-05-2.30086E-05-2.83192E-05 4.42879E-06-1.21336E-19-1.37025E-18
 -1      3691 8.84873E-05-2.30149E-05-2.80800E-05 6.43350E-06-1.63112E-19-1.46159E-18
 -1      3692 8.80596E-05-2.29740E-05-2.78840E-05 7.11737E-06 1.34980E-19-9.01880E-19
 -1      3693 8.76777E-05-2.23879E-05-2.79634E-05 5.44187E-06 2.06296E-19 2.35974E-20
 -1      3694 8.72056E-05-2.29046E-05-2.75836E-05 7.90200E-06-2.02244E-19-6.75694E-19
 -1      3695 8.68849E-05-2.31373E-05-2.73008E-05 8.75723E-06-2.89550E-19-4.09107E-19
 -1      3696 8.60513E-05-2.19852E-05-2.74366E-05 6.73617E-06 2.37418E-19-1.49074E-20
 -1      3697 8.59872E-05-2.33533E-05-2.68761E-05 9.82705E-06-4.89083E-19-1.44363E-18
 -1      3698 8.59387E-05-2.40434E-05-2.64899E-05 1.09403E-05-9.89427E-19-1.77789E-18
 -1      3699 8.42832E-05-2.19734E-05-2.66822E-05 8.48235E-06-8.57810E-19-7.65233E-19
 -1      3700 8.51013E-05-2.47471E-05-2.59064E-05 1.24528E-05-3.13273E-19-1.34658E-18
 -1      3701 8.55908E-05-2.61589E-05-2.54130E-05 1.39377E-05 1.10049E-18-2.77155E-19
 -1      3702 8.24933E-05-2.26374E-05-2.56280E-05 1.09904E-05-7.02276E-22-1.74847E-19
 -1      3703 8.48807E-05-2.75403E-05-2.46322E-05 1.60585E-05 1.43745E-18-8.85704E-19
 -1      3704 8.64379E-05-3.02889E-05-2.40759E-05 1.83269E-05 1.11421E-18-4.75794E-20
 -1      3705 8.09756E-05-2.43909E-05-2.41856E-05 1.46087E-05 9.28281E-19-8.18975E-20
 -1      3706 9.49156E-05-2.31635E-05-3.07364E-05 1.66246E-06 8.89348E-19-1.55491E-18
 -1      3707 9.53037E-05-2.84662E-05-2.86430E-05-5.79837E-07 1.43846E-20-7.08243E-20
 -1      3708 9.53494E-05-2.85519E-05-2.86289E-05-5.57969E-07-1.52419E-19 2.42088E-20
 -1      3709 9.54226E-05-2.86412E-05-2.86190E-05-5.49659E-07-3.29209E-19 3.40533E-20
 -1      3710 9.54660E-05-2.87153E-05-2.86085E-05-5.49267E-07-3.61818E-19 1.47457E-19
 -1      3711 9.54111E-05-2.85973E-05-2.86347E-05-5.12462E-07-5.25056E-20 3.25993E-21
 -1      3712 9.50208E-05-2.80292E-05-2.87088E-05-7.89639E-07-4.70788E-19 2.64696E-19
 -1      3713 9.50805E-05-2.81447E-05-2.86892E-05-7.11967E-07-4.40199E-19-1.51458E-19
 -1      3714 9.48380E-05-2.77557E-05-2.87476E-05-9.86630E-07-2.76958E-19-1.26592E-19
 -1      3715 9.49105E-05-2.78901E-05-2.87261E-05-8.74087E-07-2.60138E-19 6.47823E-20
 -1      3716 9.48880E-05-2.78785E-05-2.87170E-05-7.71879E-07-1.68234E-19-6.30401E-19
 -1      3717 9.46135E-05-2.74379E-05-2.87874E-05-1.25786E-06 5.32008E-19-5.49670E-19
 -1      3718 9.47030E-05-2.75933E-05-2.87651E-05-1.10536E-06 2.92211E-19-2.56872E-19
 -1      3719 9.46450E-05-2.75562E-05-2.87503E-05-9.69534E-07 2.36281E-19-1.26220E-18
 -1      3720 9.43365E-05-2.70725E-05-2.88251E-05-1.61385E-06 5.04693E-19-4.97461E-19
 -1      3721 9.44469E-05-2.72497E-05-2.88034E-05-1.41613E-06 7.52819E-19-3.51009E-19
 -1      3722 9.43462E-05-2.71820E-05-2.87819E-05-1.23790E-06 5.76158E-19-7.27786E-19
 -1      3723 9.39966E-05-2.66606E-05-2.88557E-05-2.06553E-06 9.24671E-20-3.43078E-19
 -1      3724 9.41313E-05-2.68579E-05-2.88370E-05-1.81736E-06 1.48266E-19-6.56030E-19
 -1      3725 9.39775E-05-2.67525E-05-2.88071E-05-1.58730E-06 3.16659E-19-5.84793E-19
 -1      3726 9.35864E-05-2.62109E-05-2.88722E-05-2.62394E-06 2.11701E-19-2.99811E-19
 -1      3727 9.37466E-05-2.64221E-05-2.88600E-05-2.32045E-06 3.19008E-19-1.36635E-21
 -1      3728 9.35260E-05-2.62695E-05-2.88196E-05-2.02892E-06-1.71615E-20-9.69686E-19
 -1      3729 9.31041E-05-2.57442E-05-2.88650E-05-3.30011E-06-2.06344E-19-5.41613E-19
 -1      3730 9.32875E-05-2.59564E-05-2.88640E-05-2.93699E-06-5.60224E-21-6.79261E-19
 -1      3731 9.29811E-05-2.57434E-05-2.88105E-05-2.57503E-06 1.82108E-19-1.28793E-19
 -1      3732 9.25586E-05-2.52993E-05-2.88209E-05-4.10556E-06-2.64638E-19 4.10419E-19
 -1      3733 9.27562E-05-2.54894E-05-2.88376E-05-3.67907E-06-2.96642E-19-3.23453E-20
 -1      3734 9.23381E-05-2.51975E-05-2.87679E-05-3.23973E-06-6.88535E-19-2.15077E-19
 -1      3735 9.19775E-05-2.49418E-05-2.87233E-05-5.05391E-06-2.81440E-20 6.42196E-19
 -1      3736 9.21683E-05-2.50717E-05-2.87658E-05-4.56039E-06 6.09570E-21 4.84849E-19
 -1      3737 9.16023E-05-2.46745E-05-2.86759E-05-4.04101E-06-1.35194E-19-4.05065E-19
 -1      3738 9.14190E-05-2.47751E-05-2.85524E-05-6.16428E-06 9.08573E-20-4.66149E-19
 -1      3739 9.15629E-05-2.47856E-05-2.86299E-05-5.59907E-06 1.54360E-19 7.32783E-19
 -1      3740 9.07965E-05-2.42443E-05-2.85149E-05-5.00478E-06-5.69131E-21-6.67909E-19
 -1      3741 9.09917E-05-2.49562E-05-2.82863E-05-7.46604E-06 4.09334E-19-1.44244E-19
 -1      3742 9.10169E-05-2.47579E-05-2.84084E-05-6.82240E-06 6.82184E-20-2.07188E-19
 -1      3743 8.99718E-05-2.40151E-05-2.82608E-05-6.17224E-06 1.32492E-19-7.00980E-20
 -1      3744 9.08855E-05-2.57153E-05-2.79061E-05-9.00094E-06-3.40930E-19 8.17134E-19
 -1      3745 9.06703E-05-2.51779E-05-2.80791E-05-8.27206E-06 2.24522E-19 1.91421E-19
 -1      3746 8.92259E-05-2.41497E-05-2.78869E-05-7.61055E-06-3.15452E-19 9.53092E-19
 -1      3747 9.14038E-05-2.73813E-05-2.74046E-05-1.08183E-05-7.25418E-19 1.11581E-18
 -1      3748 9.07672E-05-2.63247E-05-2.76256E-05-1.00065E-05-4.40132E-19 1.00901E-18
 -1      3749 8.87321E-05-2.48855E-05-2.73674E-05-9.42425E-06-4.22865E-19 1.00522E-18
 -1      3750 9.30329E-05-3.03795E-05-2.68076E-05-1.29035E-05-1.04952E-18 2.04636E-18
 -1      3751 9.17132E-05-2.85665E-05-2.70523E-05-1.20352E-05-6.11715E-19 1.36578E-18
 -1      3752 8.88661E-05-2.65975E-05-2.66859E-05-1.17999E-05-8.32012E-19 1.27805E-18
 -1      3753 9.61878E-05-3.48951E-05-2.62056E-05-1.51287E-05-1.41977E-18 1.91906E-18
 -1      3754 9.38113E-05-3.21670E-05-2.64058E-05-1.43203E-05-1.24635E-18 1.99368E-18
 -1      3755 8.96705E-05-2.93945E-05-2.59047E-05-1.44900E-05-1.42800E-18 1.85385E-18
 -1      3756 9.20768E-05-3.38359E-05-2.49580E-05-1.78955E-05-9.11199E-19 1.54105E-18
 -1      3757 9.57587E-05-2.63076E-05-2.97721E-05 9.42540E-07 1.15817E-18-9.52494E-19
 -1      3758 9.56543E-05-2.56690E-05-2.99952E-05 1.58739E-06 1.25443E-18-1.03867E-18
 -1      3759 9.54956E-05-2.47683E-05-3.03048E-05 1.61188E-06 1.01305E-18-1.21839E-18
 -1      3760 9.59317E-05-2.63158E-05-2.98321E-05 7.89574E-07 8.91830E-19-5.24376E-19
 -1      3761 9.51727E-05-2.82640E-05-2.86734E-05-6.57053E-07-3.89976E-20-1.92715E-19
 -1      3762 9.52236E-05-2.83634E-05-2.86563E-05-6.09495E-07 3.33353E-19-2.44261E-20
 -1      3763 9.50886E-05-2.81549E-05-2.86851E-05-6.35451E-07-2.57299E-19-3.28766E-19
 -1      3764 9.59280E-05-2.57328E-05-3.00805E-05-9.21602E-07-6.51332E-19-1.61463E-18
 -1      3765 9.61343E-05-2.64659E-05-2.98655E-05-4.63714E-07-6.46488E-19-1.51196E-18
 -1      3766 9.55843E-05-2.47369E-05-3.03593E-05-1.08290E-06-5.43320E-19-1.78395E-18
 -1      3767 6.54986E-05-1.96234E-05-1.93248E-05-1.54091E-05-1.03653E-18-1.44951E-18
 -1      3768 7.46842E-05-2.57914E-05-2.10004E-05-1.97782E-05-1.25759E-18-1.02915E-19
 -1      3769 6.71018E-05-2.04330E-05-2.00693E-05 1.50473E-05 5.39072E-19-2.51675E-19
 -1      3770 6.21564E-05-1.68124E-05-1.93097E-05 8.44740E-06 7.08953E-19-9.99022E-19
 -1      3771 9.63434E-05-2.71045E-05-2.96699E-05-1.86932E-07-6.46531E-19-1.32612E-18
 -1      3772 9.64357E-05-2.76034E-05-2.95041E-05 1.13406E-07-6.27350E-19-1.25971E-18
 -1      3773 9.65794E-05-2.77040E-05-2.95180E-05 1.30137E-07-4.75233E-19-1.26985E-18
 -1      3774 9.54393E-05-2.44671E-05-3.04288E-05 1.45320E-06 8.68501E-19-1.51209E-18
 -1      3775 9.52403E-05-2.38477E-05-3.05964E-05 1.11637E-06 6.48173E-19-1.63434E-18
 -1      3776 8.10303E-05-2.87574E-05-2.22416E-05-2.04378E-05-1.05364E-18-1.40952E-21
 -1      3777 8.78963E-05-3.18898E-05-2.39384E-05-1.87521E-05-9.76086E-19 6.20390E-19
 -1      3778 8.64808E-05-2.93730E-05-2.44698E-05-1.68362E-05-8.24352E-19 5.26830E-19
 -1      3779 7.62917E-05-2.43754E-05-2.23450E-05-1.67067E-05-1.38927E-18-5.86934E-19
 -1      3780 9.56975E-05-2.89749E-05-2.85957E-05-6.27724E-07 3.31633E-19 1.42956E-19
 -1      3781 9.58367E-05-2.90525E-05-2.86231E-05-5.87062E-07 5.20898E-19 1.62828E-19
 -1      3782 9.56514E-05-2.89228E-05-2.85964E-05-5.98408E-07-1.01399E-20 3.80864E-20
 -1      3783 9.57531E-05-2.53193E-05-3.01815E-05 1.05354E-06 8.39439E-19-1.28483E-18
 -1      3784 9.61594E-05-2.86162E-05-2.89497E-05-7.81721E-07 3.57553E-19-7.04729E-19
 -1      3785 9.63787E-05-2.82653E-05-2.91955E-05-4.96850E-07 3.17660E-19-9.26361E-19
 -1      3786 9.63730E-05-2.79458E-05-2.93204E-05-2.86421E-07 4.84009E-19-8.16906E-19
 -1      3787 6.21863E-05-1.58745E-05-1.97006E-05 4.41692E-06 8.02092E-19-2.53861E-18
 -1      3788 6.32715E-05-1.58918E-05-2.03932E-05-5.40221E-07 5.76449E-19-2.33687E-18
 -1      3789 6.71248E-05-1.73172E-05-2.12828E-05 6.50336E-06 1.05476E-18-1.50379E-18
 -1      3790 6.56488E-05-1.84088E-05-2.01284E-05-1.05097E-05-7.70509E-19-1.15257E-18
 -1      3791 9.62845E-05-2.75224E-05-2.94752E-05-6.61080E-08 7.23537E-19-8.62911E-19
 -1      3792 9.62107E-05-2.70323E-05-2.96456E-05 2.81924E-07 8.74341E-19-6.87498E-19
 -1      3793 9.64519E-05-2.76065E-05-2.95051E-05-9.82755E-08 6.42908E-19-8.75314E-19
 -1      3794 9.58740E-05-2.90627E-05-2.86353E-05-8.96203E-07 4.52161E-19 3.12575E-19
 -1      3795 9.58970E-05-2.91047E-05-2.86240E-05-7.31996E-07 7.01321E-19-1.93321E-19
 -1      3796 9.59500E-05-2.91238E-05-2.86392E-05-7.67472E-07 5.87975E-19-3.08484E-19
 -1      3797 9.59850E-05-2.91456E-05-2.86471E-05-6.47048E-07 6.78355E-19-1.66487E-19
 -1      3798 8.12974E-05-2.95761E-05-2.21149E-05 2.05671E-05 7.76398E-19-6.41125E-19
 -1      3799 7.50210E-05-2.46243E-05-2.14233E-05 1.83916E-05 8.26175E-19-3.76023E-19
 -1      3800 9.51372E-05-2.35718E-05-3.06836E-05 8.38644E-07 5.76359E-19-1.71866E-18
 -1      3801 9.50821E-05-2.34108E-05-3.07243E-05 4.78173E-07 2.64900E-19-1.93577E-18
 -1      3802 9.46036E-05-2.23382E-05-3.09524E-05 5.78973E-08 5.68361E-20-2.12586E-18
 -1      3803 9.38837E-05-2.10659E-05-3.12138E-05-1.62019E-07 3.27429E-21-2.30626E-18
 -1      3804 9.39939E-05-2.12897E-05-3.11722E-05-6.48353E-07-2.34760E-19-2.26116E-18
 -1      3805 9.55319E-05-2.44970E-05-3.04525E-05-9.64696E-07-5.37055E-19-1.80156E-18
 -1      3806 9.60040E-05-2.56169E-05-3.01622E-05-5.45910E-07-5.04444E-19-1.74207E-18
 -1      3807 9.54000E-05-2.41272E-05-3.05445E-05-7.62032E-07-3.90976E-19-1.82238E-18
 -1      3808 9.52593E-05-2.83923E-05-2.86570E-05-5.51617E-07 4.79016E-20-6.09181E-19
 -1      3809 9.61571E-05-2.91073E-05-2.87353E-05-8.42158E-07 4.35781E-19-2.25214E-19
 -1      3810 9.62117E-05-2.90576E-05-2.87781E-05-8.42245E-07 4.81917E-19-5.51349E-19
 -1      3811 9.55366E-05-2.87929E-05-2.86028E-05-5.58568E-07-2.86958E-19 3.39671E-19
 -1      3812 9.55804E-05-2.88563E-05-2.85967E-05-5.75390E-07-1.38503E-19 1.28215E-19
 -1      3813 9.56936E-05-2.89269E-05-2.86153E-05-5.38167E-07-1.87884E-19 6.03102E-19
 -1      3814 9.62783E-05-2.65785E-05-2.98693E-05-3.38718E-07-5.55041E-19-1.54267E-18
 -1      3815 7.37176E-05-2.20471E-05-2.21300E-05 1.43439E-05 8.35095E-19-5.32923E-19
 -1      3816 9.56742E-05-2.47170E-05-3.03987E-05 7.25392E-07 5.75828E-19-1.53409E-18
 -1      3817 9.64218E-05-2.90613E-05-2.88707E-05-7.37750E-07 3.08182E-19-7.60139E-19
 -1      3818 9.62741E-05-2.89838E-05-2.88393E-05-8.32455E-07 3.89016E-19-5.92444E-19
 -1      3819 9.63217E-05-2.88742E-05-2.89028E-05-7.89270E-07 2.86385E-19-7.65736E-19
 -1      3820 9.55534E-05-2.87748E-05-2.86201E-05-5.10500E-07-6.38813E-20 2.32498E-19
 -1      3821 9.56314E-05-2.44700E-05-3.04832E-05 2.65179E-07 1.80591E-19-1.81180E-18
 -1      3822 9.51060E-05-2.34375E-05-3.07220E-05 2.21583E-07 2.22124E-19-1.94501E-18
 -1      3823 9.51598E-05-2.35603E-05-3.06996E-05-1.08226E-07-4.91604E-20-1.83959E-18
 -1      3824 9.67877E-05-2.88132E-05-2.91303E-05 4.39416E-07-3.43215E-19-1.08305E-18
 -1      3825 9.67485E-05-2.89896E-05-2.90403E-05 4.97094E-07-2.49024E-19-1.08448E-18
 -1      3826 9.66940E-05-2.91198E-05-2.89586E-05 5.12868E-07-1.21588E-19-1.16035E-18
 -1      3827 9.66263E-05-2.92079E-05-2.88936E-05 5.32691E-07-1.14157E-19-1.06149E-18
 -1      3828 9.68164E-05-2.90613E-05-2.90393E-05 3.88159E-07-1.39735E-19-8.80201E-19
 -1      3829 9.65437E-05-2.92605E-05-2.88343E-05 5.27942E-07-1.61652E-19-1.21456E-18
 -1      3830 9.64626E-05-2.92874E-05-2.87888E-05 5.24078E-07-1.40408E-19-1.06101E-18
 -1      3831 9.66790E-05-2.92583E-05-2.88964E-05 4.11643E-07-2.93886E-19-8.08094E-19
 -1      3832 9.63670E-05-2.92873E-05-2.87475E-05 5.07671E-07-1.18626E-19-1.04214E-18
 -1      3833 9.62813E-05-2.92717E-05-2.87174E-05 4.91412E-07-2.64031E-19-9.14140E-19
 -1      3834 9.65018E-05-2.93200E-05-2.87941E-05 4.03615E-07-1.34520E-19-1.32052E-18
 -1      3835 9.61819E-05-2.92362E-05-2.86904E-05 4.70931E-07-1.72575E-19-4.76566E-19
 -1      3836 9.60969E-05-2.91920E-05-2.86724E-05 4.50351E-07-3.94681E-20-2.93273E-21
 -1      3837 9.63079E-05-2.92882E-05-2.87245E-05 3.78283E-07 2.83156E-19-5.58826E-19
 -1      3838 9.59975E-05-2.91317E-05-2.86566E-05 4.30295E-07-3.23724E-19 5.79375E-22
 -1      3839 9.59147E-05-2.90668E-05-2.86479E-05 4.11772E-07-5.03915E-20-1.47832E-19
 -1      3840 9.61109E-05-2.91930E-05-2.86807E-05 3.48038E-07-1.11947E-19-1.07209E-19
 -1      3841 9.58164E-05-2.89882E-05-2.86408E-05 3.96244E-07-2.26937E-19-3.01610E-19
 -1      3842 9.57352E-05-2.89071E-05-2.86394E-05 3.84604E-07-2.62582E-19-5.67593E-19
 -1      3843 9.59149E-05-2.90517E-05-2.86569E-05 3.20506E-07-3.72544E-19-4.59949E-19
 -1      3844 9.56367E-05-2.88131E-05-2.86392E-05 3.76665E-07-2.17118E-19-8.05080E-19
 -1      3845 9.55548E-05-2.87175E-05-2.86435E-05 3.75717E-07-2.25546E-19-8.75501E-19
 -1      3846 9.57200E-05-2.88744E-05-2.86489E-05 3.03062E-07-2.49565E-19-1.57005E-19
 -1      3847 9.54523E-05-2.86082E-05-2.86484E-05 3.77812E-07-2.98708E-19-8.05066E-19
 -1      3848 9.53657E-05-2.84971E-05-2.86570E-05 3.90836E-07-5.87115E-19-7.87911E-19
 -1      3849 9.55212E-05-2.86647E-05-2.86531E-05 3.00829E-07-3.15435E-19-4.08581E-19
 -1      3850 9.52541E-05-2.83706E-05-2.86657E-05 4.05243E-07-2.76556E-19-5.13787E-19
 -1      3851 9.51577E-05-2.82415E-05-2.86776E-05 4.35304E-07 3.62579E-20-2.64773E-19
 -1      3852 9.53095E-05-2.84209E-05-2.86662E-05 3.18287E-07-3.33217E-19-6.93662E-20
 -1      3853 9.50300E-05-2.80942E-05-2.86887E-05 4.64294E-07 8.25476E-21-1.23632E-19
 -1      3854 9.49173E-05-2.79433E-05-2.87025E-05 5.14451E-07-2.49635E-19 1.82229E-19
 -1      3855 9.50730E-05-2.81375E-05-2.86856E-05 3.59645E-07 1.74289E-19 2.30294E-19
 -1      3856 9.47653E-05-2.77705E-05-2.87147E-05 5.60398E-07-2.41154E-19 1.91748E-19
 -1      3857 9.46288E-05-2.75932E-05-2.87292E-05 6.33803E-07 1.76680E-19 3.23722E-19
 -1      3858 9.47967E-05-2.78063E-05-2.87083E-05 4.29074E-07 2.70949E-20 2.61728E-19
 -1      3859 9.44430E-05-2.73899E-05-2.87404E-05 6.99235E-07 1.30763E-19 5.94445E-19
 -1      3860 9.42740E-05-2.71815E-05-2.87538E-05 7.99148E-07 3.16760E-19 7.26378E-19
 -1      3861 9.44630E-05-2.74175E-05-2.87310E-05 5.30827E-07 2.06249E-19 6.56045E-19
 -1      3862 9.40435E-05-2.69424E-05-2.87619E-05 8.86734E-07-1.77257E-19 5.18851E-19
 -1      3863 9.38323E-05-2.66987E-05-2.87718E-05 1.01647E-06-2.68906E-19-1.71537E-19
 -1      3864 9.40517E-05-2.69606E-05-2.87493E-05 6.69249E-07-1.65561E-19 3.64689E-20
 -1      3865 9.35451E-05-2.64197E-05-2.87734E-05 1.12898E-06-3.41283E-19-7.32548E-19
 -1      3866 9.32810E-05-2.61378E-05-2.87763E-05 1.29182E-06-2.13012E-19-8.32686E-19
 -1      3867 9.35401E-05-2.64263E-05-2.87576E-05 8.48691E-07-6.06286E-19-2.24814E-19
 -1      3868 9.29240E-05-2.58164E-05-2.87670E-05 1.43212E-06 3.16804E-19-9.57416E-19
 -1      3869 9.25958E-05-2.54961E-05-2.87582E-05 1.63131E-06 1.66787E-19-4.49146E-19
 -1      3870 9.29033E-05-2.58081E-05-2.87480E-05 1.07341E-06-3.48739E-20-5.42090E-19
 -1      3871 9.21548E-05-2.51329E-05-2.87319E-05 1.80250E-06 3.78758E-20-3.29775E-19
 -1      3872 9.17513E-05-2.47776E-05-2.87048E-05 2.04154E-06 4.53675E-19-2.58387E-19
 -1      3873 9.21143E-05-2.51038E-05-2.87097E-05 1.34765E-06 4.68727E-19-4.55765E-19
 -1      3874 9.12112E-05-2.43776E-05-2.86531E-05 2.24745E-06-2.04786E-19-6.44897E-19
 -1      3875 9.07217E-05-2.39968E-05-2.85988E-05 2.53094E-06-7.15024E-19-9.65459E-19
 -1      3876 9.11443E-05-2.43186E-05-2.86281E-05 1.67620E-06-3.49346E-19 1.01644E-19
 -1      3877 9.00659E-05-2.35710E-05-2.85105E-05 2.77751E-06-3.11788E-19-1.16018E-18
 -1      3878 8.94817E-05-2.31819E-05-2.84170E-05 3.11328E-06-7.33045E-20-6.27631E-19
 -1      3879 8.99621E-05-2.34670E-05-2.84834E-05 2.06605E-06-5.11385E-19-3.47651E-19
 -1      3880 8.86911E-05-2.27486E-05-2.82773E-05 3.41127E-06 3.29252E-19-9.28917E-19
 -1      3881 8.80066E-05-2.23788E-05-2.81291E-05 3.81463E-06 3.76003E-19-2.43270E-19
 -1      3882 8.85329E-05-2.25753E-05-2.82492E-05 2.53016E-06-2.07417E-19 6.28448E-20
 -1      3883 8.70564E-05-2.19651E-05-2.79178E-05 4.18523E-06 5.80565E-19 3.15940E-20
 -1      3884 8.62717E-05-2.16556E-05-2.76945E-05 4.68661E-06 9.42810E-19 5.01397E-19
 -1      3885 8.68140E-05-2.16819E-05-2.78903E-05 3.09516E-06 7.11386E-19-4.62806E-19
 -1      3886 8.51264E-05-2.12984E-05-2.73848E-05 5.17179E-06 3.63163E-19 6.55228E-20
 -1      3887 8.42518E-05-2.11093E-05-2.70601E-05 5.82952E-06-5.84013E-19-1.23467E-19
 -1      3888 8.47459E-05-2.08373E-05-2.73589E-05 3.81624E-06 5.54344E-19-5.11288E-19
 -1      3889 8.28594E-05-2.08581E-05-2.66148E-05 6.50446E-06-1.12744E-18 1.62905E-20
 -1      3890 8.19174E-05-2.08732E-05-2.61552E-05 7.42557E-06-9.97613E-19 3.16413E-19
 -1      3891 8.22431E-05-2.01078E-05-2.65890E-05 4.80311E-06-5.14656E-19-1.12167E-19
 -1      3892 8.01786E-05-2.07776E-05-2.55187E-05 8.41807E-06-8.04719E-19 3.80908E-19
 -1      3893 7.91875E-05-2.11612E-05-2.48695E-05 9.83764E-06-4.13301E-21 1.05441E-19
 -1      3894 7.91810E-05-1.95764E-05-2.54864E-05 6.23536E-06-8.74124E-19 5.62049E-19
 -1      3895 7.70180E-05-2.10353E-05-2.40808E-05 1.07721E-05 5.80979E-19-5.02370E-19
 -1      3896 7.61418E-05-2.20492E-05-2.31933E-05 1.28782E-05 9.51577E-19-6.47396E-19
 -1      3897 7.04369E-05-1.83935E-05-2.21186E-05 9.61495E-06 1.14157E-18-4.46883E-19
 -1      3898 7.54460E-05-1.90896E-05-2.40339E-05 7.83342E-06-5.14366E-19-3.59903E-19
 -1      3899 9.53955E-05-2.85494E-05-2.86471E-05-4.50815E-07 2.36146E-19-2.06496E-19
 -1      3900 9.54691E-05-2.86491E-05-2.86381E-05-4.40205E-07 1.84863E-19-1.48648E-19
 -1      3901 9.44666E-05-2.73748E-05-2.87527E-05-8.99820E-07 3.33272E-19-1.11594E-18
 -1      3902 9.46023E-05-2.75573E-05-2.87369E-05-7.89686E-07 4.31283E-19-1.26407E-18
 -1      3903 9.47639E-05-2.77391E-05-2.87239E-05-7.12239E-07 1.17610E-19-1.19384E-18
 -1      3904 9.48748E-05-2.78957E-05-2.87079E-05-6.32992E-07-1.02848E-19-6.95735E-19
 -1      3905 9.46029E-05-2.75668E-05-2.87274E-05-6.40138E-07 2.85757E-19-1.32665E-18
 -1      3906 9.36484E-05-2.64659E-05-2.87917E-05-1.47647E-06-5.11404E-20-1.20679E-18
 -1      3907 9.38547E-05-2.67064E-05-2.87831E-05-1.29053E-06 3.98244E-19-1.01345E-18
 -1      3908 9.30950E-05-2.59195E-05-2.87887E-05-1.88593E-06-2.75186E-19-3.83767E-19
 -1      3909 9.33462E-05-2.61872E-05-2.87889E-05-1.65430E-06-3.86242E-19-8.73701E-19
 -1      3910 9.32636E-05-2.61295E-05-2.87660E-05-1.33573E-06-3.10733E-19-7.26482E-19
 -1      3911 9.24264E-05-2.53231E-05-2.87576E-05-2.39221E-06-5.56240E-19 5.79394E-19
 -1      3912 9.27269E-05-2.56106E-05-2.87719E-05-2.10894E-06-2.37774E-19 1.56497E-19
 -1      3913 9.25993E-05-2.55148E-05-2.87432E-05-1.70751E-06-7.71917E-19 5.25204E-19
 -1      3914 9.16343E-05-2.47009E-05-2.86844E-05-3.01095E-06-7.01498E-19 2.55269E-19
 -1      3915 9.19843E-05-2.49932E-05-2.87200E-05-2.66871E-06-3.46906E-19 4.50714E-19
 -1      3916 9.17960E-05-2.48445E-05-2.86845E-05-2.16996E-06-5.10340E-19 1.05205E-18
 -1      3917 9.07191E-05-2.40953E-05-2.85508E-05-3.76382E-06 5.55960E-20-1.38515E-19
 -1      3918 9.11126E-05-2.43671E-05-2.86167E-05-3.35244E-06-6.41271E-19-4.23701E-19
 -1      3919 9.08397E-05-2.41431E-05-2.85734E-05-2.74177E-06-5.15859E-19-4.82668E-20
 -1      3920 8.96964E-05-2.35748E-05-2.83336E-05-4.68422E-06-7.67041E-19 5.55941E-19
 -1      3921 9.01160E-05-2.37859E-05-2.84412E-05-4.18769E-06-2.48495E-19 4.14005E-20
 -1      3922 8.97226E-05-2.34528E-05-2.83884E-05-3.45090E-06-3.45832E-19 4.61588E-19
 -1      3923 8.86049E-05-2.32423E-05-2.80045E-05-5.82701E-06-1.02756E-19 7.04753E-19
 -1      3924 8.90154E-05-2.33324E-05-2.81674E-05-5.21860E-06-4.75612E-19 5.98242E-19
 -1      3925 8.84452E-05-2.28383E-05-2.81022E-05-4.34228E-06-5.79000E-19 1.57946E-18
 -1      3926 8.75218E-05-2.32489E-05-2.75306E-05-7.28398E-06-9.75968E-19 1.66350E-18
 -1      3927 8.78575E-05-2.31285E-05-2.77633E-05-6.51941E-06-5.43680E-19 7.26756E-19
 -1      3928 8.70200E-05-2.23927E-05-2.76803E-05-5.49158E-06-8.10245E-19 1.26237E-18
 -1      3929 8.65714E-05-2.38205E-05-2.68748E-05-9.21124E-06-5.79672E-19 1.85807E-18
 -1      3930 8.67361E-05-2.33569E-05-2.71918E-05-8.21321E-06-8.95659E-19 1.13915E-18
 -1      3931 8.54776E-05-2.22493E-05-2.70795E-05-7.03015E-06-6.62488E-19 1.69757E-18
 -1      3932 8.59423E-05-2.53263E-05-2.60148E-05-1.18836E-05-1.02012E-18 1.12479E-18
 -1      3933 8.57820E-05-2.42485E-05-2.64128E-05-1.04300E-05-1.15623E-19 1.64410E-18
 -1      3934 8.39704E-05-2.26516E-05-2.62474E-05-9.16722E-06-3.76571E-19 1.79760E-18
 -1      3935 9.60989E-05-2.65751E-05-2.97978E-05 4.76202E-07 8.49751E-19-9.26953E-19
 -1      3936 9.59652E-05-2.59478E-05-3.00113E-05 8.44943E-07 8.25585E-19-1.18534E-18
 -1      3937 9.59402E-05-2.56202E-05-3.01341E-05 7.47798E-07 6.08561E-19-1.43978E-18
 -1      3938 9.62507E-05-2.66696E-05-2.98178E-05 3.50999E-07 8.08196E-19-1.29938E-18
 -1      3939 9.63052E-05-2.64207E-05-2.99546E-05-3.43457E-07-3.50154E-19-1.72702E-18
 -1      3940 9.65078E-05-2.70687E-05-2.97594E-05-7.31348E-08-3.25581E-19-1.49835E-18
 -1      3941 9.62652E-05-2.61638E-05-3.00407E-05-2.86149E-07-2.92217E-19-1.66591E-18
 -1      3942 9.60275E-05-2.91375E-05-2.86662E-05-7.99538E-07 4.75397E-19 4.63661E-21
 -1      3943 9.60829E-05-2.91287E-05-2.86933E-05-8.24171E-07 5.27380E-19 7.82543E-20
 -1      3944 9.62870E-05-2.91756E-05-2.87640E-05-7.43218E-07 3.09936E-19-4.39387E-19
 -1      3945 9.61371E-05-2.91935E-05-2.86920E-05-7.05125E-07 6.85203E-19-1.24543E-19
 -1      3946 9.41003E-05-2.69517E-05-2.87772E-05-1.15136E-06 6.60103E-19-8.68816E-19
 -1      3947 9.42678E-05-2.71627E-05-2.87635E-05-1.00578E-06 5.38540E-19-1.06673E-18
 -1      3948 9.42462E-05-2.71550E-05-2.87501E-05-8.12105E-07 5.05118E-19-9.87355E-19
 -1      3949 9.66637E-05-2.76181E-05-2.95924E-05 6.07833E-08-2.90797E-19-1.40304E-18
 -1      3950 9.67430E-05-2.80499E-05-2.94398E-05 2.38090E-07-3.37482E-19-1.30141E-18
 -1      3951 9.66867E-05-2.74556E-05-2.96694E-05 2.62117E-08-1.17176E-19-1.45249E-18
 -1      3952 9.59219E-05-2.53790E-05-3.02394E-05 6.31278E-07 5.99739E-19-1.59285E-18
 -1      3953 9.58572E-05-2.50982E-05-3.03255E-05 4.37774E-07 5.11545E-19-1.44978E-18
 -1      3954 9.61292E-05-2.59483E-05-3.00750E-05 4.45907E-07 5.23023E-19-1.52473E-18
 -1      3955 6.50059E-05-1.63275E-05-2.06665E-05-5.71924E-06-5.60110E-19-1.17049E-18
 -1      3956 6.98145E-05-1.95024E-05-2.16261E-05-1.11952E-05-1.16856E-18-5.99091E-19
 -1      3957 9.55627E-05-2.87490E-05-2.86331E-05-4.40277E-07 2.49828E-19-1.15963E-19
 -1      3958 9.56335E-05-2.88350E-05-2.86285E-05-4.45231E-07 5.79041E-20 2.59960E-19
 -1      3959 9.55427E-05-2.87056E-05-2.86449E-05-3.73533E-07 2.95787E-19-5.47529E-19
 -1      3960 9.67891E-05-2.83425E-05-2.93338E-05 2.98071E-07-3.41171E-19-1.23216E-18
 -1      3961 9.67947E-05-2.86275E-05-2.92153E-05 4.06201E-07-3.11310E-19-1.13146E-18
 -1      3962 9.68768E-05-2.87231E-05-2.92094E-05 3.23086E-07-2.46415E-19-1.11142E-18
 -1      3963 9.68523E-05-2.82523E-05-2.94006E-05 2.14927E-07-1.84458E-19-1.20603E-18
 -1      3964 9.63585E-05-2.87234E-05-2.89885E-05-7.33353E-07 2.84781E-19-8.20102E-19
 -1      3965 9.63885E-05-2.85270E-05-2.90789E-05-6.22211E-07 2.46374E-19-8.75409E-19
 -1      3966 9.65460E-05-2.83476E-05-2.92288E-05-4.59699E-07 3.00042E-19-1.05029E-18
 -1      3967 9.65197E-05-2.88059E-05-2.90218E-05-6.56881E-07 2.29970E-19-1.02442E-18
 -1      3968 9.47128E-05-2.25862E-05-3.08950E-05-6.85505E-07-4.09410E-19-1.98346E-18
 -1      3969 9.52144E-05-2.83187E-05-2.86684E-05-4.95176E-07 1.64978E-19-5.77931E-19
 -1      3970 9.52950E-05-2.84342E-05-2.86560E-05-4.65409E-07 1.52440E-19-5.19919E-19
 -1      3971 9.53507E-05-2.84813E-05-2.86581E-05-3.89737E-07 2.78063E-19-4.14529E-19
 -1      3972 9.50082E-05-2.80511E-05-2.86948E-05-5.79959E-07-3.19299E-19-5.46051E-19
 -1      3973 9.51010E-05-2.81854E-05-2.86801E-05-5.27390E-07 1.40001E-19-4.97590E-19
 -1      3974 9.51390E-05-2.82216E-05-2.86781E-05-4.35627E-07 3.25150E-20-2.34131E-19
 -1      3975 6.97600E-05-1.76400E-05-2.23922E-05 6.01927E-06 1.17889E-18-1.27863E-18
 -1      3976 6.76847E-05-1.67803E-05-2.17888E-05-2.16701E-06-2.14946E-19-8.63603E-19
 -1      3977 9.66871E-05-2.84814E-05-2.92340E-05-4.42753E-07 2.08026E-19-1.19414E-18
 -1      3978 9.66754E-05-2.81716E-05-2.93554E-05-3.01054E-07 4.06555E-19-1.10550E-18
 -1      3979 9.65931E-05-2.77673E-05-2.95012E-05-1.70663E-07 5.58958E-19-1.28405E-18
 -1      3980 9.65022E-05-2.72863E-05-2.96626E-05 6.18489E-08 6.47469E-19-1.30567E-18
 -1      3981 9.67171E-05-2.78824E-05-2.94994E-05-1.67687E-07 4.24530E-19-1.44863E-18
 -1      3982 9.38062E-05-2.66771E-05-2.87652E-05-1.04090E-06 5.80311E-19-1.14742E-18
 -1      3983 9.60550E-05-2.91754E-05-2.86615E-05-5.42951E-07 6.75305E-19 1.20147E-20
 -1      3984 9.61316E-05-2.92123E-05-2.86791E-05-5.68465E-07 7.59792E-19 1.49564E-19
 -1      3985 9.48948E-05-2.79196E-05-2.87022E-05-5.16995E-07-7.82398E-20-6.32757E-19
 -1      3986 7.24138E-05-1.93802E-05-2.27824E-05-9.54210E-06-6.37513E-19-7.41617E-20
 -1      3987 7.41097E-05-2.13917E-05-2.24021E-05-1.35969E-05-1.53073E-18-1.67191E-18
 -1      3988 7.87352E-05-2.40794E-05-2.34612E-05-1.47107E-05-8.34842E-19-1.46400E-18
 -1      3989 8.29465E-05-2.48079E-05-2.49425E-05-1.29466E-05-1.00075E-18-2.41956E-19
 -1      3990 8.00438E-05-2.22016E-05-2.46879E-05-1.12437E-05-4.19010E-19-1.07825E-19
 -1      3991 9.52547E-05-2.37392E-05-3.06525E-05-2.98552E-07-1.54609E-19-1.87654E-18
 -1      3992 9.52980E-05-2.38836E-05-3.06170E-05-6.28895E-07-3.92276E-19-1.81234E-18
 -1      3993 9.58880E-05-2.51263E-05-3.03200E-05-3.56412E-07-1.80237E-19-1.70918E-18
 -1      3994 9.57405E-05-2.46939E-05-3.04342E-05-1.12965E-07-2.66977E-20-1.69876E-18
 -1      3995 9.58879E-05-2.90648E-05-2.86371E-05-4.94133E-07 1.44905E-19 6.61567E-19
 -1      3996 9.59615E-05-2.91217E-05-2.86454E-05-5.18066E-07 5.17794E-19 3.03211E-19
 -1      3997 9.60904E-05-2.91882E-05-2.86739E-05-4.44659E-07 5.01299E-19 2.03442E-19
 -1      3998 9.58790E-05-2.51101E-05-3.03350E-05 2.74404E-07 4.41945E-19-1.57113E-18
 -1      3999 9.59134E-05-2.51526E-05-3.03327E-05 7.89871E-08 2.03122E-19-1.72068E-18
 -1      4000 9.61448E-05-2.57049E-05-3.01812E-05 2.22288E-07 6.11662E-19-1.43608E-18
 -1      4001 9.57247E-05-2.89209E-05-2.86289E-05-4.57054E-07-1.97315E-19 7.39957E-19
 -1      4002 9.57960E-05-2.89934E-05-2.86299E-05-4.73739E-07-8.02932E-20 9.40271E-19
 -1      4003 9.59068E-05-2.90611E-05-2.86494E-05-4.07442E-07-1.13526E-19 5.82030E-19
 -1      4004 9.65428E-05-2.91477E-05-2.88838E-05-6.36066E-07 4.29603E-20-3.85492E-19
 -1      4005 9.66045E-05-2.90518E-05-2.89489E-05-6.10434E-07 8.14899E-20-7.05085E-19
 -1      4006 9.63925E-05-2.92419E-05-2.87782E-05-6.30500E-07 2.38379E-19-2.90701E-19
 -1      4007 9.64663E-05-2.92077E-05-2.88235E-05-6.34229E-07 6.72459E-20-3.76147E-19
 -1      4008 9.66241E-05-2.92076E-05-2.88946E-05-5.21790E-07-5.56430E-21-2.40085E-19
 -1      4009 9.57255E-05-2.88986E-05-2.86410E-05-3.81399E-07 1.28403E-19 2.31582E-19
 -1      4010 9.66528E-05-2.89143E-05-2.90322E-05-5.84351E-07 1.17896E-19-1.06134E-18
 -1      4011 9.66886E-05-2.87297E-05-2.91224E-05-5.11752E-07 1.06419E-19-1.11829E-18
 -1      4012 9.67971E-05-2.85746E-05-2.92388E-05-3.76859E-07 9.72910E-20-8.89437E-19
 -1      4013 9.67897E-05-2.92503E-05-2.89443E-05 2.78647E-07-2.88898E-19-8.88226E-19
 -1      4014 9.67087E-05-2.93117E-05-2.88833E-05 2.91272E-07-3.35352E-19-9.13708E-19
 -1      4015 9.66137E-05-2.93424E-05-2.88296E-05 2.79497E-07-4.41327E-19-7.07175E-19
 -1      4016 9.65174E-05-2.93464E-05-2.87868E-05 2.77832E-07-1.96852E-19-9.15288E-19
 -1      4017 9.67049E-05-2.93408E-05-2.88733E-05 1.58911E-07-1.91472E-19-7.76299E-19
 -1      4018 9.64132E-05-2.93281E-05-2.87499E-05 2.68645E-07 2.72867E-19-8.00245E-19
 -1      4019 9.63154E-05-2.92949E-05-2.87216E-05 2.61146E-07 3.97447E-19-5.81934E-19
 -1      4020 9.64999E-05-2.93507E-05-2.87808E-05 1.53781E-07-8.48687E-20-6.22065E-19
 -1      4021 9.62070E-05-2.92440E-05-2.86978E-05 2.46716E-07 3.44094E-20-8.06298E-19
 -1      4022 9.61082E-05-2.91827E-05-2.86810E-05 2.38078E-07-2.53499E-19-8.97669E-19
 -1      4023 9.62963E-05-2.92889E-05-2.87203E-05 1.39793E-07 1.90274E-19-1.10404E-18
 -1      4024 9.60001E-05-2.91080E-05-2.86676E-05 2.26918E-07-1.81435E-19-5.21306E-19
 -1      4025 9.59021E-05-2.90264E-05-2.86598E-05 2.20381E-07-6.19397E-21-1.67075E-19
 -1      4026 9.60807E-05-2.91611E-05-2.86826E-05 1.29702E-07 2.23700E-19-6.92077E-19
 -1      4027 9.57944E-05-2.89335E-05-2.86546E-05 2.12699E-07-1.08691E-19-1.90737E-19
 -1      4028 9.56960E-05-2.88351E-05-2.86537E-05 2.10976E-07-2.18550E-19-1.81076E-19
 -1      4029 9.58677E-05-2.89906E-05-2.86636E-05 1.22033E-07-3.25598E-20-6.26872E-19
 -1      4030 9.55857E-05-2.87256E-05-2.86547E-05 2.07809E-07-2.75575E-19-1.04869E-20
 -1      4031 9.54835E-05-2.86107E-05-2.86591E-05 2.13168E-07-2.87786E-19 1.83306E-19
 -1      4032 9.56527E-05-2.87840E-05-2.86590E-05 1.19036E-07-1.77492E-19-4.53648E-19
 -1      4033 9.53657E-05-2.84836E-05-2.86646E-05 2.15515E-07-2.38828E-19 3.12710E-19
 -1      4034 9.52545E-05-2.83502E-05-2.86728E-05 2.29954E-07-3.72825E-20 4.67942E-19
 -1      4035 9.54281E-05-2.85422E-05-2.86652E-05 1.22766E-07-8.87522E-20 7.42985E-19
 -1      4036 9.51226E-05-2.82026E-05-2.86814E-05 2.38772E-07-1.45164E-20 7.26246E-19
 -1      4037 9.49955E-05-2.80472E-05-2.86920E-05 2.64127E-07 3.00556E-19 5.89835E-19
 -1      4038 9.51826E-05-2.82612E-05-2.86790E-05 1.34920E-07 1.50334E-19 6.71994E-19
 -1      4039 9.48415E-05-2.78748E-05-2.87021E-05 2.80404E-07 3.70589E-19 9.20410E-19
 -1      4040 9.46903E-05-2.76928E-05-2.87135E-05 3.18417E-07 1.69811E-19 8.08535E-19
 -1      4041 9.49018E-05-2.79340E-05-2.86974E-05 1.57000E-07 4.90184E-19 9.31920E-19
 -1      4042 9.45046E-05-2.74904E-05-2.87232E-05 3.43198E-07 1.95834E-19 9.99620E-19
 -1      4043 9.43198E-05-2.72765E-05-2.87336E-05 3.95520E-07 1.37574E-19 6.45227E-19
 -1      4044 9.45682E-05-2.75507E-05-2.87168E-05 1.90373E-07 3.42267E-20 9.41097E-19
 -1      4045 9.40915E-05-2.70387E-05-2.87407E-05 4.29890E-07-2.17507E-19 4.77296E-19
 -1      4046 9.38622E-05-2.67878E-05-2.87475E-05 4.98031E-07-6.21729E-19 1.81723E-19
 -1      4047 9.41615E-05-2.71009E-05-2.87330E-05 2.36228E-07-1.61626E-19 7.48112E-19
 -1      4048 9.35790E-05-2.65097E-05-2.87488E-05 5.43066E-07-7.14799E-19 1.79755E-19
 -1      4049 9.32931E-05-2.62176E-05-2.87487E-05 6.28304E-07-6.02487E-19 4.54781E-20
 -1      4050 9.36588E-05-2.65740E-05-2.87406E-05 2.95459E-07-8.11258E-19 2.09895E-19
 -1      4051 9.29417E-05-2.58955E-05-2.87401E-05 6.85008E-07-6.90709E-19-2.70007E-19
 -1      4052 9.25859E-05-2.55599E-05-2.87285E-05 7.88316E-07-2.90702E-20-3.98679E-19
 -1      4053 9.30347E-05-2.59614E-05-2.87323E-05 3.68488E-07-6.18672E-19 3.40565E-20
 -1      4054 9.21517E-05-2.51926E-05-2.87044E-05 8.57580E-07 6.59886E-19-7.55523E-19
 -1      4055 9.17117E-05-2.48137E-05-2.86748E-05 9.79666E-07 5.98634E-19-4.57472E-19
 -1      4056 9.22614E-05-2.52580E-05-2.86982E-05 4.55077E-07-3.43882E-20-5.99172E-19
 -1      4057 9.11786E-05-2.44031E-05-2.86275E-05 1.06233E-06-2.25969E-20-2.33380E-19
 -1      4058 9.06390E-05-2.39856E-05-2.85716E-05 1.20399E-06-5.81257E-19-2.66760E-19
 -1      4059 9.13086E-05-2.44642E-05-2.86248E-05 5.54213E-07 2.54381E-19-8.09140E-19
 -1      4060 8.99891E-05-2.35380E-05-2.84908E-05 1.30116E-06-7.14746E-19-5.88256E-20
 -1      4061 8.93328E-05-2.30911E-05-2.83970E-05 1.46425E-06-7.74405E-19-2.50688E-19
 -1      4062 9.01427E-05-2.35874E-05-2.84943E-05 6.64243E-07-3.05183E-19-6.54095E-19
 -1      4063 8.85438E-05-2.26176E-05-2.82692E-05 1.57806E-06-8.49279E-19-2.94109E-19
 -1      4064 8.77508E-05-2.21560E-05-2.81223E-05 1.76767E-06-4.07856E-19-5.99477E-19
 -1      4065 8.87247E-05-2.26429E-05-2.82825E-05 7.83493E-07-6.66792E-19-4.39488E-19
 -1      4066 8.67927E-05-2.16718E-05-2.79289E-05 1.90291E-06-1.52729E-19-5.90892E-19
 -1      4067 8.58363E-05-2.12149E-05-2.77083E-05 2.13170E-06 5.18146E-19-6.08728E-19
 -1      4068 8.70046E-05-2.16533E-05-2.79574E-05 9.11661E-07-5.60676E-19-8.32800E-19
 -1      4069 8.46617E-05-2.07364E-05-2.74243E-05 2.29884E-06 8.11040E-19-1.04484E-18
 -1      4070 8.35023E-05-2.03064E-05-2.71019E-05 2.59548E-06-7.34470E-20-1.22879E-18
 -1      4071 8.49093E-05-2.06432E-05-2.74750E-05 1.05194E-06 5.02041E-20-9.75253E-19
 -1      4072 8.20275E-05-1.98417E-05-2.66910E-05 2.81931E-06-4.71836E-19-1.42568E-18
 -1      4073 8.06138E-05-1.94669E-05-2.62270E-05 3.24328E-06-5.20489E-19-1.14875E-18
 -1      4074 8.23161E-05-1.96296E-05-2.67740E-05 1.21251E-06-2.20697E-19-1.76475E-18
 -1      4075 7.86948E-05-1.90163E-05-2.56340E-05 3.60352E-06-8.37541E-19-1.04240E-18
 -1      4076 7.69713E-05-1.87497E-05-2.49648E-05 4.27975E-06-9.75400E-19-1.33442E-18
 -1      4077 7.89654E-05-1.85992E-05-2.57620E-05 1.40749E-06-4.78507E-19-2.47479E-18
 -1      4078 7.47619E-05-1.83908E-05-2.42274E-05 4.76294E-06-8.13004E-19-6.28769E-19
 -1      4079 7.26864E-05-1.80643E-05-2.34292E-05 5.21708E-06 3.21404E-19-8.65572E-19
 -1      4080 6.99869E-05-1.67808E-05-2.26467E-05 2.50217E-06 4.23899E-19-1.30060E-18
 -1      4081 7.50641E-05-1.77276E-05-2.44255E-05 1.80914E-06-5.42708E-19-1.96787E-18
 -1      4082 9.47916E-05-2.78047E-05-2.87086E-05-4.24728E-07 7.85279E-21-6.73639E-19
 -1      4083 9.49257E-05-2.79722E-05-2.86963E-05-3.77675E-07 1.45488E-19-1.17698E-19
 -1      4084 7.23242E-05-1.79772E-05-2.31324E-05-6.21785E-06 4.12283E-19 1.12569E-18
 -1      4085 7.50968E-05-1.98095E-05-2.37882E-05-8.75743E-06 3.26255E-19 3.07804E-19
 -1      4086 9.21659E-05-2.51838E-05-2.87086E-05-1.42881E-06-1.18986E-18 1.30109E-18
 -1      4087 9.25354E-05-2.55185E-05-2.87291E-05-1.24577E-06-1.03757E-18 7.47355E-19
 -1      4088 9.29266E-05-2.58537E-05-2.87471E-05-1.11661E-06-7.44975E-19 5.43946E-19
 -1      4089 9.32301E-05-2.61545E-05-2.87526E-05-9.69153E-07-3.05246E-19 2.89042E-19
 -1      4090 9.25602E-05-2.55199E-05-2.87170E-05-8.47658E-07-1.20253E-18 1.28869E-18
 -1      4091 9.01435E-05-2.36830E-05-2.84855E-05-2.30605E-06 1.79795E-19 1.30051E-20
 -1      4092 9.06667E-05-2.40556E-05-2.85599E-05-2.02965E-06 7.74480E-20 5.32740E-19
 -1      4093 8.88462E-05-2.29158E-05-2.82581E-05-2.91885E-06-6.59117E-19 4.21522E-19
 -1      4094 8.94513E-05-2.32765E-05-2.83766E-05-2.57616E-06-3.35297E-19 1.22717E-19
 -1      4095 8.93993E-05-2.31367E-05-2.83674E-05-1.79692E-06-1.45893E-19-2.11182E-19
 -1      4096 8.73386E-05-2.22090E-05-2.79140E-05-3.70436E-06-9.28341E-19 1.32743E-18
 -1      4097 8.80228E-05-2.25235E-05-2.80923E-05-3.27021E-06-6.56439E-19 1.34919E-18
 -1      4098 8.79038E-05-2.22764E-05-2.80861E-05-2.30901E-06-1.09346E-18 1.71724E-19
 -1      4099 8.56062E-05-2.16418E-05-2.74129E-05-4.74125E-06-5.58632E-19 1.31735E-18
 -1      4100 8.63609E-05-2.18632E-05-2.76708E-05-4.17194E-06-6.08743E-19 1.34216E-18
 -1      4101 8.61313E-05-2.14502E-05-2.76681E-05-2.98687E-06-7.45045E-19 9.61913E-19
 -1      4102 8.36310E-05-2.13207E-05-2.67015E-05-6.16750E-06-5.19767E-19 1.38055E-18
 -1      4103 8.44357E-05-2.13810E-05-2.70648E-05-5.38241E-06-5.72252E-19 1.34909E-18
 -1      4104 8.40260E-05-2.07134E-05-2.70641E-05-3.91006E-06-6.88118E-19 3.05870E-19
 -1      4105 8.13163E-05-2.14612E-05-2.57034E-05-8.32378E-06-1.40869E-19 1.19036E-18
 -1      4106 8.21695E-05-2.11652E-05-2.62084E-05-7.09146E-06-1.72045E-19 1.73114E-18
 -1      4107 8.14775E-05-2.01166E-05-2.62060E-05-5.20528E-06-5.44440E-19 7.68959E-19
 -1      4108 8.61300E-05-2.76121E-05-2.49937E-05-1.51257E-05-1.29438E-18 4.28741E-19
 -1      4109 9.64000E-05-2.68939E-05-2.97894E-05 1.65216E-07 5.98960E-19-1.31841E-18
 -1      4110 9.62899E-05-2.64457E-05-2.99364E-05 3.53832E-07 4.77883E-19-1.55987E-18
 -1      4111 9.62858E-05-2.62070E-05-3.00330E-05 2.77493E-07 5.96339E-19-1.62480E-18
 -1      4112 9.65343E-05-2.70552E-05-2.97756E-05 8.49209E-08 4.80396E-19-1.42380E-18
 -1      4113 9.62254E-05-2.92411E-05-2.87066E-05-5.93570E-07 6.47308E-19-1.12742E-20
 -1      4114 9.63026E-05-2.92487E-05-2.87363E-05-6.13028E-07 4.75974E-19-4.99975E-20
 -1      4115 9.62763E-05-2.92701E-05-2.87189E-05-4.84414E-07 7.42483E-19 1.22577E-19
 -1      4116 7.04355E-05-1.73016E-05-2.28484E-05-2.17788E-06-3.16009E-19-5.90322E-19
 -1      4117 9.53048E-05-2.84152E-05-2.86663E-05-3.09673E-07 6.69787E-20 2.23239E-19
 -1      4118 9.54057E-05-2.85388E-05-2.86580E-05-2.94026E-07 3.27803E-19-1.59137E-19
 -1      4119 9.55171E-05-2.86583E-05-2.86528E-05-2.90861E-07 2.69184E-19-3.66199E-19
 -1      4120 9.56109E-05-2.87651E-05-2.86486E-05-2.86950E-07 3.99276E-19 8.21236E-20
 -1      4121 9.54701E-05-2.85964E-05-2.86607E-05-2.08657E-07 3.10507E-19-1.53211E-19
 -1      4122 9.66551E-05-2.71602E-05-2.97841E-05-5.10262E-08-7.17877E-20-1.43073E-18
 -1      4123 9.68044E-05-2.76981E-05-2.96177E-05 7.84864E-08-1.02991E-20-1.38734E-18
 -1      4124 9.67489E-05-2.89903E-05-2.90408E-05-4.84547E-07-9.00982E-20-5.58262E-19
 -1      4125 9.57165E-05-2.88681E-05-2.86482E-05-2.91939E-07 4.02585E-19-3.07318E-19
 -1      4126 9.58080E-05-2.89593E-05-2.86493E-05-2.97049E-07-2.47356E-20 4.49844E-20
 -1      4127 9.56847E-05-2.88254E-05-2.86556E-05-2.06551E-07 2.00713E-19 7.80714E-20
 -1      4128 7.89946E-05-2.08362E-05-2.49273E-05-8.51764E-06 6.77388E-19 8.33706E-19
 -1      4129 9.12446E-05-2.44522E-05-2.86276E-05-1.81902E-06-4.13397E-19 6.91340E-19
 -1      4130 9.16881E-05-2.48132E-05-2.86703E-05-1.59398E-06-6.49870E-19 1.07364E-18
 -1      4131 9.06548E-05-2.39848E-05-2.85487E-05-1.40128E-06-7.73323E-20 2.15163E-19
 -1      4132 9.61894E-05-2.58696E-05-3.01408E-05-2.81639E-07-1.58476E-19-1.58631E-18
 -1      4133 9.64717E-05-2.66220E-05-2.99355E-05-9.73437E-08-1.33919E-19-1.46603E-18
 -1      4134 9.65818E-05-2.68633E-05-2.98775E-05-4.03874E-08-7.49329E-20-1.25951E-18
 -1      4135 9.61084E-05-2.56366E-05-3.02058E-05-1.82322E-07-1.03073E-19-1.51474E-18
 -1      4136 9.44591E-05-2.74205E-05-2.87311E-05-5.30731E-07 2.88173E-19-7.86171E-19
 -1      4137 9.46216E-05-2.76163E-05-2.87192E-05-4.63736E-07 3.55702E-19-7.76650E-19
 -1      4138 9.46668E-05-2.76609E-05-2.87130E-05-3.15949E-07 3.65209E-19-8.97396E-19
 -1      4139 9.69141E-05-2.90058E-05-2.91027E-05 2.51726E-07-4.21668E-20-8.34184E-19
 -1      4140 9.68622E-05-2.91501E-05-2.90187E-05 2.84269E-07-1.41189E-19-8.25445E-19
 -1      4141 9.68688E-05-2.92058E-05-2.90022E-05 1.53107E-07-2.27665E-19-1.07896E-18
 -1      4142 9.35478E-05-2.64505E-05-2.87571E-05-8.69220E-07 5.13195E-20-1.82531E-19
 -1      4143 9.37947E-05-2.67146E-05-2.87532E-05-7.52461E-07 2.60258E-19-4.14974E-19
 -1      4144 9.32626E-05-2.61738E-05-2.87413E-05-6.56716E-07-6.78310E-19 1.07928E-18
 -1      4145 9.50678E-05-2.81332E-05-2.86859E-05-3.52754E-07-8.78072E-20 1.94973E-19
 -1      4146 9.51818E-05-2.82768E-05-2.86749E-05-3.22751E-07-1.24895E-19 3.04554E-19
 -1      4147 9.49758E-05-2.80216E-05-2.86925E-05-2.59952E-07 4.00529E-19-2.47563E-19
 -1      4148 9.40514E-05-2.69715E-05-2.87492E-05-6.76625E-07 5.35471E-19-1.07519E-18
 -1      4149 9.42513E-05-2.72000E-05-2.87398E-05-5.86516E-07 2.87618E-19-8.02267E-19
 -1      4150 9.42924E-05-2.72387E-05-2.87315E-05-3.97392E-07 1.62475E-19-7.94449E-19
 -1      4151 9.38320E-05-2.67455E-05-2.87432E-05-5.09050E-07-1.98264E-19-5.45091E-19
 -1      4152 9.63058E-05-2.92892E-05-2.87208E-05-3.66531E-07 6.70728E-19-1.71752E-19
 -1      4153 9.63995E-05-2.93149E-05-2.87499E-05-3.79000E-07 4.69390E-19-3.71866E-19
 -1      4154 9.68289E-05-2.80759E-05-2.94681E-05-1.88391E-07 1.73730E-19-1.17892E-18
 -1      4155 9.67470E-05-2.76394E-05-2.96177E-05-4.78861E-08 2.93200E-19-1.31499E-18
 -1      4156 9.68534E-05-2.77938E-05-2.96001E-05 4.33388E-08 1.63819E-19-1.11319E-18
 -1      4157 9.68808E-05-2.80547E-05-2.94965E-05 1.00942E-07-5.83760E-20-1.04556E-18
 -1      4158 9.69239E-05-2.83505E-05-2.93895E-05 1.75493E-07-7.92513E-20-9.60902E-19
 -1      4159 9.69499E-05-2.86318E-05-2.92777E-05 1.99518E-07-1.19145E-19-8.48292E-19
 -1      4160 9.69434E-05-2.88292E-05-2.91915E-05 2.47723E-07-8.25293E-20-8.22381E-19
 -1      4161 9.69680E-05-2.89192E-05-2.91668E-05 1.32876E-07-1.59409E-19-8.06565E-19
 -1      4162 9.69673E-05-2.84485E-05-2.93650E-05 1.02878E-07-7.21865E-20-7.36646E-19
 -1      4163 7.32550E-05-1.77756E-05-2.38312E-05-1.99971E-06 4.91495E-19-3.81600E-19
 -1      4164 9.60423E-05-2.54564E-05-3.02518E-05-5.75370E-08 2.94229E-20-1.63761E-18
 -1      4165 9.62878E-05-2.60147E-05-3.01131E-05-1.60242E-08 8.22763E-20-1.48537E-18
 -1      4166 9.16995E-05-2.47866E-05-2.86582E-05-1.09142E-06-7.86689E-19 5.74642E-19
 -1      4167 9.61087E-05-2.91900E-05-2.86782E-05-3.35645E-07 3.56725E-19 2.91651E-19
 -1      4168 9.62028E-05-2.92440E-05-2.86956E-05-3.49187E-07 7.36263E-19 1.24118E-19
 -1      4169 9.63070E-05-2.92929E-05-2.87219E-05-2.53026E-07 5.05103E-19-2.87809E-19
 -1      4170 9.52382E-05-2.83305E-05-2.86740E-05-2.25366E-07 1.18764E-19 1.04675E-19
 -1      4171 9.64584E-05-2.92858E-05-2.87901E-05-5.15164E-07 2.38991E-19-3.33877E-19
 -1      4172 7.75864E-05-1.91469E-05-2.49169E-05-5.98630E-06 6.00675E-19 5.56114E-19
 -1      4173 9.68203E-05-2.90873E-05-2.90289E-05-3.89811E-07-3.34001E-19-6.68040E-19
 -1      4174 9.68701E-05-2.89294E-05-2.91150E-05-3.45393E-07-1.99609E-19-8.80527E-19
 -1      4175 9.63149E-05-2.61958E-05-3.00540E-05 1.99354E-07 5.74872E-19-1.34681E-18
 -1      4176 9.63354E-05-2.61841E-05-3.00654E-05 9.81654E-08 4.38103E-19-1.28052E-18
 -1      4177 9.64810E-05-2.66530E-05-2.99225E-05 1.37098E-07 5.26891E-19-1.37504E-18
 -1      4178 9.68864E-05-2.87140E-05-2.92186E-05-3.25983E-07-7.94891E-20-1.07274E-18
 -1      4179 9.68828E-05-2.84348E-05-2.93333E-05-2.41495E-07-2.76511E-21-1.20124E-18
 -1      4180 9.69042E-05-2.82063E-05-2.94412E-05-1.37898E-07 5.66677E-20-1.16482E-18
 -1      4181 9.59120E-05-2.90464E-05-2.86554E-05-3.08448E-07-1.12023E-19-1.04232E-20
 -1      4182 9.60041E-05-2.91211E-05-2.86637E-05-3.19549E-07 1.52471E-19 2.05474E-19
 -1      4183 9.60994E-05-2.91795E-05-2.86831E-05-2.32390E-07 4.43994E-19 1.90567E-19
 -1      4184 9.66804E-05-2.92723E-05-2.88888E-05-4.06124E-07 7.30293E-20-5.24547E-19
 -1      4185 9.67584E-05-2.91997E-05-2.89515E-05-3.90055E-07-1.80984E-19-4.62928E-19
 -1      4186 9.68558E-05-2.91511E-05-2.90202E-05-2.71509E-07-3.36370E-19-9.70892E-19
 -1      4187 9.58922E-05-2.90205E-05-2.86618E-05-2.15725E-07 6.24970E-20-5.62847E-19
 -1      4188 7.53022E-05-1.82131E-05-2.45805E-05-2.02014E-06 1.90275E-19-1.00954E-18
 -1      4189 9.23329E-05-2.53873E-05-2.87027E-05-2.60303E-07-8.78721E-19 2.85243E-19
 -1      4190 9.27314E-05-2.57325E-05-2.87227E-05-1.77609E-07-9.78847E-19 5.09532E-19
 -1      4191 9.65807E-05-2.93705E-05-2.88027E-05 3.31339E-08 1.31394E-19-1.12569E-18
 -1      4192 9.64772E-05-2.93573E-05-2.87640E-05 2.87339E-08 1.62361E-19-9.20150E-19
 -1      4193 9.63239E-05-2.92981E-05-2.87239E-05-5.06142E-08 1.88056E-19-4.70006E-19
 -1      4194 9.62175E-05-2.92441E-05-2.87010E-05-4.88539E-08 4.12720E-19-4.85225E-19
 -1      4195 9.61126E-05-2.91760E-05-2.86852E-05-4.49662E-08 5.08808E-19-4.22252E-19
 -1      4196 9.60032E-05-2.90985E-05-2.86717E-05-4.52358E-08 4.00057E-19-1.60542E-19
 -1      4197 9.58978E-05-2.90104E-05-2.86645E-05-4.23905E-08 6.56533E-20-2.63817E-19
 -1      4198 9.57882E-05-2.89141E-05-2.86592E-05-4.22969E-08-1.65931E-19-2.98656E-19
 -1      4199 9.56809E-05-2.88088E-05-2.86586E-05-4.24895E-08-1.66633E-19-2.02995E-19
 -1      4200 9.55683E-05-2.86952E-05-2.86594E-05-4.10965E-08-2.10971E-20-1.89943E-19
 -1      4201 9.54552E-05-2.85729E-05-2.86638E-05-4.58144E-08 2.24338E-19 7.70381E-20
 -1      4202 9.53347E-05-2.84406E-05-2.86691E-05-4.25459E-08 2.39408E-19 2.70400E-19
 -1      4203 9.52097E-05-2.82990E-05-2.86769E-05-5.31252E-08 1.75601E-19 3.16523E-19
 -1      4204 9.50748E-05-2.81451E-05-2.86852E-05-4.75704E-08 3.30436E-19 1.29630E-19
 -1      4205 9.49304E-05-2.79805E-05-2.86949E-05-6.53625E-08 5.67787E-19-1.55919E-19
 -1      4206 9.47727E-05-2.78004E-05-2.87044E-05-5.72431E-08 6.54719E-19-4.31203E-20
 -1      4207 9.46001E-05-2.76081E-05-2.87142E-05-8.37282E-08 2.79105E-19-3.45478E-20
 -1      4208 9.44098E-05-2.73966E-05-2.87232E-05-7.29222E-08-1.14216E-20-9.05685E-20
 -1      4209 9.41987E-05-2.71715E-05-2.87309E-05-1.09810E-07-1.10434E-19 1.04166E-19
 -1      4210 9.39648E-05-2.69232E-05-2.87369E-05-9.64125E-08-3.61576E-19-1.05634E-19
 -1      4211 9.37040E-05-2.66607E-05-2.87396E-05-1.45755E-07-6.21672E-19 6.76482E-19
 -1      4212 9.34140E-05-2.63707E-05-2.87394E-05-1.30174E-07-8.14884E-19 4.42804E-19
 -1      4213 9.30910E-05-2.60674E-05-2.87334E-05-1.94528E-07-1.20148E-18 9.70823E-19
 -1      4214 9.18887E-05-2.50065E-05-2.86756E-05-2.43459E-07-2.56185E-19-9.23539E-20
 -1      4215 9.14009E-05-2.46217E-05-2.86347E-05-3.49065E-07 3.54311E-20-4.38490E-19
 -1      4216 9.08556E-05-2.41975E-05-2.85834E-05-3.34399E-07 5.72382E-20-6.47914E-19
 -1      4217 9.02637E-05-2.37798E-05-2.85122E-05-4.69568E-07 1.12807E-19-5.83124E-19
 -1      4218 8.95983E-05-2.33188E-05-2.84262E-05-4.59921E-07-1.85179E-19-4.76895E-19
 -1      4219 8.88858E-05-2.28806E-05-2.83126E-05-6.34843E-07-3.59679E-19-4.75775E-19
 -1      4220 8.80768E-05-2.23934E-05-2.81776E-05-6.33753E-07-6.94827E-19-2.45308E-19
 -1      4221 8.72235E-05-2.19524E-05-2.80053E-05-8.64593E-07-8.16786E-19-7.97108E-20
 -1      4222 8.62383E-05-2.14527E-05-2.78026E-05-8.76267E-07-3.89808E-19-3.45672E-19
 -1      4223 8.52161E-05-2.10318E-05-2.75501E-05-1.18889E-06-4.02704E-19-2.64392E-19
 -1      4224 8.40054E-05-2.05333E-05-2.72538E-05-1.21897E-06-4.62607E-19-9.70787E-19
 -1      4225 8.27725E-05-2.01573E-05-2.68916E-05-1.65289E-06-5.22035E-19-9.72210E-19
 -1      4226 8.12604E-05-1.96689E-05-2.64651E-05-1.71490E-06-4.78933E-19-9.91156E-19
 -1      4227 7.97582E-05-1.93564E-05-2.59524E-05-2.31461E-06-4.09299E-19-1.15499E-18
 -1      4228 7.79220E-05-1.88758E-05-2.53509E-05-2.46522E-06-2.03400E-19-1.49363E-18
 -1      4229 9.64604E-05-2.64733E-05-2.99932E-05-1.96646E-08 1.34858E-19-1.32381E-18
 -1      4230 9.66552E-05-2.70347E-05-2.98395E-05 2.68513E-08 2.23973E-19-1.24751E-18
 -1      4231 9.65010E-05-2.93246E-05-2.87888E-05-3.91788E-07 2.83181E-19-3.65366E-19
 -1      4232 9.65927E-05-2.93121E-05-2.88327E-05-3.93892E-07 1.42477E-19-3.38215E-19
 -1      4233 9.65079E-05-2.93415E-05-2.87872E-05-2.67278E-07 3.59172E-19-6.19412E-19
 -1      4234 9.69410E-05-2.88052E-05-2.92031E-05-2.27555E-07-2.64069E-19-1.21440E-18
 -1      4235 9.67378E-05-2.93390E-05-2.88836E-05-5.95111E-08 7.13050E-21-1.12728E-18
 -1      4236 9.66378E-05-2.93636E-05-2.88300E-05-5.52941E-08 1.19363E-19-1.05602E-18
 -1      4237 9.69005E-05-2.91913E-05-2.90164E-05-6.06105E-08-3.84852E-19-9.01457E-19
 -1      4238 9.68252E-05-2.92860E-05-2.89422E-05-5.17030E-08-3.36001E-19-1.12835E-18
 -1      4239 9.66910E-05-2.72478E-05-2.97593E-05 9.32097E-09 2.94307E-19-1.02346E-18
 -1      4240 9.65876E-05-2.70549E-05-2.98004E-05 4.04884E-08 3.67952E-19-1.35877E-18
 -1      4241 9.68183E-05-2.76026E-05-2.96624E-05-3.28628E-08 1.92352E-19-1.20672E-18
 -1      4242 9.69594E-05-2.90587E-05-2.90971E-05-4.35881E-08-3.97884E-19-1.01084E-18
 -1      4243 9.69899E-05-2.88890E-05-2.91852E-05-6.06355E-08-3.47856E-19-1.01872E-18
 -1      4244 9.69991E-05-2.86472E-05-2.92914E-05-3.15938E-08-7.18498E-20-9.56976E-19
 -1      4245 9.69318E-05-2.80882E-05-2.95061E-05-4.20303E-08 3.17210E-19-1.12870E-18
 -1      4246 9.68855E-05-2.78779E-05-2.95738E-05 2.11598E-08 2.50174E-19-1.27071E-18
 -1      4247 9.67033E-05-2.93141E-05-2.88851E-05-2.82265E-07-4.26112E-20-9.60312E-19
 -1      4248 9.63629E-05-2.93125E-05-2.87375E-05-1.68578E-07 3.29925E-19-4.69968E-19
 -1      4249 9.64635E-05-2.93449E-05-2.87646E-05-1.78980E-07 4.98236E-19-9.08153E-19
 -1      4250 9.65739E-05-2.93639E-05-2.88060E-05-1.85882E-07 2.85948E-19-1.05349E-18
 -1      4251 9.69836E-05-2.84513E-05-2.93711E-05-9.72753E-08 1.95053E-19-1.14736E-18
 -1      4252 9.69647E-05-2.82324E-05-2.94517E-05 3.89010E-08 2.32912E-19-9.98885E-19
 -1      4253 9.69936E-05-2.85379E-05-2.93413E-05 5.13136E-08 8.00644E-20-8.95467E-19
 -3
    1PSTEP                         4           1           1          
  100CL  101 1.000000000        4253                     0    1           1
 -4  ERROR       1    1
 -5  STR(%)      1    1    0    0
 -1         1 1.26984E+01
 -1         2 2.40464E+01
 -1         3 9.88844E-02
 -1         4 1.49284E-01
 -1         5 1.40394E+01
 -1         6 1.31436E+01
 -1         7 1.31436E+01
 -1         8 3.66367E+00
 -1         9 1.82377E+00
 -1        10 1.29213E+00
 -1        11 1.04588E+00
 -1        12 8.99309E-01
 -1        13 8.08906E-01
 -1        14 7.53984E-01
 -1        15 7.55913E-01
 -1        16 8.13194E-01
 -1        17 9.00842E-01
 -1        18 1.05267E+00
 -1        19 1.30785E+00
 -1        20 1.83573E+00
 -1        21 3.50551E+00
 -1        22 8.64152E+00
 -1        23 1.31436E+01
 -1        24 4.31796E+00
 -1        25 3.34077E+00
 -1        26 2.11127E+00
 -1        27 1.36293E+00
 -1        28 1.01425E+00
 -1        29 7.75269E-01
 -1        30 5.95530E-01
 -1        31 4.55504E-01
 -1        32 3.48297E-01
 -1        33 2.69838E-01
 -1        34 2.07003E-01
 -1        35 1.57767E-01
 -1        36 1.20192E-01
 -1        37 9.25149E-02
 -1        38 7.31895E-02
 -1        39 6.08860E-02
 -1        40 5.59698E-02
 -1        41 6.39938E-02
 -1        42 7.60917E-02
 -1        43 9.14685E-02
 -1        44 1.16946E-01
 -1        45 1.57742E-01
 -1        46 2.10236E-01
 -1        47 2.75268E-01
 -1        48 3.52627E-01
 -1        49 4.40140E-01
 -1        50 5.32338E-01
 -1        51 6.47545E-01
 -1        52 8.38549E-01
 -1        53 1.04781E+00
 -1        54 1.30694E+00
 -1        55 1.51675E+00
 -1        56 1.57576E+00
 -1        57 1.65606E+00
 -1        58 1.65606E+00
 -1        59 2.03971E+00
 -1        60 2.89758E+00
 -1        61 4.68098E+00
 -1        62 5.31565E+00
 -1        63 5.31565E+00
 -1        64 5.06429E+00
 -1        65 4.23951E+00
 -1        66 2.51644E+00
 -1        67 1.20958E+00
 -1        68 5.55698E-01
 -1        69 7.09745E-01
 -1        70 7.09745E-01
 -1        71 6.36330E-01
 -1        72 1.40394E+01
 -1        73 3.39476E+00
 -1        74 2.41314E+00
 -1        75 1.66594E+00
 -1        76 1.14489E+00
 -1        77 9.05872E-01
 -1        78 7.31267E-01
 -1        79 5.87869E-01
 -1        80 4.68421E-01
 -1        81 3.69134E-01
 -1        82 2.95141E-01
 -1        83 2.33797E-01
 -1        84 1.83440E-01
 -1        85 1.43344E-01
 -1        86 1.12604E-01
 -1        87 9.02950E-02
 -1        88 7.55732E-02
 -1        89 6.87993E-02
 -1        90 7.82487E-02
 -1        91 9.39198E-02
 -1        92 1.15486E-01
 -1        93 1.42410E-01
 -1        94 1.73686E-01
 -1        95 2.07486E-01
 -1        96 2.64152E-01
 -1        97 3.33474E-01
 -1        98 4.08769E-01
 -1        99 4.83308E-01
 -1       100 5.45596E-01
 -1       101 5.77959E-01
 -1       102 6.43755E-01
 -1       103 8.46431E-01
 -1       104 1.02552E+00
 -1       105 1.12002E+00
 -1       106 1.48178E+00
 -1       107 1.62863E+00
 -1       108 1.87991E+00
 -1       109 2.23474E+00
 -1       110 3.14195E+00
 -1       111 3.81587E+00
 -1       112 3.98656E+00
 -1       113 3.98656E+00
 -1       114 3.75084E+00
 -1       115 2.62126E+00
 -1       116 1.49442E+00
 -1       117 5.61284E-01
 -1       118 3.91727E-01
 -1       119 3.91727E-01
 -1       120 2.86519E-01
 -1       121 2.23862E-01
 -1       122 3.43144E-01
 -1       123 4.32602E-01
 -1       124 4.47805E-01
 -1       125 4.47805E-01
 -1       126 3.10768E-01
 -1       127 5.37307E-01
 -1       128 8.18534E-01
 -1       129 8.18534E-01
 -1       130 7.32403E-01
 -1       131 3.34877E-01
 -1       132 3.90984E-01
 -1       133 4.56402E-01
 -1       134 4.56402E-01
 -1       135 4.81175E-01
 -1       136 4.81175E-01
 -1       137 2.40981E+01
 -1       138 4.82655E+01
 -1       139 4.82655E+01
 -1       140 2.12237E+01
 -1       141 1.26243E+01
 -1       142 1.35417E+01
 -1       143 1.35417E+01
 -1       144 1.28311E+01
 -1       145 1.28311E+01
 -1       146 1.29185E+01
 -1       147 3.08677E+01
 -1       148 3.20291E+01
 -1       149 2.76572E+01
 -1       150 2.41880E+01
 -1       151 2.41880E+01
 -1       152 2.35964E+01
 -1       153 4.67948E+01
 -1       154 4.67948E+01
 -1       155 1.92109E+01
 -1       156 1.24007E+01
 -1       157 1.24007E+01
 -1       158 1.26259E+01
 -1       159 1.26984E+01
 -1       160 1.75977E+01
 -1       161 4.58869E+01
 -1       162 4.58869E+01
 -1       163 2.40464E+01
 -1       164 6.07791E+00
 -1       165 2.29807E+00
 -1       166 1.50854E+00
 -1       167 1.15765E+00
 -1       168 9.73181E-01
 -1       169 8.64154E-01
 -1       170 7.96137E-01
 -1       171 7.55913E-01
 -1       172 7.99511E-01
 -1       173 8.67257E-01
 -1       174 9.81041E-01
 -1       175 1.17256E+00
 -1       176 1.52761E+00
 -1       177 2.26079E+00
 -1       178 3.93117E+00
 -1       179 1.40394E+01
 -1       180 4.31796E+00
 -1       181 3.34077E+00
 -1       182 2.11127E+00
 -1       183 1.44746E+00
 -1       184 1.02593E+00
 -1       185 7.75269E-01
 -1       186 5.95530E-01
 -1       187 4.68354E-01
 -1       188 3.68562E-01
 -1       189 2.90852E-01
 -1       190 2.34522E-01
 -1       191 1.86905E-01
 -1       192 1.47838E-01
 -1       193 1.16693E-01
 -1       194 9.26108E-02
 -1       195 7.46355E-02
 -1       196 6.17791E-02
 -1       197 5.59698E-02
 -1       198 6.39938E-02
 -1       199 7.60917E-02
 -1       200 9.68468E-02
 -1       201 1.27585E-01
 -1       202 1.67094E-01
 -1       203 2.15969E-01
 -1       204 2.75268E-01
 -1       205 3.65433E-01
 -1       206 4.88124E-01
 -1       207 6.29752E-01
 -1       208 7.81210E-01
 -1       209 9.24025E-01
 -1       210 1.08092E+00
 -1       211 1.30694E+00
 -1       212 1.51675E+00
 -1       213 1.57576E+00
 -1       214 1.65606E+00
 -1       215 1.62082E+00
 -1       216 2.03971E+00
 -1       217 2.99909E+00
 -1       218 4.68098E+00
 -1       219 5.31565E+00
 -1       220 5.06429E+00
 -1       221 4.23951E+00
 -1       222 2.83544E+00
 -1       223 1.73370E+00
 -1       224 1.16561E+00
 -1       225 8.57860E-01
 -1       226 7.09745E-01
 -1       227 6.36330E-01
 -1       228 3.39476E+00
 -1       229 2.41314E+00
 -1       230 1.66594E+00
 -1       231 1.14489E+00
 -1       232 9.05872E-01
 -1       233 7.31267E-01
 -1       234 5.87869E-01
 -1       235 4.68421E-01
 -1       236 3.69134E-01
 -1       237 2.95141E-01
 -1       238 2.33797E-01
 -1       239 1.86196E-01
 -1       240 1.47876E-01
 -1       241 1.17560E-01
 -1       242 9.46365E-02
 -1       243 7.84310E-02
 -1       244 6.82824E-02
 -1       245 7.20617E-02
 -1       246 8.23512E-02
 -1       247 9.71709E-02
 -1       248 1.15771E-01
 -1       249 1.42410E-01
 -1       250 1.83896E-01
 -1       251 2.33919E-01
 -1       252 2.90720E-01
 -1       253 3.51164E-01
 -1       254 4.10190E-01
 -1       255 4.83308E-01
 -1       256 5.45596E-01
 -1       257 5.77959E-01
 -1       258 7.19147E-01
 -1       259 8.46431E-01
 -1       260 1.02552E+00
 -1       261 1.12002E+00
 -1       262 1.48178E+00
 -1       263 1.62863E+00
 -1       264 1.87991E+00
 -1       265 2.24624E+00
 -1       266 3.14195E+00
 -1       267 3.81587E+00
 -1       268 3.98656E+00
 -1       269 3.75084E+00
 -1       270 2.62126E+00
 -1       271 1.60576E+00
 -1       272 7.97248E-01
 -1       273 4.88080E-01
 -1       274 3.91727E-01
 -1       275 3.20606E-01
 -1       276 4.83383E-01
 -1       277 6.99206E-01
 -1       278 8.20849E-01
 -1       279 8.20849E-01
 -1       280 8.17361E-01
 -1       281 8.39814E-01
 -1       282 1.53503E+00
 -1       283 1.65914E+00
 -1       284 1.65914E+00
 -1       285 1.25788E+00
 -1       286 6.82429E-01
 -1       287 8.41945E-01
 -1       288 8.41945E-01
 -1       289 7.44404E-01
 -1       290 6.31330E-01
 -1       291 3.07953E+01
 -1       292 2.93773E+01
 -1       293 4.82655E+01
 -1       294 2.37311E+01
 -1       295 1.10269E+01
 -1       296 1.26243E+01
 -1       297 1.35417E+01
 -1       298 1.20798E+01
 -1       299 1.28311E+01
 -1       300 1.19596E+01
 -1       301 1.29185E+01
 -1       302 3.20291E+01
 -1       303 3.20291E+01
 -1       304 2.40968E+01
 -1       305 2.73201E+01
 -1       306 2.73201E+01
 -1       307 2.80407E+01
 -1       308 4.67948E+01
 -1       309 2.18560E+01
 -1       310 1.15417E+01
 -1       311 1.24007E+01
 -1       312 1.21484E+01
 -1       313 1.26259E+01
 -1       314 1.26984E+01
 -1       315 1.19900E+01
 -1       316 1.84488E+01
 -1       317 4.58869E+01
 -1       318 2.81412E+01
 -1       319 3.07953E+01
 -1       320 1.04642E+00
 -1       321 2.48006E+00
 -1       322 7.91327E-01
 -1       323 6.94054E-01
 -1       324 6.31762E-01
 -1       325 5.87680E-01
 -1       326 5.90900E-01
 -1       327 6.34587E-01
 -1       328 7.01222E-01
 -1       329 7.96571E-01
 -1       330 9.31997E-01
 -1       331 1.16003E+00
 -1       332 1.32912E+00
 -1       333 2.20079E+00
 -1       334 1.91432E+00
 -1       335 1.72920E+00
 -1       336 1.26773E+00
 -1       337 9.07104E-01
 -1       338 6.56411E-01
 -1       339 5.38729E-01
 -1       340 4.41734E-01
 -1       341 3.56390E-01
 -1       342 2.91219E-01
 -1       343 2.36322E-01
 -1       344 1.89322E-01
 -1       345 1.53792E-01
 -1       346 1.24876E-01
 -1       347 1.00688E-01
 -1       348 8.09270E-02
 -1       349 6.50106E-02
 -1       350 5.33323E-02
 -1       351 5.22217E-02
 -1       352 5.79362E-02
 -1       353 7.39630E-02
 -1       354 9.68468E-02
 -1       355 1.27585E-01
 -1       356 1.82940E-01
 -1       357 2.54265E-01
 -1       358 3.43344E-01
 -1       359 4.50852E-01
 -1       360 5.74823E-01
 -1       361 7.08766E-01
 -1       362 8.39238E-01
 -1       363 9.44203E-01
 -1       364 1.06395E+00
 -1       365 1.17946E+00
 -1       366 1.17662E+00
 -1       367 9.65034E-01
 -1       368 9.98647E-01
 -1       369 1.23268E+00
 -1       370 2.06472E+00
 -1       371 2.72960E+00
 -1       372 3.24602E+00
 -1       373 3.07239E+00
 -1       374 3.04232E+00
 -1       375 2.53037E+00
 -1       376 2.18417E+00
 -1       377 1.75859E+00
 -1       378 1.29134E+00
 -1       379 9.51166E-01
 -1       380 9.36404E-01
 -1       381 1.13046E+00
 -1       382 8.91307E-01
 -1       383 7.03874E-01
 -1       384 5.45306E-01
 -1       385 4.37967E-01
 -1       386 3.71565E-01
 -1       387 3.07979E-01
 -1       388 2.52683E-01
 -1       389 2.07650E-01
 -1       390 1.68321E-01
 -1       391 1.35175E-01
 -1       392 1.08388E-01
 -1       393 8.82652E-02
 -1       394 7.35826E-02
 -1       395 6.39355E-02
 -1       396 6.05144E-02
 -1       397 6.44235E-02
 -1       398 7.28113E-02
 -1       399 9.30423E-02
 -1       400 1.19856E-01
 -1       401 1.54122E-01
 -1       402 2.17054E-01
 -1       403 2.95411E-01
 -1       404 3.89149E-01
 -1       405 4.95552E-01
 -1       406 6.07601E-01
 -1       407 7.12040E-01
 -1       408 8.03962E-01
 -1       409 8.74211E-01
 -1       410 8.74211E-01
 -1       411 8.61860E-01
 -1       412 7.13499E-01
 -1       413 7.26485E-01
 -1       414 9.88279E-01
 -1       415 1.75011E+00
 -1       416 2.29023E+00
 -1       417 2.37076E+00
 -1       418 2.37076E+00
 -1       419 2.29398E+00
 -1       420 2.32832E+00
 -1       421 1.99117E+00
 -1       422 1.59546E+00
 -1       423 1.25030E+00
 -1       424 9.39320E-01
 -1       425 6.66225E-01
 -1       426 3.44213E-01
 -1       427 1.14297E+00
 -1       428 1.05776E+00
 -1       429 6.66225E-01
 -1       430 1.16678E+00
 -1       431 1.38036E+00
 -1       432 2.01320E+00
 -1       433 2.69615E+00
 -1       434 2.69615E+00
 -1       435 2.59433E+00
 -1       436 1.48044E+00
 -1       437 1.19975E+00
 -1       438 1.19140E+00
 -1       439 9.86178E-01
 -1       440 2.93773E+01
 -1       441 3.07953E+01
 -1       442 3.01526E+01
 -1       443 1.66051E+01
 -1       444 9.35819E+00
 -1       445 9.19872E-01
 -1       446 8.69497E+00
 -1       447 1.06649E+01
 -1       448 1.07311E+01
 -1       449 8.96407E+00
 -1       450 7.20732E+00
 -1       451 1.19114E+01
 -1       452 2.10615E+01
 -1       453 2.45480E+01
 -1       454 3.29639E+01
 -1       455 3.29639E+01
 -1       456 2.35920E+01
 -1       457 2.80407E+01
 -1       458 1.59269E+01
 -1       459 1.00626E+01
 -1       460 7.55509E+00
 -1       461 1.03230E+01
 -1       462 1.13931E+01
 -1       463 1.03805E+01
 -1       464 8.64790E+00
 -1       465 7.72549E+00
 -1       466 1.53907E+01
 -1       467 2.81412E+01
 -1       468 2.82162E+01
 -1       469 7.15880E+00
 -1       470 9.36871E+00
 -1       471 1.04795E+00
 -1       472 4.86146E-01
 -1       473 5.09946E-01
 -1       474 4.31663E-01
 -1       475 4.57613E-01
 -1       476 4.87264E-01
 -1       477 5.11059E-01
 -1       478 5.11059E-01
 -1       479 6.08476E-01
 -1       480 8.91307E-01
 -1       481 8.03458E-01
 -1       482 5.00135E+00
 -1       483 7.05021E-01
 -1       484 5.89268E-01
 -1       485 4.76904E-01
 -1       486 3.78337E-01
 -1       487 3.23472E-01
 -1       488 2.73669E-01
 -1       489 2.26648E-01
 -1       490 1.88135E-01
 -1       491 1.54765E-01
 -1       492 1.25730E-01
 -1       493 1.01230E-01
 -1       494 8.10006E-02
 -1       495 6.50106E-02
 -1       496 5.23542E-02
 -1       497 4.45700E-02
 -1       498 4.58890E-02
 -1       499 5.63781E-02
 -1       500 7.59656E-02
 -1       501 1.13545E-01
 -1       502 1.61787E-01
 -1       503 2.23031E-01
 -1       504 2.99433E-01
 -1       505 3.92540E-01
 -1       506 5.02594E-01
 -1       507 6.27454E-01
 -1       508 7.61082E-01
 -1       509 8.91637E-01
 -1       510 1.00187E+00
 -1       511 1.11259E+00
 -1       512 1.27578E+00
 -1       513 1.40862E+00
 -1       514 1.43320E+00
 -1       515 1.79812E+00
 -1       516 2.14386E+00
 -1       517 2.16600E+00
 -1       518 3.49442E+00
 -1       519 5.51760E+00
 -1       520 3.93224E+00
 -1       521 2.77911E+00
 -1       522 2.86603E+00
 -1       523 2.19158E+00
 -1       524 1.75859E+00
 -1       525 1.29134E+00
 -1       526 5.45306E-01
 -1       527 4.37967E-01
 -1       528 3.71565E-01
 -1       529 3.07979E-01
 -1       530 2.52683E-01
 -1       531 2.08254E-01
 -1       532 1.69432E-01
 -1       533 1.36387E-01
 -1       534 1.10373E-01
 -1       535 8.94257E-02
 -1       536 7.16898E-02
 -1       537 5.68051E-02
 -1       538 4.89233E-02
 -1       539 4.67920E-02
 -1       540 5.70910E-02
 -1       541 7.23002E-02
 -1       542 1.00463E-01
 -1       543 1.44715E-01
 -1       544 2.00647E-01
 -1       545 2.69712E-01
 -1       546 3.52377E-01
 -1       547 4.47307E-01
 -1       548 5.50200E-01
 -1       549 6.52346E-01
 -1       550 7.39140E-01
 -1       551 8.19841E-01
 -1       552 8.75614E-01
 -1       553 9.24171E-01
 -1       554 8.97777E-01
 -1       555 9.70959E-01
 -1       556 1.01478E+00
 -1       557 1.55844E+00
 -1       558 1.94641E+00
 -1       559 2.29023E+00
 -1       560 2.78119E+00
 -1       561 2.80793E+00
 -1       562 2.35773E+00
 -1       563 2.12389E+00
 -1       564 2.14984E+00
 -1       565 1.59546E+00
 -1       566 1.29751E+00
 -1       567 1.28190E+00
 -1       568 2.01772E+00
 -1       569 2.75949E+00
 -1       570 1.28190E+00
 -1       571 1.72395E+00
 -1       572 3.66487E+00
 -1       573 3.96749E+00
 -1       574 3.96749E+00
 -1       575 2.95020E+00
 -1       576 2.48039E+00
 -1       577 1.76681E+00
 -1       578 9.86178E-01
 -1       579 3.01526E+01
 -1       580 2.08258E+01
 -1       581 2.82162E+01
 -1       582 7.03874E-01
 -1       583 1.21558E+01
 -1       584 8.73813E-01
 -1       585 5.33679E+00
 -1       586 1.93250E+01
 -1       587 4.57558E-01
 -1       588 4.03390E+00
 -1       589 8.08692E+00
 -1       590 3.71481E+00
 -1       591 6.70096E+00
 -1       592 7.44150E+00
 -1       593 1.05744E+01
 -1       594 1.59485E+01
 -1       595 2.45480E+01
 -1       596 3.29639E+01
 -1       597 2.74138E+01
 -1       598 1.21390E+01
 -1       599 9.69377E+00
 -1       600 6.16872E+00
 -1       601 8.11409E+00
 -1       602 8.47111E+00
 -1       603 6.39904E+00
 -1       604 4.22775E+00
 -1       605 6.93667E+00
 -1       606 1.36686E+01
 -1       607 2.02948E+01
 -1       608 1.32816E+00
 -1       609 8.44564E+00
 -1       610 7.25778E-01
 -1       611 7.43766E+00
 -1       612 7.42496E+00
 -1       613 4.70496E+00
 -1       614 9.51166E-01
 -1       615 3.58436E-01
 -1       616 3.42934E-01
 -1       617 3.60359E-01
 -1       618 3.42484E-01
 -1       619 5.44507E-01
 -1       620 5.15239E-01
 -1       621 1.10455E+01
 -1       622 1.38530E+01
 -1       623 3.98429E-01
 -1       624 3.83914E-01
 -1       625 3.43668E-01
 -1       626 2.94208E-01
 -1       627 2.44695E-01
 -1       628 2.13396E-01
 -1       629 1.81006E-01
 -1       630 1.50062E-01
 -1       631 1.22049E-01
 -1       632 9.93197E-02
 -1       633 8.05000E-02
 -1       634 6.41772E-02
 -1       635 5.08177E-02
 -1       636 3.91942E-02
 -1       637 3.11744E-02
 -1       638 3.72645E-02
 -1       639 5.86468E-02
 -1       640 8.97464E-02
 -1       641 1.28987E-01
 -1       642 1.78472E-01
 -1       643 2.40442E-01
 -1       644 3.17191E-01
 -1       645 4.10933E-01
 -1       646 5.23594E-01
 -1       647 6.56749E-01
 -1       648 8.13142E-01
 -1       649 9.80593E-01
 -1       650 1.15960E+00
 -1       651 1.33054E+00
 -1       652 1.67350E+00
 -1       653 2.10274E+00
 -1       654 2.40751E+00
 -1       655 2.52019E+00
 -1       656 3.29284E+00
 -1       657 3.21612E+00
 -1       658 4.78026E+00
 -1       659 4.60421E+00
 -1       660 2.86603E+00
 -1       661 2.86603E+00
 -1       662 2.88884E+00
 -1       663 1.75268E+00
 -1       664 3.28386E-01
 -1       665 3.96863E-01
 -1       666 2.34371E-01
 -1       667 1.97482E-01
 -1       668 1.63410E-01
 -1       669 1.35547E-01
 -1       670 1.10837E-01
 -1       671 8.94625E-02
 -1       672 7.16898E-02
 -1       673 5.66848E-02
 -1       674 4.53915E-02
 -1       675 3.58837E-02
 -1       676 4.18033E-02
 -1       677 5.39121E-02
 -1       678 8.39214E-02
 -1       679 1.21710E-01
 -1       680 1.69102E-01
 -1       681 2.27814E-01
 -1       682 2.99195E-01
 -1       683 3.83831E-01
 -1       684 4.80948E-01
 -1       685 5.87549E-01
 -1       686 6.97275E-01
 -1       687 7.99737E-01
 -1       688 8.96668E-01
 -1       689 1.04754E+00
 -1       690 1.20016E+00
 -1       691 1.32715E+00
 -1       692 1.63728E+00
 -1       693 1.72913E+00
 -1       694 2.62205E+00
 -1       695 3.62609E+00
 -1       696 5.52354E+00
 -1       697 6.18898E+00
 -1       698 7.42496E+00
 -1       699 3.75897E+00
 -1       700 2.66923E+00
 -1       701 2.14984E+00
 -1       702 1.58405E+00
 -1       703 1.58690E+00
 -1       704 1.17437E+01
 -1       705 1.61195E+00
 -1       706 3.79699E+00
 -1       707 1.12419E+01
 -1       708 8.55475E+00
 -1       709 4.53480E+00
 -1       710 4.53480E+00
 -1       711 2.99144E+00
 -1       712 3.97380E+00
 -1       713 1.31913E+01
 -1       714 3.17244E+00
 -1       715 5.52354E+00
 -1       716 4.64550E-01
 -1       717 7.56856E+00
 -1       718 1.54367E+01
 -1       719 1.59459E+01
 -1       720 4.64372E-01
 -1       721 2.73802E-01
 -1       722 3.60359E-01
 -1       723 2.73919E+00
 -1       724 5.71160E+00
 -1       725 3.65431E-01
 -1       726 7.42496E+00
 -1       727 6.16453E+00
 -1       728 2.57934E+00
 -1       729 6.81946E+00
 -1       730 8.78638E+00
 -1       731 1.24440E+01
 -1       732 1.68082E+01
 -1       733 1.03821E+01
 -1       734 4.91780E+00
 -1       735 6.95656E+00
 -1       736 5.51760E+00
 -1       737 1.20209E+01
 -1       738 2.98580E+00
 -1       739 1.00323E+01
 -1       740 4.64550E-01
 -1       741 3.42694E-01
 -1       742 7.18720E+00
 -1       743 2.71372E+00
 -1       744 6.67112E+00
 -1       745 4.18158E+00
 -1       746 1.75390E+00
 -1       747 2.50174E+00
 -1       748 4.60421E+00
 -1       749 3.57467E-01
 -1       750 5.69045E+00
 -1       751 4.87464E+00
 -1       752 2.78377E-01
 -1       753 5.36133E+00
 -1       754 3.75897E+00
 -1       755 6.33932E+00
 -1       756 2.56267E-01
 -1       757 2.49146E-01
 -1       758 2.27353E-01
 -1       759 1.99078E-01
 -1       760 1.72379E-01
 -1       761 1.51186E-01
 -1       762 1.28814E-01
 -1       763 1.07095E-01
 -1       764 8.69596E-02
 -1       765 6.87218E-02
 -1       766 5.22343E-02
 -1       767 3.70218E-02
 -1       768 2.23585E-02
 -1       769 2.31191E-02
 -1       770 4.00072E-02
 -1       771 6.58197E-02
 -1       772 9.84643E-02
 -1       773 1.42379E-01
 -1       774 1.98291E-01
 -1       775 2.68515E-01
 -1       776 3.55193E-01
 -1       777 4.59770E-01
 -1       778 5.82083E-01
 -1       779 7.18733E-01
 -1       780 8.91953E-01
 -1       781 1.12656E+00
 -1       782 1.46691E+00
 -1       783 1.89195E+00
 -1       784 2.32490E+00
 -1       785 3.85674E+00
 -1       786 5.21980E+00
 -1       787 3.70403E+00
 -1       788 1.01685E+01
 -1       789 1.63772E-01
 -1       790 1.89421E-01
 -1       791 1.13638E-01
 -1       792 9.16562E-02
 -1       793 7.21457E-02
 -1       794 5.49860E-02
 -1       795 4.18467E-02
 -1       796 2.95067E-02
 -1       797 2.46746E-02
 -1       798 3.67287E-02
 -1       799 6.11000E-02
 -1       800 9.12207E-02
 -1       801 1.28770E-01
 -1       802 1.75580E-01
 -1       803 2.33623E-01
 -1       804 3.04988E-01
 -1       805 3.94813E-01
 -1       806 5.03572E-01
 -1       807 6.30372E-01
 -1       808 7.72077E-01
 -1       809 9.28403E-01
 -1       810 1.10143E+00
 -1       811 1.33940E+00
 -1       812 1.67411E+00
 -1       813 2.01370E+00
 -1       814 3.30501E+00
 -1       815 3.55139E+00
 -1       816 2.25049E+00
 -1       817 4.18160E+00
 -1       818 2.87790E-01
 -1       819 8.39246E+00
 -1       820 5.81864E+00
 -1       821 4.99826E+00
 -1       822 1.37939E-01
 -1       823 9.89811E+00
 -1       824 6.18898E+00
 -1       825 2.87174E-01
 -1       826 3.28528E+00
 -1       827 2.33019E-01
 -1       828 2.56781E-01
 -1       829 5.36133E+00
 -1       830 7.47128E+00
 -1       831 1.01685E+01
 -1       832 9.94167E+00
 -1       833 3.05458E-01
 -1       834 2.17956E-01
 -1       835 2.96914E-01
 -1       836 2.87790E-01
 -1       837 7.77284E+00
 -1       838 2.84463E-01
 -1       839 2.54593E-01
 -1       840 4.25122E+00
 -1       841 3.62609E+00
 -1       842 1.16512E+01
 -1       843 3.07127E-01
 -1       844 2.89082E-01
 -1       845 3.23012E-01
 -1       846 1.82985E-01
 -1       847 1.75765E-01
 -1       848 1.60056E-01
 -1       849 1.40346E-01
 -1       850 1.23713E-01
 -1       851 1.07134E-01
 -1       852 9.01759E-02
 -1       853 7.38544E-02
 -1       854 5.86027E-02
 -1       855 4.44261E-02
 -1       856 3.20562E-02
 -1       857 3.39126E-02
 -1       858 3.87771E-02
 -1       859 6.18100E-02
 -1       860 9.32077E-02
 -1       861 1.33333E-01
 -1       862 1.84451E-01
 -1       863 2.49138E-01
 -1       864 3.30322E-01
 -1       865 4.31324E-01
 -1       866 5.55900E-01
 -1       867 7.08147E-01
 -1       868 8.91953E-01
 -1       869 1.10917E+00
 -1       870 1.41396E+00
 -1       871 1.90857E+00
 -1       872 3.14797E+00
 -1       873 6.16174E+00
 -1       874 4.18160E+00
 -1       875 2.10371E-01
 -1       876 7.96119E-02
 -1       877 9.75696E-02
 -1       878 4.77456E-02
 -1       879 3.34119E-02
 -1       880 2.82243E-02
 -1       881 3.12742E-02
 -1       882 5.20279E-02
 -1       883 7.98776E-02
 -1       884 1.16412E-01
 -1       885 1.62384E-01
 -1       886 2.19597E-01
 -1       887 2.89670E-01
 -1       888 3.73728E-01
 -1       889 4.71870E-01
 -1       890 5.82198E-01
 -1       891 7.08430E-01
 -1       892 8.83389E-01
 -1       893 1.13749E+00
 -1       894 1.50767E+00
 -1       895 2.13235E+00
 -1       896 2.48656E+00
 -1       897 4.46843E+00
 -1       898 2.25049E+00
 -1       899 7.77284E+00
 -1       900 7.11673E+00
 -1       901 7.54795E+00
 -1       902 1.53247E-01
 -1       903 6.30116E-02
 -1       904 1.52643E-01
 -1       905 3.23012E-01
 -1       906 7.54795E+00
 -1       907 1.74756E-01
 -1       908 2.13751E-01
 -1       909 1.76400E-01
 -1       910 1.96822E-01
 -1       911 4.09967E+00
 -1       912 1.97121E-01
 -1       913 2.18111E-01
 -1       914 6.23566E+00
 -1       915 2.07516E-01
 -1       916 1.35475E-01
 -1       917 1.16517E-01
 -1       918 2.30698E-01
 -1       919 2.09967E-01
 -1       920 8.03761E-02
 -1       921 1.36557E-01
 -1       922 1.35810E-01
 -1       923 1.26918E-01
 -1       924 1.13520E-01
 -1       925 9.83588E-02
 -1       926 8.58002E-02
 -1       927 7.26739E-02
 -1       928 5.98752E-02
 -1       929 4.78086E-02
 -1       930 3.95139E-02
 -1       931 4.07397E-02
 -1       932 4.49599E-02
 -1       933 5.33192E-02
 -1       934 7.93639E-02
 -1       935 1.12747E-01
 -1       936 1.55440E-01
 -1       937 2.09819E-01
 -1       938 2.78844E-01
 -1       939 3.66400E-01
 -1       940 4.77937E-01
 -1       941 6.21618E-01
 -1       942 8.10185E-01
 -1       943 1.06350E+00
 -1       944 1.41396E+00
 -1       945 1.88708E+00
 -1       946 2.81521E+00
 -1       947 5.12290E+00
 -1       948 3.70028E-02
 -1       949 3.98088E-02
 -1       950 4.70760E-02
 -1       951 7.22487E-02
 -1       952 1.04571E-01
 -1       953 1.45596E-01
 -1       954 1.97354E-01
 -1       955 2.62123E-01
 -1       956 3.42472E-01
 -1       957 4.41332E-01
 -1       958 5.62074E-01
 -1       959 7.08430E-01
 -1       960 8.83389E-01
 -1       961 1.09624E+00
 -1       962 1.52892E+00
 -1       963 3.77751E+00
 -1       964 2.82179E+00
 -1       965 1.88573E-01
 -1       966 4.00535E-02
 -1       967 1.14313E-01
 -1       968 5.69760E+00
 -1       969 4.69230E+00
 -1       970 1.23949E-01
 -1       971 1.50058E-01
 -1       972 3.77751E+00
 -1       973 6.59685E-02
 -1       974 1.55917E-01
 -1       975 4.38872E+00
 -1       976 1.43746E-01
 -1       977 9.51352E-02
 -1       978 1.62754E-01
 -1       979 2.30698E-01
 -1       980 1.56128E-01
 -1       981 1.25082E-01
 -1       982 5.24653E-02
 -1       983 1.41030E-01
 -1       984 1.69999E-01
 -1       985 1.03539E-01
 -1       986 9.80947E-02
 -1       987 8.86537E-02
 -1       988 7.72846E-02
 -1       989 6.53279E-02
 -1       990 5.55494E-02
 -1       991 4.64866E-02
 -1       992 4.41878E-02
 -1       993 4.44131E-02
 -1       994 4.76728E-02
 -1       995 5.44588E-02
 -1       996 6.76638E-02
 -1       997 8.74981E-02
 -1       998 1.18321E-01
 -1       999 1.59319E-01
 -1      1000 2.11599E-01
 -1      1001 2.78319E-01
 -1      1002 3.64149E-01
 -1      1003 4.76614E-01
 -1      1004 6.28790E-01
 -1      1005 8.44695E-01
 -1      1006 1.16569E+00
 -1      1007 1.65519E+00
 -1      1008 2.24704E+00
 -1      1009 3.38727E+00
 -1      1010 4.21332E-02
 -1      1011 8.50521E-02
 -1      1012 6.03360E-02
 -1      1013 1.60839E-01
 -1      1014 2.15048E-01
 -1      1015 2.83972E-01
 -1      1016 3.71755E-01
 -1      1017 4.84400E-01
 -1      1018 6.31134E-01
 -1      1019 8.26956E-01
 -1      1020 1.09624E+00
 -1      1021 1.45066E+00
 -1      1022 2.97900E+00
 -1      1023 1.15175E-01
 -1      1024 7.50335E-02
 -1      1025 1.09403E-01
 -1      1026 1.18296E-01
 -1      1027 8.34111E-02
 -1      1028 9.41683E-02
 -1      1029 4.16194E+00
 -1      1030 4.27425E-02
 -1      1031 9.49218E-02
 -1      1032 1.52601E-01
 -1      1033 4.42622E-02
 -1      1034 4.96227E-02
 -1      1035 1.16841E-01
 -1      1036 1.04198E-01
 -1      1037 7.42861E-02
 -1      1038 3.77751E+00
 -1      1039 1.69999E-01
 -1      1040 6.29829E-02
 -1      1041 9.87610E-02
 -1      1042 5.22506E-02
 -1      1043 1.10653E-01
 -1      1044 9.95735E-02
 -1      1045 1.17446E-01
 -1      1046 8.18079E-02
 -1      1047 6.66792E-02
 -1      1048 8.35150E-02
 -1      1049 5.94777E-02
 -1      1050 5.15255E-02
 -1      1051 4.64866E-02
 -1      1052 4.44131E-02
 -1      1053 4.76728E-02
 -1      1054 5.44588E-02
 -1      1055 6.76638E-02
 -1      1056 8.66909E-02
 -1      1057 1.12171E-01
 -1      1058 1.45323E-01
 -1      1059 1.87653E-01
 -1      1060 2.41153E-01
 -1      1061 3.08697E-01
 -1      1062 3.94817E-01
 -1      1063 5.07234E-01
 -1      1064 6.59886E-01
 -1      1065 8.79884E-01
 -1      1066 1.23926E+00
 -1      1067 1.89408E+00
 -1      1068 2.34598E+00
 -1      1069 6.03360E-02
 -1      1070 2.97900E+00
 -1      1071 2.14503E-01
 -1      1072 1.66980E-01
 -1      1073 3.63337E-01
 -1      1074 4.81990E-01
 -1      1075 6.46519E-01
 -1      1076 8.84127E-01
 -1      1077 1.25294E+00
 -1      1078 1.96031E+00
 -1      1079 8.77023E-02
 -1      1080 8.64216E-02
 -1      1081 4.42622E-02
 -1      1082 4.41063E-02
 -1      1083 5.26850E-02
 -1      1084 5.15255E-02
 -1      1085 2.75057E-01
 -1      1086 9.87610E-02
 -1      1087 7.70051E-02
 -1      1088 8.55386E-02
 -1      1089 1.29176E-01
 -1      1090 4.96227E-02
 -1      1091 9.95969E-02
 -1      1092 8.04158E-02
 -1      1093 7.65135E-02
 -1      1094 6.73578E-02
 -1      1095 7.56119E-02
 -1      1096 8.35150E-02
 -1      1097 8.85239E-02
 -1      1098 6.36434E-02
 -1      1099 8.68229E-02
 -1      1100 5.94777E-02
 -1      1101 8.55386E-02
 -1      1102 8.35150E-02
 -1      1103 8.18079E-02
 -1      1104 5.54603E-02
 -1      1105 1.31436E+01
 -1      1106 8.40364E+00
 -1      1107 2.74372E+00
 -1      1108 1.55795E+00
 -1      1109 1.16901E+00
 -1      1110 9.72594E-01
 -1      1111 8.54108E-01
 -1      1112 7.81445E-01
 -1      1113 7.54948E-01
 -1      1114 7.84554E-01
 -1      1115 8.57018E-01
 -1      1116 9.76754E-01
 -1      1117 1.18026E+00
 -1      1118 1.57179E+00
 -1      1119 2.67062E+00
 -1      1120 6.07352E+00
 -1      1121 1.13405E+01
 -1      1122 1.31436E+01
 -1      1123 8.73079E+00
 -1      1124 3.82937E+00
 -1      1125 2.72602E+00
 -1      1126 1.73710E+00
 -1      1127 1.18859E+00
 -1      1128 8.94758E-01
 -1      1129 6.85399E-01
 -1      1130 5.25517E-01
 -1      1131 4.01900E-01
 -1      1132 3.09068E-01
 -1      1133 2.38421E-01
 -1      1134 1.82385E-01
 -1      1135 1.38980E-01
 -1      1136 1.06353E-01
 -1      1137 8.28522E-02
 -1      1138 6.70377E-02
 -1      1139 5.84279E-02
 -1      1140 5.99818E-02
 -1      1141 7.00428E-02
 -1      1142 8.37801E-02
 -1      1143 1.04207E-01
 -1      1144 1.37344E-01
 -1      1145 1.83989E-01
 -1      1146 2.42752E-01
 -1      1147 3.13947E-01
 -1      1148 3.96383E-01
 -1      1149 4.86239E-01
 -1      1150 5.89941E-01
 -1      1151 7.43047E-01
 -1      1152 9.43178E-01
 -1      1153 1.17737E+00
 -1      1154 1.41184E+00
 -1      1155 1.54625E+00
 -1      1156 1.61591E+00
 -1      1157 1.65606E+00
 -1      1158 1.84788E+00
 -1      1159 2.46864E+00
 -1      1160 3.78928E+00
 -1      1161 4.99831E+00
 -1      1162 5.31565E+00
 -1      1163 5.18997E+00
 -1      1164 4.65190E+00
 -1      1165 3.37797E+00
 -1      1166 1.86301E+00
 -1      1167 8.82637E-01
 -1      1168 6.32721E-01
 -1      1169 7.09745E-01
 -1      1170 6.73037E-01
 -1      1171 3.92807E-01
 -1      1172 1.40394E+01
 -1      1173 8.71707E+00
 -1      1174 2.90395E+00
 -1      1175 2.03954E+00
 -1      1176 1.40542E+00
 -1      1177 1.02538E+00
 -1      1178 8.18569E-01
 -1      1179 6.59568E-01
 -1      1180 5.28145E-01
 -1      1181 4.18778E-01
 -1      1182 3.32138E-01
 -1      1183 2.64469E-01
 -1      1184 2.08618E-01
 -1      1185 1.63392E-01
 -1      1186 1.27974E-01
 -1      1187 1.01449E-01
 -1      1188 8.29341E-02
 -1      1189 7.21863E-02
 -1      1190 7.35240E-02
 -1      1191 8.60842E-02
 -1      1192 1.04703E-01
 -1      1193 1.28948E-01
 -1      1194 1.58048E-01
 -1      1195 1.90586E-01
 -1      1196 2.35819E-01
 -1      1197 2.98813E-01
 -1      1198 3.71121E-01
 -1      1199 4.46038E-01
 -1      1200 5.14452E-01
 -1      1201 5.61778E-01
 -1      1202 6.10857E-01
 -1      1203 7.45093E-01
 -1      1204 9.35976E-01
 -1      1205 1.07277E+00
 -1      1206 1.30090E+00
 -1      1207 1.55521E+00
 -1      1208 1.75427E+00
 -1      1209 2.05733E+00
 -1      1210 2.68834E+00
 -1      1211 3.47891E+00
 -1      1212 3.90122E+00
 -1      1213 3.98656E+00
 -1      1214 3.86870E+00
 -1      1215 3.18605E+00
 -1      1216 2.05784E+00
 -1      1217 1.02785E+00
 -1      1218 4.76506E-01
 -1      1219 3.91727E-01
 -1      1220 3.39123E-01
 -1      1221 1.92702E-01
 -1      1222 1.61373E-01
 -1      1223 2.83503E-01
 -1      1224 3.87873E-01
 -1      1225 4.40203E-01
 -1      1226 4.47805E-01
 -1      1227 3.79287E-01
 -1      1228 4.24038E-01
 -1      1229 6.77921E-01
 -1      1230 8.18534E-01
 -1      1231 7.75469E-01
 -1      1232 5.33640E-01
 -1      1233 3.62931E-01
 -1      1234 4.23693E-01
 -1      1235 4.56402E-01
 -1      1236 4.68788E-01
 -1      1237 4.81175E-01
 -1      1238 3.15230E-01
 -1      1239 2.40723E+01
 -1      1240 3.61818E+01
 -1      1241 4.82655E+01
 -1      1242 3.47446E+01
 -1      1243 1.69240E+01
 -1      1244 1.30830E+01
 -1      1245 1.35417E+01
 -1      1246 1.31864E+01
 -1      1247 1.28311E+01
 -1      1248 1.28748E+01
 -1      1249 2.18931E+01
 -1      1250 3.14484E+01
 -1      1251 2.98432E+01
 -1      1252 2.59226E+01
 -1      1253 2.41880E+01
 -1      1254 2.38922E+01
 -1      1255 3.51956E+01
 -1      1256 4.67948E+01
 -1      1257 3.30029E+01
 -1      1258 1.58058E+01
 -1      1259 1.24007E+01
 -1      1260 1.25133E+01
 -1      1261 1.26621E+01
 -1      1262 1.26984E+01
 -1      1263 1.51480E+01
 -1      1264 3.17423E+01
 -1      1265 4.58869E+01
 -1      1266 3.49667E+01
 -1      1267 2.40464E+01
 -1      1268 1.31436E+01
 -1      1269 4.87079E+00
 -1      1270 9.61076E+00
 -1      1271 2.06092E+00
 -1      1272 2.98087E+00
 -1      1273 4.18799E+00
 -1      1274 1.40034E+00
 -1      1275 1.66616E+00
 -1      1276 1.90330E+00
 -1      1277 1.10176E+00
 -1      1278 1.22489E+00
 -1      1279 1.33309E+00
 -1      1280 9.36245E-01
 -1      1281 1.00953E+00
 -1      1282 1.06542E+00
 -1      1283 8.36530E-01
 -1      1284 8.81731E-01
 -1      1285 9.18667E-01
 -1      1286 7.75060E-01
 -1      1287 8.02522E-01
 -1      1288 8.30145E-01
 -1      1289 7.55913E-01
 -1      1290 7.54948E-01
 -1      1291 7.76025E-01
 -1      1292 8.06353E-01
 -1      1293 7.77712E-01
 -1      1294 7.77712E-01
 -1      1295 8.84050E-01
 -1      1296 8.40226E-01
 -1      1297 8.33384E-01
 -1      1298 1.01685E+00
 -1      1299 9.40942E-01
 -1      1300 9.24149E-01
 -1      1301 1.24021E+00
 -1      1302 1.11261E+00
 -1      1303 1.07680E+00
 -1      1304 1.68167E+00
 -1      1305 1.41773E+00
 -1      1306 1.35008E+00
 -1      1307 2.88315E+00
 -1      1308 2.04826E+00
 -1      1309 1.89420E+00
 -1      1310 6.28635E+00
 -1      1311 3.71834E+00
 -1      1312 3.09598E+00
 -1      1313 1.40394E+01
 -1      1314 1.13405E+01
 -1      1315 8.98528E+00
 -1      1316 1.40394E+01
 -1      1317 8.73079E+00
 -1      1318 4.31796E+00
 -1      1319 3.82937E+00
 -1      1320 3.34077E+00
 -1      1321 3.82937E+00
 -1      1322 2.72602E+00
 -1      1323 2.11127E+00
 -1      1324 2.72602E+00
 -1      1325 1.77937E+00
 -1      1326 1.40520E+00
 -1      1327 1.77937E+00
 -1      1328 1.19443E+00
 -1      1329 1.02009E+00
 -1      1330 1.23670E+00
 -1      1331 8.94758E-01
 -1      1332 7.75269E-01
 -1      1333 9.00599E-01
 -1      1334 6.85399E-01
 -1      1335 5.95530E-01
 -1      1336 6.85399E-01
 -1      1337 5.31942E-01
 -1      1338 4.61929E-01
 -1      1339 5.31942E-01
 -1      1340 4.12033E-01
 -1      1341 3.58430E-01
 -1      1342 4.18458E-01
 -1      1343 3.19574E-01
 -1      1344 2.80345E-01
 -1      1345 3.29707E-01
 -1      1346 2.52180E-01
 -1      1347 2.20763E-01
 -1      1348 2.62687E-01
 -1      1349 1.96954E-01
 -1      1350 1.72336E-01
 -1      1351 2.10714E-01
 -1      1352 1.52803E-01
 -1      1353 1.34015E-01
 -1      1354 1.67372E-01
 -1      1355 1.18442E-01
 -1      1356 1.04604E-01
 -1      1357 1.32265E-01
 -1      1358 9.25629E-02
 -1      1359 8.29001E-02
 -1      1360 1.04652E-01
 -1      1361 7.39125E-02
 -1      1362 6.77608E-02
 -1      1363 8.36232E-02
 -1      1364 6.13325E-02
 -1      1365 5.88744E-02
 -1      1366 6.82073E-02
 -1      1367 5.59698E-02
 -1      1368 5.99818E-02
 -1      1369 5.88744E-02
 -1      1370 6.39938E-02
 -1      1371 7.00428E-02
 -1      1372 5.99818E-02
 -1      1373 7.60917E-02
 -1      1374 8.37801E-02
 -1      1375 7.00428E-02
 -1      1376 9.41577E-02
 -1      1377 1.06897E-01
 -1      1378 8.64693E-02
 -1      1379 1.22266E-01
 -1      1380 1.42663E-01
 -1      1381 1.12216E-01
 -1      1382 1.62418E-01
 -1      1383 1.88665E-01
 -1      1384 1.47339E-01
 -1      1385 2.13103E-01
 -1      1386 2.45618E-01
 -1      1387 1.91531E-01
 -1      1388 2.75268E-01
 -1      1389 3.13947E-01
 -1      1390 2.45618E-01
 -1      1391 3.59030E-01
 -1      1392 4.02787E-01
 -1      1393 3.20351E-01
 -1      1394 4.64132E-01
 -1      1395 5.10231E-01
 -1      1396 4.26779E-01
 -1      1397 5.81045E-01
 -1      1398 6.38648E-01
 -1      1399 5.58938E-01
 -1      1400 7.14377E-01
 -1      1401 8.09880E-01
 -1      1402 7.05481E-01
 -1      1403 8.81287E-01
 -1      1404 9.85916E-01
 -1      1405 8.52618E-01
 -1      1406 1.06436E+00
 -1      1407 1.19393E+00
 -1      1408 1.00247E+00
 -1      1409 1.30694E+00
 -1      1410 1.41184E+00
 -1      1411 1.19393E+00
 -1      1412 1.51675E+00
 -1      1413 1.54625E+00
 -1      1414 1.41184E+00
 -1      1415 1.57576E+00
 -1      1416 1.61591E+00
 -1      1417 1.54625E+00
 -1      1418 1.65606E+00
 -1      1419 1.65606E+00
 -1      1420 1.61591E+00
 -1      1421 1.63844E+00
 -1      1422 1.83027E+00
 -1      1423 1.63844E+00
 -1      1424 2.03971E+00
 -1      1425 2.46864E+00
 -1      1426 1.83027E+00
 -1      1427 2.94833E+00
 -1      1428 3.84003E+00
 -1      1429 2.51940E+00
 -1      1430 4.68098E+00
 -1      1431 4.99831E+00
 -1      1432 3.84003E+00
 -1      1433 5.31565E+00
 -1      1434 5.31565E+00
 -1      1435 4.99831E+00
 -1      1436 5.18997E+00
 -1      1437 5.06429E+00
 -1      1438 5.18997E+00
 -1      1439 4.65190E+00
 -1      1440 4.23951E+00
 -1      1441 4.65190E+00
 -1      1442 3.53747E+00
 -1      1443 2.67594E+00
 -1      1444 3.53747E+00
 -1      1445 2.12507E+00
 -1      1446 1.47164E+00
 -1      1447 2.28457E+00
 -1      1448 1.18759E+00
 -1      1449 8.60655E-01
 -1      1450 1.44966E+00
 -1      1451 7.06779E-01
 -1      1452 7.83803E-01
 -1      1453 1.01174E+00
 -1      1454 7.09745E-01
 -1      1455 7.09745E-01
 -1      1456 7.83803E-01
 -1      1457 6.73037E-01
 -1      1458 6.36330E-01
 -1      1459 6.73037E-01
 -1      1460 5.58752E-01
 -1      1461 5.58752E-01
 -1      1462 3.39476E+00
 -1      1463 8.71707E+00
 -1      1464 8.71707E+00
 -1      1465 2.41314E+00
 -1      1466 2.90395E+00
 -1      1467 2.90395E+00
 -1      1468 1.66594E+00
 -1      1469 2.03954E+00
 -1      1470 2.03954E+00
 -1      1471 1.14489E+00
 -1      1472 1.40542E+00
 -1      1473 1.40542E+00
 -1      1474 9.05872E-01
 -1      1475 1.02538E+00
 -1      1476 1.02538E+00
 -1      1477 7.31267E-01
 -1      1478 8.18569E-01
 -1      1479 8.18569E-01
 -1      1480 5.87869E-01
 -1      1481 6.59568E-01
 -1      1482 6.59568E-01
 -1      1483 4.68421E-01
 -1      1484 5.28145E-01
 -1      1485 5.28145E-01
 -1      1486 3.69134E-01
 -1      1487 4.18778E-01
 -1      1488 4.18778E-01
 -1      1489 2.95141E-01
 -1      1490 3.32138E-01
 -1      1491 3.32138E-01
 -1      1492 2.33797E-01
 -1      1493 2.64469E-01
 -1      1494 2.64469E-01
 -1      1495 1.84818E-01
 -1      1496 2.09997E-01
 -1      1497 2.09997E-01
 -1      1498 1.45610E-01
 -1      1499 1.65658E-01
 -1      1500 1.67036E-01
 -1      1501 1.15082E-01
 -1      1502 1.30452E-01
 -1      1503 1.32718E-01
 -1      1504 9.24657E-02
 -1      1505 1.03620E-01
 -1      1506 1.06098E-01
 -1      1507 7.70021E-02
 -1      1508 8.43630E-02
 -1      1509 8.65337E-02
 -1      1510 6.85409E-02
 -1      1511 7.19278E-02
 -1      1512 7.33567E-02
 -1      1513 7.51552E-02
 -1      1514 7.04305E-02
 -1      1515 7.01721E-02
 -1      1516 8.81355E-02
 -1      1517 8.02999E-02
 -1      1518 7.72065E-02
 -1      1519 1.06328E-01
 -1      1520 9.55453E-02
 -1      1521 8.97610E-02
 -1      1522 1.29090E-01
 -1      1523 1.15629E-01
 -1      1524 1.06471E-01
 -1      1525 1.58048E-01
 -1      1526 1.42410E-01
 -1      1527 1.29090E-01
 -1      1528 1.95691E-01
 -1      1529 1.78791E-01
 -1      1530 1.63153E-01
 -1      1531 2.49036E-01
 -1      1532 2.20702E-01
 -1      1533 2.08908E-01
 -1      1534 3.12097E-01
 -1      1535 2.77436E-01
 -1      1536 2.62319E-01
 -1      1537 3.79966E-01
 -1      1538 3.42319E-01
 -1      1539 3.20942E-01
 -1      1540 4.46749E-01
 -1      1541 4.09479E-01
 -1      1542 3.80677E-01
 -1      1543 5.14452E-01
 -1      1544 4.83308E-01
 -1      1545 4.46749E-01
 -1      1546 5.61778E-01
 -1      1547 5.45596E-01
 -1      1548 5.14452E-01
 -1      1549 6.10857E-01
 -1      1550 5.77959E-01
 -1      1551 5.61778E-01
 -1      1552 7.82789E-01
 -1      1553 6.81451E-01
 -1      1554 6.48553E-01
 -1      1555 9.35976E-01
 -1      1556 8.46431E-01
 -1      1557 7.82789E-01
 -1      1558 1.07277E+00
 -1      1559 1.02552E+00
 -1      1560 9.35976E-01
 -1      1561 1.30090E+00
 -1      1562 1.12002E+00
 -1      1563 1.07277E+00
 -1      1564 1.55521E+00
 -1      1565 1.48178E+00
 -1      1566 1.30090E+00
 -1      1567 1.75427E+00
 -1      1568 1.62863E+00
 -1      1569 1.55521E+00
 -1      1570 2.05733E+00
 -1      1571 1.87991E+00
 -1      1572 1.75427E+00
 -1      1573 2.69409E+00
 -1      1574 2.24049E+00
 -1      1575 2.06307E+00
 -1      1576 3.47891E+00
 -1      1577 3.14195E+00
 -1      1578 2.69409E+00
 -1      1579 3.90122E+00
 -1      1580 3.81587E+00
 -1      1581 3.47891E+00
 -1      1582 3.98656E+00
 -1      1583 3.98656E+00
 -1      1584 3.90122E+00
 -1      1585 3.75084E+00
 -1      1586 3.86870E+00
 -1      1587 3.86870E+00
 -1      1588 2.62126E+00
 -1      1589 3.18605E+00
 -1      1590 3.18605E+00
 -1      1591 1.55009E+00
 -1      1592 2.11351E+00
 -1      1593 2.11351E+00
 -1      1594 6.79266E-01
 -1      1595 1.14583E+00
 -1      1596 1.20151E+00
 -1      1597 4.39904E-01
 -1      1598 5.24682E-01
 -1      1599 6.42664E-01
 -1      1600 3.91727E-01
 -1      1601 3.91727E-01
 -1      1602 4.39904E-01
 -1      1603 3.03562E-01
 -1      1604 3.56167E-01
 -1      1605 3.56167E-01
 -1      1606 2.55191E-01
 -1      1607 4.13263E-01
 -1      1608 3.53622E-01
 -1      1609 5.65904E-01
 -1      1610 5.21175E-01
 -1      1611 5.91294E-01
 -1      1612 6.34327E-01
 -1      1613 6.26725E-01
 -1      1614 7.60028E-01
 -1      1615 6.34327E-01
 -1      1616 6.34327E-01
 -1      1617 8.20849E-01
 -1      1618 5.64065E-01
 -1      1619 6.32583E-01
 -1      1620 8.19105E-01
 -1      1621 6.88560E-01
 -1      1622 5.75291E-01
 -1      1623 8.28588E-01
 -1      1624 1.17678E+00
 -1      1625 1.03617E+00
 -1      1626 1.18742E+00
 -1      1627 1.23884E+00
 -1      1628 1.23884E+00
 -1      1629 1.59709E+00
 -1      1630 1.19577E+00
 -1      1631 1.23884E+00
 -1      1632 1.65914E+00
 -1      1633 7.96381E-01
 -1      1634 9.95144E-01
 -1      1635 1.45851E+00
 -1      1636 5.36706E-01
 -1      1637 5.08653E-01
 -1      1638 9.70157E-01
 -1      1639 6.49173E-01
 -1      1640 6.16464E-01
 -1      1641 7.62187E-01
 -1      1642 6.49173E-01
 -1      1643 6.49173E-01
 -1      1644 8.41945E-01
 -1      1645 6.12790E-01
 -1      1646 6.00403E-01
 -1      1647 7.93174E-01
 -1      1648 5.56252E-01
 -1      1649 5.56252E-01
 -1      1650 6.87867E-01
 -1      1651 6.33830E-01
 -1      1652 2.74467E+01
 -1      1653 2.74209E+01
 -1      1654 3.88214E+01
 -1      1655 2.67377E+01
 -1      1656 4.82655E+01
 -1      1657 4.82655E+01
 -1      1658 2.24774E+01
 -1      1659 3.59983E+01
 -1      1660 1.18256E+01
 -1      1661 1.61253E+01
 -1      1662 1.30830E+01
 -1      1663 1.26243E+01
 -1      1664 1.35417E+01
 -1      1665 1.35417E+01
 -1      1666 1.24554E+01
 -1      1667 1.28108E+01
 -1      1668 1.28311E+01
 -1      1669 1.28311E+01
 -1      1670 1.24391E+01
 -1      1671 1.23953E+01
 -1      1672 2.18931E+01
 -1      1673 1.29185E+01
 -1      1674 3.20291E+01
 -1      1675 3.14484E+01
 -1      1676 2.98432E+01
 -1      1677 3.20291E+01
 -1      1678 2.41424E+01
 -1      1679 2.58770E+01
 -1      1680 2.57541E+01
 -1      1681 2.57541E+01
 -1      1682 2.54583E+01
 -1      1683 2.57541E+01
 -1      1684 3.74177E+01
 -1      1685 2.58185E+01
 -1      1686 4.67948E+01
 -1      1687 4.67948E+01
 -1      1688 2.05334E+01
 -1      1689 3.43254E+01
 -1      1690 1.19712E+01
 -1      1691 1.53763E+01
 -1      1692 1.24007E+01
 -1      1693 1.24007E+01
 -1      1694 1.23871E+01
 -1      1695 1.22745E+01
 -1      1696 1.26621E+01
 -1      1697 1.26259E+01
 -1      1698 1.26984E+01
 -1      1699 1.26984E+01
 -1      1700 1.47939E+01
 -1      1701 1.23442E+01
 -1      1702 3.21679E+01
 -1      1703 1.80232E+01
 -1      1704 4.58869E+01
 -1      1705 4.58869E+01
 -1      1706 2.60938E+01
 -1      1707 3.70140E+01
 -1      1708 2.74209E+01
 -1      1709 2.74209E+01
 -1      1710 1.73790E+01
 -1      1711 3.59983E+01
 -1      1712 2.72234E-01
 -1      1713 4.01994E-01
 -1      1714 3.00863E+01
 -1      1715 3.88214E+01
 -1      1716 3.07953E+01
 -1      1717 1.18256E+01
 -1      1718 1.30830E+01
 -1      1719 1.28108E+01
 -1      1720 1.24554E+01
 -1      1721 1.23953E+01
 -1      1722 1.24391E+01
 -1      1723 2.24738E+01
 -1      1724 3.20291E+01
 -1      1725 2.80630E+01
 -1      1726 2.57085E+01
 -1      1727 2.73201E+01
 -1      1728 2.76804E+01
 -1      1729 3.74177E+01
 -1      1730 3.43254E+01
 -1      1731 1.66988E+01
 -1      1732 1.19712E+01
 -1      1733 1.22745E+01
 -1      1734 1.23871E+01
 -1      1735 1.26621E+01
 -1      1736 1.23442E+01
 -1      1737 1.52194E+01
 -1      1738 3.21679E+01
 -1      1739 3.70140E+01
 -1      1740 2.94682E+01
 -1      1741 9.61076E+00
 -1      1742 1.27748E+00
 -1      1743 1.67224E+00
 -1      1744 2.38906E+00
 -1      1745 4.27898E+00
 -1      1746 1.76324E+00
 -1      1747 8.82254E-01
 -1      1748 9.74488E-01
 -1      1749 7.79104E-01
 -1      1750 8.33618E-01
 -1      1751 7.42690E-01
 -1      1752 7.13949E-01
 -1      1753 7.47958E-01
 -1      1754 6.62908E-01
 -1      1755 6.71797E-01
 -1      1756 6.91909E-01
 -1      1757 6.09721E-01
 -1      1758 6.95206E-01
 -1      1759 6.73406E-01
 -1      1760 5.89290E-01
 -1      1761 7.50922E-01
 -1      1762 7.17049E-01
 -1      1763 6.12743E-01
 -1      1764 8.41132E-01
 -1      1765 7.84240E-01
 -1      1766 6.67904E-01
 -1      1767 9.84565E-01
 -1      1768 8.88806E-01
 -1      1769 7.48897E-01
 -1      1770 1.22980E+00
 -1      1771 1.05228E+00
 -1      1772 8.64284E-01
 -1      1773 1.71041E+00
 -1      1774 1.34382E+00
 -1      1775 1.04601E+00
 -1      1776 2.63015E+00
 -1      1777 1.79495E+00
 -1      1778 1.24457E+00
 -1      1779 8.12009E+00
 -1      1780 3.06598E+00
 -1      1781 1.76496E+00
 -1      1782 2.79778E+00
 -1      1783 5.19793E+00
 -1      1784 2.16373E+00
 -1      1785 2.65454E+00
 -1      1786 2.05756E+00
 -1      1787 3.39901E+00
 -1      1788 2.53499E+00
 -1      1789 1.92024E+00
 -1      1790 1.68950E+00
 -1      1791 1.35760E+00
 -1      1792 1.49847E+00
 -1      1793 1.17728E+00
 -1      1794 9.66517E-01
 -1      1795 1.08742E+00
 -1      1796 8.41170E-01
 -1      1797 7.15840E-01
 -1      1798 7.81758E-01
 -1      1799 6.56999E-01
 -1      1800 5.67130E-01
 -1      1801 5.97570E-01
 -1      1802 5.18632E-01
 -1      1803 4.55044E-01
 -1      1804 4.90232E-01
 -1      1805 4.12372E-01
 -1      1806 3.62476E-01
 -1      1807 3.99062E-01
 -1      1808 3.29891E-01
 -1      1809 2.91035E-01
 -1      1810 3.23805E-01
 -1      1811 2.63587E-01
 -1      1812 2.35422E-01
 -1      1813 2.63771E-01
 -1      1814 2.11922E-01
 -1      1815 1.88114E-01
 -1      1816 2.12822E-01
 -1      1817 1.70349E-01
 -1      1818 1.50815E-01
 -1      1819 1.71557E-01
 -1      1820 1.36357E-01
 -1      1821 1.20784E-01
 -1      1822 1.39334E-01
 -1      1823 1.08691E-01
 -1      1824 9.66496E-02
 -1      1825 1.12782E-01
 -1      1826 8.67689E-02
 -1      1827 7.77813E-02
 -1      1828 9.08077E-02
 -1      1829 6.98231E-02
 -1      1830 6.33948E-02
 -1      1831 7.29688E-02
 -1      1832 5.75557E-02
 -1      1833 5.46511E-02
 -1      1834 5.91715E-02
 -1      1835 5.40958E-02
 -1      1836 5.81078E-02
 -1      1837 5.27770E-02
 -1      1838 6.09650E-02
 -1      1839 6.70140E-02
 -1      1840 5.50790E-02
 -1      1841 7.50274E-02
 -1      1842 8.54049E-02
 -1      1843 6.59496E-02
 -1      1844 9.68468E-02
 -1      1845 1.12216E-01
 -1      1846 8.54049E-02
 -1      1847 1.27585E-01
 -1      1848 1.47339E-01
 -1      1849 1.12216E-01
 -1      1850 1.75017E-01
 -1      1851 1.99454E-01
 -1      1852 1.55262E-01
 -1      1853 2.35117E-01
 -1      1854 2.64766E-01
 -1      1855 2.18602E-01
 -1      1856 3.09306E-01
 -1      1857 3.54389E-01
 -1      1858 2.98804E-01
 -1      1859 4.08143E-01
 -1      1860 4.69488E-01
 -1      1861 3.97098E-01
 -1      1862 5.31474E-01
 -1      1863 6.02288E-01
 -1      1864 5.12838E-01
 -1      1865 6.69259E-01
 -1      1866 7.44988E-01
 -1      1867 6.41795E-01
 -1      1868 8.10224E-01
 -1      1869 8.81631E-01
 -1      1870 7.74002E-01
 -1      1871 9.34114E-01
 -1      1872 1.01256E+00
 -1      1873 8.91720E-01
 -1      1874 1.07243E+00
 -1      1875 1.18544E+00
 -1      1876 1.00408E+00
 -1      1877 1.24320E+00
 -1      1878 1.34811E+00
 -1      1879 1.12170E+00
 -1      1880 1.34668E+00
 -1      1881 1.37619E+00
 -1      1882 1.17804E+00
 -1      1883 1.27040E+00
 -1      1884 1.31055E+00
 -1      1885 1.07083E+00
 -1      1886 1.32735E+00
 -1      1887 1.30974E+00
 -1      1888 9.81841E-01
 -1      1889 1.42675E+00
 -1      1890 1.63619E+00
 -1      1891 1.11566E+00
 -1      1892 2.05222E+00
 -1      1893 2.53190E+00
 -1      1894 1.64870E+00
 -1      1895 2.86434E+00
 -1      1896 3.70529E+00
 -1      1897 2.39716E+00
 -1      1898 3.96350E+00
 -1      1899 4.28084E+00
 -1      1900 2.98781E+00
 -1      1901 4.19402E+00
 -1      1902 4.06834E+00
 -1      1903 3.15921E+00
 -1      1904 4.05331E+00
 -1      1905 3.64092E+00
 -1      1906 3.05736E+00
 -1      1907 3.38494E+00
 -1      1908 2.68290E+00
 -1      1909 2.78635E+00
 -1      1910 2.50980E+00
 -1      1911 1.95893E+00
 -1      1912 2.35727E+00
 -1      1913 1.74614E+00
 -1      1914 1.46210E+00
 -1      1915 1.97138E+00
 -1      1916 1.22848E+00
 -1      1917 1.07460E+00
 -1      1918 1.52496E+00
 -1      1919 9.04513E-01
 -1      1920 8.30456E-01
 -1      1921 1.12125E+00
 -1      1922 8.23074E-01
 -1      1923 7.86367E-01
 -1      1924 7.83867E-01
 -1      1925 9.43785E-01
 -1      1926 1.39820E+00
 -1      1927 1.77180E+00
 -1      1928 1.52239E+00
 -1      1929 1.01810E+00
 -1      1930 1.27862E+00
 -1      1931 1.01089E+00
 -1      1932 8.04873E-01
 -1      1933 9.24384E-01
 -1      1934 7.97591E-01
 -1      1935 6.38286E-01
 -1      1936 7.25589E-01
 -1      1937 6.24590E-01
 -1      1938 5.12918E-01
 -1      1939 5.84617E-01
 -1      1940 4.91636E-01
 -1      1941 4.19993E-01
 -1      1942 4.79717E-01
 -1      1943 4.04766E-01
 -1      1944 3.38556E-01
 -1      1945 3.88200E-01
 -1      1946 3.39772E-01
 -1      1947 2.73912E-01
 -1      1948 3.10909E-01
 -1      1949 2.80331E-01
 -1      1950 2.20724E-01
 -1      1951 2.51396E-01
 -1      1952 2.30167E-01
 -1      1953 1.77258E-01
 -1      1954 2.01059E-01
 -1      1955 1.87986E-01
 -1      1956 1.41526E-01
 -1      1957 1.60686E-01
 -1      1958 1.51748E-01
 -1      1959 1.12974E-01
 -1      1960 1.28132E-01
 -1      1961 1.21782E-01
 -1      1962 9.14509E-02
 -1      1963 1.02913E-01
 -1      1964 9.83268E-02
 -1      1965 7.60068E-02
 -1      1966 8.41095E-02
 -1      1967 8.09239E-02
 -1      1968 6.61090E-02
 -1      1969 7.11832E-02
 -1      1970 6.87590E-02
 -1      1971 6.62881E-02
 -1      1972 6.43984E-02
 -1      1973 6.22250E-02
 -1      1974 7.33874E-02
 -1      1975 6.82426E-02
 -1      1976 6.24690E-02
 -1      1977 8.49911E-02
 -1      1978 7.75813E-02
 -1      1979 6.86174E-02
 -1      1980 1.04407E-01
 -1      1981 9.51066E-02
 -1      1982 8.29268E-02
 -1      1983 1.31133E-01
 -1      1984 1.17814E-01
 -1      1985 1.06449E-01
 -1      1986 1.69009E-01
 -1      1987 1.48266E-01
 -1      1988 1.36989E-01
 -1      1989 2.25486E-01
 -1      1990 2.00475E-01
 -1      1991 1.85588E-01
 -1      1992 2.93065E-01
 -1      1993 2.64665E-01
 -1      1994 2.56232E-01
 -1      1995 3.70157E-01
 -1      1996 3.39935E-01
 -1      1997 3.42280E-01
 -1      1998 4.52871E-01
 -1      1999 4.23358E-01
 -1      2000 4.42351E-01
 -1      2001 5.45455E-01
 -1      2002 5.08895E-01
 -1      2003 5.51577E-01
 -1      2004 6.28818E-01
 -1      2005 5.97674E-01
 -1      2006 6.59820E-01
 -1      2007 6.90960E-01
 -1      2008 6.74779E-01
 -1      2009 7.58001E-01
 -1      2010 7.96679E-01
 -1      2011 7.26085E-01
 -1      2012 8.39086E-01
 -1      2013 8.60321E-01
 -1      2014 7.96679E-01
 -1      2015 8.74211E-01
 -1      2016 9.43690E-01
 -1      2017 8.54145E-01
 -1      2018 8.68036E-01
 -1      2019 9.16759E-01
 -1      2020 8.69510E-01
 -1      2021 7.87679E-01
 -1      2022 1.10413E+00
 -1      2023 9.23252E-01
 -1      2024 7.19992E-01
 -1      2025 1.30846E+00
 -1      2026 1.23503E+00
 -1      2027 8.57382E-01
 -1      2028 1.81501E+00
 -1      2029 1.68937E+00
 -1      2030 1.36919E+00
 -1      2031 2.26823E+00
 -1      2032 2.08507E+00
 -1      2033 2.02017E+00
 -1      2034 2.75635E+00
 -1      2035 2.30850E+00
 -1      2036 2.33049E+00
 -1      2037 3.09332E+00
 -1      2038 2.75635E+00
 -1      2039 2.37076E+00
 -1      2040 3.14027E+00
 -1      2041 3.05493E+00
 -1      2042 2.33237E+00
 -1      2043 3.03958E+00
 -1      2044 3.15744E+00
 -1      2045 2.31115E+00
 -1      2046 2.30622E+00
 -1      2047 2.87101E+00
 -1      2048 2.15974E+00
 -1      2049 1.60061E+00
 -1      2050 2.10836E+00
 -1      2051 1.79332E+00
 -1      2052 1.02377E+00
 -1      2053 1.42803E+00
 -1      2054 1.42288E+00
 -1      2055 7.13700E-01
 -1      2056 8.68284E-01
 -1      2057 1.09481E+00
 -1      2058 5.28976E-01
 -1      2059 5.77152E-01
 -1      2060 8.02772E-01
 -1      2061 3.32409E-01
 -1      2062 3.67970E-01
 -1      2063 5.05219E-01
 -1      2064 4.13798E-01
 -1      2065 9.81911E-01
 -1      2066 9.81911E-01
 -1      2067 9.39306E-01
 -1      2068 8.78484E-01
 -1      2069 1.10037E+00
 -1      2070 6.82715E-01
 -1      2071 5.74804E-01
 -1      2072 5.05219E-01
 -1      2073 8.61994E-01
 -1      2074 9.92070E-01
 -1      2075 9.93814E-01
 -1      2076 1.15488E+00
 -1      2077 1.11009E+00
 -1      2078 1.09886E+00
 -1      2079 1.27357E+00
 -1      2080 1.77411E+00
 -1      2081 1.42650E+00
 -1      2082 1.69678E+00
 -1      2083 2.17765E+00
 -1      2084 2.11559E+00
 -1      2085 2.35467E+00
 -1      2086 2.17765E+00
 -1      2087 2.17765E+00
 -1      2088 2.69615E+00
 -1      2089 1.92611E+00
 -1      2090 2.12673E+00
 -1      2091 2.64524E+00
 -1      2092 1.08144E+00
 -1      2093 1.36916E+00
 -1      2094 2.03738E+00
 -1      2095 1.02085E+00
 -1      2096 9.41088E-01
 -1      2097 1.34010E+00
 -1      2098 1.01667E+00
 -1      2099 1.01667E+00
 -1      2100 1.19557E+00
 -1      2101 8.65291E-01
 -1      2102 9.14061E-01
 -1      2103 1.08879E+00
 -1      2104 3.88214E+01
 -1      2105 2.93773E+01
 -1      2106 3.07953E+01
 -1      2107 3.07953E+01
 -1      2108 2.97650E+01
 -1      2109 3.04740E+01
 -1      2110 2.01681E+01
 -1      2111 3.24353E+01
 -1      2112 2.29912E+01
 -1      2113 1.01925E+01
 -1      2114 1.65447E+01
 -1      2115 1.03876E+00
 -1      2116 1.21421E+00
 -1      2117 9.83146E-01
 -1      2118 8.55599E-01
 -1      2119 1.11183E+01
 -1      2120 1.06596E+01
 -1      2121 1.13724E+01
 -1      2122 1.21033E+01
 -1      2123 1.17811E+01
 -1      2124 1.14054E+01
 -1      2125 1.06980E+01
 -1      2126 1.04618E+01
 -1      2127 1.08976E+01
 -1      2128 1.00629E+01
 -1      2129 9.58347E+00
 -1      2130 2.19702E+01
 -1      2131 1.24150E+01
 -1      2132 2.65453E+01
 -1      2133 2.65453E+01
 -1      2134 2.43224E+01
 -1      2135 2.82885E+01
 -1      2136 3.01420E+01
 -1      2137 2.85304E+01
 -1      2138 3.01420E+01
 -1      2139 3.01420E+01
 -1      2140 2.58163E+01
 -1      2141 2.54561E+01
 -1      2142 3.74177E+01
 -1      2143 2.80407E+01
 -1      2144 1.88914E+01
 -1      2145 3.13609E+01
 -1      2146 2.19838E+01
 -1      2147 1.08021E+01
 -1      2148 1.59593E+01
 -1      2149 9.97790E+00
 -1      2150 9.54838E+00
 -1      2151 1.12357E+01
 -1      2152 1.13618E+01
 -1      2153 1.20095E+01
 -1      2154 1.17707E+01
 -1      2155 1.15394E+01
 -1      2156 1.15032E+01
 -1      2157 1.03190E+01
 -1      2158 1.06731E+01
 -1      2159 1.30871E+01
 -1      2160 9.85776E+00
 -1      2161 3.06388E+01
 -1      2162 1.69197E+01
 -1      2163 2.81412E+01
 -1      2164 3.70140E+01
 -1      2165 2.95058E+01
 -1      2166 2.81787E+01
 -1      2167 9.89153E+00
 -1      2168 9.09283E+00
 -1      2169 1.29816E+01
 -1      2170 2.91041E+00
 -1      2171 7.92688E+00
 -1      2172 2.10463E+00
 -1      2173 2.97650E+01
 -1      2174 3.04740E+01
 -1      2175 8.08754E-01
 -1      2176 2.95058E+01
 -1      2177 8.25849E+00
 -1      2178 2.81787E+01
 -1      2179 2.17659E+01
 -1      2180 1.15581E+01
 -1      2181 8.18670E+00
 -1      2182 9.51419E+00
 -1      2183 1.08868E+01
 -1      2184 1.08580E+01
 -1      2185 8.93902E+00
 -1      2186 1.29948E+01
 -1      2187 2.58163E+01
 -1      2188 2.82780E+01
 -1      2189 3.29639E+01
 -1      2190 2.87559E+01
 -1      2191 2.28047E+01
 -1      2192 1.64865E+01
 -1      2193 9.55936E+00
 -1      2194 9.84757E+00
 -1      2195 1.14552E+01
 -1      2196 9.03184E+00
 -1      2197 1.00168E+01
 -1      2198 8.08569E+00
 -1      2199 8.80886E+00
 -1      2200 1.08921E+00
 -1      2201 1.48114E+00
 -1      2202 5.58954E-01
 -1      2203 5.90100E-01
 -1      2204 6.02000E-01
 -1      2205 6.50636E-01
 -1      2206 4.98046E-01
 -1      2207 5.11281E-01
 -1      2208 5.09672E-01
 -1      2209 5.46100E-01
 -1      2210 5.24256E-01
 -1      2211 4.44638E-01
 -1      2212 5.94243E-01
 -1      2213 5.60925E-01
 -1      2214 4.72438E-01
 -1      2215 6.53815E-01
 -1      2216 6.06141E-01
 -1      2217 4.99161E-01
 -1      2218 7.21528E-01
 -1      2219 6.53815E-01
 -1      2220 5.11059E-01
 -1      2221 8.84252E-01
 -1      2222 7.70237E-01
 -1      2223 5.59768E-01
 -1      2224 8.91307E-01
 -1      2225 1.01089E+00
 -1      2226 9.69629E-01
 -1      2227 1.26633E+00
 -1      2228 1.03559E+00
 -1      2229 6.84816E+00
 -1      2230 6.08007E+00
 -1      2231 9.86376E-01
 -1      2232 8.06063E-01
 -1      2233 7.54240E-01
 -1      2234 7.48186E-01
 -1      2235 6.22840E-01
 -1      2236 6.47145E-01
 -1      2237 5.66658E-01
 -1      2238 5.07817E-01
 -1      2239 5.33086E-01
 -1      2240 4.58533E-01
 -1      2241 4.10036E-01
 -1      2242 4.27621E-01
 -1      2243 3.82603E-01
 -1      2244 3.39931E-01
 -1      2245 3.50905E-01
 -1      2246 3.15030E-01
 -1      2247 2.82444E-01
 -1      2248 2.98571E-01
 -1      2249 2.58933E-01
 -1      2250 2.31485E-01
 -1      2251 2.50158E-01
 -1      2252 2.12229E-01
 -1      2253 1.88729E-01
 -1      2254 2.07391E-01
 -1      2255 1.72044E-01
 -1      2256 1.54279E-01
 -1      2257 1.71450E-01
 -1      2258 1.39761E-01
 -1      2259 1.25303E-01
 -1      2260 1.40247E-01
 -1      2261 1.13053E-01
 -1      2262 1.00959E-01
 -1      2263 1.13480E-01
 -1      2264 9.08445E-02
 -1      2265 8.09638E-02
 -1      2266 9.11153E-02
 -1      2267 7.29688E-02
 -1      2268 6.50106E-02
 -1      2269 7.30056E-02
 -1      2270 5.86824E-02
 -1      2271 5.28433E-02
 -1      2272 5.86824E-02
 -1      2273 4.89512E-02
 -1      2274 4.83959E-02
 -1      2275 4.84621E-02
 -1      2276 4.90554E-02
 -1      2277 5.19126E-02
 -1      2278 4.52295E-02
 -1      2279 5.71572E-02
 -1      2280 6.51706E-02
 -1      2281 5.11335E-02
 -1      2282 7.49643E-02
 -1      2283 8.64062E-02
 -1      2284 6.61718E-02
 -1      2285 1.05196E-01
 -1      2286 1.20565E-01
 -1      2287 9.47553E-02
 -1      2288 1.44686E-01
 -1      2289 1.72363E-01
 -1      2290 1.37666E-01
 -1      2291 2.02985E-01
 -1      2292 2.38648E-01
 -1      2293 1.92409E-01
 -1      2294 2.76849E-01
 -1      2295 3.21388E-01
 -1      2296 2.61232E-01
 -1      2297 3.67942E-01
 -1      2298 4.21696E-01
 -1      2299 3.45986E-01
 -1      2300 4.76723E-01
 -1      2301 5.38709E-01
 -1      2302 4.47567E-01
 -1      2303 6.01139E-01
 -1      2304 6.68110E-01
 -1      2305 5.65024E-01
 -1      2306 7.34924E-01
 -1      2307 8.00160E-01
 -1      2308 6.94268E-01
 -1      2309 8.65437E-01
 -1      2310 9.17920E-01
 -1      2311 8.26360E-01
 -1      2312 9.73037E-01
 -1      2313 1.03291E+00
 -1      2314 9.46754E-01
 -1      2315 1.08827E+00
 -1      2316 1.14603E+00
 -1      2317 1.05723E+00
 -1      2318 1.22762E+00
 -1      2319 1.22620E+00
 -1      2320 1.19419E+00
 -1      2321 1.29262E+00
 -1      2322 1.18683E+00
 -1      2323 1.34220E+00
 -1      2324 1.19912E+00
 -1      2325 1.21593E+00
 -1      2326 1.42091E+00
 -1      2327 1.39838E+00
 -1      2328 1.51540E+00
 -1      2329 1.61566E+00
 -1      2330 1.68827E+00
 -1      2331 2.10429E+00
 -1      2332 1.97099E+00
 -1      2333 2.11536E+00
 -1      2334 2.44780E+00
 -1      2335 2.15493E+00
 -1      2336 3.11201E+00
 -1      2337 3.37022E+00
 -1      2338 2.83021E+00
 -1      2339 4.38181E+00
 -1      2340 4.29500E+00
 -1      2341 4.50601E+00
 -1      2342 3.50231E+00
 -1      2343 3.48728E+00
 -1      2344 4.72492E+00
 -1      2345 2.91072E+00
 -1      2346 2.65474E+00
 -1      2347 3.35567E+00
 -1      2348 2.69820E+00
 -1      2349 2.52510E+00
 -1      2350 2.82257E+00
 -1      2351 2.18787E+00
 -1      2352 1.97508E+00
 -1      2353 2.52880E+00
 -1      2354 1.75859E+00
 -1      2355 1.52496E+00
 -1      2356 1.97508E+00
 -1      2357 1.29134E+00
 -1      2358 1.12125E+00
 -1      2359 1.52496E+00
 -1      2360 5.45306E-01
 -1      2361 6.24590E-01
 -1      2362 4.37967E-01
 -1      2363 4.91636E-01
 -1      2364 4.91636E-01
 -1      2365 3.71565E-01
 -1      2366 4.04766E-01
 -1      2367 4.04766E-01
 -1      2368 3.07979E-01
 -1      2369 3.39772E-01
 -1      2370 3.39772E-01
 -1      2371 2.52683E-01
 -1      2372 2.80331E-01
 -1      2373 2.80331E-01
 -1      2374 2.07952E-01
 -1      2375 2.30469E-01
 -1      2376 2.30469E-01
 -1      2377 1.68876E-01
 -1      2378 1.88541E-01
 -1      2379 1.88843E-01
 -1      2380 1.35781E-01
 -1      2381 1.52354E-01
 -1      2382 1.52909E-01
 -1      2383 1.09381E-01
 -1      2384 1.22774E-01
 -1      2385 1.23380E-01
 -1      2386 8.88455E-02
 -1      2387 9.89071E-02
 -1      2388 9.98993E-02
 -1      2389 7.26362E-02
 -1      2390 7.99775E-02
 -1      2391 8.05577E-02
 -1      2392 6.03703E-02
 -1      2393 6.51938E-02
 -1      2394 6.42474E-02
 -1      2395 5.47188E-02
 -1      2396 5.64294E-02
 -1      2397 5.28642E-02
 -1      2398 5.56078E-02
 -1      2399 5.36532E-02
 -1      2400 4.78576E-02
 -1      2401 6.49512E-02
 -1      2402 6.07573E-02
 -1      2403 5.19415E-02
 -1      2404 8.26712E-02
 -1      2405 7.25557E-02
 -1      2406 6.46956E-02
 -1      2407 1.10160E-01
 -1      2408 9.67527E-02
 -1      2409 8.63816E-02
 -1      2410 1.49418E-01
 -1      2411 1.32285E-01
 -1      2412 1.22589E-01
 -1      2413 2.08850E-01
 -1      2414 1.77385E-01
 -1      2415 1.72681E-01
 -1      2416 2.82561E-01
 -1      2417 2.43383E-01
 -1      2418 2.35179E-01
 -1      2419 3.70763E-01
 -1      2420 3.23894E-01
 -1      2421 3.11044E-01
 -1      2422 4.71429E-01
 -1      2423 4.18228E-01
 -1      2424 3.99842E-01
 -1      2425 5.78901E-01
 -1      2426 5.22876E-01
 -1      2427 4.98754E-01
 -1      2428 6.82193E-01
 -1      2429 6.29974E-01
 -1      2430 6.01273E-01
 -1      2431 7.71551E-01
 -1      2432 7.25590E-01
 -1      2433 6.95743E-01
 -1      2434 8.47026E-01
 -1      2435 8.11901E-01
 -1      2436 7.79490E-01
 -1      2437 8.74912E-01
 -1      2438 8.74912E-01
 -1      2439 8.47727E-01
 -1      2440 8.93016E-01
 -1      2441 8.99191E-01
 -1      2442 8.99892E-01
 -1      2443 8.05638E-01
 -1      2444 8.79819E-01
 -1      2445 9.10974E-01
 -1      2446 8.48722E-01
 -1      2447 8.42229E-01
 -1      2448 9.34368E-01
 -1      2449 1.00153E+00
 -1      2450 8.70631E-01
 -1      2451 9.92868E-01
 -1      2452 1.65427E+00
 -1      2453 1.27336E+00
 -1      2454 1.28661E+00
 -1      2455 2.11832E+00
 -1      2456 1.84826E+00
 -1      2457 1.75243E+00
 -1      2458 2.33049E+00
 -1      2459 2.29023E+00
 -1      2460 2.11832E+00
 -1      2461 2.57597E+00
 -1      2462 2.57597E+00
 -1      2463 2.53571E+00
 -1      2464 2.55096E+00
 -1      2465 2.58935E+00
 -1      2466 2.79456E+00
 -1      2467 2.34302E+00
 -1      2468 2.32585E+00
 -1      2469 2.58283E+00
 -1      2470 2.05753E+00
 -1      2471 2.22610E+00
 -1      2472 2.24081E+00
 -1      2473 1.87265E+00
 -1      2474 2.07050E+00
 -1      2475 2.13686E+00
 -1      2476 1.42288E+00
 -1      2477 1.59546E+00
 -1      2478 1.87265E+00
 -1      2479 1.11842E+00
 -1      2480 1.27391E+00
 -1      2481 1.44649E+00
 -1      2482 9.74063E-01
 -1      2483 1.11061E+00
 -1      2484 1.28971E+00
 -1      2485 6.66225E-01
 -1      2486 1.69904E+00
 -1      2487 1.59225E+00
 -1      2488 2.38634E+00
 -1      2489 2.06992E+00
 -1      2490 2.38860E+00
 -1      2491 1.21244E+00
 -1      2492 1.16983E+00
 -1      2493 1.44537E+00
 -1      2494 1.43346E+00
 -1      2495 1.50293E+00
 -1      2496 1.87084E+00
 -1      2497 3.18051E+00
 -1      2498 2.83903E+00
 -1      2499 3.21218E+00
 -1      2500 3.33182E+00
 -1      2501 3.33182E+00
 -1      2502 3.81618E+00
 -1      2503 3.28091E+00
 -1      2504 3.33182E+00
 -1      2505 3.96749E+00
 -1      2506 2.21532E+00
 -1      2507 2.77226E+00
 -1      2508 3.45884E+00
 -1      2509 1.84007E+00
 -1      2510 1.98042E+00
 -1      2511 2.71530E+00
 -1      2512 1.47910E+00
 -1      2513 1.48328E+00
 -1      2514 2.12360E+00
 -1      2515 9.86178E-01
 -1      2516 1.08879E+00
 -1      2517 1.37649E+00
 -1      2518 3.01526E+01
 -1      2519 3.04740E+01
 -1      2520 2.51016E+01
 -1      2521 2.54892E+01
 -1      2522 2.54892E+01
 -1      2523 2.95058E+01
 -1      2524 2.82162E+01
 -1      2525 7.03874E-01
 -1      2526 7.97591E-01
 -1      2527 6.24590E-01
 -1      2528 9.61291E-01
 -1      2529 1.43804E+01
 -1      2530 2.07666E+01
 -1      2531 1.67693E+00
 -1      2532 1.30151E+00
 -1      2533 8.38636E-01
 -1      2534 9.60116E-01
 -1      2535 6.24779E+00
 -1      2536 7.34749E+00
 -1      2537 2.36828E+01
 -1      2538 2.14585E+01
 -1      2539 5.22619E-01
 -1      2540 5.44660E-01
 -1      2541 4.71852E-01
 -1      2542 4.44611E-01
 -1      2543 5.62061E+00
 -1      2544 6.49898E+00
 -1      2545 9.40900E+00
 -1      2546 9.37592E+00
 -1      2547 5.63495E+00
 -1      2548 6.88871E+00
 -1      2549 7.83252E+00
 -1      2550 8.71602E+00
 -1      2551 9.67645E+00
 -1      2552 7.32441E+00
 -1      2553 1.58180E+01
 -1      2554 1.12429E+01
 -1      2555 2.02482E+01
 -1      2556 1.85050E+01
 -1      2557 2.87559E+01
 -1      2558 2.45480E+01
 -1      2559 3.29639E+01
 -1      2560 3.29639E+01
 -1      2561 2.55029E+01
 -1      2562 3.01889E+01
 -1      2563 1.40329E+01
 -1      2564 2.00898E+01
 -1      2565 1.57320E+01
 -1      2566 9.87820E+00
 -1      2567 1.28103E+01
 -1      2568 8.24583E+00
 -1      2569 6.86190E+00
 -1      2570 9.75361E+00
 -1      2571 9.21852E+00
 -1      2572 7.14140E+00
 -1      2573 9.42580E+00
 -1      2574 9.93212E+00
 -1      2575 7.52347E+00
 -1      2576 8.38977E+00
 -1      2577 5.97662E+00
 -1      2578 6.43782E+00
 -1      2579 1.11637E+01
 -1      2580 7.33108E+00
 -1      2581 2.09049E+01
 -1      2582 1.45297E+01
 -1      2583 2.42555E+01
 -1      2584 2.42180E+01
 -1      2585 2.42555E+01
 -1      2586 1.62124E+00
 -1      2587 1.76447E+00
 -1      2588 1.32864E+00
 -1      2589 1.18805E+00
 -1      2590 8.90192E+00
 -1      2591 1.25254E+01
 -1      2592 1.03007E+01
 -1      2593 5.36743E+00
 -1      2594 6.17862E-01
 -1      2595 7.58552E-01
 -1      2596 8.22825E-01
 -1      2597 7.97591E-01
 -1      2598 1.24409E+00
 -1      2599 6.89122E+00
 -1      2600 5.16907E+00
 -1      2601 1.69817E+01
 -1      2602 1.64908E+01
 -1      2603 1.14142E+01
 -1      2604 7.18717E+00
 -1      2605 1.05531E+01
 -1      2606 9.74063E-01
 -1      2607 1.16983E+00
 -1      2608 5.58221E+00
 -1      2609 2.91844E+01
 -1      2610 5.31340E+00
 -1      2611 9.68316E-01
 -1      2612 8.96843E-01
 -1      2613 8.29260E+00
 -1      2614 1.09164E+01
 -1      2615 2.33694E+01
 -1      2616 3.01889E+01
 -1      2617 2.87559E+01
 -1      2618 2.02482E+01
 -1      2619 1.32615E+01
 -1      2620 9.00797E+00
 -1      2621 4.94176E+00
 -1      2622 8.05997E+00
 -1      2623 6.21316E+00
 -1      2624 8.39684E+00
 -1      2625 8.72782E+00
 -1      2626 7.39394E+00
 -1      2627 4.20988E+00
 -1      2628 7.38379E+00
 -1      2629 7.19937E+00
 -1      2630 5.73770E+00
 -1      2631 9.43785E-01
 -1      2632 9.68672E-01
 -1      2633 9.68672E-01
 -1      2634 9.51166E-01
 -1      2635 7.43507E+00
 -1      2636 1.28190E+00
 -1      2637 1.12125E+00
 -1      2638 4.22850E-01
 -1      2639 4.08024E-01
 -1      2640 4.00273E-01
 -1      2641 3.87299E-01
 -1      2642 3.50685E-01
 -1      2643 4.35709E-01
 -1      2644 4.35709E-01
 -1      2645 4.75480E-01
 -1      2646 4.26771E-01
 -1      2647 3.51421E-01
 -1      2648 7.17907E-01
 -1      2649 7.96229E-01
 -1      2650 7.99795E-01
 -1      2651 6.09557E-01
 -1      2652 7.03273E-01
 -1      2653 5.29873E-01
 -1      2654 1.56701E+01
 -1      2655 1.23570E+01
 -1      2656 2.10346E+01
 -1      2657 1.70739E+01
 -1      2658 5.51725E-01
 -1      2659 4.93849E-01
 -1      2660 4.86591E-01
 -1      2661 4.30409E-01
 -1      2662 3.91172E-01
 -1      2663 4.10286E-01
 -1      2664 3.61003E-01
 -1      2665 3.63791E-01
 -1      2666 3.36272E-01
 -1      2667 3.08840E-01
 -1      2668 3.18938E-01
 -1      2669 2.84083E-01
 -1      2670 2.59182E-01
 -1      2671 2.69451E-01
 -1      2672 2.43533E-01
 -1      2673 2.20022E-01
 -1      2674 2.29046E-01
 -1      2675 2.03827E-01
 -1      2676 1.84571E-01
 -1      2677 1.97201E-01
 -1      2678 1.69099E-01
 -1      2679 1.52414E-01
 -1      2680 1.65534E-01
 -1      2681 1.38407E-01
 -1      2682 1.23889E-01
 -1      2683 1.36056E-01
 -1      2684 1.12525E-01
 -1      2685 1.00275E-01
 -1      2686 1.10684E-01
 -1      2687 9.08649E-02
 -1      2688 8.07503E-02
 -1      2689 8.99098E-02
 -1      2690 7.25889E-02
 -1      2691 6.45939E-02
 -1      2692 7.23386E-02
 -1      2693 5.79141E-02
 -1      2694 5.15859E-02
 -1      2695 5.74975E-02
 -1      2696 4.57742E-02
 -1      2697 4.18821E-02
 -1      2698 4.50060E-02
 -1      2699 3.78722E-02
 -1      2700 3.85317E-02
 -1      2701 3.51843E-02
 -1      2702 4.15767E-02
 -1      2703 4.68213E-02
 -1      2704 3.42194E-02
 -1      2705 5.75125E-02
 -1      2706 6.73062E-02
 -1      2707 4.79557E-02
 -1      2708 8.28560E-02
 -1      2709 1.01646E-01
 -1      2710 7.41966E-02
 -1      2711 1.21266E-01
 -1      2712 1.45387E-01
 -1      2713 1.09367E-01
 -1      2714 1.70129E-01
 -1      2715 2.00751E-01
 -1      2716 1.53729E-01
 -1      2717 2.31736E-01
 -1      2718 2.69937E-01
 -1      2719 2.09457E-01
 -1      2720 3.08312E-01
 -1      2721 3.54865E-01
 -1      2722 2.78816E-01
 -1      2723 4.01736E-01
 -1      2724 4.56763E-01
 -1      2725 3.64062E-01
 -1      2726 5.13094E-01
 -1      2727 5.75524E-01
 -1      2728 4.67263E-01
 -1      2729 6.42101E-01
 -1      2730 7.08915E-01
 -1      2731 5.90171E-01
 -1      2732 7.87112E-01
 -1      2733 8.52389E-01
 -1      2734 7.34945E-01
 -1      2735 9.36115E-01
 -1      2736 9.91232E-01
 -1      2737 8.96867E-01
 -1      2738 1.08074E+00
 -1      2739 1.13610E+00
 -1      2740 1.07010E+00
 -1      2741 1.22156E+00
 -1      2742 1.30316E+00
 -1      2743 1.24507E+00
 -1      2744 1.47464E+00
 -1      2745 1.54106E+00
 -1      2746 1.50202E+00
 -1      2747 1.75568E+00
 -1      2748 1.76797E+00
 -1      2749 1.88812E+00
 -1      2750 1.92036E+00
 -1      2751 2.10281E+00
 -1      2752 2.25512E+00
 -1      2753 2.15916E+00
 -1      2754 2.33202E+00
 -1      2755 2.46385E+00
 -1      2756 2.71835E+00
 -1      2757 2.72942E+00
 -1      2758 2.90652E+00
 -1      2759 2.69106E+00
 -1      2760 3.35527E+00
 -1      2761 3.25448E+00
 -1      2762 5.14893E+00
 -1      2763 4.35625E+00
 -1      2764 4.26822E+00
 -1      2765 3.69166E+00
 -1      2766 4.69224E+00
 -1      2767 2.82257E+00
 -1      2768 2.86603E+00
 -1      2769 3.73512E+00
 -1      2770 2.86603E+00
 -1      2771 2.52880E+00
 -1      2772 2.86603E+00
 -1      2773 2.54021E+00
 -1      2774 2.32371E+00
 -1      2775 2.87744E+00
 -1      2776 1.75563E+00
 -1      2777 1.52201E+00
 -1      2778 2.32076E+00
 -1      2779 3.49975E-01
 -1      2780 3.83176E-01
 -1      2781 4.17415E-01
 -1      2782 4.71084E-01
 -1      2783 3.62624E-01
 -1      2784 2.43527E-01
 -1      2785 2.71175E-01
 -1      2786 2.02868E-01
 -1      2787 2.25083E-01
 -1      2788 2.15927E-01
 -1      2789 1.66421E-01
 -1      2790 1.85832E-01
 -1      2791 1.80446E-01
 -1      2792 1.35967E-01
 -1      2793 1.52489E-01
 -1      2794 1.49478E-01
 -1      2795 1.10605E-01
 -1      2796 1.23612E-01
 -1      2797 1.23192E-01
 -1      2798 8.94441E-02
 -1      2799 9.99177E-02
 -1      2800 1.00150E-01
 -1      2801 7.16898E-02
 -1      2802 8.05577E-02
 -1      2803 8.05761E-02
 -1      2804 5.67449E-02
 -1      2805 6.41873E-02
 -1      2806 6.41873E-02
 -1      2807 4.71574E-02
 -1      2808 5.10983E-02
 -1      2809 5.10381E-02
 -1      2810 4.13378E-02
 -1      2811 4.24035E-02
 -1      2812 4.06376E-02
 -1      2813 4.94472E-02
 -1      2814 4.42976E-02
 -1      2815 3.88435E-02
 -1      2816 6.31061E-02
 -1      2817 5.55016E-02
 -1      2818 4.78577E-02
 -1      2819 9.21922E-02
 -1      2820 7.81108E-02
 -1      2821 6.89167E-02
 -1      2822 1.33212E-01
 -1      2823 1.11086E-01
 -1      2824 1.02815E-01
 -1      2825 1.84875E-01
 -1      2826 1.56908E-01
 -1      2827 1.45406E-01
 -1      2828 2.48763E-01
 -1      2829 2.14230E-01
 -1      2830 1.98458E-01
 -1      2831 3.25786E-01
 -1      2832 2.84453E-01
 -1      2833 2.63504E-01
 -1      2834 4.15569E-01
 -1      2835 3.68104E-01
 -1      2836 3.41513E-01
 -1      2837 5.15574E-01
 -1      2838 4.64127E-01
 -1      2839 4.32389E-01
 -1      2840 6.19948E-01
 -1      2841 5.68875E-01
 -1      2842 5.34249E-01
 -1      2843 7.18207E-01
 -1      2844 6.74811E-01
 -1      2845 6.42412E-01
 -1      2846 8.09789E-01
 -1      2847 7.69438E-01
 -1      2848 7.48506E-01
 -1      2849 8.86141E-01
 -1      2850 8.58254E-01
 -1      2851 8.48202E-01
 -1      2852 9.85853E-01
 -1      2853 9.61574E-01
 -1      2854 9.72102E-01
 -1      2855 1.04897E+00
 -1      2856 1.06217E+00
 -1      2857 1.12385E+00
 -1      2858 1.14906E+00
 -1      2859 1.11247E+00
 -1      2860 1.26366E+00
 -1      2861 1.32603E+00
 -1      2862 1.30412E+00
 -1      2863 1.48221E+00
 -1      2864 1.64379E+00
 -1      2865 1.37195E+00
 -1      2866 1.68320E+00
 -1      2867 2.28423E+00
 -1      2868 2.09025E+00
 -1      2869 2.17559E+00
 -1      2870 2.95816E+00
 -1      2871 2.78625E+00
 -1      2872 3.12407E+00
 -1      2873 4.15236E+00
 -1      2874 3.90689E+00
 -1      2875 4.57482E+00
 -1      2876 4.49846E+00
 -1      2877 4.48508E+00
 -1      2878 5.85626E+00
 -1      2879 4.89134E+00
 -1      2880 5.11645E+00
 -1      2881 6.80697E+00
 -1      2882 2.94143E+00
 -1      2883 3.05835E+00
 -1      2884 5.59197E+00
 -1      2885 2.40953E+00
 -1      2886 2.39656E+00
 -1      2887 3.21410E+00
 -1      2888 1.87265E+00
 -1      2889 2.14984E+00
 -1      2890 2.40953E+00
 -1      2891 1.44078E+00
 -1      2892 1.58976E+00
 -1      2893 1.86694E+00
 -1      2894 1.43440E+00
 -1      2895 1.44221E+00
 -1      2896 1.58547E+00
 -1      2897 1.43440E+00
 -1      2898 7.85559E+00
 -1      2899 7.70428E+00
 -1      2900 1.45165E+00
 -1      2901 1.28156E+00
 -1      2902 1.29907E+00
 -1      2903 1.68232E+00
 -1      2904 3.27824E+00
 -1      2905 2.90735E+00
 -1      2906 7.60470E+00
 -1      2907 7.60470E+00
 -1      2908 1.14928E+01
 -1      2909 6.10981E+00
 -1      2910 5.65712E+00
 -1      2911 6.17587E+00
 -1      2912 3.74250E+00
 -1      2913 4.25114E+00
 -1      2914 7.88835E+00
 -1      2915 3.50759E+00
 -1      2916 3.74250E+00
 -1      2917 4.53480E+00
 -1      2918 2.37912E+00
 -1      2919 2.73591E+00
 -1      2920 3.76312E+00
 -1      2921 1.68938E+00
 -1      2922 4.65529E+00
 -1      2923 6.20972E+00
 -1      2924 1.70086E+01
 -1      2925 2.16720E+01
 -1      2926 3.70010E+00
 -1      2927 4.78574E+00
 -1      2928 4.77872E+00
 -1      2929 6.11225E+00
 -1      2930 6.69181E-01
 -1      2931 6.34004E-01
 -1      2932 5.84785E-01
 -1      2933 5.95164E-01
 -1      2934 8.63117E+00
 -1      2935 9.85377E+00
 -1      2936 1.73808E+01
 -1      2937 2.14252E+01
 -1      2938 2.16799E+01
 -1      2939 2.44549E+01
 -1      2940 5.04839E-01
 -1      2941 5.84123E-01
 -1      2942 4.89805E-01
 -1      2943 4.30617E-01
 -1      2944 2.90890E-01
 -1      2945 3.22683E-01
 -1      2946 3.01094E-01
 -1      2947 2.54086E-01
 -1      2948 4.35709E-01
 -1      2949 4.23811E-01
 -1      2950 3.59397E-01
 -1      2951 3.60359E-01
 -1      2952 3.87027E+00
 -1      2953 4.03799E+00
 -1      2954 3.35649E+00
 -1      2955 7.09135E+00
 -1      2956 6.91285E+00
 -1      2957 4.25789E-01
 -1      2958 4.37689E-01
 -1      2959 7.75594E+00
 -1      2960 8.39684E+00
 -1      2961 6.43275E+00
 -1      2962 7.12573E+00
 -1      2963 4.37403E+00
 -1      2964 3.14707E+00
 -1      2965 8.69696E+00
 -1      2966 7.13048E+00
 -1      2967 1.23675E+01
 -1      2968 9.68041E+00
 -1      2969 1.84960E+01
 -1      2970 1.41963E+01
 -1      2971 2.48861E+01
 -1      2972 2.06781E+01
 -1      2973 1.12605E+01
 -1      2974 1.48535E+01
 -1      2975 6.17965E+00
 -1      2976 4.47585E+00
 -1      2977 7.70110E+00
 -1      2978 9.55618E+00
 -1      2979 5.46518E+00
 -1      2980 6.81585E+00
 -1      2981 5.84316E+00
 -1      2982 8.28213E-01
 -1      2983 2.10868E+01
 -1      2984 2.01186E+01
 -1      2985 4.96124E+00
 -1      2986 3.60678E+00
 -1      2987 1.10940E+01
 -1      2988 1.54291E+01
 -1      2989 4.87248E-01
 -1      2990 5.95164E-01
 -1      2991 4.14990E-01
 -1      2992 3.42814E-01
 -1      2993 3.87179E-01
 -1      2994 4.00126E-01
 -1      2995 9.11633E+00
 -1      2996 1.04279E+01
 -1      2997 7.31243E+00
 -1      2998 8.97532E+00
 -1      2999 1.24493E+01
 -1      3000 4.36686E+00
 -1      3001 4.50601E+00
 -1      3002 5.51760E+00
 -1      3003 3.25535E+00
 -1      3004 2.36572E+00
 -1      3005 2.21883E+00
 -1      3006 9.41346E+00
 -1      3007 8.35169E+00
 -1      3008 6.81384E+00
 -1      3009 5.55912E+00
 -1      3010 3.58369E+00
 -1      3011 5.80962E+00
 -1      3012 4.04847E+00
 -1      3013 1.01492E+01
 -1      3014 1.73892E+00
 -1      3015 1.51790E+00
 -1      3016 1.67040E+00
 -1      3017 2.23381E+00
 -1      3018 5.86863E+00
 -1      3019 2.05685E+00
 -1      3020 2.13427E+00
 -1      3021 2.74659E+00
 -1      3022 2.12721E+00
 -1      3023 1.16118E+01
 -1      3024 5.61460E+00
 -1      3025 1.29370E+01
 -1      3026 1.26061E+01
 -1      3027 3.88833E+00
 -1      3028 5.50163E+00
 -1      3029 6.53766E+00
 -1      3030 1.63771E+01
 -1      3031 5.84404E+00
 -1      3032 1.46261E+01
 -1      3033 1.06152E+01
 -1      3034 7.80292E+00
 -1      3035 4.31490E-01
 -1      3036 1.29094E+01
 -1      3037 1.56913E+01
 -1      3038 5.22067E+00
 -1      3039 3.07912E+00
 -1      3040 7.42496E+00
 -1      3041 4.07513E-01
 -1      3042 4.21807E-01
 -1      3043 3.61449E-01
 -1      3044 3.50080E-01
 -1      3045 7.69211E+00
 -1      3046 6.62950E+00
 -1      3047 5.19770E+00
 -1      3048 6.62569E+00
 -1      3049 5.24593E+00
 -1      3050 4.93800E+00
 -1      3051 3.80692E+00
 -1      3052 6.14980E+00
 -1      3053 5.76492E-01
 -1      3054 4.43495E-01
 -1      3055 4.11442E-01
 -1      3056 3.10430E-01
 -1      3057 3.96808E-01
 -1      3058 3.19368E-01
 -1      3059 2.89773E+00
 -1      3060 6.09040E+00
 -1      3061 5.13956E+00
 -1      3062 3.24908E+00
 -1      3063 3.86638E+00
 -1      3064 6.95394E+00
 -1      3065 8.36070E+00
 -1      3066 3.20090E-01
 -1      3067 2.99967E-01
 -1      3068 2.96407E-01
 -1      3069 2.71677E-01
 -1      3070 2.52706E-01
 -1      3071 2.60780E-01
 -1      3072 2.36024E-01
 -1      3073 2.38250E-01
 -1      3074 2.21886E-01
 -1      3075 2.06237E-01
 -1      3076 2.13216E-01
 -1      3077 1.92888E-01
 -1      3078 1.76693E-01
 -1      3079 1.85729E-01
 -1      3080 1.66096E-01
 -1      3081 1.50624E-01
 -1      3082 1.61783E-01
 -1      3083 1.39438E-01
 -1      3084 1.25432E-01
 -1      3085 1.40000E-01
 -1      3086 1.14572E-01
 -1      3087 1.03207E-01
 -1      3088 1.17955E-01
 -1      3089 9.31396E-02
 -1      3090 8.37298E-02
 -1      3091 9.70272E-02
 -1      3092 7.46109E-02
 -1      3093 6.64495E-02
 -1      3094 7.78407E-02
 -1      3095 5.82058E-02
 -1      3096 5.15260E-02
 -1      3097 6.04780E-02
 -1      3098 4.39197E-02
 -1      3099 3.81080E-02
 -1      3100 4.46281E-02
 -1      3101 3.07764E-02
 -1      3102 2.67664E-02
 -1      3103 2.96902E-02
 -1      3104 2.71467E-02
 -1      3105 3.01918E-02
 -1      3106 2.27388E-02
 -1      3107 3.86359E-02
 -1      3108 4.93270E-02
 -1      3109 3.15632E-02
 -1      3110 6.22333E-02
 -1      3111 7.77831E-02
 -1      3112 5.29135E-02
 -1      3113 9.41054E-02
 -1      3114 1.13726E-01
 -1      3115 8.21420E-02
 -1      3116 1.35683E-01
 -1      3117 1.60425E-01
 -1      3118 1.20422E-01
 -1      3119 1.88382E-01
 -1      3120 2.19366E-01
 -1      3121 1.70335E-01
 -1      3122 2.54478E-01
 -1      3123 2.92853E-01
 -1      3124 2.33403E-01
 -1      3125 3.36192E-01
 -1      3126 3.83063E-01
 -1      3127 3.11854E-01
 -1      3128 4.35351E-01
 -1      3129 4.91682E-01
 -1      3130 4.07482E-01
 -1      3131 5.52839E-01
 -1      3132 6.19416E-01
 -1      3133 5.20927E-01
 -1      3134 6.87741E-01
 -1      3135 7.65937E-01
 -1      3136 6.50408E-01
 -1      3137 8.52548E-01
 -1      3138 9.36273E-01
 -1      3139 8.05343E-01
 -1      3140 1.05358E+00
 -1      3141 1.14308E+00
 -1      3142 1.00926E+00
 -1      3143 1.31326E+00
 -1      3144 1.39872E+00
 -1      3145 1.29674E+00
 -1      3146 1.61124E+00
 -1      3147 1.78272E+00
 -1      3148 1.67943E+00
 -1      3149 1.99920E+00
 -1      3150 2.21382E+00
 -1      3151 2.10843E+00
 -1      3152 2.97974E+00
 -1      3153 3.13213E+00
 -1      3154 3.09082E+00
 -1      3155 3.81365E+00
 -1      3156 3.86999E+00
 -1      3157 4.53827E+00
 -1      3158 4.10532E+00
 -1      3159 4.49164E+00
 -1      3160 2.93609E+00
 -1      3161 3.52380E+00
 -1      3162 3.52380E+00
 -1      3163 3.53521E+00
 -1      3164 3.29643E+00
 -1      3165 2.72835E+00
 -1      3166 3.10288E+00
 -1      3167 3.94280E+00
 -1      3168 1.30572E+01
 -1      3169 1.34883E+01
 -1      3170 1.63591E-01
 -1      3171 1.80627E-01
 -1      3172 1.93452E-01
 -1      3173 2.11896E-01
 -1      3174 1.76596E-01
 -1      3175 1.12237E-01
 -1      3176 1.24592E-01
 -1      3177 9.05594E-02
 -1      3178 1.01247E-01
 -1      3179 1.02647E-01
 -1      3180 7.19177E-02
 -1      3181 8.08041E-02
 -1      3182 8.19010E-02
 -1      3183 5.58354E-02
 -1      3184 6.33379E-02
 -1      3185 6.35658E-02
 -1      3186 4.36191E-02
 -1      3187 4.92657E-02
 -1      3188 4.84163E-02
 -1      3189 3.26952E-02
 -1      3190 3.74491E-02
 -1      3191 3.56767E-02
 -1      3192 3.32389E-02
 -1      3193 3.02792E-02
 -1      3194 2.70907E-02
 -1      3195 4.53204E-02
 -1      3196 3.92660E-02
 -1      3197 3.07017E-02
 -1      3198 7.25107E-02
 -1      3199 5.75061E-02
 -1      3200 4.89144E-02
 -1      3201 1.06465E-01
 -1      3202 8.75710E-02
 -1      3203 7.61604E-02
 -1      3204 1.48936E-01
 -1      3205 1.25240E-01
 -1      3206 1.09995E-01
 -1      3207 2.01697E-01
 -1      3208 1.72341E-01
 -1      3209 1.52175E-01
 -1      3210 2.66409E-01
 -1      3211 2.30719E-01
 -1      3212 2.04602E-01
 -1      3213 3.44410E-01
 -1      3214 3.02091E-01
 -1      3215 2.69306E-01
 -1      3216 4.37880E-01
 -1      3217 3.89322E-01
 -1      3218 3.49901E-01
 -1      3219 5.45561E-01
 -1      3220 4.92260E-01
 -1      3221 4.49192E-01
 -1      3222 6.63823E-01
 -1      3223 6.08961E-01
 -1      3224 5.66972E-01
 -1      3225 7.85907E-01
 -1      3226 7.34676E-01
 -1      3227 7.01225E-01
 -1      3228 9.12535E-01
 -1      3229 8.64070E-01
 -1      3230 8.50240E-01
 -1      3231 1.07448E+00
 -1      3232 9.99050E-01
 -1      3233 1.01492E+00
 -1      3234 1.26978E+00
 -1      3235 1.19347E+00
 -1      3236 1.22042E+00
 -1      3237 1.50063E+00
 -1      3238 1.43713E+00
 -1      3239 1.50676E+00
 -1      3240 1.82549E+00
 -1      3241 1.67042E+00
 -1      3242 1.84390E+00
 -1      3243 2.51707E+00
 -1      3244 2.47114E+00
 -1      3245 2.65935E+00
 -1      3246 3.99169E+00
 -1      3247 3.54523E+00
 -1      3248 5.52354E+00
 -1      3249 4.57482E+00
 -1      3250 6.17676E+00
 -1      3251 5.84404E+00
 -1      3252 7.42496E+00
 -1      3253 6.80697E+00
 -1      3254 4.31681E+00
 -1      3255 6.14980E+00
 -1      3256 3.21410E+00
 -1      3257 3.75897E+00
 -1      3258 2.85062E+00
 -1      3259 3.11031E+00
 -1      3260 3.65518E+00
 -1      3261 1.91727E+00
 -1      3262 2.20017E+00
 -1      3263 2.90094E+00
 -1      3264 1.91870E+00
 -1      3265 6.36817E+00
 -1      3266 3.98929E+00
 -1      3267 3.23113E-01
 -1      3268 3.15362E-01
 -1      3269 6.46363E+00
 -1      3270 6.46363E+00
 -1      3271 1.16314E+01
 -1      3272 1.18823E+01
 -1      3273 4.40504E+00
 -1      3274 5.17672E+00
 -1      3275 7.10555E+00
 -1      3276 4.48603E+00
 -1      3277 5.97741E+00
 -1      3278 5.83469E+00
 -1      3279 4.37862E+00
 -1      3280 1.11227E+01
 -1      3281 9.71896E+00
 -1      3282 1.24675E+01
 -1      3283 1.08730E+01
 -1      3284 4.64550E-01
 -1      3285 1.36743E-01
 -1      3286 1.50675E-01
 -1      3287 1.50855E-01
 -1      3288 1.25788E-01
 -1      3289 1.33532E+01
 -1      3290 1.11711E+01
 -1      3291 7.13795E+00
 -1      3292 6.80697E+00
 -1      3293 6.53766E+00
 -1      3294 3.07780E-01
 -1      3295 3.42018E-01
 -1      3296 3.50004E+00
 -1      3297 3.99512E+00
 -1      3298 6.17676E+00
 -1      3299 2.93231E+00
 -1      3300 3.15724E-01
 -1      3301 3.08467E-01
 -1      3302 2.44643E-01
 -1      3303 3.60665E-01
 -1      3304 3.27605E-01
 -1      3305 2.44900E-01
 -1      3306 3.60665E-01
 -1      3307 7.07386E+00
 -1      3308 6.09040E+00
 -1      3309 9.95766E+00
 -1      3310 8.12883E+00
 -1      3311 6.41631E+00
 -1      3312 1.28026E+01
 -1      3313 1.30572E+01
 -1      3314 1.01685E+01
 -1      3315 1.01619E+01
 -1      3316 1.26892E+01
 -1      3317 3.24196E-01
 -1      3318 3.24076E-01
 -1      3319 2.96624E-01
 -1      3320 2.26163E-01
 -1      3321 2.45879E-01
 -1      3322 2.03688E-01
 -1      3323 5.36133E+00
 -1      3324 8.43205E+00
 -1      3325 8.14050E+00
 -1      3326 5.61460E+00
 -1      3327 3.31172E-01
 -1      3328 3.80732E-01
 -1      3329 2.76847E-01
 -1      3330 5.45512E+00
 -1      3331 3.24074E-01
 -1      3332 3.23113E-01
 -1      3333 2.87790E-01
 -1      3334 3.88833E+00
 -1      3335 3.01924E+00
 -1      3336 8.97066E+00
 -1      3337 1.22905E+01
 -1      3338 8.83547E+00
 -1      3339 3.22411E-01
 -1      3340 3.22411E-01
 -1      3341 2.86126E-01
 -1      3342 2.64197E-01
 -1      3343 2.91489E-01
 -1      3344 2.36274E-01
 -1      3345 8.68470E+00
 -1      3346 5.84444E+00
 -1      3347 4.21640E+00
 -1      3348 3.97762E+00
 -1      3349 5.71921E+00
 -1      3350 4.33317E+00
 -1      3351 4.57482E+00
 -1      3352 3.62609E+00
 -1      3353 3.12407E+00
 -1      3354 2.00219E+00
 -1      3355 9.29351E+00
 -1      3356 4.49371E+00
 -1      3357 4.27194E+00
 -1      3358 1.00551E+01
 -1      3359 4.16019E+00
 -1      3360 1.14466E+01
 -1      3361 1.18361E+01
 -1      3362 7.42496E+00
 -1      3363 3.51995E-01
 -1      3364 3.85749E-01
 -1      3365 2.97150E-01
 -1      3366 3.76727E-01
 -1      3367 4.02160E-01
 -1      3368 2.83730E-01
 -1      3369 2.98104E-01
 -1      3370 2.81420E-01
 -1      3371 2.70883E-01
 -1      3372 3.40239E-01
 -1      3373 3.44221E-01
 -1      3374 3.09963E-01
 -1      3375 8.09302E+00
 -1      3376 2.92592E+00
 -1      3377 1.27521E+01
 -1      3378 1.00219E+01
 -1      3379 6.01488E+00
 -1      3380 4.31681E+00
 -1      3381 3.99890E+00
 -1      3382 2.16065E-01
 -1      3383 2.05169E-01
 -1      3384 2.01559E-01
 -1      3385 1.87421E-01
 -1      3386 1.79375E-01
 -1      3387 1.79567E-01
 -1      3388 1.66218E-01
 -1      3389 1.67911E-01
 -1      3390 1.56363E-01
 -1      3391 1.45766E-01
 -1      3392 1.50201E-01
 -1      3393 1.37449E-01
 -1      3394 1.26263E-01
 -1      3395 1.32029E-01
 -1      3396 1.17974E-01
 -1      3397 1.07114E-01
 -1      3398 1.15423E-01
 -1      3399 9.86354E-02
 -1      3400 8.85677E-02
 -1      3401 9.86550E-02
 -1      3402 8.04070E-02
 -1      3403 7.12881E-02
 -1      3404 8.20151E-02
 -1      3405 6.36623E-02
 -1      3406 5.54185E-02
 -1      3407 6.62286E-02
 -1      3408 4.83302E-02
 -1      3409 4.07239E-02
 -1      3410 5.15144E-02
 -1      3411 3.45390E-02
 -1      3412 2.72074E-02
 -1      3413 3.82411E-02
 -1      3414 2.81355E-02
 -1      3415 2.85158E-02
 -1      3416 3.29844E-02
 -1      3417 3.09481E-02
 -1      3418 3.93922E-02
 -1      3419 3.63448E-02
 -1      3420 5.09086E-02
 -1      3421 6.38149E-02
 -1      3422 5.02936E-02
 -1      3423 7.95137E-02
 -1      3424 9.58360E-02
 -1      3425 7.75089E-02
 -1      3426 1.15899E-01
 -1      3427 1.37856E-01
 -1      3428 1.13270E-01
 -1      3429 1.63415E-01
 -1      3430 1.91371E-01
 -1      3431 1.58892E-01
 -1      3432 2.23715E-01
 -1      3433 2.58826E-01
 -1      3434 2.16795E-01
 -1      3435 2.99418E-01
 -1      3436 3.42758E-01
 -1      3437 2.89730E-01
 -1      3438 3.93259E-01
 -1      3439 4.45547E-01
 -1      3440 3.80823E-01
 -1      3441 5.07835E-01
 -1      3442 5.68991E-01
 -1      3443 4.93612E-01
 -1      3444 6.45115E-01
 -1      3445 7.13440E-01
 -1      3446 6.32023E-01
 -1      3447 8.05343E-01
 -1      3448 8.91953E-01
 -1      3449 8.00050E-01
 -1      3450 1.00056E+00
 -1      3451 1.11787E+00
 -1      3452 1.00056E+00
 -1      3453 1.27026E+00
 -1      3454 1.44044E+00
 -1      3455 1.26157E+00
 -1      3456 1.68774E+00
 -1      3457 1.90026E+00
 -1      3458 1.66127E+00
 -1      3459 2.51996E+00
 -1      3460 2.73644E+00
 -1      3461 2.52827E+00
 -1      3462 4.24332E+00
 -1      3463 5.00924E+00
 -1      3464 4.65485E+00
 -1      3465 3.28906E+00
 -1      3466 3.98929E+00
 -1      3467 3.44766E+00
 -1      3468 2.32482E-01
 -1      3469 2.48772E-01
 -1      3470 4.33317E+00
 -1      3471 7.58788E-02
 -1      3472 8.56340E-02
 -1      3473 9.46129E-02
 -1      3474 1.05604E-01
 -1      3475 8.85907E-02
 -1      3476 4.47961E-02
 -1      3477 5.13658E-02
 -1      3478 3.14593E-02
 -1      3479 3.76293E-02
 -1      3480 4.05787E-02
 -1      3481 2.64495E-02
 -1      3482 2.88655E-02
 -1      3483 3.08181E-02
 -1      3484 3.40014E-02
 -1      3485 2.79744E-02
 -1      3486 2.97492E-02
 -1      3487 5.65640E-02
 -1      3488 4.43783E-02
 -1      3489 4.16510E-02
 -1      3490 8.55491E-02
 -1      3491 7.04888E-02
 -1      3492 6.59527E-02
 -1      3493 1.22591E-01
 -1      3494 1.03816E-01
 -1      3495 9.81447E-02
 -1      3496 1.68982E-01
 -1      3497 1.45577E-01
 -1      3498 1.39398E-01
 -1      3499 2.26610E-01
 -1      3500 1.97589E-01
 -1      3501 1.90991E-01
 -1      3502 2.97329E-01
 -1      3503 2.61647E-01
 -1      3504 2.54633E-01
 -1      3505 3.84270E-01
 -1      3506 3.39358E-01
 -1      3507 3.31699E-01
 -1      3508 4.87721E-01
 -1      3509 4.33341E-01
 -1      3510 4.22799E-01
 -1      3511 6.06285E-01
 -1      3512 5.42885E-01
 -1      3513 5.27034E-01
 -1      3514 7.40254E-01
 -1      3515 6.69401E-01
 -1      3516 6.45314E-01
 -1      3517 9.05896E-01
 -1      3518 8.27733E-01
 -1      3519 7.95910E-01
 -1      3520 1.11946E+00
 -1      3521 1.03295E+00
 -1      3522 1.01044E+00
 -1      3523 1.42354E+00
 -1      3524 1.30455E+00
 -1      3525 1.32258E+00
 -1      3526 1.90323E+00
 -1      3527 1.73588E+00
 -1      3528 1.82001E+00
 -1      3529 2.25013E+00
 -1      3530 2.08033E+00
 -1      3531 2.30946E+00
 -1      3532 3.88672E+00
 -1      3533 3.24106E+00
 -1      3534 3.47750E+00
 -1      3535 4.91488E+00
 -1      3536 2.00219E+00
 -1      3537 2.25049E+00
 -1      3538 2.90094E+00
 -1      3539 2.48210E+00
 -1      3540 4.27483E+00
 -1      3541 4.18160E+00
 -1      3542 8.83547E+00
 -1      3543 7.62206E+00
 -1      3544 6.72802E+00
 -1      3545 8.52920E+00
 -1      3546 5.42636E+00
 -1      3547 5.42636E+00
 -1      3548 8.74481E+00
 -1      3549 8.85821E+00
 -1      3550 1.93133E-01
 -1      3551 2.04757E-01
 -1      3552 5.89988E-02
 -1      3553 6.75787E-02
 -1      3554 7.13117E-02
 -1      3555 5.53786E-02
 -1      3556 1.58207E-01
 -1      3557 1.71032E-01
 -1      3558 3.21605E+00
 -1      3559 3.32853E-01
 -1      3560 3.40239E-01
 -1      3561 3.23012E-01
 -1      3562 3.14235E-01
 -1      3563 7.10693E+00
 -1      3564 4.60421E+00
 -1      3565 4.58993E+00
 -1      3566 8.85821E+00
 -1      3567 8.85821E+00
 -1      3568 5.77956E+00
 -1      3569 2.15512E-01
 -1      3570 2.11951E-01
 -1      3571 1.78871E-01
 -1      3572 5.96986E+00
 -1      3573 4.76133E+00
 -1      3574 2.46064E-01
 -1      3575 2.49107E-01
 -1      3576 2.51417E-01
 -1      3577 6.16826E+00
 -1      3578 1.82911E-01
 -1      3579 1.97178E-01
 -1      3580 1.64522E-01
 -1      3581 6.50292E+00
 -1      3582 2.59917E-01
 -1      3583 2.46868E-01
 -1      3584 5.78548E+00
 -1      3585 4.28405E+00
 -1      3586 3.29312E+00
 -1      3587 5.93626E+00
 -1      3588 6.63923E+00
 -1      3589 5.48674E+00
 -1      3590 2.25857E-01
 -1      3591 2.03746E-01
 -1      3592 2.07539E-01
 -1      3593 2.52950E-01
 -1      3594 2.52950E-01
 -1      3595 8.20206E+00
 -1      3596 7.00425E+00
 -1      3597 6.89180E+00
 -1      3598 2.08944E-01
 -1      3599 2.47345E-01
 -1      3600 2.57322E-01
 -1      3601 7.77284E+00
 -1      3602 2.50770E-01
 -1      3603 1.49623E-01
 -1      3604 1.44059E-01
 -1      3605 1.36707E-01
 -1      3606 1.07043E-01
 -1      3607 1.15077E-01
 -1      3608 1.27228E-01
 -1      3609 6.18898E+00
 -1      3610 7.33234E+00
 -1      3611 2.59244E-01
 -1      3612 2.68078E-01
 -1      3613 2.24405E-01
 -1      3614 7.54795E+00
 -1      3615 1.64002E-01
 -1      3616 3.86650E+00
 -1      3617 1.75034E-01
 -1      3618 2.25080E-01
 -1      3619 5.03493E+00
 -1      3620 2.64966E-01
 -1      3621 2.66489E-01
 -1      3622 2.03394E-01
 -1      3623 2.66489E-01
 -1      3624 7.99940E-02
 -1      3625 8.89729E-02
 -1      3626 1.59771E-01
 -1      3627 1.56161E-01
 -1      3628 1.55787E-01
 -1      3629 1.47933E-01
 -1      3630 1.36184E-01
 -1      3631 1.43487E-01
 -1      3632 1.33632E-01
 -1      3633 1.31364E-01
 -1      3634 1.26933E-01
 -1      3635 1.18616E-01
 -1      3636 1.20219E-01
 -1      3637 1.11036E-01
 -1      3638 1.02746E-01
 -1      3639 1.05940E-01
 -1      3640 9.64671E-02
 -1      3641 8.79880E-02
 -1      3642 9.20795E-02
 -1      3643 8.14249E-02
 -1      3644 7.32642E-02
 -1      3645 7.92371E-02
 -1      3646 6.68648E-02
 -1      3647 5.92390E-02
 -1      3648 6.62746E-02
 -1      3649 5.32057E-02
 -1      3650 4.61173E-02
 -1      3651 5.38419E-02
 -1      3652 4.19700E-02
 -1      3653 3.57851E-02
 -1      3654 4.36613E-02
 -1      3655 3.63980E-02
 -1      3656 3.73261E-02
 -1      3657 4.01268E-02
 -1      3658 3.94362E-02
 -1      3659 4.18685E-02
 -1      3660 4.28498E-02
 -1      3661 4.60482E-02
 -1      3662 5.75646E-02
 -1      3663 4.91395E-02
 -1      3664 7.05870E-02
 -1      3665 8.62858E-02
 -1      3666 6.63415E-02
 -1      3667 1.02977E-01
 -1      3668 1.23040E-01
 -1      3669 9.60553E-02
 -1      3670 1.44386E-01
 -1      3671 1.69945E-01
 -1      3672 1.34093E-01
 -1      3673 1.97135E-01
 -1      3674 2.29479E-01
 -1      3675 1.82629E-01
 -1      3676 2.63991E-01
 -1      3677 3.04583E-01
 -1      3678 2.44331E-01
 -1      3679 3.48361E-01
 -1      3680 3.98862E-01
 -1      3681 3.22622E-01
 -1      3682 4.54630E-01
 -1      3683 5.16918E-01
 -1      3684 4.22168E-01
 -1      3685 5.88759E-01
 -1      3686 6.64883E-01
 -1      3687 5.49778E-01
 -1      3688 7.59166E-01
 -1      3689 8.51069E-01
 -1      3690 7.15902E-01
 -1      3691 9.77725E-01
 -1      3692 1.08634E+00
 -1      3693 9.36841E-01
 -1      3694 1.26157E+00
 -1      3695 1.41396E+00
 -1      3696 1.23873E+00
 -1      3697 1.65052E+00
 -1      3698 1.89782E+00
 -1      3699 1.65052E+00
 -1      3700 2.36189E+00
 -1      3701 2.98159E+00
 -1      3702 2.35114E+00
 -1      3703 4.13543E+00
 -1      3704 5.64232E+00
 -1      3705 3.96905E+00
 -1      3706 2.15931E-01
 -1      3707 3.26136E-02
 -1      3708 3.52074E-02
 -1      3709 3.66104E-02
 -1      3710 4.37772E-02
 -1      3711 3.84058E-02
 -1      3712 4.95520E-02
 -1      3713 3.91751E-02
 -1      3714 7.60631E-02
 -1      3715 6.21383E-02
 -1      3716 5.96624E-02
 -1      3717 1.10491E-01
 -1      3718 9.22243E-02
 -1      3719 8.84099E-02
 -1      3720 1.53990E-01
 -1      3721 1.31004E-01
 -1      3722 1.25084E-01
 -1      3723 2.08476E-01
 -1      3724 1.79869E-01
 -1      3725 1.71475E-01
 -1      3726 2.75896E-01
 -1      3727 2.40860E-01
 -1      3728 2.29738E-01
 -1      3729 3.58100E-01
 -1      3730 3.16071E-01
 -1      3731 3.02297E-01
 -1      3732 4.56601E-01
 -1      3733 4.07530E-01
 -1      3734 3.91902E-01
 -1      3735 5.72136E-01
 -1      3736 5.16972E-01
 -1      3737 5.01703E-01
 -1      3738 7.08430E-01
 -1      3739 6.45314E-01
 -1      3740 6.35252E-01
 -1      3741 8.83389E-01
 -1      3742 7.95910E-01
 -1      3743 7.95910E-01
 -1      3744 1.11686E+00
 -1      3745 9.89815E-01
 -1      3746 9.89815E-01
 -1      3747 1.51830E+00
 -1      3748 1.33321E+00
 -1      3749 1.31258E+00
 -1      3750 2.95493E+00
 -1      3751 2.64259E+00
 -1      3752 2.65322E+00
 -1      3753 2.65417E+00
 -1      3754 2.47707E+00
 -1      3755 3.29965E+00
 -1      3756 3.46073E+00
 -1      3757 2.47850E-01
 -1      3758 2.38828E-01
 -1      3759 2.01162E-01
 -1      3760 1.98045E-01
 -1      3761 3.56639E-02
 -1      3762 3.41389E-02
 -1      3763 4.35648E-02
 -1      3764 1.33780E-01
 -1      3765 1.44535E-01
 -1      3766 1.55567E-01
 -1      3767 6.73522E+00
 -1      3768 6.73522E+00
 -1      3769 6.12012E+00
 -1      3770 6.12012E+00
 -1      3771 1.49353E-01
 -1      3772 1.53467E-01
 -1      3773 1.30253E-01
 -1      3774 1.81905E-01
 -1      3775 1.84085E-01
 -1      3776 5.77518E+00
 -1      3777 3.93859E+00
 -1      3778 3.29965E+00
 -1      3779 4.73756E+00
 -1      3780 7.27902E-02
 -1      3781 7.31723E-02
 -1      3782 6.44900E-02
 -1      3783 1.69316E-01
 -1      3784 1.86761E-01
 -1      3785 1.76519E-01
 -1      3786 1.83144E-01
 -1      3787 5.96834E+00
 -1      3788 5.31219E+00
 -1      3789 4.54051E+00
 -1      3790 5.96663E+00
 -1      3791 1.77058E-01
 -1      3792 1.75631E-01
 -1      3793 1.49832E-01
 -1      3794 1.25996E-01
 -1      3795 9.63524E-02
 -1      3796 1.05826E-01
 -1      3797 8.77557E-02
 -1      3798 6.85485E+00
 -1      3799 6.33542E+00
 -1      3800 1.90432E-01
 -1      3801 1.96726E-01
 -1      3802 2.30698E-01
 -1      3803 2.68078E-01
 -1      3804 2.76855E-01
 -1      3805 1.76475E-01
 -1      3806 1.35221E-01
 -1      3807 1.83048E-01
 -1      3808 3.85282E-02
 -1      3809 1.30279E-01
 -1      3810 1.38863E-01
 -1      3811 5.01055E-02
 -1      3812 5.77385E-02
 -1      3813 5.92169E-02
 -1      3814 1.19131E-01
 -1      3815 4.90760E+00
 -1      3816 1.56406E-01
 -1      3817 1.33056E-01
 -1      3818 1.46837E-01
 -1      3819 1.58715E-01
 -1      3820 4.61371E-02
 -1      3821 1.66376E-01
 -1      3822 2.00348E-01
 -1      3823 2.00348E-01
 -1      3824 1.19674E-01
 -1      3825 1.15228E-01
 -1      3826 1.12506E-01
 -1      3827 1.05807E-01
 -1      3828 1.00817E-01
 -1      3829 1.01087E-01
 -1      3830 9.35062E-02
 -1      3831 9.33742E-02
 -1      3832 8.78217E-02
 -1      3833 8.15424E-02
 -1      3834 8.29691E-02
 -1      3835 7.55641E-02
 -1      3836 6.90009E-02
 -1      3837 7.13063E-02
 -1      3838 6.41117E-02
 -1      3839 5.77123E-02
 -1      3840 6.04387E-02
 -1      3841 5.31809E-02
 -1      3842 4.71476E-02
 -1      3843 5.10180E-02
 -1      3844 4.59982E-02
 -1      3845 4.18509E-02
 -1      3846 4.53372E-02
 -1      3847 4.19635E-02
 -1      3848 4.25764E-02
 -1      3849 4.43005E-02
 -1      3850 4.42063E-02
 -1      3851 4.63163E-02
 -1      3852 4.60430E-02
 -1      3853 4.97094E-02
 -1      3854 5.38890E-02
 -1      3855 5.10658E-02
 -1      3856 6.04915E-02
 -1      3857 7.35139E-02
 -1      3858 6.10613E-02
 -1      3859 8.34310E-02
 -1      3860 1.00122E-01
 -1      3861 7.75810E-02
 -1      3862 1.15534E-01
 -1      3863 1.36880E-01
 -1      3864 1.02910E-01
 -1      3865 1.57379E-01
 -1      3866 1.84569E-01
 -1      3867 1.38820E-01
 -1      3868 2.10709E-01
 -1      3869 2.45222E-01
 -1      3870 1.85459E-01
 -1      3871 2.78581E-01
 -1      3872 3.22359E-01
 -1      3873 2.44959E-01
 -1      3874 3.65274E-01
 -1      3875 4.21043E-01
 -1      3876 3.21234E-01
 -1      3877 4.77275E-01
 -1      3878 5.49116E-01
 -1      3879 4.20381E-01
 -1      3880 6.25204E-01
 -1      3881 7.19487E-01
 -1      3882 5.52702E-01
 -1      3883 8.27440E-01
 -1      3884 9.54096E-01
 -1      3885 7.36742E-01
 -1      3886 1.11459E+00
 -1      3887 1.28982E+00
 -1      3888 1.00519E+00
 -1      3889 1.53458E+00
 -1      3890 1.77113E+00
 -1      3891 1.41044E+00
 -1      3892 2.06706E+00
 -1      3893 2.53113E+00
 -1      3894 1.95112E+00
 -1      3895 3.10124E+00
 -1      3896 4.25508E+00
 -1      3897 4.03978E+00
 -1      3898 2.81715E+00
 -1      3899 3.95680E-02
 -1      3900 4.09710E-02
 -1      3901 9.48116E-02
 -1      3902 7.86504E-02
 -1      3903 6.62924E-02
 -1      3904 5.37060E-02
 -1      3905 7.26940E-02
 -1      3906 1.79096E-01
 -1      3907 1.53217E-01
 -1      3908 2.38586E-01
 -1      3909 2.06201E-01
 -1      3910 1.87944E-01
 -1      3911 3.13222E-01
 -1      3912 2.73047E-01
 -1      3913 2.49510E-01
 -1      3914 4.06544E-01
 -1      3915 3.57113E-01
 -1      3916 3.27863E-01
 -1      3917 5.23237E-01
 -1      3918 4.62866E-01
 -1      3919 4.28077E-01
 -1      3920 6.69782E-01
 -1      3921 5.96604E-01
 -1      3922 5.57767E-01
 -1      3923 8.55172E-01
 -1      3924 7.67693E-01
 -1      3925 7.29045E-01
 -1      3926 1.09624E+00
 -1      3927 9.89815E-01
 -1      3928 9.61598E-01
 -1      3929 1.48979E+00
 -1      3930 1.27345E+00
 -1      3931 1.27345E+00
 -1      3932 3.37825E+00
 -1      3933 2.25396E+00
 -1      3934 2.21483E+00
 -1      3935 1.61346E-01
 -1      3936 1.51874E-01
 -1      3937 1.32617E-01
 -1      3938 1.29461E-01
 -1      3939 9.46733E-02
 -1      3940 9.94914E-02
 -1      3941 1.15581E-01
 -1      3942 1.12960E-01
 -1      3943 1.22439E-01
 -1      3944 1.17243E-01
 -1      3945 1.02269E-01
 -1      3946 1.31946E-01
 -1      3947 1.11434E-01
 -1      3948 1.01674E-01
 -1      3949 1.03680E-01
 -1      3950 1.09984E-01
 -1      3951 7.92223E-02
 -1      3952 1.22113E-01
 -1      3953 1.28461E-01
 -1      3954 1.04672E-01
 -1      3955 5.19880E+00
 -1      3956 4.92977E+00
 -1      3957 4.12757E-02
 -1      3958 4.76039E-02
 -1      3959 4.24379E-02
 -1      3960 1.15739E-01
 -1      3961 1.15366E-01
 -1      3962 9.92302E-02
 -1      3963 8.91664E-02
 -1      3964 1.64501E-01
 -1      3965 1.74861E-01
 -1      3966 1.54259E-01
 -1      3967 1.46815E-01
 -1      3968 2.20333E-01
 -1      3969 4.21579E-02
 -1      3970 4.06325E-02
 -1      3971 4.31977E-02
 -1      3972 4.83494E-02
 -1      3973 4.48381E-02
 -1      3974 4.69424E-02
 -1      3975 3.88799E+00
 -1      3976 4.27533E+00
 -1      3977 1.34721E-01
 -1      3978 1.36379E-01
 -1      3979 1.30058E-01
 -1      3980 1.23972E-01
 -1      3981 1.10520E-01
 -1      3982 1.39567E-01
 -1      3983 7.73311E-02
 -1      3984 8.47107E-02
 -1      3985 5.49794E-02
 -1      3986 3.96972E+00
 -1      3987 4.73756E+00
 -1      3988 3.77751E+00
 -1      3989 3.77751E+00
 -1      3990 3.37825E+00
 -1      3991 2.00348E-01
 -1      3992 1.89983E-01
 -1      3993 1.63063E-01
 -1      3994 1.69999E-01
 -1      3995 6.44757E-02
 -1      3996 7.16795E-02
 -1      3997 6.86345E-02
 -1      3998 1.30757E-01
 -1      3999 1.34380E-01
 -1      4000 9.64646E-02
 -1      4001 5.23580E-02
 -1      4002 5.91096E-02
 -1      4003 5.76168E-02
 -1      4004 1.17868E-01
 -1      4005 1.25841E-01
 -1      4006 1.04488E-01
 -1      4007 1.12328E-01
 -1      4008 1.05113E-01
 -1      4009 4.74966E-02
 -1      4010 1.29238E-01
 -1      4011 1.35023E-01
 -1      4012 1.17143E-01
 -1      4013 8.99513E-02
 -1      4014 8.52308E-02
 -1      4015 7.76664E-02
 -1      4016 7.19819E-02
 -1      4017 7.42436E-02
 -1      4018 8.03998E-02
 -1      4019 7.44215E-02
 -1      4020 7.50971E-02
 -1      4021 6.24028E-02
 -1      4022 5.75136E-02
 -1      4023 7.14964E-02
 -1      4024 5.35375E-02
 -1      4025 4.90061E-02
 -1      4026 5.55016E-02
 -1      4027 4.64866E-02
 -1      4028 4.53372E-02
 -1      4029 4.90061E-02
 -1      4030 4.43005E-02
 -1      4031 4.44131E-02
 -1      4032 4.54499E-02
 -1      4033 4.60430E-02
 -1      4034 4.76728E-02
 -1      4035 4.60430E-02
 -1      4036 5.10658E-02
 -1      4037 5.44588E-02
 -1      4038 5.10658E-02
 -1      4039 6.10613E-02
 -1      4040 6.76638E-02
 -1      4041 6.10613E-02
 -1      4042 7.71774E-02
 -1      4043 8.70945E-02
 -1      4044 7.71774E-02
 -1      4045 9.98348E-02
 -1      4046 1.15246E-01
 -1      4047 9.94312E-02
 -1      4048 1.31822E-01
 -1      4049 1.52321E-01
 -1      4050 1.28747E-01
 -1      4051 1.73486E-01
 -1      4052 1.99626E-01
 -1      4053 1.66488E-01
 -1      4054 2.26376E-01
 -1      4055 2.59736E-01
 -1      4056 2.14403E-01
 -1      4057 2.93508E-01
 -1      4058 3.36423E-01
 -1      4059 2.74925E-01
 -1      4060 3.79483E-01
 -1      4061 4.35715E-01
 -1      4062 3.51757E-01
 -1      4063 4.91924E-01
 -1      4064 5.68012E-01
 -1      4065 4.51025E-01
 -1      4066 6.44338E-01
 -1      4067 7.52291E-01
 -1      4068 5.83560E-01
 -1      4069 8.62290E-01
 -1      4070 1.02279E+00
 -1      4071 7.69885E-01
 -1      4072 1.20247E+00
 -1      4073 1.44723E+00
 -1      4074 1.05957E+00
 -1      4075 1.77464E+00
 -1      4076 2.07056E+00
 -1      4077 1.56667E+00
 -1      4078 2.29651E+00
 -1      4079 2.86662E+00
 -1      4080 3.36735E+00
 -1      4081 2.12003E+00
 -1      4082 6.03360E-02
 -1      4083 5.49794E-02
 -1      4084 3.57047E+00
 -1      4085 3.37825E+00
 -1      4086 2.49238E-01
 -1      4087 2.14776E-01
 -1      4088 1.91014E-01
 -1      4089 1.63909E-01
 -1      4090 1.90742E-01
 -1      4091 4.23868E-01
 -1      4092 3.67546E-01
 -1      4093 5.56562E-01
 -1      4094 4.83195E-01
 -1      4095 4.22663E-01
 -1      4096 7.36737E-01
 -1      4097 6.38826E-01
 -1      4098 5.64254E-01
 -1      4099 9.90184E-01
 -1      4100 8.55541E-01
 -1      4101 7.65323E-01
 -1      4102 1.35180E+00
 -1      4103 1.17459E+00
 -1      4104 1.06853E+00
 -1      4105 2.46965E+00
 -1      4106 1.70548E+00
 -1      4107 1.60662E+00
 -1      4108 3.77751E+00
 -1      4109 1.15724E-01
 -1      4110 1.01439E-01
 -1      4111 9.09353E-02
 -1      4112 9.59503E-02
 -1      4113 9.07784E-02
 -1      4114 9.79122E-02
 -1      4115 8.03539E-02
 -1      4116 3.25396E+00
 -1      4117 4.42622E-02
 -1      4118 4.31977E-02
 -1      4119 4.31197E-02
 -1      4120 4.34244E-02
 -1      4121 4.41842E-02
 -1      4122 6.38592E-02
 -1      4123 6.80480E-02
 -1      4124 1.14049E-01
 -1      4125 4.71340E-02
 -1      4126 5.18881E-02
 -1      4127 4.78159E-02
 -1      4128 2.97900E+00
 -1      4129 3.23406E-01
 -1      4130 2.79515E-01
 -1      4131 3.19197E-01
 -1      4132 1.27445E-01
 -1      4133 8.68972E-02
 -1      4134 7.57230E-02
 -1      4135 1.34380E-01
 -1      4136 8.10286E-02
 -1      4137 6.86705E-02
 -1      4138 6.86705E-02
 -1      4139 9.45386E-02
 -1      4140 9.18166E-02
 -1      4141 8.36733E-02
 -1      4142 1.45008E-01
 -1      4143 1.23736E-01
 -1      4144 1.48078E-01
 -1      4145 4.96227E-02
 -1      4146 4.69424E-02
 -1      4147 5.49794E-02
 -1      4148 1.08947E-01
 -1      4149 9.23245E-02
 -1      4150 8.83010E-02
 -1      4151 1.14387E-01
 -1      4152 7.73510E-02
 -1      4153 8.34187E-02
 -1      4154 9.66773E-02
 -1      4155 9.03559E-02
 -1      4156 6.00214E-02
 -1      4157 7.53844E-02
 -1      4158 8.11398E-02
 -1      4159 8.52668E-02
 -1      4160 8.95752E-02
 -1      4161 8.05752E-02
 -1      4162 7.14848E-02
 -1      4163 2.66249E+00
 -1      4164 1.34380E-01
 -1      4165 9.87610E-02
 -1      4166 2.44780E-01
 -1      4167 7.32489E-02
 -1      4168 7.89005E-02
 -1      4169 8.19654E-02
 -1      4170 4.69424E-02
 -1      4171 9.29976E-02
 -1      4172 2.46965E+00
 -1      4173 9.95883E-02
 -1      4174 1.02985E-01
 -1      4175 7.89058E-02
 -1      4176 8.12022E-02
 -1      4177 7.56728E-02
 -1      4178 1.02134E-01
 -1      4179 1.01832E-01
 -1      4180 8.16682E-02
 -1      4181 5.58642E-02
 -1      4182 6.12303E-02
 -1      4183 7.14964E-02
 -1      4184 9.25560E-02
 -1      4185 9.80956E-02
 -1      4186 8.70312E-02
 -1      4187 5.55016E-02
 -1      4188 2.43654E+00
 -1      4189 2.01078E-01
 -1      4190 1.77316E-01
 -1      4191 7.50971E-02
 -1      4192 8.35150E-02
 -1      4193 8.35150E-02
 -1      4194 7.14964E-02
 -1      4195 5.94777E-02
 -1      4196 5.55016E-02
 -1      4197 5.15255E-02
 -1      4198 4.90061E-02
 -1      4199 4.52964E-02
 -1      4200 4.42597E-02
 -1      4201 4.43376E-02
 -1      4202 4.59675E-02
 -1      4203 4.86477E-02
 -1      4204 5.20408E-02
 -1      4205 5.73974E-02
 -1      4206 6.39999E-02
 -1      4207 7.23345E-02
 -1      4208 8.18480E-02
 -1      4209 9.31439E-02
 -1      4210 1.05884E-01
 -1      4211 1.20674E-01
 -1      4212 1.37250E-01
 -1      4213 1.56152E-01
 -1      4214 2.27828E-01
 -1      4215 2.58105E-01
 -1      4216 2.91877E-01
 -1      4217 3.36017E-01
 -1      4218 3.79077E-01
 -1      4219 4.38403E-01
 -1      4220 4.94612E-01
 -1      4221 5.76876E-01
 -1      4222 6.53203E-01
 -1      4223 7.72007E-01
 -1      4224 8.82005E-01
 -1      4225 1.06641E+00
 -1      4226 1.24610E+00
 -1      4227 1.59978E+00
 -1      4228 1.92719E+00
 -1      4229 8.12022E-02
 -1      4230 5.81642E-02
 -1      4231 8.41148E-02
 -1      4232 9.06907E-02
 -1      4233 8.11119E-02
 -1      4234 8.76734E-02
 -1      4235 8.18079E-02
 -1      4236 7.42436E-02
 -1      4237 8.55386E-02
 -1      4238 8.36733E-02
 -1      4239 7.00784E-02
 -1      4240 8.39209E-02
 -1      4241 6.45993E-02
 -1      4242 8.70312E-02
 -1      4243 8.20679E-02
 -1      4244 8.12174E-02
 -1      4245 6.59869E-02
 -1      4246 5.40726E-02
 -1      4247 8.36733E-02
 -1      4248 8.35150E-02
 -1      4249 8.19654E-02
 -1      4250 8.26615E-02
 -1      4251 7.11416E-02
 -1      4252 6.14091E-02
 -1      4253 6.55361E-02
 -3
 9999
