    1C
    1UUSER                                                              
    1UDATE              27.october.2022                                 
    1UTIME              01:06:40                                        
    1UHOST                                                              
    1UPGM               CalculiX                                        
    1UVERSION           Version 2.17                             
    1UCOMPILETIME       Thu Jul 23 21:43:50 CEST 2020                    
    1UDIR                                                               
    1UDBN                                                               
    1UMAT    1SOLIDMATERIAL                                             
    2C                          4282                                     1
 -1         1 1.39090E+02 1.73576E+01 0.00000E+00
 -1         2 1.39644E+02 1.46285E+01 0.00000E+00
 -1         3 1.50000E+02 0.00000E+00 0.00000E+00
 -1         4 1.50000E+02 5.00000E+01 0.00000E+00
 -1         5 0.00000E+00 0.00000E+00 0.00000E+00
 -1         6 0.00000E+00 5.00000E+01 0.00000E+00
 -1         7 0.00000E+00 4.70500E+01 0.00000E+00
 -1         8 0.00000E+00 4.41000E+01 0.00000E+00
 -1         9 0.00000E+00 4.11500E+01 0.00000E+00
 -1        10 0.00000E+00 3.82000E+01 0.00000E+00
 -1        11 0.00000E+00 3.52500E+01 0.00000E+00
 -1        12 0.00000E+00 3.23500E+01 0.00000E+00
 -1        13 0.00000E+00 2.94000E+01 0.00000E+00
 -1        14 0.00000E+00 2.64500E+01 0.00000E+00
 -1        15 0.00000E+00 2.35000E+01 0.00000E+00
 -1        16 0.00000E+00 2.05500E+01 0.00000E+00
 -1        17 0.00000E+00 1.76000E+01 0.00000E+00
 -1        18 0.00000E+00 1.47000E+01 0.00000E+00
 -1        19 0.00000E+00 1.17500E+01 0.00000E+00
 -1        20 0.00000E+00 8.80000E+00 0.00000E+00
 -1        21 0.00000E+00 5.85000E+00 0.00000E+00
 -1        22 0.00000E+00 2.90000E+00 0.00000E+00
 -1        23 3.15000E+00 5.00000E+01 0.00000E+00
 -1        24 6.15000E+00 5.00000E+01 0.00000E+00
 -1        25 9.15000E+00 5.00000E+01 0.00000E+00
 -1        26 1.21500E+01 5.00000E+01 0.00000E+00
 -1        27 1.51500E+01 5.00000E+01 0.00000E+00
 -1        28 1.81500E+01 5.00000E+01 0.00000E+00
 -1        29 2.11500E+01 5.00000E+01 0.00000E+00
 -1        30 2.41500E+01 5.00000E+01 0.00000E+00
 -1        31 2.71500E+01 5.00000E+01 0.00000E+00
 -1        32 3.01500E+01 5.00000E+01 0.00000E+00
 -1        33 3.31500E+01 5.00000E+01 0.00000E+00
 -1        34 3.61500E+01 5.00000E+01 0.00000E+00
 -1        35 3.91500E+01 5.00000E+01 0.00000E+00
 -1        36 4.21500E+01 5.00000E+01 0.00000E+00
 -1        37 4.51500E+01 5.00000E+01 0.00000E+00
 -1        38 4.81500E+01 5.00000E+01 0.00000E+00
 -1        39 5.11500E+01 5.00000E+01 0.00000E+00
 -1        40 5.41500E+01 5.00000E+01 0.00000E+00
 -1        41 5.71500E+01 5.00000E+01 0.00000E+00
 -1        42 6.01500E+01 5.00000E+01 0.00000E+00
 -1        43 6.31500E+01 5.00000E+01 0.00000E+00
 -1        44 6.61500E+01 5.00000E+01 0.00000E+00
 -1        45 6.91500E+01 5.00000E+01 0.00000E+00
 -1        46 7.21500E+01 5.00000E+01 0.00000E+00
 -1        47 7.51500E+01 5.00000E+01 0.00000E+00
 -1        48 7.81500E+01 5.00000E+01 0.00000E+00
 -1        49 8.11500E+01 5.00000E+01 0.00000E+00
 -1        50 8.41500E+01 5.00000E+01 0.00000E+00
 -1        51 8.71500E+01 5.00000E+01 0.00000E+00
 -1        52 9.01500E+01 5.00000E+01 0.00000E+00
 -1        53 9.31500E+01 5.00000E+01 0.00000E+00
 -1        54 9.61500E+01 5.00000E+01 0.00000E+00
 -1        55 9.91500E+01 5.00000E+01 0.00000E+00
 -1        56 1.02150E+02 5.00000E+01 0.00000E+00
 -1        57 1.05150E+02 5.00000E+01 0.00000E+00
 -1        58 1.08150E+02 5.00000E+01 0.00000E+00
 -1        59 1.11150E+02 5.00000E+01 0.00000E+00
 -1        60 1.14150E+02 5.00000E+01 0.00000E+00
 -1        61 1.17150E+02 5.00000E+01 0.00000E+00
 -1        62 1.20150E+02 5.00000E+01 0.00000E+00
 -1        63 1.23150E+02 5.00000E+01 0.00000E+00
 -1        64 1.26150E+02 5.00000E+01 0.00000E+00
 -1        65 1.29150E+02 5.00000E+01 0.00000E+00
 -1        66 1.32150E+02 5.00000E+01 0.00000E+00
 -1        67 1.35150E+02 5.00000E+01 0.00000E+00
 -1        68 1.38150E+02 5.00000E+01 0.00000E+00
 -1        69 1.41150E+02 5.00000E+01 0.00000E+00
 -1        70 1.44150E+02 5.00000E+01 0.00000E+00
 -1        71 1.47150E+02 5.00000E+01 0.00000E+00
 -1        72 3.15000E+00 0.00000E+00 0.00000E+00
 -1        73 6.15000E+00 0.00000E+00 0.00000E+00
 -1        74 9.15000E+00 0.00000E+00 0.00000E+00
 -1        75 1.21500E+01 0.00000E+00 0.00000E+00
 -1        76 1.51500E+01 0.00000E+00 0.00000E+00
 -1        77 1.81500E+01 0.00000E+00 0.00000E+00
 -1        78 2.11500E+01 0.00000E+00 0.00000E+00
 -1        79 2.41500E+01 0.00000E+00 0.00000E+00
 -1        80 2.73000E+01 0.00000E+00 0.00000E+00
 -1        81 3.03000E+01 0.00000E+00 0.00000E+00
 -1        82 3.33000E+01 0.00000E+00 0.00000E+00
 -1        83 3.63000E+01 0.00000E+00 0.00000E+00
 -1        84 3.93000E+01 0.00000E+00 0.00000E+00
 -1        85 4.23000E+01 0.00000E+00 0.00000E+00
 -1        86 4.53000E+01 0.00000E+00 0.00000E+00
 -1        87 4.83000E+01 0.00000E+00 0.00000E+00
 -1        88 5.13000E+01 0.00000E+00 0.00000E+00
 -1        89 5.44500E+01 0.00000E+00 0.00000E+00
 -1        90 5.74500E+01 0.00000E+00 0.00000E+00
 -1        91 6.04500E+01 0.00000E+00 0.00000E+00
 -1        92 6.34500E+01 0.00000E+00 0.00000E+00
 -1        93 6.64500E+01 0.00000E+00 0.00000E+00
 -1        94 6.94500E+01 0.00000E+00 0.00000E+00
 -1        95 7.24500E+01 0.00000E+00 0.00000E+00
 -1        96 7.54500E+01 0.00000E+00 0.00000E+00
 -1        97 7.84500E+01 0.00000E+00 0.00000E+00
 -1        98 8.16000E+01 0.00000E+00 0.00000E+00
 -1        99 8.46000E+01 0.00000E+00 0.00000E+00
 -1       100 8.76000E+01 0.00000E+00 0.00000E+00
 -1       101 9.06000E+01 0.00000E+00 0.00000E+00
 -1       102 9.36000E+01 0.00000E+00 0.00000E+00
 -1       103 9.66000E+01 0.00000E+00 0.00000E+00
 -1       104 9.96000E+01 0.00000E+00 0.00000E+00
 -1       105 1.02600E+02 0.00000E+00 0.00000E+00
 -1       106 1.05600E+02 0.00000E+00 0.00000E+00
 -1       107 1.08750E+02 0.00000E+00 0.00000E+00
 -1       108 1.11750E+02 0.00000E+00 0.00000E+00
 -1       109 1.14750E+02 0.00000E+00 0.00000E+00
 -1       110 1.17750E+02 0.00000E+00 0.00000E+00
 -1       111 1.20750E+02 0.00000E+00 0.00000E+00
 -1       112 1.23750E+02 0.00000E+00 0.00000E+00
 -1       113 1.26750E+02 0.00000E+00 0.00000E+00
 -1       114 1.29750E+02 0.00000E+00 0.00000E+00
 -1       115 1.32750E+02 0.00000E+00 0.00000E+00
 -1       116 1.35300E+02 0.00000E+00 0.00000E+00
 -1       117 1.38000E+02 0.00000E+00 0.00000E+00
 -1       118 1.41000E+02 0.00000E+00 0.00000E+00
 -1       119 1.44000E+02 0.00000E+00 0.00000E+00
 -1       120 1.47000E+02 0.00000E+00 0.00000E+00
 -1       121 1.50000E+02 3.00000E+00 0.00000E+00
 -1       122 1.50000E+02 5.95000E+00 0.00000E+00
 -1       123 1.50000E+02 8.70000E+00 0.00000E+00
 -1       124 1.50000E+02 1.11500E+01 0.00000E+00
 -1       125 1.50000E+02 1.34000E+01 0.00000E+00
 -1       126 1.50000E+02 1.57500E+01 0.00000E+00
 -1       127 1.50000E+02 1.81000E+01 0.00000E+00
 -1       128 1.50000E+02 2.06000E+01 0.00000E+00
 -1       129 1.50000E+02 2.34000E+01 0.00000E+00
 -1       130 1.50000E+02 2.64000E+01 0.00000E+00
 -1       131 1.50000E+02 2.93500E+01 0.00000E+00
 -1       132 1.50000E+02 3.23000E+01 0.00000E+00
 -1       133 1.50000E+02 3.52500E+01 0.00000E+00
 -1       134 1.50000E+02 3.82000E+01 0.00000E+00
 -1       135 1.50000E+02 4.11500E+01 0.00000E+00
 -1       136 1.50000E+02 4.41000E+01 0.00000E+00
 -1       137 1.50000E+02 4.70500E+01 0.00000E+00
 -1       138 1.39503E+02 1.32287E+01 0.00000E+00
 -1       139 1.39059E+02 1.18255E+01 0.00000E+00
 -1       140 1.38293E+02 1.04946E+01 0.00000E+00
 -1       141 1.37365E+02 9.45973E+00 0.00000E+00
 -1       142 1.36126E+02 8.55605E+00 0.00000E+00
 -1       143 1.34787E+02 7.96440E+00 0.00000E+00
 -1       144 1.33320E+02 7.66122E+00 0.00000E+00
 -1       145 1.31891E+02 7.66921E+00 0.00000E+00
 -1       146 1.30475E+02 7.97311E+00 0.00000E+00
 -1       147 1.29101E+02 8.59153E+00 0.00000E+00
 -1       148 1.27728E+02 9.64530E+00 0.00000E+00
 -1       149 1.26828E+02 1.07338E+01 0.00000E+00
 -1       150 1.26151E+02 1.20145E+01 0.00000E+00
 -1       151 1.25743E+02 1.34592E+01 0.00000E+00
 -1       152 1.25649E+02 1.48963E+01 0.00000E+00
 -1       153 1.25854E+02 1.63276E+01 0.00000E+00
 -1       154 1.26332E+02 1.76531E+01 0.00000E+00
 -1       155 1.27104E+02 1.89063E+01 0.00000E+00
 -1       156 1.28131E+02 1.99789E+01 0.00000E+00
 -1       157 1.29383E+02 2.08226E+01 0.00000E+00
 -1       158 1.30714E+02 2.13570E+01 0.00000E+00
 -1       159 1.32149E+02 2.16109E+01 0.00000E+00
 -1       160 1.33577E+02 2.15662E+01 0.00000E+00
 -1       161 1.35196E+02 2.11469E+01 0.00000E+00
 -1       162 1.36791E+02 2.02679E+01 0.00000E+00
 -1       163 1.37855E+02 1.93027E+01 0.00000E+00
 -1       164 1.38597E+02 1.83122E+01 0.00000E+00
 -1       165 1.39388E+02 1.65039E+01 0.00000E+00
 -1       166 1.39576E+02 1.56009E+01 0.00000E+00
 -1       167 2.59800E+00 4.55750E+01 0.00000E+00
 -1       168 2.59800E+00 4.26250E+01 0.00000E+00
 -1       169 2.59800E+00 3.96750E+01 0.00000E+00
 -1       170 2.59800E+00 3.67250E+01 0.00000E+00
 -1       171 2.59800E+00 3.38250E+01 0.00000E+00
 -1       172 2.59800E+00 3.08750E+01 0.00000E+00
 -1       173 2.59800E+00 2.79250E+01 0.00000E+00
 -1       174 2.59800E+00 2.49750E+01 0.00000E+00
 -1       175 2.59800E+00 2.20250E+01 0.00000E+00
 -1       176 2.59800E+00 1.90750E+01 0.00000E+00
 -1       177 2.59800E+00 1.61750E+01 0.00000E+00
 -1       178 2.59800E+00 1.32250E+01 0.00000E+00
 -1       179 2.59800E+00 1.02750E+01 0.00000E+00
 -1       180 2.59800E+00 7.32500E+00 0.00000E+00
 -1       181 2.59800E+00 4.37500E+00 0.00000E+00
 -1       182 2.87400E+00 2.18750E+00 0.00000E+00
 -1       183 4.65000E+00 4.74020E+01 0.00000E+00
 -1       184 7.65000E+00 4.74020E+01 0.00000E+00
 -1       185 1.06500E+01 4.74020E+01 0.00000E+00
 -1       186 1.36500E+01 4.74020E+01 0.00000E+00
 -1       187 1.66500E+01 4.74020E+01 0.00000E+00
 -1       188 1.96500E+01 4.74020E+01 0.00000E+00
 -1       189 2.26500E+01 4.74020E+01 0.00000E+00
 -1       190 2.56500E+01 4.74020E+01 0.00000E+00
 -1       191 2.86500E+01 4.74020E+01 0.00000E+00
 -1       192 3.16500E+01 4.74020E+01 0.00000E+00
 -1       193 3.46500E+01 4.74020E+01 0.00000E+00
 -1       194 3.76500E+01 4.74020E+01 0.00000E+00
 -1       195 4.06500E+01 4.74020E+01 0.00000E+00
 -1       196 4.36500E+01 4.74020E+01 0.00000E+00
 -1       197 4.66500E+01 4.74020E+01 0.00000E+00
 -1       198 4.96500E+01 4.74020E+01 0.00000E+00
 -1       199 5.26500E+01 4.74020E+01 0.00000E+00
 -1       200 5.56500E+01 4.74020E+01 0.00000E+00
 -1       201 5.86500E+01 4.74020E+01 0.00000E+00
 -1       202 6.16500E+01 4.74020E+01 0.00000E+00
 -1       203 6.46500E+01 4.74020E+01 0.00000E+00
 -1       204 6.76500E+01 4.74020E+01 0.00000E+00
 -1       205 7.06500E+01 4.74020E+01 0.00000E+00
 -1       206 7.36500E+01 4.74020E+01 0.00000E+00
 -1       207 7.66500E+01 4.74020E+01 0.00000E+00
 -1       208 7.96500E+01 4.74020E+01 0.00000E+00
 -1       209 8.26500E+01 4.74020E+01 0.00000E+00
 -1       210 8.56500E+01 4.74020E+01 0.00000E+00
 -1       211 8.86500E+01 4.74020E+01 0.00000E+00
 -1       212 9.16500E+01 4.74020E+01 0.00000E+00
 -1       213 9.46500E+01 4.74020E+01 0.00000E+00
 -1       214 9.76500E+01 4.74020E+01 0.00000E+00
 -1       215 1.00650E+02 4.74020E+01 0.00000E+00
 -1       216 1.03650E+02 4.74020E+01 0.00000E+00
 -1       217 1.06650E+02 4.74020E+01 0.00000E+00
 -1       218 1.09650E+02 4.74020E+01 0.00000E+00
 -1       219 1.12650E+02 4.74020E+01 0.00000E+00
 -1       220 1.15650E+02 4.74020E+01 0.00000E+00
 -1       221 1.18650E+02 4.74020E+01 0.00000E+00
 -1       222 1.21650E+02 4.74020E+01 0.00000E+00
 -1       223 1.24650E+02 4.74020E+01 0.00000E+00
 -1       224 1.27650E+02 4.74020E+01 0.00000E+00
 -1       225 1.30650E+02 4.74020E+01 0.00000E+00
 -1       226 1.33650E+02 4.74020E+01 0.00000E+00
 -1       227 1.36650E+02 4.74020E+01 0.00000E+00
 -1       228 1.39650E+02 4.74020E+01 0.00000E+00
 -1       229 1.42650E+02 4.74020E+01 0.00000E+00
 -1       230 1.45650E+02 4.74020E+01 0.00000E+00
 -1       231 5.87400E+00 2.18750E+00 0.00000E+00
 -1       232 8.87400E+00 2.18750E+00 0.00000E+00
 -1       233 1.18740E+01 2.18750E+00 0.00000E+00
 -1       234 1.48740E+01 2.18750E+00 0.00000E+00
 -1       235 1.78740E+01 2.18750E+00 0.00000E+00
 -1       236 2.08740E+01 2.18750E+00 0.00000E+00
 -1       237 2.38740E+01 2.18750E+00 0.00000E+00
 -1       238 2.70240E+01 2.18750E+00 0.00000E+00
 -1       239 3.00240E+01 2.18750E+00 0.00000E+00
 -1       240 3.30240E+01 2.18750E+00 0.00000E+00
 -1       241 3.60240E+01 2.18750E+00 0.00000E+00
 -1       242 3.90240E+01 2.18750E+00 0.00000E+00
 -1       243 4.20240E+01 2.18750E+00 0.00000E+00
 -1       244 4.50240E+01 2.18750E+00 0.00000E+00
 -1       245 4.80240E+01 2.18750E+00 0.00000E+00
 -1       246 5.10240E+01 2.18750E+00 0.00000E+00
 -1       247 5.41740E+01 2.18750E+00 0.00000E+00
 -1       248 5.71740E+01 2.18750E+00 0.00000E+00
 -1       249 6.01740E+01 2.18750E+00 0.00000E+00
 -1       250 6.31740E+01 2.18750E+00 0.00000E+00
 -1       251 6.61740E+01 2.18750E+00 0.00000E+00
 -1       252 6.91740E+01 2.18750E+00 0.00000E+00
 -1       253 7.21740E+01 2.18750E+00 0.00000E+00
 -1       254 7.51740E+01 2.18750E+00 0.00000E+00
 -1       255 7.81740E+01 2.18750E+00 0.00000E+00
 -1       256 8.13240E+01 2.18750E+00 0.00000E+00
 -1       257 8.43240E+01 2.18750E+00 0.00000E+00
 -1       258 8.73240E+01 2.18750E+00 0.00000E+00
 -1       259 9.03240E+01 2.18750E+00 0.00000E+00
 -1       260 9.33240E+01 2.18750E+00 0.00000E+00
 -1       261 9.63240E+01 2.18750E+00 0.00000E+00
 -1       262 9.93240E+01 2.18750E+00 0.00000E+00
 -1       263 1.02324E+02 2.18750E+00 0.00000E+00
 -1       264 1.05324E+02 2.18750E+00 0.00000E+00
 -1       265 1.08474E+02 2.18750E+00 0.00000E+00
 -1       266 1.11474E+02 2.18750E+00 0.00000E+00
 -1       267 1.14474E+02 2.18750E+00 0.00000E+00
 -1       268 1.17474E+02 2.18750E+00 0.00000E+00
 -1       269 1.20474E+02 2.18750E+00 0.00000E+00
 -1       270 1.23474E+02 2.18750E+00 0.00000E+00
 -1       271 1.26474E+02 2.18750E+00 0.00000E+00
 -1       272 1.29474E+02 2.18750E+00 0.00000E+00
 -1       273 1.32474E+02 2.18750E+00 0.00000E+00
 -1       274 1.35024E+02 2.18750E+00 0.00000E+00
 -1       275 1.37724E+02 2.18750E+00 0.00000E+00
 -1       276 1.40724E+02 2.18750E+00 0.00000E+00
 -1       277 1.43724E+02 2.18750E+00 0.00000E+00
 -1       278 1.46724E+02 2.18750E+00 0.00000E+00
 -1       279 1.47402E+02 4.47500E+00 0.00000E+00
 -1       280 1.47402E+02 7.22500E+00 0.00000E+00
 -1       281 1.47402E+02 9.67500E+00 0.00000E+00
 -1       282 1.47402E+02 1.19250E+01 0.00000E+00
 -1       283 1.47402E+02 1.42750E+01 0.00000E+00
 -1       284 1.47402E+02 1.66250E+01 0.00000E+00
 -1       285 1.47402E+02 1.91250E+01 0.00000E+00
 -1       286 1.47402E+02 2.19250E+01 0.00000E+00
 -1       287 1.47402E+02 2.49250E+01 0.00000E+00
 -1       288 1.47402E+02 2.78750E+01 0.00000E+00
 -1       289 1.47402E+02 3.08250E+01 0.00000E+00
 -1       290 1.47402E+02 3.37750E+01 0.00000E+00
 -1       291 1.47402E+02 3.67250E+01 0.00000E+00
 -1       292 1.47402E+02 3.96750E+01 0.00000E+00
 -1       293 1.47402E+02 4.26250E+01 0.00000E+00
 -1       294 1.46526E+02 4.50135E+01 0.00000E+00
 -1       295 1.40769E+02 1.38079E+01 0.00000E+00
 -1       296 1.40506E+02 1.21392E+01 0.00000E+00
 -1       297 1.39863E+02 1.04778E+01 0.00000E+00
 -1       298 1.38732E+02 9.16757E+00 0.00000E+00
 -1       299 1.37559E+02 7.89314E+00 0.00000E+00
 -1       300 1.35980E+02 7.07451E+00 0.00000E+00
 -1       301 1.34333E+02 6.46142E+00 0.00000E+00
 -1       302 1.32598E+02 6.36904E+00 0.00000E+00
 -1       303 1.30928E+02 6.63578E+00 0.00000E+00
 -1       304 1.29222E+02 7.02393E+00 0.00000E+00
 -1       305 1.27472E+02 7.89084E+00 0.00000E+00
 -1       306 1.26344E+02 9.41676E+00 0.00000E+00
 -1       307 1.25418E+02 1.08075E+01 0.00000E+00
 -1       308 1.24699E+02 1.23846E+01 0.00000E+00
 -1       309 1.24403E+02 1.40938E+01 0.00000E+00
 -1       310 1.24468E+02 1.57950E+01 0.00000E+00
 -1       311 1.24952E+02 1.74015E+01 0.00000E+00
 -1       312 1.25614E+02 1.89596E+01 0.00000E+00
 -1       313 1.26620E+02 2.03970E+01 0.00000E+00
 -1       314 1.27893E+02 2.16843E+01 0.00000E+00
 -1       315 1.29597E+02 2.22148E+01 0.00000E+00
 -1       316 1.31205E+02 2.27603E+01 0.00000E+00
 -1       317 1.32903E+02 2.28841E+01 0.00000E+00
 -1       318 1.34732E+02 2.26924E+01 0.00000E+00
 -1       319 1.36776E+02 2.21263E+01 0.00000E+00
 -1       320 1.38187E+02 2.07369E+01 0.00000E+00
 -1       321 1.39120E+02 1.94771E+01 0.00000E+00
 -1       322 1.39687E+02 1.82712E+01 0.00000E+00
 -1       323 1.39985E+02 1.74175E+01 0.00000E+00
 -1       324 1.40330E+02 1.62290E+01 0.00000E+00
 -1       325 1.40398E+02 1.52565E+01 0.00000E+00
 -1       326 5.19600E+00 4.11500E+01 0.00000E+00
 -1       327 5.19600E+00 4.41000E+01 0.00000E+00
 -1       328 5.19600E+00 3.52750E+01 0.00000E+00
 -1       329 5.19600E+00 3.23250E+01 0.00000E+00
 -1       330 5.19600E+00 2.93750E+01 0.00000E+00
 -1       331 5.19600E+00 2.64250E+01 0.00000E+00
 -1       332 5.19600E+00 2.34750E+01 0.00000E+00
 -1       333 5.19600E+00 2.05250E+01 0.00000E+00
 -1       334 5.19600E+00 1.76250E+01 0.00000E+00
 -1       335 5.19600E+00 1.46750E+01 0.00000E+00
 -1       336 5.19600E+00 1.17250E+01 0.00000E+00
 -1       337 5.19600E+00 8.77500E+00 0.00000E+00
 -1       338 5.19600E+00 5.82500E+00 0.00000E+00
 -1       339 5.53500E+00 4.00625E+00 0.00000E+00
 -1       340 8.53500E+00 4.00625E+00 0.00000E+00
 -1       341 1.41070E+02 1.70881E+01 0.00000E+00
 -1       342 9.15000E+00 4.48040E+01 0.00000E+00
 -1       343 1.21500E+01 4.48040E+01 0.00000E+00
 -1       344 1.51500E+01 4.48040E+01 0.00000E+00
 -1       345 1.81500E+01 4.48040E+01 0.00000E+00
 -1       346 2.11500E+01 4.48040E+01 0.00000E+00
 -1       347 2.41500E+01 4.48040E+01 0.00000E+00
 -1       348 2.71500E+01 4.48040E+01 0.00000E+00
 -1       349 3.01500E+01 4.48040E+01 0.00000E+00
 -1       350 3.31500E+01 4.48040E+01 0.00000E+00
 -1       351 3.61500E+01 4.48040E+01 0.00000E+00
 -1       352 3.91500E+01 4.48040E+01 0.00000E+00
 -1       353 4.21500E+01 4.48040E+01 0.00000E+00
 -1       354 4.51500E+01 4.48040E+01 0.00000E+00
 -1       355 4.81500E+01 4.48040E+01 0.00000E+00
 -1       356 5.11500E+01 4.48040E+01 0.00000E+00
 -1       357 5.41500E+01 4.48040E+01 0.00000E+00
 -1       358 5.71500E+01 4.48040E+01 0.00000E+00
 -1       359 6.01500E+01 4.48040E+01 0.00000E+00
 -1       360 6.31500E+01 4.48040E+01 0.00000E+00
 -1       361 6.61500E+01 4.48040E+01 0.00000E+00
 -1       362 6.91500E+01 4.48040E+01 0.00000E+00
 -1       363 7.21500E+01 4.48040E+01 0.00000E+00
 -1       364 7.51500E+01 4.48040E+01 0.00000E+00
 -1       365 7.81500E+01 4.48040E+01 0.00000E+00
 -1       366 8.11500E+01 4.48040E+01 0.00000E+00
 -1       367 8.41500E+01 4.48040E+01 0.00000E+00
 -1       368 8.71500E+01 4.48040E+01 0.00000E+00
 -1       369 9.01500E+01 4.48040E+01 0.00000E+00
 -1       370 9.31500E+01 4.48040E+01 0.00000E+00
 -1       371 9.61500E+01 4.48040E+01 0.00000E+00
 -1       372 9.91500E+01 4.48040E+01 0.00000E+00
 -1       373 1.02150E+02 4.48040E+01 0.00000E+00
 -1       374 1.05150E+02 4.48040E+01 0.00000E+00
 -1       375 1.08150E+02 4.48040E+01 0.00000E+00
 -1       376 1.11150E+02 4.48040E+01 0.00000E+00
 -1       377 1.14150E+02 4.48040E+01 0.00000E+00
 -1       378 1.17150E+02 4.48040E+01 0.00000E+00
 -1       379 1.20150E+02 4.48040E+01 0.00000E+00
 -1       380 1.23150E+02 4.48040E+01 0.00000E+00
 -1       381 1.26150E+02 4.48040E+01 0.00000E+00
 -1       382 1.29150E+02 4.48040E+01 0.00000E+00
 -1       383 1.32150E+02 4.48040E+01 0.00000E+00
 -1       384 1.35150E+02 4.48040E+01 0.00000E+00
 -1       385 1.38150E+02 4.48040E+01 0.00000E+00
 -1       386 1.41150E+02 4.48040E+01 0.00000E+00
 -1       387 1.43838E+02 4.49087E+01 0.00000E+00
 -1       388 1.15350E+01 4.00625E+00 0.00000E+00
 -1       389 1.45350E+01 4.00625E+00 0.00000E+00
 -1       390 1.75350E+01 4.00625E+00 0.00000E+00
 -1       391 2.05350E+01 4.00625E+00 0.00000E+00
 -1       392 2.35350E+01 4.00625E+00 0.00000E+00
 -1       393 2.66850E+01 4.00625E+00 0.00000E+00
 -1       394 2.96850E+01 4.00625E+00 0.00000E+00
 -1       395 3.26850E+01 4.00625E+00 0.00000E+00
 -1       396 3.56850E+01 4.00625E+00 0.00000E+00
 -1       397 3.86850E+01 4.00625E+00 0.00000E+00
 -1       398 4.16850E+01 4.00625E+00 0.00000E+00
 -1       399 4.46850E+01 4.00625E+00 0.00000E+00
 -1       400 4.76850E+01 4.00625E+00 0.00000E+00
 -1       401 5.06850E+01 4.00625E+00 0.00000E+00
 -1       402 5.38350E+01 4.00625E+00 0.00000E+00
 -1       403 5.68350E+01 4.00625E+00 0.00000E+00
 -1       404 5.98350E+01 4.00625E+00 0.00000E+00
 -1       405 6.28350E+01 4.00625E+00 0.00000E+00
 -1       406 6.58350E+01 4.00625E+00 0.00000E+00
 -1       407 6.88350E+01 4.00625E+00 0.00000E+00
 -1       408 7.18350E+01 4.00625E+00 0.00000E+00
 -1       409 7.48350E+01 4.00625E+00 0.00000E+00
 -1       410 7.78350E+01 4.00625E+00 0.00000E+00
 -1       411 8.09850E+01 4.00625E+00 0.00000E+00
 -1       412 8.39850E+01 4.00625E+00 0.00000E+00
 -1       413 8.69850E+01 4.00625E+00 0.00000E+00
 -1       414 8.99850E+01 4.00625E+00 0.00000E+00
 -1       415 9.29850E+01 4.00625E+00 0.00000E+00
 -1       416 9.59850E+01 4.00625E+00 0.00000E+00
 -1       417 9.89850E+01 4.00625E+00 0.00000E+00
 -1       418 1.01985E+02 4.00625E+00 0.00000E+00
 -1       419 1.04985E+02 4.00625E+00 0.00000E+00
 -1       420 1.08135E+02 4.00625E+00 0.00000E+00
 -1       421 1.11135E+02 4.00625E+00 0.00000E+00
 -1       422 1.14135E+02 4.00625E+00 0.00000E+00
 -1       423 1.17135E+02 4.00625E+00 0.00000E+00
 -1       424 1.20135E+02 4.00625E+00 0.00000E+00
 -1       425 1.23135E+02 4.00625E+00 0.00000E+00
 -1       426 1.26135E+02 4.00625E+00 0.00000E+00
 -1       427 1.29135E+02 4.00625E+00 0.00000E+00
 -1       428 1.32135E+02 4.00625E+00 0.00000E+00
 -1       429 1.34685E+02 4.00625E+00 0.00000E+00
 -1       430 1.37385E+02 4.00625E+00 0.00000E+00
 -1       431 1.42224E+02 4.78550E+00 0.00000E+00
 -1       432 1.44813E+02 4.63025E+00 0.00000E+00
 -1       433 1.45195E+02 1.08000E+01 0.00000E+00
 -1       434 1.45195E+02 8.35000E+00 0.00000E+00
 -1       435 1.45195E+02 1.31500E+01 0.00000E+00
 -1       436 1.45195E+02 1.55000E+01 0.00000E+00
 -1       437 1.45195E+02 1.80000E+01 0.00000E+00
 -1       438 1.45195E+02 2.08000E+01 0.00000E+00
 -1       439 1.45195E+02 2.38000E+01 0.00000E+00
 -1       440 1.45195E+02 2.67500E+01 0.00000E+00
 -1       441 1.45195E+02 2.97000E+01 0.00000E+00
 -1       442 1.45195E+02 3.26500E+01 0.00000E+00
 -1       443 1.45195E+02 3.56000E+01 0.00000E+00
 -1       444 1.45195E+02 3.85500E+01 0.00000E+00
 -1       445 1.45195E+02 4.15000E+01 0.00000E+00
 -1       446 1.41773E+02 1.06933E+01 0.00000E+00
 -1       447 1.41747E+02 1.48299E+01 0.00000E+00
 -1       448 1.41989E+02 1.27605E+01 0.00000E+00
 -1       449 1.40397E+02 8.87360E+00 0.00000E+00
 -1       450 1.40772E+02 1.79418E+01 0.00000E+00
 -1       451 1.39224E+02 7.59917E+00 0.00000E+00
 -1       452 1.41408E+02 1.59590E+01 0.00000E+00
 -1       453 5.19600E+00 3.82125E+01 0.00000E+00
 -1       454 1.35638E+02 5.47466E+00 0.00000E+00
 -1       455 1.33534E+02 5.12087E+00 0.00000E+00
 -1       456 1.31865E+02 5.38761E+00 0.00000E+00
 -1       457 1.29769E+02 5.48425E+00 0.00000E+00
 -1       458 1.27660E+02 6.07077E+00 0.00000E+00
 -1       459 1.25664E+02 7.73361E+00 0.00000E+00
 -1       460 1.24732E+02 9.34706E+00 0.00000E+00
 -1       461 1.23650E+02 1.09547E+01 0.00000E+00
 -1       462 1.23274E+02 1.30175E+01 0.00000E+00
 -1       463 1.23140E+02 1.49945E+01 0.00000E+00
 -1       464 1.23309E+02 1.70203E+01 0.00000E+00
 -1       465 1.24013E+02 1.87201E+01 0.00000E+00
 -1       466 1.24918E+02 2.05178E+01 0.00000E+00
 -1       467 1.26215E+02 2.20695E+01 0.00000E+00
 -1       468 1.28285E+02 2.34271E+01 0.00000E+00
 -1       469 1.29893E+02 2.39727E+01 0.00000E+00
 -1       470 1.31960E+02 2.41150E+01 0.00000E+00
 -1       471 1.33970E+02 2.42440E+01 0.00000E+00
 -1       472 1.36254E+02 2.42128E+01 0.00000E+00
 -1       473 1.38500E+02 2.24666E+01 0.00000E+00
 -1       474 1.39686E+02 2.08721E+01 0.00000E+00
 -1       475 1.40339E+02 1.93139E+01 0.00000E+00
 -1       476 1.37405E+02 6.25873E+00 0.00000E+00
 -1       477 1.39224E+02 4.56163E+00 0.00000E+00
 -1       478 1.37978E+02 2.45531E+01 0.00000E+00
 -1       479 1.00350E+01 6.60425E+00 0.00000E+00
 -1       480 7.79400E+00 3.08500E+01 0.00000E+00
 -1       481 7.79400E+00 3.38000E+01 0.00000E+00
 -1       482 7.79400E+00 2.49500E+01 0.00000E+00
 -1       483 7.79400E+00 2.20000E+01 0.00000E+00
 -1       484 7.79400E+00 1.91000E+01 0.00000E+00
 -1       485 7.79400E+00 1.61500E+01 0.00000E+00
 -1       486 7.79400E+00 1.32000E+01 0.00000E+00
 -1       487 7.79400E+00 1.02500E+01 0.00000E+00
 -1       488 1.06500E+01 4.22060E+01 0.00000E+00
 -1       489 1.40949E+02 7.18861E+00 0.00000E+00
 -1       490 1.30350E+01 6.60425E+00 0.00000E+00
 -1       491 7.92300E+00 4.16780E+01 0.00000E+00
 -1       492 1.36500E+01 4.22060E+01 0.00000E+00
 -1       493 1.66500E+01 4.22060E+01 0.00000E+00
 -1       494 1.96500E+01 4.22060E+01 0.00000E+00
 -1       495 2.26500E+01 4.22060E+01 0.00000E+00
 -1       496 2.56500E+01 4.22060E+01 0.00000E+00
 -1       497 2.86500E+01 4.22060E+01 0.00000E+00
 -1       498 3.16500E+01 4.22060E+01 0.00000E+00
 -1       499 3.46500E+01 4.22060E+01 0.00000E+00
 -1       500 3.76500E+01 4.22060E+01 0.00000E+00
 -1       501 4.06500E+01 4.22060E+01 0.00000E+00
 -1       502 4.36500E+01 4.22060E+01 0.00000E+00
 -1       503 4.66500E+01 4.22060E+01 0.00000E+00
 -1       504 4.96500E+01 4.22060E+01 0.00000E+00
 -1       505 5.26500E+01 4.22060E+01 0.00000E+00
 -1       506 5.56500E+01 4.22060E+01 0.00000E+00
 -1       507 5.86500E+01 4.22060E+01 0.00000E+00
 -1       508 6.16500E+01 4.22060E+01 0.00000E+00
 -1       509 6.46500E+01 4.22060E+01 0.00000E+00
 -1       510 6.76500E+01 4.22060E+01 0.00000E+00
 -1       511 7.06500E+01 4.22060E+01 0.00000E+00
 -1       512 7.36500E+01 4.22060E+01 0.00000E+00
 -1       513 7.66500E+01 4.22060E+01 0.00000E+00
 -1       514 7.96500E+01 4.22060E+01 0.00000E+00
 -1       515 8.26500E+01 4.22060E+01 0.00000E+00
 -1       516 8.56500E+01 4.22060E+01 0.00000E+00
 -1       517 8.86500E+01 4.22060E+01 0.00000E+00
 -1       518 9.16500E+01 4.22060E+01 0.00000E+00
 -1       519 9.46500E+01 4.22060E+01 0.00000E+00
 -1       520 9.76500E+01 4.22060E+01 0.00000E+00
 -1       521 1.00650E+02 4.22060E+01 0.00000E+00
 -1       522 1.03650E+02 4.22060E+01 0.00000E+00
 -1       523 1.06650E+02 4.22060E+01 0.00000E+00
 -1       524 1.09650E+02 4.22060E+01 0.00000E+00
 -1       525 1.12650E+02 4.22060E+01 0.00000E+00
 -1       526 1.15650E+02 4.22060E+01 0.00000E+00
 -1       527 1.18650E+02 4.22060E+01 0.00000E+00
 -1       528 1.21650E+02 4.22060E+01 0.00000E+00
 -1       529 1.24650E+02 4.22060E+01 0.00000E+00
 -1       530 1.27650E+02 4.22060E+01 0.00000E+00
 -1       531 1.30650E+02 4.22060E+01 0.00000E+00
 -1       532 1.33650E+02 4.22060E+01 0.00000E+00
 -1       533 1.36650E+02 4.22060E+01 0.00000E+00
 -1       534 1.39650E+02 4.22060E+01 0.00000E+00
 -1       535 1.90350E+01 6.60425E+00 0.00000E+00
 -1       536 2.20350E+01 6.60425E+00 0.00000E+00
 -1       537 2.51850E+01 6.60425E+00 0.00000E+00
 -1       538 2.81850E+01 6.60425E+00 0.00000E+00
 -1       539 3.11850E+01 6.60425E+00 0.00000E+00
 -1       540 3.41850E+01 6.60425E+00 0.00000E+00
 -1       541 3.71850E+01 6.60425E+00 0.00000E+00
 -1       542 4.01850E+01 6.60425E+00 0.00000E+00
 -1       543 4.31850E+01 6.60425E+00 0.00000E+00
 -1       544 4.61850E+01 6.60425E+00 0.00000E+00
 -1       545 4.91850E+01 6.60425E+00 0.00000E+00
 -1       546 5.23350E+01 6.60425E+00 0.00000E+00
 -1       547 5.53350E+01 6.60425E+00 0.00000E+00
 -1       548 5.83350E+01 6.60425E+00 0.00000E+00
 -1       549 6.13350E+01 6.60425E+00 0.00000E+00
 -1       550 6.43350E+01 6.60425E+00 0.00000E+00
 -1       551 6.73350E+01 6.60425E+00 0.00000E+00
 -1       552 7.03350E+01 6.60425E+00 0.00000E+00
 -1       553 7.33350E+01 6.60425E+00 0.00000E+00
 -1       554 7.63350E+01 6.60425E+00 0.00000E+00
 -1       555 7.94850E+01 6.60425E+00 0.00000E+00
 -1       556 8.24850E+01 6.60425E+00 0.00000E+00
 -1       557 8.54850E+01 6.60425E+00 0.00000E+00
 -1       558 8.84850E+01 6.60425E+00 0.00000E+00
 -1       559 9.14850E+01 6.60425E+00 0.00000E+00
 -1       560 9.44850E+01 6.60425E+00 0.00000E+00
 -1       561 9.74850E+01 6.60425E+00 0.00000E+00
 -1       562 1.00485E+02 6.60425E+00 0.00000E+00
 -1       563 1.03485E+02 6.60425E+00 0.00000E+00
 -1       564 1.06635E+02 6.60425E+00 0.00000E+00
 -1       565 1.09635E+02 6.60425E+00 0.00000E+00
 -1       566 1.12635E+02 6.60425E+00 0.00000E+00
 -1       567 1.15635E+02 6.60425E+00 0.00000E+00
 -1       568 1.18635E+02 6.60425E+00 0.00000E+00
 -1       569 1.21635E+02 6.60425E+00 0.00000E+00
 -1       570 1.24635E+02 6.05652E+00 0.00000E+00
 -1       571 1.43575E+02 1.43250E+01 0.00000E+00
 -1       572 1.43324E+02 9.57500E+00 0.00000E+00
 -1       573 1.43575E+02 1.68250E+01 0.00000E+00
 -1       574 1.43492E+02 1.94000E+01 0.00000E+00
 -1       575 1.43156E+02 2.23000E+01 0.00000E+00
 -1       576 1.42989E+02 2.52750E+01 0.00000E+00
 -1       577 1.42989E+02 2.82250E+01 0.00000E+00
 -1       578 1.42989E+02 3.11750E+01 0.00000E+00
 -1       579 1.42989E+02 3.41250E+01 0.00000E+00
 -1       580 1.42989E+02 3.70750E+01 0.00000E+00
 -1       581 1.42989E+02 4.00250E+01 0.00000E+00
 -1       582 1.42377E+02 8.80612E+00 0.00000E+00
 -1       583 1.60350E+01 6.60425E+00 0.00000E+00
 -1       584 1.41861E+02 1.90394E+01 0.00000E+00
 -1       585 1.26355E+02 2.41123E+01 0.00000E+00
 -1       586 1.42159E+02 1.81857E+01 0.00000E+00
 -1       587 7.79400E+00 2.79000E+01 0.00000E+00
 -1       588 1.32855E+02 2.58911E+01 0.00000E+00
 -1       589 1.22977E+02 9.33345E+00 0.00000E+00
 -1       590 1.22022E+02 1.17235E+01 0.00000E+00
 -1       591 1.21496E+02 1.38904E+01 0.00000E+00
 -1       592 1.21515E+02 1.61494E+01 0.00000E+00
 -1       593 1.21921E+02 1.85908E+01 0.00000E+00
 -1       594 1.22827E+02 2.03885E+01 0.00000E+00
 -1       595 1.24122E+02 2.25012E+01 0.00000E+00
 -1       596 1.28592E+02 2.51655E+01 0.00000E+00
 -1       597 1.30788E+02 2.57488E+01 0.00000E+00
 -1       598 1.35138E+02 2.60997E+01 0.00000E+00
 -1       599 1.40460E+02 2.26860E+01 0.00000E+00
 -1       600 7.61550E+00 6.21462E+00 0.00000E+00
 -1       601 1.41208E+02 2.05977E+01 0.00000E+00
 -1       602 1.43409E+02 1.15671E+01 0.00000E+00
 -1       603 7.79400E+00 3.67375E+01 0.00000E+00
 -1       604 1.42069E+02 4.24145E+01 0.00000E+00
 -1       605 1.23184E+02 7.97566E+00 0.00000E+00
 -1       606 1.39938E+02 2.47726E+01 0.00000E+00
 -1       607 1.21349E+02 1.01023E+01 0.00000E+00
 -1       608 1.40855E+02 6.08035E+00 0.00000E+00
 -1       609 1.36862E+02 2.64400E+01 0.00000E+00
 -1       610 1.03920E+01 2.05500E+01 0.00000E+00
 -1       611 1.03920E+01 2.35000E+01 0.00000E+00
 -1       612 1.03920E+01 1.46750E+01 0.00000E+00
 -1       613 1.03920E+01 1.17250E+01 0.00000E+00
 -1       614 1.21500E+01 3.96080E+01 0.00000E+00
 -1       615 1.15350E+01 9.20225E+00 0.00000E+00
 -1       616 2.66850E+01 9.20225E+00 0.00000E+00
 -1       617 1.51500E+01 3.96080E+01 0.00000E+00
 -1       618 1.81500E+01 3.96080E+01 0.00000E+00
 -1       619 2.11500E+01 3.96080E+01 0.00000E+00
 -1       620 2.41500E+01 3.96080E+01 0.00000E+00
 -1       621 2.71500E+01 3.96080E+01 0.00000E+00
 -1       622 3.01500E+01 3.96080E+01 0.00000E+00
 -1       623 3.31500E+01 3.96080E+01 0.00000E+00
 -1       624 3.61500E+01 3.96080E+01 0.00000E+00
 -1       625 3.91500E+01 3.96080E+01 0.00000E+00
 -1       626 4.21500E+01 3.96080E+01 0.00000E+00
 -1       627 4.51500E+01 3.96080E+01 0.00000E+00
 -1       628 4.81500E+01 3.96080E+01 0.00000E+00
 -1       629 5.11500E+01 3.96080E+01 0.00000E+00
 -1       630 5.41500E+01 3.96080E+01 0.00000E+00
 -1       631 5.71500E+01 3.96080E+01 0.00000E+00
 -1       632 6.01500E+01 3.96080E+01 0.00000E+00
 -1       633 6.31500E+01 3.96080E+01 0.00000E+00
 -1       634 6.61500E+01 3.96080E+01 0.00000E+00
 -1       635 6.91500E+01 3.96080E+01 0.00000E+00
 -1       636 7.21500E+01 3.96080E+01 0.00000E+00
 -1       637 7.51500E+01 3.96080E+01 0.00000E+00
 -1       638 7.81500E+01 3.96080E+01 0.00000E+00
 -1       639 8.11500E+01 3.96080E+01 0.00000E+00
 -1       640 8.41500E+01 3.96080E+01 0.00000E+00
 -1       641 8.71500E+01 3.96080E+01 0.00000E+00
 -1       642 9.01500E+01 3.96080E+01 0.00000E+00
 -1       643 9.31500E+01 3.96080E+01 0.00000E+00
 -1       644 9.61500E+01 3.96080E+01 0.00000E+00
 -1       645 9.91500E+01 3.96080E+01 0.00000E+00
 -1       646 1.02150E+02 3.96080E+01 0.00000E+00
 -1       647 1.05150E+02 3.96080E+01 0.00000E+00
 -1       648 1.08150E+02 3.96080E+01 0.00000E+00
 -1       649 1.11150E+02 3.96080E+01 0.00000E+00
 -1       650 1.14150E+02 3.96080E+01 0.00000E+00
 -1       651 1.17150E+02 3.96080E+01 0.00000E+00
 -1       652 1.20150E+02 3.96080E+01 0.00000E+00
 -1       653 1.23150E+02 3.96080E+01 0.00000E+00
 -1       654 1.26150E+02 3.96080E+01 0.00000E+00
 -1       655 1.29150E+02 3.96080E+01 0.00000E+00
 -1       656 1.32150E+02 3.96080E+01 0.00000E+00
 -1       657 1.35150E+02 3.96080E+01 0.00000E+00
 -1       658 1.38150E+02 3.96080E+01 0.00000E+00
 -1       659 2.35350E+01 9.20225E+00 0.00000E+00
 -1       660 2.05350E+01 9.20225E+00 0.00000E+00
 -1       661 2.96850E+01 9.20225E+00 0.00000E+00
 -1       662 3.26850E+01 9.20225E+00 0.00000E+00
 -1       663 3.56850E+01 9.20225E+00 0.00000E+00
 -1       664 3.86850E+01 9.20225E+00 0.00000E+00
 -1       665 4.16850E+01 9.20225E+00 0.00000E+00
 -1       666 4.46850E+01 9.20225E+00 0.00000E+00
 -1       667 4.76850E+01 9.20225E+00 0.00000E+00
 -1       668 5.08350E+01 9.20225E+00 0.00000E+00
 -1       669 5.38350E+01 9.20225E+00 0.00000E+00
 -1       670 5.68350E+01 9.20225E+00 0.00000E+00
 -1       671 5.98350E+01 9.20225E+00 0.00000E+00
 -1       672 6.28350E+01 9.20225E+00 0.00000E+00
 -1       673 6.58350E+01 9.20225E+00 0.00000E+00
 -1       674 6.88350E+01 9.20225E+00 0.00000E+00
 -1       675 7.18350E+01 9.20225E+00 0.00000E+00
 -1       676 7.48350E+01 9.20225E+00 0.00000E+00
 -1       677 7.79850E+01 9.20225E+00 0.00000E+00
 -1       678 8.09850E+01 9.20225E+00 0.00000E+00
 -1       679 8.39850E+01 9.20225E+00 0.00000E+00
 -1       680 8.69850E+01 9.20225E+00 0.00000E+00
 -1       681 8.99850E+01 9.20225E+00 0.00000E+00
 -1       682 9.29850E+01 9.20225E+00 0.00000E+00
 -1       683 9.59850E+01 9.20225E+00 0.00000E+00
 -1       684 9.89850E+01 9.20225E+00 0.00000E+00
 -1       685 1.01985E+02 9.20225E+00 0.00000E+00
 -1       686 1.05135E+02 9.20225E+00 0.00000E+00
 -1       687 1.08135E+02 9.20225E+00 0.00000E+00
 -1       688 1.11135E+02 9.20225E+00 0.00000E+00
 -1       689 1.14135E+02 9.20225E+00 0.00000E+00
 -1       690 1.17135E+02 9.20225E+00 0.00000E+00
 -1       691 1.20159E+02 8.58895E+00 0.00000E+00
 -1       692 1.33840E+02 2.77034E+01 0.00000E+00
 -1       693 1.40447E+02 2.67500E+01 0.00000E+00
 -1       694 1.40391E+02 3.56000E+01 0.00000E+00
 -1       695 1.31773E+02 2.75611E+01 0.00000E+00
 -1       696 1.75350E+01 9.20225E+00 0.00000E+00
 -1       697 1.40391E+02 3.26500E+01 0.00000E+00
 -1       698 1.40419E+02 2.97000E+01 0.00000E+00
 -1       699 1.24039E+02 2.49694E+01 0.00000E+00
 -1       700 1.42586E+02 1.66729E+01 0.00000E+00
 -1       701 1.03920E+01 1.76125E+01 0.00000E+00
 -1       702 1.41319E+02 3.96405E+01 0.00000E+00
 -1       703 1.03920E+01 3.23250E+01 0.00000E+00
 -1       704 1.45350E+01 9.20225E+00 0.00000E+00
 -1       705 1.26672E+02 2.63422E+01 0.00000E+00
 -1       706 1.20255E+02 1.24418E+01 0.00000E+00
 -1       707 1.19958E+02 1.50331E+01 0.00000E+00
 -1       708 1.20693E+02 2.03364E+01 0.00000E+00
 -1       709 1.29250E+02 2.71148E+01 0.00000E+00
 -1       710 1.21988E+02 2.24491E+01 0.00000E+00
 -1       711 1.20026E+02 1.76516E+01 0.00000E+00
 -1       712 1.03920E+01 3.52625E+01 0.00000E+00
 -1       713 1.03920E+01 2.64500E+01 0.00000E+00
 -1       714 9.78035E+00 3.93914E+01 0.00000E+00
 -1       715 1.35565E+02 2.80437E+01 0.00000E+00
 -1       716 1.03920E+01 2.93875E+01 0.00000E+00
 -1       717 1.29900E+01 1.32000E+01 0.00000E+00
 -1       718 2.81850E+01 1.18003E+01 0.00000E+00
 -1       719 1.37992E+02 2.88718E+01 0.00000E+00
 -1       720 1.66500E+01 3.70100E+01 0.00000E+00
 -1       721 1.96500E+01 3.70100E+01 0.00000E+00
 -1       722 2.26500E+01 3.70100E+01 0.00000E+00
 -1       723 2.56500E+01 3.70100E+01 0.00000E+00
 -1       724 2.86500E+01 3.70100E+01 0.00000E+00
 -1       725 3.16500E+01 3.70100E+01 0.00000E+00
 -1       726 3.46500E+01 3.70100E+01 0.00000E+00
 -1       727 3.76500E+01 3.70100E+01 0.00000E+00
 -1       728 4.06500E+01 3.70100E+01 0.00000E+00
 -1       729 4.36500E+01 3.70100E+01 0.00000E+00
 -1       730 4.66500E+01 3.70100E+01 0.00000E+00
 -1       731 4.96500E+01 3.70100E+01 0.00000E+00
 -1       732 5.26500E+01 3.70100E+01 0.00000E+00
 -1       733 5.56500E+01 3.70100E+01 0.00000E+00
 -1       734 5.86500E+01 3.70100E+01 0.00000E+00
 -1       735 6.16500E+01 3.70100E+01 0.00000E+00
 -1       736 6.46500E+01 3.70100E+01 0.00000E+00
 -1       737 6.76500E+01 3.70100E+01 0.00000E+00
 -1       738 7.06500E+01 3.70100E+01 0.00000E+00
 -1       739 7.36500E+01 3.70100E+01 0.00000E+00
 -1       740 7.66500E+01 3.70100E+01 0.00000E+00
 -1       741 7.96500E+01 3.70100E+01 0.00000E+00
 -1       742 8.26500E+01 3.70100E+01 0.00000E+00
 -1       743 8.56500E+01 3.70100E+01 0.00000E+00
 -1       744 8.86500E+01 3.70100E+01 0.00000E+00
 -1       745 9.16500E+01 3.70100E+01 0.00000E+00
 -1       746 9.46500E+01 3.70100E+01 0.00000E+00
 -1       747 9.76500E+01 3.70100E+01 0.00000E+00
 -1       748 1.00650E+02 3.70100E+01 0.00000E+00
 -1       749 1.03650E+02 3.70100E+01 0.00000E+00
 -1       750 1.06650E+02 3.70100E+01 0.00000E+00
 -1       751 1.09650E+02 3.70100E+01 0.00000E+00
 -1       752 1.12650E+02 3.70100E+01 0.00000E+00
 -1       753 1.15650E+02 3.70100E+01 0.00000E+00
 -1       754 1.18650E+02 3.70100E+01 0.00000E+00
 -1       755 1.21650E+02 3.70100E+01 0.00000E+00
 -1       756 1.24650E+02 3.70100E+01 0.00000E+00
 -1       757 1.27650E+02 3.70100E+01 0.00000E+00
 -1       758 1.30650E+02 3.70100E+01 0.00000E+00
 -1       759 1.33650E+02 3.70100E+01 0.00000E+00
 -1       760 1.36650E+02 3.70100E+01 0.00000E+00
 -1       761 2.50350E+01 1.18003E+01 0.00000E+00
 -1       762 3.41850E+01 1.18003E+01 0.00000E+00
 -1       763 3.71850E+01 1.18003E+01 0.00000E+00
 -1       764 4.01850E+01 1.18003E+01 0.00000E+00
 -1       765 4.31850E+01 1.18003E+01 0.00000E+00
 -1       766 4.61850E+01 1.18003E+01 0.00000E+00
 -1       767 4.93350E+01 1.18003E+01 0.00000E+00
 -1       768 5.23350E+01 1.18003E+01 0.00000E+00
 -1       769 5.53350E+01 1.18003E+01 0.00000E+00
 -1       770 5.83350E+01 1.18003E+01 0.00000E+00
 -1       771 6.13350E+01 1.18003E+01 0.00000E+00
 -1       772 6.43350E+01 1.18003E+01 0.00000E+00
 -1       773 6.73350E+01 1.18003E+01 0.00000E+00
 -1       774 7.03350E+01 1.18003E+01 0.00000E+00
 -1       775 7.33350E+01 1.18003E+01 0.00000E+00
 -1       776 7.64850E+01 1.18003E+01 0.00000E+00
 -1       777 7.94850E+01 1.18003E+01 0.00000E+00
 -1       778 8.24850E+01 1.18003E+01 0.00000E+00
 -1       779 8.54850E+01 1.18003E+01 0.00000E+00
 -1       780 8.84850E+01 1.18003E+01 0.00000E+00
 -1       781 9.14850E+01 1.18003E+01 0.00000E+00
 -1       782 9.44850E+01 1.18003E+01 0.00000E+00
 -1       783 9.74850E+01 1.18003E+01 0.00000E+00
 -1       784 1.00485E+02 1.18003E+01 0.00000E+00
 -1       785 1.03635E+02 1.18003E+01 0.00000E+00
 -1       786 1.06635E+02 1.18003E+01 0.00000E+00
 -1       787 1.09635E+02 1.18003E+01 0.00000E+00
 -1       788 1.12635E+02 1.18003E+01 0.00000E+00
 -1       789 1.15635E+02 1.18003E+01 0.00000E+00
 -1       790 1.19096E+02 1.04748E+01 0.00000E+00
 -1       791 3.11850E+01 1.18003E+01 0.00000E+00
 -1       792 1.32678E+02 2.95105E+01 0.00000E+00
 -1       793 1.90350E+01 1.18003E+01 0.00000E+00
 -1       794 1.37793E+02 3.41250E+01 0.00000E+00
 -1       795 1.36500E+01 3.70100E+01 0.00000E+00
 -1       796 1.17943E+02 1.63959E+01 0.00000E+00
 -1       797 1.29900E+01 2.20250E+01 0.00000E+00
 -1       798 1.24330E+02 2.76223E+01 0.00000E+00
 -1       799 1.21293E+02 2.51091E+01 0.00000E+00
 -1       800 1.37625E+01 1.12011E+01 0.00000E+00
 -1       801 1.18070E+02 1.35040E+01 0.00000E+00
 -1       802 1.18207E+02 1.95280E+01 0.00000E+00
 -1       803 1.19593E+02 2.24646E+01 0.00000E+00
 -1       804 2.20350E+01 1.18003E+01 0.00000E+00
 -1       805 1.27372E+02 2.86925E+01 0.00000E+00
 -1       806 1.30184E+02 2.91919E+01 0.00000E+00
 -1       807 1.29900E+01 2.49750E+01 0.00000E+00
 -1       808 1.21584E+02 2.77619E+01 0.00000E+00
 -1       809 1.29900E+01 1.61375E+01 0.00000E+00
 -1       810 1.34402E+02 2.98508E+01 0.00000E+00
 -1       811 1.29900E+01 3.37938E+01 0.00000E+00
 -1       812 1.37892E+02 3.14984E+01 0.00000E+00
 -1       813 1.29900E+01 1.90875E+01 0.00000E+00
 -1       814 1.29900E+01 3.08563E+01 0.00000E+00
 -1       815 1.63988E+01 1.15007E+01 0.00000E+00
 -1       816 1.25059E+02 3.04076E+01 0.00000E+00
 -1       817 1.81500E+01 3.44120E+01 0.00000E+00
 -1       818 2.11500E+01 3.44120E+01 0.00000E+00
 -1       819 2.41500E+01 3.44120E+01 0.00000E+00
 -1       820 2.71500E+01 3.44120E+01 0.00000E+00
 -1       821 3.01500E+01 3.44120E+01 0.00000E+00
 -1       822 3.31500E+01 3.44120E+01 0.00000E+00
 -1       823 3.61500E+01 3.44120E+01 0.00000E+00
 -1       824 3.91500E+01 3.44120E+01 0.00000E+00
 -1       825 4.21500E+01 3.44120E+01 0.00000E+00
 -1       826 4.51500E+01 3.44120E+01 0.00000E+00
 -1       827 4.81500E+01 3.44120E+01 0.00000E+00
 -1       828 5.11500E+01 3.44120E+01 0.00000E+00
 -1       829 5.41500E+01 3.44120E+01 0.00000E+00
 -1       830 5.71500E+01 3.44120E+01 0.00000E+00
 -1       831 6.01500E+01 3.44120E+01 0.00000E+00
 -1       832 6.31500E+01 3.44120E+01 0.00000E+00
 -1       833 6.61500E+01 3.44120E+01 0.00000E+00
 -1       834 6.91500E+01 3.44120E+01 0.00000E+00
 -1       835 7.21500E+01 3.44120E+01 0.00000E+00
 -1       836 7.51500E+01 3.44120E+01 0.00000E+00
 -1       837 7.81500E+01 3.44120E+01 0.00000E+00
 -1       838 8.11500E+01 3.44120E+01 0.00000E+00
 -1       839 8.41500E+01 3.44120E+01 0.00000E+00
 -1       840 8.71500E+01 3.44120E+01 0.00000E+00
 -1       841 9.01500E+01 3.44120E+01 0.00000E+00
 -1       842 9.31500E+01 3.44120E+01 0.00000E+00
 -1       843 9.61500E+01 3.44120E+01 0.00000E+00
 -1       844 9.91500E+01 3.44120E+01 0.00000E+00
 -1       845 1.02150E+02 3.44120E+01 0.00000E+00
 -1       846 1.05150E+02 3.44120E+01 0.00000E+00
 -1       847 1.08150E+02 3.44120E+01 0.00000E+00
 -1       848 1.11150E+02 3.44120E+01 0.00000E+00
 -1       849 1.14150E+02 3.44120E+01 0.00000E+00
 -1       850 1.17150E+02 3.44120E+01 0.00000E+00
 -1       851 1.20150E+02 3.44120E+01 0.00000E+00
 -1       852 1.23150E+02 3.44120E+01 0.00000E+00
 -1       853 1.26150E+02 3.44120E+01 0.00000E+00
 -1       854 1.29150E+02 3.44120E+01 0.00000E+00
 -1       855 1.32150E+02 3.44120E+01 0.00000E+00
 -1       856 1.34971E+02 3.42685E+01 0.00000E+00
 -1       857 2.66100E+01 1.43982E+01 0.00000E+00
 -1       858 3.86850E+01 1.43982E+01 0.00000E+00
 -1       859 3.56850E+01 1.43982E+01 0.00000E+00
 -1       860 4.46850E+01 1.43982E+01 0.00000E+00
 -1       861 4.78350E+01 1.43982E+01 0.00000E+00
 -1       862 5.08350E+01 1.43982E+01 0.00000E+00
 -1       863 5.38350E+01 1.43982E+01 0.00000E+00
 -1       864 5.68350E+01 1.43982E+01 0.00000E+00
 -1       865 5.98350E+01 1.43982E+01 0.00000E+00
 -1       866 6.28350E+01 1.43982E+01 0.00000E+00
 -1       867 6.58350E+01 1.43982E+01 0.00000E+00
 -1       868 6.88350E+01 1.43982E+01 0.00000E+00
 -1       869 7.18350E+01 1.43982E+01 0.00000E+00
 -1       870 7.49850E+01 1.43982E+01 0.00000E+00
 -1       871 7.79850E+01 1.43982E+01 0.00000E+00
 -1       872 8.09850E+01 1.43982E+01 0.00000E+00
 -1       873 8.39850E+01 1.43982E+01 0.00000E+00
 -1       874 8.69850E+01 1.43982E+01 0.00000E+00
 -1       875 8.99850E+01 1.43982E+01 0.00000E+00
 -1       876 9.29850E+01 1.43982E+01 0.00000E+00
 -1       877 9.59850E+01 1.43982E+01 0.00000E+00
 -1       878 9.89850E+01 1.43982E+01 0.00000E+00
 -1       879 1.02135E+02 1.43982E+01 0.00000E+00
 -1       880 1.05135E+02 1.43982E+01 0.00000E+00
 -1       881 1.08135E+02 1.43982E+01 0.00000E+00
 -1       882 1.11135E+02 1.43982E+01 0.00000E+00
 -1       883 1.14135E+02 1.43982E+01 0.00000E+00
 -1       884 3.26850E+01 1.43982E+01 0.00000E+00
 -1       885 4.16850E+01 1.43982E+01 0.00000E+00
 -1       886 1.16742E+02 2.20142E+01 0.00000E+00
 -1       887 1.29900E+01 2.79188E+01 0.00000E+00
 -1       888 1.55700E+01 3.41029E+01 0.00000E+00
 -1       889 2.96850E+01 1.43982E+01 0.00000E+00
 -1       890 1.31150E+02 3.15511E+01 0.00000E+00
 -1       891 1.28390E+02 3.11258E+01 0.00000E+00
 -1       892 1.15698E+02 1.81625E+01 0.00000E+00
 -1       893 2.05350E+01 1.43982E+01 0.00000E+00
 -1       894 1.18437E+02 2.50771E+01 0.00000E+00
 -1       895 2.35350E+01 1.43982E+01 0.00000E+00
 -1       896 1.36147E+02 3.06746E+01 0.00000E+00
 -1       897 1.22314E+02 3.05473E+01 0.00000E+00
 -1       898 1.55880E+01 1.46687E+01 0.00000E+00
 -1       899 1.55880E+01 2.05562E+01 0.00000E+00
 -1       900 1.55700E+01 3.11654E+01 0.00000E+00
 -1       901 1.32874E+02 3.18914E+01 0.00000E+00
 -1       902 1.18727E+02 2.77300E+01 0.00000E+00
 -1       903 1.78988E+01 1.40987E+01 0.00000E+00
 -1       904 1.55880E+01 2.35063E+01 0.00000E+00
 -1       905 1.96500E+01 3.18140E+01 0.00000E+00
 -1       906 2.26500E+01 3.18140E+01 0.00000E+00
 -1       907 2.56500E+01 3.18140E+01 0.00000E+00
 -1       908 2.86500E+01 3.18140E+01 0.00000E+00
 -1       909 3.16500E+01 3.18140E+01 0.00000E+00
 -1       910 3.46500E+01 3.18140E+01 0.00000E+00
 -1       911 3.76500E+01 3.18140E+01 0.00000E+00
 -1       912 4.06500E+01 3.18140E+01 0.00000E+00
 -1       913 4.36500E+01 3.18140E+01 0.00000E+00
 -1       914 4.66500E+01 3.18140E+01 0.00000E+00
 -1       915 4.96500E+01 3.18140E+01 0.00000E+00
 -1       916 5.26500E+01 3.18140E+01 0.00000E+00
 -1       917 5.56500E+01 3.18140E+01 0.00000E+00
 -1       918 5.86500E+01 3.18140E+01 0.00000E+00
 -1       919 6.16500E+01 3.18140E+01 0.00000E+00
 -1       920 6.46500E+01 3.18140E+01 0.00000E+00
 -1       921 6.76500E+01 3.18140E+01 0.00000E+00
 -1       922 7.06500E+01 3.18140E+01 0.00000E+00
 -1       923 7.36500E+01 3.18140E+01 0.00000E+00
 -1       924 7.66500E+01 3.18140E+01 0.00000E+00
 -1       925 7.96500E+01 3.18140E+01 0.00000E+00
 -1       926 8.26500E+01 3.18140E+01 0.00000E+00
 -1       927 8.56500E+01 3.18140E+01 0.00000E+00
 -1       928 8.86500E+01 3.18140E+01 0.00000E+00
 -1       929 9.16500E+01 3.18140E+01 0.00000E+00
 -1       930 9.46500E+01 3.18140E+01 0.00000E+00
 -1       931 9.76500E+01 3.18140E+01 0.00000E+00
 -1       932 1.00650E+02 3.18140E+01 0.00000E+00
 -1       933 1.03650E+02 3.18140E+01 0.00000E+00
 -1       934 1.06650E+02 3.18140E+01 0.00000E+00
 -1       935 1.09650E+02 3.18140E+01 0.00000E+00
 -1       936 1.12650E+02 3.18140E+01 0.00000E+00
 -1       937 1.15650E+02 3.18140E+01 0.00000E+00
 -1       938 1.18650E+02 3.18140E+01 0.00000E+00
 -1       939 4.93350E+01 1.69963E+01 0.00000E+00
 -1       940 4.61850E+01 1.69963E+01 0.00000E+00
 -1       941 5.53350E+01 1.69963E+01 0.00000E+00
 -1       942 5.83350E+01 1.69963E+01 0.00000E+00
 -1       943 6.13350E+01 1.69963E+01 0.00000E+00
 -1       944 6.43350E+01 1.69963E+01 0.00000E+00
 -1       945 6.73350E+01 1.69963E+01 0.00000E+00
 -1       946 7.03350E+01 1.69963E+01 0.00000E+00
 -1       947 7.34850E+01 1.69963E+01 0.00000E+00
 -1       948 7.64850E+01 1.69963E+01 0.00000E+00
 -1       949 7.94850E+01 1.69963E+01 0.00000E+00
 -1       950 8.24850E+01 1.69963E+01 0.00000E+00
 -1       951 8.54850E+01 1.69963E+01 0.00000E+00
 -1       952 8.84850E+01 1.69963E+01 0.00000E+00
 -1       953 9.14850E+01 1.69963E+01 0.00000E+00
 -1       954 9.44850E+01 1.69963E+01 0.00000E+00
 -1       955 9.74850E+01 1.69963E+01 0.00000E+00
 -1       956 1.00635E+02 1.69963E+01 0.00000E+00
 -1       957 1.03635E+02 1.69963E+01 0.00000E+00
 -1       958 1.06635E+02 1.69963E+01 0.00000E+00
 -1       959 1.09635E+02 1.69963E+01 0.00000E+00
 -1       960 1.12666E+02 1.75794E+01 0.00000E+00
 -1       961 1.55880E+01 1.76125E+01 0.00000E+00
 -1       962 3.41850E+01 1.69963E+01 0.00000E+00
 -1       963 2.81475E+01 1.69963E+01 0.00000E+00
 -1       964 2.50725E+01 1.69963E+01 0.00000E+00
 -1       965 1.76100E+01 3.14897E+01 0.00000E+00
 -1       966 1.55880E+01 2.64500E+01 0.00000E+00
 -1       967 5.23350E+01 1.69963E+01 0.00000E+00
 -1       968 3.11850E+01 1.69963E+01 0.00000E+00
 -1       969 3.71850E+01 1.69963E+01 0.00000E+00
 -1       970 1.15356E+02 2.47814E+01 0.00000E+00
 -1       971 1.13713E+02 2.07684E+01 0.00000E+00
 -1       972 1.55790E+01 2.88077E+01 0.00000E+00
 -1       973 2.20725E+01 1.69963E+01 0.00000E+00
 -1       974 4.01850E+01 1.69963E+01 0.00000E+00
 -1       975 1.81860E+01 1.90844E+01 0.00000E+00
 -1       976 4.31850E+01 1.69963E+01 0.00000E+00
 -1       977 1.18689E+02 2.97720E+01 0.00000E+00
 -1       978 1.90679E+01 1.70204E+01 0.00000E+00
 -1       979 1.81860E+01 2.20344E+01 0.00000E+00
 -1       980 1.15646E+02 2.74343E+01 0.00000E+00
 -1       981 2.41500E+01 2.92160E+01 0.00000E+00
 -1       982 2.71500E+01 2.92160E+01 0.00000E+00
 -1       983 3.01500E+01 2.92160E+01 0.00000E+00
 -1       984 3.31500E+01 2.92160E+01 0.00000E+00
 -1       985 3.61500E+01 2.92160E+01 0.00000E+00
 -1       986 3.91500E+01 2.92160E+01 0.00000E+00
 -1       987 4.21500E+01 2.92160E+01 0.00000E+00
 -1       988 4.51500E+01 2.92160E+01 0.00000E+00
 -1       989 4.81500E+01 2.92160E+01 0.00000E+00
 -1       990 5.11500E+01 2.92160E+01 0.00000E+00
 -1       991 5.41500E+01 2.92160E+01 0.00000E+00
 -1       992 5.71500E+01 2.92160E+01 0.00000E+00
 -1       993 6.01500E+01 2.92160E+01 0.00000E+00
 -1       994 6.31500E+01 2.92160E+01 0.00000E+00
 -1       995 6.61500E+01 2.92160E+01 0.00000E+00
 -1       996 6.91500E+01 2.92160E+01 0.00000E+00
 -1       997 7.21500E+01 2.92160E+01 0.00000E+00
 -1       998 7.51500E+01 2.92160E+01 0.00000E+00
 -1       999 7.81500E+01 2.92160E+01 0.00000E+00
 -1      1000 8.11500E+01 2.92160E+01 0.00000E+00
 -1      1001 8.41500E+01 2.92160E+01 0.00000E+00
 -1      1002 8.71500E+01 2.92160E+01 0.00000E+00
 -1      1003 9.01500E+01 2.92160E+01 0.00000E+00
 -1      1004 9.31500E+01 2.92160E+01 0.00000E+00
 -1      1005 9.61500E+01 2.92160E+01 0.00000E+00
 -1      1006 9.91500E+01 2.92160E+01 0.00000E+00
 -1      1007 1.02150E+02 2.92160E+01 0.00000E+00
 -1      1008 1.05150E+02 2.92160E+01 0.00000E+00
 -1      1009 1.08150E+02 2.92160E+01 0.00000E+00
 -1      1010 1.11150E+02 2.92160E+01 0.00000E+00
 -1      1011 3.26850E+01 1.95942E+01 0.00000E+00
 -1      1012 4.77600E+01 1.95942E+01 0.00000E+00
 -1      1013 5.98350E+01 1.95942E+01 0.00000E+00
 -1      1014 5.68350E+01 1.95942E+01 0.00000E+00
 -1      1015 6.58350E+01 1.95942E+01 0.00000E+00
 -1      1016 6.88350E+01 1.95942E+01 0.00000E+00
 -1      1017 7.19850E+01 1.95942E+01 0.00000E+00
 -1      1018 7.49850E+01 1.95942E+01 0.00000E+00
 -1      1019 7.79850E+01 1.95942E+01 0.00000E+00
 -1      1020 8.09850E+01 1.95942E+01 0.00000E+00
 -1      1021 8.39850E+01 1.95942E+01 0.00000E+00
 -1      1022 8.69850E+01 1.95942E+01 0.00000E+00
 -1      1023 8.99850E+01 1.95942E+01 0.00000E+00
 -1      1024 9.29850E+01 1.95942E+01 0.00000E+00
 -1      1025 9.59850E+01 1.95942E+01 0.00000E+00
 -1      1026 9.91350E+01 1.95942E+01 0.00000E+00
 -1      1027 1.02135E+02 1.95942E+01 0.00000E+00
 -1      1028 1.05135E+02 1.95942E+01 0.00000E+00
 -1      1029 1.08135E+02 1.95942E+01 0.00000E+00
 -1      1030 1.10924E+02 2.01813E+01 0.00000E+00
 -1      1031 2.35725E+01 1.95942E+01 0.00000E+00
 -1      1032 2.08792E+01 1.93393E+01 0.00000E+00
 -1      1033 6.28350E+01 1.95942E+01 0.00000E+00
 -1      1034 2.11500E+01 2.92160E+01 0.00000E+00
 -1      1035 1.81860E+01 2.49781E+01 0.00000E+00
 -1      1036 1.12130E+02 2.37592E+01 0.00000E+00
 -1      1037 2.96475E+01 1.95942E+01 0.00000E+00
 -1      1038 3.56850E+01 1.95942E+01 0.00000E+00
 -1      1039 2.66100E+01 1.95942E+01 0.00000E+00
 -1      1040 4.47600E+01 1.95942E+01 0.00000E+00
 -1      1041 5.38350E+01 1.95942E+01 0.00000E+00
 -1      1042 3.86850E+01 1.95942E+01 0.00000E+00
 -1      1043 1.91100E+01 2.88917E+01 0.00000E+00
 -1      1044 1.73445E+01 2.88497E+01 0.00000E+00
 -1      1045 5.07600E+01 1.95942E+01 0.00000E+00
 -1      1046 1.11640E+02 2.64876E+01 0.00000E+00
 -1      1047 2.19810E+01 2.20532E+01 0.00000E+00
 -1      1048 2.86500E+01 2.66180E+01 0.00000E+00
 -1      1049 3.16500E+01 2.66180E+01 0.00000E+00
 -1      1050 3.46500E+01 2.66180E+01 0.00000E+00
 -1      1051 3.76500E+01 2.66180E+01 0.00000E+00
 -1      1052 4.06500E+01 2.66180E+01 0.00000E+00
 -1      1053 4.36500E+01 2.66180E+01 0.00000E+00
 -1      1054 4.66500E+01 2.66180E+01 0.00000E+00
 -1      1055 4.96500E+01 2.66180E+01 0.00000E+00
 -1      1056 5.26500E+01 2.66180E+01 0.00000E+00
 -1      1057 5.56500E+01 2.66180E+01 0.00000E+00
 -1      1058 5.86500E+01 2.66180E+01 0.00000E+00
 -1      1059 6.16500E+01 2.66180E+01 0.00000E+00
 -1      1060 6.46500E+01 2.66180E+01 0.00000E+00
 -1      1061 6.76500E+01 2.66180E+01 0.00000E+00
 -1      1062 7.06500E+01 2.66180E+01 0.00000E+00
 -1      1063 7.36500E+01 2.66180E+01 0.00000E+00
 -1      1064 7.66500E+01 2.66180E+01 0.00000E+00
 -1      1065 7.96500E+01 2.66180E+01 0.00000E+00
 -1      1066 8.26500E+01 2.66180E+01 0.00000E+00
 -1      1067 8.56500E+01 2.66180E+01 0.00000E+00
 -1      1068 8.86500E+01 2.66180E+01 0.00000E+00
 -1      1069 9.16500E+01 2.66180E+01 0.00000E+00
 -1      1070 9.46500E+01 2.66180E+01 0.00000E+00
 -1      1071 9.76500E+01 2.66180E+01 0.00000E+00
 -1      1072 1.00650E+02 2.66180E+01 0.00000E+00
 -1      1073 1.03650E+02 2.66180E+01 0.00000E+00
 -1      1074 1.06650E+02 2.66180E+01 0.00000E+00
 -1      1075 1.09145E+02 2.65528E+01 0.00000E+00
 -1      1076 1.09065E+02 2.28001E+01 0.00000E+00
 -1      1077 3.41850E+01 2.21922E+01 0.00000E+00
 -1      1078 2.26500E+01 2.66180E+01 0.00000E+00
 -1      1079 7.34850E+01 2.21922E+01 0.00000E+00
 -1      1080 7.03350E+01 2.21922E+01 0.00000E+00
 -1      1081 6.73350E+01 2.21922E+01 0.00000E+00
 -1      1082 7.64850E+01 2.21922E+01 0.00000E+00
 -1      1083 7.94850E+01 2.21922E+01 0.00000E+00
 -1      1084 8.24850E+01 2.21922E+01 0.00000E+00
 -1      1085 8.54850E+01 2.21922E+01 0.00000E+00
 -1      1086 8.84850E+01 2.21922E+01 0.00000E+00
 -1      1087 9.14850E+01 2.21922E+01 0.00000E+00
 -1      1088 9.44850E+01 2.21922E+01 0.00000E+00
 -1      1089 9.76350E+01 2.21922E+01 0.00000E+00
 -1      1090 1.00635E+02 2.21922E+01 0.00000E+00
 -1      1091 1.03635E+02 2.21922E+01 0.00000E+00
 -1      1092 2.07840E+01 2.35063E+01 0.00000E+00
 -1      1093 4.16850E+01 1.95942E+01 0.00000E+00
 -1      1094 5.83350E+01 2.21922E+01 0.00000E+00
 -1      1095 6.43350E+01 2.21922E+01 0.00000E+00
 -1      1096 2.56500E+01 2.66180E+01 0.00000E+00
 -1      1097 3.11475E+01 2.21922E+01 0.00000E+00
 -1      1098 6.13350E+01 2.21922E+01 0.00000E+00
 -1      1099 2.07656E+01 2.65026E+01 0.00000E+00
 -1      1100 3.71850E+01 2.21922E+01 0.00000E+00
 -1      1101 2.50185E+01 2.20532E+01 0.00000E+00
 -1      1102 4.62600E+01 2.21922E+01 0.00000E+00
 -1      1103 5.53350E+01 2.21922E+01 0.00000E+00
 -1      1104 2.81100E+01 2.21922E+01 0.00000E+00
 -1      1105 1.06635E+02 2.21922E+01 0.00000E+00
 -1      1106 1.09105E+02 2.46764E+01 0.00000E+00
 -1      1107 4.92600E+01 2.21922E+01 0.00000E+00
 -1      1108 4.21500E+01 2.40200E+01 0.00000E+00
 -1      1109 5.41500E+01 2.40200E+01 0.00000E+00
 -1      1110 2.28921E+01 2.42779E+01 0.00000E+00
 -1      1111 5.22975E+01 2.21922E+01 0.00000E+00
 -1      1112 4.01850E+01 2.21922E+01 0.00000E+00
 -1      1113 0.00000E+00 4.85250E+01 0.00000E+00
 -1      1114 0.00000E+00 4.55750E+01 0.00000E+00
 -1      1115 0.00000E+00 4.26250E+01 0.00000E+00
 -1      1116 0.00000E+00 3.96750E+01 0.00000E+00
 -1      1117 0.00000E+00 3.67250E+01 0.00000E+00
 -1      1118 0.00000E+00 3.38000E+01 0.00000E+00
 -1      1119 0.00000E+00 3.08750E+01 0.00000E+00
 -1      1120 0.00000E+00 2.79250E+01 0.00000E+00
 -1      1121 0.00000E+00 2.49750E+01 0.00000E+00
 -1      1122 0.00000E+00 2.20250E+01 0.00000E+00
 -1      1123 0.00000E+00 1.90750E+01 0.00000E+00
 -1      1124 0.00000E+00 1.61500E+01 0.00000E+00
 -1      1125 0.00000E+00 1.32250E+01 0.00000E+00
 -1      1126 0.00000E+00 1.02750E+01 0.00000E+00
 -1      1127 0.00000E+00 7.32500E+00 0.00000E+00
 -1      1128 0.00000E+00 4.37500E+00 0.00000E+00
 -1      1129 0.00000E+00 1.45000E+00 0.00000E+00
 -1      1130 1.57500E+00 5.00000E+01 0.00000E+00
 -1      1131 4.65000E+00 5.00000E+01 0.00000E+00
 -1      1132 7.65000E+00 5.00000E+01 0.00000E+00
 -1      1133 1.06500E+01 5.00000E+01 0.00000E+00
 -1      1134 1.36500E+01 5.00000E+01 0.00000E+00
 -1      1135 1.66500E+01 5.00000E+01 0.00000E+00
 -1      1136 1.96500E+01 5.00000E+01 0.00000E+00
 -1      1137 2.26500E+01 5.00000E+01 0.00000E+00
 -1      1138 2.56500E+01 5.00000E+01 0.00000E+00
 -1      1139 2.86500E+01 5.00000E+01 0.00000E+00
 -1      1140 3.16500E+01 5.00000E+01 0.00000E+00
 -1      1141 3.46500E+01 5.00000E+01 0.00000E+00
 -1      1142 3.76500E+01 5.00000E+01 0.00000E+00
 -1      1143 4.06500E+01 5.00000E+01 0.00000E+00
 -1      1144 4.36500E+01 5.00000E+01 0.00000E+00
 -1      1145 4.66500E+01 5.00000E+01 0.00000E+00
 -1      1146 4.96500E+01 5.00000E+01 0.00000E+00
 -1      1147 5.26500E+01 5.00000E+01 0.00000E+00
 -1      1148 5.56500E+01 5.00000E+01 0.00000E+00
 -1      1149 5.86500E+01 5.00000E+01 0.00000E+00
 -1      1150 6.16500E+01 5.00000E+01 0.00000E+00
 -1      1151 6.46500E+01 5.00000E+01 0.00000E+00
 -1      1152 6.76500E+01 5.00000E+01 0.00000E+00
 -1      1153 7.06500E+01 5.00000E+01 0.00000E+00
 -1      1154 7.36500E+01 5.00000E+01 0.00000E+00
 -1      1155 7.66500E+01 5.00000E+01 0.00000E+00
 -1      1156 7.96500E+01 5.00000E+01 0.00000E+00
 -1      1157 8.26500E+01 5.00000E+01 0.00000E+00
 -1      1158 8.56500E+01 5.00000E+01 0.00000E+00
 -1      1159 8.86500E+01 5.00000E+01 0.00000E+00
 -1      1160 9.16500E+01 5.00000E+01 0.00000E+00
 -1      1161 9.46500E+01 5.00000E+01 0.00000E+00
 -1      1162 9.76500E+01 5.00000E+01 0.00000E+00
 -1      1163 1.00650E+02 5.00000E+01 0.00000E+00
 -1      1164 1.03650E+02 5.00000E+01 0.00000E+00
 -1      1165 1.06650E+02 5.00000E+01 0.00000E+00
 -1      1166 1.09650E+02 5.00000E+01 0.00000E+00
 -1      1167 1.12650E+02 5.00000E+01 0.00000E+00
 -1      1168 1.15650E+02 5.00000E+01 0.00000E+00
 -1      1169 1.18650E+02 5.00000E+01 0.00000E+00
 -1      1170 1.21650E+02 5.00000E+01 0.00000E+00
 -1      1171 1.24650E+02 5.00000E+01 0.00000E+00
 -1      1172 1.27650E+02 5.00000E+01 0.00000E+00
 -1      1173 1.30650E+02 5.00000E+01 0.00000E+00
 -1      1174 1.33650E+02 5.00000E+01 0.00000E+00
 -1      1175 1.36650E+02 5.00000E+01 0.00000E+00
 -1      1176 1.39650E+02 5.00000E+01 0.00000E+00
 -1      1177 1.42650E+02 5.00000E+01 0.00000E+00
 -1      1178 1.45650E+02 5.00000E+01 0.00000E+00
 -1      1179 1.48575E+02 5.00000E+01 0.00000E+00
 -1      1180 1.57500E+00 0.00000E+00 0.00000E+00
 -1      1181 4.65000E+00 0.00000E+00 0.00000E+00
 -1      1182 7.65000E+00 0.00000E+00 0.00000E+00
 -1      1183 1.06500E+01 0.00000E+00 0.00000E+00
 -1      1184 1.36500E+01 0.00000E+00 0.00000E+00
 -1      1185 1.66500E+01 0.00000E+00 0.00000E+00
 -1      1186 1.96500E+01 0.00000E+00 0.00000E+00
 -1      1187 2.26500E+01 0.00000E+00 0.00000E+00
 -1      1188 2.57250E+01 0.00000E+00 0.00000E+00
 -1      1189 2.88000E+01 0.00000E+00 0.00000E+00
 -1      1190 3.18000E+01 0.00000E+00 0.00000E+00
 -1      1191 3.48000E+01 0.00000E+00 0.00000E+00
 -1      1192 3.78000E+01 0.00000E+00 0.00000E+00
 -1      1193 4.08000E+01 0.00000E+00 0.00000E+00
 -1      1194 4.38000E+01 0.00000E+00 0.00000E+00
 -1      1195 4.68000E+01 0.00000E+00 0.00000E+00
 -1      1196 4.98000E+01 0.00000E+00 0.00000E+00
 -1      1197 5.28750E+01 0.00000E+00 0.00000E+00
 -1      1198 5.59500E+01 0.00000E+00 0.00000E+00
 -1      1199 5.89500E+01 0.00000E+00 0.00000E+00
 -1      1200 6.19500E+01 0.00000E+00 0.00000E+00
 -1      1201 6.49500E+01 0.00000E+00 0.00000E+00
 -1      1202 6.79500E+01 0.00000E+00 0.00000E+00
 -1      1203 7.09500E+01 0.00000E+00 0.00000E+00
 -1      1204 7.39500E+01 0.00000E+00 0.00000E+00
 -1      1205 7.69500E+01 0.00000E+00 0.00000E+00
 -1      1206 8.00250E+01 0.00000E+00 0.00000E+00
 -1      1207 8.31000E+01 0.00000E+00 0.00000E+00
 -1      1208 8.61000E+01 0.00000E+00 0.00000E+00
 -1      1209 8.91000E+01 0.00000E+00 0.00000E+00
 -1      1210 9.21000E+01 0.00000E+00 0.00000E+00
 -1      1211 9.51000E+01 0.00000E+00 0.00000E+00
 -1      1212 9.81000E+01 0.00000E+00 0.00000E+00
 -1      1213 1.01100E+02 0.00000E+00 0.00000E+00
 -1      1214 1.04100E+02 0.00000E+00 0.00000E+00
 -1      1215 1.07175E+02 0.00000E+00 0.00000E+00
 -1      1216 1.10250E+02 0.00000E+00 0.00000E+00
 -1      1217 1.13250E+02 0.00000E+00 0.00000E+00
 -1      1218 1.16250E+02 0.00000E+00 0.00000E+00
 -1      1219 1.19250E+02 0.00000E+00 0.00000E+00
 -1      1220 1.22250E+02 0.00000E+00 0.00000E+00
 -1      1221 1.25250E+02 0.00000E+00 0.00000E+00
 -1      1222 1.28250E+02 0.00000E+00 0.00000E+00
 -1      1223 1.31250E+02 0.00000E+00 0.00000E+00
 -1      1224 1.34025E+02 0.00000E+00 0.00000E+00
 -1      1225 1.36650E+02 0.00000E+00 0.00000E+00
 -1      1226 1.39500E+02 0.00000E+00 0.00000E+00
 -1      1227 1.42500E+02 0.00000E+00 0.00000E+00
 -1      1228 1.45500E+02 0.00000E+00 0.00000E+00
 -1      1229 1.48500E+02 0.00000E+00 0.00000E+00
 -1      1230 1.50000E+02 1.50000E+00 0.00000E+00
 -1      1231 1.50000E+02 4.47500E+00 0.00000E+00
 -1      1232 1.50000E+02 7.32500E+00 0.00000E+00
 -1      1233 1.50000E+02 9.92500E+00 0.00000E+00
 -1      1234 1.50000E+02 1.22750E+01 0.00000E+00
 -1      1235 1.50000E+02 1.45750E+01 0.00000E+00
 -1      1236 1.50000E+02 1.69250E+01 0.00000E+00
 -1      1237 1.50000E+02 1.93500E+01 0.00000E+00
 -1      1238 1.50000E+02 2.20000E+01 0.00000E+00
 -1      1239 1.50000E+02 2.49000E+01 0.00000E+00
 -1      1240 1.50000E+02 2.78750E+01 0.00000E+00
 -1      1241 1.50000E+02 3.08250E+01 0.00000E+00
 -1      1242 1.50000E+02 3.37750E+01 0.00000E+00
 -1      1243 1.50000E+02 3.67250E+01 0.00000E+00
 -1      1244 1.50000E+02 3.96750E+01 0.00000E+00
 -1      1245 1.50000E+02 4.26250E+01 0.00000E+00
 -1      1246 1.50000E+02 4.55750E+01 0.00000E+00
 -1      1247 1.50000E+02 4.85250E+01 0.00000E+00
 -1      1248 1.39609E+02 1.39250E+01 0.00000E+00
 -1      1249 1.39318E+02 1.25154E+01 0.00000E+00
 -1      1250 1.38713E+02 1.11390E+01 0.00000E+00
 -1      1251 1.37855E+02 9.95408E+00 0.00000E+00
 -1      1252 1.36770E+02 8.97388E+00 0.00000E+00
 -1      1253 1.35472E+02 8.22509E+00 0.00000E+00
 -1      1254 1.34062E+02 7.77348E+00 0.00000E+00
 -1      1255 1.32605E+02 7.62863E+00 0.00000E+00
 -1      1256 1.31175E+02 7.78447E+00 0.00000E+00
 -1      1257 1.29771E+02 8.24524E+00 0.00000E+00
 -1      1258 1.28382E+02 9.07583E+00 0.00000E+00
 -1      1259 1.27251E+02 1.01668E+01 0.00000E+00
 -1      1260 1.26456E+02 1.13566E+01 0.00000E+00
 -1      1261 1.25908E+02 1.27259E+01 0.00000E+00
 -1      1262 1.25659E+02 1.41754E+01 0.00000E+00
 -1      1263 1.25715E+02 1.56172E+01 0.00000E+00
 -1      1264 1.26059E+02 1.70024E+01 0.00000E+00
 -1      1265 1.26685E+02 1.83001E+01 0.00000E+00
 -1      1266 1.27589E+02 1.94699E+01 0.00000E+00
 -1      1267 1.28734E+02 2.04346E+01 0.00000E+00
 -1      1268 1.30035E+02 2.11240E+01 0.00000E+00
 -1      1269 1.31425E+02 2.15214E+01 0.00000E+00
 -1      1270 1.32864E+02 2.16251E+01 0.00000E+00
 -1      1271 1.34399E+02 2.14051E+01 0.00000E+00
 -1      1272 1.36022E+02 2.07595E+01 0.00000E+00
 -1      1273 1.37348E+02 1.98126E+01 0.00000E+00
 -1      1274 1.38248E+02 1.88238E+01 0.00000E+00
 -1      1275 1.38862E+02 1.78444E+01 0.00000E+00
 -1      1276 1.39253E+02 1.69356E+01 0.00000E+00
 -1      1277 1.39497E+02 1.60555E+01 0.00000E+00
 -1      1278 1.39627E+02 1.51159E+01 0.00000E+00
 -1      1279 1.57500E+00 4.85250E+01 0.00000E+00
 -1      1280 1.29900E+00 4.48375E+01 0.00000E+00
 -1      1281 1.29900E+00 4.63125E+01 0.00000E+00
 -1      1282 1.29900E+00 4.18875E+01 0.00000E+00
 -1      1283 1.29900E+00 4.33625E+01 0.00000E+00
 -1      1284 2.59800E+00 4.41000E+01 0.00000E+00
 -1      1285 1.29900E+00 3.89375E+01 0.00000E+00
 -1      1286 1.29900E+00 4.04125E+01 0.00000E+00
 -1      1287 2.59800E+00 4.11500E+01 0.00000E+00
 -1      1288 1.29900E+00 3.59875E+01 0.00000E+00
 -1      1289 1.29900E+00 3.74625E+01 0.00000E+00
 -1      1290 2.59800E+00 3.82000E+01 0.00000E+00
 -1      1291 1.29900E+00 3.30875E+01 0.00000E+00
 -1      1292 1.29900E+00 3.45375E+01 0.00000E+00
 -1      1293 2.59800E+00 3.52750E+01 0.00000E+00
 -1      1294 1.29900E+00 3.01375E+01 0.00000E+00
 -1      1295 1.29900E+00 3.16125E+01 0.00000E+00
 -1      1296 2.59800E+00 3.23500E+01 0.00000E+00
 -1      1297 1.29900E+00 2.71875E+01 0.00000E+00
 -1      1298 1.29900E+00 2.86625E+01 0.00000E+00
 -1      1299 2.59800E+00 2.94000E+01 0.00000E+00
 -1      1300 1.29900E+00 2.42375E+01 0.00000E+00
 -1      1301 1.29900E+00 2.57125E+01 0.00000E+00
 -1      1302 2.59800E+00 2.64500E+01 0.00000E+00
 -1      1303 1.29900E+00 2.12875E+01 0.00000E+00
 -1      1304 1.29900E+00 2.27625E+01 0.00000E+00
 -1      1305 2.59800E+00 2.35000E+01 0.00000E+00
 -1      1306 1.29900E+00 1.83375E+01 0.00000E+00
 -1      1307 1.29900E+00 1.98125E+01 0.00000E+00
 -1      1308 2.59800E+00 2.05500E+01 0.00000E+00
 -1      1309 1.29900E+00 1.54375E+01 0.00000E+00
 -1      1310 1.29900E+00 1.68875E+01 0.00000E+00
 -1      1311 2.59800E+00 1.76250E+01 0.00000E+00
 -1      1312 1.29900E+00 1.24875E+01 0.00000E+00
 -1      1313 1.29900E+00 1.39625E+01 0.00000E+00
 -1      1314 2.59800E+00 1.47000E+01 0.00000E+00
 -1      1315 1.29900E+00 9.53750E+00 0.00000E+00
 -1      1316 1.29900E+00 1.10125E+01 0.00000E+00
 -1      1317 2.59800E+00 1.17500E+01 0.00000E+00
 -1      1318 1.29900E+00 6.58750E+00 0.00000E+00
 -1      1319 1.29900E+00 8.06250E+00 0.00000E+00
 -1      1320 2.59800E+00 8.80000E+00 0.00000E+00
 -1      1321 1.29900E+00 3.63750E+00 0.00000E+00
 -1      1322 1.29900E+00 5.11250E+00 0.00000E+00
 -1      1323 2.59800E+00 5.85000E+00 0.00000E+00
 -1      1324 1.43700E+00 1.09375E+00 0.00000E+00
 -1      1325 1.43700E+00 2.54375E+00 0.00000E+00
 -1      1326 2.73600E+00 3.28125E+00 0.00000E+00
 -1      1327 3.01200E+00 1.09375E+00 0.00000E+00
 -1      1328 3.90000E+00 4.87010E+01 0.00000E+00
 -1      1329 5.40000E+00 4.87010E+01 0.00000E+00
 -1      1330 6.90000E+00 4.87010E+01 0.00000E+00
 -1      1331 8.40000E+00 4.87010E+01 0.00000E+00
 -1      1332 6.15000E+00 4.74020E+01 0.00000E+00
 -1      1333 9.90000E+00 4.87010E+01 0.00000E+00
 -1      1334 1.14000E+01 4.87010E+01 0.00000E+00
 -1      1335 9.15000E+00 4.74020E+01 0.00000E+00
 -1      1336 1.29000E+01 4.87010E+01 0.00000E+00
 -1      1337 1.44000E+01 4.87010E+01 0.00000E+00
 -1      1338 1.21500E+01 4.74020E+01 0.00000E+00
 -1      1339 1.59000E+01 4.87010E+01 0.00000E+00
 -1      1340 1.74000E+01 4.87010E+01 0.00000E+00
 -1      1341 1.51500E+01 4.74020E+01 0.00000E+00
 -1      1342 1.89000E+01 4.87010E+01 0.00000E+00
 -1      1343 2.04000E+01 4.87010E+01 0.00000E+00
 -1      1344 1.81500E+01 4.74020E+01 0.00000E+00
 -1      1345 2.19000E+01 4.87010E+01 0.00000E+00
 -1      1346 2.34000E+01 4.87010E+01 0.00000E+00
 -1      1347 2.11500E+01 4.74020E+01 0.00000E+00
 -1      1348 2.49000E+01 4.87010E+01 0.00000E+00
 -1      1349 2.64000E+01 4.87010E+01 0.00000E+00
 -1      1350 2.41500E+01 4.74020E+01 0.00000E+00
 -1      1351 2.79000E+01 4.87010E+01 0.00000E+00
 -1      1352 2.94000E+01 4.87010E+01 0.00000E+00
 -1      1353 2.71500E+01 4.74020E+01 0.00000E+00
 -1      1354 3.09000E+01 4.87010E+01 0.00000E+00
 -1      1355 3.24000E+01 4.87010E+01 0.00000E+00
 -1      1356 3.01500E+01 4.74020E+01 0.00000E+00
 -1      1357 3.39000E+01 4.87010E+01 0.00000E+00
 -1      1358 3.54000E+01 4.87010E+01 0.00000E+00
 -1      1359 3.31500E+01 4.74020E+01 0.00000E+00
 -1      1360 3.69000E+01 4.87010E+01 0.00000E+00
 -1      1361 3.84000E+01 4.87010E+01 0.00000E+00
 -1      1362 3.61500E+01 4.74020E+01 0.00000E+00
 -1      1363 3.99000E+01 4.87010E+01 0.00000E+00
 -1      1364 4.14000E+01 4.87010E+01 0.00000E+00
 -1      1365 3.91500E+01 4.74020E+01 0.00000E+00
 -1      1366 4.29000E+01 4.87010E+01 0.00000E+00
 -1      1367 4.44000E+01 4.87010E+01 0.00000E+00
 -1      1368 4.21500E+01 4.74020E+01 0.00000E+00
 -1      1369 4.59000E+01 4.87010E+01 0.00000E+00
 -1      1370 4.74000E+01 4.87010E+01 0.00000E+00
 -1      1371 4.51500E+01 4.74020E+01 0.00000E+00
 -1      1372 4.89000E+01 4.87010E+01 0.00000E+00
 -1      1373 5.04000E+01 4.87010E+01 0.00000E+00
 -1      1374 4.81500E+01 4.74020E+01 0.00000E+00
 -1      1375 5.19000E+01 4.87010E+01 0.00000E+00
 -1      1376 5.34000E+01 4.87010E+01 0.00000E+00
 -1      1377 5.11500E+01 4.74020E+01 0.00000E+00
 -1      1378 5.49000E+01 4.87010E+01 0.00000E+00
 -1      1379 5.64000E+01 4.87010E+01 0.00000E+00
 -1      1380 5.41500E+01 4.74020E+01 0.00000E+00
 -1      1381 5.79000E+01 4.87010E+01 0.00000E+00
 -1      1382 5.94000E+01 4.87010E+01 0.00000E+00
 -1      1383 5.71500E+01 4.74020E+01 0.00000E+00
 -1      1384 6.09000E+01 4.87010E+01 0.00000E+00
 -1      1385 6.24000E+01 4.87010E+01 0.00000E+00
 -1      1386 6.01500E+01 4.74020E+01 0.00000E+00
 -1      1387 6.39000E+01 4.87010E+01 0.00000E+00
 -1      1388 6.54000E+01 4.87010E+01 0.00000E+00
 -1      1389 6.31500E+01 4.74020E+01 0.00000E+00
 -1      1390 6.69000E+01 4.87010E+01 0.00000E+00
 -1      1391 6.84000E+01 4.87010E+01 0.00000E+00
 -1      1392 6.61500E+01 4.74020E+01 0.00000E+00
 -1      1393 6.99000E+01 4.87010E+01 0.00000E+00
 -1      1394 7.14000E+01 4.87010E+01 0.00000E+00
 -1      1395 6.91500E+01 4.74020E+01 0.00000E+00
 -1      1396 7.29000E+01 4.87010E+01 0.00000E+00
 -1      1397 7.44000E+01 4.87010E+01 0.00000E+00
 -1      1398 7.21500E+01 4.74020E+01 0.00000E+00
 -1      1399 7.59000E+01 4.87010E+01 0.00000E+00
 -1      1400 7.74000E+01 4.87010E+01 0.00000E+00
 -1      1401 7.51500E+01 4.74020E+01 0.00000E+00
 -1      1402 7.89000E+01 4.87010E+01 0.00000E+00
 -1      1403 8.04000E+01 4.87010E+01 0.00000E+00
 -1      1404 7.81500E+01 4.74020E+01 0.00000E+00
 -1      1405 8.19000E+01 4.87010E+01 0.00000E+00
 -1      1406 8.34000E+01 4.87010E+01 0.00000E+00
 -1      1407 8.11500E+01 4.74020E+01 0.00000E+00
 -1      1408 8.49000E+01 4.87010E+01 0.00000E+00
 -1      1409 8.64000E+01 4.87010E+01 0.00000E+00
 -1      1410 8.41500E+01 4.74020E+01 0.00000E+00
 -1      1411 8.79000E+01 4.87010E+01 0.00000E+00
 -1      1412 8.94000E+01 4.87010E+01 0.00000E+00
 -1      1413 8.71500E+01 4.74020E+01 0.00000E+00
 -1      1414 9.09000E+01 4.87010E+01 0.00000E+00
 -1      1415 9.24000E+01 4.87010E+01 0.00000E+00
 -1      1416 9.01500E+01 4.74020E+01 0.00000E+00
 -1      1417 9.39000E+01 4.87010E+01 0.00000E+00
 -1      1418 9.54000E+01 4.87010E+01 0.00000E+00
 -1      1419 9.31500E+01 4.74020E+01 0.00000E+00
 -1      1420 9.69000E+01 4.87010E+01 0.00000E+00
 -1      1421 9.84000E+01 4.87010E+01 0.00000E+00
 -1      1422 9.61500E+01 4.74020E+01 0.00000E+00
 -1      1423 9.99000E+01 4.87010E+01 0.00000E+00
 -1      1424 1.01400E+02 4.87010E+01 0.00000E+00
 -1      1425 9.91500E+01 4.74020E+01 0.00000E+00
 -1      1426 1.02900E+02 4.87010E+01 0.00000E+00
 -1      1427 1.04400E+02 4.87010E+01 0.00000E+00
 -1      1428 1.02150E+02 4.74020E+01 0.00000E+00
 -1      1429 1.05900E+02 4.87010E+01 0.00000E+00
 -1      1430 1.07400E+02 4.87010E+01 0.00000E+00
 -1      1431 1.05150E+02 4.74020E+01 0.00000E+00
 -1      1432 1.08900E+02 4.87010E+01 0.00000E+00
 -1      1433 1.10400E+02 4.87010E+01 0.00000E+00
 -1      1434 1.08150E+02 4.74020E+01 0.00000E+00
 -1      1435 1.11900E+02 4.87010E+01 0.00000E+00
 -1      1436 1.13400E+02 4.87010E+01 0.00000E+00
 -1      1437 1.11150E+02 4.74020E+01 0.00000E+00
 -1      1438 1.14900E+02 4.87010E+01 0.00000E+00
 -1      1439 1.16400E+02 4.87010E+01 0.00000E+00
 -1      1440 1.14150E+02 4.74020E+01 0.00000E+00
 -1      1441 1.17900E+02 4.87010E+01 0.00000E+00
 -1      1442 1.19400E+02 4.87010E+01 0.00000E+00
 -1      1443 1.17150E+02 4.74020E+01 0.00000E+00
 -1      1444 1.20900E+02 4.87010E+01 0.00000E+00
 -1      1445 1.22400E+02 4.87010E+01 0.00000E+00
 -1      1446 1.20150E+02 4.74020E+01 0.00000E+00
 -1      1447 1.23900E+02 4.87010E+01 0.00000E+00
 -1      1448 1.25400E+02 4.87010E+01 0.00000E+00
 -1      1449 1.23150E+02 4.74020E+01 0.00000E+00
 -1      1450 1.26900E+02 4.87010E+01 0.00000E+00
 -1      1451 1.28400E+02 4.87010E+01 0.00000E+00
 -1      1452 1.26150E+02 4.74020E+01 0.00000E+00
 -1      1453 1.29900E+02 4.87010E+01 0.00000E+00
 -1      1454 1.31400E+02 4.87010E+01 0.00000E+00
 -1      1455 1.29150E+02 4.74020E+01 0.00000E+00
 -1      1456 1.32900E+02 4.87010E+01 0.00000E+00
 -1      1457 1.34400E+02 4.87010E+01 0.00000E+00
 -1      1458 1.32150E+02 4.74020E+01 0.00000E+00
 -1      1459 1.35900E+02 4.87010E+01 0.00000E+00
 -1      1460 1.37400E+02 4.87010E+01 0.00000E+00
 -1      1461 1.35150E+02 4.74020E+01 0.00000E+00
 -1      1462 1.38900E+02 4.87010E+01 0.00000E+00
 -1      1463 1.40400E+02 4.87010E+01 0.00000E+00
 -1      1464 1.38150E+02 4.74020E+01 0.00000E+00
 -1      1465 1.41900E+02 4.87010E+01 0.00000E+00
 -1      1466 1.43400E+02 4.87010E+01 0.00000E+00
 -1      1467 1.41150E+02 4.74020E+01 0.00000E+00
 -1      1468 1.44900E+02 4.87010E+01 0.00000E+00
 -1      1469 1.46400E+02 4.87010E+01 0.00000E+00
 -1      1470 1.44150E+02 4.74020E+01 0.00000E+00
 -1      1471 1.48575E+02 4.85250E+01 0.00000E+00
 -1      1472 1.47825E+02 4.72260E+01 0.00000E+00
 -1      1473 6.01200E+00 1.09375E+00 0.00000E+00
 -1      1474 4.51200E+00 1.09375E+00 0.00000E+00
 -1      1475 4.37400E+00 2.18750E+00 0.00000E+00
 -1      1476 9.01200E+00 1.09375E+00 0.00000E+00
 -1      1477 7.51200E+00 1.09375E+00 0.00000E+00
 -1      1478 7.37400E+00 2.18750E+00 0.00000E+00
 -1      1479 1.20120E+01 1.09375E+00 0.00000E+00
 -1      1480 1.05120E+01 1.09375E+00 0.00000E+00
 -1      1481 1.03740E+01 2.18750E+00 0.00000E+00
 -1      1482 1.50120E+01 1.09375E+00 0.00000E+00
 -1      1483 1.35120E+01 1.09375E+00 0.00000E+00
 -1      1484 1.33740E+01 2.18750E+00 0.00000E+00
 -1      1485 1.80120E+01 1.09375E+00 0.00000E+00
 -1      1486 1.65120E+01 1.09375E+00 0.00000E+00
 -1      1487 1.63740E+01 2.18750E+00 0.00000E+00
 -1      1488 2.10120E+01 1.09375E+00 0.00000E+00
 -1      1489 1.95120E+01 1.09375E+00 0.00000E+00
 -1      1490 1.93740E+01 2.18750E+00 0.00000E+00
 -1      1491 2.40120E+01 1.09375E+00 0.00000E+00
 -1      1492 2.25120E+01 1.09375E+00 0.00000E+00
 -1      1493 2.23740E+01 2.18750E+00 0.00000E+00
 -1      1494 2.71620E+01 1.09375E+00 0.00000E+00
 -1      1495 2.55870E+01 1.09375E+00 0.00000E+00
 -1      1496 2.54490E+01 2.18750E+00 0.00000E+00
 -1      1497 3.01620E+01 1.09375E+00 0.00000E+00
 -1      1498 2.86620E+01 1.09375E+00 0.00000E+00
 -1      1499 2.85240E+01 2.18750E+00 0.00000E+00
 -1      1500 3.31620E+01 1.09375E+00 0.00000E+00
 -1      1501 3.16620E+01 1.09375E+00 0.00000E+00
 -1      1502 3.15240E+01 2.18750E+00 0.00000E+00
 -1      1503 3.61620E+01 1.09375E+00 0.00000E+00
 -1      1504 3.46620E+01 1.09375E+00 0.00000E+00
 -1      1505 3.45240E+01 2.18750E+00 0.00000E+00
 -1      1506 3.91620E+01 1.09375E+00 0.00000E+00
 -1      1507 3.76620E+01 1.09375E+00 0.00000E+00
 -1      1508 3.75240E+01 2.18750E+00 0.00000E+00
 -1      1509 4.21620E+01 1.09375E+00 0.00000E+00
 -1      1510 4.06620E+01 1.09375E+00 0.00000E+00
 -1      1511 4.05240E+01 2.18750E+00 0.00000E+00
 -1      1512 4.51620E+01 1.09375E+00 0.00000E+00
 -1      1513 4.36620E+01 1.09375E+00 0.00000E+00
 -1      1514 4.35240E+01 2.18750E+00 0.00000E+00
 -1      1515 4.81620E+01 1.09375E+00 0.00000E+00
 -1      1516 4.66620E+01 1.09375E+00 0.00000E+00
 -1      1517 4.65240E+01 2.18750E+00 0.00000E+00
 -1      1518 5.11620E+01 1.09375E+00 0.00000E+00
 -1      1519 4.96620E+01 1.09375E+00 0.00000E+00
 -1      1520 4.95240E+01 2.18750E+00 0.00000E+00
 -1      1521 5.43120E+01 1.09375E+00 0.00000E+00
 -1      1522 5.27370E+01 1.09375E+00 0.00000E+00
 -1      1523 5.25990E+01 2.18750E+00 0.00000E+00
 -1      1524 5.73120E+01 1.09375E+00 0.00000E+00
 -1      1525 5.58120E+01 1.09375E+00 0.00000E+00
 -1      1526 5.56740E+01 2.18750E+00 0.00000E+00
 -1      1527 6.03120E+01 1.09375E+00 0.00000E+00
 -1      1528 5.88120E+01 1.09375E+00 0.00000E+00
 -1      1529 5.86740E+01 2.18750E+00 0.00000E+00
 -1      1530 6.33120E+01 1.09375E+00 0.00000E+00
 -1      1531 6.18120E+01 1.09375E+00 0.00000E+00
 -1      1532 6.16740E+01 2.18750E+00 0.00000E+00
 -1      1533 6.63120E+01 1.09375E+00 0.00000E+00
 -1      1534 6.48120E+01 1.09375E+00 0.00000E+00
 -1      1535 6.46740E+01 2.18750E+00 0.00000E+00
 -1      1536 6.93120E+01 1.09375E+00 0.00000E+00
 -1      1537 6.78120E+01 1.09375E+00 0.00000E+00
 -1      1538 6.76740E+01 2.18750E+00 0.00000E+00
 -1      1539 7.23120E+01 1.09375E+00 0.00000E+00
 -1      1540 7.08120E+01 1.09375E+00 0.00000E+00
 -1      1541 7.06740E+01 2.18750E+00 0.00000E+00
 -1      1542 7.53120E+01 1.09375E+00 0.00000E+00
 -1      1543 7.38120E+01 1.09375E+00 0.00000E+00
 -1      1544 7.36740E+01 2.18750E+00 0.00000E+00
 -1      1545 7.83120E+01 1.09375E+00 0.00000E+00
 -1      1546 7.68120E+01 1.09375E+00 0.00000E+00
 -1      1547 7.66740E+01 2.18750E+00 0.00000E+00
 -1      1548 8.14620E+01 1.09375E+00 0.00000E+00
 -1      1549 7.98870E+01 1.09375E+00 0.00000E+00
 -1      1550 7.97490E+01 2.18750E+00 0.00000E+00
 -1      1551 8.44620E+01 1.09375E+00 0.00000E+00
 -1      1552 8.29620E+01 1.09375E+00 0.00000E+00
 -1      1553 8.28240E+01 2.18750E+00 0.00000E+00
 -1      1554 8.74620E+01 1.09375E+00 0.00000E+00
 -1      1555 8.59620E+01 1.09375E+00 0.00000E+00
 -1      1556 8.58240E+01 2.18750E+00 0.00000E+00
 -1      1557 9.04620E+01 1.09375E+00 0.00000E+00
 -1      1558 8.89620E+01 1.09375E+00 0.00000E+00
 -1      1559 8.88240E+01 2.18750E+00 0.00000E+00
 -1      1560 9.34620E+01 1.09375E+00 0.00000E+00
 -1      1561 9.19620E+01 1.09375E+00 0.00000E+00
 -1      1562 9.18240E+01 2.18750E+00 0.00000E+00
 -1      1563 9.64620E+01 1.09375E+00 0.00000E+00
 -1      1564 9.49620E+01 1.09375E+00 0.00000E+00
 -1      1565 9.48240E+01 2.18750E+00 0.00000E+00
 -1      1566 9.94620E+01 1.09375E+00 0.00000E+00
 -1      1567 9.79620E+01 1.09375E+00 0.00000E+00
 -1      1568 9.78240E+01 2.18750E+00 0.00000E+00
 -1      1569 1.02462E+02 1.09375E+00 0.00000E+00
 -1      1570 1.00962E+02 1.09375E+00 0.00000E+00
 -1      1571 1.00824E+02 2.18750E+00 0.00000E+00
 -1      1572 1.05462E+02 1.09375E+00 0.00000E+00
 -1      1573 1.03962E+02 1.09375E+00 0.00000E+00
 -1      1574 1.03824E+02 2.18750E+00 0.00000E+00
 -1      1575 1.08612E+02 1.09375E+00 0.00000E+00
 -1      1576 1.07037E+02 1.09375E+00 0.00000E+00
 -1      1577 1.06899E+02 2.18750E+00 0.00000E+00
 -1      1578 1.11612E+02 1.09375E+00 0.00000E+00
 -1      1579 1.10112E+02 1.09375E+00 0.00000E+00
 -1      1580 1.09974E+02 2.18750E+00 0.00000E+00
 -1      1581 1.14612E+02 1.09375E+00 0.00000E+00
 -1      1582 1.13112E+02 1.09375E+00 0.00000E+00
 -1      1583 1.12974E+02 2.18750E+00 0.00000E+00
 -1      1584 1.17612E+02 1.09375E+00 0.00000E+00
 -1      1585 1.16112E+02 1.09375E+00 0.00000E+00
 -1      1586 1.15974E+02 2.18750E+00 0.00000E+00
 -1      1587 1.20612E+02 1.09375E+00 0.00000E+00
 -1      1588 1.19112E+02 1.09375E+00 0.00000E+00
 -1      1589 1.18974E+02 2.18750E+00 0.00000E+00
 -1      1590 1.23612E+02 1.09375E+00 0.00000E+00
 -1      1591 1.22112E+02 1.09375E+00 0.00000E+00
 -1      1592 1.21974E+02 2.18750E+00 0.00000E+00
 -1      1593 1.26612E+02 1.09375E+00 0.00000E+00
 -1      1594 1.25112E+02 1.09375E+00 0.00000E+00
 -1      1595 1.24974E+02 2.18750E+00 0.00000E+00
 -1      1596 1.29612E+02 1.09375E+00 0.00000E+00
 -1      1597 1.28112E+02 1.09375E+00 0.00000E+00
 -1      1598 1.27974E+02 2.18750E+00 0.00000E+00
 -1      1599 1.32612E+02 1.09375E+00 0.00000E+00
 -1      1600 1.31112E+02 1.09375E+00 0.00000E+00
 -1      1601 1.30974E+02 2.18750E+00 0.00000E+00
 -1      1602 1.35162E+02 1.09375E+00 0.00000E+00
 -1      1603 1.33887E+02 1.09375E+00 0.00000E+00
 -1      1604 1.33749E+02 2.18750E+00 0.00000E+00
 -1      1605 1.37862E+02 1.09375E+00 0.00000E+00
 -1      1606 1.36512E+02 1.09375E+00 0.00000E+00
 -1      1607 1.36374E+02 2.18750E+00 0.00000E+00
 -1      1608 1.40862E+02 1.09375E+00 0.00000E+00
 -1      1609 1.39362E+02 1.09375E+00 0.00000E+00
 -1      1610 1.39224E+02 2.18750E+00 0.00000E+00
 -1      1611 1.43862E+02 1.09375E+00 0.00000E+00
 -1      1612 1.42362E+02 1.09375E+00 0.00000E+00
 -1      1613 1.42224E+02 2.18750E+00 0.00000E+00
 -1      1614 1.46862E+02 1.09375E+00 0.00000E+00
 -1      1615 1.45362E+02 1.09375E+00 0.00000E+00
 -1      1616 1.45224E+02 2.18750E+00 0.00000E+00
 -1      1617 1.48500E+02 1.50000E+00 0.00000E+00
 -1      1618 1.48701E+02 5.21250E+00 0.00000E+00
 -1      1619 1.48701E+02 3.73750E+00 0.00000E+00
 -1      1620 1.48701E+02 7.96250E+00 0.00000E+00
 -1      1621 1.48701E+02 6.58750E+00 0.00000E+00
 -1      1622 1.47402E+02 5.85000E+00 0.00000E+00
 -1      1623 1.48701E+02 1.04125E+01 0.00000E+00
 -1      1624 1.48701E+02 9.18750E+00 0.00000E+00
 -1      1625 1.47402E+02 8.45000E+00 0.00000E+00
 -1      1626 1.48701E+02 1.26625E+01 0.00000E+00
 -1      1627 1.48701E+02 1.15375E+01 0.00000E+00
 -1      1628 1.47402E+02 1.08000E+01 0.00000E+00
 -1      1629 1.48701E+02 1.50125E+01 0.00000E+00
 -1      1630 1.48701E+02 1.38375E+01 0.00000E+00
 -1      1631 1.47402E+02 1.31000E+01 0.00000E+00
 -1      1632 1.48701E+02 1.73625E+01 0.00000E+00
 -1      1633 1.48701E+02 1.61875E+01 0.00000E+00
 -1      1634 1.47402E+02 1.54500E+01 0.00000E+00
 -1      1635 1.48701E+02 1.98625E+01 0.00000E+00
 -1      1636 1.48701E+02 1.86125E+01 0.00000E+00
 -1      1637 1.47402E+02 1.78750E+01 0.00000E+00
 -1      1638 1.48701E+02 2.26625E+01 0.00000E+00
 -1      1639 1.48701E+02 2.12625E+01 0.00000E+00
 -1      1640 1.47402E+02 2.05250E+01 0.00000E+00
 -1      1641 1.48701E+02 2.56625E+01 0.00000E+00
 -1      1642 1.48701E+02 2.41625E+01 0.00000E+00
 -1      1643 1.47402E+02 2.34250E+01 0.00000E+00
 -1      1644 1.48701E+02 2.86125E+01 0.00000E+00
 -1      1645 1.48701E+02 2.71375E+01 0.00000E+00
 -1      1646 1.47402E+02 2.64000E+01 0.00000E+00
 -1      1647 1.48701E+02 3.15625E+01 0.00000E+00
 -1      1648 1.48701E+02 3.00875E+01 0.00000E+00
 -1      1649 1.47402E+02 2.93500E+01 0.00000E+00
 -1      1650 1.48701E+02 3.45125E+01 0.00000E+00
 -1      1651 1.48701E+02 3.30375E+01 0.00000E+00
 -1      1652 1.47402E+02 3.23000E+01 0.00000E+00
 -1      1653 1.48701E+02 3.74625E+01 0.00000E+00
 -1      1654 1.48701E+02 3.59875E+01 0.00000E+00
 -1      1655 1.47402E+02 3.52500E+01 0.00000E+00
 -1      1656 1.48701E+02 4.04125E+01 0.00000E+00
 -1      1657 1.48701E+02 3.89375E+01 0.00000E+00
 -1      1658 1.47402E+02 3.82000E+01 0.00000E+00
 -1      1659 1.48701E+02 4.33625E+01 0.00000E+00
 -1      1660 1.48701E+02 4.18875E+01 0.00000E+00
 -1      1661 1.47402E+02 4.11500E+01 0.00000E+00
 -1      1662 1.48263E+02 4.60317E+01 0.00000E+00
 -1      1663 1.48263E+02 4.45568E+01 0.00000E+00
 -1      1664 1.46964E+02 4.38192E+01 0.00000E+00
 -1      1665 1.46088E+02 4.62077E+01 0.00000E+00
 -1      1666 1.40136E+02 1.35183E+01 0.00000E+00
 -1      1667 1.40207E+02 1.42182E+01 0.00000E+00
 -1      1668 1.39782E+02 1.19824E+01 0.00000E+00
 -1      1669 1.40004E+02 1.26840E+01 0.00000E+00
 -1      1670 1.39078E+02 1.04862E+01 0.00000E+00
 -1      1671 1.39461E+02 1.11517E+01 0.00000E+00
 -1      1672 1.38048E+02 9.31365E+00 0.00000E+00
 -1      1673 1.38512E+02 9.83110E+00 0.00000E+00
 -1      1674 1.36843E+02 8.22460E+00 0.00000E+00
 -1      1675 1.37462E+02 8.67644E+00 0.00000E+00
 -1      1676 1.35383E+02 7.51946E+00 0.00000E+00
 -1      1677 1.36053E+02 7.81528E+00 0.00000E+00
 -1      1678 1.33826E+02 7.06132E+00 0.00000E+00
 -1      1679 1.34560E+02 7.21291E+00 0.00000E+00
 -1      1680 1.32244E+02 7.01913E+00 0.00000E+00
 -1      1681 1.32959E+02 7.01513E+00 0.00000E+00
 -1      1682 1.30702E+02 7.30445E+00 0.00000E+00
 -1      1683 1.31410E+02 7.15249E+00 0.00000E+00
 -1      1684 1.29161E+02 7.80773E+00 0.00000E+00
 -1      1685 1.29848E+02 7.49852E+00 0.00000E+00
 -1      1686 1.27600E+02 8.76807E+00 0.00000E+00
 -1      1687 1.28287E+02 8.24118E+00 0.00000E+00
 -1      1688 1.26586E+02 1.00753E+01 0.00000E+00
 -1      1689 1.27036E+02 9.53103E+00 0.00000E+00
 -1      1690 1.25784E+02 1.14110E+01 0.00000E+00
 -1      1691 1.26123E+02 1.07706E+01 0.00000E+00
 -1      1692 1.25221E+02 1.29219E+01 0.00000E+00
 -1      1693 1.25425E+02 1.21996E+01 0.00000E+00
 -1      1694 1.25026E+02 1.44951E+01 0.00000E+00
 -1      1695 1.25073E+02 1.37765E+01 0.00000E+00
 -1      1696 1.25161E+02 1.60613E+01 0.00000E+00
 -1      1697 1.25059E+02 1.53457E+01 0.00000E+00
 -1      1698 1.25642E+02 1.75273E+01 0.00000E+00
 -1      1699 1.25403E+02 1.68645E+01 0.00000E+00
 -1      1700 1.26359E+02 1.89329E+01 0.00000E+00
 -1      1701 1.25973E+02 1.83064E+01 0.00000E+00
 -1      1702 1.27375E+02 2.01879E+01 0.00000E+00
 -1      1703 1.26862E+02 1.96517E+01 0.00000E+00
 -1      1704 1.28638E+02 2.12534E+01 0.00000E+00
 -1      1705 1.28012E+02 2.08316E+01 0.00000E+00
 -1      1706 1.30155E+02 2.17859E+01 0.00000E+00
 -1      1707 1.29490E+02 2.15187E+01 0.00000E+00
 -1      1708 1.31677E+02 2.21856E+01 0.00000E+00
 -1      1709 1.30960E+02 2.20587E+01 0.00000E+00
 -1      1710 1.33240E+02 2.22251E+01 0.00000E+00
 -1      1711 1.32526E+02 2.22475E+01 0.00000E+00
 -1      1712 1.34964E+02 2.19197E+01 0.00000E+00
 -1      1713 1.34154E+02 2.21293E+01 0.00000E+00
 -1      1714 1.36783E+02 2.11971E+01 0.00000E+00
 -1      1715 1.35986E+02 2.16366E+01 0.00000E+00
 -1      1716 1.38021E+02 2.00198E+01 0.00000E+00
 -1      1717 1.37489E+02 2.05024E+01 0.00000E+00
 -1      1718 1.38859E+02 1.88946E+01 0.00000E+00
 -1      1719 1.38488E+02 1.93899E+01 0.00000E+00
 -1      1720 1.39389E+02 1.78144E+01 0.00000E+00
 -1      1721 1.39142E+02 1.82917E+01 0.00000E+00
 -1      1722 1.39687E+02 1.69607E+01 0.00000E+00
 -1      1723 1.39538E+02 1.73876E+01 0.00000E+00
 -1      1724 1.39836E+02 1.78444E+01 0.00000E+00
 -1      1725 1.39953E+02 1.59150E+01 0.00000E+00
 -1      1726 1.39859E+02 1.63664E+01 0.00000E+00
 -1      1727 1.40021E+02 1.49425E+01 0.00000E+00
 -1      1728 1.39987E+02 1.54287E+01 0.00000E+00
 -1      1729 1.40364E+02 1.57428E+01 0.00000E+00
 -1      1730 1.38145E+02 8.53036E+00 0.00000E+00
 -1      1731 1.39297E+02 9.82268E+00 0.00000E+00
 -1      1732 1.48362E+02 2.59375E+00 0.00000E+00
 -1      1733 1.47063E+02 3.33125E+00 0.00000E+00
 -1      1734 1.40637E+02 1.29736E+01 0.00000E+00
 -1      1735 1.40184E+02 1.13085E+01 0.00000E+00
 -1      1736 1.40583E+02 1.45322E+01 0.00000E+00
 -1      1737 1.36770E+02 7.48383E+00 0.00000E+00
 -1      1738 1.35156E+02 6.76796E+00 0.00000E+00
 -1      1739 1.33465E+02 6.41523E+00 0.00000E+00
 -1      1740 1.31763E+02 6.50241E+00 0.00000E+00
 -1      1741 1.30075E+02 6.82985E+00 0.00000E+00
 -1      1742 1.28347E+02 7.45739E+00 0.00000E+00
 -1      1743 1.26908E+02 8.65380E+00 0.00000E+00
 -1      1744 1.25881E+02 1.01121E+01 0.00000E+00
 -1      1745 1.25058E+02 1.15960E+01 0.00000E+00
 -1      1746 1.24551E+02 1.32392E+01 0.00000E+00
 -1      1747 1.24435E+02 1.49444E+01 0.00000E+00
 -1      1748 1.24710E+02 1.65983E+01 0.00000E+00
 -1      1749 1.25283E+02 1.81805E+01 0.00000E+00
 -1      1750 1.26117E+02 1.96783E+01 0.00000E+00
 -1      1751 1.27256E+02 2.10406E+01 0.00000E+00
 -1      1752 1.28745E+02 2.19496E+01 0.00000E+00
 -1      1753 1.30401E+02 2.24876E+01 0.00000E+00
 -1      1754 1.32054E+02 2.28222E+01 0.00000E+00
 -1      1755 1.33818E+02 2.27883E+01 0.00000E+00
 -1      1756 1.35754E+02 2.24094E+01 0.00000E+00
 -1      1757 1.37481E+02 2.14316E+01 0.00000E+00
 -1      1758 1.38654E+02 2.01070E+01 0.00000E+00
 -1      1759 1.39404E+02 1.88742E+01 0.00000E+00
 -1      1760 2.87400E+00 4.77875E+01 0.00000E+00
 -1      1761 1.40158E+02 1.68232E+01 0.00000E+00
 -1      1762 3.89700E+00 4.04125E+01 0.00000E+00
 -1      1763 3.89700E+00 4.18875E+01 0.00000E+00
 -1      1764 3.89700E+00 4.33625E+01 0.00000E+00
 -1      1765 3.89700E+00 4.48375E+01 0.00000E+00
 -1      1766 5.19600E+00 4.26250E+01 0.00000E+00
 -1      1767 3.89700E+00 3.45500E+01 0.00000E+00
 -1      1768 3.89700E+00 3.60000E+01 0.00000E+00
 -1      1769 3.89700E+00 3.16000E+01 0.00000E+00
 -1      1770 3.89700E+00 3.30750E+01 0.00000E+00
 -1      1771 5.19600E+00 3.38000E+01 0.00000E+00
 -1      1772 3.89700E+00 2.86500E+01 0.00000E+00
 -1      1773 3.89700E+00 3.01250E+01 0.00000E+00
 -1      1774 5.19600E+00 3.08500E+01 0.00000E+00
 -1      1775 3.89700E+00 2.57000E+01 0.00000E+00
 -1      1776 3.89700E+00 2.71750E+01 0.00000E+00
 -1      1777 5.19600E+00 2.79000E+01 0.00000E+00
 -1      1778 3.89700E+00 2.27500E+01 0.00000E+00
 -1      1779 3.89700E+00 2.42250E+01 0.00000E+00
 -1      1780 5.19600E+00 2.49500E+01 0.00000E+00
 -1      1781 3.89700E+00 1.98000E+01 0.00000E+00
 -1      1782 3.89700E+00 2.12750E+01 0.00000E+00
 -1      1783 5.19600E+00 2.20000E+01 0.00000E+00
 -1      1784 3.89700E+00 1.69000E+01 0.00000E+00
 -1      1785 3.89700E+00 1.83500E+01 0.00000E+00
 -1      1786 5.19600E+00 1.90750E+01 0.00000E+00
 -1      1787 3.89700E+00 1.39500E+01 0.00000E+00
 -1      1788 3.89700E+00 1.54250E+01 0.00000E+00
 -1      1789 5.19600E+00 1.61500E+01 0.00000E+00
 -1      1790 3.89700E+00 1.10000E+01 0.00000E+00
 -1      1791 3.89700E+00 1.24750E+01 0.00000E+00
 -1      1792 5.19600E+00 1.32000E+01 0.00000E+00
 -1      1793 3.89700E+00 8.05000E+00 0.00000E+00
 -1      1794 3.89700E+00 9.52500E+00 0.00000E+00
 -1      1795 5.19600E+00 1.02500E+01 0.00000E+00
 -1      1796 3.89700E+00 5.10000E+00 0.00000E+00
 -1      1797 3.89700E+00 6.57500E+00 0.00000E+00
 -1      1798 5.19600E+00 7.30000E+00 0.00000E+00
 -1      1799 4.20450E+00 3.09687E+00 0.00000E+00
 -1      1800 4.06650E+00 4.19063E+00 0.00000E+00
 -1      1801 5.36550E+00 4.91563E+00 0.00000E+00
 -1      1802 5.70450E+00 3.09687E+00 0.00000E+00
 -1      1803 3.62400E+00 4.64885E+01 0.00000E+00
 -1      1804 8.70450E+00 3.09687E+00 0.00000E+00
 -1      1805 7.20450E+00 3.09687E+00 0.00000E+00
 -1      1806 7.03500E+00 4.00625E+00 0.00000E+00
 -1      1807 1.40700E+02 1.66585E+01 0.00000E+00
 -1      1808 1.40528E+02 1.72528E+01 0.00000E+00
 -1      1809 4.92300E+00 4.57510E+01 0.00000E+00
 -1      1810 8.40000E+00 4.61030E+01 0.00000E+00
 -1      1811 9.90000E+00 4.61030E+01 0.00000E+00
 -1      1812 1.14000E+01 4.61030E+01 0.00000E+00
 -1      1813 1.29000E+01 4.61030E+01 0.00000E+00
 -1      1814 1.06500E+01 4.48040E+01 0.00000E+00
 -1      1815 1.44000E+01 4.61030E+01 0.00000E+00
 -1      1816 1.59000E+01 4.61030E+01 0.00000E+00
 -1      1817 1.36500E+01 4.48040E+01 0.00000E+00
 -1      1818 1.74000E+01 4.61030E+01 0.00000E+00
 -1      1819 1.89000E+01 4.61030E+01 0.00000E+00
 -1      1820 1.66500E+01 4.48040E+01 0.00000E+00
 -1      1821 2.04000E+01 4.61030E+01 0.00000E+00
 -1      1822 2.19000E+01 4.61030E+01 0.00000E+00
 -1      1823 1.96500E+01 4.48040E+01 0.00000E+00
 -1      1824 2.34000E+01 4.61030E+01 0.00000E+00
 -1      1825 2.49000E+01 4.61030E+01 0.00000E+00
 -1      1826 2.26500E+01 4.48040E+01 0.00000E+00
 -1      1827 2.64000E+01 4.61030E+01 0.00000E+00
 -1      1828 2.79000E+01 4.61030E+01 0.00000E+00
 -1      1829 2.56500E+01 4.48040E+01 0.00000E+00
 -1      1830 2.94000E+01 4.61030E+01 0.00000E+00
 -1      1831 3.09000E+01 4.61030E+01 0.00000E+00
 -1      1832 2.86500E+01 4.48040E+01 0.00000E+00
 -1      1833 3.24000E+01 4.61030E+01 0.00000E+00
 -1      1834 3.39000E+01 4.61030E+01 0.00000E+00
 -1      1835 3.16500E+01 4.48040E+01 0.00000E+00
 -1      1836 3.54000E+01 4.61030E+01 0.00000E+00
 -1      1837 3.69000E+01 4.61030E+01 0.00000E+00
 -1      1838 3.46500E+01 4.48040E+01 0.00000E+00
 -1      1839 3.84000E+01 4.61030E+01 0.00000E+00
 -1      1840 3.99000E+01 4.61030E+01 0.00000E+00
 -1      1841 3.76500E+01 4.48040E+01 0.00000E+00
 -1      1842 4.14000E+01 4.61030E+01 0.00000E+00
 -1      1843 4.29000E+01 4.61030E+01 0.00000E+00
 -1      1844 4.06500E+01 4.48040E+01 0.00000E+00
 -1      1845 4.44000E+01 4.61030E+01 0.00000E+00
 -1      1846 4.59000E+01 4.61030E+01 0.00000E+00
 -1      1847 4.36500E+01 4.48040E+01 0.00000E+00
 -1      1848 4.74000E+01 4.61030E+01 0.00000E+00
 -1      1849 4.89000E+01 4.61030E+01 0.00000E+00
 -1      1850 4.66500E+01 4.48040E+01 0.00000E+00
 -1      1851 5.04000E+01 4.61030E+01 0.00000E+00
 -1      1852 5.19000E+01 4.61030E+01 0.00000E+00
 -1      1853 4.96500E+01 4.48040E+01 0.00000E+00
 -1      1854 5.34000E+01 4.61030E+01 0.00000E+00
 -1      1855 5.49000E+01 4.61030E+01 0.00000E+00
 -1      1856 5.26500E+01 4.48040E+01 0.00000E+00
 -1      1857 5.64000E+01 4.61030E+01 0.00000E+00
 -1      1858 5.79000E+01 4.61030E+01 0.00000E+00
 -1      1859 5.56500E+01 4.48040E+01 0.00000E+00
 -1      1860 5.94000E+01 4.61030E+01 0.00000E+00
 -1      1861 6.09000E+01 4.61030E+01 0.00000E+00
 -1      1862 5.86500E+01 4.48040E+01 0.00000E+00
 -1      1863 6.24000E+01 4.61030E+01 0.00000E+00
 -1      1864 6.39000E+01 4.61030E+01 0.00000E+00
 -1      1865 6.16500E+01 4.48040E+01 0.00000E+00
 -1      1866 6.54000E+01 4.61030E+01 0.00000E+00
 -1      1867 6.69000E+01 4.61030E+01 0.00000E+00
 -1      1868 6.46500E+01 4.48040E+01 0.00000E+00
 -1      1869 6.84000E+01 4.61030E+01 0.00000E+00
 -1      1870 6.99000E+01 4.61030E+01 0.00000E+00
 -1      1871 6.76500E+01 4.48040E+01 0.00000E+00
 -1      1872 7.14000E+01 4.61030E+01 0.00000E+00
 -1      1873 7.29000E+01 4.61030E+01 0.00000E+00
 -1      1874 7.06500E+01 4.48040E+01 0.00000E+00
 -1      1875 7.44000E+01 4.61030E+01 0.00000E+00
 -1      1876 7.59000E+01 4.61030E+01 0.00000E+00
 -1      1877 7.36500E+01 4.48040E+01 0.00000E+00
 -1      1878 7.74000E+01 4.61030E+01 0.00000E+00
 -1      1879 7.89000E+01 4.61030E+01 0.00000E+00
 -1      1880 7.66500E+01 4.48040E+01 0.00000E+00
 -1      1881 8.04000E+01 4.61030E+01 0.00000E+00
 -1      1882 8.19000E+01 4.61030E+01 0.00000E+00
 -1      1883 7.96500E+01 4.48040E+01 0.00000E+00
 -1      1884 8.34000E+01 4.61030E+01 0.00000E+00
 -1      1885 8.49000E+01 4.61030E+01 0.00000E+00
 -1      1886 8.26500E+01 4.48040E+01 0.00000E+00
 -1      1887 8.64000E+01 4.61030E+01 0.00000E+00
 -1      1888 8.79000E+01 4.61030E+01 0.00000E+00
 -1      1889 8.56500E+01 4.48040E+01 0.00000E+00
 -1      1890 8.94000E+01 4.61030E+01 0.00000E+00
 -1      1891 9.09000E+01 4.61030E+01 0.00000E+00
 -1      1892 8.86500E+01 4.48040E+01 0.00000E+00
 -1      1893 9.24000E+01 4.61030E+01 0.00000E+00
 -1      1894 9.39000E+01 4.61030E+01 0.00000E+00
 -1      1895 9.16500E+01 4.48040E+01 0.00000E+00
 -1      1896 9.54000E+01 4.61030E+01 0.00000E+00
 -1      1897 9.69000E+01 4.61030E+01 0.00000E+00
 -1      1898 9.46500E+01 4.48040E+01 0.00000E+00
 -1      1899 9.84000E+01 4.61030E+01 0.00000E+00
 -1      1900 9.99000E+01 4.61030E+01 0.00000E+00
 -1      1901 9.76500E+01 4.48040E+01 0.00000E+00
 -1      1902 1.01400E+02 4.61030E+01 0.00000E+00
 -1      1903 1.02900E+02 4.61030E+01 0.00000E+00
 -1      1904 1.00650E+02 4.48040E+01 0.00000E+00
 -1      1905 1.04400E+02 4.61030E+01 0.00000E+00
 -1      1906 1.05900E+02 4.61030E+01 0.00000E+00
 -1      1907 1.03650E+02 4.48040E+01 0.00000E+00
 -1      1908 1.07400E+02 4.61030E+01 0.00000E+00
 -1      1909 1.08900E+02 4.61030E+01 0.00000E+00
 -1      1910 1.06650E+02 4.48040E+01 0.00000E+00
 -1      1911 1.10400E+02 4.61030E+01 0.00000E+00
 -1      1912 1.11900E+02 4.61030E+01 0.00000E+00
 -1      1913 1.09650E+02 4.48040E+01 0.00000E+00
 -1      1914 1.13400E+02 4.61030E+01 0.00000E+00
 -1      1915 1.14900E+02 4.61030E+01 0.00000E+00
 -1      1916 1.12650E+02 4.48040E+01 0.00000E+00
 -1      1917 1.16400E+02 4.61030E+01 0.00000E+00
 -1      1918 1.17900E+02 4.61030E+01 0.00000E+00
 -1      1919 1.15650E+02 4.48040E+01 0.00000E+00
 -1      1920 1.19400E+02 4.61030E+01 0.00000E+00
 -1      1921 1.20900E+02 4.61030E+01 0.00000E+00
 -1      1922 1.18650E+02 4.48040E+01 0.00000E+00
 -1      1923 1.22400E+02 4.61030E+01 0.00000E+00
 -1      1924 1.23900E+02 4.61030E+01 0.00000E+00
 -1      1925 1.21650E+02 4.48040E+01 0.00000E+00
 -1      1926 1.25400E+02 4.61030E+01 0.00000E+00
 -1      1927 1.26900E+02 4.61030E+01 0.00000E+00
 -1      1928 1.24650E+02 4.48040E+01 0.00000E+00
 -1      1929 1.28400E+02 4.61030E+01 0.00000E+00
 -1      1930 1.29900E+02 4.61030E+01 0.00000E+00
 -1      1931 1.27650E+02 4.48040E+01 0.00000E+00
 -1      1932 1.31400E+02 4.61030E+01 0.00000E+00
 -1      1933 1.32900E+02 4.61030E+01 0.00000E+00
 -1      1934 1.30650E+02 4.48040E+01 0.00000E+00
 -1      1935 1.34400E+02 4.61030E+01 0.00000E+00
 -1      1936 1.35900E+02 4.61030E+01 0.00000E+00
 -1      1937 1.33650E+02 4.48040E+01 0.00000E+00
 -1      1938 1.37400E+02 4.61030E+01 0.00000E+00
 -1      1939 1.38900E+02 4.61030E+01 0.00000E+00
 -1      1940 1.36650E+02 4.48040E+01 0.00000E+00
 -1      1941 1.40400E+02 4.61030E+01 0.00000E+00
 -1      1942 1.41900E+02 4.61030E+01 0.00000E+00
 -1      1943 1.39650E+02 4.48040E+01 0.00000E+00
 -1      1944 1.43244E+02 4.61554E+01 0.00000E+00
 -1      1945 1.44744E+02 4.61554E+01 0.00000E+00
 -1      1946 1.45182E+02 4.49611E+01 0.00000E+00
 -1      1947 1.42494E+02 4.48564E+01 0.00000E+00
 -1      1948 1.17045E+01 3.09687E+00 0.00000E+00
 -1      1949 1.02045E+01 3.09687E+00 0.00000E+00
 -1      1950 1.00350E+01 4.00625E+00 0.00000E+00
 -1      1951 1.47045E+01 3.09687E+00 0.00000E+00
 -1      1952 1.32045E+01 3.09687E+00 0.00000E+00
 -1      1953 1.30350E+01 4.00625E+00 0.00000E+00
 -1      1954 1.77045E+01 3.09687E+00 0.00000E+00
 -1      1955 1.62045E+01 3.09687E+00 0.00000E+00
 -1      1956 1.60350E+01 4.00625E+00 0.00000E+00
 -1      1957 2.07045E+01 3.09687E+00 0.00000E+00
 -1      1958 1.92045E+01 3.09687E+00 0.00000E+00
 -1      1959 1.90350E+01 4.00625E+00 0.00000E+00
 -1      1960 2.37045E+01 3.09687E+00 0.00000E+00
 -1      1961 2.22045E+01 3.09687E+00 0.00000E+00
 -1      1962 2.20350E+01 4.00625E+00 0.00000E+00
 -1      1963 2.68545E+01 3.09687E+00 0.00000E+00
 -1      1964 2.52795E+01 3.09687E+00 0.00000E+00
 -1      1965 2.51100E+01 4.00625E+00 0.00000E+00
 -1      1966 2.98545E+01 3.09687E+00 0.00000E+00
 -1      1967 2.83545E+01 3.09687E+00 0.00000E+00
 -1      1968 2.81850E+01 4.00625E+00 0.00000E+00
 -1      1969 3.28545E+01 3.09687E+00 0.00000E+00
 -1      1970 3.13545E+01 3.09687E+00 0.00000E+00
 -1      1971 3.11850E+01 4.00625E+00 0.00000E+00
 -1      1972 3.58545E+01 3.09687E+00 0.00000E+00
 -1      1973 3.43545E+01 3.09687E+00 0.00000E+00
 -1      1974 3.41850E+01 4.00625E+00 0.00000E+00
 -1      1975 3.88545E+01 3.09687E+00 0.00000E+00
 -1      1976 3.73545E+01 3.09687E+00 0.00000E+00
 -1      1977 3.71850E+01 4.00625E+00 0.00000E+00
 -1      1978 4.18545E+01 3.09687E+00 0.00000E+00
 -1      1979 4.03545E+01 3.09687E+00 0.00000E+00
 -1      1980 4.01850E+01 4.00625E+00 0.00000E+00
 -1      1981 4.48545E+01 3.09687E+00 0.00000E+00
 -1      1982 4.33545E+01 3.09687E+00 0.00000E+00
 -1      1983 4.31850E+01 4.00625E+00 0.00000E+00
 -1      1984 4.78545E+01 3.09687E+00 0.00000E+00
 -1      1985 4.63545E+01 3.09687E+00 0.00000E+00
 -1      1986 4.61850E+01 4.00625E+00 0.00000E+00
 -1      1987 5.08545E+01 3.09687E+00 0.00000E+00
 -1      1988 4.93545E+01 3.09687E+00 0.00000E+00
 -1      1989 4.91850E+01 4.00625E+00 0.00000E+00
 -1      1990 5.40045E+01 3.09687E+00 0.00000E+00
 -1      1991 5.24295E+01 3.09687E+00 0.00000E+00
 -1      1992 5.22600E+01 4.00625E+00 0.00000E+00
 -1      1993 5.70045E+01 3.09687E+00 0.00000E+00
 -1      1994 5.55045E+01 3.09687E+00 0.00000E+00
 -1      1995 5.53350E+01 4.00625E+00 0.00000E+00
 -1      1996 6.00045E+01 3.09687E+00 0.00000E+00
 -1      1997 5.85045E+01 3.09687E+00 0.00000E+00
 -1      1998 5.83350E+01 4.00625E+00 0.00000E+00
 -1      1999 6.30045E+01 3.09687E+00 0.00000E+00
 -1      2000 6.15045E+01 3.09687E+00 0.00000E+00
 -1      2001 6.13350E+01 4.00625E+00 0.00000E+00
 -1      2002 6.60045E+01 3.09687E+00 0.00000E+00
 -1      2003 6.45045E+01 3.09687E+00 0.00000E+00
 -1      2004 6.43350E+01 4.00625E+00 0.00000E+00
 -1      2005 6.90045E+01 3.09687E+00 0.00000E+00
 -1      2006 6.75045E+01 3.09687E+00 0.00000E+00
 -1      2007 6.73350E+01 4.00625E+00 0.00000E+00
 -1      2008 7.20045E+01 3.09687E+00 0.00000E+00
 -1      2009 7.05045E+01 3.09687E+00 0.00000E+00
 -1      2010 7.03350E+01 4.00625E+00 0.00000E+00
 -1      2011 7.50045E+01 3.09687E+00 0.00000E+00
 -1      2012 7.35045E+01 3.09687E+00 0.00000E+00
 -1      2013 7.33350E+01 4.00625E+00 0.00000E+00
 -1      2014 7.80045E+01 3.09687E+00 0.00000E+00
 -1      2015 7.65045E+01 3.09687E+00 0.00000E+00
 -1      2016 7.63350E+01 4.00625E+00 0.00000E+00
 -1      2017 8.11545E+01 3.09687E+00 0.00000E+00
 -1      2018 7.95795E+01 3.09687E+00 0.00000E+00
 -1      2019 7.94100E+01 4.00625E+00 0.00000E+00
 -1      2020 8.41545E+01 3.09687E+00 0.00000E+00
 -1      2021 8.26545E+01 3.09687E+00 0.00000E+00
 -1      2022 8.24850E+01 4.00625E+00 0.00000E+00
 -1      2023 8.71545E+01 3.09687E+00 0.00000E+00
 -1      2024 8.56545E+01 3.09687E+00 0.00000E+00
 -1      2025 8.54850E+01 4.00625E+00 0.00000E+00
 -1      2026 9.01545E+01 3.09687E+00 0.00000E+00
 -1      2027 8.86545E+01 3.09687E+00 0.00000E+00
 -1      2028 8.84850E+01 4.00625E+00 0.00000E+00
 -1      2029 9.31545E+01 3.09687E+00 0.00000E+00
 -1      2030 9.16545E+01 3.09687E+00 0.00000E+00
 -1      2031 9.14850E+01 4.00625E+00 0.00000E+00
 -1      2032 9.61545E+01 3.09687E+00 0.00000E+00
 -1      2033 9.46545E+01 3.09687E+00 0.00000E+00
 -1      2034 9.44850E+01 4.00625E+00 0.00000E+00
 -1      2035 9.91545E+01 3.09687E+00 0.00000E+00
 -1      2036 9.76545E+01 3.09687E+00 0.00000E+00
 -1      2037 9.74850E+01 4.00625E+00 0.00000E+00
 -1      2038 1.02155E+02 3.09687E+00 0.00000E+00
 -1      2039 1.00655E+02 3.09687E+00 0.00000E+00
 -1      2040 1.00485E+02 4.00625E+00 0.00000E+00
 -1      2041 1.05155E+02 3.09687E+00 0.00000E+00
 -1      2042 1.03655E+02 3.09687E+00 0.00000E+00
 -1      2043 1.03485E+02 4.00625E+00 0.00000E+00
 -1      2044 1.08304E+02 3.09687E+00 0.00000E+00
 -1      2045 1.06729E+02 3.09687E+00 0.00000E+00
 -1      2046 1.06560E+02 4.00625E+00 0.00000E+00
 -1      2047 1.11304E+02 3.09687E+00 0.00000E+00
 -1      2048 1.09804E+02 3.09687E+00 0.00000E+00
 -1      2049 1.09635E+02 4.00625E+00 0.00000E+00
 -1      2050 1.14304E+02 3.09687E+00 0.00000E+00
 -1      2051 1.12804E+02 3.09687E+00 0.00000E+00
 -1      2052 1.12635E+02 4.00625E+00 0.00000E+00
 -1      2053 1.17304E+02 3.09687E+00 0.00000E+00
 -1      2054 1.15804E+02 3.09687E+00 0.00000E+00
 -1      2055 1.15635E+02 4.00625E+00 0.00000E+00
 -1      2056 1.20304E+02 3.09687E+00 0.00000E+00
 -1      2057 1.18804E+02 3.09687E+00 0.00000E+00
 -1      2058 1.18635E+02 4.00625E+00 0.00000E+00
 -1      2059 1.23304E+02 3.09687E+00 0.00000E+00
 -1      2060 1.21804E+02 3.09687E+00 0.00000E+00
 -1      2061 1.21635E+02 4.00625E+00 0.00000E+00
 -1      2062 1.26304E+02 3.09687E+00 0.00000E+00
 -1      2063 1.24804E+02 3.09687E+00 0.00000E+00
 -1      2064 1.24635E+02 4.00625E+00 0.00000E+00
 -1      2065 1.29305E+02 3.09687E+00 0.00000E+00
 -1      2066 1.27804E+02 3.09687E+00 0.00000E+00
 -1      2067 1.27635E+02 4.00625E+00 0.00000E+00
 -1      2068 1.32305E+02 3.09687E+00 0.00000E+00
 -1      2069 1.30805E+02 3.09687E+00 0.00000E+00
 -1      2070 1.30635E+02 4.00625E+00 0.00000E+00
 -1      2071 1.34855E+02 3.09687E+00 0.00000E+00
 -1      2072 1.33579E+02 3.09687E+00 0.00000E+00
 -1      2073 1.33410E+02 4.00625E+00 0.00000E+00
 -1      2074 1.37555E+02 3.09687E+00 0.00000E+00
 -1      2075 1.36204E+02 3.09687E+00 0.00000E+00
 -1      2076 1.36035E+02 4.00625E+00 0.00000E+00
 -1      2077 1.42974E+02 3.48650E+00 0.00000E+00
 -1      2078 1.41474E+02 3.48650E+00 0.00000E+00
 -1      2079 1.45768E+02 3.40887E+00 0.00000E+00
 -1      2080 1.44268E+02 3.40887E+00 0.00000E+00
 -1      2081 1.43518E+02 4.70787E+00 0.00000E+00
 -1      2082 1.46107E+02 4.55263E+00 0.00000E+00
 -1      2083 1.46299E+02 1.13625E+01 0.00000E+00
 -1      2084 1.46299E+02 1.02375E+01 0.00000E+00
 -1      2085 1.46299E+02 9.01250E+00 0.00000E+00
 -1      2086 1.46299E+02 7.78750E+00 0.00000E+00
 -1      2087 1.45195E+02 9.57500E+00 0.00000E+00
 -1      2088 1.46107E+02 5.92763E+00 0.00000E+00
 -1      2089 1.46299E+02 1.37125E+01 0.00000E+00
 -1      2090 1.46299E+02 1.25375E+01 0.00000E+00
 -1      2091 1.45195E+02 1.19750E+01 0.00000E+00
 -1      2092 1.46299E+02 1.60625E+01 0.00000E+00
 -1      2093 1.46299E+02 1.48875E+01 0.00000E+00
 -1      2094 1.45195E+02 1.43250E+01 0.00000E+00
 -1      2095 1.46299E+02 1.85625E+01 0.00000E+00
 -1      2096 1.46299E+02 1.73125E+01 0.00000E+00
 -1      2097 1.45195E+02 1.67500E+01 0.00000E+00
 -1      2098 1.46299E+02 2.13625E+01 0.00000E+00
 -1      2099 1.46299E+02 1.99625E+01 0.00000E+00
 -1      2100 1.45195E+02 1.94000E+01 0.00000E+00
 -1      2101 1.46299E+02 2.43625E+01 0.00000E+00
 -1      2102 1.46299E+02 2.28625E+01 0.00000E+00
 -1      2103 1.45195E+02 2.23000E+01 0.00000E+00
 -1      2104 1.46299E+02 2.73125E+01 0.00000E+00
 -1      2105 1.46299E+02 2.58375E+01 0.00000E+00
 -1      2106 1.45195E+02 2.52750E+01 0.00000E+00
 -1      2107 1.46299E+02 3.02625E+01 0.00000E+00
 -1      2108 1.46299E+02 2.87875E+01 0.00000E+00
 -1      2109 1.45195E+02 2.82250E+01 0.00000E+00
 -1      2110 1.46299E+02 3.32125E+01 0.00000E+00
 -1      2111 1.46299E+02 3.17375E+01 0.00000E+00
 -1      2112 1.45195E+02 3.11750E+01 0.00000E+00
 -1      2113 1.46299E+02 3.61625E+01 0.00000E+00
 -1      2114 1.46299E+02 3.46875E+01 0.00000E+00
 -1      2115 1.45195E+02 3.41250E+01 0.00000E+00
 -1      2116 1.46299E+02 3.91125E+01 0.00000E+00
 -1      2117 1.46299E+02 3.76375E+01 0.00000E+00
 -1      2118 1.45195E+02 3.70750E+01 0.00000E+00
 -1      2119 1.46299E+02 4.20625E+01 0.00000E+00
 -1      2120 1.46299E+02 4.05875E+01 0.00000E+00
 -1      2121 1.45195E+02 4.00250E+01 0.00000E+00
 -1      2122 1.40818E+02 1.05856E+01 0.00000E+00
 -1      2123 1.41139E+02 1.14163E+01 0.00000E+00
 -1      2124 1.41258E+02 1.43189E+01 0.00000E+00
 -1      2125 1.41073E+02 1.50432E+01 0.00000E+00
 -1      2126 1.41248E+02 1.24499E+01 0.00000E+00
 -1      2127 1.41379E+02 1.32842E+01 0.00000E+00
 -1      2128 1.39564E+02 9.02058E+00 0.00000E+00
 -1      2129 1.40130E+02 9.67569E+00 0.00000E+00
 -1      2130 1.40379E+02 1.76796E+01 0.00000E+00
 -1      2131 1.40230E+02 1.81065E+01 0.00000E+00
 -1      2132 1.40921E+02 1.75149E+01 0.00000E+00
 -1      2133 1.38392E+02 7.74616E+00 0.00000E+00
 -1      2134 1.38978E+02 8.38337E+00 0.00000E+00
 -1      2135 1.39810E+02 8.23638E+00 0.00000E+00
 -1      2136 1.40903E+02 1.56078E+01 0.00000E+00
 -1      2137 1.40869E+02 1.60940E+01 0.00000E+00
 -1      2138 1.41239E+02 1.65235E+01 0.00000E+00
 -1      2139 1.41578E+02 1.53944E+01 0.00000E+00
 -1      2140 3.89700E+00 3.74688E+01 0.00000E+00
 -1      2141 3.89700E+00 3.89437E+01 0.00000E+00
 -1      2142 5.19600E+00 3.96813E+01 0.00000E+00
 -1      2143 5.19600E+00 3.67438E+01 0.00000E+00
 -1      2144 1.34985E+02 5.96804E+00 0.00000E+00
 -1      2145 1.35809E+02 6.27458E+00 0.00000E+00
 -1      2146 1.33066E+02 5.74496E+00 0.00000E+00
 -1      2147 1.33934E+02 5.79115E+00 0.00000E+00
 -1      2148 1.31397E+02 6.01169E+00 0.00000E+00
 -1      2149 1.32231E+02 5.87833E+00 0.00000E+00
 -1      2150 1.32700E+02 5.25424E+00 0.00000E+00
 -1      2151 1.29495E+02 6.25409E+00 0.00000E+00
 -1      2152 1.30349E+02 6.06001E+00 0.00000E+00
 -1      2153 1.27566E+02 6.98081E+00 0.00000E+00
 -1      2154 1.28441E+02 6.54735E+00 0.00000E+00
 -1      2155 1.26004E+02 8.57518E+00 0.00000E+00
 -1      2156 1.26568E+02 7.81223E+00 0.00000E+00
 -1      2157 1.25075E+02 1.00773E+01 0.00000E+00
 -1      2158 1.25538E+02 9.38191E+00 0.00000E+00
 -1      2159 1.24175E+02 1.16696E+01 0.00000E+00
 -1      2160 1.24534E+02 1.08811E+01 0.00000E+00
 -1      2161 1.23838E+02 1.35557E+01 0.00000E+00
 -1      2162 1.23987E+02 1.27010E+01 0.00000E+00
 -1      2163 1.23804E+02 1.53948E+01 0.00000E+00
 -1      2164 1.23771E+02 1.45442E+01 0.00000E+00
 -1      2165 1.24130E+02 1.72109E+01 0.00000E+00
 -1      2166 1.23888E+02 1.64076E+01 0.00000E+00
 -1      2167 1.24813E+02 1.88398E+01 0.00000E+00
 -1      2168 1.24482E+02 1.80608E+01 0.00000E+00
 -1      2169 1.25769E+02 2.04574E+01 0.00000E+00
 -1      2170 1.25266E+02 1.97387E+01 0.00000E+00
 -1      2171 1.27054E+02 2.18769E+01 0.00000E+00
 -1      2172 1.26418E+02 2.12333E+01 0.00000E+00
 -1      2173 1.28941E+02 2.28210E+01 0.00000E+00
 -1      2174 1.28089E+02 2.25557E+01 0.00000E+00
 -1      2175 1.30549E+02 2.33665E+01 0.00000E+00
 -1      2176 1.29745E+02 2.30937E+01 0.00000E+00
 -1      2177 1.29089E+02 2.36999E+01 0.00000E+00
 -1      2178 1.32432E+02 2.34995E+01 0.00000E+00
 -1      2179 1.31583E+02 2.34377E+01 0.00000E+00
 -1      2180 1.34351E+02 2.34682E+01 0.00000E+00
 -1      2181 1.33437E+02 2.35641E+01 0.00000E+00
 -1      2182 1.36515E+02 2.31696E+01 0.00000E+00
 -1      2183 1.35493E+02 2.34526E+01 0.00000E+00
 -1      2184 1.38343E+02 2.16017E+01 0.00000E+00
 -1      2185 1.37638E+02 2.22964E+01 0.00000E+00
 -1      2186 1.39403E+02 2.01746E+01 0.00000E+00
 -1      2187 1.38936E+02 2.08045E+01 0.00000E+00
 -1      2188 1.40013E+02 1.87925E+01 0.00000E+00
 -1      2189 1.39730E+02 1.93955E+01 0.00000E+00
 -1      2190 1.36692E+02 6.66662E+00 0.00000E+00
 -1      2191 1.37482E+02 7.07594E+00 0.00000E+00
 -1      2192 1.41881E+02 1.17269E+01 0.00000E+00
 -1      2193 6.42300E+00 4.57510E+01 0.00000E+00
 -1      2194 7.17300E+00 4.44520E+01 0.00000E+00
 -1      2195 1.39974E+02 3.37457E+00 0.00000E+00
 -1      2196 1.38474E+02 3.37457E+00 0.00000E+00
 -1      2197 1.45004E+02 6.49013E+00 0.00000E+00
 -1      2198 1.41868E+02 1.37952E+01 0.00000E+00
 -1      2199 1.38305E+02 4.28394E+00 0.00000E+00
 -1      2200 1.45861E+02 4.32567E+01 0.00000E+00
 -1      2201 1.41085E+02 9.78346E+00 0.00000E+00
 -1      2202 1.40556E+02 1.86278E+01 0.00000E+00
 -1      2203 1.36521E+02 5.86669E+00 0.00000E+00
 -1      2204 1.40012E+02 2.00930E+01 0.00000E+00
 -1      2205 1.39093E+02 2.16693E+01 0.00000E+00
 -1      2206 1.37377E+02 2.33397E+01 0.00000E+00
 -1      2207 1.37116E+02 2.43830E+01 0.00000E+00
 -1      2208 1.38239E+02 2.35099E+01 0.00000E+00
 -1      2209 1.35112E+02 2.42284E+01 0.00000E+00
 -1      2210 1.30927E+02 2.40438E+01 0.00000E+00
 -1      2211 1.27250E+02 2.27483E+01 0.00000E+00
 -1      2212 1.25567E+02 2.12937E+01 0.00000E+00
 -1      2213 1.24465E+02 1.96190E+01 0.00000E+00
 -1      2214 1.23661E+02 1.78702E+01 0.00000E+00
 -1      2215 1.23224E+02 1.60074E+01 0.00000E+00
 -1      2216 1.23207E+02 1.40060E+01 0.00000E+00
 -1      2217 1.23462E+02 1.19861E+01 0.00000E+00
 -1      2218 1.24191E+02 1.01509E+01 0.00000E+00
 -1      2219 1.25198E+02 8.54034E+00 0.00000E+00
 -1      2220 1.26662E+02 6.90219E+00 0.00000E+00
 -1      2221 1.38314E+02 6.92895E+00 0.00000E+00
 -1      2222 1.30817E+02 5.43593E+00 0.00000E+00
 -1      2223 1.34586E+02 5.29777E+00 0.00000E+00
 -1      2224 1.28714E+02 5.77751E+00 0.00000E+00
 -1      2225 1.32965E+02 2.41795E+01 0.00000E+00
 -1      2226 1.40724E+02 4.67357E+00 0.00000E+00
 -1      2227 1.07850E+01 5.30525E+00 0.00000E+00
 -1      2228 9.28500E+00 5.30525E+00 0.00000E+00
 -1      2229 6.49500E+00 3.01125E+01 0.00000E+00
 -1      2230 6.49500E+00 3.15875E+01 0.00000E+00
 -1      2231 6.49500E+00 3.30625E+01 0.00000E+00
 -1      2232 6.49500E+00 3.45375E+01 0.00000E+00
 -1      2233 7.79400E+00 3.23250E+01 0.00000E+00
 -1      2234 6.49500E+00 2.42125E+01 0.00000E+00
 -1      2235 6.49500E+00 2.56875E+01 0.00000E+00
 -1      2236 6.49500E+00 2.12625E+01 0.00000E+00
 -1      2237 6.49500E+00 2.27375E+01 0.00000E+00
 -1      2238 7.79400E+00 2.34750E+01 0.00000E+00
 -1      2239 6.49500E+00 1.83625E+01 0.00000E+00
 -1      2240 6.49500E+00 1.98125E+01 0.00000E+00
 -1      2241 7.79400E+00 2.05500E+01 0.00000E+00
 -1      2242 6.49500E+00 1.54125E+01 0.00000E+00
 -1      2243 6.49500E+00 1.68875E+01 0.00000E+00
 -1      2244 7.79400E+00 1.76250E+01 0.00000E+00
 -1      2245 6.49500E+00 1.24625E+01 0.00000E+00
 -1      2246 6.49500E+00 1.39375E+01 0.00000E+00
 -1      2247 7.79400E+00 1.46750E+01 0.00000E+00
 -1      2248 6.49500E+00 9.51250E+00 0.00000E+00
 -1      2249 6.49500E+00 1.09875E+01 0.00000E+00
 -1      2250 7.79400E+00 1.17250E+01 0.00000E+00
 -1      2251 9.90000E+00 4.35050E+01 0.00000E+00
 -1      2252 1.14000E+01 4.35050E+01 0.00000E+00
 -1      2253 1.40087E+02 7.39389E+00 0.00000E+00
 -1      2254 1.40673E+02 8.03110E+00 0.00000E+00
 -1      2255 1.37850E+01 5.30525E+00 0.00000E+00
 -1      2256 1.22850E+01 5.30525E+00 0.00000E+00
 -1      2257 1.15350E+01 6.60425E+00 0.00000E+00
 -1      2258 6.55950E+00 4.28890E+01 0.00000E+00
 -1      2259 8.53650E+00 4.32410E+01 0.00000E+00
 -1      2260 9.28650E+00 4.19420E+01 0.00000E+00
 -1      2261 6.55950E+00 4.14140E+01 0.00000E+00
 -1      2262 1.29000E+01 4.35050E+01 0.00000E+00
 -1      2263 1.44000E+01 4.35050E+01 0.00000E+00
 -1      2264 1.21500E+01 4.22060E+01 0.00000E+00
 -1      2265 1.59000E+01 4.35050E+01 0.00000E+00
 -1      2266 1.74000E+01 4.35050E+01 0.00000E+00
 -1      2267 1.51500E+01 4.22060E+01 0.00000E+00
 -1      2268 1.89000E+01 4.35050E+01 0.00000E+00
 -1      2269 2.04000E+01 4.35050E+01 0.00000E+00
 -1      2270 1.81500E+01 4.22060E+01 0.00000E+00
 -1      2271 2.19000E+01 4.35050E+01 0.00000E+00
 -1      2272 2.34000E+01 4.35050E+01 0.00000E+00
 -1      2273 2.11500E+01 4.22060E+01 0.00000E+00
 -1      2274 2.49000E+01 4.35050E+01 0.00000E+00
 -1      2275 2.64000E+01 4.35050E+01 0.00000E+00
 -1      2276 2.41500E+01 4.22060E+01 0.00000E+00
 -1      2277 2.79000E+01 4.35050E+01 0.00000E+00
 -1      2278 2.94000E+01 4.35050E+01 0.00000E+00
 -1      2279 2.71500E+01 4.22060E+01 0.00000E+00
 -1      2280 3.09000E+01 4.35050E+01 0.00000E+00
 -1      2281 3.24000E+01 4.35050E+01 0.00000E+00
 -1      2282 3.01500E+01 4.22060E+01 0.00000E+00
 -1      2283 3.39000E+01 4.35050E+01 0.00000E+00
 -1      2284 3.54000E+01 4.35050E+01 0.00000E+00
 -1      2285 3.31500E+01 4.22060E+01 0.00000E+00
 -1      2286 3.69000E+01 4.35050E+01 0.00000E+00
 -1      2287 3.84000E+01 4.35050E+01 0.00000E+00
 -1      2288 3.61500E+01 4.22060E+01 0.00000E+00
 -1      2289 3.99000E+01 4.35050E+01 0.00000E+00
 -1      2290 4.14000E+01 4.35050E+01 0.00000E+00
 -1      2291 3.91500E+01 4.22060E+01 0.00000E+00
 -1      2292 4.29000E+01 4.35050E+01 0.00000E+00
 -1      2293 4.44000E+01 4.35050E+01 0.00000E+00
 -1      2294 4.21500E+01 4.22060E+01 0.00000E+00
 -1      2295 4.59000E+01 4.35050E+01 0.00000E+00
 -1      2296 4.74000E+01 4.35050E+01 0.00000E+00
 -1      2297 4.51500E+01 4.22060E+01 0.00000E+00
 -1      2298 4.89000E+01 4.35050E+01 0.00000E+00
 -1      2299 5.04000E+01 4.35050E+01 0.00000E+00
 -1      2300 4.81500E+01 4.22060E+01 0.00000E+00
 -1      2301 5.19000E+01 4.35050E+01 0.00000E+00
 -1      2302 5.34000E+01 4.35050E+01 0.00000E+00
 -1      2303 5.11500E+01 4.22060E+01 0.00000E+00
 -1      2304 5.49000E+01 4.35050E+01 0.00000E+00
 -1      2305 5.64000E+01 4.35050E+01 0.00000E+00
 -1      2306 5.41500E+01 4.22060E+01 0.00000E+00
 -1      2307 5.79000E+01 4.35050E+01 0.00000E+00
 -1      2308 5.94000E+01 4.35050E+01 0.00000E+00
 -1      2309 5.71500E+01 4.22060E+01 0.00000E+00
 -1      2310 6.09000E+01 4.35050E+01 0.00000E+00
 -1      2311 6.24000E+01 4.35050E+01 0.00000E+00
 -1      2312 6.01500E+01 4.22060E+01 0.00000E+00
 -1      2313 6.39000E+01 4.35050E+01 0.00000E+00
 -1      2314 6.54000E+01 4.35050E+01 0.00000E+00
 -1      2315 6.31500E+01 4.22060E+01 0.00000E+00
 -1      2316 6.69000E+01 4.35050E+01 0.00000E+00
 -1      2317 6.84000E+01 4.35050E+01 0.00000E+00
 -1      2318 6.61500E+01 4.22060E+01 0.00000E+00
 -1      2319 6.99000E+01 4.35050E+01 0.00000E+00
 -1      2320 7.14000E+01 4.35050E+01 0.00000E+00
 -1      2321 6.91500E+01 4.22060E+01 0.00000E+00
 -1      2322 7.29000E+01 4.35050E+01 0.00000E+00
 -1      2323 7.44000E+01 4.35050E+01 0.00000E+00
 -1      2324 7.21500E+01 4.22060E+01 0.00000E+00
 -1      2325 7.59000E+01 4.35050E+01 0.00000E+00
 -1      2326 7.74000E+01 4.35050E+01 0.00000E+00
 -1      2327 7.51500E+01 4.22060E+01 0.00000E+00
 -1      2328 7.89000E+01 4.35050E+01 0.00000E+00
 -1      2329 8.04000E+01 4.35050E+01 0.00000E+00
 -1      2330 7.81500E+01 4.22060E+01 0.00000E+00
 -1      2331 8.19000E+01 4.35050E+01 0.00000E+00
 -1      2332 8.34000E+01 4.35050E+01 0.00000E+00
 -1      2333 8.11500E+01 4.22060E+01 0.00000E+00
 -1      2334 8.49000E+01 4.35050E+01 0.00000E+00
 -1      2335 8.64000E+01 4.35050E+01 0.00000E+00
 -1      2336 8.41500E+01 4.22060E+01 0.00000E+00
 -1      2337 8.79000E+01 4.35050E+01 0.00000E+00
 -1      2338 8.94000E+01 4.35050E+01 0.00000E+00
 -1      2339 8.71500E+01 4.22060E+01 0.00000E+00
 -1      2340 9.09000E+01 4.35050E+01 0.00000E+00
 -1      2341 9.24000E+01 4.35050E+01 0.00000E+00
 -1      2342 9.01500E+01 4.22060E+01 0.00000E+00
 -1      2343 9.39000E+01 4.35050E+01 0.00000E+00
 -1      2344 9.54000E+01 4.35050E+01 0.00000E+00
 -1      2345 9.31500E+01 4.22060E+01 0.00000E+00
 -1      2346 9.69000E+01 4.35050E+01 0.00000E+00
 -1      2347 9.84000E+01 4.35050E+01 0.00000E+00
 -1      2348 9.61500E+01 4.22060E+01 0.00000E+00
 -1      2349 9.99000E+01 4.35050E+01 0.00000E+00
 -1      2350 1.01400E+02 4.35050E+01 0.00000E+00
 -1      2351 9.91500E+01 4.22060E+01 0.00000E+00
 -1      2352 1.02900E+02 4.35050E+01 0.00000E+00
 -1      2353 1.04400E+02 4.35050E+01 0.00000E+00
 -1      2354 1.02150E+02 4.22060E+01 0.00000E+00
 -1      2355 1.05900E+02 4.35050E+01 0.00000E+00
 -1      2356 1.07400E+02 4.35050E+01 0.00000E+00
 -1      2357 1.05150E+02 4.22060E+01 0.00000E+00
 -1      2358 1.08900E+02 4.35050E+01 0.00000E+00
 -1      2359 1.10400E+02 4.35050E+01 0.00000E+00
 -1      2360 1.08150E+02 4.22060E+01 0.00000E+00
 -1      2361 1.11900E+02 4.35050E+01 0.00000E+00
 -1      2362 1.13400E+02 4.35050E+01 0.00000E+00
 -1      2363 1.11150E+02 4.22060E+01 0.00000E+00
 -1      2364 1.14900E+02 4.35050E+01 0.00000E+00
 -1      2365 1.16400E+02 4.35050E+01 0.00000E+00
 -1      2366 1.14150E+02 4.22060E+01 0.00000E+00
 -1      2367 1.17900E+02 4.35050E+01 0.00000E+00
 -1      2368 1.19400E+02 4.35050E+01 0.00000E+00
 -1      2369 1.17150E+02 4.22060E+01 0.00000E+00
 -1      2370 1.20900E+02 4.35050E+01 0.00000E+00
 -1      2371 1.22400E+02 4.35050E+01 0.00000E+00
 -1      2372 1.20150E+02 4.22060E+01 0.00000E+00
 -1      2373 1.23900E+02 4.35050E+01 0.00000E+00
 -1      2374 1.25400E+02 4.35050E+01 0.00000E+00
 -1      2375 1.23150E+02 4.22060E+01 0.00000E+00
 -1      2376 1.26900E+02 4.35050E+01 0.00000E+00
 -1      2377 1.28400E+02 4.35050E+01 0.00000E+00
 -1      2378 1.26150E+02 4.22060E+01 0.00000E+00
 -1      2379 1.29900E+02 4.35050E+01 0.00000E+00
 -1      2380 1.31400E+02 4.35050E+01 0.00000E+00
 -1      2381 1.29150E+02 4.22060E+01 0.00000E+00
 -1      2382 1.32900E+02 4.35050E+01 0.00000E+00
 -1      2383 1.34400E+02 4.35050E+01 0.00000E+00
 -1      2384 1.32150E+02 4.22060E+01 0.00000E+00
 -1      2385 1.35900E+02 4.35050E+01 0.00000E+00
 -1      2386 1.37400E+02 4.35050E+01 0.00000E+00
 -1      2387 1.35150E+02 4.22060E+01 0.00000E+00
 -1      2388 1.38900E+02 4.35050E+01 0.00000E+00
 -1      2389 1.40400E+02 4.35050E+01 0.00000E+00
 -1      2390 1.38150E+02 4.22060E+01 0.00000E+00
 -1      2391 1.97850E+01 5.30525E+00 0.00000E+00
 -1      2392 1.82850E+01 5.30525E+00 0.00000E+00
 -1      2393 2.27850E+01 5.30525E+00 0.00000E+00
 -1      2394 2.12850E+01 5.30525E+00 0.00000E+00
 -1      2395 2.05350E+01 6.60425E+00 0.00000E+00
 -1      2396 2.59350E+01 5.30525E+00 0.00000E+00
 -1      2397 2.43600E+01 5.30525E+00 0.00000E+00
 -1      2398 2.36100E+01 6.60425E+00 0.00000E+00
 -1      2399 2.89350E+01 5.30525E+00 0.00000E+00
 -1      2400 2.74350E+01 5.30525E+00 0.00000E+00
 -1      2401 2.66850E+01 6.60425E+00 0.00000E+00
 -1      2402 3.19350E+01 5.30525E+00 0.00000E+00
 -1      2403 3.04350E+01 5.30525E+00 0.00000E+00
 -1      2404 2.96850E+01 6.60425E+00 0.00000E+00
 -1      2405 3.49350E+01 5.30525E+00 0.00000E+00
 -1      2406 3.34350E+01 5.30525E+00 0.00000E+00
 -1      2407 3.26850E+01 6.60425E+00 0.00000E+00
 -1      2408 3.79350E+01 5.30525E+00 0.00000E+00
 -1      2409 3.64350E+01 5.30525E+00 0.00000E+00
 -1      2410 3.56850E+01 6.60425E+00 0.00000E+00
 -1      2411 4.09350E+01 5.30525E+00 0.00000E+00
 -1      2412 3.94350E+01 5.30525E+00 0.00000E+00
 -1      2413 3.86850E+01 6.60425E+00 0.00000E+00
 -1      2414 4.39350E+01 5.30525E+00 0.00000E+00
 -1      2415 4.24350E+01 5.30525E+00 0.00000E+00
 -1      2416 4.16850E+01 6.60425E+00 0.00000E+00
 -1      2417 4.69350E+01 5.30525E+00 0.00000E+00
 -1      2418 4.54350E+01 5.30525E+00 0.00000E+00
 -1      2419 4.46850E+01 6.60425E+00 0.00000E+00
 -1      2420 4.99350E+01 5.30525E+00 0.00000E+00
 -1      2421 4.84350E+01 5.30525E+00 0.00000E+00
 -1      2422 4.76850E+01 6.60425E+00 0.00000E+00
 -1      2423 5.30850E+01 5.30525E+00 0.00000E+00
 -1      2424 5.15100E+01 5.30525E+00 0.00000E+00
 -1      2425 5.07600E+01 6.60425E+00 0.00000E+00
 -1      2426 5.60850E+01 5.30525E+00 0.00000E+00
 -1      2427 5.45850E+01 5.30525E+00 0.00000E+00
 -1      2428 5.38350E+01 6.60425E+00 0.00000E+00
 -1      2429 5.90850E+01 5.30525E+00 0.00000E+00
 -1      2430 5.75850E+01 5.30525E+00 0.00000E+00
 -1      2431 5.68350E+01 6.60425E+00 0.00000E+00
 -1      2432 6.20850E+01 5.30525E+00 0.00000E+00
 -1      2433 6.05850E+01 5.30525E+00 0.00000E+00
 -1      2434 5.98350E+01 6.60425E+00 0.00000E+00
 -1      2435 6.50850E+01 5.30525E+00 0.00000E+00
 -1      2436 6.35850E+01 5.30525E+00 0.00000E+00
 -1      2437 6.28350E+01 6.60425E+00 0.00000E+00
 -1      2438 6.80850E+01 5.30525E+00 0.00000E+00
 -1      2439 6.65850E+01 5.30525E+00 0.00000E+00
 -1      2440 6.58350E+01 6.60425E+00 0.00000E+00
 -1      2441 7.10850E+01 5.30525E+00 0.00000E+00
 -1      2442 6.95850E+01 5.30525E+00 0.00000E+00
 -1      2443 6.88350E+01 6.60425E+00 0.00000E+00
 -1      2444 7.40850E+01 5.30525E+00 0.00000E+00
 -1      2445 7.25850E+01 5.30525E+00 0.00000E+00
 -1      2446 7.18350E+01 6.60425E+00 0.00000E+00
 -1      2447 7.70850E+01 5.30525E+00 0.00000E+00
 -1      2448 7.55850E+01 5.30525E+00 0.00000E+00
 -1      2449 7.48350E+01 6.60425E+00 0.00000E+00
 -1      2450 8.02350E+01 5.30525E+00 0.00000E+00
 -1      2451 7.86600E+01 5.30525E+00 0.00000E+00
 -1      2452 7.79100E+01 6.60425E+00 0.00000E+00
 -1      2453 8.32350E+01 5.30525E+00 0.00000E+00
 -1      2454 8.17350E+01 5.30525E+00 0.00000E+00
 -1      2455 8.09850E+01 6.60425E+00 0.00000E+00
 -1      2456 8.62350E+01 5.30525E+00 0.00000E+00
 -1      2457 8.47350E+01 5.30525E+00 0.00000E+00
 -1      2458 8.39850E+01 6.60425E+00 0.00000E+00
 -1      2459 8.92350E+01 5.30525E+00 0.00000E+00
 -1      2460 8.77350E+01 5.30525E+00 0.00000E+00
 -1      2461 8.69850E+01 6.60425E+00 0.00000E+00
 -1      2462 9.22350E+01 5.30525E+00 0.00000E+00
 -1      2463 9.07350E+01 5.30525E+00 0.00000E+00
 -1      2464 8.99850E+01 6.60425E+00 0.00000E+00
 -1      2465 9.52350E+01 5.30525E+00 0.00000E+00
 -1      2466 9.37350E+01 5.30525E+00 0.00000E+00
 -1      2467 9.29850E+01 6.60425E+00 0.00000E+00
 -1      2468 9.82350E+01 5.30525E+00 0.00000E+00
 -1      2469 9.67350E+01 5.30525E+00 0.00000E+00
 -1      2470 9.59850E+01 6.60425E+00 0.00000E+00
 -1      2471 1.01235E+02 5.30525E+00 0.00000E+00
 -1      2472 9.97350E+01 5.30525E+00 0.00000E+00
 -1      2473 9.89850E+01 6.60425E+00 0.00000E+00
 -1      2474 1.04235E+02 5.30525E+00 0.00000E+00
 -1      2475 1.02735E+02 5.30525E+00 0.00000E+00
 -1      2476 1.01985E+02 6.60425E+00 0.00000E+00
 -1      2477 1.07385E+02 5.30525E+00 0.00000E+00
 -1      2478 1.05810E+02 5.30525E+00 0.00000E+00
 -1      2479 1.05060E+02 6.60425E+00 0.00000E+00
 -1      2480 1.10385E+02 5.30525E+00 0.00000E+00
 -1      2481 1.08885E+02 5.30525E+00 0.00000E+00
 -1      2482 1.08135E+02 6.60425E+00 0.00000E+00
 -1      2483 1.13385E+02 5.30525E+00 0.00000E+00
 -1      2484 1.11885E+02 5.30525E+00 0.00000E+00
 -1      2485 1.11135E+02 6.60425E+00 0.00000E+00
 -1      2486 1.16385E+02 5.30525E+00 0.00000E+00
 -1      2487 1.14885E+02 5.30525E+00 0.00000E+00
 -1      2488 1.14135E+02 6.60425E+00 0.00000E+00
 -1      2489 1.19385E+02 5.30525E+00 0.00000E+00
 -1      2490 1.17885E+02 5.30525E+00 0.00000E+00
 -1      2491 1.17135E+02 6.60425E+00 0.00000E+00
 -1      2492 1.22385E+02 5.30525E+00 0.00000E+00
 -1      2493 1.20885E+02 5.30525E+00 0.00000E+00
 -1      2494 1.20135E+02 6.60425E+00 0.00000E+00
 -1      2495 1.25385E+02 5.03139E+00 0.00000E+00
 -1      2496 1.23885E+02 5.03139E+00 0.00000E+00
 -1      2497 1.30952E+02 4.74525E+00 0.00000E+00
 -1      2498 1.29452E+02 4.74525E+00 0.00000E+00
 -1      2499 1.34110E+02 4.56356E+00 0.00000E+00
 -1      2500 1.32835E+02 4.56356E+00 0.00000E+00
 -1      2501 1.44517E+02 4.32044E+01 0.00000E+00
 -1      2502 1.44385E+02 1.49125E+01 0.00000E+00
 -1      2503 1.44385E+02 1.37375E+01 0.00000E+00
 -1      2504 1.43710E+02 6.56775E+00 0.00000E+00
 -1      2505 1.44260E+02 1.01875E+01 0.00000E+00
 -1      2506 1.44260E+02 8.96250E+00 0.00000E+00
 -1      2507 1.42782E+02 1.35428E+01 0.00000E+00
 -1      2508 1.42661E+02 1.45774E+01 0.00000E+00
 -1      2509 1.44385E+02 1.74125E+01 0.00000E+00
 -1      2510 1.44385E+02 1.61625E+01 0.00000E+00
 -1      2511 1.43575E+02 1.55750E+01 0.00000E+00
 -1      2512 1.44344E+02 2.01000E+01 0.00000E+00
 -1      2513 1.44344E+02 1.87000E+01 0.00000E+00
 -1      2514 1.44176E+02 2.30500E+01 0.00000E+00
 -1      2515 1.44176E+02 2.15500E+01 0.00000E+00
 -1      2516 1.44092E+02 2.60125E+01 0.00000E+00
 -1      2517 1.44092E+02 2.45375E+01 0.00000E+00
 -1      2518 1.44092E+02 2.89625E+01 0.00000E+00
 -1      2519 1.44092E+02 2.74875E+01 0.00000E+00
 -1      2520 1.42989E+02 2.67500E+01 0.00000E+00
 -1      2521 1.44092E+02 3.19125E+01 0.00000E+00
 -1      2522 1.44092E+02 3.04375E+01 0.00000E+00
 -1      2523 1.42989E+02 2.97000E+01 0.00000E+00
 -1      2524 1.44092E+02 3.48625E+01 0.00000E+00
 -1      2525 1.44092E+02 3.33875E+01 0.00000E+00
 -1      2526 1.42989E+02 3.26500E+01 0.00000E+00
 -1      2527 1.44092E+02 3.78125E+01 0.00000E+00
 -1      2528 1.44092E+02 3.63375E+01 0.00000E+00
 -1      2529 1.42989E+02 3.56000E+01 0.00000E+00
 -1      2530 1.44092E+02 4.07625E+01 0.00000E+00
 -1      2531 1.44092E+02 3.92875E+01 0.00000E+00
 -1      2532 1.42989E+02 3.85500E+01 0.00000E+00
 -1      2533 1.41387E+02 8.83986E+00 0.00000E+00
 -1      2534 1.42075E+02 9.74972E+00 0.00000E+00
 -1      2535 1.67850E+01 5.30525E+00 0.00000E+00
 -1      2536 1.52850E+01 5.30525E+00 0.00000E+00
 -1      2537 1.75350E+01 6.60425E+00 0.00000E+00
 -1      2538 1.38314E+02 5.41018E+00 0.00000E+00
 -1      2539 1.37395E+02 5.13249E+00 0.00000E+00
 -1      2540 1.41316E+02 1.84906E+01 0.00000E+00
 -1      2541 1.41100E+02 1.91767E+01 0.00000E+00
 -1      2542 1.27320E+02 2.37697E+01 0.00000E+00
 -1      2543 1.26285E+02 2.30909E+01 0.00000E+00
 -1      2544 1.35161E+02 4.74045E+00 0.00000E+00
 -1      2545 1.41614E+02 1.76369E+01 0.00000E+00
 -1      2546 1.41465E+02 1.80638E+01 0.00000E+00
 -1      2547 1.42010E+02 1.86126E+01 0.00000E+00
 -1      2548 6.49500E+00 2.71625E+01 0.00000E+00
 -1      2549 6.49500E+00 2.86375E+01 0.00000E+00
 -1      2550 7.79400E+00 2.93750E+01 0.00000E+00
 -1      2551 7.79400E+00 2.64250E+01 0.00000E+00
 -1      2552 1.33413E+02 2.50676E+01 0.00000E+00
 -1      2553 1.32408E+02 2.50030E+01 0.00000E+00
 -1      2554 1.23313E+02 1.01441E+01 0.00000E+00
 -1      2555 1.23854E+02 9.34026E+00 0.00000E+00
 -1      2556 1.22648E+02 1.23705E+01 0.00000E+00
 -1      2557 1.22836E+02 1.13391E+01 0.00000E+00
 -1      2558 1.22318E+02 1.44424E+01 0.00000E+00
 -1      2559 1.22385E+02 1.34539E+01 0.00000E+00
 -1      2560 1.22412E+02 1.65848E+01 0.00000E+00
 -1      2561 1.22328E+02 1.55719E+01 0.00000E+00
 -1      2562 1.22967E+02 1.86555E+01 0.00000E+00
 -1      2563 1.22615E+02 1.78055E+01 0.00000E+00
 -1      2564 1.23872E+02 2.04532E+01 0.00000E+00
 -1      2565 1.23420E+02 1.95543E+01 0.00000E+00
 -1      2566 1.22374E+02 1.94897E+01 0.00000E+00
 -1      2567 1.25169E+02 2.22854E+01 0.00000E+00
 -1      2568 1.24520E+02 2.15095E+01 0.00000E+00
 -1      2569 1.29243E+02 2.45691E+01 0.00000E+00
 -1      2570 1.28438E+02 2.42963E+01 0.00000E+00
 -1      2571 1.31374E+02 2.49319E+01 0.00000E+00
 -1      2572 1.30341E+02 2.48607E+01 0.00000E+00
 -1      2573 1.31822E+02 2.58199E+01 0.00000E+00
 -1      2574 1.35696E+02 2.51563E+01 0.00000E+00
 -1      2575 1.34554E+02 2.51719E+01 0.00000E+00
 -1      2576 1.40073E+02 2.17790E+01 0.00000E+00
 -1      2577 1.39480E+02 2.25763E+01 0.00000E+00
 -1      2578 8.07525E+00 5.11044E+00 0.00000E+00
 -1      2579 6.57525E+00 5.11044E+00 0.00000E+00
 -1      2580 6.40575E+00 6.01981E+00 0.00000E+00
 -1      2581 8.82525E+00 6.40944E+00 0.00000E+00
 -1      2582 1.28397E+02 5.03851E+00 0.00000E+00
 -1      2583 1.40773E+02 1.99558E+01 0.00000E+00
 -1      2584 1.40447E+02 2.07349E+01 0.00000E+00
 -1      2585 1.41534E+02 1.98186E+01 0.00000E+00
 -1      2586 1.42591E+02 1.11302E+01 0.00000E+00
 -1      2587 1.42699E+02 1.21638E+01 0.00000E+00
 -1      2588 1.26897E+02 5.03851E+00 0.00000E+00
 -1      2589 1.26147E+02 6.06365E+00 0.00000E+00
 -1      2590 1.33996E+02 2.59954E+01 0.00000E+00
 -1      2591 7.79400E+00 3.52687E+01 0.00000E+00
 -1      2592 6.49500E+00 3.60062E+01 0.00000E+00
 -1      2593 6.49500E+00 3.74750E+01 0.00000E+00
 -1      2594 1.36511E+02 4.74045E+00 0.00000E+00
 -1      2595 6.40575E+00 7.49481E+00 0.00000E+00
 -1      2596 1.41663E+02 7.99736E+00 0.00000E+00
 -1      2597 6.55950E+00 3.99453E+01 0.00000E+00
 -1      2598 1.43492E+02 1.29461E+01 0.00000E+00
 -1      2599 1.44302E+02 1.23586E+01 0.00000E+00
 -1      2600 1.44302E+02 1.11836E+01 0.00000E+00
 -1      2601 1.23135E+02 6.33039E+00 0.00000E+00
 -1      2602 1.40834E+02 2.16418E+01 0.00000E+00
 -1      2603 1.25149E+02 6.89507E+00 0.00000E+00
 -1      2604 1.32000E+02 4.69693E+00 0.00000E+00
 -1      2605 1.42954E+02 4.36616E+01 0.00000E+00
 -1      2606 1.43632E+02 4.19572E+01 0.00000E+00
 -1      2607 1.42529E+02 4.12197E+01 0.00000E+00
 -1      2608 1.41610E+02 4.36092E+01 0.00000E+00
 -1      2609 1.43533E+02 1.81125E+01 0.00000E+00
 -1      2610 1.43072E+02 7.76930E+00 0.00000E+00
 -1      2611 1.41587E+02 5.98705E+00 0.00000E+00
 -1      2612 1.43367E+02 1.05711E+01 0.00000E+00
 -1      2613 1.42661E+02 1.58274E+01 0.00000E+00
 -1      2614 1.43324E+02 2.08500E+01 0.00000E+00
 -1      2615 1.43073E+02 2.37875E+01 0.00000E+00
 -1      2616 1.42850E+02 9.19056E+00 0.00000E+00
 -1      2617 1.42549E+02 1.01342E+01 0.00000E+00
 -1      2618 1.24424E+02 7.85463E+00 0.00000E+00
 -1      2619 1.23909E+02 7.01609E+00 0.00000E+00
 -1      2620 1.22409E+02 7.28995E+00 0.00000E+00
 -1      2621 1.23958E+02 8.66136E+00 0.00000E+00
 -1      2622 1.45350E+01 6.60425E+00 0.00000E+00
 -1      2623 1.39224E+02 6.08040E+00 0.00000E+00
 -1      2624 1.25239E+02 2.33068E+01 0.00000E+00
 -1      2625 1.29690E+02 2.54571E+01 0.00000E+00
 -1      2626 1.23474E+02 2.14449E+01 0.00000E+00
 -1      2627 7.70475E+00 8.23231E+00 0.00000E+00
 -1      2628 1.39219E+02 2.36196E+01 0.00000E+00
 -1      2629 1.38958E+02 2.46628E+01 0.00000E+00
 -1      2630 1.40199E+02 2.37293E+01 0.00000E+00
 -1      2631 1.21718E+02 1.73701E+01 0.00000E+00
 -1      2632 1.21506E+02 1.50199E+01 0.00000E+00
 -1      2633 1.21759E+02 1.28069E+01 0.00000E+00
 -1      2634 1.27473E+02 2.46389E+01 0.00000E+00
 -1      2635 1.22499E+02 1.05285E+01 0.00000E+00
 -1      2636 1.22163E+02 9.71789E+00 0.00000E+00
 -1      2637 1.21685E+02 1.09129E+01 0.00000E+00
 -1      2638 1.40860E+02 4.23102E+01 0.00000E+00
 -1      2639 1.23080E+02 8.65455E+00 0.00000E+00
 -1      2640 1.40040E+02 5.32099E+00 0.00000E+00
 -1      2641 1.40040E+02 6.83976E+00 0.00000E+00
 -1      2642 1.36558E+02 2.53264E+01 0.00000E+00
 -1      2643 1.36000E+02 2.62698E+01 0.00000E+00
 -1      2644 1.37420E+02 2.54965E+01 0.00000E+00
 -1      2645 9.09300E+00 1.98250E+01 0.00000E+00
 -1      2646 9.09300E+00 2.12750E+01 0.00000E+00
 -1      2647 9.09300E+00 2.27500E+01 0.00000E+00
 -1      2648 9.09300E+00 2.42250E+01 0.00000E+00
 -1      2649 1.03920E+01 2.20250E+01 0.00000E+00
 -1      2650 9.09300E+00 1.39375E+01 0.00000E+00
 -1      2651 9.09300E+00 1.54125E+01 0.00000E+00
 -1      2652 9.09300E+00 1.09875E+01 0.00000E+00
 -1      2653 9.09300E+00 1.24625E+01 0.00000E+00
 -1      2654 1.03920E+01 1.32000E+01 0.00000E+00
 -1      2655 1.14000E+01 4.09070E+01 0.00000E+00
 -1      2656 1.29000E+01 4.09070E+01 0.00000E+00
 -1      2657 1.22850E+01 7.90325E+00 0.00000E+00
 -1      2658 1.07850E+01 7.90325E+00 0.00000E+00
 -1      2659 2.74350E+01 7.90325E+00 0.00000E+00
 -1      2660 2.59350E+01 7.90325E+00 0.00000E+00
 -1      2661 1.44000E+01 4.09070E+01 0.00000E+00
 -1      2662 1.59000E+01 4.09070E+01 0.00000E+00
 -1      2663 1.36500E+01 3.96080E+01 0.00000E+00
 -1      2664 1.74000E+01 4.09070E+01 0.00000E+00
 -1      2665 1.89000E+01 4.09070E+01 0.00000E+00
 -1      2666 1.66500E+01 3.96080E+01 0.00000E+00
 -1      2667 2.04000E+01 4.09070E+01 0.00000E+00
 -1      2668 2.19000E+01 4.09070E+01 0.00000E+00
 -1      2669 1.96500E+01 3.96080E+01 0.00000E+00
 -1      2670 2.34000E+01 4.09070E+01 0.00000E+00
 -1      2671 2.49000E+01 4.09070E+01 0.00000E+00
 -1      2672 2.26500E+01 3.96080E+01 0.00000E+00
 -1      2673 2.64000E+01 4.09070E+01 0.00000E+00
 -1      2674 2.79000E+01 4.09070E+01 0.00000E+00
 -1      2675 2.56500E+01 3.96080E+01 0.00000E+00
 -1      2676 2.94000E+01 4.09070E+01 0.00000E+00
 -1      2677 3.09000E+01 4.09070E+01 0.00000E+00
 -1      2678 2.86500E+01 3.96080E+01 0.00000E+00
 -1      2679 3.24000E+01 4.09070E+01 0.00000E+00
 -1      2680 3.39000E+01 4.09070E+01 0.00000E+00
 -1      2681 3.16500E+01 3.96080E+01 0.00000E+00
 -1      2682 3.54000E+01 4.09070E+01 0.00000E+00
 -1      2683 3.69000E+01 4.09070E+01 0.00000E+00
 -1      2684 3.46500E+01 3.96080E+01 0.00000E+00
 -1      2685 3.84000E+01 4.09070E+01 0.00000E+00
 -1      2686 3.99000E+01 4.09070E+01 0.00000E+00
 -1      2687 3.76500E+01 3.96080E+01 0.00000E+00
 -1      2688 4.14000E+01 4.09070E+01 0.00000E+00
 -1      2689 4.29000E+01 4.09070E+01 0.00000E+00
 -1      2690 4.06500E+01 3.96080E+01 0.00000E+00
 -1      2691 4.44000E+01 4.09070E+01 0.00000E+00
 -1      2692 4.59000E+01 4.09070E+01 0.00000E+00
 -1      2693 4.36500E+01 3.96080E+01 0.00000E+00
 -1      2694 4.74000E+01 4.09070E+01 0.00000E+00
 -1      2695 4.89000E+01 4.09070E+01 0.00000E+00
 -1      2696 4.66500E+01 3.96080E+01 0.00000E+00
 -1      2697 5.04000E+01 4.09070E+01 0.00000E+00
 -1      2698 5.19000E+01 4.09070E+01 0.00000E+00
 -1      2699 4.96500E+01 3.96080E+01 0.00000E+00
 -1      2700 5.34000E+01 4.09070E+01 0.00000E+00
 -1      2701 5.49000E+01 4.09070E+01 0.00000E+00
 -1      2702 5.26500E+01 3.96080E+01 0.00000E+00
 -1      2703 5.64000E+01 4.09070E+01 0.00000E+00
 -1      2704 5.79000E+01 4.09070E+01 0.00000E+00
 -1      2705 5.56500E+01 3.96080E+01 0.00000E+00
 -1      2706 5.94000E+01 4.09070E+01 0.00000E+00
 -1      2707 6.09000E+01 4.09070E+01 0.00000E+00
 -1      2708 5.86500E+01 3.96080E+01 0.00000E+00
 -1      2709 6.24000E+01 4.09070E+01 0.00000E+00
 -1      2710 6.39000E+01 4.09070E+01 0.00000E+00
 -1      2711 6.16500E+01 3.96080E+01 0.00000E+00
 -1      2712 6.54000E+01 4.09070E+01 0.00000E+00
 -1      2713 6.69000E+01 4.09070E+01 0.00000E+00
 -1      2714 6.46500E+01 3.96080E+01 0.00000E+00
 -1      2715 6.84000E+01 4.09070E+01 0.00000E+00
 -1      2716 6.99000E+01 4.09070E+01 0.00000E+00
 -1      2717 6.76500E+01 3.96080E+01 0.00000E+00
 -1      2718 7.14000E+01 4.09070E+01 0.00000E+00
 -1      2719 7.29000E+01 4.09070E+01 0.00000E+00
 -1      2720 7.06500E+01 3.96080E+01 0.00000E+00
 -1      2721 7.44000E+01 4.09070E+01 0.00000E+00
 -1      2722 7.59000E+01 4.09070E+01 0.00000E+00
 -1      2723 7.36500E+01 3.96080E+01 0.00000E+00
 -1      2724 7.74000E+01 4.09070E+01 0.00000E+00
 -1      2725 7.89000E+01 4.09070E+01 0.00000E+00
 -1      2726 7.66500E+01 3.96080E+01 0.00000E+00
 -1      2727 8.04000E+01 4.09070E+01 0.00000E+00
 -1      2728 8.19000E+01 4.09070E+01 0.00000E+00
 -1      2729 7.96500E+01 3.96080E+01 0.00000E+00
 -1      2730 8.34000E+01 4.09070E+01 0.00000E+00
 -1      2731 8.49000E+01 4.09070E+01 0.00000E+00
 -1      2732 8.26500E+01 3.96080E+01 0.00000E+00
 -1      2733 8.64000E+01 4.09070E+01 0.00000E+00
 -1      2734 8.79000E+01 4.09070E+01 0.00000E+00
 -1      2735 8.56500E+01 3.96080E+01 0.00000E+00
 -1      2736 8.94000E+01 4.09070E+01 0.00000E+00
 -1      2737 9.09000E+01 4.09070E+01 0.00000E+00
 -1      2738 8.86500E+01 3.96080E+01 0.00000E+00
 -1      2739 9.24000E+01 4.09070E+01 0.00000E+00
 -1      2740 9.39000E+01 4.09070E+01 0.00000E+00
 -1      2741 9.16500E+01 3.96080E+01 0.00000E+00
 -1      2742 9.54000E+01 4.09070E+01 0.00000E+00
 -1      2743 9.69000E+01 4.09070E+01 0.00000E+00
 -1      2744 9.46500E+01 3.96080E+01 0.00000E+00
 -1      2745 9.84000E+01 4.09070E+01 0.00000E+00
 -1      2746 9.99000E+01 4.09070E+01 0.00000E+00
 -1      2747 9.76500E+01 3.96080E+01 0.00000E+00
 -1      2748 1.01400E+02 4.09070E+01 0.00000E+00
 -1      2749 1.02900E+02 4.09070E+01 0.00000E+00
 -1      2750 1.00650E+02 3.96080E+01 0.00000E+00
 -1      2751 1.04400E+02 4.09070E+01 0.00000E+00
 -1      2752 1.05900E+02 4.09070E+01 0.00000E+00
 -1      2753 1.03650E+02 3.96080E+01 0.00000E+00
 -1      2754 1.07400E+02 4.09070E+01 0.00000E+00
 -1      2755 1.08900E+02 4.09070E+01 0.00000E+00
 -1      2756 1.06650E+02 3.96080E+01 0.00000E+00
 -1      2757 1.10400E+02 4.09070E+01 0.00000E+00
 -1      2758 1.11900E+02 4.09070E+01 0.00000E+00
 -1      2759 1.09650E+02 3.96080E+01 0.00000E+00
 -1      2760 1.13400E+02 4.09070E+01 0.00000E+00
 -1      2761 1.14900E+02 4.09070E+01 0.00000E+00
 -1      2762 1.12650E+02 3.96080E+01 0.00000E+00
 -1      2763 1.16400E+02 4.09070E+01 0.00000E+00
 -1      2764 1.17900E+02 4.09070E+01 0.00000E+00
 -1      2765 1.15650E+02 3.96080E+01 0.00000E+00
 -1      2766 1.19400E+02 4.09070E+01 0.00000E+00
 -1      2767 1.20900E+02 4.09070E+01 0.00000E+00
 -1      2768 1.18650E+02 3.96080E+01 0.00000E+00
 -1      2769 1.22400E+02 4.09070E+01 0.00000E+00
 -1      2770 1.23900E+02 4.09070E+01 0.00000E+00
 -1      2771 1.21650E+02 3.96080E+01 0.00000E+00
 -1      2772 1.25400E+02 4.09070E+01 0.00000E+00
 -1      2773 1.26900E+02 4.09070E+01 0.00000E+00
 -1      2774 1.24650E+02 3.96080E+01 0.00000E+00
 -1      2775 1.28400E+02 4.09070E+01 0.00000E+00
 -1      2776 1.29900E+02 4.09070E+01 0.00000E+00
 -1      2777 1.27650E+02 3.96080E+01 0.00000E+00
 -1      2778 1.31400E+02 4.09070E+01 0.00000E+00
 -1      2779 1.32900E+02 4.09070E+01 0.00000E+00
 -1      2780 1.30650E+02 3.96080E+01 0.00000E+00
 -1      2781 1.34400E+02 4.09070E+01 0.00000E+00
 -1      2782 1.35900E+02 4.09070E+01 0.00000E+00
 -1      2783 1.33650E+02 3.96080E+01 0.00000E+00
 -1      2784 1.37400E+02 4.09070E+01 0.00000E+00
 -1      2785 1.38900E+02 4.09070E+01 0.00000E+00
 -1      2786 1.36650E+02 3.96080E+01 0.00000E+00
 -1      2787 2.43600E+01 7.90325E+00 0.00000E+00
 -1      2788 2.27850E+01 7.90325E+00 0.00000E+00
 -1      2789 2.51100E+01 9.20225E+00 0.00000E+00
 -1      2790 1.42825E+02 1.87929E+01 0.00000E+00
 -1      2791 1.42867E+02 1.75054E+01 0.00000E+00
 -1      2792 2.12850E+01 7.90325E+00 0.00000E+00
 -1      2793 1.97850E+01 7.90325E+00 0.00000E+00
 -1      2794 2.20350E+01 9.20225E+00 0.00000E+00
 -1      2795 3.04350E+01 7.90325E+00 0.00000E+00
 -1      2796 2.89350E+01 7.90325E+00 0.00000E+00
 -1      2797 2.81850E+01 9.20225E+00 0.00000E+00
 -1      2798 3.34350E+01 7.90325E+00 0.00000E+00
 -1      2799 3.19350E+01 7.90325E+00 0.00000E+00
 -1      2800 3.11850E+01 9.20225E+00 0.00000E+00
 -1      2801 3.64350E+01 7.90325E+00 0.00000E+00
 -1      2802 3.49350E+01 7.90325E+00 0.00000E+00
 -1      2803 3.41850E+01 9.20225E+00 0.00000E+00
 -1      2804 3.94350E+01 7.90325E+00 0.00000E+00
 -1      2805 3.79350E+01 7.90325E+00 0.00000E+00
 -1      2806 3.71850E+01 9.20225E+00 0.00000E+00
 -1      2807 4.24350E+01 7.90325E+00 0.00000E+00
 -1      2808 4.09350E+01 7.90325E+00 0.00000E+00
 -1      2809 4.01850E+01 9.20225E+00 0.00000E+00
 -1      2810 4.54350E+01 7.90325E+00 0.00000E+00
 -1      2811 4.39350E+01 7.90325E+00 0.00000E+00
 -1      2812 4.31850E+01 9.20225E+00 0.00000E+00
 -1      2813 4.84350E+01 7.90325E+00 0.00000E+00
 -1      2814 4.69350E+01 7.90325E+00 0.00000E+00
 -1      2815 4.61850E+01 9.20225E+00 0.00000E+00
 -1      2816 5.15850E+01 7.90325E+00 0.00000E+00
 -1      2817 5.00100E+01 7.90325E+00 0.00000E+00
 -1      2818 4.92600E+01 9.20225E+00 0.00000E+00
 -1      2819 5.45850E+01 7.90325E+00 0.00000E+00
 -1      2820 5.30850E+01 7.90325E+00 0.00000E+00
 -1      2821 5.23350E+01 9.20225E+00 0.00000E+00
 -1      2822 5.75850E+01 7.90325E+00 0.00000E+00
 -1      2823 5.60850E+01 7.90325E+00 0.00000E+00
 -1      2824 5.53350E+01 9.20225E+00 0.00000E+00
 -1      2825 6.05850E+01 7.90325E+00 0.00000E+00
 -1      2826 5.90850E+01 7.90325E+00 0.00000E+00
 -1      2827 5.83350E+01 9.20225E+00 0.00000E+00
 -1      2828 6.35850E+01 7.90325E+00 0.00000E+00
 -1      2829 6.20850E+01 7.90325E+00 0.00000E+00
 -1      2830 6.13350E+01 9.20225E+00 0.00000E+00
 -1      2831 6.65850E+01 7.90325E+00 0.00000E+00
 -1      2832 6.50850E+01 7.90325E+00 0.00000E+00
 -1      2833 6.43350E+01 9.20225E+00 0.00000E+00
 -1      2834 6.95850E+01 7.90325E+00 0.00000E+00
 -1      2835 6.80850E+01 7.90325E+00 0.00000E+00
 -1      2836 6.73350E+01 9.20225E+00 0.00000E+00
 -1      2837 7.25850E+01 7.90325E+00 0.00000E+00
 -1      2838 7.10850E+01 7.90325E+00 0.00000E+00
 -1      2839 7.03350E+01 9.20225E+00 0.00000E+00
 -1      2840 7.55850E+01 7.90325E+00 0.00000E+00
 -1      2841 7.40850E+01 7.90325E+00 0.00000E+00
 -1      2842 7.33350E+01 9.20225E+00 0.00000E+00
 -1      2843 7.87350E+01 7.90325E+00 0.00000E+00
 -1      2844 7.71600E+01 7.90325E+00 0.00000E+00
 -1      2845 7.64100E+01 9.20225E+00 0.00000E+00
 -1      2846 8.17350E+01 7.90325E+00 0.00000E+00
 -1      2847 8.02350E+01 7.90325E+00 0.00000E+00
 -1      2848 7.94850E+01 9.20225E+00 0.00000E+00
 -1      2849 8.47350E+01 7.90325E+00 0.00000E+00
 -1      2850 8.32350E+01 7.90325E+00 0.00000E+00
 -1      2851 8.24850E+01 9.20225E+00 0.00000E+00
 -1      2852 8.77350E+01 7.90325E+00 0.00000E+00
 -1      2853 8.62350E+01 7.90325E+00 0.00000E+00
 -1      2854 8.54850E+01 9.20225E+00 0.00000E+00
 -1      2855 9.07350E+01 7.90325E+00 0.00000E+00
 -1      2856 8.92350E+01 7.90325E+00 0.00000E+00
 -1      2857 8.84850E+01 9.20225E+00 0.00000E+00
 -1      2858 9.37350E+01 7.90325E+00 0.00000E+00
 -1      2859 9.22350E+01 7.90325E+00 0.00000E+00
 -1      2860 9.14850E+01 9.20225E+00 0.00000E+00
 -1      2861 9.67350E+01 7.90325E+00 0.00000E+00
 -1      2862 9.52350E+01 7.90325E+00 0.00000E+00
 -1      2863 9.44850E+01 9.20225E+00 0.00000E+00
 -1      2864 9.97350E+01 7.90325E+00 0.00000E+00
 -1      2865 9.82350E+01 7.90325E+00 0.00000E+00
 -1      2866 9.74850E+01 9.20225E+00 0.00000E+00
 -1      2867 1.02735E+02 7.90325E+00 0.00000E+00
 -1      2868 1.01235E+02 7.90325E+00 0.00000E+00
 -1      2869 1.00485E+02 9.20225E+00 0.00000E+00
 -1      2870 1.05885E+02 7.90325E+00 0.00000E+00
 -1      2871 1.04310E+02 7.90325E+00 0.00000E+00
 -1      2872 1.03560E+02 9.20225E+00 0.00000E+00
 -1      2873 1.08885E+02 7.90325E+00 0.00000E+00
 -1      2874 1.07385E+02 7.90325E+00 0.00000E+00
 -1      2875 1.06635E+02 9.20225E+00 0.00000E+00
 -1      2876 1.11885E+02 7.90325E+00 0.00000E+00
 -1      2877 1.10385E+02 7.90325E+00 0.00000E+00
 -1      2878 1.09635E+02 9.20225E+00 0.00000E+00
 -1      2879 1.14885E+02 7.90325E+00 0.00000E+00
 -1      2880 1.13385E+02 7.90325E+00 0.00000E+00
 -1      2881 1.12635E+02 9.20225E+00 0.00000E+00
 -1      2882 1.17885E+02 7.90325E+00 0.00000E+00
 -1      2883 1.16385E+02 7.90325E+00 0.00000E+00
 -1      2884 1.15635E+02 9.20225E+00 0.00000E+00
 -1      2885 1.20897E+02 7.59660E+00 0.00000E+00
 -1      2886 1.19397E+02 7.59660E+00 0.00000E+00
 -1      2887 1.18647E+02 8.89560E+00 0.00000E+00
 -1      2888 1.21671E+02 8.28231E+00 0.00000E+00
 -1      2889 1.42182E+02 2.14488E+01 0.00000E+00
 -1      2890 1.41808E+02 2.24930E+01 0.00000E+00
 -1      2891 1.34489E+02 2.69015E+01 0.00000E+00
 -1      2892 1.33348E+02 2.67972E+01 0.00000E+00
 -1      2893 1.42350E+02 1.99988E+01 0.00000E+00
 -1      2894 1.41725E+02 2.39805E+01 0.00000E+00
 -1      2895 1.41718E+02 2.74875E+01 0.00000E+00
 -1      2896 1.41718E+02 2.60125E+01 0.00000E+00
 -1      2897 1.41690E+02 3.63375E+01 0.00000E+00
 -1      2898 1.41690E+02 3.48625E+01 0.00000E+00
 -1      2899 7.85850E+00 3.92077E+01 0.00000E+00
 -1      2900 8.91450E+00 8.42712E+00 0.00000E+00
 -1      2901 1.32314E+02 2.67261E+01 0.00000E+00
 -1      2902 1.31281E+02 2.66549E+01 0.00000E+00
 -1      2903 1.32807E+02 2.76322E+01 0.00000E+00
 -1      2904 1.82850E+01 7.90325E+00 0.00000E+00
 -1      2905 1.67850E+01 7.90325E+00 0.00000E+00
 -1      2906 1.90350E+01 9.20225E+00 0.00000E+00
 -1      2907 1.41690E+02 3.33875E+01 0.00000E+00
 -1      2908 1.41690E+02 3.19125E+01 0.00000E+00
 -1      2909 1.40391E+02 3.41250E+01 0.00000E+00
 -1      2910 1.41704E+02 3.04375E+01 0.00000E+00
 -1      2911 1.41704E+02 2.89625E+01 0.00000E+00
 -1      2912 1.40433E+02 2.82250E+01 0.00000E+00
 -1      2913 1.40405E+02 3.11750E+01 0.00000E+00
 -1      2914 1.25197E+02 2.45408E+01 0.00000E+00
 -1      2915 1.24081E+02 2.37353E+01 0.00000E+00
 -1      2916 1.41828E+02 1.68805E+01 0.00000E+00
 -1      2917 1.42372E+02 1.74293E+01 0.00000E+00
 -1      2918 1.41997E+02 1.63159E+01 0.00000E+00
 -1      2919 1.42167E+02 1.57514E+01 0.00000E+00
 -1      2920 1.40902E+02 6.63448E+00 0.00000E+00
 -1      2921 9.09300E+00 1.68813E+01 0.00000E+00
 -1      2922 9.09300E+00 1.83563E+01 0.00000E+00
 -1      2923 1.03920E+01 1.90812E+01 0.00000E+00
 -1      2924 1.03920E+01 1.61437E+01 0.00000E+00
 -1      2925 1.41694E+02 4.10275E+01 0.00000E+00
 -1      2926 1.42154E+02 3.98327E+01 0.00000E+00
 -1      2927 1.42154E+02 3.83577E+01 0.00000E+00
 -1      2928 1.40485E+02 4.09232E+01 0.00000E+00
 -1      2929 9.09300E+00 3.15875E+01 0.00000E+00
 -1      2930 9.09300E+00 3.30625E+01 0.00000E+00
 -1      2931 1.52850E+01 7.90325E+00 0.00000E+00
 -1      2932 1.37850E+01 7.90325E+00 0.00000E+00
 -1      2933 1.30350E+01 9.20225E+00 0.00000E+00
 -1      2934 1.60350E+01 9.20225E+00 0.00000E+00
 -1      2935 1.27632E+02 2.57538E+01 0.00000E+00
 -1      2936 1.26513E+02 2.52273E+01 0.00000E+00
 -1      2937 1.20875E+02 1.31661E+01 0.00000E+00
 -1      2938 1.21138E+02 1.20827E+01 0.00000E+00
 -1      2939 1.20737E+02 1.55913E+01 0.00000E+00
 -1      2940 1.20727E+02 1.44618E+01 0.00000E+00
 -1      2941 1.21760E+02 2.03625E+01 0.00000E+00
 -1      2942 1.21307E+02 1.94636E+01 0.00000E+00
 -1      2943 1.30019E+02 2.64318E+01 0.00000E+00
 -1      2944 1.28921E+02 2.61401E+01 0.00000E+00
 -1      2945 1.23055E+02 2.24751E+01 0.00000E+00
 -1      2946 1.22407E+02 2.14188E+01 0.00000E+00
 -1      2947 1.21340E+02 2.13927E+01 0.00000E+00
 -1      2948 1.20974E+02 1.81212E+01 0.00000E+00
 -1      2949 1.20771E+02 1.69005E+01 0.00000E+00
 -1      2950 9.09300E+00 3.45313E+01 0.00000E+00
 -1      2951 9.09300E+00 3.60000E+01 0.00000E+00
 -1      2952 1.03920E+01 3.37938E+01 0.00000E+00
 -1      2953 1.03920E+01 2.49750E+01 0.00000E+00
 -1      2954 9.09300E+00 2.57000E+01 0.00000E+00
 -1      2955 9.09300E+00 2.71750E+01 0.00000E+00
 -1      2956 1.39735E+02 3.96242E+01 0.00000E+00
 -1      2957 8.85168E+00 4.05347E+01 0.00000E+00
 -1      2958 1.02152E+01 4.07987E+01 0.00000E+00
 -1      2959 1.42676E+02 1.92197E+01 0.00000E+00
 -1      2960 1.23014E+02 2.37092E+01 0.00000E+00
 -1      2961 1.41464E+02 2.50238E+01 0.00000E+00
 -1      2962 1.35351E+02 2.70717E+01 0.00000E+00
 -1      2963 1.34703E+02 2.78735E+01 0.00000E+00
 -1      2964 1.36214E+02 2.72418E+01 0.00000E+00
 -1      2965 1.25355E+02 2.56558E+01 0.00000E+00
 -1      2966 1.39213E+02 2.56516E+01 0.00000E+00
 -1      2967 1.38655E+02 2.65950E+01 0.00000E+00
 -1      2968 1.43786E+02 8.57806E+00 0.00000E+00
 -1      2969 1.40855E+02 3.76203E+01 0.00000E+00
 -1      2970 1.30512E+02 2.73379E+01 0.00000E+00
 -1      2971 9.09300E+00 2.86437E+01 0.00000E+00
 -1      2972 9.09300E+00 3.01187E+01 0.00000E+00
 -1      2973 1.03920E+01 3.08563E+01 0.00000E+00
 -1      2974 1.03920E+01 2.79188E+01 0.00000E+00
 -1      2975 9.66450E+00 9.72612E+00 0.00000E+00
 -1      2976 1.09635E+01 1.04636E+01 0.00000E+00
 -1      2977 1.19992E+02 1.63424E+01 0.00000E+00
 -1      2978 1.21568E+02 8.96120E+00 0.00000E+00
 -1      2979 1.20802E+02 1.12721E+01 0.00000E+00
 -1      2980 1.20107E+02 1.37375E+01 0.00000E+00
 -1      2981 1.20359E+02 1.89940E+01 0.00000E+00
 -1      2982 1.27961E+02 2.67285E+01 0.00000E+00
 -1      2983 1.09652E+01 3.94997E+01 0.00000E+00
 -1      2984 8.78718E+00 3.80644E+01 0.00000E+00
 -1      2985 1.16910E+01 1.24625E+01 0.00000E+00
 -1      2986 1.16910E+01 1.39375E+01 0.00000E+00
 -1      2987 1.00862E+01 3.73269E+01 0.00000E+00
 -1      2988 1.40193E+02 2.57613E+01 0.00000E+00
 -1      2989 1.43081E+02 1.67490E+01 0.00000E+00
 -1      2990 2.89350E+01 1.05013E+01 0.00000E+00
 -1      2991 2.74350E+01 1.05013E+01 0.00000E+00
 -1      2992 1.39220E+02 2.78109E+01 0.00000E+00
 -1      2993 1.37427E+02 2.76559E+01 0.00000E+00
 -1      2994 1.36778E+02 2.84578E+01 0.00000E+00
 -1      2995 1.39206E+02 2.92859E+01 0.00000E+00
 -1      2996 1.59000E+01 3.83090E+01 0.00000E+00
 -1      2997 1.74000E+01 3.83090E+01 0.00000E+00
 -1      2998 1.89000E+01 3.83090E+01 0.00000E+00
 -1      2999 2.04000E+01 3.83090E+01 0.00000E+00
 -1      3000 1.81500E+01 3.70100E+01 0.00000E+00
 -1      3001 2.19000E+01 3.83090E+01 0.00000E+00
 -1      3002 2.34000E+01 3.83090E+01 0.00000E+00
 -1      3003 2.11500E+01 3.70100E+01 0.00000E+00
 -1      3004 2.49000E+01 3.83090E+01 0.00000E+00
 -1      3005 2.64000E+01 3.83090E+01 0.00000E+00
 -1      3006 2.41500E+01 3.70100E+01 0.00000E+00
 -1      3007 2.79000E+01 3.83090E+01 0.00000E+00
 -1      3008 2.94000E+01 3.83090E+01 0.00000E+00
 -1      3009 2.71500E+01 3.70100E+01 0.00000E+00
 -1      3010 3.09000E+01 3.83090E+01 0.00000E+00
 -1      3011 3.24000E+01 3.83090E+01 0.00000E+00
 -1      3012 3.01500E+01 3.70100E+01 0.00000E+00
 -1      3013 3.39000E+01 3.83090E+01 0.00000E+00
 -1      3014 3.54000E+01 3.83090E+01 0.00000E+00
 -1      3015 3.31500E+01 3.70100E+01 0.00000E+00
 -1      3016 3.69000E+01 3.83090E+01 0.00000E+00
 -1      3017 3.84000E+01 3.83090E+01 0.00000E+00
 -1      3018 3.61500E+01 3.70100E+01 0.00000E+00
 -1      3019 3.99000E+01 3.83090E+01 0.00000E+00
 -1      3020 4.14000E+01 3.83090E+01 0.00000E+00
 -1      3021 3.91500E+01 3.70100E+01 0.00000E+00
 -1      3022 4.29000E+01 3.83090E+01 0.00000E+00
 -1      3023 4.44000E+01 3.83090E+01 0.00000E+00
 -1      3024 4.21500E+01 3.70100E+01 0.00000E+00
 -1      3025 4.59000E+01 3.83090E+01 0.00000E+00
 -1      3026 4.74000E+01 3.83090E+01 0.00000E+00
 -1      3027 4.51500E+01 3.70100E+01 0.00000E+00
 -1      3028 4.89000E+01 3.83090E+01 0.00000E+00
 -1      3029 5.04000E+01 3.83090E+01 0.00000E+00
 -1      3030 4.81500E+01 3.70100E+01 0.00000E+00
 -1      3031 5.19000E+01 3.83090E+01 0.00000E+00
 -1      3032 5.34000E+01 3.83090E+01 0.00000E+00
 -1      3033 5.11500E+01 3.70100E+01 0.00000E+00
 -1      3034 5.49000E+01 3.83090E+01 0.00000E+00
 -1      3035 5.64000E+01 3.83090E+01 0.00000E+00
 -1      3036 5.41500E+01 3.70100E+01 0.00000E+00
 -1      3037 5.79000E+01 3.83090E+01 0.00000E+00
 -1      3038 5.94000E+01 3.83090E+01 0.00000E+00
 -1      3039 5.71500E+01 3.70100E+01 0.00000E+00
 -1      3040 6.09000E+01 3.83090E+01 0.00000E+00
 -1      3041 6.24000E+01 3.83090E+01 0.00000E+00
 -1      3042 6.01500E+01 3.70100E+01 0.00000E+00
 -1      3043 6.39000E+01 3.83090E+01 0.00000E+00
 -1      3044 6.54000E+01 3.83090E+01 0.00000E+00
 -1      3045 6.31500E+01 3.70100E+01 0.00000E+00
 -1      3046 6.69000E+01 3.83090E+01 0.00000E+00
 -1      3047 6.84000E+01 3.83090E+01 0.00000E+00
 -1      3048 6.61500E+01 3.70100E+01 0.00000E+00
 -1      3049 6.99000E+01 3.83090E+01 0.00000E+00
 -1      3050 7.14000E+01 3.83090E+01 0.00000E+00
 -1      3051 6.91500E+01 3.70100E+01 0.00000E+00
 -1      3052 7.29000E+01 3.83090E+01 0.00000E+00
 -1      3053 7.44000E+01 3.83090E+01 0.00000E+00
 -1      3054 7.21500E+01 3.70100E+01 0.00000E+00
 -1      3055 7.59000E+01 3.83090E+01 0.00000E+00
 -1      3056 7.74000E+01 3.83090E+01 0.00000E+00
 -1      3057 7.51500E+01 3.70100E+01 0.00000E+00
 -1      3058 7.89000E+01 3.83090E+01 0.00000E+00
 -1      3059 8.04000E+01 3.83090E+01 0.00000E+00
 -1      3060 7.81500E+01 3.70100E+01 0.00000E+00
 -1      3061 8.19000E+01 3.83090E+01 0.00000E+00
 -1      3062 8.34000E+01 3.83090E+01 0.00000E+00
 -1      3063 8.11500E+01 3.70100E+01 0.00000E+00
 -1      3064 8.49000E+01 3.83090E+01 0.00000E+00
 -1      3065 8.64000E+01 3.83090E+01 0.00000E+00
 -1      3066 8.41500E+01 3.70100E+01 0.00000E+00
 -1      3067 8.79000E+01 3.83090E+01 0.00000E+00
 -1      3068 8.94000E+01 3.83090E+01 0.00000E+00
 -1      3069 8.71500E+01 3.70100E+01 0.00000E+00
 -1      3070 9.09000E+01 3.83090E+01 0.00000E+00
 -1      3071 9.24000E+01 3.83090E+01 0.00000E+00
 -1      3072 9.01500E+01 3.70100E+01 0.00000E+00
 -1      3073 9.39000E+01 3.83090E+01 0.00000E+00
 -1      3074 9.54000E+01 3.83090E+01 0.00000E+00
 -1      3075 9.31500E+01 3.70100E+01 0.00000E+00
 -1      3076 9.69000E+01 3.83090E+01 0.00000E+00
 -1      3077 9.84000E+01 3.83090E+01 0.00000E+00
 -1      3078 9.61500E+01 3.70100E+01 0.00000E+00
 -1      3079 9.99000E+01 3.83090E+01 0.00000E+00
 -1      3080 1.01400E+02 3.83090E+01 0.00000E+00
 -1      3081 9.91500E+01 3.70100E+01 0.00000E+00
 -1      3082 1.02900E+02 3.83090E+01 0.00000E+00
 -1      3083 1.04400E+02 3.83090E+01 0.00000E+00
 -1      3084 1.02150E+02 3.70100E+01 0.00000E+00
 -1      3085 1.05900E+02 3.83090E+01 0.00000E+00
 -1      3086 1.07400E+02 3.83090E+01 0.00000E+00
 -1      3087 1.05150E+02 3.70100E+01 0.00000E+00
 -1      3088 1.08900E+02 3.83090E+01 0.00000E+00
 -1      3089 1.10400E+02 3.83090E+01 0.00000E+00
 -1      3090 1.08150E+02 3.70100E+01 0.00000E+00
 -1      3091 1.11900E+02 3.83090E+01 0.00000E+00
 -1      3092 1.13400E+02 3.83090E+01 0.00000E+00
 -1      3093 1.11150E+02 3.70100E+01 0.00000E+00
 -1      3094 1.14900E+02 3.83090E+01 0.00000E+00
 -1      3095 1.16400E+02 3.83090E+01 0.00000E+00
 -1      3096 1.14150E+02 3.70100E+01 0.00000E+00
 -1      3097 1.17900E+02 3.83090E+01 0.00000E+00
 -1      3098 1.19400E+02 3.83090E+01 0.00000E+00
 -1      3099 1.17150E+02 3.70100E+01 0.00000E+00
 -1      3100 1.20900E+02 3.83090E+01 0.00000E+00
 -1      3101 1.22400E+02 3.83090E+01 0.00000E+00
 -1      3102 1.20150E+02 3.70100E+01 0.00000E+00
 -1      3103 1.23900E+02 3.83090E+01 0.00000E+00
 -1      3104 1.25400E+02 3.83090E+01 0.00000E+00
 -1      3105 1.23150E+02 3.70100E+01 0.00000E+00
 -1      3106 1.26900E+02 3.83090E+01 0.00000E+00
 -1      3107 1.28400E+02 3.83090E+01 0.00000E+00
 -1      3108 1.26150E+02 3.70100E+01 0.00000E+00
 -1      3109 1.29900E+02 3.83090E+01 0.00000E+00
 -1      3110 1.31400E+02 3.83090E+01 0.00000E+00
 -1      3111 1.29150E+02 3.70100E+01 0.00000E+00
 -1      3112 1.32900E+02 3.83090E+01 0.00000E+00
 -1      3113 1.34400E+02 3.83090E+01 0.00000E+00
 -1      3114 1.32150E+02 3.70100E+01 0.00000E+00
 -1      3115 1.35900E+02 3.83090E+01 0.00000E+00
 -1      3116 1.37400E+02 3.83090E+01 0.00000E+00
 -1      3117 1.35150E+02 3.70100E+01 0.00000E+00
 -1      3118 2.58600E+01 1.05013E+01 0.00000E+00
 -1      3119 2.42850E+01 1.05013E+01 0.00000E+00
 -1      3120 2.66100E+01 1.18003E+01 0.00000E+00
 -1      3121 3.49350E+01 1.05013E+01 0.00000E+00
 -1      3122 3.34350E+01 1.05013E+01 0.00000E+00
 -1      3123 3.79350E+01 1.05013E+01 0.00000E+00
 -1      3124 3.64350E+01 1.05013E+01 0.00000E+00
 -1      3125 3.56850E+01 1.18003E+01 0.00000E+00
 -1      3126 4.09350E+01 1.05013E+01 0.00000E+00
 -1      3127 3.94350E+01 1.05013E+01 0.00000E+00
 -1      3128 3.86850E+01 1.18003E+01 0.00000E+00
 -1      3129 4.39350E+01 1.05013E+01 0.00000E+00
 -1      3130 4.24350E+01 1.05013E+01 0.00000E+00
 -1      3131 4.16850E+01 1.18003E+01 0.00000E+00
 -1      3132 4.69350E+01 1.05013E+01 0.00000E+00
 -1      3133 4.54350E+01 1.05013E+01 0.00000E+00
 -1      3134 4.46850E+01 1.18003E+01 0.00000E+00
 -1      3135 5.00850E+01 1.05013E+01 0.00000E+00
 -1      3136 4.85100E+01 1.05013E+01 0.00000E+00
 -1      3137 4.77600E+01 1.18003E+01 0.00000E+00
 -1      3138 5.30850E+01 1.05013E+01 0.00000E+00
 -1      3139 5.15850E+01 1.05013E+01 0.00000E+00
 -1      3140 5.08350E+01 1.18003E+01 0.00000E+00
 -1      3141 5.60850E+01 1.05013E+01 0.00000E+00
 -1      3142 5.45850E+01 1.05013E+01 0.00000E+00
 -1      3143 5.38350E+01 1.18003E+01 0.00000E+00
 -1      3144 5.90850E+01 1.05013E+01 0.00000E+00
 -1      3145 5.75850E+01 1.05013E+01 0.00000E+00
 -1      3146 5.68350E+01 1.18003E+01 0.00000E+00
 -1      3147 6.20850E+01 1.05013E+01 0.00000E+00
 -1      3148 6.05850E+01 1.05013E+01 0.00000E+00
 -1      3149 5.98350E+01 1.18003E+01 0.00000E+00
 -1      3150 6.50850E+01 1.05013E+01 0.00000E+00
 -1      3151 6.35850E+01 1.05013E+01 0.00000E+00
 -1      3152 6.28350E+01 1.18003E+01 0.00000E+00
 -1      3153 6.80850E+01 1.05013E+01 0.00000E+00
 -1      3154 6.65850E+01 1.05013E+01 0.00000E+00
 -1      3155 6.58350E+01 1.18003E+01 0.00000E+00
 -1      3156 7.10850E+01 1.05013E+01 0.00000E+00
 -1      3157 6.95850E+01 1.05013E+01 0.00000E+00
 -1      3158 6.88350E+01 1.18003E+01 0.00000E+00
 -1      3159 7.40850E+01 1.05013E+01 0.00000E+00
 -1      3160 7.25850E+01 1.05013E+01 0.00000E+00
 -1      3161 7.18350E+01 1.18003E+01 0.00000E+00
 -1      3162 7.72350E+01 1.05013E+01 0.00000E+00
 -1      3163 7.56600E+01 1.05013E+01 0.00000E+00
 -1      3164 7.49100E+01 1.18003E+01 0.00000E+00
 -1      3165 8.02350E+01 1.05013E+01 0.00000E+00
 -1      3166 7.87350E+01 1.05013E+01 0.00000E+00
 -1      3167 7.79850E+01 1.18003E+01 0.00000E+00
 -1      3168 8.32350E+01 1.05013E+01 0.00000E+00
 -1      3169 8.17350E+01 1.05013E+01 0.00000E+00
 -1      3170 8.09850E+01 1.18003E+01 0.00000E+00
 -1      3171 8.62350E+01 1.05013E+01 0.00000E+00
 -1      3172 8.47350E+01 1.05013E+01 0.00000E+00
 -1      3173 8.39850E+01 1.18003E+01 0.00000E+00
 -1      3174 8.92350E+01 1.05013E+01 0.00000E+00
 -1      3175 8.77350E+01 1.05013E+01 0.00000E+00
 -1      3176 8.69850E+01 1.18003E+01 0.00000E+00
 -1      3177 9.22350E+01 1.05013E+01 0.00000E+00
 -1      3178 9.07350E+01 1.05013E+01 0.00000E+00
 -1      3179 8.99850E+01 1.18003E+01 0.00000E+00
 -1      3180 9.52350E+01 1.05013E+01 0.00000E+00
 -1      3181 9.37350E+01 1.05013E+01 0.00000E+00
 -1      3182 9.29850E+01 1.18003E+01 0.00000E+00
 -1      3183 9.82350E+01 1.05013E+01 0.00000E+00
 -1      3184 9.67350E+01 1.05013E+01 0.00000E+00
 -1      3185 9.59850E+01 1.18003E+01 0.00000E+00
 -1      3186 1.01235E+02 1.05013E+01 0.00000E+00
 -1      3187 9.97350E+01 1.05013E+01 0.00000E+00
 -1      3188 9.89850E+01 1.18003E+01 0.00000E+00
 -1      3189 1.04385E+02 1.05013E+01 0.00000E+00
 -1      3190 1.02810E+02 1.05013E+01 0.00000E+00
 -1      3191 1.02060E+02 1.18003E+01 0.00000E+00
 -1      3192 1.07385E+02 1.05013E+01 0.00000E+00
 -1      3193 1.05885E+02 1.05013E+01 0.00000E+00
 -1      3194 1.05135E+02 1.18003E+01 0.00000E+00
 -1      3195 1.10385E+02 1.05013E+01 0.00000E+00
 -1      3196 1.08885E+02 1.05013E+01 0.00000E+00
 -1      3197 1.08135E+02 1.18003E+01 0.00000E+00
 -1      3198 1.13385E+02 1.05013E+01 0.00000E+00
 -1      3199 1.11885E+02 1.05013E+01 0.00000E+00
 -1      3200 1.11135E+02 1.18003E+01 0.00000E+00
 -1      3201 1.16385E+02 1.05013E+01 0.00000E+00
 -1      3202 1.14885E+02 1.05013E+01 0.00000E+00
 -1      3203 1.14135E+02 1.18003E+01 0.00000E+00
 -1      3204 1.19676E+02 1.14583E+01 0.00000E+00
 -1      3205 1.20223E+02 1.02885E+01 0.00000E+00
 -1      3206 3.19350E+01 1.05013E+01 0.00000E+00
 -1      3207 3.04350E+01 1.05013E+01 0.00000E+00
 -1      3208 3.26850E+01 1.18003E+01 0.00000E+00
 -1      3209 1.39270E+02 3.76040E+01 0.00000E+00
 -1      3210 1.33259E+02 2.86069E+01 0.00000E+00
 -1      3211 1.32226E+02 2.85358E+01 0.00000E+00
 -1      3212 1.97850E+01 1.05013E+01 0.00000E+00
 -1      3213 1.82850E+01 1.05013E+01 0.00000E+00
 -1      3214 1.39092E+02 3.48625E+01 0.00000E+00
 -1      3215 1.39092E+02 3.33875E+01 0.00000E+00
 -1      3216 1.29000E+01 3.83090E+01 0.00000E+00
 -1      3217 1.44000E+01 3.83090E+01 0.00000E+00
 -1      3218 1.51500E+01 3.70100E+01 0.00000E+00
 -1      3219 1.41540E+02 5.43292E+00 0.00000E+00
 -1      3220 1.38520E+02 3.63050E+01 0.00000E+00
 -1      3221 1.18985E+02 1.70238E+01 0.00000E+00
 -1      3222 1.18950E+02 1.57145E+01 0.00000E+00
 -1      3223 1.16910E+01 2.12875E+01 0.00000E+00
 -1      3224 1.16910E+01 2.27625E+01 0.00000E+00
 -1      3225 1.25501E+02 2.69822E+01 0.00000E+00
 -1      3226 1.24184E+02 2.62958E+01 0.00000E+00
 -1      3227 1.22666E+02 2.50392E+01 0.00000E+00
 -1      3228 1.21641E+02 2.37791E+01 0.00000E+00
 -1      3229 1.20754E+02 9.34564E+00 0.00000E+00
 -1      3230 1.26488E+01 1.02017E+01 0.00000E+00
 -1      3231 1.20772E+01 1.14631E+01 0.00000E+00
 -1      3232 1.33763E+01 1.22006E+01 0.00000E+00
 -1      3233 1.41488E+01 1.02017E+01 0.00000E+00
 -1      3234 1.19014E+02 1.42686E+01 0.00000E+00
 -1      3235 1.19162E+02 1.29729E+01 0.00000E+00
 -1      3236 1.19450E+02 1.99322E+01 0.00000E+00
 -1      3237 1.19117E+02 1.85898E+01 0.00000E+00
 -1      3238 1.20790E+02 2.24568E+01 0.00000E+00
 -1      3239 1.20143E+02 2.14005E+01 0.00000E+00
 -1      3240 2.27850E+01 1.05013E+01 0.00000E+00
 -1      3241 2.12850E+01 1.05013E+01 0.00000E+00
 -1      3242 2.05350E+01 1.18003E+01 0.00000E+00
 -1      3243 1.28311E+02 2.79036E+01 0.00000E+00
 -1      3244 1.27022E+02 2.75173E+01 0.00000E+00
 -1      3245 1.30979E+02 2.83765E+01 0.00000E+00
 -1      3246 1.29717E+02 2.81533E+01 0.00000E+00
 -1      3247 1.19628E+02 9.53185E+00 0.00000E+00
 -1      3248 1.16910E+01 2.42375E+01 0.00000E+00
 -1      3249 1.16910E+01 2.57125E+01 0.00000E+00
 -1      3250 1.29900E+01 2.35000E+01 0.00000E+00
 -1      3251 1.18006E+02 1.49500E+01 0.00000E+00
 -1      3252 2.96850E+01 1.18003E+01 0.00000E+00
 -1      3253 2.35350E+01 1.18003E+01 0.00000E+00
 -1      3254 1.17602E+02 1.13531E+01 0.00000E+00
 -1      3255 1.16852E+02 1.26521E+01 0.00000E+00
 -1      3256 1.18116E+02 9.83850E+00 0.00000E+00
 -1      3257 1.20443E+02 2.37868E+01 0.00000E+00
 -1      3258 1.22812E+02 2.63657E+01 0.00000E+00
 -1      3259 1.21439E+02 2.64355E+01 0.00000E+00
 -1      3260 1.22957E+02 2.76921E+01 0.00000E+00
 -1      3261 1.28778E+02 2.89422E+01 0.00000E+00
 -1      3262 1.29900E+01 1.46687E+01 0.00000E+00
 -1      3263 1.16910E+01 1.54063E+01 0.00000E+00
 -1      3264 1.16910E+01 1.68750E+01 0.00000E+00
 -1      3265 1.12710E+01 3.74352E+01 0.00000E+00
 -1      3266 1.25851E+02 2.81574E+01 0.00000E+00
 -1      3267 1.31431E+02 2.93512E+01 0.00000E+00
 -1      3268 1.34984E+02 2.89472E+01 0.00000E+00
 -1      3269 1.34121E+02 2.87771E+01 0.00000E+00
 -1      3270 1.33540E+02 2.96806E+01 0.00000E+00
 -1      3271 1.16910E+01 3.30594E+01 0.00000E+00
 -1      3272 1.16910E+01 3.45281E+01 0.00000E+00
 -1      3273 1.39142E+02 3.20742E+01 0.00000E+00
 -1      3274 1.39156E+02 3.05992E+01 0.00000E+00
 -1      3275 1.37942E+02 3.01851E+01 0.00000E+00
 -1      3276 1.37843E+02 3.28117E+01 0.00000E+00
 -1      3277 1.16910E+01 1.98188E+01 0.00000E+00
 -1      3278 1.29900E+01 2.05562E+01 0.00000E+00
 -1      3279 1.16910E+01 1.83500E+01 0.00000E+00
 -1      3280 1.18075E+02 1.79620E+01 0.00000E+00
 -1      3281 1.37221E+02 3.55675E+01 0.00000E+00
 -1      3282 1.16910E+01 3.01219E+01 0.00000E+00
 -1      3283 1.16910E+01 3.15906E+01 0.00000E+00
 -1      3284 1.29900E+01 3.23250E+01 0.00000E+00
 -1      3285 1.20210E+01 3.61362E+01 0.00000E+00
 -1      3286 1.69669E+01 1.03515E+01 0.00000E+00
 -1      3287 1.54669E+01 1.03515E+01 0.00000E+00
 -1      3288 1.50806E+01 1.13509E+01 0.00000E+00
 -1      3289 1.77169E+01 1.16505E+01 0.00000E+00
 -1      3290 1.18900E+02 2.09963E+01 0.00000E+00
 -1      3291 1.26216E+02 2.95500E+01 0.00000E+00
 -1      3292 1.24695E+02 2.90149E+01 0.00000E+00
 -1      3293 1.74000E+01 3.57110E+01 0.00000E+00
 -1      3294 1.89000E+01 3.57110E+01 0.00000E+00
 -1      3295 1.18583E+02 1.19894E+01 0.00000E+00
 -1      3296 2.04000E+01 3.57110E+01 0.00000E+00
 -1      3297 2.19000E+01 3.57110E+01 0.00000E+00
 -1      3298 1.96500E+01 3.44120E+01 0.00000E+00
 -1      3299 2.34000E+01 3.57110E+01 0.00000E+00
 -1      3300 2.49000E+01 3.57110E+01 0.00000E+00
 -1      3301 2.26500E+01 3.44120E+01 0.00000E+00
 -1      3302 2.64000E+01 3.57110E+01 0.00000E+00
 -1      3303 2.79000E+01 3.57110E+01 0.00000E+00
 -1      3304 2.56500E+01 3.44120E+01 0.00000E+00
 -1      3305 2.94000E+01 3.57110E+01 0.00000E+00
 -1      3306 3.09000E+01 3.57110E+01 0.00000E+00
 -1      3307 2.86500E+01 3.44120E+01 0.00000E+00
 -1      3308 3.24000E+01 3.57110E+01 0.00000E+00
 -1      3309 3.39000E+01 3.57110E+01 0.00000E+00
 -1      3310 3.16500E+01 3.44120E+01 0.00000E+00
 -1      3311 3.54000E+01 3.57110E+01 0.00000E+00
 -1      3312 3.69000E+01 3.57110E+01 0.00000E+00
 -1      3313 3.46500E+01 3.44120E+01 0.00000E+00
 -1      3314 3.84000E+01 3.57110E+01 0.00000E+00
 -1      3315 3.99000E+01 3.57110E+01 0.00000E+00
 -1      3316 3.76500E+01 3.44120E+01 0.00000E+00
 -1      3317 4.14000E+01 3.57110E+01 0.00000E+00
 -1      3318 4.29000E+01 3.57110E+01 0.00000E+00
 -1      3319 4.06500E+01 3.44120E+01 0.00000E+00
 -1      3320 4.44000E+01 3.57110E+01 0.00000E+00
 -1      3321 4.59000E+01 3.57110E+01 0.00000E+00
 -1      3322 4.36500E+01 3.44120E+01 0.00000E+00
 -1      3323 4.74000E+01 3.57110E+01 0.00000E+00
 -1      3324 4.89000E+01 3.57110E+01 0.00000E+00
 -1      3325 4.66500E+01 3.44120E+01 0.00000E+00
 -1      3326 5.04000E+01 3.57110E+01 0.00000E+00
 -1      3327 5.19000E+01 3.57110E+01 0.00000E+00
 -1      3328 4.96500E+01 3.44120E+01 0.00000E+00
 -1      3329 5.34000E+01 3.57110E+01 0.00000E+00
 -1      3330 5.49000E+01 3.57110E+01 0.00000E+00
 -1      3331 5.26500E+01 3.44120E+01 0.00000E+00
 -1      3332 5.64000E+01 3.57110E+01 0.00000E+00
 -1      3333 5.79000E+01 3.57110E+01 0.00000E+00
 -1      3334 5.56500E+01 3.44120E+01 0.00000E+00
 -1      3335 5.94000E+01 3.57110E+01 0.00000E+00
 -1      3336 6.09000E+01 3.57110E+01 0.00000E+00
 -1      3337 5.86500E+01 3.44120E+01 0.00000E+00
 -1      3338 6.24000E+01 3.57110E+01 0.00000E+00
 -1      3339 6.39000E+01 3.57110E+01 0.00000E+00
 -1      3340 6.16500E+01 3.44120E+01 0.00000E+00
 -1      3341 6.54000E+01 3.57110E+01 0.00000E+00
 -1      3342 6.69000E+01 3.57110E+01 0.00000E+00
 -1      3343 6.46500E+01 3.44120E+01 0.00000E+00
 -1      3344 6.84000E+01 3.57110E+01 0.00000E+00
 -1      3345 6.99000E+01 3.57110E+01 0.00000E+00
 -1      3346 6.76500E+01 3.44120E+01 0.00000E+00
 -1      3347 7.14000E+01 3.57110E+01 0.00000E+00
 -1      3348 7.29000E+01 3.57110E+01 0.00000E+00
 -1      3349 7.06500E+01 3.44120E+01 0.00000E+00
 -1      3350 7.44000E+01 3.57110E+01 0.00000E+00
 -1      3351 7.59000E+01 3.57110E+01 0.00000E+00
 -1      3352 7.36500E+01 3.44120E+01 0.00000E+00
 -1      3353 7.74000E+01 3.57110E+01 0.00000E+00
 -1      3354 7.89000E+01 3.57110E+01 0.00000E+00
 -1      3355 7.66500E+01 3.44120E+01 0.00000E+00
 -1      3356 8.04000E+01 3.57110E+01 0.00000E+00
 -1      3357 8.19000E+01 3.57110E+01 0.00000E+00
 -1      3358 7.96500E+01 3.44120E+01 0.00000E+00
 -1      3359 8.34000E+01 3.57110E+01 0.00000E+00
 -1      3360 8.49000E+01 3.57110E+01 0.00000E+00
 -1      3361 8.26500E+01 3.44120E+01 0.00000E+00
 -1      3362 8.64000E+01 3.57110E+01 0.00000E+00
 -1      3363 8.79000E+01 3.57110E+01 0.00000E+00
 -1      3364 8.56500E+01 3.44120E+01 0.00000E+00
 -1      3365 8.94000E+01 3.57110E+01 0.00000E+00
 -1      3366 9.09000E+01 3.57110E+01 0.00000E+00
 -1      3367 8.86500E+01 3.44120E+01 0.00000E+00
 -1      3368 9.24000E+01 3.57110E+01 0.00000E+00
 -1      3369 9.39000E+01 3.57110E+01 0.00000E+00
 -1      3370 9.16500E+01 3.44120E+01 0.00000E+00
 -1      3371 9.54000E+01 3.57110E+01 0.00000E+00
 -1      3372 9.69000E+01 3.57110E+01 0.00000E+00
 -1      3373 9.46500E+01 3.44120E+01 0.00000E+00
 -1      3374 9.84000E+01 3.57110E+01 0.00000E+00
 -1      3375 9.99000E+01 3.57110E+01 0.00000E+00
 -1      3376 9.76500E+01 3.44120E+01 0.00000E+00
 -1      3377 1.01400E+02 3.57110E+01 0.00000E+00
 -1      3378 1.02900E+02 3.57110E+01 0.00000E+00
 -1      3379 1.00650E+02 3.44120E+01 0.00000E+00
 -1      3380 1.04400E+02 3.57110E+01 0.00000E+00
 -1      3381 1.05900E+02 3.57110E+01 0.00000E+00
 -1      3382 1.03650E+02 3.44120E+01 0.00000E+00
 -1      3383 1.07400E+02 3.57110E+01 0.00000E+00
 -1      3384 1.08900E+02 3.57110E+01 0.00000E+00
 -1      3385 1.06650E+02 3.44120E+01 0.00000E+00
 -1      3386 1.10400E+02 3.57110E+01 0.00000E+00
 -1      3387 1.11900E+02 3.57110E+01 0.00000E+00
 -1      3388 1.09650E+02 3.44120E+01 0.00000E+00
 -1      3389 1.13400E+02 3.57110E+01 0.00000E+00
 -1      3390 1.14900E+02 3.57110E+01 0.00000E+00
 -1      3391 1.12650E+02 3.44120E+01 0.00000E+00
 -1      3392 1.16400E+02 3.57110E+01 0.00000E+00
 -1      3393 1.17900E+02 3.57110E+01 0.00000E+00
 -1      3394 1.15650E+02 3.44120E+01 0.00000E+00
 -1      3395 1.19400E+02 3.57110E+01 0.00000E+00
 -1      3396 1.20900E+02 3.57110E+01 0.00000E+00
 -1      3397 1.18650E+02 3.44120E+01 0.00000E+00
 -1      3398 1.22400E+02 3.57110E+01 0.00000E+00
 -1      3399 1.23900E+02 3.57110E+01 0.00000E+00
 -1      3400 1.21650E+02 3.44120E+01 0.00000E+00
 -1      3401 1.25400E+02 3.57110E+01 0.00000E+00
 -1      3402 1.26900E+02 3.57110E+01 0.00000E+00
 -1      3403 1.24650E+02 3.44120E+01 0.00000E+00
 -1      3404 1.28400E+02 3.57110E+01 0.00000E+00
 -1      3405 1.29900E+02 3.57110E+01 0.00000E+00
 -1      3406 1.27650E+02 3.44120E+01 0.00000E+00
 -1      3407 1.31400E+02 3.57110E+01 0.00000E+00
 -1      3408 1.32900E+02 3.57110E+01 0.00000E+00
 -1      3409 1.30650E+02 3.44120E+01 0.00000E+00
 -1      3410 1.34311E+02 3.56393E+01 0.00000E+00
 -1      3411 1.35811E+02 3.56393E+01 0.00000E+00
 -1      3412 1.36382E+02 3.41968E+01 0.00000E+00
 -1      3413 1.33561E+02 3.43402E+01 0.00000E+00
 -1      3414 2.73975E+01 1.30992E+01 0.00000E+00
 -1      3415 2.58225E+01 1.30992E+01 0.00000E+00
 -1      3416 3.94350E+01 1.30992E+01 0.00000E+00
 -1      3417 3.79350E+01 1.30992E+01 0.00000E+00
 -1      3418 3.64350E+01 1.30992E+01 0.00000E+00
 -1      3419 3.49350E+01 1.30992E+01 0.00000E+00
 -1      3420 3.71850E+01 1.43982E+01 0.00000E+00
 -1      3421 4.54350E+01 1.30992E+01 0.00000E+00
 -1      3422 4.39350E+01 1.30992E+01 0.00000E+00
 -1      3423 4.85850E+01 1.30992E+01 0.00000E+00
 -1      3424 4.70100E+01 1.30992E+01 0.00000E+00
 -1      3425 4.62600E+01 1.43982E+01 0.00000E+00
 -1      3426 5.15850E+01 1.30992E+01 0.00000E+00
 -1      3427 5.00850E+01 1.30992E+01 0.00000E+00
 -1      3428 4.93350E+01 1.43982E+01 0.00000E+00
 -1      3429 5.45850E+01 1.30992E+01 0.00000E+00
 -1      3430 5.30850E+01 1.30992E+01 0.00000E+00
 -1      3431 5.23350E+01 1.43982E+01 0.00000E+00
 -1      3432 5.75850E+01 1.30992E+01 0.00000E+00
 -1      3433 5.60850E+01 1.30992E+01 0.00000E+00
 -1      3434 5.53350E+01 1.43982E+01 0.00000E+00
 -1      3435 6.05850E+01 1.30992E+01 0.00000E+00
 -1      3436 5.90850E+01 1.30992E+01 0.00000E+00
 -1      3437 5.83350E+01 1.43982E+01 0.00000E+00
 -1      3438 6.35850E+01 1.30992E+01 0.00000E+00
 -1      3439 6.20850E+01 1.30992E+01 0.00000E+00
 -1      3440 6.13350E+01 1.43982E+01 0.00000E+00
 -1      3441 6.65850E+01 1.30992E+01 0.00000E+00
 -1      3442 6.50850E+01 1.30992E+01 0.00000E+00
 -1      3443 6.43350E+01 1.43982E+01 0.00000E+00
 -1      3444 6.95850E+01 1.30992E+01 0.00000E+00
 -1      3445 6.80850E+01 1.30992E+01 0.00000E+00
 -1      3446 6.73350E+01 1.43982E+01 0.00000E+00
 -1      3447 7.25850E+01 1.30992E+01 0.00000E+00
 -1      3448 7.10850E+01 1.30992E+01 0.00000E+00
 -1      3449 7.03350E+01 1.43982E+01 0.00000E+00
 -1      3450 7.57350E+01 1.30992E+01 0.00000E+00
 -1      3451 7.41600E+01 1.30992E+01 0.00000E+00
 -1      3452 7.34100E+01 1.43982E+01 0.00000E+00
 -1      3453 7.87350E+01 1.30992E+01 0.00000E+00
 -1      3454 7.72350E+01 1.30992E+01 0.00000E+00
 -1      3455 7.64850E+01 1.43982E+01 0.00000E+00
 -1      3456 8.17350E+01 1.30992E+01 0.00000E+00
 -1      3457 8.02350E+01 1.30992E+01 0.00000E+00
 -1      3458 7.94850E+01 1.43982E+01 0.00000E+00
 -1      3459 8.47350E+01 1.30992E+01 0.00000E+00
 -1      3460 8.32350E+01 1.30992E+01 0.00000E+00
 -1      3461 8.24850E+01 1.43982E+01 0.00000E+00
 -1      3462 8.77350E+01 1.30992E+01 0.00000E+00
 -1      3463 8.62350E+01 1.30992E+01 0.00000E+00
 -1      3464 8.54850E+01 1.43982E+01 0.00000E+00
 -1      3465 9.07350E+01 1.30992E+01 0.00000E+00
 -1      3466 8.92350E+01 1.30992E+01 0.00000E+00
 -1      3467 8.84850E+01 1.43982E+01 0.00000E+00
 -1      3468 9.37350E+01 1.30992E+01 0.00000E+00
 -1      3469 9.22350E+01 1.30992E+01 0.00000E+00
 -1      3470 9.14850E+01 1.43982E+01 0.00000E+00
 -1      3471 9.67350E+01 1.30992E+01 0.00000E+00
 -1      3472 9.52350E+01 1.30992E+01 0.00000E+00
 -1      3473 9.44850E+01 1.43982E+01 0.00000E+00
 -1      3474 9.97350E+01 1.30992E+01 0.00000E+00
 -1      3475 9.82350E+01 1.30992E+01 0.00000E+00
 -1      3476 9.74850E+01 1.43982E+01 0.00000E+00
 -1      3477 1.02885E+02 1.30992E+01 0.00000E+00
 -1      3478 1.01310E+02 1.30992E+01 0.00000E+00
 -1      3479 1.00560E+02 1.43982E+01 0.00000E+00
 -1      3480 1.05885E+02 1.30992E+01 0.00000E+00
 -1      3481 1.04385E+02 1.30992E+01 0.00000E+00
 -1      3482 1.03635E+02 1.43982E+01 0.00000E+00
 -1      3483 1.08885E+02 1.30992E+01 0.00000E+00
 -1      3484 1.07385E+02 1.30992E+01 0.00000E+00
 -1      3485 1.06635E+02 1.43982E+01 0.00000E+00
 -1      3486 1.11885E+02 1.30992E+01 0.00000E+00
 -1      3487 1.10385E+02 1.30992E+01 0.00000E+00
 -1      3488 1.09635E+02 1.43982E+01 0.00000E+00
 -1      3489 1.14885E+02 1.30992E+01 0.00000E+00
 -1      3490 1.13385E+02 1.30992E+01 0.00000E+00
 -1      3491 1.12635E+02 1.43982E+01 0.00000E+00
 -1      3492 1.16102E+02 1.39511E+01 0.00000E+00
 -1      3493 3.34350E+01 1.30992E+01 0.00000E+00
 -1      3494 3.19350E+01 1.30992E+01 0.00000E+00
 -1      3495 3.41850E+01 1.43982E+01 0.00000E+00
 -1      3496 4.24350E+01 1.30992E+01 0.00000E+00
 -1      3497 4.09350E+01 1.30992E+01 0.00000E+00
 -1      3498 4.01850E+01 1.43982E+01 0.00000E+00
 -1      3499 4.31850E+01 1.43982E+01 0.00000E+00
 -1      3500 1.18168E+02 2.22394E+01 0.00000E+00
 -1      3501 1.17475E+02 2.07711E+01 0.00000E+00
 -1      3502 1.33200E+01 3.54019E+01 0.00000E+00
 -1      3503 1.16910E+01 2.71844E+01 0.00000E+00
 -1      3504 1.16910E+01 2.86531E+01 0.00000E+00
 -1      3505 1.29900E+01 2.93875E+01 0.00000E+00
 -1      3506 1.46100E+01 3.55564E+01 0.00000E+00
 -1      3507 1.61100E+01 3.55564E+01 0.00000E+00
 -1      3508 1.68600E+01 3.42574E+01 0.00000E+00
 -1      3509 1.42800E+01 3.39483E+01 0.00000E+00
 -1      3510 3.04350E+01 1.30992E+01 0.00000E+00
 -1      3511 2.89350E+01 1.30992E+01 0.00000E+00
 -1      3512 3.11850E+01 1.43982E+01 0.00000E+00
 -1      3513 1.31914E+02 3.05308E+01 0.00000E+00
 -1      3514 1.30667E+02 3.03715E+01 0.00000E+00
 -1      3515 1.16039E+02 1.53971E+01 0.00000E+00
 -1      3516 1.29287E+02 3.01588E+01 0.00000E+00
 -1      3517 1.27881E+02 2.99091E+01 0.00000E+00
 -1      3518 1.16952E+02 1.88453E+01 0.00000E+00
 -1      3519 1.16820E+02 1.72792E+01 0.00000E+00
 -1      3520 2.12850E+01 1.30992E+01 0.00000E+00
 -1      3521 1.97850E+01 1.30992E+01 0.00000E+00
 -1      3522 1.19865E+02 2.50931E+01 0.00000E+00
 -1      3523 1.19015E+02 2.37709E+01 0.00000E+00
 -1      3524 2.42850E+01 1.30992E+01 0.00000E+00
 -1      3525 2.27850E+01 1.30992E+01 0.00000E+00
 -1      3526 2.20350E+01 1.43982E+01 0.00000E+00
 -1      3527 2.50725E+01 1.43982E+01 0.00000E+00
 -1      3528 1.29900E+01 1.76125E+01 0.00000E+00
 -1      3529 1.37070E+02 2.97732E+01 0.00000E+00
 -1      3530 1.35856E+02 2.93591E+01 0.00000E+00
 -1      3531 1.35275E+02 3.02627E+01 0.00000E+00
 -1      3532 1.37020E+02 3.10865E+01 0.00000E+00
 -1      3533 1.26725E+02 3.07667E+01 0.00000E+00
 -1      3534 1.17590E+02 2.35457E+01 0.00000E+00
 -1      3535 1.16220E+02 2.00884E+01 0.00000E+00
 -1      3536 1.29770E+02 3.13385E+01 0.00000E+00
 -1      3537 1.29900E+01 2.64469E+01 0.00000E+00
 -1      3538 1.36432E+02 3.28835E+01 0.00000E+00
 -1      3539 1.23322E+02 2.90848E+01 0.00000E+00
 -1      3540 1.21949E+02 2.91546E+01 0.00000E+00
 -1      3541 1.23687E+02 3.04774E+01 0.00000E+00
 -1      3542 1.42890E+01 1.39344E+01 0.00000E+00
 -1      3543 1.42890E+01 1.54031E+01 0.00000E+00
 -1      3544 2.81475E+01 1.43982E+01 0.00000E+00
 -1      3545 1.42890E+01 1.98219E+01 0.00000E+00
 -1      3546 1.42890E+01 2.12906E+01 0.00000E+00
 -1      3547 1.42800E+01 3.24796E+01 0.00000E+00
 -1      3548 1.55700E+01 3.26341E+01 0.00000E+00
 -1      3549 1.42800E+01 3.10108E+01 0.00000E+00
 -1      3550 1.32776E+02 3.07009E+01 0.00000E+00
 -1      3551 1.32012E+02 3.17212E+01 0.00000E+00
 -1      3552 1.33638E+02 3.08711E+01 0.00000E+00
 -1      3553 1.14916E+02 1.62804E+01 0.00000E+00
 -1      3554 1.20156E+02 2.77460E+01 0.00000E+00
 -1      3555 1.20010E+02 2.64195E+01 0.00000E+00
 -1      3556 1.18582E+02 2.64036E+01 0.00000E+00
 -1      3557 1.84669E+01 1.29495E+01 0.00000E+00
 -1      3558 1.71488E+01 1.27997E+01 0.00000E+00
 -1      3559 1.92169E+01 1.42485E+01 0.00000E+00
 -1      3560 1.42890E+01 2.27656E+01 0.00000E+00
 -1      3561 1.42890E+01 2.42406E+01 0.00000E+00
 -1      3562 1.55880E+01 2.20313E+01 0.00000E+00
 -1      3563 1.89000E+01 3.31130E+01 0.00000E+00
 -1      3564 2.04000E+01 3.31130E+01 0.00000E+00
 -1      3565 2.19000E+01 3.31130E+01 0.00000E+00
 -1      3566 2.34000E+01 3.31130E+01 0.00000E+00
 -1      3567 2.11500E+01 3.18140E+01 0.00000E+00
 -1      3568 2.49000E+01 3.31130E+01 0.00000E+00
 -1      3569 2.64000E+01 3.31130E+01 0.00000E+00
 -1      3570 2.41500E+01 3.18140E+01 0.00000E+00
 -1      3571 2.79000E+01 3.31130E+01 0.00000E+00
 -1      3572 2.94000E+01 3.31130E+01 0.00000E+00
 -1      3573 2.71500E+01 3.18140E+01 0.00000E+00
 -1      3574 3.09000E+01 3.31130E+01 0.00000E+00
 -1      3575 3.24000E+01 3.31130E+01 0.00000E+00
 -1      3576 3.01500E+01 3.18140E+01 0.00000E+00
 -1      3577 3.39000E+01 3.31130E+01 0.00000E+00
 -1      3578 3.54000E+01 3.31130E+01 0.00000E+00
 -1      3579 3.31500E+01 3.18140E+01 0.00000E+00
 -1      3580 3.69000E+01 3.31130E+01 0.00000E+00
 -1      3581 3.84000E+01 3.31130E+01 0.00000E+00
 -1      3582 3.61500E+01 3.18140E+01 0.00000E+00
 -1      3583 3.99000E+01 3.31130E+01 0.00000E+00
 -1      3584 4.14000E+01 3.31130E+01 0.00000E+00
 -1      3585 3.91500E+01 3.18140E+01 0.00000E+00
 -1      3586 4.29000E+01 3.31130E+01 0.00000E+00
 -1      3587 4.44000E+01 3.31130E+01 0.00000E+00
 -1      3588 4.21500E+01 3.18140E+01 0.00000E+00
 -1      3589 4.59000E+01 3.31130E+01 0.00000E+00
 -1      3590 4.74000E+01 3.31130E+01 0.00000E+00
 -1      3591 4.51500E+01 3.18140E+01 0.00000E+00
 -1      3592 4.89000E+01 3.31130E+01 0.00000E+00
 -1      3593 5.04000E+01 3.31130E+01 0.00000E+00
 -1      3594 4.81500E+01 3.18140E+01 0.00000E+00
 -1      3595 5.19000E+01 3.31130E+01 0.00000E+00
 -1      3596 5.34000E+01 3.31130E+01 0.00000E+00
 -1      3597 5.11500E+01 3.18140E+01 0.00000E+00
 -1      3598 5.49000E+01 3.31130E+01 0.00000E+00
 -1      3599 5.64000E+01 3.31130E+01 0.00000E+00
 -1      3600 5.41500E+01 3.18140E+01 0.00000E+00
 -1      3601 5.79000E+01 3.31130E+01 0.00000E+00
 -1      3602 5.94000E+01 3.31130E+01 0.00000E+00
 -1      3603 5.71500E+01 3.18140E+01 0.00000E+00
 -1      3604 6.09000E+01 3.31130E+01 0.00000E+00
 -1      3605 6.24000E+01 3.31130E+01 0.00000E+00
 -1      3606 6.01500E+01 3.18140E+01 0.00000E+00
 -1      3607 6.39000E+01 3.31130E+01 0.00000E+00
 -1      3608 6.54000E+01 3.31130E+01 0.00000E+00
 -1      3609 6.31500E+01 3.18140E+01 0.00000E+00
 -1      3610 6.69000E+01 3.31130E+01 0.00000E+00
 -1      3611 6.84000E+01 3.31130E+01 0.00000E+00
 -1      3612 6.61500E+01 3.18140E+01 0.00000E+00
 -1      3613 6.99000E+01 3.31130E+01 0.00000E+00
 -1      3614 7.14000E+01 3.31130E+01 0.00000E+00
 -1      3615 6.91500E+01 3.18140E+01 0.00000E+00
 -1      3616 7.29000E+01 3.31130E+01 0.00000E+00
 -1      3617 7.44000E+01 3.31130E+01 0.00000E+00
 -1      3618 7.21500E+01 3.18140E+01 0.00000E+00
 -1      3619 7.59000E+01 3.31130E+01 0.00000E+00
 -1      3620 7.74000E+01 3.31130E+01 0.00000E+00
 -1      3621 7.51500E+01 3.18140E+01 0.00000E+00
 -1      3622 7.89000E+01 3.31130E+01 0.00000E+00
 -1      3623 8.04000E+01 3.31130E+01 0.00000E+00
 -1      3624 7.81500E+01 3.18140E+01 0.00000E+00
 -1      3625 8.19000E+01 3.31130E+01 0.00000E+00
 -1      3626 8.34000E+01 3.31130E+01 0.00000E+00
 -1      3627 8.11500E+01 3.18140E+01 0.00000E+00
 -1      3628 8.49000E+01 3.31130E+01 0.00000E+00
 -1      3629 8.64000E+01 3.31130E+01 0.00000E+00
 -1      3630 8.41500E+01 3.18140E+01 0.00000E+00
 -1      3631 8.79000E+01 3.31130E+01 0.00000E+00
 -1      3632 8.94000E+01 3.31130E+01 0.00000E+00
 -1      3633 8.71500E+01 3.18140E+01 0.00000E+00
 -1      3634 9.09000E+01 3.31130E+01 0.00000E+00
 -1      3635 9.24000E+01 3.31130E+01 0.00000E+00
 -1      3636 9.01500E+01 3.18140E+01 0.00000E+00
 -1      3637 9.39000E+01 3.31130E+01 0.00000E+00
 -1      3638 9.54000E+01 3.31130E+01 0.00000E+00
 -1      3639 9.31500E+01 3.18140E+01 0.00000E+00
 -1      3640 9.69000E+01 3.31130E+01 0.00000E+00
 -1      3641 9.84000E+01 3.31130E+01 0.00000E+00
 -1      3642 9.61500E+01 3.18140E+01 0.00000E+00
 -1      3643 9.99000E+01 3.31130E+01 0.00000E+00
 -1      3644 1.01400E+02 3.31130E+01 0.00000E+00
 -1      3645 9.91500E+01 3.18140E+01 0.00000E+00
 -1      3646 1.02900E+02 3.31130E+01 0.00000E+00
 -1      3647 1.04400E+02 3.31130E+01 0.00000E+00
 -1      3648 1.02150E+02 3.18140E+01 0.00000E+00
 -1      3649 1.05900E+02 3.31130E+01 0.00000E+00
 -1      3650 1.07400E+02 3.31130E+01 0.00000E+00
 -1      3651 1.05150E+02 3.18140E+01 0.00000E+00
 -1      3652 1.08900E+02 3.31130E+01 0.00000E+00
 -1      3653 1.10400E+02 3.31130E+01 0.00000E+00
 -1      3654 1.08150E+02 3.18140E+01 0.00000E+00
 -1      3655 1.11900E+02 3.31130E+01 0.00000E+00
 -1      3656 1.13400E+02 3.31130E+01 0.00000E+00
 -1      3657 1.11150E+02 3.18140E+01 0.00000E+00
 -1      3658 1.14900E+02 3.31130E+01 0.00000E+00
 -1      3659 1.16400E+02 3.31130E+01 0.00000E+00
 -1      3660 1.14150E+02 3.18140E+01 0.00000E+00
 -1      3661 1.17900E+02 3.31130E+01 0.00000E+00
 -1      3662 1.19400E+02 3.31130E+01 0.00000E+00
 -1      3663 1.17150E+02 3.18140E+01 0.00000E+00
 -1      3664 1.21232E+02 3.24796E+01 0.00000E+00
 -1      3665 1.22732E+02 3.24796E+01 0.00000E+00
 -1      3666 1.24105E+02 3.24098E+01 0.00000E+00
 -1      3667 1.25605E+02 3.24098E+01 0.00000E+00
 -1      3668 1.27270E+02 3.27689E+01 0.00000E+00
 -1      3669 1.28770E+02 3.27689E+01 0.00000E+00
 -1      3670 1.30150E+02 3.29816E+01 0.00000E+00
 -1      3671 1.31650E+02 3.29816E+01 0.00000E+00
 -1      3672 5.00850E+01 1.56973E+01 0.00000E+00
 -1      3673 4.85850E+01 1.56973E+01 0.00000E+00
 -1      3674 4.70100E+01 1.56973E+01 0.00000E+00
 -1      3675 4.54350E+01 1.56973E+01 0.00000E+00
 -1      3676 4.77600E+01 1.69963E+01 0.00000E+00
 -1      3677 5.60850E+01 1.56973E+01 0.00000E+00
 -1      3678 5.45850E+01 1.56973E+01 0.00000E+00
 -1      3679 5.90850E+01 1.56973E+01 0.00000E+00
 -1      3680 5.75850E+01 1.56973E+01 0.00000E+00
 -1      3681 5.68350E+01 1.69963E+01 0.00000E+00
 -1      3682 6.20850E+01 1.56973E+01 0.00000E+00
 -1      3683 6.05850E+01 1.56973E+01 0.00000E+00
 -1      3684 5.98350E+01 1.69963E+01 0.00000E+00
 -1      3685 6.50850E+01 1.56973E+01 0.00000E+00
 -1      3686 6.35850E+01 1.56973E+01 0.00000E+00
 -1      3687 6.28350E+01 1.69963E+01 0.00000E+00
 -1      3688 6.80850E+01 1.56973E+01 0.00000E+00
 -1      3689 6.65850E+01 1.56973E+01 0.00000E+00
 -1      3690 6.58350E+01 1.69963E+01 0.00000E+00
 -1      3691 7.10850E+01 1.56973E+01 0.00000E+00
 -1      3692 6.95850E+01 1.56973E+01 0.00000E+00
 -1      3693 6.88350E+01 1.69963E+01 0.00000E+00
 -1      3694 7.42350E+01 1.56973E+01 0.00000E+00
 -1      3695 7.26600E+01 1.56973E+01 0.00000E+00
 -1      3696 7.19100E+01 1.69963E+01 0.00000E+00
 -1      3697 7.72350E+01 1.56973E+01 0.00000E+00
 -1      3698 7.57350E+01 1.56973E+01 0.00000E+00
 -1      3699 7.49850E+01 1.69963E+01 0.00000E+00
 -1      3700 8.02350E+01 1.56973E+01 0.00000E+00
 -1      3701 7.87350E+01 1.56973E+01 0.00000E+00
 -1      3702 7.79850E+01 1.69963E+01 0.00000E+00
 -1      3703 8.32350E+01 1.56973E+01 0.00000E+00
 -1      3704 8.17350E+01 1.56973E+01 0.00000E+00
 -1      3705 8.09850E+01 1.69963E+01 0.00000E+00
 -1      3706 8.62350E+01 1.56973E+01 0.00000E+00
 -1      3707 8.47350E+01 1.56973E+01 0.00000E+00
 -1      3708 8.39850E+01 1.69963E+01 0.00000E+00
 -1      3709 8.92350E+01 1.56973E+01 0.00000E+00
 -1      3710 8.77350E+01 1.56973E+01 0.00000E+00
 -1      3711 8.69850E+01 1.69963E+01 0.00000E+00
 -1      3712 9.22350E+01 1.56973E+01 0.00000E+00
 -1      3713 9.07350E+01 1.56973E+01 0.00000E+00
 -1      3714 8.99850E+01 1.69963E+01 0.00000E+00
 -1      3715 9.52350E+01 1.56973E+01 0.00000E+00
 -1      3716 9.37350E+01 1.56973E+01 0.00000E+00
 -1      3717 9.29850E+01 1.69963E+01 0.00000E+00
 -1      3718 9.82350E+01 1.56973E+01 0.00000E+00
 -1      3719 9.67350E+01 1.56973E+01 0.00000E+00
 -1      3720 9.59850E+01 1.69963E+01 0.00000E+00
 -1      3721 1.01385E+02 1.56973E+01 0.00000E+00
 -1      3722 9.98100E+01 1.56973E+01 0.00000E+00
 -1      3723 9.90600E+01 1.69963E+01 0.00000E+00
 -1      3724 1.04385E+02 1.56973E+01 0.00000E+00
 -1      3725 1.02885E+02 1.56973E+01 0.00000E+00
 -1      3726 1.02135E+02 1.69963E+01 0.00000E+00
 -1      3727 1.07385E+02 1.56973E+01 0.00000E+00
 -1      3728 1.05885E+02 1.56973E+01 0.00000E+00
 -1      3729 1.05135E+02 1.69963E+01 0.00000E+00
 -1      3730 1.10385E+02 1.56973E+01 0.00000E+00
 -1      3731 1.08885E+02 1.56973E+01 0.00000E+00
 -1      3732 1.08135E+02 1.69963E+01 0.00000E+00
 -1      3733 1.13401E+02 1.59888E+01 0.00000E+00
 -1      3734 1.11901E+02 1.59888E+01 0.00000E+00
 -1      3735 1.11151E+02 1.72878E+01 0.00000E+00
 -1      3736 1.14182E+02 1.78709E+01 0.00000E+00
 -1      3737 1.42890E+01 1.68750E+01 0.00000E+00
 -1      3738 1.42890E+01 1.83500E+01 0.00000E+00
 -1      3739 1.55880E+01 1.90844E+01 0.00000E+00
 -1      3740 1.55880E+01 1.61406E+01 0.00000E+00
 -1      3741 3.49350E+01 1.56973E+01 0.00000E+00
 -1      3742 3.34350E+01 1.56973E+01 0.00000E+00
 -1      3743 1.46944E+01 1.23503E+01 0.00000E+00
 -1      3744 1.59934E+01 1.30847E+01 0.00000E+00
 -1      3745 2.89163E+01 1.56973E+01 0.00000E+00
 -1      3746 2.73787E+01 1.56973E+01 0.00000E+00
 -1      3747 2.58412E+01 1.56973E+01 0.00000E+00
 -1      3748 2.43037E+01 1.56973E+01 0.00000E+00
 -1      3749 2.66100E+01 1.69963E+01 0.00000E+00
 -1      3750 1.65900E+01 3.27963E+01 0.00000E+00
 -1      3751 1.78800E+01 3.29508E+01 0.00000E+00
 -1      3752 1.86300E+01 3.16518E+01 0.00000E+00
 -1      3753 1.65900E+01 3.13275E+01 0.00000E+00
 -1      3754 1.42890E+01 2.57125E+01 0.00000E+00
 -1      3755 1.42890E+01 2.71844E+01 0.00000E+00
 -1      3756 1.55880E+01 2.49781E+01 0.00000E+00
 -1      3757 5.30850E+01 1.56973E+01 0.00000E+00
 -1      3758 5.15850E+01 1.56973E+01 0.00000E+00
 -1      3759 5.08350E+01 1.69963E+01 0.00000E+00
 -1      3760 5.38350E+01 1.69963E+01 0.00000E+00
 -1      3761 3.19350E+01 1.56973E+01 0.00000E+00
 -1      3762 3.04350E+01 1.56973E+01 0.00000E+00
 -1      3763 3.26850E+01 1.69963E+01 0.00000E+00
 -1      3764 3.79350E+01 1.56973E+01 0.00000E+00
 -1      3765 3.64350E+01 1.56973E+01 0.00000E+00
 -1      3766 3.56850E+01 1.69963E+01 0.00000E+00
 -1      3767 1.16896E+02 2.49293E+01 0.00000E+00
 -1      3768 1.16049E+02 2.33978E+01 0.00000E+00
 -1      3769 1.15228E+02 2.13913E+01 0.00000E+00
 -1      3770 1.14705E+02 1.94654E+01 0.00000E+00
 -1      3771 1.42845E+01 2.83632E+01 0.00000E+00
 -1      3772 1.42845E+01 2.98320E+01 0.00000E+00
 -1      3773 1.55745E+01 2.99865E+01 0.00000E+00
 -1      3774 1.55835E+01 2.76288E+01 0.00000E+00
 -1      3775 2.28037E+01 1.56973E+01 0.00000E+00
 -1      3776 2.13037E+01 1.56973E+01 0.00000E+00
 -1      3777 2.35725E+01 1.69963E+01 0.00000E+00
 -1      3778 1.32512E+02 3.31517E+01 0.00000E+00
 -1      3779 1.67434E+01 1.43837E+01 0.00000E+00
 -1      3780 1.20482E+02 3.11806E+01 0.00000E+00
 -1      3781 1.33923E+02 3.30799E+01 0.00000E+00
 -1      3782 4.09350E+01 1.56973E+01 0.00000E+00
 -1      3783 3.94350E+01 1.56973E+01 0.00000E+00
 -1      3784 3.86850E+01 1.69963E+01 0.00000E+00
 -1      3785 1.13190E+02 1.91739E+01 0.00000E+00
 -1      3786 2.96663E+01 1.69963E+01 0.00000E+00
 -1      3787 1.68870E+01 1.83484E+01 0.00000E+00
 -1      3788 1.68870E+01 1.98203E+01 0.00000E+00
 -1      3789 4.39350E+01 1.56973E+01 0.00000E+00
 -1      3790 4.24350E+01 1.56973E+01 0.00000E+00
 -1      3791 4.16850E+01 1.69963E+01 0.00000E+00
 -1      3792 4.46850E+01 1.69963E+01 0.00000E+00
 -1      3793 1.20501E+02 3.01597E+01 0.00000E+00
 -1      3794 1.20136E+02 2.87670E+01 0.00000E+00
 -1      3795 1.18708E+02 2.87510E+01 0.00000E+00
 -1      3796 1.18669E+02 3.07930E+01 0.00000E+00
 -1      3797 1.14534E+02 2.27749E+01 0.00000E+00
 -1      3798 2.05702E+01 1.70083E+01 0.00000E+00
 -1      3799 1.98015E+01 1.57093E+01 0.00000E+00
 -1      3800 1.35383E+02 3.16949E+01 0.00000E+00
 -1      3801 1.81860E+01 2.05594E+01 0.00000E+00
 -1      3802 1.68870E+01 2.12953E+01 0.00000E+00
 -1      3803 1.68870E+01 2.27703E+01 0.00000E+00
 -1      3804 1.84833E+01 1.55595E+01 0.00000E+00
 -1      3805 1.17187E+02 2.75822E+01 0.00000E+00
 -1      3806 1.17041E+02 2.62557E+01 0.00000E+00
 -1      3807 1.15501E+02 2.61079E+01 0.00000E+00
 -1      3808 2.34000E+01 3.05150E+01 0.00000E+00
 -1      3809 2.49000E+01 3.05150E+01 0.00000E+00
 -1      3810 2.64000E+01 3.05150E+01 0.00000E+00
 -1      3811 2.79000E+01 3.05150E+01 0.00000E+00
 -1      3812 2.56500E+01 2.92160E+01 0.00000E+00
 -1      3813 2.94000E+01 3.05150E+01 0.00000E+00
 -1      3814 3.09000E+01 3.05150E+01 0.00000E+00
 -1      3815 2.86500E+01 2.92160E+01 0.00000E+00
 -1      3816 3.24000E+01 3.05150E+01 0.00000E+00
 -1      3817 3.39000E+01 3.05150E+01 0.00000E+00
 -1      3818 3.16500E+01 2.92160E+01 0.00000E+00
 -1      3819 3.54000E+01 3.05150E+01 0.00000E+00
 -1      3820 3.69000E+01 3.05150E+01 0.00000E+00
 -1      3821 3.46500E+01 2.92160E+01 0.00000E+00
 -1      3822 3.84000E+01 3.05150E+01 0.00000E+00
 -1      3823 3.99000E+01 3.05150E+01 0.00000E+00
 -1      3824 3.76500E+01 2.92160E+01 0.00000E+00
 -1      3825 4.14000E+01 3.05150E+01 0.00000E+00
 -1      3826 4.29000E+01 3.05150E+01 0.00000E+00
 -1      3827 4.06500E+01 2.92160E+01 0.00000E+00
 -1      3828 4.44000E+01 3.05150E+01 0.00000E+00
 -1      3829 4.59000E+01 3.05150E+01 0.00000E+00
 -1      3830 4.36500E+01 2.92160E+01 0.00000E+00
 -1      3831 4.74000E+01 3.05150E+01 0.00000E+00
 -1      3832 4.89000E+01 3.05150E+01 0.00000E+00
 -1      3833 4.66500E+01 2.92160E+01 0.00000E+00
 -1      3834 5.04000E+01 3.05150E+01 0.00000E+00
 -1      3835 5.19000E+01 3.05150E+01 0.00000E+00
 -1      3836 4.96500E+01 2.92160E+01 0.00000E+00
 -1      3837 5.34000E+01 3.05150E+01 0.00000E+00
 -1      3838 5.49000E+01 3.05150E+01 0.00000E+00
 -1      3839 5.26500E+01 2.92160E+01 0.00000E+00
 -1      3840 5.64000E+01 3.05150E+01 0.00000E+00
 -1      3841 5.79000E+01 3.05150E+01 0.00000E+00
 -1      3842 5.56500E+01 2.92160E+01 0.00000E+00
 -1      3843 5.94000E+01 3.05150E+01 0.00000E+00
 -1      3844 6.09000E+01 3.05150E+01 0.00000E+00
 -1      3845 5.86500E+01 2.92160E+01 0.00000E+00
 -1      3846 6.24000E+01 3.05150E+01 0.00000E+00
 -1      3847 6.39000E+01 3.05150E+01 0.00000E+00
 -1      3848 6.16500E+01 2.92160E+01 0.00000E+00
 -1      3849 6.54000E+01 3.05150E+01 0.00000E+00
 -1      3850 6.69000E+01 3.05150E+01 0.00000E+00
 -1      3851 6.46500E+01 2.92160E+01 0.00000E+00
 -1      3852 6.84000E+01 3.05150E+01 0.00000E+00
 -1      3853 6.99000E+01 3.05150E+01 0.00000E+00
 -1      3854 6.76500E+01 2.92160E+01 0.00000E+00
 -1      3855 7.14000E+01 3.05150E+01 0.00000E+00
 -1      3856 7.29000E+01 3.05150E+01 0.00000E+00
 -1      3857 7.06500E+01 2.92160E+01 0.00000E+00
 -1      3858 7.44000E+01 3.05150E+01 0.00000E+00
 -1      3859 7.59000E+01 3.05150E+01 0.00000E+00
 -1      3860 7.36500E+01 2.92160E+01 0.00000E+00
 -1      3861 7.74000E+01 3.05150E+01 0.00000E+00
 -1      3862 7.89000E+01 3.05150E+01 0.00000E+00
 -1      3863 7.66500E+01 2.92160E+01 0.00000E+00
 -1      3864 8.04000E+01 3.05150E+01 0.00000E+00
 -1      3865 8.19000E+01 3.05150E+01 0.00000E+00
 -1      3866 7.96500E+01 2.92160E+01 0.00000E+00
 -1      3867 8.34000E+01 3.05150E+01 0.00000E+00
 -1      3868 8.49000E+01 3.05150E+01 0.00000E+00
 -1      3869 8.26500E+01 2.92160E+01 0.00000E+00
 -1      3870 8.64000E+01 3.05150E+01 0.00000E+00
 -1      3871 8.79000E+01 3.05150E+01 0.00000E+00
 -1      3872 8.56500E+01 2.92160E+01 0.00000E+00
 -1      3873 8.94000E+01 3.05150E+01 0.00000E+00
 -1      3874 9.09000E+01 3.05150E+01 0.00000E+00
 -1      3875 8.86500E+01 2.92160E+01 0.00000E+00
 -1      3876 9.24000E+01 3.05150E+01 0.00000E+00
 -1      3877 9.39000E+01 3.05150E+01 0.00000E+00
 -1      3878 9.16500E+01 2.92160E+01 0.00000E+00
 -1      3879 9.54000E+01 3.05150E+01 0.00000E+00
 -1      3880 9.69000E+01 3.05150E+01 0.00000E+00
 -1      3881 9.46500E+01 2.92160E+01 0.00000E+00
 -1      3882 9.84000E+01 3.05150E+01 0.00000E+00
 -1      3883 9.99000E+01 3.05150E+01 0.00000E+00
 -1      3884 9.76500E+01 2.92160E+01 0.00000E+00
 -1      3885 1.01400E+02 3.05150E+01 0.00000E+00
 -1      3886 1.02900E+02 3.05150E+01 0.00000E+00
 -1      3887 1.00650E+02 2.92160E+01 0.00000E+00
 -1      3888 1.04400E+02 3.05150E+01 0.00000E+00
 -1      3889 1.05900E+02 3.05150E+01 0.00000E+00
 -1      3890 1.03650E+02 2.92160E+01 0.00000E+00
 -1      3891 1.07400E+02 3.05150E+01 0.00000E+00
 -1      3892 1.08900E+02 3.05150E+01 0.00000E+00
 -1      3893 1.06650E+02 2.92160E+01 0.00000E+00
 -1      3894 1.10400E+02 3.05150E+01 0.00000E+00
 -1      3895 1.11900E+02 3.05150E+01 0.00000E+00
 -1      3896 1.09650E+02 2.92160E+01 0.00000E+00
 -1      3897 1.14148E+02 2.96242E+01 0.00000E+00
 -1      3898 1.15648E+02 2.96242E+01 0.00000E+00
 -1      3899 1.17169E+02 3.07930E+01 0.00000E+00
 -1      3900 3.34350E+01 1.82952E+01 0.00000E+00
 -1      3901 3.19350E+01 1.82952E+01 0.00000E+00
 -1      3902 4.85475E+01 1.82952E+01 0.00000E+00
 -1      3903 4.69725E+01 1.82952E+01 0.00000E+00
 -1      3904 6.05850E+01 1.82952E+01 0.00000E+00
 -1      3905 5.90850E+01 1.82952E+01 0.00000E+00
 -1      3906 5.75850E+01 1.82952E+01 0.00000E+00
 -1      3907 5.60850E+01 1.82952E+01 0.00000E+00
 -1      3908 5.83350E+01 1.95942E+01 0.00000E+00
 -1      3909 6.65850E+01 1.82952E+01 0.00000E+00
 -1      3910 6.50850E+01 1.82952E+01 0.00000E+00
 -1      3911 6.95850E+01 1.82952E+01 0.00000E+00
 -1      3912 6.80850E+01 1.82952E+01 0.00000E+00
 -1      3913 6.73350E+01 1.95942E+01 0.00000E+00
 -1      3914 7.27350E+01 1.82952E+01 0.00000E+00
 -1      3915 7.11600E+01 1.82952E+01 0.00000E+00
 -1      3916 7.04100E+01 1.95942E+01 0.00000E+00
 -1      3917 7.57350E+01 1.82952E+01 0.00000E+00
 -1      3918 7.42350E+01 1.82952E+01 0.00000E+00
 -1      3919 7.34850E+01 1.95942E+01 0.00000E+00
 -1      3920 7.87350E+01 1.82952E+01 0.00000E+00
 -1      3921 7.72350E+01 1.82952E+01 0.00000E+00
 -1      3922 7.64850E+01 1.95942E+01 0.00000E+00
 -1      3923 8.17350E+01 1.82952E+01 0.00000E+00
 -1      3924 8.02350E+01 1.82952E+01 0.00000E+00
 -1      3925 7.94850E+01 1.95942E+01 0.00000E+00
 -1      3926 8.47350E+01 1.82952E+01 0.00000E+00
 -1      3927 8.32350E+01 1.82952E+01 0.00000E+00
 -1      3928 8.24850E+01 1.95942E+01 0.00000E+00
 -1      3929 8.77350E+01 1.82952E+01 0.00000E+00
 -1      3930 8.62350E+01 1.82952E+01 0.00000E+00
 -1      3931 8.54850E+01 1.95942E+01 0.00000E+00
 -1      3932 9.07350E+01 1.82952E+01 0.00000E+00
 -1      3933 8.92350E+01 1.82952E+01 0.00000E+00
 -1      3934 8.84850E+01 1.95942E+01 0.00000E+00
 -1      3935 9.37350E+01 1.82952E+01 0.00000E+00
 -1      3936 9.22350E+01 1.82952E+01 0.00000E+00
 -1      3937 9.14850E+01 1.95942E+01 0.00000E+00
 -1      3938 9.67350E+01 1.82952E+01 0.00000E+00
 -1      3939 9.52350E+01 1.82952E+01 0.00000E+00
 -1      3940 9.44850E+01 1.95942E+01 0.00000E+00
 -1      3941 9.98850E+01 1.82952E+01 0.00000E+00
 -1      3942 9.83100E+01 1.82952E+01 0.00000E+00
 -1      3943 9.75600E+01 1.95942E+01 0.00000E+00
 -1      3944 1.02885E+02 1.82952E+01 0.00000E+00
 -1      3945 1.01385E+02 1.82952E+01 0.00000E+00
 -1      3946 1.00635E+02 1.95942E+01 0.00000E+00
 -1      3947 1.05885E+02 1.82952E+01 0.00000E+00
 -1      3948 1.04385E+02 1.82952E+01 0.00000E+00
 -1      3949 1.03635E+02 1.95942E+01 0.00000E+00
 -1      3950 1.08885E+02 1.82952E+01 0.00000E+00
 -1      3951 1.07385E+02 1.82952E+01 0.00000E+00
 -1      3952 1.06635E+02 1.95942E+01 0.00000E+00
 -1      3953 1.11795E+02 1.88803E+01 0.00000E+00
 -1      3954 1.10279E+02 1.85888E+01 0.00000E+00
 -1      3955 1.09529E+02 1.98878E+01 0.00000E+00
 -1      3956 1.12318E+02 2.04748E+01 0.00000E+00
 -1      3957 1.73280E+01 1.73165E+01 0.00000E+00
 -1      3958 1.86270E+01 1.80524E+01 0.00000E+00
 -1      3959 2.43225E+01 1.82952E+01 0.00000E+00
 -1      3960 2.28225E+01 1.82952E+01 0.00000E+00
 -1      3961 2.14759E+01 1.81678E+01 0.00000E+00
 -1      3962 1.99736E+01 1.81799E+01 0.00000E+00
 -1      3963 1.95326E+01 1.92118E+01 0.00000E+00
 -1      3964 2.22259E+01 1.94668E+01 0.00000E+00
 -1      3965 1.34511E+02 3.12830E+01 0.00000E+00
 -1      3966 6.35850E+01 1.82952E+01 0.00000E+00
 -1      3967 6.20850E+01 1.82952E+01 0.00000E+00
 -1      3968 6.43350E+01 1.95942E+01 0.00000E+00
 -1      3969 2.04000E+01 3.05150E+01 0.00000E+00
 -1      3970 2.19000E+01 3.05150E+01 0.00000E+00
 -1      3971 2.26500E+01 2.92160E+01 0.00000E+00
 -1      3972 1.73280E+01 1.58446E+01 0.00000E+00
 -1      3973 1.68870E+01 2.42422E+01 0.00000E+00
 -1      3974 1.68870E+01 2.57141E+01 0.00000E+00
 -1      3975 1.81860E+01 2.35063E+01 0.00000E+00
 -1      3976 1.13743E+02 2.42703E+01 0.00000E+00
 -1      3977 1.12921E+02 2.22638E+01 0.00000E+00
 -1      3978 3.04163E+01 1.82952E+01 0.00000E+00
 -1      3979 2.88975E+01 1.82952E+01 0.00000E+00
 -1      3980 3.11663E+01 1.95942E+01 0.00000E+00
 -1      3981 3.64350E+01 1.82952E+01 0.00000E+00
 -1      3982 3.49350E+01 1.82952E+01 0.00000E+00
 -1      3983 3.41850E+01 1.95942E+01 0.00000E+00
 -1      3984 2.73787E+01 1.82952E+01 0.00000E+00
 -1      3985 2.58412E+01 1.82952E+01 0.00000E+00
 -1      3986 2.50912E+01 1.95942E+01 0.00000E+00
 -1      3987 2.81287E+01 1.95942E+01 0.00000E+00
 -1      3988 1.13398E+02 2.83252E+01 0.00000E+00
 -1      3989 1.11527E+02 2.19702E+01 0.00000E+00
 -1      3990 4.62600E+01 1.95942E+01 0.00000E+00
 -1      3991 4.54725E+01 1.82952E+01 0.00000E+00
 -1      3992 4.39725E+01 1.82952E+01 0.00000E+00
 -1      3993 5.53350E+01 1.95942E+01 0.00000E+00
 -1      3994 5.45850E+01 1.82952E+01 0.00000E+00
 -1      3995 5.30850E+01 1.82952E+01 0.00000E+00
 -1      3996 1.95326E+01 2.06868E+01 0.00000E+00
 -1      3997 3.94350E+01 1.82952E+01 0.00000E+00
 -1      3998 3.79350E+01 1.82952E+01 0.00000E+00
 -1      3999 3.71850E+01 1.95942E+01 0.00000E+00
 -1      4000 1.83600E+01 3.01907E+01 0.00000E+00
 -1      4001 1.93800E+01 3.03528E+01 0.00000E+00
 -1      4002 2.01300E+01 2.90538E+01 0.00000E+00
 -1      4003 1.64573E+01 3.00075E+01 0.00000E+00
 -1      4004 1.74772E+01 3.01697E+01 0.00000E+00
 -1      4005 1.82272E+01 2.88707E+01 0.00000E+00
 -1      4006 1.64618E+01 2.88287E+01 0.00000E+00
 -1      4007 6.13350E+01 1.95942E+01 0.00000E+00
 -1      4008 5.00475E+01 1.82952E+01 0.00000E+00
 -1      4009 4.92600E+01 1.95942E+01 0.00000E+00
 -1      4010 5.15475E+01 1.82952E+01 0.00000E+00
 -1      4011 1.64662E+01 2.76498E+01 0.00000E+00
 -1      4012 1.13643E+02 2.69609E+01 0.00000E+00
 -1      4013 1.13498E+02 2.56345E+01 0.00000E+00
 -1      4014 1.11885E+02 2.51234E+01 0.00000E+00
 -1      4015 1.11395E+02 2.78518E+01 0.00000E+00
 -1      4016 1.77652E+01 2.69139E+01 0.00000E+00
 -1      4017 2.27768E+01 2.08237E+01 0.00000E+00
 -1      4018 2.14301E+01 2.06963E+01 0.00000E+00
 -1      4019 2.79000E+01 2.79170E+01 0.00000E+00
 -1      4020 2.94000E+01 2.79170E+01 0.00000E+00
 -1      4021 3.09000E+01 2.79170E+01 0.00000E+00
 -1      4022 3.24000E+01 2.79170E+01 0.00000E+00
 -1      4023 3.01500E+01 2.66180E+01 0.00000E+00
 -1      4024 3.39000E+01 2.79170E+01 0.00000E+00
 -1      4025 3.54000E+01 2.79170E+01 0.00000E+00
 -1      4026 3.31500E+01 2.66180E+01 0.00000E+00
 -1      4027 3.69000E+01 2.79170E+01 0.00000E+00
 -1      4028 3.84000E+01 2.79170E+01 0.00000E+00
 -1      4029 3.61500E+01 2.66180E+01 0.00000E+00
 -1      4030 3.99000E+01 2.79170E+01 0.00000E+00
 -1      4031 4.14000E+01 2.79170E+01 0.00000E+00
 -1      4032 3.91500E+01 2.66180E+01 0.00000E+00
 -1      4033 4.29000E+01 2.79170E+01 0.00000E+00
 -1      4034 4.44000E+01 2.79170E+01 0.00000E+00
 -1      4035 4.21500E+01 2.66180E+01 0.00000E+00
 -1      4036 4.59000E+01 2.79170E+01 0.00000E+00
 -1      4037 4.74000E+01 2.79170E+01 0.00000E+00
 -1      4038 4.51500E+01 2.66180E+01 0.00000E+00
 -1      4039 4.89000E+01 2.79170E+01 0.00000E+00
 -1      4040 5.04000E+01 2.79170E+01 0.00000E+00
 -1      4041 4.81500E+01 2.66180E+01 0.00000E+00
 -1      4042 5.19000E+01 2.79170E+01 0.00000E+00
 -1      4043 5.34000E+01 2.79170E+01 0.00000E+00
 -1      4044 5.11500E+01 2.66180E+01 0.00000E+00
 -1      4045 5.49000E+01 2.79170E+01 0.00000E+00
 -1      4046 5.64000E+01 2.79170E+01 0.00000E+00
 -1      4047 5.41500E+01 2.66180E+01 0.00000E+00
 -1      4048 5.79000E+01 2.79170E+01 0.00000E+00
 -1      4049 5.94000E+01 2.79170E+01 0.00000E+00
 -1      4050 5.71500E+01 2.66180E+01 0.00000E+00
 -1      4051 6.09000E+01 2.79170E+01 0.00000E+00
 -1      4052 6.24000E+01 2.79170E+01 0.00000E+00
 -1      4053 6.01500E+01 2.66180E+01 0.00000E+00
 -1      4054 6.39000E+01 2.79170E+01 0.00000E+00
 -1      4055 6.54000E+01 2.79170E+01 0.00000E+00
 -1      4056 6.31500E+01 2.66180E+01 0.00000E+00
 -1      4057 6.69000E+01 2.79170E+01 0.00000E+00
 -1      4058 6.84000E+01 2.79170E+01 0.00000E+00
 -1      4059 6.61500E+01 2.66180E+01 0.00000E+00
 -1      4060 6.99000E+01 2.79170E+01 0.00000E+00
 -1      4061 7.14000E+01 2.79170E+01 0.00000E+00
 -1      4062 6.91500E+01 2.66180E+01 0.00000E+00
 -1      4063 7.29000E+01 2.79170E+01 0.00000E+00
 -1      4064 7.44000E+01 2.79170E+01 0.00000E+00
 -1      4065 7.21500E+01 2.66180E+01 0.00000E+00
 -1      4066 7.59000E+01 2.79170E+01 0.00000E+00
 -1      4067 7.74000E+01 2.79170E+01 0.00000E+00
 -1      4068 7.51500E+01 2.66180E+01 0.00000E+00
 -1      4069 7.89000E+01 2.79170E+01 0.00000E+00
 -1      4070 8.04000E+01 2.79170E+01 0.00000E+00
 -1      4071 7.81500E+01 2.66180E+01 0.00000E+00
 -1      4072 8.19000E+01 2.79170E+01 0.00000E+00
 -1      4073 8.34000E+01 2.79170E+01 0.00000E+00
 -1      4074 8.11500E+01 2.66180E+01 0.00000E+00
 -1      4075 8.49000E+01 2.79170E+01 0.00000E+00
 -1      4076 8.64000E+01 2.79170E+01 0.00000E+00
 -1      4077 8.41500E+01 2.66180E+01 0.00000E+00
 -1      4078 8.79000E+01 2.79170E+01 0.00000E+00
 -1      4079 8.94000E+01 2.79170E+01 0.00000E+00
 -1      4080 8.71500E+01 2.66180E+01 0.00000E+00
 -1      4081 9.09000E+01 2.79170E+01 0.00000E+00
 -1      4082 9.24000E+01 2.79170E+01 0.00000E+00
 -1      4083 9.01500E+01 2.66180E+01 0.00000E+00
 -1      4084 9.39000E+01 2.79170E+01 0.00000E+00
 -1      4085 9.54000E+01 2.79170E+01 0.00000E+00
 -1      4086 9.31500E+01 2.66180E+01 0.00000E+00
 -1      4087 9.69000E+01 2.79170E+01 0.00000E+00
 -1      4088 9.84000E+01 2.79170E+01 0.00000E+00
 -1      4089 9.61500E+01 2.66180E+01 0.00000E+00
 -1      4090 9.99000E+01 2.79170E+01 0.00000E+00
 -1      4091 1.01400E+02 2.79170E+01 0.00000E+00
 -1      4092 9.91500E+01 2.66180E+01 0.00000E+00
 -1      4093 1.02900E+02 2.79170E+01 0.00000E+00
 -1      4094 1.04400E+02 2.79170E+01 0.00000E+00
 -1      4095 1.02150E+02 2.66180E+01 0.00000E+00
 -1      4096 1.05900E+02 2.79170E+01 0.00000E+00
 -1      4097 1.07400E+02 2.79170E+01 0.00000E+00
 -1      4098 1.05150E+02 2.66180E+01 0.00000E+00
 -1      4099 1.08647E+02 2.78844E+01 0.00000E+00
 -1      4100 1.10147E+02 2.78844E+01 0.00000E+00
 -1      4101 1.10392E+02 2.65202E+01 0.00000E+00
 -1      4102 1.07897E+02 2.65854E+01 0.00000E+00
 -1      4103 1.10597E+02 2.32796E+01 0.00000E+00
 -1      4104 1.09994E+02 2.14907E+01 0.00000E+00
 -1      4105 1.17168E+02 2.86032E+01 0.00000E+00
 -1      4106 3.49350E+01 2.08932E+01 0.00000E+00
 -1      4107 3.34350E+01 2.08932E+01 0.00000E+00
 -1      4108 2.19000E+01 2.79170E+01 0.00000E+00
 -1      4109 2.34000E+01 2.79170E+01 0.00000E+00
 -1      4110 7.42350E+01 2.08932E+01 0.00000E+00
 -1      4111 7.27350E+01 2.08932E+01 0.00000E+00
 -1      4112 7.11600E+01 2.08932E+01 0.00000E+00
 -1      4113 6.95850E+01 2.08932E+01 0.00000E+00
 -1      4114 7.19100E+01 2.21922E+01 0.00000E+00
 -1      4115 6.80850E+01 2.08932E+01 0.00000E+00
 -1      4116 6.65850E+01 2.08932E+01 0.00000E+00
 -1      4117 6.88350E+01 2.21922E+01 0.00000E+00
 -1      4118 7.72350E+01 2.08932E+01 0.00000E+00
 -1      4119 7.57350E+01 2.08932E+01 0.00000E+00
 -1      4120 7.49850E+01 2.21922E+01 0.00000E+00
 -1      4121 8.02350E+01 2.08932E+01 0.00000E+00
 -1      4122 7.87350E+01 2.08932E+01 0.00000E+00
 -1      4123 7.79850E+01 2.21922E+01 0.00000E+00
 -1      4124 8.32350E+01 2.08932E+01 0.00000E+00
 -1      4125 8.17350E+01 2.08932E+01 0.00000E+00
 -1      4126 8.09850E+01 2.21922E+01 0.00000E+00
 -1      4127 8.62350E+01 2.08932E+01 0.00000E+00
 -1      4128 8.47350E+01 2.08932E+01 0.00000E+00
 -1      4129 8.39850E+01 2.21922E+01 0.00000E+00
 -1      4130 8.92350E+01 2.08932E+01 0.00000E+00
 -1      4131 8.77350E+01 2.08932E+01 0.00000E+00
 -1      4132 8.69850E+01 2.21922E+01 0.00000E+00
 -1      4133 9.22350E+01 2.08932E+01 0.00000E+00
 -1      4134 9.07350E+01 2.08932E+01 0.00000E+00
 -1      4135 8.99850E+01 2.21922E+01 0.00000E+00
 -1      4136 9.52350E+01 2.08932E+01 0.00000E+00
 -1      4137 9.37350E+01 2.08932E+01 0.00000E+00
 -1      4138 9.29850E+01 2.21922E+01 0.00000E+00
 -1      4139 9.83850E+01 2.08932E+01 0.00000E+00
 -1      4140 9.68100E+01 2.08932E+01 0.00000E+00
 -1      4141 9.60600E+01 2.21922E+01 0.00000E+00
 -1      4142 1.01385E+02 2.08932E+01 0.00000E+00
 -1      4143 9.98850E+01 2.08932E+01 0.00000E+00
 -1      4144 9.91350E+01 2.21922E+01 0.00000E+00
 -1      4145 1.04385E+02 2.08932E+01 0.00000E+00
 -1      4146 1.02885E+02 2.08932E+01 0.00000E+00
 -1      4147 1.02135E+02 2.21922E+01 0.00000E+00
 -1      4148 1.08600E+02 2.11972E+01 0.00000E+00
 -1      4149 1.94850E+01 2.27703E+01 0.00000E+00
 -1      4150 1.94850E+01 2.42422E+01 0.00000E+00
 -1      4151 4.24350E+01 1.82952E+01 0.00000E+00
 -1      4152 4.09350E+01 1.82952E+01 0.00000E+00
 -1      4153 4.01850E+01 1.95942E+01 0.00000E+00
 -1      4154 5.90850E+01 2.08932E+01 0.00000E+00
 -1      4155 5.75850E+01 2.08932E+01 0.00000E+00
 -1      4156 6.50850E+01 2.08932E+01 0.00000E+00
 -1      4157 6.35850E+01 2.08932E+01 0.00000E+00
 -1      4158 6.58350E+01 2.21922E+01 0.00000E+00
 -1      4159 2.49000E+01 2.79170E+01 0.00000E+00
 -1      4160 2.64000E+01 2.79170E+01 0.00000E+00
 -1      4161 2.41500E+01 2.66180E+01 0.00000E+00
 -1      4162 3.19163E+01 2.08932E+01 0.00000E+00
 -1      4163 3.03975E+01 2.08932E+01 0.00000E+00
 -1      4164 3.26662E+01 2.21922E+01 0.00000E+00
 -1      4165 6.20850E+01 2.08932E+01 0.00000E+00
 -1      4166 6.05850E+01 2.08932E+01 0.00000E+00
 -1      4167 6.28350E+01 2.21922E+01 0.00000E+00
 -1      4168 2.07748E+01 2.50044E+01 0.00000E+00
 -1      4169 1.94758E+01 2.57404E+01 0.00000E+00
 -1      4170 2.09578E+01 2.78593E+01 0.00000E+00
 -1      4171 2.17078E+01 2.65603E+01 0.00000E+00
 -1      4172 3.64350E+01 2.08932E+01 0.00000E+00
 -1      4173 3.56850E+01 2.21922E+01 0.00000E+00
 -1      4174 3.79350E+01 2.08932E+01 0.00000E+00
 -1      4175 2.58143E+01 2.08237E+01 0.00000E+00
 -1      4176 2.42955E+01 2.08237E+01 0.00000E+00
 -1      4177 2.34998E+01 2.20532E+01 0.00000E+00
 -1      4178 4.70100E+01 2.08932E+01 0.00000E+00
 -1      4179 4.55100E+01 2.08932E+01 0.00000E+00
 -1      4180 5.60850E+01 2.08932E+01 0.00000E+00
 -1      4181 5.45850E+01 2.08932E+01 0.00000E+00
 -1      4182 5.68350E+01 2.21922E+01 0.00000E+00
 -1      4183 2.96287E+01 2.21922E+01 0.00000E+00
 -1      4184 2.88787E+01 2.08932E+01 0.00000E+00
 -1      4185 2.73600E+01 2.08932E+01 0.00000E+00
 -1      4186 2.71500E+01 2.66180E+01 0.00000E+00
 -1      4187 1.99378E+01 2.76972E+01 0.00000E+00
 -1      4188 4.32225E+01 1.95942E+01 0.00000E+00
 -1      4189 1.07385E+02 2.08932E+01 0.00000E+00
 -1      4190 1.05885E+02 2.08932E+01 0.00000E+00
 -1      4191 1.05135E+02 2.21922E+01 0.00000E+00
 -1      4192 5.22975E+01 1.95942E+01 0.00000E+00
 -1      4193 5.98350E+01 2.21922E+01 0.00000E+00
 -1      4194 1.10372E+02 2.55820E+01 0.00000E+00
 -1      4195 1.10617E+02 2.42178E+01 0.00000E+00
 -1      4196 1.09085E+02 2.37382E+01 0.00000E+00
 -1      4197 1.09125E+02 2.56146E+01 0.00000E+00
 -1      4198 2.00835E+01 2.20438E+01 0.00000E+00
 -1      4199 1.90551E+01 2.76762E+01 0.00000E+00
 -1      4200 5.00100E+01 2.08932E+01 0.00000E+00
 -1      4201 4.85100E+01 2.08932E+01 0.00000E+00
 -1      4202 4.77600E+01 2.21922E+01 0.00000E+00
 -1      4203 1.07850E+02 2.24962E+01 0.00000E+00
 -1      4204 2.13825E+01 2.27797E+01 0.00000E+00
 -1      4205 3.29175E+01 2.44051E+01 0.00000E+00
 -1      4206 3.44175E+01 2.44051E+01 0.00000E+00
 -1      4207 3.59175E+01 2.44051E+01 0.00000E+00
 -1      4208 3.74175E+01 2.44051E+01 0.00000E+00
 -1      4209 4.14000E+01 2.53190E+01 0.00000E+00
 -1      4210 4.29000E+01 2.53190E+01 0.00000E+00
 -1      4211 4.49550E+01 2.44051E+01 0.00000E+00
 -1      4212 4.64550E+01 2.44051E+01 0.00000E+00
 -1      4213 4.79550E+01 2.44051E+01 0.00000E+00
 -1      4214 4.94550E+01 2.44051E+01 0.00000E+00
 -1      4215 5.34000E+01 2.53190E+01 0.00000E+00
 -1      4216 5.49000E+01 2.53190E+01 0.00000E+00
 -1      4217 5.69925E+01 2.44051E+01 0.00000E+00
 -1      4218 5.84925E+01 2.44051E+01 0.00000E+00
 -1      4219 5.99925E+01 2.44051E+01 0.00000E+00
 -1      4220 6.14925E+01 2.44051E+01 0.00000E+00
 -1      4221 6.29925E+01 2.44051E+01 0.00000E+00
 -1      4222 6.44925E+01 2.44051E+01 0.00000E+00
 -1      4223 6.59925E+01 2.44051E+01 0.00000E+00
 -1      4224 6.74925E+01 2.44051E+01 0.00000E+00
 -1      4225 6.89925E+01 2.44051E+01 0.00000E+00
 -1      4226 7.04925E+01 2.44051E+01 0.00000E+00
 -1      4227 7.20675E+01 2.44051E+01 0.00000E+00
 -1      4228 7.35675E+01 2.44051E+01 0.00000E+00
 -1      4229 7.50675E+01 2.44051E+01 0.00000E+00
 -1      4230 7.65675E+01 2.44051E+01 0.00000E+00
 -1      4231 7.80675E+01 2.44051E+01 0.00000E+00
 -1      4232 7.95675E+01 2.44051E+01 0.00000E+00
 -1      4233 8.10675E+01 2.44051E+01 0.00000E+00
 -1      4234 8.25675E+01 2.44051E+01 0.00000E+00
 -1      4235 8.40675E+01 2.44051E+01 0.00000E+00
 -1      4236 8.55675E+01 2.44051E+01 0.00000E+00
 -1      4237 8.70675E+01 2.44051E+01 0.00000E+00
 -1      4238 8.85675E+01 2.44051E+01 0.00000E+00
 -1      4239 9.00675E+01 2.44051E+01 0.00000E+00
 -1      4240 9.15675E+01 2.44051E+01 0.00000E+00
 -1      4241 9.30675E+01 2.44051E+01 0.00000E+00
 -1      4242 9.45675E+01 2.44051E+01 0.00000E+00
 -1      4243 9.61425E+01 2.44051E+01 0.00000E+00
 -1      4244 9.76425E+01 2.44051E+01 0.00000E+00
 -1      4245 9.91425E+01 2.44051E+01 0.00000E+00
 -1      4246 1.00643E+02 2.44051E+01 0.00000E+00
 -1      4247 1.02143E+02 2.44051E+01 0.00000E+00
 -1      4248 1.03643E+02 2.44051E+01 0.00000E+00
 -1      4249 1.05143E+02 2.44051E+01 0.00000E+00
 -1      4250 1.06643E+02 2.44051E+01 0.00000E+00
 -1      4251 1.07857E+02 2.47090E+01 0.00000E+00
 -1      4252 2.24366E+01 2.31656E+01 0.00000E+00
 -1      4253 2.18380E+01 2.38921E+01 0.00000E+00
 -1      4254 2.18289E+01 2.53903E+01 0.00000E+00
 -1      4255 2.39553E+01 2.31656E+01 0.00000E+00
 -1      4256 5.30662E+01 2.08932E+01 0.00000E+00
 -1      4257 5.15288E+01 2.08932E+01 0.00000E+00
 -1      4258 5.07788E+01 2.21922E+01 0.00000E+00
 -1      4259 5.38162E+01 2.21922E+01 0.00000E+00
 -1      4260 4.09350E+01 2.08932E+01 0.00000E+00
 -1      4261 3.94350E+01 2.08932E+01 0.00000E+00
 -1      4262 3.86850E+01 2.21922E+01 0.00000E+00
 -1      4263 3.13988E+01 2.44051E+01 0.00000E+00
 -1      4264 4.42050E+01 2.31061E+01 0.00000E+00
 -1      4265 2.98988E+01 2.44051E+01 0.00000E+00
 -1      4266 4.34550E+01 2.18071E+01 0.00000E+00
 -1      4267 4.19175E+01 2.18071E+01 0.00000E+00
 -1      4268 2.68800E+01 2.44051E+01 0.00000E+00
 -1      4269 2.83800E+01 2.44051E+01 0.00000E+00
 -1      4270 2.27710E+01 2.54480E+01 0.00000E+00
 -1      4271 5.62425E+01 2.31061E+01 0.00000E+00
 -1      4272 3.89175E+01 2.44051E+01 0.00000E+00
 -1      4273 4.04175E+01 2.44051E+01 0.00000E+00
 -1      4274 5.09738E+01 2.44051E+01 0.00000E+00
 -1      4275 5.24738E+01 2.44051E+01 0.00000E+00
 -1      4276 2.65643E+01 2.21227E+01 0.00000E+00
 -1      4277 2.42710E+01 2.54480E+01 0.00000E+00
 -1      4278 2.53343E+01 2.43356E+01 0.00000E+00
 -1      4279 4.11675E+01 2.31061E+01 0.00000E+00
 -1      4280 1.07877E+02 2.56472E+01 0.00000E+00
 -1      4281 5.32238E+01 2.31061E+01 0.00000E+00
 -1      4282 5.47425E+01 2.31061E+01 0.00000E+00
 -3
    3C                          2058                                     1
 -1       167    8    0    1
 -2         6         7        23      1113      1279      1130
 -1       168    8    0    1
 -2         7         8       167      1114      1280      1281
 -1       169    8    0    1
 -2         8         9       168      1115      1282      1283
 -1       170    8    0    1
 -2         8       168       167      1283      1284      1280
 -1       171    8    0    1
 -2         9        10       169      1116      1285      1286
 -1       172    8    0    1
 -2         9       169       168      1286      1287      1282
 -1       173    8    0    1
 -2        10        11       170      1117      1288      1289
 -1       174    8    0    1
 -2        10       170       169      1289      1290      1285
 -1       175    8    0    1
 -2        11        12       171      1118      1291      1292
 -1       176    8    0    1
 -2        11       171       170      1292      1293      1288
 -1       177    8    0    1
 -2        12        13       172      1119      1294      1295
 -1       178    8    0    1
 -2        12       172       171      1295      1296      1291
 -1       179    8    0    1
 -2        13        14       173      1120      1297      1298
 -1       180    8    0    1
 -2        13       173       172      1298      1299      1294
 -1       181    8    0    1
 -2        14        15       174      1121      1300      1301
 -1       182    8    0    1
 -2        14       174       173      1301      1302      1297
 -1       183    8    0    1
 -2        15        16       175      1122      1303      1304
 -1       184    8    0    1
 -2        15       175       174      1304      1305      1300
 -1       185    8    0    1
 -2        16        17       176      1123      1306      1307
 -1       186    8    0    1
 -2        16       176       175      1307      1308      1303
 -1       187    8    0    1
 -2        17        18       177      1124      1309      1310
 -1       188    8    0    1
 -2        17       177       176      1310      1311      1306
 -1       189    8    0    1
 -2        18        19       178      1125      1312      1313
 -1       190    8    0    1
 -2        18       178       177      1313      1314      1309
 -1       191    8    0    1
 -2        19        20       179      1126      1315      1316
 -1       192    8    0    1
 -2        19       179       178      1316      1317      1312
 -1       193    8    0    1
 -2        20        21       180      1127      1318      1319
 -1       194    8    0    1
 -2        20       180       179      1319      1320      1315
 -1       195    8    0    1
 -2        21        22       181      1128      1321      1322
 -1       196    8    0    1
 -2        21       181       180      1322      1323      1318
 -1       197    8    0    1
 -2        22         5       182      1129      1324      1325
 -1       198    8    0    1
 -2       181        22       182      1321      1325      1326
 -1       199    8    0    1
 -2         5        72       182      1180      1327      1324
 -1       200    8    0    1
 -2        24        23       183      1131      1328      1329
 -1       201    8    0    1
 -2        25        24       184      1132      1330      1331
 -1       202    8    0    1
 -2        24       183       184      1329      1332      1330
 -1       203    8    0    1
 -2        26        25       185      1133      1333      1334
 -1       204    8    0    1
 -2        25       184       185      1331      1335      1333
 -1       205    8    0    1
 -2        27        26       186      1134      1336      1337
 -1       206    8    0    1
 -2        26       185       186      1334      1338      1336
 -1       207    8    0    1
 -2        28        27       187      1135      1339      1340
 -1       208    8    0    1
 -2        27       186       187      1337      1341      1339
 -1       209    8    0    1
 -2        29        28       188      1136      1342      1343
 -1       210    8    0    1
 -2        28       187       188      1340      1344      1342
 -1       211    8    0    1
 -2        30        29       189      1137      1345      1346
 -1       212    8    0    1
 -2        29       188       189      1343      1347      1345
 -1       213    8    0    1
 -2        31        30       190      1138      1348      1349
 -1       214    8    0    1
 -2        30       189       190      1346      1350      1348
 -1       215    8    0    1
 -2        32        31       191      1139      1351      1352
 -1       216    8    0    1
 -2        31       190       191      1349      1353      1351
 -1       217    8    0    1
 -2        33        32       192      1140      1354      1355
 -1       218    8    0    1
 -2        32       191       192      1352      1356      1354
 -1       219    8    0    1
 -2        34        33       193      1141      1357      1358
 -1       220    8    0    1
 -2        33       192       193      1355      1359      1357
 -1       221    8    0    1
 -2        35        34       194      1142      1360      1361
 -1       222    8    0    1
 -2        34       193       194      1358      1362      1360
 -1       223    8    0    1
 -2        36        35       195      1143      1363      1364
 -1       224    8    0    1
 -2        35       194       195      1361      1365      1363
 -1       225    8    0    1
 -2        37        36       196      1144      1366      1367
 -1       226    8    0    1
 -2        36       195       196      1364      1368      1366
 -1       227    8    0    1
 -2        38        37       197      1145      1369      1370
 -1       228    8    0    1
 -2        37       196       197      1367      1371      1369
 -1       229    8    0    1
 -2        39        38       198      1146      1372      1373
 -1       230    8    0    1
 -2        38       197       198      1370      1374      1372
 -1       231    8    0    1
 -2        40        39       199      1147      1375      1376
 -1       232    8    0    1
 -2        39       198       199      1373      1377      1375
 -1       233    8    0    1
 -2        41        40       200      1148      1378      1379
 -1       234    8    0    1
 -2        40       199       200      1376      1380      1378
 -1       235    8    0    1
 -2        42        41       201      1149      1381      1382
 -1       236    8    0    1
 -2        41       200       201      1379      1383      1381
 -1       237    8    0    1
 -2        43        42       202      1150      1384      1385
 -1       238    8    0    1
 -2        42       201       202      1382      1386      1384
 -1       239    8    0    1
 -2        44        43       203      1151      1387      1388
 -1       240    8    0    1
 -2        43       202       203      1385      1389      1387
 -1       241    8    0    1
 -2        45        44       204      1152      1390      1391
 -1       242    8    0    1
 -2        44       203       204      1388      1392      1390
 -1       243    8    0    1
 -2        46        45       205      1153      1393      1394
 -1       244    8    0    1
 -2        45       204       205      1391      1395      1393
 -1       245    8    0    1
 -2        47        46       206      1154      1396      1397
 -1       246    8    0    1
 -2        46       205       206      1394      1398      1396
 -1       247    8    0    1
 -2        48        47       207      1155      1399      1400
 -1       248    8    0    1
 -2        47       206       207      1397      1401      1399
 -1       249    8    0    1
 -2        49        48       208      1156      1402      1403
 -1       250    8    0    1
 -2        48       207       208      1400      1404      1402
 -1       251    8    0    1
 -2        50        49       209      1157      1405      1406
 -1       252    8    0    1
 -2        49       208       209      1403      1407      1405
 -1       253    8    0    1
 -2        51        50       210      1158      1408      1409
 -1       254    8    0    1
 -2        50       209       210      1406      1410      1408
 -1       255    8    0    1
 -2        52        51       211      1159      1411      1412
 -1       256    8    0    1
 -2        51       210       211      1409      1413      1411
 -1       257    8    0    1
 -2        53        52       212      1160      1414      1415
 -1       258    8    0    1
 -2        52       211       212      1412      1416      1414
 -1       259    8    0    1
 -2        54        53       213      1161      1417      1418
 -1       260    8    0    1
 -2        53       212       213      1415      1419      1417
 -1       261    8    0    1
 -2        55        54       214      1162      1420      1421
 -1       262    8    0    1
 -2        54       213       214      1418      1422      1420
 -1       263    8    0    1
 -2        56        55       215      1163      1423      1424
 -1       264    8    0    1
 -2        55       214       215      1421      1425      1423
 -1       265    8    0    1
 -2        57        56       216      1164      1426      1427
 -1       266    8    0    1
 -2        56       215       216      1424      1428      1426
 -1       267    8    0    1
 -2        58        57       217      1165      1429      1430
 -1       268    8    0    1
 -2        57       216       217      1427      1431      1429
 -1       269    8    0    1
 -2        59        58       218      1166      1432      1433
 -1       270    8    0    1
 -2        58       217       218      1430      1434      1432
 -1       271    8    0    1
 -2        60        59       219      1167      1435      1436
 -1       272    8    0    1
 -2        59       218       219      1433      1437      1435
 -1       273    8    0    1
 -2        61        60       220      1168      1438      1439
 -1       274    8    0    1
 -2        60       219       220      1436      1440      1438
 -1       275    8    0    1
 -2        62        61       221      1169      1441      1442
 -1       276    8    0    1
 -2        61       220       221      1439      1443      1441
 -1       277    8    0    1
 -2        63        62       222      1170      1444      1445
 -1       278    8    0    1
 -2        62       221       222      1442      1446      1444
 -1       279    8    0    1
 -2        64        63       223      1171      1447      1448
 -1       280    8    0    1
 -2        63       222       223      1445      1449      1447
 -1       281    8    0    1
 -2        65        64       224      1172      1450      1451
 -1       282    8    0    1
 -2        64       223       224      1448      1452      1450
 -1       283    8    0    1
 -2        66        65       225      1173      1453      1454
 -1       284    8    0    1
 -2        65       224       225      1451      1455      1453
 -1       285    8    0    1
 -2        67        66       226      1174      1456      1457
 -1       286    8    0    1
 -2        66       225       226      1454      1458      1456
 -1       287    8    0    1
 -2        68        67       227      1175      1459      1460
 -1       288    8    0    1
 -2        67       226       227      1457      1461      1459
 -1       289    8    0    1
 -2        69        68       228      1176      1462      1463
 -1       290    8    0    1
 -2        68       227       228      1460      1464      1462
 -1       291    8    0    1
 -2        70        69       229      1177      1465      1466
 -1       292    8    0    1
 -2        69       228       229      1463      1467      1465
 -1       293    8    0    1
 -2        71        70       230      1178      1468      1469
 -1       294    8    0    1
 -2        70       229       230      1466      1470      1468
 -1       295    8    0    1
 -2         4        71       137      1179      1471      1247
 -1       296    8    0    1
 -2       137        71       230      1471      1469      1472
 -1       297    8    0    1
 -2        72        73       231      1181      1473      1474
 -1       298    8    0    1
 -2        72       231       182      1474      1475      1327
 -1       299    8    0    1
 -2        73        74       232      1182      1476      1477
 -1       300    8    0    1
 -2        73       232       231      1477      1478      1473
 -1       301    8    0    1
 -2        74        75       233      1183      1479      1480
 -1       302    8    0    1
 -2        74       233       232      1480      1481      1476
 -1       303    8    0    1
 -2        75        76       234      1184      1482      1483
 -1       304    8    0    1
 -2        75       234       233      1483      1484      1479
 -1       305    8    0    1
 -2        76        77       235      1185      1485      1486
 -1       306    8    0    1
 -2        76       235       234      1486      1487      1482
 -1       307    8    0    1
 -2        77        78       236      1186      1488      1489
 -1       308    8    0    1
 -2        77       236       235      1489      1490      1485
 -1       309    8    0    1
 -2        78        79       237      1187      1491      1492
 -1       310    8    0    1
 -2        78       237       236      1492      1493      1488
 -1       311    8    0    1
 -2        79        80       238      1188      1494      1495
 -1       312    8    0    1
 -2        79       238       237      1495      1496      1491
 -1       313    8    0    1
 -2        80        81       239      1189      1497      1498
 -1       314    8    0    1
 -2        80       239       238      1498      1499      1494
 -1       315    8    0    1
 -2        81        82       240      1190      1500      1501
 -1       316    8    0    1
 -2        81       240       239      1501      1502      1497
 -1       317    8    0    1
 -2        82        83       241      1191      1503      1504
 -1       318    8    0    1
 -2        82       241       240      1504      1505      1500
 -1       319    8    0    1
 -2        83        84       242      1192      1506      1507
 -1       320    8    0    1
 -2        83       242       241      1507      1508      1503
 -1       321    8    0    1
 -2        84        85       243      1193      1509      1510
 -1       322    8    0    1
 -2        84       243       242      1510      1511      1506
 -1       323    8    0    1
 -2        85        86       244      1194      1512      1513
 -1       324    8    0    1
 -2        85       244       243      1513      1514      1509
 -1       325    8    0    1
 -2        86        87       245      1195      1515      1516
 -1       326    8    0    1
 -2        86       245       244      1516      1517      1512
 -1       327    8    0    1
 -2        87        88       246      1196      1518      1519
 -1       328    8    0    1
 -2        87       246       245      1519      1520      1515
 -1       329    8    0    1
 -2        88        89       247      1197      1521      1522
 -1       330    8    0    1
 -2        88       247       246      1522      1523      1518
 -1       331    8    0    1
 -2        89        90       248      1198      1524      1525
 -1       332    8    0    1
 -2        89       248       247      1525      1526      1521
 -1       333    8    0    1
 -2        90        91       249      1199      1527      1528
 -1       334    8    0    1
 -2        90       249       248      1528      1529      1524
 -1       335    8    0    1
 -2        91        92       250      1200      1530      1531
 -1       336    8    0    1
 -2        91       250       249      1531      1532      1527
 -1       337    8    0    1
 -2        92        93       251      1201      1533      1534
 -1       338    8    0    1
 -2        92       251       250      1534      1535      1530
 -1       339    8    0    1
 -2        93        94       252      1202      1536      1537
 -1       340    8    0    1
 -2        93       252       251      1537      1538      1533
 -1       341    8    0    1
 -2        94        95       253      1203      1539      1540
 -1       342    8    0    1
 -2        94       253       252      1540      1541      1536
 -1       343    8    0    1
 -2        95        96       254      1204      1542      1543
 -1       344    8    0    1
 -2        95       254       253      1543      1544      1539
 -1       345    8    0    1
 -2        96        97       255      1205      1545      1546
 -1       346    8    0    1
 -2        96       255       254      1546      1547      1542
 -1       347    8    0    1
 -2        97        98       256      1206      1548      1549
 -1       348    8    0    1
 -2        97       256       255      1549      1550      1545
 -1       349    8    0    1
 -2        98        99       257      1207      1551      1552
 -1       350    8    0    1
 -2        98       257       256      1552      1553      1548
 -1       351    8    0    1
 -2        99       100       258      1208      1554      1555
 -1       352    8    0    1
 -2        99       258       257      1555      1556      1551
 -1       353    8    0    1
 -2       100       101       259      1209      1557      1558
 -1       354    8    0    1
 -2       100       259       258      1558      1559      1554
 -1       355    8    0    1
 -2       101       102       260      1210      1560      1561
 -1       356    8    0    1
 -2       101       260       259      1561      1562      1557
 -1       357    8    0    1
 -2       102       103       261      1211      1563      1564
 -1       358    8    0    1
 -2       102       261       260      1564      1565      1560
 -1       359    8    0    1
 -2       103       104       262      1212      1566      1567
 -1       360    8    0    1
 -2       103       262       261      1567      1568      1563
 -1       361    8    0    1
 -2       104       105       263      1213      1569      1570
 -1       362    8    0    1
 -2       104       263       262      1570      1571      1566
 -1       363    8    0    1
 -2       105       106       264      1214      1572      1573
 -1       364    8    0    1
 -2       105       264       263      1573      1574      1569
 -1       365    8    0    1
 -2       106       107       265      1215      1575      1576
 -1       366    8    0    1
 -2       106       265       264      1576      1577      1572
 -1       367    8    0    1
 -2       107       108       266      1216      1578      1579
 -1       368    8    0    1
 -2       107       266       265      1579      1580      1575
 -1       369    8    0    1
 -2       108       109       267      1217      1581      1582
 -1       370    8    0    1
 -2       108       267       266      1582      1583      1578
 -1       371    8    0    1
 -2       109       110       268      1218      1584      1585
 -1       372    8    0    1
 -2       109       268       267      1585      1586      1581
 -1       373    8    0    1
 -2       110       111       269      1219      1587      1588
 -1       374    8    0    1
 -2       110       269       268      1588      1589      1584
 -1       375    8    0    1
 -2       111       112       270      1220      1590      1591
 -1       376    8    0    1
 -2       111       270       269      1591      1592      1587
 -1       377    8    0    1
 -2       112       113       271      1221      1593      1594
 -1       378    8    0    1
 -2       112       271       270      1594      1595      1590
 -1       379    8    0    1
 -2       113       114       272      1222      1596      1597
 -1       380    8    0    1
 -2       113       272       271      1597      1598      1593
 -1       381    8    0    1
 -2       114       115       273      1223      1599      1600
 -1       382    8    0    1
 -2       114       273       272      1600      1601      1596
 -1       383    8    0    1
 -2       115       116       274      1224      1602      1603
 -1       384    8    0    1
 -2       115       274       273      1603      1604      1599
 -1       385    8    0    1
 -2       116       117       275      1225      1605      1606
 -1       386    8    0    1
 -2       116       275       274      1606      1607      1602
 -1       387    8    0    1
 -2       117       118       276      1226      1608      1609
 -1       388    8    0    1
 -2       117       276       275      1609      1610      1605
 -1       389    8    0    1
 -2       118       119       277      1227      1611      1612
 -1       390    8    0    1
 -2       118       277       276      1612      1613      1608
 -1       391    8    0    1
 -2       119       120       278      1228      1614      1615
 -1       392    8    0    1
 -2       119       278       277      1615      1616      1611
 -1       393    8    0    1
 -2       120         3       121      1229      1230      1617
 -1       394    8    0    1
 -2       121       122       279      1231      1618      1619
 -1       395    8    0    1
 -2       122       123       280      1232      1620      1621
 -1       396    8    0    1
 -2       122       280       279      1621      1622      1618
 -1       397    8    0    1
 -2       123       124       281      1233      1623      1624
 -1       398    8    0    1
 -2       123       281       280      1624      1625      1620
 -1       399    8    0    1
 -2       124       125       282      1234      1626      1627
 -1       400    8    0    1
 -2       124       282       281      1627      1628      1623
 -1       401    8    0    1
 -2       125       126       283      1235      1629      1630
 -1       402    8    0    1
 -2       125       283       282      1630      1631      1626
 -1       403    8    0    1
 -2       126       127       284      1236      1632      1633
 -1       404    8    0    1
 -2       126       284       283      1633      1634      1629
 -1       405    8    0    1
 -2       127       128       285      1237      1635      1636
 -1       406    8    0    1
 -2       127       285       284      1636      1637      1632
 -1       407    8    0    1
 -2       128       129       286      1238      1638      1639
 -1       408    8    0    1
 -2       128       286       285      1639      1640      1635
 -1       409    8    0    1
 -2       129       130       287      1239      1641      1642
 -1       410    8    0    1
 -2       129       287       286      1642      1643      1638
 -1       411    8    0    1
 -2       130       131       288      1240      1644      1645
 -1       412    8    0    1
 -2       130       288       287      1645      1646      1641
 -1       413    8    0    1
 -2       131       132       289      1241      1647      1648
 -1       414    8    0    1
 -2       131       289       288      1648      1649      1644
 -1       415    8    0    1
 -2       132       133       290      1242      1650      1651
 -1       416    8    0    1
 -2       132       290       289      1651      1652      1647
 -1       417    8    0    1
 -2       133       134       291      1243      1653      1654
 -1       418    8    0    1
 -2       133       291       290      1654      1655      1650
 -1       419    8    0    1
 -2       134       135       292      1244      1656      1657
 -1       420    8    0    1
 -2       134       292       291      1657      1658      1653
 -1       421    8    0    1
 -2       135       136       293      1245      1659      1660
 -1       422    8    0    1
 -2       135       293       292      1660      1661      1656
 -1       423    8    0    1
 -2       136       137       294      1246      1662      1663
 -1       424    8    0    1
 -2       293       136       294      1659      1663      1664
 -1       425    8    0    1
 -2       137       230       294      1472      1665      1662
 -1       426    8    0    1
 -2         2       138       295      1248      1666      1667
 -1       427    8    0    1
 -2       138       139       296      1249      1668      1669
 -1       428    8    0    1
 -2       139       140       297      1250      1670      1671
 -1       429    8    0    1
 -2       140       141       298      1251      1672      1673
 -1       430    8    0    1
 -2       141       142       299      1252      1674      1675
 -1       431    8    0    1
 -2       142       143       300      1253      1676      1677
 -1       432    8    0    1
 -2       143       144       301      1254      1678      1679
 -1       433    8    0    1
 -2       144       145       302      1255      1680      1681
 -1       434    8    0    1
 -2       145       146       303      1256      1682      1683
 -1       435    8    0    1
 -2       146       147       304      1257      1684      1685
 -1       436    8    0    1
 -2       147       148       305      1258      1686      1687
 -1       437    8    0    1
 -2       148       149       306      1259      1688      1689
 -1       438    8    0    1
 -2       149       150       307      1260      1690      1691
 -1       439    8    0    1
 -2       150       151       308      1261      1692      1693
 -1       440    8    0    1
 -2       151       152       309      1262      1694      1695
 -1       441    8    0    1
 -2       152       153       310      1263      1696      1697
 -1       442    8    0    1
 -2       153       154       311      1264      1698      1699
 -1       443    8    0    1
 -2       154       155       312      1265      1700      1701
 -1       444    8    0    1
 -2       155       156       313      1266      1702      1703
 -1       445    8    0    1
 -2       156       157       314      1267      1704      1705
 -1       446    8    0    1
 -2       157       158       315      1268      1706      1707
 -1       447    8    0    1
 -2       158       159       316      1269      1708      1709
 -1       448    8    0    1
 -2       159       160       317      1270      1710      1711
 -1       449    8    0    1
 -2       160       161       318      1271      1712      1713
 -1       450    8    0    1
 -2       161       162       319      1272      1714      1715
 -1       451    8    0    1
 -2       162       163       320      1273      1716      1717
 -1       452    8    0    1
 -2       163       164       321      1274      1718      1719
 -1       453    8    0    1
 -2       164         1       322      1275      1720      1721
 -1       454    8    0    1
 -2         1       165       323      1276      1722      1723
 -1       455    8    0    1
 -2         1       323       322      1723      1724      1720
 -1       456    8    0    1
 -2       165       166       324      1277      1725      1726
 -1       457    8    0    1
 -2       166         2       325      1278      1727      1728
 -1       458    8    0    1
 -2       166       325       324      1728      1729      1725
 -1       459    8    0    1
 -2       298       141       299      1672      1675      1730
 -1       460    8    0    1
 -2       297       140       298      1670      1673      1731
 -1       461    8    0    1
 -2       120       121       278      1617      1732      1614
 -1       462    8    0    1
 -2       121       279       278      1619      1733      1732
 -1       463    8    0    1
 -2       295       138       296      1666      1669      1734
 -1       464    8    0    1
 -2       296       139       297      1668      1671      1735
 -1       465    8    0    1
 -2         2       295       325      1667      1736      1727
 -1       466    8    0    1
 -2       142       300       299      1677      1737      1674
 -1       467    8    0    1
 -2       143       301       300      1679      1738      1676
 -1       468    8    0    1
 -2       144       302       301      1681      1739      1678
 -1       469    8    0    1
 -2       145       303       302      1683      1740      1680
 -1       470    8    0    1
 -2       146       304       303      1685      1741      1682
 -1       471    8    0    1
 -2       147       305       304      1687      1742      1684
 -1       472    8    0    1
 -2       148       306       305      1689      1743      1686
 -1       473    8    0    1
 -2       149       307       306      1691      1744      1688
 -1       474    8    0    1
 -2       150       308       307      1693      1745      1690
 -1       475    8    0    1
 -2       151       309       308      1695      1746      1692
 -1       476    8    0    1
 -2       152       310       309      1697      1747      1694
 -1       477    8    0    1
 -2       153       311       310      1699      1748      1696
 -1       478    8    0    1
 -2       154       312       311      1701      1749      1698
 -1       479    8    0    1
 -2       155       313       312      1703      1750      1700
 -1       480    8    0    1
 -2       156       314       313      1705      1751      1702
 -1       481    8    0    1
 -2       157       315       314      1707      1752      1704
 -1       482    8    0    1
 -2       158       316       315      1709      1753      1706
 -1       483    8    0    1
 -2       159       317       316      1711      1754      1708
 -1       484    8    0    1
 -2       160       318       317      1713      1755      1710
 -1       485    8    0    1
 -2       161       319       318      1715      1756      1712
 -1       486    8    0    1
 -2       162       320       319      1717      1757      1714
 -1       487    8    0    1
 -2       163       321       320      1719      1758      1716
 -1       488    8    0    1
 -2       164       322       321      1721      1759      1718
 -1       489    8    0    1
 -2        23         7       167      1279      1281      1760
 -1       490    8    0    1
 -2       165       324       323      1726      1761      1722
 -1       491    8    0    1
 -2       168       169       326      1287      1762      1763
 -1       492    8    0    1
 -2       167       168       327      1284      1764      1765
 -1       493    8    0    1
 -2       168       326       327      1763      1766      1764
 -1       494    8    0    1
 -2       170       171       328      1293      1767      1768
 -1       495    8    0    1
 -2       171       172       329      1296      1769      1770
 -1       496    8    0    1
 -2       171       329       328      1770      1771      1767
 -1       497    8    0    1
 -2       172       173       330      1299      1772      1773
 -1       498    8    0    1
 -2       172       330       329      1773      1774      1769
 -1       499    8    0    1
 -2       173       174       331      1302      1775      1776
 -1       500    8    0    1
 -2       173       331       330      1776      1777      1772
 -1       501    8    0    1
 -2       174       175       332      1305      1778      1779
 -1       502    8    0    1
 -2       174       332       331      1779      1780      1775
 -1       503    8    0    1
 -2       175       176       333      1308      1781      1782
 -1       504    8    0    1
 -2       175       333       332      1782      1783      1778
 -1       505    8    0    1
 -2       176       177       334      1311      1784      1785
 -1       506    8    0    1
 -2       176       334       333      1785      1786      1781
 -1       507    8    0    1
 -2       177       178       335      1314      1787      1788
 -1       508    8    0    1
 -2       177       335       334      1788      1789      1784
 -1       509    8    0    1
 -2       178       179       336      1317      1790      1791
 -1       510    8    0    1
 -2       178       336       335      1791      1792      1787
 -1       511    8    0    1
 -2       179       180       337      1320      1793      1794
 -1       512    8    0    1
 -2       179       337       336      1794      1795      1790
 -1       513    8    0    1
 -2       180       181       338      1323      1796      1797
 -1       514    8    0    1
 -2       180       338       337      1797      1798      1793
 -1       515    8    0    1
 -2       181       182       339      1326      1799      1800
 -1       516    8    0    1
 -2       338       181       339      1796      1800      1801
 -1       517    8    0    1
 -2       182       231       339      1475      1802      1799
 -1       518    8    0    1
 -2       183        23       167      1328      1760      1803
 -1       519    8    0    1
 -2       231       232       340      1478      1804      1805
 -1       520    8    0    1
 -2       231       340       339      1805      1806      1802
 -1       521    8    0    1
 -2       323       324       341      1761      1807      1808
 -1       522    8    0    1
 -2       183       167       327      1803      1765      1809
 -1       523    8    0    1
 -2       185       184       342      1335      1810      1811
 -1       524    8    0    1
 -2       186       185       343      1338      1812      1813
 -1       525    8    0    1
 -2       185       342       343      1811      1814      1812
 -1       526    8    0    1
 -2       187       186       344      1341      1815      1816
 -1       527    8    0    1
 -2       186       343       344      1813      1817      1815
 -1       528    8    0    1
 -2       188       187       345      1344      1818      1819
 -1       529    8    0    1
 -2       187       344       345      1816      1820      1818
 -1       530    8    0    1
 -2       189       188       346      1347      1821      1822
 -1       531    8    0    1
 -2       188       345       346      1819      1823      1821
 -1       532    8    0    1
 -2       190       189       347      1350      1824      1825
 -1       533    8    0    1
 -2       189       346       347      1822      1826      1824
 -1       534    8    0    1
 -2       191       190       348      1353      1827      1828
 -1       535    8    0    1
 -2       190       347       348      1825      1829      1827
 -1       536    8    0    1
 -2       192       191       349      1356      1830      1831
 -1       537    8    0    1
 -2       191       348       349      1828      1832      1830
 -1       538    8    0    1
 -2       193       192       350      1359      1833      1834
 -1       539    8    0    1
 -2       192       349       350      1831      1835      1833
 -1       540    8    0    1
 -2       194       193       351      1362      1836      1837
 -1       541    8    0    1
 -2       193       350       351      1834      1838      1836
 -1       542    8    0    1
 -2       195       194       352      1365      1839      1840
 -1       543    8    0    1
 -2       194       351       352      1837      1841      1839
 -1       544    8    0    1
 -2       196       195       353      1368      1842      1843
 -1       545    8    0    1
 -2       195       352       353      1840      1844      1842
 -1       546    8    0    1
 -2       197       196       354      1371      1845      1846
 -1       547    8    0    1
 -2       196       353       354      1843      1847      1845
 -1       548    8    0    1
 -2       198       197       355      1374      1848      1849
 -1       549    8    0    1
 -2       197       354       355      1846      1850      1848
 -1       550    8    0    1
 -2       199       198       356      1377      1851      1852
 -1       551    8    0    1
 -2       198       355       356      1849      1853      1851
 -1       552    8    0    1
 -2       200       199       357      1380      1854      1855
 -1       553    8    0    1
 -2       199       356       357      1852      1856      1854
 -1       554    8    0    1
 -2       201       200       358      1383      1857      1858
 -1       555    8    0    1
 -2       200       357       358      1855      1859      1857
 -1       556    8    0    1
 -2       202       201       359      1386      1860      1861
 -1       557    8    0    1
 -2       201       358       359      1858      1862      1860
 -1       558    8    0    1
 -2       203       202       360      1389      1863      1864
 -1       559    8    0    1
 -2       202       359       360      1861      1865      1863
 -1       560    8    0    1
 -2       204       203       361      1392      1866      1867
 -1       561    8    0    1
 -2       203       360       361      1864      1868      1866
 -1       562    8    0    1
 -2       205       204       362      1395      1869      1870
 -1       563    8    0    1
 -2       204       361       362      1867      1871      1869
 -1       564    8    0    1
 -2       206       205       363      1398      1872      1873
 -1       565    8    0    1
 -2       205       362       363      1870      1874      1872
 -1       566    8    0    1
 -2       207       206       364      1401      1875      1876
 -1       567    8    0    1
 -2       206       363       364      1873      1877      1875
 -1       568    8    0    1
 -2       208       207       365      1404      1878      1879
 -1       569    8    0    1
 -2       207       364       365      1876      1880      1878
 -1       570    8    0    1
 -2       209       208       366      1407      1881      1882
 -1       571    8    0    1
 -2       208       365       366      1879      1883      1881
 -1       572    8    0    1
 -2       210       209       367      1410      1884      1885
 -1       573    8    0    1
 -2       209       366       367      1882      1886      1884
 -1       574    8    0    1
 -2       211       210       368      1413      1887      1888
 -1       575    8    0    1
 -2       210       367       368      1885      1889      1887
 -1       576    8    0    1
 -2       212       211       369      1416      1890      1891
 -1       577    8    0    1
 -2       211       368       369      1888      1892      1890
 -1       578    8    0    1
 -2       213       212       370      1419      1893      1894
 -1       579    8    0    1
 -2       212       369       370      1891      1895      1893
 -1       580    8    0    1
 -2       214       213       371      1422      1896      1897
 -1       581    8    0    1
 -2       213       370       371      1894      1898      1896
 -1       582    8    0    1
 -2       215       214       372      1425      1899      1900
 -1       583    8    0    1
 -2       214       371       372      1897      1901      1899
 -1       584    8    0    1
 -2       216       215       373      1428      1902      1903
 -1       585    8    0    1
 -2       215       372       373      1900      1904      1902
 -1       586    8    0    1
 -2       217       216       374      1431      1905      1906
 -1       587    8    0    1
 -2       216       373       374      1903      1907      1905
 -1       588    8    0    1
 -2       218       217       375      1434      1908      1909
 -1       589    8    0    1
 -2       217       374       375      1906      1910      1908
 -1       590    8    0    1
 -2       219       218       376      1437      1911      1912
 -1       591    8    0    1
 -2       218       375       376      1909      1913      1911
 -1       592    8    0    1
 -2       220       219       377      1440      1914      1915
 -1       593    8    0    1
 -2       219       376       377      1912      1916      1914
 -1       594    8    0    1
 -2       221       220       378      1443      1917      1918
 -1       595    8    0    1
 -2       220       377       378      1915      1919      1917
 -1       596    8    0    1
 -2       222       221       379      1446      1920      1921
 -1       597    8    0    1
 -2       221       378       379      1918      1922      1920
 -1       598    8    0    1
 -2       223       222       380      1449      1923      1924
 -1       599    8    0    1
 -2       222       379       380      1921      1925      1923
 -1       600    8    0    1
 -2       224       223       381      1452      1926      1927
 -1       601    8    0    1
 -2       223       380       381      1924      1928      1926
 -1       602    8    0    1
 -2       225       224       382      1455      1929      1930
 -1       603    8    0    1
 -2       224       381       382      1927      1931      1929
 -1       604    8    0    1
 -2       226       225       383      1458      1932      1933
 -1       605    8    0    1
 -2       225       382       383      1930      1934      1932
 -1       606    8    0    1
 -2       227       226       384      1461      1935      1936
 -1       607    8    0    1
 -2       226       383       384      1933      1937      1935
 -1       608    8    0    1
 -2       228       227       385      1464      1938      1939
 -1       609    8    0    1
 -2       227       384       385      1936      1940      1938
 -1       610    8    0    1
 -2       229       228       386      1467      1941      1942
 -1       611    8    0    1
 -2       228       385       386      1939      1943      1941
 -1       612    8    0    1
 -2       230       229       387      1470      1944      1945
 -1       613    8    0    1
 -2       294       230       387      1665      1945      1946
 -1       614    8    0    1
 -2       229       386       387      1942      1947      1944
 -1       615    8    0    1
 -2       232       233       388      1481      1948      1949
 -1       616    8    0    1
 -2       232       388       340      1949      1950      1804
 -1       617    8    0    1
 -2       233       234       389      1484      1951      1952
 -1       618    8    0    1
 -2       233       389       388      1952      1953      1948
 -1       619    8    0    1
 -2       234       235       390      1487      1954      1955
 -1       620    8    0    1
 -2       234       390       389      1955      1956      1951
 -1       621    8    0    1
 -2       235       236       391      1490      1957      1958
 -1       622    8    0    1
 -2       235       391       390      1958      1959      1954
 -1       623    8    0    1
 -2       236       237       392      1493      1960      1961
 -1       624    8    0    1
 -2       236       392       391      1961      1962      1957
 -1       625    8    0    1
 -2       237       238       393      1496      1963      1964
 -1       626    8    0    1
 -2       237       393       392      1964      1965      1960
 -1       627    8    0    1
 -2       238       239       394      1499      1966      1967
 -1       628    8    0    1
 -2       238       394       393      1967      1968      1963
 -1       629    8    0    1
 -2       239       240       395      1502      1969      1970
 -1       630    8    0    1
 -2       239       395       394      1970      1971      1966
 -1       631    8    0    1
 -2       240       241       396      1505      1972      1973
 -1       632    8    0    1
 -2       240       396       395      1973      1974      1969
 -1       633    8    0    1
 -2       241       242       397      1508      1975      1976
 -1       634    8    0    1
 -2       241       397       396      1976      1977      1972
 -1       635    8    0    1
 -2       242       243       398      1511      1978      1979
 -1       636    8    0    1
 -2       242       398       397      1979      1980      1975
 -1       637    8    0    1
 -2       243       244       399      1514      1981      1982
 -1       638    8    0    1
 -2       243       399       398      1982      1983      1978
 -1       639    8    0    1
 -2       244       245       400      1517      1984      1985
 -1       640    8    0    1
 -2       244       400       399      1985      1986      1981
 -1       641    8    0    1
 -2       245       246       401      1520      1987      1988
 -1       642    8    0    1
 -2       245       401       400      1988      1989      1984
 -1       643    8    0    1
 -2       246       247       402      1523      1990      1991
 -1       644    8    0    1
 -2       246       402       401      1991      1992      1987
 -1       645    8    0    1
 -2       247       248       403      1526      1993      1994
 -1       646    8    0    1
 -2       247       403       402      1994      1995      1990
 -1       647    8    0    1
 -2       248       249       404      1529      1996      1997
 -1       648    8    0    1
 -2       248       404       403      1997      1998      1993
 -1       649    8    0    1
 -2       249       250       405      1532      1999      2000
 -1       650    8    0    1
 -2       249       405       404      2000      2001      1996
 -1       651    8    0    1
 -2       250       251       406      1535      2002      2003
 -1       652    8    0    1
 -2       250       406       405      2003      2004      1999
 -1       653    8    0    1
 -2       251       252       407      1538      2005      2006
 -1       654    8    0    1
 -2       251       407       406      2006      2007      2002
 -1       655    8    0    1
 -2       252       253       408      1541      2008      2009
 -1       656    8    0    1
 -2       252       408       407      2009      2010      2005
 -1       657    8    0    1
 -2       253       254       409      1544      2011      2012
 -1       658    8    0    1
 -2       253       409       408      2012      2013      2008
 -1       659    8    0    1
 -2       254       255       410      1547      2014      2015
 -1       660    8    0    1
 -2       254       410       409      2015      2016      2011
 -1       661    8    0    1
 -2       255       256       411      1550      2017      2018
 -1       662    8    0    1
 -2       255       411       410      2018      2019      2014
 -1       663    8    0    1
 -2       256       257       412      1553      2020      2021
 -1       664    8    0    1
 -2       256       412       411      2021      2022      2017
 -1       665    8    0    1
 -2       257       258       413      1556      2023      2024
 -1       666    8    0    1
 -2       257       413       412      2024      2025      2020
 -1       667    8    0    1
 -2       258       259       414      1559      2026      2027
 -1       668    8    0    1
 -2       258       414       413      2027      2028      2023
 -1       669    8    0    1
 -2       259       260       415      1562      2029      2030
 -1       670    8    0    1
 -2       259       415       414      2030      2031      2026
 -1       671    8    0    1
 -2       260       261       416      1565      2032      2033
 -1       672    8    0    1
 -2       260       416       415      2033      2034      2029
 -1       673    8    0    1
 -2       261       262       417      1568      2035      2036
 -1       674    8    0    1
 -2       261       417       416      2036      2037      2032
 -1       675    8    0    1
 -2       262       263       418      1571      2038      2039
 -1       676    8    0    1
 -2       262       418       417      2039      2040      2035
 -1       677    8    0    1
 -2       263       264       419      1574      2041      2042
 -1       678    8    0    1
 -2       263       419       418      2042      2043      2038
 -1       679    8    0    1
 -2       264       265       420      1577      2044      2045
 -1       680    8    0    1
 -2       264       420       419      2045      2046      2041
 -1       681    8    0    1
 -2       265       266       421      1580      2047      2048
 -1       682    8    0    1
 -2       265       421       420      2048      2049      2044
 -1       683    8    0    1
 -2       266       267       422      1583      2050      2051
 -1       684    8    0    1
 -2       266       422       421      2051      2052      2047
 -1       685    8    0    1
 -2       267       268       423      1586      2053      2054
 -1       686    8    0    1
 -2       267       423       422      2054      2055      2050
 -1       687    8    0    1
 -2       268       269       424      1589      2056      2057
 -1       688    8    0    1
 -2       268       424       423      2057      2058      2053
 -1       689    8    0    1
 -2       269       270       425      1592      2059      2060
 -1       690    8    0    1
 -2       269       425       424      2060      2061      2056
 -1       691    8    0    1
 -2       270       271       426      1595      2062      2063
 -1       692    8    0    1
 -2       270       426       425      2063      2064      2059
 -1       693    8    0    1
 -2       271       272       427      1598      2065      2066
 -1       694    8    0    1
 -2       271       427       426      2066      2067      2062
 -1       695    8    0    1
 -2       272       273       428      1601      2068      2069
 -1       696    8    0    1
 -2       272       428       427      2069      2070      2065
 -1       697    8    0    1
 -2       273       274       429      1604      2071      2072
 -1       698    8    0    1
 -2       273       429       428      2072      2073      2068
 -1       699    8    0    1
 -2       274       275       430      1607      2074      2075
 -1       700    8    0    1
 -2       274       430       429      2075      2076      2071
 -1       701    8    0    1
 -2       276       277       431      1613      2077      2078
 -1       702    8    0    1
 -2       277       278       432      1616      2079      2080
 -1       703    8    0    1
 -2       431       277       432      2077      2080      2081
 -1       704    8    0    1
 -2       278       279       432      1733      2082      2079
 -1       705    8    0    1
 -2       281       282       433      1628      2083      2084
 -1       706    8    0    1
 -2       280       281       434      1625      2085      2086
 -1       707    8    0    1
 -2       281       433       434      2084      2087      2085
 -1       708    8    0    1
 -2       279       280       432      1622      2088      2082
 -1       709    8    0    1
 -2       282       283       435      1631      2089      2090
 -1       710    8    0    1
 -2       282       435       433      2090      2091      2083
 -1       711    8    0    1
 -2       283       284       436      1634      2092      2093
 -1       712    8    0    1
 -2       283       436       435      2093      2094      2089
 -1       713    8    0    1
 -2       284       285       437      1637      2095      2096
 -1       714    8    0    1
 -2       284       437       436      2096      2097      2092
 -1       715    8    0    1
 -2       285       286       438      1640      2098      2099
 -1       716    8    0    1
 -2       285       438       437      2099      2100      2095
 -1       717    8    0    1
 -2       286       287       439      1643      2101      2102
 -1       718    8    0    1
 -2       286       439       438      2102      2103      2098
 -1       719    8    0    1
 -2       287       288       440      1646      2104      2105
 -1       720    8    0    1
 -2       287       440       439      2105      2106      2101
 -1       721    8    0    1
 -2       288       289       441      1649      2107      2108
 -1       722    8    0    1
 -2       288       441       440      2108      2109      2104
 -1       723    8    0    1
 -2       289       290       442      1652      2110      2111
 -1       724    8    0    1
 -2       289       442       441      2111      2112      2107
 -1       725    8    0    1
 -2       290       291       443      1655      2113      2114
 -1       726    8    0    1
 -2       290       443       442      2114      2115      2110
 -1       727    8    0    1
 -2       291       292       444      1658      2116      2117
 -1       728    8    0    1
 -2       291       444       443      2117      2118      2113
 -1       729    8    0    1
 -2       292       293       445      1661      2119      2120
 -1       730    8    0    1
 -2       292       445       444      2120      2121      2116
 -1       731    8    0    1
 -2       296       297       446      1735      2122      2123
 -1       732    8    0    1
 -2       325       295       447      1736      2124      2125
 -1       733    8    0    1
 -2       295       296       448      1734      2126      2127
 -1       734    8    0    1
 -2       297       298       449      1731      2128      2129
 -1       735    8    0    1
 -2       322       323       450      1724      2130      2131
 -1       736    8    0    1
 -2       323       341       450      1808      2132      2130
 -1       737    8    0    1
 -2       298       299       451      1730      2133      2134
 -1       738    8    0    1
 -2       298       451       449      2134      2135      2128
 -1       739    8    0    1
 -2       324       325       452      1729      2136      2137
 -1       740    8    0    1
 -2       341       324       452      1807      2137      2138
 -1       741    8    0    1
 -2       325       447       452      2125      2139      2136
 -1       742    8    0    1
 -2       169       170       453      1290      2140      2141
 -1       743    8    0    1
 -2       326       169       453      1762      2141      2142
 -1       744    8    0    1
 -2       170       328       453      1768      2143      2140
 -1       745    8    0    1
 -2       300       301       454      1738      2144      2145
 -1       746    8    0    1
 -2       301       302       455      1739      2146      2147
 -1       747    8    0    1
 -2       302       303       456      1740      2148      2149
 -1       748    8    0    1
 -2       302       456       455      2149      2150      2146
 -1       749    8    0    1
 -2       303       304       457      1741      2151      2152
 -1       750    8    0    1
 -2       304       305       458      1742      2153      2154
 -1       751    8    0    1
 -2       305       306       459      1743      2155      2156
 -1       752    8    0    1
 -2       306       307       460      1744      2157      2158
 -1       753    8    0    1
 -2       307       308       461      1745      2159      2160
 -1       754    8    0    1
 -2       308       309       462      1746      2161      2162
 -1       755    8    0    1
 -2       309       310       463      1747      2163      2164
 -1       756    8    0    1
 -2       310       311       464      1748      2165      2166
 -1       757    8    0    1
 -2       311       312       465      1749      2167      2168
 -1       758    8    0    1
 -2       312       313       466      1750      2169      2170
 -1       759    8    0    1
 -2       313       314       467      1751      2171      2172
 -1       760    8    0    1
 -2       314       315       468      1752      2173      2174
 -1       761    8    0    1
 -2       315       316       469      1753      2175      2176
 -1       762    8    0    1
 -2       315       469       468      2176      2177      2173
 -1       763    8    0    1
 -2       316       317       470      1754      2178      2179
 -1       764    8    0    1
 -2       317       318       471      1755      2180      2181
 -1       765    8    0    1
 -2       318       319       472      1756      2182      2183
 -1       766    8    0    1
 -2       319       320       473      1757      2184      2185
 -1       767    8    0    1
 -2       320       321       474      1758      2186      2187
 -1       768    8    0    1
 -2       321       322       475      1759      2188      2189
 -1       769    8    0    1
 -2       299       300       476      1737      2190      2191
 -1       770    8    0    1
 -2       448       296       446      2126      2123      2192
 -1       771    8    0    1
 -2       184       183       327      1332      1809      2193
 -1       772    8    0    1
 -2       342       184       327      1810      2193      2194
 -1       773    8    0    1
 -2       275       276       477      1610      2195      2196
 -1       774    8    0    1
 -2       432       280       434      2088      2086      2197
 -1       775    8    0    1
 -2       447       295       448      2124      2127      2198
 -1       776    8    0    1
 -2       275       477       430      2196      2199      2074
 -1       777    8    0    1
 -2       445       293       294      2119      1664      2200
 -1       778    8    0    1
 -2       446       297       449      2122      2129      2201
 -1       779    8    0    1
 -2       322       450       475      2131      2202      2188
 -1       780    8    0    1
 -2       476       300       454      2190      2145      2203
 -1       781    8    0    1
 -2       474       321       475      2186      2189      2204
 -1       782    8    0    1
 -2       473       320       474      2184      2187      2205
 -1       783    8    0    1
 -2       472       319       478      2182      2206      2207
 -1       784    8    0    1
 -2       319       473       478      2185      2208      2206
 -1       785    8    0    1
 -2       471       318       472      2180      2183      2209
 -1       786    8    0    1
 -2       469       316       470      2175      2179      2210
 -1       787    8    0    1
 -2       467       314       468      2171      2174      2211
 -1       788    8    0    1
 -2       466       313       467      2169      2172      2212
 -1       789    8    0    1
 -2       465       312       466      2167      2170      2213
 -1       790    8    0    1
 -2       464       311       465      2165      2168      2214
 -1       791    8    0    1
 -2       463       310       464      2163      2166      2215
 -1       792    8    0    1
 -2       462       309       463      2161      2164      2216
 -1       793    8    0    1
 -2       461       308       462      2159      2162      2217
 -1       794    8    0    1
 -2       460       307       461      2157      2160      2218
 -1       795    8    0    1
 -2       459       306       460      2155      2158      2219
 -1       796    8    0    1
 -2       458       305       459      2153      2156      2220
 -1       797    8    0    1
 -2       451       299       476      2133      2191      2221
 -1       798    8    0    1
 -2       456       303       457      2148      2152      2222
 -1       799    8    0    1
 -2       301       455       454      2147      2223      2144
 -1       800    8    0    1
 -2       457       304       458      2151      2154      2224
 -1       801    8    0    1
 -2       470       317       471      2178      2181      2225
 -1       802    8    0    1
 -2       477       276       431      2195      2078      2226
 -1       803    8    0    1
 -2       340       388       479      1950      2227      2228
 -1       804    8    0    1
 -2       329       330       480      1774      2229      2230
 -1       805    8    0    1
 -2       328       329       481      1771      2231      2232
 -1       806    8    0    1
 -2       329       480       481      2230      2233      2231
 -1       807    8    0    1
 -2       331       332       482      1780      2234      2235
 -1       808    8    0    1
 -2       332       333       483      1783      2236      2237
 -1       809    8    0    1
 -2       332       483       482      2237      2238      2234
 -1       810    8    0    1
 -2       333       334       484      1786      2239      2240
 -1       811    8    0    1
 -2       333       484       483      2240      2241      2236
 -1       812    8    0    1
 -2       334       335       485      1789      2242      2243
 -1       813    8    0    1
 -2       334       485       484      2243      2244      2239
 -1       814    8    0    1
 -2       335       336       486      1792      2245      2246
 -1       815    8    0    1
 -2       335       486       485      2246      2247      2242
 -1       816    8    0    1
 -2       336       337       487      1795      2248      2249
 -1       817    8    0    1
 -2       336       487       486      2249      2250      2245
 -1       818    8    0    1
 -2       343       342       488      1814      2251      2252
 -1       819    8    0    1
 -2       449       451       489      2135      2253      2254
 -1       820    8    0    1
 -2       388       389       490      1953      2255      2256
 -1       821    8    0    1
 -2       388       490       479      2256      2257      2227
 -1       822    8    0    1
 -2       342       327       491      2194      2258      2259
 -1       823    8    0    1
 -2       488       342       491      2251      2259      2260
 -1       824    8    0    1
 -2       327       326       491      1766      2261      2258
 -1       825    8    0    1
 -2       344       343       492      1817      2262      2263
 -1       826    8    0    1
 -2       343       488       492      2252      2264      2262
 -1       827    8    0    1
 -2       345       344       493      1820      2265      2266
 -1       828    8    0    1
 -2       344       492       493      2263      2267      2265
 -1       829    8    0    1
 -2       346       345       494      1823      2268      2269
 -1       830    8    0    1
 -2       345       493       494      2266      2270      2268
 -1       831    8    0    1
 -2       347       346       495      1826      2271      2272
 -1       832    8    0    1
 -2       346       494       495      2269      2273      2271
 -1       833    8    0    1
 -2       348       347       496      1829      2274      2275
 -1       834    8    0    1
 -2       347       495       496      2272      2276      2274
 -1       835    8    0    1
 -2       349       348       497      1832      2277      2278
 -1       836    8    0    1
 -2       348       496       497      2275      2279      2277
 -1       837    8    0    1
 -2       350       349       498      1835      2280      2281
 -1       838    8    0    1
 -2       349       497       498      2278      2282      2280
 -1       839    8    0    1
 -2       351       350       499      1838      2283      2284
 -1       840    8    0    1
 -2       350       498       499      2281      2285      2283
 -1       841    8    0    1
 -2       352       351       500      1841      2286      2287
 -1       842    8    0    1
 -2       351       499       500      2284      2288      2286
 -1       843    8    0    1
 -2       353       352       501      1844      2289      2290
 -1       844    8    0    1
 -2       352       500       501      2287      2291      2289
 -1       845    8    0    1
 -2       354       353       502      1847      2292      2293
 -1       846    8    0    1
 -2       353       501       502      2290      2294      2292
 -1       847    8    0    1
 -2       355       354       503      1850      2295      2296
 -1       848    8    0    1
 -2       354       502       503      2293      2297      2295
 -1       849    8    0    1
 -2       356       355       504      1853      2298      2299
 -1       850    8    0    1
 -2       355       503       504      2296      2300      2298
 -1       851    8    0    1
 -2       357       356       505      1856      2301      2302
 -1       852    8    0    1
 -2       356       504       505      2299      2303      2301
 -1       853    8    0    1
 -2       358       357       506      1859      2304      2305
 -1       854    8    0    1
 -2       357       505       506      2302      2306      2304
 -1       855    8    0    1
 -2       359       358       507      1862      2307      2308
 -1       856    8    0    1
 -2       358       506       507      2305      2309      2307
 -1       857    8    0    1
 -2       360       359       508      1865      2310      2311
 -1       858    8    0    1
 -2       359       507       508      2308      2312      2310
 -1       859    8    0    1
 -2       361       360       509      1868      2313      2314
 -1       860    8    0    1
 -2       360       508       509      2311      2315      2313
 -1       861    8    0    1
 -2       362       361       510      1871      2316      2317
 -1       862    8    0    1
 -2       361       509       510      2314      2318      2316
 -1       863    8    0    1
 -2       363       362       511      1874      2319      2320
 -1       864    8    0    1
 -2       362       510       511      2317      2321      2319
 -1       865    8    0    1
 -2       364       363       512      1877      2322      2323
 -1       866    8    0    1
 -2       363       511       512      2320      2324      2322
 -1       867    8    0    1
 -2       365       364       513      1880      2325      2326
 -1       868    8    0    1
 -2       364       512       513      2323      2327      2325
 -1       869    8    0    1
 -2       366       365       514      1883      2328      2329
 -1       870    8    0    1
 -2       365       513       514      2326      2330      2328
 -1       871    8    0    1
 -2       367       366       515      1886      2331      2332
 -1       872    8    0    1
 -2       366       514       515      2329      2333      2331
 -1       873    8    0    1
 -2       368       367       516      1889      2334      2335
 -1       874    8    0    1
 -2       367       515       516      2332      2336      2334
 -1       875    8    0    1
 -2       369       368       517      1892      2337      2338
 -1       876    8    0    1
 -2       368       516       517      2335      2339      2337
 -1       877    8    0    1
 -2       370       369       518      1895      2340      2341
 -1       878    8    0    1
 -2       369       517       518      2338      2342      2340
 -1       879    8    0    1
 -2       371       370       519      1898      2343      2344
 -1       880    8    0    1
 -2       370       518       519      2341      2345      2343
 -1       881    8    0    1
 -2       372       371       520      1901      2346      2347
 -1       882    8    0    1
 -2       371       519       520      2344      2348      2346
 -1       883    8    0    1
 -2       373       372       521      1904      2349      2350
 -1       884    8    0    1
 -2       372       520       521      2347      2351      2349
 -1       885    8    0    1
 -2       374       373       522      1907      2352      2353
 -1       886    8    0    1
 -2       373       521       522      2350      2354      2352
 -1       887    8    0    1
 -2       375       374       523      1910      2355      2356
 -1       888    8    0    1
 -2       374       522       523      2353      2357      2355
 -1       889    8    0    1
 -2       376       375       524      1913      2358      2359
 -1       890    8    0    1
 -2       375       523       524      2356      2360      2358
 -1       891    8    0    1
 -2       377       376       525      1916      2361      2362
 -1       892    8    0    1
 -2       376       524       525      2359      2363      2361
 -1       893    8    0    1
 -2       378       377       526      1919      2364      2365
 -1       894    8    0    1
 -2       377       525       526      2362      2366      2364
 -1       895    8    0    1
 -2       379       378       527      1922      2367      2368
 -1       896    8    0    1
 -2       378       526       527      2365      2369      2367
 -1       897    8    0    1
 -2       380       379       528      1925      2370      2371
 -1       898    8    0    1
 -2       379       527       528      2368      2372      2370
 -1       899    8    0    1
 -2       381       380       529      1928      2373      2374
 -1       900    8    0    1
 -2       380       528       529      2371      2375      2373
 -1       901    8    0    1
 -2       382       381       530      1931      2376      2377
 -1       902    8    0    1
 -2       381       529       530      2374      2378      2376
 -1       903    8    0    1
 -2       383       382       531      1934      2379      2380
 -1       904    8    0    1
 -2       382       530       531      2377      2381      2379
 -1       905    8    0    1
 -2       384       383       532      1937      2382      2383
 -1       906    8    0    1
 -2       383       531       532      2380      2384      2382
 -1       907    8    0    1
 -2       385       384       533      1940      2385      2386
 -1       908    8    0    1
 -2       384       532       533      2383      2387      2385
 -1       909    8    0    1
 -2       386       385       534      1943      2388      2389
 -1       910    8    0    1
 -2       385       533       534      2386      2390      2388
 -1       911    8    0    1
 -2       390       391       535      1959      2391      2392
 -1       912    8    0    1
 -2       391       392       536      1962      2393      2394
 -1       913    8    0    1
 -2       391       536       535      2394      2395      2391
 -1       914    8    0    1
 -2       392       393       537      1965      2396      2397
 -1       915    8    0    1
 -2       392       537       536      2397      2398      2393
 -1       916    8    0    1
 -2       393       394       538      1968      2399      2400
 -1       917    8    0    1
 -2       393       538       537      2400      2401      2396
 -1       918    8    0    1
 -2       394       395       539      1971      2402      2403
 -1       919    8    0    1
 -2       394       539       538      2403      2404      2399
 -1       920    8    0    1
 -2       395       396       540      1974      2405      2406
 -1       921    8    0    1
 -2       395       540       539      2406      2407      2402
 -1       922    8    0    1
 -2       396       397       541      1977      2408      2409
 -1       923    8    0    1
 -2       396       541       540      2409      2410      2405
 -1       924    8    0    1
 -2       397       398       542      1980      2411      2412
 -1       925    8    0    1
 -2       397       542       541      2412      2413      2408
 -1       926    8    0    1
 -2       398       399       543      1983      2414      2415
 -1       927    8    0    1
 -2       398       543       542      2415      2416      2411
 -1       928    8    0    1
 -2       399       400       544      1986      2417      2418
 -1       929    8    0    1
 -2       399       544       543      2418      2419      2414
 -1       930    8    0    1
 -2       400       401       545      1989      2420      2421
 -1       931    8    0    1
 -2       400       545       544      2421      2422      2417
 -1       932    8    0    1
 -2       401       402       546      1992      2423      2424
 -1       933    8    0    1
 -2       401       546       545      2424      2425      2420
 -1       934    8    0    1
 -2       402       403       547      1995      2426      2427
 -1       935    8    0    1
 -2       402       547       546      2427      2428      2423
 -1       936    8    0    1
 -2       403       404       548      1998      2429      2430
 -1       937    8    0    1
 -2       403       548       547      2430      2431      2426
 -1       938    8    0    1
 -2       404       405       549      2001      2432      2433
 -1       939    8    0    1
 -2       404       549       548      2433      2434      2429
 -1       940    8    0    1
 -2       405       406       550      2004      2435      2436
 -1       941    8    0    1
 -2       405       550       549      2436      2437      2432
 -1       942    8    0    1
 -2       406       407       551      2007      2438      2439
 -1       943    8    0    1
 -2       406       551       550      2439      2440      2435
 -1       944    8    0    1
 -2       407       408       552      2010      2441      2442
 -1       945    8    0    1
 -2       407       552       551      2442      2443      2438
 -1       946    8    0    1
 -2       408       409       553      2013      2444      2445
 -1       947    8    0    1
 -2       408       553       552      2445      2446      2441
 -1       948    8    0    1
 -2       409       410       554      2016      2447      2448
 -1       949    8    0    1
 -2       409       554       553      2448      2449      2444
 -1       950    8    0    1
 -2       410       411       555      2019      2450      2451
 -1       951    8    0    1
 -2       410       555       554      2451      2452      2447
 -1       952    8    0    1
 -2       411       412       556      2022      2453      2454
 -1       953    8    0    1
 -2       411       556       555      2454      2455      2450
 -1       954    8    0    1
 -2       412       413       557      2025      2456      2457
 -1       955    8    0    1
 -2       412       557       556      2457      2458      2453
 -1       956    8    0    1
 -2       413       414       558      2028      2459      2460
 -1       957    8    0    1
 -2       413       558       557      2460      2461      2456
 -1       958    8    0    1
 -2       414       415       559      2031      2462      2463
 -1       959    8    0    1
 -2       414       559       558      2463      2464      2459
 -1       960    8    0    1
 -2       415       416       560      2034      2465      2466
 -1       961    8    0    1
 -2       415       560       559      2466      2467      2462
 -1       962    8    0    1
 -2       416       417       561      2037      2468      2469
 -1       963    8    0    1
 -2       416       561       560      2469      2470      2465
 -1       964    8    0    1
 -2       417       418       562      2040      2471      2472
 -1       965    8    0    1
 -2       417       562       561      2472      2473      2468
 -1       966    8    0    1
 -2       418       419       563      2043      2474      2475
 -1       967    8    0    1
 -2       418       563       562      2475      2476      2471
 -1       968    8    0    1
 -2       419       420       564      2046      2477      2478
 -1       969    8    0    1
 -2       419       564       563      2478      2479      2474
 -1       970    8    0    1
 -2       420       421       565      2049      2480      2481
 -1       971    8    0    1
 -2       420       565       564      2481      2482      2477
 -1       972    8    0    1
 -2       421       422       566      2052      2483      2484
 -1       973    8    0    1
 -2       421       566       565      2484      2485      2480
 -1       974    8    0    1
 -2       422       423       567      2055      2486      2487
 -1       975    8    0    1
 -2       422       567       566      2487      2488      2483
 -1       976    8    0    1
 -2       423       424       568      2058      2489      2490
 -1       977    8    0    1
 -2       423       568       567      2490      2491      2486
 -1       978    8    0    1
 -2       424       425       569      2061      2492      2493
 -1       979    8    0    1
 -2       424       569       568      2493      2494      2489
 -1       980    8    0    1
 -2       425       426       570      2064      2495      2496
 -1       981    8    0    1
 -2       427       428       457      2070      2497      2498
 -1       982    8    0    1
 -2       428       429       455      2073      2499      2500
 -1       983    8    0    1
 -2       445       294       387      2200      1946      2501
 -1       984    8    0    1
 -2       435       436       571      2094      2502      2503
 -1       985    8    0    1
 -2       432       434       431      2197      2504      2081
 -1       986    8    0    1
 -2       434       433       572      2087      2505      2506
 -1       987    8    0    1
 -2       447       448       571      2198      2507      2508
 -1       988    8    0    1
 -2       436       437       573      2097      2509      2510
 -1       989    8    0    1
 -2       436       573       571      2510      2511      2502
 -1       990    8    0    1
 -2       437       438       574      2100      2512      2513
 -1       991    8    0    1
 -2       438       439       575      2103      2514      2515
 -1       992    8    0    1
 -2       439       440       576      2106      2516      2517
 -1       993    8    0    1
 -2       440       441       577      2109      2518      2519
 -1       994    8    0    1
 -2       440       577       576      2519      2520      2516
 -1       995    8    0    1
 -2       441       442       578      2112      2521      2522
 -1       996    8    0    1
 -2       441       578       577      2522      2523      2518
 -1       997    8    0    1
 -2       442       443       579      2115      2524      2525
 -1       998    8    0    1
 -2       442       579       578      2525      2526      2521
 -1       999    8    0    1
 -2       443       444       580      2118      2527      2528
 -1      1000    8    0    1
 -2       443       580       579      2528      2529      2524
 -1      1001    8    0    1
 -2       444       445       581      2121      2530      2531
 -1      1002    8    0    1
 -2       444       581       580      2531      2532      2527
 -1      1003    8    0    1
 -2       446       449       582      2201      2533      2534
 -1      1004    8    0    1
 -2       389       390       583      1956      2535      2536
 -1      1005    8    0    1
 -2       390       535       583      2392      2537      2535
 -1      1006    8    0    1
 -2       430       477       476      2199      2538      2539
 -1      1007    8    0    1
 -2       475       450       584      2202      2540      2541
 -1      1008    8    0    1
 -2       467       468       585      2211      2542      2543
 -1      1009    8    0    1
 -2       455       429       454      2499      2544      2223
 -1      1010    8    0    1
 -2       450       341       586      2132      2545      2546
 -1      1011    8    0    1
 -2       450       586       584      2546      2547      2540
 -1      1012    8    0    1
 -2       330       331       587      1777      2548      2549
 -1      1013    8    0    1
 -2       480       330       587      2229      2549      2550
 -1      1014    8    0    1
 -2       331       482       587      2235      2551      2548
 -1      1015    8    0    1
 -2       470       471       588      2225      2552      2553
 -1      1016    8    0    1
 -2       460       461       589      2218      2554      2555
 -1      1017    8    0    1
 -2       461       462       590      2217      2556      2557
 -1      1018    8    0    1
 -2       462       463       591      2216      2558      2559
 -1      1019    8    0    1
 -2       463       464       592      2215      2560      2561
 -1      1020    8    0    1
 -2       464       465       593      2214      2562      2563
 -1      1021    8    0    1
 -2       465       466       594      2213      2564      2565
 -1      1022    8    0    1
 -2       465       594       593      2565      2566      2562
 -1      1023    8    0    1
 -2       466       467       595      2212      2567      2568
 -1      1024    8    0    1
 -2       468       469       596      2177      2569      2570
 -1      1025    8    0    1
 -2       469       470       597      2210      2571      2572
 -1      1026    8    0    1
 -2       470       588       597      2553      2573      2571
 -1      1027    8    0    1
 -2       471       472       598      2209      2574      2575
 -1      1028    8    0    1
 -2       473       474       599      2205      2576      2577
 -1      1029    8    0    1
 -2       339       340       600      1806      2578      2579
 -1      1030    8    0    1
 -2       338       339       600      1801      2579      2580
 -1      1031    8    0    1
 -2       340       479       600      2228      2581      2578
 -1      1032    8    0    1
 -2       457       458       427      2224      2582      2498
 -1      1033    8    0    1
 -2       474       475       601      2204      2583      2584
 -1      1034    8    0    1
 -2       475       584       601      2541      2585      2583
 -1      1035    8    0    1
 -2       448       446       602      2192      2586      2587
 -1      1036    8    0    1
 -2       427       458       426      2582      2588      2067
 -1      1037    8    0    1
 -2       426       458       570      2588      2589      2495
 -1      1038    8    0    1
 -2       471       598       588      2575      2590      2552
 -1      1039    8    0    1
 -2       328       481       603      2232      2591      2592
 -1      1040    8    0    1
 -2       328       603       453      2592      2593      2143
 -1      1041    8    0    1
 -2       430       476       454      2539      2203      2594
 -1      1042    8    0    1
 -2       337       338       600      1798      2580      2595
 -1      1043    8    0    1
 -2       449       489       582      2254      2596      2533
 -1      1044    8    0    1
 -2       491       326       453      2261      2142      2597
 -1      1045    8    0    1
 -2       430       454       429      2594      2544      2076
 -1      1046    8    0    1
 -2       435       571       602      2503      2598      2599
 -1      1047    8    0    1
 -2       433       435       602      2091      2599      2600
 -1      1048    8    0    1
 -2       425       570       569      2496      2601      2492
 -1      1049    8    0    1
 -2       474       601       599      2584      2602      2576
 -1      1050    8    0    1
 -2       570       458       459      2589      2220      2603
 -1      1051    8    0    1
 -2       428       455       456      2500      2150      2604
 -1      1052    8    0    1
 -2       445       387       604      2501      2605      2606
 -1      1053    8    0    1
 -2       581       445       604      2530      2606      2607
 -1      1054    8    0    1
 -2       387       386       604      1947      2608      2605
 -1      1055    8    0    1
 -2       437       574       573      2513      2609      2509
 -1      1056    8    0    1
 -2       431       434       489      2504      2610      2611
 -1      1057    8    0    1
 -2       572       433       602      2505      2600      2612
 -1      1058    8    0    1
 -2       447       571       573      2508      2511      2613
 -1      1059    8    0    1
 -2       574       438       575      2512      2515      2614
 -1      1060    8    0    1
 -2       439       576       575      2517      2615      2514
 -1      1061    8    0    1
 -2       446       582       572      2534      2616      2617
 -1      1062    8    0    1
 -2       570       459       605      2603      2618      2619
 -1      1063    8    0    1
 -2       569       570       605      2601      2619      2620
 -1      1064    8    0    1
 -2       459       460       605      2219      2621      2618
 -1      1065    8    0    1
 -2       389       583       490      2536      2622      2255
 -1      1066    8    0    1
 -2       476       477       451      2538      2623      2221
 -1      1067    8    0    1
 -2       448       602       571      2587      2598      2507
 -1      1068    8    0    1
 -2       467       585       595      2543      2624      2567
 -1      1069    8    0    1
 -2       596       469       597      2569      2572      2625
 -1      1070    8    0    1
 -2       594       466       595      2564      2568      2626
 -1      1071    8    0    1
 -2       337       600       487      2595      2627      2248
 -1      1072    8    0    1
 -2       478       473       606      2208      2628      2629
 -1      1073    8    0    1
 -2       473       599       606      2577      2630      2628
 -1      1074    8    0    1
 -2       592       464       593      2560      2563      2631
 -1      1075    8    0    1
 -2       591       463       592      2558      2561      2632
 -1      1076    8    0    1
 -2       590       462       591      2556      2559      2633
 -1      1077    8    0    1
 -2       585       468       596      2542      2570      2634
 -1      1078    8    0    1
 -2       446       572       602      2617      2612      2586
 -1      1079    8    0    1
 -2       457       428       456      2497      2604      2222
 -1      1080    8    0    1
 -2       589       461       607      2554      2635      2636
 -1      1081    8    0    1
 -2       461       590       607      2557      2637      2635
 -1      1082    8    0    1
 -2       604       386       534      2608      2389      2638
 -1      1083    8    0    1
 -2       605       460       589      2621      2555      2639
 -1      1084    8    0    1
 -2       451       477       608      2623      2640      2641
 -1      1085    8    0    1
 -2       598       472       609      2574      2642      2643
 -1      1086    8    0    1
 -2       472       478       609      2207      2644      2642
 -1      1087    8    0    1
 -2       483       484       610      2241      2645      2646
 -1      1088    8    0    1
 -2       482       483       611      2238      2647      2648
 -1      1089    8    0    1
 -2       483       610       611      2646      2649      2647
 -1      1090    8    0    1
 -2       485       486       612      2247      2650      2651
 -1      1091    8    0    1
 -2       486       487       613      2250      2652      2653
 -1      1092    8    0    1
 -2       486       613       612      2653      2654      2650
 -1      1093    8    0    1
 -2       492       488       614      2264      2655      2656
 -1      1094    8    0    1
 -2       479       490       615      2257      2657      2658
 -1      1095    8    0    1
 -2       537       538       616      2401      2659      2660
 -1      1096    8    0    1
 -2       493       492       617      2267      2661      2662
 -1      1097    8    0    1
 -2       492       614       617      2656      2663      2661
 -1      1098    8    0    1
 -2       494       493       618      2270      2664      2665
 -1      1099    8    0    1
 -2       493       617       618      2662      2666      2664
 -1      1100    8    0    1
 -2       495       494       619      2273      2667      2668
 -1      1101    8    0    1
 -2       494       618       619      2665      2669      2667
 -1      1102    8    0    1
 -2       496       495       620      2276      2670      2671
 -1      1103    8    0    1
 -2       495       619       620      2668      2672      2670
 -1      1104    8    0    1
 -2       497       496       621      2279      2673      2674
 -1      1105    8    0    1
 -2       496       620       621      2671      2675      2673
 -1      1106    8    0    1
 -2       498       497       622      2282      2676      2677
 -1      1107    8    0    1
 -2       497       621       622      2674      2678      2676
 -1      1108    8    0    1
 -2       499       498       623      2285      2679      2680
 -1      1109    8    0    1
 -2       498       622       623      2677      2681      2679
 -1      1110    8    0    1
 -2       500       499       624      2288      2682      2683
 -1      1111    8    0    1
 -2       499       623       624      2680      2684      2682
 -1      1112    8    0    1
 -2       501       500       625      2291      2685      2686
 -1      1113    8    0    1
 -2       500       624       625      2683      2687      2685
 -1      1114    8    0    1
 -2       502       501       626      2294      2688      2689
 -1      1115    8    0    1
 -2       501       625       626      2686      2690      2688
 -1      1116    8    0    1
 -2       503       502       627      2297      2691      2692
 -1      1117    8    0    1
 -2       502       626       627      2689      2693      2691
 -1      1118    8    0    1
 -2       504       503       628      2300      2694      2695
 -1      1119    8    0    1
 -2       503       627       628      2692      2696      2694
 -1      1120    8    0    1
 -2       505       504       629      2303      2697      2698
 -1      1121    8    0    1
 -2       504       628       629      2695      2699      2697
 -1      1122    8    0    1
 -2       506       505       630      2306      2700      2701
 -1      1123    8    0    1
 -2       505       629       630      2698      2702      2700
 -1      1124    8    0    1
 -2       507       506       631      2309      2703      2704
 -1      1125    8    0    1
 -2       506       630       631      2701      2705      2703
 -1      1126    8    0    1
 -2       508       507       632      2312      2706      2707
 -1      1127    8    0    1
 -2       507       631       632      2704      2708      2706
 -1      1128    8    0    1
 -2       509       508       633      2315      2709      2710
 -1      1129    8    0    1
 -2       508       632       633      2707      2711      2709
 -1      1130    8    0    1
 -2       510       509       634      2318      2712      2713
 -1      1131    8    0    1
 -2       509       633       634      2710      2714      2712
 -1      1132    8    0    1
 -2       511       510       635      2321      2715      2716
 -1      1133    8    0    1
 -2       510       634       635      2713      2717      2715
 -1      1134    8    0    1
 -2       512       511       636      2324      2718      2719
 -1      1135    8    0    1
 -2       511       635       636      2716      2720      2718
 -1      1136    8    0    1
 -2       513       512       637      2327      2721      2722
 -1      1137    8    0    1
 -2       512       636       637      2719      2723      2721
 -1      1138    8    0    1
 -2       514       513       638      2330      2724      2725
 -1      1139    8    0    1
 -2       513       637       638      2722      2726      2724
 -1      1140    8    0    1
 -2       515       514       639      2333      2727      2728
 -1      1141    8    0    1
 -2       514       638       639      2725      2729      2727
 -1      1142    8    0    1
 -2       516       515       640      2336      2730      2731
 -1      1143    8    0    1
 -2       515       639       640      2728      2732      2730
 -1      1144    8    0    1
 -2       517       516       641      2339      2733      2734
 -1      1145    8    0    1
 -2       516       640       641      2731      2735      2733
 -1      1146    8    0    1
 -2       518       517       642      2342      2736      2737
 -1      1147    8    0    1
 -2       517       641       642      2734      2738      2736
 -1      1148    8    0    1
 -2       519       518       643      2345      2739      2740
 -1      1149    8    0    1
 -2       518       642       643      2737      2741      2739
 -1      1150    8    0    1
 -2       520       519       644      2348      2742      2743
 -1      1151    8    0    1
 -2       519       643       644      2740      2744      2742
 -1      1152    8    0    1
 -2       521       520       645      2351      2745      2746
 -1      1153    8    0    1
 -2       520       644       645      2743      2747      2745
 -1      1154    8    0    1
 -2       522       521       646      2354      2748      2749
 -1      1155    8    0    1
 -2       521       645       646      2746      2750      2748
 -1      1156    8    0    1
 -2       523       522       647      2357      2751      2752
 -1      1157    8    0    1
 -2       522       646       647      2749      2753      2751
 -1      1158    8    0    1
 -2       524       523       648      2360      2754      2755
 -1      1159    8    0    1
 -2       523       647       648      2752      2756      2754
 -1      1160    8    0    1
 -2       525       524       649      2363      2757      2758
 -1      1161    8    0    1
 -2       524       648       649      2755      2759      2757
 -1      1162    8    0    1
 -2       526       525       650      2366      2760      2761
 -1      1163    8    0    1
 -2       525       649       650      2758      2762      2760
 -1      1164    8    0    1
 -2       527       526       651      2369      2763      2764
 -1      1165    8    0    1
 -2       526       650       651      2761      2765      2763
 -1      1166    8    0    1
 -2       528       527       652      2372      2766      2767
 -1      1167    8    0    1
 -2       527       651       652      2764      2768      2766
 -1      1168    8    0    1
 -2       529       528       653      2375      2769      2770
 -1      1169    8    0    1
 -2       528       652       653      2767      2771      2769
 -1      1170    8    0    1
 -2       530       529       654      2378      2772      2773
 -1      1171    8    0    1
 -2       529       653       654      2770      2774      2772
 -1      1172    8    0    1
 -2       531       530       655      2381      2775      2776
 -1      1173    8    0    1
 -2       530       654       655      2773      2777      2775
 -1      1174    8    0    1
 -2       532       531       656      2384      2778      2779
 -1      1175    8    0    1
 -2       531       655       656      2776      2780      2778
 -1      1176    8    0    1
 -2       533       532       657      2387      2781      2782
 -1      1177    8    0    1
 -2       532       656       657      2779      2783      2781
 -1      1178    8    0    1
 -2       534       533       658      2390      2784      2785
 -1      1179    8    0    1
 -2       533       657       658      2782      2786      2784
 -1      1180    8    0    1
 -2       536       537       659      2398      2787      2788
 -1      1181    8    0    1
 -2       537       616       659      2660      2789      2787
 -1      1182    8    0    1
 -2       573       574       586      2609      2790      2791
 -1      1183    8    0    1
 -2       535       536       660      2395      2792      2793
 -1      1184    8    0    1
 -2       536       659       660      2788      2794      2792
 -1      1185    8    0    1
 -2       538       539       661      2404      2795      2796
 -1      1186    8    0    1
 -2       538       661       616      2796      2797      2659
 -1      1187    8    0    1
 -2       539       540       662      2407      2798      2799
 -1      1188    8    0    1
 -2       539       662       661      2799      2800      2795
 -1      1189    8    0    1
 -2       540       541       663      2410      2801      2802
 -1      1190    8    0    1
 -2       540       663       662      2802      2803      2798
 -1      1191    8    0    1
 -2       541       542       664      2413      2804      2805
 -1      1192    8    0    1
 -2       541       664       663      2805      2806      2801
 -1      1193    8    0    1
 -2       542       543       665      2416      2807      2808
 -1      1194    8    0    1
 -2       542       665       664      2808      2809      2804
 -1      1195    8    0    1
 -2       543       544       666      2419      2810      2811
 -1      1196    8    0    1
 -2       543       666       665      2811      2812      2807
 -1      1197    8    0    1
 -2       544       545       667      2422      2813      2814
 -1      1198    8    0    1
 -2       544       667       666      2814      2815      2810
 -1      1199    8    0    1
 -2       545       546       668      2425      2816      2817
 -1      1200    8    0    1
 -2       545       668       667      2817      2818      2813
 -1      1201    8    0    1
 -2       546       547       669      2428      2819      2820
 -1      1202    8    0    1
 -2       546       669       668      2820      2821      2816
 -1      1203    8    0    1
 -2       547       548       670      2431      2822      2823
 -1      1204    8    0    1
 -2       547       670       669      2823      2824      2819
 -1      1205    8    0    1
 -2       548       549       671      2434      2825      2826
 -1      1206    8    0    1
 -2       548       671       670      2826      2827      2822
 -1      1207    8    0    1
 -2       549       550       672      2437      2828      2829
 -1      1208    8    0    1
 -2       549       672       671      2829      2830      2825
 -1      1209    8    0    1
 -2       550       551       673      2440      2831      2832
 -1      1210    8    0    1
 -2       550       673       672      2832      2833      2828
 -1      1211    8    0    1
 -2       551       552       674      2443      2834      2835
 -1      1212    8    0    1
 -2       551       674       673      2835      2836      2831
 -1      1213    8    0    1
 -2       552       553       675      2446      2837      2838
 -1      1214    8    0    1
 -2       552       675       674      2838      2839      2834
 -1      1215    8    0    1
 -2       553       554       676      2449      2840      2841
 -1      1216    8    0    1
 -2       553       676       675      2841      2842      2837
 -1      1217    8    0    1
 -2       554       555       677      2452      2843      2844
 -1      1218    8    0    1
 -2       554       677       676      2844      2845      2840
 -1      1219    8    0    1
 -2       555       556       678      2455      2846      2847
 -1      1220    8    0    1
 -2       555       678       677      2847      2848      2843
 -1      1221    8    0    1
 -2       556       557       679      2458      2849      2850
 -1      1222    8    0    1
 -2       556       679       678      2850      2851      2846
 -1      1223    8    0    1
 -2       557       558       680      2461      2852      2853
 -1      1224    8    0    1
 -2       557       680       679      2853      2854      2849
 -1      1225    8    0    1
 -2       558       559       681      2464      2855      2856
 -1      1226    8    0    1
 -2       558       681       680      2856      2857      2852
 -1      1227    8    0    1
 -2       559       560       682      2467      2858      2859
 -1      1228    8    0    1
 -2       559       682       681      2859      2860      2855
 -1      1229    8    0    1
 -2       560       561       683      2470      2861      2862
 -1      1230    8    0    1
 -2       560       683       682      2862      2863      2858
 -1      1231    8    0    1
 -2       561       562       684      2473      2864      2865
 -1      1232    8    0    1
 -2       561       684       683      2865      2866      2861
 -1      1233    8    0    1
 -2       562       563       685      2476      2867      2868
 -1      1234    8    0    1
 -2       562       685       684      2868      2869      2864
 -1      1235    8    0    1
 -2       563       564       686      2479      2870      2871
 -1      1236    8    0    1
 -2       563       686       685      2871      2872      2867
 -1      1237    8    0    1
 -2       564       565       687      2482      2873      2874
 -1      1238    8    0    1
 -2       564       687       686      2874      2875      2870
 -1      1239    8    0    1
 -2       565       566       688      2485      2876      2877
 -1      1240    8    0    1
 -2       565       688       687      2877      2878      2873
 -1      1241    8    0    1
 -2       566       567       689      2488      2879      2880
 -1      1242    8    0    1
 -2       566       689       688      2880      2881      2876
 -1      1243    8    0    1
 -2       567       568       690      2491      2882      2883
 -1      1244    8    0    1
 -2       567       690       689      2883      2884      2879
 -1      1245    8    0    1
 -2       568       569       691      2494      2885      2886
 -1      1246    8    0    1
 -2       690       568       691      2882      2886      2887
 -1      1247    8    0    1
 -2       569       605       691      2620      2888      2885
 -1      1248    8    0    1
 -2       599       601       575      2602      2889      2890
 -1      1249    8    0    1
 -2       588       598       692      2590      2891      2892
 -1      1250    8    0    1
 -2       574       575       601      2614      2889      2893
 -1      1251    8    0    1
 -2       575       576       599      2615      2894      2890
 -1      1252    8    0    1
 -2       576       577       693      2520      2895      2896
 -1      1253    8    0    1
 -2       579       580       694      2529      2897      2898
 -1      1254    8    0    1
 -2       491       453       603      2597      2593      2899
 -1      1255    8    0    1
 -2       600       479       487      2581      2900      2627
 -1      1256    8    0    1
 -2       597       588       695      2573      2901      2902
 -1      1257    8    0    1
 -2       588       692       695      2892      2903      2901
 -1      1258    8    0    1
 -2       583       535       696      2537      2904      2905
 -1      1259    8    0    1
 -2       535       660       696      2793      2906      2904
 -1      1260    8    0    1
 -2       578       579       697      2526      2907      2908
 -1      1261    8    0    1
 -2       579       694       697      2898      2909      2907
 -1      1262    8    0    1
 -2       577       578       698      2523      2910      2911
 -1      1263    8    0    1
 -2       693       577       698      2895      2911      2912
 -1      1264    8    0    1
 -2       578       697       698      2908      2913      2910
 -1      1265    8    0    1
 -2       595       585       699      2624      2914      2915
 -1      1266    8    0    1
 -2       586       341       700      2545      2916      2917
 -1      1267    8    0    1
 -2       341       452       700      2138      2918      2916
 -1      1268    8    0    1
 -2       452       447       700      2139      2919      2918
 -1      1269    8    0    1
 -2       489       451       608      2253      2641      2920
 -1      1270    8    0    1
 -2       484       485       701      2244      2921      2922
 -1      1271    8    0    1
 -2       610       484       701      2645      2922      2923
 -1      1272    8    0    1
 -2       485       612       701      2651      2924      2921
 -1      1273    8    0    1
 -2       581       604       702      2607      2925      2926
 -1      1274    8    0    1
 -2       580       581       702      2532      2926      2927
 -1      1275    8    0    1
 -2       604       534       702      2638      2928      2925
 -1      1276    8    0    1
 -2       481       480       703      2233      2929      2930
 -1      1277    8    0    1
 -2       490       583       704      2622      2931      2932
 -1      1278    8    0    1
 -2       615       490       704      2657      2932      2933
 -1      1279    8    0    1
 -2       583       696       704      2905      2934      2931
 -1      1280    8    0    1
 -2       585       596       705      2634      2935      2936
 -1      1281    8    0    1
 -2       590       591       706      2633      2937      2938
 -1      1282    8    0    1
 -2       591       592       707      2632      2939      2940
 -1      1283    8    0    1
 -2       593       594       708      2566      2941      2942
 -1      1284    8    0    1
 -2       596       597       709      2625      2943      2944
 -1      1285    8    0    1
 -2       594       595       710      2626      2945      2946
 -1      1286    8    0    1
 -2       594       710       708      2946      2947      2941
 -1      1287    8    0    1
 -2       592       593       711      2631      2948      2949
 -1      1288    8    0    1
 -2       603       481       712      2591      2950      2951
 -1      1289    8    0    1
 -2       481       703       712      2930      2952      2950
 -1      1290    8    0    1
 -2       482       611       713      2648      2953      2954
 -1      1291    8    0    1
 -2       482       713       587      2954      2955      2551
 -1      1292    8    0    1
 -2       534       658       702      2785      2956      2928
 -1      1293    8    0    1
 -2       488       491       714      2260      2957      2958
 -1      1294    8    0    1
 -2       586       574       584      2790      2959      2547
 -1      1295    8    0    1
 -2       595       699       710      2915      2960      2945
 -1      1296    8    0    1
 -2       599       576       606      2894      2961      2630
 -1      1297    8    0    1
 -2       692       598       715      2891      2962      2963
 -1      1298    8    0    1
 -2       598       609       715      2643      2964      2962
 -1      1299    8    0    1
 -2       585       705       699      2936      2965      2914
 -1      1300    8    0    1
 -2       574       601       584      2893      2585      2959
 -1      1301    8    0    1
 -2       609       478       693      2644      2966      2967
 -1      1302    8    0    1
 -2       434       572       582      2506      2616      2968
 -1      1303    8    0    1
 -2       694       580       702      2897      2927      2969
 -1      1304    8    0    1
 -2       597       695       709      2902      2970      2943
 -1      1305    8    0    1
 -2       480       587       716      2550      2971      2972
 -1      1306    8    0    1
 -2       703       480       716      2929      2972      2973
 -1      1307    8    0    1
 -2       587       713       716      2955      2974      2971
 -1      1308    8    0    1
 -2       613       487       615      2652      2975      2976
 -1      1309    8    0    1
 -2       592       711       707      2949      2977      2939
 -1      1310    8    0    1
 -2       605       589       691      2639      2978      2888
 -1      1311    8    0    1
 -2       607       590       706      2637      2938      2979
 -1      1312    8    0    1
 -2       706       591       707      2937      2940      2980
 -1      1313    8    0    1
 -2       593       708       711      2942      2981      2948
 -1      1314    8    0    1
 -2       596       709       705      2944      2982      2935
 -1      1315    8    0    1
 -2       487       479       615      2900      2658      2975
 -1      1316    8    0    1
 -2       488       714       614      2958      2983      2655
 -1      1317    8    0    1
 -2       714       491       603      2957      2899      2984
 -1      1318    8    0    1
 -2       612       613       717      2654      2985      2986
 -1      1319    8    0    1
 -2       714       603       712      2984      2951      2987
 -1      1320    8    0    1
 -2       478       606       693      2629      2988      2966
 -1      1321    8    0    1
 -2       573       586       700      2791      2917      2989
 -1      1322    8    0    1
 -2       616       661       718      2797      2990      2991
 -1      1323    8    0    1
 -2       609       693       719      2967      2992      2993
 -1      1324    8    0    1
 -2       715       609       719      2964      2993      2994
 -1      1325    8    0    1
 -2       693       698       719      2912      2995      2992
 -1      1326    8    0    1
 -2       447       573       700      2613      2989      2919
 -1      1327    8    0    1
 -2       618       617       720      2666      2996      2997
 -1      1328    8    0    1
 -2       619       618       721      2669      2998      2999
 -1      1329    8    0    1
 -2       618       720       721      2997      3000      2998
 -1      1330    8    0    1
 -2       620       619       722      2672      3001      3002
 -1      1331    8    0    1
 -2       619       721       722      2999      3003      3001
 -1      1332    8    0    1
 -2       621       620       723      2675      3004      3005
 -1      1333    8    0    1
 -2       620       722       723      3002      3006      3004
 -1      1334    8    0    1
 -2       622       621       724      2678      3007      3008
 -1      1335    8    0    1
 -2       621       723       724      3005      3009      3007
 -1      1336    8    0    1
 -2       623       622       725      2681      3010      3011
 -1      1337    8    0    1
 -2       622       724       725      3008      3012      3010
 -1      1338    8    0    1
 -2       624       623       726      2684      3013      3014
 -1      1339    8    0    1
 -2       623       725       726      3011      3015      3013
 -1      1340    8    0    1
 -2       625       624       727      2687      3016      3017
 -1      1341    8    0    1
 -2       624       726       727      3014      3018      3016
 -1      1342    8    0    1
 -2       626       625       728      2690      3019      3020
 -1      1343    8    0    1
 -2       625       727       728      3017      3021      3019
 -1      1344    8    0    1
 -2       627       626       729      2693      3022      3023
 -1      1345    8    0    1
 -2       626       728       729      3020      3024      3022
 -1      1346    8    0    1
 -2       628       627       730      2696      3025      3026
 -1      1347    8    0    1
 -2       627       729       730      3023      3027      3025
 -1      1348    8    0    1
 -2       629       628       731      2699      3028      3029
 -1      1349    8    0    1
 -2       628       730       731      3026      3030      3028
 -1      1350    8    0    1
 -2       630       629       732      2702      3031      3032
 -1      1351    8    0    1
 -2       629       731       732      3029      3033      3031
 -1      1352    8    0    1
 -2       631       630       733      2705      3034      3035
 -1      1353    8    0    1
 -2       630       732       733      3032      3036      3034
 -1      1354    8    0    1
 -2       632       631       734      2708      3037      3038
 -1      1355    8    0    1
 -2       631       733       734      3035      3039      3037
 -1      1356    8    0    1
 -2       633       632       735      2711      3040      3041
 -1      1357    8    0    1
 -2       632       734       735      3038      3042      3040
 -1      1358    8    0    1
 -2       634       633       736      2714      3043      3044
 -1      1359    8    0    1
 -2       633       735       736      3041      3045      3043
 -1      1360    8    0    1
 -2       635       634       737      2717      3046      3047
 -1      1361    8    0    1
 -2       634       736       737      3044      3048      3046
 -1      1362    8    0    1
 -2       636       635       738      2720      3049      3050
 -1      1363    8    0    1
 -2       635       737       738      3047      3051      3049
 -1      1364    8    0    1
 -2       637       636       739      2723      3052      3053
 -1      1365    8    0    1
 -2       636       738       739      3050      3054      3052
 -1      1366    8    0    1
 -2       638       637       740      2726      3055      3056
 -1      1367    8    0    1
 -2       637       739       740      3053      3057      3055
 -1      1368    8    0    1
 -2       639       638       741      2729      3058      3059
 -1      1369    8    0    1
 -2       638       740       741      3056      3060      3058
 -1      1370    8    0    1
 -2       640       639       742      2732      3061      3062
 -1      1371    8    0    1
 -2       639       741       742      3059      3063      3061
 -1      1372    8    0    1
 -2       641       640       743      2735      3064      3065
 -1      1373    8    0    1
 -2       640       742       743      3062      3066      3064
 -1      1374    8    0    1
 -2       642       641       744      2738      3067      3068
 -1      1375    8    0    1
 -2       641       743       744      3065      3069      3067
 -1      1376    8    0    1
 -2       643       642       745      2741      3070      3071
 -1      1377    8    0    1
 -2       642       744       745      3068      3072      3070
 -1      1378    8    0    1
 -2       644       643       746      2744      3073      3074
 -1      1379    8    0    1
 -2       643       745       746      3071      3075      3073
 -1      1380    8    0    1
 -2       645       644       747      2747      3076      3077
 -1      1381    8    0    1
 -2       644       746       747      3074      3078      3076
 -1      1382    8    0    1
 -2       646       645       748      2750      3079      3080
 -1      1383    8    0    1
 -2       645       747       748      3077      3081      3079
 -1      1384    8    0    1
 -2       647       646       749      2753      3082      3083
 -1      1385    8    0    1
 -2       646       748       749      3080      3084      3082
 -1      1386    8    0    1
 -2       648       647       750      2756      3085      3086
 -1      1387    8    0    1
 -2       647       749       750      3083      3087      3085
 -1      1388    8    0    1
 -2       649       648       751      2759      3088      3089
 -1      1389    8    0    1
 -2       648       750       751      3086      3090      3088
 -1      1390    8    0    1
 -2       650       649       752      2762      3091      3092
 -1      1391    8    0    1
 -2       649       751       752      3089      3093      3091
 -1      1392    8    0    1
 -2       651       650       753      2765      3094      3095
 -1      1393    8    0    1
 -2       650       752       753      3092      3096      3094
 -1      1394    8    0    1
 -2       652       651       754      2768      3097      3098
 -1      1395    8    0    1
 -2       651       753       754      3095      3099      3097
 -1      1396    8    0    1
 -2       653       652       755      2771      3100      3101
 -1      1397    8    0    1
 -2       652       754       755      3098      3102      3100
 -1      1398    8    0    1
 -2       654       653       756      2774      3103      3104
 -1      1399    8    0    1
 -2       653       755       756      3101      3105      3103
 -1      1400    8    0    1
 -2       655       654       757      2777      3106      3107
 -1      1401    8    0    1
 -2       654       756       757      3104      3108      3106
 -1      1402    8    0    1
 -2       656       655       758      2780      3109      3110
 -1      1403    8    0    1
 -2       655       757       758      3107      3111      3109
 -1      1404    8    0    1
 -2       657       656       759      2783      3112      3113
 -1      1405    8    0    1
 -2       656       758       759      3110      3114      3112
 -1      1406    8    0    1
 -2       658       657       760      2786      3115      3116
 -1      1407    8    0    1
 -2       657       759       760      3113      3117      3115
 -1      1408    8    0    1
 -2       659       616       761      2789      3118      3119
 -1      1409    8    0    1
 -2       616       718       761      2991      3120      3118
 -1      1410    8    0    1
 -2       662       663       762      2803      3121      3122
 -1      1411    8    0    1
 -2       663       664       763      2806      3123      3124
 -1      1412    8    0    1
 -2       663       763       762      3124      3125      3121
 -1      1413    8    0    1
 -2       664       665       764      2809      3126      3127
 -1      1414    8    0    1
 -2       664       764       763      3127      3128      3123
 -1      1415    8    0    1
 -2       665       666       765      2812      3129      3130
 -1      1416    8    0    1
 -2       665       765       764      3130      3131      3126
 -1      1417    8    0    1
 -2       666       667       766      2815      3132      3133
 -1      1418    8    0    1
 -2       666       766       765      3133      3134      3129
 -1      1419    8    0    1
 -2       667       668       767      2818      3135      3136
 -1      1420    8    0    1
 -2       667       767       766      3136      3137      3132
 -1      1421    8    0    1
 -2       668       669       768      2821      3138      3139
 -1      1422    8    0    1
 -2       668       768       767      3139      3140      3135
 -1      1423    8    0    1
 -2       669       670       769      2824      3141      3142
 -1      1424    8    0    1
 -2       669       769       768      3142      3143      3138
 -1      1425    8    0    1
 -2       670       671       770      2827      3144      3145
 -1      1426    8    0    1
 -2       670       770       769      3145      3146      3141
 -1      1427    8    0    1
 -2       671       672       771      2830      3147      3148
 -1      1428    8    0    1
 -2       671       771       770      3148      3149      3144
 -1      1429    8    0    1
 -2       672       673       772      2833      3150      3151
 -1      1430    8    0    1
 -2       672       772       771      3151      3152      3147
 -1      1431    8    0    1
 -2       673       674       773      2836      3153      3154
 -1      1432    8    0    1
 -2       673       773       772      3154      3155      3150
 -1      1433    8    0    1
 -2       674       675       774      2839      3156      3157
 -1      1434    8    0    1
 -2       674       774       773      3157      3158      3153
 -1      1435    8    0    1
 -2       675       676       775      2842      3159      3160
 -1      1436    8    0    1
 -2       675       775       774      3160      3161      3156
 -1      1437    8    0    1
 -2       676       677       776      2845      3162      3163
 -1      1438    8    0    1
 -2       676       776       775      3163      3164      3159
 -1      1439    8    0    1
 -2       677       678       777      2848      3165      3166
 -1      1440    8    0    1
 -2       677       777       776      3166      3167      3162
 -1      1441    8    0    1
 -2       678       679       778      2851      3168      3169
 -1      1442    8    0    1
 -2       678       778       777      3169      3170      3165
 -1      1443    8    0    1
 -2       679       680       779      2854      3171      3172
 -1      1444    8    0    1
 -2       679       779       778      3172      3173      3168
 -1      1445    8    0    1
 -2       680       681       780      2857      3174      3175
 -1      1446    8    0    1
 -2       680       780       779      3175      3176      3171
 -1      1447    8    0    1
 -2       681       682       781      2860      3177      3178
 -1      1448    8    0    1
 -2       681       781       780      3178      3179      3174
 -1      1449    8    0    1
 -2       682       683       782      2863      3180      3181
 -1      1450    8    0    1
 -2       682       782       781      3181      3182      3177
 -1      1451    8    0    1
 -2       683       684       783      2866      3183      3184
 -1      1452    8    0    1
 -2       683       783       782      3184      3185      3180
 -1      1453    8    0    1
 -2       684       685       784      2869      3186      3187
 -1      1454    8    0    1
 -2       684       784       783      3187      3188      3183
 -1      1455    8    0    1
 -2       685       686       785      2872      3189      3190
 -1      1456    8    0    1
 -2       685       785       784      3190      3191      3186
 -1      1457    8    0    1
 -2       686       687       786      2875      3192      3193
 -1      1458    8    0    1
 -2       686       786       785      3193      3194      3189
 -1      1459    8    0    1
 -2       687       688       787      2878      3195      3196
 -1      1460    8    0    1
 -2       687       787       786      3196      3197      3192
 -1      1461    8    0    1
 -2       688       689       788      2881      3198      3199
 -1      1462    8    0    1
 -2       688       788       787      3199      3200      3195
 -1      1463    8    0    1
 -2       689       690       789      2884      3201      3202
 -1      1464    8    0    1
 -2       689       789       788      3202      3203      3198
 -1      1465    8    0    1
 -2       607       706       790      2979      3204      3205
 -1      1466    8    0    1
 -2       489       434       582      2610      2968      2596
 -1      1467    8    0    1
 -2       661       662       791      2800      3206      3207
 -1      1468    8    0    1
 -2       662       762       791      3122      3208      3206
 -1      1469    8    0    1
 -2       694       702       658      2969      2956      3209
 -1      1470    8    0    1
 -2       576       693       606      2896      2988      2961
 -1      1471    8    0    1
 -2       695       692       792      2903      3210      3211
 -1      1472    8    0    1
 -2       696       660       793      2906      3212      3213
 -1      1473    8    0    1
 -2       697       694       794      2909      3214      3215
 -1      1474    8    0    1
 -2       617       614       795      2663      3216      3217
 -1      1475    8    0    1
 -2       617       795       720      3217      3218      2996
 -1      1476    8    0    1
 -2       431       489       608      2611      2920      3219
 -1      1477    8    0    1
 -2       694       658       760      3209      3116      3220
 -1      1478    8    0    1
 -2       707       711       796      2977      3221      3222
 -1      1479    8    0    1
 -2       611       610       797      2649      3223      3224
 -1      1480    8    0    1
 -2       699       705       798      2965      3225      3226
 -1      1481    8    0    1
 -2       710       699       799      2960      3227      3228
 -1      1482    8    0    1
 -2       691       589       607      2978      2636      3229
 -1      1483    8    0    1
 -2       613       615       800      2976      3230      3231
 -1      1484    8    0    1
 -2       717       613       800      2985      3231      3232
 -1      1485    8    0    1
 -2       615       704       800      2933      3233      3230
 -1      1486    8    0    1
 -2       706       707       801      2980      3234      3235
 -1      1487    8    0    1
 -2       711       708       802      2981      3236      3237
 -1      1488    8    0    1
 -2       708       710       803      2947      3238      3239
 -1      1489    8    0    1
 -2       660       659       804      2794      3240      3241
 -1      1490    8    0    1
 -2       660       804       793      3241      3242      3212
 -1      1491    8    0    1
 -2       705       709       805      2982      3243      3244
 -1      1492    8    0    1
 -2       477       431       608      2226      3219      2640
 -1      1493    8    0    1
 -2       709       695       806      2970      3245      3246
 -1      1494    8    0    1
 -2       691       607       790      3229      3205      3247
 -1      1495    8    0    1
 -2       713       611       807      2953      3248      3249
 -1      1496    8    0    1
 -2       611       797       807      3224      3250      3248
 -1      1497    8    0    1
 -2       801       707       796      3234      3222      3251
 -1      1498    8    0    1
 -2       718       661       791      2990      3207      3252
 -1      1499    8    0    1
 -2       659       761       804      3119      3253      3240
 -1      1500    8    0    1
 -2       789       690       801      3201      3254      3255
 -1      1501    8    0    1
 -2       690       691       790      2887      3247      3256
 -1      1502    8    0    1
 -2       803       710       799      3238      3228      3257
 -1      1503    8    0    1
 -2       799       699       808      3227      3258      3259
 -1      1504    8    0    1
 -2       699       798       808      3226      3260      3258
 -1      1505    8    0    1
 -2       709       806       805      3246      3261      3243
 -1      1506    8    0    1
 -2       612       717       809      2986      3262      3263
 -1      1507    8    0    1
 -2       612       809       701      3263      3264      2924
 -1      1508    8    0    1
 -2       614       714       712      2983      2987      3265
 -1      1509    8    0    1
 -2       705       805       798      3244      3266      3225
 -1      1510    8    0    1
 -2       695       792       806      3211      3267      3245
 -1      1511    8    0    1
 -2       692       715       810      2963      3268      3269
 -1      1512    8    0    1
 -2       692       810       792      3269      3270      3210
 -1      1513    8    0    1
 -2       712       703       811      2952      3271      3272
 -1      1514    8    0    1
 -2       698       697       812      2913      3273      3274
 -1      1515    8    0    1
 -2       719       698       812      2995      3274      3275
 -1      1516    8    0    1
 -2       697       794       812      3215      3276      3273
 -1      1517    8    0    1
 -2       797       610       813      3223      3277      3278
 -1      1518    8    0    1
 -2       610       701       813      2923      3279      3277
 -1      1519    8    0    1
 -2       796       711       802      3221      3237      3280
 -1      1520    8    0    1
 -2       694       760       794      3220      3281      3214
 -1      1521    8    0    1
 -2       703       716       814      2973      3282      3283
 -1      1522    8    0    1
 -2       703       814       811      3283      3284      3271
 -1      1523    8    0    1
 -2       614       712       795      3265      3285      3216
 -1      1524    8    0    1
 -2       704       696       815      2934      3286      3287
 -1      1525    8    0    1
 -2       800       704       815      3233      3287      3288
 -1      1526    8    0    1
 -2       696       793       815      3213      3289      3286
 -1      1527    8    0    1
 -2       802       708       803      3236      3239      3290
 -1      1528    8    0    1
 -2       798       805       816      3266      3291      3292
 -1      1529    8    0    1
 -2       721       720       817      3000      3293      3294
 -1      1530    8    0    1
 -2       801       690       790      3254      3256      3295
 -1      1531    8    0    1
 -2       722       721       818      3003      3296      3297
 -1      1532    8    0    1
 -2       721       817       818      3294      3298      3296
 -1      1533    8    0    1
 -2       723       722       819      3006      3299      3300
 -1      1534    8    0    1
 -2       722       818       819      3297      3301      3299
 -1      1535    8    0    1
 -2       724       723       820      3009      3302      3303
 -1      1536    8    0    1
 -2       723       819       820      3300      3304      3302
 -1      1537    8    0    1
 -2       725       724       821      3012      3305      3306
 -1      1538    8    0    1
 -2       724       820       821      3303      3307      3305
 -1      1539    8    0    1
 -2       726       725       822      3015      3308      3309
 -1      1540    8    0    1
 -2       725       821       822      3306      3310      3308
 -1      1541    8    0    1
 -2       727       726       823      3018      3311      3312
 -1      1542    8    0    1
 -2       726       822       823      3309      3313      3311
 -1      1543    8    0    1
 -2       728       727       824      3021      3314      3315
 -1      1544    8    0    1
 -2       727       823       824      3312      3316      3314
 -1      1545    8    0    1
 -2       729       728       825      3024      3317      3318
 -1      1546    8    0    1
 -2       728       824       825      3315      3319      3317
 -1      1547    8    0    1
 -2       730       729       826      3027      3320      3321
 -1      1548    8    0    1
 -2       729       825       826      3318      3322      3320
 -1      1549    8    0    1
 -2       731       730       827      3030      3323      3324
 -1      1550    8    0    1
 -2       730       826       827      3321      3325      3323
 -1      1551    8    0    1
 -2       732       731       828      3033      3326      3327
 -1      1552    8    0    1
 -2       731       827       828      3324      3328      3326
 -1      1553    8    0    1
 -2       733       732       829      3036      3329      3330
 -1      1554    8    0    1
 -2       732       828       829      3327      3331      3329
 -1      1555    8    0    1
 -2       734       733       830      3039      3332      3333
 -1      1556    8    0    1
 -2       733       829       830      3330      3334      3332
 -1      1557    8    0    1
 -2       735       734       831      3042      3335      3336
 -1      1558    8    0    1
 -2       734       830       831      3333      3337      3335
 -1      1559    8    0    1
 -2       736       735       832      3045      3338      3339
 -1      1560    8    0    1
 -2       735       831       832      3336      3340      3338
 -1      1561    8    0    1
 -2       737       736       833      3048      3341      3342
 -1      1562    8    0    1
 -2       736       832       833      3339      3343      3341
 -1      1563    8    0    1
 -2       738       737       834      3051      3344      3345
 -1      1564    8    0    1
 -2       737       833       834      3342      3346      3344
 -1      1565    8    0    1
 -2       739       738       835      3054      3347      3348
 -1      1566    8    0    1
 -2       738       834       835      3345      3349      3347
 -1      1567    8    0    1
 -2       740       739       836      3057      3350      3351
 -1      1568    8    0    1
 -2       739       835       836      3348      3352      3350
 -1      1569    8    0    1
 -2       741       740       837      3060      3353      3354
 -1      1570    8    0    1
 -2       740       836       837      3351      3355      3353
 -1      1571    8    0    1
 -2       742       741       838      3063      3356      3357
 -1      1572    8    0    1
 -2       741       837       838      3354      3358      3356
 -1      1573    8    0    1
 -2       743       742       839      3066      3359      3360
 -1      1574    8    0    1
 -2       742       838       839      3357      3361      3359
 -1      1575    8    0    1
 -2       744       743       840      3069      3362      3363
 -1      1576    8    0    1
 -2       743       839       840      3360      3364      3362
 -1      1577    8    0    1
 -2       745       744       841      3072      3365      3366
 -1      1578    8    0    1
 -2       744       840       841      3363      3367      3365
 -1      1579    8    0    1
 -2       746       745       842      3075      3368      3369
 -1      1580    8    0    1
 -2       745       841       842      3366      3370      3368
 -1      1581    8    0    1
 -2       747       746       843      3078      3371      3372
 -1      1582    8    0    1
 -2       746       842       843      3369      3373      3371
 -1      1583    8    0    1
 -2       748       747       844      3081      3374      3375
 -1      1584    8    0    1
 -2       747       843       844      3372      3376      3374
 -1      1585    8    0    1
 -2       749       748       845      3084      3377      3378
 -1      1586    8    0    1
 -2       748       844       845      3375      3379      3377
 -1      1587    8    0    1
 -2       750       749       846      3087      3380      3381
 -1      1588    8    0    1
 -2       749       845       846      3378      3382      3380
 -1      1589    8    0    1
 -2       751       750       847      3090      3383      3384
 -1      1590    8    0    1
 -2       750       846       847      3381      3385      3383
 -1      1591    8    0    1
 -2       752       751       848      3093      3386      3387
 -1      1592    8    0    1
 -2       751       847       848      3384      3388      3386
 -1      1593    8    0    1
 -2       753       752       849      3096      3389      3390
 -1      1594    8    0    1
 -2       752       848       849      3387      3391      3389
 -1      1595    8    0    1
 -2       754       753       850      3099      3392      3393
 -1      1596    8    0    1
 -2       753       849       850      3390      3394      3392
 -1      1597    8    0    1
 -2       755       754       851      3102      3395      3396
 -1      1598    8    0    1
 -2       754       850       851      3393      3397      3395
 -1      1599    8    0    1
 -2       756       755       852      3105      3398      3399
 -1      1600    8    0    1
 -2       755       851       852      3396      3400      3398
 -1      1601    8    0    1
 -2       757       756       853      3108      3401      3402
 -1      1602    8    0    1
 -2       756       852       853      3399      3403      3401
 -1      1603    8    0    1
 -2       758       757       854      3111      3404      3405
 -1      1604    8    0    1
 -2       757       853       854      3402      3406      3404
 -1      1605    8    0    1
 -2       759       758       855      3114      3407      3408
 -1      1606    8    0    1
 -2       758       854       855      3405      3409      3407
 -1      1607    8    0    1
 -2       760       759       856      3117      3410      3411
 -1      1608    8    0    1
 -2       794       760       856      3281      3411      3412
 -1      1609    8    0    1
 -2       759       855       856      3408      3413      3410
 -1      1610    8    0    1
 -2       761       718       857      3120      3414      3415
 -1      1611    8    0    1
 -2       763       764       858      3128      3416      3417
 -1      1612    8    0    1
 -2       762       763       859      3125      3418      3419
 -1      1613    8    0    1
 -2       763       858       859      3417      3420      3418
 -1      1614    8    0    1
 -2       765       766       860      3134      3421      3422
 -1      1615    8    0    1
 -2       766       767       861      3137      3423      3424
 -1      1616    8    0    1
 -2       766       861       860      3424      3425      3421
 -1      1617    8    0    1
 -2       767       768       862      3140      3426      3427
 -1      1618    8    0    1
 -2       767       862       861      3427      3428      3423
 -1      1619    8    0    1
 -2       768       769       863      3143      3429      3430
 -1      1620    8    0    1
 -2       768       863       862      3430      3431      3426
 -1      1621    8    0    1
 -2       769       770       864      3146      3432      3433
 -1      1622    8    0    1
 -2       769       864       863      3433      3434      3429
 -1      1623    8    0    1
 -2       770       771       865      3149      3435      3436
 -1      1624    8    0    1
 -2       770       865       864      3436      3437      3432
 -1      1625    8    0    1
 -2       771       772       866      3152      3438      3439
 -1      1626    8    0    1
 -2       771       866       865      3439      3440      3435
 -1      1627    8    0    1
 -2       772       773       867      3155      3441      3442
 -1      1628    8    0    1
 -2       772       867       866      3442      3443      3438
 -1      1629    8    0    1
 -2       773       774       868      3158      3444      3445
 -1      1630    8    0    1
 -2       773       868       867      3445      3446      3441
 -1      1631    8    0    1
 -2       774       775       869      3161      3447      3448
 -1      1632    8    0    1
 -2       774       869       868      3448      3449      3444
 -1      1633    8    0    1
 -2       775       776       870      3164      3450      3451
 -1      1634    8    0    1
 -2       775       870       869      3451      3452      3447
 -1      1635    8    0    1
 -2       776       777       871      3167      3453      3454
 -1      1636    8    0    1
 -2       776       871       870      3454      3455      3450
 -1      1637    8    0    1
 -2       777       778       872      3170      3456      3457
 -1      1638    8    0    1
 -2       777       872       871      3457      3458      3453
 -1      1639    8    0    1
 -2       778       779       873      3173      3459      3460
 -1      1640    8    0    1
 -2       778       873       872      3460      3461      3456
 -1      1641    8    0    1
 -2       779       780       874      3176      3462      3463
 -1      1642    8    0    1
 -2       779       874       873      3463      3464      3459
 -1      1643    8    0    1
 -2       780       781       875      3179      3465      3466
 -1      1644    8    0    1
 -2       780       875       874      3466      3467      3462
 -1      1645    8    0    1
 -2       781       782       876      3182      3468      3469
 -1      1646    8    0    1
 -2       781       876       875      3469      3470      3465
 -1      1647    8    0    1
 -2       782       783       877      3185      3471      3472
 -1      1648    8    0    1
 -2       782       877       876      3472      3473      3468
 -1      1649    8    0    1
 -2       783       784       878      3188      3474      3475
 -1      1650    8    0    1
 -2       783       878       877      3475      3476      3471
 -1      1651    8    0    1
 -2       784       785       879      3191      3477      3478
 -1      1652    8    0    1
 -2       784       879       878      3478      3479      3474
 -1      1653    8    0    1
 -2       785       786       880      3194      3480      3481
 -1      1654    8    0    1
 -2       785       880       879      3481      3482      3477
 -1      1655    8    0    1
 -2       786       787       881      3197      3483      3484
 -1      1656    8    0    1
 -2       786       881       880      3484      3485      3480
 -1      1657    8    0    1
 -2       787       788       882      3200      3486      3487
 -1      1658    8    0    1
 -2       787       882       881      3487      3488      3483
 -1      1659    8    0    1
 -2       788       789       883      3203      3489      3490
 -1      1660    8    0    1
 -2       788       883       882      3490      3491      3486
 -1      1661    8    0    1
 -2       790       706       801      3204      3235      3295
 -1      1662    8    0    1
 -2       789       801       883      3255      3492      3489
 -1      1663    8    0    1
 -2       791       762       884      3208      3493      3494
 -1      1664    8    0    1
 -2       762       859       884      3419      3495      3493
 -1      1665    8    0    1
 -2       764       765       885      3131      3496      3497
 -1      1666    8    0    1
 -2       858       764       885      3416      3497      3498
 -1      1667    8    0    1
 -2       765       860       885      3422      3499      3496
 -1      1668    8    0    1
 -2       802       803       886      3290      3500      3501
 -1      1669    8    0    1
 -2       795       712       811      3285      3272      3502
 -1      1670    8    0    1
 -2       716       713       887      2974      3503      3504
 -1      1671    8    0    1
 -2       716       887       814      3504      3505      3282
 -1      1672    8    0    1
 -2       720       795       888      3218      3506      3507
 -1      1673    8    0    1
 -2       817       720       888      3293      3507      3508
 -1      1674    8    0    1
 -2       795       811       888      3502      3509      3506
 -1      1675    8    0    1
 -2       718       791       889      3252      3510      3511
 -1      1676    8    0    1
 -2       791       884       889      3494      3512      3510
 -1      1677    8    0    1
 -2       806       792       890      3267      3513      3514
 -1      1678    8    0    1
 -2       801       796       883      3251      3515      3492
 -1      1679    8    0    1
 -2       805       806       891      3261      3516      3517
 -1      1680    8    0    1
 -2       796       802       892      3280      3518      3519
 -1      1681    8    0    1
 -2       793       804       893      3242      3520      3521
 -1      1682    8    0    1
 -2       803       799       894      3257      3522      3523
 -1      1683    8    0    1
 -2       804       761       895      3253      3524      3525
 -1      1684    8    0    1
 -2       804       895       893      3525      3526      3520
 -1      1685    8    0    1
 -2       761       857       895      3415      3527      3524
 -1      1686    8    0    1
 -2       813       701       809      3279      3264      3528
 -1      1687    8    0    1
 -2       715       719       896      2994      3529      3530
 -1      1688    8    0    1
 -2       810       715       896      3268      3530      3531
 -1      1689    8    0    1
 -2       719       812       896      3275      3532      3529
 -1      1690    8    0    1
 -2       805       891       816      3517      3533      3291
 -1      1691    8    0    1
 -2       886       803       894      3500      3523      3534
 -1      1692    8    0    1
 -2       802       886       892      3501      3535      3518
 -1      1693    8    0    1
 -2       806       890       891      3514      3536      3516
 -1      1694    8    0    1
 -2       713       807       887      3249      3537      3503
 -1      1695    8    0    1
 -2       794       856       812      3412      3538      3276
 -1      1696    8    0    1
 -2       808       798       897      3260      3539      3540
 -1      1697    8    0    1
 -2       798       816       897      3292      3541      3539
 -1      1698    8    0    1
 -2       809       717       898      3262      3542      3543
 -1      1699    8    0    1
 -2       718       889       857      3511      3544      3414
 -1      1700    8    0    1
 -2       797       813       899      3278      3545      3546
 -1      1701    8    0    1
 -2       888       811       900      3509      3547      3548
 -1      1702    8    0    1
 -2       811       814       900      3284      3549      3547
 -1      1703    8    0    1
 -2       890       792       901      3513      3550      3551
 -1      1704    8    0    1
 -2       792       810       901      3270      3552      3550
 -1      1705    8    0    1
 -2       883       796       892      3515      3519      3553
 -1      1706    8    0    1
 -2       799       808       902      3259      3554      3555
 -1      1707    8    0    1
 -2       799       902       894      3555      3556      3522
 -1      1708    8    0    1
 -2       815       793       903      3289      3557      3558
 -1      1709    8    0    1
 -2       793       893       903      3521      3559      3557
 -1      1710    8    0    1
 -2       807       797       904      3250      3560      3561
 -1      1711    8    0    1
 -2       797       899       904      3546      3562      3560
 -1      1712    8    0    1
 -2       818       817       905      3298      3563      3564
 -1      1713    8    0    1
 -2       819       818       906      3301      3565      3566
 -1      1714    8    0    1
 -2       818       905       906      3564      3567      3565
 -1      1715    8    0    1
 -2       820       819       907      3304      3568      3569
 -1      1716    8    0    1
 -2       819       906       907      3566      3570      3568
 -1      1717    8    0    1
 -2       821       820       908      3307      3571      3572
 -1      1718    8    0    1
 -2       820       907       908      3569      3573      3571
 -1      1719    8    0    1
 -2       822       821       909      3310      3574      3575
 -1      1720    8    0    1
 -2       821       908       909      3572      3576      3574
 -1      1721    8    0    1
 -2       823       822       910      3313      3577      3578
 -1      1722    8    0    1
 -2       822       909       910      3575      3579      3577
 -1      1723    8    0    1
 -2       824       823       911      3316      3580      3581
 -1      1724    8    0    1
 -2       823       910       911      3578      3582      3580
 -1      1725    8    0    1
 -2       825       824       912      3319      3583      3584
 -1      1726    8    0    1
 -2       824       911       912      3581      3585      3583
 -1      1727    8    0    1
 -2       826       825       913      3322      3586      3587
 -1      1728    8    0    1
 -2       825       912       913      3584      3588      3586
 -1      1729    8    0    1
 -2       827       826       914      3325      3589      3590
 -1      1730    8    0    1
 -2       826       913       914      3587      3591      3589
 -1      1731    8    0    1
 -2       828       827       915      3328      3592      3593
 -1      1732    8    0    1
 -2       827       914       915      3590      3594      3592
 -1      1733    8    0    1
 -2       829       828       916      3331      3595      3596
 -1      1734    8    0    1
 -2       828       915       916      3593      3597      3595
 -1      1735    8    0    1
 -2       830       829       917      3334      3598      3599
 -1      1736    8    0    1
 -2       829       916       917      3596      3600      3598
 -1      1737    8    0    1
 -2       831       830       918      3337      3601      3602
 -1      1738    8    0    1
 -2       830       917       918      3599      3603      3601
 -1      1739    8    0    1
 -2       832       831       919      3340      3604      3605
 -1      1740    8    0    1
 -2       831       918       919      3602      3606      3604
 -1      1741    8    0    1
 -2       833       832       920      3343      3607      3608
 -1      1742    8    0    1
 -2       832       919       920      3605      3609      3607
 -1      1743    8    0    1
 -2       834       833       921      3346      3610      3611
 -1      1744    8    0    1
 -2       833       920       921      3608      3612      3610
 -1      1745    8    0    1
 -2       835       834       922      3349      3613      3614
 -1      1746    8    0    1
 -2       834       921       922      3611      3615      3613
 -1      1747    8    0    1
 -2       836       835       923      3352      3616      3617
 -1      1748    8    0    1
 -2       835       922       923      3614      3618      3616
 -1      1749    8    0    1
 -2       837       836       924      3355      3619      3620
 -1      1750    8    0    1
 -2       836       923       924      3617      3621      3619
 -1      1751    8    0    1
 -2       838       837       925      3358      3622      3623
 -1      1752    8    0    1
 -2       837       924       925      3620      3624      3622
 -1      1753    8    0    1
 -2       839       838       926      3361      3625      3626
 -1      1754    8    0    1
 -2       838       925       926      3623      3627      3625
 -1      1755    8    0    1
 -2       840       839       927      3364      3628      3629
 -1      1756    8    0    1
 -2       839       926       927      3626      3630      3628
 -1      1757    8    0    1
 -2       841       840       928      3367      3631      3632
 -1      1758    8    0    1
 -2       840       927       928      3629      3633      3631
 -1      1759    8    0    1
 -2       842       841       929      3370      3634      3635
 -1      1760    8    0    1
 -2       841       928       929      3632      3636      3634
 -1      1761    8    0    1
 -2       843       842       930      3373      3637      3638
 -1      1762    8    0    1
 -2       842       929       930      3635      3639      3637
 -1      1763    8    0    1
 -2       844       843       931      3376      3640      3641
 -1      1764    8    0    1
 -2       843       930       931      3638      3642      3640
 -1      1765    8    0    1
 -2       845       844       932      3379      3643      3644
 -1      1766    8    0    1
 -2       844       931       932      3641      3645      3643
 -1      1767    8    0    1
 -2       846       845       933      3382      3646      3647
 -1      1768    8    0    1
 -2       845       932       933      3644      3648      3646
 -1      1769    8    0    1
 -2       847       846       934      3385      3649      3650
 -1      1770    8    0    1
 -2       846       933       934      3647      3651      3649
 -1      1771    8    0    1
 -2       848       847       935      3388      3652      3653
 -1      1772    8    0    1
 -2       847       934       935      3650      3654      3652
 -1      1773    8    0    1
 -2       849       848       936      3391      3655      3656
 -1      1774    8    0    1
 -2       848       935       936      3653      3657      3655
 -1      1775    8    0    1
 -2       850       849       937      3394      3658      3659
 -1      1776    8    0    1
 -2       849       936       937      3656      3660      3658
 -1      1777    8    0    1
 -2       851       850       938      3397      3661      3662
 -1      1778    8    0    1
 -2       850       937       938      3659      3663      3661
 -1      1779    8    0    1
 -2       852       851       897      3400      3664      3665
 -1      1780    8    0    1
 -2       853       852       816      3403      3666      3667
 -1      1781    8    0    1
 -2       854       853       891      3406      3668      3669
 -1      1782    8    0    1
 -2       855       854       890      3409      3670      3671
 -1      1783    8    0    1
 -2       890       854       891      3670      3669      3536
 -1      1784    8    0    1
 -2       891       853       816      3668      3667      3533
 -1      1785    8    0    1
 -2       861       862       939      3428      3672      3673
 -1      1786    8    0    1
 -2       860       861       940      3425      3674      3675
 -1      1787    8    0    1
 -2       861       939       940      3673      3676      3674
 -1      1788    8    0    1
 -2       863       864       941      3434      3677      3678
 -1      1789    8    0    1
 -2       864       865       942      3437      3679      3680
 -1      1790    8    0    1
 -2       864       942       941      3680      3681      3677
 -1      1791    8    0    1
 -2       865       866       943      3440      3682      3683
 -1      1792    8    0    1
 -2       865       943       942      3683      3684      3679
 -1      1793    8    0    1
 -2       866       867       944      3443      3685      3686
 -1      1794    8    0    1
 -2       866       944       943      3686      3687      3682
 -1      1795    8    0    1
 -2       867       868       945      3446      3688      3689
 -1      1796    8    0    1
 -2       867       945       944      3689      3690      3685
 -1      1797    8    0    1
 -2       868       869       946      3449      3691      3692
 -1      1798    8    0    1
 -2       868       946       945      3692      3693      3688
 -1      1799    8    0    1
 -2       869       870       947      3452      3694      3695
 -1      1800    8    0    1
 -2       869       947       946      3695      3696      3691
 -1      1801    8    0    1
 -2       870       871       948      3455      3697      3698
 -1      1802    8    0    1
 -2       870       948       947      3698      3699      3694
 -1      1803    8    0    1
 -2       871       872       949      3458      3700      3701
 -1      1804    8    0    1
 -2       871       949       948      3701      3702      3697
 -1      1805    8    0    1
 -2       872       873       950      3461      3703      3704
 -1      1806    8    0    1
 -2       872       950       949      3704      3705      3700
 -1      1807    8    0    1
 -2       873       874       951      3464      3706      3707
 -1      1808    8    0    1
 -2       873       951       950      3707      3708      3703
 -1      1809    8    0    1
 -2       874       875       952      3467      3709      3710
 -1      1810    8    0    1
 -2       874       952       951      3710      3711      3706
 -1      1811    8    0    1
 -2       875       876       953      3470      3712      3713
 -1      1812    8    0    1
 -2       875       953       952      3713      3714      3709
 -1      1813    8    0    1
 -2       876       877       954      3473      3715      3716
 -1      1814    8    0    1
 -2       876       954       953      3716      3717      3712
 -1      1815    8    0    1
 -2       877       878       955      3476      3718      3719
 -1      1816    8    0    1
 -2       877       955       954      3719      3720      3715
 -1      1817    8    0    1
 -2       878       879       956      3479      3721      3722
 -1      1818    8    0    1
 -2       878       956       955      3722      3723      3718
 -1      1819    8    0    1
 -2       879       880       957      3482      3724      3725
 -1      1820    8    0    1
 -2       879       957       956      3725      3726      3721
 -1      1821    8    0    1
 -2       880       881       958      3485      3727      3728
 -1      1822    8    0    1
 -2       880       958       957      3728      3729      3724
 -1      1823    8    0    1
 -2       881       882       959      3488      3730      3731
 -1      1824    8    0    1
 -2       881       959       958      3731      3732      3727
 -1      1825    8    0    1
 -2       882       883       960      3491      3733      3734
 -1      1826    8    0    1
 -2       959       882       960      3730      3734      3735
 -1      1827    8    0    1
 -2       883       892       960      3553      3736      3733
 -1      1828    8    0    1
 -2       816       852       897      3666      3665      3541
 -1      1829    8    0    1
 -2       813       809       961      3528      3737      3738
 -1      1830    8    0    1
 -2       899       813       961      3545      3738      3739
 -1      1831    8    0    1
 -2       809       898       961      3543      3740      3737
 -1      1832    8    0    1
 -2       884       859       962      3495      3741      3742
 -1      1833    8    0    1
 -2       898       717       815      3542      3743      3744
 -1      1834    8    0    1
 -2       857       889       963      3544      3745      3746
 -1      1835    8    0    1
 -2       895       857       964      3527      3747      3748
 -1      1836    8    0    1
 -2       857       963       964      3746      3749      3747
 -1      1837    8    0    1
 -2       817       888       965      3508      3750      3751
 -1      1838    8    0    1
 -2       905       817       965      3563      3751      3752
 -1      1839    8    0    1
 -2       888       900       965      3548      3753      3750
 -1      1840    8    0    1
 -2       887       807       966      3537      3754      3755
 -1      1841    8    0    1
 -2       807       904       966      3561      3756      3754
 -1      1842    8    0    1
 -2       862       863       967      3431      3757      3758
 -1      1843    8    0    1
 -2       939       862       967      3672      3758      3759
 -1      1844    8    0    1
 -2       863       941       967      3678      3760      3757
 -1      1845    8    0    1
 -2       889       884       968      3512      3761      3762
 -1      1846    8    0    1
 -2       884       962       968      3742      3763      3761
 -1      1847    8    0    1
 -2       859       858       969      3420      3764      3765
 -1      1848    8    0    1
 -2       859       969       962      3765      3766      3741
 -1      1849    8    0    1
 -2       886       894       970      3534      3767      3768
 -1      1850    8    0    1
 -2       892       886       971      3535      3769      3770
 -1      1851    8    0    1
 -2       814       887       972      3505      3771      3772
 -1      1852    8    0    1
 -2       900       814       972      3549      3772      3773
 -1      1853    8    0    1
 -2       887       966       972      3755      3774      3771
 -1      1854    8    0    1
 -2       893       895       973      3526      3775      3776
 -1      1855    8    0    1
 -2       895       964       973      3748      3777      3775
 -1      1856    8    0    1
 -2       717       800       815      3232      3288      3743
 -1      1857    8    0    1
 -2       855       890       901      3671      3551      3778
 -1      1858    8    0    1
 -2       898       815       903      3744      3558      3779
 -1      1859    8    0    1
 -2       851       938       897      3662      3780      3664
 -1      1860    8    0    1
 -2       856       855       901      3413      3778      3781
 -1      1861    8    0    1
 -2       858       885       974      3498      3782      3783
 -1      1862    8    0    1
 -2       858       974       969      3783      3784      3764
 -1      1863    8    0    1
 -2       960       892       971      3736      3770      3785
 -1      1864    8    0    1
 -2       963       889       968      3745      3762      3786
 -1      1865    8    0    1
 -2       899       961       975      3739      3787      3788
 -1      1866    8    0    1
 -2       885       860       976      3499      3789      3790
 -1      1867    8    0    1
 -2       974       885       976      3782      3790      3791
 -1      1868    8    0    1
 -2       860       940       976      3675      3792      3789
 -1      1869    8    0    1
 -2       808       897       977      3540      3793      3794
 -1      1870    8    0    1
 -2       902       808       977      3554      3794      3795
 -1      1871    8    0    1
 -2       897       938       977      3780      3796      3793
 -1      1872    8    0    1
 -2       886       970       971      3768      3797      3769
 -1      1873    8    0    1
 -2       893       973       978      3776      3798      3799
 -1      1874    8    0    1
 -2       812       856       901      3538      3781      3800
 -1      1875    8    0    1
 -2       899       975       979      3788      3801      3802
 -1      1876    8    0    1
 -2       899       979       904      3802      3803      3562
 -1      1877    8    0    1
 -2       893       978       903      3799      3804      3559
 -1      1878    8    0    1
 -2       894       902       980      3556      3805      3806
 -1      1879    8    0    1
 -2       894       980       970      3806      3807      3767
 -1      1880    8    0    1
 -2       907       906       981      3570      3808      3809
 -1      1881    8    0    1
 -2       908       907       982      3573      3810      3811
 -1      1882    8    0    1
 -2       907       981       982      3809      3812      3810
 -1      1883    8    0    1
 -2       909       908       983      3576      3813      3814
 -1      1884    8    0    1
 -2       908       982       983      3811      3815      3813
 -1      1885    8    0    1
 -2       910       909       984      3579      3816      3817
 -1      1886    8    0    1
 -2       909       983       984      3814      3818      3816
 -1      1887    8    0    1
 -2       911       910       985      3582      3819      3820
 -1      1888    8    0    1
 -2       910       984       985      3817      3821      3819
 -1      1889    8    0    1
 -2       912       911       986      3585      3822      3823
 -1      1890    8    0    1
 -2       911       985       986      3820      3824      3822
 -1      1891    8    0    1
 -2       913       912       987      3588      3825      3826
 -1      1892    8    0    1
 -2       912       986       987      3823      3827      3825
 -1      1893    8    0    1
 -2       914       913       988      3591      3828      3829
 -1      1894    8    0    1
 -2       913       987       988      3826      3830      3828
 -1      1895    8    0    1
 -2       915       914       989      3594      3831      3832
 -1      1896    8    0    1
 -2       914       988       989      3829      3833      3831
 -1      1897    8    0    1
 -2       916       915       990      3597      3834      3835
 -1      1898    8    0    1
 -2       915       989       990      3832      3836      3834
 -1      1899    8    0    1
 -2       917       916       991      3600      3837      3838
 -1      1900    8    0    1
 -2       916       990       991      3835      3839      3837
 -1      1901    8    0    1
 -2       918       917       992      3603      3840      3841
 -1      1902    8    0    1
 -2       917       991       992      3838      3842      3840
 -1      1903    8    0    1
 -2       919       918       993      3606      3843      3844
 -1      1904    8    0    1
 -2       918       992       993      3841      3845      3843
 -1      1905    8    0    1
 -2       920       919       994      3609      3846      3847
 -1      1906    8    0    1
 -2       919       993       994      3844      3848      3846
 -1      1907    8    0    1
 -2       921       920       995      3612      3849      3850
 -1      1908    8    0    1
 -2       920       994       995      3847      3851      3849
 -1      1909    8    0    1
 -2       922       921       996      3615      3852      3853
 -1      1910    8    0    1
 -2       921       995       996      3850      3854      3852
 -1      1911    8    0    1
 -2       923       922       997      3618      3855      3856
 -1      1912    8    0    1
 -2       922       996       997      3853      3857      3855
 -1      1913    8    0    1
 -2       924       923       998      3621      3858      3859
 -1      1914    8    0    1
 -2       923       997       998      3856      3860      3858
 -1      1915    8    0    1
 -2       925       924       999      3624      3861      3862
 -1      1916    8    0    1
 -2       924       998       999      3859      3863      3861
 -1      1917    8    0    1
 -2       926       925      1000      3627      3864      3865
 -1      1918    8    0    1
 -2       925       999      1000      3862      3866      3864
 -1      1919    8    0    1
 -2       927       926      1001      3630      3867      3868
 -1      1920    8    0    1
 -2       926      1000      1001      3865      3869      3867
 -1      1921    8    0    1
 -2       928       927      1002      3633      3870      3871
 -1      1922    8    0    1
 -2       927      1001      1002      3868      3872      3870
 -1      1923    8    0    1
 -2       929       928      1003      3636      3873      3874
 -1      1924    8    0    1
 -2       928      1002      1003      3871      3875      3873
 -1      1925    8    0    1
 -2       930       929      1004      3639      3876      3877
 -1      1926    8    0    1
 -2       929      1003      1004      3874      3878      3876
 -1      1927    8    0    1
 -2       931       930      1005      3642      3879      3880
 -1      1928    8    0    1
 -2       930      1004      1005      3877      3881      3879
 -1      1929    8    0    1
 -2       932       931      1006      3645      3882      3883
 -1      1930    8    0    1
 -2       931      1005      1006      3880      3884      3882
 -1      1931    8    0    1
 -2       933       932      1007      3648      3885      3886
 -1      1932    8    0    1
 -2       932      1006      1007      3883      3887      3885
 -1      1933    8    0    1
 -2       934       933      1008      3651      3888      3889
 -1      1934    8    0    1
 -2       933      1007      1008      3886      3890      3888
 -1      1935    8    0    1
 -2       935       934      1009      3654      3891      3892
 -1      1936    8    0    1
 -2       934      1008      1009      3889      3893      3891
 -1      1937    8    0    1
 -2       936       935      1010      3657      3894      3895
 -1      1938    8    0    1
 -2       935      1009      1010      3892      3896      3894
 -1      1939    8    0    1
 -2       937       936       980      3660      3897      3898
 -1      1940    8    0    1
 -2       938       937       977      3663      3899      3796
 -1      1941    8    0    1
 -2       968       962      1011      3763      3900      3901
 -1      1942    8    0    1
 -2       940       939      1012      3676      3902      3903
 -1      1943    8    0    1
 -2       942       943      1013      3684      3904      3905
 -1      1944    8    0    1
 -2       941       942      1014      3681      3906      3907
 -1      1945    8    0    1
 -2       942      1013      1014      3905      3908      3906
 -1      1946    8    0    1
 -2       944       945      1015      3690      3909      3910
 -1      1947    8    0    1
 -2       945       946      1016      3693      3911      3912
 -1      1948    8    0    1
 -2       945      1016      1015      3912      3913      3909
 -1      1949    8    0    1
 -2       946       947      1017      3696      3914      3915
 -1      1950    8    0    1
 -2       946      1017      1016      3915      3916      3911
 -1      1951    8    0    1
 -2       947       948      1018      3699      3917      3918
 -1      1952    8    0    1
 -2       947      1018      1017      3918      3919      3914
 -1      1953    8    0    1
 -2       948       949      1019      3702      3920      3921
 -1      1954    8    0    1
 -2       948      1019      1018      3921      3922      3917
 -1      1955    8    0    1
 -2       949       950      1020      3705      3923      3924
 -1      1956    8    0    1
 -2       949      1020      1019      3924      3925      3920
 -1      1957    8    0    1
 -2       950       951      1021      3708      3926      3927
 -1      1958    8    0    1
 -2       950      1021      1020      3927      3928      3923
 -1      1959    8    0    1
 -2       951       952      1022      3711      3929      3930
 -1      1960    8    0    1
 -2       951      1022      1021      3930      3931      3926
 -1      1961    8    0    1
 -2       952       953      1023      3714      3932      3933
 -1      1962    8    0    1
 -2       952      1023      1022      3933      3934      3929
 -1      1963    8    0    1
 -2       953       954      1024      3717      3935      3936
 -1      1964    8    0    1
 -2       953      1024      1023      3936      3937      3932
 -1      1965    8    0    1
 -2       954       955      1025      3720      3938      3939
 -1      1966    8    0    1
 -2       954      1025      1024      3939      3940      3935
 -1      1967    8    0    1
 -2       955       956      1026      3723      3941      3942
 -1      1968    8    0    1
 -2       955      1026      1025      3942      3943      3938
 -1      1969    8    0    1
 -2       956       957      1027      3726      3944      3945
 -1      1970    8    0    1
 -2       956      1027      1026      3945      3946      3941
 -1      1971    8    0    1
 -2       957       958      1028      3729      3947      3948
 -1      1972    8    0    1
 -2       957      1028      1027      3948      3949      3944
 -1      1973    8    0    1
 -2       958       959      1029      3732      3950      3951
 -1      1974    8    0    1
 -2       958      1029      1028      3951      3952      3947
 -1      1975    8    0    1
 -2       959       960      1030      3735      3953      3954
 -1      1976    8    0    1
 -2      1029       959      1030      3950      3954      3955
 -1      1977    8    0    1
 -2       960       971      1030      3785      3956      3953
 -1      1978    8    0    1
 -2       975       961       978      3787      3957      3958
 -1      1979    8    0    1
 -2       973       964      1031      3777      3959      3960
 -1      1980    8    0    1
 -2       978       973      1032      3798      3961      3962
 -1      1981    8    0    1
 -2       975       978      1032      3958      3962      3963
 -1      1982    8    0    1
 -2       973      1031      1032      3960      3964      3961
 -1      1983    8    0    1
 -2       901       810       896      3552      3531      3965
 -1      1984    8    0    1
 -2       943       944      1033      3687      3966      3967
 -1      1985    8    0    1
 -2       944      1015      1033      3910      3968      3966
 -1      1986    8    0    1
 -2       906       905      1034      3567      3969      3970
 -1      1987    8    0    1
 -2       906      1034       981      3970      3971      3808
 -1      1988    8    0    1
 -2       898       903       978      3779      3804      3972
 -1      1989    8    0    1
 -2       898       978       961      3972      3957      3740
 -1      1990    8    0    1
 -2       966       904      1035      3756      3973      3974
 -1      1991    8    0    1
 -2       904       979      1035      3803      3975      3973
 -1      1992    8    0    1
 -2       971       970      1036      3797      3976      3977
 -1      1993    8    0    1
 -2       963       968      1037      3786      3978      3979
 -1      1994    8    0    1
 -2       968      1011      1037      3901      3980      3978
 -1      1995    8    0    1
 -2       962       969      1038      3766      3981      3982
 -1      1996    8    0    1
 -2       962      1038      1011      3982      3983      3900
 -1      1997    8    0    1
 -2       964       963      1039      3749      3984      3985
 -1      1998    8    0    1
 -2      1031       964      1039      3959      3985      3986
 -1      1999    8    0    1
 -2       963      1037      1039      3979      3987      3984
 -1      2000    8    0    1
 -2       936      1010       980      3895      3988      3897
 -1      2001    8    0    1
 -2       971      1036      1030      3977      3989      3956
 -1      2002    8    0    1
 -2       940      1012      1040      3903      3990      3991
 -1      2003    8    0    1
 -2       940      1040       976      3991      3992      3792
 -1      2004    8    0    1
 -2       941      1014      1041      3907      3993      3994
 -1      2005    8    0    1
 -2       941      1041       967      3994      3995      3760
 -1      2006    8    0    1
 -2       975      1032       979      3963      3996      3801
 -1      2007    8    0    1
 -2       969       974      1042      3784      3997      3998
 -1      2008    8    0    1
 -2       969      1042      1038      3998      3999      3981
 -1      2009    8    0    1
 -2       905       965      1043      3752      4000      4001
 -1      2010    8    0    1
 -2       905      1043      1034      4001      4002      3969
 -1      2011    8    0    1
 -2       965       900      1044      3753      4003      4004
 -1      2012    8    0    1
 -2      1043       965      1044      4000      4004      4005
 -1      2013    8    0    1
 -2       900       972      1044      3773      4006      4003
 -1      2014    8    0    1
 -2      1013       943      1033      3904      3967      4007
 -1      2015    8    0    1
 -2      1012       939      1045      3902      4008      4009
 -1      2016    8    0    1
 -2       939       967      1045      3759      4010      4008
 -1      2017    8    0    1
 -2       972       966      1044      3774      4011      4006
 -1      2018    8    0    1
 -2       970       980      1046      3807      4012      4013
 -1      2019    8    0    1
 -2      1036       970      1046      3976      4013      4014
 -1      2020    8    0    1
 -2       980      1010      1046      3988      4015      4012
 -1      2021    8    0    1
 -2      1044       966      1035      4011      3974      4016
 -1      2022    8    0    1
 -2      1032      1031      1047      3964      4017      4018
 -1      2023    8    0    1
 -2       983       982      1048      3815      4019      4020
 -1      2024    8    0    1
 -2       984       983      1049      3818      4021      4022
 -1      2025    8    0    1
 -2       983      1048      1049      4020      4023      4021
 -1      2026    8    0    1
 -2       985       984      1050      3821      4024      4025
 -1      2027    8    0    1
 -2       984      1049      1050      4022      4026      4024
 -1      2028    8    0    1
 -2       986       985      1051      3824      4027      4028
 -1      2029    8    0    1
 -2       985      1050      1051      4025      4029      4027
 -1      2030    8    0    1
 -2       987       986      1052      3827      4030      4031
 -1      2031    8    0    1
 -2       986      1051      1052      4028      4032      4030
 -1      2032    8    0    1
 -2       988       987      1053      3830      4033      4034
 -1      2033    8    0    1
 -2       987      1052      1053      4031      4035      4033
 -1      2034    8    0    1
 -2       989       988      1054      3833      4036      4037
 -1      2035    8    0    1
 -2       988      1053      1054      4034      4038      4036
 -1      2036    8    0    1
 -2       990       989      1055      3836      4039      4040
 -1      2037    8    0    1
 -2       989      1054      1055      4037      4041      4039
 -1      2038    8    0    1
 -2       991       990      1056      3839      4042      4043
 -1      2039    8    0    1
 -2       990      1055      1056      4040      4044      4042
 -1      2040    8    0    1
 -2       992       991      1057      3842      4045      4046
 -1      2041    8    0    1
 -2       991      1056      1057      4043      4047      4045
 -1      2042    8    0    1
 -2       993       992      1058      3845      4048      4049
 -1      2043    8    0    1
 -2       992      1057      1058      4046      4050      4048
 -1      2044    8    0    1
 -2       994       993      1059      3848      4051      4052
 -1      2045    8    0    1
 -2       993      1058      1059      4049      4053      4051
 -1      2046    8    0    1
 -2       995       994      1060      3851      4054      4055
 -1      2047    8    0    1
 -2       994      1059      1060      4052      4056      4054
 -1      2048    8    0    1
 -2       996       995      1061      3854      4057      4058
 -1      2049    8    0    1
 -2       995      1060      1061      4055      4059      4057
 -1      2050    8    0    1
 -2       997       996      1062      3857      4060      4061
 -1      2051    8    0    1
 -2       996      1061      1062      4058      4062      4060
 -1      2052    8    0    1
 -2       998       997      1063      3860      4063      4064
 -1      2053    8    0    1
 -2       997      1062      1063      4061      4065      4063
 -1      2054    8    0    1
 -2       999       998      1064      3863      4066      4067
 -1      2055    8    0    1
 -2       998      1063      1064      4064      4068      4066
 -1      2056    8    0    1
 -2      1000       999      1065      3866      4069      4070
 -1      2057    8    0    1
 -2       999      1064      1065      4067      4071      4069
 -1      2058    8    0    1
 -2      1001      1000      1066      3869      4072      4073
 -1      2059    8    0    1
 -2      1000      1065      1066      4070      4074      4072
 -1      2060    8    0    1
 -2      1002      1001      1067      3872      4075      4076
 -1      2061    8    0    1
 -2      1001      1066      1067      4073      4077      4075
 -1      2062    8    0    1
 -2      1003      1002      1068      3875      4078      4079
 -1      2063    8    0    1
 -2      1002      1067      1068      4076      4080      4078
 -1      2064    8    0    1
 -2      1004      1003      1069      3878      4081      4082
 -1      2065    8    0    1
 -2      1003      1068      1069      4079      4083      4081
 -1      2066    8    0    1
 -2      1005      1004      1070      3881      4084      4085
 -1      2067    8    0    1
 -2      1004      1069      1070      4082      4086      4084
 -1      2068    8    0    1
 -2      1006      1005      1071      3884      4087      4088
 -1      2069    8    0    1
 -2      1005      1070      1071      4085      4089      4087
 -1      2070    8    0    1
 -2      1007      1006      1072      3887      4090      4091
 -1      2071    8    0    1
 -2      1006      1071      1072      4088      4092      4090
 -1      2072    8    0    1
 -2      1008      1007      1073      3890      4093      4094
 -1      2073    8    0    1
 -2      1007      1072      1073      4091      4095      4093
 -1      2074    8    0    1
 -2      1009      1008      1074      3893      4096      4097
 -1      2075    8    0    1
 -2      1008      1073      1074      4094      4098      4096
 -1      2076    8    0    1
 -2      1010      1009      1075      3896      4099      4100
 -1      2077    8    0    1
 -2      1046      1010      1075      4015      4100      4101
 -1      2078    8    0    1
 -2      1009      1074      1075      4097      4102      4099
 -1      2079    8    0    1
 -2      1030      1036      1076      3989      4103      4104
 -1      2080    8    0    1
 -2       977       937       980      3899      3898      4105
 -1      2081    8    0    1
 -2      1011      1038      1077      3983      4106      4107
 -1      2082    8    0    1
 -2       981      1034      1078      3971      4108      4109
 -1      2083    8    0    1
 -2      1017      1018      1079      3919      4110      4111
 -1      2084    8    0    1
 -2       902       977       980      3795      4105      3805
 -1      2085    8    0    1
 -2      1016      1017      1080      3916      4112      4113
 -1      2086    8    0    1
 -2      1017      1079      1080      4111      4114      4112
 -1      2087    8    0    1
 -2      1015      1016      1081      3913      4115      4116
 -1      2088    8    0    1
 -2      1016      1080      1081      4113      4117      4115
 -1      2089    8    0    1
 -2      1018      1019      1082      3922      4118      4119
 -1      2090    8    0    1
 -2      1018      1082      1079      4119      4120      4110
 -1      2091    8    0    1
 -2      1019      1020      1083      3925      4121      4122
 -1      2092    8    0    1
 -2      1019      1083      1082      4122      4123      4118
 -1      2093    8    0    1
 -2      1020      1021      1084      3928      4124      4125
 -1      2094    8    0    1
 -2      1020      1084      1083      4125      4126      4121
 -1      2095    8    0    1
 -2      1021      1022      1085      3931      4127      4128
 -1      2096    8    0    1
 -2      1021      1085      1084      4128      4129      4124
 -1      2097    8    0    1
 -2      1022      1023      1086      3934      4130      4131
 -1      2098    8    0    1
 -2      1022      1086      1085      4131      4132      4127
 -1      2099    8    0    1
 -2      1023      1024      1087      3937      4133      4134
 -1      2100    8    0    1
 -2      1023      1087      1086      4134      4135      4130
 -1      2101    8    0    1
 -2      1024      1025      1088      3940      4136      4137
 -1      2102    8    0    1
 -2      1024      1088      1087      4137      4138      4133
 -1      2103    8    0    1
 -2      1025      1026      1089      3943      4139      4140
 -1      2104    8    0    1
 -2      1025      1089      1088      4140      4141      4136
 -1      2105    8    0    1
 -2      1026      1027      1090      3946      4142      4143
 -1      2106    8    0    1
 -2      1026      1090      1089      4143      4144      4139
 -1      2107    8    0    1
 -2      1027      1028      1091      3949      4145      4146
 -1      2108    8    0    1
 -2      1027      1091      1090      4146      4147      4142
 -1      2109    8    0    1
 -2      1029      1030      1076      3955      4104      4148
 -1      2110    8    0    1
 -2      1035       979      1092      3975      4149      4150
 -1      2111    8    0    1
 -2       974       976      1093      3791      4151      4152
 -1      2112    8    0    1
 -2       974      1093      1042      4152      4153      3997
 -1      2113    8    0    1
 -2      1014      1013      1094      3908      4154      4155
 -1      2114    8    0    1
 -2      1033      1015      1095      3968      4156      4157
 -1      2115    8    0    1
 -2      1015      1081      1095      4116      4158      4156
 -1      2116    8    0    1
 -2       982       981      1096      3812      4159      4160
 -1      2117    8    0    1
 -2       981      1078      1096      4109      4161      4159
 -1      2118    8    0    1
 -2      1037      1011      1097      3980      4162      4163
 -1      2119    8    0    1
 -2      1011      1077      1097      4107      4164      4162
 -1      2120    8    0    1
 -2      1013      1033      1098      4007      4165      4166
 -1      2121    8    0    1
 -2      1033      1095      1098      4157      4167      4165
 -1      2122    8    0    1
 -2      1035      1092      1099      4150      4168      4169
 -1      2123    8    0    1
 -2      1078      1034      1099      4108      4170      4171
 -1      2124    8    0    1
 -2      1077      1038      1100      4106      4172      4173
 -1      2125    8    0    1
 -2      1038      1042      1100      3999      4174      4172
 -1      2126    8    0    1
 -2      1031      1039      1101      3986      4175      4176
 -1      2127    8    0    1
 -2      1031      1101      1047      4176      4177      4017
 -1      2128    8    0    1
 -2      1040      1012      1102      3990      4178      4179
 -1      2129    8    0    1
 -2      1041      1014      1103      3993      4180      4181
 -1      2130    8    0    1
 -2      1014      1094      1103      4155      4182      4180
 -1      2131    8    0    1
 -2      1037      1097      1104      4163      4183      4184
 -1      2132    8    0    1
 -2      1037      1104      1039      4184      4185      3987
 -1      2133    8    0    1
 -2       982      1096      1048      4160      4186      4019
 -1      2134    8    0    1
 -2      1099      1034      1043      4170      4002      4187
 -1      2135    8    0    1
 -2      1093       976      1040      4151      3992      4188
 -1      2136    8    0    1
 -2      1028      1029      1105      3952      4189      4190
 -1      2137    8    0    1
 -2      1028      1105      1091      4190      4191      4145
 -1      2138    8    0    1
 -2       967      1041      1045      3995      4192      4010
 -1      2139    8    0    1
 -2      1094      1013      1098      4154      4166      4193
 -1      2140    8    0    1
 -2      1036      1046      1106      4014      4194      4195
 -1      2141    8    0    1
 -2      1076      1036      1106      4103      4195      4196
 -1      2142    8    0    1
 -2      1046      1075      1106      4101      4197      4194
 -1      2143    8    0    1
 -2       812       901       896      3800      3965      3532
 -1      2144    8    0    1
 -2       979      1032      1047      3996      4018      4198
 -1      2145    8    0    1
 -2      1044      1035      1099      4016      4169      4199
 -1      2146    8    0    1
 -2      1012      1045      1107      4009      4200      4201
 -1      2147    8    0    1
 -2      1012      1107      1102      4201      4202      4178
 -1      2148    8    0    1
 -2      1105      1029      1076      4189      4148      4203
 -1      2149    8    0    1
 -2       979      1047      1092      4198      4204      4149
 -1      2150    8    0    1
 -2      1050      1049      1077      4026      4205      4206
 -1      2151    8    0    1
 -2      1051      1050      1100      4029      4207      4208
 -1      2152    8    0    1
 -2      1053      1052      1108      4035      4209      4210
 -1      2153    8    0    1
 -2      1054      1053      1102      4038      4211      4212
 -1      2154    8    0    1
 -2      1055      1054      1107      4041      4213      4214
 -1      2155    8    0    1
 -2      1057      1056      1109      4047      4215      4216
 -1      2156    8    0    1
 -2      1058      1057      1094      4050      4217      4218
 -1      2157    8    0    1
 -2      1059      1058      1098      4053      4219      4220
 -1      2158    8    0    1
 -2      1060      1059      1095      4056      4221      4222
 -1      2159    8    0    1
 -2      1061      1060      1081      4059      4223      4224
 -1      2160    8    0    1
 -2      1062      1061      1080      4062      4225      4226
 -1      2161    8    0    1
 -2      1063      1062      1079      4065      4227      4228
 -1      2162    8    0    1
 -2      1064      1063      1082      4068      4229      4230
 -1      2163    8    0    1
 -2      1065      1064      1083      4071      4231      4232
 -1      2164    8    0    1
 -2      1066      1065      1084      4074      4233      4234
 -1      2165    8    0    1
 -2      1067      1066      1085      4077      4235      4236
 -1      2166    8    0    1
 -2      1068      1067      1086      4080      4237      4238
 -1      2167    8    0    1
 -2      1069      1068      1087      4083      4239      4240
 -1      2168    8    0    1
 -2      1070      1069      1088      4086      4241      4242
 -1      2169    8    0    1
 -2      1071      1070      1089      4089      4243      4244
 -1      2170    8    0    1
 -2      1072      1071      1090      4092      4245      4246
 -1      2171    8    0    1
 -2      1073      1072      1091      4095      4247      4248
 -1      2172    8    0    1
 -2      1074      1073      1105      4098      4249      4250
 -1      2173    8    0    1
 -2      1080      1079      1062      4114      4227      4226
 -1      2174    8    0    1
 -2      1105      1076      1074      4203      4251      4250
 -1      2175    8    0    1
 -2      1083      1064      1082      4231      4230      4123
 -1      2176    8    0    1
 -2      1082      1063      1079      4229      4228      4120
 -1      2177    8    0    1
 -2      1095      1081      1060      4158      4223      4222
 -1      2178    8    0    1
 -2      1084      1065      1083      4233      4232      4126
 -1      2179    8    0    1
 -2      1081      1080      1061      4117      4225      4224
 -1      2180    8    0    1
 -2      1084      1085      1066      4129      4235      4234
 -1      2181    8    0    1
 -2      1085      1086      1067      4132      4237      4236
 -1      2182    8    0    1
 -2      1086      1087      1068      4135      4239      4238
 -1      2183    8    0    1
 -2      1087      1088      1069      4138      4241      4240
 -1      2184    8    0    1
 -2      1088      1089      1070      4141      4243      4242
 -1      2185    8    0    1
 -2      1089      1090      1071      4144      4245      4244
 -1      2186    8    0    1
 -2      1090      1091      1072      4147      4247      4246
 -1      2187    8    0    1
 -2      1092      1047      1110      4204      4252      4253
 -1      2188    8    0    1
 -2      1099      1092      1110      4168      4253      4254
 -1      2189    8    0    1
 -2      1047      1101      1110      4177      4255      4252
 -1      2190    8    0    1
 -2      1045      1041      1111      4192      4256      4257
 -1      2191    8    0    1
 -2      1107      1045      1111      4200      4257      4258
 -1      2192    8    0    1
 -2      1041      1103      1111      4181      4259      4256
 -1      2193    8    0    1
 -2      1091      1105      1073      4191      4249      4248
 -1      2194    8    0    1
 -2      1050      1077      1100      4206      4173      4207
 -1      2195    8    0    1
 -2      1042      1093      1112      4153      4260      4261
 -1      2196    8    0    1
 -2      1042      1112      1100      4261      4262      4174
 -1      2197    8    0    1
 -2      1095      1059      1098      4221      4220      4167
 -1      2198    8    0    1
 -2      1094      1098      1058      4193      4219      4218
 -1      2199    8    0    1
 -2      1097      1077      1049      4164      4205      4263
 -1      2200    8    0    1
 -2      1102      1053      1108      4211      4210      4264
 -1      2201    8    0    1
 -2      1049      1048      1097      4023      4265      4263
 -1      2202    8    0    1
 -2      1040      1102      1108      4179      4264      4266
 -1      2203    8    0    1
 -2      1093      1040      1108      4188      4266      4267
 -1      2204    8    0    1
 -2      1048      1096      1104      4186      4268      4269
 -1      2205    8    0    1
 -2      1097      1048      1104      4265      4269      4183
 -1      2206    8    0    1
 -2      1078      1099      1110      4171      4254      4270
 -1      2207    8    0    1
 -2      1094      1057      1109      4217      4216      4271
 -1      2208    8    0    1
 -2      1051      1100      1112      4208      4262      4272
 -1      2209    8    0    1
 -2      1052      1051      1112      4032      4272      4273
 -1      2210    8    0    1
 -2      1054      1102      1107      4212      4202      4213
 -1      2211    8    0    1
 -2      1055      1107      1111      4214      4258      4274
 -1      2212    8    0    1
 -2      1056      1055      1111      4044      4274      4275
 -1      2213    8    0    1
 -2      1101      1039      1104      4175      4185      4276
 -1      2214    8    0    1
 -2      1078      1110      1096      4270      4277      4161
 -1      2215    8    0    1
 -2      1096      1110      1101      4277      4255      4278
 -1      2216    8    0    1
 -2      1096      1101      1104      4278      4276      4268
 -1      2217    8    0    1
 -2      1093      1108      1112      4267      4279      4260
 -1      2218    8    0    1
 -2      1075      1074      1106      4102      4280      4197
 -1      2219    8    0    1
 -2      1052      1112      1108      4273      4279      4209
 -1      2220    8    0    1
 -2      1109      1056      1111      4215      4275      4281
 -1      2221    8    0    1
 -2      1043      1044      1099      4005      4199      4187
 -1      2222    8    0    1
 -2      1074      1076      1106      4251      4196      4280
 -1      2223    8    0    1
 -2      1111      1103      1109      4259      4282      4281
 -1      2224    8    0    1
 -2      1094      1109      1103      4271      4282      4182
 -3
    1PSTEP                         1           1           1          
  100CL  101 1.000000000        4282                     0    1           1
 -4  DISP        4    1
 -5  D1          1    2    1    0
 -5  D2          1    2    2    0
 -5  D3          1    2    3    0
 -5  ALL         1    2    0    0    1ALL
 -1         1 1.61052E-02 6.40906E-04-1.16385E-13
 -1         2 1.64622E-02 1.12759E-03-1.17004E-13
 -1         3 1.53463E-02 9.21294E-04-1.29098E-13
 -1         4 1.38174E-02 2.70825E-04-1.30322E-13
 -1         5 0.00000E+00 0.00000E+00 0.00000E+00
 -1         6 0.00000E+00 0.00000E+00 0.00000E+00
 -1         7 0.00000E+00 0.00000E+00 0.00000E+00
 -1         8 0.00000E+00 0.00000E+00 0.00000E+00
 -1         9 0.00000E+00 0.00000E+00 0.00000E+00
 -1        10 0.00000E+00 0.00000E+00 0.00000E+00
 -1        11 0.00000E+00 0.00000E+00 0.00000E+00
 -1        12 0.00000E+00 0.00000E+00 0.00000E+00
 -1        13 0.00000E+00 0.00000E+00 0.00000E+00
 -1        14 0.00000E+00 0.00000E+00 0.00000E+00
 -1        15 0.00000E+00 0.00000E+00 0.00000E+00
 -1        16 0.00000E+00 0.00000E+00 0.00000E+00
 -1        17 0.00000E+00 0.00000E+00 0.00000E+00
 -1        18 0.00000E+00 0.00000E+00 0.00000E+00
 -1        19 0.00000E+00 0.00000E+00 0.00000E+00
 -1        20 0.00000E+00 0.00000E+00 0.00000E+00
 -1        21 0.00000E+00 0.00000E+00 0.00000E+00
 -1        22 0.00000E+00 0.00000E+00 0.00000E+00
 -1        23 4.11410E-04-2.60726E-04 5.14352E-17
 -1        24 7.03438E-04-4.00958E-04-5.78828E-17
 -1        25 9.73564E-04-4.98330E-04-3.25176E-16
 -1        26 1.23812E-03-5.67077E-04-7.47310E-16
 -1        27 1.50174E-03-6.16348E-04-1.32189E-15
 -1        28 1.76650E-03-6.51532E-04-2.04566E-15
 -1        29 2.03337E-03-6.76343E-04-2.91638E-15
 -1        30 2.30271E-03-6.93486E-04-3.93003E-15
 -1        31 2.57458E-03-7.04989E-04-5.08477E-15
 -1        32 2.84884E-03-7.12390E-04-6.37901E-15
 -1        33 3.12525E-03-7.16854E-04-7.80544E-15
 -1        34 3.40354E-03-7.19260E-04-9.35510E-15
 -1        35 3.68343E-03-7.20261E-04-1.10317E-14
 -1        36 3.96464E-03-7.20331E-04-1.28344E-14
 -1        37 4.24691E-03-7.19811E-04-1.47625E-14
 -1        38 4.53003E-03-7.18933E-04-1.68102E-14
 -1        39 4.81380E-03-7.17851E-04-1.89754E-14
 -1        40 5.09809E-03-7.16657E-04-2.12587E-14
 -1        41 5.38276E-03-7.15398E-04-2.36546E-14
 -1        42 5.66773E-03-7.14089E-04-2.61571E-14
 -1        43 5.95295E-03-7.12721E-04-2.87701E-14
 -1        44 6.23837E-03-7.11273E-04-3.14903E-14
 -1        45 6.52401E-03-7.09714E-04-3.43121E-14
 -1        46 6.80990E-03-7.08017E-04-3.72348E-14
 -1        47 7.09610E-03-7.06164E-04-4.02488E-14
 -1        48 7.38272E-03-7.04160E-04-4.33456E-14
 -1        49 7.66988E-03-7.02048E-04-4.65162E-14
 -1        50 7.95775E-03-6.99922E-04-4.97621E-14
 -1        51 8.24651E-03-6.97954E-04-5.30799E-14
 -1        52 8.53633E-03-6.96410E-04-5.64680E-14
 -1        53 8.82736E-03-6.95675E-04-5.99095E-14
 -1        54 9.11962E-03-6.96255E-04-6.33951E-14
 -1        55 9.41298E-03-6.98768E-04-6.69200E-14
 -1        56 9.70697E-03-7.03879E-04-7.04825E-14
 -1        57 1.00007E-02-7.12181E-04-7.40786E-14
 -1        58 1.02928E-02-7.23970E-04-7.76876E-14
 -1        59 1.05812E-02-7.38929E-04-8.13069E-14
 -1        60 1.08632E-02-7.55707E-04-8.49433E-14
 -1        61 1.11359E-02-7.71487E-04-8.86079E-14
 -1        62 1.13964E-02-7.81695E-04-9.23124E-14
 -1        63 1.16430E-02-7.80055E-04-9.60589E-14
 -1        64 1.18759E-02-7.59216E-04-9.98374E-14
 -1        65 1.20977E-02-7.12035E-04-1.03641E-13
 -1        66 1.23138E-02-6.33322E-04-1.07459E-13
 -1        67 1.25316E-02-5.21593E-04-1.11300E-13
 -1        68 1.27591E-02-3.80237E-04-1.15142E-13
 -1        69 1.30028E-02-2.17657E-04-1.18984E-13
 -1        70 1.32659E-02-4.61239E-05-1.22812E-13
 -1        71 1.35454E-02 1.21565E-04-1.26659E-13
 -1        72 4.13855E-04 2.61432E-04 5.45896E-17
 -1        73 7.03262E-04 4.03664E-04-5.43219E-17
 -1        74 9.74101E-04 5.00101E-04-3.20531E-16
 -1        75 1.23895E-03 5.68788E-04-7.43546E-16
 -1        76 1.50269E-03 6.18108E-04-1.32188E-15
 -1        77 1.76753E-03 6.53383E-04-2.05341E-15
 -1        78 2.03443E-03 6.78306E-04-2.93345E-15
 -1        79 2.30380E-03 6.95572E-04-3.95661E-15
 -1        80 2.58934E-03 7.07666E-04-5.18448E-15
 -1        81 2.86372E-03 7.15025E-04-6.50026E-15
 -1        82 3.14024E-03 7.19502E-04-7.95497E-15
 -1        83 3.41862E-03 7.21959E-04-9.54123E-15
 -1        84 3.69858E-03 7.23038E-04-1.12554E-14
 -1        85 3.97985E-03 7.23208E-04-1.30968E-14
 -1        86 4.26216E-03 7.22801E-04-1.50620E-14
 -1        87 4.54531E-03 7.22047E-04-1.71535E-14
 -1        88 4.82911E-03 7.21094E-04-1.93634E-14
 -1        89 5.12763E-03 7.19974E-04-2.18059E-14
 -1        90 5.41231E-03 7.18839E-04-2.42510E-14
 -1        91 5.69727E-03 7.17644E-04-2.68185E-14
 -1        92 5.98244E-03 7.16371E-04-2.94967E-14
 -1        93 6.26780E-03 7.14979E-04-3.22847E-14
 -1        94 6.55335E-03 7.13417E-04-3.51666E-14
 -1        95 6.83912E-03 7.11617E-04-3.81470E-14
 -1        96 7.12517E-03 7.09505E-04-4.12232E-14
 -1        97 7.41164E-03 7.07000E-04-4.43760E-14
 -1        98 7.71309E-03 7.03856E-04-4.77653E-14
 -1        99 8.00111E-03 7.00290E-04-5.10594E-14
 -1       100 8.29046E-03 6.96106E-04-5.44168E-14
 -1       101 8.58176E-03 6.91283E-04-5.78358E-14
 -1       102 8.87591E-03 6.85886E-04-6.13078E-14
 -1       103 9.17423E-03 6.80149E-04-6.48349E-14
 -1       104 9.47870E-03 6.74626E-04-6.83989E-14
 -1       105 9.79220E-03 6.70491E-04-7.19939E-14
 -1       106 1.01190E-02 6.70092E-04-7.56231E-14
 -1       107 1.04831E-02 6.78653E-04-7.94674E-14
 -1       108 1.08587E-02 7.04297E-04-8.31397E-14
 -1       109 1.12727E-02 7.62637E-04-8.68103E-14
 -1       110 1.17339E-02 8.79317E-04-9.04916E-14
 -1       111 1.22413E-02 1.09078E-03-9.41784E-14
 -1       112 1.27675E-02 1.43234E-03-9.78374E-14
 -1       113 1.32447E-02 1.89771E-03-1.01464E-13
 -1       114 1.35880E-02 2.37708E-03-1.05058E-13
 -1       115 1.37802E-02 2.66377E-03-1.08618E-13
 -1       116 1.39031E-02 2.64660E-03-1.11612E-13
 -1       117 1.40910E-02 2.40644E-03-1.14771E-13
 -1       118 1.43967E-02 2.02929E-03-1.18317E-13
 -1       119 1.47419E-02 1.65740E-03-1.21894E-13
 -1       120 1.50595E-02 1.30163E-03-1.25487E-13
 -1       121 1.57456E-02 8.37462E-04-1.29204E-13
 -1       122 1.61713E-02 7.94155E-04-1.29336E-13
 -1       123 1.65597E-02 8.38998E-04-1.29468E-13
 -1       124 1.68282E-02 9.68703E-04-1.29596E-13
 -1       125 1.69468E-02 1.14809E-03-1.29707E-13
 -1       126 1.68989E-02 1.35231E-03-1.29806E-13
 -1       127 1.66818E-02 1.51645E-03-1.29890E-13
 -1       128 1.63228E-02 1.60000E-03-1.29981E-13
 -1       129 1.58652E-02 1.56982E-03-1.30080E-13
 -1       130 1.54100E-02 1.42830E-03-1.30194E-13
 -1       131 1.50454E-02 1.23512E-03-1.30287E-13
 -1       132 1.47661E-02 1.03309E-03-1.30346E-13
 -1       133 1.45539E-02 8.46949E-04-1.30370E-13
 -1       134 1.43866E-02 6.86711E-04-1.30383E-13
 -1       135 1.42437E-02 5.53945E-04-1.30378E-13
 -1       136 1.41084E-02 4.45845E-04-1.30365E-13
 -1       137 1.39680E-02 3.54649E-04-1.30342E-13
 -1       138 1.64314E-02 1.38490E-03-1.16825E-13
 -1       139 1.62490E-02 1.65095E-03-1.16286E-13
 -1       140 1.59165E-02 1.91154E-03-1.15359E-13
 -1       141 1.55147E-02 2.12209E-03-1.14246E-13
 -1       142 1.49883E-02 2.30794E-03-1.12756E-13
 -1       143 1.44260E-02 2.41659E-03-1.11136E-13
 -1       144 1.38208E-02 2.43328E-03-1.09362E-13
 -1       145 1.32399E-02 2.34786E-03-1.07631E-13
 -1       146 1.26780E-02 2.17060E-03-1.05926E-13
 -1       147 1.21542E-02 1.91978E-03-1.04267E-13
 -1       148 1.16542E-02 1.59716E-03-1.02600E-13
 -1       149 1.13404E-02 1.33302E-03-1.01503E-13
 -1       150 1.11139E-02 1.07556E-03-1.00671E-13
 -1       151 1.09837E-02 8.29356E-04-1.00154E-13
 -1       152 1.09598E-02 6.13968E-04-1.00016E-13
 -1       153 1.10338E-02 4.19889E-04-1.00243E-13
 -1       154 1.11970E-02 2.53069E-04-1.00801E-13
 -1       155 1.14574E-02 1.06368E-04-1.01723E-13
 -1       156 1.18040E-02-9.76592E-06-1.02972E-13
 -1       157 1.22284E-02-9.25088E-05-1.04505E-13
 -1       158 1.26897E-02-1.33632E-04-1.06134E-13
 -1       159 1.31978E-02-1.36869E-04-1.07892E-13
 -1       160 1.37214E-02-1.01424E-04-1.09645E-13
 -1       161 1.43447E-02-1.15889E-05-1.11638E-13
 -1       162 1.50016E-02 1.45913E-04-1.13597E-13
 -1       163 1.54815E-02 3.09251E-04-1.14897E-13
 -1       164 1.58440E-02 4.76883E-04-1.15794E-13
 -1       165 1.62768E-02 7.90081E-04-1.16727E-13
 -1       166 1.63978E-02 9.50100E-04-1.16934E-13
 -1       167 2.40429E-04-1.25497E-04-2.58108E-17
 -1       168 2.25291E-04-9.45916E-05-4.98055E-17
 -1       169 2.19529E-04-7.27465E-05-6.32598E-17
 -1       170 2.16706E-04-5.50784E-05-7.10593E-17
 -1       171 2.15209E-04-3.99437E-05-7.51284E-17
 -1       172 2.14368E-04-2.58978E-05-7.72833E-17
 -1       173 2.13945E-04-1.26348E-05-7.82252E-17
 -1       174 2.13821E-04 2.72917E-07-7.86352E-17
 -1       175 2.13964E-04 1.31930E-05-7.81778E-17
 -1       176 2.14408E-04 2.64955E-05-7.68428E-17
 -1       177 2.15258E-04 4.03689E-05-7.44203E-17
 -1       178 2.16815E-04 5.58850E-05-7.00733E-17
 -1       179 2.19680E-04 7.37866E-05-6.25415E-17
 -1       180 2.25462E-04 9.59908E-05-4.90195E-17
 -1       181 2.39360E-04 1.27575E-04-2.45369E-17
 -1       182 2.97739E-04 1.85485E-04 1.09775E-18
 -1       183 4.68676E-04-2.63523E-04-7.08763E-17
 -1       184 7.66862E-04-3.82101E-04-2.93233E-16
 -1       185 1.05076E-03-4.64977E-04-6.63227E-16
 -1       186 1.32821E-03-5.23754E-04-1.18182E-15
 -1       187 1.60288E-03-5.65459E-04-1.84692E-15
 -1       188 1.87685E-03-5.94783E-04-2.65700E-15
 -1       189 2.15124E-03-6.15037E-04-3.61004E-15
 -1       190 2.42667E-03-6.28652E-04-4.70183E-15
 -1       191 2.70337E-03-6.37449E-04-5.93132E-15
 -1       192 2.98143E-03-6.42800E-04-7.29516E-15
 -1       193 3.26079E-03-6.45735E-04-8.78592E-15
 -1       194 3.54133E-03-6.47019E-04-1.04014E-14
 -1       195 3.82290E-03-6.47210E-04-1.21423E-14
 -1       196 4.10536E-03-6.46709E-04-1.40076E-14
 -1       197 4.38854E-03-6.45793E-04-1.59942E-14
 -1       198 4.67231E-03-6.44645E-04-1.81008E-14
 -1       199 4.95656E-03-6.43379E-04-2.03219E-14
 -1       200 5.24119E-03-6.42056E-04-2.26599E-14
 -1       201 5.52612E-03-6.40700E-04-2.51076E-14
 -1       202 5.81130E-03-6.39304E-04-2.76606E-14
 -1       203 6.09670E-03-6.37845E-04-3.03237E-14
 -1       204 6.38231E-03-6.36291E-04-3.30901E-14
 -1       205 6.66815E-03-6.34604E-04-3.59586E-14
 -1       206 6.95426E-03-6.32753E-04-3.89217E-14
 -1       207 7.24069E-03-6.30722E-04-4.19693E-14
 -1       208 7.52754E-03-6.28526E-04-4.50978E-14
 -1       209 7.81492E-03-6.26224E-04-4.82999E-14
 -1       210 8.10294E-03-6.23943E-04-5.15779E-14
 -1       211 8.39173E-03-6.21900E-04-5.49229E-14
 -1       212 8.68138E-03-6.20428E-04-5.83295E-14
 -1       213 8.97195E-03-6.19993E-04-6.17869E-14
 -1       214 9.26336E-03-6.21203E-04-6.52851E-14
 -1       215 9.55537E-03-6.24773E-04-6.88218E-14
 -1       216 9.84751E-03-6.31447E-04-7.23945E-14
 -1       217 1.01390E-02-6.41825E-04-7.59922E-14
 -1       218 1.04285E-02-6.56084E-04-7.96077E-14
 -1       219 1.07146E-02-6.73578E-04-8.32341E-14
 -1       220 1.09953E-02-6.92357E-04-8.68817E-14
 -1       221 1.12687E-02-7.08718E-04-9.05646E-14
 -1       222 1.15333E-02-7.16991E-04-9.42839E-14
 -1       223 1.17885E-02-7.09831E-04-9.80382E-14
 -1       224 1.20351E-02-6.79212E-04-1.01818E-13
 -1       225 1.22758E-02-6.18113E-04-1.05616E-13
 -1       226 1.25147E-02-5.22532E-04-1.09432E-13
 -1       227 1.27567E-02-3.93188E-04-1.13260E-13
 -1       228 1.30065E-02-2.36325E-04-1.17091E-13
 -1       229 1.32672E-02-6.32205E-05-1.20923E-13
 -1       230 1.35397E-02 1.11735E-04-1.24760E-13
 -1       231 6.04634E-04 3.31004E-04-1.28505E-16
 -1       232 8.93774E-04 4.32607E-04-4.05390E-16
 -1       233 1.17272E-03 5.04350E-04-8.32955E-16
 -1       234 1.44713E-03 5.55444E-04-1.41109E-15
 -1       235 1.72002E-03 5.91714E-04-2.13886E-15
 -1       236 1.99300E-03 6.17144E-04-3.01398E-15
 -1       237 2.26693E-03 6.34614E-04-4.03227E-15
 -1       238 2.55600E-03 6.46724E-04-5.25389E-15
 -1       239 2.83283E-03 6.53991E-04-6.55947E-15
 -1       240 3.11111E-03 6.58319E-04-8.00156E-15
 -1       241 3.39074E-03 6.60604E-04-9.57595E-15
 -1       242 3.67156E-03 6.61510E-04-1.12780E-14
 -1       243 3.95340E-03 6.61518E-04-1.31055E-14
 -1       244 4.23609E-03 6.60967E-04-1.50560E-14
 -1       245 4.51948E-03 6.60089E-04-1.71302E-14
 -1       246 4.80342E-03 6.59033E-04-1.93217E-14
 -1       247 5.10203E-03 6.57829E-04-2.17462E-14
 -1       248 5.38678E-03 6.56633E-04-2.41749E-14
 -1       249 5.67180E-03 6.55391E-04-2.67222E-14
 -1       250 5.95704E-03 6.54082E-04-2.93842E-14
 -1       251 6.24248E-03 6.52663E-04-3.21535E-14
 -1       252 6.52814E-03 6.51075E-04-3.50205E-14
 -1       253 6.81403E-03 6.49246E-04-3.79820E-14
 -1       254 7.10023E-03 6.47093E-04-4.10367E-14
 -1       255 7.38686E-03 6.44524E-04-4.41713E-14
 -1       256 7.68846E-03 6.41270E-04-4.75420E-14
 -1       257 7.97657E-03 6.37537E-04-5.08214E-14
 -1       258 8.26589E-03 6.33092E-04-5.41651E-14
 -1       259 8.55693E-03 6.27867E-04-5.75700E-14
 -1       260 8.85042E-03 6.21853E-04-6.10298E-14
 -1       261 9.14736E-03 6.15173E-04-6.45441E-14
 -1       262 9.44920E-03 6.08209E-04-6.80976E-14
 -1       263 9.75796E-03 6.01873E-04-7.16859E-14
 -1       264 1.00764E-02 5.98101E-04-7.53023E-14
 -1       265 1.04254E-02 6.01206E-04-7.91275E-14
 -1       266 1.07767E-02 6.18923E-04-8.27911E-14
 -1       267 1.11519E-02 6.65610E-04-8.64585E-14
 -1       268 1.15560E-02 7.66185E-04-9.01347E-14
 -1       269 1.19899E-02 9.58377E-04-9.38171E-14
 -1       270 1.24459E-02 1.28450E-03-9.74827E-14
 -1       271 1.29004E-02 1.75368E-03-1.01115E-13
 -1       272 1.33176E-02 2.26947E-03-1.04722E-13
 -1       273 1.36774E-02 2.60682E-03-1.08300E-13
 -1       274 1.39590E-02 2.61251E-03-1.11317E-13
 -1       275 1.42676E-02 2.37048E-03-1.14499E-13
 -1       276 1.46310E-02 1.98263E-03-1.18058E-13
 -1       277 1.49884E-02 1.61238E-03-1.21637E-13
 -1       278 1.53145E-02 1.26920E-03-1.25239E-13
 -1       279 1.57133E-02 1.13449E-03-1.26147E-13
 -1       280 1.61320E-02 1.09411E-03-1.26255E-13
 -1       281 1.64791E-02 1.09709E-03-1.26358E-13
 -1       282 1.67062E-02 1.13620E-03-1.26451E-13
 -1       283 1.67801E-02 1.20233E-03-1.26547E-13
 -1       284 1.66553E-02 1.26607E-03-1.26633E-13
 -1       285 1.63380E-02 1.29804E-03-1.26717E-13
 -1       286 1.58668E-02 1.26949E-03-1.26805E-13
 -1       287 1.53615E-02 1.17210E-03-1.26888E-13
 -1       288 1.49439E-02 1.03588E-03-1.26955E-13
 -1       289 1.46229E-02 8.84831E-04-1.27008E-13
 -1       290 1.43838E-02 7.35490E-04-1.27041E-13
 -1       291 1.42023E-02 5.96748E-04-1.27057E-13
 -1       292 1.40553E-02 4.72220E-04-1.27057E-13
 -1       293 1.39233E-02 3.62236E-04-1.27044E-13
 -1       294 1.37335E-02 2.33257E-04-1.25906E-13
 -1       295 1.65032E-02 1.21917E-03-1.18385E-13
 -1       296 1.63438E-02 1.36773E-03-1.18039E-13
 -1       297 1.59833E-02 1.56549E-03-1.17234E-13
 -1       298 1.55339E-02 1.83548E-03-1.15854E-13
 -1       299 1.50096E-02 2.10349E-03-1.14430E-13
 -1       300 1.45073E-02 2.36657E-03-1.12536E-13
 -1       301 1.40291E-02 2.52091E-03-1.10559E-13
 -1       302 1.35863E-02 2.50265E-03-1.08478E-13
 -1       303 1.31361E-02 2.31483E-03-1.06473E-13
 -1       304 1.26816E-02 1.99603E-03-1.04415E-13
 -1       305 1.21700E-02 1.58226E-03-1.02297E-13
 -1       306 1.16503E-02 1.26473E-03-1.00920E-13
 -1       307 1.12920E-02 1.01548E-03-9.97810E-14
 -1       308 1.10398E-02 8.17669E-04-9.88880E-14
 -1       309 1.09270E-02 6.79673E-04-9.85052E-14
 -1       310 1.09623E-02 5.66690E-04-9.85592E-14
 -1       311 1.11286E-02 4.47690E-04-9.91229E-14
 -1       312 1.14063E-02 3.17353E-04-9.99063E-14
 -1       313 1.17724E-02 1.63549E-04-1.01115E-13
 -1       314 1.21898E-02-3.57997E-08-1.02655E-13
 -1       315 1.25816E-02-1.38627E-04-1.04741E-13
 -1       316 1.29931E-02-2.16278E-04-1.06715E-13
 -1       317 1.34056E-02-2.11739E-04-1.08808E-13
 -1       318 1.38630E-02-1.08722E-04-1.11068E-13
 -1       319 1.43978E-02 1.26827E-04-1.13593E-13
 -1       320 1.50097E-02 3.81624E-04-1.15331E-13
 -1       321 1.55020E-02 5.86687E-04-1.16471E-13
 -1       322 1.58911E-02 7.40766E-04-1.17148E-13
 -1       323 1.61158E-02 8.41043E-04-1.17495E-13
 -1       324 1.63493E-02 9.81299E-04-1.17890E-13
 -1       325 1.64602E-02 1.07860E-03-1.17953E-13
 -1       326 4.55420E-04-1.64742E-04-2.15543E-16
 -1       327 4.74301E-04-2.12933E-04-1.75177E-16
 -1       328 4.40430E-04-9.39697E-05-2.56014E-16
 -1       329 4.37452E-04-6.48754E-05-2.65101E-16
 -1       330 4.35819E-04-3.78828E-05-2.70220E-16
 -1       331 4.35102E-04-1.20096E-05-2.72602E-16
 -1       332 4.35133E-04 1.35280E-05-2.72677E-16
 -1       333 4.35916E-04 3.94588E-05-2.69919E-16
 -1       334 4.37593E-04 6.61028E-05-2.64217E-16
 -1       335 4.40665E-04 9.53686E-05-2.54605E-16
 -1       336 4.46072E-04 1.28276E-04-2.38982E-16
 -1       337 4.55926E-04 1.67256E-04-2.13849E-16
 -1       338 4.75936E-04 2.17003E-04-1.72910E-16
 -1       339 5.32075E-04 2.69933E-04-1.58863E-16
 -1       340 8.24593E-04 3.73452E-04-4.40227E-16
 -1       341 1.62303E-02 1.00182E-03-1.18830E-13
 -1       342 8.63364E-04-3.57345E-04-5.59110E-16
 -1       343 1.14976E-03-4.26091E-04-1.02598E-15
 -1       344 1.43259E-03-4.75266E-04-1.63672E-15
 -1       345 1.71336E-03-5.10018E-04-2.38961E-15
 -1       346 1.99319E-03-5.34151E-04-3.28382E-15
 -1       347 2.27286E-03-5.50493E-04-4.31547E-15
 -1       348 2.55281E-03-5.61168E-04-5.48314E-15
 -1       349 2.83332E-03-5.67777E-04-6.78520E-15
 -1       350 3.11450E-03-5.71523E-04-8.21640E-15
 -1       351 3.39637E-03-5.73300E-04-9.77212E-15
 -1       352 3.67890E-03-5.73766E-04-1.14523E-14
 -1       353 3.96203E-03-5.73394E-04-1.32569E-14
 -1       354 4.24568E-03-5.72515E-04-1.51830E-14
 -1       355 4.52977E-03-5.71353E-04-1.72299E-14
 -1       356 4.81423E-03-5.70049E-04-1.93923E-14
 -1       357 5.09899E-03-5.68682E-04-2.16699E-14
 -1       358 5.38401E-03-5.67290E-04-2.40602E-14
 -1       359 5.66923E-03-5.65875E-04-2.65595E-14
 -1       360 5.95463E-03-5.64418E-04-2.91653E-14
 -1       361 6.24021E-03-5.62884E-04-3.18770E-14
 -1       362 6.52597E-03-5.61233E-04-3.46909E-14
 -1       363 6.81192E-03-5.59424E-04-3.76024E-14
 -1       364 7.09811E-03-5.57426E-04-4.06036E-14
 -1       365 7.38459E-03-5.55230E-04-4.36856E-14
 -1       366 7.67142E-03-5.52862E-04-4.68455E-14
 -1       367 7.95871E-03-5.50405E-04-5.00819E-14
 -1       368 8.24654E-03-5.48018E-04-5.33910E-14
 -1       369 8.53502E-03-5.45968E-04-5.67609E-14
 -1       370 8.82424E-03-5.44649E-04-6.01849E-14
 -1       371 9.11424E-03-5.44604E-04-6.36552E-14
 -1       372 9.40504E-03-5.46523E-04-6.71691E-14
 -1       373 9.69649E-03-5.51195E-04-7.07202E-14
 -1       374 9.98832E-03-5.59404E-04-7.43009E-14
 -1       375 1.02800E-02-5.71715E-04-7.79046E-14
 -1       376 1.05707E-02-5.88131E-04-8.15234E-14
 -1       377 1.08592E-02-6.07633E-04-8.51607E-14
 -1       378 1.11440E-02-6.27630E-04-8.88233E-14
 -1       379 1.14236E-02-6.43494E-04-9.25191E-14
 -1       380 1.16964E-02-6.48441E-04-9.62465E-14
 -1       381 1.19619E-02-6.34075E-04-1.00006E-13
 -1       382 1.22208E-02-5.91813E-04-1.03785E-13
 -1       383 1.24754E-02-5.15043E-04-1.07579E-13
 -1       384 1.27291E-02-4.01385E-04-1.11389E-13
 -1       385 1.29858E-02-2.54205E-04-1.15206E-13
 -1       386 1.32490E-02-8.27511E-05-1.19030E-13
 -1       387 1.34877E-02 7.71449E-05-1.22461E-13
 -1       388 1.11012E-03 4.47764E-04-8.67199E-16
 -1       389 1.39092E-03 5.00829E-04-1.44126E-15
 -1       390 1.66929E-03 5.38456E-04-2.16229E-15
 -1       391 1.94676E-03 5.64772E-04-3.02892E-15
 -1       392 2.22426E-03 5.82791E-04-4.03792E-15
 -1       393 2.51626E-03 5.95228E-04-5.24834E-15
 -1       394 2.79522E-03 6.02648E-04-6.54209E-15
 -1       395 3.07513E-03 6.07027E-04-7.97030E-15
 -1       396 3.35597E-03 6.09302E-04-9.53035E-15
 -1       397 3.63769E-03 6.10161E-04-1.12178E-14
 -1       398 3.92018E-03 6.10104E-04-1.30292E-14
 -1       399 4.20334E-03 6.09483E-04-1.49632E-14
 -1       400 4.48706E-03 6.08537E-04-1.70193E-14
 -1       401 4.77123E-03 6.07421E-04-1.91933E-14
 -1       402 5.07001E-03 6.06164E-04-2.15986E-14
 -1       403 5.35488E-03 6.04927E-04-2.40087E-14
 -1       404 5.63998E-03 6.03656E-04-2.65368E-14
 -1       405 5.92529E-03 6.02328E-04-2.91800E-14
 -1       406 6.21080E-03 6.00897E-04-3.19319E-14
 -1       407 6.49650E-03 5.99303E-04-3.47824E-14
 -1       408 6.78243E-03 5.97470E-04-3.77266E-14
 -1       409 7.06864E-03 5.95312E-04-4.07624E-14
 -1       410 7.35522E-03 5.92731E-04-4.38779E-14
 -1       411 7.65668E-03 5.89450E-04-4.72318E-14
 -1       412 7.94451E-03 5.85667E-04-5.04956E-14
 -1       413 8.23331E-03 5.81131E-04-5.38266E-14
 -1       414 8.52345E-03 5.75754E-04-5.72195E-14
 -1       415 8.81541E-03 5.69495E-04-6.06663E-14
 -1       416 9.10986E-03 5.62422E-04-6.41680E-14
 -1       417 9.40767E-03 5.54836E-04-6.77135E-14
 -1       418 9.70997E-03 5.47503E-04-7.12921E-14
 -1       419 1.00183E-02 5.42104E-04-7.48974E-14
 -1       420 1.03505E-02 5.42299E-04-7.87126E-14
 -1       421 1.06774E-02 5.55164E-04-8.23673E-14
 -1       422 1.10178E-02 5.93282E-04-8.60312E-14
 -1       423 1.13761E-02 6.78866E-04-8.97043E-14
 -1       424 1.17591E-02 8.46908E-04-9.33851E-14
 -1       425 1.21757E-02 1.14213E-03-9.70543E-14
 -1       426 1.26291E-02 1.59351E-03-1.00695E-13
 -1       427 1.31053E-02 2.13840E-03-1.04312E-13
 -1       428 1.35757E-02 2.54264E-03-1.07906E-13
 -1       429 1.39646E-02 2.58242E-03-1.10939E-13
 -1       430 1.43702E-02 2.33677E-03-1.14138E-13
 -1       431 1.51658E-02 1.66859E-03-1.19925E-13
 -1       432 1.54641E-02 1.39844E-03-1.23030E-13
 -1       433 1.64408E-02 1.19387E-03-1.23713E-13
 -1       434 1.60956E-02 1.24072E-03-1.23624E-13
 -1       435 1.66324E-02 1.18611E-03-1.23796E-13
 -1       436 1.66044E-02 1.19477E-03-1.23877E-13
 -1       437 1.63313E-02 1.18426E-03-1.23958E-13
 -1       438 1.58484E-02 1.11872E-03-1.24035E-13
 -1       439 1.53036E-02 9.98112E-04-1.24106E-13
 -1       440 1.48485E-02 8.60632E-04-1.24158E-13
 -1       441 1.44983E-02 7.24759E-04-1.24195E-13
 -1       442 1.42388E-02 5.97037E-04-1.24223E-13
 -1       443 1.40448E-02 4.78357E-04-1.24237E-13
 -1       444 1.38922E-02 3.68378E-04-1.24235E-13
 -1       445 1.37605E-02 2.66673E-04-1.24224E-13
 -1       446 1.61708E-02 1.34672E-03-1.19542E-13
 -1       447 1.65166E-02 1.15440E-03-1.19612E-13
 -1       448 1.64694E-02 1.23866E-03-1.19861E-13
 -1       449 1.56572E-02 1.59816E-03-1.17838E-13
 -1       450 1.60370E-02 9.23010E-04-1.18483E-13
 -1       451 1.52074E-02 1.85295E-03-1.16405E-13
 -1       452 1.64161E-02 1.08862E-03-1.19222E-13
 -1       453 4.45608E-04-1.26431E-04-2.40527E-16
 -1       454 1.42109E-02 2.47052E-03-1.12093E-13
 -1       455 1.37976E-02 2.57741E-03-1.09585E-13
 -1       456 1.34689E-02 2.48129E-03-1.07591E-13
 -1       457 1.30552E-02 2.18110E-03-1.05075E-13
 -1       458 1.25869E-02 1.73991E-03-1.02531E-13
 -1       459 1.19601E-02 1.24912E-03-1.00102E-13
 -1       460 1.15339E-02 1.00022E-03-9.89562E-14
 -1       461 1.11902E-02 7.92014E-04-9.76189E-14
 -1       462 1.09595E-02 6.79340E-04-9.71381E-14
 -1       463 1.09102E-02 6.03672E-04-9.69491E-14
 -1       464 1.10280E-02 5.29292E-04-9.71230E-14
 -1       465 1.12608E-02 4.36289E-04-9.79560E-14
 -1       466 1.16066E-02 2.94979E-04-9.90314E-14
 -1       467 1.19970E-02 1.18445E-04-1.00593E-13
 -1       468 1.24768E-02-1.00023E-04-1.03110E-13
 -1       469 1.27900E-02-2.10134E-04-1.05082E-13
 -1       470 1.31694E-02-2.58244E-04-1.07631E-13
 -1       471 1.35336E-02-1.97499E-04-1.10118E-13
 -1       472 1.39344E-02 5.65387E-07-1.12949E-13
 -1       473 1.46173E-02 3.55418E-04-1.15737E-13
 -1       474 1.51750E-02 6.12020E-04-1.17194E-13
 -1       475 1.56620E-02 7.91619E-04-1.17978E-13
 -1       476 1.46383E-02 2.21732E-03-1.14210E-13
 -1       477 1.47067E-02 2.06270E-03-1.16335E-13
 -1       478 1.41695E-02 1.91681E-04-1.15093E-13
 -1       479 9.31339E-04 3.45964E-04-7.26978E-16
 -1       480 6.65781E-04-7.50998E-05-5.69914E-16
 -1       481 6.69764E-04-1.15843E-04-5.56250E-16
 -1       482 6.63094E-04 1.10430E-06-5.79726E-16
 -1       483 6.63818E-04 3.87484E-05-5.77226E-16
 -1       484 6.65968E-04 7.67862E-05-5.69389E-16
 -1       485 6.70078E-04 1.17685E-04-5.55267E-16
 -1       486 6.77109E-04 1.62293E-04-5.32838E-16
 -1       487 6.89050E-04 2.12653E-04-4.98431E-16
 -1       488 9.76379E-04-3.28555E-04-8.58021E-16
 -1       489 1.53861E-02 1.65401E-03-1.18457E-13
 -1       490 1.21725E-03 4.06446E-04-1.24771E-15
 -1       491 7.12663E-04-2.51772E-04-4.83347E-16
 -1       492 1.26231E-03-3.83435E-04-1.41642E-15
 -1       493 1.54736E-03-4.23192E-04-2.11467E-15
 -1       494 1.83151E-03-4.51271E-04-2.95248E-15
 -1       495 2.11508E-03-4.70579E-04-3.92630E-15
 -1       496 2.39839E-03-4.83414E-04-5.03439E-15
 -1       497 2.68167E-03-4.91551E-04-6.27555E-15
 -1       498 2.96510E-03-4.96348E-04-7.64624E-15
 -1       499 3.24876E-03-4.98824E-04-9.14373E-15
 -1       500 3.53268E-03-4.99734E-04-1.07647E-14
 -1       501 3.81689E-03-4.99629E-04-1.25097E-14
 -1       502 4.10136E-03-4.98896E-04-1.43764E-14
 -1       503 4.38606E-03-4.97804E-04-1.63623E-14
 -1       504 4.67098E-03-4.96526E-04-1.84669E-14
 -1       505 4.95607E-03-4.95166E-04-2.06857E-14
 -1       506 5.24131E-03-4.93778E-04-2.30187E-14
 -1       507 5.52668E-03-4.92376E-04-2.54624E-14
 -1       508 5.81217E-03-4.90949E-04-2.80154E-14
 -1       509 6.09776E-03-4.89468E-04-3.06736E-14
 -1       510 6.38346E-03-4.87889E-04-3.34339E-14
 -1       511 6.66927E-03-4.86170E-04-3.62923E-14
 -1       512 6.95521E-03-4.84267E-04-3.92454E-14
 -1       513 7.24132E-03-4.82154E-04-4.22832E-14
 -1       514 7.52764E-03-4.79825E-04-4.53997E-14
 -1       515 7.81423E-03-4.77320E-04-4.85941E-14
 -1       516 8.10117E-03-4.74738E-04-5.18639E-14
 -1       517 8.38857E-03-4.72262E-04-5.52000E-14
 -1       518 8.67656E-03-4.70190E-04-5.85917E-14
 -1       519 8.96529E-03-4.68956E-04-6.20328E-14
 -1       520 9.25496E-03-4.69153E-04-6.55203E-14
 -1       521 9.54575E-03-4.71523E-04-6.90481E-14
 -1       522 9.83782E-03-4.76909E-04-7.26096E-14
 -1       523 1.01312E-02-4.86138E-04-7.61995E-14
 -1       524 1.04258E-02-4.99780E-04-7.98112E-14
 -1       525 1.07211E-02-5.17763E-04-8.34396E-14
 -1       526 1.10160E-02-5.38822E-04-8.70859E-14
 -1       527 1.13089E-02-5.59835E-04-9.07604E-14
 -1       528 1.15977E-02-5.75246E-04-9.44645E-14
 -1       529 1.18803E-02-5.76939E-04-9.82024E-14
 -1       530 1.21556E-02-5.55081E-04-1.01961E-13
 -1       531 1.24240E-02-5.00196E-04-1.05735E-13
 -1       532 1.26881E-02-4.06086E-04-1.09525E-13
 -1       533 1.29517E-02-2.72421E-04-1.13329E-13
 -1       534 1.32187E-02-1.05766E-04-1.17138E-13
 -1       535 1.78418E-03 4.81033E-04-2.72014E-15
 -1       536 2.06622E-03 5.02421E-04-3.66889E-15
 -1       537 2.36210E-03 5.17367E-04-4.81443E-15
 -1       538 2.64400E-03 5.26438E-04-6.04571E-15
 -1       539 2.92622E-03 5.31933E-04-7.41072E-15
 -1       540 3.20885E-03 5.34935E-04-8.90698E-15
 -1       541 3.49192E-03 5.36244E-04-1.05312E-14
 -1       542 3.77543E-03 5.36444E-04-1.22798E-14
 -1       543 4.05934E-03 5.35952E-04-1.41505E-14
 -1       544 4.34361E-03 5.35054E-04-1.61411E-14
 -1       545 4.62818E-03 5.33941E-04-1.82508E-14
 -1       546 4.92726E-03 5.32666E-04-2.05893E-14
 -1       547 5.21232E-03 5.31412E-04-2.29341E-14
 -1       548 5.49756E-03 5.30135E-04-2.53968E-14
 -1       549 5.78295E-03 5.28824E-04-2.79746E-14
 -1       550 6.06849E-03 5.27439E-04-3.06672E-14
 -1       551 6.35417E-03 5.25926E-04-3.34623E-14
 -1       552 6.64001E-03 5.24214E-04-3.63507E-14
 -1       553 6.92604E-03 5.22220E-04-3.93304E-14
 -1       554 7.21229E-03 5.19849E-04-4.23954E-14
 -1       555 7.51318E-03 5.16843E-04-4.56976E-14
 -1       556 7.80013E-03 5.13376E-04-4.89192E-14
 -1       557 8.08756E-03 5.09213E-04-5.22076E-14
 -1       558 8.37561E-03 5.04261E-04-5.55632E-14
 -1       559 8.66440E-03 4.98470E-04-5.89735E-14
 -1       560 8.95409E-03 4.91870E-04-6.24385E-14
 -1       561 9.24477E-03 4.84670E-04-6.59553E-14
 -1       562 9.53645E-03 4.77410E-04-6.95121E-14
 -1       563 9.82903E-03 4.71257E-04-7.30968E-14
 -1       564 1.01368E-02 4.68537E-04-7.68911E-14
 -1       565 1.04300E-02 4.74085E-04-8.05285E-14
 -1       566 1.07229E-02 4.95563E-04-8.41822E-14
 -1       567 1.10171E-02 5.46469E-04-8.78482E-14
 -1       568 1.13189E-02 6.49179E-04-9.15245E-14
 -1       569 1.16454E-02 8.39657E-04-9.51971E-14
 -1       570 1.21120E-02 1.21228E-03-9.88631E-14
 -1       571 1.65774E-02 1.18351E-03-1.21847E-13
 -1       572 1.61107E-02 1.30650E-03-1.21392E-13
 -1       573 1.63919E-02 1.14700E-03-1.21923E-13
 -1       574 1.59474E-02 1.06402E-03-1.21888E-13
 -1       575 1.53286E-02 8.94538E-04-1.21531E-13
 -1       576 1.47913E-02 7.14847E-04-1.21366E-13
 -1       577 1.44053E-02 5.73265E-04-1.21395E-13
 -1       578 1.41218E-02 4.54938E-04-1.21413E-13
 -1       579 1.39115E-02 3.52027E-04-1.21422E-13
 -1       580 1.37494E-02 2.57453E-04-1.21421E-13
 -1       581 1.36147E-02 1.67401E-04-1.21408E-13
 -1       582 1.58762E-02 1.40996E-03-1.20221E-13
 -1       583 1.50140E-03 4.50124E-04-1.91229E-15
 -1       584 1.58716E-02 9.68742E-04-1.19857E-13
 -1       585 1.22168E-02-6.21504E-06-1.00731E-13
 -1       586 1.60778E-02 1.03375E-03-1.20206E-13
 -1       587 6.63706E-04-3.65040E-05-5.77344E-16
 -1       588 1.32557E-02-2.56827E-04-1.08720E-13
 -1       589 1.13918E-02 8.11614E-04-9.68113E-14
 -1       590 1.10341E-02 6.53387E-04-9.56211E-14
 -1       591 1.08891E-02 5.84166E-04-9.49524E-14
 -1       592 1.09120E-02 5.41522E-04-9.49468E-14
 -1       593 1.11062E-02 4.71319E-04-9.54060E-14
 -1       594 1.13695E-02 3.78721E-04-9.64806E-14
 -1       595 1.17531E-02 2.10311E-04-9.80259E-14
 -1       596 1.26149E-02-1.80488E-04-1.03463E-13
 -1       597 1.29542E-02-2.68587E-04-1.06164E-13
 -1       598 1.35728E-02-1.34337E-04-1.11555E-13
 -1       599 1.48787E-02 5.98664E-04-1.18177E-13
 -1       600 7.03879E-04 2.90838E-04-4.01168E-16
 -1       601 1.54407E-02 8.16760E-04-1.19078E-13
 -1       602 1.64095E-02 1.23394E-03-1.21560E-13
 -1       603 6.76585E-04-1.60024E-04-5.34349E-16
 -1       604 1.34300E-02 3.83583E-05-1.20220E-13
 -1       605 1.16229E-02 9.05581E-04-9.70772E-14
 -1       606 1.44395E-02 4.16219E-04-1.17542E-13
 -1       607 1.11734E-02 6.66225E-04-9.48133E-14
 -1       608 1.51764E-02 1.74698E-03-1.18319E-13
 -1       609 1.37881E-02 1.26887E-05-1.13703E-13
 -1       610 8.99693E-04 7.40862E-05-9.85879E-16
 -1       611 8.97593E-04 2.51693E-05-9.93810E-16
 -1       612 9.11808E-04 1.78177E-04-9.42283E-16
 -1       613 9.24215E-04 2.36733E-04-9.00952E-16
 -1       614 1.09777E-03-2.94558E-04-1.19017E-15
 -1       615 1.04894E-03 3.13857E-04-1.04671E-15
 -1       616 2.48980E-03 4.48976E-04-5.55003E-15
 -1       617 1.38334E-03-3.36988E-04-1.83502E-15
 -1       618 1.66954E-03-3.67920E-04-2.61753E-15
 -1       619 1.95575E-03-3.89726E-04-3.53507E-15
 -1       620 2.24180E-03-4.04569E-04-4.58567E-15
 -1       621 2.52766E-03-4.14244E-04-5.76738E-15
 -1       622 2.81337E-03-4.20178E-04-7.07898E-15
 -1       623 3.09899E-03-4.23471E-04-8.51748E-15
 -1       624 3.38457E-03-4.24953E-04-1.00794E-14
 -1       625 3.67012E-03-4.25236E-04-1.17657E-14
 -1       626 3.95566E-03-4.24762E-04-1.35736E-14
 -1       627 4.24122E-03-4.23838E-04-1.55004E-14
 -1       628 4.52680E-03-4.22670E-04-1.75467E-14
 -1       629 4.81240E-03-4.21386E-04-1.97074E-14
 -1       630 5.09802E-03-4.20061E-04-2.19834E-14
 -1       631 5.38366E-03-4.18722E-04-2.43718E-14
 -1       632 5.66932E-03-4.17370E-04-2.68712E-14
 -1       633 5.95500E-03-4.15982E-04-2.94770E-14
 -1       634 6.24069E-03-4.14521E-04-3.21855E-14
 -1       635 6.52642E-03-4.12942E-04-3.49912E-14
 -1       636 6.81217E-03-4.11199E-04-3.78952E-14
 -1       637 7.09796E-03-4.09249E-04-4.08868E-14
 -1       638 7.38382E-03-4.07065E-04-4.39610E-14
 -1       639 7.66979E-03-4.04644E-04-4.71148E-14
 -1       640 7.95592E-03-4.02025E-04-5.03437E-14
 -1       641 8.24231E-03-3.99308E-04-5.36437E-14
 -1       642 8.52910E-03-3.96678E-04-5.70031E-14
 -1       643 8.81652E-03-3.94430E-04-6.04160E-14
 -1       644 9.10486E-03-3.93002E-04-6.38758E-14
 -1       645 9.39453E-03-3.92997E-04-6.73785E-14
 -1       646 9.68604E-03-3.95187E-04-7.09185E-14
 -1       647 9.97995E-03-4.00485E-04-7.44930E-14
 -1       648 1.02768E-02-4.09840E-04-7.80953E-14
 -1       649 1.05768E-02-4.24006E-04-8.17160E-14
 -1       650 1.08796E-02-4.43102E-04-8.53530E-14
 -1       651 1.11842E-02-4.65911E-04-8.90107E-14
 -1       652 1.14881E-02-4.88933E-04-9.26940E-14
 -1       653 1.17880E-02-5.05460E-04-9.64048E-14
 -1       654 1.20807E-02-5.05290E-04-1.00143E-13
 -1       655 1.23645E-02-4.76105E-04-1.03902E-13
 -1       656 1.26402E-02-4.06819E-04-1.07673E-13
 -1       657 1.29118E-02-2.91934E-04-1.11457E-13
 -1       658 1.31839E-02-1.34243E-04-1.15250E-13
 -1       659 2.19078E-03 4.37455E-04-4.32587E-15
 -1       660 1.90577E-03 4.20660E-04-3.29807E-15
 -1       661 2.77449E-03 4.55754E-04-6.85280E-15
 -1       662 3.05919E-03 4.59655E-04-8.28635E-15
 -1       663 3.34395E-03 4.61574E-04-9.84728E-15
 -1       664 3.62882E-03 4.62174E-04-1.15347E-14
 -1       665 3.91380E-03 4.61933E-04-1.33431E-14
 -1       666 4.19890E-03 4.61186E-04-1.52713E-14
 -1       667 4.48412E-03 4.60160E-04-1.73175E-14
 -1       668 4.78370E-03 4.58936E-04-1.95891E-14
 -1       669 5.06911E-03 4.57717E-04-2.18724E-14
 -1       670 5.35460E-03 4.56478E-04-2.42708E-14
 -1       671 5.64016E-03 4.55218E-04-2.67843E-14
 -1       672 5.92579E-03 4.53913E-04-2.94154E-14
 -1       673 6.21149E-03 4.52514E-04-3.21550E-14
 -1       674 6.49726E-03 4.50961E-04-3.49903E-14
 -1       675 6.78310E-03 4.49181E-04-3.79154E-14
 -1       676 7.06903E-03 4.47092E-04-4.09287E-14
 -1       677 7.36936E-03 4.44468E-04-4.41784E-14
 -1       678 7.65548E-03 4.41465E-04-4.73551E-14
 -1       679 7.94168E-03 4.37889E-04-5.06030E-14
 -1       680 8.22792E-03 4.33676E-04-5.39170E-14
 -1       681 8.51410E-03 4.28809E-04-5.72938E-14
 -1       682 8.80000E-03 4.23357E-04-6.07235E-14
 -1       683 9.08527E-03 4.17545E-04-6.42048E-14
 -1       684 9.36925E-03 4.11873E-04-6.77345E-14
 -1       685 9.65091E-03 4.07310E-04-7.13006E-14
 -1       686 9.94238E-03 4.05641E-04-7.50726E-14
 -1       687 1.02135E-02 4.10132E-04-7.86946E-14
 -1       688 1.04753E-02 4.25464E-04-8.23374E-14
 -1       689 1.07247E-02 4.59007E-04-8.59925E-14
 -1       690 1.09617E-02 5.22069E-04-8.96600E-14
 -1       691 1.12569E-02 6.54412E-04-9.33729E-14
 -1       692 1.32978E-02-2.22537E-04-1.09927E-13
 -1       693 1.42511E-02 3.79090E-04-1.18189E-13
 -1       694 1.35703E-02 1.04540E-04-1.18117E-13
 -1       695 1.30428E-02-2.82505E-04-1.07362E-13
 -1       696 1.62041E-03 3.96158E-04-2.40767E-15
 -1       697 1.37368E-02 1.79486E-04-1.18123E-13
 -1       698 1.39549E-02 2.66739E-04-1.18160E-13
 -1       699 1.19245E-02 5.76960E-05-9.78788E-14
 -1       700 1.63651E-02 1.11417E-03-1.20695E-13
 -1       701 9.04162E-04 1.24577E-04-9.69199E-16
 -1       702 1.34745E-02 6.55504E-05-1.19282E-13
 -1       703 9.03788E-04-1.22168E-04-9.69453E-16
 -1       704 1.33469E-03 3.61483E-04-1.65682E-15
 -1       705 1.23546E-02-1.30393E-04-1.01083E-13
 -1       706 1.09158E-02 5.64049E-04-9.34515E-14
 -1       707 1.08367E-02 5.21657E-04-9.30562E-14
 -1       708 1.11637E-02 3.89690E-04-9.38745E-14
 -1       709 1.27205E-02-2.53850E-04-1.04248E-13
 -1       710 1.14766E-02 2.71184E-04-9.54194E-14
 -1       711 1.09239E-02 4.75810E-04-9.31038E-14
 -1       712 9.11223E-04-1.75554E-04-9.42571E-16
 -1       713 8.97531E-04-2.31492E-05-9.93817E-16
 -1       714 8.72410E-04-2.47052E-04-7.82631E-16
 -1       715 1.34927E-02-1.20414E-04-1.12075E-13
 -1       716 8.99486E-04-7.18014E-05-9.85797E-16
 -1       717 1.16152E-03 2.43568E-04-1.41858E-15
 -1       718 2.62102E-03 3.78690E-04-6.29879E-15
 -1       719 1.37318E-02 6.61066E-05-1.15110E-13
 -1       720 1.51019E-03-2.86472E-04-2.28227E-15
 -1       721 1.79727E-03-3.09451E-04-3.14427E-15
 -1       722 2.08491E-03-3.25560E-04-4.13788E-15
 -1       723 2.37269E-03-3.36383E-04-5.26153E-15
 -1       724 2.66037E-03-3.43276E-04-6.51409E-15
 -1       725 2.94784E-03-3.47335E-04-7.89408E-15
 -1       726 3.23508E-03-3.49411E-04-9.39898E-15
 -1       727 3.52208E-03-3.50145E-04-1.10258E-14
 -1       728 3.80884E-03-3.50009E-04-1.27756E-14
 -1       729 4.09541E-03-3.49339E-04-1.46451E-14
 -1       730 4.38180E-03-3.48364E-04-1.66328E-14
 -1       731 4.66805E-03-3.47234E-04-1.87363E-14
 -1       732 4.95416E-03-3.46039E-04-2.09542E-14
 -1       733 5.24018E-03-3.44823E-04-2.32875E-14
 -1       734 5.52610E-03-3.43598E-04-2.57332E-14
 -1       735 5.81195E-03-3.42352E-04-2.82861E-14
 -1       736 6.09773E-03-3.41056E-04-3.09435E-14
 -1       737 6.38344E-03-3.39669E-04-3.37009E-14
 -1       738 6.66908E-03-3.38144E-04-3.65546E-14
 -1       739 6.95465E-03-3.36433E-04-3.95001E-14
 -1       740 7.24015E-03-3.34491E-04-4.25318E-14
 -1       741 7.52561E-03-3.32285E-04-4.56441E-14
 -1       742 7.81104E-03-3.29802E-04-4.88336E-14
 -1       743 8.09652E-03-3.27063E-04-5.20937E-14
 -1       744 8.38217E-03-3.24142E-04-5.54179E-14
 -1       745 8.66821E-03-3.21186E-04-5.88021E-14
 -1       746 8.95498E-03-3.18445E-04-6.22357E-14
 -1       747 9.24297E-03-3.16312E-04-6.57162E-14
 -1       748 9.53289E-03-3.15361E-04-6.92337E-14
 -1       749 9.82566E-03-3.16389E-04-7.27871E-14
 -1       750 1.01223E-02-3.20444E-04-7.63744E-14
 -1       751 1.04240E-02-3.28780E-04-7.99881E-14
 -1       752 1.07314E-02-3.42668E-04-8.36197E-14
 -1       753 1.10445E-02-3.62871E-04-8.72648E-14
 -1       754 1.13615E-02-3.88679E-04-9.09320E-14
 -1       755 1.16790E-02-4.16306E-04-9.46229E-14
 -1       756 1.19917E-02-4.37159E-04-9.83374E-14
 -1       757 1.22948E-02-4.37246E-04-1.02076E-13
 -1       758 1.25865E-02-3.99821E-04-1.05830E-13
 -1       759 1.28693E-02-3.11546E-04-1.09594E-13
 -1       760 1.31492E-02-1.69484E-04-1.13373E-13
 -1       761 2.31977E-03 3.70221E-04-4.99940E-15
 -1       762 3.19429E-03 3.86096E-04-9.16828E-15
 -1       763 3.48067E-03 3.87187E-04-1.07923E-14
 -1       764 3.76692E-03 3.87296E-04-1.25410E-14
 -1       765 4.05305E-03 3.86797E-04-1.44087E-14
 -1       766 4.33909E-03 3.85945E-04-1.63937E-14
 -1       767 4.63936E-03 3.84856E-04-1.86010E-14
 -1       768 4.92526E-03 3.83739E-04-2.08215E-14
 -1       769 5.21112E-03 3.82594E-04-2.31582E-14
 -1       770 5.49694E-03 3.81436E-04-2.56097E-14
 -1       771 5.78274E-03 3.80251E-04-2.81776E-14
 -1       772 6.06852E-03 3.79006E-04-3.08574E-14
 -1       773 6.35427E-03 3.77652E-04-3.36389E-14
 -1       774 6.63999E-03 3.76129E-04-3.65137E-14
 -1       775 6.92567E-03 3.74372E-04-3.94753E-14
 -1       776 7.22555E-03 3.72199E-04-4.26759E-14
 -1       777 7.51103E-03 3.69749E-04-4.58054E-14
 -1       778 7.79630E-03 3.66877E-04-4.90105E-14
 -1       779 8.08122E-03 3.63560E-04-5.22849E-14
 -1       780 8.36555E-03 3.59831E-04-5.56230E-14
 -1       781 8.64891E-03 3.55819E-04-5.90194E-14
 -1       782 8.93073E-03 3.51807E-04-6.24676E-14
 -1       783 9.21010E-03 3.48335E-04-6.59651E-14
 -1       784 9.48563E-03 3.46332E-04-6.95065E-14
 -1       785 9.76859E-03 3.47495E-04-7.32602E-14
 -1       786 1.00290E-02 3.54166E-04-7.68628E-14
 -1       787 1.02764E-02 3.69765E-04-8.04933E-14
 -1       788 1.05054E-02 3.98883E-04-8.41419E-14
 -1       789 1.07094E-02 4.47398E-04-8.78028E-14
 -1       790 1.09978E-02 5.57189E-04-9.20530E-14
 -1       791 2.90774E-03 3.83501E-04-7.66934E-15
 -1       792 1.30741E-02-2.71579E-04-1.08464E-13
 -1       793 1.74569E-03 3.39037E-04-2.92737E-15
 -1       794 1.33887E-02-4.88224E-05-1.14836E-13
 -1       795 1.22452E-03-2.54969E-04-1.55514E-15
 -1       796 1.07687E-02 4.50630E-04-9.05708E-14
 -1       797 1.13816E-03 5.90374E-05-1.50909E-15
 -1       798 1.20498E-02-9.71882E-05-9.81792E-14
 -1       799 1.15606E-02 1.22498E-04-9.45140E-14
 -1       800 1.24623E-03 3.00785E-04-1.54135E-15
 -1       801 1.07811E-02 4.86079E-04-9.07633E-14
 -1       802 1.09058E-02 3.86129E-04-9.08462E-14
 -1       803 1.12081E-02 2.81378E-04-9.24877E-14
 -1       804 2.03273E-03 3.57620E-04-3.89650E-15
 -1       805 1.24568E-02-2.38837E-04-1.01903E-13
 -1       806 1.27956E-02-2.98712E-04-1.05375E-13
 -1       807 1.13678E-03 1.19453E-06-1.51448E-15
 -1       808 1.16898E-02-3.13692E-05-9.48079E-14
 -1       809 1.14975E-03 1.79066E-04-1.46343E-15
 -1       810 1.32525E-02-2.03845E-04-1.10610E-13
 -1       811 1.14919E-03-1.76073E-04-1.46286E-15
 -1       812 1.35424E-02 5.46916E-06-1.14972E-13
 -1       813 1.14228E-03 1.17775E-04-1.49287E-15
 -1       814 1.14195E-03-1.15162E-04-1.49209E-15
 -1       815 1.49561E-03 3.24080E-04-2.18002E-15
 -1       816 1.21506E-02-2.35812E-04-9.90137E-14
 -1       817 1.64151E-03-2.31712E-04-2.75702E-15
 -1       818 1.92943E-03-2.47741E-04-3.69362E-15
 -1       819 2.21819E-03-2.58864E-04-4.75976E-15
 -1       820 2.50723E-03-2.66204E-04-5.95461E-15
 -1       821 2.79620E-03-2.70741E-04-7.27692E-15
 -1       822 3.08492E-03-2.73271E-04-8.72309E-15
 -1       823 3.37329E-03-2.74412E-04-1.02922E-14
 -1       824 3.66128E-03-2.74628E-04-1.19828E-14
 -1       825 3.94890E-03-2.74258E-04-1.37956E-14
 -1       826 4.23618E-03-2.73538E-04-1.57255E-14
 -1       827 4.52314E-03-2.72629E-04-1.77714E-14
 -1       828 4.80984E-03-2.71630E-04-1.99323E-14
 -1       829 5.09631E-03-2.70598E-04-2.22094E-14
 -1       830 5.38258E-03-2.69555E-04-2.46006E-14
 -1       831 5.66867E-03-2.68501E-04-2.71016E-14
 -1       832 5.95460E-03-2.67414E-04-2.97080E-14
 -1       833 6.24037E-03-2.66264E-04-3.24166E-14
 -1       834 6.52599E-03-2.65009E-04-3.52223E-14
 -1       835 6.81145E-03-2.63600E-04-3.81212E-14
 -1       836 7.09672E-03-2.61985E-04-4.11070E-14
 -1       837 7.38181E-03-2.60111E-04-4.41787E-14
 -1       838 7.66671E-03-2.57930E-04-4.73313E-14
 -1       839 7.95144E-03-2.55401E-04-5.05546E-14
 -1       840 8.23608E-03-2.52503E-04-5.38429E-14
 -1       841 8.52080E-03-2.49244E-04-5.71934E-14
 -1       842 8.80587E-03-2.45688E-04-6.06009E-14
 -1       843 9.09178E-03-2.41985E-04-6.40564E-14
 -1       844 9.37925E-03-2.38423E-04-6.75550E-14
 -1       845 9.66932E-03-2.35511E-04-7.10881E-14
 -1       846 9.96341E-03-2.34082E-04-7.46562E-14
 -1       847 1.02632E-02-2.35429E-04-7.82570E-14
 -1       848 1.05706E-02-2.41397E-04-8.18812E-14
 -1       849 1.08870E-02-2.54276E-04-8.55208E-14
 -1       850 1.12126E-02-2.76220E-04-8.91787E-14
 -1       851 1.15452E-02-3.07660E-04-9.28545E-14
 -1       852 1.18794E-02-3.44640E-04-9.65523E-14
 -1       853 1.22070E-02-3.74611E-04-1.00268E-13
 -1       854 1.25220E-02-3.76692E-04-1.04002E-13
 -1       855 1.28227E-02-3.26519E-04-1.07747E-13
 -1       856 1.31048E-02-2.16727E-04-1.11283E-13
 -1       857 2.45982E-03 3.01102E-04-5.71951E-15
 -1       858 3.61908E-03 3.12002E-04-1.17435E-14
 -1       859 3.33152E-03 3.11506E-04-1.00573E-14
 -1       860 4.19330E-03 3.11209E-04-1.54761E-14
 -1       861 4.49435E-03 3.10332E-04-1.76228E-14
 -1       862 4.78085E-03 3.09387E-04-1.97819E-14
 -1       863 5.06717E-03 3.08400E-04-2.20563E-14
 -1       864 5.35334E-03 3.07398E-04-2.44475E-14
 -1       865 5.63938E-03 3.06381E-04-2.69536E-14
 -1       866 5.92531E-03 3.05330E-04-2.95723E-14
 -1       867 6.21111E-03 3.04209E-04-3.22990E-14
 -1       868 6.49680E-03 3.02976E-04-3.51213E-14
 -1       869 6.78234E-03 3.01582E-04-3.80330E-14
 -1       870 7.08195E-03 2.99892E-04-4.11831E-14
 -1       871 7.36701E-03 2.98024E-04-4.42672E-14
 -1       872 7.65168E-03 2.95885E-04-4.74296E-14
 -1       873 7.93577E-03 2.93490E-04-5.06651E-14
 -1       874 8.21901E-03 2.90915E-04-5.39640E-14
 -1       875 8.50098E-03 2.88338E-04-5.73248E-14
 -1       876 8.78108E-03 2.86095E-04-6.07396E-14
 -1       877 9.05839E-03 2.84759E-04-6.42059E-14
 -1       878 9.33162E-03 2.85254E-04-6.77191E-14
 -1       879 9.61208E-03 2.89311E-04-7.14484E-14
 -1       880 9.87034E-03 2.98689E-04-7.50361E-14
 -1       881 1.01163E-02 3.16329E-04-7.86513E-14
 -1       882 1.03452E-02 3.45736E-04-8.22877E-14
 -1       883 1.05498E-02 3.90453E-04-8.59425E-14
 -1       884 3.04364E-03 3.09937E-04-8.49547E-15
 -1       885 3.90633E-03 3.11811E-04-1.35504E-14
 -1       886 1.09008E-02 2.75159E-04-8.90082E-14
 -1       887 1.13800E-03-5.64998E-05-1.50915E-15
 -1       888 1.39411E-03-2.05738E-04-2.06138E-15
 -1       889 2.75545E-03 3.06763E-04-7.05959E-15
 -1       890 1.28263E-02-3.17328E-04-1.06540E-13
 -1       891 1.25346E-02-3.16166E-04-1.03116E-13
 -1       892 1.06734E-02 3.67854E-04-8.77975E-14
 -1       893 1.87582E-03 2.78713E-04-3.47059E-15
 -1       894 1.12134E-02 1.47047E-04-9.10169E-14
 -1       895 2.16411E-03 2.92025E-04-4.51508E-15
 -1       896 1.34011E-02-1.08129E-04-1.12787E-13
 -1       897 1.18122E-02-1.81603E-04-9.56282E-14
 -1       898 1.40124E-03 2.37019E-04-2.04655E-15
 -1       899 1.38407E-03 9.99567E-05-2.12149E-15
 -1       900 1.38548E-03-1.37350E-04-2.10009E-15
 -1       901 1.29949E-02-2.80422E-04-1.08683E-13
 -1       902 1.13338E-02 1.06421E-05-9.13071E-14
 -1       903 1.62448E-03 2.70035E-04-2.65660E-15
 -1       904 1.38089E-03 3.39642E-05-2.13509E-15
 -1       905 1.77663E-03-1.72674E-04-3.25619E-15
 -1       906 2.06539E-03-1.82826E-04-4.26419E-15
 -1       907 2.35504E-03-1.89757E-04-5.40104E-15
 -1       908 2.64499E-03-1.94219E-04-6.66501E-15
 -1       909 2.93484E-03-1.96867E-04-8.05373E-15
 -1       910 3.22437E-03-1.98228E-04-9.56498E-15
 -1       911 3.51346E-03-1.98712E-04-1.11969E-14
 -1       912 3.80207E-03-1.98624E-04-1.29508E-14
 -1       913 4.09021E-03-1.98181E-04-1.48239E-14
 -1       914 4.37791E-03-1.97535E-04-1.68150E-14
 -1       915 4.66522E-03-1.96785E-04-1.89180E-14
 -1       916 4.95217E-03-1.95990E-04-2.11381E-14
 -1       917 5.23883E-03-1.95180E-04-2.34731E-14
 -1       918 5.52521E-03-1.94361E-04-2.59206E-14
 -1       919 5.81135E-03-1.93525E-04-2.84777E-14
 -1       920 6.09727E-03-1.92649E-04-3.11384E-14
 -1       921 6.38295E-03-1.91701E-04-3.38979E-14
 -1       922 6.66839E-03-1.90639E-04-3.67502E-14
 -1       923 6.95357E-03-1.89413E-04-3.96913E-14
 -1       924 7.23845E-03-1.87965E-04-4.27199E-14
 -1       925 7.52300E-03-1.86225E-04-4.58333E-14
 -1       926 7.80721E-03-1.84116E-04-4.90215E-14
 -1       927 8.09107E-03-1.81549E-04-5.22762E-14
 -1       928 8.37467E-03-1.78427E-04-5.55943E-14
 -1       929 8.65817E-03-1.74656E-04-5.89717E-14
 -1       930 8.94192E-03-1.70156E-04-6.24011E-14
 -1       931 9.22651E-03-1.64912E-04-6.58768E-14
 -1       932 9.51288E-03-1.59043E-04-6.93933E-14
 -1       933 9.80242E-03-1.52939E-04-7.29453E-14
 -1       934 1.00971E-02-1.47472E-04-7.65296E-14
 -1       935 1.03995E-02-1.44326E-04-8.01413E-14
 -1       936 1.07123E-02-1.46397E-04-8.37774E-14
 -1       937 1.10385E-02-1.57238E-04-8.74265E-14
 -1       938 1.13788E-02-1.82493E-04-9.10941E-14
 -1       939 4.63603E-03 2.34599E-04-1.87518E-14
 -1       940 4.33452E-03 2.35345E-04-1.65482E-14
 -1       941 5.20944E-03 2.33036E-04-2.32960E-14
 -1       942 5.49578E-03 2.32234E-04-2.57408E-14
 -1       943 5.78191E-03 2.31415E-04-2.82989E-14
 -1       944 6.06785E-03 2.30558E-04-3.09671E-14
 -1       945 6.35359E-03 2.29635E-04-3.37384E-14
 -1       946 6.63910E-03 2.28615E-04-3.66011E-14
 -1       947 6.93859E-03 2.27409E-04-3.96989E-14
 -1       948 7.22345E-03 2.26111E-04-4.27391E-14
 -1       949 7.50783E-03 2.24673E-04-4.58588E-14
 -1       950 7.79154E-03 2.23136E-04-4.90536E-14
 -1       951 8.07431E-03 2.21606E-04-5.23168E-14
 -1       952 8.35578E-03 2.20286E-04-5.56413E-14
 -1       953 8.63541E-03 2.19527E-04-5.90220E-14
 -1       954 8.91246E-03 2.19899E-04-6.24559E-14
 -1       955 9.18592E-03 2.22275E-04-6.59407E-14
 -1       956 9.46766E-03 2.28349E-04-6.96469E-14
 -1       957 9.72894E-03 2.39426E-04-7.32120E-14
 -1       958 9.98090E-03 2.58112E-04-7.68083E-14
 -1       959 1.02204E-02 2.87328E-04-8.04340E-14
 -1       960 1.04504E-02 3.20816E-04-8.41084E-14
 -1       961 1.39065E-03 1.67270E-04-2.09257E-15
 -1       962 3.18198E-03 2.35306E-04-9.33065E-15
 -1       963 2.59971E-03 2.29915E-04-6.44081E-15
 -1       964 2.30290E-03 2.24064E-04-5.16523E-15
 -1       965 1.58039E-03-1.55538E-04-2.64863E-15
 -1       966 1.38080E-03-3.13921E-05-2.13497E-15
 -1       967 4.92287E-03 2.33828E-04-2.09654E-14
 -1       968 2.89280E-03 2.33418E-04-7.83121E-15
 -1       969 3.47076E-03 2.36124E-04-1.09542E-14
 -1       970 1.08681E-02 1.49175E-04-8.72551E-14
 -1       971 1.05903E-02 2.68249E-04-8.53304E-14
 -1       972 1.38210E-03-8.39918E-05-2.12224E-15
 -1       973 2.01361E-03 2.15310E-04-4.04923E-15
 -1       974 3.75910E-03 2.36241E-04-1.26994E-14
 -1       975 1.63432E-03 1.45727E-04-2.82626E-15
 -1       976 4.04701E-03 2.35920E-04-1.45649E-14
 -1       977 1.13667E-02-8.93767E-05-9.12035E-14
 -1       978 1.72468E-03 2.01965E-04-3.06198E-15
 -1       979 1.62911E-03 7.30916E-05-2.85149E-15
 -1       980 1.09726E-02 3.55142E-05-8.75464E-14
 -1       981 2.20471E-03-1.14864E-04-4.85560E-15
 -1       982 2.49506E-03-1.18443E-04-6.06051E-15
 -1       983 2.78560E-03-1.20667E-04-7.39087E-15
 -1       984 3.07596E-03-1.21907E-04-8.84376E-15
 -1       985 3.36591E-03-1.22460E-04-1.04188E-14
 -1       986 3.65536E-03-1.22551E-04-1.21134E-14
 -1       987 3.94425E-03-1.22349E-04-1.39285E-14
 -1       988 4.23262E-03-1.21970E-04-1.58629E-14
 -1       989 4.52049E-03-1.21495E-04-1.79120E-14
 -1       990 4.80792E-03-1.20974E-04-2.00742E-14
 -1       991 5.09496E-03-1.20435E-04-2.23517E-14
 -1       992 5.38166E-03-1.19889E-04-2.47457E-14
 -1       993 5.66804E-03-1.19334E-04-2.72495E-14
 -1       994 5.95414E-03-1.18759E-04-2.98620E-14
 -1       995 6.23995E-03-1.18141E-04-3.25756E-14
 -1       996 6.52548E-03-1.17451E-04-3.53826E-14
 -1       997 6.81068E-03-1.16648E-04-3.82806E-14
 -1       998 7.09551E-03-1.15679E-04-4.12658E-14
 -1       999 7.37993E-03-1.14475E-04-4.43373E-14
 -1      1000 7.66385E-03-1.12943E-04-4.74896E-14
 -1      1001 7.94724E-03-1.10964E-04-5.07160E-14
 -1      1002 8.23007E-03-1.08376E-04-5.40021E-14
 -1      1003 8.51236E-03-1.04979E-04-5.73490E-14
 -1      1004 8.79427E-03-1.00524E-04-6.07523E-14
 -1      1005 9.07612E-03-9.47331E-05-6.42020E-14
 -1      1006 9.35857E-03-8.73470E-05-6.76980E-14
 -1      1007 9.64267E-03-7.82287E-05-7.12336E-14
 -1      1008 9.93012E-03-6.75614E-05-7.48049E-14
 -1      1009 1.02235E-02-5.61937E-05-7.84022E-14
 -1      1010 1.05263E-02-4.62376E-05-8.20265E-14
 -1      1011 3.03275E-03 1.58897E-04-8.61368E-15
 -1      1012 4.48382E-03 1.59364E-04-1.76757E-14
 -1      1013 5.63841E-03 1.57205E-04-2.70376E-14
 -1      1014 5.35203E-03 1.57759E-04-2.45401E-14
 -1      1015 6.21038E-03 1.56034E-04-3.23645E-14
 -1      1016 6.49595E-03 1.55387E-04-3.51773E-14
 -1      1017 6.79546E-03 1.54645E-04-3.82248E-14
 -1      1018 7.08030E-03 1.53877E-04-4.12153E-14
 -1      1019 7.36463E-03 1.53072E-04-4.42925E-14
 -1      1020 7.64829E-03 1.52285E-04-4.74482E-14
 -1      1021 7.93106E-03 1.51633E-04-5.06758E-14
 -1      1022 8.21264E-03 1.51318E-04-5.39668E-14
 -1      1023 8.49261E-03 1.51672E-04-5.73158E-14
 -1      1024 8.77046E-03 1.53213E-04-6.07181E-14
 -1      1025 9.04550E-03 1.56707E-04-6.41722E-14
 -1      1026 9.33035E-03 1.63683E-04-6.78513E-14
 -1      1027 9.59681E-03 1.75028E-04-7.13955E-14
 -1      1028 9.85743E-03 1.92908E-04-7.49717E-14
 -1      1029 1.01110E-02 2.19507E-04-7.85775E-14
 -1      1030 1.03477E-02 2.40565E-04-8.19458E-14
 -1      1031 2.15134E-03 1.48618E-04-4.63328E-15
 -1      1032 1.89220E-03 1.48756E-04-3.67734E-15
 -1      1033 5.92452E-03 1.56635E-04-2.96475E-14
 -1      1034 1.91515E-03-1.09506E-04-3.77846E-15
 -1      1035 1.62735E-03 1.40673E-06-2.85848E-15
 -1      1036 1.05233E-02 1.55860E-04-8.33455E-14
 -1      1037 2.73898E-03 1.56991E-04-7.15855E-15
 -1      1038 3.32252E-03 1.59852E-04-1.01754E-14
 -1      1039 2.44505E-03 1.53733E-04-5.83174E-15
 -1      1040 4.19605E-03 1.59810E-04-1.56340E-14
 -1      1041 5.06536E-03 1.58305E-04-2.21540E-14
 -1      1042 3.61181E-03 1.60188E-04-1.18589E-14
 -1      1043 1.71863E-03-9.64029E-05-3.12183E-15
 -1      1044 1.54980E-03-9.05979E-05-2.59939E-15
 -1      1045 4.77119E-03 1.58855E-04-1.98292E-14
 -1      1046 1.05325E-02 5.69100E-05-8.26903E-14
 -1      1047 1.99362E-03 7.92999E-05-4.08062E-15
 -1      1048 2.63787E-03-4.52396E-05-6.73537E-15
 -1      1049 2.92868E-03-4.58612E-05-8.13002E-15
 -1      1050 3.21919E-03-4.61596E-05-9.64727E-15
 -1      1051 3.50923E-03-4.62362E-05-1.12844E-14
 -1      1052 3.79870E-03-4.61663E-05-1.30411E-14
 -1      1053 4.08758E-03-4.60136E-05-1.49175E-14
 -1      1054 4.37593E-03-4.57999E-05-1.69110E-14
 -1      1055 4.66376E-03-4.55656E-05-1.90169E-14
 -1      1056 4.95114E-03-4.53181E-05-2.12388E-14
 -1      1057 5.23811E-03-4.50698E-05-2.35756E-14
 -1      1058 5.52473E-03-4.48138E-05-2.60260E-14
 -1      1059 5.81103E-03-4.45522E-05-2.85868E-14
 -1      1060 6.09701E-03-4.42721E-05-3.12543E-14
 -1      1061 6.38267E-03-4.39570E-05-3.40178E-14
 -1      1062 6.66799E-03-4.35813E-05-3.68727E-14
 -1      1063 6.95292E-03-4.31074E-05-3.98156E-14
 -1      1064 7.23738E-03-4.24783E-05-4.28452E-14
 -1      1065 7.52129E-03-4.16111E-05-4.59606E-14
 -1      1066 7.80454E-03-4.03838E-05-4.91520E-14
 -1      1067 8.08702E-03-3.86209E-05-5.24093E-14
 -1      1068 8.36863E-03-3.60750E-05-5.57290E-14
 -1      1069 8.64932E-03-3.24082E-05-5.91042E-14
 -1      1070 8.92913E-03-2.71823E-05-6.25302E-14
 -1      1071 9.20828E-03-1.98502E-05-6.60038E-14
 -1      1072 9.48730E-03-9.82831E-06-6.95208E-14
 -1      1073 9.76724E-03 3.40176E-06-7.30744E-14
 -1      1074 1.00500E-02 1.99953E-05-7.66611E-14
 -1      1075 1.02882E-02 3.80625E-05-7.96684E-14
 -1      1076 1.02261E-02 1.51059E-04-7.96454E-14
 -1      1077 3.17497E-03 8.34812E-05-9.40648E-15
 -1      1078 2.05689E-03-4.24803E-05-4.32121E-15
 -1      1079 6.93747E-03 8.12373E-05-3.97019E-14
 -1      1080 6.63826E-03 8.15434E-05-3.66145E-14
 -1      1081 6.35290E-03 8.18382E-05-3.37613E-14
 -1      1082 7.22193E-03 8.09816E-05-4.27322E-14
 -1      1083 7.50577E-03 8.08239E-05-4.58449E-14
 -1      1084 7.78882E-03 8.08745E-05-4.90373E-14
 -1      1085 8.07087E-03 8.13161E-05-5.22968E-14
 -1      1086 8.35163E-03 8.24349E-05-5.56131E-14
 -1      1087 8.63077E-03 8.46618E-05-5.89852E-14
 -1      1088 8.90793E-03 8.86191E-05-6.24099E-14
 -1      1089 9.19635E-03 9.55728E-05-6.60608E-14
 -1      1090 9.46821E-03 1.06040E-04-6.95823E-14
 -1      1091 9.73710E-03 1.21640E-04-7.31406E-14
 -1      1092 1.87699E-03 3.97291E-05-3.67683E-15
 -1      1093 3.90057E-03 1.60121E-04-1.36627E-14
 -1      1094 5.49486E-03 8.26682E-05-2.57883E-14
 -1      1095 6.06719E-03 8.21245E-05-3.10004E-14
 -1      1096 2.34709E-03-4.41618E-05-5.46524E-15
 -1      1097 2.88088E-03 8.27002E-05-7.88857E-15
 -1      1098 5.78118E-03 8.24003E-05-2.83416E-14
 -1      1099 1.87517E-03-3.80220E-05-3.66866E-15
 -1      1100 3.46497E-03 8.38423E-05-1.10284E-14
 -1      1101 2.28719E-03 8.28799E-05-5.21191E-15
 -1      1102 4.33885E-03 8.36766E-05-1.66602E-14
 -1      1103 5.20823E-03 8.29320E-05-2.33480E-14
 -1      1104 2.58652E-03 8.13115E-05-6.49721E-15
 -1      1105 1.00033E-02 1.43821E-04-7.67272E-14
 -1      1106 1.02569E-02 9.71466E-05-7.96583E-14
 -1      1107 4.62668E-03 8.34517E-05-1.87557E-14
 -1      1108 3.94315E-03 3.02262E-05-1.39794E-14
 -1      1109 5.09470E-03 3.00863E-05-2.24136E-14
 -1      1110 2.07991E-03 2.04800E-05-4.41397E-15
 -1      1111 4.91766E-03 8.31987E-05-2.09933E-14
 -1      1112 3.75443E-03 8.39372E-05-1.27699E-14
 -1      1113 0.00000E+00 0.00000E+00 0.00000E+00
 -1      1114 0.00000E+00 0.00000E+00 0.00000E+00
 -1      1115 0.00000E+00 0.00000E+00 0.00000E+00
 -1      1116 0.00000E+00 0.00000E+00 0.00000E+00
 -1      1117 0.00000E+00 0.00000E+00 0.00000E+00
 -1      1118 0.00000E+00 0.00000E+00 0.00000E+00
 -1      1119 0.00000E+00 0.00000E+00 0.00000E+00
 -1      1120 0.00000E+00 0.00000E+00 0.00000E+00
 -1      1121 0.00000E+00 0.00000E+00 0.00000E+00
 -1      1122 0.00000E+00 0.00000E+00 0.00000E+00
 -1      1123 0.00000E+00 0.00000E+00 0.00000E+00
 -1      1124 0.00000E+00 0.00000E+00 0.00000E+00
 -1      1125 0.00000E+00 0.00000E+00 0.00000E+00
 -1      1126 0.00000E+00 0.00000E+00 0.00000E+00
 -1      1127 0.00000E+00 0.00000E+00 0.00000E+00
 -1      1128 0.00000E+00 0.00000E+00 0.00000E+00
 -1      1129 0.00000E+00 0.00000E+00 0.00000E+00
 -1      1130 2.11676E-04-1.48326E-04 2.28631E-17
 -1      1131 5.51677E-04-3.37487E-04-2.45978E-17
 -1      1132 8.33544E-04-4.58960E-04-2.09780E-16
 -1      1133 1.10318E-03-5.40632E-04-5.55667E-16
 -1      1134 1.36867E-03-5.97880E-04-1.05505E-15
 -1      1135 1.63357E-03-6.38602E-04-1.70454E-15
 -1      1136 1.89974E-03-6.67453E-04-2.50219E-15
 -1      1137 2.16802E-03-6.87558E-04-3.44393E-15
 -1      1138 2.43872E-03-7.01210E-04-4.52691E-15
 -1      1139 2.71183E-03-7.10145E-04-5.75122E-15
 -1      1140 2.98718E-03-7.15679E-04-7.11132E-15
 -1      1141 3.26454E-03-7.18811E-04-8.59920E-15
 -1      1142 3.54362E-03-7.20287E-04-1.02118E-14
 -1      1143 3.82415E-03-7.20655E-04-1.19515E-14
 -1      1144 4.10587E-03-7.20309E-04-1.38165E-14
 -1      1145 4.38855E-03-7.19525E-04-1.58037E-14
 -1      1146 4.67199E-03-7.18489E-04-1.79103E-14
 -1      1147 4.95601E-03-7.17316E-04-2.01338E-14
 -1      1148 5.24048E-03-7.16070E-04-2.24733E-14
 -1      1149 5.52529E-03-7.14778E-04-2.49224E-14
 -1      1150 5.81038E-03-7.13439E-04-2.74792E-14
 -1      1151 6.09570E-03-7.12035E-04-3.01462E-14
 -1      1152 6.38123E-03-7.10536E-04-3.29177E-14
 -1      1153 6.66700E-03-7.08910E-04-3.57875E-14
 -1      1154 6.95306E-03-7.07130E-04-3.87552E-14
 -1      1155 7.23947E-03-7.05186E-04-4.18100E-14
 -1      1156 7.52637E-03-7.03094E-04-4.49427E-14
 -1      1157 7.81390E-03-7.00919E-04-4.81486E-14
 -1      1158 8.10222E-03-6.98785E-04-5.14316E-14
 -1      1159 8.39152E-03-6.96908E-04-5.47845E-14
 -1      1160 8.68193E-03-6.95613E-04-5.81958E-14
 -1      1161 8.97354E-03-6.95351E-04-6.16574E-14
 -1      1162 9.26629E-03-6.96704E-04-6.51600E-14
 -1      1163 9.55988E-03-7.00354E-04-6.87040E-14
 -1      1164 9.85364E-03-7.06996E-04-7.22845E-14
 -1      1165 1.01464E-02-7.17172E-04-7.58856E-14
 -1      1166 1.04365E-02-7.30994E-04-7.94996E-14
 -1      1167 1.07216E-02-7.47754E-04-8.31293E-14
 -1      1168 1.09988E-02-7.65463E-04-8.67810E-14
 -1      1169 1.12654E-02-7.80426E-04-9.04640E-14
 -1      1170 1.15190E-02-7.87067E-04-9.41896E-14
 -1      1171 1.17590E-02-7.78232E-04-9.79505E-14
 -1      1172 1.19865E-02-7.46180E-04-1.01742E-13
 -1      1173 1.22057E-02-6.84195E-04-1.05554E-13
 -1      1174 1.24229E-02-5.88503E-04-1.09384E-13
 -1      1175 1.26457E-02-4.59890E-04-1.13221E-13
 -1      1176 1.28813E-02-3.04486E-04-1.17062E-13
 -1      1177 1.31347E-02-1.33339E-04-1.20899E-13
 -1      1178 1.34063E-02 3.94802E-05-1.24736E-13
 -1      1179 1.36832E-02 1.98785E-04-1.28495E-13
 -1      1180 2.28435E-04 1.60705E-04 2.85145E-17
 -1      1181 5.53849E-04 3.42119E-04-1.81197E-17
 -1      1182 8.34473E-04 4.61128E-04-2.05646E-16
 -1      1183 1.10408E-03 5.42318E-04-5.51832E-16
 -1      1184 1.36957E-03 5.99560E-04-1.05345E-15
 -1      1185 1.63452E-03 6.40372E-04-1.70903E-15
 -1      1186 1.90074E-03 6.69329E-04-2.51523E-15
 -1      1187 2.16907E-03 6.89553E-04-3.46625E-15
 -1      1188 2.44660E-03 7.03611E-04-4.58913E-15
 -1      1189 2.72664E-03 7.12755E-04-5.86229E-15
 -1      1190 3.00211E-03 7.18284E-04-7.24772E-15
 -1      1191 3.27956E-03 7.21454E-04-8.76820E-15
 -1      1192 3.55873E-03 7.23001E-04-1.04172E-14
 -1      1193 3.83933E-03 7.23463E-04-1.21938E-14
 -1      1194 4.12111E-03 7.23228E-04-1.40958E-14
 -1      1195 4.40382E-03 7.22567E-04-1.61249E-14
 -1      1196 4.68728E-03 7.21660E-04-1.82758E-14
 -1      1197 4.97842E-03 7.20593E-04-2.06018E-14
 -1      1198 5.27002E-03 7.19449E-04-2.30463E-14
 -1      1199 5.55483E-03 7.18281E-04-2.55533E-14
 -1      1200 5.83989E-03 7.17053E-04-2.81756E-14
 -1      1201 6.12516E-03 7.15733E-04-3.09069E-14
 -1      1202 6.41062E-03 7.14273E-04-3.37384E-14
 -1      1203 6.69629E-03 7.12612E-04-3.66686E-14
 -1      1204 6.98221E-03 7.10677E-04-3.96967E-14
 -1      1205 7.26850E-03 7.08388E-04-4.28121E-14
 -1      1206 7.56249E-03 7.05583E-04-4.60813E-14
 -1      1207 7.85728E-03 7.02221E-04-4.94230E-14
 -1      1208 8.14604E-03 6.98321E-04-5.27483E-14
 -1      1209 8.43646E-03 6.93747E-04-5.61362E-14
 -1      1210 8.72932E-03 6.88487E-04-5.95787E-14
 -1      1211 9.02575E-03 6.82628E-04-6.30792E-14
 -1      1212 9.32739E-03 6.76451E-04-6.66223E-14
 -1      1213 9.63669E-03 6.70631E-04-7.01978E-14
 -1      1214 9.95719E-03 6.66600E-04-7.38085E-14
 -1      1215 1.03027E-02 6.67366E-04-7.75468E-14
 -1      1216 1.06728E-02 6.79418E-04-8.13066E-14
 -1      1217 1.10669E-02 7.13602E-04-8.49736E-14
 -1      1218 1.15030E-02 7.90922E-04-8.86520E-14
 -1      1219 1.19861E-02 9.45538E-04-9.23344E-14
 -1      1220 1.25049E-02 1.22165E-03-9.60057E-14
 -1      1221 1.30141E-02 1.64657E-03-9.96462E-14
 -1      1222 1.34315E-02 2.16817E-03-1.03260E-13
 -1      1223 1.36927E-02 2.60559E-03-1.06838E-13
 -1      1224 1.38347E-02 2.74235E-03-1.10112E-13
 -1      1225 1.39827E-02 2.58913E-03-1.13185E-13
 -1      1226 1.42315E-02 2.24170E-03-1.16537E-13
 -1      1227 1.45665E-02 1.84492E-03-1.20108E-13
 -1      1228 1.49025E-02 1.48375E-03-1.23697E-13
 -1      1229 1.52011E-02 1.12234E-03-1.27294E-13
 -1      1230 1.55405E-02 8.86770E-04-1.29147E-13
 -1      1231 1.59623E-02 8.17569E-04-1.29258E-13
 -1      1232 1.63930E-02 8.14998E-04-1.29398E-13
 -1      1233 1.67462E-02 9.02099E-04-1.29531E-13
 -1      1234 1.69559E-02 1.05682E-03-1.29657E-13
 -1      1235 1.69984E-02 1.24872E-03-1.29760E-13
 -1      1236 1.68550E-02 1.43341E-03-1.29841E-13
 -1      1237 1.65444E-02 1.55761E-03-1.29928E-13
 -1      1238 1.61065E-02 1.58464E-03-1.30023E-13
 -1      1239 1.56235E-02 1.49677E-03-1.30135E-13
 -1      1240 1.52020E-02 1.32766E-03-1.30246E-13
 -1      1241 1.48799E-02 1.13103E-03-1.30321E-13
 -1      1242 1.46395E-02 9.38666E-04-1.30361E-13
 -1      1243 1.44566E-02 7.66835E-04-1.30376E-13
 -1      1244 1.43079E-02 6.21019E-04-1.30379E-13
 -1      1245 1.41743E-02 5.00753E-04-1.30371E-13
 -1      1246 1.40398E-02 4.01447E-04-1.30353E-13
 -1      1247 1.38952E-02 3.14924E-04-1.30337E-13
 -1      1248 1.65365E-02 1.24119E-03-1.16957E-13
 -1      1249 1.64085E-02 1.47672E-03-1.16610E-13
 -1      1250 1.61116E-02 1.73198E-03-1.15879E-13
 -1      1251 1.57015E-02 1.98302E-03-1.14854E-13
 -1      1252 1.52121E-02 2.21791E-03-1.13548E-13
 -1      1253 1.46629E-02 2.40879E-03-1.11969E-13
 -1      1254 1.40975E-02 2.50415E-03-1.10251E-13
 -1      1255 1.35335E-02 2.47600E-03-1.08482E-13
 -1      1256 1.29884E-02 2.32295E-03-1.06753E-13
 -1      1257 1.24565E-02 2.06609E-03-1.05062E-13
 -1      1258 1.19295E-02 1.73309E-03-1.03384E-13
 -1      1259 1.14977E-02 1.41281E-03-1.02009E-13
 -1      1260 1.11962E-02 1.15031E-03-1.01042E-13
 -1      1261 1.09930E-02 9.16266E-04-1.00366E-13
 -1      1262 1.09079E-02 7.14502E-04-1.00036E-13
 -1      1263 1.09415E-02 5.38483E-04-1.00081E-13
 -1      1264 1.10833E-02 3.77610E-04-1.00479E-13
 -1      1265 1.13245E-02 2.24618E-04-1.01216E-13
 -1      1266 1.16562E-02 7.98017E-05-1.02315E-13
 -1      1267 1.20580E-02-4.60811E-05-1.03722E-13
 -1      1268 1.25002E-02-1.38683E-04-1.05317E-13
 -1      1269 1.29670E-02-1.84095E-04-1.07015E-13
 -1      1270 1.34560E-02-1.76019E-04-1.08769E-13
 -1      1271 1.40015E-02-1.02623E-04-1.10650E-13
 -1      1272 1.46295E-02 5.23761E-05-1.12646E-13
 -1      1273 1.52077E-02 2.47938E-04-1.14268E-13
 -1      1274 1.56544E-02 4.35846E-04-1.15362E-13
 -1      1275 1.59972E-02 6.09076E-04-1.16103E-13
 -1      1276 1.62389E-02 7.61164E-04-1.16567E-13
 -1      1277 1.64069E-02 9.03033E-04-1.16842E-13
 -1      1278 1.65137E-02 1.05171E-03-1.16986E-13
 -1      1279 1.66713E-04-1.10333E-04-4.47233E-19
 -1      1280 1.12551E-04-5.69617E-05-2.92870E-17
 -1      1281 1.17633E-04-6.75715E-05-2.13588E-17
 -1      1282 1.08431E-04-4.34769E-05-4.23245E-17
 -1      1283 1.10294E-04-4.95923E-05-3.83265E-17
 -1      1284 2.26350E-04-1.07598E-04-8.98804E-17
 -1      1285 1.06844E-04-3.35918E-05-4.98326E-17
 -1      1286 1.07694E-04-3.83158E-05-4.76507E-17
 -1      1287 2.19122E-04-8.24281E-05-1.13624E-16
 -1      1288 1.06058E-04-2.53390E-05-5.44541E-17
 -1      1289 1.06491E-04-2.93692E-05-5.33021E-17
 -1      1290 2.15864E-04-6.32446E-05-1.28153E-16
 -1      1291 1.05656E-04-1.80799E-05-5.71103E-17
 -1      1292 1.05887E-04-2.16468E-05-5.65954E-17
 -1      1293 2.14202E-04-4.71648E-05-1.37152E-16
 -1      1294 1.05432E-04-1.12311E-05-5.86418E-17
 -1      1295 1.05556E-04-1.46146E-05-5.83843E-17
 -1      1296 2.13283E-04-3.27327E-05-1.42424E-16
 -1      1297 1.05330E-04-4.68539E-06-5.94414E-17
 -1      1298 1.05383E-04-7.93657E-06-5.93330E-17
 -1      1299 2.12780E-04-1.91768E-05-1.45364E-16
 -1      1300 1.05318E-04 1.74189E-06-5.96853E-17
 -1      1301 1.05317E-04-1.46926E-06-5.97124E-17
 -1      1302 2.12563E-04-6.15571E-06-1.46842E-16
 -1      1303 1.05392E-04 8.21890E-06-5.92516E-17
 -1      1304 1.05335E-04 4.96126E-06-5.93601E-17
 -1      1305 2.12571E-04 6.70404E-06-1.46815E-16
 -1      1306 1.05572E-04 1.49220E-05-5.81539E-17
 -1      1307 1.05443E-04 1.15239E-05-5.85334E-17
 -1      1308 2.12805E-04 1.97511E-05-1.45215E-16
 -1      1309 1.05908E-04 2.19377E-05-5.61075E-17
 -1      1310 1.05671E-04 1.83478E-05-5.66496E-17
 -1      1311 2.13321E-04 3.32461E-05-1.41800E-16
 -1      1312 1.06536E-04 2.98027E-05-5.28142E-17
 -1      1313 1.06095E-04 2.57264E-05-5.39391E-17
 -1      1314 2.14269E-04 4.77685E-05-1.36298E-16
 -1      1315 1.07730E-04 3.89015E-05-4.74338E-17
 -1      1316 1.06877E-04 3.41077E-05-4.94803E-17
 -1      1317 2.15982E-04 6.41787E-05-1.27407E-16
 -1      1318 1.10273E-04 5.03306E-05-3.78793E-17
 -1      1319 1.08434E-04 4.41456E-05-4.19993E-17
 -1      1320 2.19217E-04 8.36775E-05-1.13015E-16
 -1      1321 1.16949E-04 6.76078E-05-2.15756E-17
 -1      1322 1.12198E-04 5.77611E-05-2.95310E-17
 -1      1323 2.26338E-04 1.09418E-04-8.95009E-17
 -1      1324 1.57591E-04 1.09852E-04 4.68917E-18
 -1      1325 1.35674E-04 8.60806E-05-1.21295E-17
 -1      1326 2.56065E-04 1.52070E-04-6.08915E-17
 -1      1327 3.35112E-04 2.20719E-04-1.80926E-17
 -1      1328 4.21577E-04-2.61711E-04-4.66749E-17
 -1      1329 5.74693E-04-3.36759E-04-1.07837E-16
 -1      1330 7.21902E-04-3.97350E-04-2.10823E-16
 -1      1331 8.65094E-04-4.46637E-04-3.52284E-16
 -1      1332 6.12139E-04-3.30842E-04-2.04060E-16
 -1      1333 1.00514E-03-4.87703E-04-5.30974E-16
 -1      1334 1.14302E-03-5.21688E-04-7.47801E-16
 -1      1335 9.05416E-04-4.31522E-04-5.00305E-16
 -1      1336 1.27955E-03-5.50459E-04-1.00183E-15
 -1      1337 1.41523E-03-5.74497E-04-1.29367E-15
 -1      1338 1.18790E-03-5.00933E-04-9.44476E-16
 -1      1339 1.55051E-03-5.94867E-04-1.62214E-15
 -1      1340 1.68565E-03-6.11903E-04-1.98740E-15
 -1      1341 1.46489E-03-5.49706E-04-1.53636E-15
 -1      1342 1.82088E-03-6.26233E-04-2.38930E-15
 -1      1343 1.95632E-03-6.38152E-04-2.82734E-15
 -1      1344 1.73965E-03-5.84026E-04-2.27396E-15
 -1      1345 2.09208E-03-6.48062E-04-3.30039E-15
 -1      1346 2.22822E-03-6.56214E-04-3.80878E-15
 -1      1347 2.01405E-03-6.07878E-04-3.15510E-15
 -1      1348 2.36480E-03-6.62884E-04-4.35284E-15
 -1      1349 2.50180E-03-6.68278E-04-4.93124E-15
 -1      1350 2.28907E-03-6.24081E-04-4.17711E-15
 -1      1351 2.63926E-03-6.72592E-04-5.54446E-15
 -1      1352 2.77716E-03-6.75993E-04-6.19223E-15
 -1      1353 2.56518E-03-6.34717E-04-5.33728E-15
 -1      1354 2.91551E-03-6.78620E-04-6.87186E-15
 -1      1355 3.05426E-03-6.80605E-04-7.58462E-15
 -1      1356 2.84258E-03-6.41350E-04-6.63295E-15
 -1      1357 3.19342E-03-6.82048E-04-8.32903E-15
 -1      1358 3.33294E-03-6.83051E-04-9.10474E-15
 -1      1359 3.12129E-03-6.45153E-04-8.05916E-15
 -1      1360 3.47282E-03-6.83684E-04-9.91229E-15
 -1      1361 3.61302E-03-6.84025E-04-1.07513E-14
 -1      1362 3.40122E-03-6.47004E-04-9.61216E-15
 -1      1363 3.75352E-03-6.84122E-04-1.16215E-14
 -1      1364 3.89429E-03-6.84032E-04-1.25224E-14
 -1      1365 3.68226E-03-6.47549E-04-1.12910E-14
 -1      1366 4.03531E-03-6.83788E-04-1.34549E-14
 -1      1367 4.17655E-03-6.83433E-04-1.44181E-14
 -1      1368 3.96425E-03-6.47253E-04-1.30941E-14
 -1      1369 4.31799E-03-6.82985E-04-1.54115E-14
 -1      1370 4.45961E-03-6.82474E-04-1.64347E-14
 -1      1371 4.24705E-03-6.46444E-04-1.50199E-14
 -1      1372 4.60139E-03-6.81912E-04-1.74870E-14
 -1      1373 4.74331E-03-6.81319E-04-1.85694E-14
 -1      1374 4.53051E-03-6.45342E-04-1.70657E-14
 -1      1375 4.88536E-03-6.80698E-04-1.96812E-14
 -1      1376 5.02752E-03-6.80064E-04-2.08211E-14
 -1      1377 4.81451E-03-6.44091E-04-1.92290E-14
 -1      1378 5.16978E-03-6.79415E-04-2.19897E-14
 -1      1379 5.31213E-03-6.78759E-04-2.31866E-14
 -1      1380 5.09893E-03-6.42770E-04-2.15082E-14
 -1      1381 5.45456E-03-6.78093E-04-2.44102E-14
 -1      1382 5.59706E-03-6.77420E-04-2.56612E-14
 -1      1383 5.38370E-03-6.41416E-04-2.38991E-14
 -1      1384 5.73962E-03-6.76734E-04-2.69398E-14
 -1      1385 5.88224E-03-6.76037E-04-2.82449E-14
 -1      1386 5.66875E-03-6.40036E-04-2.64006E-14
 -1      1387 6.02492E-03-6.75321E-04-2.95765E-14
 -1      1388 6.16765E-03-6.74584E-04-3.09350E-14
 -1      1389 5.95404E-03-6.38610E-04-2.90086E-14
 -1      1390 6.31044E-03-6.73820E-04-3.23200E-14
 -1      1391 6.45329E-03-6.73028E-04-3.37292E-14
 -1      1392 6.23955E-03-6.37108E-04-3.17236E-14
 -1      1393 6.59620E-03-6.72198E-04-3.51639E-14
 -1      1394 6.73917E-03-6.71331E-04-3.66219E-14
 -1      1395 6.52528E-03-6.35490E-04-3.45407E-14
 -1      1396 6.88222E-03-6.70420E-04-3.81028E-14
 -1      1397 7.02536E-03-6.69467E-04-3.96075E-14
 -1      1398 6.81126E-03-6.33720E-04-3.74548E-14
 -1      1399 7.16859E-03-6.68468E-04-4.11334E-14
 -1      1400 7.31192E-03-6.67427E-04-4.26784E-14
 -1      1401 7.09754E-03-6.31769E-04-4.04583E-14
 -1      1402 7.45538E-03-6.66346E-04-4.42431E-14
 -1      1403 7.59897E-03-6.65234E-04-4.58264E-14
 -1      1404 7.38419E-03-6.29632E-04-4.35458E-14
 -1      1405 7.74272E-03-6.64100E-04-4.74301E-14
 -1      1406 7.88664E-03-6.62962E-04-4.90511E-14
 -1      1407 7.67132E-03-6.27339E-04-4.67107E-14
 -1      1408 8.03074E-03-6.61838E-04-5.06892E-14
 -1      1409 8.17505E-03-6.60755E-04-5.23463E-14
 -1      1410 7.95903E-03-6.24979E-04-4.99506E-14
 -1      1411 8.31959E-03-6.59748E-04-5.40208E-14
 -1      1412 8.46436E-03-6.58855E-04-5.57110E-14
 -1      1413 8.24745E-03-6.22716E-04-5.32600E-14
 -1      1414 8.60939E-03-6.58131E-04-5.74149E-14
 -1      1415 8.75466E-03-6.57624E-04-5.91315E-14
 -1      1416 8.53667E-03-6.20824E-04-5.66350E-14
 -1      1417 8.90019E-03-6.57414E-04-6.08613E-14
 -1      1418 9.04596E-03-6.57561E-04-6.26000E-14
 -1      1419 8.82676E-03-6.19703E-04-6.00653E-14
 -1      1420 9.19196E-03-6.58169E-04-6.43488E-14
 -1      1421 9.33813E-03-6.59302E-04-6.61096E-14
 -1      1422 9.11770E-03-6.19904E-04-6.35406E-14
 -1      1423 9.48444E-03-6.61088E-04-6.78806E-14
 -1      1424 9.63081E-03-6.63581E-04-6.96610E-14
 -1      1425 9.40934E-03-6.22114E-04-6.70582E-14
 -1      1426 9.77713E-03-6.66920E-04-7.14478E-14
 -1      1427 9.92330E-03-6.71129E-04-7.32407E-14
 -1      1428 9.70130E-03-6.27115E-04-7.06132E-14
 -1      1429 1.00691E-02-6.76328E-04-7.50402E-14
 -1      1430 1.02145E-02-6.82478E-04-7.68431E-14
 -1      1431 9.99294E-03-6.35657E-04-7.41973E-14
 -1      1432 1.03591E-02-6.89635E-04-7.86502E-14
 -1      1433 1.05028E-02-6.97653E-04-8.04613E-14
 -1      1434 1.02832E-02-6.48237E-04-7.78015E-14
 -1      1435 1.06452E-02-7.06452E-04-8.22767E-14
 -1      1436 1.07862E-02-7.15734E-04-8.40981E-14
 -1      1437 1.05709E-02-6.64751E-04-8.14250E-14
 -1      1438 1.09254E-02-7.25207E-04-8.59238E-14
 -1      1439 1.10625E-02-7.34373E-04-8.77552E-14
 -1      1440 1.08541E-02-6.84019E-04-8.50642E-14
 -1      1441 1.11972E-02-7.42661E-04-8.95965E-14
 -1      1442 1.13294E-02-7.49366E-04-9.14478E-14
 -1      1443 1.11310E-02-7.03278E-04-8.87307E-14
 -1      1444 1.14589E-02-7.53621E-04-9.33085E-14
 -1      1445 1.15857E-02-7.54550E-04-9.51803E-14
 -1      1446 1.14000E-02-7.17782E-04-9.24290E-14
 -1      1447 1.17096E-02-7.51071E-04-9.70571E-14
 -1      1448 1.18310E-02-7.42256E-04-9.89410E-14
 -1      1449 1.16600E-02-7.20790E-04-9.61643E-14
 -1      1450 1.19500E-02-7.26995E-04-1.00834E-13
 -1      1451 1.20671E-02-7.04501E-04-1.02733E-13
 -1      1452 1.19112E-02-7.04190E-04-9.99299E-14
 -1      1453 1.21828E-02-6.73914E-04-1.04635E-13
 -1      1454 1.22977E-02-6.34807E-04-1.06541E-13
 -1      1455 1.21553E-02-6.59908E-04-1.03719E-13
 -1      1456 1.24125E-02-5.86862E-04-1.08452E-13
 -1      1457 1.25280E-02-5.30198E-04-1.10368E-13
 -1      1458 1.23954E-02-5.81902E-04-1.07525E-13
 -1      1459 1.26450E-02-4.65242E-04-1.12284E-13
 -1      1460 1.27640E-02-3.92745E-04-1.14197E-13
 -1      1461 1.26362E-02-4.68194E-04-1.11347E-13
 -1      1462 1.28859E-02-3.13926E-04-1.16116E-13
 -1      1463 1.30109E-02-2.30108E-04-1.18036E-13
 -1      1464 1.28823E-02-3.22277E-04-1.15174E-13
 -1      1465 1.31394E-02-1.43146E-04-1.19955E-13
 -1      1466 1.32716E-02-5.47610E-05-1.21870E-13
 -1      1467 1.31376E-02-1.53328E-04-1.19007E-13
 -1      1468 1.34071E-02 3.30271E-05-1.23790E-13
 -1      1469 1.35457E-02 1.18457E-04-1.25713E-13
 -1      1470 1.34040E-02 2.50025E-05-1.22843E-13
 -1      1471 1.37598E-02 2.41270E-04-1.28504E-13
 -1      1472 1.37538E-02 2.39485E-04-1.27553E-13
 -1      1473 6.43143E-04 3.71969E-04-1.33601E-16
 -1      1474 4.92996E-04 3.03658E-04-5.58500E-17
 -1      1475 4.44927E-04 2.65859E-04-8.75764E-17
 -1      1476 9.28776E-04 4.71914E-04-4.06400E-16
 -1      1477 7.87888E-04 4.26432E-04-2.50654E-16
 -1      1478 7.44828E-04 3.90657E-04-2.87720E-16
 -1      1479 1.20373E-03 5.41326E-04-8.32206E-16
 -1      1480 1.06703E-03 5.09650E-04-6.00052E-16
 -1      1481 1.03092E-03 4.76082E-04-6.40628E-16
 -1      1482 1.47434E-03 5.90525E-04-1.41055E-15
 -1      1483 1.33925E-03 5.68064E-04-1.10238E-15
 -1      1484 1.30889E-03 5.35901E-04-1.14419E-15
 -1      1485 1.74396E-03 6.25438E-04-2.13994E-15
 -1      1486 1.60910E-03 6.09526E-04-1.75634E-15
 -1      1487 1.58319E-03 5.78196E-04-1.79731E-15
 -1      1488 2.01426E-03 6.49934E-04-3.01641E-15
 -1      1489 1.87894E-03 6.38815E-04-2.55983E-15
 -1      1490 1.85644E-03 6.07946E-04-2.59849E-15
 -1      1491 2.28606E-03 6.66768E-04-4.03590E-15
 -1      1492 2.14994E-03 6.59178E-04-3.50837E-15
 -1      1493 2.13004E-03 6.28540E-04-3.54465E-15
 -1      1494 2.57340E-03 6.78436E-04-5.25975E-15
 -1      1495 2.42947E-03 6.73259E-04-4.62817E-15
 -1      1496 2.41159E-03 6.42713E-04-4.66161E-15
 -1      1497 2.84897E-03 6.85427E-04-6.56972E-15
 -1      1498 2.71096E-03 6.82354E-04-5.89726E-15
 -1      1499 2.69459E-03 6.51813E-04-5.92647E-15
 -1      1500 3.12631E-03 6.89580E-04-8.01762E-15
 -1      1501 2.98743E-03 6.87800E-04-7.27688E-15
 -1      1502 2.97215E-03 6.57215E-04-7.30062E-15
 -1      1503 3.40524E-03 6.91761E-04-9.59637E-15
 -1      1504 3.26559E-03 6.90873E-04-8.79081E-15
 -1      1505 3.25110E-03 6.60220E-04-8.80855E-15
 -1      1506 3.68554E-03 6.92610E-04-1.13030E-14
 -1      1507 3.54523E-03 6.92320E-04-1.04339E-14
 -1      1508 3.53130E-03 6.61588E-04-1.04458E-14
 -1      1509 3.96701E-03 6.92593E-04-1.31360E-14
 -1      1510 3.82615E-03 6.92687E-04-1.22046E-14
 -1      1511 3.81261E-03 6.61877E-04-1.22097E-14
 -1      1512 4.24944E-03 6.92038E-04-1.50948E-14
 -1      1513 4.10812E-03 6.92367E-04-1.41001E-14
 -1      1514 4.09486E-03 6.61484E-04-1.40988E-14
 -1      1515 4.53265E-03 6.91170E-04-1.71759E-14
 -1      1516 4.39096E-03 6.91633E-04-1.61197E-14
 -1      1517 4.37788E-03 6.60684E-04-1.61106E-14
 -1      1518 4.81646E-03 6.90131E-04-1.93756E-14
 -1      1519 4.67449E-03 6.90665E-04-1.82611E-14
 -1      1520 4.66153E-03 6.59661E-04-1.82426E-14
 -1      1521 5.11499E-03 6.88948E-04-2.18117E-14
 -1      1522 4.96567E-03 6.89547E-04-2.05781E-14
 -1      1523 4.95278E-03 6.58497E-04-2.05503E-14
 -1      1524 5.39967E-03 6.87772E-04-2.42480E-14
 -1      1525 5.25729E-03 6.88365E-04-2.30156E-14
 -1      1526 5.24446E-03 6.57277E-04-2.29794E-14
 -1      1527 5.68463E-03 6.86552E-04-2.68055E-14
 -1      1528 5.54212E-03 6.87168E-04-2.55109E-14
 -1      1529 5.52933E-03 6.56052E-04-2.54669E-14
 -1      1530 5.96983E-03 6.85264E-04-2.94722E-14
 -1      1531 5.82721E-03 6.85918E-04-2.81254E-14
 -1      1532 5.81445E-03 6.54781E-04-2.80703E-14
 -1      1533 6.25524E-03 6.83866E-04-3.22476E-14
 -1      1534 6.11251E-03 6.84582E-04-3.08471E-14
 -1      1535 6.09980E-03 6.53428E-04-3.07846E-14
 -1      1536 6.54086E-03 6.82300E-04-3.51199E-14
 -1      1537 6.39802E-03 6.83108E-04-3.36723E-14
 -1      1538 6.38535E-03 6.51939E-04-3.36012E-14
 -1      1539 6.82672E-03 6.80496E-04-3.80916E-14
 -1      1540 6.68375E-03 6.81431E-04-3.65933E-14
 -1      1541 6.67113E-03 6.50248E-04-3.65154E-14
 -1      1542 7.11290E-03 6.78371E-04-4.11525E-14
 -1      1543 6.96976E-03 6.79477E-04-3.96112E-14
 -1      1544 6.95720E-03 6.48275E-04-3.95226E-14
 -1      1545 7.39953E-03 6.75837E-04-4.42948E-14
 -1      1546 7.25615E-03 6.77158E-04-4.27139E-14
 -1      1547 7.24364E-03 6.45930E-04-4.26154E-14
 -1      1548 7.70118E-03 6.72630E-04-4.76739E-14
 -1      1549 7.55025E-03 6.74304E-04-4.59745E-14
 -1      1550 7.53778E-03 6.43034E-04-4.58657E-14
 -1      1551 7.98941E-03 6.68955E-04-5.09590E-14
 -1      1552 7.84516E-03 6.70866E-04-4.93086E-14
 -1      1553 7.83270E-03 6.39529E-04-4.91916E-14
 -1      1554 8.27898E-03 6.64584E-04-5.43101E-14
 -1      1555 8.13400E-03 6.66848E-04-5.26265E-14
 -1      1556 8.12148E-03 6.35411E-04-5.25036E-14
 -1      1557 8.57049E-03 6.59449E-04-5.77190E-14
 -1      1558 8.42446E-03 6.62093E-04-5.60071E-14
 -1      1559 8.41177E-03 6.30501E-04-5.58767E-14
 -1      1560 8.86479E-03 6.53541E-04-6.11844E-14
 -1      1561 8.71724E-03 6.56556E-04-5.94458E-14
 -1      1562 8.70419E-03 6.24730E-04-5.93085E-14
 -1      1563 9.16310E-03 6.46973E-04-6.47023E-14
 -1      1564 9.01336E-03 6.50275E-04-6.29365E-14
 -1      1565 8.99961E-03 6.18095E-04-6.27942E-14
 -1      1566 9.46721E-03 6.40103E-04-6.82558E-14
 -1      1567 9.31432E-03 6.43460E-04-6.64747E-14
 -1      1568 9.29929E-03 6.10748E-04-6.63255E-14
 -1      1569 9.77965E-03 6.33793E-04-7.18448E-14
 -1      1570 9.62221E-03 6.36677E-04-7.00471E-14
 -1      1571 9.60498E-03 6.03165E-04-6.98939E-14
 -1      1572 1.01040E-02 6.29891E-04-7.54667E-14
 -1      1573 9.94007E-03 6.31197E-04-7.36525E-14
 -1      1574 9.91908E-03 5.96482E-04-7.34946E-14
 -1      1575 1.04626E-02 6.32619E-04-7.93035E-14
 -1      1576 1.02806E-02 6.29723E-04-7.73821E-14
 -1      1577 1.02531E-02 5.93148E-04-7.72171E-14
 -1      1578 1.08279E-02 6.49675E-04-8.29650E-14
 -1      1579 1.06419E-02 6.38378E-04-8.11333E-14
 -1      1580 1.06038E-02 5.98961E-04-8.09617E-14
 -1      1581 1.12231E-02 6.95897E-04-8.66371E-14
 -1      1582 1.10212E-02 6.67609E-04-8.48011E-14
 -1      1583 1.09668E-02 6.24000E-04-8.46262E-14
 -1      1584 1.16535E-02 7.97741E-04-9.03152E-14
 -1      1585 1.14336E-02 7.37692E-04-8.84738E-14
 -1      1586 1.13553E-02 6.87820E-04-8.82985E-14
 -1      1587 1.21178E-02 9.96241E-04-9.39946E-14
 -1      1588 1.18819E-02 8.82534E-04-9.21560E-14
 -1      1589 1.17723E-02 8.23714E-04-9.19762E-14
 -1      1590 1.25998E-02 1.33722E-03-9.76478E-14
 -1      1591 1.23589E-02 1.14828E-03-9.58240E-14
 -1      1592 1.22165E-02 1.07854E-03-9.56460E-14
 -1      1593 1.30590E-02 1.82826E-03-1.01284E-13
 -1      1594 1.28363E-02 1.56931E-03-9.94706E-14
 -1      1595 1.26750E-02 1.49185E-03-9.92942E-14
 -1      1596 1.34399E-02 2.36083E-03-1.04884E-13
 -1      1597 1.32618E-02 2.10347E-03-1.03087E-13
 -1      1598 1.31164E-02 2.03242E-03-1.02916E-13
 -1      1599 1.37231E-02 2.69878E-03-1.08452E-13
 -1      1600 1.35901E-02 2.56868E-03-1.06671E-13
 -1      1601 1.35024E-02 2.52215E-03-1.06507E-13
 -1      1602 1.39326E-02 2.68823E-03-1.11457E-13
 -1      1603 1.38270E-02 2.72672E-03-1.09959E-13
 -1      1604 1.38123E-02 2.70293E-03-1.09803E-13
 -1      1605 1.41831E-02 2.42300E-03-1.14638E-13
 -1      1606 1.40522E-02 2.57734E-03-1.13047E-13
 -1      1607 1.41020E-02 2.55974E-03-1.12905E-13
 -1      1608 1.45131E-02 2.01750E-03-1.18191E-13
 -1      1609 1.43438E-02 2.22390E-03-1.16409E-13
 -1      1610 1.44407E-02 2.20150E-03-1.16278E-13
 -1      1611 1.48592E-02 1.63739E-03-1.21774E-13
 -1      1612 1.46876E-02 1.82235E-03-1.19978E-13
 -1      1613 1.48091E-02 1.79777E-03-1.19851E-13
 -1      1614 1.51809E-02 1.29097E-03-1.25368E-13
 -1      1615 1.50243E-02 1.46450E-03-1.23568E-13
 -1      1616 1.51549E-02 1.44433E-03-1.23441E-13
 -1      1617 1.53963E-02 1.08099E-03-1.27348E-13
 -1      1618 1.59537E-02 9.81150E-04-1.27735E-13
 -1      1619 1.57302E-02 1.00324E-03-1.27670E-13
 -1      1620 1.63798E-02 9.79691E-04-1.27857E-13
 -1      1621 1.61684E-02 9.72621E-04-1.27796E-13
 -1      1622 1.59325E-02 1.11736E-03-1.26197E-13
 -1      1623 1.67076E-02 1.03428E-03-1.27973E-13
 -1      1624 1.65550E-02 1.00003E-03-1.27912E-13
 -1      1625 1.63411E-02 1.09587E-03-1.26304E-13
 -1      1626 1.68919E-02 1.12832E-03-1.28077E-13
 -1      1627 1.68185E-02 1.07731E-03-1.28027E-13
 -1      1628 1.66506E-02 1.11507E-03-1.26403E-13
 -1      1629 1.69039E-02 1.24779E-03-1.28171E-13
 -1      1630 1.69236E-02 1.18807E-03-1.28127E-13
 -1      1631 1.68194E-02 1.16706E-03-1.26499E-13
 -1      1632 1.67187E-02 1.35180E-03-1.28254E-13
 -1      1633 1.68347E-02 1.30466E-03-1.28215E-13
 -1      1634 1.67938E-02 1.23325E-03-1.26588E-13
 -1      1635 1.63580E-02 1.40844E-03-1.28343E-13
 -1      1636 1.65542E-02 1.38877E-03-1.28299E-13
 -1      1637 1.65557E-02 1.28193E-03-1.26673E-13
 -1      1638 1.58692E-02 1.38797E-03-1.28434E-13
 -1      1639 1.61172E-02 1.40883E-03-1.28391E-13
 -1      1640 1.61303E-02 1.28287E-03-1.26758E-13
 -1      1641 1.53718E-02 1.28378E-03-1.28536E-13
 -1      1642 1.56115E-02 1.34427E-03-1.28482E-13
 -1      1643 1.56082E-02 1.21711E-03-1.26843E-13
 -1      1644 1.49747E-02 1.13263E-03-1.28615E-13
 -1      1645 1.51604E-02 1.21191E-03-1.28581E-13
 -1      1646 1.51287E-02 1.09867E-03-1.26921E-13
 -1      1647 1.46757E-02 9.64745E-04-1.28673E-13
 -1      1648 1.48137E-02 1.04915E-03-1.28647E-13
 -1      1649 1.47559E-02 9.56452E-04-1.26982E-13
 -1      1650 1.44545E-02 8.00910E-04-1.28703E-13
 -1      1651 1.45569E-02 8.81418E-04-1.28691E-13
 -1      1652 1.44799E-02 8.08532E-04-1.27024E-13
 -1      1653 1.42853E-02 6.51979E-04-1.28713E-13
 -1      1654 1.43648E-02 7.24204E-04-1.28710E-13
 -1      1655 1.42763E-02 6.66306E-04-1.27047E-13
 -1      1656 1.41452E-02 5.21877E-04-1.28714E-13
 -1      1657 1.42128E-02 5.84522E-04-1.28716E-13
 -1      1658 1.41188E-02 5.35626E-04-1.27053E-13
 -1      1659 1.40153E-02 4.10089E-04-1.28701E-13
 -1      1660 1.40799E-02 4.63850E-04-1.28710E-13
 -1      1661 1.39851E-02 4.18554E-04-1.27048E-13
 -1      1662 1.38523E-02 2.99211E-04-1.28123E-13
 -1      1663 1.39201E-02 3.46324E-04-1.28134E-13
 -1      1664 1.38278E-02 2.99125E-04-1.26473E-13
 -1      1665 1.36386E-02 1.73273E-04-1.25336E-13
 -1      1666 1.65419E-02 1.25430E-03-1.17606E-13
 -1      1667 1.65676E-02 1.18320E-03-1.17697E-13
 -1      1668 1.63355E-02 1.42970E-03-1.17171E-13
 -1      1669 1.64569E-02 1.34204E-03-1.17442E-13
 -1      1670 1.59376E-02 1.65836E-03-1.16308E-13
 -1      1671 1.61401E-02 1.54273E-03-1.16775E-13
 -1      1672 1.54761E-02 1.93453E-03-1.15069E-13
 -1      1673 1.56952E-02 1.81179E-03-1.15626E-13
 -1      1674 1.49334E-02 2.21333E-03-1.13606E-13
 -1      1675 1.51840E-02 2.07772E-03-1.14359E-13
 -1      1676 1.44218E-02 2.45311E-03-1.11838E-13
 -1      1677 1.46543E-02 2.35569E-03-1.12651E-13
 -1      1678 1.39257E-02 2.56964E-03-1.09951E-13
 -1      1679 1.41480E-02 2.53502E-03-1.10839E-13
 -1      1680 1.34614E-02 2.51094E-03-1.08046E-13
 -1      1681 1.36715E-02 2.55868E-03-1.08907E-13
 -1      1682 1.29867E-02 2.28911E-03-1.06185E-13
 -1      1683 1.32061E-02 2.40863E-03-1.07039E-13
 -1      1684 1.25061E-02 1.94995E-03-1.04328E-13
 -1      1685 1.27363E-02 2.11702E-03-1.05155E-13
 -1      1686 1.19710E-02 1.53160E-03-1.02438E-13
 -1      1687 1.22269E-02 1.72446E-03-1.03271E-13
 -1      1688 1.15028E-02 1.23304E-03-1.01201E-13
 -1      1689 1.16848E-02 1.36441E-03-1.01750E-13
 -1      1690 1.11716E-02 9.93304E-04-1.00221E-13
 -1      1691 1.13127E-02 1.09686E-03-1.00635E-13
 -1      1692 1.09552E-02 8.04310E-04-9.95216E-14
 -1      1693 1.10396E-02 8.82098E-04-9.97791E-14
 -1      1694 1.08843E-02 6.67474E-04-9.92555E-14
 -1      1695 1.08982E-02 7.25456E-04-9.93261E-14
 -1      1696 1.09575E-02 5.47613E-04-9.93982E-14
 -1      1697 1.09063E-02 6.01884E-04-9.92824E-14
 -1      1698 1.11536E-02 4.19231E-04-9.99599E-14
 -1      1699 1.10493E-02 4.78350E-04-9.96818E-14
 -1      1700 1.14592E-02 2.77223E-04-1.00813E-13
 -1      1701 1.13063E-02 3.47749E-04-1.00350E-13
 -1      1702 1.18432E-02 1.16057E-04-1.02049E-13
 -1      1703 1.16618E-02 1.93742E-04-1.01421E-13
 -1      1704 1.22741E-02-4.60810E-05-1.03592E-13
 -1      1705 1.20795E-02 2.96776E-05-1.02825E-13
 -1      1706 1.26772E-02-1.74496E-04-1.05452E-13
 -1      1707 1.24850E-02-1.23965E-04-1.04638E-13
 -1      1708 1.31027E-02-2.37696E-04-1.07313E-13
 -1      1709 1.29078E-02-2.17631E-04-1.06435E-13
 -1      1710 1.35292E-02-2.18441E-04-1.09223E-13
 -1      1711 1.33331E-02-2.37993E-04-1.08352E-13
 -1      1712 1.40268E-02-9.58907E-05-1.11349E-13
 -1      1713 1.37849E-02-1.68233E-04-1.10349E-13
 -1      1714 1.46060E-02 1.51048E-04-1.13589E-13
 -1      1715 1.43235E-02 2.47791E-05-1.12610E-13
 -1      1716 1.51869E-02 3.95440E-04-1.15105E-13
 -1      1717 1.49486E-02 2.83394E-04-1.14453E-13
 -1      1718 1.56547E-02 5.97119E-04-1.16121E-13
 -1      1719 1.54555E-02 5.03527E-04-1.15673E-13
 -1      1720 1.60191E-02 7.53149E-04-1.16756E-13
 -1      1721 1.58655E-02 6.78125E-04-1.16459E-13
 -1      1722 1.62452E-02 8.63966E-04-1.17105E-13
 -1      1723 1.61390E-02 8.07136E-04-1.16932E-13
 -1      1724 1.60287E-02 8.46827E-04-1.17312E-13
 -1      1725 1.64444E-02 9.95219E-04-1.17409E-13
 -1      1726 1.63692E-02 9.40864E-04-1.17303E-13
 -1      1727 1.65433E-02 1.10327E-03-1.17474E-13
 -1      1728 1.65042E-02 1.04777E-03-1.17440E-13
 -1      1729 1.64773E-02 1.05668E-03-1.17916E-13
 -1      1730 1.52329E-02 1.94412E-03-1.15162E-13
 -1      1731 1.57594E-02 1.64669E-03-1.16560E-13
 -1      1732 1.55328E-02 1.07018E-03-1.27221E-13
 -1      1733 1.55117E-02 1.20593E-03-1.25691E-13
 -1      1734 1.65057E-02 1.26171E-03-1.18217E-13
 -1      1735 1.62115E-02 1.41180E-03-1.17647E-13
 -1      1736 1.65712E-02 1.15826E-03-1.18168E-13
 -1      1737 1.47065E-02 2.25612E-03-1.13496E-13
 -1      1738 1.42219E-02 2.50863E-03-1.11546E-13
 -1      1739 1.37968E-02 2.60119E-03-1.09511E-13
 -1      1740 1.33854E-02 2.48820E-03-1.07465E-13
 -1      1741 1.29496E-02 2.19778E-03-1.05432E-13
 -1      1742 1.24664E-02 1.77977E-03-1.03345E-13
 -1      1743 1.19301E-02 1.37508E-03-1.01599E-13
 -1      1744 1.14574E-02 1.08020E-03-1.00342E-13
 -1      1745 1.11222E-02 8.66327E-04-9.93322E-14
 -1      1746 1.09219E-02 7.26833E-04-9.86949E-14
 -1      1747 1.08841E-02 6.34346E-04-9.85277E-14
 -1      1748 1.10027E-02 5.46318E-04-9.88386E-14
 -1      1749 1.12531E-02 4.33099E-04-9.95125E-14
 -1      1750 1.16070E-02 2.86915E-04-1.00511E-13
 -1      1751 1.20250E-02 1.07167E-04-1.01893E-13
 -1      1752 1.24308E-02-7.76096E-05-1.03711E-13
 -1      1753 1.28283E-02-2.13515E-04-1.05741E-13
 -1      1754 1.32131E-02-2.67855E-04-1.07767E-13
 -1      1755 1.36182E-02-2.15346E-04-1.09935E-13
 -1      1756 1.40918E-02-2.68937E-05-1.12325E-13
 -1      1757 1.46509E-02 2.60546E-04-1.14456E-13
 -1      1758 1.52262E-02 5.22953E-04-1.15891E-13
 -1      1759 1.56974E-02 7.17546E-04-1.16798E-13
 -1      1760 2.85268E-04-1.76208E-04-4.61328E-17
 -1      1761 1.62888E-02 9.56657E-04-1.17686E-13
 -1      1762 3.32207E-04-1.16723E-04-1.82146E-16
 -1      1763 3.36351E-04-1.32969E-04-1.68756E-16
 -1      1764 3.42237E-04-1.51961E-04-1.52696E-16
 -1      1765 3.51796E-04-1.73967E-04-1.30646E-16
 -1      1766 4.58368E-04-1.88014E-04-2.44352E-16
 -1      1767 3.24553E-04-6.53365E-05-2.12124E-16
 -1      1768 3.25697E-04-7.66308E-05-2.07001E-16
 -1      1769 3.23051E-04-4.38552E-05-2.18928E-16
 -1      1770 3.23709E-04-5.43390E-05-2.15960E-16
 -1      1771 4.36489E-04-7.92332E-05-3.16072E-16
 -1      1772 3.22262E-04-2.37516E-05-2.22817E-16
 -1      1773 3.22596E-04-3.36577E-05-2.21191E-16
 -1      1774 4.34479E-04-5.12785E-05-3.24556E-16
 -1      1775 3.21966E-04-4.33306E-06-2.24416E-16
 -1      1776 3.22064E-04-1.39774E-05-2.23806E-16
 -1      1777 4.33453E-04-2.49039E-05-3.29232E-16
 -1      1778 3.22089E-04 1.49687E-05-2.23874E-16
 -1      1779 3.21974E-04 5.31430E-06-2.24538E-16
 -1      1780 4.33154E-04 7.57203E-07-3.30885E-16
 -1      1781 3.22658E-04 3.47025E-05-2.20784E-16
 -1      1782 3.22305E-04 2.47640E-05-2.22627E-16
 -1      1783 4.33511E-04 2.64472E-05-3.29232E-16
 -1      1784 3.23793E-04 5.51270E-05-2.15011E-16
 -1      1785 3.23127E-04 4.47705E-05-2.18399E-16
 -1      1786 4.34593E-04 5.26844E-05-3.23987E-16
 -1      1787 3.25858E-04 7.77684E-05-2.05998E-16
 -1      1788 3.24656E-04 6.61919E-05-2.11175E-16
 -1      1789 4.36657E-04 8.05486E-05-3.15056E-16
 -1      1790 3.29557E-04 1.03601E-04-1.91307E-16
 -1      1791 3.27404E-04 9.02528E-05-1.99696E-16
 -1      1792 4.40318E-04 1.11507E-04-3.00690E-16
 -1      1793 3.36601E-04 1.35059E-04-1.67360E-16
 -1      1794 3.32414E-04 1.18560E-04-1.80980E-16
 -1      1795 4.46802E-04 1.47271E-04-2.77949E-16
 -1      1796 3.52335E-04 1.77559E-04-1.29061E-16
 -1      1797 3.42836E-04 1.54710E-04-1.50718E-16
 -1      1798 4.59351E-04 1.91393E-04-2.41940E-16
 -1      1799 4.07740E-04 2.33645E-04-1.04083E-16
 -1      1800 3.78127E-04 2.02618E-04-1.21200E-16
 -1      1801 4.95904E-04 2.43936E-04-2.10254E-16
 -1      1802 5.58606E-04 3.02448E-04-1.86158E-16
 -1      1803 3.40057E-04-1.90873E-04-8.97990E-17
 -1      1804 8.53669E-04 4.07035E-04-4.66004E-16
 -1      1805 7.07243E-04 3.59306E-04-3.07602E-16
 -1      1806 6.73473E-04 3.28737E-04-3.23024E-16
 -1      1807 1.63418E-02 1.03199E-03-1.18356E-13
 -1      1808 1.62099E-02 9.82194E-04-1.18156E-13
 -1      1809 4.59002E-04-2.36666E-04-1.67956E-16
 -1      1810 8.07322E-04-3.74032E-04-4.63740E-16
 -1      1811 9.52609E-04-4.15206E-04-6.55183E-16
 -1      1812 1.09547E-03-4.49885E-04-8.82744E-16
 -1      1813 1.23717E-03-4.78773E-04-1.14690E-15
 -1      1814 1.00403E-03-3.97812E-04-8.17028E-16
 -1      1815 1.37760E-03-5.03253E-04-1.44721E-15
 -1      1816 1.51732E-03-5.23623E-04-1.78378E-15
 -1      1817 1.28976E-03-4.55760E-04-1.35520E-15
 -1      1818 1.65652E-03-5.40803E-04-2.15629E-15
 -1      1819 1.79539E-03-5.55033E-04-2.56468E-15
 -1      1820 1.57222E-03-4.96703E-04-2.03638E-15
 -1      1821 1.93415E-03-5.66921E-04-3.00797E-15
 -1      1822 2.07285E-03-5.76670E-04-3.48632E-15
 -1      1823 1.85290E-03-5.25256E-04-2.85920E-15
 -1      1824 2.21164E-03-5.84700E-04-3.99995E-15
 -1      1825 2.35052E-03-5.91183E-04-4.54766E-15
 -1      1826 2.13286E-03-5.44763E-04-3.82158E-15
 -1      1827 2.48961E-03-5.96417E-04-5.12937E-15
 -1      1828 2.62888E-03-6.00540E-04-5.74515E-15
 -1      1829 2.41280E-03-5.57685E-04-4.92091E-15
 -1      1830 2.76840E-03-6.03770E-04-6.39437E-15
 -1      1831 2.90812E-03-6.06217E-04-7.07598E-15
 -1      1832 2.69310E-03-5.65862E-04-6.15512E-15
 -1      1833 3.04811E-03-6.08037E-04-7.79001E-15
 -1      1834 3.18832E-03-6.09317E-04-8.53534E-15
 -1      1835 2.97399E-03-5.70675E-04-7.52088E-15
 -1      1836 3.32877E-03-6.10170E-04-9.31262E-15
 -1      1837 3.46943E-03-6.10662E-04-1.01216E-14
 -1      1838 3.25553E-03-5.73154E-04-9.01370E-15
 -1      1839 3.61032E-03-6.10871E-04-1.09612E-14
 -1      1840 3.75140E-03-6.10848E-04-1.18323E-14
 -1      1841 3.53773E-03-5.74060E-04-1.06319E-14
 -1      1842 3.89267E-03-6.10647E-04-1.27339E-14
 -1      1843 4.03410E-03-6.10305E-04-1.36665E-14
 -1      1844 3.82056E-03-5.73947E-04-1.23744E-14
 -1      1845 4.17570E-03-6.09857E-04-1.46294E-14
 -1      1846 4.31744E-03-6.09330E-04-1.56224E-14
 -1      1847 4.10394E-03-5.73204E-04-1.42395E-14
 -1      1848 4.45932E-03-6.08745E-04-1.66447E-14
 -1      1849 4.60131E-03-6.08120E-04-1.76965E-14
 -1      1850 4.38780E-03-5.72100E-04-1.62250E-14
 -1      1851 4.74341E-03-6.07466E-04-1.87792E-14
 -1      1852 4.88561E-03-6.06796E-04-1.98897E-14
 -1      1853 4.67206E-03-5.70810E-04-1.83296E-14
 -1      1854 5.02790E-03-6.06114E-04-2.10278E-14
 -1      1855 5.17026E-03-6.05427E-04-2.21946E-14
 -1      1856 4.95667E-03-5.69438E-04-2.05488E-14
 -1      1857 5.31270E-03-6.04734E-04-2.33904E-14
 -1      1858 5.45521E-03-6.04037E-04-2.46128E-14
 -1      1859 5.24155E-03-5.68037E-04-2.28822E-14
 -1      1860 5.59777E-03-6.03333E-04-2.58629E-14
 -1      1861 5.74039E-03-6.02623E-04-2.71403E-14
 -1      1862 5.52666E-03-5.66622E-04-2.53274E-14
 -1      1863 5.88306E-03-6.01898E-04-2.84437E-14
 -1      1864 6.02578E-03-6.01159E-04-2.97734E-14
 -1      1865 5.81197E-03-5.65183E-04-2.78799E-14
 -1      1866 6.16855E-03-6.00397E-04-3.11298E-14
 -1      1867 6.31138E-03-5.99611E-04-3.25123E-14
 -1      1868 6.09747E-03-5.63688E-04-3.05394E-14
 -1      1869 6.45425E-03-5.98790E-04-3.39198E-14
 -1      1870 6.59718E-03-5.97934E-04-3.53520E-14
 -1      1871 6.38314E-03-5.62097E-04-3.33009E-14
 -1      1872 6.74017E-03-5.97035E-04-3.68078E-14
 -1      1873 6.88323E-03-5.96091E-04-3.82858E-14
 -1      1874 6.66899E-03-5.60366E-04-3.61624E-14
 -1      1875 7.02635E-03-5.95098E-04-3.97862E-14
 -1      1876 7.16956E-03-5.94056E-04-4.13082E-14
 -1      1877 6.95507E-03-5.58455E-04-3.91167E-14
 -1      1878 7.31285E-03-5.92963E-04-4.28512E-14
 -1      1879 7.45625E-03-5.91826E-04-4.44120E-14
 -1      1880 7.24141E-03-5.56340E-04-4.21574E-14
 -1      1881 7.59975E-03-5.90649E-04-4.59931E-14
 -1      1882 7.74338E-03-5.89442E-04-4.75940E-14
 -1      1883 7.52808E-03-5.54025E-04-4.52785E-14
 -1      1884 7.88714E-03-5.88222E-04-4.92127E-14
 -1      1885 8.03106E-03-5.87005E-04-5.08488E-14
 -1      1886 7.81514E-03-5.51559E-04-4.84753E-14
 -1      1887 8.17512E-03-5.85824E-04-5.25022E-14
 -1      1888 8.31937E-03-5.84704E-04-5.41727E-14
 -1      1889 8.10270E-03-5.49058E-04-5.17474E-14
 -1      1890 8.46380E-03-5.83697E-04-5.58581E-14
 -1      1891 8.60842E-03-5.82840E-04-5.75581E-14
 -1      1892 8.39085E-03-5.46731E-04-5.50837E-14
 -1      1893 8.75324E-03-5.82210E-04-5.92719E-14
 -1      1894 8.89826E-03-5.81855E-04-6.09964E-14
 -1      1895 8.67968E-03-5.44908E-04-5.84805E-14
 -1      1896 9.04347E-03-5.81878E-04-6.27341E-14
 -1      1897 9.18886E-03-5.82341E-04-6.44803E-14
 -1      1898 8.96925E-03-5.44066E-04-6.19281E-14
 -1      1899 9.33442E-03-5.83372E-04-6.62366E-14
 -1      1900 9.48010E-03-5.85036E-04-6.80056E-14
 -1      1901 9.25959E-03-5.44837E-04-6.54191E-14
 -1      1902 9.62589E-03-5.87478E-04-6.97805E-14
 -1      1903 9.77166E-03-5.90757E-04-7.15636E-14
 -1      1904 9.55063E-03-5.47998E-04-6.89491E-14
 -1      1905 9.91744E-03-5.95008E-04-7.33546E-14
 -1      1906 1.00630E-02-6.00263E-04-7.51510E-14
 -1      1907 9.84217E-03-5.54395E-04-7.25126E-14
 -1      1908 1.02084E-02-6.06604E-04-7.69528E-14
 -1      1909 1.03533E-02-6.14003E-04-7.87593E-14
 -1      1910 1.01338E-02-5.64788E-04-7.61046E-14
 -1      1911 1.04978E-02-6.22424E-04-8.05691E-14
 -1      1912 1.06414E-02-6.31730E-04-8.23857E-14
 -1      1913 1.04249E-02-5.79574E-04-7.97158E-14
 -1      1914 1.07842E-02-6.41690E-04-8.42057E-14
 -1      1915 1.09258E-02-6.51999E-04-8.60305E-14
 -1      1916 1.07145E-02-5.98368E-04-8.33462E-14
 -1      1917 1.10661E-02-6.62154E-04-8.78634E-14
 -1      1918 1.12048E-02-6.71631E-04-8.97024E-14
 -1      1919 1.10012E-02-6.19465E-04-8.69960E-14
 -1      1920 1.13419E-02-6.79613E-04-9.15519E-14
 -1      1921 1.14771E-02-6.85345E-04-9.34095E-14
 -1      1922 1.12835E-02-6.39280E-04-9.06754E-14
 -1      1923 1.16104E-02-6.87723E-04-9.52761E-14
 -1      1924 1.17417E-02-6.85824E-04-9.71480E-14
 -1      1925 1.15599E-02-6.51988E-04-9.43879E-14
 -1      1926 1.18710E-02-6.78408E-04-9.90281E-14
 -1      1927 1.19987E-02-6.64531E-04-1.00916E-13
 -1      1928 1.18293E-02-6.49687E-04-9.81298E-14
 -1      1929 1.21246E-02-6.43083E-04-1.02806E-13
 -1      1930 1.22496E-02-6.13336E-04-1.04702E-13
 -1      1931 1.20916E-02-6.23393E-04-1.01897E-13
 -1      1932 1.23735E-02-5.74633E-04-1.06604E-13
 -1      1933 1.24974E-02-5.26704E-04-1.08509E-13
 -1      1934 1.23483E-02-5.64937E-04-1.05683E-13
 -1      1935 1.26212E-02-4.69626E-04-1.10414E-13
 -1      1936 1.27461E-02-4.03753E-04-1.12323E-13
 -1      1937 1.26022E-02-4.69363E-04-1.09484E-13
 -1      1938 1.28719E-02-3.30020E-04-1.14234E-13
 -1      1939 1.29997E-02-2.49454E-04-1.16146E-13
 -1      1940 1.28571E-02-3.36974E-04-1.13296E-13
 -1      1941 1.31293E-02-1.63741E-04-1.18063E-13
 -1      1942 1.32614E-02-7.44901E-05-1.19979E-13
 -1      1943 1.31168E-02-1.74299E-04-1.17119E-13
 -1      1944 1.33795E-02 5.37101E-06-1.21695E-13
 -1      1945 1.35162E-02 9.56379E-05-1.23615E-13
 -1      1946 1.36099E-02 1.57191E-04-1.24184E-13
 -1      1947 1.33677E-02-4.43763E-06-1.20748E-13
 -1      1948 1.13877E-03 4.79980E-04-8.93505E-16
 -1      1949 9.96974E-04 4.46738E-04-6.60889E-16
 -1      1950 9.64582E-04 4.17280E-04-6.76895E-16
 -1      1951 1.41794E-03 5.31453E-04-1.46966E-15
 -1      1952 1.27876E-03 5.08008E-04-1.16296E-15
 -1      1953 1.24911E-03 4.79867E-04-1.17742E-15
 -1      1954 1.69439E-03 5.67751E-04-2.19368E-15
 -1      1955 1.55632E-03 5.51254E-04-1.81329E-15
 -1      1956 1.52943E-03 5.24077E-04-1.82509E-15
 -1      1957 1.97004E-03 5.93056E-04-3.06371E-15
 -1      1958 1.83222E-03 5.81607E-04-2.61053E-15
 -1      1959 1.80774E-03 5.55066E-04-2.61873E-15
 -1      1960 2.24596E-03 6.10330E-04-4.07627E-15
 -1      1961 2.10792E-03 6.02572E-04-3.55250E-15
 -1      1962 2.08543E-03 5.76433E-04-3.55625E-15
 -1      1963 2.53659E-03 6.22206E-04-5.29070E-15
 -1      1964 2.39114E-03 6.16964E-04-4.66403E-15
 -1      1965 2.37029E-03 5.91075E-04-4.66299E-15
 -1      1966 2.81450E-03 6.29248E-04-6.58956E-15
 -1      1967 2.67541E-03 6.26175E-04-5.92283E-15
 -1      1968 2.65584E-03 6.00424E-04-5.91572E-15
 -1      1969 3.09358E-03 6.33363E-04-8.02418E-15
 -1      1970 2.95390E-03 6.31619E-04-7.29007E-15
 -1      1971 2.93530E-03 6.05933E-04-7.27630E-15
 -1      1972 3.37377E-03 6.35458E-04-9.58984E-15
 -1      1973 3.23354E-03 6.34625E-04-8.79070E-15
 -1      1974 3.21568E-03 6.08958E-04-8.76972E-15
 -1      1975 3.65499E-03 6.36198E-04-1.12830E-14
 -1      1976 3.51426E-03 6.35970E-04-1.04208E-14
 -1      1977 3.49696E-03 6.10295E-04-1.03927E-14
 -1      1978 3.93710E-03 6.36067E-04-1.31023E-14
 -1      1979 3.79594E-03 6.36222E-04-1.21774E-14
 -1      1980 3.77905E-03 6.10524E-04-1.21416E-14
 -1      1981 4.21997E-03 6.35402E-04-1.50445E-14
 -1      1982 4.07845E-03 6.35788E-04-1.40576E-14
 -1      1983 4.06186E-03 6.10059E-04-1.40142E-14
 -1      1984 4.50348E-03 6.34434E-04-1.71082E-14
 -1      1985 4.36165E-03 6.34948E-04-1.60615E-14
 -1      1986 4.34528E-03 6.09187E-04-1.60089E-14
 -1      1987 4.78749E-03 6.33311E-04-1.92895E-14
 -1      1988 4.64543E-03 6.33887E-04-1.81842E-14
 -1      1989 4.62922E-03 6.08095E-04-1.81237E-14
 -1      1990 5.08616E-03 6.32054E-04-2.17069E-14
 -1      1991 4.93678E-03 6.32690E-04-2.04822E-14
 -1      1992 4.92068E-03 6.06870E-04-2.04120E-14
 -1      1993 5.37094E-03 6.30824E-04-2.41271E-14
 -1      1994 5.22851E-03 6.31443E-04-2.29025E-14
 -1      1995 5.21250E-03 6.05600E-04-2.28224E-14
 -1      1996 5.65598E-03 6.29562E-04-2.66632E-14
 -1      1997 5.51343E-03 6.30198E-04-2.53802E-14
 -1      1998 5.49747E-03 6.04337E-04-2.52916E-14
 -1      1999 5.94125E-03 6.28242E-04-2.93143E-14
 -1      2000 5.79859E-03 6.28911E-04-2.79752E-14
 -1      2001 5.78268E-03 6.03038E-04-2.78766E-14
 -1      2002 6.22673E-03 6.26820E-04-3.20707E-14
 -1      2003 6.08397E-03 6.27547E-04-3.06792E-14
 -1      2004 6.06809E-03 6.01666E-04-3.05727E-14
 -1      2005 6.51242E-03 6.25234E-04-3.49285E-14
 -1      2006 6.36955E-03 6.26051E-04-3.34881E-14
 -1      2007 6.35369E-03 6.00165E-04-3.33726E-14
 -1      2008 6.79836E-03 6.23407E-04-3.78814E-14
 -1      2009 6.65536E-03 6.24354E-04-3.63930E-14
 -1      2010 6.63952E-03 5.98466E-04-3.62693E-14
 -1      2011 7.08461E-03 6.21252E-04-4.09217E-14
 -1      2012 6.94144E-03 6.22374E-04-3.93903E-14
 -1      2013 6.92560E-03 5.96485E-04-3.92571E-14
 -1      2014 7.37127E-03 6.18671E-04-4.40461E-14
 -1      2015 7.22788E-03 6.20018E-04-4.24754E-14
 -1      2016 7.21202E-03 5.94126E-04-4.23321E-14
 -1      2017 7.67290E-03 6.15385E-04-4.74066E-14
 -1      2018 7.52199E-03 6.17105E-04-4.57157E-14
 -1      2019 7.50607E-03 5.91207E-04-4.55658E-14
 -1      2020 7.96099E-03 6.11587E-04-5.06779E-14
 -1      2021 7.81683E-03 6.13568E-04-4.90341E-14
 -1      2022 7.80077E-03 5.87657E-04-4.88752E-14
 -1      2023 8.25024E-03 6.07022E-04-5.40147E-14
 -1      2024 8.10545E-03 6.09397E-04-5.23379E-14
 -1      2025 8.08916E-03 5.83461E-04-5.21721E-14
 -1      2026 8.54107E-03 6.01587E-04-5.74109E-14
 -1      2027 8.39542E-03 6.04404E-04-5.57053E-14
 -1      2028 8.37873E-03 5.78424E-04-5.55328E-14
 -1      2029 8.83414E-03 5.95221E-04-6.08644E-14
 -1      2030 8.68728E-03 5.98502E-04-5.91308E-14
 -1      2031 8.66991E-03 5.72449E-04-5.89525E-14
 -1      2032 9.13031E-03 5.87956E-04-6.43683E-14
 -1      2033 8.98176E-03 5.91665E-04-6.26096E-14
 -1      2034 8.96330E-03 5.65498E-04-6.24243E-14
 -1      2035 9.43076E-03 5.80033E-04-6.79119E-14
 -1      2036 9.27988E-03 5.84010E-04-6.61348E-14
 -1      2037 9.25967E-03 5.57663E-04-6.59444E-14
 -1      2038 9.73710E-03 5.72127E-04-7.14939E-14
 -1      2039 9.58302E-03 5.75957E-04-6.96996E-14
 -1      2040 9.56004E-03 5.49325E-04-6.95036E-14
 -1      2041 1.00515E-02 5.65799E-04-7.51061E-14
 -1      2042 9.89303E-03 5.68551E-04-7.32976E-14
 -1      2043 9.86569E-03 5.41454E-04-7.30975E-14
 -1      2044 1.03931E-02 5.64556E-04-7.89266E-14
 -1      2045 1.02204E-02 5.64044E-04-7.70115E-14
 -1      2046 1.01861E-02 5.36130E-04-7.68089E-14
 -1      2047 1.07329E-02 5.75658E-04-8.25810E-14
 -1      2048 1.05608E-02 5.67891E-04-8.07534E-14
 -1      2049 1.05159E-02 5.38475E-04-8.05427E-14
 -1      2050 1.10904E-02 6.12386E-04-8.62489E-14
 -1      2051 1.09089E-02 5.89607E-04-8.44134E-14
 -1      2052 1.08490E-02 5.57390E-04-8.42029E-14
 -1      2053 1.14699E-02 6.99084E-04-8.99204E-14
 -1      2054 1.12771E-02 6.47471E-04-8.80833E-14
 -1      2055 1.11968E-02 6.09802E-04-8.78684E-14
 -1      2056 1.18759E-02 8.75064E-04-9.36000E-14
 -1      2057 1.16698E-02 7.73002E-04-9.17610E-14
 -1      2058 1.15650E-02 7.25178E-04-9.15458E-14
 -1      2059 1.23124E-02 1.19006E-03-9.72561E-14
 -1      2060 1.20921E-02 1.01253E-03-9.54309E-14
 -1      2061 1.19642E-02 9.48409E-04-9.52160E-14
 -1      2062 1.27724E-02 1.67089E-03-1.00900E-13
 -1      2063 1.25434E-02 1.41196E-03-9.90817E-14
 -1      2064 1.24057E-02 1.33035E-03-9.88701E-14
 -1      2065 1.32246E-02 2.23635E-03-1.04511E-13
 -1      2066 1.30034E-02 1.95646E-03-1.02708E-13
 -1      2067 1.28826E-02 1.87304E-03-1.02500E-13
 -1      2068 1.36295E-02 2.63619E-03-1.08096E-13
 -1      2069 1.34295E-02 2.47538E-03-1.06307E-13
 -1      2070 1.33557E-02 2.42077E-03-1.06106E-13
 -1      2071 1.39505E-02 2.65448E-03-1.11124E-13
 -1      2072 1.37866E-02 2.68197E-03-1.09613E-13
 -1      2073 1.37666E-02 2.66028E-03-1.09420E-13
 -1      2074 1.43024E-02 2.38625E-03-1.14323E-13
 -1      2075 1.41233E-02 2.54503E-03-1.12723E-13
 -1      2076 1.41483E-02 2.53007E-03-1.12541E-13
 -1      2077 1.50718E-02 1.64443E-03-1.20791E-13
 -1      2078 1.48804E-02 1.82898E-03-1.18997E-13
 -1      2079 1.53873E-02 1.34272E-03-1.24139E-13
 -1      2080 1.52196E-02 1.50388E-03-1.22336E-13
 -1      2081 1.53185E-02 1.52527E-03-1.21480E-13
 -1      2082 1.55956E-02 1.27350E-03-1.24587E-13
 -1      2083 1.66262E-02 1.15392E-03-1.25083E-13
 -1      2084 1.64973E-02 1.15252E-03-1.25037E-13
 -1      2085 1.63255E-02 1.15936E-03-1.24989E-13
 -1      2086 1.61352E-02 1.17599E-03-1.24942E-13
 -1      2087 1.63106E-02 1.20250E-03-1.23672E-13
 -1      2088 1.58149E-02 1.23644E-03-1.24639E-13
 -1      2089 1.67639E-02 1.18260E-03-1.25169E-13
 -1      2090 1.67210E-02 1.16750E-03-1.25126E-13
 -1      2091 1.66075E-02 1.17763E-03-1.23757E-13
 -1      2092 1.66798E-02 1.22043E-03-1.25248E-13
 -1      2093 1.67504E-02 1.20575E-03-1.25208E-13
 -1      2094 1.67010E-02 1.18880E-03-1.23833E-13
 -1      2095 1.63673E-02 1.23077E-03-1.25330E-13
 -1      2096 1.65466E-02 1.23323E-03-1.25289E-13
 -1      2097 1.65397E-02 1.20023E-03-1.23908E-13
 -1      2098 1.58692E-02 1.18161E-03-1.25413E-13
 -1      2099 1.61278E-02 1.21382E-03-1.25373E-13
 -1      2100 1.61283E-02 1.16610E-03-1.23988E-13
 -1      2101 1.53275E-02 1.07320E-03-1.25491E-13
 -1      2102 1.55921E-02 1.13102E-03-1.25454E-13
 -1      2103 1.55751E-02 1.06517E-03-1.24064E-13
 -1      2104 1.48825E-02 9.40992E-04-1.25551E-13
 -1      2105 1.50923E-02 1.00730E-03-1.25521E-13
 -1      2106 1.50541E-02 9.27001E-04-1.24127E-13
 -1      2107 1.45450E-02 8.02979E-04-1.25597E-13
 -1      2108 1.47013E-02 8.70996E-04-1.25577E-13
 -1      2109 1.46463E-02 7.87513E-04-1.24173E-13
 -1      2110 1.42977E-02 6.68542E-04-1.25628E-13
 -1      2111 1.44118E-02 7.34495E-04-1.25613E-13
 -1      2112 1.43445E-02 6.56651E-04-1.24208E-13
 -1      2113 1.41136E-02 5.41920E-04-1.25640E-13
 -1      2114 1.41993E-02 6.03917E-04-1.25637E-13
 -1      2115 1.41237E-02 5.35340E-04-1.24227E-13
 -1      2116 1.39677E-02 4.25078E-04-1.25643E-13
 -1      2117 1.40371E-02 4.82217E-04-1.25644E-13
 -1      2118 1.39567E-02 4.22474E-04-1.24235E-13
 -1      2119 1.38395E-02 3.18490E-04-1.25632E-13
 -1      2120 1.39024E-02 3.70609E-04-1.25641E-13
 -1      2121 1.38203E-02 3.17339E-04-1.24232E-13
 -1      2122 1.60947E-02 1.38512E-03-1.18398E-13
 -1      2123 1.62940E-02 1.31016E-03-1.18804E-13
 -1      2124 1.65852E-02 1.17251E-03-1.18995E-13
 -1      2125 1.65595E-02 1.13986E-03-1.18779E-13
 -1      2126 1.64622E-02 1.25177E-03-1.18953E-13
 -1      2127 1.65533E-02 1.21450E-03-1.19127E-13
 -1      2128 1.55692E-02 1.65794E-03-1.16863E-13
 -1      2129 1.58121E-02 1.52558E-03-1.17553E-13
 -1      2130 1.61019E-02 9.40098E-04-1.17982E-13
 -1      2131 1.59804E-02 8.96544E-04-1.17805E-13
 -1      2132 1.61702E-02 1.01113E-03-1.18650E-13
 -1      2133 1.50622E-02 1.95517E-03-1.15433E-13
 -1      2134 1.53198E-02 1.80170E-03-1.16147E-13
 -1      2135 1.54126E-02 1.68663E-03-1.17137E-13
 -1      2136 1.65066E-02 1.10316E-03-1.18580E-13
 -1      2137 1.64417E-02 1.07719E-03-1.18550E-13
 -1      2138 1.63828E-02 1.08310E-03-1.19019E-13
 -1      2139 1.65382E-02 1.14187E-03-1.19410E-13
 -1      2140 3.27130E-04-8.89329E-05-2.00686E-16
 -1      2141 3.29249E-04-1.02076E-04-1.92270E-16
 -1      2142 4.46333E-04-1.45038E-04-2.79507E-16
 -1      2143 4.39989E-04-1.09882E-04-3.01937E-16
 -1      2144 1.40954E-02 2.56080E-03-1.11322E-13
 -1      2145 1.42889E-02 2.46029E-03-1.12315E-13
 -1      2146 1.37051E-02 2.61866E-03-1.09026E-13
 -1      2147 1.38742E-02 2.62055E-03-1.10064E-13
 -1      2148 1.33517E-02 2.46334E-03-1.07023E-13
 -1      2149 1.35303E-02 2.56445E-03-1.08025E-13
 -1      2150 1.36410E-02 2.61187E-03-1.08583E-13
 -1      2151 1.29361E-02 2.11108E-03-1.04734E-13
 -1      2152 1.31316E-02 2.29409E-03-1.05763E-13
 -1      2153 1.24402E-02 1.63639E-03-1.02405E-13
 -1      2154 1.26849E-02 1.86598E-03-1.03462E-13
 -1      2155 1.18403E-02 1.19893E-03-1.00501E-13
 -1      2156 1.20991E-02 1.36617E-03-1.01191E-13
 -1      2157 1.14089E-02 9.50610E-04-9.93611E-14
 -1      2158 1.16033E-02 1.06399E-03-9.99293E-14
 -1      2159 1.10812E-02 7.67071E-04-9.82512E-14
 -1      2160 1.12231E-02 8.37918E-04-9.86939E-14
 -1      2161 1.08944E-02 6.74961E-04-9.78178E-14
 -1      2162 1.09574E-02 7.10475E-04-9.80118E-14
 -1      2163 1.08923E-02 6.14190E-04-9.77495E-14
 -1      2164 1.08710E-02 6.38572E-04-9.77216E-14
 -1      2165 1.10566E-02 5.44225E-04-9.81211E-14
 -1      2166 1.09616E-02 5.78011E-04-9.78367E-14
 -1      2167 1.13391E-02 4.38502E-04-9.89276E-14
 -1      2168 1.11883E-02 4.93355E-04-9.85370E-14
 -1      2169 1.17234E-02 2.79862E-04-1.00076E-13
 -1      2170 1.15351E-02 3.61256E-04-9.94687E-14
 -1      2171 1.21420E-02 8.25418E-05-1.01632E-13
 -1      2172 1.19426E-02 1.79951E-04-1.00859E-13
 -1      2173 1.25816E-02-1.31828E-04-1.03936E-13
 -1      2174 1.24030E-02-4.40642E-05-1.02892E-13
 -1      2175 1.29186E-02-2.51880E-04-1.05910E-13
 -1      2176 1.27535E-02-1.98082E-04-1.04925E-13
 -1      2177 1.26755E-02-1.75096E-04-1.04105E-13
 -1      2178 1.32815E-02-2.86607E-04-1.08225E-13
 -1      2179 1.31196E-02-2.83530E-04-1.07182E-13
 -1      2180 1.36542E-02-1.97590E-04-1.10592E-13
 -1      2181 1.34748E-02-2.57708E-04-1.09463E-13
 -1      2182 1.40940E-02 4.64754E-05-1.13269E-13
 -1      2183 1.38689E-02-9.11123E-05-1.12004E-13
 -1      2184 1.47470E-02 3.95813E-04-1.15526E-13
 -1      2185 1.44617E-02 2.43601E-04-1.14658E-13
 -1      2186 1.53004E-02 6.52082E-04-1.16822E-13
 -1      2187 1.50524E-02 5.36520E-04-1.16252E-13
 -1      2188 1.57736E-02 8.27340E-04-1.17551E-13
 -1      2189 1.55673E-02 7.48890E-04-1.17213E-13
 -1      2190 1.45230E-02 2.31842E-03-1.13381E-13
 -1      2191 1.47511E-02 2.15910E-03-1.14335E-13
 -1      2192 1.63860E-02 1.25577E-03-1.19708E-13
 -1      2193 6.07943E-04-2.98062E-04-2.77840E-16
 -1      2194 6.63664E-04-2.92337E-04-3.82845E-16
 -1      2195 1.46591E-02 2.03573E-03-1.17205E-13
 -1      2196 1.44523E-02 2.24683E-03-1.15422E-13
 -1      2197 1.57868E-02 1.30870E-03-1.23328E-13
 -1      2198 1.65855E-02 1.19055E-03-1.19734E-13
 -1      2199 1.45123E-02 2.22283E-03-1.15243E-13
 -1      2200 1.37469E-02 2.51674E-04-1.25066E-13
 -1      2201 1.59414E-02 1.41609E-03-1.18702E-13
 -1      2202 1.58660E-02 9.09771E-04-1.18221E-13
 -1      2203 1.43772E-02 2.38673E-03-1.13156E-13
 -1      2204 1.54026E-02 7.47148E-04-1.17576E-13
 -1      2205 1.48542E-02 5.07034E-04-1.16458E-13
 -1      2206 1.42145E-02 1.56952E-04-1.14341E-13
 -1      2207 1.40189E-02 8.03108E-05-1.14019E-13
 -1      2208 1.43335E-02 2.71851E-04-1.15413E-13
 -1      2209 1.37125E-02-1.43420E-04-1.11533E-13
 -1      2210 1.30030E-02-2.79111E-04-1.06366E-13
 -1      2211 1.22822E-02 1.54924E-05-1.01856E-13
 -1      2212 1.18323E-02 2.41833E-04-9.98151E-14
 -1      2213 1.14367E-02 4.13245E-04-9.84930E-14
 -1      2214 1.11191E-02 5.26994E-04-9.75362E-14
 -1      2215 1.09189E-02 5.90330E-04-9.70320E-14
 -1      2216 1.08756E-02 6.36631E-04-9.70398E-14
 -1      2217 1.10228E-02 7.02218E-04-9.73744E-14
 -1      2218 1.13353E-02 8.40341E-04-9.82812E-14
 -1      2219 1.17524E-02 1.07162E-03-9.95215E-14
 -1      2220 1.23015E-02 1.46058E-03-1.01310E-13
 -1      2221 1.48776E-02 2.03235E-03-1.15319E-13
 -1      2222 1.32864E-02 2.39869E-03-1.06325E-13
 -1      2223 1.39779E-02 2.60680E-03-1.10837E-13
 -1      2224 1.28586E-02 1.97746E-03-1.03795E-13
 -1      2225 1.33535E-02-2.81819E-04-1.08878E-13
 -1      2226 1.49275E-02 1.85737E-03-1.18136E-13
 -1      2227 1.01669E-03 3.99711E-04-8.41314E-16
 -1      2228 8.72210E-04 3.63337E-04-6.22142E-16
 -1      2229 5.47737E-04-5.52667E-05-4.62697E-16
 -1      2230 5.48780E-04-7.19742E-05-4.58252E-16
 -1      2231 5.50209E-04-8.92879E-05-4.52573E-16
 -1      2232 5.52089E-04-1.07258E-04-4.45187E-16
 -1      2233 6.65241E-04-9.54408E-05-6.17277E-16
 -1      2234 5.46344E-04 8.85134E-06-4.69094E-16
 -1      2235 5.46324E-04-6.97647E-06-4.69067E-16
 -1      2236 5.47105E-04 4.08436E-05-4.65692E-16
 -1      2237 5.46601E-04 2.47783E-05-4.68050E-16
 -1      2238 6.61267E-04 1.99194E-05-6.34218E-16
 -1      2239 5.48943E-04 7.34488E-05-4.57682E-16
 -1      2240 5.47873E-04 5.69644E-05-4.62358E-16
 -1      2241 6.62602E-04 5.77550E-05-6.28634E-16
 -1      2242 5.52353E-04 1.08908E-04-4.44157E-16
 -1      2243 5.50420E-04 9.08392E-05-4.51733E-16
 -1      2244 6.65480E-04 9.72060E-05-6.16776E-16
 -1      2245 5.58255E-04 1.48232E-04-4.22608E-16
 -1      2246 5.54925E-04 1.28012E-04-4.34589E-16
 -1      2247 6.70595E-04 1.39962E-04-5.97260E-16
 -1      2248 5.68609E-04 1.93826E-04-3.89608E-16
 -1      2249 5.62757E-04 1.70110E-04-4.08067E-16
 -1      2250 6.79274E-04 1.87496E-04-5.67065E-16
 -1      2251 9.15258E-04-3.46279E-04-7.48113E-16
 -1      2252 1.05937E-03-3.79582E-04-9.86732E-16
 -1      2253 1.52742E-02 1.72217E-03-1.17445E-13
 -1      2254 1.55004E-02 1.59095E-03-1.18164E-13
 -1      2255 1.30219E-03 4.56636E-04-1.38825E-15
 -1      2256 1.15985E-03 4.30702E-04-1.09645E-15
 -1      2257 1.07186E-03 3.81225E-04-1.01298E-15
 -1      2258 5.88552E-04-2.37904E-04-3.57516E-16
 -1      2259 7.81371E-04-3.04741E-04-5.69708E-16
 -1      2260 8.40794E-04-2.93506E-04-7.02834E-16
 -1      2261 5.79006E-04-2.10105E-04-3.83591E-16
 -1      2262 1.20264E-03-4.07964E-04-1.26036E-15
 -1      2263 1.34547E-03-4.31833E-04-1.56974E-15
 -1      2264 1.11705E-03-3.60392E-04-1.16335E-15
 -1      2265 1.48766E-03-4.52046E-04-1.91423E-15
 -1      2266 1.62945E-03-4.68881E-04-2.29435E-15
 -1      2267 1.40340E-03-4.07152E-04-1.79065E-15
 -1      2268 1.77089E-03-4.83013E-04-2.70919E-15
 -1      2269 1.91209E-03-4.94655E-04-3.15861E-15
 -1      2270 1.68855E-03-4.40381E-04-2.55758E-15
 -1      2271 2.05314E-03-5.04304E-04-3.64232E-15
 -1      2272 2.19408E-03-5.12135E-04-4.16030E-15
 -1      2273 1.97276E-03-4.63432E-04-3.46255E-15
 -1      2274 2.33500E-03-5.18510E-04-4.71197E-15
 -1      2275 2.47591E-03-5.23574E-04-5.29736E-15
 -1      2276 2.25642E-03-4.78951E-04-4.50264E-15
 -1      2277 2.61688E-03-5.27590E-04-5.91598E-15
 -1      2278 2.75790E-03-5.30674E-04-6.56745E-15
 -1      2279 2.53987E-03-4.88980E-04-5.67688E-15
 -1      2280 2.89903E-03-5.33019E-04-7.25133E-15
 -1      2281 3.04023E-03-5.34717E-04-7.96706E-15
 -1      2282 2.82331E-03-4.95078E-04-6.98194E-15
 -1      2283 3.18156E-03-5.35906E-04-8.71403E-15
 -1      2284 3.32298E-03-5.36657E-04-9.49287E-15
 -1      2285 3.10691E-03-4.98421E-04-8.41525E-15
 -1      2286 3.46453E-03-5.37069E-04-1.03033E-14
 -1      2287 3.60618E-03-5.37196E-04-1.11439E-14
 -1      2288 3.39074E-03-4.99887E-04-9.97439E-15
 -1      2289 3.74794E-03-5.37107E-04-1.20153E-14
 -1      2290 3.88980E-03-5.36841E-04-1.29181E-14
 -1      2291 3.67483E-03-5.00115E-04-1.16574E-14
 -1      2292 4.03176E-03-5.36445E-04-1.38504E-14
 -1      2293 4.17381E-03-5.35946E-04-1.48135E-14
 -1      2294 3.95917E-03-4.99565E-04-1.34628E-14
 -1      2295 4.31595E-03-5.35376E-04-1.58071E-14
 -1      2296 4.45816E-03-5.34752E-04-1.68288E-14
 -1      2297 4.24377E-03-4.98558E-04-1.53884E-14
 -1      2298 4.60045E-03-5.34094E-04-1.78800E-14
 -1      2299 4.74281E-03-5.33412E-04-1.89620E-14
 -1      2300 4.52857E-03-4.97305E-04-1.74335E-14
 -1      2301 4.88523E-03-5.32716E-04-2.00723E-14
 -1      2302 5.02770E-03-5.32014E-04-2.12091E-14
 -1      2303 4.81357E-03-4.95940E-04-1.95946E-14
 -1      2304 5.17023E-03-5.31307E-04-2.23754E-14
 -1      2305 5.31280E-03-5.30600E-04-2.35703E-14
 -1      2306 5.09874E-03-4.94537E-04-2.18708E-14
 -1      2307 5.45542E-03-5.29889E-04-2.47921E-14
 -1      2308 5.59808E-03-5.29175E-04-2.60412E-14
 -1      2309 5.38404E-03-4.93125E-04-2.42586E-14
 -1      2310 5.74078E-03-5.28453E-04-2.73178E-14
 -1      2311 5.88351E-03-5.27721E-04-2.86209E-14
 -1      2312 5.66947E-03-4.91702E-04-2.67567E-14
 -1      2313 6.02628E-03-5.26972E-04-2.99491E-14
 -1      2314 6.16909E-03-5.26203E-04-3.13040E-14
 -1      2315 5.95501E-03-4.90244E-04-2.93614E-14
 -1      2316 6.31193E-03-5.25406E-04-3.26853E-14
 -1      2317 6.45482E-03-5.24578E-04-3.40902E-14
 -1      2318 6.24066E-03-4.88713E-04-3.20705E-14
 -1      2319 6.59774E-03-5.23710E-04-3.55203E-14
 -1      2320 6.74070E-03-5.22800E-04-3.69734E-14
 -1      2321 6.52641E-03-4.87063E-04-3.48796E-14
 -1      2322 6.88371E-03-5.21840E-04-3.84489E-14
 -1      2323 7.02677E-03-5.20829E-04-3.99467E-14
 -1      2324 6.81229E-03-4.85247E-04-3.77837E-14
 -1      2325 7.16989E-03-5.19764E-04-4.14673E-14
 -1      2326 7.31308E-03-5.18645E-04-4.30073E-14
 -1      2327 7.09832E-03-4.83226E-04-4.07779E-14
 -1      2328 7.45633E-03-5.17473E-04-4.45664E-14
 -1      2329 7.59966E-03-5.16254E-04-4.61451E-14
 -1      2330 7.38454E-03-4.80982E-04-4.38565E-14
 -1      2331 7.74308E-03-5.14998E-04-4.77419E-14
 -1      2332 7.88660E-03-5.13716E-04-4.93587E-14
 -1      2333 7.67099E-03-4.78526E-04-4.70106E-14
 -1      2334 8.03023E-03-5.12430E-04-5.09923E-14
 -1      2335 8.17399E-03-5.11158E-04-5.26442E-14
 -1      2336 7.95775E-03-4.75923E-04-5.02397E-14
 -1      2337 8.31788E-03-5.09940E-04-5.43117E-14
 -1      2338 8.46192E-03-5.08807E-04-5.59939E-14
 -1      2339 8.24491E-03-4.73310E-04-5.35402E-14
 -1      2340 8.60612E-03-5.07817E-04-5.76911E-14
 -1      2341 8.75049E-03-5.07015E-04-5.94012E-14
 -1      2342 8.53257E-03-4.70926E-04-5.69029E-14
 -1      2343 8.89506E-03-5.06485E-04-6.11219E-14
 -1      2344 9.03982E-03-5.06287E-04-6.28562E-14
 -1      2345 8.82089E-03-4.69140E-04-6.03189E-14
 -1      2346 9.18481E-03-5.06528E-04-6.46011E-14
 -1      2347 9.33000E-03-5.07287E-04-6.63545E-14
 -1      2348 9.11003E-03-4.68474E-04-6.37826E-14
 -1      2349 9.47544E-03-5.08688E-04-6.81189E-14
 -1      2350 9.62106E-03-5.10822E-04-6.98916E-14
 -1      2351 9.40018E-03-4.69618E-04-6.72886E-14
 -1      2352 9.76694E-03-5.13818E-04-7.16726E-14
 -1      2353 9.91296E-03-5.17764E-04-7.34609E-14
 -1      2354 9.69153E-03-4.73402E-04-7.08321E-14
 -1      2355 1.00592E-02-5.22763E-04-7.52557E-14
 -1      2356 1.02055E-02-5.28877E-04-7.70564E-14
 -1      2357 9.98421E-03-4.80725E-04-7.44077E-14
 -1      2358 1.03519E-02-5.36135E-04-7.88615E-14
 -1      2359 1.04982E-02-5.44527E-04-8.06714E-14
 -1      2360 1.02782E-02-4.92376E-04-7.80072E-14
 -1      2361 1.06444E-02-5.53941E-04-8.24852E-14
 -1      2362 1.07902E-02-5.64226E-04-8.43067E-14
 -1      2363 1.05732E-02-5.08720E-04-8.16268E-14
 -1      2364 1.09356E-02-5.75056E-04-8.61308E-14
 -1      2365 1.10802E-02-5.86055E-04-8.79609E-14
 -1      2366 1.08685E-02-5.29220E-04-8.52645E-14
 -1      2367 1.12241E-02-5.96612E-04-8.98014E-14
 -1      2368 1.13667E-02-6.06054E-04-9.16486E-14
 -1      2369 1.11628E-02-5.51788E-04-8.89277E-14
 -1      2370 1.15080E-02-6.13461E-04-9.35025E-14
 -1      2371 1.16477E-02-6.17844E-04-9.53642E-14
 -1      2372 1.14541E-02-5.72101E-04-9.26190E-14
 -1      2373 1.17857E-02-6.18046E-04-9.72333E-14
 -1      2374 1.19220E-02-6.12860E-04-9.91088E-14
 -1      2375 1.17401E-02-5.83159E-04-9.63372E-14
 -1      2376 1.20564E-02-6.01086E-04-1.00990E-13
 -1      2377 1.21893E-02-5.81551E-04-1.02875E-13
 -1      2378 1.20191E-02-5.75583E-04-1.00085E-13
 -1      2379 1.23204E-02-5.53322E-04-1.04764E-13
 -1      2380 1.24508E-02-5.15617E-04-1.06660E-13
 -1      2381 1.22906E-02-5.39096E-04-1.03850E-13
 -1      2382 1.25801E-02-4.68106E-04-1.08558E-13
 -1      2383 1.27096E-02-4.10696E-04-1.10456E-13
 -1      2384 1.25561E-02-4.65219E-04-1.07631E-13
 -1      2385 1.28390E-02-3.43873E-04-1.12360E-13
 -1      2386 1.29696E-02-2.68386E-04-1.14266E-13
 -1      2387 1.28190E-02-3.50282E-04-1.11426E-13
 -1      2388 1.31010E-02-1.85519E-04-1.16174E-13
 -1      2389 1.32342E-02-9.68834E-05-1.18088E-13
 -1      2390 1.30833E-02-1.97359E-04-1.15233E-13
 -1      2391 1.86544E-03 5.25124E-04-2.91618E-15
 -1      2392 1.72519E-03 5.12378E-04-2.48014E-15
 -1      2393 2.14557E-03 5.44399E-04-3.89417E-15
 -1      2394 2.00555E-03 5.35737E-04-3.38782E-15
 -1      2395 1.92473E-03 4.94501E-04-3.21822E-15
 -1      2396 2.43969E-03 5.57701E-04-5.07027E-15
 -1      2397 2.29261E-03 5.51821E-04-4.46321E-15
 -1      2398 2.21392E-03 5.12108E-04-4.26297E-15
 -1      2399 2.72018E-03 5.65632E-04-6.33161E-15
 -1      2400 2.57988E-03 5.62159E-04-5.68404E-15
 -1      2401 2.50295E-03 5.23523E-04-5.45217E-15
 -1      2402 3.00124E-03 5.70313E-04-7.72714E-15
 -1      2403 2.86064E-03 5.68317E-04-7.01262E-15
 -1      2404 2.78509E-03 5.30402E-04-6.74939E-15
 -1      2405 3.28293E-03 5.72745E-04-9.25353E-15
 -1      2406 3.14201E-03 5.71763E-04-8.47392E-15
 -1      2407 3.06756E-03 5.34332E-04-8.17902E-15
 -1      2408 3.56527E-03 5.73666E-04-1.09080E-14
 -1      2409 3.42403E-03 5.73359E-04-1.00650E-14
 -1      2410 3.35044E-03 5.36241E-04-9.73801E-15
 -1      2411 3.84821E-03 5.73612E-04-1.26871E-14
 -1      2412 3.70667E-03 5.73736E-04-1.17818E-14
 -1      2413 3.63374E-03 5.36807E-04-1.14236E-14
 -1      2414 4.13168E-03 5.72960E-04-1.45896E-14
 -1      2415 3.98989E-03 5.73343E-04-1.36236E-14
 -1      2416 3.91746E-03 5.36520E-04-1.32336E-14
 -1      2417 4.41561E-03 5.71969E-04-1.66114E-14
 -1      2418 4.27360E-03 5.72495E-04-1.55848E-14
 -1      2419 4.20154E-03 5.35723E-04-1.51638E-14
 -1      2420 4.69994E-03 5.70804E-04-1.87528E-14
 -1      2421 4.55773E-03 5.71400E-04-1.76682E-14
 -1      2422 4.48596E-03 5.34646E-04-1.72137E-14
 -1      2423 4.99882E-03 5.69502E-04-2.11252E-14
 -1      2424 4.84934E-03 5.70158E-04-1.99225E-14
 -1      2425 4.77778E-03 5.33403E-04-1.94366E-14
 -1      2426 5.28375E-03 5.68234E-04-2.35043E-14
 -1      2427 5.14126E-03 5.68869E-04-2.23000E-14
 -1      2428 5.06984E-03 5.32106E-04-2.17806E-14
 -1      2429 5.56890E-03 5.66947E-04-2.59990E-14
 -1      2430 5.42630E-03 5.67593E-04-2.47379E-14
 -1      2431 5.35498E-03 5.30825E-04-2.41857E-14
 -1      2432 5.85424E-03 5.65620E-04-2.86089E-14
 -1      2433 5.71155E-03 5.66290E-04-2.72891E-14
 -1      2434 5.64030E-03 5.29525E-04-2.67061E-14
 -1      2435 6.13976E-03 5.64209E-04-3.13269E-14
 -1      2436 5.99698E-03 5.64927E-04-2.99546E-14
 -1      2437 5.92577E-03 5.28178E-04-2.93392E-14
 -1      2438 6.42546E-03 5.62654E-04-3.41478E-14
 -1      2439 6.28259E-03 5.63452E-04-3.27250E-14
 -1      2440 6.21138E-03 5.26736E-04-3.20819E-14
 -1      2441 6.71136E-03 5.60879E-04-3.70632E-14
 -1      2442 6.56838E-03 5.61797E-04-3.55943E-14
 -1      2443 6.49715E-03 5.25132E-04-3.49225E-14
 -1      2444 6.99751E-03 5.58795E-04-4.00675E-14
 -1      2445 6.85440E-03 5.59879E-04-3.85549E-14
 -1      2446 6.78310E-03 5.23288E-04-3.78553E-14
 -1      2447 7.28397E-03 5.56303E-04-4.31572E-14
 -1      2448 7.14069E-03 5.57603E-04-4.16021E-14
 -1      2449 7.06926E-03 5.21111E-04-4.08771E-14
 -1      2450 7.58521E-03 5.53126E-04-4.64833E-14
 -1      2451 7.43452E-03 5.54790E-04-4.48102E-14
 -1      2452 7.36285E-03 5.18428E-04-4.40581E-14
 -1      2453 7.87267E-03 5.49443E-04-4.97259E-14
 -1      2454 7.72885E-03 5.51368E-04-4.80960E-14
 -1      2455 7.65681E-03 5.15170E-04-4.73205E-14
 -1      2456 8.16089E-03 5.44996E-04-5.30348E-14
 -1      2457 8.01667E-03 5.47316E-04-5.13719E-14
 -1      2458 7.94405E-03 5.11317E-04-5.05753E-14
 -1      2459 8.45011E-03 5.39671E-04-5.64049E-14
 -1      2460 8.30534E-03 5.42442E-04-5.47118E-14
 -1      2461 8.23186E-03 5.06682E-04-5.38951E-14
 -1      2462 8.74063E-03 5.33384E-04-5.98347E-14
 -1      2463 8.59516E-03 5.36641E-04-5.81135E-14
 -1      2464 8.52038E-03 5.01170E-04-5.72772E-14
 -1      2465 9.03284E-03 5.26126E-04-6.33153E-14
 -1      2466 8.88646E-03 5.29861E-04-6.15688E-14
 -1      2467 8.80974E-03 4.94729E-04-6.07149E-14
 -1      2468 9.32720E-03 5.18057E-04-6.68414E-14
 -1      2469 9.17966E-03 5.22163E-04-6.50738E-14
 -1      2470 9.10007E-03 4.87415E-04-6.42037E-14
 -1      2471 9.62423E-03 5.09681E-04-7.04069E-14
 -1      2472 9.47525E-03 5.13850E-04-6.86201E-14
 -1      2473 9.39142E-03 4.79496E-04-6.77380E-14
 -1      2474 9.92447E-03 5.02193E-04-7.40031E-14
 -1      2475 9.77377E-03 5.05721E-04-7.22004E-14
 -1      2476 9.68371E-03 4.71658E-04-7.13072E-14
 -1      2477 1.02438E-02 4.98101E-04-7.78064E-14
 -1      2478 1.00833E-02 4.99432E-04-7.59020E-14
 -1      2479 9.98394E-03 4.65260E-04-7.49957E-14
 -1      2480 1.05523E-02 5.03147E-04-8.14512E-14
 -1      2481 1.03972E-02 4.99132E-04-7.96261E-14
 -1      2482 1.02842E-02 4.63723E-04-7.87122E-14
 -1      2483 1.08663E-02 5.26897E-04-8.51092E-14
 -1      2484 1.07082E-02 5.11922E-04-8.32784E-14
 -1      2485 1.05764E-02 4.72649E-04-8.23569E-14
 -1      2486 1.11890E-02 5.87015E-04-8.87772E-14
 -1      2487 1.10260E-02 5.50918E-04-8.69420E-14
 -1      2488 1.08680E-02 5.02008E-04-8.60148E-14
 -1      2489 1.15294E-02 7.13447E-04-9.24545E-14
 -1      2490 1.13562E-02 6.39093E-04-9.06156E-14
 -1      2491 1.11629E-02 5.68861E-04-8.96864E-14
 -1      2492 1.19075E-02 9.52097E-04-9.61184E-14
 -1      2493 1.17132E-02 8.13685E-04-9.42897E-14
 -1      2494 1.14746E-02 7.02172E-04-9.33593E-14
 -1      2495 1.23890E-02 1.37878E-03-9.97733E-14
 -1      2496 1.21600E-02 1.14757E-03-9.79473E-14
 -1      2497 1.33640E-02 2.44113E-03-1.06485E-13
 -1      2498 1.31115E-02 2.18844E-03-1.04685E-13
 -1      2499 1.38760E-02 2.64820E-03-1.10260E-13
 -1      2500 1.36729E-02 2.63488E-03-1.08738E-13
 -1      2501 1.36225E-02 1.69879E-04-1.23346E-13
 -1      2502 1.66507E-02 1.18501E-03-1.22854E-13
 -1      2503 1.66639E-02 1.18447E-03-1.22820E-13
 -1      2504 1.56477E-02 1.41238E-03-1.21771E-13
 -1      2505 1.63199E-02 1.22228E-03-1.22557E-13
 -1      2506 1.61234E-02 1.25999E-03-1.22515E-13
 -1      2507 1.65990E-02 1.18539E-03-1.20849E-13
 -1      2508 1.66072E-02 1.17598E-03-1.20725E-13
 -1      2509 1.64015E-02 1.17671E-03-1.22930E-13
 -1      2510 1.65587E-02 1.18896E-03-1.22893E-13
 -1      2511 1.65761E-02 1.17588E-03-1.21877E-13
 -1      2512 1.59105E-02 1.10275E-03-1.22952E-13
 -1      2513 1.61798E-02 1.14919E-03-1.22914E-13
 -1      2514 1.53092E-02 9.49172E-04-1.22812E-13
 -1      2515 1.56000E-02 1.02534E-03-1.22781E-13
 -1      2516 1.48070E-02 7.84346E-04-1.22755E-13
 -1      2517 1.50379E-02 8.59571E-04-1.22735E-13
 -1      2518 1.44371E-02 6.45261E-04-1.22792E-13
 -1      2519 1.46086E-02 7.11374E-04-1.22774E-13
 -1      2520 1.45676E-02 6.38723E-04-1.21380E-13
 -1      2521 1.41669E-02 5.24297E-04-1.22814E-13
 -1      2522 1.42917E-02 5.82465E-04-1.22805E-13
 -1      2523 1.42373E-02 5.06838E-04-1.21404E-13
 -1      2524 1.39676E-02 4.15474E-04-1.22826E-13
 -1      2525 1.40602E-02 4.68575E-04-1.22822E-13
 -1      2526 1.39969E-02 3.97820E-04-1.21418E-13
 -1      2527 1.38136E-02 3.14277E-04-1.22825E-13
 -1      2528 1.38863E-02 3.64102E-04-1.22825E-13
 -1      2529 1.38169E-02 3.01094E-04-1.21421E-13
 -1      2530 1.36839E-02 2.18449E-04-1.22816E-13
 -1      2531 1.37468E-02 2.65811E-04-1.22822E-13
 -1      2532 1.36740E-02 2.10213E-04-1.21414E-13
 -1      2533 1.57680E-02 1.45677E-03-1.19041E-13
 -1      2534 1.60407E-02 1.34356E-03-1.19894E-13
 -1      2535 1.58465E-03 4.96952E-04-2.08039E-15
 -1      2536 1.44369E-03 4.78632E-04-1.71613E-15
 -1      2537 1.64197E-03 4.69091E-04-2.34045E-15
 -1      2538 1.46363E-02 2.14834E-03-1.15283E-13
 -1      2539 1.44484E-02 2.30209E-03-1.14181E-13
 -1      2540 1.59674E-02 9.95155E-04-1.19165E-13
 -1      2541 1.57726E-02 9.35445E-04-1.18910E-13
 -1      2542 1.23852E-02-4.86828E-05-1.01926E-13
 -1      2543 1.21614E-02 7.11268E-05-1.00666E-13
 -1      2544 1.40466E-02 2.58605E-03-1.11513E-13
 -1      2545 1.61859E-02 1.06030E-03-1.19514E-13
 -1      2546 1.60800E-02 1.03035E-03-1.19339E-13
 -1      2547 1.59979E-02 1.04041E-03-1.20029E-13
 -1      2548 5.46540E-04-2.28867E-05-4.67833E-16
 -1      2549 5.47001E-04-3.89181E-05-4.65746E-16
 -1      2550 6.62452E-04-5.57847E-05-6.28593E-16
 -1      2551 6.61214E-04-1.76951E-05-6.34123E-16
 -1      2552 1.33761E-02-2.69983E-04-1.09424E-13
 -1      2553 1.32300E-02-3.00685E-04-1.08184E-13
 -1      2554 1.12760E-02 7.60203E-04-9.72104E-14
 -1      2555 1.14579E-02 8.49687E-04-9.78783E-14
 -1      2556 1.09627E-02 6.45997E-04-9.63750E-14
 -1      2557 1.10808E-02 6.80187E-04-9.66139E-14
 -1      2558 1.08598E-02 6.01768E-04-9.59475E-14
 -1      2559 1.08855E-02 6.14231E-04-9.60428E-14
 -1      2560 1.09387E-02 5.68755E-04-9.60325E-14
 -1      2561 1.08780E-02 5.84271E-04-9.59434E-14
 -1      2562 1.11758E-02 5.02208E-04-9.66760E-14
 -1      2563 1.10544E-02 5.34709E-04-9.62599E-14
 -1      2564 1.14992E-02 3.85251E-04-9.77543E-14
 -1      2565 1.13272E-02 4.51255E-04-9.72142E-14
 -1      2566 1.12272E-02 4.62542E-04-9.59379E-14
 -1      2567 1.19065E-02 1.97579E-04-9.93111E-14
 -1      2568 1.17181E-02 2.89430E-04-9.85299E-14
 -1      2569 1.27355E-02-2.14750E-04-1.04281E-13
 -1      2570 1.25975E-02-1.52008E-04-1.03292E-13
 -1      2571 1.30717E-02-3.01772E-04-1.06907E-13
 -1      2572 1.29143E-02-2.72297E-04-1.05633E-13
 -1      2573 1.31158E-02-3.06162E-04-1.07450E-13
 -1      2574 1.37113E-02-9.92934E-05-1.12253E-13
 -1      2575 1.35416E-02-2.02572E-04-1.10836E-13
 -1      2576 1.49842E-02 6.36248E-04-1.17679E-13
 -1      2577 1.47153E-02 4.98254E-04-1.16952E-13
 -1      2578 7.57958E-04 3.34142E-04-4.65936E-16
 -1      2579 6.11529E-04 2.84793E-04-3.12318E-16
 -1      2580 5.84799E-04 2.58023E-04-3.18999E-16
 -1      2581 8.13780E-04 3.22806E-04-5.95796E-16
 -1      2582 1.28967E-02 1.95693E-03-1.03416E-13
 -1      2583 1.55357E-02 8.51879E-04-1.18521E-13
 -1      2584 1.52908E-02 7.57357E-04-1.18129E-13
 -1      2585 1.56619E-02 9.33455E-04-1.19467E-13
 -1      2586 1.63354E-02 1.24749E-03-1.20555E-13
 -1      2587 1.64887E-02 1.21468E-03-1.20712E-13
 -1      2588 1.26417E-02 1.65429E-03-1.01604E-13
 -1      2589 1.23657E-02 1.43469E-03-1.00690E-13
 -1      2590 1.34074E-02-2.40104E-04-1.10141E-13
 -1      2591 6.70213E-04-1.37898E-04-5.98236E-16
 -1      2592 5.54588E-04-1.26158E-04-4.35863E-16
 -1      2593 5.57768E-04-1.46140E-04-4.24045E-16
 -1      2594 1.42668E-02 2.44712E-03-1.13118E-13
 -1      2595 5.72290E-04 2.27825E-04-3.48910E-16
 -1      2596 1.56342E-02 1.49701E-03-1.19350E-13
 -1      2597 5.71852E-04-1.85129E-04-4.04489E-16
 -1      2598 1.65910E-02 1.19045E-03-1.21701E-13
 -1      2599 1.65868E-02 1.18454E-03-1.22676E-13
 -1      2600 1.64642E-02 1.19937E-03-1.22639E-13
 -1      2601 1.18726E-02 9.69531E-04-9.70258E-14
 -1      2602 1.51342E-02 7.35663E-04-1.18627E-13
 -1      2603 1.20663E-02 1.19091E-03-9.94726E-14
 -1      2604 1.35385E-02 2.57546E-03-1.07741E-13
 -1      2605 1.34589E-02 5.76149E-05-1.21345E-13
 -1      2606 1.35914E-02 1.51228E-04-1.22223E-13
 -1      2607 1.35186E-02 1.00104E-04-1.20816E-13
 -1      2608 1.33387E-02-2.52023E-05-1.19630E-13
 -1      2609 1.62234E-02 1.13369E-03-1.21897E-13
 -1      2610 1.57721E-02 1.39621E-03-1.21041E-13
 -1      2611 1.52580E-02 1.65143E-03-1.19205E-13
 -1      2612 1.63062E-02 1.24245E-03-1.21481E-13
 -1      2613 1.65236E-02 1.15504E-03-1.20758E-13
 -1      2614 1.56437E-02 1.00470E-03-1.21705E-13
 -1      2615 1.50329E-02 8.11240E-04-1.21449E-13
 -1      2616 1.60144E-02 1.32834E-03-1.20816E-13
 -1      2617 1.61613E-02 1.29304E-03-1.20478E-13
 -1      2618 1.17950E-02 1.01570E-03-9.85836E-14
 -1      2619 1.18690E-02 1.01253E-03-9.79628E-14
 -1      2620 1.16401E-02 8.34490E-04-9.61325E-14
 -1      2621 1.15899E-02 9.01392E-04-9.80092E-14
 -1      2622 1.35791E-03 4.32614E-04-1.60517E-15
 -1      2623 1.48924E-02 1.95489E-03-1.16383E-13
 -1      2624 1.20150E-02 1.20958E-04-9.93791E-14
 -1      2625 1.28144E-02-2.56981E-04-1.04819E-13
 -1      2626 1.15737E-02 3.29676E-04-9.72507E-14
 -1      2627 6.89575E-04 2.51166E-04-5.00820E-16
 -1      2628 1.44763E-02 3.98014E-04-1.16635E-13
 -1      2629 1.42747E-02 3.02869E-04-1.16317E-13
 -1      2630 1.46179E-02 5.14517E-04-1.17861E-13
 -1      2631 1.09725E-02 5.35449E-04-9.51721E-14
 -1      2632 1.08510E-02 5.69903E-04-9.49472E-14
 -1      2633 1.09117E-02 5.99463E-04-9.52836E-14
 -1      2634 1.24547E-02-1.02870E-04-1.02099E-13
 -1      2635 1.11695E-02 6.85480E-04-9.62118E-14
 -1      2636 1.12621E-02 6.95447E-04-9.58090E-14
 -1      2637 1.10794E-02 6.30636E-04-9.52128E-14
 -1      2638 1.33222E-02-3.76206E-05-1.18681E-13
 -1      2639 1.15018E-02 8.16618E-04-9.69391E-14
 -1      2640 1.49144E-02 1.90197E-03-1.17337E-13
 -1      2641 1.51595E-02 1.77640E-03-1.17375E-13
 -1      2642 1.38240E-02-1.25870E-05-1.13326E-13
 -1      2643 1.36610E-02-8.74539E-05-1.12630E-13
 -1      2644 1.39356E-02 8.21267E-05-1.14401E-13
 -1      2645 7.80129E-04 7.72973E-05-8.16919E-16
 -1      2646 7.78861E-04 5.54451E-05-8.22205E-16
 -1      2647 7.78009E-04 3.35434E-05-8.25810E-16
 -1      2648 7.77584E-04 1.18900E-05-8.27558E-16
 -1      2649 8.96408E-04 4.96574E-05-1.04280E-15
 -1      2650 7.91517E-04 1.73064E-04-7.73375E-16
 -1      2651 7.87498E-04 1.47656E-04-7.88418E-16
 -1      2652 8.03411E-04 2.28253E-04-7.33138E-16
 -1      2653 7.96773E-04 1.99865E-04-7.55323E-16
 -1      2654 9.14821E-04 2.07752E-04-9.72109E-16
 -1      2655 1.03372E-03-3.14139E-04-1.06488E-15
 -1      2656 1.17697E-03-3.40254E-04-1.34772E-15
 -1      2657 1.12987E-03 3.61859E-04-1.19228E-15
 -1      2658 9.86264E-04 3.32799E-04-9.27115E-16
 -1      2659 2.56704E-03 4.88805E-04-5.83667E-15
 -1      2660 2.42528E-03 4.84525E-04-5.22027E-15
 -1      2661 1.32019E-03-3.62667E-04-1.66550E-15
 -1      2662 1.46342E-03-3.81642E-04-2.01808E-15
 -1      2663 1.23841E-03-3.18986E-04-1.53980E-15
 -1      2664 1.60647E-03-3.97722E-04-2.40519E-15
 -1      2665 1.74940E-03-4.11132E-04-2.82666E-15
 -1      2666 1.52499E-03-3.55316E-04-2.25212E-15
 -1      2667 1.89218E-03-4.22341E-04-3.28184E-15
 -1      2668 2.03484E-03-4.31539E-04-3.77069E-15
 -1      2669 1.81168E-03-3.81218E-04-3.10099E-15
 -1      2670 2.17740E-03-4.39101E-04-4.29316E-15
 -1      2671 2.31987E-03-4.45181E-04-4.84893E-15
 -1      2672 2.09814E-03-3.99081E-04-4.08367E-15
 -1      2673 2.46229E-03-4.50068E-04-5.43779E-15
 -1      2674 2.60466E-03-4.53886E-04-6.05921E-15
 -1      2675 2.38432E-03-4.10928E-04-5.19897E-15
 -1      2676 2.74702E-03-4.56852E-04-6.71368E-15
 -1      2677 2.88936E-03-4.59064E-04-7.39964E-15
 -1      2678 2.67026E-03-4.18384E-04-6.44530E-15
 -1      2679 3.03172E-03-4.60683E-04-8.11662E-15
 -1      2680 3.17407E-03-4.61783E-04-8.86536E-15
 -1      2681 2.95604E-03-4.22712E-04-7.81925E-15
 -1      2682 3.31645E-03-4.62484E-04-9.64607E-15
 -1      2683 3.45885E-03-4.62841E-04-1.04580E-14
 -1      2684 3.24171E-03-4.24871E-04-9.31899E-15
 -1      2685 3.60128E-03-4.62937E-04-1.12998E-14
 -1      2686 3.74373E-03-4.62815E-04-1.21725E-14
 -1      2687 3.52732E-03-4.25575E-04-1.09430E-14
 -1      2688 3.88621E-03-4.62533E-04-1.30764E-14
 -1      2689 4.02872E-03-4.62120E-04-1.40092E-14
 -1      2690 3.81290E-03-4.25343E-04-1.26900E-14
 -1      2691 4.17127E-03-4.61616E-04-1.49723E-14
 -1      2692 4.31384E-03-4.61039E-04-1.59656E-14
 -1      2693 4.09847E-03-4.24541E-04-1.45575E-14
 -1      2694 4.45644E-03-4.60417E-04-1.69876E-14
 -1      2695 4.59906E-03-4.59761E-04-1.80383E-14
 -1      2696 4.38405E-03-4.23421E-04-1.65430E-14
 -1      2697 4.74171E-03-4.59085E-04-1.91197E-14
 -1      2698 4.88438E-03-4.58398E-04-2.02293E-14
 -1      2699 4.66964E-03-4.22142E-04-1.86461E-14
 -1      2700 5.02708E-03-4.57705E-04-2.13674E-14
 -1      2701 5.16979E-03-4.57010E-04-2.25331E-14
 -1      2702 4.95525E-03-4.20802E-04-2.08646E-14
 -1      2703 5.31253E-03-4.56314E-04-2.37270E-14
 -1      2704 5.45528E-03-4.55617E-04-2.49487E-14
 -1      2705 5.24088E-03-4.19447E-04-2.31967E-14
 -1      2706 5.59806E-03-4.54916E-04-2.61969E-14
 -1      2707 5.74084E-03-4.54210E-04-2.74737E-14
 -1      2708 5.52653E-03-4.18089E-04-2.56402E-14
 -1      2709 5.88365E-03-4.53493E-04-2.87765E-14
 -1      2710 6.02647E-03-4.52762E-04-3.01039E-14
 -1      2711 5.81220E-03-4.16712E-04-2.81917E-14
 -1      2712 6.16931E-03-4.52009E-04-3.14579E-14
 -1      2713 6.31216E-03-4.51230E-04-3.28378E-14
 -1      2714 6.09789E-03-4.15284E-04-3.08482E-14
 -1      2715 6.45503E-03-4.50417E-04-3.42415E-14
 -1      2716 6.59792E-03-4.49566E-04-3.56690E-14
 -1      2717 6.38361E-03-4.13763E-04-3.36052E-14
 -1      2718 6.74083E-03-4.48670E-04-3.71206E-14
 -1      2719 6.88377E-03-4.47724E-04-3.85944E-14
 -1      2720 6.66935E-03-4.12098E-04-3.64589E-14
 -1      2721 7.02673E-03-4.46724E-04-4.00903E-14
 -1      2722 7.16972E-03-4.45666E-04-4.16087E-14
 -1      2723 6.95512E-03-4.10244E-04-3.94064E-14
 -1      2724 7.31274E-03-4.44550E-04-4.31466E-14
 -1      2725 7.45580E-03-4.43374E-04-4.47040E-14
 -1      2726 7.24095E-03-4.08161E-04-4.24383E-14
 -1      2727 7.59891E-03-4.42143E-04-4.62814E-14
 -1      2728 7.74207E-03-4.40862E-04-4.78770E-14
 -1      2729 7.52686E-03-4.05832E-04-4.55528E-14
 -1      2730 7.88529E-03-4.39543E-04-4.94911E-14
 -1      2731 8.02860E-03-4.38197E-04-5.11221E-14
 -1      2732 7.81289E-03-4.03270E-04-4.87439E-14
 -1      2733 8.17198E-03-4.36849E-04-5.27715E-14
 -1      2734 8.31547E-03-4.35521E-04-5.44370E-14
 -1      2735 8.09913E-03-4.00542E-04-5.20049E-14
 -1      2736 8.45909E-03-4.34252E-04-5.61171E-14
 -1      2737 8.60284E-03-4.33078E-04-5.78109E-14
 -1      2738 8.38569E-03-3.97786E-04-5.53326E-14
 -1      2739 8.74678E-03-4.32056E-04-5.95174E-14
 -1      2740 8.89090E-03-4.31241E-04-6.12358E-14
 -1      2741 8.67274E-03-3.95242E-04-5.87173E-14
 -1      2742 9.03527E-03-4.30711E-04-6.29672E-14
 -1      2743 9.17991E-03-4.30543E-04-6.47093E-14
 -1      2744 8.96055E-03-3.93279E-04-6.21529E-14
 -1      2745 9.32487E-03-4.30833E-04-6.64612E-14
 -1      2746 9.47016E-03-4.31685E-04-6.82222E-14
 -1      2747 9.24947E-03-3.92426E-04-6.56343E-14
 -1      2748 9.61589E-03-4.33205E-04-6.99934E-14
 -1      2749 9.76203E-03-4.35521E-04-7.17718E-14
 -1      2750 9.53998E-03-3.93391E-04-6.91552E-14
 -1      2751 9.90872E-03-4.38735E-04-7.35586E-14
 -1      2752 1.00559E-02-4.42986E-04-7.53529E-14
 -1      2753 9.83262E-03-3.97052E-04-7.27105E-14
 -1      2754 1.02036E-02-4.48342E-04-7.71514E-14
 -1      2755 1.03519E-02-4.54924E-04-7.89569E-14
 -1      2756 1.01280E-02-4.04403E-04-7.62964E-14
 -1      2757 1.05007E-02-4.62718E-04-8.07670E-14
 -1      2758 1.06499E-02-4.71763E-04-8.25817E-14
 -1      2759 1.04265E-02-4.16390E-04-7.99064E-14
 -1      2760 1.07996E-02-4.81904E-04-8.44007E-14
 -1      2761 1.09493E-02-4.92995E-04-8.62239E-14
 -1      2762 1.07283E-02-4.33588E-04-8.35364E-14
 -1      2763 1.10992E-02-5.04665E-04-8.80549E-14
 -1      2764 1.12486E-02-5.16447E-04-8.98937E-14
 -1      2765 1.10325E-02-4.55618E-04-8.71841E-14
 -1      2766 1.13975E-02-5.27682E-04-9.17379E-14
 -1      2767 1.15453E-02-5.37452E-04-9.35867E-14
 -1      2768 1.13375E-02-4.80288E-04-9.08579E-14
 -1      2769 1.16919E-02-5.44786E-04-9.54452E-14
 -1      2770 1.18367E-02-5.48288E-04-9.73091E-14
 -1      2771 1.16401E-02-5.02549E-04-9.45539E-14
 -1      2772 1.19795E-02-5.46753E-04-9.91798E-14
 -1      2773 1.21203E-02-5.38508E-04-1.01056E-13
 -1      2774 1.19368E-02-5.13723E-04-9.82782E-14
 -1      2775 1.22588E-02-5.22375E-04-1.02935E-13
 -1      2776 1.23956E-02-4.96832E-04-1.04820E-13
 -1      2777 1.22248E-02-5.01944E-04-1.02024E-13
 -1      2778 1.25304E-02-4.61121E-04-1.06709E-13
 -1      2779 1.26644E-02-4.14452E-04-1.08601E-13
 -1      2780 1.25033E-02-4.54616E-04-1.05788E-13
 -1      2781 1.27975E-02-3.56839E-04-1.10495E-13
 -1      2782 1.29308E-02-2.88556E-04-1.12392E-13
 -1      2783 1.27752E-02-3.62649E-04-1.09566E-13
 -1      2784 1.30643E-02-2.10465E-04-1.14294E-13
 -1      2785 1.31992E-02-1.23967E-04-1.16198E-13
 -1      2786 1.30452E-02-2.24401E-04-1.13356E-13
 -1      2787 2.27640E-03 4.78790E-04-4.60894E-15
 -1      2788 2.12748E-03 4.71629E-04-4.03570E-15
 -1      2789 2.33993E-03 4.44967E-04-4.95924E-15
 -1      2790 1.60320E-02 1.07978E-03-1.21040E-13
 -1      2791 1.62861E-02 1.12859E-03-1.21060E-13
 -1      2792 1.98555E-03 4.63155E-04-3.52499E-15
 -1      2793 1.84350E-03 4.52896E-04-3.04806E-15
 -1      2794 2.04769E-03 4.31226E-04-3.83588E-15
 -1      2795 2.85060E-03 4.94721E-04-7.16910E-15
 -1      2796 2.70882E-03 4.92169E-04-6.48629E-15
 -1      2797 2.63194E-03 4.53655E-04-6.22392E-15
 -1      2798 3.13431E-03 4.97983E-04-8.63219E-15
 -1      2799 2.99244E-03 4.96632E-04-7.88451E-15
 -1      2800 2.91673E-03 4.58677E-04-7.59063E-15
 -1      2801 3.41824E-03 4.99440E-04-1.02240E-14
 -1      2802 3.27625E-03 4.98899E-04-9.41250E-15
 -1      2803 3.20152E-03 4.61335E-04-9.08746E-15
 -1      2804 3.70241E-03 4.99713E-04-1.19405E-14
 -1      2805 3.56030E-03 4.99696E-04-1.10668E-14
 -1      2806 3.48638E-03 4.62398E-04-1.07108E-14
 -1      2807 3.98684E-03 4.99245E-04-1.37803E-14
 -1      2808 3.84460E-03 4.99552E-04-1.28450E-14
 -1      2809 3.77133E-03 4.62428E-04-1.24583E-14
 -1      2810 4.27149E-03 4.98345E-04-1.57378E-14
 -1      2811 4.12914E-03 4.98836E-04-1.47443E-14
 -1      2812 4.05639E-03 4.61822E-04-1.43260E-14
 -1      2813 4.55635E-03 4.97216E-04-1.78156E-14
 -1      2814 4.41390E-03 4.97801E-04-1.67618E-14
 -1      2815 4.34155E-03 4.60854E-04-1.63129E-14
 -1      2816 4.85565E-03 4.95922E-04-2.01212E-14
 -1      2817 4.70598E-03 4.96577E-04-1.89529E-14
 -1      2818 4.63395E-03 4.59672E-04-1.84711E-14
 -1      2819 5.14086E-03 4.94654E-04-2.24362E-14
 -1      2820 4.99824E-03 4.95290E-04-2.12637E-14
 -1      2821 4.92645E-03 4.58410E-04-2.07504E-14
 -1      2822 5.42621E-03 4.93375E-04-2.48669E-14
 -1      2823 5.28352E-03 4.94016E-04-2.36369E-14
 -1      2824 5.21190E-03 4.57158E-04-2.30916E-14
 -1      2825 5.71167E-03 4.92076E-04-2.74128E-14
 -1      2826 5.56892E-03 4.92729E-04-2.61261E-14
 -1      2827 5.49743E-03 4.55896E-04-2.55484E-14
 -1      2828 5.99725E-03 4.90721E-04-3.00704E-14
 -1      2829 5.85445E-03 4.91407E-04-2.87279E-14
 -1      2830 5.78303E-03 4.54609E-04-2.81199E-14
 -1      2831 6.28294E-03 4.89258E-04-3.28344E-14
 -1      2832 6.14008E-03 4.90006E-04-3.14395E-14
 -1      2833 6.06869E-03 4.53258E-04-3.08019E-14
 -1      2834 6.56875E-03 4.87617E-04-3.56950E-14
 -1      2835 6.42583E-03 4.88463E-04-3.42532E-14
 -1      2836 6.35443E-03 4.51786E-04-3.35869E-14
 -1      2837 6.85470E-03 4.85719E-04-3.86462E-14
 -1      2838 6.71170E-03 4.86704E-04-3.71598E-14
 -1      2839 6.64025E-03 4.50123E-04-3.64670E-14
 -1      2840 7.14081E-03 4.83470E-04-4.16826E-14
 -1      2841 6.99773E-03 4.84642E-04-4.01538E-14
 -1      2842 6.92615E-03 4.48190E-04-3.94354E-14
 -1      2843 7.44144E-03 4.80622E-04-4.49599E-14
 -1      2844 7.29109E-03 4.82113E-04-4.33116E-14
 -1      2845 7.21930E-03 4.45833E-04-4.25666E-14
 -1      2846 7.72800E-03 4.77336E-04-4.81561E-14
 -1      2847 7.58468E-03 4.79053E-04-4.65482E-14
 -1      2848 7.51256E-03 4.42996E-04-4.57814E-14
 -1      2849 8.01485E-03 4.73382E-04-5.14232E-14
 -1      2850 7.87138E-03 4.75446E-04-4.97807E-14
 -1      2851 7.79876E-03 4.39668E-04-4.89903E-14
 -1      2852 8.30201E-03 4.68668E-04-5.47551E-14
 -1      2853 8.15838E-03 4.71123E-04-5.30823E-14
 -1      2854 8.08504E-03 4.35702E-04-5.22702E-14
 -1      2855 8.58950E-03 4.63134E-04-5.81491E-14
 -1      2856 8.44570E-03 4.66004E-04-5.64446E-14
 -1      2857 8.37131E-03 4.31039E-04-5.56158E-14
 -1      2858 8.87724E-03 4.56790E-04-6.15935E-14
 -1      2859 8.73332E-03 4.60059E-04-5.98640E-14
 -1      2860 8.65743E-03 4.25675E-04-5.90171E-14
 -1      2861 9.16506E-03 4.49792E-04-6.50916E-14
 -1      2862 9.02112E-03 4.53361E-04-6.33376E-14
 -1      2863 8.94311E-03 4.19713E-04-6.24727E-14
 -1      2864 9.45255E-03 4.42568E-04-6.86300E-14
 -1      2865 9.30882E-03 4.46184E-04-6.68558E-14
 -1      2866 9.22783E-03 4.13447E-04-6.59768E-14
 -1      2867 9.73899E-03 4.36046E-04-7.22033E-14
 -1      2868 9.59587E-03 4.39173E-04-7.04125E-14
 -1      2869 9.51069E-03 4.07514E-04-6.95203E-14
 -1      2870 1.00373E-02 4.31941E-04-7.59874E-14
 -1      2871 9.88842E-03 4.33540E-04-7.40921E-14
 -1      2872 9.79724E-03 4.03043E-04-7.31884E-14
 -1      2873 1.03172E-02 4.34152E-04-7.96157E-14
 -1      2874 1.01777E-02 4.32134E-04-7.77989E-14
 -1      2875 1.00781E-02 4.02533E-04-7.68862E-14
 -1      2876 1.05909E-02 4.48253E-04-8.32615E-14
 -1      2877 1.04547E-02 4.39426E-04-8.14369E-14
 -1      2878 1.03436E-02 4.09595E-04-8.05175E-14
 -1      2879 1.08575E-02 4.83923E-04-8.69222E-14
 -1      2880 1.07246E-02 4.62771E-04-8.50905E-14
 -1      2881 1.05971E-02 4.29845E-04-8.41676E-14
 -1      2882 1.11202E-02 5.56437E-04-9.05925E-14
 -1      2883 1.09883E-02 5.14456E-04-8.87555E-14
 -1      2884 1.08365E-02 4.71714E-04-8.78272E-14
 -1      2885 1.14342E-02 7.06833E-04-9.42810E-14
 -1      2886 1.12874E-02 6.24694E-04-9.24466E-14
 -1      2887 1.10928E-02 5.55884E-04-9.15154E-14
 -1      2888 1.14227E-02 7.25689E-04-9.52208E-14
 -1      2889 1.53677E-02 8.82891E-04-1.20300E-13
 -1      2890 1.50951E-02 7.73727E-04-1.19852E-13
 -1      2891 1.34158E-02-2.11464E-04-1.10746E-13
 -1      2892 1.32782E-02-2.72193E-04-1.09332E-13
 -1      2893 1.57122E-02 9.85990E-04-1.20477E-13
 -1      2894 1.48053E-02 6.68278E-04-1.19766E-13
 -1      2895 1.43131E-02 4.73534E-04-1.19789E-13
 -1      2896 1.44981E-02 5.45348E-04-1.19779E-13
 -1      2897 1.36525E-02 1.77951E-04-1.19767E-13
 -1      2898 1.37286E-02 2.19138E-04-1.19772E-13
 -1      2899 6.88572E-04-2.03921E-04-5.63460E-16
 -1      2900 8.03126E-04 2.78159E-04-6.58843E-16
 -1      2901 1.31481E-02-3.02328E-04-1.08049E-13
 -1      2902 1.30186E-02-3.07993E-04-1.06770E-13
 -1      2903 1.31715E-02-2.88513E-04-1.08651E-13
 -1      2904 1.70128E-03 4.40434E-04-2.60638E-15
 -1      2905 1.55881E-03 4.25561E-04-2.19995E-15
 -1      2906 1.76217E-03 4.11111E-04-2.87808E-15
 -1      2907 1.38142E-02 2.61414E-04-1.19773E-13
 -1      2908 1.39121E-02 3.06096E-04-1.19770E-13
 -1      2909 1.36396E-02 1.34831E-04-1.18126E-13
 -1      2910 1.40259E-02 3.55811E-04-1.19785E-13
 -1      2911 1.41582E-02 4.09814E-04-1.19780E-13
 -1      2912 1.40724E-02 3.12054E-04-1.18179E-13
 -1      2913 1.38250E-02 2.13273E-04-1.18146E-13
 -1      2914 1.20968E-02 4.05981E-05-9.93067E-14
 -1      2915 1.18752E-02 1.49651E-04-9.79528E-14
 -1      2916 1.63444E-02 1.10320E-03-1.19757E-13
 -1      2917 1.62719E-02 1.10824E-03-1.20446E-13
 -1      2918 1.64436E-02 1.12788E-03-1.19950E-13
 -1      2919 1.65163E-02 1.14549E-03-1.20146E-13
 -1      2920 1.52648E-02 1.68241E-03-1.18401E-13
 -1      2921 7.84339E-04 1.23407E-04-8.00168E-16
 -1      2922 7.81942E-04 9.99785E-05-8.09601E-16
 -1      2923 8.99537E-04 9.94061E-05-1.02991E-15
 -1      2924 9.05299E-04 1.51529E-04-1.00724E-15
 -1      2925 1.34491E-02 5.01085E-05-1.19755E-13
 -1      2926 1.35404E-02 1.14183E-04-1.20347E-13
 -1      2927 1.36032E-02 1.55832E-04-1.20352E-13
 -1      2928 1.33421E-02-2.58166E-05-1.18213E-13
 -1      2929 7.81673E-04-9.79230E-05-8.10211E-16
 -1      2930 7.83996E-04-1.21266E-04-8.00819E-16
 -1      2931 1.41613E-03 4.07744E-04-1.82881E-15
 -1      2932 1.27307E-03 3.86718E-04-1.49269E-15
 -1      2933 1.18970E-03 3.41401E-04-1.37915E-15
 -1      2934 1.47615E-03 3.82093E-04-2.05875E-15
 -1      2935 1.25118E-02-1.62337E-04-1.02276E-13
 -1      2936 1.23291E-02-7.12520E-05-1.00910E-13
 -1      2937 1.08699E-02 5.65373E-04-9.41994E-14
 -1      2938 1.09456E-02 5.83885E-04-9.45317E-14
 -1      2939 1.08432E-02 5.43858E-04-9.39973E-14
 -1      2940 1.08317E-02 5.50367E-04-9.40004E-14
 -1      2941 1.12653E-02 4.18195E-04-9.51714E-14
 -1      2942 1.11340E-02 4.58237E-04-9.46333E-14
 -1      2943 1.28535E-02-2.85863E-04-1.05211E-13
 -1      2944 1.27037E-02-2.38469E-04-1.03857E-13
 -1      2945 1.16276E-02 2.70532E-04-9.67195E-14
 -1      2946 1.14412E-02 3.53676E-04-9.59451E-14
 -1      2947 1.13187E-02 3.59481E-04-9.46400E-14
 -1      2948 1.09942E-02 5.02382E-04-9.42499E-14
 -1      2949 1.08980E-02 5.25596E-04-9.40221E-14
 -1      2950 7.87071E-04-1.45404E-04-7.89069E-16
 -1      2951 7.90986E-04-1.70568E-04-7.74500E-16
 -1      2952 9.04836E-04-1.49002E-04-1.00791E-15
 -1      2953 8.95378E-04 1.00943E-06-1.04685E-15
 -1      2954 7.77555E-04-9.71606E-06-8.27395E-16
 -1      2955 7.77921E-04-3.13529E-05-8.25566E-16
 -1      2956 1.33249E-02-4.21459E-05-1.17268E-13
 -1      2957 7.88904E-04-2.52383E-04-6.72138E-16
 -1      2958 9.20082E-04-2.88167E-04-8.68758E-16
 -1      2959 1.59238E-02 1.05171E-03-1.20866E-13
 -1      2960 1.17201E-02 1.85784E-04-9.66448E-14
 -1      2961 1.46006E-02 5.73636E-04-1.19451E-13
 -1      2962 1.35155E-02-1.51682E-04-1.11817E-13
 -1      2963 1.33864E-02-2.00634E-04-1.11006E-13
 -1      2964 1.36141E-02-8.02193E-05-1.12894E-13
 -1      2965 1.21676E-02-3.48331E-05-9.94795E-14
 -1      2966 1.41829E-02 2.84658E-04-1.16639E-13
 -1      2967 1.40001E-02 1.82114E-04-1.15945E-13
 -1      2968 1.60044E-02 1.30235E-03-1.21929E-13
 -1      2969 1.35131E-02 8.25210E-05-1.18704E-13
 -1      2970 1.28985E-02-3.03950E-04-1.05807E-13
 -1      2971 7.78704E-04-5.31275E-05-8.22137E-16
 -1      2972 7.79928E-04-7.53065E-05-8.16919E-16
 -1      2973 8.99254E-04-9.70563E-05-1.03014E-15
 -1      2974 8.96279E-04-4.75063E-05-1.04260E-15
 -1      2975 8.64877E-04 2.66475E-04-7.94951E-16
 -1      2976 9.82965E-04 2.75708E-04-1.02136E-15
 -1      2977 1.08424E-02 5.12650E-04-9.30759E-14
 -1      2978 1.13197E-02 6.88210E-04-9.50889E-14
 -1      2979 1.10026E-02 5.84664E-04-9.41296E-14
 -1      2980 1.08300E-02 5.36217E-04-9.32492E-14
 -1      2981 1.10222E-02 4.60238E-04-9.34836E-14
 -1      2982 1.25651E-02-2.12153E-04-1.02665E-13
 -1      2983 9.82165E-04-2.73165E-04-1.02190E-15
 -1      2984 7.69949E-04-2.02411E-04-7.03837E-16
 -1      2985 1.04026E-03 2.43190E-04-1.19280E-15
 -1      2986 1.03362E-03 2.11472E-04-1.21742E-15
 -1      2987 8.87853E-04-2.11741E-04-9.13169E-16
 -1      2988 1.43137E-02 3.94781E-04-1.17867E-13
 -1      2989 1.64249E-02 1.15307E-03-1.21300E-13
 -1      2990 2.69764E-03 4.18055E-04-6.61376E-15
 -1      2991 2.55467E-03 4.14904E-04-5.96218E-15
 -1      2992 1.39577E-02 2.01386E-04-1.16655E-13
 -1      2993 1.37378E-02 2.45089E-05-1.14409E-13
 -1      2994 1.35993E-02-4.94423E-05-1.13595E-13
 -1      2995 1.38296E-02 1.54577E-04-1.16636E-13
 -1      2996 1.44457E-03-3.13663E-04-2.09897E-15
 -1      2997 1.58807E-03-3.28134E-04-2.49276E-15
 -1      2998 1.73166E-03-3.40380E-04-2.92012E-15
 -1      2999 1.87532E-03-3.50590E-04-3.38075E-15
 -1      3000 1.65233E-03-3.00062E-04-2.73963E-15
 -1      3001 2.01898E-03-3.59085E-04-3.87474E-15
 -1      3002 2.16262E-03-3.66020E-04-4.40159E-15
 -1      3003 1.94010E-03-3.19281E-04-3.66620E-15
 -1      3004 2.30621E-03-3.71672E-04-4.96109E-15
 -1      3005 2.44975E-03-3.76169E-04-5.55313E-15
 -1      3006 2.22812E-03-3.32417E-04-4.72383E-15
 -1      3007 2.59324E-03-3.79732E-04-6.17792E-15
 -1      3008 2.73666E-03-3.82462E-04-6.83486E-15
 -1      3009 2.51606E-03-3.40973E-04-5.91154E-15
 -1      3010 2.88004E-03-3.84531E-04-7.52270E-15
 -1      3011 3.02335E-03-3.86016E-04-8.24193E-15
 -1      3012 2.80380E-03-3.46190E-04-7.22707E-15
 -1      3013 3.16663E-03-3.87048E-04-8.99312E-15
 -1      3014 3.30984E-03-3.87682E-04-9.77525E-15
 -1      3015 3.09127E-03-3.49043E-04-8.66844E-15
 -1      3016 3.45303E-03-3.88016E-04-1.05879E-14
 -1      3017 3.59617E-03-3.88091E-04-1.14316E-14
 -1      3018 3.37847E-03-3.50276E-04-1.02341E-14
 -1      3019 3.73928E-03-3.87977E-04-1.23049E-14
 -1      3020 3.88236E-03-3.87702E-04-1.32093E-14
 -1      3021 3.66541E-03-3.50441E-04-1.19218E-14
 -1      3022 4.02541E-03-3.87315E-04-1.41433E-14
 -1      3023 4.16843E-03-3.86835E-04-1.51070E-14
 -1      3024 3.95211E-03-3.49935E-04-1.37307E-14
 -1      3025 4.31144E-03-3.86295E-04-1.61009E-14
 -1      3026 4.45442E-03-3.85707E-04-1.71226E-14
 -1      3027 4.23862E-03-3.49035E-04-1.56589E-14
 -1      3028 4.59739E-03-3.85092E-04-1.81737E-14
 -1      3029 4.74033E-03-3.84456E-04-1.92544E-14
 -1      3030 4.52495E-03-3.47927E-04-1.77043E-14
 -1      3031 4.88327E-03-3.83812E-04-2.03643E-14
 -1      3032 5.02619E-03-3.83161E-04-2.15023E-14
 -1      3033 4.81114E-03-3.46725E-04-1.98645E-14
 -1      3034 5.16911E-03-3.82510E-04-2.26678E-14
 -1      3035 5.31201E-03-3.81858E-04-2.38621E-14
 -1      3036 5.09721E-03-3.45493E-04-2.21410E-14
 -1      3037 5.45491E-03-3.81205E-04-2.50841E-14
 -1      3038 5.59780E-03-3.80549E-04-2.63327E-14
 -1      3039 5.38319E-03-3.44257E-04-2.45287E-14
 -1      3040 5.74068E-03-3.79887E-04-2.76089E-14
 -1      3041 5.88355E-03-3.79216E-04-2.89114E-14
 -1      3042 5.66907E-03-3.43011E-04-2.70275E-14
 -1      3043 6.02642E-03-3.78530E-04-3.02396E-14
 -1      3044 6.16928E-03-3.77823E-04-3.15927E-14
 -1      3045 5.95489E-03-3.41735E-04-2.96319E-14
 -1      3046 6.31214E-03-3.77091E-04-3.29716E-14
 -1      3047 6.45499E-03-3.76326E-04-3.43744E-14
 -1      3048 6.24064E-03-3.40391E-04-3.23391E-14
 -1      3049 6.59784E-03-3.75523E-04-3.58008E-14
 -1      3050 6.74068E-03-3.74676E-04-3.72505E-14
 -1      3051 6.52631E-03-3.38933E-04-3.51440E-14
 -1      3052 6.88352E-03-3.73778E-04-3.87237E-14
 -1      3053 7.02635E-03-3.72823E-04-4.02180E-14
 -1      3054 6.81192E-03-3.37311E-04-3.80431E-14
 -1      3055 7.16919E-03-3.71809E-04-4.17330E-14
 -1      3056 7.31202E-03-3.70730E-04-4.32697E-14
 -1      3057 7.09746E-03-3.35476E-04-4.10302E-14
 -1      3058 7.45486E-03-3.69587E-04-4.48260E-14
 -1      3059 7.59771E-03-3.68376E-04-4.64028E-14
 -1      3060 7.38293E-03-3.33386E-04-4.41016E-14
 -1      3061 7.74058E-03-3.67103E-04-4.79977E-14
 -1      3062 7.88347E-03-3.65770E-04-4.96093E-14
 -1      3063 7.66836E-03-3.31015E-04-4.72524E-14
 -1      3064 8.02640E-03-3.64389E-04-5.12390E-14
 -1      3065 8.16938E-03-3.62970E-04-5.28856E-14
 -1      3066 7.95380E-03-3.28366E-04-5.04748E-14
 -1      3067 8.31243E-03-3.61536E-04-5.45501E-14
 -1      3068 8.45557E-03-3.60105E-04-5.62276E-14
 -1      3069 8.23933E-03-3.25481E-04-5.37681E-14
 -1      3070 8.59884E-03-3.58714E-04-5.79178E-14
 -1      3071 8.74228E-03-3.57399E-04-5.96225E-14
 -1      3072 8.52512E-03-3.22466E-04-5.71203E-14
 -1      3073 8.88593E-03-3.56208E-04-6.13394E-14
 -1      3074 9.02983E-03-3.55203E-04-6.30685E-14
 -1      3075 8.81144E-03-3.19520E-04-6.05275E-14
 -1      3076 9.17407E-03-3.54446E-04-6.48081E-14
 -1      3077 9.31871E-03-3.54032E-04-6.65585E-14
 -1      3078 9.09873E-03-3.16963E-04-6.39835E-14
 -1      3079 9.46385E-03-3.54035E-04-6.83177E-14
 -1      3080 9.60955E-03-3.54591E-04-7.00854E-14
 -1      3081 9.38758E-03-3.15281E-04-6.74822E-14
 -1      3082 9.75596E-03-3.55781E-04-7.18629E-14
 -1      3083 9.90313E-03-3.57787E-04-7.36483E-14
 -1      3084 9.67882E-03-3.15173E-04-7.10158E-14
 -1      3085 1.00513E-02-3.60687E-04-7.54410E-14
 -1      3086 1.02003E-02-3.64700E-04-7.72401E-14
 -1      3087 9.97351E-03-3.17587E-04-7.45853E-14
 -1      3088 1.03505E-02-3.69878E-04-7.90466E-14
 -1      3089 1.05018E-02-3.76445E-04-8.08573E-14
 -1      3090 1.02728E-02-3.23731E-04-7.81848E-14
 -1      3091 1.06543E-02-3.84388E-04-8.26708E-14
 -1      3092 1.08078E-02-3.93844E-04-8.44908E-14
 -1      3093 1.05776E-02-3.34979E-04-8.18058E-14
 -1      3094 1.09624E-02-4.04672E-04-8.63148E-14
 -1      3095 1.11176E-02-4.16776E-04-8.81437E-14
 -1      3096 1.08885E-02-3.52532E-04-8.54451E-14
 -1      3097 1.12734E-02-4.29790E-04-8.99800E-14
 -1      3098 1.14290E-02-4.43138E-04-9.18209E-14
 -1      3099 1.12045E-02-3.76693E-04-8.91034E-14
 -1      3100 1.15842E-02-4.56156E-04-9.36690E-14
 -1      3101 1.17382E-02-4.67501E-04-9.55217E-14
 -1      3102 1.15230E-02-4.05553E-04-9.27850E-14
 -1      3103 1.18906E-02-4.76105E-04-9.73800E-14
 -1      3104 1.20407E-02-4.79902E-04-9.92449E-14
 -1      3105 1.18392E-02-4.33079E-04-9.64862E-14
 -1      3106 1.21881E-02-4.77520E-04-1.01116E-13
 -1      3107 1.23329E-02-4.66557E-04-1.02990E-13
 -1      3108 1.21474E-02-4.47536E-04-1.00211E-13
 -1      3109 1.24746E-02-4.45780E-04-1.04869E-13
 -1      3110 1.26144E-02-4.13151E-04-1.06753E-13
 -1      3111 1.24437E-02-4.32602E-04-1.03955E-13
 -1      3112 1.27520E-02-3.68135E-04-1.08640E-13
 -1      3113 1.28892E-02-3.10206E-04-1.10527E-13
 -1      3114 1.27283E-02-3.71700E-04-1.07715E-13
 -1      3115 1.30255E-02-2.39836E-04-1.12419E-13
 -1      3116 1.31628E-02-1.57927E-04-1.14317E-13
 -1      3117 1.30065E-02-2.55660E-04-1.11487E-13
 -1      3118 2.40448E-03 4.10607E-04-5.31344E-15
 -1      3119 2.25424E-03 4.05169E-04-4.70073E-15
 -1      3120 2.46996E-03 3.75798E-04-5.67057E-15
 -1      3121 3.26922E-03 4.24386E-04-9.54387E-15
 -1      3122 3.12637E-03 4.23543E-04-8.76327E-15
 -1      3123 3.55488E-03 4.25117E-04-1.11986E-14
 -1      3124 3.41206E-03 4.24895E-04-1.03557E-14
 -1      3125 3.33739E-03 3.87198E-04-1.00015E-14
 -1      3126 3.84051E-03 4.24955E-04-1.29757E-14
 -1      3127 3.69771E-03 4.25126E-04-1.20718E-14
 -1      3128 3.62376E-03 3.87647E-04-1.16871E-14
 -1      3129 4.12613E-03 4.24253E-04-1.48725E-14
 -1      3130 3.98333E-03 4.24657E-04-1.39093E-14
 -1      3131 3.90998E-03 3.87337E-04-1.34936E-14
 -1      3132 4.41175E-03 4.23252E-04-1.68867E-14
 -1      3133 4.26895E-03 4.23781E-04-1.58647E-14
 -1      3134 4.19609E-03 3.86575E-04-1.54189E-14
 -1      3135 4.71166E-03 4.22046E-04-1.91284E-14
 -1      3136 4.56171E-03 4.22662E-04-1.79919E-14
 -1      3137 4.48926E-03 3.85543E-04-1.75148E-14
 -1      3138 4.99731E-03 4.20842E-04-2.13796E-14
 -1      3139 4.85449E-03 4.21448E-04-2.02397E-14
 -1      3140 4.78235E-03 3.84394E-04-1.97312E-14
 -1      3141 5.28297E-03 4.19623E-04-2.37479E-14
 -1      3142 5.14014E-03 4.20233E-04-2.25494E-14
 -1      3143 5.06823E-03 3.83235E-04-2.20101E-14
 -1      3144 5.56866E-03 4.18395E-04-2.62311E-14
 -1      3145 5.42581E-03 4.19011E-04-2.49743E-14
 -1      3146 5.35408E-03 3.82066E-04-2.44047E-14
 -1      3147 5.85436E-03 4.17135E-04-2.88276E-14
 -1      3148 5.71151E-03 4.17771E-04-2.75156E-14
 -1      3149 5.63989E-03 3.80886E-04-2.69137E-14
 -1      3150 6.14010E-03 4.15802E-04-3.15324E-14
 -1      3151 5.99723E-03 4.16480E-04-3.01668E-14
 -1      3152 5.92568E-03 3.79667E-04-2.95351E-14
 -1      3153 6.42585E-03 4.14338E-04-3.43393E-14
 -1      3154 6.28297E-03 4.15089E-04-3.29241E-14
 -1      3155 6.21145E-03 3.78367E-04-3.22640E-14
 -1      3156 6.71164E-03 4.12674E-04-3.72387E-14
 -1      3157 6.56874E-03 4.13534E-04-3.57775E-14
 -1      3158 6.49720E-03 3.76928E-04-3.50911E-14
 -1      3159 6.99745E-03 4.10733E-04-4.02229E-14
 -1      3160 6.85454E-03 4.11742E-04-3.87202E-14
 -1      3161 6.78291E-03 3.75286E-04-3.80077E-14
 -1      3162 7.29756E-03 4.08306E-04-4.34503E-14
 -1      3163 7.14750E-03 4.09574E-04-4.18250E-14
 -1      3164 7.07572E-03 3.73317E-04-4.10874E-14
 -1      3165 7.58336E-03 4.05538E-04-4.66005E-14
 -1      3166 7.44046E-03 4.06982E-04-4.50163E-14
 -1      3167 7.36842E-03 3.70982E-04-4.42533E-14
 -1      3168 7.86908E-03 4.02250E-04-4.98246E-14
 -1      3169 7.72623E-03 4.03963E-04-4.82045E-14
 -1      3170 7.65383E-03 3.68285E-04-4.74211E-14
 -1      3171 8.15462E-03 3.98389E-04-5.31179E-14
 -1      3172 8.01187E-03 4.00394E-04-5.14626E-14
 -1      3173 7.93896E-03 3.65127E-04-5.06592E-14
 -1      3174 8.43980E-03 3.93946E-04-5.64742E-14
 -1      3175 8.29726E-03 3.96241E-04-5.47888E-14
 -1      3176 8.22363E-03 3.61500E-04-5.39647E-14
 -1      3177 8.72430E-03 3.88999E-04-5.98848E-14
 -1      3178 8.58215E-03 3.91533E-04-5.81727E-14
 -1      3179 8.50753E-03 3.57464E-04-5.73307E-14
 -1      3180 9.00759E-03 3.83769E-04-6.33498E-14
 -1      3181 8.86611E-03 3.86411E-04-6.16102E-14
 -1      3182 8.79018E-03 3.53196E-04-6.07519E-14
 -1      3183 9.28880E-03 3.78727E-04-6.68594E-14
 -1      3184 9.14848E-03 3.81209E-04-6.50993E-14
 -1      3185 9.07081E-03 3.49065E-04-6.42235E-14
 -1      3186 9.56661E-03 3.74756E-04-7.04083E-14
 -1      3187 9.42818E-03 3.76580E-04-6.86295E-14
 -1      3188 9.34825E-03 3.45753E-04-6.77412E-14
 -1      3189 9.85240E-03 3.73404E-04-7.41721E-14
 -1      3190 9.71035E-03 3.73666E-04-7.22864E-14
 -1      3191 9.62746E-03 3.44418E-04-7.13852E-14
 -1      3192 1.01158E-02 3.77429E-04-7.77837E-14
 -1      3193 9.98531E-03 3.74709E-04-7.59751E-14
 -1      3194 9.89865E-03 3.47165E-04-7.50644E-14
 -1      3195 1.03667E-02 3.90525E-04-8.14194E-14
 -1      3196 1.02430E-02 3.82784E-04-7.95987E-14
 -1      3197 1.01517E-02 3.56678E-04-7.86809E-14
 -1      3198 1.05999E-02 4.18085E-04-8.50694E-14
 -1      3199 1.04856E-02 4.02504E-04-8.32420E-14
 -1      3200 1.03882E-02 3.76911E-04-8.23185E-14
 -1      3201 1.08102E-02 4.66864E-04-8.87323E-14
 -1      3202 1.07078E-02 4.39787E-04-8.69001E-14
 -1      3203 1.06016E-02 4.12478E-04-8.59714E-14
 -1      3204 1.09341E-02 5.42319E-04-9.27496E-14
 -1      3205 1.10664E-02 5.80701E-04-9.34313E-14
 -1      3206 2.98348E-03 4.22262E-04-8.01431E-15
 -1      3207 2.84058E-03 4.20481E-04-7.29790E-15
 -1      3208 3.05085E-03 3.85548E-04-8.44042E-15
 -1      3209 1.33645E-02-2.65068E-05-1.16691E-13
 -1      3210 1.31791E-02-2.73421E-04-1.09204E-13
 -1      3211 1.30651E-02-3.03099E-04-1.07920E-13
 -1      3212 1.82458E-03 3.81070E-04-3.15489E-15
 -1      3213 1.68123E-03 3.69477E-04-2.70790E-15
 -1      3214 1.34729E-02 1.91369E-05-1.16479E-13
 -1      3215 1.35495E-02 5.01236E-05-1.16483E-13
 -1      3216 1.15850E-03-2.76858E-04-1.41449E-15
 -1      3217 1.30138E-03-2.96640E-04-1.73981E-15
 -1      3218 1.36542E-03-2.73054E-04-1.94687E-15
 -1      3219 1.51597E-02 1.69966E-03-1.19133E-13
 -1      3220 1.33506E-02-4.91482E-05-1.15748E-13
 -1      3221 1.08233E-02 4.76673E-04-9.18352E-14
 -1      3222 1.07835E-02 4.89997E-04-9.18104E-14
 -1      3223 1.01647E-03 6.81763E-05-1.28506E-15
 -1      3224 1.01529E-03 4.12054E-05-1.29001E-15
 -1      3225 1.22211E-02-1.11668E-04-9.96335E-14
 -1      3226 1.20184E-02-1.95194E-05-9.80300E-14
 -1      3227 1.17536E-02 1.07996E-04-9.61941E-14
 -1      3228 1.15413E-02 2.12241E-04-9.49621E-14
 -1      3229 1.12048E-02 6.30185E-04-9.40900E-14
 -1      3230 1.14502E-03 3.10483E-04-1.32887E-15
 -1      3231 1.08236E-03 2.71562E-04-1.24690E-15
 -1      3232 1.20146E-03 2.72994E-04-1.52677E-15
 -1      3233 1.28818E-03 3.32447E-04-1.64528E-15
 -1      3234 1.07833E-02 5.02606E-04-9.19066E-14
 -1      3235 1.08240E-02 5.12129E-04-9.21055E-14
 -1      3236 1.10220E-02 4.10824E-04-9.23542E-14
 -1      3237 1.09079E-02 4.46611E-04-9.19711E-14
 -1      3238 1.13446E-02 2.99623E-04-9.39487E-14
 -1      3239 1.11923E-02 3.55161E-04-9.31758E-14
 -1      3240 2.11109E-03 3.98672E-04-4.15142E-15
 -1      3241 1.96786E-03 3.90744E-04-3.63613E-15
 -1      3242 1.88824E-03 3.50360E-04-3.43719E-15
 -1      3243 1.26045E-02-2.59405E-04-1.03078E-13
 -1      3244 1.24359E-02-1.97762E-04-1.01495E-13
 -1      3245 1.29242E-02-3.14703E-04-1.06372E-13
 -1      3246 1.27790E-02-2.99798E-04-1.04811E-13
 -1      3247 1.11037E-02 5.76942E-04-9.27096E-14
 -1      3248 1.01469E-03 1.44409E-05-1.29248E-15
 -1      3249 1.01465E-03-1.22241E-05-1.29227E-15
 -1      3250 1.13536E-03 3.01518E-05-1.56285E-15
 -1      3251 1.07404E-02 4.69902E-04-9.06671E-14
 -1      3252 2.76410E-03 3.82087E-04-7.00637E-15
 -1      3253 2.17559E-03 3.65569E-04-4.47228E-15
 -1      3254 1.08350E-02 4.86393E-04-9.02141E-14
 -1      3255 1.07330E-02 4.56221E-04-8.92824E-14
 -1      3256 1.09704E-02 5.19702E-04-9.08559E-14
 -1      3257 1.13911E-02 2.21947E-04-9.34976E-14
 -1      3258 1.18290E-02 2.24871E-05-9.63440E-14
 -1      3259 1.16445E-02 5.12049E-05-9.46582E-14
 -1      3260 1.18812E-02-5.81358E-05-9.64919E-14
 -1      3261 1.26432E-02-2.93037E-04-1.03637E-13
 -1      3262 1.15302E-03 2.11742E-04-1.49015E-15
 -1      3263 1.02827E-03 1.81101E-04-1.23747E-15
 -1      3264 1.02408E-03 1.51781E-04-1.25407E-15
 -1      3265 9.99638E-04-2.33086E-04-1.11619E-15
 -1      3266 1.22757E-02-1.77921E-04-1.00040E-13
 -1      3267 1.29419E-02-3.15824E-04-1.06922E-13
 -1      3268 1.33580E-02-1.86811E-04-1.11349E-13
 -1      3269 1.32697E-02-2.35662E-04-1.10276E-13
 -1      3270 1.31614E-02-2.63202E-04-1.09543E-13
 -1      3271 1.02360E-03-1.49051E-04-1.25429E-15
 -1      3272 1.02768E-03-1.78282E-04-1.23774E-15
 -1      3273 1.36302E-02 8.14970E-05-1.16552E-13
 -1      3274 1.37274E-02 1.17026E-04-1.16573E-13
 -1      3275 1.36183E-02 2.04086E-05-1.15048E-13
 -1      3276 1.34536E-02-3.31572E-05-1.14912E-13
 -1      3277 1.01828E-03 9.54272E-05-1.27777E-15
 -1      3278 1.13803E-03 8.85242E-05-1.55186E-15
 -1      3279 1.02076E-03 1.23188E-04-1.26749E-15
 -1      3280 1.08113E-02 4.34128E-04-9.07073E-14
 -1      3281 1.32596E-02-1.19970E-04-1.14111E-13
 -1      3282 1.01801E-03-9.29539E-05-1.27745E-15
 -1      3283 1.02040E-03-1.20658E-04-1.26751E-15
 -1      3284 1.14319E-03-1.45843E-04-1.52782E-15
 -1      3285 1.06450E-03-2.15829E-04-1.27951E-15
 -1      3286 1.55633E-03 3.61405E-04-2.33820E-15
 -1      3287 1.41296E-03 3.45224E-04-1.95614E-15
 -1      3288 1.36910E-03 3.14981E-04-1.89181E-15
 -1      3289 1.61928E-03 3.33802E-04-2.58388E-15
 -1      3290 1.10443E-02 3.57589E-04-9.16634E-14
 -1      3291 1.23153E-02-2.42369E-04-1.00462E-13
 -1      3292 1.21236E-02-1.74724E-04-9.85995E-14
 -1      3293 1.57395E-03-2.60626E-04-2.55987E-15
 -1      3294 1.71774E-03-2.71099E-04-2.99247E-15
 -1      3295 1.08503E-02 5.03758E-04-9.14076E-14
 -1      3296 1.86177E-03-2.79928E-04-3.45810E-15
 -1      3297 2.00599E-03-2.87266E-04-3.95632E-15
 -1      3298 1.78414E-03-2.41214E-04-3.25136E-15
 -1      3299 2.15028E-03-2.93333E-04-4.48702E-15
 -1      3300 2.29462E-03-2.98250E-04-5.05008E-15
 -1      3301 2.07284E-03-2.54566E-04-4.25151E-15
 -1      3302 2.43895E-03-3.02216E-04-5.64578E-15
 -1      3303 2.58325E-03-3.05328E-04-6.27384E-15
 -1      3304 2.36202E-03-2.63564E-04-5.38145E-15
 -1      3305 2.72750E-03-3.07752E-04-6.93220E-15
 -1      3306 2.87168E-03-3.09562E-04-7.62252E-15
 -1      3307 2.65123E-03-2.69288E-04-6.63906E-15
 -1      3308 3.01579E-03-3.10890E-04-8.34467E-15
 -1      3309 3.15980E-03-3.11791E-04-9.09730E-15
 -1      3310 2.94024E-03-2.72637E-04-8.02213E-15
 -1      3311 3.30374E-03-3.12367E-04-9.88089E-15
 -1      3312 3.44758E-03-3.12656E-04-1.06951E-14
 -1      3313 3.22890E-03-2.74319E-04-9.52928E-15
 -1      3314 3.59135E-03-3.12734E-04-1.15400E-14
 -1      3315 3.73503E-03-3.12628E-04-1.24144E-14
 -1      3316 3.51716E-03-2.74874E-04-1.11589E-14
 -1      3317 3.87864E-03-3.12394E-04-1.33194E-14
 -1      3318 4.02217E-03-3.12048E-04-1.42543E-14
 -1      3319 3.80503E-03-2.74701E-04-1.29100E-14
 -1      3320 4.16563E-03-3.11630E-04-1.52190E-14
 -1      3321 4.30903E-03-3.11151E-04-1.62131E-14
 -1      3322 4.09252E-03-2.74083E-04-1.47808E-14
 -1      3323 4.45237E-03-3.10635E-04-1.72351E-14
 -1      3324 4.59565E-03-3.10089E-04-1.82862E-14
 -1      3325 4.37967E-03-2.73214E-04-1.67681E-14
 -1      3326 4.73888E-03-3.09530E-04-1.93673E-14
 -1      3327 4.88207E-03-3.08959E-04-2.04773E-14
 -1      3328 4.66652E-03-2.72221E-04-1.88716E-14
 -1      3329 5.02521E-03-3.08385E-04-2.16152E-14
 -1      3330 5.16831E-03-3.07808E-04-2.27816E-14
 -1      3331 4.95311E-03-2.71179E-04-2.10911E-14
 -1      3332 5.31138E-03-3.07232E-04-2.39765E-14
 -1      3333 5.45440E-03-3.06653E-04-2.51988E-14
 -1      3334 5.23949E-03-2.70123E-04-2.34243E-14
 -1      3335 5.59740E-03-3.06073E-04-2.64478E-14
 -1      3336 5.74037E-03-3.05486E-04-2.77241E-14
 -1      3337 5.52567E-03-2.69064E-04-2.58700E-14
 -1      3338 5.88331E-03-3.04891E-04-2.90260E-14
 -1      3339 6.02622E-03-3.04281E-04-3.03538E-14
 -1      3340 5.81169E-03-2.67987E-04-2.84218E-14
 -1      3341 6.16910E-03-3.03653E-04-3.17085E-14
 -1      3342 6.31196E-03-3.03000E-04-3.30874E-14
 -1      3343 6.09754E-03-2.66866E-04-3.10794E-14
 -1      3344 6.45478E-03-3.02317E-04-3.44899E-14
 -1      3345 6.59758E-03-3.01596E-04-3.59156E-14
 -1      3346 6.38324E-03-2.65662E-04-3.38372E-14
 -1      3347 6.74034E-03-3.00833E-04-3.73645E-14
 -1      3348 6.88308E-03-3.00019E-04-3.88358E-14
 -1      3349 6.66878E-03-2.64328E-04-3.66887E-14
 -1      3350 7.02578E-03-2.99150E-04-4.03293E-14
 -1      3351 7.16845E-03-2.98217E-04-4.18438E-14
 -1      3352 6.95415E-03-2.62813E-04-3.96296E-14
 -1      3353 7.31109E-03-2.97219E-04-4.33788E-14
 -1      3354 7.45369E-03-2.96146E-04-4.49351E-14
 -1      3355 7.23933E-03-2.61062E-04-4.26584E-14
 -1      3356 7.59627E-03-2.94998E-04-4.65091E-14
 -1      3357 7.73882E-03-2.93769E-04-4.81030E-14
 -1      3358 7.52431E-03-2.59022E-04-4.57678E-14
 -1      3359 7.88136E-03-2.92462E-04-4.97141E-14
 -1      3360 8.02389E-03-2.91074E-04-5.13411E-14
 -1      3361 7.80910E-03-2.56647E-04-4.89537E-14
 -1      3362 8.16643E-03-2.89613E-04-5.29873E-14
 -1      3363 8.30899E-03-2.88083E-04-5.46491E-14
 -1      3364 8.09375E-03-2.53902E-04-5.22090E-14
 -1      3365 8.45161E-03-2.86497E-04-5.63241E-14
 -1      3366 8.59433E-03-2.84870E-04-5.80128E-14
 -1      3367 8.37838E-03-2.50778E-04-5.55286E-14
 -1      3368 8.73718E-03-2.83223E-04-5.97162E-14
 -1      3369 8.88022E-03-2.81591E-04-6.14320E-14
 -1      3370 8.66319E-03-2.47305E-04-5.89066E-14
 -1      3371 9.02353E-03-2.80002E-04-6.31597E-14
 -1      3372 9.16718E-03-2.78521E-04-6.48986E-14
 -1      3373 8.94858E-03-2.43584E-04-6.23366E-14
 -1      3374 9.31129E-03-2.77185E-04-6.66472E-14
 -1      3375 9.45596E-03-2.76106E-04-6.84050E-14
 -1      3376 9.23514E-03-2.39828E-04-6.58132E-14
 -1      3377 9.60136E-03-2.75328E-04-7.01723E-14
 -1      3378 9.74760E-03-2.75028E-04-7.19478E-14
 -1      3379 9.52378E-03-2.36424E-04-6.93291E-14
 -1      3380 9.89491E-03-2.75263E-04-7.37326E-14
 -1      3381 1.00434E-02-2.76290E-04-7.55234E-14
 -1      3382 9.81576E-03-2.34040E-04-7.28796E-14
 -1      3383 1.01934E-02-2.78175E-04-7.73211E-14
 -1      3384 1.03449E-02-2.81269E-04-7.91285E-14
 -1      3385 1.01127E-02-2.33745E-04-7.64617E-14
 -1      3386 1.04982E-02-2.85639E-04-8.09399E-14
 -1      3387 1.06534E-02-2.91694E-04-8.27543E-14
 -1      3388 1.04165E-02-2.37154E-04-8.00727E-14
 -1      3389 1.08106E-02-2.99476E-04-8.45738E-14
 -1      3390 1.09696E-02-3.09306E-04-8.63990E-14
 -1      3391 1.07289E-02-2.46494E-04-8.37037E-14
 -1      3392 1.11305E-02-3.21120E-04-8.82262E-14
 -1      3393 1.12926E-02-3.34997E-04-9.00614E-14
 -1      3394 1.10509E-02-2.64188E-04-8.73515E-14
 -1      3395 1.14558E-02-3.50638E-04-9.19019E-14
 -1      3396 1.16191E-02-3.67259E-04-9.37477E-14
 -1      3397 1.13816E-02-2.92154E-04-9.10197E-14
 -1      3398 1.17821E-02-3.84185E-04-9.55966E-14
 -1      3399 1.19432E-02-3.99332E-04-9.74506E-14
 -1      3400 1.17170E-02-3.29191E-04-9.47096E-14
 -1      3401 1.21021E-02-4.11317E-04-9.93102E-14
 -1      3402 1.22578E-02-4.17057E-04-1.01174E-13
 -1      3403 1.20497E-02-3.67447E-04-9.84137E-14
 -1      3404 1.24096E-02-4.14751E-04-1.03042E-13
 -1      3405 1.25582E-02-4.00684E-04-1.04915E-13
 -1      3406 1.23707E-02-3.89429E-04-1.02136E-13
 -1      3407 1.27029E-02-3.73570E-04-1.06793E-13
 -1      3408 1.28460E-02-3.30839E-04-1.08672E-13
 -1      3409 1.26754E-02-3.70676E-04-1.05875E-13
 -1      3410 1.29815E-02-2.75310E-04-1.10446E-13
 -1      3411 1.31232E-02-2.02570E-04-1.12332E-13
 -1      3412 1.32405E-02-1.50402E-04-1.13064E-13
 -1      3413 1.29619E-02-2.91026E-04-1.09518E-13
 -1      3414 2.53995E-03 3.40599E-04-6.04689E-15
 -1      3415 2.38877E-03 3.36715E-04-5.39679E-15
 -1      3416 3.69301E-03 3.49994E-04-1.21761E-14
 -1      3417 3.54957E-03 3.49988E-04-1.13032E-14
 -1      3418 3.40605E-03 3.49772E-04-1.04610E-14
 -1      3419 3.26248E-03 3.49314E-04-9.64917E-15
 -1      3420 3.47518E-03 3.12162E-04-1.09214E-14
 -1      3421 4.26627E-03 3.48794E-04-1.59666E-14
 -1      3422 4.12303E-03 3.49222E-04-1.49749E-14
 -1      3423 4.56694E-03 3.47762E-04-1.81446E-14
 -1      3424 4.41663E-03 3.48297E-04-1.70395E-14
 -1      3425 4.34384E-03 3.10922E-04-1.65667E-14
 -1      3426 4.85314E-03 3.46693E-04-2.03345E-14
 -1      3427 4.71006E-03 3.47235E-04-1.92250E-14
 -1      3428 4.63763E-03 3.09963E-04-1.87210E-14
 -1      3429 5.13923E-03 3.45599E-04-2.26409E-14
 -1      3430 4.99620E-03 3.46148E-04-2.14731E-14
 -1      3431 4.92405E-03 3.08966E-04-2.09390E-14
 -1      3432 5.42523E-03 3.44497E-04-2.50617E-14
 -1      3433 5.28224E-03 3.45049E-04-2.38366E-14
 -1      3434 5.21030E-03 3.07952E-04-2.32722E-14
 -1      3435 5.71114E-03 3.43379E-04-2.75973E-14
 -1      3436 5.56819E-03 3.43941E-04-2.63154E-14
 -1      3437 5.49641E-03 3.06930E-04-2.57199E-14
 -1      3438 5.99699E-03 3.42217E-04-3.02435E-14
 -1      3439 5.85407E-03 3.42806E-04-2.89074E-14
 -1      3440 5.78240E-03 3.05889E-04-2.82810E-14
 -1      3441 6.28276E-03 3.40968E-04-3.29946E-14
 -1      3442 6.13988E-03 3.41606E-04-3.16065E-14
 -1      3443 6.06827E-03 3.04799E-04-3.09523E-14
 -1      3444 6.56847E-03 3.39578E-04-3.58416E-14
 -1      3445 6.42562E-03 3.40294E-04-3.44061E-14
 -1      3446 6.35403E-03 3.03620E-04-3.37247E-14
 -1      3447 6.85407E-03 3.37987E-04-3.87768E-14
 -1      3448 6.71128E-03 3.38811E-04-3.72986E-14
 -1      3449 6.63965E-03 3.02302E-04-3.65915E-14
 -1      3450 7.15381E-03 3.36033E-04-4.19515E-14
 -1      3451 7.00396E-03 3.37051E-04-4.03522E-14
 -1      3452 6.93224E-03 3.00753E-04-3.96205E-14
 -1      3453 7.43906E-03 3.33845E-04-4.50575E-14
 -1      3454 7.29646E-03 3.34983E-04-4.34944E-14
 -1      3455 7.22459E-03 2.98953E-04-4.27384E-14
 -1      3456 7.72400E-03 3.31295E-04-4.82397E-14
 -1      3457 7.58157E-03 3.32618E-04-4.66392E-14
 -1      3458 7.50948E-03 2.96919E-04-4.58605E-14
 -1      3459 8.00845E-03 3.28375E-04-5.14923E-14
 -1      3460 7.86629E-03 3.29883E-04-4.98578E-14
 -1      3461 7.79389E-03 2.94598E-04-4.90586E-14
 -1      3462 8.29214E-03 3.25132E-04-5.48102E-14
 -1      3463 8.15040E-03 3.26793E-04-5.31436E-14
 -1      3464 8.07759E-03 2.92028E-04-5.23253E-14
 -1      3465 8.57465E-03 3.21709E-04-5.81861E-14
 -1      3466 8.43356E-03 3.23438E-04-5.64914E-14
 -1      3467 8.36023E-03 2.89323E-04-5.56542E-14
 -1      3468 8.85534E-03 3.18400E-04-6.16174E-14
 -1      3469 8.71526E-03 3.20029E-04-5.98954E-14
 -1      3470 8.64129E-03 2.86719E-04-5.90417E-14
 -1      3471 9.13325E-03 3.15746E-04-6.50982E-14
 -1      3472 8.99470E-03 3.16972E-04-6.33516E-14
 -1      3473 8.92000E-03 2.84648E-04-6.24814E-14
 -1      3474 9.40694E-03 3.14654E-04-6.86204E-14
 -1      3475 9.27071E-03 3.14974E-04-6.68546E-14
 -1      3476 9.19523E-03 2.83833E-04-6.59697E-14
 -1      3477 9.68746E-03 3.16761E-04-7.23621E-14
 -1      3478 9.54823E-03 3.15242E-04-7.04866E-14
 -1      3479 9.47202E-03 2.85499E-04-6.95896E-14
 -1      3480 9.94493E-03 3.24154E-04-7.59558E-14
 -1      3481 9.81758E-03 3.19758E-04-7.41548E-14
 -1      3482 9.74094E-03 2.91552E-04-7.32472E-14
 -1      3483 1.01886E-02 3.39913E-04-7.95747E-14
 -1      3484 1.00688E-02 3.30972E-04-7.77608E-14
 -1      3485 9.99234E-03 3.04227E-04-7.68442E-14
 -1      3486 1.04127E-02 3.67977E-04-8.32167E-14
 -1      3487 1.03035E-02 3.52504E-04-8.13960E-14
 -1      3488 1.02284E-02 3.26889E-04-8.04698E-14
 -1      3489 1.06095E-02 4.12306E-04-8.68748E-14
 -1      3490 1.05150E-02 3.88530E-04-8.50436E-14
 -1      3491 1.04427E-02 3.63430E-04-8.41160E-14
 -1      3492 1.06579E-02 4.30287E-04-8.83513E-14
 -1      3493 3.11882E-03 3.48531E-04-8.86825E-15
 -1      3494 2.97511E-03 3.47377E-04-8.11890E-15
 -1      3495 3.18738E-03 3.11272E-04-9.29839E-15
 -1      3496 3.97974E-03 3.49579E-04-1.40124E-14
 -1      3497 3.83641E-03 3.49850E-04-1.30794E-14
 -1      3498 3.76264E-03 3.12204E-04-1.26667E-14
 -1      3499 4.04980E-03 3.11723E-04-1.45322E-14
 -1      3500 1.10486E-02 2.94752E-04-9.07466E-14
 -1      3501 1.09031E-02 3.42858E-04-8.99261E-14
 -1      3502 1.18401E-03-2.15380E-04-1.55870E-15
 -1      3503 1.01518E-03-3.89177E-05-1.28989E-15
 -1      3504 1.01628E-03-6.57476E-05-1.28490E-15
 -1      3505 1.13778E-03-8.59486E-05-1.55159E-15
 -1      3506 1.30697E-03-2.32446E-04-1.84759E-15
 -1      3507 1.44991E-03-2.46322E-04-2.21814E-15
 -1      3508 1.51611E-03-2.19997E-04-2.44156E-15
 -1      3509 1.26948E-03-1.92096E-04-1.79669E-15
 -1      3510 2.83132E-03 3.45740E-04-7.40179E-15
 -1      3511 2.68747E-03 3.43557E-04-6.71647E-15
 -1      3512 2.89924E-03 3.09078E-04-7.79980E-15
 -1      3513 1.29489E-02-3.14346E-04-1.07507E-13
 -1      3514 1.28207E-02-3.27915E-04-1.05956E-13
 -1      3515 1.06432E-02 4.19242E-04-8.82553E-14
 -1      3516 1.26721E-02-3.21992E-04-1.04248E-13
 -1      3517 1.25142E-02-2.94033E-04-1.02511E-13
 -1      3518 1.07736E-02 3.88904E-04-8.93214E-14
 -1      3519 1.07116E-02 4.15260E-04-8.91856E-14
 -1      3520 1.95310E-03 3.18944E-04-3.72494E-15
 -1      3521 1.80912E-03 3.10353E-04-3.23919E-15
 -1      3522 1.13895E-02 1.50445E-04-9.27607E-14
 -1      3523 1.12220E-02 2.25852E-04-9.17492E-14
 -1      3524 2.24116E-03 3.31888E-04-4.79694E-15
 -1      3525 2.09712E-03 3.26077E-04-4.24411E-15
 -1      3526 2.01899E-03 2.86847E-04-4.01796E-15
 -1      3527 2.31128E-03 2.97789E-04-5.14000E-15
 -1      3528 1.14366E-03 1.48653E-04-1.52826E-15
 -1      3529 1.35465E-02-4.42632E-05-1.13954E-13
 -1      3530 1.34337E-02-1.31913E-04-1.12436E-13
 -1      3531 1.33205E-02-1.76550E-04-1.11705E-13
 -1      3532 1.34629E-02-6.78333E-05-1.13887E-13
 -1      3533 1.23575E-02-2.91880E-04-1.01065E-13
 -1      3534 1.10545E-02 2.28273E-04-9.00125E-14
 -1      3535 1.07686E-02 3.39063E-04-8.84082E-14
 -1      3536 1.26893E-02-3.39359E-04-1.04827E-13
 -1      3537 1.13528E-03-2.76890E-05-1.56295E-15
 -1      3538 1.33069E-02-1.30216E-04-1.13137E-13
 -1      3539 1.19457E-02-1.38601E-04-9.69069E-14
 -1      3540 1.17683E-02-1.08317E-04-9.52179E-14
 -1      3541 1.19910E-02-2.10839E-04-9.73230E-14
 -1      3542 1.27924E-03 2.42822E-04-1.76515E-15
 -1      3543 1.27309E-03 2.08629E-04-1.79067E-15
 -1      3544 2.60717E-03 3.04895E-04-6.41147E-15
 -1      3545 1.26102E-03 1.10512E-04-1.84243E-15
 -1      3546 1.25881E-03 7.90385E-05-1.85193E-15
 -1      3547 1.26501E-03-1.59187E-04-1.81597E-15
 -1      3548 1.38767E-03-1.71888E-04-2.12893E-15
 -1      3549 1.26154E-03-1.26938E-04-1.83175E-15
 -1      3550 1.30340E-02-2.94063E-04-1.08580E-13
 -1      3551 1.29125E-02-3.18779E-04-1.07613E-13
 -1      3552 1.31167E-02-2.63317E-04-1.09653E-13
 -1      3553 1.05830E-02 3.84637E-04-8.68743E-14
 -1      3554 1.15167E-02-1.92316E-06-9.30544E-14
 -1      3555 1.14604E-02 7.43829E-05-9.29091E-14
 -1      3556 1.12838E-02 8.58308E-05-9.11605E-14
 -1      3557 1.68352E-03 3.05357E-04-2.83626E-15
 -1      3558 1.55808E-03 2.98749E-04-2.45924E-15
 -1      3559 1.74884E-03 2.76036E-04-3.09411E-15
 -1      3560 1.25733E-03 4.77677E-05-1.85809E-15
 -1      3561 1.25659E-03 1.67127E-05-1.86117E-15
 -1      3562 1.38049E-03 6.70726E-05-2.17732E-15
 -1      3563 1.70735E-03-2.03402E-04-3.04655E-15
 -1      3564 1.85151E-03-2.10428E-04-3.51605E-15
 -1      3565 1.99596E-03-2.16316E-04-4.01796E-15
 -1      3566 2.14064E-03-2.21176E-04-4.55214E-15
 -1      3567 1.91975E-03-1.78735E-04-3.78631E-15
 -1      3568 2.28543E-03-2.25161E-04-5.11848E-15
 -1      3569 2.43029E-03-2.28354E-04-5.71740E-15
 -1      3570 2.20928E-03-1.87125E-04-4.85793E-15
 -1      3571 2.57515E-03-2.30896E-04-6.34745E-15
 -1      3572 2.71999E-03-2.32854E-04-7.00853E-15
 -1      3573 2.49935E-03-1.92665E-04-6.05713E-15
 -1      3574 2.86477E-03-2.34345E-04-7.70121E-15
 -1      3575 3.00946E-03-2.35418E-04-8.42531E-15
 -1      3576 2.78945E-03-1.96077E-04-7.38239E-15
 -1      3577 3.15406E-03-2.36168E-04-9.17984E-15
 -1      3578 3.29855E-03-2.36631E-04-9.96473E-15
 -1      3579 3.07929E-03-1.97959E-04-8.83161E-15
 -1      3580 3.44293E-03-2.36880E-04-1.07803E-14
 -1      3581 3.58719E-03-2.36939E-04-1.16261E-14
 -1      3582 3.36871E-03-1.98781E-04-1.04032E-14
 -1      3583 3.73135E-03-2.36863E-04-1.25023E-14
 -1      3584 3.87538E-03-2.36667E-04-1.34080E-14
 -1      3585 3.65764E-03-1.98898E-04-1.20959E-14
 -1      3586 4.01932E-03-2.36393E-04-1.43437E-14
 -1      3587 4.16315E-03-2.36048E-04-1.53094E-14
 -1      3588 3.94608E-03-1.98569E-04-1.39086E-14
 -1      3589 4.30688E-03-2.35661E-04-1.63029E-14
 -1      3590 4.45052E-03-2.35236E-04-1.73255E-14
 -1      3591 4.23404E-03-1.97978E-04-1.58394E-14
 -1      3592 4.59407E-03-2.34793E-04-1.83774E-14
 -1      3593 4.73754E-03-2.34332E-04-1.94588E-14
 -1      3594 4.52157E-03-1.97245E-04-1.78861E-14
 -1      3595 4.88094E-03-2.33867E-04-2.05691E-14
 -1      3596 5.02427E-03-2.33395E-04-2.17075E-14
 -1      3597 4.80872E-03-1.96447E-04-2.00480E-14
 -1      3598 5.16754E-03-2.32924E-04-2.28743E-14
 -1      3599 5.31074E-03-2.32449E-04-2.40695E-14
 -1      3600 5.09554E-03-1.95628E-04-2.23259E-14
 -1      3601 5.45389E-03-2.31975E-04-2.52927E-14
 -1      3602 5.59698E-03-2.31497E-04-2.65425E-14
 -1      3603 5.38206E-03-1.94803E-04-2.47167E-14
 -1      3604 5.74003E-03-2.31015E-04-2.78191E-14
 -1      3605 5.88302E-03-2.30524E-04-2.91215E-14
 -1      3606 5.66833E-03-1.93969E-04-2.72171E-14
 -1      3607 6.02596E-03-2.30021E-04-3.04509E-14
 -1      3608 6.16886E-03-2.29501E-04-3.18065E-14
 -1      3609 5.95437E-03-1.93110E-04-2.98243E-14
 -1      3610 6.31171E-03-2.28959E-04-3.31845E-14
 -1      3611 6.45450E-03-2.28389E-04-3.45865E-14
 -1      3612 6.24017E-03-1.92197E-04-3.25337E-14
 -1      3613 6.59725E-03-2.27786E-04-3.60134E-14
 -1      3614 6.73994E-03-2.27142E-04-3.74619E-14
 -1      3615 6.52574E-03-1.91193E-04-3.53385E-14
 -1      3616 6.88257E-03-2.26452E-04-3.89322E-14
 -1      3617 7.02515E-03-2.25706E-04-4.04246E-14
 -1      3618 6.81105E-03-1.90049E-04-3.82363E-14
 -1      3619 7.16766E-03-2.24900E-04-4.19386E-14
 -1      3620 7.31010E-03-2.24023E-04-4.34738E-14
 -1      3621 7.09608E-03-1.88712E-04-4.12205E-14
 -1      3622 7.45248E-03-2.23071E-04-4.50286E-14
 -1      3623 7.59479E-03-2.22031E-04-4.66026E-14
 -1      3624 7.38079E-03-1.87116E-04-4.42896E-14
 -1      3625 7.73703E-03-2.20900E-04-4.81958E-14
 -1      3626 7.87921E-03-2.19666E-04-4.98064E-14
 -1      3627 7.66515E-03-1.85186E-04-4.74392E-14
 -1      3628 8.02132E-03-2.18325E-04-5.14339E-14
 -1      3629 8.16340E-03-2.16866E-04-5.30773E-14
 -1      3630 7.94915E-03-1.82838E-04-5.06602E-14
 -1      3631 8.30544E-03-2.15287E-04-5.47371E-14
 -1      3632 8.44749E-03-2.13581E-04-5.64106E-14
 -1      3633 8.23284E-03-1.79976E-04-5.39465E-14
 -1      3634 8.58956E-03-2.11746E-04-5.80991E-14
 -1      3635 8.73171E-03-2.09786E-04-5.98011E-14
 -1      3636 8.51632E-03-1.76499E-04-5.72936E-14
 -1      3637 8.87399E-03-2.07700E-04-6.15149E-14
 -1      3638 9.01649E-03-2.05511E-04-6.32416E-14
 -1      3639 8.79984E-03-1.72312E-04-6.06953E-14
 -1      3640 9.15928E-03-2.03219E-04-6.49791E-14
 -1      3641 9.30251E-03-2.00886E-04-6.67268E-14
 -1      3642 9.08388E-03-1.67354E-04-6.41464E-14
 -1      3643 9.44631E-03-1.98515E-04-6.84832E-14
 -1      3644 9.59084E-03-1.96229E-04-7.02517E-14
 -1      3645 9.36920E-03-1.61658E-04-6.76404E-14
 -1      3646 9.73631E-03-1.94041E-04-7.20272E-14
 -1      3647 9.88294E-03-1.92176E-04-7.38109E-14
 -1      3648 9.65698E-03-1.55447E-04-7.11745E-14
 -1      3649 1.00310E-02-1.90664E-04-7.56021E-14
 -1      3650 1.01808E-02-1.89878E-04-7.73992E-14
 -1      3651 9.94895E-03-1.49317E-04-7.47427E-14
 -1      3652 1.03326E-02-1.89883E-04-7.92058E-14
 -1      3653 1.04867E-02-1.91231E-04-8.10179E-14
 -1      3654 1.02475E-02-1.44515E-04-7.83392E-14
 -1      3655 1.06435E-02-1.94087E-04-8.28329E-14
 -1      3656 1.08030E-02-1.99111E-04-8.46533E-14
 -1      3657 1.05553E-02-1.43323E-04-8.19625E-14
 -1      3658 1.09658E-02-2.06333E-04-8.64782E-14
 -1      3659 1.11314E-02-2.16753E-04-8.83067E-14
 -1      3660 1.08757E-02-1.49278E-04-8.56048E-14
 -1      3661 1.13001E-02-2.30335E-04-9.01397E-14
 -1      3662 1.14707E-02-2.47504E-04-9.19797E-14
 -1      3663 1.12108E-02-1.67203E-04-8.92621E-14
 -1      3664 1.16856E-02-2.46855E-04-9.42487E-14
 -1      3665 1.18612E-02-2.71635E-04-9.60941E-14
 -1      3666 1.20231E-02-2.93787E-04-9.77911E-14
 -1      3667 1.21965E-02-3.19074E-04-9.96442E-14
 -1      3668 1.23751E-02-3.51669E-04-1.01699E-13
 -1      3669 1.25376E-02-3.60113E-04-1.03560E-13
 -1      3670 1.26744E-02-3.59046E-04-1.05273E-13
 -1      3671 1.28275E-02-3.36735E-04-1.07144E-13
 -1      3672 4.70848E-03 2.72129E-04-1.92987E-14
 -1      3673 4.56509E-03 2.72571E-04-1.82193E-14
 -1      3674 4.41446E-03 2.73012E-04-1.71168E-14
 -1      3675 4.26375E-03 2.73428E-04-1.60443E-14
 -1      3676 4.48529E-03 2.35075E-04-1.76673E-14
 -1      3677 5.28145E-03 2.70303E-04-2.39041E-14
 -1      3678 5.13828E-03 2.70764E-04-2.27098E-14
 -1      3679 5.56764E-03 2.69377E-04-2.63793E-14
 -1      3680 5.42456E-03 2.69842E-04-2.51281E-14
 -1      3681 5.35266E-03 2.32672E-04-2.45380E-14
 -1      3682 5.85367E-03 2.68428E-04-2.89660E-14
 -1      3683 5.71067E-03 2.68907E-04-2.76587E-14
 -1      3684 5.63890E-03 2.31853E-04-2.70393E-14
 -1      3685 6.13954E-03 2.67428E-04-3.16609E-14
 -1      3686 5.99662E-03 2.67936E-04-3.03008E-14
 -1      3687 5.92494E-03 2.31009E-04-2.96513E-14
 -1      3688 6.42525E-03 2.66339E-04-3.44544E-14
 -1      3689 6.28241E-03 2.66897E-04-3.30452E-14
 -1      3690 6.21079E-03 2.30115E-04-3.23691E-14
 -1      3691 6.71076E-03 2.65120E-04-3.73407E-14
 -1      3692 6.56803E-03 2.65749E-04-3.58869E-14
 -1      3693 6.49642E-03 2.29139E-04-3.51850E-14
 -1      3694 7.01030E-03 2.63657E-04-4.04646E-14
 -1      3695 6.86057E-03 2.64415E-04-3.88910E-14
 -1      3696 6.78894E-03 2.28019E-04-3.81634E-14
 -1      3697 7.29524E-03 2.62055E-04-4.35249E-14
 -1      3698 7.15281E-03 2.62884E-04-4.19840E-14
 -1      3699 7.08112E-03 2.26749E-04-4.12321E-14
 -1      3700 7.57973E-03 2.60240E-04-4.66636E-14
 -1      3701 7.43755E-03 2.61176E-04-4.50845E-14
 -1      3702 7.36576E-03 2.25355E-04-4.43106E-14
 -1      3703 7.86357E-03 2.58237E-04-4.98779E-14
 -1      3704 7.72174E-03 2.59261E-04-4.82622E-14
 -1      3705 7.64982E-03 2.23825E-04-4.74673E-14
 -1      3706 8.14649E-03 2.56134E-04-5.31581E-14
 -1      3707 8.00516E-03 2.57194E-04-5.15103E-14
 -1      3708 7.93308E-03 2.22226E-04-5.06968E-14
 -1      3709 8.42807E-03 2.54118E-04-5.64971E-14
 -1      3710 8.28747E-03 2.55106E-04-5.48192E-14
 -1      3711 8.21522E-03 2.20702E-04-5.39888E-14
 -1      3712 8.70771E-03 2.52531E-04-5.98948E-14
 -1      3713 8.56817E-03 2.53256E-04-5.81896E-14
 -1      3714 8.49578E-03 2.19520E-04-5.73403E-14
 -1      3715 8.98455E-03 2.51943E-04-6.33453E-14
 -1      3716 8.84654E-03 2.52087E-04-6.16144E-14
 -1      3717 8.77410E-03 2.19128E-04-6.07483E-14
 -1      3718 9.25738E-03 2.53260E-04-6.68400E-14
 -1      3719 9.12155E-03 2.52327E-04-6.50870E-14
 -1      3720 9.04930E-03 2.20238E-04-6.42073E-14
 -1      3721 9.53764E-03 2.58188E-04-7.05564E-14
 -1      3722 9.39845E-03 2.55211E-04-6.86931E-14
 -1      3723 9.32682E-03 2.24064E-04-6.77997E-14
 -1      3724 9.79617E-03 2.68331E-04-7.41312E-14
 -1      3725 9.66813E-03 2.62536E-04-7.23398E-14
 -1      3726 9.59797E-03 2.32293E-04-7.14339E-14
 -1      3727 1.00432E-02 2.86498E-04-7.77329E-14
 -1      3728 9.92141E-03 2.76369E-04-7.59296E-14
 -1      3729 9.85404E-03 2.46804E-04-7.50141E-14
 -1      3730 1.02743E-02 3.16007E-04-8.13658E-14
 -1      3731 1.01612E-02 2.99863E-04-7.95459E-14
 -1      3732 1.00988E-02 2.70528E-04-7.86239E-14
 -1      3733 1.04849E-02 3.57081E-04-8.50286E-14
 -1      3734 1.03829E-02 3.32926E-04-8.32020E-14
 -1      3735 1.03311E-02 3.02307E-04-8.22724E-14
 -1      3736 1.05542E-02 3.46193E-04-8.59548E-14
 -1      3737 1.26805E-03 1.75248E-04-1.81166E-15
 -1      3738 1.26409E-03 1.42536E-04-1.82917E-15
 -1      3739 1.38528E-03 1.33867E-04-2.15590E-15
 -1      3740 1.39374E-03 2.02585E-04-2.11798E-15
 -1      3741 3.25651E-03 2.73774E-04-9.73076E-15
 -1      3742 3.11223E-03 2.73106E-04-8.94970E-15
 -1      3743 1.32612E-03 2.85511E-04-1.82554E-15
 -1      3744 1.44601E-03 2.80894E-04-2.16114E-15
 -1      3745 2.67702E-03 2.68804E-04-6.78758E-15
 -1      3746 2.52879E-03 2.66297E-04-6.11718E-15
 -1      3747 2.38054E-03 2.63065E-04-5.48043E-15
 -1      3748 2.23229E-03 2.59020E-04-4.87772E-15
 -1      3749 2.45063E-03 2.27829E-04-5.82535E-15
 -1      3750 1.48525E-03-1.82379E-04-2.39300E-15
 -1      3751 1.60904E-03-1.93833E-04-2.74886E-15
 -1      3752 1.67705E-03-1.64784E-04-2.98874E-15
 -1      3753 1.48122E-03-1.47088E-04-2.41250E-15
 -1      3754 1.25655E-03-1.42137E-05-1.86110E-15
 -1      3755 1.25720E-03-4.51919E-05-1.85801E-15
 -1      3756 1.37889E-03 1.29047E-06-2.18400E-15
 -1      3757 4.99507E-03 2.71222E-04-2.15447E-14
 -1      3758 4.85180E-03 2.71679E-04-2.04077E-14
 -1      3759 4.77948E-03 2.34284E-04-1.98779E-14
 -1      3760 5.06619E-03 2.33482E-04-2.21499E-14
 -1      3761 2.96784E-03 2.72099E-04-8.20030E-15
 -1      3762 2.82337E-03 2.70710E-04-7.48249E-15
 -1      3763 3.03708E-03 2.34860E-04-8.60358E-15
 -1      3764 3.54478E-03 2.74376E-04-1.13836E-14
 -1      3765 3.40070E-03 2.74187E-04-1.05419E-14
 -1      3766 3.32617E-03 2.36091E-04-1.01644E-14
 -1      3767 1.10381E-02 1.59446E-04-8.91332E-14
 -1      3768 1.08889E-02 2.19982E-04-8.81339E-14
 -1      3769 1.07355E-02 2.81644E-04-8.71703E-14
 -1      3770 1.06286E-02 3.24732E-04-8.65681E-14
 -1      3771 1.25783E-03-7.01264E-05-1.85189E-15
 -1      3772 1.25979E-03-1.01488E-04-1.84260E-15
 -1      3773 1.38190E-03-1.10941E-04-2.15903E-15
 -1      3774 1.37960E-03-5.78294E-05-2.17685E-15
 -1      3775 2.08770E-03 2.54123E-04-4.32232E-15
 -1      3776 1.94322E-03 2.48184E-04-3.79938E-15
 -1      3777 2.15732E-03 2.20702E-04-4.63168E-15
 -1      3778 1.29065E-02-3.16887E-04-1.08220E-13
 -1      3779 1.51120E-03 2.54808E-04-2.38717E-15
 -1      3780 1.15985E-02-1.78520E-04-9.33622E-14
 -1      3781 1.30495E-02-2.65028E-04-1.09987E-13
 -1      3782 3.83264E-03 2.74286E-04-1.31591E-14
 -1      3783 3.68876E-03 2.74402E-04-1.22565E-14
 -1      3784 3.61481E-03 2.36461E-04-1.18482E-14
 -1      3785 1.05067E-02 3.01607E-04-8.47227E-14
 -1      3786 2.74579E-03 2.32319E-04-7.15838E-15
 -1      3787 1.51064E-03 1.58145E-04-2.49243E-15
 -1      3788 1.50724E-03 1.22805E-04-2.50883E-15
 -1      3789 4.12013E-03 2.73777E-04-1.50538E-14
 -1      3790 3.97644E-03 2.74074E-04-1.40916E-14
 -1      3791 3.90299E-03 2.36282E-04-1.36530E-14
 -1      3792 4.19074E-03 2.35778E-04-1.55763E-14
 -1      3793 1.15955E-02-1.31250E-04-9.34141E-14
 -1      3794 1.15346E-02-5.53655E-05-9.30039E-14
 -1      3795 1.13583E-02-3.66507E-05-9.12556E-14
 -1      3796 1.13800E-02-1.35679E-04-9.11506E-14
 -1      3797 1.07203E-02 2.23478E-04-8.62967E-14
 -1      3798 1.86787E-03 2.09836E-04-3.58201E-15
 -1      3799 1.79868E-03 2.40687E-04-3.30913E-15
 -1      3800 1.32598E-02-1.80706E-04-1.11829E-13
 -1      3801 1.62989E-03 1.09625E-04-2.88623E-15
 -1      3802 1.50472E-03 8.77892E-05-2.52008E-15
 -1      3803 1.50306E-03 5.30558E-05-2.52770E-15
 -1      3804 1.67271E-03 2.37177E-04-2.90292E-15
 -1      3805 1.11534E-02 3.08055E-05-8.94256E-14
 -1      3806 1.10997E-02 9.65397E-05-8.92797E-14
 -1      3807 1.09241E-02 9.86768E-05-8.74027E-14
 -1      3808 2.13371E-03-1.49612E-04-4.59920E-15
 -1      3809 2.27877E-03-1.52426E-04-5.16834E-15
 -1      3810 2.42395E-03-1.54709E-04-5.76878E-15
 -1      3811 2.56918E-03-1.56508E-04-6.40113E-15
 -1      3812 2.34903E-03-1.17124E-04-5.48278E-15
 -1      3813 2.71441E-03-1.57916E-04-7.06495E-15
 -1      3814 2.85959E-03-1.58969E-04-7.75935E-15
 -1      3815 2.63971E-03-1.19933E-04-6.74923E-15
 -1      3816 3.00470E-03-1.59747E-04-8.48476E-15
 -1      3817 3.14970E-03-1.60273E-04-9.24098E-15
 -1      3818 2.93034E-03-1.21584E-04-8.13989E-15
 -1      3819 3.29459E-03-1.60612E-04-1.00272E-14
 -1      3820 3.43936E-03-1.60780E-04-1.08440E-14
 -1      3821 3.22064E-03-1.22411E-04-9.65338E-15
 -1      3822 3.58399E-03-1.60827E-04-1.16909E-14
 -1      3823 3.72849E-03-1.60762E-04-1.25677E-14
 -1      3824 3.51045E-03-1.22676E-04-1.12876E-14
 -1      3825 3.87286E-03-1.60625E-04-1.34744E-14
 -1      3826 4.01709E-03-1.60419E-04-1.44110E-14
 -1      3827 3.79969E-03-1.22575E-04-1.30421E-14
 -1      3828 4.16119E-03-1.60171E-04-1.53769E-14
 -1      3829 4.30518E-03-1.59884E-04-1.63719E-14
 -1      3830 4.08838E-03-1.22251E-04-1.49158E-14
 -1      3831 4.44905E-03-1.59578E-04-1.73956E-14
 -1      3832 4.59281E-03-1.59251E-04-1.84481E-14
 -1      3833 4.37654E-03-1.21797E-04-1.69071E-14
 -1      3834 4.73647E-03-1.58918E-04-1.95296E-14
 -1      3835 4.88003E-03-1.58575E-04-2.06400E-14
 -1      3836 4.66422E-03-1.21280E-04-1.90129E-14
 -1      3837 5.02351E-03-1.58233E-04-2.17791E-14
 -1      3838 5.16690E-03-1.57886E-04-2.29464E-14
 -1      3839 4.95147E-03-1.20737E-04-2.12337E-14
 -1      3840 5.31021E-03-1.57540E-04-2.41418E-14
 -1      3841 5.45345E-03-1.57192E-04-2.53652E-14
 -1      3842 5.23835E-03-1.20187E-04-2.35684E-14
 -1      3843 5.59662E-03-1.56842E-04-2.66163E-14
 -1      3844 5.73972E-03-1.56487E-04-2.78938E-14
 -1      3845 5.52490E-03-1.19631E-04-2.60161E-14
 -1      3846 5.88276E-03-1.56126E-04-2.91977E-14
 -1      3847 6.02573E-03-1.55754E-04-3.05286E-14
 -1      3848 5.81115E-03-1.19063E-04-2.85728E-14
 -1      3849 6.16864E-03-1.55369E-04-3.18842E-14
 -1      3850 6.31148E-03-1.54965E-04-3.32631E-14
 -1      3851 6.09711E-03-1.18467E-04-3.12339E-14
 -1      3852 6.45425E-03-1.54539E-04-3.46662E-14
 -1      3853 6.59695E-03-1.54083E-04-3.60925E-14
 -1      3854 6.38278E-03-1.17814E-04-3.39945E-14
 -1      3855 6.73958E-03-1.53594E-04-3.75409E-14
 -1      3856 6.88212E-03-1.53061E-04-3.90110E-14
 -1      3857 6.66815E-03-1.17070E-04-3.68461E-14
 -1      3858 7.02458E-03-1.52481E-04-4.05037E-14
 -1      3859 7.16696E-03-1.51841E-04-4.20176E-14
 -1      3860 6.95317E-03-1.16189E-04-3.97873E-14
 -1      3861 7.30923E-03-1.51137E-04-4.35526E-14
 -1      3862 7.45140E-03-1.50352E-04-4.51075E-14
 -1      3863 7.23779E-03-1.15108E-04-4.28154E-14
 -1      3864 7.59346E-03-1.49480E-04-4.66831E-14
 -1      3865 7.73541E-03-1.48503E-04-4.82760E-14
 -1      3866 7.52195E-03-1.13746E-04-4.59268E-14
 -1      3867 7.87725E-03-1.47412E-04-4.98855E-14
 -1      3868 8.01897E-03-1.46184E-04-5.15132E-14
 -1      3869 7.80559E-03-1.11998E-04-4.91134E-14
 -1      3870 8.16058E-03-1.44808E-04-5.31568E-14
 -1      3871 8.30209E-03-1.43258E-04-5.48151E-14
 -1      3872 8.08867E-03-1.09720E-04-5.23673E-14
 -1      3873 8.44351E-03-1.41518E-04-5.64891E-14
 -1      3874 8.58488E-03-1.39564E-04-5.81763E-14
 -1      3875 8.37117E-03-1.06729E-04-5.56847E-14
 -1      3876 8.72622E-03-1.37372E-04-5.98760E-14
 -1      3877 8.86760E-03-1.34924E-04-6.15886E-14
 -1      3878 8.65318E-03-1.02794E-04-5.90585E-14
 -1      3879 9.00905E-03-1.32190E-04-6.33151E-14
 -1      3880 9.15071E-03-1.29171E-04-6.50514E-14
 -1      3881 8.93494E-03-9.76379E-05-6.24836E-14
 -1      3882 9.29265E-03-1.25832E-04-6.67992E-14
 -1      3883 9.43506E-03-1.22216E-04-6.85557E-14
 -1      3884 9.21692E-03-9.09681E-05-6.59575E-14
 -1      3885 9.57806E-03-1.18286E-04-7.03210E-14
 -1      3886 9.72194E-03-1.14169E-04-7.20980E-14
 -1      3887 9.49998E-03-8.25478E-05-6.94697E-14
 -1      3888 9.86689E-03-1.09831E-04-7.38839E-14
 -1      3889 1.00133E-02-1.05556E-04-7.56742E-14
 -1      3890 9.78552E-03-7.23395E-05-7.30221E-14
 -1      3891 1.01615E-02-1.01345E-04-7.74728E-14
 -1      3892 1.03119E-02-9.77328E-05-7.92788E-14
 -1      3893 1.00757E-02-6.07861E-05-7.66068E-14
 -1      3894 1.04649E-02-9.47696E-05-8.10911E-14
 -1      3895 1.06212E-02-9.33576E-05-8.29072E-14
 -1      3896 1.03737E-02-4.93595E-05-8.02185E-14
 -1      3897 1.08506E-02-5.67312E-05-8.56622E-14
 -1      3898 1.10166E-02-5.99266E-05-8.74916E-14
 -1      3899 1.12052E-02-1.21378E-04-8.93154E-14
 -1      3900 3.10693E-03 1.97368E-04-9.00906E-15
 -1      3901 2.96206E-03 1.96590E-04-8.25952E-15
 -1      3902 4.55991E-03 1.97110E-04-1.82449E-14
 -1      3903 4.40902E-03 1.97441E-04-1.71434E-14
 -1      3904 5.71020E-03 1.94368E-04-2.76998E-14
 -1      3905 5.56710E-03 1.94720E-04-2.64224E-14
 -1      3906 5.42393E-03 1.95067E-04-2.51723E-14
 -1      3907 5.28071E-03 1.95413E-04-2.39506E-14
 -1      3908 5.49527E-03 1.57505E-04-2.58076E-14
 -1      3909 6.28202E-03 1.92875E-04-3.30769E-14
 -1      3910 6.13916E-03 1.93268E-04-3.16953E-14
 -1      3911 6.56756E-03 1.92034E-04-3.59128E-14
 -1      3912 6.42482E-03 1.92465E-04-3.44832E-14
 -1      3913 6.35324E-03 1.55717E-04-3.37850E-14
 -1      3914 6.86705E-03 1.91050E-04-3.89862E-14
 -1      3915 6.71735E-03 1.91557E-04-3.74376E-14
 -1      3916 6.64580E-03 1.55016E-04-3.67140E-14
 -1      3917 7.15188E-03 1.90008E-04-4.19992E-14
 -1      3918 7.00952E-03 1.90543E-04-4.04825E-14
 -1      3919 6.93798E-03 1.54247E-04-3.97338E-14
 -1      3920 7.43620E-03 1.88872E-04-4.50963E-14
 -1      3921 7.29411E-03 1.89451E-04-4.35378E-14
 -1      3922 7.22258E-03 1.53440E-04-4.27666E-14
 -1      3923 7.71983E-03 1.87693E-04-4.82712E-14
 -1      3924 7.57811E-03 1.88286E-04-4.66744E-14
 -1      3925 7.50658E-03 1.52612E-04-4.58825E-14
 -1      3926 8.00253E-03 1.86579E-04-5.15142E-14
 -1      3927 7.86132E-03 1.87122E-04-4.98835E-14
 -1      3928 7.78981E-03 1.51844E-04-4.90732E-14
 -1      3929 8.28394E-03 1.85734E-04-5.48186E-14
 -1      3930 8.14342E-03 1.86113E-04-5.31596E-14
 -1      3931 8.07198E-03 1.51289E-04-5.23302E-14
 -1      3932 8.56358E-03 1.85504E-04-5.81828E-14
 -1      3933 8.42402E-03 1.85525E-04-5.64935E-14
 -1      3934 8.35275E-03 1.51209E-04-5.56491E-14
 -1      3935 8.84079E-03 1.86436E-04-6.16025E-14
 -1      3936 8.70254E-03 1.85797E-04-5.98858E-14
 -1      3937 8.63163E-03 1.52023E-04-5.90257E-14
 -1      3938 9.11470E-03 1.89369E-04-6.50688E-14
 -1      3939 8.97823E-03 1.87612E-04-6.33299E-14
 -1      3940 8.90800E-03 1.54370E-04-6.24539E-14
 -1      3941 9.39749E-03 1.95935E-04-6.87583E-14
 -1      3942 9.25682E-03 1.92140E-04-6.69074E-14
 -1      3943 9.18786E-03 1.59353E-04-6.60175E-14
 -1      3944 9.66066E-03 2.07299E-04-7.23120E-14
 -1      3945 9.52996E-03 2.00921E-04-7.05308E-14
 -1      3946 9.46321E-03 1.68359E-04-6.96292E-14
 -1      3947 9.91597E-03 2.25942E-04-7.58965E-14
 -1      3948 9.78950E-03 2.15639E-04-7.41011E-14
 -1      3949 9.72633E-03 1.82853E-04-7.31882E-14
 -1      3950 1.01612E-02 2.54549E-04-7.95133E-14
 -1      3951 1.00401E-02 2.38936E-04-7.77018E-14
 -1      3952 9.98275E-03 2.05222E-04-7.67808E-14
 -1      3953 1.03943E-02 2.83543E-04-8.30308E-14
 -1      3954 1.02737E-02 2.66653E-04-8.11956E-14
 -1      3955 1.02258E-02 2.30186E-04-8.02664E-14
 -1      3956 1.04636E-02 2.57291E-04-8.36406E-14
 -1      3957 1.55574E-03 1.85807E-04-2.60068E-15
 -1      3958 1.67790E-03 1.74084E-04-2.98904E-15
 -1      3959 2.22601E-03 1.86552E-04-4.93819E-15
 -1      3960 2.08110E-03 1.82841E-04-4.38041E-15
 -1      3961 1.95155E-03 1.82251E-04-3.90482E-15
 -1      3962 1.80686E-03 1.76536E-04-3.40808E-15
 -1      3963 1.76179E-03 1.48123E-04-3.28242E-15
 -1      3964 2.02061E-03 1.49446E-04-4.18404E-15
 -1      3965 1.31886E-02-2.24562E-04-1.10739E-13
 -1      3966 5.99623E-03 1.93645E-04-3.03378E-14
 -1      3967 5.85324E-03 1.94012E-04-2.90052E-14
 -1      3968 6.06752E-03 1.56347E-04-3.10232E-14
 -1      3969 1.84431E-03-1.42019E-04-3.55720E-15
 -1      3970 1.98886E-03-1.46168E-04-4.06217E-15
 -1      3971 2.05877E-03-1.12740E-04-4.34312E-15
 -1      3972 1.56089E-03 2.22457E-04-2.57620E-15
 -1      3973 1.50221E-03 1.85709E-05-2.53121E-15
 -1      3974 1.50218E-03-1.58476E-05-2.53081E-15
 -1      3975 1.62644E-03 3.73198E-05-2.90193E-15
 -1      3976 1.06900E-02 1.60339E-04-8.53010E-14
 -1      3977 1.05576E-02 2.17427E-04-8.43408E-14
 -1      3978 2.81528E-03 1.95481E-04-7.53186E-15
 -1      3979 2.66843E-03 1.94013E-04-6.83675E-15
 -1      3980 2.88543E-03 1.58342E-04-7.90864E-15
 -1      3981 3.39634E-03 1.98232E-04-1.06004E-14
 -1      3982 3.25170E-03 1.97908E-04-9.78927E-15
 -1      3983 3.17734E-03 1.59677E-04-9.41672E-15
 -1      3984 2.52154E-03 1.92087E-04-6.17421E-15
 -1      3985 2.37284E-03 1.89619E-04-5.53607E-15
 -1      3986 2.29731E-03 1.51806E-04-5.25671E-15
 -1      3987 2.59138E-03 1.55872E-04-6.51820E-15
 -1      3988 1.07487E-02-3.24889E-06-8.47848E-14
 -1      3989 1.04278E-02 2.05829E-04-8.26501E-14
 -1      3990 4.33992E-03 1.59672E-04-1.66739E-14
 -1      3991 4.26521E-03 1.97729E-04-1.61241E-14
 -1      3992 4.12130E-03 1.97991E-04-1.51333E-14
 -1      3993 5.20873E-03 1.58062E-04-2.33665E-14
 -1      3994 5.13742E-03 1.95756E-04-2.27577E-14
 -1      3995 4.99406E-03 1.96100E-04-2.15935E-14
 -1      3996 1.75877E-03 1.10342E-04-3.29779E-15
 -1      3997 3.68525E-03 1.98429E-04-1.23138E-14
 -1      3998 3.54086E-03 1.98401E-04-1.14422E-14
 -1      3999 3.46698E-03 1.60247E-04-1.10389E-14
 -1      4000 1.64774E-03-1.27011E-04-2.92659E-15
 -1      4001 1.74590E-03-1.34606E-04-3.23441E-15
 -1      4002 1.81555E-03-1.03315E-04-3.48621E-15
 -1      4003 1.46575E-03-1.15242E-04-2.39072E-15
 -1      4004 1.56328E-03-1.23217E-04-2.67088E-15
 -1      4005 1.63273E-03-9.38770E-05-2.89985E-15
 -1      4006 1.46426E-03-8.76900E-05-2.40145E-15
 -1      4007 5.78152E-03 1.56937E-04-2.83618E-14
 -1      4008 4.70351E-03 1.96785E-04-1.93232E-14
 -1      4009 4.62752E-03 1.59171E-04-1.87711E-14
 -1      4010 4.84703E-03 1.96448E-04-2.04298E-14
 -1      4011 1.46332E-03-6.03247E-05-2.40967E-15
 -1      4012 1.07478E-02 5.35350E-05-8.51168E-14
 -1      4013 1.07016E-02 1.06191E-04-8.49724E-14
 -1      4014 1.05288E-02 1.10664E-04-8.30228E-14
 -1      4015 1.05315E-02 7.78824E-06-8.23648E-14
 -1      4016 1.58644E-03-4.52398E-05-2.77618E-15
 -1      4017 2.07117E-03 1.13894E-04-4.39607E-15
 -1      4018 1.94139E-03 1.14687E-04-3.92108E-15
 -1      4019 2.56546E-03-8.22211E-05-6.43565E-15
 -1      4020 2.71091E-03-8.29701E-05-7.10086E-15
 -1      4021 2.85634E-03-8.35397E-05-7.79688E-15
 -1      4022 3.00169E-03-8.39451E-05-8.52393E-15
 -1      4023 2.78273E-03-4.56636E-05-7.45599E-15
 -1      4024 3.14695E-03-8.42273E-05-9.28126E-15
 -1      4025 3.29208E-03-8.43940E-05-1.00690E-14
 -1      4026 3.07356E-03-4.60983E-05-8.91080E-15
 -1      4027 3.43709E-03-8.44799E-05-1.08866E-14
 -1      4028 3.58195E-03-8.44876E-05-1.17344E-14
 -1      4029 3.36396E-03-4.62651E-05-1.04875E-14
 -1      4030 3.72666E-03-8.44454E-05-1.26124E-14
 -1      4031 3.87123E-03-8.43523E-05-1.35198E-14
 -1      4032 3.65381E-03-4.62527E-05-1.21840E-14
 -1      4033 4.01565E-03-8.42328E-05-1.44572E-14
 -1      4034 4.15993E-03-8.40805E-05-1.54238E-14
 -1      4035 3.94305E-03-4.61316E-05-1.40000E-14
 -1      4036 4.30408E-03-8.39128E-05-1.64201E-14
 -1      4037 4.44810E-03-8.37283E-05-1.74447E-14
 -1      4038 4.23171E-03-4.59313E-05-1.59348E-14
 -1      4039 4.59200E-03-8.35403E-05-1.84979E-14
 -1      4040 4.73578E-03-8.33423E-05-1.95802E-14
 -1      4041 4.51983E-03-4.57020E-05-1.79850E-14
 -1      4042 4.87945E-03-8.31445E-05-2.06907E-14
 -1      4043 5.02302E-03-8.29415E-05-2.18297E-14
 -1      4044 4.80746E-03-4.54563E-05-2.01491E-14
 -1      4045 5.16649E-03-8.27412E-05-2.29970E-14
 -1      4046 5.30988E-03-8.25373E-05-2.41931E-14
 -1      4047 5.09466E-03-4.52058E-05-2.24276E-14
 -1      4048 5.45318E-03-8.23339E-05-2.54177E-14
 -1      4049 5.59640E-03-8.21270E-05-2.66699E-14
 -1      4050 5.38147E-03-4.49495E-05-2.48206E-14
 -1      4051 5.73954E-03-8.19192E-05-2.79485E-14
 -1      4052 5.88260E-03-8.17050E-05-2.92534E-14
 -1      4053 5.66793E-03-4.46909E-05-2.73247E-14
 -1      4054 6.02559E-03-8.14853E-05-3.05849E-14
 -1      4055 6.16850E-03-8.12544E-05-3.19415E-14
 -1      4056 5.95408E-03-4.44208E-05-2.99366E-14
 -1      4057 6.31134E-03-8.10119E-05-3.33221E-14
 -1      4058 6.45409E-03-8.07512E-05-3.47262E-14
 -1      4059 6.23991E-03-4.41255E-05-3.26506E-14
 -1      4060 6.59676E-03-8.04705E-05-3.61529E-14
 -1      4061 6.73934E-03-8.01618E-05-3.76016E-14
 -1      4062 6.52541E-03-4.37841E-05-3.54601E-14
 -1      4063 6.88182E-03-7.98216E-05-3.90723E-14
 -1      4064 7.02420E-03-7.94395E-05-4.05653E-14
 -1      4065 6.81053E-03-4.33653E-05-3.83583E-14
 -1      4066 7.16646E-03-7.90100E-05-4.20798E-14
 -1      4067 7.30861E-03-7.85193E-05-4.36148E-14
 -1      4068 7.09523E-03-4.28227E-05-4.13442E-14
 -1      4069 7.45061E-03-7.79589E-05-4.51713E-14
 -1      4070 7.59248E-03-7.73103E-05-4.67471E-14
 -1      4071 7.37942E-03-4.20872E-05-4.44166E-14
 -1      4072 7.73418E-03-7.65608E-05-4.83397E-14
 -1      4073 7.87573E-03-7.56857E-05-4.99509E-14
 -1      4074 7.66299E-03-4.10571E-05-4.75670E-14
 -1      4075 8.01709E-03-7.46663E-05-5.15789E-14
 -1      4076 8.15828E-03-7.34704E-05-5.32228E-14
 -1      4077 7.94584E-03-3.95839E-05-5.07905E-14
 -1      4078 8.29928E-03-7.20706E-05-5.48809E-14
 -1      4079 8.44011E-03-7.04269E-05-5.65547E-14
 -1      4080 8.22785E-03-3.74551E-05-5.40776E-14
 -1      4081 8.58075E-03-6.85002E-05-5.82425E-14
 -1      4082 8.72124E-03-6.62445E-05-5.99408E-14
 -1      4083 8.50894E-03-3.43745E-05-5.74245E-14
 -1      4084 8.86160E-03-6.36060E-05-6.16535E-14
 -1      4085 9.00188E-03-6.05377E-05-6.33796E-14
 -1      4086 8.78909E-03-2.99432E-05-6.08244E-14
 -1      4087 9.14213E-03-5.69694E-05-6.51157E-14
 -1      4088 9.28246E-03-5.28702E-05-6.68624E-14
 -1      4089 9.06842E-03-2.36500E-05-6.42741E-14
 -1      4090 9.42296E-03-4.81527E-05-6.86202E-14
 -1      4091 9.56383E-03-4.28326E-05-7.03853E-14
 -1      4092 9.34730E-03-1.48968E-05-6.77682E-14
 -1      4093 9.70520E-03-3.68112E-05-7.21614E-14
 -1      4094 9.84744E-03-3.02110E-05-7.39478E-14
 -1      4095 9.62650E-03-3.06462E-06-7.13027E-14
 -1      4096 9.99071E-03-2.29300E-05-7.57411E-14
 -1      4097 1.01356E-02-1.53037E-05-7.75407E-14
 -1      4098 9.90748E-03 1.22919E-05-7.48726E-14
 -1      4099 1.02571E-02-7.57389E-06-7.90415E-14
 -1      4100 1.04060E-02 1.67905E-07-8.08529E-14
 -1      4101 1.04090E-02 4.97188E-05-8.11815E-14
 -1      4102 1.01679E-02 3.03236E-05-7.81686E-14
 -1      4103 1.03703E-02 1.56794E-04-8.14982E-14
 -1      4104 1.02861E-02 1.98324E-04-8.08008E-14
 -1      4105 1.11730E-02-1.87955E-05-8.93751E-14
 -1      4106 3.24828E-03 1.21803E-04-9.82645E-15
 -1      4107 3.10321E-03 1.21452E-04-9.04643E-15
 -1      4108 1.98455E-03-7.66527E-05-4.08998E-15
 -1      4109 2.12949E-03-7.85028E-05-4.62873E-15
 -1      4110 7.00889E-03 1.17589E-04-4.04815E-14
 -1      4111 6.86651E-03 1.17860E-04-3.89882E-14
 -1      4112 6.71688E-03 1.18135E-04-3.74429E-14
 -1      4113 6.56715E-03 1.18405E-04-3.59204E-14
 -1      4114 6.78796E-03 8.13747E-05-3.81699E-14
 -1      4115 6.42445E-03 1.18652E-04-3.44936E-14
 -1      4116 6.28167E-03 1.18892E-04-3.30899E-14
 -1      4117 6.49566E-03 8.16853E-05-3.52025E-14
 -1      4118 7.29326E-03 1.17054E-04-4.35337E-14
 -1      4119 7.15114E-03 1.17321E-04-4.19976E-14
 -1      4120 7.07979E-03 8.10786E-05-4.12304E-14
 -1      4121 7.57697E-03 1.16578E-04-4.66682E-14
 -1      4122 7.43521E-03 1.16807E-04-4.50909E-14
 -1      4123 7.36395E-03 8.08486E-05-4.43021E-14
 -1      4124 7.85982E-03 1.16272E-04-4.98752E-14
 -1      4125 7.71852E-03 1.16398E-04-4.82629E-14
 -1      4126 7.64740E-03 8.07605E-05-4.74534E-14
 -1      4127 8.14155E-03 1.16331E-04-5.31461E-14
 -1      4128 8.00085E-03 1.16247E-04-5.15023E-14
 -1      4129 7.92994E-03 8.09570E-05-5.06757E-14
 -1      4130 8.42181E-03 1.17069E-04-5.64773E-14
 -1      4131 8.28189E-03 1.16600E-04-5.48048E-14
 -1      4132 8.21132E-03 8.16693E-05-5.39609E-14
 -1      4133 8.70015E-03 1.18967E-04-5.98661E-14
 -1      4134 8.56125E-03 1.17850E-04-5.81644E-14
 -1      4135 8.49123E-03 8.32537E-05-5.73058E-14
 -1      4136 8.97605E-03 1.22732E-04-6.33049E-14
 -1      4137 8.83846E-03 1.20583E-04-6.15799E-14
 -1      4138 8.76930E-03 8.62381E-05-6.07055E-14
 -1      4139 9.26241E-03 1.29798E-04-6.69665E-14
 -1      4140 9.11973E-03 1.25812E-04-6.51299E-14
 -1      4141 9.05199E-03 9.15335E-05-6.42429E-14
 -1      4142 9.53125E-03 1.40904E-04-7.04991E-14
 -1      4143 9.39739E-03 1.34755E-04-6.87277E-14
 -1      4144 9.33188E-03 1.00194E-04-6.78280E-14
 -1      4145 9.79565E-03 1.58030E-04-7.40635E-14
 -1      4146 9.66411E-03 1.48641E-04-7.22768E-14
 -1      4147 9.60193E-03 1.13230E-04-7.13668E-14
 -1      4148 1.01626E-02 1.88827E-04-7.91210E-14
 -1      4149 1.75145E-03 5.72812E-05-3.29630E-15
 -1      4150 1.75056E-03 2.00552E-05-3.29997E-15
 -1      4151 3.97367E-03 1.98204E-04-1.41481E-14
 -1      4152 3.82952E-03 1.98359E-04-1.32165E-14
 -1      4153 3.75608E-03 1.60324E-04-1.27821E-14
 -1      4154 5.56665E-03 1.19993E-04-2.64461E-14
 -1      4155 5.42343E-03 1.20203E-04-2.51970E-14
 -1      4156 6.13881E-03 1.19123E-04-3.17097E-14
 -1      4157 5.99588E-03 1.19348E-04-3.03547E-14
 -1      4158 6.21012E-03 8.19820E-05-3.23965E-14
 -1      4159 2.27468E-03-8.00274E-05-5.19944E-15
 -1      4160 2.42003E-03-8.12468E-05-5.80176E-15
 -1      4161 2.20095E-03-4.35035E-05-4.91888E-15
 -1      4162 2.95619E-03 1.20920E-04-8.28818E-15
 -1      4163 2.80909E-03 1.20204E-04-7.56052E-15
 -1      4164 3.02752E-03 8.32636E-05-8.66947E-15
 -1      4165 5.85288E-03 1.19566E-04-2.90247E-14
 -1      4166 5.70980E-03 1.19782E-04-2.77214E-14
 -1      4167 5.92425E-03 8.22673E-05-2.96883E-14
 -1      4168 1.87445E-03 8.42909E-07-3.71793E-15
 -1      4169 1.74963E-03-1.77839E-05-3.29627E-15
 -1      4170 1.89362E-03-7.37953E-05-3.76814E-15
 -1      4171 1.96485E-03-4.03723E-05-4.03128E-15
 -1      4172 3.39324E-03 1.22035E-04-1.06373E-14
 -1      4173 3.31970E-03 8.37924E-05-1.02386E-14
 -1      4174 3.53806E-03 1.22152E-04-1.14782E-14
 -1      4175 2.36508E-03 1.18339E-04-5.55987E-15
 -1      4176 2.21803E-03 1.16350E-04-4.96146E-15
 -1      4177 2.13931E-03 8.14699E-05-4.67126E-15
 -1      4178 4.41124E-03 1.21623E-04-1.72002E-14
 -1      4179 4.26724E-03 1.21799E-04-1.61813E-14
 -1      4180 5.28013E-03 1.20410E-04-2.39760E-14
 -1      4181 5.13675E-03 1.20618E-04-2.27845E-14
 -1      4182 5.35159E-03 8.28139E-05-2.45879E-14
 -1      4183 2.73312E-03 8.22283E-05-7.21584E-15
 -1      4184 2.66193E-03 1.19235E-04-6.86529E-15
 -1      4185 2.51474E-03 1.18000E-04-6.20257E-15
 -1      4186 2.49172E-03-4.48446E-05-6.12469E-15
 -1      4187 1.79528E-03-6.80486E-05-3.43475E-15
 -1      4188 4.04825E-03 1.60084E-04-1.46680E-14
 -1      4189 1.00553E-02 1.83201E-04-7.76626E-14
 -1      4190 9.92619E-03 1.69535E-04-7.58603E-14
 -1      4191 9.86898E-03 1.32364E-04-7.49403E-14
 -1      4192 4.91830E-03 1.58623E-04-2.10100E-14
 -1      4193 5.63807E-03 8.25431E-05-2.70844E-14
 -1      4194 1.03910E-02 8.14004E-05-8.11788E-14
 -1      4195 1.03894E-02 1.28287E-04-8.15031E-14
 -1      4196 1.02396E-02 1.26733E-04-7.96593E-14
 -1      4197 1.02717E-02 7.00251E-05-7.96690E-14
 -1      4198 1.80973E-03 7.67877E-05-3.48361E-15
 -1      4199 1.71050E-03-6.60308E-05-3.15770E-15
 -1      4200 4.69888E-03 1.21242E-04-1.93243E-14
 -1      4201 4.55512E-03 1.21439E-04-1.82475E-14
 -1      4202 4.48275E-03 8.36022E-05-1.77277E-14
 -1      4203 1.01122E-02 1.48443E-04-7.81937E-14
 -1      4204 1.93405E-03 5.94681E-05-3.91913E-15
 -1      4205 3.05078E-03 1.86212E-05-8.80208E-15
 -1      4206 3.19609E-03 1.87193E-05-9.57107E-15
 -1      4207 3.34126E-03 1.87788E-05-1.03706E-14
 -1      4208 3.48631E-03 1.88376E-05-1.12001E-14
 -1      4209 3.87062E-03-7.96984E-06-1.35444E-14
 -1      4210 4.01513E-03-7.92296E-06-1.44828E-14
 -1      4211 4.21290E-03 1.89373E-05-1.58205E-14
 -1      4212 4.35705E-03 1.89417E-05-1.68280E-14
 -1      4213 4.50107E-03 1.89374E-05-1.78629E-14
 -1      4214 4.64498E-03 1.89393E-05-1.89279E-14
 -1      4215 5.02286E-03-7.58561E-06-2.18595E-14
 -1      4216 5.16637E-03-7.53273E-06-2.30269E-14
 -1      4217 5.36644E-03 1.89200E-05-2.47121E-14
 -1      4218 5.50973E-03 1.89171E-05-2.59489E-14
 -1      4219 5.65294E-03 1.89118E-05-2.72119E-14
 -1      4220 5.79606E-03 1.89105E-05-2.85023E-14
 -1      4221 5.93911E-03 1.89076E-05-2.98200E-14
 -1      4222 6.08208E-03 1.89094E-05-3.11631E-14
 -1      4223 6.22496E-03 1.89115E-05-3.25303E-14
 -1      4224 6.36776E-03 1.89208E-05-3.39222E-14
 -1      4225 6.51047E-03 1.89335E-05-3.53372E-14
 -1      4226 6.65309E-03 1.89586E-05-3.67752E-14
 -1      4227 6.80272E-03 1.89949E-05-3.83075E-14
 -1      4228 6.94512E-03 1.90523E-05-3.97898E-14
 -1      4229 7.08739E-03 1.91292E-05-4.12936E-14
 -1      4230 7.22953E-03 1.92446E-05-4.28188E-14
 -1      4231 7.37151E-03 1.93967E-05-4.43648E-14
 -1      4232 7.51332E-03 1.96137E-05-4.59308E-14
 -1      4233 7.65495E-03 1.98953E-05-4.75156E-14
 -1      4234 7.79636E-03 2.02824E-05-4.91182E-14
 -1      4235 7.93754E-03 2.07781E-05-5.07373E-14
 -1      4236 8.07847E-03 2.14406E-05-5.23737E-14
 -1      4237 8.21911E-03 2.22782E-05-5.40245E-14
 -1      4238 8.35946E-03 2.33716E-05-5.56902E-14
 -1      4239 8.49946E-03 2.47378E-05-5.73709E-14
 -1      4240 8.63912E-03 2.64845E-05-5.90626E-14
 -1      4241 8.77838E-03 2.86417E-05-6.07699E-14
 -1      4242 8.91729E-03 3.13480E-05-6.24887E-14
 -1      4243 9.06267E-03 3.48337E-05-6.43057E-14
 -1      4244 9.20079E-03 3.89301E-05-6.60487E-14
 -1      4245 9.33845E-03 4.38700E-05-6.78020E-14
 -1      4246 9.47590E-03 4.98116E-05-6.95655E-14
 -1      4247 9.61297E-03 5.68761E-05-7.13374E-14
 -1      4248 9.75006E-03 6.51648E-05-7.31180E-14
 -1      4249 9.88702E-03 7.48704E-05-7.49095E-14
 -1      4250 1.00244E-02 8.58674E-05-7.67074E-14
 -1      4251 1.01398E-02 8.72556E-05-7.81608E-14
 -1      4252 2.03547E-03 5.02378E-05-4.28932E-15
 -1      4253 1.97723E-03 3.04035E-05-4.08011E-15
 -1      4254 1.97610E-03-9.38725E-06-4.07688E-15
 -1      4255 2.18234E-03 5.14045E-05-4.84779E-15
 -1      4256 4.99149E-03 1.20828E-04-2.16067E-14
 -1      4257 4.84434E-03 1.21040E-04-2.04440E-14
 -1      4258 4.77219E-03 8.33509E-05-1.98931E-14
 -1      4259 5.06297E-03 8.30843E-05-2.21895E-14
 -1      4260 3.82727E-03 1.22160E-04-1.32510E-14
 -1      4261 3.68274E-03 1.22195E-04-1.23493E-14
 -1      4262 3.60953E-03 8.39873E-05-1.19196E-14
 -1      4263 2.90355E-03 1.85147E-05-8.05459E-15
 -1      4264 4.14099E-03 5.70505E-05-1.53283E-14
 -1      4265 2.75806E-03 1.83593E-05-7.34712E-15
 -1      4266 4.06931E-03 9.51900E-05-1.48371E-14
 -1      4267 3.92135E-03 9.52809E-05-1.38641E-14
 -1      4268 2.46519E-03 1.79490E-05-6.01721E-15
 -1      4269 2.61071E-03 1.81847E-05-6.66195E-15
 -1      4270 2.06711E-03-1.10905E-05-4.41123E-15
 -1      4271 5.29486E-03 5.64612E-05-2.41080E-14
 -1      4272 3.63120E-03 1.88675E-05-1.20596E-14
 -1      4273 3.77594E-03 1.88983E-05-1.29491E-14
 -1      4274 4.79055E-03 1.89334E-05-2.00354E-14
 -1      4275 4.93422E-03 1.89308E-05-2.11580E-14
 -1      4276 2.43604E-03 8.24161E-05-5.87789E-15
 -1      4277 2.21225E-03-1.13108E-05-4.96937E-15
 -1      4278 2.31533E-03 1.96146E-05-5.38538E-15
 -1      4279 3.84856E-03 5.71232E-05-1.34050E-14
 -1      4280 1.01539E-02 5.93552E-05-7.81651E-14
 -1      4281 5.00615E-03 5.66271E-05-2.17328E-14
 -1      4282 5.15145E-03 5.65428E-05-2.29131E-14
 -3
    1PSTEP                         2           1           1          
  100CL  101 1.000000000        4282                     0    1           1
 -4  STRESS      6    1
 -5  SXX         1    4    1    1
 -5  SYY         1    4    2    2
 -5  SZZ         1    4    3    3
 -5  SXY         1    4    1    2
 -5  SYZ         1    4    2    3
 -5  SZX         1    4    3    1
 -1         1-1.78765E+00-1.16291E+01-2.73678E+00 4.23443E+00-7.51732E-13-4.80171E-14
 -1         2-7.36182E-01-3.89123E+01-5.40211E+00-5.98646E-01 1.27032E-12 1.14797E-13
 -1         3 1.96853E+01-3.10127E-01-8.84879E-02-3.09533E-01 5.60258E-13 6.64230E-13
 -1         4 2.00624E+01 6.63923E-02-4.55445E-02-6.47273E-02 8.30586E-14 8.24193E-14
 -1         5 3.27683E+01 6.14280E+00 2.74222E+00 6.22409E+00-4.27366E-14 3.14317E-12
 -1         6 3.57520E+01 1.22632E+01 5.12507E+00-8.64628E+00-1.83423E-13 3.24080E-12
 -1         7 2.08202E+01 6.10011E+00-1.28498E-01-4.72484E+00-2.66592E-14 6.93438E-13
 -1         8 1.96731E+01 5.93535E+00 5.10261E-02-3.27382E+00-3.92464E-14-1.26880E-13
 -1         9 1.91384E+01 5.77222E+00 4.91957E-02-2.52546E+00-3.48905E-14-5.76114E-13
 -1        10 1.88952E+01 5.69217E+00 5.09574E-02-1.95008E+00-2.57901E-14-8.07352E-13
 -1        11 1.87733E+01 5.65113E+00 5.02498E-02-1.45523E+00-1.74765E-14-9.20272E-13
 -1        12 1.87095E+01 5.62941E+00 4.87962E-02-1.01444E+00-1.32008E-14-9.68548E-13
 -1        13 1.86756E+01 5.61786E+00 4.73920E-02-5.94880E-01-8.12555E-15-9.81700E-13
 -1        14 1.86613E+01 5.61297E+00 4.66539E-02-1.91036E-01-2.85649E-15-9.90123E-13
 -1        15 1.86618E+01 5.61313E+00 4.66937E-02 2.08043E-01 2.85731E-15-9.83943E-13
 -1        16 1.86771E+01 5.61834E+00 4.75193E-02 6.12707E-01 8.15613E-15-9.79355E-13
 -1        17 1.87122E+01 5.63015E+00 4.90437E-02 1.03421E+00 9.64506E-15-9.41710E-13
 -1        18 1.87775E+01 5.65231E+00 5.08066E-02 1.47809E+00 1.64300E-14-8.87400E-13
 -1        19 1.89012E+01 5.69385E+00 5.15358E-02 1.97911E+00 2.87270E-14-7.76355E-13
 -1        20 1.91433E+01 5.77472E+00 4.88141E-02 2.56273E+00 3.70051E-14-5.64368E-13
 -1        21 1.96687E+01 5.94994E+00 4.59885E-02 3.30787E+00 4.62547E-14-1.06257E-13
 -1        22 2.12029E+01 6.38181E+00 1.39777E-01 4.52244E+00 7.35523E-15 8.64118E-13
 -1        23 2.30311E+01-1.37931E+00-9.38351E-01-7.10990E-01-1.25389E-13 2.58349E-12
 -1        24 1.93694E+01-9.94863E-02-3.09828E-01 6.32372E-02-3.60701E-14 2.00162E-12
 -1        25 1.86819E+01-5.63250E-02-6.88178E-02 6.07359E-02-9.89486E-15 1.42221E-12
 -1        26 1.84803E+01-2.20962E-02-6.50766E-03 3.29995E-02 8.15645E-16 1.01784E-12
 -1        27 1.84927E+01-1.18066E-02 1.56716E-03 2.26269E-02-2.17135E-14 7.46665E-13
 -1        28 1.86080E+01-6.24330E-03 1.77358E-03 1.63346E-02-1.60705E-14 5.41541E-13
 -1        29 1.87690E+01-3.08677E-03 1.71575E-03 1.21962E-02 1.95304E-14 4.60864E-13
 -1        30 1.89446E+01-1.22835E-03 1.90082E-03 9.25059E-03 7.18819E-15 3.77361E-13
 -1        31 1.91169E+01-1.28285E-04 2.06522E-03 7.04017E-03-1.64591E-14 1.39151E-13
 -1        32 1.92761E+01 5.04205E-04 2.10192E-03 5.33251E-03-5.38156E-15-7.10350E-14
 -1        33 1.94173E+01 8.38999E-04 2.01868E-03 3.99678E-03 2.40996E-14-1.04393E-13
 -1        34 1.95387E+01 9.82265E-04 1.85399E-03 2.94974E-03-1.93261E-14-7.79235E-14
 -1        35 1.96403E+01 1.00356E-03 1.64420E-03 2.13222E-03-1.53480E-14-1.18802E-13
 -1        36 1.97234E+01 9.49544E-04 1.41627E-03 1.49869E-03-7.90087E-15-1.95964E-13
 -1        37 1.97901E+01 8.51540E-04 1.18814E-03 1.01241E-03-4.53253E-14-2.79448E-13
 -1        38 1.98425E+01 7.30064E-04 9.70391E-04 6.43249E-04-3.01699E-15-3.97972E-13
 -1        39 1.98831E+01 5.97840E-04 7.67917E-04 3.66609E-04-5.62539E-14-3.80959E-13
 -1        40 1.99141E+01 4.61941E-04 5.81296E-04 1.62892E-04 1.37651E-14-5.16224E-13
 -1        41 1.99379E+01 3.25423E-04 4.07957E-04 1.72424E-05 8.21142E-15-3.98224E-13
 -1        42 1.99566E+01 1.88636E-04 2.43139E-04-8.05809E-05-2.11861E-14-4.60513E-13
 -1        43 1.99722E+01 5.03878E-05 8.07533E-05-1.36211E-04-1.89414E-14-5.54893E-13
 -1        44 1.99869E+01-9.08954E-05-8.56989E-05-1.50573E-04 4.75830E-15-5.23780E-13
 -1        45 2.00029E+01-2.35846E-04-2.61938E-04-1.19758E-04 1.95884E-14-5.36130E-13
 -1        46 2.00223E+01-3.82507E-04-4.51213E-04-3.50193E-05 1.55189E-14-6.34625E-13
 -1        47 2.00475E+01-5.24187E-04-6.51773E-04 1.16853E-04 5.57640E-14-5.30763E-13
 -1        48 2.00808E+01-6.46695E-04-8.53145E-04 3.52305E-04 3.14139E-14-4.06690E-13
 -1        49 2.01245E+01-7.24938E-04-1.03084E-03 6.88198E-04 2.05168E-14-4.91564E-13
 -1        50 2.01802E+01-7.19136E-04-1.13935E-03 1.13628E-03-2.83149E-14-6.58528E-13
 -1        51 2.02486E+01-5.71434E-04-1.10384E-03 1.69346E-03-2.30296E-14-6.42966E-13
 -1        52 2.03284E+01-2.04533E-04-8.12099E-04 2.32621E-03 3.31460E-14-5.79262E-13
 -1        53 2.04147E+01 4.74684E-04-1.10712E-04 2.94780E-03-1.31924E-14-5.39400E-13
 -1        54 2.04980E+01 1.56193E-03 1.18698E-03 3.38872E-03-6.25820E-14-6.61447E-13
 -1        55 2.05615E+01 3.12665E-03 3.26852E-03 3.36532E-03-5.51926E-14-1.05770E-12
 -1        56 2.05800E+01 5.16171E-03 6.24891E-03 2.46019E-03 2.60429E-14-1.12441E-12
 -1        57 2.05188E+01 7.51101E-03 1.00420E-02 1.41812E-04 2.68004E-14-8.53507E-13
 -1        58 2.03359E+01 9.78791E-03 1.41826E-02-4.13433E-03 3.14181E-14-7.65072E-13
 -1        59 1.99873E+01 1.13220E-02 1.76559E-02-1.06994E-02 5.24592E-14-4.23351E-13
 -1        60 1.94389E+01 1.11996E-02 1.88565E-02-1.93087E-02-7.66882E-14-3.05616E-13
 -1        61 1.86838E+01 8.47407E-03 1.58626E-02-2.87273E-02 1.07385E-13-2.79322E-13
 -1        62 1.77618E+01 2.57901E-03 7.17581E-03-3.64982E-02-9.00110E-14-4.67048E-13
 -1        63 1.67736E+01-6.15716E-03-7.19934E-03-3.92534E-02-7.15803E-14-6.46965E-13
 -1        64 1.58787E+01-1.61757E-02-2.48923E-02-3.38042E-02 7.09088E-14-8.14723E-13
 -1        65 1.52684E+01-2.48505E-02-4.12804E-02-1.87330E-02-7.85253E-14-8.23989E-13
 -1        66 1.51153E+01-2.92440E-02-5.09184E-02 4.42566E-03 5.93033E-14-8.88268E-13
 -1        67 1.55158E+01-2.71044E-02-4.93081E-02 3.12510E-02 1.20168E-13-5.26636E-13
 -1        68 1.64443E+01-1.74518E-02-3.35656E-02 5.55618E-02 6.04237E-15-1.65153E-13
 -1        69 1.77315E+01-1.03228E-03-2.48897E-03 6.99247E-02-8.19879E-15-1.91392E-13
 -1        70 1.90507E+01 1.36411E-02 3.62897E-02 5.79218E-02-1.00926E-13-2.02883E-13
 -1        71 1.99360E+01-9.20020E-03 3.90534E-02 1.41240E-02 8.85144E-14-2.58378E-13
 -1        72 2.10436E+01-4.04898E-01-9.80437E-01-3.11673E-01 5.44703E-14 2.78921E-12
 -1        73 1.93339E+01-6.58841E-02-2.91115E-01-5.38452E-02 2.33615E-14 2.02261E-12
 -1        74 1.86914E+01-2.05096E-02-6.42688E-02-2.03503E-02 3.13777E-14 1.42386E-12
 -1        75 1.84895E+01-9.88393E-03-9.31793E-03-1.54509E-02 2.62225E-15 1.02916E-12
 -1        76 1.85017E+01-5.17171E-03 6.67584E-04-1.23854E-02 1.38358E-14 7.19050E-13
 -1        77 1.86161E+01-2.61724E-03 1.72933E-03-1.01211E-02 1.92277E-14 5.10538E-13
 -1        78 1.87762E+01-1.12443E-03 1.86186E-03-8.38256E-03-2.28245E-14 5.02814E-13
 -1        79 1.89512E+01-3.19715E-04 2.06815E-03-6.91825E-03 2.51343E-14 4.67769E-13
 -1        80 1.91303E+01 2.37272E-04 2.18569E-03-5.75324E-03-4.13770E-15 2.58304E-13
 -1        81 1.92880E+01 5.06906E-04 2.21693E-03-4.63016E-03 2.95730E-14 4.66209E-14
 -1        82 1.94274E+01 6.28501E-04 2.10389E-03-3.72848E-03 3.43624E-15-4.38269E-14
 -1        83 1.95471E+01 6.61582E-04 1.92001E-03-2.95239E-03-8.05716E-15-9.45056E-15
 -1        84 1.96471E+01 6.38366E-04 1.69536E-03-2.29660E-03-8.51769E-15-4.07961E-14
 -1        85 1.97288E+01 5.81824E-04 1.45606E-03-1.74951E-03 1.83651E-15-2.55589E-13
 -1        86 1.97941E+01 5.07030E-04 1.21976E-03-1.29803E-03 2.23579E-14-4.68942E-13
 -1        87 1.98453E+01 4.26872E-04 9.98197E-04-9.29633E-04-2.44835E-14-6.75866E-13
 -1        88 1.98848E+01 3.40710E-04 8.01285E-04-6.54514E-04-1.54627E-15-6.32129E-13
 -1        89 1.99158E+01 2.37901E-04 5.94795E-04-3.56538E-04-2.30012E-14-4.99203E-13
 -1        90 1.99380E+01 1.58196E-04 4.32318E-04-1.58418E-04 3.17105E-14-6.15481E-13
 -1        91 1.99550E+01 6.56979E-05 2.75188E-04 1.91249E-05-1.32928E-14-6.44905E-13
 -1        92 1.99687E+01-3.44560E-05 1.20765E-04 1.81556E-04-3.16786E-14-6.20054E-13
 -1        93 1.99814E+01-1.49421E-04-4.15033E-05 3.39179E-04-4.13368E-14-5.22536E-13
 -1        94 1.99951E+01-2.88707E-04-2.25417E-04 5.03451E-04 2.95680E-14-8.04913E-13
 -1        95 2.00124E+01-4.65707E-04-4.49780E-04 6.86841E-04 2.40613E-14-1.06442E-12
 -1        96 2.00365E+01-7.05622E-04-7.41973E-04 9.07837E-04 1.50294E-14-1.06473E-12
 -1        97 2.00714E+01-1.05917E-03-1.14366E-03 1.25782E-03-2.10197E-14-1.06560E-12
 -1        98 2.01260E+01-1.44314E-03-1.72888E-03 1.49862E-03-1.46882E-14-1.07332E-12
 -1        99 2.02029E+01-2.13833E-03-2.58921E-03 1.95989E-03-4.40317E-14-8.46442E-13
 -1       100 2.03157E+01-3.06031E-03-3.85863E-03 2.51431E-03 1.00166E-14-7.93241E-13
 -1       101 2.04808E+01-4.38615E-03-5.80328E-03 3.18484E-03 4.85904E-14-5.86169E-13
 -1       102 2.07227E+01-6.27781E-03-8.81816E-03 3.92479E-03-2.06568E-14-8.06261E-13
 -1       103 2.10778E+01-8.92169E-03-1.35299E-02 4.54391E-03-5.87855E-14-6.38451E-13
 -1       104 2.16006E+01-1.24523E-02-2.08879E-02 4.52181E-03-1.89815E-14-4.34586E-13
 -1       105 2.23704E+01-1.67093E-02-3.21935E-02 2.72389E-03 6.94566E-14-7.59929E-13
 -1       106 2.35008E+01-2.20420E-02-4.88069E-02-1.49038E-03 9.16032E-14-1.26524E-12
 -1       107 2.52337E+01-2.13815E-02-6.86341E-02-2.28537E-02-1.12638E-13-9.90739E-13
 -1       108 2.75721E+01-1.50145E-02-7.96459E-02-5.90990E-02-2.71408E-14-6.00256E-13
 -1       109 3.06348E+01 1.30642E-02-4.52828E-02-1.26951E-01 3.49263E-14-7.51052E-13
 -1       110 3.41011E+01 7.15900E-02 1.00964E-01-2.17142E-01 2.31065E-14-6.64233E-13
 -1       111 3.67425E+01 1.39209E-01 3.92717E-01-2.47367E-01 7.59462E-14-5.39679E-13
 -1       112 3.59793E+01 1.24916E-01 6.22174E-01-8.65626E-03-1.35211E-13-5.00072E-13
 -1       113 2.90345E+01-4.93635E-02 2.37917E-01 6.31419E-01 1.18798E-13-1.09246E-13
 -1       114 1.74192E+01-1.95664E-01-9.09408E-01 1.08579E+00 1.33400E-14 5.71349E-13
 -1       115 9.85943E+00-1.22045E-01-1.58240E+00 3.65494E-01-6.64503E-14 1.25725E-12
 -1       116 1.15882E+01-2.67844E-02-1.14802E+00-5.07723E-01-7.60017E-14 1.85313E-12
 -1       117 1.85751E+01 9.37164E-02-1.11939E-01-8.39540E-01 8.54207E-14 8.90676E-13
 -1       118 2.40293E+01 7.10693E-02 5.12618E-01-3.89146E-01 8.11426E-14-2.25792E-14
 -1       119 2.37022E+01-1.58576E-02 3.19405E-01 1.49085E-01 4.77201E-15-2.94827E-13
 -1       120 2.07957E+01 5.11803E-02 4.58031E-04 2.81611E-01-2.09825E-13 3.47992E-13
 -1       121 1.99088E+01 1.01223E+00-3.20072E-01 2.12716E-01 2.29119E-13-3.02213E-13
 -1       122 1.98915E+01 5.74406E+00-3.53496E-01 4.39056E-01-1.12668E-12 1.28788E-13
 -1       123 1.99941E+01 1.33209E+01 3.51533E-02 6.59182E-01-1.40415E-12-2.12091E-13
 -1       124 2.01426E+01 2.02777E+01 5.49017E-01 5.24641E-01-1.95124E-12 1.68546E-13
 -1       125 2.03106E+01 2.40513E+01 9.11371E-01 1.40167E-01-1.11777E-12 6.83481E-14
 -1       126 2.03205E+01 2.31146E+01 8.90621E-01-3.84537E-01-7.61891E-14-4.20601E-14
 -1       127 2.02073E+01 1.73255E+01 4.96559E-01-7.01801E-01-4.14335E-13 7.84667E-14
 -1       128 1.99976E+01 8.47940E+00-3.89973E-02-7.02093E-01-5.32213E-13-5.07224E-14
 -1       129 1.98584E+01-5.44156E-01-3.82585E-01-4.37177E-01-1.65284E-12-1.10273E-13
 -1       130 1.98447E+01-6.39110E+00-3.84590E-01-1.14454E-01-1.86080E-12-1.31223E-13
 -1       131 1.98788E+01-8.37018E+00-2.39575E-01 5.93686E-02-1.19292E-12 1.07977E-13
 -1       132 1.99301E+01-7.93669E+00-1.03227E-01 1.16964E-01-3.06564E-13 2.27679E-13
 -1       133 1.99704E+01-6.34957E+00-2.25272E-02 1.17853E-01 2.94070E-14 1.66531E-13
 -1       134 1.99966E+01-4.40585E+00 1.63817E-02 1.01026E-01 3.39104E-14-1.03571E-13
 -1       135 2.00180E+01-2.53347E+00 4.07098E-02 8.65679E-02 1.92187E-13-6.32979E-15
 -1       136 2.00269E+01-1.03487E+00 5.22163E-02 8.60855E-02 2.71224E-13-2.07588E-13
 -1       137 2.00287E+01-1.61594E-01 3.56265E-02 6.21608E-03 1.11506E-13 1.37547E-13
 -1       138-2.19861E+00-3.35964E+01-5.04948E+00-6.29212E+00 2.64949E-12 5.92755E-13
 -1       139-3.04630E+00-1.72480E+01-3.63789E+00-6.19273E+00 2.05169E-12 7.58921E-13
 -1       140 2.59202E+00 1.41993E+00-1.59932E+00 2.60100E+00 1.52234E-12 8.66085E-13
 -1       141 1.76771E+01 1.21197E+01 5.10078E-01 1.45417E+01-1.22902E-13-2.85438E-13
 -1       142 4.35284E+01 1.33487E+01 2.83025E+00 2.33120E+01-1.02457E-12-2.07800E-12
 -1       143 6.99980E+01 7.61318E+00 4.86659E+00 2.10537E+01-8.68153E-13-2.88297E-12
 -1       144 8.51456E+01 2.20519E+00 5.90588E+00 8.14880E+00-2.14218E-13-2.68006E-12
 -1       145 8.07344E+01 1.94292E+00 5.37158E+00-7.86691E+00 8.35716E-14-1.99368E-12
 -1       146 5.88342E+01 6.20665E+00 3.43662E+00-1.78471E+01 2.29677E-13-5.73763E-13
 -1       147 3.03386E+01 8.87838E+00 8.99576E-01-1.60819E+01-9.71445E-15 1.92069E-14
 -1       148 6.14941E+00 3.68529E+00-1.43740E+00-5.21055E+00-2.80886E-14 1.36113E-13
 -1       149-2.76025E+00-7.63540E+00-2.73519E+00 4.09592E+00-5.84199E-13 2.90268E-13
 -1       150-3.59340E+00-2.09251E+01-3.45413E+00 7.67278E+00-3.20743E-13 3.40630E-13
 -1       151-1.60954E+00-2.98060E+01-3.70664E+00 4.84402E+00 5.04582E-13-1.99620E-13
 -1       152-7.82900E-01-2.95705E+01-3.53432E+00-8.63854E-01 2.66315E-13 9.63465E-15
 -1       153-1.55492E+00-2.04765E+01-2.96133E+00-4.39394E+00 3.91298E-13 2.51382E-13
 -1       154-1.14586E+00-6.65133E+00-2.01952E+00-2.28326E+00 7.77933E-13 3.21021E-13
 -1       155 5.23977E+00 6.20708E+00-7.42679E-01 5.88709E+00-2.97540E-13-4.12115E-13
 -1       156 2.03006E+01 1.23855E+01 6.83508E-01 1.55903E+01-4.63463E-13-5.29576E-13
 -1       157 4.15043E+01 1.11182E+01 2.02319E+00 2.08364E+01 9.10383E-15 6.79456E-14
 -1       158 6.22363E+01 5.41022E+00 3.07152E+00 1.70261E+01 3.04742E-13 1.17323E-12
 -1       159 7.49336E+01 1.24930E+00 3.68614E+00 5.04244E+00 7.84824E-14 2.39878E-12
 -1       160 7.46387E+01 2.33516E+00 3.83091E+00-9.97599E+00-4.89261E-14 1.77716E-12
 -1       161 5.83583E+01 9.49139E+00 3.36120E+00-2.20473E+01-4.93161E-13 1.22141E-12
 -1       162 3.19140E+01 1.53382E+01 2.07529E+00-2.15233E+01-1.02829E-12 1.42586E-12
 -1       163 1.21745E+01 1.25408E+01 4.51245E-01-1.22678E+01-6.72129E-13 8.70526E-13
 -1       164 1.74507E+00 1.97876E+00-1.24179E+00-2.17255E+00-7.12985E-13 5.00655E-13
 -1       165-2.10382E+00-2.39448E+01-3.99741E+00 6.10226E+00-1.30784E-12 4.58689E-13
 -1       166-9.58865E-01-3.38386E+01-4.82894E+00 4.47202E+00 3.96905E-14 1.51656E-13
 -1       167 2.10149E+01 3.69393E+00-5.73258E-02-3.60938E+00-4.60181E-13 2.45821E-13
 -1       168 1.99921E+01 4.20786E+00-4.57108E-02-2.80842E+00-4.53205E-13-2.72844E-13
 -1       169 1.95095E+01 4.47716E+00-3.15935E-02-2.19330E+00-3.78155E-13-5.55717E-13
 -1       170 1.92671E+01 4.61535E+00-2.37661E-02-1.67453E+00-2.92280E-13-7.13165E-13
 -1       171 1.91366E+01 4.69703E+00-1.94970E-02-1.21836E+00-2.19264E-13-7.88046E-13
 -1       172 1.90623E+01 4.74810E+00-1.74086E-02-7.91515E-01-1.49506E-13-8.16586E-13
 -1       173 1.90248E+01 4.77598E+00-1.64144E-02-3.86594E-01-6.60959E-14-8.19247E-13
 -1       174 1.90138E+01 4.78452E+00-1.61271E-02 8.27224E-03 5.99305E-15-8.27611E-13
 -1       175 1.90265E+01 4.77471E+00-1.64607E-02 4.03478E-01 7.40510E-14-8.26861E-13
 -1       176 1.90659E+01 4.74515E+00-1.75148E-02 8.09471E-01 1.36437E-13-8.10389E-13
 -1       177 1.91409E+01 4.69271E+00-1.96835E-02 1.23075E+00 2.19338E-13-7.63812E-13
 -1       178 1.92770E+01 4.60553E+00-2.40037E-02 1.69730E+00 3.03478E-13-6.86465E-13
 -1       179 1.95245E+01 4.45969E+00-3.28476E-02 2.22561E+00 3.99316E-13-5.32177E-13
 -1       180 2.00145E+01 4.18389E+00-4.72063E-02 2.84589E+00 4.60938E-13-2.44037E-13
 -1       181 2.11366E+01 3.46362E+00-5.97696E-02 3.53596E+00 4.61976E-13 3.30354E-13
 -1       182 2.24210E+01 1.14327E+00-3.36457E-01 3.01426E+00 3.61971E-13 1.10630E-12
 -1       183 2.19735E+01 8.58182E-01 6.67123E-04-1.95839E+00-3.92377E-13 8.29236E-13
 -1       184 2.04496E+01 1.90181E-01-1.00037E-02-7.63607E-01-3.43997E-13 6.31159E-13
 -1       185 1.96746E+01 1.01720E-01 1.35364E-02-2.84999E-01-2.53930E-13 4.43516E-13
 -1       186 1.93356E+01 4.72042E-02 9.99150E-03-6.72120E-02-1.92084E-13 2.83959E-13
 -1       187 1.92067E+01 2.26128E-02 5.16048E-03 4.01677E-02-1.30862E-13 1.59879E-13
 -1       188 1.91941E+01 9.57766E-03 2.43338E-03 9.29210E-02-6.99676E-14 1.27621E-13
 -1       189 1.92436E+01 2.17906E-03 1.12933E-03 1.15437E-01-5.83369E-14 3.33873E-14
 -1       190 1.93238E+01-2.06169E-03 4.93703E-04 1.20482E-01-1.18632E-13-8.36532E-15
 -1       191 1.94158E+01-4.37851E-03 1.56763E-04 1.15456E-01-1.26114E-13-2.66714E-15
 -1       192 1.95084E+01-5.47504E-03-3.21243E-05 1.04937E-01-3.94151E-14-3.37171E-14
 -1       193 1.95952E+01-5.79269E-03-1.36389E-04 9.18462E-02-4.57925E-14-1.98493E-13
 -1       194 1.96728E+01-5.62401E-03-1.87771E-04 7.80457E-02-4.57563E-14-2.37632E-13
 -1       195 1.97399E+01-5.16716E-03-2.05194E-04 6.46969E-02-4.17037E-14-1.91145E-13
 -1       196 1.97963E+01-4.55573E-03-2.01013E-04 5.24860E-02-5.16298E-14-1.76678E-13
 -1       197 1.98427E+01-3.87692E-03-1.83484E-04 4.17824E-02-6.65538E-14-1.06048E-13
 -1       198 1.98802E+01-3.18387E-03-1.58051E-04 3.27511E-02 4.28473E-15-1.84305E-13
 -1       199 1.99101E+01-2.50455E-03-1.28167E-04 2.54360E-02-2.49927E-14-1.84258E-13
 -1       200 1.99341E+01-1.84860E-03-9.58753E-05 1.98198E-02 1.31954E-16-2.27366E-13
 -1       201 1.99535E+01-1.21284E-03-6.22549E-05 1.58674E-02-9.21182E-14-3.68675E-13
 -1       202 1.99700E+01-5.85788E-04-2.78029E-05 1.35550E-02-4.86492E-14-3.66699E-13
 -1       203 1.99852E+01 4.79902E-05 7.20545E-06 1.28872E-02 4.81191E-14-3.12083E-13
 -1       204 2.00006E+01 7.03092E-04 4.23383E-05 1.39012E-02-1.45236E-14-2.52071E-13
 -1       205 2.00180E+01 1.38722E-03 7.65716E-05 1.66570E-02-8.15914E-15-1.32636E-13
 -1       206 2.00390E+01 2.09298E-03 1.07767E-04 2.12078E-02 5.63251E-14-1.42928E-13
 -1       207 2.00652E+01 2.78646E-03 1.32053E-04 2.75466E-02-1.84799E-14-2.31218E-13
 -1       208 2.00982E+01 3.39183E-03 1.43155E-04 3.55167E-02-1.09055E-13-4.42627E-13
 -1       209 2.01392E+01 3.77158E-03 1.31774E-04 4.46802E-02-6.45172E-14-5.37875E-13
 -1       210 2.01886E+01 3.70361E-03 8.52823E-05 5.41326E-02 7.15419E-14-4.64500E-13
 -1       211 2.02456E+01 2.85955E-03-1.18170E-05 6.22655E-02-4.40549E-14-4.49173E-13
 -1       212 2.03073E+01 7.93921E-04-1.75996E-04 6.64931E-02 3.51872E-14-4.96723E-13
 -1       213 2.03680E+01-3.03740E-03-4.20511E-04 6.29965E-02-1.21705E-13-4.22667E-13
 -1       214 2.04178E+01-9.19926E-03-7.48185E-04 4.65972E-02-1.58344E-13-4.60074E-13
 -1       215 2.04420E+01-1.80985E-02-1.14126E-03 1.09596E-02-1.37748E-16-5.59818E-13
 -1       216 2.04204E+01-2.96625E-02-1.55022E-03-5.05824E-02 1.94514E-13-5.21267E-13
 -1       217 2.03282E+01-4.28668E-02-1.88656E-03-1.43221E-01 1.03170E-13-6.35025E-13
 -1       218 2.01386E+01-5.52052E-02-2.02772E-03-2.67650E-01 5.93761E-14-6.89701E-13
 -1       219 1.98284E+01-6.23692E-02-1.83910E-03-4.16031E-01 6.11609E-14-7.12416E-13
 -1       220 1.93871E+01-5.86128E-02-1.22105E-03-5.68036E-01 5.08517E-14-2.65942E-13
 -1       221 1.88273E+01-3.83448E-02-1.70511E-04-6.89326E-01-6.85475E-14-2.25881E-13
 -1       222 1.81954E+01 9.08014E-04 1.18096E-03-7.35644E-01-1.72022E-13-1.49885E-13
 -1       223 1.75740E+01 5.51325E-02 2.57777E-03-6.64768E-01-1.44367E-13-1.84562E-13
 -1       224 1.70733E+01 1.12356E-01 3.69003E-03-4.54561E-01-3.09930E-14-3.50084E-13
 -1       225 1.68057E+01 1.55297E-01 4.19832E-03-1.19650E-01 4.45733E-14-1.36201E-13
 -1       226 1.68517E+01 1.67567E-01 3.83514E-03 2.83094E-01 2.93061E-13-1.17218E-13
 -1       227 1.72278E+01 1.39223E-01 2.53387E-03 6.64351E-01 2.47331E-13-9.03795E-14
 -1       228 1.78709E+01 6.78427E-02 9.56774E-04 9.21222E-01-6.70536E-14-3.06857E-13
 -1       229 1.86442E+01-4.93737E-02-3.47854E-04 9.55092E-01-5.39837E-14-3.90844E-13
 -1       230 1.93902E+01-2.02996E-01 6.11810E-04 6.93047E-01 9.50984E-14-9.20264E-14
 -1       231 2.09655E+01 2.77004E-01-5.13263E-02 1.16435E+00 3.64004E-13 9.18095E-13
 -1       232 1.98713E+01 1.26851E-01 8.31239E-03 4.42647E-01 2.97261E-13 6.71964E-13
 -1       233 1.93656E+01 5.80885E-02 1.27352E-02 1.49547E-01 2.11454E-13 4.40971E-13
 -1       234 1.91567E+01 2.77525E-02 7.62889E-03 1.01875E-02 1.76306E-13 2.72123E-13
 -1       235 1.91077E+01 1.31133E-02 3.82274E-03-5.90515E-02 7.90716E-14 1.92302E-13
 -1       236 1.91445E+01 5.14588E-03 1.89795E-03-9.16055E-02-1.02635E-14 1.71514E-13
 -1       237 1.92247E+01 6.73045E-04 1.00756E-03-1.03533E-01 4.99479E-14 1.13004E-13
 -1       238 1.93287E+01-2.09585E-03 5.19345E-04-1.03230E-01 9.63327E-14 5.51611E-14
 -1       239 1.94312E+01-3.37158E-03 2.65658E-04-9.61319E-02 1.01288E-13-1.22078E-14
 -1       240 1.95290E+01-3.97011E-03 1.07785E-04-8.56586E-02 2.37254E-14-3.85854E-14
 -1       241 1.96175E+01-4.07600E-03 1.09878E-05-7.38368E-02 9.63425E-15 2.44189E-16
 -1       242 1.96946E+01-3.88667E-03-4.57929E-05-6.19433E-02 6.75027E-14-1.12131E-13
 -1       243 1.97598E+01-3.52773E-03-7.56820E-05-5.07584E-02 1.47545E-13-2.56281E-13
 -1       244 1.98136E+01-3.08278E-03-8.74518E-05-4.07231E-02 6.08606E-14-4.05260E-13
 -1       245 1.98572E+01-2.60562E-03-8.71613E-05-3.20527E-02 7.17881E-14-3.51549E-13
 -1       246 1.98919E+01-2.13448E-03-7.61982E-05-2.48221E-02-2.11956E-14-3.55191E-13
 -1       247 1.99204E+01-1.64572E-03-6.54576E-05-1.87866E-02-3.05269E-14-4.88726E-13
 -1       248 1.99417E+01-1.20084E-03-4.48456E-05-1.44568E-02 1.24752E-13-4.41410E-13
 -1       249 1.99590E+01-7.69709E-04-2.35896E-05-1.15048E-02-1.08643E-13-4.54885E-13
 -1       250 1.99739E+01-3.31047E-04 1.18119E-06-9.93044E-03-3.58158E-14-3.80061E-13
 -1       251 1.99881E+01 1.38537E-04 3.02706E-05-9.80338E-03-1.10239E-14-4.26384E-13
 -1       252 2.00037E+01 6.73931E-04 6.53462E-05-1.12872E-02 1.43836E-13-4.65189E-13
 -1       253 2.00229E+01 1.32351E-03 1.08948E-04-1.46760E-02 4.83047E-14-4.19126E-13
 -1       254 2.00484E+01 2.15380E-03 1.64482E-04-2.04474E-02 2.95523E-14-4.34716E-13
 -1       255 2.00838E+01 3.25631E-03 2.44698E-04-2.93044E-02-5.11348E-15-5.58796E-13
 -1       256 2.01367E+01 4.90739E-03 3.38021E-04-4.32218E-02-1.03225E-13-5.12213E-13
 -1       257 2.02091E+01 7.14018E-03 4.81149E-04-6.26857E-02-3.86795E-14-3.24978E-13
 -1       258 2.03118E+01 1.03917E-02 6.63137E-04-9.07083E-02-5.42590E-14-3.77998E-13
 -1       259 2.04577E+01 1.51727E-02 9.00689E-04-1.31201E-01-8.01103E-14-4.48710E-13
 -1       260 2.06647E+01 2.22707E-02 1.19201E-03-1.89924E-01 9.61092E-14-2.55966E-13
 -1       261 2.09583E+01 3.28199E-02 1.49647E-03-2.75340E-01-4.21054E-14-2.34773E-13
 -1       262 2.13740E+01 4.83430E-02 1.66944E-03-3.99521E-01 3.23543E-14-3.97278E-13
 -1       263 2.19601E+01 7.04823E-02 1.30496E-03-5.78672E-01 1.07830E-13-5.58659E-13
 -1       264 2.27783E+01 1.00545E-01-1.84411E-04-8.31417E-01 5.90031E-14-5.29116E-13
 -1       265 2.39627E+01 1.36162E-01-4.43282E-03-1.19108E+00-2.41499E-13-2.69786E-13
 -1       266 2.54627E+01 1.59898E-01-9.97251E-03-1.61128E+00-3.58979E-14-5.89153E-13
 -1       267 2.73162E+01 1.25752E-01-1.23346E-02-2.00344E+00 5.92531E-14-5.41817E-13
 -1       268 2.93558E+01-6.61746E-02 2.89164E-03-2.07770E+00-2.41812E-14-6.52627E-13
 -1       269 3.11168E+01-5.45628E-01 4.84561E-02-1.25679E+00 4.53491E-14-4.57878E-13
 -1       270 3.17505E+01-1.23823E+00 8.03886E-02 1.12075E+00-4.02040E-14-5.43589E-13
 -1       271 3.02677E+01-1.33833E+00-2.90453E-02 4.61265E+00-8.70849E-14-6.39454E-13
 -1       272 2.67609E+01 3.16312E-01-3.04516E-01 6.11964E+00-4.73302E-13-2.79186E-13
 -1       273 2.38727E+01 2.16022E+00-4.35202E-01 2.50574E+00-3.51594E-13 2.18589E-13
 -1       274 2.38206E+01 1.62694E+00-3.25752E-01-2.11570E+00-1.45134E-13 1.83038E-13
 -1       275 2.50051E+01-2.21268E-01-1.29707E-01-3.76643E+00 6.64205E-13 1.79471E-13
 -1       276 2.55139E+01-1.37446E+00 3.53453E-02-1.42463E+00 3.27866E-13-1.67505E-13
 -1       277 2.39525E+01-7.27771E-01 3.06366E-02 1.31656E+00 1.31864E-13-3.03004E-13
 -1       278 2.15513E+01 4.12898E-01-3.08259E-02 1.86732E+00-4.07535E-13-3.44853E-13
 -1       279 2.10901E+01 2.07352E+00-1.90681E-02 3.37807E+00-1.64049E-13-7.57771E-13
 -1       280 2.08125E+01 4.59524E+00 7.37418E-03 5.44469E+00-4.28987E-13-3.41582E-13
 -1       281 1.95712E+01 7.78493E+00 5.74988E-02 5.67811E+00-6.68930E-13-2.81265E-13
 -1       282 1.82084E+01 1.03236E+01 9.73723E-02 3.69340E+00-8.02348E-13 3.03917E-13
 -1       283 1.74753E+01 1.13395E+01 1.32357E-01-3.59609E-01-5.36301E-13 9.14421E-13
 -1       284 1.80261E+01 9.89507E+00 1.20210E-01-4.59692E+00-2.98227E-13 1.79162E-14
 -1       285 1.95184E+01 6.25435E+00 6.95127E-02-7.03767E+00-2.41751E-13-1.33678E-13
 -1       286 2.08943E+01 1.57787E+00 1.32965E-02-6.55550E+00-6.03805E-13-7.31894E-13
 -1       287 2.12599E+01-2.17017E+00-2.27652E-03-4.00079E+00-4.01856E-13-1.24994E-13
 -1       288 2.09396E+01-4.07766E+00 8.46832E-03-1.46678E+00-3.10347E-13 2.45347E-13
 -1       289 2.05141E+01-4.58527E+00 1.63747E-02 2.12443E-01-3.55691E-13 5.40580E-13
 -1       290 2.02081E+01-4.19825E+00 1.49868E-02 1.06048E+00-2.90657E-13 3.33454E-13
 -1       291 2.00337E+01-3.35142E+00 8.97749E-03 1.35616E+00 7.59419E-14 1.17441E-14
 -1       292 1.99396E+01-2.35343E+00 2.83963E-03 1.33358E+00 9.38381E-14 1.89391E-13
 -1       293 1.98558E+01-1.40319E+00-1.02639E-03 1.09752E+00 3.42126E-13-3.62616E-14
 -1       294 1.96773E+01-7.07338E-01-3.75210E-03 1.01301E+00 2.13814E-13-2.87293E-13
 -1       295-1.61103E+00-1.71214E+01-1.73101E+00 4.37759E-01 4.59424E-13 9.19931E-13
 -1       296 2.88272E+00-1.41107E+01-1.27842E+00 4.20751E+00 8.16680E-13 1.34920E-13
 -1       297 1.22144E+01-9.79939E+00-7.15146E-01 7.21891E+00 4.95493E-13-2.59084E-13
 -1       298 2.27277E+01-3.92928E+00-1.74943E-01 8.31966E+00 3.62710E-13-1.09862E-12
 -1       299 3.59099E+01 3.28981E-01 4.37984E-01 7.79428E+00 1.66867E-13-1.15646E-12
 -1       300 4.71496E+01 4.99997E+00 1.11961E+00 6.63132E+00-1.64954E-13-1.46100E-12
 -1       301 5.30961E+01 7.71191E+00 1.45854E+00 4.01937E+00-6.35936E-13-1.24764E-12
 -1       302 5.56963E+01 7.68746E+00 1.65276E+00 2.32407E+00-2.61041E-13-9.05220E-13
 -1       303 5.24061E+01 5.32171E+00 1.42088E+00-6.78054E-01-3.47763E-13-1.10473E-12
 -1       304 4.16691E+01 8.73398E-01 5.12454E-01-2.00277E+00-1.60025E-13-5.96745E-13
 -1       305 2.89727E+01-4.32572E+00-1.20902E-01-3.72438E+00-6.26166E-14 4.44089E-14
 -1       306 1.39856E+01-7.17445E+00-6.77771E-01-4.21531E+00-1.22902E-13-9.02056E-15
 -1       307 4.75632E+00-1.11026E+01-9.88872E-01-2.23687E+00 8.17679E-14 4.42389E-14
 -1       308-4.02466E-01-1.35718E+01-1.01142E+00-5.37119E-01 1.22624E-13 3.46362E-13
 -1       309-2.10231E+00-1.43172E+01-9.93361E-01 1.30229E+00 3.03689E-13-1.84186E-13
 -1       310-4.56338E-01-1.27744E+01-8.88985E-01 3.09342E+00 2.99094E-13 1.01572E-13
 -1       311 4.02312E+00-9.56692E+00-7.47747E-01 4.70030E+00 1.80689E-13 2.40256E-13
 -1       312 1.20801E+01-4.89786E+00-3.75791E-01 7.02297E+00 2.46192E-13-5.71820E-13
 -1       313 2.28426E+01-8.42318E-01-9.89326E-03 8.26915E+00 1.00475E-14-1.05305E-13
 -1       314 3.39485E+01 2.21115E+00 2.42508E-01 6.98313E+00-2.70881E-13 3.13277E-13
 -1       315 4.42454E+01 5.97896E+00 7.27918E-01 6.91257E+00-3.13978E-13 6.23779E-13
 -1       316 5.08765E+01 7.48322E+00 9.19263E-01 2.84171E+00-4.29740E-13 1.06148E-12
 -1       317 5.33017E+01 8.27016E+00 1.01161E+00-1.84330E+00 9.75886E-14 1.06340E-12
 -1       318 4.95600E+01 8.41982E+00 8.98550E-01-6.06579E+00 1.40457E-13 7.02022E-13
 -1       319 4.05831E+01 5.30315E+00 5.28791E-01-7.75310E+00-3.51207E-13 1.14631E-13
 -1       320 2.97128E+01 2.30894E+00 3.89325E-01-1.07434E+01-2.94015E-13 4.29712E-13
 -1       321 1.84709E+01-1.90012E+00-1.09215E-01-9.74756E+00-5.18141E-13 5.66713E-13
 -1       322 9.17979E+00-7.23768E+00-8.42136E-01-6.86502E+00-6.61637E-13 8.81573E-13
 -1       323 4.40264E+00-1.19059E+01-1.37755E+00-4.54227E+00-8.49987E-13-8.35165E-14
 -1       324 3.09644E-01-1.76951E+01-2.00170E+00-2.68514E+00-4.27713E-13 8.05245E-13
 -1       325-1.65208E+00-2.14174E+01-2.43928E+00-1.39297E+00-1.28508E-14 9.08856E-13
 -1       326 2.01463E+01 3.01537E+00-1.78521E-02-2.10904E+00-4.81756E-13-2.81822E-13
 -1       327 2.07575E+01 2.20819E+00-1.78120E-02-2.36232E+00-5.05191E-13 1.85026E-14
 -1       328 1.95834E+01 3.69236E+00-1.51368E-02-1.31614E+00-3.13021E-13-5.77509E-13
 -1       329 1.94593E+01 3.84916E+00-1.35827E-02-9.22859E-01-2.32245E-13-6.31268E-13
 -1       330 1.93899E+01 3.94007E+00-1.26791E-02-5.43401E-01-1.28356E-13-6.21605E-13
 -1       331 1.93591E+01 3.98142E+00-1.22820E-02-1.73090E-01-2.47193E-14-6.36915E-13
 -1       332 1.93604E+01 3.97980E+00-1.23047E-02 1.94236E-01 5.18429E-14-6.40890E-13
 -1       333 1.93940E+01 3.93485E+00-1.27519E-02 5.64910E-01 1.26218E-13-6.42753E-13
 -1       334 1.94652E+01 3.84149E+00-1.37601E-02 9.38604E-01 2.23841E-13-6.14603E-13
 -1       335 1.95927E+01 3.67913E+00-1.56492E-02 1.33244E+00 3.23124E-13-5.40741E-13
 -1       336 1.98089E+01 3.41028E+00-1.88284E-02 1.73759E+00 4.25117E-13-4.31109E-13
 -1       337 2.01802E+01 2.95534E+00-2.29378E-02 2.12614E+00 4.98872E-13-2.65930E-13
 -1       338 2.07505E+01 2.12942E+00-3.04663E-02 2.32122E+00 5.25292E-13 7.49852E-14
 -1       339 2.10973E+01 1.18768E+00-2.49177E-02 1.92114E+00 4.92002E-13 4.13605E-13
 -1       340 2.03940E+01 4.89312E-01 8.33429E-03 9.26504E-01 3.94946E-13 2.78539E-13
 -1       341 5.95886E+00-9.69189E+00-6.09035E-01-8.15152E+00-6.22280E-14 3.71189E-13
 -1       342 2.04600E+01 6.75812E-01 1.23560E-02-1.02430E+00-3.93246E-13 6.78786E-14
 -1       343 2.00393E+01 3.36878E-01 7.10806E-03-4.56663E-01-3.12349E-13 1.30501E-14
 -1       344 1.97853E+01 1.76675E-01 4.12705E-03-1.47554E-01-2.26722E-13-2.58428E-14
 -1       345 1.96504E+01 9.06783E-02 1.89816E-03 2.38490E-02-1.23729E-13-6.92452E-14
 -1       346 1.95955E+01 4.15464E-02 7.92713E-04 1.15200E-01-1.06474E-13-1.03627E-13
 -1       347 1.95907E+01 1.25564E-02 2.73467E-04 1.58541E-01-1.15456E-13-1.12401E-13
 -1       348 1.96152E+01-4.47546E-03 1.53983E-05 1.72745E-01-7.53365E-14-1.08830E-13
 -1       349 1.96551E+01-1.40129E-02-1.20021E-04 1.69531E-01-1.14508E-13-8.96673E-14
 -1       350 1.97013E+01-1.87318E-02-1.88661E-04 1.56435E-01-1.16479E-13-1.39986E-13
 -1       351 1.97481E+01-2.03497E-02-2.16724E-04 1.38372E-01-4.23043E-14-1.85087E-13
 -1       352 1.97922E+01-2.00142E-02-2.19355E-04 1.18534E-01-9.30852E-14-1.74468E-13
 -1       353 1.98318E+01-1.85025E-02-2.06400E-04 9.89442E-02-8.41692E-15-1.58828E-13
 -1       354 1.98661E+01-1.63365E-02-1.84424E-04 8.08354E-02-1.18726E-14-1.29997E-13
 -1       355 1.98952E+01-1.38551E-02-1.57711E-04 6.49077E-02-4.68309E-14-1.72485E-13
 -1       356 1.99195E+01-1.12627E-02-1.28902E-04 5.15194E-02-7.37408E-14-9.90239E-14
 -1       357 1.99396E+01-8.66611E-03-9.94633E-05 4.08246E-02-8.78771E-14-1.78829E-13
 -1       358 1.99564E+01-6.10242E-03-7.00163E-05 3.28727E-02-9.31322E-14-2.91144E-13
 -1       359 1.99708E+01-3.56128E-03-4.06343E-05 2.76781E-02-7.62446E-14-2.76363E-13
 -1       360 1.99840E+01-1.00471E-03-1.10967E-05 2.52646E-02 6.51924E-14-2.37615E-13
 -1       361 1.99970E+01 1.61317E-03 1.88486E-05 2.56878E-02 1.25492E-13-2.05024E-13
 -1       362 2.00108E+01 4.32323E-03 4.91879E-05 2.90325E-02 5.42997E-14-1.46544E-13
 -1       363 2.00266E+01 7.11226E-03 7.92625E-05 3.53820E-02-1.78106E-14-9.55327E-14
 -1       364 2.00457E+01 9.88421E-03 1.07285E-04 4.47504E-02-6.85128E-15-1.16890E-13
 -1       365 2.00691E+01 1.24083E-02 1.29732E-04 5.69678E-02-1.58741E-13-1.55905E-13
 -1       366 2.00979E+01 1.42526E-02 1.40627E-04 7.15037E-02-1.53095E-13-1.82454E-13
 -1       367 2.01326E+01 1.47054E-02 1.30819E-04 8.72176E-02 1.02025E-14-1.48307E-13
 -1       368 2.01736E+01 1.26953E-02 8.74780E-05 1.02029E-01 7.69787E-16-3.63103E-13
 -1       369 2.02200E+01 6.73719E-03-5.75010E-06 1.12526E-01 9.50401E-14-2.94800E-13
 -1       370 2.02697E+01-5.04409E-03-1.67221E-04 1.13555E-01 1.92773E-14-2.68970E-13
 -1       371 2.03190E+01-2.47250E-02-4.13410E-04 9.79248E-02-3.53267E-14-1.26035E-13
 -1       372 2.03612E+01-5.41003E-02-7.51526E-04 5.64461E-02-1.00373E-13-1.09679E-14
 -1       373 2.03867E+01-9.37575E-02-1.16826E-03-2.13377E-02-5.73388E-14-8.25650E-14
 -1       374 2.03821E+01-1.41609E-01-1.61560E-03-1.45223E-01 6.49797E-14-2.36459E-13
 -1       375 2.03304E+01-1.91015E-01-1.99895E-03-3.20716E-01 3.88903E-14-1.22891E-13
 -1       376 2.02124E+01-2.29126E-01-2.17800E-03-5.43512E-01-2.86146E-14-1.63305E-14
 -1       377 2.00097E+01-2.36793E-01-1.97780E-03-7.92835E-01 3.29852E-13-3.47080E-14
 -1       378 1.97115E+01-1.91981E-01-1.24783E-03-1.02606E+00 1.01768E-13 1.40613E-13
 -1       379 1.93237E+01-7.82780E-02 3.21013E-05-1.17908E+00-6.27057E-14 1.65594E-13
 -1       380 1.88794E+01 1.02526E-01 1.69645E-03-1.17794E+00-1.23479E-13 1.11249E-13
 -1       381 1.84432E+01 3.19896E-01 3.42206E-03-9.64068E-01-1.16607E-13 2.12221E-13
 -1       382 1.81022E+01 5.15849E-01 4.75784E-03-5.26448E-01 4.72448E-14 1.34847E-13
 -1       383 1.79400E+01 6.23168E-01 5.32920E-03 7.62642E-02 1.66831E-13 2.23945E-13
 -1       384 1.80040E+01 5.91647E-01 4.71493E-03 7.20800E-01 9.26971E-15 1.51964E-14
 -1       385 1.82863E+01 4.03284E-01 2.66343E-03 1.25007E+00-1.43644E-13-3.26612E-13
 -1       386 1.87272E+01 6.78843E-02 2.35909E-04 1.51683E+00 1.11992E-14-2.61555E-13
 -1       387 1.91764E+01-3.12198E-01-5.14023E-03 1.42519E+00-4.36684E-14-2.89565E-13
 -1       388 1.98928E+01 2.28556E-01 1.07969E-02 3.97763E-01 3.14916E-13 1.98384E-13
 -1       389 1.96048E+01 1.15433E-01 6.17732E-03 1.18961E-01 2.52460E-13 1.16810E-13
 -1       390 1.94708E+01 5.77575E-02 2.81004E-03-2.99944E-02 1.12078E-13 4.10232E-14
 -1       391 1.94316E+01 2.58776E-02 1.17378E-03-1.07019E-01 2.81348E-14-1.33115E-14
 -1       392 1.94481E+01 7.42745E-03 4.48293E-04-1.42306E-01 6.34883E-14-3.74125E-14
 -1       393 1.94977E+01-3.75900E-03 1.01158E-04-1.52991E-01 1.01479E-13-1.39843E-15
 -1       394 1.95590E+01-9.51481E-03-9.05936E-05-1.48378E-01 1.45022E-13-1.85084E-14
 -1       395 1.96242E+01-1.23108E-02-1.82400E-04-1.35889E-01 5.10645E-14-4.44083E-14
 -1       396 1.96872E+01-1.32125E-02-2.25792E-04-1.19550E-01 1.98823E-14-1.15206E-13
 -1       397 1.97448E+01-1.29225E-02-2.37312E-04-1.01960E-01 1.29615E-13-1.80977E-13
 -1       398 1.97954E+01-1.19228E-02-2.28879E-04-8.47541E-02 1.65290E-13-2.27718E-13
 -1       399 1.98384E+01-1.05378E-02-2.08612E-04-6.89122E-02 1.30300E-13-1.20843E-13
 -1       400 1.98743E+01-8.97931E-03-1.81857E-04-5.49739E-02 4.48400E-14-1.21325E-13
 -1       401 1.99037E+01-7.37340E-03-1.48152E-04-4.31993E-02-3.00146E-14-1.87229E-13
 -1       402 1.99285E+01-5.71398E-03-1.20757E-04-3.32541E-02 6.56596E-14-2.84600E-13
 -1       403 1.99477E+01-4.16090E-03-8.56874E-05-2.61133E-02 7.95069E-14-2.92320E-13
 -1       404 1.99638E+01-2.63019E-03-5.28903E-05-2.12358E-02 6.21168E-15-2.50156E-13
 -1       405 1.99782E+01-1.06294E-03-1.84004E-05-1.86748E-02-2.39348E-14-4.07029E-13
 -1       406 1.99921E+01 6.24743E-04 1.97389E-05-1.85727E-02-2.70010E-14-4.41428E-13
 -1       407 2.00074E+01 2.55253E-03 6.42303E-05-2.12183E-02 8.60047E-16-3.44943E-13
 -1       408 2.00257E+01 4.88732E-03 1.19007E-04-2.71079E-02 8.34012E-14-9.90446E-14
 -1       409 2.00493E+01 7.86468E-03 1.89663E-04-3.70289E-02 8.35746E-14-8.88510E-14
 -1       410 2.00811E+01 1.17886E-02 2.87381E-04-5.21381E-02 1.83638E-15-5.49932E-14
 -1       411 2.01271E+01 1.75606E-02 4.22104E-04-7.56089E-02-7.65041E-14 7.70507E-15
 -1       412 2.01881E+01 2.53290E-02 6.18027E-04-1.08041E-01-3.96232E-14-1.60824E-13
 -1       413 2.02720E+01 3.64477E-02 8.92759E-04-1.54170E-01 5.64116E-14-3.26376E-13
 -1       414 2.03871E+01 5.25572E-02 1.28663E-03-2.19830E-01-1.19238E-13-1.74887E-13
 -1       415 2.05446E+01 7.60370E-02 1.84703E-03-3.13409E-01-9.46905E-14 5.38161E-14
 -1       416 2.07588E+01 1.10190E-01 2.61961E-03-4.46848E-01 5.60190E-14 1.26415E-13
 -1       417 2.10480E+01 1.59198E-01 3.60989E-03-6.36555E-01 2.21040E-13-1.94543E-13
 -1       418 2.14343E+01 2.27279E-01 4.66650E-03-9.03622E-01 1.76934E-13-3.32383E-13
 -1       419 2.19434E+01 3.15678E-01 5.40822E-03-1.27080E+00 9.65135E-15-8.62918E-14
 -1       420 2.26352E+01 4.16749E-01 4.83359E-03-1.78003E+00-1.79726E-13-1.55851E-13
 -1       421 2.34685E+01 4.74988E-01 1.86197E-03-2.36472E+00 1.13503E-13-2.31557E-13
 -1       422 2.44962E+01 3.71706E-01-2.54090E-03-2.92746E+00-1.44355E-14-3.54507E-13
 -1       423 2.57762E+01-1.44848E-01-3.23008E-03-3.15267E+00 3.49807E-14-2.54544E-13
 -1       424 2.74451E+01-1.39038E+00 8.22072E-03-2.41698E+00-3.39815E-14-4.84028E-13
 -1       425 2.96377E+01-3.24376E+00 1.29377E-02 8.25096E-02 2.76040E-13-5.62519E-13
 -1       426 3.19133E+01-3.83615E+00-7.59956E-02 4.33827E+00-1.08670E-13-9.21162E-13
 -1       427 3.34043E+01 7.31975E-02-2.00800E-01 7.12040E+00-5.18724E-13-7.41324E-13
 -1       428 3.36387E+01 5.56056E+00-1.35016E-01 3.94414E+00-3.98737E-13-9.61616E-13
 -1       429 3.27349E+01 4.73364E+00-1.50622E-01-1.40759E+00-1.81910E-13-7.49727E-13
 -1       430 3.12194E+01-4.01359E-01-1.87602E-01-3.70081E+00 4.91773E-13-7.92776E-13
 -1       431 2.72434E+01-4.09183E+00-1.46651E-02 2.79726E+00 2.44619E-13-3.16955E-13
 -1       432 2.36067E+01-1.00218E+00 8.13372E-04 4.42137E+00-5.61565E-14-2.76522E-13
 -1       433 1.66889E+01 2.81181E+00 1.55052E-01 7.29256E+00-5.37605E-13-9.88168E-14
 -1       434 2.10516E+01 3.96053E-01 1.25262E-01 8.22336E+00-2.76381E-13-7.43974E-13
 -1       435 1.28302E+01 4.59879E+00 1.76426E-01 2.69235E+00-6.47831E-13 7.58310E-13
 -1       436 1.25389E+01 4.54460E+00 1.67643E-01-3.91876E+00-5.10939E-13 5.02237E-13
 -1       437 1.64063E+01 2.30809E+00 1.39284E-01-9.11484E+00-3.12281E-13 2.13017E-13
 -1       438 2.14672E+01-7.09306E-01 9.01288E-02-9.84997E+00-1.95087E-14-6.48311E-13
 -1       439 2.37504E+01-2.54106E+00 3.15295E-02-6.66851E+00 9.56110E-14-2.87107E-13
 -1       440 2.32750E+01-2.92827E+00 2.03265E-02-2.99155E+00 2.03138E-13 1.45451E-13
 -1       441 2.20292E+01-2.76427E+00 2.10515E-02-3.52541E-01-2.41170E-14 3.16673E-13
 -1       442 2.09745E+01-2.42427E+00 1.55655E-02 1.12885E+00-1.33970E-13 6.67800E-13
 -1       443 2.03095E+01-2.00151E+00 8.40661E-03 1.77990E+00 8.82727E-14 3.70276E-13
 -1       444 1.99311E+01-1.53117E+00 1.87546E-03 1.91755E+00 7.65792E-14 1.36628E-13
 -1       445 1.96909E+01-1.05266E+00-4.04581E-03 1.75266E+00 1.07828E-13 1.19086E-13
 -1       446 1.37436E+01-7.23842E+00 2.31251E-03 9.57153E+00-2.29095E-13-4.93758E-13
 -1       447 6.44121E-01-8.25465E+00-5.61534E-01-2.29637E+00-2.37275E-13 1.35736E-12
 -1       448 4.36478E+00-6.58506E+00-2.02020E-01 4.98782E+00-1.54043E-14 5.07205E-13
 -1       449 2.38600E+01-8.51028E+00-2.54861E-02 8.61407E+00 1.60455E-13-1.20907E-12
 -1       450 1.03223E+01-8.80258E+00-4.53558E-01-9.50281E+00-5.42733E-13 9.72417E-14
 -1       451 3.18664E+01-6.66816E+00-5.95710E-03 5.15853E+00 2.18867E-13-9.27453E-13
 -1       452 2.25607E+00-9.97715E+00-6.91529E-01-5.37758E+00-1.34087E-13 9.11521E-13
 -1       453 1.97875E+01 3.44016E+00-2.06910E-02-1.72493E+00-4.00807E-13-4.72544E-13
 -1       454 4.00696E+01 4.36688E+00 1.93244E-01-6.83706E-01-9.45077E-14-8.02552E-13
 -1       455 4.10181E+01 7.76208E+00 3.07477E-01 1.42754E+00-3.86829E-13-1.06354E-12
 -1       456 4.34216E+01 7.03563E+00 4.69902E-01 3.75051E+00-2.25014E-13-1.27370E-12
 -1       457 4.00189E+01 1.99932E+00 1.44918E-01 4.98516E+00-5.07663E-13-9.58233E-13
 -1       458 3.53598E+01-4.37057E+00-4.39949E-02 2.78120E+00-1.23606E-13-7.16927E-13
 -1       459 2.55681E+01-8.30038E+00-1.11323E-01-3.11963E+00 8.04912E-14-3.07962E-13
 -1       460 1.54470E+01-8.68040E+00-1.23034E-01-5.32051E+00 9.67282E-14 2.76400E-13
 -1       461 7.19034E+00-7.43150E+00-2.98919E-02-4.89750E+00 2.75585E-13 8.16708E-14
 -1       462 7.63064E-01-7.02148E+00-1.02679E-01-1.26265E+00 1.83811E-14 1.24289E-13
 -1       463 3.72137E-01-6.58179E+00-7.58213E-02 3.13144E+00 7.36355E-14 3.04756E-14
 -1       464 5.25536E+00-6.39268E+00-1.37690E-02 6.99716E+00 6.09651E-14 2.13801E-13
 -1       465 1.24402E+01-6.75872E+00-3.03316E-02 8.45310E+00 3.84137E-14-4.99243E-13
 -1       466 2.19898E+01-5.94165E+00-2.82958E-03 7.61686E+00 2.13843E-13-2.45193E-13
 -1       467 3.00843E+01-3.40632E+00-2.01013E-02 4.60843E+00-4.18207E-14 3.39104E-13
 -1       468 3.64164E+01 2.22703E+00 1.13702E-02 8.02814E-01-3.94178E-13 4.08257E-13
 -1       469 3.87382E+01 6.39302E+00-2.01769E-02-7.38726E-01-5.48728E-13 2.66107E-13
 -1       470 4.13685E+01 9.63380E+00 7.16245E-02-1.24290E+00-1.87350E-13 7.57519E-14
 -1       471 4.01083E+01 9.88155E+00 1.31593E-02-1.45054E+00 5.02182E-13 1.58373E-13
 -1       472 3.66714E+01 6.08927E+00-1.38273E-01-1.07757E+00 2.23155E-13-7.11237E-14
 -1       473 3.45791E+01-7.96267E-01 4.07305E-02-5.44830E+00 2.81889E-13-2.94542E-13
 -1       474 2.79557E+01-4.40461E+00 6.82135E-02-9.40174E+00 1.97758E-13-1.23623E-13
 -1       475 1.86496E+01-6.55721E+00-1.21981E-01-1.07449E+01-2.39364E-13 2.82510E-13
 -1       476 3.82400E+01-1.13091E+00 1.07385E-01 6.78409E-01 3.60743E-13-1.05216E-12
 -1       477 3.11935E+01-3.64007E+00-9.98696E-02-1.57891E+00 4.66325E-13-6.28650E-13
 -1       478 3.37238E+01 1.58879E+00-1.49109E-01-1.04288E+00 2.70228E-13-5.21479E-13
 -1       479 2.03748E+01 8.32150E-01 4.01101E-03 9.70783E-01 3.78887E-13-5.18861E-14
 -1       480 1.97314E+01 3.10488E+00-5.31924E-03-6.33297E-01-1.72695E-13-5.57158E-13
 -1       481 1.98282E+01 2.93155E+00-5.69386E-03-9.49206E-01-2.62342E-13-5.46641E-13
 -1       482 1.96632E+01 3.22758E+00-5.01839E-03 8.80773E-03 1.41720E-15-5.79485E-13
 -1       483 1.96819E+01 3.19453E+00-5.10098E-03 3.30078E-01 7.94268E-14-5.76088E-13
 -1       484 1.97360E+01 3.09763E+00-5.41117E-03 6.45192E-01 1.62847E-13-5.68444E-13
 -1       485 1.98351E+01 2.91965E+00-5.94250E-03 9.60562E-01 2.72534E-13-5.22954E-13
 -1       486 1.99911E+01 2.63442E+00-6.52525E-03 1.25557E+00 3.56731E-13-4.22107E-13
 -1       487 2.02340E+01 2.18808E+00-5.70342E-03 1.50026E+00 4.30676E-13-3.10069E-13
 -1       488 2.03462E+01 9.71531E-01 2.41525E-03-9.40874E-01-3.67401E-13-1.36548E-13
 -1       489 2.84048E+01-7.24400E+00 6.18497E-02 5.83640E+00 4.36942E-13-7.06386E-13
 -1       490 2.01134E+01 4.53810E-01 5.07583E-03 4.62726E-01 3.05726E-13-6.92508E-14
 -1       491 2.03951E+01 1.77300E+00-4.99389E-03-1.54775E+00-4.42391E-13-1.97243E-13
 -1       492 2.01730E+01 5.44345E-01 2.03930E-03-4.66241E-01-2.94719E-13-1.39960E-13
 -1       493 2.00260E+01 3.04064E-01 1.11149E-03-1.64761E-01-2.11961E-13-1.75389E-13
 -1       494 1.99254E+01 1.62030E-01 4.64091E-04 1.68949E-02-1.42258E-13-1.89351E-13
 -1       495 1.98668E+01 7.57124E-02 1.61860E-04 1.19673E-01-9.50579E-14-1.79322E-13
 -1       496 1.98396E+01 2.29266E-02 2.29390E-05 1.71150E-01-1.02700E-13-1.67130E-13
 -1       497 1.98335E+01-8.69072E-03-4.63272E-05 1.89864E-01-9.31739E-14-1.94792E-13
 -1       498 1.98407E+01-2.65538E-02-8.18528E-05 1.88323E-01-1.41541E-13-2.23441E-13
 -1       499 1.98554E+01-3.53957E-02-9.76367E-05 1.74986E-01-1.03617E-13-2.05762E-13
 -1       500 1.98735E+01-3.83713E-02-1.00905E-04 1.55546E-01-4.02471E-14-1.94996E-13
 -1       501 1.98925E+01-3.76296E-02-9.63476E-05 1.33772E-01-2.80965E-14-1.47737E-13
 -1       502 1.99108E+01-3.46376E-02-8.71885E-05 1.12095E-01-6.25822E-14-1.89509E-13
 -1       503 1.99276E+01-3.03790E-02-7.55766E-05 9.20232E-02-9.88108E-14-2.09915E-13
 -1       504 1.99425E+01-2.54862E-02-6.28703E-05 7.44403E-02-5.08181E-14-2.18077E-13
 -1       505 1.99555E+01-2.03338E-02-4.98707E-05 5.98311E-02-7.66136E-14-2.35857E-13
 -1       506 1.99669E+01-1.51107E-02-3.69465E-05 4.84425E-02-1.23038E-13-2.13470E-13
 -1       507 1.99769E+01-9.87513E-03-2.41787E-05 4.04001E-02-1.13614E-13-2.05245E-13
 -1       508 1.99862E+01-4.60125E-03-1.14681E-05 3.57875E-02 4.40273E-14-1.43583E-13
 -1       509 1.99951E+01 7.79142E-04 1.34685E-06 3.46957E-02 6.87082E-14-2.41193E-13
 -1       510 2.00044E+01 6.33135E-03 1.43891E-05 3.72412E-02 1.17276E-13-2.33456E-13
 -1       511 2.00148E+01 1.20644E-02 2.75929E-05 4.35527E-02 7.12732E-15-2.49848E-13
 -1       512 2.00268E+01 1.78626E-02 4.05268E-05 5.37184E-02-2.22070E-14-2.26944E-13
 -1       513 2.00414E+01 2.33960E-02 5.21544E-05 6.76849E-02-1.34431E-13-2.14668E-13
 -1       514 2.00593E+01 2.80033E-02 6.05348E-05 8.50940E-02-1.30366E-13-9.18058E-16
 -1       515 2.00816E+01 3.05497E-02 6.24788E-05 1.05042E-01-4.59943E-14 7.75047E-14
 -1       516 2.01091E+01 2.92700E-02 5.32154E-05 1.25748E-01-9.51805E-14 5.24995E-14
 -1       517 2.01429E+01 2.16320E-02 2.62042E-05 1.44135E-01-5.12962E-15 4.86462E-15
 -1       518 2.01838E+01 4.29139E-03-2.66808E-05 1.55339E-01 1.12793E-13 3.66510E-14
 -1       519 2.02326E+01-2.67341E-02-1.14195E-04 1.52233E-01-9.27686E-15 6.51271E-14
 -1       520 2.02894E+01-7.54686E-02-2.43473E-04 1.25119E-01-4.96490E-14-7.68199E-14
 -1       521 2.03530E+01-1.44688E-01-4.15476E-04 6.18831E-02-1.35013E-13 4.36595E-14
 -1       522 2.04196E+01-2.33654E-01-6.18823E-04-5.09063E-02-2.64387E-14 5.46503E-14
 -1       523 2.04817E+01-3.34774E-01-8.21704E-04-2.25292E-01 8.86706E-14 2.07726E-14
 -1       524 2.05249E+01-4.29713E-01-9.67496E-04-4.66833E-01 1.39973E-13 1.95874E-13
 -1       525 2.05274E+01-4.86752E-01-9.86316E-04-7.66765E-01 1.59400E-13 2.89749E-13
 -1       526 2.04605E+01-4.62630E-01-7.64491E-04-1.09248E+00 1.39262E-13 1.47373E-14
 -1       527 2.02956E+01-3.13209E-01-2.13233E-04-1.37991E+00 9.14509E-14-3.43337E-15
 -1       528 2.00193E+01-1.56619E-02 5.52442E-04-1.53534E+00-1.22043E-13 2.21096E-13
 -1       529 1.96525E+01 4.02907E-01 1.32590E-03-1.45661E+00-2.21157E-13 1.13817E-13
 -1       530 1.92620E+01 8.49307E-01 1.95471E-03-1.07723E+00-2.85343E-13-4.29793E-14
 -1       531 1.89454E+01 1.18293E+00 2.32315E-03-4.15628E-01 1.18467E-13-1.21016E-14
 -1       532 1.87898E+01 1.27190E+00 2.57951E-03 4.03526E-01 7.76885E-14-5.80406E-14
 -1       533 1.88255E+01 1.05184E+00 1.97579E-03 1.18563E+00-2.80792E-13-1.42620E-13
 -1       534 1.90263E+01 5.33953E-01-5.37320E-04 1.72292E+00-2.24759E-13-3.22687E-13
 -1       535 1.98118E+01 1.29222E-01 1.00321E-03-2.13753E-02 1.21865E-13-1.02587E-13
 -1       536 1.97541E+01 5.98821E-02 3.84520E-04-1.20218E-01 6.53310E-14-1.39619E-13
 -1       537 1.97355E+01 1.62351E-02 6.25192E-05-1.69908E-01 3.91828E-14-1.22930E-13
 -1       538 1.97427E+01-7.70421E-03-5.89775E-05-1.85421E-01 1.06836E-13-7.92090E-14
 -1       539 1.97638E+01-2.12330E-02-1.25546E-04-1.82229E-01 7.56266E-14-4.29452E-14
 -1       540 1.97917E+01-2.78602E-02-1.56232E-04-1.68312E-01 7.54864E-14-6.51639E-17
 -1       541 1.98217E+01-3.00306E-02-1.64832E-04-1.48949E-01 1.55589E-13-7.91555E-14
 -1       542 1.98512E+01-2.93940E-02-1.59589E-04-1.27614E-01 1.43543E-13-1.09340E-13
 -1       543 1.98783E+01-2.70731E-02-1.46086E-04-1.06525E-01 1.11491E-13-1.23923E-13
 -1       544 1.99023E+01-2.38212E-02-1.28289E-04-8.70384E-02 4.56447E-14-1.02702E-13
 -1       545 1.99231E+01-2.01301E-02-1.06191E-04-6.99287E-02 1.43880E-13-1.37603E-13
 -1       546 1.99416E+01-1.60780E-02-8.78223E-05-5.49902E-02 1.27947E-13-2.23923E-13
 -1       547 1.99566E+01-1.21875E-02-6.48071E-05-4.38268E-02-3.81878E-14-2.37230E-13
 -1       548 1.99695E+01-8.29806E-03-4.42349E-05-3.57736E-02 6.21945E-14-1.09662E-13
 -1       549 1.99813E+01-4.32426E-03-2.33566E-05-3.09339E-02 7.33867E-15-8.81588E-14
 -1       550 1.99926E+01-1.05542E-04-1.16877E-06-2.94965E-02 7.94529E-16-5.32038E-14
 -1       551 2.00046E+01 4.60536E-03 2.37095E-05-3.18006E-02-3.25957E-14-7.57058E-14
 -1       552 2.00182E+01 1.01585E-02 5.32032E-05-3.84114E-02-1.27363E-13-1.62659E-14
 -1       553 2.00348E+01 1.70411E-02 8.99912E-05-5.02111E-02-1.26744E-14 6.13333E-14
 -1       554 2.00559E+01 2.59133E-02 1.40738E-04-6.84834E-02 4.80687E-15 1.62240E-13
 -1       555 2.00845E+01 3.85049E-02 2.09381E-04-9.68085E-02-1.59040E-14 7.87831E-14
 -1       556 2.01202E+01 5.50884E-02 3.02871E-04-1.35445E-01-5.78105E-15 2.94452E-14
 -1       557 2.01660E+01 7.82246E-02 4.39415E-04-1.89389E-01 1.86731E-14 7.08498E-14
 -1       558 2.02242E+01 1.10950E-01 6.33939E-04-2.64354E-01-1.12068E-13 6.80212E-14
 -1       559 2.02965E+01 1.57546E-01 9.14277E-04-3.68237E-01-1.59974E-13-7.02947E-14
 -1       560 2.03835E+01 2.23871E-01 1.31395E-03-5.11866E-01 5.66035E-14-6.35317E-14
 -1       561 2.04835E+01 3.17354E-01 1.86289E-03-7.09619E-01 2.29180E-13-3.33385E-14
 -1       562 2.05904E+01 4.45909E-01 2.54468E-03-9.79550E-01 2.68574E-13-1.90087E-14
 -1       563 2.06921E+01 6.14103E-01 3.19641E-03-1.34204E+00 4.29263E-14 6.39586E-14
 -1       564 2.07697E+01 8.21914E-01 3.85193E-03-1.84183E+00-8.26382E-14-8.03117E-14
 -1       565 2.07920E+01 9.98114E-01 3.56175E-03-2.43899E+00 5.90950E-14-1.60376E-13
 -1       566 2.07769E+01 1.00733E+00 3.59828E-03-3.12289E+00 1.13114E-13-2.12472E-13
 -1       567 2.08278E+01 5.43882E-01 7.76272E-03-3.80248E+00 1.39333E-14-2.45649E-13
 -1       568 2.13935E+01-9.58766E-01 3.69708E-02-4.21680E+00 1.84127E-13-4.46673E-13
 -1       569 2.32924E+01-3.97278E+00 7.47515E-02-3.80444E+00 3.84581E-13-4.16776E-13
 -1       570 2.86525E+01-6.64132E+00 5.28277E-03-6.55822E-01 2.68431E-13-4.83766E-13
 -1       571 6.97994E+00 1.85635E-01 1.71445E-01-5.23810E-01-5.83369E-13 1.49919E-12
 -1       572 1.89452E+01-3.27610E+00 1.59626E-01 9.15708E+00-2.32592E-13-7.45133E-13
 -1       573 1.06258E+01-6.33648E-01 1.86854E-01-8.50237E+00-2.75460E-13 3.24685E-13
 -1       574 1.90164E+01-2.96133E+00 1.69249E-01-1.16532E+01 3.77962E-14-3.97321E-14
 -1       575 2.57414E+01-4.34944E+00 6.03983E-02-8.95557E+00 2.55847E-13-6.54512E-13
 -1       576 2.66880E+01-3.36009E+00-1.11076E-02-4.25801E+00 3.71803E-13 1.36037E-14
 -1       577 2.46089E+01-1.84234E+00 8.63042E-04-9.97763E-01 2.03817E-13-1.06097E-13
 -1       578 2.25132E+01-9.88018E-01 5.14139E-03 8.75461E-01 6.03711E-14 4.32536E-13
 -1       579 2.10576E+01-6.07209E-01 5.03507E-03 1.78621E+00 6.31369E-14 7.08422E-13
 -1       580 2.01756E+01-4.51438E-01 1.84862E-03 2.10883E+00 9.53928E-14 3.74589E-13
 -1       581 1.96709E+01-3.67988E-01 1.50657E-03 2.06594E+00 2.73072E-13 1.96493E-13
 -1       582 2.18715E+01-6.33995E+00-4.03992E-02 9.34803E+00-4.34652E-14-8.39953E-13
 -1       583 1.99264E+01 2.46581E-01 2.45901E-03 1.57233E-01 2.25290E-13-6.08003E-14
 -1       584 1.76185E+01-6.17717E+00 2.43858E-02-1.18833E+01-2.01478E-13 2.25861E-14
 -1       585 3.21058E+01-2.13909E+00-8.14228E-02 2.73254E-01-1.74371E-13 1.73618E-13
 -1       586 1.35467E+01-5.31136E+00 5.10391E-02-1.12057E+01-4.44089E-14 4.78104E-13
 -1       587 1.96790E+01 3.19895E+00-5.09033E-03-3.12557E-01-7.43059E-14-5.58909E-13
 -1       588 3.30933E+01 9.67285E+00-2.21847E-01-1.31005E+00 1.61135E-13-2.76901E-13
 -1       589 1.50427E+01-6.03576E+00 1.16157E-01-5.69858E+00 2.84717E-13 1.77372E-13
 -1       590 6.26699E+00-3.45620E+00 1.79844E-01-3.66600E+00 1.48631E-14 1.05999E-13
 -1       591 3.52660E+00-2.03812E+00 2.14458E-01 6.26712E-01-5.39577E-14-1.00850E-13
 -1       592 5.50775E+00-2.61091E+00 1.97869E-01 5.36903E+00-1.10523E-13 1.23984E-13
 -1       593 1.24592E+01-4.51640E+00 1.65750E-01 8.26306E+00-1.33712E-14-2.03580E-13
 -1       594 1.93619E+01-6.17974E+00 8.72858E-02 7.98301E+00 6.07778E-14-2.51854E-13
 -1       595 2.70085E+01-6.01133E+00-7.69676E-03 4.72278E+00-4.26673E-14 2.42448E-13
 -1       596 3.35758E+01 3.47756E+00-1.51997E-01-2.35086E+00-3.44925E-13-2.49599E-13
 -1       597 3.33605E+01 7.99932E+00-1.92118E-01-2.55054E+00-2.87104E-13-3.15789E-13
 -1       598 3.19546E+01 7.89633E+00-2.23025E-01 2.02284E-01 5.53196E-13-1.41321E-13
 -1       599 3.07470E+01-4.52102E+00 3.47781E-03-6.51234E+00 4.51486E-13-5.24768E-13
 -1       600 2.05867E+01 1.30531E+00-9.99309E-04 1.54685E+00 4.71394E-13-9.81788E-15
 -1       601 2.47079E+01-6.29433E+00 4.42652E-02-1.06661E+01 1.33560E-13-2.61707E-13
 -1       602 1.19640E+01-1.63355E+00 1.69064E-01 7.60969E+00-5.59122E-13-2.41460E-13
 -1       603 1.99777E+01 2.66818E+00-6.05878E-03-1.25375E+00-3.38287E-13-4.78498E-13
 -1       604 1.92481E+01-5.88180E-02-4.30222E-04 1.87196E+00 2.91655E-14-2.90050E-13
 -1       605 2.07583E+01-6.44007E+00 1.00513E-01-4.75698E+00 4.25923E-13-3.75370E-13
 -1       606 3.10343E+01-1.87925E+00-7.86176E-02-2.40287E+00 4.77753E-13-2.79499E-13
 -1       607 1.23008E+01-3.00849E+00 1.93081E-01-5.07294E+00 1.84443E-13 1.33560E-13
 -1       608 3.01539E+01-6.40291E+00-9.23062E-03 3.59650E+00 5.21042E-13-5.10432E-13
 -1       609 3.07371E+01 4.75769E+00-1.49027E-01 7.56653E-01 3.32984E-13-1.00420E-13
 -1       610 1.99584E+01 2.45023E+00-1.59158E-03 3.93603E-01 1.12854E-13-5.07653E-13
 -1       611 1.99263E+01 2.52521E+00-1.51656E-03 1.35538E-01 3.53426E-14-5.08592E-13
 -1       612 2.01195E+01 2.04666E+00-1.57968E-03 8.49289E-01 2.77177E-13-4.02835E-13
 -1       613 2.02395E+01 1.67581E+00-2.21652E-03 9.90556E-01 3.47863E-13-3.20247E-13
 -1       614 2.02935E+01 1.12090E+00 2.87208E-04-7.64175E-01-3.23955E-13-2.95126E-13
 -1       615 2.03199E+01 1.03718E+00 2.86014E-03 8.30183E-01 3.37683E-13-2.30848E-13
 -1       616 1.99409E+01 2.24610E-02 5.53785E-06-1.73151E-01 5.02773E-14-2.27066E-13
 -1       617 2.02399E+01 6.74072E-01 5.62271E-04-3.92062E-01-2.56193E-13-2.82741E-13
 -1       618 2.01677E+01 3.92308E-01 2.35624E-04-1.37970E-01-1.63901E-13-2.36801E-13
 -1       619 2.01022E+01 2.12819E-01 6.84603E-05 2.39497E-02-8.86445E-14-2.15115E-13
 -1       620 2.00518E+01 9.84940E-02 7.73188E-06 1.19035E-01-7.63587E-14-2.34765E-13
 -1       621 2.00167E+01 2.66732E-02-1.51172E-05 1.67826E-01-1.14608E-13-2.25912E-13
 -1       622 1.99940E+01-1.68591E-02-2.61894E-05 1.85859E-01-1.22607E-13-2.12533E-13
 -1       623 1.99807E+01-4.14170E-02-3.16160E-05 1.84408E-01-8.80002E-14-1.37000E-13
 -1       624 1.99741E+01-5.33106E-02-3.32091E-05 1.71449E-01-7.46049E-14-2.02186E-13
 -1       625 1.99719E+01-5.68998E-02-3.21654E-05 1.52499E-01-5.68841E-14-2.87833E-13
 -1       626 1.99725E+01-5.52100E-02-2.94901E-05 1.31273E-01-5.78083E-14-2.77173E-13
 -1       627 1.99748E+01-5.03210E-02-2.59143E-05 1.10201E-01-3.98486E-14-1.40425E-13
 -1       628 1.99780E+01-4.36227E-02-2.18882E-05 9.08052E-02-1.00090E-13-1.42153E-13
 -1       629 1.99816E+01-3.59953E-02-1.77389E-05 7.40012E-02-1.21591E-13-2.56233E-13
 -1       630 1.99855E+01-2.79464E-02-1.36211E-05 6.03149E-02-7.02957E-14-2.60654E-13
 -1       631 1.99893E+01-1.97177E-02-9.61135E-06 5.00446E-02-8.52219E-14-9.01782E-14
 -1       632 1.99932E+01-1.13680E-02-5.66867E-06 4.33749E-02-6.37304E-14-1.63236E-13
 -1       633 1.99972E+01-2.84458E-03-1.73244E-06 4.04553E-02-2.78630E-14-2.45505E-13
 -1       634 2.00013E+01 5.94663E-03 2.27591E-06 4.14469E-02 1.11224E-13-3.00619E-13
 -1       635 2.00059E+01 1.50635E-02 6.38281E-06 4.65349E-02 1.44777E-13-3.38782E-13
 -1       636 2.00112E+01 2.44345E-02 1.05481E-05 5.59071E-02 5.48664E-14-1.40423E-13
 -1       637 2.00177E+01 3.37383E-02 1.45933E-05 6.96901E-02-1.60649E-13-1.80418E-13
 -1       638 2.00259E+01 4.22481E-02 1.81134E-05 8.78329E-02-1.62671E-14-1.80503E-13
 -1       639 2.00367E+01 4.86342E-02 2.03651E-05 1.09923E-01 7.02486E-15-4.56562E-14
 -1       640 2.00516E+01 5.07315E-02 2.01324E-05 1.34920E-01-1.79891E-15 1.25120E-13
 -1       641 2.00724E+01 4.53010E-02 1.55862E-05 1.60782E-01-4.94797E-14 2.16566E-13
 -1       642 2.01020E+01 2.78524E-02 4.20344E-06 1.83994E-01-3.96044E-14 3.55672E-14
 -1       643 2.01443E+01-7.33947E-03-1.72202E-05 1.98992E-01 6.41577E-14-1.16295E-13
 -1       644 2.02041E+01-6.67933E-02-5.22262E-05 1.97557E-01-9.11816E-14-1.59680E-13
 -1       645 2.02871E+01-1.56609E-01-1.03712E-04 1.68314E-01 6.44242E-14 4.89671E-14
 -1       646 2.03986E+01-2.80021E-01-1.70110E-04 9.66384E-02-1.90375E-13 1.16183E-13
 -1       647 2.05413E+01-4.33259E-01-2.43650E-04-3.44600E-02 7.77256E-15 2.36204E-13
 -1       648 2.07110E+01-5.99602E-01-3.05491E-04-2.41485E-01 3.71154E-14 9.77123E-14
 -1       649 2.08913E+01-7.42672E-01-3.29220E-04-5.34083E-01 8.84666E-14-2.87541E-13
 -1       650 2.10480E+01-8.02940E-01-3.26873E-04-9.03934E-01 1.39941E-13-1.74245E-13
 -1       651 2.11287E+01-7.02937E-01-1.56501E-04-1.30977E+00 1.21559E-13-2.09531E-13
 -1       652 2.10733E+01-3.71151E-01 2.94172E-04-1.66277E+00 1.66022E-14-2.18109E-13
 -1       653 2.08430E+01 2.12216E-01 6.77340E-04-1.82766E+00-1.44399E-13-2.63477E-13
 -1       654 2.04606E+01 9.58321E-01 4.48471E-04-1.66126E+00-1.75689E-13-6.55831E-14
 -1       655 2.00260E+01 1.65952E+00 4.35203E-04-1.09169E+00-5.91919E-14 2.56913E-13
 -1       656 1.96807E+01 2.05206E+00 7.30858E-04-1.95443E-01-2.02776E-14 1.09125E-13
 -1       657 1.95192E+01 1.95449E+00 1.43893E-03 7.98618E-01-2.98088E-13-6.12356E-14
 -1       658 1.95193E+01 1.36602E+00-1.70725E-03 1.62569E+00-1.69241E-13 5.48974E-14
 -1       659 1.99738E+01 8.80516E-02 4.47194E-05-1.21586E-01 4.58481E-14-2.12350E-13
 -1       660 2.00276E+01 1.89730E-01 1.83125E-04-2.28130E-02 1.04544E-13-1.74705E-13
 -1       661 1.99259E+01-1.45014E-02-2.95875E-05-1.90048E-01 7.00802E-14-1.36698E-13
 -1       662 1.99216E+01-3.53652E-02-4.62138E-05-1.87627E-01 9.08324E-14-1.41196E-13
 -1       663 1.99241E+01-4.54650E-02-5.23531E-05-1.73848E-01 1.16183E-13-1.52604E-13
 -1       664 1.99306E+01-4.85444E-02-5.30618E-05-1.54215E-01 1.30892E-13-6.46105E-14
 -1       665 1.99390E+01-4.71806E-02-5.03085E-05-1.32412E-01 1.76552E-13-2.25997E-14
 -1       666 1.99481E+01-4.31406E-02-4.56879E-05-1.10827E-01 4.50818E-14 6.23707E-14
 -1       667 1.99572E+01-3.76162E-02-3.79651E-05-9.09363E-02 1.14382E-13 4.11752E-15
 -1       668 1.99662E+01-3.10063E-02-3.20633E-05-7.28611E-02 9.75250E-14 9.72157E-14
 -1       669 1.99740E+01-2.43909E-02-2.49895E-05-5.88206E-02 1.23438E-13 1.13004E-13
 -1       670 1.99814E+01-1.76354E-02-1.81009E-05-4.81575E-02-1.75284E-14 7.25219E-15
 -1       671 1.99884E+01-1.07129E-02-1.13477E-05-4.10798E-02-4.40154E-14 1.48923E-13
 -1       672 1.99953E+01-3.43916E-03-4.25301E-06-3.78096E-02-7.97089E-14 1.93218E-13
 -1       673 2.00026E+01 4.51868E-03 3.56694E-06-3.86755E-02 3.44060E-14 2.06820E-13
 -1       674 2.00105E+01 1.36532E-02 1.25891E-05-4.41897E-02-1.17937E-13 5.75005E-14
 -1       675 2.00196E+01 2.46513E-02 2.36554E-05-5.51268E-02-4.66849E-14-9.39618E-14
 -1       676 2.00302E+01 3.84352E-02 3.82493E-05-7.25919E-02-8.65818E-14 3.63103E-15
 -1       677 2.00431E+01 5.74057E-02 5.87621E-05-9.97568E-02 4.71461E-14 1.21473E-13
 -1       678 2.00570E+01 8.17245E-02 8.42271E-05-1.36380E-01-1.63753E-14 1.41406E-13
 -1       679 2.00718E+01 1.14768E-01 1.23072E-04-1.86514E-01 2.43268E-14 8.12757E-14
 -1       680 2.00856E+01 1.60329E-01 1.77832E-04-2.54275E-01-8.11598E-14-8.20752E-15
 -1       681 2.00944E+01 2.23640E-01 2.56751E-04-3.45041E-01-3.07224E-14 5.15898E-14
 -1       682 2.00911E+01 3.11764E-01 3.71235E-04-4.65705E-01-9.72881E-14-3.51854E-14
 -1       683 2.00631E+01 4.33684E-01 5.33582E-04-6.24768E-01 1.17039E-13 9.07969E-14
 -1       684 1.99898E+01 5.99519E-01 7.46560E-04-8.32114E-01 2.23475E-13 2.29121E-13
 -1       685 1.98395E+01 8.17461E-01 8.80945E-04-1.09856E+00 2.03950E-13 1.74365E-13
 -1       686 1.95461E+01 1.10007E+00 1.27299E-03-1.45223E+00 2.50385E-14 1.08949E-13
 -1       687 1.90707E+01 1.38958E+00 1.40834E-03-1.87013E+00 8.34007E-14 5.40885E-14
 -1       688 1.83423E+01 1.59899E+00 2.88727E-03-2.38089E+00 8.85238E-14 1.18211E-13
 -1       689 1.73366E+01 1.48784E+00 8.51676E-03-3.02955E+00 1.52730E-13-4.61118E-14
 -1       690 1.60955E+01 6.56993E-01 5.51353E-02-3.94078E+00 1.31411E-13-1.09355E-13
 -1       691 1.70290E+01-2.03329E+00 1.28162E-01-4.95995E+00 1.74308E-13-2.40790E-13
 -1       692 2.84487E+01 8.12773E+00-1.79362E-01-4.30823E-01 1.15331E-13-1.54289E-13
 -1       693 2.82203E+01-8.60203E-01-5.28246E-02-7.37868E-01 3.23390E-13-2.13975E-13
 -1       694 2.07727E+01 1.08829E+00 5.85413E-05 1.99011E+00 4.76050E-14 5.07280E-13
 -1       695 2.89129E+01 8.04394E+00-1.77946E-01-2.06638E+00-2.03421E-13-5.03455E-13
 -1       696 2.01061E+01 3.53516E-01 6.34704E-04 1.47417E-01 1.62952E-13-1.71286E-13
 -1       697 2.23169E+01 1.19231E+00-5.82200E-03 1.66195E+00 2.14160E-13 6.62759E-13
 -1       698 2.48003E+01 7.55974E-01-2.52821E-02 9.19174E-01 4.69448E-13 1.21844E-13
 -1       699 2.88939E+01-4.36192E+00-2.46543E-02 9.97133E-01 7.91459E-14 2.71755E-13
 -1       700 8.25029E+00-3.76301E+00 1.71805E-01-8.68249E+00-1.09635E-14 4.48169E-13
 -1       701 2.00227E+01 2.29559E+00-1.65225E-03 6.37024E-01 1.91635E-13-4.57013E-13
 -1       702 1.96533E+01 2.83946E-01 2.14209E-03 2.07114E+00 1.56144E-13 2.70111E-13
 -1       703 2.00171E+01 2.30581E+00-1.61643E-03-6.28656E-01-1.82194E-13-4.79641E-13
 -1       704 2.02066E+01 6.14240E-01 9.82013E-04 4.18792E-01 2.60729E-13-1.93084E-13
 -1       705 3.03781E+01 8.64287E-02-9.54779E-02-2.39743E+00-6.19262E-14-1.48451E-13
 -1       706 7.33459E+00-5.42030E-01 1.81804E-01-2.02651E+00 9.97865E-14-9.54514E-14
 -1       707 6.69674E+00-2.41580E-01 1.79832E-01 2.72768E+00-7.20812E-14 7.66678E-14
 -1       708 1.76529E+01-4.34263E+00 1.02770E-01 7.34679E+00 1.88807E-13-5.08933E-14
 -1       709 2.99122E+01 5.04126E+00-1.47352E-01-3.29684E+00-3.63910E-13-3.46629E-13
 -1       710 2.37475E+01-5.83407E+00 2.76046E-02 5.58072E+00 3.81920E-13 2.44703E-13
 -1       711 1.07815E+01-1.85282E+00 1.47939E-01 6.41227E+00-2.72560E-14-6.74530E-14
 -1       712 2.01163E+01 2.06476E+00-1.87895E-03-8.52939E-01-2.78827E-13-4.59609E-13
 -1       713 1.99253E+01 2.52691E+00-1.51142E-03-1.26331E-01-5.58590E-14-5.09984E-13
 -1       714 2.02642E+01 1.68928E+00-1.92847E-03-1.12788E+00-3.50507E-13-3.03715E-13
 -1       715 2.77858E+01 6.44328E+00-1.41093E-01 6.51769E-01 4.54255E-13 1.98681E-13
 -1       716 1.99553E+01 2.45593E+00-1.55249E-03-3.83841E-01-1.11233E-13-4.95650E-13
 -1       717 2.02712E+01 1.30189E+00 8.32098E-04 6.29435E-01 2.35000E-13-2.93386E-13
 -1       718 2.00870E+01 2.02636E-02 5.69703E-06-1.63638E-01 2.17848E-14-1.65942E-13
 -1       719 2.63945E+01 3.23318E+00-7.72489E-02 1.20470E+00 5.72627E-13 1.26118E-13
 -1       720 2.02883E+01 7.31376E-01 2.20400E-05-2.89688E-01-1.65657E-13-3.17635E-13
 -1       721 2.02611E+01 4.33422E-01-2.98702E-05-9.21110E-02-1.12957E-13-2.62674E-13
 -1       722 2.02209E+01 2.34630E-01-1.44021E-05 3.74624E-02-1.06223E-13-2.54568E-13
 -1       723 2.01791E+01 1.04060E-01-1.40582E-05 1.14674E-01-1.18281E-13-2.94210E-13
 -1       724 2.01413E+01 2.07581E-02-1.13214E-05 1.54196E-01-5.80327E-14-2.51621E-13
 -1       725 2.01090E+01-2.98343E-02-1.00865E-05 1.68054E-01-4.36055E-14-2.01138E-13
 -1       726 2.00826E+01-5.79778E-02-9.38488E-06 1.65457E-01-1.18496E-13-1.72578E-13
 -1       727 2.00616E+01-7.09638E-02-8.52629E-06 1.53127E-01-8.43241E-14-1.66309E-13
 -1       728 2.00451E+01-7.39680E-02-7.58574E-06 1.35806E-01-2.38845E-14-9.44301E-14
 -1       729 2.00326E+01-7.06306E-02-6.67381E-06 1.16728E-01 1.55953E-16-1.41783E-13
 -1       730 2.00232E+01-6.34631E-02-5.72587E-06 9.80192E-02-8.36733E-14-2.13991E-13
 -1       731 2.00163E+01-5.41263E-02-4.72214E-06 8.10248E-02-1.84315E-13-1.95188E-13
 -1       732 2.00113E+01-4.36489E-02-3.64217E-06 6.65679E-02-1.24215E-13-1.43195E-13
 -1       733 2.00079E+01-3.26020E-02-2.68970E-06 5.51449E-02 7.39283E-16-2.18359E-13
 -1       734 2.00055E+01-2.12347E-02-1.84321E-06 4.70631E-02-3.49182E-14-1.85041E-13
 -1       735 2.00038E+01-9.57585E-03-1.01857E-06 4.25429E-02-3.31593E-14-1.20552E-13
 -1       736 2.00026E+01 2.46776E-03-1.26888E-07 4.17931E-02-3.14731E-14-1.62942E-13
 -1       737 2.00016E+01 1.50098E-02 7.87029E-07 4.50511E-02 1.01005E-13-1.94400E-13
 -1       738 2.00007E+01 2.80728E-02 1.72889E-06 5.25951E-02 2.02612E-13-2.85990E-13
 -1       739 1.99999E+01 4.14505E-02 2.70177E-06 6.47258E-02-1.14313E-13-2.42517E-13
 -1       740 1.99994E+01 5.45291E-02 3.67521E-06 8.17123E-02-1.30985E-13-1.44307E-13
 -1       741 1.99999E+01 6.60576E-02 4.55573E-06 1.03689E-01 6.39342E-14-1.28700E-13
 -1       742 2.00025E+01 7.38610E-02 5.13588E-06 1.30491E-01 1.03908E-13-1.16738E-13
 -1       743 2.00095E+01 7.45116E-02 5.04103E-06 1.61396E-01-2.95632E-14-5.72933E-14
 -1       744 2.00243E+01 6.30034E-02 3.59665E-06 1.94759E-01-1.29890E-13-8.88079E-15
 -1       745 2.00522E+01 3.25340E-02-1.91211E-07 2.27486E-01-8.45454E-14 1.28747E-13
 -1       746 2.01010E+01-2.54055E-02-7.83094E-06 2.54326E-01-1.15054E-13-7.05807E-14
 -1       747 2.01809E+01-1.20290E-01-2.12755E-05 2.66950E-01 1.16551E-13-7.54142E-14
 -1       748 2.03045E+01-2.60645E-01-4.17394E-05 2.52886E-01 5.59256E-14-2.62777E-14
 -1       749 2.04848E+01-4.50239E-01-6.05702E-05 1.94509E-01 2.41907E-15 1.53521E-13
 -1       750 2.07317E+01-6.81524E-01-6.94413E-05 6.87849E-02-1.05263E-13-3.94729E-14
 -1       751 2.10448E+01-9.25989E-01-5.19058E-05-1.50725E-01-1.43736E-13 1.02972E-13
 -1       752 2.14023E+01-1.12235E+00 4.19589E-05-4.85904E-01-2.37436E-14 8.94278E-15
 -1       753 2.17504E+01-1.17296E+00-1.65620E-04-9.38125E-01 1.54408E-13-1.74711E-13
 -1       754 2.19966E+01-9.47659E-01-2.22080E-04-1.45988E+00 1.80741E-13-7.45643E-14
 -1       755 2.20352E+01-3.38549E-01 3.54456E-04-1.92605E+00 1.18637E-13 1.74850E-13
 -1       756 2.17965E+01 6.55824E-01-6.14340E-04-2.12321E+00 9.58668E-15 5.27808E-13
 -1       757 2.13267E+01 1.82624E+00-2.27645E-03-1.84483E+00-8.34893E-14 2.94308E-13
 -1       758 2.08136E+01 2.75557E+00-8.90390E-04-1.02271E+00-1.41421E-14 2.46465E-13
 -1       759 2.04578E+01 3.01714E+00-1.79221E-03 1.32400E-01-8.35293E-14 3.68162E-13
 -1       760 2.03259E+01 2.48794E+00-1.25764E-03 1.22406E+00-1.87531E-13 6.89920E-13
 -1       761 2.01250E+01 1.01200E-01-2.47185E-05-1.18932E-01 1.73195E-14-2.24296E-13
 -1       762 2.00388E+01-5.15321E-02-1.46022E-05-1.74906E-01 1.10865E-13-1.63839E-13
 -1       763 2.00241E+01-6.35150E-02-1.51233E-05-1.61685E-01 1.11724E-13-7.33927E-14
 -1       764 2.00140E+01-6.64881E-02-1.41374E-05-1.43234E-01 1.48713E-13-2.84503E-14
 -1       765 2.00072E+01-6.37498E-02-1.34463E-05-1.22941E-01 1.05076E-13-2.09500E-14
 -1       766 2.00029E+01-5.75804E-02-9.70402E-06-1.03011E-01 6.53543E-14-9.76308E-14
 -1       767 2.00005E+01-4.90452E-02-8.44811E-06-8.40329E-02 6.90658E-14-4.62883E-14
 -1       768 1.99996E+01-3.99033E-02-7.73039E-06-6.86710E-02 9.39783E-14 4.28080E-15
 -1       769 1.99997E+01-3.02795E-02-5.58631E-06-5.64529E-02 2.02911E-14 9.84835E-14
 -1       770 2.00005E+01-2.03140E-02-3.89356E-06-4.77090E-02-1.08239E-13 1.58683E-13
 -1       771 2.00019E+01-9.89400E-03-2.13748E-06-4.27043E-02-8.15440E-14 1.55203E-13
 -1       772 2.00038E+01 1.31834E-03-1.93745E-07-4.17378E-02-5.94757E-15 5.18011E-16
 -1       773 2.00059E+01 1.38771E-02 1.89866E-06-4.52193E-02 5.34822E-14-1.32194E-14
 -1       774 2.00080E+01 2.85702E-02 4.47211E-06-5.37310E-02-3.40461E-14 4.26939E-15
 -1       775 2.00096E+01 4.64472E-02 6.76457E-06-6.80718E-02-2.82524E-14-8.40293E-14
 -1       776 2.00100E+01 7.02920E-02 1.24507E-05-9.06311E-02-8.61497E-14-2.67847E-13
 -1       777 2.00077E+01 9.99464E-02 1.61896E-05-1.20765E-01-1.04052E-13-9.75418E-14
 -1       778 2.00005E+01 1.39092E-01 2.34365E-05-1.61118E-01-1.07011E-13 4.02936E-14
 -1       779 1.99845E+01 1.91547E-01 3.31742E-05-2.13868E-01 7.66702E-15 5.22244E-14
 -1       780 1.99532E+01 2.62426E-01 4.66528E-05-2.81469E-01-2.93280E-14 2.54237E-14
 -1       781 1.98965E+01 3.58479E-01 6.60429E-05-3.66457E-01-1.26629E-14-1.13206E-14
 -1       782 1.97982E+01 4.88179E-01 9.33970E-05-4.71008E-01-5.60955E-14-9.81770E-14
 -1       783 1.96336E+01 6.61197E-01 1.28301E-04-5.96139E-01-1.25168E-14-6.38006E-14
 -1       784 1.93662E+01 8.86368E-01 4.96951E-05-7.41065E-01 2.43269E-13 4.72615E-14
 -1       785 1.89147E+01 1.18204E+00 1.58366E-04-9.08547E-01 1.82678E-13-1.24225E-13
 -1       786 1.82413E+01 1.50659E+00 3.46344E-05-1.07491E+00-6.53733E-14-1.15248E-13
 -1       787 1.72270E+01 1.82191E+00 9.98670E-04-1.24437E+00-3.56925E-14-3.21358E-14
 -1       788 1.57396E+01 2.00407E+00 8.41658E-03-1.43639E+00 1.32813E-13 1.31122E-13
 -1       789 1.36115E+01 1.77066E+00 3.06725E-02-1.67366E+00 1.00608E-13 4.64698E-14
 -1       790 1.27181E+01-2.78976E-01 1.42706E-01-3.79439E+00 2.32522E-14 5.75616E-14
 -1       791 2.00593E+01-2.58172E-02-1.22141E-05-1.77910E-01 5.74122E-14-1.73472E-13
 -1       792 2.57487E+01 6.93872E+00-1.08205E-01-1.16986E+00-1.50348E-13-4.02041E-13
 -1       793 2.02191E+01 4.15091E-01-1.08581E-04 1.09581E-01 1.35862E-13-2.44673E-13
 -1       794 2.16464E+01 2.80838E+00-1.06719E-03 1.50169E+00-6.46731E-14 4.53788E-13
 -1       795 2.02840E+01 1.16779E+00 1.52694E-04-5.67496E-01-2.57566E-13-3.64960E-13
 -1       796 1.07696E+01 4.37509E-01 9.31795E-02 3.74174E+00-2.84469E-14 1.19457E-13
 -1       797 2.01367E+01 1.88974E+00-3.26824E-04 1.98817E-01 6.19187E-14-4.33750E-13
 -1       798 2.78396E+01-2.02254E+00-4.73946E-02-1.55275E+00 1.60445E-13-2.31755E-13
 -1       799 2.56828E+01-4.73606E+00 1.59738E-02 2.56394E+00 1.62429E-13 4.28691E-14
 -1       800 2.02763E+01 9.44237E-01 3.17997E-05 5.51529E-01 2.42451E-13-2.41776E-13
 -1       801 9.60530E+00 1.25503E+00 1.07161E-01-1.95732E-01 2.04111E-13-2.32443E-13
 -1       802 1.54364E+01-1.86892E+00 6.35089E-02 5.95148E+00 2.37898E-13 1.64936E-13
 -1       803 2.12330E+01-4.32893E+00 3.87204E-02 5.49658E+00 2.44265E-13 3.23329E-13
 -1       804 2.01701E+01 2.24460E-01-2.07672E-06-3.41081E-02 8.16764E-14-2.38607E-13
 -1       805 2.76035E+01 2.17018E+00-6.62143E-02-3.27400E+00-1.14230E-13-1.38780E-13
 -1       806 2.65798E+01 5.70194E+00-9.43815E-02-2.79457E+00-1.65826E-13-2.67842E-13
 -1       807 2.01249E+01 1.92791E+00-3.36635E-04 3.13502E-03-2.82425E-14-4.37363E-13
 -1       808 2.61024E+01-3.41857E+00-8.24527E-03 9.76780E-02 1.79981E-13-3.86698E-13
 -1       809 2.02178E+01 1.58307E+00-2.39494E-04 5.33187E-01 1.77839E-13-3.77989E-13
 -1       810 2.52113E+01 6.48878E+00-6.83103E-02 6.37300E-02-1.86424E-13-2.11550E-13
 -1       811 2.02128E+01 1.59427E+00-7.89646E-04-5.26633E-01-2.06067E-13-3.69077E-13
 -1       812 2.34740E+01 3.36581E+00-3.00921E-02 1.47012E+00 3.81055E-13 3.56494E-14
 -1       813 2.01695E+01 1.77639E+00-3.61325E-04 3.80502E-01 1.37962E-13-4.39498E-13
 -1       814 2.01654E+01 1.78333E+00-5.36111E-04-3.73319E-01-1.28214E-13-4.43588E-13
 -1       815 2.02536E+01 6.30733E-01-4.85599E-04 2.95109E-01 1.99672E-13-2.14745E-13
 -1       816 2.58086E+01 7.05431E-02-2.92282E-02-2.67359E+00-2.56834E-14 2.16966E-14
 -1       817 2.03317E+01 7.28603E-01 6.43191E-06-1.87766E-01-1.14762E-13-3.05952E-13
 -1       818 2.03284E+01 4.31126E-01-6.59406E-05-4.52408E-02-1.06404E-13-3.06674E-13
 -1       819 2.03023E+01 2.27856E-01-1.89860E-05 4.88573E-02-1.01561E-13-3.24364E-13
 -1       820 2.02656E+01 9.22474E-02-1.17654E-05 1.04543E-01-8.36721E-14-2.68109E-13
 -1       821 2.02259E+01 5.42389E-03-7.22936E-06 1.32150E-01-5.27710E-14-2.64052E-13
 -1       822 2.01874E+01-4.68134E-02-4.78226E-06 1.40476E-01-5.12240E-14-2.80833E-13
 -1       823 2.01523E+01-7.50098E-02-3.18843E-06 1.36444E-01-7.02357E-14-2.55017E-13
 -1       824 2.01216E+01-8.68989E-02-1.69405E-06 1.25197E-01-4.09389E-14-2.24391E-13
 -1       825 2.00955E+01-8.80498E-02-1.04121E-06 1.10398E-01-5.79406E-14-2.77496E-13
 -1       826 2.00740E+01-8.24211E-02-1.12440E-06 9.45693E-02-6.03217E-14-3.01364E-13
 -1       827 2.00565E+01-7.27287E-02-1.24773E-06 7.93510E-02-8.03503E-14-2.26919E-13
 -1       828 2.00424E+01-6.07277E-02-6.31534E-07 6.57971E-02-7.33513E-14-1.54509E-13
 -1       829 2.00312E+01-4.74758E-02-2.69051E-07 5.45682E-02-5.63406E-14-1.07992E-13
 -1       830 2.00222E+01-3.35326E-02-3.54603E-07 4.60858E-02-5.81167E-14-5.24461E-14
 -1       831 2.00148E+01-1.91020E-02-5.53432E-07 4.06292E-02-2.08635E-14-1.33952E-13
 -1       832 2.00084E+01-4.14310E-03-4.39717E-07 3.84413E-02-4.16214E-14-1.93833E-13
 -1       833 2.00022E+01 1.14929E-02-3.54427E-07 3.97917E-02 1.21265E-13-1.91809E-13
 -1       834 1.99959E+01 2.79396E-02-3.54517E-07 4.50115E-02 1.04613E-13-7.23906E-14
 -1       835 1.99890E+01 4.51740E-02-4.15684E-07 5.45180E-02 1.01717E-13-8.73184E-14
 -1       836 1.99813E+01 6.28344E-02-5.11789E-07 6.88206E-02-1.10888E-13-8.23716E-14
 -1       837 1.99728E+01 7.99834E-02-6.21716E-07 8.85016E-02-1.21087E-14-5.13640E-14
 -1       838 1.99643E+01 9.48038E-02-7.81563E-07 1.14163E-01 1.08573E-13-5.13257E-14
 -1       839 1.99574E+01 1.04219E-01-1.04102E-06 1.46323E-01 8.33846E-14-1.81777E-13
 -1       840 1.99552E+01 1.03458E-01-1.56546E-06 1.85218E-01-1.67867E-14-1.85647E-13
 -1       841 1.99630E+01 8.56159E-02-2.90050E-06 2.30467E-01 3.72087E-14-4.72047E-14
 -1       842 1.99889E+01 4.13515E-02-5.58815E-06 2.80498E-01-1.59230E-13 9.99447E-15
 -1       843 2.00449E+01-4.10456E-02-1.10577E-05 3.31608E-01-8.30546E-14 1.19770E-13
 -1       844 2.01475E+01-1.74719E-01-2.12970E-05 3.76495E-01-1.29276E-13-1.26146E-13
 -1       845 2.03177E+01-3.71790E-01-3.41043E-05 4.02136E-01 1.35347E-13-3.10557E-13
 -1       846 2.05787E+01-6.38194E-01-1.23363E-05 3.86862E-01-2.03901E-15-1.15966E-13
 -1       847 2.09514E+01-9.63891E-01 5.49722E-06 2.97666E-01 2.42671E-14-5.57745E-14
 -1       848 2.14437E+01-1.30868E+00-5.85697E-07 8.91520E-02-8.23711E-14 4.57199E-14
 -1       849 2.20305E+01-1.57742E+00 6.93634E-04-2.82173E-01 3.26769E-14 2.24936E-13
 -1       850 2.26312E+01-1.61717E+00-3.76171E-04-8.54022E-01 1.89804E-13 2.24498E-13
 -1       851 2.30939E+01-1.21828E+00 8.60198E-04-1.56404E+00 3.81511E-13 2.44288E-13
 -1       852 2.32233E+01-1.77055E-01 1.52182E-03-2.22664E+00 1.98173E-13 5.40436E-13
 -1       853 2.29181E+01 1.40839E+00-6.76813E-03-2.48132E+00 5.72602E-14 4.93913E-13
 -1       854 2.23377E+01 3.08419E+00-9.57976E-03-2.00772E+00-1.86996E-13 4.65364E-13
 -1       855 2.17927E+01 4.07971E+00-9.31332E-03-8.03199E-01-2.45820E-14 2.07230E-13
 -1       856 2.16152E+01 4.02789E+00-8.37899E-03 4.97379E-01 2.28454E-14 1.95423E-13
 -1       857 2.02280E+01 9.41938E-02-2.01224E-05-1.12559E-01-5.42419E-15-2.28026E-13
 -1       858 2.00955E+01-8.04014E-02-2.46684E-06-1.37820E-01 6.51873E-14-1.17953E-13
 -1       859 2.01218E+01-6.86154E-02-1.64662E-06-1.50080E-01 6.56889E-14-1.49896E-13
 -1       860 2.00563E+01-7.72307E-02 4.88304E-06-1.04108E-01 8.60780E-14-8.81860E-14
 -1       861 2.00419E+01-6.81575E-02-2.18544E-06-8.64732E-02 6.97524E-14-1.00874E-13
 -1       862 2.00314E+01-5.72533E-02-6.79725E-07-7.15441E-02-6.24705E-15 4.56310E-16
 -1       863 2.00234E+01-4.52523E-02-3.81566E-07-5.91416E-02 4.21890E-14 1.04923E-14
 -1       864 2.00174E+01-3.25712E-02-4.31054E-07-4.97086E-02-7.93970E-14 3.29991E-14
 -1       865 2.00128E+01-1.92829E-02-2.89866E-07-4.35629E-02-1.07589E-13-2.29709E-14
 -1       866 2.00091E+01-5.14748E-03 6.32172E-08-4.09743E-02-3.59884E-14-6.75007E-14
 -1       867 2.00056E+01 1.03570E-02 2.46912E-07-4.22457E-02 4.82950E-14-6.33199E-14
 -1       868 2.00017E+01 2.80157E-02 6.21744E-07-4.77598E-02-7.55873E-15-3.21954E-14
 -1       869 1.99964E+01 4.88756E-02-4.26826E-07-5.79989E-02 8.90160E-14-1.20755E-13
 -1       870 1.99878E+01 7.58232E-02 2.06732E-06-7.44982E-02 3.60784E-14-2.04219E-13
 -1       871 1.99748E+01 1.08272E-01 1.03916E-06-9.63927E-02-2.31200E-13-2.34340E-13
 -1       872 1.99541E+01 1.49786E-01 1.17996E-06-1.24966E-01-9.96606E-14-1.70058E-13
 -1       873 1.99212E+01 2.03660E-01 1.36152E-06-1.60708E-01-1.30527E-13-2.43902E-13
 -1       874 1.98695E+01 2.74132E-01 1.19161E-06-2.03627E-01-8.70402E-14-9.46220E-14
 -1       875 1.97889E+01 3.66568E-01 7.78858E-07-2.52757E-01-2.62205E-14 6.37350E-14
 -1       876 1.96644E+01 4.87420E-01 2.43840E-07-3.05346E-01 3.61416E-14 4.27127E-14
 -1       877 1.94739E+01 6.43742E-01-7.96653E-07-3.55609E-01 7.71286E-14 8.05827E-15
 -1       878 1.91859E+01 8.41720E-01-9.56004E-05-3.93559E-01 1.42167E-13-1.55011E-13
 -1       879 1.87286E+01 1.09651E+00-6.07559E-05-4.00258E-01 1.86004E-13-2.43927E-15
 -1       880 1.80771E+01 1.37546E+00-3.34161E-04-3.48376E-01-1.02574E-14 2.21990E-13
 -1       881 1.71265E+01 1.65722E+00-4.43006E-04-2.06870E-01-1.49692E-14-7.26080E-14
 -1       882 1.57369E+01 1.88195E+00 4.93822E-03 6.24551E-02 9.40182E-14-3.74230E-13
 -1       883 1.36797E+01 1.98053E+00 2.43785E-02 4.72384E-01 1.64656E-13-3.11813E-13
 -1       884 2.01529E+01-4.13834E-02-1.56287E-06-1.54303E-01 7.08003E-14-1.89859E-13
 -1       885 2.00738E+01-8.20426E-02-1.10436E-07-1.21565E-01 1.41323E-13-6.29255E-14
 -1       886 1.89944E+01-2.36552E+00 2.11091E-02 4.80649E+00 1.42208E-13 3.08344E-13
 -1       887 2.01344E+01 1.89268E+00-5.50669E-04-1.91649E-01-7.08517E-14-4.69982E-13
 -1       888 2.03011E+01 1.10419E+00 1.16252E-04-3.46631E-01-1.59068E-13-3.12953E-13
 -1       889 2.01884E+01 8.64964E-03 2.68882E-06-1.44791E-01 4.46543E-15-2.38657E-13
 -1       890 2.38878E+01 5.21525E+00-4.15818E-02-1.80018E+00 1.28543E-14-2.08791E-14
 -1       891 2.48942E+01 3.33545E+00-3.48556E-02-2.91451E+00-1.55754E-13 5.47175E-15
 -1       892 1.43630E+01 2.24934E-01 2.35418E-02 3.86870E+00 3.85868E-14 1.27041E-13
 -1       893 2.02994E+01 4.30754E-01 6.02483E-06 6.21529E-02 7.46700E-14-2.19298E-13
 -1       894 2.30488E+01-3.83708E+00 1.50611E-02 3.26622E+00 8.79507E-14-2.05458E-13
 -1       895 2.02673E+01 2.30033E-01-1.54532E-05-4.67556E-02 4.05121E-14-1.94103E-13
 -1       896 2.43163E+01 4.91488E+00-5.63939E-02 8.72798E-01 2.84644E-13-2.17187E-13
 -1       897 2.52852E+01-1.77106E+00-2.89143E-03-1.56921E+00 2.97713E-13-2.17383E-14
 -1       898 2.03014E+01 1.00245E+00-5.19874E-04 3.62670E-01 1.67220E-13-3.16356E-13
 -1       899 2.02829E+01 1.33880E+00-4.89244E-05 1.96744E-01 8.15282E-14-3.91376E-13
 -1       900 2.02884E+01 1.27670E+00 2.57836E-04-2.59197E-01-1.04355E-13-3.77765E-13
 -1       901 2.33563E+01 5.56415E+00-3.68097E-02-7.00389E-01-1.32538E-13-1.46830E-13
 -1       902 2.41929E+01-3.41816E+00-1.53959E-03 1.27827E+00 1.49166E-13-1.11417E-13
 -1       903 2.03055E+01 6.68488E-01 6.03031E-04 2.05866E-01 1.57539E-13-2.50893E-13
 -1       904 2.02727E+01 1.40736E+00 2.13423E-05 6.94230E-02 2.52879E-14-3.58934E-13
 -1       905 2.03717E+01 6.77552E-01 1.58910E-06-1.01568E-01-9.33753E-14-3.02870E-13
 -1       906 2.03773E+01 3.93425E-01-5.03452E-05-8.61494E-03-8.46240E-14-2.37857E-13
 -1       907 2.03563E+01 1.97409E-01-8.55370E-06 5.17123E-02-5.95581E-14-2.56491E-13
 -1       908 2.03205E+01 6.64020E-02-6.53675E-06 8.64719E-02-2.79278E-14-2.14859E-13
 -1       909 2.02784E+01-1.67859E-02-3.16240E-06 1.02530E-01-5.95770E-14-2.07706E-13
 -1       910 2.02353E+01-6.57290E-02-1.05998E-06 1.05807E-01-4.41876E-14-2.03980E-13
 -1       911 2.01945E+01-9.07803E-02 6.45708E-07 1.01004E-01-3.99462E-14-1.61019E-13
 -1       912 2.01576E+01-9.96740E-02 1.60962E-06 9.16101E-02-2.21563E-14-1.46247E-13
 -1       913 2.01256E+01-9.79348E-02 2.80703E-06 8.01600E-02-4.76096E-14-5.11307E-14
 -1       914 2.00984E+01-8.96402E-02-2.22353E-07 6.83368E-02-1.93055E-15-5.05427E-14
 -1       915 2.00759E+01-7.73895E-02 8.92171E-07 5.72469E-02-3.31707E-14-7.51437E-14
 -1       916 2.00573E+01-6.29046E-02 1.25807E-06 4.76280E-02-8.51452E-14-1.23788E-13
 -1       917 2.00419E+01-4.71336E-02 1.30637E-06 3.99539E-02-5.91800E-14-1.71518E-13
 -1       918 2.00291E+01-3.05928E-02-4.94893E-07 3.45332E-02-5.05360E-14-1.66097E-13
 -1       919 2.00178E+01-1.33483E-02-4.94833E-07 3.15998E-02-2.51510E-14-1.29527E-13
 -1       920 2.00073E+01 4.73937E-03-7.23968E-07 3.14274E-02 2.04293E-14-1.40066E-13
 -1       921 1.99967E+01 2.38910E-02-1.25293E-06 3.43495E-02 1.71109E-13-2.20327E-13
 -1       922 1.99851E+01 4.42816E-02-2.00842E-06 4.08145E-02 6.33805E-14-2.65798E-13
 -1       923 1.99718E+01 6.58710E-02-2.83479E-06 5.14422E-02-1.25264E-14-2.58882E-13
 -1       924 1.99565E+01 8.81784E-02-3.74639E-06 6.70719E-02-4.52984E-14-1.28543E-13
 -1       925 1.99389E+01 1.10004E-01-4.69296E-06 8.88080E-02 4.87527E-14-1.40716E-13
 -1       926 1.99198E+01 1.29050E-01-5.56228E-06 1.18060E-01-9.82247E-15-3.12802E-13
 -1       927 1.99012E+01 1.41448E-01-6.14180E-06 1.56545E-01 6.91742E-14-2.78294E-13
 -1       928 1.98867E+01 1.41196E-01-6.31924E-06 2.06207E-01 1.09910E-13-1.81495E-13
 -1       929 1.98832E+01 1.19551E-01-6.99084E-06 2.68957E-01 9.08718E-14-1.81220E-13
 -1       930 1.99013E+01 6.45148E-02-6.71415E-06 3.46086E-01-6.73007E-14-6.29392E-14
 -1       931 1.99574E+01-3.93747E-02-1.04613E-05 4.36997E-01-1.90271E-13-1.02349E-13
 -1       932 2.00748E+01-2.10136E-01-2.30956E-05 5.37032E-01-1.04425E-13 1.26684E-14
 -1       933 2.02847E+01-4.65976E-01-4.94542E-05 6.33925E-01 1.46160E-13-2.77376E-14
 -1       934 2.06259E+01-8.19488E-01 6.37399E-05 7.01425E-01 6.75913E-14-4.70866E-14
 -1       935 2.11370E+01-1.26122E+00 2.37951E-04 6.91809E-01-7.82089E-16-5.89370E-14
 -1       936 2.18530E+01-1.73628E+00-6.71746E-04 5.10970E-01 7.51593E-14-3.61348E-15
 -1       937 2.27281E+01-2.14169E+00-3.84810E-03 1.21003E-01 3.10873E-13 2.48391E-14
 -1       938 2.36499E+01-2.16471E+00 1.19425E-03-5.90726E-01 3.22400E-13 2.78992E-13
 -1       939 2.00668E+01-7.46312E-02 8.77279E-06-6.63100E-02 6.70581E-15-1.27777E-13
 -1       940 2.00879E+01-8.65398E-02 6.68639E-06-7.98038E-02 8.11747E-14-9.34789E-14
 -1       941 2.00378E+01-4.64397E-02 1.01732E-06-4.63011E-02-7.63962E-14-2.10004E-13
 -1       942 2.00272E+01-3.08513E-02 1.08110E-06-3.99624E-02-5.58012E-14-1.98999E-13
 -1       943 2.00181E+01-1.43685E-02 1.48436E-06-3.64344E-02-4.90956E-14-2.29853E-13
 -1       944 2.00097E+01 3.41588E-03 7.96633E-07-3.59242E-02-3.91869E-14-2.05690E-13
 -1       945 2.00009E+01 2.31928E-02 2.83079E-07-3.86489E-02 5.30489E-14-1.66212E-13
 -1       946 1.99906E+01 4.59115E-02-1.52664E-06-4.48326E-02 7.54612E-14-1.35228E-13
 -1       947 1.99763E+01 7.43389E-02-7.95796E-08-5.52544E-02 9.37550E-14 4.35330E-14
 -1       948 1.99571E+01 1.07459E-01-1.94464E-06-6.90261E-02-1.46303E-14 1.68198E-14
 -1       949 1.99297E+01 1.48447E-01-2.96305E-06-8.63657E-02-1.10150E-13-1.70315E-13
 -1       950 1.98899E+01 1.99801E-01-3.74484E-06-1.06591E-01-7.10984E-14-2.00657E-13
 -1       951 1.98319E+01 2.64520E-01-4.58007E-06-1.28102E-01-1.84551E-13-8.30888E-14
 -1       952 1.97474E+01 3.46111E-01-5.06803E-06-1.47756E-01-9.42485E-14-8.14929E-15
 -1       953 1.96249E+01 4.48377E-01-4.33855E-06-1.59931E-01-1.44613E-14-1.41604E-13
 -1       954 1.94482E+01 5.74782E-01 2.10293E-06-1.55157E-01 8.07785E-14-1.01492E-13
 -1       955 1.91955E+01 7.27213E-01-3.68416E-05-1.18676E-01 1.07536E-13-3.69513E-14
 -1       956 1.88154E+01 9.12267E-01 4.17998E-05-1.97402E-02 1.42486E-14 1.40426E-14
 -1       957 1.83021E+01 1.10069E+00 1.72956E-05 1.68575E-01 2.34556E-14-1.79614E-14
 -1       958 1.75892E+01 1.27278E+00 2.03107E-04 4.96719E-01 3.72249E-14 1.13812E-14
 -1       959 1.65927E+01 1.37329E+00 7.55748E-04 1.03826E+00 1.57200E-13-9.82076E-14
 -1       960 1.54534E+01 1.10209E+00 7.05677E-03 2.18762E+00 3.15971E-14-1.21732E-13
 -1       961 2.02971E+01 1.20260E+00-7.50074E-05 3.00375E-01 9.65831E-14-3.73816E-13
 -1       962 2.02138E+01-5.96437E-02 1.00611E-05-1.22449E-01 4.60071E-14-2.86186E-13
 -1       963 2.02962E+01 7.30246E-02 3.98194E-06-9.79177E-02-8.83230E-15-2.63314E-13
 -1       964 2.03331E+01 2.07576E-01-1.83077E-05-5.41672E-02 2.86935E-14-2.44812E-13
 -1       965 2.03448E+01 9.47262E-01 2.95829E-05-1.76856E-01-8.54220E-14-3.25089E-13
 -1       966 2.02728E+01 1.40917E+00 2.23912E-04-6.53525E-02-5.12210E-14-4.09788E-13
 -1       967 2.00507E+01-6.11509E-02 2.08969E-06-5.52024E-02 1.00026E-13-2.48968E-13
 -1       968 2.02547E+01-1.07770E-02 9.15709E-06-1.17986E-01 3.61172E-14-2.83541E-13
 -1       969 2.01756E+01-8.50660E-02 7.13834E-06-1.17300E-01-1.74333E-16-2.21669E-13
 -1       970 2.09852E+01-2.46365E+00 6.44084E-03 3.24222E+00 9.38929E-14-2.56067E-13
 -1       971 1.73747E+01-4.93051E-01 1.73530E-03 3.55676E+00 1.96947E-14 3.65044E-13
 -1       972 2.02778E+01 1.36546E+00 5.92140E-04-1.68135E-01-6.63913E-14-4.05640E-13
 -1       973 2.03560E+01 4.05549E-01 6.58397E-06 1.97018E-02 4.42849E-14-2.34311E-13
 -1       974 2.01416E+01-9.46758E-02 6.14859E-06-1.06704E-01 9.78837E-14-2.35186E-13
 -1       975 2.03586E+01 8.86243E-01 2.86919E-05 1.43148E-01 3.63787E-14-3.46498E-13
 -1       976 2.01124E+01-9.38473E-02 8.36704E-06-9.34312E-02 1.11786E-13-1.43068E-13
 -1       977 2.41708E+01-2.85294E+00 8.47899E-03 2.10999E-01 3.78197E-13 1.41557E-13
 -1       978 2.03565E+01 6.90275E-01 2.97050E-04 1.30164E-01 7.24892E-14-2.66699E-13
 -1       979 2.03669E+01 9.67282E-01 9.75124E-05 7.89949E-02 3.72621E-14-3.36837E-13
 -1       980 2.24180E+01-2.73664E+00-4.51921E-03 1.91917E+00 8.50311E-14 2.10541E-13
 -1       981 2.04096E+01 3.29419E-01-4.96014E-05 1.06275E-02-6.84583E-14-2.41514E-13
 -1       982 2.03865E+01 1.50148E-01-4.21435E-05 4.23118E-02-3.45851E-14-2.04822E-13
 -1       983 2.03483E+01 3.15940E-02-3.12597E-05 5.95626E-02-5.50664E-14-1.81619E-13
 -1       984 2.03033E+01-4.22337E-02-1.59916E-05 6.65091E-02-3.95095E-14-1.46622E-13
 -1       985 2.02570E+01-8.39887E-02-5.30378E-06 6.65027E-02 1.41375E-14-9.95891E-14
 -1       986 2.02128E+01-1.03441E-01-4.48382E-06 6.22699E-02-1.17750E-14-4.12221E-14
 -1       987 2.01729E+01-1.07998E-01 8.81507E-06 5.56519E-02 4.03416E-14-5.48173E-14
 -1       988 2.01379E+01-1.02866E-01-1.05515E-06 4.83426E-02-5.95465E-14-1.03488E-13
 -1       989 2.01082E+01-9.18689E-02 7.24437E-06 4.08798E-02-5.03868E-14-1.28213E-13
 -1       990 2.00831E+01-7.72470E-02 4.42951E-06 3.41769E-02-8.03652E-14-2.08033E-13
 -1       991 2.00623E+01-6.06760E-02 4.59488E-06 2.85123E-02-9.04372E-14-1.42618E-13
 -1       992 2.00447E+01-4.28427E-02-8.72033E-07 2.42908E-02-2.63423E-14-5.46596E-14
 -1       993 2.00295E+01-2.41732E-02 9.82142E-07 2.15499E-02-2.76281E-14-6.71016E-14
 -1       994 2.00156E+01-4.49144E-03-1.47316E-06 2.06038E-02-2.05052E-14-2.07989E-13
 -1       995 2.00018E+01 1.64213E-02-3.82408E-06 2.17239E-02 4.34991E-14-1.60080E-13
 -1       996 1.99872E+01 3.89042E-02-6.66147E-06 2.53015E-02 2.12960E-15-2.05326E-13
 -1       997 1.99705E+01 6.32262E-02-1.00769E-05 3.19248E-02 1.92085E-14-1.54669E-13
 -1       998 1.99508E+01 8.94040E-02-1.32550E-05 4.24823E-02 1.17293E-13-1.79285E-13
 -1       999 1.99272E+01 1.16956E-01-1.60883E-05 5.82463E-02-7.48824E-14-1.29178E-13
 -1      1000 1.98993E+01 1.44593E-01-1.81124E-05 8.10450E-02-1.85071E-13-2.87770E-13
 -1      1001 1.98674E+01 1.69779E-01-1.82788E-05 1.13421E-01 1.13559E-13-2.78900E-13
 -1      1002 1.98332E+01 1.88165E-01-1.49615E-05 1.58801E-01 1.10211E-13-3.14330E-13
 -1      1003 1.98005E+01 1.92862E-01-6.04466E-06 2.21607E-01 1.23648E-13-2.80212E-13
 -1      1004 1.97766E+01 1.73596E-01 7.65758E-06 3.07148E-01 6.17960E-14-2.73733E-13
 -1      1005 1.97737E+01 1.15679E-01 2.96950E-05 4.21241E-01 5.00275E-14-1.12607E-13
 -1      1006 1.98118E+01-5.78521E-04 5.40258E-05 5.68401E-01-7.01992E-14 1.76633E-13
 -1      1007 1.99210E+01-1.99915E-01 5.37460E-05 7.49257E-01-1.37066E-15 1.21510E-13
 -1      1008 2.01430E+01-5.09670E-01-1.46654E-04 9.55516E-01-4.81181E-14 4.13390E-14
 -1      1009 2.05419E+01-9.58645E-01 3.37525E-04 1.15984E+00 1.57459E-13 1.48185E-14
 -1      1010 2.11795E+01-1.54100E+00 1.71087E-03 1.31002E+00 1.27596E-13 3.06422E-13
 -1      1011 2.02917E+01-3.49375E-02-1.50064E-06-8.42755E-02 2.46648E-14-2.94375E-13
 -1      1012 2.01031E+01-9.05009E-02 1.07659E-05-5.29100E-02 1.22144E-13-1.91230E-13
 -1      1013 2.00297E+01-2.53692E-02 5.15293E-06-2.82281E-02-1.21700E-13-2.76040E-13
 -1      1014 2.00435E+01-4.34357E-02 1.81514E-06-3.17033E-02-2.70196E-14-2.78370E-13
 -1      1015 2.00048E+01 1.49575E-02-1.24492E-06-2.74620E-02-5.07768E-14-2.10147E-13
 -1      1016 1.99912E+01 3.85083E-02-6.13430E-06-3.03106E-02 2.09877E-14-1.18304E-13
 -1      1017 1.99737E+01 6.70982E-02-6.40902E-06-3.55459E-02-1.17407E-14-7.66923E-14
 -1      1018 1.99520E+01 9.93416E-02-1.24056E-05-4.24070E-02 7.42583E-14 6.90186E-14
 -1      1019 1.99228E+01 1.37920E-01-1.81519E-05-5.03935E-02 2.97110E-14-9.71460E-15
 -1      1020 1.98826E+01 1.84491E-01-2.38859E-05-5.82151E-02 2.05286E-14-3.52368E-14
 -1      1021 1.98270E+01 2.40799E-01-3.03087E-05-6.34985E-02-2.08806E-13 2.98086E-14
 -1      1022 1.97502E+01 3.08522E-01-3.67741E-05-6.21948E-02-1.07640E-13-6.03360E-14
 -1      1023 1.96446E+01 3.88913E-01-4.12468E-05-4.77004E-02 1.01616E-14-1.54815E-13
 -1      1024 1.95002E+01 4.82076E-01-4.23869E-05-9.67533E-03 3.32541E-14-1.51590E-13
 -1      1025 1.93050E+01 5.85543E-01-5.59763E-05 6.72381E-02-2.58463E-14 7.36413E-14
 -1      1026 1.90294E+01 6.97370E-01 6.22151E-05 2.15914E-01 9.65628E-14 2.56850E-13
 -1      1027 1.86833E+01 7.89371E-01 2.46738E-04 4.56894E-01 3.32033E-14 1.80986E-13
 -1      1028 1.82422E+01 8.36698E-01 1.02109E-03 8.42713E-01 7.54947E-14 1.30744E-13
 -1      1029 1.76842E+01 7.85169E-01 7.53454E-04 1.43651E+00 2.37914E-13 4.67892E-14
 -1      1030 1.73613E+01 3.69644E-01 1.19022E-03 2.36341E+00 1.19453E-14 1.36236E-13
 -1      1031 2.03962E+01 3.53196E-01-1.34678E-05-6.50974E-03 4.62775E-14-3.41439E-13
 -1      1032 2.03925E+01 5.79950E-01-1.54977E-04 5.52119E-02 2.48931E-14-3.42266E-13
 -1      1033 2.00172E+01-6.07295E-03 1.94671E-06-2.67768E-02-9.27857E-14-1.92259E-13
 -1      1034 2.04060E+01 5.90926E-01 2.68189E-04-3.79801E-02-1.03887E-14-3.15585E-13
 -1      1035 2.03649E+01 1.00052E+00-6.17649E-05 9.01493E-04 1.94540E-14-3.13310E-13
 -1      1036 1.93897E+01-1.04241E+00 4.45861E-03 2.75312E+00-4.81572E-14 3.20074E-14
 -1      1037 2.03361E+01 4.20240E-02-1.75749E-05-7.42453E-02 1.08407E-14-3.19666E-13
 -1      1038 2.02468E+01-7.83145E-02 1.13355E-05-8.48884E-02 7.01356E-15-2.17157E-13
 -1      1039 2.03737E+01 1.65386E-01-6.73047E-05-5.00304E-02 1.90475E-15-2.96572E-13
 -1      1040 2.01318E+01-1.01073E-01-2.70838E-05-6.25265E-02 7.87202E-14-1.74475E-13
 -1      1041 2.00596E+01-6.05466E-02 3.09999E-06-3.71284E-02-5.65295E-14-1.54614E-13
 -1      1042 2.02041E+01-9.90672E-02 1.65633E-05-7.97686E-02 1.93788E-14-2.37825E-13
 -1      1043 2.03802E+01 8.31620E-01-2.39798E-04-8.02710E-02-3.52525E-14-3.39176E-13
 -1      1044 2.03402E+01 1.07540E+00-4.68566E-04-1.18705E-01-5.65351E-14-3.92215E-13
 -1      1045 2.00795E+01-7.67150E-02 1.28875E-05-4.43804E-02 8.24816E-14-2.57285E-13
 -1      1046 2.05555E+01-1.45959E+00-1.66440E-03 2.06458E+00 2.18409E-13-2.00391E-14
 -1      1047 2.04200E+01 5.26827E-01 4.41265E-04 1.81847E-02 1.85073E-14-3.09706E-13
 -1      1048 2.03948E+01 9.60040E-02 1.09055E-04 2.00645E-02-2.01030E-14-2.34632E-13
 -1      1049 2.03527E+01-5.19319E-03 8.99516E-05 2.46468E-02-1.39085E-16-1.68393E-13
 -1      1050 2.03051E+01-6.60959E-02 8.10360E-05 2.59558E-02-4.00550E-16-1.21789E-13
 -1      1051 2.02571E+01-9.84204E-02 6.25714E-05 2.51984E-02 6.88419E-16-1.50845E-13
 -1      1052 2.02109E+01-1.10728E-01-4.76684E-05 2.31796E-02 2.99892E-14-1.49493E-13
 -1      1053 2.01711E+01-1.11137E-01 1.98528E-05 2.01619E-02-1.43042E-14-1.38668E-13
 -1      1054 2.01362E+01-1.02742E-01-7.63394E-06 1.69911E-02-4.73673E-14-1.86189E-13
 -1      1055 2.01062E+01-8.90961E-02 2.52370E-05 1.44422E-02-8.79334E-14-5.43864E-14
 -1      1056 2.00805E+01-7.24967E-02-4.18095E-05 1.21158E-02-3.13337E-14 1.07424E-14
 -1      1057 2.00596E+01-5.45824E-02 8.31547E-07 1.00192E-02-6.27757E-15 4.44311E-14
 -1      1058 2.00415E+01-3.54092E-02-3.22475E-06 8.54758E-03-3.33434E-14-1.08233E-14
 -1      1059 2.00252E+01-1.50065E-02 6.26921E-06 7.94902E-03-1.00807E-13 4.66519E-14
 -1      1060 2.00096E+01 6.64611E-03 6.57934E-06 8.20774E-03-3.39726E-14 3.69499E-14
 -1      1061 1.99935E+01 3.00350E-02 8.91212E-06 9.64296E-03-4.85544E-15-1.10267E-13
 -1      1062 1.99754E+01 5.56534E-02 1.35185E-05 1.27418E-02 4.03628E-14-1.20984E-13
 -1      1063 1.99539E+01 8.39373E-02 1.87056E-05 1.82419E-02 2.50752E-14-9.02737E-14
 -1      1064 1.99276E+01 1.15075E-01 2.66777E-05 2.72835E-02-4.61717E-14-1.99419E-13
 -1      1065 1.98952E+01 1.48775E-01 4.04421E-05 4.16698E-02-1.91953E-13-2.31181E-13
 -1      1066 1.98554E+01 1.83923E-01 6.11222E-05 6.40766E-02-7.06318E-14-1.30126E-13
 -1      1067 1.98077E+01 2.18124E-01 9.18574E-05 9.84133E-02 7.12593E-14-9.82104E-14
 -1      1068 1.97528E+01 2.47033E-01 1.36267E-04 1.50216E-01 1.43455E-13-1.02101E-13
 -1      1069 1.96933E+01 2.63420E-01 1.84181E-04 2.27047E-01 1.89545E-15-4.60165E-14
 -1      1070 1.96357E+01 2.55899E-01 2.40256E-04 3.38609E-01-5.21671E-16-5.93472E-14
 -1      1071 1.95918E+01 2.07473E-01 3.24516E-04 4.96955E-01 3.10953E-14-1.64353E-13
 -1      1072 1.95827E+01 9.41172E-02 3.28734E-04 7.15129E-01 8.85401E-14-2.27389E-14
 -1      1073 1.96451E+01-1.17937E-01 3.65840E-04 1.00430E+00-2.95675E-14-1.06126E-14
 -1      1074 1.98267E+01-4.74823E-01-3.03405E-03 1.36036E+00 2.88221E-14 2.22053E-13
 -1      1075 2.00793E+01-8.87267E-01-4.29545E-03 1.70292E+00 1.87355E-13 1.82051E-13
 -1      1076 1.87365E+01-1.23396E-01-7.48812E-04 1.99819E+00 7.15956E-14 2.16163E-13
 -1      1077 2.03044E+01-5.93088E-02-1.33625E-05-4.51408E-02-2.69567E-14-3.26397E-13
 -1      1078 2.04262E+01 4.80604E-01 1.13441E-04-6.47993E-03 1.96359E-14-3.06205E-13
 -1      1079 1.99557E+01 8.63334E-02-6.87775E-06-1.84079E-02-1.62193E-14-1.58116E-13
 -1      1080 1.99785E+01 5.45321E-02-7.03383E-06-1.68456E-02 4.33780E-14-8.75290E-14
 -1      1081 1.99962E+01 2.81357E-02-2.89126E-06-1.55887E-02-4.03907E-14-1.06266E-13
 -1      1082 1.99276E+01 1.21542E-01-1.14255E-05-1.92449E-02 1.88349E-14-1.95302E-13
 -1      1083 1.98908E+01 1.62444E-01-2.06719E-05-1.79137E-02-8.66880E-14-5.89791E-14
 -1      1084 1.98423E+01 2.09731E-01-3.58756E-05-1.18942E-02-1.51996E-14 6.93741E-14
 -1      1085 1.97783E+01 2.63572E-01-5.96051E-05 2.85323E-03-4.90003E-15-1.52183E-14
 -1      1086 1.96949E+01 3.23162E-01-9.54193E-05 3.25979E-02 7.40985E-14-8.48428E-14
 -1      1087 1.95875E+01 3.85952E-01-1.47880E-04 8.67659E-02 1.01010E-14-1.90138E-13
 -1      1088 1.94519E+01 4.46541E-01-2.22325E-04 1.78987E-01-6.87582E-14-1.00193E-13
 -1      1089 1.92766E+01 4.95806E-01-2.77239E-04 3.37535E-01-1.07007E-13-1.48757E-13
 -1      1090 1.90785E+01 5.09501E-01-3.48199E-04 5.75045E-01 8.26531E-14-9.77184E-14
 -1      1091 1.88598E+01 4.58639E-01-3.01720E-04 9.28847E-01 1.23309E-14-6.38210E-14
 -1      1092 2.04130E+01 6.63824E-01-6.05732E-04 1.76534E-02-1.73018E-15-3.12270E-13
 -1      1093 2.01658E+01-1.04865E-01-5.51045E-05-7.20559E-02 9.53255E-15-2.37546E-13
 -1      1094 2.00423E+01-3.70051E-02-1.09971E-06-1.67723E-02-8.11818E-14-1.48701E-14
 -1      1095 2.00118E+01 4.57278E-03-2.78662E-06-1.50184E-02-8.85957E-14-8.79169E-14
 -1      1096 2.04242E+01 2.50445E-01-9.74819E-05 9.73348E-03 6.50367E-15-2.58694E-13
 -1      1097 2.03517E+01 6.45844E-03-6.58013E-06-4.16348E-02 5.99998E-15-3.04230E-13
 -1      1098 2.00267E+01-1.69344E-02-1.49982E-06-1.53666E-02-9.05639E-14-5.75010E-14
 -1      1099 2.04155E+01 6.68172E-01 4.89524E-04-1.55395E-02 6.83449E-15-3.34269E-13
 -1      1100 2.02571E+01-9.45738E-02-2.64277E-05-4.44655E-02 9.08355E-15-3.45945E-13
 -1      1101 2.04174E+01 2.83655E-01-1.64503E-04-1.38200E-02 4.41404E-14-3.20919E-13
 -1      1102 2.01360E+01-1.02734E-01 1.74548E-05-3.14047E-02 2.19848E-14-2.03722E-13
 -1      1103 2.00594E+01-5.56061E-02-3.69758E-05-1.90129E-02-4.29030E-14-8.23891E-14
 -1      1104 2.03930E+01 1.15000E-01 4.74660E-05-3.17634E-02 3.66802E-14-3.40996E-13
 -1      1105 1.86501E+01 2.86848E-01 2.97136E-05 1.43813E+00 2.41418E-13-5.54449E-14
 -1      1106 1.94896E+01-5.46524E-01 8.98497E-03 1.92467E+00 3.96748E-14 7.10319E-14
 -1      1107 2.01065E+01-8.99684E-02-1.18854E-05-2.67380E-02 1.16900E-13-1.05966E-13
 -1      1108 2.01939E+01-1.13369E-01 7.51114E-05-1.40937E-02 7.53532E-15-2.81877E-13
 -1      1109 2.00710E+01-6.40723E-02 1.19393E-04-7.45563E-03-2.19277E-14-1.44185E-14
 -1      1110 2.04320E+01 4.61036E-01 3.08611E-04 2.35304E-03 4.45974E-14-3.14947E-13
 -1      1111 2.00811E+01-7.39444E-02-5.86820E-05-2.24147E-02 2.59819E-14-7.72622E-14
 -1      1112 2.02132E+01-1.09534E-01 4.16126E-05-4.10733E-02 4.21044E-14-2.85467E-13
 -1      1113 2.79640E+01 9.08683E+00 2.32528E+00-6.69789E+00-4.88498E-14 1.93245E-12
 -1      1114 2.05488E+01 6.22761E+00 2.09828E-01-3.90332E+00-2.98650E-14 3.65999E-13
 -1      1115 1.94358E+01 5.85337E+00 7.54352E-02-2.88711E+00-2.19547E-14-3.33303E-13
 -1      1116 1.90265E+01 5.72605E+00 6.03199E-02-2.23403E+00-1.56715E-14-6.74507E-13
 -1      1117 1.88395E+01 5.66910E+00 5.75011E-02-1.70061E+00-1.13191E-14-8.44802E-13
 -1      1118 1.87455E+01 5.64030E+00 5.55260E-02-1.23346E+00-6.72552E-15-9.29230E-13
 -1      1119 1.86962E+01 5.62498E+00 5.37535E-02-8.03820E-01-4.95914E-15-9.58567E-13
 -1      1120 1.86719E+01 5.61731E+00 5.24823E-02-3.92560E-01-2.60252E-15-9.67131E-13
 -1      1121 1.86649E+01 5.61510E+00 5.20765E-02 8.48360E-03 2.24430E-16-9.69254E-13
 -1      1122 1.86729E+01 5.61765E+00 5.25908E-02 4.09932E-01 2.45507E-15-9.63669E-13
 -1      1123 1.86983E+01 5.62569E+00 5.39880E-02 8.22516E-01 4.89192E-15-9.45834E-13
 -1      1124 1.87494E+01 5.64168E+00 5.62098E-02 1.25473E+00 7.59115E-15-8.95465E-13
 -1      1125 1.88451E+01 5.67106E+00 5.84404E-02 1.72640E+00 1.13919E-14-8.11115E-13
 -1      1126 1.90320E+01 5.72775E+00 6.04181E-02 2.26743E+00 1.69760E-14-6.52279E-13
 -1      1127 1.94322E+01 5.85044E+00 6.92694E-02 2.92766E+00 2.31482E-14-3.12576E-13
 -1      1128 2.04550E+01 6.18251E+00 1.53374E-01 3.87792E+00 2.82552E-14 3.81688E-13
 -1      1129 2.52185E+01 7.99470E+00 1.43043E+00 5.84606E+00 6.41154E-14 1.90475E-12
 -1      1130 2.88135E+01 3.61617E+00 1.27106E+00-4.21685E+00-2.11803E-13 2.92988E-12
 -1      1131 2.02297E+01-1.77742E-01-6.16335E-01-1.09828E-01-7.06449E-14 2.43405E-12
 -1      1132 1.88365E+01-9.63782E-02-2.36374E-01 6.25372E-02-2.75526E-14 1.70774E-12
 -1      1133 1.85033E+01-4.80878E-02-5.96399E-02 4.05329E-02-9.59476E-15 1.22563E-12
 -1      1134 1.84492E+01-2.46256E-02-1.52319E-02 2.68202E-02-1.60872E-14 8.84987E-13
 -1      1135 1.85321E+01-1.30712E-02-5.00357E-03 1.90959E-02-2.06838E-14 6.60274E-13
 -1      1136 1.86802E+01-6.62554E-03-1.49891E-03 1.41612E-02-1.75478E-15 4.87412E-13
 -1      1137 1.88541E+01-2.85140E-03 5.41947E-04 1.07428E-02-2.82917E-15 4.45061E-13
 -1      1138 1.90312E+01-6.11563E-04 1.86601E-03 8.21811E-03-2.29246E-15 2.71398E-13
 -1      1139 1.91988E+01 6.92525E-04 2.62032E-03 6.27845E-03-5.34228E-15 2.31950E-14
 -1      1140 1.93499E+01 1.40354E-03 2.94151E-03 4.75930E-03 1.35254E-15-1.18142E-13
 -1      1141 1.94815E+01 1.73269E-03 2.96492E-03 3.56214E-03 1.85713E-15-5.82342E-14
 -1      1142 1.95930E+01 1.81735E-03 2.80008E-03 2.62029E-03-1.61913E-14-1.30513E-13
 -1      1143 1.96851E+01 1.74963E-03 2.52678E-03 1.88384E-03-9.97759E-15-1.43758E-13
 -1      1144 1.97597E+01 1.59171E-03 2.19982E-03 1.31303E-03-2.01097E-14-2.30786E-13
 -1      1145 1.98188E+01 1.38488E-03 1.85487E-03 8.75249E-04-3.87459E-14-3.44806E-13
 -1      1146 1.98649E+01 1.15536E-03 1.51308E-03 5.43559E-04-1.35287E-14-3.77458E-13
 -1      1147 1.99002E+01 9.18355E-04 1.18481E-03 2.96097E-04-2.48614E-14-4.39485E-13
 -1      1148 1.99272E+01 6.81148E-04 8.72492E-04 1.15749E-04 1.61854E-14-4.95459E-13
 -1      1149 1.99480E+01 4.45470E-04 5.72921E-04-9.99355E-06-2.88392E-14-3.97823E-13
 -1      1150 1.99648E+01 2.09504E-04 2.79273E-04-8.90778E-05 1.43634E-14-5.37219E-13
 -1      1151 1.99795E+01-3.02498E-05-1.70389E-05-1.24835E-04 5.35216E-15-5.74676E-13
 -1      1152 1.99945E+01-2.76972E-04-3.24234E-04-1.15892E-04 4.14796E-15-4.83171E-13
 -1      1153 2.00117E+01-5.31092E-04-6.47405E-04-5.61485E-05-1.18919E-14-6.21850E-13
 -1      1154 2.00335E+01-7.87147E-04-9.84679E-04 6.49480E-05 2.63906E-14-6.09613E-13
 -1      1155 2.00623E+01-1.02961E-03-1.32178E-03 2.61490E-04 4.18896E-14-5.04952E-13
 -1      1156 2.01005E+01-1.22748E-03-1.62446E-03 5.48931E-04 1.07763E-14-4.22084E-13
 -1      1157 2.01500E+01-1.32771E-03-1.82862E-03 9.39745E-04 1.17756E-14-6.25094E-13
 -1      1158 2.02122E+01-1.24814E-03-1.82852E-03 1.43565E-03-1.22388E-14-6.50213E-13
 -1      1159 2.02869E+01-8.71591E-04-1.46503E-03 2.01493E-03 1.85571E-14-6.48813E-13
 -1      1160 2.03713E+01-4.49516E-05-5.18754E-04 2.61346E-03-2.13333E-14-5.31716E-13
 -1      1161 2.04587E+01 1.41063E-03 1.28272E-03 3.09925E-03 8.81914E-15-5.45290E-13
 -1      1162 2.05361E+01 3.66856E-03 4.22764E-03 3.24335E-03-4.23823E-14-9.13422E-13
 -1      1163 2.05828E+01 6.83231E-03 8.53123E-03 2.69656E-03 5.05715E-15-1.10165E-12
 -1      1164 2.05688E+01 1.08269E-02 1.41729E-02 9.92034E-04 3.57638E-14-9.76725E-13
 -1      1165 2.04549E+01 1.52485E-02 2.06561E-02-2.39229E-03 2.28329E-14-7.70772E-13
 -1      1166 2.01964E+01 1.92060E-02 2.67412E-02-7.87049E-03 7.16855E-14-6.69638E-13
 -1      1167 1.97517E+01 2.12461E-02 3.02916E-02-1.54596E-02-1.91529E-14-3.84335E-13
 -1      1168 1.90968E+01 1.95064E-02 2.84733E-02-2.44017E-02 3.66753E-14-3.17961E-13
 -1      1169 1.82449E+01 1.22533E-02 1.85679E-02-3.28541E-02-2.21356E-14-3.17905E-13
 -1      1170 1.72652E+01-1.16386E-03-5.67349E-04-3.79335E-02-9.56949E-15-5.97328E-13
 -1      1171 1.62905E+01-1.92658E-02-2.69209E-02-3.64081E-02 5.81154E-15-7.38291E-13
 -1      1172 1.55036E+01-3.80259E-02-5.47053E-02-2.60219E-02 2.81363E-14-8.78290E-13
 -1      1173 1.50966E+01-5.17427E-02-7.56318E-02-6.86642E-03-1.13325E-14-7.40422E-13
 -1      1174 1.52139E+01-5.50877E-02-8.16822E-02 1.80663E-02 2.50407E-14-7.72694E-13
 -1      1175 1.58967E+01-4.50162E-02-6.74082E-02 4.34550E-02 2.58036E-14-2.76973E-13
 -1      1176 1.70493E+01-2.14132E-02-3.05513E-02 6.25993E-02-2.38730E-14-3.21271E-13
 -1      1177 1.84230E+01 1.29454E-02 2.57119E-02 6.53109E-02 9.37510E-16 5.96467E-14
 -1      1178 1.95996E+01 5.16870E-02 7.71933E-02 3.69518E-02 4.88238E-15-4.10210E-13
 -1      1179 2.00354E+01-7.13444E-03-5.54066E-03-1.52445E-02 8.04556E-14-5.89975E-14
 -1      1180 2.77932E+01 5.25735E-01 3.76847E-01 1.96660E+00-3.26197E-14 3.17801E-12
 -1      1181 2.00873E+01-6.62563E-02-5.73637E-01 1.29438E-01 2.36339E-14 2.43869E-12
 -1      1182 1.89111E+01-4.06252E-02-1.93237E-01 1.94043E-02 2.34266E-14 1.73360E-12
 -1      1183 1.85323E+01-2.14434E-02-5.05844E-02 1.45480E-03 1.74101E-14 1.24124E-12
 -1      1184 1.84619E+01-1.24356E-02-1.34473E-02-4.08318E-03 7.50159E-15 8.93591E-13
 -1      1185 1.85384E+01-7.43366E-03-4.71020E-03-5.54393E-03 1.32169E-14 6.10081E-13
 -1      1186 1.86834E+01-4.35090E-03-1.98495E-03-5.73757E-03 1.05584E-14 4.95983E-13
 -1      1187 1.88555E+01-2.52487E-03-4.76431E-04-5.43357E-03-5.15102E-15 5.15690E-13
 -1      1188 1.90361E+01-9.72035E-04 7.33175E-04-4.92716E-03 1.95598E-14 3.85719E-13
 -1      1189 1.92069E+01-2.54823E-04 1.48876E-03-4.36888E-03 1.70684E-14 1.43541E-13
 -1      1190 1.93567E+01 2.31697E-04 1.83907E-03-3.75858E-03 2.11674E-14-2.58734E-15
 -1      1191 1.94872E+01 5.08119E-04 1.96044E-03-3.16125E-03-4.73272E-15-3.68551E-14
 -1      1192 1.95975E+01 6.42390E-04 1.92184E-03-2.60268E-03-8.17146E-15-2.94838E-14
 -1      1193 1.96887E+01 6.81822E-04 1.78317E-03-2.09833E-03-1.17625E-14-1.13830E-13
 -1      1194 1.97623E+01 6.59810E-04 1.58880E-03-1.65404E-03 6.26738E-15-3.55921E-13
 -1      1195 1.98206E+01 5.99889E-04 1.36936E-03-1.27014E-03 2.14384E-14-5.87055E-13
 -1      1196 1.98659E+01 5.17832E-04 1.14468E-03-9.41844E-04-1.13153E-14-6.67401E-13
 -1      1197 1.99011E+01 3.90350E-04 8.99964E-04-6.78642E-04-2.13823E-14-6.01325E-13
 -1      1198 1.99276E+01 2.96446E-04 6.89864E-04-4.02735E-04 6.93928E-15-4.75917E-13
 -1      1199 1.99470E+01 1.70025E-04 4.74808E-04-1.89767E-04 2.77381E-14-7.43435E-13
 -1      1200 1.99622E+01 2.53540E-05 2.54422E-04 6.84326E-06-1.46612E-14-5.63707E-13
 -1      1201 1.99751E+01-1.47186E-04 1.52282E-05 1.98741E-04-3.00727E-14-6.26509E-13
 -1      1202 1.99880E+01-3.62481E-04-2.61914E-04 3.99063E-04-1.20892E-14-5.44601E-13
 -1      1203 2.00031E+01-6.42620E-04-6.04494E-04 6.23299E-04 2.40468E-14-9.43294E-13
 -1      1204 2.00233E+01-1.02212E-03-1.05295E-03 8.92263E-04 3.23027E-14-1.11105E-12
 -1      1205 2.00521E+01-1.58129E-03-1.67927E-03 1.24054E-03-1.33548E-14-1.02373E-12
 -1      1206 2.00956E+01-2.27649E-03-2.53308E-03 1.74713E-03 2.53249E-14-1.06993E-12
 -1      1207 2.01597E+01-3.42932E-03-3.87944E-03 2.27290E-03-2.62525E-14-9.45994E-13
 -1      1208 2.02522E+01-5.03346E-03-5.78515E-03 3.07183E-03 1.84657E-14-8.54754E-13
 -1      1209 2.03874E+01-7.40583E-03-8.67836E-03 4.14799E-03-7.78847E-15-7.47575E-13
 -1      1210 2.05852E+01-1.09221E-02-1.31033E-02 5.57814E-03 9.51452E-15-6.22223E-13
 -1      1211 2.08750E+01-1.61031E-02-1.99076E-02 7.40146E-03-2.77061E-14-8.33222E-13
 -1      1212 2.13005E+01-2.35936E-02-3.03409E-02 9.51215E-03-4.87034E-14-5.13569E-13
 -1      1213 2.19268E+01-3.40105E-02-4.60864E-02 1.14502E-02 2.92808E-14-4.90476E-13
 -1      1214 2.28471E+01-4.89130E-02-6.94960E-02 1.22064E-02 7.12434E-14-1.02255E-12
 -1      1215 2.42381E+01-5.95887E-02-9.76893E-02 8.23439E-03-4.11303E-15-1.29043E-12
 -1      1216 2.62392E+01-6.66245E-02-1.22799E-01-1.29565E-02-8.64578E-14-8.24840E-13
 -1      1217 2.89320E+01-4.20387E-02-1.08501E-01-5.79133E-02 1.23426E-14-6.42902E-13
 -1      1218 3.22937E+01 4.86771E-02 1.71065E-02-1.39757E-01 2.21704E-14-8.02941E-13
 -1      1219 3.56626E+01 2.32757E-01 3.34562E-01-2.33543E-01 4.73302E-14-6.95166E-13
 -1      1220 3.71636E+01 4.28299E-01 7.57215E-01-2.16034E-01 2.32245E-14-5.16559E-13
 -1      1221 3.37443E+01 3.57408E-01 7.85240E-01 1.09814E-01 4.07521E-14-2.05558E-13
 -1      1222 2.39349E+01-1.53762E-01-1.78354E-01 6.48914E-01 3.99090E-14 1.54099E-13
 -1      1223 1.28329E+01-5.01327E-01-1.52172E+00 7.49973E-01 2.03310E-14 8.06188E-13
 -1      1224 9.48754E+00-3.51555E-01-1.74059E+00 8.01887E-02-5.04596E-14 1.66017E-12
 -1      1225 1.43909E+01 3.59832E-02-7.92315E-01-4.99657E-01-4.79755E-14 1.46910E-12
 -1      1226 2.15598E+01 2.30064E-01 2.94648E-01-5.82511E-01 9.67516E-14 3.08864E-13
 -1      1227 2.43517E+01 7.89241E-02 5.28597E-01-1.95627E-01 2.80782E-14-2.54158E-13
 -1      1228 2.22038E+01-1.77610E-01 7.05720E-02 1.62019E-01 5.01131E-14 1.83187E-15
 -1      1229 2.00547E+01-1.61389E-02-4.57196E-02 2.21615E-02-1.23616E-14 6.35055E-13
 -1      1230 1.99953E+01 7.52702E-02-2.07907E-01 3.81580E-02 6.15997E-13 1.37934E-14
 -1      1231 1.97575E+01 2.68864E+00-5.46773E-01 2.60313E-01-6.75099E-13-1.77997E-13
 -1      1232 1.98118E+01 9.28490E+00-2.61358E-01 5.50751E-01-1.08635E-12-3.17619E-14
 -1      1233 2.01438E+01 1.72546E+01 4.21018E-01 5.82436E-01-1.88233E-12-1.24002E-13
 -1      1234 2.05312E+01 2.31760E+01 1.07794E+00 2.99467E-01-1.53377E-12 1.40901E-13
 -1      1235 2.07363E+01 2.48152E+01 1.33613E+00-1.52684E-01-5.97744E-13 3.43406E-14
 -1      1236 2.06126E+01 2.11088E+01 1.02194E+00-5.73382E-01-1.71363E-13-2.12608E-14
 -1      1237 2.01894E+01 1.31404E+01 3.11075E-01-7.17127E-01-5.27023E-13-6.91790E-14
 -1      1238 1.97734E+01 3.56745E+00-3.49021E-01-5.74261E-01-9.98257E-13-1.53060E-13
 -1      1239 1.96609E+01-4.15587E+00-5.89922E-01-2.82419E-01-1.96826E-12-1.56819E-13
 -1      1240 1.97272E+01-7.93837E+00-4.76757E-01-2.93555E-02-1.57832E-12 9.67108E-14
 -1      1241 1.98385E+01-8.47816E+00-2.65512E-01 8.57332E-02-8.43527E-13 1.88564E-14
 -1      1242 1.99261E+01-7.28470E+00-1.04171E-01 1.15938E-01-7.20257E-15 1.47368E-13
 -1      1243 1.99814E+01-5.40781E+00-1.22728E-02 1.09125E-01-7.41768E-14 2.58346E-14
 -1      1244 2.00154E+01-3.43511E+00 3.78048E-02 9.28980E-02 1.45078E-13-5.89780E-14
 -1      1245 2.00480E+01-1.66054E+00 8.33246E-02 8.51019E-02 2.13891E-13-2.99426E-14
 -1      1246 2.00771E+01-4.43998E-01 9.86129E-02 3.13368E-02 2.27159E-13-5.99486E-14
 -1      1247 1.99804E+01 2.32070E-02-6.33630E-03-1.45433E-03 1.39186E-14 1.22163E-13
 -1      1248-1.59259E+00-3.84788E+01-5.84337E+00-3.71775E+00 2.08328E-12 3.14866E-13
 -1      1249-3.04877E+00-2.73281E+01-4.96522E+00-7.23207E+00 2.63678E-12 6.58751E-13
 -1      1250-1.08303E+00-8.30737E+00-2.94858E+00-2.63062E+00 1.75060E-12 9.06608E-13
 -1      1251 9.46746E+00 7.45787E+00-5.30054E-01 8.45769E+00 9.25038E-13 4.75842E-13
 -1      1252 3.07933E+01 1.39018E+01 2.05288E+00 1.96626E+01-6.14619E-13-1.17595E-12
 -1      1253 5.87395E+01 1.14094E+01 4.65799E+00 2.35490E+01-1.08891E-12-2.72338E-12
 -1      1254 8.10291E+01 5.45584E+00 6.49091E+00 1.54725E+01-5.54501E-13-2.95386E-12
 -1      1255 8.67843E+01 2.37784E+00 6.79604E+00 2.87224E-02-1.92901E-14-2.48029E-12
 -1      1256 7.25983E+01 4.42824E+00 5.28087E+00-1.38935E+01 1.51879E-13-1.21947E-12
 -1      1257 4.54351E+01 8.36647E+00 2.61530E+00-1.79858E+01 6.10623E-14-2.26041E-13
 -1      1258 1.75518E+01 7.10267E+00-2.07916E-01-1.08555E+01 2.62013E-14 5.75096E-14
 -1      1259 8.05743E-01-2.01182E+00-2.31070E+00 1.19537E-01-3.78364E-13 2.12941E-13
 -1      1260-3.82262E+00-1.52036E+01-3.51930E+00 6.74564E+00-6.35048E-13 4.16001E-13
 -1      1261-2.84960E+00-2.70728E+01-4.10488E+00 6.90831E+00 2.39808E-13 3.43892E-14
 -1      1262-1.25541E+00-3.17149E+01-4.19252E+00 2.08244E+00 4.53082E-13-1.51670E-13
 -1      1263-1.32909E+00-2.66887E+01-3.74632E+00-3.06562E+00 2.29927E-13 6.49758E-14
 -1      1264-1.72757E+00-1.45094E+01-2.85196E+00-4.04869E+00 6.88338E-13 3.16636E-13
 -1      1265 1.47243E+00-1.60253E-01-1.50592E+00 1.29666E+00 2.73781E-13 2.40918E-14
 -1      1266 1.24512E+01 1.01618E+01 1.41940E-01 1.08846E+01-5.37570E-13-5.94191E-13
 -1      1267 3.12183E+01 1.27459E+01 1.71685E+00 1.88278E+01-2.86438E-13-3.26184E-13
 -1      1268 5.33561E+01 8.82910E+00 3.11876E+00 1.99582E+01 1.64480E-13 5.63105E-13
 -1      1269 7.08592E+01 3.66716E+00 4.10829E+00 1.16162E+01 2.51160E-13 1.87417E-12
 -1      1270 7.75860E+01 2.00279E+00 4.61003E+00-2.48474E+00 2.84633E-14 2.32911E-12
 -1      1271 6.93701E+01 6.12094E+00 4.42558E+00-1.70050E+01-2.78971E-13 1.32760E-12
 -1      1272 4.64123E+01 1.35928E+01 3.37636E+00-2.30138E+01-8.18123E-13 1.33915E-12
 -1      1273 2.22120E+01 1.52649E+01 1.72592E+00-1.74531E+01-8.73968E-13 1.18616E-12
 -1      1274 6.67578E+00 7.87041E+00-2.74319E-01-7.06749E+00-8.84848E-13 5.10259E-13
 -1      1275-3.46929E-01-5.08729E+00-2.12848E+00 1.49590E+00-4.13447E-13 2.98206E-13
 -1      1276-2.48374E+00-1.85837E+01-3.75259E+00 5.71037E+00-1.25744E-12 3.53273E-13
 -1      1277-1.80270E+00-2.99862E+01-4.79788E+00 5.60945E+00-7.49623E-13 3.12028E-13
 -1      1278-9.06563E-01-3.81889E+01-5.66419E+00 2.32607E+00 6.29385E-13 1.02869E-13
 -1      1279 2.22682E+01 1.83828E+00-7.25835E-01-2.79027E+00-7.96030E-14 1.60744E-12
 -1      1280 2.03607E+01 4.69032E+00-4.86251E-02-3.30622E+00-2.38684E-13 3.64708E-14
 -1      1281 2.08683E+01 4.81079E+00-1.13303E-01-4.16054E+00-2.99094E-13 4.06321E-13
 -1      1282 1.95328E+01 4.99353E+00-1.95958E-02-2.65375E+00-2.51479E-13-4.84848E-13
 -1      1283 1.98309E+01 5.09047E+00 3.06816E-04-3.04482E+00-2.81775E-13-2.59744E-13
 -1      1284 2.05273E+01 3.95289E+00-2.58668E-02-3.07415E+00-4.27415E-13 2.76862E-14
 -1      1285 1.91845E+01 5.08426E+00-3.65994E-03-2.06944E+00-2.07848E-13-7.47610E-13
 -1      1286 1.93341E+01 5.13961E+00 1.06147E-02-2.36260E+00-2.36013E-13-6.25520E-13
 -1      1287 1.97551E+01 4.36619E+00-2.42440E-02-2.48874E+00-3.98714E-13-4.03830E-13
 -1      1288 1.90086E+01 5.13093E+00 3.24806E-03-1.56399E+00-1.60670E-13-8.87075E-13
 -1      1289 1.90865E+01 5.16092E+00 1.25627E-02-1.81388E+00-1.81976E-13-8.24823E-13
 -1      1290 1.93927E+01 4.55582E+00-1.95765E-02-1.93036E+00-3.17602E-13-6.27449E-13
 -1      1291 1.89149E+01 5.16062E+00 6.57811E-03-1.11641E+00-1.17851E-13-9.47079E-13
 -1      1292 1.89574E+01 5.17697E+00 1.27135E-02-1.33781E+00-1.35602E-13-9.14907E-13
 -1      1293 1.92053E+01 4.66158E+00-1.60683E-02-1.44420E+00-2.46472E-13-7.38732E-13
 -1      1294 1.88631E+01 5.18039E+00 8.18588E-03-6.93348E-01-7.79394E-14-9.68005E-13
 -1      1295 1.88862E+01 5.18930E+00 1.20204E-02-9.03450E-01-9.34929E-14-9.60827E-13
 -1      1296 1.91021E+01 4.72695E+00-1.39572E-02-1.00366E+00-1.75046E-13-8.01637E-13
 -1      1297 1.88389E+01 5.19230E+00 9.27223E-03-2.88946E-01-3.04114E-14-9.75432E-13
 -1      1298 1.88489E+01 5.19616E+00 1.10593E-02-4.90917E-01-4.58626E-14-9.66996E-13
 -1      1299 1.90459E+01 4.76594E+00-1.29098E-02-5.88382E-01-1.04193E-13-8.08471E-13
 -1      1300 1.88352E+01 5.19725E+00 1.02041E-02 1.08143E-01 8.13455E-15-9.76268E-13
 -1      1301 1.88348E+01 5.19712E+00 1.01328E-02-9.13710E-02-5.07819E-15-9.77864E-13
 -1      1302 1.90216E+01 4.78395E+00-1.24731E-02-1.88958E-01-2.58047E-14-8.18307E-13
 -1      1303 1.88506E+01 5.19580E+00 1.11462E-02 5.08273E-01 5.05854E-14-9.69908E-13
 -1      1304 1.88399E+01 5.19166E+00 9.20607E-03 3.05884E-01 3.54500E-14-9.73952E-13
 -1      1305 1.90224E+01 4.78332E+00-1.24930E-02 2.05635E-01 3.52384E-14-8.22169E-13
 -1      1306 1.88895E+01 5.18815E+00 1.20851E-02 9.22280E-01 8.29458E-14-9.43575E-13
 -1      1307 1.88656E+01 5.17908E+00 8.11488E-03 7.11226E-01 7.11948E-14-9.62813E-13
 -1      1308 1.90485E+01 4.76388E+00-1.29790E-02 6.05752E-01 1.01430E-13-8.11622E-13
 -1      1309 1.89618E+01 5.17522E+00 1.28973E-02 1.35530E+00 1.33967E-13-8.93124E-13
 -1      1310 1.89183E+01 5.15841E+00 6.43127E-03 1.13250E+00 1.16337E-13-9.21804E-13
 -1      1311 1.91063E+01 4.72344E+00-1.40007E-02 1.01884E+00 1.69077E-13-7.81045E-13
 -1      1312 1.90950E+01 5.15682E+00 1.28341E-02 1.83985E+00 1.89510E-13-7.93032E-13
 -1      1313 1.90152E+01 5.12640E+00 3.12889E-03 1.58709E+00 1.63562E-13-8.53666E-13
 -1      1314 1.92122E+01 4.65506E+00-1.61435E-02 1.46178E+00 2.46914E-13-7.17162E-13
 -1      1315 1.93442E+01 5.13362E+00 1.01892E-02 2.39693E+00 2.49981E-13-6.09724E-13
 -1      1316 1.91938E+01 5.07642E+00-4.38616E-03 2.09965E+00 2.22468E-13-7.21867E-13
 -1      1317 1.94055E+01 4.54259E+00-1.99801E-02 1.95737E+00 3.36226E-13-6.04582E-13
 -1      1318 1.98563E+01 5.09957E+00 6.08127E-03 3.08314E+00 2.91003E-13-2.35104E-13
 -1      1319 1.95441E+01 4.98452E+00-2.05409E-02 2.69570E+00 2.57225E-13-4.66138E-13
 -1      1320 1.97754E+01 4.34653E+00-2.45535E-02 2.52724E+00 4.12946E-13-3.74020E-13
 -1      1321 2.11044E+01 4.90706E+00 8.34301E-03 4.05341E+00 2.61069E-13 5.19695E-13
 -1      1322 2.03353E+01 4.73393E+00-4.79522E-02 3.41563E+00 2.55615E-13 5.79328E-14
 -1      1323 2.05656E+01 3.91596E+00-2.23967E-02 3.17769E+00 4.43451E-13 5.76622E-14
 -1      1324 2.72035E+01 3.20535E+00 9.28959E-01 4.58198E+00 1.37293E-13 2.02371E-12
 -1      1325 2.20211E+01 3.52222E+00-1.81983E-01 3.88458E+00 1.38473E-13 9.69336E-13
 -1      1326 2.21136E+01 2.56176E+00-3.25302E-02 3.45603E+00 4.34871E-13 7.41796E-13
 -1      1327 2.14281E+01 3.59550E-01-7.63523E-01 1.18358E+00 2.42674E-13 1.91580E-12
 -1      1328 2.20026E+01 1.31335E-01-4.00858E-01-1.28540E+00-2.40086E-13 1.67921E-12
 -1      1329 2.06803E+01 3.06687E-01-1.64803E-01-8.05502E-01-2.27263E-13 1.40053E-12
 -1      1330 2.00828E+01 1.53479E-01-7.35450E-02-4.01866E-01-1.83034E-13 1.27777E-12
 -1      1331 1.96133E+01 9.11993E-02-1.49441E-02-3.29716E-01-1.69083E-13 1.02077E-12
 -1      1332 2.09741E+01 3.69174E-01-1.04233E-01-1.27343E+00-3.94802E-13 7.44682E-13
 -1      1333 1.92562E+01 6.45344E-02 3.00858E-03-1.35045E-01-1.33327E-13 9.15087E-13
 -1      1334 1.91022E+01 4.12889E-02 1.31923E-02-1.17227E-01-1.22596E-13 7.26509E-13
 -1      1335 1.99238E+01 1.33870E-01-3.51994E-02-5.03440E-01-3.03098E-13 5.55909E-13
 -1      1336 1.89422E+01 3.15416E-02 1.32199E-02-2.76679E-02-9.62936E-14 6.36616E-13
 -1      1337 1.89232E+01 1.93935E-02 1.10461E-02-1.82863E-02-1.02010E-13 5.03972E-13
 -1      1338 1.94472E+01 5.55134E-02-8.53451E-03-1.69353E-01-2.26080E-13 3.77651E-13
 -1      1339 1.88674E+01 1.60318E-02 8.76550E-03 2.53896E-02-7.81987E-14 4.44932E-13
 -1      1340 1.89103E+01 9.09650E-03 6.43228E-03 3.00321E-02-7.12225E-14 3.45574E-13
 -1      1341 1.92389E+01 2.44191E-02-3.52224E-03-1.04606E-02-1.66564E-13 2.30018E-13
 -1      1342 1.89107E+01 7.88108E-03 4.66726E-03 5.12450E-02-4.96823E-14 3.20497E-13
 -1      1343 1.89816E+01 3.52396E-03 3.64030E-03 5.31488E-02-2.30257E-14 2.80955E-13
 -1      1344 1.91827E+01 1.02365E-02-2.22478E-03 6.83260E-02-1.02074E-13 1.46196E-13
 -1      1345 1.90114E+01 3.21252E-03 2.43839E-03 6.19939E-02-1.70180E-14 2.41329E-13
 -1      1346 1.90926E+01 3.48339E-04 2.20970E-03 6.22739E-02-2.37142E-14 1.95190E-13
 -1      1347 1.92096E+01 2.81979E-03-1.32737E-03 1.05275E-01-6.55741E-14 8.88877E-14
 -1      1348 1.91366E+01 4.64989E-04 1.32708E-03 6.40002E-02-5.06705E-14 1.73375E-13
 -1      1349 1.92181E+01-1.45187E-03 1.43703E-03 6.33280E-02-6.91015E-14 7.67958E-14
 -1      1350 1.92795E+01-1.26498E-03-5.61676E-04 1.18652E-01-8.20470E-14 1.01037E-14
 -1      1351 1.92671E+01-1.12503E-03 7.40354E-04 6.09720E-02-7.97441E-14 4.43478E-14
 -1      1352 1.93434E+01-2.40388E-03 9.66807E-04 5.97782E-02-7.46036E-14-5.00403E-14
 -1      1353 1.93686E+01-3.47519E-03-7.99545E-07 1.18404E-01-1.22403E-13 1.08897E-15
 -1      1354 1.93920E+01-1.98238E-03 4.01625E-04 5.52157E-02-3.72299E-14-5.89953E-14
 -1      1355 1.94603E+01-2.81706E-03 6.53264E-04 5.37822E-02-1.07199E-14-9.46140E-14
 -1      1356 1.94626E+01-4.54630E-03 3.54697E-04 1.10458E-01-9.04483E-14-2.14010E-14
 -1      1357 1.95054E+01-2.36736E-03 1.94757E-04 4.82062E-02-6.30756E-15-1.54137E-13
 -1      1358 1.95645E+01-2.88875E-03 4.35161E-04 4.67154E-02-3.59265E-14-1.58829E-13
 -1      1359 1.95534E+01-4.90405E-03 5.49441E-04 9.85351E-02-3.29200E-14-1.16806E-13
 -1      1360 1.96046E+01-2.44985E-03 6.71836E-05 4.08854E-02-2.53639E-14-1.61828E-13
 -1      1361 1.96544E+01-2.75048E-03 2.81981E-04 3.94516E-02-3.87337E-14-1.93614E-13
 -1      1362 1.96360E+01-4.81821E-03 6.31895E-04 8.50096E-02-4.59436E-14-2.27145E-13
 -1      1363 1.96888E+01-2.34440E-03-9.06285E-06 3.38389E-02-2.81636E-14-1.45403E-13
 -1      1364 1.97298E+01-2.49112E-03 1.75360E-04 3.25296E-02-2.68511E-14-1.90742E-13
 -1      1365 1.97085E+01-4.46787E-03 6.40660E-04 7.13822E-02-4.49702E-14-2.23094E-13
 -1      1366 1.97586E+01-2.12878E-03-5.10794E-05 2.74109E-02-2.25487E-14-1.93031E-13
 -1      1367 1.97916E+01-2.17002E-03 1.02896E-04 2.62614E-02-4.37990E-14-2.35898E-13
 -1      1368 1.97702E+01-3.97327E-03 6.03547E-04 5.85686E-02-4.78442E-14-1.84845E-13
 -1      1369 1.98152E+01-1.85492E-03-7.01509E-05 2.17840E-02-6.84494E-14-2.15023E-13
 -1      1370 1.98413E+01-1.82529E-03 5.57476E-05 2.08089E-02-5.19895E-14-2.60571E-13
 -1      1371 1.98214E+01-3.41367E-03 5.39718E-04 4.70908E-02-6.02553E-14-1.52327E-13
 -1      1372 1.98603E+01-1.55588E-03-7.40030E-05 1.70368E-02 3.41246E-14-2.99208E-13
 -1      1373 1.98806E+01-1.47949E-03 2.74430E-05 1.62377E-02-1.25838E-14-2.94375E-13
 -1      1374 1.98631E+01-2.83859E-03 4.61844E-04 3.72116E-02-3.63718E-14-1.38023E-13
 -1      1375 1.98958E+01-1.25080E-03-6.80352E-05 1.31856E-02-5.66100E-14-2.93706E-13
 -1      1376 1.99114E+01-1.14376E-03 1.31697E-05 1.25580E-02-1.98408E-14-3.49139E-13
 -1      1377 1.98965E+01-2.27561E-03 3.77771E-04 2.90322E-02-2.17017E-14-1.82342E-13
 -1      1378 1.99234E+01-9.48607E-04-5.60949E-05 1.02163E-02 2.17373E-14-3.67017E-13
 -1      1379 1.99355E+01-8.21132E-04 9.29269E-06 9.75325E-03 1.26508E-14-2.97211E-13
 -1      1380 1.99232E+01-1.73619E-03 2.91793E-04 2.25634E-02-8.88059E-15-2.21881E-13
 -1      1381 1.99452E+01-6.50887E-04-4.10213E-05 8.10551E-03-2.20927E-14-3.98110E-13
 -1      1382 1.99548E+01-5.09064E-04 1.29812E-05 7.80152E-03-6.04009E-14-4.03093E-13
 -1      1383 1.99446E+01-1.22024E-03 2.05656E-04 1.77772E-02-4.23043E-14-3.16773E-13
 -1      1384 1.99630E+01-3.54282E-04-2.50709E-05 6.83671E-03-4.10547E-14-4.07548E-13
 -1      1385 1.99711E+01-2.01715E-04 2.18694E-05 6.68931E-03-5.86058E-14-4.57304E-13
 -1      1386 1.99622E+01-7.19830E-04 1.19348E-04 1.46429E-02-8.30270E-14-3.33722E-13
 -1      1387 1.99786E+01-5.26409E-05-1.02769E-05 6.40866E-03 3.36145E-16-4.24778E-13
 -1      1388 1.99862E+01 1.07888E-04 3.37227E-05 6.41965E-03 3.64584E-14-3.96064E-13
 -1      1389 1.99777E+01-2.22557E-04 3.17834E-05 1.31505E-02-1.68649E-14-3.83733E-13
 -1      1390 1.99939E+01 2.60692E-04 1.24020E-06 6.83843E-03-1.08964E-14-3.81811E-13
 -1      1391 2.00021E+01 4.25357E-04 4.60949E-05 7.01369E-03 1.79186E-14-4.03315E-13
 -1      1392 1.99927E+01 2.85015E-04-5.85266E-05 1.33209E-02 1.08123E-14-2.83278E-13
 -1      1393 2.00108E+01 5.90077E-04 7.00917E-06 8.15695E-03-1.46144E-14-3.91528E-13
 -1      1394 2.00207E+01 7.51779E-04 5.59738E-05 8.50487E-03-8.97757E-15-3.80398E-13
 -1      1395 2.00087E+01 8.13142E-04-1.52710E-04 1.52033E-02-4.31330E-15-1.93746E-13
 -1      1396 2.00312E+01 9.33854E-04 4.02039E-06 1.03953E-02 4.66559E-14-3.69168E-13
 -1      1397 2.00440E+01 1.07946E-03 5.94402E-05 1.09232E-02 6.57689E-14-3.10852E-13
 -1      1398 2.00276E+01 1.36327E-03-2.50587E-04 1.88564E-02 2.02994E-14-1.56450E-13
 -1      1399 2.00572E+01 1.27921E-03-1.13137E-05 1.35586E-02 1.33231E-14-3.70598E-13
 -1      1400 2.00739E+01 1.38613E-03 5.14162E-05 1.42663E-02 1.74275E-15-3.36649E-13
 -1      1401 2.00508E+01 1.92020E-03-3.49404E-04 2.43062E-02 2.15417E-14-1.85087E-13
 -1      1402 2.00906E+01 1.59518E-03-4.29160E-05 1.75823E-02-2.30660E-14-4.25087E-13
 -1      1403 2.01123E+01 1.62736E-03 2.56519E-05 1.84518E-02-4.08010E-14-4.67687E-13
 -1      1404 2.00802E+01 2.44119E-03-4.42129E-04 3.14759E-02-6.60002E-14-3.43193E-13
 -1      1405 2.01331E+01 1.82351E-03-9.43103E-05 2.22668E-02-2.68287E-14-5.15761E-13
 -1      1406 2.01606E+01 1.72729E-03-2.47972E-05 2.32470E-02-4.97735E-14-5.88281E-13
 -1      1407 2.01170E+01 2.84159E-03-5.15216E-04 4.00750E-02-8.76090E-14-5.19270E-13
 -1      1408 2.01858E+01 1.86783E-03-1.67104E-04 2.71844E-02 3.70969E-14-5.49071E-13
 -1      1409 2.02193E+01 1.56862E-03-1.06237E-04 2.81697E-02 4.85081E-14-5.62414E-13
 -1      1410 2.01622E+01 2.97721E-03-5.45839E-04 4.94416E-02 1.82039E-14-5.19329E-13
 -1      1411 2.02484E+01 1.58256E-03-2.58356E-04 3.15585E-02-4.46965E-14-5.42679E-13
 -1      1412 2.02870E+01 9.84710E-04-2.21698E-04 3.23610E-02 1.87159E-15-5.15829E-13
 -1      1413 2.02158E+01 2.62570E-03-4.98865E-04 5.83307E-02-9.15313E-15-4.74940E-13
 -1      1414 2.03188E+01 7.65660E-04-3.56620E-04 3.41209E-02 1.89923E-14-5.23345E-13
 -1      1415 2.03600E+01-2.40788E-04-3.66647E-04 3.44393E-02-2.10920E-14-5.33074E-13
 -1      1416 2.02760E+01 1.47267E-03-3.24275E-04 6.46570E-02 1.99620E-14-4.83297E-13
 -1      1417 2.03914E+01-8.37351E-04-4.36896E-04 3.29732E-02-4.76331E-14-4.83847E-13
 -1      1418 2.04302E+01-2.35677E-03-5.23205E-04 3.23636E-02-1.05856E-13-5.12332E-13
 -1      1419 2.03388E+01-8.85831E-04 4.33739E-05 6.52269E-02-5.12723E-14-4.37609E-13
 -1      1420 2.04563E+01-3.50497E-03-4.55837E-04 2.55047E-02-1.14490E-13-5.62473E-13
 -1      1421 2.04845E+01-5.59517E-03-6.54303E-04 2.33694E-02-1.19166E-13-7.79137E-13
 -1      1422 2.03965E+01-4.90410E-03 6.80553E-04 5.55406E-02-1.46150E-13-3.94887E-13
 -1      1423 2.04977E+01-7.46831E-03-3.50614E-04 8.46635E-03-5.03991E-14-7.95294E-13
 -1      1424 2.05028E+01-1.00703E-02-7.01443E-04 4.08499E-03 9.18319E-16-8.85225E-13
 -1      1425 2.04372E+01-1.09810E-02 1.66074E-03 2.98180E-02-9.66039E-14-5.43525E-13
 -1      1426 2.04926E+01-1.27757E-02-4.73986E-05-2.16495E-02 8.29506E-14-8.21905E-13
 -1      1427 2.04581E+01-1.56127E-02-5.92519E-04-2.90072E-02 1.23110E-13-7.09115E-13
 -1      1428 2.04432E+01-1.92531E-02 3.02447E-03-1.85023E-02 8.02355E-14-5.96429E-13
 -1      1429 2.04116E+01-1.90834E-02 5.12876E-04-6.77371E-02 5.33050E-14-7.51093E-13
 -1      1430 2.03176E+01-2.15452E-02-2.67395E-04-7.85738E-02 4.92124E-14-6.87124E-13
 -1      1431 2.03917E+01-2.92660E-02 4.72764E-03-9.54644E-02 1.65861E-13-5.87432E-13
 -1      1432 2.02205E+01-2.54003E-02 1.32723E-03-1.30570E-01 8.90087E-14-7.17672E-13
 -1      1433 2.00469E+01-2.64666E-02 2.76639E-04-1.44772E-01 1.07591E-13-5.30007E-13
 -1      1434 2.02560E+01-3.95641E-02 6.56888E-03-2.04188E-01 8.38084E-14-6.69657E-13
 -1      1435 1.98870E+01-2.98922E-02 2.27223E-03-2.06721E-01 9.08865E-14-4.91496E-13
 -1      1436 1.96189E+01-2.81891E-02 9.29671E-04-2.23065E-01 9.30245E-16-4.50378E-13
 -1      1437 2.00097E+01-4.73512E-02 8.11590E-03-3.41309E-01 6.78086E-14-7.39416E-13
 -1      1438 1.93904E+01-2.99463E-02 3.06182E-03-2.86427E-01-1.98487E-14-2.57717E-13
 -1      1439 1.90264E+01-2.40604E-02 1.43581E-03-3.02145E-01 9.57004E-14-3.34482E-13
 -1      1440 1.96338E+01-4.85313E-02 8.68068E-03-4.92908E-01 2.24746E-14-4.48393E-13
 -1      1441 1.87354E+01-2.27607E-02 3.27587E-03-3.52544E-01-6.21204E-15-2.55185E-13
 -1      1442 1.82963E+01-1.18759E-02 1.43583E-03-3.63292E-01-1.44281E-13-3.56187E-13
 -1      1443 1.91273E+01-3.85452E-02 7.41616E-03-6.31622E-01 1.81925E-14-2.83724E-13
 -1      1444 1.79667E+01-6.59895E-03 2.51330E-03-3.82266E-01-1.27186E-13-3.11112E-13
 -1      1445 1.75011E+01 8.67096E-03 6.23726E-04-3.82894E-01-1.43629E-13-4.13253E-13
 -1      1446 1.85181E+01-1.42514E-02 3.61809E-03-7.17759E-01-1.17509E-13-1.85508E-13
 -1      1447 1.71761E+01 1.75890E-02 6.38725E-04-3.52907E-01-1.31241E-13-4.32952E-13
 -1      1448 1.67588E+01 3.46168E-02-1.03100E-03-3.39205E-01-1.71529E-14-5.52721E-13
 -1      1449 1.78714E+01 2.35592E-02-2.77471E-03-7.07267E-01-1.70886E-13-1.49556E-13
 -1      1450 1.64966E+01 4.51374E-02-2.03299E-03-2.51138E-01-6.84522E-15-6.05700E-13
 -1      1451 1.62155E+01 5.95345E-02-3.13925E-03-2.22061E-01-6.26227E-14-6.34715E-13
 -1      1452 1.72871E+01 6.83694E-02-1.07180E-02-5.66967E-01-7.43988E-14-3.32041E-13
 -1      1453 1.60756E+01 6.83745E-02-4.78060E-03-8.20779E-02-1.81148E-14-4.80779E-13
 -1      1454 1.60090E+01 7.52847E-02-4.99594E-03-4.12664E-02 7.15530E-14-5.53853E-13
 -1      1455 1.68827E+01 1.08521E-01-1.80648E-02-2.92444E-01 3.75221E-14-2.13184E-13
 -1      1456 1.60344E+01 7.91945E-02-6.78564E-03 1.26950E-01 1.44086E-13-5.84055E-13
 -1      1457 1.62245E+01 7.50043E-02-5.82941E-03 1.71411E-01 1.72928E-13-3.39534E-13
 -1      1458 1.67617E+01 1.30732E-01-2.22475E-02 8.04069E-02 1.68688E-13-2.22624E-13
 -1      1459 1.64245E+01 7.18905E-02-7.28252E-03 3.30624E-01 1.93356E-13-3.18783E-13
 -1      1460 1.68569E+01 5.53183E-02-4.81089E-03 3.68031E-01 1.12509E-13-1.41692E-13
 -1      1461 1.69777E+01 1.24360E-01-2.13623E-02 4.77605E-01 2.59572E-13-1.13420E-13
 -1      1462 1.71982E+01 4.44561E-02-5.16662E-03 4.75174E-01-3.95088E-14-2.42379E-13
 -1      1463 1.77916E+01 1.64076E-02-9.07805E-04 4.94217E-01-7.59922E-14-3.13034E-13
 -1      1464 1.75085E+01 8.39567E-02-1.46231E-02 8.02024E-01 5.38484E-14-2.41558E-13
 -1      1465 1.82017E+01-3.58604E-03 1.00938E-03 5.07456E-01 2.59157E-14-2.53117E-13
 -1      1466 1.88057E+01-4.10991E-02 5.12738E-03 4.96030E-01-6.91307E-14-2.54900E-13
 -1      1467 1.82502E+01 7.25737E-03-2.77157E-03 9.51524E-01-5.31157E-14-3.72122E-13
 -1      1468 1.91911E+01-7.05121E-02 1.02299E-02 3.76733E-01-3.72890E-14-1.77074E-13
 -1      1469 1.96129E+01-9.86793E-02 8.88094E-03 3.35858E-01 1.22343E-13-1.55264E-13
 -1      1470 1.90396E+01-1.12616E-01 9.94010E-03 8.36576E-01-2.37915E-14-2.54530E-13
 -1      1471 1.99501E+01-7.97161E-02 2.48350E-02 4.08010E-02 5.65862E-14-6.80532E-15
 -1      1472 1.97711E+01-2.45998E-01 1.65278E-02 3.53284E-01 1.69806E-13 1.99197E-14
 -1      1473 2.02613E+01 7.54715E-02-1.52080E-01 4.83637E-01 2.06907E-13 1.45023E-12
 -1      1474 2.15313E+01 2.16136E-01-2.29283E-01 7.20615E-01 1.84366E-13 1.78288E-12
 -1      1475 2.17299E+01 8.81704E-01-8.54817E-02 2.06440E+00 3.69316E-13 1.10723E-12
 -1      1476 1.93336E+01 3.23859E-02-2.13278E-02 1.85799E-01 1.73349E-13 1.03436E-12
 -1      1477 1.97539E+01 1.13626E-01-6.26924E-02 2.37813E-01 1.54408E-13 1.29766E-12
 -1      1478 2.03051E+01 1.87664E-01-5.51958E-02 7.85769E-01 3.21104E-13 8.14447E-13
 -1      1479 1.89524E+01 1.51146E-02 5.66673E-03 5.32678E-02 1.03895E-13 7.27422E-13
 -1      1480 1.90907E+01 5.16424E-02 9.81926E-04 7.95936E-02 1.14729E-13 9.12506E-13
 -1      1481 1.95606E+01 7.18471E-02-1.21622E-02 2.98552E-01 2.55790E-13 5.77521E-13
 -1      1482 1.88427E+01 7.13277E-03 6.97406E-03-9.27260E-03 9.61297E-14 4.92167E-13
 -1      1483 1.88569E+01 2.58820E-02 1.10912E-02 5.14394E-03 8.28005E-14 6.36990E-13
 -1      1484 1.92258E+01 3.10546E-02-2.47130E-03 8.29899E-02 1.94067E-13 3.72341E-13
 -1      1485 1.88695E+01 3.22367E-03 4.77891E-03-3.95790E-02 4.65621E-14 3.45005E-13
 -1      1486 1.88253E+01 1.38357E-02 8.52130E-03-3.14382E-02 4.90820E-14 4.30839E-13
 -1      1487 1.91098E+01 1.32873E-02-1.62885E-03-2.20781E-02 1.31269E-13 2.24703E-13
 -1      1488 1.89645E+01 1.05628E-03 3.28362E-03-5.30619E-02-1.71618E-14 3.31083E-13
 -1      1489 1.88935E+01 7.30509E-03 5.36683E-03-4.85709E-02 8.96061E-15 3.30470E-13
 -1      1490 1.91117E+01 4.55926E-03-1.64823E-03-7.36666E-02 4.09126E-14 1.97353E-13
 -1      1491 1.90900E+01-2.30246E-04 2.51527E-03-5.71816E-02 4.43688E-14 2.88158E-13
 -1      1492 1.90092E+01 3.54314E-03 3.45465E-03-5.48232E-02 1.77204E-14 3.05446E-13
 -1      1493 1.91752E+01-1.53230E-04-1.41155E-03-9.64085E-02 1.43312E-14 1.61116E-13
 -1      1494 1.92304E+01-1.03585E-03 1.99475E-03-5.55593E-02 4.39526E-14 1.65952E-13
 -1      1495 1.91460E+01 1.18050E-03 2.36860E-03-5.46368E-02 5.23007E-14 2.41111E-13
 -1      1496 1.92706E+01-2.50912E-03-1.01699E-03-1.02532E-01 6.63648E-14 7.52126E-14
 -1      1497 1.93597E+01-1.26404E-03 1.68444E-03-5.08507E-02 6.76725E-14 7.84702E-15
 -1      1498 1.92845E+01-2.62669E-04 1.64402E-03-5.09455E-02 5.29703E-14 1.04764E-13
 -1      1499 1.93762E+01-4.00363E-03-6.85967E-04-9.91678E-02 1.06139E-13 4.58967E-14
 -1      1500 1.94779E+01-1.40042E-03 1.39563E-03-4.48315E-02 1.48495E-14-3.31141E-14
 -1      1501 1.94108E+01-1.10446E-03 1.16978E-03-4.54221E-02 2.55864E-14 4.61480E-15
 -1      1502 1.94780E+01-4.39649E-03-4.01834E-04-9.05612E-02 6.12073E-14-3.37557E-14
 -1      1503 1.95817E+01-1.39584E-03 1.14495E-03-3.83226E-02 1.20113E-15-1.73906E-16
 -1      1504 1.95238E+01-1.50469E-03 8.41877E-04-3.91821E-02 1.91120E-15-9.17929E-15
 -1      1505 1.95722E+01-4.41495E-03-2.16921E-04-7.95426E-02 1.60596E-14-1.55573E-14
 -1      1506 1.96701E+01-1.30641E-03 9.26511E-04-3.19263E-02 3.78067E-14-6.28703E-14
 -1      1507 1.96214E+01-1.65210E-03 6.00054E-04-3.28956E-02 2.67825E-14-4.56341E-14
 -1      1508 1.96556E+01-4.15307E-03-8.99632E-05-6.77725E-02 3.02163E-14-6.66537E-14
 -1      1509 1.97435E+01-1.16973E-03 7.38541E-04-2.59996E-02 7.24257E-14-2.42617E-13
 -1      1510 1.97036E+01-1.63762E-03 4.20396E-04-2.69762E-02 5.46664E-14-1.35213E-13
 -1      1511 1.97272E+01-3.73646E-03-6.53736E-06-5.62927E-02 1.01139E-13-1.65089E-13
 -1      1512 1.98032E+01-1.01058E-03 5.79234E-04-2.07367E-02 3.15016E-14-4.25138E-13
 -1      1513 1.97711E+01-1.52401E-03 2.87752E-04-2.16569E-02 4.02557E-14-3.61754E-13
 -1      1514 1.97870E+01-3.24776E-03 4.49501E-05-4.57213E-02 1.27518E-13-3.50711E-13
 -1      1515 1.98506E+01-8.44704E-04 4.45847E-04-1.62250E-02 9.68727E-15-4.97795E-13
 -1      1516 1.98254E+01-1.35400E-03 1.91162E-04-1.70515E-02 5.61671E-14-4.25525E-13
 -1      1517 1.98358E+01-2.73987E-03 7.33823E-05-3.63920E-02 8.31880E-14-3.74771E-13
 -1      1518 1.98878E+01-6.72446E-04 3.49505E-04-1.24863E-02-1.57163E-14-4.89569E-13
 -1      1519 1.98682E+01-1.15869E-03 1.22414E-04-1.31962E-02-2.94941E-14-5.15546E-13
 -1      1520 1.98750E+01-2.24638E-03 8.67140E-05-2.84561E-02 5.75603E-16-3.47454E-13
 -1      1521 1.99177E+01-5.08915E-04 2.47954E-04-9.37230E-03-3.96607E-14-4.86923E-13
 -1      1522 1.99023E+01-9.29730E-04 7.94170E-05-1.00013E-02-2.68805E-14-5.56177E-13
 -1      1523 1.99066E+01-1.78696E-03 6.99824E-05-2.18253E-02-2.49772E-14-4.26125E-13
 -1      1524 1.99396E+01-3.62380E-04 1.72501E-04-7.16019E-03 7.76019E-14-5.01154E-13
 -1      1525 1.99284E+01-7.18640E-04 4.34882E-05-7.61663E-03 6.31093E-14-4.78809E-13
 -1      1526 1.99315E+01-1.32013E-03 7.66547E-05-1.66350E-02 5.46225E-14-4.82421E-13
 -1      1527 1.99568E+01-2.12146E-04 1.14310E-04-5.65630E-03-6.82814E-14-5.73084E-13
 -1      1528 1.99482E+01-4.91089E-04 3.17070E-05-5.98109E-03-2.85601E-14-5.84972E-13
 -1      1529 1.99506E+01-9.18827E-04 5.60902E-05-1.29853E-02 2.86818E-14-4.41231E-13
 -1      1530 1.99712E+01-5.61812E-05 6.56231E-05-4.86092E-03-4.08262E-14-5.00665E-13
 -1      1531 1.99642E+01-2.56145E-04 2.85912E-05-5.04591E-03-1.42625E-14-5.00747E-13
 -1      1532 1.99666E+01-5.31290E-04 2.82129E-05-1.07042E-02-8.39203E-14-4.21561E-13
 -1      1533 1.99848E+01 1.14830E-04 2.33440E-05-4.80908E-03-3.34237E-14-5.07431E-13
 -1      1534 1.99783E+01 2.21244E-06 3.54672E-05-4.83834E-03-3.96081E-14-4.99284E-13
 -1      1535 1.99810E+01-1.41474E-04-1.03422E-05-9.82712E-03-2.91946E-14-3.76811E-13
 -1      1536 1.99996E+01 3.14558E-04-1.58090E-05-5.58491E-03 1.02731E-13-6.44355E-13
 -1      1537 1.99925E+01 3.02704E-04 5.24821E-05-5.43087E-03 5.88361E-14-4.94708E-13
 -1      1538 1.99957E+01 2.74893E-04-6.33901E-05-1.04681E-02 6.22937E-14-4.56379E-13
 -1      1539 2.00181E+01 5.62007E-04-5.54393E-05-7.34170E-03 5.25144E-14-7.45794E-13
 -1      1540 2.00091E+01 6.72535E-04 8.07319E-05-6.95917E-03 4.43803E-14-6.58703E-13
 -1      1541 2.00127E+01 7.50849E-04-1.37029E-04-1.28520E-02 8.53396E-14-4.43769E-13
 -1      1542 2.00432E+01 8.82855E-04-9.90970E-05-1.03297E-02-4.94510E-15-7.52659E-13
 -1      1543 2.00308E+01 1.15109E-03 1.22940E-04-9.64781E-03 3.29386E-14-7.60232E-13
 -1      1544 2.00346E+01 1.33045E-03-2.41042E-04-1.73579E-02 8.07950E-14-4.20344E-13
 -1      1545 2.00788E+01 1.30329E-03-1.61915E-04-1.49393E-02-3.05242E-14-8.07370E-13
 -1      1546 2.00609E+01 1.81249E-03 1.90921E-04-1.38485E-02-1.04697E-14-7.92585E-13
 -1      1547 2.00645E+01 2.05942E-03-3.98625E-04-2.45770E-02-2.50616E-14-5.25082E-13
 -1      1548 2.01331E+01 1.95643E-03-2.51512E-04-2.21700E-02-6.57121E-14-8.06993E-13
 -1      1549 2.01052E+01 2.72054E-03 2.70730E-04-2.03464E-02-4.20864E-14-8.44412E-13
 -1      1550 2.01077E+01 3.15011E-03-5.89951E-04-3.57315E-02-2.39816E-14-5.86672E-13
 -1      1551 2.02087E+01 2.85338E-03-3.46157E-04-3.22914E-02-7.04879E-14-6.07932E-13
 -1      1552 2.01696E+01 4.08045E-03 3.96606E-04-2.97385E-02-4.11827E-14-7.40173E-13
 -1      1553 2.01692E+01 4.56467E-03-9.48497E-04-5.22707E-02-8.01533E-14-4.11455E-13
 -1      1554 2.03177E+01 4.14541E-03-5.25762E-04-4.69481E-02-2.89067E-14-5.39274E-13
 -1      1555 2.02605E+01 5.96524E-03 5.45978E-04-4.31292E-02-5.59027E-14-6.24463E-13
 -1      1556 2.02549E+01 6.63955E-03-1.42207E-03-7.56564E-02-4.22065E-14-3.75280E-13
 -1      1557 2.04750E+01 6.04263E-03-8.24315E-04-6.82316E-02-2.14329E-14-5.28255E-13
 -1      1558 2.03915E+01 8.78368E-03 7.50730E-04-6.25163E-02-4.75238E-14-5.68529E-13
 -1      1559 2.03765E+01 9.64502E-03-2.15513E-03-1.09407E-01-6.46115E-14-3.81182E-13
 -1      1560 2.07022E+01 8.84695E-03-1.34225E-03-9.92664E-02 3.65112E-14-4.47482E-13
 -1      1561 2.05802E+01 1.29880E-02 9.99840E-04-9.06739E-02 8.71831E-14-3.87024E-13
 -1      1562 2.05490E+01 1.40884E-02-3.28233E-03-1.58255E-01-2.10509E-15-3.89518E-13
 -1      1563 2.10306E+01 1.29803E-02-2.27165E-03-1.44691E-01-7.95679E-14-4.47842E-13
 -1      1564 2.08522E+01 1.92726E-02 1.25665E-03-1.31708E-01-4.99704E-14-6.02059E-13
 -1      1565 2.07934E+01 2.07021E-02-5.03159E-03-2.29188E-01 4.43066E-14-2.70334E-13
 -1      1566 2.15058E+01 1.89786E-02-3.97722E-03-2.11193E-01 1.12826E-14-4.24884E-13
 -1      1567 2.12442E+01 2.85982E-02 1.39813E-03-1.91535E-01-3.46034E-14-4.78798E-13
 -1      1568 2.11395E+01 3.05120E-02-7.76668E-03-3.32313E-01-2.34023E-14-2.51835E-13
 -1      1569 2.21921E+01 2.73012E-02-7.12950E-03-3.07863E-01 9.41851E-14-6.23652E-13
 -1      1570 2.18088E+01 4.21091E-02 1.10991E-03-2.78237E-01 6.91140E-14-5.22887E-13
 -1      1571 2.16281E+01 4.47678E-02-1.20572E-02-4.81584E-01 1.15545E-13-4.65045E-13
 -1      1572 2.31768E+01 3.73354E-02-1.27876E-02-4.46344E-01 6.10831E-14-8.51916E-13
 -1      1573 2.26187E+01 6.14589E-02 6.69954E-05-4.01626E-01 6.40286E-14-6.89525E-13
 -1      1574 2.23134E+01 6.39644E-02-1.88864E-02-6.94503E-01 9.76658E-14-5.37271E-13
 -1      1575 2.46467E+01 4.92211E-02-2.11730E-02-6.44072E-01-1.98247E-13-6.28796E-13
 -1      1576 2.37986E+01 8.45224E-02-3.39424E-03-5.75812E-01-8.51394E-14-7.59559E-13
 -1      1577 2.32915E+01 9.16855E-02-2.78947E-02-9.95066E-01-8.65748E-14-3.57899E-13
 -1      1578 2.65697E+01 5.48256E-02-2.70618E-02-8.75095E-01-6.39514E-14-6.03212E-13
 -1      1579 2.54444E+01 1.04922E-01-8.79879E-03-7.92269E-01-1.02069E-13-6.71331E-13
 -1      1580 2.46157E+01 1.12545E-01-3.94856E-02-1.38541E+00-1.16776E-13-4.18079E-13
 -1      1581 2.90052E+01 3.36106E-02-1.75456E-02-1.09162E+00 3.27221E-14-5.66353E-13
 -1      1582 2.75622E+01 9.68662E-02-1.26921E-02-1.00468E+00 2.42289E-14-5.88418E-13
 -1      1583 2.62875E+01 1.10260E-01-4.31956E-02-1.79548E+00 7.82447E-15-7.03534E-13
 -1      1584 3.16804E+01-5.06783E-02 3.82363E-02-1.12311E+00-2.57259E-15-6.31509E-13
 -1      1585 3.01004E+01 1.17401E-02-3.57948E-04-1.08774E+00 2.20683E-14-6.54782E-13
 -1      1586 2.82737E+01 2.18767E-02-2.09875E-02-2.04926E+00 4.51358E-14-5.03569E-13
 -1      1587 3.37367E+01-2.35344E-01 1.59867E-01-6.27264E-01 2.34153E-14-5.00315E-13
 -1      1588 3.26040E+01-2.23173E-01 4.88755E-02-7.67741E-01 1.46896E-14-5.76733E-13
 -1      1589 3.03002E+01-2.48231E-01 5.46798E-02-1.72105E+00-1.18794E-14-6.47947E-13
 -1      1590 3.35426E+01-4.54792E-01 2.56399E-01 7.80584E-01-1.18669E-13-5.35683E-13
 -1      1591 3.39785E+01-5.99184E-01 1.23428E-01 3.09410E-01 5.54279E-14-4.81275E-13
 -1      1592 3.17293E+01-7.40534E-01 1.72722E-01-1.74125E-01 6.07778E-14-4.43061E-13
 -1      1593 2.94281E+01-3.97581E-01 5.62538E-02 2.81939E+00-2.43520E-14-3.60156E-13
 -1      1594 3.25305E+01-7.98409E-01 1.01924E-01 2.09033E+00-1.78663E-13-5.36848E-13
 -1      1595 3.15412E+01-1.13222E+00 2.01762E-01 2.79181E+00-1.23838E-13-6.36644E-13
 -1      1596 2.22167E+01 2.32670E-01-5.62091E-01 3.60022E+00-2.53519E-13 2.09777E-13
 -1      1597 2.72485E+01-2.41202E-01-1.93736E-01 3.28456E+00-1.73750E-13-2.40030E-13
 -1      1598 2.90411E+01-5.33469E-01-2.05431E-02 5.47041E+00-2.41251E-13-5.67130E-13
 -1      1599 1.72304E+01 8.30104E-01-9.17797E-01 1.30705E+00-2.43583E-13 7.60052E-13
 -1      1600 2.04252E+01 7.87565E-01-6.39802E-01 2.00596E+00-1.60649E-13 4.16056E-13
 -1      1601 2.54258E+01 1.26022E+00-3.47573E-01 4.47809E+00-3.87301E-13-6.83481E-15
 -1      1602 1.79999E+01 5.22010E-01-6.57732E-01-1.42267E+00-9.58678E-14 1.04042E-12
 -1      1603 1.73119E+01 9.76873E-01-7.11236E-01-6.56144E-01-1.50407E-13 7.58518E-13
 -1      1604 2.35802E+01 1.89961E+00-4.84805E-01 1.08053E-01-2.73226E-13 2.22216E-13
 -1      1605 2.18088E+01-1.70984E-01-8.61636E-02-2.30205E+00 4.47919E-13 5.05429E-13
 -1      1606 1.89008E+01 2.16428E-01-4.19486E-01-2.06192E+00 3.18426E-13 9.23484E-13
 -1      1607 2.41153E+01 6.89365E-01-3.19569E-01-3.07980E+00 2.67342E-13 2.50723E-13
 -1      1608 2.46589E+01-5.01158E-01 2.90042E-01-8.32589E-01 1.56973E-13-5.27911E-14
 -1      1609 2.23938E+01-4.51800E-01 1.74962E-02-1.26692E+00 1.57411E-13 2.60569E-13
 -1      1610 2.51754E+01-8.75740E-01-7.14598E-02-2.73445E+00 4.68597E-13-5.14797E-14
 -1      1611 2.38086E+01-2.38584E-01 2.00612E-01 7.78208E-01 7.15599E-14-3.37015E-13
 -1      1612 2.39179E+01-4.07638E-01 1.83498E-01 3.38647E-01 1.51788E-13-1.20154E-13
 -1      1613 2.47507E+01-1.00873E+00 5.30954E-02 2.20272E-02 2.27214E-13-1.24935E-13
 -1      1614 2.13100E+01 1.92911E-01 8.59683E-03 1.04013E+00-1.95828E-13-6.80012E-14
 -1      1615 2.25030E+01 5.20128E-02 7.86272E-02 9.66000E-01-1.58356E-13-2.10346E-13
 -1      1616 2.28090E+01-1.14871E-01 3.61671E-02 1.71802E+00-1.60056E-13-3.79148E-13
 -1      1617 2.03422E+01 4.61677E-01-1.48119E-01 3.54953E-01 4.73580E-14 3.40422E-14
 -1      1618 2.04721E+01 4.10118E+00-9.30351E-02 1.93392E+00-6.35270E-13-3.02498E-13
 -1      1619 2.05124E+01 1.86954E+00-9.95648E-02 1.63261E+00-5.97994E-14-4.87967E-13
 -1      1620 2.02209E+01 8.88865E+00 4.63063E-04 3.05232E+00-9.24760E-13-3.14367E-13
 -1      1621 2.04171E+01 5.47780E+00-1.16839E-01 2.86720E+00-6.90864E-13-2.34344E-14
 -1      1622 2.09379E+01 3.17599E+00-5.53072E-02 4.41257E+00-2.13940E-13-4.83800E-13
 -1      1623 1.96207E+01 1.35686E+01 1.41763E-01 3.01985E+00-1.23668E-12-1.33234E-13
 -1      1624 1.99032E+01 1.05677E+01 3.45030E-02 3.15014E+00-1.05660E-12-3.36550E-13
 -1      1625 2.01010E+01 6.26772E+00 2.08432E-02 5.68695E+00-6.90538E-13-4.48377E-13
 -1      1626 1.90208E+01 1.65210E+01 2.52108E-01 1.75539E+00-9.66588E-13 1.98258E-13
 -1      1627 1.92742E+01 1.49296E+01 2.06717E-01 2.15345E+00-1.29907E-12 2.73059E-13
 -1      1628 1.90558E+01 9.40652E+00 2.27495E-01 4.81236E+00-7.12833E-13 4.39926E-14
 -1      1629 1.88039E+01 1.66567E+01 2.80473E-01-5.28254E-01-3.46140E-13 4.51084E-13
 -1      1630 1.89049E+01 1.70802E+01 3.23818E-01 1.50645E-02-7.85261E-13 5.54778E-13
 -1      1631 1.81532E+01 1.14417E+01 3.83217E-01 1.73583E+00-6.84210E-13 6.85035E-13
 -1      1632 1.91999E+01 1.33827E+01 1.93438E-01-2.71913E+00-3.34149E-13-9.43690E-16
 -1      1633 1.90500E+01 1.58792E+01 2.96534E-01-2.34575E+00-1.90181E-13-1.87073E-14
 -1      1634 1.80702E+01 1.12066E+01 3.91882E-01-2.54555E+00-4.45401E-13 4.65739E-13
 -1      1635 1.99399E+01 7.53985E+00 3.64765E-02-3.82786E+00-3.98181E-13-1.10051E-13
 -1      1636 1.96566E+01 1.14253E+01 1.55194E-01-3.77579E+00-2.90434E-13 2.29677E-14
 -1      1637 1.88959E+01 8.39113E+00 2.18934E-01-5.97579E+00-2.25500E-13-8.91925E-14
 -1      1638 2.04972E+01 9.07266E-01-9.34927E-02-3.39252E+00-1.03831E-12-4.15709E-13
 -1      1639 2.02777E+01 5.00026E+00-1.03003E-02-3.64969E+00-5.37459E-13-3.84725E-13
 -1      1640 2.01082E+01 3.86965E+00-4.65761E-03-6.94979E+00-4.77840E-13-4.83218E-13
 -1      1641 2.05682E+01-3.91353E+00-1.04518E-01-1.96992E+00-1.14209E-12-1.25649E-13
 -1      1642 2.05276E+01-1.14412E+00-8.94190E-02-2.31247E+00-1.03473E-12-2.98650E-14
 -1      1643 2.09235E+01-5.70373E-01-1.17958E-01-5.31711E+00-4.87312E-13-3.58980E-13
 -1      1644 2.03841E+01-5.98233E+00-5.41197E-02-6.51507E-01-7.65937E-13 2.57017E-13
 -1      1645 2.04573E+01-4.94126E+00-6.61265E-02-8.78037E-01-9.97438E-13 1.14513E-13
 -1      1646 2.09659E+01-3.41492E+00-1.16956E-01-2.69360E+00-3.67081E-13 4.57204E-14
 -1      1647 2.01929E+01-6.14863E+00-1.04614E-02 1.89610E-01-3.22499E-13 3.59338E-13
 -1      1648 2.02783E+01-6.25159E+00-2.45253E-02 7.72633E-02-7.40581E-13 2.47843E-13
 -1      1649 2.06408E+01-4.55040E+00-7.01544E-02-5.82971E-01-4.26756E-13 3.15158E-13
 -1      1650 2.00662E+01-5.24774E+00 9.36561E-03 5.97345E-01-1.01391E-13 2.15904E-13
 -1      1651 2.01304E+01-5.93374E+00 1.48525E-03 5.58078E-01-2.36644E-13 3.17250E-13
 -1      1652 2.03160E+01-4.52174E+00-3.00778E-02 6.66117E-01-3.07903E-13 4.45609E-13
 -1      1653 1.99966E+01-3.90037E+00 1.32115E-02 7.26980E-01 3.53398E-14-9.61479E-14
 -1      1654 2.00390E+01-4.78822E+00 9.51935E-03 7.25194E-01 5.52197E-14 1.20343E-13
 -1      1655 2.01042E+01-3.83446E+00-6.88236E-03 1.22505E+00-7.68691E-14 1.45037E-13
 -1      1656 1.99575E+01-2.49532E+00 1.12211E-02 7.01271E-01 1.19592E-13 3.16836E-14
 -1      1657 1.99876E+01-3.36363E+00 8.96035E-03 7.16518E-01 9.77968E-14 1.10184E-13
 -1      1658 1.99877E+01-2.86329E+00 4.62816E-03 1.35427E+00 7.17863E-14 1.30589E-13
 -1      1659 1.99235E+01-1.29551E+00 3.46278E-03 5.73050E-01 3.06567E-13-1.08785E-13
 -1      1660 1.99534E+01-1.99364E+00 7.34574E-03 6.00458E-01 2.83815E-13 1.75103E-14
 -1      1661 1.99131E+01-1.85466E+00 1.10436E-02 1.22950E+00 2.17113E-13 1.78178E-14
 -1      1662 1.98379E+01-5.08982E-01-4.91747E-03 4.68313E-01 2.45397E-13-3.84666E-14
 -1      1663 1.98598E+01-9.34022E-01 1.89177E-03 5.62266E-01 2.39760E-13-1.98152E-13
 -1      1664 1.98079E+01-9.88759E-01 2.72310E-02 1.04838E+00 1.88238E-13-1.65352E-13
 -1      1665 1.95495E+01-4.07632E-01 1.59752E-02 8.54807E-01 2.23299E-13-1.70244E-13
 -1      1666-1.25452E+00-2.45815E+01-2.93731E+00-2.34911E+00 1.43252E-12 7.00384E-13
 -1      1667-1.05749E+00-2.70356E+01-3.22962E+00-3.86469E-01 8.63490E-13 5.51892E-13
 -1      1668 8.27374E-01-1.53459E+01-2.02179E+00-7.23464E-01 1.45861E-12 3.16330E-13
 -1      1669 2.39973E-01-2.25377E+01-2.82611E+00-1.08945E+00 1.76237E-12 3.64625E-13
 -1      1670 8.19540E+00-4.25182E+00-8.53905E-01 4.65272E+00 9.49463E-13 1.85962E-13
 -1      1671 4.45973E+00-1.25411E+01-1.99416E+00 9.63927E-01 1.21392E-12 3.46168E-13
 -1      1672 2.00649E+01 4.24416E+00 2.43435E-01 1.08835E+01 2.03837E-13-6.28386E-13
 -1      1673 1.23566E+01-1.04012E+00-9.85051E-01 5.97051E+00 8.79741E-13-1.20792E-13
 -1      1674 3.87770E+01 6.79965E+00 1.42653E+00 1.48794E+01-4.54858E-13-1.52478E-12
 -1      1675 2.69118E+01 5.40992E+00 1.72171E-01 1.15390E+01-1.55875E-13-8.47766E-13
 -1      1676 5.67729E+01 6.35157E+00 2.51498E+00 1.36974E+01-5.77038E-13-2.14739E-12
 -1      1677 4.49946E+01 8.06657E+00 1.46838E+00 1.48116E+01-5.65215E-13-1.83054E-12
 -1      1678 6.71030E+01 4.71561E+00 3.01405E+00 6.43459E+00-4.39648E-13-1.93806E-12
 -1      1679 6.06146E+01 6.60847E+00 2.51567E+00 1.17893E+01-6.33049E-13-2.02571E-12
 -1      1680 6.68529E+01 4.24064E+00 2.89836E+00-2.13338E+00-6.19504E-14-1.41565E-12
 -1      1681 6.86815E+01 4.42924E+00 3.10091E+00 4.49905E+00-1.54099E-13-1.65328E-12
 -1      1682 5.50458E+01 4.82028E+00 1.91696E+00-8.89321E+00-2.61735E-14-9.51239E-13
 -1      1683 6.48159E+01 3.58817E+00 2.89241E+00-4.56116E+00-1.40138E-13-1.46949E-12
 -1      1684 3.61033E+01 3.99998E+00 3.79047E-01-9.15909E+00-5.51781E-14-3.49054E-13
 -1      1685 4.89905E+01 3.77503E+00 1.73517E+00-9.56729E+00 4.23550E-14-5.95524E-13
 -1      1686 1.79164E+01-7.12480E-01-8.82682E-01-5.13411E+00-4.55191E-14 5.99520E-14
 -1      1687 2.92632E+01 2.19788E+00 3.63036E-01-9.19328E+00-1.63203E-14 4.01901E-14
 -1      1688 5.28476E+00-6.95350E+00-1.70908E+00-4.87836E-01-3.48166E-13 6.07292E-14
 -1      1689 1.03492E+01-1.56585E+00-8.51501E-01-4.34496E+00-8.85958E-14 1.64313E-14
 -1      1690 3.88091E-01-1.51049E+01-2.03906E+00 2.55728E+00-1.83076E-13 2.36422E-13
 -1      1691 1.78635E+00-9.11869E+00-1.50603E+00 9.37283E-01-2.61346E-13 1.45106E-13
 -1      1692-9.58297E-01-2.06716E+01-2.04946E+00 2.26877E+00 2.38587E-13-3.73590E-14
 -1      1693-1.21133E+00-1.67974E+01-1.83181E+00 3.20987E+00-3.67484E-14 2.86202E-13
 -1      1694-1.10467E+00-2.10836E+01-1.89491E+00 5.53341E-01 3.24296E-13-3.11973E-14
 -1      1695-1.43771E+00-2.12282E+01-1.97273E+00 2.66246E+00 3.72258E-13-1.22680E-13
 -1      1696-3.73357E-01-1.61583E+01-1.56316E+00-3.18195E-01 3.09530E-13 1.36557E-13
 -1      1697-5.48889E-01-2.01827E+01-1.91176E+00 9.13765E-01 2.82330E-13 6.82787E-14
 -1      1698 2.09349E+00-7.92631E+00-1.08925E+00 1.21598E+00 4.53859E-13 2.04836E-13
 -1      1699 1.02923E+00-1.41858E+01-1.69794E+00 1.89353E-01 2.99316E-13 3.31957E-13
 -1      1700 9.05043E+00 6.20422E-01-3.91479E-01 6.14931E+00 2.44249E-15-4.52416E-13
 -1      1701 5.21455E+00-5.36261E+00-1.19812E+00 2.74652E+00 4.58744E-13-8.28226E-14
 -1      1702 2.13167E+01 5.71040E+00 3.07286E-01 1.13959E+01-2.51021E-13-2.13607E-13
 -1      1703 1.38801E+01 2.47292E+00-5.48238E-01 7.52186E+00-1.44995E-13-2.73781E-13
 -1      1704 3.70230E+01 6.65333E+00 9.87122E-01 1.32619E+01-1.62315E-13 2.58460E-13
 -1      1705 2.73137E+01 6.39185E+00 1.71922E-01 1.14693E+01-3.26073E-13-5.77316E-14
 -1      1706 5.21208E+01 5.93520E+00 1.66312E+00 1.20079E+01-7.57727E-15 8.95062E-13
 -1      1707 4.24800E+01 7.72863E+00 9.66231E-01 1.38484E+01-9.98646E-14 3.68372E-13
 -1      1708 6.16023E+01 4.20290E+00 1.87880E+00 4.21849E+00-1.54571E-13 1.69281E-12
 -1      1709 5.59204E+01 5.59279E+00 1.51544E+00 9.43670E+00-7.22616E-14 1.10489E-12
 -1      1710 6.27861E+01 4.71112E+00 1.88710E+00-5.30395E+00 8.94840E-14 1.49081E-12
 -1      1711 6.29738E+01 4.26331E+00 1.85130E+00 1.14483E+00 1.39888E-14 1.70758E-12
 -1      1712 5.32371E+01 7.79806E+00 1.51919E+00-1.35258E+01-2.02074E-13 8.75744E-13
 -1      1713 6.07568E+01 5.33320E+00 1.95435E+00-8.28973E+00 1.70697E-14 1.10001E-12
 -1      1714 3.61995E+01 9.14990E+00 8.35308E-01-1.46984E+01-6.17062E-13 7.51843E-13
 -1      1715 4.78797E+01 7.64456E+00 1.59579E+00-1.46217E+01-4.56191E-13 7.06435E-13
 -1      1716 2.06980E+01 6.83279E+00 1.14779E-01-1.17984E+01-4.77618E-13 8.05578E-13
 -1      1717 2.98903E+01 8.78515E+00 1.02331E+00-1.54717E+01-6.65024E-13 9.71445E-13
 -1      1718 9.91907E+00 1.37096E-02-7.84748E-01-6.35513E+00-7.70051E-13 3.38396E-13
 -1      1719 1.52909E+01 5.17792E+00 1.84640E-01-1.05139E+01-6.28830E-13 6.89893E-13
 -1      1720 3.60180E+00-9.04480E+00-1.73086E+00-1.60296E+00-6.80789E-13 4.26881E-13
 -1      1721 5.79915E+00-2.67007E+00-9.05983E-01-4.32231E+00-6.52811E-13 7.50067E-13
 -1      1722 1.05455E+00-1.71292E+01-2.50475E+00 6.91094E-01-9.75220E-13 1.82354E-13
 -1      1723 1.74380E+00-1.13972E+01-1.81256E+00-2.55228E-01-8.23785E-13-1.71640E-13
 -1      1724 6.47021E+00-9.83764E+00-1.29229E+00-5.65819E+00-8.00915E-13 2.86049E-13
 -1      1725-3.50925E-01-2.50722E+01-3.23313E+00 9.47645E-01-1.51101E-13 5.32130E-13
 -1      1726-3.99101E-01-2.05400E+01-2.73900E+00 1.49198E+00-7.66498E-13 5.51337E-13
 -1      1727-9.52094E-01-2.93377E+01-3.60622E+00-6.53121E-01 5.23803E-13 4.12420E-13
 -1      1728-9.96309E-01-2.71184E+01-3.39049E+00 1.35735E+00-1.78746E-14 4.50029E-13
 -1      1729-1.18879E+00-2.04170E+01-2.63701E+00-1.93584E+00-2.50466E-13 9.38527E-13
 -1      1730 2.98681E+01-1.44469E+00 3.60411E-01 8.39648E+00 2.29927E-13-1.17462E-12
 -1      1731 1.71957E+01-7.30093E+00-6.11422E-01 7.53966E+00 4.12337E-13-6.95666E-13
 -1      1732 2.06217E+01 9.15152E-01-1.33730E-01 1.11436E+00-1.58023E-13-2.64792E-13
 -1      1733 2.12546E+01 1.00818E+00-1.15572E-01 2.60803E+00-3.47453E-13-5.41699E-13
 -1      1734-3.35828E-02-1.67568E+01-1.98638E+00 2.23426E+00 7.54508E-13 5.60663E-13
 -1      1735 7.06788E+00-1.27316E+01-1.33981E+00 5.70693E+00 7.15872E-13-1.67436E-14
 -1      1736-2.20430E+00-2.04197E+01-2.53848E+00-5.75294E-01 2.59529E-13 8.97060E-13
 -1      1737 4.24499E+01 3.28881E+00 1.22246E+00 7.33875E+00 1.08358E-13-1.20570E-12
 -1      1738 5.18773E+01 7.24249E+00 2.01148E+00 5.48618E+00-4.50362E-13-1.46771E-12
 -1      1739 5.61899E+01 8.78900E+00 2.35957E+00 3.24093E+00-4.84723E-13-1.12774E-12
 -1      1740 5.58892E+01 7.39027E+00 2.28090E+00 8.50797E-01-3.20188E-13-9.64673E-13
 -1      1741 4.79868E+01 3.74245E+00 1.41890E+00-1.40177E+00-2.21947E-13-9.11271E-13
 -1      1742 3.57849E+01-1.52762E+00 4.05077E-01-2.77780E+00-9.58122E-14-2.76779E-13
 -1      1743 2.17181E+01-5.68053E+00-3.42257E-01-4.36677E+00-9.33698E-14 6.50591E-14
 -1      1744 8.87313E+00-9.60311E+00-1.08078E+00-3.06783E+00-4.85167E-14-4.66294E-15
 -1      1745 1.59836E+00-1.32376E+01-1.39212E+00-1.20764E+00 1.34337E-13 3.52357E-13
 -1      1746-1.82391E+00-1.49846E+01-1.43582E+00 4.91451E-01 1.63203E-13 3.01981E-14
 -1      1747-1.80293E+00-1.45602E+01-1.35818E+00 2.18090E+00 3.40117E-13-3.85803E-14
 -1      1748 1.31993E+00-1.20444E+01-1.17490E+00 3.78406E+00 2.20934E-13 2.46220E-13
 -1      1749 7.73205E+00-7.58507E+00-7.43264E-01 5.80511E+00 2.03726E-13-2.35867E-13
 -1      1750 1.74979E+01-2.79861E+00-1.55341E-01 7.72420E+00 1.39888E-13-4.53970E-13
 -1      1751 2.90004E+01 1.04930E+00 3.73547E-01 7.88678E+00-1.75304E-13 1.20792E-13
 -1      1752 3.95106E+01 4.64268E+00 7.84924E-01 6.95956E+00-2.78583E-13 4.23550E-13
 -1      1753 4.89388E+01 7.42167E+00 1.39014E+00 5.09077E+00-3.62904E-13 8.70304E-13
 -1      1754 5.36490E+01 8.58749E+00 1.60063E+00 5.74535E-01-2.37255E-13 1.12416E-12
 -1      1755 5.30747E+01 9.16953E+00 1.63278E+00-4.15665E+00 2.54685E-13 9.72167E-13
 -1      1756 4.60411E+01 7.70925E+00 1.20584E+00-7.07055E+00-2.04808E-13 4.65628E-13
 -1      1757 3.63378E+01 4.50260E+00 9.44186E-01-9.79047E+00-2.97207E-13 1.63314E-13
 -1      1758 2.44754E+01 6.29349E-01 3.79246E-01-1.04463E+01-3.86358E-13 6.99441E-13
 -1      1759 1.38008E+01-4.43671E+00-4.39293E-01-8.37102E+00-6.31939E-13 4.75842E-13
 -1      1760 2.28612E+01 1.98488E+00-2.35586E-02-2.72190E+00-2.96225E-13 1.31622E-12
 -1      1761 1.98315E+00-1.55691E+01-1.98758E+00-3.41939E+00-6.23057E-13 4.18124E-13
 -1      1762 1.98261E+01 3.71378E+00-3.54319E-02-2.15188E+00-4.23072E-13-3.66328E-13
 -1      1763 2.00591E+01 3.56282E+00-4.02142E-02-2.44409E+00-4.76286E-13-2.33074E-13
 -1      1764 2.03649E+01 3.18152E+00-4.57902E-02-2.58391E+00-4.65578E-13-5.44703E-14
 -1      1765 2.05853E+01 2.80972E+00-1.42497E-01-2.85228E+00-4.83173E-13 1.91458E-13
 -1      1766 2.04256E+01 2.69296E+00-4.14021E-03-2.22328E+00-4.89825E-13-1.21386E-13
 -1      1767 1.93542E+01 4.18922E+00-2.00882E-02-1.26966E+00-2.65601E-13-6.17706E-13
 -1      1768 1.94285E+01 4.14977E+00-1.69077E-02-1.49394E+00-3.05958E-13-5.77198E-13
 -1      1769 1.92571E+01 4.29508E+00-1.67496E-02-8.58950E-01-1.90367E-13-6.54751E-13
 -1      1770 1.93001E+01 4.27114E+00-1.42464E-02-1.06961E+00-2.28154E-13-6.43806E-13
 -1      1771 1.95261E+01 3.78365E+00-8.97815E-03-1.11878E+00-2.69006E-13-6.07145E-13
 -1      1772 1.92052E+01 4.35555E+00-1.47883E-02-4.66376E-01-9.95060E-14-6.51911E-13
 -1      1773 1.92273E+01 4.34270E+00-1.32889E-02-6.66537E-01-1.38929E-13-6.50988E-13
 -1      1774 1.94282E+01 3.90390E+00-9.14503E-03-7.32551E-01-1.72646E-13-6.28898E-13
 -1      1775 1.91856E+01 4.38118E+00-1.36620E-02-8.35367E-02-7.50786E-15-6.64890E-13
 -1      1776 1.91921E+01 4.37726E+00-1.32070E-02-2.78833E-01-4.79395E-14-6.61773E-13
 -1      1777 1.93776E+01 3.96841E+00-9.14323E-03-3.57958E-01-7.63756E-14-6.33210E-13
 -1      1778 1.91938E+01 4.37588E+00-1.31635E-02 2.97894E-01 6.27207E-14-6.66849E-13
 -1      1779 1.91861E+01 4.38034E+00-1.37474E-02 1.02435E-01 3.15747E-14-6.66755E-13
 -1      1780 1.93627E+01 3.98783E+00-9.13832E-03 1.05606E-02 1.57342E-14-6.44179E-13
 -1      1781 1.92313E+01 4.33867E+00-1.33212E-02 6.86332E-01 1.33227E-13-6.60156E-13
 -1      1782 1.92079E+01 4.35236E+00-1.49138E-02 4.85662E-01 1.00120E-13-6.69565E-13
 -1      1783 1.93803E+01 3.96509E+00-9.18268E-03 3.79276E-01 8.52053E-14-6.43817E-13
 -1      1784 1.93053E+01 4.26522E+00-1.44023E-02 1.08375E+00 2.22299E-13-6.22289E-13
 -1      1785 1.92617E+01 4.28969E+00-1.69711E-02 8.75883E-01 1.78689E-13-6.46023E-13
 -1      1786 1.94335E+01 3.89754E+00-9.18825E-03 7.51146E-01 1.72102E-13-6.29103E-13
 -1      1787 1.94376E+01 4.13796E+00-1.73955E-02 1.51356E+00 3.17772E-13-5.46254E-13
 -1      1788 1.93608E+01 4.18055E+00-2.05028E-02 1.28410E+00 2.71920E-13-5.87811E-13
 -1      1789 1.95337E+01 3.77355E+00-9.23466E-03 1.13466E+00 2.69909E-13-5.82890E-13
 -1      1790 1.96676E+01 3.92132E+00-2.51859E-02 1.97852E+00 4.14394E-13-4.23217E-13
 -1      1791 1.95343E+01 3.99810E+00-2.69070E-02 1.72122E+00 3.61667E-13-4.98400E-13
 -1      1792 1.97078E+01 3.56637E+00-8.69204E-03 1.53418E+00 3.65818E-13-4.85003E-13
 -1      1793 2.00770E+01 3.52288E+00-4.51764E-02 2.47096E+00 4.87398E-13-2.05037E-13
 -1      1794 1.98366E+01 3.68336E+00-3.97273E-02 2.18184E+00 4.43966E-13-3.34337E-13
 -1      1795 2.00050E+01 3.22309E+00-5.26927E-03 1.93342E+00 4.59385E-13-3.40773E-13
 -1      1796 2.09230E+01 2.68179E+00-5.76395E-02 2.85681E+00 4.92184E-13 2.46005E-13
 -1      1797 2.04153E+01 3.09695E+00-5.04293E-02 2.61494E+00 4.79676E-13-2.72074E-14
 -1      1798 2.05190E+01 2.61000E+00 3.18822E-03 2.24344E+00 5.01757E-13-9.87613E-14
 -1      1799 2.17335E+01 1.21293E+00-1.22086E-01 2.32909E+00 4.35499E-13 8.10602E-13
 -1      1800 2.12769E+01 2.26300E+00 1.15958E-04 2.73957E+00 4.66309E-13 4.40203E-13
 -1      1801 2.09397E+01 1.68502E+00-2.29492E-02 2.13921E+00 5.12887E-13 2.42979E-13
 -1      1802 2.09552E+01 7.78657E-01-6.24354E-02 1.52340E+00 4.39059E-13 6.71230E-13
 -1      1803 2.17993E+01 2.45815E+00 9.09102E-02-3.04737E+00-4.04494E-13 6.01463E-13
 -1      1804 2.01049E+01 2.97973E-01-8.90607E-03 6.56228E-01 3.47573E-13 4.78966E-13
 -1      1805 2.06566E+01 4.40421E-01-1.24622E-02 1.03329E+00 3.61405E-13 5.97246E-13
 -1      1806 2.07476E+01 8.45122E-01 2.24225E-03 1.41421E+00 4.39985E-13 3.54598E-13
 -1      1807 3.10720E+00-1.33325E+01-1.23143E+00-5.30707E+00-3.08975E-13 5.23387E-13
 -1      1808 5.47855E+00-1.07860E+01-8.63912E-01-6.46427E+00-4.98823E-13 2.97290E-13
 -1      1809 2.15097E+01 1.74227E+00 7.94435E-02-2.33624E+00-4.40689E-13 4.17937E-13
 -1      1810 2.05238E+01 5.00751E-01 3.23924E-02-9.20746E-01-3.58175E-13 3.47068E-13
 -1      1811 2.00925E+01 3.52159E-01 7.53583E-03-6.28740E-01-3.17479E-13 2.46201E-13
 -1      1812 1.98984E+01 2.57374E-01 2.73849E-02-3.90283E-01-2.86787E-13 2.21064E-13
 -1      1813 1.97077E+01 1.78050E-01 1.03753E-02-2.52460E-01-2.49564E-13 1.45018E-13
 -1      1814 2.02022E+01 4.83857E-01-5.87148E-03-7.21363E-01-3.56801E-13 5.05971E-14
 -1      1815 1.95858E+01 1.32772E-01 1.66375E-02-1.18913E-01-2.16796E-13 1.31712E-13
 -1      1816 1.95080E+01 9.31387E-02 6.96651E-03-4.80882E-02-1.72873E-13 7.00646E-14
 -1      1817 1.98765E+01 2.43954E-01-5.80855E-03-2.94466E-01-2.78787E-13-8.04305E-15
 -1      1818 1.94434E+01 6.84539E-02 8.68414E-03 2.54801E-02-1.25823E-13 6.00939E-14
 -1      1819 1.94292E+01 4.67466E-02 4.11351E-03 6.16711E-02-8.71432E-14 3.18851E-14
 -1      1820 1.96942E+01 1.25336E-01-4.63127E-03-5.75406E-02-1.75012E-13-3.25560E-14
 -1      1821 1.94034E+01 3.23889E-02 4.23179E-03 1.00379E-01-9.05627E-14 2.16396E-14
 -1      1822 1.94235E+01 1.99281E-02 2.43271E-03 1.17143E-01-8.73808E-14-2.35211E-14
 -1      1823 1.96081E+01 6.09598E-02-3.45262E-03 7.20761E-02-1.21539E-13-1.00923E-13
 -1      1824 1.94219E+01 1.12659E-02 1.84715E-03 1.35023E-01-9.72254E-14-3.08014E-14
 -1      1825 1.94593E+01 4.05793E-03 1.44504E-03 1.40408E-01-1.11760E-13-6.72703E-14
 -1      1826 1.95842E+01 2.40104E-02-2.32955E-03 1.38425E-01-1.18610E-13-9.33936E-14
 -1      1827 1.94719E+01-1.16762E-03 5.43169E-04 1.45708E-01-9.79074E-14-4.98592E-14
 -1      1828 1.95163E+01-5.18785E-03 8.27093E-04 1.44414E-01-8.19447E-14-3.39711E-14
 -1      1829 1.95980E+01 2.39669E-03-1.42824E-03 1.66592E-01-9.58616E-14-1.14312E-13
 -1      1830 1.95363E+01-8.22031E-03-1.81601E-04 1.42243E-01-1.11322E-13-2.44535E-14
 -1      1831 1.95818E+01-1.02344E-02 4.25114E-04 1.37191E-01-6.82115E-14-3.55828E-14
 -1      1832 1.96327E+01-9.97460E-03-7.79461E-04 1.71699E-01-9.24989E-14-1.08931E-13
 -1      1833 1.96048E+01-1.18311E-02-5.72217E-04 1.30828E-01-7.29962E-14-8.60892E-14
 -1      1834 1.96479E+01-1.25706E-02 1.64069E-04 1.23892E-01-7.21532E-14-1.35967E-13
 -1      1835 1.96774E+01-1.65222E-02-3.42250E-04 1.63290E-01-1.23004E-13-1.29881E-13
 -1      1836 1.96711E+01-1.32260E-02-7.58507E-04 1.15471E-01-5.06433E-14-1.83179E-13
 -1      1837 1.97099E+01-1.31679E-02 4.44087E-07 1.07857E-01-3.94890E-14-1.95709E-13
 -1      1838 1.97249E+01-1.93397E-02-6.26067E-05 1.47543E-01-8.43621E-14-1.71224E-13
 -1      1839 1.97317E+01-1.32173E-02-8.17288E-04 9.87573E-02-6.63151E-14-1.90252E-13
 -1      1840 1.97654E+01-1.26806E-02-9.47924E-05 9.12261E-02-6.06665E-14-1.90440E-13
 -1      1841 1.97709E+01-1.97876E-02 1.05260E-04 1.28483E-01-5.38037E-14-1.70895E-13
 -1      1842 1.97849E+01-1.23546E-02-7.97666E-04 8.23194E-02-2.01375E-14-2.00790E-13
 -1      1843 1.98133E+01-1.15526E-02-1.42063E-04 7.53322E-02-2.56583E-14-1.66791E-13
 -1      1844 1.98130E+01-1.87771E-02 1.95749E-04 1.08701E-01-6.12013E-14-1.98973E-13
 -1      1845 1.98303E+01-1.10082E-02-7.32111E-04 6.71435E-02-4.68363E-14-1.49904E-13
 -1      1846 1.98538E+01-1.00799E-02-1.55718E-04 6.09592E-02-1.94820E-14-1.01866E-13
 -1      1847 1.98501E+01-1.69217E-02 2.33699E-04 8.98109E-02-1.93501E-14-1.35889E-13
 -1      1848 1.98681E+01-9.42071E-03-6.42152E-04 5.37833E-02-6.11784E-14-1.11846E-13
 -1      1849 1.98871E+01-8.45193E-03-1.45559E-04 4.85293E-02-3.48938E-14-1.20752E-13
 -1      1850 1.98817E+01-1.46266E-02 2.36717E-04 7.27703E-02-4.00396E-14-1.93604E-13
 -1      1851 1.98991E+01-7.74208E-03-5.41772E-04 4.25127E-02-5.46324E-14-1.47471E-13
 -1      1852 1.99144E+01-6.77939E-03-1.17963E-04 3.82368E-02-3.46777E-14-1.15762E-13
 -1      1853 1.99083E+01-1.21464E-02 2.17004E-04 5.81014E-02-4.86465E-14-1.46988E-13
 -1      1854 1.99242E+01-6.05403E-03-4.39648E-04 3.34385E-02-4.20211E-14-1.72088E-13
 -1      1855 1.99365E+01-5.11601E-03-7.67551E-05 3.01463E-02-4.40115E-14-2.13499E-13
 -1      1856 1.99303E+01-9.62547E-03 1.82743E-04 4.60555E-02-7.82693E-14-1.08490E-13
 -1      1857 1.99447E+01-4.38939E-03-3.40748E-04 2.65815E-02-5.63711E-14-2.81224E-13
 -1      1858 1.99548E+01-3.47508E-03-2.39181E-05 2.42632E-02-8.87870E-14-3.31598E-13
 -1      1859 1.99486E+01-7.12906E-03 1.39207E-04 3.67307E-02-9.78889E-14-2.49297E-13
 -1      1860 1.99619E+01-2.74719E-03-2.47529E-04 2.19333E-02-9.41104E-14-2.99278E-13
 -1      1861 1.99704E+01-1.84313E-03 3.97435E-05 2.05822E-02-3.01148E-14-2.89005E-13
 -1      1862 1.99640E+01-4.66671E-03 8.96003E-05 3.01565E-02-8.77887E-14-3.04044E-13
 -1      1863 1.99768E+01-1.10553E-03-1.60868E-04 1.94951E-02 2.20757E-14-2.96372E-13
 -1      1864 1.99847E+01-1.92346E-04 1.13893E-04 1.91177E-02 7.25105E-14-2.71323E-13
 -1      1865 1.99776E+01-2.21254E-03 3.57137E-05 2.63504E-02-2.02176E-14-2.71518E-13
 -1      1866 1.99910E+01 5.65927E-04-8.07962E-05 1.92966E-02 8.18134E-14-2.42499E-13
 -1      1867 1.99991E+01 1.50645E-03 1.97802E-04 1.99158E-02 4.22793E-14-2.06440E-13
 -1      1868 1.99904E+01 2.75970E-04-2.15037E-05 2.53517E-02 1.04331E-13-2.38328E-13
 -1      1869 2.00058E+01 2.29209E-03-7.13637E-06 2.13989E-02 2.07987E-14-1.87335E-13
 -1      1870 2.00148E+01 3.26819E-03 2.89243E-04 2.30479E-02 5.39960E-14-1.28816E-13
 -1      1871 2.00035E+01 2.83759E-03-8.13895E-05 2.72312E-02 8.66643E-14-1.88448E-13
 -1      1872 2.00226E+01 4.07503E-03 5.99037E-05 2.58739E-02-2.08627E-14-8.27015E-14
 -1      1873 2.00334E+01 5.07336E-03 3.83024E-04 2.85792E-02 2.33631E-15-1.17679E-13
 -1      1874 2.00181E+01 5.48238E-03-1.43020E-04 3.20751E-02 8.62960E-15-1.26943E-13
 -1      1875 2.00427E+01 5.87091E-03 1.19161E-04 3.27572E-02 2.51807E-14-1.08351E-13
 -1      1876 2.00562E+01 6.84081E-03 4.69069E-04 3.65064E-02-7.46839E-16-1.25262E-13
 -1      1877 2.00354E+01 8.15888E-03-2.04623E-04 3.99358E-02 1.02574E-14-1.52703E-13
 -1      1878 2.00677E+01 7.55906E-03 1.67953E-04 4.19644E-02-8.67095E-14-2.08506E-13
 -1      1879 2.00845E+01 8.39158E-03 5.30024E-04 4.66547E-02-1.61485E-13-2.65043E-13
 -1      1880 2.00564E+01 1.07102E-02-2.62911E-04 5.07417E-02-8.05620E-14-1.56631E-13
 -1      1881 2.00987E+01 8.90156E-03 2.01539E-04 5.31601E-02-1.48813E-13-3.42068E-13
 -1      1882 2.01193E+01 9.40329E-03 5.38558E-04 5.85212E-02-1.05512E-13-3.92175E-13
 -1      1883 2.00823E+01 1.28165E-02-3.12318E-04 6.41519E-02-1.78020E-13-1.59696E-13
 -1      1884 2.01366E+01 9.49410E-03 2.12683E-04 6.55678E-02-3.42101E-14-3.42130E-13
 -1      1885 2.01613E+01 9.35764E-03 4.54840E-04 7.10560E-02 2.91748E-14-3.29520E-13
 -1      1886 2.01140E+01 1.39242E-02-3.44125E-04 7.93437E-02-5.54334E-14-1.48324E-13
 -1      1887 2.01817E+01 8.71324E-03 1.91442E-04 7.77148E-02 3.22942E-14-4.06942E-13
 -1      1888 2.02098E+01 7.49059E-03 2.25244E-04 8.23776E-02-5.89696E-15-4.09180E-13
 -1      1889 2.01520E+01 1.31689E-02-3.45511E-04 9.47232E-02-1.77186E-15-3.33930E-13
 -1      1890 2.02332E+01 5.67426E-03 1.25373E-04 8.71174E-02 2.36963E-14-3.70498E-13
 -1      1891 2.02632E+01 2.76621E-03-2.15822E-04 8.94402E-02 1.10457E-13-4.08897E-13
 -1      1892 2.01960E+01 9.30945E-03-2.98583E-04 1.07563E-01 3.32896E-14-2.82520E-13
 -1      1893 2.02885E+01-7.71978E-04 3.89672E-07 8.99414E-02 9.07862E-15-3.69514E-13
 -1      1894 2.03174E+01-6.08608E-03-9.37996E-04 8.77070E-02-6.27212E-14-3.43591E-13
 -1      1895 2.02449E+01 7.12870E-04-1.79506E-04 1.13597E-01 9.30331E-14-2.92719E-13
 -1      1896 2.03428E+01-1.19525E-02-1.97606E-04 8.07230E-02-9.62401E-14-2.77169E-13
 -1      1897 2.03654E+01-2.04063E-02-1.99696E-03 7.09486E-02-1.09993E-13-2.63249E-13
 -1      1898 2.02956E+01-1.45420E-02 4.19633E-05 1.06665E-01-2.47296E-15-1.94028E-13
 -1      1899 2.03879E+01-2.91197E-02-4.80276E-04 5.23197E-02-1.27792E-13-2.73839E-13
 -1      1900 2.03967E+01-4.12215E-02-3.40234E-03 3.13828E-02-1.31865E-14-2.48093E-13
 -1      1901 2.03432E+01-3.83359E-02 4.01910E-04 7.85639E-02-1.09771E-13-1.03522E-13
 -1      1902 2.04114E+01-5.29358E-02-8.53901E-04-3.63213E-03 6.65483E-15-2.50573E-13
 -1      1903 2.03963E+01-6.85504E-02-5.06991E-03-3.95129E-02 9.63448E-14-2.44787E-13
 -1      1904 2.03795E+01-7.18191E-02 9.39055E-04 1.94185E-02-4.40273E-14-3.49998E-14
 -1      1905 2.03966E+01-8.26148E-02-1.31555E-03-9.53598E-02 1.17149E-13-3.71316E-13
 -1      1906 2.03455E+01-1.00360E-01-6.76471E-03-1.49096E-01 9.10856E-14-4.31063E-13
 -1      1907 2.03930E+01-1.14240E-01 1.68513E-03-8.10169E-02 4.07877E-16-2.09428E-13
 -1      1908 2.03227E+01-1.14753E-01-1.84646E-03-2.28267E-01 9.30900E-14-4.20094E-13
 -1      1909 2.02231E+01-1.31334E-01-8.05831E-03-3.00189E-01 3.25096E-14-4.18808E-13
 -1      1910 2.03683E+01-1.61308E-01 2.64203E-03-2.30603E-01 6.83952E-14-2.08851E-13
 -1      1911 2.01671E+01-1.42159E-01-2.39796E-03-4.00704E-01-3.44195E-14-4.30664E-13
 -1      1912 2.00087E+01-1.51980E-01-8.34107E-03-4.86283E-01-2.32440E-14-4.60975E-13
 -1      1913 2.02866E+01-2.03487E-01 3.73565E-03-4.30241E-01 3.58513E-14-4.79066E-14
 -1      1914 1.99093E+01-1.53437E-01-2.85628E-03-5.98661E-01 2.08680E-13-4.31210E-13
 -1      1915 1.96887E+01-1.49088E-01-6.94521E-03-6.86271E-01 2.03024E-13-1.71811E-13
 -1      1916 2.01282E+01-2.25185E-01 4.75308E-03-6.67712E-01 1.27178E-13-3.78410E-14
 -1      1917 1.95396E+01-1.34495E-01-3.00192E-03-7.91130E-01 5.62896E-14-4.77062E-14
 -1      1918 1.92650E+01-1.08796E-01-3.43094E-03-8.61154E-01 3.74778E-14 1.46610E-14
 -1      1919 1.98772E+01-2.06441E-01 5.28683E-03-9.11512E-01 1.97319E-13 5.35509E-15
 -1      1920 1.90680E+01-7.31841E-02-2.49196E-03-9.29474E-01-2.80971E-15 2.42402E-14
 -1      1921 1.87634E+01-2.29735E-02 2.01750E-03-9.56569E-01-7.60181E-14 3.86592E-14
 -1      1922 1.95296E+01-1.28834E-01 4.72920E-03-1.10808E+00 2.41257E-14 1.56208E-13
 -1      1923 1.85348E+01 3.30645E-02-9.12831E-04-9.55073E-01-1.63563E-13 6.60084E-14
 -1      1924 1.82404E+01 1.02583E-01 8.32175E-03-9.14943E-01-1.41394E-13 6.36457E-14
 -1      1925 1.91039E+01 1.42438E-02 2.46748E-03-1.18753E+00-1.35170E-13 1.32874E-13
 -1      1926 1.80137E+01 1.69646E-01 1.99157E-03-8.17508E-01-1.83041E-13 6.58666E-14
 -1      1927 1.77808E+01 2.42980E-01 1.36742E-02-6.97325E-01-9.59098E-14 2.42579E-14
 -1      1928 1.86496E+01 2.06700E-01-1.58260E-03-1.08208E+00-8.24445E-14 9.50518E-14
 -1      1929 1.76018E+01 3.03222E-01 5.91169E-03-4.99262E-01 4.76303E-14-6.77279E-14
 -1      1930 1.74812E+01 3.57995E-01 1.62190E-02-3.07490E-01 1.07448E-13 9.03951E-14
 -1      1931 1.82460E+01 4.05745E-01-6.50197E-03-7.55374E-01-7.61422E-14 1.45266E-13
 -1      1932 1.73948E+01 3.90752E-01 9.78302E-03-3.51857E-02 8.21348E-14 1.53176E-13
 -1      1933 1.74215E+01 4.05886E-01 1.48971E-02 1.95141E-01 2.87997E-13 2.01353E-13
 -1      1934 1.79835E+01 5.51528E-01-1.04396E-02-2.30654E-01 1.50942E-13 1.37702E-13
 -1      1935 1.74537E+01 3.95746E-01 1.20300E-02 4.86492E-01 1.48550E-13 8.91459E-14
 -1      1936 1.76333E+01 3.59022E-01 9.66383E-03 7.03846E-01 1.28533E-13 1.34901E-14
 -1      1937 1.79323E+01 5.88207E-01-1.16026E-02 4.00034E-01 9.48876E-14 1.74456E-13
 -1      1938 1.77809E+01 3.00461E-01 1.15509E-02 9.43645E-01 1.49655E-14-2.04697E-13
 -1      1939 1.80836E+01 2.11638E-01 2.06692E-03 1.08926E+00-9.04281E-14-3.91177E-13
 -1      1940 1.81134E+01 4.82230E-01-9.78978E-03 9.94916E-01-7.36867E-14-1.95235E-13
 -1      1941 1.83167E+01 1.06567E-01 8.76270E-03 1.21184E+00-4.83413E-15-3.69837E-13
 -1      1942 1.86799E+01-2.69078E-02-5.38105E-03 1.23102E+00-4.99280E-14-3.41041E-13
 -1      1943 1.84889E+01 2.32566E-01-5.80722E-03 1.39955E+00-4.53578E-14-4.14817E-13
 -1      1944 1.89233E+01-1.48490E-01 6.12757E-03 1.18565E+00-5.35561E-14-2.89479E-13
 -1      1945 1.92667E+01-3.07815E-01-1.36233E-02 1.04514E+00 3.36382E-14-2.65015E-13
 -1      1946 1.94155E+01-4.92955E-01-1.91557E-03 1.23617E+00 1.15936E-13-4.06236E-13
 -1      1947 1.89521E+01-1.32372E-01-4.10617E-03 1.48566E+00-3.17603E-14-2.02883E-13
 -1      1948 1.96228E+01 1.42097E-01 7.89011E-03 2.58519E-01 2.72973E-13 3.10149E-13
 -1      1949 1.98945E+01 2.04148E-01 1.64373E-02 4.31567E-01 3.00957E-13 4.31608E-13
 -1      1950 2.01058E+01 3.50609E-01-1.53674E-03 6.53950E-01 3.55984E-13 2.45996E-13
 -1      1951 1.93812E+01 7.19910E-02 6.95602E-03 5.54255E-02 2.18429E-13 1.85041E-13
 -1      1952 1.94958E+01 1.01871E-01 1.41993E-02 1.44007E-01 2.29902E-13 2.72642E-13
 -1      1953 1.97136E+01 1.65280E-01-1.94716E-03 2.55067E-01 2.86174E-13 1.70584E-13
 -1      1954 1.92915E+01 3.62436E-02 4.43941E-03-5.01792E-02 8.92771E-14 1.07366E-13
 -1      1955 1.93212E+01 5.20526E-02 8.34011E-03-2.89153E-03 1.45833E-13 1.57249E-13
 -1      1956 1.95140E+01 8.07979E-02-2.82621E-03 4.29259E-02 1.95609E-13 8.89358E-14
 -1      1957 1.92907E+01 1.62941E-02 2.86075E-03-1.02859E-01 1.79151E-14 7.22443E-14
 -1      1958 1.92749E+01 2.51780E-02 4.35553E-03-7.81294E-02 4.34814E-14 1.10651E-13
 -1      1959 1.94356E+01 3.76190E-02-2.84479E-03-6.91612E-02 6.13517E-14 6.23807E-15
 -1      1960 1.93389E+01 4.65233E-03 1.97949E-03-1.25230E-01 6.00504E-14 3.33426E-14
 -1      1961 1.93000E+01 9.75732E-03 2.18198E-03-1.13540E-01 2.48793E-14 6.30353E-14
 -1      1962 1.94299E+01 1.36622E-02-2.34462E-03-1.24927E-01 5.27519E-14-1.07262E-14
 -1      1963 1.94154E+01-2.48329E-03 1.42423E-03-1.29502E-01 1.08483E-13 1.20474E-14
 -1      1964 1.93639E+01 4.88776E-04 9.59791E-04-1.25883E-01 6.14339E-14 5.47999E-14
 -1      1965 1.94665E+01 2.07890E-04-1.65746E-03-1.47678E-01 8.18240E-14-7.13969E-15
 -1      1966 1.94970E+01-6.06101E-03 1.04650E-03-1.22956E-01 1.19279E-13-8.05026E-15
 -1      1967 1.94455E+01-4.74683E-03 2.68528E-04-1.24260E-01 1.20542E-13 2.65020E-14
 -1      1968 1.95247E+01-7.74445E-03-1.15841E-03-1.50572E-01 1.24304E-13-1.58838E-14
 -1      1969 1.95782E+01-7.84116E-03 7.71121E-04-1.11095E-01 3.18860E-14-5.33864E-14
 -1      1970 1.95288E+01-7.42690E-03-1.24573E-04-1.15020E-01 6.48602E-14-4.16821E-14
 -1      1971 1.95896E+01-1.15064E-02-7.63824E-04-1.42008E-01 9.92334E-14-3.36853E-14
 -1      1972 1.96536E+01-8.41936E-03 5.56389E-04-9.67722E-02 1.34706E-14-6.99806E-14
 -1      1973 1.96088E+01-8.54430E-03-3.30515E-04-1.01992E-01 1.55404E-14-7.80333E-14
 -1      1974 1.96548E+01-1.30249E-02-4.84944E-04-1.27574E-01 3.37600E-14-7.30548E-14
 -1      1975 1.97207E+01-8.23640E-03 3.93975E-04-8.18814E-02 9.60948E-14-1.70220E-13
 -1      1976 1.96815E+01-8.67508E-03-4.28129E-04-8.75485E-02 7.08035E-14-8.35177E-14
 -1      1977 1.97158E+01-1.31174E-02-2.90494E-04-1.10606E-01 7.88604E-14-1.39870E-13
 -1      1978 1.97784E+01-7.59929E-03 2.72550E-04-6.76021E-02 1.59495E-13-2.35977E-13
 -1      1979 1.97451E+01-8.20279E-03-4.57161E-04-7.31777E-02 1.10488E-13-1.81632E-13
 -1      1980 1.97703E+01-1.23432E-02-1.57726E-04-9.32153E-02 1.30397E-13-2.23002E-13
 -1      1981 1.98266E+01-6.71459E-03 1.83598E-04-5.46241E-02 9.22753E-14-2.80832E-13
 -1      1982 1.97992E+01-7.38539E-03-4.43277E-04-5.97818E-02 1.61968E-13-2.20650E-13
 -1      1983 1.98174E+01-1.10806E-02-7.01402E-05-7.67035E-02 1.74053E-13-1.58076E-13
 -1      1984 1.98662E+01-5.71684E-03 1.20763E-04-4.33104E-02 7.28444E-14-2.32375E-13
 -1      1985 1.98439E+01-6.39384E-03-4.03600E-04-4.78676E-02 3.47099E-14-2.79437E-13
 -1      1986 1.98569E+01-9.57938E-03-1.55175E-05-6.18275E-02 5.30553E-14-1.44896E-13
 -1      1987 1.98981E+01-4.67989E-03 9.00827E-05-3.38266E-02-4.00350E-14-2.61509E-13
 -1      1988 1.98803E+01-5.33638E-03-3.50144E-04-3.76846E-02-1.77372E-14-2.53047E-13
 -1      1989 1.98895E+01-7.99235E-03 1.68489E-05-4.89850E-02 1.48539E-14-1.39134E-13
 -1      1990 1.99248E+01-3.60670E-03 6.28522E-05-2.58579E-02 3.34455E-15-3.74809E-13
 -1      1991 1.99102E+01-4.23413E-03-2.86471E-04-2.91118E-02 1.77607E-14-3.01485E-13
 -1      1992 1.99166E+01-6.41591E-03 7.80439E-06-3.81348E-02 3.24408E-14-2.35566E-13
 -1      1993 1.99449E+01-2.61137E-03 4.78542E-05-2.01600E-02 8.11158E-14-3.71475E-13
 -1      1994 1.99340E+01-3.17076E-03-2.18606E-04-2.25142E-02 4.40311E-14-4.31906E-13
 -1      1995 1.99385E+01-4.80854E-03 2.78011E-05-2.96015E-02 7.71707E-14-3.09043E-13
 -1      1996 1.99616E+01-1.61201E-03 5.62876E-05-1.62935E-02-5.75175E-14-3.20770E-13
 -1      1997 1.99527E+01-2.13364E-03-1.49831E-04-1.78952E-02 5.18839E-14-3.23838E-13
 -1      1998 1.99561E+01-3.31512E-03 1.55862E-05-2.35918E-02 3.78077E-14-2.55987E-13
 -1      1999 1.99762E+01-5.79962E-04 8.00596E-05-1.42843E-02-4.80061E-14-3.76424E-13
 -1      2000 1.99685E+01-1.08348E-03-7.92965E-05-1.51037E-02-8.26048E-14-3.97861E-13
 -1      2001 1.99711E+01-1.82267E-03-5.99944E-06-1.98676E-02-1.28661E-14-3.50111E-13
 -1      2002 1.99904E+01 5.42527E-04 1.22474E-04-1.42420E-02 4.47552E-16-4.50122E-13
 -1      2003 1.99830E+01 3.16473E-05-4.05837E-06-1.42139E-02-2.71509E-14-3.75347E-13
 -1      2004 1.99851E+01-2.64591E-04-3.69336E-05-1.85223E-02-4.44903E-14-4.25237E-13
 -1      2005 2.00058E+01 1.83740E-03 1.88556E-04-1.63982E-02 6.66098E-14-3.84998E-13
 -1      2006 1.99978E+01 1.28444E-03 7.95932E-05-1.54016E-02 2.77291E-14-4.20999E-13
 -1      2007 1.99994E+01 1.45738E-03-7.81914E-05-1.97689E-02 2.27400E-14-4.13261E-13
 -1      2008 2.00247E+01 3.41933E-03 2.86618E-04-2.11564E-02 4.19540E-14-2.05081E-13
 -1      2009 2.00148E+01 2.77731E-03 1.77101E-04-1.89901E-02 9.31496E-14-2.44430E-13
 -1      2010 2.00158E+01 3.48082E-03-1.31831E-04-2.39960E-02 1.37441E-14-1.99295E-13
 -1      2011 2.00495E+01 5.44966E-03 4.29614E-04-2.91626E-02 5.22554E-14-2.59373E-13
 -1      2012 2.00363E+01 4.65445E-03 2.96282E-04-2.55096E-02 5.39778E-14-2.59438E-13
 -1      2013 2.00364E+01 5.99779E-03-2.01185E-04-3.18390E-02 1.05195E-13-1.07875E-13
 -1      2014 2.00834E+01 8.15844E-03 6.45209E-04-4.13990E-02 2.24939E-15-2.96420E-13
 -1      2015 2.00652E+01 7.13508E-03 4.55178E-04-3.57836E-02 1.71373E-14-2.72938E-13
 -1      2016 2.00636E+01 9.26989E-03-2.96514E-04-4.42762E-02 3.41954E-14-1.04466E-13
 -1      2017 2.01334E+01 1.21284E-02 9.54114E-04-6.04155E-02-1.14378E-13-2.37696E-13
 -1      2018 2.01061E+01 1.05857E-02 6.52088E-04-5.15551E-02-4.30935E-14-2.43889E-13
 -1      2019 2.01017E+01 1.38501E-02-4.12825E-04-6.33419E-02-1.72956E-14-2.90586E-14
 -1      2020 2.02008E+01 1.74987E-02 1.42047E-03-8.67642E-02-3.05739E-14-2.16100E-13
 -1      2021 2.01636E+01 1.54574E-02 9.39013E-04-7.44678E-02-9.20388E-14-2.53774E-13
 -1      2022 2.01543E+01 2.02892E-02-5.63913E-04-9.11758E-02-8.55147E-14-1.05355E-13
 -1      2023 2.02953E+01 2.52117E-02 2.08958E-03-1.24465E-01 8.90184E-15-3.94927E-13
 -1      2024 2.02422E+01 2.22290E-02 1.30135E-03-1.06684E-01 2.57240E-14-2.51145E-13
 -1      2025 2.02254E+01 2.92988E-02-7.41977E-04-1.30121E-01 2.56170E-14-2.55729E-13
 -1      2026 2.04275E+01 3.64124E-02 3.07090E-03-1.78448E-01-7.44788E-14-3.02239E-13
 -1      2027 2.03521E+01 3.20417E-02 1.80735E-03-1.52725E-01-7.49721E-14-2.89606E-13
 -1      2028 2.03231E+01 4.22981E-02-9.76287E-04-1.85556E-01-5.36804E-14-3.42427E-13
 -1      2029 2.06123E+01 5.27616E-02 4.49176E-03-2.55913E-01-2.64376E-14-1.81120E-13
 -1      2030 2.05051E+01 4.63296E-02 2.49527E-03-2.18596E-01-9.58456E-14-2.53139E-13
 -1      2031 2.04570E+01 6.12463E-02-1.26901E-03-2.64493E-01-9.30473E-14-3.23016E-14
 -1      2032 2.08701E+01 7.65560E-02 6.49410E-03-3.67240E-01-2.76988E-14-5.07933E-14
 -1      2033 2.07178E+01 6.71496E-02 3.40567E-03-3.12978E-01 5.38280E-14-1.07381E-13
 -1      2034 2.06396E+01 8.88992E-02-1.63400E-03-3.77000E-01-9.22656E-15 1.00156E-13
 -1      2035 2.12282E+01 1.10665E-01 9.16410E-03-5.26892E-01 1.00758E-13-3.26497E-13
 -1      2036 2.10125E+01 9.72079E-02 4.53845E-03-4.48081E-01 9.22556E-14-1.42681E-13
 -1      2037 2.08870E+01 1.28896E-01-2.10554E-03-5.37139E-01 1.27797E-13-1.00020E-14
 -1      2038 2.17221E+01 1.57792E-01 1.23125E-02-7.53768E-01 1.29280E-13-5.09076E-13
 -1      2039 2.14185E+01 1.39524E-01 5.76300E-03-6.40181E-01 1.46897E-13-4.27126E-13
 -1      2040 2.12196E+01 1.85323E-01-2.78805E-03-7.63538E-01 2.05941E-13-2.81657E-13
 -1      2041 2.23953E+01 2.17977E-01 1.51938E-02-1.06978E+00 5.46299E-14-2.99505E-13
 -1      2042 2.19731E+01 1.96434E-01 6.84604E-03-9.08567E-01 8.27229E-14-3.34268E-13
 -1      2043 2.16610E+01 2.60457E-01-4.06079E-03-1.07829E+00 7.78214E-14-2.45183E-13
 -1      2044 2.33429E+01 2.85521E-01 1.59290E-02-1.51047E+00-1.98851E-13-2.28030E-13
 -1      2045 2.27388E+01 2.64862E-01 6.56773E-03-1.28063E+00-1.03953E-13-2.76154E-13
 -1      2046 2.22535E+01 3.52312E-01-6.50117E-03-1.51307E+00-1.27650E-13-5.77974E-14
 -1      2047 2.45106E+01 3.17463E-01 1.11109E-02-2.01609E+00 8.17298E-14-3.90431E-13
 -1      2048 2.37577E+01 3.20597E-01 3.80356E-03-1.74824E+00-2.33980E-14-2.87895E-13
 -1      2049 2.30137E+01 4.28843E-01-1.01337E-02-2.06098E+00-1.58120E-15-2.47068E-13
 -1      2050 2.59306E+01 2.24249E-01-1.94491E-03-2.49282E+00-6.45453E-15-4.87711E-13
 -1      2051 2.50255E+01 2.98923E-01-9.27818E-04-2.23242E+00-1.57496E-14-4.94445E-13
 -1      2052 2.39429E+01 4.06210E-01-1.50461E-02-2.63981E+00 5.83804E-14-2.74267E-13
 -1      2053 2.75283E+01-1.73325E-01-2.02777E-02-2.62751E+00 4.48738E-14-4.65638E-13
 -1      2054 2.65786E+01 5.96401E-02-1.90601E-03-2.54120E+00 1.16827E-13-3.88873E-13
 -1      2055 2.50960E+01 9.81393E-02-1.91344E-02-3.05527E+00 1.61329E-15-3.52895E-13
 -1      2056 2.91404E+01-1.07031E+00-2.87125E-02-1.80603E+00 3.57353E-16-4.91126E-13
 -1      2057 2.83772E+01-6.13151E-01 1.04272E-02-2.23011E+00-9.50212E-14-6.00520E-13
 -1      2058 2.65610E+01-7.76352E-01-1.58030E-02-2.84867E+00 3.18842E-15-3.45618E-13
 -1      2059 3.05046E+01-2.26455E+00-1.55541E-02 7.28711E-01 1.21840E-13-5.22450E-13
 -1      2060 3.02489E+01-1.79225E+00 2.71269E-02-6.26762E-01 1.87801E-13-4.54130E-13
 -1      2061 2.84872E+01-2.30790E+00 8.13127E-05-1.30001E+00 1.17961E-13-5.04542E-13
 -1      2062 3.09896E+01-2.34717E+00-4.63607E-02 4.64456E+00-7.81250E-14-7.43204E-13
 -1      2063 3.15797E+01-2.64514E+00-2.35108E-02 2.57200E+00-1.21181E-13-7.96824E-13
 -1      2064 3.07455E+01-3.50917E+00-1.01772E-02 2.10499E+00 6.98330E-14-7.83262E-13
 -1      2065 2.99905E+01 4.98393E-01-2.22112E-01 6.78641E+00-5.48839E-13-5.38236E-13
 -1      2066 3.15460E+01-1.16392E+00-1.46331E-01 5.75715E+00-2.52798E-13-6.54823E-13
 -1      2067 3.27274E+01-2.07087E+00-1.27998E-01 5.89862E+00-2.99344E-13-7.95197E-13
 -1      2068 2.85707E+01 3.84180E+00-3.19697E-01 3.21432E+00-3.77642E-13-4.23481E-13
 -1      2069 2.99710E+01 2.61535E+00-2.42769E-01 5.05657E+00-4.62408E-13-5.25552E-13
 -1      2070 3.36913E+01 2.99595E+00-1.34943E-01 5.83039E+00-4.64351E-13-8.18928E-13
 -1      2071 2.81251E+01 2.93187E+00-3.27334E-01-1.83930E+00-1.35725E-13-3.28612E-13
 -1      2072 2.83293E+01 3.72954E+00-2.72001E-01 5.26871E-01-2.30205E-13-2.79256E-13
 -1      2073 3.34411E+01 5.35921E+00-5.80218E-02 1.12081E+00-2.28373E-13-8.68000E-13
 -1      2074 2.80986E+01-4.70074E-01-2.02026E-01-3.64829E+00 5.35905E-13-2.96436E-13
 -1      2075 2.76634E+01 1.03708E+00-2.33899E-01-2.88992E+00 1.33005E-13-3.76053E-13
 -1      2076 3.21391E+01 2.27096E+00-7.73540E-02-2.79700E+00 1.21236E-13-8.10602E-13
 -1      2077 2.56610E+01-1.98162E+00 1.30165E-01 1.85506E+00 1.43590E-13-2.38504E-13
 -1      2078 2.62574E+01-2.64144E+00-3.86439E-02 6.21483E-01 3.57617E-13-2.81837E-13
 -1      2079 2.26462E+01 6.92212E-02 5.71208E-02 3.00786E+00-2.75044E-13-3.39270E-13
 -1      2080 2.37851E+01-1.12229E+00-5.74737E-02 2.83050E+00 3.42226E-14-2.72452E-13
 -1      2081 2.53605E+01-2.75658E+00-4.20685E-02 3.75501E+00 2.95458E-14-1.40492E-13
 -1      2082 2.23279E+01 5.70446E-01-2.29463E-03 3.96909E+00-1.48115E-13-5.72521E-13
 -1      2083 1.70422E+01 6.45936E+00 1.39734E-02 5.39443E+00-6.26508E-13 1.06359E-13
 -1      2084 1.84842E+01 5.35937E+00 1.74715E-01 6.44370E+00-6.42854E-13-3.45002E-14
 -1      2085 1.98917E+01 4.15886E+00-5.12491E-03 6.72769E+00-4.43052E-13-5.11938E-13
 -1      2086 2.11168E+01 2.51738E+00 2.89185E-02 6.69586E+00-3.19461E-13-6.21708E-13
 -1      2087 1.88620E+01 1.65625E+00 8.97043E-02 7.80420E+00-3.95475E-13-4.09006E-13
 -1      2088 2.22025E+01 1.66290E+00 3.79275E-02 4.98279E+00-1.34982E-13-3.28879E-13
 -1      2089 1.49854E+01 7.84802E+00 7.19287E-02 1.05359E+00-5.40640E-13 9.08051E-13
 -1      2090 1.57371E+01 7.48359E+00 1.62371E-01 3.25504E+00-6.79470E-13 5.17419E-13
 -1      2091 1.47076E+01 3.81851E+00 1.99385E-01 5.18793E+00-5.59747E-13 2.33175E-13
 -1      2092 1.54776E+01 7.17433E+00 1.56597E-01-4.30893E+00-4.21472E-13 2.89352E-13
 -1      2093 1.48638E+01 7.86397E+00 9.15716E-02-1.96723E+00-5.36640E-13 6.55725E-13
 -1      2094 1.28141E+01 4.78639E+00 2.89216E-01-5.68905E-01-5.76455E-13 8.15181E-13
 -1      2095 1.83670E+01 4.31824E+00 1.85713E-01-8.04893E+00-1.89716E-13-8.50431E-14
 -1      2096 1.67462E+01 5.96579E+00 1.55454E-02-6.69473E+00-3.16159E-13 1.22014E-13
 -1      2097 1.45087E+01 3.58430E+00 2.27155E-01-6.70276E+00-5.01064E-13 3.25046E-13
 -1      2098 2.14716E+01 4.81601E-01 1.10514E-01-8.13745E+00-3.49144E-13-7.10907E-13
 -1      2099 2.00443E+01 2.62736E+00-1.66071E-03-8.41673E+00-2.40662E-13-4.04982E-13
 -1      2100 1.89378E+01 7.72214E-01 9.23691E-02-9.73228E+00-1.86060E-13-3.30125E-13
 -1      2101 2.25559E+01-2.35231E+00 8.79880E-03-5.28301E+00-1.53192E-13-8.52513E-14
 -1      2102 2.22025E+01-5.40825E-01 3.55139E-02-6.66329E+00-2.90521E-13-3.81032E-13
 -1      2103 2.25707E+01-1.72246E+00-4.33147E-03-8.35702E+00 9.59614E-14-5.13197E-13
 -1      2104 2.20387E+01-3.52831E+00-2.30432E-02-2.19587E+00-6.85563E-15 1.82004E-13
 -1      2105 2.23870E+01-2.50780E+00 7.58455E-02-3.54525E+00-6.30988E-14 8.86097E-15
 -1      2106 2.34631E+01-2.77386E+00-1.26375E-02-4.78885E+00 1.75361E-13 3.33691E-14
 -1      2107 2.11889E+01-3.68957E+00-1.20637E-02-4.78160E-02-1.87884E-13 4.65999E-13
 -1      2108 2.16458E+01-3.36093E+00 7.57467E-02-9.59295E-01-1.30782E-13 1.74978E-13
 -1      2109 2.26340E+01-2.87681E+00 5.49209E-03-1.61482E+00 1.14613E-13 1.68861E-13
 -1      2110 2.05293E+01-3.31018E+00-2.67736E-05 1.10765E+00-2.56998E-13 4.73012E-13
 -1      2111 2.08660E+01-3.44904E+00 5.43514E-02 6.30548E-01-3.13340E-13 6.12250E-13
 -1      2112 2.14886E+01-2.62913E+00 7.79316E-03 4.29295E-01-1.20843E-13 4.99999E-13
 -1      2113 2.01303E+01-2.66882E+00 3.79118E-03 1.57262E+00 4.44887E-14 1.87173E-13
 -1      2114 2.03330E+01-3.05874E+00 3.03668E-02 1.39295E+00-8.28539E-14 4.05910E-13
 -1      2115 2.06327E+01-2.24470E+00 3.96100E-03 1.47953E+00 3.76348E-14 5.94970E-13
 -1      2116 1.99043E+01-1.93580E+00 1.00316E-03 1.62316E+00 7.28263E-14 1.66810E-13
 -1      2117 2.00236E+01-2.41495E+00 1.18681E-02 1.62165E+00 7.52974E-14 9.65240E-14
 -1      2118 2.01169E+01-1.78622E+00 1.08938E-03 1.86329E+00 9.64524E-14 1.60386E-13
 -1      2119 1.97403E+01-1.23037E+00-4.97023E-03 1.42888E+00 2.56265E-13 7.20127E-14
 -1      2120 1.98483E+01-1.68384E+00 4.13071E-03 1.53205E+00 1.21892E-13 2.42982E-13
 -1      2121 1.98156E+01-1.29294E+00 1.32545E-03 1.84110E+00 2.44579E-14 1.49627E-13
 -1      2122 1.31372E+01-8.50699E+00-2.25202E-01 8.69828E+00 1.17240E-13-3.07761E-13
 -1      2123 8.50005E+00-1.02135E+01-5.40299E-01 6.88148E+00 1.63203E-13-2.03726E-14
 -1      2124-2.48153E-01-1.23151E+01-9.55158E-01-7.00925E-01 1.36349E-13 1.15452E-12
 -1      2125-2.07038E-01-1.45741E+01-1.33736E+00-2.24499E+00-9.07052E-14 1.20343E-12
 -1      2126 3.82022E+00-1.01383E+01-6.17751E-01 4.85363E+00 3.63154E-13 3.22964E-13
 -1      2127 1.47773E+00-1.14521E+01-8.64326E-01 2.41135E+00 2.37033E-13 7.38631E-13
 -1      2128 2.35198E+01-6.31649E+00 6.11912E-03 8.49339E+00 2.54574E-13-1.20720E-12
 -1      2129 1.80234E+01-8.92081E+00-3.97124E-01 7.91846E+00 2.33591E-13-7.20812E-13
 -1      2130 7.30295E+00-1.04880E+01-9.86355E-01-6.90631E+00-8.38662E-13 3.79974E-14
 -1      2131 9.84128E+00-8.04412E+00-5.77269E-01-8.16693E+00-5.48228E-13 5.36404E-13
 -1      2132 8.02496E+00-9.53748E+00-6.50689E-01-8.74516E+00-3.51608E-13 2.69090E-13
 -1      2133 3.33767E+01-3.11907E+00 1.89679E-01 6.59437E+00 2.01061E-13-1.09646E-12
 -1      2134 2.73418E+01-5.57507E+00-2.22050E-01 6.74446E+00 3.08864E-13-1.05094E-12
 -1      2135 2.80627E+01-7.58771E+00 5.80225E-02 6.94989E+00 2.30482E-13-1.07181E-12
 -1      2136 3.60715E-01-1.50553E+01-1.39583E+00-3.32788E+00-6.99441E-14 9.71945E-13
 -1      2137 1.51626E+00-1.33425E+01-1.13203E+00-4.33278E+00-3.55493E-13 8.10907E-13
 -1      2138 3.88420E+00-1.04019E+01-8.54299E-01-6.76880E+00-6.43929E-14 5.88474E-13
 -1      2139 1.01326E+00-9.53623E+00-8.70164E-01-3.85620E+00-2.32925E-13 1.15108E-12
 -1      2140 1.95186E+01 4.01582E+00-2.70328E-02-1.70169E+00-3.45125E-13-5.31334E-13
 -1      2141 1.96471E+01 3.94614E+00-2.46126E-02-1.95321E+00-3.99731E-13-4.50830E-13
 -1      2142 1.99725E+01 3.24708E+00-1.37559E-02-1.91743E+00-4.28257E-13-3.75705E-13
 -1      2143 1.96974E+01 3.58574E+00-7.07238E-03-1.51957E+00-3.48788E-13-5.25607E-13
 -1      2144 4.59165E+01 5.85175E+00 6.35635E-01 1.94795E+00-4.03788E-13-9.83325E-13
 -1      2145 4.34639E+01 4.30118E+00 4.67751E-01 2.51368E+00-1.45273E-13-1.06726E-12
 -1      2146 4.78653E+01 7.53289E+00 8.16082E-01 2.27885E+00-3.93463E-13-1.07166E-12
 -1      2147 4.66825E+01 7.47750E+00 7.07705E-01 2.31465E+00-5.10259E-13-1.08846E-12
 -1      2148 4.76093E+01 6.08066E+00 7.91892E-01 1.89215E+00-2.87326E-13-1.06049E-12
 -1      2149 4.91113E+01 7.08528E+00 9.08556E-01 2.69936E+00-2.19602E-13-1.09621E-12
 -1      2150 4.27929E+01 7.74507E+00 6.52539E-01 2.55758E+00-3.31513E-13-1.25651E-12
 -1      2151 4.04483E+01 1.20623E+00 1.15338E-01 1.73807E+00-3.34802E-13-7.29194E-13
 -1      2152 4.57466E+01 3.45869E+00 7.11214E-01 1.92287E+00-4.43645E-13-1.01685E-12
 -1      2153 3.21490E+01-4.36193E+00-1.88426E-01-2.52299E-01-3.85803E-14-3.06977E-13
 -1      2154 3.82528E+01-1.86685E+00 2.22360E-01 2.33343E-01-1.80855E-13-5.80980E-13
 -1      2155 2.00217E+01-7.87222E+00-4.51966E-01-3.62599E+00-4.96270E-14-1.73750E-14
 -1      2156 2.69755E+01-6.30364E+00-1.34938E-01-3.49597E+00-1.08802E-14-9.39249E-14
 -1      2157 9.96727E+00-9.65953E+00-5.86456E-01-3.84487E+00 1.29674E-13 9.83189E-14
 -1      2158 1.49558E+01-7.93152E+00-2.85658E-01-4.81735E+00-2.81997E-14 1.78746E-13
 -1      2159 3.32412E+00-1.00416E+01-4.47797E-01-2.67606E+00 2.21601E-13 2.35312E-13
 -1      2160 6.40306E+00-9.16597E+00-3.27796E-01-3.82497E+00 2.19158E-13 5.72875E-14
 -1      2161-6.46940E-01-1.03506E+01-4.70306E-01 2.41029E-01 1.71647E-13-1.15907E-13
 -1      2162 4.28048E-01-1.00461E+01-4.22009E-01-1.13801E+00 7.07767E-14 3.26295E-13
 -1      2163 1.08452E-01-9.40677E+00-3.60344E-01 3.33515E+00 2.33091E-13 5.47340E-14
 -1      2164-7.26869E-01-1.01982E+01-4.50117E-01 1.97049E+00 1.56250E-13-1.53766E-13
 -1      2165 4.95427E+00-7.84624E+00-2.29617E-01 6.10645E+00 1.16018E-13 1.91291E-13
 -1      2166 2.41737E+00-9.23186E+00-3.93322E-01 4.92818E+00 2.22544E-13 1.73639E-13
 -1      2167 1.24013E+01-5.74882E+00-9.08082E-02 7.78979E+00 1.44107E-13-5.57679E-13
 -1      2168 8.16279E+00-7.99524E+00-4.16709E-01 6.55102E+00 1.23457E-13-1.25039E-13
 -1      2169 2.23211E+01-3.41357E+00 2.44881E-02 7.91684E+00 1.12799E-13-2.33924E-13
 -1      2170 1.70201E+01-5.52408E+00-2.90522E-01 7.31243E+00 2.64677E-13-4.36928E-13
 -1      2171 3.16567E+01-5.32881E-01 8.42701E-02 5.88853E+00-1.05055E-13 2.78999E-13
 -1      2172 2.65053E+01-2.41190E+00-1.39000E-01 6.31540E+00 3.56937E-14 1.45883E-13
 -1      2173 4.00097E+01 4.08251E+00 3.39249E-01 3.77427E+00-4.10866E-13 4.94271E-13
 -1      2174 3.50057E+01 2.02206E+00-4.18739E-02 3.76415E+00-2.96950E-13 2.89102E-13
 -1      2175 4.41627E+01 6.94296E+00 3.14909E-01 1.23624E+00-4.59632E-13 7.03104E-13
 -1      2176 4.12847E+01 5.66782E+00 1.18669E-01 2.67009E+00-4.67931E-13 4.23550E-13
 -1      2177 3.80278E+01 4.62936E+00 2.19535E-01 1.44013E-02-5.30354E-13 3.32456E-13
 -1      2178 4.68142E+01 8.74889E+00 3.54777E-01-1.20964E+00-6.19504E-14 5.04971E-13
 -1      2179 4.56490E+01 8.29285E+00 2.78755E-01 4.73063E-01-3.63543E-13 5.55056E-13
 -1      2180 4.43229E+01 8.69508E+00 1.75354E-01-3.39504E+00 3.27127E-13 4.78839E-13
 -1      2181 4.62467E+01 9.08359E+00 4.02048E-01-2.01362E+00 2.88325E-13 5.60788E-13
 -1      2182 3.86427E+01 5.37475E+00 4.77755E-02-4.11102E+00-3.15581E-14 1.23734E-13
 -1      2183 4.27567E+01 7.47865E+00 4.08409E-01-3.76378E+00 1.97065E-13 3.82472E-13
 -1      2184 3.24196E+01 3.95236E-01 1.22307E-01-7.88786E+00-7.54952E-15-5.40679E-14
 -1      2185 3.67367E+01 2.14621E+00 8.83804E-02-6.49811E+00-4.66988E-14-1.72085E-13
 -1      2186 2.32566E+01-3.44784E+00-1.47770E-01-9.51820E+00-1.36557E-13 5.27467E-13
 -1      2187 2.84402E+01-1.16816E+00 1.60152E-01-9.97631E+00-8.10463E-14 9.67004E-14
 -1      2188 1.38885E+01-7.03321E+00-5.70263E-01-8.75044E+00-3.66374E-13 4.86944E-13
 -1      2189 1.84721E+01-4.24731E+00-1.00394E-01-1.01645E+01-3.49165E-13 3.78697E-13
 -1      2190 4.21924E+01 1.88717E+00 5.42811E-01 3.81115E+00 1.07988E-13-1.31295E-12
 -1      2191 3.68913E+01-6.64087E-01 7.23786E-02 3.96499E+00 3.95461E-13-1.06071E-12
 -1      2192 8.92704E+00-7.14033E+00-1.92965E-01 7.47480E+00-1.25899E-13-2.74225E-14
 -1      2193 2.07380E+01 1.10844E+00-2.07457E-02-1.61505E+00-4.23155E-13 3.08874E-13
 -1      2194 2.06284E+01 1.33019E+00-1.86260E-02-1.67676E+00-4.54730E-13 5.93726E-14
 -1      2195 2.81914E+01-2.61561E+00-1.58494E-02-1.48624E+00 4.15373E-13-4.01346E-13
 -1      2196 2.80316E+01-1.66445E+00-1.48898E-01-2.64504E+00 4.98601E-13-2.94105E-13
 -1      2197 2.27743E+01-3.49114E-01 1.17866E-01 6.36387E+00-1.53662E-13-6.35568E-13
 -1      2198 2.07335E+00-7.95844E+00-5.72019E-01 1.51290E+00-3.34732E-14 1.11344E-12
 -1      2199 3.14939E+01-1.85970E+00 4.19069E-03-2.68186E+00 5.40984E-13-7.78516E-13
 -1      2200 1.96664E+01-9.12021E-01-8.13357E-03 1.37353E+00 1.54397E-13-1.54614E-13
 -1      2201 1.86008E+01-8.47960E+00-1.55121E-01 9.19441E+00 2.22045E-14-8.03066E-13
 -1      2202 1.44381E+01-7.67573E+00-2.83613E-01-1.02228E+01-3.35065E-13 1.98425E-13
 -1      2203 3.98544E+01 1.92009E+00 4.16347E-01-3.39832E-03 1.07858E-13-1.01696E-12
 -1      2204 2.35541E+01-5.25866E+00 9.24277E-02-1.02770E+01-5.98410E-14 2.29150E-13
 -1      2205 3.18777E+01-2.32144E+00 2.77512E-01-7.56916E+00 2.30094E-13-2.70228E-13
 -1      2206 3.70793E+01 3.20037E+00 1.62716E-01-3.89060E+00 5.96537E-14-1.51601E-13
 -1      2207 3.50389E+01 3.69284E+00-2.09305E-01-9.51330E-01 2.81275E-13-3.14776E-13
 -1      2208 3.46606E+01 7.28994E-01 1.25554E-01-3.25815E+00 3.38798E-13-3.33289E-13
 -1      2209 3.89494E+01 8.38815E+00 1.82936E-01-1.25850E+00 3.57436E-13 1.61648E-13
 -1      2210 4.07925E+01 8.43564E+00 3.24239E-01-9.69160E-01-3.68372E-13 2.13551E-13
 -1      2211 3.37503E+01-5.35317E-01 1.17522E-01 2.76687E+00-1.78503E-13 2.69840E-13
 -1      2212 2.63619E+01-4.62422E+00 9.91180E-02 6.18733E+00 7.56617E-14 8.15181E-14
 -1      2213 1.72665E+01-6.43719E+00-1.49034E-02 8.16032E+00 1.42164E-13-4.03427E-13
 -1      2214 8.71508E+00-6.91959E+00-1.33096E-01 7.71551E+00 1.31561E-14-1.38473E-13
 -1      2215 2.54884E+00-6.86881E+00-1.89585E-01 5.12167E+00 1.79912E-13 2.17826E-13
 -1      2216 2.59191E-01-7.22631E+00-2.54521E-01 9.60640E-01 1.54252E-14-1.65423E-14
 -1      2217 3.63623E+00-7.56281E+00-2.05823E-01-3.11055E+00 9.09273E-14 9.02611E-14
 -1      2218 1.10176E+01-8.44395E+00-2.21791E-01-5.07429E+00 2.41029E-13 1.91125E-13
 -1      2219 2.06044E+01-8.46797E+00-9.29420E-02-4.38767E+00 1.67644E-14 3.26128E-15
 -1      2220 3.09523E+01-6.44526E+00 7.30930E-03-3.89097E-01 4.05231E-14-5.13312E-13
 -1      2221 3.57392E+01-3.79162E+00 2.39634E-01 2.92817E+00 3.79252E-13-9.98979E-13
 -1      2222 4.20415E+01 5.00352E+00 5.03334E-01 4.42984E+00-4.16056E-13-1.11344E-12
 -1      2223 4.12939E+01 6.43645E+00 5.06170E-01 3.09248E-01-2.25375E-13-8.78519E-13
 -1      2224 3.79506E+01-1.01984E+00 1.63322E-01 4.11017E+00-2.91073E-13-8.16458E-13
 -1      2225 4.15815E+01 1.02428E+01 3.77701E-01-1.37645E+00 1.69365E-13 1.42664E-13
 -1      2226 2.88943E+01-3.98783E+00-9.25101E-02 6.60056E-01 3.60234E-13-4.85417E-13
 -1      2227 2.01502E+01 5.06590E-01 3.73673E-03 6.76834E-01 3.36845E-13 7.61353E-14
 -1      2228 2.04178E+01 7.00092E-01 2.07816E-02 9.68503E-01 3.82373E-13 1.10969E-13
 -1      2229 1.95584E+01 3.51687E+00-1.10754E-02-5.90979E-01-1.48562E-13-5.91309E-13
 -1      2230 1.95941E+01 3.47095E+00-1.04251E-02-7.75228E-01-2.06584E-13-6.02874E-13
 -1      2231 1.96411E+01 3.38278E+00-1.26664E-02-9.39415E-01-2.43274E-13-5.95681E-13
 -1      2232 1.97028E+01 3.30212E+00-1.24720E-02-1.12872E+00-2.93532E-13-5.64070E-13
 -1      2233 1.97855E+01 3.03426E+00 3.57158E-04-7.91457E-01-2.11196E-13-5.57810E-13
 -1      2234 1.95107E+01 3.59941E+00-9.61303E-03 9.93785E-02 3.08130E-14-6.13379E-13
 -1      2235 1.95101E+01 3.60024E+00-9.61783E-03-7.99845E-02-1.38823E-14-6.07098E-13
 -1      2236 1.95370E+01 3.55996E+00-9.71508E-03 4.45186E-01 1.05548E-13-6.13114E-13
 -1      2237 1.95195E+01 3.58255E+00-1.01363E-02 2.64458E-01 6.17763E-14-6.14219E-13
 -1      2238 1.96768E+01 3.22225E+00-8.97183E-04 1.69430E-01 4.40061E-14-5.86138E-13
 -1      2239 1.95993E+01 3.46335E+00-1.06013E-02 7.88962E-01 1.99398E-13-5.97949E-13
 -1      2240 1.95628E+01 3.51039E+00-1.12073E-02 6.07608E-01 1.43636E-13-6.10181E-13
 -1      2241 1.97139E+01 3.15867E+00-4.98940E-04 4.87627E-01 1.18201E-13-5.69258E-13
 -1      2242 1.97106E+01 3.28950E+00-1.29423E-02 1.14216E+00 3.02781E-13-5.36732E-13
 -1      2243 1.96476E+01 3.37287E+00-1.28721E-02 9.52952E-01 2.44806E-13-5.72178E-13
 -1      2244 1.97914E+01 3.02490E+00 2.74976E-04 8.03107E-01 2.12938E-13-5.48435E-13
 -1      2245 1.98905E+01 3.00379E+00-1.81600E-02 1.48906E+00 3.98439E-13-4.32532E-13
 -1      2246 1.97906E+01 3.14513E+00-1.51805E-02 1.29871E+00 3.32130E-13-4.88820E-13
 -1      2247 1.99212E+01 2.79964E+00 1.96438E-03 1.10919E+00 3.09528E-13-4.77378E-13
 -1      2248 2.01698E+01 2.54406E+00-2.83916E-02 1.79338E+00 4.72183E-13-2.92476E-13
 -1      2249 2.00182E+01 2.78349E+00-1.70975E-02 1.61890E+00 4.24661E-13-3.68388E-13
 -1      2250 2.01167E+01 2.44878E+00 5.81847E-03 1.37480E+00 3.96774E-13-3.59601E-13
 -1      2251 2.04036E+01 8.54716E-01 1.30449E-02-9.98964E-01-3.76425E-13-4.14048E-14
 -1      2252 2.01916E+01 6.26559E-01-4.80417E-03-6.90292E-01-3.38392E-13-6.19215E-14
 -1      2253 2.98854E+01-7.04189E+00-7.68345E-03 5.31697E+00 2.59792E-13-6.76237E-13
 -1      2254 2.63596E+01-7.49327E+00 8.72812E-02 6.95889E+00 2.47469E-13-9.38694E-13
 -1      2255 1.98735E+01 2.68397E-01 4.73729E-03 2.84135E-01 2.78837E-13 2.32830E-14
 -1      2256 2.00339E+01 3.68150E-01 2.01698E-02 4.41360E-01 3.07838E-13 7.43936E-14
 -1      2257 2.02124E+01 6.34801E-01-2.24992E-03 7.03502E-01 3.45799E-13-4.33690E-14
 -1      2258 2.05487E+01 1.95510E+00-1.37200E-02-1.89713E+00-4.61657E-13-1.05230E-13
 -1      2259 2.04121E+01 1.21487E+00-7.17479E-03-1.28611E+00-4.19166E-13-7.37949E-14
 -1      2260 2.03845E+01 1.37998E+00 7.64501E-03-1.23465E+00-4.00398E-13-1.52317E-13
 -1      2261 2.02899E+01 2.38473E+00-5.07214E-03-1.84169E+00-4.64373E-13-2.30926E-13
 -1      2262 2.01266E+01 4.69743E-01 1.62306E-02-4.73996E-01-3.00418E-13-5.65686E-14
 -1      2263 1.99854E+01 3.44803E-01 2.97392E-05-3.02290E-01-2.53041E-13-8.04941E-14
 -1      2264 2.02452E+01 7.46515E-01-1.88358E-03-6.92626E-01-3.42335E-13-1.37759E-13
 -1      2265 1.99222E+01 2.59780E-01 1.08865E-02-1.64646E-01-2.18289E-13-8.75452E-14
 -1      2266 1.98436E+01 1.88252E-01 7.12803E-04-6.73710E-02-1.65346E-13-1.16148E-13
 -1      2267 2.00817E+01 4.16782E-01-3.64357E-03-3.08864E-01-2.55856E-13-1.48991E-13
 -1      2268 1.97993E+01 1.38739E-01 6.39458E-03 1.47390E-02-1.30659E-13-1.39064E-13
 -1      2269 1.97645E+01 9.63741E-02 7.20954E-04 6.80811E-02-1.09512E-13-1.52848E-13
 -1      2270 1.99612E+01 2.27510E-01-3.61395E-03-6.98094E-02-1.80955E-13-1.93366E-13
 -1      2271 1.97387E+01 6.64369E-02 3.57810E-03 1.13805E-01-9.92269E-14-1.51193E-13
 -1      2272 1.97315E+01 4.08603E-02 6.16964E-04 1.40369E-01-9.98548E-14-1.55966E-13
 -1      2273 1.98856E+01 1.15019E-01-2.91892E-03 7.09520E-02-1.22868E-13-1.83644E-13
 -1      2274 1.97198E+01 2.25549E-02 1.85348E-03 1.62584E-01-1.04798E-13-1.33208E-13
 -1      2275 1.97291E+01 7.24291E-03 4.91772E-04 1.72670E-01-8.62232E-14-1.47452E-13
 -1      2276 1.98460E+01 4.67618E-02-2.11352E-03 1.47126E-01-1.01194E-13-1.61299E-13
 -1      2277 1.97271E+01-3.74467E-03 7.90945E-04 1.79970E-01-7.97889E-14-1.58337E-13
 -1      2278 1.97453E+01-1.25216E-02 3.70630E-04 1.80057E-01-9.49076E-14-1.56808E-13
 -1      2279 1.98319E+01 5.50722E-03-1.42502E-03 1.81586E-01-9.93175E-14-1.94819E-13
 -1      2280 1.97494E+01-1.87506E-02 1.40211E-04 1.78213E-01-1.42549E-13-1.51942E-13
 -1      2281 1.97715E+01-2.32861E-02 2.66840E-04 1.72502E-01-1.38229E-13-1.70525E-13
 -1      2282 1.98343E+01-1.85637E-02-9.02443E-04 1.89744E-01-1.14099E-13-2.02365E-13
 -1      2283 1.97789E+01-2.63862E-02-2.44078E-04 1.65404E-01-1.21152E-13-1.55162E-13
 -1      2284 1.98019E+01-2.81710E-02 1.85325E-04 1.56657E-01-7.04822E-14-1.89105E-13
 -1      2285 1.98465E+01-3.14581E-02-5.29059E-04 1.82015E-01-1.38484E-13-2.39031E-13
 -1      2286 1.98108E+01-2.92300E-02-4.52803E-04 1.46911E-01-3.81483E-14-1.77148E-13
 -1      2287 1.98328E+01-2.92657E-02 1.25542E-04 1.36936E-01-6.41378E-14-1.68055E-13
 -1      2288 1.98637E+01-3.70648E-02-2.73238E-04 1.65432E-01-5.61251E-14-2.12881E-13
 -1      2289 1.98421E+01-2.90267E-02-5.46376E-04 1.26259E-01-6.97340E-14-1.41613E-13
 -1      2290 1.98620E+01-2.79938E-02 8.47147E-05 1.16215E-01-1.68173E-14-9.97847E-14
 -1      2291 1.98828E+01-3.79928E-02-1.05296E-04 1.44698E-01-5.04789E-14-1.81342E-13
 -1      2292 1.98708E+01-2.69658E-02-5.66184E-04 1.05709E-01-1.65130E-14-1.22346E-13
 -1      2293 1.98883E+01-2.53229E-02 5.98104E-05 9.63134E-02-2.50143E-14-1.01839E-13
 -1      2294 1.99018E+01-3.60173E-02-1.29470E-06 1.22892E-01-2.77480E-14-1.72083E-13
 -1      2295 1.98963E+01-2.38482E-02-5.40824E-04 8.66542E-02-8.17825E-14-1.50527E-13
 -1      2296 1.99112E+01-2.18948E-02 4.84224E-05 7.83241E-02-7.28755E-14-1.89898E-13
 -1      2297 1.99195E+01-3.23394E-02 5.71069E-05 1.01969E-01-1.11559E-13-2.15182E-13
 -1      2298 1.99183E+01-2.01941E-02-4.89963E-04 6.99021E-02-4.04518E-14-2.08767E-13
 -1      2299 1.99308E+01-1.81135E-02 4.89784E-05 6.28621E-02-6.04857E-14-1.97460E-13
 -1      2300 1.99354E+01-2.77494E-02 8.35351E-05 8.31140E-02-5.66161E-14-2.01337E-13
 -1      2301 1.99370E+01-1.63180E-02-4.26871E-04 5.58860E-02-7.79896E-14-1.72034E-13
 -1      2302 1.99474E+01-1.42090E-02 6.06304E-05 5.02426E-02-8.36659E-14-1.96760E-13
 -1      2303 1.99494E+01-2.27385E-02 8.77711E-05 6.70033E-02-6.61733E-14-2.67652E-13
 -1      2304 1.99528E+01-1.23851E-02-3.60188E-04 4.48142E-02-1.00741E-13-2.25660E-13
 -1      2305 1.99616E+01-1.02862E-02 8.31009E-05 4.06114E-02-9.43455E-14-2.28738E-13
 -1      2306 1.99615E+01-1.75800E-02 7.67097E-05 5.39971E-02-1.04378E-13-2.14829E-13
 -1      2307 1.99663E+01-8.45490E-03-2.95254E-04 3.67792E-02-1.21556E-13-2.22817E-13
 -1      2308 1.99739E+01-6.36383E-03 1.16462E-04 3.40366E-02-1.14143E-13-2.36351E-13
 -1      2309 1.99721E+01-1.23916E-02 5.51376E-05 4.42775E-02-1.14074E-13-1.84403E-13
 -1      2310 1.99783E+01-4.51644E-03-2.35060E-04 3.18332E-02-1.70209E-14-2.19312E-13
 -1      2311 1.99852E+01-2.40693E-03 1.60798E-04 3.05713E-02 5.73395E-14-1.80395E-13
 -1      2312 1.99817E+01-7.18588E-03 2.62755E-05 3.79463E-02-3.80190E-14-2.02731E-13
 -1      2313 1.99894E+01-5.20059E-04-1.80889E-04 3.00352E-02 5.92619E-14-2.04027E-13
 -1      2314 1.99963E+01 1.64168E-03 2.15692E-04 3.02876E-02 1.12101E-13-2.18822E-13
 -1      2315 1.99906E+01-1.91357E-03-7.82401E-06 3.50895E-02 4.44163E-14-1.67956E-13
 -1      2316 2.00006E+01 3.59020E-03-1.32711E-04 3.14724E-02 1.36138E-13-2.23975E-13
 -1      2317 2.00079E+01 5.82654E-03 2.79512E-04 3.32848E-02 9.42721E-14-1.64697E-13
 -1      2318 1.99996E+01 3.49353E-03-4.58669E-05 3.58105E-02 1.08076E-13-2.63494E-13
 -1      2319 2.00128E+01 7.83877E-03-8.94082E-05 3.62518E-02 2.66635E-14-1.98746E-13
 -1      2320 2.00211E+01 1.01371E-02 3.48424E-04 3.96665E-02 2.43105E-14-1.68631E-13
 -1      2321 2.00093E+01 9.07375E-03-8.70182E-05 4.02334E-02 5.28283E-14-2.27348E-13
 -1      2322 2.00268E+01 1.21706E-02-4.88088E-05 4.44593E-02-1.08832E-15-1.60860E-13
 -1      2323 2.00368E+01 1.44523E-02 4.15043E-04 4.94793E-02-2.02206E-14-1.72503E-13
 -1      2324 2.00203E+01 1.47751E-02-1.30707E-04 4.84698E-02 1.61367E-14-2.51592E-13
 -1      2325 2.00438E+01 1.63879E-02-7.52902E-06 5.60759E-02-7.97215E-14-2.00809E-13
 -1      2326 2.00559E+01 1.84673E-02 4.66701E-04 6.26046E-02-1.10547E-13-1.53160E-13
 -1      2327 2.00335E+01 2.03768E-02-1.76507E-04 6.05425E-02-8.93007E-14-2.52029E-13
 -1      2328 2.00645E+01 2.00676E-02 3.93139E-05 7.08381E-02-1.34454E-13-6.31397E-14
 -1      2329 2.00792E+01 2.16001E-02 4.83383E-04 7.85877E-02-1.43880E-13-2.83487E-14
 -1      2330 2.00496E+01 2.53861E-02-2.24080E-04 7.62544E-02-1.02936E-13-9.11099E-14
 -1      2331 2.00901E+01 2.24579E-02 9.84384E-05 8.80303E-02-8.03301E-14-2.92371E-14
 -1      2332 2.01077E+01 2.28781E-02 4.35602E-04 9.63917E-02-2.39350E-15 3.75525E-14
 -1      2333 2.00696E+01 2.89094E-02-2.73159E-04 9.49866E-02-1.13299E-13 3.46765E-14
 -1      2334 2.01213E+01 2.23608E-02 1.78570E-04 1.06195E-01-5.38185E-14-7.49116E-14
 -1      2335 2.01417E+01 2.08207E-02 2.82782E-04 1.14068E-01-5.95841E-14-1.47210E-13
 -1      2336 2.00944E+01 2.95028E-02-3.23460E-04 1.15413E-01-8.34212E-14 4.10919E-14
 -1      2337 2.01588E+01 1.80210E-02 2.90036E-04 1.22757E-01 1.16138E-15-1.49646E-13
 -1      2338 2.01814E+01 1.33477E-02-2.67187E-05 1.28349E-01 5.94114E-14-1.34679E-13
 -1      2339 2.01251E+01 2.50257E-02-3.74258E-04 1.35126E-01-3.93041E-14 5.35007E-14
 -1      2340 2.02025E+01 7.06857E-03 4.43034E-04 1.33584E-01 6.66119E-14-1.64947E-13
 -1      2341 2.02262E+01-2.21991E-03-5.52050E-04 1.34202E-01 9.23331E-14-1.42251E-13
 -1      2342 2.01625E+01 1.25508E-02-4.23123E-04 1.50177E-01 4.26886E-14 1.74316E-14
 -1      2343 2.02519E+01-1.33999E-02 6.43397E-04 1.32549E-01-1.74150E-15-1.25233E-13
 -1      2344 2.02743E+01-2.89533E-02-1.34992E-03 1.24448E-01 4.46079E-15-3.50711E-14
 -1      2345 2.02076E+01-1.15707E-02-4.62958E-04 1.54590E-01 5.99361E-14 6.77062E-14
 -1      2346 2.03049E+01-4.64602E-02 8.84254E-04 1.11226E-01-1.67177E-14-1.32340E-13
 -1      2347 2.03226E+01-6.97333E-02-2.45442E-03 8.96329E-02-6.27159E-14 1.78683E-14
 -1      2348 2.02607E+01-5.13211E-02-4.76178E-04 1.39960E-01-4.52484E-14-6.31310E-14
 -1      2349 2.03577E+01-9.45242E-02 1.13233E-03 5.89971E-02-1.00487E-13 4.37203E-14
 -1      2350 2.03657E+01-1.26076E-01-3.84239E-03 1.84829E-02-9.53573E-14-4.71930E-15
 -1      2351 2.03215E+01-1.10069E-01-4.24939E-04 9.53636E-02-8.77204E-14-1.83323E-14
 -1      2352 2.04035E+01-1.57811E-01 1.30863E-03-3.60249E-02-4.90655E-14-2.88826E-14
 -1      2353 2.03951E+01-1.96176E-01-5.38269E-03-1.00569E-01 6.84037E-14-5.19783E-14
 -1      2354 2.03875E+01-1.88781E-01-2.38230E-04 7.95476E-03-1.00407E-13 3.92237E-14
 -1      2355 2.04315E+01-2.32010E-01 1.27005E-03-1.84672E-01 6.49285E-14-3.71251E-14
 -1      2356 2.03988E+01-2.72221E-01-6.77522E-03-2.76194E-01 4.83749E-14-3.12561E-14
 -1      2357 2.04534E+01-2.83216E-01 1.96451E-04-1.35164E-01 2.56703E-14 6.34333E-14
 -1      2358 2.04260E+01-3.05413E-01 8.08966E-04-3.92369E-01 6.08274E-14 5.52492E-14
 -1      2359 2.03605E+01-3.37608E-01-7.51292E-03-5.08833E-01 8.32025E-14 1.37736E-13
 -1      2360 2.05082E+01-3.80313E-01 1.01893E-03-3.43081E-01 1.26668E-13 5.95478E-14
 -1      2361 2.03662E+01-3.56629E-01-2.99797E-04-6.52505E-01 6.22777E-14 1.90990E-13
 -1      2362 2.02608E+01-3.65769E-01-6.90907E-03-7.83431E-01 1.88159E-13 2.21645E-13
 -1      2363 2.05339E+01-4.54987E-01 2.31849E-03-6.14608E-01 1.52541E-13 2.14504E-13
 -1      2364 2.02286E+01-3.55059E-01-2.13846E-03-9.38447E-01 2.32567E-13 1.19991E-13
 -1      2365 2.00808E+01-3.23313E-01-4.27236E-03-1.06199E+00 1.73454E-13 8.92839E-14
 -1      2366 2.05048E+01-4.69849E-01 4.00817E-03-9.29520E-01 1.30526E-13 2.06105E-13
 -1      2367 1.99943E+01-2.67238E-01-4.43547E-03-1.19722E+00 8.30581E-14 3.64975E-14
 -1      2368 1.98097E+01-1.80526E-01 6.44364E-04-1.28006E+00-1.72611E-14 3.77620E-14
 -1      2369 2.03913E+01-3.81678E-01 5.63975E-03-1.23975E+00 1.03073E-13-8.14632E-15
 -1      2370 1.96606E+01-7.13755E-02-6.41146E-03-1.35075E+00-1.43704E-13 1.25756E-13
 -1      2371 1.94567E+01 7.02823E-02 7.03731E-03-1.35373E+00-1.25857E-13 1.19341E-13
 -1      2372 2.01702E+01-1.57963E-01 6.23214E-03-1.46607E+00-3.67917E-14 1.30096E-13
 -1      2373 1.92564E+01 2.22253E-01-6.78441E-03-1.31204E+00-8.95205E-14 8.57633E-14
 -1      2374 1.90626E+01 3.95301E-01 1.29040E-02-1.20339E+00-6.02478E-14 1.11092E-13
 -1      2375 1.98434E+01 1.97823E-01 4.57008E-03-1.50901E+00-1.36056E-13 2.21093E-13
 -1      2376 1.88482E+01 5.56380E-01-4.35513E-03-1.01904E+00-1.31643E-13 5.46655E-14
 -1      2377 1.87009E+01 7.13899E-01 1.57021E-02-7.91887E-01-1.38425E-13 5.84999E-14
 -1      2378 1.94548E+01 6.25203E-01 4.08942E-04-1.28169E+00-2.53953E-13 8.41953E-15
 -1      2379 1.85276E+01 8.33720E-01 8.95160E-04-4.74627E-01 6.85415E-14 8.16300E-14
 -1      2380 1.84600E+01 9.20531E-01 1.38707E-02-1.59766E-01 1.75888E-13-2.50132E-14
 -1      2381 1.90901E+01 1.00903E+00-4.69377E-03-7.57884E-01-1.10768E-13 1.18845E-14
 -1      2382 1.83772E+01 9.51902E-01 7.38846E-03 2.31744E-01 6.40291E-14-1.71236E-14
 -1      2383 1.84068E+01 9.28040E-01 7.95659E-03 5.68370E-01 3.54890E-14-4.31989E-14
 -1      2384 1.88477E+01 1.21672E+00-7.77459E-03-9.26682E-03 9.26939E-14-8.71326E-14
 -1      2385 1.84333E+01 8.46689E-01 1.23305E-02 9.42629E-01-1.02708E-13-7.70325E-14
 -1      2386 1.85560E+01 7.00598E-01-5.61875E-04 1.21847E+00-1.78279E-13-1.05146E-13
 -1      2387 1.87902E+01 1.15239E+00-7.17210E-03 8.00830E-01-8.49143E-14-1.16330E-13
 -1      2388 1.86780E+01 5.06965E-01 1.29626E-02 1.47924E+00-1.66701E-13-2.63072E-13
 -1      2389 1.88693E+01 2.64511E-01-5.82109E-03 1.61515E+00-9.21098E-14-2.16064E-13
 -1      2390 1.89171E+01 7.87940E-01-4.86300E-03 1.47361E+00-2.67833E-13-1.90940E-13
 -1      2391 1.96269E+01 7.27866E-02 2.07182E-03-6.76862E-02 6.18335E-14-7.54506E-14
 -1      2392 1.96540E+01 1.04515E-01 6.91229E-03-2.14364E-02 1.09559E-13-2.55813E-14
 -1      2393 1.96039E+01 3.07110E-02 1.26296E-03-1.33705E-01 6.03560E-14-9.26347E-14
 -1      2394 1.96005E+01 4.99902E-02 3.71408E-03-1.10969E-01 5.16117E-14-7.96649E-14
 -1      2395 1.97708E+01 9.01519E-02-3.16808E-03-7.33099E-02 9.02854E-14-1.33806E-13
 -1      2396 1.96178E+01 4.71826E-03 8.12938E-04-1.62981E-01 6.81648E-14-6.00793E-14
 -1      2397 1.95962E+01 1.64951E-02 1.85629E-03-1.54481E-01 4.58698E-14-7.03659E-14
 -1      2398 1.97367E+01 3.52019E-02-2.27952E-03-1.46928E-01 5.57787E-14-1.20649E-13
 -1      2399 1.96510E+01-9.36902E-03 5.29716E-04-1.67821E-01 1.21405E-13-4.96281E-14
 -1      2400 1.96221E+01-2.98153E-03 7.04564E-04-1.68401E-01 1.05878E-13-5.67595E-14
 -1      2401 1.97343E+01 2.70981E-03-1.49440E-03-1.78644E-01 8.07059E-14-1.13432E-13
 -1      2402 1.96936E+01-1.70952E-02 3.11904E-04-1.59596E-01 6.18252E-14-2.52488E-14
 -1      2403 1.96620E+01-1.38440E-02 3.39268E-05-1.64966E-01 1.16289E-13-2.29716E-14
 -1      2404 1.97505E+01-1.53346E-02-9.05953E-04-1.84418E-01 9.81838E-14-5.70679E-14
 -1      2405 1.97388E+01-2.05925E-02 1.58417E-04-1.44200E-01 4.43750E-14-4.05602E-14
 -1      2406 1.97077E+01-1.92909E-02-3.31362E-04-1.52041E-01 6.26874E-14 1.93209E-15
 -1      2407 1.97764E+01-2.49154E-02-5.04940E-04-1.75607E-01 6.72070E-14-3.37155E-14
 -1      2408 1.97825E+01-2.13702E-02 5.70782E-05-1.25549E-01 1.39469E-13-1.33469E-13
 -1      2409 1.97538E+01-2.13090E-02-5.22844E-04-1.34354E-01 9.59467E-14-9.02297E-14
 -1      2410 1.98063E+01-2.89960E-02-2.35390E-04-1.58788E-01 1.21869E-13-2.61486E-14
 -1      2411 1.98225E+01-2.04575E-02-5.23062E-06-1.06172E-01 1.48040E-13-1.89042E-13
 -1      2412 1.97971E+01-2.11525E-02-6.01273E-04-1.14980E-01 1.45463E-13-1.56809E-13
 -1      2413 1.98366E+01-2.95727E-02-6.23555E-05-1.38322E-01 1.61986E-13-1.08340E-13
 -1      2414 1.98576E+01-1.85537E-02-3.87446E-05-8.76466E-02 1.10731E-13-1.11300E-13
 -1      2415 1.98359E+01-1.96780E-02-6.07967E-04-9.58719E-02 1.23146E-13-1.74269E-13
 -1      2416 1.98652E+01-2.79929E-02 4.15971E-05-1.17036E-01 1.15227E-13-1.19365E-13
 -1      2417 1.98876E+01-1.61236E-02-5.08133E-05-7.09088E-02 4.16076E-14-1.20903E-13
 -1      2418 1.98694E+01-1.74632E-02-5.71119E-04-7.82141E-02 8.45062E-14-8.63413E-14
 -1      2419 1.98909E+01-2.51666E-02 9.68416E-05-9.67029E-02 9.64825E-14-1.00782E-13
 -1      2420 1.99129E+01-1.34469E-02-3.14587E-05-5.64647E-02 6.16990E-14-1.30281E-13
 -1      2421 1.98978E+01-1.48873E-02-5.10517E-04-6.26785E-02 9.31882E-14-1.21915E-13
 -1      2422 1.99133E+01-2.16916E-02 1.18948E-04-7.83842E-02 8.16983E-14-1.69762E-13
 -1      2423 1.99347E+01-1.05803E-02-1.47135E-05-4.40397E-02 9.54896E-14-2.62535E-13
 -1      2424 1.99220E+01-1.20782E-02-4.32652E-04-4.92863E-02 6.50997E-14-2.33519E-13
 -1      2425 1.99329E+01-1.78947E-02 9.16689E-05-6.23405E-02 1.61627E-13-1.63971E-13
 -1      2426 1.99519E+01-7.86771E-03 6.04587E-06-3.49236E-02 3.52685E-14-2.43284E-13
 -1      2427 1.99420E+01-9.29561E-03-3.55331E-04-3.87010E-02 4.25380E-14-2.69417E-13
 -1      2428 1.99496E+01-1.39225E-02 9.80937E-05-4.92857E-02 4.26183E-14-2.34962E-13
 -1      2429 1.99666E+01-5.13248E-03 5.20346E-05-2.85052E-02 3.35826E-14-1.54685E-13
 -1      2430 1.99582E+01-6.56446E-03-2.77380E-04-3.10658E-02 5.73207E-14-1.61169E-13
 -1      2431 1.99634E+01-1.01006E-02 6.64909E-05-3.96717E-02 1.71129E-15-1.57676E-13
 -1      2432 1.99798E+01-2.31878E-03 1.13932E-04-2.48672E-02-7.47416E-15-2.58700E-13
 -1      2433 1.99723E+01-3.80283E-03-2.03806E-04-2.61667E-02 3.27791E-14-1.85465E-13
 -1      2434 1.99755E+01-6.23916E-03 2.62260E-05-3.32186E-02 6.55026E-14-1.04620E-13
 -1      2435 1.99926E+01 7.04212E-04 1.96779E-04-2.41782E-02-4.40587E-14-2.29148E-13
 -1      2436 1.99853E+01-9.09239E-04-1.33965E-04-2.41253E-02 8.85747E-15-1.76179E-13
 -1      2437 1.99869E+01-2.22327E-03-2.22735E-05-3.00693E-02-2.68070E-14-4.16177E-14
 -1      2438 2.00065E+01 4.12965E-03 3.07719E-04-2.67575E-02-9.74903E-15-2.49455E-13
 -1      2439 1.99984E+01 2.27547E-03-6.73823E-05-2.51822E-02-1.02835E-15-2.61740E-13
 -1      2440 1.99983E+01 2.14963E-03-7.90157E-05-3.04844E-02-8.05728E-16-9.21451E-14
 -1      2441 2.00227E+01 8.22893E-03 4.57220E-04-3.31442E-02-1.47510E-14-1.28738E-13
 -1      2442 2.00131E+01 5.97858E-03-3.14412E-06-2.97637E-02-6.85237E-14-1.77895E-13
 -1      2443 2.00108E+01 7.17524E-03-1.44702E-04-3.49127E-02-8.96727E-14-5.48349E-14
 -1      2444 2.00432E+01 1.33816E-02 6.60721E-04-4.41844E-02 5.02451E-14 2.67634E-14
 -1      2445 2.00308E+01 1.05175E-02 5.97709E-05-3.85585E-02 4.68639E-14 4.75876E-15
 -1      2446 2.00256E+01 1.32682E-02-2.20319E-04-4.40738E-02-8.32995E-14 8.78917E-15
 -1      2447 2.00701E+01 2.01473E-02 9.67818E-04-6.11395E-02-3.05064E-14 1.03884E-13
 -1      2448 2.00534E+01 1.63456E-02 1.25151E-04-5.26228E-02 4.52090E-14 8.41383E-14
 -1      2449 2.00441E+01 2.10082E-02-3.08385E-04-5.90597E-02 1.91830E-14 6.60881E-14
 -1      2450 2.01080E+01 2.97943E-02 1.36831E-03-8.73958E-02-2.47893E-14 7.67047E-14
 -1      2451 2.00839E+01 2.43140E-02 1.76028E-04-7.41705E-02 1.20726E-16 8.35037E-14
 -1      2452 2.00684E+01 3.14677E-02-4.33194E-04-8.21852E-02-9.88169E-15 1.37017E-13
 -1      2453 2.01570E+01 4.25695E-02 1.90013E-03-1.23347E-01-2.84267E-14-5.46049E-14
 -1      2454 2.01252E+01 3.52804E-02 2.47436E-04-1.05286E-01-1.95052E-14 1.32854E-14
 -1      2455 2.01001E+01 4.59150E-02-5.08414E-04-1.15608E-01-3.84486E-14-1.81508E-15
 -1      2456 2.02227E+01 6.05967E-02 2.67060E-03-1.74000E-01 6.62137E-14-8.12452E-14
 -1      2457 2.01791E+01 5.02770E-02 2.95156E-04-1.48392E-01 2.46648E-14-3.81777E-14
 -1      2458 2.01402E+01 6.55268E-02-5.91042E-04-1.61680E-01-1.60820E-15 2.27892E-14
 -1      2459 2.03106E+01 8.62685E-02 3.74579E-03-2.45154E-01-1.67155E-13-8.78367E-14
 -1      2460 2.02507E+01 7.15285E-02 3.20246E-04-2.08909E-01-4.57028E-14-1.07470E-13
 -1      2461 2.01915E+01 9.31778E-02-6.43185E-04-2.25857E-01-1.49939E-14 1.06324E-13
 -1      2462 2.04268E+01 1.23024E-01 5.23470E-03-3.45022E-01-8.64322E-14 2.93760E-14
 -1      2463 2.03450E+01 1.01894E-01 2.95731E-04-2.93705E-01-1.19446E-13-8.29887E-14
 -1      2464 2.02561E+01 1.32549E-01-6.11935E-04-3.14891E-01-1.61544E-13-4.32109E-14
 -1      2465 2.05789E+01 1.75541E-01 7.25417E-03-4.85062E-01 9.40888E-14 1.47310E-14
 -1      2466 2.04679E+01 1.45374E-01 1.75036E-04-4.12446E-01-2.27476E-14 4.23420E-14
 -1      2467 2.03353E+01 1.88760E-01-4.11640E-04-4.38113E-01-5.27552E-14-1.16182E-13
 -1      2468 2.07749E+01 2.49629E-01 9.88262E-03-6.80711E-01 2.36001E-13-1.48867E-13
 -1      2469 2.06256E+01 2.07227E-01-1.24711E-04-5.78389E-01 1.88416E-13 3.14310E-16
 -1      2470 2.04289E+01 2.68560E-01 9.20170E-05-6.08099E-01 1.67929E-13-8.66700E-14
 -1      2471 2.10223E+01 3.51075E-01 1.30317E-02-9.51454E-01 1.91589E-13-1.02565E-13
 -1      2472 2.08238E+01 2.93493E-01-7.50790E-04-8.08925E-01 2.45403E-13-8.97201E-14
 -1      2473 2.05335E+01 3.79825E-01 1.07964E-03-8.41069E-01 2.46410E-13-3.72761E-14
 -1      2474 2.13281E+01 4.81824E-01 1.66269E-02-1.31863E+00-2.09416E-14-5.78125E-14
 -1      2475 2.10669E+01 4.09039E-01-1.89644E-03-1.12509E+00 1.13142E-13-4.82833E-14
 -1      2476 2.06405E+01 5.29175E-01 2.73111E-03-1.15634E+00 1.88821E-13 5.87615E-15
 -1      2477 2.17094E+01 6.36436E-01 1.93952E-02-1.82571E+00-1.25873E-13-9.85557E-14
 -1      2478 2.13612E+01 5.55127E-01-3.60314E-03-1.55934E+00-6.25654E-14-5.58216E-14
 -1      2479 2.07350E+01 7.17784E-01 4.10121E-03-1.58662E+00-6.08255E-14-3.03141E-14
 -1      2480 2.21306E+01 7.43926E-01 1.84467E-02-2.41591E+00 4.86000E-14-1.79514E-13
 -1      2481 2.17132E+01 6.96501E-01-6.03014E-03-2.11730E+00-5.30249E-14-1.74748E-13
 -1      2482 2.07945E+01 9.15040E-01 7.52309E-03-2.13565E+00-2.90133E-14-9.58890E-14
 -1      2483 2.26346E+01 6.71840E-01 1.55751E-02-3.03609E+00 9.35467E-14-2.55609E-13
 -1      2484 2.21222E+01 7.42563E-01-5.80724E-03-2.75293E+00 1.22486E-13-2.07563E-13
 -1      2485 2.08040E+01 1.01262E+00 8.44929E-03-2.77853E+00 1.16720E-13-1.80195E-13
 -1      2486 2.33162E+01 1.17178E-01 9.67215E-03-3.48686E+00-7.93844E-14-2.71015E-13
 -1      2487 2.26813E+01 4.89866E-01 6.32314E-03-3.36721E+00-1.69613E-15-3.01449E-13
 -1      2488 2.08123E+01 7.86768E-01 5.55252E-03-3.46232E+00 6.14782E-14-1.95220E-13
 -1      2489 2.44702E+01-1.34553E+00 9.03205E-03-3.33321E+00 9.52433E-14-4.14538E-13
 -1      2490 2.36556E+01-4.44151E-01 5.03814E-02-3.65477E+00 6.15862E-14-3.32254E-13
 -1      2491 2.10490E+01-2.27184E-01-8.39759E-03-4.03726E+00 1.00218E-13-4.16696E-13
 -1      2492 2.66075E+01-3.84797E+00-9.45821E-05-1.89668E+00 3.38576E-13-5.35265E-13
 -1      2493 2.55500E+01-2.48788E+00 1.13857E-01-3.00366E+00 2.15397E-13-4.45616E-13
 -1      2494 2.21196E+01-2.49454E+00-1.91029E-02-4.07799E+00 2.39454E-13-3.67317E-13
 -1      2495 3.05659E+01-5.18274E+00-1.80361E-02 1.78096E+00 1.21708E-13-7.15678E-13
 -1      2496 2.94134E+01-4.83986E+00 9.30463E-02-2.03612E-01 2.90767E-13-5.91069E-13
 -1      2497 3.72208E+01 4.37397E+00 8.53913E-02 4.62548E+00-4.58633E-13-9.93705E-13
 -1      2498 3.69279E+01 7.51057E-01-6.67197E-02 6.03056E+00-4.34902E-13-8.92453E-13
 -1      2499 3.66845E+01 5.94092E+00-4.25390E-02 2.17350E-01-2.96208E-13-8.78631E-13
 -1      2500 3.71161E+01 6.62783E+00 4.27260E-02 2.41510E+00-3.67484E-13-1.06702E-12
 -1      2501 1.94579E+01-6.27644E-01 7.51985E-03 1.58914E+00 4.37855E-14-7.27552E-14
 -1      2502 9.81055E+00 2.34723E+00 1.45504E-01-2.23011E+00-5.49819E-13 9.68670E-13
 -1      2503 1.00701E+01 2.50199E+00 2.25961E-01 1.11879E+00-6.85582E-13 1.06676E-12
 -1      2504 2.43325E+01-2.55146E+00 5.18433E-02 6.00344E+00-3.26267E-14-5.75338E-13
 -1      2505 1.73225E+01-2.82687E-01 6.22958E-02 8.23596E+00-4.12975E-13-5.06567E-13
 -1      2506 2.02927E+01-9.39180E-01 2.92746E-01 8.48890E+00-2.77209E-13-6.47968E-13
 -1      2507 5.21301E+00-3.10388E+00-8.12989E-02 2.26659E+00-2.63928E-13 1.11644E-12
 -1      2508 4.13481E+00-3.78486E+00-6.24145E-02-1.58178E+00-3.52260E-13 1.50924E-12
 -1      2509 1.41512E+01 9.24135E-01 3.15289E-01-8.77929E+00-3.83013E-13 4.62602E-13
 -1      2510 1.11689E+01 1.88768E+00 7.39242E-02-6.18750E+00-4.29642E-13 3.64986E-13
 -1      2511 8.54581E+00-2.79488E-01 1.30419E-01-4.59778E+00-4.20705E-13 7.89091E-13
 -1      2512 2.08551E+01-1.66086E+00 2.88429E-01-1.06616E+01-1.50435E-14-4.21427E-13
 -1      2513 1.70435E+01-4.81331E-01-3.25251E-02-1.03423E+01-1.39222E-13 9.22595E-14
 -1      2514 2.49366E+01-3.35305E+00 9.29461E-02-7.77021E+00 1.99625E-13-6.13141E-13
 -1      2515 2.32334E+01-2.64692E+00-1.03239E-02-9.40433E+00 2.69965E-13-5.46677E-13
 -1      2516 2.48284E+01-3.12698E+00-4.40384E-02-3.66138E+00 2.79618E-13 1.59071E-13
 -1      2517 2.52188E+01-2.91815E+00 3.38591E-02-5.43749E+00 2.70051E-13-1.80446E-13
 -1      2518 2.31671E+01-2.36059E+00-4.80021E-02-7.06773E-01 9.28485E-14 5.93987E-14
 -1      2519 2.40880E+01-2.33035E+00 6.87344E-02-1.97802E+00 2.08673E-13-2.76168E-15
 -1      2520 2.56655E+01-2.40459E+00 3.74958E-02-2.56469E+00 3.06489E-13 1.09641E-13
 -1      2521 2.16341E+01-1.74561E+00-2.69229E-02 9.85995E-01-3.16726E-14 5.25212E-13
 -1      2522 2.23960E+01-1.83424E+00 5.38353E-02 2.58763E-01-3.43089E-14 3.37074E-13
 -1      2523 2.35848E+01-1.34153E+00 2.88267E-02-1.15559E-02 1.89224E-13 8.61845E-14
 -1      2524 2.06166E+01-1.32666E+00-1.13970E-02 1.77717E+00 7.98485E-14 5.39332E-13
 -1      2525 2.11012E+01-1.48858E+00 3.35810E-02 1.44613E+00 1.57886E-14 7.66994E-13
 -1      2526 2.17877E+01-7.75339E-01 1.56045E-02 1.36001E+00 5.65607E-14 6.93070E-13
 -1      2527 2.00153E+01-1.00659E+00-5.87651E-03 2.00854E+00 1.13706E-13 2.14512E-13
 -1      2528 2.02999E+01-1.21197E+00 1.68772E-02 1.93411E+00 4.07708E-14 2.60163E-13
 -1      2529 2.06139E+01-5.37221E-01 3.39284E-03 1.96989E+00 8.55674E-14 4.75609E-13
 -1      2530 1.96468E+01-7.26664E-01-8.90652E-03 1.90116E+00 1.10462E-13 7.19221E-14
 -1      2531 1.98328E+01-9.50012E-01 4.46367E-03 1.98385E+00 1.30399E-13 2.12295E-13
 -1      2532 1.99276E+01-4.26175E-01-9.42905E-05 2.09025E+00 2.42832E-13 3.25506E-13
 -1      2533 2.26597E+01-7.54600E+00-7.25451E-02 9.17183E+00 7.62723E-14-1.03599E-12
 -1      2534 1.81269E+01-6.55576E+00 4.19044E-02 9.37646E+00-1.89238E-13-6.85119E-13
 -1      2535 1.97075E+01 1.43541E-01 3.27911E-03 5.86060E-02 1.70641E-13-1.92251E-15
 -1      2536 1.97857E+01 1.98335E-01 1.23819E-02 1.44906E-01 2.42514E-13 3.41378E-14
 -1      2537 1.98514E+01 1.81213E-01-3.86276E-03 6.37827E-02 1.79908E-13-7.86107E-14
 -1      2538 3.43628E+01-2.75229E+00-1.08721E-01-4.07544E-01 4.33577E-13-6.98663E-13
 -1      2539 3.44653E+01-7.36040E-01-1.22498E-01-1.72089E+00 3.56576E-13-7.78932E-13
 -1      2540 1.41165E+01-7.32296E+00-1.80792E-01-1.07347E+01-3.27183E-13 6.68493E-14
 -1      2541 1.79282E+01-6.38454E+00-5.78007E-02-1.13626E+01-2.34923E-13 1.00753E-13
 -1      2542 3.38822E+01-1.62058E-01-1.53335E-01 6.52703E-01-2.29899E-13 2.87326E-13
 -1      2543 3.12725E+01-2.63771E+00-1.26239E-02 2.28149E+00-1.65895E-13 2.88880E-13
 -1      2544 3.63236E+01 4.69612E+00 2.73888E-02-1.18411E+00-1.48992E-13-8.15681E-13
 -1      2545 9.98149E+00-7.17267E+00-1.76845E-01-9.73105E+00-2.24265E-14 4.38011E-13
 -1      2546 1.21918E+01-6.85228E+00-8.98402E-02-1.04975E+01-2.39142E-13 2.15605E-13
 -1      2547 1.57420E+01-5.91735E+00-3.91938E-04-1.14428E+01-1.57263E-13 2.58987E-13
 -1      2548 1.95174E+01 3.58560E+00-1.00832E-02-2.45071E-01-4.48254E-14-5.99386E-13
 -1      2549 1.95336E+01 3.56490E+00-9.64426E-03-4.25680E-01-1.06530E-13-5.93947E-13
 -1      2550 1.97099E+01 3.16445E+00-5.46609E-04-4.72934E-01-1.22571E-13-5.56473E-13
 -1      2551 1.96754E+01 3.22437E+00-9.07447E-04-1.51863E-01-3.52148E-14-5.71916E-13
 -1      2552 3.62863E+01 9.67268E+00-2.15092E-01-1.23372E+00 3.36897E-13-1.04368E-13
 -1      2553 3.69532E+01 9.61098E+00-1.44604E-01-1.47578E+00-1.78746E-14-1.43677E-13
 -1      2554 1.11619E+01-6.62692E+00 4.56671E-02-5.32164E+00 2.40141E-13 2.34368E-13
 -1      2555 1.51967E+01-7.36654E+00 7.23916E-03-5.52187E+00 2.12719E-13 2.62901E-13
 -1      2556 3.54993E+00-5.16123E+00 3.90610E-02-2.41153E+00 6.93889E-15 1.20126E-13
 -1      2557 6.66727E+00-5.41469E+00 6.91796E-02-4.26256E+00 1.28231E-13 5.77316E-14
 -1      2558 1.91740E+00-4.13783E+00 8.57380E-02 1.95689E+00-1.06859E-14-4.15779E-14
 -1      2559 2.21666E+00-4.35922E+00 9.46570E-02-4.12656E-01-5.00433E-14-1.80411E-14
 -1      2560 5.24957E+00-4.44826E+00 7.80877E-02 6.25457E+00-3.33067E-15 1.78302E-13
 -1      2561 3.08376E+00-4.37767E+00 1.16396E-01 4.17129E+00 8.04912E-16 2.07556E-13
 -1      2562 1.24023E+01-5.64918E+00 6.27720E-02 8.45752E+00-8.21565E-15-3.39256E-13
 -1      2563 9.04484E+00-5.25335E+00 1.27318E-01 7.59348E+00-2.70339E-14 4.52416E-14
 -1      2564 2.03884E+01-6.18507E+00-2.34286E-02 7.86834E+00 1.40110E-13-3.06036E-13
 -1      2565 1.60869E+01-6.35002E+00 5.84852E-02 8.16100E+00 5.57887E-14-3.76574E-13
 -1      2566 1.59882E+01-5.45419E+00 1.33137E-01 8.12679E+00 4.89053E-14-2.28068E-13
 -1      2567 2.81656E+01-4.93794E+00-1.26528E-01 4.76774E+00-8.36831E-14 3.07560E-13
 -1      2568 2.47431E+01-5.88924E+00 3.69415E-02 6.04997E+00 6.56697E-14 2.46470E-14
 -1      2569 3.58784E+01 4.77719E+00-1.66595E-01-1.39795E+00-4.03955E-13-4.37150E-14
 -1      2570 3.48933E+01 2.89702E+00-9.49785E-02-9.62025E-01-3.22353E-13 1.27676E-13
 -1      2571 3.70076E+01 8.69267E+00-1.48533E-01-1.75143E+00-1.88738E-13-9.83102E-14
 -1      2572 3.59200E+01 7.17715E+00-1.70467E-01-1.77749E+00-4.00624E-13-2.72560E-14
 -1      2573 3.35805E+01 9.06562E+00-6.23302E-02-1.95142E+00-5.35127E-14-2.61721E-13
 -1      2574 3.42601E+01 6.97482E+00-2.34783E-01-3.57107E-01 3.32623E-13-1.70919E-13
 -1      2575 3.58631E+01 8.82536E+00-1.19151E-01-7.40044E-01 5.23248E-13-4.72539E-14
 -1      2576 2.97012E+01-4.48418E+00 7.44014E-02-7.78188E+00 3.39617E-13-4.67959E-13
 -1      2577 3.20897E+01-2.86264E+00-1.37056E-01-5.92315E+00 3.66041E-13-4.53471E-13
 -1      2578 2.04923E+01 8.75005E-01-7.30601E-03 1.22581E+00 4.38745E-13 1.28324E-13
 -1      2579 2.08426E+01 1.25696E+00-6.04999E-03 1.72655E+00 4.73985E-13 1.92339E-13
 -1      2580 2.06483E+01 1.71566E+00-1.57934E-02 1.92062E+00 5.00711E-13 3.43718E-14
 -1      2581 2.04506E+01 1.05816E+00-9.39923E-03 1.24040E+00 4.34612E-13-3.25082E-14
 -1      2582 3.47578E+01-1.63556E+00-6.98414E-02 5.02357E+00-3.20716E-13-7.94920E-13
 -1      2583 2.19349E+01-6.36819E+00-1.64845E-03-1.06018E+01-6.93334E-14-2.96985E-15
 -1      2584 2.59466E+01-5.46489E+00-5.50017E-02-9.99334E+00 2.10887E-13-3.16552E-13
 -1      2585 2.10407E+01-6.20594E+00 4.42127E-02-1.14300E+01-6.20060E-14-1.58595E-13
 -1      2586 1.23557E+01-4.50316E+00-5.16953E-02 8.54045E+00-3.66429E-13-3.89799E-13
 -1      2587 8.64189E+00-3.93487E+00 1.11897E-01 6.22424E+00-3.14249E-13 1.21958E-13
 -1      2588 3.37215E+01-4.44268E+00-7.20357E-02 3.81650E+00-1.12826E-13-8.45435E-13
 -1      2589 3.15082E+01-5.90319E+00-1.07660E-01 1.09182E+00 9.13991E-14-5.75068E-13
 -1      2590 3.28444E+01 8.99423E+00-1.05960E-01-5.00752E-01 3.28071E-13-1.57305E-13
 -1      2591 1.99132E+01 2.81447E+00 2.10530E-03-1.09779E+00-3.00320E-13-5.11506E-13
 -1      2592 1.97798E+01 3.15993E+00-1.54619E-02-1.28473E+00-3.20691E-13-5.34754E-13
 -1      2593 1.98762E+01 3.03938E+00-1.70356E-02-1.48157E+00-3.73631E-13-4.79999E-13
 -1      2594 3.51298E+01 1.50948E+00-1.51289E-01-2.10533E+00 2.30260E-13-7.83873E-13
 -1      2595 2.04237E+01 2.11587E+00-1.27793E-02 1.87356E+00 4.74634E-13-1.41550E-13
 -1      2596 2.48692E+01-7.07505E+00-8.53359E-02 7.91252E+00 2.24987E-13-8.53342E-13
 -1      2597 2.01143E+01 2.61995E+00-1.19261E-02-1.67750E+00-4.20331E-13-3.31528E-13
 -1      2598 9.11549E+00-7.57647E-01 1.40616E-01 3.78773E+00-5.72209E-13 6.31439E-13
 -1      2599 1.18717E+01 1.39853E+00 5.49279E-02 5.11251E+00-6.30732E-13 1.45217E-13
 -1      2600 1.48342E+01 7.68313E-01 3.15348E-01 7.35787E+00-5.15837E-13-2.22128E-13
 -1      2601 2.56775E+01-5.40547E+00-2.03753E-02-2.38874E+00 3.00232E-13-4.90396E-13
 -1      2602 2.81263E+01-5.33254E+00 9.60473E-02-8.78820E+00 2.68535E-13-4.25465E-13
 -1      2603 2.73711E+01-7.43498E+00 1.90980E-02-1.63547E+00 2.25986E-13-3.96627E-13
 -1      2604 3.85568E+01 6.00459E+00 7.97035E-02 3.91611E+00-3.21632E-13-1.17928E-12
 -1      2605 1.91978E+01-2.21334E-01-1.09488E-02 1.64153E+00-4.11103E-14-1.86164E-13
 -1      2606 1.94839E+01-5.41047E-01-2.24310E-03 1.83407E+00 2.13475E-14-7.86142E-14
 -1      2607 1.94683E+01-1.84392E-01 8.43406E-03 1.96679E+00 1.40700E-13-3.54480E-14
 -1      2608 1.89959E+01 4.18361E-02 1.15861E-02 1.68362E+00 1.53916E-14-1.97304E-13
 -1      2609 1.47702E+01-1.96906E+00 1.11492E-01-1.03051E+01-1.01752E-13 3.30402E-13
 -1      2610 2.39030E+01-4.10246E+00-6.40334E-02 7.55705E+00-2.63678E-15-7.32442E-13
 -1      2611 2.83617E+01-5.56514E+00 1.66843E-01 4.31404E+00 3.40949E-13-5.63313E-13
 -1      2612 1.54952E+01-2.57858E+00 1.25873E-01 8.62886E+00-3.89688E-13-4.94160E-13
 -1      2613 5.73114E+00-3.88092E+00-7.70385E-02-5.48624E+00-1.97675E-13 6.05571E-13
 -1      2614 2.25901E+01-3.81475E+00 9.12082E-02-1.05096E+01 1.54238E-13-3.20896E-13
 -1      2615 2.63574E+01-3.77788E+00 3.58080E-02-6.61828E+00 2.71269E-13-3.67727E-13
 -1      2616 2.04321E+01-4.88483E+00 1.57558E-02 9.05995E+00-1.31367E-13-7.00454E-13
 -1      2617 1.68201E+01-5.15979E+00 1.55501E-01 9.28981E+00-2.23488E-13-7.40741E-13
 -1      2618 2.27475E+01-7.53338E+00-8.01053E-02-3.99183E+00 2.12608E-13-4.13759E-13
 -1      2619 2.48434E+01-6.72057E+00 3.71531E-02-2.93325E+00 2.92766E-13-4.58746E-13
 -1      2620 2.22237E+01-4.97949E+00 1.95595E-01-4.20878E+00 4.29934E-13-4.04191E-13
 -1      2621 1.84180E+01-7.52260E+00 4.10324E-02-4.88431E+00 2.40863E-13-2.31135E-14
 -1      2622 1.99968E+01 3.40493E-01-3.53296E-03 3.03157E-01 2.73935E-13-6.77501E-14
 -1      2623 3.21021E+01-5.12948E+00-8.10030E-02 1.58049E+00 4.01117E-13-7.24032E-13
 -1      2624 2.98829E+01-4.15672E+00 3.38813E-02 2.46619E+00-1.30604E-13 2.33091E-13
 -1      2625 3.37972E+01 5.89214E+00-7.36965E-02-2.50218E+00-3.86413E-13-3.32623E-13
 -1      2626 2.33873E+01-6.14269E+00 8.96972E-02 6.50437E+00 2.62568E-14-3.62765E-14
 -1      2627 2.04375E+01 1.80821E+00 1.25363E-02 1.56123E+00 4.40008E-13-1.69561E-13
 -1      2628 3.30571E+01-1.43362E+00 3.47779E-02-3.84321E+00 4.06132E-13-3.36675E-13
 -1      2629 3.20972E+01-4.68755E-01-2.69387E-01-1.64139E+00 3.72674E-13-4.36179E-13
 -1      2630 3.11315E+01-3.06257E+00 2.80952E-02-4.52163E+00 4.89759E-13-4.15168E-13
 -1      2631 8.89768E+00-3.68567E+00 1.60539E-01 6.95777E+00-3.25018E-14-2.52021E-14
 -1      2632 4.42189E+00-2.43959E+00 1.82124E-01 3.03498E+00-3.40630E-14 1.13187E-13
 -1      2633 4.82660E+00-2.87936E+00 1.85039E-01-1.53704E+00-3.86635E-14-8.10463E-15
 -1      2634 3.31176E+01 7.25690E-01-4.30295E-02-1.07660E+00-2.12608E-13 3.41394E-15
 -1      2635 1.01006E+01-5.15473E+00 1.15314E-01-4.95891E+00 1.82188E-13 1.42886E-13
 -1      2636 1.36296E+01-4.58833E+00 1.24996E-01-5.26969E+00 2.46358E-13 1.12160E-13
 -1      2637 9.34102E+00-3.23369E+00 1.84962E-01-4.46195E+00 5.33462E-14 1.79523E-13
 -1      2638 1.91237E+01 2.37877E-01-3.93261E-03 1.80838E+00-6.67209E-14-4.27176E-13
 -1      2639 1.79294E+01-6.21254E+00 1.03106E-01-5.28404E+00 3.93269E-13-9.51045E-14
 -1      2640 3.08113E+01-5.05196E+00-7.10657E-02 1.03005E+00 4.58245E-13-5.55583E-13
 -1      2641 3.09826E+01-6.59882E+00-1.55687E-02 4.29176E+00 3.55244E-13-7.30527E-13
 -1      2642 3.37623E+01 5.20254E+00-1.46445E-01-1.39233E-01 2.50272E-13-3.00648E-13
 -1      2643 3.14094E+01 6.33987E+00-1.67703E-01 5.13783E-01 4.81754E-13-1.83173E-13
 -1      2644 3.22588E+01 3.41152E+00-1.02182E-01-1.84951E-01 1.95566E-13-3.52940E-13
 -1      2645 1.98434E+01 2.76585E+00-6.29737E-03 5.15691E-01 1.37536E-13-5.33288E-13
 -1      2646 1.98184E+01 2.81564E+00-5.70120E-03 3.64947E-01 9.13425E-14-5.32495E-13
 -1      2647 1.98014E+01 2.85320E+00-5.61390E-03 2.29598E-01 6.05180E-14-5.49109E-13
 -1      2648 1.97927E+01 2.87011E+00-5.43606E-03 7.51198E-02 1.88801E-14-5.43466E-13
 -1      2649 1.99478E+01 2.50196E+00 3.64473E-03 2.64854E-01 7.40030E-14-5.12972E-13
 -1      2650 2.00431E+01 2.32456E+00-1.07205E-02 1.04495E+00 3.20031E-13-4.16291E-13
 -1      2651 1.99786E+01 2.47358E+00-6.30716E-03 9.09459E-01 2.75527E-13-4.65999E-13
 -1      2652 2.02172E+01 1.90856E+00-1.20191E-02 1.22613E+00 3.95243E-13-3.18449E-13
 -1      2653 2.01243E+01 2.14675E+00-4.80339E-03 1.13272E+00 3.51517E-13-3.62686E-13
 -1      2654 2.01890E+01 1.88714E+00 6.44407E-03 9.25333E-01 3.11656E-13-3.53742E-13
 -1      2655 2.03225E+01 1.06020E+00 6.03562E-03-8.55831E-01-3.33659E-13-2.09955E-13
 -1      2656 2.02284E+01 8.15749E-01-5.45119E-03-6.12366E-01-3.04347E-13-2.17981E-13
 -1      2657 2.02140E+01 7.27226E-01-3.48871E-03 6.41412E-01 3.19948E-13-1.49311E-13
 -1      2658 2.03558E+01 9.52070E-01 9.14605E-03 9.05327E-01 3.53439E-13-1.41612E-13
 -1      2659 1.98432E+01 5.32254E-03 1.65024E-04-1.79804E-01 7.68061E-14-1.57315E-13
 -1      2660 1.98425E+01 2.44539E-02 1.86266E-03-1.69396E-01 5.00252E-14-1.71000E-13
 -1      2661 2.02175E+01 6.28309E-01 8.69095E-03-4.35364E-01-2.77133E-13-2.15220E-13
 -1      2662 2.01332E+01 4.75884E-01-3.29427E-03-2.76806E-01-2.32264E-13-2.38208E-13
 -1      2663 2.02632E+01 8.94560E-01 1.41640E-03-5.71377E-01-2.94476E-13-2.82310E-13
 -1      2664 2.01072E+01 3.63080E-01 6.68005E-03-1.56901E-01-1.82984E-13-2.25727E-13
 -1      2665 2.00481E+01 2.68292E-01-1.74515E-03-5.91306E-02-1.46952E-13-2.19974E-13
 -1      2666 2.01957E+01 5.29552E-01-1.51214E-03-2.60276E-01-2.17753E-13-2.65010E-13
 -1      2667 2.00220E+01 1.98030E-01 4.53438E-03 1.62629E-02-1.22532E-13-1.95971E-13
 -1      2668 1.99862E+01 1.38480E-01-8.28318E-04 7.29396E-02-9.24663E-14-1.84824E-13
 -1      2669 2.01268E+01 2.99273E-01-2.04743E-03-5.36057E-02-1.26919E-13-2.18015E-13
 -1      2670 1.99652E+01 9.43299E-02 2.89923E-03 1.16399E-01-7.80994E-14-1.80393E-13
 -1      2671 1.99472E+01 5.70301E-02-2.95146E-04 1.45923E-01-8.34958E-14-1.85652E-13
 -1      2672 2.00702E+01 1.53069E-01-1.88623E-03 7.38634E-02-8.44917E-14-2.24657E-13
 -1      2673 1.99322E+01 2.95398E-02 1.73316E-03 1.67471E-01-1.15230E-13-1.89994E-13
 -1      2674 1.99263E+01 6.73334E-03-2.07993E-07 1.79426E-01-1.06677E-13-1.92493E-13
 -1      2675 2.00290E+01 6.06509E-02-1.51369E-03 1.45024E-01-1.00405E-13-2.29000E-13
 -1      2676 1.99164E+01-9.80819E-03 9.28468E-04 1.86539E-01-1.00035E-13-2.07994E-13
 -1      2677 1.99183E+01-2.30070E-02 1.53218E-04 1.87480E-01-1.12458E-13-2.07870E-13
 -1      2678 2.00015E+01 3.52475E-03-1.13188E-03 1.77873E-01-1.10542E-13-2.35082E-13
 -1      2679 1.99123E+01-3.22565E-02 3.90588E-04 1.85541E-01-1.08838E-13-2.15506E-13
 -1      2680 1.99187E+01-3.90666E-02 2.25288E-04 1.79947E-01-9.15941E-14-1.86484E-13
 -1      2681 1.99847E+01-3.00904E-02-8.08902E-04 1.85764E-01-1.12272E-13-1.65461E-13
 -1      2682 1.99156E+01-4.34701E-02 4.56380E-05 1.72742E-01-8.76270E-14-1.90666E-13
 -1      2683 1.99242E+01-4.60789E-02 2.51323E-04 1.63650E-01-6.26097E-14-1.97320E-13
 -1      2684 1.99756E+01-4.79948E-02-5.56988E-04 1.78280E-01-6.99434E-14-1.59025E-13
 -1      2685 1.99231E+01-4.73152E-02-1.62853E-04 1.53783E-01-4.26734E-14-2.34363E-13
 -1      2686 1.99325E+01-4.72308E-02 2.52026E-04 1.43223E-01-3.51442E-14-2.44368E-13
 -1      2687 1.99718E+01-5.55041E-02-3.69378E-04 1.62136E-01-8.01040E-14-2.54620E-13
 -1      2688 1.99326E+01-4.64605E-02-2.77252E-04 1.32439E-01-4.54380E-14-2.54501E-13
 -1      2689 1.99419E+01-4.47210E-02 2.39898E-04 1.21732E-01-7.34326E-14-2.51487E-13
 -1      2690 1.99714E+01-5.62915E-02-2.34592E-04 1.41922E-01-5.94286E-14-3.04109E-13
 -1      2691 1.99427E+01-4.27401E-02-3.28782E-04 1.11161E-01-7.66687E-14-1.99929E-13
 -1      2692 1.99513E+01-4.00466E-02 2.22924E-04 1.01138E-01-6.19685E-14-1.94265E-13
 -1      2693 1.99732E+01-5.28930E-02-1.41164E-04 1.20692E-01-4.09865E-14-1.93900E-13
 -1      2694 1.99526E+01-3.73863E-02-3.40215E-04 9.14828E-02-7.91839E-14-1.67751E-13
 -1      2695 1.99604E+01-3.41934E-02 2.06561E-04 8.26395E-02-7.59618E-14-1.55200E-13
 -1      2696 1.99762E+01-4.70295E-02-7.89530E-05 1.00409E-01-7.15970E-14-1.35055E-13
 -1      2697 1.99618E+01-3.11889E-02-3.27937E-04 7.43165E-02-9.56084E-14-2.30772E-13
 -1      2698 1.99687E+01-2.77701E-02 1.94564E-04 6.69345E-02-8.77848E-14-2.47295E-13
 -1      2699 1.99797E+01-3.98258E-02-4.00198E-05 8.22806E-02-1.25826E-13-2.24528E-13
 -1      2700 1.99702E+01-2.46138E-02-3.03433E-04 6.01766E-02-6.80955E-14-2.44938E-13
 -1      2701 1.99763E+01-2.11114E-02 1.89519E-04 5.44066E-02-1.14058E-13-2.38928E-13
 -1      2702 1.99835E+01-3.19679E-02-1.82854E-05 6.70191E-02-7.20843E-14-2.92520E-13
 -1      2703 1.99779E+01-1.78934E-02-2.74542E-04 4.93425E-02-1.17196E-13-1.58677E-13
 -1      2704 1.99833E+01-1.43581E-02 1.93188E-04 4.52662E-02-8.64334E-14-1.69487E-13
 -1      2705 1.99874E+01-2.38246E-02-9.12012E-06 5.50313E-02-7.54388E-14-1.27007E-13
 -1      2706 1.99849E+01-1.10983E-02-2.46432E-04 4.19739E-02-6.98592E-14-1.95482E-13
 -1      2707 1.99899E+01-7.52038E-03 2.06737E-04 3.96461E-02-3.08564E-15-2.00639E-13
 -1      2708 1.99913E+01-1.55415E-02-8.97865E-06 4.65547E-02-8.60961E-14-1.04065E-13
 -1      2709 1.99915E+01-4.19654E-03-2.22168E-04 3.81906E-02 1.01180E-15-2.16679E-13
 -1      2710 1.99964E+01-5.35136E-04 2.30585E-04 3.76654E-02 2.05240E-14-2.87012E-13
 -1      2711 1.99951E+01-7.11876E-03-1.54610E-05 4.17536E-02-4.22048E-14-2.54908E-13
 -1      2712 1.99981E+01 2.89027E-03-2.02944E-04 3.81204E-02 9.20826E-14-2.85306E-13
 -1      2713 2.00032E+01 6.67653E-03 2.64160E-04 3.94618E-02 1.07199E-13-3.06482E-13
 -1      2714 1.99992E+01 1.51912E-03-2.71108E-05 4.07821E-02 5.07627E-14-2.55272E-13
 -1      2715 2.00051E+01 1.02255E-02-1.88151E-04 4.19151E-02 9.10518E-14-2.69087E-13
 -1      2716 2.00107E+01 1.41429E-02 3.05463E-04 4.51904E-02 3.79637E-14-2.83876E-13
 -1      2717 2.00035E+01 1.04494E-02-4.33237E-05 4.38135E-02 1.15649E-13-3.51213E-13
 -1      2718 2.00129E+01 1.77848E-02-1.75124E-04 4.97325E-02 2.74209E-14-2.04965E-13
 -1      2719 2.00194E+01 2.17599E-02 3.50425E-04 5.49870E-02 2.72769E-14-1.98731E-13
 -1      2720 2.00084E+01 1.96656E-02-6.45204E-05 5.10360E-02 1.24020E-13-2.70521E-13
 -1      2721 2.00222E+01 2.53635E-02-1.58567E-04 6.16788E-02-9.09268E-14-2.43925E-13
 -1      2722 2.00300E+01 2.91840E-02 3.91950E-04 6.88850E-02-1.52881E-13-2.60082E-13
 -1      2723 2.00142E+01 2.89706E-02-9.24846E-05 6.26104E-02-7.72998E-14-1.31727E-13
 -1      2724 2.00337E+01 3.24553E-02-1.29680E-04 7.76987E-02-1.18025E-13-1.99263E-13
 -1      2725 2.00431E+01 3.56945E-02 4.18698E-04 8.66754E-02-8.17391E-14-1.08738E-13
 -1      2726 2.00214E+01 3.78382E-02-1.30866E-04 7.85809E-02-8.90870E-14-1.93642E-13
 -1      2727 2.00482E+01 3.80975E-02-7.50587E-05 9.74018E-02-8.04368E-14-4.92376E-14
 -1      2728 2.00597E+01 4.00211E-02 4.13634E-04 1.07695E-01-1.49259E-14 3.80418E-14
 -1      2729 2.00308E+01 4.52359E-02-1.85870E-04 9.87253E-02-1.48786E-14-1.51878E-13
 -1      2730 2.00669E+01 4.06855E-02 2.44030E-05 1.19808E-01-2.38390E-15 7.35896E-14
 -1      2731 2.00808E+01 4.01483E-02 3.52496E-04 1.30527E-01-4.51691E-14 6.17025E-14
 -1      2732 2.00435E+01 4.94088E-02-2.66961E-04 1.22330E-01 2.15517E-14 9.40979E-14
 -1      2733 2.00913E+01 3.77757E-02 1.94122E-04 1.42995E-01-5.69276E-14 1.31114E-13
 -1      2734 2.01080E+01 3.31279E-02 2.02516E-04 1.52606E-01-2.59580E-14 1.37337E-13
 -1      2735 2.00611E+01 4.76440E-02-3.87234E-04 1.47872E-01-2.81933E-14 1.18869E-13
 -1      2736 2.01233E+01 2.59250E-02 4.65012E-04 1.63653E-01-4.05398E-14 3.08963E-14
 -1      2737 2.01431E+01 1.49718E-02-7.79713E-05 1.69736E-01 9.04014E-14 5.48123E-14
 -1      2738 2.00860E+01 3.60615E-02-5.62677E-04 1.72597E-01-7.05358E-14 1.88319E-13
 -1      2739 2.01654E+01 6.67344E-04 8.69563E-04 1.76554E-01 9.75432E-14-6.71544E-15
 -1      2740 2.01883E+01-1.92411E-02-5.37816E-04 1.75566E-01 3.40090E-14 8.04105E-15
 -1      2741 2.01214E+01 9.53601E-03-8.08965E-04 1.91990E-01 5.53454E-14-8.01340E-14
 -1      2742 2.02203E+01-4.32012E-02 1.43231E-03 1.74014E-01-5.30822E-14-5.54004E-14
 -1      2743 2.02461E+01-7.48226E-02-1.22710E-03 1.61131E-01-7.63786E-14-1.28527E-13
 -1      2744 2.01718E+01-3.80691E-02-1.13354E-03 1.99187E-01-4.31777E-14-1.41071E-13
 -1      2745 2.02910E+01-1.10760E-01 2.15125E-03 1.45503E-01-1.70858E-14-5.78044E-14
 -1      2746 2.03187E+01-1.56180E-01-2.18276E-03 1.14681E-01-2.64314E-14 1.56661E-14
 -1      2747 2.02423E+01-1.13063E-01-1.52022E-03 1.84410E-01-6.14329E-15-1.02867E-13
 -1      2748 2.03793E+01-2.05168E-01 2.96754E-03 7.76988E-02-1.61557E-13 7.84830E-14
 -1      2749 2.04068E+01-2.64386E-01-3.39895E-03 2.21748E-02-9.67527E-14 6.36866E-14
 -1      2750 2.03387E+01-2.20075E-01-1.90277E-03 1.34652E-01-7.32039E-14 1.24318E-13
 -1      2751 2.04846E+01-3.24567E-01 3.71954E-03-4.44889E-02-3.97780E-14 9.17785E-14
 -1      2752 2.05080E+01-3.93321E-01-4.77409E-03-1.30922E-01 3.46877E-14 1.33418E-13
 -1      2753 2.04652E+01-3.58724E-01-2.12793E-03 3.40448E-02-4.56731E-14 1.37278E-13
 -1      2754 2.06003E+01-4.57568E-01 4.09427E-03-2.35100E-01 9.59645E-14 4.41867E-14
 -1      2755 2.06131E+01-5.24604E-01-6.02450E-03-3.55659E-01 1.23738E-13 1.72551E-13
 -1      2756 2.06216E+01-5.18534E-01-1.92727E-03-1.34328E-01 1.37403E-14 2.29960E-13
 -1      2757 2.07106E+01-5.78036E-01 3.61044E-03-5.01387E-01 1.14868E-13-7.72323E-15
 -1      2758 2.07034E+01-6.22888E-01-6.62363E-03-6.52415E-01 1.28347E-13 3.17514E-14
 -1      2759 2.07985E+01-6.72562E-01-9.23578E-04-3.83922E-01 5.19046E-14-1.44741E-13
 -1      2760 2.07868E+01-6.41835E-01 1.68867E-03-8.34444E-01 1.49754E-13 7.12050E-14
 -1      2761 2.07482E+01-6.35182E-01-5.75257E-03-1.00058E+00 9.74264E-14-7.75119E-14
 -1      2762 2.09714E+01-7.72448E-01 1.18480E-03-7.15986E-01 9.57855E-14-2.52882E-13
 -1      2763 2.07880E+01-5.89757E-01-1.96603E-03-1.19715E+00 1.16318E-13-1.68492E-13
 -1      2764 2.07081E+01-4.99583E-01-2.48473E-03-1.34696E+00 1.59738E-13-1.16939E-13
 -1      2765 2.10970E+01-7.49379E-01 4.45322E-03-1.10654E+00 1.32421E-13-1.33993E-13
 -1      2766 2.06711E+01-3.63470E-01-6.90683E-03-1.51362E+00 1.12828E-13-1.10027E-13
 -1      2767 2.05472E+01-1.69952E-01 3.38799E-03-1.59970E+00-3.39694E-14-2.08122E-14
 -1      2768 2.11173E+01-5.29690E-01 8.05927E-03-1.49111E+00 7.93602E-14-2.08143E-13
 -1      2769 2.04124E+01 6.21146E-02-1.16706E-02-1.67103E+00-7.64237E-14-3.26225E-14
 -1      2770 2.02558E+01 3.44877E-01 1.02476E-02-1.63963E+00-1.92298E-13-1.30707E-13
 -1      2771 2.09791E+01-6.91118E-02 1.02114E-02-1.75731E+00-6.34622E-14-2.04476E-13
 -1      2772 2.00374E+01 6.36698E-01-1.36825E-02-1.54880E+00-2.99849E-13 1.74541E-14
 -1      2773 1.98754E+01 9.45765E-01 1.47824E-02-1.36312E+00-2.90085E-13-3.13178E-14
 -1      2774 2.06702E+01 5.94467E-01 8.10576E-03-1.76275E+00-1.59620E-13-2.25896E-13
 -1      2775 1.96311E+01 1.21696E+00-1.03817E-02-1.07884E+00-2.13107E-13 9.25813E-14
 -1      2776 1.95000E+01 1.45164E+00 1.38949E-02-7.45898E-01 2.32442E-14 1.82524E-13
 -1      2777 2.02518E+01 1.31209E+00 1.89533E-03-1.39565E+00-1.32366E-13 9.24288E-14
 -1      2778 1.93114E+01 1.60197E+00-2.15312E-03-3.06659E-01 6.26352E-14 7.14254E-14
 -1      2779 1.92425E+01 1.66690E+00 7.45080E-03 1.08626E-01 8.78076E-14 8.73373E-14
 -1      2780 1.98513E+01 1.85248E+00-4.17735E-03-6.54834E-01-3.43676E-14 2.28764E-13
 -1      2781 1.91637E+01 1.62655E+00 7.47647E-03 5.95175E-01-4.06903E-14 9.35406E-15
 -1      2782 1.91667E+01 1.47936E+00-2.02221E-03 9.89867E-01-2.55836E-13-1.33861E-13
 -1      2783 1.95955E+01 1.99933E+00-5.27426E-03 3.03708E-01-1.54834E-13 8.88449E-15
 -1      2784 1.91978E+01 1.23639E+00 1.36344E-02 1.39293E+00-3.49055E-13-1.10089E-13
 -1      2785 1.92570E+01 8.94718E-01-1.40318E-02 1.66004E+00-3.17700E-13-9.91565E-14
 -1      2786 1.95371E+01 1.65258E+00 9.16110E-04 1.22728E+00-2.21467E-13-5.26762E-14
 -1      2787 1.98562E+01 4.81480E-02-7.76243E-05-1.46930E-01 4.14399E-14-1.64478E-13
 -1      2788 1.98705E+01 8.16686E-02 3.21604E-03-1.17610E-01 5.67940E-14-1.47161E-13
 -1      2789 1.99514E+01 5.27417E-02-1.78011E-03-1.49326E-01 4.92691E-14-2.06501E-13
 -1      2790 1.67494E+01-3.87234E+00 2.61136E-01-1.13582E+01-5.46785E-14 3.01897E-13
 -1      2791 1.15692E+01-3.29800E+00-4.57950E-02-9.85886E+00-1.68310E-13 5.03375E-13
 -1      2792 1.98936E+01 1.19071E-01-2.64748E-04-7.28891E-02 7.34973E-14-1.50885E-13
 -1      2793 1.99291E+01 1.70745E-01 5.20393E-03-1.72998E-02 1.13456E-13-1.22627E-13
 -1      2794 1.99925E+01 1.35904E-01-2.33643E-03-7.46342E-02 8.00260E-14-1.99118E-13
 -1      2795 1.98457E+01-1.90450E-02 2.35949E-04-1.86491E-01 7.74447E-14-8.47745E-14
 -1      2796 1.98369E+01-8.18930E-03 8.49501E-04-1.86436E-01 8.91432E-14-9.54112E-14
 -1      2797 1.99293E+01 2.64574E-03-1.23012E-03-1.82561E-01 5.64274E-14-1.92475E-13
 -1      2798 1.98572E+01-3.22069E-02 2.38618E-04-1.78152E-01 7.55927E-14-8.89589E-14
 -1      2799 1.98442E+01-2.66458E-02 2.70078E-04-1.84177E-01 7.90028E-14-8.37554E-14
 -1      2800 1.99211E+01-2.58588E-02-8.24566E-04-1.89459E-01 8.79568E-14-1.31863E-13
 -1      2801 1.98732E+01-3.79610E-02 2.21995E-04-1.61468E-01 1.28863E-13-1.17880E-13
 -1      2802 1.98586E+01-3.58483E-02-8.17393E-05-1.70697E-01 1.10733E-13-9.08017E-14
 -1      2803 1.99212E+01-4.09681E-02-5.25384E-04-1.81084E-01 1.11118E-13-1.48931E-13
 -1      2804 1.98910E+01-3.89386E-02 1.98434E-04-1.40915E-01 1.23671E-13-5.29253E-14
 -1      2805 1.98764E+01-3.90243E-02-2.84786E-04-1.51440E-01 1.45901E-13-6.79046E-14
 -1      2806 1.99264E+01-4.73018E-02-3.12774E-04-1.64189E-01 1.16475E-13-1.35790E-13
 -1      2807 1.99087E+01-3.69452E-02 1.74731E-04-1.19432E-01 1.52832E-13-9.01799E-14
 -1      2808 1.98950E+01-3.83726E-02-3.87086E-04-1.30023E-01 1.57227E-13-4.77315E-14
 -1      2809 1.99343E+01-4.79898E-02-1.67582E-04-1.43347E-01 1.64056E-13-1.81713E-14
 -1      2810 1.99253E+01-3.32099E-02 1.54023E-04-9.88823E-02 4.59168E-14-2.60253E-14
 -1      2811 1.99130E+01-3.54000E-02-4.23094E-04-1.08773E-01 1.03179E-13-2.87269E-14
 -1      2812 1.99434E+01-4.51827E-02-7.35883E-05-1.21573E-01 8.93603E-14 5.36088E-15
 -1      2813 1.99402E+01-2.85319E-02 1.53833E-04-8.03906E-02 1.28319E-13-9.87806E-14
 -1      2814 1.99294E+01-3.11195E-02-4.17053E-04-8.91323E-02 6.47893E-14-4.91213E-14
 -1      2815 1.99527E+01-4.03397E-02-1.73737E-05-1.00793E-01 8.40084E-14 3.76195E-14
 -1      2816 1.99539E+01-2.31752E-02 1.43988E-04-6.38882E-02 1.31147E-13-6.12562E-14
 -1      2817 1.99443E+01-2.60264E-02-3.82020E-04-7.15319E-02 1.60840E-13-4.87883E-14
 -1      2818 1.99618E+01-3.42832E-02-8.90283E-06-8.17720E-02 1.15142E-13 2.87913E-14
 -1      2819 1.99653E+01-1.79056E-02 1.38957E-04-5.13121E-02 2.02362E-14-7.46001E-14
 -1      2820 1.99575E+01-2.07098E-02-3.45383E-04-5.70539E-02 1.33524E-13-5.07637E-14
 -1      2821 1.99702E+01-2.76293E-02 2.38945E-05-6.57049E-02 1.09005E-13 1.12315E-13
 -1      2822 1.99756E+01-1.25540E-02 1.54550E-04-4.19860E-02 2.29620E-14-9.93936E-14
 -1      2823 1.99687E+01-1.53840E-02-2.97545E-04-4.61204E-02-5.93198E-14-1.32152E-13
 -1      2824 1.99778E+01-2.09615E-02 1.88702E-05-5.33420E-02 3.08046E-14 7.62045E-14
 -1      2825 1.99850E+01-7.06111E-03 1.84853E-04-3.60671E-02-4.79948E-15 3.20026E-14
 -1      2826 1.99787E+01-9.97294E-03-2.54227E-04-3.85267E-02 5.00839E-14-5.54948E-15
 -1      2827 1.99849E+01-1.41502E-02 3.50650E-06-4.44635E-02-1.96973E-14 5.44667E-14
 -1      2828 1.99942E+01-1.24696E-03 2.33026E-04-3.37622E-02-6.37469E-14 4.70586E-14
 -1      2829 1.99881E+01-4.35243E-03-2.17340E-04-3.44383E-02-3.42221E-14 5.77475E-14
 -1      2830 1.99918E+01-7.08914E-03-1.95724E-05-3.92786E-02-5.31584E-14 1.68859E-13
 -1      2831 2.00040E+01 5.18807E-03 3.03645E-04-3.54068E-02-2.23500E-14 7.11949E-14
 -1      2832 1.99975E+01 1.71463E-03-1.90102E-04-3.41155E-02 3.50566E-14 1.62456E-14
 -1      2833 1.99988E+01 4.81716E-04-4.82247E-05-3.80596E-02-2.90453E-14 2.10953E-13
 -1      2834 2.00149E+01 1.26762E-02 4.02761E-04-4.15415E-02-1.43004E-13 7.40528E-14
 -1      2835 2.00075E+01 8.58811E-03-1.76016E-04-3.79850E-02-7.98265E-14 5.72991E-14
 -1      2836 2.00063E+01 8.97639E-03-8.04524E-05-4.12235E-02-3.10872E-14 1.58087E-13
 -1      2837 2.00279E+01 2.18199E-02 5.39478E-04-5.29969E-02-4.89912E-14-3.61266E-14
 -1      2838 2.00189E+01 1.67746E-02-1.79770E-04-4.67179E-02-9.19692E-14 7.18126E-15
 -1      2839 2.00146E+01 1.89864E-02-1.13435E-04-4.94106E-02-9.34763E-14-4.21821E-14
 -1      2840 2.00440E+01 3.34807E-02 7.53615E-04-7.09870E-02-3.11905E-14 8.91762E-14
 -1      2841 2.00326E+01 2.69735E-02-2.09145E-04-6.13258E-02-4.88756E-14 1.11223E-14
 -1      2842 2.00243E+01 3.13368E-02-1.42949E-04-6.35681E-02-7.31396E-14-6.99284E-14
 -1      2843 2.00651E+01 4.96680E-02 1.01341E-03-9.88797E-02 1.72796E-14 9.18103E-14
 -1      2844 2.00496E+01 4.05677E-02-2.85698E-04-8.39213E-02 5.95290E-14 1.34819E-13
 -1      2845 2.00359E+01 4.75382E-02-1.96225E-04-8.57387E-02-1.40373E-14 9.41168E-14
 -1      2846 2.00901E+01 7.05612E-02 1.31768E-03-1.36620E-01-1.67010E-14 6.83972E-14
 -1      2847 2.00709E+01 5.87791E-02-3.91535E-04-1.16459E-01-1.79885E-14 9.34178E-14
 -1      2848 2.00493E+01 6.92588E-02-1.50042E-04-1.17589E-01-9.68226E-17 1.58511E-13
 -1      2849 2.01208E+01 9.93297E-02 1.76203E-03-1.88810E-01-2.41373E-14 4.72330E-14
 -1      2850 2.00960E+01 8.30738E-02-5.91420E-04-1.60819E-01 3.53133E-14 5.42960E-14
 -1      2851 2.00637E+01 9.79217E-02-8.04445E-05-1.60802E-01 2.17252E-14 8.03109E-14
 -1      2852 2.01571E+01 1.39353E-01 2.34046E-03-2.60315E-01-3.17551E-14 7.28289E-14
 -1      2853 2.01255E+01 1.16694E-01-9.09783E-04-2.21718E-01-1.88904E-14 4.00005E-14
 -1      2854 2.00782E+01 1.37296E-01 8.65930E-05-2.19549E-01-4.93955E-14 1.15427E-14
 -1      2855 2.01978E+01 1.95421E-01 3.08170E-03-3.57725E-01-1.20388E-13 3.49689E-14
 -1      2856 2.01585E+01 1.63670E-01-1.41041E-03-3.04722E-01-4.26180E-14 5.52771E-14
 -1      2857 2.00902E+01 1.91943E-01 4.26303E-04-2.98552E-01-5.19222E-14-1.33697E-14
 -1      2858 2.02396E+01 2.73995E-01 4.00297E-03-4.89813E-01-4.85417E-14-6.99890E-15
 -1      2859 2.01921E+01 2.29565E-01-2.18054E-03-4.17298E-01-1.32594E-13 5.27471E-15
 -1      2860 2.00943E+01 2.68121E-01 1.05752E-03-4.03934E-01-5.71161E-14 4.81017E-14
 -1      2861 2.02749E+01 3.83207E-01 5.08989E-03-6.67855E-01 1.82962E-13 8.54980E-14
 -1      2862 2.02199E+01 3.21683E-01-3.34108E-03-5.69232E-01 1.07525E-13 5.11114E-14
 -1      2863 2.00813E+01 3.74032E-01 2.16140E-03-5.43392E-01-1.59083E-14-2.78872E-14
 -1      2864 2.02900E+01 5.31906E-01 6.27207E-03-9.05536E-01 2.68165E-13 9.37102E-14
 -1      2865 2.02305E+01 4.48702E-01-5.05599E-03-7.72841E-01 2.30492E-13 1.29276E-13
 -1      2866 2.00354E+01 5.19516E-01 3.99615E-03-7.26147E-01 1.91014E-13 1.33780E-13
 -1      2867 2.02633E+01 7.26110E-01 7.60325E-03-1.21788E+00 1.04127E-13 1.38724E-13
 -1      2868 2.02041E+01 6.18557E-01-7.60466E-03-1.04275E+00 2.36823E-13 8.91851E-14
 -1      2869 1.99310E+01 7.14370E-01 6.92101E-03-9.62509E-01 2.20399E-13 1.80278E-13
 -1      2870 2.01495E+01 9.71931E-01 8.80531E-03-1.64168E+00-4.48426E-15-2.23364E-14
 -1      2871 2.01046E+01 8.40445E-01-1.07248E-02-1.40341E+00 5.89730E-14 1.24362E-13
 -1      2872 1.97215E+01 9.67439E-01 1.04156E-02-1.27240E+00 1.14838E-13 1.66263E-13
 -1      2873 1.99166E+01 1.20265E+00 9.31712E-03-2.14389E+00 7.29191E-14-7.79274E-14
 -1      2874 1.98954E+01 1.08565E+00-1.50184E-02-1.86716E+00 2.65521E-16-2.53573E-14
 -1      2875 1.93548E+01 1.26213E+00 1.71619E-02-1.65774E+00 4.48166E-15 7.02730E-14
 -1      2876 1.95443E+01 1.30969E+00 1.37887E-02-2.73660E+00 4.86672E-14-8.51546E-14
 -1      2877 1.95383E+01 1.27567E+00-1.80860E-02-2.42589E+00 1.00934E-13-6.80059E-14
 -1      2878 1.87752E+01 1.52038E+00 2.44112E-02-2.12119E+00 1.27426E-13 1.03325E-13
 -1      2879 1.90799E+01 1.01210E+00 2.48972E-02-3.39463E+00 1.20010E-13-1.86925E-13
 -1      2880 1.90386E+01 1.22557E+00-1.44817E-02-3.09117E+00 1.05017E-13-1.41773E-13
 -1      2881 1.79256E+01 1.58472E+00 3.36542E-02-2.69589E+00 9.13469E-14 1.34714E-14
 -1      2882 1.87235E+01-2.41963E-01 3.50698E-02-4.05493E+00 2.28657E-13-4.23377E-13
 -1      2883 1.85486E+01 5.96800E-01 2.99211E-02-3.82182E+00 1.88403E-13-2.47545E-13
 -1      2884 1.69115E+01 1.10153E+00 7.23107E-02-3.45549E+00 1.42639E-13-8.84726E-14
 -1      2885 2.01292E+01-3.16567E+00 7.64769E-02-4.48744E+00 2.70214E-13-2.71144E-13
 -1      2886 1.93373E+01-1.34426E+00 1.38912E-01-4.51329E+00 1.67848E-13-2.63754E-13
 -1      2887 1.63529E+01-6.66555E-01 1.95299E-02-4.40939E+00 8.93730E-14-2.39322E-13
 -1      2888 1.85543E+01-4.22063E+00 5.85789E-02-4.88087E+00 3.98417E-13-2.84522E-13
 -1      2889 2.56977E+01-5.30558E+00 1.54780E-01-9.77623E+00 1.60261E-13-3.78093E-13
 -1      2890 2.79033E+01-4.63572E+00-4.12773E-02-7.70168E+00 3.07018E-13-5.70766E-13
 -1      2891 3.01512E+01 8.05923E+00-2.16646E-01-9.49600E-02 3.76948E-13-4.16195E-14
 -1      2892 3.07191E+01 8.82247E+00-2.16134E-01-9.23284E-01 1.82687E-13-1.98585E-13
 -1      2893 2.13528E+01-4.96859E+00-3.89808E-03-1.11980E+01 4.67126E-14-8.65974E-14
 -1      2894 2.88842E+01-3.95620E+00 3.54710E-02-5.35191E+00 4.59827E-13-2.28859E-13
 -1      2895 2.62463E+01-1.49001E+00-1.03749E-01-9.88288E-01 1.92188E-13-1.21597E-13
 -1      2896 2.75801E+01-2.20970E+00-8.90867E-03-2.54575E+00 3.45697E-13-1.74805E-13
 -1      2897 2.04411E+01 2.88896E-01-6.05608E-03 2.05799E+00 9.02682E-14 4.46088E-13
 -1      2898 2.09776E+01 2.39142E-01 1.01974E-02 1.86820E+00 4.71273E-14 5.27066E-13
 -1      2899 2.01813E+01 2.27430E+00 1.60806E-04-1.42389E+00-3.87437E-13-3.34220E-13
 -1      2900 2.03390E+01 1.50051E+00-1.89694E-03 1.26592E+00 4.02366E-13-1.90030E-13
 -1      2901 3.08839E+01 8.76378E+00-2.34563E-01-1.60463E+00 2.99760E-14-3.62531E-13
 -1      2902 3.10708E+01 8.06951E+00-1.84525E-01-2.38516E+00-2.26569E-13-4.06036E-13
 -1      2903 2.88356E+01 8.15725E+00-1.32676E-01-1.22058E+00-2.11497E-14-3.75428E-13
 -1      2904 1.99627E+01 2.31609E-01-7.67152E-04 6.09347E-02 1.43417E-13-1.39985E-13
 -1      2905 2.00281E+01 3.15433E-01 7.81592E-03 1.58839E-01 1.85180E-13-1.19235E-13
 -1      2906 2.00571E+01 2.66364E-01-2.71502E-03 5.87143E-02 1.33688E-13-1.70499E-13
 -1      2907 2.16237E+01 2.52365E-01-2.27908E-02 1.70784E+00 1.26625E-13 7.03763E-13
 -1      2908 2.24907E+01 8.39760E-02 5.11530E-03 1.26586E+00 1.48766E-13 5.81373E-13
 -1      2909 2.15400E+01 1.14087E+00 4.43227E-03 1.82465E+00 9.95870E-14 6.00717E-13
 -1      2910 2.35430E+01-2.16520E-01-5.72147E-02 8.45578E-01 2.93685E-13 2.16589E-13
 -1      2911 2.48367E+01-6.05705E-01 4.12459E-03-2.68764E-02 3.20443E-13-1.75034E-14
 -1      2912 2.65442E+01 1.44938E-01-8.68784E-04 1.55473E-01 3.92471E-13 5.22499E-15
 -1      2913 2.35595E+01 1.04384E+00 1.05412E-02 1.30619E+00 3.64042E-13 3.84293E-13
 -1      2914 3.01370E+01-3.54590E+00-1.91088E-01 7.86976E-01-8.01928E-14 2.06030E-13
 -1      2915 2.82407E+01-4.90326E+00 9.97972E-02 2.69697E+00-2.33320E-14 2.92849E-13
 -1      2916 7.05545E+00-6.74827E+00-2.17461E-01-8.58981E+00 8.88178E-15 3.77698E-13
 -1      2917 1.04373E+01-4.83728E+00-6.45821E-02-1.00249E+01-2.53131E-14 5.15588E-13
 -1      2918 5.46527E+00-6.80040E+00-2.04348E-01-6.99050E+00-1.24900E-14 7.12985E-13
 -1      2919 4.24874E+00-5.99180E+00-2.69850E-01-5.41214E+00-2.13607E-13 8.40605E-13
 -1      2920 2.96303E+01-6.82219E+00 7.79141E-02 4.58488E+00 5.68823E-13-5.73208E-13
 -1      2921 1.99224E+01 2.59663E+00-7.88312E-03 7.93666E-01 2.40486E-13-4.90088E-13
 -1      2922 1.98784E+01 2.68886E+00-6.12448E-03 6.44781E-01 1.72851E-13-5.10878E-13
 -1      2923 1.99968E+01 2.38931E+00 4.32390E-03 5.16088E-01 1.42927E-13-4.88746E-13
 -1      2924 2.00788E+01 2.19140E+00 5.60254E-03 7.44837E-01 2.38167E-13-4.33648E-13
 -1      2925 1.94387E+01 7.52163E-02-9.03970E-03 1.95921E+00 1.66183E-13-7.89544E-14
 -1      2926 1.96539E+01-4.19663E-02-8.87650E-04 2.07418E+00 2.82341E-13 2.49225E-13
 -1      2927 1.99273E+01-6.12894E-02 6.67722E-03 2.06674E+00 9.99405E-14 4.27717E-13
 -1      2928 1.93584E+01 4.62283E-01 1.27834E-02 1.89236E+00-1.56425E-14-9.93166E-14
 -1      2929 1.98734E+01 2.69758E+00-6.03078E-03-6.34602E-01-1.73021E-13-5.23584E-13
 -1      2930 1.99164E+01 2.60782E+00-7.67560E-03-7.83831E-01-2.27017E-13-5.17927E-13
 -1      2931 2.00715E+01 4.15825E-01-1.53959E-03 2.86378E-01 2.37721E-13-1.35541E-13
 -1      2932 2.01725E+01 5.54075E-01 1.04306E-02 4.49172E-01 2.80385E-13-1.36317E-13
 -1      2933 2.02543E+01 8.21913E-01 6.10239E-04 6.15833E-01 3.09963E-13-2.11678E-13
 -1      2934 2.01468E+01 4.77514E-01-2.12462E-03 2.78865E-01 2.12195E-13-1.84334E-13
 -1      2935 3.17112E+01 1.55393E+00-2.24409E-01-2.27246E+00-2.07320E-13-1.60635E-13
 -1      2936 3.13310E+01-7.76103E-01-1.83640E-02-1.20136E+00-1.49963E-13 2.62290E-14
 -1      2937 5.38367E+00-1.33089E+00 1.55676E-01-7.03979E-01 5.59969E-15-1.85019E-13
 -1      2938 6.86433E+00-2.00618E+00 1.91702E-01-2.88438E+00 5.37070E-14 3.08087E-14
 -1      2939 5.92610E+00-1.50345E+00 1.10758E-01 4.04895E+00-1.27731E-13-8.21565E-15
 -1      2940 5.22820E+00-1.12624E+00 2.16379E-01 1.64286E+00-2.44206E-14-1.98452E-14
 -1      2941 1.82176E+01-5.35567E+00-5.75722E-03 7.70834E+00 1.03931E-13-1.54515E-13
 -1      2942 1.53004E+01-4.30610E+00 2.00872E-01 7.69368E+00 1.21889E-13-2.24681E-13
 -1      2943 3.14582E+01 6.35235E+00-2.40286E-01-2.83393E+00-3.15026E-13-4.09742E-13
 -1      2944 3.17511E+01 4.43216E+00-1.06282E-01-2.93206E+00-4.24383E-13-3.49110E-13
 -1      2945 2.49751E+01-6.13421E+00-1.39351E-01 5.27629E+00 2.16702E-13 1.91635E-13
 -1      2946 2.17910E+01-5.79943E+00 1.45697E-01 6.66577E+00 2.22905E-13 9.15110E-14
 -1      2947 2.08302E+01-5.10342E+00 1.15133E-01 6.49445E+00 2.69187E-13 2.19547E-13
 -1      2948 1.12929E+01-3.31118E+00 4.56156E-02 7.35176E+00-2.81442E-14-1.24123E-13
 -1      2949 8.38552E+00-2.13008E+00 2.36393E-01 5.83712E+00-4.97102E-14-2.91711E-14
 -1      2950 1.99711E+01 2.48803E+00-6.14052E-03-9.00335E-01-2.69578E-13-4.96680E-13
 -1      2951 2.00260E+01 2.35142E+00-1.16695E-02-1.04027E+00-3.20960E-13-4.74477E-13
 -1      2952 2.00720E+01 2.20482E+00 5.70115E-03-7.37956E-01-2.27178E-13-4.60053E-13
 -1      2953 1.99310E+01 2.53955E+00 3.42398E-03 4.59241E-03-4.77914E-15-4.97929E-13
 -1      2954 1.97921E+01 2.87097E+00-5.48206E-03-6.17998E-02-2.47651E-14-5.40062E-13
 -1      2955 1.97997E+01 2.85630E+00-5.53717E-03-2.16356E-01-6.90601E-14-5.40607E-13
 -1      2956 1.95919E+01 8.51341E-01 5.87559E-03 1.88411E+00-4.87189E-14 2.02375E-13
 -1      2957 2.03027E+01 1.73043E+00-9.29487E-03-1.32180E+00-4.01801E-13-2.47176E-13
 -1      2958 2.02888E+01 1.32815E+00-6.62286E-03-1.03758E+00-3.64844E-13-2.18396E-13
 -1      2959 1.84214E+01-4.53794E+00 1.45368E-01-1.17236E+01-7.21090E-14 5.09592E-14
 -1      2960 2.66166E+01-5.18328E+00 4.70186E-02 3.34918E+00 1.94560E-13 2.26708E-13
 -1      2961 2.85633E+01-2.82536E+00-1.39235E-01-3.38827E+00 3.93966E-13-1.78614E-13
 -1      2962 2.98671E+01 7.00087E+00-2.01647E-01 3.93391E-01 5.35322E-13 6.58917E-14
 -1      2963 2.82226E+01 7.34191E+00-1.25882E-01 1.70348E-01 2.63650E-13 6.32688E-14
 -1      2964 2.92048E+01 5.72563E+00-1.50133E-01 6.24532E-01 4.20219E-13 7.87634E-14
 -1      2965 2.98159E+01-2.23622E+00-4.16677E-02-7.41096E-01-1.57877E-14 2.92821E-14
 -1      2966 3.07704E+01 8.79007E-02-1.57601E-01-1.00200E+00 2.54866E-13-3.95822E-13
 -1      2967 2.95144E+01 1.77993E+00-1.14259E-01 1.50718E-01 3.16691E-13-7.37327E-14
 -1      2968 2.15892E+01-2.67486E+00 2.05722E-01 8.63707E+00-2.57128E-13-6.57641E-13
 -1      2969 2.01569E+01 6.26094E-01-1.21100E-02 2.02568E+00 7.22074E-14 4.30565E-13
 -1      2970 2.95573E+01 6.66024E+00-1.26471E-01-2.71689E+00-3.32734E-13-4.19054E-13
 -1      2971 1.98154E+01 2.82078E+00-5.67887E-03-3.51371E-01-8.85380E-14-5.20220E-13
 -1      2972 1.98397E+01 2.77245E+00-6.16048E-03-5.04861E-01-1.47962E-13-5.17629E-13
 -1      2973 1.99925E+01 2.39689E+00 4.25817E-03-5.07040E-01-1.49015E-13-4.94625E-13
 -1      2974 1.99457E+01 2.50546E+00 3.61336E-03-2.55391E-01-7.87328E-14-5.12548E-13
 -1      2975 2.02911E+01 1.58824E+00-1.13554E-03 1.16475E+00 3.84683E-13-2.60111E-13
 -1      2976 2.02808E+01 1.36698E+00 2.31030E-03 9.18667E-01 3.44838E-13-2.79675E-13
 -1      2977 8.73470E+00-1.02673E+00 1.98110E-01 4.65646E+00-2.39947E-14-1.08802E-14
 -1      2978 1.62235E+01-3.97177E+00 1.69581E-01-5.23843E+00 2.85272E-13-1.29841E-13
 -1      2979 9.65770E+00-1.81938E+00 1.90191E-01-3.59690E+00 1.16324E-13 7.63833E-14
 -1      2980 6.98632E+00-3.84566E-01 2.14033E-01 3.64131E-01 4.27375E-14-4.66571E-14
 -1      2981 1.42539E+01-3.15219E+00 1.43328E-01 7.02222E+00 6.27970E-14-9.04277E-14
 -1      2982 3.03129E+01 2.59748E+00-8.43910E-02-2.91651E+00-1.86018E-13-2.32578E-13
 -1      2983 2.02781E+01 1.41294E+00 2.19165E-03-9.41783E-01-3.44396E-13-2.94186E-13
 -1      2984 2.01406E+01 2.18126E+00-3.64433E-04-1.20799E+00-3.35011E-13-3.82566E-13
 -1      2985 2.02395E+01 1.47588E+00-8.00153E-03 7.99785E-01 2.88009E-13-3.11342E-13
 -1      2986 2.01996E+01 1.67052E+00-4.59808E-04 7.45049E-01 2.58546E-13-3.45937E-13
 -1      2987 2.02015E+01 1.89913E+00 4.86752E-03-1.00066E+00-3.07934E-13-4.00374E-13
 -1      2988 2.96571E+01-1.13295E+00 3.03561E-02-1.63782E+00 4.59660E-13-1.56916E-13
 -1      2989 9.70349E+00-1.97471E+00 3.03910E-01-8.49057E+00-1.62093E-13 2.90767E-13
 -1      2990 2.00074E+01 7.16685E-04-1.32466E-04-1.77271E-01 4.07156E-14-1.73046E-13
 -1      2991 2.00175E+01 2.59221E-02 1.65441E-03-1.66589E-01 3.51656E-14-2.04145E-13
 -1      2992 2.73954E+01 1.32585E+00-5.46363E-02 3.15426E-01 4.07230E-13-5.86406E-14
 -1      2993 2.85163E+01 3.86221E+00-1.25862E-01 9.55155E-01 4.08201E-13 7.83817E-14
 -1      2994 2.71158E+01 4.86280E+00-8.67113E-02 1.00077E+00 5.36710E-13 2.53686E-13
 -1      2995 2.55577E+01 1.96162E+00-7.35758E-02 1.03862E+00 5.25267E-13 1.14277E-13
 -1      2996 2.02692E+01 7.14252E-01 4.32419E-03-3.44321E-01-2.11277E-13-2.97988E-13
 -1      2997 2.02265E+01 5.51572E-01-3.55474E-03-2.13438E-01-1.69864E-13-2.78156E-13
 -1      2998 2.02208E+01 4.23478E-01 4.10485E-03-1.18525E-01-1.39913E-13-2.32465E-13
 -1      2999 2.01814E+01 3.15631E-01-2.30461E-03-3.36544E-02-9.86450E-14-2.39638E-13
 -1      3000 2.02717E+01 5.79962E-01-3.44228E-04-1.87466E-01-1.37797E-13-2.83928E-13
 -1      3001 2.01671E+01 2.32003E-01 3.17761E-03 2.78243E-02-8.62062E-14-2.32827E-13
 -1      3002 2.01368E+01 1.61364E-01-1.31157E-03 7.87735E-02-9.24894E-14-2.52780E-13
 -1      3003 2.02367E+01 3.32268E-01-8.58703E-04-2.46783E-02-1.05779E-13-2.53730E-13
 -1      3004 2.01199E+01 1.07249E-01 2.23605E-03 1.14624E-01-9.55241E-14-2.51808E-13
 -1      3005 2.00986E+01 6.19487E-02-6.36712E-04 1.41763E-01-1.06554E-13-2.69296E-13
 -1      3006 2.01958E+01 1.67725E-01-1.01254E-03 7.79765E-02-1.17356E-13-2.56115E-13
 -1      3007 2.00822E+01 2.78122E-02 1.46791E-03 1.59363E-01-9.13618E-14-2.45228E-13
 -1      3008 2.00684E+01-1.62271E-04-2.05912E-04 1.70484E-01-1.01449E-13-2.37423E-13
 -1      3009 2.01565E+01 6.10233E-02-9.63596E-04 1.35757E-01-9.06180E-14-2.91106E-13
 -1      3010 2.00538E+01-2.06793E-02 8.86440E-04 1.75782E-01-9.28852E-14-1.80394E-13
 -1      3011 2.00457E+01-3.68148E-02 5.60245E-05 1.76620E-01-7.19628E-14-1.52531E-13
 -1      3012 2.01221E+01-5.66634E-03-8.34250E-04 1.61994E-01-5.86662E-14-2.19496E-13
 -1      3013 2.00332E+01-4.80738E-02 4.70359E-04 1.74122E-01-1.07581E-13-1.46006E-13
 -1      3014 2.00290E+01-5.62014E-02 2.05576E-04 1.68777E-01-8.02060E-14-1.88564E-13
 -1      3015 2.00934E+01-4.47961E-02-6.87230E-04 1.67289E-01-8.36853E-14-1.97011E-13
 -1      3016 2.00188E+01-6.12511E-02 1.86548E-04 1.61751E-01-7.51406E-14-2.00318E-13
 -1      3017 2.00173E+01-6.40695E-02 2.81981E-04 1.53079E-01-8.23433E-14-2.26763E-13
 -1      3018 2.00702E+01-6.51574E-02-5.48922E-04 1.59588E-01-1.02495E-13-1.77905E-13
 -1      3019 2.00091E+01-6.50533E-02 2.09798E-06 1.43812E-01-6.09421E-14-2.04092E-13
 -1      3020 2.00093E+01-6.44587E-02 3.12003E-04 1.33756E-01-3.54291E-14-1.92970E-13
 -1      3021 2.00519E+01-7.29859E-02-4.28883E-04 1.44598E-01-6.98088E-14-1.21047E-13
 -1      3022 2.00028E+01-6.28746E-02-1.10836E-04 1.23800E-01-2.32619E-14-1.85407E-13
 -1      3023 2.00041E+01-6.01830E-02 3.13873E-04 1.13641E-01-1.09109E-14-1.33670E-13
 -1      3024 2.00378E+01-7.26877E-02-3.29858E-04 1.26288E-01-7.63192E-15-9.81565E-14
 -1      3025 1.99991E+01-5.70594E-02-1.74360E-04 1.04006E-01-4.54747E-14-1.57786E-13
 -1      3026 2.00009E+01-5.31575E-02 3.00639E-04 9.45579E-02-8.22817E-14-1.53943E-13
 -1      3027 2.00271E+01-6.73329E-02-2.50073E-04 1.07324E-01-3.15186E-14-2.00218E-13
 -1      3028 1.99971E+01-4.91721E-02-2.05714E-04 8.58757E-02-1.38835E-13-1.69424E-13
 -1      3029 1.99993E+01-4.46259E-02 2.81482E-04 7.76359E-02-1.51942E-13-2.15308E-13
 -1      3030 2.00191E+01-5.90025E-02-1.86793E-04 8.94293E-02-1.40877E-13-1.89339E-13
 -1      3031 1.99964E+01-4.01965E-02-2.17683E-04 7.02872E-02-1.17553E-13-2.09938E-13
 -1      3032 1.99987E+01-3.53371E-02 2.62638E-04 6.35490E-02-8.05474E-14-2.17572E-13
 -1      3033 2.00134E+01-4.90369E-02-1.37433E-04 7.36773E-02-1.49144E-13-1.98837E-13
 -1      3034 1.99966E+01-3.06931E-02-2.19539E-04 5.77585E-02-2.65238E-14-2.20670E-13
 -1      3035 1.99989E+01-2.56839E-02 2.48079E-04 5.26936E-02-4.48690E-14-1.60838E-13
 -1      3036 2.00093E+01-3.82318E-02-9.94487E-05 6.07214E-02-4.76973E-14-1.62662E-13
 -1      3037 1.99973E+01-2.09227E-02-2.17911E-04 4.85978E-02-7.84093E-14-1.52086E-13
 -1      3038 1.99996E+01-1.58108E-02 2.40650E-04 4.53145E-02-6.79288E-14-1.42515E-13
 -1      3039 2.00065E+01-2.69933E-02-7.02628E-05 5.09587E-02-2.62494E-14-2.12297E-13
 -1      3040 1.99984E+01-1.09404E-02-2.17389E-04 4.30119E-02-6.99779E-14-9.36665E-14
 -1      3041 2.00007E+01-5.69965E-03 2.42187E-04 4.15961E-02-3.52002E-14-1.31140E-13
 -1      3042 2.00045E+01-1.54572E-02-4.76905E-05 4.46492E-02-4.85477E-14-1.45396E-13
 -1      3043 1.99997E+01-6.79507E-04-2.20571E-04 4.11823E-02-3.56740E-14-1.33205E-13
 -1      3044 2.00022E+01 4.74586E-03 2.53513E-04 4.17222E-02 3.59184E-14-1.90880E-13
 -1      3045 2.00031E+01-3.58939E-03-3.05156E-05 4.20049E-02-1.28776E-14-1.56411E-13
 -1      3046 2.00013E+01 9.96188E-03-2.28140E-04 4.33099E-02 9.10726E-14-2.61851E-13
 -1      3047 2.00041E+01 1.56106E-02 2.74480E-04 4.59034E-02 1.49914E-13-2.80268E-13
 -1      3048 2.00020E+01 8.71513E-03-1.82298E-05 4.32481E-02 4.93684E-15-1.99512E-13
 -1      3049 2.00031E+01 2.10267E-02-2.38669E-04 4.96264E-02 1.93513E-13-2.82468E-13
 -1      3050 2.00063E+01 2.68655E-02 3.04000E-04 5.43717E-02 1.52700E-13-2.10870E-13
 -1      3051 2.00011E+01 2.15248E-02-1.15629E-05 4.86367E-02 1.65813E-13-2.43016E-13
 -1      3052 2.00054E+01 3.23845E-02-2.47921E-04 6.03747E-02-4.23542E-14-2.11541E-13
 -1      3053 2.00091E+01 3.82374E-02 3.39713E-04 6.73402E-02-1.51400E-13-1.38123E-13
 -1      3054 2.00003E+01 3.47463E-02-1.32270E-05 5.84614E-02 5.80114E-14-3.35473E-13
 -1      3055 2.00084E+01 4.35839E-02-2.47813E-04 7.57483E-02-1.26777E-13-1.35210E-13
 -1      3056 2.00130E+01 4.90409E-02 3.77488E-04 8.49183E-02-1.95227E-14-1.09042E-13
 -1      3057 1.99996E+01 4.79652E-02-2.87983E-05 7.30103E-02-1.33427E-13-2.05235E-13
 -1      3058 2.00128E+01 5.36619E-02-2.25000E-04 9.57818E-02 2.94287E-14-1.62613E-13
 -1      3059 2.00188E+01 5.79625E-02 4.10666E-04 1.06968E-01 3.96656E-14-1.12012E-13
 -1      3060 1.99995E+01 6.02410E-02-6.79586E-05 9.24909E-02-4.13169E-14-1.12691E-13
 -1      3061 2.00197E+01 6.09055E-02-1.59122E-04 1.20174E-01 3.62690E-14-5.51565E-14
 -1      3062 2.00276E+01 6.27993E-02 4.28899E-04 1.32890E-01 2.39077E-14 5.26187E-14
 -1      3063 2.00009E+01 6.98467E-02-1.46035E-04 1.16896E-01 8.45343E-14-1.54228E-13
 -1      3064 2.00308E+01 6.25738E-02-2.09711E-05 1.48024E-01-2.40936E-14 5.49890E-14
 -1      3065 2.00415E+01 6.01725E-02 4.16433E-04 1.61307E-01-2.11573E-14 3.69870E-14
 -1      3066 2.00054E+01 7.39593E-02-2.85426E-04 1.45795E-01 4.12268E-14-8.30671E-14
 -1      3067 2.00490E+01 5.46184E-02 2.28785E-04 1.77463E-01-1.29462E-13 8.08359E-14
 -1      3068 2.00639E+01 4.52735E-02 3.49581E-04 1.89649E-01-1.39804E-13 9.50344E-15
 -1      3069 2.00157E+01 6.83307E-02-5.16399E-04 1.78022E-01-5.89033E-14-6.54749E-14
 -1      3070 2.00784E+01 3.14864E-02 6.39217E-04 2.05154E-01-9.34404E-14 4.27502E-14
 -1      3071 2.00991E+01 1.17621E-02 1.93124E-04 2.13596E-01 6.12956E-15-4.13935E-14
 -1      3072 2.00363E+01 4.70157E-02-8.75881E-04 2.11235E-01-1.38551E-13 9.45124E-14
 -1      3073 2.01249E+01-1.38333E-02 1.26467E-03 2.25649E-01-5.62397E-14-9.57302E-14
 -1      3074 2.01535E+01-4.79664E-02-1.03974E-04 2.26419E-01-1.12622E-13-1.01693E-13
 -1      3075 2.00734E+01 2.31052E-03-1.40187E-03 2.41294E-01-9.04282E-14 6.40488E-14
 -1      3076 2.01960E+01-8.92388E-02 2.15259E-03 2.30641E-01 3.03207E-14-8.48539E-14
 -1      3077 2.02350E+01-1.41791E-01-6.12131E-04 2.18266E-01 1.16745E-13 1.78607E-14
 -1      3078 2.01360E+01-7.48209E-02-2.11941E-03 2.61453E-01-2.54946E-15-1.01893E-13
 -1      3079 2.03009E+01-2.01997E-01 3.31827E-03 2.08201E-01 3.38680E-14 6.69896E-14
 -1      3080 2.03525E+01-2.75655E-01-1.41763E-03 1.75559E-01-1.20415E-13 5.86021E-14
 -1      3081 2.02354E+01-1.93398E-01-3.01409E-03 2.61362E-01 9.11326E-14-5.15024E-14
 -1      3082 2.04487E+01-3.55711E-01 4.70073E-03 1.42264E-01-1.17316E-13 1.47654E-13
 -1      3083 2.05135E+01-4.49492E-01-2.59663E-03 8.09140E-02 3.51230E-14 1.97905E-13
 -1      3084 2.03847E+01-3.59524E-01-3.98188E-03 2.26020E-01 6.02516E-15 8.24937E-14
 -1      3085 2.06450E+01-5.45146E-01 6.07671E-03 1.30171E-02-5.48352E-14 1.02965E-13
 -1      3086 2.07207E+01-6.50799E-01-4.15529E-03-8.55707E-02-5.52080E-14 4.22430E-14
 -1      3087 2.05959E+01-5.71099E-01-4.75309E-03 1.35091E-01-3.60996E-14 1.79729E-14
 -1      3088 2.08869E+01-7.48703E-01 6.95636E-03-2.00576E-01-9.27829E-14 3.25490E-14
 -1      3089 2.09655E+01-8.46053E-01-5.84919E-03-3.42168E-01-2.59496E-14-8.83636E-14
 -1      3090 2.08749E+01-8.09707E-01-4.84965E-03-3.62710E-02-1.39717E-13-1.65964E-14
 -1      3091 2.11538E+01-9.19518E-01 6.52155E-03-5.13620E-01 5.90806E-14-1.82533E-13
 -1      3092 2.12201E+01-9.73128E-01-7.11007E-03-6.95704E-01 1.02375E-13-1.86389E-13
 -1      3093 2.12124E+01-1.02961E+00-3.48742E-03-3.12853E-01-8.61254E-14 1.03512E-13
 -1      3094 2.14006E+01-9.81383E-01 3.55598E-03-9.21658E-01 1.62472E-13-1.63024E-13
 -1      3095 2.14327E+01-9.41196E-01-6.63057E-03-1.12630E+00 1.03570E-13-2.46612E-13
 -1      3096 2.15723E+01-1.15018E+00-3.46414E-05-7.06861E-01 7.98940E-14-3.70753E-14
 -1      3097 2.15543E+01-8.33452E-01-2.53648E-03-1.38008E+00 1.20623E-13-1.39844E-13
 -1      3098 2.15290E+01-6.47871E-01-2.78564E-03-1.56472E+00 5.67310E-14-1.41698E-13
 -1      3099 2.18825E+01-1.05734E+00 5.42987E-03-1.19756E+00 1.87033E-13-2.06287E-13
 -1      3100 2.15334E+01-3.84683E-01-1.08350E-02-1.78230E+00 8.22159E-14-1.92050E-15
 -1      3101 2.14383E+01-2.92318E-02 5.09521E-03-1.87924E+00-9.13123E-15 5.96016E-14
 -1      3102 2.20404E+01-6.32227E-01 1.21677E-02-1.69869E+00 1.32088E-13-3.09058E-14
 -1      3103 2.12888E+01 3.82444E-01-1.91785E-02-1.95846E+00-1.48075E-13 1.35386E-13
 -1      3104 2.11363E+01 8.59021E-01 1.29058E-02-1.89117E+00-4.08436E-14 1.74274E-13
 -1      3105 2.19490E+01 1.76454E-01 1.50454E-02-2.04238E+00 3.77370E-14 4.40777E-13
 -1      3106 2.08636E+01 1.33046E+00-2.22155E-02-1.73696E+00-1.42569E-13 1.34844E-13
 -1      3107 2.06900E+01 1.79287E+00 1.56009E-02-1.46273E+00-1.16769E-13 1.64143E-13
 -1      3108 2.15946E+01 1.25602E+00 1.03591E-02-2.01219E+00-4.31999E-14 4.60001E-13
 -1      3109 2.04002E+01 2.16292E+00-1.45395E-02-1.04949E+00-7.21828E-14 2.35017E-13
 -1      3110 2.02539E+01 2.42658E+00 9.94052E-03-6.03688E-01-6.15085E-14 1.69988E-13
 -1      3111 2.10904E+01 2.29657E+00 1.14991E-03-1.45797E+00-4.15012E-14 1.67370E-13
 -1      3112 2.00665E+01 2.52844E+00-1.57501E-03-3.26499E-02-1.09392E-13 2.88794E-13
 -1      3113 1.99826E+01 2.46888E+00-2.36288E-03 4.62383E-01-2.49174E-13 1.80039E-13
 -1      3114 2.06469E+01 2.88976E+00-3.84537E-03-4.52280E-01-3.29688E-14 3.66014E-13
 -1      3115 1.99218E+01 2.25630E+00 1.07845E-02 1.00643E+00-3.23798E-13 2.73954E-13
 -1      3116 1.98874E+01 1.88551E+00-1.84196E-02 1.41619E+00-9.03999E-14 3.32300E-13
 -1      3117 2.04023E+01 2.75290E+00-3.20210E-03 6.85802E-01-1.21725E-13 5.12714E-13
 -1      3118 2.00338E+01 5.77779E-02-6.20735E-04-1.46805E-01 3.22976E-14-2.34250E-13
 -1      3119 2.00546E+01 1.01432E-01 2.58671E-03-1.17662E-01 3.00888E-14-2.30753E-13
 -1      3120 2.01017E+01 5.88966E-02-1.17001E-03-1.42938E-01 1.56511E-14-1.80938E-13
 -1      3121 1.99821E+01-4.90818E-02 2.19945E-04-1.74664E-01 1.13271E-13-1.44308E-13
 -1      3122 1.99817E+01-4.18221E-02 4.26194E-04-1.80469E-01 1.10406E-13-1.60404E-13
 -1      3123 1.99779E+01-5.61976E-02 2.74476E-04-1.58165E-01 1.21913E-13-9.08750E-14
 -1      3124 1.99751E+01-5.36346E-02 1.22708E-04-1.67267E-01 1.22722E-13-9.98993E-14
 -1      3125 2.00297E+01-5.81743E-02-5.39111E-04-1.68606E-01 1.15410E-13-1.11135E-13
 -1      3126 1.99769E+01-5.67359E-02 2.91738E-04-1.37984E-01 1.54331E-13-2.87595E-14
 -1      3127 1.99728E+01-5.71814E-02-6.78045E-05-1.48435E-01 1.45606E-13-6.24169E-14
 -1      3128 2.00178E+01-6.54633E-02-3.94397E-04-1.52598E-01 1.27594E-13-5.87170E-14
 -1      3129 1.99780E+01-5.31852E-02 2.86538E-04-1.17007E-01 5.34671E-14 2.70549E-14
 -1      3130 1.99733E+01-5.54700E-02-1.79000E-04-1.27529E-01 1.25931E-13-1.73628E-14
 -1      3131 2.00097E+01-6.54374E-02-2.82559E-04-1.33109E-01 1.30566E-13-2.37288E-14
 -1      3132 1.99804E+01-4.72273E-02 2.84401E-04-9.70836E-02 9.68565E-14-3.08527E-14
 -1      3133 1.99756E+01-5.05671E-02-2.33212E-04-1.06870E-01 6.60917E-14-9.39478E-17
 -1      3134 2.00044E+01-6.08854E-02-2.01682E-04-1.12930E-01 7.70735E-14-5.66735E-14
 -1      3135 1.99836E+01-3.96067E-02 2.63340E-04-7.85343E-02 7.29937E-14 3.93814E-14
 -1      3136 1.99788E+01-4.36753E-02-2.52500E-04-8.74642E-02 1.04808E-13-1.49211E-14
 -1      3137 2.00012E+01-5.34854E-02-1.57061E-04-9.34182E-02 7.66604E-14-7.85433E-14
 -1      3138 1.99870E+01-3.17039E-02 2.39781E-04-6.38229E-02 1.03374E-13 6.30145E-14
 -1      3139 1.99827E+01-3.58613E-02-2.56945E-04-7.08073E-02 7.45563E-14 6.39306E-14
 -1      3140 1.99997E+01-4.45725E-02-9.94726E-05-7.62300E-02 7.93126E-14-3.26593E-14
 -1      3141 1.99908E+01-2.34891E-02 2.32666E-04-5.23865E-02-8.19812E-15 1.03738E-13
 -1      3142 1.99867E+01-2.77806E-02-2.46852E-04-5.76901E-02 6.14236E-14 1.04009E-13
 -1      3143 1.99994E+01-3.51607E-02-7.16015E-05-6.24216E-02 5.97469E-14 3.56559E-14
 -1      3144 1.99947E+01-1.50149E-02 2.35499E-04-4.44870E-02-1.02434E-13 1.36936E-13
 -1      3145 1.99908E+01-1.94423E-02-2.34660E-04-4.79903E-02-3.59183E-14 1.21215E-13
 -1      3146 1.99999E+01-2.53514E-02-5.49849E-05-5.19293E-02-2.69939E-14 1.64577E-13
 -1      3147 1.99989E+01-6.12316E-03 2.51412E-04-4.03681E-02-9.45926E-14 1.64841E-13
 -1      3148 1.99950E+01-1.07938E-02-2.26361E-04-4.19455E-02-7.09635E-14 1.49309E-13
 -1      3149 2.00011E+01-1.51534E-02-4.55207E-05-4.50439E-02-1.14540E-13 1.19783E-13
 -1      3150 2.00035E+01 3.52950E-03 2.83082E-04-4.03432E-02 8.57903E-15 1.03947E-13
 -1      3151 1.99994E+01-1.58603E-03-2.27111E-04-3.98205E-02-3.22626E-14 9.93287E-14
 -1      3152 2.00027E+01-4.33786E-03-3.96241E-05-4.20440E-02-5.88711E-14 8.88587E-14
 -1      3153 2.00086E+01 1.44736E-02 3.32962E-04-4.48725E-02-3.56149E-14 3.37194E-14
 -1      3154 2.00041E+01 8.61375E-03-2.42261E-04-4.19875E-02 6.53210E-14 1.05249E-13
 -1      3155 2.00047E+01 7.54477E-03-3.36787E-05-4.32812E-02 3.46613E-14-2.74869E-14
 -1      3156 2.00143E+01 2.74556E-02 4.04774E-04-5.46329E-02-3.96575E-14-4.88576E-14
 -1      3157 2.00091E+01 2.04346E-02-2.78234E-04-4.89978E-02-6.40322E-14-3.78776E-14
 -1      3158 2.00068E+01 2.11707E-02-2.24666E-05-4.92496E-02 2.96560E-15-4.07478E-14
 -1      3159 2.00205E+01 4.35159E-02 5.25715E-04-7.05823E-02-6.94603E-14-4.10989E-14
 -1      3160 2.00144E+01 3.47353E-02-3.46733E-04-6.16533E-02-3.71430E-14-5.96450E-14
 -1      3161 2.00087E+01 3.74862E-02 2.39723E-06-6.06450E-02-2.83363E-14 6.38646E-15
 -1      3162 2.00272E+01 6.51735E-02 6.53544E-04-9.54901E-02-4.25117E-14-8.12830E-14
 -1      3163 2.00199E+01 5.32592E-02-4.62920E-04-8.16315E-02-7.74641E-14-1.77573E-13
 -1      3164 2.00098E+01 5.82567E-02 1.73860E-05-7.89943E-02-5.52727E-14-2.03874E-13
 -1      3165 2.00330E+01 9.23791E-02 7.69907E-04-1.28862E-01-7.62947E-14 6.32527E-14
 -1      3166 2.00249E+01 7.73575E-02-6.24065E-04-1.10397E-01-3.15980E-14 3.09169E-15
 -1      3167 2.00091E+01 8.52042E-02 1.49533E-04-1.05321E-01-9.53281E-14-1.72618E-13
 -1      3168 2.00368E+01 1.28805E-01 9.36500E-04-1.74077E-01-4.55448E-14 1.26839E-13
 -1      3169 2.00280E+01 1.08664E-01-8.73932E-04-1.48968E-01-3.96339E-14 9.81555E-14
 -1      3170 2.00047E+01 1.19724E-01 3.20883E-04-1.40467E-01-1.03788E-13-4.64293E-14
 -1      3171 2.00354E+01 1.78176E-01 1.11012E-03-2.34224E-01-8.28551E-14-4.92077E-15
 -1      3172 2.00269E+01 1.50840E-01-1.24808E-03-2.00590E-01 2.87085E-14 5.81793E-14
 -1      3173 1.99939E+01 1.65783E-01 6.17515E-04-1.86918E-01-3.46364E-14 5.58540E-14
 -1      3174 2.00236E+01 2.45621E-01 1.26124E-03-3.13152E-01-2.36800E-14 1.48330E-14
 -1      3175 2.00173E+01 2.08282E-01-1.79807E-03-2.68586E-01-6.67617E-14 1.98466E-14
 -1      3176 1.99715E+01 2.27903E-01 1.11437E-03-2.46982E-01-2.75802E-14 5.89028E-14
 -1      3177 1.99926E+01 3.37954E-01 1.33442E-03-4.15461E-01-4.83833E-14-3.97632E-14
 -1      3178 1.99920E+01 2.86922E-01-2.59713E-03-3.56992E-01-3.57515E-14 3.52170E-14
 -1      3179 1.99297E+01 3.12131E-01 1.92661E-03-3.23166E-01-5.20148E-14-2.11829E-14
 -1      3180 1.99275E+01 4.63738E-01 1.23242E-03-5.46308E-01-1.92224E-14-1.72683E-14
 -1      3181 1.99391E+01 3.94468E-01-3.74377E-03-4.70469E-01-7.38890E-14-1.08655E-13
 -1      3182 1.98557E+01 4.26261E-01 3.22528E-03-4.17852E-01-7.97633E-15-4.72964E-14
 -1      3183 1.98051E+01 6.32655E-01 8.17922E-04-7.10867E-01 1.23652E-13 1.20582E-13
 -1      3184 1.98395E+01 5.40176E-01-5.37482E-03-6.13976E-01 7.93533E-14 1.42047E-14
 -1      3185 1.97299E+01 5.79637E-01 5.25621E-03-5.32693E-01-5.20590E-14-1.15010E-13
 -1      3186 1.95911E+01 8.52867E-01-5.69939E-05-9.13457E-01 2.58599E-13 9.17467E-14
 -1      3187 1.96638E+01 7.33190E-01-7.79681E-03-7.92144E-01 2.20985E-13 1.83102E-13
 -1      3188 1.95224E+01 7.82140E-01 8.40062E-03-6.67706E-01 1.30990E-13 3.78105E-15
 -1      3189 1.92096E+01 1.13985E+00-1.54830E-03-1.16976E+00 3.49425E-14 1.05743E-14
 -1      3190 1.93573E+01 9.87599E-01-1.08118E-02-1.01312E+00 1.92131E-13 8.44786E-15
 -1      3191 1.91774E+01 1.04624E+00 1.25271E-02-8.24775E-01 2.29454E-13-4.15321E-14
 -1      3192 1.86228E+01 1.44376E+00-3.96015E-03-1.45538E+00 1.91856E-14-2.75485E-14
 -1      3193 1.88604E+01 1.28675E+00-1.56543E-02-1.27824E+00-2.38524E-14 1.53077E-14
 -1      3194 1.86347E+01 1.36518E+00 1.98062E-02-9.91704E-01 6.14957E-14-8.79333E-14
 -1      3195 1.77357E+01 1.70518E+00-4.09919E-03-1.78672E+00 5.49296E-14 6.15161E-14
 -1      3196 1.81016E+01 1.58161E+00-2.15634E-02-1.57951E+00 3.91258E-14-3.33952E-14
 -1      3197 1.78216E+01 1.69488E+00 2.94871E-02-1.15948E+00-6.49791E-14-1.24408E-13
 -1      3198 1.64602E+01 1.74816E+00 1.83595E-03-2.19788E+00 1.29751E-13 1.08277E-13
 -1      3199 1.69705E+01 1.76420E+00-2.76360E-02-1.94024E+00 1.21421E-13 1.27524E-13
 -1      3200 1.66130E+01 1.95775E+00 4.59802E-02-1.33799E+00 5.58434E-14 6.11681E-14
 -1      3201 1.46037E+01 1.16496E+00-6.84211E-03-2.84660E+00 6.71980E-14 8.39467E-14
 -1      3202 1.53249E+01 1.59932E+00-3.36886E-02-2.41680E+00 1.03496E-13 9.54618E-14
 -1      3203 1.48540E+01 1.96327E+00 7.51428E-02-1.55635E+00 9.69181E-14 1.00812E-13
 -1      3204 9.87140E+00-4.17817E-01 1.00544E-01-2.91354E+00 6.70713E-14 2.46192E-14
 -1      3205 1.24811E+01-1.65502E+00 1.51822E-01-4.46088E+00 1.07428E-13 4.16056E-14
 -1      3206 1.99912E+01-3.18028E-02 1.02798E-04-1.83147E-01 7.81253E-14-1.79543E-13
 -1      3207 1.99950E+01-1.74148E-02 8.89533E-04-1.82765E-01 7.15107E-14-1.64873E-13
 -1      3208 2.00466E+01-3.95734E-02-7.21119E-04-1.76967E-01 8.60224E-14-1.92167E-13
 -1      3209 2.01440E+01 1.31812E+00 1.17084E-02 1.82207E+00 4.65105E-14 2.86729E-13
 -1      3210 2.70446E+01 7.52745E+00-1.52892E-01-7.74251E-01-2.55351E-15-2.94852E-13
 -1      3211 2.72887E+01 7.49021E+00-1.42854E-01-1.63879E+00-1.42955E-13-4.34663E-13
 -1      3212 2.01244E+01 2.94149E-01-1.99735E-03 4.23828E-02 1.18532E-13-2.14400E-13
 -1      3213 2.01697E+01 3.95146E-01 4.34788E-03 1.32940E-01 1.51309E-13-1.96492E-13
 -1      3214 2.11715E+01 1.92176E+00-1.45264E-02 1.73203E+00-3.35565E-14 5.39346E-13
 -1      3215 2.19798E+01 1.98916E+00-1.66743E-02 1.55278E+00 2.79511E-14 5.68081E-13
 -1      3216 2.02859E+01 1.14825E+00 7.50914E-05-6.68645E-01-2.89086E-13-3.38791E-13
 -1      3217 2.02544E+01 9.10333E-01-5.20721E-03-4.77800E-01-2.49549E-13-3.22079E-13
 -1      3218 2.02850E+01 9.48971E-01 1.31938E-03-4.22859E-01-2.16139E-13-3.34768E-13
 -1      3219 2.83136E+01-5.36928E+00-1.85366E-01 3.18441E+00 3.72605E-13-3.88120E-13
 -1      3220 2.05992E+01 1.85080E+00 7.24942E-03 1.64442E+00-9.00190E-14 6.03293E-13
 -1      3221 1.05045E+01-8.03955E-01 2.04535E-02 5.06781E+00 2.36616E-15 3.39728E-14
 -1      3222 8.91942E+00 1.63244E-01 1.78425E-01 3.20635E+00-5.27633E-14 1.52295E-13
 -1      3223 2.00430E+01 2.16156E+00-4.30019E-03 2.92203E-01 9.31561E-14-4.75970E-13
 -1      3224 2.00297E+01 2.20040E+00-3.31638E-03 1.70618E-01 3.87571E-14-4.70899E-13
 -1      3225 2.89399E+01-1.21244E+00-1.55877E-01-1.86682E+00 6.46809E-14-1.49609E-13
 -1      3226 2.84082E+01-2.97642E+00 5.17406E-03-3.61537E-01 1.32654E-13 5.08309E-14
 -1      3227 2.70059E+01-4.68781E+00-8.57818E-02 1.86263E+00 1.04342E-13 1.71696E-13
 -1      3228 2.50060E+01-5.13958E+00 1.09185E-01 3.96167E+00 2.30928E-13 9.82790E-14
 -1      3229 1.47263E+01-2.41561E+00 1.73415E-01-4.99705E+00 2.22891E-13-1.25400E-13
 -1      3230 2.02901E+01 9.90222E-01-7.73783E-04 6.88630E-01 2.83234E-13-2.42071E-13
 -1      3231 2.02686E+01 1.31189E+00 4.57029E-03 7.71966E-01 2.90627E-13-2.75506E-13
 -1      3232 2.02830E+01 1.13153E+00 5.35542E-03 5.95896E-01 2.36862E-13-2.62676E-13
 -1      3233 2.02325E+01 7.76279E-01-3.84835E-03 4.81376E-01 2.51726E-13-2.18881E-13
 -1      3234 8.09297E+00 4.54161E-01 9.57129E-02 1.32474E+00 8.24228E-14-9.67282E-14
 -1      3235 8.62170E+00 4.23131E-01 1.87675E-01-1.09455E+00 1.64410E-13-1.67172E-13
 -1      3236 1.61845E+01-3.23137E+00-4.22503E-02 6.67535E+00 2.34354E-13 4.92523E-14
 -1      3237 1.33994E+01-1.73468E+00 1.85039E-01 6.12283E+00 7.69107E-14 2.85466E-14
 -1      3238 2.21161E+01-5.22305E+00-9.91134E-02 5.60739E+00 2.81025E-13 2.51524E-13
 -1      3239 1.96760E+01-4.20476E+00 1.50431E-01 6.30755E+00 1.98251E-13 2.48683E-13
 -1      3240 2.00730E+01 1.50812E-01-1.16642E-03-7.85127E-02 6.10391E-14-2.42983E-13
 -1      3241 2.01055E+01 2.16317E-01 3.70006E-03-2.50471E-02 1.02405E-13-2.09099E-13
 -1      3242 2.01892E+01 3.16560E-01-1.47742E-03 3.44103E-02 1.11697E-13-2.43983E-13
 -1      3243 2.85888E+01 3.39864E+00-1.82229E-01-3.20498E+00-2.12219E-13-2.41696E-13
 -1      3244 2.90524E+01 1.38087E+00-6.25879E-03-2.90751E+00-5.10980E-14-1.86393E-13
 -1      3245 2.76565E+01 6.79881E+00-1.68484E-01-2.39136E+00-2.47941E-13-3.84071E-13
 -1      3246 2.82518E+01 5.51299E+00-8.04109E-02-3.08652E+00-3.10085E-13-2.73385E-13
 -1      3247 1.49321E+01-1.26126E+00 1.25235E-01-4.42873E+00 5.27980E-14-1.74291E-13
 -1      3248 2.00225E+01 2.21915E+00-3.67854E-03 6.58424E-02 3.89159E-15-4.65716E-13
 -1      3249 2.00220E+01 2.22003E+00-3.67935E-03-5.81098E-02-4.26140E-14-4.67995E-13
 -1      3250 2.01365E+01 1.92336E+00 4.96333E-03 1.01289E-01 1.16616E-14-4.39030E-13
 -1      3251 1.02110E+01 8.41432E-01 1.20540E-01 1.91840E+00 7.82135E-14-4.71151E-14
 -1      3252 2.00698E+01-3.92563E-03-9.35849E-04-1.71623E-01 4.42408E-14-1.62050E-13
 -1      3253 2.01423E+01 1.60938E-01-1.37714E-03-7.85991E-02 5.13953E-14-2.47981E-13
 -1      3254 1.26263E+01 8.94262E-01 5.84951E-02-2.29581E+00 1.42907E-13-6.68632E-14
 -1      3255 1.17798E+01 1.57348E+00 1.04907E-01-1.00539E+00 1.73498E-13-1.50713E-13
 -1      3256 1.46334E+01 3.66934E-01 1.99358E-01-3.87258E+00 6.09270E-14 1.64174E-14
 -1      3257 2.36835E+01-4.61670E+00 6.34494E-02 4.05347E+00 2.49314E-13 8.85264E-14
 -1      3258 2.74412E+01-3.87711E+00-1.11498E-02 5.06124E-01 1.41283E-13-2.39461E-14
 -1      3259 2.59020E+01-4.05705E+00-6.60166E-03 1.34087E+00 1.11528E-13-1.67239E-13
 -1      3260 2.69578E+01-2.69362E+00-4.72842E-03-7.44878E-01 1.30304E-13-2.82736E-13
 -1      3261 2.71784E+01 3.96913E+00-6.66213E-02-3.09462E+00-1.82368E-13-2.14953E-13
 -1      3262 2.02503E+01 1.46309E+00 6.36056E-03 5.85194E-01 2.14866E-13-3.40366E-13
 -1      3263 2.01578E+01 1.80184E+00-6.98582E-03 6.84568E-01 2.28419E-13-3.97348E-13
 -1      3264 2.01223E+01 1.93161E+00-2.47971E-03 5.89103E-01 1.84894E-13-4.20641E-13
 -1      3265 2.02176E+01 1.59700E+00-1.09760E-03-8.27842E-01-3.06175E-13-3.92878E-13
 -1      3266 2.79116E+01-1.29212E-02-4.00627E-02-2.47548E+00 7.60780E-14-1.43406E-13
 -1      3267 2.62361E+01 6.38671E+00-8.79877E-02-1.97759E+00-1.53738E-13-3.26466E-13
 -1      3268 2.64395E+01 6.50324E+00-1.11060E-01 3.12964E-01 1.06012E-13-7.67841E-14
 -1      3269 2.67729E+01 7.18146E+00-1.47489E-01-2.17288E-01-6.43513E-14-1.38190E-13
 -1      3270 2.55683E+01 6.72588E+00-6.50525E-02-4.96041E-01-1.84519E-13-2.71812E-13
 -1      3271 2.01186E+01 1.94117E+00-2.45955E-03-5.82327E-01-1.87771E-13-4.13881E-13
 -1      3272 2.01535E+01 1.81242E+00-7.42013E-03-6.81408E-01-2.40355E-13-4.14450E-13
 -1      3273 2.29010E+01 2.21183E+00-1.68900E-02 1.53889E+00 3.09131E-13 3.42315E-13
 -1      3274 2.41777E+01 2.04136E+00-2.69831E-02 1.17370E+00 4.51642E-13 1.33643E-13
 -1      3275 2.49533E+01 3.31575E+00-2.18129E-02 1.32738E+00 5.43180E-13 8.56398E-14
 -1      3276 2.25221E+01 3.00650E+00-2.97465E-02 1.44247E+00 1.34227E-13 2.06549E-13
 -1      3277 2.00636E+01 2.10607E+00-3.06931E-03 3.90578E-01 1.22470E-13-4.76669E-13
 -1      3278 2.01592E+01 1.84858E+00 5.27034E-03 2.90454E-01 1.01790E-13-4.38552E-13
 -1      3279 2.00890E+01 2.02571E+00-5.43097E-03 5.03817E-01 1.64828E-13-4.47845E-13
 -1      3280 1.31377E+01-6.99057E-01 1.19403E-01 4.96517E+00 1.08823E-13 8.15042E-14
 -1      3281 2.09981E+01 2.70088E+00 1.85105E-02 1.39510E+00-7.06718E-14 5.33301E-13
 -1      3282 2.00611E+01 2.11227E+00-2.87475E-03-3.82651E-01-1.18234E-13-4.75590E-13
 -1      3283 2.00854E+01 2.03414E+00-5.21016E-03-4.97555E-01-1.58217E-13-4.60595E-13
 -1      3284 2.01938E+01 1.70288E+00 3.97896E-03-4.50795E-01-1.70054E-13-4.07006E-13
 -1      3285 2.02139E+01 1.60962E+00 1.72449E-03-7.16833E-01-2.66672E-13-4.03861E-13
 -1      3286 2.01767E+01 4.89167E-01-2.06998E-03 2.19508E-01 1.85475E-13-2.02809E-13
 -1      3287 2.02329E+01 6.35289E-01 4.12989E-03 3.60838E-01 2.26848E-13-1.96463E-13
 -1      3288 2.02563E+01 7.77381E-01-4.80432E-03 4.18080E-01 2.27161E-13-2.23032E-13
 -1      3289 2.02288E+01 5.24695E-01-1.30626E-03 1.98273E-01 1.70546E-13-2.31041E-13
 -1      3290 1.84107E+01-3.13015E+00 8.89670E-02 5.81815E+00 2.73469E-13 2.90632E-13
 -1      3291 2.65862E+01 9.10488E-01-1.19581E-01-2.91053E+00-7.20327E-14 1.21084E-14
 -1      3292 2.68957E+01-8.43101E-01-2.81018E-03-2.14953E+00 5.62189E-14-1.92586E-13
 -1      3293 2.03116E+01 7.35568E-01 1.45284E-03-2.40788E-01-1.33081E-13-3.19069E-13
 -1      3294 2.02946E+01 5.73511E-01-2.85495E-03-1.39900E-01-1.17702E-13-3.04247E-13
 -1      3295 1.07465E+01 4.94647E-01 6.55213E-02-2.04373E+00 1.26218E-13-1.18933E-14
 -1      3296 2.02985E+01 4.39542E-01 2.46512E-03-7.07755E-02-1.07676E-13-2.94385E-13
 -1      3297 2.02737E+01 3.27034E-01-2.14555E-03-3.90615E-03-1.05280E-13-2.94887E-13
 -1      3298 2.03297E+01 5.77714E-01 3.70378E-04-1.13760E-01-1.09850E-13-2.99643E-13
 -1      3299 2.02652E+01 2.37313E-01 2.14748E-03 4.12354E-02-1.15182E-13-2.93357E-13
 -1      3300 2.02405E+01 1.61766E-01-1.29835E-03 8.19706E-02-1.15834E-13-3.08128E-13
 -1      3301 2.03132E+01 3.28690E-01-1.04167E-04 3.76760E-03-1.08929E-13-3.18611E-13
 -1      3302 2.02255E+01 1.02706E-01 1.61512E-03 1.07991E-01-1.09714E-13-2.94797E-13
 -1      3303 2.02038E+01 5.37221E-02-6.67667E-04 1.29707E-01-5.94611E-14-2.58357E-13
 -1      3304 2.02814E+01 1.59073E-01-4.33852E-04 7.81138E-02-9.51271E-14-2.88735E-13
 -1      3305 2.01861E+01 1.63142E-02 1.13173E-03 1.41883E-01-4.15560E-14-2.57527E-13
 -1      3306 2.01681E+01-1.38998E-02-2.36165E-04 1.50493E-01-3.80103E-14-2.46826E-13
 -1      3307 2.02431E+01 4.78397E-02-5.84253E-04 1.19339E-01-6.17738E-14-2.60511E-13
 -1      3308 2.01501E+01-3.61638E-02 7.39464E-04 1.53271E-01-5.80739E-14-2.68039E-13
 -1      3309 2.01357E+01-5.33038E-02 4.10574E-05 1.53363E-01-9.14567E-14-2.33336E-13
 -1      3310 2.02042E+01-2.16245E-02-6.21527E-04 1.36966E-01-6.10613E-14-2.81365E-13
 -1      3311 2.01189E+01-6.51368E-02 4.43487E-04 1.50205E-01-9.73674E-14-2.16023E-13
 -1      3312 2.01077E+01-7.33517E-02 2.06601E-04 1.45161E-01-7.04994E-14-2.18527E-13
 -1      3313 2.01677E+01-6.17345E-02-5.95700E-04 1.38858E-01-6.48437E-14-2.65528E-13
 -1      3314 2.00926E+01-7.81570E-02 2.31282E-04 1.38618E-01-6.61337E-14-1.80728E-13
 -1      3315 2.00841E+01-8.04383E-02 2.95190E-04 1.30842E-01-3.01868E-14-1.46546E-13
 -1      3316 2.01351E+01-8.16591E-02-5.38458E-04 1.31036E-01-4.93838E-14-2.35502E-13
 -1      3317 2.00710E+01-8.06450E-02 8.47532E-05 1.22714E-01-3.15477E-14-1.97321E-13
 -1      3318 2.00647E+01-7.91194E-02 3.32049E-04 1.13863E-01-2.51979E-14-2.11708E-13
 -1      3319 2.01070E+01-8.80605E-02-4.67131E-04 1.17885E-01-5.01804E-14-2.51149E-13
 -1      3320 2.00537E+01-7.64404E-02-1.23559E-05 1.05379E-01-2.39080E-14-2.49568E-13
 -1      3321 2.00491E+01-7.25900E-02 3.36172E-04 9.65528E-02-7.50102E-14-2.91036E-13
 -1      3322 2.00835E+01-8.57158E-02-3.95246E-04 1.02486E-01-4.53693E-14-3.01247E-13
 -1      3323 2.00401E+01-6.81949E-02-7.48948E-05 8.85071E-02-1.05749E-13-2.45478E-13
 -1      3324 2.00369E+01-6.30046E-02 3.22390E-04 8.04080E-02-1.63121E-13-2.30529E-13
 -1      3325 2.00642E+01-7.79567E-02-3.24033E-04 8.69084E-02-6.39382E-14-2.63335E-13
 -1      3326 2.00295E+01-5.76471E-02-1.14602E-04 7.33008E-02-1.29125E-13-1.93903E-13
 -1      3327 2.00273E+01-5.17311E-02 3.00917E-04 6.63685E-02-8.80572E-14-1.60079E-13
 -1      3328 2.00487E+01-6.70275E-02-2.59015E-04 7.24879E-02-9.71102E-14-1.98195E-13
 -1      3329 2.00213E+01-4.58627E-02-1.40615E-04 6.05093E-02-1.00399E-13-1.04770E-13
 -1      3330 2.00199E+01-3.95672E-02 2.77753E-04 5.50140E-02-4.52845E-14-1.33268E-13
 -1      3331 2.00362E+01-5.43291E-02-1.99665E-04 6.00747E-02-4.85664E-14-1.65989E-13
 -1      3332 2.00150E+01-3.34234E-02-1.59964E-04 5.05957E-02-3.52083E-14-1.26776E-13
 -1      3333 2.00142E+01-2.69055E-02 2.57265E-04 4.67077E-02-2.53493E-14-1.24124E-13
 -1      3334 2.00263E+01-4.06713E-02-1.47344E-04 5.02051E-02-6.80171E-14-7.44032E-14
 -1      3335 2.00101E+01-2.05691E-02-1.78014E-04 4.38585E-02-1.60722E-14-1.61457E-13
 -1      3336 2.00096E+01-1.38522E-02 2.43181E-04 4.16999E-02-1.02716E-14-1.64053E-13
 -1      3337 2.00182E+01-2.64302E-02-9.94892E-05 4.32258E-02-4.61679E-14-4.78497E-14
 -1      3338 2.00060E+01-7.30391E-03-1.98446E-04 4.05319E-02-1.62319E-14-1.40650E-13
 -1      3339 2.00057E+01-3.34504E-04 2.37858E-04 4.02160E-02-1.52810E-14-2.02486E-13
 -1      3340 2.00114E+01-1.16881E-02-5.61291E-05 3.93932E-02-1.63735E-14-1.70768E-13
 -1      3341 2.00022E+01 6.48817E-03-2.23177E-04 4.08570E-02 3.71990E-14-1.93003E-13
 -1      3342 2.00022E+01 1.37816E-02 2.42526E-04 4.25088E-02 9.90885E-14-1.78462E-13
 -1      3343 2.00052E+01 3.65200E-03-1.67440E-05 3.89622E-02 3.44105E-14-2.17656E-13
 -1      3344 1.99986E+01 2.09288E-02-2.52678E-04 4.51195E-02 1.09675E-13-9.44483E-14
 -1      3345 1.99986E+01 2.85753E-02 2.58422E-04 4.88830E-02 1.65926E-13-1.90152E-13
 -1      3346 1.99991E+01 1.97325E-02 1.82671E-05 4.22319E-02 1.15104E-13-1.34796E-13
 -1      3347 1.99946E+01 3.60197E-02-2.85186E-04 5.36663E-02 1.44137E-13-1.92898E-13
 -1      3348 1.99947E+01 4.39307E-02 2.86801E-04 5.96985E-02-5.91703E-16-1.48451E-13
 -1      3349 1.99926E+01 3.66075E-02 4.65357E-05 4.95758E-02 1.13342E-13-1.13730E-13
 -1      3350 1.99903E+01 5.14843E-02-3.15746E-04 6.68996E-02-1.18729E-13-1.29490E-13
 -1      3351 1.99906E+01 5.93564E-02 3.29000E-04 7.53470E-02-1.39920E-13-1.02299E-13
 -1      3352 1.99853E+01 5.40808E-02 6.26615E-05 6.14574E-02-9.92808E-16-1.01237E-13
 -1      3353 1.99858E+01 6.65620E-02-3.34960E-04 8.52381E-02-1.02011E-13-7.77728E-14
 -1      3354 1.99867E+01 7.37505E-02 3.86463E-04 9.61921E-02 2.13724E-14-7.69884E-14
 -1      3355 1.99772E+01 7.14947E-02 5.69213E-05 7.84239E-02-6.39820E-14-5.41337E-14
 -1      3356 1.99818E+01 7.97440E-02-3.27096E-04 1.09039E-01 6.89252E-14-8.39217E-14
 -1      3357 1.99838E+01 8.51043E-02 4.60252E-04 1.22461E-01 1.20514E-13-9.14292E-14
 -1      3358 1.99686E+01 8.74569E-02 1.28994E-05 1.01071E-01 3.59393E-14-6.27865E-14
 -1      3359 1.99798E+01 8.84454E-02-2.67524E-04 1.38457E-01 1.12443E-13-1.28607E-13
 -1      3360 1.99841E+01 9.01439E-02 5.49870E-04 1.54064E-01 2.22221E-14-1.13787E-13
 -1      3361 1.99607E+01 9.94967E-02-9.47194E-05 1.29963E-01 1.02460E-13-9.80961E-14
 -1      3362 1.99825E+01 8.86285E-02-1.19738E-04 1.73221E-01-7.10840E-14-1.31000E-13
 -1      3363 1.99907E+01 8.39443E-02 6.50522E-04 1.90317E-01-4.97518E-14-9.82365E-14
 -1      3364 1.99557E+01 1.03653E-01-3.02671E-04 1.65488E-01 2.21180E-14-2.20697E-13
 -1      3365 1.99944E+01 7.44294E-02 1.67697E-04 2.12275E-01-4.21889E-14 5.55365E-15
 -1      3366 2.00090E+01 5.95931E-02 7.47891E-04 2.29506E-01-1.99496E-14 6.20028E-14
 -1      3367 1.99577E+01 9.40357E-02-6.60924E-04 2.07592E-01 2.23026E-14-9.50067E-14
 -1      3368 2.00222E+01 3.79046E-02 6.63711E-04 2.53229E-01-1.37088E-13 5.58246E-14
 -1      3369 2.00469E+01 8.06699E-03 8.08646E-04 2.68246E-01-1.53147E-13-4.32476E-15
 -1      3370 1.99731E+01 6.24523E-02-1.23206E-03 2.55327E-01-5.16654E-14-2.78646E-14
 -1      3371 2.00761E+01-3.08829E-02 1.45319E-03 2.91537E-01-8.17352E-14 4.46647E-15
 -1      3372 2.01156E+01-8.13757E-02 7.66919E-04 3.00539E-01-6.19331E-15 1.78373E-14
 -1      3373 2.00120E+01-1.70907E-03-2.08504E-03 3.06105E-01-1.20669E-13 9.22613E-14
 -1      3374 2.01694E+01-1.43035E-01 2.62741E-03 3.19312E-01 8.11048E-15-1.09634E-13
 -1      3375 2.02295E+01-2.19786E-01 5.05605E-04 3.16496E-01 4.40719E-14-1.24506E-13
 -1      3376 2.00883E+01-1.10959E-01-3.27610E-03 3.54498E-01-1.12179E-13 1.05044E-14
 -1      3377 2.03189E+01-3.08662E-01 4.26044E-03 3.23763E-01 1.09515E-13-1.73809E-13
 -1      3378 2.04054E+01-4.15388E-01-1.58570E-04 3.00738E-01 4.19295E-14-8.54935E-14
 -1      3379 2.02206E+01-2.77989E-01-4.81526E-03 3.90451E-01 3.11625E-14-2.33319E-13
 -1      3380 2.05428E+01-5.32521E-01 6.35731E-03 2.85288E-01-5.29088E-14-4.09875E-14
 -1      3381 2.06594E+01-6.67562E-01-1.44418E-03 2.30744E-01-4.66857E-14-8.95318E-14
 -1      3382 2.04313E+01-5.11842E-01-6.58420E-03 3.96785E-01 3.51282E-15-2.55469E-13
 -1      3383 2.08556E+01-8.06150E-01 8.67413E-03 1.76135E-01-3.84750E-14-4.53107E-14
 -1      3384 2.10011E+01-9.56972E-01-3.60594E-03 7.65795E-02-5.67504E-14 1.77159E-14
 -1      3385 2.07432E+01-8.10132E-01-8.19054E-03 3.46235E-01 5.48401E-14-5.41637E-14
 -1      3386 2.12597E+01-1.09612E+00 1.05319E-02-3.86990E-02-1.07434E-13 1.03555E-13
 -1      3387 2.14227E+01-1.23076E+00-6.40148E-03-1.95974E-01-8.70537E-14 7.58564E-14
 -1      3388 2.11721E+01-1.14729E+00-9.11090E-03 2.00081E-01-4.03766E-14-3.40943E-14
 -1      3389 2.17295E+01-1.32805E+00 1.07840E-02-3.92127E-01-6.10973E-14 1.72285E-13
 -1      3390 2.18855E+01-1.39184E+00-9.19872E-03-6.10460E-01 6.01299E-14 6.83808E-14
 -1      3391 2.17123E+01-1.45479E+00-7.82461E-03-8.84882E-02-1.31570E-14 1.77870E-13
 -1      3392 2.21948E+01-1.38117E+00 6.23590E-03-8.98137E-01 1.68106E-13 1.32598E-15
 -1      3393 2.23034E+01-1.28960E+00-1.01527E-02-1.15903E+00 2.15191E-13 4.25969E-14
 -1      3394 2.23191E+01-1.60181E+00-1.15860E-03-5.59099E-01 1.00860E-13 2.57950E-13
 -1      3395 2.25331E+01-1.08818E+00-3.31059E-03-1.50412E+00 2.35670E-13 5.84775E-14
 -1      3396 2.25529E+01-7.62041E-01-5.37806E-03-1.74901E+00 2.34155E-13 1.95520E-13
 -1      3397 2.28695E+01-1.41723E+00 4.63743E-03-1.20484E+00 2.74826E-13 1.50452E-13
 -1      3398 2.26017E+01-3.02922E-01-1.67932E-02-2.05582E+00 1.95744E-13 4.20731E-13
 -1      3399 2.25156E+01 2.90426E-01 8.32891E-03-2.17452E+00 1.63339E-13 5.81318E-13
 -1      3400 2.32016E+01-6.75293E-01 2.04453E-02-1.91319E+00 3.51562E-13 4.79502E-13
 -1      3401 2.23172E+01 9.46849E-01-3.54099E-02-2.26814E+00 3.42131E-14 5.53063E-13
 -1      3402 2.21509E+01 1.68760E+00 1.60547E-02-2.15312E+00 2.36738E-14 5.36513E-13
 -1      3403 2.31401E+01 6.50141E-01 2.51927E-02-2.39455E+00 6.77748E-14 4.88236E-13
 -1      3404 2.17976E+01 2.37249E+00-3.46511E-02-1.90229E+00-9.58775E-14 4.71863E-13
 -1      3405 2.15912E+01 2.98134E+00 1.26501E-02-1.50717E+00-7.06501E-14 4.06787E-13
 -1      3406 2.27066E+01 2.23245E+00 8.13347E-03-2.27906E+00-4.85645E-14 5.50717E-13
 -1      3407 2.12846E+01 3.38462E+00-1.63475E-02-9.03645E-01 7.98732E-15 3.01166E-13
 -1      3408 2.11202E+01 3.55607E+00-1.92038E-03-3.35048E-01-4.39669E-14 3.09693E-13
 -1      3409 2.21028E+01 3.60706E+00-4.02883E-03-1.42504E+00-8.65469E-14 3.32873E-13
 -1      3410 2.10342E+01 3.50228E+00-1.69671E-03 3.13419E-01-4.24660E-15 2.09824E-13
 -1      3411 2.09185E+01 3.17855E+00-2.47806E-02 8.33144E-01-4.01189E-14 4.60177E-13
 -1      3412 2.16684E+01 3.49731E+00 1.75567E-02 1.04600E+00 5.39499E-16 2.86737E-13
 -1      3413 2.17487E+01 4.02358E+00-1.11323E-02-1.55041E-01-1.54538E-14 1.61710E-13
 -1      3414 2.01578E+01 5.38965E-02-7.43677E-04-1.38582E-01 7.08204E-15-1.99563E-13
 -1      3415 2.01802E+01 1.03027E-01 1.91820E-03-1.13880E-01-4.28517E-16-1.96398E-13
 -1      3416 2.00554E+01-7.34915E-02 2.94680E-04-1.40834E-01 1.12961E-13-7.02284E-14
 -1      3417 2.00608E+01-7.11626E-02 2.05740E-04-1.49221E-01 8.21664E-14-8.76406E-14
 -1      3418 2.00737E+01-6.64912E-02 2.13638E-04-1.56233E-01 8.17598E-14-1.27848E-13
 -1      3419 2.00817E+01-5.86408E-02 4.44560E-04-1.61736E-01 9.00516E-14-1.42541E-13
 -1      3420 2.01068E+01-7.51958E-02-5.33655E-04-1.44191E-01 6.24494E-14-1.52686E-13
 -1      3421 2.00302E+01-6.70739E-02 3.39101E-04-1.03789E-01 6.68544E-14-7.21867E-14
 -1      3422 2.00321E+01-7.04417E-02-5.47044E-05-1.13289E-01 1.04971E-13-2.13838E-14
 -1      3423 2.00217E+01-5.81723E-02 3.24622E-04-8.54526E-02 6.28432E-14-8.72343E-14
 -1      3424 2.00227E+01-6.30079E-02-1.11201E-04-9.45707E-02 6.36974E-14-1.18553E-13
 -1      3425 2.00482E+01-7.30417E-02-2.86913E-04-9.52425E-02 9.15049E-14-1.25877E-13
 -1      3426 2.00159E+01-4.81183E-02 2.98087E-04-7.02718E-02 5.05170E-14-8.72696E-15
 -1      3427 2.00160E+01-5.34045E-02-1.49623E-04-7.77112E-02 3.78415E-14-3.91471E-14
 -1      3428 2.00360E+01-6.29635E-02-2.30712E-04-7.89139E-02 3.73129E-14-3.72502E-14
 -1      3429 2.00119E+01-3.72828E-02 2.79151E-04-5.79421E-02 3.18346E-14 5.40398E-14
 -1      3430 2.00115E+01-4.29169E-02-1.70290E-04-6.38703E-02 7.46692E-14 2.50836E-14
 -1      3431 2.00269E+01-5.14519E-02-1.76109E-04-6.52261E-02 5.74302E-15 1.66962E-14
 -1      3432 2.00093E+01-2.59424E-02 2.64387E-04-4.88406E-02-7.50014E-14 1.12348E-13
 -1      3433 2.00085E+01-3.18170E-02-1.82843E-04-5.30756E-02-1.09746E-14 7.95855E-14
 -1      3434 2.00200E+01-3.90611E-02-1.32305E-04-5.42930E-02-1.72491E-14-5.08690E-15
 -1      3435 2.00077E+01-1.40670E-02 2.57289E-04-4.32575E-02-1.08412E-13 6.55921E-14
 -1      3436 2.00066E+01-2.02333E-02-1.95281E-04-4.56528E-02-1.27973E-13 6.25186E-14
 -1      3437 2.00148E+01-2.60362E-02-9.43622E-05-4.64920E-02-8.46254E-14 1.52206E-14
 -1      3438 2.00067E+01-1.36004E-03 2.59828E-04-4.14762E-02-2.94984E-14-3.53211E-14
 -1      3439 2.00054E+01-8.00210E-03-2.13495E-04-4.18746E-02-4.09203E-14 4.56136E-14
 -1      3440 2.00107E+01-1.22880E-02-5.79077E-05-4.21135E-02-8.77029E-14-6.91847E-14
 -1      3441 2.00060E+01 1.27206E-02 2.72348E-04-4.38507E-02 8.00214E-15-5.68224E-14
 -1      3442 2.00045E+01 5.29548E-03-2.43263E-04-4.20457E-02 2.16454E-14-6.33159E-14
 -1      3443 2.00072E+01 2.56706E-03-1.97839E-05-4.14406E-02 2.06257E-14-7.61809E-14
 -1      3444 2.00051E+01 2.89648E-02 2.95199E-04-5.08598E-02-3.10860E-14-2.32611E-14
 -1      3445 2.00035E+01 2.03201E-02-2.90591E-04-4.65675E-02 2.67316E-14-2.34845E-14
 -1      3446 2.00036E+01 1.91900E-02 2.62084E-05-4.48156E-02 1.60734E-15-2.66064E-14
 -1      3447 2.00033E+01 4.84587E-02 3.44841E-04-6.31414E-02 3.27220E-14-1.21770E-13
 -1      3448 2.00018E+01 3.79800E-02-3.66977E-04-5.59837E-02 9.82281E-15-2.71629E-14
 -1      3449 1.99992E+01 3.85246E-02 8.96244E-05-5.26746E-02 3.24464E-14-6.32436E-14
 -1      3450 1.99991E+01 7.39579E-02 3.79118E-04-8.26461E-02-4.86178E-14-2.64718E-13
 -1      3451 1.99983E+01 6.01710E-02-4.79398E-04-7.14277E-02 1.63819E-14-1.94962E-13
 -1      3452 1.99924E+01 6.24041E-02 1.52951E-04-6.59848E-02 9.67987E-14-1.78265E-13
 -1      3453 1.99913E+01 1.05039E-01 3.72112E-04-1.08581E-01-1.53545E-13-1.92981E-13
 -1      3454 1.99917E+01 8.81707E-02-6.31579E-04-9.37813E-02-1.46095E-13-2.37749E-13
 -1      3455 1.99820E+01 9.23496E-02 3.26747E-04-8.51834E-02-1.37370E-13-2.02038E-13
 -1      3456 1.99770E+01 1.45411E-01 3.59177E-04-1.42911E-01-1.02568E-13-1.22202E-13
 -1      3457 1.99798E+01 1.23478E-01-8.44463E-04-1.23261E-01-5.73187E-14-1.20220E-13
 -1      3458 1.99657E+01 1.29512E-01 5.41824E-04-1.10383E-01-1.41818E-13-2.00014E-13
 -1      3459 1.99521E+01 1.98526E-01 2.82464E-04-1.86918E-01-7.15861E-14-8.91828E-14
 -1      3460 1.99593E+01 1.69647E-01-1.14816E-03-1.61527E-01-1.41180E-13-1.64641E-13
 -1      3461 1.99398E+01 1.77530E-01 8.78348E-04-1.42523E-01-1.48647E-13-2.30719E-13
 -1      3462 1.99097E+01 2.68972E-01 8.55596E-05-2.41761E-01-4.46670E-14-2.07439E-14
 -1      3463 1.99246E+01 2.30693E-01-1.56959E-03-2.09704E-01-2.90834E-14-2.52796E-14
 -1      3464 1.98990E+01 2.40212E-01 1.39728E-03-1.81865E-01-1.06363E-13-1.19612E-13
 -1      3465 1.98396E+01 3.62658E-01-3.19657E-04-3.08117E-01-2.93729E-14 3.80314E-14
 -1      3466 1.98674E+01 3.11862E-01-2.14802E-03-2.68603E-01-1.37653E-14 4.83082E-14
 -1      3467 1.98350E+01 3.22457E-01 2.19038E-03-2.27954E-01-3.64113E-14-3.49963E-14
 -1      3468 1.97257E+01 4.86823E-01-1.06848E-03-3.85537E-01 6.67042E-15 3.14973E-14
 -1      3469 1.97749E+01 4.19772E-01-2.93304E-03-3.38215E-01-5.22057E-15 5.34003E-14
 -1      3470 1.97357E+01 4.30316E-01 3.38879E-03-2.78974E-01-2.42805E-14 4.82552E-14
 -1      3471 1.95443E+01 6.49542E-01-2.34772E-03-4.71404E-01-2.61897E-14-3.78264E-14
 -1      3472 1.96277E+01 5.62213E-01-3.99347E-03-4.16889E-01 2.09961E-14-3.44777E-14
 -1      3473 1.95832E+01 5.70750E-01 5.17861E-03-3.30732E-01 7.54617E-14 3.11982E-14
 -1      3474 1.92607E+01 8.57732E-01-4.52616E-03-5.59655E-01 1.72042E-13-7.36232E-14
 -1      3475 1.93970E+01 7.46871E-01-5.53988E-03-5.00109E-01 6.49652E-14-1.38855E-13
 -1      3476 1.93515E+01 7.50824E-01 7.85815E-03-3.75244E-01 1.15421E-13-1.06229E-13
 -1      3477 1.87967E+01 1.12805E+00-7.74084E-03-6.42270E-01 2.37078E-13-1.00072E-13
 -1      3478 1.90295E+01 9.86971E-01-7.32765E-03-5.79885E-01 2.11912E-13-1.84410E-14
 -1      3479 1.89914E+01 9.80787E-01 1.15342E-02-3.99257E-01 1.38140E-13-1.04610E-13
 -1      3480 1.81208E+01 1.42320E+00-1.26183E-02-6.93345E-01-8.15261E-14 3.25973E-14
 -1      3481 1.84667E+01 1.27258E+00-1.05461E-02-6.41461E-01 1.28673E-13 4.83017E-15
 -1      3482 1.84530E+01 1.25457E+00 1.73502E-02-3.77301E-01 1.25846E-13 1.25573E-13
 -1      3483 1.71174E+01 1.71400E+00-1.87314E-02-6.97603E-01-5.72350E-14-5.84826E-14
 -1      3484 1.76407E+01 1.57336E+00-1.47834E-02-6.60916E-01-9.80169E-14-5.17733E-14
 -1      3485 1.76771E+01 1.54359E+00 2.51236E-02-2.82543E-01-3.87750E-14 1.47712E-13
 -1      3486 1.56506E+01 1.91105E+00-2.07118E-02-6.38277E-01 1.29975E-13-1.51095E-13
 -1      3487 1.64212E+01 1.83315E+00-1.93960E-02-6.19803E-01 5.63070E-14-1.67838E-13
 -1      3488 1.65569E+01 1.80456E+00 4.02042E-02-8.06954E-02 7.95518E-14-3.01585E-13
 -1      3489 1.37103E+01 1.82439E+00 2.99618E-02-5.33666E-01 1.27854E-13-1.92240E-13
 -1      3490 1.46406E+01 1.91776E+00-1.77147E-02-5.43561E-01 1.13535E-13-1.32028E-13
 -1      3491 1.49065E+01 1.95836E+00 7.14945E-02 2.61336E-01 5.81453E-14-3.44298E-13
 -1      3492 1.18649E+01 1.70646E+00 7.72891E-02 1.71054E-01 1.79828E-13-2.72553E-13
 -1      3493 2.00966E+01-4.74575E-02 5.71968E-05-1.64991E-01 9.54974E-14-1.91586E-13
 -1      3494 2.01081E+01-3.12717E-02 7.88215E-04-1.65054E-01 6.57909E-14-1.80108E-13
 -1      3495 2.01351E+01-5.58367E-02-6.20652E-04-1.52635E-01 7.13989E-14-1.67070E-13
 -1      3496 2.00411E+01-7.26995E-02 3.29269E-04-1.22515E-01 1.36083E-13-3.21593E-14
 -1      3497 2.00445E+01-7.39120E-02 4.74687E-05-1.32039E-01 1.56161E-13-2.64670E-14
 -1      3498 2.00832E+01-8.17781E-02-4.45723E-04-1.29794E-01 1.05098E-13-8.18543E-14
 -1      3499 2.00639E+01-8.00732E-02-3.58026E-04-1.12839E-01 1.15906E-13-7.99618E-14
 -1      3500 1.97929E+01-3.46712E+00-8.64386E-02 5.18881E+00 1.83877E-13 2.87170E-13
 -1      3501 1.74555E+01-2.01684E+00 1.18758E-01 5.31780E+00 1.62103E-13 2.98775E-13
 -1      3502 2.02532E+01 1.39197E+00 2.68656E-03-5.53582E-01-2.37766E-13-3.78949E-13
 -1      3503 2.00287E+01 2.20289E+00-3.21247E-03-1.62533E-01-6.26366E-14-4.94092E-13
 -1      3504 2.00409E+01 2.16599E+00-4.22359E-03-2.84355E-01-9.27879E-14-4.89414E-13
 -1      3505 2.01552E+01 1.85257E+00 4.46406E-03-2.82921E-01-9.48735E-14-4.57029E-13
 -1      3506 2.02889E+01 1.13609E+00-1.26843E-03-4.55692E-01-2.11725E-13-3.49867E-13
 -1      3507 2.02924E+01 9.13528E-01-2.74091E-03-3.19685E-01-1.58937E-13-3.24696E-13
 -1      3508 2.03191E+01 9.17030E-01 1.85308E-03-2.66418E-01-1.35315E-13-2.99452E-13
 -1      3509 2.02601E+01 1.35291E+00 2.27032E-03-4.39147E-01-1.82912E-13-3.33054E-13
 -1      3510 2.01245E+01-1.04299E-02-2.20867E-04-1.61735E-01 2.08083E-14-1.89298E-13
 -1      3511 2.01405E+01 1.81460E-02 1.30957E-03-1.52747E-01 1.87621E-14-2.01101E-13
 -1      3512 2.01680E+01-1.73308E-02-6.93780E-04-1.50247E-01 3.61162E-14-2.06592E-13
 -1      3513 2.47712E+01 6.05526E+00-8.75698E-02-1.48559E+00-7.85760E-14-2.15051E-13
 -1      3514 2.52186E+01 5.52181E+00-5.00020E-02-2.30630E+00-2.66870E-14-8.06525E-14
 -1      3515 1.21044E+01 1.29381E+00 2.01281E-02 2.00212E+00 1.23316E-13-1.21909E-13
 -1      3516 2.56470E+01 4.38978E+00-1.10561E-01-2.81367E+00-8.06022E-14-1.31284E-13
 -1      3517 2.62997E+01 2.94950E+00 9.01347E-03-3.13606E+00-1.12042E-13 4.53318E-14
 -1      3518 1.46124E+01-9.39069E-01-6.55101E-02 4.93745E+00 8.50448E-14 2.08576E-13
 -1      3519 1.27103E+01 3.70780E-01 8.57626E-02 3.74863E+00-2.24716E-14 1.21791E-13
 -1      3520 2.02341E+01 3.21275E-01-2.06239E-03 1.38879E-02 7.67244E-14-2.25373E-13
 -1      3521 2.02638E+01 4.31039E-01 2.90052E-03 8.79399E-02 1.14505E-13-2.36766E-13
 -1      3522 2.41429E+01-4.38538E+00-5.57716E-02 2.95942E+00 1.71042E-13-1.11321E-13
 -1      3523 2.23778E+01-3.97019E+00 1.03146E-01 4.29182E+00 1.88558E-13-6.95624E-15
 -1      3524 2.01962E+01 1.60938E-01-1.36714E-03-8.31599E-02 2.42647E-14-2.02733E-13
 -1      3525 2.02232E+01 2.34196E-01 2.54860E-03-3.81087E-02 5.80633E-14-2.13428E-13
 -1      3526 2.02802E+01 3.28961E-01-4.30441E-04 5.44050E-03 5.57112E-14-2.20537E-13
 -1      3527 2.02445E+01 1.60880E-01-6.24901E-04-8.13336E-02 1.40771E-14-1.89891E-13
 -1      3528 2.02004E+01 1.69677E+00 5.76391E-03 4.58765E-01 1.59347E-13-4.10272E-13
 -1      3529 2.53367E+01 4.08119E+00-8.08457E-02 1.03580E+00 4.47087E-13-4.54064E-14
 -1      3530 2.59966E+01 5.56263E+00-1.07872E-01 7.42654E-01 3.43586E-13-4.37844E-15
 -1      3531 2.48019E+01 5.77742E+00-2.96892E-02 4.84349E-01 9.98715E-14-1.71611E-13
 -1      3532 2.38594E+01 4.09142E+00-7.84568E-02 1.19839E+00 3.44287E-13-1.16473E-13
 -1      3533 2.54944E+01 1.69479E+00-9.32126E-03-2.88441E+00-8.46580E-14 1.71439E-13
 -1      3534 2.11660E+01-3.16950E+00 4.56607E-02 4.07551E+00 1.40752E-13 1.87437E-14
 -1      3535 1.66738E+01-1.05281E+00 5.04458E-02 4.48179E+00 9.34686E-14 2.96079E-13
 -1      3536 2.44428E+01 4.29598E+00-3.74040E-02-2.37617E+00-9.54618E-14-4.64576E-14
 -1      3537 2.01352E+01 1.92475E+00 4.74694E-03-9.45392E-02-4.73729E-14-4.59110E-13
 -1      3538 2.25254E+01 3.87096E+00-2.99853E-03 1.01580E+00 1.47927E-13 6.36101E-14
 -1      3539 2.65176E+01-1.95697E+00-4.10832E-02-1.53113E+00 1.90804E-13-2.09745E-13
 -1      3540 2.57258E+01-2.54081E+00 5.77412E-04-7.46605E-01 2.45494E-13-1.99849E-13
 -1      3541 2.56110E+01-8.04311E-01 2.12760E-02-2.15382E+00 1.37362E-13-8.30343E-14
 -1      3542 2.02764E+01 1.14208E+00-5.15808E-03 4.92088E-01 2.05586E-13-3.00143E-13
 -1      3543 2.02651E+01 1.28763E+00 1.46832E-04 4.53268E-01 1.62627E-13-3.42735E-13
 -1      3544 2.02051E+01 5.02024E-02-7.27510E-04-1.29873E-01 9.74755E-15-2.56672E-13
 -1      3545 2.02198E+01 1.54840E+00-4.30682E-03 2.84251E-01 1.07632E-13-4.14871E-13
 -1      3546 2.02091E+01 1.60755E+00-2.07557E-03 2.01114E-01 6.86525E-14-4.11301E-13
 -1      3547 2.02445E+01 1.43016E+00-3.25910E-03-3.86872E-01-1.57087E-13-3.77219E-13
 -1      3548 2.02935E+01 1.19725E+00 1.05047E-03-3.03166E-01-1.36582E-13-3.53382E-13
 -1      3549 2.02292E+01 1.52499E+00-1.72869E-04-3.17930E-01-1.14721E-13-4.02218E-13
 -1      3550 2.45185E+01 6.07345E+00-9.76811E-02-1.00178E+00-1.65909E-13-2.35192E-13
 -1      3551 2.36757E+01 5.32147E+00-3.27096E-02-1.27292E+00-6.47052E-15-9.61904E-15
 -1      3552 2.42556E+01 5.97684E+00-7.02913E-02-3.25684E-01-1.90917E-13-2.43023E-13
 -1      3553 1.38831E+01 1.17813E+00 4.56286E-02 2.14989E+00 1.63142E-13-1.12906E-13
 -1      3554 2.51184E+01-3.42890E+00-5.92665E-03 6.79133E-01 1.84636E-13-2.48463E-13
 -1      3555 2.49689E+01-4.01804E+00 2.89086E-02 1.86226E+00 1.37249E-13-3.10077E-14
 -1      3556 2.36300E+01-3.64647E+00-8.76830E-03 2.28967E+00 8.68154E-14-1.74381E-13
 -1      3557 2.02605E+01 5.35704E-01-2.33222E-03 1.56892E-01 1.47000E-13-2.45589E-13
 -1      3558 2.02799E+01 6.52533E-01-2.95961E-04 2.52797E-01 1.75902E-13-2.39574E-13
 -1      3559 2.02999E+01 5.49460E-01 1.84513E-04 1.30329E-01 1.20109E-13-2.20214E-13
 -1      3560 2.02005E+01 1.64057E+00-3.33690E-03 1.30239E-01 4.67992E-14-3.93647E-13
 -1      3561 2.01966E+01 1.66055E+00-2.56886E-03 3.98668E-02-4.90317E-15-3.96535E-13
 -1      3562 2.02834E+01 1.38711E+00 5.03747E-03 1.33596E-01 5.31901E-14-3.82860E-13
 -1      3563 2.03517E+01 7.05635E-01 2.96720E-04-1.45263E-01-1.01160E-13-2.92003E-13
 -1      3564 2.03484E+01 5.49048E-01-2.11781E-03-7.37959E-02-1.06571E-13-2.93186E-13
 -1      3565 2.03551E+01 4.17129E-01 1.43295E-03-2.81274E-02-1.04481E-13-2.81348E-13
 -1      3566 2.03388E+01 3.06396E-01-1.73309E-03 1.99155E-02-9.03104E-14-2.91326E-13
 -1      3567 2.03752E+01 5.33956E-01 7.26360E-04-5.31748E-02-9.41869E-14-2.67627E-13
 -1      3568 2.03316E+01 2.16782E-01 1.34292E-03 4.90277E-02-7.00245E-14-2.89937E-13
 -1      3569 2.03106E+01 1.41791E-01-1.05538E-03 7.82265E-02-7.16516E-14-2.79178E-13
 -1      3570 2.03659E+01 2.95096E-01 2.95057E-04 2.28475E-02-7.14694E-14-2.33901E-13
 -1      3571 2.02952E+01 8.25191E-02 1.07188E-03 9.43538E-02-5.79350E-14-2.48463E-13
 -1      3572 2.02735E+01 3.39371E-02-5.28186E-04 1.09601E-01-5.14292E-14-2.28945E-13
 -1      3573 2.03367E+01 1.31297E-01-1.14965E-04 7.00338E-02-4.77391E-14-2.46699E-13
 -1      3574 2.02540E+01-3.36387E-03 8.00505E-04 1.16341E-01-5.90323E-14-2.19682E-13
 -1      3575 2.02335E+01-3.29484E-02-1.57304E-04 1.21889E-01-3.89080E-14-2.28820E-13
 -1      3576 2.02974E+01 2.40385E-02-3.72660E-04 9.51584E-02-4.63765E-14-1.96713E-13
 -1      3577 2.02129E+01-5.46769E-02 5.65682E-04 1.22312E-01-3.06045E-14-2.24224E-13
 -1      3578 2.01946E+01-7.09175E-02 8.46599E-05 1.21548E-01-5.36394E-14-2.07534E-13
 -1      3579 2.02547E+01-4.20640E-02-4.98971E-04 1.04599E-01-5.50984E-14-2.24751E-13
 -1      3580 2.01746E+01-8.18620E-02 3.77900E-04 1.18055E-01-5.67994E-14-1.95413E-13
 -1      3581 2.01588E+01-8.89790E-02 2.28648E-04 1.13520E-01-3.83335E-14-2.13330E-13
 -1      3582 2.02129E+01-7.90297E-02-5.40875E-04 1.03661E-01-4.75744E-14-1.70129E-13
 -1      3583 2.01406E+01-9.26675E-02 2.35424E-04 1.07878E-01-2.73311E-14-2.07880E-13
 -1      3584 2.01274E+01-9.37274E-02 3.04678E-04 1.01395E-01-4.76123E-14-1.96583E-13
 -1      3585 2.01742E+01-9.59375E-02-5.31596E-04 9.64438E-02-2.94575E-14-1.49137E-13
 -1      3586 2.01113E+01-9.26792E-02 1.29777E-04 9.48705E-02-6.78644E-14-1.69342E-13
 -1      3587 2.01005E+01-8.98899E-02 3.31147E-04 8.77154E-02-5.86226E-14-1.71723E-13
 -1      3588 2.01400E+01-9.94282E-02-4.90443E-04 8.59250E-02-4.31816E-14-1.08297E-13
 -1      3589 2.00867E+01-8.59244E-02 5.32665E-05 8.11492E-02-2.31095E-14-1.50415E-13
 -1      3590 2.00781E+01-8.08080E-02 3.28329E-04 7.41469E-02-7.02249E-15-1.14784E-13
 -1      3591 2.01107E+01-9.43110E-02-4.29108E-04 7.42392E-02-1.45908E-14-5.90751E-14
 -1      3592 2.00665E+01-7.51019E-02-3.62451E-06 6.80777E-02-5.42698E-14-1.11823E-13
 -1      3593 2.00597E+01-6.86413E-02 3.10700E-04 6.17806E-02-7.98067E-14-9.06804E-14
 -1      3594 2.00860E+01-8.39449E-02-3.62484E-04 6.27417E-02-2.70574E-14-8.38248E-14
 -1      3595 2.00501E+01-6.19616E-02-4.54568E-05 5.65602E-02-7.01143E-14-1.06783E-13
 -1      3596 2.00447E+01-5.47554E-02 2.85560E-04 5.13120E-02-5.40625E-14-1.28026E-13
 -1      3597 2.00657E+01-7.04931E-02-2.95053E-04 5.23662E-02-6.51458E-14-1.22390E-13
 -1      3598 2.00367E+01-4.75291E-02-8.01565E-05 4.71648E-02-5.02187E-14-1.26713E-13
 -1      3599 2.00325E+01-3.99002E-02 2.57406E-04 4.31942E-02-4.15253E-14-1.31250E-13
 -1      3600 2.00489E+01-5.52820E-02-2.27006E-04 4.37000E-02-7.00050E-14-1.55602E-13
 -1      3601 2.00257E+01-3.23472E-02-1.12096E-04 4.02642E-02-6.14711E-14-1.05975E-13
 -1      3602 2.00223E+01-2.44166E-02 2.31775E-04 3.77181E-02-6.42428E-14-1.29615E-13
 -1      3603 2.00350E+01-3.90491E-02-1.61389E-04 3.71452E-02-4.19148E-14-1.82542E-13
 -1      3604 2.00163E+01-1.65690E-02-1.45839E-04 3.61145E-02-1.39803E-14-1.23596E-13
 -1      3605 2.00134E+01-8.31020E-03 2.13467E-04 3.51253E-02-1.71832E-14-1.50802E-13
 -1      3606 2.00232E+01-2.20845E-02-9.77731E-05 3.29574E-02-5.53498E-14-1.48666E-13
 -1      3607 2.00077E+01-1.09688E-04-1.83374E-04 3.49771E-02-1.06108E-14-1.64406E-13
 -1      3608 2.00050E+01 8.56718E-03 2.03646E-04 3.56854E-02 9.10340E-14-1.59716E-13
 -1      3609 2.00125E+01-4.35192E-03-3.67508E-05 3.13921E-02 4.11530E-15-1.41885E-13
 -1      3610 1.99992E+01 1.72106E-02-2.27053E-04 3.71561E-02 1.46091E-13-1.96740E-13
 -1      3611 1.99965E+01 2.63981E-02 2.04955E-04 3.97311E-02 1.37306E-13-1.44188E-13
 -1      3612 2.00020E+01 1.43338E-02 2.26441E-05 3.27514E-02 9.53429E-14-1.80029E-13
 -1      3613 1.99902E+01 3.55416E-02-2.77960E-04 4.30422E-02 8.94122E-14-1.39116E-13
 -1      3614 1.99872E+01 4.52640E-02 2.21034E-04 4.76964E-02 9.41904E-14-1.41880E-13
 -1      3615 1.99911E+01 3.41690E-02 7.87438E-05 3.74234E-02 1.22770E-13-2.48184E-13
 -1      3616 1.99800E+01 5.48503E-02-3.34962E-04 5.31525E-02 4.75644E-14-1.45602E-13
 -1      3617 1.99767E+01 6.49687E-02 2.56677E-04 6.01494E-02-3.12846E-14-1.54100E-13
 -1      3618 1.99788E+01 5.52197E-02 1.28209E-04 4.59398E-02 2.03769E-14-2.55458E-13
 -1      3619 1.99684E+01 7.47185E-02-3.94065E-04 6.81577E-02-6.89087E-14-1.22149E-13
 -1      3620 1.99648E+01 8.48094E-02 3.18766E-04 7.78065E-02-2.35184E-14-8.14792E-14
 -1      3621 1.99646E+01 7.72196E-02 1.63718E-04 5.90288E-02-4.16219E-15-2.11370E-13
 -1      3622 1.99553E+01 9.40859E-02-4.47083E-04 8.88925E-02 2.45911E-14-1.22687E-13
 -1      3623 1.99519E+01 1.03283E-01 4.16634E-04 1.01532E-01 1.07096E-13-8.52050E-14
 -1      3624 1.99482E+01 9.93171E-02 1.72095E-04 7.76595E-02-1.09682E-14-1.38779E-13
 -1      3625 1.99416E+01 1.10914E-01-4.78924E-04 1.16348E-01 5.66191E-14-1.67116E-13
 -1      3626 1.99391E+01 1.17706E-01 5.62047E-04 1.32305E-01 3.44486E-14-1.96909E-13
 -1      3627 1.99298E+01 1.19743E-01 1.31476E-04 1.03088E-01 4.07244E-14-2.21695E-13
 -1      3628 1.99289E+01 1.21766E-01-4.64109E-04 1.51615E-01 4.33902E-14-2.56351E-13
 -1      3629 1.99290E+01 1.23754E-01 7.67810E-04 1.71128E-01 3.99701E-14-2.50317E-13
 -1      3630 1.99107E+01 1.35383E-01 7.83382E-06 1.36877E-01-1.88539E-14-3.13345E-13
 -1      3631 1.99209E+01 1.21319E-01-3.61756E-04 1.95743E-01 8.28091E-14-1.77425E-13
 -1      3632 1.99262E+01 1.14951E-01 1.04368E-03 2.18815E-01 9.59653E-14-1.31383E-13
 -1      3633 1.98936E+01 1.41250E-01-2.49239E-04 1.80863E-01 1.37614E-13-2.25015E-13
 -1      3634 1.99237E+01 1.01858E-01-1.09117E-04 2.49438E-01 5.41457E-14-1.76568E-13
 -1      3635 1.99382E+01 8.21972E-02 1.38811E-03 2.75578E-01-8.34518E-15-1.00964E-13
 -1      3636 1.98835E+01 1.29898E-01-7.10884E-04 2.36988E-01 7.04941E-14-2.11912E-13
 -1      3637 1.99469E+01 5.28892E-02 3.88776E-04 3.12472E-01-7.08596E-14-1.61264E-14
 -1      3638 1.99765E+01 1.35015E-02 1.77004E-03 3.40258E-01-6.02228E-14 5.51311E-14
 -1      3639 1.98889E+01 9.08533E-02-1.47177E-03 3.06884E-01 2.97994E-14-9.87414E-14
 -1      3640 2.00049E+01-3.88957E-02 1.26266E-03 3.82585E-01-1.32773E-13-2.63056E-14
 -1      3641 2.00574E+01-1.05670E-01 2.10549E-03 4.08940E-01-1.98140E-13-6.39849E-14
 -1      3642 1.99231E+01 1.02553E-02-2.64529E-03 3.90974E-01-1.35780E-13-9.34022E-14
 -1      3643 2.01178E+01-1.88694E-01 2.68197E-03 4.53657E-01-1.67115E-13-8.24444E-14
 -1      3644 2.02030E+01-2.90794E-01 2.22036E-03 4.72795E-01 3.94349E-14-1.30248E-13
 -1      3645 2.00054E+01-1.28800E-01-4.35697E-03 4.86734E-01-1.46582E-13-3.52102E-14
 -1      3646 2.03118E+01-4.11135E-01 4.85025E-03 5.12891E-01 1.29142E-13-1.87127E-13
 -1      3647 2.04402E+01-5.54658E-01 1.78234E-03 5.14813E-01 9.15293E-14-8.67966E-14
 -1      3648 2.01629E+01-3.44523E-01-6.68967E-03 5.85882E-01 1.65483E-14 7.31023E-16
 -1      3649 2.06180E+01-7.14884E-01 7.97199E-03 5.36221E-01 8.18988E-14-8.87077E-14
 -1      3650 2.07979E+01-8.99125E-01 3.32943E-04 5.04985E-01 6.25985E-14-7.02974E-14
 -1      3651 2.04302E+01-6.52589E-01-9.61746E-03 6.69601E-01 1.28279E-13-8.12566E-15
 -1      3652 2.10654E+01-1.09032E+00 1.18657E-02 4.83485E-01-2.18468E-14-1.00958E-13
 -1      3653 2.12984E+01-1.30084E+00-2.97031E-03 3.97598E-01-7.31485E-14 1.49203E-14
 -1      3654 2.08475E+01-1.05437E+00-1.25778E-02 7.00555E-01 2.95031E-14-8.75442E-14
 -1      3655 2.16678E+01-1.49021E+00 1.58723E-02 2.95545E-01 4.25176E-14 1.21541E-14
 -1      3656 2.19411E+01-1.67632E+00-5.88547E-03 1.32799E-01 1.49595E-13 3.22734E-14
 -1      3657 2.14409E+01-1.52622E+00-1.97390E-02 6.12987E-01 8.47326E-15-2.99550E-14
 -1      3658 2.24113E+01-1.82994E+00 1.59081E-02-8.74767E-02 1.90955E-13 1.25007E-13
 -1      3659 2.26934E+01-1.90796E+00-1.00403E-02-3.66227E-01 2.04898E-13 1.58853E-13
 -1      3660 2.22617E+01-1.92854E+00-7.81508E-03 3.22960E-01 2.22052E-13 5.57375E-14
 -1      3661 2.31652E+01-1.86928E+00 1.00791E-02-7.30229E-01 2.58529E-13 2.09772E-13
 -1      3662 2.33785E+01-1.72476E+00-1.28954E-02-1.06943E+00 3.86955E-13 2.11985E-13
 -1      3663 2.31912E+01-2.14857E+00 6.62632E-03-2.36499E-01 2.80450E-13 8.77597E-14
 -1      3664 2.41261E+01-1.46688E+00-4.51515E-03-1.57046E+00 3.76543E-13 1.22511E-13
 -1      3665 2.42119E+01-8.91906E-01-7.69059E-03-1.92477E+00 2.41486E-13 2.19636E-13
 -1      3666 2.44289E+01-1.31709E-01-3.92742E-02-2.40155E+00 7.08586E-14 2.55786E-13
 -1      3667 2.43466E+01 8.73061E-01 9.32503E-04-2.60599E+00 2.02373E-14 2.01269E-13
 -1      3668 2.37895E+01 2.23099E+00-6.51593E-02-2.65988E+00-6.54984E-14 1.49216E-13
 -1      3669 2.35711E+01 3.28783E+00-3.75334E-03-2.45067E+00-2.16967E-13 4.82834E-14
 -1      3670 2.30501E+01 4.08123E+00-4.70200E-02-1.89498E+00-9.34565E-14 5.59323E-14
 -1      3671 2.28180E+01 4.65395E+00-1.75639E-02-1.30301E+00-6.08194E-15 4.33711E-14
 -1      3672 2.00497E+01-6.55111E-02 3.24054E-04-6.91662E-02-8.12067E-15-4.89587E-14
 -1      3673 2.00547E+01-7.14755E-02-3.86658E-05-7.61842E-02 3.03402E-14-6.62096E-14
 -1      3674 2.00654E+01-7.69674E-02 3.34262E-04-8.34318E-02 7.22653E-14-1.13427E-13
 -1      3675 2.00725E+01-8.17812E-02 2.08811E-05-9.16570E-02 7.89856E-14-1.09770E-13
 -1      3676 2.00763E+01-8.09790E-02-3.27324E-04-7.29892E-02 4.41107E-14-1.04002E-13
 -1      3677 2.00280E+01-3.90381E-02 2.73790E-04-4.81788E-02-8.33747E-14-8.25989E-14
 -1      3678 2.00307E+01-4.61113E-02-1.06771E-04-5.26397E-02 1.45288E-15-1.06501E-13
 -1      3679 2.00203E+01-2.45987E-02 2.51292E-04-4.19078E-02-7.40263E-14-9.71564E-14
 -1      3680 2.00223E+01-3.20387E-02-1.34837E-04-4.47961E-02-6.93716E-14-7.48256E-14
 -1      3681 2.00320E+01-3.88299E-02-1.57688E-04-4.30168E-02-5.95096E-14-1.81055E-13
 -1      3682 2.00138E+01-9.28491E-03 2.33331E-04-3.88226E-02-5.21570E-14-1.54649E-13
 -1      3683 2.00154E+01-1.72068E-02-1.64288E-04-3.99982E-02-6.35462E-14-1.06033E-13
 -1      3684 2.00223E+01-2.27274E-02-9.67177E-05-3.80765E-02-6.37056E-14-1.90091E-13
 -1      3685 2.00079E+01 7.36848E-03 2.18651E-04-3.91758E-02 3.23816E-14-1.26090E-13
 -1      3686 2.00092E+01-1.30637E-03-2.01623E-04-3.84861E-02-1.68993E-14-1.13157E-13
 -1      3687 2.00137E+01-5.53264E-03-3.57504E-05-3.60477E-02-4.73543E-14-2.54578E-13
 -1      3688 2.00014E+01 2.60992E-02 2.06400E-04-4.32630E-02-9.25948E-15-1.37582E-13
 -1      3689 2.00030E+01 1.62639E-02-2.50909E-04-4.05260E-02 6.99937E-14-1.02693E-13
 -1      3690 2.00053E+01 1.33171E-02 3.30748E-05-3.71461E-02 9.66361E-15-1.73836E-13
 -1      3691 1.99935E+01 4.79262E-02 2.04479E-04-5.14301E-02 9.28674E-14-1.20257E-13
 -1      3692 1.99958E+01 3.63632E-02-3.21546E-04-4.64277E-02 3.32496E-14-1.14832E-13
 -1      3693 1.99960E+01 3.46649E-02 1.18927E-04-4.15928E-02 4.11097E-14-1.92251E-13
 -1      3694 1.99820E+01 7.56061E-02 1.77397E-04-6.48241E-02 7.98503E-14-4.73224E-14
 -1      3695 1.99858E+01 6.08584E-02-4.14089E-04-5.68166E-02 1.04764E-13-7.41170E-14
 -1      3696 1.99840E+01 6.02632E-02 2.10525E-04-4.98713E-02 1.07166E-13-4.41811E-14
 -1      3697 1.99656E+01 1.08290E-01 9.83921E-05-8.25419E-02-1.63376E-13-6.93025E-14
 -1      3698 1.99717E+01 9.08159E-02-5.33359E-04-7.20674E-02 4.57859E-15-2.26104E-14
 -1      3699 1.99676E+01 9.12850E-02 3.89759E-04-6.19847E-02 2.83020E-14 7.08031E-14
 -1      3700 1.99412E+01 1.49387E-01-1.61813E-05-1.05322E-01-1.48826E-13-1.88140E-13
 -1      3701 1.99512E+01 1.27401E-01-6.82374E-04-9.18155E-02-1.75529E-13-1.79858E-13
 -1      3702 1.99449E+01 1.28531E-01 6.03740E-04-7.75504E-02-6.04525E-14-8.61516E-14
 -1      3703 1.99042E+01 2.01690E-01-2.23045E-04-1.33023E-01-9.21657E-14-2.51045E-13
 -1      3704 1.99205E+01 1.73707E-01-8.80388E-04-1.16415E-01-9.80863E-14-1.86393E-13
 -1      3705 1.99122E+01 1.75015E-01 9.15912E-04-9.63732E-02-9.82268E-14-1.87760E-13
 -1      3706 1.98484E+01 2.68710E-01-5.83590E-04-1.64792E-01-1.58243E-13-7.21771E-14
 -1      3707 1.98744E+01 2.32907E-01-1.13080E-03-1.45334E-01-1.29969E-13-1.78676E-13
 -1      3708 1.98645E+01 2.33511E-01 1.36772E-03-1.17331E-01-1.44278E-13-1.99219E-13
 -1      3709 1.97644E+01 3.54722E-01-1.18745E-03-1.98487E-01-8.14435E-14-4.23334E-14
 -1      3710 1.98054E+01 3.08923E-01-1.43972E-03-1.77049E-01-1.07398E-13-7.13718E-14
 -1      3711 1.97950E+01 3.07338E-01 2.01999E-03-1.38084E-01-1.41859E-13 2.43633E-14
 -1      3712 1.96386E+01 4.64619E-01-2.16633E-03-2.29799E-01 2.54758E-14-1.15761E-13
 -1      3713 1.97025E+01 4.06415E-01-1.80856E-03-2.08327E-01-3.33527E-14-4.90280E-14
 -1      3714 1.96942E+01 4.00243E-01 2.95498E-03-1.54297E-01-5.79496E-14-9.37916E-14
 -1      3715 1.94515E+01 6.03350E-01-3.70097E-03-2.50933E-01 6.65038E-14-4.53293E-14
 -1      3716 1.95500E+01 5.30456E-01-2.23268E-03-2.33144E-01 7.87037E-14-7.16532E-14
 -1      3717 1.95483E+01 5.15979E-01 4.28075E-03-1.58501E-01 4.77872E-14-1.48892E-13
 -1      3718 1.91758E+01 7.74172E-01-6.24813E-03-2.48997E-01 1.21616E-13-1.08336E-13
 -1      3719 1.93254E+01 6.85448E-01-2.77845E-03-2.41112E-01 1.06448E-13-2.62046E-15
 -1      3720 1.93389E+01 6.57458E-01 6.18151E-03-1.38496E-01 8.57046E-14-3.22706E-14
 -1      3721 1.87493E+01 9.87874E-01-9.82519E-03-1.99131E-01 4.83771E-14 1.84331E-14
 -1      3722 1.89882E+01 8.79314E-01-3.10373E-03-2.13665E-01 6.89230E-14-6.55065E-14
 -1      3723 1.90311E+01 8.29106E-01 8.83138E-03-7.28071E-02 6.97109E-14-9.13862E-14
 -1      3724 1.81561E+01 1.21344E+00-1.50228E-02-7.42127E-02 1.59338E-14 1.41504E-13
 -1      3725 1.84959E+01 1.10225E+00-3.97756E-03-1.24737E-01 9.18024E-14 7.44501E-14
 -1      3726 1.85944E+01 1.01985E+00 1.24304E-02 6.97764E-02-2.63309E-15 2.26811E-14
 -1      3727 1.73076E+01 1.42928E+00-2.23226E-02 1.67262E-01 4.73924E-14-2.79989E-14
 -1      3728 1.78048E+01 1.33083E+00-4.83556E-03 6.07240E-02 4.97256E-14 1.68203E-13
 -1      3729 1.79963E+01 1.20532E+00 1.71329E-02 3.25372E-01 4.57660E-14 5.28288E-14
 -1      3730 1.60740E+01 1.57448E+00-3.49129E-02 5.70318E-01 1.24429E-13-2.04107E-13
 -1      3731 1.68186E+01 1.52804E+00-5.62517E-03 3.90990E-01 1.28302E-13-1.29076E-13
 -1      3732 1.71644E+01 1.34515E+00 2.20372E-02 7.56502E-01 9.91241E-14-9.43739E-14
 -1      3733 1.44155E+01 1.47960E+00-2.46895E-02 1.41016E+00 8.77059E-14-1.32850E-13
 -1      3734 1.54996E+01 1.52561E+00 7.12930E-04 1.08729E+00 7.22599E-15-1.84326E-13
 -1      3735 1.60919E+01 1.27090E+00 2.51268E-02 1.58712E+00 7.51552E-14-1.07147E-13
 -1      3736 1.49170E+01 6.85785E-01 1.31074E-02 2.98516E+00 7.97552E-14-4.15674E-14
 -1      3737 2.02491E+01 1.38218E+00-5.30747E-03 4.12096E-01 1.42419E-13-3.69899E-13
 -1      3738 2.02358E+01 1.48398E+00-1.02701E-03 3.43894E-01 1.08193E-13-4.01001E-13
 -1      3739 2.02956E+01 1.28633E+00 5.13515E-03 2.50240E-01 7.78282E-14-3.72507E-13
 -1      3740 2.03050E+01 1.11480E+00 4.07369E-03 3.33494E-01 1.37144E-13-3.51457E-13
 -1      3741 2.01685E+01-6.48049E-02 8.13108E-05-1.36672E-01 5.68284E-14-1.94773E-13
 -1      3742 2.01850E+01-4.87192E-02 6.32918E-04-1.37492E-01 5.33317E-14-2.23825E-13
 -1      3743 2.02716E+01 9.57004E-01 2.01475E-03 4.61703E-01 2.09313E-13-2.37966E-13
 -1      3744 2.02856E+01 8.23651E-01 2.31437E-03 3.34319E-01 1.86289E-13-2.63192E-13
 -1      3745 2.02425E+01 3.84134E-02-6.17874E-04-1.21689E-01-8.97820E-15-2.51953E-13
 -1      3746 2.02647E+01 8.74860E-02 1.33728E-03-1.03885E-01-7.72638E-15-2.53526E-13
 -1      3747 2.02802E+01 1.47234E-01-1.21087E-03-8.35012E-02-2.47477E-15-2.31658E-13
 -1      3748 2.03030E+01 2.23730E-01 1.64957E-03-4.89563E-02 3.17550E-14-2.19596E-13
 -1      3749 2.03126E+01 1.39495E-01-2.10411E-04-7.72470E-02 1.23900E-14-2.52827E-13
 -1      3750 2.03201E+01 1.02371E+00-1.37924E-03-2.59113E-01-1.22798E-13-3.23167E-13
 -1      3751 2.03365E+01 8.38772E-01-1.01468E-03-1.83397E-01-1.01909E-13-3.10365E-13
 -1      3752 2.03594E+01 8.15064E-01 1.52524E-03-1.40288E-01-8.52374E-14-3.15016E-13
 -1      3753 2.03187E+01 1.11287E+00 1.43520E-03-2.20048E-01-9.37871E-14-3.45628E-13
 -1      3754 2.01965E+01 1.66066E+00-2.68003E-03-3.49915E-02-3.80280E-14-4.28512E-13
 -1      3755 2.01993E+01 1.64263E+00-3.27964E-03-1.25046E-01-6.72342E-14-4.46171E-13
 -1      3756 2.02787E+01 1.42119E+00 5.03730E-03 2.31277E-03-8.02461E-15-3.76553E-13
 -1      3757 2.00375E+01-5.27439E-02 2.98900E-04-5.73790E-02 7.84683E-14-7.27101E-14
 -1      3758 2.00413E+01-5.93890E-02-7.42700E-05-6.32401E-02 4.10634E-14-8.99782E-14
 -1      3759 2.00580E+01-6.82086E-02-2.70441E-04-6.06791E-02 4.91066E-14-1.82234E-13
 -1      3760 2.00436E+01-5.40472E-02-2.17111E-04-5.06514E-02 2.58277E-14-2.50715E-13
 -1      3761 2.02044E+01-2.74272E-02-1.77895E-04-1.36519E-01 4.06306E-14-2.28760E-13
 -1      3762 2.02237E+01 1.66193E-03 9.56138E-04-1.30259E-01 1.52657E-14-2.52383E-13
 -1      3763 2.02320E+01-3.60279E-02-5.29620E-04-1.20724E-01 4.85036E-14-2.97534E-13
 -1      3764 2.01363E+01-8.29498E-02 2.30731E-04-1.27960E-01 2.81631E-14-1.67741E-13
 -1      3765 2.01500E+01-7.57070E-02 3.99059E-04-1.33001E-01 4.42246E-14-1.57314E-13
 -1      3766 2.01926E+01-7.31363E-02-5.45517E-04-1.20179E-01 3.56453E-14-2.47180E-13
 -1      3767 2.18384E+01-3.21724E+00-4.87335E-02 3.27729E+00 8.40066E-14-1.86786E-13
 -1      3768 2.02064E+01-2.34465E+00 7.89396E-02 3.96865E+00 1.16238E-13 2.57095E-14
 -1      3769 1.79283E+01-1.51977E+00-7.81497E-02 4.21006E+00 7.55576E-14 3.24456E-13
 -1      3770 1.59963E+01-1.01485E-01 3.83200E-02 3.70784E+00 4.58045E-14 1.71135E-13
 -1      3771 2.02071E+01 1.62113E+00-1.53142E-03-1.82221E-01-6.42010E-14-4.29587E-13
 -1      3772 2.02171E+01 1.56601E+00-3.32917E-03-2.66034E-01-9.48585E-14-4.20517E-13
 -1      3773 2.02838E+01 1.32780E+00 2.16518E-03-2.12877E-01-8.59181E-14-3.92897E-13
 -1      3774 2.02786E+01 1.39602E+00 3.50112E-03-1.18273E-01-6.07334E-14-4.14129E-13
 -1      3775 2.03108E+01 3.12859E-01-1.86687E-03-1.33522E-02 3.96862E-14-2.23385E-13
 -1      3776 2.03305E+01 4.23358E-01 1.78659E-03 4.23289E-02 4.76903E-14-2.33375E-13
 -1      3777 2.03433E+01 3.05839E-01 1.21021E-04-1.86903E-02 4.11496E-14-2.32193E-13
 -1      3778 2.25528E+01 4.78258E+00-1.25757E-02-7.40809E-01-2.37544E-14 2.99240E-14
 -1      3779 2.03036E+01 8.34652E-01 2.25156E-04 2.85004E-01 1.63047E-13-2.89389E-13
 -1      3780 2.44324E+01-2.03602E+00-8.10117E-03-1.02940E+00 3.34388E-13 2.00250E-13
 -1      3781 2.24280E+01 4.75628E+00-4.67962E-02-7.97528E-02-2.61804E-14 2.46708E-14
 -1      3782 2.01084E+01-8.82694E-02 3.07925E-04-1.14505E-01 1.16186E-13-1.33344E-13
 -1      3783 2.01195E+01-8.68673E-02 2.27455E-04-1.21731E-01 9.17291E-14-1.55807E-13
 -1      3784 2.01567E+01-9.05522E-02-5.23564E-04-1.12167E-01 4.32290E-14-2.40620E-13
 -1      3785 1.65060E+01 3.54138E-01 5.10094E-02 2.85786E+00 6.58774E-14 7.26582E-14
 -1      3786 2.02732E+01 3.02512E-02-4.44909E-04-1.08774E-01 4.36459E-15-2.61159E-13
 -1      3787 2.03227E+01 1.03565E+00-3.51822E-03 2.18947E-01 6.40943E-14-3.58775E-13
 -1      3788 2.03229E+01 1.10647E+00-8.75126E-04 1.73771E-01 6.22815E-14-3.69607E-13
 -1      3789 2.00850E+01-8.52518E-02 3.50559E-04-9.91080E-02 8.36956E-14-1.37168E-13
 -1      3790 2.00938E+01-8.76348E-02 1.13495E-04-1.07121E-01 1.20254E-13-1.20511E-13
 -1      3791 2.01254E+01-9.48884E-02-4.72509E-04-1.00113E-01 1.00377E-13-1.80826E-13
 -1      3792 2.00988E+01-9.07193E-02-4.28631E-04-8.66242E-02 1.04745E-13-1.09867E-13
 -1      3793 2.47868E+01-2.38060E+00 7.10793E-03-6.57639E-01 3.50937E-13 1.35655E-13
 -1      3794 2.50655E+01-3.17505E+00-2.27456E-02 1.81423E-01 2.72759E-13-1.44595E-13
 -1      3795 2.41973E+01-3.08406E+00 2.15330E-02 7.36001E-01 2.15987E-13-2.60261E-14
 -1      3796 2.38884E+01-2.46743E+00 7.54383E-03-2.08426E-01 3.84009E-13 2.76705E-13
 -1      3797 1.92324E+01-1.50879E+00 2.50434E-02 3.49916E+00 4.50464E-14 6.55396E-14
 -1      3798 2.03551E+01 5.47565E-01 4.03781E-04 7.46397E-02 5.92092E-14-2.49104E-13
 -1      3799 2.03266E+01 5.55674E-01-2.31504E-03 9.91502E-02 7.13941E-14-2.47377E-13
 -1      3800 2.34538E+01 4.72698E+00-2.27788E-02 4.83099E-01 6.16590E-14-1.38937E-13
 -1      3801 2.03669E+01 9.38860E-01 3.75441E-03 1.13624E-01 3.75410E-14-3.57656E-13
 -1      3802 2.03190E+01 1.14668E+00-3.36963E-03 1.33894E-01 6.54600E-14-3.69352E-13
 -1      3803 2.03176E+01 1.18267E+00-1.80650E-03 7.73437E-02 2.57486E-14-3.43920E-13
 -1      3804 2.03320E+01 6.89870E-01 2.93591E-03 1.68316E-01 1.18663E-13-2.60775E-13
 -1      3805 2.32087E+01-3.14037E+00-3.92860E-02 1.64484E+00 1.05400E-13 1.21013E-14
 -1      3806 2.27807E+01-3.20786E+00 3.49180E-02 2.52635E+00 3.76190E-14-3.58424E-14
 -1      3807 2.16758E+01-2.61544E+00-1.58936E-02 2.59732E+00 6.63740E-14-1.02312E-13
 -1      3808 2.03945E+01 3.64309E-01 6.38237E-04 3.52967E-04-7.42355E-14-2.44332E-13
 -1      3809 2.03821E+01 2.60847E-01-1.22408E-03 3.10339E-02-6.76986E-14-2.38963E-13
 -1      3810 2.03728E+01 1.76438E-01 7.23330E-04 4.62369E-02-5.21089E-14-2.30735E-13
 -1      3811 2.03534E+01 1.06524E-01-6.98675E-04 6.45124E-02-2.59368E-14-2.15451E-13
 -1      3812 2.03973E+01 2.39775E-01 3.38778E-04 2.72463E-02-5.15918E-14-2.04976E-13
 -1      3813 2.03358E+01 5.10773E-02 6.25357E-04 7.21883E-02-3.16676E-14-2.21291E-13
 -1      3814 2.03137E+01 6.35902E-03-2.93327E-04 8.13508E-02-5.86942E-14-2.04318E-13
 -1      3815 2.03659E+01 9.02828E-02-1.46029E-04 5.13975E-02-4.23965E-14-2.13636E-13
 -1      3816 2.02922E+01-2.79435E-02 5.22541E-04 8.37380E-02-6.14406E-14-2.25883E-13
 -1      3817 2.02700E+01-5.44894E-02-1.32308E-05 8.65625E-02-4.60898E-14-2.05885E-13
 -1      3818 2.03239E+01-6.08429E-03-3.98713E-04 6.33609E-02-5.06784E-14-1.55796E-13
 -1      3819 2.02474E+01-7.37394E-02 4.13936E-04 8.54564E-02-2.67771E-14-1.63317E-13
 -1      3820 2.02265E+01-8.75110E-02 1.66635E-04 8.41933E-02-1.43440E-14-1.37286E-13
 -1      3821 2.02781E+01-6.39390E-02-5.28698E-04 6.67081E-02-1.20091E-14-1.30918E-13
 -1      3822 2.02047E+01-9.63644E-02 3.14522E-04 8.10270E-02-2.64345E-14-9.37786E-14
 -1      3823 2.01861E+01-1.01475E-01 2.60972E-04 7.73773E-02-2.48768E-14-7.70193E-14
 -1      3824 2.02329E+01-9.45175E-02-5.66820E-04 6.44781E-02-5.90006E-16-6.82746E-14
 -1      3825 2.01661E+01-1.03342E-01 2.33370E-04 7.31315E-02-2.05099E-15-1.06118E-13
 -1      3826 2.01500E+01-1.02676E-01 3.11038E-04 6.83312E-02-7.15863E-15-5.09360E-14
 -1      3827 2.01910E+01-1.06469E-01-5.57041E-04 5.90419E-02 1.27028E-14-3.45502E-14
 -1      3828 2.01325E+01-1.00116E-01 1.66177E-04 6.38471E-02-4.64269E-14-4.60843E-14
 -1      3829 2.01189E+01-9.59340E-02 3.14891E-04 5.86976E-02-4.76285E-14-5.81077E-14
 -1      3830 2.01537E+01-1.06047E-01-5.16406E-04 5.19830E-02 4.27801E-16-7.39724E-14
 -1      3831 2.01039E+01-9.06173E-02 1.04612E-04 5.42922E-02-4.86532E-14-7.64956E-14
 -1      3832 2.00927E+01-8.42460E-02 3.05112E-04 4.93780E-02-3.22998E-14-8.61129E-14
 -1      3833 2.01217E+01-9.79423E-02-4.50406E-04 4.45985E-02-6.32506E-14-1.33525E-13
 -1      3834 2.00799E+01-7.73031E-02 5.60433E-05 4.54644E-02-2.63036E-14-1.30860E-13
 -1      3835 2.00708E+01-6.97093E-02 2.75799E-04 4.11646E-02-8.58013E-14-1.64988E-13
 -1      3836 2.00945E+01-8.50127E-02-3.78790E-04 3.74749E-02-5.53883E-14-1.79989E-13
 -1      3837 2.00601E+01-6.18489E-02 1.37794E-05 3.78980E-02-1.16963E-13-1.43249E-13
 -1      3838 2.00526E+01-5.35184E-02 2.45283E-04 3.44493E-02-9.03547E-14-1.68562E-13
 -1      3839 2.00718E+01-6.93247E-02-3.03586E-04 3.13084E-02-1.10417E-13-1.84339E-13
 -1      3840 2.00435E+01-4.51253E-02-2.74290E-05 3.20095E-02-4.28195E-14-1.10098E-13
 -1      3841 2.00373E+01-3.63701E-02 2.10214E-04 2.95703E-02-1.52846E-14-1.06421E-13
 -1      3842 2.00528E+01-5.20125E-02-2.30394E-04 2.63277E-02-3.70814E-14-1.30493E-13
 -1      3843 2.00294E+01-2.75837E-02-7.07906E-05 2.79890E-02-3.12755E-14-1.25464E-13
 -1      3844 2.00239E+01-1.84116E-02 1.82307E-04 2.66911E-02-4.13587E-14-1.08995E-13
 -1      3845 2.00367E+01-3.36890E-02-1.49108E-04 2.28551E-02-2.52219E-14-6.69176E-14
 -1      3846 2.00167E+01-9.19402E-03-1.17436E-04 2.61035E-02-1.14686E-14-1.62692E-13
 -1      3847 2.00116E+01 4.73043E-04 1.59350E-04 2.60884E-02 1.74006E-14-2.00651E-13
 -1      3848 2.00223E+01-1.44237E-02-7.56323E-05 2.09951E-02-4.50336E-14-1.23998E-13
 -1      3849 2.00044E+01 1.02246E-02-1.70365E-04 2.66346E-02 9.11679E-15-1.42581E-13
 -1      3850 1.99994E+01 2.05227E-02 1.45271E-04 2.80687E-02 1.12605E-13-1.99790E-13
 -1      3851 2.00087E+01 5.96058E-03 5.53272E-07 2.10695E-02 2.35856E-14-2.15152E-13
 -1      3852 1.99916E+01 3.09407E-02-2.33781E-04 2.99445E-02 7.43096E-14-2.27338E-13
 -1      3853 1.99862E+01 4.20027E-02 1.44517E-04 3.30528E-02 1.35412E-14-2.78261E-13
 -1      3854 1.99947E+01 2.77459E-02 7.68681E-05 2.33975E-02 1.38828E-14-1.85503E-13
 -1      3855 1.99774E+01 5.31686E-02-3.09508E-04 3.65544E-02 3.05363E-14-2.76497E-13
 -1      3856 1.99712E+01 6.50397E-02 1.63707E-04 4.16471E-02 2.21182E-16-2.84633E-13
 -1      3857 1.99793E+01 5.12372E-02 1.52175E-04 2.84676E-02 2.13398E-15-1.59733E-13
 -1      3858 1.99608E+01 7.68900E-02-3.98556E-04 4.72159E-02 5.03232E-14-2.45276E-13
 -1      3859 1.99536E+01 8.94141E-02 2.12044E-04 5.47192E-02 4.03468E-14-1.74237E-13
 -1      3860 1.99613E+01 7.65759E-02 2.22545E-04 3.70125E-02 7.88674E-14-1.51224E-13
 -1      3861 1.99411E+01 1.01616E-01-5.00724E-04 6.29834E-02-7.91045E-14-9.31247E-14
 -1      3862 1.99331E+01 1.14306E-01 3.03389E-04 7.34683E-02-1.65909E-14-1.36513E-13
 -1      3863 1.99398E+01 1.03525E-01 2.82395E-04 5.01076E-02 1.81997E-14-1.60246E-13
 -1      3864 1.99183E+01 1.26098E-01-6.11910E-04 8.53151E-02-1.00869E-13-2.24164E-13
 -1      3865 1.99097E+01 1.37945E-01 4.57293E-04 9.95280E-02-8.46218E-14-3.31708E-13
 -1      3866 1.99142E+01 1.31187E-01 3.16659E-04 6.92966E-02-1.31347E-13-1.91552E-13
 -1      3867 1.98927E+01 1.47926E-01-7.21605E-04 1.16171E-01 7.09882E-14-3.70270E-13
 -1      3868 1.98847E+01 1.57158E-01 6.99626E-04 1.35051E-01 1.19946E-13-2.71451E-13
 -1      3869 1.98843E+01 1.57625E-01 3.00904E-04 9.67562E-02-5.32757E-14-3.41414E-13
 -1      3870 1.98663E+01 1.63014E-01-8.07754E-04 1.58096E-01 1.27896E-13-2.45448E-13
 -1      3871 1.98609E+01 1.66790E-01 1.06137E-03 1.82760E-01 1.28076E-13-2.36185E-13
 -1      3872 1.98511E+01 1.79361E-01 1.95685E-04 1.35464E-01 1.27374E-13-2.61474E-13
 -1      3873 1.98430E+01 1.64974E-01-8.28879E-04 2.14224E-01 8.26258E-14-2.76576E-13
 -1      3874 1.98436E+01 1.59029E-01 1.57360E-03 2.45868E-01 1.10539E-13-1.82420E-13
 -1      3875 1.98171E+01 1.90714E-01-6.04770E-05 1.89340E-01 1.03154E-13-3.41654E-13
 -1      3876 1.98299E+01 1.44420E-01-7.12043E-04 2.88096E-01 1.36159E-13-2.17824E-13
 -1      3877 1.98420E+01 1.22699E-01 2.25913E-03 3.27744E-01 1.41717E-14-1.68490E-13
 -1      3878 1.97876E+01 1.83002E-01-5.61526E-04 2.63261E-01 1.12536E-13-2.62563E-13
 -1      3879 1.98388E+01 8.82532E-02-3.28988E-04 3.83125E-01-4.38592E-14-1.51054E-13
 -1      3880 1.98705E+01 4.25396E-02 3.10001E-03 4.31053E-01-9.14126E-14-6.97315E-14
 -1      3881 1.97719E+01 1.43603E-01-1.45185E-03 3.62817E-01 3.62921E-14-1.98666E-13
 -1      3882 1.98881E+01-2.07237E-02 5.05715E-04 5.01105E-01-1.06063E-13 6.94865E-14
 -1      3883 1.99507E+01-1.00625E-01 3.99890E-03 5.55832E-01-7.14490E-14 1.40387E-13
 -1      3884 1.97859E+01 5.51473E-02-2.88692E-03 4.93252E-01-4.17690E-15 9.75230E-14
 -1      3885 2.00050E+01-2.03232E-01 2.07632E-03 6.39784E-01-7.31609E-14 8.82195E-14
 -1      3886 2.01133E+01-3.28814E-01 4.75409E-03 6.96239E-01 6.46524E-14 6.05486E-14
 -1      3887 1.98536E+01-1.04897E-01-5.14064E-03 6.57336E-01-7.05400E-14 1.43344E-13
 -1      3888 2.02270E+01-4.81396E-01 4.74088E-03 7.88530E-01 8.90262E-14 2.01544E-14
 -1      3889 2.03988E+01-6.63610E-01 4.93002E-03 8.35102E-01 3.47305E-14 2.63549E-14
 -1      3890 2.00109E+01-3.62770E-01-8.39647E-03 8.51233E-01 9.66539E-15 7.04354E-14
 -1      3891 2.06045E+01-8.74915E-01 8.78364E-03 9.20195E-01 6.84579E-14-3.75730E-14
 -1      3892 2.08588E+01-1.11461E+00 4.52879E-03 9.32016E-01 1.02523E-13 4.20584E-15
 -1      3893 2.03079E+01-7.46233E-01-1.28811E-02 1.05935E+00 5.39717E-14-2.53329E-14
 -1      3894 2.11982E+01-1.37815E+00 1.64034E-02 9.83948E-01 2.91401E-14 1.08805E-13
 -1      3895 2.15614E+01-1.65734E+00 6.01476E-03 9.06023E-01 1.43731E-14 2.02522E-13
 -1      3896 2.08150E+01-1.26414E+00-1.49888E-02 1.24011E+00 1.38191E-13 1.37937E-13
 -1      3897 2.21750E+01-2.19385E+00 4.96448E-03 1.14264E+00 5.71496E-14 2.86700E-13
 -1      3898 2.26660E+01-2.45644E+00-1.34158E-03 9.78663E-01 2.23887E-13 2.07837E-13
 -1      3899 2.34013E+01-2.50922E+00-1.30096E-02 1.81437E-01 4.12483E-13 5.28722E-14
 -1      3900 2.02533E+01-4.80122E-02-6.37939E-05-1.03742E-01 2.90234E-14-2.82548E-13
 -1      3901 2.02748E+01-2.09065E-02 6.71549E-04-1.00266E-01 3.49567E-14-2.93162E-13
 -1      3902 2.00856E+01-8.21816E-02 3.23025E-04-5.99178E-02 7.30879E-14-1.91662E-13
 -1      3903 2.00961E+01-8.84097E-02 9.82765E-05-6.60116E-02 1.07723E-13-1.40818E-13
 -1      3904 2.00242E+01-1.94877E-02 2.05398E-04-3.24584E-02-6.18807E-14-2.40832E-13
 -1      3905 2.00285E+01-2.83494E-02-8.93749E-05-3.40460E-02-5.98557E-14-2.28041E-13
 -1      3906 2.00357E+01-3.67518E-02 2.34240E-04-3.60066E-02-5.21828E-14-2.36118E-13
 -1      3907 2.00408E+01-4.51319E-02-5.48335E-05-3.88956E-02-8.06034E-14-2.47021E-13
 -1      3908 2.00362E+01-3.45663E-02-1.43121E-04-2.98913E-02-7.22229E-14-2.58217E-13
 -1      3909 2.00030E+01 1.94075E-02 1.34585E-04-3.30873E-02 1.00958E-15-1.40978E-13
 -1      3910 2.00071E+01 8.83081E-03-1.80321E-04-3.17440E-02-6.62201E-14-1.87823E-13
 -1      3911 1.99908E+01 4.25201E-02 9.70386E-05-3.75390E-02 5.64928E-14-1.27222E-13
 -1      3912 1.99958E+01 3.04313E-02-2.40980E-04-3.45905E-02 8.97517E-14-1.31050E-13
 -1      3913 1.99982E+01 2.68177E-02 9.63796E-05-2.87979E-02 1.83509E-14-1.94181E-13
 -1      3914 1.99748E+01 7.09409E-02 2.96696E-05-4.52813E-02 3.95115E-14-1.70387E-14
 -1      3915 1.99817E+01 5.59945E-02-3.12730E-04-4.03836E-02 2.16073E-14-9.04116E-14
 -1      3916 1.99830E+01 5.29564E-02 2.02104E-04-3.28384E-02-1.27967E-14-1.08162E-13
 -1      3917 1.99541E+01 1.03461E-01-8.17493E-05-5.54708E-02 5.59835E-14 3.60092E-14
 -1      3918 1.99635E+01 8.63193E-02-3.95643E-04-4.91130E-02 8.59631E-14 9.50918E-14
 -1      3919 1.99638E+01 8.35998E-02 3.61291E-04-3.89165E-02 2.37385E-14 1.08715E-14
 -1      3920 1.99253E+01 1.42990E-01-2.43275E-04-6.79537E-02-5.21730E-14-8.01786E-14
 -1      3921 1.99390E+01 1.22143E-01-4.86085E-04-6.01083E-02 1.29235E-14-2.71120E-14
 -1      3922 1.99388E+01 1.19172E-01 5.40075E-04-4.63764E-02 6.58803E-14 2.65186E-14
 -1      3923 1.98848E+01 1.91524E-01-4.98940E-04-8.17089E-02-7.11962E-14-1.20617E-13
 -1      3924 1.99049E+01 1.65955E-01-5.88785E-04-7.28497E-02-4.66863E-14-1.34155E-13
 -1      3925 1.99048E+01 1.62006E-01 7.87628E-04-5.43564E-02 3.78977E-14-2.88500E-14
 -1      3926 1.98271E+01 2.51332E-01-9.02416E-04-9.47079E-02-2.06459E-13-5.50349E-14
 -1      3927 1.98568E+01 2.19918E-01-6.92204E-04-8.58218E-02-1.28425E-13-9.35412E-14
 -1      3928 1.98578E+01 2.13800E-01 1.12214E-03-6.10415E-02-9.58702E-14-5.93651E-15
 -1      3929 1.97452E+01 3.24865E-01-1.52820E-03-1.03296E-01-9.36184E-14 3.10217E-14
 -1      3930 1.97888E+01 2.86446E-01-7.78995E-04-9.62214E-02-1.55710E-13-1.36160E-14
 -1      3931 1.97930E+01 2.76298E-01 1.57334E-03-6.32532E-02-1.88653E-13-3.81902E-14
 -1      3932 1.96293E+01 4.14455E-01-2.47737E-03-1.01281E-01-1.83781E-14-9.28947E-14
 -1      3933 1.96930E+01 3.68025E-01-8.18096E-04-9.92030E-02-2.96040E-14-2.75152E-14
 -1      3934 1.97035E+01 3.51010E-01 2.17742E-03-5.57114E-02-2.22121E-14-7.93899E-14
 -1      3935 1.94661E+01 5.21610E-01-3.89238E-03-7.86719E-02 2.35784E-14-6.53800E-14
 -1      3936 1.95585E+01 4.66760E-01-7.56904E-04-8.68228E-02-2.47070E-14-6.78419E-14
 -1      3937 1.95808E+01 4.38670E-01 2.97473E-03-3.00017E-02 2.24072E-14-1.66208E-13
 -1      3938 1.92381E+01 6.45326E-01-6.16537E-03-2.00265E-02 3.86618E-14 5.43441E-14
 -1      3939 1.93713E+01 5.83246E-01-5.46922E-04-4.64982E-02 4.39332E-14-2.54842E-15
 -1      3940 1.94141E+01 5.38106E-01 4.00917E-03 2.67487E-02-6.51568E-15-5.95747E-14
 -1      3941 1.89050E+01 7.87907E-01-9.13826E-03 1.06350E-01 4.29848E-14 8.52882E-14
 -1      3942 1.91057E+01 7.18881E-01 1.97959E-04 4.41509E-02 1.04080E-13 8.90875E-14
 -1      3943 1.91833E+01 6.47782E-01 5.50296E-03 1.37679E-01 4.02826E-14 2.18569E-13
 -1      3944 1.84686E+01 9.20758E-01-1.31127E-02 3.23901E-01 2.26369E-14-5.12134E-15
 -1      3945 1.87400E+01 8.60593E-01 1.15874E-03 2.13838E-01 1.88078E-14 1.06863E-13
 -1      3946 1.88765E+01 7.51128E-01 6.95551E-03 3.31428E-01 2.69602E-14 1.88851E-13
 -1      3947 1.78837E+01 1.02137E+00-1.76846E-02 6.85255E-01 2.59287E-14 4.33644E-14
 -1      3948 1.82599E+01 9.84319E-01 3.20478E-03 4.98625E-01 7.86456E-14 3.35426E-14
 -1      3949 1.84880E+01 8.22219E-01 8.66103E-03 6.41763E-01 8.30527E-14 1.85380E-13
 -1      3950 1.71100E+01 1.03483E+00-2.01044E-02 1.25469E+00 1.87537E-13-8.73004E-14
 -1      3951 1.76262E+01 1.05416E+00 7.44314E-03 9.50373E-01 1.06503E-13-1.20410E-14
 -1      3952 1.79905E+01 8.23349E-01 8.68074E-03 1.12829E+00 1.45303E-13 9.74299E-14
 -1      3953 1.64192E+01 6.88198E-01-1.30803E-02 2.28326E+00 1.66625E-14-6.47616E-15
 -1      3954 1.69823E+01 9.19706E-01 2.48642E-02 1.69164E+00 9.10130E-14 2.38091E-15
 -1      3955 1.75040E+01 5.76410E-01-7.09005E-03 1.88273E+00 1.42284E-13 1.26654E-14
 -1      3956 1.72859E+01-9.94679E-02-3.69626E-02 2.93609E+00 1.22615E-14 3.13835E-13
 -1      3957 2.03294E+01 9.38611E-01 1.59266E-04 2.14932E-01 8.74772E-14-3.32647E-13
 -1      3958 2.03581E+01 7.90987E-01 9.77928E-04 1.36874E-01 4.60744E-14-3.00776E-13
 -1      3959 2.03637E+01 2.77057E-01-1.42202E-03-3.00802E-02 5.74135E-14-3.03788E-13
 -1      3960 2.03779E+01 3.83312E-01 1.12427E-03 7.44166E-03 6.12447E-14-2.74448E-13
 -1      3961 2.03713E+01 4.91071E-01-1.70048E-03 3.72943E-02 4.32561E-14-2.85217E-13
 -1      3962 2.03751E+01 6.38280E-01 7.06306E-04 9.33739E-02 4.19149E-14-2.86019E-13
 -1      3963 2.03746E+01 7.32070E-01-2.14613E-04 9.72661E-02 2.42110E-14-3.43878E-13
 -1      3964 2.03931E+01 4.69436E-01 7.92368E-04 2.22605E-02 4.06653E-14-3.33362E-13
 -1      3965 2.39072E+01 5.50359E+00 3.45034E-03 1.30436E-01 2.46539E-14-2.58352E-13
 -1      3966 2.00136E+01-9.67603E-04 1.71914E-04-3.14322E-02-6.29983E-14-1.87060E-13
 -1      3967 2.00176E+01-1.05198E-02-1.32273E-04-3.16037E-02-5.57476E-14-2.22020E-13
 -1      3968 2.00110E+01 4.42566E-03 5.02456E-06-2.70273E-02-7.54332E-14-1.96967E-13
 -1      3969 2.03884E+01 6.35987E-01 1.72761E-04-6.99337E-02-4.22671E-14-3.11782E-13
 -1      3970 2.03903E+01 4.88694E-01-1.39279E-03-2.41297E-02-3.86207E-14-2.68895E-13
 -1      3971 2.04086E+01 4.58308E-01 6.56155E-04-1.26878E-02-3.79966E-14-2.83353E-13
 -1      3972 2.03229E+01 8.42829E-01-2.19279E-03 2.37994E-01 1.24892E-13-2.86823E-13
 -1      3973 2.03152E+01 1.19675E+00-2.73801E-03 3.14052E-02 2.69970E-14-3.35026E-13
 -1      3974 2.03176E+01 1.20243E+00-8.39219E-04-2.77432E-02-1.38778E-14-3.40658E-13
 -1      3975 2.03699E+01 9.96802E-01 4.20475E-03 3.97340E-02 3.75302E-14-3.24364E-13
 -1      3976 2.00783E+01-1.78488E+00-2.55842E-02 3.01534E+00 5.79836E-14-1.40542E-13
 -1      3977 1.84973E+01-7.46653E-01 3.27245E-02 3.16790E+00-3.10307E-14 2.82949E-13
 -1      3978 2.02956E+01 1.41531E-02-4.11168E-04-9.63967E-02 1.58239E-14-3.03151E-13
 -1      3979 2.03179E+01 6.02523E-02 8.76945E-04-8.51053E-02-3.27985E-16-2.88056E-13
 -1      3980 2.03118E+01 2.76010E-03-4.09238E-04-7.97752E-02 2.22977E-14-3.30439E-13
 -1      3981 2.02119E+01-8.19468E-02 1.45989E-04-1.01513E-01-1.76515E-15-2.47605E-13
 -1      3982 2.02316E+01-6.76472E-02 4.90454E-04-1.02930E-01 2.47562E-14-2.69474E-13
 -1      3983 2.02671E+01-5.74126E-02-5.25902E-04-8.48869E-02 1.60992E-14-2.47519E-13
 -1      3984 2.03346E+01 1.16861E-01-9.13480E-04-7.40848E-02-2.04676E-15-2.95122E-13
 -1      3985 2.03553E+01 1.89863E-01 1.01855E-03-5.12060E-02 2.10282E-14-2.80024E-13
 -1      3986 2.03842E+01 2.58773E-01 2.74535E-04-2.94050E-02 3.29271E-14-3.29196E-13
 -1      3987 2.03532E+01 1.03219E-01-1.56702E-04-6.29103E-02 3.31703E-16-2.85375E-13
 -1      3988 2.17118E+01-2.09567E+00-8.04408E-03 1.60488E+00 1.48117E-13 3.42073E-13
 -1      3989 1.84432E+01-3.24732E-01 3.22493E-02 2.59962E+00-4.28756E-14 1.78428E-13
 -1      3990 2.01154E+01-9.62146E-02-6.05807E-04-5.77236E-02 1.02425E-13-1.53130E-13
 -1      3991 2.01103E+01-9.31394E-02 3.39715E-04-7.12854E-02 9.12806E-14-1.31033E-13
 -1      3992 2.01229E+01-9.68700E-02 2.59843E-04-7.71489E-02 1.14172E-13-1.59069E-13
 -1      3993 2.00509E+01-5.22595E-02-2.26126E-04-3.43285E-02-6.51004E-14-2.21626E-13
 -1      3994 2.00492E+01-5.30770E-02 2.67362E-04-4.19255E-02-7.03429E-14-2.05551E-13
 -1      3995 2.00554E+01-6.09514E-02-1.75059E-05-4.59911E-02 3.32717E-14-2.52673E-13
 -1      3996 2.03813E+01 7.68315E-01-1.07683E-03 7.23231E-02 1.83320E-14-3.47270E-13
 -1      3997 2.01737E+01-9.67778E-02 2.97157E-04-9.36674E-02 3.87277E-14-2.56687E-13
 -1      3998 2.01909E+01-9.12234E-02 3.44223E-04-9.79392E-02-3.71521E-15-2.48673E-13
 -1      3999 2.02235E+01-8.95046E-02-5.53063E-04-8.25011E-02 2.14255E-14-2.28179E-13
 -1      4000 2.03606E+01 8.86921E-01-1.73014E-03-1.28196E-01-6.41241E-14-3.28809E-13
 -1      4001 2.03752E+01 7.55944E-01-7.01294E-04-9.15527E-02-6.36977E-14-3.27509E-13
 -1      4002 2.03931E+01 7.14673E-01 1.29913E-03-5.97963E-02-2.20670E-14-3.33459E-13
 -1      4003 2.03118E+01 1.17532E+00-1.16876E-03-1.88698E-01-7.72373E-14-3.84689E-13
 -1      4004 2.03429E+01 1.01624E+00 9.70274E-04-1.47532E-01-7.55781E-14-3.56394E-13
 -1      4005 2.03595E+01 9.48797E-01-1.27103E-03-9.82859E-02-4.46672E-14-3.55539E-13
 -1      4006 2.03083E+01 1.21990E+00-1.06556E-04-1.45707E-01-6.06957E-14-4.01587E-13
 -1      4007 2.00232E+01-1.58239E-02-7.47484E-05-2.74114E-02-1.03940E-13-2.71572E-13
 -1      4008 2.00736E+01-7.56986E-02 2.50251E-05-5.51284E-02 4.71403E-14-2.15215E-13
 -1      4009 2.00902E+01-8.40689E-02-3.62567E-04-4.85981E-02 1.00645E-13-2.28351E-13
 -1      4010 2.00657E+01-6.85242E-02 3.00097E-04-5.00578E-02 8.76613E-14-2.77950E-13
 -1      4011 2.03053E+01 1.23919E+00-1.81339E-03-9.72656E-02-5.11309E-14-4.06763E-13
 -1      4012 2.14324E+01-2.06948E+00 4.47722E-03 2.02032E+00 2.01437E-13 3.99677E-14
 -1      4013 2.08194E+01-1.90423E+00 2.67673E-02 2.59290E+00 1.71328E-13-1.02899E-13
 -1      4014 1.99611E+01-1.29254E+00-1.93118E-02 2.42532E+00 7.65275E-14 7.54605E-16
 -1      4015 2.08480E+01-1.51203E+00-9.71286E-03 1.68209E+00 2.10474E-13 1.31368E-13
 -1      4016 2.03557E+01 1.05030E+00 3.02720E-03-5.80501E-02-1.66738E-14-3.47932E-13
 -1      4017 2.04064E+01 4.36294E-01-1.77070E-03 6.38581E-03 2.23396E-14-3.21276E-13
 -1      4018 2.04080E+01 5.58003E-01 1.42916E-03 3.70294E-02 2.24645E-14-3.26320E-13
 -1      4019 2.03902E+01 1.24120E-01 2.15271E-04 2.99892E-02-3.15970E-14-2.18721E-13
 -1      4020 2.03715E+01 6.32897E-02 4.04837E-05 4.04366E-02-4.43632E-14-1.92000E-13
 -1      4021 2.03504E+01 1.42094E-02 3.00846E-04 4.10358E-02-3.41566E-14-1.64627E-13
 -1      4022 2.03282E+01-2.37415E-02 2.39490E-04 4.63614E-02-1.58402E-14-1.26658E-13
 -1      4023 2.03702E+01 4.30449E-02-9.42888E-04 2.17009E-02-8.20543E-15-2.09295E-13
 -1      4024 2.03044E+01-5.32722E-02 3.38208E-04 4.52921E-02-1.54055E-14-1.14609E-13
 -1      4025 2.02814E+01-7.47870E-02 3.47836E-04 4.70368E-02 1.73779E-14-9.49207E-14
 -1      4026 2.03250E+01-3.79386E-02-1.16696E-03 2.47817E-02 3.77505E-15-1.53185E-13
 -1      4027 2.02574E+01-9.04991E-02 3.29437E-04 4.50040E-02 2.40527E-14-1.13805E-13
 -1      4028 2.02354E+01-1.00561E-01 3.73963E-04 4.44057E-02 1.26268E-14-1.04986E-13
 -1      4029 2.02773E+01-8.42961E-02-1.18247E-03 2.51869E-02-2.14806E-15-1.15309E-13
 -1      4030 2.02128E+01-1.06822E-01 2.77896E-04 4.18508E-02 9.74635E-15-9.04061E-14
 -1      4031 2.01925E+01-1.09235E-01 2.54643E-04 3.97155E-02 3.69060E-14-9.33666E-14
 -1      4032 2.02315E+01-1.06130E-01-8.51219E-04 2.40723E-02 1.54372E-14-1.48099E-13
 -1      4033 2.01725E+01-1.08803E-01 2.77819E-04 3.77038E-02 2.44968E-14-1.16667E-13
 -1      4034 2.01553E+01-1.06336E-01 4.41222E-04 3.51407E-02-2.90022E-14-1.40556E-13
 -1      4035 2.01879E+01-1.11488E-01-7.76910E-04 2.17422E-02 2.31287E-14-1.38262E-13
 -1      4036 2.01374E+01-1.02497E-01 1.85307E-04 3.23419E-02-6.00418E-14-1.71144E-13
 -1      4037 2.01226E+01-9.68060E-02 3.27192E-04 2.95337E-02-4.75646E-14-1.56148E-13
 -1      4038 2.01517E+01-1.08245E-01-7.90513E-04 1.83523E-02-4.28826E-14-1.76708E-13
 -1      4039 2.01075E+01-9.02056E-02 1.89864E-04 2.73330E-02-7.26539E-14-1.16522E-13
 -1      4040 2.00950E+01-8.27286E-02 2.87104E-04 2.47070E-02-1.03804E-13-1.32492E-13
 -1      4041 2.01189E+01-9.68320E-02-7.59049E-04 1.56122E-02-4.89364E-14-1.37051E-13
 -1      4042 2.00823E+01-7.48351E-02 1.23788E-04 2.28048E-02-8.26276E-14-1.05730E-13
 -1      4043 2.00718E+01-6.63541E-02 1.84550E-04 2.04867E-02-4.95012E-14-4.25118E-14
 -1      4044 2.00920E+01-8.14200E-02-4.73478E-04 1.32206E-02-8.33745E-14-3.64282E-14
 -1      4045 2.00611E+01-5.74590E-02 8.33530E-05 1.91937E-02-1.92107E-14-3.23898E-14
 -1      4046 2.00525E+01-4.83215E-02 2.27733E-04 1.75076E-02-8.08033E-15-2.17721E-14
 -1      4047 2.00687E+01-6.37677E-02-3.78259E-04 1.10853E-02-1.42039E-14 3.60602E-14
 -1      4048 2.00432E+01-3.91557E-02 1.21612E-05 1.63304E-02-5.30179E-14 1.34771E-14
 -1      4049 2.00357E+01-2.94950E-02 1.57870E-04 1.52419E-02-3.28273E-14-6.11600E-15
 -1      4050 2.00499E+01-4.54238E-02-2.79531E-04 9.19958E-03-1.02449E-14-1.42458E-14
 -1      4051 2.00274E+01-1.96923E-02-2.64628E-05 1.46726E-02-8.87019E-14 3.79537E-14
 -1      4052 2.00205E+01-9.49752E-03 1.28185E-04 1.43629E-02-1.03108E-13-2.21417E-14
 -1      4053 2.00328E+01-2.54099E-02-1.85936E-04 8.17545E-03-6.83096E-14-1.99081E-15
 -1      4054 2.00125E+01 8.57172E-04-9.37972E-05 1.43604E-02-1.97810E-14-8.33741E-14
 -1      4055 2.00059E+01 1.17581E-02 1.04532E-04 1.49626E-02 5.51782E-14-8.06248E-14
 -1      4056 2.00172E+01-4.25385E-03-4.44997E-05 7.99006E-03-7.97425E-14 6.04314E-14
 -1      4057 1.99975E+01 2.28668E-02-1.71882E-04 1.56665E-02 2.38644E-14-1.31977E-13
 -1      4058 1.99904E+01 3.46931E-02 9.44128E-05 1.73777E-02 3.05469E-14-1.32239E-13
 -1      4059 2.00018E+01 1.84145E-02 1.03585E-04 8.81864E-03-1.87653E-14-5.05651E-14
 -1      4060 1.99810E+01 4.67464E-02-2.67243E-04 1.90271E-02 4.76517E-14-1.12493E-13
 -1      4061 1.99731E+01 5.96995E-02 1.03205E-04 2.21420E-02 1.65111E-14-7.71521E-14
 -1      4062 1.99851E+01 4.30775E-02 2.58611E-04 1.10461E-02 2.25494E-14-1.20319E-13
 -1      4063 1.99618E+01 7.28506E-02-3.80525E-04 2.50922E-02 2.23083E-14-8.14063E-14
 -1      4064 1.99525E+01 8.70496E-02 1.46226E-04 3.00654E-02 7.01274E-14-1.03361E-13
 -1      4065 1.99657E+01 7.01283E-02 3.97924E-04 1.52918E-02 1.78268E-14-1.13529E-13
 -1      4066 1.99386E+01 1.01246E-01-5.24508E-04 3.48995E-02 1.89556E-14-1.83738E-13
 -1      4067 1.99277E+01 1.16602E-01 2.32792E-04 4.23652E-02-4.25144E-14-1.85194E-13
 -1      4068 1.99423E+01 9.99473E-02 5.36449E-04 2.24800E-02-6.46675E-15-1.30818E-13
 -1      4069 1.99103E+01 1.31549E-01-7.01119E-04 4.99682E-02-1.18390E-13-2.13262E-13
 -1      4070 1.98977E+01 1.47626E-01 3.91602E-04 6.08608E-02-1.39803E-13-2.17644E-13
 -1      4071 1.99133E+01 1.32442E-01 6.54636E-04 3.40674E-02-1.37138E-13-2.49989E-13
 -1      4072 1.98761E+01 1.62550E-01-9.15095E-04 7.25350E-02-1.19144E-13-2.15198E-13
 -1      4073 1.98621E+01 1.78366E-01 6.58826E-04 8.81767E-02-5.97734E-15-1.48826E-13
 -1      4074 1.98775E+01 1.66863E-01 7.16635E-04 5.22723E-02-1.28400E-13-2.07228E-13
 -1      4075 1.98360E+01 1.91790E-01-1.16456E-03 1.05801E-01 6.65064E-14-1.36734E-13
 -1      4076 1.98216E+01 2.05535E-01 1.08410E-03 1.28008E-01 6.59806E-14-2.31428E-13
 -1      4077 1.98338E+01 2.01386E-01 6.65697E-04 8.03608E-02 2.03708E-14-7.89451E-14
 -1      4078 1.97910E+01 2.14956E-01-1.43521E-03 1.54210E-01 1.14460E-13-2.15905E-13
 -1      4079 1.97785E+01 2.23618E-01 1.73155E-03 1.85380E-01 1.53734E-13-1.68967E-13
 -1      4080 1.97822E+01 2.32531E-01 4.09150E-04 1.23024E-01 7.42847E-14-1.05863E-13
 -1      4081 1.97445E+01 2.25079E-01-1.68877E-03 2.23694E-01 9.76701E-14-1.48650E-13
 -1      4082 1.97378E+01 2.23938E-01 2.65836E-03 2.66817E-01 3.96984E-14-1.38292E-13
 -1      4083 1.97237E+01 2.54346E-01-2.06139E-04 1.86770E-01 9.08145E-14-3.98880E-14
 -1      4084 1.97032E+01 2.11718E-01-1.78877E-03 3.21696E-01 1.25377E-14-2.05086E-13
 -1      4085 1.97088E+01 1.93731E-01 3.99041E-03 3.80315E-01 7.29208E-14-1.20068E-13
 -1      4086 1.96623E+01 2.57161E-01-1.47562E-03 2.80187E-01-1.15519E-14-6.78985E-14
 -1      4087 1.96795E+01 1.58963E-01-1.67484E-03 4.56913E-01 5.90938E-14-1.46501E-13
 -1      4088 1.97074E+01 1.14274E-01 5.65908E-03 5.33969E-01-3.09874E-14-4.61157E-14
 -1      4089 1.96061E+01 2.25974E-01-3.92688E-03 4.14344E-01 2.65363E-14-7.01102E-14
 -1      4090 1.96942E+01 4.57651E-02-1.01783E-03 6.37906E-01-5.92830E-15 4.06256E-14
 -1      4091 1.97596E+01-3.91589E-02 7.65516E-03 7.35014E-01 7.21571E-14 7.83270E-14
 -1      4092 1.95704E+01 1.41099E-01-7.55134E-03 6.01472E-01 4.45144E-14-1.33338E-13
 -1      4093 1.97813E+01-1.56695E-01 5.14622E-04 8.69496E-01 6.53083E-15 8.57133E-14
 -1      4094 1.99035E+01-2.98607E-01 9.22000E-03 9.83932E-01-9.61476E-14 6.76268E-14
 -1      4095 1.95829E+01-2.75534E-02-1.29454E-02 8.54139E-01 4.22144E-14 1.77048E-14
 -1      4096 1.99898E+01-4.81440E-01 3.43433E-03 1.14461E+00-5.59766E-14 1.46260E-13
 -1      4097 2.01907E+01-6.99349E-01 8.55181E-03 1.26504E+00 9.95488E-14 1.43426E-13
 -1      4098 1.96946E+01-3.14149E-01-1.74489E-02 1.18007E+00-2.25396E-14 4.75938E-14
 -1      4099 2.03379E+01-9.21055E-01 4.59614E-03 1.42373E+00 2.18444E-13 1.15325E-13
 -1      4100 2.06535E+01-1.20247E+00 1.13972E-02 1.52305E+00 2.33312E-13 2.20466E-13
 -1      4101 2.03013E+01-1.16742E+00-5.07989E-03 1.88459E+00 1.76185E-13 7.83383E-14
 -1      4102 1.99097E+01-6.83319E-01-1.65642E-02 1.52303E+00 1.18851E-13 2.04558E-13
 -1      4103 1.89889E+01-5.90368E-01-1.75160E-02 2.36048E+00-2.82734E-14 1.54285E-13
 -1      4104 1.80888E+01 1.21043E-01 7.00694E-03 2.19590E+00 2.76675E-14 2.10332E-13
 -1      4105 2.33598E+01-2.84083E+00 1.02568E-02 1.09695E+00 2.19058E-13 1.42719E-13
 -1      4106 2.02754E+01-6.88008E-02 1.34910E-04-6.58000E-02-2.34563E-14-2.67171E-13
 -1      4107 2.02988E+01-4.55739E-02 6.67749E-04-6.37052E-02-1.00303E-14-3.00853E-13
 -1      4108 2.04169E+01 5.35749E-01 4.46551E-06-2.19625E-02-2.49482E-15-3.10745E-13
 -1      4109 2.04174E+01 4.02806E-01-9.72730E-04 2.03688E-03-2.13896E-14-2.73859E-13
 -1      4110 1.99534E+01 9.25467E-02-2.24418E-04-3.03015E-02 2.12165E-16-8.64784E-14
 -1      4111 1.99644E+01 7.64334E-02-2.22567E-04-2.72903E-02 1.04232E-14-9.70080E-14
 -1      4112 1.99759E+01 6.07184E-02-9.37529E-05-2.60983E-02 4.27371E-14-8.77937E-14
 -1      4113 1.99846E+01 4.62376E-02-1.82649E-04-2.37331E-02 1.24686E-15-1.09723E-13
 -1      4114 1.99682E+01 7.06655E-02 3.67211E-04-1.76672E-02 3.45226E-14-8.88146E-14
 -1      4115 1.99936E+01 3.34071E-02 8.53561E-06-2.29215E-02-3.33958E-14-8.85933E-14
 -1      4116 2.00004E+01 2.13002E-02-1.36196E-04-2.15729E-02-7.29687E-15-1.48413E-13
 -1      4117 1.99879E+01 4.14646E-02 2.00506E-04-1.62247E-02-8.32683E-15-9.86844E-14
 -1      4118 1.99244E+01 1.29128E-01-4.11882E-04-3.46471E-02 3.68821E-14-1.28610E-13
 -1      4119 1.99395E+01 1.10195E-01-2.58796E-04-3.13056E-02 5.50404E-14-9.94344E-14
 -1      4120 1.99433E+01 1.04338E-01 5.42911E-04-1.89323E-02 1.17643E-15-2.20221E-13
 -1      4121 1.98854E+01 1.72406E-01-6.89402E-04-3.78059E-02 8.97824E-15-2.35114E-14
 -1      4122 1.99063E+01 1.50093E-01-2.73377E-04-3.48541E-02 6.87349E-15-7.29450E-14
 -1      4123 1.99115E+01 1.42540E-01 7.34327E-04-1.87918E-02-4.57981E-14-1.38946E-13
 -1      4124 1.98326E+01 2.23526E-01-1.09740E-03-3.73240E-02-1.12590E-13 8.37742E-14
 -1      4125 1.98618E+01 1.97357E-01-2.46956E-04-3.60411E-02 4.09578E-15 5.45238E-14
 -1      4126 1.98696E+01 1.86775E-01 9.24488E-04-1.52916E-02-6.10019E-14-4.18638E-16
 -1      4127 1.97612E+01 2.83321E-01-1.69241E-03-2.91537E-02-9.57094E-14-7.01324E-14
 -1      4128 1.98019E+01 2.53050E-01-1.45137E-04-3.16831E-02-1.33808E-13 1.37879E-14
 -1      4129 1.98141E+01 2.37442E-01 1.08863E-03-5.18869E-03 5.35782E-15 3.79447E-14
 -1      4130 1.96651E+01 3.51895E-01-2.54690E-03-6.85902E-03 5.28992E-14-1.84677E-13
 -1      4131 1.97215E+01 3.17759E-01 8.55352E-05-1.66460E-02 1.63553E-14-8.54369E-14
 -1      4132 1.97411E+01 2.94173E-01 1.17955E-03 1.66208E-02 4.78985E-14-2.04643E-15
 -1      4133 1.95370E+01 4.27888E-01-3.75173E-03 3.94378E-02 7.12018E-14-2.76963E-13
 -1      4134 1.96147E+01 3.91046E-01 5.25640E-04 1.70616E-02 2.29767E-14-2.30086E-13
 -1      4135 1.96462E+01 3.55213E-01 1.11450E-03 5.79184E-02 3.03110E-14-1.40711E-13
 -1      4136 1.93682E+01 5.06939E-01-5.57519E-03 1.24142E-01-5.42855E-14-8.37672E-14
 -1      4137 1.94743E+01 4.70589E-01 1.31326E-03 8.14589E-02 2.31996E-14-1.59690E-13
 -1      4138 1.95247E+01 4.16423E-01 7.62611E-04 1.30223E-01-3.70573E-14-1.29888E-13
 -1      4139 1.91385E+01 5.83824E-01-7.69430E-03 2.78228E-01 2.94611E-14 6.18447E-14
 -1      4140 1.92883E+01 5.51587E-01 2.68909E-03 1.97612E-01-5.91918E-14-2.89452E-14
 -1      4141 1.93679E+01 4.70774E-01-1.49213E-04 2.53675E-01-1.06912E-13-1.46147E-13
 -1      4142 1.88617E+01 6.32865E-01-9.98089E-03 5.17298E-01 7.54205E-14 8.15003E-14
 -1      4143 1.90508E+01 6.19256E-01 4.71037E-03 3.90505E-01 1.30343E-13 8.95241E-14
 -1      4144 1.91771E+01 4.99730E-01-2.20071E-03 4.50422E-01-6.16716E-15-1.53672E-13
 -1      4145 1.85277E+01 6.25706E-01-1.21771E-02 8.86798E-01 1.87275E-14 1.17282E-13
 -1      4146 1.87685E+01 6.47393E-01 8.13044E-03 6.86910E-01 4.23941E-14 1.28935E-13
 -1      4147 1.89617E+01 4.78480E-01-5.25337E-03 7.43569E-01 5.58607E-14-1.03381E-13
 -1      4148 1.82424E+01 3.54887E-01 2.19212E-02 1.74007E+00 1.58501E-13 1.50344E-13
 -1      4149 2.03895E+01 8.11047E-01-1.14086E-03 4.50901E-02 2.79816E-14-3.20236E-13
 -1      4150 2.03889E+01 8.26403E-01-1.62059E-03 1.25589E-02 1.06466E-14-3.15938E-13
 -1      4151 2.01400E+01-9.93198E-02 3.31346E-04-8.32373E-02 5.11811E-14-1.62094E-13
 -1      4152 2.01544E+01-9.93547E-02 1.65683E-04-8.89433E-02 3.50068E-14-2.30765E-13
 -1      4153 2.01827E+01-1.02551E-01-5.97755E-04-7.59206E-02 1.69274E-15-2.51974E-13
 -1      4154 2.00363E+01-3.08478E-02 1.83927E-04-2.25599E-02-1.34191E-13-1.18306E-13
 -1      4155 2.00431E+01-4.02160E-02 1.46578E-05-2.40553E-02-3.19934E-14-1.43124E-13
 -1      4156 2.00083E+01 9.96420E-03 8.26373E-05-2.12430E-02-6.22733E-14-1.23929E-13
 -1      4157 2.00144E+01-9.29366E-04-9.08992E-05-2.08478E-02-9.97288E-14-1.28028E-13
 -1      4158 2.00041E+01 1.63234E-02 3.73168E-05-1.52972E-02-6.56633E-14-1.10170E-13
 -1      4159 2.04171E+01 2.91928E-01 5.02019E-04 9.86828E-03-3.10526E-14-2.45138E-13
 -1      4160 2.04047E+01 1.99491E-01-3.82711E-04 2.67945E-02-1.88076E-14-2.21715E-13
 -1      4161 2.04240E+01 3.62438E-01-1.28148E-04 2.45479E-03 1.66696E-14-2.90912E-13
 -1      4162 2.03211E+01-1.48451E-02-1.48680E-04-6.39162E-02 1.31518E-14-3.14761E-13
 -1      4163 2.03448E+01 2.61640E-02 8.11801E-04-5.69914E-02 4.74025E-15-3.34047E-13
 -1      4164 2.03238E+01-2.84575E-02-1.26106E-03-4.45860E-02-6.27531E-15-2.93577E-13
 -1      4165 2.00221E+01-1.12113E-02 1.43466E-04-2.11096E-02-1.40640E-13-1.22630E-13
 -1      4166 2.00282E+01-2.12552E-02-4.59025E-05-2.16611E-02-1.39886E-13-1.79399E-13
 -1      4167 2.00189E+01-6.35472E-03-1.13239E-04-1.51849E-02-9.93488E-14-8.42627E-14
 -1      4168 2.04179E+01 6.75613E-01 3.01387E-03 9.31376E-04-1.19533E-15-3.21472E-13
 -1      4169 2.03889E+01 8.26479E-01-2.03425E-03-1.04271E-02 1.64602E-14-3.33063E-13
 -1      4170 2.04101E+01 6.31576E-01 4.23815E-05-2.70805E-02-5.77873E-15-3.19535E-13
 -1      4171 2.04178E+01 5.73434E-01-7.77322E-04-1.33891E-02 1.12477E-14-3.08217E-13
 -1      4172 2.02526E+01-8.52437E-02 5.28145E-04-6.36641E-02 1.54329E-14-2.63064E-13
 -1      4173 2.02765E+01-7.88088E-02-1.35347E-03-4.56782E-02-2.75072E-15-3.54045E-13
 -1      4174 2.02307E+01-9.65333E-02 2.63801E-04-6.26760E-02 3.43898E-14-2.72285E-13
 -1      4175 2.03942E+01 2.21539E-01-1.33609E-03-3.26150E-02 1.84193E-14-3.24686E-13
 -1      4176 2.04079E+01 3.20807E-01 8.25337E-04-9.96171E-03 2.92738E-14-3.39280E-13
 -1      4177 2.04188E+01 4.03257E-01 3.60498E-04 1.57525E-03 4.37503E-14-3.01393E-13
 -1      4178 2.01203E+01-9.61736E-02 3.82963E-04-4.24678E-02 8.78146E-14-1.70932E-13
 -1      4179 2.01351E+01-1.01469E-01 4.52083E-04-4.66911E-02 6.68837E-14-1.91005E-13
 -1      4180 2.00520E+01-4.92890E-02 1.82565E-04-2.55112E-02-1.47498E-14-1.68843E-13
 -1      4181 2.00599E+01-5.81818E-02 2.02001E-05-2.78742E-02-6.39232E-14-1.20458E-13
 -1      4182 2.00504E+01-4.63373E-02-6.58440E-05-1.78410E-02-4.80831E-14-4.74549E-14
 -1      4183 2.03686E+01 5.87864E-02-9.56473E-04-3.81906E-02 1.89318E-14-3.20091E-13
 -1      4184 2.03633E+01 7.70790E-02-5.59888E-04-5.40670E-02 2.41464E-14-3.18461E-13
 -1      4185 2.03844E+01 1.42702E-01 1.01698E-03-4.01831E-02 1.49411E-14-3.22471E-13
 -1      4186 2.04066E+01 1.71795E-01-5.09004E-04 1.45088E-02-1.50241E-14-2.44139E-13
 -1      4187 2.04006E+01 7.54165E-01 2.22997E-03-4.50031E-02-8.20318E-15-3.39943E-13
 -1      4188 2.01475E+01-1.04060E-01-5.91443E-04-6.74432E-02 5.13254E-14-1.89808E-13
 -1      4189 1.81639E+01 5.22311E-01-4.82718E-03 1.44632E+00 2.67966E-13 6.97034E-14
 -1      4190 1.84488E+01 5.93728E-01 1.41702E-02 1.13380E+00 1.76910E-13 8.63150E-14
 -1      4191 1.87336E+01 3.64091E-01-1.01972E-02 1.17093E+00 1.23472E-13-4.76153E-14
 -1      4192 2.00687E+01-6.89874E-02-2.97363E-04-4.06971E-02 3.44009E-14-1.97944E-13
 -1      4193 2.00339E+01-2.72459E-02-2.38505E-04-1.60237E-02-7.57503E-14-2.12758E-14
 -1      4194 2.00097E+01-9.96959E-01 6.04073E-03 2.00969E+00 8.25415E-14 1.65676E-14
 -1      4195 1.94548E+01-7.74307E-01 1.32929E-02 2.30569E+00-1.66553E-14-1.69276E-15
 -1      4196 1.91231E+01-3.38249E-01 4.70987E-03 1.96034E+00 7.60559E-14 1.40968E-13
 -1      4197 1.97651E+01-7.20122E-01-3.57759E-03 1.81698E+00 4.52818E-14 1.65694E-13
 -1      4198 2.03945E+01 7.38586E-01-3.49226E-04 4.64791E-02 1.91926E-14-3.23190E-13
 -1      4199 2.03775E+01 8.66385E-01-8.27851E-04-6.16960E-02-2.22732E-14-3.64445E-13
 -1      4200 2.00934E+01-8.27904E-02 3.30607E-04-3.57565E-02 1.01142E-13-1.94694E-13
 -1      4201 2.01051E+01-8.99034E-02 1.65887E-04-3.93177E-02 1.28604E-13-1.63489E-13
 -1      4202 2.01190E+01-9.72929E-02-8.13124E-04-2.91143E-02 7.72342E-14-1.44351E-13
 -1      4203 1.86564E+01 5.63150E-02-1.74204E-02 1.71307E+00 1.64547E-13 4.19751E-14
 -1      4204 2.04148E+01 5.94599E-01-6.20554E-04 1.78489E-02 9.83256E-16-3.22952E-13
 -1      4205 2.03332E+01-3.23953E-02 6.29749E-04-9.64233E-03-1.28269E-15-2.43527E-13
 -1      4206 2.03093E+01-6.06237E-02 1.02161E-03-8.51190E-03-5.51123E-15-2.42680E-13
 -1      4207 2.02855E+01-8.01981E-02 7.50960E-04-9.19959E-03-7.35970E-16-2.37252E-13
 -1      4208 2.02611E+01-9.50798E-02 8.40487E-04-8.81138E-03-1.96982E-14-2.39530E-13
 -1      4209 2.02039E+01-1.11385E-01 5.02025E-04 4.97318E-03 4.87682E-14-2.20600E-13
 -1      4210 2.01842E+01-1.11863E-01 6.94779E-04 3.61921E-03 2.69609E-14-1.98376E-13
 -1      4211 2.01552E+01-1.07188E-01 2.24173E-04-6.61103E-03-3.15673E-14-1.86033E-13
 -1      4212 2.01386E+01-1.02141E-01 5.20137E-04-6.76157E-03-2.60278E-14-1.88304E-13
 -1      4213 2.01236E+01-9.60105E-02 5.35590E-04-5.39215E-03 2.65360E-14-1.27136E-13
 -1      4214 2.01084E+01-8.93172E-02 3.99422E-04-5.86126E-03 2.68208E-14-5.16795E-14
 -1      4215 2.00766E+01-6.81288E-02 2.53504E-04 2.37147E-03-1.43928E-14 1.97507E-14
 -1      4216 2.00660E+01-5.93316E-02 2.28546E-04 1.43676E-03-9.57083E-15 3.90219E-14
 -1      4217 2.00516E+01-4.58274E-02 1.22602E-04-3.80011E-03-6.80643E-14-2.24831E-14
 -1      4218 2.00427E+01-3.60953E-02 1.44512E-04-4.01200E-03-5.07630E-14-2.61332E-14
 -1      4219 2.00347E+01-2.60657E-02 1.54871E-04-3.57636E-03-4.04953E-14-4.98796E-14
 -1      4220 2.00264E+01-1.58833E-02 8.64730E-05-3.65787E-03-5.00997E-14-4.83799E-14
 -1      4221 2.00187E+01-5.21088E-03 5.16566E-05-3.55030E-03-8.95313E-14-7.61281E-14
 -1      4222 2.00108E+01 5.74728E-03 1.97978E-05-3.37915E-03-9.13892E-14-4.83694E-14
 -1      4223 2.00028E+01 1.72798E-02-7.35769E-05-3.53267E-03-7.81958E-14-7.20298E-14
 -1      4224 1.99945E+01 2.93018E-02-4.38059E-05-2.95810E-03-3.60954E-14-1.33974E-13
 -1      4225 1.99854E+01 4.20202E-02-2.14557E-04-3.23893E-03-9.19717E-15-9.56563E-14
 -1      4226 1.99762E+01 5.54393E-02-9.09595E-05-2.04708E-03 3.26143E-14-1.10156E-13
 -1      4227 1.99645E+01 7.05231E-02-3.59136E-04-2.17080E-03 1.49514E-14-1.15664E-13
 -1      4228 1.99536E+01 8.56643E-02-1.15965E-04-5.72265E-06-2.57926E-15-1.25570E-13
 -1      4229 1.99392E+01 1.02015E-01-5.21123E-04 5.02061E-04 1.81213E-14-1.27708E-13
 -1      4230 1.99260E+01 1.19066E-01-1.11844E-04 4.17178E-03-1.06504E-14-1.43118E-13
 -1      4231 1.99072E+01 1.37687E-01-6.99185E-04 6.12625E-03-8.55435E-14-9.43254E-14
 -1      4232 1.98910E+01 1.56689E-01-5.03771E-05 1.21829E-02-1.64977E-13-1.23424E-13
 -1      4233 1.98663E+01 1.77711E-01-8.82800E-04 1.69008E-02-1.02798E-13-9.46671E-14
 -1      4234 1.98465E+01 1.98357E-01 1.11868E-04 2.66668E-02-3.73386E-14-6.12167E-14
 -1      4235 1.98143E+01 2.21585E-01-1.05233E-03 3.62279E-02-8.39753E-15-5.73265E-14
 -1      4236 1.97908E+01 2.43001E-01 4.39245E-04 5.16677E-02 7.64754E-14-7.04781E-14
 -1      4237 1.97489E+01 2.67677E-01-1.16780E-03 6.92441E-02 7.24599E-14-6.26348E-14
 -1      4238 1.97222E+01 2.88094E-01 1.02702E-03 9.31873E-02 5.97359E-14-1.41942E-13
 -1      4239 1.96688E+01 3.12535E-01-1.15388E-03 1.23471E-01 7.23976E-14-1.24754E-13
 -1      4240 1.96405E+01 3.28799E-01 2.01256E-03 1.59843E-01-1.86090E-14-1.20083E-13
 -1      4241 1.95738E+01 3.49921E-01-8.48194E-04 2.09618E-01-5.38277E-14-6.95589E-14
 -1      4242 1.95477E+01 3.56736E-01 3.67077E-03 2.63396E-01-6.05689E-14-5.38818E-14
 -1      4243 1.94633E+01 3.69801E-01 1.09935E-04 3.46207E-01-9.21645E-14-2.83068E-14
 -1      4244 1.94453E+01 3.58000E-01 6.13712E-03 4.24886E-01-4.38932E-14-8.95574E-14
 -1      4245 1.93518E+01 3.52318E-01 1.95267E-03 5.45547E-01 3.43660E-14-1.00261E-13
 -1      4246 1.93525E+01 3.09435E-01 9.49509E-03 6.56460E-01 7.36461E-14-7.45694E-14
 -1      4247 1.92523E+01 2.70656E-01 4.60678E-03 8.32365E-01 5.37783E-14-8.57156E-14
 -1      4248 1.92893E+01 1.78343E-01 1.37232E-02 9.83661E-01 1.80922E-14-7.82407E-14
 -1      4249 1.91947E+01 8.01565E-02 6.79780E-03 1.22815E+00 9.49147E-14-9.24163E-14
 -1      4250 1.92804E+01-9.14187E-02 1.25015E-02 1.43233E+00 9.89113E-14 3.99416E-14
 -1      4251 1.93474E+01-3.04762E-01 7.84401E-03 1.67628E+00 6.20616E-14 2.02291E-13
 -1      4252 2.04264E+01 4.98643E-01 1.52441E-03 1.08330E-02 3.05061E-14-3.06667E-13
 -1      4253 2.04204E+01 5.63775E-01-2.94502E-04 7.75781E-03 1.41798E-14-3.16953E-13
 -1      4254 2.04214E+01 5.64228E-01-5.32034E-04-4.01645E-03 1.71548E-14-3.25727E-13
 -1      4255 2.04244E+01 3.68734E-01-1.13926E-03-4.16275E-03 5.52215E-14-3.10955E-13
 -1      4256 2.00705E+01-6.66128E-02 2.52930E-04-2.98953E-02-2.43733E-14-1.12366E-13
 -1      4257 2.00806E+01-7.50155E-02 1.31587E-04-3.29084E-02 4.28753E-14-2.17966E-13
 -1      4258 2.00920E+01-8.27199E-02-6.64130E-04-2.47356E-02 7.11266E-14-1.22635E-13
 -1      4259 2.00690E+01-6.48255E-02-2.99736E-04-2.05273E-02-2.11236E-14-7.25658E-14
 -1      4260 2.01897E+01-1.06227E-01 4.22691E-04-5.63757E-02 4.19834E-14-2.97732E-13
 -1      4261 2.02090E+01-1.03315E-01 4.57619E-04-5.92408E-02 4.66826E-14-2.54088E-13
 -1      4262 2.02314E+01-1.03603E-01-1.12978E-03-4.34344E-02 1.27296E-14-3.02697E-13
 -1      4263 2.03568E+01 3.48619E-03 1.06294E-03-7.17342E-03 6.08720E-15-2.24860E-13
 -1      4264 2.01617E+01-1.09213E-01-7.62176E-04-2.31716E-02 3.70033E-15-2.55303E-13
 -1      4265 2.03778E+01 5.07172E-02 3.27723E-04-9.43667E-03 5.30141E-15-2.67360E-13
 -1      4266 2.01634E+01-1.07579E-01 1.70903E-05-3.96735E-02 2.91659E-15-2.49289E-13
 -1      4267 2.01816E+01-1.08477E-01 2.18774E-04-4.28459E-02 4.69420E-15-2.79211E-13
 -1      4268 2.04122E+01 1.82403E-01-2.23941E-04-8.21849E-03 2.78020E-14-2.92679E-13
 -1      4269 2.03980E+01 1.09218E-01 9.94155E-04-4.22068E-03 1.02379E-14-2.83549E-13
 -1      4270 2.04312E+01 4.74511E-01 1.70427E-03-1.51829E-03 3.53357E-14-3.14432E-13
 -1      4271 2.00556E+01-5.07992E-02-1.82370E-04-1.23068E-02-3.88519E-14-5.82144E-14
 -1      4272 2.02384E+01-1.04012E-01 5.55251E-04-8.63322E-03-1.51367E-15-2.31937E-13
 -1      4273 2.02150E+01-1.09635E-01 3.93270E-04-8.57003E-03 3.29904E-14-2.20704E-13
 -1      4274 2.00955E+01-8.14253E-02 3.73380E-04-4.68089E-03-1.32977E-14-3.17257E-14
 -1      4275 2.00826E+01-7.32849E-02 2.28774E-04-5.05195E-03 5.14147E-15 8.79147E-15
 -1      4276 2.04037E+01 1.98079E-01-2.98921E-04-2.42813E-02 3.51233E-14-3.44314E-13
 -1      4277 2.04274E+01 3.52539E-01-7.73632E-04 1.95865E-03 3.62958E-14-2.97222E-13
 -1      4278 2.04247E+01 2.74447E-01 1.32528E-03-1.31936E-03 3.45455E-14-2.91142E-13
 -1      4279 2.02021E+01-1.12058E-01-6.22232E-04-2.75430E-02 3.31364E-14-2.68807E-13
 -1      4280 1.96650E+01-5.25898E-01-4.21128E-03 1.62509E+00 7.49930E-14 1.77541E-13
 -1      4281 2.00757E+01-6.93024E-02-1.84176E-04-1.47450E-02-1.94805E-14-1.42575E-14
 -1      4282 2.00646E+01-5.96138E-02-2.38944E-05-1.34451E-02-4.64124E-14-7.08578E-14
 -3
    1PSTEP                         3           1           1          
  100CL  101 1.000000000        4282                     0    1           1
 -4  TOSTRAIN    6    1
 -5  EXX         1    4    1    1
 -5  EYY         1    4    2    2
 -5  EZZ         1    4    3    3
 -5  EXY         1    4    1    2
 -5  EYZ         1    4    2    3
 -5  EZX         1    4    3    1
 -1         1 1.20101E-05-4.89134E-05 6.13454E-06 2.62131E-05-4.65529E-18-2.97520E-19
 -1         2 5.98007E-05-1.76528E-04 3.09164E-05-3.70591E-06 7.86343E-18 7.10740E-19
 -1         3 9.43090E-05-2.94723E-05-2.81002E-05-1.91616E-06 3.46827E-18 4.11190E-18
 -1         4 9.55053E-05-2.82793E-05-2.89722E-05-4.00693E-07 5.14182E-19 5.10212E-19
 -1         5 1.43346E-04-2.14778E-05-4.25290E-05 3.85301E-05-2.64804E-19 1.94578E-17
 -1         6 1.45407E-04 2.57582E-10-4.41880E-05-5.35246E-05-1.13545E-18 2.00616E-17
 -1         7 9.06130E-05-5.11464E-07-3.90695E-05-2.92490E-05-1.64960E-19 4.29279E-18
 -1         8 8.51293E-05 8.63011E-08-3.63405E-05-2.02665E-05-2.43046E-19-7.85468E-19
 -1         9 8.28188E-05 7.59376E-08-3.53523E-05-1.56338E-05-2.15993E-19-3.56642E-18
 -1        10 8.17727E-05 3.96256E-08-3.48822E-05-1.20719E-05-1.59672E-19-4.99789E-18
 -1        11 8.12519E-05 1.93264E-08-3.46528E-05-9.00857E-06-1.08202E-19-5.69693E-18
 -1        12 8.09810E-05 9.18845E-09-3.45375E-05-6.27989E-06-8.17238E-20-5.99577E-18
 -1        13 8.08380E-05 4.65004E-09-3.44792E-05-3.68259E-06-5.03009E-20-6.07720E-18
 -1        14 8.07781E-05 2.81588E-09-3.44553E-05-1.18261E-06-1.76814E-20-6.12933E-18
 -1        15 8.07801E-05 2.80617E-09-3.44561E-05 1.28788E-06 1.76895E-20-6.09107E-18
 -1        16 8.08444E-05 4.58600E-09-3.44815E-05 3.79295E-06 5.04895E-20-6.06268E-18
 -1        17 8.09926E-05 8.45114E-09-3.45412E-05 6.40223E-06 5.97158E-20-5.82964E-18
 -1        18 8.12693E-05 1.81910E-08-3.46578E-05 9.15009E-06 1.01723E-19-5.49343E-18
 -1        19 8.17982E-05 3.81748E-08-3.48904E-05 1.22516E-05 1.77844E-19-4.80599E-18
 -1        20 8.28390E-05 8.14457E-08-3.53647E-05 1.58645E-05 2.29122E-19-3.49370E-18
 -1        21 8.50947E-05 1.69284E-07-3.63790E-05 2.04773E-05 2.86482E-19-6.57774E-19
 -1        22 9.16497E-05-9.99937E-08-3.87411E-05 2.79960E-05 4.55280E-20 5.34930E-18
 -1        23 1.12983E-04-3.81291E-05-3.53994E-05-4.40137E-06-7.76094E-19 1.59925E-17
 -1        24 9.28199E-05-2.77017E-05-2.90038E-05 3.91468E-07-2.23283E-19 1.23910E-17
 -1        25 8.91400E-05-2.68583E-05-2.69356E-05 3.75984E-07-6.12494E-20 8.80414E-18
 -1        26 8.80424E-05-2.64964E-05-2.63999E-05 2.04283E-07 5.05325E-21 6.30085E-18
 -1        27 8.80751E-05-2.64766E-05-2.63938E-05 1.40071E-07-1.34418E-19 4.62221E-18
 -1        28 8.86157E-05-2.66151E-05-2.65654E-05 1.01119E-07-9.94840E-20 3.35241E-18
 -1        29 8.93782E-05-2.68300E-05-2.68003E-05 7.55003E-08 1.20902E-19 2.85298E-18
 -1        30 9.02113E-05-2.70723E-05-2.70529E-05 5.72656E-08 4.44984E-20 2.33603E-18
 -1        31 9.10301E-05-2.73134E-05-2.72999E-05 4.35820E-08-1.01889E-19 8.61406E-19
 -1        32 9.17874E-05-2.75380E-05-2.75281E-05 3.30108E-08-3.33143E-20-4.39739E-19
 -1        33 9.24595E-05-2.77380E-05-2.77307E-05 2.47420E-08 1.49188E-19-6.46241E-19
 -1        34 9.30373E-05-2.79104E-05-2.79050E-05 1.82603E-08-1.19638E-19-4.82386E-19
 -1        35 9.35213E-05-2.80551E-05-2.80511E-05 1.31995E-08-9.50116E-20-7.35441E-19
 -1        36 9.39176E-05-2.81738E-05-2.81709E-05 9.27758E-09-4.89103E-20-1.21311E-18
 -1        37 9.42355E-05-2.82692E-05-2.82671E-05 6.26728E-09-2.80585E-19-1.72992E-18
 -1        38 9.44857E-05-2.83443E-05-2.83429E-05 3.98202E-09-1.86764E-20-2.46364E-18
 -1        39 9.46794E-05-2.84027E-05-2.84016E-05 2.26949E-09-3.48239E-19-2.35832E-18
 -1        40 9.48277E-05-2.84474E-05-2.84467E-05 1.00838E-09 8.52126E-20-3.19567E-18
 -1        41 9.49414E-05-2.84818E-05-2.84813E-05 1.06739E-10 5.08325E-20-2.46520E-18
 -1        42 9.50307E-05-2.85088E-05-2.85085E-05-4.98834E-10-1.31152E-19-2.85080E-18
 -1        43 9.51056E-05-2.85316E-05-2.85314E-05-8.43212E-10-1.17256E-19-3.43505E-18
 -1        44 9.51762E-05-2.85531E-05-2.85531E-05-9.32118E-10 2.94562E-20-3.24245E-18
 -1        45 9.52526E-05-2.85763E-05-2.85765E-05-7.41359E-10 1.21262E-19-3.31890E-18
 -1        46 9.53455E-05-2.86045E-05-2.86049E-05-2.16786E-10 9.60694E-20-3.92863E-18
 -1        47 9.54659E-05-2.86408E-05-2.86416E-05 7.23373E-10 3.45206E-19-3.28568E-18
 -1        48 9.56250E-05-2.86887E-05-2.86900E-05 2.18093E-09 1.94467E-19-2.51761E-18
 -1        49 9.58333E-05-2.87512E-05-2.87531E-05 4.26027E-09 1.27009E-19-3.04301E-18
 -1        50 9.60989E-05-2.88307E-05-2.88333E-05 7.03411E-09-1.75283E-19-4.07660E-18
 -1        51 9.64245E-05-2.89278E-05-2.89311E-05 1.04833E-08-1.42564E-19-3.98026E-18
 -1        52 9.68033E-05-2.90404E-05-2.90441E-05 1.44004E-08 2.05190E-19-3.58591E-18
 -1        53 9.72125E-05-2.91615E-05-2.91651E-05 1.82483E-08-8.16675E-20-3.33915E-18
 -1        54 9.76055E-05-2.92771E-05-2.92794E-05 2.09778E-08-3.87412E-19-4.09467E-18
 -1        55 9.79027E-05-2.93633E-05-2.93625E-05 2.08329E-08-3.41669E-19-6.54769E-18
 -1        56 9.79836E-05-2.93843E-05-2.93776E-05 1.52297E-08 1.61218E-19-6.96062E-18
 -1        57 9.76837E-05-2.92912E-05-2.92755E-05 8.77883E-10 1.65906E-19-5.28361E-18
 -1        58 9.68033E-05-2.90249E-05-2.89977E-05-2.55934E-08 1.94493E-19-4.73616E-18
 -1        59 9.51360E-05-2.85245E-05-2.84853E-05-6.62342E-08 3.24749E-19-2.62075E-18
 -1        60 9.25231E-05-2.77434E-05-2.76960E-05-1.19530E-07-4.74738E-19-1.89188E-18
 -1        61 8.89356E-05-2.66734E-05-2.66277E-05-1.77835E-07 6.64765E-19-1.72914E-18
 -1        62 8.45658E-05-2.53719E-05-2.53434E-05-2.25941E-07-5.57211E-19-2.89127E-18
 -1        63 7.98931E-05-2.39813E-05-2.39877E-05-2.42997E-07-4.43117E-19-4.00505E-18
 -1        64 7.56715E-05-2.27253E-05-2.27793E-05-2.09264E-07 4.38956E-19-5.04352E-18
 -1        65 7.28011E-05-2.18714E-05-2.19731E-05-1.15966E-07-4.86108E-19-5.10087E-18
 -1        66 7.20922E-05-2.16598E-05-2.17940E-05 2.73969E-08 3.67118E-19-5.49881E-18
 -1        67 7.39938E-05-2.22240E-05-2.23615E-05 1.93459E-07 7.43898E-19-3.26014E-18
 -1        68 7.83789E-05-2.35270E-05-2.36267E-05 3.43954E-07 3.74059E-20-1.02242E-18
 -1        69 8.44408E-05-2.53321E-05-2.53411E-05 4.32867E-07-5.07552E-20-1.18480E-18
 -1        70 9.06462E-05-2.72022E-05-2.70619E-05 3.58564E-07-6.24778E-19-1.25596E-18
 -1        71 9.48906E-05-2.85796E-05-2.82809E-05 8.74344E-08 5.47946E-19-1.59948E-18
 -1        72 1.02187E-04-3.05897E-05-3.41526E-05-1.92940E-06 3.37278E-19 1.72664E-17
 -1        73 9.25763E-05-2.75178E-05-2.89120E-05-3.33327E-07 1.44608E-19 1.25209E-17
 -1        74 8.91278E-05-2.67079E-05-2.69787E-05-1.25978E-07 1.94239E-19 8.81438E-18
 -1        75 8.80725E-05-2.64473E-05-2.64438E-05-9.56483E-08 1.62318E-20 6.37100E-18
 -1        76 8.81098E-05-2.64566E-05-2.64204E-05-7.66713E-08 8.56508E-20 4.45126E-18
 -1        77 8.86496E-05-2.66094E-05-2.65825E-05-6.26543E-08 1.19029E-19 3.16049E-18
 -1        78 8.94094E-05-2.68311E-05-2.68127E-05-5.18920E-08-1.41294E-19 3.11266E-18
 -1        79 9.02415E-05-2.70777E-05-2.70629E-05-4.28272E-08 1.55593E-19 2.89572E-18
 -1        80 9.10933E-05-2.73310E-05-2.73190E-05-3.56153E-08-2.56144E-20 1.59902E-18
 -1        81 9.18438E-05-2.75551E-05-2.75445E-05-2.86629E-08 1.83071E-19 2.88605E-19
 -1        82 9.25077E-05-2.77535E-05-2.77444E-05-2.30810E-08 2.12718E-20-2.71312E-19
 -1        83 9.30776E-05-2.79240E-05-2.79162E-05-1.82767E-08-4.98775E-20-5.85015E-20
 -1        84 9.35541E-05-2.80666E-05-2.80601E-05-1.42171E-08-5.27286E-20-2.52551E-19
 -1        85 9.39435E-05-2.81832E-05-2.81778E-05-1.08303E-08 1.13690E-20-1.58222E-18
 -1        86 9.42551E-05-2.82766E-05-2.82722E-05-8.03542E-09 1.38406E-19-2.90297E-18
 -1        87 9.44993E-05-2.83498E-05-2.83463E-05-5.75487E-09-1.51565E-19-4.18393E-18
 -1        88 9.46877E-05-2.84063E-05-2.84035E-05-4.05175E-09-9.57206E-21-3.91318E-18
 -1        89 9.48362E-05-2.84509E-05-2.84487E-05-2.20714E-09-1.42388E-19-3.09031E-18
 -1        90 9.49420E-05-2.84827E-05-2.84810E-05-9.80685E-10 1.96303E-19-3.81012E-18
 -1        91 9.50232E-05-2.85072E-05-2.85059E-05 1.18392E-10-8.22886E-20-3.99227E-18
 -1        92 9.50891E-05-2.85271E-05-2.85261E-05 1.12392E-09-1.96105E-19-3.83843E-18
 -1        93 9.51496E-05-2.85454E-05-2.85448E-05 2.09968E-09-2.55895E-19-3.23475E-18
 -1        94 9.52153E-05-2.85654E-05-2.85650E-05 3.11660E-09 1.83040E-19-4.98279E-18
 -1        95 9.52984E-05-2.85907E-05-2.85906E-05 4.25188E-09 1.48951E-19-6.58929E-18
 -1        96 9.54141E-05-2.86259E-05-2.86261E-05 5.61994E-09 9.30391E-20-6.59122E-18
 -1        97 9.55812E-05-2.86768E-05-2.86773E-05 7.78648E-09-1.30122E-19-6.59656E-18
 -1        98 9.58424E-05-2.87558E-05-2.87575E-05 9.27717E-09-9.09270E-20-6.64438E-18
 -1        99 9.62110E-05-2.88678E-05-2.88706E-05 1.21326E-08-2.72576E-19-5.23988E-18
 -1       100 9.67512E-05-2.90314E-05-2.90364E-05 1.55648E-08 6.20065E-20-4.91054E-18
 -1       101 9.75420E-05-2.92708E-05-2.92796E-05 1.97157E-08 3.00796E-19-3.62866E-18
 -1       102 9.87009E-05-2.96211E-05-2.96368E-05 2.42963E-08-1.27875E-19-4.99113E-18
 -1       103 1.00403E-04-3.01343E-05-3.01629E-05 2.81290E-08-3.63913E-19-3.95232E-18
 -1       104 1.02907E-04-3.08874E-05-3.09396E-05 2.79921E-08-1.17506E-19-2.69030E-18
 -1       105 1.06596E-04-3.19913E-05-3.20872E-05 1.68622E-08 4.29972E-19-4.70435E-18
 -1       106 1.12010E-04-3.36078E-05-3.37735E-05-9.22616E-09 5.67064E-19-7.83245E-18
 -1       107 1.20289E-04-3.60520E-05-3.63445E-05-1.41475E-07-6.97283E-19-6.13318E-18
 -1       108 1.31431E-04-3.93465E-05-3.97466E-05-3.65851E-07-1.68022E-19-3.71588E-18
 -1       109 1.45926E-04-4.36371E-05-4.39983E-05-7.85885E-07 2.16213E-19-4.64931E-18
 -1       110 1.62140E-04-4.85191E-05-4.83373E-05-1.34421E-06 1.43046E-19-4.11187E-18
 -1       111 1.74205E-04-5.23875E-05-5.08181E-05-1.53132E-06 4.70103E-19-3.34086E-18
 -1       112 1.70263E-04-5.16930E-05-4.86148E-05-5.35864E-08-8.36908E-19-3.09559E-18
 -1       113 1.37990E-04-4.20528E-05-4.02744E-05 3.90878E-06 7.35390E-19-6.75721E-19
 -1       114 8.45273E-05-2.45172E-05-2.89356E-05 6.72158E-06 8.25989E-20 3.53657E-18
 -1       115 4.93846E-05-1.24055E-05-2.14458E-05 2.26258E-06-4.11327E-19 7.78275E-18
 -1       116 5.68601E-05-1.50421E-05-2.19830E-05-3.14305E-06-4.70580E-19 1.14718E-17
 -1       117 8.84791E-05-2.59297E-05-2.72029E-05-5.19715E-06 5.28809E-19 5.51355E-18
 -1       118 1.13591E-04-3.47215E-05-3.19881E-05-2.40900E-06 5.02271E-19-1.39760E-19
 -1       119 1.12434E-04-3.43920E-05-3.23166E-05 9.22908E-07 2.95419E-20-1.82518E-18
 -1       120 9.89531E-05-2.94650E-05-2.97790E-05 1.74330E-06-1.29892E-18 2.15427E-18
 -1       121 9.38150E-05-2.31638E-05-3.14113E-05 1.31682E-06 1.41830E-18-1.87087E-18
 -1       122 8.70204E-05-5.58680E-07-3.83055E-05 2.71797E-06-6.97479E-18 7.97276E-19
 -1       123 7.61297E-05 3.48198E-05-4.74254E-05 4.08065E-06-8.69225E-18-1.31295E-18
 -1       124 6.61647E-05 6.70012E-05-5.51290E-05 3.24778E-06-1.20786E-17 1.04344E-18
 -1       125 6.10561E-05 8.42129E-05-5.90342E-05 8.67698E-07-6.91952E-18 4.23093E-19
 -1       126 6.24712E-05 7.97678E-05-5.78091E-05-2.38047E-06-4.71533E-19-2.60224E-19
 -1       127 7.07652E-05 5.29252E-05-5.12537E-05-4.34448E-06-2.56460E-18 4.85720E-19
 -1       128 8.31690E-05 1.18658E-05-4.08672E-05-4.34629E-06-3.29475E-18-3.14001E-19
 -1       129 9.58878E-05-3.04138E-05-2.94136E-05-2.70633E-06-1.02318E-17-6.82609E-19
 -1       130 1.04178E-04-5.82340E-05-2.10508E-05-7.08526E-07-1.15193E-17-8.12331E-19
 -1       131 1.06961E-04-6.79141E-05-1.75818E-05 3.67520E-07-7.38474E-18 6.68455E-19
 -1       132 1.06391E-04-6.61179E-05-1.76251E-05 7.24063E-07-1.89767E-18 1.40946E-18
 -1       133 1.04200E-04-5.87330E-05-1.95656E-05 7.29569E-07 1.81980E-19 1.03090E-18
 -1       134 1.01493E-04-4.95702E-05-2.21945E-05 6.25397E-07 2.09852E-19-6.41156E-19
 -1       135 9.88849E-05-4.07195E-05-2.47841E-05 5.35897E-07 1.18966E-18-3.91885E-20
 -1       136 9.67699E-05-3.36124E-05-2.68828E-05 5.32910E-07 1.67903E-18-1.28507E-18
 -1       137 9.55548E-05-2.94329E-05-2.82120E-05 3.84805E-08 6.90286E-19 8.51481E-19
 -1       138 4.47388E-05-1.49628E-04 2.70906E-05-3.89512E-05 1.64015E-17 3.66961E-18
 -1       139 1.53308E-05-7.25844E-05 1.16685E-05-3.83359E-05 1.26996E-17 4.69849E-18
 -1       140 1.25992E-05 5.34344E-06-1.33472E-05 1.61014E-05 9.42239E-18 5.36130E-18
 -1       141 6.61343E-05 3.17309E-05-4.01379E-05 9.00199E-05-7.60636E-19-1.76860E-18
 -1       142 1.84165E-04-2.66132E-06-6.77755E-05 1.44313E-04-6.34258E-18-1.28630E-17
 -1       143 3.15496E-04-7.06962E-05-8.76989E-05 1.30332E-04-5.37421E-18-1.78487E-17
 -1       144 3.93868E-04-1.19573E-04-9.66636E-05 5.04449E-05-1.32614E-18-1.65912E-17
 -1       145 3.74000E-04-1.13757E-04-9.25315E-05-4.86999E-05 5.17385E-19-1.23430E-17
 -1       146 2.66387E-04-5.94029E-05-7.65507E-05-1.10482E-04 1.42132E-18-3.55076E-18
 -1       147 1.30501E-04-2.34798E-06-5.17406E-05-9.95549E-05-5.97158E-20 1.17738E-19
 -1       148 2.60716E-05 1.08176E-05-2.08943E-05-3.22558E-05-1.72371E-19 8.40257E-19
 -1       149 1.67111E-06-2.85084E-05 1.82619E-06 2.53557E-05-3.61641E-18 1.79571E-18
 -1       150 1.77160E-05-8.95753E-05 1.85782E-05 4.74981E-05-1.98587E-18 2.10890E-18
 -1       151 4.02108E-05-1.34339E-04 2.72287E-05 2.99868E-05 3.12386E-18-1.23583E-18
 -1       152 4.35645E-05-1.34644E-04 2.65318E-05-5.34767E-06 1.64854E-18 5.96629E-20
 -1       153 2.60782E-05-9.10552E-05 1.73719E-05-2.72006E-05 2.42421E-18 1.55653E-18
 -1       154 6.93045E-06-2.71510E-05 1.52209E-06-1.41345E-05 4.81623E-18 1.98629E-18
 -1       155 1.71450E-05 2.31331E-05-1.98892E-05 3.64439E-05-1.84230E-18-2.55253E-18
 -1       156 7.79995E-05 2.90011E-05-4.34396E-05 9.65112E-05-2.87017E-18-3.27802E-18
 -1       157 1.78866E-04-9.23804E-06-6.55407E-05 1.28987E-04 5.54807E-20 4.19705E-19
 -1       158 2.84247E-04-6.75340E-05-8.20117E-05 1.05400E-04 1.88645E-18 7.26288E-18
 -1       159 3.49776E-04-1.06365E-04-9.12797E-05 3.12151E-05 4.85985E-19 1.48494E-17
 -1       160 3.46614E-04-1.00980E-04-9.17202E-05-6.17561E-05-3.02828E-19 1.10014E-17
 -1       161 2.59536E-04-4.29736E-05-8.09224E-05-1.36483E-04-3.05281E-18 7.56316E-18
 -1       162 1.27095E-04 2.44831E-05-5.76209E-05-1.33240E-04-6.36630E-18 8.82608E-18
 -1       163 3.94139E-05 4.16811E-05-3.31587E-05-7.59432E-05-4.16063E-18 5.39052E-18
 -1       164 7.25706E-06 8.70371E-06-1.12331E-05-1.34491E-05-4.41219E-18 3.10014E-18
 -1       165 2.98993E-05-1.05307E-04 1.81770E-05 3.77759E-05-8.09848E-18 2.83968E-18
 -1       166 5.06734E-05-1.52868E-04 2.67158E-05 2.76840E-05 2.44369E-19 9.38830E-19
 -1       167 9.48760E-05-1.23493E-05-3.55714E-05-2.23438E-05-2.84873E-18 1.52177E-18
 -1       168 8.92543E-05-8.45733E-06-3.47890E-05-1.73855E-05-2.80557E-18-1.68904E-18
 -1       169 8.65515E-05-6.50575E-06-3.44171E-05-1.35775E-05-2.34096E-18-3.44013E-18
 -1       170 8.51889E-05-5.51266E-06-3.42310E-05-1.03661E-05-1.80936E-18-4.41483E-18
 -1       171 8.44442E-05-4.94327E-06-3.41408E-05-7.54222E-06-1.35735E-18-4.87841E-18
 -1       172 8.40146E-05-4.59696E-06-3.40977E-05-4.89985E-06-9.25509E-19-5.05505E-18
 -1       173 8.37948E-05-4.41202E-06-3.40792E-05-2.39320E-06-4.09165E-19-5.07154E-18
 -1       174 8.37299E-05-4.35609E-06-3.40744E-05 5.12091E-08 3.70999E-20-5.12330E-18
 -1       175 8.38047E-05-4.42044E-06-3.40800E-05 2.49772E-06 4.58411E-19-5.11861E-18
 -1       176 8.40363E-05-4.61604E-06-3.40992E-05 5.01101E-06 8.44609E-19-5.01668E-18
 -1       177 8.44714E-05-4.96978E-06-3.41417E-05 7.61895E-06 1.35781E-18-4.72837E-18
 -1       178 8.52501E-05-5.57315E-06-3.42322E-05 1.05071E-05 1.87867E-18-4.24952E-18
 -1       179 8.66495E-05-6.60854E-06-3.44195E-05 1.37776E-05 2.47195E-18-3.29443E-18
 -1       180 8.93977E-05-8.60147E-06-3.47939E-05 1.76174E-05 2.85341E-18-1.51074E-18
 -1       181 9.57878E-05-1.36163E-05-3.54278E-05 2.18893E-05 2.85985E-18 2.04513E-18
 -1       182 1.05614E-04-2.61052E-05-3.52654E-05 1.86597E-05 2.24079E-18 6.84837E-18
 -1       183 1.03409E-04-2.73051E-05-3.26136E-05-1.21233E-05-2.42897E-18 5.13323E-18
 -1       184 9.71216E-05-2.82938E-05-2.95330E-05-4.72709E-06-2.12953E-18 3.90717E-18
 -1       185 9.35241E-05-2.76416E-05-2.81875E-05-1.76428E-06-1.57194E-18 2.74558E-18
 -1       186 9.19927E-05-2.74118E-05-2.76422E-05-4.16074E-07-1.18909E-18 1.75784E-18
 -1       187 9.14206E-05-2.73378E-05-2.74458E-05 2.48657E-07-8.10098E-19 9.89723E-19
 -1       188 9.13832E-05-2.73780E-05-2.74222E-05 5.75225E-07-4.33133E-19 7.90035E-19
 -1       189 9.16316E-05-2.74821E-05-2.74886E-05 7.14610E-07-3.61133E-19 2.06681E-19
 -1       190 9.20203E-05-2.76159E-05-2.76001E-05 7.45842E-07-7.34388E-19-5.17848E-20
 -1       191 9.24621E-05-2.77579E-05-2.77298E-05 7.14727E-07-7.80705E-19-1.65109E-20
 -1       192 9.29049E-05-2.78951E-05-2.78614E-05 6.49612E-07-2.43998E-19-2.08725E-19
 -1       193 9.33189E-05-2.80205E-05-2.79855E-05 5.68571E-07-2.83478E-19-1.22876E-18
 -1       194 9.36884E-05-2.81305E-05-2.80969E-05 4.83140E-07-2.83254E-19-1.47106E-18
 -1       195 9.40071E-05-2.82242E-05-2.81934E-05 4.00505E-07-2.58166E-19-1.18328E-18
 -1       196 9.42748E-05-2.83018E-05-2.82749E-05 3.24914E-07-3.19613E-19-1.09372E-18
 -1       197 9.44947E-05-2.83649E-05-2.83420E-05 2.58653E-07-4.11999E-19-6.56486E-19
 -1       198 9.46722E-05-2.84152E-05-2.83964E-05 2.02745E-07 2.65245E-20-1.14094E-18
 -1       199 9.48139E-05-2.84548E-05-2.84401E-05 1.57461E-07-1.54717E-19-1.14064E-18
 -1       200 9.49269E-05-2.84859E-05-2.84751E-05 1.22694E-07 8.16893E-22-1.40751E-18
 -1       201 9.50186E-05-2.85107E-05-2.85036E-05 9.82267E-08-5.70256E-19-2.28227E-18
 -1       202 9.50963E-05-2.85314E-05-2.85279E-05 8.39120E-08-3.01162E-19-2.27004E-18
 -1       203 9.51676E-05-2.85501E-05-2.85503E-05 7.97780E-08 2.97880E-19-1.93194E-18
 -1       204 9.52401E-05-2.85691E-05-2.85731E-05 8.60553E-08-8.99077E-20-1.56044E-18
 -1       205 9.53217E-05-2.85906E-05-2.85988E-05 1.03115E-07-5.05091E-20-8.21080E-19
 -1       206 9.54205E-05-2.86173E-05-2.86296E-05 1.31287E-07 3.48679E-19-8.84794E-19
 -1       207 9.55444E-05-2.86515E-05-2.86679E-05 1.70526E-07-1.14400E-19-1.43135E-18
 -1       208 9.57008E-05-2.86958E-05-2.87159E-05 2.19866E-07-6.75102E-19-2.74007E-18
 -1       209 9.58954E-05-2.87525E-05-2.87751E-05 2.76592E-07-3.99392E-19-3.32970E-18
 -1       210 9.61308E-05-2.88233E-05-2.88457E-05 3.35107E-07 4.42878E-19-2.87548E-18
 -1       211 9.64034E-05-2.89086E-05-2.89264E-05 3.85453E-07-2.72721E-19-2.78059E-18
 -1       212 9.67005E-05-2.90064E-05-2.90124E-05 4.11624E-07 2.17826E-19-3.07495E-18
 -1       213 9.69952E-05-2.91109E-05-2.90947E-05 3.89978E-07-7.53410E-19-2.61651E-18
 -1       214 9.72417E-05-2.92110E-05-2.91587E-05 2.88459E-07-9.80221E-19-2.84808E-18
 -1       215 9.73703E-05-2.92874E-05-2.91824E-05 6.78449E-08-8.53237E-22-3.46554E-18
 -1       216 9.72847E-05-2.93111E-05-2.91370E-05-3.13129E-07 1.20414E-18-3.22689E-18
 -1       217 9.68650E-05-2.92418E-05-2.89881E-05-8.86604E-07 6.38668E-19-3.93111E-18
 -1       218 9.59798E-05-2.90294E-05-2.87002E-05-1.65688E-06 3.67563E-19-4.26957E-18
 -1       219 9.45128E-05-2.86207E-05-2.82460E-05-2.57543E-06 3.78614E-19-4.41019E-18
 -1       220 9.24049E-05-2.79732E-05-2.76179E-05-3.51641E-06 3.14794E-19-1.64631E-18
 -1       221 8.97090E-05-2.70785E-05-2.68422E-05-4.26725E-06-4.24341E-19-1.39831E-18
 -1       222 8.66417E-05-2.59908E-05-2.59891E-05-4.55399E-06-1.06490E-18-9.27860E-19
 -1       223 8.36033E-05-2.48469E-05-2.51722E-05-4.11523E-06-8.93698E-19-1.14252E-18
 -1       224 8.11355E-05-2.38606E-05-2.45333E-05-2.81395E-06-1.91866E-19-2.16720E-18
 -1       225 7.97993E-05-2.32746E-05-2.42100E-05-7.40691E-07 2.75928E-19-8.43149E-19
 -1       226 8.00015E-05-2.32814E-05-2.42950E-05 1.75249E-06 1.81418E-18-7.25636E-19
 -1       227 8.18348E-05-2.39519E-05-2.47980E-05 4.11265E-06 1.53110E-18-5.59493E-19
 -1       228 8.50012E-05-2.52082E-05-2.56222E-05 5.70281E-06-4.15095E-19-1.89959E-18
 -1       229 8.88531E-05-2.68692E-05-2.65657E-05 5.91248E-06-3.34185E-19-2.41952E-18
 -1       230 9.26234E-05-2.86678E-05-2.74074E-05 4.29029E-06 5.88704E-19-5.69684E-19
 -1       231 9.95132E-05-2.85583E-05-3.05908E-05 7.20786E-06 2.25343E-18 5.68348E-18
 -1       232 9.44322E-05-2.77954E-05-2.85292E-05 2.74019E-06 1.84019E-18 4.15980E-18
 -1       233 9.21161E-05-2.74068E-05-2.76875E-05 9.25767E-07 1.30900E-18 2.72981E-18
 -1       234 9.11718E-05-2.72454E-05-2.73700E-05 6.30654E-08 1.09142E-18 1.68457E-18
 -1       235 9.09650E-05-2.72398E-05-2.72973E-05-3.65557E-07 4.89488E-19 1.19044E-18
 -1       236 9.11541E-05-2.73275E-05-2.73476E-05-5.67082E-07-6.35364E-20 1.06175E-18
 -1       237 9.15436E-05-2.74620E-05-2.74600E-05-6.40920E-07 3.09202E-19 6.99550E-19
 -1       238 9.20435E-05-2.76231E-05-2.76069E-05-6.39041E-07 5.96345E-19 3.41473E-19
 -1       239 9.25339E-05-2.77753E-05-2.77528E-05-5.95102E-07 6.27023E-19-7.55727E-20
 -1       240 9.30009E-05-2.79177E-05-2.78924E-05-5.30268E-07 1.46872E-19-2.38860E-19
 -1       241 9.34224E-05-2.80444E-05-2.80191E-05-4.57085E-07 5.96403E-20 1.51136E-21
 -1       242 9.37892E-05-2.81535E-05-2.81298E-05-3.83458E-07 4.17874E-19-6.94145E-19
 -1       243 9.40993E-05-2.82449E-05-2.82236E-05-3.14219E-07 9.13374E-19-1.58650E-18
 -1       244 9.43551E-05-2.83197E-05-2.83012E-05-2.52095E-07 3.76756E-19-2.50875E-18
 -1       245 9.45619E-05-2.83797E-05-2.83641E-05-1.98421E-07 4.44402E-19-2.17625E-18
 -1       246 9.47266E-05-2.84271E-05-2.84143E-05-1.53661E-07-1.31211E-19-2.19880E-18
 -1       247 9.48617E-05-2.84655E-05-2.84557E-05-1.16298E-07-1.88976E-19-3.02545E-18
 -1       248 9.49624E-05-2.84938E-05-2.84867E-05-8.94944E-08 7.72274E-19-2.73254E-18
 -1       249 9.50440E-05-2.85165E-05-2.85119E-05-7.12203E-08-6.72554E-19-2.81595E-18
 -1       250 9.51142E-05-2.85357E-05-2.85336E-05-6.14742E-08-2.21717E-19-2.35276E-18
 -1       251 9.51813E-05-2.85539E-05-2.85545E-05-6.06876E-08-6.82433E-20-2.63952E-18
 -1       252 9.52547E-05-2.85736E-05-2.85774E-05-6.98731E-08 8.90411E-19-2.87974E-18
 -1       253 9.53449E-05-2.85979E-05-2.86055E-05-9.08517E-08 2.99029E-19-2.59459E-18
 -1       254 9.54652E-05-2.86305E-05-2.86428E-05-1.26579E-07 1.82943E-19-2.69110E-18
 -1       255 9.56319E-05-2.86759E-05-2.86946E-05-1.81408E-07-3.16552E-20-3.45922E-18
 -1       256 9.58817E-05-2.87439E-05-2.87722E-05-2.67563E-07-6.39013E-19-3.17085E-18
 -1       257 9.62230E-05-2.88368E-05-2.88781E-05-3.88054E-07-2.39444E-19-2.01177E-18
 -1       258 9.67071E-05-2.89683E-05-2.90286E-05-5.61528E-07-3.35889E-19-2.33999E-18
 -1       259 9.73945E-05-2.91543E-05-2.92426E-05-8.12199E-07-4.95921E-19-2.77773E-18
 -1       260 9.83696E-05-2.94166E-05-2.95471E-05-1.17572E-06 5.94960E-19-1.58455E-18
 -1       261 9.97522E-05-2.97862E-05-2.99801E-05-1.70449E-06-2.60654E-19-1.45336E-18
 -1       262 1.01710E-04-3.03065E-05-3.05954E-05-2.47322E-06 2.00292E-19-2.45934E-18
 -1       263 1.04470E-04-3.10379E-05-3.14661E-05-3.58225E-06 6.67517E-19-3.45836E-18
 -1       264 1.08325E-04-3.20614E-05-3.26850E-05-5.14687E-06 3.65256E-19-3.27548E-18
 -1       265 1.13920E-04-3.35777E-05-3.44481E-05-7.37336E-06-1.49500E-18-1.67010E-18
 -1       266 1.21037E-04-3.55996E-05-3.66512E-05-9.97458E-06-2.22224E-19-3.64714E-18
 -1       267 1.29915E-04-3.84067E-05-3.92616E-05-1.24023E-05 3.66805E-19-3.35416E-18
 -1       268 1.39880E-04-4.22561E-05-4.18285E-05-1.28619E-05-1.49700E-19-4.04006E-18
 -1       269 1.48886E-04-4.71201E-05-4.34424E-05-7.78015E-06 2.80699E-19-2.83445E-18
 -1       270 1.52847E-04-5.13690E-05-4.32061E-05 6.93799E-06-2.48816E-19-3.36510E-18
 -1       271 1.46085E-04-4.95710E-05-4.14659E-05 2.85545E-05-5.39067E-19-3.95850E-18
 -1       272 1.27416E-04-3.62886E-05-4.01318E-05 3.78835E-05-2.93010E-18-1.72821E-18
 -1       273 1.11215E-04-2.31954E-05-3.92623E-05 1.55117E-05-2.17635E-18 1.35324E-18
 -1       274 1.11573E-04-2.58167E-05-3.79048E-05-1.30972E-05-8.98173E-19 1.13317E-18
 -1       275 1.19573E-04-3.65900E-05-3.60232E-05-2.33160E-05 4.11166E-18 1.11107E-18
 -1       276 1.23408E-04-4.30439E-05-3.43166E-05-8.81912E-06 2.02964E-18-1.03693E-18
 -1       277 1.15056E-04-3.77273E-05-3.30323E-05 8.15013E-06 8.16295E-19-1.87575E-18
 -1       278 1.02079E-04-2.87773E-05-3.15242E-05 1.15596E-05-2.52287E-18-2.13481E-18
 -1       279 9.74943E-05-2.02276E-05-3.31817E-05 2.09118E-05-1.01557E-18-4.69093E-18
 -1       280 9.25318E-05-7.86054E-06-3.62616E-05 3.37052E-05-2.65565E-18-2.11455E-18
 -1       281 8.19927E-05 9.03011E-06-3.88064E-05 3.51502E-05-4.14099E-18-1.74118E-18
 -1       282 7.18197E-05 2.30088E-05-4.02963E-05 2.28639E-05-4.96697E-18 1.88131E-18
 -1       283 6.68273E-05 2.88438E-05-4.05337E-05-2.22615E-06-3.31998E-18 5.66067E-18
 -1       284 7.15311E-05 2.11961E-05-3.93150E-05-2.84572E-05-1.84608E-18 1.10855E-19
 -1       285 8.39106E-05 1.79989E-06-3.64872E-05-4.35665E-05-1.49657E-18-8.27472E-19
 -1       286 9.72236E-05-2.23543E-05-3.20398E-05-4.05817E-05-3.73769E-18-4.53077E-18
 -1       287 1.04341E-04-4.07021E-05-2.72819E-05-2.47668E-05-2.48764E-18-7.73725E-19
 -1       288 1.05526E-04-4.93433E-05-2.40482E-05-9.08009E-06-1.92119E-18 1.51877E-18
 -1       289 1.04213E-04-5.11638E-05-2.26775E-05 1.31512E-06-2.20189E-18 3.34646E-18
 -1       290 1.02205E-04-4.88818E-05-2.27999E-05 6.56489E-06-1.79934E-18 2.06423E-18
 -1       291 1.00174E-04-4.45916E-05-2.37891E-05 8.39529E-06 4.70117E-19 7.27042E-20
 -1       292 9.83083E-05-3.96959E-05-2.51095E-05 8.25547E-06 5.80909E-19 1.17242E-18
 -1       293 9.65573E-05-3.50458E-05-2.63657E-05 6.79418E-06 2.11792E-18-2.24485E-19
 -1       294 9.47174E-05-3.14734E-05-2.71178E-05 6.27100E-06 1.32361E-18-1.77848E-18
 -1       295 1.92604E-05-7.67560E-05 1.85177E-05 2.70994E-06 2.84360E-18 5.69503E-18
 -1       296 3.57117E-05-6.94858E-05 9.95230E-06 2.60465E-05 5.05594E-18 8.35386E-19
 -1       297 7.31848E-05-6.30913E-05-6.85552E-06 4.46885E-05 3.06541E-18-1.60396E-18
 -1       298 1.14090E-04-5.09291E-05-2.76879E-05 5.15027E-05 2.24548E-18-6.80189E-18
 -1       299 1.69904E-04-5.03590E-05-4.96842E-05 4.82503E-05 1.03253E-18-7.15912E-18
 -1       300 2.15780E-04-4.51467E-05-6.91680E-05 4.10510E-05-1.02108E-18-9.04504E-18
 -1       301 2.39738E-04-4.12119E-05-7.99232E-05 2.48818E-05-3.93701E-18-7.72303E-18
 -1       302 2.51877E-04-4.53203E-05-8.26779E-05 1.43871E-05-1.61614E-18-5.60386E-18
 -1       303 2.39921E-04-5.15543E-05-7.57022E-05-4.19748E-06-2.15263E-18-6.83916E-18
 -1       304 1.96445E-04-5.61004E-05-5.83348E-05-1.23981E-05-9.90764E-19-3.69433E-18
 -1       305 1.44318E-04-6.18155E-05-3.57857E-05-2.30557E-05-3.87941E-19 2.75497E-19
 -1       306 7.78155E-05-5.31752E-05-1.29577E-05-2.60948E-05-7.60847E-19-5.56924E-20
 -1       307 3.99227E-05-5.82518E-05 4.35725E-06-1.38473E-05 5.05890E-19 2.73803E-19
 -1       308 1.89167E-05-6.26080E-05 1.51470E-05-3.32502E-06 7.59047E-19 2.14437E-18
 -1       309 1.18612E-05-6.37546E-05 1.87261E-05 8.06181E-06 1.88013E-18-1.14032E-18
 -1       310 1.73460E-05-5.89084E-05 1.46677E-05 1.91497E-05 1.85161E-18 6.29028E-19
 -1       311 3.38930E-05-5.02359E-05 4.35901E-06 2.90971E-05 1.11808E-18 1.48730E-18
 -1       312 6.50581E-05-4.00436E-05-1.20498E-05 4.34755E-05 1.52402E-18-3.53975E-18
 -1       313 1.09992E-04-3.66291E-05-3.14760E-05 5.11899E-05 6.26804E-20-6.51157E-19
 -1       314 1.58154E-04-3.83150E-05-5.05018E-05 4.32289E-05-1.67681E-18 1.94013E-18
 -1       315 2.01111E-04-3.57764E-05-6.82829E-05 4.27921E-05-1.94369E-18 3.86183E-18
 -1       316 2.30265E-04-3.83595E-05-7.89935E-05 1.75915E-05-2.66011E-18 6.57075E-18
 -1       317 2.40558E-04-3.82087E-05-8.31426E-05-1.14109E-05 6.03193E-19 6.58300E-18
 -1       318 2.22688E-04-3.19892E-05-7.85495E-05-3.75501E-05 8.69585E-19 4.34549E-18
 -1       319 1.84922E-04-3.34782E-05-6.30337E-05-4.79954E-05-2.17406E-18 7.09602E-19
 -1       320 1.37635E-04-3.20081E-05-4.38914E-05-6.65069E-05-1.82006E-18 2.66095E-18
 -1       321 9.08269E-05-3.52791E-05-2.41926E-05-6.03420E-05-3.20814E-18 3.50926E-18
 -1       322 5.52559E-05-4.63761E-05-6.78461E-06-4.24977E-05-4.09752E-18 5.45743E-18
 -1       323 3.99413E-05-6.10164E-05 4.15922E-06-2.81188E-05-5.26135E-18-5.17167E-19
 -1       324 2.96128E-05-8.18452E-05 1.53045E-05-1.66223E-05-2.64698E-18 4.98484E-18
 -1       325 2.62139E-05-9.61428E-05 2.13408E-05-8.62315E-06-7.90917E-20 5.62610E-18
 -1       326 9.16525E-05-1.43960E-05-3.31731E-05-1.30559E-05-2.98231E-18-1.74464E-18
 -1       327 9.57161E-05-1.91130E-05-3.28929E-05-1.46239E-05-3.12738E-18 1.14522E-19
 -1       328 8.80013E-05-1.03721E-05-3.33232E-05-8.14751E-06-1.93775E-18-3.57507E-18
 -1       329 8.71839E-05-9.45025E-06-3.33625E-05-5.71294E-06-1.43770E-18-3.90785E-18
 -1       330 8.67221E-05-8.91946E-06-3.33888E-05-3.36391E-06-7.94587E-19-3.84802E-18
 -1       331 8.65160E-05-8.67918E-06-3.34021E-05-1.07151E-06-1.53024E-19-3.94281E-18
 -1       332 8.65246E-05-8.68873E-06-3.34018E-05 1.20241E-06 3.20932E-19-3.96742E-18
 -1       333 8.67495E-05-8.95015E-06-3.33877E-05 3.49706E-06 7.81351E-19-3.97895E-18
 -1       334 8.72235E-05-9.49503E-06-3.33609E-05 5.81040E-06 1.38568E-18-3.80469E-18
 -1       335 8.80651E-05-1.04476E-05-3.33200E-05 8.24841E-06 2.00029E-18-3.34745E-18
 -1       336 8.94833E-05-1.20321E-05-3.32600E-05 1.07565E-05 2.63167E-18-2.66878E-18
 -1       337 9.19069E-05-1.47230E-05-3.31600E-05 1.31618E-05 3.08825E-18-1.64624E-18
 -1       338 9.58134E-05-1.94599E-05-3.28307E-05 1.43695E-05 3.25181E-18 4.64207E-19
 -1       339 9.88021E-05-2.44477E-05-3.19543E-05 1.18927E-05 3.04576E-18 2.56045E-18
 -1       340 9.64032E-05-2.68161E-05-2.97936E-05 5.73550E-06 2.44493E-18 1.72429E-18
 -1       341 4.30911E-05-5.37945E-05 2.43273E-06-5.04618E-05-3.85188E-19 2.29768E-18
 -1       342 9.64454E-05-2.60280E-05-3.01352E-05-6.34090E-06-2.43439E-18 4.20199E-19
 -1       343 9.49338E-05-2.70335E-05-2.90750E-05-2.82696E-06-1.93359E-18 8.07866E-20
 -1       344 9.39576E-05-2.74293E-05-2.84975E-05-9.13430E-07-1.40352E-18-1.59979E-19
 -1       345 9.34409E-05-2.76429E-05-2.81925E-05 1.47637E-07-7.65940E-19-4.28661E-19
 -1       346 9.32514E-05-2.77969E-05-2.80491E-05 7.13143E-07-6.59124E-19-6.41500E-19
 -1       347 9.32709E-05-2.79274E-05-2.80034E-05 9.81443E-07-7.14727E-19-6.95816E-19
 -1       348 9.34123E-05-2.80431E-05-2.80153E-05 1.06937E-06-4.66369E-19-6.73709E-19
 -1       349 9.36160E-05-2.81453E-05-2.80593E-05 1.04948E-06-7.08861E-19-5.55083E-19
 -1       350 9.38428E-05-2.82336E-05-2.81189E-05 9.68407E-07-7.21059E-19-8.66577E-19
 -1       351 9.40680E-05-2.83082E-05-2.81835E-05 8.56590E-07-2.61884E-19-1.14577E-18
 -1       352 9.42774E-05-2.83695E-05-2.82470E-05 7.33780E-07-5.76242E-19-1.08004E-18
 -1       353 9.44637E-05-2.84189E-05-2.83056E-05 6.12512E-07-5.21046E-20-9.83221E-19
 -1       354 9.46241E-05-2.84577E-05-2.83577E-05 5.00409E-07-7.34971E-20-8.04746E-19
 -1       355 9.47591E-05-2.84875E-05-2.84027E-05 4.01809E-07-2.89905E-19-1.06776E-18
 -1       356 9.48708E-05-2.85098E-05-2.84409E-05 3.18929E-07-4.56491E-19-6.13005E-19
 -1       357 9.49628E-05-2.85262E-05-2.84732E-05 2.52723E-07-5.44001E-19-1.10704E-18
 -1       358 9.50392E-05-2.85381E-05-2.85007E-05 2.03498E-07-5.76532E-19-1.80232E-18
 -1       359 9.51044E-05-2.85467E-05-2.85249E-05 1.71341E-07-4.71990E-19-1.71082E-18
 -1       360 9.51634E-05-2.85534E-05-2.85472E-05 1.56400E-07 4.03572E-19-1.47095E-18
 -1       361 9.52212E-05-2.85594E-05-2.85693E-05 1.59020E-07 7.76854E-19-1.26920E-18
 -1       362 9.52832E-05-2.85663E-05-2.85928E-05 1.79725E-07 3.36141E-19-9.07180E-19
 -1       363 9.53547E-05-2.85757E-05-2.86193E-05 2.19031E-07-1.10256E-19-5.91393E-19
 -1       364 9.54416E-05-2.85898E-05-2.86504E-05 2.77026E-07-4.24127E-20-7.23602E-19
 -1       365 9.55495E-05-2.86113E-05-2.86873E-05 3.52658E-07-9.82680E-19-9.65125E-19
 -1       366 9.56837E-05-2.86436E-05-2.87310E-05 4.42642E-07-9.47729E-19-1.12948E-18
 -1       367 9.58485E-05-2.86911E-05-2.87813E-05 5.39918E-07 6.31583E-20-9.18093E-19
 -1       368 9.60464E-05-2.87591E-05-2.88371E-05 6.31611E-07 4.76541E-21-2.24778E-18
 -1       369 9.62759E-05-2.88536E-05-2.88953E-05 6.96590E-07 5.88343E-19-1.82495E-18
 -1       370 9.65300E-05-2.89806E-05-2.89504E-05 7.02957E-07 1.19336E-19-1.66505E-18
 -1       371 9.67930E-05-2.91443E-05-2.89938E-05 6.06201E-07-2.18689E-19-7.80215E-19
 -1       372 9.70365E-05-2.93440E-05-2.90137E-05 3.49428E-07-6.21359E-19-6.78966E-20
 -1       373 9.72151E-05-2.95686E-05-2.89955E-05-1.32091E-07-3.54954E-19-5.11117E-19
 -1       374 9.72622E-05-2.97893E-05-2.89227E-05-8.98998E-07 4.02255E-19-1.46379E-18
 -1       375 9.70873E-05-2.99502E-05-2.87801E-05-1.98538E-06 2.40751E-19-7.60754E-19
 -1       376 9.65799E-05-2.99628E-05-2.85579E-05-3.36460E-06-1.77138E-19-1.01094E-19
 -1       377 9.56255E-05-2.97101E-05-2.82564E-05-4.90803E-06 2.04194E-18-2.14859E-19
 -1       378 9.41404E-05-2.90717E-05-2.78910E-05-6.35178E-06 6.29993E-19 8.70462E-19
 -1       379 9.21296E-05-2.79781E-05-2.74934E-05-7.29905E-06-3.88178E-19 1.02511E-18
 -1       380 8.97530E-05-2.64848E-05-2.71090E-05-7.29198E-06-7.64395E-19 6.88683E-19
 -1       381 8.73628E-05-2.48290E-05-2.67881E-05-5.96804E-06-7.21849E-19 1.31375E-18
 -1       382 8.54572E-05-2.34106E-05-2.65745E-05-3.25896E-06 2.92466E-19 8.34768E-19
 -1       383 8.45309E-05-2.26688E-05-2.64935E-05 4.72112E-07 1.03276E-18 1.38633E-18
 -1       384 8.48812E-05-2.29093E-05-2.65427E-05 4.46210E-06 5.73848E-20 9.40726E-20
 -1       385 8.64979E-05-2.42067E-05-2.66868E-05 7.73854E-06-8.89226E-19-2.02188E-18
 -1       386 8.90800E-05-2.64303E-05-2.68491E-05 9.38989E-06 6.93292E-20-1.61915E-18
 -1       387 9.17698E-05-2.88742E-05-2.69734E-05 8.82263E-06-2.70329E-19-1.79254E-18
 -1       388 9.43858E-05-2.73454E-05-2.86934E-05 2.46234E-06 1.94949E-18 1.22809E-18
 -1       389 9.31823E-05-2.74660E-05-2.81423E-05 7.36428E-07 1.56284E-18 7.23116E-19
 -1       390 9.26314E-05-2.75444E-05-2.78845E-05-1.85680E-07 6.93814E-19 2.53953E-19
 -1       391 9.24927E-05-2.76379E-05-2.77908E-05-6.62498E-07 1.74168E-19-8.24037E-20
 -1       392 9.25987E-05-2.77483E-05-2.77915E-05-8.80943E-07 3.93023E-19-2.31601E-19
 -1       393 9.28515E-05-2.78719E-05-2.78480E-05-9.47088E-07 6.28206E-19-8.65676E-21
 -1       394 9.31519E-05-2.79866E-05-2.79283E-05-9.18529E-07 8.97755E-19-1.14576E-19
 -1       395 9.34664E-05-2.80929E-05-2.80179E-05-8.41219E-07 3.16114E-19-2.74908E-19
 -1       396 9.37680E-05-2.81872E-05-2.81068E-05-7.40071E-07 1.23081E-19-7.13182E-19
 -1       397 9.40418E-05-2.82681E-05-2.81896E-05-6.31179E-07 8.02376E-19-1.12033E-18
 -1       398 9.42810E-05-2.83356E-05-2.82632E-05-5.24668E-07 1.02323E-18-1.40968E-18
 -1       399 9.44841E-05-2.83905E-05-2.83266E-05-4.26600E-07 8.06622E-19-7.48076E-19
 -1       400 9.46525E-05-2.84343E-05-2.83799E-05-3.40315E-07 2.77581E-19-7.51062E-19
 -1       401 9.47901E-05-2.84687E-05-2.84240E-05-2.67424E-07-1.85804E-19-1.15904E-18
 -1       402 9.49061E-05-2.84964E-05-2.84618E-05-2.05859E-07 4.06464E-19-1.76181E-18
 -1       403 9.49953E-05-2.85165E-05-2.84912E-05-1.61654E-07 4.92185E-19-1.80960E-18
 -1       404 9.50698E-05-2.85322E-05-2.85163E-05-1.31460E-07 3.84532E-20-1.54858E-18
 -1       405 9.51357E-05-2.85453E-05-2.85388E-05-1.15606E-07-1.48168E-19-2.51971E-18
 -1       406 9.51998E-05-2.85573E-05-2.85610E-05-1.14974E-07-1.67149E-19-2.73265E-18
 -1       407 9.52694E-05-2.85699E-05-2.85853E-05-1.31352E-07 5.32415E-21-2.13536E-18
 -1       408 9.53532E-05-2.85850E-05-2.86145E-05-1.67811E-07 5.16293E-19-6.13133E-19
 -1       409 9.54615E-05-2.86047E-05-2.86522E-05-2.29227E-07 5.17367E-19-5.50030E-19
 -1       410 9.56071E-05-2.86316E-05-2.87028E-05-3.22759E-07 1.13679E-20-3.40434E-19
 -1       411 9.58178E-05-2.86700E-05-2.87761E-05-4.68055E-07-4.73597E-19 4.76981E-20
 -1       412 9.60968E-05-2.87204E-05-2.88734E-05-6.68824E-07-2.45287E-19-9.95578E-19
 -1       413 9.64798E-05-2.87876E-05-2.90077E-05-9.54385E-07 3.49214E-19-2.02042E-18
 -1       414 9.70045E-05-2.88760E-05-2.91934E-05-1.36085E-06-7.38141E-19-1.08264E-18
 -1       415 9.77200E-05-2.89899E-05-2.94492E-05-1.94015E-06-5.86179E-19 3.33147E-19
 -1       416 9.86901E-05-2.91344E-05-2.98003E-05-2.76620E-06 3.46786E-19 7.82566E-19
 -1       417 9.99959E-05-2.93156E-05-3.02788E-05-3.94058E-06 1.36834E-18-1.20432E-18
 -1       418 1.01737E-04-2.95449E-05-3.09230E-05-5.59385E-06 1.09530E-18-2.05761E-18
 -1       419 1.04033E-04-2.98521E-05-3.17729E-05-7.86685E-06 5.97423E-20-5.34187E-19
 -1       420 1.07184E-04-3.03584E-05-3.29083E-05-1.10192E-05-1.11259E-18-9.64793E-19
 -1       421 1.11073E-04-3.12672E-05-3.41961E-05-1.46387E-05 7.02640E-19-1.43344E-18
 -1       422 1.16121E-04-3.32209E-05-3.55377E-05-1.81224E-05-8.93620E-20-2.19457E-18
 -1       423 1.22955E-04-3.75082E-05-3.66316E-05-1.95165E-05 2.16563E-19-1.57575E-18
 -1       424 1.32665E-04-4.58399E-05-3.71819E-05-1.49622E-05-2.10362E-19-2.99637E-18
 -1       425 1.45748E-04-5.78046E-05-3.76441E-05 5.10774E-07 1.70877E-18-3.48227E-18
 -1       426 1.57557E-04-6.37493E-05-4.04722E-05 2.68559E-05-6.72743E-19-5.70265E-18
 -1       427 1.59250E-04-4.70850E-05-4.87812E-05 4.40787E-05-3.21115E-18-4.58912E-18
 -1       428 1.52433E-04-2.13835E-05-5.66419E-05 2.44161E-05-2.46868E-18-5.95276E-18
 -1       429 1.49333E-04-2.40078E-05-5.42437E-05-8.71362E-06-1.12613E-18-4.64111E-18
 -1       430 1.49505E-04-4.62424E-05-4.49191E-05-2.29098E-05 3.04466E-18-4.90750E-18
 -1       431 1.35597E-04-5.83831E-05-3.31435E-05 1.73164E-05 1.51430E-18-1.96213E-18
 -1       432 1.13843E-04-3.84973E-05-3.22883E-05 2.73704E-05-3.47647E-19-1.71181E-18
 -1       433 7.52328E-05-1.06733E-05-2.71199E-05 4.51444E-05-3.32802E-18-6.11664E-19
 -1       434 9.95008E-05-2.83666E-05-3.00430E-05 5.09065E-05-1.71093E-18-4.60553E-18
 -1       435 5.42746E-05 3.31806E-06-2.40585E-05 1.66669E-05-4.01035E-18 4.69415E-18
 -1       436 5.29772E-05 3.48877E-06-2.36067E-05-2.42590E-05-3.16300E-18 3.10903E-18
 -1       437 7.46288E-05-1.26456E-05-2.60715E-05-5.64252E-05-1.93313E-18 1.31878E-18
 -1       438 1.03109E-04-3.41739E-05-2.92250E-05-6.09760E-05-1.20755E-19-4.01333E-18
 -1       439 1.16682E-04-4.60744E-05-3.01489E-05-4.12813E-05 5.91887E-19-1.77734E-18
 -1       440 1.14987E-04-4.72231E-05-2.89699E-05-1.85191E-05 1.25752E-18 9.00422E-19
 -1       441 1.08820E-04-4.46635E-05-2.74210E-05-2.18240E-06-1.49301E-19 1.96038E-18
 -1       442 1.03320E-04-4.15300E-05-2.64263E-05 6.98810E-06-8.29341E-19 4.13400E-18
 -1       443 9.95591E-05-3.85566E-05-2.61142E-05 1.10184E-05 5.46447E-19 2.29219E-18
 -1       444 9.70949E-05-3.57670E-05-2.62767E-05 1.18705E-05 4.74057E-19 8.45794E-19
 -1       445 9.52757E-05-3.31367E-05-2.66453E-05 1.08498E-05 6.67507E-19 7.37198E-19
 -1       446 7.57828E-05-5.41056E-05-9.28204E-06 5.92523E-05-1.41857E-18-3.05668E-18
 -1       447 1.56618E-05-3.94259E-05 8.19822E-06-1.42156E-05-1.46876E-18 8.40299E-18
 -1       448 3.04805E-05-3.73042E-05 2.20982E-06 3.08770E-05-9.52912E-20 3.13932E-18
 -1       449 1.25813E-04-7.45744E-05-2.20495E-05 5.33252E-05 9.93146E-19-7.48465E-18
 -1       450 6.23767E-05-5.60152E-05-4.33079E-06-5.88269E-05-3.35954E-18 6.01949E-19
 -1       451 1.61279E-04-7.72681E-05-3.60259E-05 3.19337E-05 1.35483E-18-5.74119E-18
 -1       452 2.59842E-05-4.97453E-05 7.73713E-06-3.32898E-05-8.29669E-19 5.64272E-18
 -1       453 8.93415E-05-1.18567E-05-3.32810E-05-1.06782E-05-2.48119E-18-2.92528E-18
 -1       454 1.84293E-04-3.67237E-05-6.25605E-05-4.23247E-06-5.84876E-19-4.96880E-18
 -1       455 1.83796E-04-2.20742E-05-6.82218E-05 8.83717E-06-2.39562E-18-6.58364E-18
 -1       456 1.96047E-04-2.91992E-05-6.98442E-05 2.32174E-05-1.39337E-18-7.88503E-18
 -1       457 1.87503E-04-4.78563E-05-5.93360E-05 3.08605E-05-3.14249E-18-5.93114E-18
 -1       458 1.74686E-04-7.12634E-05-4.44798E-05 1.72170E-05-7.65374E-19-4.43771E-18
 -1       459 1.33770E-04-7.58925E-05-2.51983E-05-1.93120E-05 4.98267E-19-1.90614E-18
 -1       460 8.61335E-05-6.32266E-05-1.02525E-05-3.29365E-05 5.99276E-19 1.71101E-18
 -1       461 4.48988E-05-4.56173E-05 2.02171E-07-3.03179E-05 1.70624E-18 5.05255E-19
 -1       462 1.38110E-05-3.43790E-05 8.45165E-06-7.81639E-06 1.13873E-19 7.69212E-19
 -1       463 1.12829E-05-3.17651E-05 8.50987E-06 1.93851E-05 4.55810E-19 1.88888E-19
 -1       464 3.41776E-05-3.79293E-05 1.55918E-06 4.33157E-05 3.77459E-19 1.32359E-18
 -1       465 6.89375E-05-4.99127E-05-8.26077E-06 5.23287E-05 2.36852E-19-3.09045E-18
 -1       466 1.13206E-04-5.97035E-05-2.29394E-05 4.71520E-05 1.32402E-18-1.51794E-18
 -1       467 1.48153E-04-5.91694E-05-3.82071E-05 2.85284E-05-2.58927E-19 2.09895E-18
 -1       468 1.70214E-04-4.14348E-05-5.51508E-05 4.96980E-06-2.44006E-18 2.52691E-18
 -1       469 1.75364E-04-2.48686E-05-6.45693E-05-4.57306E-06-3.39703E-18 1.64684E-18
 -1       470 1.83128E-04-1.33249E-05-7.25193E-05-7.69416E-06-1.15991E-18 4.68886E-19
 -1       471 1.76857E-04-1.02614E-05-7.13514E-05-8.97951E-06 3.10903E-18 9.80282E-19
 -1       472 1.66124E-04-2.31936E-05-6.17451E-05-6.67070E-06 1.38151E-18-4.40669E-19
 -1       473 1.65742E-04-5.32486E-05-4.80672E-05-3.37276E-05 1.74510E-18-1.82356E-18
 -1       474 1.39317E-04-6.10085E-05-3.33196E-05-5.82013E-05 1.22439E-18-7.64977E-19
 -1       475 9.83491E-05-5.76928E-05-1.78556E-05-6.65163E-05-1.48231E-18 1.74881E-18
 -1       476 1.83557E-04-6.01673E-05-5.25016E-05 4.19968E-06 2.23316E-18-6.51368E-18
 -1       477 1.53883E-04-6.17531E-05-3.98376E-05-9.77421E-06 2.88679E-18-3.89143E-18
 -1       478 1.58533E-04-4.03982E-05-5.11566E-05-6.45591E-06 1.67273E-18-3.22810E-18
 -1       479 9.58286E-05-2.51500E-05-3.02766E-05 6.00961E-06 2.34549E-18-3.21198E-19
 -1       480 8.95309E-05-1.33949E-05-3.26485E-05-3.92041E-06-1.06906E-18-3.44907E-18
 -1       481 9.02402E-05-1.43581E-05-3.25410E-05-5.87604E-06-1.62402E-18-3.38397E-18
 -1       482 8.90308E-05-1.27137E-05-3.27251E-05 5.45240E-08 8.77315E-21-3.58729E-18
 -1       483 8.91668E-05-1.28976E-05-3.27049E-05 2.04334E-06 4.91690E-19-3.56626E-18
 -1       484 8.95634E-05-1.34359E-05-3.26452E-05 3.99405E-06 1.00810E-18-3.51894E-18
 -1       485 9.02902E-05-1.44242E-05-3.25350E-05 5.94634E-06 1.68711E-18-3.23734E-18
 -1       486 9.14414E-05-1.60045E-05-3.23532E-05 7.77256E-06 2.20833E-18-2.61305E-18
 -1       487 9.32348E-05-1.84782E-05-3.20587E-05 9.28733E-06 2.66609E-18-1.91947E-18
 -1       488 9.54953E-05-2.44431E-05-3.04424E-05-5.82446E-06-2.27439E-18-8.45299E-19
 -1       489 1.45521E-04-7.51619E-05-2.99352E-05 3.61301E-05 2.70489E-18-4.37281E-18
 -1       490 9.51227E-05-2.65797E-05-2.93576E-05 2.86450E-06 1.89259E-18-4.28696E-19
 -1       491 9.45940E-05-2.06859E-05-3.16926E-05-9.58131E-06-2.73861E-18-1.22103E-18
 -1       492 9.52815E-05-2.62294E-05-2.95865E-05-2.88625E-06-1.82445E-18-8.66421E-19
 -1       493 9.49258E-05-2.71622E-05-2.90376E-05-1.01995E-06-1.31214E-18-1.08574E-18
 -1       494 9.46507E-05-2.76939E-05-2.86941E-05 1.04588E-07-8.80646E-19-1.17217E-18
 -1       495 9.44954E-05-2.80208E-05-2.84885E-05 7.40835E-07-5.88453E-19-1.11009E-18
 -1       496 9.44413E-05-2.82331E-05-2.83749E-05 1.05950E-06-6.35761E-19-1.03461E-18
 -1       497 9.44578E-05-2.83749E-05-2.83214E-05 1.17535E-06-5.76791E-19-1.20585E-18
 -1       498 9.45177E-05-2.84702E-05-2.83063E-05 1.16581E-06-8.76207E-19-1.38321E-18
 -1       499 9.46001E-05-2.85332E-05-2.83147E-05 1.08325E-06-6.41437E-19-1.27377E-18
 -1       500 9.46905E-05-2.85732E-05-2.83363E-05 9.62902E-07-2.49149E-19-1.20712E-18
 -1       501 9.47799E-05-2.85969E-05-2.83645E-05 8.28110E-07-1.73931E-19-9.14560E-19
 -1       502 9.48629E-05-2.86088E-05-2.83949E-05 6.93922E-07-3.87414E-19-1.17315E-18
 -1       503 9.49367E-05-2.86125E-05-2.84249E-05 5.69667E-07-6.11686E-19-1.29947E-18
 -1       504 9.50007E-05-2.86105E-05-2.84532E-05 4.60821E-07-3.14588E-19-1.35000E-18
 -1       505 9.50554E-05-2.86046E-05-2.84791E-05 3.70383E-07-4.74275E-19-1.46007E-18
 -1       506 9.51020E-05-2.85960E-05-2.85027E-05 2.99882E-07-7.61662E-19-1.32148E-18
 -1       507 9.51424E-05-2.85855E-05-2.85245E-05 2.50096E-07-7.03327E-19-1.27056E-18
 -1       508 9.51789E-05-2.85736E-05-2.85452E-05 2.21542E-07 2.72550E-19-8.88848E-19
 -1       509 9.52139E-05-2.85608E-05-2.85656E-05 2.14783E-07 4.25336E-19-1.49310E-18
 -1       510 9.52502E-05-2.85477E-05-2.85868E-05 2.30541E-07 7.25994E-19-1.44521E-18
 -1       511 9.52911E-05-2.85351E-05-2.86096E-05 2.69612E-07 4.41215E-20-1.54668E-18
 -1       512 9.53402E-05-2.85247E-05-2.86350E-05 3.32542E-07-1.37472E-19-1.40489E-18
 -1       513 9.54017E-05-2.85192E-05-2.86637E-05 4.19002E-07-8.32194E-19-1.32890E-18
 -1       514 9.54806E-05-2.85229E-05-2.86959E-05 5.26773E-07-8.07026E-19-5.68322E-21
 -1       515 9.55829E-05-2.85426E-05-2.87313E-05 6.50259E-07-2.84727E-19 4.79791E-19
 -1       516 9.57158E-05-2.85880E-05-2.87689E-05 7.78442E-07-5.89212E-19 3.24997E-19
 -1       517 9.58875E-05-2.86726E-05-2.88063E-05 8.92266E-07-3.17548E-20 3.01143E-20
 -1       518 9.61074E-05-2.88136E-05-2.88403E-05 9.61625E-07 6.98243E-19 2.26887E-19
 -1       519 9.63843E-05-2.90309E-05-2.88661E-05 9.42397E-07-5.74282E-20 4.03168E-19
 -1       520 9.67244E-05-2.93439E-05-2.88782E-05 7.74546E-07-3.07351E-19-4.75552E-19
 -1       521 9.71261E-05-2.97640E-05-2.88709E-05 3.83086E-07-8.35796E-19 2.70273E-19
 -1       522 9.75711E-05-3.02827E-05-2.88401E-05-3.15134E-07-1.63668E-19 3.38311E-19
 -1       523 9.80113E-05-3.08525E-05-2.87852E-05-1.39466E-06 5.48913E-19 1.28592E-19
 -1       524 9.83530E-05-3.13662E-05-2.87121E-05-2.88992E-06 8.66498E-19 1.21255E-18
 -1       525 9.84463E-05-3.16413E-05-2.86342E-05-4.74664E-06 9.86764E-19 1.79368E-18
 -1       526 9.80927E-05-3.14311E-05-2.85720E-05-6.76299E-06 8.62095E-19 9.12308E-20
 -1       527 9.70936E-05-3.04849E-05-2.85473E-05-8.54228E-06 5.66125E-19-2.12545E-20
 -1       528 9.53516E-05-2.86744E-05-2.85740E-05-9.50447E-06-7.55504E-19 1.36869E-18
 -1       529 9.30061E-05-2.61584E-05-2.86443E-05-9.01711E-06-1.36906E-18 7.04581E-19
 -1       530 9.05076E-05-2.34756E-05-2.87211E-05-6.66857E-06-1.76641E-18-2.66063E-19
 -1       531 8.85229E-05-2.14352E-05-2.87437E-05-2.57293E-06 7.33372E-19-7.49145E-20
 -1       532 8.76547E-05-2.07896E-05-2.86473E-05 2.49802E-06 4.80931E-19-3.59299E-19
 -1       533 8.81398E-05-2.18877E-05-2.83868E-05 7.33959E-06-1.73824E-18-8.82888E-19
 -1       534 8.98392E-05-2.46370E-05-2.79457E-05 1.06657E-05-1.39136E-18-1.99759E-18
 -1       535 9.41560E-05-2.76887E-05-2.84824E-05-1.32323E-07 7.54406E-19-6.35061E-19
 -1       536 9.39811E-05-2.79355E-05-2.83039E-05-7.44208E-07 4.04430E-19-8.64306E-19
 -1       537 9.39553E-05-2.81164E-05-2.82165E-05-1.05181E-06 2.42560E-19-7.60995E-19
 -1       538 9.40239E-05-2.82404E-05-2.81931E-05-1.14785E-06 6.61367E-19-4.90342E-19
 -1       539 9.41437E-05-2.83349E-05-2.82042E-05-1.12808E-06 4.68165E-19-2.65851E-19
 -1       540 9.42860E-05-2.84062E-05-2.82347E-05-1.04193E-06 4.67297E-19-4.03322E-22
 -1       541 9.44324E-05-2.84595E-05-2.82747E-05-9.22067E-07 9.63169E-19-4.90010E-19
 -1       542 9.45716E-05-2.84985E-05-2.83176E-05-7.89993E-07 8.88601E-19-6.76865E-19
 -1       543 9.46973E-05-2.85263E-05-2.83596E-05-6.59439E-07 6.90185E-19-7.67141E-19
 -1       544 9.48072E-05-2.85451E-05-2.83985E-05-5.38809E-07 2.82563E-19-6.35776E-19
 -1       545 9.49009E-05-2.85573E-05-2.84334E-05-4.32892E-07 8.90686E-19-8.51829E-19
 -1       546 9.49832E-05-2.85645E-05-2.84655E-05-3.40416E-07 7.92054E-19-1.38619E-18
 -1       547 9.50487E-05-2.85673E-05-2.84923E-05-2.71309E-07-2.36401E-19-1.46856E-18
 -1       548 9.51049E-05-2.85673E-05-2.85162E-05-2.21456E-07 3.85014E-19-6.78858E-19
 -1       549 9.51550E-05-2.85652E-05-2.85386E-05-1.91495E-07 4.54299E-20-5.45745E-19
 -1       550 9.52031E-05-2.85614E-05-2.85607E-05-1.82597E-07 4.91852E-21-3.29357E-19
 -1       551 9.52532E-05-2.85561E-05-2.85844E-05-1.96861E-07-2.01783E-19-4.68655E-19
 -1       552 9.53102E-05-2.85492E-05-2.86117E-05-2.37785E-07-7.88439E-19-1.00693E-19
 -1       553 9.53795E-05-2.85402E-05-2.86451E-05-3.10830E-07-7.84605E-20 3.79682E-19
 -1       554 9.54669E-05-2.85280E-05-2.86876E-05-4.23945E-07 2.97568E-20 1.00434E-18
 -1       555 9.55854E-05-2.85092E-05-2.87462E-05-5.99291E-07-9.84533E-20 4.87705E-19
 -1       556 9.57313E-05-2.84812E-05-2.88204E-05-8.38469E-07-3.57874E-20 1.82280E-19
 -1       557 9.59164E-05-2.84368E-05-2.89183E-05-1.17241E-06 1.15595E-19 4.38594E-19
 -1       558 9.61465E-05-2.83643E-05-2.90473E-05-1.63648E-06-6.93751E-19 4.21084E-19
 -1       559 9.64237E-05-2.82461E-05-2.92157E-05-2.27956E-06-9.90315E-19-4.35158E-19
 -1       560 9.67427E-05-2.80551E-05-2.94329E-05-3.16870E-06 3.50403E-19-3.93292E-19
 -1       561 9.70845E-05-2.77536E-05-2.97067E-05-4.39288E-06 1.41873E-18-2.06382E-19
 -1       562 9.74089E-05-2.72951E-05-3.00397E-05-6.06388E-06 1.66260E-18-1.17673E-19
 -1       563 9.76518E-05-2.66404E-05-3.04222E-05-8.30785E-06 2.65735E-19 3.95935E-19
 -1       564 9.77236E-05-2.57626E-05-3.08268E-05-1.14018E-05-5.11571E-19-4.97168E-19
 -1       565 9.75784E-05-2.49550E-05-3.11117E-05-1.50985E-05 3.65827E-19-9.92804E-19
 -1       566 9.74933E-05-2.48896E-05-3.11031E-05-1.93322E-05 7.00235E-19-1.31530E-18
 -1       567 9.83921E-05-2.71752E-05-3.04941E-05-2.35392E-05 8.62468E-20-1.52067E-18
 -1       568 1.03191E-04-3.51805E-05-2.90164E-05-2.61040E-05 1.13985E-18-2.76513E-18
 -1       569 1.16485E-04-5.22996E-05-2.72435E-05-2.35513E-05 2.38072E-18-2.58000E-18
 -1       570 1.45920E-04-7.25650E-05-3.14194E-05-4.05985E-06 1.66172E-18-2.99475E-18
 -1       571 3.27277E-05-9.33229E-06-9.42013E-06-3.24263E-06-3.61132E-18 9.28052E-18
 -1       572 9.46673E-05-4.28931E-05-2.16243E-05 5.66867E-05-1.44006E-18-4.61299E-18
 -1       573 5.12374E-05-1.84640E-05-1.33847E-05-5.26337E-05-1.70513E-18 2.00959E-18
 -1       574 9.45428E-05-4.15096E-05-2.21298E-05-7.21389E-05 2.34046E-19-2.45904E-19
 -1       575 1.28705E-04-5.75713E-05-3.02723E-05-5.54393E-05 1.58382E-18-4.05172E-18
 -1       576 1.31902E-04-5.41103E-05-3.33785E-05-2.63591E-05 2.30165E-18 8.42533E-20
 -1       577 1.19816E-04-4.39298E-05-3.25195E-05-6.17663E-06 1.26172E-18-6.56755E-19
 -1       578 1.08610E-04-3.68739E-05-3.07258E-05 5.41952E-06 3.73728E-19 2.67760E-18
 -1       579 1.01135E-04-3.29810E-05-2.91909E-05 1.10575E-05 3.90849E-19 4.38547E-18
 -1       580 9.67165E-05-3.09746E-05-2.81686E-05 1.30546E-05 5.90527E-19 2.31889E-18
 -1       581 9.41944E-05-2.98557E-05-2.75684E-05 1.27892E-05 1.69045E-18 1.21638E-18
 -1       582 1.13265E-04-6.13775E-05-2.23803E-05 5.78688E-05-2.69356E-19-5.19972E-18
 -1       583 9.45317E-05-2.72956E-05-2.88068E-05 9.73345E-07 1.39465E-18-3.76384E-19
 -1       584 9.26872E-05-5.46192E-05-1.62286E-05-7.35635E-05-1.24673E-18 1.39760E-19
 -1       585 1.56057E-04-5.59352E-05-4.31973E-05 1.69157E-06-1.07944E-18 1.07478E-18
 -1       586 7.20227E-05-4.47175E-05-1.15217E-05-6.93685E-05-2.74756E-19 2.95964E-18
 -1       587 8.91469E-05-1.28725E-05-3.27070E-05-1.93488E-06-4.59988E-19-3.45992E-18
 -1       588 1.44086E-04-8.98010E-07-6.21509E-05-8.10986E-06 9.97487E-19-1.71416E-18
 -1       589 8.00886E-05-5.03972E-05-1.23140E-05-3.52769E-05 1.76246E-18 1.09786E-18
 -1       590 3.45233E-05-2.56678E-05-3.15901E-06-2.26943E-05 9.20090E-20 6.55921E-19
 -1       591 1.93986E-05-1.50497E-05-1.10518E-06 3.87964E-06-3.34012E-19-6.23840E-19
 -1       592 2.96746E-05-2.05838E-05-3.19611E-06 3.32368E-05-6.84297E-19 7.67941E-19
 -1       593 6.55448E-05-3.95423E-05-1.05576E-05 5.11523E-05-8.26916E-20-1.26012E-18
 -1       594 1.00903E-04-5.72119E-05-1.84161E-05 4.94186E-05 3.76083E-19-1.55906E-18
 -1       595 1.37211E-04-6.71980E-05-3.00327E-05 2.92362E-05-2.64142E-19 1.50094E-18
 -1       596 1.55134E-04-3.11885E-05-5.36571E-05-1.45530E-05-2.13521E-18-1.54504E-18
 -1       597 1.47706E-04-9.29133E-06-6.00002E-05-1.57891E-05-1.77697E-18-1.95487E-18
 -1       598 1.41203E-04-7.72921E-06-5.79919E-05 1.25224E-06 3.42455E-18-8.74906E-19
 -1       599 1.52868E-04-6.54580E-05-3.74492E-05-4.03145E-05 2.79497E-18-3.24853E-18
 -1       600 9.61684E-05-2.31923E-05-3.12790E-05 9.57572E-06 2.91816E-18-6.07796E-20
 -1       601 1.26585E-04-6.53332E-05-2.60943E-05-6.60282E-05 8.27128E-19-1.62011E-18
 -1       602 5.90635E-05-2.51117E-05-1.39527E-05 4.71076E-05-3.46119E-18-1.49501E-18
 -1       603 9.13290E-05-1.58253E-05-3.23801E-05-7.76128E-06-2.09416E-18-2.96213E-18
 -1       604 9.17423E-05-2.77768E-05-2.74153E-05 1.15883E-05 1.80550E-19-1.79555E-18
 -1       605 1.07906E-04-6.04654E-05-1.99760E-05-2.94480E-05 2.63655E-18-2.32378E-18
 -1       606 1.50579E-04-5.31712E-05-4.20244E-05-1.48749E-05 2.95760E-18-1.73014E-18
 -1       607 6.25971E-05-3.21745E-05-1.23553E-05-3.14039E-05 1.14175E-18 8.26598E-19
 -1       608 1.52750E-04-7.35539E-05-3.39740E-05 2.22641E-05 3.22555E-18-3.15975E-18
 -1       609 1.39783E-04-2.10415E-05-5.14165E-05 4.68404E-06 2.06125E-18-6.21616E-19
 -1       610 9.15420E-05-1.68420E-05-3.20199E-05 2.43659E-06 6.98621E-19-3.14261E-18
 -1       611 9.12818E-05-1.64392E-05-3.20808E-05 8.39042E-07 2.18788E-19-3.14843E-18
 -1       612 9.28857E-05-1.89939E-05-3.16735E-05 5.25751E-06 1.71585E-18-2.49374E-18
 -1       613 9.39876E-05-2.09303E-05-3.13181E-05 6.13201E-06 2.15344E-18-1.98248E-18
 -1       614 9.50340E-05-2.36535E-05-3.05906E-05-4.73060E-06-2.00544E-18-1.82697E-18
 -1       615 9.52757E-05-2.40936E-05-3.04965E-05 5.13923E-06 2.09042E-18-1.42906E-18
 -1       616 9.49246E-05-2.83801E-05-2.85191E-05-1.07189E-06 3.11240E-19-1.40564E-18
 -1       617 9.54166E-05-2.57050E-05-2.98744E-05-2.42705E-06-1.58596E-18-1.75030E-18
 -1       618 9.54758E-05-2.69432E-05-2.93703E-05-8.54099E-07-1.01463E-18-1.46591E-18
 -1       619 9.54206E-05-2.77041E-05-2.90211E-05 1.48260E-07-5.48751E-19-1.33166E-18
 -1       620 9.53442E-05-2.81765E-05-2.87861E-05 7.36880E-07-4.72697E-19-1.45331E-18
 -1       621 9.52793E-05-2.84682E-05-2.86334E-05 1.03892E-06-7.09476E-19-1.39851E-18
 -1       622 9.52337E-05-2.86431E-05-2.85389E-05 1.15055E-06-7.58994E-19-1.31568E-18
 -1       623 9.52056E-05-2.87411E-05-2.84849E-05 1.14157E-06-5.44763E-19-8.48097E-19
 -1       624 9.51909E-05-2.87882E-05-2.84584E-05 1.06135E-06-4.61840E-19-1.25163E-18
 -1       625 9.51855E-05-2.88021E-05-2.84501E-05 9.44040E-07-3.52140E-19-1.78182E-18
 -1       626 9.51859E-05-2.87950E-05-2.84534E-05 8.12644E-07-3.57861E-19-1.71583E-18
 -1       627 9.51898E-05-2.87750E-05-2.84636E-05 6.82195E-07-2.46682E-19-8.69296E-19
 -1       628 9.51956E-05-2.87477E-05-2.84778E-05 5.62127E-07-6.19605E-19-8.79997E-19
 -1       629 9.52022E-05-2.87166E-05-2.84939E-05 4.58103E-07-7.52705E-19-1.58620E-18
 -1       630 9.52089E-05-2.86837E-05-2.85108E-05 3.73378E-07-4.35164E-19-1.61357E-18
 -1       631 9.52155E-05-2.86501E-05-2.85281E-05 3.09800E-07-5.27564E-19-5.58246E-19
 -1       632 9.52220E-05-2.86159E-05-2.85455E-05 2.68511E-07-3.94522E-19-1.01051E-18
 -1       633 9.52287E-05-2.85809E-05-2.85633E-05 2.50438E-07-1.72485E-19-1.51980E-18
 -1       634 9.52360E-05-2.85450E-05-2.85818E-05 2.56576E-07 6.88533E-19-1.86098E-18
 -1       635 9.52448E-05-2.85082E-05-2.86014E-05 2.88073E-07 8.96240E-19-2.09722E-18
 -1       636 9.52567E-05-2.84711E-05-2.86223E-05 3.46092E-07 3.39649E-19-8.69286E-19
 -1       637 9.52741E-05-2.84361E-05-2.86448E-05 4.31415E-07-9.94494E-19-1.11687E-18
 -1       638 9.53010E-05-2.84072E-05-2.86687E-05 5.43727E-07-1.00701E-19-1.11740E-18
 -1       639 9.53435E-05-2.83923E-05-2.86933E-05 6.80478E-07 4.34872E-20-2.82634E-19
 -1       640 9.54113E-05-2.84036E-05-2.87175E-05 8.35217E-07-1.11361E-20 7.74553E-19
 -1       641 9.55182E-05-2.84592E-05-2.87395E-05 9.95315E-07-3.06303E-19 1.34064E-18
 -1       642 9.56842E-05-2.85846E-05-2.87570E-05 1.13901E-06-2.45170E-19 2.20178E-19
 -1       643 9.59356E-05-2.88125E-05-2.87671E-05 1.23185E-06 3.97167E-19-7.19923E-19
 -1       644 9.63054E-05-2.91809E-05-2.87678E-05 1.22297E-06-5.64458E-19-9.88496E-19
 -1       645 9.68290E-05-2.97271E-05-2.87583E-05 1.04194E-06 3.98816E-19 3.03130E-19
 -1       646 9.75364E-05-3.04740E-05-2.87416E-05 5.98238E-07-1.17851E-18 7.19229E-19
 -1       647 9.84348E-05-3.14075E-05-2.87269E-05-2.13324E-07 4.81157E-20 1.46222E-18
 -1       648 9.94808E-05-3.24419E-05-2.87320E-05-1.49491E-06 2.29762E-19 6.04885E-19
 -1       649 1.00544E-04-3.33807E-05-2.87853E-05-3.30623E-06 5.47650E-19-1.78002E-18
 -1       650 1.01376E-04-3.38917E-05-2.89231E-05-5.59578E-06 8.66302E-19-1.07866E-18
 -1       651 1.01617E-04-3.35309E-05-2.91803E-05-8.10810E-06 7.52508E-19-1.29710E-18
 -1       652 1.00879E-04-3.18725E-05-2.95731E-05-1.02933E-05 1.02775E-19-1.35020E-18
 -1       653 9.89484E-05-2.87662E-05-3.00757E-05-1.13141E-05-8.93902E-19-1.63105E-18
 -1       654 9.60619E-05-2.46667E-05-3.05964E-05-1.02840E-05-1.08760E-18-4.05991E-19
 -1       655 9.29905E-05-2.07067E-05-3.09772E-05-6.75805E-06-3.66425E-19 1.59042E-18
 -1       656 9.07853E-05-1.83447E-05-3.10434E-05-1.20989E-06-1.25530E-19 6.75536E-19
 -1       657 9.01546E-05-1.85796E-05-3.06699E-05 4.94383E-06-1.84531E-18-3.79078E-19
 -1       658 9.10002E-05-2.13775E-05-2.98443E-05 1.00638E-05-1.04768E-18 3.39843E-19
 -1       659 9.49877E-05-2.81148E-05-2.86596E-05-7.52674E-07 2.83821E-19-1.31455E-18
 -1       660 9.50984E-05-2.77077E-05-2.88811E-05-1.41223E-07 6.47178E-19-1.08151E-18
 -1       661 9.49060E-05-2.85346E-05-2.84450E-05-1.17649E-06 4.33830E-19-8.46227E-19
 -1       662 9.49153E-05-2.86277E-05-2.84091E-05-1.16150E-06 5.62296E-19-8.74069E-19
 -1       663 9.49418E-05-2.86794E-05-2.83983E-05-1.07620E-06 7.19228E-19-9.44690E-19
 -1       664 9.49770E-05-2.87034E-05-2.84032E-05-9.54664E-07 8.10282E-19-3.99970E-19
 -1       665 9.50152E-05-2.87089E-05-2.84172E-05-8.19692E-07 1.09294E-18-1.39903E-19
 -1       666 9.50529E-05-2.87027E-05-2.84359E-05-6.86071E-07 2.79078E-19 3.86104E-19
 -1       667 9.50881E-05-2.86894E-05-2.84567E-05-5.62939E-07 7.08077E-19 2.54894E-20
 -1       668 9.51213E-05-2.86707E-05-2.84789E-05-4.51045E-07 6.03726E-19 6.01811E-19
 -1       669 9.51494E-05-2.86505E-05-2.84996E-05-3.64128E-07 7.64139E-19 6.99547E-19
 -1       670 9.51747E-05-2.86288E-05-2.85197E-05-2.98118E-07-1.08509E-19 4.48945E-20
 -1       671 9.51982E-05-2.86059E-05-2.85396E-05-2.54303E-07-2.72477E-19 9.21902E-19
 -1       672 9.52208E-05-2.85811E-05-2.85599E-05-2.34059E-07-4.93436E-19 1.19611E-18
 -1       673 9.52440E-05-2.85536E-05-2.85816E-05-2.39420E-07 2.12989E-19 1.28031E-18
 -1       674 9.52688E-05-2.85215E-05-2.86059E-05-2.73556E-07-7.30084E-19 3.55955E-19
 -1       675 9.52963E-05-2.84821E-05-2.86346E-05-3.41261E-07-2.89002E-19-5.81668E-19
 -1       676 9.53269E-05-2.84316E-05-2.86693E-05-4.49378E-07-5.35983E-19 2.24778E-20
 -1       677 9.53613E-05-2.83597E-05-2.87148E-05-6.17542E-07 2.91857E-19 7.51976E-19
 -1       678 9.53928E-05-2.82639E-05-2.87693E-05-8.44256E-07-1.01371E-19 8.75372E-19
 -1       679 9.54160E-05-2.81277E-05-2.88374E-05-1.15461E-06 1.50594E-19 5.03135E-19
 -1       680 9.54162E-05-2.79304E-05-2.89219E-05-1.57408E-06-5.02418E-19-5.08086E-20
 -1       681 9.53676E-05-2.76417E-05-2.90245E-05-2.13597E-06-1.90186E-19 3.19365E-19
 -1       682 9.52258E-05-2.72174E-05-2.91451E-05-2.88294E-06-6.02260E-19-2.17815E-19
 -1       683 9.49182E-05-2.65972E-05-2.92786E-05-3.86761E-06 7.24528E-19 5.62076E-19
 -1       684 9.43320E-05-2.57031E-05-2.94098E-05-5.15118E-06 1.38342E-18 1.41836E-18
 -1       685 9.33047E-05-2.44507E-05-2.95057E-05-6.80063E-06 1.26255E-18 1.07940E-18
 -1       686 9.15032E-05-2.26864E-05-2.94884E-05-8.99002E-06 1.55001E-19 6.74446E-19
 -1       687 8.88258E-05-2.06288E-05-2.92223E-05-1.15770E-05 5.16290E-19 3.34836E-19
 -1       688 8.50557E-05-1.85931E-05-2.84737E-05-1.47389E-05 5.48004E-19 7.31781E-19
 -1       689 8.04176E-05-1.76938E-05-2.68515E-05-1.87544E-05 9.45474E-19-2.85443E-19
 -1       690 7.56277E-05-1.99437E-05-2.36695E-05-2.43953E-05 8.13483E-19-6.76938E-19
 -1       691 8.38122E-05-3.41926E-05-2.08122E-05-3.07045E-05 1.07911E-18-1.49065E-18
 -1       692 1.24115E-04-1.68124E-06-5.31061E-05-2.66700E-06 7.14102E-19-9.55122E-19
 -1       693 1.35686E-04-4.43354E-05-3.93373E-05-4.56775E-06 2.00193E-18-1.32463E-18
 -1       694 9.73628E-05-2.44930E-05-3.12297E-05 1.23197E-05 2.94699E-19 3.14031E-18
 -1       695 1.26443E-04-2.74545E-06-5.36428E-05-1.27919E-05-1.25938E-18-3.11663E-18
 -1       696 9.52372E-05-2.70404E-05-2.92249E-05 9.12584E-07 1.00875E-18-1.06034E-18
 -1       697 1.04576E-04-2.61952E-05-3.36122E-05 1.02883E-05 1.32575E-18 4.10280E-18
 -1       698 1.17053E-04-3.17930E-05-3.66293E-05 5.69013E-06 2.90611E-18 7.54283E-19
 -1       699 1.43857E-04-6.20128E-05-3.51631E-05 6.17273E-06 4.89962E-19 1.68229E-18
 -1       700 4.44174E-05-2.99507E-05-5.59227E-06-5.37488E-05-6.77626E-20 2.77414E-18
 -1       701 9.20691E-05-1.76701E-05-3.18911E-05 3.94348E-06 1.18631E-18-2.82913E-18
 -1       702 9.31786E-05-2.67271E-05-2.84716E-05 1.28214E-05 9.66604E-19 1.67211E-18
 -1       703 9.20280E-05-1.76136E-05-3.18976E-05-3.89168E-06-1.12787E-18-2.96921E-18
 -1       704 9.53432E-05-2.59431E-05-2.97394E-05 2.59252E-06 1.61404E-18-1.19528E-18
 -1       705 1.44671E-04-4.28493E-05-4.39754E-05-1.48413E-05-3.83388E-19-9.19057E-19
 -1       706 3.54412E-05-1.33188E-05-8.83793E-06-1.25451E-05 6.17712E-19-5.90647E-19
 -1       707 3.19774E-05-1.09741E-05-8.36531E-06 1.68856E-05-4.46241E-19 4.74656E-19
 -1       708 9.01181E-05-4.60444E-05-1.85252E-05 4.54802E-05 1.16883E-18-3.14977E-19
 -1       709 1.35448E-04-1.85153E-05-5.06353E-05-2.04090E-05-2.25284E-18-2.14580E-18
 -1       710 1.21378E-04-6.17458E-05-2.54592E-05 3.45473E-05 2.36423E-18 1.51484E-18
 -1       711 5.37759E-05-2.44364E-05-1.20507E-05 3.96950E-05-1.68639E-19-4.17481E-19
 -1       712 9.28450E-05-1.89027E-05-3.16962E-05-5.28010E-06-1.72607E-18-2.84520E-18
 -1       713 9.12747E-05-1.64297E-05-3.20818E-05-7.82048E-07-3.45794E-19-3.15704E-18
 -1       714 9.40859E-05-2.09020E-05-3.13714E-05-6.98213E-06-2.16980E-18-1.88014E-18
 -1       715 1.23310E-04-8.81011E-06-4.95705E-05 4.03476E-06 2.81204E-18 1.22994E-18
 -1       716 9.15191E-05-1.68105E-05-3.20235E-05-2.37616E-06-6.88588E-19-3.06831E-18
 -1       717 9.46683E-05-2.27605E-05-3.08147E-05 3.89650E-06 1.45476E-18-1.81620E-18
 -1       718 9.56232E-05-2.85992E-05-2.87246E-05-1.01300E-06 1.34859E-19-1.02726E-18
 -1       719 1.21180E-04-2.21999E-05-4.26931E-05 7.45767E-06 3.54482E-18 7.80713E-19
 -1       720 9.55663E-05-2.55006E-05-3.00281E-05-1.79330E-06-1.02550E-18-1.96631E-18
 -1       721 9.58623E-05-2.68805E-05-2.95638E-05-5.70211E-07-6.99259E-19-1.62608E-18
 -1       722 9.59546E-05-2.77696E-05-2.92222E-05 2.31910E-07-6.57574E-19-1.57590E-18
 -1       723 9.59425E-05-2.83318E-05-2.89761E-05 7.09886E-07-7.32216E-19-1.82130E-18
 -1       724 9.58811E-05-2.86744E-05-2.88029E-05 9.54545E-07-3.59250E-19-1.55766E-18
 -1       725 9.57999E-05-2.88692E-05-2.86846E-05 1.04034E-06-2.69939E-19-1.24514E-18
 -1       726 9.57144E-05-2.89655E-05-2.86067E-05 1.02426E-06-7.33544E-19-1.06834E-18
 -1       727 9.56326E-05-2.89973E-05-2.85580E-05 9.47931E-07-5.22006E-19-1.02953E-18
 -1       728 9.55587E-05-2.89881E-05-2.85303E-05 8.40704E-07-1.47857E-19-5.84567E-19
 -1       729 9.54941E-05-2.89543E-05-2.85171E-05 7.22599E-07 9.65459E-22-8.77707E-19
 -1       730 9.54390E-05-2.89067E-05-2.85139E-05 6.06785E-07-5.17977E-19-1.32470E-18
 -1       731 9.53928E-05-2.88524E-05-2.85174E-05 5.01582E-07-1.14100E-18-1.20831E-18
 -1       732 9.53543E-05-2.87954E-05-2.85253E-05 4.12087E-07-7.68948E-19-8.86446E-19
 -1       733 9.53221E-05-2.87379E-05-2.85361E-05 3.41373E-07 4.57651E-21-1.35175E-18
 -1       734 9.52945E-05-2.86804E-05-2.85489E-05 2.91343E-07-2.16160E-19-1.14549E-18
 -1       735 9.52700E-05-2.86225E-05-2.85632E-05 2.63361E-07-2.05272E-19-7.46272E-19
 -1       736 9.52470E-05-2.85634E-05-2.85787E-05 2.58719E-07-1.94834E-19-1.00869E-18
 -1       737 9.52243E-05-2.85023E-05-2.85952E-05 2.78888E-07 6.25269E-19-1.20343E-18
 -1       738 9.52014E-05-2.84388E-05-2.86125E-05 3.25589E-07 1.25427E-18-1.77041E-18
 -1       739 9.51784E-05-2.83739E-05-2.86305E-05 4.00684E-07-7.07651E-19-1.50130E-18
 -1       740 9.51574E-05-2.83109E-05-2.86485E-05 5.05838E-07-8.10857E-19-8.93329E-19
 -1       741 9.51432E-05-2.82567E-05-2.86656E-05 6.41887E-07 3.95783E-19-7.96713E-19
 -1       742 9.51446E-05-2.82233E-05-2.86805E-05 8.07800E-07 6.43242E-19-7.22663E-19
 -1       743 9.51768E-05-2.82302E-05-2.86914E-05 9.99117E-07-1.83010E-19-3.54673E-19
 -1       744 9.52636E-05-2.83061E-05-2.86961E-05 1.20565E-06-8.04083E-19-5.49763E-20
 -1       745 9.54403E-05-2.84911E-05-2.86925E-05 1.40825E-06-5.23377E-19 7.97006E-19
 -1       746 9.57555E-05-2.88367E-05-2.86795E-05 1.57440E-06-7.12242E-19-4.36928E-19
 -1       747 9.62716E-05-2.94027E-05-2.86582E-05 1.65255E-06 7.21505E-19-4.66850E-19
 -1       748 9.70604E-05-3.02475E-05-2.86343E-05 1.56548E-06 3.46206E-19-1.62672E-19
 -1       749 9.81898E-05-3.14079E-05-2.86210E-05 1.20410E-06 1.49751E-20 9.50367E-19
 -1       750 9.96960E-05-3.28620E-05-2.86434E-05 4.25811E-07-6.51627E-19-2.44356E-19
 -1       751 1.01536E-04-3.44735E-05-2.87415E-05-9.33059E-07-8.89795E-19 6.37447E-19
 -1       752 1.03519E-04-3.59193E-05-2.89711E-05-3.00798E-06-1.46984E-19 5.53610E-20
 -1       753 1.05249E-04-3.66573E-05-2.93971E-05-5.80744E-06 9.55856E-19-1.08154E-18
 -1       754 1.06100E-04-3.59360E-05-3.00710E-05-9.03733E-06 1.11887E-18-4.61588E-19
 -1       755 1.05412E-04-3.30914E-05-3.09935E-05-1.19232E-05 7.34421E-19 1.08240E-18
 -1       756 1.02857E-04-2.80141E-05-3.20777E-05-1.31437E-05 5.93461E-20 3.26738E-18
 -1       757 9.89501E-05-2.17671E-05-3.30865E-05-1.14204E-05-5.16843E-19 1.82190E-18
 -1       758 9.51769E-05-1.66106E-05-3.36744E-05-6.33106E-06-8.75476E-20 1.52573E-18
 -1       759 9.31103E-05-1.48555E-05-3.35441E-05 8.19617E-07-5.17085E-19 2.27910E-18
 -1       760 9.32375E-05-1.71878E-05-3.25971E-05 7.57754E-06-1.16091E-18 4.27093E-18
 -1       761 9.56890E-05-2.82681E-05-2.88947E-05-7.36248E-07 1.07216E-19-1.38850E-18
 -1       762 9.54966E-05-2.88722E-05-2.85533E-05-1.08275E-06 6.86309E-19-1.01424E-18
 -1       763 9.54438E-05-2.89083E-05-2.85152E-05-1.00091E-06 6.91626E-19-4.54336E-19
 -1       764 9.53995E-05-2.89080E-05-2.84964E-05-8.86687E-07 9.20607E-19-1.76121E-19
 -1       765 9.53633E-05-2.88852E-05-2.84907E-05-7.61061E-07 6.50471E-19-1.29690E-19
 -1       766 9.53343E-05-2.88498E-05-2.84934E-05-6.37688E-07 4.04574E-19-6.04381E-19
 -1       767 9.53105E-05-2.88057E-05-2.85021E-05-5.20204E-07 4.27550E-19-2.86547E-19
 -1       768 9.52930E-05-2.87608E-05-2.85138E-05-4.25106E-07 5.81771E-19 2.65002E-20
 -1       769 9.52797E-05-2.87151E-05-2.85277E-05-3.49470E-07 1.25612E-19 6.09660E-19
 -1       770 9.52696E-05-2.86689E-05-2.85432E-05-2.95341E-07-6.70051E-19 9.82321E-19
 -1       771 9.52615E-05-2.86213E-05-2.85601E-05-2.64360E-07-5.04796E-19 9.60779E-19
 -1       772 9.52543E-05-2.85706E-05-2.85787E-05-2.58377E-07-3.68183E-20 3.20675E-21
 -1       773 9.52463E-05-2.85138E-05-2.85997E-05-2.79929E-07 3.31080E-19-8.18341E-20
 -1       774 9.52352E-05-2.84468E-05-2.86236E-05-3.32621E-07-2.10761E-19 2.64296E-20
 -1       775 9.52175E-05-2.83640E-05-2.86515E-05-4.21397E-07-1.74896E-19-5.20181E-19
 -1       776 9.51854E-05-2.82511E-05-2.86861E-05-5.61050E-07-5.33307E-19-1.65810E-18
 -1       777 9.51321E-05-2.81066E-05-2.87252E-05-7.47592E-07-6.44129E-19-6.03830E-19
 -1       778 9.50419E-05-2.79099E-05-2.87708E-05-9.97394E-07-6.62450E-19 2.49437E-19
 -1       779 9.48905E-05-2.76372E-05-2.88227E-05-1.32394E-06 4.74625E-20 3.23294E-19
 -1       780 9.46404E-05-2.72550E-05-2.88793E-05-1.74243E-06-1.81554E-19 1.57385E-19
 -1       781 9.42331E-05-2.67166E-05-2.89354E-05-2.26854E-06-7.83893E-20-7.00798E-20
 -1       782 9.35797E-05-2.59586E-05-2.89801E-05-2.91576E-06-3.47258E-19-6.07762E-19
 -1       783 9.25487E-05-2.48997E-05-2.89920E-05-3.69039E-06-7.74845E-20-3.94956E-19
 -1       784 9.09535E-05-2.34452E-05-2.89319E-05-4.58754E-06 1.50595E-18 2.92572E-19
 -1       785 8.83813E-05-2.13925E-05-2.87089E-05-5.62434E-06 1.13086E-18-7.69010E-19
 -1       786 8.47109E-05-1.88848E-05-2.82111E-05-6.65419E-06-4.04691E-19-7.13437E-19
 -1       787 7.94291E-05-1.59356E-05-2.72079E-05-7.70327E-06-2.20951E-19-1.98934E-19
 -1       788 7.20755E-05-1.29540E-05-2.53080E-05-8.89193E-06 8.22178E-19 8.11707E-19
 -1       789 6.22433E-05-1.10571E-05-2.18285E-05-1.03608E-05 6.22794E-19 2.87634E-19
 -1       790 6.07568E-05-1.97010E-05-1.70906E-05-2.34891E-05 1.43943E-19 3.56257E-19
 -1       791 9.55573E-05-2.87791E-05-2.86193E-05-1.10135E-06 3.55409E-19-1.07388E-18
 -1       792 1.12855E-04-3.58776E-06-4.72116E-05-7.24198E-06-9.30810E-19-2.48881E-18
 -1       793 9.56886E-05-2.69076E-05-2.94779E-05 6.78357E-07 8.41048E-19-1.51464E-18
 -1       794 9.90675E-05-1.75486E-05-3.49404E-05 9.29620E-06-4.00357E-19 2.80917E-18
 -1       795 9.49219E-05-2.34164E-05-3.06447E-05-3.51307E-06-1.59446E-18-2.25928E-18
 -1       796 5.05259E-05-1.34349E-05-1.55665E-05 2.31631E-05-1.76110E-19 7.39460E-19
 -1       797 9.31898E-05-1.97675E-05-3.14679E-05 1.23077E-06 3.83306E-19-2.68512E-18
 -1       798 1.35527E-04-4.93343E-05-3.71072E-05-9.61229E-06 9.93219E-19-1.43468E-18
 -1       799 1.29042E-04-5.92652E-05-2.98479E-05 1.58720E-05 1.00550E-18 2.65401E-19
 -1       800 9.52049E-05-2.44698E-05-3.03149E-05 3.41423E-06 1.50089E-18-1.49671E-18
 -1       801 4.37935E-05-7.89862E-06-1.50045E-05-1.21168E-06 1.26354E-18-1.43900E-18
 -1       802 7.60860E-05-3.10424E-05-1.90797E-05 3.68425E-05 1.47273E-18 1.02103E-18
 -1       803 1.07239E-04-5.10022E-05-2.39644E-05 3.40264E-05 1.51211E-18 2.00159E-18
 -1       804 9.57273E-05-2.77455E-05-2.91350E-05-2.11145E-07 5.05616E-19-1.47709E-18
 -1       805 1.28440E-04-2.90049E-05-4.28492E-05-2.02676E-05-7.07193E-19-8.59090E-19
 -1       806 1.18560E-04-1.06842E-05-4.65662E-05-1.72997E-05-1.02655E-18-1.65807E-18
 -1       807 9.30790E-05-1.95688E-05-3.15056E-05 1.94072E-08-1.74834E-19-2.70749E-18
 -1       808 1.29192E-04-5.35563E-05-3.24447E-05 6.04673E-07 1.11417E-18-2.39384E-18
 -1       809 9.40142E-05-2.13438E-05-3.11453E-05 3.30068E-06 1.10091E-18-2.33993E-18
 -1       810 1.10882E-04-5.01955E-06-4.56111E-05 3.94519E-07-1.15403E-18-1.30961E-18
 -1       811 9.39751E-05-2.12826E-05-3.11567E-05-3.26011E-06-1.27565E-18-2.28476E-18
 -1       812 1.07016E-04-1.74637E-05-3.84859E-05 9.10075E-06 2.35891E-18 2.20695E-19
 -1       813 9.35082E-05-2.03541E-05-3.13530E-05 2.35549E-06 8.54049E-19-2.72070E-18
 -1       814 9.34789E-05-2.03149E-05-3.13579E-05-2.31102E-06-7.93708E-19-2.74602E-18
 -1       815 9.55454E-05-2.59295E-05-2.98371E-05 1.82687E-06 1.23606E-18-1.32938E-18
 -1       816 1.22839E-04-3.64917E-05-3.71094E-05-1.65508E-05-1.59001E-19 1.34306E-19
 -1       817 9.57768E-05-2.55758E-05-3.00861E-05-1.16236E-06-7.10430E-19-1.89399E-18
 -1       818 9.61860E-05-2.69875E-05-2.96567E-05-2.80062E-07-6.58688E-19-1.89846E-18
 -1       819 9.63520E-05-2.79182E-05-2.93288E-05 3.02450E-07-6.28709E-19-2.00797E-18
 -1       820 9.63712E-05-2.85116E-05-2.90827E-05 6.47170E-07-5.17970E-19-1.65972E-18
 -1       821 9.63063E-05-2.88684E-05-2.89020E-05 8.18074E-07-3.26678E-19-1.63461E-18
 -1       822 9.61975E-05-2.90621E-05-2.87723E-05 8.69611E-07-3.17101E-19-1.73849E-18
 -1       823 9.60706E-05-2.91462E-05-2.86819E-05 8.44652E-07-4.34792E-19-1.57867E-18
 -1       824 9.59413E-05-2.91589E-05-2.86210E-05 7.75030E-07-2.53431E-19-1.38909E-18
 -1       825 9.58189E-05-2.91272E-05-2.85821E-05 6.83418E-07-3.58680E-19-1.71783E-18
 -1       826 9.57081E-05-2.90696E-05-2.85594E-05 5.85429E-07-3.73420E-19-1.86559E-18
 -1       827 9.56108E-05-2.89984E-05-2.85482E-05 4.91220E-07-4.97406E-19-1.40474E-18
 -1       828 9.55268E-05-2.89212E-05-2.85453E-05 4.07315E-07-4.54079E-19-9.56486E-19
 -1       829 9.54546E-05-2.88421E-05-2.85482E-05 3.37803E-07-3.48775E-19-6.68521E-19
 -1       830 9.53919E-05-2.87629E-05-2.85553E-05 2.85293E-07-3.59770E-19-3.24666E-19
 -1       831 9.53360E-05-2.86836E-05-2.85653E-05 2.51514E-07-1.29155E-19-8.29226E-19
 -1       832 9.52839E-05-2.86031E-05-2.85775E-05 2.37970E-07-2.57656E-19-1.19992E-18
 -1       833 9.52324E-05-2.85199E-05-2.85911E-05 2.46329E-07 7.50689E-19-1.18739E-18
 -1       834 9.51789E-05-2.84326E-05-2.86055E-05 2.78643E-07 6.47605E-19-4.48133E-19
 -1       835 9.51213E-05-2.83406E-05-2.86203E-05 3.37492E-07 6.29674E-19-5.40543E-19
 -1       836 9.50591E-05-2.82455E-05-2.86344E-05 4.26032E-07-6.86447E-19-5.09919E-19
 -1       837 9.49942E-05-2.81517E-05-2.86468E-05 5.47867E-07-7.49583E-20-3.17967E-19
 -1       838 9.49325E-05-2.80689E-05-2.86558E-05 7.06726E-07 6.72121E-19-3.17730E-19
 -1       839 9.48862E-05-2.80143E-05-2.86594E-05 9.05811E-07 5.16190E-19-1.12529E-18
 -1       840 9.48770E-05-2.80148E-05-2.86552E-05 1.14659E-06-1.03918E-19-1.14924E-18
 -1       841 9.49394E-05-2.81108E-05-2.86408E-05 1.42670E-06 2.30340E-19-2.92220E-19
 -1       842 9.51260E-05-2.83586E-05-2.86146E-05 1.73641E-06-9.85709E-19 6.18705E-20
 -1       843 9.55106E-05-2.88310E-05-2.85770E-05 2.05281E-06-5.14147E-19 7.41433E-19
 -1       844 9.61903E-05-2.96142E-05-2.85327E-05 2.33068E-06-8.00279E-19-7.80904E-19
 -1       845 9.72819E-05-3.07956E-05-2.84943E-05 2.48941E-06 8.37861E-19-1.92250E-18
 -1       846 9.89058E-05-3.24372E-05-2.84866E-05 2.39486E-06-1.26225E-20-7.17883E-19
 -1       847 1.01145E-04-3.45205E-05-2.85535E-05 1.84270E-06 1.50225E-19-3.45270E-19
 -1       848 1.03982E-04-3.68657E-05-2.87643E-05 5.51893E-07-5.09916E-19 2.83027E-19
 -1       849 1.07160E-04-3.89847E-05-2.92154E-05-1.74679E-06 2.02285E-19 1.39246E-18
 -1       850 1.10078E-04-4.00305E-05-3.00218E-05-5.28680E-06 1.17498E-18 1.38975E-18
 -1       851 1.11710E-04-3.87939E-05-3.12468E-05-9.68213E-06 2.36173E-18 1.51226E-18
 -1       852 1.10838E-04-3.40214E-05-3.29159E-05-1.37840E-05 1.22678E-18 3.34556E-18
 -1       853 1.07132E-04-2.60239E-05-3.47844E-05-1.53605E-05 3.54463E-19 3.05755E-18
 -1       854 1.01978E-04-1.72107E-05-3.63626E-05-1.24288E-05-1.15759E-18 2.88082E-18
 -1       855 9.79599E-05-1.16919E-05-3.70049E-05-4.97219E-06-1.52173E-19 1.28285E-18
 -1       856 9.71875E-05-1.16865E-05-3.66729E-05 3.07901E-06 1.41415E-19 1.20976E-18
 -1       857 9.61891E-05-2.84485E-05-2.90317E-05-6.96795E-07-3.35783E-20-1.41159E-18
 -1       858 9.58076E-05-2.90907E-05-2.85930E-05-8.53172E-07 4.03540E-19-7.30188E-19
 -1       859 9.59161E-05-2.90722E-05-2.86474E-05-9.29067E-07 4.06646E-19-9.27929E-19
 -1       860 9.56165E-05-2.90196E-05-2.85415E-05-6.44479E-07 5.32864E-19-5.45913E-19
 -1       861 9.55351E-05-2.89559E-05-2.85340E-05-5.35310E-07 4.31800E-19-6.24456E-19
 -1       862 9.54694E-05-2.88889E-05-2.85345E-05-4.42892E-07-3.86722E-20 2.82480E-21
 -1       863 9.54142E-05-2.88204E-05-2.85402E-05-3.66115E-07 2.61170E-19 6.49526E-20
 -1       864 9.53674E-05-2.87514E-05-2.85497E-05-3.07720E-07-4.91505E-19 2.04280E-19
 -1       865 9.53265E-05-2.86815E-05-2.85621E-05-2.69675E-07-6.66026E-19-1.42201E-19
 -1       866 9.52886E-05-2.86089E-05-2.85770E-05-2.53651E-07-2.22785E-19-4.17861E-19
 -1       867 9.52499E-05-2.85301E-05-2.85942E-05-2.61521E-07 2.98969E-19-3.91980E-19
 -1       868 9.52060E-05-2.84404E-05-2.86138E-05-2.95656E-07-4.67921E-20-1.99305E-19
 -1       869 9.51509E-05-2.83335E-05-2.86360E-05-3.59041E-07 5.51051E-19-7.47532E-19
 -1       870 9.50717E-05-2.81929E-05-2.86623E-05-4.61179E-07 2.23342E-19-1.26421E-18
 -1       871 9.49632E-05-2.80198E-05-2.86900E-05-5.96717E-07-1.43124E-18-1.45068E-18
 -1       872 9.48053E-05-2.77925E-05-2.87198E-05-7.73598E-07-6.16947E-19-1.05274E-18
 -1       873 9.45720E-05-2.74891E-05-2.87498E-05-9.94856E-07-8.08023E-19-1.50987E-18
 -1       874 9.42252E-05-2.70796E-05-2.87766E-05-1.26055E-06-5.38820E-19-5.85755E-19
 -1       875 9.37092E-05-2.65243E-05-2.87935E-05-1.56469E-06-1.62318E-19 3.94550E-19
 -1       876 9.29435E-05-2.57709E-05-2.87883E-05-1.89024E-06 2.23734E-19 2.64412E-19
 -1       877 9.18130E-05-2.47544E-05-2.87394E-05-2.20139E-06 4.77463E-19 4.98851E-20
 -1       878 9.01593E-05-2.34002E-05-2.86114E-05-2.43632E-06 8.80078E-19-9.59591E-19
 -1       879 8.76176E-05-2.15336E-05-2.83219E-05-2.47779E-06 1.15145E-18-1.51002E-20
 -1       880 8.41171E-05-1.92742E-05-2.77910E-05-2.15661E-06-6.34977E-20 1.37423E-18
 -1       881 7.91878E-05-1.65742E-05-2.68360E-05-1.28062E-06-9.26632E-20-4.49482E-19
 -1       882 7.22419E-05-1.35266E-05-2.51462E-05 3.86627E-07 5.82012E-19-2.31667E-18
 -1       883 6.22772E-05-1.01461E-05-2.22557E-05 2.92428E-06 1.01930E-18-1.93028E-18
 -1       884 9.60253E-05-2.89869E-05-2.87307E-05-9.55211E-07 4.38288E-19-1.17532E-18
 -1       885 9.57067E-05-2.90675E-05-2.85596E-05-7.52546E-07 8.74854E-19-3.89539E-19
 -1       886 9.37988E-05-3.84294E-05-2.36550E-05 2.97545E-05 8.80342E-19 1.90880E-18
 -1       887 9.31752E-05-1.97499E-05-3.14699E-05-1.18640E-06-4.38606E-19-2.90941E-18
 -1       888 9.50945E-05-2.37438E-05-3.05785E-05-2.14581E-06-9.84709E-19-1.93733E-18
 -1       889 9.61228E-05-2.87994E-05-2.88529E-05-8.96327E-07 2.76432E-20-1.47740E-18
 -1       890 1.06361E-04-9.23151E-06-4.17738E-05-1.11439E-05 7.95615E-20-1.29255E-19
 -1       891 1.13829E-04-1.96302E-05-4.04941E-05-1.80422E-05-9.64168E-19 3.38681E-20
 -1       892 6.80403E-05-1.94811E-05-2.07278E-05 2.39491E-05 2.38875E-19 7.86430E-19
 -1       893 9.60486E-05-2.69480E-05-2.96145E-05 3.84756E-07 4.62243E-19-1.35756E-18
 -1       894 1.15216E-04-5.12201E-05-2.73735E-05 2.02195E-05 5.44457E-19-1.27188E-18
 -1       895 9.61825E-05-2.78579E-05-2.92820E-05-2.89440E-07 2.50789E-19-1.20159E-18
 -1       896 1.08851E-04-1.12528E-05-4.20274E-05 5.40303E-06 1.76211E-18-1.34451E-18
 -1       897 1.22940E-04-4.45513E-05-3.36055E-05-9.71414E-06 1.84299E-18-1.34574E-19
 -1       898 9.52420E-05-2.42277E-05-3.04365E-05 2.24510E-06 1.03517E-18-1.95839E-18
 -1       899 9.46726E-05-2.26002E-05-3.08883E-05 1.21794E-06 5.04698E-19-2.42280E-18
 -1       900 9.47871E-05-2.29042E-05-3.08060E-05-1.60455E-06-6.46005E-19-2.33855E-18
 -1       901 1.03324E-04-6.81767E-06-4.14903E-05-4.33574E-06-8.20471E-19-9.08947E-19
 -1       902 1.20090E-04-5.08360E-05-2.96855E-05 7.91308E-06 9.23409E-19-6.89721E-19
 -1       903 9.57371E-05-2.58255E-05-2.99600E-05 1.27441E-06 9.75244E-19-1.55315E-18
 -1       904 9.45262E-05-2.22593E-05-3.09714E-05 4.29761E-07 1.56544E-19-2.22197E-18
 -1       905 9.60400E-05-2.58759E-05-3.00703E-05-6.28755E-07-5.78038E-19-1.87491E-18
 -1       906 9.64730E-05-2.72370E-05-2.96728E-05-5.33306E-08-5.23863E-19-1.47245E-18
 -1       907 9.66525E-05-2.81403E-05-2.93624E-05 3.20124E-07-3.68693E-19-1.58780E-18
 -1       908 9.66694E-05-2.87131E-05-2.91242E-05 5.35302E-07-1.72886E-19-1.33008E-18
 -1       909 9.65878E-05-2.90491E-05-2.89452E-05 6.34707E-07-3.68810E-19-1.28580E-18
 -1       910 9.64526E-05-2.92206E-05-2.88137E-05 6.54995E-07-2.73542E-19-1.26273E-18
 -1       911 9.62938E-05-2.92815E-05-2.87196E-05 6.25265E-07-2.47286E-19-9.96787E-19
 -1       912 9.61312E-05-2.92713E-05-2.86542E-05 5.67110E-07-1.37158E-19-9.05340E-19
 -1       913 9.59760E-05-2.92172E-05-2.86109E-05 4.96229E-07-2.94726E-19-3.16523E-19
 -1       914 9.58349E-05-2.91389E-05-2.85840E-05 4.23037E-07-1.19510E-20-3.12883E-19
 -1       915 9.57099E-05-2.90483E-05-2.85692E-05 3.54386E-07-2.05342E-19-4.65176E-19
 -1       916 9.56007E-05-2.89528E-05-2.85634E-05 2.94840E-07-5.27089E-19-7.66309E-19
 -1       917 9.55052E-05-2.88558E-05-2.85640E-05 2.47334E-07-3.66352E-19-1.06178E-18
 -1       918 9.54203E-05-2.87587E-05-2.85693E-05 2.13777E-07-3.12842E-19-1.02822E-18
 -1       919 9.53421E-05-2.86605E-05-2.85779E-05 1.95618E-07-1.55697E-19-8.01834E-19
 -1       920 9.52662E-05-2.85593E-05-2.85887E-05 1.94550E-07 1.26467E-19-8.67074E-19
 -1       921 9.51882E-05-2.84529E-05-2.86008E-05 2.12640E-07 1.05925E-18-1.36393E-18
 -1       922 9.51038E-05-2.83393E-05-2.86134E-05 2.52661E-07 3.92355E-19-1.64541E-18
 -1       923 9.50099E-05-2.82175E-05-2.86253E-05 3.18452E-07-7.75441E-20-1.60260E-18
 -1       924 9.49048E-05-2.80893E-05-2.86352E-05 4.15207E-07-2.80418E-19-7.95741E-19
 -1       925 9.47900E-05-2.79603E-05-2.86413E-05 5.49764E-07 3.01802E-19-8.71101E-19
 -1       926 9.46720E-05-2.78424E-05-2.86413E-05 7.30849E-07-6.08058E-20-1.93640E-18
 -1       927 9.45654E-05-2.77567E-05-2.86323E-05 9.69091E-07 4.28221E-19-1.72277E-18
 -1       928 9.44969E-05-2.77372E-05-2.86113E-05 1.27652E-06 6.80395E-19-1.12354E-18
 -1       929 9.45109E-05-2.78352E-05-2.85753E-05 1.66497E-06 5.62540E-19-1.12184E-18
 -1       930 9.46758E-05-2.81232E-05-2.85226E-05 2.14244E-06-4.16623E-19-3.89623E-19
 -1       931 9.50915E-05-2.86981E-05-2.84544E-05 2.70522E-06-1.17787E-18-6.33588E-19
 -1       932 9.58947E-05-2.96790E-05-2.83783E-05 3.32449E-06-6.46442E-19 7.84237E-20
 -1       933 9.72596E-05-3.11970E-05-2.83127E-05 3.92430E-06 9.04798E-19-1.71709E-19
 -1       934 9.93894E-05-3.33681E-05-2.82946E-05 4.34215E-06 4.18423E-19-2.91488E-19
 -1       935 1.02454E-04-3.62019E-05-2.83929E-05 4.28263E-06-4.84242E-21-3.64849E-19
 -1       936 1.06543E-04-3.94857E-05-2.87414E-05 3.16315E-06 4.65269E-19-2.23690E-20
 -1       937 1.11294E-04-4.26617E-05-2.94275E-05 7.49065E-07 1.92445E-18 1.53763E-19
 -1       938 1.15709E-04-4.40954E-05-3.06874E-05-3.65688E-06 1.99581E-18 1.72710E-18
 -1       939 9.56629E-05-2.90223E-05-2.85602E-05-4.10491E-07 4.15122E-20-7.91002E-19
 -1       940 9.57803E-05-2.91091E-05-2.85733E-05-4.94024E-07 5.02510E-19-5.78679E-19
 -1       941 9.54843E-05-2.88465E-05-2.85590E-05-2.86626E-07-4.72929E-19-1.30002E-18
 -1       942 9.54115E-05-2.87571E-05-2.85661E-05-2.47386E-07-3.45436E-19-1.23190E-18
 -1       943 9.53448E-05-2.86657E-05-2.85767E-05-2.25547E-07-3.03925E-19-1.42290E-18
 -1       944 9.52794E-05-2.85690E-05-2.85901E-05-2.22388E-07-2.42586E-19-1.27332E-18
 -1       945 9.52094E-05-2.84623E-05-2.86059E-05-2.39255E-07 3.28398E-19-1.02893E-18
 -1       946 9.51276E-05-2.83393E-05-2.86236E-05-2.77535E-07 4.67141E-19-8.37126E-19
 -1       947 9.50189E-05-2.81835E-05-2.86437E-05-3.42051E-07 5.80388E-19 2.69490E-19
 -1       948 9.48804E-05-2.79985E-05-2.86637E-05-4.27304E-07-9.05682E-20 1.04122E-19
 -1       949 9.46913E-05-2.77641E-05-2.86831E-05-5.34645E-07-6.81882E-19-1.05433E-18
 -1       950 9.44284E-05-2.74627E-05-2.86996E-05-6.59849E-07-4.40133E-19-1.24216E-18
 -1       951 9.40597E-05-2.70716E-05-2.87092E-05-7.93014E-07-1.14246E-18-5.14359E-19
 -1       952 9.35409E-05-2.65625E-05-2.87051E-05-9.14678E-07-5.83443E-19-5.04480E-20
 -1       953 9.28115E-05-2.59005E-05-2.86762E-05-9.90051E-07-8.95224E-20-8.76597E-19
 -1       954 9.17895E-05-2.50461E-05-2.86043E-05-9.60497E-07 5.00058E-19-6.28285E-19
 -1       955 9.03681E-05-2.39591E-05-2.84611E-05-7.34658E-07 6.65696E-19-2.28746E-19
 -1       956 8.82939E-05-2.25351E-05-2.81822E-05-1.22201E-07 8.82054E-20 8.69312E-20
 -1       957 8.55803E-05-2.09045E-05-2.77181E-05 1.04356E-06 1.45203E-19-1.11190E-19
 -1       958 8.19397E-05-1.90669E-05-2.69448E-05 3.07492E-06 2.30440E-19 7.04528E-20
 -1       959 7.70501E-05-1.71655E-05-2.56621E-05 6.42729E-06 9.73147E-19-6.07957E-19
 -1       960 7.20033E-05-1.68384E-05-2.36172E-05 1.35424E-05 1.95605E-19-7.53590E-19
 -1       961 9.49352E-05-2.32692E-05-3.07143E-05 1.85947E-06 5.97895E-19-2.31410E-18
 -1       962 9.63412E-05-2.91608E-05-2.87915E-05-7.58020E-07 2.84806E-19-1.77163E-18
 -1       963 9.65441E-05-2.86468E-05-2.90988E-05-6.06157E-07-5.46761E-20-1.63004E-18
 -1       964 9.65276E-05-2.80588E-05-2.93439E-05-3.35321E-07 1.77626E-19-1.51550E-18
 -1       965 9.55265E-05-2.45532E-05-3.04170E-05-1.09483E-06-5.28803E-19-2.01245E-18
 -1       966 9.45238E-05-2.22511E-05-3.09732E-05-4.04563E-07-3.17082E-19-2.53679E-18
 -1       967 9.55671E-05-2.89351E-05-2.85566E-05-3.41729E-07 6.19208E-19-1.54123E-18
 -1       968 9.64663E-05-2.89866E-05-2.89198E-05-7.30389E-07 2.23582E-19-1.75526E-18
 -1       969 9.61956E-05-2.92273E-05-2.87007E-05-7.26142E-07-1.07915E-21-1.37224E-18
 -1       970 1.03440E-04-4.17198E-05-2.64287E-05 2.00709E-05 5.81238E-19-1.58518E-18
 -1       971 8.34386E-05-2.71714E-05-2.41084E-05 2.20180E-05 1.21914E-19 2.25980E-18
 -1       972 9.46095E-05-2.24670E-05-3.09162E-05-1.04083E-06-4.10994E-19-2.51110E-18
 -1       973 9.63540E-05-2.71488E-05-2.96593E-05 1.21964E-07 2.74144E-19-1.45050E-18
 -1       974 9.60477E-05-2.92246E-05-2.86385E-05-6.60551E-07 6.05947E-19-1.45591E-18
 -1       975 9.56796E-05-2.48635E-05-3.03496E-05 8.86153E-07 2.25201E-19-2.14499E-18
 -1       976 9.59073E-05-2.91789E-05-2.85979E-05-5.78384E-07 6.92007E-19-8.85661E-19
 -1       977 1.19163E-04-4.81273E-05-3.04137E-05 1.30618E-06 2.34122E-18 8.76315E-19
 -1       978 9.59493E-05-2.57942E-05-3.00654E-05 8.05779E-07 4.48743E-19-1.65099E-18
 -1       979 9.56032E-05-2.44896E-05-3.04769E-05 4.89016E-07 2.30670E-19-2.08518E-18
 -1       980 1.10668E-04-4.50508E-05-2.81377E-05 1.18806E-05 5.26384E-19 1.30336E-18
 -1       981 9.67181E-05-2.75879E-05-2.96274E-05 6.57892E-08-4.23790E-19-1.49508E-18
 -1       982 9.68643E-05-2.84086E-05-2.93383E-05 2.61930E-07-2.14098E-19-1.26794E-18
 -1       983 9.68516E-05-2.89185E-05-2.91143E-05 3.68721E-07-3.40888E-19-1.12431E-18
 -1       984 9.67429E-05-2.92058E-05-2.89445E-05 4.11723E-07-2.44583E-19-9.07660E-19
 -1       985 9.65820E-05-2.93385E-05-2.88187E-05 4.11683E-07 8.75175E-20-6.16504E-19
 -1       986 9.63994E-05-2.93680E-05-2.87277E-05 3.85480E-07-7.28930E-20-2.55184E-19
 -1       987 9.62157E-05-2.93327E-05-2.86641E-05 3.44512E-07 2.49734E-19-3.39345E-19
 -1       988 9.60419E-05-2.92583E-05-2.86215E-05 2.99263E-07-3.68621E-19-6.40640E-19
 -1       989 9.58846E-05-2.91635E-05-2.85947E-05 2.53066E-07-3.11919E-19-7.93698E-19
 -1       990 9.57443E-05-2.90580E-05-2.85798E-05 2.11571E-07-4.97499E-19-1.28782E-18
 -1       991 9.56214E-05-2.89494E-05-2.85737E-05 1.76505E-07-5.59849E-19-8.82872E-19
 -1       992 9.55122E-05-2.88393E-05-2.85741E-05 1.50372E-07-1.63071E-19-3.38369E-19
 -1       993 9.54132E-05-2.87287E-05-2.85791E-05 1.33404E-07-1.71031E-19-4.15391E-19
 -1       994 9.53187E-05-2.86151E-05-2.85873E-05 1.27547E-07-1.26937E-19-1.28755E-18
 -1       995 9.52234E-05-2.84959E-05-2.85975E-05 1.34482E-07 2.69280E-19-9.90969E-19
 -1       996 9.51215E-05-2.83679E-05-2.86087E-05 1.56628E-07 1.31833E-20-1.27106E-18
 -1       997 9.50074E-05-2.82282E-05-2.86197E-05 1.97630E-07 1.18910E-19-9.57474E-19
 -1       998 9.48761E-05-2.80754E-05-2.86289E-05 2.62986E-07 7.26101E-19-1.10986E-18
 -1       999 9.47243E-05-2.79104E-05-2.86346E-05 3.60572E-07-4.63558E-19-7.99675E-19
 -1      1000 9.45518E-05-2.77389E-05-2.86342E-05 5.01707E-07-1.14568E-18-1.78143E-18
 -1      1001 9.43640E-05-2.75735E-05-2.86246E-05 7.02127E-07 7.02987E-19-1.72653E-18
 -1      1002 9.41750E-05-2.74371E-05-2.86020E-05 9.83055E-07 6.82260E-19-1.94585E-18
 -1      1003 9.40127E-05-2.73681E-05-2.85620E-05 1.37186E-06 7.65442E-19-1.73465E-18
 -1      1004 9.39262E-05-2.74256E-05-2.85002E-05 1.90139E-06 3.82547E-19-1.69454E-18
 -1      1005 9.39953E-05-2.76974E-05-2.84133E-05 2.60768E-06 3.09694E-19-6.97093E-19
 -1      1006 9.43427E-05-2.83054E-05-2.83015E-05 3.51867E-06-4.34566E-19 1.09344E-18
 -1      1007 9.51473E-05-2.94106E-05-2.81727E-05 4.63826E-06-8.48478E-21 7.52206E-19
 -1      1008 9.66474E-05-3.12025E-05-2.80483E-05 5.91510E-06-2.97874E-19 2.55908E-19
 -1      1009 9.91876E-05-3.39110E-05-2.79745E-05 7.17995E-06 9.74744E-19 9.17344E-20
 -1      1010 1.03054E-04-3.75969E-05-2.80468E-05 8.10965E-06 7.89880E-19 1.89690E-18
 -1      1011 9.66771E-05-2.91545E-05-2.89382E-05-5.21706E-07 1.52687E-19-1.82232E-18
 -1      1012 9.58585E-05-2.91497E-05-2.85894E-05-3.27538E-07 7.56130E-19-1.18380E-18
 -1      1013 9.54160E-05-2.87347E-05-2.85777E-05-1.74745E-07-7.53384E-19-1.70882E-18
 -1      1014 9.55073E-05-2.88404E-05-2.85715E-05-1.96259E-07-1.67264E-19-1.72324E-18
 -1      1015 9.52397E-05-2.85071E-05-2.85997E-05-1.70003E-07-3.14332E-19-1.30091E-18
 -1      1016 9.51411E-05-2.83754E-05-2.86139E-05-1.87637E-07 1.29924E-19-7.32358E-19
 -1      1017 9.50172E-05-2.82144E-05-2.86298E-05-2.20046E-07-7.26805E-20-4.74762E-19
 -1      1018 9.48677E-05-2.80298E-05-2.86449E-05-2.62519E-07 4.59694E-19 4.27258E-19
 -1      1019 9.46733E-05-2.78043E-05-2.86582E-05-3.11960E-07 1.83925E-19-6.01380E-20
 -1      1020 9.44154E-05-2.75251E-05-2.86673E-05-3.60379E-07 1.27082E-19-2.18132E-19
 -1      1021 9.40704E-05-2.71776E-05-2.86684E-05-3.93086E-07-1.29261E-18 1.84530E-19
 -1      1022 9.36081E-05-2.67454E-05-2.86555E-05-3.85016E-07-6.66342E-19-3.73509E-19
 -1      1023 9.29901E-05-2.62117E-05-2.86195E-05-2.95288E-07 6.29054E-20-9.58379E-19
 -1      1024 9.21694E-05-2.55617E-05-2.85463E-05-5.98949E-08 2.05859E-19-9.38414E-19
 -1      1025 9.10923E-05-2.47902E-05-2.84154E-05 4.16236E-07-1.60001E-19 4.55874E-19
 -1      1026 8.96199E-05-2.38641E-05-2.81808E-05 1.33661E-06 5.97769E-19 1.59002E-18
 -1      1027 8.78401E-05-2.29319E-05-2.78169E-05 2.82839E-06 2.05544E-19 1.12039E-18
 -1      1028 8.56710E-05-2.20775E-05-2.72507E-05 5.21679E-06 4.67349E-19 8.09368E-19
 -1      1029 8.30876E-05-2.15253E-05-2.63812E-05 8.89270E-06 1.47281E-18 2.89646E-19
 -1      1030 8.21429E-05-2.30433E-05-2.53242E-05 1.46306E-05 7.39471E-20 8.43361E-19
 -1      1031 9.66200E-05-2.74555E-05-2.96420E-05-4.02984E-08 2.86479E-19-2.11367E-18
 -1      1032 9.62788E-05-2.63702E-05-2.99614E-05 3.41788E-07 1.54100E-19-2.11879E-18
 -1      1033 9.53288E-05-2.86250E-05-2.85874E-05-1.65761E-07-5.74387E-19-1.19018E-18
 -1      1034 9.63271E-05-2.63379E-05-2.99944E-05-2.35115E-07-6.43107E-20-1.95362E-18
 -1      1035 9.55464E-05-2.43282E-05-3.05223E-05 5.58067E-09 1.20430E-19-1.93954E-18
 -1      1036 9.38148E-05-3.26699E-05-2.61892E-05 1.70432E-05-2.98111E-19 1.98146E-19
 -1      1037 9.67784E-05-2.88514E-05-2.91116E-05-4.59613E-07 6.71089E-20-1.97889E-18
 -1      1038 9.65254E-05-2.92970E-05-2.88121E-05-5.25500E-07 4.34173E-20-1.34431E-18
 -1      1039 9.67816E-05-2.83177E-05-2.93419E-05-3.09712E-07 1.17913E-20-1.83592E-18
 -1      1040 9.60102E-05-2.92410E-05-2.86155E-05-3.87069E-07 4.87315E-19-1.08008E-18
 -1      1041 9.56085E-05-2.89449E-05-2.85701E-05-2.29842E-07-3.49945E-19-9.57133E-19
 -1      1042 9.63516E-05-2.93348E-05-2.87214E-05-4.93806E-07 1.19964E-19-1.47225E-18
 -1      1043 9.58608E-05-2.51541E-05-3.03037E-05-4.96916E-07-2.18230E-19-2.09966E-18
 -1      1044 9.53227E-05-2.39359E-05-3.05960E-05-7.34839E-07-3.49979E-19-2.42800E-18
 -1      1045 9.57264E-05-2.90504E-05-2.85754E-05-2.74736E-07 5.10600E-19-1.59272E-18
 -1      1046 9.99706E-05-3.63130E-05-2.72877E-05 1.27807E-05 1.35205E-18-1.24054E-19
 -1      1047 9.64850E-05-2.66634E-05-2.99220E-05 1.12572E-07 1.14569E-19-1.91723E-18
 -1      1048 9.69806E-05-2.86784E-05-2.92720E-05 1.24209E-07-1.24447E-19-1.45248E-18
 -1      1049 9.69247E-05-2.91001E-05-2.90674E-05 1.52575E-07-8.60966E-22-1.04243E-18
 -1      1050 9.67850E-05-2.93221E-05-2.89124E-05 1.60679E-07-2.47963E-21-7.53933E-19
 -1      1051 9.66027E-05-2.94074E-05-2.87978E-05 1.55990E-07 4.26160E-21-9.33802E-19
 -1      1052 9.64007E-05-2.93999E-05-2.87148E-05 1.43493E-07 1.85647E-19-9.25435E-19
 -1      1053 9.62115E-05-2.93451E-05-2.86570E-05 1.24812E-07-8.85499E-20-8.58423E-19
 -1      1054 9.60333E-05-2.92552E-05-2.86192E-05 1.05183E-07-2.93226E-19-1.15260E-18
 -1      1055 9.58711E-05-2.91474E-05-2.85957E-05 8.94042E-08-5.44350E-19-3.36678E-19
 -1      1056 9.57249E-05-2.90315E-05-2.85830E-05 7.50027E-08-1.93970E-19 6.65005E-20
 -1      1057 9.55997E-05-2.89164E-05-2.85785E-05 6.20235E-08-3.88612E-20 2.75050E-19
 -1      1058 9.54865E-05-2.87994E-05-2.85802E-05 5.29136E-08-2.06411E-19-6.70013E-20
 -1      1059 9.53797E-05-2.86789E-05-2.85860E-05 4.92082E-08-6.24041E-19 2.88797E-19
 -1      1060 9.52745E-05-2.85536E-05-2.85947E-05 5.08098E-08-2.10307E-19 2.28738E-19
 -1      1061 9.51642E-05-2.84191E-05-2.86050E-05 5.96945E-08-3.00574E-20-6.82605E-19
 -1      1062 9.50414E-05-2.82713E-05-2.86157E-05 7.88781E-08 2.49865E-19-7.48947E-19
 -1      1063 9.48988E-05-2.81059E-05-2.86254E-05 1.12926E-07 1.55227E-19-5.58837E-19
 -1      1064 9.47291E-05-2.79201E-05-2.86323E-05 1.68898E-07-2.85825E-19-1.23450E-18
 -1      1065 9.45263E-05-2.77133E-05-2.86340E-05 2.57956E-07-1.18828E-18-1.43112E-18
 -1      1066 9.42865E-05-2.74891E-05-2.86273E-05 3.96664E-07-4.37244E-19-8.05543E-19
 -1      1067 9.40107E-05-2.72582E-05-2.86079E-05 6.09225E-07 4.41129E-19-6.07969E-19
 -1      1068 9.37079E-05-2.70421E-05-2.85706E-05 9.29908E-07 8.88053E-19-6.32051E-19
 -1      1069 9.34010E-05-2.68791E-05-2.85087E-05 1.40553E-06 1.17337E-20-2.84864E-19
 -1      1070 9.31373E-05-2.68327E-05-2.84154E-05 2.09615E-06-3.22900E-21-3.67387E-19
 -1      1071 9.29977E-05-2.70009E-05-2.82832E-05 3.07639E-06 1.92495E-19-1.01742E-18
 -1      1072 9.31162E-05-2.75276E-05-2.81082E-05 4.42699E-06 5.48105E-19-1.40765E-19
 -1      1073 9.37160E-05-2.86265E-05-2.78942E-05 6.21711E-06-1.83036E-19-6.56968E-20
 -1      1074 9.50954E-05-3.05806E-05-2.76600E-05 8.42127E-06 1.78422E-19 1.37461E-18
 -1      1075 9.68893E-05-3.29036E-05-2.74376E-05 1.05419E-05 1.15981E-18 1.12698E-18
 -1      1076 8.93987E-05-2.73529E-05-2.65937E-05 1.23698E-05 4.43212E-19 1.33815E-18
 -1      1077 9.67723E-05-2.92887E-05-2.89216E-05-2.79443E-07-1.66875E-19-2.02055E-18
 -1      1078 9.65810E-05-2.68919E-05-2.98664E-05-4.01139E-08 1.21556E-19-1.89555E-18
 -1      1079 9.49037E-05-2.80970E-05-2.86315E-05-1.13954E-07-1.00405E-19-9.78812E-19
 -1      1080 9.50579E-05-2.82811E-05-2.86187E-05-1.04282E-07 2.68531E-19-5.41846E-19
 -1      1081 9.51799E-05-2.84320E-05-2.86062E-05-9.65016E-08-2.50038E-19-6.57835E-19
 -1      1082 9.47197E-05-2.78892E-05-2.86417E-05-1.19135E-07 1.16597E-19-1.20901E-18
 -1      1083 9.44861E-05-2.76419E-05-2.86476E-05-1.10894E-07-5.36640E-19-3.65109E-19
 -1      1084 9.41873E-05-2.73473E-05-2.86459E-05-7.36309E-08-9.40927E-20 4.29459E-19
 -1      1085 9.38060E-05-2.69995E-05-2.86316E-05 1.76628E-08-3.03335E-20-9.42082E-20
 -1      1086 9.33237E-05-2.65965E-05-2.85977E-05 2.01796E-07 4.58705E-19-5.25217E-19
 -1      1087 9.27227E-05-2.61441E-05-2.85342E-05 5.37122E-07 6.25301E-20-1.17705E-18
 -1      1088 9.19906E-05-2.56618E-05-2.84274E-05 1.10802E-06-4.25646E-19-6.20242E-19
 -1      1089 9.10855E-05-2.51766E-05-2.82476E-05 2.08950E-06-6.62425E-19-9.20877E-19
 -1      1090 9.01226E-05-2.48283E-05-2.79845E-05 3.55980E-06 5.11663E-19-6.04925E-19
 -1      1091 8.91536E-05-2.47581E-05-2.75991E-05 5.75000E-06 7.63351E-20-3.95083E-19
 -1      1092 9.62572E-05-2.59995E-05-3.01126E-05 1.09283E-07-1.07105E-20-1.93310E-18
 -1      1093 9.61774E-05-2.93075E-05-2.86587E-05-4.46060E-07 5.90110E-20-1.47052E-18
 -1      1094 9.54922E-05-2.88080E-05-2.85790E-05-1.03828E-07-5.02554E-19-9.20529E-20
 -1      1095 9.52876E-05-2.85664E-05-2.85948E-05-9.29711E-08-5.48450E-19-5.44248E-19
 -1      1096 9.69004E-05-2.79847E-05-2.95357E-05 6.02549E-08 4.02609E-20-1.60144E-18
 -1      1097 9.69036E-05-2.90431E-05-2.90831E-05-2.57739E-07 3.71428E-20-1.88333E-18
 -1      1098 9.53895E-05-2.86902E-05-2.85854E-05-9.51265E-08-5.60633E-19-3.55958E-19
 -1      1099 9.62616E-05-2.59840E-05-3.01172E-05-9.61969E-08 4.23090E-20-2.06929E-18
 -1      1100 9.65974E-05-2.93890E-05-2.88037E-05-2.75263E-07 5.62315E-20-2.14156E-18
 -1      1101 9.68208E-05-2.78168E-05-2.95737E-05-8.55524E-08 2.73250E-19-1.98664E-18
 -1      1102 9.60325E-05-2.92550E-05-2.86189E-05-1.94410E-07 1.36096E-19-1.26113E-18
 -1      1103 9.56003E-05-2.89210E-05-2.85770E-05-1.17699E-07-2.65590E-19-5.10028E-19
 -1      1104 9.69453E-05-2.85853E-05-2.92970E-05-1.96630E-07 2.27068E-19-2.11093E-18
 -1      1105 8.84002E-05-2.52771E-05-2.70526E-05 8.90273E-06 1.49449E-18-3.43231E-19
 -1      1106 9.35756E-05-3.04576E-05-2.70188E-05 1.19146E-05 2.45607E-19 4.39721E-19
 -1      1107 9.58736E-05-2.91519E-05-2.85950E-05-1.65521E-07 7.23667E-19-6.55979E-19
 -1      1108 9.63232E-05-2.93884E-05-2.86861E-05-8.72468E-08 4.66472E-20-1.74495E-18
 -1      1109 9.56674E-05-2.89781E-05-2.85807E-05-4.61539E-08-1.35743E-19-8.92573E-20
 -1      1110 9.66360E-05-2.69935E-05-2.98457E-05 1.45664E-08 2.76079E-19-1.94967E-18
 -1      1111 9.57301E-05-2.90393E-05-2.85820E-05-1.38758E-07 1.60840E-19-4.78290E-19
 -1      1112 9.64098E-05-2.93977E-05-2.87193E-05-2.54263E-07 2.60646E-19-1.76717E-18
 -1      1113 1.16859E-04 2.57582E-10-4.18569E-05-4.14631E-05-3.01967E-19 1.19624E-17
 -1      1114 8.86552E-05 7.19313E-11-3.72529E-05-2.41634E-05-1.85183E-19 2.26576E-18
 -1      1115 8.40815E-05 4.14598E-11-3.57681E-05-1.78726E-05-1.35949E-19-2.06333E-18
 -1      1116 8.23360E-05 3.20268E-11-3.50735E-05-1.38297E-05-9.70382E-20-4.17552E-18
 -1      1117 8.15309E-05 2.73235E-11-3.47384E-05-1.05276E-05-7.01052E-20-5.22972E-18
 -1      1118 8.11272E-05 2.45992E-11-3.45724E-05-7.63571E-06-4.16370E-20-5.75239E-18
 -1      1119 8.09169E-05 2.29394E-11-3.44885E-05-4.97603E-06-3.07016E-20-5.93398E-18
 -1      1120 8.08140E-05 2.20419E-11-3.44489E-05-2.43013E-06-1.61085E-20-5.98701E-18
 -1      1121 8.07846E-05 2.17705E-11-3.44378E-05 5.25175E-08 1.39297E-21-6.00015E-18
 -1      1122 8.08183E-05 2.20857E-11-3.44504E-05 2.53767E-06 1.51970E-20-5.96557E-18
 -1      1123 8.09257E-05 2.30380E-11-3.44915E-05 5.09177E-06 3.02814E-20-5.85514E-18
 -1      1124 8.11429E-05 2.47578E-11-3.45767E-05 7.76740E-06 4.69971E-20-5.54336E-18
 -1      1125 8.15534E-05 2.76356E-11-3.47447E-05 1.06872E-05 7.05420E-20-5.02118E-18
 -1      1126 8.23600E-05 3.25005E-11-3.50834E-05 1.40364E-05 1.05111E-19-4.03793E-18
 -1      1127 8.40775E-05 4.19318E-11-3.57882E-05 1.81236E-05 1.43413E-19-1.93498E-18
 -1      1128 8.83533E-05 6.67577E-11-3.73232E-05 2.40061E-05 1.74912E-19 2.36288E-18
 -1      1129 1.06623E-04 1.63940E-10-4.06358E-05 3.61899E-05 3.96200E-19 1.17911E-17
 -1      1130 1.30225E-04-2.57581E-05-4.02755E-05-2.61043E-05-1.31089E-18 1.81362E-17
 -1      1131 9.74665E-05-2.88655E-05-3.15806E-05-6.79888E-07-4.37307E-19 1.50681E-17
 -1      1132 9.01728E-05-2.70305E-05-2.78971E-05 3.87135E-07-1.70545E-19 1.05718E-17
 -1      1133 8.82650E-05-2.65771E-05-2.66486E-05 2.50918E-07-5.93982E-20 7.58722E-18
 -1      1134 8.79103E-05-2.64515E-05-2.63934E-05 1.66030E-07-9.95876E-20 5.47848E-18
 -1      1135 8.82737E-05-2.65295E-05-2.64795E-05 1.18213E-07-1.28043E-19 4.08744E-18
 -1      1136 8.89647E-05-2.67153E-05-2.66836E-05 8.76643E-08-1.08634E-20 3.01734E-18
 -1      1137 8.97846E-05-2.69487E-05-2.69277E-05 6.65029E-08-1.75139E-20 2.75512E-18
 -1      1138 9.06231E-05-2.71931E-05-2.71777E-05 5.08740E-08-1.41913E-20 1.68008E-18
 -1      1139 9.14182E-05-2.74273E-05-2.74154E-05 3.88666E-08-3.30714E-20 1.43585E-19
 -1      1140 9.21363E-05-2.76403E-05-2.76308E-05 2.94623E-08 8.37303E-21-7.31347E-19
 -1      1141 9.27625E-05-2.78268E-05-2.78191E-05 2.20514E-08 1.14964E-20-3.60499E-19
 -1      1142 9.32933E-05-2.79853E-05-2.79792E-05 1.62209E-08-1.00232E-19-8.07940E-19
 -1      1143 9.37325E-05-2.81169E-05-2.81121E-05 1.16618E-08-6.17659E-20-8.89929E-19
 -1      1144 9.40882E-05-2.82236E-05-2.82199E-05 8.12830E-09-1.24489E-19-1.42867E-18
 -1      1145 9.43705E-05-2.83086E-05-2.83057E-05 5.41821E-09-2.39855E-19-2.13451E-18
 -1      1146 9.45907E-05-2.83750E-05-2.83728E-05 3.36489E-09-8.37492E-20-2.33665E-18
 -1      1147 9.47600E-05-2.84262E-05-2.84246E-05 1.83298E-09-1.53904E-19-2.72062E-18
 -1      1148 9.48893E-05-2.84655E-05-2.84643E-05 7.16541E-10 1.00195E-19-3.06713E-18
 -1      1149 9.49892E-05-2.84959E-05-2.84951E-05-6.18648E-11-1.78528E-19-2.46272E-18
 -1      1150 9.50696E-05-2.85205E-05-2.85201E-05-5.51434E-10 8.89164E-20-3.32564E-18
 -1      1151 9.51408E-05-2.85423E-05-2.85422E-05-7.72791E-10 3.31324E-20-3.55752E-18
 -1      1152 9.52126E-05-2.85644E-05-2.85647E-05-7.17424E-10 2.56779E-20-2.99106E-18
 -1      1153 9.52955E-05-2.85897E-05-2.85905E-05-3.47586E-10-7.36164E-20-3.84955E-18
 -1      1154 9.54003E-05-2.86217E-05-2.86229E-05 4.02059E-10 1.63371E-19-3.77380E-18
 -1      1155 9.55384E-05-2.86635E-05-2.86653E-05 1.61875E-09 2.59317E-19-3.12589E-18
 -1      1156 9.57206E-05-2.87185E-05-2.87209E-05 3.39815E-09 6.67107E-20-2.61290E-18
 -1      1157 9.59567E-05-2.87894E-05-2.87925E-05 5.81747E-09 7.28967E-20-3.86963E-18
 -1      1158 9.62527E-05-2.88778E-05-2.88814E-05 8.88736E-09-7.57642E-20-4.02513E-18
 -1      1159 9.66075E-05-2.89833E-05-2.89870E-05 1.24734E-08 1.14877E-19-4.01646E-18
 -1      1160 9.70072E-05-2.91014E-05-2.91043E-05 1.61786E-08-1.32063E-19-3.29158E-18
 -1      1161 9.74186E-05-2.92218E-05-2.92226E-05 1.91858E-08 5.45944E-20-3.37561E-18
 -1      1162 9.77798E-05-2.93259E-05-2.93224E-05 2.00779E-08-2.62367E-19-5.65452E-18
 -1      1163 9.79916E-05-2.93837E-05-2.93732E-05 1.66930E-08 3.13055E-20-6.81973E-18
 -1      1164 9.79109E-05-2.93527E-05-2.93320E-05 6.14116E-09 2.21395E-19-6.04639E-18
 -1      1165 9.73529E-05-2.91781E-05-2.91447E-05-1.48094E-08 1.41347E-19-4.77144E-18
 -1      1166 9.61076E-05-2.87987E-05-2.87521E-05-4.87221E-08 4.43768E-19-4.14538E-18
 -1      1167 9.39820E-05-2.81588E-05-2.81028E-05-9.57020E-08-1.18565E-19-2.37924E-18
 -1      1168 9.08684E-05-2.72289E-05-2.71734E-05-1.51058E-07 2.27036E-19-1.96829E-18
 -1      1169 8.68364E-05-2.60323E-05-2.59932E-05-2.03383E-07-1.37030E-19-1.96798E-18
 -1      1170 8.22175E-05-2.46692E-05-2.46656E-05-2.34826E-07-5.92398E-20-3.69772E-18
 -1      1171 7.76397E-05-2.33254E-05-2.33728E-05-2.25383E-07 3.59741E-20-4.57038E-18
 -1      1172 7.39589E-05-2.22509E-05-2.23541E-05-1.61088E-07 1.74181E-19-5.43703E-18
 -1      1173 7.20706E-05-2.17049E-05-2.18528E-05-4.25064E-08-7.01515E-20-4.58356E-18
 -1      1174 7.26423E-05-2.18797E-05-2.20443E-05 1.11839E-07 1.55014E-19-4.78333E-18
 -1      1175 7.58592E-05-2.28277E-05-2.29663E-05 2.69007E-07 1.59745E-19-1.71455E-18
 -1      1176 8.12615E-05-2.44145E-05-2.44711E-05 3.87520E-07-1.47786E-19-1.98883E-18
 -1      1177 8.76732E-05-2.62936E-05-2.62146E-05 4.04306E-07 5.80184E-21 3.69148E-19
 -1      1178 9.31471E-05-2.78635E-05-2.77056E-05 2.28749E-07 3.02285E-20-2.53940E-18
 -1      1179 9.54247E-05-2.86480E-05-2.86382E-05-9.43710E-08 4.98065E-19-3.65227E-19
 -1      1180 1.31059E-04-3.77394E-05-3.86611E-05 1.21742E-05-2.01938E-19 1.96732E-17
 -1      1181 9.65681E-05-2.81922E-05-3.13331E-05 8.01286E-07 1.46298E-19 1.50967E-17
 -1      1182 9.03870E-05-2.69333E-05-2.78780E-05 1.20122E-07 1.45035E-19 1.07318E-17
 -1      1183 8.83518E-05-2.65045E-05-2.66849E-05 9.00591E-09 1.07775E-19 7.68386E-18
 -1      1184 8.79508E-05-2.64141E-05-2.64204E-05-2.52768E-08 4.64379E-20 5.53181E-18
 -1      1185 8.82954E-05-2.65121E-05-2.64952E-05-3.43196E-08 8.18206E-20 3.77666E-18
 -1      1186 8.89776E-05-2.67084E-05-2.66938E-05-3.55183E-08 6.53617E-20 3.07040E-18
 -1      1187 8.97926E-05-2.69478E-05-2.69352E-05-3.36364E-08-3.18874E-20 3.19237E-18
 -1      1188 9.06485E-05-2.72001E-05-2.71896E-05-3.05015E-08 1.21084E-19 2.38780E-18
 -1      1189 9.14596E-05-2.74418E-05-2.74310E-05-2.70455E-08 1.05662E-19 8.88577E-19
 -1      1190 9.21720E-05-2.76540E-05-2.76441E-05-2.32674E-08 1.31036E-19-1.60208E-20
 -1      1191 9.27926E-05-2.78392E-05-2.78302E-05-1.95697E-08-2.92978E-20-2.28150E-19
 -1      1192 9.33179E-05-2.79962E-05-2.79882E-05-1.61119E-08-5.05852E-20-1.82519E-19
 -1      1193 9.37521E-05-2.81260E-05-2.81192E-05-1.29897E-08-7.28153E-20-7.04665E-19
 -1      1194 9.41031E-05-2.82310E-05-2.82253E-05-1.02393E-08 3.87982E-20-2.20332E-18
 -1      1195 9.43811E-05-2.83143E-05-2.83095E-05-7.86278E-09 1.32714E-19-3.63415E-18
 -1      1196 9.45971E-05-2.83790E-05-2.83751E-05-5.83046E-09-7.00471E-20-4.13153E-18
 -1      1197 9.47654E-05-2.84296E-05-2.84264E-05-4.20112E-09-1.32366E-19-3.72249E-18
 -1      1198 9.48919E-05-2.84676E-05-2.84651E-05-2.49312E-09 4.29575E-20-2.94615E-18
 -1      1199 9.49847E-05-2.84956E-05-2.84937E-05-1.17475E-09 1.71712E-19-4.60222E-18
 -1      1200 9.50575E-05-2.85176E-05-2.85162E-05 4.23630E-11-9.07596E-20-3.48961E-18
 -1      1201 9.51198E-05-2.85366E-05-2.85356E-05 1.23030E-09-1.86165E-19-3.87839E-18
 -1      1202 9.51817E-05-2.85556E-05-2.85550E-05 2.47039E-09-7.48378E-20-3.37134E-18
 -1      1203 9.52547E-05-2.85781E-05-2.85778E-05 3.85852E-09 1.48861E-19-5.83944E-18
 -1      1204 9.53520E-05-2.86081E-05-2.86083E-05 5.52353E-09 1.99969E-19-6.87793E-18
 -1      1205 9.54908E-05-2.86510E-05-2.86516E-05 7.67951E-09-8.26725E-20-6.33738E-18
 -1      1206 9.57002E-05-2.87152E-05-2.87168E-05 1.08156E-08 1.56773E-19-6.62335E-18
 -1      1207 9.60092E-05-2.88104E-05-2.88132E-05 1.40703E-08-1.62515E-19-5.85615E-18
 -1      1208 9.64543E-05-2.89474E-05-2.89520E-05 1.90161E-08 1.14312E-19-5.29133E-18
 -1      1209 9.71057E-05-2.91477E-05-2.91556E-05 2.56781E-08-4.82155E-20-4.62785E-18
 -1      1210 9.80590E-05-2.94407E-05-2.94542E-05 3.45313E-08 5.88977E-20-3.85185E-18
 -1      1211 9.94560E-05-2.98696E-05-2.98932E-05 4.58186E-08-1.71514E-19-5.15804E-18
 -1      1212 1.01508E-04-3.04983E-05-3.05401E-05 5.88848E-08-3.01499E-19-3.17923E-18
 -1      1213 1.04528E-04-3.14201E-05-3.14949E-05 7.08819E-08 1.81265E-19-3.03630E-18
 -1      1214 1.08965E-04-3.27724E-05-3.28998E-05 7.55633E-08 4.41033E-19-6.33014E-18
 -1      1215 1.15644E-04-3.47701E-05-3.50060E-05 5.09748E-08-2.54705E-20-7.98847E-18
 -1      1216 1.25219E-04-3.76264E-05-3.79742E-05-8.02070E-08-5.35219E-19-5.10613E-18
 -1      1217 1.37987E-04-4.13766E-05-4.17881E-05-3.58511E-07 7.63984E-20-3.97968E-18
 -1      1218 1.53685E-04-4.59264E-05-4.61219E-05-8.65162E-07 1.37248E-19-4.97071E-18
 -1      1219 1.69012E-04-5.03162E-05-4.96860E-05-1.44575E-06 2.92994E-19-4.30346E-18
 -1      1220 1.75276E-04-5.21330E-05-5.00969E-05-1.33735E-06 1.43704E-19-3.19766E-18
 -1      1221 1.59055E-04-4.76260E-05-4.49775E-05 6.79801E-07 2.52389E-19-1.27224E-18
 -1      1222 1.14450E-04-3.46701E-05-3.48224E-05 4.01709E-06 2.47069E-19 9.53759E-19
 -1      1223 6.39992E-05-1.85461E-05-2.48628E-05 4.64269E-06 1.25943E-19 4.98987E-18
 -1      1224 4.81675E-05-1.27411E-05-2.13399E-05 4.96406E-07-3.12502E-19 1.02772E-17
 -1      1225 6.96084E-05-1.92552E-05-2.43827E-05-3.09311E-06-2.97017E-19 9.09375E-18
 -1      1226 1.01916E-04-3.01251E-05-2.97252E-05-3.60602E-06 5.98932E-19 1.91175E-18
 -1      1227 1.15093E-04-3.51675E-05-3.23838E-05-1.21103E-06 1.73774E-19-1.57347E-18
 -1      1228 1.05885E-04-3.26663E-05-3.11300E-05 1.00297E-06 3.10232E-19 1.12232E-20
 -1      1229 9.55870E-05-2.86611E-05-2.88442E-05 1.37191E-07-7.65241E-20 3.93134E-18
 -1      1230 9.54052E-05-2.79093E-05-2.96623E-05 2.36216E-07 3.81329E-18 8.53948E-20
 -1      1231 9.10234E-05-1.46408E-05-3.46696E-05 1.61146E-06-4.17905E-18-1.10188E-18
 -1      1232 8.14511E-05 1.62846E-05-4.28113E-05 3.40941E-06-6.72544E-18-1.96618E-19
 -1      1233 7.06721E-05 5.27865E-05-5.14215E-05 3.60556E-06-1.16518E-17-7.67597E-19
 -1      1234 6.31192E-05 7.94916E-05-5.73058E-05 1.85385E-06-9.49460E-18 8.72232E-19
 -1      1235 6.13852E-05 8.66357E-05-5.87110E-05-9.45184E-07-3.70026E-18 2.12605E-19
 -1      1236 6.65399E-05 6.96117E-05-5.47356E-05-3.54951E-06-1.06049E-18-1.31608E-19
 -1      1237 7.69237E-05 3.32868E-05-4.61326E-05-4.43936E-06-3.26277E-18-4.28202E-19
 -1      1238 8.95613E-05-1.07612E-05-3.50061E-05-3.55495E-06-6.17911E-18-9.47525E-19
 -1      1239 1.00403E-04-4.70342E-05-2.49592E-05-1.74831E-06-1.21848E-17-9.70726E-19
 -1      1240 1.05960E-04-6.53023E-05-1.91114E-05-1.81724E-07-9.77047E-18 5.98720E-19
 -1      1241 1.06960E-04-6.83336E-05-1.74934E-05 5.30729E-07-5.22180E-18 1.16758E-19
 -1      1242 1.05441E-04-6.30060E-05-1.85551E-05 7.17714E-07-4.45751E-20 9.12294E-19
 -1      1243 1.02893E-04-5.42788E-05-2.08779E-05 6.75535E-07-4.59198E-19 1.59929E-19
 -1      1244 1.00165E-04-4.50051E-05-2.35060E-05 5.75083E-07 8.98067E-19-3.65104E-19
 -1      1245 9.77198E-05-3.66664E-05-2.58710E-05 5.26821E-07 1.32407E-18-1.85365E-19
 -1      1246 9.60988E-05-3.09368E-05-2.75778E-05 1.93990E-07 1.40623E-18-3.71113E-19
 -1      1247 9.51207E-05-2.84239E-05-2.86068E-05-9.00297E-09 8.61658E-20 7.56242E-19
 -1      1248 5.57336E-05-1.72610E-04 2.94193E-05-2.30147E-05 1.28961E-17 1.94918E-18
 -1      1249 3.16154E-05-1.18685E-04 1.97516E-05-4.47700E-05 1.63206E-17 4.07804E-18
 -1      1250 1.09227E-05-3.37995E-05-6.25986E-07-1.62848E-05 1.08386E-17 5.61244E-18
 -1      1251 3.51862E-05 2.27459E-05-2.67031E-05 5.23571E-05 5.72933E-18 2.94259E-18
 -1      1252 1.23842E-04 1.92758E-05-5.40744E-05 1.21721E-04-3.80657E-18-7.28110E-18
 -1      1253 2.56759E-04-3.62373E-05-7.80319E-05 1.45780E-04-6.74238E-18-1.68593E-17
 -1      1254 3.68786E-04-9.90484E-05-9.26408E-05 9.57825E-05-3.43250E-18-1.82866E-17
 -1      1255 4.00153E-04-1.22363E-04-9.50124E-05 1.77805E-07-1.19485E-19-1.53546E-17
 -1      1256 3.31836E-04-9.01691E-05-8.48909E-05-8.60074E-05 9.39995E-19-7.55045E-18
 -1      1257 2.00669E-04-2.88030E-05-6.44055E-05-1.11341E-04 3.79471E-19-1.39760E-18
 -1      1258 7.37302E-05 9.04533E-06-3.62107E-05-6.72008E-05 1.64324E-19 3.57448E-19
 -1      1259 1.00119E-05-7.43018E-06-9.28036E-06 7.39992E-07-2.34120E-18 1.31968E-18
 -1      1260 8.54407E-06-6.19098E-05 1.04218E-05 4.17587E-05-3.93193E-18 2.57413E-18
 -1      1261 3.09700E-05-1.18983E-04 2.31992E-05 4.27657E-05 1.48570E-18 2.12923E-19
 -1      1262 4.53182E-05-1.43241E-04 2.71361E-05 1.28913E-05 2.80495E-18-9.39042E-19
 -1      1263 3.71495E-05-1.19838E-04 2.21857E-05-1.89776E-05 1.42302E-18 4.02235E-19
 -1      1264 1.65755E-05-6.25503E-05 9.61491E-06-2.50633E-05 4.26058E-18 1.96003E-18
 -1      1265 9.39180E-06-7.15264E-07-9.04557E-06 8.02695E-06 1.69576E-18 1.48231E-19
 -1      1266 4.45718E-05 3.03993E-05-3.16284E-05 6.73809E-05-3.32884E-18-3.67782E-18
 -1      1267 1.27997E-04 1.36447E-05-5.46305E-05 1.16553E-04-1.77453E-18-2.01763E-18
 -1      1268 2.37008E-04-3.86350E-05-7.39847E-05 1.23551E-04 1.01559E-18 3.48808E-18
 -1      1269 3.26317E-04-8.96338E-05-8.69030E-05 7.19100E-05 1.55483E-18 1.16001E-17
 -1      1270 3.60010E-04-1.07886E-04-9.17457E-05-1.53817E-05 1.76448E-19 1.44184E-17
 -1      1271 3.15268E-04-7.62751E-05-8.67702E-05-1.05269E-04-1.72710E-18 8.21791E-18
 -1      1272 1.96769E-04-6.39899E-06-6.96437E-05-1.42467E-04-5.06356E-18 8.28906E-18
 -1      1273 8.14987E-05 3.84928E-05-4.53196E-05-1.08043E-04-5.40915E-18 7.34039E-18
 -1      1274 2.09379E-05 2.83332E-05-2.20865E-05-4.37511E-05-5.47861E-18 3.16452E-18
 -1      1275 8.65621E-06-2.06889E-05-2.37246E-06 9.26032E-06-2.56143E-18 1.84568E-18
 -1      1276 2.00817E-05-7.95848E-05 1.22269E-05 3.53499E-05-7.78593E-18 2.18619E-18
 -1      1277 4.11072E-05-1.33362E-04 2.25656E-05 3.47252E-05-4.64513E-18 1.93145E-18
 -1      1278 5.83303E-05-1.72465E-04 2.88783E-05 1.43995E-05 3.89508E-18 6.36810E-19
 -1      1279 1.04450E-04-2.20211E-05-3.78942E-05-1.72731E-05-4.92126E-19 9.95073E-18
 -1      1280 9.03247E-05-6.68235E-06-3.60187E-05-2.04671E-05-1.47765E-18 2.25734E-19
 -1      1281 9.26621E-05-6.74142E-06-3.72239E-05-2.57557E-05-1.85161E-18 2.51532E-18
 -1      1282 8.59077E-05-4.09729E-06-3.51309E-05-1.64280E-05-1.55674E-18-3.00146E-18
 -1      1283 8.71605E-05-4.09001E-06-3.56005E-05-1.88489E-05-1.74436E-18-1.60793E-18
 -1      1284 9.21388E-05-1.04644E-05-3.50948E-05-1.90305E-05-2.64592E-18 1.71471E-19
 -1      1285 8.40966E-05-3.19037E-06-3.46870E-05-1.28108E-05-1.28668E-18-4.62810E-18
 -1      1286 8.47096E-05-3.16097E-06-3.49119E-05-1.46256E-05-1.46105E-18-3.87226E-18
 -1      1287 8.78692E-05-7.39560E-06-3.45745E-05-1.54065E-05-2.46824E-18-2.49991E-18
 -1      1288 8.31828E-05-2.72682E-06-3.44696E-05-9.68187E-06-9.94628E-19-5.49141E-18
 -1      1289 8.34972E-05-2.70850E-06-3.45793E-05-1.12288E-05-1.12653E-18-5.10609E-18
 -1      1290 8.58658E-05-5.98151E-06-3.43054E-05-1.19498E-05-1.96612E-18-3.88423E-18
 -1      1291 8.26893E-05-2.45633E-06-3.43623E-05-6.91111E-06-7.29550E-19-5.86290E-18
 -1      1292 8.28596E-05-2.44796E-06-3.44172E-05-8.28168E-06-8.39443E-19-5.66371E-18
 -1      1293 8.48175E-05-5.21521E-06-3.41721E-05-8.94027E-06-1.52578E-18-4.57310E-18
 -1      1294 8.24121E-05-2.29045E-06-3.43089E-05-4.29215E-06-4.82483E-19-5.99240E-18
 -1      1295 8.25040E-05-2.28656E-06-3.43364E-05-5.59279E-06-5.78775E-19-5.94797E-18
 -1      1296 8.42293E-05-4.75943E-06-3.41079E-05-6.21313E-06-1.08361E-18-4.96255E-18
 -1      1297 8.22784E-05-2.20077E-06-3.42862E-05-1.78871E-06-1.88261E-19-6.03839E-18
 -1      1298 8.23178E-05-2.19921E-06-3.42974E-05-3.03901E-06-2.83915E-19-5.98617E-18
 -1      1299 8.39049E-05-4.49510E-06-3.40784E-05-3.64236E-06-6.45003E-19-5.00484E-18
 -1      1300 8.22521E-05-2.17316E-06-3.42835E-05 6.69456E-07 5.03588E-20-6.04357E-18
 -1      1301 8.22507E-05-2.17321E-06-3.42831E-05-5.65630E-07-3.14353E-20-6.05345E-18
 -1      1302 8.37625E-05-4.37512E-06-3.40673E-05-1.16974E-06-1.59744E-19-5.06573E-18
 -1      1303 8.23264E-05-2.20350E-06-3.42989E-05 3.14645E-06 3.13146E-19-6.00417E-18
 -1      1304 8.22841E-05-2.20512E-06-3.42870E-05 1.89357E-06 2.19453E-19-6.02922E-18
 -1      1305 8.37674E-05-4.37932E-06-3.40677E-05 1.27298E-06 2.18143E-19-5.08960E-18
 -1      1306 8.25210E-05-2.29675E-06-3.43391E-05 5.70936E-06 5.13481E-19-5.84122E-18
 -1      1307 8.24257E-05-2.30010E-06-3.43108E-05 4.40283E-06 4.40728E-19-5.96028E-18
 -1      1308 8.39203E-05-4.50853E-06-3.40795E-05 3.74989E-06 6.27902E-19-5.02428E-18
 -1      1309 8.28826E-05-2.46280E-06-3.44200E-05 8.38998E-06 8.29318E-19-5.52888E-18
 -1      1310 8.27088E-05-2.47146E-06-3.43647E-05 7.01070E-06 7.20183E-19-5.70642E-18
 -1      1311 8.42546E-05-4.78214E-06-3.41092E-05 6.30711E-06 1.04667E-18-4.83508E-18
 -1      1312 8.35433E-05-2.74058E-06-3.45843E-05 1.13895E-05 1.17317E-18-4.90923E-18
 -1      1313 8.32207E-05-2.75764E-06-3.44731E-05 9.82484E-06 1.01254E-18-5.28457E-18
 -1      1314 8.48599E-05-5.25605E-06-3.41730E-05 9.04914E-06 1.52852E-18-4.43959E-18
 -1      1315 8.47671E-05-3.20338E-06-3.49198E-05 1.48382E-05 1.54753E-18-3.77448E-18
 -1      1316 8.41535E-05-3.24006E-06-3.46927E-05 1.29978E-05 1.37721E-18-4.46867E-18
 -1      1317 8.59461E-05-6.06214E-06-3.43066E-05 1.21171E-05 2.08139E-18-3.74267E-18
 -1      1318 8.72601E-05-4.09118E-06-3.56223E-05 1.90861E-05 1.80153E-18-1.45547E-18
 -1      1319 8.59757E-05-4.15496E-06-3.51387E-05 1.66877E-05 1.59232E-18-2.88560E-18
 -1      1320 8.79942E-05-7.51772E-06-3.45768E-05 1.56448E-05 2.55632E-18-2.31536E-18
 -1      1321 9.34749E-05-6.79406E-06-3.71194E-05 2.50925E-05 1.61635E-18 3.21719E-18
 -1      1322 9.01406E-05-6.43942E-06-3.60415E-05 2.11444E-05 1.58247E-18 3.58718E-19
 -1      1323 9.23692E-05-1.07000E-05-3.50803E-05 1.96714E-05 2.74515E-18 3.57024E-19
 -1      1324 1.23634E-04-2.49257E-05-3.90176E-05 2.83647E-05 8.49786E-19 1.25276E-17
 -1      1325 1.00091E-04-1.44263E-05-3.73571E-05 2.40474E-05 8.57197E-19 6.00059E-18
 -1      1326 1.01690E-04-1.93455E-05-3.54054E-05 2.13945E-05 2.69202E-18 4.59219E-18
 -1      1327 1.02616E-04-2.78087E-05-3.47610E-05 7.32692E-06 1.50232E-18 1.18593E-17
 -1      1328 1.05159E-04-3.02343E-05-3.35288E-05-7.95725E-06-1.48612E-18 1.03950E-17
 -1      1329 9.82748E-05-2.78474E-05-3.07662E-05-4.98644E-06-1.40687E-18 8.66991E-18
 -1      1330 9.55180E-05-2.78538E-05-2.92591E-05-2.48774E-06-1.13307E-18 7.91000E-18
 -1      1331 9.32877E-05-2.75634E-05-2.82204E-05-2.04110E-06-1.04675E-18 6.31905E-18
 -1      1332 9.94984E-05-2.80562E-05-3.09868E-05-7.88311E-06-2.44401E-18 4.60987E-18
 -1      1333 9.15996E-05-2.72058E-05-2.75867E-05-8.35996E-07-8.25354E-19 5.66480E-18
 -1      1334 9.08852E-05-2.71111E-05-2.72851E-05-7.25694E-07-7.58942E-19 4.49745E-18
 -1      1335 9.47344E-05-2.77748E-05-2.88215E-05-3.11653E-06-1.87628E-18 3.44132E-18
 -1      1336 9.01370E-05-2.69290E-05-2.70424E-05-1.71278E-07-5.96103E-19 3.94093E-18
 -1      1337 9.00669E-05-2.69566E-05-2.70082E-05-1.13201E-07-6.31490E-19 3.11982E-18
 -1      1338 9.25385E-05-2.75051E-05-2.79016E-05-1.04837E-06-1.39954E-18 2.33784E-18
 -1      1339 8.98095E-05-2.68897E-05-2.69346E-05 1.57174E-07-4.84089E-19 2.75434E-18
 -1      1340 9.00268E-05-2.69806E-05-2.69971E-05 1.85913E-07-4.40901E-19 2.13927E-18
 -1      1341 9.15838E-05-2.73628E-05-2.75358E-05-6.47561E-08-1.03111E-18 1.42391E-18
 -1      1342 9.00329E-05-2.69844E-05-2.70043E-05 3.17231E-07-3.07556E-19 1.98404E-18
 -1      1343 9.03782E-05-2.71049E-05-2.71042E-05 3.29016E-07-1.42541E-19 1.73925E-18
 -1      1344 9.13348E-05-2.73520E-05-2.74291E-05 4.22971E-07-6.31887E-19 9.05028E-19
 -1      1345 9.05226E-05-2.71474E-05-2.71522E-05 3.83772E-07-1.05349E-19 1.49395E-18
 -1      1346 9.09135E-05-2.72766E-05-2.72651E-05 3.85505E-07-1.46803E-19 1.20832E-18
 -1      1347 9.14722E-05-2.74270E-05-2.74527E-05 6.51701E-07-4.05936E-19 5.50257E-19
 -1      1348 9.11241E-05-2.73377E-05-2.73323E-05 3.96192E-07-3.13675E-19 1.07327E-18
 -1      1349 9.15147E-05-2.74634E-05-2.74455E-05 3.92030E-07-4.27771E-19 4.75404E-19
 -1      1350 9.18097E-05-2.75473E-05-2.75430E-05 7.34515E-07-5.07910E-19 6.25464E-20
 -1      1351 9.17486E-05-2.75308E-05-2.75193E-05 3.77446E-07-4.93654E-19 2.74535E-19
 -1      1352 9.21135E-05-2.76463E-05-2.76254E-05 3.70056E-07-4.61832E-19-3.09776E-19
 -1      1353 9.22362E-05-2.76859E-05-2.76644E-05 7.32974E-07-7.57732E-19 6.74152E-21
 -1      1354 9.23451E-05-2.77129E-05-2.76981E-05 3.41811E-07-2.30471E-19-3.65210E-19
 -1      1355 9.26712E-05-2.78148E-05-2.77933E-05 3.32937E-07-6.63618E-20-5.85703E-19
 -1      1356 9.26853E-05-2.78259E-05-2.77956E-05 6.83787E-07-5.59918E-19-1.32482E-19
 -1      1357 9.28861E-05-2.78764E-05-2.78606E-05 2.98419E-07-3.90471E-20-9.54183E-19
 -1      1358 9.31679E-05-2.79637E-05-2.79431E-05 2.89190E-07-2.22402E-19-9.83230E-19
 -1      1359 9.31174E-05-2.79575E-05-2.79237E-05 6.09979E-07-2.03791E-19-7.23083E-19
 -1      1360 9.33587E-05-2.80184E-05-2.80028E-05 2.53100E-07-1.57015E-19-1.00180E-18
 -1      1361 9.35958E-05-2.80912E-05-2.80724E-05 2.44224E-07-2.39780E-19-1.19856E-18
 -1      1362 9.35110E-05-2.80753E-05-2.80416E-05 5.26250E-07-2.84413E-19-1.40613E-18
 -1      1363 9.37598E-05-2.81381E-05-2.81236E-05 2.09479E-07-1.74346E-19-9.00114E-19
 -1      1364 9.39546E-05-2.81975E-05-2.81810E-05 2.01374E-07-1.66221E-19-1.18078E-18
 -1      1365 9.38557E-05-2.81773E-05-2.81456E-05 4.41890E-07-2.78387E-19-1.38106E-18
 -1      1366 9.40918E-05-2.82367E-05-2.82238E-05 1.69686E-07-1.39587E-19-1.19495E-18
 -1      1367 9.42486E-05-2.82842E-05-2.82701E-05 1.62571E-07-2.71137E-19-1.46032E-18
 -1      1368 9.41487E-05-2.82630E-05-2.82346E-05 3.62567E-07-2.96179E-19-1.14428E-18
 -1      1369 9.43611E-05-2.83162E-05-2.83052E-05 1.34853E-07-4.23734E-19-1.33109E-18
 -1      1370 9.44849E-05-2.83535E-05-2.83418E-05 1.28817E-07-3.21840E-19-1.61306E-18
 -1      1371 9.43918E-05-2.83333E-05-2.83089E-05 2.91514E-07-3.73009E-19-9.42976E-19
 -1      1372 9.45754E-05-2.83792E-05-2.83700E-05 1.05466E-07 2.11248E-19-1.85224E-18
 -1      1373 9.46716E-05-2.84079E-05-2.83986E-05 1.00519E-07-7.78997E-20-1.82232E-18
 -1      1374 9.45896E-05-2.83900E-05-2.83696E-05 2.30358E-07-2.25159E-19-8.54427E-19
 -1      1375 9.47437E-05-2.84284E-05-2.84211E-05 8.16254E-08-3.50443E-19-1.81818E-18
 -1      1376 9.48177E-05-2.84503E-05-2.84431E-05 7.77399E-08-1.22824E-19-2.16134E-18
 -1      1377 9.47481E-05-2.84350E-05-2.84186E-05 1.79723E-07-1.34344E-19-1.12878E-18
 -1      1378 9.48750E-05-2.84665E-05-2.84610E-05 6.32436E-08 1.34564E-19-2.27201E-18
 -1      1379 9.49320E-05-2.84832E-05-2.84780E-05 6.03773E-08 7.83145E-20-1.83988E-18
 -1      1380 9.48744E-05-2.84704E-05-2.84578E-05 1.39678E-07-5.49749E-20-1.37355E-18
 -1      1381 9.49783E-05-2.84962E-05-2.84925E-05 5.01770E-08-1.36764E-19-2.46449E-18
 -1      1382 9.50234E-05-2.85092E-05-2.85060E-05 4.82951E-08-3.73910E-19-2.49534E-18
 -1      1383 9.49755E-05-2.84983E-05-2.84895E-05 1.10049E-07-2.61883E-19-1.96097E-18
 -1      1384 9.50625E-05-2.85202E-05-2.85182E-05 4.23225E-08-2.54148E-19-2.52291E-18
 -1      1385 9.51005E-05-2.85311E-05-2.85297E-05 4.14100E-08-3.62798E-19-2.83093E-18
 -1      1386 9.50590E-05-2.85211E-05-2.85159E-05 9.06467E-08-5.13977E-19-2.06590E-18
 -1      1387 9.51363E-05-2.85411E-05-2.85408E-05 3.96727E-08 2.08089E-21-2.62958E-18
 -1      1388 9.51723E-05-2.85513E-05-2.85517E-05 3.97407E-08 2.25695E-19-2.45183E-18
 -1      1389 9.51323E-05-2.85407E-05-2.85391E-05 8.14079E-08-1.04402E-19-2.37549E-18
 -1      1390 9.52087E-05-2.85615E-05-2.85631E-05 4.23331E-08-6.74539E-20-2.36359E-18
 -1      1391 9.52476E-05-2.85725E-05-2.85749E-05 4.34181E-08 1.10924E-19-2.49671E-18
 -1      1392 9.52030E-05-2.85596E-05-2.85617E-05 8.24624E-08 6.69335E-20-1.75363E-18
 -1      1393 9.52886E-05-2.85840E-05-2.85876E-05 5.04954E-08-9.04699E-20-2.42374E-18
 -1      1394 9.53356E-05-2.85975E-05-2.86018E-05 5.26492E-08-5.55755E-20-2.35484E-18
 -1      1395 9.52788E-05-2.85798E-05-2.85858E-05 9.41158E-08-2.67014E-20-1.19938E-18
 -1      1396 9.53854E-05-2.86116E-05-2.86173E-05 6.43521E-08 2.88823E-19-2.28533E-18
 -1      1397 9.54459E-05-2.86292E-05-2.86355E-05 6.76200E-08 4.07141E-19-1.92432E-18
 -1      1398 9.53677E-05-2.86039E-05-2.86139E-05 1.16730E-07 1.25663E-19-9.68503E-19
 -1      1399 9.55085E-05-2.86470E-05-2.86550E-05 8.39343E-08 8.24765E-20-2.29418E-18
 -1      1400 9.55880E-05-2.86705E-05-2.86787E-05 8.83151E-08 1.07883E-20-2.08402E-18
 -1      1401 9.54779E-05-2.86344E-05-2.86484E-05 1.50467E-07 1.33354E-19-1.14578E-18
 -1      1402 9.56673E-05-2.86932E-05-2.87033E-05 1.08843E-07-1.42790E-19-2.63149E-18
 -1      1403 9.57707E-05-2.87242E-05-2.87341E-05 1.14226E-07-2.52578E-19-2.89520E-18
 -1      1404 9.56170E-05-2.86737E-05-2.86916E-05 1.94851E-07-4.08573E-19-2.12453E-18
 -1      1405 9.58696E-05-2.87528E-05-2.87647E-05 1.37842E-07-1.66082E-19-3.19280E-18
 -1      1406 9.60006E-05-2.87927E-05-2.88035E-05 1.43910E-07-3.08122E-19-3.64174E-18
 -1      1407 9.57919E-05-2.87243E-05-2.87451E-05 2.48083E-07-5.42341E-19-3.21453E-18
 -1      1408 9.61205E-05-2.88277E-05-2.88403E-05 1.68285E-07 2.29647E-19-3.39901E-18
 -1      1409 9.62801E-05-2.88770E-05-2.88874E-05 1.74384E-07 3.00288E-19-3.48161E-18
 -1      1410 9.60071E-05-2.87882E-05-2.88100E-05 3.06067E-07 1.12691E-19-3.21490E-18
 -1      1411 9.64192E-05-2.89184E-05-2.89298E-05 1.95362E-07-2.76693E-19-3.35944E-18
 -1      1412 9.66037E-05-2.89764E-05-2.89839E-05 2.00330E-07 1.15862E-20-3.19323E-18
 -1      1413 9.62625E-05-2.88664E-05-2.88858E-05 3.61095E-07-5.66623E-20-2.94011E-18
 -1      1414 9.67554E-05-2.90227E-05-2.90296E-05 2.11225E-07 1.17571E-19-3.23976E-18
 -1      1415 9.69530E-05-2.90863E-05-2.90870E-05 2.13196E-07-1.30570E-19-3.29998E-18
 -1      1416 9.65506E-05-2.89582E-05-2.89693E-05 4.00257E-07 1.23574E-19-2.99184E-18
 -1      1417 9.71036E-05-2.91339E-05-2.91314E-05 2.04120E-07-2.94872E-19-2.99524E-18
 -1      1418 9.72909E-05-2.91965E-05-2.91852E-05 2.00346E-07-6.55301E-19-3.17158E-18
 -1      1419 9.68525E-05-2.90597E-05-2.90539E-05 4.03786E-07-3.17400E-19-2.70901E-18
 -1      1420 9.74167E-05-2.92393E-05-2.92205E-05 1.57886E-07-7.08747E-19-3.48197E-18
 -1      1421 9.75542E-05-2.92893E-05-2.92587E-05 1.44668E-07-7.37694E-19-4.82323E-18
 -1      1422 9.71324E-05-2.91622E-05-2.91277E-05 3.43823E-07-9.04735E-19-2.44454E-18
 -1      1423 9.76191E-05-2.93174E-05-2.92734E-05 5.24107E-08-3.11994E-19-4.92324E-18
 -1      1424 9.76480E-05-2.93367E-05-2.92787E-05 2.52880E-08 5.68439E-21-5.47996E-18
 -1      1425 9.73331E-05-2.92506E-05-2.91723E-05 1.84587E-07-5.98025E-19-3.36468E-18
 -1      1426 9.76022E-05-2.93359E-05-2.92571E-05-1.34020E-07 5.13502E-19-5.08799E-18
 -1      1427 9.74429E-05-2.92994E-05-2.92064E-05-1.79569E-07 7.62110E-19-4.38976E-18
 -1      1428 9.73715E-05-2.93005E-05-2.91626E-05-1.14538E-07 4.96697E-19-3.69218E-18
 -1      1429 9.72244E-05-2.92510E-05-2.91297E-05-4.19325E-07 3.29986E-19-4.64962E-18
 -1      1430 9.67814E-05-2.91273E-05-2.89956E-05-4.86409E-07 3.04647E-19-4.25361E-18
 -1      1431 9.71382E-05-2.92771E-05-2.90666E-05-5.90970E-07 1.02676E-18-3.63648E-18
 -1      1432 9.63225E-05-2.90093E-05-2.88438E-05-8.08290E-07 5.51005E-19-4.44274E-18
 -1      1433 9.54986E-05-2.87648E-05-2.85992E-05-8.96210E-07 6.66043E-19-3.28100E-18
 -1      1434 9.65042E-05-2.91349E-05-2.88493E-05-1.26402E-06 5.18814E-19-4.14550E-18
 -1      1435 9.47396E-05-2.85556E-05-2.83565E-05-1.27970E-06 5.62632E-19-3.04260E-18
 -1      1436 9.34625E-05-2.81626E-05-2.79824E-05-1.38088E-06 5.75387E-21-2.78804E-18
 -1      1437 9.53403E-05-2.88223E-05-2.84790E-05-2.11287E-06 4.19764E-19-4.57734E-18
 -1      1438 9.23735E-05-2.78475E-05-2.76432E-05-1.77312E-06-1.22876E-19-1.59540E-18
 -1      1439 9.06344E-05-2.72973E-05-2.71394E-05-1.87042E-06 5.92430E-19-2.07060E-18
 -1      1440 9.35513E-05-2.82918E-05-2.79377E-05-3.05134E-06 1.39128E-19-2.77577E-18
 -1      1441 8.92442E-05-2.68780E-05-2.67168E-05-2.18242E-06-3.84556E-20-1.57972E-18
 -1      1442 8.71402E-05-2.61962E-05-2.61138E-05-2.24895E-06-8.93168E-19-2.20497E-18
 -1      1443 9.11267E-05-2.75188E-05-2.72343E-05-3.91004E-06 1.12622E-19-1.75639E-18
 -1      1444 8.55615E-05-2.57017E-05-2.56453E-05-2.36641E-06-7.87344E-19-1.92594E-18
 -1      1445 8.33251E-05-2.49611E-05-2.50109E-05-2.37030E-06-8.89129E-19-2.55822E-18
 -1      1446 8.81965E-05-2.65274E-05-2.64168E-05-4.44327E-06-7.27437E-19-1.14838E-18
 -1      1447 8.17652E-05-2.44545E-05-2.45594E-05-2.18466E-06-8.12450E-19-2.68021E-18
 -1      1448 7.97559E-05-2.37748E-05-2.39955E-05-2.09984E-06-1.06184E-19-3.42160E-18
 -1      1449 8.50720E-05-2.54144E-05-2.55774E-05-4.37832E-06-1.05787E-18-9.25820E-19
 -1      1450 7.84936E-05-2.33487E-05-2.36407E-05-1.55467E-06-4.23715E-20-3.74959E-18
 -1      1451 7.71361E-05-2.28770E-05-2.32650E-05-1.37466E-06-3.87663E-19-3.92919E-18
 -1      1452 8.22370E-05-2.43549E-05-2.48445E-05-3.50980E-06-4.60564E-19-2.05548E-18
 -1      1453 7.64597E-05-2.26327E-05-2.30856E-05-5.08101E-07-1.12133E-19-2.97625E-18
 -1      1454 7.61329E-05-2.25044E-05-2.30013E-05-2.55459E-07 4.42945E-19-3.42861E-18
 -1      1455 8.02646E-05-2.35756E-05-2.43592E-05-1.81036E-06 2.32279E-19-1.31971E-18
 -1      1456 7.62508E-05-2.25195E-05-2.30517E-05 7.85882E-07 8.91965E-19-3.61557E-18
 -1      1457 7.71608E-05-2.28124E-05-2.33128E-05 1.06112E-06 1.07050E-18-2.10189E-18
 -1      1458 7.96628E-05-2.32910E-05-2.42380E-05 4.97757E-07 1.04425E-18-1.37815E-18
 -1      1459 7.81194E-05-2.31108E-05-2.36009E-05 2.04672E-06 1.19697E-18-1.97343E-18
 -1      1460 8.01989E-05-2.38110E-05-2.41833E-05 2.27829E-06 6.96493E-19-8.77182E-19
 -1      1461 8.06992E-05-2.36312E-05-2.45333E-05 2.95660E-06 1.60687E-18-7.02118E-19
 -1      1462 8.18399E-05-2.43497E-05-2.46569E-05 2.94156E-06-2.44579E-19-1.50044E-18
 -1      1463 8.46998E-05-2.53372E-05-2.54444E-05 3.05944E-06-4.70429E-19-1.93780E-18
 -1      1464 8.32750E-05-2.45915E-05-2.52018E-05 4.96491E-06 3.33347E-19-1.49536E-18
 -1      1465 8.66786E-05-2.60210E-05-2.59925E-05 3.14139E-06 1.60428E-19-1.56691E-18
 -1      1466 8.96026E-05-2.70684E-05-2.67822E-05 3.07066E-06-4.27949E-19-1.57797E-18
 -1      1467 8.68992E-05-2.60332E-05-2.60952E-05 5.89039E-06-3.28811E-19-2.30362E-18
 -1      1468 9.14725E-05-2.77663E-05-2.72665E-05 2.33216E-06-2.30835E-19-1.09617E-18
 -1      1469 9.35231E-05-2.85010E-05-2.78352E-05 2.07912E-06 7.57360E-19-9.61151E-19
 -1      1470 9.08114E-05-2.77499E-05-2.69912E-05 5.17880E-06-1.47278E-19-1.57567E-18
 -1      1471 9.50789E-05-2.89152E-05-2.82680E-05 2.52577E-07 3.50296E-19-4.21233E-20
 -1      1472 9.44757E-05-2.94394E-05-2.78142E-05 2.18699E-06 1.05119E-18 1.23313E-19
 -1      1473 9.65920E-05-2.83681E-05-2.97768E-05 2.99394E-06 1.28087E-18 8.97760E-18
 -1      1474 1.02549E-04-2.94022E-05-3.21596E-05 4.46095E-06 1.14138E-18 1.10368E-17
 -1      1475 1.02338E-04-2.67220E-05-3.27093E-05 1.27796E-05 2.28625E-18 6.85430E-18
 -1      1476 9.20490E-05-2.74347E-05-2.77673E-05 1.15018E-06 1.07314E-18 6.40320E-18
 -1      1477 9.39937E-05-2.75893E-05-2.86808E-05 1.47217E-06 9.55877E-19 8.03314E-18
 -1      1478 9.65019E-05-2.80348E-05-2.95383E-05 4.86428E-06 1.98777E-18 5.04182E-18
 -1      1479 9.02200E-05-2.70110E-05-2.70695E-05 3.29753E-07 6.43163E-19 4.50309E-18
 -1      1480 9.08329E-05-2.70279E-05-2.73415E-05 4.92722E-07 7.10224E-19 5.64881E-18
 -1      1481 9.30602E-05-2.75841E-05-2.81042E-05 1.84818E-06 1.58348E-18 3.57513E-18
 -1      1482 8.97068E-05-2.68941E-05-2.68951E-05-5.74018E-08 5.95090E-19 3.04676E-18
 -1      1483 8.97418E-05-2.68310E-05-2.69226E-05 3.18434E-08 5.12576E-19 3.94326E-18
 -1      1484 9.15104E-05-2.73140E-05-2.75215E-05 5.13747E-07 1.20137E-18 2.30495E-18
 -1      1485 8.98433E-05-2.69479E-05-2.69383E-05-2.45013E-07 2.88241E-19 2.13574E-18
 -1      1486 8.96121E-05-2.68395E-05-2.68724E-05-1.94617E-07 3.03842E-19 2.66707E-18
 -1      1487 9.09824E-05-2.72341E-05-2.73265E-05-1.36674E-07 8.12616E-19 1.39103E-18
 -1      1488 9.03010E-05-2.70918E-05-2.70780E-05-3.28478E-07-1.06240E-19 2.04956E-18
 -1      1489 8.99511E-05-2.69636E-05-2.69756E-05-3.00677E-07 5.54703E-20 2.04577E-18
 -1      1490 9.10040E-05-2.72784E-05-2.73168E-05-4.56031E-07 2.53266E-19 1.22171E-18
 -1      1491 9.09017E-05-2.72762E-05-2.72592E-05-3.53981E-07 2.74664E-19 1.78384E-18
 -1      1492 9.05099E-05-2.71440E-05-2.71446E-05-3.39382E-07 1.09698E-19 1.89086E-18
 -1      1493 9.13129E-05-2.73919E-05-2.73997E-05-5.96814E-07 8.87172E-20 9.97386E-19
 -1      1494 9.15720E-05-2.74798E-05-2.74610E-05-3.43939E-07 2.72088E-19 1.02733E-18
 -1      1495 9.11662E-05-2.73492E-05-2.73418E-05-3.38228E-07 3.23766E-19 1.49260E-18
 -1      1496 9.17697E-05-2.75399E-05-2.75307E-05-6.34721E-07 4.10829E-19 4.65600E-19
 -1      1497 9.21884E-05-2.76651E-05-2.76469E-05-3.14790E-07 4.18925E-19 4.85787E-20
 -1      1498 9.18289E-05-2.75529E-05-2.75410E-05-3.15377E-07 3.27912E-19 6.48533E-19
 -1      1499 9.22745E-05-2.76984E-05-2.76779E-05-6.13896E-07 6.57053E-19 2.84122E-19
 -1      1500 9.27518E-05-2.78342E-05-2.78169E-05-2.77528E-07 9.19252E-20-2.04992E-19
 -1      1501 9.24322E-05-2.77366E-05-2.77225E-05-2.81184E-07 1.58392E-19 2.85642E-20
 -1      1502 9.27593E-05-2.78461E-05-2.78214E-05-5.60617E-07 3.78902E-19-2.08964E-19
 -1      1503 9.32465E-05-2.79821E-05-2.79664E-05-2.37235E-07 7.43594E-21-1.07533E-21
 -1      1504 9.29712E-05-2.78995E-05-2.78849E-05-2.42556E-07 1.18312E-20-5.68257E-20
 -1      1505 9.32075E-05-2.79810E-05-2.79550E-05-4.92407E-07 9.94164E-20-9.63066E-20
 -1      1506 9.36677E-05-2.81077E-05-2.80939E-05-1.97639E-07 2.34041E-19-3.89200E-19
 -1      1507 9.34370E-05-2.80394E-05-2.80254E-05-2.03639E-07 1.65796E-19-2.82499E-19
 -1      1508 9.36042E-05-2.80991E-05-2.80740E-05-4.19544E-07 1.87054E-19-4.12618E-19
 -1      1509 9.40175E-05-2.82117E-05-2.81999E-05-1.60950E-07 4.48349E-19-1.50191E-18
 -1      1510 9.38285E-05-2.81564E-05-2.81437E-05-1.66996E-07 3.38411E-19-8.37034E-19
 -1      1511 9.39444E-05-2.81995E-05-2.81764E-05-3.48478E-07 6.26099E-19-1.02198E-18
 -1      1512 9.43014E-05-2.82959E-05-2.82860E-05-1.28370E-07 1.95010E-19-2.63181E-18
 -1      1513 9.41499E-05-2.82521E-05-2.82409E-05-1.34067E-07 2.49202E-19-2.23943E-18
 -1      1514 9.42283E-05-2.82826E-05-2.82623E-05-2.83037E-07 7.89394E-19-2.17107E-18
 -1      1515 9.45273E-05-2.83627E-05-2.83547E-05-1.00440E-07 5.99686E-20-3.08159E-18
 -1      1516 9.44083E-05-2.83287E-05-2.83191E-05-1.05557E-07 3.47701E-19-2.63420E-18
 -1      1517 9.44601E-05-2.83501E-05-2.83326E-05-2.25284E-07 5.14973E-19-2.32001E-18
 -1      1518 9.47043E-05-2.84149E-05-2.84085E-05-7.72959E-08-9.72911E-20-3.03066E-18
 -1      1519 9.46122E-05-2.83889E-05-2.83810E-05-8.16908E-08-1.82583E-19-3.19148E-18
 -1      1520 9.46460E-05-2.84037E-05-2.83892E-05-1.76157E-07 3.56329E-21-2.15091E-18
 -1      1521 9.48467E-05-2.84567E-05-2.84520E-05-5.80190E-08-2.45519E-19-3.01428E-18
 -1      1522 9.47739E-05-2.84363E-05-2.84301E-05-6.19127E-08-1.66403E-19-3.44300E-18
 -1      1523 9.47959E-05-2.84467E-05-2.84352E-05-1.35109E-07-1.54621E-19-2.63792E-18
 -1      1524 9.49505E-05-2.84870E-05-2.84837E-05-4.43250E-08 4.80392E-19-3.10238E-18
 -1      1525 9.48982E-05-2.84727E-05-2.84679E-05-4.71506E-08 3.90677E-19-2.96405E-18
 -1      1526 9.49135E-05-2.84799E-05-2.84713E-05-1.02978E-07 3.38139E-19-2.98642E-18
 -1      1527 9.50324E-05-2.85109E-05-2.85088E-05-3.50152E-08-4.22695E-19-3.54767E-18
 -1      1528 9.49920E-05-2.84998E-05-2.84965E-05-3.70258E-08-1.76801E-19-3.62125E-18
 -1      1529 9.50043E-05-2.85054E-05-2.84993E-05-8.03850E-08 1.77554E-19-2.73143E-18
 -1      1530 9.51011E-05-2.85307E-05-2.85299E-05-3.00914E-08-2.52734E-19-3.09936E-18
 -1      1531 9.50678E-05-2.85215E-05-2.85197E-05-3.12366E-08-8.82919E-20-3.09986E-18
 -1      1532 9.50797E-05-2.85263E-05-2.85228E-05-6.62642E-08-5.19507E-19-2.60966E-18
 -1      1533 9.51656E-05-2.85492E-05-2.85498E-05-2.97705E-08-2.06909E-19-3.14124E-18
 -1      1534 9.51346E-05-2.85404E-05-2.85402E-05-2.99516E-08-2.45193E-19-3.09080E-18
 -1      1535 9.51477E-05-2.85449E-05-2.85441E-05-6.08346E-08-1.80729E-19-2.33264E-18
 -1      1536 9.52359E-05-2.85694E-05-2.85714E-05-3.45733E-08 6.35952E-19-3.98886E-18
 -1      1537 9.52019E-05-2.85593E-05-2.85609E-05-3.36197E-08 3.64223E-19-3.06248E-18
 -1      1538 9.52171E-05-2.85638E-05-2.85659E-05-6.48028E-08 3.85628E-19-2.82521E-18
 -1      1539 9.53236E-05-2.85945E-05-2.85984E-05-4.54486E-08 3.25089E-19-4.61682E-18
 -1      1540 9.52804E-05-2.85813E-05-2.85850E-05-4.30806E-08 2.74735E-19-4.07769E-18
 -1      1541 9.52977E-05-2.85858E-05-2.85913E-05-7.95599E-08 5.28293E-19-2.74714E-18
 -1      1542 9.54428E-05-2.86288E-05-2.86349E-05-6.39460E-08-3.06125E-20-4.65932E-18
 -1      1543 9.53828E-05-2.86101E-05-2.86165E-05-5.97246E-08 2.03906E-19-4.70620E-18
 -1      1544 9.54014E-05-2.86142E-05-2.86239E-05-1.07453E-07 5.00160E-19-2.60213E-18
 -1      1545 9.56116E-05-2.86775E-05-2.86866E-05-9.24811E-08-1.88959E-19-4.99800E-18
 -1      1546 9.55252E-05-2.86501E-05-2.86601E-05-8.57287E-08-6.48125E-20-4.90648E-18
 -1      1547 9.55427E-05-2.86532E-05-2.86684E-05-1.52143E-07-1.55144E-19-3.25051E-18
 -1      1548 9.58696E-05-2.87519E-05-2.87656E-05-1.37243E-07-4.06789E-19-4.99567E-18
 -1      1549 9.57349E-05-2.87092E-05-2.87244E-05-1.25954E-07-2.60535E-19-5.22731E-18
 -1      1550 9.57473E-05-2.87094E-05-2.87326E-05-2.21195E-07-1.48458E-19-3.63178E-18
 -1      1551 9.62282E-05-2.88554E-05-2.88753E-05-1.99899E-07-4.36354E-19-3.76339E-18
 -1      1552 9.60391E-05-2.87948E-05-2.88176E-05-1.84096E-07-2.54941E-19-4.58203E-18
 -1      1553 9.60387E-05-2.87901E-05-2.88242E-05-3.23581E-07-4.96187E-19-2.54710E-18
 -1      1554 9.67456E-05-2.90047E-05-2.90336E-05-2.90631E-07-1.78946E-19-3.33836E-18
 -1      1555 9.64692E-05-2.89159E-05-2.89495E-05-2.66990E-07-3.46064E-19-3.86572E-18
 -1      1556 9.64445E-05-2.89019E-05-2.89518E-05-4.68349E-07-2.61278E-19-2.32316E-18
 -1      1557 9.74925E-05-2.92200E-05-2.92625E-05-4.22386E-07-1.32680E-19-3.27015E-18
 -1      1558 9.70889E-05-2.90900E-05-2.91397E-05-3.87005E-07-2.94194E-19-3.51947E-18
 -1      1559 9.70204E-05-2.90603E-05-2.91334E-05-6.77283E-07-3.99978E-19-2.35970E-18
 -1      1560 9.85711E-05-2.95305E-05-2.95936E-05-6.14506E-07 2.26019E-19-2.77012E-18
 -1      1561 9.79812E-05-2.93399E-05-2.94141E-05-5.61315E-07 5.39704E-19-2.39586E-18
 -1      1562 9.78369E-05-2.92839E-05-2.93915E-05-9.79674E-07-1.30347E-20-2.41130E-18
 -1      1563 1.00131E-04-2.99787E-05-3.00731E-05-8.95705E-07-4.92565E-19-2.77236E-18
 -1      1564 9.92667E-05-2.96988E-05-2.98104E-05-8.15337E-07-3.09342E-19-3.72703E-18
 -1      1565 9.89939E-05-2.95991E-05-2.97584E-05-1.41878E-06 2.74277E-19-1.67350E-18
 -1      1566 1.02387E-04-3.06265E-05-3.07686E-05-1.30738E-06 6.98438E-20-2.63022E-18
 -1      1567 1.01120E-04-3.02146E-05-3.03830E-05-1.18569E-06-2.14207E-19-2.96400E-18
 -1      1568 1.00632E-04-3.00429E-05-3.02799E-05-2.05717E-06-1.44872E-19-1.55898E-18
 -1      1569 1.05648E-04-3.15629E-05-3.17760E-05-1.90582E-06 5.83050E-19-3.86070E-18
 -1      1570 1.03790E-04-3.09564E-05-3.12102E-05-1.72242E-06 4.27841E-19-3.23692E-18
 -1      1571 1.02944E-04-3.06669E-05-3.10187E-05-2.98123E-06 7.15280E-19-2.87885E-18
 -1      1572 1.10331E-04-3.29137E-05-3.32240E-05-2.76308E-06 3.78141E-19-5.27376E-18
 -1      1573 1.07620E-04-3.20198E-05-3.23999E-05-2.48626E-06 3.96372E-19-4.26850E-18
 -1      1574 1.06190E-04-3.15447E-05-3.20576E-05-4.29930E-06 6.04609E-19-3.32596E-18
 -1      1575 1.17325E-04-3.49450E-05-3.53808E-05-3.98711E-06-1.22724E-18-3.89259E-18
 -1      1576 1.13211E-04-3.35907E-05-3.41349E-05-3.56455E-06-5.27060E-19-4.70204E-18
 -1      1577 1.10821E-04-3.27971E-05-3.35373E-05-6.15993E-06-5.35947E-19-2.21556E-18
 -1      1578 1.26483E-04-3.76569E-05-3.81639E-05-5.41725E-06-3.95889E-19-3.73430E-18
 -1      1579 1.21027E-04-3.58370E-05-3.65409E-05-4.90452E-06-6.31847E-19-4.15581E-18
 -1      1580 1.17113E-04-3.45730E-05-3.55141E-05-8.57635E-06-7.22903E-19-2.58812E-18
 -1      1581 1.38097E-04-4.12508E-05-4.15675E-05-6.75763E-06 2.02568E-19-3.50598E-18
 -1      1582 1.31129E-04-3.88952E-05-3.95734E-05-6.21947E-06 1.49991E-19-3.64261E-18
 -1      1583 1.25083E-04-3.69668E-05-3.79167E-05-1.11149E-05 4.84397E-20-4.35526E-18
 -1      1584 1.50877E-04-4.55536E-05-4.50032E-05-6.95258E-06-1.59282E-20-3.90927E-18
 -1      1585 1.43319E-04-4.29442E-05-4.30191E-05-6.73361E-06 1.36611E-19-4.05337E-18
 -1      1586 1.34635E-04-4.02568E-05-4.05221E-05-1.26859E-05 2.79415E-19-3.11729E-18
 -1      1587 1.60759E-04-4.95444E-05-4.70979E-05-3.88307E-06 1.44949E-19-3.09718E-18
 -1      1588 1.55506E-04-4.77097E-05-4.60256E-05-4.75268E-06 9.09502E-20-3.57003E-18
 -1      1589 1.44563E-04-4.45462E-05-4.26711E-05-1.06541E-05-7.35330E-20-4.01105E-18
 -1      1590 1.60010E-04-5.04500E-05-4.60474E-05 4.83219E-06-7.34589E-19-3.31571E-18
 -1      1591 1.62482E-04-5.15703E-05-4.70970E-05 1.91539E-06 3.42995E-19-2.97933E-18
 -1      1592 1.51903E-04-4.91006E-05-4.34471E-05-1.07791E-06 3.76241E-19-2.74273E-18
 -1      1593 1.40621E-04-4.40137E-05-4.12042E-05 1.74534E-05-1.50772E-19-2.22897E-18
 -1      1594 1.55902E-04-5.04197E-05-4.48462E-05 1.29401E-05-1.10593E-18-3.32312E-18
 -1      1595 1.51525E-04-5.07386E-05-4.24806E-05 1.72826E-05-7.66591E-19-3.94098E-18
 -1      1596 1.06264E-04-2.98272E-05-3.47471E-05 2.22871E-05-1.56945E-18 1.29850E-18
 -1      1597 1.30376E-04-3.97982E-05-3.95044E-05 2.03330E-05-1.07573E-18-1.48570E-18
 -1      1598 1.39082E-04-4.39982E-05-4.08229E-05 3.38644E-05-1.49342E-18-3.51074E-18
 -1      1599 8.21748E-05-1.93508E-05-3.01712E-05 8.09124E-06-1.50772E-18 4.70500E-18
 -1      1600 9.70518E-05-2.45146E-05-3.33507E-05 1.24178E-05-9.94417E-19 2.57519E-18
 -1      1601 1.19771E-04-2.98249E-05-3.97779E-05 2.77215E-05-2.39710E-18-4.22458E-20
 -1      1602 8.59077E-05-2.22888E-05-2.95919E-05-8.80703E-06-5.93558E-19 6.44084E-18
 -1      1603 8.20582E-05-1.90635E-05-2.95137E-05-4.06185E-06-9.31313E-19 4.69566E-18
 -1      1604 1.10265E-04-2.39476E-05-3.87083E-05 6.68898E-07-1.69152E-18 1.37563E-18
 -1      1605 1.04219E-04-3.18465E-05-3.13214E-05-1.42508E-05 2.77287E-18 3.12894E-18
 -1      1606 9.02939E-05-2.53713E-05-2.93079E-05-1.27642E-05 1.97126E-18 5.71663E-18
 -1      1607 1.14306E-04-3.07112E-05-3.69569E-05-1.90654E-05 1.65553E-18 1.55213E-18
 -1      1608 1.17725E-04-3.80278E-05-3.31299E-05-5.15412E-06 9.71725E-19-3.26955E-19
 -1      1609 1.07258E-04-3.41676E-05-3.12624E-05-7.84284E-06 9.74452E-19 1.61317E-18
 -1      1610 1.21236E-04-4.00329E-05-3.50540E-05-1.69276E-05 2.90088E-18-3.18696E-19
 -1      1611 1.13429E-04-3.54350E-05-3.27162E-05 4.81748E-06 4.42978E-19-2.08635E-18
 -1      1612 1.14215E-04-3.63718E-05-3.27123E-05 2.09638E-06 9.39651E-19-7.43801E-19
 -1      1613 1.19226E-04-4.02375E-05-3.36643E-05 1.36359E-07 1.40655E-18-7.73394E-19
 -1      1614 1.01188E-04-2.95365E-05-3.06775E-05 6.43891E-06-1.21228E-18-4.20975E-19
 -1      1615 1.06971E-04-3.20118E-05-3.18470E-05 5.98000E-06-9.80308E-19-1.30215E-18
 -1      1616 1.08727E-04-3.31830E-05-3.22480E-05 1.06354E-05-9.90843E-19-2.34708E-18
 -1      1617 9.64196E-05-2.66502E-05-3.04251E-05 2.19733E-06 2.93179E-19 2.10752E-19
 -1      1618 9.17602E-05-9.58350E-06-3.55477E-05 1.19719E-05-3.93256E-18-1.87255E-18
 -1      1619 9.51494E-05-2.02586E-05-3.24483E-05 1.01067E-05-3.70206E-19-3.02078E-18
 -1      1620 8.35911E-05 1.34393E-05-4.15828E-05 1.88953E-05-5.72467E-18-1.94609E-18
 -1      1621 8.95659E-05-2.91568E-06-3.75491E-05 1.77493E-05-4.27688E-18-1.45054E-19
 -1      1622 9.52461E-05-1.47085E-05-3.47118E-05 2.73159E-05-1.32444E-18-2.99498E-18
 -1      1623 7.38458E-05 3.63804E-05-4.67383E-05 1.86943E-05-7.65548E-18-8.24798E-19
 -1      1624 7.96309E-05 2.18400E-05-4.33655E-05 1.95009E-05-6.54100E-18-2.08344E-18
 -1      1625 8.67354E-05 1.10079E-06-3.75704E-05 3.52050E-05-4.27476E-18-2.77567E-18
 -1      1626 6.66134E-05 5.11389E-05-4.95735E-05 1.08667E-05-5.98365E-18 1.22735E-18
 -1      1627 7.01586E-05 4.32636E-05-4.78783E-05 1.33309E-05-8.04152E-18 1.69047E-18
 -1      1628 7.69788E-05 1.72454E-05-3.95771E-05 2.97908E-05-4.41283E-18 2.72321E-19
 -1      1629 6.53466E-05 5.20542E-05-4.93225E-05-3.27014E-06-2.14278E-18 2.79224E-18
 -1      1630 6.51607E-05 5.38646E-05-4.98653E-05 9.32567E-08-4.86118E-18 3.43430E-18
 -1      1631 6.95510E-05 2.80036E-05-4.04535E-05 1.07456E-05-4.23564E-18 4.24046E-18
 -1      1632 7.20335E-05 3.60224E-05-4.56254E-05-1.68327E-05-2.06803E-18-5.92923E-21
 -1      1633 6.76061E-05 4.79773E-05-4.84868E-05-1.45213E-05-1.17727E-18-1.15832E-19
 -1      1634 6.94791E-05 2.69904E-05-3.99578E-05-1.57582E-05-2.75724E-18 2.88309E-18
 -1      1635 8.41287E-05 7.36635E-06-3.90831E-05-2.36963E-05-2.46465E-18-6.81226E-19
 -1      1636 7.70592E-05 2.61035E-05-4.36636E-05-2.33739E-05-1.79783E-18 1.42249E-19
 -1      1637 7.76806E-05 1.26508E-05-3.79390E-05-3.69930E-05-1.39596E-18-5.52054E-19
 -1      1638 9.64430E-05-2.48278E-05-3.10230E-05-2.10013E-05-6.42729E-18-2.57343E-18
 -1      1639 8.94318E-05-5.14262E-06-3.61604E-05-2.25933E-05-3.32757E-18-2.38164E-18
 -1      1640 9.02321E-05-1.02925E-05-3.42763E-05-4.30225E-05-2.95800E-18-2.99135E-18
 -1      1641 1.03684E-04-4.78697E-05-2.42901E-05-1.21947E-05-7.07008E-18-7.77867E-19
 -1      1642 9.95126E-05-3.46456E-05-2.81165E-05-1.43153E-05-6.40569E-18-1.84865E-19
 -1      1643 1.00619E-04-3.24382E-05-2.96376E-05-3.29154E-05-3.01655E-18-2.22227E-18
 -1      1644 1.05691E-04-5.75302E-05-2.08317E-05-4.03314E-06-4.74152E-18 1.59102E-18
 -1      1645 1.04569E-04-5.26600E-05-2.24806E-05-5.43547E-06-6.17466E-18 7.08887E-19
 -1      1646 1.04883E-04-4.60457E-05-2.56298E-05-1.66747E-05-2.27238E-18 2.83068E-19
 -1      1647 1.04956E-04-5.81113E-05-2.01131E-05 1.17377E-06-1.99640E-18 2.22444E-18
 -1      1648 1.05529E-04-5.87035E-05-2.01550E-05 4.78297E-07-4.58451E-18 1.53427E-18
 -1      1649 1.04890E-04-5.10553E-05-2.33204E-05-3.60887E-06-2.64182E-18 1.95098E-18
 -1      1650 1.03037E-04-5.36686E-05-2.11246E-05 3.69785E-06-6.27651E-19 1.33654E-18
 -1      1651 1.04334E-04-5.70157E-05-2.02738E-05 3.45477E-06-1.46489E-18 1.96394E-18
 -1      1652 1.03245E-04-5.05119E-05-2.27064E-05 4.12358E-06-1.90606E-18 2.75855E-18
 -1      1653 1.00775E-04-4.71586E-05-2.29317E-05 4.50035E-06 2.18852E-19-5.95199E-19
 -1      1654 1.02251E-04-5.14418E-05-2.17415E-05 4.48930E-06 3.41725E-19 7.44972E-19
 -1      1655 1.01222E-04-4.69699E-05-2.32753E-05 7.58361E-06-4.75874E-19 8.97828E-19
 -1      1656 9.85846E-05-4.04093E-05-2.48926E-05 4.34120E-06 7.40201E-19 1.96138E-19
 -1      1657 9.99716E-05-4.45838E-05-2.37059E-05 4.43559E-06 6.05311E-19 6.82091E-19
 -1      1658 9.92631E-05-4.21951E-05-2.44413E-05 8.38358E-06 4.44401E-19 8.08414E-19
 -1      1659 9.67194E-05-3.46362E-05-2.65949E-05 3.54745E-06 1.89780E-18-6.73438E-19
 -1      1660 9.78536E-05-3.80088E-05-2.56218E-05 3.71712E-06 1.75696E-18 1.08394E-19
 -1      1661 9.74579E-05-3.72947E-05-2.57452E-05 7.61121E-06 1.34404E-18 1.10296E-19
 -1      1662 9.52005E-05-3.07566E-05-2.76362E-05 2.89908E-06 1.51913E-18-2.38122E-19
 -1      1663 9.59019E-05-3.28215E-05-2.70278E-05 3.48069E-06 1.48421E-18-1.22666E-18
 -1      1664 9.56968E-05-3.30442E-05-2.67548E-05 6.48995E-06 1.16529E-18-1.02361E-18
 -1      1665 9.36525E-05-2.98918E-05-2.72695E-05 5.29166E-06 1.38233E-18-1.05389E-18
 -1      1666 3.33387E-05-1.11066E-04 2.29214E-05-1.45421E-05 8.86716E-18 4.33511E-18
 -1      1667 3.82003E-05-1.22616E-04 2.47538E-05-2.39243E-06 5.34547E-18 3.41651E-18
 -1      1668 2.87509E-05-7.13696E-05 1.11133E-05-4.47859E-06 9.02768E-18 1.95792E-18
 -1      1669 3.73767E-05-1.03628E-04 1.83962E-05-6.74419E-06 1.09106E-17 2.25734E-18
 -1      1670 4.63196E-05-3.07346E-05-9.69990E-06 2.88025E-05 5.87671E-18 1.15196E-18
 -1      1671 4.20014E-05-6.32417E-05 2.04877E-06 5.96717E-06 7.51318E-18 2.14342E-18
 -1      1672 8.91361E-05-8.80159E-06-3.35680E-05 6.73741E-05 1.26377E-18-3.89127E-18
 -1      1673 6.17343E-05-2.11981E-05-2.08572E-05 3.69603E-05 5.44812E-18-7.49624E-19
 -1      1674 1.72901E-04-2.50544E-05-5.83165E-05 9.21103E-05-2.81554E-18-9.43934E-18
 -1      1675 1.20177E-04-1.29299E-05-4.53540E-05 7.14316E-05-9.63923E-19-5.24652E-18
 -1      1676 2.57681E-04-5.44515E-05-7.82018E-05 8.47933E-05-3.57236E-18-1.32950E-17
 -1      1677 2.00639E-04-2.79635E-05-6.88094E-05 9.16906E-05-3.49825E-18-1.13333E-17
 -1      1678 3.08496E-04-7.77119E-05-8.82454E-05 3.98332E-05-2.72194E-18-1.19978E-17
 -1      1679 2.75607E-04-5.87173E-05-8.40537E-05 7.29815E-05-3.91901E-18-1.25412E-17
 -1      1680 3.08149E-04-7.94511E-05-8.77605E-05-1.32066E-05-3.83282E-19-8.76510E-18
 -1      1681 3.16298E-04-8.14547E-05-8.96777E-05 2.78513E-05-9.54183E-19-1.02347E-17
 -1      1682 2.52498E-04-5.84216E-05-7.63946E-05-5.50532E-05-1.61995E-19-5.88857E-18
 -1      1683 2.99389E-04-7.96396E-05-8.39467E-05-2.82358E-05-8.67468E-19-9.09713E-18
 -1      1684 1.65665E-04-3.30701E-05-5.54854E-05-5.66992E-05-3.42201E-19-2.16163E-18
 -1      1685 2.25417E-04-5.44890E-05-6.71167E-05-5.92261E-05 2.62157E-19-3.68459E-18
 -1      1686 8.75949E-05-2.77266E-05-2.87802E-05-3.17826E-05-2.78674E-19 3.69306E-19
 -1      1687 1.35690E-04-3.18571E-05-4.32157E-05-5.69108E-05-1.01644E-19 2.50722E-19
 -1      1688 3.75406E-05-3.82200E-05-5.75454E-06-3.01994E-06-2.15655E-18 3.76083E-19
 -1      1689 5.27355E-05-2.10247E-05-1.66025E-05-2.68974E-05-5.47183E-19 1.00797E-19
 -1      1690 2.63393E-05-6.95694E-05 1.13142E-05 1.58308E-05-1.13333E-18 1.46346E-18
 -1      1691 2.36846E-05-4.38228E-05 3.30321E-06 5.80223E-06-1.61783E-18 8.97431E-19
 -1      1692 2.78954E-05-9.41394E-05 2.11405E-05 1.40448E-05 1.47723E-18-2.31240E-19
 -1      1693 2.08450E-05-7.56405E-05 1.70039E-05 1.98707E-05-2.27852E-19 1.77168E-18
 -1      1694 2.75662E-05-9.61132E-05 2.26742E-05 3.42545E-06 2.00747E-18-1.92912E-19
 -1      1695 2.62979E-05-9.62144E-05 2.29859E-05 1.64819E-05 2.30446E-18-7.59789E-19
 -1      1696 2.35385E-05-7.41780E-05 1.61731E-05-1.96978E-06 1.91684E-18 8.45445E-19
 -1      1697 2.89498E-05-9.25930E-05 2.05130E-05 5.65664E-06 1.74701E-18 4.22246E-19
 -1      1698 2.28484E-05-3.91790E-05 3.14567E-06 7.52751E-06 2.81046E-18 1.26758E-18
 -1      1699 2.75921E-05-6.65961E-05 1.07097E-05 1.17218E-06 1.85416E-18 2.05522E-18
 -1      1700 4.27702E-05-9.41555E-06-1.56797E-05 3.80671E-05 1.52466E-20-2.80029E-18
 -1      1701 3.42036E-05-3.12740E-05-5.49380E-06 1.70022E-05 2.84010E-18-5.12878E-19
 -1      1702 9.29113E-05-3.69901E-06-3.71469E-05 7.05462E-05-1.55431E-18-1.32137E-18
 -1      1703 6.33460E-05-7.26966E-06-2.59720E-05 4.65639E-05-8.97008E-19-1.69491E-18
 -1      1704 1.65385E-04-2.26176E-05-5.76941E-05 8.20976E-05-1.00458E-18 1.60005E-18
 -1      1705 1.20688E-04-8.82778E-06-4.73321E-05 7.10005E-05-2.01933E-18-3.57448E-19
 -1      1706 2.37340E-04-4.85713E-05-7.50176E-05 7.43346E-05-4.70103E-20 5.54129E-18
 -1      1707 1.89865E-04-2.52630E-05-6.71255E-05 8.57285E-05-6.19605E-19 2.28106E-18
 -1      1708 2.84656E-04-7.06735E-05-8.50608E-05 2.61144E-05-9.57147E-19 1.04791E-17
 -1      1709 2.56133E-04-5.54189E-05-8.06596E-05 5.84177E-05-4.47233E-19 6.83894E-18
 -1      1710 2.89555E-04-6.99563E-05-8.74383E-05-3.28340E-05 5.53960E-19 9.22885E-18
 -1      1711 2.91140E-04-7.23058E-05-8.72373E-05 7.08704E-06 8.59738E-20 1.05710E-17
 -1      1712 2.40200E-04-4.10897E-05-7.99589E-05-8.37313E-05-1.25086E-18 5.42270E-18
 -1      1713 2.78907E-04-6.41912E-05-8.51079E-05-5.13174E-05 1.05879E-19 6.80972E-18
 -1      1714 1.58114E-04-9.33593E-06-6.08072E-05-9.09903E-05-3.81970E-18 4.65445E-18
 -1      1715 2.14798E-04-3.42767E-05-7.17214E-05-9.05155E-05-2.82401E-18 4.37238E-18
 -1      1716 8.86368E-05 2.80454E-06-3.87831E-05-7.30379E-05-2.95699E-18 4.98564E-18
 -1      1717 1.28323E-04-2.32820E-06-5.03777E-05-9.57773E-05-4.11827E-18 6.01393E-18
 -1      1718 4.83351E-05-1.29837E-05-1.79266E-05-3.93413E-05-4.76710E-18 2.09641E-18
 -1      1719 6.51529E-05 2.54887E-06-2.83619E-05-6.50862E-05-3.89466E-18 4.27413E-18
 -1      1720 3.25452E-05-4.57432E-05-4.66474E-07-9.92310E-06-4.21484E-18 2.64274E-18
 -1      1721 3.27236E-05-1.97049E-05-8.78432E-06-2.67571E-05-4.03865E-18 4.64259E-18
 -1      1722 3.30702E-05-7.94959E-05 1.10364E-05 4.27820E-06-6.03765E-18 1.12867E-18
 -1      1723 2.71748E-05-5.41740E-05 5.15927E-06-1.57998E-06-5.09744E-18-1.06260E-18
 -1      1724 4.67104E-05-5.42429E-05-1.34313E-06-3.50269E-05-4.96022E-18 1.77072E-18
 -1      1725 3.87651E-05-1.14271E-04 2.09229E-05 5.86637E-06-9.37665E-19 3.29422E-18
 -1      1726 3.13552E-05-9.33264E-05 1.68701E-05 9.23606E-06-4.75016E-18 3.41296E-18
 -1      1727 4.25290E-05-1.33191E-04 2.60987E-05-4.04313E-06 3.24202E-18 2.55317E-18
 -1      1728 3.88398E-05-1.22868E-04 2.40187E-05 8.40267E-06-1.10114E-19 2.78579E-18
 -1      1729 2.72735E-05-9.17585E-05 1.83082E-05-1.19838E-05-1.55007E-18 5.80980E-18
 -1      1730 1.43778E-04-5.00631E-05-3.88886E-05 5.19782E-05 1.42471E-18-7.27262E-18
 -1      1731 9.31876E-05-5.84582E-05-1.70469E-05 4.66741E-05 2.55126E-18-4.30674E-18
 -1      1732 9.70820E-05-2.49106E-05-3.14037E-05 6.89843E-06-9.78270E-19-1.63922E-18
 -1      1733 9.99375E-05-2.53978E-05-3.23544E-05 1.61450E-05-2.15093E-18-3.35332E-18
 -1      1734 2.66160E-05-7.69085E-05 1.45273E-05 1.38311E-05 4.67096E-18 3.47072E-18
 -1      1735 5.37586E-05-6.88098E-05 1.71101E-06 3.53286E-05 4.43168E-18-1.03709E-19
 -1      1736 2.23007E-05-9.04612E-05 2.02320E-05-3.56134E-06 1.60650E-18 5.55272E-18
 -1      1737 1.95698E-04-4.67281E-05-5.95198E-05 4.54303E-05 6.70850E-19-7.46490E-18
 -1      1738 2.33815E-04-4.24959E-05-7.48783E-05 3.39620E-05-2.78822E-18-9.08612E-18
 -1      1739 2.51644E-04-4.17897E-05-8.15909E-05 2.00629E-05-3.00146E-18-6.98114E-18
 -1      1740 2.52323E-04-4.79083E-05-7.95378E-05 5.26684E-06-1.98163E-18-5.97116E-18
 -1      1741 2.21135E-04-5.27583E-05-6.71422E-05-8.67764E-06-1.37399E-18-5.64124E-18
 -1      1742 1.72008E-04-5.89744E-05-4.70101E-05-1.71959E-05-5.93347E-19-1.71185E-18
 -1      1743 1.12024E-04-5.75871E-05-2.45406E-05-2.70324E-05-5.76829E-19 4.02341E-19
 -1      1744 5.75157E-05-5.68610E-05-4.10375E-06-1.89913E-05-3.01544E-19-2.87991E-20
 -1      1745 2.85109E-05-6.33309E-05 9.99835E-06-7.47585E-06 8.31363E-19 2.18090E-18
 -1      1746 1.47724E-05-6.66983E-05 1.71748E-05 3.04232E-06 1.01051E-18 1.86347E-19
 -1      1747 1.41551E-05-6.48182E-05 1.69083E-05 1.35008E-05 2.10551E-18-2.38863E-19
 -1      1748 2.51701E-05-5.75615E-05 9.72592E-06 2.34251E-05 1.36796E-18 1.52424E-18
 -1      1749 4.87169E-05-4.61034E-05-3.74932E-06 3.59364E-05 1.25954E-18-1.45986E-18
 -1      1750 8.75432E-05-3.81018E-05-2.17387E-05 4.78165E-05 8.66515E-19-2.80961E-18
 -1      1751 1.36064E-04-3.69661E-05-4.11493E-05 4.88229E-05-1.08505E-18 7.47930E-19
 -1      1752 1.80392E-04-3.54571E-05-5.93384E-05 4.30830E-05-1.72456E-18 2.62241E-18
 -1      1753 2.20453E-04-3.65572E-05-7.38952E-05 3.15143E-05-2.24675E-18 5.38713E-18
 -1      1754 2.40917E-04-3.80353E-05-8.12873E-05 3.55664E-06-1.46876E-18 6.95880E-18
 -1      1755 2.37305E-04-3.44892E-05-8.11453E-05-2.57317E-05 1.57633E-18 6.01775E-18
 -1      1756 2.06508E-04-3.07849E-05-7.10442E-05-4.37701E-05-1.26780E-18 2.88076E-18
 -1      1757 1.65256E-04-3.18190E-05-5.38472E-05-6.06077E-05-1.84018E-18 1.01136E-18
 -1      1758 1.15109E-04-3.25097E-05-3.40580E-05-6.46674E-05-2.39033E-18 4.33088E-18
 -1      1759 7.26840E-05-4.02151E-05-1.54692E-05-5.18206E-05-3.91245E-18 2.94471E-18
 -1      1760 1.06061E-04-2.31734E-05-3.56066E-05-1.68499E-05-1.83383E-18 8.14803E-18
 -1      1761 3.45246E-05-7.41324E-05 9.94387E-06-2.11677E-05-3.85569E-18 2.58832E-18
 -1      1762 8.91551E-05-1.05877E-05-3.37971E-05-1.33212E-05-2.61902E-18-2.26767E-18
 -1      1763 9.04871E-05-1.16326E-05-3.39370E-05-1.51301E-05-2.94844E-18-1.44287E-18
 -1      1764 9.24959E-05-1.38772E-05-3.38557E-05-1.59956E-05-2.88213E-18-3.37225E-19
 -1      1765 9.42151E-05-1.58244E-05-3.41001E-05-1.76570E-05-2.99106E-18 1.18521E-18
 -1      1766 9.34234E-05-1.63499E-05-3.30462E-05-1.37631E-05-3.03226E-18-7.51451E-19
 -1      1767 8.62072E-05-7.67157E-06-3.37292E-05-7.85980E-06-1.64420E-18-3.82390E-18
 -1      1768 8.66126E-05-7.97004E-06-3.37637E-05-9.24821E-06-1.89403E-18-3.57313E-18
 -1      1769 8.55885E-05-7.03343E-06-3.37257E-05-5.31731E-06-1.17846E-18-4.05324E-18
 -1      1770 8.58240E-05-7.21244E-06-3.37410E-05-6.62138E-06-1.41238E-18-3.98545E-18
 -1      1771 8.75891E-05-9.86426E-06-3.33424E-05-6.92581E-06-1.66527E-18-3.75854E-18
 -1      1772 8.52522E-05-6.67415E-06-3.37286E-05-2.88709E-06-6.15989E-19-4.03565E-18
 -1      1773 8.53736E-05-6.76904E-06-3.37347E-05-4.12618E-06-8.60039E-19-4.02994E-18
 -1      1774 8.69515E-05-9.15156E-06-3.33752E-05-4.53484E-06-1.06876E-18-3.89318E-18
 -1      1775 8.51208E-05-6.52575E-06-3.37319E-05-5.17132E-07-4.64768E-20-4.11597E-18
 -1      1776 8.51566E-05-6.55433E-06-3.37334E-05-1.72611E-06-2.96768E-19-4.09669E-18
 -1      1777 8.66181E-05-8.77204E-06-3.33950E-05-2.21593E-06-4.72802E-19-3.91988E-18
 -1      1778 8.51664E-05-6.56331E-06-3.37336E-05 1.84411E-06 3.88271E-19-4.12809E-18
 -1      1779 8.51244E-05-6.53030E-06-3.37318E-05 6.34123E-07 1.95462E-19-4.12753E-18
 -1      1780 8.65196E-05-8.65831E-06-3.34014E-05 6.53754E-08 9.74021E-20-3.98779E-18
 -1      1781 8.53987E-05-6.79396E-06-3.37349E-05 4.24872E-06 8.24737E-19-4.08667E-18
 -1      1782 8.52700E-05-6.69308E-06-3.37286E-05 3.00648E-06 6.19793E-19-4.14490E-18
 -1      1783 8.66358E-05-8.79162E-06-3.33943E-05 2.34790E-06 5.27461E-19-3.98553E-18
 -1      1784 8.58576E-05-7.24788E-06-3.37408E-05 6.70890E-06 1.37614E-18-3.85224E-18
 -1      1785 8.56185E-05-7.06537E-06-3.37257E-05 5.42214E-06 1.10617E-18-3.99915E-18
 -1      1786 8.69855E-05-9.18924E-06-3.33737E-05 4.64995E-06 1.06539E-18-3.89445E-18
 -1      1787 8.66735E-05-8.03859E-06-3.37622E-05 9.36964E-06 1.96716E-18-3.38157E-18
 -1      1788 8.62513E-05-7.72161E-06-3.37281E-05 7.94921E-06 1.68332E-18-3.63883E-18
 -1      1789 8.76399E-05-9.92274E-06-3.33400E-05 7.02408E-06 1.67086E-18-3.60837E-18
 -1      1790 8.80893E-05-9.38762E-06-3.38184E-05 1.22480E-05 2.56529E-18-2.61990E-18
 -1      1791 8.73476E-05-8.82919E-06-3.37459E-05 1.06552E-05 2.23889E-18-3.08532E-18
 -1      1792 8.87642E-05-1.11589E-05-3.32902E-05 9.49733E-06 2.26459E-18-3.00240E-18
 -1      1793 9.06369E-05-1.18414E-05-3.39293E-05 1.52964E-05 3.01724E-18-1.26928E-18
 -1      1794 8.92548E-05-1.07414E-05-3.37891E-05 1.35066E-05 2.74835E-18-2.06973E-18
 -1      1795 9.06653E-05-1.32231E-05-3.32081E-05 1.19688E-05 2.84381E-18-2.10956E-18
 -1      1796 9.58845E-05-1.70372E-05-3.39956E-05 1.76850E-05 3.04687E-18 1.52286E-18
 -1      1797 9.28637E-05-1.43453E-05-3.38291E-05 1.61877E-05 2.96943E-18-1.68401E-19
 -1      1798 9.39764E-05-1.68888E-05-3.30262E-05 1.38880E-05 3.10612E-18-6.11372E-19
 -1      1799 1.01935E-04-2.50976E-05-3.33620E-05 1.44182E-05 2.69589E-18 5.01803E-18
 -1      1800 9.80858E-05-1.96196E-05-3.36279E-05 1.69592E-05 2.88669E-18 2.72501E-18
 -1      1801 9.73387E-05-2.18572E-05-3.24304E-05 1.32428E-05 3.17501E-18 1.50420E-18
 -1      1802 9.87633E-05-2.61388E-05-3.13456E-05 9.43057E-06 2.71800E-18 4.15528E-18
 -1      1803 1.00165E-04-1.95663E-05-3.42207E-05-1.88647E-05-2.50396E-18 3.72324E-18
 -1      1804 9.53245E-05-2.72896E-05-2.91893E-05 4.06237E-06 2.15164E-18 2.96504E-18
 -1      1805 9.77535E-05-2.73944E-05-3.01980E-05 6.39653E-06 2.23728E-18 3.69724E-18
 -1      1806 9.75875E-05-2.56182E-05-3.08361E-05 8.75462E-06 2.72369E-18 2.19515E-18
 -1      1807 3.56018E-05-6.61677E-05 8.74360E-06-3.28533E-05-1.91091E-18 3.23990E-18
 -1      1808 4.27310E-05-5.79542E-05 3.46820E-06-4.00169E-05-3.08828E-18 1.84018E-18
 -1      1809 9.98246E-05-2.25451E-05-3.28388E-05-1.44625E-05-2.72813E-18 2.58710E-18
 -1      1810 9.69710E-05-2.69815E-05-2.98809E-05-5.69986E-06-2.21727E-18 2.14851E-18
 -1      1811 9.51645E-05-2.70373E-05-2.91707E-05-3.89220E-06-1.96534E-18 1.52410E-18
 -1      1812 9.43473E-05-2.72398E-05-2.86635E-05-2.41604E-06-1.77533E-18 1.36848E-18
 -1      1813 9.35770E-05-2.73208E-05-2.83588E-05-1.56285E-06-1.54492E-18 8.97716E-19
 -1      1814 9.55180E-05-2.65478E-05-2.95794E-05-4.46558E-06-2.20876E-18 3.13220E-19
 -1      1815 9.30524E-05-2.73713E-05-2.80902E-05-7.36129E-07-1.34207E-18 8.15362E-19
 -1      1816 9.27524E-05-2.74351E-05-2.79685E-05-2.97689E-07-1.07016E-18 4.33734E-19
 -1      1817 9.43096E-05-2.72250E-05-2.87711E-05-1.82288E-06-1.72582E-18-4.97897E-20
 -1      1818 9.24774E-05-2.74627E-05-2.78327E-05 1.57734E-07-7.78904E-19 3.72013E-19
 -1      1819 9.24474E-05-2.75393E-05-2.78032E-05 3.81774E-07-5.39456E-19 1.97384E-19
 -1      1820 9.36093E-05-2.75311E-05-2.83356E-05-3.56204E-07-1.08341E-18-2.01539E-19
 -1      1821 9.23446E-05-2.75709E-05-2.77452E-05 6.21391E-07-5.60625E-19 1.33959E-19
 -1      1822 9.24608E-05-2.76564E-05-2.77647E-05 7.25169E-07-5.40930E-19-1.45609E-19
 -1      1823 9.32895E-05-2.77163E-05-2.81150E-05 4.46185E-07-7.52383E-19-6.24763E-19
 -1      1824 9.24665E-05-2.76946E-05-2.77529E-05 8.35855E-07-6.01872E-19-1.90675E-19
 -1      1825 9.26553E-05-2.77817E-05-2.77979E-05 8.69195E-07-6.91849E-19-4.16435E-19
 -1      1826 9.32270E-05-2.78597E-05-2.80228E-05 8.56916E-07-7.34252E-19-5.78152E-19
 -1      1827 9.27240E-05-2.78233E-05-2.78127E-05 9.02003E-07-6.06094E-19-3.08653E-19
 -1      1828 9.29410E-05-2.79063E-05-2.78691E-05 8.93989E-07-5.07277E-19-2.10297E-19
 -1      1829 9.33223E-05-2.79837E-05-2.80073E-05 1.03128E-06-5.93429E-19-7.07646E-19
 -1      1830 9.30420E-05-2.79479E-05-2.78981E-05 8.80552E-07-6.89137E-19-1.51379E-19
 -1      1831 9.32608E-05-2.80234E-05-2.79574E-05 8.49275E-07-4.22262E-19-2.20274E-19
 -1      1832 9.35045E-05-2.80931E-05-2.80362E-05 1.06290E-06-5.72612E-19-6.74334E-19
 -1      1833 9.33739E-05-2.80624E-05-2.79927E-05 8.09890E-07-4.51881E-19-5.32933E-19
 -1      1834 9.35791E-05-2.81285E-05-2.80497E-05 7.66950E-07-4.46663E-19-8.41701E-19
 -1      1835 9.37260E-05-2.81887E-05-2.80886E-05 1.01084E-06-7.61455E-19-8.04023E-19
 -1      1836 9.36918E-05-2.81635E-05-2.80863E-05 7.14822E-07-3.13506E-19-1.13396E-18
 -1      1837 9.38754E-05-2.82197E-05-2.81381E-05 6.67684E-07-2.44455E-19-1.21153E-18
 -1      1838 9.39558E-05-2.82704E-05-2.81511E-05 9.13358E-07-5.22242E-19-1.05996E-18
 -1      1839 9.39804E-05-2.82499E-05-2.81731E-05 6.11355E-07-4.10523E-19-1.17775E-18
 -1      1840 9.41390E-05-2.82965E-05-2.82186E-05 5.64733E-07-3.75554E-19-1.17892E-18
 -1      1841 9.41753E-05-2.83385E-05-2.82154E-05 7.95371E-07-3.33070E-19-1.05792E-18
 -1      1842 9.42326E-05-2.83218E-05-2.82503E-05 5.09596E-07-1.24660E-19-1.24298E-18
 -1      1843 9.43659E-05-2.83596E-05-2.82889E-05 4.66342E-07-1.58837E-19-1.03251E-18
 -1      1844 9.43742E-05-2.83940E-05-2.82766E-05 6.72909E-07-3.78865E-19-1.23174E-18
 -1      1845 9.44467E-05-2.83803E-05-2.83167E-05 4.15650E-07-2.89939E-19-9.27976E-19
 -1      1846 9.45563E-05-2.84103E-05-2.83489E-05 3.77367E-07-1.20603E-19-6.30596E-19
 -1      1847 9.45480E-05-2.84381E-05-2.83319E-05 5.55972E-07-1.19787E-19-8.41215E-19
 -1      1848 9.46243E-05-2.84269E-05-2.83726E-05 3.32944E-07-3.78724E-19-6.92381E-19
 -1      1849 9.47129E-05-2.84502E-05-2.83988E-05 3.00420E-07-2.16009E-19-7.47512E-19
 -1      1850 9.46955E-05-2.84725E-05-2.83805E-05 4.50483E-07-2.47864E-19-1.19850E-18
 -1      1851 9.47693E-05-2.84633E-05-2.84188E-05 2.63174E-07-3.38201E-19-9.12915E-19
 -1      1852 9.48401E-05-2.84812E-05-2.84400E-05 2.36704E-07-2.14671E-19-7.16619E-19
 -1      1853 9.48185E-05-2.84986E-05-2.84220E-05 3.59675E-07-3.01145E-19-9.09924E-19
 -1      1854 9.48866E-05-2.84914E-05-2.84566E-05 2.07001E-07-2.60131E-19-1.06531E-18
 -1      1855 9.49431E-05-2.85050E-05-2.84738E-05 1.86620E-07-2.72452E-19-1.32166E-18
 -1      1856 9.49197E-05-2.85180E-05-2.84573E-05 2.85106E-07-4.84524E-19-6.71603E-19
 -1      1857 9.49818E-05-2.85129E-05-2.84878E-05 1.64552E-07-3.48964E-19-1.74091E-18
 -1      1858 9.50277E-05-2.85233E-05-2.85020E-05 1.50201E-07-5.49634E-19-2.05275E-18
 -1      1859 9.50032E-05-2.85321E-05-2.84871E-05 2.27381E-07-6.05979E-19-1.54327E-18
 -1      1860 9.50607E-05-2.85297E-05-2.85142E-05 1.35778E-07-5.82588E-19-1.85267E-18
 -1      1861 9.50997E-05-2.85380E-05-2.85263E-05 1.27414E-07-1.86425E-19-1.78908E-18
 -1      1862 9.50732E-05-2.85424E-05-2.85129E-05 1.86683E-07-5.43454E-19-1.88217E-18
 -1      1863 9.51296E-05-2.85434E-05-2.85375E-05 1.20684E-07 1.36659E-19-1.83469E-18
 -1      1864 9.51654E-05-2.85507E-05-2.85488E-05 1.18348E-07 4.48875E-19-1.67962E-18
 -1      1865 9.51345E-05-2.85500E-05-2.85361E-05 1.63122E-07-1.25156E-19-1.68083E-18
 -1      1866 9.51947E-05-2.85558E-05-2.85598E-05 1.19455E-07 5.06464E-19-1.50119E-18
 -1      1867 9.52312E-05-2.85632E-05-2.85713E-05 1.23288E-07 2.61729E-19-1.27796E-18
 -1      1868 9.51921E-05-2.85564E-05-2.85582E-05 1.56939E-07 6.45856E-19-1.47536E-18
 -1      1869 9.52625E-05-2.85688E-05-2.85830E-05 1.32470E-07 1.28754E-19-1.15969E-18
 -1      1870 9.53035E-05-2.85774E-05-2.85959E-05 1.42678E-07 3.34261E-19-7.97434E-19
 -1      1871 9.52510E-05-2.85629E-05-2.85809E-05 1.68574E-07 5.36494E-19-1.16658E-18
 -1      1872 9.53397E-05-2.85844E-05-2.86092E-05 1.60172E-07-1.29150E-19-5.11962E-19
 -1      1873 9.53892E-05-2.85955E-05-2.86245E-05 1.76919E-07 1.44629E-20-7.28490E-19
 -1      1874 9.53169E-05-2.85710E-05-2.86059E-05 1.98560E-07 5.34213E-20-7.85840E-19
 -1      1875 9.54331E-05-2.86047E-05-2.86403E-05 2.02783E-07 1.55881E-19-6.70743E-19
 -1      1876 9.54951E-05-2.86197E-05-2.86592E-05 2.25992E-07-4.62332E-21-7.75434E-19
 -1      1877 9.53952E-05-2.85828E-05-2.86346E-05 2.47221E-07 6.34985E-20-9.45306E-19
 -1      1878 9.55494E-05-2.86324E-05-2.86781E-05 2.59780E-07-5.36773E-19-1.29075E-18
 -1      1879 9.56276E-05-2.86529E-05-2.87016E-05 2.88815E-07-9.99669E-19-1.64074E-18
 -1      1880 9.54918E-05-2.86006E-05-2.86686E-05 3.14115E-07-4.98717E-19-9.69622E-19
 -1      1881 9.56950E-05-2.86703E-05-2.87241E-05 3.29086E-07-9.21221E-19-2.11756E-18
 -1      1882 9.57921E-05-2.86979E-05-2.87528E-05 3.62274E-07-6.53171E-19-2.42775E-18
 -1      1883 9.56123E-05-2.86276E-05-2.87089E-05 3.97131E-07-1.10203E-18-9.88595E-19
 -1      1884 9.58746E-05-2.87216E-05-2.87791E-05 4.05896E-07-2.11777E-19-2.11795E-18
 -1      1885 9.59920E-05-2.87579E-05-2.88130E-05 4.39870E-07 1.80606E-19-2.03989E-18
 -1      1886 9.57617E-05-2.86675E-05-2.87559E-05 4.91175E-07-3.43159E-19-9.18193E-19
 -1      1887 9.60906E-05-2.87898E-05-2.88425E-05 4.81092E-07 1.99916E-19-2.51916E-18
 -1      1888 9.62263E-05-2.88359E-05-2.88808E-05 5.09956E-07-3.65050E-20-2.53302E-18
 -1      1889 9.59436E-05-2.87254E-05-2.88090E-05 5.86382E-07-1.09685E-20-2.06718E-18
 -1      1890 9.63402E-05-2.88777E-05-2.89121E-05 5.39298E-07 1.46691E-19-2.29356E-18
 -1      1891 9.64879E-05-2.89340E-05-2.89525E-05 5.53678E-07 6.83782E-19-2.53127E-18
 -1      1892 9.61588E-05-2.88067E-05-2.88662E-05 6.65865E-07 2.06078E-19-1.74893E-18
 -1      1893 9.66132E-05-2.89873E-05-2.89825E-05 5.56780E-07 5.62012E-20-2.28747E-18
 -1      1894 9.67596E-05-2.90525E-05-2.90206E-05 5.42948E-07-3.88274E-19-2.12699E-18
 -1      1895 9.64034E-05-2.89176E-05-2.89231E-05 7.03222E-07 5.75919E-19-1.81207E-18
 -1      1896 9.68881E-05-2.91178E-05-2.90451E-05 4.99714E-07-5.95772E-19-1.71581E-18
 -1      1897 9.70102E-05-2.91878E-05-2.90738E-05 4.39205E-07-6.80905E-19-1.62963E-18
 -1      1898 9.66666E-05-2.90631E-05-2.89728E-05 6.60307E-07-1.53086E-20-1.20113E-18
 -1      1899 9.71275E-05-2.92635E-05-2.90862E-05 3.23884E-07-7.91092E-19-1.69519E-18
 -1      1900 9.71907E-05-2.93295E-05-2.90954E-05 1.94275E-07-8.16311E-20-1.53581E-18
 -1      1901 9.69265E-05-2.92448E-05-2.90050E-05 4.86348E-07-6.79533E-19-6.40852E-19
 -1      1902 9.72739E-05-2.94100E-05-2.90876E-05-2.24846E-08 4.11961E-20-1.55116E-18
 -1      1903 9.72303E-05-2.94567E-05-2.90638E-05-2.44604E-07 5.96422E-19-1.51535E-18
 -1      1904 9.71465E-05-2.94569E-05-2.90065E-05 1.20210E-07-2.72549E-19-2.16666E-19
 -1      1905 9.72465E-05-2.95295E-05-2.90262E-05-5.90322E-07 7.25212E-19-2.29862E-18
 -1      1906 9.70365E-05-2.95333E-05-2.89539E-05-9.22976E-07 5.63863E-19-2.66849E-18
 -1      1907 9.72703E-05-2.96793E-05-2.89616E-05-5.01533E-07 2.52538E-21-1.29646E-18
 -1      1908 9.69415E-05-2.95763E-05-2.88773E-05-1.41308E-06 5.76272E-19-2.60058E-18
 -1      1909 9.64996E-05-2.95040E-05-2.87409E-05-1.85832E-06 2.01250E-19-2.59262E-18
 -1      1910 9.72184E-05-2.98694E-05-2.88545E-05-1.42755E-06 4.23397E-19-1.29288E-18
 -1      1911 9.62401E-05-2.94836E-05-2.86184E-05-2.48055E-06-2.13078E-19-2.66601E-18
 -1      1912 9.55084E-05-2.92956E-05-2.84064E-05-3.01032E-06-1.43893E-19-2.85365E-18
 -1      1913 9.68881E-05-2.99551E-05-2.86723E-05-2.66339E-06 2.21938E-19-2.96565E-19
 -1      1914 9.50297E-05-2.91685E-05-2.82363E-05-3.70600E-06 1.29183E-18-2.66939E-18
 -1      1915 9.39787E-05-2.88268E-05-2.79468E-05-4.24834E-06 1.25681E-18-1.06359E-18
 -1      1916 9.61635E-05-2.98337E-05-2.84103E-05-4.13346E-06 7.87291E-19-2.34254E-19
 -1      1917 9.32421E-05-2.85499E-05-2.77359E-05-4.89747E-06 3.48461E-19-2.95323E-19
 -1      1918 9.18982E-05-2.80345E-05-2.73823E-05-5.33095E-06 2.32004E-19 9.07533E-20
 -1      1919 9.49408E-05-2.93866E-05-2.80759E-05-5.64269E-06 1.22150E-18 3.31501E-20
 -1      1920 9.09081E-05-2.75849E-05-2.71473E-05-5.75389E-06-1.73940E-20 1.50054E-19
 -1      1921 8.93792E-05-2.69171E-05-2.67624E-05-5.92162E-06-4.70588E-19 2.39323E-19
 -1      1922 9.31755E-05-2.85197E-05-2.76929E-05-6.85954E-06 1.49350E-19 9.67002E-19
 -1      1923 8.82150E-05-2.63195E-05-2.65299E-05-5.91236E-06-1.01253E-18 4.08617E-19
 -1      1924 8.67006E-05-2.55811E-05-2.61646E-05-5.66393E-06-8.75293E-19 3.93996E-19
 -1      1925 9.09471E-05-2.72270E-05-2.72999E-05-7.35136E-06-8.36769E-19 8.22552E-19
 -1      1926 8.55341E-05-2.49288E-05-2.59667E-05-5.06076E-06-1.13310E-18 4.07744E-19
 -1      1927 8.43038E-05-2.42636E-05-2.56831E-05-4.31677E-06-5.93727E-19 1.50168E-19
 -1      1928 8.85148E-05-2.56558E-05-2.69452E-05-6.69857E-06-5.10372E-19 5.88417E-19
 -1      1929 8.33767E-05-2.37100E-05-2.55505E-05-3.09067E-06 2.94853E-19-4.19271E-19
 -1      1930 8.27093E-05-2.32916E-05-2.54074E-05-1.90351E-06 6.65152E-19 5.59590E-19
 -1      1931 8.63153E-05-2.41243E-05-2.66763E-05-4.67612E-06-4.71361E-19 8.99266E-19
 -1      1932 8.22604E-05-2.30030E-05-2.53614E-05-2.17816E-07 5.08445E-19 9.48235E-19
 -1      1933 8.23586E-05-2.29764E-05-2.53968E-05 1.20802E-06 1.78283E-18 1.24647E-18
 -1      1934 8.48626E-05-2.30494E-05-2.65283E-05-1.42786E-06 9.34403E-19 8.52444E-19
 -1      1935 8.25301E-05-2.30665E-05-2.54419E-05 3.01162E-06 9.19600E-19 5.51854E-19
 -1      1936 8.34413E-05-2.34946E-05-2.56573E-05 4.35714E-06 7.95688E-19 8.35055E-20
 -1      1937 8.45680E-05-2.27999E-05-2.65131E-05 2.47640E-06 5.87391E-19 1.07997E-18
 -1      1938 8.42251E-05-2.39870E-05-2.57755E-05 5.84161E-06 9.26475E-20-1.26718E-18
 -1      1939 8.58072E-05-2.48289E-05-2.61262E-05 6.74304E-06-5.59796E-19-2.42157E-18
 -1      1940 8.55793E-05-2.35659E-05-2.66118E-05 6.15901E-06-4.56157E-19-1.20860E-18
 -1      1941 8.70576E-05-2.56718E-05-2.62772E-05 7.50185E-06-2.99290E-20-2.28946E-18
 -1      1942 8.89981E-05-2.68060E-05-2.66728E-05 7.62062E-06-3.09079E-19-2.11120E-18
 -1      1943 8.77185E-05-2.52970E-05-2.67726E-05 8.66387E-06-2.80786E-19-2.56791E-18
 -1      1944 9.03143E-05-2.77491E-05-2.67920E-05 7.33976E-06-3.31539E-19-1.79202E-18
 -1      1945 9.22056E-05-2.89702E-05-2.71491E-05 6.46990E-06 2.08239E-19-1.64058E-18
 -1      1946 9.31616E-05-3.00811E-05-2.70413E-05 7.65249E-06 7.17697E-19-2.51479E-18
 -1      1947 9.04429E-05-2.76988E-05-2.69048E-05 9.19695E-06-1.96612E-19-1.25593E-18
 -1      1948 9.32276E-05-2.73672E-05-2.81980E-05 1.60036E-06 1.68982E-18 1.91997E-18
 -1      1949 9.44206E-05-2.74721E-05-2.86341E-05 2.67161E-06 1.86306E-18 2.67187E-18
 -1      1950 9.52431E-05-2.70508E-05-2.92307E-05 4.04826E-06 2.20373E-18 1.52282E-18
 -1      1951 9.21785E-05-2.73545E-05-2.77571E-05 3.43110E-07 1.35218E-18 1.14550E-18
 -1      1952 9.26711E-05-2.73863E-05-2.79290E-05 8.91471E-07 1.42320E-18 1.68779E-18
 -1      1953 9.36410E-05-2.73725E-05-2.84077E-05 1.57899E-06 1.77154E-18 1.05599E-18
 -1      1954 9.18062E-05-2.73930E-05-2.75899E-05-3.10633E-07 5.52663E-19 6.64643E-19
 -1      1955 9.19194E-05-2.73657E-05-2.76363E-05-1.78999E-08 9.02778E-19 9.73443E-19
 -1      1956 9.28124E-05-2.74883E-05-2.80060E-05 2.65732E-07 1.21091E-18 5.50555E-19
 -1      1957 9.18329E-05-2.74846E-05-2.75677E-05-6.36749E-07 1.10904E-19 4.47227E-19
 -1      1958 9.17432E-05-2.74219E-05-2.75508E-05-4.83658E-07 2.69171E-19 6.84980E-19
 -1      1959 9.25010E-05-2.75820E-05-2.78325E-05-4.28141E-07 3.79795E-19 3.86178E-20
 -1      1960 9.20803E-05-2.76076E-05-2.76241E-05-7.75235E-07 3.71741E-19 2.06406E-19
 -1      1961 9.18877E-05-2.75281E-05-2.75750E-05-7.02868E-07 1.54014E-19 3.90217E-19
 -1      1962 9.25072E-05-2.76886E-05-2.77877E-05-7.73358E-07 3.26559E-19-6.63994E-20
 -1      1963 9.24558E-05-2.77502E-05-2.77260E-05-8.01678E-07 6.71560E-19 7.45786E-20
 -1      1964 9.22068E-05-2.76617E-05-2.76588E-05-7.79276E-07 3.80305E-19 3.39236E-19
 -1      1965 9.26999E-05-2.78060E-05-2.78175E-05-9.14197E-07 5.06530E-19-4.41967E-20
 -1      1966 9.28499E-05-2.78832E-05-2.78392E-05-7.61157E-07 7.38394E-19-4.98352E-20
 -1      1967 9.26038E-05-2.78022E-05-2.77712E-05-7.69228E-07 7.46213E-19 1.64060E-19
 -1      1968 9.29876E-05-2.79277E-05-2.78869E-05-9.32112E-07 7.69498E-19-9.83286E-20
 -1      1969 9.32395E-05-2.80073E-05-2.79539E-05-6.87729E-07 1.97390E-19-3.30487E-19
 -1      1970 9.30050E-05-2.79334E-05-2.78882E-05-7.12027E-07 4.01516E-19-2.58033E-19
 -1      1971 9.33016E-05-2.80389E-05-2.79724E-05-8.79096E-07 6.14302E-19-2.08529E-19
 -1      1972 9.36000E-05-2.81175E-05-2.80619E-05-5.99066E-07 8.33893E-20-4.33214E-19
 -1      1973 9.33879E-05-2.80528E-05-2.80019E-05-6.31378E-07 9.62028E-20-4.83063E-19
 -1      1974 9.36137E-05-2.81397E-05-2.80620E-05-7.89745E-07 2.08991E-19-4.52244E-19
 -1      1975 9.39193E-05-2.82122E-05-2.81588E-05-5.06885E-07 5.94873E-19-1.05374E-18
 -1      1976 9.37346E-05-2.81572E-05-2.81061E-05-5.41967E-07 4.38307E-19-5.17014E-19
 -1      1977 9.39041E-05-2.82275E-05-2.81481E-05-6.84706E-07 4.88184E-19-8.65865E-19
 -1      1978 9.41932E-05-2.82914E-05-2.82427E-05-4.18489E-07 9.87348E-19-1.46081E-18
 -1      1979 9.40369E-05-2.82458E-05-2.81978E-05-4.53005E-07 6.83971E-19-1.12439E-18
 -1      1980 9.41622E-05-2.83019E-05-2.82264E-05-5.77047E-07 8.07222E-19-1.38049E-18
 -1      1981 9.44219E-05-2.83560E-05-2.83133E-05-3.38149E-07 5.71228E-19-1.73849E-18
 -1      1982 9.42929E-05-2.83190E-05-2.82761E-05-3.70078E-07 1.00266E-18-1.36593E-18
 -1      1983 9.43843E-05-2.83632E-05-2.82950E-05-4.74831E-07 1.07747E-18-9.78565E-19
 -1      1984 9.46090E-05-2.84077E-05-2.83716E-05-2.68112E-07 4.50941E-19-1.43851E-18
 -1      1985 9.45046E-05-2.83783E-05-2.83412E-05-2.96323E-07 2.14871E-19-1.72985E-18
 -1      1986 9.45704E-05-2.84126E-05-2.83534E-05-3.82741E-07 3.28438E-19-8.96975E-19
 -1      1987 9.47596E-05-2.84483E-05-2.84188E-05-2.09403E-07-2.47836E-19-1.61886E-18
 -1      1988 9.46764E-05-2.84254E-05-2.83945E-05-2.33286E-07-1.09802E-19-1.56648E-18
 -1      1989 9.47234E-05-2.84517E-05-2.84021E-05-3.03241E-07 9.19527E-20-8.61308E-19
 -1      1990 9.48849E-05-2.84812E-05-2.84585E-05-1.60073E-07 2.07043E-20-2.32025E-18
 -1      1991 9.48168E-05-2.84628E-05-2.84384E-05-1.80216E-07 1.09947E-19-1.86634E-18
 -1      1992 9.48501E-05-2.84828E-05-2.84431E-05-2.36073E-07 2.00824E-19-1.45827E-18
 -1      1993 9.49795E-05-2.85053E-05-2.84888E-05-1.24800E-07 5.02145E-19-2.29961E-18
 -1      1994 9.49285E-05-2.84919E-05-2.84736E-05-1.39373E-07 2.72573E-19-2.67370E-18
 -1      1995 9.49522E-05-2.85065E-05-2.84766E-05-1.83247E-07 4.77723E-19-1.91312E-18
 -1      1996 9.50575E-05-2.85243E-05-2.85140E-05-1.00864E-07-3.56061E-19-1.98572E-18
 -1      1997 9.50161E-05-2.85138E-05-2.85015E-05-1.10780E-07 3.21186E-19-2.00471E-18
 -1      1998 9.50335E-05-2.85245E-05-2.85038E-05-1.46045E-07 2.34048E-19-1.58468E-18
 -1      1999 9.51255E-05-2.85403E-05-2.85362E-05-8.84268E-08-2.97181E-19-2.33024E-18
 -1      2000 9.50898E-05-2.85315E-05-2.85253E-05-9.34993E-08-5.11363E-19-2.46295E-18
 -1      2001 9.51031E-05-2.85388E-05-2.85276E-05-1.22990E-07-7.96470E-20-2.16736E-18
 -1      2002 9.51912E-05-2.85552E-05-2.85578E-05-8.81650E-08 2.77055E-21-2.78647E-18
 -1      2003 9.51570E-05-2.85470E-05-2.85472E-05-8.79910E-08-1.68077E-19-2.32358E-18
 -1      2004 9.51673E-05-2.85513E-05-2.85499E-05-1.14662E-07-2.75416E-19-2.63242E-18
 -1      2005 9.52629E-05-2.85713E-05-2.85815E-05-1.01513E-07 4.12347E-19-2.38332E-18
 -1      2006 9.52256E-05-2.85623E-05-2.85697E-05-9.53432E-08 1.71656E-19-2.60618E-18
 -1      2007 9.52332E-05-2.85635E-05-2.85730E-05-1.22379E-07 1.40771E-19-2.55828E-18
 -1      2008 9.53504E-05-2.85908E-05-2.86102E-05-1.30968E-07 2.59715E-19-1.26955E-18
 -1      2009 9.53044E-05-2.85796E-05-2.85957E-05-1.17558E-07 5.76640E-19-1.51314E-18
 -1      2010 9.53087E-05-2.85773E-05-2.85996E-05-1.48547E-07 8.50826E-20-1.23373E-18
 -1      2011 9.54653E-05-2.86168E-05-2.86479E-05-1.80531E-07 3.23486E-19-1.60565E-18
 -1      2012 9.54041E-05-2.86016E-05-2.86286E-05-1.57916E-07 3.34148E-19-1.60605E-18
 -1      2013 9.54032E-05-2.85946E-05-2.86330E-05-1.97098E-07 6.51206E-19-6.67796E-19
 -1      2014 9.56226E-05-2.86526E-05-2.86991E-05-2.56279E-07 1.39248E-20-1.83498E-18
 -1      2015 9.55377E-05-2.86312E-05-2.86726E-05-2.21517E-07 1.06088E-19-1.68961E-18
 -1      2016 9.55281E-05-2.86177E-05-2.86769E-05-2.74091E-07 2.11686E-19-6.46697E-19
 -1      2017 9.58547E-05-2.87056E-05-2.87748E-05-3.74001E-07-7.08056E-19-1.47145E-18
 -1      2018 9.57272E-05-2.86735E-05-2.87350E-05-3.19151E-07-2.66770E-19-1.50979E-18
 -1      2019 9.57032E-05-2.86502E-05-2.87385E-05-3.92116E-07-1.07069E-19-1.79887E-19
 -1      2020 9.61674E-05-2.87770E-05-2.88766E-05-5.37112E-07-1.89268E-19-1.33776E-18
 -1      2021 9.59935E-05-2.87328E-05-2.88227E-05-4.60991E-07-5.69764E-19-1.57098E-18
 -1      2022 9.59448E-05-2.86945E-05-2.88236E-05-5.64422E-07-5.29377E-19-6.52196E-19
 -1      2023 9.66051E-05-2.88761E-05-2.90193E-05-7.70499E-07 5.51059E-20-2.44479E-18
 -1      2024 9.63579E-05-2.88135E-05-2.89430E-05-6.60422E-07 1.59245E-19-1.55471E-18
 -1      2025 9.62706E-05-2.87528E-05-2.89388E-05-8.05512E-07 1.58581E-19-1.58309E-18
 -1      2026 9.72173E-05-2.90131E-05-2.92195E-05-1.10468E-06-4.61059E-19-1.87100E-18
 -1      2027 9.68662E-05-2.89244E-05-2.91115E-05-9.45440E-07-4.64114E-19-1.79280E-18
 -1      2028 9.67176E-05-2.88302E-05-2.90981E-05-1.14868E-06-3.32308E-19-2.11979E-18
 -1      2029 9.80721E-05-2.92013E-05-2.95002E-05-1.58423E-06-1.63661E-19-1.12122E-18
 -1      2030 9.75736E-05-2.90759E-05-2.93473E-05-1.35321E-06-5.93328E-19-1.56705E-18
 -1      2031 9.73284E-05-2.89308E-05-2.93178E-05-1.63734E-06-5.76007E-19-1.99962E-19
 -1      2032 9.92628E-05-2.94591E-05-2.98929E-05-2.27339E-06-1.71471E-19-3.14436E-19
 -1      2033 9.85556E-05-2.92820E-05-2.96766E-05-1.93748E-06 3.33221E-19-6.64739E-19
 -1      2034 9.81589E-05-2.90594E-05-2.96199E-05-2.33381E-06-5.71168E-20 6.20016E-19
 -1      2035 1.00915E-04-2.98121E-05-3.04404E-05-3.26171E-06 6.23737E-19-2.02117E-18
 -1      2036 9.99143E-05-2.95615E-05-3.01352E-05-2.77383E-06 5.71109E-19-8.83264E-19
 -1      2037 9.92809E-05-2.92218E-05-3.00328E-05-3.32514E-06 7.91129E-19-6.19186E-20
 -1      2038 1.03196E-04-3.02978E-05-3.11984E-05-4.66618E-06 8.00304E-19-3.15142E-18
 -1      2039 1.01785E-04-2.99417E-05-3.07698E-05-3.96302E-06 9.09369E-19-2.64411E-18
 -1      2040 1.00785E-04-2.94272E-05-3.05917E-05-4.72666E-06 1.27487E-18-1.74359E-18
 -1      2041 1.06311E-04-3.09770E-05-3.22323E-05-6.62247E-06 3.38191E-19-1.85408E-18
 -1      2042 1.04343E-04-3.04645E-05-3.16382E-05-5.62446E-06 5.12091E-19-2.06928E-18
 -1      2043 1.02781E-04-2.96982E-05-3.13357E-05-6.67515E-06 4.81750E-19-1.51780E-18
 -1      2044 1.10726E-04-3.20101E-05-3.36790E-05-9.35054E-06-1.23099E-18-1.41161E-18
 -1      2045 1.07892E-04-3.12321E-05-3.28311E-05-7.92773E-06-6.43533E-19-1.70953E-18
 -1      2046 1.05475E-04-3.01037E-05-3.23249E-05-9.36663E-06-7.90216E-19-3.57791E-19
 -1      2047 1.16248E-04-3.35193E-05-3.54157E-05-1.24805E-05 5.05937E-19-2.41694E-18
 -1      2048 1.12668E-04-3.24183E-05-3.43794E-05-1.08224E-05-1.44856E-19-1.78221E-18
 -1      2049 1.08991E-04-3.08201E-05-3.35376E-05-1.27584E-05-9.78720E-21-1.52947E-18
 -1      2050 1.23161E-04-3.59731E-05-3.73733E-05-1.54317E-05-3.99577E-20-3.01917E-18
 -1      2051 1.18743E-04-3.43260E-05-3.61822E-05-1.38197E-05-9.75014E-20-3.06083E-18
 -1      2052 1.13455E-04-3.22483E-05-3.48561E-05-1.63417E-05 3.61402E-19-1.69784E-18
 -1      2053 1.31364E-04-4.01226E-05-3.91751E-05-1.62655E-05 2.77800E-19-2.88256E-18
 -1      2054 1.26482E-04-3.76826E-05-3.80636E-05-1.57312E-05 7.23227E-19-2.40732E-18
 -1      2055 1.19392E-04-3.53568E-05-3.60828E-05-1.89136E-05 9.99234E-21-2.18459E-18
 -1      2056 1.40334E-04-4.66849E-05-4.02369E-05-1.11802E-05 2.19699E-21-3.04032E-18
 -1      2057 1.35991E-04-4.34736E-05-3.96133E-05-1.38055E-05-5.88238E-19-3.71752E-18
 -1      2058 1.27613E-04-4.16187E-05-3.69105E-05-1.76347E-05 1.97200E-20-2.13955E-18
 -1      2059 1.48517E-04-5.43394E-05-4.04170E-05 4.51107E-06 7.54256E-19-3.23418E-18
 -1      2060 1.46564E-04-5.17859E-05-4.05231E-05-3.87995E-06 1.16250E-18-2.81124E-18
 -1      2061 1.38950E-04-5.16861E-05-3.73986E-05-8.04766E-06 7.30248E-19-3.12335E-18
 -1      2062 1.50989E-04-5.53816E-05-4.11385E-05 2.87520E-05-4.83603E-19-4.60087E-18
 -1      2063 1.54192E-04-5.76761E-05-4.14470E-05 1.59219E-05-7.50048E-19-4.93272E-18
 -1      2064 1.51435E-04-6.06180E-05-3.89575E-05 1.30309E-05 4.32252E-19-4.84879E-18
 -1      2065 1.42417E-04-4.01530E-05-4.46133E-05 4.20111E-05-3.39745E-18-3.33202E-18
 -1      2066 1.52091E-04-5.03992E-05-4.40998E-05 3.56395E-05-1.56489E-18-4.05385E-18
 -1      2067 1.58986E-04-5.64318E-05-4.44045E-05 3.65153E-05-1.85320E-18-4.92296E-18
 -1      2068 1.31019E-04-2.20643E-05-4.78260E-05 1.98982E-05-2.33866E-18-2.62146E-18
 -1      2069 1.39330E-04-3.00149E-05-4.77080E-05 3.13026E-05-2.86212E-18-3.25329E-18
 -1      2070 1.56348E-04-3.36712E-05-5.30530E-05 3.60929E-05-2.87483E-18-5.06949E-18
 -1      2071 1.30209E-04-2.57499E-05-4.59259E-05-1.13862E-05-8.39833E-19-2.03420E-18
 -1      2072 1.29962E-04-2.23221E-05-4.70936E-05 3.26158E-06-1.42471E-18-1.72871E-18
 -1      2073 1.51670E-04-2.21701E-05-5.57053E-05 6.93834E-06-1.41327E-18-5.37331E-18
 -1      2074 1.34763E-04-4.20907E-05-4.04314E-05-2.25847E-05 3.31783E-18-1.83489E-18
 -1      2075 1.30583E-04-3.42466E-05-4.21145E-05-1.78900E-05 8.23740E-19-2.32786E-18
 -1      2076 1.49910E-04-3.49885E-05-4.95256E-05-1.73148E-05 7.50471E-19-5.01782E-18
 -1      2077 1.24840E-04-4.62808E-05-3.32079E-05 1.14837E-05 8.88895E-19-1.47648E-18
 -1      2078 1.28864E-04-5.00337E-05-3.39212E-05 3.84727E-06 2.21383E-18-1.74474E-18
 -1      2079 1.07659E-04-3.21037E-05-3.21786E-05 1.86201E-05-1.70267E-18-2.10027E-18
 -1      2080 1.14948E-04-3.92408E-05-3.26491E-05 1.75221E-05 2.11891E-19-1.68657E-18
 -1      2081 1.24762E-04-4.92957E-05-3.24916E-05 2.32453E-05 1.82853E-19-8.69704E-19
 -1      2082 1.05512E-04-2.91773E-05-3.27228E-05 2.45706E-05-9.16920E-19-3.54418E-18
 -1      2083 7.19057E-05 6.39290E-06-3.35071E-05 3.33941E-05-3.87836E-18 6.58356E-19
 -1      2084 8.01140E-05-1.13471E-06-3.32302E-05 3.98896E-05-3.97957E-18-2.13558E-19
 -1      2085 8.87885E-05-8.60527E-06-3.43823E-05 4.16476E-05-2.74264E-18-3.16917E-18
 -1      2086 9.69188E-05-1.82207E-05-3.36255E-05 4.14505E-05-1.97763E-18-3.84865E-18
 -1      2087 8.73249E-05-1.91870E-05-2.88846E-05 4.83117E-05-2.44814E-18-2.53189E-18
 -1      2088 1.03297E-04-2.38535E-05-3.39129E-05 3.08458E-05-8.35572E-19-2.03592E-18
 -1      2089 6.00448E-05 1.58611E-05-3.22766E-05 6.52221E-06-3.34685E-18 5.62112E-18
 -1      2090 6.40156E-05 1.29227E-05-3.23992E-05 2.01502E-05-4.20626E-18 3.20284E-18
 -1      2091 6.42963E-05-3.11231E-06-2.55164E-05 3.21157E-05-3.46500E-18 1.44334E-18
 -1      2092 6.32299E-05 1.18290E-05-3.16141E-05-2.66743E-05-2.60910E-18 1.79147E-18
 -1      2093 5.94148E-05 1.60827E-05-3.20321E-05-1.21781E-05-3.32206E-18 4.05941E-18
 -1      2094 5.37687E-05 4.07327E-06-2.37663E-05-3.52179E-06-3.56854E-18 5.04620E-18
 -1      2095 8.10277E-05-5.94083E-06-3.15231E-05-4.98267E-05-1.17446E-18-5.26325E-19
 -1      2096 7.11990E-05 4.46321E-06-3.23717E-05-4.14435E-05-1.95716E-18 7.55130E-19
 -1      2097 6.36439E-05-3.98304E-06-2.47654E-05-4.14933E-05-3.10189E-18 2.01234E-18
 -1      2098 1.01400E-04-2.85383E-05-3.08355E-05-5.03747E-05-2.16136E-18-4.40084E-18
 -1      2099 9.16980E-05-1.61211E-05-3.23960E-05-5.21036E-05-1.48977E-18-2.50701E-18
 -1      2100 8.89447E-05-2.35087E-05-2.77173E-05-6.02474E-05-1.15175E-18-2.04357E-18
 -1      2101 1.10757E-04-4.34367E-05-2.88203E-05-3.27043E-05-9.48339E-19-5.27728E-19
 -1      2102 1.06448E-04-3.43439E-05-3.07761E-05-4.12489E-05-1.79836E-18-2.35875E-18
 -1      2103 1.09946E-04-4.04398E-05-2.98038E-05-5.17340E-05 5.94048E-19-3.17692E-18
 -1      2104 1.10019E-04-4.82524E-05-2.65531E-05-1.35935E-05-4.24311E-20 1.12669E-18
 -1      2105 1.10079E-04-4.40316E-05-2.80376E-05-2.19468E-05-3.90575E-19 5.48454E-20
 -1      2106 1.15710E-04-4.67095E-05-2.96162E-05-2.96453E-05 1.08555E-18 2.06570E-19
 -1      2107 1.06188E-04-4.78220E-05-2.50565E-05-2.96004E-07-1.16307E-18 2.88478E-18
 -1      2108 1.07768E-04-4.70352E-05-2.57606E-05-5.93850E-06-8.09598E-19 1.08320E-18
 -1      2109 1.11883E-04-4.60412E-05-2.81984E-05-9.99648E-06 7.09511E-19 1.04534E-18
 -1      2110 1.02488E-04-4.50904E-05-2.45989E-05 6.85690E-06-1.59095E-18 2.92814E-18
 -1      2111 1.04211E-04-4.63102E-05-2.46225E-05 3.90339E-06-1.93971E-18 3.79015E-18
 -1      2112 1.06071E-04-4.32288E-05-2.69050E-05 2.65754E-06-7.48076E-19 3.09526E-18
 -1      2113 9.96658E-05-4.14717E-05-2.49269E-05 9.73524E-06 2.75405E-19 1.15870E-18
 -1      2114 1.01150E-04-4.36560E-05-2.45330E-05 8.62303E-06-5.12905E-19 2.51276E-18
 -1      2115 1.01452E-04-4.01700E-05-2.62497E-05 9.15901E-06 2.32980E-19 3.68315E-18
 -1      2116 9.75463E-05-3.76542E-05-2.56645E-05 1.00482E-05 4.50847E-19 1.03263E-18
 -1      2117 9.87835E-05-4.01219E-05-2.50987E-05 1.00388E-05 4.66106E-19 5.97530E-19
 -1      2118 9.83449E-05-3.72458E-05-2.61815E-05 1.15347E-05 5.97085E-19 9.92862E-19
 -1      2119 9.57660E-05-3.40522E-05-2.64664E-05 8.84543E-06 1.58640E-18 4.45794E-19
 -1      2120 9.69154E-05-3.63789E-05-2.59296E-05 9.48415E-06 7.54567E-19 1.50418E-18
 -1      2121 9.62051E-05-3.44667E-05-2.64546E-05 1.13973E-05 1.51401E-19 9.26260E-19
 -1      2122 7.50328E-05-5.89552E-05-7.68700E-06 5.38465E-05 7.23366E-19-1.90519E-18
 -1      2123 5.58390E-05-6.00067E-05-1.25095E-07 4.25996E-05 1.01093E-18-1.25996E-19
 -1      2124 1.77759E-05-5.69244E-05 1.33992E-05-4.33906E-06 8.44068E-19 7.14811E-18
 -1      2125 2.17448E-05-6.71943E-05 1.47475E-05-1.38975E-05-5.60948E-19 7.45050E-18
 -1      2126 3.35573E-05-5.28525E-05 6.08414E-06 3.00463E-05 2.24760E-18 1.99900E-18
 -1      2127 2.46317E-05-5.54100E-05 1.01332E-05 1.49274E-05 1.46748E-18 4.57271E-18
 -1      2128 1.21014E-04-6.36871E-05-2.45471E-05 5.25781E-05 1.57633E-18-7.47337E-18
 -1      2129 9.91371E-05-6.76605E-05-1.48948E-05 4.90191E-05 1.44504E-18-4.46196E-18
 -1      2130 5.11678E-05-5.89664E-05-1.46900E-07-4.27533E-05-5.19062E-18 2.35158E-19
 -1      2131 5.91795E-05-5.15396E-05-5.31628E-06-5.05572E-05-3.39406E-18 3.32069E-18
 -1      2132 5.27686E-05-5.59513E-05-9.37780E-07-5.41367E-05-2.17687E-18 1.66569E-18
 -1      2133 1.63121E-04-6.28046E-05-4.23219E-05 4.08223E-05 1.24429E-18-6.78897E-18
 -1      2134 1.38481E-04-6.52905E-05-3.21528E-05 4.17514E-05 1.91260E-18-6.50606E-18
 -1      2135 1.44389E-04-7.63045E-05-2.89737E-05 4.30231E-05 1.42725E-18-6.63481E-18
 -1      2136 2.52192E-05-7.02129E-05 1.43454E-05-2.06012E-05-4.32834E-19 6.01690E-18
 -1      2137 2.78982E-05-6.40848E-05 1.15040E-05-2.68220E-05-2.19974E-18 5.01952E-18
 -1      2138 3.45764E-05-5.38612E-05 5.24287E-06-4.19021E-05-3.98105E-19 3.64267E-18
 -1      2139 1.96913E-05-4.56150E-05 8.03203E-06-2.38717E-05-1.44165E-18 7.12651E-18
 -1      2140 8.72477E-05-8.72221E-06-3.37494E-05-1.05343E-05-2.13650E-18-3.28920E-18
 -1      2141 8.79553E-05-9.24095E-06-3.38218E-05-1.20913E-05-2.47452E-18-2.79084E-18
 -1      2142 9.04879E-05-1.30501E-05-3.32363E-05-1.18698E-05-2.65112E-18-2.32581E-18
 -1      2143 8.86847E-05-1.10540E-05-3.32953E-05-9.40683E-06-2.15916E-18-3.25374E-18
 -1      2144 2.09382E-04-3.86376E-05-7.09279E-05 1.20587E-05-2.49959E-18-6.08720E-18
 -1      2145 2.00158E-04-4.22776E-05-6.60084E-05 1.55609E-05-8.99549E-19-6.60686E-18
 -1      2146 2.16003E-04-3.36739E-05-7.52541E-05 1.41071E-05-2.43691E-18-6.63417E-18
 -1      2147 2.10605E-04-3.20932E-05-7.40015E-05 1.43288E-05-3.15859E-18-6.73794E-18
 -1      2148 2.16893E-04-4.01890E-05-7.29290E-05 1.17133E-05-1.77835E-18-6.56535E-18
 -1      2149 2.22444E-04-3.77175E-05-7.59544E-05 1.67103E-05-1.36033E-18-6.78622E-18
 -1      2150 1.91779E-04-2.51837E-05-6.90898E-05 1.58327E-05-2.05321E-18-7.77841E-18
 -1      2151 1.90723E-04-5.22041E-05-5.89572E-05 1.07595E-05-2.07227E-18-4.51469E-18
 -1      2152 2.11884E-04-4.98984E-05-6.69066E-05 1.19035E-05-2.74629E-18-6.29430E-18
 -1      2153 1.59591E-04-6.64291E-05-4.05931E-05-1.56185E-06-2.38440E-19-1.89989E-18
 -1      2154 1.84506E-04-6.38543E-05-5.09211E-05 1.44450E-06-1.11935E-18-3.59481E-18
 -1      2155 1.07233E-04-6.54435E-05-1.95086E-05-2.24466E-05-3.06626E-19-1.07997E-19
 -1      2156 1.37653E-04-6.83610E-05-3.01739E-05-2.16417E-05-6.81862E-20-5.81065E-19
 -1      2157 6.21003E-05-5.93989E-05-3.23227E-06-2.38016E-05 8.02564E-19 6.08633E-19
 -1      2158 8.29569E-05-5.87265E-05-1.13950E-05-2.98217E-05-1.73642E-19 1.10623E-18
 -1      2159 3.08139E-05-5.19260E-05 7.46399E-06-1.65661E-05 1.37177E-18 1.45626E-18
 -1      2160 4.40533E-05-5.23264E-05 2.38610E-06-2.36784E-05 1.35652E-18 3.54483E-19
 -1      2161 1.23777E-05-4.76924E-05 1.34712E-05 1.49208E-06 1.06260E-18-7.18284E-19
 -1      2162 1.69928E-05-4.78472E-05 1.17305E-05-7.04484E-06 4.37704E-19 2.01975E-18
 -1      2163 1.44695E-05-4.44343E-05 1.15674E-05 2.06462E-05 1.44271E-18 3.39660E-19
 -1      2164 1.17507E-05-4.68816E-05 1.34639E-05 1.21983E-05 9.67312E-19-9.51218E-19
 -1      2165 3.51287E-05-4.41126E-05 3.03798E-06 3.78018E-05 7.18707E-19 1.18436E-18
 -1      2166 2.52615E-05-4.68527E-05 7.86203E-06 3.05078E-05 1.37812E-18 1.07531E-18
 -1      2167 6.73962E-05-4.49618E-05-9.93600E-06 4.82225E-05 8.91079E-19-3.45214E-18
 -1      2168 5.08875E-05-4.91384E-05-2.22368E-06 4.05539E-05 7.63600E-19-7.73976E-19
 -1      2169 1.11133E-04-4.81774E-05-2.68942E-05 4.90090E-05 6.97955E-19-1.44758E-18
 -1      2170 8.93549E-05-5.02046E-05-1.78064E-05 4.52674E-05 1.63816E-18-2.70479E-18
 -1      2171 1.51387E-04-4.78818E-05-4.40614E-05 3.64528E-05-6.50521E-19 1.72710E-18
 -1      2172 1.29860E-04-4.91513E-05-3.50810E-05 3.90953E-05 2.21076E-19 9.02937E-19
 -1      2173 1.84205E-04-3.82008E-05-6.13733E-05 2.33645E-05-2.54343E-18 3.05948E-18
 -1      2174 1.63865E-04-4.03194E-05-5.30962E-05 2.33019E-05-1.83833E-18 1.79020E-18
 -1      2175 1.99930E-04-3.04777E-05-7.15085E-05 7.65291E-06-2.84518E-18 4.35206E-18
 -1      2176 1.88327E-04-3.21580E-05-6.65099E-05 1.65292E-05-2.89706E-18 2.62072E-18
 -1      2177 1.74158E-04-3.25946E-05-5.98935E-05 8.91510E-08-3.28310E-18 2.05829E-18
 -1      2178 2.09919E-04-2.57229E-05-7.76864E-05-7.48823E-06-3.84129E-19 3.12603E-18
 -1      2179 2.05131E-04-2.61214E-05-7.57324E-05 2.92849E-06-2.25057E-18 3.43599E-18
 -1      2180 1.98389E-04-2.21638E-05-7.49049E-05-2.10169E-05 2.02568E-18 2.96419E-18
 -1      2181 2.06671E-04-2.33858E-05-7.71287E-05-1.24653E-05 1.78470E-18 3.47156E-18
 -1      2182 1.76267E-04-2.96781E-05-6.26546E-05-2.54492E-05-1.95665E-19 7.64871E-19
 -1      2183 1.92336E-04-2.60519E-05-6.98200E-05-2.32996E-05 1.22057E-18 2.36703E-18
 -1      2184 1.53640E-04-4.46064E-05-4.62960E-05-4.88296E-05-4.72221E-20-3.34578E-19
 -1      2185 1.71744E-04-4.23872E-05-5.51261E-05-4.02264E-05-2.89156E-19-1.06472E-18
 -1      2186 1.15882E-04-4.94309E-05-2.90019E-05-5.89222E-05-8.47033E-19 3.26616E-18
 -1      2187 1.36869E-04-4.64203E-05-3.81974E-05-6.17581E-05-5.01444E-19 5.99699E-19
 -1      2188 7.69980E-05-5.25176E-05-1.25089E-05-5.41694E-05-2.27090E-18 3.01417E-18
 -1      2189 9.41732E-05-4.64706E-05-2.07991E-05-6.29232E-05-2.16332E-18 2.34459E-18
 -1      2190 1.97445E-04-5.20638E-05-6.03860E-05 2.35928E-05 6.68653E-19-8.12813E-18
 -1      2191 1.76518E-04-5.59676E-05-5.14086E-05 2.45452E-05 2.44835E-18-6.56789E-18
 -1      2192 5.29859E-05-4.64788E-05-3.47133E-06 4.62726E-05-7.79270E-19-1.69407E-19
 -1      2193 9.71987E-05-2.43178E-05-3.13080E-05-9.99790E-06-2.61956E-18 1.91208E-18
 -1      2194 9.63567E-05-2.31083E-05-3.14581E-05-1.03800E-05-2.81499E-18 3.67506E-19
 -1      2195 1.38004E-04-5.27062E-05-3.66124E-05-9.20051E-06 2.57135E-18-2.48445E-18
 -1      2196 1.36074E-04-4.77584E-05-3.83764E-05-1.63740E-05 3.08659E-18-1.82062E-18
 -1      2197 1.08780E-04-3.43656E-05-3.14748E-05 3.93954E-05-9.51244E-19-3.93445E-18
 -1      2198 2.20595E-05-4.00421E-05 5.68337E-06 9.36557E-06-2.06888E-19 6.89273E-18
 -1      2199 1.52622E-04-5.38530E-05-4.23146E-05-1.66020E-05 3.34917E-18-4.81941E-18
 -1      2200 9.49638E-05-3.24261E-05-2.68306E-05 8.50279E-06 9.55801E-19-9.57134E-19
 -1      2201 1.00910E-04-6.67299E-05-1.51975E-05 5.69178E-05 1.36372E-19-4.97126E-18
 -1      2202 8.01233E-05-5.67718E-05-1.10110E-05-6.32842E-05-2.07269E-18 1.22836E-18
 -1      2203 1.86445E-04-4.83864E-05-5.76953E-05-2.10372E-08 6.67885E-19-6.29642E-18
 -1      2204 1.19543E-04-5.88220E-05-2.56962E-05-6.36192E-05-3.71000E-19 1.41899E-18
 -1      2205 1.54718E-04-5.69904E-05-4.09017E-05-4.68567E-05 1.42429E-18-1.67289E-18
 -1      2206 1.71763E-04-3.79630E-05-5.67675E-05-2.40847E-05 3.69200E-19-9.38513E-19
 -1      2207 1.61876E-04-3.21717E-05-5.63278E-05-5.88919E-06 1.74108E-18-1.94902E-18
 -1      2208 1.63830E-04-4.62231E-05-4.99587E-05-2.01695E-05 2.09736E-18-2.06380E-18
 -1      2209 1.73229E-04-1.59598E-05-6.67540E-05-7.79071E-06 2.21245E-18 1.00013E-18
 -1      2210 1.81736E-04-1.85684E-05-6.87819E-05-5.99956E-06-2.28021E-18 1.32179E-18
 -1      2211 1.61313E-04-5.09318E-05-4.68904E-05 1.71282E-05-1.10501E-18 1.67035E-18
 -1      2212 1.31997E-04-5.98215E-05-3.05818E-05 3.83025E-05 4.68409E-19 5.04832E-19
 -1      2213 9.14387E-05-5.52984E-05-1.55414E-05 5.05163E-05 8.79220E-19-2.49732E-18
 -1      2214 5.15756E-05-4.52104E-05-3.19878E-06 4.77627E-05 8.08916E-20-8.57197E-19
 -1      2215 2.22207E-05-3.60790E-05 5.26861E-06 3.17056E-05 1.11385E-18 1.34848E-18
 -1      2216 1.19211E-05-3.44177E-05 8.74102E-06 5.94682E-06 9.53177E-20-1.02067E-19
 -1      2217 2.84134E-05-4.09140E-05 4.62930E-06-1.92558E-05 5.63277E-19 5.59042E-19
 -1      2218 6.48442E-05-5.56318E-05-4.73273E-06-3.14123E-05 1.49290E-18 1.18288E-18
 -1      2219 1.10346E-04-6.96258E-05-1.77804E-05-2.71617E-05 1.03338E-19 2.03288E-20
 -1      2220 1.56589E-04-7.49198E-05-3.49753E-05-2.40870E-06 2.50934E-19-3.17680E-18
 -1      2221 1.75261E-04-6.94536E-05-4.44982E-05 1.81267E-05 2.34776E-18-6.18461E-18
 -1      2222 1.92330E-04-3.69520E-05-6.48103E-05 2.74228E-05-2.57667E-18-6.89273E-18
 -1      2223 1.86720E-04-2.90647E-05-6.57759E-05 1.91439E-06-1.39506E-18-5.43795E-18
 -1      2224 1.81941E-04-5.93048E-05-5.19805E-05 2.54439E-05-1.80164E-18-5.05382E-18
 -1      2225 1.82835E-04-1.11663E-05-7.22362E-05-8.52089E-06 1.04863E-18 8.83323E-19
 -1      2226 1.43421E-04-6.01351E-05-3.60212E-05 4.08606E-06 2.23004E-18-3.00485E-18
 -1      2227 9.52242E-05-2.63790E-05-2.94919E-05 4.18993E-06 2.08524E-18 4.71314E-19
 -1      2228 9.61979E-05-2.58642E-05-3.00695E-05 5.99549E-06 2.36709E-18 6.86954E-19
 -1      2229 8.81269E-05-1.11777E-05-3.30174E-05-3.65844E-06-9.19668E-19-3.66049E-18
 -1      2230 8.83617E-05-1.14484E-05-3.29998E-05-4.79903E-06-1.27885E-18-3.73208E-18
 -1      2231 8.87146E-05-1.19321E-05-3.29516E-05-5.81543E-06-1.50598E-18-3.68754E-18
 -1      2232 8.91233E-05-1.24046E-05-3.29235E-05-6.98732E-06-1.81710E-18-3.49187E-18
 -1      2233 8.98817E-05-1.38167E-05-3.25980E-05-4.89949E-06-1.30740E-18-3.45311E-18
 -1      2234 8.77800E-05-1.07187E-05-3.30603E-05 6.15200E-07 1.90747E-19-3.79711E-18
 -1      2235 8.77756E-05-1.07138E-05-3.30605E-05-4.95142E-07-8.59380E-20-3.75823E-18
 -1      2236 8.79618E-05-1.09440E-05-3.30420E-05 2.75591E-06 6.53392E-19-3.79546E-18
 -1      2237 8.78464E-05-1.08107E-05-3.30512E-05 1.63712E-06 3.82424E-19-3.80230E-18
 -1      2238 8.90971E-05-1.27644E-05-3.27172E-05 1.04885E-06 2.72419E-19-3.62847E-18
 -1      2239 8.83976E-05-1.14917E-05-3.29972E-05 4.88405E-06 1.23437E-18-3.70158E-18
 -1      2240 8.81573E-05-1.12147E-05-3.30150E-05 3.76138E-06 8.89173E-19-3.77731E-18
 -1      2241 8.93640E-05-1.31207E-05-3.26774E-05 3.01864E-06 7.31722E-19-3.52398E-18
 -1      2242 8.91792E-05-1.24752E-05-3.29189E-05 7.07050E-06 1.87436E-18-3.32264E-18
 -1      2243 8.87601E-05-1.19883E-05-3.29477E-05 5.89923E-06 1.51547E-18-3.54206E-18
 -1      2244 8.99231E-05-1.38695E-05-3.25934E-05 4.97161E-06 1.31819E-18-3.39508E-18
 -1      2245 9.04517E-05-1.40854E-05-3.27927E-05 9.21799E-06 2.46653E-18-2.67758E-18
 -1      2246 8.97697E-05-1.32738E-05-3.28376E-05 8.03962E-06 2.05604E-18-3.02604E-18
 -1      2247 9.08608E-05-1.51301E-05-3.24491E-05 6.86644E-06 1.91612E-18-2.95520E-18
 -1      2248 9.24531E-05-1.66589E-05-3.25836E-05 1.11019E-05 2.92304E-18-1.81057E-18
 -1      2249 9.13727E-05-1.53183E-05-3.26552E-05 1.00218E-05 2.62886E-18-2.28050E-18
 -1      2250 9.22873E-05-1.70856E-05-3.22087E-05 8.51069E-06 2.45622E-18-2.22611E-18
 -1      2251 9.59205E-05-2.50966E-05-3.03069E-05-6.18406E-06-2.33025E-18-2.56313E-19
 -1      2252 9.52621E-05-2.58546E-05-2.97631E-05-4.27323E-06-2.09481E-18-3.83322E-19
 -1      2253 1.52382E-04-7.62152E-05-3.26701E-05 3.29146E-05 1.60809E-18-4.18583E-18
 -1      2254 1.36102E-04-7.34635E-05-2.65363E-05 4.30788E-05 1.53228E-18-5.81107E-18
 -1      2255 9.42455E-05-2.71194E-05-2.87516E-05 1.75893E-06 1.72613E-18 1.44136E-19
 -1      2256 9.48449E-05-2.68956E-05-2.90498E-05 2.73223E-06 1.90567E-18 4.60528E-19
 -1      2257 9.53460E-05-2.58488E-05-2.97925E-05 4.35501E-06 2.14067E-18-2.68476E-19
 -1      2258 9.50778E-05-2.00258E-05-3.22137E-05-1.17441E-05-2.85789E-18-6.51435E-19
 -1      2259 9.54750E-05-2.33647E-05-3.09298E-05-7.96163E-06-2.59485E-18-4.56826E-19
 -1      2260 9.50869E-05-2.25603E-05-3.10558E-05-7.64305E-06-2.47865E-18-9.42911E-19
 -1      2261 9.32191E-05-1.76225E-05-3.24165E-05-1.14010E-05-2.87470E-18-1.42955E-18
 -1      2262 9.51469E-05-2.65387E-05-2.93461E-05-2.93426E-06-1.85973E-18-3.50185E-19
 -1      2263 9.46759E-05-2.69087E-05-2.90430E-05-1.87132E-06-1.56645E-18-4.98296E-19
 -1      2264 9.53418E-05-2.53641E-05-2.99971E-05-4.28768E-06-2.11922E-18-8.52796E-19
 -1      2265 9.44810E-05-2.72388E-05-2.87796E-05-1.01924E-06-1.35131E-18-5.41947E-19
 -1      2266 9.42236E-05-2.74526E-05-2.86136E-05-4.17058E-07-1.02357E-18-7.19014E-19
 -1      2267 9.50370E-05-2.66983E-05-2.93009E-05-1.91202E-06-1.58387E-18-9.22325E-19
 -1      2268 9.40753E-05-2.76333E-05-2.84525E-05 9.12417E-08-8.08838E-19-8.60874E-19
 -1      2269 9.39779E-05-2.77771E-05-2.83692E-05 4.21454E-07-6.77931E-19-9.46204E-19
 -1      2270 9.47335E-05-2.74275E-05-2.88582E-05-4.32154E-07-1.12020E-18-1.19703E-18
 -1      2271 9.38936E-05-2.78868E-05-2.82760E-05 7.04508E-07-6.14262E-19-9.35955E-19
 -1      2272 9.39002E-05-2.79942E-05-2.82433E-05 8.68951E-07-6.18149E-19-9.65502E-19
 -1      2273 9.45332E-05-2.78561E-05-2.85862E-05 4.39227E-07-7.60614E-19-1.13684E-18
 -1      2274 9.38691E-05-2.80664E-05-2.81946E-05 1.00647E-06-6.48749E-19-8.24622E-19
 -1      2275 9.39372E-05-2.81507E-05-2.81925E-05 1.06891E-06-5.33763E-19-9.12797E-19
 -1      2276 9.44411E-05-2.81258E-05-2.84283E-05 9.10778E-07-6.26438E-19-9.98517E-19
 -1      2277 9.39429E-05-2.82006E-05-2.81725E-05 1.11410E-06-4.93931E-19-9.80178E-19
 -1      2278 9.40427E-05-2.82678E-05-2.81880E-05 1.11464E-06-5.87523E-19-9.70715E-19
 -1      2279 9.44319E-05-2.83031E-05-2.83460E-05 1.12411E-06-6.14822E-19-1.20602E-18
 -1      2280 9.40712E-05-2.83029E-05-2.81859E-05 1.10322E-06-8.82443E-19-9.40592E-19
 -1      2281 9.41830E-05-2.83563E-05-2.82105E-05 1.06787E-06-8.55706E-19-1.05563E-18
 -1      2282 9.44770E-05-2.84219E-05-2.83125E-05 1.17461E-06-7.06329E-19-1.25274E-18
 -1      2283 9.42234E-05-2.83809E-05-2.82191E-05 1.02393E-06-7.49991E-19-9.60529E-19
 -1      2284 9.43349E-05-2.84229E-05-2.82474E-05 9.69781E-07-4.36318E-19-1.17065E-18
 -1      2285 9.45529E-05-2.85012E-05-2.83097E-05 1.12676E-06-8.57282E-19-1.47971E-18
 -1      2286 9.43798E-05-2.84398E-05-2.82616E-05 9.09447E-07-2.36156E-19-1.09663E-18
 -1      2287 9.44837E-05-2.84722E-05-2.82902E-05 8.47697E-07-3.97044E-19-1.04034E-18
 -1      2288 9.46425E-05-2.85529E-05-2.83251E-05 1.02411E-06-3.47441E-19-1.31783E-18
 -1      2289 9.45283E-05-2.84832E-05-2.83069E-05 7.81604E-07-4.31687E-19-8.76651E-19
 -1      2290 9.46209E-05-2.85077E-05-2.83339E-05 7.19428E-07-1.04107E-19-6.17714E-19
 -1      2291 9.47345E-05-2.85848E-05-2.83502E-05 8.95750E-07-3.12489E-19-1.12259E-18
 -1      2292 9.46624E-05-2.85145E-05-2.83511E-05 6.54392E-07-1.02223E-19-7.57377E-19
 -1      2293 9.47422E-05-2.85325E-05-2.83754E-05 5.96226E-07-1.54850E-19-6.30434E-19
 -1      2294 9.48219E-05-2.86026E-05-2.83797E-05 7.60760E-07-1.71773E-19-1.06527E-18
 -1      2295 9.47793E-05-2.85361E-05-2.83919E-05 5.36431E-07-5.06272E-19-9.31836E-19
 -1      2296 9.48466E-05-2.85489E-05-2.84131E-05 4.84863E-07-4.51134E-19-1.17556E-18
 -1      2297 9.49009E-05-2.86105E-05-2.84100E-05 6.31237E-07-6.90605E-19-1.33208E-18
 -1      2298 9.48788E-05-2.85502E-05-2.84283E-05 4.32727E-07-2.50416E-19-1.29237E-18
 -1      2299 9.49345E-05-2.85589E-05-2.84465E-05 3.89146E-07-3.74436E-19-1.22237E-18
 -1      2300 9.49701E-05-2.86114E-05-2.84391E-05 5.14515E-07-3.50481E-19-1.24637E-18
 -1      2301 9.49621E-05-2.85586E-05-2.84602E-05 3.45961E-07-4.82793E-19-1.06498E-18
 -1      2302 9.50081E-05-2.85641E-05-2.84758E-05 3.11026E-07-5.17931E-19-1.21804E-18
 -1      2303 9.50294E-05-2.86075E-05-2.84662E-05 4.14783E-07-4.09644E-19-1.65689E-18
 -1      2304 9.50316E-05-2.85625E-05-2.84881E-05 2.77421E-07-6.23638E-19-1.39694E-18
 -1      2305 9.50698E-05-2.85657E-05-2.85015E-05 2.51404E-07-5.84043E-19-1.41600E-18
 -1      2306 9.50799E-05-2.86003E-05-2.84910E-05 3.34268E-07-6.46146E-19-1.32989E-18
 -1      2307 9.50903E-05-2.85632E-05-2.85127E-05 2.27681E-07-7.52492E-19-1.37934E-18
 -1      2308 9.51229E-05-2.85647E-05-2.85246E-05 2.10703E-07-7.06597E-19-1.46312E-18
 -1      2309 9.51231E-05-2.85907E-05-2.85137E-05 2.74099E-07-7.06175E-19-1.14154E-18
 -1      2310 9.51414E-05-2.85616E-05-2.85351E-05 1.97063E-07-1.05367E-19-1.35765E-18
 -1      2311 9.51710E-05-2.85620E-05-2.85461E-05 1.89251E-07 3.54959E-19-1.11673E-18
 -1      2312 9.51611E-05-2.85795E-05-2.85349E-05 2.34906E-07-2.35356E-19-1.25500E-18
 -1      2313 9.51888E-05-2.85586E-05-2.85565E-05 1.85932E-07 3.66860E-19-1.26302E-18
 -1      2314 9.52177E-05-2.85586E-05-2.85674E-05 1.87494E-07 6.93960E-19-1.35461E-18
 -1      2315 9.51963E-05-2.85672E-05-2.85554E-05 2.17221E-07 2.74958E-19-1.03973E-18
 -1      2316 9.52362E-05-2.85551E-05-2.85781E-05 1.94829E-07 8.42757E-19-1.38651E-18
 -1      2317 9.52672E-05-2.85554E-05-2.85898E-05 2.06049E-07 5.83589E-19-1.01955E-18
 -1      2318 9.52315E-05-2.85542E-05-2.85761E-05 2.21684E-07 6.69043E-19-1.63115E-18
 -1      2319 9.52880E-05-2.85523E-05-2.86013E-05 2.24416E-07 1.65060E-19-1.23033E-18
 -1      2320 9.53238E-05-2.85538E-05-2.86144E-05 2.45554E-07 1.50493E-19-1.04391E-18
 -1      2321 9.52695E-05-2.85414E-05-2.85981E-05 2.49064E-07 3.27033E-19-1.40740E-18
 -1      2322 9.53486E-05-2.85518E-05-2.86274E-05 2.75224E-07-6.73718E-21-9.95798E-19
 -1      2323 9.53921E-05-2.85558E-05-2.86427E-05 3.06301E-07-1.25175E-19-1.06788E-18
 -1      2324 9.53140E-05-2.85299E-05-2.86222E-05 3.00051E-07 9.98939E-20-1.55748E-18
 -1      2325 9.54231E-05-2.85559E-05-2.86574E-05 3.47136E-07-4.93514E-19-1.24311E-18
 -1      2326 9.54770E-05-2.85639E-05-2.86754E-05 3.87552E-07-6.84336E-19-9.48132E-19
 -1      2327 9.53687E-05-2.85220E-05-2.86492E-05 3.74787E-07-5.52814E-19-1.56018E-18
 -1      2328 9.55167E-05-2.85681E-05-2.86921E-05 4.38522E-07-8.32332E-19-3.90865E-19
 -1      2329 9.55838E-05-2.85824E-05-2.87132E-05 4.86495E-07-8.90685E-19-1.75492E-19
 -1      2330 9.54385E-05-2.85211E-05-2.86797E-05 4.72051E-07-6.37220E-19-5.64014E-19
 -1      2331 9.56350E-05-2.85934E-05-2.87318E-05 5.44950E-07-4.97281E-19-1.80992E-19
 -1      2332 9.57174E-05-2.86169E-05-2.87558E-05 5.96710E-07-1.48168E-20 2.32468E-19
 -1      2333 9.55287E-05-2.85328E-05-2.87135E-05 5.88012E-07-7.01377E-19 2.14664E-19
 -1      2334 9.57837E-05-2.86386E-05-2.87759E-05 6.57396E-07-3.33162E-19-4.63738E-19
 -1      2335 9.58827E-05-2.86751E-05-2.88022E-05 7.06135E-07-3.68854E-19-9.11297E-19
 -1      2336 9.56461E-05-2.85654E-05-2.87500E-05 7.14464E-07-5.16417E-19 2.54378E-19
 -1      2337 9.59680E-05-2.87129E-05-2.88226E-05 7.59922E-07 7.18949E-21-9.26383E-19
 -1      2338 9.60829E-05-2.87670E-05-2.88498E-05 7.94538E-07 3.67785E-19-8.33729E-19
 -1      2339 9.57985E-05-2.86304E-05-2.87876E-05 8.36496E-07-2.43311E-19 3.31195E-19
 -1      2340 9.61918E-05-2.88277E-05-2.88687E-05 8.26951E-07 4.12359E-19-1.02110E-18
 -1      2341 9.63191E-05-2.89043E-05-2.88940E-05 8.30772E-07 5.71586E-19-8.80599E-19
 -1      2342 9.59946E-05-2.87432E-05-2.88235E-05 9.29665E-07 2.64263E-19 1.07910E-19
 -1      2343 9.64558E-05-2.89960E-05-2.89091E-05 8.20543E-07-1.07806E-20-7.75252E-19
 -1      2344 9.65877E-05-2.90993E-05-2.89284E-05 7.70392E-07 2.76143E-20-2.17106E-19
 -1      2345 9.62437E-05-2.89224E-05-2.88536E-05 9.56983E-07 3.71033E-19 4.19134E-19
 -1      2346 9.67552E-05-2.92295E-05-2.89364E-05 6.88543E-07-1.03490E-19-8.19249E-19
 -1      2347 9.68776E-05-2.93609E-05-2.89444E-05 5.54870E-07-3.88241E-19 1.10613E-19
 -1      2348 9.65536E-05-2.91876E-05-2.88728E-05 8.66420E-07-2.80109E-19-3.90811E-19
 -1      2349 9.70749E-05-2.95342E-05-2.89420E-05 3.65220E-07-6.22065E-19 2.70649E-19
 -1      2350 9.71651E-05-2.96887E-05-2.89320E-05 1.14418E-07-5.90307E-19-2.92146E-20
 -1      2351 9.69268E-05-2.95542E-05-2.88755E-05 5.90346E-07-5.43031E-19-1.13485E-19
 -1      2352 9.73830E-05-2.99012E-05-2.89162E-05-2.23011E-07-3.03738E-19-1.78797E-19
 -1      2353 9.74076E-05-3.00624E-05-2.88813E-05-6.22569E-07 4.23451E-19-3.21770E-19
 -1      2354 9.73536E-05-3.00237E-05-2.88565E-05 4.92437E-08-6.21564E-19 2.42813E-19
 -1      2355 9.76226E-05-3.02945E-05-2.88504E-05-1.14321E-06 4.01939E-19-2.29823E-19
 -1      2356 9.75357E-05-3.04278E-05-2.87845E-05-1.70977E-06 2.99465E-19-1.93490E-19
 -1      2357 9.78013E-05-3.05680E-05-2.88136E-05-8.36729E-07 1.58911E-19 3.92682E-19
 -1      2358 9.77019E-05-3.06355E-05-2.87399E-05-2.42895E-06 3.76551E-19 3.42019E-19
 -1      2359 9.74478E-05-3.06834E-05-2.86399E-05-3.14992E-06 5.15061E-19 8.52652E-19
 -1      2360 9.81998E-05-3.11098E-05-2.87492E-05-2.12383E-06 7.84132E-19 3.68630E-19
 -1      2361 9.74917E-05-3.07923E-05-2.85865E-05-4.03931E-06 3.85526E-19 1.18232E-18
 -1      2362 9.70125E-05-3.06759E-05-2.84544E-05-4.84981E-06 1.16480E-18 1.37209E-18
 -1      2363 9.84270E-05-3.15040E-05-2.86731E-05-3.80471E-06 9.44303E-19 1.32788E-18
 -1      2364 9.68371E-05-3.05857E-05-2.84010E-05-5.80944E-06 1.43970E-18 7.42804E-19
 -1      2365 9.60909E-05-3.02204E-05-2.82453E-05-6.57424E-06 1.07376E-18 5.52708E-19
 -1      2366 9.83075E-05-3.15357E-05-2.86023E-05-5.75417E-06 8.08015E-19 1.27589E-18
 -1      2367 9.55990E-05-2.98295E-05-2.82026E-05-7.41139E-06 5.14171E-19 2.25936E-19
 -1      2368 9.45889E-05-2.91602E-05-2.80386E-05-7.92417E-06-1.06854E-19 2.33765E-19
 -1      2369 9.76386E-05-3.09560E-05-2.85583E-05-7.67467E-06 6.38071E-19-5.04301E-20
 -1      2370 9.37333E-05-2.84174E-05-2.80152E-05-8.36180E-06-8.89596E-19 7.78487E-19
 -1      2371 9.25405E-05-2.74707E-05-2.78622E-05-8.38023E-06-7.79112E-19 7.38781E-19
 -1      2372 9.62655E-05-2.95757E-05-2.85593E-05-9.07566E-06-2.27757E-19 8.05357E-19
 -1      2373 9.13892E-05-2.64411E-05-2.78589E-05-8.12218E-06-5.54174E-19 5.30916E-19
 -1      2374 9.01910E-05-2.53683E-05-2.77355E-05-7.44953E-06-3.72966E-19 6.87715E-19
 -1      2375 9.42033E-05-2.74123E-05-2.86086E-05-9.34146E-06-8.42254E-19 1.36867E-18
 -1      2376 8.89645E-05-2.42703E-05-2.77415E-05-6.30835E-06-8.14932E-19 3.38407E-19
 -1      2377 8.80098E-05-2.33385E-05-2.76607E-05-4.90216E-06-8.56919E-19 3.62142E-19
 -1      2378 9.17481E-05-2.48160E-05-2.86837E-05-7.93426E-06-1.57209E-18 5.21207E-20
 -1      2379 8.70344E-05-2.24992E-05-2.76548E-05-2.93817E-06 4.24301E-19 5.05328E-19
 -1      2380 8.65699E-05-2.20078E-05-2.76204E-05-9.89028E-07 1.08883E-18-1.54844E-19
 -1      2381 8.94705E-05-2.24600E-05-2.87354E-05-4.69166E-06-6.85708E-19 7.35706E-20
 -1      2382 8.61400E-05-2.17308E-05-2.75778E-05 1.43460E-06 3.96372E-19-1.06003E-19
 -1      2383 8.63145E-05-2.18876E-05-2.75834E-05 3.51848E-06 2.19689E-19-2.67422E-19
 -1      2384 8.80240E-05-2.11203E-05-2.87005E-05-5.73660E-08 5.73818E-19-5.39392E-19
 -1      2385 8.65504E-05-2.23190E-05-2.74841E-05 5.83532E-06-6.35817E-19-4.76867E-19
 -1      2386 8.73616E-05-2.31715E-05-2.75120E-05 7.54292E-06-1.10363E-18-6.50907E-19
 -1      2387 8.78409E-05-2.13453E-05-2.85235E-05 4.95752E-06-5.25659E-19-7.20138E-19
 -1      2388 8.82001E-05-2.42873E-05-2.73454E-05 9.15718E-06-1.03196E-18-1.62854E-18
 -1      2389 8.94842E-05-2.56882E-05-2.73617E-05 9.99857E-06-5.70204E-19-1.33754E-18
 -1      2390 8.89627E-05-2.32654E-05-2.81732E-05 9.12233E-06-1.65802E-18-1.18201E-18
 -1      2391 9.33546E-05-2.76948E-05-2.81326E-05-4.19010E-07 3.82779E-19-4.67076E-19
 -1      2392 9.34312E-05-2.75893E-05-2.81935E-05-1.32701E-07 6.78223E-19-1.58360E-19
 -1      2393 9.33061E-05-2.78611E-05-2.80434E-05-8.27700E-07 3.73632E-19-5.73453E-19
 -1      2394 9.32588E-05-2.77679E-05-2.80544E-05-6.86952E-07 3.19501E-19-4.93163E-19
 -1      2395 9.40225E-05-2.78102E-05-2.83879E-05-4.53823E-07 5.58910E-19-8.28323E-19
 -1      2396 9.34103E-05-2.80041E-05-2.80283E-05-1.00893E-06 4.21973E-19-3.71919E-19
 -1      2397 9.32892E-05-2.79187E-05-2.80093E-05-9.56309E-07 2.83956E-19-4.35598E-19
 -1      2398 9.39372E-05-2.80244E-05-2.82564E-05-9.09554E-07 3.45297E-19-7.46874E-19
 -1      2399 9.35891E-05-2.81183E-05-2.80570E-05-1.03889E-06 7.51556E-19-3.07221E-19
 -1      2400 9.34418E-05-2.80468E-05-2.80240E-05-1.04248E-06 6.55436E-19-3.51369E-19
 -1      2401 9.39712E-05-2.81768E-05-2.82029E-05-1.10589E-06 4.99608E-19-7.02200E-19
 -1      2402 9.38031E-05-2.82156E-05-2.81078E-05-9.87974E-07 3.82727E-19-1.56302E-19
 -1      2403 9.36482E-05-2.81545E-05-2.80686E-05-1.02122E-06 7.19886E-19-1.42205E-19
 -1      2404 9.40734E-05-2.82868E-05-2.81975E-05-1.14164E-06 6.07805E-19-3.53278E-19
 -1      2405 9.40234E-05-2.82965E-05-2.81681E-05-8.92666E-07 2.74703E-19-2.51087E-19
 -1      2406 9.38743E-05-2.82453E-05-2.81279E-05-9.41206E-07 3.88065E-19 1.19606E-20
 -1      2407 9.42097E-05-2.83699E-05-2.82188E-05-1.08709E-06 4.16043E-19-2.08715E-19
 -1      2408 9.42328E-05-2.83625E-05-2.82299E-05-7.77211E-07 8.63378E-19-8.26239E-19
 -1      2409 9.40970E-05-2.83205E-05-2.81918E-05-8.31714E-07 5.93955E-19-5.58565E-19
 -1      2410 9.43575E-05-2.84325E-05-2.82544E-05-9.82972E-07 7.54429E-19-1.61872E-19
 -1      2411 9.44219E-05-2.84152E-05-2.82886E-05-6.57254E-07 9.16437E-19-1.17026E-18
 -1      2412 9.43029E-05-2.83814E-05-2.82542E-05-7.11784E-07 9.00487E-19-9.70720E-19
 -1      2413 9.45024E-05-2.84788E-05-2.82961E-05-8.56278E-07 1.00277E-18-6.70675E-19
 -1      2414 9.45865E-05-2.84563E-05-2.83417E-05-5.42574E-07 6.85479E-19-6.88998E-19
 -1      2415 9.44854E-05-2.84298E-05-2.83117E-05-5.93493E-07 7.62333E-19-1.07881E-18
 -1      2416 9.46361E-05-2.85122E-05-2.83387E-05-7.24506E-07 7.13308E-19-7.38928E-19
 -1      2417 9.47261E-05-2.84876E-05-2.83881E-05-4.38959E-07 2.57571E-19-7.48447E-19
 -1      2418 9.46421E-05-2.84673E-05-2.83627E-05-4.84182E-07 5.23134E-19-5.34494E-19
 -1      2419 9.47544E-05-2.85356E-05-2.83792E-05-5.98637E-07 5.97273E-19-6.23888E-19
 -1      2420 9.48424E-05-2.85109E-05-2.84279E-05-3.49543E-07 3.81946E-19-8.06499E-19
 -1      2421 9.47736E-05-2.84956E-05-2.84066E-05-3.88010E-07 5.76879E-19-7.54715E-19
 -1      2422 9.48563E-05-2.85511E-05-2.84161E-05-4.85235E-07 5.05752E-19-1.05091E-18
 -1      2423 9.49423E-05-2.85285E-05-2.84631E-05-2.72627E-07 5.91126E-19-1.62522E-18
 -1      2424 9.48844E-05-2.85168E-05-2.84448E-05-3.05106E-07 4.02998E-19-1.44559E-18
 -1      2425 9.49442E-05-2.85610E-05-2.84496E-05-3.85918E-07 1.00055E-18-1.01506E-18
 -1      2426 9.50202E-05-2.85402E-05-2.84914E-05-2.16193E-07 2.18329E-19-1.50604E-18
 -1      2427 9.49755E-05-2.85323E-05-2.84769E-05-2.39578E-07 2.63331E-19-1.66782E-18
 -1      2428 9.50176E-05-2.85658E-05-2.84790E-05-3.05102E-07 2.63827E-19-1.45452E-18
 -1      2429 9.50862E-05-2.85482E-05-2.85161E-05-1.76461E-07 2.07893E-19-9.57572E-19
 -1      2430 9.50488E-05-2.85426E-05-2.85037E-05-1.92312E-07 3.54842E-19-9.97715E-19
 -1      2431 9.50780E-05-2.85673E-05-2.85044E-05-2.45587E-07 1.05937E-20-9.76088E-19
 -1      2432 9.51450E-05-2.85538E-05-2.85387E-05-1.53940E-07-4.62686E-20-1.60148E-18
 -1      2433 9.51118E-05-2.85497E-05-2.85274E-05-1.61984E-07 2.02918E-19-1.14812E-18
 -1      2434 9.51305E-05-2.85662E-05-2.85275E-05-2.05639E-07 4.05492E-19-6.47647E-19
 -1      2435 9.52018E-05-2.85578E-05-2.85610E-05-1.49675E-07-2.72744E-19-1.41853E-18
 -1      2436 9.51696E-05-2.85546E-05-2.85498E-05-1.49347E-07 5.48319E-20-1.09063E-18
 -1      2437 9.51789E-05-2.85633E-05-2.85496E-05-1.86143E-07-1.65948E-19-2.57633E-19
 -1      2438 9.52625E-05-2.85614E-05-2.85851E-05-1.65642E-07-6.03511E-20-1.54424E-18
 -1      2439 9.52275E-05-2.85583E-05-2.85728E-05-1.55890E-07-6.36593E-21-1.62030E-18
 -1      2440 9.52271E-05-2.85587E-05-2.85725E-05-1.88713E-07-4.98783E-21-5.70422E-19
 -1      2441 9.53338E-05-2.85653E-05-2.86134E-05-2.05178E-07-9.13159E-20-7.96949E-19
 -1      2442 9.52918E-05-2.85616E-05-2.85986E-05-1.84252E-07-4.24194E-19-1.10125E-18
 -1      2443 9.52797E-05-2.85525E-05-2.85978E-05-2.16126E-07-5.55117E-19-3.39454E-19
 -1      2444 9.54237E-05-2.85703E-05-2.86491E-05-2.73523E-07 3.11041E-19 1.65678E-19
 -1      2445 9.53694E-05-2.85654E-05-2.86301E-05-2.38695E-07 2.90110E-19 2.94590E-20
 -1      2446 9.53416E-05-2.85446E-05-2.86281E-05-2.72838E-07-5.15664E-19 5.44091E-20
 -1      2447 9.55416E-05-2.85770E-05-2.86957E-05-3.78483E-07-1.88849E-19 6.43091E-19
 -1      2448 9.54687E-05-2.85700E-05-2.86704E-05-3.25760E-07 2.79865E-19 5.20856E-19
 -1      2449 9.54184E-05-2.85339E-05-2.86659E-05-3.65608E-07 1.18752E-19 4.09117E-19
 -1      2450 9.57079E-05-2.85858E-05-2.87618E-05-5.41022E-07-1.53458E-19 4.74839E-19
 -1      2451 9.56028E-05-2.85758E-05-2.87252E-05-4.59151E-07 7.47564E-22 5.16928E-19
 -1      2452 9.55194E-05-2.85187E-05-2.87161E-05-5.08765E-07-6.11723E-20 8.48203E-19
 -1      2453 9.59221E-05-2.85957E-05-2.88475E-05-7.63575E-07-1.75975E-19-3.38031E-19
 -1      2454 9.57836E-05-2.85827E-05-2.87995E-05-6.51770E-07-1.20746E-19 8.22433E-20
 -1      2455 9.56498E-05-2.84950E-05-2.87824E-05-7.15669E-07-2.38015E-19-1.12361E-20
 -1      2456 9.62084E-05-2.86049E-05-2.89635E-05-1.07714E-06 4.09894E-19-5.02946E-19
 -1      2457 9.60185E-05-2.85882E-05-2.88977E-05-9.18616E-07 1.52687E-19-2.36338E-19
 -1      2458 9.58129E-05-2.84588E-05-2.88681E-05-1.00087E-06-9.95533E-21 1.41076E-19
 -1      2459 9.65883E-05-2.86096E-05-2.91205E-05-1.51762E-06-1.03477E-18-5.43752E-19
 -1      2460 9.63291E-05-2.85894E-05-2.90302E-05-1.29325E-06-2.82921E-19-6.65291E-19
 -1      2461 9.60180E-05-2.84004E-05-2.89812E-05-1.39816E-06-9.28192E-20 6.58196E-19
 -1      2462 9.70872E-05-2.86028E-05-2.93319E-05-2.13585E-06-5.35056E-19 1.81851E-19
 -1      2463 9.67351E-05-2.85795E-05-2.92085E-05-1.81818E-06-7.39430E-19-5.13740E-19
 -1      2464 9.62692E-05-2.83052E-05-2.91296E-05-1.94933E-06-1.00003E-18-2.67497E-19
 -1      2465 9.77336E-05-2.85729E-05-2.96146E-05-3.00276E-06 5.82453E-19 9.11917E-20
 -1      2466 9.72584E-05-2.85479E-05-2.94468E-05-2.55323E-06-1.40819E-19 2.62117E-19
 -1      2467 9.65657E-05-2.81510E-05-2.93220E-05-2.71213E-06-3.26580E-19-7.19219E-19
 -1      2468 9.85573E-05-2.85038E-05-2.99880E-05-4.21392E-06 1.46096E-18-9.21557E-19
 -1      2469 9.79213E-05-2.84782E-05-2.97618E-05-3.58050E-06 1.16638E-18 1.94470E-21
 -1      2470 9.68965E-05-2.79054E-05-2.95673E-05-3.76442E-06 1.03956E-18-5.36529E-19
 -1      2471 9.95859E-05-2.83787E-05-3.04713E-05-5.88995E-06 1.18602E-18-6.34928E-19
 -1      2472 9.87429E-05-2.83497E-05-3.01712E-05-5.00763E-06 1.51916E-18-5.55409E-19
 -1      2473 9.72343E-05-2.75264E-05-2.98710E-05-5.20662E-06 1.52540E-18-2.30757E-19
 -1      2474 1.00851E-04-2.81981E-05-3.10779E-05-8.16294E-06-1.29632E-19-3.57888E-19
 -1      2475 9.97368E-05-2.81450E-05-3.06889E-05-6.96484E-06 7.00404E-19-2.98898E-19
 -1      2476 9.75285E-05-2.69705E-05-3.02295E-05-7.15827E-06 1.16889E-18 3.63761E-20
 -1      2477 1.02441E-04-2.80106E-05-3.18303E-05-1.13020E-05-7.79217E-19-6.10107E-19
 -1      2478 1.00932E-04-2.78674E-05-3.13262E-05-9.65308E-06-3.87303E-19-3.45563E-19
 -1      2479 9.77067E-05-2.62092E-05-3.06273E-05-9.82193E-06-3.76539E-19-1.87659E-19
 -1      2480 1.04294E-04-2.80989E-05-3.25900E-05-1.49556E-05 3.00862E-19-1.11128E-18
 -1      2481 1.02410E-04-2.76936E-05-3.20426E-05-1.31071E-05-3.28252E-19-1.08177E-18
 -1      2482 9.77035E-05-2.53598E-05-3.09778E-05-1.32207E-05-1.79607E-19-5.93600E-19
 -1      2483 1.06802E-04-2.91582E-05-3.32207E-05-1.87948E-05 5.79099E-19-1.58234E-18
 -1      2484 1.04291E-04-2.80588E-05-3.26916E-05-1.70420E-05 7.58247E-19-1.28492E-18
 -1      2485 9.76078E-05-2.49100E-05-3.11263E-05-1.72004E-05 7.22555E-19-1.11550E-18
 -1      2486 1.10848E-04-3.27647E-05-3.34302E-05-2.15853E-05-4.91425E-19-1.67770E-18
 -1      2487 1.07297E-04-3.00782E-05-3.30716E-05-2.08446E-05-1.04986E-20-1.86611E-18
 -1      2488 9.79742E-05-2.59933E-05-3.08293E-05-2.14334E-05 3.80579E-19-1.20850E-18
 -1      2489 1.18434E-04-4.13776E-05-3.29922E-05-2.06342E-05 5.89641E-19-2.56622E-18
 -1      2490 1.13208E-04-3.59807E-05-3.29193E-05-2.26247E-05 3.81257E-19-2.05681E-18
 -1      2491 1.00570E-04-3.11399E-05-2.97855E-05-2.49926E-05 6.20372E-19-2.57953E-18
 -1      2492 1.32200E-04-5.63343E-05-3.25141E-05-1.17413E-05 2.09598E-18-3.31355E-18
 -1      2493 1.25058E-04-4.85097E-05-3.24037E-05-1.85941E-05 1.33331E-18-2.75855E-18
 -1      2494 1.08923E-04-4.34510E-05-2.81268E-05-2.52447E-05 1.48220E-18-2.27386E-18
 -1      2495 1.52982E-04-6.83196E-05-3.63476E-05 1.10250E-05 7.53436E-19-4.43041E-18
 -1      2496 1.46845E-04-6.51990E-05-3.46620E-05-1.26046E-06 1.80010E-18-3.65908E-18
 -1      2497 1.70871E-04-3.24662E-05-5.90145E-05 2.86339E-05-2.84010E-18-6.15115E-18
 -1      2498 1.74870E-04-4.90824E-05-5.41448E-05 3.73320E-05-2.69187E-18-5.52350E-18
 -1      2499 1.66262E-04-2.40556E-05-6.10960E-05 1.34550E-06-1.83383E-18-5.43880E-18
 -1      2500 1.67214E-04-2.15229E-05-6.22878E-05 1.49506E-05-2.27428E-18-6.60536E-18
 -1      2501 9.35425E-05-3.07965E-05-2.68645E-05 9.83754E-06 2.71055E-19-4.50390E-19
 -1      2502 4.31558E-05-3.04563E-06-1.66754E-05-1.38054E-05-3.40363E-18 5.99699E-18
 -1      2503 4.40556E-05-2.79436E-06-1.68841E-05 6.92583E-06-4.24411E-18 6.60347E-18
 -1      2504 1.19440E-04-4.69846E-05-3.08689E-05 3.71642E-05-2.02123E-19-3.56172E-18
 -1      2505 8.28027E-05-2.61815E-05-2.40459E-05 5.09845E-05-2.55645E-18-3.13603E-18
 -1      2506 9.75552E-05-3.38800E-05-2.62538E-05 5.25503E-05-1.71598E-18-4.01134E-18
 -1      2507 2.93741E-05-2.21114E-05-3.40018E-06 1.40313E-05-1.63361E-18 6.91137E-18
 -1      2508 2.51857E-05-2.38408E-05-7.97139E-07-9.79199E-06-2.18069E-18 9.34235E-18
 -1      2509 6.56163E-05-1.62658E-05-2.00349E-05-5.43480E-05-2.37106E-18 2.86361E-18
 -1      2510 5.03829E-05-7.07221E-06-1.83002E-05-3.83036E-05-2.65947E-18 2.25904E-18
 -1      2511 4.09073E-05-1.37255E-05-1.11880E-05-2.84625E-05-2.60420E-18 4.88399E-18
 -1      2512 1.01271E-04-3.81140E-05-2.60469E-05-6.60006E-05-9.29619E-20-2.60886E-18
 -1      2513 8.18934E-05-2.65934E-05-2.38151E-05-6.40236E-05-8.61644E-19 5.71324E-19
 -1      2514 1.23403E-04-5.17233E-05-3.03910E-05-4.81013E-05 1.23577E-18-3.79561E-18
 -1      2515 1.14431E-04-4.57802E-05-2.94584E-05-5.82173E-05 1.67117E-18-3.38416E-18
 -1      2516 1.22760E-04-5.02966E-05-3.12117E-05-2.26657E-05 1.73099E-18 9.84729E-19
 -1      2517 1.24210E-04-4.99712E-05-3.16968E-05-3.36607E-05 1.67176E-18-1.11708E-18
 -1      2518 1.13760E-04-4.42682E-05-2.99521E-05-4.37526E-06 5.74768E-19 3.67705E-19
 -1      2519 1.17936E-04-4.56065E-05-3.07551E-05-1.22449E-05 1.29180E-18-1.70730E-20
 -1      2520 1.25598E-04-4.81690E-05-3.30513E-05-1.58766E-05 1.89733E-18 6.78791E-19
 -1      2521 1.05551E-04-3.91798E-05-2.85403E-05 6.10378E-06-1.96068E-19 3.25132E-18
 -1      2522 1.09191E-04-4.08057E-05-2.91176E-05 1.60187E-06-2.12394E-19 2.08665E-18
 -1      2523 1.14184E-04-4.01220E-05-3.16388E-05-7.15368E-08 1.17138E-18 5.33538E-19
 -1      2524 1.00086E-04-3.57534E-05-2.76113E-05 1.10015E-05 4.94303E-19 3.33872E-18
 -1      2525 1.02561E-04-3.72811E-05-2.78582E-05 8.95221E-06 9.77397E-20 4.74807E-18
 -1      2526 1.04836E-04-3.48397E-05-2.99434E-05 8.41914E-06 3.50136E-19 4.29043E-18
 -1      2527 9.67573E-05-3.33782E-05-2.71833E-05 1.24338E-05 7.03899E-19 1.32793E-18
 -1      2528 9.83733E-05-3.47952E-05-2.71880E-05 1.19731E-05 2.52389E-19 1.61054E-18
 -1      2529 9.89239E-05-3.20114E-05-2.86648E-05 1.21946E-05 5.29703E-19 2.94425E-18
 -1      2530 9.46072E-05-3.15145E-05-2.70712E-05 1.17691E-05 6.83804E-19 4.45232E-19
 -1      2531 9.57926E-05-3.28628E-05-2.69541E-05 1.22810E-05 8.07226E-19 1.31420E-18
 -1      2532 9.55021E-05-3.04972E-05-2.78596E-05 1.29396E-05 1.50325E-18 2.01504E-18
 -1      2533 1.18787E-04-6.82008E-05-2.19365E-05 5.67780E-05 4.72644E-19-6.41318E-18
 -1      2534 9.56239E-05-5.71733E-05-1.63306E-05 5.80448E-05-1.17145E-18-4.24109E-18
 -1      2535 9.36355E-05-2.74747E-05-2.83430E-05 3.62799E-07 1.05635E-18-1.19006E-20
 -1      2536 9.39168E-05-2.73386E-05-2.84897E-05 8.97039E-07 1.50128E-18 2.11328E-19
 -1      2537 9.42771E-05-2.74907E-05-2.86364E-05 3.94845E-07 1.11371E-18-4.86639E-19
 -1      2538 1.67719E-04-6.20405E-05-4.56755E-05-2.52289E-06 2.68406E-18-4.32537E-18
 -1      2539 1.65347E-04-5.25661E-05-4.87680E-05-1.06531E-05 2.20779E-18-4.82216E-18
 -1      2540 7.79413E-05-5.47794E-05-1.05660E-05-6.64531E-05-2.02568E-18 4.13881E-19
 -1      2541 9.45757E-05-5.59317E-05-1.67662E-05-7.03399E-05-1.45351E-18 6.23734E-19
 -1      2542 1.61795E-04-4.89558E-05-4.89018E-05 4.04054E-06-1.42317E-18 1.77877E-18
 -1      2543 1.52703E-04-5.72175E-05-4.09670E-05 1.41235E-05-1.02697E-18 1.78830E-18
 -1      2544 1.66221E-04-2.95674E-05-5.84691E-05-7.33022E-06-9.21995E-19-5.04959E-18
 -1      2545 5.80302E-05-4.81622E-05-4.85473E-06-6.02399E-05-1.37643E-19 2.71178E-18
 -1      2546 6.79734E-05-4.99184E-05-8.05566E-06-6.49847E-05-1.47977E-18 1.33471E-18
 -1      2547 8.34157E-05-5.06658E-05-1.40371E-05-7.08365E-05-9.73241E-19 1.60322E-18
 -1      2548 8.78323E-05-1.07934E-05-3.30523E-05-1.51711E-06-2.77490E-19-3.71048E-18
 -1      2549 8.79381E-05-1.09156E-05-3.30438E-05-2.63516E-06-6.59471E-19-3.67682E-18
 -1      2550 8.93368E-05-1.30874E-05-3.26802E-05-2.92769E-06-7.58775E-19-3.44484E-18
 -1      2551 8.90874E-05-1.27522E-05-3.27183E-05-9.40106E-07-2.17996E-19-3.54043E-18
 -1      2552 1.59281E-04-5.46990E-06-6.66799E-05-7.63734E-06 2.08582E-18-6.46074E-19
 -1      2553 1.62444E-04-6.81711E-06-6.72088E-05-9.13578E-06-1.10961E-19-8.89490E-19
 -1      2554 6.25538E-05-4.75676E-05-6.26112E-06-3.29435E-05 1.48697E-18 1.45097E-18
 -1      2555 8.28785E-05-5.67987E-05-1.11515E-05-3.41830E-05 1.31671E-18 1.62736E-18
 -1      2556 2.42218E-05-2.97044E-05 2.48786E-06-1.49285E-05 4.30928E-20 7.43695E-19
 -1      2557 3.93853E-05-3.54077E-05-1.45997E-06-2.63872E-05 7.94517E-19 3.57236E-19
 -1      2558 1.49192E-05-2.25656E-05 3.58032E-06 1.21141E-05-6.61744E-20-2.57498E-19
 -1      2559 1.66477E-05-2.40600E-05 3.51155E-06-2.55454E-06-3.09908E-19-1.10961E-19
 -1      2560 3.12410E-05-2.87931E-05-7.72876E-07 3.87188E-05-2.05405E-20 1.10368E-18
 -1      2561 2.07721E-05-2.54177E-05 2.40271E-06 2.58223E-05 4.97632E-21 1.28537E-18
 -1      2562 6.70394E-05-4.47082E-05-9.34847E-06 5.23561E-05-5.14573E-20-2.10022E-18
 -1      2563 5.03935E-05-3.81190E-05-4.81014E-06 4.70072E-05-1.67501E-19 2.80156E-19
 -1      2564 1.05957E-04-5.85455E-05-2.04020E-05 4.87088E-05 8.66938E-19-1.89439E-18
 -1      2565 8.55923E-05-5.33030E-05-1.36314E-05 5.05205E-05 3.44742E-19-2.33114E-18
 -1      2566 8.37359E-05-4.90028E-05-1.44146E-05 5.03087E-05 3.02814E-19-1.41190E-18
 -1      2567 1.41357E-04-6.35698E-05-3.37849E-05 2.95146E-05-5.18172E-19 1.90413E-18
 -1      2568 1.26185E-04-6.34441E-05-2.67582E-05 3.74522E-05 4.06576E-19 1.52678E-19
 -1      2569 1.64263E-04-2.82684E-05-5.88728E-05-8.65401E-06-2.50086E-18-2.70415E-19
 -1      2570 1.62156E-04-3.59166E-05-5.44385E-05-5.95539E-06-1.99561E-18 7.90282E-19
 -1      2571 1.64021E-04-1.12621E-05-6.59933E-05-1.08422E-05-1.16806E-18-6.08805E-19
 -1      2572 1.61038E-04-1.68939E-05-6.23791E-05-1.10035E-05-2.48011E-18-1.68983E-19
 -1      2573 1.47045E-04-4.71348E-06-6.12198E-05-1.20802E-05-3.31190E-19-1.62027E-18
 -1      2574 1.53515E-04-1.53941E-05-6.00250E-05-2.21066E-06 2.05914E-18-1.05837E-18
 -1      2575 1.58339E-04-9.03731E-06-6.44081E-05-4.58122E-06 3.23905E-18-2.92650E-19
 -1      2576 1.47734E-04-6.38898E-05-3.56701E-05-4.81735E-05 2.10276E-18-2.89706E-18
 -1      2577 1.57093E-04-5.92782E-05-4.24055E-05-3.66671E-05 2.26592E-18-2.80707E-18
 -1      2578 9.63426E-05-2.50975E-05-3.05595E-05 7.58836E-06 2.71605E-18 7.94386E-19
 -1      2579 9.74634E-05-2.37810E-05-3.15996E-05 1.06882E-05 2.93418E-18 1.19072E-18
 -1      2580 9.58969E-05-2.13052E-05-3.20237E-05 1.18896E-05 3.09964E-18 2.12804E-19
 -1      2581 9.58857E-05-2.41629E-05-3.07716E-05 7.67868E-06 2.69046E-18-2.01240E-19
 -1      2582 1.67949E-04-5.73426E-05-4.76500E-05 3.10983E-05-1.98545E-18-4.92084E-18
 -1      2583 1.13552E-04-6.16580E-05-2.22461E-05-6.56301E-05-4.29446E-19-1.84230E-20
 -1      2584 1.31441E-04-6.30113E-05-2.95215E-05-6.18635E-05 1.30612E-18-1.96003E-18
 -1      2585 1.08996E-04-5.96733E-05-2.09819E-05-7.07571E-05-3.84129E-19-9.81817E-19
 -1      2586 6.53436E-05-3.90207E-05-1.14641E-05 5.28695E-05-2.26920E-18-2.41341E-18
 -1      2587 4.66133E-05-3.12429E-05-6.19148E-06 3.85310E-05-1.94500E-18 7.55553E-19
 -1      2588 1.67028E-04-6.92264E-05-4.21700E-05 2.36259E-05-6.98485E-19-5.23360E-18
 -1      2589 1.58626E-04-7.29684E-05-3.70913E-05 6.75891E-06 5.65500E-19-3.55966E-18
 -1      2590 1.43704E-04-3.93953E-06-6.02740E-05-3.09989E-06 2.03076E-18-9.73876E-19
 -1      2591 9.08010E-05-1.50482E-05-3.24581E-05-6.79586E-06-1.85913E-18-3.16648E-18
 -1      2592 8.96976E-05-1.31875E-05-3.28447E-05-7.95309E-06-1.98523E-18-3.31038E-18
 -1      2593 9.03312E-05-1.38971E-05-3.28177E-05-9.17160E-06-2.31295E-18-2.97142E-18
 -1      2594 1.65344E-04-4.27813E-05-5.30622E-05-1.30330E-05 1.42598E-18-4.85265E-18
 -1      2595 9.42511E-05-1.90828E-05-3.22602E-05 1.15982E-05 2.93822E-18-8.76269E-19
 -1      2596 1.28654E-04-6.90962E-05-2.58265E-05 4.89823E-05 1.39295E-18-5.28255E-18
 -1      2597 9.20568E-05-1.62418E-05-3.25344E-05-1.03845E-05-2.60205E-18-2.05231E-18
 -1      2598 4.42886E-05-1.68309E-05-1.12702E-05 2.34479E-05-3.54219E-18 3.90906E-18
 -1      2599 5.44556E-05-1.03784E-05-1.86959E-05 3.16489E-05-3.90461E-18 8.98278E-19
 -1      2600 6.90910E-05-1.79836E-05-2.07877E-05 4.55487E-05-3.19342E-18-1.37537E-18
 -1      2601 1.30025E-04-6.23934E-05-2.90571E-05-1.47875E-05 1.85871E-18-3.03575E-18
 -1      2602 1.41415E-04-6.57106E-05-3.21051E-05-5.44032E-05 1.66230E-18-2.63364E-18
 -1      2603 1.40933E-04-7.45336E-05-2.83893E-05-1.01243E-05 1.39887E-18-2.45555E-18
 -1      2604 1.74912E-04-2.66017E-05-6.32795E-05 2.42426E-05-1.99137E-18-7.30015E-18
 -1      2605 9.17497E-05-2.84637E-05-2.71613E-05 1.01619E-05-2.54492E-19-1.15245E-18
 -1      2606 9.35568E-05-3.04074E-05-2.70719E-05 1.13537E-05 1.32150E-19-4.86657E-19
 -1      2607 9.29573E-05-2.87019E-05-2.75082E-05 1.21754E-05 8.70997E-19-2.19438E-19
 -1      2608 9.03804E-05-2.69543E-05-2.71416E-05 1.04224E-05 9.52829E-20-1.22140E-18
 -1      2609 7.29878E-05-3.06360E-05-1.77564E-05-6.37935E-05-6.29981E-19 2.04516E-18
 -1      2610 1.19776E-04-5.35912E-05-2.85914E-05 4.67817E-05-1.63054E-20-4.53417E-18
 -1      2611 1.42767E-04-6.72557E-05-3.17720E-05 2.67059E-05 2.11059E-18-3.48723E-18
 -1      2612 7.72903E-05-3.45947E-05-1.78529E-05 5.34167E-05-2.41235E-18-3.05927E-18
 -1      2613 3.29454E-05-2.65579E-05-3.01003E-06-3.39625E-05-1.22375E-18 3.74854E-18
 -1      2614 1.12891E-04-5.05674E-05-2.63876E-05-6.50595E-05 9.55030E-19-1.98640E-18
 -1      2615 1.30857E-04-5.56944E-05-3.20859E-05-4.09703E-05 1.67930E-18-2.27637E-18
 -1      2616 1.04252E-04-5.24723E-05-2.21354E-05 5.60854E-05-8.13575E-19-4.33617E-18
 -1      2617 8.72449E-05-4.88214E-05-1.59172E-05 5.75084E-05-1.38405E-18-4.58584E-18
 -1      2618 1.19198E-04-6.82553E-05-2.21160E-05-2.47113E-05 1.31587E-18-2.56135E-18
 -1      2619 1.27849E-04-6.75463E-05-2.57128E-05-1.81582E-05 1.81265E-18-2.83987E-18
 -1      2620 1.12661E-04-5.57394E-05-2.37032E-05-2.60544E-05 2.66159E-18-2.50214E-18
 -1      2621 9.83926E-05-6.21919E-05-1.53694E-05-3.02362E-05 1.49078E-18-1.43096E-19
 -1      2622 9.47414E-05-2.69404E-05-2.90701E-05 1.87668E-06 1.69579E-18-4.19405E-19
 -1      2623 1.60311E-04-7.01705E-05-3.89180E-05 9.78398E-06 2.48313E-18-4.48123E-18
 -1      2624 1.48189E-04-6.25321E-05-3.65904E-05 1.52669E-05-8.08546E-19 1.44334E-18
 -1      2625 1.52627E-04-2.01186E-05-5.70500E-05-1.54897E-05-2.39202E-18-2.05882E-18
 -1      2626 1.20015E-04-6.27895E-05-2.42081E-05 4.02651E-05 1.62630E-19-2.24464E-19
 -1      2627 9.47204E-05-2.06038E-05-3.17199E-05 9.66474E-06 2.72386E-18-1.04966E-18
 -1      2628 1.59413E-04-5.41008E-05-4.50108E-05-2.37913E-05 2.51417E-18-2.08412E-18
 -1      2629 1.53898E-04-4.77005E-05-4.64663E-05-1.01610E-05 2.30705E-18-2.70013E-18
 -1      2630 1.52580E-04-5.90973E-05-3.99646E-05-2.79911E-05 3.03185E-18-2.57000E-18
 -1      2631 4.74058E-05-3.04911E-05-6.68125E-06 4.30719E-05-2.01382E-19-1.55854E-19
 -1      2632 2.42816E-05-1.81942E-05-1.96461E-06 1.87880E-05-2.10911E-19 7.01343E-19
 -1      2633 2.68328E-05-2.08707E-05-1.90064E-06-9.51500E-06-2.39446E-19-4.99749E-20
 -1      2634 1.56728E-04-4.37937E-05-4.85525E-05-6.66464E-06-1.31597E-18 2.09641E-20
 -1      2635 5.52971E-05-3.91405E-05-6.51638E-06-3.06980E-05 1.12804E-18 8.84302E-19
 -1      2636 7.12790E-05-4.14986E-05-1.23209E-05-3.26219E-05 1.52540E-18 6.94144E-19
 -1      2637 4.88364E-05-2.90071E-05-7.84398E-06-2.76216E-05 3.30343E-19 1.11131E-18
 -1      2638 9.07310E-05-2.61812E-05-2.76781E-05 1.11947E-05-4.13032E-19-2.64442E-18
 -1      2639 9.41060E-05-5.53443E-05-1.62474E-05-3.27108E-05 2.43437E-18-5.88794E-19
 -1      2640 1.54039E-04-6.79716E-05-3.71375E-05 6.37648E-06 2.83677E-18-3.43895E-18
 -1      2641 1.56985E-04-7.56615E-05-3.49080E-05 2.65681E-05 2.19911E-18-4.52189E-18
 -1      2642 1.53550E-04-2.32486E-05-5.63614E-05-8.61917E-07 1.54944E-18-1.86114E-18
 -1      2643 1.40751E-04-1.44411E-05-5.47261E-05 3.18056E-06 2.98198E-18-1.13375E-18
 -1      2644 1.48886E-04-2.96927E-05-5.14442E-05-1.14494E-06 1.21083E-18-2.18471E-18
 -1      2645 9.05503E-05-1.51681E-05-3.23290E-05 3.19237E-06 8.51414E-19-3.30131E-18
 -1      2646 9.03592E-05-1.48961E-05-3.23615E-05 2.25920E-06 5.65454E-19-3.29640E-18
 -1      2647 9.02243E-05-1.46930E-05-3.23904E-05 1.42132E-06 3.74635E-19-3.39924E-18
 -1      2648 9.01588E-05-1.46004E-05-3.24014E-05 4.65028E-07 1.16877E-19-3.36432E-18
 -1      2649 9.14100E-05-1.65879E-05-3.20537E-05 1.63957E-06 4.58114E-19-3.17554E-18
 -1      2650 9.21378E-05-1.75483E-05-3.20049E-05 6.46873E-06 1.98114E-18-2.57704E-18
 -1      2651 9.16117E-05-1.67529E-05-3.21046E-05 5.62998E-06 1.70565E-18-2.88475E-18
 -1      2652 9.35633E-05-1.97762E-05-3.16655E-05 7.59031E-06 2.44674E-18-1.97135E-18
 -1      2653 9.27702E-05-1.85196E-05-3.18387E-05 7.01205E-06 2.17606E-18-2.24520E-18
 -1      2654 9.34331E-05-1.98643E-05-3.15067E-05 5.72825E-06 1.92930E-18-2.18983E-18
 -1      2655 9.52505E-05-2.39922E-05-3.05179E-05-5.29800E-06-2.06551E-18-1.29972E-18
 -1      2656 9.51680E-05-2.50054E-05-3.00890E-05-3.79084E-06-1.88405E-18-1.34941E-18
 -1      2657 9.52231E-05-2.54091E-05-2.99326E-05 3.97065E-06 1.98063E-18-9.24309E-19
 -1      2658 9.55593E-05-2.45591E-05-3.03963E-05 5.60440E-06 2.18796E-18-8.76648E-19
 -1      2659 9.44835E-05-2.83223E-05-2.83542E-05-1.11308E-06 4.75467E-19-9.73857E-19
 -1      2660 9.44505E-05-2.82327E-05-2.83725E-05-1.04864E-06 3.09680E-19-1.05857E-18
 -1      2661 9.53639E-05-2.59026E-05-2.97384E-05-2.69511E-06-1.71558E-18-1.33231E-18
 -1      2662 9.51974E-05-2.64909E-05-2.94573E-05-1.71356E-06-1.43783E-18-1.47462E-18
 -1      2663 9.52115E-05-2.46896E-05-3.02186E-05-3.53709E-06-1.82295E-18-1.74764E-18
 -1      2664 9.52205E-05-2.70052E-05-2.92115E-05-9.71292E-07-1.13276E-18-1.39735E-18
 -1      2665 9.50863E-05-2.73601E-05-2.90317E-05-3.66047E-07-9.09704E-19-1.36175E-18
 -1      2666 9.54156E-05-2.63271E-05-2.96147E-05-1.61123E-06-1.34799E-18-1.64054E-18
 -1      2667 9.50534E-05-2.76663E-05-2.88641E-05 1.00675E-07-7.58531E-19-1.21315E-18
 -1      2668 9.49759E-05-2.78912E-05-2.87535E-05 4.51531E-07-5.72410E-19-1.14415E-18
 -1      2669 9.54173E-05-2.73245E-05-2.91898E-05-3.31845E-07-7.85689E-19-1.34961E-18
 -1      2670 9.49337E-05-2.80767E-05-2.86427E-05 7.20563E-07-4.83472E-19-1.11672E-18
 -1      2671 9.49056E-05-2.82240E-05-2.85789E-05 9.03332E-07-5.16879E-19-1.14927E-18
 -1      2672 9.53564E-05-2.79401E-05-2.88994E-05 4.57249E-07-5.23044E-19-1.39074E-18
 -1      2673 9.48704E-05-2.83363E-05-2.85085E-05 1.03673E-06-7.13328E-19-1.17615E-18
 -1      2674 9.48774E-05-2.84341E-05-2.84757E-05 1.11073E-06-6.60380E-19-1.19163E-18
 -1      2675 9.52917E-05-2.83219E-05-2.87067E-05 8.97768E-07-6.21553E-19-1.41762E-18
 -1      2676 9.48527E-05-2.85000E-05-2.84336E-05 1.15477E-06-6.19263E-19-1.28758E-18
 -1      2677 9.48815E-05-2.85644E-05-2.84211E-05 1.16059E-06-6.96171E-19-1.28681E-18
 -1      2678 9.52419E-05-2.85552E-05-2.85840E-05 1.10112E-06-6.84310E-19-1.45527E-18
 -1      2679 9.48662E-05-2.86004E-05-2.83983E-05 1.14859E-06-6.73761E-19-1.33409E-18
 -1      2680 9.49064E-05-2.86416E-05-2.83984E-05 1.11396E-06-5.67011E-19-1.15443E-18
 -1      2681 9.52094E-05-2.86917E-05-2.85104E-05 1.14996E-06-6.95019E-19-1.02428E-18
 -1      2682 9.48983E-05-2.86579E-05-2.83886E-05 1.06935E-06-5.42453E-19-1.18032E-18
 -1      2683 9.49428E-05-2.86830E-05-2.83962E-05 1.01307E-06-3.87584E-19-1.22151E-18
 -1      2684 9.51913E-05-2.87643E-05-2.84707E-05 1.10364E-06-4.32983E-19-9.84440E-19
 -1      2685 9.49396E-05-2.86866E-05-2.83947E-05 9.51990E-07-2.64169E-19-1.45082E-18
 -1      2686 9.49837E-05-2.87003E-05-2.84063E-05 8.86621E-07-2.17559E-19-1.51276E-18
 -1      2687 9.51836E-05-2.87949E-05-2.84536E-05 1.00370E-06-4.95882E-19-1.57622E-18
 -1      2688 9.49837E-05-2.86959E-05-2.84100E-05 8.19858E-07-2.81283E-19-1.57549E-18
 -1      2689 9.50247E-05-2.87017E-05-2.84233E-05 7.53579E-07-4.54583E-19-1.55682E-18
 -1      2690 9.51829E-05-2.87984E-05-2.84513E-05 8.78565E-07-3.67891E-19-1.88258E-18
 -1      2691 9.50267E-05-2.86926E-05-2.84300E-05 6.88139E-07-4.74615E-19-1.23765E-18
 -1      2692 9.50632E-05-2.86929E-05-2.84436E-05 6.26089E-07-3.83615E-19-1.20259E-18
 -1      2693 9.51862E-05-2.87848E-05-2.84583E-05 7.47144E-07-2.53726E-19-1.20034E-18
 -1      2694 9.50662E-05-2.86812E-05-2.84519E-05 5.66322E-07-4.90186E-19-1.03846E-18
 -1      2695 9.50979E-05-2.86779E-05-2.84650E-05 5.11578E-07-4.70239E-19-9.60760E-19
 -1      2696 9.51919E-05-2.87612E-05-2.84706E-05 6.21581E-07-4.43220E-19-8.36057E-19
 -1      2697 9.51013E-05-2.86649E-05-2.84739E-05 4.60054E-07-5.91861E-19-1.42859E-18
 -1      2698 9.51285E-05-2.86592E-05-2.84861E-05 4.14356E-07-5.43430E-19-1.53087E-18
 -1      2699 9.51985E-05-2.87321E-05-2.84858E-05 5.09356E-07-7.78920E-19-1.38993E-18
 -1      2700 9.51320E-05-2.86457E-05-2.84952E-05 3.72522E-07-4.21544E-19-1.51628E-18
 -1      2701 9.51552E-05-2.86384E-05-2.85065E-05 3.36803E-07-7.06075E-19-1.47908E-18
 -1      2702 9.52054E-05-2.87001E-05-2.85023E-05 4.14880E-07-4.46236E-19-1.81084E-18
 -1      2703 9.51586E-05-2.86246E-05-2.85155E-05 3.05453E-07-7.25498E-19-9.82287E-19
 -1      2704 9.51788E-05-2.86162E-05-2.85261E-05 2.80219E-07-5.35064E-19-1.04921E-18
 -1      2705 9.52122E-05-2.86669E-05-2.85194E-05 3.40670E-07-4.67002E-19-7.86235E-19
 -1      2706 9.51822E-05-2.86023E-05-2.85351E-05 2.59838E-07-4.32462E-19-1.21013E-18
 -1      2707 9.52004E-05-2.85931E-05-2.85452E-05 2.45428E-07-1.91016E-20-1.24205E-18
 -1      2708 9.52187E-05-2.86329E-05-2.85368E-05 2.88196E-07-5.32976E-19-6.44213E-19
 -1      2709 9.52039E-05-2.85789E-05-2.85543E-05 2.36418E-07 6.26349E-21-1.34135E-18
 -1      2710 9.52213E-05-2.85691E-05-2.85644E-05 2.33167E-07 1.27053E-19-1.77674E-18
 -1      2711 9.52252E-05-2.85984E-05-2.85544E-05 2.58475E-07-2.61268E-19-1.57800E-18
 -1      2712 9.52252E-05-2.85547E-05-2.85738E-05 2.35984E-07 5.70035E-19-1.76618E-18
 -1      2713 9.52433E-05-2.85446E-05-2.85843E-05 2.44287E-07 6.63615E-19-1.89727E-18
 -1      2714 9.52320E-05-2.85630E-05-2.85725E-05 2.52461E-07 3.14245E-19-1.58025E-18
 -1      2715 9.52479E-05-2.85297E-05-2.85942E-05 2.59474E-07 5.63654E-19-1.66578E-18
 -1      2716 9.52684E-05-2.85198E-05-2.86055E-05 2.79750E-07 2.35013E-19-1.75733E-18
 -1      2717 9.52399E-05-2.85266E-05-2.85916E-05 2.71226E-07 7.15924E-19-2.17417E-18
 -1      2718 9.52745E-05-2.85050E-05-2.86161E-05 3.07868E-07 1.69748E-19-1.26883E-18
 -1      2719 9.52990E-05-2.84961E-05-2.86286E-05 3.40396E-07 1.68857E-19-1.23024E-18
 -1      2720 9.52500E-05-2.84897E-05-2.86118E-05 3.15937E-07 7.67742E-19-1.67465E-18
 -1      2721 9.53079E-05-2.84822E-05-2.86402E-05 3.81821E-07-5.62880E-19-1.51001E-18
 -1      2722 9.53387E-05-2.84759E-05-2.86541E-05 4.26431E-07-9.46406E-19-1.61003E-18
 -1      2723 9.52643E-05-2.84536E-05-2.86335E-05 3.87588E-07-4.78522E-19-8.15452E-19
 -1      2724 9.53523E-05-2.84648E-05-2.86665E-05 4.80992E-07-7.30632E-19-1.23353E-18
 -1      2725 9.53918E-05-2.84636E-05-2.86820E-05 5.36562E-07-5.06004E-19-6.73140E-19
 -1      2726 9.52862E-05-2.84216E-05-2.86567E-05 4.86453E-07-5.51491E-19-1.19873E-18
 -1      2727 9.54132E-05-2.84587E-05-2.86950E-05 6.02964E-07-4.97942E-19-3.04804E-19
 -1      2728 9.54645E-05-2.84667E-05-2.87119E-05 6.66684E-07-9.23982E-20 2.35497E-19
 -1      2729 9.53205E-05-2.83998E-05-2.86810E-05 6.11157E-07-9.21057E-20-9.40197E-19
 -1      2730 9.54984E-05-2.84733E-05-2.87250E-05 7.41667E-07-1.47575E-20 4.55555E-19
 -1      2731 9.55651E-05-2.84962E-05-2.87426E-05 8.08025E-07-2.79618E-19 3.81968E-19
 -1      2732 9.53751E-05-2.83979E-05-2.87054E-05 7.57281E-07 1.33416E-19 5.82511E-19
 -1      2733 9.56185E-05-2.85222E-05-2.87549E-05 8.85208E-07-3.52409E-19 8.11661E-19
 -1      2734 9.57048E-05-2.85683E-05-2.87721E-05 9.44704E-07-1.60692E-19 8.50181E-19
 -1      2735 9.54616E-05-2.84313E-05-2.87286E-05 9.15399E-07-1.74530E-19 7.35858E-19
 -1      2736 9.57875E-05-2.86248E-05-2.87824E-05 1.01309E-06-2.50961E-19 1.91263E-19
 -1      2737 9.58982E-05-2.87044E-05-2.87976E-05 1.05075E-06 5.59627E-19 3.39314E-19
 -1      2738 9.55968E-05-2.85217E-05-2.87485E-05 1.06845E-06-4.36650E-19 1.16579E-18
 -1      2739 9.60233E-05-2.88057E-05-2.88045E-05 1.09295E-06 6.03839E-19-4.15717E-20
 -1      2740 9.61630E-05-2.89313E-05-2.88155E-05 1.08683E-06 2.10532E-19 4.97780E-20
 -1      2741 9.58038E-05-2.86983E-05-2.87623E-05 1.18851E-06 3.42615E-19-4.96067E-19
 -1      2742 9.63468E-05-2.90939E-05-2.88176E-05 1.07723E-06-3.28604E-19-3.42955E-19
 -1      2743 9.65186E-05-2.92775E-05-2.88219E-05 9.97478E-07-4.72820E-19-7.95642E-19
 -1      2744 9.61120E-05-2.89965E-05-2.87678E-05 1.23306E-06-2.67290E-19-8.73298E-19
 -1      2745 9.67788E-05-2.95176E-05-2.88186E-05 9.00731E-07-1.05769E-19-3.57837E-19
 -1      2746 9.69818E-05-2.97673E-05-2.88139E-05 7.09930E-07-1.63623E-19 9.69811E-20
 -1      2747 9.65557E-05-2.94538E-05-2.87633E-05 1.14158E-06-3.80300E-20-6.36795E-19
 -1      2748 9.73332E-05-3.00945E-05-2.88061E-05 4.80993E-07-1.00011E-18 4.85847E-19
 -1      2749 9.75579E-05-3.04067E-05-2.87911E-05 1.37272E-07-5.98945E-19 3.94250E-19
 -1      2750 9.71681E-05-3.01005E-05-2.87500E-05 8.33559E-07-4.53167E-19 7.69591E-19
 -1      2751 9.80039E-05-3.08145E-05-2.87823E-05-2.75407E-07-2.46245E-19 5.68153E-19
 -1      2752 9.82258E-05-3.11633E-05-2.87580E-05-8.10472E-07 2.14733E-19 8.25920E-19
 -1      2753 9.79688E-05-3.09412E-05-2.87337E-05 2.10754E-07-2.82738E-19 8.49817E-19
 -1      2754 9.87445E-05-3.16138E-05-2.87559E-05-1.45538E-06 5.94066E-19 2.73537E-19
 -1      2755 9.89158E-05-3.19368E-05-2.87266E-05-2.20170E-06 7.65993E-19 1.06817E-18
 -1      2756 9.89417E-05-3.19259E-05-2.87279E-05-8.31552E-07 8.50594E-20 1.42356E-18
 -1      2757 9.94425E-05-3.23443E-05-2.87436E-05-3.10383E-06 7.11085E-19-4.78110E-20
 -1      2758 9.94868E-05-3.25329E-05-2.87180E-05-4.03876E-06 7.94528E-19 1.96556E-19
 -1      2759 1.00003E-04-3.29136E-05-2.87558E-05-2.37666E-06 3.21314E-19-8.96018E-19
 -1      2760 9.98991E-05-3.27541E-05-2.87704E-05-5.16561E-06 9.27046E-19 4.40792E-19
 -1      2761 9.97164E-05-3.26567E-05-2.87602E-05-6.19406E-06 6.03115E-19-4.79836E-19
 -1      2762 1.00966E-04-3.36392E-05-2.88500E-05-4.43229E-06 5.92958E-19-1.56546E-18
 -1      2763 9.98357E-05-3.25027E-05-2.88640E-05-7.41092E-06 7.20066E-19-1.04305E-18
 -1      2764 9.93271E-05-3.19584E-05-2.88811E-05-8.33831E-06 9.88856E-19-7.23909E-19
 -1      2765 1.01526E-04-3.37134E-05-2.90468E-05-6.85003E-06 8.19748E-19-8.29482E-19
 -1      2766 9.89630E-05-3.12511E-05-2.90438E-05-9.37002E-06 6.98459E-19-6.81117E-19
 -1      2767 9.80816E-05-3.01672E-05-2.90942E-05-9.90291E-06-2.10287E-19-1.28839E-19
 -1      2768 1.01304E-04-3.27014E-05-2.93724E-05-9.23069E-06 4.91277E-19-1.28850E-18
 -1      2769 9.71300E-05-2.88482E-05-2.93049E-05-1.03445E-05-4.73099E-19-2.01950E-19
 -1      2770 9.59490E-05-2.73093E-05-2.93808E-05-1.01501E-05-1.19042E-18-8.09141E-19
 -1      2771 9.99847E-05-3.03139E-05-2.98228E-05-1.08786E-05-3.92862E-19-1.26580E-18
 -1      2772 9.45260E-05-2.55734E-05-2.95995E-05-9.58781E-06-1.85621E-18 1.08050E-19
 -1      2773 9.32725E-05-2.39109E-05-2.96741E-05-8.43839E-06-1.79576E-18-1.93873E-19
 -1      2774 9.75687E-05-2.67096E-05-3.03395E-05-1.09123E-05-9.88127E-19-1.39840E-18
 -1      2775 9.17580E-05-2.22346E-05-2.98324E-05-6.67853E-06-1.31923E-18 5.73121E-19
 -1      2776 9.07634E-05-2.09644E-05-2.98647E-05-4.61747E-06 1.43896E-19 1.12991E-18
 -1      2777 9.45602E-05-2.26858E-05-3.07966E-05-8.63971E-06-8.19408E-19 5.72179E-19
 -1      2778 8.96734E-05-1.99562E-05-2.98864E-05-1.89837E-06 3.87744E-19 4.42159E-19
 -1      2779 8.92388E-05-1.95622E-05-2.98350E-05 6.72447E-07 5.43570E-19 5.40660E-19
 -1      2780 9.18894E-05-1.95317E-05-3.10252E-05-4.05374E-06-2.12754E-19 1.41616E-18
 -1      2781 8.89213E-05-1.96419E-05-2.96647E-05 3.68442E-06-2.51892E-19 5.79060E-20
 -1      2782 8.91597E-05-2.03336E-05-2.95041E-05 6.12775E-06-1.58375E-18-8.28661E-19
 -1      2783 9.04632E-05-1.84654E-05-3.08748E-05 1.88010E-06-9.58497E-19 5.49992E-20
 -1      2784 8.96321E-05-2.15573E-05-2.91267E-05 8.62292E-06-2.16082E-18-6.81501E-19
 -1      2785 9.04420E-05-2.32294E-05-2.88550E-05 1.02764E-05-1.96671E-18-6.13825E-19
 -1      2786 9.06718E-05-2.00421E-05-3.02666E-05 7.59744E-06-1.37098E-18-3.26089E-19
 -1      2787 9.44849E-05-2.81367E-05-2.84352E-05-9.09568E-07 2.56532E-19-1.01820E-18
 -1      2788 9.45002E-05-2.80021E-05-2.84878E-05-7.28060E-07 3.51581E-19-9.10996E-19
 -1      2789 9.49336E-05-2.82482E-05-2.85858E-05-9.24400E-07 3.04999E-19-1.27834E-18
 -1      2790 8.49178E-05-4.27405E-05-1.71523E-05-7.03124E-05-3.38813E-19 1.86908E-18
 -1      2791 5.98685E-05-3.21668E-05-1.20341E-05-6.10310E-05-1.04227E-18 3.11581E-18
 -1      2792 9.45616E-05-2.78520E-05-2.85908E-05-4.51218E-07 4.54983E-19-9.34049E-19
 -1      2793 9.46491E-05-2.76645E-05-2.86893E-05-1.07094E-07 7.02349E-19-7.59116E-19
 -1      2794 9.50115E-05-2.79102E-05-2.87660E-05-4.62021E-07 4.95399E-19-1.23264E-18
 -1      2795 9.45303E-05-2.84421E-05-2.83227E-05-1.15447E-06 4.79420E-19-5.24794E-19
 -1      2796 9.44720E-05-2.83787E-05-2.83227E-05-1.15413E-06 5.51839E-19-5.90640E-19
 -1      2797 9.48996E-05-2.84561E-05-2.84801E-05-1.13014E-06 3.49312E-19-1.19151E-18
 -1      2798 9.46036E-05-2.85211E-05-2.83202E-05-1.10284E-06 4.67955E-19-5.50698E-19
 -1      2799 9.45337E-05-2.84761E-05-2.83094E-05-1.14014E-06 4.89065E-19-5.18486E-19
 -1      2800 9.49004E-05-2.85806E-05-2.84257E-05-1.17284E-06 5.44494E-19-8.16294E-19
 -1      2801 9.46884E-05-2.85714E-05-2.83351E-05-9.99562E-07 7.97722E-19-7.29735E-19
 -1      2802 9.46161E-05-2.85400E-05-2.83186E-05-1.05670E-06 6.85493E-19-5.62106E-19
 -1      2803 9.49221E-05-2.86532E-05-2.84028E-05-1.12100E-06 6.87872E-19-9.21953E-19
 -1      2804 9.47746E-05-2.86015E-05-2.83592E-05-8.72332E-07 7.65584E-19-3.27633E-19
 -1      2805 9.47057E-05-2.85803E-05-2.83405E-05-9.37489E-07 9.03199E-19-4.20362E-19
 -1      2806 9.49557E-05-2.86911E-05-2.84002E-05-1.01641E-06 7.21036E-19-8.40605E-19
 -1      2807 9.48560E-05-2.86172E-05-2.83874E-05-7.39340E-07 9.46103E-19-5.58256E-19
 -1      2808 9.47936E-05-2.86036E-05-2.83685E-05-8.04902E-07 9.73307E-19-2.95481E-19
 -1      2809 9.49943E-05-2.87059E-05-2.84099E-05-8.87384E-07 1.01558E-18-1.12489E-19
 -1      2810 9.49294E-05-2.86230E-05-2.84165E-05-6.12128E-07 2.84247E-19-1.61109E-19
 -1      2811 9.48748E-05-2.86151E-05-2.83985E-05-6.73357E-07 6.38727E-19-1.77833E-19
 -1      2812 9.50334E-05-2.87057E-05-2.84264E-05-7.52595E-07 5.53183E-19 3.31864E-20
 -1      2813 9.49938E-05-2.86221E-05-2.84445E-05-4.97656E-07 7.94357E-19-6.11499E-19
 -1      2814 9.49471E-05-2.86182E-05-2.84281E-05-5.51772E-07 4.01077E-19-3.04084E-19
 -1      2815 9.50704E-05-2.86959E-05-2.84463E-05-6.23959E-07 5.20052E-19 2.32883E-19
 -1      2816 9.50516E-05-2.86162E-05-2.84718E-05-3.95498E-07 8.11865E-19-3.79205E-19
 -1      2817 9.50108E-05-2.86153E-05-2.84566E-05-4.42816E-07 9.95674E-19-3.02023E-19
 -1      2818 9.51049E-05-2.86800E-05-2.84679E-05-5.06208E-07 7.12783E-19 1.78232E-19
 -1      2819 9.50984E-05-2.86074E-05-2.84957E-05-3.17647E-07 1.25272E-19-4.61810E-19
 -1      2820 9.50657E-05-2.86088E-05-2.84828E-05-3.53191E-07 8.26576E-19-3.14251E-19
 -1      2821 9.51357E-05-2.86605E-05-2.84893E-05-4.06745E-07 6.74792E-19 6.95282E-19
 -1      2822 9.51394E-05-2.85965E-05-2.85178E-05-2.59913E-07 1.42146E-19-6.15294E-19
 -1      2823 9.51114E-05-2.85995E-05-2.85061E-05-2.85507E-07-3.67218E-19-8.18087E-19
 -1      2824 9.51624E-05-2.86396E-05-2.85097E-05-3.30213E-07 1.90695E-19 4.71742E-19
 -1      2825 9.51765E-05-2.85839E-05-2.85390E-05-2.23273E-07-2.97111E-20 1.98111E-19
 -1      2826 9.51514E-05-2.85882E-05-2.85280E-05-2.38499E-07 3.10043E-19-3.43539E-20
 -1      2827 9.51866E-05-2.86173E-05-2.85297E-05-2.75250E-07-1.21936E-19 3.37175E-19
 -1      2828 9.52121E-05-2.85695E-05-2.85603E-05-2.09004E-07-3.94624E-19 2.91315E-19
 -1      2829 9.51881E-05-2.85749E-05-2.85493E-05-2.13190E-07-2.11851E-19 3.57484E-19
 -1      2830 9.52093E-05-2.85935E-05-2.85497E-05-2.43154E-07-3.29076E-19 1.04532E-18
 -1      2831 9.52491E-05-2.85528E-05-2.85831E-05-2.19185E-07-1.38357E-19 4.40730E-19
 -1      2832 9.52240E-05-2.85594E-05-2.85712E-05-2.11191E-07 2.17017E-19 1.00568E-19
 -1      2833 9.52318E-05-2.85674E-05-2.85706E-05-2.35607E-07-1.79804E-19 1.30590E-18
 -1      2834 9.52904E-05-2.85329E-05-2.86089E-05-2.57162E-07-8.85261E-19 4.58422E-19
 -1      2835 9.52619E-05-2.85410E-05-2.85953E-05-2.35145E-07-4.94164E-19 3.54709E-19
 -1      2836 9.52553E-05-2.85375E-05-2.85936E-05-2.55193E-07-1.92445E-19 9.78634E-19
 -1      2837 9.53392E-05-2.85082E-05-2.86399E-05-3.28076E-07-3.03279E-19-2.23641E-19
 -1      2838 9.53046E-05-2.85184E-05-2.86233E-05-2.89206E-07-5.69333E-19 4.44554E-20
 -1      2839 9.52809E-05-2.85018E-05-2.86200E-05-3.05875E-07-5.78663E-19-2.61127E-19
 -1      2840 9.53988E-05-2.84760E-05-2.86786E-05-4.39443E-07-1.93084E-19 5.52043E-19
 -1      2841 9.53550E-05-2.84892E-05-2.86575E-05-3.79636E-07-3.02563E-19 6.88523E-20
 -1      2842 9.53093E-05-2.84567E-05-2.86516E-05-3.93517E-07-4.52769E-19-4.32890E-19
 -1      2843 9.54757E-05-2.84294E-05-2.87305E-05-6.12112E-07 1.06969E-19 5.68349E-19
 -1      2844 9.54169E-05-2.84487E-05-2.87016E-05-5.19513E-07 3.68513E-19 8.34593E-19
 -1      2845 9.53413E-05-2.83960E-05-2.86915E-05-5.30763E-07-8.68976E-20 5.82628E-19
 -1      2846 9.55647E-05-2.83661E-05-2.87947E-05-8.45744E-07-1.03387E-19 4.23411E-19
 -1      2847 9.54923E-05-2.83923E-05-2.87585E-05-7.20939E-07-1.11357E-19 5.78300E-19
 -1      2848 9.53740E-05-2.83118E-05-2.87415E-05-7.27934E-07-5.99344E-22 9.81262E-19
 -1      2849 9.56689E-05-2.82735E-05-2.88775E-05-1.16883E-06-1.49421E-19 2.92395E-19
 -1      2850 9.55774E-05-2.83121E-05-2.88301E-05-9.95544E-07 2.18606E-19 3.36118E-19
 -1      2851 9.54016E-05-2.81960E-05-2.88027E-05-9.95438E-07 1.34489E-19 4.97163E-19
 -1      2852 9.57837E-05-2.81356E-05-2.89838E-05-1.61147E-06-1.96579E-19 4.50845E-19
 -1      2853 9.56705E-05-2.81938E-05-2.89218E-05-1.37254E-06-1.16941E-19 2.47622E-19
 -1      2854 9.54143E-05-2.80295E-05-2.88789E-05-1.35911E-06-3.05782E-19 7.14551E-20
 -1      2855 9.58966E-05-2.79279E-05-2.91185E-05-2.21449E-06-7.45258E-19 2.16474E-19
 -1      2856 9.57612E-05-2.80165E-05-2.90384E-05-1.88638E-06-2.63825E-19 3.42191E-19
 -1      2857 9.53926E-05-2.77868E-05-2.89724E-05-1.84818E-06-3.21423E-19-8.27648E-20
 -1      2858 9.59819E-05-2.76147E-05-2.92861E-05-3.03218E-06-3.00496E-19-4.33265E-20
 -1      2859 9.58279E-05-2.77495E-05-2.91841E-05-2.58328E-06-8.20820E-19 3.26526E-20
 -1      2860 9.53027E-05-2.74309E-05-2.90842E-05-2.50055E-06-3.53576E-19 2.97773E-19
 -1      2861 9.59927E-05-2.71467E-05-2.94874E-05-4.13434E-06 1.13262E-18 5.29272E-19
 -1      2862 9.58306E-05-2.73490E-05-2.93611E-05-3.52382E-06 6.65632E-19 3.16404E-19
 -1      2863 9.50880E-05-2.69096E-05-2.92117E-05-3.36386E-06-9.84800E-20-1.72635E-19
 -1      2864 9.58504E-05-2.64619E-05-2.97158E-05-5.60570E-06 1.66007E-18 5.80110E-19
 -1      2865 9.57020E-05-2.67568E-05-2.95658E-05-4.78426E-06 1.42685E-18 8.00278E-19
 -1      2866 9.46587E-05-2.61538E-05-2.93451E-05-4.49520E-06 1.18247E-18 8.28161E-19
 -1      2867 9.54438E-05-2.55008E-05-2.99487E-05-7.53927E-06 6.44597E-19 8.58768E-19
 -1      2868 9.53371E-05-2.59066E-05-2.97828E-05-6.45514E-06 1.46605E-18 5.52098E-19
 -1      2869 9.38791E-05-2.50810E-05-2.94604E-05-5.95839E-06 1.36437E-18 1.11601E-18
 -1      2870 9.45487E-05-2.41693E-05-3.01315E-05-1.01628E-05-2.77569E-20-1.38272E-19
 -1      2871 9.45510E-05-2.47034E-05-2.99726E-05-8.68779E-06 3.65072E-19 7.69862E-19
 -1      2872 9.25150E-05-2.35816E-05-2.95060E-05-7.87675E-06 7.10903E-19 1.02924E-18
 -1      2873 9.31095E-05-2.27387E-05-3.01260E-05-1.32717E-05 4.51402E-19-4.82409E-19
 -1      2874 9.32105E-05-2.32308E-05-3.00444E-05-1.15586E-05 1.64361E-21-1.56974E-19
 -1      2875 9.03379E-05-2.16640E-05-2.93710E-05-1.02622E-05 2.77420E-20 4.35023E-19
 -1      2876 9.11773E-05-2.17035E-05-2.97257E-05-1.69408E-05 3.01272E-19-5.27147E-19
 -1      2877 9.12430E-05-2.18114E-05-2.98204E-05-1.50174E-05 6.24830E-19-4.20989E-19
 -1      2878 8.71990E-05-1.96167E-05-2.88775E-05-1.31312E-05 7.88830E-19 6.39634E-19
 -1      2879 8.93752E-05-2.24730E-05-2.85843E-05-2.10144E-05 7.42917E-19-1.15715E-18
 -1      2880 8.89300E-05-2.13413E-05-2.90178E-05-1.91358E-05 6.50114E-19-8.77645E-19
 -1      2881 8.30480E-05-1.81098E-05-2.77116E-05-1.66889E-05 5.65481E-19 8.33939E-20
 -1      2882 8.94552E-05-2.79502E-05-2.62352E-05-2.51020E-05 1.41552E-18-2.62088E-18
 -1      2883 8.74311E-05-2.36988E-05-2.72080E-05-2.36589E-05 1.16631E-18-1.53240E-18
 -1      2884 7.88543E-05-1.90173E-05-2.53886E-05-2.13911E-05 8.83005E-19-5.47673E-19
 -1      2885 1.00266E-04-4.39398E-05-2.38694E-05-2.77794E-05 1.67257E-18-1.67855E-18
 -1      2886 9.38043E-05-3.42244E-05-2.50428E-05-2.79394E-05 1.03907E-18-1.63281E-18
 -1      2887 7.87952E-05-2.65632E-05-2.23161E-05-2.72962E-05 5.53271E-19-1.48151E-18
 -1      2888 9.42995E-05-4.66880E-05-2.01977E-05-3.02149E-05 2.46645E-18-1.76151E-18
 -1      2889 1.29728E-04-6.21968E-05-2.83946E-05-6.05195E-05 9.92087E-19-2.34056E-18
 -1      2890 1.39554E-04-6.18778E-05-3.34360E-05-4.76770E-05 1.90069E-18-3.53329E-18
 -1      2891 1.32373E-04-4.38632E-06-5.56179E-05-5.87847E-07 2.33336E-18-2.57683E-19
 -1      2892 1.33987E-04-1.56394E-06-5.75172E-05-5.71557E-06 1.13079E-18-1.22933E-18
 -1      2893 1.08784E-04-5.41584E-05-2.34246E-05-6.93208E-05 2.89262E-19-5.36172E-19
 -1      2894 1.43145E-04-6.01528E-05-3.54425E-05-3.31309E-05 2.84659E-18-1.41666E-18
 -1      2895 1.27259E-04-4.44418E-05-3.58601E-05-6.11797E-06 1.18971E-18-7.52748E-19
 -1      2896 1.34503E-04-4.99098E-05-3.62858E-05-1.57594E-05 2.14006E-18-1.08208E-18
 -1      2897 9.69346E-05-2.78172E-05-2.96431E-05 1.27400E-05 5.58804E-19 2.76149E-18
 -1      2898 9.95369E-05-2.88437E-05-3.02610E-05 1.15650E-05 2.91742E-19 3.26279E-18
 -1      2899 9.28523E-05-1.80007E-05-3.20787E-05-8.81454E-06-2.39842E-18-2.06898E-18
 -1      2900 9.47117E-05-2.19078E-05-3.12084E-05 7.83664E-06 2.49084E-18-1.17637E-18
 -1      2901 1.34882E-04-2.05252E-06-5.77565E-05-9.93340E-06 1.85077E-19-2.24425E-18
 -1      2902 1.36692E-04-5.69701E-06-5.67934E-05-1.47653E-05-1.40269E-18-2.51357E-18
 -1      2903 1.25849E-04-2.16010E-06-5.34787E-05-7.55599E-06-1.30655E-19-2.32406E-18
 -1      2904 9.47307E-05-2.74141E-05-2.88527E-05 3.77215E-07 8.87822E-19-8.66574E-19
 -1      2905 9.49100E-05-2.71206E-05-2.90249E-05 9.83287E-07 1.14635E-18-7.38121E-19
 -1      2906 9.51333E-05-2.73807E-05-2.90464E-05 3.63470E-07 8.27591E-19-1.05547E-18
 -1      2907 1.02642E-04-2.96567E-05-3.13601E-05 1.05724E-05 7.83871E-19 4.35662E-18
 -1      2908 1.06971E-04-3.17370E-05-3.22252E-05 7.83625E-06 9.20938E-19 3.59898E-18
 -1      2909 1.00935E-04-2.53451E-05-3.23802E-05 1.12955E-05 6.16488E-19 3.71873E-18
 -1      2910 1.12501E-04-3.45822E-05-3.35960E-05 5.23453E-06 1.81806E-18 1.34077E-18
 -1      2911 1.19129E-04-3.83712E-05-3.45960E-05-1.66378E-07 1.98370E-18-1.08314E-19
 -1      2912 1.26195E-04-3.72288E-05-3.81314E-05 9.62452E-07 2.42956E-18 3.23461E-20
 -1      2913 1.10682E-04-2.87008E-05-3.50974E-05 8.08597E-06 2.25357E-18 2.37897E-18
 -1      2914 1.48848E-04-5.96651E-05-3.88972E-05 4.87175E-06-4.96361E-19 1.27553E-18
 -1      2915 1.41341E-04-6.38353E-05-3.28639E-05 1.66955E-05-1.44472E-19 1.81307E-18
 -1      2916 4.35484E-05-4.19032E-05-1.47436E-06-5.31750E-05 5.50571E-20 2.33823E-18
 -1      2917 5.67042E-05-3.78529E-05-8.30760E-06-6.20587E-05-1.57125E-19 3.19204E-18
 -1      2918 3.60319E-05-3.98985E-05 9.34255E-07-4.32745E-05-7.75035E-20 4.41431E-18
 -1      2919 2.91773E-05-3.42165E-05 1.20507E-06-3.35037E-05-1.32264E-18 5.20375E-18
 -1      2920 1.50731E-04-7.49270E-05-3.22120E-05 2.83826E-05 3.52112E-18-3.54854E-18
 -1      2921 9.11705E-05-1.60844E-05-3.22076E-05 4.91317E-06 1.48872E-18-3.03388E-18
 -1      2922 9.08264E-05-1.55848E-05-3.22681E-05 3.99150E-06 1.07003E-18-3.16258E-18
 -1      2923 9.18034E-05-1.71954E-05-3.19596E-05 3.19483E-06 8.84789E-19-3.02557E-18
 -1      2924 9.24746E-05-1.82567E-05-3.17878E-05 4.61089E-06 1.47437E-18-2.68449E-18
 -1      2925 9.24705E-05-2.73984E-05-2.79200E-05 1.21285E-05 1.02875E-18-4.88766E-19
 -1      2926 9.36510E-05-2.82755E-05-2.80212E-05 1.28402E-05 1.74783E-18 1.54282E-18
 -1      2927 9.49701E-05-2.87690E-05-2.83483E-05 1.27941E-05 6.18679E-19 2.64777E-18
 -1      2928 9.15041E-05-2.54717E-05-2.82544E-05 1.17146E-05-9.68347E-20-6.14817E-19
 -1      2929 9.07901E-05-1.55363E-05-3.22730E-05-3.92849E-06-1.07108E-18-3.24124E-18
 -1      2930 9.11256E-05-1.60229E-05-3.22140E-05-4.85229E-06-1.40534E-18-3.20622E-18
 -1      2931 9.49867E-05-2.66912E-05-2.92749E-05 1.77282E-06 1.47161E-18-8.39066E-19
 -1      2932 9.52530E-05-2.61943E-05-2.95597E-05 2.78059E-06 1.73572E-18-8.43869E-19
 -1      2933 9.52742E-05-2.50218E-05-3.01060E-05 3.81230E-06 1.91882E-18-1.31039E-18
 -1      2934 9.52580E-05-2.65042E-05-2.94734E-05 1.72631E-06 1.31359E-18-1.14111E-18
 -1      2935 1.49106E-04-3.75815E-05-4.85903E-05-1.40676E-05-1.28347E-18-9.94628E-19
 -1      2936 1.50330E-04-4.84280E-05-4.37373E-05-7.43700E-06-9.28401E-19 1.62101E-19
 -1      2937 2.73154E-05-1.42509E-05-5.04837E-06-4.35797E-06 3.46225E-20-1.14498E-18
 -1      2938 3.52794E-05-1.96333E-05-6.02735E-06-1.78557E-05 3.32460E-19 1.91006E-19
 -1      2939 3.02091E-05-1.57834E-05-5.79065E-06 2.50649E-05-7.90705E-19-5.01867E-20
 -1      2940 2.61960E-05-1.31410E-05-4.82957E-06 1.01701E-05-1.51169E-19-1.22608E-19
 -1      2941 9.44097E-05-5.15201E-05-1.84016E-05 4.77183E-05 6.43427E-19-9.56459E-19
 -1      2942 7.87235E-05-4.26499E-05-1.47496E-05 4.76275E-05 7.54600E-19-1.39083E-18
 -1      2943 1.41069E-04-1.43478E-05-5.51593E-05-1.75434E-05-1.95008E-18-2.53655E-18
 -1      2944 1.45016E-04-2.41013E-05-5.21964E-05-1.81508E-05-2.62707E-18-2.16120E-18
 -1      2945 1.27891E-04-6.46901E-05-2.75791E-05 3.26628E-05 1.34149E-18 1.18632E-18
 -1      2946 1.11843E-04-5.89544E-05-2.21512E-05 4.12643E-05 1.37992E-18 5.66513E-19
 -1      2947 1.06318E-04-5.42239E-05-2.19186E-05 4.02037E-05 1.66633E-18 1.35913E-18
 -1      2948 5.84408E-05-3.19654E-05-1.11852E-05 4.55109E-05-1.74171E-19-7.68259E-19
 -1      2949 4.26363E-05-2.24602E-05-7.81067E-06 3.61346E-05-3.07579E-19-1.80630E-19
 -1      2950 9.15551E-05-1.66737E-05-3.21138E-05-5.57350E-06-1.66881E-18-3.07469E-18
 -1      2951 9.20195E-05-1.73947E-05-3.20233E-05-6.43979E-06-1.98690E-18-2.93724E-18
 -1      2952 9.24229E-05-1.81832E-05-3.17968E-05-4.56830E-06-1.40634E-18-2.84795E-18
 -1      2953 9.12765E-05-1.63846E-05-3.20844E-05 2.84292E-08-2.95851E-20-3.08242E-18
 -1      2954 9.01546E-05-1.45953E-05-3.24019E-05-3.82570E-07-1.53308E-19-3.34324E-18
 -1      2955 9.02116E-05-1.46759E-05-3.23920E-05-1.33935E-06-4.27515E-19-3.34661E-18
 -1      2956 9.20703E-05-2.39429E-05-2.91767E-05 1.16635E-05-3.01593E-19 1.25280E-18
 -1      2957 9.42210E-05-2.07505E-05-3.15202E-05-8.18260E-06-2.48734E-18-1.53014E-18
 -1      2958 9.47254E-05-2.26500E-05-3.09129E-05-6.42313E-06-2.25856E-18-1.35198E-18
 -1      2959 9.39960E-05-4.81332E-05-1.91413E-05-7.25745E-05-4.46386E-19 3.15414E-19
 -1      2960 1.34083E-04-6.27731E-05-3.03951E-05 2.07330E-05 1.20427E-18 1.40348E-18
 -1      2961 1.40251E-04-5.40599E-05-3.74315E-05-2.09750E-05 2.43882E-18-1.10559E-18
 -1      2962 1.32511E-04-9.04173E-06-5.36287E-05 2.43528E-06 3.31359E-18 4.07952E-19
 -1      2963 1.24085E-04-5.17674E-06-5.14059E-05 1.05453E-06 1.63223E-18 3.91673E-19
 -1      2964 1.31106E-04-1.42418E-05-5.06156E-05 3.86615E-06 2.60103E-18 4.87573E-19
 -1      2965 1.45235E-04-5.31833E-05-3.95980E-05-4.58774E-06-9.76933E-20 1.81053E-19
 -1      2966 1.46625E-04-4.33140E-05-4.48337E-05-6.20286E-06 1.57768E-18-2.45068E-18
 -1      2967 1.38165E-04-3.35244E-05-4.52503E-05 9.33015E-07 1.96046E-18-4.56339E-19
 -1      2968 1.06333E-04-4.38730E-05-2.60408E-05 5.34676E-05-1.59157E-18-4.07116E-18
 -1      2969 9.51080E-05-2.57968E-05-2.97476E-05 1.25399E-05 4.46998E-19 2.66540E-18
 -1      2970 1.31415E-04-1.03286E-05-5.23416E-05-1.68189E-05-2.06020E-18-2.59420E-18
 -1      2971 9.03375E-05-1.48673E-05-3.23644E-05-2.17515E-06-5.48092E-19-3.22041E-18
 -1      2972 9.05230E-05-1.51315E-05-3.23324E-05-3.12533E-06-9.15958E-19-3.20437E-18
 -1      2973 9.17721E-05-1.71530E-05-3.19646E-05-3.13882E-06-9.22472E-19-3.06196E-18
 -1      2974 9.13953E-05-1.65683E-05-3.20559E-05-1.58099E-06-4.87394E-19-3.17292E-18
 -1      2975 9.43572E-05-2.14227E-05-3.12617E-05 7.21037E-06 2.38137E-18-1.61021E-18
 -1      2976 9.46189E-05-2.24664E-05-3.09143E-05 5.68698E-06 2.13471E-18-1.73132E-18
 -1      2977 4.27775E-05-1.76504E-05-1.00680E-05 2.88257E-05-1.48495E-19-6.70215E-20
 -1      2978 8.26865E-05-4.23319E-05-1.66949E-05-3.24283E-05 1.76606E-18-8.03940E-19
 -1      2979 4.83165E-05-2.27322E-05-1.02919E-05-2.22665E-05 7.20137E-19 4.72644E-19
 -1      2980 3.35118E-05-1.21175E-05-8.41187E-06 2.25414E-06 2.64559E-19-2.88838E-19
 -1      2981 7.21742E-05-3.55780E-05-1.51771E-05 4.34709E-05 3.88788E-19-5.59677E-19
 -1      2982 1.40757E-04-3.08146E-05-4.74167E-05-1.80546E-05-1.15154E-18-1.43974E-18
 -1      2983 9.45406E-05-2.22435E-05-3.09767E-05-5.83008E-06-2.13198E-18-1.82115E-18
 -1      2984 9.27921E-05-1.83848E-05-3.18901E-05-7.47801E-06-2.07387E-18-2.36826E-18
 -1      2985 9.42818E-05-2.18742E-05-3.10601E-05 4.95105E-06 1.78292E-18-1.92736E-18
 -1      2986 9.38027E-05-2.09010E-05-3.12452E-05 4.61221E-06 1.60052E-18-2.14151E-18
 -1      2987 9.34777E-05-1.98228E-05-3.15492E-05-6.19454E-06-1.90626E-18-2.47851E-18
 -1      2988 1.42800E-04-4.78057E-05-4.06043E-05-1.01389E-05 2.84555E-18-9.71441E-19
 -1      2989 4.85939E-05-2.36997E-05-9.59392E-06-5.25607E-05-1.00331E-18 1.79995E-18
 -1      2990 9.52724E-05-2.85784E-05-2.85836E-05-1.09739E-06 2.52049E-19-1.07123E-18
 -1      2991 9.52822E-05-2.84754E-05-2.86256E-05-1.03127E-06 2.17691E-19-1.26376E-18
 -1      2992 1.28638E-04-3.27447E-05-4.12905E-05 1.95263E-06 2.52090E-18-3.63007E-19
 -1      2993 1.30454E-04-2.21662E-05-4.68543E-05 5.91287E-06 2.52691E-18 4.85138E-19
 -1      2994 1.22300E-04-1.54567E-05-4.60966E-05 6.19525E-06 3.32238E-18 1.57040E-18
 -1      2995 1.19006E-04-2.70649E-05-3.96637E-05 6.42954E-06 3.25165E-18 7.07392E-19
 -1      2996 9.54935E-05-2.55610E-05-2.99558E-05-2.13151E-06-1.30790E-18-1.84469E-18
 -1      2997 9.55337E-05-2.62634E-05-2.96999E-05-1.32128E-06-1.05154E-18-1.72192E-18
 -1      2998 9.56785E-05-2.68761E-05-2.94722E-05-7.33728E-07-8.66130E-19-1.43907E-18
 -1      2999 9.56543E-05-2.73243E-05-2.92925E-05-2.08337E-07-6.10659E-19-1.48348E-18
 -1      3000 9.57037E-05-2.61973E-05-2.97897E-05-1.16051E-06-8.53027E-19-1.75765E-18
 -1      3001 9.56978E-05-2.77099E-05-2.91264E-05 1.72246E-07-5.33658E-19-1.44131E-18
 -1      3002 9.56607E-05-2.79965E-05-2.90036E-05 4.87646E-07-5.72553E-19-1.56483E-18
 -1      3003 9.58919E-05-2.73261E-05-2.93883E-05-1.52770E-07-6.54825E-19-1.57071E-18
 -1      3004 9.56525E-05-2.82351E-05-2.88852E-05 7.09577E-07-5.91339E-19-1.55881E-18
 -1      3005 9.56201E-05-2.84164E-05-2.88038E-05 8.77583E-07-6.59618E-19-1.66707E-18
 -1      3006 9.59321E-05-2.80509E-05-2.90955E-05 4.82712E-07-7.26487E-19-1.58547E-18
 -1      3007 9.55877E-05-2.85585E-05-2.87216E-05 9.86533E-07-5.65573E-19-1.51808E-18
 -1      3008 9.55645E-05-2.86697E-05-2.86699E-05 1.05538E-06-6.28019E-19-1.46976E-18
 -1      3009 9.58975E-05-2.85030E-05-2.88868E-05 8.40403E-07-5.60968E-19-1.80209E-18
 -1      3010 9.55226E-05-2.87480E-05-2.86145E-05 1.08817E-06-5.75004E-19-1.11672E-18
 -1      3011 9.55080E-05-2.88120E-05-2.85838E-05 1.09336E-06-4.45484E-19-9.44237E-19
 -1      3012 9.58288E-05-2.87716E-05-2.87417E-05 1.00282E-06-3.63172E-19-1.35878E-18
 -1      3013 9.54643E-05-2.88485E-05-2.85480E-05 1.07790E-06-6.65977E-19-9.03844E-19
 -1      3014 9.54564E-05-2.88808E-05-2.85317E-05 1.04481E-06-4.96513E-19-1.16730E-18
 -1      3015 9.57478E-05-2.89172E-05-2.86441E-05 1.03560E-06-5.18052E-19-1.21959E-18
 -1      3016 9.54150E-05-2.88903E-05-2.85099E-05 1.00131E-06-4.65156E-19-1.24006E-18
 -1      3017 9.54117E-05-2.89017E-05-2.85033E-05 9.47629E-07-5.09744E-19-1.40377E-18
 -1      3018 9.56663E-05-2.89812E-05-2.85813E-05 9.87923E-07-6.34491E-19-1.10131E-18
 -1      3019 9.53744E-05-2.88942E-05-2.84915E-05 8.90266E-07-3.77260E-19-1.26342E-18
 -1      3020 9.53741E-05-2.88921E-05-2.84912E-05 8.28014E-07-2.19323E-19-1.19458E-18
 -1      3021 9.55902E-05-2.89925E-05-2.85434E-05 8.95130E-07-4.32150E-19-7.49339E-19
 -1      3022 9.53416E-05-2.88747E-05-2.84862E-05 7.66381E-07-1.44002E-19-1.14776E-18
 -1      3023 9.53432E-05-2.88643E-05-2.84898E-05 7.03492E-07-6.75438E-20-8.27479E-19
 -1      3024 9.55224E-05-2.89711E-05-2.85231E-05 7.81783E-07-4.72452E-20-6.07636E-19
 -1      3025 9.53155E-05-2.88416E-05-2.84895E-05 6.43846E-07-2.81510E-19-9.76772E-19
 -1      3026 9.53181E-05-2.88263E-05-2.84954E-05 5.85359E-07-5.09363E-19-9.52981E-19
 -1      3027 9.54636E-05-2.89304E-05-2.85151E-05 6.64388E-07-1.95115E-19-1.23945E-18
 -1      3028 9.52950E-05-2.88012E-05-2.84981E-05 5.31612E-07-8.59452E-19-1.04881E-18
 -1      3029 9.52980E-05-2.87833E-05-2.85053E-05 4.80603E-07-9.40596E-19-1.33286E-18
 -1      3030 9.54138E-05-2.88795E-05-2.85154E-05 5.53610E-07-8.72097E-19-1.17210E-18
 -1      3031 9.52788E-05-2.87574E-05-2.85099E-05 4.35111E-07-7.27709E-19-1.29961E-18
 -1      3032 9.52819E-05-2.87382E-05-2.85178E-05 3.93398E-07-4.98627E-19-1.34688E-18
 -1      3033 9.53721E-05-2.88239E-05-2.85211E-05 4.56098E-07-9.23273E-19-1.23090E-18
 -1      3034 9.52658E-05-2.87123E-05-2.85237E-05 3.57552E-07-1.64195E-19-1.36605E-18
 -1      3035 9.52690E-05-2.86925E-05-2.85319E-05 3.26198E-07-2.77760E-19-9.95665E-19
 -1      3036 9.53371E-05-2.87666E-05-2.85306E-05 3.75894E-07-2.95269E-19-1.00696E-18
 -1      3037 9.52553E-05-2.86668E-05-2.85387E-05 3.00844E-07-4.85391E-19-9.41485E-19
 -1      3038 9.52584E-05-2.86465E-05-2.85471E-05 2.80518E-07-4.20512E-19-8.82237E-19
 -1      3039 9.53075E-05-2.87091E-05-2.85424E-05 3.15458E-07-1.62496E-19-1.31422E-18
 -1      3040 9.52462E-05-2.86209E-05-2.85545E-05 2.66264E-07-4.33197E-19-5.79840E-19
 -1      3041 9.52494E-05-2.86000E-05-2.85632E-05 2.57500E-07-2.17906E-19-8.11817E-19
 -1      3042 9.52817E-05-2.86514E-05-2.85560E-05 2.76400E-07-3.00534E-19-9.00068E-19
 -1      3043 9.52381E-05-2.85739E-05-2.85711E-05 2.54938E-07-2.20839E-19-8.24601E-19
 -1      3044 9.52416E-05-2.85524E-05-2.85802E-05 2.58280E-07 2.22352E-19-1.18164E-18
 -1      3045 9.52581E-05-2.85929E-05-2.85709E-05 2.60031E-07-7.97182E-20-9.68261E-19
 -1      3046 9.52304E-05-2.85255E-05-2.85886E-05 2.68109E-07 5.63783E-19-1.62098E-18
 -1      3047 9.52347E-05-2.85033E-05-2.85982E-05 2.84164E-07 9.28037E-19-1.73499E-18
 -1      3048 9.52354E-05-2.85328E-05-2.85869E-05 2.67727E-07 3.05614E-20-1.23507E-18
 -1      3049 9.52234E-05-2.84754E-05-2.86071E-05 3.07211E-07 1.19794E-18-1.74861E-18
 -1      3050 9.52292E-05-2.84529E-05-2.86173E-05 3.36586E-07 9.45283E-19-1.30539E-18
 -1      3051 9.52127E-05-2.84705E-05-2.86038E-05 3.01084E-07 1.02646E-18-1.50438E-18
 -1      3052 9.52179E-05-2.84246E-05-2.86266E-05 3.73748E-07-2.62193E-19-1.30954E-18
 -1      3053 9.52265E-05-2.84029E-05-2.86375E-05 4.16868E-07-9.37241E-19-8.55046E-19
 -1      3054 9.51897E-05-2.84063E-05-2.86215E-05 3.61904E-07 3.59118E-19-2.07674E-18
 -1      3055 9.52162E-05-2.83755E-05-2.86469E-05 4.68918E-07-7.84809E-19-8.37012E-19
 -1      3056 9.52296E-05-2.83571E-05-2.86583E-05 5.25684E-07-1.20855E-19-6.75023E-19
 -1      3057 9.51677E-05-2.83424E-05-2.86395E-05 4.51969E-07-8.25975E-19-1.27050E-18
 -1      3058 9.52226E-05-2.83338E-05-2.86674E-05 5.92935E-07 1.82178E-19-1.00665E-18
 -1      3059 9.52440E-05-2.83228E-05-2.86791E-05 6.62185E-07 2.45549E-19-6.93405E-19
 -1      3060 9.51498E-05-2.82838E-05-2.86571E-05 5.72563E-07-2.55771E-19-6.97611E-19
 -1      3061 9.52449E-05-2.83093E-05-2.86873E-05 7.43932E-07 2.24522E-19-3.41445E-19
 -1      3062 9.52791E-05-2.83124E-05-2.86985E-05 8.22651E-07 1.48000E-19 3.25735E-19
 -1      3063 9.51428E-05-2.82399E-05-2.86732E-05 7.23642E-07 5.23308E-19-9.54743E-19
 -1      3064 9.52954E-05-2.83174E-05-2.87049E-05 9.16339E-07-1.49151E-19 3.40408E-19
 -1      3065 9.53494E-05-2.83448E-05-2.87148E-05 9.98570E-07-1.30974E-19 2.28967E-19
 -1      3066 9.51585E-05-2.82265E-05-2.86861E-05 9.02539E-07 2.55214E-19-5.14225E-19
 -1      3067 9.53931E-05-2.83817E-05-2.87184E-05 1.09858E-06-8.01429E-19 5.00413E-19
 -1      3068 9.54770E-05-2.84476E-05-2.87257E-05 1.17402E-06-8.65456E-19 5.88308E-20
 -1      3069 9.52162E-05-2.82678E-05-2.86940E-05 1.10204E-06-3.64640E-19-4.05321E-19
 -1      3070 9.55656E-05-2.85344E-05-2.87254E-05 1.27000E-06-5.78441E-19 2.64644E-19
 -1      3071 9.56928E-05-2.86572E-05-2.87289E-05 1.32226E-06 3.79449E-20-2.56245E-19
 -1      3072 9.53450E-05-2.83981E-05-2.86946E-05 1.30764E-06-8.57699E-19 5.85077E-19
 -1      3073 9.58507E-05-2.88175E-05-2.87240E-05 1.39687E-06-3.48150E-19-5.92616E-19
 -1      3074 9.60378E-05-2.90190E-05-2.87227E-05 1.40164E-06-6.97183E-19-6.29529E-19
 -1      3075 9.55864E-05-2.86633E-05-2.86863E-05 1.49372E-06-5.59794E-19 3.96493E-19
 -1      3076 9.62960E-05-2.92795E-05-2.87137E-05 1.42778E-06 1.87699E-19-5.25286E-19
 -1      3077 9.65608E-05-2.95815E-05-2.87076E-05 1.35117E-06 7.22708E-19 1.10567E-19
 -1      3078 9.59956E-05-2.91190E-05-2.86689E-05 1.61852E-06-1.57823E-20-6.30763E-19
 -1      3079 9.69550E-05-2.99680E-05-2.86970E-05 1.28886E-06 2.09659E-19 4.14698E-19
 -1      3080 9.73124E-05-3.03856E-05-2.86879E-05 1.08679E-06-7.45425E-19 3.62775E-19
 -1      3081 9.66398E-05-2.98244E-05-2.86458E-05 1.61796E-06 5.64154E-19-3.18824E-19
 -1      3082 9.78760E-05-3.09129E-05-2.86818E-05 8.80682E-07-7.26245E-19 9.14048E-19
 -1      3083 9.83291E-05-3.14417E-05-2.86752E-05 5.00896E-07 2.17428E-19 1.22513E-18
 -1      3084 9.75894E-05-3.08274E-05-2.86264E-05 1.39917E-06 3.72985E-20 5.10676E-19
 -1      3085 9.90796E-05-3.20975E-05-2.86851E-05 8.05820E-08-3.39456E-19 6.37404E-19
 -1      3086 9.96056E-05-3.26941E-05-2.86911E-05-5.29723E-07-3.41763E-19 2.61504E-19
 -1      3087 9.88985E-05-3.21355E-05-2.86295E-05 8.36277E-07-2.23474E-19 1.11261E-19
 -1      3088 1.00521E-04-3.34136E-05-2.87357E-05-1.24166E-06-5.74370E-19 2.01493E-19
 -1      3089 1.01053E-04-3.39712E-05-2.87699E-05-2.11818E-06-1.60641E-19-5.47013E-19
 -1      3090 1.00568E-04-3.36702E-05-2.86877E-05-2.24535E-07-8.64913E-19-1.02740E-19
 -1      3091 1.02037E-04-3.46077E-05-2.88751E-05-3.17955E-06 3.65737E-19-1.12997E-18
 -1      3092 1.02448E-04-3.49382E-05-2.89581E-05-4.30674E-06 6.33752E-19-1.15384E-18
 -1      3093 1.02487E-04-3.52013E-05-2.88491E-05-1.93671E-06-5.33158E-19 6.40785E-19
 -1      3094 1.03304E-04-3.52505E-05-2.91533E-05-5.70550E-06 1.00578E-18-1.00920E-18
 -1      3095 1.03414E-04-3.50905E-05-2.93051E-05-6.97234E-06 6.41150E-19-1.52664E-18
 -1      3096 1.04368E-04-3.62946E-05-2.91746E-05-4.37581E-06 4.94581E-19-2.29513E-19
 -1      3097 1.03834E-04-3.47570E-05-2.96133E-05-8.54336E-06 7.46711E-19-8.65702E-19
 -1      3098 1.03449E-04-3.38369E-05-2.98435E-05-9.68635E-06 3.51191E-19-8.77180E-19
 -1      3099 1.05705E-04-3.63034E-05-2.97244E-05-7.41346E-06 1.15782E-18-1.27702E-18
 -1      3100 1.03105E-04-3.25784E-05-3.02641E-05-1.10333E-05 5.08958E-19-1.18903E-20
 -1      3101 1.02122E-04-3.07726E-05-3.05601E-05-1.16334E-05-5.65262E-20 3.68958E-19
 -1      3102 1.05840E-04-3.45142E-05-3.05251E-05-1.05157E-05 8.17687E-19-1.91321E-19
 -1      3103 1.00856E-04-2.85641E-05-3.10503E-05-1.21238E-05-9.16657E-19 8.38104E-19
 -1      3104 9.94035E-05-2.61226E-05-3.13604E-05-1.17072E-05-2.52841E-19 1.07884E-18
 -1      3105 1.04245E-04-3.05370E-05-3.15361E-05-1.26433E-05 2.33611E-19 2.72862E-18
 -1      3106 9.74817E-05-2.34379E-05-3.18116E-05-1.07526E-05-8.82575E-19 8.34748E-19
 -1      3107 9.59401E-05-2.10419E-05-3.20441E-05-9.05497E-06-7.22853E-19 1.01613E-18
 -1      3108 1.01022E-04-2.48831E-05-3.25944E-05-1.24564E-05-2.67435E-19 2.84763E-18
 -1      3109 9.40749E-05-1.88228E-05-3.23023E-05-6.49685E-06-4.46845E-19 1.45487E-18
 -1      3110 9.29666E-05-1.73932E-05-3.23534E-05-3.73712E-06-3.80769E-19 1.05230E-18
 -1      3111 9.71482E-05-1.91948E-05-3.34045E-05-9.02553E-06-2.56916E-19 1.03610E-18
 -1      3112 9.19451E-05-1.66240E-05-3.22861E-05-2.02119E-07-6.77191E-19 1.78777E-18
 -1      3113 9.16318E-05-1.67867E-05-3.20849E-05 2.86237E-06-1.54251E-18 1.11453E-18
 -1      3114 9.41960E-05-1.57294E-05-3.36422E-05-2.79983E-06-2.04092E-19 2.26580E-18
 -1      3115 9.16271E-05-1.77309E-05-3.16317E-05 6.23031E-06-2.00446E-18 1.69590E-18
 -1      3116 9.20345E-05-1.94056E-05-3.11918E-05 8.76690E-06-5.59618E-19 2.05710E-18
 -1      3117 9.32256E-05-1.60325E-05-3.30941E-05 4.24544E-06-7.53532E-19 3.17394E-18
 -1      3118 9.53172E-05-2.83436E-05-2.87051E-05-9.08793E-07 1.99937E-19-1.45012E-18
 -1      3119 9.53494E-05-2.81701E-05-2.87820E-05-7.28385E-07 1.86264E-19-1.42847E-18
 -1      3120 9.56399E-05-2.84346E-05-2.88064E-05-8.84852E-07 9.68881E-20-1.12009E-18
 -1      3121 9.52228E-05-2.87799E-05-2.84747E-05-1.08126E-06 7.01201E-19-8.93336E-19
 -1      3122 9.52103E-05-2.87451E-05-2.84836E-05-1.11719E-06 6.83466E-19-9.92978E-19
 -1      3123 9.52128E-05-2.88079E-05-2.84583E-05-9.79116E-07 7.54702E-19-5.62559E-19
 -1      3124 9.51958E-05-2.87914E-05-2.84586E-05-1.03546E-06 7.59708E-19-6.18424E-19
 -1      3125 9.54632E-05-2.88901E-05-2.85333E-05-1.04375E-06 7.14441E-19-6.87979E-19
 -1      3126 9.52089E-05-2.88091E-05-2.84560E-05-8.54185E-07 9.55381E-19-1.78035E-19
 -1      3127 9.51902E-05-2.88047E-05-2.84512E-05-9.18881E-07 9.01373E-19-3.86390E-19
 -1      3128 9.54167E-05-2.89080E-05-2.85051E-05-9.44651E-07 7.89868E-19-3.63486E-19
 -1      3129 9.52090E-05-2.87937E-05-2.84627E-05-7.24327E-07 3.30987E-19 1.67483E-19
 -1      3130 9.51905E-05-2.87972E-05-2.84549E-05-7.89466E-07 7.79576E-19-1.07484E-19
 -1      3131 9.53780E-05-2.88964E-05-2.84931E-05-8.24010E-07 8.08263E-19-1.46893E-19
 -1      3132 9.52117E-05-2.87687E-05-2.84746E-05-6.00994E-07 5.99588E-19-1.90993E-19
 -1      3133 9.51943E-05-2.87770E-05-2.84654E-05-6.61577E-07 4.09139E-19-5.81550E-22
 -1      3134 9.53464E-05-2.88674E-05-2.84917E-05-6.99090E-07 4.77122E-19-3.50836E-19
 -1      3135 9.52162E-05-2.87370E-05-2.84902E-05-4.86165E-07 4.51866E-19 2.43790E-19
 -1      3136 9.52000E-05-2.87488E-05-2.84800E-05-5.41445E-07 6.48814E-19-9.23689E-20
 -1      3137 9.53207E-05-2.88277E-05-2.84975E-05-5.78303E-07 4.74565E-19-4.86220E-19
 -1      3138 9.52213E-05-2.87042E-05-2.85065E-05-3.95094E-07 6.39937E-19 3.90090E-19
 -1      3139 9.52074E-05-2.87171E-05-2.84967E-05-4.38331E-07 4.61539E-19 3.95761E-19
 -1      3140 9.53006E-05-2.87832E-05-2.85078E-05-4.71900E-07 4.90983E-19-2.02177E-19
 -1      3141 9.52273E-05-2.86704E-05-2.85236E-05-3.24297E-07-5.07502E-20 6.42186E-19
 -1      3142 9.52147E-05-2.86843E-05-2.85139E-05-3.57129E-07 3.80241E-19 6.43868E-19
 -1      3143 9.52856E-05-2.87379E-05-2.85207E-05-3.86420E-07 3.69862E-19 2.20727E-19
 -1      3144 9.52340E-05-2.86357E-05-2.85413E-05-2.75396E-07-6.34118E-19 8.47699E-19
 -1      3145 9.52223E-05-2.86505E-05-2.85316E-05-2.97083E-07-2.22351E-19 7.50379E-19
 -1      3146 9.52740E-05-2.86920E-05-2.85354E-05-3.21467E-07-1.67105E-19 1.01881E-18
 -1      3147 9.52413E-05-2.85994E-05-2.85599E-05-2.49898E-07-5.85573E-19 1.02045E-18
 -1      3148 9.52301E-05-2.86154E-05-2.85500E-05-2.59663E-07-4.39298E-19 9.24295E-19
 -1      3149 9.52650E-05-2.86451E-05-2.85516E-05-2.78843E-07-7.09057E-19 7.41513E-19
 -1      3150 9.52494E-05-2.85600E-05-2.85801E-05-2.49744E-07 5.31083E-20 6.43480E-19
 -1      3151 9.52379E-05-2.85778E-05-2.85694E-05-2.46508E-07-1.99721E-19 6.14892E-19
 -1      3152 9.52574E-05-2.85959E-05-2.85693E-05-2.60273E-07-3.64440E-19 5.50078E-19
 -1      3153 9.52579E-05-2.85153E-05-2.86028E-05-2.77782E-07-2.20473E-19 2.08739E-19
 -1      3154 9.52456E-05-2.85359E-05-2.85907E-05-2.59922E-07 4.04368E-19 6.51541E-19
 -1      3155 9.52497E-05-2.85422E-05-2.85891E-05-2.67931E-07 2.14570E-19-1.70157E-19
 -1      3156 9.52662E-05-2.84616E-05-2.86291E-05-3.38203E-07-2.45499E-19-3.02452E-19
 -1      3157 9.52526E-05-2.84867E-05-2.86149E-05-3.03320E-07-3.96390E-19-2.34481E-19
 -1      3158 9.52402E-05-2.84803E-05-2.86115E-05-3.04879E-07 1.83585E-20-2.52248E-19
 -1      3159 9.52728E-05-2.83942E-05-2.86604E-05-4.36938E-07-4.29993E-19-2.54422E-19
 -1      3160 9.52576E-05-2.84261E-05-2.86433E-05-3.81664E-07-2.29933E-19-3.69231E-19
 -1      3161 9.52258E-05-2.84053E-05-2.86374E-05-3.75421E-07-1.75415E-19 3.95352E-20
 -1      3162 9.52737E-05-2.83009E-05-2.87003E-05-5.91129E-07-2.63168E-19-5.03181E-19
 -1      3163 9.52572E-05-2.83455E-05-2.86781E-05-5.05338E-07-4.79540E-19-1.09926E-18
 -1      3164 9.52014E-05-2.83080E-05-2.86685E-05-4.89012E-07-3.42165E-19-1.26208E-18
 -1      3165 9.52624E-05-2.81798E-05-2.87469E-05-7.97716E-07-4.72301E-19 3.91564E-19
 -1      3166 9.52473E-05-2.82378E-05-2.87205E-05-6.83408E-07-1.95607E-19 1.91391E-20
 -1      3167 9.51594E-05-2.81789E-05-2.87054E-05-6.51985E-07-5.90126E-19-1.06858E-18
 -1      3168 9.52279E-05-2.80119E-05-2.88035E-05-1.07762E-06-2.81944E-19 7.85195E-19
 -1      3169 9.52175E-05-2.80928E-05-2.87708E-05-9.22180E-07-2.45353E-19 6.07629E-19
 -1      3170 9.50892E-05-2.80086E-05-2.87477E-05-8.69559E-07-6.42499E-19-2.87420E-19
 -1      3171 9.51506E-05-2.77751E-05-2.88713E-05-1.44996E-06-5.12913E-19-3.04620E-20
 -1      3172 9.51524E-05-2.78898E-05-2.88313E-05-1.24175E-06 1.77719E-19 3.60157E-19
 -1      3173 9.49711E-05-2.77741E-05-2.87966E-05-1.15711E-06-2.14416E-19 3.45763E-19
 -1      3174 9.49980E-05-2.74374E-05-2.89501E-05-1.93856E-06-1.46591E-19 9.18235E-20
 -1      3175 9.50255E-05-2.76018E-05-2.89022E-05-1.66267E-06-4.13287E-19 1.22860E-19
 -1      3176 9.47752E-05-2.74470E-05-2.88510E-05-1.52894E-06-1.70734E-19 3.64637E-19
 -1      3177 9.47179E-05-2.69534E-05-2.90372E-05-2.57190E-06-2.99515E-19-2.46153E-19
 -1      3178 9.47939E-05-2.71900E-05-2.89823E-05-2.20995E-06-2.21319E-19 2.18010E-19
 -1      3179 9.44545E-05-2.69874E-05-2.89077E-05-2.00055E-06-3.21997E-19-1.31132E-19
 -1      3180 9.42284E-05-2.62613E-05-2.91244E-05-3.38190E-06-1.18996E-19-1.06899E-19
 -1      3181 9.43899E-05-2.66007E-05-2.90658E-05-2.91243E-06-4.57408E-19-6.72629E-19
 -1      3182 9.39373E-05-2.63401E-05-2.89589E-05-2.58670E-06-4.93773E-20-2.92787E-19
 -1      3183 9.34051E-05-2.52815E-05-2.91929E-05-4.40061E-06 7.65464E-19 7.46462E-19
 -1      3184 9.37099E-05-2.57622E-05-2.91394E-05-3.80080E-06 4.91234E-19 8.79346E-20
 -1      3185 9.31163E-05-2.54329E-05-2.89886E-05-3.29762E-06-3.22270E-19-7.11966E-19
 -1      3186 9.20729E-05-2.39260E-05-2.92060E-05-5.65474E-06 1.60085E-18 5.67957E-19
 -1      3187 9.26006E-05-2.45886E-05-2.91756E-05-4.90375E-06 1.36800E-18 1.13349E-18
 -1      3188 9.18345E-05-2.41767E-05-2.89665E-05-4.13342E-06 8.10892E-19 2.34071E-20
 -1      3189 8.98479E-05-2.20122E-05-2.90779E-05-7.24136E-06 2.16313E-19 6.54577E-20
 -1      3190 9.07824E-05-2.29350E-05-2.91157E-05-6.27172E-06 1.18938E-18 5.22960E-20
 -1      3191 8.98087E-05-2.24322E-05-2.88313E-05-5.10575E-06 1.42043E-18-2.57103E-19
 -1      3192 8.66232E-05-1.97233E-05-2.86854E-05-9.00948E-06 1.18767E-19-1.70537E-19
 -1      3193 8.79955E-05-2.07937E-05-2.88562E-05-7.91290E-06-1.47659E-19 9.47593E-20
 -1      3194 8.67581E-05-2.01484E-05-2.84769E-05-6.13912E-06 3.80688E-19-5.44349E-19
 -1      3195 8.20258E-05-1.72110E-05-2.77923E-05-1.10607E-05 3.40044E-19 3.80816E-19
 -1      3196 8.39696E-05-1.82972E-05-2.82216E-05-9.77789E-06 2.42212E-19-2.06727E-19
 -1      3197 8.24012E-05-1.74306E-05-2.77402E-05-7.17771E-06-4.02249E-19-7.70138E-19
 -1      3198 7.58817E-05-1.51926E-05-2.60031E-05-1.36060E-05 8.03224E-19 6.70301E-19
 -1      3199 7.83310E-05-1.58031E-05-2.68954E-05-1.20110E-05 7.51656E-19 7.89428E-19
 -1      3200 7.62472E-05-1.44760E-05-2.63107E-05-8.28279E-06 3.45701E-19 3.78662E-19
 -1      3201 6.78872E-05-1.53053E-05-2.25593E-05-1.76218E-05 4.15959E-19 5.19761E-19
 -1      3202 7.07393E-05-1.42288E-05-2.43379E-05-1.49611E-05 6.40690E-19 5.90964E-19
 -1      3203 6.78211E-05-1.19784E-05-2.36668E-05-9.63458E-06 5.99974E-19 6.24065E-19
 -1      3204 4.74599E-05-1.62352E-05-1.30263E-05-1.80362E-05 4.15258E-19 1.52572E-19
 -1      3205 6.15810E-05-2.59280E-05-1.47428E-05-2.76150E-05 6.65133E-19 2.57498E-19
 -1      3206 9.52417E-05-2.87105E-05-2.85130E-05-1.13377E-06 4.83633E-19-1.11146E-18
 -1      3207 9.52378E-05-2.86485E-05-2.85351E-05-1.13140E-06 4.42685E-19-1.02064E-18
 -1      3208 9.55174E-05-2.88254E-05-2.85849E-05-1.09551E-06 5.32520E-19-1.18961E-18
 -1      3209 9.40240E-05-2.25171E-05-3.06044E-05 1.12795E-05 2.87924E-19 1.77499E-18
 -1      3210 1.18249E-04-2.57170E-06-5.01166E-05-4.79298E-06-1.58819E-20-1.82527E-18
 -1      3211 1.19450E-04-3.11215E-06-5.03645E-05-1.01449E-05-8.85044E-19-2.69080E-18
 -1      3212 9.54130E-05-2.73456E-05-2.91788E-05 2.62370E-07 7.33771E-19-1.32724E-18
 -1      3213 9.54753E-05-2.69384E-05-2.93576E-05 8.22961E-07 9.36672E-19-1.21638E-18
 -1      3214 9.80923E-05-2.10731E-05-3.30596E-05 1.07221E-05-2.07730E-19 3.33881E-18
 -1      3215 1.01848E-04-2.19037E-05-3.43208E-05 9.61248E-06 1.73033E-19 3.51669E-18
 -1      3216 9.49593E-05-2.35122E-05-3.06199E-05-4.13923E-06-1.78958E-18-2.09728E-18
 -1      3217 9.51567E-05-2.45926E-05-3.02602E-05-2.95781E-06-1.54483E-18-1.99382E-18
 -1      3218 9.52376E-05-2.44615E-05-3.03279E-05-2.61770E-06-1.33800E-18-2.07238E-18
 -1      3219 1.42762E-04-6.57512E-05-3.36603E-05 1.97130E-05 2.30668E-18-2.40271E-18
 -1      3220 9.54370E-05-2.06244E-05-3.20369E-05 1.01797E-05-5.57260E-19 3.73467E-18
 -1      3221 5.11407E-05-1.88640E-05-1.37605E-05 3.13722E-05 1.47172E-20 2.10382E-19
 -1      3222 4.19853E-05-1.22196E-05-1.21256E-05 1.98488E-05-3.26637E-19 9.42536E-19
 -1      3223 9.23609E-05-1.83335E-05-3.17412E-05 1.80887E-06 5.76681E-19-2.94648E-18
 -1      3224 9.22407E-05-1.81310E-05-3.17731E-05 1.05621E-06 2.39925E-19-2.91509E-18
 -1      3225 1.39764E-04-4.68936E-05-4.03530E-05-1.15565E-05 4.00355E-19-9.26231E-19
 -1      3226 1.39522E-04-5.47640E-05-3.63065E-05-2.23808E-06 8.21172E-19 3.14620E-19
 -1      3227 1.35419E-04-6.07802E-05-3.22915E-05 1.15306E-05 6.45889E-19 1.06289E-18
 -1      3228 1.26263E-04-6.03530E-05-2.78607E-05 2.45246E-05 1.42957E-18 6.08408E-19
 -1      3229 7.33284E-05-3.27882E-05-1.67609E-05-3.09341E-05 1.37987E-18-7.76200E-19
 -1      3230 9.52060E-05-2.42694E-05-3.04041E-05 4.26295E-06 1.75336E-18-1.49854E-18
 -1      3231 9.46367E-05-2.27147E-05-3.08076E-05 4.77884E-06 1.79912E-18-1.70551E-18
 -1      3232 9.49615E-05-2.35951E-05-3.05667E-05 3.68888E-06 1.46629E-18-1.62609E-18
 -1      3233 9.52416E-05-2.52015E-05-3.00308E-05 2.97994E-06 1.55831E-18-1.35498E-18
 -1      3234 3.77524E-05-9.53544E-06-1.17544E-05 8.20076E-06 5.10251E-19-5.98746E-19
 -1      3235 4.01832E-05-1.05699E-05-1.20275E-05-6.77581E-06 1.01779E-18-1.03476E-18
 -1      3236 8.17456E-05-3.84478E-05-1.87057E-05 4.13236E-05 1.45086E-18 3.05038E-19
 -1      3237 6.60204E-05-2.76667E-05-1.57827E-05 3.79032E-05 4.76112E-19 1.76659E-19
 -1      3238 1.12918E-04-5.63246E-05-2.46050E-05 3.47124E-05 1.73970E-18 1.55706E-18
 -1      3239 9.94872E-05-4.83462E-05-2.13855E-05 3.90468E-05 1.22730E-18 1.53954E-18
 -1      3240 9.53717E-05-2.79558E-05-2.88966E-05-4.86031E-07 3.77861E-19-1.50418E-18
 -1      3241 9.54261E-05-2.76973E-05-2.90135E-05-1.55054E-07 6.33935E-19-1.29442E-18
 -1      3242 9.56888E-05-2.73321E-05-2.93009E-05 2.13016E-07 6.91455E-19-1.51037E-18
 -1      3243 1.31542E-04-2.43968E-05-4.65641E-05-1.98404E-05-1.31380E-18-1.49620E-18
 -1      3244 1.36381E-04-3.49189E-05-4.35059E-05-1.79989E-05-3.16526E-19-1.15387E-18
 -1      3245 1.22226E-04-6.89327E-06-5.00241E-05-1.48037E-05-1.53493E-18-2.37762E-18
 -1      3246 1.26771E-04-1.39924E-05-4.86183E-05-1.91070E-05-1.91959E-18-1.69237E-18
 -1      3247 7.27279E-05-2.75164E-05-1.89333E-05-2.74159E-05 3.26849E-19-1.07886E-18
 -1      3248 9.21804E-05-1.80310E-05-3.17913E-05 4.07596E-07 2.40910E-20-2.88300E-18
 -1      3249 9.21766E-05-1.80260E-05-3.17918E-05-3.59727E-07-2.63801E-19-2.89711E-18
 -1      3250 9.31333E-05-1.96147E-05-3.14904E-05 6.27026E-07 7.21910E-20-2.71780E-18
 -1      3251 4.72493E-05-1.07525E-05-1.52151E-05 1.18758E-05 4.84159E-19-2.91697E-19
 -1      3252 9.55775E-05-2.86885E-05-2.86700E-05-1.06243E-06 2.73872E-19-1.00317E-18
 -1      3253 9.56879E-05-2.80064E-05-2.90112E-05-4.86566E-07 3.18162E-19-1.53512E-18
 -1      3254 5.87639E-05-1.38627E-05-1.90365E-05-1.42122E-05 8.84620E-19-4.13987E-19
 -1      3255 5.36967E-05-9.48545E-06-1.85766E-05-6.22382E-06 1.07402E-18-9.33007E-19
 -1      3256 6.88738E-05-1.94423E-05-2.04797E-05-2.39731E-05 3.77168E-19 1.01591E-19
 -1      3257 1.19283E-04-5.59085E-05-2.69362E-05 2.50929E-05 1.54337E-18 5.48057E-19
 -1      3258 1.36227E-04-5.76482E-05-3.37160E-05 3.13315E-06 8.74601E-19-1.48204E-19
 -1      3259 1.29148E-04-5.63127E-05-3.12385E-05 8.30062E-06 6.90411E-19-1.03529E-18
 -1      3260 1.32225E-04-5.13312E-05-3.46857E-05-4.61115E-06 8.06614E-19-1.75025E-18
 -1      3261 1.23846E-04-1.98305E-05-4.48138E-05-1.91572E-05-1.12894E-18-1.33066E-18
 -1      3262 9.43308E-05-2.19710E-05-3.09889E-05 3.62263E-06 1.33013E-18-2.10703E-18
 -1      3263 9.34252E-05-2.02066E-05-3.14041E-05 4.23780E-06 1.41402E-18-2.45977E-18
 -1      3264 9.30648E-05-1.95445E-05-3.15175E-05 3.64683E-06 1.14458E-18-2.60397E-18
 -1      3265 9.39945E-05-2.12760E-05-3.11689E-05-5.12474E-06-1.89537E-18-2.43210E-18
 -1      3266 1.32988E-04-3.98781E-05-4.00461E-05-1.53244E-05 4.70897E-19-8.87717E-19
 -1      3267 1.15936E-04-6.94160E-06-4.70231E-05-1.22422E-05-9.51694E-19-2.02098E-18
 -1      3268 1.16771E-04-6.64424E-06-4.75899E-05 1.93740E-06 6.56451E-19-4.75358E-19
 -1      3269 1.17442E-04-3.83894E-06-4.92086E-05-1.34511E-06-3.98317E-19-8.55483E-19
 -1      3270 1.12238E-04-4.40515E-06-4.64442E-05-3.07073E-06-1.14222E-18-1.68265E-18
 -1      3271 9.30333E-05-1.94937E-05-3.15257E-05-3.60488E-06-1.16239E-18-2.56212E-18
 -1      3272 9.33905E-05-2.01496E-05-3.14152E-05-4.21824E-06-1.48791E-18-2.56564E-18
 -1      3273 1.05917E-04-2.21591E-05-3.59559E-05 9.52646E-06 1.91366E-18 2.11909E-18
 -1      3274 1.12254E-04-2.47802E-05-3.75842E-05 7.26576E-06 2.79587E-18 8.27326E-19
 -1      3275 1.14120E-04-1.98271E-05-4.04882E-05 8.21709E-06 3.36251E-18 5.30150E-19
 -1      3276 1.02995E-04-1.78152E-05-3.66110E-05 8.92958E-06 8.30933E-19 1.27866E-18
 -1      3277 9.25364E-05-1.86289E-05-3.16855E-05 2.41787E-06 7.58147E-19-2.95081E-18
 -1      3278 9.33477E-05-2.00036E-05-3.14145E-05 1.79805E-06 6.30130E-19-2.71485E-18
 -1      3279 9.27758E-05-1.90446E-05-3.16183E-05 3.11887E-06 1.02037E-18-2.77237E-18
 -1      3280 6.33884E-05-2.22675E-05-1.72009E-05 3.07368E-05 6.73709E-19 5.04567E-19
 -1      3281 9.61063E-05-1.71624E-05-3.37676E-05 8.63634E-06-4.37491E-19 3.30138E-18
 -1      3282 9.25156E-05-1.85962E-05-3.16899E-05-2.36879E-06-7.31928E-19-2.94413E-18
 -1      3283 9.27463E-05-1.89996E-05-3.16242E-05-3.08010E-06-9.79440E-19-2.85130E-18
 -1      3284 9.37227E-05-2.07450E-05-3.12621E-05-2.79064E-06-1.05272E-18-2.51956E-18
 -1      3285 9.39547E-05-2.12146E-05-3.11682E-05-4.43754E-06-1.65083E-18-2.50009E-18
 -1      3286 9.53839E-05-2.64916E-05-2.95326E-05 1.35886E-06 1.14818E-18-1.25548E-18
 -1      3287 9.54338E-05-2.58849E-05-2.97921E-05 2.23376E-06 1.40429E-18-1.21620E-18
 -1      3288 9.53549E-05-2.52289E-05-3.00710E-05 2.58811E-06 1.40623E-18-1.38068E-18
 -1      3289 9.55798E-05-2.63978E-05-2.96540E-05 1.22741E-06 1.05576E-18-1.43025E-18
 -1      3290 9.20144E-05-4.13335E-05-2.14057E-05 3.60171E-05 1.69293E-18 1.79920E-18
 -1      3291 1.25471E-04-3.34738E-05-3.98505E-05-1.80176E-05-4.45883E-19 7.49492E-20
 -1      3292 1.29283E-04-4.24331E-05-3.72313E-05-1.33066E-05 3.48025E-19-1.19219E-18
 -1      3293 9.56688E-05-2.55159E-05-3.00604E-05-1.49059E-06-8.23837E-19-1.97519E-18
 -1      3294 9.58257E-05-2.62572E-05-2.98252E-05-8.66047E-07-7.28633E-19-1.88343E-18
 -1      3295 5.03735E-05-1.30903E-05-1.57468E-05-1.26517E-05 7.81361E-19-7.36919E-20
 -1      3296 9.60283E-05-2.69084E-05-2.96141E-05-4.38134E-07-6.66566E-19-1.82238E-18
 -1      3297 9.60771E-05-2.74020E-05-2.94398E-05-2.41809E-08-6.51733E-19-1.82549E-18
 -1      3298 9.59825E-05-2.62920E-05-2.98660E-05-7.04229E-07-6.80025E-19-1.85493E-18
 -1      3299 9.61591E-05-2.78234E-05-2.92791E-05 2.55266E-07-7.13032E-19-1.81602E-18
 -1      3300 9.61542E-05-2.81429E-05-2.91523E-05 5.07437E-07-7.17067E-19-1.90746E-18
 -1      3301 9.62603E-05-2.74536E-05-2.94890E-05 2.33232E-08-6.74320E-19-1.97235E-18
 -1      3302 9.61629E-05-2.84068E-05-2.90326E-05 6.68514E-07-6.79184E-19-1.82493E-18
 -1      3303 9.61327E-05-2.86058E-05-2.89425E-05 8.02949E-07-3.68093E-19-1.59935E-18
 -1      3304 9.63512E-05-2.82152E-05-2.92027E-05 4.83562E-07-5.88882E-19-1.78741E-18
 -1      3305 9.60993E-05-2.87612E-05-2.88552E-05 8.78321E-07-2.57251E-19-1.59422E-18
 -1      3306 9.60587E-05-2.88774E-05-2.87928E-05 9.31625E-07-2.35302E-19-1.52797E-18
 -1      3307 9.63284E-05-2.86901E-05-2.89899E-05 7.38765E-07-3.82409E-19-1.61269E-18
 -1      3308 9.60036E-05-2.89592E-05-2.87307E-05 9.48822E-07-3.59505E-19-1.65929E-18
 -1      3309 9.59606E-05-2.90192E-05-2.86890E-05 9.49388E-07-5.66161E-19-1.44446E-18
 -1      3310 9.62423E-05-2.89653E-05-2.88352E-05 8.47888E-07-3.77998E-19-1.74178E-18
 -1      3311 9.58965E-05-2.90520E-05-2.86461E-05 9.29843E-07-6.02750E-19-1.33729E-18
 -1      3312 9.58553E-05-2.90748E-05-2.86195E-05 8.98617E-07-4.36425E-19-1.35279E-18
 -1      3313 9.61257E-05-2.91041E-05-2.87256E-05 8.59599E-07-4.01413E-19-1.64374E-18
 -1      3314 9.57903E-05-2.90762E-05-2.85909E-05 8.58109E-07-4.09399E-19-1.11879E-18
 -1      3315 9.57529E-05-2.90750E-05-2.85752E-05 8.09973E-07-1.86871E-19-9.07191E-19
 -1      3316 9.59988E-05-2.91525E-05-2.86503E-05 8.11177E-07-3.05709E-19-1.45787E-18
 -1      3317 9.56914E-05-2.90570E-05-2.85573E-05 7.59659E-07-1.95296E-19-1.22151E-18
 -1      3318 9.56588E-05-2.90411E-05-2.85493E-05 7.04868E-07-1.55987E-19-1.31057E-18
 -1      3319 9.58742E-05-2.91430E-05-2.86008E-05 7.29766E-07-3.10641E-19-1.55473E-18
 -1      3320 9.56032E-05-2.90122E-05-2.85390E-05 6.52348E-07-1.48002E-19-1.54494E-18
 -1      3321 9.55753E-05-2.89878E-05-2.85363E-05 5.97708E-07-4.64349E-19-1.80165E-18
 -1      3322 9.57587E-05-2.90983E-05-2.85701E-05 6.34438E-07-2.80858E-19-1.86486E-18
 -1      3323 9.55265E-05-2.89533E-05-2.85316E-05 5.47901E-07-6.54640E-19-1.51963E-18
 -1      3324 9.55031E-05-2.89246E-05-2.85325E-05 4.97764E-07-1.00979E-18-1.42709E-18
 -1      3325 9.56557E-05-2.90339E-05-2.85533E-05 5.38005E-07-3.95808E-19-1.63017E-18
 -1      3326 9.54611E-05-2.88879E-05-2.85318E-05 4.53767E-07-7.99346E-19-1.20035E-18
 -1      3327 9.54416E-05-2.88572E-05-2.85351E-05 4.10853E-07-5.45116E-19-9.90967E-19
 -1      3328 9.55659E-05-2.89597E-05-2.85464E-05 4.48734E-07-6.01158E-19-1.22692E-18
 -1      3329 9.54054E-05-2.88201E-05-2.85371E-05 3.74581E-07-6.21519E-19-6.48575E-19
 -1      3330 9.53890E-05-2.87887E-05-2.85420E-05 3.40563E-07-2.80333E-19-8.24993E-19
 -1      3331 9.54885E-05-2.88816E-05-2.85465E-05 3.71891E-07-3.00649E-19-1.02755E-18
 -1      3332 9.53577E-05-2.87518E-05-2.85459E-05 3.13211E-07-2.17956E-19-7.84807E-19
 -1      3333 9.53437E-05-2.87202E-05-2.85520E-05 2.89143E-07-1.56924E-19-7.68385E-19
 -1      3334 9.54217E-05-2.88025E-05-2.85516E-05 3.10794E-07-4.21059E-19-4.60591E-19
 -1      3335 9.53157E-05-2.86835E-05-2.85573E-05 2.71505E-07-9.94944E-20-9.99494E-19
 -1      3336 9.53033E-05-2.86515E-05-2.85642E-05 2.58142E-07-6.35863E-20-1.01557E-18
 -1      3337 9.53629E-05-2.87232E-05-2.85602E-05 2.67588E-07-2.85802E-19-2.96213E-19
 -1      3338 9.52772E-05-2.86144E-05-2.85705E-05 2.50911E-07-1.00483E-19-8.70689E-19
 -1      3339 9.52656E-05-2.85816E-05-2.85780E-05 2.48956E-07-9.45965E-20-1.25349E-18
 -1      3340 9.53093E-05-2.86433E-05-2.85713E-05 2.43863E-07-1.01360E-19-1.05714E-18
 -1      3341 9.52398E-05-2.85434E-05-2.85850E-05 2.52924E-07 2.30280E-19-1.19478E-18
 -1      3342 9.52284E-05-2.85092E-05-2.85931E-05 2.63150E-07 6.13405E-19-1.10476E-18
 -1      3343 9.52579E-05-2.85615E-05-2.85842E-05 2.41194E-07 2.13017E-19-1.34739E-18
 -1      3344 9.52017E-05-2.84693E-05-2.86005E-05 2.79311E-07 6.78939E-19-5.84680E-19
 -1      3345 9.51900E-05-2.84337E-05-2.86090E-05 3.02609E-07 1.02716E-18-1.17713E-18
 -1      3346 9.52057E-05-2.84762E-05-2.85983E-05 2.61436E-07 7.12551E-19-8.34449E-19
 -1      3347 9.51613E-05-2.83918E-05-2.86165E-05 3.32220E-07 8.92278E-19-1.19413E-18
 -1      3348 9.51497E-05-2.83551E-05-2.86253E-05 3.69562E-07-3.66292E-21-9.18982E-19
 -1      3349 9.51505E-05-2.83866E-05-2.86129E-05 3.06898E-07 7.01640E-19-7.04043E-19
 -1      3350 9.51187E-05-2.83119E-05-2.86326E-05 4.14140E-07-7.34987E-19-8.01607E-19
 -1      3351 9.51082E-05-2.82758E-05-2.86413E-05 4.66434E-07-8.66174E-19-6.33281E-19
 -1      3352 9.50909E-05-2.82930E-05-2.86274E-05 3.80451E-07-6.14596E-21-6.26706E-19
 -1      3353 9.50758E-05-2.82337E-05-2.86478E-05 5.27665E-07-6.31499E-19-4.81451E-19
 -1      3354 9.50687E-05-2.82017E-05-2.86559E-05 5.95475E-07 1.32305E-19-4.76595E-19
 -1      3355 9.50274E-05-2.81985E-05-2.86407E-05 4.85482E-07-3.96079E-19-3.35113E-19
 -1      3356 9.50381E-05-2.81653E-05-2.86609E-05 6.75001E-07 4.26680E-19-5.19516E-19
 -1      3357 9.50389E-05-2.81438E-05-2.86677E-05 7.58089E-07 7.46037E-19-5.65990E-19
 -1      3358 9.49638E-05-2.81102E-05-2.86515E-05 6.25676E-07 2.22482E-19-3.88678E-19
 -1      3359 9.50161E-05-2.81211E-05-2.86703E-05 8.57113E-07 6.96074E-19-7.96139E-19
 -1      3360 9.50327E-05-2.81202E-05-2.86748E-05 9.53728E-07 1.37565E-19-7.04397E-19
 -1      3361 9.49090E-05-2.80414E-05-2.86579E-05 8.04534E-07 6.34277E-19-6.07262E-19
 -1      3362 9.50285E-05-2.81243E-05-2.86737E-05 1.07232E-06-4.40044E-19-8.10950E-19
 -1      3363 9.50728E-05-2.81593E-05-2.86749E-05 1.17815E-06-3.07988E-19-6.08131E-19
 -1      3364 9.48796E-05-2.80142E-05-2.86577E-05 1.02445E-06 1.36921E-19-1.36622E-18
 -1      3365 9.51048E-05-2.82092E-05-2.86689E-05 1.31408E-06-2.61169E-19 3.43797E-20
 -1      3366 9.51946E-05-2.83015E-05-2.86658E-05 1.42075E-06-1.23498E-19 3.83827E-19
 -1      3367 9.49032E-05-2.80622E-05-2.86485E-05 1.28509E-06 1.38064E-19-5.88137E-19
 -1      3368 9.52889E-05-2.84237E-05-2.86542E-05 1.56761E-06-8.48638E-19 3.45581E-19
 -1      3369 9.54488E-05-2.86012E-05-2.86461E-05 1.66057E-06-9.48052E-19-2.67723E-20
 -1      3370 9.50227E-05-2.82339E-05-2.86281E-05 1.58059E-06-3.19834E-19-1.72495E-19
 -1      3371 9.56425E-05-2.88293E-05-2.86291E-05 1.80475E-06-5.05980E-19 2.76495E-20
 -1      3372 9.59039E-05-2.91252E-05-2.86167E-05 1.86048E-06-3.83394E-20 1.10421E-19
 -1      3373 9.53006E-05-2.85937E-05-2.85960E-05 1.89494E-06-7.46997E-19 5.71141E-19
 -1      3374 9.62454E-05-2.94983E-05-2.85966E-05 1.97670E-06 5.02079E-20-6.78689E-19
 -1      3375 9.66443E-05-2.99466E-05-2.85829E-05 1.95926E-06 2.72826E-19-7.70753E-19
 -1      3376 9.58217E-05-2.92212E-05-2.85546E-05 2.19451E-06-6.94444E-19 6.50271E-20
 -1      3377 9.71916E-05-3.05029E-05-2.85658E-05 2.00425E-06 6.77949E-19-1.07596E-18
 -1      3378 9.77620E-05-3.11283E-05-2.85578E-05 1.86171E-06 2.59564E-19-5.29245E-19
 -1      3379 9.66926E-05-3.02034E-05-2.85124E-05 2.41708E-06 1.92912E-19-1.44436E-18
 -1      3380 9.85743E-05-3.18917E-05-2.85558E-05 1.76607E-06-3.27531E-19-2.53732E-19
 -1      3381 9.93338E-05-3.26902E-05-2.85666E-05 1.42841E-06-2.89006E-19-5.54245E-19
 -1      3382 9.80325E-05-3.16155E-05-2.84877E-05 2.45629E-06 2.17464E-20-1.58147E-18
 -1      3383 1.00452E-04-3.36449E-05-2.86008E-05 1.09036E-06-2.38180E-19-2.80495E-19
 -1      3384 1.01377E-04-3.45534E-05-2.86516E-05 4.74064E-07-3.51312E-19 1.09669E-19
 -1      3385 9.99464E-05-3.34793E-05-2.85149E-05 2.14336E-06 3.39486E-19-3.35299E-19
 -1      3386 1.02788E-04-3.56057E-05-2.87550E-05-2.39565E-07-6.65067E-19 6.41056E-19
 -1      3387 1.03780E-04-3.64555E-05-2.88761E-05-1.21317E-06-5.38904E-19 4.69589E-19
 -1      3388 1.02471E-04-3.56961E-05-2.86502E-05 1.23860E-06-2.49950E-19-2.11059E-19
 -1      3389 1.05356E-04-3.73816E-05-2.90936E-05-2.42745E-06-3.78222E-19 1.06653E-18
 -1      3390 1.06218E-04-3.78797E-05-2.93205E-05-3.77904E-06 3.72232E-19 4.23310E-19
 -1      3391 1.05482E-04-3.79340E-05-2.89766E-05-5.47784E-07-8.14483E-20 1.10110E-18
 -1      3392 1.07654E-04-3.82928E-05-2.97041E-05-5.55989E-06 1.04066E-18 8.20894E-21
 -1      3393 1.08063E-04-3.79884E-05-3.00680E-05-7.17496E-06 1.33214E-18 2.63694E-19
 -1      3394 1.08571E-04-3.95104E-05-2.96016E-05-3.46109E-06 6.24371E-19 1.59683E-18
 -1      3395 1.08860E-04-3.73673E-05-3.06514E-05-9.31119E-06 1.45891E-18 3.62006E-19
 -1      3396 1.08491E-04-3.58395E-05-3.11554E-05-1.08272E-05 1.44953E-18 1.21036E-18
 -1      3397 1.10920E-04-3.94261E-05-3.06240E-05-7.45852E-06 1.70130E-18 9.31369E-19
 -1      3398 1.08084E-04-3.37066E-05-3.19353E-05-1.27265E-05 1.21175E-18 2.60453E-18
 -1      3399 1.06790E-04-3.07941E-05-3.25404E-05-1.34613E-05 1.01114E-18 3.59864E-18
 -1      3400 1.11419E-04-3.63901E-05-3.20831E-05-1.18436E-05 2.17633E-18 2.96835E-18
 -1      3401 1.04971E-04-2.73224E-05-3.34030E-05-1.40409E-05 2.11794E-19 3.42373E-18
 -1      3402 1.03047E-04-2.36308E-05-3.39785E-05-1.33288E-05 1.46543E-19 3.32127E-18
 -1      3403 1.09226E-04-2.99974E-05-3.38661E-05-1.48234E-05 4.19546E-19 3.02241E-18
 -1      3404 1.00458E-04-1.97923E-05-3.46937E-05-1.17761E-05-5.93530E-19 2.92105E-18
 -1      3405 9.85381E-05-1.66658E-05-3.50434E-05-9.33010E-06-4.37354E-19 2.51820E-18
 -1      3406 1.04926E-04-2.18190E-05-3.55885E-05-1.41085E-05-3.00632E-19 3.40921E-18
 -1      3407 9.65434E-05-1.42660E-05-3.53196E-05-5.59399E-06 4.94455E-20 1.86436E-18
 -1      3408 9.54952E-05-1.32354E-05-3.52610E-05-2.07411E-06-2.72175E-19 1.91715E-18
 -1      3409 1.00104E-04-1.43932E-05-3.67476E-05-8.82167E-06-5.35765E-19 2.06064E-18
 -1      3410 9.51619E-05-1.33689E-05-3.50602E-05 1.94021E-06-2.62779E-20 1.29892E-18
 -1      3411 9.51065E-05-1.47122E-05-3.45424E-05 5.15756E-06-2.48359E-19 2.84871E-18
 -1      3412 9.81615E-05-1.43260E-05-3.58674E-05 6.47527E-06 3.32196E-21 1.77503E-18
 -1      3413 9.78334E-05-1.18938E-05-3.68706E-05-9.59775E-07-9.56634E-20 1.00107E-18
 -1      3414 9.59135E-05-2.85391E-05-2.88774E-05-8.57891E-07 4.38412E-20-1.23539E-18
 -1      3415 9.59464E-05-2.83410E-05-2.89670E-05-7.04970E-07-2.65277E-21-1.21580E-18
 -1      3416 9.56064E-05-2.90009E-05-2.85441E-05-8.71829E-07 6.99284E-19-4.34747E-19
 -1      3417 9.56289E-05-2.89974E-05-2.85556E-05-9.23750E-07 5.08649E-19-5.42537E-19
 -1      3418 9.56836E-05-2.89936E-05-2.85807E-05-9.67155E-07 5.06132E-19-7.91443E-19
 -1      3419 9.57104E-05-2.89681E-05-2.86023E-05-1.00122E-06 5.57462E-19-8.82398E-19
 -1      3420 9.58548E-05-2.90813E-05-2.86191E-05-8.92610E-07 3.86591E-19-9.45199E-19
 -1      3421 9.54770E-05-2.89344E-05-2.85171E-05-6.42505E-07 4.13861E-19-4.46870E-19
 -1      3422 9.54918E-05-2.89527E-05-2.85170E-05-7.01313E-07 6.49819E-19-1.32376E-19
 -1      3423 9.54240E-05-2.88799E-05-2.85178E-05-5.28992E-07 3.89029E-19-5.40022E-19
 -1      3424 9.54363E-05-2.89037E-05-2.85144E-05-5.85438E-07 3.94317E-19-7.33898E-19
 -1      3425 9.55723E-05-2.89877E-05-2.85373E-05-5.89597E-07 5.66459E-19-7.79240E-19
 -1      3426 9.53820E-05-2.88237E-05-2.85239E-05-4.35016E-07 3.12724E-19-5.40240E-20
 -1      3427 9.53909E-05-2.88484E-05-2.85187E-05-4.81069E-07 2.34257E-19-2.42339E-19
 -1      3428 9.54996E-05-2.89223E-05-2.85340E-05-4.88514E-07 2.30985E-19-2.30596E-19
 -1      3429 9.53475E-05-2.87663E-05-2.85338E-05-3.58689E-07 1.97071E-19 3.34532E-19
 -1      3430 9.53544E-05-2.87920E-05-2.85273E-05-3.95388E-07 4.62238E-19 1.55279E-19
 -1      3431 9.54398E-05-2.88546E-05-2.85372E-05-4.03781E-07 3.55521E-20 1.03358E-19
 -1      3432 9.53189E-05-2.87086E-05-2.85463E-05-3.02347E-07-4.64294E-19 6.95485E-19
 -1      3433 9.53241E-05-2.87348E-05-2.85389E-05-3.28563E-07-6.79379E-20 4.92672E-19
 -1      3434 9.53893E-05-2.87858E-05-2.85448E-05-3.36100E-07-1.06780E-19-3.14903E-20
 -1      3435 9.52943E-05-2.86497E-05-2.85611E-05-2.67784E-07-6.71123E-19 4.06046E-19
 -1      3436 9.52985E-05-2.86769E-05-2.85528E-05-2.82613E-07-7.92215E-19 3.87020E-19
 -1      3437 9.53459E-05-2.87164E-05-2.85558E-05-2.87808E-07-5.23871E-19 9.42229E-20
 -1      3438 9.52716E-05-2.85879E-05-2.85778E-05-2.56757E-07-1.82609E-19-2.18654E-19
 -1      3439 9.52754E-05-2.86169E-05-2.85687E-05-2.59224E-07-2.53316E-19 2.82370E-19
 -1      3440 9.53068E-05-2.86452E-05-2.85695E-05-2.60703E-07-5.42923E-19-4.28286E-19
 -1      3441 9.52482E-05-2.85198E-05-2.85969E-05-2.71457E-07 4.95370E-20-3.51757E-19
 -1      3442 9.52524E-05-2.85523E-05-2.85866E-05-2.60283E-07 1.33995E-19-3.91956E-19
 -1      3443 9.52688E-05-2.85695E-05-2.85855E-05-2.56537E-07 1.27683E-19-4.71596E-19
 -1      3444 9.52205E-05-2.84412E-05-2.86187E-05-3.14847E-07-1.92437E-19-1.43997E-19
 -1      3445 9.52263E-05-2.84793E-05-2.86069E-05-2.88275E-07 1.65481E-19-1.45380E-19
 -1      3446 9.52280E-05-2.84853E-05-2.86039E-05-2.77430E-07 9.95023E-21-1.64706E-19
 -1      3447 9.51839E-05-2.83458E-05-2.86437E-05-3.90875E-07 2.02565E-19-7.53812E-19
 -1      3448 9.51930E-05-2.83926E-05-2.86300E-05-3.46565E-07 6.08078E-20-1.68152E-19
 -1      3449 9.51789E-05-2.83869E-05-2.86248E-05-3.26081E-07 2.00859E-19-3.91508E-19
 -1      3450 9.51277E-05-2.82185E-05-2.86740E-05-5.11619E-07-3.00968E-19-1.63873E-18
 -1      3451 9.51445E-05-2.82817E-05-2.86572E-05-4.42172E-07 1.01412E-19-1.20691E-18
 -1      3452 9.51128E-05-2.82637E-05-2.86491E-05-4.08477E-07 5.99230E-19-1.10355E-18
 -1      3453 9.50460E-05-2.80593E-05-2.87073E-05-6.72166E-07-9.50516E-19-1.19465E-18
 -1      3454 9.50733E-05-2.81388E-05-2.86885E-05-5.80551E-07-9.04397E-19-1.47178E-18
 -1      3455 9.50200E-05-2.81064E-05-2.86761E-05-5.27326E-07-8.50385E-19-1.25071E-18
 -1      3456 9.49205E-05-2.78467E-05-2.87447E-05-8.84688E-07-6.34943E-19-7.56486E-19
 -1      3457 9.49669E-05-2.79534E-05-2.87230E-05-7.63046E-07-3.54830E-19-7.44217E-19
 -1      3458 9.48891E-05-2.79065E-05-2.87049E-05-6.83321E-07-8.77918E-19-1.23818E-18
 -1      3459 9.47260E-05-2.75580E-05-2.87853E-05-1.15711E-06-4.43152E-19-5.52084E-19
 -1      3460 9.48034E-05-2.77038E-05-2.87611E-05-9.99926E-07-8.73971E-19-1.01921E-18
 -1      3461 9.46967E-05-2.76413E-05-2.87349E-05-8.82286E-07-9.20198E-19-1.42826E-18
 -1      3462 9.44239E-05-2.71618E-05-2.88263E-05-1.49661E-06-2.76510E-19-1.28415E-19
 -1      3463 9.45517E-05-2.73629E-05-2.88007E-05-1.29817E-06-1.80040E-19-1.56493E-19
 -1      3464 9.44118E-05-2.72852E-05-2.87636E-05-1.12583E-06-6.58439E-19-7.40453E-19
 -1      3465 9.39565E-05-2.66148E-05-2.88619E-05-1.90739E-06-1.81832E-19 2.35432E-19
 -1      3466 9.41642E-05-2.68939E-05-2.88378E-05-1.66278E-06-8.52140E-20 2.99051E-19
 -1      3467 9.39885E-05-2.68033E-05-2.87859E-05-1.41114E-06-2.25403E-19-2.16644E-19
 -1      3468 9.32381E-05-2.58599E-05-2.88802E-05-2.38666E-06 4.12931E-20 1.94984E-19
 -1      3469 9.35707E-05-2.62468E-05-2.88635E-05-2.09371E-06-3.23174E-20 3.30573E-19
 -1      3470 9.33600E-05-2.61496E-05-2.87925E-05-1.72698E-06-1.50308E-19 2.98723E-19
 -1      3471 9.21436E-05-2.48240E-05-2.88595E-05-2.91821E-06-1.62127E-19-2.34163E-19
 -1      3472 9.26678E-05-2.53567E-05-2.88617E-05-2.58074E-06 1.29976E-19-2.13433E-19
 -1      3473 9.24308E-05-2.52656E-05-2.87668E-05-2.04739E-06 4.67144E-19 1.93132E-19
 -1      3474 9.04985E-05-2.34243E-05-2.87621E-05-3.46453E-06 1.06502E-18-4.55763E-19
 -1      3475 9.13075E-05-2.41455E-05-2.88033E-05-3.09592E-06 4.02165E-19-8.59577E-19
 -1      3476 9.10660E-05-2.40808E-05-2.86801E-05-2.32294E-06 7.14513E-19-6.57607E-19
 -1      3477 8.79076E-05-2.14697E-05-2.85008E-05-3.97596E-06 1.46763E-18-6.19494E-19
 -1      3478 8.92173E-05-2.24747E-05-2.86299E-05-3.58976E-06 1.31184E-18-1.14159E-19
 -1      3479 8.90175E-05-2.24766E-05-2.84767E-05-2.47159E-06 8.55153E-19-6.47585E-19
 -1      3480 8.42743E-05-1.90917E-05-2.79801E-05-4.29214E-06-5.04688E-19 2.01794E-19
 -1      3481 8.61337E-05-2.03060E-05-2.82492E-05-3.97095E-06 7.96547E-19 2.99042E-20
 -1      3482 8.60546E-05-2.04121E-05-2.80711E-05-2.33567E-06 7.79046E-19 7.77355E-19
 -1      3483 7.90894E-05-1.62647E-05-2.69912E-05-4.31849E-06-3.54308E-19-3.62035E-19
 -1      3484 8.17769E-05-1.76877E-05-2.75191E-05-4.09139E-06-6.06770E-19-3.20501E-19
 -1      3485 8.19356E-05-1.79385E-05-2.73385E-05-1.74908E-06-2.40035E-19 9.14408E-19
 -1      3486 7.18263E-05-1.32282E-05-2.51867E-05-3.95124E-06 8.04602E-19-9.35356E-19
 -1      3487 7.56053E-05-1.47019E-05-2.61701E-05-3.83687E-06 3.48567E-19-1.03900E-18
 -1      3488 7.62069E-05-1.51170E-05-2.60392E-05-4.99543E-07 4.92467E-19-1.86696E-18
 -1      3489 6.26380E-05-1.09413E-05-2.20497E-05-3.30364E-06 7.91499E-19-1.19008E-18
 -1      3490 6.70030E-05-1.17577E-05-2.37392E-05-3.36490E-06 7.02839E-19-8.17327E-19
 -1      3491 6.80834E-05-1.20716E-05-2.37522E-05 1.61779E-06 3.59938E-19-2.13137E-18
 -1      3492 5.39513E-05-8.93424E-06-1.90196E-05 1.05891E-06 1.11321E-18-1.68729E-18
 -1      3493 9.57657E-05-2.89355E-05-2.86413E-05-1.02137E-06 5.91175E-19-1.18601E-18
 -1      3494 9.57965E-05-2.88759E-05-2.86775E-05-1.02176E-06 4.07277E-19-1.11495E-18
 -1      3495 9.59621E-05-2.90294E-05-2.86876E-05-9.44880E-07 4.41993E-19-1.03424E-18
 -1      3496 9.55371E-05-2.89768E-05-2.85247E-05-7.58425E-07 8.42417E-19-1.99081E-19
 -1      3497 9.55556E-05-2.89870E-05-2.85292E-05-8.17386E-07 9.66708E-19-1.63844E-19
 -1      3498 9.57515E-05-2.90790E-05-2.85755E-05-8.03487E-07 6.50609E-19-5.06717E-19
 -1      3499 9.56572E-05-2.90435E-05-2.85500E-05-6.98529E-07 7.17511E-19-4.95002E-19
 -1      3500 9.93282E-05-4.46621E-05-2.37341E-05 3.21212E-05 1.13828E-18 1.77774E-18
 -1      3501 8.58331E-05-3.47101E-05-2.14898E-05 3.29197E-05 1.00352E-18 1.84954E-18
 -1      3502 9.44514E-05-2.23085E-05-3.09089E-05-3.42693E-06-1.47189E-18-2.34587E-18
 -1      3503 9.22325E-05-1.81179E-05-3.17748E-05-1.00615E-06-3.87750E-19-3.05866E-18
 -1      3504 9.23446E-05-1.83096E-05-3.17442E-05-1.76029E-06-5.74402E-19-3.02970E-18
 -1      3505 9.33241E-05-1.99777E-05-3.14184E-05-1.75142E-06-5.87313E-19-2.82923E-18
 -1      3506 9.49929E-05-2.35724E-05-3.06132E-05-2.82095E-06-1.31068E-18-2.16584E-18
 -1      3507 9.53292E-05-2.46350E-05-3.03072E-05-1.97900E-06-9.83895E-19-2.01002E-18
 -1      3508 9.54449E-05-2.46631E-05-3.03285E-05-1.64926E-06-8.37662E-19-1.85375E-18
 -1      3509 9.45405E-05-2.25038E-05-3.08649E-05-2.71853E-06-1.13231E-18-2.06177E-18
 -1      3510 9.58462E-05-2.87987E-05-2.87355E-05-1.00121E-06 1.28813E-19-1.17185E-18
 -1      3511 9.58792E-05-2.86876E-05-2.87918E-05-9.45578E-07 1.16146E-19-1.24491E-18
 -1      3512 9.60637E-05-2.88929E-05-2.87899E-05-9.30103E-07 2.23577E-19-1.27890E-18
 -1      3513 1.09433E-04-6.42782E-06-4.44548E-05-9.19651E-06-4.86409E-19-1.33125E-18
 -1      3514 1.12272E-04-9.66084E-06-4.41530E-05-1.42771E-05-1.65277E-19-4.99273E-19
 -1      3515 5.57628E-05-1.11597E-05-1.90444E-05 1.23941E-05 7.63380E-19-7.54653E-19
 -1      3516 1.16015E-04-1.55769E-05-4.34362E-05-1.74179E-05-4.99008E-19-8.12702E-19
 -1      3517 1.21010E-04-2.35386E-05-4.17416E-05-1.94137E-05-6.93614E-19 2.80633E-19
 -1      3518 7.10181E-05-2.52531E-05-1.98453E-05 3.05651E-05 5.26484E-19 1.29120E-18
 -1      3519 5.98729E-05-1.65144E-05-1.82788E-05 2.32058E-05-1.39115E-19 7.53939E-19
 -1      3520 9.58966E-05-2.73730E-05-2.93746E-05 8.59727E-08 4.74960E-19-1.39516E-18
 -1      3521 9.58743E-05-2.68998E-05-2.95502E-05 5.44390E-07 7.08843E-19-1.46569E-18
 -1      3522 1.21311E-04-5.52930E-05-2.84906E-05 1.83202E-05 1.05882E-18-6.89127E-19
 -1      3523 1.12085E-04-5.10214E-05-2.58055E-05 2.65684E-05 1.16726E-18-4.30465E-20
 -1      3524 9.59446E-05-2.80834E-05-2.90882E-05-5.14800E-07 1.50210E-19-1.25501E-18
 -1      3525 9.59625E-05-2.77786E-05-2.92126E-05-2.35911E-07 3.59439E-19-1.32122E-18
 -1      3526 9.61033E-05-2.74047E-05-2.94438E-05 3.36793E-08 3.44879E-19-1.36523E-18
 -1      3527 9.61733E-05-2.81537E-05-2.91535E-05-5.03494E-07 8.71440E-20-1.17552E-18
 -1      3528 9.37603E-05-2.07861E-05-3.12543E-05 2.83997E-06 9.86436E-19-2.53978E-18
 -1      3529 1.14936E-04-1.66456E-05-4.24106E-05 6.41211E-06 2.76768E-18-2.81096E-19
 -1      3530 1.16001E-04-1.04953E-05-4.55984E-05 4.59738E-06 2.12695E-18-2.71845E-20
 -1      3531 1.09893E-04-7.87731E-06-4.38261E-05 2.99835E-06 6.18228E-19-1.06235E-18
 -1      3532 1.07883E-04-1.44898E-05-4.03034E-05 7.41859E-06 2.13133E-18-7.21037E-19
 -1      3533 1.18994E-04-2.83368E-05-3.88860E-05-1.78559E-05-5.24062E-19 1.06132E-18
 -1      3534 1.05253E-04-4.53952E-05-2.54918E-05 2.52294E-05 8.71319E-19 1.16057E-19
 -1      3535 8.08312E-05-2.89052E-05-2.20755E-05 2.77444E-05 5.78616E-19 1.83289E-18
 -1      3536 1.10311E-04-1.44078E-05-4.12335E-05-1.47096E-05-5.90991E-19-2.87607E-19
 -1      3537 9.31253E-05-1.96058E-05-3.14916E-05-5.85242E-07-2.93261E-19-2.84211E-18
 -1      3538 1.01738E-04-1.37417E-05-3.77233E-05 6.28826E-06 9.15722E-19 3.93778E-19
 -1      3539 1.29129E-04-4.71425E-05-3.52823E-05-9.47841E-06 1.18118E-18-1.29840E-18
 -1      3540 1.26133E-04-4.88511E-05-3.31187E-05-4.62184E-06 1.51973E-18-1.23716E-18
 -1      3541 1.23076E-04-4.04475E-05-3.53367E-05-1.33332E-05 8.50309E-19-5.14017E-19
 -1      3542 9.49300E-05-2.35204E-05-3.06224E-05 3.04626E-06 1.27268E-18-1.85803E-18
 -1      3543 9.46606E-05-2.28187E-05-3.07889E-05 2.80595E-06 1.00674E-18-2.12169E-18
 -1      3544 9.61442E-05-2.86244E-05-2.89397E-05-8.03975E-07 6.03420E-20-1.58892E-18
 -1      3545 9.40789E-05-2.15060E-05-3.11179E-05 1.75965E-06 6.66296E-19-2.56825E-18
 -1      3546 9.39404E-05-2.12122E-05-3.11766E-05 1.24499E-06 4.24991E-19-2.54615E-18
 -1      3547 9.43639E-05-2.21058E-05-3.09793E-05-2.39492E-06-9.72443E-19-2.33517E-18
 -1      3548 9.49238E-05-2.32910E-05-3.06960E-05-1.87674E-06-8.45506E-19-2.18760E-18
 -1      3549 9.41513E-05-2.16368E-05-3.10782E-05-1.96814E-06-7.10175E-19-2.48992E-18
 -1      3550 1.08218E-04-5.96572E-06-4.41680E-05-6.20150E-06-1.02705E-18-1.45595E-18
 -1      3551 1.05186E-04-8.43542E-06-4.15804E-05-7.87999E-06-4.00223E-20-5.95438E-20
 -1      3552 1.07065E-04-6.08934E-06-4.35240E-05-2.01614E-06-1.18193E-18-1.50441E-18
 -1      3553 6.43618E-05-1.42881E-05-2.12988E-05 1.33089E-05 1.00993E-18-6.98961E-19
 -1      3554 1.24518E-04-5.22030E-05-3.10132E-05 4.20416E-06 1.14298E-18-1.53810E-18
 -1      3555 1.24598E-04-5.48446E-05-2.97921E-05 1.15283E-05 8.49637E-19-1.91946E-19
 -1      3556 1.17746E-04-5.11088E-05-2.85897E-05 1.41741E-05 5.37428E-19-1.07950E-18
 -1      3557 9.57164E-05-2.63892E-05-2.97199E-05 9.71236E-07 9.10000E-19-1.52031E-18
 -1      3558 9.56392E-05-2.58636E-05-2.99049E-05 1.56493E-06 1.08892E-18-1.48308E-18
 -1      3559 9.58810E-05-2.63836E-05-2.97839E-05 8.06798E-07 7.43530E-19-1.36323E-18
 -1      3560 9.38540E-05-2.10409E-05-3.12175E-05 8.06241E-07 2.89709E-19-2.43686E-18
 -1      3561 9.38058E-05-2.09413E-05-3.12368E-05 2.46795E-07-3.03528E-20-2.45474E-18
 -1      3562 9.45989E-05-2.23782E-05-3.09339E-05 8.27023E-07 3.29272E-19-2.37009E-18
 -1      3563 9.59045E-05-2.57141E-05-3.00805E-05-8.99249E-07-6.26227E-19-1.80764E-18
 -1      3564 9.61158E-05-2.64516E-05-2.98636E-05-4.56832E-07-6.59726E-19-1.81496E-18
 -1      3565 9.63309E-05-2.70944E-05-2.96677E-05-1.74122E-07-6.46786E-19-1.74168E-18
 -1      3566 9.64160E-05-2.75939E-05-2.95013E-05 1.23286E-07-5.59064E-19-1.80345E-18
 -1      3567 9.62611E-05-2.65659E-05-2.98668E-05-3.29177E-07-5.83062E-19-1.65674E-18
 -1      3568 9.65055E-05-2.80148E-05-2.93484E-05 3.03505E-07-4.33485E-19-1.79485E-18
 -1      3569 9.65163E-05-2.83385E-05-2.92228E-05 4.84259E-07-4.43558E-19-1.72824E-18
 -1      3570 9.65585E-05-2.76894E-05-2.95143E-05 1.41437E-07-4.42430E-19-1.44796E-18
 -1      3571 9.65245E-05-2.86018E-05-2.91060E-05 5.84095E-07-3.58646E-19-1.53810E-18
 -1      3572 9.64927E-05-2.87998E-05-2.90131E-05 6.78479E-07-3.18371E-19-1.41728E-18
 -1      3573 9.66540E-05-2.84270E-05-2.92405E-05 4.33543E-07-2.95528E-19-1.52719E-18
 -1      3574 9.64515E-05-2.89515E-05-2.89257E-05 7.20204E-07-3.65438E-19-1.35993E-18
 -1      3575 9.63973E-05-2.90617E-05-2.88587E-05 7.54553E-07-2.40859E-19-1.41651E-18
 -1      3576 9.66206E-05-2.88813E-05-2.90324E-05 5.89076E-07-2.87093E-19-1.21775E-18
 -1      3577 9.63293E-05-2.91368E-05-2.87948E-05 7.57169E-07-1.89456E-19-1.38805E-18
 -1      3578 9.62658E-05-2.91872E-05-2.87477E-05 7.52437E-07-3.32053E-19-1.28473E-18
 -1      3579 9.65120E-05-2.91349E-05-2.88776E-05 6.47515E-07-3.41085E-19-1.39132E-18
 -1      3580 9.61860E-05-2.92112E-05-2.87021E-05 7.30815E-07-3.51615E-19-1.20970E-18
 -1      3581 9.61212E-05-2.92224E-05-2.86701E-05 7.02745E-07-2.37303E-19-1.32061E-18
 -1      3582 9.63655E-05-2.92511E-05-2.87652E-05 6.41713E-07-2.94508E-19-1.05318E-18
 -1      3583 9.60396E-05-2.92139E-05-2.86388E-05 6.67819E-07-1.69192E-19-1.28688E-18
 -1      3584 9.59781E-05-2.92001E-05-2.86180E-05 6.27682E-07-2.94743E-19-1.21694E-18
 -1      3585 9.62055E-05-2.92764E-05-2.86858E-05 5.97033E-07-1.82356E-19-9.23229E-19
 -1      3586 9.59003E-05-2.91719E-05-2.85974E-05 5.87294E-07-4.20113E-19-1.04831E-18
 -1      3587 9.58446E-05-2.91435E-05-2.85850E-05 5.43000E-07-3.62902E-19-1.06305E-18
 -1      3588 9.60475E-05-2.92442E-05-2.86317E-05 5.31916E-07-2.67315E-19-6.70410E-19
 -1      3589 9.57738E-05-2.91046E-05-2.85723E-05 5.02352E-07-1.43059E-19-9.31140E-19
 -1      3590 9.57249E-05-2.90683E-05-2.85660E-05 4.59005E-07-4.34726E-20-7.10565E-19
 -1      3591 9.59004E-05-2.91780E-05-2.85968E-05 4.59576E-07-9.03240E-20-3.65703E-19
 -1      3592 9.56622E-05-2.90241E-05-2.85592E-05 4.21433E-07-3.35956E-19-6.92240E-19
 -1      3593 9.56200E-05-2.89840E-05-2.85572E-05 3.82451E-07-4.94042E-19-5.61355E-19
 -1      3594 9.57683E-05-2.90936E-05-2.85762E-05 3.88401E-07-1.67498E-19-5.18915E-19
 -1      3595 9.55652E-05-2.89380E-05-2.85547E-05 3.50135E-07-4.34041E-19-6.61036E-19
 -1      3596 9.55288E-05-2.88965E-05-2.85557E-05 3.17645E-07-3.34673E-19-7.92541E-19
 -1      3597 9.56520E-05-2.90005E-05-2.85660E-05 3.24172E-07-4.03283E-19-7.57654E-19
 -1      3598 9.54810E-05-2.88501E-05-2.85564E-05 2.91972E-07-3.10878E-19-7.84415E-19
 -1      3599 9.54494E-05-2.88082E-05-2.85596E-05 2.67393E-07-2.57061E-19-8.12503E-19
 -1      3600 9.55504E-05-2.89043E-05-2.85634E-05 2.70524E-07-4.33364E-19-9.63252E-19
 -1      3601 9.54069E-05-2.87620E-05-2.85625E-05 2.49254E-07-3.80535E-19-6.56036E-19
 -1      3602 9.53787E-05-2.87199E-05-2.85673E-05 2.33493E-07-3.97694E-19-8.02381E-19
 -1      3603 9.54610E-05-2.88072E-05-2.85665E-05 2.29947E-07-2.59472E-19-1.13002E-18
 -1      3604 9.53396E-05-2.86734E-05-2.85717E-05 2.23566E-07-8.65448E-20-7.65121E-19
 -1      3605 9.53133E-05-2.86304E-05-2.85776E-05 2.17442E-07-1.06372E-19-9.33535E-19
 -1      3606 9.53801E-05-2.87096E-05-2.85734E-05 2.04022E-07-3.42641E-19-9.20316E-19
 -1      3607 9.52753E-05-2.85827E-05-2.85832E-05 2.16525E-07-6.56860E-20-1.01775E-18
 -1      3608 9.52493E-05-2.85380E-05-2.85898E-05 2.20909E-07 5.63544E-19-9.88717E-19
 -1      3609 9.53037E-05-2.86099E-05-2.85832E-05 1.94332E-07 2.54757E-20-8.78334E-19
 -1      3610 9.52102E-05-2.84881E-05-2.85960E-05 2.30014E-07 9.04374E-19-1.21792E-18
 -1      3611 9.51833E-05-2.84410E-05-2.86031E-05 2.45954E-07 8.49987E-19-8.92592E-19
 -1      3612 9.52273E-05-2.85061E-05-2.85947E-05 2.02747E-07 5.90218E-19-1.11446E-18
 -1      3613 9.51411E-05-2.83878E-05-2.86095E-05 2.66451E-07 5.53504E-19-8.61193E-19
 -1      3614 9.51121E-05-2.83379E-05-2.86167E-05 2.95264E-07 5.83084E-19-8.78307E-19
 -1      3615 9.51467E-05-2.83961E-05-2.86071E-05 2.31669E-07 7.60007E-19-1.53637E-18
 -1      3616 9.50652E-05-2.82812E-05-2.86229E-05 3.29039E-07 2.94446E-19-9.01343E-19
 -1      3617 9.50339E-05-2.82291E-05-2.86297E-05 3.72354E-07-1.93667E-19-9.53952E-19
 -1      3618 9.50581E-05-2.82784E-05-2.86194E-05 2.84390E-07 1.26142E-19-1.58141E-18
 -1      3619 9.49814E-05-2.81699E-05-2.86349E-05 4.21928E-07-4.26578E-19-7.56159E-19
 -1      3620 9.49489E-05-2.81177E-05-2.86408E-05 4.81659E-07-1.45590E-19-5.04395E-19
 -1      3621 9.49590E-05-2.81534E-05-2.86304E-05 3.65416E-07-2.57660E-20-1.30848E-18
 -1      3622 9.48916E-05-2.80589E-05-2.86441E-05 5.50287E-07 1.52230E-19-7.59493E-19
 -1      3623 9.48607E-05-2.80114E-05-2.86482E-05 6.28530E-07 6.62972E-19-5.27460E-19
 -1      3624 9.48493E-05-2.80247E-05-2.86385E-05 4.80749E-07-6.78986E-20-8.59107E-19
 -1      3625 9.48020E-05-2.79591E-05-2.86487E-05 7.20249E-07 3.50499E-19-1.03453E-18
 -1      3626 9.47791E-05-2.79247E-05-2.86499E-05 8.19032E-07 2.13254E-19-1.21896E-18
 -1      3627 9.47327E-05-2.79012E-05-2.86416E-05 6.38162E-07 2.52103E-19-1.37239E-18
 -1      3628 9.47263E-05-2.78894E-05-2.86460E-05 9.38568E-07 2.68606E-19-1.58693E-18
 -1      3629 9.47221E-05-2.78818E-05-2.86431E-05 1.05936E-06 2.47434E-19-1.54958E-18
 -1      3630 9.46195E-05-2.77992E-05-2.86372E-05 8.47336E-07-1.16715E-19-1.93975E-18
 -1      3631 9.46888E-05-2.78803E-05-2.86335E-05 1.21174E-06 5.12628E-19-1.09834E-18
 -1      3632 9.47211E-05-2.79201E-05-2.86253E-05 1.35457E-06 5.94071E-19-8.13322E-19
 -1      3633 9.45299E-05-2.77464E-05-2.86224E-05 1.11963E-06 8.51896E-19-1.39295E-18
 -1      3634 9.47295E-05-2.79773E-05-2.86085E-05 1.54414E-06 3.35187E-19-1.09304E-18
 -1      3635 9.48246E-05-2.80938E-05-2.85940E-05 1.70596E-06-5.16607E-20-6.25018E-19
 -1      3636 9.44987E-05-2.77854E-05-2.85939E-05 1.46707E-06 4.36392E-19-1.31183E-18
 -1      3637 9.49092E-05-2.82443E-05-2.85693E-05 1.93435E-06-4.38654E-19-9.98302E-20
 -1      3638 9.51043E-05-2.84761E-05-2.85487E-05 2.10636E-06-3.72808E-19 3.41287E-19
 -1      3639 9.45814E-05-2.79780E-05-2.85495E-05 1.89976E-06 1.84472E-19-6.11256E-19
 -1      3640 9.53151E-05-2.87654E-05-2.85168E-05 2.36838E-06-8.21927E-19-1.62844E-19
 -1      3641 9.56594E-05-2.91596E-05-2.84925E-05 2.53154E-06-1.22658E-18-3.96097E-19
 -1      3642 9.48609E-05-2.84089E-05-2.84888E-05 2.42031E-06-8.40540E-19-5.78204E-19
 -1      3643 9.60647E-05-2.96421E-05-2.84574E-05 2.80835E-06-1.03452E-18-5.10370E-19
 -1      3644 9.66168E-05-3.02493E-05-2.84354E-05 2.92683E-06 2.44121E-19-8.06299E-19
 -1      3645 9.54542E-05-2.91863E-05-2.84159E-05 3.01312E-06-9.07413E-19-2.17968E-19
 -1      3646 9.73033E-05-3.09816E-05-2.84064E-05 3.17504E-06 7.99449E-19-1.15840E-18
 -1      3647 9.81239E-05-3.18440E-05-2.83994E-05 3.18694E-06 5.66609E-19-5.37312E-19
 -1      3648 9.65154E-05-3.04351E-05-2.83438E-05 3.62689E-06 1.02442E-19 4.52551E-21
 -1      3649 9.91910E-05-3.28699E-05-2.83951E-05 3.31946E-06 5.06992E-19-5.49143E-19
 -1      3650 1.00322E-04-3.39934E-05-2.84253E-05 3.12610E-06 3.87515E-19-4.35174E-19
 -1      3651 9.82329E-05-3.22799E-05-2.82996E-05 4.14515E-06 7.94104E-19-5.03017E-20
 -1      3652 1.01852E-04-3.53024E-05-2.84793E-05 2.99300E-06-1.35241E-19-6.24980E-19
 -1      3653 1.03284E-04-3.66166E-05-2.85821E-05 2.46132E-06-4.52824E-19 9.23625E-20
 -1      3654 1.00798E-04-3.47850E-05-2.83358E-05 4.33677E-06 1.82639E-19-5.41940E-19
 -1      3655 1.05286E-04-3.80729E-05-2.87495E-05 1.82956E-06 2.63205E-19 7.52395E-20
 -1      3656 1.06884E-04-3.93185E-05-2.89777E-05 8.22091E-07 9.26062E-19 1.99789E-19
 -1      3657 1.04308E-04-3.78694E-05-2.85435E-05 3.79468E-06 5.24523E-20-1.85436E-19
 -1      3658 1.09312E-04-4.07528E-05-2.93261E-05-5.41523E-07 1.18210E-18 7.73851E-19
 -1      3659 1.10804E-04-4.14904E-05-2.97414E-05-2.26712E-06 1.26842E-18 9.83373E-19
 -1      3660 1.08774E-04-4.09748E-05-2.90845E-05 1.99928E-06 1.37460E-18 3.45037E-19
 -1      3661 1.12966E-04-4.20089E-05-3.03748E-05-4.52047E-06 1.60042E-18 1.29858E-18
 -1      3662 1.13808E-04-4.15925E-05-3.09953E-05-6.62030E-06 2.39544E-18 1.31229E-18
 -1      3663 1.13494E-04-4.33710E-05-3.00293E-05-1.46404E-06 1.73612E-18 5.43272E-19
 -1      3664 1.16988E-04-4.14446E-05-3.23918E-05-9.72187E-06 2.33098E-18 7.58399E-19
 -1      3665 1.16580E-04-3.88247E-05-3.33509E-05-1.19153E-05 1.49491E-18 1.35965E-18
 -1      3666 1.16573E-04-3.54696E-05-3.48973E-05-1.48667E-05 4.38639E-19 1.58344E-18
 -1      3667 1.14688E-04-3.06247E-05-3.60236E-05-1.61323E-05 1.25255E-19 1.24594E-18
 -1      3668 1.10189E-04-2.32681E-05-3.74824E-05-1.64659E-05-4.05457E-19 9.23703E-19
 -1      3669 1.07552E-04-1.80114E-05-3.83878E-05-1.51708E-05-1.34313E-18 2.98907E-19
 -1      3670 1.03999E-04-1.34272E-05-3.89830E-05-1.17308E-05-5.78550E-19 3.46245E-19
 -1      3671 1.02034E-04-1.04103E-05-3.93292E-05-8.06625E-06-3.76400E-20 2.68486E-19
 -1      3672 9.55677E-05-2.89548E-05-2.85472E-05-4.28172E-07-5.02708E-20-3.03078E-19
 -1      3673 9.56006E-05-2.89898E-05-2.85476E-05-4.71616E-07 1.87820E-19-4.09869E-19
 -1      3674 9.56592E-05-2.90319E-05-2.85534E-05-5.16482E-07 4.47357E-19-7.02166E-19
 -1      3675 9.57003E-05-2.90645E-05-2.85581E-05-5.67401E-07 4.88959E-19-6.79530E-19
 -1      3676 9.57175E-05-2.90655E-05-2.85663E-05-4.51838E-07 2.73066E-19-6.43820E-19
 -1      3677 9.54267E-05-2.87977E-05-2.85543E-05-2.98250E-07-5.16129E-19-5.11327E-19
 -1      3678 9.54503E-05-2.88347E-05-2.85499E-05-3.25865E-07 8.99403E-21-6.59290E-19
 -1      3679 9.53695E-05-2.87179E-05-2.85641E-05-2.59429E-07-4.58258E-19-6.01444E-19
 -1      3680 9.53902E-05-2.87556E-05-2.85581E-05-2.77309E-07-4.29443E-19-4.63206E-19
 -1      3681 9.54461E-05-2.88018E-05-2.85624E-05-2.66295E-07-3.68393E-19-1.12082E-18
 -1      3682 9.53170E-05-2.86358E-05-2.85768E-05-2.40330E-07-3.22877E-19-9.57353E-19
 -1      3683 9.53362E-05-2.86751E-05-2.85696E-05-2.47608E-07-3.93381E-19-6.56397E-19
 -1      3684 9.53770E-05-2.87114E-05-2.85713E-05-2.35712E-07-3.94368E-19-1.17675E-18
 -1      3685 9.52647E-05-2.85479E-05-2.85921E-05-2.42517E-07 2.00457E-19-7.80557E-19
 -1      3686 9.52842E-05-2.85906E-05-2.85837E-05-2.38247E-07-1.04615E-19-7.00496E-19
 -1      3687 9.53115E-05-2.86174E-05-2.85833E-05-2.23152E-07-2.93146E-19-1.57596E-18
 -1      3688 9.52074E-05-2.84495E-05-2.86098E-05-2.67818E-07-5.73206E-20-8.51696E-19
 -1      3689 9.52296E-05-2.84979E-05-2.86002E-05-2.50876E-07 4.33294E-19-6.35716E-19
 -1      3690 9.52445E-05-2.85157E-05-2.85979E-05-2.29952E-07 5.98223E-20-1.07613E-18
 -1      3691 9.51386E-05-2.83343E-05-2.86297E-05-3.18377E-07 5.74893E-19-7.44447E-19
 -1      3692 9.51664E-05-2.83918E-05-2.86188E-05-2.87409E-07 2.05831E-19-7.10864E-19
 -1      3693 9.51693E-05-2.84008E-05-2.86147E-05-2.57480E-07 2.54489E-19-1.19013E-18
 -1      3694 9.50439E-05-2.81859E-05-2.86528E-05-4.01292E-07 4.94312E-19-2.92948E-19
 -1      3695 9.50843E-05-2.82608E-05-2.86401E-05-3.51722E-07 6.48541E-19-4.58819E-19
 -1      3696 9.50753E-05-2.82619E-05-2.86336E-05-3.08727E-07 6.63406E-19-2.73502E-19
 -1      3697 9.49195E-05-2.80068E-05-2.86765E-05-5.10974E-07-1.01138E-18-4.29015E-19
 -1      3698 9.49743E-05-2.80978E-05-2.86633E-05-4.46132E-07 2.83436E-20-1.39969E-19
 -1      3699 9.49530E-05-2.80910E-05-2.86537E-05-3.83715E-07 1.75203E-19 4.38305E-19
 -1      3700 9.47446E-05-2.77760E-05-2.87009E-05-6.51992E-07-9.21306E-19-1.16468E-18
 -1      3701 9.48245E-05-2.78940E-05-2.86869E-05-5.68382E-07-1.08661E-18-1.11341E-18
 -1      3702 9.47914E-05-2.78816E-05-2.86735E-05-4.80074E-07-3.74230E-19-5.33319E-19
 -1      3703 9.44943E-05-2.74739E-05-2.87238E-05-8.23477E-07-5.70549E-19-1.55409E-18
 -1      3704 9.46124E-05-2.76294E-05-2.87101E-05-7.20663E-07-6.07201E-19-1.15386E-18
 -1      3705 9.45685E-05-2.76139E-05-2.86916E-05-5.96596E-07-6.08071E-19-1.16233E-18
 -1      3706 9.41333E-05-2.70745E-05-2.87416E-05-1.02014E-06-9.79601E-19-4.46811E-19
 -1      3707 9.43088E-05-2.72813E-05-2.87301E-05-8.99688E-07-8.04568E-19-1.10609E-18
 -1      3708 9.42572E-05-2.72678E-05-2.87049E-05-7.26336E-07-8.93149E-19-1.23326E-18
 -1      3709 9.36112E-05-2.65440E-05-2.87473E-05-1.22873E-06-5.04174E-19-2.62064E-19
 -1      3710 9.38720E-05-2.68203E-05-2.87416E-05-1.09602E-06-6.64843E-19-4.41825E-19
 -1      3711 9.38202E-05-2.68180E-05-2.87081E-05-8.54805E-07-8.78173E-19 1.50820E-19
 -1      3712 9.28564E-05-2.58396E-05-2.87292E-05-1.42257E-06 1.57707E-19-7.16619E-19
 -1      3713 9.32433E-05-2.62085E-05-2.87356E-05-1.28964E-06-2.06469E-19-3.03507E-19
 -1      3714 9.32058E-05-2.62328E-05-2.86922E-05-9.55171E-07-3.58736E-19-5.80615E-19
 -1      3715 9.17697E-05-2.49095E-05-2.86675E-05-1.55340E-06 4.11690E-19-2.80610E-19
 -1      3716 9.23404E-05-2.53993E-05-2.86969E-05-1.44327E-06 4.87214E-19-4.43568E-19
 -1      3717 9.23441E-05-2.54753E-05-2.86429E-05-9.81199E-07 2.95825E-19-9.21710E-19
 -1      3718 9.02165E-05-2.36986E-05-2.85298E-05-1.54141E-06 7.52860E-19-6.70654E-19
 -1      3719 9.10507E-05-2.43398E-05-2.86002E-05-1.49260E-06 6.58966E-19-1.62216E-20
 -1      3720 9.11419E-05-2.45051E-05-2.85368E-05-8.57356E-07 5.30552E-19-1.99771E-19
 -1      3721 8.78852E-05-2.20665E-05-2.82427E-05-1.23271E-06 2.99477E-19 1.14110E-19
 -1      3722 8.91681E-05-2.29343E-05-2.83969E-05-1.32269E-06 4.26665E-19-4.05517E-19
 -1      3723 8.94274E-05-2.32518E-05-2.83297E-05-4.50710E-07 4.31543E-19-5.65723E-19
 -1      3724 8.47454E-05-2.01375E-05-2.77422E-05-4.59412E-07 9.86388E-20 8.75981E-19
 -1      3725 8.65065E-05-2.11682E-05-2.80162E-05-7.72180E-07 5.68300E-19 4.60882E-19
 -1      3726 8.70700E-05-2.17247E-05-2.79611E-05 4.31949E-07-1.63000E-20 1.40407E-19
 -1      3727 8.04073E-05-1.78872E-05-2.68733E-05 1.03543E-06 2.93386E-19-1.73329E-19
 -1      3728 8.28905E-05-1.90912E-05-2.73596E-05 3.75911E-07 3.07825E-19 1.04126E-18
 -1      3729 8.39502E-05-1.99938E-05-2.73493E-05 2.01421E-06 2.83315E-19 3.27037E-19
 -1      3730 7.43434E-05-1.54154E-05-2.53784E-05 3.53054E-06 7.70276E-19-1.26353E-18
 -1      3731 7.79138E-05-1.67422E-05-2.62363E-05 2.42042E-06 7.94256E-19-7.99046E-19
 -1      3732 7.97823E-05-1.81466E-05-2.63373E-05 4.68311E-06 6.13626E-19-5.84221E-19
 -1      3733 6.65670E-05-1.35126E-05-2.28249E-05 8.72954E-06 5.42948E-19-8.22403E-19
 -1      3734 7.16273E-05-1.48785E-05-2.43184E-05 6.73087E-06 4.47306E-20-1.14108E-18
 -1      3735 7.47764E-05-1.69724E-05-2.46843E-05 9.82501E-06 4.65246E-19-6.63293E-19
 -1      3736 7.00348E-05-1.80631E-05-2.22272E-05 1.84796E-05 4.93731E-19-2.57333E-19
 -1      3737 9.44573E-05-2.23379E-05-3.09271E-05 2.55107E-06 8.81638E-19-2.28985E-18
 -1      3738 9.42423E-05-2.18402E-05-3.10331E-05 2.12886E-06 6.69767E-19-2.48238E-18
 -1      3739 9.48007E-05-2.28757E-05-3.08069E-05 1.54910E-06 4.81794E-19-2.30600E-18
 -1      3740 9.50923E-05-2.37044E-05-3.05804E-05 2.06449E-06 8.48989E-19-2.17569E-18
 -1      3741 9.61329E-05-2.91209E-05-2.87192E-05-8.46063E-07 3.51795E-19-1.20574E-18
 -1      3742 9.61877E-05-2.90686E-05-2.87631E-05-8.51143E-07 3.30148E-19-1.38558E-18
 -1      3743 9.51616E-05-2.44052E-05-3.03171E-05 2.85816E-06 1.29575E-18-1.47313E-18
 -1      3744 9.54180E-05-2.50605E-05-3.01450E-05 2.06959E-06 1.15322E-18-1.62928E-18
 -1      3745 9.63388E-05-2.87340E-05-2.89757E-05-7.53313E-07-5.55791E-20-1.55971E-18
 -1      3746 9.63715E-05-2.85348E-05-2.90681E-05-6.43100E-07-4.78300E-20-1.56945E-18
 -1      3747 9.63637E-05-2.82689E-05-2.91878E-05-5.16912E-07-1.53200E-20-1.43407E-18
 -1      3748 9.63592E-05-2.79413E-05-2.93161E-05-3.03063E-07 1.96579E-19-1.35940E-18
 -1      3749 9.65278E-05-2.83535E-05-2.92183E-05-4.78195E-07 7.66999E-20-1.56512E-18
 -1      3750 9.53019E-05-2.41519E-05-3.04977E-05-1.60403E-06-7.60179E-19-2.00056E-18
 -1      3751 9.56435E-05-2.50565E-05-3.02552E-05-1.13531E-06-6.30863E-19-1.92131E-18
 -1      3752 9.57831E-05-2.52058E-05-3.02420E-05-8.68450E-07-5.27660E-19-1.95010E-18
 -1      3753 9.51639E-05-2.37294E-05-3.06097E-05-1.36220E-06-5.80587E-19-2.13960E-18
 -1      3754 9.38051E-05-2.09404E-05-3.12372E-05-2.16614E-07-2.35411E-19-2.65269E-18
 -1      3755 9.38453E-05-2.10295E-05-3.12184E-05-7.74093E-07-4.16212E-19-2.76201E-18
 -1      3756 9.45279E-05-2.22092E-05-3.09759E-05 1.43172E-08-4.96761E-20-2.33104E-18
 -1      3757 9.54918E-05-2.88766E-05-2.85483E-05-3.55203E-07 4.85756E-19-4.50110E-19
 -1      3758 9.55196E-05-2.89131E-05-2.85459E-05-3.91486E-07 2.54202E-19-5.57008E-19
 -1      3759 9.56120E-05-2.89787E-05-2.85581E-05-3.75633E-07 3.03993E-19-1.12811E-18
 -1      3760 9.55233E-05-2.88908E-05-2.85576E-05-3.13556E-07 1.59886E-19-1.55205E-18
 -1      3761 9.62507E-05-2.89937E-05-2.88251E-05-8.45118E-07 2.51523E-19-1.41614E-18
 -1      3762 9.62994E-05-2.88844E-05-2.88888E-05-8.06366E-07 9.45020E-20-1.56237E-18
 -1      3763 9.63950E-05-2.90736E-05-2.88539E-05-7.47337E-07 3.00261E-19-1.84187E-18
 -1      3764 9.60052E-05-2.91615E-05-2.86465E-05-7.92132E-07 1.74343E-19-1.03839E-18
 -1      3765 9.60597E-05-2.91467E-05-2.86756E-05-8.23341E-07 2.73771E-19-9.73846E-19
 -1      3766 9.62605E-05-2.91941E-05-2.87447E-05-7.43965E-07 2.20662E-19-1.53016E-18
 -1      3767 1.08658E-04-4.64483E-05-2.68337E-05 2.02880E-05 5.20037E-19-1.15631E-18
 -1      3768 9.94576E-05-4.01440E-05-2.51409E-05 2.45678E-05 7.19558E-19 1.59146E-19
 -1      3769 8.76555E-05-3.27372E-05-2.38129E-05 2.60623E-05 4.67744E-19 2.00851E-18
 -1      3770 7.62632E-05-2.33899E-05-2.25244E-05 2.29533E-05 2.83544E-19 1.05941E-18
 -1      3771 9.39105E-05-2.11454E-05-3.11905E-05-1.12804E-06-3.97435E-19-2.65935E-18
 -1      3772 9.40396E-05-2.14196E-05-3.11346E-05-1.64688E-06-5.87219E-19-2.60320E-18
 -1      3773 9.46894E-05-2.26570E-05-3.08634E-05-1.31781E-06-5.31874E-19-2.43222E-18
 -1      3774 9.45653E-05-2.23267E-05-3.09470E-05-7.32164E-07-3.75969E-19-2.56366E-18
 -1      3775 9.62737E-05-2.75229E-05-2.94712E-05-8.26565E-08 2.45676E-19-1.38286E-18
 -1      3776 9.62046E-05-2.70301E-05-2.96399E-05 2.62036E-07 2.95226E-19-1.44471E-18
 -1      3777 9.64359E-05-2.76057E-05-2.94982E-05-1.15702E-07 2.54736E-19-1.43739E-18
 -1      3778 1.00580E-04-9.42613E-06-3.91104E-05-4.58596E-06-1.47050E-19 1.85245E-19
 -1      3779 9.54909E-05-2.50309E-05-3.01964E-05 1.76431E-06 1.00934E-18-1.79146E-18
 -1      3780 1.19265E-04-4.45872E-05-3.20334E-05-6.37247E-06 2.07002E-18 1.23964E-18
 -1      3781 1.00072E-04-9.32424E-06-3.90575E-05-4.93708E-07-1.62074E-19 1.52722E-19
 -1      3782 9.58802E-05-2.91471E-05-2.85988E-05-7.08837E-07 7.19249E-19-8.25460E-19
 -1      3783 9.59308E-05-2.91561E-05-2.86169E-05-7.53572E-07 5.67847E-19-9.64519E-19
 -1      3784 9.61146E-05-2.92258E-05-2.86685E-05-6.94368E-07 2.67608E-19-1.48955E-18
 -1      3785 7.80212E-05-2.19665E-05-2.38430E-05 1.76915E-05 4.07805E-19 4.49791E-19
 -1      3786 9.64963E-05-2.88170E-05-2.90070E-05-6.73361E-07 2.70189E-20-1.61670E-18
 -1      3787 9.53001E-05-2.40957E-05-3.05286E-05 1.35539E-06 3.96774E-19-2.22099E-18
 -1      3788 9.51961E-05-2.37625E-05-3.06175E-05 1.07573E-06 3.85552E-19-2.28804E-18
 -1      3789 9.57644E-05-2.90994E-05-2.85695E-05-6.13526E-07 5.18115E-19-8.49133E-19
 -1      3790 9.58098E-05-2.91229E-05-2.85797E-05-6.63129E-07 7.44431E-19-7.46021E-19
 -1      3791 9.59717E-05-2.92018E-05-2.86173E-05-6.19749E-07 6.21380E-19-1.11940E-18
 -1      3792 9.58388E-05-2.91440E-05-2.85850E-05-5.36245E-07 6.48421E-19-6.80130E-19
 -1      3793 1.21423E-04-4.67561E-05-3.19750E-05-4.07110E-06 2.17247E-18 8.39767E-19
 -1      3794 1.23928E-04-5.08947E-05-3.13804E-05 1.12310E-06 1.68851E-18-8.95108E-19
 -1      3795 1.19600E-04-4.92843E-05-3.00592E-05 4.55620E-06 1.33707E-18-1.61112E-19
 -1      3796 1.17269E-04-4.58868E-05-3.05655E-05-1.29025E-06 2.37720E-18 1.71293E-18
 -1      3797 9.37024E-05-3.46953E-05-2.52002E-05 2.16614E-05 2.78859E-19 4.05721E-19
 -1      3798 9.61464E-05-2.64719E-05-2.98591E-05 4.62056E-07 3.66533E-19-1.54207E-18
 -1      3799 9.60028E-05-2.63886E-05-2.98428E-05 6.13787E-07 4.41964E-19-1.53138E-18
 -1      3800 1.04965E-04-1.09635E-05-4.03668E-05 2.99061E-06 3.81694E-19-8.60083E-19
 -1      3801 9.56388E-05-2.46302E-05-3.04190E-05 7.03384E-07 2.32396E-19-2.21406E-18
 -1      3802 9.51238E-05-2.35619E-05-3.06813E-05 8.28868E-07 4.05229E-19-2.28647E-18
 -1      3803 9.50634E-05-2.33908E-05-3.07232E-05 4.78794E-07 1.59396E-19-2.12903E-18
 -1      3804 9.58295E-05-2.57649E-05-3.00173E-05 1.04196E-06 7.34581E-19-1.61432E-18
 -1      3805 1.15060E-04-4.80534E-05-2.88562E-05 1.01824E-05 6.52483E-19 7.49140E-20
 -1      3806 1.13013E-04-4.78693E-05-2.77950E-05 1.56393E-05 2.32879E-19-2.21880E-19
 -1      3807 1.06977E-04-4.33972E-05-2.73048E-05 1.60786E-05 4.10884E-19-6.33366E-19
 -1      3808 9.65954E-05-2.74011E-05-2.96524E-05 2.18504E-09-4.59553E-19-1.51253E-18
 -1      3809 9.66865E-05-2.78733E-05-2.94957E-05 1.92115E-07-4.19087E-19-1.47929E-18
 -1      3810 9.67601E-05-2.82648E-05-2.93526E-05 2.86229E-07-3.22579E-19-1.42836E-18
 -1      3811 9.67697E-05-2.85680E-05-2.92318E-05 3.99362E-07-1.60561E-19-1.33375E-18
 -1      3812 9.67872E-05-2.79978E-05-2.94800E-05 1.68668E-07-3.19378E-19-1.26890E-18
 -1      3813 9.67634E-05-2.88089E-05-2.91212E-05 4.46880E-07-1.96038E-19-1.36990E-18
 -1      3814 9.67234E-05-2.89889E-05-2.90301E-05 5.03600E-07-3.63345E-19-1.26483E-18
 -1      3815 9.68517E-05-2.86640E-05-2.92238E-05 3.18175E-07-2.62455E-19-1.32251E-18
 -1      3816 9.66688E-05-2.91227E-05-2.89465E-05 5.18378E-07-3.80346E-19-1.39832E-18
 -1      3817 9.66016E-05-2.92166E-05-2.88793E-05 5.35863E-07-2.85318E-19-1.27453E-18
 -1      3818 9.67896E-05-2.90625E-05-2.90273E-05 3.92234E-07-3.13723E-19-9.64450E-19
 -1      3819 9.65209E-05-2.92766E-05-2.88175E-05 5.29016E-07-1.65763E-19-1.01101E-18
 -1      3820 9.64417E-05-2.93120E-05-2.87693E-05 5.21197E-07-8.87962E-20-8.49865E-19
 -1      3821 9.66544E-05-2.92724E-05-2.88799E-05 4.12955E-07-7.43422E-20-8.10443E-19
 -1      3822 9.63502E-05-2.93232E-05-2.87247E-05 5.01595E-07-1.63642E-19-5.80534E-19
 -1      3823 9.62689E-05-2.93209E-05-2.86911E-05 4.79002E-07-1.53999E-19-4.76786E-19
 -1      3824 9.64831E-05-2.93535E-05-2.87719E-05 3.99150E-07-3.65239E-21-4.22652E-19
 -1      3825 9.61766E-05-2.93012E-05-2.86600E-05 4.52719E-07-1.26966E-20-6.56920E-19
 -1      3826 9.60987E-05-2.92751E-05-2.86376E-05 4.23003E-07-4.43153E-20-3.15318E-19
 -1      3827 9.63005E-05-2.93505E-05-2.86948E-05 3.65497E-07 7.86364E-20-2.13883E-19
 -1      3828 9.60118E-05-2.92377E-05-2.86169E-05 3.95244E-07-2.87405E-19-2.85284E-19
 -1      3829 9.59411E-05-2.91986E-05-2.86028E-05 3.63366E-07-2.94843E-19-3.59714E-19
 -1      3830 9.61224E-05-2.92953E-05-2.86420E-05 3.21799E-07 2.64828E-21-4.57924E-19
 -1      3831 9.58621E-05-2.91515E-05-2.85899E-05 3.36094E-07-3.01186E-19-4.73544E-19
 -1      3832 9.57993E-05-2.91054E-05-2.85820E-05 3.05673E-07-1.99951E-19-5.33080E-19
 -1      3833 9.59582E-05-2.92110E-05-2.86075E-05 2.76086E-07-3.91552E-19-8.26581E-19
 -1      3834 9.57291E-05-2.90538E-05-2.85749E-05 2.81446E-07-1.62832E-19-8.10087E-19
 -1      3835 9.56742E-05-2.90048E-05-2.85716E-05 2.54829E-07-5.31151E-19-1.02136E-18
 -1      3836 9.58102E-05-2.91107E-05-2.85868E-05 2.31988E-07-3.42880E-19-1.11422E-18
 -1      3837 9.56125E-05-2.89518E-05-2.85688E-05 2.34607E-07-7.24055E-19-8.86782E-19
 -1      3838 9.55644E-05-2.89017E-05-2.85689E-05 2.13258E-07-5.59338E-19-1.04348E-18
 -1      3839 9.56795E-05-2.90037E-05-2.85764E-05 1.93814E-07-6.83532E-19-1.14115E-18
 -1      3840 9.55098E-05-2.88484E-05-2.85693E-05 1.98154E-07-2.65073E-19-6.81560E-19
 -1      3841 9.54672E-05-2.87982E-05-2.85717E-05 1.83054E-07-9.46189E-20-6.58798E-19
 -1      3842 9.55642E-05-2.88942E-05-2.85737E-05 1.62981E-07-2.29552E-19-8.07817E-19
 -1      3843 9.54175E-05-2.87446E-05-2.85743E-05 1.73265E-07-1.93610E-19-7.76681E-19
 -1      3844 9.53782E-05-2.86936E-05-2.85785E-05 1.65230E-07-2.56030E-19-6.74728E-19
 -1      3845 9.54611E-05-2.87840E-05-2.85764E-05 1.41484E-07-1.56136E-19-4.14252E-19
 -1      3846 9.53308E-05-2.86389E-05-2.85827E-05 1.61593E-07-7.09961E-20-1.00714E-18
 -1      3847 9.52926E-05-2.85860E-05-2.85880E-05 1.61500E-07 1.07718E-19-1.24213E-18
 -1      3848 9.53651E-05-2.86719E-05-2.85831E-05 1.29970E-07-2.78779E-19-7.67609E-19
 -1      3849 9.52448E-05-2.85288E-05-2.85932E-05 1.64881E-07 5.64373E-20-8.82643E-19
 -1      3850 9.52055E-05-2.84730E-05-2.85991E-05 1.73758E-07 6.97076E-19-1.23680E-18
 -1      3851 9.52709E-05-2.85554E-05-2.85923E-05 1.30430E-07 1.46006E-19-1.33189E-18
 -1      3852 9.51545E-05-2.84118E-05-2.86048E-05 1.85371E-07 4.60012E-19-1.40733E-18
 -1      3853 9.51121E-05-2.83519E-05-2.86110E-05 2.04613E-07 8.38264E-20-1.72257E-18
 -1      3854 9.51731E-05-2.84318E-05-2.86031E-05 1.44842E-07 8.59409E-20-1.14835E-18
 -1      3855 9.50549E-05-2.82855E-05-2.86166E-05 2.26289E-07 1.89034E-19-1.71165E-18
 -1      3856 9.50077E-05-2.82208E-05-2.86224E-05 2.57815E-07 1.36920E-21-1.76201E-18
 -1      3857 9.50659E-05-2.82980E-05-2.86143E-05 1.76228E-07 1.32103E-20-9.88821E-19
 -1      3858 9.49420E-05-2.81487E-05-2.86271E-05 2.92289E-07 3.11525E-19-1.51837E-18
 -1      3859 9.48892E-05-2.80797E-05-2.86319E-05 3.38738E-07 2.49766E-19-1.07861E-18
 -1      3860 9.49439E-05-2.81518E-05-2.86244E-05 2.29125E-07 4.88227E-19-9.36151E-19
 -1      3861 9.48133E-05-2.80027E-05-2.86349E-05 3.89897E-07-4.89695E-19-5.76486E-19
 -1      3862 9.47557E-05-2.79320E-05-2.86377E-05 4.54804E-07-1.02706E-19-8.45082E-19
 -1      3863 9.48031E-05-2.79928E-05-2.86320E-05 3.10190E-07 1.12665E-19-9.92002E-19
 -1      3864 9.46696E-05-2.78533E-05-2.86377E-05 5.28141E-07-6.24425E-19-1.38768E-18
 -1      3865 9.46105E-05-2.77862E-05-2.86374E-05 6.16125E-07-5.23850E-19-2.05343E-18
 -1      3866 9.46415E-05-2.78246E-05-2.86347E-05 4.28979E-07-8.13100E-19-1.18580E-18
 -1      3867 9.45168E-05-2.77127E-05-2.86329E-05 7.19155E-07 4.39451E-19-2.29215E-18
 -1      3868 9.44638E-05-2.76594E-05-2.86280E-05 8.36033E-07 7.42521E-19-1.68041E-18
 -1      3869 9.44615E-05-2.76560E-05-2.86299E-05 5.98967E-07-3.29802E-19-2.11352E-18
 -1      3870 9.43697E-05-2.76030E-05-2.86172E-05 9.78691E-07 7.91736E-19-1.51944E-18
 -1      3871 9.43361E-05-2.75800E-05-2.86060E-05 1.13137E-06 7.92849E-19-1.46210E-18
 -1      3872 9.42723E-05-2.75048E-05-2.86140E-05 8.38585E-07 7.88507E-19-1.61865E-18
 -1      3873 9.42560E-05-2.75604E-05-2.85868E-05 1.32615E-06 5.11493E-19-1.71214E-18
 -1      3874 9.42641E-05-2.75930E-05-2.85678E-05 1.52204E-06 6.84292E-19-1.12927E-18
 -1      3875 9.40946E-05-2.74018E-05-2.85828E-05 1.17211E-06 6.38572E-19-2.11500E-18
 -1      3876 9.42227E-05-2.76397E-05-2.85381E-05 1.78345E-06 8.42888E-19-1.34843E-18
 -1      3877 9.43072E-05-2.77647E-05-2.85102E-05 2.02889E-06 8.77296E-20-1.04303E-18
 -1      3878 9.39658E-05-2.73957E-05-2.85320E-05 1.62971E-06 6.96649E-19-1.62539E-18
 -1      3879 9.43447E-05-2.79204E-05-2.84687E-05 2.37172E-06-2.71509E-19-9.35095E-19
 -1      3880 9.45561E-05-2.81882E-05-2.84324E-05 2.66842E-06-5.65888E-19-4.31671E-19
 -1      3881 9.39490E-05-2.75597E-05-2.84577E-05 2.24601E-06 2.24665E-19-1.22984E-18
 -1      3882 9.47340E-05-2.85109E-05-2.83795E-05 3.10208E-06-6.56579E-19 4.30154E-19
 -1      3883 9.51413E-05-2.89858E-05-2.83382E-05 3.44087E-06-4.42303E-19 8.69062E-19
 -1      3884 9.41437E-05-2.79988E-05-2.83580E-05 3.05346E-06-2.58571E-20 6.03714E-19
 -1      3885 9.55493E-05-2.95493E-05-2.82783E-05 3.96057E-06-4.52900E-19 5.46121E-19
 -1      3886 9.62404E-05-3.03058E-05-2.82409E-05 4.31005E-06 4.00229E-19 3.74825E-19
 -1      3887 9.46981E-05-2.88544E-05-2.82369E-05 4.06922E-06-4.36676E-19 8.87368E-19
 -1      3888 9.70001E-05-3.11949E-05-2.81855E-05 4.88138E-06 5.51114E-19 1.24765E-19
 -1      3889 9.80783E-05-3.23083E-05-2.81697E-05 5.16968E-06 2.14998E-19 1.63150E-19
 -1      3890 9.58203E-05-3.03025E-05-2.81088E-05 5.26954E-06 5.98335E-20 4.36029E-19
 -1      3891 9.93539E-05-3.36138E-05-2.81433E-05 5.69644E-06 4.23787E-19-2.32594E-19
 -1      3892 1.00914E-04-3.51125E-05-2.81845E-05 5.76962E-06 6.34668E-19 2.60376E-20
 -1      3893 9.77887E-05-3.25464E-05-2.80066E-05 6.55789E-06 3.34110E-19-1.56822E-19
 -1      3894 1.02889E-04-3.68692E-05-2.82363E-05 6.09111E-06 1.80388E-19 6.73552E-19
 -1      3895 1.05032E-04-3.87027E-05-2.84058E-05 5.60871E-06 8.89782E-20 1.25370E-18
 -1      3896 1.00947E-04-3.57340E-05-2.80012E-05 7.67684E-06 8.55464E-19 8.53894E-19
 -1      3897 1.08722E-04-4.21326E-05-2.85209E-05 7.07351E-06 3.53782E-19 1.77482E-18
 -1      3898 1.11444E-04-4.40754E-05-2.88772E-05 6.05839E-06 1.38597E-18 1.28661E-18
 -1      3899 1.15038E-04-4.53605E-05-2.99078E-05 1.12318E-06 2.55347E-18 3.27305E-19
 -1      3900 9.65130E-05-2.91618E-05-2.88650E-05-6.42211E-07 1.79669E-19-1.74911E-18
 -1      3901 9.65755E-05-2.90645E-05-2.89309E-05-6.20691E-07 2.16399E-19-1.81481E-18
 -1      3902 9.57626E-05-2.90855E-05-2.85748E-05-3.70919E-07 4.52449E-19-1.18648E-18
 -1      3903 9.58219E-05-2.91299E-05-2.85820E-05-4.08643E-07 6.66858E-19-8.71730E-19
 -1      3904 9.53809E-05-2.86991E-05-2.85772E-05-2.00933E-07-3.83071E-19-1.49086E-18
 -1      3905 9.54145E-05-2.87470E-05-2.85721E-05-2.10761E-07-3.70535E-19-1.41169E-18
 -1      3906 9.54603E-05-2.87978E-05-2.85688E-05-2.22898E-07-3.23037E-19-1.46169E-18
 -1      3907 9.54970E-05-2.88446E-05-2.85655E-05-2.40782E-07-4.98973E-19-1.52918E-18
 -1      3908 9.54599E-05-2.87875E-05-2.85744E-05-1.85042E-07-4.47094E-19-1.59849E-18
 -1      3909 9.52242E-05-2.84834E-05-2.86027E-05-2.04826E-07 6.24976E-21-8.72718E-19
 -1      3910 9.52595E-05-2.85393E-05-2.85950E-05-1.96511E-07-4.09934E-19-1.16272E-18
 -1      3911 9.51336E-05-2.83560E-05-2.86186E-05-2.32384E-07 3.49717E-19-7.87568E-19
 -1      3912 9.51748E-05-2.84201E-05-2.86100E-05-2.14131E-07 5.55606E-19-8.11264E-19
 -1      3913 9.51911E-05-2.84413E-05-2.86067E-05-1.78273E-07 1.13601E-19-1.20208E-18
 -1      3914 9.50166E-05-2.81976E-05-2.86366E-05-2.80313E-07 2.44595E-19-1.05478E-19
 -1      3915 9.50716E-05-2.82783E-05-2.86268E-05-2.49994E-07 1.33760E-19-5.59691E-19
 -1      3916 9.50812E-05-2.82952E-05-2.86218E-05-2.03285E-07-7.92179E-20-6.69577E-19
 -1      3917 9.48717E-05-2.80130E-05-2.86540E-05-3.43391E-07 3.46565E-19 2.22914E-19
 -1      3918 9.49414E-05-2.81076E-05-2.86445E-05-3.04033E-07 5.32153E-19 5.88664E-19
 -1      3919 9.49457E-05-2.81221E-05-2.86374E-05-2.40911E-07 1.46952E-19 6.73000E-20
 -1      3920 9.46786E-05-2.77835E-05-2.86702E-05-4.20666E-07-3.22976E-19-4.96344E-19
 -1      3921 9.47740E-05-2.79020E-05-2.86611E-05-3.72099E-07 8.00025E-20-1.67836E-19
 -1      3922 9.47757E-05-2.79173E-05-2.86517E-05-2.87092E-07 4.07831E-19 1.64163E-19
 -1      3923 9.44164E-05-2.74941E-05-2.86828E-05-5.05817E-07-4.40738E-19-7.46680E-19
 -1      3924 9.45490E-05-2.76445E-05-2.86755E-05-4.50974E-07-2.89011E-19-8.30483E-19
 -1      3925 9.45521E-05-2.76651E-05-2.86631E-05-3.36492E-07 2.34605E-19-1.78595E-19
 -1      3926 9.40570E-05-2.71263E-05-2.86878E-05-5.86287E-07-1.27808E-18-3.40692E-19
 -1      3927 9.42429E-05-2.73186E-05-2.86843E-05-5.31278E-07-7.95014E-19-5.79065E-19
 -1      3928 9.42541E-05-2.73519E-05-2.86684E-05-3.77876E-07-5.93482E-19-3.67499E-20
 -1      3929 9.35629E-05-2.66583E-05-2.86788E-05-6.39450E-07-5.79543E-19 1.92039E-19
 -1      3930 9.38243E-05-2.69046E-05-2.86826E-05-5.95656E-07-9.63922E-19-8.42895E-20
 -1      3931 9.38553E-05-2.69622E-05-2.86629E-05-3.91568E-07-1.16785E-18-2.36415E-19
 -1      3932 9.28843E-05-2.60647E-05-2.86457E-05-6.26979E-07-1.13769E-19-5.75062E-19
 -1      3933 9.32515E-05-2.63792E-05-2.86625E-05-6.14114E-07-1.83263E-19-1.70332E-19
 -1      3934 9.33216E-05-2.64795E-05-2.86389E-05-3.44880E-07-1.37504E-19-4.91461E-19
 -1      3935 9.19561E-05-2.53193E-05-2.85724E-05-4.87016E-07 1.45962E-19-4.04733E-19
 -1      3936 9.24702E-05-2.57170E-05-2.86112E-05-5.37474E-07-1.52948E-19-4.19974E-19
 -1      3937 9.26110E-05-2.58879E-05-2.85851E-05-1.85725E-07 1.38711E-19-1.02891E-18
 -1      3938 9.06968E-05-2.44012E-05-2.84342E-05-1.23973E-07 2.39335E-19 3.36415E-19
 -1      3939 9.14117E-05-2.48951E-05-2.85091E-05-2.87846E-07 2.71968E-19-1.57763E-20
 -1      3940 9.16735E-05-2.51777E-05-2.84840E-05 1.65587E-07-4.03350E-20-3.68796E-19
 -1      3941 8.89115E-05-2.32422E-05-2.81763E-05 6.58360E-07 2.66096E-19 5.27974E-19
 -1      3942 8.99523E-05-2.38709E-05-2.83199E-05 2.73315E-07 6.44302E-19 5.51494E-19
 -1      3943 9.04159E-05-2.43279E-05-2.83039E-05 8.52296E-07 2.49368E-19 1.35304E-18
 -1      3944 8.66491E-05-2.19804E-05-2.77615E-05 2.00510E-06 1.40133E-19-3.17027E-20
 -1      3945 8.80071E-05-2.26750E-05-2.79954E-05 1.32376E-06 1.16429E-19 6.61534E-19
 -1      3946 8.88049E-05-2.33995E-05-2.80063E-05 2.05169E-06 1.66895E-19 1.16908E-18
 -1      3947 8.37264E-05-2.06591E-05-2.70914E-05 4.24205E-06 1.60512E-19 2.68446E-19
 -1      3948 8.55412E-05-2.14029E-05-2.74765E-05 3.08672E-06 4.86855E-19 2.07644E-19
 -1      3949 8.68510E-05-2.25084E-05-2.75448E-05 3.97282E-06 5.14135E-19 1.14759E-18
 -1      3950 8.00265E-05-1.94864E-05-2.60169E-05 7.76715E-06 1.16095E-18-5.40430E-19
 -1      3951 8.24175E-05-2.01711E-05-2.66507E-05 5.88326E-06 6.59304E-19-7.45418E-20
 -1      3952 8.44804E-05-2.17924E-05-2.68356E-05 6.98464E-06 8.99494E-19 6.03139E-19
 -1      3953 7.72223E-05-2.01602E-05-2.45015E-05 1.41345E-05 1.03149E-19-4.00951E-20
 -1      3954 7.95189E-05-1.99164E-05-2.54559E-05 1.04721E-05 5.63415E-19 1.47350E-20
 -1      3955 8.25390E-05-2.22508E-05-2.58629E-05 1.16550E-05 8.80806E-19 7.84085E-20
 -1      3956 8.25087E-05-2.51150E-05-2.47281E-05 1.81758E-05 7.59104E-20 1.94279E-18
 -1      3957 9.54654E-05-2.45726E-05-3.03821E-05 1.33053E-06 5.41525E-19-2.05925E-18
 -1      3958 9.58118E-05-2.53178E-05-3.02083E-05 8.47312E-07 2.85223E-19-1.86195E-18
 -1      3959 9.65762E-05-2.77696E-05-2.94936E-05-1.86211E-07 3.55417E-19-1.88059E-18
 -1      3960 9.64884E-05-2.72876E-05-2.96535E-05 4.60674E-08 3.79134E-19-1.69896E-18
 -1      3961 9.63071E-05-2.67610E-05-2.98115E-05 2.30869E-07 2.67776E-19-1.76563E-18
 -1      3962 9.61113E-05-2.60688E-05-3.00157E-05 5.78029E-07 2.59473E-19-1.77059E-18
 -1      3963 9.59766E-05-2.56203E-05-3.01535E-05 6.02124E-07 1.49878E-19-2.12877E-18
 -1      3964 9.64382E-05-2.68987E-05-2.97998E-05 1.37803E-07 2.51738E-19-2.06367E-18
 -1      3965 1.05977E-04-7.95053E-06-4.19990E-05 8.07463E-07 1.52625E-19-1.59932E-18
 -1      3966 9.53042E-05-2.85958E-05-2.85887E-05-1.94580E-07-3.89990E-19-1.15799E-18
 -1      3967 9.53372E-05-2.86465E-05-2.85822E-05-1.95642E-07-3.45104E-19-1.37441E-18
 -1      3968 9.52841E-05-2.85661E-05-2.85934E-05-1.67312E-07-4.66967E-19-1.21932E-18
 -1      3969 9.61789E-05-2.60981E-05-3.00341E-05-4.32923E-07-2.61653E-19-1.93008E-18
 -1      3970 9.64007E-05-2.68000E-05-2.98338E-05-1.49375E-07-2.39080E-19-1.66459E-18
 -1      3971 9.65281E-05-2.69737E-05-2.98067E-05-7.85438E-08-2.35217E-19-1.75409E-18
 -1      3972 9.55747E-05-2.50161E-05-3.02472E-05 1.47330E-06 7.73142E-19-1.77557E-18
 -1      3973 9.50332E-05-2.33189E-05-3.07444E-05 1.94413E-07 1.67124E-19-2.07397E-18
 -1      3974 9.50338E-05-2.32980E-05-3.07469E-05-1.71743E-07-8.59100E-20-2.10883E-18
 -1      3975 9.55697E-05-2.43592E-05-3.05039E-05 2.45972E-07 2.32330E-19-2.00797E-18
 -1      3976 9.81972E-05-3.71461E-05-2.62552E-05 1.86664E-05 3.58950E-19-8.70022E-19
 -1      3977 8.91022E-05-3.00269E-05-2.52022E-05 1.96108E-05-1.92094E-19 1.75159E-18
 -1      3978 9.66261E-05-2.89257E-05-2.90159E-05-5.96741E-07 9.79574E-20-1.87665E-18
 -1      3979 9.66645E-05-2.87399E-05-2.91075E-05-5.26842E-07-2.03042E-21-1.78320E-18
 -1      3980 9.67196E-05-2.90032E-05-2.90228E-05-4.93846E-07 1.38033E-19-2.04558E-18
 -1      3981 9.63641E-05-2.92646E-05-2.87564E-05-6.28411E-07-1.09272E-20-1.53279E-18
 -1      3982 9.64370E-05-2.92252E-05-2.88034E-05-6.37184E-07 1.53253E-19-1.66817E-18
 -1      3983 9.65928E-05-2.92256E-05-2.88735E-05-5.25490E-07 9.96618E-20-1.53226E-18
 -1      3984 9.66660E-05-2.84917E-05-2.92208E-05-4.58621E-07-1.26704E-20-1.82695E-18
 -1      3985 9.66575E-05-2.81764E-05-2.93454E-05-3.16990E-07 1.30175E-19-1.73348E-18
 -1      3986 9.66977E-05-2.78885E-05-2.94887E-05-1.82031E-07 2.03834E-19-2.03788E-18
 -1      3987 9.67730E-05-2.85843E-05-2.92243E-05-3.89445E-07 2.05326E-21-1.76661E-18
 -1      3988 1.06395E-04-4.09847E-05-2.80613E-05 9.93499E-06 9.16913E-19 2.11759E-18
 -1      3989 8.82427E-05-2.79399E-05-2.57300E-05 1.60929E-05-2.65421E-19 1.10455E-18
 -1      3990 9.59261E-05-2.91936E-05-2.86018E-05-3.57337E-07 6.34061E-19-9.47949E-19
 -1      3991 9.58960E-05-2.91730E-05-2.85943E-05-4.41290E-07 5.65071E-19-8.11155E-19
 -1      3992 9.59612E-05-2.92086E-05-2.86073E-05-4.77588E-07 7.06779E-19-9.84712E-19
 -1      3993 9.55554E-05-2.88927E-05-2.85706E-05-2.12510E-07-4.03003E-19-1.37197E-18
 -1      3994 9.55476E-05-2.88948E-05-2.85646E-05-2.59539E-07-4.35456E-19-1.27246E-18
 -1      3995 9.55892E-05-2.89409E-05-2.85636E-05-2.84707E-07 2.05968E-19-1.56417E-18
 -1      3996 9.59577E-05-2.54560E-05-3.02189E-05 4.47714E-07 1.13484E-19-2.14977E-18
 -1      3997 9.62031E-05-2.92809E-05-2.86799E-05-5.79846E-07 2.39743E-19-1.58902E-18
 -1      3998 9.62772E-05-2.92791E-05-2.87123E-05-6.06290E-07-2.29989E-20-1.53941E-18
 -1      3999 9.64308E-05-2.93161E-05-2.87654E-05-5.10721E-07 1.32634E-19-1.41254E-18
 -1      4000 9.56909E-05-2.48607E-05-3.03619E-05-7.93593E-07-3.96959E-19-2.03549E-18
 -1      4001 9.59460E-05-2.55067E-05-3.01907E-05-5.66755E-07-3.94319E-19-2.02743E-18
 -1      4002 9.60872E-05-2.57317E-05-3.01478E-05-3.70168E-07-1.36605E-19-2.06427E-18
 -1      4003 9.50454E-05-2.34184E-05-3.07014E-05-1.16813E-06-4.78136E-19-2.38141E-18
 -1      4004 9.54178E-05-2.42235E-05-3.05084E-05-9.13294E-07-4.67865E-19-2.20625E-18
 -1      4005 9.55964E-05-2.45651E-05-3.04465E-05-6.08436E-07-2.76511E-19-2.20096E-18
 -1      4006 9.49637E-05-2.32027E-05-3.07551E-05-9.01995E-07-3.75735E-19-2.48602E-18
 -1      4007 9.53714E-05-2.86799E-05-2.85824E-05-1.69689E-07-6.43437E-19-1.68116E-18
 -1      4008 9.56965E-05-2.90370E-05-2.85683E-05-3.41271E-07 2.91821E-19-1.33228E-18
 -1      4009 9.57884E-05-2.91002E-05-2.85820E-05-3.00845E-07 6.23040E-19-1.41360E-18
 -1      4010 9.56483E-05-2.89920E-05-2.85659E-05-3.09881E-07 5.42665E-19-1.72064E-18
 -1      4011 9.49244E-05-2.31041E-05-3.07865E-05-6.02121E-07-3.16525E-19-2.51806E-18
 -1      4012 1.05009E-04-4.04787E-05-2.76399E-05 1.25067E-05 1.24699E-18 2.47419E-19
 -1      4013 1.01822E-04-3.88479E-05-2.68941E-05 1.60513E-05 1.06061E-18-6.36994E-19
 -1      4014 9.69269E-05-3.46432E-05-2.67613E-05 1.50139E-05 4.73743E-19 4.67357E-21
 -1      4015 1.01450E-04-3.69691E-05-2.76690E-05 1.04129E-05 1.30293E-18 8.13229E-19
 -1      4016 9.54274E-05-2.40826E-05-3.05656E-05-3.59358E-07-1.03219E-19-2.15387E-18
 -1      4017 9.65526E-05-2.70719E-05-2.97837E-05 3.95312E-08 1.38293E-19-1.98885E-18
 -1      4018 9.63819E-05-2.64992E-05-2.99447E-05 2.29230E-07 1.39066E-19-2.02008E-18
 -1      4019 9.69187E-05-2.85382E-05-2.93052E-05 1.85648E-07-1.95600E-19-1.35399E-18
 -1      4020 9.69166E-05-2.88008E-05-2.91923E-05 2.50322E-07-2.74629E-19-1.18857E-18
 -1      4021 9.68861E-05-2.90048E-05-2.90909E-05 2.54031E-07-2.11445E-19-1.01912E-18
 -1      4022 9.68345E-05-2.91537E-05-2.90052E-05 2.86999E-07-9.80583E-20-7.84073E-19
 -1      4023 9.69407E-05-2.88939E-05-2.91663E-05 1.34339E-07-5.07955E-20-1.29564E-18
 -1      4024 9.67631E-05-2.92604E-05-2.89285E-05 2.80380E-07-9.53676E-20-7.09483E-19
 -1      4025 9.66844E-05-2.93300E-05-2.88649E-05 2.91180E-07 1.07577E-19-5.87604E-19
 -1      4026 9.68413E-05-2.92146E-05-2.89870E-05 1.53411E-07 2.33693E-20-9.48287E-19
 -1      4027 9.65926E-05-2.93706E-05-2.88083E-05 2.78596E-07 1.48897E-19-7.04507E-19
 -1      4028 9.65021E-05-2.93871E-05-2.87623E-05 2.74892E-07 7.81657E-20-6.49914E-19
 -1      4029 9.66805E-05-2.93672E-05-2.88527E-05 1.55919E-07-1.32975E-20-7.13817E-19
 -1      4030 9.64037E-05-2.93845E-05-2.87215E-05 2.59076E-07 6.03347E-20-5.59657E-19
 -1      4031 9.63106E-05-2.93670E-05-2.86892E-05 2.45858E-07 2.28466E-19-5.77984E-19
 -1      4032 9.64934E-05-2.94063E-05-2.87546E-05 1.49019E-07 9.55638E-20-9.16804E-19
 -1      4033 9.62143E-05-2.93363E-05-2.86610E-05 2.33404E-07 1.51647E-19-7.22226E-19
 -1      4034 9.61291E-05-2.93003E-05-2.86393E-05 2.17538E-07-1.79537E-19-8.70109E-19
 -1      4035 9.62934E-05-2.93697E-05-2.86843E-05 1.34594E-07 1.43178E-19-8.55905E-19
 -1      4036 9.60387E-05-2.92561E-05-2.86205E-05 2.00212E-07-3.71687E-19-1.05946E-18
 -1      4037 9.59598E-05-2.92080E-05-2.86067E-05 1.82827E-07-2.94447E-19-9.66630E-19
 -1      4038 9.61162E-05-2.93025E-05-2.86373E-05 1.13610E-07-2.65463E-19-1.09391E-18
 -1      4039 9.58788E-05-2.91549E-05-2.85953E-05 1.69204E-07-4.49762E-19-7.21326E-19
 -1      4040 9.58083E-05-2.91015E-05-2.85876E-05 1.52948E-07-6.42594E-19-8.20188E-19
 -1      4041 9.59439E-05-2.92014E-05-2.86066E-05 9.66470E-08-3.02940E-19-8.48411E-19
 -1      4042 9.57367E-05-2.90455E-05-2.85815E-05 1.41172E-07-5.11504E-19-6.54518E-19
 -1      4043 9.56743E-05-2.89902E-05-2.85783E-05 1.26823E-07-3.06436E-19-2.63168E-19
 -1      4044 9.57932E-05-2.90899E-05-2.85888E-05 8.18416E-08-5.16128E-19-2.25508E-19
 -1      4045 9.56112E-05-2.89325E-05-2.85763E-05 1.18818E-07-1.18923E-19-2.00508E-19
 -1      4046 9.55569E-05-2.88769E-05-2.85764E-05 1.08381E-07-5.00211E-20-1.34779E-19
 -1      4047 9.56569E-05-2.89727E-05-2.85803E-05 6.86232E-08-8.79290E-20 2.23230E-19
 -1      4048 9.54999E-05-2.88197E-05-2.85772E-05 1.01093E-07-3.28206E-19 8.34299E-20
 -1      4049 9.54502E-05-2.87632E-05-2.85796E-05 9.43547E-08-2.03216E-19-3.78609E-20
 -1      4050 9.55409E-05-2.88586E-05-2.85791E-05 5.69498E-08-6.34208E-20-8.81884E-20
 -1      4051 9.53967E-05-2.87043E-05-2.85826E-05 9.08305E-08-5.49107E-19 2.34951E-19
 -1      4052 9.53493E-05-2.86462E-05-2.85866E-05 8.89130E-08-6.38289E-19-1.37068E-19
 -1      4053 9.54308E-05-2.87390E-05-2.85829E-05 5.06100E-08-4.22869E-19-1.23241E-20
 -1      4054 9.52967E-05-2.85851E-05-2.85910E-05 8.88980E-08-1.22454E-19-5.16126E-19
 -1      4055 9.52491E-05-2.85240E-05-2.85961E-05 9.26258E-08 3.41579E-19-4.99106E-19
 -1      4056 9.53264E-05-2.86163E-05-2.85902E-05 4.94623E-08-4.93644E-19 3.74099E-19
 -1      4057 9.51937E-05-2.84587E-05-2.86013E-05 9.69828E-08 1.47732E-19-8.16999E-19
 -1      4058 9.51429E-05-2.83927E-05-2.86069E-05 1.07576E-07 1.89100E-19-8.18620E-19
 -1      4059 9.52201E-05-2.84864E-05-2.85998E-05 5.45916E-08-1.16166E-19-3.13022E-19
 -1      4060 9.50811E-05-2.83213E-05-2.86123E-05 1.17787E-07 2.94987E-19-6.96385E-19
 -1      4061 9.50245E-05-2.82488E-05-2.86178E-05 1.37069E-07 1.02212E-19-4.77608E-19
 -1      4062 9.51051E-05-2.83454E-05-2.86104E-05 6.83807E-08 1.39591E-19-7.44834E-19
 -1      4063 9.49525E-05-2.81693E-05-2.86227E-05 1.55332E-07 1.38099E-19-5.03944E-19
 -1      4064 9.48875E-05-2.80893E-05-2.86273E-05 1.86119E-07 4.34122E-19-6.39857E-19
 -1      4065 9.49742E-05-2.81891E-05-2.86208E-05 9.46634E-08 1.10356E-19-7.02797E-19
 -1      4066 9.48016E-05-2.80008E-05-2.86308E-05 2.16045E-07 1.17344E-19-1.13743E-18
 -1      4067 9.47268E-05-2.79132E-05-2.86336E-05 2.62261E-07-2.63184E-19-1.14644E-18
 -1      4068 9.48198E-05-2.80138E-05-2.86292E-05 1.39162E-07-4.00323E-20-8.09827E-19
 -1      4069 9.46239E-05-2.78158E-05-2.86345E-05 3.09327E-07-7.32892E-19-1.32019E-18
 -1      4070 9.45393E-05-2.77228E-05-2.86343E-05 3.76758E-07-8.65449E-19-1.34732E-18
 -1      4071 9.46352E-05-2.78179E-05-2.86337E-05 2.10894E-07-8.48951E-19-1.54755E-18
 -1      4072 9.44173E-05-2.76191E-05-2.86310E-05 4.49026E-07-7.37560E-19-1.33218E-18
 -1      4073 9.43257E-05-2.75260E-05-2.86261E-05 5.45856E-07-3.70026E-20-9.21303E-19
 -1      4074 9.44153E-05-2.76029E-05-2.86314E-05 3.23590E-07-7.94857E-19-1.28284E-18
 -1      4075 9.41848E-05-2.74222E-05-2.86167E-05 6.54958E-07 4.11706E-19-8.46448E-19
 -1      4076 9.40936E-05-2.73394E-05-2.86051E-05 7.92434E-07 4.08451E-19-1.43265E-18
 -1      4077 9.41582E-05-2.73760E-05-2.86186E-05 4.97472E-07 1.26105E-19-4.88708E-19
 -1      4078 9.39379E-05-2.72472E-05-2.85868E-05 9.54631E-07 7.08560E-19-1.33655E-18
 -1      4079 9.38616E-05-2.71927E-05-2.85663E-05 1.14759E-06 9.51686E-19-1.04599E-18
 -1      4080 9.38681E-05-2.71535E-05-2.85905E-05 7.61574E-07 4.59858E-19-6.55340E-19
 -1      4081 9.37022E-05-2.71322E-05-2.85360E-05 1.38477E-06 6.04624E-19-9.20212E-19
 -1      4082 9.36658E-05-2.71343E-05-2.85041E-05 1.65173E-06 2.45752E-19-8.56091E-19
 -1      4083 9.35595E-05-2.69653E-05-2.85411E-05 1.15620E-06 5.62185E-19-2.46926E-19
 -1      4084 9.35248E-05-2.71367E-05-2.84584E-05 1.99145E-06 7.76143E-20-1.26958E-18
 -1      4085 9.35690E-05-2.72386E-05-2.84132E-05 2.35433E-06 4.51414E-19-7.43280E-19
 -1      4086 9.32648E-05-2.68623E-05-2.84634E-05 1.73449E-06-7.15118E-20-4.20324E-19
 -1      4087 9.34872E-05-2.73542E-05-2.83486E-05 2.82851E-06 3.65819E-19-9.06912E-19
 -1      4088 9.36736E-05-2.76174E-05-2.82898E-05 3.30552E-06-1.91827E-19-2.85478E-19
 -1      4089 9.30451E-05-2.69270E-05-2.83502E-05 2.56498E-06 1.64273E-19-4.34015E-19
 -1      4090 9.37182E-05-2.79153E-05-2.82049E-05 3.94894E-06-3.66989E-20 2.51492E-19
 -1      4091 9.41382E-05-2.84254E-05-2.81356E-05 4.55009E-06 4.46687E-19 4.84882E-19
 -1      4092 9.30017E-05-2.72751E-05-2.81953E-05 3.72340E-06 2.75565E-19-8.25425E-19
 -1      4093 9.44199E-05-2.90059E-05-2.80327E-05 5.38259E-06 4.04294E-20 5.30606E-19
 -1      4094 9.51920E-05-2.98687E-05-2.79631E-05 6.09101E-06-5.95198E-19 4.18642E-19
 -1      4095 9.33098E-05-2.80883E-05-2.79979E-05 5.28753E-06 2.61327E-19 1.09601E-19
 -1      4096 9.58724E-05-3.08543E-05-2.78527E-05 7.08570E-06-3.46523E-19 9.05419E-19
 -1      4097 9.71330E-05-3.21863E-05-2.78040E-05 7.83117E-06 6.16254E-19 8.87873E-19
 -1      4098 9.42575E-05-2.96062E-05-2.77695E-05 7.30517E-06-1.39530E-19 2.94628E-19
 -1      4099 9.81565E-05-3.34467E-05-2.77165E-05 8.81354E-06 1.35227E-18 7.13919E-19
 -1      4100 1.00051E-04-3.52473E-05-2.77329E-05 9.42838E-06 1.44431E-18 1.36479E-18
 -1      4101 9.83479E-05-3.45538E-05-2.73583E-05 1.16665E-05 1.09067E-18 4.84952E-19
 -1      4102 9.58077E-05-3.16726E-05-2.75451E-05 9.42827E-06 7.35739E-19 1.26631E-18
 -1      4103 9.12917E-05-2.99133E-05-2.63670E-05 1.46125E-05-1.75018E-19 9.55102E-19
 -1      4104 8.59543E-05-2.52748E-05-2.59807E-05 1.35937E-05 1.71274E-19 1.30205E-18
 -1      4105 1.15281E-04-4.69136E-05-2.92640E-05 6.79067E-06 1.35608E-18 8.83508E-19
 -1      4106 9.66478E-05-2.92927E-05-2.88660E-05-4.07333E-07-1.45205E-19-1.65391E-18
 -1      4107 9.67253E-05-2.92163E-05-2.89301E-05-3.94366E-07-6.20924E-20-1.86243E-18
 -1      4108 9.64579E-05-2.66158E-05-2.99323E-05-1.35958E-07-1.54441E-20-1.92366E-18
 -1      4109 9.66518E-05-2.72482E-05-2.97478E-05 1.26093E-08-1.32412E-19-1.69532E-18
 -1      4110 9.48842E-05-2.80638E-05-2.86381E-05-1.87581E-07 1.31341E-21-5.35343E-19
 -1      4111 9.49598E-05-2.81563E-05-2.86309E-05-1.68940E-07 6.45245E-20-6.00526E-19
 -1      4112 9.50366E-05-2.82477E-05-2.86242E-05-1.61561E-07 2.64563E-19-5.43485E-19
 -1      4113 9.50992E-05-2.83291E-05-2.86164E-05-1.46919E-07 7.71865E-21-6.79239E-19
 -1      4114 9.49853E-05-2.81901E-05-2.86252E-05-1.09368E-07 2.13711E-19-5.49805E-19
 -1      4115 9.51599E-05-2.84032E-05-2.86100E-05-1.41895E-07-2.06736E-19-5.48435E-19
 -1      4116 9.52097E-05-2.84704E-05-2.86031E-05-1.33546E-07-4.51711E-20-9.18749E-19
 -1      4117 9.51211E-05-2.83570E-05-2.86125E-05-1.00439E-07-5.15470E-20-6.10904E-19
 -1      4118 9.46941E-05-2.78479E-05-2.86498E-05-2.14482E-07 2.28318E-19-7.96157E-19
 -1      4119 9.47927E-05-2.79598E-05-2.86436E-05-1.93797E-07 3.40726E-19-6.15546E-19
 -1      4120 9.48182E-05-2.79943E-05-2.86369E-05-1.17200E-07 7.28276E-21-1.36327E-18
 -1      4121 9.44471E-05-2.75857E-05-2.86573E-05-2.34036E-07 5.55796E-20-1.45547E-19
 -1      4122 9.45780E-05-2.77225E-05-2.86533E-05-2.15764E-07 4.25502E-20-4.51564E-19
 -1      4123 9.46121E-05-2.77673E-05-2.86452E-05-1.16330E-07-2.83512E-19-8.60139E-19
 -1      4124 9.41233E-05-2.72663E-05-2.86569E-05-2.31054E-07-6.96988E-19 5.18602E-19
 -1      4125 9.42984E-05-2.74338E-05-2.86571E-05-2.23112E-07 2.53549E-20 3.37528E-19
 -1      4126 9.43488E-05-2.74970E-05-2.86475E-05-9.46624E-08-3.77631E-19-2.59156E-21
 -1      4127 9.36986E-05-2.68787E-05-2.86431E-05-1.80476E-07-5.92487E-19-4.34153E-19
 -1      4128 9.39333E-05-2.70832E-05-2.86506E-05-1.96133E-07-8.28334E-19 8.53538E-20
 -1      4129 9.40120E-05-2.71767E-05-2.86399E-05-3.21204E-08 3.31674E-20 2.34896E-19
 -1      4130 9.31442E-05-2.64137E-05-2.86078E-05-4.24606E-08 3.27471E-19-1.14324E-18
 -1      4131 9.34581E-05-2.66606E-05-2.86272E-05-1.03047E-07 1.01247E-19-5.28895E-19
 -1      4132 9.35834E-05-2.68025E-05-2.86162E-05 1.02891E-07 2.96515E-19-1.26683E-20
 -1      4133 9.24274E-05-2.58671E-05-2.85391E-05 2.44138E-07 4.40774E-19-1.71454E-18
 -1      4134 9.28441E-05-2.61597E-05-2.85772E-05 1.05619E-07 1.42237E-19-1.42434E-18
 -1      4135 9.30444E-05-2.63761E-05-2.85682E-05 3.58543E-07 1.87639E-19-8.71066E-19
 -1      4136 9.15132E-05-2.52469E-05-2.84196E-05 7.68495E-07-3.36053E-19-5.18559E-19
 -1      4137 9.20608E-05-2.55814E-05-2.84865E-05 5.04269E-07 1.43616E-19-9.88555E-19
 -1      4138 9.23788E-05-2.59106E-05-2.84837E-05 8.06140E-07-2.29402E-19-8.04070E-19
 -1      4139 9.03126E-05-2.45496E-05-2.82114E-05 1.72237E-06 1.82378E-19 3.82848E-19
 -1      4140 9.10574E-05-2.49320E-05-2.83300E-05 1.22331E-06-3.66425E-19-1.79185E-19
 -1      4141 9.15559E-05-2.54265E-05-2.83417E-05 1.57037E-06-6.61835E-19-9.04722E-19
 -1      4142 8.89279E-05-2.39174E-05-2.78970E-05 3.20232E-06 4.66889E-19 5.04526E-19
 -1      4143 8.98267E-05-2.42733E-05-2.80776E-05 2.41741E-06 8.06888E-19 5.54197E-19
 -1      4144 9.06089E-05-2.50131E-05-2.81203E-05 2.78833E-06-3.81777E-20-9.51302E-19
 -1      4145 8.73508E-05-2.34712E-05-2.74200E-05 5.48970E-06 1.15932E-19 7.26032E-19
 -1      4146 8.84376E-05-2.37410E-05-2.76983E-05 4.25230E-06 2.62440E-19 7.98166E-19
 -1      4147 8.96176E-05-2.48021E-05-2.77966E-05 4.60304E-06 3.45806E-19-6.39979E-19
 -1      4148 8.63305E-05-2.44020E-05-2.64632E-05 1.07718E-05 9.81202E-19 9.30702E-19
 -1      4149 9.59357E-05-2.52641E-05-3.02919E-05 2.79129E-07 1.73219E-19-1.98241E-18
 -1      4150 9.59119E-05-2.51895E-05-3.03153E-05 7.77453E-08 6.59073E-20-1.95580E-18
 -1      4151 9.60460E-05-2.92448E-05-2.86279E-05-5.15278E-07 3.16836E-19-1.00344E-18
 -1      4152 9.61149E-05-2.92653E-05-2.86492E-05-5.50601E-07 2.16709E-19-1.42854E-18
 -1      4153 9.62552E-05-2.93199E-05-2.86887E-05-4.69984E-07 1.04788E-20-1.55984E-18
 -1      4154 9.54547E-05-2.87704E-05-2.85783E-05-1.39657E-07-8.30704E-19-7.32370E-19
 -1      4155 9.55006E-05-2.88245E-05-2.85754E-05-1.48914E-07-1.98055E-19-8.86003E-19
 -1      4156 9.52634E-05-2.85360E-05-2.85972E-05-1.31504E-07-3.85502E-19-7.67179E-19
 -1      4157 9.53082E-05-2.85963E-05-2.85911E-05-1.29058E-07-6.17369E-19-7.92556E-19
 -1      4158 9.52343E-05-2.84996E-05-2.86004E-05-9.46969E-08-4.06487E-19-6.82003E-19
 -1      4159 9.68063E-05-2.77778E-05-2.95819E-05 6.10893E-08-1.92231E-19-1.51752E-18
 -1      4160 9.68809E-05-2.81991E-05-2.94364E-05 1.65871E-07-1.16428E-19-1.37252E-18
 -1      4161 9.67396E-05-2.74511E-05-2.96955E-05 1.51963E-08 1.03192E-19-1.80089E-18
 -1      4162 9.67885E-05-2.91006E-05-2.90096E-05-3.95672E-07 8.14157E-20-1.94852E-18
 -1      4163 9.68416E-05-2.89406E-05-2.90976E-05-3.52804E-07 2.93444E-20-2.06791E-18
 -1      4164 9.68227E-05-2.91678E-05-2.89994E-05-2.76009E-07-3.88469E-20-1.81738E-18
 -1      4165 9.53591E-05-2.86566E-05-2.85863E-05-1.30678E-07-8.70628E-19-7.59140E-19
 -1      4166 9.54028E-05-2.87129E-05-2.85816E-05-1.34093E-07-8.65960E-19-1.11056E-18
 -1      4167 9.53375E-05-2.86286E-05-2.85899E-05-9.40018E-08-6.15016E-19-5.21626E-19
 -1      4168 9.62586E-05-2.59555E-05-3.01192E-05 5.76566E-09-7.39939E-21-1.99007E-18
 -1      4169 9.59121E-05-2.51884E-05-3.03173E-05-6.45490E-08 1.01896E-19-2.06182E-18
 -1      4170 9.62886E-05-2.61498E-05-3.00593E-05-1.67641E-07-3.57731E-20-1.97808E-18
 -1      4171 9.64094E-05-2.64365E-05-2.99911E-05-8.28846E-08 6.96289E-20-1.90801E-18
 -1      4172 9.65621E-05-2.93390E-05-2.88080E-05-3.94111E-07 9.55369E-20-1.62849E-18
 -1      4173 9.66694E-05-2.93398E-05-2.88603E-05-2.82770E-07-1.70284E-20-2.19171E-18
 -1      4174 9.64741E-05-2.93610E-05-2.87618E-05-3.87994E-07 2.12890E-19-1.68557E-18
 -1      4175 9.68005E-05-2.80777E-05-2.94574E-05-2.01902E-07 1.14025E-19-2.00996E-18
 -1      4176 9.67212E-05-2.76277E-05-2.96086E-05-6.16677E-08 1.81219E-19-2.10030E-18
 -1      4177 9.66556E-05-2.72499E-05-2.97440E-05 9.75157E-09 2.70835E-19-1.86577E-18
 -1      4178 9.59476E-05-2.92018E-05-2.86040E-05-2.62896E-07 5.43614E-19-1.05815E-18
 -1      4179 9.60259E-05-2.92483E-05-2.86174E-05-2.89040E-07 4.14042E-19-1.18241E-18
 -1      4180 9.55556E-05-2.88806E-05-2.85744E-05-1.57926E-07-9.13083E-20-1.04522E-18
 -1      4181 9.56066E-05-2.89341E-05-2.85738E-05-1.72554E-07-3.95715E-19-7.45692E-19
 -1      4182 9.55445E-05-2.88640E-05-2.85776E-05-1.10444E-07-2.97657E-19-2.93768E-19
 -1      4183 9.69108E-05-2.88167E-05-2.91866E-05-2.36418E-07 1.17197E-19-1.98152E-18
 -1      4184 9.68587E-05-2.87226E-05-2.92032E-05-3.34700E-07 1.49477E-19-1.97143E-18
 -1      4185 9.68633E-05-2.84425E-05-2.93196E-05-2.48752E-07 9.24926E-20-1.99625E-18
 -1      4186 9.69296E-05-2.83335E-05-2.94001E-05 8.98167E-08-9.30062E-20-1.51134E-18
 -1      4187 9.60650E-05-2.55556E-05-3.02104E-05-2.78591E-07-5.07814E-20-2.10441E-18
 -1      4188 9.60900E-05-2.92768E-05-2.86363E-05-4.17505E-07 3.17729E-19-1.17500E-18
 -1      4189 8.57553E-05-2.34543E-05-2.67175E-05 8.95344E-06 1.65884E-18 4.31499E-19
 -1      4190 8.69829E-05-2.35484E-05-2.71361E-05 7.01879E-06 1.09516E-18 5.34332E-19
 -1      4191 8.87019E-05-2.50139E-05-2.73309E-05 7.24864E-06 7.64351E-19-2.94758E-19
 -1      4192 9.56641E-05-2.89976E-05-2.85724E-05-2.51935E-07 2.12958E-19-1.22537E-18
 -1      4193 9.54387E-05-2.87492E-05-2.85821E-05-9.91945E-08-4.68930E-19-1.31707E-19
 -1      4194 9.66997E-05-3.33413E-05-2.71322E-05 1.24409E-05 5.10971E-19 1.02560E-19
 -1      4195 9.37291E-05-3.14988E-05-2.66231E-05 1.42733E-05-1.03103E-19-1.04771E-20
 -1      4196 9.15386E-05-2.89361E-05-2.68130E-05 1.21354E-05 4.70821E-19 8.72661E-19
 -1      4197 9.51534E-05-3.16599E-05-2.72241E-05 1.12480E-05 2.80317E-19 1.02573E-18
 -1      4198 9.60622E-05-2.56175E-05-3.01918E-05 2.87727E-07 1.18812E-19-2.00070E-18
 -1      4199 9.57991E-05-2.49838E-05-3.03523E-05-3.81928E-07-1.37882E-19-2.25609E-18
 -1      4200 9.58004E-05-2.90995E-05-2.85849E-05-2.21350E-07 6.26119E-19-1.20525E-18
 -1      4201 9.58666E-05-2.91499E-05-2.85923E-05-2.43395E-07 7.96117E-19-1.01207E-18
 -1      4202 9.59449E-05-2.92036E-05-2.86063E-05-1.80232E-07 4.78116E-19-8.93603E-19
 -1      4203 8.87846E-05-2.63590E-05-2.68154E-05 1.06047E-05 1.01863E-18 2.59844E-19
 -1      4204 9.63646E-05-2.63316E-05-3.00163E-05 1.10493E-07 6.08686E-21-1.99923E-18
 -1      4205 9.68703E-05-2.92027E-05-2.89982E-05-5.96906E-08-7.94031E-21-1.50755E-18
 -1      4206 9.67961E-05-2.93034E-05-2.89218E-05-5.26927E-08-3.41173E-20-1.50230E-18
 -1      4207 9.67111E-05-2.93622E-05-2.88611E-05-5.69499E-08-4.55596E-21-1.46870E-18
 -1      4208 9.66161E-05-2.93984E-05-2.88046E-05-5.45467E-08-1.21941E-19-1.48280E-18
 -1      4209 9.63674E-05-2.93938E-05-2.87012E-05 3.07864E-08 3.01899E-19-1.36562E-18
 -1      4210 9.62739E-05-2.93682E-05-2.86714E-05 2.24047E-08 1.66901E-19-1.22804E-18
 -1      4211 9.61300E-05-2.93039E-05-2.86390E-05-4.09254E-08-1.95417E-19-1.15163E-18
 -1      4212 9.60431E-05-2.92565E-05-2.86210E-05-4.18573E-08-1.61124E-19-1.16569E-18
 -1      4213 9.59630E-05-2.92059E-05-2.86083E-05-3.33800E-08 1.64270E-19-7.87031E-19
 -1      4214 9.58813E-05-2.91522E-05-2.85968E-05-3.62840E-08 1.66034E-19-3.19921E-19
 -1      4215 9.56999E-05-2.90057E-05-2.85824E-05 1.46805E-08-8.90985E-20 1.22266E-19
 -1      4216 9.56366E-05-2.89485E-05-2.85798E-05 8.89424E-09-5.92479E-20 2.41564E-19
 -1      4217 9.55492E-05-2.88636E-05-2.85791E-05-2.35245E-08-4.21351E-19-1.39181E-19
 -1      4218 9.54929E-05-2.88046E-05-2.85802E-05-2.48362E-08-3.14247E-19-1.61777E-19
 -1      4219 9.54405E-05-2.87454E-05-2.85831E-05-2.21394E-08-2.50685E-19-3.08779E-19
 -1      4220 9.53865E-05-2.86849E-05-2.85861E-05-2.26440E-08-3.10141E-19-2.99494E-19
 -1      4221 9.53347E-05-2.86231E-05-2.85905E-05-2.19780E-08-5.54241E-19-4.71269E-19
 -1      4222 9.52811E-05-2.85595E-05-2.85949E-05-2.09185E-08-5.65743E-19-2.99430E-19
 -1      4223 9.52267E-05-2.84930E-05-2.86004E-05-2.18689E-08-4.84070E-19-4.45899E-19
 -1      4224 9.51701E-05-2.84240E-05-2.86056E-05-1.83121E-08-2.23448E-19-8.29362E-19
 -1      4225 9.51088E-05-2.83502E-05-2.86116E-05-2.00505E-08-5.69348E-20-5.92158E-19
 -1      4226 9.50456E-05-2.82733E-05-2.86170E-05-1.26724E-08 2.01898E-19-6.81918E-19
 -1      4227 9.49687E-05-2.81844E-05-2.86231E-05-1.34383E-08 9.25560E-20-7.16013E-19
 -1      4228 9.48948E-05-2.80970E-05-2.86280E-05-3.54259E-11-1.59668E-20-7.77341E-19
 -1      4229 9.48038E-05-2.79981E-05-2.86328E-05 3.10800E-09 1.12180E-19-7.90574E-19
 -1      4230 9.47157E-05-2.78985E-05-2.86363E-05 2.58253E-08-6.59309E-20-8.85968E-19
 -1      4231 9.46007E-05-2.77823E-05-2.86389E-05 3.79244E-08-5.29555E-19-5.83919E-19
 -1      4232 9.44950E-05-2.76694E-05-2.86397E-05 7.54178E-08-1.02129E-18-7.64052E-19
 -1      4233 9.43489E-05-2.75330E-05-2.86385E-05 1.04624E-07-6.36370E-19-5.86035E-19
 -1      4234 9.42237E-05-2.74078E-05-2.86350E-05 1.65080E-07-2.31144E-19-3.78961E-19
 -1      4235 9.40386E-05-2.72494E-05-2.86277E-05 2.24268E-07-5.19848E-20-3.54878E-19
 -1      4236 9.38940E-05-2.71160E-05-2.86176E-05 3.19848E-07 4.73419E-19-4.36293E-19
 -1      4237 9.36619E-05-2.69365E-05-2.86007E-05 4.28654E-07 4.48561E-19-3.87739E-19
 -1      4238 9.35024E-05-2.68042E-05-2.85813E-05 5.76874E-07 3.69794E-19-8.78690E-19
 -1      4239 9.32163E-05-2.66084E-05-2.85503E-05 7.64347E-07 4.48175E-19-7.72285E-19
 -1      4240 9.30534E-05-2.64950E-05-2.85179E-05 9.89506E-07-1.15199E-19-7.43368E-19
 -1      4241 9.27101E-05-2.62951E-05-2.84665E-05 1.29763E-06-3.33219E-19-4.30602E-19
 -1      4242 9.25693E-05-2.62318E-05-2.84174E-05 1.63055E-06-3.74950E-19-3.33554E-19
 -1      4243 9.21540E-05-2.60439E-05-2.83325E-05 2.14318E-06-5.70542E-19-1.75233E-19
 -1      4244 9.20767E-05-2.60831E-05-2.82613E-05 2.63024E-06-2.71719E-19-5.54403E-19
 -1      4245 9.16455E-05-2.59706E-05-2.81395E-05 3.37720E-06 2.12742E-19-6.20667E-19
 -1      4246 9.16991E-05-2.61865E-05-2.80432E-05 4.06380E-06 4.55904E-19-4.61621E-19
 -1      4247 9.12845E-05-2.62211E-05-2.78680E-05 5.15273E-06 3.32912E-19-5.30620E-19
 -1      4248 9.15797E-05-2.67266E-05-2.77456E-05 6.08933E-06 1.12000E-19-4.84346E-19
 -1      4249 9.12792E-05-2.70490E-05-2.75032E-05 7.60281E-06 5.87566E-19-5.72099E-19
 -1      4250 9.19244E-05-2.79967E-05-2.73534E-05 8.86682E-06 6.12309E-19 2.47257E-19
 -1      4251 9.25545E-05-2.91015E-05-2.71664E-05 1.03770E-05 3.84191E-19 1.25228E-18
 -1      4252 9.65539E-05-2.68082E-05-2.98856E-05 6.70616E-08 1.88847E-19-1.89841E-18
 -1      4253 9.64349E-05-2.64869E-05-2.99788E-05 4.80245E-08 8.77799E-20-1.96209E-18
 -1      4254 9.64393E-05-2.64858E-05-2.99820E-05-2.48638E-08 1.06197E-19-2.01640E-18
 -1      4255 9.67338E-05-2.74202E-05-2.97099E-05-2.57694E-08 3.41847E-19-1.92496E-18
 -1      4256 9.56688E-05-2.89898E-05-2.85758E-05-1.85066E-07-1.50882E-19-6.95598E-19
 -1      4257 9.57288E-05-2.90439E-05-2.85787E-05-2.03719E-07 2.65419E-19-1.34932E-18
 -1      4258 9.57953E-05-2.90958E-05-2.85878E-05-1.53125E-07 4.40308E-19-7.59171E-19
 -1      4259 9.56599E-05-2.89783E-05-2.85789E-05-1.27074E-07-1.30765E-19-4.49217E-19
 -1      4260 9.62925E-05-2.93488E-05-2.86886E-05-3.48992E-07 2.59897E-19-1.84311E-18
 -1      4261 9.63802E-05-2.93626E-05-2.87202E-05-3.66729E-07 2.88987E-19-1.57292E-18
 -1      4262 9.64896E-05-2.93937E-05-2.87594E-05-2.68879E-07 7.88024E-20-1.87384E-18
 -1      4263 9.69307E-05-2.90661E-05-2.90811E-05-4.44069E-08 3.76827E-20-1.39199E-18
 -1      4264 9.61653E-05-2.93214E-05-2.86501E-05-1.43443E-07 2.29067E-20-1.58044E-18
 -1      4265 9.69642E-05-2.88701E-05-2.91820E-05-5.84174E-08 3.28182E-20-1.65508E-18
 -1      4266 9.61698E-05-2.93171E-05-2.86511E-05-2.45598E-07 1.80550E-20-1.54322E-18
 -1      4267 9.62575E-05-2.93477E-05-2.86749E-05-2.65237E-07 2.90593E-20-1.72845E-18
 -1      4268 9.69407E-05-2.82914E-05-2.94219E-05-5.08764E-08 1.72108E-19-1.81183E-18
 -1      4269 9.69760E-05-2.86214E-05-2.92913E-05-2.61280E-08 6.33776E-20-1.75530E-18
 -1      4270 9.66110E-05-2.69302E-05-2.98571E-05-9.39896E-09 2.18745E-19-1.94649E-18
 -1      4271 9.55756E-05-2.88925E-05-2.85791E-05-7.61847E-08-2.40512E-19-3.60375E-19
 -1      4272 9.65209E-05-2.94080E-05-2.87607E-05-5.34437E-08-9.37041E-21-1.43580E-18
 -1      4273 9.64181E-05-2.94013E-05-2.87201E-05-5.30526E-08 2.04227E-19-1.36626E-18
 -1      4274 9.58085E-05-2.90961E-05-2.85897E-05-2.89769E-08-8.23190E-20-1.96397E-19
 -1      4275 9.57359E-05-2.90388E-05-2.85837E-05-3.12740E-08 3.18281E-20 5.44234E-20
 -1      4276 9.68779E-05-2.82045E-05-2.94325E-05-1.50313E-07 2.17430E-19-2.13147E-18
 -1      4277 9.67706E-05-2.75021E-05-2.96892E-05 1.21250E-08 2.24689E-19-1.83994E-18
 -1      4278 9.68665E-05-2.78731E-05-2.95639E-05-8.16749E-09 2.13853E-19-1.80231E-18
 -1      4279 9.63613E-05-2.93928E-05-2.87030E-05-1.70504E-07 2.05130E-19-1.66405E-18
 -1      4280 9.44002E-05-3.05911E-05-2.73616E-05 1.00601E-05 4.64242E-19 1.09907E-18
 -1      4281 9.56979E-05-2.90093E-05-2.85815E-05-9.12784E-08-1.20594E-19-8.82608E-20
 -1      4282 9.56309E-05-2.89475E-05-2.85786E-05-8.32317E-08-2.87315E-19-4.38643E-19
 -3
    1PSTEP                         4           1           1          
  100CL  101 1.000000000        4282                     0    1           1
 -4  ERROR       1    1
 -5  STR(%)      1    1    0    0
 -1         1 3.14841E+01
 -1         2 2.25427E+01
 -1         3 9.77931E-01
 -1         4 2.36800E-01
 -1         5 1.40384E+01
 -1         6 1.31425E+01
 -1         7 1.31425E+01
 -1         8 3.66350E+00
 -1         9 1.82399E+00
 -1        10 1.29195E+00
 -1        11 1.04615E+00
 -1        12 8.99362E-01
 -1        13 8.08764E-01
 -1        14 7.53602E-01
 -1        15 7.55547E-01
 -1        16 8.13048E-01
 -1        17 9.00843E-01
 -1        18 1.05273E+00
 -1        19 1.30797E+00
 -1        20 1.83593E+00
 -1        21 3.50529E+00
 -1        22 8.64050E+00
 -1        23 1.31425E+01
 -1        24 4.31739E+00
 -1        25 3.34018E+00
 -1        26 2.11048E+00
 -1        27 1.36155E+00
 -1        28 1.01381E+00
 -1        29 7.74765E-01
 -1        30 5.94773E-01
 -1        31 4.54230E-01
 -1        32 3.46097E-01
 -1        33 2.66653E-01
 -1        34 2.02492E-01
 -1        35 1.51507E-01
 -1        36 1.11661E-01
 -1        37 8.17339E-02
 -1        38 6.49732E-02
 -1        39 5.07514E-02
 -1        40 3.90951E-02
 -1        41 2.99388E-02
 -1        42 2.31911E-02
 -1        43 1.87805E-02
 -1        44 1.94728E-02
 -1        45 2.44220E-02
 -1        46 3.18981E-02
 -1        47 4.18254E-02
 -1        48 5.38529E-02
 -1        49 6.71416E-02
 -1        50 8.00839E-02
 -1        51 8.99664E-02
 -1        52 1.21346E-01
 -1        53 1.61752E-01
 -1        54 2.00406E-01
 -1        55 2.26740E-01
 -1        56 2.86530E-01
 -1        57 3.60120E-01
 -1        58 4.52848E-01
 -1        59 6.85050E-01
 -1        60 9.27580E-01
 -1        61 1.27779E+00
 -1        62 1.87380E+00
 -1        63 2.51847E+00
 -1        64 2.95919E+00
 -1        65 3.00212E+00
 -1        66 3.06646E+00
 -1        67 3.06646E+00
 -1        68 2.83477E+00
 -1        69 2.08806E+00
 -1        70 1.60057E+00
 -1        71 1.11747E+00
 -1        72 1.40384E+01
 -1        73 3.39453E+00
 -1        74 2.41273E+00
 -1        75 1.66543E+00
 -1        76 1.14423E+00
 -1        77 9.06316E-01
 -1        78 7.31671E-01
 -1        79 5.88381E-01
 -1        80 4.74007E-01
 -1        81 3.63953E-01
 -1        82 2.90223E-01
 -1        83 2.28317E-01
 -1        84 1.76848E-01
 -1        85 1.34947E-01
 -1        86 1.01523E-01
 -1        87 7.54395E-02
 -1        88 5.56146E-02
 -1        89 4.25481E-02
 -1        90 3.06522E-02
 -1        91 2.46341E-02
 -1        92 2.30215E-02
 -1        93 2.84040E-02
 -1        94 3.76251E-02
 -1        95 5.08019E-02
 -1        96 6.88418E-02
 -1        97 9.64901E-02
 -1        98 1.26995E-01
 -1        99 1.70205E-01
 -1       100 2.27579E-01
 -1       101 3.08617E-01
 -1       102 4.41506E-01
 -1       103 6.27727E-01
 -1       104 8.81777E-01
 -1       105 1.21075E+00
 -1       106 1.68159E+00
 -1       107 2.01495E+00
 -1       108 2.26347E+00
 -1       109 3.19633E+00
 -1       110 4.38702E+00
 -1       111 4.77477E+00
 -1       112 5.29588E+00
 -1       113 8.96049E+00
 -1       114 1.74528E+01
 -1       115 1.93237E+01
 -1       116 1.93237E+01
 -1       117 1.56129E+01
 -1       118 5.99622E+00
 -1       119 3.01383E+00
 -1       120 3.01383E+00
 -1       121 2.84086E+00
 -1       122 3.38510E+00
 -1       123 3.38510E+00
 -1       124 5.27707E+00
 -1       125 9.64415E+00
 -1       126 9.64415E+00
 -1       127 3.59685E+00
 -1       128 4.11031E+00
 -1       129 4.09442E+00
 -1       130 3.29155E+00
 -1       131 2.05691E+00
 -1       132 1.11034E+00
 -1       133 5.11173E-01
 -1       134 1.86891E-01
 -1       135 2.49455E-01
 -1       136 5.60609E-01
 -1       137 8.00048E-01
 -1       138 2.41150E+01
 -1       139 3.04591E+01
 -1       140 3.04591E+01
 -1       141 2.47934E+01
 -1       142 1.37277E+01
 -1       143 1.44231E+01
 -1       144 1.44231E+01
 -1       145 1.37884E+01
 -1       146 1.34967E+01
 -1       147 1.96808E+01
 -1       148 4.70232E+01
 -1       149 4.70232E+01
 -1       150 2.36225E+01
 -1       151 2.36225E+01
 -1       152 2.33888E+01
 -1       153 2.33888E+01
 -1       154 4.47107E+01
 -1       155 4.47107E+01
 -1       156 1.73846E+01
 -1       157 1.18032E+01
 -1       158 1.22924E+01
 -1       159 1.22924E+01
 -1       160 1.28187E+01
 -1       161 1.33485E+01
 -1       162 1.33485E+01
 -1       163 2.56120E+01
 -1       164 3.14841E+01
 -1       165 2.17176E+01
 -1       166 1.97316E+01
 -1       167 6.07748E+00
 -1       168 2.29820E+00
 -1       169 1.50862E+00
 -1       170 1.15777E+00
 -1       171 9.73329E-01
 -1       172 8.64093E-01
 -1       173 7.95869E-01
 -1       174 7.55547E-01
 -1       175 7.99267E-01
 -1       176 8.67159E-01
 -1       177 9.81070E-01
 -1       178 1.17268E+00
 -1       179 1.52782E+00
 -1       180 2.26102E+00
 -1       181 3.93090E+00
 -1       182 1.40384E+01
 -1       183 4.31739E+00
 -1       184 3.34018E+00
 -1       185 2.11048E+00
 -1       186 1.44621E+00
 -1       187 1.02440E+00
 -1       188 7.74765E-01
 -1       189 5.94773E-01
 -1       190 4.66801E-01
 -1       191 3.66307E-01
 -1       192 2.87658E-01
 -1       193 2.30297E-01
 -1       194 1.81395E-01
 -1       195 1.40756E-01
 -1       196 1.07731E-01
 -1       197 8.14560E-02
 -1       198 6.10001E-02
 -1       199 4.54460E-02
 -1       200 3.39354E-02
 -1       201 2.56863E-02
 -1       202 2.04361E-02
 -1       203 1.84567E-02
 -1       204 2.16742E-02
 -1       205 2.68448E-02
 -1       206 3.38846E-02
 -1       207 4.25131E-02
 -1       208 5.38529E-02
 -1       209 6.71416E-02
 -1       210 8.12627E-02
 -1       211 9.84031E-02
 -1       212 1.25068E-01
 -1       213 1.61752E-01
 -1       214 2.00406E-01
 -1       215 2.26740E-01
 -1       216 2.86530E-01
 -1       217 3.60120E-01
 -1       218 4.52848E-01
 -1       219 7.20035E-01
 -1       220 1.04753E+00
 -1       221 1.41576E+00
 -1       222 1.89894E+00
 -1       223 2.51847E+00
 -1       224 2.95919E+00
 -1       225 3.00212E+00
 -1       226 3.06646E+00
 -1       227 2.83477E+00
 -1       228 2.08806E+00
 -1       229 1.60057E+00
 -1       230 1.11747E+00
 -1       231 3.39453E+00
 -1       232 2.41273E+00
 -1       233 1.66543E+00
 -1       234 1.14423E+00
 -1       235 9.06316E-01
 -1       236 7.31671E-01
 -1       237 5.88381E-01
 -1       238 4.74007E-01
 -1       239 3.63953E-01
 -1       240 2.90223E-01
 -1       241 2.28317E-01
 -1       242 1.79632E-01
 -1       243 1.39770E-01
 -1       244 1.07256E-01
 -1       245 8.13352E-02
 -1       246 6.12118E-02
 -1       247 4.72070E-02
 -1       248 3.46536E-02
 -1       249 2.75123E-02
 -1       250 2.34965E-02
 -1       251 2.68605E-02
 -1       252 3.35784E-02
 -1       253 4.34198E-02
 -1       254 5.68225E-02
 -1       255 7.80326E-02
 -1       256 9.85772E-02
 -1       257 1.38518E-01
 -1       258 1.95376E-01
 -1       259 2.74686E-01
 -1       260 3.84500E-01
 -1       261 5.39179E-01
 -1       262 7.47688E-01
 -1       263 1.01474E+00
 -1       264 1.39084E+00
 -1       265 1.69014E+00
 -1       266 2.18646E+00
 -1       267 2.87310E+00
 -1       268 3.50593E+00
 -1       269 4.38702E+00
 -1       270 4.77477E+00
 -1       271 5.29588E+00
 -1       272 1.05798E+01
 -1       273 1.74528E+01
 -1       274 1.93237E+01
 -1       275 1.56129E+01
 -1       276 6.76146E+00
 -1       277 4.22241E+00
 -1       278 3.39083E+00
 -1       279 3.39083E+00
 -1       280 4.13960E+00
 -1       281 4.79255E+00
 -1       282 8.97019E+00
 -1       283 9.64415E+00
 -1       284 8.66875E+00
 -1       285 5.39194E+00
 -1       286 5.21826E+00
 -1       287 4.74409E+00
 -1       288 3.61653E+00
 -1       289 2.16234E+00
 -1       290 1.11911E+00
 -1       291 5.07436E-01
 -1       292 2.87054E-01
 -1       293 2.87054E-01
 -1       294 6.59168E-01
 -1       295 2.67787E+01
 -1       296 3.18626E+01
 -1       297 3.18626E+01
 -1       298 2.66592E+01
 -1       299 1.28205E+01
 -1       300 1.37277E+01
 -1       301 1.44231E+01
 -1       302 1.37884E+01
 -1       303 1.34967E+01
 -1       304 1.23702E+01
 -1       305 2.15472E+01
 -1       306 4.70232E+01
 -1       307 2.82098E+01
 -1       308 2.55683E+01
 -1       309 2.55683E+01
 -1       310 2.38776E+01
 -1       311 3.85412E+01
 -1       312 4.47107E+01
 -1       313 1.86890E+01
 -1       314 1.08154E+01
 -1       315 1.18032E+01
 -1       316 1.22924E+01
 -1       317 1.19633E+01
 -1       318 1.28187E+01
 -1       319 1.33485E+01
 -1       320 1.21591E+01
 -1       321 2.86578E+01
 -1       322 3.14841E+01
 -1       323 2.68392E+01
 -1       324 2.12721E+01
 -1       325 2.67787E+01
 -1       326 1.04693E+00
 -1       327 2.48003E+00
 -1       328 7.91944E-01
 -1       329 6.94198E-01
 -1       330 6.31693E-01
 -1       331 5.87487E-01
 -1       332 5.90723E-01
 -1       333 6.34493E-01
 -1       334 7.01309E-01
 -1       335 7.96583E-01
 -1       336 9.32087E-01
 -1       337 1.16044E+00
 -1       338 1.32929E+00
 -1       339 2.20019E+00
 -1       340 1.91354E+00
 -1       341 2.21118E+01
 -1       342 1.72833E+00
 -1       343 1.26638E+00
 -1       344 9.05834E-01
 -1       345 6.54475E-01
 -1       346 5.37650E-01
 -1       347 4.40205E-01
 -1       348 3.54201E-01
 -1       349 2.88097E-01
 -1       350 2.32233E-01
 -1       351 1.84041E-01
 -1       352 1.48189E-01
 -1       353 1.18181E-01
 -1       354 9.28740E-02
 -1       355 7.20675E-02
 -1       356 5.53376E-02
 -1       357 4.21494E-02
 -1       358 3.19234E-02
 -1       359 2.40729E-02
 -1       360 1.80219E-02
 -1       361 1.84567E-02
 -1       362 2.16742E-02
 -1       363 2.68448E-02
 -1       364 3.38846E-02
 -1       365 4.37465E-02
 -1       366 5.75774E-02
 -1       367 7.21068E-02
 -1       368 8.52743E-02
 -1       369 1.02452E-01
 -1       370 1.18913E-01
 -1       371 1.34693E-01
 -1       372 1.35999E-01
 -1       373 1.35663E-01
 -1       374 1.76015E-01
 -1       375 3.48475E-01
 -1       376 5.66981E-01
 -1       377 8.18862E-01
 -1       378 1.14915E+00
 -1       379 1.47164E+00
 -1       380 1.78117E+00
 -1       381 2.04484E+00
 -1       382 2.08749E+00
 -1       383 1.94012E+00
 -1       384 1.95325E+00
 -1       385 1.70381E+00
 -1       386 1.21955E+00
 -1       387 8.67629E-01
 -1       388 1.12997E+00
 -1       389 8.90192E-01
 -1       390 7.02453E-01
 -1       391 5.43357E-01
 -1       392 4.36455E-01
 -1       393 3.69843E-01
 -1       394 3.02127E-01
 -1       395 2.46753E-01
 -1       396 2.00998E-01
 -1       397 1.60828E-01
 -1       398 1.27381E-01
 -1       399 9.95914E-02
 -1       400 7.69198E-02
 -1       401 5.89027E-02
 -1       402 4.63375E-02
 -1       403 3.43652E-02
 -1       404 2.74366E-02
 -1       405 2.32532E-02
 -1       406 2.21237E-02
 -1       407 2.55047E-02
 -1       408 3.11786E-02
 -1       409 4.24897E-02
 -1       410 6.17371E-02
 -1       411 8.24260E-02
 -1       412 1.21424E-01
 -1       413 1.86850E-01
 -1       414 2.84299E-01
 -1       415 4.28652E-01
 -1       416 6.40611E-01
 -1       417 9.47109E-01
 -1       418 1.37852E+00
 -1       419 1.98404E+00
 -1       420 2.72447E+00
 -1       421 3.51835E+00
 -1       422 4.18304E+00
 -1       423 4.51503E+00
 -1       424 5.80743E+00
 -1       425 7.18676E+00
 -1       426 6.73541E+00
 -1       427 6.18244E+00
 -1       428 1.00621E+01
 -1       429 1.00621E+01
 -1       430 7.50498E+00
 -1       431 7.54198E+00
 -1       432 4.22241E+00
 -1       433 1.19756E+01
 -1       434 8.33534E+00
 -1       435 1.63831E+01
 -1       436 1.72817E+01
 -1       437 1.17979E+01
 -1       438 8.96993E+00
 -1       439 5.57398E+00
 -1       440 4.36679E+00
 -1       441 3.15108E+00
 -1       442 1.83199E+00
 -1       443 1.00795E+00
 -1       444 6.65082E-01
 -1       445 7.62082E-01
 -1       446 3.18626E+01
 -1       447 4.32963E+01
 -1       448 4.32963E+01
 -1       449 1.81873E+01
 -1       450 2.68392E+01
 -1       451 9.97280E+00
 -1       452 2.12721E+01
 -1       453 9.18779E-01
 -1       454 1.06772E+01
 -1       455 1.18220E+01
 -1       456 1.01326E+01
 -1       457 8.86565E+00
 -1       458 9.75633E+00
 -1       459 1.61165E+01
 -1       460 2.82098E+01
 -1       461 2.24776E+01
 -1       462 3.45904E+01
 -1       463 3.45904E+01
 -1       464 2.15973E+01
 -1       465 2.62865E+01
 -1       466 1.51344E+01
 -1       467 8.31248E+00
 -1       468 7.62019E+00
 -1       469 1.00291E+01
 -1       470 1.02775E+01
 -1       471 1.09426E+01
 -1       472 1.03717E+01
 -1       473 6.19426E+00
 -1       474 1.14807E+01
 -1       475 1.90943E+01
 -1       476 7.63761E+00
 -1       477 6.33934E+00
 -1       478 7.00508E+00
 -1       479 1.04694E+00
 -1       480 4.86261E-01
 -1       481 5.10141E-01
 -1       482 4.31484E-01
 -1       483 4.57498E-01
 -1       484 4.87166E-01
 -1       485 5.11317E-01
 -1       486 5.11317E-01
 -1       487 6.09773E-01
 -1       488 8.02399E-01
 -1       489 8.22251E+00
 -1       490 8.90192E-01
 -1       491 8.73466E-01
 -1       492 7.01123E-01
 -1       493 5.87436E-01
 -1       494 4.74812E-01
 -1       495 3.75777E-01
 -1       496 3.21232E-01
 -1       497 2.70708E-01
 -1       498 2.22786E-01
 -1       499 1.83760E-01
 -1       500 1.49498E-01
 -1       501 1.19530E-01
 -1       502 9.41293E-02
 -1       503 7.53007E-02
 -1       504 5.93902E-02
 -1       505 4.61900E-02
 -1       506 3.53917E-02
 -1       507 2.65958E-02
 -1       508 1.93533E-02
 -1       509 1.55492E-02
 -1       510 1.72709E-02
 -1       511 2.03340E-02
 -1       512 2.74293E-02
 -1       513 3.82865E-02
 -1       514 5.06775E-02
 -1       515 6.39836E-02
 -1       516 7.75066E-02
 -1       517 9.25689E-02
 -1       518 1.03037E-01
 -1       519 1.10254E-01
 -1       520 1.07897E-01
 -1       521 1.37771E-01
 -1       522 1.82935E-01
 -1       523 2.77224E-01
 -1       524 4.50993E-01
 -1       525 6.51755E-01
 -1       526 9.39874E-01
 -1       527 1.23153E+00
 -1       528 1.44838E+00
 -1       529 1.57131E+00
 -1       530 1.60952E+00
 -1       531 1.48881E+00
 -1       532 1.29965E+00
 -1       533 1.25435E+00
 -1       534 1.07613E+00
 -1       535 5.43357E-01
 -1       536 4.36455E-01
 -1       537 3.69843E-01
 -1       538 3.02127E-01
 -1       539 2.46753E-01
 -1       540 2.01821E-01
 -1       541 1.62239E-01
 -1       542 1.28326E-01
 -1       543 1.03386E-01
 -1       544 8.21505E-02
 -1       545 6.44683E-02
 -1       546 5.07714E-02
 -1       547 3.81440E-02
 -1       548 2.92531E-02
 -1       549 2.23060E-02
 -1       550 1.73081E-02
 -1       551 1.87480E-02
 -1       552 2.35197E-02
 -1       553 3.11786E-02
 -1       554 4.90822E-02
 -1       555 7.55775E-02
 -1       556 1.13349E-01
 -1       557 1.67804E-01
 -1       558 2.46199E-01
 -1       559 3.58832E-01
 -1       560 5.20154E-01
 -1       561 7.50122E-01
 -1       562 1.07547E+00
 -1       563 1.54934E+00
 -1       564 2.19259E+00
 -1       565 3.04916E+00
 -1       566 4.14514E+00
 -1       567 5.62213E+00
 -1       568 6.49542E+00
 -1       569 8.12935E+00
 -1       570 9.84934E+00
 -1       571 4.32963E+01
 -1       572 1.38204E+01
 -1       573 3.26263E+01
 -1       574 1.51951E+01
 -1       575 8.45304E+00
 -1       576 4.92666E+00
 -1       577 3.73372E+00
 -1       578 2.47433E+00
 -1       579 1.80150E+00
 -1       580 1.23065E+00
 -1       581 6.64403E-01
 -1       582 1.30808E+01
 -1       583 7.02453E-01
 -1       584 1.47830E+01
 -1       585 5.57257E+00
 -1       586 2.21118E+01
 -1       587 4.57377E-01
 -1       588 9.18893E+00
 -1       589 1.86569E+01
 -1       590 2.74294E+01
 -1       591 3.45904E+01
 -1       592 2.51236E+01
 -1       593 1.82184E+01
 -1       594 1.19836E+01
 -1       595 8.70669E+00
 -1       596 5.31643E+00
 -1       597 8.18976E+00
 -1       598 8.25874E+00
 -1       599 7.17511E+00
 -1       600 1.32759E+00
 -1       601 9.72509E+00
 -1       602 2.20559E+01
 -1       603 7.22000E-01
 -1       604 7.91460E-01
 -1       605 1.10549E+01
 -1       606 4.29622E+00
 -1       607 1.71151E+01
 -1       608 5.15040E+00
 -1       609 5.67325E+00
 -1       610 3.58472E-01
 -1       611 3.42673E-01
 -1       612 3.62089E-01
 -1       613 3.38288E-01
 -1       614 4.04853E-01
 -1       615 5.43566E-01
 -1       616 2.71380E-01
 -1       617 3.96054E-01
 -1       618 3.82651E-01
 -1       619 3.41603E-01
 -1       620 2.91708E-01
 -1       621 2.41768E-01
 -1       622 2.10541E-01
 -1       623 1.77774E-01
 -1       624 1.46521E-01
 -1       625 1.18354E-01
 -1       626 9.45514E-02
 -1       627 7.54485E-02
 -1       628 5.93902E-02
 -1       629 4.61900E-02
 -1       630 3.53917E-02
 -1       631 2.68145E-02
 -1       632 1.94323E-02
 -1       633 1.31950E-02
 -1       634 1.19457E-02
 -1       635 1.35687E-02
 -1       636 2.11141E-02
 -1       637 3.08344E-02
 -1       638 4.21402E-02
 -1       639 5.49443E-02
 -1       640 7.00570E-02
 -1       641 8.64431E-02
 -1       642 1.01128E-01
 -1       643 1.17444E-01
 -1       644 1.33178E-01
 -1       645 1.47766E-01
 -1       646 2.21004E-01
 -1       647 3.10699E-01
 -1       648 4.50993E-01
 -1       649 6.51755E-01
 -1       650 8.50022E-01
 -1       651 1.07344E+00
 -1       652 1.30441E+00
 -1       653 1.47327E+00
 -1       654 1.68052E+00
 -1       655 1.82839E+00
 -1       656 1.68230E+00
 -1       657 1.34551E+00
 -1       658 1.95792E+00
 -1       659 3.25615E-01
 -1       660 3.94791E-01
 -1       661 2.29238E-01
 -1       662 1.91595E-01
 -1       663 1.57569E-01
 -1       664 1.29344E-01
 -1       665 1.04290E-01
 -1       666 8.28122E-02
 -1       667 6.49139E-02
 -1       668 5.14418E-02
 -1       669 3.96590E-02
 -1       670 3.04873E-02
 -1       671 2.28313E-02
 -1       672 1.68710E-02
 -1       673 1.52364E-02
 -1       674 1.81673E-02
 -1       675 2.58326E-02
 -1       676 4.12740E-02
 -1       677 6.20834E-02
 -1       678 9.03891E-02
 -1       679 1.29383E-01
 -1       680 1.83004E-01
 -1       681 2.56492E-01
 -1       682 3.63574E-01
 -1       683 5.45260E-01
 -1       684 8.23086E-01
 -1       685 1.25558E+00
 -1       686 1.85798E+00
 -1       687 2.76913E+00
 -1       688 4.14886E+00
 -1       689 6.39288E+00
 -1       690 1.39469E+01
 -1       691 9.44980E+00
 -1       692 6.27693E+00
 -1       693 4.55836E+00
 -1       694 1.95792E+00
 -1       695 6.18193E+00
 -1       696 4.62713E-01
 -1       697 2.67831E+00
 -1       698 3.37792E+00
 -1       699 5.97617E+00
 -1       700 3.26263E+01
 -1       701 3.62089E-01
 -1       702 1.30450E+00
 -1       703 3.62501E-01
 -1       704 5.14210E-01
 -1       705 3.08570E+00
 -1       706 1.88231E+01
 -1       707 1.69998E+01
 -1       708 1.10629E+01
 -1       709 4.43751E+00
 -1       710 7.22439E+00
 -1       711 1.45910E+01
 -1       712 4.18164E-01
 -1       713 3.42280E-01
 -1       714 4.28518E-01
 -1       715 4.45493E+00
 -1       716 3.57785E-01
 -1       717 2.40997E-01
 -1       718 2.13411E-01
 -1       719 4.22226E+00
 -1       720 2.33026E-01
 -1       721 2.54340E-01
 -1       722 2.47138E-01
 -1       723 2.25094E-01
 -1       724 1.96518E-01
 -1       725 1.70003E-01
 -1       726 1.48612E-01
 -1       727 1.26162E-01
 -1       728 1.04586E-01
 -1       729 8.49522E-02
 -1       730 6.77438E-02
 -1       731 5.30714E-02
 -1       732 4.07845E-02
 -1       733 3.05780E-02
 -1       734 2.20566E-02
 -1       735 1.47761E-02
 -1       736 8.29809E-03
 -1       737 8.34522E-03
 -1       738 1.40622E-02
 -1       739 2.24899E-02
 -1       740 3.21333E-02
 -1       741 4.47843E-02
 -1       742 6.01013E-02
 -1       743 7.81784E-02
 -1       744 9.79213E-02
 -1       745 1.17444E-01
 -1       746 1.46073E-01
 -1       747 1.78281E-01
 -1       748 2.21004E-01
 -1       749 3.16165E-01
 -1       750 4.59720E-01
 -1       751 6.20332E-01
 -1       752 8.46485E-01
 -1       753 1.07344E+00
 -1       754 1.31643E+00
 -1       755 1.49381E+00
 -1       756 1.69214E+00
 -1       757 2.15346E+00
 -1       758 2.26356E+00
 -1       759 2.05358E+00
 -1       760 2.01506E+00
 -1       761 2.53453E-01
 -1       762 1.59588E-01
 -1       763 1.33642E-01
 -1       764 1.09507E-01
 -1       765 8.80518E-02
 -1       766 6.96078E-02
 -1       767 5.38887E-02
 -1       768 4.08009E-02
 -1       769 3.04873E-02
 -1       770 2.28313E-02
 -1       771 1.65048E-02
 -1       772 1.13573E-02
 -1       773 1.14073E-02
 -1       774 1.79685E-02
 -1       775 2.95666E-02
 -1       776 4.41392E-02
 -1       777 6.69334E-02
 -1       778 9.94629E-02
 -1       779 1.48105E-01
 -1       780 2.19979E-01
 -1       781 3.24259E-01
 -1       782 4.75577E-01
 -1       783 6.95972E-01
 -1       784 1.05205E+00
 -1       785 1.52558E+00
 -1       786 2.26748E+00
 -1       787 3.43120E+00
 -1       788 5.32338E+00
 -1       789 9.88137E+00
 -1       790 1.39469E+01
 -1       791 1.85458E-01
 -1       792 4.86608E+00
 -1       793 3.04389E-01
 -1       794 2.01506E+00
 -1       795 2.66583E-01
 -1       796 1.13210E+01
 -1       797 2.88388E-01
 -1       798 2.80219E+00
 -1       799 5.24088E+00
 -1       800 2.81694E-01
 -1       801 1.39469E+01
 -1       802 9.42045E+00
 -1       803 7.42494E+00
 -1       804 2.85175E-01
 -1       805 3.15842E+00
 -1       806 4.35026E+00
 -1       807 2.81442E-01
 -1       808 3.57258E+00
 -1       809 2.80176E-01
 -1       810 4.34973E+00
 -1       811 2.81366E-01
 -1       812 3.19559E+00
 -1       813 2.88388E-01
 -1       814 2.88602E-01
 -1       815 2.71408E-01
 -1       816 3.24004E+00
 -1       817 1.40659E-01
 -1       818 1.73726E-01
 -1       819 1.81315E-01
 -1       820 1.73906E-01
 -1       821 1.58037E-01
 -1       822 1.38241E-01
 -1       823 1.21799E-01
 -1       824 1.05279E-01
 -1       825 8.86213E-02
 -1       826 7.29364E-02
 -1       827 5.88432E-02
 -1       828 4.65699E-02
 -1       829 3.60937E-02
 -1       830 2.72297E-02
 -1       831 1.97033E-02
 -1       832 1.33219E-02
 -1       833 1.32345E-02
 -1       834 1.42378E-02
 -1       835 2.23014E-02
 -1       836 3.21333E-02
 -1       837 4.34913E-02
 -1       838 5.60376E-02
 -1       839 6.99698E-02
 -1       840 8.76182E-02
 -1       841 1.15765E-01
 -1       842 1.48441E-01
 -1       843 1.88514E-01
 -1       844 2.48675E-01
 -1       845 3.27696E-01
 -1       846 4.59720E-01
 -1       847 6.21257E-01
 -1       848 8.59781E-01
 -1       849 1.14997E+00
 -1       850 1.31643E+00
 -1       851 2.25661E+00
 -1       852 2.94654E+00
 -1       853 3.24004E+00
 -1       854 3.35467E+00
 -1       855 3.12407E+00
 -1       856 2.82944E+00
 -1       857 1.95721E-01
 -1       858 1.13363E-01
 -1       859 1.32345E-01
 -1       860 7.74741E-02
 -1       861 6.19236E-02
 -1       862 4.83074E-02
 -1       863 3.72002E-02
 -1       864 2.78845E-02
 -1       865 1.99956E-02
 -1       866 1.31382E-02
 -1       867 1.14320E-02
 -1       868 1.44434E-02
 -1       869 2.57246E-02
 -1       870 3.96594E-02
 -1       871 5.93293E-02
 -1       872 8.71813E-02
 -1       873 1.25765E-01
 -1       874 1.79177E-01
 -1       875 2.52952E-01
 -1       876 3.54571E-01
 -1       877 4.94486E-01
 -1       878 7.19180E-01
 -1       879 9.73536E-01
 -1       880 1.41817E+00
 -1       881 2.19542E+00
 -1       882 3.40163E+00
 -1       883 8.86292E+00
 -1       884 1.49729E-01
 -1       885 9.47340E-02
 -1       886 6.89417E+00
 -1       887 2.88602E-01
 -1       888 1.47792E-01
 -1       889 1.73006E-01
 -1       890 3.82937E+00
 -1       891 3.35467E+00
 -1       892 6.89417E+00
 -1       893 2.06730E-01
 -1       894 4.88207E+00
 -1       895 2.08350E-01
 -1       896 3.76940E+00
 -1       897 2.94654E+00
 -1       898 1.67257E-01
 -1       899 2.16865E-01
 -1       900 1.90076E-01
 -1       901 3.54843E+00
 -1       902 3.08040E+00
 -1       903 1.65750E-01
 -1       904 2.16865E-01
 -1       905 9.05119E-02
 -1       906 1.22828E-01
 -1       907 1.35125E-01
 -1       908 1.34367E-01
 -1       909 1.25449E-01
 -1       910 1.12102E-01
 -1       911 9.69715E-02
 -1       912 8.44878E-02
 -1       913 7.15869E-02
 -1       914 5.92652E-02
 -1       915 4.81037E-02
 -1       916 3.82743E-02
 -1       917 2.98400E-02
 -1       918 2.26880E-02
 -1       919 1.72391E-02
 -1       920 1.67110E-02
 -1       921 1.75079E-02
 -1       922 2.02479E-02
 -1       923 2.91378E-02
 -1       924 4.04370E-02
 -1       925 5.40675E-02
 -1       926 6.99698E-02
 -1       927 8.75597E-02
 -1       928 1.10311E-01
 -1       929 1.40858E-01
 -1       930 1.94837E-01
 -1       931 2.65424E-01
 -1       932 3.54033E-01
 -1       933 4.71775E-01
 -1       934 6.42155E-01
 -1       935 8.59781E-01
 -1       936 1.29617E+00
 -1       937 1.71585E+00
 -1       938 2.25661E+00
 -1       939 5.30406E-02
 -1       940 6.46819E-02
 -1       941 3.15286E-02
 -1       942 2.36520E-02
 -1       943 1.69077E-02
 -1       944 1.53446E-02
 -1       945 1.64443E-02
 -1       946 2.22815E-02
 -1       947 3.31342E-02
 -1       948 4.85140E-02
 -1       949 6.88064E-02
 -1       950 9.54151E-02
 -1       951 1.29937E-01
 -1       952 1.74018E-01
 -1       953 2.32371E-01
 -1       954 3.33610E-01
 -1       955 5.17500E-01
 -1       956 7.26874E-01
 -1       957 1.04621E+00
 -1       958 1.53226E+00
 -1       959 2.87791E+00
 -1       960 4.53711E+00
 -1       961 2.05275E-01
 -1       962 1.22502E-01
 -1       963 1.51336E-01
 -1       964 1.55107E-01
 -1       965 1.04440E-01
 -1       966 2.16266E-01
 -1       967 4.07947E-02
 -1       968 1.38622E-01
 -1       969 1.07115E-01
 -1       970 4.76419E+00
 -1       971 4.97048E+00
 -1       972 2.16266E-01
 -1       973 1.43590E-01
 -1       974 9.27873E-02
 -1       975 1.42226E-01
 -1       976 7.83973E-02
 -1       977 2.39063E+00
 -1       978 1.22619E-01
 -1       979 1.53370E-01
 -1       980 2.56069E+00
 -1       981 8.94147E-02
 -1       982 1.01153E-01
 -1       983 1.02541E-01
 -1       984 9.71033E-02
 -1       985 8.77371E-02
 -1       986 7.65230E-02
 -1       987 6.48853E-02
 -1       988 5.41618E-02
 -1       989 4.50102E-02
 -1       990 3.65955E-02
 -1       991 2.91836E-02
 -1       992 2.30034E-02
 -1       993 1.98413E-02
 -1       994 1.88202E-02
 -1       995 1.93675E-02
 -1       996 2.17220E-02
 -1       997 2.66642E-02
 -1       998 3.38536E-02
 -1       999 4.68300E-02
 -1      1000 6.35154E-02
 -1      1001 8.45515E-02
 -1      1002 1.10311E-01
 -1      1003 1.40470E-01
 -1      1004 1.90175E-01
 -1      1005 2.53308E-01
 -1      1006 3.68235E-01
 -1      1007 5.25626E-01
 -1      1008 7.18664E-01
 -1      1009 1.06203E+00
 -1      1010 2.13166E+00
 -1      1011 1.09001E-01
 -1      1012 4.83089E-02
 -1      1013 1.94958E-02
 -1      1014 2.49073E-02
 -1      1015 1.81758E-02
 -1      1016 2.03472E-02
 -1      1017 2.58332E-02
 -1      1018 3.59787E-02
 -1      1019 4.91372E-02
 -1      1020 6.73632E-02
 -1      1021 9.54722E-02
 -1      1022 1.34835E-01
 -1      1023 1.89286E-01
 -1      1024 2.63077E-01
 -1      1025 3.80334E-01
 -1      1026 5.17500E-01
 -1      1027 7.95095E-01
 -1      1028 1.28577E+00
 -1      1029 1.98487E+00
 -1      1030 3.02363E+00
 -1      1031 1.03966E-01
 -1      1032 9.10684E-02
 -1      1033 1.80710E-02
 -1      1034 6.78616E-02
 -1      1035 1.53370E-01
 -1      1036 3.25564E+00
 -1      1037 1.16774E-01
 -1      1038 9.78196E-02
 -1      1039 1.16541E-01
 -1      1040 8.35107E-02
 -1      1041 3.27822E-02
 -1      1042 8.47393E-02
 -1      1043 1.31772E-01
 -1      1044 1.46182E-01
 -1      1045 4.15449E-02
 -1      1046 2.18028E+00
 -1      1047 9.10684E-02
 -1      1048 8.41107E-02
 -1      1049 8.89328E-02
 -1      1050 8.57831E-02
 -1      1051 7.62179E-02
 -1      1052 6.01386E-02
 -1      1053 7.78522E-02
 -1      1054 4.90028E-02
 -1      1055 4.02924E-02
 -1      1056 3.15475E-02
 -1      1057 3.58201E-02
 -1      1058 2.28009E-02
 -1      1059 1.98413E-02
 -1      1060 1.93675E-02
 -1      1061 2.17220E-02
 -1      1062 2.84676E-02
 -1      1063 3.88758E-02
 -1      1064 5.39241E-02
 -1      1065 7.52721E-02
 -1      1066 1.05252E-01
 -1      1067 1.46997E-01
 -1      1068 2.04436E-01
 -1      1069 3.02082E-01
 -1      1070 4.70529E-01
 -1      1071 6.97654E-01
 -1      1072 9.99210E-01
 -1      1073 1.36623E+00
 -1      1074 1.65136E+00
 -1      1075 1.41049E+00
 -1      1076 2.12769E+00
 -1      1077 8.89328E-02
 -1      1078 5.66535E-02
 -1      1079 3.30256E-02
 -1      1080 2.63024E-02
 -1      1081 2.00067E-02
 -1      1082 4.42049E-02
 -1      1083 5.95292E-02
 -1      1084 8.20301E-02
 -1      1085 1.27323E-01
 -1      1086 1.96959E-01
 -1      1087 3.02082E-01
 -1      1088 4.70529E-01
 -1      1089 6.97654E-01
 -1      1090 9.99210E-01
 -1      1091 1.36623E+00
 -1      1092 1.00215E-01
 -1      1093 8.35107E-02
 -1      1094 3.58201E-02
 -1      1095 1.81952E-02
 -1      1096 6.85878E-02
 -1      1097 8.89328E-02
 -1      1098 2.13413E-02
 -1      1099 1.31772E-01
 -1      1100 8.57831E-02
 -1      1101 7.58192E-02
 -1      1102 7.78522E-02
 -1      1103 3.28655E-02
 -1      1104 8.74362E-02
 -1      1105 1.65136E+00
 -1      1106 1.41049E+00
 -1      1107 4.90028E-02
 -1      1108 8.35107E-02
 -1      1109 3.58201E-02
 -1      1110 5.66535E-02
 -1      1111 4.02924E-02
 -1      1112 7.62179E-02
 -1      1113 1.31425E+01
 -1      1114 8.40302E+00
 -1      1115 2.74374E+00
 -1      1116 1.55797E+00
 -1      1117 1.16905E+00
 -1      1118 9.72756E-01
 -1      1119 8.54063E-01
 -1      1120 7.81183E-01
 -1      1121 7.54574E-01
 -1      1122 7.84297E-01
 -1      1123 8.56946E-01
 -1      1124 9.76786E-01
 -1      1125 1.18035E+00
 -1      1126 1.57195E+00
 -1      1127 2.67061E+00
 -1      1128 6.07289E+00
 -1      1129 1.13394E+01
 -1      1130 1.31425E+01
 -1      1131 8.72996E+00
 -1      1132 3.82878E+00
 -1      1133 2.72533E+00
 -1      1134 1.73601E+00
 -1      1135 1.18768E+00
 -1      1136 8.94290E-01
 -1      1137 6.84769E-01
 -1      1138 5.24501E-01
 -1      1139 4.00163E-01
 -1      1140 3.06375E-01
 -1      1141 2.34572E-01
 -1      1142 1.76999E-01
 -1      1143 1.31584E-01
 -1      1144 9.66976E-02
 -1      1145 7.33536E-02
 -1      1146 5.78623E-02
 -1      1147 4.49232E-02
 -1      1148 3.45170E-02
 -1      1149 2.65650E-02
 -1      1150 2.09858E-02
 -1      1151 1.91267E-02
 -1      1152 2.19474E-02
 -1      1153 2.81601E-02
 -1      1154 3.68617E-02
 -1      1155 4.78391E-02
 -1      1156 6.04973E-02
 -1      1157 7.36127E-02
 -1      1158 8.50251E-02
 -1      1159 1.05656E-01
 -1      1160 1.41549E-01
 -1      1161 1.81079E-01
 -1      1162 2.13573E-01
 -1      1163 2.56635E-01
 -1      1164 3.23325E-01
 -1      1165 4.06484E-01
 -1      1166 5.68949E-01
 -1      1167 8.06315E-01
 -1      1168 1.10268E+00
 -1      1169 1.57579E+00
 -1      1170 2.19614E+00
 -1      1171 2.73883E+00
 -1      1172 2.98066E+00
 -1      1173 3.03429E+00
 -1      1174 3.06646E+00
 -1      1175 2.95062E+00
 -1      1176 2.46141E+00
 -1      1177 1.84431E+00
 -1      1178 1.35902E+00
 -1      1179 6.77137E-01
 -1      1180 1.40384E+01
 -1      1181 8.71646E+00
 -1      1182 2.90363E+00
 -1      1183 2.03908E+00
 -1      1184 1.40483E+00
 -1      1185 1.02527E+00
 -1      1186 8.18993E-01
 -1      1187 6.60026E-01
 -1      1188 5.31194E-01
 -1      1189 4.18980E-01
 -1      1190 3.27088E-01
 -1      1191 2.59270E-01
 -1      1192 2.02583E-01
 -1      1193 1.55898E-01
 -1      1194 1.18235E-01
 -1      1195 8.84811E-02
 -1      1196 6.55271E-02
 -1      1197 4.90814E-02
 -1      1198 3.66001E-02
 -1      1199 2.76431E-02
 -1      1200 2.38278E-02
 -1      1201 2.57127E-02
 -1      1202 3.30146E-02
 -1      1203 4.42135E-02
 -1      1204 5.98218E-02
 -1      1205 8.26660E-02
 -1      1206 1.11742E-01
 -1      1207 1.48600E-01
 -1      1208 1.98892E-01
 -1      1209 2.68098E-01
 -1      1210 3.75062E-01
 -1      1211 5.34617E-01
 -1      1212 7.54752E-01
 -1      1213 1.04626E+00
 -1      1214 1.44617E+00
 -1      1215 1.84827E+00
 -1      1216 2.13921E+00
 -1      1217 2.72990E+00
 -1      1218 3.79168E+00
 -1      1219 4.58090E+00
 -1      1220 5.03532E+00
 -1      1221 7.12818E+00
 -1      1222 1.32066E+01
 -1      1223 1.83882E+01
 -1      1224 1.93237E+01
 -1      1225 1.74683E+01
 -1      1226 1.08046E+01
 -1      1227 4.50503E+00
 -1      1228 3.01383E+00
 -1      1229 1.99588E+00
 -1      1230 1.90940E+00
 -1      1231 3.11298E+00
 -1      1232 3.38510E+00
 -1      1233 4.33109E+00
 -1      1234 7.46061E+00
 -1      1235 9.64415E+00
 -1      1236 6.62050E+00
 -1      1237 3.85358E+00
 -1      1238 4.10237E+00
 -1      1239 3.69299E+00
 -1      1240 2.67423E+00
 -1      1241 1.58363E+00
 -1      1242 8.10758E-01
 -1      1243 3.49032E-01
 -1      1244 2.18173E-01
 -1      1245 4.05032E-01
 -1      1246 6.80328E-01
 -1      1247 5.18424E-01
 -1      1248 2.33288E+01
 -1      1249 2.72870E+01
 -1      1250 3.04591E+01
 -1      1251 2.76262E+01
 -1      1252 1.92606E+01
 -1      1253 1.40754E+01
 -1      1254 1.44231E+01
 -1      1255 1.41058E+01
 -1      1256 1.36426E+01
 -1      1257 1.65887E+01
 -1      1258 3.33520E+01
 -1      1259 4.70232E+01
 -1      1260 3.53229E+01
 -1      1261 2.36225E+01
 -1      1262 2.35056E+01
 -1      1263 2.33888E+01
 -1      1264 3.40497E+01
 -1      1265 4.47107E+01
 -1      1266 3.10477E+01
 -1      1267 1.45939E+01
 -1      1268 1.20478E+01
 -1      1269 1.22924E+01
 -1      1270 1.25556E+01
 -1      1271 1.30836E+01
 -1      1272 1.33485E+01
 -1      1273 1.94803E+01
 -1      1274 2.85481E+01
 -1      1275 3.14841E+01
 -1      1276 2.66009E+01
 -1      1277 2.07246E+01
 -1      1278 2.11372E+01
 -1      1279 1.31425E+01
 -1      1280 4.87049E+00
 -1      1281 9.61001E+00
 -1      1282 2.06110E+00
 -1      1283 2.98085E+00
 -1      1284 4.18784E+00
 -1      1285 1.40028E+00
 -1      1286 1.66631E+00
 -1      1287 1.90341E+00
 -1      1288 1.10196E+00
 -1      1289 1.22486E+00
 -1      1290 1.33319E+00
 -1      1291 9.36345E-01
 -1      1292 1.00974E+00
 -1      1293 1.06555E+00
 -1      1294 8.36428E-01
 -1      1295 8.81728E-01
 -1      1296 9.18711E-01
 -1      1297 7.74735E-01
 -1      1298 8.02316E-01
 -1      1299 8.29981E-01
 -1      1300 7.55547E-01
 -1      1301 7.54574E-01
 -1      1302 7.75708E-01
 -1      1303 8.06158E-01
 -1      1304 7.77407E-01
 -1      1305 7.77407E-01
 -1      1306 8.84001E-01
 -1      1307 8.40104E-01
 -1      1308 8.33213E-01
 -1      1309 1.01690E+00
 -1      1310 9.40956E-01
 -1      1311 9.24115E-01
 -1      1312 1.24033E+00
 -1      1313 1.11270E+00
 -1      1314 1.07687E+00
 -1      1315 1.68188E+00
 -1      1316 1.41790E+00
 -1      1317 1.35025E+00
 -1      1318 2.88315E+00
 -1      1319 2.04848E+00
 -1      1320 1.89442E+00
 -1      1321 6.28570E+00
 -1      1322 3.71809E+00
 -1      1323 3.09596E+00
 -1      1324 1.40384E+01
 -1      1325 1.13394E+01
 -1      1326 8.98464E+00
 -1      1327 1.40384E+01
 -1      1328 8.72996E+00
 -1      1329 4.31739E+00
 -1      1330 3.82878E+00
 -1      1331 3.34018E+00
 -1      1332 3.82878E+00
 -1      1333 2.72533E+00
 -1      1334 2.11048E+00
 -1      1335 2.72533E+00
 -1      1336 1.77835E+00
 -1      1337 1.40388E+00
 -1      1338 1.77835E+00
 -1      1339 1.19298E+00
 -1      1340 1.01911E+00
 -1      1341 1.23531E+00
 -1      1342 8.94290E-01
 -1      1343 7.74765E-01
 -1      1344 8.99585E-01
 -1      1345 6.84769E-01
 -1      1346 5.94773E-01
 -1      1347 6.84769E-01
 -1      1348 5.30787E-01
 -1      1349 4.60515E-01
 -1      1350 5.30787E-01
 -1      1351 4.10269E-01
 -1      1352 3.56202E-01
 -1      1353 4.16554E-01
 -1      1354 3.16877E-01
 -1      1355 2.77155E-01
 -1      1356 3.26983E-01
 -1      1357 2.48475E-01
 -1      1358 2.16395E-01
 -1      1359 2.58978E-01
 -1      1360 1.91943E-01
 -1      1361 1.66451E-01
 -1      1362 2.05846E-01
 -1      1363 1.46131E-01
 -1      1364 1.26209E-01
 -1      1365 1.61075E-01
 -1      1366 1.09696E-01
 -1      1367 9.47323E-02
 -1      1368 1.24243E-01
 -1      1369 8.15949E-02
 -1      1370 7.32146E-02
 -1      1371 9.45934E-02
 -1      1372 6.29866E-02
 -1      1373 5.58757E-02
 -1      1374 7.12280E-02
 -1      1375 4.80987E-02
 -1      1376 4.22706E-02
 -1      1377 5.32230E-02
 -1      1378 3.65152E-02
 -1      1379 3.19371E-02
 -1      1380 3.96907E-02
 -1      1381 2.78126E-02
 -1      1382 2.44387E-02
 -1      1383 2.98108E-02
 -1      1384 2.18136E-02
 -1      1385 1.96083E-02
 -1      1386 2.30612E-02
 -1      1387 1.86186E-02
 -1      1388 1.89648E-02
 -1      1389 1.94464E-02
 -1      1390 2.05735E-02
 -1      1391 2.30481E-02
 -1      1392 2.00654E-02
 -1      1393 2.56334E-02
 -1      1394 2.93714E-02
 -1      1395 2.42595E-02
 -1      1396 3.28913E-02
 -1      1397 3.78550E-02
 -1      1398 3.03647E-02
 -1      1399 4.21692E-02
 -1      1400 4.81830E-02
 -1      1401 3.81989E-02
 -1      1402 5.38529E-02
 -1      1403 6.04973E-02
 -1      1404 4.81830E-02
 -1      1405 6.71416E-02
 -1      1406 7.36127E-02
 -1      1407 6.04973E-02
 -1      1408 8.06733E-02
 -1      1409 8.56145E-02
 -1      1410 7.42021E-02
 -1      1411 9.41848E-02
 -1      1412 1.09875E-01
 -1      1413 8.98329E-02
 -1      1414 1.23207E-01
 -1      1415 1.43410E-01
 -1      1416 1.11736E-01
 -1      1417 1.61752E-01
 -1      1418 1.81079E-01
 -1      1419 1.43410E-01
 -1      1420 2.00406E-01
 -1      1421 2.13573E-01
 -1      1422 1.81079E-01
 -1      1423 2.26740E-01
 -1      1424 2.56635E-01
 -1      1425 2.13573E-01
 -1      1426 2.86530E-01
 -1      1427 3.23325E-01
 -1      1428 2.56635E-01
 -1      1429 3.60120E-01
 -1      1430 4.06484E-01
 -1      1431 3.23325E-01
 -1      1432 4.52848E-01
 -1      1433 5.68949E-01
 -1      1434 4.06484E-01
 -1      1435 7.02542E-01
 -1      1436 8.23808E-01
 -1      1437 5.86441E-01
 -1      1438 9.87555E-01
 -1      1439 1.16266E+00
 -1      1440 8.83782E-01
 -1      1441 1.34677E+00
 -1      1442 1.64478E+00
 -1      1443 1.23165E+00
 -1      1444 1.88637E+00
 -1      1445 2.20871E+00
 -1      1446 1.65735E+00
 -1      1447 2.51847E+00
 -1      1448 2.73883E+00
 -1      1449 2.20871E+00
 -1      1450 2.95919E+00
 -1      1451 2.98066E+00
 -1      1452 2.73883E+00
 -1      1453 3.00212E+00
 -1      1454 3.03429E+00
 -1      1455 2.98066E+00
 -1      1456 3.06646E+00
 -1      1457 3.06646E+00
 -1      1458 3.03429E+00
 -1      1459 2.95062E+00
 -1      1460 2.83477E+00
 -1      1461 2.95062E+00
 -1      1462 2.46141E+00
 -1      1463 2.08806E+00
 -1      1464 2.46141E+00
 -1      1465 1.84431E+00
 -1      1466 1.60057E+00
 -1      1467 1.84431E+00
 -1      1468 1.35902E+00
 -1      1469 1.11747E+00
 -1      1470 1.35902E+00
 -1      1471 9.58760E-01
 -1      1472 9.58760E-01
 -1      1473 3.39453E+00
 -1      1474 8.71646E+00
 -1      1475 8.71646E+00
 -1      1476 2.41273E+00
 -1      1477 2.90363E+00
 -1      1478 2.90363E+00
 -1      1479 1.66543E+00
 -1      1480 2.03908E+00
 -1      1481 2.03908E+00
 -1      1482 1.14423E+00
 -1      1483 1.40483E+00
 -1      1484 1.40483E+00
 -1      1485 9.06316E-01
 -1      1486 1.02527E+00
 -1      1487 1.02527E+00
 -1      1488 7.31671E-01
 -1      1489 8.18993E-01
 -1      1490 8.18993E-01
 -1      1491 5.88381E-01
 -1      1492 6.60026E-01
 -1      1493 6.60026E-01
 -1      1494 4.74007E-01
 -1      1495 5.31194E-01
 -1      1496 5.31194E-01
 -1      1497 3.63953E-01
 -1      1498 4.18980E-01
 -1      1499 4.18980E-01
 -1      1500 2.90223E-01
 -1      1501 3.27088E-01
 -1      1502 3.27088E-01
 -1      1503 2.28317E-01
 -1      1504 2.59270E-01
 -1      1505 2.59270E-01
 -1      1506 1.78240E-01
 -1      1507 2.03975E-01
 -1      1508 2.03975E-01
 -1      1509 1.37358E-01
 -1      1510 1.58309E-01
 -1      1511 1.59701E-01
 -1      1512 1.04389E-01
 -1      1513 1.21102E-01
 -1      1514 1.23513E-01
 -1      1515 7.83873E-02
 -1      1516 9.14290E-02
 -1      1517 9.42956E-02
 -1      1518 5.84132E-02
 -1      1519 6.83256E-02
 -1      1520 7.12735E-02
 -1      1521 4.48775E-02
 -1      1522 5.14108E-02
 -1      1523 5.42094E-02
 -1      1524 3.26529E-02
 -1      1525 3.86008E-02
 -1      1526 4.09303E-02
 -1      1527 2.60732E-02
 -1      1528 2.90823E-02
 -1      1529 3.10829E-02
 -1      1530 2.32590E-02
 -1      1531 2.40653E-02
 -1      1532 2.55044E-02
 -1      1533 2.76323E-02
 -1      1534 2.49410E-02
 -1      1535 2.51785E-02
 -1      1536 3.56018E-02
 -1      1537 3.09912E-02
 -1      1538 3.02195E-02
 -1      1539 4.71109E-02
 -1      1540 4.05225E-02
 -1      1541 3.84991E-02
 -1      1542 6.28321E-02
 -1      1543 5.38122E-02
 -1      1544 5.01211E-02
 -1      1545 8.72614E-02
 -1      1546 7.34372E-02
 -1      1547 6.74276E-02
 -1      1548 1.12786E-01
 -1      1549 9.75337E-02
 -1      1550 8.83049E-02
 -1      1551 1.54361E-01
 -1      1552 1.32756E-01
 -1      1553 1.18548E-01
 -1      1554 2.11478E-01
 -1      1555 1.82790E-01
 -1      1556 1.66947E-01
 -1      1557 2.91652E-01
 -1      1558 2.51133E-01
 -1      1559 2.35031E-01
 -1      1560 4.13003E-01
 -1      1561 3.46559E-01
 -1      1562 3.29593E-01
 -1      1563 5.83453E-01
 -1      1564 4.90342E-01
 -1      1565 4.61840E-01
 -1      1566 8.14732E-01
 -1      1567 6.87707E-01
 -1      1568 6.43433E-01
 -1      1569 1.11274E+00
 -1      1570 9.48257E-01
 -1      1571 8.81212E-01
 -1      1572 1.53621E+00
 -1      1573 1.30079E+00
 -1      1574 1.20279E+00
 -1      1575 1.85255E+00
 -1      1576 1.68587E+00
 -1      1577 1.54049E+00
 -1      1578 2.22496E+00
 -1      1579 2.10070E+00
 -1      1580 1.93830E+00
 -1      1581 3.03471E+00
 -1      1582 2.56828E+00
 -1      1583 2.52978E+00
 -1      1584 3.94647E+00
 -1      1585 3.35113E+00
 -1      1586 3.18951E+00
 -1      1587 4.58090E+00
 -1      1588 4.38702E+00
 -1      1589 3.94647E+00
 -1      1590 5.03532E+00
 -1      1591 4.77477E+00
 -1      1592 4.58090E+00
 -1      1593 7.12818E+00
 -1      1594 5.29588E+00
 -1      1595 5.03532E+00
 -1      1596 1.40163E+01
 -1      1597 9.77015E+00
 -1      1598 7.93785E+00
 -1      1599 1.83882E+01
 -1      1600 1.74528E+01
 -1      1601 1.40163E+01
 -1      1602 1.93237E+01
 -1      1603 1.93237E+01
 -1      1604 1.83882E+01
 -1      1605 1.56129E+01
 -1      1606 1.74683E+01
 -1      1607 1.74683E+01
 -1      1608 6.37884E+00
 -1      1609 1.11872E+01
 -1      1610 1.11872E+01
 -1      1611 3.61812E+00
 -1      1612 5.10931E+00
 -1      1613 5.49193E+00
 -1      1614 3.20233E+00
 -1      1615 3.20233E+00
 -1      1616 3.80662E+00
 -1      1617 2.92735E+00
 -1      1618 3.38796E+00
 -1      1619 3.11585E+00
 -1      1620 3.76235E+00
 -1      1621 3.76235E+00
 -1      1622 3.76522E+00
 -1      1623 5.03481E+00
 -1      1624 4.08883E+00
 -1      1625 4.46608E+00
 -1      1626 9.30717E+00
 -1      1627 7.12363E+00
 -1      1628 6.88137E+00
 -1      1629 9.64415E+00
 -1      1630 9.64415E+00
 -1      1631 9.30717E+00
 -1      1632 6.13280E+00
 -1      1633 9.15645E+00
 -1      1634 9.15645E+00
 -1      1635 4.75112E+00
 -1      1636 4.49439E+00
 -1      1637 7.03034E+00
 -1      1638 4.65634E+00
 -1      1639 4.66428E+00
 -1      1640 5.30510E+00
 -1      1641 4.01782E+00
 -1      1642 4.41926E+00
 -1      1643 4.98117E+00
 -1      1644 2.83672E+00
 -1      1645 3.45404E+00
 -1      1646 4.18031E+00
 -1      1647 1.63634E+00
 -1      1648 2.10962E+00
 -1      1649 2.88943E+00
 -1      1650 8.15140E-01
 -1      1651 1.11473E+00
 -1      1652 1.64072E+00
 -1      1653 3.47163E-01
 -1      1654 5.09304E-01
 -1      1655 8.13272E-01
 -1      1656 2.68254E-01
 -1      1657 2.36973E-01
 -1      1658 3.97245E-01
 -1      1659 4.23831E-01
 -1      1660 2.68254E-01
 -1      1661 2.87054E-01
 -1      1662 7.29608E-01
 -1      1663 6.09888E-01
 -1      1664 4.73111E-01
 -1      1665 8.88320E-01
 -1      1666 2.54469E+01
 -1      1667 2.46607E+01
 -1      1668 3.11608E+01
 -1      1669 2.79888E+01
 -1      1670 3.11608E+01
 -1      1671 3.11608E+01
 -1      1672 2.57263E+01
 -1      1673 2.85592E+01
 -1      1674 1.32741E+01
 -1      1675 1.88069E+01
 -1      1676 1.40754E+01
 -1      1677 1.37277E+01
 -1      1678 1.44231E+01
 -1      1679 1.44231E+01
 -1      1680 1.37884E+01
 -1      1681 1.41058E+01
 -1      1682 1.34967E+01
 -1      1683 1.36426E+01
 -1      1684 1.60255E+01
 -1      1685 1.29335E+01
 -1      1686 3.42852E+01
 -1      1687 2.06140E+01
 -1      1688 4.70232E+01
 -1      1689 4.70232E+01
 -1      1690 2.59162E+01
 -1      1691 3.76165E+01
 -1      1692 2.45954E+01
 -1      1693 2.45954E+01
 -1      1694 2.44785E+01
 -1      1695 2.45954E+01
 -1      1696 2.36332E+01
 -1      1697 2.36332E+01
 -1      1698 4.16259E+01
 -1      1699 3.09650E+01
 -1      1700 4.47107E+01
 -1      1701 4.47107E+01
 -1      1702 1.80368E+01
 -1      1703 3.16998E+01
 -1      1704 1.13093E+01
 -1      1705 1.41000E+01
 -1      1706 1.20478E+01
 -1      1707 1.18032E+01
 -1      1708 1.22924E+01
 -1      1709 1.22924E+01
 -1      1710 1.23910E+01
 -1      1711 1.21279E+01
 -1      1712 1.30836E+01
 -1      1713 1.28187E+01
 -1      1714 1.33485E+01
 -1      1715 1.33485E+01
 -1      1716 1.88856E+01
 -1      1717 1.27538E+01
 -1      1718 3.00710E+01
 -1      1719 2.71349E+01
 -1      1720 3.14841E+01
 -1      1721 3.14841E+01
 -1      1722 2.42784E+01
 -1      1723 2.91617E+01
 -1      1724 2.91617E+01
 -1      1725 2.05019E+01
 -1      1726 2.14949E+01
 -1      1727 2.46607E+01
 -1      1728 2.32552E+01
 -1      1729 2.40254E+01
 -1      1730 1.97399E+01
 -1      1731 2.92609E+01
 -1      1732 3.11585E+00
 -1      1733 3.39083E+00
 -1      1734 2.93207E+01
 -1      1735 3.18626E+01
 -1      1736 2.67787E+01
 -1      1737 1.32741E+01
 -1      1738 1.40754E+01
 -1      1739 1.41058E+01
 -1      1740 1.36426E+01
 -1      1741 1.29335E+01
 -1      1742 1.69587E+01
 -1      1743 3.42852E+01
 -1      1744 3.76165E+01
 -1      1745 2.68890E+01
 -1      1746 2.55683E+01
 -1      1747 2.47229E+01
 -1      1748 3.12094E+01
 -1      1749 4.16259E+01
 -1      1750 3.16998E+01
 -1      1751 1.47522E+01
 -1      1752 1.13093E+01
 -1      1753 1.20478E+01
 -1      1754 1.21279E+01
 -1      1755 1.23910E+01
 -1      1756 1.30836E+01
 -1      1757 1.27538E+01
 -1      1758 2.04084E+01
 -1      1759 3.00710E+01
 -1      1760 9.61001E+00
 -1      1761 2.40556E+01
 -1      1762 1.27778E+00
 -1      1763 1.67257E+00
 -1      1764 2.38911E+00
 -1      1765 4.27875E+00
 -1      1766 1.76348E+00
 -1      1767 8.82636E-01
 -1      1768 9.74856E-01
 -1      1769 7.79146E-01
 -1      1770 8.33764E-01
 -1      1771 7.43071E-01
 -1      1772 7.13781E-01
 -1      1773 7.47893E-01
 -1      1774 6.62946E-01
 -1      1775 6.71517E-01
 -1      1776 6.91678E-01
 -1      1777 6.09590E-01
 -1      1778 6.94995E-01
 -1      1779 6.73135E-01
 -1      1780 5.89105E-01
 -1      1781 7.50826E-01
 -1      1782 7.16880E-01
 -1      1783 6.12608E-01
 -1      1784 8.41189E-01
 -1      1785 7.84234E-01
 -1      1786 6.67901E-01
 -1      1787 9.84632E-01
 -1      1788 8.88826E-01
 -1      1789 7.48946E-01
 -1      1790 1.22995E+00
 -1      1791 1.05238E+00
 -1      1792 8.64335E-01
 -1      1793 1.71073E+00
 -1      1794 1.34413E+00
 -1      1795 1.04626E+00
 -1      1796 2.63010E+00
 -1      1797 1.79516E+00
 -1      1798 1.24487E+00
 -1      1799 8.11929E+00
 -1      1800 3.06555E+00
 -1      1801 1.76474E+00
 -1      1802 2.79736E+00
 -1      1803 5.19743E+00
 -1      1804 2.16314E+00
 -1      1805 2.65404E+00
 -1      1806 2.05687E+00
 -1      1807 2.16919E+01
 -1      1808 2.44755E+01
 -1      1809 3.39871E+00
 -1      1810 2.53425E+00
 -1      1811 1.91940E+00
 -1      1812 1.68843E+00
 -1      1813 1.35630E+00
 -1      1814 1.49735E+00
 -1      1815 1.17602E+00
 -1      1816 9.65119E-01
 -1      1817 1.08611E+00
 -1      1818 8.39440E-01
 -1      1819 7.14620E-01
 -1      1820 7.80154E-01
 -1      1821 6.56208E-01
 -1      1822 5.66211E-01
 -1      1823 5.96063E-01
 -1      1824 5.17489E-01
 -1      1825 4.53503E-01
 -1      1826 4.88928E-01
 -1      1827 4.10501E-01
 -1      1828 3.60254E-01
 -1      1829 3.97203E-01
 -1      1830 3.27202E-01
 -1      1831 2.87878E-01
 -1      1832 3.21149E-01
 -1      1833 2.59946E-01
 -1      1834 2.31265E-01
 -1      1835 2.60165E-01
 -1      1836 2.07169E-01
 -1      1837 1.82718E-01
 -1      1838 2.08137E-01
 -1      1839 1.64792E-01
 -1      1840 1.44473E-01
 -1      1841 1.66115E-01
 -1      1842 1.29468E-01
 -1      1843 1.12956E-01
 -1      1844 1.33185E-01
 -1      1845 1.00302E-01
 -1      1846 8.71650E-02
 -1      1847 1.05527E-01
 -1      1848 7.67617E-02
 -1      1849 6.65338E-02
 -1      1850 8.24707E-02
 -1      1851 5.81688E-02
 -1      1852 5.03918E-02
 -1      1853 6.37026E-02
 -1      1854 4.37977E-02
 -1      1855 3.80424E-02
 -1      1856 4.87435E-02
 -1      1857 3.29294E-02
 -1      1858 2.88048E-02
 -1      1859 3.70364E-02
 -1      1860 2.48796E-02
 -1      1861 2.22545E-02
 -1      1862 2.79981E-02
 -1      1863 1.92290E-02
 -1      1864 1.82393E-02
 -1      1865 2.10474E-02
 -1      1866 1.84567E-02
 -1      1867 2.00654E-02
 -1      1868 1.82393E-02
 -1      1869 2.16742E-02
 -1      1870 2.42595E-02
 -1      1871 2.00654E-02
 -1      1872 2.68448E-02
 -1      1873 3.03647E-02
 -1      1874 2.42595E-02
 -1      1875 3.38846E-02
 -1      1876 3.81989E-02
 -1      1877 3.03647E-02
 -1      1878 4.31298E-02
 -1      1879 4.87997E-02
 -1      1880 3.88156E-02
 -1      1881 5.57152E-02
 -1      1882 6.23595E-02
 -1      1883 5.06620E-02
 -1      1884 6.96242E-02
 -1      1885 7.66847E-02
 -1      1886 6.48421E-02
 -1      1887 8.32685E-02
 -1      1888 9.18387E-02
 -1      1889 7.86905E-02
 -1      1890 1.00428E-01
 -1      1891 1.13760E-01
 -1      1892 9.38633E-02
 -1      1893 1.21991E-01
 -1      1894 1.40333E-01
 -1      1895 1.10683E-01
 -1      1896 1.48223E-01
 -1      1897 1.67550E-01
 -1      1898 1.26803E-01
 -1      1899 1.68202E-01
 -1      1900 1.81369E-01
 -1      1901 1.35346E-01
 -1      1902 1.81201E-01
 -1      1903 2.11096E-01
 -1      1904 1.35831E-01
 -1      1905 2.31272E-01
 -1      1906 2.68067E-01
 -1      1907 1.55839E-01
 -1      1908 3.54298E-01
 -1      1909 4.00662E-01
 -1      1910 2.62245E-01
 -1      1911 5.09914E-01
 -1      1912 6.43508E-01
 -1      1913 4.57728E-01
 -1      1914 7.69449E-01
 -1      1915 9.33196E-01
 -1      1916 6.92922E-01
 -1      1917 1.09834E+00
 -1      1918 1.28246E+00
 -1      1919 9.84007E-01
 -1      1920 1.44370E+00
 -1      1921 1.68529E+00
 -1      1922 1.31040E+00
 -1      1923 1.84006E+00
 -1      1924 2.14982E+00
 -1      1925 1.62641E+00
 -1      1926 2.28166E+00
 -1      1927 2.50201E+00
 -1      1928 1.91301E+00
 -1      1929 2.52334E+00
 -1      1930 2.54480E+00
 -1      1931 2.06616E+00
 -1      1932 2.47112E+00
 -1      1933 2.50329E+00
 -1      1934 2.01380E+00
 -1      1935 2.50986E+00
 -1      1936 2.39401E+00
 -1      1937 1.94669E+00
 -1      1938 2.26929E+00
 -1      1939 1.89593E+00
 -1      1940 1.82853E+00
 -1      1941 1.65380E+00
 -1      1942 1.41006E+00
 -1      1943 1.46168E+00
 -1      1944 1.23410E+00
 -1      1945 9.92551E-01
 -1      1946 7.63398E-01
 -1      1947 1.04359E+00
 -1      1948 1.39770E+00
 -1      1949 1.77135E+00
 -1      1950 1.52176E+00
 -1      1951 1.01721E+00
 -1      1952 1.27781E+00
 -1      1953 1.01008E+00
 -1      1954 8.04384E-01
 -1      1955 9.23342E-01
 -1      1956 7.96323E-01
 -1      1957 6.37514E-01
 -1      1958 7.24836E-01
 -1      1959 6.22905E-01
 -1      1960 5.12418E-01
 -1      1961 5.84063E-01
 -1      1962 4.89906E-01
 -1      1963 4.21925E-01
 -1      1964 4.79112E-01
 -1      1965 4.03149E-01
 -1      1966 3.33040E-01
 -1      1967 3.88067E-01
 -1      1968 3.35985E-01
 -1      1969 2.68488E-01
 -1      1970 3.05353E-01
 -1      1971 2.74440E-01
 -1      1972 2.14658E-01
 -1      1973 2.45611E-01
 -1      1974 2.23875E-01
 -1      1975 1.70230E-01
 -1      1976 1.94573E-01
 -1      1977 1.80913E-01
 -1      1978 1.33575E-01
 -1      1979 1.53506E-01
 -1      1980 1.44104E-01
 -1      1981 1.03424E-01
 -1      1982 1.19680E-01
 -1      1983 1.13486E-01
 -1      1984 7.91275E-02
 -1      1985 9.20879E-02
 -1      1986 8.82556E-02
 -1      1987 6.00573E-02
 -1      1988 7.01189E-02
 -1      1989 6.79113E-02
 -1      1990 4.67723E-02
 -1      1991 5.37747E-02
 -1      1992 5.26201E-02
 -1      1993 3.45094E-02
 -1      1994 4.07861E-02
 -1      1995 4.03514E-02
 -1      1996 2.74745E-02
 -1      1997 3.10451E-02
 -1      1998 3.09009E-02
 -1      1999 2.33748E-02
 -1      2000 2.53828E-02
 -1      2001 2.53449E-02
 -1      2002 2.44921E-02
 -1      2003 2.28101E-02
 -1      2004 2.26885E-02
 -1      2005 2.95416E-02
 -1      2006 2.61826E-02
 -1      2007 2.38142E-02
 -1      2008 3.72992E-02
 -1      2009 3.23785E-02
 -1      2010 2.83417E-02
 -1      2011 4.96561E-02
 -1      2012 4.29548E-02
 -1      2013 3.68342E-02
 -1      2014 6.98849E-02
 -1      2015 5.92798E-02
 -1      2016 5.21134E-02
 -1      2017 9.05016E-02
 -1      2018 8.02293E-02
 -1      2019 7.20815E-02
 -1      2020 1.29971E-01
 -1      2021 1.10000E-01
 -1      2022 1.01925E-01
 -1      2023 1.91113E-01
 -1      2024 1.62684E-01
 -1      2025 1.54137E-01
 -1      2026 2.79493E-01
 -1      2027 2.39838E-01
 -1      2028 2.35575E-01
 -1      2029 4.06576E-01
 -1      2030 3.51669E-01
 -1      2031 3.56476E-01
 -1      2032 5.89895E-01
 -1      2033 5.12556E-01
 -1      2034 5.34632E-01
 -1      2035 8.47398E-01
 -1      2036 7.43144E-01
 -1      2037 7.93860E-01
 -1      2038 1.19663E+00
 -1      2039 1.06310E+00
 -1      2040 1.16281E+00
 -1      2041 1.68744E+00
 -1      2042 1.49939E+00
 -1      2043 1.68128E+00
 -1      2044 2.20731E+00
 -1      2045 2.05765E+00
 -1      2046 2.35425E+00
 -1      2047 2.85240E+00
 -1      2048 2.60425E+00
 -1      2049 3.12141E+00
 -1      2050 3.52807E+00
 -1      2051 3.18475E+00
 -1      2052 3.85069E+00
 -1      2053 4.01048E+00
 -1      2054 3.69406E+00
 -1      2055 4.34903E+00
 -1      2056 5.09723E+00
 -1      2057 4.65668E+00
 -1      2058 5.16123E+00
 -1      2059 5.98076E+00
 -1      2060 5.78689E+00
 -1      2061 6.49710E+00
 -1      2062 6.01564E+00
 -1      2063 5.75509E+00
 -1      2064 6.96109E+00
 -1      2065 8.38113E+00
 -1      2066 5.73916E+00
 -1      2067 6.45893E+00
 -1      2068 1.37574E+01
 -1      2069 1.03210E+01
 -1      2070 8.12228E+00
 -1      2071 1.46929E+01
 -1      2072 1.37574E+01
 -1      2073 1.00621E+01
 -1      2074 1.15589E+01
 -1      2075 1.34143E+01
 -1      2076 8.78355E+00
 -1      2077 5.88219E+00
 -1      2078 7.15172E+00
 -1      2079 3.80662E+00
 -1      2080 4.22241E+00
 -1      2081 5.88219E+00
 -1      2082 3.80662E+00
 -1      2083 1.04729E+01
 -1      2084 8.38409E+00
 -1      2085 6.56395E+00
 -1      2086 6.23747E+00
 -1      2087 1.01555E+01
 -1      2088 4.18101E+00
 -1      2089 1.30136E+01
 -1      2090 1.26767E+01
 -1      2091 1.41794E+01
 -1      2092 1.29752E+01
 -1      2093 1.34629E+01
 -1      2094 1.68324E+01
 -1      2095 8.59491E+00
 -1      2096 1.02333E+01
 -1      2097 1.45398E+01
 -1      2098 7.09409E+00
 -1      2099 7.18093E+00
 -1      2100 1.03839E+01
 -1      2101 5.15903E+00
 -1      2102 5.39612E+00
 -1      2103 7.27195E+00
 -1      2104 3.99166E+00
 -1      2105 4.55544E+00
 -1      2106 4.97038E+00
 -1      2107 2.65671E+00
 -1      2108 3.38380E+00
 -1      2109 3.75893E+00
 -1      2110 1.47555E+00
 -1      2111 1.99716E+00
 -1      2112 2.49153E+00
 -1      2113 7.57692E-01
 -1      2114 1.06353E+00
 -1      2115 1.41997E+00
 -1      2116 4.76068E-01
 -1      2117 5.86259E-01
 -1      2118 8.36515E-01
 -1      2119 5.24568E-01
 -1      2120 5.24568E-01
 -1      2121 7.13582E-01
 -1      2122 3.18626E+01
 -1      2123 3.18626E+01
 -1      2124 3.50375E+01
 -1      2125 3.50375E+01
 -1      2126 3.75794E+01
 -1      2127 3.50375E+01
 -1      2128 2.24232E+01
 -1      2129 2.50249E+01
 -1      2130 2.68392E+01
 -1      2131 2.91617E+01
 -1      2132 2.44755E+01
 -1      2133 1.13967E+01
 -1      2134 1.83160E+01
 -1      2135 1.40800E+01
 -1      2136 2.40254E+01
 -1      2137 2.12721E+01
 -1      2138 2.16919E+01
 -1      2139 3.22842E+01
 -1      2140 1.03827E+00
 -1      2141 1.21370E+00
 -1      2142 9.82856E-01
 -1      2143 8.55362E-01
 -1      2144 1.25501E+01
 -1      2145 1.22024E+01
 -1      2146 1.28052E+01
 -1      2147 1.31225E+01
 -1      2148 1.18147E+01
 -1      2149 1.19605E+01
 -1      2150 1.09773E+01
 -1      2151 1.06179E+01
 -1      2152 1.11812E+01
 -1      2153 1.56518E+01
 -1      2154 1.10633E+01
 -1      2155 3.15699E+01
 -1      2156 1.88319E+01
 -1      2157 2.82098E+01
 -1      2158 3.76165E+01
 -1      2159 2.40230E+01
 -1      2160 2.53437E+01
 -1      2161 3.00793E+01
 -1      2162 3.00793E+01
 -1      2163 2.92340E+01
 -1      2164 3.00793E+01
 -1      2165 3.00692E+01
 -1      2166 2.27374E+01
 -1      2167 3.54986E+01
 -1      2168 3.24139E+01
 -1      2169 1.69117E+01
 -1      2170 2.99225E+01
 -1      2171 9.56395E+00
 -1      2172 1.35007E+01
 -1      2173 9.71169E+00
 -1      2174 9.21780E+00
 -1      2175 1.11608E+01
 -1      2176 1.09161E+01
 -1      2177 8.82464E+00
 -1      2178 1.11204E+01
 -1      2179 1.12850E+01
 -1      2180 1.18806E+01
 -1      2181 1.14530E+01
 -1      2182 1.18601E+01
 -1      2183 1.15952E+01
 -1      2184 9.17667E+00
 -1      2185 9.77138E+00
 -1      2186 2.00693E+01
 -1      2187 1.18199E+01
 -1      2188 2.52892E+01
 -1      2189 2.38761E+01
 -1      2190 1.06827E+01
 -1      2191 1.02291E+01
 -1      2192 3.75794E+01
 -1      2193 2.91010E+00
 -1      2194 2.10418E+00
 -1      2195 6.55040E+00
 -1      2196 1.09761E+01
 -1      2197 6.27887E+00
 -1      2198 4.32963E+01
 -1      2199 6.92216E+00
 -1      2200 7.10625E-01
 -1      2201 2.50249E+01
 -1      2202 2.29668E+01
 -1      2203 9.15738E+00
 -1      2204 1.52875E+01
 -1      2205 8.83749E+00
 -1      2206 1.01768E+01
 -1      2207 8.68840E+00
 -1      2208 6.59967E+00
 -1      2209 1.06572E+01
 -1      2210 1.01533E+01
 -1      2211 7.96634E+00
 -1      2212 1.17234E+01
 -1      2213 2.07104E+01
 -1      2214 2.39419E+01
 -1      2215 2.80938E+01
 -1      2216 3.45904E+01
 -1      2217 2.85340E+01
 -1      2218 2.53437E+01
 -1      2219 2.21632E+01
 -1      2220 1.29364E+01
 -1      2221 8.80521E+00
 -1      2222 9.49914E+00
 -1      2223 1.12496E+01
 -1      2224 9.31099E+00
 -1      2225 1.06101E+01
 -1      2226 6.94066E+00
 -1      2227 1.08846E+00
 -1      2228 1.48024E+00
 -1      2229 5.58977E-01
 -1      2230 5.90230E-01
 -1      2231 6.02170E-01
 -1      2232 6.51042E-01
 -1      2233 4.98201E-01
 -1      2234 5.11103E-01
 -1      2235 5.09486E-01
 -1      2236 5.45995E-01
 -1      2237 5.24110E-01
 -1      2238 4.44491E-01
 -1      2239 5.94238E-01
 -1      2240 5.60829E-01
 -1      2241 4.72332E-01
 -1      2242 6.53950E-01
 -1      2243 6.06313E-01
 -1      2244 4.99242E-01
 -1      2245 7.21702E-01
 -1      2246 6.53950E-01
 -1      2247 5.11317E-01
 -1      2248 8.85105E-01
 -1      2249 7.70930E-01
 -1      2250 5.60545E-01
 -1      2251 1.26536E+00
 -1      2252 1.03439E+00
 -1      2253 9.09766E+00
 -1      2254 1.32049E+01
 -1      2255 8.90192E-01
 -1      2256 1.01008E+00
 -1      2257 9.68565E-01
 -1      2258 1.67675E+00
 -1      2259 1.30090E+00
 -1      2260 8.37932E-01
 -1      2261 9.60199E-01
 -1      2262 9.83750E-01
 -1      2263 8.03478E-01
 -1      2264 7.51761E-01
 -1      2265 7.46635E-01
 -1      2266 6.20956E-01
 -1      2267 6.44280E-01
 -1      2268 5.64644E-01
 -1      2269 5.06231E-01
 -1      2270 5.31124E-01
 -1      2271 4.56713E-01
 -1      2272 4.07991E-01
 -1      2273 4.25295E-01
 -1      2274 3.80719E-01
 -1      2275 3.37716E-01
 -1      2276 3.48504E-01
 -1      2277 3.12454E-01
 -1      2278 2.79402E-01
 -1      2279 2.95970E-01
 -1      2280 2.55441E-01
 -1      2281 2.27509E-01
 -1      2282 2.46747E-01
 -1      2283 2.07997E-01
 -1      2284 1.83901E-01
 -1      2285 2.03273E-01
 -1      2286 1.66770E-01
 -1      2287 1.48844E-01
 -1      2288 1.66629E-01
 -1      2289 1.33860E-01
 -1      2290 1.18855E-01
 -1      2291 1.34514E-01
 -1      2292 1.06155E-01
 -1      2293 9.35016E-02
 -1      2294 1.06830E-01
 -1      2295 8.40873E-02
 -1      2296 7.36841E-02
 -1      2297 8.47150E-02
 -1      2298 6.57288E-02
 -1      2299 5.73639E-02
 -1      2300 6.73454E-02
 -1      2301 5.07638E-02
 -1      2302 4.41697E-02
 -1      2303 5.27901E-02
 -1      2304 3.87706E-02
 -1      2305 3.36575E-02
 -1      2306 4.07908E-02
 -1      2307 2.92596E-02
 -1      2308 2.53343E-02
 -1      2309 3.09937E-02
 -1      2310 2.17131E-02
 -1      2311 1.86876E-02
 -1      2312 2.29745E-02
 -1      2313 1.67856E-02
 -1      2314 1.70030E-02
 -1      2315 1.74513E-02
 -1      2316 1.78638E-02
 -1      2317 1.94725E-02
 -1      2318 1.64101E-02
 -1      2319 2.10041E-02
 -1      2320 2.35894E-02
 -1      2321 1.88024E-02
 -1      2322 2.71371E-02
 -1      2323 3.06570E-02
 -1      2324 2.38817E-02
 -1      2325 3.60856E-02
 -1      2326 4.10165E-02
 -1      2327 3.28579E-02
 -1      2328 4.72120E-02
 -1      2329 5.41274E-02
 -1      2330 4.44820E-02
 -1      2331 6.07805E-02
 -1      2332 6.80452E-02
 -1      2333 5.73305E-02
 -1      2334 7.48067E-02
 -1      2335 8.13904E-02
 -1      2336 7.07451E-02
 -1      2337 8.89216E-02
 -1      2338 9.75106E-02
 -1      2339 8.50377E-02
 -1      2340 1.02745E-01
 -1      2341 1.10975E-01
 -1      2342 9.78032E-02
 -1      2343 1.14584E-01
 -1      2344 1.22474E-01
 -1      2345 1.06646E-01
 -1      2346 1.21295E-01
 -1      2347 1.21948E-01
 -1      2348 1.09076E-01
 -1      2349 1.36885E-01
 -1      2350 1.36717E-01
 -1      2351 1.22834E-01
 -1      2352 1.59299E-01
 -1      2353 1.79475E-01
 -1      2354 1.60353E-01
 -1      2355 2.26620E-01
 -1      2356 3.12850E-01
 -1      2357 2.30080E-01
 -1      2358 3.99734E-01
 -1      2359 5.08987E-01
 -1      2360 3.64109E-01
 -1      2361 6.09368E-01
 -1      2362 7.35309E-01
 -1      2363 5.51374E-01
 -1      2364 8.79368E-01
 -1      2365 1.04451E+00
 -1      2366 7.95814E-01
 -1      2367 1.19034E+00
 -1      2368 1.35159E+00
 -1      2369 1.08570E+00
 -1      2370 1.46001E+00
 -1      2371 1.61478E+00
 -1      2372 1.33996E+00
 -1      2373 1.67624E+00
 -1      2374 1.80808E+00
 -1      2375 1.50985E+00
 -1      2376 1.82718E+00
 -1      2377 1.84850E+00
 -1      2378 1.59042E+00
 -1      2379 1.78815E+00
 -1      2380 1.71446E+00
 -1      2381 1.54916E+00
 -1      2382 1.61988E+00
 -1      2383 1.62645E+00
 -1      2384 1.39423E+00
 -1      2385 1.60380E+00
 -1      2386 1.47908E+00
 -1      2387 1.27700E+00
 -1      2388 1.38997E+00
 -1      2389 1.14784E+00
 -1      2390 1.16524E+00
 -1      2391 5.43357E-01
 -1      2392 6.22905E-01
 -1      2393 4.36455E-01
 -1      2394 4.89906E-01
 -1      2395 4.89906E-01
 -1      2396 3.69843E-01
 -1      2397 4.03149E-01
 -1      2398 4.03149E-01
 -1      2399 3.02127E-01
 -1      2400 3.35985E-01
 -1      2401 3.35985E-01
 -1      2402 2.46753E-01
 -1      2403 2.74440E-01
 -1      2404 2.74440E-01
 -1      2405 2.01409E-01
 -1      2406 2.24287E-01
 -1      2407 2.24287E-01
 -1      2408 1.61534E-01
 -1      2409 1.81619E-01
 -1      2410 1.82030E-01
 -1      2411 1.27853E-01
 -1      2412 1.44577E-01
 -1      2413 1.45282E-01
 -1      2414 1.01489E-01
 -1      2415 1.15383E-01
 -1      2416 1.15856E-01
 -1      2417 7.95351E-02
 -1      2418 9.08709E-02
 -1      2419 9.27684E-02
 -1      2420 6.16855E-02
 -1      2421 7.06940E-02
 -1      2422 7.33094E-02
 -1      2423 4.85545E-02
 -1      2424 5.48370E-02
 -1      2425 5.76198E-02
 -1      2426 3.62546E-02
 -1      2427 4.22408E-02
 -1      2428 4.44577E-02
 -1      2429 2.83449E-02
 -1      2430 3.18092E-02
 -1      2431 3.36986E-02
 -1      2432 2.27796E-02
 -1      2433 2.48713E-02
 -1      2434 2.57796E-02
 -1      2435 1.97159E-02
 -1      2436 2.02807E-02
 -1      2437 1.98071E-02
 -1      2438 2.21264E-02
 -1      2439 2.04359E-02
 -1      2440 1.80281E-02
 -1      2441 2.73492E-02
 -1      2442 2.45122E-02
 -1      2443 2.11339E-02
 -1      2444 3.68342E-02
 -1      2445 3.11786E-02
 -1      2446 2.73492E-02
 -1      2447 5.54096E-02
 -1      2448 4.57859E-02
 -1      2449 4.01304E-02
 -1      2450 7.90018E-02
 -1      2451 6.86573E-02
 -1      2452 6.23299E-02
 -1      2453 1.17387E-01
 -1      2454 9.78877E-02
 -1      2455 9.44635E-02
 -1      2456 1.77327E-01
 -1      2457 1.44614E-01
 -1      2458 1.40577E-01
 -1      2459 2.65249E-01
 -1      2460 2.16525E-01
 -1      2461 2.07001E-01
 -1      2462 3.93742E-01
 -1      2463 3.21566E-01
 -1      2464 3.02516E-01
 -1      2465 5.80383E-01
 -1      2466 4.74403E-01
 -1      2467 4.39493E-01
 -1      2468 8.48616E-01
 -1      2469 6.95367E-01
 -1      2470 6.35138E-01
 -1      2471 1.22699E+00
 -1      2472 1.01129E+00
 -1      2473 9.12796E-01
 -1      2474 1.76669E+00
 -1      2475 1.46393E+00
 -1      2476 1.31241E+00
 -1      2477 2.45853E+00
 -1      2478 2.08831E+00
 -1      2479 1.87096E+00
 -1      2480 3.28376E+00
 -1      2481 2.88682E+00
 -1      2482 2.62087E+00
 -1      2483 4.16409E+00
 -1      2484 3.83175E+00
 -1      2485 3.59715E+00
 -1      2486 5.06858E+00
 -1      2487 4.90258E+00
 -1      2488 4.88364E+00
 -1      2489 6.15143E+00
 -1      2490 5.50523E+00
 -1      2491 6.05878E+00
 -1      2492 7.65805E+00
 -1      2493 6.96839E+00
 -1      2494 7.31238E+00
 -1      2495 8.29238E+00
 -1      2496 8.51805E+00
 -1      2497 9.46388E+00
 -1      2498 7.52404E+00
 -1      2499 1.09420E+01
 -1      2500 1.09420E+01
 -1      2501 8.14856E-01
 -1      2502 3.02890E+01
 -1      2503 2.98397E+01
 -1      2504 7.93866E+00
 -1      2505 1.28980E+01
 -1      2506 1.10779E+01
 -1      2507 4.32963E+01
 -1      2508 4.32963E+01
 -1      2509 2.22121E+01
 -1      2510 2.49540E+01
 -1      2511 3.79613E+01
 -1      2512 1.20825E+01
 -1      2513 1.34965E+01
 -1      2514 7.01351E+00
 -1      2515 8.71148E+00
 -1      2516 4.64672E+00
 -1      2517 5.25032E+00
 -1      2518 3.44240E+00
 -1      2519 4.05025E+00
 -1      2520 4.33019E+00
 -1      2521 2.15316E+00
 -1      2522 2.81270E+00
 -1      2523 3.10402E+00
 -1      2524 1.40472E+00
 -1      2525 1.81674E+00
 -1      2526 2.13791E+00
 -1      2527 9.47867E-01
 -1      2528 1.11930E+00
 -1      2529 1.51607E+00
 -1      2530 7.13242E-01
 -1      2531 6.64742E-01
 -1      2532 9.47527E-01
 -1      2533 1.56340E+01
 -1      2534 2.24717E+01
 -1      2535 7.02453E-01
 -1      2536 7.96323E-01
 -1      2537 6.22905E-01
 -1      2538 6.98848E+00
 -1      2539 7.57129E+00
 -1      2540 2.08111E+01
 -1      2541 1.69387E+01
 -1      2542 6.59638E+00
 -1      2543 6.94252E+00
 -1      2544 1.03696E+01
 -1      2545 2.21118E+01
 -1      2546 2.44755E+01
 -1      2547 1.84474E+01
 -1      2548 5.22432E-01
 -1      2549 5.44535E-01
 -1      2550 4.71819E-01
 -1      2551 4.44430E-01
 -1      2552 1.00658E+01
 -1      2553 9.73324E+00
 -1      2554 2.05673E+01
 -1      2555 2.34334E+01
 -1      2556 3.10099E+01
 -1      2557 2.49535E+01
 -1      2558 3.45904E+01
 -1      2559 3.45904E+01
 -1      2560 2.33604E+01
 -1      2561 2.98570E+01
 -1      2562 2.22525E+01
 -1      2563 1.99078E+01
 -1      2564 1.35590E+01
 -1      2565 1.91351E+01
 -1      2566 1.51010E+01
 -1      2567 8.50958E+00
 -1      2568 1.19205E+01
 -1      2569 7.67275E+00
 -1      2570 6.46831E+00
 -1      2571 9.23365E+00
 -1      2572 9.10942E+00
 -1      2573 8.68934E+00
 -1      2574 9.31523E+00
 -1      2575 9.60067E+00
 -1      2576 9.32792E+00
 -1      2577 6.68468E+00
 -1      2578 1.62057E+00
 -1      2579 1.76389E+00
 -1      2580 1.32844E+00
 -1      2581 1.18726E+00
 -1      2582 7.96938E+00
 -1      2583 1.44097E+01
 -1      2584 1.06029E+01
 -1      2585 1.22541E+01
 -1      2586 2.69592E+01
 -1      2587 3.26761E+01
 -1      2588 8.24587E+00
 -1      2589 9.80284E+00
 -1      2590 8.72384E+00
 -1      2591 6.16070E-01
 -1      2592 7.56972E-01
 -1      2593 8.20389E-01
 -1      2594 9.09106E+00
 -1      2595 1.24401E+00
 -1      2596 1.06516E+01
 -1      2597 8.96122E-01
 -1      2598 3.26761E+01
 -1      2599 1.92195E+01
 -1      2600 1.70157E+01
 -1      2601 8.98934E+00
 -1      2602 8.45010E+00
 -1      2603 1.29829E+01
 -1      2604 1.00974E+01
 -1      2605 8.29545E-01
 -1      2606 7.76771E-01
 -1      2607 7.27931E-01
 -1      2608 1.00550E+00
 -1      2609 2.39107E+01
 -1      2610 8.27892E+00
 -1      2611 7.88224E+00
 -1      2612 1.79381E+01
 -1      2613 3.79613E+01
 -1      2614 1.18241E+01
 -1      2615 6.68985E+00
 -1      2616 1.34506E+01
 -1      2617 2.28415E+01
 -1      2618 1.35857E+01
 -1      2619 1.04521E+01
 -1      2620 9.59210E+00
 -1      2621 1.96323E+01
 -1      2622 7.96323E-01
 -1      2623 8.15607E+00
 -1      2624 7.13963E+00
 -1      2625 6.75309E+00
 -1      2626 1.03452E+01
 -1      2627 9.68682E-01
 -1      2628 5.24524E+00
 -1      2629 5.65065E+00
 -1      2630 5.73567E+00
 -1      2631 2.16710E+01
 -1      2632 2.98570E+01
 -1      2633 3.10099E+01
 -1      2634 5.44450E+00
 -1      2635 1.97964E+01
 -1      2636 1.78860E+01
 -1      2637 2.22722E+01
 -1      2638 9.33794E-01
 -1      2639 1.48559E+01
 -1      2640 5.74487E+00
 -1      2641 7.56160E+00
 -1      2642 8.02248E+00
 -1      2643 6.96600E+00
 -1      2644 6.33917E+00
 -1      2645 4.22819E-01
 -1      2646 4.07985E-01
 -1      2647 4.00086E-01
 -1      2648 3.87079E-01
 -1      2649 3.50573E-01
 -1      2650 4.36703E-01
 -1      2651 4.36703E-01
 -1      2652 4.74030E-01
 -1      2653 4.24802E-01
 -1      2654 3.50189E-01
 -1      2655 6.03626E-01
 -1      2656 5.52988E-01
 -1      2657 7.16879E-01
 -1      2658 7.95252E-01
 -1      2659 2.86754E-01
 -1      2660 3.20612E-01
 -1      2661 5.48589E-01
 -1      2662 4.91745E-01
 -1      2663 4.00454E-01
 -1      2664 4.85044E-01
 -1      2665 4.28732E-01
 -1      2666 3.89353E-01
 -1      2667 4.08208E-01
 -1      2668 3.58690E-01
 -1      2669 3.62127E-01
 -1      2670 3.33743E-01
 -1      2671 3.06470E-01
 -1      2672 3.16656E-01
 -1      2673 2.81500E-01
 -1      2674 2.56238E-01
 -1      2675 2.66738E-01
 -1      2676 2.40624E-01
 -1      2677 2.16664E-01
 -1      2678 2.26155E-01
 -1      2679 2.00280E-01
 -1      2680 1.80767E-01
 -1      2681 1.94158E-01
 -1      2682 1.65141E-01
 -1      2683 1.48009E-01
 -1      2684 1.62147E-01
 -1      2685 1.33926E-01
 -1      2686 1.18942E-01
 -1      2687 1.32437E-01
 -1      2688 1.07041E-01
 -1      2689 9.43404E-02
 -1      2690 1.06453E-01
 -1      2691 8.47889E-02
 -1      2692 7.53746E-02
 -1      2693 8.49999E-02
 -1      2694 6.73454E-02
 -1      2695 5.93902E-02
 -1      2696 6.74193E-02
 -1      2697 5.27901E-02
 -1      2698 4.61900E-02
 -1      2699 5.27901E-02
 -1      2700 4.07909E-02
 -1      2701 3.53917E-02
 -1      2702 4.07909E-02
 -1      2703 3.11031E-02
 -1      2704 2.67051E-02
 -1      2705 3.11031E-02
 -1      2706 2.30140E-02
 -1      2707 1.93928E-02
 -1      2708 2.31234E-02
 -1      2709 1.62742E-02
 -1      2710 1.43721E-02
 -1      2711 1.63136E-02
 -1      2712 1.37475E-02
 -1      2713 1.46083E-02
 -1      2714 1.25703E-02
 -1      2715 1.54198E-02
 -1      2716 1.69513E-02
 -1      2717 1.27572E-02
 -1      2718 2.07240E-02
 -1      2719 2.42717E-02
 -1      2720 1.73414E-02
 -1      2721 2.91319E-02
 -1      2722 3.45605E-02
 -1      2723 2.59743E-02
 -1      2724 4.02134E-02
 -1      2725 4.64088E-02
 -1      2726 3.64873E-02
 -1      2727 5.28109E-02
 -1      2728 5.94639E-02
 -1      2729 4.85422E-02
 -1      2730 6.70203E-02
 -1      2731 7.37818E-02
 -1      2732 6.25006E-02
 -1      2733 8.19748E-02
 -1      2734 8.95060E-02
 -1      2735 7.82500E-02
 -1      2736 9.68483E-02
 -1      2737 1.02083E-01
 -1      2738 9.37854E-02
 -1      2739 1.10241E-01
 -1      2740 1.13849E-01
 -1      2741 1.09286E-01
 -1      2742 1.21716E-01
 -1      2743 1.20537E-01
 -1      2744 1.25311E-01
 -1      2745 1.27832E-01
 -1      2746 1.42769E-01
 -1      2747 1.40472E-01
 -1      2748 1.79387E-01
 -1      2749 2.01969E-01
 -1      2750 1.84385E-01
 -1      2751 2.46817E-01
 -1      2752 2.93962E-01
 -1      2753 2.65852E-01
 -1      2754 3.64109E-01
 -1      2755 4.50993E-01
 -1      2756 3.80846E-01
 -1      2757 5.51374E-01
 -1      2758 6.51755E-01
 -1      2759 5.51374E-01
 -1      2760 7.50888E-01
 -1      2761 8.94948E-01
 -1      2762 7.50888E-01
 -1      2763 1.00666E+00
 -1      2764 1.15248E+00
 -1      2765 9.61730E-01
 -1      2766 1.26797E+00
 -1      2767 1.37640E+00
 -1      2768 1.18892E+00
 -1      2769 1.46082E+00
 -1      2770 1.52229E+00
 -1      2771 1.38884E+00
 -1      2772 1.62592E+00
 -1      2773 1.64502E+00
 -1      2774 1.57689E+00
 -1      2775 1.71895E+00
 -1      2776 1.65860E+00
 -1      2777 1.75445E+00
 -1      2778 1.58555E+00
 -1      2779 1.49097E+00
 -1      2780 1.75534E+00
 -1      2781 1.32258E+00
 -1      2782 1.29993E+00
 -1      2783 1.51391E+00
 -1      2784 1.60614E+00
 -1      2785 1.51703E+00
 -1      2786 1.65172E+00
 -1      2787 3.47729E-01
 -1      2788 3.81035E-01
 -1      2789 2.98498E-01
 -1      2790 1.86535E+01
 -1      2791 2.73691E+01
 -1      2792 4.15623E-01
 -1      2793 4.69074E-01
 -1      2794 3.60203E-01
 -1      2795 2.37995E-01
 -1      2796 2.65683E-01
 -1      2797 2.50309E-01
 -1      2798 1.96708E-01
 -1      2799 2.19174E-01
 -1      2800 2.10417E-01
 -1      2801 1.59904E-01
 -1      2802 1.79695E-01
 -1      2803 1.74582E-01
 -1      2804 1.28835E-01
 -1      2805 1.45791E-01
 -1      2806 1.43456E-01
 -1      2807 1.03838E-01
 -1      2808 1.16308E-01
 -1      2809 1.16817E-01
 -1      2810 8.24813E-02
 -1      2811 9.30992E-02
 -1      2812 9.35509E-02
 -1      2813 6.46911E-02
 -1      2814 7.35322E-02
 -1      2815 7.38630E-02
 -1      2816 5.11066E-02
 -1      2817 5.79550E-02
 -1      2818 5.81778E-02
 -1      2819 3.89015E-02
 -1      2820 4.52152E-02
 -1      2821 4.55504E-02
 -1      2822 2.98702E-02
 -1      2823 3.43157E-02
 -1      2824 3.50731E-02
 -1      2825 2.25686E-02
 -1      2826 2.60422E-02
 -1      2827 2.66593E-02
 -1      2828 1.70895E-02
 -1      2829 1.95885E-02
 -1      2830 1.98511E-02
 -1      2831 1.69922E-02
 -1      2832 1.62723E-02
 -1      2833 1.60537E-02
 -1      2834 2.08435E-02
 -1      2835 1.84577E-02
 -1      2836 1.67019E-02
 -1      2837 2.85056E-02
 -1      2838 2.46762E-02
 -1      2839 2.20000E-02
 -1      2840 4.51781E-02
 -1      2841 3.62263E-02
 -1      2842 3.35533E-02
 -1      2843 6.88305E-02
 -1      2844 5.55828E-02
 -1      2845 5.16787E-02
 -1      2846 1.01869E-01
 -1      2847 8.29833E-02
 -1      2848 7.62363E-02
 -1      2849 1.48593E-01
 -1      2850 1.21366E-01
 -1      2851 1.09886E-01
 -1      2852 2.14601E-01
 -1      2853 1.75404E-01
 -1      2854 1.56193E-01
 -1      2855 3.07662E-01
 -1      2856 2.51345E-01
 -1      2857 2.19748E-01
 -1      2858 4.41864E-01
 -1      2859 3.61203E-01
 -1      2860 3.10033E-01
 -1      2861 6.47691E-01
 -1      2862 5.32707E-01
 -1      2863 4.54417E-01
 -1      2864 9.49279E-01
 -1      2865 7.86604E-01
 -1      2866 6.84173E-01
 -1      2867 1.40246E+00
 -1      2868 1.16552E+00
 -1      2869 1.03933E+00
 -1      2870 2.02529E+00
 -1      2871 1.70366E+00
 -1      2872 1.55678E+00
 -1      2873 2.90914E+00
 -1      2874 2.48086E+00
 -1      2875 2.31356E+00
 -1      2876 4.14700E+00
 -1      2877 3.59901E+00
 -1      2878 3.45899E+00
 -1      2879 6.00751E+00
 -1      2880 5.26901E+00
 -1      2881 5.27087E+00
 -1      2882 1.02212E+01
 -1      2883 9.78451E+00
 -1      2884 1.01699E+01
 -1      2885 8.78957E+00
 -1      2886 7.97261E+00
 -1      2887 1.16983E+01
 -1      2888 1.02523E+01
 -1      2889 9.08907E+00
 -1      2890 7.81408E+00
 -1      2891 7.26784E+00
 -1      2892 7.73293E+00
 -1      2893 1.24601E+01
 -1      2894 6.05089E+00
 -1      2895 4.14604E+00
 -1      2896 4.74251E+00
 -1      2897 1.59429E+00
 -1      2898 1.87971E+00
 -1      2899 7.97733E-01
 -1      2900 8.28355E-01
 -1      2901 7.68543E+00
 -1      2902 7.18584E+00
 -1      2903 6.22943E+00
 -1      2904 5.03035E-01
 -1      2905 5.82583E-01
 -1      2906 4.28752E-01
 -1      2907 2.23990E+00
 -1      2908 2.57632E+00
 -1      2909 2.31811E+00
 -1      2910 2.92612E+00
 -1      2911 3.55582E+00
 -1      2912 3.96814E+00
 -1      2913 3.02811E+00
 -1      2914 5.77437E+00
 -1      2915 7.34143E+00
 -1      2916 2.73691E+01
 -1      2917 2.73691E+01
 -1      2918 2.69492E+01
 -1      2919 3.79613E+01
 -1      2920 6.68645E+00
 -1      2921 4.36703E-01
 -1      2922 4.24628E-01
 -1      2923 3.60281E-01
 -1      2924 3.62089E-01
 -1      2925 1.04798E+00
 -1      2926 9.84451E-01
 -1      2927 1.26758E+00
 -1      2928 1.19031E+00
 -1      2929 4.24381E-01
 -1      2930 4.36321E-01
 -1      2931 6.08331E-01
 -1      2932 7.02201E-01
 -1      2933 5.28888E-01
 -1      2934 4.88461E-01
 -1      2935 4.20106E+00
 -1      2936 4.32913E+00
 -1      2937 2.67068E+01
 -1      2938 2.31262E+01
 -1      2939 2.10617E+01
 -1      2940 2.57951E+01
 -1      2941 1.15233E+01
 -1      2942 1.46407E+01
 -1      2943 6.31363E+00
 -1      2944 4.87697E+00
 -1      2945 7.96554E+00
 -1      2946 9.60402E+00
 -1      2947 9.14367E+00
 -1      2948 1.64047E+01
 -1      2949 1.98573E+01
 -1      2950 4.64153E-01
 -1      2951 5.70082E-01
 -1      2952 3.90332E-01
 -1      2953 3.42477E-01
 -1      2954 3.86882E-01
 -1      2955 3.99828E-01
 -1      2956 1.63121E+00
 -1      2957 6.50992E-01
 -1      2958 6.15458E-01
 -1      2959 1.49891E+01
 -1      2960 6.60028E+00
 -1      2961 4.61144E+00
 -1      2962 6.35684E+00
 -1      2963 5.36593E+00
 -1      2964 5.06409E+00
 -1      2965 4.53094E+00
 -1      2966 5.78172E+00
 -1      2967 5.11580E+00
 -1      2968 1.07081E+01
 -1      2969 1.63121E+00
 -1      2970 5.30972E+00
 -1      2971 4.07581E-01
 -1      2972 4.22023E-01
 -1      2973 3.60143E-01
 -1      2974 3.50033E-01
 -1      2975 5.76669E-01
 -1      2976 4.40927E-01
 -1      2977 1.57954E+01
 -1      2978 1.40534E+01
 -1      2979 1.79691E+01
 -1      2980 1.79114E+01
 -1      2981 1.28270E+01
 -1      2982 3.76160E+00
 -1      2983 4.16685E-01
 -1      2984 5.75259E-01
 -1      2985 2.89643E-01
 -1      2986 3.01543E-01
 -1      2987 4.23341E-01
 -1      2988 4.42729E+00
 -1      2989 3.26263E+01
 -1      2990 2.21325E-01
 -1      2991 2.42396E-01
 -1      2992 4.39031E+00
 -1      2993 4.94776E+00
 -1      2994 4.33860E+00
 -1      2995 3.80009E+00
 -1      2996 3.14540E-01
 -1      2997 3.07838E-01
 -1      2998 3.18496E-01
 -1      2999 2.97972E-01
 -1      3000 2.43683E-01
 -1      3001 2.94371E-01
 -1      3002 2.69423E-01
 -1      3003 2.50739E-01
 -1      3004 2.58401E-01
 -1      3005 2.33431E-01
 -1      3006 2.36116E-01
 -1      3007 2.19143E-01
 -1      3008 2.03529E-01
 -1      3009 2.10806E-01
 -1      3010 1.90272E-01
 -1      3011 1.73889E-01
 -1      3012 1.83261E-01
 -1      3013 1.63193E-01
 -1      3014 1.47566E-01
 -1      3015 1.59308E-01
 -1      3016 1.36342E-01
 -1      3017 1.22258E-01
 -1      3018 1.37387E-01
 -1      3019 1.11470E-01
 -1      3020 9.95689E-02
 -1      3021 1.15374E-01
 -1      3022 8.97518E-02
 -1      3023 8.02003E-02
 -1      3024 9.47693E-02
 -1      3025 7.15961E-02
 -1      3026 6.35670E-02
 -1      3027 7.63480E-02
 -1      3028 5.62308E-02
 -1      3029 4.96307E-02
 -1      3030 6.04076E-02
 -1      3031 4.34872E-02
 -1      3032 3.80881E-02
 -1      3033 4.69280E-02
 -1      3034 3.29849E-02
 -1      3035 2.86963E-02
 -1      3036 3.56812E-02
 -1      3037 2.44356E-02
 -1      3038 2.07444E-02
 -1      3039 2.63173E-02
 -1      3040 1.71042E-02
 -1      3041 1.39855E-02
 -1      3042 1.84164E-02
 -1      3043 1.07465E-02
 -1      3044 1.01219E-02
 -1      3045 1.15371E-02
 -1      3046 1.01455E-02
 -1      3047 1.09569E-02
 -1      3048 8.32166E-03
 -1      3049 1.38154E-02
 -1      3050 1.75882E-02
 -1      3051 1.12037E-02
 -1      3052 2.18020E-02
 -1      3053 2.66622E-02
 -1      3054 1.82761E-02
 -1      3055 3.14839E-02
 -1      3056 3.71368E-02
 -1      3057 2.73116E-02
 -1      3058 4.34623E-02
 -1      3059 4.98643E-02
 -1      3060 3.84588E-02
 -1      3061 5.75228E-02
 -1      3062 6.50792E-02
 -1      3063 5.24428E-02
 -1      3064 7.41177E-02
 -1      3065 8.23107E-02
 -1      3066 6.91399E-02
 -1      3067 9.21822E-02
 -1      3068 9.95245E-02
 -1      3069 8.80499E-02
 -1      3070 1.09286E-01
 -1      3071 1.17444E-01
 -1      3072 1.07683E-01
 -1      3073 1.31758E-01
 -1      3074 1.39625E-01
 -1      3075 1.31758E-01
 -1      3076 1.55729E-01
 -1      3077 1.63024E-01
 -1      3078 1.62177E-01
 -1      3079 1.84385E-01
 -1      3080 2.21004E-01
 -1      3081 1.99642E-01
 -1      3082 2.68584E-01
 -1      3083 3.13432E-01
 -1      3084 2.68584E-01
 -1      3085 3.85210E-01
 -1      3086 4.55357E-01
 -1      3087 3.87942E-01
 -1      3088 5.35663E-01
 -1      3089 6.36043E-01
 -1      3090 5.40026E-01
 -1      3091 7.49120E-01
 -1      3092 8.48254E-01
 -1      3093 7.33409E-01
 -1      3094 9.61730E-01
 -1      3095 1.07344E+00
 -1      3096 9.59961E-01
 -1      3097 1.19493E+00
 -1      3098 1.31042E+00
 -1      3099 1.19493E+00
 -1      3100 1.39911E+00
 -1      3101 1.48354E+00
 -1      3102 1.40512E+00
 -1      3103 1.58270E+00
 -1      3104 1.68633E+00
 -1      3105 1.59297E+00
 -1      3106 1.91699E+00
 -1      3107 1.99092E+00
 -1      3108 1.92280E+00
 -1      3109 2.04597E+00
 -1      3110 1.97293E+00
 -1      3111 2.20851E+00
 -1      3112 1.86794E+00
 -1      3113 1.69955E+00
 -1      3114 2.15857E+00
 -1      3115 1.68029E+00
 -1      3116 1.98649E+00
 -1      3117 2.03432E+00
 -1      3118 2.62417E-01
 -1      3119 2.89534E-01
 -1      3120 2.33432E-01
 -1      3121 1.58579E-01
 -1      3122 1.75592E-01
 -1      3123 1.31493E-01
 -1      3124 1.45606E-01
 -1      3125 1.46615E-01
 -1      3126 1.06898E-01
 -1      3127 1.19425E-01
 -1      3128 1.21574E-01
 -1      3129 8.54320E-02
 -1      3130 9.61707E-02
 -1      3131 9.87793E-02
 -1      3132 6.72608E-02
 -1      3133 7.62100E-02
 -1      3134 7.88298E-02
 -1      3135 5.26652E-02
 -1      3136 5.94013E-02
 -1      3137 6.17482E-02
 -1      3138 4.02299E-02
 -1      3139 4.61213E-02
 -1      3140 4.73448E-02
 -1      3141 3.04873E-02
 -1      3142 3.50731E-02
 -1      3143 3.56441E-02
 -1      3144 2.28313E-02
 -1      3145 2.66593E-02
 -1      3146 2.66593E-02
 -1      3147 1.66879E-02
 -1      3148 1.96680E-02
 -1      3149 1.96680E-02
 -1      3150 1.32968E-02
 -1      3151 1.41141E-02
 -1      3152 1.39310E-02
 -1      3153 1.47873E-02
 -1      3154 1.33218E-02
 -1      3155 1.13823E-02
 -1      3156 2.19006E-02
 -1      3157 1.80679E-02
 -1      3158 1.46879E-02
 -1      3159 3.54203E-02
 -1      3160 2.76996E-02
 -1      3161 2.37676E-02
 -1      3162 5.31113E-02
 -1      3163 4.27066E-02
 -1      3164 3.68529E-02
 -1      3165 7.86613E-02
 -1      3166 6.45084E-02
 -1      3167 5.55363E-02
 -1      3168 1.14423E-01
 -1      3169 9.49260E-02
 -1      3170 8.31981E-02
 -1      3171 1.65554E-01
 -1      3172 1.38744E-01
 -1      3173 1.23784E-01
 -1      3174 2.38235E-01
 -1      3175 2.01491E-01
 -1      3176 1.84042E-01
 -1      3177 3.43917E-01
 -1      3178 2.90375E-01
 -1      3179 2.72119E-01
 -1      3180 5.10419E-01
 -1      3181 4.19576E-01
 -1      3182 3.99918E-01
 -1      3183 7.59529E-01
 -1      3184 6.20616E-01
 -1      3185 5.85774E-01
 -1      3186 1.15381E+00
 -1      3187 9.37566E-01
 -1      3188 8.74009E-01
 -1      3189 1.69178E+00
 -1      3190 1.39058E+00
 -1      3191 1.28881E+00
 -1      3192 2.51830E+00
 -1      3193 2.06273E+00
 -1      3194 1.89653E+00
 -1      3195 3.79003E+00
 -1      3196 3.10016E+00
 -1      3197 2.84934E+00
 -1      3198 5.85813E+00
 -1      3199 4.73612E+00
 -1      3200 4.37729E+00
 -1      3201 1.19141E+01
 -1      3202 8.13713E+00
 -1      3203 7.60238E+00
 -1      3204 1.63850E+01
 -1      3205 1.55310E+01
 -1      3206 1.88527E-01
 -1      3207 2.07348E-01
 -1      3208 1.72523E-01
 -1      3209 1.95792E+00
 -1      3210 5.57151E+00
 -1      3211 5.52401E+00
 -1      3212 3.49590E-01
 -1      3213 3.83551E-01
 -1      3214 1.98649E+00
 -1      3215 2.34668E+00
 -1      3216 3.35718E-01
 -1      3217 3.31319E-01
 -1      3218 2.49804E-01
 -1      3219 6.34619E+00
 -1      3220 1.98649E+00
 -1      3221 1.29560E+01
 -1      3222 1.41604E+01
 -1      3223 3.23430E-01
 -1      3224 3.15531E-01
 -1      3225 2.94395E+00
 -1      3226 4.38918E+00
 -1      3227 5.60852E+00
 -1      3228 6.23263E+00
 -1      3229 1.32824E+01
 -1      3230 4.12630E-01
 -1      3231 3.09991E-01
 -1      3232 2.61346E-01
 -1      3233 3.97952E-01
 -1      3234 1.54733E+01
 -1      3235 1.63850E+01
 -1      3236 1.02417E+01
 -1      3237 1.20057E+01
 -1      3238 7.32466E+00
 -1      3239 9.24394E+00
 -1      3240 3.05395E-01
 -1      3241 3.39983E-01
 -1      3242 2.94782E-01
 -1      3243 3.79796E+00
 -1      3244 3.12206E+00
 -1      3245 5.26610E+00
 -1      3246 4.39388E+00
 -1      3247 1.16983E+01
 -1      3248 3.12057E-01
 -1      3249 3.11861E-01
 -1      3250 2.84915E-01
 -1      3251 1.26339E+01
 -1      3252 1.99435E-01
 -1      3253 2.69314E-01
 -1      3254 1.39469E+01
 -1      3255 1.19141E+01
 -1      3256 1.39469E+01
 -1      3257 6.33291E+00
 -1      3258 4.77438E+00
 -1      3259 4.40673E+00
 -1      3260 3.18738E+00
 -1      3261 3.75434E+00
 -1      3262 2.60587E-01
 -1      3263 3.21133E-01
 -1      3264 3.21133E-01
 -1      3265 4.11509E-01
 -1      3266 2.98031E+00
 -1      3267 4.60817E+00
 -1      3268 4.40233E+00
 -1      3269 5.31333E+00
 -1      3270 4.60790E+00
 -1      3271 3.21934E-01
 -1      3272 3.49765E-01
 -1      3273 2.93695E+00
 -1      3274 3.28675E+00
 -1      3275 3.70893E+00
 -1      3276 2.60533E+00
 -1      3277 3.23430E-01
 -1      3278 2.88388E-01
 -1      3279 3.25239E-01
 -1      3280 1.03707E+01
 -1      3281 2.01506E+00
 -1      3282 3.23194E-01
 -1      3283 3.25551E-01
 -1      3284 2.84984E-01
 -1      3285 3.42374E-01
 -1      3286 3.67060E-01
 -1      3287 3.92809E-01
 -1      3288 2.76551E-01
 -1      3289 2.87898E-01
 -1      3290 8.42269E+00
 -1      3291 3.19923E+00
 -1      3292 3.02111E+00
 -1      3293 1.86842E-01
 -1      3294 1.97499E-01
 -1      3295 1.39469E+01
 -1      3296 2.14033E-01
 -1      3297 2.10432E-01
 -1      3298 1.57192E-01
 -1      3299 2.14227E-01
 -1      3300 2.03204E-01
 -1      3301 1.77521E-01
 -1      3302 1.99500E-01
 -1      3303 1.85212E-01
 -1      3304 1.77611E-01
 -1      3305 1.77277E-01
 -1      3306 1.64020E-01
 -1      3307 1.65971E-01
 -1      3308 1.54122E-01
 -1      3309 1.43427E-01
 -1      3310 1.48139E-01
 -1      3311 1.35206E-01
 -1      3312 1.23981E-01
 -1      3313 1.30020E-01
 -1      3314 1.15721E-01
 -1      3315 1.04932E-01
 -1      3316 1.13539E-01
 -1      3317 9.66038E-02
 -1      3318 8.67868E-02
 -1      3319 9.69499E-02
 -1      3320 7.89443E-02
 -1      3321 7.03401E-02
 -1      3322 8.07789E-02
 -1      3323 6.32935E-02
 -1      3324 5.59573E-02
 -1      3325 6.58898E-02
 -1      3326 4.98207E-02
 -1      3327 4.36772E-02
 -1      3328 5.27065E-02
 -1      3329 3.84391E-02
 -1      3330 3.33359E-02
 -1      3331 4.13318E-02
 -1      3332 2.89038E-02
 -1      3333 2.46431E-02
 -1      3334 3.16617E-02
 -1      3335 2.08800E-02
 -1      3336 1.72397E-02
 -1      3337 2.34665E-02
 -1      3338 1.40490E-02
 -1      3339 1.08100E-02
 -1      3340 1.65126E-02
 -1      3341 1.07663E-02
 -1      3342 1.07898E-02
 -1      3343 1.32782E-02
 -1      3344 1.12915E-02
 -1      3345 1.41500E-02
 -1      3346 1.37361E-02
 -1      3347 1.81818E-02
 -1      3348 2.23957E-02
 -1      3349 1.82696E-02
 -1      3350 2.73116E-02
 -1      3351 3.21333E-02
 -1      3352 2.72174E-02
 -1      3353 3.78123E-02
 -1      3354 4.41378E-02
 -1      3355 3.78123E-02
 -1      3356 5.04109E-02
 -1      3357 5.80695E-02
 -1      3358 4.97644E-02
 -1      3359 6.50356E-02
 -1      3360 7.40741E-02
 -1      3361 6.30037E-02
 -1      3362 8.28983E-02
 -1      3363 9.27697E-02
 -1      3364 7.87940E-02
 -1      3365 1.06843E-01
 -1      3366 1.16604E-01
 -1      3367 1.01691E-01
 -1      3368 1.32943E-01
 -1      3369 1.47257E-01
 -1      3370 1.32103E-01
 -1      3371 1.67293E-01
 -1      3372 1.83397E-01
 -1      3373 1.68477E-01
 -1      3374 2.13478E-01
 -1      3375 2.34839E-01
 -1      3376 2.18594E-01
 -1      3377 2.74350E-01
 -1      3378 3.21930E-01
 -1      3379 2.88185E-01
 -1      3380 3.87942E-01
 -1      3381 4.59720E-01
 -1      3382 3.93708E-01
 -1      3383 5.40488E-01
 -1      3384 6.20794E-01
 -1      3385 5.40488E-01
 -1      3386 7.40056E-01
 -1      3387 8.53133E-01
 -1      3388 7.40519E-01
 -1      3389 9.98230E-01
 -1      3390 1.11171E+00
 -1      3391 1.00488E+00
 -1      3392 1.19493E+00
 -1      3393 1.31643E+00
 -1      3394 1.23320E+00
 -1      3395 1.78652E+00
 -1      3396 1.87521E+00
 -1      3397 1.78652E+00
 -1      3398 2.22017E+00
 -1      3399 2.31934E+00
 -1      3400 2.60157E+00
 -1      3401 2.46609E+00
 -1      3402 2.69675E+00
 -1      3403 3.09329E+00
 -1      3404 2.75406E+00
 -1      3405 2.80912E+00
 -1      3406 3.29736E+00
 -1      3407 2.69381E+00
 -1      3408 2.58882E+00
 -1      3409 3.23937E+00
 -1      3410 2.44151E+00
 -1      3411 2.42225E+00
 -1      3412 2.42225E+00
 -1      3413 2.97676E+00
 -1      3414 2.04566E-01
 -1      3415 2.24587E-01
 -1      3416 1.11435E-01
 -1      3417 1.23502E-01
 -1      3418 1.32994E-01
 -1      3419 1.45967E-01
 -1      3420 1.22854E-01
 -1      3421 7.35409E-02
 -1      3422 8.27629E-02
 -1      3423 5.79062E-02
 -1      3424 6.57657E-02
 -1      3425 6.96988E-02
 -1      3426 4.45541E-02
 -1      3427 5.10981E-02
 -1      3428 5.51155E-02
 -1      3429 3.38438E-02
 -1      3430 3.90006E-02
 -1      3431 4.27538E-02
 -1      3432 2.53579E-02
 -1      3433 2.91859E-02
 -1      3434 3.25424E-02
 -1      3435 1.82502E-02
 -1      3436 2.14135E-02
 -1      3437 2.39401E-02
 -1      3438 1.22477E-02
 -1      3439 1.48215E-02
 -1      3440 1.65669E-02
 -1      3441 1.14196E-02
 -1      3442 1.13946E-02
 -1      3443 1.22851E-02
 -1      3444 1.62060E-02
 -1      3445 1.29253E-02
 -1      3446 1.29377E-02
 -1      3447 2.76456E-02
 -1      3448 2.18466E-02
 -1      3449 2.00840E-02
 -1      3450 4.18993E-02
 -1      3451 3.46130E-02
 -1      3452 3.26920E-02
 -1      3453 6.31313E-02
 -1      3454 5.17342E-02
 -1      3455 4.94943E-02
 -1      3456 9.33221E-02
 -1      3457 7.70574E-02
 -1      3458 7.32553E-02
 -1      3459 1.36935E-01
 -1      3460 1.12614E-01
 -1      3461 1.06473E-01
 -1      3462 1.99578E-01
 -1      3463 1.63641E-01
 -1      3464 1.52471E-01
 -1      3465 2.88605E-01
 -1      3466 2.36465E-01
 -1      3467 2.16065E-01
 -1      3468 4.15074E-01
 -1      3469 3.39415E-01
 -1      3470 3.03761E-01
 -1      3471 5.95229E-01
 -1      3472 4.85031E-01
 -1      3473 4.24528E-01
 -1      3474 8.85613E-01
 -1      3475 7.07576E-01
 -1      3476 6.06833E-01
 -1      3477 1.24956E+00
 -1      3478 1.01279E+00
 -1      3479 8.46358E-01
 -1      3480 1.84283E+00
 -1      3481 1.47188E+00
 -1      3482 1.19585E+00
 -1      3483 2.81331E+00
 -1      3484 2.23145E+00
 -1      3485 1.80679E+00
 -1      3486 4.36251E+00
 -1      3487 3.41642E+00
 -1      3488 2.79853E+00
 -1      3489 9.37214E+00
 -1      3490 7.09315E+00
 -1      3491 6.13228E+00
 -1      3492 1.14049E+01
 -1      3493 1.54659E-01
 -1      3494 1.67594E-01
 -1      3495 1.41037E-01
 -1      3496 9.13929E-02
 -1      3497 1.02120E-01
 -1      3498 1.04048E-01
 -1      3499 8.61040E-02
 -1      3500 7.15955E+00
 -1      3501 8.15731E+00
 -1      3502 2.73975E-01
 -1      3503 3.15441E-01
 -1      3504 3.23194E-01
 -1      3505 2.88602E-01
 -1      3506 2.07188E-01
 -1      3507 1.90409E-01
 -1      3508 1.44226E-01
 -1      3509 2.14579E-01
 -1      3510 1.79232E-01
 -1      3511 1.93209E-01
 -1      3512 1.61368E-01
 -1      3513 4.34773E+00
 -1      3514 4.08982E+00
 -1      3515 1.00920E+01
 -1      3516 3.85247E+00
 -1      3517 3.25655E+00
 -1      3518 8.15731E+00
 -1      3519 9.10759E+00
 -1      3520 2.45952E-01
 -1      3521 2.55559E-01
 -1      3522 5.06147E+00
 -1      3523 6.15350E+00
 -1      3524 2.30902E-01
 -1      3525 2.46763E-01
 -1      3526 2.07540E-01
 -1      3527 2.02036E-01
 -1      3528 2.84282E-01
 -1      3529 3.99583E+00
 -1      3530 4.11216E+00
 -1      3531 4.05956E+00
 -1      3532 3.48249E+00
 -1      3533 3.29736E+00
 -1      3534 5.88812E+00
 -1      3535 6.89417E+00
 -1      3536 3.59202E+00
 -1      3537 2.85022E-01
 -1      3538 3.01252E+00
 -1      3539 2.87436E+00
 -1      3540 3.25956E+00
 -1      3541 3.09329E+00
 -1      3542 2.04127E-01
 -1      3543 2.23717E-01
 -1      3544 1.84364E-01
 -1      3545 2.52627E-01
 -1      3546 2.52627E-01
 -1      3547 2.35721E-01
 -1      3548 1.68934E-01
 -1      3549 2.39339E-01
 -1      3550 4.20725E+00
 -1      3551 3.68890E+00
 -1      3552 3.94908E+00
 -1      3553 7.87854E+00
 -1      3554 3.32649E+00
 -1      3555 4.16064E+00
 -1      3556 3.98124E+00
 -1      3557 2.35069E-01
 -1      3558 2.18579E-01
 -1      3559 1.86240E-01
 -1      3560 2.52627E-01
 -1      3561 2.49153E-01
 -1      3562 2.16865E-01
 -1      3563 1.15585E-01
 -1      3564 1.32119E-01
 -1      3565 1.48277E-01
 -1      3566 1.52071E-01
 -1      3567 1.06670E-01
 -1      3568 1.58220E-01
 -1      3569 1.54516E-01
 -1      3570 1.28976E-01
 -1      3571 1.54136E-01
 -1      3572 1.46202E-01
 -1      3573 1.34746E-01
 -1      3574 1.41743E-01
 -1      3575 1.31845E-01
 -1      3576 1.29908E-01
 -1      3577 1.25172E-01
 -1      3578 1.16951E-01
 -1      3579 1.18776E-01
 -1      3580 1.09385E-01
 -1      3581 1.01125E-01
 -1      3582 1.04537E-01
 -1      3583 9.48832E-02
 -1      3584 8.65546E-02
 -1      3585 9.07297E-02
 -1      3586 8.01041E-02
 -1      3587 7.22617E-02
 -1      3588 7.80374E-02
 -1      3589 6.61008E-02
 -1      3590 5.90542E-02
 -1      3591 6.54261E-02
 -1      3592 5.34734E-02
 -1      3593 4.73368E-02
 -1      3594 5.36845E-02
 -1      3595 4.24221E-02
 -1      3596 3.71840E-02
 -1      3597 4.31890E-02
 -1      3598 3.29669E-02
 -1      3599 2.85349E-02
 -1      3600 3.40572E-02
 -1      3601 2.49588E-02
 -1      3602 2.11956E-02
 -1      3603 2.62640E-02
 -1      3604 1.84712E-02
 -1      3605 1.52805E-02
 -1      3606 1.99635E-02
 -1      3607 1.50164E-02
 -1      3608 1.49727E-02
 -1      3609 1.69750E-02
 -1      3610 1.53712E-02
 -1      3611 1.58729E-02
 -1      3612 1.71094E-02
 -1      3613 1.72429E-02
 -1      3614 2.12747E-02
 -1      3615 1.88779E-02
 -1      3616 2.57196E-02
 -1      3617 3.06356E-02
 -1      3618 2.46928E-02
 -1      3619 3.62852E-02
 -1      3620 4.19641E-02
 -1      3621 3.47874E-02
 -1      3622 4.87794E-02
 -1      3623 5.50526E-02
 -1      3624 4.72523E-02
 -1      3625 6.30037E-02
 -1      3626 6.99698E-02
 -1      3627 6.20187E-02
 -1      3628 7.87648E-02
 -1      3629 8.75890E-02
 -1      3630 7.87648E-02
 -1      3631 9.89646E-02
 -1      3632 1.13038E-01
 -1      3633 9.89354E-02
 -1      3634 1.28311E-01
 -1      3635 1.44649E-01
 -1      3636 1.25584E-01
 -1      3637 1.71639E-01
 -1      3638 1.91675E-01
 -1      3639 1.67847E-01
 -1      3640 2.26969E-01
 -1      3641 2.57049E-01
 -1      3642 2.30130E-01
 -1      3643 3.01354E-01
 -1      3644 3.40865E-01
 -1      3645 3.09729E-01
 -1      3646 3.99735E-01
 -1      3647 4.65747E-01
 -1      3648 4.12904E-01
 -1      3649 5.50937E-01
 -1      3650 6.31706E-01
 -1      3651 5.56965E-01
 -1      3652 7.40519E-01
 -1      3653 8.59781E-01
 -1      3654 7.50968E-01
 -1      3655 1.07797E+00
 -1      3656 1.22307E+00
 -1      3657 1.07797E+00
 -1      3658 1.43291E+00
 -1      3659 1.51614E+00
 -1      3660 1.50601E+00
 -1      3661 1.78652E+00
 -1      3662 2.25661E+00
 -1      3663 1.98623E+00
 -1      3664 2.60157E+00
 -1      3665 2.94654E+00
 -1      3666 3.09329E+00
 -1      3667 3.24004E+00
 -1      3668 3.29736E+00
 -1      3669 3.35467E+00
 -1      3670 3.59202E+00
 -1      3671 3.47672E+00
 -1      3672 5.06740E-02
 -1      3673 5.74821E-02
 -1      3674 6.33028E-02
 -1      3675 7.10780E-02
 -1      3676 5.88613E-02
 -1      3677 2.97066E-02
 -1      3678 3.43644E-02
 -1      3679 2.18238E-02
 -1      3680 2.57683E-02
 -1      3681 2.75903E-02
 -1      3682 1.50229E-02
 -1      3683 1.84517E-02
 -1      3684 2.02799E-02
 -1      3685 1.33883E-02
 -1      3686 1.42414E-02
 -1      3687 1.61262E-02
 -1      3688 1.54439E-02
 -1      3689 1.39382E-02
 -1      3690 1.58945E-02
 -1      3691 2.40031E-02
 -1      3692 1.83625E-02
 -1      3693 1.93629E-02
 -1      3694 3.63968E-02
 -1      3695 2.94294E-02
 -1      3696 2.77079E-02
 -1      3697 5.39216E-02
 -1      3698 4.40867E-02
 -1      3699 4.08241E-02
 -1      3700 7.79939E-02
 -1      3701 6.40678E-02
 -1      3702 5.86602E-02
 -1      3703 1.10590E-01
 -1      3704 9.12982E-02
 -1      3705 8.21108E-02
 -1      3706 1.54557E-01
 -1      3707 1.27851E-01
 -1      3708 1.12676E-01
 -1      3709 2.13485E-01
 -1      3710 1.76597E-01
 -1      3711 1.51977E-01
 -1      3712 2.93471E-01
 -1      3713 2.42662E-01
 -1      3714 2.03194E-01
 -1      3715 4.14048E-01
 -1      3716 3.44091E-01
 -1      3717 2.82991E-01
 -1      3718 6.18340E-01
 -1      3719 5.05993E-01
 -1      3720 4.25555E-01
 -1      3721 8.50205E-01
 -1      3722 7.23027E-01
 -1      3723 6.22187E-01
 -1      3724 1.23219E+00
 -1      3725 1.00987E+00
 -1      3726 8.86543E-01
 -1      3727 1.86384E+00
 -1      3728 1.47522E+00
 -1      3729 1.28924E+00
 -1      3730 3.13977E+00
 -1      3731 2.53666E+00
 -1      3732 2.20509E+00
 -1      3733 6.70002E+00
 -1      3734 3.96937E+00
 -1      3735 3.70751E+00
 -1      3736 5.71564E+00
 -1      3737 2.42726E-01
 -1      3738 2.46832E-01
 -1      3739 2.11070E-01
 -1      3740 1.86266E-01
 -1      3741 1.27424E-01
 -1      3742 1.36116E-01
 -1      3743 2.56203E-01
 -1      3744 2.19333E-01
 -1      3745 1.62171E-01
 -1      3746 1.73529E-01
 -1      3747 1.75414E-01
 -1      3748 1.81729E-01
 -1      3749 1.53222E-01
 -1      3750 1.26116E-01
 -1      3751 1.22550E-01
 -1      3752 9.74760E-02
 -1      3753 1.47258E-01
 -1      3754 2.48854E-01
 -1      3755 2.52434E-01
 -1      3756 2.16566E-01
 -1      3757 3.89974E-02
 -1      3758 4.45510E-02
 -1      3759 4.69176E-02
 -1      3760 3.61617E-02
 -1      3761 1.44176E-01
 -1      3762 1.55814E-01
 -1      3763 1.30562E-01
 -1      3764 1.10239E-01
 -1      3765 1.19730E-01
 -1      3766 1.14809E-01
 -1      3767 4.82313E+00
 -1      3768 5.82918E+00
 -1      3769 5.93233E+00
 -1      3770 5.93233E+00
 -1      3771 2.52434E-01
 -1      3772 2.52434E-01
 -1      3773 2.03171E-01
 -1      3774 2.16266E-01
 -1      3775 1.75970E-01
 -1      3776 1.75160E-01
 -1      3777 1.49348E-01
 -1      3778 3.33625E+00
 -1      3779 1.66504E-01
 -1      3780 2.60157E+00
 -1      3781 3.18893E+00
 -1      3782 9.37606E-02
 -1      3783 1.03075E-01
 -1      3784 9.99513E-02
 -1      3785 4.75380E+00
 -1      3786 1.44979E-01
 -1      3787 1.73750E-01
 -1      3788 1.79546E-01
 -1      3789 7.79357E-02
 -1      3790 8.65656E-02
 -1      3791 8.55923E-02
 -1      3792 7.15396E-02
 -1      3793 2.66858E+00
 -1      3794 2.98161E+00
 -1      3795 2.73552E+00
 -1      3796 2.32362E+00
 -1      3797 4.86734E+00
 -1      3798 1.33105E-01
 -1      3799 1.64675E-01
 -1      3800 3.37201E+00
 -1      3801 1.47798E-01
 -1      3802 1.85117E-01
 -1      3803 1.85117E-01
 -1      3804 1.44185E-01
 -1      3805 2.82054E+00
 -1      3806 3.72138E+00
 -1      3807 3.66244E+00
 -1      3808 1.06121E-01
 -1      3809 1.12270E-01
 -1      3810 1.18139E-01
 -1      3811 1.17760E-01
 -1      3812 9.52838E-02
 -1      3813 1.18454E-01
 -1      3814 1.13995E-01
 -1      3815 1.01847E-01
 -1      3816 1.11276E-01
 -1      3817 1.04603E-01
 -1      3818 9.98219E-02
 -1      3819 9.99197E-02
 -1      3820 9.23543E-02
 -1      3821 9.24202E-02
 -1      3822 8.67473E-02
 -1      3823 8.05054E-02
 -1      3824 8.21301E-02
 -1      3825 7.46866E-02
 -1      3826 6.82361E-02
 -1      3827 7.07042E-02
 -1      3828 6.28743E-02
 -1      3829 5.67135E-02
 -1      3830 5.95235E-02
 -1      3831 5.21377E-02
 -1      3832 4.65569E-02
 -1      3833 4.95860E-02
 -1      3834 4.23496E-02
 -1      3835 3.74349E-02
 -1      3836 4.08028E-02
 -1      3837 3.37290E-02
 -1      3838 2.95118E-02
 -1      3839 3.28895E-02
 -1      3840 2.64217E-02
 -1      3841 2.28457E-02
 -1      3842 2.60935E-02
 -1      3843 2.12646E-02
 -1      3844 1.85402E-02
 -1      3845 2.14224E-02
 -1      3846 1.80296E-02
 -1      3847 1.77656E-02
 -1      3848 1.93308E-02
 -1      3849 1.80392E-02
 -1      3850 1.84377E-02
 -1      3851 1.90938E-02
 -1      3852 1.96149E-02
 -1      3853 2.09849E-02
 -1      3854 2.05447E-02
 -1      3855 2.34560E-02
 -1      3856 2.79010E-02
 -1      3857 2.41931E-02
 -1      3858 3.14957E-02
 -1      3859 3.71453E-02
 -1      3860 3.02589E-02
 -1      3861 4.36335E-02
 -1      3862 5.04488E-02
 -1      3863 4.03418E-02
 -1      3864 5.87915E-02
 -1      3865 6.67426E-02
 -1      3866 5.51727E-02
 -1      3867 7.72606E-02
 -1      3868 8.60556E-02
 -1      3869 7.40334E-02
 -1      3870 9.89354E-02
 -1      3871 1.10311E-01
 -1      3872 9.74313E-02
 -1      3873 1.25391E-01
 -1      3874 1.40664E-01
 -1      3875 1.25391E-01
 -1      3876 1.65516E-01
 -1      3877 1.92506E-01
 -1      3878 1.65322E-01
 -1      3879 2.24072E-01
 -1      3880 2.59366E-01
 -1      3881 2.21741E-01
 -1      3882 3.16830E-01
 -1      3883 3.61134E-01
 -1      3884 3.10772E-01
 -1      3885 4.39829E-01
 -1      3886 4.98700E-01
 -1      3887 4.46930E-01
 -1      3888 5.95219E-01
 -1      3889 6.80409E-01
 -1      3890 6.22145E-01
 -1      3891 8.52095E-01
 -1      3892 9.60907E-01
 -1      3893 8.90349E-01
 -1      3894 1.49572E+00
 -1      3895 1.71391E+00
 -1      3896 1.59685E+00
 -1      3897 1.92843E+00
 -1      3898 2.13827E+00
 -1      3899 2.05324E+00
 -1      3900 1.15752E-01
 -1      3901 1.23812E-01
 -1      3902 5.06747E-02
 -1      3903 5.64954E-02
 -1      3904 1.82017E-02
 -1      3905 2.15739E-02
 -1      3906 2.42797E-02
 -1      3907 2.82180E-02
 -1      3908 2.22016E-02
 -1      3909 1.73101E-02
 -1      3910 1.67602E-02
 -1      3911 2.13144E-02
 -1      3912 1.83958E-02
 -1      3913 1.92615E-02
 -1      3914 2.94837E-02
 -1      3915 2.40574E-02
 -1      3916 2.30902E-02
 -1      3917 4.22463E-02
 -1      3918 3.45564E-02
 -1      3919 3.09059E-02
 -1      3920 5.89718E-02
 -1      3921 4.88256E-02
 -1      3922 4.25579E-02
 -1      3923 8.13892E-02
 -1      3924 6.80848E-02
 -1      3925 5.82502E-02
 -1      3926 1.12705E-01
 -1      3927 9.54437E-02
 -1      3928 8.14177E-02
 -1      3929 1.54426E-01
 -1      3930 1.32386E-01
 -1      3931 1.15153E-01
 -1      3932 2.10829E-01
 -1      3933 1.81652E-01
 -1      3934 1.62060E-01
 -1      3935 2.98344E-01
 -1      3936 2.47724E-01
 -1      3937 2.26182E-01
 -1      3938 4.48917E-01
 -1      3939 3.56972E-01
 -1      3940 3.21706E-01
 -1      3941 6.22187E-01
 -1      3942 5.17500E-01
 -1      3943 4.48917E-01
 -1      3944 9.20653E-01
 -1      3945 7.60985E-01
 -1      3946 6.56297E-01
 -1      3947 1.40901E+00
 -1      3948 1.16599E+00
 -1      3949 1.04043E+00
 -1      3950 2.43139E+00
 -1      3951 1.75856E+00
 -1      3952 1.63532E+00
 -1      3953 3.78037E+00
 -1      3954 2.95077E+00
 -1      3955 2.50425E+00
 -1      3956 3.99706E+00
 -1      3957 1.63947E-01
 -1      3958 1.32423E-01
 -1      3959 1.29536E-01
 -1      3960 1.23778E-01
 -1      3961 1.17329E-01
 -1      3962 1.06844E-01
 -1      3963 1.16647E-01
 -1      3964 9.75171E-02
 -1      3965 3.65891E+00
 -1      3966 1.67078E-02
 -1      3967 1.74893E-02
 -1      3968 1.81234E-02
 -1      3969 7.91867E-02
 -1      3970 9.53446E-02
 -1      3971 7.86382E-02
 -1      3972 1.44938E-01
 -1      3973 1.85117E-01
 -1      3974 1.84818E-01
 -1      3975 1.53370E-01
 -1      3976 4.00992E+00
 -1      3977 4.11306E+00
 -1      3978 1.27698E-01
 -1      3979 1.34055E-01
 -1      3980 1.12888E-01
 -1      3981 1.02467E-01
 -1      3982 1.10161E-01
 -1      3983 1.03410E-01
 -1      3984 1.33939E-01
 -1      3985 1.35824E-01
 -1      3986 1.10253E-01
 -1      3987 1.16657E-01
 -1      3988 2.34617E+00
 -1      3989 3.13964E+00
 -1      3990 6.59098E-02
 -1      3991 7.40963E-02
 -1      3992 8.09540E-02
 -1      3993 2.88447E-02
 -1      3994 3.21554E-02
 -1      3995 3.67884E-02
 -1      3996 1.22219E-01
 -1      3997 8.87633E-02
 -1      3998 9.59273E-02
 -1      3999 9.12794E-02
 -1      4000 1.18106E-01
 -1      4001 1.11142E-01
 -1      4002 9.98166E-02
 -1      4003 1.68129E-01
 -1      4004 1.25311E-01
 -1      4005 1.38977E-01
 -1      4006 1.81224E-01
 -1      4007 1.87834E-02
 -1      4008 4.72927E-02
 -1      4009 4.49269E-02
 -1      4010 4.11698E-02
 -1      4011 1.81224E-01
 -1      4012 2.37049E+00
 -1      4013 3.47224E+00
 -1      4014 2.71796E+00
 -1      4015 2.15597E+00
 -1      4016 1.49776E-01
 -1      4017 9.75171E-02
 -1      4018 9.10684E-02
 -1      4019 9.26317E-02
 -1      4020 9.33256E-02
 -1      4021 9.57366E-02
 -1      4022 9.30180E-02
 -1      4023 8.65217E-02
 -1      4024 9.14432E-02
 -1      4025 8.67601E-02
 -1      4026 8.73579E-02
 -1      4027 8.19775E-02
 -1      4028 7.63705E-02
 -1      4029 8.10005E-02
 -1      4030 6.83308E-02
 -1      4031 6.25120E-02
 -1      4032 6.81782E-02
 -1      4033 7.13688E-02
 -1      4034 6.60070E-02
 -1      4035 6.89954E-02
 -1      4036 5.15823E-02
 -1      4037 4.70065E-02
 -1      4038 6.34275E-02
 -1      4039 4.26513E-02
 -1      4040 3.84439E-02
 -1      4041 4.46476E-02
 -1      4042 3.40715E-02
 -1      4043 3.03655E-02
 -1      4044 3.59200E-02
 -1      4045 3.25018E-02
 -1      4046 2.94117E-02
 -1      4047 3.36838E-02
 -1      4048 2.29021E-02
 -1      4049 2.13211E-02
 -1      4050 2.93105E-02
 -1      4051 1.98413E-02
 -1      4052 1.93308E-02
 -1      4053 2.13211E-02
 -1      4054 1.90938E-02
 -1      4055 1.93675E-02
 -1      4056 1.96044E-02
 -1      4057 2.05447E-02
 -1      4058 2.17220E-02
 -1      4059 2.05447E-02
 -1      4060 2.50948E-02
 -1      4061 2.75659E-02
 -1      4062 2.50948E-02
 -1      4063 3.27700E-02
 -1      4064 3.63647E-02
 -1      4065 3.36717E-02
 -1      4066 4.38888E-02
 -1      4067 5.03770E-02
 -1      4068 4.63999E-02
 -1      4069 6.10511E-02
 -1      4070 6.93938E-02
 -1      4071 6.45981E-02
 -1      4072 8.43837E-02
 -1      4073 9.49018E-02
 -1      4074 9.02621E-02
 -1      4075 1.15774E-01
 -1      4076 1.28654E-01
 -1      4077 1.26124E-01
 -1      4078 1.57374E-01
 -1      4079 1.72453E-01
 -1      4080 1.75717E-01
 -1      4081 2.21276E-01
 -1      4082 2.46128E-01
 -1      4083 2.53259E-01
 -1      4084 3.30352E-01
 -1      4085 3.61919E-01
 -1      4086 3.86305E-01
 -1      4087 4.75481E-01
 -1      4088 5.32945E-01
 -1      4089 5.84092E-01
 -1      4090 6.83723E-01
 -1      4091 7.62418E-01
 -1      4092 8.48432E-01
 -1      4093 9.45928E-01
 -1      4094 1.04245E+00
 -1      4095 1.18272E+00
 -1      4096 1.18501E+00
 -1      4097 1.35670E+00
 -1      4098 1.50880E+00
 -1      4099 1.23626E+00
 -1      4100 1.77108E+00
 -1      4101 1.79539E+00
 -1      4102 1.53093E+00
 -1      4103 2.69167E+00
 -1      4104 2.57566E+00
 -1      4105 2.47566E+00
 -1      4106 9.33762E-02
 -1      4107 9.89671E-02
 -1      4108 6.22576E-02
 -1      4109 7.30341E-02
 -1      4110 3.45021E-02
 -1      4111 2.94294E-02
 -1      4112 2.60678E-02
 -1      4113 2.33248E-02
 -1      4114 2.96640E-02
 -1      4115 2.01770E-02
 -1      4116 1.90913E-02
 -1      4117 2.31545E-02
 -1      4118 4.66710E-02
 -1      4119 4.00918E-02
 -1      4120 3.86152E-02
 -1      4121 6.34462E-02
 -1      4122 5.43332E-02
 -1      4123 5.18670E-02
 -1      4124 8.87512E-02
 -1      4125 7.46967E-02
 -1      4126 7.07797E-02
 -1      4127 1.31079E-01
 -1      4128 1.11398E-01
 -1      4129 1.04677E-01
 -1      4130 1.93123E-01
 -1      4131 1.65897E-01
 -1      4132 1.62141E-01
 -1      4133 2.82580E-01
 -1      4134 2.45684E-01
 -1      4135 2.49521E-01
 -1      4136 4.25432E-01
 -1      4137 3.66803E-01
 -1      4138 3.86305E-01
 -1      4139 6.07577E-01
 -1      4140 5.38994E-01
 -1      4141 5.84092E-01
 -1      4142 8.97153E-01
 -1      4143 7.58355E-01
 -1      4144 8.48432E-01
 -1      4145 1.32600E+00
 -1      4146 1.08066E+00
 -1      4147 1.18272E+00
 -1      4148 2.05628E+00
 -1      4149 1.26793E-01
 -1      4150 1.26793E-01
 -1      4151 8.09540E-02
 -1      4152 8.81490E-02
 -1      4153 8.41250E-02
 -1      4154 2.76579E-02
 -1      4155 3.03637E-02
 -1      4156 1.81855E-02
 -1      4157 1.81331E-02
 -1      4158 1.91009E-02
 -1      4159 7.90013E-02
 -1      4160 8.48703E-02
 -1      4161 6.26207E-02
 -1      4162 9.89671E-02
 -1      4163 1.02853E-01
 -1      4164 8.89328E-02
 -1      4165 1.97062E-02
 -1      4166 2.04186E-02
 -1      4167 1.97683E-02
 -1      4168 1.15994E-01
 -1      4169 1.42571E-01
 -1      4170 9.98166E-02
 -1      4171 9.42126E-02
 -1      4172 9.18013E-02
 -1      4173 8.73579E-02
 -1      4174 8.52612E-02
 -1      4175 9.61799E-02
 -1      4176 8.98926E-02
 -1      4177 8.34438E-02
 -1      4178 6.30805E-02
 -1      4179 8.06815E-02
 -1      4180 2.88864E-02
 -1      4181 3.28239E-02
 -1      4182 3.43428E-02
 -1      4183 8.81845E-02
 -1      4184 1.02105E-01
 -1      4185 1.01988E-01
 -1      4186 7.63492E-02
 -1      4187 1.31772E-01
 -1      4188 8.35107E-02
 -1      4189 1.81811E+00
 -1      4190 1.46856E+00
 -1      4191 1.50880E+00
 -1      4192 3.71635E-02
 -1      4193 2.85807E-02
 -1      4194 1.79539E+00
 -1      4195 2.33307E+00
 -1      4196 1.76909E+00
 -1      4197 1.41049E+00
 -1      4198 1.22219E-01
 -1      4199 1.38977E-01
 -1      4200 4.52738E-02
 -1      4201 4.86558E-02
 -1      4202 6.34275E-02
 -1      4203 1.88953E+00
 -1      4204 9.56419E-02
 -1      4205 8.89328E-02
 -1      4206 8.73579E-02
 -1      4207 8.57831E-02
 -1      4208 8.10005E-02
 -1      4209 7.18247E-02
 -1      4210 8.06815E-02
 -1      4211 7.78522E-02
 -1      4212 6.34275E-02
 -1      4213 4.90028E-02
 -1      4214 4.46476E-02
 -1      4215 3.36838E-02
 -1      4216 3.58201E-02
 -1      4217 3.58201E-02
 -1      4218 2.93105E-02
 -1      4219 2.20711E-02
 -1      4220 2.05913E-02
 -1      4221 1.90182E-02
 -1      4222 1.87813E-02
 -1      4223 1.96871E-02
 -1      4224 2.08643E-02
 -1      4225 2.40122E-02
 -1      4226 2.73850E-02
 -1      4227 3.07466E-02
 -1      4228 3.59507E-02
 -1      4229 4.15403E-02
 -1      4230 4.90645E-02
 -1      4231 5.67266E-02
 -1      4232 6.74007E-02
 -1      4233 7.86511E-02
 -1      4234 9.36411E-02
 -1      4235 1.16288E-01
 -1      4236 1.37160E-01
 -1      4237 1.71978E-01
 -1      4238 2.00698E-01
 -1      4239 2.53259E-01
 -1      4240 3.02082E-01
 -1      4241 3.86305E-01
 -1      4242 4.70529E-01
 -1      4243 5.84092E-01
 -1      4244 6.97654E-01
 -1      4245 8.48432E-01
 -1      4246 9.99210E-01
 -1      4247 1.18272E+00
 -1      4248 1.36623E+00
 -1      4249 1.50880E+00
 -1      4250 1.65136E+00
 -1      4251 1.88953E+00
 -1      4252 7.38610E-02
 -1      4253 7.84344E-02
 -1      4254 9.42126E-02
 -1      4255 6.62364E-02
 -1      4256 3.65373E-02
 -1      4257 4.09186E-02
 -1      4258 4.46476E-02
 -1      4259 3.65790E-02
 -1      4260 7.98643E-02
 -1      4261 8.04786E-02
 -1      4262 8.10005E-02
 -1      4263 8.89328E-02
 -1      4264 8.06815E-02
 -1      4265 8.65217E-02
 -1      4266 8.35107E-02
 -1      4267 8.35107E-02
 -1      4268 7.80120E-02
 -1      4269 8.57734E-02
 -1      4270 5.66535E-02
 -1      4271 3.58201E-02
 -1      4272 7.62179E-02
 -1      4273 6.81782E-02
 -1      4274 4.02924E-02
 -1      4275 3.59200E-02
 -1      4276 8.16277E-02
 -1      4277 6.26207E-02
 -1      4278 7.22035E-02
 -1      4279 7.98643E-02
 -1      4280 1.53093E+00
 -1      4281 3.80562E-02
 -1      4282 3.43428E-02
 -3
 9999
