    1C
    1UUSER                                                              
    1UDATE              27.october.2022                                 
    1UTIME              00:11:41                                        
    1UHOST                                                              
    1UPGM               CalculiX                                        
    1UVERSION           Version 2.17                             
    1UCOMPILETIME       Thu Jul 23 21:43:50 CEST 2020                    
    1UDIR                                                               
    1UDBN                                                               
    1UMAT    1SOLIDMATERIAL                                             
    2C                          4341                                     1
 -1         1 8.25784E+01 2.63636E+01 0.00000E+00
 -1         2 8.58162E+01 2.04606E+01 0.00000E+00
 -1         3 1.50000E+02 0.00000E+00 0.00000E+00
 -1         4 1.50000E+02 5.00000E+01 0.00000E+00
 -1         5 0.00000E+00 0.00000E+00 0.00000E+00
 -1         6 0.00000E+00 5.00000E+01 0.00000E+00
 -1         7 0.00000E+00 4.70500E+01 0.00000E+00
 -1         8 0.00000E+00 4.41000E+01 0.00000E+00
 -1         9 0.00000E+00 4.11500E+01 0.00000E+00
 -1        10 0.00000E+00 3.82000E+01 0.00000E+00
 -1        11 0.00000E+00 3.52500E+01 0.00000E+00
 -1        12 0.00000E+00 3.23500E+01 0.00000E+00
 -1        13 0.00000E+00 2.94000E+01 0.00000E+00
 -1        14 0.00000E+00 2.64500E+01 0.00000E+00
 -1        15 0.00000E+00 2.35000E+01 0.00000E+00
 -1        16 0.00000E+00 2.05500E+01 0.00000E+00
 -1        17 0.00000E+00 1.76000E+01 0.00000E+00
 -1        18 0.00000E+00 1.47000E+01 0.00000E+00
 -1        19 0.00000E+00 1.17500E+01 0.00000E+00
 -1        20 0.00000E+00 8.80000E+00 0.00000E+00
 -1        21 0.00000E+00 5.85000E+00 0.00000E+00
 -1        22 0.00000E+00 2.90000E+00 0.00000E+00
 -1        23 3.15000E+00 5.00000E+01 0.00000E+00
 -1        24 6.15000E+00 5.00000E+01 0.00000E+00
 -1        25 9.15000E+00 5.00000E+01 0.00000E+00
 -1        26 1.21500E+01 5.00000E+01 0.00000E+00
 -1        27 1.51500E+01 5.00000E+01 0.00000E+00
 -1        28 1.81500E+01 5.00000E+01 0.00000E+00
 -1        29 2.11500E+01 5.00000E+01 0.00000E+00
 -1        30 2.41500E+01 5.00000E+01 0.00000E+00
 -1        31 2.71500E+01 5.00000E+01 0.00000E+00
 -1        32 3.01500E+01 5.00000E+01 0.00000E+00
 -1        33 3.31500E+01 5.00000E+01 0.00000E+00
 -1        34 3.61500E+01 5.00000E+01 0.00000E+00
 -1        35 3.91500E+01 5.00000E+01 0.00000E+00
 -1        36 4.21500E+01 5.00000E+01 0.00000E+00
 -1        37 4.51500E+01 5.00000E+01 0.00000E+00
 -1        38 4.81500E+01 5.00000E+01 0.00000E+00
 -1        39 5.11500E+01 5.00000E+01 0.00000E+00
 -1        40 5.41500E+01 5.00000E+01 0.00000E+00
 -1        41 5.71500E+01 5.00000E+01 0.00000E+00
 -1        42 6.01500E+01 5.00000E+01 0.00000E+00
 -1        43 6.31500E+01 5.00000E+01 0.00000E+00
 -1        44 6.61500E+01 5.00000E+01 0.00000E+00
 -1        45 6.91500E+01 5.00000E+01 0.00000E+00
 -1        46 7.21500E+01 5.00000E+01 0.00000E+00
 -1        47 7.51500E+01 5.00000E+01 0.00000E+00
 -1        48 7.81500E+01 5.00000E+01 0.00000E+00
 -1        49 8.11500E+01 5.00000E+01 0.00000E+00
 -1        50 8.41500E+01 5.00000E+01 0.00000E+00
 -1        51 8.71500E+01 5.00000E+01 0.00000E+00
 -1        52 9.01500E+01 5.00000E+01 0.00000E+00
 -1        53 9.31500E+01 5.00000E+01 0.00000E+00
 -1        54 9.61500E+01 5.00000E+01 0.00000E+00
 -1        55 9.91500E+01 5.00000E+01 0.00000E+00
 -1        56 1.02150E+02 5.00000E+01 0.00000E+00
 -1        57 1.05150E+02 5.00000E+01 0.00000E+00
 -1        58 1.08150E+02 5.00000E+01 0.00000E+00
 -1        59 1.11150E+02 5.00000E+01 0.00000E+00
 -1        60 1.14150E+02 5.00000E+01 0.00000E+00
 -1        61 1.17150E+02 5.00000E+01 0.00000E+00
 -1        62 1.20150E+02 5.00000E+01 0.00000E+00
 -1        63 1.23150E+02 5.00000E+01 0.00000E+00
 -1        64 1.26150E+02 5.00000E+01 0.00000E+00
 -1        65 1.29150E+02 5.00000E+01 0.00000E+00
 -1        66 1.32150E+02 5.00000E+01 0.00000E+00
 -1        67 1.35150E+02 5.00000E+01 0.00000E+00
 -1        68 1.38150E+02 5.00000E+01 0.00000E+00
 -1        69 1.41150E+02 5.00000E+01 0.00000E+00
 -1        70 1.44150E+02 5.00000E+01 0.00000E+00
 -1        71 1.47150E+02 5.00000E+01 0.00000E+00
 -1        72 3.15000E+00 0.00000E+00 0.00000E+00
 -1        73 6.15000E+00 0.00000E+00 0.00000E+00
 -1        74 9.15000E+00 0.00000E+00 0.00000E+00
 -1        75 1.21500E+01 0.00000E+00 0.00000E+00
 -1        76 1.51500E+01 0.00000E+00 0.00000E+00
 -1        77 1.81500E+01 0.00000E+00 0.00000E+00
 -1        78 2.11500E+01 0.00000E+00 0.00000E+00
 -1        79 2.41500E+01 0.00000E+00 0.00000E+00
 -1        80 2.71500E+01 0.00000E+00 0.00000E+00
 -1        81 3.01500E+01 0.00000E+00 0.00000E+00
 -1        82 3.31500E+01 0.00000E+00 0.00000E+00
 -1        83 3.61500E+01 0.00000E+00 0.00000E+00
 -1        84 3.91500E+01 0.00000E+00 0.00000E+00
 -1        85 4.21500E+01 0.00000E+00 0.00000E+00
 -1        86 4.51500E+01 0.00000E+00 0.00000E+00
 -1        87 4.81500E+01 0.00000E+00 0.00000E+00
 -1        88 5.11500E+01 0.00000E+00 0.00000E+00
 -1        89 5.41500E+01 0.00000E+00 0.00000E+00
 -1        90 5.71500E+01 0.00000E+00 0.00000E+00
 -1        91 6.01500E+01 0.00000E+00 0.00000E+00
 -1        92 6.31500E+01 0.00000E+00 0.00000E+00
 -1        93 6.61500E+01 0.00000E+00 0.00000E+00
 -1        94 6.91500E+01 0.00000E+00 0.00000E+00
 -1        95 7.21500E+01 0.00000E+00 0.00000E+00
 -1        96 7.51500E+01 0.00000E+00 0.00000E+00
 -1        97 7.81500E+01 0.00000E+00 0.00000E+00
 -1        98 8.11500E+01 0.00000E+00 0.00000E+00
 -1        99 8.41500E+01 0.00000E+00 0.00000E+00
 -1       100 8.71500E+01 0.00000E+00 0.00000E+00
 -1       101 9.01500E+01 0.00000E+00 0.00000E+00
 -1       102 9.31500E+01 0.00000E+00 0.00000E+00
 -1       103 9.61500E+01 0.00000E+00 0.00000E+00
 -1       104 9.91500E+01 0.00000E+00 0.00000E+00
 -1       105 1.02150E+02 0.00000E+00 0.00000E+00
 -1       106 1.05150E+02 0.00000E+00 0.00000E+00
 -1       107 1.08150E+02 0.00000E+00 0.00000E+00
 -1       108 1.11150E+02 0.00000E+00 0.00000E+00
 -1       109 1.14150E+02 0.00000E+00 0.00000E+00
 -1       110 1.17150E+02 0.00000E+00 0.00000E+00
 -1       111 1.20150E+02 0.00000E+00 0.00000E+00
 -1       112 1.23150E+02 0.00000E+00 0.00000E+00
 -1       113 1.26150E+02 0.00000E+00 0.00000E+00
 -1       114 1.29150E+02 0.00000E+00 0.00000E+00
 -1       115 1.32150E+02 0.00000E+00 0.00000E+00
 -1       116 1.35150E+02 0.00000E+00 0.00000E+00
 -1       117 1.38150E+02 0.00000E+00 0.00000E+00
 -1       118 1.41150E+02 0.00000E+00 0.00000E+00
 -1       119 1.44150E+02 0.00000E+00 0.00000E+00
 -1       120 1.47150E+02 0.00000E+00 0.00000E+00
 -1       121 1.50000E+02 2.95000E+00 0.00000E+00
 -1       122 1.50000E+02 5.90000E+00 0.00000E+00
 -1       123 1.50000E+02 8.85000E+00 0.00000E+00
 -1       124 1.50000E+02 1.18000E+01 0.00000E+00
 -1       125 1.50000E+02 1.47500E+01 0.00000E+00
 -1       126 1.50000E+02 1.76500E+01 0.00000E+00
 -1       127 1.50000E+02 2.06000E+01 0.00000E+00
 -1       128 1.50000E+02 2.35500E+01 0.00000E+00
 -1       129 1.50000E+02 2.65000E+01 0.00000E+00
 -1       130 1.50000E+02 2.94500E+01 0.00000E+00
 -1       131 1.50000E+02 3.24000E+01 0.00000E+00
 -1       132 1.50000E+02 3.53000E+01 0.00000E+00
 -1       133 1.50000E+02 3.82500E+01 0.00000E+00
 -1       134 1.50000E+02 4.12000E+01 0.00000E+00
 -1       135 1.50000E+02 4.41500E+01 0.00000E+00
 -1       136 1.50000E+02 4.71000E+01 0.00000E+00
 -1       137 8.56327E+01 1.88681E+01 0.00000E+00
 -1       138 8.51307E+01 1.74395E+01 0.00000E+00
 -1       139 8.43737E+01 1.62046E+01 0.00000E+00
 -1       140 8.32502E+01 1.50440E+01 0.00000E+00
 -1       141 8.19848E+01 1.42188E+01 0.00000E+00
 -1       142 8.05040E+01 1.36671E+01 0.00000E+00
 -1       143 7.89025E+01 1.34611E+01 0.00000E+00
 -1       144 7.74190E+01 1.36015E+01 0.00000E+00
 -1       145 7.59370E+01 1.40802E+01 0.00000E+00
 -1       146 7.45562E+01 1.49062E+01 0.00000E+00
 -1       147 7.34758E+01 1.59351E+01 0.00000E+00
 -1       148 7.26498E+01 1.71476E+01 0.00000E+00
 -1       149 7.20613E+01 1.86247E+01 0.00000E+00
 -1       150 7.18261E+01 2.00880E+01 0.00000E+00
 -1       151 7.18982E+01 2.15287E+01 0.00000E+00
 -1       152 7.23073E+01 2.30362E+01 0.00000E+00
 -1       153 7.29821E+01 2.43288E+01 0.00000E+00
 -1       154 7.39720E+01 2.55137E+01 0.00000E+00
 -1       155 7.52341E+01 2.64746E+01 0.00000E+00
 -1       156 7.66034E+01 2.71017E+01 0.00000E+00
 -1       157 7.83396E+01 2.74444E+01 0.00000E+00
 -1       158 7.98339E+01 2.73862E+01 0.00000E+00
 -1       159 8.12426E+01 2.70266E+01 0.00000E+00
 -1       160 8.36594E+01 2.55147E+01 0.00000E+00
 -1       161 8.45503E+01 2.44756E+01 0.00000E+00
 -1       162 8.52374E+01 2.32479E+01 0.00000E+00
 -1       163 8.56608E+01 2.19277E+01 0.00000E+00
 -1       164 2.59800E+00 4.55750E+01 0.00000E+00
 -1       165 2.59800E+00 4.26250E+01 0.00000E+00
 -1       166 2.59800E+00 3.96750E+01 0.00000E+00
 -1       167 2.59800E+00 3.67250E+01 0.00000E+00
 -1       168 2.59800E+00 3.38250E+01 0.00000E+00
 -1       169 2.59800E+00 3.08750E+01 0.00000E+00
 -1       170 2.59800E+00 2.79250E+01 0.00000E+00
 -1       171 2.59800E+00 2.49750E+01 0.00000E+00
 -1       172 2.59800E+00 2.20250E+01 0.00000E+00
 -1       173 2.59800E+00 1.90750E+01 0.00000E+00
 -1       174 2.59800E+00 1.61750E+01 0.00000E+00
 -1       175 2.59800E+00 1.32250E+01 0.00000E+00
 -1       176 2.59800E+00 1.02750E+01 0.00000E+00
 -1       177 2.59800E+00 7.32500E+00 0.00000E+00
 -1       178 2.59800E+00 4.37500E+00 0.00000E+00
 -1       179 2.87400E+00 2.18750E+00 0.00000E+00
 -1       180 4.65000E+00 4.74020E+01 0.00000E+00
 -1       181 7.65000E+00 4.74020E+01 0.00000E+00
 -1       182 1.06500E+01 4.74020E+01 0.00000E+00
 -1       183 1.36500E+01 4.74020E+01 0.00000E+00
 -1       184 1.66500E+01 4.74020E+01 0.00000E+00
 -1       185 1.96500E+01 4.74020E+01 0.00000E+00
 -1       186 2.26500E+01 4.74020E+01 0.00000E+00
 -1       187 2.56500E+01 4.74020E+01 0.00000E+00
 -1       188 2.86500E+01 4.74020E+01 0.00000E+00
 -1       189 3.16500E+01 4.74020E+01 0.00000E+00
 -1       190 3.46500E+01 4.74020E+01 0.00000E+00
 -1       191 3.76500E+01 4.74020E+01 0.00000E+00
 -1       192 4.06500E+01 4.74020E+01 0.00000E+00
 -1       193 4.36500E+01 4.74020E+01 0.00000E+00
 -1       194 4.66500E+01 4.74020E+01 0.00000E+00
 -1       195 4.96500E+01 4.74020E+01 0.00000E+00
 -1       196 5.26500E+01 4.74020E+01 0.00000E+00
 -1       197 5.56500E+01 4.74020E+01 0.00000E+00
 -1       198 5.86500E+01 4.74020E+01 0.00000E+00
 -1       199 6.16500E+01 4.74020E+01 0.00000E+00
 -1       200 6.46500E+01 4.74020E+01 0.00000E+00
 -1       201 6.76500E+01 4.74020E+01 0.00000E+00
 -1       202 7.06500E+01 4.74020E+01 0.00000E+00
 -1       203 7.36500E+01 4.74020E+01 0.00000E+00
 -1       204 7.66500E+01 4.74020E+01 0.00000E+00
 -1       205 7.96500E+01 4.74020E+01 0.00000E+00
 -1       206 8.26500E+01 4.74020E+01 0.00000E+00
 -1       207 8.56500E+01 4.74020E+01 0.00000E+00
 -1       208 8.86500E+01 4.74020E+01 0.00000E+00
 -1       209 9.16500E+01 4.74020E+01 0.00000E+00
 -1       210 9.46500E+01 4.74020E+01 0.00000E+00
 -1       211 9.76500E+01 4.74020E+01 0.00000E+00
 -1       212 1.00650E+02 4.74020E+01 0.00000E+00
 -1       213 1.03650E+02 4.74020E+01 0.00000E+00
 -1       214 1.06650E+02 4.74020E+01 0.00000E+00
 -1       215 1.09650E+02 4.74020E+01 0.00000E+00
 -1       216 1.12650E+02 4.74020E+01 0.00000E+00
 -1       217 1.15650E+02 4.74020E+01 0.00000E+00
 -1       218 1.18650E+02 4.74020E+01 0.00000E+00
 -1       219 1.21650E+02 4.74020E+01 0.00000E+00
 -1       220 1.24650E+02 4.74020E+01 0.00000E+00
 -1       221 1.27650E+02 4.74020E+01 0.00000E+00
 -1       222 1.30650E+02 4.74020E+01 0.00000E+00
 -1       223 1.33650E+02 4.74020E+01 0.00000E+00
 -1       224 1.36650E+02 4.74020E+01 0.00000E+00
 -1       225 1.39650E+02 4.74020E+01 0.00000E+00
 -1       226 1.42650E+02 4.74020E+01 0.00000E+00
 -1       227 1.45650E+02 4.74020E+01 0.00000E+00
 -1       228 5.87400E+00 2.18750E+00 0.00000E+00
 -1       229 8.87400E+00 2.18750E+00 0.00000E+00
 -1       230 1.18740E+01 2.18750E+00 0.00000E+00
 -1       231 1.48740E+01 2.18750E+00 0.00000E+00
 -1       232 1.78740E+01 2.18750E+00 0.00000E+00
 -1       233 2.08740E+01 2.18750E+00 0.00000E+00
 -1       234 2.38740E+01 2.18750E+00 0.00000E+00
 -1       235 2.68740E+01 2.18750E+00 0.00000E+00
 -1       236 2.98740E+01 2.18750E+00 0.00000E+00
 -1       237 3.28740E+01 2.18750E+00 0.00000E+00
 -1       238 3.58740E+01 2.18750E+00 0.00000E+00
 -1       239 3.88740E+01 2.18750E+00 0.00000E+00
 -1       240 4.18740E+01 2.18750E+00 0.00000E+00
 -1       241 4.48740E+01 2.18750E+00 0.00000E+00
 -1       242 4.78740E+01 2.18750E+00 0.00000E+00
 -1       243 5.08740E+01 2.18750E+00 0.00000E+00
 -1       244 5.38740E+01 2.18750E+00 0.00000E+00
 -1       245 5.68740E+01 2.18750E+00 0.00000E+00
 -1       246 5.98740E+01 2.18750E+00 0.00000E+00
 -1       247 6.28740E+01 2.18750E+00 0.00000E+00
 -1       248 6.58740E+01 2.18750E+00 0.00000E+00
 -1       249 6.88740E+01 2.18750E+00 0.00000E+00
 -1       250 7.18740E+01 2.18750E+00 0.00000E+00
 -1       251 7.48740E+01 2.18750E+00 0.00000E+00
 -1       252 7.78740E+01 2.18750E+00 0.00000E+00
 -1       253 8.08740E+01 2.18750E+00 0.00000E+00
 -1       254 8.38740E+01 2.18750E+00 0.00000E+00
 -1       255 8.68740E+01 2.18750E+00 0.00000E+00
 -1       256 8.98740E+01 2.18750E+00 0.00000E+00
 -1       257 9.28740E+01 2.18750E+00 0.00000E+00
 -1       258 9.58740E+01 2.18750E+00 0.00000E+00
 -1       259 9.88740E+01 2.18750E+00 0.00000E+00
 -1       260 1.01874E+02 2.18750E+00 0.00000E+00
 -1       261 1.04874E+02 2.18750E+00 0.00000E+00
 -1       262 1.07874E+02 2.18750E+00 0.00000E+00
 -1       263 1.10874E+02 2.18750E+00 0.00000E+00
 -1       264 1.13874E+02 2.18750E+00 0.00000E+00
 -1       265 1.16874E+02 2.18750E+00 0.00000E+00
 -1       266 1.19874E+02 2.18750E+00 0.00000E+00
 -1       267 1.22874E+02 2.18750E+00 0.00000E+00
 -1       268 1.25874E+02 2.18750E+00 0.00000E+00
 -1       269 1.28874E+02 2.18750E+00 0.00000E+00
 -1       270 1.31874E+02 2.18750E+00 0.00000E+00
 -1       271 1.34874E+02 2.18750E+00 0.00000E+00
 -1       272 1.37874E+02 2.18750E+00 0.00000E+00
 -1       273 1.40874E+02 2.18750E+00 0.00000E+00
 -1       274 1.43874E+02 2.18750E+00 0.00000E+00
 -1       275 1.46874E+02 2.18750E+00 0.00000E+00
 -1       276 1.47402E+02 4.42500E+00 0.00000E+00
 -1       277 1.47402E+02 7.37500E+00 0.00000E+00
 -1       278 1.47402E+02 1.03250E+01 0.00000E+00
 -1       279 1.47402E+02 1.32750E+01 0.00000E+00
 -1       280 1.47402E+02 1.61750E+01 0.00000E+00
 -1       281 1.47402E+02 1.91250E+01 0.00000E+00
 -1       282 1.47402E+02 2.20750E+01 0.00000E+00
 -1       283 1.47402E+02 2.50250E+01 0.00000E+00
 -1       284 1.47402E+02 2.79750E+01 0.00000E+00
 -1       285 1.47402E+02 3.09250E+01 0.00000E+00
 -1       286 1.47402E+02 3.38250E+01 0.00000E+00
 -1       287 1.47402E+02 3.67750E+01 0.00000E+00
 -1       288 1.47402E+02 3.97250E+01 0.00000E+00
 -1       289 1.47402E+02 4.26750E+01 0.00000E+00
 -1       290 1.46526E+02 4.50385E+01 0.00000E+00
 -1       291 8.71786E+01 1.94967E+01 0.00000E+00
 -1       292 8.66046E+01 1.77241E+01 0.00000E+00
 -1       293 8.57859E+01 1.61884E+01 0.00000E+00
 -1       294 8.48035E+01 1.46644E+01 0.00000E+00
 -1       295 8.32797E+01 1.36158E+01 0.00000E+00
 -1       296 8.16677E+01 1.28068E+01 0.00000E+00
 -1       297 7.99007E+01 1.20292E+01 0.00000E+00
 -1       298 7.80308E+01 1.21575E+01 0.00000E+00
 -1       299 7.63053E+01 1.26871E+01 0.00000E+00
 -1       300 7.46242E+01 1.34527E+01 0.00000E+00
 -1       301 7.31220E+01 1.44821E+01 0.00000E+00
 -1       302 7.19916E+01 1.58116E+01 0.00000E+00
 -1       303 7.09958E+01 1.73443E+01 0.00000E+00
 -1       304 7.06639E+01 1.91507E+01 0.00000E+00
 -1       305 7.06513E+01 2.08689E+01 0.00000E+00
 -1       306 7.07709E+01 2.26439E+01 0.00000E+00
 -1       307 7.15699E+01 2.42436E+01 0.00000E+00
 -1       308 7.25466E+01 2.56986E+01 0.00000E+00
 -1       309 7.36656E+01 2.72254E+01 0.00000E+00
 -1       310 7.53791E+01 2.79666E+01 0.00000E+00
 -1       311 7.71881E+01 2.87091E+01 0.00000E+00
 -1       312 7.91339E+01 2.86268E+01 0.00000E+00
 -1       313 8.08382E+01 2.83812E+01 0.00000E+00
 -1       314 8.24868E+01 2.78562E+01 0.00000E+00
 -1       315 8.39195E+01 2.69586E+01 0.00000E+00
 -1       316 8.50888E+01 2.58388E+01 0.00000E+00
 -1       317 8.60250E+01 2.44947E+01 0.00000E+00
 -1       318 8.66035E+01 2.29580E+01 0.00000E+00
 -1       319 8.71108E+01 2.13396E+01 0.00000E+00
 -1       320 5.19600E+00 4.11500E+01 0.00000E+00
 -1       321 5.19600E+00 4.41000E+01 0.00000E+00
 -1       322 5.19600E+00 3.52750E+01 0.00000E+00
 -1       323 5.19600E+00 3.23250E+01 0.00000E+00
 -1       324 5.19600E+00 2.93750E+01 0.00000E+00
 -1       325 5.19600E+00 2.64250E+01 0.00000E+00
 -1       326 5.19600E+00 2.34750E+01 0.00000E+00
 -1       327 5.19600E+00 2.05250E+01 0.00000E+00
 -1       328 5.19600E+00 1.76250E+01 0.00000E+00
 -1       329 5.19600E+00 1.46750E+01 0.00000E+00
 -1       330 5.19600E+00 1.17250E+01 0.00000E+00
 -1       331 5.19600E+00 8.77500E+00 0.00000E+00
 -1       332 5.19600E+00 5.82500E+00 0.00000E+00
 -1       333 5.53500E+00 4.00625E+00 0.00000E+00
 -1       334 8.53500E+00 4.00625E+00 0.00000E+00
 -1       335 9.15000E+00 4.48040E+01 0.00000E+00
 -1       336 1.21500E+01 4.48040E+01 0.00000E+00
 -1       337 1.51500E+01 4.48040E+01 0.00000E+00
 -1       338 1.81500E+01 4.48040E+01 0.00000E+00
 -1       339 2.11500E+01 4.48040E+01 0.00000E+00
 -1       340 2.41500E+01 4.48040E+01 0.00000E+00
 -1       341 2.71500E+01 4.48040E+01 0.00000E+00
 -1       342 3.01500E+01 4.48040E+01 0.00000E+00
 -1       343 3.31500E+01 4.48040E+01 0.00000E+00
 -1       344 3.61500E+01 4.48040E+01 0.00000E+00
 -1       345 3.91500E+01 4.48040E+01 0.00000E+00
 -1       346 4.21500E+01 4.48040E+01 0.00000E+00
 -1       347 4.51500E+01 4.48040E+01 0.00000E+00
 -1       348 4.81500E+01 4.48040E+01 0.00000E+00
 -1       349 5.11500E+01 4.48040E+01 0.00000E+00
 -1       350 5.41500E+01 4.48040E+01 0.00000E+00
 -1       351 5.71500E+01 4.48040E+01 0.00000E+00
 -1       352 6.01500E+01 4.48040E+01 0.00000E+00
 -1       353 6.31500E+01 4.48040E+01 0.00000E+00
 -1       354 6.61500E+01 4.48040E+01 0.00000E+00
 -1       355 6.91500E+01 4.48040E+01 0.00000E+00
 -1       356 7.21500E+01 4.48040E+01 0.00000E+00
 -1       357 7.51500E+01 4.48040E+01 0.00000E+00
 -1       358 7.81500E+01 4.48040E+01 0.00000E+00
 -1       359 8.11500E+01 4.48040E+01 0.00000E+00
 -1       360 8.41500E+01 4.48040E+01 0.00000E+00
 -1       361 8.71500E+01 4.48040E+01 0.00000E+00
 -1       362 9.01500E+01 4.48040E+01 0.00000E+00
 -1       363 9.31500E+01 4.48040E+01 0.00000E+00
 -1       364 9.61500E+01 4.48040E+01 0.00000E+00
 -1       365 9.91500E+01 4.48040E+01 0.00000E+00
 -1       366 1.02150E+02 4.48040E+01 0.00000E+00
 -1       367 1.05150E+02 4.48040E+01 0.00000E+00
 -1       368 1.08150E+02 4.48040E+01 0.00000E+00
 -1       369 1.11150E+02 4.48040E+01 0.00000E+00
 -1       370 1.14150E+02 4.48040E+01 0.00000E+00
 -1       371 1.17150E+02 4.48040E+01 0.00000E+00
 -1       372 1.20150E+02 4.48040E+01 0.00000E+00
 -1       373 1.23150E+02 4.48040E+01 0.00000E+00
 -1       374 1.26150E+02 4.48040E+01 0.00000E+00
 -1       375 1.29150E+02 4.48040E+01 0.00000E+00
 -1       376 1.32150E+02 4.48040E+01 0.00000E+00
 -1       377 1.35150E+02 4.48040E+01 0.00000E+00
 -1       378 1.38150E+02 4.48040E+01 0.00000E+00
 -1       379 1.41150E+02 4.48040E+01 0.00000E+00
 -1       380 1.43838E+02 4.49212E+01 0.00000E+00
 -1       381 1.15350E+01 4.00625E+00 0.00000E+00
 -1       382 1.45350E+01 4.00625E+00 0.00000E+00
 -1       383 1.75350E+01 4.00625E+00 0.00000E+00
 -1       384 2.05350E+01 4.00625E+00 0.00000E+00
 -1       385 2.35350E+01 4.00625E+00 0.00000E+00
 -1       386 2.65350E+01 4.00625E+00 0.00000E+00
 -1       387 2.95350E+01 4.00625E+00 0.00000E+00
 -1       388 3.25350E+01 4.00625E+00 0.00000E+00
 -1       389 3.55350E+01 4.00625E+00 0.00000E+00
 -1       390 3.85350E+01 4.00625E+00 0.00000E+00
 -1       391 4.15350E+01 4.00625E+00 0.00000E+00
 -1       392 4.45350E+01 4.00625E+00 0.00000E+00
 -1       393 4.75350E+01 4.00625E+00 0.00000E+00
 -1       394 5.05350E+01 4.00625E+00 0.00000E+00
 -1       395 5.35350E+01 4.00625E+00 0.00000E+00
 -1       396 5.65350E+01 4.00625E+00 0.00000E+00
 -1       397 5.95350E+01 4.00625E+00 0.00000E+00
 -1       398 6.25350E+01 4.00625E+00 0.00000E+00
 -1       399 6.55350E+01 4.00625E+00 0.00000E+00
 -1       400 6.85350E+01 4.00625E+00 0.00000E+00
 -1       401 7.15350E+01 4.00625E+00 0.00000E+00
 -1       402 7.45350E+01 4.00625E+00 0.00000E+00
 -1       403 7.75350E+01 4.00625E+00 0.00000E+00
 -1       404 8.05350E+01 4.00625E+00 0.00000E+00
 -1       405 8.35350E+01 4.00625E+00 0.00000E+00
 -1       406 8.65350E+01 4.00625E+00 0.00000E+00
 -1       407 8.95350E+01 4.00625E+00 0.00000E+00
 -1       408 9.25350E+01 4.00625E+00 0.00000E+00
 -1       409 9.55350E+01 4.00625E+00 0.00000E+00
 -1       410 9.85350E+01 4.00625E+00 0.00000E+00
 -1       411 1.01535E+02 4.00625E+00 0.00000E+00
 -1       412 1.04535E+02 4.00625E+00 0.00000E+00
 -1       413 1.07535E+02 4.00625E+00 0.00000E+00
 -1       414 1.10535E+02 4.00625E+00 0.00000E+00
 -1       415 1.13535E+02 4.00625E+00 0.00000E+00
 -1       416 1.16535E+02 4.00625E+00 0.00000E+00
 -1       417 1.19535E+02 4.00625E+00 0.00000E+00
 -1       418 1.22535E+02 4.00625E+00 0.00000E+00
 -1       419 1.25535E+02 4.00625E+00 0.00000E+00
 -1       420 1.28535E+02 4.00625E+00 0.00000E+00
 -1       421 1.31535E+02 4.00625E+00 0.00000E+00
 -1       422 1.34535E+02 4.00625E+00 0.00000E+00
 -1       423 1.37535E+02 4.00625E+00 0.00000E+00
 -1       424 1.40535E+02 4.00625E+00 0.00000E+00
 -1       425 1.43535E+02 4.00625E+00 0.00000E+00
 -1       426 1.45469E+02 4.21562E+00 0.00000E+00
 -1       427 1.44804E+02 1.18000E+01 0.00000E+00
 -1       428 1.44804E+02 8.85000E+00 0.00000E+00
 -1       429 1.45136E+02 6.53281E+00 0.00000E+00
 -1       430 1.44804E+02 1.47000E+01 0.00000E+00
 -1       431 1.44804E+02 1.76500E+01 0.00000E+00
 -1       432 1.44804E+02 2.06000E+01 0.00000E+00
 -1       433 1.44804E+02 2.35500E+01 0.00000E+00
 -1       434 1.44804E+02 2.65000E+01 0.00000E+00
 -1       435 1.44804E+02 2.94500E+01 0.00000E+00
 -1       436 1.44804E+02 3.23500E+01 0.00000E+00
 -1       437 1.44804E+02 3.53000E+01 0.00000E+00
 -1       438 1.44804E+02 3.82500E+01 0.00000E+00
 -1       439 1.44804E+02 4.12000E+01 0.00000E+00
 -1       440 8.75608E+01 1.62282E+01 0.00000E+00
 -1       441 8.87749E+01 2.04781E+01 0.00000E+00
 -1       442 8.81247E+01 1.82111E+01 0.00000E+00
 -1       443 8.65784E+01 1.47043E+01 0.00000E+00
 -1       444 8.49189E+01 1.28653E+01 0.00000E+00
 -1       445 5.19600E+00 3.82125E+01 0.00000E+00
 -1       446 8.14750E+01 1.08482E+01 0.00000E+00
 -1       447 7.88771E+01 1.08002E+01 0.00000E+00
 -1       448 7.67385E+01 1.10230E+01 0.00000E+00
 -1       449 7.48234E+01 1.16615E+01 0.00000E+00
 -1       450 7.29510E+01 1.26217E+01 0.00000E+00
 -1       451 7.14416E+01 1.41987E+01 0.00000E+00
 -1       452 7.04458E+01 1.57314E+01 0.00000E+00
 -1       453 6.93078E+01 1.79679E+01 0.00000E+00
 -1       454 6.90263E+01 1.99978E+01 0.00000E+00
 -1       455 6.91460E+01 2.17728E+01 0.00000E+00
 -1       456 6.97860E+01 2.41352E+01 0.00000E+00
 -1       457 7.09821E+01 2.56935E+01 0.00000E+00
 -1       458 7.19930E+01 2.72777E+01 0.00000E+00
 -1       459 7.39745E+01 2.88626E+01 0.00000E+00
 -1       460 7.56642E+01 2.98470E+01 0.00000E+00
 -1       461 7.82299E+01 3.02978E+01 0.00000E+00
 -1       462 8.01829E+01 2.98698E+01 0.00000E+00
 -1       463 8.21574E+01 2.96731E+01 0.00000E+00
 -1       464 8.39803E+01 2.86478E+01 0.00000E+00
 -1       465 8.54586E+01 2.73954E+01 0.00000E+00
 -1       466 8.68268E+01 2.60512E+01 0.00000E+00
 -1       467 8.76057E+01 2.42126E+01 0.00000E+00
 -1       468 8.81129E+01 2.25941E+01 0.00000E+00
 -1       469 8.30927E+01 1.19780E+01 0.00000E+00
 -1       470 7.23019E+01 2.89148E+01 0.00000E+00
 -1       471 6.87578E+01 1.63549E+01 0.00000E+00
 -1       472 8.04514E+01 9.61919E+00 0.00000E+00
 -1       473 1.00350E+01 6.60425E+00 0.00000E+00
 -1       474 7.79400E+00 3.08500E+01 0.00000E+00
 -1       475 7.79400E+00 3.38000E+01 0.00000E+00
 -1       476 7.79400E+00 2.49500E+01 0.00000E+00
 -1       477 7.79400E+00 2.20000E+01 0.00000E+00
 -1       478 7.79400E+00 1.91000E+01 0.00000E+00
 -1       479 7.79400E+00 1.61500E+01 0.00000E+00
 -1       480 7.79400E+00 1.32000E+01 0.00000E+00
 -1       481 7.79400E+00 1.02500E+01 0.00000E+00
 -1       482 1.30350E+01 6.60425E+00 0.00000E+00
 -1       483 1.06500E+01 4.22060E+01 0.00000E+00
 -1       484 8.32659E+01 1.00070E+01 0.00000E+00
 -1       485 1.36500E+01 4.22060E+01 0.00000E+00
 -1       486 1.66500E+01 4.22060E+01 0.00000E+00
 -1       487 1.96500E+01 4.22060E+01 0.00000E+00
 -1       488 2.26500E+01 4.22060E+01 0.00000E+00
 -1       489 2.56500E+01 4.22060E+01 0.00000E+00
 -1       490 2.86500E+01 4.22060E+01 0.00000E+00
 -1       491 3.16500E+01 4.22060E+01 0.00000E+00
 -1       492 3.46500E+01 4.22060E+01 0.00000E+00
 -1       493 3.76500E+01 4.22060E+01 0.00000E+00
 -1       494 4.06500E+01 4.22060E+01 0.00000E+00
 -1       495 4.36500E+01 4.22060E+01 0.00000E+00
 -1       496 4.66500E+01 4.22060E+01 0.00000E+00
 -1       497 4.96500E+01 4.22060E+01 0.00000E+00
 -1       498 5.26500E+01 4.22060E+01 0.00000E+00
 -1       499 5.56500E+01 4.22060E+01 0.00000E+00
 -1       500 5.86500E+01 4.22060E+01 0.00000E+00
 -1       501 6.16500E+01 4.22060E+01 0.00000E+00
 -1       502 6.46500E+01 4.22060E+01 0.00000E+00
 -1       503 6.76500E+01 4.22060E+01 0.00000E+00
 -1       504 7.06500E+01 4.22060E+01 0.00000E+00
 -1       505 7.36500E+01 4.22060E+01 0.00000E+00
 -1       506 7.66500E+01 4.22060E+01 0.00000E+00
 -1       507 7.96500E+01 4.22060E+01 0.00000E+00
 -1       508 8.26500E+01 4.22060E+01 0.00000E+00
 -1       509 8.56500E+01 4.22060E+01 0.00000E+00
 -1       510 8.86500E+01 4.22060E+01 0.00000E+00
 -1       511 9.16500E+01 4.22060E+01 0.00000E+00
 -1       512 9.46500E+01 4.22060E+01 0.00000E+00
 -1       513 9.76500E+01 4.22060E+01 0.00000E+00
 -1       514 1.00650E+02 4.22060E+01 0.00000E+00
 -1       515 1.03650E+02 4.22060E+01 0.00000E+00
 -1       516 1.06650E+02 4.22060E+01 0.00000E+00
 -1       517 1.09650E+02 4.22060E+01 0.00000E+00
 -1       518 1.12650E+02 4.22060E+01 0.00000E+00
 -1       519 1.15650E+02 4.22060E+01 0.00000E+00
 -1       520 1.18650E+02 4.22060E+01 0.00000E+00
 -1       521 1.21650E+02 4.22060E+01 0.00000E+00
 -1       522 1.24650E+02 4.22060E+01 0.00000E+00
 -1       523 1.27650E+02 4.22060E+01 0.00000E+00
 -1       524 1.30650E+02 4.22060E+01 0.00000E+00
 -1       525 1.33650E+02 4.22060E+01 0.00000E+00
 -1       526 1.36650E+02 4.22060E+01 0.00000E+00
 -1       527 1.39650E+02 4.22060E+01 0.00000E+00
 -1       528 1.90350E+01 6.60425E+00 0.00000E+00
 -1       529 2.20350E+01 6.60425E+00 0.00000E+00
 -1       530 2.50350E+01 6.60425E+00 0.00000E+00
 -1       531 2.80350E+01 6.60425E+00 0.00000E+00
 -1       532 3.10350E+01 6.60425E+00 0.00000E+00
 -1       533 3.40350E+01 6.60425E+00 0.00000E+00
 -1       534 3.70350E+01 6.60425E+00 0.00000E+00
 -1       535 4.00350E+01 6.60425E+00 0.00000E+00
 -1       536 4.30350E+01 6.60425E+00 0.00000E+00
 -1       537 4.60350E+01 6.60425E+00 0.00000E+00
 -1       538 4.90350E+01 6.60425E+00 0.00000E+00
 -1       539 5.20350E+01 6.60425E+00 0.00000E+00
 -1       540 5.50350E+01 6.60425E+00 0.00000E+00
 -1       541 5.80350E+01 6.60425E+00 0.00000E+00
 -1       542 6.10350E+01 6.60425E+00 0.00000E+00
 -1       543 6.40350E+01 6.60425E+00 0.00000E+00
 -1       544 6.70350E+01 6.60425E+00 0.00000E+00
 -1       545 7.00350E+01 6.60425E+00 0.00000E+00
 -1       546 7.30350E+01 6.60425E+00 0.00000E+00
 -1       547 7.60350E+01 6.60425E+00 0.00000E+00
 -1       548 7.90350E+01 6.60425E+00 0.00000E+00
 -1       549 8.20350E+01 6.60425E+00 0.00000E+00
 -1       550 8.50350E+01 6.60425E+00 0.00000E+00
 -1       551 8.80350E+01 6.60425E+00 0.00000E+00
 -1       552 9.10350E+01 6.60425E+00 0.00000E+00
 -1       553 9.40350E+01 6.60425E+00 0.00000E+00
 -1       554 9.70350E+01 6.60425E+00 0.00000E+00
 -1       555 1.00035E+02 6.60425E+00 0.00000E+00
 -1       556 1.03035E+02 6.60425E+00 0.00000E+00
 -1       557 1.06035E+02 6.60425E+00 0.00000E+00
 -1       558 1.09035E+02 6.60425E+00 0.00000E+00
 -1       559 1.12035E+02 6.60425E+00 0.00000E+00
 -1       560 1.15035E+02 6.60425E+00 0.00000E+00
 -1       561 1.18035E+02 6.60425E+00 0.00000E+00
 -1       562 1.21035E+02 6.60425E+00 0.00000E+00
 -1       563 1.24035E+02 6.60425E+00 0.00000E+00
 -1       564 1.27035E+02 6.60425E+00 0.00000E+00
 -1       565 1.30035E+02 6.60425E+00 0.00000E+00
 -1       566 1.33035E+02 6.60425E+00 0.00000E+00
 -1       567 1.36035E+02 6.60425E+00 0.00000E+00
 -1       568 1.39035E+02 6.60425E+00 0.00000E+00
 -1       569 1.42035E+02 6.60425E+00 0.00000E+00
 -1       570 1.42206E+02 1.61750E+01 0.00000E+00
 -1       571 1.42206E+02 1.91250E+01 0.00000E+00
 -1       572 1.42206E+02 1.03250E+01 0.00000E+00
 -1       573 1.42206E+02 1.32500E+01 0.00000E+00
 -1       574 1.42206E+02 2.20750E+01 0.00000E+00
 -1       575 1.42206E+02 2.50250E+01 0.00000E+00
 -1       576 1.42206E+02 2.79750E+01 0.00000E+00
 -1       577 1.42206E+02 3.08750E+01 0.00000E+00
 -1       578 1.42206E+02 3.38250E+01 0.00000E+00
 -1       579 1.42206E+02 3.67750E+01 0.00000E+00
 -1       580 1.42206E+02 3.97250E+01 0.00000E+00
 -1       581 8.99374E+01 1.89180E+01 0.00000E+00
 -1       582 8.94925E+01 1.67505E+01 0.00000E+00
 -1       583 8.99209E+01 2.19982E+01 0.00000E+00
 -1       584 1.60350E+01 6.60425E+00 0.00000E+00
 -1       585 8.82999E+01 1.46732E+01 0.00000E+00
 -1       586 8.50922E+01 1.08943E+01 0.00000E+00
 -1       587 8.85641E+01 2.57029E+01 0.00000E+00
 -1       588 7.09572E+01 1.22243E+01 0.00000E+00
 -1       589 7.79400E+00 2.79000E+01 0.00000E+00
 -1       590 7.76562E+01 9.45572E+00 0.00000E+00
 -1       591 6.75512E+01 1.87588E+01 0.00000E+00
 -1       592 7.52650E+01 9.79469E+00 0.00000E+00
 -1       593 7.31046E+01 1.06155E+01 0.00000E+00
 -1       594 6.96460E+01 1.41219E+01 0.00000E+00
 -1       595 6.88906E+01 2.60607E+01 0.00000E+00
 -1       596 6.73749E+01 2.10007E+01 0.00000E+00
 -1       597 6.78105E+01 2.34025E+01 0.00000E+00
 -1       598 6.99015E+01 2.76449E+01 0.00000E+00
 -1       599 7.39981E+01 3.07644E+01 0.00000E+00
 -1       600 7.66503E+01 3.17616E+01 0.00000E+00
 -1       601 7.96094E+01 3.19228E+01 0.00000E+00
 -1       602 8.15840E+01 3.17261E+01 0.00000E+00
 -1       603 8.39097E+01 3.06553E+01 0.00000E+00
 -1       604 8.57739E+01 2.92663E+01 0.00000E+00
 -1       605 8.71422E+01 2.79221E+01 0.00000E+00
 -1       606 8.94136E+01 2.36166E+01 0.00000E+00
 -1       607 7.92300E+00 4.16780E+01 0.00000E+00
 -1       608 7.61550E+00 6.21462E+00 0.00000E+00
 -1       609 8.68976E+01 1.27480E+01 0.00000E+00
 -1       610 7.79400E+00 3.67375E+01 0.00000E+00
 -1       611 8.88794E+01 2.75738E+01 0.00000E+00
 -1       612 9.10834E+01 2.04380E+01 0.00000E+00
 -1       613 7.02104E+01 2.92820E+01 0.00000E+00
 -1       614 6.70013E+01 1.71459E+01 0.00000E+00
 -1       615 8.22423E+01 8.77794E+00 0.00000E+00
 -1       616 7.85850E+00 3.92077E+01 0.00000E+00
 -1       617 1.41678E+02 4.22645E+01 0.00000E+00
 -1       618 1.03920E+01 2.05500E+01 0.00000E+00
 -1       619 1.03920E+01 2.35000E+01 0.00000E+00
 -1       620 1.03920E+01 1.46750E+01 0.00000E+00
 -1       621 1.03920E+01 1.17250E+01 0.00000E+00
 -1       622 1.15350E+01 9.20225E+00 0.00000E+00
 -1       623 6.64511E+01 2.55033E+01 0.00000E+00
 -1       624 1.45350E+01 9.20225E+00 0.00000E+00
 -1       625 9.04221E+01 2.52434E+01 0.00000E+00
 -1       626 1.51500E+01 3.96080E+01 0.00000E+00
 -1       627 1.81500E+01 3.96080E+01 0.00000E+00
 -1       628 2.11500E+01 3.96080E+01 0.00000E+00
 -1       629 2.41500E+01 3.96080E+01 0.00000E+00
 -1       630 2.71500E+01 3.96080E+01 0.00000E+00
 -1       631 3.01500E+01 3.96080E+01 0.00000E+00
 -1       632 3.31500E+01 3.96080E+01 0.00000E+00
 -1       633 3.61500E+01 3.96080E+01 0.00000E+00
 -1       634 3.91500E+01 3.96080E+01 0.00000E+00
 -1       635 4.21500E+01 3.96080E+01 0.00000E+00
 -1       636 4.51500E+01 3.96080E+01 0.00000E+00
 -1       637 4.81500E+01 3.96080E+01 0.00000E+00
 -1       638 5.11500E+01 3.96080E+01 0.00000E+00
 -1       639 5.41500E+01 3.96080E+01 0.00000E+00
 -1       640 5.71500E+01 3.96080E+01 0.00000E+00
 -1       641 6.01500E+01 3.96080E+01 0.00000E+00
 -1       642 6.31500E+01 3.96080E+01 0.00000E+00
 -1       643 6.61500E+01 3.96080E+01 0.00000E+00
 -1       644 6.91500E+01 3.96080E+01 0.00000E+00
 -1       645 7.21500E+01 3.96080E+01 0.00000E+00
 -1       646 7.51500E+01 3.96080E+01 0.00000E+00
 -1       647 7.81500E+01 3.96080E+01 0.00000E+00
 -1       648 8.11500E+01 3.96080E+01 0.00000E+00
 -1       649 8.41500E+01 3.96080E+01 0.00000E+00
 -1       650 8.71500E+01 3.96080E+01 0.00000E+00
 -1       651 9.01500E+01 3.96080E+01 0.00000E+00
 -1       652 9.31500E+01 3.96080E+01 0.00000E+00
 -1       653 9.61500E+01 3.96080E+01 0.00000E+00
 -1       654 9.91500E+01 3.96080E+01 0.00000E+00
 -1       655 1.02150E+02 3.96080E+01 0.00000E+00
 -1       656 1.05150E+02 3.96080E+01 0.00000E+00
 -1       657 1.08150E+02 3.96080E+01 0.00000E+00
 -1       658 1.11150E+02 3.96080E+01 0.00000E+00
 -1       659 1.14150E+02 3.96080E+01 0.00000E+00
 -1       660 1.17150E+02 3.96080E+01 0.00000E+00
 -1       661 1.20150E+02 3.96080E+01 0.00000E+00
 -1       662 1.23150E+02 3.96080E+01 0.00000E+00
 -1       663 1.26150E+02 3.96080E+01 0.00000E+00
 -1       664 1.29150E+02 3.96080E+01 0.00000E+00
 -1       665 1.32150E+02 3.96080E+01 0.00000E+00
 -1       666 1.35150E+02 3.96080E+01 0.00000E+00
 -1       667 1.38150E+02 3.96080E+01 0.00000E+00
 -1       668 2.35350E+01 9.20225E+00 0.00000E+00
 -1       669 7.46616E+01 3.30252E+01 0.00000E+00
 -1       670 9.05290E+01 1.47745E+01 0.00000E+00
 -1       671 2.05350E+01 9.20225E+00 0.00000E+00
 -1       672 2.95350E+01 9.20225E+00 0.00000E+00
 -1       673 3.25350E+01 9.20225E+00 0.00000E+00
 -1       674 3.55350E+01 9.20225E+00 0.00000E+00
 -1       675 3.85350E+01 9.20225E+00 0.00000E+00
 -1       676 4.15350E+01 9.20225E+00 0.00000E+00
 -1       677 4.45350E+01 9.20225E+00 0.00000E+00
 -1       678 4.75350E+01 9.20225E+00 0.00000E+00
 -1       679 5.05350E+01 9.20225E+00 0.00000E+00
 -1       680 5.35350E+01 9.20225E+00 0.00000E+00
 -1       681 5.65350E+01 9.20225E+00 0.00000E+00
 -1       682 5.95350E+01 9.20225E+00 0.00000E+00
 -1       683 6.25350E+01 9.20225E+00 0.00000E+00
 -1       684 6.55350E+01 9.20225E+00 0.00000E+00
 -1       685 6.85350E+01 9.20225E+00 0.00000E+00
 -1       686 8.65350E+01 8.98964E+00 0.00000E+00
 -1       687 8.95350E+01 8.98964E+00 0.00000E+00
 -1       688 9.25350E+01 8.98964E+00 0.00000E+00
 -1       689 9.55350E+01 8.98964E+00 0.00000E+00
 -1       690 9.85350E+01 8.98964E+00 0.00000E+00
 -1       691 1.01535E+02 8.98964E+00 0.00000E+00
 -1       692 1.04535E+02 8.98964E+00 0.00000E+00
 -1       693 1.07535E+02 8.98964E+00 0.00000E+00
 -1       694 1.10535E+02 8.98964E+00 0.00000E+00
 -1       695 1.13535E+02 8.98964E+00 0.00000E+00
 -1       696 1.16535E+02 8.98964E+00 0.00000E+00
 -1       697 1.19535E+02 8.98964E+00 0.00000E+00
 -1       698 1.22535E+02 8.98964E+00 0.00000E+00
 -1       699 1.25535E+02 8.98964E+00 0.00000E+00
 -1       700 1.28535E+02 8.98964E+00 0.00000E+00
 -1       701 1.31535E+02 8.98964E+00 0.00000E+00
 -1       702 1.34535E+02 8.98964E+00 0.00000E+00
 -1       703 1.37535E+02 8.98964E+00 0.00000E+00
 -1       704 1.39870E+02 9.65732E+00 0.00000E+00
 -1       705 1.39608E+02 2.35500E+01 0.00000E+00
 -1       706 1.40178E+02 3.96665E+01 0.00000E+00
 -1       707 1.39608E+02 1.76500E+01 0.00000E+00
 -1       708 1.39608E+02 2.65000E+01 0.00000E+00
 -1       709 1.39608E+02 2.06000E+01 0.00000E+00
 -1       710 7.80365E+01 3.35548E+01 0.00000E+00
 -1       711 1.39608E+02 2.94000E+01 0.00000E+00
 -1       712 1.39608E+02 3.23500E+01 0.00000E+00
 -1       713 1.39608E+02 3.53000E+01 0.00000E+00
 -1       714 1.05855E+01 3.97357E+01 0.00000E+00
 -1       715 8.35342E+01 3.29008E+01 0.00000E+00
 -1       716 7.17625E+01 3.11121E+01 0.00000E+00
 -1       717 1.75350E+01 9.20225E+00 0.00000E+00
 -1       718 6.76083E+01 1.46045E+01 0.00000E+00
 -1       719 9.13129E+01 1.75063E+01 0.00000E+00
 -1       720 2.65350E+01 9.20225E+00 0.00000E+00
 -1       721 1.28678E+01 3.96719E+01 0.00000E+00
 -1       722 8.74636E+01 1.03907E+01 0.00000E+00
 -1       723 1.03920E+01 1.76125E+01 0.00000E+00
 -1       724 1.03920E+01 3.23250E+01 0.00000E+00
 -1       725 6.57532E+01 1.97453E+01 0.00000E+00
 -1       726 6.88906E+01 1.21981E+01 0.00000E+00
 -1       727 8.89850E+01 1.27008E+01 0.00000E+00
 -1       728 6.57403E+01 2.25375E+01 0.00000E+00
 -1       729 6.76677E+01 2.79557E+01 0.00000E+00
 -1       730 8.58665E+01 3.13361E+01 0.00000E+00
 -1       731 8.08000E+01 3.38646E+01 0.00000E+00
 -1       732 8.78949E+01 3.00567E+01 0.00000E+00
 -1       733 9.13039E+01 2.33203E+01 0.00000E+00
 -1       734 1.03920E+01 3.52625E+01 0.00000E+00
 -1       735 1.03920E+01 2.64500E+01 0.00000E+00
 -1       736 9.07374E+01 2.71143E+01 0.00000E+00
 -1       737 9.24664E+01 2.17602E+01 0.00000E+00
 -1       738 1.39608E+02 1.47250E+01 0.00000E+00
 -1       739 7.24259E+01 3.33730E+01 0.00000E+00
 -1       740 1.39739E+02 1.21912E+01 0.00000E+00
 -1       741 9.24589E+01 1.90263E+01 0.00000E+00
 -1       742 6.79766E+01 2.95929E+01 0.00000E+00
 -1       743 1.38879E+02 3.74540E+01 0.00000E+00
 -1       744 6.52033E+01 1.81324E+01 0.00000E+00
 -1       745 1.03920E+01 2.93875E+01 0.00000E+00
 -1       746 7.60478E+01 3.48184E+01 0.00000E+00
 -1       747 6.39389E+01 2.45373E+01 0.00000E+00
 -1       748 1.29900E+01 1.32000E+01 0.00000E+00
 -1       749 9.14015E+01 1.25133E+01 0.00000E+00
 -1       750 1.96500E+01 3.70100E+01 0.00000E+00
 -1       751 2.26500E+01 3.70100E+01 0.00000E+00
 -1       752 2.56500E+01 3.70100E+01 0.00000E+00
 -1       753 2.86500E+01 3.70100E+01 0.00000E+00
 -1       754 3.16500E+01 3.70100E+01 0.00000E+00
 -1       755 3.46500E+01 3.70100E+01 0.00000E+00
 -1       756 3.76500E+01 3.70100E+01 0.00000E+00
 -1       757 4.06500E+01 3.70100E+01 0.00000E+00
 -1       758 4.36500E+01 3.70100E+01 0.00000E+00
 -1       759 4.66500E+01 3.70100E+01 0.00000E+00
 -1       760 4.96500E+01 3.70100E+01 0.00000E+00
 -1       761 5.26500E+01 3.70100E+01 0.00000E+00
 -1       762 5.56500E+01 3.70100E+01 0.00000E+00
 -1       763 5.86500E+01 3.70100E+01 0.00000E+00
 -1       764 6.16500E+01 3.70100E+01 0.00000E+00
 -1       765 6.46500E+01 3.70100E+01 0.00000E+00
 -1       766 6.76500E+01 3.70100E+01 0.00000E+00
 -1       767 7.06500E+01 3.70100E+01 0.00000E+00
 -1       768 7.36500E+01 3.70100E+01 0.00000E+00
 -1       769 7.96500E+01 3.70100E+01 0.00000E+00
 -1       770 8.26500E+01 3.70100E+01 0.00000E+00
 -1       771 8.56500E+01 3.70100E+01 0.00000E+00
 -1       772 8.86500E+01 3.70100E+01 0.00000E+00
 -1       773 9.16500E+01 3.70100E+01 0.00000E+00
 -1       774 9.46500E+01 3.70100E+01 0.00000E+00
 -1       775 9.76500E+01 3.70100E+01 0.00000E+00
 -1       776 1.00650E+02 3.70100E+01 0.00000E+00
 -1       777 1.03650E+02 3.70100E+01 0.00000E+00
 -1       778 1.06650E+02 3.70100E+01 0.00000E+00
 -1       779 1.09650E+02 3.70100E+01 0.00000E+00
 -1       780 1.12650E+02 3.70100E+01 0.00000E+00
 -1       781 1.15650E+02 3.70100E+01 0.00000E+00
 -1       782 1.18650E+02 3.70100E+01 0.00000E+00
 -1       783 1.21650E+02 3.70100E+01 0.00000E+00
 -1       784 1.24650E+02 3.70100E+01 0.00000E+00
 -1       785 1.27650E+02 3.70100E+01 0.00000E+00
 -1       786 1.30650E+02 3.70100E+01 0.00000E+00
 -1       787 1.33650E+02 3.70100E+01 0.00000E+00
 -1       788 1.36264E+02 3.72320E+01 0.00000E+00
 -1       789 3.40350E+01 1.18003E+01 0.00000E+00
 -1       790 3.10350E+01 1.18003E+01 0.00000E+00
 -1       791 4.00350E+01 1.18003E+01 0.00000E+00
 -1       792 4.30350E+01 1.18003E+01 0.00000E+00
 -1       793 4.60350E+01 1.18003E+01 0.00000E+00
 -1       794 4.90350E+01 1.18003E+01 0.00000E+00
 -1       795 5.20350E+01 1.18003E+01 0.00000E+00
 -1       796 5.50350E+01 1.18003E+01 0.00000E+00
 -1       797 5.80350E+01 1.18003E+01 0.00000E+00
 -1       798 6.10350E+01 1.18003E+01 0.00000E+00
 -1       799 6.40350E+01 1.18003E+01 0.00000E+00
 -1       800 9.70350E+01 1.15876E+01 0.00000E+00
 -1       801 1.00035E+02 1.15876E+01 0.00000E+00
 -1       802 1.03035E+02 1.15876E+01 0.00000E+00
 -1       803 1.06035E+02 1.15876E+01 0.00000E+00
 -1       804 1.09035E+02 1.15876E+01 0.00000E+00
 -1       805 1.12035E+02 1.15876E+01 0.00000E+00
 -1       806 1.15035E+02 1.15876E+01 0.00000E+00
 -1       807 1.18035E+02 1.15876E+01 0.00000E+00
 -1       808 1.21035E+02 1.15876E+01 0.00000E+00
 -1       809 1.24035E+02 1.15876E+01 0.00000E+00
 -1       810 1.27035E+02 1.15876E+01 0.00000E+00
 -1       811 1.30035E+02 1.15876E+01 0.00000E+00
 -1       812 1.33035E+02 1.15876E+01 0.00000E+00
 -1       813 1.36035E+02 1.15876E+01 0.00000E+00
 -1       814 1.37887E+02 1.18894E+01 0.00000E+00
 -1       815 8.58426E+01 3.38211E+01 0.00000E+00
 -1       816 1.29900E+01 2.20250E+01 0.00000E+00
 -1       817 1.37010E+02 2.50250E+01 0.00000E+00
 -1       818 1.37010E+02 3.38250E+01 0.00000E+00
 -1       819 1.37010E+02 2.79250E+01 0.00000E+00
 -1       820 6.54736E+01 1.54378E+01 0.00000E+00
 -1       821 1.37625E+01 1.12011E+01 0.00000E+00
 -1       822 9.27306E+01 1.56210E+01 0.00000E+00
 -1       823 8.78709E+01 3.25417E+01 0.00000E+00
 -1       824 1.37010E+02 3.08750E+01 0.00000E+00
 -1       825 9.40350E+01 1.15876E+01 0.00000E+00
 -1       826 8.29044E+01 3.54744E+01 0.00000E+00
 -1       827 3.70350E+01 1.18003E+01 0.00000E+00
 -1       828 2.20350E+01 1.18003E+01 0.00000E+00
 -1       829 1.04888E+01 3.74991E+01 0.00000E+00
 -1       830 6.50726E+01 2.77152E+01 0.00000E+00
 -1       831 6.95287E+01 3.14230E+01 0.00000E+00
 -1       832 6.36965E+01 2.11319E+01 0.00000E+00
 -1       833 1.66500E+01 3.70100E+01 0.00000E+00
 -1       834 9.30313E+01 2.52761E+01 0.00000E+00
 -1       835 9.01373E+01 2.95092E+01 0.00000E+00
 -1       836 1.29900E+01 2.49750E+01 0.00000E+00
 -1       837 1.29900E+01 1.61375E+01 0.00000E+00
 -1       838 9.38766E+01 1.71411E+01 0.00000E+00
 -1       839 1.43678E+01 3.70739E+01 0.00000E+00
 -1       840 7.70989E+01 3.72132E+01 0.00000E+00
 -1       841 1.37010E+02 1.61875E+01 0.00000E+00
 -1       842 1.37010E+02 1.91375E+01 0.00000E+00
 -1       843 2.80350E+01 1.18003E+01 0.00000E+00
 -1       844 1.29900E+01 3.37938E+01 0.00000E+00
 -1       845 1.90350E+01 1.18003E+01 0.00000E+00
 -1       846 1.29900E+01 1.90875E+01 0.00000E+00
 -1       847 1.37010E+02 2.20812E+01 0.00000E+00
 -1       848 6.31466E+01 1.95190E+01 0.00000E+00
 -1       849 9.01133E+01 3.19942E+01 0.00000E+00
 -1       850 1.36637E+02 3.55285E+01 0.00000E+00
 -1       851 1.63988E+01 1.15007E+01 0.00000E+00
 -1       852 2.50350E+01 1.18003E+01 0.00000E+00
 -1       853 7.01922E+01 3.36838E+01 0.00000E+00
 -1       854 1.29900E+01 3.08563E+01 0.00000E+00
 -1       855 6.53815E+01 2.93523E+01 0.00000E+00
 -1       856 9.41938E+01 2.37159E+01 0.00000E+00
 -1       857 9.46805E+01 2.03872E+01 0.00000E+00
 -1       858 2.41500E+01 3.44120E+01 0.00000E+00
 -1       859 2.71500E+01 3.44120E+01 0.00000E+00
 -1       860 3.01500E+01 3.44120E+01 0.00000E+00
 -1       861 3.31500E+01 3.44120E+01 0.00000E+00
 -1       862 3.61500E+01 3.44120E+01 0.00000E+00
 -1       863 3.91500E+01 3.44120E+01 0.00000E+00
 -1       864 4.21500E+01 3.44120E+01 0.00000E+00
 -1       865 4.51500E+01 3.44120E+01 0.00000E+00
 -1       866 4.81500E+01 3.44120E+01 0.00000E+00
 -1       867 5.11500E+01 3.44120E+01 0.00000E+00
 -1       868 5.41500E+01 3.44120E+01 0.00000E+00
 -1       869 5.71500E+01 3.44120E+01 0.00000E+00
 -1       870 6.01500E+01 3.44120E+01 0.00000E+00
 -1       871 6.31500E+01 3.44120E+01 0.00000E+00
 -1       872 6.61500E+01 3.44120E+01 0.00000E+00
 -1       873 9.01500E+01 3.44120E+01 0.00000E+00
 -1       874 9.31500E+01 3.44120E+01 0.00000E+00
 -1       875 9.61500E+01 3.44120E+01 0.00000E+00
 -1       876 9.91500E+01 3.44120E+01 0.00000E+00
 -1       877 1.02150E+02 3.44120E+01 0.00000E+00
 -1       878 1.05150E+02 3.44120E+01 0.00000E+00
 -1       879 1.08150E+02 3.44120E+01 0.00000E+00
 -1       880 1.11150E+02 3.44120E+01 0.00000E+00
 -1       881 1.14150E+02 3.44120E+01 0.00000E+00
 -1       882 1.17150E+02 3.44120E+01 0.00000E+00
 -1       883 1.20150E+02 3.44120E+01 0.00000E+00
 -1       884 1.23150E+02 3.44120E+01 0.00000E+00
 -1       885 1.26150E+02 3.44120E+01 0.00000E+00
 -1       886 1.29150E+02 3.44120E+01 0.00000E+00
 -1       887 1.32150E+02 3.44120E+01 0.00000E+00
 -1       888 3.25350E+01 1.43982E+01 0.00000E+00
 -1       889 4.45350E+01 1.43982E+01 0.00000E+00
 -1       890 4.15350E+01 1.43982E+01 0.00000E+00
 -1       891 5.05350E+01 1.43982E+01 0.00000E+00
 -1       892 5.35350E+01 1.43982E+01 0.00000E+00
 -1       893 5.65350E+01 1.43982E+01 0.00000E+00
 -1       894 5.95350E+01 1.43982E+01 0.00000E+00
 -1       895 6.25350E+01 1.43982E+01 0.00000E+00
 -1       896 1.04535E+02 1.41856E+01 0.00000E+00
 -1       897 1.01535E+02 1.41856E+01 0.00000E+00
 -1       898 9.85350E+01 1.41856E+01 0.00000E+00
 -1       899 1.07535E+02 1.41856E+01 0.00000E+00
 -1       900 1.10535E+02 1.41856E+01 0.00000E+00
 -1       901 1.13535E+02 1.41856E+01 0.00000E+00
 -1       902 1.16535E+02 1.41856E+01 0.00000E+00
 -1       903 1.19535E+02 1.41856E+01 0.00000E+00
 -1       904 1.22535E+02 1.41856E+01 0.00000E+00
 -1       905 1.25535E+02 1.41856E+01 0.00000E+00
 -1       906 1.28535E+02 1.41856E+01 0.00000E+00
 -1       907 1.31535E+02 1.41856E+01 0.00000E+00
 -1       908 1.34535E+02 1.41856E+01 0.00000E+00
 -1       909 6.34169E+01 1.68244E+01 0.00000E+00
 -1       910 1.37449E+02 1.40385E+01 0.00000E+00
 -1       911 1.34412E+02 2.64750E+01 0.00000E+00
 -1       912 9.55350E+01 1.41856E+01 0.00000E+00
 -1       913 1.56263E+01 1.34996E+01 0.00000E+00
 -1       914 4.75350E+01 1.43982E+01 0.00000E+00
 -1       915 6.22591E+01 2.69277E+01 0.00000E+00
 -1       916 1.29900E+01 2.79188E+01 0.00000E+00
 -1       917 9.27512E+01 2.88916E+01 0.00000E+00
 -1       918 2.11500E+01 3.44120E+01 0.00000E+00
 -1       919 6.69334E+01 3.20508E+01 0.00000E+00
 -1       920 6.12263E+01 2.30191E+01 0.00000E+00
 -1       921 1.81500E+01 3.44120E+01 0.00000E+00
 -1       922 2.35350E+01 1.43982E+01 0.00000E+00
 -1       923 1.34412E+02 2.35313E+01 0.00000E+00
 -1       924 8.71500E+01 3.44120E+01 0.00000E+00
 -1       925 2.95350E+01 1.43982E+01 0.00000E+00
 -1       926 3.55350E+01 1.43982E+01 0.00000E+00
 -1       927 1.34394E+02 3.49702E+01 0.00000E+00
 -1       928 9.49354E+01 2.72422E+01 0.00000E+00
 -1       929 3.85350E+01 1.43982E+01 0.00000E+00
 -1       930 1.55880E+01 2.35000E+01 0.00000E+00
 -1       931 6.25680E+01 2.85649E+01 0.00000E+00
 -1       932 1.34412E+02 1.76625E+01 0.00000E+00
 -1       933 1.34412E+02 2.94250E+01 0.00000E+00
 -1       934 1.58678E+01 3.44759E+01 0.00000E+00
 -1       935 1.55880E+01 2.05625E+01 0.00000E+00
 -1       936 6.06764E+01 2.14061E+01 0.00000E+00
 -1       937 9.27273E+01 3.13766E+01 0.00000E+00
 -1       938 9.60979E+01 2.56821E+01 0.00000E+00
 -1       939 2.05350E+01 1.43982E+01 0.00000E+00
 -1       940 1.55880E+01 3.23250E+01 0.00000E+00
 -1       941 2.65350E+01 1.43982E+01 0.00000E+00
 -1       942 1.34580E+02 3.26435E+01 0.00000E+00
 -1       943 6.04169E+01 1.68244E+01 0.00000E+00
 -1       944 9.67974E+01 2.23966E+01 0.00000E+00
 -1       945 9.51798E+01 2.98368E+01 0.00000E+00
 -1       946 2.86500E+01 3.18140E+01 0.00000E+00
 -1       947 3.16500E+01 3.18140E+01 0.00000E+00
 -1       948 3.46500E+01 3.18140E+01 0.00000E+00
 -1       949 3.76500E+01 3.18140E+01 0.00000E+00
 -1       950 4.06500E+01 3.18140E+01 0.00000E+00
 -1       951 4.36500E+01 3.18140E+01 0.00000E+00
 -1       952 4.66500E+01 3.18140E+01 0.00000E+00
 -1       953 4.96500E+01 3.18140E+01 0.00000E+00
 -1       954 5.26500E+01 3.18140E+01 0.00000E+00
 -1       955 5.56500E+01 3.18140E+01 0.00000E+00
 -1       956 5.86500E+01 3.18140E+01 0.00000E+00
 -1       957 6.16500E+01 3.18140E+01 0.00000E+00
 -1       958 9.46500E+01 3.18140E+01 0.00000E+00
 -1       959 9.76500E+01 3.18140E+01 0.00000E+00
 -1       960 1.00650E+02 3.18140E+01 0.00000E+00
 -1       961 1.03650E+02 3.18140E+01 0.00000E+00
 -1       962 1.06650E+02 3.18140E+01 0.00000E+00
 -1       963 1.09650E+02 3.18140E+01 0.00000E+00
 -1       964 1.12650E+02 3.18140E+01 0.00000E+00
 -1       965 1.15650E+02 3.18140E+01 0.00000E+00
 -1       966 1.18650E+02 3.18140E+01 0.00000E+00
 -1       967 1.21650E+02 3.18140E+01 0.00000E+00
 -1       968 1.24650E+02 3.18140E+01 0.00000E+00
 -1       969 1.27650E+02 3.18140E+01 0.00000E+00
 -1       970 1.30650E+02 3.18140E+01 0.00000E+00
 -1       971 5.50350E+01 1.69963E+01 0.00000E+00
 -1       972 5.20350E+01 1.69963E+01 0.00000E+00
 -1       973 1.55880E+01 2.64438E+01 0.00000E+00
 -1       974 1.03035E+02 1.67836E+01 0.00000E+00
 -1       975 9.62686E+01 1.82713E+01 0.00000E+00
 -1       976 1.09035E+02 1.67836E+01 0.00000E+00
 -1       977 1.06035E+02 1.67836E+01 0.00000E+00
 -1       978 1.00035E+02 1.67836E+01 0.00000E+00
 -1       979 1.12035E+02 1.67836E+01 0.00000E+00
 -1       980 1.15035E+02 1.67836E+01 0.00000E+00
 -1       981 1.18035E+02 1.67836E+01 0.00000E+00
 -1       982 1.21035E+02 1.67836E+01 0.00000E+00
 -1       983 1.24035E+02 1.67836E+01 0.00000E+00
 -1       984 1.27035E+02 1.67836E+01 0.00000E+00
 -1       985 1.30035E+02 1.67836E+01 0.00000E+00
 -1       986 2.50350E+01 1.69963E+01 0.00000E+00
 -1       987 1.78703E+01 3.22611E+01 0.00000E+00
 -1       988 1.80806E+01 1.39489E+01 0.00000E+00
 -1       989 1.55880E+01 2.93875E+01 0.00000E+00
 -1       990 1.34412E+02 2.05969E+01 0.00000E+00
 -1       991 1.61458E+01 1.66550E+01 0.00000E+00
 -1       992 2.26500E+01 3.18140E+01 0.00000E+00
 -1       993 6.41199E+01 3.12634E+01 0.00000E+00
 -1       994 5.92309E+01 2.56371E+01 0.00000E+00
 -1       995 5.77259E+01 1.69103E+01 0.00000E+00
 -1       996 4.30350E+01 1.69963E+01 0.00000E+00
 -1       997 2.02601E+01 3.20376E+01 0.00000E+00
 -1       998 2.56500E+01 3.18140E+01 0.00000E+00
 -1       999 1.31814E+02 2.50031E+01 0.00000E+00
 -1      1000 9.83856E+01 2.02807E+01 0.00000E+00
 -1      1001 5.81623E+01 2.27532E+01 0.00000E+00
 -1      1002 3.10350E+01 1.69963E+01 0.00000E+00
 -1      1003 4.60350E+01 1.69963E+01 0.00000E+00
 -1      1004 4.00350E+01 1.69963E+01 0.00000E+00
 -1      1005 3.40350E+01 1.69963E+01 0.00000E+00
 -1      1006 1.81860E+01 2.49719E+01 0.00000E+00
 -1      1007 2.20350E+01 1.69963E+01 0.00000E+00
 -1      1008 4.90350E+01 1.69963E+01 0.00000E+00
 -1      1009 9.72950E+01 2.77873E+01 0.00000E+00
 -1      1010 1.30035E+02 1.97180E+01 0.00000E+00
 -1      1011 5.97263E+01 2.86724E+01 0.00000E+00
 -1      1012 1.31814E+02 2.79531E+01 0.00000E+00
 -1      1013 2.80350E+01 1.69963E+01 0.00000E+00
 -1      1014 1.81860E+01 2.20344E+01 0.00000E+00
 -1      1015 1.13535E+02 1.93816E+01 0.00000E+00
 -1      1016 5.79441E+01 1.98318E+01 0.00000E+00
 -1      1017 3.31500E+01 2.92160E+01 0.00000E+00
 -1      1018 3.61500E+01 2.92160E+01 0.00000E+00
 -1      1019 3.91500E+01 2.92160E+01 0.00000E+00
 -1      1020 4.21500E+01 2.92160E+01 0.00000E+00
 -1      1021 4.51500E+01 2.92160E+01 0.00000E+00
 -1      1022 4.81500E+01 2.92160E+01 0.00000E+00
 -1      1023 5.11500E+01 2.92160E+01 0.00000E+00
 -1      1024 5.41500E+01 2.92160E+01 0.00000E+00
 -1      1025 1.07535E+02 1.93816E+01 0.00000E+00
 -1      1026 1.81860E+01 2.79156E+01 0.00000E+00
 -1      1027 9.91500E+01 2.92160E+01 0.00000E+00
 -1      1028 1.02150E+02 2.92160E+01 0.00000E+00
 -1      1029 1.05150E+02 2.92160E+01 0.00000E+00
 -1      1030 1.08150E+02 2.92160E+01 0.00000E+00
 -1      1031 1.11150E+02 2.92160E+01 0.00000E+00
 -1      1032 1.14150E+02 2.92160E+01 0.00000E+00
 -1      1033 1.17150E+02 2.92160E+01 0.00000E+00
 -1      1034 1.20150E+02 2.92160E+01 0.00000E+00
 -1      1035 1.23150E+02 2.92160E+01 0.00000E+00
 -1      1036 1.26150E+02 2.92160E+01 0.00000E+00
 -1      1037 1.29150E+02 2.92160E+01 0.00000E+00
 -1      1038 5.05350E+01 1.95942E+01 0.00000E+00
 -1      1039 9.89887E+01 2.45804E+01 0.00000E+00
 -1      1040 1.10535E+02 1.93816E+01 0.00000E+00
 -1      1041 1.01535E+02 1.93816E+01 0.00000E+00
 -1      1042 1.16535E+02 1.93816E+01 0.00000E+00
 -1      1043 1.19535E+02 1.93816E+01 0.00000E+00
 -1      1044 1.22535E+02 1.93816E+01 0.00000E+00
 -1      1045 1.25535E+02 1.93816E+01 0.00000E+00
 -1      1046 1.27785E+02 1.95498E+01 0.00000E+00
 -1      1047 3.70350E+01 1.69963E+01 0.00000E+00
 -1      1048 1.90904E+01 1.68256E+01 0.00000E+00
 -1      1049 1.04535E+02 1.93816E+01 0.00000E+00
 -1      1050 3.01500E+01 2.92160E+01 0.00000E+00
 -1      1051 1.30924E+02 2.23606E+01 0.00000E+00
 -1      1052 2.41500E+01 2.92160E+01 0.00000E+00
 -1      1053 1.86382E+01 1.94300E+01 0.00000E+00
 -1      1054 2.71500E+01 2.92160E+01 0.00000E+00
 -1      1055 5.69145E+01 2.75733E+01 0.00000E+00
 -1      1056 5.58460E+01 2.46894E+01 0.00000E+00
 -1      1057 5.35350E+01 1.95942E+01 0.00000E+00
 -1      1058 1.00577E+02 2.24645E+01 0.00000E+00
 -1      1059 5.57396E+01 1.97130E+01 0.00000E+00
 -1      1060 2.07840E+01 2.35031E+01 0.00000E+00
 -1      1061 4.45350E+01 1.95942E+01 0.00000E+00
 -1      1062 4.15350E+01 1.95942E+01 0.00000E+00
 -1      1063 3.25350E+01 1.95942E+01 0.00000E+00
 -1      1064 1.00569E+02 2.68982E+01 0.00000E+00
 -1      1065 2.35350E+01 1.95942E+01 0.00000E+00
 -1      1066 2.07840E+01 2.64469E+01 0.00000E+00
 -1      1067 2.17601E+01 2.94396E+01 0.00000E+00
 -1      1068 2.95350E+01 1.95942E+01 0.00000E+00
 -1      1069 5.57928E+01 2.22012E+01 0.00000E+00
 -1      1070 1.29150E+02 2.62660E+01 0.00000E+00
 -1      1071 4.75350E+01 1.95942E+01 0.00000E+00
 -1      1072 1.28260E+02 2.36234E+01 0.00000E+00
 -1      1073 2.65350E+01 1.95942E+01 0.00000E+00
 -1      1074 1.18035E+02 2.19796E+01 0.00000E+00
 -1      1075 3.46500E+01 2.66180E+01 0.00000E+00
 -1      1076 3.76500E+01 2.66180E+01 0.00000E+00
 -1      1077 4.06500E+01 2.66180E+01 0.00000E+00
 -1      1078 4.36500E+01 2.66180E+01 0.00000E+00
 -1      1079 4.66500E+01 2.66180E+01 0.00000E+00
 -1      1080 4.96500E+01 2.66180E+01 0.00000E+00
 -1      1081 5.26500E+01 2.66180E+01 0.00000E+00
 -1      1082 5.20350E+01 2.21922E+01 0.00000E+00
 -1      1083 2.56500E+01 2.66180E+01 0.00000E+00
 -1      1084 3.55350E+01 1.95942E+01 0.00000E+00
 -1      1085 1.03569E+02 2.68982E+01 0.00000E+00
 -1      1086 1.06569E+02 2.68982E+01 0.00000E+00
 -1      1087 1.09569E+02 2.68982E+01 0.00000E+00
 -1      1088 1.12569E+02 2.68982E+01 0.00000E+00
 -1      1089 1.15569E+02 2.68982E+01 0.00000E+00
 -1      1090 1.18569E+02 2.68982E+01 0.00000E+00
 -1      1091 1.21569E+02 2.68982E+01 0.00000E+00
 -1      1092 1.24569E+02 2.68982E+01 0.00000E+00
 -1      1093 2.10866E+01 1.95121E+01 0.00000E+00
 -1      1094 1.21035E+02 2.19796E+01 0.00000E+00
 -1      1095 1.15035E+02 2.19796E+01 0.00000E+00
 -1      1096 1.24035E+02 2.19796E+01 0.00000E+00
 -1      1097 3.16500E+01 2.66180E+01 0.00000E+00
 -1      1098 2.86500E+01 2.66180E+01 0.00000E+00
 -1      1099 1.03035E+02 2.19796E+01 0.00000E+00
 -1      1100 4.90350E+01 2.21922E+01 0.00000E+00
 -1      1101 2.50350E+01 2.21922E+01 0.00000E+00
 -1      1102 1.28023E+02 2.15866E+01 0.00000E+00
 -1      1103 4.60350E+01 2.21922E+01 0.00000E+00
 -1      1104 1.06035E+02 2.19796E+01 0.00000E+00
 -1      1105 1.12035E+02 2.19796E+01 0.00000E+00
 -1      1106 2.25866E+01 2.21101E+01 0.00000E+00
 -1      1107 4.30350E+01 2.21922E+01 0.00000E+00
 -1      1108 3.40350E+01 2.21922E+01 0.00000E+00
 -1      1109 3.85350E+01 1.95942E+01 0.00000E+00
 -1      1110 1.02073E+02 2.46814E+01 0.00000E+00
 -1      1111 1.09035E+02 2.19796E+01 0.00000E+00
 -1      1112 1.26029E+02 2.17831E+01 0.00000E+00
 -1      1113 3.10350E+01 2.21922E+01 0.00000E+00
 -1      1114 2.80350E+01 2.21922E+01 0.00000E+00
 -1      1115 2.32170E+01 2.65324E+01 0.00000E+00
 -1      1116 2.29095E+01 2.43196E+01 0.00000E+00
 -1      1117 3.91500E+01 2.40200E+01 0.00000E+00
 -1      1118 1.05073E+02 2.46814E+01 0.00000E+00
 -1      1119 1.08073E+02 2.46814E+01 0.00000E+00
 -1      1120 1.11073E+02 2.46814E+01 0.00000E+00
 -1      1121 1.14073E+02 2.46814E+01 0.00000E+00
 -1      1122 1.17073E+02 2.46814E+01 0.00000E+00
 -1      1123 1.20073E+02 2.46814E+01 0.00000E+00
 -1      1124 1.23073E+02 2.46814E+01 0.00000E+00
 -1      1125 3.65925E+01 2.31061E+01 0.00000E+00
 -1      1126 1.24691E+02 2.33174E+01 0.00000E+00
 -1      1127 0.00000E+00 4.85250E+01 0.00000E+00
 -1      1128 0.00000E+00 4.55750E+01 0.00000E+00
 -1      1129 0.00000E+00 4.26250E+01 0.00000E+00
 -1      1130 0.00000E+00 3.96750E+01 0.00000E+00
 -1      1131 0.00000E+00 3.67250E+01 0.00000E+00
 -1      1132 0.00000E+00 3.38000E+01 0.00000E+00
 -1      1133 0.00000E+00 3.08750E+01 0.00000E+00
 -1      1134 0.00000E+00 2.79250E+01 0.00000E+00
 -1      1135 0.00000E+00 2.49750E+01 0.00000E+00
 -1      1136 0.00000E+00 2.20250E+01 0.00000E+00
 -1      1137 0.00000E+00 1.90750E+01 0.00000E+00
 -1      1138 0.00000E+00 1.61500E+01 0.00000E+00
 -1      1139 0.00000E+00 1.32250E+01 0.00000E+00
 -1      1140 0.00000E+00 1.02750E+01 0.00000E+00
 -1      1141 0.00000E+00 7.32500E+00 0.00000E+00
 -1      1142 0.00000E+00 4.37500E+00 0.00000E+00
 -1      1143 0.00000E+00 1.45000E+00 0.00000E+00
 -1      1144 1.57500E+00 5.00000E+01 0.00000E+00
 -1      1145 4.65000E+00 5.00000E+01 0.00000E+00
 -1      1146 7.65000E+00 5.00000E+01 0.00000E+00
 -1      1147 1.06500E+01 5.00000E+01 0.00000E+00
 -1      1148 1.36500E+01 5.00000E+01 0.00000E+00
 -1      1149 1.66500E+01 5.00000E+01 0.00000E+00
 -1      1150 1.96500E+01 5.00000E+01 0.00000E+00
 -1      1151 2.26500E+01 5.00000E+01 0.00000E+00
 -1      1152 2.56500E+01 5.00000E+01 0.00000E+00
 -1      1153 2.86500E+01 5.00000E+01 0.00000E+00
 -1      1154 3.16500E+01 5.00000E+01 0.00000E+00
 -1      1155 3.46500E+01 5.00000E+01 0.00000E+00
 -1      1156 3.76500E+01 5.00000E+01 0.00000E+00
 -1      1157 4.06500E+01 5.00000E+01 0.00000E+00
 -1      1158 4.36500E+01 5.00000E+01 0.00000E+00
 -1      1159 4.66500E+01 5.00000E+01 0.00000E+00
 -1      1160 4.96500E+01 5.00000E+01 0.00000E+00
 -1      1161 5.26500E+01 5.00000E+01 0.00000E+00
 -1      1162 5.56500E+01 5.00000E+01 0.00000E+00
 -1      1163 5.86500E+01 5.00000E+01 0.00000E+00
 -1      1164 6.16500E+01 5.00000E+01 0.00000E+00
 -1      1165 6.46500E+01 5.00000E+01 0.00000E+00
 -1      1166 6.76500E+01 5.00000E+01 0.00000E+00
 -1      1167 7.06500E+01 5.00000E+01 0.00000E+00
 -1      1168 7.36500E+01 5.00000E+01 0.00000E+00
 -1      1169 7.66500E+01 5.00000E+01 0.00000E+00
 -1      1170 7.96500E+01 5.00000E+01 0.00000E+00
 -1      1171 8.26500E+01 5.00000E+01 0.00000E+00
 -1      1172 8.56500E+01 5.00000E+01 0.00000E+00
 -1      1173 8.86500E+01 5.00000E+01 0.00000E+00
 -1      1174 9.16500E+01 5.00000E+01 0.00000E+00
 -1      1175 9.46500E+01 5.00000E+01 0.00000E+00
 -1      1176 9.76500E+01 5.00000E+01 0.00000E+00
 -1      1177 1.00650E+02 5.00000E+01 0.00000E+00
 -1      1178 1.03650E+02 5.00000E+01 0.00000E+00
 -1      1179 1.06650E+02 5.00000E+01 0.00000E+00
 -1      1180 1.09650E+02 5.00000E+01 0.00000E+00
 -1      1181 1.12650E+02 5.00000E+01 0.00000E+00
 -1      1182 1.15650E+02 5.00000E+01 0.00000E+00
 -1      1183 1.18650E+02 5.00000E+01 0.00000E+00
 -1      1184 1.21650E+02 5.00000E+01 0.00000E+00
 -1      1185 1.24650E+02 5.00000E+01 0.00000E+00
 -1      1186 1.27650E+02 5.00000E+01 0.00000E+00
 -1      1187 1.30650E+02 5.00000E+01 0.00000E+00
 -1      1188 1.33650E+02 5.00000E+01 0.00000E+00
 -1      1189 1.36650E+02 5.00000E+01 0.00000E+00
 -1      1190 1.39650E+02 5.00000E+01 0.00000E+00
 -1      1191 1.42650E+02 5.00000E+01 0.00000E+00
 -1      1192 1.45650E+02 5.00000E+01 0.00000E+00
 -1      1193 1.48575E+02 5.00000E+01 0.00000E+00
 -1      1194 1.57500E+00 0.00000E+00 0.00000E+00
 -1      1195 4.65000E+00 0.00000E+00 0.00000E+00
 -1      1196 7.65000E+00 0.00000E+00 0.00000E+00
 -1      1197 1.06500E+01 0.00000E+00 0.00000E+00
 -1      1198 1.36500E+01 0.00000E+00 0.00000E+00
 -1      1199 1.66500E+01 0.00000E+00 0.00000E+00
 -1      1200 1.96500E+01 0.00000E+00 0.00000E+00
 -1      1201 2.26500E+01 0.00000E+00 0.00000E+00
 -1      1202 2.56500E+01 0.00000E+00 0.00000E+00
 -1      1203 2.86500E+01 0.00000E+00 0.00000E+00
 -1      1204 3.16500E+01 0.00000E+00 0.00000E+00
 -1      1205 3.46500E+01 0.00000E+00 0.00000E+00
 -1      1206 3.76500E+01 0.00000E+00 0.00000E+00
 -1      1207 4.06500E+01 0.00000E+00 0.00000E+00
 -1      1208 4.36500E+01 0.00000E+00 0.00000E+00
 -1      1209 4.66500E+01 0.00000E+00 0.00000E+00
 -1      1210 4.96500E+01 0.00000E+00 0.00000E+00
 -1      1211 5.26500E+01 0.00000E+00 0.00000E+00
 -1      1212 5.56500E+01 0.00000E+00 0.00000E+00
 -1      1213 5.86500E+01 0.00000E+00 0.00000E+00
 -1      1214 6.16500E+01 0.00000E+00 0.00000E+00
 -1      1215 6.46500E+01 0.00000E+00 0.00000E+00
 -1      1216 6.76500E+01 0.00000E+00 0.00000E+00
 -1      1217 7.06500E+01 0.00000E+00 0.00000E+00
 -1      1218 7.36500E+01 0.00000E+00 0.00000E+00
 -1      1219 7.66500E+01 0.00000E+00 0.00000E+00
 -1      1220 7.96500E+01 0.00000E+00 0.00000E+00
 -1      1221 8.26500E+01 0.00000E+00 0.00000E+00
 -1      1222 8.56500E+01 0.00000E+00 0.00000E+00
 -1      1223 8.86500E+01 0.00000E+00 0.00000E+00
 -1      1224 9.16500E+01 0.00000E+00 0.00000E+00
 -1      1225 9.46500E+01 0.00000E+00 0.00000E+00
 -1      1226 9.76500E+01 0.00000E+00 0.00000E+00
 -1      1227 1.00650E+02 0.00000E+00 0.00000E+00
 -1      1228 1.03650E+02 0.00000E+00 0.00000E+00
 -1      1229 1.06650E+02 0.00000E+00 0.00000E+00
 -1      1230 1.09650E+02 0.00000E+00 0.00000E+00
 -1      1231 1.12650E+02 0.00000E+00 0.00000E+00
 -1      1232 1.15650E+02 0.00000E+00 0.00000E+00
 -1      1233 1.18650E+02 0.00000E+00 0.00000E+00
 -1      1234 1.21650E+02 0.00000E+00 0.00000E+00
 -1      1235 1.24650E+02 0.00000E+00 0.00000E+00
 -1      1236 1.27650E+02 0.00000E+00 0.00000E+00
 -1      1237 1.30650E+02 0.00000E+00 0.00000E+00
 -1      1238 1.33650E+02 0.00000E+00 0.00000E+00
 -1      1239 1.36650E+02 0.00000E+00 0.00000E+00
 -1      1240 1.39650E+02 0.00000E+00 0.00000E+00
 -1      1241 1.42650E+02 0.00000E+00 0.00000E+00
 -1      1242 1.45650E+02 0.00000E+00 0.00000E+00
 -1      1243 1.48575E+02 0.00000E+00 0.00000E+00
 -1      1244 1.50000E+02 1.47500E+00 0.00000E+00
 -1      1245 1.50000E+02 4.42500E+00 0.00000E+00
 -1      1246 1.50000E+02 7.37500E+00 0.00000E+00
 -1      1247 1.50000E+02 1.03250E+01 0.00000E+00
 -1      1248 1.50000E+02 1.32750E+01 0.00000E+00
 -1      1249 1.50000E+02 1.62000E+01 0.00000E+00
 -1      1250 1.50000E+02 1.91250E+01 0.00000E+00
 -1      1251 1.50000E+02 2.20750E+01 0.00000E+00
 -1      1252 1.50000E+02 2.50250E+01 0.00000E+00
 -1      1253 1.50000E+02 2.79750E+01 0.00000E+00
 -1      1254 1.50000E+02 3.09250E+01 0.00000E+00
 -1      1255 1.50000E+02 3.38500E+01 0.00000E+00
 -1      1256 1.50000E+02 3.67750E+01 0.00000E+00
 -1      1257 1.50000E+02 3.97250E+01 0.00000E+00
 -1      1258 1.50000E+02 4.26750E+01 0.00000E+00
 -1      1259 1.50000E+02 4.56250E+01 0.00000E+00
 -1      1260 1.50000E+02 4.85500E+01 0.00000E+00
 -1      1261 8.57702E+01 1.96591E+01 0.00000E+00
 -1      1262 8.54204E+01 1.81402E+01 0.00000E+00
 -1      1263 8.47842E+01 1.68024E+01 0.00000E+00
 -1      1264 8.38456E+01 1.55918E+01 0.00000E+00
 -1      1265 8.26398E+01 1.45972E+01 0.00000E+00
 -1      1266 8.12600E+01 1.39010E+01 0.00000E+00
 -1      1267 7.97093E+01 1.35178E+01 0.00000E+00
 -1      1268 7.81570E+01 1.34917E+01 0.00000E+00
 -1      1269 7.66646E+01 1.37995E+01 0.00000E+00
 -1      1270 7.52227E+01 1.44534E+01 0.00000E+00
 -1      1271 7.39885E+01 1.53918E+01 0.00000E+00
 -1      1272 7.30310E+01 1.65197E+01 0.00000E+00
 -1      1273 7.23135E+01 1.78694E+01 0.00000E+00
 -1      1274 7.19049E+01 1.93501E+01 0.00000E+00
 -1      1275 7.18250E+01 2.08102E+01 0.00000E+00
 -1      1276 7.20606E+01 2.22939E+01 0.00000E+00
 -1      1277 7.26109E+01 2.37001E+01 0.00000E+00
 -1      1278 7.34443E+01 2.49486E+01 0.00000E+00
 -1      1279 7.45757E+01 2.60300E+01 0.00000E+00
 -1      1280 7.59018E+01 2.68251E+01 0.00000E+00
 -1      1281 7.74607E+01 2.73281E+01 0.00000E+00
 -1      1282 7.90883E+01 2.74553E+01 0.00000E+00
 -1      1283 8.05476E+01 2.72431E+01 0.00000E+00
 -1      1284 8.19282E+01 2.67308E+01 0.00000E+00
 -1      1285 8.31398E+01 2.59658E+01 0.00000E+00
 -1      1286 8.41303E+01 2.50170E+01 0.00000E+00
 -1      1287 8.49248E+01 2.38790E+01 0.00000E+00
 -1      1288 8.54818E+01 2.25983E+01 0.00000E+00
 -1      1289 8.57772E+01 2.11982E+01 0.00000E+00
 -1      1290 1.57500E+00 4.85250E+01 0.00000E+00
 -1      1291 1.29900E+00 4.48375E+01 0.00000E+00
 -1      1292 1.29900E+00 4.63125E+01 0.00000E+00
 -1      1293 1.29900E+00 4.18875E+01 0.00000E+00
 -1      1294 1.29900E+00 4.33625E+01 0.00000E+00
 -1      1295 2.59800E+00 4.41000E+01 0.00000E+00
 -1      1296 1.29900E+00 3.89375E+01 0.00000E+00
 -1      1297 1.29900E+00 4.04125E+01 0.00000E+00
 -1      1298 2.59800E+00 4.11500E+01 0.00000E+00
 -1      1299 1.29900E+00 3.59875E+01 0.00000E+00
 -1      1300 1.29900E+00 3.74625E+01 0.00000E+00
 -1      1301 2.59800E+00 3.82000E+01 0.00000E+00
 -1      1302 1.29900E+00 3.30875E+01 0.00000E+00
 -1      1303 1.29900E+00 3.45375E+01 0.00000E+00
 -1      1304 2.59800E+00 3.52750E+01 0.00000E+00
 -1      1305 1.29900E+00 3.01375E+01 0.00000E+00
 -1      1306 1.29900E+00 3.16125E+01 0.00000E+00
 -1      1307 2.59800E+00 3.23500E+01 0.00000E+00
 -1      1308 1.29900E+00 2.71875E+01 0.00000E+00
 -1      1309 1.29900E+00 2.86625E+01 0.00000E+00
 -1      1310 2.59800E+00 2.94000E+01 0.00000E+00
 -1      1311 1.29900E+00 2.42375E+01 0.00000E+00
 -1      1312 1.29900E+00 2.57125E+01 0.00000E+00
 -1      1313 2.59800E+00 2.64500E+01 0.00000E+00
 -1      1314 1.29900E+00 2.12875E+01 0.00000E+00
 -1      1315 1.29900E+00 2.27625E+01 0.00000E+00
 -1      1316 2.59800E+00 2.35000E+01 0.00000E+00
 -1      1317 1.29900E+00 1.83375E+01 0.00000E+00
 -1      1318 1.29900E+00 1.98125E+01 0.00000E+00
 -1      1319 2.59800E+00 2.05500E+01 0.00000E+00
 -1      1320 1.29900E+00 1.54375E+01 0.00000E+00
 -1      1321 1.29900E+00 1.68875E+01 0.00000E+00
 -1      1322 2.59800E+00 1.76250E+01 0.00000E+00
 -1      1323 1.29900E+00 1.24875E+01 0.00000E+00
 -1      1324 1.29900E+00 1.39625E+01 0.00000E+00
 -1      1325 2.59800E+00 1.47000E+01 0.00000E+00
 -1      1326 1.29900E+00 9.53750E+00 0.00000E+00
 -1      1327 1.29900E+00 1.10125E+01 0.00000E+00
 -1      1328 2.59800E+00 1.17500E+01 0.00000E+00
 -1      1329 1.29900E+00 6.58750E+00 0.00000E+00
 -1      1330 1.29900E+00 8.06250E+00 0.00000E+00
 -1      1331 2.59800E+00 8.80000E+00 0.00000E+00
 -1      1332 1.29900E+00 3.63750E+00 0.00000E+00
 -1      1333 1.29900E+00 5.11250E+00 0.00000E+00
 -1      1334 2.59800E+00 5.85000E+00 0.00000E+00
 -1      1335 1.43700E+00 1.09375E+00 0.00000E+00
 -1      1336 1.43700E+00 2.54375E+00 0.00000E+00
 -1      1337 2.73600E+00 3.28125E+00 0.00000E+00
 -1      1338 3.01200E+00 1.09375E+00 0.00000E+00
 -1      1339 3.90000E+00 4.87010E+01 0.00000E+00
 -1      1340 5.40000E+00 4.87010E+01 0.00000E+00
 -1      1341 6.90000E+00 4.87010E+01 0.00000E+00
 -1      1342 8.40000E+00 4.87010E+01 0.00000E+00
 -1      1343 6.15000E+00 4.74020E+01 0.00000E+00
 -1      1344 9.90000E+00 4.87010E+01 0.00000E+00
 -1      1345 1.14000E+01 4.87010E+01 0.00000E+00
 -1      1346 9.15000E+00 4.74020E+01 0.00000E+00
 -1      1347 1.29000E+01 4.87010E+01 0.00000E+00
 -1      1348 1.44000E+01 4.87010E+01 0.00000E+00
 -1      1349 1.21500E+01 4.74020E+01 0.00000E+00
 -1      1350 1.59000E+01 4.87010E+01 0.00000E+00
 -1      1351 1.74000E+01 4.87010E+01 0.00000E+00
 -1      1352 1.51500E+01 4.74020E+01 0.00000E+00
 -1      1353 1.89000E+01 4.87010E+01 0.00000E+00
 -1      1354 2.04000E+01 4.87010E+01 0.00000E+00
 -1      1355 1.81500E+01 4.74020E+01 0.00000E+00
 -1      1356 2.19000E+01 4.87010E+01 0.00000E+00
 -1      1357 2.34000E+01 4.87010E+01 0.00000E+00
 -1      1358 2.11500E+01 4.74020E+01 0.00000E+00
 -1      1359 2.49000E+01 4.87010E+01 0.00000E+00
 -1      1360 2.64000E+01 4.87010E+01 0.00000E+00
 -1      1361 2.41500E+01 4.74020E+01 0.00000E+00
 -1      1362 2.79000E+01 4.87010E+01 0.00000E+00
 -1      1363 2.94000E+01 4.87010E+01 0.00000E+00
 -1      1364 2.71500E+01 4.74020E+01 0.00000E+00
 -1      1365 3.09000E+01 4.87010E+01 0.00000E+00
 -1      1366 3.24000E+01 4.87010E+01 0.00000E+00
 -1      1367 3.01500E+01 4.74020E+01 0.00000E+00
 -1      1368 3.39000E+01 4.87010E+01 0.00000E+00
 -1      1369 3.54000E+01 4.87010E+01 0.00000E+00
 -1      1370 3.31500E+01 4.74020E+01 0.00000E+00
 -1      1371 3.69000E+01 4.87010E+01 0.00000E+00
 -1      1372 3.84000E+01 4.87010E+01 0.00000E+00
 -1      1373 3.61500E+01 4.74020E+01 0.00000E+00
 -1      1374 3.99000E+01 4.87010E+01 0.00000E+00
 -1      1375 4.14000E+01 4.87010E+01 0.00000E+00
 -1      1376 3.91500E+01 4.74020E+01 0.00000E+00
 -1      1377 4.29000E+01 4.87010E+01 0.00000E+00
 -1      1378 4.44000E+01 4.87010E+01 0.00000E+00
 -1      1379 4.21500E+01 4.74020E+01 0.00000E+00
 -1      1380 4.59000E+01 4.87010E+01 0.00000E+00
 -1      1381 4.74000E+01 4.87010E+01 0.00000E+00
 -1      1382 4.51500E+01 4.74020E+01 0.00000E+00
 -1      1383 4.89000E+01 4.87010E+01 0.00000E+00
 -1      1384 5.04000E+01 4.87010E+01 0.00000E+00
 -1      1385 4.81500E+01 4.74020E+01 0.00000E+00
 -1      1386 5.19000E+01 4.87010E+01 0.00000E+00
 -1      1387 5.34000E+01 4.87010E+01 0.00000E+00
 -1      1388 5.11500E+01 4.74020E+01 0.00000E+00
 -1      1389 5.49000E+01 4.87010E+01 0.00000E+00
 -1      1390 5.64000E+01 4.87010E+01 0.00000E+00
 -1      1391 5.41500E+01 4.74020E+01 0.00000E+00
 -1      1392 5.79000E+01 4.87010E+01 0.00000E+00
 -1      1393 5.94000E+01 4.87010E+01 0.00000E+00
 -1      1394 5.71500E+01 4.74020E+01 0.00000E+00
 -1      1395 6.09000E+01 4.87010E+01 0.00000E+00
 -1      1396 6.24000E+01 4.87010E+01 0.00000E+00
 -1      1397 6.01500E+01 4.74020E+01 0.00000E+00
 -1      1398 6.39000E+01 4.87010E+01 0.00000E+00
 -1      1399 6.54000E+01 4.87010E+01 0.00000E+00
 -1      1400 6.31500E+01 4.74020E+01 0.00000E+00
 -1      1401 6.69000E+01 4.87010E+01 0.00000E+00
 -1      1402 6.84000E+01 4.87010E+01 0.00000E+00
 -1      1403 6.61500E+01 4.74020E+01 0.00000E+00
 -1      1404 6.99000E+01 4.87010E+01 0.00000E+00
 -1      1405 7.14000E+01 4.87010E+01 0.00000E+00
 -1      1406 6.91500E+01 4.74020E+01 0.00000E+00
 -1      1407 7.29000E+01 4.87010E+01 0.00000E+00
 -1      1408 7.44000E+01 4.87010E+01 0.00000E+00
 -1      1409 7.21500E+01 4.74020E+01 0.00000E+00
 -1      1410 7.59000E+01 4.87010E+01 0.00000E+00
 -1      1411 7.74000E+01 4.87010E+01 0.00000E+00
 -1      1412 7.51500E+01 4.74020E+01 0.00000E+00
 -1      1413 7.89000E+01 4.87010E+01 0.00000E+00
 -1      1414 8.04000E+01 4.87010E+01 0.00000E+00
 -1      1415 7.81500E+01 4.74020E+01 0.00000E+00
 -1      1416 8.19000E+01 4.87010E+01 0.00000E+00
 -1      1417 8.34000E+01 4.87010E+01 0.00000E+00
 -1      1418 8.11500E+01 4.74020E+01 0.00000E+00
 -1      1419 8.49000E+01 4.87010E+01 0.00000E+00
 -1      1420 8.64000E+01 4.87010E+01 0.00000E+00
 -1      1421 8.41500E+01 4.74020E+01 0.00000E+00
 -1      1422 8.79000E+01 4.87010E+01 0.00000E+00
 -1      1423 8.94000E+01 4.87010E+01 0.00000E+00
 -1      1424 8.71500E+01 4.74020E+01 0.00000E+00
 -1      1425 9.09000E+01 4.87010E+01 0.00000E+00
 -1      1426 9.24000E+01 4.87010E+01 0.00000E+00
 -1      1427 9.01500E+01 4.74020E+01 0.00000E+00
 -1      1428 9.39000E+01 4.87010E+01 0.00000E+00
 -1      1429 9.54000E+01 4.87010E+01 0.00000E+00
 -1      1430 9.31500E+01 4.74020E+01 0.00000E+00
 -1      1431 9.69000E+01 4.87010E+01 0.00000E+00
 -1      1432 9.84000E+01 4.87010E+01 0.00000E+00
 -1      1433 9.61500E+01 4.74020E+01 0.00000E+00
 -1      1434 9.99000E+01 4.87010E+01 0.00000E+00
 -1      1435 1.01400E+02 4.87010E+01 0.00000E+00
 -1      1436 9.91500E+01 4.74020E+01 0.00000E+00
 -1      1437 1.02900E+02 4.87010E+01 0.00000E+00
 -1      1438 1.04400E+02 4.87010E+01 0.00000E+00
 -1      1439 1.02150E+02 4.74020E+01 0.00000E+00
 -1      1440 1.05900E+02 4.87010E+01 0.00000E+00
 -1      1441 1.07400E+02 4.87010E+01 0.00000E+00
 -1      1442 1.05150E+02 4.74020E+01 0.00000E+00
 -1      1443 1.08900E+02 4.87010E+01 0.00000E+00
 -1      1444 1.10400E+02 4.87010E+01 0.00000E+00
 -1      1445 1.08150E+02 4.74020E+01 0.00000E+00
 -1      1446 1.11900E+02 4.87010E+01 0.00000E+00
 -1      1447 1.13400E+02 4.87010E+01 0.00000E+00
 -1      1448 1.11150E+02 4.74020E+01 0.00000E+00
 -1      1449 1.14900E+02 4.87010E+01 0.00000E+00
 -1      1450 1.16400E+02 4.87010E+01 0.00000E+00
 -1      1451 1.14150E+02 4.74020E+01 0.00000E+00
 -1      1452 1.17900E+02 4.87010E+01 0.00000E+00
 -1      1453 1.19400E+02 4.87010E+01 0.00000E+00
 -1      1454 1.17150E+02 4.74020E+01 0.00000E+00
 -1      1455 1.20900E+02 4.87010E+01 0.00000E+00
 -1      1456 1.22400E+02 4.87010E+01 0.00000E+00
 -1      1457 1.20150E+02 4.74020E+01 0.00000E+00
 -1      1458 1.23900E+02 4.87010E+01 0.00000E+00
 -1      1459 1.25400E+02 4.87010E+01 0.00000E+00
 -1      1460 1.23150E+02 4.74020E+01 0.00000E+00
 -1      1461 1.26900E+02 4.87010E+01 0.00000E+00
 -1      1462 1.28400E+02 4.87010E+01 0.00000E+00
 -1      1463 1.26150E+02 4.74020E+01 0.00000E+00
 -1      1464 1.29900E+02 4.87010E+01 0.00000E+00
 -1      1465 1.31400E+02 4.87010E+01 0.00000E+00
 -1      1466 1.29150E+02 4.74020E+01 0.00000E+00
 -1      1467 1.32900E+02 4.87010E+01 0.00000E+00
 -1      1468 1.34400E+02 4.87010E+01 0.00000E+00
 -1      1469 1.32150E+02 4.74020E+01 0.00000E+00
 -1      1470 1.35900E+02 4.87010E+01 0.00000E+00
 -1      1471 1.37400E+02 4.87010E+01 0.00000E+00
 -1      1472 1.35150E+02 4.74020E+01 0.00000E+00
 -1      1473 1.38900E+02 4.87010E+01 0.00000E+00
 -1      1474 1.40400E+02 4.87010E+01 0.00000E+00
 -1      1475 1.38150E+02 4.74020E+01 0.00000E+00
 -1      1476 1.41900E+02 4.87010E+01 0.00000E+00
 -1      1477 1.43400E+02 4.87010E+01 0.00000E+00
 -1      1478 1.41150E+02 4.74020E+01 0.00000E+00
 -1      1479 1.44900E+02 4.87010E+01 0.00000E+00
 -1      1480 1.46400E+02 4.87010E+01 0.00000E+00
 -1      1481 1.44150E+02 4.74020E+01 0.00000E+00
 -1      1482 1.48575E+02 4.85500E+01 0.00000E+00
 -1      1483 1.47825E+02 4.72510E+01 0.00000E+00
 -1      1484 6.01200E+00 1.09375E+00 0.00000E+00
 -1      1485 4.51200E+00 1.09375E+00 0.00000E+00
 -1      1486 4.37400E+00 2.18750E+00 0.00000E+00
 -1      1487 9.01200E+00 1.09375E+00 0.00000E+00
 -1      1488 7.51200E+00 1.09375E+00 0.00000E+00
 -1      1489 7.37400E+00 2.18750E+00 0.00000E+00
 -1      1490 1.20120E+01 1.09375E+00 0.00000E+00
 -1      1491 1.05120E+01 1.09375E+00 0.00000E+00
 -1      1492 1.03740E+01 2.18750E+00 0.00000E+00
 -1      1493 1.50120E+01 1.09375E+00 0.00000E+00
 -1      1494 1.35120E+01 1.09375E+00 0.00000E+00
 -1      1495 1.33740E+01 2.18750E+00 0.00000E+00
 -1      1496 1.80120E+01 1.09375E+00 0.00000E+00
 -1      1497 1.65120E+01 1.09375E+00 0.00000E+00
 -1      1498 1.63740E+01 2.18750E+00 0.00000E+00
 -1      1499 2.10120E+01 1.09375E+00 0.00000E+00
 -1      1500 1.95120E+01 1.09375E+00 0.00000E+00
 -1      1501 1.93740E+01 2.18750E+00 0.00000E+00
 -1      1502 2.40120E+01 1.09375E+00 0.00000E+00
 -1      1503 2.25120E+01 1.09375E+00 0.00000E+00
 -1      1504 2.23740E+01 2.18750E+00 0.00000E+00
 -1      1505 2.70120E+01 1.09375E+00 0.00000E+00
 -1      1506 2.55120E+01 1.09375E+00 0.00000E+00
 -1      1507 2.53740E+01 2.18750E+00 0.00000E+00
 -1      1508 3.00120E+01 1.09375E+00 0.00000E+00
 -1      1509 2.85120E+01 1.09375E+00 0.00000E+00
 -1      1510 2.83740E+01 2.18750E+00 0.00000E+00
 -1      1511 3.30120E+01 1.09375E+00 0.00000E+00
 -1      1512 3.15120E+01 1.09375E+00 0.00000E+00
 -1      1513 3.13740E+01 2.18750E+00 0.00000E+00
 -1      1514 3.60120E+01 1.09375E+00 0.00000E+00
 -1      1515 3.45120E+01 1.09375E+00 0.00000E+00
 -1      1516 3.43740E+01 2.18750E+00 0.00000E+00
 -1      1517 3.90120E+01 1.09375E+00 0.00000E+00
 -1      1518 3.75120E+01 1.09375E+00 0.00000E+00
 -1      1519 3.73740E+01 2.18750E+00 0.00000E+00
 -1      1520 4.20120E+01 1.09375E+00 0.00000E+00
 -1      1521 4.05120E+01 1.09375E+00 0.00000E+00
 -1      1522 4.03740E+01 2.18750E+00 0.00000E+00
 -1      1523 4.50120E+01 1.09375E+00 0.00000E+00
 -1      1524 4.35120E+01 1.09375E+00 0.00000E+00
 -1      1525 4.33740E+01 2.18750E+00 0.00000E+00
 -1      1526 4.80120E+01 1.09375E+00 0.00000E+00
 -1      1527 4.65120E+01 1.09375E+00 0.00000E+00
 -1      1528 4.63740E+01 2.18750E+00 0.00000E+00
 -1      1529 5.10120E+01 1.09375E+00 0.00000E+00
 -1      1530 4.95120E+01 1.09375E+00 0.00000E+00
 -1      1531 4.93740E+01 2.18750E+00 0.00000E+00
 -1      1532 5.40120E+01 1.09375E+00 0.00000E+00
 -1      1533 5.25120E+01 1.09375E+00 0.00000E+00
 -1      1534 5.23740E+01 2.18750E+00 0.00000E+00
 -1      1535 5.70120E+01 1.09375E+00 0.00000E+00
 -1      1536 5.55120E+01 1.09375E+00 0.00000E+00
 -1      1537 5.53740E+01 2.18750E+00 0.00000E+00
 -1      1538 6.00120E+01 1.09375E+00 0.00000E+00
 -1      1539 5.85120E+01 1.09375E+00 0.00000E+00
 -1      1540 5.83740E+01 2.18750E+00 0.00000E+00
 -1      1541 6.30120E+01 1.09375E+00 0.00000E+00
 -1      1542 6.15120E+01 1.09375E+00 0.00000E+00
 -1      1543 6.13740E+01 2.18750E+00 0.00000E+00
 -1      1544 6.60120E+01 1.09375E+00 0.00000E+00
 -1      1545 6.45120E+01 1.09375E+00 0.00000E+00
 -1      1546 6.43740E+01 2.18750E+00 0.00000E+00
 -1      1547 6.90120E+01 1.09375E+00 0.00000E+00
 -1      1548 6.75120E+01 1.09375E+00 0.00000E+00
 -1      1549 6.73740E+01 2.18750E+00 0.00000E+00
 -1      1550 7.20120E+01 1.09375E+00 0.00000E+00
 -1      1551 7.05120E+01 1.09375E+00 0.00000E+00
 -1      1552 7.03740E+01 2.18750E+00 0.00000E+00
 -1      1553 7.50120E+01 1.09375E+00 0.00000E+00
 -1      1554 7.35120E+01 1.09375E+00 0.00000E+00
 -1      1555 7.33740E+01 2.18750E+00 0.00000E+00
 -1      1556 7.80120E+01 1.09375E+00 0.00000E+00
 -1      1557 7.65120E+01 1.09375E+00 0.00000E+00
 -1      1558 7.63740E+01 2.18750E+00 0.00000E+00
 -1      1559 8.10120E+01 1.09375E+00 0.00000E+00
 -1      1560 7.95120E+01 1.09375E+00 0.00000E+00
 -1      1561 7.93740E+01 2.18750E+00 0.00000E+00
 -1      1562 8.40120E+01 1.09375E+00 0.00000E+00
 -1      1563 8.25120E+01 1.09375E+00 0.00000E+00
 -1      1564 8.23740E+01 2.18750E+00 0.00000E+00
 -1      1565 8.70120E+01 1.09375E+00 0.00000E+00
 -1      1566 8.55120E+01 1.09375E+00 0.00000E+00
 -1      1567 8.53740E+01 2.18750E+00 0.00000E+00
 -1      1568 9.00120E+01 1.09375E+00 0.00000E+00
 -1      1569 8.85120E+01 1.09375E+00 0.00000E+00
 -1      1570 8.83740E+01 2.18750E+00 0.00000E+00
 -1      1571 9.30120E+01 1.09375E+00 0.00000E+00
 -1      1572 9.15120E+01 1.09375E+00 0.00000E+00
 -1      1573 9.13740E+01 2.18750E+00 0.00000E+00
 -1      1574 9.60120E+01 1.09375E+00 0.00000E+00
 -1      1575 9.45120E+01 1.09375E+00 0.00000E+00
 -1      1576 9.43740E+01 2.18750E+00 0.00000E+00
 -1      1577 9.90120E+01 1.09375E+00 0.00000E+00
 -1      1578 9.75120E+01 1.09375E+00 0.00000E+00
 -1      1579 9.73740E+01 2.18750E+00 0.00000E+00
 -1      1580 1.02012E+02 1.09375E+00 0.00000E+00
 -1      1581 1.00512E+02 1.09375E+00 0.00000E+00
 -1      1582 1.00374E+02 2.18750E+00 0.00000E+00
 -1      1583 1.05012E+02 1.09375E+00 0.00000E+00
 -1      1584 1.03512E+02 1.09375E+00 0.00000E+00
 -1      1585 1.03374E+02 2.18750E+00 0.00000E+00
 -1      1586 1.08012E+02 1.09375E+00 0.00000E+00
 -1      1587 1.06512E+02 1.09375E+00 0.00000E+00
 -1      1588 1.06374E+02 2.18750E+00 0.00000E+00
 -1      1589 1.11012E+02 1.09375E+00 0.00000E+00
 -1      1590 1.09512E+02 1.09375E+00 0.00000E+00
 -1      1591 1.09374E+02 2.18750E+00 0.00000E+00
 -1      1592 1.14012E+02 1.09375E+00 0.00000E+00
 -1      1593 1.12512E+02 1.09375E+00 0.00000E+00
 -1      1594 1.12374E+02 2.18750E+00 0.00000E+00
 -1      1595 1.17012E+02 1.09375E+00 0.00000E+00
 -1      1596 1.15512E+02 1.09375E+00 0.00000E+00
 -1      1597 1.15374E+02 2.18750E+00 0.00000E+00
 -1      1598 1.20012E+02 1.09375E+00 0.00000E+00
 -1      1599 1.18512E+02 1.09375E+00 0.00000E+00
 -1      1600 1.18374E+02 2.18750E+00 0.00000E+00
 -1      1601 1.23012E+02 1.09375E+00 0.00000E+00
 -1      1602 1.21512E+02 1.09375E+00 0.00000E+00
 -1      1603 1.21374E+02 2.18750E+00 0.00000E+00
 -1      1604 1.26012E+02 1.09375E+00 0.00000E+00
 -1      1605 1.24512E+02 1.09375E+00 0.00000E+00
 -1      1606 1.24374E+02 2.18750E+00 0.00000E+00
 -1      1607 1.29012E+02 1.09375E+00 0.00000E+00
 -1      1608 1.27512E+02 1.09375E+00 0.00000E+00
 -1      1609 1.27374E+02 2.18750E+00 0.00000E+00
 -1      1610 1.32012E+02 1.09375E+00 0.00000E+00
 -1      1611 1.30512E+02 1.09375E+00 0.00000E+00
 -1      1612 1.30374E+02 2.18750E+00 0.00000E+00
 -1      1613 1.35012E+02 1.09375E+00 0.00000E+00
 -1      1614 1.33512E+02 1.09375E+00 0.00000E+00
 -1      1615 1.33374E+02 2.18750E+00 0.00000E+00
 -1      1616 1.38012E+02 1.09375E+00 0.00000E+00
 -1      1617 1.36512E+02 1.09375E+00 0.00000E+00
 -1      1618 1.36374E+02 2.18750E+00 0.00000E+00
 -1      1619 1.41012E+02 1.09375E+00 0.00000E+00
 -1      1620 1.39512E+02 1.09375E+00 0.00000E+00
 -1      1621 1.39374E+02 2.18750E+00 0.00000E+00
 -1      1622 1.44012E+02 1.09375E+00 0.00000E+00
 -1      1623 1.42512E+02 1.09375E+00 0.00000E+00
 -1      1624 1.42374E+02 2.18750E+00 0.00000E+00
 -1      1625 1.47012E+02 1.09375E+00 0.00000E+00
 -1      1626 1.45512E+02 1.09375E+00 0.00000E+00
 -1      1627 1.45374E+02 2.18750E+00 0.00000E+00
 -1      1628 1.48575E+02 1.47500E+00 0.00000E+00
 -1      1629 1.48701E+02 5.16250E+00 0.00000E+00
 -1      1630 1.48701E+02 3.68750E+00 0.00000E+00
 -1      1631 1.48701E+02 8.11250E+00 0.00000E+00
 -1      1632 1.48701E+02 6.63750E+00 0.00000E+00
 -1      1633 1.47402E+02 5.90000E+00 0.00000E+00
 -1      1634 1.48701E+02 1.10625E+01 0.00000E+00
 -1      1635 1.48701E+02 9.58750E+00 0.00000E+00
 -1      1636 1.47402E+02 8.85000E+00 0.00000E+00
 -1      1637 1.48701E+02 1.40125E+01 0.00000E+00
 -1      1638 1.48701E+02 1.25375E+01 0.00000E+00
 -1      1639 1.47402E+02 1.18000E+01 0.00000E+00
 -1      1640 1.48701E+02 1.69125E+01 0.00000E+00
 -1      1641 1.48701E+02 1.54625E+01 0.00000E+00
 -1      1642 1.47402E+02 1.47250E+01 0.00000E+00
 -1      1643 1.48701E+02 1.98625E+01 0.00000E+00
 -1      1644 1.48701E+02 1.83875E+01 0.00000E+00
 -1      1645 1.47402E+02 1.76500E+01 0.00000E+00
 -1      1646 1.48701E+02 2.28125E+01 0.00000E+00
 -1      1647 1.48701E+02 2.13375E+01 0.00000E+00
 -1      1648 1.47402E+02 2.06000E+01 0.00000E+00
 -1      1649 1.48701E+02 2.57625E+01 0.00000E+00
 -1      1650 1.48701E+02 2.42875E+01 0.00000E+00
 -1      1651 1.47402E+02 2.35500E+01 0.00000E+00
 -1      1652 1.48701E+02 2.87125E+01 0.00000E+00
 -1      1653 1.48701E+02 2.72375E+01 0.00000E+00
 -1      1654 1.47402E+02 2.65000E+01 0.00000E+00
 -1      1655 1.48701E+02 3.16625E+01 0.00000E+00
 -1      1656 1.48701E+02 3.01875E+01 0.00000E+00
 -1      1657 1.47402E+02 2.94500E+01 0.00000E+00
 -1      1658 1.48701E+02 3.45625E+01 0.00000E+00
 -1      1659 1.48701E+02 3.31125E+01 0.00000E+00
 -1      1660 1.47402E+02 3.23750E+01 0.00000E+00
 -1      1661 1.48701E+02 3.75125E+01 0.00000E+00
 -1      1662 1.48701E+02 3.60375E+01 0.00000E+00
 -1      1663 1.47402E+02 3.53000E+01 0.00000E+00
 -1      1664 1.48701E+02 4.04625E+01 0.00000E+00
 -1      1665 1.48701E+02 3.89875E+01 0.00000E+00
 -1      1666 1.47402E+02 3.82500E+01 0.00000E+00
 -1      1667 1.48701E+02 4.34125E+01 0.00000E+00
 -1      1668 1.48701E+02 4.19375E+01 0.00000E+00
 -1      1669 1.47402E+02 4.12000E+01 0.00000E+00
 -1      1670 1.48263E+02 4.60692E+01 0.00000E+00
 -1      1671 1.48263E+02 4.45942E+01 0.00000E+00
 -1      1672 1.46964E+02 4.38568E+01 0.00000E+00
 -1      1673 1.46088E+02 4.62202E+01 0.00000E+00
 -1      1674 8.64056E+01 1.91824E+01 0.00000E+00
 -1      1675 8.64974E+01 1.99787E+01 0.00000E+00
 -1      1676 8.58676E+01 1.75818E+01 0.00000E+00
 -1      1677 8.61186E+01 1.82961E+01 0.00000E+00
 -1      1678 8.50798E+01 1.61965E+01 0.00000E+00
 -1      1679 8.54583E+01 1.68139E+01 0.00000E+00
 -1      1680 8.40268E+01 1.48542E+01 0.00000E+00
 -1      1681 8.45886E+01 1.54345E+01 0.00000E+00
 -1      1682 8.26322E+01 1.39173E+01 0.00000E+00
 -1      1683 8.32650E+01 1.43299E+01 0.00000E+00
 -1      1684 8.10858E+01 1.32370E+01 0.00000E+00
 -1      1685 8.18262E+01 1.35128E+01 0.00000E+00
 -1      1686 7.94016E+01 1.27452E+01 0.00000E+00
 -1      1687 8.02024E+01 1.28482E+01 0.00000E+00
 -1      1688 7.77249E+01 1.28795E+01 0.00000E+00
 -1      1689 7.84667E+01 1.28093E+01 0.00000E+00
 -1      1690 7.61211E+01 1.33836E+01 0.00000E+00
 -1      1691 7.68622E+01 1.31443E+01 0.00000E+00
 -1      1692 7.45902E+01 1.41794E+01 0.00000E+00
 -1      1693 7.52806E+01 1.37664E+01 0.00000E+00
 -1      1694 7.32989E+01 1.52086E+01 0.00000E+00
 -1      1695 7.38391E+01 1.46941E+01 0.00000E+00
 -1      1696 7.23207E+01 1.64796E+01 0.00000E+00
 -1      1697 7.27337E+01 1.58734E+01 0.00000E+00
 -1      1698 7.15285E+01 1.79845E+01 0.00000E+00
 -1      1699 7.18228E+01 1.72460E+01 0.00000E+00
 -1      1700 7.12450E+01 1.96194E+01 0.00000E+00
 -1      1701 7.13626E+01 1.88877E+01 0.00000E+00
 -1      1702 7.12747E+01 2.11988E+01 0.00000E+00
 -1      1703 7.12387E+01 2.04785E+01 0.00000E+00
 -1      1704 7.15391E+01 2.28401E+01 0.00000E+00
 -1      1705 7.13346E+01 2.20863E+01 0.00000E+00
 -1      1706 7.22760E+01 2.42862E+01 0.00000E+00
 -1      1707 7.19386E+01 2.36399E+01 0.00000E+00
 -1      1708 7.32593E+01 2.56061E+01 0.00000E+00
 -1      1709 7.27644E+01 2.50137E+01 0.00000E+00
 -1      1710 7.44498E+01 2.68500E+01 0.00000E+00
 -1      1711 7.38188E+01 2.63695E+01 0.00000E+00
 -1      1712 7.59913E+01 2.75342E+01 0.00000E+00
 -1      1713 7.53066E+01 2.72206E+01 0.00000E+00
 -1      1714 7.77639E+01 2.80767E+01 0.00000E+00
 -1      1715 7.68958E+01 2.79054E+01 0.00000E+00
 -1      1716 7.94839E+01 2.80065E+01 0.00000E+00
 -1      1717 7.87368E+01 2.80356E+01 0.00000E+00
 -1      1718 8.10404E+01 2.77039E+01 0.00000E+00
 -1      1719 8.03360E+01 2.78837E+01 0.00000E+00
 -1      1720 8.25326E+01 2.71099E+01 0.00000E+00
 -1      1721 8.18647E+01 2.74414E+01 0.00000E+00
 -1      1722 8.37894E+01 2.62366E+01 0.00000E+00
 -1      1723 8.32490E+01 2.66611E+01 0.00000E+00
 -1      1724 8.48196E+01 2.51572E+01 0.00000E+00
 -1      1725 8.43741E+01 2.56768E+01 0.00000E+00
 -1      1726 8.56312E+01 2.38713E+01 0.00000E+00
 -1      1727 8.52877E+01 2.44851E+01 0.00000E+00
 -1      1728 8.61321E+01 2.24428E+01 0.00000E+00
 -1      1729 8.59204E+01 2.31029E+01 0.00000E+00
 -1      1730 8.64635E+01 2.09001E+01 0.00000E+00
 -1      1731 8.63858E+01 2.16336E+01 0.00000E+00
 -1      1732 8.40416E+01 1.41401E+01 0.00000E+00
 -1      1733 8.52947E+01 1.54264E+01 0.00000E+00
 -1      1734 1.48437E+02 2.56875E+00 0.00000E+00
 -1      1735 1.47138E+02 3.30625E+00 0.00000E+00
 -1      1736 8.68916E+01 1.86104E+01 0.00000E+00
 -1      1737 8.61952E+01 1.69563E+01 0.00000E+00
 -1      1738 8.71447E+01 2.04181E+01 0.00000E+00
 -1      1739 8.24737E+01 1.32113E+01 0.00000E+00
 -1      1740 8.07842E+01 1.24180E+01 0.00000E+00
 -1      1741 7.89658E+01 1.20934E+01 0.00000E+00
 -1      1742 7.71681E+01 1.24223E+01 0.00000E+00
 -1      1743 7.54647E+01 1.30699E+01 0.00000E+00
 -1      1744 7.38731E+01 1.39674E+01 0.00000E+00
 -1      1745 7.25568E+01 1.51469E+01 0.00000E+00
 -1      1746 7.14937E+01 1.65780E+01 0.00000E+00
 -1      1747 7.08298E+01 1.82475E+01 0.00000E+00
 -1      1748 7.06576E+01 2.00098E+01 0.00000E+00
 -1      1749 7.07111E+01 2.17564E+01 0.00000E+00
 -1      1750 7.11704E+01 2.34438E+01 0.00000E+00
 -1      1751 7.20583E+01 2.49711E+01 0.00000E+00
 -1      1752 7.31061E+01 2.64620E+01 0.00000E+00
 -1      1753 7.45223E+01 2.75960E+01 0.00000E+00
 -1      1754 7.62836E+01 2.83378E+01 0.00000E+00
 -1      1755 7.81610E+01 2.86679E+01 0.00000E+00
 -1      1756 7.99860E+01 2.85040E+01 0.00000E+00
 -1      1757 8.16625E+01 2.81187E+01 0.00000E+00
 -1      1758 8.32031E+01 2.74074E+01 0.00000E+00
 -1      1759 8.45042E+01 2.63987E+01 0.00000E+00
 -1      1760 8.55569E+01 2.51668E+01 0.00000E+00
 -1      1761 8.63143E+01 2.37264E+01 0.00000E+00
 -1      1762 8.68572E+01 2.21488E+01 0.00000E+00
 -1      1763 2.87400E+00 4.77875E+01 0.00000E+00
 -1      1764 3.89700E+00 4.04125E+01 0.00000E+00
 -1      1765 3.89700E+00 4.18875E+01 0.00000E+00
 -1      1766 3.89700E+00 4.33625E+01 0.00000E+00
 -1      1767 3.89700E+00 4.48375E+01 0.00000E+00
 -1      1768 5.19600E+00 4.26250E+01 0.00000E+00
 -1      1769 3.89700E+00 3.45500E+01 0.00000E+00
 -1      1770 3.89700E+00 3.60000E+01 0.00000E+00
 -1      1771 3.89700E+00 3.16000E+01 0.00000E+00
 -1      1772 3.89700E+00 3.30750E+01 0.00000E+00
 -1      1773 5.19600E+00 3.38000E+01 0.00000E+00
 -1      1774 3.89700E+00 2.86500E+01 0.00000E+00
 -1      1775 3.89700E+00 3.01250E+01 0.00000E+00
 -1      1776 5.19600E+00 3.08500E+01 0.00000E+00
 -1      1777 3.89700E+00 2.57000E+01 0.00000E+00
 -1      1778 3.89700E+00 2.71750E+01 0.00000E+00
 -1      1779 5.19600E+00 2.79000E+01 0.00000E+00
 -1      1780 3.89700E+00 2.27500E+01 0.00000E+00
 -1      1781 3.89700E+00 2.42250E+01 0.00000E+00
 -1      1782 5.19600E+00 2.49500E+01 0.00000E+00
 -1      1783 3.89700E+00 1.98000E+01 0.00000E+00
 -1      1784 3.89700E+00 2.12750E+01 0.00000E+00
 -1      1785 5.19600E+00 2.20000E+01 0.00000E+00
 -1      1786 3.89700E+00 1.69000E+01 0.00000E+00
 -1      1787 3.89700E+00 1.83500E+01 0.00000E+00
 -1      1788 5.19600E+00 1.90750E+01 0.00000E+00
 -1      1789 3.89700E+00 1.39500E+01 0.00000E+00
 -1      1790 3.89700E+00 1.54250E+01 0.00000E+00
 -1      1791 5.19600E+00 1.61500E+01 0.00000E+00
 -1      1792 3.89700E+00 1.10000E+01 0.00000E+00
 -1      1793 3.89700E+00 1.24750E+01 0.00000E+00
 -1      1794 5.19600E+00 1.32000E+01 0.00000E+00
 -1      1795 3.89700E+00 8.05000E+00 0.00000E+00
 -1      1796 3.89700E+00 9.52500E+00 0.00000E+00
 -1      1797 5.19600E+00 1.02500E+01 0.00000E+00
 -1      1798 3.89700E+00 5.10000E+00 0.00000E+00
 -1      1799 3.89700E+00 6.57500E+00 0.00000E+00
 -1      1800 5.19600E+00 7.30000E+00 0.00000E+00
 -1      1801 4.20450E+00 3.09687E+00 0.00000E+00
 -1      1802 4.06650E+00 4.19063E+00 0.00000E+00
 -1      1803 5.36550E+00 4.91563E+00 0.00000E+00
 -1      1804 5.70450E+00 3.09687E+00 0.00000E+00
 -1      1805 3.62400E+00 4.64885E+01 0.00000E+00
 -1      1806 8.70450E+00 3.09687E+00 0.00000E+00
 -1      1807 7.20450E+00 3.09687E+00 0.00000E+00
 -1      1808 7.03500E+00 4.00625E+00 0.00000E+00
 -1      1809 4.92300E+00 4.57510E+01 0.00000E+00
 -1      1810 8.40000E+00 4.61030E+01 0.00000E+00
 -1      1811 9.90000E+00 4.61030E+01 0.00000E+00
 -1      1812 1.14000E+01 4.61030E+01 0.00000E+00
 -1      1813 1.29000E+01 4.61030E+01 0.00000E+00
 -1      1814 1.06500E+01 4.48040E+01 0.00000E+00
 -1      1815 1.44000E+01 4.61030E+01 0.00000E+00
 -1      1816 1.59000E+01 4.61030E+01 0.00000E+00
 -1      1817 1.36500E+01 4.48040E+01 0.00000E+00
 -1      1818 1.74000E+01 4.61030E+01 0.00000E+00
 -1      1819 1.89000E+01 4.61030E+01 0.00000E+00
 -1      1820 1.66500E+01 4.48040E+01 0.00000E+00
 -1      1821 2.04000E+01 4.61030E+01 0.00000E+00
 -1      1822 2.19000E+01 4.61030E+01 0.00000E+00
 -1      1823 1.96500E+01 4.48040E+01 0.00000E+00
 -1      1824 2.34000E+01 4.61030E+01 0.00000E+00
 -1      1825 2.49000E+01 4.61030E+01 0.00000E+00
 -1      1826 2.26500E+01 4.48040E+01 0.00000E+00
 -1      1827 2.64000E+01 4.61030E+01 0.00000E+00
 -1      1828 2.79000E+01 4.61030E+01 0.00000E+00
 -1      1829 2.56500E+01 4.48040E+01 0.00000E+00
 -1      1830 2.94000E+01 4.61030E+01 0.00000E+00
 -1      1831 3.09000E+01 4.61030E+01 0.00000E+00
 -1      1832 2.86500E+01 4.48040E+01 0.00000E+00
 -1      1833 3.24000E+01 4.61030E+01 0.00000E+00
 -1      1834 3.39000E+01 4.61030E+01 0.00000E+00
 -1      1835 3.16500E+01 4.48040E+01 0.00000E+00
 -1      1836 3.54000E+01 4.61030E+01 0.00000E+00
 -1      1837 3.69000E+01 4.61030E+01 0.00000E+00
 -1      1838 3.46500E+01 4.48040E+01 0.00000E+00
 -1      1839 3.84000E+01 4.61030E+01 0.00000E+00
 -1      1840 3.99000E+01 4.61030E+01 0.00000E+00
 -1      1841 3.76500E+01 4.48040E+01 0.00000E+00
 -1      1842 4.14000E+01 4.61030E+01 0.00000E+00
 -1      1843 4.29000E+01 4.61030E+01 0.00000E+00
 -1      1844 4.06500E+01 4.48040E+01 0.00000E+00
 -1      1845 4.44000E+01 4.61030E+01 0.00000E+00
 -1      1846 4.59000E+01 4.61030E+01 0.00000E+00
 -1      1847 4.36500E+01 4.48040E+01 0.00000E+00
 -1      1848 4.74000E+01 4.61030E+01 0.00000E+00
 -1      1849 4.89000E+01 4.61030E+01 0.00000E+00
 -1      1850 4.66500E+01 4.48040E+01 0.00000E+00
 -1      1851 5.04000E+01 4.61030E+01 0.00000E+00
 -1      1852 5.19000E+01 4.61030E+01 0.00000E+00
 -1      1853 4.96500E+01 4.48040E+01 0.00000E+00
 -1      1854 5.34000E+01 4.61030E+01 0.00000E+00
 -1      1855 5.49000E+01 4.61030E+01 0.00000E+00
 -1      1856 5.26500E+01 4.48040E+01 0.00000E+00
 -1      1857 5.64000E+01 4.61030E+01 0.00000E+00
 -1      1858 5.79000E+01 4.61030E+01 0.00000E+00
 -1      1859 5.56500E+01 4.48040E+01 0.00000E+00
 -1      1860 5.94000E+01 4.61030E+01 0.00000E+00
 -1      1861 6.09000E+01 4.61030E+01 0.00000E+00
 -1      1862 5.86500E+01 4.48040E+01 0.00000E+00
 -1      1863 6.24000E+01 4.61030E+01 0.00000E+00
 -1      1864 6.39000E+01 4.61030E+01 0.00000E+00
 -1      1865 6.16500E+01 4.48040E+01 0.00000E+00
 -1      1866 6.54000E+01 4.61030E+01 0.00000E+00
 -1      1867 6.69000E+01 4.61030E+01 0.00000E+00
 -1      1868 6.46500E+01 4.48040E+01 0.00000E+00
 -1      1869 6.84000E+01 4.61030E+01 0.00000E+00
 -1      1870 6.99000E+01 4.61030E+01 0.00000E+00
 -1      1871 6.76500E+01 4.48040E+01 0.00000E+00
 -1      1872 7.14000E+01 4.61030E+01 0.00000E+00
 -1      1873 7.29000E+01 4.61030E+01 0.00000E+00
 -1      1874 7.06500E+01 4.48040E+01 0.00000E+00
 -1      1875 7.44000E+01 4.61030E+01 0.00000E+00
 -1      1876 7.59000E+01 4.61030E+01 0.00000E+00
 -1      1877 7.36500E+01 4.48040E+01 0.00000E+00
 -1      1878 7.74000E+01 4.61030E+01 0.00000E+00
 -1      1879 7.89000E+01 4.61030E+01 0.00000E+00
 -1      1880 7.66500E+01 4.48040E+01 0.00000E+00
 -1      1881 8.04000E+01 4.61030E+01 0.00000E+00
 -1      1882 8.19000E+01 4.61030E+01 0.00000E+00
 -1      1883 7.96500E+01 4.48040E+01 0.00000E+00
 -1      1884 8.34000E+01 4.61030E+01 0.00000E+00
 -1      1885 8.49000E+01 4.61030E+01 0.00000E+00
 -1      1886 8.26500E+01 4.48040E+01 0.00000E+00
 -1      1887 8.64000E+01 4.61030E+01 0.00000E+00
 -1      1888 8.79000E+01 4.61030E+01 0.00000E+00
 -1      1889 8.56500E+01 4.48040E+01 0.00000E+00
 -1      1890 8.94000E+01 4.61030E+01 0.00000E+00
 -1      1891 9.09000E+01 4.61030E+01 0.00000E+00
 -1      1892 8.86500E+01 4.48040E+01 0.00000E+00
 -1      1893 9.24000E+01 4.61030E+01 0.00000E+00
 -1      1894 9.39000E+01 4.61030E+01 0.00000E+00
 -1      1895 9.16500E+01 4.48040E+01 0.00000E+00
 -1      1896 9.54000E+01 4.61030E+01 0.00000E+00
 -1      1897 9.69000E+01 4.61030E+01 0.00000E+00
 -1      1898 9.46500E+01 4.48040E+01 0.00000E+00
 -1      1899 9.84000E+01 4.61030E+01 0.00000E+00
 -1      1900 9.99000E+01 4.61030E+01 0.00000E+00
 -1      1901 9.76500E+01 4.48040E+01 0.00000E+00
 -1      1902 1.01400E+02 4.61030E+01 0.00000E+00
 -1      1903 1.02900E+02 4.61030E+01 0.00000E+00
 -1      1904 1.00650E+02 4.48040E+01 0.00000E+00
 -1      1905 1.04400E+02 4.61030E+01 0.00000E+00
 -1      1906 1.05900E+02 4.61030E+01 0.00000E+00
 -1      1907 1.03650E+02 4.48040E+01 0.00000E+00
 -1      1908 1.07400E+02 4.61030E+01 0.00000E+00
 -1      1909 1.08900E+02 4.61030E+01 0.00000E+00
 -1      1910 1.06650E+02 4.48040E+01 0.00000E+00
 -1      1911 1.10400E+02 4.61030E+01 0.00000E+00
 -1      1912 1.11900E+02 4.61030E+01 0.00000E+00
 -1      1913 1.09650E+02 4.48040E+01 0.00000E+00
 -1      1914 1.13400E+02 4.61030E+01 0.00000E+00
 -1      1915 1.14900E+02 4.61030E+01 0.00000E+00
 -1      1916 1.12650E+02 4.48040E+01 0.00000E+00
 -1      1917 1.16400E+02 4.61030E+01 0.00000E+00
 -1      1918 1.17900E+02 4.61030E+01 0.00000E+00
 -1      1919 1.15650E+02 4.48040E+01 0.00000E+00
 -1      1920 1.19400E+02 4.61030E+01 0.00000E+00
 -1      1921 1.20900E+02 4.61030E+01 0.00000E+00
 -1      1922 1.18650E+02 4.48040E+01 0.00000E+00
 -1      1923 1.22400E+02 4.61030E+01 0.00000E+00
 -1      1924 1.23900E+02 4.61030E+01 0.00000E+00
 -1      1925 1.21650E+02 4.48040E+01 0.00000E+00
 -1      1926 1.25400E+02 4.61030E+01 0.00000E+00
 -1      1927 1.26900E+02 4.61030E+01 0.00000E+00
 -1      1928 1.24650E+02 4.48040E+01 0.00000E+00
 -1      1929 1.28400E+02 4.61030E+01 0.00000E+00
 -1      1930 1.29900E+02 4.61030E+01 0.00000E+00
 -1      1931 1.27650E+02 4.48040E+01 0.00000E+00
 -1      1932 1.31400E+02 4.61030E+01 0.00000E+00
 -1      1933 1.32900E+02 4.61030E+01 0.00000E+00
 -1      1934 1.30650E+02 4.48040E+01 0.00000E+00
 -1      1935 1.34400E+02 4.61030E+01 0.00000E+00
 -1      1936 1.35900E+02 4.61030E+01 0.00000E+00
 -1      1937 1.33650E+02 4.48040E+01 0.00000E+00
 -1      1938 1.37400E+02 4.61030E+01 0.00000E+00
 -1      1939 1.38900E+02 4.61030E+01 0.00000E+00
 -1      1940 1.36650E+02 4.48040E+01 0.00000E+00
 -1      1941 1.40400E+02 4.61030E+01 0.00000E+00
 -1      1942 1.41900E+02 4.61030E+01 0.00000E+00
 -1      1943 1.39650E+02 4.48040E+01 0.00000E+00
 -1      1944 1.43244E+02 4.61616E+01 0.00000E+00
 -1      1945 1.44744E+02 4.61616E+01 0.00000E+00
 -1      1946 1.45182E+02 4.49799E+01 0.00000E+00
 -1      1947 1.42494E+02 4.48626E+01 0.00000E+00
 -1      1948 1.17045E+01 3.09687E+00 0.00000E+00
 -1      1949 1.02045E+01 3.09687E+00 0.00000E+00
 -1      1950 1.00350E+01 4.00625E+00 0.00000E+00
 -1      1951 1.47045E+01 3.09687E+00 0.00000E+00
 -1      1952 1.32045E+01 3.09687E+00 0.00000E+00
 -1      1953 1.30350E+01 4.00625E+00 0.00000E+00
 -1      1954 1.77045E+01 3.09687E+00 0.00000E+00
 -1      1955 1.62045E+01 3.09687E+00 0.00000E+00
 -1      1956 1.60350E+01 4.00625E+00 0.00000E+00
 -1      1957 2.07045E+01 3.09687E+00 0.00000E+00
 -1      1958 1.92045E+01 3.09687E+00 0.00000E+00
 -1      1959 1.90350E+01 4.00625E+00 0.00000E+00
 -1      1960 2.37045E+01 3.09687E+00 0.00000E+00
 -1      1961 2.22045E+01 3.09687E+00 0.00000E+00
 -1      1962 2.20350E+01 4.00625E+00 0.00000E+00
 -1      1963 2.67045E+01 3.09687E+00 0.00000E+00
 -1      1964 2.52045E+01 3.09687E+00 0.00000E+00
 -1      1965 2.50350E+01 4.00625E+00 0.00000E+00
 -1      1966 2.97045E+01 3.09687E+00 0.00000E+00
 -1      1967 2.82045E+01 3.09687E+00 0.00000E+00
 -1      1968 2.80350E+01 4.00625E+00 0.00000E+00
 -1      1969 3.27045E+01 3.09687E+00 0.00000E+00
 -1      1970 3.12045E+01 3.09687E+00 0.00000E+00
 -1      1971 3.10350E+01 4.00625E+00 0.00000E+00
 -1      1972 3.57045E+01 3.09687E+00 0.00000E+00
 -1      1973 3.42045E+01 3.09687E+00 0.00000E+00
 -1      1974 3.40350E+01 4.00625E+00 0.00000E+00
 -1      1975 3.87045E+01 3.09687E+00 0.00000E+00
 -1      1976 3.72045E+01 3.09687E+00 0.00000E+00
 -1      1977 3.70350E+01 4.00625E+00 0.00000E+00
 -1      1978 4.17045E+01 3.09687E+00 0.00000E+00
 -1      1979 4.02045E+01 3.09687E+00 0.00000E+00
 -1      1980 4.00350E+01 4.00625E+00 0.00000E+00
 -1      1981 4.47045E+01 3.09687E+00 0.00000E+00
 -1      1982 4.32045E+01 3.09687E+00 0.00000E+00
 -1      1983 4.30350E+01 4.00625E+00 0.00000E+00
 -1      1984 4.77045E+01 3.09687E+00 0.00000E+00
 -1      1985 4.62045E+01 3.09687E+00 0.00000E+00
 -1      1986 4.60350E+01 4.00625E+00 0.00000E+00
 -1      1987 5.07045E+01 3.09687E+00 0.00000E+00
 -1      1988 4.92045E+01 3.09687E+00 0.00000E+00
 -1      1989 4.90350E+01 4.00625E+00 0.00000E+00
 -1      1990 5.37045E+01 3.09687E+00 0.00000E+00
 -1      1991 5.22045E+01 3.09687E+00 0.00000E+00
 -1      1992 5.20350E+01 4.00625E+00 0.00000E+00
 -1      1993 5.67045E+01 3.09687E+00 0.00000E+00
 -1      1994 5.52045E+01 3.09687E+00 0.00000E+00
 -1      1995 5.50350E+01 4.00625E+00 0.00000E+00
 -1      1996 5.97045E+01 3.09687E+00 0.00000E+00
 -1      1997 5.82045E+01 3.09687E+00 0.00000E+00
 -1      1998 5.80350E+01 4.00625E+00 0.00000E+00
 -1      1999 6.27045E+01 3.09687E+00 0.00000E+00
 -1      2000 6.12045E+01 3.09687E+00 0.00000E+00
 -1      2001 6.10350E+01 4.00625E+00 0.00000E+00
 -1      2002 6.57045E+01 3.09687E+00 0.00000E+00
 -1      2003 6.42045E+01 3.09687E+00 0.00000E+00
 -1      2004 6.40350E+01 4.00625E+00 0.00000E+00
 -1      2005 6.87045E+01 3.09687E+00 0.00000E+00
 -1      2006 6.72045E+01 3.09687E+00 0.00000E+00
 -1      2007 6.70350E+01 4.00625E+00 0.00000E+00
 -1      2008 7.17045E+01 3.09687E+00 0.00000E+00
 -1      2009 7.02045E+01 3.09687E+00 0.00000E+00
 -1      2010 7.00350E+01 4.00625E+00 0.00000E+00
 -1      2011 7.47045E+01 3.09687E+00 0.00000E+00
 -1      2012 7.32045E+01 3.09687E+00 0.00000E+00
 -1      2013 7.30350E+01 4.00625E+00 0.00000E+00
 -1      2014 7.77045E+01 3.09687E+00 0.00000E+00
 -1      2015 7.62045E+01 3.09687E+00 0.00000E+00
 -1      2016 7.60350E+01 4.00625E+00 0.00000E+00
 -1      2017 8.07045E+01 3.09687E+00 0.00000E+00
 -1      2018 7.92045E+01 3.09687E+00 0.00000E+00
 -1      2019 7.90350E+01 4.00625E+00 0.00000E+00
 -1      2020 8.37045E+01 3.09687E+00 0.00000E+00
 -1      2021 8.22045E+01 3.09687E+00 0.00000E+00
 -1      2022 8.20350E+01 4.00625E+00 0.00000E+00
 -1      2023 8.67045E+01 3.09687E+00 0.00000E+00
 -1      2024 8.52045E+01 3.09687E+00 0.00000E+00
 -1      2025 8.50350E+01 4.00625E+00 0.00000E+00
 -1      2026 8.97045E+01 3.09687E+00 0.00000E+00
 -1      2027 8.82045E+01 3.09687E+00 0.00000E+00
 -1      2028 8.80350E+01 4.00625E+00 0.00000E+00
 -1      2029 9.27045E+01 3.09687E+00 0.00000E+00
 -1      2030 9.12045E+01 3.09687E+00 0.00000E+00
 -1      2031 9.10350E+01 4.00625E+00 0.00000E+00
 -1      2032 9.57045E+01 3.09687E+00 0.00000E+00
 -1      2033 9.42045E+01 3.09687E+00 0.00000E+00
 -1      2034 9.40350E+01 4.00625E+00 0.00000E+00
 -1      2035 9.87045E+01 3.09687E+00 0.00000E+00
 -1      2036 9.72045E+01 3.09687E+00 0.00000E+00
 -1      2037 9.70350E+01 4.00625E+00 0.00000E+00
 -1      2038 1.01704E+02 3.09687E+00 0.00000E+00
 -1      2039 1.00204E+02 3.09687E+00 0.00000E+00
 -1      2040 1.00035E+02 4.00625E+00 0.00000E+00
 -1      2041 1.04704E+02 3.09687E+00 0.00000E+00
 -1      2042 1.03204E+02 3.09687E+00 0.00000E+00
 -1      2043 1.03035E+02 4.00625E+00 0.00000E+00
 -1      2044 1.07704E+02 3.09687E+00 0.00000E+00
 -1      2045 1.06204E+02 3.09687E+00 0.00000E+00
 -1      2046 1.06035E+02 4.00625E+00 0.00000E+00
 -1      2047 1.10704E+02 3.09687E+00 0.00000E+00
 -1      2048 1.09204E+02 3.09687E+00 0.00000E+00
 -1      2049 1.09035E+02 4.00625E+00 0.00000E+00
 -1      2050 1.13704E+02 3.09687E+00 0.00000E+00
 -1      2051 1.12204E+02 3.09687E+00 0.00000E+00
 -1      2052 1.12035E+02 4.00625E+00 0.00000E+00
 -1      2053 1.16704E+02 3.09687E+00 0.00000E+00
 -1      2054 1.15204E+02 3.09687E+00 0.00000E+00
 -1      2055 1.15035E+02 4.00625E+00 0.00000E+00
 -1      2056 1.19704E+02 3.09687E+00 0.00000E+00
 -1      2057 1.18204E+02 3.09687E+00 0.00000E+00
 -1      2058 1.18035E+02 4.00625E+00 0.00000E+00
 -1      2059 1.22704E+02 3.09687E+00 0.00000E+00
 -1      2060 1.21204E+02 3.09687E+00 0.00000E+00
 -1      2061 1.21035E+02 4.00625E+00 0.00000E+00
 -1      2062 1.25704E+02 3.09687E+00 0.00000E+00
 -1      2063 1.24204E+02 3.09687E+00 0.00000E+00
 -1      2064 1.24035E+02 4.00625E+00 0.00000E+00
 -1      2065 1.28704E+02 3.09687E+00 0.00000E+00
 -1      2066 1.27204E+02 3.09687E+00 0.00000E+00
 -1      2067 1.27035E+02 4.00625E+00 0.00000E+00
 -1      2068 1.31704E+02 3.09687E+00 0.00000E+00
 -1      2069 1.30204E+02 3.09687E+00 0.00000E+00
 -1      2070 1.30035E+02 4.00625E+00 0.00000E+00
 -1      2071 1.34704E+02 3.09687E+00 0.00000E+00
 -1      2072 1.33204E+02 3.09687E+00 0.00000E+00
 -1      2073 1.33035E+02 4.00625E+00 0.00000E+00
 -1      2074 1.37704E+02 3.09687E+00 0.00000E+00
 -1      2075 1.36204E+02 3.09687E+00 0.00000E+00
 -1      2076 1.36035E+02 4.00625E+00 0.00000E+00
 -1      2077 1.40704E+02 3.09687E+00 0.00000E+00
 -1      2078 1.39204E+02 3.09687E+00 0.00000E+00
 -1      2079 1.39035E+02 4.00625E+00 0.00000E+00
 -1      2080 1.43704E+02 3.09687E+00 0.00000E+00
 -1      2081 1.42204E+02 3.09687E+00 0.00000E+00
 -1      2082 1.42035E+02 4.00625E+00 0.00000E+00
 -1      2083 1.46171E+02 3.20156E+00 0.00000E+00
 -1      2084 1.44671E+02 3.20156E+00 0.00000E+00
 -1      2085 1.44502E+02 4.11094E+00 0.00000E+00
 -1      2086 1.46435E+02 4.32031E+00 0.00000E+00
 -1      2087 1.46103E+02 1.25375E+01 0.00000E+00
 -1      2088 1.46103E+02 1.10625E+01 0.00000E+00
 -1      2089 1.46103E+02 9.58750E+00 0.00000E+00
 -1      2090 1.46103E+02 8.11250E+00 0.00000E+00
 -1      2091 1.44804E+02 1.03250E+01 0.00000E+00
 -1      2092 1.46269E+02 6.95391E+00 0.00000E+00
 -1      2093 1.46269E+02 5.47891E+00 0.00000E+00
 -1      2094 1.45302E+02 5.37422E+00 0.00000E+00
 -1      2095 1.44970E+02 7.69141E+00 0.00000E+00
 -1      2096 1.46103E+02 1.54375E+01 0.00000E+00
 -1      2097 1.46103E+02 1.39875E+01 0.00000E+00
 -1      2098 1.44804E+02 1.32500E+01 0.00000E+00
 -1      2099 1.46103E+02 1.83875E+01 0.00000E+00
 -1      2100 1.46103E+02 1.69125E+01 0.00000E+00
 -1      2101 1.44804E+02 1.61750E+01 0.00000E+00
 -1      2102 1.46103E+02 2.13375E+01 0.00000E+00
 -1      2103 1.46103E+02 1.98625E+01 0.00000E+00
 -1      2104 1.44804E+02 1.91250E+01 0.00000E+00
 -1      2105 1.46103E+02 2.42875E+01 0.00000E+00
 -1      2106 1.46103E+02 2.28125E+01 0.00000E+00
 -1      2107 1.44804E+02 2.20750E+01 0.00000E+00
 -1      2108 1.46103E+02 2.72375E+01 0.00000E+00
 -1      2109 1.46103E+02 2.57625E+01 0.00000E+00
 -1      2110 1.44804E+02 2.50250E+01 0.00000E+00
 -1      2111 1.46103E+02 3.01875E+01 0.00000E+00
 -1      2112 1.46103E+02 2.87125E+01 0.00000E+00
 -1      2113 1.44804E+02 2.79750E+01 0.00000E+00
 -1      2114 1.46103E+02 3.30875E+01 0.00000E+00
 -1      2115 1.46103E+02 3.16375E+01 0.00000E+00
 -1      2116 1.44804E+02 3.09000E+01 0.00000E+00
 -1      2117 1.46103E+02 3.60375E+01 0.00000E+00
 -1      2118 1.46103E+02 3.45625E+01 0.00000E+00
 -1      2119 1.44804E+02 3.38250E+01 0.00000E+00
 -1      2120 1.46103E+02 3.89875E+01 0.00000E+00
 -1      2121 1.46103E+02 3.75125E+01 0.00000E+00
 -1      2122 1.44804E+02 3.67750E+01 0.00000E+00
 -1      2123 1.46103E+02 4.19375E+01 0.00000E+00
 -1      2124 1.46103E+02 4.04625E+01 0.00000E+00
 -1      2125 1.44804E+02 3.97250E+01 0.00000E+00
 -1      2126 8.66734E+01 1.62083E+01 0.00000E+00
 -1      2127 8.70827E+01 1.69762E+01 0.00000E+00
 -1      2128 8.79767E+01 1.99874E+01 0.00000E+00
 -1      2129 8.79428E+01 2.09088E+01 0.00000E+00
 -1      2130 8.73647E+01 1.79676E+01 0.00000E+00
 -1      2131 8.76516E+01 1.88539E+01 0.00000E+00
 -1      2132 8.56909E+01 1.46844E+01 0.00000E+00
 -1      2133 8.61822E+01 1.54463E+01 0.00000E+00
 -1      2134 8.70696E+01 1.54663E+01 0.00000E+00
 -1      2135 8.40993E+01 1.32406E+01 0.00000E+00
 -1      2136 8.48612E+01 1.37649E+01 0.00000E+00
 -1      2137 3.89700E+00 3.74688E+01 0.00000E+00
 -1      2138 3.89700E+00 3.89437E+01 0.00000E+00
 -1      2139 5.19600E+00 3.96813E+01 0.00000E+00
 -1      2140 5.19600E+00 3.67438E+01 0.00000E+00
 -1      2141 8.06879E+01 1.14387E+01 0.00000E+00
 -1      2142 8.15714E+01 1.18275E+01 0.00000E+00
 -1      2143 7.84539E+01 1.14788E+01 0.00000E+00
 -1      2144 7.93889E+01 1.14147E+01 0.00000E+00
 -1      2145 7.65219E+01 1.18550E+01 0.00000E+00
 -1      2146 7.73847E+01 1.15902E+01 0.00000E+00
 -1      2147 7.47238E+01 1.25571E+01 0.00000E+00
 -1      2148 7.55643E+01 1.21743E+01 0.00000E+00
 -1      2149 7.30365E+01 1.35519E+01 0.00000E+00
 -1      2150 7.37876E+01 1.30372E+01 0.00000E+00
 -1      2151 7.17166E+01 1.50052E+01 0.00000E+00
 -1      2152 7.22818E+01 1.43404E+01 0.00000E+00
 -1      2153 7.07208E+01 1.65378E+01 0.00000E+00
 -1      2154 7.12187E+01 1.57715E+01 0.00000E+00
 -1      2155 7.09437E+01 1.49650E+01 0.00000E+00
 -1      2156 6.99859E+01 1.85593E+01 0.00000E+00
 -1      2157 7.01518E+01 1.76561E+01 0.00000E+00
 -1      2158 6.98388E+01 2.04334E+01 0.00000E+00
 -1      2159 6.98451E+01 1.95743E+01 0.00000E+00
 -1      2160 6.99585E+01 2.22083E+01 0.00000E+00
 -1      2161 6.98986E+01 2.13209E+01 0.00000E+00
 -1      2162 6.90862E+01 2.08853E+01 0.00000E+00
 -1      2163 7.06779E+01 2.41894E+01 0.00000E+00
 -1      2164 7.02785E+01 2.33896E+01 0.00000E+00
 -1      2165 7.17644E+01 2.56960E+01 0.00000E+00
 -1      2166 7.12760E+01 2.49686E+01 0.00000E+00
 -1      2167 7.28293E+01 2.72516E+01 0.00000E+00
 -1      2168 7.22698E+01 2.64881E+01 0.00000E+00
 -1      2169 7.46768E+01 2.84146E+01 0.00000E+00
 -1      2170 7.38200E+01 2.80440E+01 0.00000E+00
 -1      2171 7.64262E+01 2.92780E+01 0.00000E+00
 -1      2172 7.55217E+01 2.89068E+01 0.00000E+00
 -1      2173 7.86819E+01 2.94623E+01 0.00000E+00
 -1      2174 7.77090E+01 2.95034E+01 0.00000E+00
 -1      2175 8.05105E+01 2.91255E+01 0.00000E+00
 -1      2176 7.96584E+01 2.92483E+01 0.00000E+00
 -1      2177 8.23221E+01 2.87646E+01 0.00000E+00
 -1      2178 8.14978E+01 2.90271E+01 0.00000E+00
 -1      2179 8.39499E+01 2.78032E+01 0.00000E+00
 -1      2180 8.32335E+01 2.82520E+01 0.00000E+00
 -1      2181 8.52737E+01 2.66171E+01 0.00000E+00
 -1      2182 8.46890E+01 2.71770E+01 0.00000E+00
 -1      2183 8.64259E+01 2.52730E+01 0.00000E+00
 -1      2184 8.59578E+01 2.59450E+01 0.00000E+00
 -1      2185 8.71046E+01 2.35853E+01 0.00000E+00
 -1      2186 8.68153E+01 2.43537E+01 0.00000E+00
 -1      2187 8.76119E+01 2.19669E+01 0.00000E+00
 -1      2188 8.73582E+01 2.27761E+01 0.00000E+00
 -1      2189 8.78593E+01 2.34034E+01 0.00000E+00
 -1      2190 8.23802E+01 1.23924E+01 0.00000E+00
 -1      2191 8.31862E+01 1.27969E+01 0.00000E+00
 -1      2192 8.57487E+01 1.37848E+01 0.00000E+00
 -1      2193 6.42300E+00 4.57510E+01 0.00000E+00
 -1      2194 8.22839E+01 1.14131E+01 0.00000E+00
 -1      2195 7.17300E+00 4.44520E+01 0.00000E+00
 -1      2196 8.78428E+01 1.72197E+01 0.00000E+00
 -1      2197 8.84498E+01 1.93446E+01 0.00000E+00
 -1      2198 1.45665E+02 4.31193E+01 0.00000E+00
 -1      2199 8.84439E+01 2.15361E+01 0.00000E+00
 -1      2200 8.40058E+01 1.24216E+01 0.00000E+00
 -1      2201 8.72163E+01 2.51319E+01 0.00000E+00
 -1      2202 8.61427E+01 2.67233E+01 0.00000E+00
 -1      2203 8.47194E+01 2.80216E+01 0.00000E+00
 -1      2204 8.30689E+01 2.91604E+01 0.00000E+00
 -1      2205 8.11702E+01 2.97715E+01 0.00000E+00
 -1      2206 7.92064E+01 3.00838E+01 0.00000E+00
 -1      2207 7.69471E+01 3.00724E+01 0.00000E+00
 -1      2208 7.48193E+01 2.93548E+01 0.00000E+00
 -1      2209 7.29837E+01 2.80701E+01 0.00000E+00
 -1      2210 7.21475E+01 2.80963E+01 0.00000E+00
 -1      2211 7.31382E+01 2.88887E+01 0.00000E+00
 -1      2212 7.14875E+01 2.64856E+01 0.00000E+00
 -1      2213 6.94660E+01 2.29540E+01 0.00000E+00
 -1      2214 6.98768E+01 1.68496E+01 0.00000E+00
 -1      2215 6.96018E+01 1.60432E+01 0.00000E+00
 -1      2216 6.90328E+01 1.71614E+01 0.00000E+00
 -1      2217 7.21963E+01 1.34102E+01 0.00000E+00
 -1      2218 7.38872E+01 1.21416E+01 0.00000E+00
 -1      2219 7.57810E+01 1.13423E+01 0.00000E+00
 -1      2220 8.01761E+01 1.08242E+01 0.00000E+00
 -1      2221 8.09632E+01 1.02337E+01 0.00000E+00
 -1      2222 7.96643E+01 1.02097E+01 0.00000E+00
 -1      2223 7.78078E+01 1.09116E+01 0.00000E+00
 -1      2224 6.91671E+01 1.89828E+01 0.00000E+00
 -1      2225 7.03840E+01 2.49144E+01 0.00000E+00
 -1      2226 1.07850E+01 5.30525E+00 0.00000E+00
 -1      2227 9.28500E+00 5.30525E+00 0.00000E+00
 -1      2228 6.49500E+00 3.01125E+01 0.00000E+00
 -1      2229 6.49500E+00 3.15875E+01 0.00000E+00
 -1      2230 6.49500E+00 3.30625E+01 0.00000E+00
 -1      2231 6.49500E+00 3.45375E+01 0.00000E+00
 -1      2232 7.79400E+00 3.23250E+01 0.00000E+00
 -1      2233 6.49500E+00 2.42125E+01 0.00000E+00
 -1      2234 6.49500E+00 2.56875E+01 0.00000E+00
 -1      2235 6.49500E+00 2.12625E+01 0.00000E+00
 -1      2236 6.49500E+00 2.27375E+01 0.00000E+00
 -1      2237 7.79400E+00 2.34750E+01 0.00000E+00
 -1      2238 6.49500E+00 1.83625E+01 0.00000E+00
 -1      2239 6.49500E+00 1.98125E+01 0.00000E+00
 -1      2240 7.79400E+00 2.05500E+01 0.00000E+00
 -1      2241 6.49500E+00 1.54125E+01 0.00000E+00
 -1      2242 6.49500E+00 1.68875E+01 0.00000E+00
 -1      2243 7.79400E+00 1.76250E+01 0.00000E+00
 -1      2244 6.49500E+00 1.24625E+01 0.00000E+00
 -1      2245 6.49500E+00 1.39375E+01 0.00000E+00
 -1      2246 7.79400E+00 1.46750E+01 0.00000E+00
 -1      2247 6.49500E+00 9.51250E+00 0.00000E+00
 -1      2248 6.49500E+00 1.09875E+01 0.00000E+00
 -1      2249 7.79400E+00 1.17250E+01 0.00000E+00
 -1      2250 1.37850E+01 5.30525E+00 0.00000E+00
 -1      2251 1.22850E+01 5.30525E+00 0.00000E+00
 -1      2252 1.15350E+01 6.60425E+00 0.00000E+00
 -1      2253 9.90000E+00 4.35050E+01 0.00000E+00
 -1      2254 1.14000E+01 4.35050E+01 0.00000E+00
 -1      2255 8.23705E+01 1.04276E+01 0.00000E+00
 -1      2256 8.31793E+01 1.09925E+01 0.00000E+00
 -1      2257 1.29000E+01 4.35050E+01 0.00000E+00
 -1      2258 1.44000E+01 4.35050E+01 0.00000E+00
 -1      2259 1.21500E+01 4.22060E+01 0.00000E+00
 -1      2260 1.59000E+01 4.35050E+01 0.00000E+00
 -1      2261 1.74000E+01 4.35050E+01 0.00000E+00
 -1      2262 1.51500E+01 4.22060E+01 0.00000E+00
 -1      2263 1.89000E+01 4.35050E+01 0.00000E+00
 -1      2264 2.04000E+01 4.35050E+01 0.00000E+00
 -1      2265 1.81500E+01 4.22060E+01 0.00000E+00
 -1      2266 2.19000E+01 4.35050E+01 0.00000E+00
 -1      2267 2.34000E+01 4.35050E+01 0.00000E+00
 -1      2268 2.11500E+01 4.22060E+01 0.00000E+00
 -1      2269 2.49000E+01 4.35050E+01 0.00000E+00
 -1      2270 2.64000E+01 4.35050E+01 0.00000E+00
 -1      2271 2.41500E+01 4.22060E+01 0.00000E+00
 -1      2272 2.79000E+01 4.35050E+01 0.00000E+00
 -1      2273 2.94000E+01 4.35050E+01 0.00000E+00
 -1      2274 2.71500E+01 4.22060E+01 0.00000E+00
 -1      2275 3.09000E+01 4.35050E+01 0.00000E+00
 -1      2276 3.24000E+01 4.35050E+01 0.00000E+00
 -1      2277 3.01500E+01 4.22060E+01 0.00000E+00
 -1      2278 3.39000E+01 4.35050E+01 0.00000E+00
 -1      2279 3.54000E+01 4.35050E+01 0.00000E+00
 -1      2280 3.31500E+01 4.22060E+01 0.00000E+00
 -1      2281 3.69000E+01 4.35050E+01 0.00000E+00
 -1      2282 3.84000E+01 4.35050E+01 0.00000E+00
 -1      2283 3.61500E+01 4.22060E+01 0.00000E+00
 -1      2284 3.99000E+01 4.35050E+01 0.00000E+00
 -1      2285 4.14000E+01 4.35050E+01 0.00000E+00
 -1      2286 3.91500E+01 4.22060E+01 0.00000E+00
 -1      2287 4.29000E+01 4.35050E+01 0.00000E+00
 -1      2288 4.44000E+01 4.35050E+01 0.00000E+00
 -1      2289 4.21500E+01 4.22060E+01 0.00000E+00
 -1      2290 4.59000E+01 4.35050E+01 0.00000E+00
 -1      2291 4.74000E+01 4.35050E+01 0.00000E+00
 -1      2292 4.51500E+01 4.22060E+01 0.00000E+00
 -1      2293 4.89000E+01 4.35050E+01 0.00000E+00
 -1      2294 5.04000E+01 4.35050E+01 0.00000E+00
 -1      2295 4.81500E+01 4.22060E+01 0.00000E+00
 -1      2296 5.19000E+01 4.35050E+01 0.00000E+00
 -1      2297 5.34000E+01 4.35050E+01 0.00000E+00
 -1      2298 5.11500E+01 4.22060E+01 0.00000E+00
 -1      2299 5.49000E+01 4.35050E+01 0.00000E+00
 -1      2300 5.64000E+01 4.35050E+01 0.00000E+00
 -1      2301 5.41500E+01 4.22060E+01 0.00000E+00
 -1      2302 5.79000E+01 4.35050E+01 0.00000E+00
 -1      2303 5.94000E+01 4.35050E+01 0.00000E+00
 -1      2304 5.71500E+01 4.22060E+01 0.00000E+00
 -1      2305 6.09000E+01 4.35050E+01 0.00000E+00
 -1      2306 6.24000E+01 4.35050E+01 0.00000E+00
 -1      2307 6.01500E+01 4.22060E+01 0.00000E+00
 -1      2308 6.39000E+01 4.35050E+01 0.00000E+00
 -1      2309 6.54000E+01 4.35050E+01 0.00000E+00
 -1      2310 6.31500E+01 4.22060E+01 0.00000E+00
 -1      2311 6.69000E+01 4.35050E+01 0.00000E+00
 -1      2312 6.84000E+01 4.35050E+01 0.00000E+00
 -1      2313 6.61500E+01 4.22060E+01 0.00000E+00
 -1      2314 6.99000E+01 4.35050E+01 0.00000E+00
 -1      2315 7.14000E+01 4.35050E+01 0.00000E+00
 -1      2316 6.91500E+01 4.22060E+01 0.00000E+00
 -1      2317 7.29000E+01 4.35050E+01 0.00000E+00
 -1      2318 7.44000E+01 4.35050E+01 0.00000E+00
 -1      2319 7.21500E+01 4.22060E+01 0.00000E+00
 -1      2320 7.59000E+01 4.35050E+01 0.00000E+00
 -1      2321 7.74000E+01 4.35050E+01 0.00000E+00
 -1      2322 7.51500E+01 4.22060E+01 0.00000E+00
 -1      2323 7.89000E+01 4.35050E+01 0.00000E+00
 -1      2324 8.04000E+01 4.35050E+01 0.00000E+00
 -1      2325 7.81500E+01 4.22060E+01 0.00000E+00
 -1      2326 8.19000E+01 4.35050E+01 0.00000E+00
 -1      2327 8.34000E+01 4.35050E+01 0.00000E+00
 -1      2328 8.11500E+01 4.22060E+01 0.00000E+00
 -1      2329 8.49000E+01 4.35050E+01 0.00000E+00
 -1      2330 8.64000E+01 4.35050E+01 0.00000E+00
 -1      2331 8.41500E+01 4.22060E+01 0.00000E+00
 -1      2332 8.79000E+01 4.35050E+01 0.00000E+00
 -1      2333 8.94000E+01 4.35050E+01 0.00000E+00
 -1      2334 8.71500E+01 4.22060E+01 0.00000E+00
 -1      2335 9.09000E+01 4.35050E+01 0.00000E+00
 -1      2336 9.24000E+01 4.35050E+01 0.00000E+00
 -1      2337 9.01500E+01 4.22060E+01 0.00000E+00
 -1      2338 9.39000E+01 4.35050E+01 0.00000E+00
 -1      2339 9.54000E+01 4.35050E+01 0.00000E+00
 -1      2340 9.31500E+01 4.22060E+01 0.00000E+00
 -1      2341 9.69000E+01 4.35050E+01 0.00000E+00
 -1      2342 9.84000E+01 4.35050E+01 0.00000E+00
 -1      2343 9.61500E+01 4.22060E+01 0.00000E+00
 -1      2344 9.99000E+01 4.35050E+01 0.00000E+00
 -1      2345 1.01400E+02 4.35050E+01 0.00000E+00
 -1      2346 9.91500E+01 4.22060E+01 0.00000E+00
 -1      2347 1.02900E+02 4.35050E+01 0.00000E+00
 -1      2348 1.04400E+02 4.35050E+01 0.00000E+00
 -1      2349 1.02150E+02 4.22060E+01 0.00000E+00
 -1      2350 1.05900E+02 4.35050E+01 0.00000E+00
 -1      2351 1.07400E+02 4.35050E+01 0.00000E+00
 -1      2352 1.05150E+02 4.22060E+01 0.00000E+00
 -1      2353 1.08900E+02 4.35050E+01 0.00000E+00
 -1      2354 1.10400E+02 4.35050E+01 0.00000E+00
 -1      2355 1.08150E+02 4.22060E+01 0.00000E+00
 -1      2356 1.11900E+02 4.35050E+01 0.00000E+00
 -1      2357 1.13400E+02 4.35050E+01 0.00000E+00
 -1      2358 1.11150E+02 4.22060E+01 0.00000E+00
 -1      2359 1.14900E+02 4.35050E+01 0.00000E+00
 -1      2360 1.16400E+02 4.35050E+01 0.00000E+00
 -1      2361 1.14150E+02 4.22060E+01 0.00000E+00
 -1      2362 1.17900E+02 4.35050E+01 0.00000E+00
 -1      2363 1.19400E+02 4.35050E+01 0.00000E+00
 -1      2364 1.17150E+02 4.22060E+01 0.00000E+00
 -1      2365 1.20900E+02 4.35050E+01 0.00000E+00
 -1      2366 1.22400E+02 4.35050E+01 0.00000E+00
 -1      2367 1.20150E+02 4.22060E+01 0.00000E+00
 -1      2368 1.23900E+02 4.35050E+01 0.00000E+00
 -1      2369 1.25400E+02 4.35050E+01 0.00000E+00
 -1      2370 1.23150E+02 4.22060E+01 0.00000E+00
 -1      2371 1.26900E+02 4.35050E+01 0.00000E+00
 -1      2372 1.28400E+02 4.35050E+01 0.00000E+00
 -1      2373 1.26150E+02 4.22060E+01 0.00000E+00
 -1      2374 1.29900E+02 4.35050E+01 0.00000E+00
 -1      2375 1.31400E+02 4.35050E+01 0.00000E+00
 -1      2376 1.29150E+02 4.22060E+01 0.00000E+00
 -1      2377 1.32900E+02 4.35050E+01 0.00000E+00
 -1      2378 1.34400E+02 4.35050E+01 0.00000E+00
 -1      2379 1.32150E+02 4.22060E+01 0.00000E+00
 -1      2380 1.35900E+02 4.35050E+01 0.00000E+00
 -1      2381 1.37400E+02 4.35050E+01 0.00000E+00
 -1      2382 1.35150E+02 4.22060E+01 0.00000E+00
 -1      2383 1.38900E+02 4.35050E+01 0.00000E+00
 -1      2384 1.40400E+02 4.35050E+01 0.00000E+00
 -1      2385 1.38150E+02 4.22060E+01 0.00000E+00
 -1      2386 1.97850E+01 5.30525E+00 0.00000E+00
 -1      2387 1.82850E+01 5.30525E+00 0.00000E+00
 -1      2388 2.27850E+01 5.30525E+00 0.00000E+00
 -1      2389 2.12850E+01 5.30525E+00 0.00000E+00
 -1      2390 2.05350E+01 6.60425E+00 0.00000E+00
 -1      2391 2.57850E+01 5.30525E+00 0.00000E+00
 -1      2392 2.42850E+01 5.30525E+00 0.00000E+00
 -1      2393 2.35350E+01 6.60425E+00 0.00000E+00
 -1      2394 2.87850E+01 5.30525E+00 0.00000E+00
 -1      2395 2.72850E+01 5.30525E+00 0.00000E+00
 -1      2396 2.65350E+01 6.60425E+00 0.00000E+00
 -1      2397 3.17850E+01 5.30525E+00 0.00000E+00
 -1      2398 3.02850E+01 5.30525E+00 0.00000E+00
 -1      2399 2.95350E+01 6.60425E+00 0.00000E+00
 -1      2400 3.47850E+01 5.30525E+00 0.00000E+00
 -1      2401 3.32850E+01 5.30525E+00 0.00000E+00
 -1      2402 3.25350E+01 6.60425E+00 0.00000E+00
 -1      2403 3.77850E+01 5.30525E+00 0.00000E+00
 -1      2404 3.62850E+01 5.30525E+00 0.00000E+00
 -1      2405 3.55350E+01 6.60425E+00 0.00000E+00
 -1      2406 4.07850E+01 5.30525E+00 0.00000E+00
 -1      2407 3.92850E+01 5.30525E+00 0.00000E+00
 -1      2408 3.85350E+01 6.60425E+00 0.00000E+00
 -1      2409 4.37850E+01 5.30525E+00 0.00000E+00
 -1      2410 4.22850E+01 5.30525E+00 0.00000E+00
 -1      2411 4.15350E+01 6.60425E+00 0.00000E+00
 -1      2412 4.67850E+01 5.30525E+00 0.00000E+00
 -1      2413 4.52850E+01 5.30525E+00 0.00000E+00
 -1      2414 4.45350E+01 6.60425E+00 0.00000E+00
 -1      2415 4.97850E+01 5.30525E+00 0.00000E+00
 -1      2416 4.82850E+01 5.30525E+00 0.00000E+00
 -1      2417 4.75350E+01 6.60425E+00 0.00000E+00
 -1      2418 5.27850E+01 5.30525E+00 0.00000E+00
 -1      2419 5.12850E+01 5.30525E+00 0.00000E+00
 -1      2420 5.05350E+01 6.60425E+00 0.00000E+00
 -1      2421 5.57850E+01 5.30525E+00 0.00000E+00
 -1      2422 5.42850E+01 5.30525E+00 0.00000E+00
 -1      2423 5.35350E+01 6.60425E+00 0.00000E+00
 -1      2424 5.87850E+01 5.30525E+00 0.00000E+00
 -1      2425 5.72850E+01 5.30525E+00 0.00000E+00
 -1      2426 5.65350E+01 6.60425E+00 0.00000E+00
 -1      2427 6.17850E+01 5.30525E+00 0.00000E+00
 -1      2428 6.02850E+01 5.30525E+00 0.00000E+00
 -1      2429 5.95350E+01 6.60425E+00 0.00000E+00
 -1      2430 6.47850E+01 5.30525E+00 0.00000E+00
 -1      2431 6.32850E+01 5.30525E+00 0.00000E+00
 -1      2432 6.25350E+01 6.60425E+00 0.00000E+00
 -1      2433 6.77850E+01 5.30525E+00 0.00000E+00
 -1      2434 6.62850E+01 5.30525E+00 0.00000E+00
 -1      2435 6.55350E+01 6.60425E+00 0.00000E+00
 -1      2436 7.07850E+01 5.30525E+00 0.00000E+00
 -1      2437 6.92850E+01 5.30525E+00 0.00000E+00
 -1      2438 6.85350E+01 6.60425E+00 0.00000E+00
 -1      2439 7.37850E+01 5.30525E+00 0.00000E+00
 -1      2440 7.22850E+01 5.30525E+00 0.00000E+00
 -1      2441 7.15350E+01 6.60425E+00 0.00000E+00
 -1      2442 7.67850E+01 5.30525E+00 0.00000E+00
 -1      2443 7.52850E+01 5.30525E+00 0.00000E+00
 -1      2444 7.45350E+01 6.60425E+00 0.00000E+00
 -1      2445 7.97850E+01 5.30525E+00 0.00000E+00
 -1      2446 7.82850E+01 5.30525E+00 0.00000E+00
 -1      2447 7.75350E+01 6.60425E+00 0.00000E+00
 -1      2448 8.27850E+01 5.30525E+00 0.00000E+00
 -1      2449 8.12850E+01 5.30525E+00 0.00000E+00
 -1      2450 8.05350E+01 6.60425E+00 0.00000E+00
 -1      2451 8.57850E+01 5.30525E+00 0.00000E+00
 -1      2452 8.42850E+01 5.30525E+00 0.00000E+00
 -1      2453 8.35350E+01 6.60425E+00 0.00000E+00
 -1      2454 8.87850E+01 5.30525E+00 0.00000E+00
 -1      2455 8.72850E+01 5.30525E+00 0.00000E+00
 -1      2456 8.65350E+01 6.60425E+00 0.00000E+00
 -1      2457 9.17850E+01 5.30525E+00 0.00000E+00
 -1      2458 9.02850E+01 5.30525E+00 0.00000E+00
 -1      2459 8.95350E+01 6.60425E+00 0.00000E+00
 -1      2460 9.47850E+01 5.30525E+00 0.00000E+00
 -1      2461 9.32850E+01 5.30525E+00 0.00000E+00
 -1      2462 9.25350E+01 6.60425E+00 0.00000E+00
 -1      2463 9.77850E+01 5.30525E+00 0.00000E+00
 -1      2464 9.62850E+01 5.30525E+00 0.00000E+00
 -1      2465 9.55350E+01 6.60425E+00 0.00000E+00
 -1      2466 1.00785E+02 5.30525E+00 0.00000E+00
 -1      2467 9.92850E+01 5.30525E+00 0.00000E+00
 -1      2468 9.85350E+01 6.60425E+00 0.00000E+00
 -1      2469 1.03785E+02 5.30525E+00 0.00000E+00
 -1      2470 1.02285E+02 5.30525E+00 0.00000E+00
 -1      2471 1.01535E+02 6.60425E+00 0.00000E+00
 -1      2472 1.06785E+02 5.30525E+00 0.00000E+00
 -1      2473 1.05285E+02 5.30525E+00 0.00000E+00
 -1      2474 1.04535E+02 6.60425E+00 0.00000E+00
 -1      2475 1.09785E+02 5.30525E+00 0.00000E+00
 -1      2476 1.08285E+02 5.30525E+00 0.00000E+00
 -1      2477 1.07535E+02 6.60425E+00 0.00000E+00
 -1      2478 1.12785E+02 5.30525E+00 0.00000E+00
 -1      2479 1.11285E+02 5.30525E+00 0.00000E+00
 -1      2480 1.10535E+02 6.60425E+00 0.00000E+00
 -1      2481 1.15785E+02 5.30525E+00 0.00000E+00
 -1      2482 1.14285E+02 5.30525E+00 0.00000E+00
 -1      2483 1.13535E+02 6.60425E+00 0.00000E+00
 -1      2484 1.18785E+02 5.30525E+00 0.00000E+00
 -1      2485 1.17285E+02 5.30525E+00 0.00000E+00
 -1      2486 1.16535E+02 6.60425E+00 0.00000E+00
 -1      2487 1.21785E+02 5.30525E+00 0.00000E+00
 -1      2488 1.20285E+02 5.30525E+00 0.00000E+00
 -1      2489 1.19535E+02 6.60425E+00 0.00000E+00
 -1      2490 1.24785E+02 5.30525E+00 0.00000E+00
 -1      2491 1.23285E+02 5.30525E+00 0.00000E+00
 -1      2492 1.22535E+02 6.60425E+00 0.00000E+00
 -1      2493 1.27785E+02 5.30525E+00 0.00000E+00
 -1      2494 1.26285E+02 5.30525E+00 0.00000E+00
 -1      2495 1.25535E+02 6.60425E+00 0.00000E+00
 -1      2496 1.30785E+02 5.30525E+00 0.00000E+00
 -1      2497 1.29285E+02 5.30525E+00 0.00000E+00
 -1      2498 1.28535E+02 6.60425E+00 0.00000E+00
 -1      2499 1.33785E+02 5.30525E+00 0.00000E+00
 -1      2500 1.32285E+02 5.30525E+00 0.00000E+00
 -1      2501 1.31535E+02 6.60425E+00 0.00000E+00
 -1      2502 1.36785E+02 5.30525E+00 0.00000E+00
 -1      2503 1.35285E+02 5.30525E+00 0.00000E+00
 -1      2504 1.34535E+02 6.60425E+00 0.00000E+00
 -1      2505 1.39785E+02 5.30525E+00 0.00000E+00
 -1      2506 1.38285E+02 5.30525E+00 0.00000E+00
 -1      2507 1.37535E+02 6.60425E+00 0.00000E+00
 -1      2508 1.42785E+02 5.30525E+00 0.00000E+00
 -1      2509 1.41285E+02 5.30525E+00 0.00000E+00
 -1      2510 1.40535E+02 6.60425E+00 0.00000E+00
 -1      2511 1.44336E+02 5.26953E+00 0.00000E+00
 -1      2512 1.43505E+02 1.69125E+01 0.00000E+00
 -1      2513 1.43505E+02 1.54375E+01 0.00000E+00
 -1      2514 1.43505E+02 1.98625E+01 0.00000E+00
 -1      2515 1.43505E+02 1.83875E+01 0.00000E+00
 -1      2516 1.42206E+02 1.76500E+01 0.00000E+00
 -1      2517 1.43505E+02 1.10625E+01 0.00000E+00
 -1      2518 1.43505E+02 9.58750E+00 0.00000E+00
 -1      2519 1.43505E+02 1.39750E+01 0.00000E+00
 -1      2520 1.43505E+02 1.25250E+01 0.00000E+00
 -1      2521 1.42206E+02 1.17875E+01 0.00000E+00
 -1      2522 1.42206E+02 1.47125E+01 0.00000E+00
 -1      2523 1.43505E+02 2.28125E+01 0.00000E+00
 -1      2524 1.43505E+02 2.13375E+01 0.00000E+00
 -1      2525 1.42206E+02 2.06000E+01 0.00000E+00
 -1      2526 1.43505E+02 2.57625E+01 0.00000E+00
 -1      2527 1.43505E+02 2.42875E+01 0.00000E+00
 -1      2528 1.42206E+02 2.35500E+01 0.00000E+00
 -1      2529 1.43505E+02 2.87125E+01 0.00000E+00
 -1      2530 1.43505E+02 2.72375E+01 0.00000E+00
 -1      2531 1.42206E+02 2.65000E+01 0.00000E+00
 -1      2532 1.43505E+02 3.16125E+01 0.00000E+00
 -1      2533 1.43505E+02 3.01625E+01 0.00000E+00
 -1      2534 1.42206E+02 2.94250E+01 0.00000E+00
 -1      2535 1.43505E+02 3.45625E+01 0.00000E+00
 -1      2536 1.43505E+02 3.30875E+01 0.00000E+00
 -1      2537 1.42206E+02 3.23500E+01 0.00000E+00
 -1      2538 1.43505E+02 3.75125E+01 0.00000E+00
 -1      2539 1.43505E+02 3.60375E+01 0.00000E+00
 -1      2540 1.42206E+02 3.53000E+01 0.00000E+00
 -1      2541 1.43505E+02 4.04625E+01 0.00000E+00
 -1      2542 1.43505E+02 3.89875E+01 0.00000E+00
 -1      2543 1.42206E+02 3.82500E+01 0.00000E+00
 -1      2544 8.90311E+01 1.85646E+01 0.00000E+00
 -1      2545 8.93561E+01 1.96981E+01 0.00000E+00
 -1      2546 8.85267E+01 1.64894E+01 0.00000E+00
 -1      2547 8.88086E+01 1.74808E+01 0.00000E+00
 -1      2548 8.93479E+01 2.12381E+01 0.00000E+00
 -1      2549 8.90169E+01 2.22962E+01 0.00000E+00
 -1      2550 1.67850E+01 5.30525E+00 0.00000E+00
 -1      2551 1.52850E+01 5.30525E+00 0.00000E+00
 -1      2552 1.75350E+01 6.60425E+00 0.00000E+00
 -1      2553 1.44321E+02 4.30606E+01 0.00000E+00
 -1      2554 8.74392E+01 1.46887E+01 0.00000E+00
 -1      2555 8.79304E+01 1.54507E+01 0.00000E+00
 -1      2556 8.40924E+01 1.14361E+01 0.00000E+00
 -1      2557 8.50055E+01 1.18798E+01 0.00000E+00
 -1      2558 8.41790E+01 1.04506E+01 0.00000E+00
 -1      2559 8.80849E+01 2.49577E+01 0.00000E+00
 -1      2560 8.76954E+01 2.58770E+01 0.00000E+00
 -1      2561 7.11994E+01 1.32115E+01 0.00000E+00
 -1      2562 7.19541E+01 1.24230E+01 0.00000E+00
 -1      2563 6.49500E+00 2.71625E+01 0.00000E+00
 -1      2564 6.49500E+00 2.86375E+01 0.00000E+00
 -1      2565 7.79400E+00 2.93750E+01 0.00000E+00
 -1      2566 7.79400E+00 2.64250E+01 0.00000E+00
 -1      2567 7.71973E+01 1.02393E+01 0.00000E+00
 -1      2568 7.82666E+01 1.01280E+01 0.00000E+00
 -1      2569 6.82888E+01 1.93783E+01 0.00000E+00
 -1      2570 6.84295E+01 1.83633E+01 0.00000E+00
 -1      2571 7.50442E+01 1.07281E+01 0.00000E+00
 -1      2572 7.60017E+01 1.04088E+01 0.00000E+00
 -1      2573 7.30278E+01 1.16186E+01 0.00000E+00
 -1      2574 7.39640E+01 1.11385E+01 0.00000E+00
 -1      2575 7.00459E+01 1.49266E+01 0.00000E+00
 -1      2576 7.05438E+01 1.41603E+01 0.00000E+00
 -1      2577 6.99363E+01 2.58771E+01 0.00000E+00
 -1      2578 6.93383E+01 2.50980E+01 0.00000E+00
 -1      2579 6.82605E+01 2.13867E+01 0.00000E+00
 -1      2580 6.82006E+01 2.04992E+01 0.00000E+00
 -1      2581 6.87982E+01 2.37688E+01 0.00000E+00
 -1      2582 6.84783E+01 2.25876E+01 0.00000E+00
 -1      2583 7.09473E+01 2.74613E+01 0.00000E+00
 -1      2584 7.04418E+01 2.66692E+01 0.00000E+00
 -1      2585 6.93960E+01 2.68528E+01 0.00000E+00
 -1      2586 7.48312E+01 3.03057E+01 0.00000E+00
 -1      2587 7.39863E+01 2.98135E+01 0.00000E+00
 -1      2588 7.74401E+01 3.10297E+01 0.00000E+00
 -1      2589 7.61573E+01 3.08043E+01 0.00000E+00
 -1      2590 7.98961E+01 3.08963E+01 0.00000E+00
 -1      2591 7.89197E+01 3.11103E+01 0.00000E+00
 -1      2592 8.18707E+01 3.06996E+01 0.00000E+00
 -1      2593 8.08834E+01 3.07980E+01 0.00000E+00
 -1      2594 8.05967E+01 3.18245E+01 0.00000E+00
 -1      2595 8.39450E+01 2.96515E+01 0.00000E+00
 -1      2596 8.30336E+01 3.01642E+01 0.00000E+00
 -1      2597 8.56162E+01 2.83309E+01 0.00000E+00
 -1      2598 8.48771E+01 2.89571E+01 0.00000E+00
 -1      2599 8.69845E+01 2.69866E+01 0.00000E+00
 -1      2600 8.63004E+01 2.76588E+01 0.00000E+00
 -1      2601 8.64580E+01 2.85942E+01 0.00000E+00
 -1      2602 8.87633E+01 2.31054E+01 0.00000E+00
 -1      2603 8.85097E+01 2.39146E+01 0.00000E+00
 -1      2604 8.96673E+01 2.28074E+01 0.00000E+00
 -1      2605 6.55950E+00 4.28890E+01 0.00000E+00
 -1      2606 8.53650E+00 4.32410E+01 0.00000E+00
 -1      2607 9.28650E+00 4.19420E+01 0.00000E+00
 -1      2608 6.55950E+00 4.14140E+01 0.00000E+00
 -1      2609 8.07525E+00 5.11044E+00 0.00000E+00
 -1      2610 6.57525E+00 5.11044E+00 0.00000E+00
 -1      2611 6.40575E+00 6.01981E+00 0.00000E+00
 -1      2612 8.82525E+00 6.40944E+00 0.00000E+00
 -1      2613 8.59082E+01 1.28067E+01 0.00000E+00
 -1      2614 8.67380E+01 1.37261E+01 0.00000E+00
 -1      2615 7.90538E+01 9.53746E+00 0.00000E+00
 -1      2616 7.79400E+00 3.52687E+01 0.00000E+00
 -1      2617 6.49500E+00 3.60062E+01 0.00000E+00
 -1      2618 6.49500E+00 3.74750E+01 0.00000E+00
 -1      2619 1.45350E+01 6.60425E+00 0.00000E+00
 -1      2620 6.40575E+00 7.49481E+00 0.00000E+00
 -1      2621 8.59949E+01 1.18212E+01 0.00000E+00
 -1      2622 8.78531E+01 2.68125E+01 0.00000E+00
 -1      2623 8.80108E+01 2.77479E+01 0.00000E+00
 -1      2624 8.87217E+01 2.66383E+01 0.00000E+00
 -1      2625 8.89889E+01 2.46598E+01 0.00000E+00
 -1      2626 8.27468E+01 3.11907E+01 0.00000E+00
 -1      2627 8.88962E+01 1.57119E+01 0.00000E+00
 -1      2628 1.43586E+02 6.56853E+00 0.00000E+00
 -1      2629 1.43419E+02 7.72713E+00 0.00000E+00
 -1      2630 7.81298E+01 3.18422E+01 0.00000E+00
 -1      2631 9.05104E+01 1.96780E+01 0.00000E+00
 -1      2632 8.99291E+01 2.04581E+01 0.00000E+00
 -1      2633 9.05021E+01 2.12181E+01 0.00000E+00
 -1      2634 8.97149E+01 1.78343E+01 0.00000E+00
 -1      2635 7.11017E+01 2.82799E+01 0.00000E+00
 -1      2636 7.00560E+01 2.84635E+01 0.00000E+00
 -1      2637 7.12562E+01 2.90984E+01 0.00000E+00
 -1      2638 7.70475E+00 8.23231E+00 0.00000E+00
 -1      2639 6.83506E+01 2.47316E+01 0.00000E+00
 -1      2640 8.75987E+01 1.37106E+01 0.00000E+00
 -1      2641 6.75927E+01 2.22016E+01 0.00000E+00
 -1      2642 7.20309E+01 1.14199E+01 0.00000E+00
 -1      2643 7.31500E+01 2.98396E+01 0.00000E+00
 -1      2644 6.92019E+01 1.52384E+01 0.00000E+00
 -1      2645 7.41848E+01 1.02051E+01 0.00000E+00
 -1      2646 7.03016E+01 1.31731E+01 0.00000E+00
 -1      2647 6.81545E+01 1.75569E+01 0.00000E+00
 -1      2648 6.78796E+01 1.67504E+01 0.00000E+00
 -1      2649 6.72762E+01 1.79523E+01 0.00000E+00
 -1      2650 8.18587E+01 9.81308E+00 0.00000E+00
 -1      2651 8.27541E+01 9.39245E+00 0.00000E+00
 -1      2652 8.13468E+01 9.19856E+00 0.00000E+00
 -1      2653 6.74631E+01 1.98797E+01 0.00000E+00
 -1      2654 6.52725E+00 3.87101E+01 0.00000E+00
 -1      2655 6.52725E+00 4.01789E+01 0.00000E+00
 -1      2656 7.89075E+00 4.04429E+01 0.00000E+00
 -1      2657 7.82625E+00 3.79726E+01 0.00000E+00
 -1      2658 7.64606E+01 9.62521E+00 0.00000E+00
 -1      2659 1.42758E+02 4.35929E+01 0.00000E+00
 -1      2660 1.43241E+02 4.17323E+01 0.00000E+00
 -1      2661 1.41942E+02 4.09948E+01 0.00000E+00
 -1      2662 1.41414E+02 4.35342E+01 0.00000E+00
 -1      2663 7.53242E+01 3.12630E+01 0.00000E+00
 -1      2664 8.48418E+01 2.99608E+01 0.00000E+00
 -1      2665 1.42120E+02 8.46463E+00 0.00000E+00
 -1      2666 1.40664E+02 4.22352E+01 0.00000E+00
 -1      2667 9.09300E+00 1.98250E+01 0.00000E+00
 -1      2668 9.09300E+00 2.12750E+01 0.00000E+00
 -1      2669 9.09300E+00 2.27500E+01 0.00000E+00
 -1      2670 9.09300E+00 2.42250E+01 0.00000E+00
 -1      2671 1.03920E+01 2.20250E+01 0.00000E+00
 -1      2672 9.09300E+00 1.39375E+01 0.00000E+00
 -1      2673 9.09300E+00 1.54125E+01 0.00000E+00
 -1      2674 9.09300E+00 1.09875E+01 0.00000E+00
 -1      2675 9.09300E+00 1.24625E+01 0.00000E+00
 -1      2676 1.03920E+01 1.32000E+01 0.00000E+00
 -1      2677 1.22850E+01 7.90325E+00 0.00000E+00
 -1      2678 1.07850E+01 7.90325E+00 0.00000E+00
 -1      2679 6.76708E+01 2.57820E+01 0.00000E+00
 -1      2680 6.71308E+01 2.44529E+01 0.00000E+00
 -1      2681 1.52850E+01 7.90325E+00 0.00000E+00
 -1      2682 1.37850E+01 7.90325E+00 0.00000E+00
 -1      2683 1.30350E+01 9.20225E+00 0.00000E+00
 -1      2684 8.91450E+00 8.42712E+00 0.00000E+00
 -1      2685 8.99179E+01 2.44300E+01 0.00000E+00
 -1      2686 8.94931E+01 2.54732E+01 0.00000E+00
 -1      2687 1.44000E+01 4.09070E+01 0.00000E+00
 -1      2688 1.59000E+01 4.09070E+01 0.00000E+00
 -1      2689 1.74000E+01 4.09070E+01 0.00000E+00
 -1      2690 1.89000E+01 4.09070E+01 0.00000E+00
 -1      2691 1.66500E+01 3.96080E+01 0.00000E+00
 -1      2692 2.04000E+01 4.09070E+01 0.00000E+00
 -1      2693 2.19000E+01 4.09070E+01 0.00000E+00
 -1      2694 1.96500E+01 3.96080E+01 0.00000E+00
 -1      2695 2.34000E+01 4.09070E+01 0.00000E+00
 -1      2696 2.49000E+01 4.09070E+01 0.00000E+00
 -1      2697 2.26500E+01 3.96080E+01 0.00000E+00
 -1      2698 2.64000E+01 4.09070E+01 0.00000E+00
 -1      2699 2.79000E+01 4.09070E+01 0.00000E+00
 -1      2700 2.56500E+01 3.96080E+01 0.00000E+00
 -1      2701 2.94000E+01 4.09070E+01 0.00000E+00
 -1      2702 3.09000E+01 4.09070E+01 0.00000E+00
 -1      2703 2.86500E+01 3.96080E+01 0.00000E+00
 -1      2704 3.24000E+01 4.09070E+01 0.00000E+00
 -1      2705 3.39000E+01 4.09070E+01 0.00000E+00
 -1      2706 3.16500E+01 3.96080E+01 0.00000E+00
 -1      2707 3.54000E+01 4.09070E+01 0.00000E+00
 -1      2708 3.69000E+01 4.09070E+01 0.00000E+00
 -1      2709 3.46500E+01 3.96080E+01 0.00000E+00
 -1      2710 3.84000E+01 4.09070E+01 0.00000E+00
 -1      2711 3.99000E+01 4.09070E+01 0.00000E+00
 -1      2712 3.76500E+01 3.96080E+01 0.00000E+00
 -1      2713 4.14000E+01 4.09070E+01 0.00000E+00
 -1      2714 4.29000E+01 4.09070E+01 0.00000E+00
 -1      2715 4.06500E+01 3.96080E+01 0.00000E+00
 -1      2716 4.44000E+01 4.09070E+01 0.00000E+00
 -1      2717 4.59000E+01 4.09070E+01 0.00000E+00
 -1      2718 4.36500E+01 3.96080E+01 0.00000E+00
 -1      2719 4.74000E+01 4.09070E+01 0.00000E+00
 -1      2720 4.89000E+01 4.09070E+01 0.00000E+00
 -1      2721 4.66500E+01 3.96080E+01 0.00000E+00
 -1      2722 5.04000E+01 4.09070E+01 0.00000E+00
 -1      2723 5.19000E+01 4.09070E+01 0.00000E+00
 -1      2724 4.96500E+01 3.96080E+01 0.00000E+00
 -1      2725 5.34000E+01 4.09070E+01 0.00000E+00
 -1      2726 5.49000E+01 4.09070E+01 0.00000E+00
 -1      2727 5.26500E+01 3.96080E+01 0.00000E+00
 -1      2728 5.64000E+01 4.09070E+01 0.00000E+00
 -1      2729 5.79000E+01 4.09070E+01 0.00000E+00
 -1      2730 5.56500E+01 3.96080E+01 0.00000E+00
 -1      2731 5.94000E+01 4.09070E+01 0.00000E+00
 -1      2732 6.09000E+01 4.09070E+01 0.00000E+00
 -1      2733 5.86500E+01 3.96080E+01 0.00000E+00
 -1      2734 6.24000E+01 4.09070E+01 0.00000E+00
 -1      2735 6.39000E+01 4.09070E+01 0.00000E+00
 -1      2736 6.16500E+01 3.96080E+01 0.00000E+00
 -1      2737 6.54000E+01 4.09070E+01 0.00000E+00
 -1      2738 6.69000E+01 4.09070E+01 0.00000E+00
 -1      2739 6.46500E+01 3.96080E+01 0.00000E+00
 -1      2740 6.84000E+01 4.09070E+01 0.00000E+00
 -1      2741 6.99000E+01 4.09070E+01 0.00000E+00
 -1      2742 6.76500E+01 3.96080E+01 0.00000E+00
 -1      2743 7.14000E+01 4.09070E+01 0.00000E+00
 -1      2744 7.29000E+01 4.09070E+01 0.00000E+00
 -1      2745 7.06500E+01 3.96080E+01 0.00000E+00
 -1      2746 7.44000E+01 4.09070E+01 0.00000E+00
 -1      2747 7.59000E+01 4.09070E+01 0.00000E+00
 -1      2748 7.36500E+01 3.96080E+01 0.00000E+00
 -1      2749 7.74000E+01 4.09070E+01 0.00000E+00
 -1      2750 7.89000E+01 4.09070E+01 0.00000E+00
 -1      2751 7.66500E+01 3.96080E+01 0.00000E+00
 -1      2752 8.04000E+01 4.09070E+01 0.00000E+00
 -1      2753 8.19000E+01 4.09070E+01 0.00000E+00
 -1      2754 7.96500E+01 3.96080E+01 0.00000E+00
 -1      2755 8.34000E+01 4.09070E+01 0.00000E+00
 -1      2756 8.49000E+01 4.09070E+01 0.00000E+00
 -1      2757 8.26500E+01 3.96080E+01 0.00000E+00
 -1      2758 8.64000E+01 4.09070E+01 0.00000E+00
 -1      2759 8.79000E+01 4.09070E+01 0.00000E+00
 -1      2760 8.56500E+01 3.96080E+01 0.00000E+00
 -1      2761 8.94000E+01 4.09070E+01 0.00000E+00
 -1      2762 9.09000E+01 4.09070E+01 0.00000E+00
 -1      2763 8.86500E+01 3.96080E+01 0.00000E+00
 -1      2764 9.24000E+01 4.09070E+01 0.00000E+00
 -1      2765 9.39000E+01 4.09070E+01 0.00000E+00
 -1      2766 9.16500E+01 3.96080E+01 0.00000E+00
 -1      2767 9.54000E+01 4.09070E+01 0.00000E+00
 -1      2768 9.69000E+01 4.09070E+01 0.00000E+00
 -1      2769 9.46500E+01 3.96080E+01 0.00000E+00
 -1      2770 9.84000E+01 4.09070E+01 0.00000E+00
 -1      2771 9.99000E+01 4.09070E+01 0.00000E+00
 -1      2772 9.76500E+01 3.96080E+01 0.00000E+00
 -1      2773 1.01400E+02 4.09070E+01 0.00000E+00
 -1      2774 1.02900E+02 4.09070E+01 0.00000E+00
 -1      2775 1.00650E+02 3.96080E+01 0.00000E+00
 -1      2776 1.04400E+02 4.09070E+01 0.00000E+00
 -1      2777 1.05900E+02 4.09070E+01 0.00000E+00
 -1      2778 1.03650E+02 3.96080E+01 0.00000E+00
 -1      2779 1.07400E+02 4.09070E+01 0.00000E+00
 -1      2780 1.08900E+02 4.09070E+01 0.00000E+00
 -1      2781 1.06650E+02 3.96080E+01 0.00000E+00
 -1      2782 1.10400E+02 4.09070E+01 0.00000E+00
 -1      2783 1.11900E+02 4.09070E+01 0.00000E+00
 -1      2784 1.09650E+02 3.96080E+01 0.00000E+00
 -1      2785 1.13400E+02 4.09070E+01 0.00000E+00
 -1      2786 1.14900E+02 4.09070E+01 0.00000E+00
 -1      2787 1.12650E+02 3.96080E+01 0.00000E+00
 -1      2788 1.16400E+02 4.09070E+01 0.00000E+00
 -1      2789 1.17900E+02 4.09070E+01 0.00000E+00
 -1      2790 1.15650E+02 3.96080E+01 0.00000E+00
 -1      2791 1.19400E+02 4.09070E+01 0.00000E+00
 -1      2792 1.20900E+02 4.09070E+01 0.00000E+00
 -1      2793 1.18650E+02 3.96080E+01 0.00000E+00
 -1      2794 1.22400E+02 4.09070E+01 0.00000E+00
 -1      2795 1.23900E+02 4.09070E+01 0.00000E+00
 -1      2796 1.21650E+02 3.96080E+01 0.00000E+00
 -1      2797 1.25400E+02 4.09070E+01 0.00000E+00
 -1      2798 1.26900E+02 4.09070E+01 0.00000E+00
 -1      2799 1.24650E+02 3.96080E+01 0.00000E+00
 -1      2800 1.28400E+02 4.09070E+01 0.00000E+00
 -1      2801 1.29900E+02 4.09070E+01 0.00000E+00
 -1      2802 1.27650E+02 3.96080E+01 0.00000E+00
 -1      2803 1.31400E+02 4.09070E+01 0.00000E+00
 -1      2804 1.32900E+02 4.09070E+01 0.00000E+00
 -1      2805 1.30650E+02 3.96080E+01 0.00000E+00
 -1      2806 1.34400E+02 4.09070E+01 0.00000E+00
 -1      2807 1.35900E+02 4.09070E+01 0.00000E+00
 -1      2808 1.33650E+02 3.96080E+01 0.00000E+00
 -1      2809 1.37400E+02 4.09070E+01 0.00000E+00
 -1      2810 1.38900E+02 4.09070E+01 0.00000E+00
 -1      2811 1.36650E+02 3.96080E+01 0.00000E+00
 -1      2812 2.42850E+01 7.90325E+00 0.00000E+00
 -1      2813 2.27850E+01 7.90325E+00 0.00000E+00
 -1      2814 7.56559E+01 3.23934E+01 0.00000E+00
 -1      2815 7.43299E+01 3.18948E+01 0.00000E+00
 -1      2816 8.94144E+01 1.47238E+01 0.00000E+00
 -1      2817 9.00107E+01 1.57625E+01 0.00000E+00
 -1      2818 2.12850E+01 7.90325E+00 0.00000E+00
 -1      2819 1.97850E+01 7.90325E+00 0.00000E+00
 -1      2820 2.20350E+01 9.20225E+00 0.00000E+00
 -1      2821 3.02850E+01 7.90325E+00 0.00000E+00
 -1      2822 2.87850E+01 7.90325E+00 0.00000E+00
 -1      2823 3.32850E+01 7.90325E+00 0.00000E+00
 -1      2824 3.17850E+01 7.90325E+00 0.00000E+00
 -1      2825 3.10350E+01 9.20225E+00 0.00000E+00
 -1      2826 3.62850E+01 7.90325E+00 0.00000E+00
 -1      2827 3.47850E+01 7.90325E+00 0.00000E+00
 -1      2828 3.40350E+01 9.20225E+00 0.00000E+00
 -1      2829 3.92850E+01 7.90325E+00 0.00000E+00
 -1      2830 3.77850E+01 7.90325E+00 0.00000E+00
 -1      2831 3.70350E+01 9.20225E+00 0.00000E+00
 -1      2832 4.22850E+01 7.90325E+00 0.00000E+00
 -1      2833 4.07850E+01 7.90325E+00 0.00000E+00
 -1      2834 4.00350E+01 9.20225E+00 0.00000E+00
 -1      2835 4.52850E+01 7.90325E+00 0.00000E+00
 -1      2836 4.37850E+01 7.90325E+00 0.00000E+00
 -1      2837 4.30350E+01 9.20225E+00 0.00000E+00
 -1      2838 4.82850E+01 7.90325E+00 0.00000E+00
 -1      2839 4.67850E+01 7.90325E+00 0.00000E+00
 -1      2840 4.60350E+01 9.20225E+00 0.00000E+00
 -1      2841 5.12850E+01 7.90325E+00 0.00000E+00
 -1      2842 4.97850E+01 7.90325E+00 0.00000E+00
 -1      2843 4.90350E+01 9.20225E+00 0.00000E+00
 -1      2844 5.42850E+01 7.90325E+00 0.00000E+00
 -1      2845 5.27850E+01 7.90325E+00 0.00000E+00
 -1      2846 5.20350E+01 9.20225E+00 0.00000E+00
 -1      2847 5.72850E+01 7.90325E+00 0.00000E+00
 -1      2848 5.57850E+01 7.90325E+00 0.00000E+00
 -1      2849 5.50350E+01 9.20225E+00 0.00000E+00
 -1      2850 6.02850E+01 7.90325E+00 0.00000E+00
 -1      2851 5.87850E+01 7.90325E+00 0.00000E+00
 -1      2852 5.80350E+01 9.20225E+00 0.00000E+00
 -1      2853 6.32850E+01 7.90325E+00 0.00000E+00
 -1      2854 6.17850E+01 7.90325E+00 0.00000E+00
 -1      2855 6.10350E+01 9.20225E+00 0.00000E+00
 -1      2856 6.62850E+01 7.90325E+00 0.00000E+00
 -1      2857 6.47850E+01 7.90325E+00 0.00000E+00
 -1      2858 6.40350E+01 9.20225E+00 0.00000E+00
 -1      2859 6.92850E+01 7.90325E+00 0.00000E+00
 -1      2860 6.77850E+01 7.90325E+00 0.00000E+00
 -1      2861 6.70350E+01 9.20225E+00 0.00000E+00
 -1      2862 7.30698E+01 8.60986E+00 0.00000E+00
 -1      2863 7.15698E+01 8.60986E+00 0.00000E+00
 -1      2864 7.45698E+01 8.60986E+00 0.00000E+00
 -1      2865 7.83456E+01 8.02998E+00 0.00000E+00
 -1      2866 7.68456E+01 8.02998E+00 0.00000E+00
 -1      2867 8.36386E+01 7.69109E+00 0.00000E+00
 -1      2868 8.21386E+01 7.69109E+00 0.00000E+00
 -1      2869 8.72850E+01 7.79695E+00 0.00000E+00
 -1      2870 8.57850E+01 7.79695E+00 0.00000E+00
 -1      2871 9.02850E+01 7.79695E+00 0.00000E+00
 -1      2872 8.87850E+01 7.79695E+00 0.00000E+00
 -1      2873 8.80350E+01 8.98964E+00 0.00000E+00
 -1      2874 9.32850E+01 7.79695E+00 0.00000E+00
 -1      2875 9.17850E+01 7.79695E+00 0.00000E+00
 -1      2876 9.10350E+01 8.98964E+00 0.00000E+00
 -1      2877 9.62850E+01 7.79695E+00 0.00000E+00
 -1      2878 9.47850E+01 7.79695E+00 0.00000E+00
 -1      2879 9.40350E+01 8.98964E+00 0.00000E+00
 -1      2880 9.92850E+01 7.79695E+00 0.00000E+00
 -1      2881 9.77850E+01 7.79695E+00 0.00000E+00
 -1      2882 9.70350E+01 8.98964E+00 0.00000E+00
 -1      2883 1.02285E+02 7.79695E+00 0.00000E+00
 -1      2884 1.00785E+02 7.79695E+00 0.00000E+00
 -1      2885 1.00035E+02 8.98964E+00 0.00000E+00
 -1      2886 1.05285E+02 7.79695E+00 0.00000E+00
 -1      2887 1.03785E+02 7.79695E+00 0.00000E+00
 -1      2888 1.03035E+02 8.98964E+00 0.00000E+00
 -1      2889 1.08285E+02 7.79695E+00 0.00000E+00
 -1      2890 1.06785E+02 7.79695E+00 0.00000E+00
 -1      2891 1.06035E+02 8.98964E+00 0.00000E+00
 -1      2892 1.11285E+02 7.79695E+00 0.00000E+00
 -1      2893 1.09785E+02 7.79695E+00 0.00000E+00
 -1      2894 1.09035E+02 8.98964E+00 0.00000E+00
 -1      2895 1.14285E+02 7.79695E+00 0.00000E+00
 -1      2896 1.12785E+02 7.79695E+00 0.00000E+00
 -1      2897 1.12035E+02 8.98964E+00 0.00000E+00
 -1      2898 1.17285E+02 7.79695E+00 0.00000E+00
 -1      2899 1.15785E+02 7.79695E+00 0.00000E+00
 -1      2900 1.15035E+02 8.98964E+00 0.00000E+00
 -1      2901 1.20285E+02 7.79695E+00 0.00000E+00
 -1      2902 1.18785E+02 7.79695E+00 0.00000E+00
 -1      2903 1.18035E+02 8.98964E+00 0.00000E+00
 -1      2904 1.23285E+02 7.79695E+00 0.00000E+00
 -1      2905 1.21785E+02 7.79695E+00 0.00000E+00
 -1      2906 1.21035E+02 8.98964E+00 0.00000E+00
 -1      2907 1.26285E+02 7.79695E+00 0.00000E+00
 -1      2908 1.24785E+02 7.79695E+00 0.00000E+00
 -1      2909 1.24035E+02 8.98964E+00 0.00000E+00
 -1      2910 1.29285E+02 7.79695E+00 0.00000E+00
 -1      2911 1.27785E+02 7.79695E+00 0.00000E+00
 -1      2912 1.27035E+02 8.98964E+00 0.00000E+00
 -1      2913 1.32285E+02 7.79695E+00 0.00000E+00
 -1      2914 1.30785E+02 7.79695E+00 0.00000E+00
 -1      2915 1.30035E+02 8.98964E+00 0.00000E+00
 -1      2916 1.35285E+02 7.79695E+00 0.00000E+00
 -1      2917 1.33785E+02 7.79695E+00 0.00000E+00
 -1      2918 1.33035E+02 8.98964E+00 0.00000E+00
 -1      2919 1.38285E+02 7.79695E+00 0.00000E+00
 -1      2920 1.36785E+02 7.79695E+00 0.00000E+00
 -1      2921 1.36035E+02 8.98964E+00 0.00000E+00
 -1      2922 1.40953E+02 8.13079E+00 0.00000E+00
 -1      2923 1.39453E+02 8.13079E+00 0.00000E+00
 -1      2924 1.38703E+02 9.32348E+00 0.00000E+00
 -1      2925 1.41038E+02 9.99116E+00 0.00000E+00
 -1      2926 1.40907E+02 2.42875E+01 0.00000E+00
 -1      2927 1.40907E+02 2.28125E+01 0.00000E+00
 -1      2928 1.39914E+02 4.09362E+01 0.00000E+00
 -1      2929 1.40928E+02 4.09655E+01 0.00000E+00
 -1      2930 1.39164E+02 3.96372E+01 0.00000E+00
 -1      2931 1.40907E+02 1.83875E+01 0.00000E+00
 -1      2932 1.40907E+02 1.69125E+01 0.00000E+00
 -1      2933 1.40907E+02 2.72375E+01 0.00000E+00
 -1      2934 1.40907E+02 2.57625E+01 0.00000E+00
 -1      2935 1.39608E+02 2.50250E+01 0.00000E+00
 -1      2936 1.40907E+02 2.13375E+01 0.00000E+00
 -1      2937 1.40907E+02 1.98625E+01 0.00000E+00
 -1      2938 1.39608E+02 1.91250E+01 0.00000E+00
 -1      2939 1.39608E+02 2.20750E+01 0.00000E+00
 -1      2940 7.88230E+01 3.27388E+01 0.00000E+00
 -1      2941 7.73434E+01 3.26582E+01 0.00000E+00
 -1      2942 1.40907E+02 3.01375E+01 0.00000E+00
 -1      2943 1.40907E+02 2.86875E+01 0.00000E+00
 -1      2944 1.39608E+02 2.79500E+01 0.00000E+00
 -1      2945 1.40907E+02 3.30875E+01 0.00000E+00
 -1      2946 1.40907E+02 3.16125E+01 0.00000E+00
 -1      2947 1.39608E+02 3.08750E+01 0.00000E+00
 -1      2948 1.40907E+02 3.60375E+01 0.00000E+00
 -1      2949 1.40907E+02 3.45625E+01 0.00000E+00
 -1      2950 1.39608E+02 3.38250E+01 0.00000E+00
 -1      2951 9.25425E+00 4.07069E+01 0.00000E+00
 -1      2952 1.06178E+01 4.09709E+01 0.00000E+00
 -1      2953 9.22200E+00 3.94717E+01 0.00000E+00
 -1      2954 8.37219E+01 3.17781E+01 0.00000E+00
 -1      2955 8.25591E+01 3.23135E+01 0.00000E+00
 -1      2956 7.28803E+01 3.09382E+01 0.00000E+00
 -1      2957 7.20322E+01 3.00135E+01 0.00000E+00
 -1      2958 1.82850E+01 7.90325E+00 0.00000E+00
 -1      2959 1.67850E+01 7.90325E+00 0.00000E+00
 -1      2960 1.60350E+01 9.20225E+00 0.00000E+00
 -1      2961 1.90350E+01 9.20225E+00 0.00000E+00
 -1      2962 6.81831E+01 1.54797E+01 0.00000E+00
 -1      2963 6.86272E+01 1.43632E+01 0.00000E+00
 -1      2964 9.04027E+01 1.71284E+01 0.00000E+00
 -1      2965 9.06252E+01 1.82121E+01 0.00000E+00
 -1      2966 2.72850E+01 7.90325E+00 0.00000E+00
 -1      2967 2.57850E+01 7.90325E+00 0.00000E+00
 -1      2968 2.50350E+01 9.20225E+00 0.00000E+00
 -1      2969 2.80350E+01 9.20225E+00 0.00000E+00
 -1      2970 1.17589E+01 4.09389E+01 0.00000E+00
 -1      2971 1.32589E+01 4.09389E+01 0.00000E+00
 -1      2972 1.40089E+01 3.96399E+01 0.00000E+00
 -1      2973 1.17266E+01 3.97038E+01 0.00000E+00
 -1      2974 8.62779E+01 1.06425E+01 0.00000E+00
 -1      2975 8.71806E+01 1.15693E+01 0.00000E+00
 -1      2976 9.09300E+00 1.68813E+01 0.00000E+00
 -1      2977 9.09300E+00 1.83563E+01 0.00000E+00
 -1      2978 1.03920E+01 1.90812E+01 0.00000E+00
 -1      2979 1.03920E+01 1.61437E+01 0.00000E+00
 -1      2980 9.09300E+00 3.15875E+01 0.00000E+00
 -1      2981 9.09300E+00 3.30625E+01 0.00000E+00
 -1      2982 6.65641E+01 2.03730E+01 0.00000E+00
 -1      2983 6.66522E+01 1.92521E+01 0.00000E+00
 -1      2984 6.92683E+01 1.31600E+01 0.00000E+00
 -1      2985 6.99239E+01 1.22112E+01 0.00000E+00
 -1      2986 8.79413E+01 1.27244E+01 0.00000E+00
 -1      2987 8.86425E+01 1.36870E+01 0.00000E+00
 -1      2988 1.41192E+02 3.96958E+01 0.00000E+00
 -1      2989 6.67754E+01 2.29700E+01 0.00000E+00
 -1      2990 6.65576E+01 2.17691E+01 0.00000E+00
 -1      2991 6.87846E+01 2.78003E+01 0.00000E+00
 -1      2992 6.82791E+01 2.70082E+01 0.00000E+00
 -1      2993 8.58202E+01 3.03012E+01 0.00000E+00
 -1      2994 8.48881E+01 3.09957E+01 0.00000E+00
 -1      2995 8.11920E+01 3.27954E+01 0.00000E+00
 -1      2996 8.02047E+01 3.28937E+01 0.00000E+00
 -1      2997 8.75185E+01 2.89894E+01 0.00000E+00
 -1      2998 8.68344E+01 2.96615E+01 0.00000E+00
 -1      2999 9.06124E+01 2.26592E+01 0.00000E+00
 -1      3000 9.03588E+01 2.34685E+01 0.00000E+00
 -1      3001 7.08198E+01 9.90886E+00 0.00000E+00
 -1      3002 9.09300E+00 3.45313E+01 0.00000E+00
 -1      3003 9.09300E+00 3.60000E+01 0.00000E+00
 -1      3004 1.03920E+01 3.37938E+01 0.00000E+00
 -1      3005 1.03920E+01 2.49750E+01 0.00000E+00
 -1      3006 9.09300E+00 2.57000E+01 0.00000E+00
 -1      3007 9.09300E+00 2.71750E+01 0.00000E+00
 -1      3008 9.66450E+00 9.72612E+00 0.00000E+00
 -1      3009 6.60957E+01 2.40204E+01 0.00000E+00
 -1      3010 8.96508E+01 2.64086E+01 0.00000E+00
 -1      3011 8.98084E+01 2.73440E+01 0.00000E+00
 -1      3012 9.05798E+01 2.61789E+01 0.00000E+00
 -1      3013 9.08630E+01 2.42819E+01 0.00000E+00
 -1      3014 9.11936E+01 2.18792E+01 0.00000E+00
 -1      3015 9.18851E+01 2.25403E+01 0.00000E+00
 -1      3016 9.17749E+01 2.10991E+01 0.00000E+00
 -1      3017 8.83871E+01 2.88153E+01 0.00000E+00
 -1      3018 1.39608E+02 1.61875E+01 0.00000E+00
 -1      3019 1.40907E+02 1.54500E+01 0.00000E+00
 -1      3020 1.40907E+02 1.39875E+01 0.00000E+00
 -1      3021 7.35438E+01 3.31991E+01 0.00000E+00
 -1      3022 7.32120E+01 3.20687E+01 0.00000E+00
 -1      3023 7.20942E+01 3.22426E+01 0.00000E+00
 -1      3024 9.09209E+01 1.61404E+01 0.00000E+00
 -1      3025 6.82494E+01 1.34013E+01 0.00000E+00
 -1      3026 7.56500E+01 8.19947E+00 0.00000E+00
 -1      3027 8.43886E+01 8.88379E+00 0.00000E+00
 -1      3028 8.21671E+01 3.33827E+01 0.00000E+00
 -1      3029 6.57468E+01 2.11414E+01 0.00000E+00
 -1      3030 7.94183E+01 3.37097E+01 0.00000E+00
 -1      3031 1.40973E+02 1.27206E+01 0.00000E+00
 -1      3032 1.40973E+02 1.12581E+01 0.00000E+00
 -1      3033 1.39805E+02 1.09242E+01 0.00000E+00
 -1      3034 1.39674E+02 1.34581E+01 0.00000E+00
 -1      3035 8.68807E+01 3.06964E+01 0.00000E+00
 -1      3036 9.11982E+01 1.89721E+01 0.00000E+00
 -1      3037 9.17711E+01 1.97322E+01 0.00000E+00
 -1      3038 9.18859E+01 1.82663E+01 0.00000E+00
 -1      3039 8.82243E+01 1.15457E+01 0.00000E+00
 -1      3040 1.41192E+02 3.82207E+01 0.00000E+00
 -1      3041 6.89391E+01 2.86189E+01 0.00000E+00
 -1      3042 6.78222E+01 2.87743E+01 0.00000E+00
 -1      3043 6.90935E+01 2.94375E+01 0.00000E+00
 -1      3044 6.73048E+01 1.58752E+01 0.00000E+00
 -1      3045 7.09865E+01 3.01971E+01 0.00000E+00
 -1      3046 1.39529E+02 3.85602E+01 0.00000E+00
 -1      3047 1.40542E+02 3.71145E+01 0.00000E+00
 -1      3048 1.39243E+02 3.63770E+01 0.00000E+00
 -1      3049 1.38514E+02 3.85310E+01 0.00000E+00
 -1      3050 8.47004E+01 3.21185E+01 0.00000E+00
 -1      3051 8.49004E+01 9.49831E+00 0.00000E+00
 -1      3052 8.58136E+01 9.94198E+00 0.00000E+00
 -1      3053 1.09635E+01 1.04636E+01 0.00000E+00
 -1      3054 6.63773E+01 1.84456E+01 0.00000E+00
 -1      3055 6.61023E+01 1.76391E+01 0.00000E+00
 -1      3056 6.54783E+01 1.89388E+01 0.00000E+00
 -1      3057 9.09300E+00 2.86437E+01 0.00000E+00
 -1      3058 9.09300E+00 3.01187E+01 0.00000E+00
 -1      3059 1.03920E+01 3.08563E+01 0.00000E+00
 -1      3060 1.03920E+01 2.79188E+01 0.00000E+00
 -1      3061 8.97570E+01 1.37376E+01 0.00000E+00
 -1      3062 6.70594E+01 2.67295E+01 0.00000E+00
 -1      3063 8.69993E+01 9.69016E+00 0.00000E+00
 -1      3064 7.70422E+01 3.41866E+01 0.00000E+00
 -1      3065 7.63491E+01 3.32900E+01 0.00000E+00
 -1      3066 7.53547E+01 3.39218E+01 0.00000E+00
 -1      3067 6.51950E+01 2.50203E+01 0.00000E+00
 -1      3068 6.48396E+01 2.35374E+01 0.00000E+00
 -1      3069 1.16910E+01 1.24625E+01 0.00000E+00
 -1      3070 1.16910E+01 1.39375E+01 0.00000E+00
 -1      3071 9.01933E+01 1.26070E+01 0.00000E+00
 -1      3072 9.09652E+01 1.36439E+01 0.00000E+00
 -1      3073 1.89000E+01 3.83090E+01 0.00000E+00
 -1      3074 2.04000E+01 3.83090E+01 0.00000E+00
 -1      3075 2.19000E+01 3.83090E+01 0.00000E+00
 -1      3076 2.34000E+01 3.83090E+01 0.00000E+00
 -1      3077 2.11500E+01 3.70100E+01 0.00000E+00
 -1      3078 2.49000E+01 3.83090E+01 0.00000E+00
 -1      3079 2.64000E+01 3.83090E+01 0.00000E+00
 -1      3080 2.41500E+01 3.70100E+01 0.00000E+00
 -1      3081 2.79000E+01 3.83090E+01 0.00000E+00
 -1      3082 2.94000E+01 3.83090E+01 0.00000E+00
 -1      3083 2.71500E+01 3.70100E+01 0.00000E+00
 -1      3084 3.09000E+01 3.83090E+01 0.00000E+00
 -1      3085 3.24000E+01 3.83090E+01 0.00000E+00
 -1      3086 3.01500E+01 3.70100E+01 0.00000E+00
 -1      3087 3.39000E+01 3.83090E+01 0.00000E+00
 -1      3088 3.54000E+01 3.83090E+01 0.00000E+00
 -1      3089 3.31500E+01 3.70100E+01 0.00000E+00
 -1      3090 3.69000E+01 3.83090E+01 0.00000E+00
 -1      3091 3.84000E+01 3.83090E+01 0.00000E+00
 -1      3092 3.61500E+01 3.70100E+01 0.00000E+00
 -1      3093 3.99000E+01 3.83090E+01 0.00000E+00
 -1      3094 4.14000E+01 3.83090E+01 0.00000E+00
 -1      3095 3.91500E+01 3.70100E+01 0.00000E+00
 -1      3096 4.29000E+01 3.83090E+01 0.00000E+00
 -1      3097 4.44000E+01 3.83090E+01 0.00000E+00
 -1      3098 4.21500E+01 3.70100E+01 0.00000E+00
 -1      3099 4.59000E+01 3.83090E+01 0.00000E+00
 -1      3100 4.74000E+01 3.83090E+01 0.00000E+00
 -1      3101 4.51500E+01 3.70100E+01 0.00000E+00
 -1      3102 4.89000E+01 3.83090E+01 0.00000E+00
 -1      3103 5.04000E+01 3.83090E+01 0.00000E+00
 -1      3104 4.81500E+01 3.70100E+01 0.00000E+00
 -1      3105 5.19000E+01 3.83090E+01 0.00000E+00
 -1      3106 5.34000E+01 3.83090E+01 0.00000E+00
 -1      3107 5.11500E+01 3.70100E+01 0.00000E+00
 -1      3108 5.49000E+01 3.83090E+01 0.00000E+00
 -1      3109 5.64000E+01 3.83090E+01 0.00000E+00
 -1      3110 5.41500E+01 3.70100E+01 0.00000E+00
 -1      3111 5.79000E+01 3.83090E+01 0.00000E+00
 -1      3112 5.94000E+01 3.83090E+01 0.00000E+00
 -1      3113 5.71500E+01 3.70100E+01 0.00000E+00
 -1      3114 6.09000E+01 3.83090E+01 0.00000E+00
 -1      3115 6.24000E+01 3.83090E+01 0.00000E+00
 -1      3116 6.01500E+01 3.70100E+01 0.00000E+00
 -1      3117 6.39000E+01 3.83090E+01 0.00000E+00
 -1      3118 6.54000E+01 3.83090E+01 0.00000E+00
 -1      3119 6.31500E+01 3.70100E+01 0.00000E+00
 -1      3120 6.69000E+01 3.83090E+01 0.00000E+00
 -1      3121 6.84000E+01 3.83090E+01 0.00000E+00
 -1      3122 6.61500E+01 3.70100E+01 0.00000E+00
 -1      3123 6.99000E+01 3.83090E+01 0.00000E+00
 -1      3124 7.14000E+01 3.83090E+01 0.00000E+00
 -1      3125 6.91500E+01 3.70100E+01 0.00000E+00
 -1      3126 7.29000E+01 3.83090E+01 0.00000E+00
 -1      3127 7.44000E+01 3.83090E+01 0.00000E+00
 -1      3128 7.21500E+01 3.70100E+01 0.00000E+00
 -1      3129 7.89000E+01 3.83090E+01 0.00000E+00
 -1      3130 8.04000E+01 3.83090E+01 0.00000E+00
 -1      3131 8.19000E+01 3.83090E+01 0.00000E+00
 -1      3132 8.34000E+01 3.83090E+01 0.00000E+00
 -1      3133 8.11500E+01 3.70100E+01 0.00000E+00
 -1      3134 8.49000E+01 3.83090E+01 0.00000E+00
 -1      3135 8.64000E+01 3.83090E+01 0.00000E+00
 -1      3136 8.41500E+01 3.70100E+01 0.00000E+00
 -1      3137 8.79000E+01 3.83090E+01 0.00000E+00
 -1      3138 8.94000E+01 3.83090E+01 0.00000E+00
 -1      3139 8.71500E+01 3.70100E+01 0.00000E+00
 -1      3140 9.09000E+01 3.83090E+01 0.00000E+00
 -1      3141 9.24000E+01 3.83090E+01 0.00000E+00
 -1      3142 9.01500E+01 3.70100E+01 0.00000E+00
 -1      3143 9.39000E+01 3.83090E+01 0.00000E+00
 -1      3144 9.54000E+01 3.83090E+01 0.00000E+00
 -1      3145 9.31500E+01 3.70100E+01 0.00000E+00
 -1      3146 9.69000E+01 3.83090E+01 0.00000E+00
 -1      3147 9.84000E+01 3.83090E+01 0.00000E+00
 -1      3148 9.61500E+01 3.70100E+01 0.00000E+00
 -1      3149 9.99000E+01 3.83090E+01 0.00000E+00
 -1      3150 1.01400E+02 3.83090E+01 0.00000E+00
 -1      3151 9.91500E+01 3.70100E+01 0.00000E+00
 -1      3152 1.02900E+02 3.83090E+01 0.00000E+00
 -1      3153 1.04400E+02 3.83090E+01 0.00000E+00
 -1      3154 1.02150E+02 3.70100E+01 0.00000E+00
 -1      3155 1.05900E+02 3.83090E+01 0.00000E+00
 -1      3156 1.07400E+02 3.83090E+01 0.00000E+00
 -1      3157 1.05150E+02 3.70100E+01 0.00000E+00
 -1      3158 1.08900E+02 3.83090E+01 0.00000E+00
 -1      3159 1.10400E+02 3.83090E+01 0.00000E+00
 -1      3160 1.08150E+02 3.70100E+01 0.00000E+00
 -1      3161 1.11900E+02 3.83090E+01 0.00000E+00
 -1      3162 1.13400E+02 3.83090E+01 0.00000E+00
 -1      3163 1.11150E+02 3.70100E+01 0.00000E+00
 -1      3164 1.14900E+02 3.83090E+01 0.00000E+00
 -1      3165 1.16400E+02 3.83090E+01 0.00000E+00
 -1      3166 1.14150E+02 3.70100E+01 0.00000E+00
 -1      3167 1.17900E+02 3.83090E+01 0.00000E+00
 -1      3168 1.19400E+02 3.83090E+01 0.00000E+00
 -1      3169 1.17150E+02 3.70100E+01 0.00000E+00
 -1      3170 1.20900E+02 3.83090E+01 0.00000E+00
 -1      3171 1.22400E+02 3.83090E+01 0.00000E+00
 -1      3172 1.20150E+02 3.70100E+01 0.00000E+00
 -1      3173 1.23900E+02 3.83090E+01 0.00000E+00
 -1      3174 1.25400E+02 3.83090E+01 0.00000E+00
 -1      3175 1.23150E+02 3.70100E+01 0.00000E+00
 -1      3176 1.26900E+02 3.83090E+01 0.00000E+00
 -1      3177 1.28400E+02 3.83090E+01 0.00000E+00
 -1      3178 1.26150E+02 3.70100E+01 0.00000E+00
 -1      3179 1.29900E+02 3.83090E+01 0.00000E+00
 -1      3180 1.31400E+02 3.83090E+01 0.00000E+00
 -1      3181 1.29150E+02 3.70100E+01 0.00000E+00
 -1      3182 1.32900E+02 3.83090E+01 0.00000E+00
 -1      3183 1.34400E+02 3.83090E+01 0.00000E+00
 -1      3184 1.32150E+02 3.70100E+01 0.00000E+00
 -1      3185 1.35707E+02 3.84200E+01 0.00000E+00
 -1      3186 1.37207E+02 3.84200E+01 0.00000E+00
 -1      3187 1.37572E+02 3.73430E+01 0.00000E+00
 -1      3188 1.34957E+02 3.71210E+01 0.00000E+00
 -1      3189 3.47850E+01 1.05013E+01 0.00000E+00
 -1      3190 3.32850E+01 1.05013E+01 0.00000E+00
 -1      3191 3.17850E+01 1.05013E+01 0.00000E+00
 -1      3192 3.02850E+01 1.05013E+01 0.00000E+00
 -1      3193 3.25350E+01 1.18003E+01 0.00000E+00
 -1      3194 4.07850E+01 1.05013E+01 0.00000E+00
 -1      3195 3.92850E+01 1.05013E+01 0.00000E+00
 -1      3196 4.37850E+01 1.05013E+01 0.00000E+00
 -1      3197 4.22850E+01 1.05013E+01 0.00000E+00
 -1      3198 4.15350E+01 1.18003E+01 0.00000E+00
 -1      3199 4.67850E+01 1.05013E+01 0.00000E+00
 -1      3200 4.52850E+01 1.05013E+01 0.00000E+00
 -1      3201 4.45350E+01 1.18003E+01 0.00000E+00
 -1      3202 4.97850E+01 1.05013E+01 0.00000E+00
 -1      3203 4.82850E+01 1.05013E+01 0.00000E+00
 -1      3204 4.75350E+01 1.18003E+01 0.00000E+00
 -1      3205 5.27850E+01 1.05013E+01 0.00000E+00
 -1      3206 5.12850E+01 1.05013E+01 0.00000E+00
 -1      3207 5.05350E+01 1.18003E+01 0.00000E+00
 -1      3208 5.57850E+01 1.05013E+01 0.00000E+00
 -1      3209 5.42850E+01 1.05013E+01 0.00000E+00
 -1      3210 5.35350E+01 1.18003E+01 0.00000E+00
 -1      3211 5.87850E+01 1.05013E+01 0.00000E+00
 -1      3212 5.72850E+01 1.05013E+01 0.00000E+00
 -1      3213 5.65350E+01 1.18003E+01 0.00000E+00
 -1      3214 6.17850E+01 1.05013E+01 0.00000E+00
 -1      3215 6.02850E+01 1.05013E+01 0.00000E+00
 -1      3216 5.95350E+01 1.18003E+01 0.00000E+00
 -1      3217 6.47850E+01 1.05013E+01 0.00000E+00
 -1      3218 6.32850E+01 1.05013E+01 0.00000E+00
 -1      3219 6.25350E+01 1.18003E+01 0.00000E+00
 -1      3220 6.87128E+01 1.07002E+01 0.00000E+00
 -1      3221 6.72128E+01 1.07002E+01 0.00000E+00
 -1      3222 7.97432E+01 8.11172E+00 0.00000E+00
 -1      3223 8.12432E+01 8.11172E+00 0.00000E+00
 -1      3224 8.84993E+01 9.69016E+00 0.00000E+00
 -1      3225 9.77850E+01 1.02886E+01 0.00000E+00
 -1      3226 9.62850E+01 1.02886E+01 0.00000E+00
 -1      3227 1.00785E+02 1.02886E+01 0.00000E+00
 -1      3228 9.92850E+01 1.02886E+01 0.00000E+00
 -1      3229 9.85350E+01 1.15876E+01 0.00000E+00
 -1      3230 1.03785E+02 1.02886E+01 0.00000E+00
 -1      3231 1.02285E+02 1.02886E+01 0.00000E+00
 -1      3232 1.01535E+02 1.15876E+01 0.00000E+00
 -1      3233 1.06785E+02 1.02886E+01 0.00000E+00
 -1      3234 1.05285E+02 1.02886E+01 0.00000E+00
 -1      3235 1.04535E+02 1.15876E+01 0.00000E+00
 -1      3236 1.09785E+02 1.02886E+01 0.00000E+00
 -1      3237 1.08285E+02 1.02886E+01 0.00000E+00
 -1      3238 1.07535E+02 1.15876E+01 0.00000E+00
 -1      3239 1.12785E+02 1.02886E+01 0.00000E+00
 -1      3240 1.11285E+02 1.02886E+01 0.00000E+00
 -1      3241 1.10535E+02 1.15876E+01 0.00000E+00
 -1      3242 1.15785E+02 1.02886E+01 0.00000E+00
 -1      3243 1.14285E+02 1.02886E+01 0.00000E+00
 -1      3244 1.13535E+02 1.15876E+01 0.00000E+00
 -1      3245 1.18785E+02 1.02886E+01 0.00000E+00
 -1      3246 1.17285E+02 1.02886E+01 0.00000E+00
 -1      3247 1.16535E+02 1.15876E+01 0.00000E+00
 -1      3248 1.21785E+02 1.02886E+01 0.00000E+00
 -1      3249 1.20285E+02 1.02886E+01 0.00000E+00
 -1      3250 1.19535E+02 1.15876E+01 0.00000E+00
 -1      3251 1.24785E+02 1.02886E+01 0.00000E+00
 -1      3252 1.23285E+02 1.02886E+01 0.00000E+00
 -1      3253 1.22535E+02 1.15876E+01 0.00000E+00
 -1      3254 1.27785E+02 1.02886E+01 0.00000E+00
 -1      3255 1.26285E+02 1.02886E+01 0.00000E+00
 -1      3256 1.25535E+02 1.15876E+01 0.00000E+00
 -1      3257 1.30785E+02 1.02886E+01 0.00000E+00
 -1      3258 1.29285E+02 1.02886E+01 0.00000E+00
 -1      3259 1.28535E+02 1.15876E+01 0.00000E+00
 -1      3260 1.33785E+02 1.02886E+01 0.00000E+00
 -1      3261 1.32285E+02 1.02886E+01 0.00000E+00
 -1      3262 1.31535E+02 1.15876E+01 0.00000E+00
 -1      3263 1.36785E+02 1.02886E+01 0.00000E+00
 -1      3264 1.35285E+02 1.02886E+01 0.00000E+00
 -1      3265 1.34535E+02 1.15876E+01 0.00000E+00
 -1      3266 1.38879E+02 1.07734E+01 0.00000E+00
 -1      3267 1.37711E+02 1.04395E+01 0.00000E+00
 -1      3268 1.36961E+02 1.17385E+01 0.00000E+00
 -1      3269 1.38813E+02 1.20403E+01 0.00000E+00
 -1      3270 8.58546E+01 3.25786E+01 0.00000E+00
 -1      3271 8.46884E+01 3.33610E+01 0.00000E+00
 -1      3272 1.16910E+01 2.12875E+01 0.00000E+00
 -1      3273 1.16910E+01 2.27625E+01 0.00000E+00
 -1      3274 1.38309E+02 2.57625E+01 0.00000E+00
 -1      3275 1.38309E+02 2.42875E+01 0.00000E+00
 -1      3276 1.38309E+02 3.45625E+01 0.00000E+00
 -1      3277 1.38309E+02 3.30875E+01 0.00000E+00
 -1      3278 1.38309E+02 2.86625E+01 0.00000E+00
 -1      3279 1.38309E+02 2.72125E+01 0.00000E+00
 -1      3280 1.37010E+02 2.64750E+01 0.00000E+00
 -1      3281 6.62374E+01 1.62918E+01 0.00000E+00
 -1      3282 6.65409E+01 1.50212E+01 0.00000E+00
 -1      3283 1.26488E+01 1.02017E+01 0.00000E+00
 -1      3284 1.20772E+01 1.14631E+01 0.00000E+00
 -1      3285 1.33763E+01 1.22006E+01 0.00000E+00
 -1      3286 1.41488E+01 1.02017E+01 0.00000E+00
 -1      3287 9.16298E+01 1.51978E+01 0.00000E+00
 -1      3288 9.20218E+01 1.65637E+01 0.00000E+00
 -1      3289 8.78829E+01 3.12992E+01 0.00000E+00
 -1      3290 8.68687E+01 3.19389E+01 0.00000E+00
 -1      3291 8.68568E+01 3.31814E+01 0.00000E+00
 -1      3292 1.38309E+02 3.16125E+01 0.00000E+00
 -1      3293 1.38309E+02 3.01375E+01 0.00000E+00
 -1      3294 1.37010E+02 2.94000E+01 0.00000E+00
 -1      3295 1.37010E+02 3.23500E+01 0.00000E+00
 -1      3296 9.47850E+01 1.02886E+01 0.00000E+00
 -1      3297 9.32850E+01 1.02886E+01 0.00000E+00
 -1      3298 9.55350E+01 1.15876E+01 0.00000E+00
 -1      3299 9.19683E+01 1.07515E+01 0.00000E+00
 -1      3300 9.04683E+01 1.07515E+01 0.00000E+00
 -1      3301 8.32193E+01 3.41876E+01 0.00000E+00
 -1      3302 8.18522E+01 3.46695E+01 0.00000E+00
 -1      3303 3.77850E+01 1.05013E+01 0.00000E+00
 -1      3304 3.62850E+01 1.05013E+01 0.00000E+00
 -1      3305 3.55350E+01 1.18003E+01 0.00000E+00
 -1      3306 3.85350E+01 1.18003E+01 0.00000E+00
 -1      3307 8.92600E+01 1.08452E+01 0.00000E+00
 -1      3308 2.27850E+01 1.05013E+01 0.00000E+00
 -1      3309 2.12850E+01 1.05013E+01 0.00000E+00
 -1      3310 9.14137E+00 3.71183E+01 0.00000E+00
 -1      3311 9.17362E+00 3.83534E+01 0.00000E+00
 -1      3312 1.05371E+01 3.86174E+01 0.00000E+00
 -1      3313 1.04404E+01 3.63808E+01 0.00000E+00
 -1      3314 8.02250E+01 3.54373E+01 0.00000E+00
 -1      3315 7.88433E+01 3.52824E+01 0.00000E+00
 -1      3316 6.97461E+01 1.07133E+01 0.00000E+00
 -1      3317 6.63702E+01 2.78354E+01 0.00000E+00
 -1      3318 6.57619E+01 2.66092E+01 0.00000E+00
 -1      3319 7.06456E+01 3.12675E+01 0.00000E+00
 -1      3320 6.98696E+01 3.03525E+01 0.00000E+00
 -1      3321 6.87527E+01 3.05079E+01 0.00000E+00
 -1      3322 6.47184E+01 2.18347E+01 0.00000E+00
 -1      3323 6.47249E+01 2.04386E+01 0.00000E+00
 -1      3324 1.59000E+01 3.83090E+01 0.00000E+00
 -1      3325 1.74000E+01 3.83090E+01 0.00000E+00
 -1      3326 1.81500E+01 3.70100E+01 0.00000E+00
 -1      3327 9.21676E+01 2.42982E+01 0.00000E+00
 -1      3328 9.17267E+01 2.52597E+01 0.00000E+00
 -1      3329 8.95083E+01 2.85415E+01 0.00000E+00
 -1      3330 8.90161E+01 2.97830E+01 0.00000E+00
 -1      3331 6.64628E+01 1.19992E+01 0.00000E+00
 -1      3332 1.16910E+01 2.42375E+01 0.00000E+00
 -1      3333 1.16910E+01 2.57125E+01 0.00000E+00
 -1      3334 1.29900E+01 2.35000E+01 0.00000E+00
 -1      3335 1.29900E+01 1.46687E+01 0.00000E+00
 -1      3336 1.16910E+01 1.54063E+01 0.00000E+00
 -1      3337 1.16910E+01 1.68750E+01 0.00000E+00
 -1      3338 9.20661E+01 1.40672E+01 0.00000E+00
 -1      3339 9.18844E+01 2.61952E+01 0.00000E+00
 -1      3340 9.33036E+01 1.63811E+01 0.00000E+00
 -1      3341 9.25947E+01 1.73237E+01 0.00000E+00
 -1      3342 9.31677E+01 1.80837E+01 0.00000E+00
 -1      3343 7.48489E+01 3.59142E+01 0.00000E+00
 -1      3344 7.41558E+01 3.50176E+01 0.00000E+00
 -1      3345 9.24626E+01 2.03932E+01 0.00000E+00
 -1      3346 1.36178E+01 3.83729E+01 0.00000E+00
 -1      3347 1.47589E+01 3.83409E+01 0.00000E+00
 -1      3348 1.55089E+01 3.70419E+01 0.00000E+00
 -1      3349 7.53745E+01 3.71116E+01 0.00000E+00
 -1      3350 7.61245E+01 3.84106E+01 0.00000E+00
 -1      3351 7.76245E+01 3.84106E+01 0.00000E+00
 -1      3352 7.65734E+01 3.60158E+01 0.00000E+00
 -1      3353 1.38309E+02 1.69188E+01 0.00000E+00
 -1      3354 1.38309E+02 1.54563E+01 0.00000E+00
 -1      3355 7.30380E+01 3.51915E+01 0.00000E+00
 -1      3356 7.83745E+01 3.71116E+01 0.00000E+00
 -1      3357 1.38309E+02 1.83937E+01 0.00000E+00
 -1      3358 1.37010E+02 1.76625E+01 0.00000E+00
 -1      3359 1.38309E+02 1.98687E+01 0.00000E+00
 -1      3360 1.16783E+01 3.85855E+01 0.00000E+00
 -1      3361 2.95350E+01 1.18003E+01 0.00000E+00
 -1      3362 2.87850E+01 1.05013E+01 0.00000E+00
 -1      3363 2.72850E+01 1.05013E+01 0.00000E+00
 -1      3364 6.45058E+01 2.61262E+01 0.00000E+00
 -1      3365 1.16910E+01 3.30594E+01 0.00000E+00
 -1      3366 1.16910E+01 3.45281E+01 0.00000E+00
 -1      3367 7.75677E+01 3.53840E+01 0.00000E+00
 -1      3368 2.05350E+01 1.18003E+01 0.00000E+00
 -1      3369 1.97850E+01 1.05013E+01 0.00000E+00
 -1      3370 1.82850E+01 1.05013E+01 0.00000E+00
 -1      3371 1.16910E+01 1.98188E+01 0.00000E+00
 -1      3372 1.29900E+01 2.05562E+01 0.00000E+00
 -1      3373 1.16910E+01 1.83500E+01 0.00000E+00
 -1      3374 9.27183E+01 1.20505E+01 0.00000E+00
 -1      3375 1.38309E+02 2.28156E+01 0.00000E+00
 -1      3376 1.38309E+02 2.13406E+01 0.00000E+00
 -1      3377 1.37010E+02 2.06094E+01 0.00000E+00
 -1      3378 1.37010E+02 2.35531E+01 0.00000E+00
 -1      3379 6.53384E+01 1.67851E+01 0.00000E+00
 -1      3380 6.34216E+01 2.03254E+01 0.00000E+00
 -1      3381 6.44499E+01 1.96321E+01 0.00000E+00
 -1      3382 6.41750E+01 1.88257E+01 0.00000E+00
 -1      3383 8.90041E+01 3.10254E+01 0.00000E+00
 -1      3384 8.89921E+01 3.22679E+01 0.00000E+00
 -1      3385 9.01253E+01 3.07517E+01 0.00000E+00
 -1      3386 8.43735E+01 3.46477E+01 0.00000E+00
 -1      3387 1.37758E+02 3.64912E+01 0.00000E+00
 -1      3388 1.38123E+02 3.54142E+01 0.00000E+00
 -1      3389 1.36824E+02 3.46768E+01 0.00000E+00
 -1      3390 1.36451E+02 3.63802E+01 0.00000E+00
 -1      3391 1.69669E+01 1.03515E+01 0.00000E+00
 -1      3392 1.54669E+01 1.03515E+01 0.00000E+00
 -1      3393 1.50806E+01 1.13509E+01 0.00000E+00
 -1      3394 1.77169E+01 1.16505E+01 0.00000E+00
 -1      3395 9.04373E+01 2.83118E+01 0.00000E+00
 -1      3396 2.57850E+01 1.05013E+01 0.00000E+00
 -1      3397 2.42850E+01 1.05013E+01 0.00000E+00
 -1      3398 2.65350E+01 1.18003E+01 0.00000E+00
 -1      3399 7.13091E+01 3.35284E+01 0.00000E+00
 -1      3400 7.09773E+01 3.23980E+01 0.00000E+00
 -1      3401 6.98604E+01 3.25534E+01 0.00000E+00
 -1      3402 6.58216E+01 1.32024E+01 0.00000E+00
 -1      3403 1.16910E+01 3.01219E+01 0.00000E+00
 -1      3404 1.16910E+01 3.15906E+01 0.00000E+00
 -1      3405 1.29900E+01 3.23250E+01 0.00000E+00
 -1      3406 6.65246E+01 2.86540E+01 0.00000E+00
 -1      3407 6.52271E+01 2.85337E+01 0.00000E+00
 -1      3408 6.66791E+01 2.94726E+01 0.00000E+00
 -1      3409 6.38177E+01 2.28346E+01 0.00000E+00
 -1      3410 2.35350E+01 1.18003E+01 0.00000E+00
 -1      3411 9.27488E+01 2.35181E+01 0.00000E+00
 -1      3412 9.36126E+01 2.44960E+01 0.00000E+00
 -1      3413 9.33301E+01 2.27381E+01 0.00000E+00
 -1      3414 9.35697E+01 1.97068E+01 0.00000E+00
 -1      3415 9.35734E+01 2.10737E+01 0.00000E+00
 -1      3416 7.15380E+01 3.51915E+01 0.00000E+00
 -1      3417 2.34000E+01 3.57110E+01 0.00000E+00
 -1      3418 2.49000E+01 3.57110E+01 0.00000E+00
 -1      3419 2.64000E+01 3.57110E+01 0.00000E+00
 -1      3420 2.79000E+01 3.57110E+01 0.00000E+00
 -1      3421 2.56500E+01 3.44120E+01 0.00000E+00
 -1      3422 2.94000E+01 3.57110E+01 0.00000E+00
 -1      3423 3.09000E+01 3.57110E+01 0.00000E+00
 -1      3424 2.86500E+01 3.44120E+01 0.00000E+00
 -1      3425 3.24000E+01 3.57110E+01 0.00000E+00
 -1      3426 3.39000E+01 3.57110E+01 0.00000E+00
 -1      3427 3.16500E+01 3.44120E+01 0.00000E+00
 -1      3428 3.54000E+01 3.57110E+01 0.00000E+00
 -1      3429 3.69000E+01 3.57110E+01 0.00000E+00
 -1      3430 3.46500E+01 3.44120E+01 0.00000E+00
 -1      3431 3.84000E+01 3.57110E+01 0.00000E+00
 -1      3432 3.99000E+01 3.57110E+01 0.00000E+00
 -1      3433 3.76500E+01 3.44120E+01 0.00000E+00
 -1      3434 4.14000E+01 3.57110E+01 0.00000E+00
 -1      3435 4.29000E+01 3.57110E+01 0.00000E+00
 -1      3436 4.06500E+01 3.44120E+01 0.00000E+00
 -1      3437 4.44000E+01 3.57110E+01 0.00000E+00
 -1      3438 4.59000E+01 3.57110E+01 0.00000E+00
 -1      3439 4.36500E+01 3.44120E+01 0.00000E+00
 -1      3440 4.74000E+01 3.57110E+01 0.00000E+00
 -1      3441 4.89000E+01 3.57110E+01 0.00000E+00
 -1      3442 4.66500E+01 3.44120E+01 0.00000E+00
 -1      3443 5.04000E+01 3.57110E+01 0.00000E+00
 -1      3444 5.19000E+01 3.57110E+01 0.00000E+00
 -1      3445 4.96500E+01 3.44120E+01 0.00000E+00
 -1      3446 5.34000E+01 3.57110E+01 0.00000E+00
 -1      3447 5.49000E+01 3.57110E+01 0.00000E+00
 -1      3448 5.26500E+01 3.44120E+01 0.00000E+00
 -1      3449 5.64000E+01 3.57110E+01 0.00000E+00
 -1      3450 5.79000E+01 3.57110E+01 0.00000E+00
 -1      3451 5.56500E+01 3.44120E+01 0.00000E+00
 -1      3452 5.94000E+01 3.57110E+01 0.00000E+00
 -1      3453 6.09000E+01 3.57110E+01 0.00000E+00
 -1      3454 5.86500E+01 3.44120E+01 0.00000E+00
 -1      3455 6.24000E+01 3.57110E+01 0.00000E+00
 -1      3456 6.39000E+01 3.57110E+01 0.00000E+00
 -1      3457 6.16500E+01 3.44120E+01 0.00000E+00
 -1      3458 6.54000E+01 3.57110E+01 0.00000E+00
 -1      3459 6.69000E+01 3.57110E+01 0.00000E+00
 -1      3460 6.46500E+01 3.44120E+01 0.00000E+00
 -1      3461 8.94000E+01 3.57110E+01 0.00000E+00
 -1      3462 9.09000E+01 3.57110E+01 0.00000E+00
 -1      3463 9.24000E+01 3.57110E+01 0.00000E+00
 -1      3464 9.39000E+01 3.57110E+01 0.00000E+00
 -1      3465 9.16500E+01 3.44120E+01 0.00000E+00
 -1      3466 9.54000E+01 3.57110E+01 0.00000E+00
 -1      3467 9.69000E+01 3.57110E+01 0.00000E+00
 -1      3468 9.46500E+01 3.44120E+01 0.00000E+00
 -1      3469 9.84000E+01 3.57110E+01 0.00000E+00
 -1      3470 9.99000E+01 3.57110E+01 0.00000E+00
 -1      3471 9.76500E+01 3.44120E+01 0.00000E+00
 -1      3472 1.01400E+02 3.57110E+01 0.00000E+00
 -1      3473 1.02900E+02 3.57110E+01 0.00000E+00
 -1      3474 1.00650E+02 3.44120E+01 0.00000E+00
 -1      3475 1.04400E+02 3.57110E+01 0.00000E+00
 -1      3476 1.05900E+02 3.57110E+01 0.00000E+00
 -1      3477 1.03650E+02 3.44120E+01 0.00000E+00
 -1      3478 1.07400E+02 3.57110E+01 0.00000E+00
 -1      3479 1.08900E+02 3.57110E+01 0.00000E+00
 -1      3480 1.06650E+02 3.44120E+01 0.00000E+00
 -1      3481 1.10400E+02 3.57110E+01 0.00000E+00
 -1      3482 1.11900E+02 3.57110E+01 0.00000E+00
 -1      3483 1.09650E+02 3.44120E+01 0.00000E+00
 -1      3484 1.13400E+02 3.57110E+01 0.00000E+00
 -1      3485 1.14900E+02 3.57110E+01 0.00000E+00
 -1      3486 1.12650E+02 3.44120E+01 0.00000E+00
 -1      3487 1.16400E+02 3.57110E+01 0.00000E+00
 -1      3488 1.17900E+02 3.57110E+01 0.00000E+00
 -1      3489 1.15650E+02 3.44120E+01 0.00000E+00
 -1      3490 1.19400E+02 3.57110E+01 0.00000E+00
 -1      3491 1.20900E+02 3.57110E+01 0.00000E+00
 -1      3492 1.18650E+02 3.44120E+01 0.00000E+00
 -1      3493 1.22400E+02 3.57110E+01 0.00000E+00
 -1      3494 1.23900E+02 3.57110E+01 0.00000E+00
 -1      3495 1.21650E+02 3.44120E+01 0.00000E+00
 -1      3496 1.25400E+02 3.57110E+01 0.00000E+00
 -1      3497 1.26900E+02 3.57110E+01 0.00000E+00
 -1      3498 1.24650E+02 3.44120E+01 0.00000E+00
 -1      3499 1.28400E+02 3.57110E+01 0.00000E+00
 -1      3500 1.29900E+02 3.57110E+01 0.00000E+00
 -1      3501 1.27650E+02 3.44120E+01 0.00000E+00
 -1      3502 1.31400E+02 3.57110E+01 0.00000E+00
 -1      3503 1.32900E+02 3.57110E+01 0.00000E+00
 -1      3504 1.30650E+02 3.44120E+01 0.00000E+00
 -1      3505 3.32850E+01 1.30992E+01 0.00000E+00
 -1      3506 3.17850E+01 1.30992E+01 0.00000E+00
 -1      3507 4.52850E+01 1.30992E+01 0.00000E+00
 -1      3508 4.37850E+01 1.30992E+01 0.00000E+00
 -1      3509 4.22850E+01 1.30992E+01 0.00000E+00
 -1      3510 4.07850E+01 1.30992E+01 0.00000E+00
 -1      3511 4.30350E+01 1.43982E+01 0.00000E+00
 -1      3512 5.12850E+01 1.30992E+01 0.00000E+00
 -1      3513 4.97850E+01 1.30992E+01 0.00000E+00
 -1      3514 5.42850E+01 1.30992E+01 0.00000E+00
 -1      3515 5.27850E+01 1.30992E+01 0.00000E+00
 -1      3516 5.20350E+01 1.43982E+01 0.00000E+00
 -1      3517 5.72850E+01 1.30992E+01 0.00000E+00
 -1      3518 5.57850E+01 1.30992E+01 0.00000E+00
 -1      3519 5.50350E+01 1.43982E+01 0.00000E+00
 -1      3520 6.02850E+01 1.30992E+01 0.00000E+00
 -1      3521 5.87850E+01 1.30992E+01 0.00000E+00
 -1      3522 5.80350E+01 1.43982E+01 0.00000E+00
 -1      3523 6.32850E+01 1.30992E+01 0.00000E+00
 -1      3524 6.17850E+01 1.30992E+01 0.00000E+00
 -1      3525 6.10350E+01 1.43982E+01 0.00000E+00
 -1      3526 6.47543E+01 1.36190E+01 0.00000E+00
 -1      3527 1.05285E+02 1.28866E+01 0.00000E+00
 -1      3528 1.03785E+02 1.28866E+01 0.00000E+00
 -1      3529 1.02285E+02 1.28866E+01 0.00000E+00
 -1      3530 1.00785E+02 1.28866E+01 0.00000E+00
 -1      3531 1.03035E+02 1.41856E+01 0.00000E+00
 -1      3532 9.92850E+01 1.28866E+01 0.00000E+00
 -1      3533 9.77850E+01 1.28866E+01 0.00000E+00
 -1      3534 1.00035E+02 1.41856E+01 0.00000E+00
 -1      3535 1.08285E+02 1.28866E+01 0.00000E+00
 -1      3536 1.06785E+02 1.28866E+01 0.00000E+00
 -1      3537 1.06035E+02 1.41856E+01 0.00000E+00
 -1      3538 1.11285E+02 1.28866E+01 0.00000E+00
 -1      3539 1.09785E+02 1.28866E+01 0.00000E+00
 -1      3540 1.09035E+02 1.41856E+01 0.00000E+00
 -1      3541 1.14285E+02 1.28866E+01 0.00000E+00
 -1      3542 1.12785E+02 1.28866E+01 0.00000E+00
 -1      3543 1.12035E+02 1.41856E+01 0.00000E+00
 -1      3544 1.17285E+02 1.28866E+01 0.00000E+00
 -1      3545 1.15785E+02 1.28866E+01 0.00000E+00
 -1      3546 1.15035E+02 1.41856E+01 0.00000E+00
 -1      3547 1.20285E+02 1.28866E+01 0.00000E+00
 -1      3548 1.18785E+02 1.28866E+01 0.00000E+00
 -1      3549 1.18035E+02 1.41856E+01 0.00000E+00
 -1      3550 1.23285E+02 1.28866E+01 0.00000E+00
 -1      3551 1.21785E+02 1.28866E+01 0.00000E+00
 -1      3552 1.21035E+02 1.41856E+01 0.00000E+00
 -1      3553 1.26285E+02 1.28866E+01 0.00000E+00
 -1      3554 1.24785E+02 1.28866E+01 0.00000E+00
 -1      3555 1.24035E+02 1.41856E+01 0.00000E+00
 -1      3556 1.29285E+02 1.28866E+01 0.00000E+00
 -1      3557 1.27785E+02 1.28866E+01 0.00000E+00
 -1      3558 1.27035E+02 1.41856E+01 0.00000E+00
 -1      3559 1.32285E+02 1.28866E+01 0.00000E+00
 -1      3560 1.30785E+02 1.28866E+01 0.00000E+00
 -1      3561 1.30035E+02 1.41856E+01 0.00000E+00
 -1      3562 1.35285E+02 1.28866E+01 0.00000E+00
 -1      3563 1.33785E+02 1.28866E+01 0.00000E+00
 -1      3564 1.33035E+02 1.41856E+01 0.00000E+00
 -1      3565 1.24283E+01 3.72865E+01 0.00000E+00
 -1      3566 6.43101E+01 1.74784E+01 0.00000E+00
 -1      3567 6.44452E+01 1.61311E+01 0.00000E+00
 -1      3568 6.32817E+01 1.81717E+01 0.00000E+00
 -1      3569 1.38528E+02 1.43817E+01 0.00000E+00
 -1      3570 1.38594E+02 1.31148E+01 0.00000E+00
 -1      3571 1.37668E+02 1.29639E+01 0.00000E+00
 -1      3572 1.37229E+02 1.51130E+01 0.00000E+00
 -1      3573 1.35711E+02 2.72000E+01 0.00000E+00
 -1      3574 1.35711E+02 2.57500E+01 0.00000E+00
 -1      3575 8.17250E+01 3.54373E+01 0.00000E+00
 -1      3576 9.62850E+01 1.28866E+01 0.00000E+00
 -1      3577 9.47850E+01 1.28866E+01 0.00000E+00
 -1      3578 9.70350E+01 1.41856E+01 0.00000E+00
 -1      3579 1.46944E+01 1.23503E+01 0.00000E+00
 -1      3580 1.43081E+01 1.33498E+01 0.00000E+00
 -1      3581 1.60125E+01 1.25001E+01 0.00000E+00
 -1      3582 4.82850E+01 1.30992E+01 0.00000E+00
 -1      3583 4.67850E+01 1.30992E+01 0.00000E+00
 -1      3584 4.60350E+01 1.43982E+01 0.00000E+00
 -1      3585 4.90350E+01 1.43982E+01 0.00000E+00
 -1      3586 6.36658E+01 2.73215E+01 0.00000E+00
 -1      3587 6.30990E+01 2.57325E+01 0.00000E+00
 -1      3588 1.16910E+01 2.71844E+01 0.00000E+00
 -1      3589 1.16910E+01 2.86531E+01 0.00000E+00
 -1      3590 1.29900E+01 2.93875E+01 0.00000E+00
 -1      3591 9.17443E+01 2.80030E+01 0.00000E+00
 -1      3592 9.14442E+01 2.92004E+01 0.00000E+00
 -1      3593 2.04000E+01 3.57110E+01 0.00000E+00
 -1      3594 2.19000E+01 3.57110E+01 0.00000E+00
 -1      3595 2.26500E+01 3.44120E+01 0.00000E+00
 -1      3596 9.34683E+01 1.33495E+01 0.00000E+00
 -1      3597 9.41328E+01 1.49033E+01 0.00000E+00
 -1      3598 6.82311E+01 3.17369E+01 0.00000E+00
 -1      3599 6.74550E+01 3.08219E+01 0.00000E+00
 -1      3600 6.25826E+01 2.37782E+01 0.00000E+00
 -1      3601 6.24614E+01 2.20755E+01 0.00000E+00
 -1      3602 1.74000E+01 3.57110E+01 0.00000E+00
 -1      3603 1.89000E+01 3.57110E+01 0.00000E+00
 -1      3604 1.96500E+01 3.44120E+01 0.00000E+00
 -1      3605 9.28913E+01 2.70839E+01 0.00000E+00
 -1      3606 2.42850E+01 1.30992E+01 0.00000E+00
 -1      3607 2.27850E+01 1.30992E+01 0.00000E+00
 -1      3608 7.04211E+01 3.53469E+01 0.00000E+00
 -1      3609 1.43081E+01 1.48185E+01 0.00000E+00
 -1      3610 9.47058E+01 1.56634E+01 0.00000E+00
 -1      3611 1.34412E+02 2.50031E+01 0.00000E+00
 -1      3612 1.35711E+02 2.42781E+01 0.00000E+00
 -1      3613 1.35711E+02 2.28062E+01 0.00000E+00
 -1      3614 6.29759E+01 1.56113E+01 0.00000E+00
 -1      3615 6.40043E+01 1.49180E+01 0.00000E+00
 -1      3616 9.44371E+01 2.20516E+01 0.00000E+00
 -1      3617 6.89211E+01 3.53469E+01 0.00000E+00
 -1      3618 6.81711E+01 3.40479E+01 0.00000E+00
 -1      3619 8.64000E+01 3.57110E+01 0.00000E+00
 -1      3620 8.79000E+01 3.57110E+01 0.00000E+00
 -1      3621 3.10350E+01 1.43982E+01 0.00000E+00
 -1      3622 3.02850E+01 1.30992E+01 0.00000E+00
 -1      3623 2.87850E+01 1.30992E+01 0.00000E+00
 -1      3624 3.47850E+01 1.30992E+01 0.00000E+00
 -1      3625 3.40350E+01 1.43982E+01 0.00000E+00
 -1      3626 3.62850E+01 1.30992E+01 0.00000E+00
 -1      3627 1.34022E+02 3.59901E+01 0.00000E+00
 -1      3628 1.35329E+02 3.61011E+01 0.00000E+00
 -1      3629 1.35515E+02 3.52494E+01 0.00000E+00
 -1      3630 1.33272E+02 3.46911E+01 0.00000E+00
 -1      3631 9.39834E+01 2.62592E+01 0.00000E+00
 -1      3632 9.38433E+01 2.80669E+01 0.00000E+00
 -1      3633 4.00350E+01 1.43982E+01 0.00000E+00
 -1      3634 3.92850E+01 1.30992E+01 0.00000E+00
 -1      3635 3.77850E+01 1.30992E+01 0.00000E+00
 -1      3636 1.42890E+01 2.27625E+01 0.00000E+00
 -1      3637 1.42890E+01 2.42375E+01 0.00000E+00
 -1      3638 1.29900E+01 2.64469E+01 0.00000E+00
 -1      3639 6.39748E+01 2.89586E+01 0.00000E+00
 -1      3640 6.38203E+01 2.81400E+01 0.00000E+00
 -1      3641 6.24135E+01 2.77463E+01 0.00000E+00
 -1      3642 1.35711E+02 1.84000E+01 0.00000E+00
 -1      3643 1.35711E+02 1.69250E+01 0.00000E+00
 -1      3644 9.42785E+01 1.87641E+01 0.00000E+00
 -1      3645 1.29900E+01 1.76125E+01 0.00000E+00
 -1      3646 1.36742E+02 1.28130E+01 0.00000E+00
 -1      3647 1.35711E+02 3.01500E+01 0.00000E+00
 -1      3648 1.35711E+02 2.86750E+01 0.00000E+00
 -1      3649 1.34412E+02 2.79500E+01 0.00000E+00
 -1      3650 1.35992E+02 1.41120E+01 0.00000E+00
 -1      3651 1.35773E+02 1.51866E+01 0.00000E+00
 -1      3652 1.62589E+01 3.57429E+01 0.00000E+00
 -1      3653 1.70089E+01 3.44439E+01 0.00000E+00
 -1      3654 1.51178E+01 3.57749E+01 0.00000E+00
 -1      3655 1.42890E+01 2.12938E+01 0.00000E+00
 -1      3656 1.55880E+01 2.20313E+01 0.00000E+00
 -1      3657 1.42890E+01 1.98250E+01 0.00000E+00
 -1      3658 6.21865E+01 2.12690E+01 0.00000E+00
 -1      3659 6.19115E+01 2.04625E+01 0.00000E+00
 -1      3660 6.09513E+01 2.22126E+01 0.00000E+00
 -1      3661 9.14323E+01 3.04429E+01 0.00000E+00
 -1      3662 9.14203E+01 3.16854E+01 0.00000E+00
 -1      3663 9.27392E+01 3.01341E+01 0.00000E+00
 -1      3664 6.17427E+01 2.49734E+01 0.00000E+00
 -1      3665 8.75105E+01 3.34768E+01 0.00000E+00
 -1      3666 8.64963E+01 3.41165E+01 0.00000E+00
 -1      3667 9.45646E+01 2.54791E+01 0.00000E+00
 -1      3668 9.55166E+01 2.64622E+01 0.00000E+00
 -1      3669 9.51458E+01 2.46990E+01 0.00000E+00
 -1      3670 9.01317E+01 3.32031E+01 0.00000E+00
 -1      3671 8.90105E+01 3.34768E+01 0.00000E+00
 -1      3672 2.20350E+01 1.43982E+01 0.00000E+00
 -1      3673 2.12850E+01 1.30992E+01 0.00000E+00
 -1      3674 1.97850E+01 1.30992E+01 0.00000E+00
 -1      3675 1.42890E+01 3.15906E+01 0.00000E+00
 -1      3676 1.42890E+01 3.30594E+01 0.00000E+00
 -1      3677 2.72850E+01 1.30992E+01 0.00000E+00
 -1      3678 2.57850E+01 1.30992E+01 0.00000E+00
 -1      3679 2.80350E+01 1.43982E+01 0.00000E+00
 -1      3680 1.23799E+01 3.61682E+01 0.00000E+00
 -1      3681 1.57279E+01 3.34004E+01 0.00000E+00
 -1      3682 1.44289E+01 3.41348E+01 0.00000E+00
 -1      3683 6.61575E+01 3.07016E+01 0.00000E+00
 -1      3684 6.85628E+01 3.28673E+01 0.00000E+00
 -1      3685 1.34473E+02 1.59241E+01 0.00000E+00
 -1      3686 2.50350E+01 1.43982E+01 0.00000E+00
 -1      3687 1.35702E+02 3.43976E+01 0.00000E+00
 -1      3688 1.36789E+01 3.54338E+01 0.00000E+00
 -1      3689 8.86500E+01 3.44120E+01 0.00000E+00
 -1      3690 1.34487E+02 3.38069E+01 0.00000E+00
 -1      3691 1.35795E+02 3.32342E+01 0.00000E+00
 -1      3692 1.35795E+02 3.17593E+01 0.00000E+00
 -1      3693 1.33365E+02 3.35277E+01 0.00000E+00
 -1      3694 6.19169E+01 1.68244E+01 0.00000E+00
 -1      3695 6.14759E+01 1.56113E+01 0.00000E+00
 -1      3696 5.99759E+01 1.56113E+01 0.00000E+00
 -1      3697 9.57390E+01 2.13919E+01 0.00000E+00
 -1      3698 9.54956E+01 2.30563E+01 0.00000E+00
 -1      3699 9.50576E+01 2.85395E+01 0.00000E+00
 -1      3700 9.39655E+01 2.93642E+01 0.00000E+00
 -1      3701 2.79000E+01 3.31130E+01 0.00000E+00
 -1      3702 2.94000E+01 3.31130E+01 0.00000E+00
 -1      3703 3.09000E+01 3.31130E+01 0.00000E+00
 -1      3704 3.24000E+01 3.31130E+01 0.00000E+00
 -1      3705 3.01500E+01 3.18140E+01 0.00000E+00
 -1      3706 3.39000E+01 3.31130E+01 0.00000E+00
 -1      3707 3.54000E+01 3.31130E+01 0.00000E+00
 -1      3708 3.31500E+01 3.18140E+01 0.00000E+00
 -1      3709 3.69000E+01 3.31130E+01 0.00000E+00
 -1      3710 3.84000E+01 3.31130E+01 0.00000E+00
 -1      3711 3.61500E+01 3.18140E+01 0.00000E+00
 -1      3712 3.99000E+01 3.31130E+01 0.00000E+00
 -1      3713 4.14000E+01 3.31130E+01 0.00000E+00
 -1      3714 3.91500E+01 3.18140E+01 0.00000E+00
 -1      3715 4.29000E+01 3.31130E+01 0.00000E+00
 -1      3716 4.44000E+01 3.31130E+01 0.00000E+00
 -1      3717 4.21500E+01 3.18140E+01 0.00000E+00
 -1      3718 4.59000E+01 3.31130E+01 0.00000E+00
 -1      3719 4.74000E+01 3.31130E+01 0.00000E+00
 -1      3720 4.51500E+01 3.18140E+01 0.00000E+00
 -1      3721 4.89000E+01 3.31130E+01 0.00000E+00
 -1      3722 5.04000E+01 3.31130E+01 0.00000E+00
 -1      3723 4.81500E+01 3.18140E+01 0.00000E+00
 -1      3724 5.19000E+01 3.31130E+01 0.00000E+00
 -1      3725 5.34000E+01 3.31130E+01 0.00000E+00
 -1      3726 5.11500E+01 3.18140E+01 0.00000E+00
 -1      3727 5.49000E+01 3.31130E+01 0.00000E+00
 -1      3728 5.64000E+01 3.31130E+01 0.00000E+00
 -1      3729 5.41500E+01 3.18140E+01 0.00000E+00
 -1      3730 5.79000E+01 3.31130E+01 0.00000E+00
 -1      3731 5.94000E+01 3.31130E+01 0.00000E+00
 -1      3732 5.71500E+01 3.18140E+01 0.00000E+00
 -1      3733 6.09000E+01 3.31130E+01 0.00000E+00
 -1      3734 6.24000E+01 3.31130E+01 0.00000E+00
 -1      3735 6.01500E+01 3.18140E+01 0.00000E+00
 -1      3736 8.57463E+01 3.54155E+01 0.00000E+00
 -1      3737 8.42463E+01 3.54155E+01 0.00000E+00
 -1      3738 9.39000E+01 3.31130E+01 0.00000E+00
 -1      3739 9.54000E+01 3.31130E+01 0.00000E+00
 -1      3740 9.69000E+01 3.31130E+01 0.00000E+00
 -1      3741 9.84000E+01 3.31130E+01 0.00000E+00
 -1      3742 9.61500E+01 3.18140E+01 0.00000E+00
 -1      3743 9.99000E+01 3.31130E+01 0.00000E+00
 -1      3744 1.01400E+02 3.31130E+01 0.00000E+00
 -1      3745 9.91500E+01 3.18140E+01 0.00000E+00
 -1      3746 1.02900E+02 3.31130E+01 0.00000E+00
 -1      3747 1.04400E+02 3.31130E+01 0.00000E+00
 -1      3748 1.02150E+02 3.18140E+01 0.00000E+00
 -1      3749 1.05900E+02 3.31130E+01 0.00000E+00
 -1      3750 1.07400E+02 3.31130E+01 0.00000E+00
 -1      3751 1.05150E+02 3.18140E+01 0.00000E+00
 -1      3752 1.08900E+02 3.31130E+01 0.00000E+00
 -1      3753 1.10400E+02 3.31130E+01 0.00000E+00
 -1      3754 1.08150E+02 3.18140E+01 0.00000E+00
 -1      3755 1.11900E+02 3.31130E+01 0.00000E+00
 -1      3756 1.13400E+02 3.31130E+01 0.00000E+00
 -1      3757 1.11150E+02 3.18140E+01 0.00000E+00
 -1      3758 1.14900E+02 3.31130E+01 0.00000E+00
 -1      3759 1.16400E+02 3.31130E+01 0.00000E+00
 -1      3760 1.14150E+02 3.18140E+01 0.00000E+00
 -1      3761 1.17900E+02 3.31130E+01 0.00000E+00
 -1      3762 1.19400E+02 3.31130E+01 0.00000E+00
 -1      3763 1.17150E+02 3.18140E+01 0.00000E+00
 -1      3764 1.20900E+02 3.31130E+01 0.00000E+00
 -1      3765 1.22400E+02 3.31130E+01 0.00000E+00
 -1      3766 1.20150E+02 3.18140E+01 0.00000E+00
 -1      3767 1.23900E+02 3.31130E+01 0.00000E+00
 -1      3768 1.25400E+02 3.31130E+01 0.00000E+00
 -1      3769 1.23150E+02 3.18140E+01 0.00000E+00
 -1      3770 1.26900E+02 3.31130E+01 0.00000E+00
 -1      3771 1.28400E+02 3.31130E+01 0.00000E+00
 -1      3772 1.26150E+02 3.18140E+01 0.00000E+00
 -1      3773 1.29900E+02 3.31130E+01 0.00000E+00
 -1      3774 1.31400E+02 3.31130E+01 0.00000E+00
 -1      3775 1.29150E+02 3.18140E+01 0.00000E+00
 -1      3776 5.57850E+01 1.56973E+01 0.00000E+00
 -1      3777 5.42850E+01 1.56973E+01 0.00000E+00
 -1      3778 5.27850E+01 1.56973E+01 0.00000E+00
 -1      3779 5.12850E+01 1.56973E+01 0.00000E+00
 -1      3780 5.35350E+01 1.69963E+01 0.00000E+00
 -1      3781 1.55880E+01 2.49719E+01 0.00000E+00
 -1      3782 1.42890E+01 2.57094E+01 0.00000E+00
 -1      3783 1.42890E+01 2.71812E+01 0.00000E+00
 -1      3784 1.03785E+02 1.54846E+01 0.00000E+00
 -1      3785 1.02285E+02 1.54846E+01 0.00000E+00
 -1      3786 9.50726E+01 1.77062E+01 0.00000E+00
 -1      3787 9.54746E+01 1.93292E+01 0.00000E+00
 -1      3788 1.09785E+02 1.54846E+01 0.00000E+00
 -1      3789 1.08285E+02 1.54846E+01 0.00000E+00
 -1      3790 1.06785E+02 1.54846E+01 0.00000E+00
 -1      3791 1.05285E+02 1.54846E+01 0.00000E+00
 -1      3792 1.07535E+02 1.67836E+01 0.00000E+00
 -1      3793 1.00785E+02 1.54846E+01 0.00000E+00
 -1      3794 9.92850E+01 1.54846E+01 0.00000E+00
 -1      3795 1.01535E+02 1.67836E+01 0.00000E+00
 -1      3796 1.12785E+02 1.54846E+01 0.00000E+00
 -1      3797 1.11285E+02 1.54846E+01 0.00000E+00
 -1      3798 1.10535E+02 1.67836E+01 0.00000E+00
 -1      3799 1.15785E+02 1.54846E+01 0.00000E+00
 -1      3800 1.14285E+02 1.54846E+01 0.00000E+00
 -1      3801 1.13535E+02 1.67836E+01 0.00000E+00
 -1      3802 1.18785E+02 1.54846E+01 0.00000E+00
 -1      3803 1.17285E+02 1.54846E+01 0.00000E+00
 -1      3804 1.16535E+02 1.67836E+01 0.00000E+00
 -1      3805 1.21785E+02 1.54846E+01 0.00000E+00
 -1      3806 1.20285E+02 1.54846E+01 0.00000E+00
 -1      3807 1.19535E+02 1.67836E+01 0.00000E+00
 -1      3808 1.24785E+02 1.54846E+01 0.00000E+00
 -1      3809 1.23285E+02 1.54846E+01 0.00000E+00
 -1      3810 1.22535E+02 1.67836E+01 0.00000E+00
 -1      3811 1.27785E+02 1.54846E+01 0.00000E+00
 -1      3812 1.26285E+02 1.54846E+01 0.00000E+00
 -1      3813 1.25535E+02 1.67836E+01 0.00000E+00
 -1      3814 1.30785E+02 1.54846E+01 0.00000E+00
 -1      3815 1.29285E+02 1.54846E+01 0.00000E+00
 -1      3816 1.28535E+02 1.67836E+01 0.00000E+00
 -1      3817 1.32973E+02 1.59241E+01 0.00000E+00
 -1      3818 2.57850E+01 1.56973E+01 0.00000E+00
 -1      3819 2.42850E+01 1.56973E+01 0.00000E+00
 -1      3820 1.68690E+01 3.33685E+01 0.00000E+00
 -1      3821 1.80101E+01 3.33366E+01 0.00000E+00
 -1      3822 1.67291E+01 3.22931E+01 0.00000E+00
 -1      3823 6.17817E+01 1.81717E+01 0.00000E+00
 -1      3824 8.27772E+01 3.62422E+01 0.00000E+00
 -1      3825 1.85578E+01 1.28746E+01 0.00000E+00
 -1      3826 1.72397E+01 1.27248E+01 0.00000E+00
 -1      3827 1.68534E+01 1.37242E+01 0.00000E+00
 -1      3828 1.93078E+01 1.41736E+01 0.00000E+00
 -1      3829 1.42890E+01 2.86531E+01 0.00000E+00
 -1      3830 1.42890E+01 3.01219E+01 0.00000E+00
 -1      3831 1.55880E+01 3.08563E+01 0.00000E+00
 -1      3832 1.32223E+02 1.72231E+01 0.00000E+00
 -1      3833 9.16317E+01 3.32031E+01 0.00000E+00
 -1      3834 1.35711E+02 2.13391E+01 0.00000E+00
 -1      3835 1.35711E+02 1.98672E+01 0.00000E+00
 -1      3836 1.34412E+02 1.91297E+01 0.00000E+00
 -1      3837 1.34412E+02 2.20641E+01 0.00000E+00
 -1      3838 1.58860E+01 1.50773E+01 0.00000E+00
 -1      3839 1.45679E+01 1.63963E+01 0.00000E+00
 -1      3840 2.19000E+01 3.31130E+01 0.00000E+00
 -1      3841 2.34000E+01 3.31130E+01 0.00000E+00
 -1      3842 6.55267E+01 3.16571E+01 0.00000E+00
 -1      3843 6.47507E+01 3.03079E+01 0.00000E+00
 -1      3844 6.33439E+01 2.99142E+01 0.00000E+00
 -1      3845 9.59018E+01 1.62285E+01 0.00000E+00
 -1      3846 6.07450E+01 2.62824E+01 0.00000E+00
 -1      3847 6.02286E+01 2.43281E+01 0.00000E+00
 -1      3848 6.65417E+01 3.32314E+01 0.00000E+00
 -1      3849 1.45679E+01 1.78713E+01 0.00000E+00
 -1      3850 5.86305E+01 1.56543E+01 0.00000E+00
 -1      3851 5.71305E+01 1.56543E+01 0.00000E+00
 -1      3852 5.63805E+01 1.69533E+01 0.00000E+00
 -1      3853 5.90714E+01 1.68674E+01 0.00000E+00
 -1      3854 4.37850E+01 1.56973E+01 0.00000E+00
 -1      3855 4.22850E+01 1.56973E+01 0.00000E+00
 -1      3856 1.92051E+01 3.32248E+01 0.00000E+00
 -1      3857 2.07051E+01 3.32248E+01 0.00000E+00
 -1      3858 2.14551E+01 3.19258E+01 0.00000E+00
 -1      3859 1.90652E+01 3.21493E+01 0.00000E+00
 -1      3860 2.49000E+01 3.31130E+01 0.00000E+00
 -1      3861 2.64000E+01 3.31130E+01 0.00000E+00
 -1      3862 2.41500E+01 3.18140E+01 0.00000E+00
 -1      3863 6.51349E+01 3.28377E+01 0.00000E+00
 -1      3864 1.33113E+02 2.57391E+01 0.00000E+00
 -1      3865 1.33113E+02 2.42672E+01 0.00000E+00
 -1      3866 9.65331E+01 2.03340E+01 0.00000E+00
 -1      3867 9.75915E+01 2.13387E+01 0.00000E+00
 -1      3868 9.73271E+01 1.92760E+01 0.00000E+00
 -1      3869 9.39535E+01 3.06067E+01 0.00000E+00
 -1      3870 6.28849E+01 3.15387E+01 0.00000E+00
 -1      3871 6.36349E+01 3.28377E+01 0.00000E+00
 -1      3872 5.86966E+01 2.41952E+01 0.00000E+00
 -1      3873 5.96943E+01 2.28862E+01 0.00000E+00
 -1      3874 3.17850E+01 1.56973E+01 0.00000E+00
 -1      3875 3.02850E+01 1.56973E+01 0.00000E+00
 -1      3876 4.67850E+01 1.56973E+01 0.00000E+00
 -1      3877 4.52850E+01 1.56973E+01 0.00000E+00
 -1      3878 4.45350E+01 1.69963E+01 0.00000E+00
 -1      3879 1.32615E+02 3.22287E+01 0.00000E+00
 -1      3880 3.70350E+01 1.43982E+01 0.00000E+00
 -1      3881 1.55880E+01 2.79156E+01 0.00000E+00
 -1      3882 4.15350E+01 1.69963E+01 0.00000E+00
 -1      3883 4.07850E+01 1.56973E+01 0.00000E+00
 -1      3884 3.92850E+01 1.56973E+01 0.00000E+00
 -1      3885 3.47850E+01 1.56973E+01 0.00000E+00
 -1      3886 3.32850E+01 1.56973E+01 0.00000E+00
 -1      3887 3.25350E+01 1.69963E+01 0.00000E+00
 -1      3888 1.68870E+01 2.42359E+01 0.00000E+00
 -1      3889 1.68870E+01 2.57078E+01 0.00000E+00
 -1      3890 9.64477E+01 2.40394E+01 0.00000E+00
 -1      3891 1.04535E+02 1.67836E+01 0.00000E+00
 -1      3892 9.74018E+01 1.62285E+01 0.00000E+00
 -1      3893 1.71132E+01 1.53020E+01 0.00000E+00
 -1      3894 9.81518E+01 1.75275E+01 0.00000E+00
 -1      3895 9.29386E+01 3.28943E+01 0.00000E+00
 -1      3896 1.67291E+01 3.08243E+01 0.00000E+00
 -1      3897 2.71500E+01 3.18140E+01 0.00000E+00
 -1      3898 1.34496E+02 3.10343E+01 0.00000E+00
 -1      3899 1.58669E+01 1.86088E+01 0.00000E+00
 -1      3900 5.94194E+01 2.20797E+01 0.00000E+00
 -1      3901 2.27850E+01 1.56973E+01 0.00000E+00
 -1      3902 2.12850E+01 1.56973E+01 0.00000E+00
 -1      3903 2.35350E+01 1.69963E+01 0.00000E+00
 -1      3904 4.97850E+01 1.56973E+01 0.00000E+00
 -1      3905 4.82850E+01 1.56973E+01 0.00000E+00
 -1      3906 4.75350E+01 1.69963E+01 0.00000E+00
 -1      3907 6.05466E+01 1.91153E+01 0.00000E+00
 -1      3908 9.66965E+01 2.67347E+01 0.00000E+00
 -1      3909 9.61152E+01 2.75148E+01 0.00000E+00
 -1      3910 1.32223E+02 1.86903E+01 0.00000E+00
 -1      3911 1.30035E+02 1.82508E+01 0.00000E+00
 -1      3912 1.32223E+02 2.01574E+01 0.00000E+00
 -1      3913 9.62374E+01 2.88121E+01 0.00000E+00
 -1      3914 6.09927E+01 2.78001E+01 0.00000E+00
 -1      3915 5.94786E+01 2.71547E+01 0.00000E+00
 -1      3916 1.33113E+02 2.72141E+01 0.00000E+00
 -1      3917 1.31814E+02 2.64781E+01 0.00000E+00
 -1      3918 1.33113E+02 2.86891E+01 0.00000E+00
 -1      3919 2.87850E+01 1.56973E+01 0.00000E+00
 -1      3920 2.72850E+01 1.56973E+01 0.00000E+00
 -1      3921 2.65350E+01 1.69963E+01 0.00000E+00
 -1      3922 2.95350E+01 1.69963E+01 0.00000E+00
 -1      3923 1.68870E+01 2.12984E+01 0.00000E+00
 -1      3924 1.68870E+01 2.27672E+01 0.00000E+00
 -1      3925 1.81860E+01 2.35031E+01 0.00000E+00
 -1      3926 5.05350E+01 1.69963E+01 0.00000E+00
 -1      3927 6.11472E+01 2.86187E+01 0.00000E+00
 -1      3928 6.21090E+01 3.01895E+01 0.00000E+00
 -1      3929 1.14285E+02 1.80826E+01 0.00000E+00
 -1      3930 1.12785E+02 1.80826E+01 0.00000E+00
 -1      3931 5.93103E+01 2.06190E+01 0.00000E+00
 -1      3932 5.91805E+01 1.83281E+01 0.00000E+00
 -1      3933 5.78350E+01 1.83711E+01 0.00000E+00
 -1      3934 5.80532E+01 2.12925E+01 0.00000E+00
 -1      3935 3.24000E+01 3.05150E+01 0.00000E+00
 -1      3936 3.39000E+01 3.05150E+01 0.00000E+00
 -1      3937 3.54000E+01 3.05150E+01 0.00000E+00
 -1      3938 3.69000E+01 3.05150E+01 0.00000E+00
 -1      3939 3.46500E+01 2.92160E+01 0.00000E+00
 -1      3940 3.84000E+01 3.05150E+01 0.00000E+00
 -1      3941 3.99000E+01 3.05150E+01 0.00000E+00
 -1      3942 3.76500E+01 2.92160E+01 0.00000E+00
 -1      3943 4.14000E+01 3.05150E+01 0.00000E+00
 -1      3944 4.29000E+01 3.05150E+01 0.00000E+00
 -1      3945 4.06500E+01 2.92160E+01 0.00000E+00
 -1      3946 4.44000E+01 3.05150E+01 0.00000E+00
 -1      3947 4.59000E+01 3.05150E+01 0.00000E+00
 -1      3948 4.36500E+01 2.92160E+01 0.00000E+00
 -1      3949 4.74000E+01 3.05150E+01 0.00000E+00
 -1      3950 4.89000E+01 3.05150E+01 0.00000E+00
 -1      3951 4.66500E+01 2.92160E+01 0.00000E+00
 -1      3952 5.04000E+01 3.05150E+01 0.00000E+00
 -1      3953 5.19000E+01 3.05150E+01 0.00000E+00
 -1      3954 4.96500E+01 2.92160E+01 0.00000E+00
 -1      3955 5.34000E+01 3.05150E+01 0.00000E+00
 -1      3956 5.49000E+01 3.05150E+01 0.00000E+00
 -1      3957 5.26500E+01 2.92160E+01 0.00000E+00
 -1      3958 5.91882E+01 3.02432E+01 0.00000E+00
 -1      3959 6.06882E+01 3.02432E+01 0.00000E+00
 -1      3960 1.08285E+02 1.80826E+01 0.00000E+00
 -1      3961 1.06785E+02 1.80826E+01 0.00000E+00
 -1      3962 1.81860E+01 2.64438E+01 0.00000E+00
 -1      3963 1.68870E+01 2.71797E+01 0.00000E+00
 -1      3964 1.68870E+01 2.86516E+01 0.00000E+00
 -1      3965 9.36886E+01 3.15953E+01 0.00000E+00
 -1      3966 9.84000E+01 3.05150E+01 0.00000E+00
 -1      3967 9.99000E+01 3.05150E+01 0.00000E+00
 -1      3968 1.01400E+02 3.05150E+01 0.00000E+00
 -1      3969 1.02900E+02 3.05150E+01 0.00000E+00
 -1      3970 1.00650E+02 2.92160E+01 0.00000E+00
 -1      3971 1.04400E+02 3.05150E+01 0.00000E+00
 -1      3972 1.05900E+02 3.05150E+01 0.00000E+00
 -1      3973 1.03650E+02 2.92160E+01 0.00000E+00
 -1      3974 1.07400E+02 3.05150E+01 0.00000E+00
 -1      3975 1.08900E+02 3.05150E+01 0.00000E+00
 -1      3976 1.06650E+02 2.92160E+01 0.00000E+00
 -1      3977 1.10400E+02 3.05150E+01 0.00000E+00
 -1      3978 1.11900E+02 3.05150E+01 0.00000E+00
 -1      3979 1.09650E+02 2.92160E+01 0.00000E+00
 -1      3980 1.13400E+02 3.05150E+01 0.00000E+00
 -1      3981 1.14900E+02 3.05150E+01 0.00000E+00
 -1      3982 1.12650E+02 2.92160E+01 0.00000E+00
 -1      3983 1.16400E+02 3.05150E+01 0.00000E+00
 -1      3984 1.17900E+02 3.05150E+01 0.00000E+00
 -1      3985 1.15650E+02 2.92160E+01 0.00000E+00
 -1      3986 1.19400E+02 3.05150E+01 0.00000E+00
 -1      3987 1.20900E+02 3.05150E+01 0.00000E+00
 -1      3988 1.18650E+02 2.92160E+01 0.00000E+00
 -1      3989 1.22400E+02 3.05150E+01 0.00000E+00
 -1      3990 1.23900E+02 3.05150E+01 0.00000E+00
 -1      3991 1.21650E+02 2.92160E+01 0.00000E+00
 -1      3992 1.25400E+02 3.05150E+01 0.00000E+00
 -1      3993 1.26900E+02 3.05150E+01 0.00000E+00
 -1      3994 1.24650E+02 2.92160E+01 0.00000E+00
 -1      3995 1.28400E+02 3.05150E+01 0.00000E+00
 -1      3996 1.29900E+02 3.05150E+01 0.00000E+00
 -1      3997 1.27650E+02 2.92160E+01 0.00000E+00
 -1      3998 1.32531E+02 3.06195E+01 0.00000E+00
 -1      3999 9.49149E+01 3.08254E+01 0.00000E+00
 -1      4000 5.12850E+01 1.82952E+01 0.00000E+00
 -1      4001 4.97850E+01 1.82952E+01 0.00000E+00
 -1      4002 9.78931E+01 2.34885E+01 0.00000E+00
 -1      4003 9.75433E+01 2.51313E+01 0.00000E+00
 -1      4004 1.11285E+02 1.80826E+01 0.00000E+00
 -1      4005 1.09785E+02 1.80826E+01 0.00000E+00
 -1      4006 1.09035E+02 1.93816E+01 0.00000E+00
 -1      4007 1.12035E+02 1.93816E+01 0.00000E+00
 -1      4008 1.02285E+02 1.80826E+01 0.00000E+00
 -1      4009 1.00785E+02 1.80826E+01 0.00000E+00
 -1      4010 1.17285E+02 1.80826E+01 0.00000E+00
 -1      4011 1.15785E+02 1.80826E+01 0.00000E+00
 -1      4012 1.15035E+02 1.93816E+01 0.00000E+00
 -1      4013 1.20285E+02 1.80826E+01 0.00000E+00
 -1      4014 1.18785E+02 1.80826E+01 0.00000E+00
 -1      4015 1.18035E+02 1.93816E+01 0.00000E+00
 -1      4016 1.23285E+02 1.80826E+01 0.00000E+00
 -1      4017 1.21785E+02 1.80826E+01 0.00000E+00
 -1      4018 1.21035E+02 1.93816E+01 0.00000E+00
 -1      4019 1.26285E+02 1.80826E+01 0.00000E+00
 -1      4020 1.24785E+02 1.80826E+01 0.00000E+00
 -1      4021 1.24035E+02 1.93816E+01 0.00000E+00
 -1      4022 1.28910E+02 1.81667E+01 0.00000E+00
 -1      4023 1.27410E+02 1.81667E+01 0.00000E+00
 -1      4024 1.26660E+02 1.94657E+01 0.00000E+00
 -1      4025 1.28910E+02 1.96339E+01 0.00000E+00
 -1      4026 9.64149E+01 3.08254E+01 0.00000E+00
 -1      4027 3.77850E+01 1.56973E+01 0.00000E+00
 -1      4028 3.62850E+01 1.56973E+01 0.00000E+00
 -1      4029 3.55350E+01 1.69963E+01 0.00000E+00
 -1      4030 3.85350E+01 1.69963E+01 0.00000E+00
 -1      4031 1.98127E+01 1.56119E+01 0.00000E+00
 -1      4032 1.85855E+01 1.53873E+01 0.00000E+00
 -1      4033 1.76181E+01 1.67403E+01 0.00000E+00
 -1      4034 2.05627E+01 1.69109E+01 0.00000E+00
 -1      4035 1.05285E+02 1.80826E+01 0.00000E+00
 -1      4036 1.03785E+02 1.80826E+01 0.00000E+00
 -1      4037 1.03035E+02 1.93816E+01 0.00000E+00
 -1      4038 2.94000E+01 3.05150E+01 0.00000E+00
 -1      4039 3.09000E+01 3.05150E+01 0.00000E+00
 -1      4040 3.16500E+01 2.92160E+01 0.00000E+00
 -1      4041 9.81419E+01 2.61839E+01 0.00000E+00
 -1      4042 9.71649E+01 2.95264E+01 0.00000E+00
 -1      4043 1.32668E+02 2.29459E+01 0.00000E+00
 -1      4044 1.32668E+02 2.14787E+01 0.00000E+00
 -1      4045 1.30480E+02 2.10393E+01 0.00000E+00
 -1      4046 1.31369E+02 2.36818E+01 0.00000E+00
 -1      4047 2.34000E+01 3.05150E+01 0.00000E+00
 -1      4048 2.49000E+01 3.05150E+01 0.00000E+00
 -1      4049 9.92103E+01 1.85322E+01 0.00000E+00
 -1      4050 1.73920E+01 1.80425E+01 0.00000E+00
 -1      4051 1.71131E+01 1.99963E+01 0.00000E+00
 -1      4052 1.84121E+01 2.07322E+01 0.00000E+00
 -1      4053 1.88643E+01 1.81278E+01 0.00000E+00
 -1      4054 2.64000E+01 3.05150E+01 0.00000E+00
 -1      4055 2.79000E+01 3.05150E+01 0.00000E+00
 -1      4056 2.86500E+01 2.92160E+01 0.00000E+00
 -1      4057 5.83204E+01 2.81228E+01 0.00000E+00
 -1      4058 5.80727E+01 2.66052E+01 0.00000E+00
 -1      4059 5.75384E+01 2.51632E+01 0.00000E+00
 -1      4060 5.70042E+01 2.37213E+01 0.00000E+00
 -1      4061 5.63803E+01 2.61313E+01 0.00000E+00
 -1      4062 1.80281E+01 3.00884E+01 0.00000E+00
 -1      4063 5.42850E+01 1.82952E+01 0.00000E+00
 -1      4064 5.27850E+01 1.82952E+01 0.00000E+00
 -1      4065 5.20350E+01 1.95942E+01 0.00000E+00
 -1      4066 9.82225E+01 2.85017E+01 0.00000E+00
 -1      4067 5.77823E+01 2.96936E+01 0.00000E+00
 -1      4068 9.94813E+01 2.13726E+01 0.00000E+00
 -1      4069 9.86872E+01 2.24306E+01 0.00000E+00
 -1      4070 9.97828E+01 2.35225E+01 0.00000E+00
 -1      4071 5.67328E+01 1.83117E+01 0.00000E+00
 -1      4072 5.53873E+01 1.83546E+01 0.00000E+00
 -1      4073 5.46373E+01 1.96536E+01 0.00000E+00
 -1      4074 5.68419E+01 1.97724E+01 0.00000E+00
 -1      4075 5.55323E+01 2.83946E+01 0.00000E+00
 -1      4076 5.62823E+01 2.96936E+01 0.00000E+00
 -1      4077 1.06035E+02 1.93816E+01 0.00000E+00
 -1      4078 1.94850E+01 2.27687E+01 0.00000E+00
 -1      4079 1.94850E+01 2.42375E+01 0.00000E+00
 -1      4080 4.52850E+01 1.82952E+01 0.00000E+00
 -1      4081 4.37850E+01 1.82952E+01 0.00000E+00
 -1      4082 4.22850E+01 1.82952E+01 0.00000E+00
 -1      4083 4.07850E+01 1.82952E+01 0.00000E+00
 -1      4084 4.30350E+01 1.95942E+01 0.00000E+00
 -1      4085 1.31232E+02 2.98836E+01 0.00000E+00
 -1      4086 3.32850E+01 1.82952E+01 0.00000E+00
 -1      4087 3.17850E+01 1.82952E+01 0.00000E+00
 -1      4088 9.89322E+01 2.73428E+01 0.00000E+00
 -1      4089 9.98597E+01 2.80571E+01 0.00000E+00
 -1      4090 1.01360E+02 2.80571E+01 0.00000E+00
 -1      4091 9.97790E+01 2.57393E+01 0.00000E+00
 -1      4092 1.30482E+02 2.85846E+01 0.00000E+00
 -1      4093 2.56500E+01 2.92160E+01 0.00000E+00
 -1      4094 2.42850E+01 1.82952E+01 0.00000E+00
 -1      4095 2.27850E+01 1.82952E+01 0.00000E+00
 -1      4096 2.07840E+01 2.49750E+01 0.00000E+00
 -1      4097 1.94850E+01 2.57094E+01 0.00000E+00
 -1      4098 1.94850E+01 2.71812E+01 0.00000E+00
 -1      4099 1.92231E+01 2.99766E+01 0.00000E+00
 -1      4100 2.22051E+01 3.06268E+01 0.00000E+00
 -1      4101 2.29551E+01 2.93278E+01 0.00000E+00
 -1      4102 2.10101E+01 3.07386E+01 0.00000E+00
 -1      4103 9.99603E+01 1.98312E+01 0.00000E+00
 -1      4104 3.10350E+01 1.95942E+01 0.00000E+00
 -1      4105 3.02850E+01 1.82952E+01 0.00000E+00
 -1      4106 2.87850E+01 1.82952E+01 0.00000E+00
 -1      4107 5.69776E+01 2.24772E+01 0.00000E+00
 -1      4108 5.68685E+01 2.10165E+01 0.00000E+00
 -1      4109 5.57662E+01 2.09571E+01 0.00000E+00
 -1      4110 5.58194E+01 2.34453E+01 0.00000E+00
 -1      4111 1.30482E+02 2.71096E+01 0.00000E+00
 -1      4112 1.30482E+02 2.56346E+01 0.00000E+00
 -1      4113 1.29150E+02 2.77410E+01 0.00000E+00
 -1      4114 4.82850E+01 1.82952E+01 0.00000E+00
 -1      4115 4.67850E+01 1.82952E+01 0.00000E+00
 -1      4116 4.60350E+01 1.95942E+01 0.00000E+00
 -1      4117 1.30037E+02 2.43133E+01 0.00000E+00
 -1      4118 1.29592E+02 2.29920E+01 0.00000E+00
 -1      4119 1.28705E+02 2.49447E+01 0.00000E+00
 -1      4120 2.72850E+01 1.82952E+01 0.00000E+00
 -1      4121 2.57850E+01 1.82952E+01 0.00000E+00
 -1      4122 2.80350E+01 1.95942E+01 0.00000E+00
 -1      4123 2.50350E+01 1.95942E+01 0.00000E+00
 -1      4124 4.90350E+01 1.95942E+01 0.00000E+00
 -1      4125 1.27650E+02 2.77410E+01 0.00000E+00
 -1      4126 1.18785E+02 2.06806E+01 0.00000E+00
 -1      4127 1.17285E+02 2.06806E+01 0.00000E+00
 -1      4128 3.39000E+01 2.79170E+01 0.00000E+00
 -1      4129 3.54000E+01 2.79170E+01 0.00000E+00
 -1      4130 3.69000E+01 2.79170E+01 0.00000E+00
 -1      4131 3.84000E+01 2.79170E+01 0.00000E+00
 -1      4132 3.61500E+01 2.66180E+01 0.00000E+00
 -1      4133 3.99000E+01 2.79170E+01 0.00000E+00
 -1      4134 4.14000E+01 2.79170E+01 0.00000E+00
 -1      4135 3.91500E+01 2.66180E+01 0.00000E+00
 -1      4136 4.29000E+01 2.79170E+01 0.00000E+00
 -1      4137 4.44000E+01 2.79170E+01 0.00000E+00
 -1      4138 4.21500E+01 2.66180E+01 0.00000E+00
 -1      4139 4.59000E+01 2.79170E+01 0.00000E+00
 -1      4140 4.74000E+01 2.79170E+01 0.00000E+00
 -1      4141 4.51500E+01 2.66180E+01 0.00000E+00
 -1      4142 4.89000E+01 2.79170E+01 0.00000E+00
 -1      4143 5.04000E+01 2.79170E+01 0.00000E+00
 -1      4144 4.81500E+01 2.66180E+01 0.00000E+00
 -1      4145 5.19000E+01 2.79170E+01 0.00000E+00
 -1      4146 5.34000E+01 2.79170E+01 0.00000E+00
 -1      4147 5.11500E+01 2.66180E+01 0.00000E+00
 -1      4148 5.27850E+01 2.08932E+01 0.00000E+00
 -1      4149 5.12850E+01 2.08932E+01 0.00000E+00
 -1      4150 2.49000E+01 2.79170E+01 0.00000E+00
 -1      4151 2.64000E+01 2.79170E+01 0.00000E+00
 -1      4152 3.47850E+01 1.82952E+01 0.00000E+00
 -1      4153 3.40350E+01 1.95942E+01 0.00000E+00
 -1      4154 3.62850E+01 1.82952E+01 0.00000E+00
 -1      4155 1.02860E+02 2.80571E+01 0.00000E+00
 -1      4156 1.04360E+02 2.80571E+01 0.00000E+00
 -1      4157 1.02069E+02 2.68982E+01 0.00000E+00
 -1      4158 1.05860E+02 2.80571E+01 0.00000E+00
 -1      4159 1.07360E+02 2.80571E+01 0.00000E+00
 -1      4160 1.05069E+02 2.68982E+01 0.00000E+00
 -1      4161 1.08860E+02 2.80571E+01 0.00000E+00
 -1      4162 1.10360E+02 2.80571E+01 0.00000E+00
 -1      4163 1.08069E+02 2.68982E+01 0.00000E+00
 -1      4164 1.11860E+02 2.80571E+01 0.00000E+00
 -1      4165 1.13360E+02 2.80571E+01 0.00000E+00
 -1      4166 1.11069E+02 2.68982E+01 0.00000E+00
 -1      4167 1.14860E+02 2.80571E+01 0.00000E+00
 -1      4168 1.16360E+02 2.80571E+01 0.00000E+00
 -1      4169 1.14069E+02 2.68982E+01 0.00000E+00
 -1      4170 1.17860E+02 2.80571E+01 0.00000E+00
 -1      4171 1.19360E+02 2.80571E+01 0.00000E+00
 -1      4172 1.17069E+02 2.68982E+01 0.00000E+00
 -1      4173 1.20860E+02 2.80571E+01 0.00000E+00
 -1      4174 1.22360E+02 2.80571E+01 0.00000E+00
 -1      4175 1.20069E+02 2.68982E+01 0.00000E+00
 -1      4176 1.23860E+02 2.80571E+01 0.00000E+00
 -1      4177 1.25360E+02 2.80571E+01 0.00000E+00
 -1      4178 1.23069E+02 2.68982E+01 0.00000E+00
 -1      4179 2.15608E+01 1.82542E+01 0.00000E+00
 -1      4180 2.00885E+01 1.81689E+01 0.00000E+00
 -1      4181 1.98624E+01 1.94711E+01 0.00000E+00
 -1      4182 2.23108E+01 1.95532E+01 0.00000E+00
 -1      4183 1.26860E+02 2.65821E+01 0.00000E+00
 -1      4184 1.21785E+02 2.06806E+01 0.00000E+00
 -1      4185 1.20285E+02 2.06806E+01 0.00000E+00
 -1      4186 1.19535E+02 2.19796E+01 0.00000E+00
 -1      4187 1.15785E+02 2.06806E+01 0.00000E+00
 -1      4188 1.14285E+02 2.06806E+01 0.00000E+00
 -1      4189 1.16535E+02 2.19796E+01 0.00000E+00
 -1      4190 1.24785E+02 2.06806E+01 0.00000E+00
 -1      4191 1.23285E+02 2.06806E+01 0.00000E+00
 -1      4192 1.22535E+02 2.19796E+01 0.00000E+00
 -1      4193 3.09000E+01 2.79170E+01 0.00000E+00
 -1      4194 3.24000E+01 2.79170E+01 0.00000E+00
 -1      4195 3.31500E+01 2.66180E+01 0.00000E+00
 -1      4196 2.79000E+01 2.79170E+01 0.00000E+00
 -1      4197 2.94000E+01 2.79170E+01 0.00000E+00
 -1      4198 2.71500E+01 2.66180E+01 0.00000E+00
 -1      4199 5.47823E+01 2.70956E+01 0.00000E+00
 -1      4200 5.42480E+01 2.56537E+01 0.00000E+00
 -1      4201 1.03785E+02 2.06806E+01 0.00000E+00
 -1      4202 1.02285E+02 2.06806E+01 0.00000E+00
 -1      4203 4.97850E+01 2.08932E+01 0.00000E+00
 -1      4204 4.82850E+01 2.08932E+01 0.00000E+00
 -1      4205 5.05350E+01 2.21922E+01 0.00000E+00
 -1      4206 2.57850E+01 2.08932E+01 0.00000E+00
 -1      4207 2.42850E+01 2.08932E+01 0.00000E+00
 -1      4208 1.29474E+02 2.19736E+01 0.00000E+00
 -1      4209 1.29029E+02 2.06523E+01 0.00000E+00
 -1      4210 1.27904E+02 2.05682E+01 0.00000E+00
 -1      4211 1.28142E+02 2.26050E+01 0.00000E+00
 -1      4212 4.67850E+01 2.08932E+01 0.00000E+00
 -1      4213 4.52850E+01 2.08932E+01 0.00000E+00
 -1      4214 4.75350E+01 2.21922E+01 0.00000E+00
 -1      4215 1.01056E+02 2.09231E+01 0.00000E+00
 -1      4216 1.99731E+01 2.86776E+01 0.00000E+00
 -1      4217 1.06785E+02 2.06806E+01 0.00000E+00
 -1      4218 1.05285E+02 2.06806E+01 0.00000E+00
 -1      4219 1.04535E+02 2.19796E+01 0.00000E+00
 -1      4220 1.13535E+02 2.19796E+01 0.00000E+00
 -1      4221 1.12785E+02 2.06806E+01 0.00000E+00
 -1      4222 1.11285E+02 2.06806E+01 0.00000E+00
 -1      4223 2.38108E+01 2.21512E+01 0.00000E+00
 -1      4224 2.30608E+01 2.08522E+01 0.00000E+00
 -1      4225 2.18366E+01 2.08111E+01 0.00000E+00
 -1      4226 2.12721E+01 2.79432E+01 0.00000E+00
 -1      4227 4.37850E+01 2.08932E+01 0.00000E+00
 -1      4228 4.22850E+01 2.08932E+01 0.00000E+00
 -1      4229 4.45350E+01 2.21922E+01 0.00000E+00
 -1      4230 1.96363E+01 2.07733E+01 0.00000E+00
 -1      4231 2.09353E+01 2.15076E+01 0.00000E+00
 -1      4232 5.23425E+01 2.44051E+01 0.00000E+00
 -1      4233 5.39405E+01 2.34408E+01 0.00000E+00
 -1      4234 3.47850E+01 2.08932E+01 0.00000E+00
 -1      4235 3.32850E+01 2.08932E+01 0.00000E+00
 -1      4236 4.00350E+01 1.95942E+01 0.00000E+00
 -1      4237 3.92850E+01 1.82952E+01 0.00000E+00
 -1      4238 3.77850E+01 1.82952E+01 0.00000E+00
 -1      4239 1.00531E+02 2.46309E+01 0.00000E+00
 -1      4240 1.01321E+02 2.57898E+01 0.00000E+00
 -1      4241 1.02821E+02 2.57898E+01 0.00000E+00
 -1      4242 1.01325E+02 2.35729E+01 0.00000E+00
 -1      4243 1.09785E+02 2.06806E+01 0.00000E+00
 -1      4244 1.08285E+02 2.06806E+01 0.00000E+00
 -1      4245 1.10535E+02 2.19796E+01 0.00000E+00
 -1      4246 3.01500E+01 2.66180E+01 0.00000E+00
 -1      4247 1.26907E+02 2.06665E+01 0.00000E+00
 -1      4248 1.25782E+02 2.05824E+01 0.00000E+00
 -1      4249 1.25032E+02 2.18814E+01 0.00000E+00
 -1      4250 1.27026E+02 2.16849E+01 0.00000E+00
 -1      4251 1.26415E+02 2.52608E+01 0.00000E+00
 -1      4252 2.16853E+01 2.28066E+01 0.00000E+00
 -1      4253 5.46639E+01 2.08977E+01 0.00000E+00
 -1      4254 3.17850E+01 2.08932E+01 0.00000E+00
 -1      4255 3.02850E+01 2.08932E+01 0.00000E+00
 -1      4256 3.25350E+01 2.21922E+01 0.00000E+00
 -1      4257 1.01806E+02 2.22221E+01 0.00000E+00
 -1      4258 1.07535E+02 2.19796E+01 0.00000E+00
 -1      4259 5.39139E+01 2.21967E+01 0.00000E+00
 -1      4260 2.72850E+01 2.08932E+01 0.00000E+00
 -1      4261 2.65350E+01 2.21922E+01 0.00000E+00
 -1      4262 2.87850E+01 2.08932E+01 0.00000E+00
 -1      4263 2.24886E+01 2.79860E+01 0.00000E+00
 -1      4264 2.36835E+01 2.78742E+01 0.00000E+00
 -1      4265 2.44335E+01 2.65752E+01 0.00000E+00
 -1      4266 2.20005E+01 2.64897E+01 0.00000E+00
 -1      4267 2.27480E+01 2.32148E+01 0.00000E+00
 -1      4268 2.18468E+01 2.39113E+01 0.00000E+00
 -1      4269 2.18468E+01 2.53832E+01 0.00000E+00
 -1      4270 2.39722E+01 2.32559E+01 0.00000E+00
 -1      4271 4.78425E+01 2.44051E+01 0.00000E+00
 -1      4272 4.63425E+01 2.44051E+01 0.00000E+00
 -1      4273 5.08425E+01 2.44051E+01 0.00000E+00
 -1      4274 3.84000E+01 2.53190E+01 0.00000E+00
 -1      4275 3.99000E+01 2.53190E+01 0.00000E+00
 -1      4276 4.18425E+01 2.44051E+01 0.00000E+00
 -1      4277 4.33425E+01 2.44051E+01 0.00000E+00
 -1      4278 4.48425E+01 2.44051E+01 0.00000E+00
 -1      4279 4.93425E+01 2.44051E+01 0.00000E+00
 -1      4280 1.02554E+02 2.33305E+01 0.00000E+00
 -1      4281 1.04321E+02 2.57898E+01 0.00000E+00
 -1      4282 1.05821E+02 2.57898E+01 0.00000E+00
 -1      4283 1.03573E+02 2.46814E+01 0.00000E+00
 -1      4284 1.07321E+02 2.57898E+01 0.00000E+00
 -1      4285 1.08821E+02 2.57898E+01 0.00000E+00
 -1      4286 1.06573E+02 2.46814E+01 0.00000E+00
 -1      4287 1.10321E+02 2.57898E+01 0.00000E+00
 -1      4288 1.11821E+02 2.57898E+01 0.00000E+00
 -1      4289 1.09573E+02 2.46814E+01 0.00000E+00
 -1      4290 1.13321E+02 2.57898E+01 0.00000E+00
 -1      4291 1.14821E+02 2.57898E+01 0.00000E+00
 -1      4292 1.12573E+02 2.46814E+01 0.00000E+00
 -1      4293 1.16321E+02 2.57898E+01 0.00000E+00
 -1      4294 1.17821E+02 2.57898E+01 0.00000E+00
 -1      4295 1.15573E+02 2.46814E+01 0.00000E+00
 -1      4296 1.19321E+02 2.57898E+01 0.00000E+00
 -1      4297 1.20821E+02 2.57898E+01 0.00000E+00
 -1      4298 1.18573E+02 2.46814E+01 0.00000E+00
 -1      4299 1.22321E+02 2.57898E+01 0.00000E+00
 -1      4300 1.23821E+02 2.57898E+01 0.00000E+00
 -1      4301 1.21573E+02 2.46814E+01 0.00000E+00
 -1      4302 1.23554E+02 2.33305E+01 0.00000E+00
 -1      4303 1.22054E+02 2.33305E+01 0.00000E+00
 -1      4304 1.20554E+02 2.33305E+01 0.00000E+00
 -1      4305 1.19054E+02 2.33305E+01 0.00000E+00
 -1      4306 3.28425E+01 2.44051E+01 0.00000E+00
 -1      4307 3.43425E+01 2.44051E+01 0.00000E+00
 -1      4308 1.17554E+02 2.33305E+01 0.00000E+00
 -1      4309 1.16054E+02 2.33305E+01 0.00000E+00
 -1      4310 3.56213E+01 2.48621E+01 0.00000E+00
 -1      4311 3.71213E+01 2.48621E+01 0.00000E+00
 -1      4312 3.78713E+01 2.35631E+01 0.00000E+00
 -1      4313 3.53138E+01 2.26492E+01 0.00000E+00
 -1      4314 2.68425E+01 2.44051E+01 0.00000E+00
 -1      4315 2.83425E+01 2.44051E+01 0.00000E+00
 -1      4316 1.05554E+02 2.33305E+01 0.00000E+00
 -1      4317 1.04054E+02 2.33305E+01 0.00000E+00
 -1      4318 2.98425E+01 2.44051E+01 0.00000E+00
 -1      4319 3.13425E+01 2.44051E+01 0.00000E+00
 -1      4320 3.70350E+01 1.95942E+01 0.00000E+00
 -1      4321 1.08554E+02 2.33305E+01 0.00000E+00
 -1      4322 1.07054E+02 2.33305E+01 0.00000E+00
 -1      4323 3.60638E+01 2.13502E+01 0.00000E+00
 -1      4324 2.53425E+01 2.44051E+01 0.00000E+00
 -1      4325 4.10925E+01 2.31061E+01 0.00000E+00
 -1      4326 2.42798E+01 2.54688E+01 0.00000E+00
 -1      4327 1.11554E+02 2.33305E+01 0.00000E+00
 -1      4328 1.10054E+02 2.33305E+01 0.00000E+00
 -1      4329 1.14554E+02 2.33305E+01 0.00000E+00
 -1      4330 4.03425E+01 2.18071E+01 0.00000E+00
 -1      4331 1.27145E+02 2.27033E+01 0.00000E+00
 -1      4332 3.75638E+01 2.13502E+01 0.00000E+00
 -1      4333 2.95350E+01 2.21922E+01 0.00000E+00
 -1      4334 3.88425E+01 2.18071E+01 0.00000E+00
 -1      4335 1.24630E+02 2.51078E+01 0.00000E+00
 -1      4336 1.26476E+02 2.34704E+01 0.00000E+00
 -1      4337 1.13054E+02 2.33305E+01 0.00000E+00
 -1      4338 1.25360E+02 2.25503E+01 0.00000E+00
 -1      4339 1.23882E+02 2.39994E+01 0.00000E+00
 -1      4340 1.24363E+02 2.26485E+01 0.00000E+00
 -1      4341 2.30632E+01 2.54260E+01 0.00000E+00
 -3
    3C                          2089                                     1
 -1       164    8    0    1
 -2         6         7        23      1127      1290      1144
 -1       165    8    0    1
 -2         7         8       164      1128      1291      1292
 -1       166    8    0    1
 -2         8         9       165      1129      1293      1294
 -1       167    8    0    1
 -2         8       165       164      1294      1295      1291
 -1       168    8    0    1
 -2         9        10       166      1130      1296      1297
 -1       169    8    0    1
 -2         9       166       165      1297      1298      1293
 -1       170    8    0    1
 -2        10        11       167      1131      1299      1300
 -1       171    8    0    1
 -2        10       167       166      1300      1301      1296
 -1       172    8    0    1
 -2        11        12       168      1132      1302      1303
 -1       173    8    0    1
 -2        11       168       167      1303      1304      1299
 -1       174    8    0    1
 -2        12        13       169      1133      1305      1306
 -1       175    8    0    1
 -2        12       169       168      1306      1307      1302
 -1       176    8    0    1
 -2        13        14       170      1134      1308      1309
 -1       177    8    0    1
 -2        13       170       169      1309      1310      1305
 -1       178    8    0    1
 -2        14        15       171      1135      1311      1312
 -1       179    8    0    1
 -2        14       171       170      1312      1313      1308
 -1       180    8    0    1
 -2        15        16       172      1136      1314      1315
 -1       181    8    0    1
 -2        15       172       171      1315      1316      1311
 -1       182    8    0    1
 -2        16        17       173      1137      1317      1318
 -1       183    8    0    1
 -2        16       173       172      1318      1319      1314
 -1       184    8    0    1
 -2        17        18       174      1138      1320      1321
 -1       185    8    0    1
 -2        17       174       173      1321      1322      1317
 -1       186    8    0    1
 -2        18        19       175      1139      1323      1324
 -1       187    8    0    1
 -2        18       175       174      1324      1325      1320
 -1       188    8    0    1
 -2        19        20       176      1140      1326      1327
 -1       189    8    0    1
 -2        19       176       175      1327      1328      1323
 -1       190    8    0    1
 -2        20        21       177      1141      1329      1330
 -1       191    8    0    1
 -2        20       177       176      1330      1331      1326
 -1       192    8    0    1
 -2        21        22       178      1142      1332      1333
 -1       193    8    0    1
 -2        21       178       177      1333      1334      1329
 -1       194    8    0    1
 -2        22         5       179      1143      1335      1336
 -1       195    8    0    1
 -2       178        22       179      1332      1336      1337
 -1       196    8    0    1
 -2         5        72       179      1194      1338      1335
 -1       197    8    0    1
 -2        24        23       180      1145      1339      1340
 -1       198    8    0    1
 -2        25        24       181      1146      1341      1342
 -1       199    8    0    1
 -2        24       180       181      1340      1343      1341
 -1       200    8    0    1
 -2        26        25       182      1147      1344      1345
 -1       201    8    0    1
 -2        25       181       182      1342      1346      1344
 -1       202    8    0    1
 -2        27        26       183      1148      1347      1348
 -1       203    8    0    1
 -2        26       182       183      1345      1349      1347
 -1       204    8    0    1
 -2        28        27       184      1149      1350      1351
 -1       205    8    0    1
 -2        27       183       184      1348      1352      1350
 -1       206    8    0    1
 -2        29        28       185      1150      1353      1354
 -1       207    8    0    1
 -2        28       184       185      1351      1355      1353
 -1       208    8    0    1
 -2        30        29       186      1151      1356      1357
 -1       209    8    0    1
 -2        29       185       186      1354      1358      1356
 -1       210    8    0    1
 -2        31        30       187      1152      1359      1360
 -1       211    8    0    1
 -2        30       186       187      1357      1361      1359
 -1       212    8    0    1
 -2        32        31       188      1153      1362      1363
 -1       213    8    0    1
 -2        31       187       188      1360      1364      1362
 -1       214    8    0    1
 -2        33        32       189      1154      1365      1366
 -1       215    8    0    1
 -2        32       188       189      1363      1367      1365
 -1       216    8    0    1
 -2        34        33       190      1155      1368      1369
 -1       217    8    0    1
 -2        33       189       190      1366      1370      1368
 -1       218    8    0    1
 -2        35        34       191      1156      1371      1372
 -1       219    8    0    1
 -2        34       190       191      1369      1373      1371
 -1       220    8    0    1
 -2        36        35       192      1157      1374      1375
 -1       221    8    0    1
 -2        35       191       192      1372      1376      1374
 -1       222    8    0    1
 -2        37        36       193      1158      1377      1378
 -1       223    8    0    1
 -2        36       192       193      1375      1379      1377
 -1       224    8    0    1
 -2        38        37       194      1159      1380      1381
 -1       225    8    0    1
 -2        37       193       194      1378      1382      1380
 -1       226    8    0    1
 -2        39        38       195      1160      1383      1384
 -1       227    8    0    1
 -2        38       194       195      1381      1385      1383
 -1       228    8    0    1
 -2        40        39       196      1161      1386      1387
 -1       229    8    0    1
 -2        39       195       196      1384      1388      1386
 -1       230    8    0    1
 -2        41        40       197      1162      1389      1390
 -1       231    8    0    1
 -2        40       196       197      1387      1391      1389
 -1       232    8    0    1
 -2        42        41       198      1163      1392      1393
 -1       233    8    0    1
 -2        41       197       198      1390      1394      1392
 -1       234    8    0    1
 -2        43        42       199      1164      1395      1396
 -1       235    8    0    1
 -2        42       198       199      1393      1397      1395
 -1       236    8    0    1
 -2        44        43       200      1165      1398      1399
 -1       237    8    0    1
 -2        43       199       200      1396      1400      1398
 -1       238    8    0    1
 -2        45        44       201      1166      1401      1402
 -1       239    8    0    1
 -2        44       200       201      1399      1403      1401
 -1       240    8    0    1
 -2        46        45       202      1167      1404      1405
 -1       241    8    0    1
 -2        45       201       202      1402      1406      1404
 -1       242    8    0    1
 -2        47        46       203      1168      1407      1408
 -1       243    8    0    1
 -2        46       202       203      1405      1409      1407
 -1       244    8    0    1
 -2        48        47       204      1169      1410      1411
 -1       245    8    0    1
 -2        47       203       204      1408      1412      1410
 -1       246    8    0    1
 -2        49        48       205      1170      1413      1414
 -1       247    8    0    1
 -2        48       204       205      1411      1415      1413
 -1       248    8    0    1
 -2        50        49       206      1171      1416      1417
 -1       249    8    0    1
 -2        49       205       206      1414      1418      1416
 -1       250    8    0    1
 -2        51        50       207      1172      1419      1420
 -1       251    8    0    1
 -2        50       206       207      1417      1421      1419
 -1       252    8    0    1
 -2        52        51       208      1173      1422      1423
 -1       253    8    0    1
 -2        51       207       208      1420      1424      1422
 -1       254    8    0    1
 -2        53        52       209      1174      1425      1426
 -1       255    8    0    1
 -2        52       208       209      1423      1427      1425
 -1       256    8    0    1
 -2        54        53       210      1175      1428      1429
 -1       257    8    0    1
 -2        53       209       210      1426      1430      1428
 -1       258    8    0    1
 -2        55        54       211      1176      1431      1432
 -1       259    8    0    1
 -2        54       210       211      1429      1433      1431
 -1       260    8    0    1
 -2        56        55       212      1177      1434      1435
 -1       261    8    0    1
 -2        55       211       212      1432      1436      1434
 -1       262    8    0    1
 -2        57        56       213      1178      1437      1438
 -1       263    8    0    1
 -2        56       212       213      1435      1439      1437
 -1       264    8    0    1
 -2        58        57       214      1179      1440      1441
 -1       265    8    0    1
 -2        57       213       214      1438      1442      1440
 -1       266    8    0    1
 -2        59        58       215      1180      1443      1444
 -1       267    8    0    1
 -2        58       214       215      1441      1445      1443
 -1       268    8    0    1
 -2        60        59       216      1181      1446      1447
 -1       269    8    0    1
 -2        59       215       216      1444      1448      1446
 -1       270    8    0    1
 -2        61        60       217      1182      1449      1450
 -1       271    8    0    1
 -2        60       216       217      1447      1451      1449
 -1       272    8    0    1
 -2        62        61       218      1183      1452      1453
 -1       273    8    0    1
 -2        61       217       218      1450      1454      1452
 -1       274    8    0    1
 -2        63        62       219      1184      1455      1456
 -1       275    8    0    1
 -2        62       218       219      1453      1457      1455
 -1       276    8    0    1
 -2        64        63       220      1185      1458      1459
 -1       277    8    0    1
 -2        63       219       220      1456      1460      1458
 -1       278    8    0    1
 -2        65        64       221      1186      1461      1462
 -1       279    8    0    1
 -2        64       220       221      1459      1463      1461
 -1       280    8    0    1
 -2        66        65       222      1187      1464      1465
 -1       281    8    0    1
 -2        65       221       222      1462      1466      1464
 -1       282    8    0    1
 -2        67        66       223      1188      1467      1468
 -1       283    8    0    1
 -2        66       222       223      1465      1469      1467
 -1       284    8    0    1
 -2        68        67       224      1189      1470      1471
 -1       285    8    0    1
 -2        67       223       224      1468      1472      1470
 -1       286    8    0    1
 -2        69        68       225      1190      1473      1474
 -1       287    8    0    1
 -2        68       224       225      1471      1475      1473
 -1       288    8    0    1
 -2        70        69       226      1191      1476      1477
 -1       289    8    0    1
 -2        69       225       226      1474      1478      1476
 -1       290    8    0    1
 -2        71        70       227      1192      1479      1480
 -1       291    8    0    1
 -2        70       226       227      1477      1481      1479
 -1       292    8    0    1
 -2         4        71       136      1193      1482      1260
 -1       293    8    0    1
 -2       136        71       227      1482      1480      1483
 -1       294    8    0    1
 -2        72        73       228      1195      1484      1485
 -1       295    8    0    1
 -2        72       228       179      1485      1486      1338
 -1       296    8    0    1
 -2        73        74       229      1196      1487      1488
 -1       297    8    0    1
 -2        73       229       228      1488      1489      1484
 -1       298    8    0    1
 -2        74        75       230      1197      1490      1491
 -1       299    8    0    1
 -2        74       230       229      1491      1492      1487
 -1       300    8    0    1
 -2        75        76       231      1198      1493      1494
 -1       301    8    0    1
 -2        75       231       230      1494      1495      1490
 -1       302    8    0    1
 -2        76        77       232      1199      1496      1497
 -1       303    8    0    1
 -2        76       232       231      1497      1498      1493
 -1       304    8    0    1
 -2        77        78       233      1200      1499      1500
 -1       305    8    0    1
 -2        77       233       232      1500      1501      1496
 -1       306    8    0    1
 -2        78        79       234      1201      1502      1503
 -1       307    8    0    1
 -2        78       234       233      1503      1504      1499
 -1       308    8    0    1
 -2        79        80       235      1202      1505      1506
 -1       309    8    0    1
 -2        79       235       234      1506      1507      1502
 -1       310    8    0    1
 -2        80        81       236      1203      1508      1509
 -1       311    8    0    1
 -2        80       236       235      1509      1510      1505
 -1       312    8    0    1
 -2        81        82       237      1204      1511      1512
 -1       313    8    0    1
 -2        81       237       236      1512      1513      1508
 -1       314    8    0    1
 -2        82        83       238      1205      1514      1515
 -1       315    8    0    1
 -2        82       238       237      1515      1516      1511
 -1       316    8    0    1
 -2        83        84       239      1206      1517      1518
 -1       317    8    0    1
 -2        83       239       238      1518      1519      1514
 -1       318    8    0    1
 -2        84        85       240      1207      1520      1521
 -1       319    8    0    1
 -2        84       240       239      1521      1522      1517
 -1       320    8    0    1
 -2        85        86       241      1208      1523      1524
 -1       321    8    0    1
 -2        85       241       240      1524      1525      1520
 -1       322    8    0    1
 -2        86        87       242      1209      1526      1527
 -1       323    8    0    1
 -2        86       242       241      1527      1528      1523
 -1       324    8    0    1
 -2        87        88       243      1210      1529      1530
 -1       325    8    0    1
 -2        87       243       242      1530      1531      1526
 -1       326    8    0    1
 -2        88        89       244      1211      1532      1533
 -1       327    8    0    1
 -2        88       244       243      1533      1534      1529
 -1       328    8    0    1
 -2        89        90       245      1212      1535      1536
 -1       329    8    0    1
 -2        89       245       244      1536      1537      1532
 -1       330    8    0    1
 -2        90        91       246      1213      1538      1539
 -1       331    8    0    1
 -2        90       246       245      1539      1540      1535
 -1       332    8    0    1
 -2        91        92       247      1214      1541      1542
 -1       333    8    0    1
 -2        91       247       246      1542      1543      1538
 -1       334    8    0    1
 -2        92        93       248      1215      1544      1545
 -1       335    8    0    1
 -2        92       248       247      1545      1546      1541
 -1       336    8    0    1
 -2        93        94       249      1216      1547      1548
 -1       337    8    0    1
 -2        93       249       248      1548      1549      1544
 -1       338    8    0    1
 -2        94        95       250      1217      1550      1551
 -1       339    8    0    1
 -2        94       250       249      1551      1552      1547
 -1       340    8    0    1
 -2        95        96       251      1218      1553      1554
 -1       341    8    0    1
 -2        95       251       250      1554      1555      1550
 -1       342    8    0    1
 -2        96        97       252      1219      1556      1557
 -1       343    8    0    1
 -2        96       252       251      1557      1558      1553
 -1       344    8    0    1
 -2        97        98       253      1220      1559      1560
 -1       345    8    0    1
 -2        97       253       252      1560      1561      1556
 -1       346    8    0    1
 -2        98        99       254      1221      1562      1563
 -1       347    8    0    1
 -2        98       254       253      1563      1564      1559
 -1       348    8    0    1
 -2        99       100       255      1222      1565      1566
 -1       349    8    0    1
 -2        99       255       254      1566      1567      1562
 -1       350    8    0    1
 -2       100       101       256      1223      1568      1569
 -1       351    8    0    1
 -2       100       256       255      1569      1570      1565
 -1       352    8    0    1
 -2       101       102       257      1224      1571      1572
 -1       353    8    0    1
 -2       101       257       256      1572      1573      1568
 -1       354    8    0    1
 -2       102       103       258      1225      1574      1575
 -1       355    8    0    1
 -2       102       258       257      1575      1576      1571
 -1       356    8    0    1
 -2       103       104       259      1226      1577      1578
 -1       357    8    0    1
 -2       103       259       258      1578      1579      1574
 -1       358    8    0    1
 -2       104       105       260      1227      1580      1581
 -1       359    8    0    1
 -2       104       260       259      1581      1582      1577
 -1       360    8    0    1
 -2       105       106       261      1228      1583      1584
 -1       361    8    0    1
 -2       105       261       260      1584      1585      1580
 -1       362    8    0    1
 -2       106       107       262      1229      1586      1587
 -1       363    8    0    1
 -2       106       262       261      1587      1588      1583
 -1       364    8    0    1
 -2       107       108       263      1230      1589      1590
 -1       365    8    0    1
 -2       107       263       262      1590      1591      1586
 -1       366    8    0    1
 -2       108       109       264      1231      1592      1593
 -1       367    8    0    1
 -2       108       264       263      1593      1594      1589
 -1       368    8    0    1
 -2       109       110       265      1232      1595      1596
 -1       369    8    0    1
 -2       109       265       264      1596      1597      1592
 -1       370    8    0    1
 -2       110       111       266      1233      1598      1599
 -1       371    8    0    1
 -2       110       266       265      1599      1600      1595
 -1       372    8    0    1
 -2       111       112       267      1234      1601      1602
 -1       373    8    0    1
 -2       111       267       266      1602      1603      1598
 -1       374    8    0    1
 -2       112       113       268      1235      1604      1605
 -1       375    8    0    1
 -2       112       268       267      1605      1606      1601
 -1       376    8    0    1
 -2       113       114       269      1236      1607      1608
 -1       377    8    0    1
 -2       113       269       268      1608      1609      1604
 -1       378    8    0    1
 -2       114       115       270      1237      1610      1611
 -1       379    8    0    1
 -2       114       270       269      1611      1612      1607
 -1       380    8    0    1
 -2       115       116       271      1238      1613      1614
 -1       381    8    0    1
 -2       115       271       270      1614      1615      1610
 -1       382    8    0    1
 -2       116       117       272      1239      1616      1617
 -1       383    8    0    1
 -2       116       272       271      1617      1618      1613
 -1       384    8    0    1
 -2       117       118       273      1240      1619      1620
 -1       385    8    0    1
 -2       117       273       272      1620      1621      1616
 -1       386    8    0    1
 -2       118       119       274      1241      1622      1623
 -1       387    8    0    1
 -2       118       274       273      1623      1624      1619
 -1       388    8    0    1
 -2       119       120       275      1242      1625      1626
 -1       389    8    0    1
 -2       119       275       274      1626      1627      1622
 -1       390    8    0    1
 -2       120         3       121      1243      1244      1628
 -1       391    8    0    1
 -2       121       122       276      1245      1629      1630
 -1       392    8    0    1
 -2       122       123       277      1246      1631      1632
 -1       393    8    0    1
 -2       122       277       276      1632      1633      1629
 -1       394    8    0    1
 -2       123       124       278      1247      1634      1635
 -1       395    8    0    1
 -2       123       278       277      1635      1636      1631
 -1       396    8    0    1
 -2       124       125       279      1248      1637      1638
 -1       397    8    0    1
 -2       124       279       278      1638      1639      1634
 -1       398    8    0    1
 -2       125       126       280      1249      1640      1641
 -1       399    8    0    1
 -2       125       280       279      1641      1642      1637
 -1       400    8    0    1
 -2       126       127       281      1250      1643      1644
 -1       401    8    0    1
 -2       126       281       280      1644      1645      1640
 -1       402    8    0    1
 -2       127       128       282      1251      1646      1647
 -1       403    8    0    1
 -2       127       282       281      1647      1648      1643
 -1       404    8    0    1
 -2       128       129       283      1252      1649      1650
 -1       405    8    0    1
 -2       128       283       282      1650      1651      1646
 -1       406    8    0    1
 -2       129       130       284      1253      1652      1653
 -1       407    8    0    1
 -2       129       284       283      1653      1654      1649
 -1       408    8    0    1
 -2       130       131       285      1254      1655      1656
 -1       409    8    0    1
 -2       130       285       284      1656      1657      1652
 -1       410    8    0    1
 -2       131       132       286      1255      1658      1659
 -1       411    8    0    1
 -2       131       286       285      1659      1660      1655
 -1       412    8    0    1
 -2       132       133       287      1256      1661      1662
 -1       413    8    0    1
 -2       132       287       286      1662      1663      1658
 -1       414    8    0    1
 -2       133       134       288      1257      1664      1665
 -1       415    8    0    1
 -2       133       288       287      1665      1666      1661
 -1       416    8    0    1
 -2       134       135       289      1258      1667      1668
 -1       417    8    0    1
 -2       134       289       288      1668      1669      1664
 -1       418    8    0    1
 -2       135       136       290      1259      1670      1671
 -1       419    8    0    1
 -2       289       135       290      1667      1671      1672
 -1       420    8    0    1
 -2       136       227       290      1483      1673      1670
 -1       421    8    0    1
 -2         2       137       291      1261      1674      1675
 -1       422    8    0    1
 -2       137       138       292      1262      1676      1677
 -1       423    8    0    1
 -2       138       139       293      1263      1678      1679
 -1       424    8    0    1
 -2       139       140       294      1264      1680      1681
 -1       425    8    0    1
 -2       140       141       295      1265      1682      1683
 -1       426    8    0    1
 -2       141       142       296      1266      1684      1685
 -1       427    8    0    1
 -2       142       143       297      1267      1686      1687
 -1       428    8    0    1
 -2       143       144       298      1268      1688      1689
 -1       429    8    0    1
 -2       144       145       299      1269      1690      1691
 -1       430    8    0    1
 -2       145       146       300      1270      1692      1693
 -1       431    8    0    1
 -2       146       147       301      1271      1694      1695
 -1       432    8    0    1
 -2       147       148       302      1272      1696      1697
 -1       433    8    0    1
 -2       148       149       303      1273      1698      1699
 -1       434    8    0    1
 -2       149       150       304      1274      1700      1701
 -1       435    8    0    1
 -2       150       151       305      1275      1702      1703
 -1       436    8    0    1
 -2       151       152       306      1276      1704      1705
 -1       437    8    0    1
 -2       152       153       307      1277      1706      1707
 -1       438    8    0    1
 -2       153       154       308      1278      1708      1709
 -1       439    8    0    1
 -2       154       155       309      1279      1710      1711
 -1       440    8    0    1
 -2       155       156       310      1280      1712      1713
 -1       441    8    0    1
 -2       156       157       311      1281      1714      1715
 -1       442    8    0    1
 -2       157       158       312      1282      1716      1717
 -1       443    8    0    1
 -2       158       159       313      1283      1718      1719
 -1       444    8    0    1
 -2       159         1       314      1284      1720      1721
 -1       445    8    0    1
 -2         1       160       315      1285      1722      1723
 -1       446    8    0    1
 -2       160       161       316      1286      1724      1725
 -1       447    8    0    1
 -2       161       162       317      1287      1726      1727
 -1       448    8    0    1
 -2       162       163       318      1288      1728      1729
 -1       449    8    0    1
 -2       163         2       319      1289      1730      1731
 -1       450    8    0    1
 -2       294       140       295      1680      1683      1732
 -1       451    8    0    1
 -2       293       139       294      1678      1681      1733
 -1       452    8    0    1
 -2       120       121       275      1628      1734      1625
 -1       453    8    0    1
 -2       121       276       275      1630      1735      1734
 -1       454    8    0    1
 -2       291       137       292      1674      1677      1736
 -1       455    8    0    1
 -2       292       138       293      1676      1679      1737
 -1       456    8    0    1
 -2         2       291       319      1675      1738      1730
 -1       457    8    0    1
 -2       141       296       295      1685      1739      1682
 -1       458    8    0    1
 -2       142       297       296      1687      1740      1684
 -1       459    8    0    1
 -2       143       298       297      1689      1741      1686
 -1       460    8    0    1
 -2       144       299       298      1691      1742      1688
 -1       461    8    0    1
 -2       145       300       299      1693      1743      1690
 -1       462    8    0    1
 -2       146       301       300      1695      1744      1692
 -1       463    8    0    1
 -2       147       302       301      1697      1745      1694
 -1       464    8    0    1
 -2       148       303       302      1699      1746      1696
 -1       465    8    0    1
 -2       149       304       303      1701      1747      1698
 -1       466    8    0    1
 -2       150       305       304      1703      1748      1700
 -1       467    8    0    1
 -2       151       306       305      1705      1749      1702
 -1       468    8    0    1
 -2       152       307       306      1707      1750      1704
 -1       469    8    0    1
 -2       153       308       307      1709      1751      1706
 -1       470    8    0    1
 -2       154       309       308      1711      1752      1708
 -1       471    8    0    1
 -2       155       310       309      1713      1753      1710
 -1       472    8    0    1
 -2       156       311       310      1715      1754      1712
 -1       473    8    0    1
 -2       157       312       311      1717      1755      1714
 -1       474    8    0    1
 -2       158       313       312      1719      1756      1716
 -1       475    8    0    1
 -2       159       314       313      1721      1757      1718
 -1       476    8    0    1
 -2         1       315       314      1723      1758      1720
 -1       477    8    0    1
 -2       160       316       315      1725      1759      1722
 -1       478    8    0    1
 -2       161       317       316      1727      1760      1724
 -1       479    8    0    1
 -2       162       318       317      1729      1761      1726
 -1       480    8    0    1
 -2       163       319       318      1731      1762      1728
 -1       481    8    0    1
 -2        23         7       164      1290      1292      1763
 -1       482    8    0    1
 -2       165       166       320      1298      1764      1765
 -1       483    8    0    1
 -2       164       165       321      1295      1766      1767
 -1       484    8    0    1
 -2       165       320       321      1765      1768      1766
 -1       485    8    0    1
 -2       167       168       322      1304      1769      1770
 -1       486    8    0    1
 -2       168       169       323      1307      1771      1772
 -1       487    8    0    1
 -2       168       323       322      1772      1773      1769
 -1       488    8    0    1
 -2       169       170       324      1310      1774      1775
 -1       489    8    0    1
 -2       169       324       323      1775      1776      1771
 -1       490    8    0    1
 -2       170       171       325      1313      1777      1778
 -1       491    8    0    1
 -2       170       325       324      1778      1779      1774
 -1       492    8    0    1
 -2       171       172       326      1316      1780      1781
 -1       493    8    0    1
 -2       171       326       325      1781      1782      1777
 -1       494    8    0    1
 -2       172       173       327      1319      1783      1784
 -1       495    8    0    1
 -2       172       327       326      1784      1785      1780
 -1       496    8    0    1
 -2       173       174       328      1322      1786      1787
 -1       497    8    0    1
 -2       173       328       327      1787      1788      1783
 -1       498    8    0    1
 -2       174       175       329      1325      1789      1790
 -1       499    8    0    1
 -2       174       329       328      1790      1791      1786
 -1       500    8    0    1
 -2       175       176       330      1328      1792      1793
 -1       501    8    0    1
 -2       175       330       329      1793      1794      1789
 -1       502    8    0    1
 -2       176       177       331      1331      1795      1796
 -1       503    8    0    1
 -2       176       331       330      1796      1797      1792
 -1       504    8    0    1
 -2       177       178       332      1334      1798      1799
 -1       505    8    0    1
 -2       177       332       331      1799      1800      1795
 -1       506    8    0    1
 -2       178       179       333      1337      1801      1802
 -1       507    8    0    1
 -2       332       178       333      1798      1802      1803
 -1       508    8    0    1
 -2       179       228       333      1486      1804      1801
 -1       509    8    0    1
 -2       180        23       164      1339      1763      1805
 -1       510    8    0    1
 -2       228       229       334      1489      1806      1807
 -1       511    8    0    1
 -2       228       334       333      1807      1808      1804
 -1       512    8    0    1
 -2       180       164       321      1805      1767      1809
 -1       513    8    0    1
 -2       182       181       335      1346      1810      1811
 -1       514    8    0    1
 -2       183       182       336      1349      1812      1813
 -1       515    8    0    1
 -2       182       335       336      1811      1814      1812
 -1       516    8    0    1
 -2       184       183       337      1352      1815      1816
 -1       517    8    0    1
 -2       183       336       337      1813      1817      1815
 -1       518    8    0    1
 -2       185       184       338      1355      1818      1819
 -1       519    8    0    1
 -2       184       337       338      1816      1820      1818
 -1       520    8    0    1
 -2       186       185       339      1358      1821      1822
 -1       521    8    0    1
 -2       185       338       339      1819      1823      1821
 -1       522    8    0    1
 -2       187       186       340      1361      1824      1825
 -1       523    8    0    1
 -2       186       339       340      1822      1826      1824
 -1       524    8    0    1
 -2       188       187       341      1364      1827      1828
 -1       525    8    0    1
 -2       187       340       341      1825      1829      1827
 -1       526    8    0    1
 -2       189       188       342      1367      1830      1831
 -1       527    8    0    1
 -2       188       341       342      1828      1832      1830
 -1       528    8    0    1
 -2       190       189       343      1370      1833      1834
 -1       529    8    0    1
 -2       189       342       343      1831      1835      1833
 -1       530    8    0    1
 -2       191       190       344      1373      1836      1837
 -1       531    8    0    1
 -2       190       343       344      1834      1838      1836
 -1       532    8    0    1
 -2       192       191       345      1376      1839      1840
 -1       533    8    0    1
 -2       191       344       345      1837      1841      1839
 -1       534    8    0    1
 -2       193       192       346      1379      1842      1843
 -1       535    8    0    1
 -2       192       345       346      1840      1844      1842
 -1       536    8    0    1
 -2       194       193       347      1382      1845      1846
 -1       537    8    0    1
 -2       193       346       347      1843      1847      1845
 -1       538    8    0    1
 -2       195       194       348      1385      1848      1849
 -1       539    8    0    1
 -2       194       347       348      1846      1850      1848
 -1       540    8    0    1
 -2       196       195       349      1388      1851      1852
 -1       541    8    0    1
 -2       195       348       349      1849      1853      1851
 -1       542    8    0    1
 -2       197       196       350      1391      1854      1855
 -1       543    8    0    1
 -2       196       349       350      1852      1856      1854
 -1       544    8    0    1
 -2       198       197       351      1394      1857      1858
 -1       545    8    0    1
 -2       197       350       351      1855      1859      1857
 -1       546    8    0    1
 -2       199       198       352      1397      1860      1861
 -1       547    8    0    1
 -2       198       351       352      1858      1862      1860
 -1       548    8    0    1
 -2       200       199       353      1400      1863      1864
 -1       549    8    0    1
 -2       199       352       353      1861      1865      1863
 -1       550    8    0    1
 -2       201       200       354      1403      1866      1867
 -1       551    8    0    1
 -2       200       353       354      1864      1868      1866
 -1       552    8    0    1
 -2       202       201       355      1406      1869      1870
 -1       553    8    0    1
 -2       201       354       355      1867      1871      1869
 -1       554    8    0    1
 -2       203       202       356      1409      1872      1873
 -1       555    8    0    1
 -2       202       355       356      1870      1874      1872
 -1       556    8    0    1
 -2       204       203       357      1412      1875      1876
 -1       557    8    0    1
 -2       203       356       357      1873      1877      1875
 -1       558    8    0    1
 -2       205       204       358      1415      1878      1879
 -1       559    8    0    1
 -2       204       357       358      1876      1880      1878
 -1       560    8    0    1
 -2       206       205       359      1418      1881      1882
 -1       561    8    0    1
 -2       205       358       359      1879      1883      1881
 -1       562    8    0    1
 -2       207       206       360      1421      1884      1885
 -1       563    8    0    1
 -2       206       359       360      1882      1886      1884
 -1       564    8    0    1
 -2       208       207       361      1424      1887      1888
 -1       565    8    0    1
 -2       207       360       361      1885      1889      1887
 -1       566    8    0    1
 -2       209       208       362      1427      1890      1891
 -1       567    8    0    1
 -2       208       361       362      1888      1892      1890
 -1       568    8    0    1
 -2       210       209       363      1430      1893      1894
 -1       569    8    0    1
 -2       209       362       363      1891      1895      1893
 -1       570    8    0    1
 -2       211       210       364      1433      1896      1897
 -1       571    8    0    1
 -2       210       363       364      1894      1898      1896
 -1       572    8    0    1
 -2       212       211       365      1436      1899      1900
 -1       573    8    0    1
 -2       211       364       365      1897      1901      1899
 -1       574    8    0    1
 -2       213       212       366      1439      1902      1903
 -1       575    8    0    1
 -2       212       365       366      1900      1904      1902
 -1       576    8    0    1
 -2       214       213       367      1442      1905      1906
 -1       577    8    0    1
 -2       213       366       367      1903      1907      1905
 -1       578    8    0    1
 -2       215       214       368      1445      1908      1909
 -1       579    8    0    1
 -2       214       367       368      1906      1910      1908
 -1       580    8    0    1
 -2       216       215       369      1448      1911      1912
 -1       581    8    0    1
 -2       215       368       369      1909      1913      1911
 -1       582    8    0    1
 -2       217       216       370      1451      1914      1915
 -1       583    8    0    1
 -2       216       369       370      1912      1916      1914
 -1       584    8    0    1
 -2       218       217       371      1454      1917      1918
 -1       585    8    0    1
 -2       217       370       371      1915      1919      1917
 -1       586    8    0    1
 -2       219       218       372      1457      1920      1921
 -1       587    8    0    1
 -2       218       371       372      1918      1922      1920
 -1       588    8    0    1
 -2       220       219       373      1460      1923      1924
 -1       589    8    0    1
 -2       219       372       373      1921      1925      1923
 -1       590    8    0    1
 -2       221       220       374      1463      1926      1927
 -1       591    8    0    1
 -2       220       373       374      1924      1928      1926
 -1       592    8    0    1
 -2       222       221       375      1466      1929      1930
 -1       593    8    0    1
 -2       221       374       375      1927      1931      1929
 -1       594    8    0    1
 -2       223       222       376      1469      1932      1933
 -1       595    8    0    1
 -2       222       375       376      1930      1934      1932
 -1       596    8    0    1
 -2       224       223       377      1472      1935      1936
 -1       597    8    0    1
 -2       223       376       377      1933      1937      1935
 -1       598    8    0    1
 -2       225       224       378      1475      1938      1939
 -1       599    8    0    1
 -2       224       377       378      1936      1940      1938
 -1       600    8    0    1
 -2       226       225       379      1478      1941      1942
 -1       601    8    0    1
 -2       225       378       379      1939      1943      1941
 -1       602    8    0    1
 -2       227       226       380      1481      1944      1945
 -1       603    8    0    1
 -2       290       227       380      1673      1945      1946
 -1       604    8    0    1
 -2       226       379       380      1942      1947      1944
 -1       605    8    0    1
 -2       229       230       381      1492      1948      1949
 -1       606    8    0    1
 -2       229       381       334      1949      1950      1806
 -1       607    8    0    1
 -2       230       231       382      1495      1951      1952
 -1       608    8    0    1
 -2       230       382       381      1952      1953      1948
 -1       609    8    0    1
 -2       231       232       383      1498      1954      1955
 -1       610    8    0    1
 -2       231       383       382      1955      1956      1951
 -1       611    8    0    1
 -2       232       233       384      1501      1957      1958
 -1       612    8    0    1
 -2       232       384       383      1958      1959      1954
 -1       613    8    0    1
 -2       233       234       385      1504      1960      1961
 -1       614    8    0    1
 -2       233       385       384      1961      1962      1957
 -1       615    8    0    1
 -2       234       235       386      1507      1963      1964
 -1       616    8    0    1
 -2       234       386       385      1964      1965      1960
 -1       617    8    0    1
 -2       235       236       387      1510      1966      1967
 -1       618    8    0    1
 -2       235       387       386      1967      1968      1963
 -1       619    8    0    1
 -2       236       237       388      1513      1969      1970
 -1       620    8    0    1
 -2       236       388       387      1970      1971      1966
 -1       621    8    0    1
 -2       237       238       389      1516      1972      1973
 -1       622    8    0    1
 -2       237       389       388      1973      1974      1969
 -1       623    8    0    1
 -2       238       239       390      1519      1975      1976
 -1       624    8    0    1
 -2       238       390       389      1976      1977      1972
 -1       625    8    0    1
 -2       239       240       391      1522      1978      1979
 -1       626    8    0    1
 -2       239       391       390      1979      1980      1975
 -1       627    8    0    1
 -2       240       241       392      1525      1981      1982
 -1       628    8    0    1
 -2       240       392       391      1982      1983      1978
 -1       629    8    0    1
 -2       241       242       393      1528      1984      1985
 -1       630    8    0    1
 -2       241       393       392      1985      1986      1981
 -1       631    8    0    1
 -2       242       243       394      1531      1987      1988
 -1       632    8    0    1
 -2       242       394       393      1988      1989      1984
 -1       633    8    0    1
 -2       243       244       395      1534      1990      1991
 -1       634    8    0    1
 -2       243       395       394      1991      1992      1987
 -1       635    8    0    1
 -2       244       245       396      1537      1993      1994
 -1       636    8    0    1
 -2       244       396       395      1994      1995      1990
 -1       637    8    0    1
 -2       245       246       397      1540      1996      1997
 -1       638    8    0    1
 -2       245       397       396      1997      1998      1993
 -1       639    8    0    1
 -2       246       247       398      1543      1999      2000
 -1       640    8    0    1
 -2       246       398       397      2000      2001      1996
 -1       641    8    0    1
 -2       247       248       399      1546      2002      2003
 -1       642    8    0    1
 -2       247       399       398      2003      2004      1999
 -1       643    8    0    1
 -2       248       249       400      1549      2005      2006
 -1       644    8    0    1
 -2       248       400       399      2006      2007      2002
 -1       645    8    0    1
 -2       249       250       401      1552      2008      2009
 -1       646    8    0    1
 -2       249       401       400      2009      2010      2005
 -1       647    8    0    1
 -2       250       251       402      1555      2011      2012
 -1       648    8    0    1
 -2       250       402       401      2012      2013      2008
 -1       649    8    0    1
 -2       251       252       403      1558      2014      2015
 -1       650    8    0    1
 -2       251       403       402      2015      2016      2011
 -1       651    8    0    1
 -2       252       253       404      1561      2017      2018
 -1       652    8    0    1
 -2       252       404       403      2018      2019      2014
 -1       653    8    0    1
 -2       253       254       405      1564      2020      2021
 -1       654    8    0    1
 -2       253       405       404      2021      2022      2017
 -1       655    8    0    1
 -2       254       255       406      1567      2023      2024
 -1       656    8    0    1
 -2       254       406       405      2024      2025      2020
 -1       657    8    0    1
 -2       255       256       407      1570      2026      2027
 -1       658    8    0    1
 -2       255       407       406      2027      2028      2023
 -1       659    8    0    1
 -2       256       257       408      1573      2029      2030
 -1       660    8    0    1
 -2       256       408       407      2030      2031      2026
 -1       661    8    0    1
 -2       257       258       409      1576      2032      2033
 -1       662    8    0    1
 -2       257       409       408      2033      2034      2029
 -1       663    8    0    1
 -2       258       259       410      1579      2035      2036
 -1       664    8    0    1
 -2       258       410       409      2036      2037      2032
 -1       665    8    0    1
 -2       259       260       411      1582      2038      2039
 -1       666    8    0    1
 -2       259       411       410      2039      2040      2035
 -1       667    8    0    1
 -2       260       261       412      1585      2041      2042
 -1       668    8    0    1
 -2       260       412       411      2042      2043      2038
 -1       669    8    0    1
 -2       261       262       413      1588      2044      2045
 -1       670    8    0    1
 -2       261       413       412      2045      2046      2041
 -1       671    8    0    1
 -2       262       263       414      1591      2047      2048
 -1       672    8    0    1
 -2       262       414       413      2048      2049      2044
 -1       673    8    0    1
 -2       263       264       415      1594      2050      2051
 -1       674    8    0    1
 -2       263       415       414      2051      2052      2047
 -1       675    8    0    1
 -2       264       265       416      1597      2053      2054
 -1       676    8    0    1
 -2       264       416       415      2054      2055      2050
 -1       677    8    0    1
 -2       265       266       417      1600      2056      2057
 -1       678    8    0    1
 -2       265       417       416      2057      2058      2053
 -1       679    8    0    1
 -2       266       267       418      1603      2059      2060
 -1       680    8    0    1
 -2       266       418       417      2060      2061      2056
 -1       681    8    0    1
 -2       267       268       419      1606      2062      2063
 -1       682    8    0    1
 -2       267       419       418      2063      2064      2059
 -1       683    8    0    1
 -2       268       269       420      1609      2065      2066
 -1       684    8    0    1
 -2       268       420       419      2066      2067      2062
 -1       685    8    0    1
 -2       269       270       421      1612      2068      2069
 -1       686    8    0    1
 -2       269       421       420      2069      2070      2065
 -1       687    8    0    1
 -2       270       271       422      1615      2071      2072
 -1       688    8    0    1
 -2       270       422       421      2072      2073      2068
 -1       689    8    0    1
 -2       271       272       423      1618      2074      2075
 -1       690    8    0    1
 -2       271       423       422      2075      2076      2071
 -1       691    8    0    1
 -2       272       273       424      1621      2077      2078
 -1       692    8    0    1
 -2       272       424       423      2078      2079      2074
 -1       693    8    0    1
 -2       273       274       425      1624      2080      2081
 -1       694    8    0    1
 -2       273       425       424      2081      2082      2077
 -1       695    8    0    1
 -2       274       275       426      1627      2083      2084
 -1       696    8    0    1
 -2       425       274       426      2080      2084      2085
 -1       697    8    0    1
 -2       275       276       426      1735      2086      2083
 -1       698    8    0    1
 -2       278       279       427      1639      2087      2088
 -1       699    8    0    1
 -2       277       278       428      1636      2089      2090
 -1       700    8    0    1
 -2       278       427       428      2088      2091      2089
 -1       701    8    0    1
 -2       276       277       429      1633      2092      2093
 -1       702    8    0    1
 -2       426       276       429      2086      2093      2094
 -1       703    8    0    1
 -2       277       428       429      2090      2095      2092
 -1       704    8    0    1
 -2       279       280       430      1642      2096      2097
 -1       705    8    0    1
 -2       279       430       427      2097      2098      2087
 -1       706    8    0    1
 -2       280       281       431      1645      2099      2100
 -1       707    8    0    1
 -2       280       431       430      2100      2101      2096
 -1       708    8    0    1
 -2       281       282       432      1648      2102      2103
 -1       709    8    0    1
 -2       281       432       431      2103      2104      2099
 -1       710    8    0    1
 -2       282       283       433      1651      2105      2106
 -1       711    8    0    1
 -2       282       433       432      2106      2107      2102
 -1       712    8    0    1
 -2       283       284       434      1654      2108      2109
 -1       713    8    0    1
 -2       283       434       433      2109      2110      2105
 -1       714    8    0    1
 -2       284       285       435      1657      2111      2112
 -1       715    8    0    1
 -2       284       435       434      2112      2113      2108
 -1       716    8    0    1
 -2       285       286       436      1660      2114      2115
 -1       717    8    0    1
 -2       285       436       435      2115      2116      2111
 -1       718    8    0    1
 -2       286       287       437      1663      2117      2118
 -1       719    8    0    1
 -2       286       437       436      2118      2119      2114
 -1       720    8    0    1
 -2       287       288       438      1666      2120      2121
 -1       721    8    0    1
 -2       287       438       437      2121      2122      2117
 -1       722    8    0    1
 -2       288       289       439      1669      2123      2124
 -1       723    8    0    1
 -2       288       439       438      2124      2125      2120
 -1       724    8    0    1
 -2       292       293       440      1737      2126      2127
 -1       725    8    0    1
 -2       319       291       441      1738      2128      2129
 -1       726    8    0    1
 -2       291       292       442      1736      2130      2131
 -1       727    8    0    1
 -2       293       294       443      1733      2132      2133
 -1       728    8    0    1
 -2       293       443       440      2133      2134      2126
 -1       729    8    0    1
 -2       294       295       444      1732      2135      2136
 -1       730    8    0    1
 -2       166       167       445      1301      2137      2138
 -1       731    8    0    1
 -2       320       166       445      1764      2138      2139
 -1       732    8    0    1
 -2       167       322       445      1770      2140      2137
 -1       733    8    0    1
 -2       296       297       446      1740      2141      2142
 -1       734    8    0    1
 -2       297       298       447      1741      2143      2144
 -1       735    8    0    1
 -2       298       299       448      1742      2145      2146
 -1       736    8    0    1
 -2       299       300       449      1743      2147      2148
 -1       737    8    0    1
 -2       300       301       450      1744      2149      2150
 -1       738    8    0    1
 -2       301       302       451      1745      2151      2152
 -1       739    8    0    1
 -2       302       303       452      1746      2153      2154
 -1       740    8    0    1
 -2       302       452       451      2154      2155      2151
 -1       741    8    0    1
 -2       303       304       453      1747      2156      2157
 -1       742    8    0    1
 -2       304       305       454      1748      2158      2159
 -1       743    8    0    1
 -2       305       306       455      1749      2160      2161
 -1       744    8    0    1
 -2       305       455       454      2161      2162      2158
 -1       745    8    0    1
 -2       306       307       456      1750      2163      2164
 -1       746    8    0    1
 -2       307       308       457      1751      2165      2166
 -1       747    8    0    1
 -2       308       309       458      1752      2167      2168
 -1       748    8    0    1
 -2       309       310       459      1753      2169      2170
 -1       749    8    0    1
 -2       310       311       460      1754      2171      2172
 -1       750    8    0    1
 -2       311       312       461      1755      2173      2174
 -1       751    8    0    1
 -2       312       313       462      1756      2175      2176
 -1       752    8    0    1
 -2       313       314       463      1757      2177      2178
 -1       753    8    0    1
 -2       314       315       464      1758      2179      2180
 -1       754    8    0    1
 -2       315       316       465      1759      2181      2182
 -1       755    8    0    1
 -2       316       317       466      1760      2183      2184
 -1       756    8    0    1
 -2       317       318       467      1761      2185      2186
 -1       757    8    0    1
 -2       318       319       468      1762      2187      2188
 -1       758    8    0    1
 -2       318       468       467      2188      2189      2185
 -1       759    8    0    1
 -2       295       296       469      1739      2190      2191
 -1       760    8    0    1
 -2       443       294       444      2132      2136      2192
 -1       761    8    0    1
 -2       180       321       181      1809      2193      1343
 -1       762    8    0    1
 -2       296       446       469      2142      2194      2190
 -1       763    8    0    1
 -2       335       181       321      1810      2193      2195
 -1       764    8    0    1
 -2       442       292       440      2130      2127      2196
 -1       765    8    0    1
 -2       441       291       442      2128      2131      2197
 -1       766    8    0    1
 -2       439       289       290      2123      1672      2198
 -1       767    8    0    1
 -2       319       441       468      2129      2199      2187
 -1       768    8    0    1
 -2       444       295       469      2135      2191      2200
 -1       769    8    0    1
 -2       466       317       467      2183      2186      2201
 -1       770    8    0    1
 -2       465       316       466      2181      2184      2202
 -1       771    8    0    1
 -2       464       315       465      2179      2182      2203
 -1       772    8    0    1
 -2       463       314       464      2177      2180      2204
 -1       773    8    0    1
 -2       462       313       463      2175      2178      2205
 -1       774    8    0    1
 -2       461       312       462      2173      2176      2206
 -1       775    8    0    1
 -2       460       311       461      2171      2174      2207
 -1       776    8    0    1
 -2       459       310       460      2169      2172      2208
 -1       777    8    0    1
 -2       458       309       470      2167      2209      2210
 -1       778    8    0    1
 -2       309       459       470      2170      2211      2209
 -1       779    8    0    1
 -2       457       308       458      2165      2168      2212
 -1       780    8    0    1
 -2       455       306       456      2160      2164      2213
 -1       781    8    0    1
 -2       452       303       471      2153      2214      2215
 -1       782    8    0    1
 -2       303       453       471      2157      2216      2214
 -1       783    8    0    1
 -2       450       301       451      2149      2152      2217
 -1       784    8    0    1
 -2       449       300       450      2147      2150      2218
 -1       785    8    0    1
 -2       448       299       449      2145      2148      2219
 -1       786    8    0    1
 -2       446       297       472      2141      2220      2221
 -1       787    8    0    1
 -2       297       447       472      2144      2222      2220
 -1       788    8    0    1
 -2       447       298       448      2143      2146      2223
 -1       789    8    0    1
 -2       453       304       454      2156      2159      2224
 -1       790    8    0    1
 -2       456       307       457      2163      2166      2225
 -1       791    8    0    1
 -2       334       381       473      1950      2226      2227
 -1       792    8    0    1
 -2       323       324       474      1776      2228      2229
 -1       793    8    0    1
 -2       322       323       475      1773      2230      2231
 -1       794    8    0    1
 -2       323       474       475      2229      2232      2230
 -1       795    8    0    1
 -2       325       326       476      1782      2233      2234
 -1       796    8    0    1
 -2       326       327       477      1785      2235      2236
 -1       797    8    0    1
 -2       326       477       476      2236      2237      2233
 -1       798    8    0    1
 -2       327       328       478      1788      2238      2239
 -1       799    8    0    1
 -2       327       478       477      2239      2240      2235
 -1       800    8    0    1
 -2       328       329       479      1791      2241      2242
 -1       801    8    0    1
 -2       328       479       478      2242      2243      2238
 -1       802    8    0    1
 -2       329       330       480      1794      2244      2245
 -1       803    8    0    1
 -2       329       480       479      2245      2246      2241
 -1       804    8    0    1
 -2       330       331       481      1797      2247      2248
 -1       805    8    0    1
 -2       330       481       480      2248      2249      2244
 -1       806    8    0    1
 -2       381       382       482      1953      2250      2251
 -1       807    8    0    1
 -2       381       482       473      2251      2252      2226
 -1       808    8    0    1
 -2       336       335       483      1814      2253      2254
 -1       809    8    0    1
 -2       469       446       484      2194      2255      2256
 -1       810    8    0    1
 -2       337       336       485      1817      2257      2258
 -1       811    8    0    1
 -2       336       483       485      2254      2259      2257
 -1       812    8    0    1
 -2       338       337       486      1820      2260      2261
 -1       813    8    0    1
 -2       337       485       486      2258      2262      2260
 -1       814    8    0    1
 -2       339       338       487      1823      2263      2264
 -1       815    8    0    1
 -2       338       486       487      2261      2265      2263
 -1       816    8    0    1
 -2       340       339       488      1826      2266      2267
 -1       817    8    0    1
 -2       339       487       488      2264      2268      2266
 -1       818    8    0    1
 -2       341       340       489      1829      2269      2270
 -1       819    8    0    1
 -2       340       488       489      2267      2271      2269
 -1       820    8    0    1
 -2       342       341       490      1832      2272      2273
 -1       821    8    0    1
 -2       341       489       490      2270      2274      2272
 -1       822    8    0    1
 -2       343       342       491      1835      2275      2276
 -1       823    8    0    1
 -2       342       490       491      2273      2277      2275
 -1       824    8    0    1
 -2       344       343       492      1838      2278      2279
 -1       825    8    0    1
 -2       343       491       492      2276      2280      2278
 -1       826    8    0    1
 -2       345       344       493      1841      2281      2282
 -1       827    8    0    1
 -2       344       492       493      2279      2283      2281
 -1       828    8    0    1
 -2       346       345       494      1844      2284      2285
 -1       829    8    0    1
 -2       345       493       494      2282      2286      2284
 -1       830    8    0    1
 -2       347       346       495      1847      2287      2288
 -1       831    8    0    1
 -2       346       494       495      2285      2289      2287
 -1       832    8    0    1
 -2       348       347       496      1850      2290      2291
 -1       833    8    0    1
 -2       347       495       496      2288      2292      2290
 -1       834    8    0    1
 -2       349       348       497      1853      2293      2294
 -1       835    8    0    1
 -2       348       496       497      2291      2295      2293
 -1       836    8    0    1
 -2       350       349       498      1856      2296      2297
 -1       837    8    0    1
 -2       349       497       498      2294      2298      2296
 -1       838    8    0    1
 -2       351       350       499      1859      2299      2300
 -1       839    8    0    1
 -2       350       498       499      2297      2301      2299
 -1       840    8    0    1
 -2       352       351       500      1862      2302      2303
 -1       841    8    0    1
 -2       351       499       500      2300      2304      2302
 -1       842    8    0    1
 -2       353       352       501      1865      2305      2306
 -1       843    8    0    1
 -2       352       500       501      2303      2307      2305
 -1       844    8    0    1
 -2       354       353       502      1868      2308      2309
 -1       845    8    0    1
 -2       353       501       502      2306      2310      2308
 -1       846    8    0    1
 -2       355       354       503      1871      2311      2312
 -1       847    8    0    1
 -2       354       502       503      2309      2313      2311
 -1       848    8    0    1
 -2       356       355       504      1874      2314      2315
 -1       849    8    0    1
 -2       355       503       504      2312      2316      2314
 -1       850    8    0    1
 -2       357       356       505      1877      2317      2318
 -1       851    8    0    1
 -2       356       504       505      2315      2319      2317
 -1       852    8    0    1
 -2       358       357       506      1880      2320      2321
 -1       853    8    0    1
 -2       357       505       506      2318      2322      2320
 -1       854    8    0    1
 -2       359       358       507      1883      2323      2324
 -1       855    8    0    1
 -2       358       506       507      2321      2325      2323
 -1       856    8    0    1
 -2       360       359       508      1886      2326      2327
 -1       857    8    0    1
 -2       359       507       508      2324      2328      2326
 -1       858    8    0    1
 -2       361       360       509      1889      2329      2330
 -1       859    8    0    1
 -2       360       508       509      2327      2331      2329
 -1       860    8    0    1
 -2       362       361       510      1892      2332      2333
 -1       861    8    0    1
 -2       361       509       510      2330      2334      2332
 -1       862    8    0    1
 -2       363       362       511      1895      2335      2336
 -1       863    8    0    1
 -2       362       510       511      2333      2337      2335
 -1       864    8    0    1
 -2       364       363       512      1898      2338      2339
 -1       865    8    0    1
 -2       363       511       512      2336      2340      2338
 -1       866    8    0    1
 -2       365       364       513      1901      2341      2342
 -1       867    8    0    1
 -2       364       512       513      2339      2343      2341
 -1       868    8    0    1
 -2       366       365       514      1904      2344      2345
 -1       869    8    0    1
 -2       365       513       514      2342      2346      2344
 -1       870    8    0    1
 -2       367       366       515      1907      2347      2348
 -1       871    8    0    1
 -2       366       514       515      2345      2349      2347
 -1       872    8    0    1
 -2       368       367       516      1910      2350      2351
 -1       873    8    0    1
 -2       367       515       516      2348      2352      2350
 -1       874    8    0    1
 -2       369       368       517      1913      2353      2354
 -1       875    8    0    1
 -2       368       516       517      2351      2355      2353
 -1       876    8    0    1
 -2       370       369       518      1916      2356      2357
 -1       877    8    0    1
 -2       369       517       518      2354      2358      2356
 -1       878    8    0    1
 -2       371       370       519      1919      2359      2360
 -1       879    8    0    1
 -2       370       518       519      2357      2361      2359
 -1       880    8    0    1
 -2       372       371       520      1922      2362      2363
 -1       881    8    0    1
 -2       371       519       520      2360      2364      2362
 -1       882    8    0    1
 -2       373       372       521      1925      2365      2366
 -1       883    8    0    1
 -2       372       520       521      2363      2367      2365
 -1       884    8    0    1
 -2       374       373       522      1928      2368      2369
 -1       885    8    0    1
 -2       373       521       522      2366      2370      2368
 -1       886    8    0    1
 -2       375       374       523      1931      2371      2372
 -1       887    8    0    1
 -2       374       522       523      2369      2373      2371
 -1       888    8    0    1
 -2       376       375       524      1934      2374      2375
 -1       889    8    0    1
 -2       375       523       524      2372      2376      2374
 -1       890    8    0    1
 -2       377       376       525      1937      2377      2378
 -1       891    8    0    1
 -2       376       524       525      2375      2379      2377
 -1       892    8    0    1
 -2       378       377       526      1940      2380      2381
 -1       893    8    0    1
 -2       377       525       526      2378      2382      2380
 -1       894    8    0    1
 -2       379       378       527      1943      2383      2384
 -1       895    8    0    1
 -2       378       526       527      2381      2385      2383
 -1       896    8    0    1
 -2       383       384       528      1959      2386      2387
 -1       897    8    0    1
 -2       384       385       529      1962      2388      2389
 -1       898    8    0    1
 -2       384       529       528      2389      2390      2386
 -1       899    8    0    1
 -2       385       386       530      1965      2391      2392
 -1       900    8    0    1
 -2       385       530       529      2392      2393      2388
 -1       901    8    0    1
 -2       386       387       531      1968      2394      2395
 -1       902    8    0    1
 -2       386       531       530      2395      2396      2391
 -1       903    8    0    1
 -2       387       388       532      1971      2397      2398
 -1       904    8    0    1
 -2       387       532       531      2398      2399      2394
 -1       905    8    0    1
 -2       388       389       533      1974      2400      2401
 -1       906    8    0    1
 -2       388       533       532      2401      2402      2397
 -1       907    8    0    1
 -2       389       390       534      1977      2403      2404
 -1       908    8    0    1
 -2       389       534       533      2404      2405      2400
 -1       909    8    0    1
 -2       390       391       535      1980      2406      2407
 -1       910    8    0    1
 -2       390       535       534      2407      2408      2403
 -1       911    8    0    1
 -2       391       392       536      1983      2409      2410
 -1       912    8    0    1
 -2       391       536       535      2410      2411      2406
 -1       913    8    0    1
 -2       392       393       537      1986      2412      2413
 -1       914    8    0    1
 -2       392       537       536      2413      2414      2409
 -1       915    8    0    1
 -2       393       394       538      1989      2415      2416
 -1       916    8    0    1
 -2       393       538       537      2416      2417      2412
 -1       917    8    0    1
 -2       394       395       539      1992      2418      2419
 -1       918    8    0    1
 -2       394       539       538      2419      2420      2415
 -1       919    8    0    1
 -2       395       396       540      1995      2421      2422
 -1       920    8    0    1
 -2       395       540       539      2422      2423      2418
 -1       921    8    0    1
 -2       396       397       541      1998      2424      2425
 -1       922    8    0    1
 -2       396       541       540      2425      2426      2421
 -1       923    8    0    1
 -2       397       398       542      2001      2427      2428
 -1       924    8    0    1
 -2       397       542       541      2428      2429      2424
 -1       925    8    0    1
 -2       398       399       543      2004      2430      2431
 -1       926    8    0    1
 -2       398       543       542      2431      2432      2427
 -1       927    8    0    1
 -2       399       400       544      2007      2433      2434
 -1       928    8    0    1
 -2       399       544       543      2434      2435      2430
 -1       929    8    0    1
 -2       400       401       545      2010      2436      2437
 -1       930    8    0    1
 -2       400       545       544      2437      2438      2433
 -1       931    8    0    1
 -2       401       402       546      2013      2439      2440
 -1       932    8    0    1
 -2       401       546       545      2440      2441      2436
 -1       933    8    0    1
 -2       402       403       547      2016      2442      2443
 -1       934    8    0    1
 -2       402       547       546      2443      2444      2439
 -1       935    8    0    1
 -2       403       404       548      2019      2445      2446
 -1       936    8    0    1
 -2       403       548       547      2446      2447      2442
 -1       937    8    0    1
 -2       404       405       549      2022      2448      2449
 -1       938    8    0    1
 -2       404       549       548      2449      2450      2445
 -1       939    8    0    1
 -2       405       406       550      2025      2451      2452
 -1       940    8    0    1
 -2       405       550       549      2452      2453      2448
 -1       941    8    0    1
 -2       406       407       551      2028      2454      2455
 -1       942    8    0    1
 -2       406       551       550      2455      2456      2451
 -1       943    8    0    1
 -2       407       408       552      2031      2457      2458
 -1       944    8    0    1
 -2       407       552       551      2458      2459      2454
 -1       945    8    0    1
 -2       408       409       553      2034      2460      2461
 -1       946    8    0    1
 -2       408       553       552      2461      2462      2457
 -1       947    8    0    1
 -2       409       410       554      2037      2463      2464
 -1       948    8    0    1
 -2       409       554       553      2464      2465      2460
 -1       949    8    0    1
 -2       410       411       555      2040      2466      2467
 -1       950    8    0    1
 -2       410       555       554      2467      2468      2463
 -1       951    8    0    1
 -2       411       412       556      2043      2469      2470
 -1       952    8    0    1
 -2       411       556       555      2470      2471      2466
 -1       953    8    0    1
 -2       412       413       557      2046      2472      2473
 -1       954    8    0    1
 -2       412       557       556      2473      2474      2469
 -1       955    8    0    1
 -2       413       414       558      2049      2475      2476
 -1       956    8    0    1
 -2       413       558       557      2476      2477      2472
 -1       957    8    0    1
 -2       414       415       559      2052      2478      2479
 -1       958    8    0    1
 -2       414       559       558      2479      2480      2475
 -1       959    8    0    1
 -2       415       416       560      2055      2481      2482
 -1       960    8    0    1
 -2       415       560       559      2482      2483      2478
 -1       961    8    0    1
 -2       416       417       561      2058      2484      2485
 -1       962    8    0    1
 -2       416       561       560      2485      2486      2481
 -1       963    8    0    1
 -2       417       418       562      2061      2487      2488
 -1       964    8    0    1
 -2       417       562       561      2488      2489      2484
 -1       965    8    0    1
 -2       418       419       563      2064      2490      2491
 -1       966    8    0    1
 -2       418       563       562      2491      2492      2487
 -1       967    8    0    1
 -2       419       420       564      2067      2493      2494
 -1       968    8    0    1
 -2       419       564       563      2494      2495      2490
 -1       969    8    0    1
 -2       420       421       565      2070      2496      2497
 -1       970    8    0    1
 -2       420       565       564      2497      2498      2493
 -1       971    8    0    1
 -2       421       422       566      2073      2499      2500
 -1       972    8    0    1
 -2       421       566       565      2500      2501      2496
 -1       973    8    0    1
 -2       422       423       567      2076      2502      2503
 -1       974    8    0    1
 -2       422       567       566      2503      2504      2499
 -1       975    8    0    1
 -2       423       424       568      2079      2505      2506
 -1       976    8    0    1
 -2       423       568       567      2506      2507      2502
 -1       977    8    0    1
 -2       424       425       569      2082      2508      2509
 -1       978    8    0    1
 -2       424       569       568      2509      2510      2505
 -1       979    8    0    1
 -2       425       426       429      2085      2094      2511
 -1       980    8    0    1
 -2       430       431       570      2101      2512      2513
 -1       981    8    0    1
 -2       431       432       571      2104      2514      2515
 -1       982    8    0    1
 -2       431       571       570      2515      2516      2512
 -1       983    8    0    1
 -2       428       427       572      2091      2517      2518
 -1       984    8    0    1
 -2       427       430       573      2098      2519      2520
 -1       985    8    0    1
 -2       572       427       573      2517      2520      2521
 -1       986    8    0    1
 -2       430       570       573      2513      2522      2519
 -1       987    8    0    1
 -2       432       433       574      2107      2523      2524
 -1       988    8    0    1
 -2       432       574       571      2524      2525      2514
 -1       989    8    0    1
 -2       433       434       575      2110      2526      2527
 -1       990    8    0    1
 -2       433       575       574      2527      2528      2523
 -1       991    8    0    1
 -2       434       435       576      2113      2529      2530
 -1       992    8    0    1
 -2       434       576       575      2530      2531      2526
 -1       993    8    0    1
 -2       435       436       577      2116      2532      2533
 -1       994    8    0    1
 -2       435       577       576      2533      2534      2529
 -1       995    8    0    1
 -2       436       437       578      2119      2535      2536
 -1       996    8    0    1
 -2       436       578       577      2536      2537      2532
 -1       997    8    0    1
 -2       437       438       579      2122      2538      2539
 -1       998    8    0    1
 -2       437       579       578      2539      2540      2535
 -1       999    8    0    1
 -2       438       439       580      2125      2541      2542
 -1      1000    8    0    1
 -2       438       580       579      2542      2543      2538
 -1      1001    8    0    1
 -2       441       442       581      2197      2544      2545
 -1      1002    8    0    1
 -2       442       440       582      2196      2546      2547
 -1      1003    8    0    1
 -2       468       441       583      2199      2548      2549
 -1      1004    8    0    1
 -2       382       383       584      1956      2550      2551
 -1      1005    8    0    1
 -2       383       528       584      2387      2552      2550
 -1      1006    8    0    1
 -2       439       290       380      2198      1946      2553
 -1      1007    8    0    1
 -2       440       443       585      2134      2554      2555
 -1      1008    8    0    1
 -2       444       469       586      2200      2556      2557
 -1      1009    8    0    1
 -2       469       484       586      2256      2558      2556
 -1      1010    8    0    1
 -2       466       467       587      2201      2559      2560
 -1      1011    8    0    1
 -2       450       451       588      2217      2561      2562
 -1      1012    8    0    1
 -2       324       325       589      1779      2563      2564
 -1      1013    8    0    1
 -2       474       324       589      2228      2564      2565
 -1      1014    8    0    1
 -2       325       476       589      2234      2566      2563
 -1      1015    8    0    1
 -2       447       448       590      2223      2567      2568
 -1      1016    8    0    1
 -2       453       454       591      2224      2569      2570
 -1      1017    8    0    1
 -2       448       449       592      2219      2571      2572
 -1      1018    8    0    1
 -2       449       450       593      2218      2573      2574
 -1      1019    8    0    1
 -2       451       452       594      2155      2575      2576
 -1      1020    8    0    1
 -2       456       457       595      2225      2577      2578
 -1      1021    8    0    1
 -2       454       455       596      2162      2579      2580
 -1      1022    8    0    1
 -2       455       456       597      2213      2581      2582
 -1      1023    8    0    1
 -2       457       458       598      2212      2583      2584
 -1      1024    8    0    1
 -2       457       598       595      2584      2585      2577
 -1      1025    8    0    1
 -2       459       460       599      2208      2586      2587
 -1      1026    8    0    1
 -2       460       461       600      2207      2588      2589
 -1      1027    8    0    1
 -2       461       462       601      2206      2590      2591
 -1      1028    8    0    1
 -2       462       463       602      2205      2592      2593
 -1      1029    8    0    1
 -2       462       602       601      2593      2594      2590
 -1      1030    8    0    1
 -2       463       464       603      2204      2595      2596
 -1      1031    8    0    1
 -2       464       465       604      2203      2597      2598
 -1      1032    8    0    1
 -2       465       466       605      2202      2599      2600
 -1      1033    8    0    1
 -2       465       605       604      2600      2601      2597
 -1      1034    8    0    1
 -2       467       468       606      2189      2602      2603
 -1      1035    8    0    1
 -2       468       583       606      2549      2604      2602
 -1      1036    8    0    1
 -2       335       321       607      2195      2605      2606
 -1      1037    8    0    1
 -2       483       335       607      2253      2606      2607
 -1      1038    8    0    1
 -2       321       320       607      1768      2608      2605
 -1      1039    8    0    1
 -2       333       334       608      1808      2609      2610
 -1      1040    8    0    1
 -2       332       333       608      1803      2610      2611
 -1      1041    8    0    1
 -2       334       473       608      2227      2612      2609
 -1      1042    8    0    1
 -2       443       444       609      2192      2613      2614
 -1      1043    8    0    1
 -2       447       590       472      2568      2615      2222
 -1      1044    8    0    1
 -2       322       475       610      2231      2616      2617
 -1      1045    8    0    1
 -2       322       610       445      2617      2618      2140
 -1      1046    8    0    1
 -2       482       382       584      2250      2551      2619
 -1      1047    8    0    1
 -2       331       332       608      1800      2611      2620
 -1      1048    8    0    1
 -2       609       444       586      2613      2557      2621
 -1      1049    8    0    1
 -2       605       466       611      2599      2622      2623
 -1      1050    8    0    1
 -2       466       587       611      2560      2624      2622
 -1      1051    8    0    1
 -2       467       606       587      2603      2625      2559
 -1      1052    8    0    1
 -2       602       463       603      2592      2596      2626
 -1      1053    8    0    1
 -2       440       585       582      2555      2627      2546
 -1      1054    8    0    1
 -2       425       429       569      2511      2628      2508
 -1      1055    8    0    1
 -2       429       428       569      2095      2629      2628
 -1      1056    8    0    1
 -2       600       461       601      2588      2591      2630
 -1      1057    8    0    1
 -2       441       581       612      2545      2631      2632
 -1      1058    8    0    1
 -2       441       612       583      2632      2633      2548
 -1      1059    8    0    1
 -2       581       442       582      2544      2547      2634
 -1      1060    8    0    1
 -2       598       458       613      2583      2635      2636
 -1      1061    8    0    1
 -2       458       470       613      2210      2637      2635
 -1      1062    8    0    1
 -2       331       608       481      2620      2638      2247
 -1      1063    8    0    1
 -2       597       456       595      2581      2578      2639
 -1      1064    8    0    1
 -2       585       443       609      2554      2614      2640
 -1      1065    8    0    1
 -2       596       455       597      2579      2582      2641
 -1      1066    8    0    1
 -2       450       588       593      2562      2642      2573
 -1      1067    8    0    1
 -2       459       599       470      2587      2643      2211
 -1      1068    8    0    1
 -2       594       452       471      2575      2215      2644
 -1      1069    8    0    1
 -2       592       449       593      2571      2574      2645
 -1      1070    8    0    1
 -2       588       451       594      2561      2576      2646
 -1      1071    8    0    1
 -2       471       453       614      2216      2647      2648
 -1      1072    8    0    1
 -2       453       591       614      2570      2649      2647
 -1      1073    8    0    1
 -2       484       446       615      2255      2650      2651
 -1      1074    8    0    1
 -2       446       472       615      2221      2652      2650
 -1      1075    8    0    1
 -2       591       454       596      2569      2580      2653
 -1      1076    8    0    1
 -2       320       445       616      2139      2654      2655
 -1      1077    8    0    1
 -2       607       320       616      2608      2655      2656
 -1      1078    8    0    1
 -2       445       610       616      2618      2657      2654
 -1      1079    8    0    1
 -2       448       592       590      2572      2658      2567
 -1      1080    8    0    1
 -2       439       380       617      2553      2659      2660
 -1      1081    8    0    1
 -2       580       439       617      2541      2660      2661
 -1      1082    8    0    1
 -2       380       379       617      1947      2662      2659
 -1      1083    8    0    1
 -2       599       460       600      2586      2589      2663
 -1      1084    8    0    1
 -2       603       464       604      2595      2598      2664
 -1      1085    8    0    1
 -2       569       428       572      2629      2518      2665
 -1      1086    8    0    1
 -2       617       379       527      2662      2384      2666
 -1      1087    8    0    1
 -2       477       478       618      2240      2667      2668
 -1      1088    8    0    1
 -2       476       477       619      2237      2669      2670
 -1      1089    8    0    1
 -2       477       618       619      2668      2671      2669
 -1      1090    8    0    1
 -2       479       480       620      2246      2672      2673
 -1      1091    8    0    1
 -2       480       481       621      2249      2674      2675
 -1      1092    8    0    1
 -2       480       621       620      2675      2676      2672
 -1      1093    8    0    1
 -2       473       482       622      2252      2677      2678
 -1      1094    8    0    1
 -2       597       595       623      2639      2679      2680
 -1      1095    8    0    1
 -2       482       584       624      2619      2681      2682
 -1      1096    8    0    1
 -2       482       624       622      2682      2683      2677
 -1      1097    8    0    1
 -2       608       473       481      2612      2684      2638
 -1      1098    8    0    1
 -2       587       606       625      2625      2685      2686
 -1      1099    8    0    1
 -2       486       485       626      2262      2687      2688
 -1      1100    8    0    1
 -2       487       486       627      2265      2689      2690
 -1      1101    8    0    1
 -2       486       626       627      2688      2691      2689
 -1      1102    8    0    1
 -2       488       487       628      2268      2692      2693
 -1      1103    8    0    1
 -2       487       627       628      2690      2694      2692
 -1      1104    8    0    1
 -2       489       488       629      2271      2695      2696
 -1      1105    8    0    1
 -2       488       628       629      2693      2697      2695
 -1      1106    8    0    1
 -2       490       489       630      2274      2698      2699
 -1      1107    8    0    1
 -2       489       629       630      2696      2700      2698
 -1      1108    8    0    1
 -2       491       490       631      2277      2701      2702
 -1      1109    8    0    1
 -2       490       630       631      2699      2703      2701
 -1      1110    8    0    1
 -2       492       491       632      2280      2704      2705
 -1      1111    8    0    1
 -2       491       631       632      2702      2706      2704
 -1      1112    8    0    1
 -2       493       492       633      2283      2707      2708
 -1      1113    8    0    1
 -2       492       632       633      2705      2709      2707
 -1      1114    8    0    1
 -2       494       493       634      2286      2710      2711
 -1      1115    8    0    1
 -2       493       633       634      2708      2712      2710
 -1      1116    8    0    1
 -2       495       494       635      2289      2713      2714
 -1      1117    8    0    1
 -2       494       634       635      2711      2715      2713
 -1      1118    8    0    1
 -2       496       495       636      2292      2716      2717
 -1      1119    8    0    1
 -2       495       635       636      2714      2718      2716
 -1      1120    8    0    1
 -2       497       496       637      2295      2719      2720
 -1      1121    8    0    1
 -2       496       636       637      2717      2721      2719
 -1      1122    8    0    1
 -2       498       497       638      2298      2722      2723
 -1      1123    8    0    1
 -2       497       637       638      2720      2724      2722
 -1      1124    8    0    1
 -2       499       498       639      2301      2725      2726
 -1      1125    8    0    1
 -2       498       638       639      2723      2727      2725
 -1      1126    8    0    1
 -2       500       499       640      2304      2728      2729
 -1      1127    8    0    1
 -2       499       639       640      2726      2730      2728
 -1      1128    8    0    1
 -2       501       500       641      2307      2731      2732
 -1      1129    8    0    1
 -2       500       640       641      2729      2733      2731
 -1      1130    8    0    1
 -2       502       501       642      2310      2734      2735
 -1      1131    8    0    1
 -2       501       641       642      2732      2736      2734
 -1      1132    8    0    1
 -2       503       502       643      2313      2737      2738
 -1      1133    8    0    1
 -2       502       642       643      2735      2739      2737
 -1      1134    8    0    1
 -2       504       503       644      2316      2740      2741
 -1      1135    8    0    1
 -2       503       643       644      2738      2742      2740
 -1      1136    8    0    1
 -2       505       504       645      2319      2743      2744
 -1      1137    8    0    1
 -2       504       644       645      2741      2745      2743
 -1      1138    8    0    1
 -2       506       505       646      2322      2746      2747
 -1      1139    8    0    1
 -2       505       645       646      2744      2748      2746
 -1      1140    8    0    1
 -2       507       506       647      2325      2749      2750
 -1      1141    8    0    1
 -2       506       646       647      2747      2751      2749
 -1      1142    8    0    1
 -2       508       507       648      2328      2752      2753
 -1      1143    8    0    1
 -2       507       647       648      2750      2754      2752
 -1      1144    8    0    1
 -2       509       508       649      2331      2755      2756
 -1      1145    8    0    1
 -2       508       648       649      2753      2757      2755
 -1      1146    8    0    1
 -2       510       509       650      2334      2758      2759
 -1      1147    8    0    1
 -2       509       649       650      2756      2760      2758
 -1      1148    8    0    1
 -2       511       510       651      2337      2761      2762
 -1      1149    8    0    1
 -2       510       650       651      2759      2763      2761
 -1      1150    8    0    1
 -2       512       511       652      2340      2764      2765
 -1      1151    8    0    1
 -2       511       651       652      2762      2766      2764
 -1      1152    8    0    1
 -2       513       512       653      2343      2767      2768
 -1      1153    8    0    1
 -2       512       652       653      2765      2769      2767
 -1      1154    8    0    1
 -2       514       513       654      2346      2770      2771
 -1      1155    8    0    1
 -2       513       653       654      2768      2772      2770
 -1      1156    8    0    1
 -2       515       514       655      2349      2773      2774
 -1      1157    8    0    1
 -2       514       654       655      2771      2775      2773
 -1      1158    8    0    1
 -2       516       515       656      2352      2776      2777
 -1      1159    8    0    1
 -2       515       655       656      2774      2778      2776
 -1      1160    8    0    1
 -2       517       516       657      2355      2779      2780
 -1      1161    8    0    1
 -2       516       656       657      2777      2781      2779
 -1      1162    8    0    1
 -2       518       517       658      2358      2782      2783
 -1      1163    8    0    1
 -2       517       657       658      2780      2784      2782
 -1      1164    8    0    1
 -2       519       518       659      2361      2785      2786
 -1      1165    8    0    1
 -2       518       658       659      2783      2787      2785
 -1      1166    8    0    1
 -2       520       519       660      2364      2788      2789
 -1      1167    8    0    1
 -2       519       659       660      2786      2790      2788
 -1      1168    8    0    1
 -2       521       520       661      2367      2791      2792
 -1      1169    8    0    1
 -2       520       660       661      2789      2793      2791
 -1      1170    8    0    1
 -2       522       521       662      2370      2794      2795
 -1      1171    8    0    1
 -2       521       661       662      2792      2796      2794
 -1      1172    8    0    1
 -2       523       522       663      2373      2797      2798
 -1      1173    8    0    1
 -2       522       662       663      2795      2799      2797
 -1      1174    8    0    1
 -2       524       523       664      2376      2800      2801
 -1      1175    8    0    1
 -2       523       663       664      2798      2802      2800
 -1      1176    8    0    1
 -2       525       524       665      2379      2803      2804
 -1      1177    8    0    1
 -2       524       664       665      2801      2805      2803
 -1      1178    8    0    1
 -2       526       525       666      2382      2806      2807
 -1      1179    8    0    1
 -2       525       665       666      2804      2808      2806
 -1      1180    8    0    1
 -2       527       526       667      2385      2809      2810
 -1      1181    8    0    1
 -2       526       666       667      2807      2811      2809
 -1      1182    8    0    1
 -2       529       530       668      2393      2812      2813
 -1      1183    8    0    1
 -2       599       600       669      2663      2814      2815
 -1      1184    8    0    1
 -2       582       585       670      2627      2816      2817
 -1      1185    8    0    1
 -2       528       529       671      2390      2818      2819
 -1      1186    8    0    1
 -2       529       668       671      2813      2820      2818
 -1      1187    8    0    1
 -2       531       532       672      2399      2821      2822
 -1      1188    8    0    1
 -2       532       533       673      2402      2823      2824
 -1      1189    8    0    1
 -2       532       673       672      2824      2825      2821
 -1      1190    8    0    1
 -2       533       534       674      2405      2826      2827
 -1      1191    8    0    1
 -2       533       674       673      2827      2828      2823
 -1      1192    8    0    1
 -2       534       535       675      2408      2829      2830
 -1      1193    8    0    1
 -2       534       675       674      2830      2831      2826
 -1      1194    8    0    1
 -2       535       536       676      2411      2832      2833
 -1      1195    8    0    1
 -2       535       676       675      2833      2834      2829
 -1      1196    8    0    1
 -2       536       537       677      2414      2835      2836
 -1      1197    8    0    1
 -2       536       677       676      2836      2837      2832
 -1      1198    8    0    1
 -2       537       538       678      2417      2838      2839
 -1      1199    8    0    1
 -2       537       678       677      2839      2840      2835
 -1      1200    8    0    1
 -2       538       539       679      2420      2841      2842
 -1      1201    8    0    1
 -2       538       679       678      2842      2843      2838
 -1      1202    8    0    1
 -2       539       540       680      2423      2844      2845
 -1      1203    8    0    1
 -2       539       680       679      2845      2846      2841
 -1      1204    8    0    1
 -2       540       541       681      2426      2847      2848
 -1      1205    8    0    1
 -2       540       681       680      2848      2849      2844
 -1      1206    8    0    1
 -2       541       542       682      2429      2850      2851
 -1      1207    8    0    1
 -2       541       682       681      2851      2852      2847
 -1      1208    8    0    1
 -2       542       543       683      2432      2853      2854
 -1      1209    8    0    1
 -2       542       683       682      2854      2855      2850
 -1      1210    8    0    1
 -2       543       544       684      2435      2856      2857
 -1      1211    8    0    1
 -2       543       684       683      2857      2858      2853
 -1      1212    8    0    1
 -2       544       545       685      2438      2859      2860
 -1      1213    8    0    1
 -2       544       685       684      2860      2861      2856
 -1      1214    8    0    1
 -2       545       546       593      2441      2862      2863
 -1      1215    8    0    1
 -2       546       547       593      2444      2864      2862
 -1      1216    8    0    1
 -2       547       548       590      2447      2865      2866
 -1      1217    8    0    1
 -2       549       550       615      2453      2867      2868
 -1      1218    8    0    1
 -2       550       551       686      2456      2869      2870
 -1      1219    8    0    1
 -2       551       552       687      2459      2871      2872
 -1      1220    8    0    1
 -2       551       687       686      2872      2873      2869
 -1      1221    8    0    1
 -2       552       553       688      2462      2874      2875
 -1      1222    8    0    1
 -2       552       688       687      2875      2876      2871
 -1      1223    8    0    1
 -2       553       554       689      2465      2877      2878
 -1      1224    8    0    1
 -2       553       689       688      2878      2879      2874
 -1      1225    8    0    1
 -2       554       555       690      2468      2880      2881
 -1      1226    8    0    1
 -2       554       690       689      2881      2882      2877
 -1      1227    8    0    1
 -2       555       556       691      2471      2883      2884
 -1      1228    8    0    1
 -2       555       691       690      2884      2885      2880
 -1      1229    8    0    1
 -2       556       557       692      2474      2886      2887
 -1      1230    8    0    1
 -2       556       692       691      2887      2888      2883
 -1      1231    8    0    1
 -2       557       558       693      2477      2889      2890
 -1      1232    8    0    1
 -2       557       693       692      2890      2891      2886
 -1      1233    8    0    1
 -2       558       559       694      2480      2892      2893
 -1      1234    8    0    1
 -2       558       694       693      2893      2894      2889
 -1      1235    8    0    1
 -2       559       560       695      2483      2895      2896
 -1      1236    8    0    1
 -2       559       695       694      2896      2897      2892
 -1      1237    8    0    1
 -2       560       561       696      2486      2898      2899
 -1      1238    8    0    1
 -2       560       696       695      2899      2900      2895
 -1      1239    8    0    1
 -2       561       562       697      2489      2901      2902
 -1      1240    8    0    1
 -2       561       697       696      2902      2903      2898
 -1      1241    8    0    1
 -2       562       563       698      2492      2904      2905
 -1      1242    8    0    1
 -2       562       698       697      2905      2906      2901
 -1      1243    8    0    1
 -2       563       564       699      2495      2907      2908
 -1      1244    8    0    1
 -2       563       699       698      2908      2909      2904
 -1      1245    8    0    1
 -2       564       565       700      2498      2910      2911
 -1      1246    8    0    1
 -2       564       700       699      2911      2912      2907
 -1      1247    8    0    1
 -2       565       566       701      2501      2913      2914
 -1      1248    8    0    1
 -2       565       701       700      2914      2915      2910
 -1      1249    8    0    1
 -2       566       567       702      2504      2916      2917
 -1      1250    8    0    1
 -2       566       702       701      2917      2918      2913
 -1      1251    8    0    1
 -2       567       568       703      2507      2919      2920
 -1      1252    8    0    1
 -2       567       703       702      2920      2921      2916
 -1      1253    8    0    1
 -2       568       569       704      2510      2922      2923
 -1      1254    8    0    1
 -2       703       568       704      2919      2923      2924
 -1      1255    8    0    1
 -2       569       572       704      2665      2925      2922
 -1      1256    8    0    1
 -2       574       575       705      2528      2926      2927
 -1      1257    8    0    1
 -2       617       527       706      2666      2928      2929
 -1      1258    8    0    1
 -2       527       667       706      2810      2930      2928
 -1      1259    8    0    1
 -2       570       571       707      2516      2931      2932
 -1      1260    8    0    1
 -2       575       576       708      2531      2933      2934
 -1      1261    8    0    1
 -2       575       708       705      2934      2935      2926
 -1      1262    8    0    1
 -2       571       574       709      2525      2936      2937
 -1      1263    8    0    1
 -2       707       571       709      2931      2937      2938
 -1      1264    8    0    1
 -2       574       705       709      2927      2939      2936
 -1      1265    8    0    1
 -2       600       601       710      2630      2940      2941
 -1      1266    8    0    1
 -2       576       577       711      2534      2942      2943
 -1      1267    8    0    1
 -2       576       711       708      2943      2944      2933
 -1      1268    8    0    1
 -2       577       578       712      2537      2945      2946
 -1      1269    8    0    1
 -2       577       712       711      2946      2947      2942
 -1      1270    8    0    1
 -2       578       579       713      2540      2948      2949
 -1      1271    8    0    1
 -2       578       713       712      2949      2950      2945
 -1      1272    8    0    1
 -2       483       607       714      2607      2951      2952
 -1      1273    8    0    1
 -2       607       616       714      2656      2953      2951
 -1      1274    8    0    1
 -2       602       603       715      2626      2954      2955
 -1      1275    8    0    1
 -2       470       599       716      2643      2956      2957
 -1      1276    8    0    1
 -2       584       528       717      2552      2958      2959
 -1      1277    8    0    1
 -2       624       584       717      2681      2959      2960
 -1      1278    8    0    1
 -2       528       671       717      2819      2961      2958
 -1      1279    8    0    1
 -2       594       471       718      2644      2962      2963
 -1      1280    8    0    1
 -2       581       582       719      2634      2964      2965
 -1      1281    8    0    1
 -2       530       531       720      2396      2966      2967
 -1      1282    8    0    1
 -2       668       530       720      2812      2967      2968
 -1      1283    8    0    1
 -2       531       672       720      2822      2969      2966
 -1      1284    8    0    1
 -2       485       483       721      2259      2970      2971
 -1      1285    8    0    1
 -2       626       485       721      2687      2971      2972
 -1      1286    8    0    1
 -2       483       714       721      2952      2973      2970
 -1      1287    8    0    1
 -2       609       586       722      2621      2974      2975
 -1      1288    8    0    1
 -2       478       479       723      2243      2976      2977
 -1      1289    8    0    1
 -2       618       478       723      2667      2977      2978
 -1      1290    8    0    1
 -2       479       620       723      2673      2979      2976
 -1      1291    8    0    1
 -2       475       474       724      2232      2980      2981
 -1      1292    8    0    1
 -2       591       596       725      2653      2982      2983
 -1      1293    8    0    1
 -2       588       594       726      2646      2984      2985
 -1      1294    8    0    1
 -2       585       609       727      2640      2986      2987
 -1      1295    8    0    1
 -2       580       617       706      2661      2929      2988
 -1      1296    8    0    1
 -2       596       597       728      2641      2989      2990
 -1      1297    8    0    1
 -2       595       598       729      2585      2991      2992
 -1      1298    8    0    1
 -2       603       604       730      2664      2993      2994
 -1      1299    8    0    1
 -2       601       602       731      2594      2995      2996
 -1      1300    8    0    1
 -2       604       605       732      2601      2997      2998
 -1      1301    8    0    1
 -2       606       583       733      2604      2999      3000
 -1      1302    8    0    1
 -2       545       593       685      2863      3001      2859
 -1      1303    8    0    1
 -2       610       475       734      2616      3002      3003
 -1      1304    8    0    1
 -2       475       724       734      2981      3004      3002
 -1      1305    8    0    1
 -2       476       619       735      2670      3005      3006
 -1      1306    8    0    1
 -2       476       735       589      3006      3007      2566
 -1      1307    8    0    1
 -2       481       473       622      2684      2678      3008
 -1      1308    8    0    1
 -2       597       623       728      2680      3009      2989
 -1      1309    8    0    1
 -2       611       587       736      2624      3010      3011
 -1      1310    8    0    1
 -2       587       625       736      2686      3012      3010
 -1      1311    8    0    1
 -2       625       606       733      2685      3000      3013
 -1      1312    8    0    1
 -2       733       583       737      2999      3014      3015
 -1      1313    8    0    1
 -2       583       612       737      2633      3016      3014
 -1      1314    8    0    1
 -2       732       605       611      2997      2623      3017
 -1      1315    8    0    1
 -2       570       707       738      2932      3018      3019
 -1      1316    8    0    1
 -2       570       738       573      3019      3020      2522
 -1      1317    8    0    1
 -2       599       669       739      2815      3021      3022
 -1      1318    8    0    1
 -2       599       739       716      3022      3023      2956
 -1      1319    8    0    1
 -2       582       670       719      2817      3024      2964
 -1      1320    8    0    1
 -2       594       718       726      2963      3025      2984
 -1      1321    8    0    1
 -2       547       590       592      2866      2658      3026
 -1      1322    8    0    1
 -2       550       686       615      2870      3027      2867
 -1      1323    8    0    1
 -2       731       602       715      2995      2955      3028
 -1      1324    8    0    1
 -2       596       728       725      2990      3029      2982
 -1      1325    8    0    1
 -2       710       601       731      2940      2996      3030
 -1      1326    8    0    1
 -2       572       573       740      2521      3031      3032
 -1      1327    8    0    1
 -2       704       572       740      2925      3032      3033
 -1      1328    8    0    1
 -2       573       738       740      3020      3034      3031
 -1      1329    8    0    1
 -2       730       604       732      2993      2998      3035
 -1      1330    8    0    1
 -2       612       581       741      2631      3036      3037
 -1      1331    8    0    1
 -2       581       719       741      2965      3038      3036
 -1      1332    8    0    1
 -2       609       722       727      2975      3039      2986
 -1      1333    8    0    1
 -2       579       580       706      2543      2988      3040
 -1      1334    8    0    1
 -2       729       598       742      2991      3041      3042
 -1      1335    8    0    1
 -2       598       613       742      2636      3043      3041
 -1      1336    8    0    1
 -2       718       471       614      2962      2648      3044
 -1      1337    8    0    1
 -2       613       470       716      2637      2957      3045
 -1      1338    8    0    1
 -2       579       706       743      3040      3046      3047
 -1      1339    8    0    1
 -2       713       579       743      2948      3047      3048
 -1      1340    8    0    1
 -2       706       667       743      2930      3049      3046
 -1      1341    8    0    1
 -2       715       603       730      2954      2994      3050
 -1      1342    8    0    1
 -2       586       484       686      2558      3051      3052
 -1      1343    8    0    1
 -2       481       622       621      3008      3053      2674
 -1      1344    8    0    1
 -2       614       591       744      2649      3054      3055
 -1      1345    8    0    1
 -2       591       725       744      2983      3056      3054
 -1      1346    8    0    1
 -2       474       589       745      2565      3057      3058
 -1      1347    8    0    1
 -2       724       474       745      2980      3058      3059
 -1      1348    8    0    1
 -2       589       735       745      3007      3060      3057
 -1      1349    8    0    1
 -2       670       585       727      2816      2987      3061
 -1      1350    8    0    1
 -2       595       729       623      2992      3062      2679
 -1      1351    8    0    1
 -2       586       686       722      3052      3063      2974
 -1      1352    8    0    1
 -2       600       710       746      2941      3064      3065
 -1      1353    8    0    1
 -2       600       746       669      3065      3066      2814
 -1      1354    8    0    1
 -2       728       623       747      3009      3067      3068
 -1      1355    8    0    1
 -2       620       621       748      2676      3069      3070
 -1      1356    8    0    1
 -2       670       727       749      3061      3071      3072
 -1      1357    8    0    1
 -2       628       627       750      2694      3073      3074
 -1      1358    8    0    1
 -2       629       628       751      2697      3075      3076
 -1      1359    8    0    1
 -2       628       750       751      3074      3077      3075
 -1      1360    8    0    1
 -2       630       629       752      2700      3078      3079
 -1      1361    8    0    1
 -2       629       751       752      3076      3080      3078
 -1      1362    8    0    1
 -2       631       630       753      2703      3081      3082
 -1      1363    8    0    1
 -2       630       752       753      3079      3083      3081
 -1      1364    8    0    1
 -2       632       631       754      2706      3084      3085
 -1      1365    8    0    1
 -2       631       753       754      3082      3086      3084
 -1      1366    8    0    1
 -2       633       632       755      2709      3087      3088
 -1      1367    8    0    1
 -2       632       754       755      3085      3089      3087
 -1      1368    8    0    1
 -2       634       633       756      2712      3090      3091
 -1      1369    8    0    1
 -2       633       755       756      3088      3092      3090
 -1      1370    8    0    1
 -2       635       634       757      2715      3093      3094
 -1      1371    8    0    1
 -2       634       756       757      3091      3095      3093
 -1      1372    8    0    1
 -2       636       635       758      2718      3096      3097
 -1      1373    8    0    1
 -2       635       757       758      3094      3098      3096
 -1      1374    8    0    1
 -2       637       636       759      2721      3099      3100
 -1      1375    8    0    1
 -2       636       758       759      3097      3101      3099
 -1      1376    8    0    1
 -2       638       637       760      2724      3102      3103
 -1      1377    8    0    1
 -2       637       759       760      3100      3104      3102
 -1      1378    8    0    1
 -2       639       638       761      2727      3105      3106
 -1      1379    8    0    1
 -2       638       760       761      3103      3107      3105
 -1      1380    8    0    1
 -2       640       639       762      2730      3108      3109
 -1      1381    8    0    1
 -2       639       761       762      3106      3110      3108
 -1      1382    8    0    1
 -2       641       640       763      2733      3111      3112
 -1      1383    8    0    1
 -2       640       762       763      3109      3113      3111
 -1      1384    8    0    1
 -2       642       641       764      2736      3114      3115
 -1      1385    8    0    1
 -2       641       763       764      3112      3116      3114
 -1      1386    8    0    1
 -2       643       642       765      2739      3117      3118
 -1      1387    8    0    1
 -2       642       764       765      3115      3119      3117
 -1      1388    8    0    1
 -2       644       643       766      2742      3120      3121
 -1      1389    8    0    1
 -2       643       765       766      3118      3122      3120
 -1      1390    8    0    1
 -2       645       644       767      2745      3123      3124
 -1      1391    8    0    1
 -2       644       766       767      3121      3125      3123
 -1      1392    8    0    1
 -2       646       645       768      2748      3126      3127
 -1      1393    8    0    1
 -2       645       767       768      3124      3128      3126
 -1      1394    8    0    1
 -2       648       647       769      2754      3129      3130
 -1      1395    8    0    1
 -2       649       648       770      2757      3131      3132
 -1      1396    8    0    1
 -2       648       769       770      3130      3133      3131
 -1      1397    8    0    1
 -2       650       649       771      2760      3134      3135
 -1      1398    8    0    1
 -2       649       770       771      3132      3136      3134
 -1      1399    8    0    1
 -2       651       650       772      2763      3137      3138
 -1      1400    8    0    1
 -2       650       771       772      3135      3139      3137
 -1      1401    8    0    1
 -2       652       651       773      2766      3140      3141
 -1      1402    8    0    1
 -2       651       772       773      3138      3142      3140
 -1      1403    8    0    1
 -2       653       652       774      2769      3143      3144
 -1      1404    8    0    1
 -2       652       773       774      3141      3145      3143
 -1      1405    8    0    1
 -2       654       653       775      2772      3146      3147
 -1      1406    8    0    1
 -2       653       774       775      3144      3148      3146
 -1      1407    8    0    1
 -2       655       654       776      2775      3149      3150
 -1      1408    8    0    1
 -2       654       775       776      3147      3151      3149
 -1      1409    8    0    1
 -2       656       655       777      2778      3152      3153
 -1      1410    8    0    1
 -2       655       776       777      3150      3154      3152
 -1      1411    8    0    1
 -2       657       656       778      2781      3155      3156
 -1      1412    8    0    1
 -2       656       777       778      3153      3157      3155
 -1      1413    8    0    1
 -2       658       657       779      2784      3158      3159
 -1      1414    8    0    1
 -2       657       778       779      3156      3160      3158
 -1      1415    8    0    1
 -2       659       658       780      2787      3161      3162
 -1      1416    8    0    1
 -2       658       779       780      3159      3163      3161
 -1      1417    8    0    1
 -2       660       659       781      2790      3164      3165
 -1      1418    8    0    1
 -2       659       780       781      3162      3166      3164
 -1      1419    8    0    1
 -2       661       660       782      2793      3167      3168
 -1      1420    8    0    1
 -2       660       781       782      3165      3169      3167
 -1      1421    8    0    1
 -2       662       661       783      2796      3170      3171
 -1      1422    8    0    1
 -2       661       782       783      3168      3172      3170
 -1      1423    8    0    1
 -2       663       662       784      2799      3173      3174
 -1      1424    8    0    1
 -2       662       783       784      3171      3175      3173
 -1      1425    8    0    1
 -2       664       663       785      2802      3176      3177
 -1      1426    8    0    1
 -2       663       784       785      3174      3178      3176
 -1      1427    8    0    1
 -2       665       664       786      2805      3179      3180
 -1      1428    8    0    1
 -2       664       785       786      3177      3181      3179
 -1      1429    8    0    1
 -2       666       665       787      2808      3182      3183
 -1      1430    8    0    1
 -2       665       786       787      3180      3184      3182
 -1      1431    8    0    1
 -2       667       666       788      2811      3185      3186
 -1      1432    8    0    1
 -2       743       667       788      3049      3186      3187
 -1      1433    8    0    1
 -2       666       787       788      3183      3188      3185
 -1      1434    8    0    1
 -2       673       674       789      2828      3189      3190
 -1      1435    8    0    1
 -2       672       673       790      2825      3191      3192
 -1      1436    8    0    1
 -2       673       789       790      3190      3193      3191
 -1      1437    8    0    1
 -2       675       676       791      2834      3194      3195
 -1      1438    8    0    1
 -2       676       677       792      2837      3196      3197
 -1      1439    8    0    1
 -2       676       792       791      3197      3198      3194
 -1      1440    8    0    1
 -2       677       678       793      2840      3199      3200
 -1      1441    8    0    1
 -2       677       793       792      3200      3201      3196
 -1      1442    8    0    1
 -2       678       679       794      2843      3202      3203
 -1      1443    8    0    1
 -2       678       794       793      3203      3204      3199
 -1      1444    8    0    1
 -2       679       680       795      2846      3205      3206
 -1      1445    8    0    1
 -2       679       795       794      3206      3207      3202
 -1      1446    8    0    1
 -2       680       681       796      2849      3208      3209
 -1      1447    8    0    1
 -2       680       796       795      3209      3210      3205
 -1      1448    8    0    1
 -2       681       682       797      2852      3211      3212
 -1      1449    8    0    1
 -2       681       797       796      3212      3213      3208
 -1      1450    8    0    1
 -2       682       683       798      2855      3214      3215
 -1      1451    8    0    1
 -2       682       798       797      3215      3216      3211
 -1      1452    8    0    1
 -2       683       684       799      2858      3217      3218
 -1      1453    8    0    1
 -2       683       799       798      3218      3219      3214
 -1      1454    8    0    1
 -2       684       685       726      2861      3220      3221
 -1      1455    8    0    1
 -2       590       548       472      2865      3222      2615
 -1      1456    8    0    1
 -2       548       549       472      2450      3223      3222
 -1      1457    8    0    1
 -2       686       687       722      2873      3224      3063
 -1      1458    8    0    1
 -2       689       690       800      2882      3225      3226
 -1      1459    8    0    1
 -2       690       691       801      2885      3227      3228
 -1      1460    8    0    1
 -2       690       801       800      3228      3229      3225
 -1      1461    8    0    1
 -2       691       692       802      2888      3230      3231
 -1      1462    8    0    1
 -2       691       802       801      3231      3232      3227
 -1      1463    8    0    1
 -2       692       693       803      2891      3233      3234
 -1      1464    8    0    1
 -2       692       803       802      3234      3235      3230
 -1      1465    8    0    1
 -2       693       694       804      2894      3236      3237
 -1      1466    8    0    1
 -2       693       804       803      3237      3238      3233
 -1      1467    8    0    1
 -2       694       695       805      2897      3239      3240
 -1      1468    8    0    1
 -2       694       805       804      3240      3241      3236
 -1      1469    8    0    1
 -2       695       696       806      2900      3242      3243
 -1      1470    8    0    1
 -2       695       806       805      3243      3244      3239
 -1      1471    8    0    1
 -2       696       697       807      2903      3245      3246
 -1      1472    8    0    1
 -2       696       807       806      3246      3247      3242
 -1      1473    8    0    1
 -2       697       698       808      2906      3248      3249
 -1      1474    8    0    1
 -2       697       808       807      3249      3250      3245
 -1      1475    8    0    1
 -2       698       699       809      2909      3251      3252
 -1      1476    8    0    1
 -2       698       809       808      3252      3253      3248
 -1      1477    8    0    1
 -2       699       700       810      2912      3254      3255
 -1      1478    8    0    1
 -2       699       810       809      3255      3256      3251
 -1      1479    8    0    1
 -2       700       701       811      2915      3257      3258
 -1      1480    8    0    1
 -2       700       811       810      3258      3259      3254
 -1      1481    8    0    1
 -2       701       702       812      2918      3260      3261
 -1      1482    8    0    1
 -2       701       812       811      3261      3262      3257
 -1      1483    8    0    1
 -2       702       703       813      2921      3263      3264
 -1      1484    8    0    1
 -2       702       813       812      3264      3265      3260
 -1      1485    8    0    1
 -2       703       704       814      2924      3266      3267
 -1      1486    8    0    1
 -2       813       703       814      3263      3267      3268
 -1      1487    8    0    1
 -2       704       740       814      3033      3269      3266
 -1      1488    8    0    1
 -2       715       730       815      3050      3270      3271
 -1      1489    8    0    1
 -2       619       618       816      2671      3272      3273
 -1      1490    8    0    1
 -2       705       708       817      2935      3274      3275
 -1      1491    8    0    1
 -2       712       713       818      2950      3276      3277
 -1      1492    8    0    1
 -2       708       711       819      2944      3278      3279
 -1      1493    8    0    1
 -2       708       819       817      3279      3280      3274
 -1      1494    8    0    1
 -2       718       614       820      3044      3281      3282
 -1      1495    8    0    1
 -2       621       622       821      3053      3283      3284
 -1      1496    8    0    1
 -2       748       621       821      3069      3284      3285
 -1      1497    8    0    1
 -2       622       624       821      2683      3286      3283
 -1      1498    8    0    1
 -2       719       670       822      3024      3287      3288
 -1      1499    8    0    1
 -2       730       732       823      3035      3289      3290
 -1      1500    8    0    1
 -2       730       823       815      3290      3291      3270
 -1      1501    8    0    1
 -2       711       712       824      2947      3292      3293
 -1      1502    8    0    1
 -2       819       711       824      3278      3293      3294
 -1      1503    8    0    1
 -2       712       818       824      3277      3295      3292
 -1      1504    8    0    1
 -2       688       689       825      2879      3296      3297
 -1      1505    8    0    1
 -2       689       800       825      3226      3298      3296
 -1      1506    8    0    1
 -2       687       688       749      2876      3299      3300
 -1      1507    8    0    1
 -2       731       715       826      3028      3301      3302
 -1      1508    8    0    1
 -2       674       675       827      2831      3303      3304
 -1      1509    8    0    1
 -2       789       674       827      3189      3304      3305
 -1      1510    8    0    1
 -2       675       791       827      3195      3306      3303
 -1      1511    8    0    1
 -2       727       722       687      3039      3224      3307
 -1      1512    8    0    1
 -2       615       472       549      2652      3223      2868
 -1      1513    8    0    1
 -2       671       668       828      2820      3308      3309
 -1      1514    8    0    1
 -2       616       610       829      2657      3310      3311
 -1      1515    8    0    1
 -2       714       616       829      2953      3311      3312
 -1      1516    8    0    1
 -2       610       734       829      3003      3313      3310
 -1      1517    8    0    1
 -2       710       731       769      3030      3314      3315
 -1      1518    8    0    1
 -2       588       726       685      2985      3220      3316
 -1      1519    8    0    1
 -2       623       729       830      3062      3317      3318
 -1      1520    8    0    1
 -2       613       716       831      3045      3319      3320
 -1      1521    8    0    1
 -2       613       831       742      3320      3321      3043
 -1      1522    8    0    1
 -2       725       728       832      3029      3322      3323
 -1      1523    8    0    1
 -2       627       626       833      2691      3324      3325
 -1      1524    8    0    1
 -2       627       833       750      3325      3326      3073
 -1      1525    8    0    1
 -2       625       733       834      3013      3327      3328
 -1      1526    8    0    1
 -2       732       611       835      3017      3329      3330
 -1      1527    8    0    1
 -2       685       593       588      3001      2642      3316
 -1      1528    8    0    1
 -2       727       687       749      3307      3300      3071
 -1      1529    8    0    1
 -2       684       726       799      3221      3331      3217
 -1      1530    8    0    1
 -2       735       619       836      3005      3332      3333
 -1      1531    8    0    1
 -2       619       816       836      3273      3334      3332
 -1      1532    8    0    1
 -2       620       748       837      3070      3335      3336
 -1      1533    8    0    1
 -2       620       837       723      3336      3337      2979
 -1      1534    8    0    1
 -2       670       749       822      3072      3338      3287
 -1      1535    8    0    1
 -2       736       625       834      3012      3328      3339
 -1      1536    8    0    1
 -2       719       822       838      3288      3340      3341
 -1      1537    8    0    1
 -2       719       838       741      3341      3342      3038
 -1      1538    8    0    1
 -2       669       746       768      3066      3343      3344
 -1      1539    8    0    1
 -2       737       612       741      3016      3037      3345
 -1      1540    8    0    1
 -2       626       721       839      2972      3346      3347
 -1      1541    8    0    1
 -2       626       839       833      3347      3348      3324
 -1      1542    8    0    1
 -2       646       768       840      3127      3349      3350
 -1      1543    8    0    1
 -2       647       646       840      2751      3350      3351
 -1      1544    8    0    1
 -2       768       746       840      3343      3352      3349
 -1      1545    8    0    1
 -2       738       707       841      3018      3353      3354
 -1      1546    8    0    1
 -2       739       669       768      3021      3344      3355
 -1      1547    8    0    1
 -2       769       647       840      3129      3351      3356
 -1      1548    8    0    1
 -2       841       707       842      3353      3357      3358
 -1      1549    8    0    1
 -2       707       709       842      2938      3359      3357
 -1      1550    8    0    1
 -2       721       714       829      2973      3312      3360
 -1      1551    8    0    1
 -2       672       790       843      3192      3361      3362
 -1      1552    8    0    1
 -2       672       843       720      3362      3363      2969
 -1      1553    8    0    1
 -2       623       830       747      3318      3364      3067
 -1      1554    8    0    1
 -2       734       724       844      3004      3365      3366
 -1      1555    8    0    1
 -2       710       769       840      3315      3356      3367
 -1      1556    8    0    1
 -2       593       547       592      2864      3026      2645
 -1      1557    8    0    1
 -2       671       828       845      3309      3368      3369
 -1      1558    8    0    1
 -2       671       845       717      3369      3370      2961
 -1      1559    8    0    1
 -2       816       618       846      3272      3371      3372
 -1      1560    8    0    1
 -2       618       723       846      2978      3373      3371
 -1      1561    8    0    1
 -2       688       825       749      3297      3374      3299
 -1      1562    8    0    1
 -2       709       705       847      2939      3375      3376
 -1      1563    8    0    1
 -2       842       709       847      3359      3376      3377
 -1      1564    8    0    1
 -2       705       817       847      3275      3378      3375
 -1      1565    8    0    1
 -2       820       614       744      3281      3055      3379
 -1      1566    8    0    1
 -2       725       832       848      3323      3380      3381
 -1      1567    8    0    1
 -2       725       848       744      3381      3382      3056
 -1      1568    8    0    1
 -2       823       732       849      3289      3383      3384
 -1      1569    8    0    1
 -2       732       835       849      3330      3385      3383
 -1      1570    8    0    1
 -2       826       715       815      3301      3271      3386
 -1      1571    8    0    1
 -2       713       743       850      3048      3387      3388
 -1      1572    8    0    1
 -2       818       713       850      3276      3388      3389
 -1      1573    8    0    1
 -2       743       788       850      3187      3390      3387
 -1      1574    8    0    1
 -2       624       717       851      2960      3391      3392
 -1      1575    8    0    1
 -2       821       624       851      3286      3392      3393
 -1      1576    8    0    1
 -2       717       845       851      3370      3394      3391
 -1      1577    8    0    1
 -2       835       611       736      3329      3011      3395
 -1      1578    8    0    1
 -2       668       720       852      2968      3396      3397
 -1      1579    8    0    1
 -2       720       843       852      3363      3398      3396
 -1      1580    8    0    1
 -2       716       739       853      3023      3399      3400
 -1      1581    8    0    1
 -2       716       853       831      3400      3401      3319
 -1      1582    8    0    1
 -2       799       726       718      3331      3025      3402
 -1      1583    8    0    1
 -2       724       745       854      3059      3403      3404
 -1      1584    8    0    1
 -2       724       854       844      3404      3405      3365
 -1      1585    8    0    1
 -2       830       729       855      3317      3406      3407
 -1      1586    8    0    1
 -2       729       742       855      3042      3408      3406
 -1      1587    8    0    1
 -2       832       728       747      3322      3068      3409
 -1      1588    8    0    1
 -2       668       852       828      3397      3410      3308
 -1      1589    8    0    1
 -2       834       733       856      3327      3411      3412
 -1      1590    8    0    1
 -2       733       737       856      3015      3413      3411
 -1      1591    8    0    1
 -2       746       710       840      3064      3367      3352
 -1      1592    8    0    1
 -2       737       741       857      3345      3414      3415
 -1      1593    8    0    1
 -2       739       768       767      3355      3128      3416
 -1      1594    8    0    1
 -2       752       751       858      3080      3417      3418
 -1      1595    8    0    1
 -2       753       752       859      3083      3419      3420
 -1      1596    8    0    1
 -2       752       858       859      3418      3421      3419
 -1      1597    8    0    1
 -2       754       753       860      3086      3422      3423
 -1      1598    8    0    1
 -2       753       859       860      3420      3424      3422
 -1      1599    8    0    1
 -2       755       754       861      3089      3425      3426
 -1      1600    8    0    1
 -2       754       860       861      3423      3427      3425
 -1      1601    8    0    1
 -2       756       755       862      3092      3428      3429
 -1      1602    8    0    1
 -2       755       861       862      3426      3430      3428
 -1      1603    8    0    1
 -2       757       756       863      3095      3431      3432
 -1      1604    8    0    1
 -2       756       862       863      3429      3433      3431
 -1      1605    8    0    1
 -2       758       757       864      3098      3434      3435
 -1      1606    8    0    1
 -2       757       863       864      3432      3436      3434
 -1      1607    8    0    1
 -2       759       758       865      3101      3437      3438
 -1      1608    8    0    1
 -2       758       864       865      3435      3439      3437
 -1      1609    8    0    1
 -2       760       759       866      3104      3440      3441
 -1      1610    8    0    1
 -2       759       865       866      3438      3442      3440
 -1      1611    8    0    1
 -2       761       760       867      3107      3443      3444
 -1      1612    8    0    1
 -2       760       866       867      3441      3445      3443
 -1      1613    8    0    1
 -2       762       761       868      3110      3446      3447
 -1      1614    8    0    1
 -2       761       867       868      3444      3448      3446
 -1      1615    8    0    1
 -2       763       762       869      3113      3449      3450
 -1      1616    8    0    1
 -2       762       868       869      3447      3451      3449
 -1      1617    8    0    1
 -2       764       763       870      3116      3452      3453
 -1      1618    8    0    1
 -2       763       869       870      3450      3454      3452
 -1      1619    8    0    1
 -2       765       764       871      3119      3455      3456
 -1      1620    8    0    1
 -2       764       870       871      3453      3457      3455
 -1      1621    8    0    1
 -2       766       765       872      3122      3458      3459
 -1      1622    8    0    1
 -2       765       871       872      3456      3460      3458
 -1      1623    8    0    1
 -2       773       772       873      3142      3461      3462
 -1      1624    8    0    1
 -2       774       773       874      3145      3463      3464
 -1      1625    8    0    1
 -2       773       873       874      3462      3465      3463
 -1      1626    8    0    1
 -2       775       774       875      3148      3466      3467
 -1      1627    8    0    1
 -2       774       874       875      3464      3468      3466
 -1      1628    8    0    1
 -2       776       775       876      3151      3469      3470
 -1      1629    8    0    1
 -2       775       875       876      3467      3471      3469
 -1      1630    8    0    1
 -2       777       776       877      3154      3472      3473
 -1      1631    8    0    1
 -2       776       876       877      3470      3474      3472
 -1      1632    8    0    1
 -2       778       777       878      3157      3475      3476
 -1      1633    8    0    1
 -2       777       877       878      3473      3477      3475
 -1      1634    8    0    1
 -2       779       778       879      3160      3478      3479
 -1      1635    8    0    1
 -2       778       878       879      3476      3480      3478
 -1      1636    8    0    1
 -2       780       779       880      3163      3481      3482
 -1      1637    8    0    1
 -2       779       879       880      3479      3483      3481
 -1      1638    8    0    1
 -2       781       780       881      3166      3484      3485
 -1      1639    8    0    1
 -2       780       880       881      3482      3486      3484
 -1      1640    8    0    1
 -2       782       781       882      3169      3487      3488
 -1      1641    8    0    1
 -2       781       881       882      3485      3489      3487
 -1      1642    8    0    1
 -2       783       782       883      3172      3490      3491
 -1      1643    8    0    1
 -2       782       882       883      3488      3492      3490
 -1      1644    8    0    1
 -2       784       783       884      3175      3493      3494
 -1      1645    8    0    1
 -2       783       883       884      3491      3495      3493
 -1      1646    8    0    1
 -2       785       784       885      3178      3496      3497
 -1      1647    8    0    1
 -2       784       884       885      3494      3498      3496
 -1      1648    8    0    1
 -2       786       785       886      3181      3499      3500
 -1      1649    8    0    1
 -2       785       885       886      3497      3501      3499
 -1      1650    8    0    1
 -2       787       786       887      3184      3502      3503
 -1      1651    8    0    1
 -2       786       886       887      3500      3504      3502
 -1      1652    8    0    1
 -2       790       789       888      3193      3505      3506
 -1      1653    8    0    1
 -2       792       793       889      3201      3507      3508
 -1      1654    8    0    1
 -2       791       792       890      3198      3509      3510
 -1      1655    8    0    1
 -2       792       889       890      3508      3511      3509
 -1      1656    8    0    1
 -2       794       795       891      3207      3512      3513
 -1      1657    8    0    1
 -2       795       796       892      3210      3514      3515
 -1      1658    8    0    1
 -2       795       892       891      3515      3516      3512
 -1      1659    8    0    1
 -2       796       797       893      3213      3517      3518
 -1      1660    8    0    1
 -2       796       893       892      3518      3519      3514
 -1      1661    8    0    1
 -2       797       798       894      3216      3520      3521
 -1      1662    8    0    1
 -2       797       894       893      3521      3522      3517
 -1      1663    8    0    1
 -2       798       799       895      3219      3523      3524
 -1      1664    8    0    1
 -2       798       895       894      3524      3525      3520
 -1      1665    8    0    1
 -2       718       820       799      3282      3526      3402
 -1      1666    8    0    1
 -2       802       803       896      3235      3527      3528
 -1      1667    8    0    1
 -2       801       802       897      3232      3529      3530
 -1      1668    8    0    1
 -2       802       896       897      3528      3531      3529
 -1      1669    8    0    1
 -2       800       801       898      3229      3532      3533
 -1      1670    8    0    1
 -2       801       897       898      3530      3534      3532
 -1      1671    8    0    1
 -2       803       804       899      3238      3535      3536
 -1      1672    8    0    1
 -2       803       899       896      3536      3537      3527
 -1      1673    8    0    1
 -2       804       805       900      3241      3538      3539
 -1      1674    8    0    1
 -2       804       900       899      3539      3540      3535
 -1      1675    8    0    1
 -2       805       806       901      3244      3541      3542
 -1      1676    8    0    1
 -2       805       901       900      3542      3543      3538
 -1      1677    8    0    1
 -2       806       807       902      3247      3544      3545
 -1      1678    8    0    1
 -2       806       902       901      3545      3546      3541
 -1      1679    8    0    1
 -2       807       808       903      3250      3547      3548
 -1      1680    8    0    1
 -2       807       903       902      3548      3549      3544
 -1      1681    8    0    1
 -2       808       809       904      3253      3550      3551
 -1      1682    8    0    1
 -2       808       904       903      3551      3552      3547
 -1      1683    8    0    1
 -2       809       810       905      3256      3553      3554
 -1      1684    8    0    1
 -2       809       905       904      3554      3555      3550
 -1      1685    8    0    1
 -2       810       811       906      3259      3556      3557
 -1      1686    8    0    1
 -2       810       906       905      3557      3558      3553
 -1      1687    8    0    1
 -2       811       812       907      3262      3559      3560
 -1      1688    8    0    1
 -2       811       907       906      3560      3561      3556
 -1      1689    8    0    1
 -2       812       813       908      3265      3562      3563
 -1      1690    8    0    1
 -2       812       908       907      3563      3564      3559
 -1      1691    8    0    1
 -2       721       829       839      3360      3565      3346
 -1      1692    8    0    1
 -2       820       744       909      3379      3566      3567
 -1      1693    8    0    1
 -2       744       848       909      3382      3568      3566
 -1      1694    8    0    1
 -2       740       738       910      3034      3569      3570
 -1      1695    8    0    1
 -2       814       740       910      3269      3570      3571
 -1      1696    8    0    1
 -2       738       841       910      3354      3572      3569
 -1      1697    8    0    1
 -2       817       819       911      3280      3573      3574
 -1      1698    8    0    1
 -2       769       731       770      3314      3575      3133
 -1      1699    8    0    1
 -2       825       800       912      3298      3576      3577
 -1      1700    8    0    1
 -2       800       898       912      3533      3578      3576
 -1      1701    8    0    1
 -2       748       821       913      3285      3579      3580
 -1      1702    8    0    1
 -2       821       851       913      3393      3581      3579
 -1      1703    8    0    1
 -2       793       794       914      3204      3582      3583
 -1      1704    8    0    1
 -2       889       793       914      3507      3583      3584
 -1      1705    8    0    1
 -2       794       891       914      3513      3585      3582
 -1      1706    8    0    1
 -2       686       484       615      3051      2651      3027
 -1      1707    8    0    1
 -2       747       830       915      3364      3586      3587
 -1      1708    8    0    1
 -2       745       735       916      3060      3588      3589
 -1      1709    8    0    1
 -2       745       916       854      3589      3590      3403
 -1      1710    8    0    1
 -2       835       736       917      3395      3591      3592
 -1      1711    8    0    1
 -2       751       750       918      3077      3593      3594
 -1      1712    8    0    1
 -2       751       918       858      3594      3595      3417
 -1      1713    8    0    1
 -2       822       749       912      3338      3596      3597
 -1      1714    8    0    1
 -2       742       831       919      3321      3598      3599
 -1      1715    8    0    1
 -2       832       747       920      3409      3600      3601
 -1      1716    8    0    1
 -2       750       833       921      3326      3602      3603
 -1      1717    8    0    1
 -2       750       921       918      3603      3604      3593
 -1      1718    8    0    1
 -2       736       834       917      3339      3605      3591
 -1      1719    8    0    1
 -2       828       852       922      3410      3606      3607
 -1      1720    8    0    1
 -2       739       767       853      3416      3608      3399
 -1      1721    8    0    1
 -2       837       748       913      3335      3580      3609
 -1      1722    8    0    1
 -2       838       822       912      3340      3597      3610
 -1      1723    8    0    1
 -2       817       911       923      3574      3611      3612
 -1      1724    8    0    1
 -2       817       923       847      3612      3613      3378
 -1      1725    8    0    1
 -2       820       909       895      3567      3614      3615
 -1      1726    8    0    1
 -2       737       857       856      3415      3616      3413
 -1      1727    8    0    1
 -2       767       766       853      3125      3617      3608
 -1      1728    8    0    1
 -2       766       872       853      3459      3618      3617
 -1      1729    8    0    1
 -2       772       771       924      3139      3619      3620
 -1      1730    8    0    1
 -2       790       888       925      3506      3621      3622
 -1      1731    8    0    1
 -2       790       925       843      3622      3623      3361
 -1      1732    8    0    1
 -2       888       789       926      3505      3624      3625
 -1      1733    8    0    1
 -2       789       827       926      3305      3626      3624
 -1      1734    8    0    1
 -2       788       787       927      3188      3627      3628
 -1      1735    8    0    1
 -2       850       788       927      3390      3628      3629
 -1      1736    8    0    1
 -2       787       887       927      3503      3630      3627
 -1      1737    8    0    1
 -2       917       834       928      3605      3631      3632
 -1      1738    8    0    1
 -2       791       890       929      3510      3633      3634
 -1      1739    8    0    1
 -2       791       929       827      3634      3635      3306
 -1      1740    8    0    1
 -2       799       820       895      3526      3615      3523
 -1      1741    8    0    1
 -2       836       816       930      3334      3636      3637
 -1      1742    8    0    1
 -2       735       836       916      3333      3638      3588
 -1      1743    8    0    1
 -2       830       855       931      3407      3639      3640
 -1      1744    8    0    1
 -2       830       931       915      3640      3641      3586
 -1      1745    8    0    1
 -2       841       842       932      3358      3642      3643
 -1      1746    8    0    1
 -2       857       741       838      3414      3342      3644
 -1      1747    8    0    1
 -2       846       723       837      3373      3337      3645
 -1      1748    8    0    1
 -2       813       814       910      3268      3571      3646
 -1      1749    8    0    1
 -2       819       824       933      3294      3647      3648
 -1      1750    8    0    1
 -2       819       933       911      3648      3649      3573
 -1      1751    8    0    1
 -2       813       910       908      3646      3650      3562
 -1      1752    8    0    1
 -2       910       841       908      3572      3651      3650
 -1      1753    8    0    1
 -2       921       833       934      3602      3652      3653
 -1      1754    8    0    1
 -2       833       839       934      3348      3654      3652
 -1      1755    8    0    1
 -2       930       816       935      3636      3655      3656
 -1      1756    8    0    1
 -2       816       846       935      3372      3657      3655
 -1      1757    8    0    1
 -2       848       832       936      3380      3658      3659
 -1      1758    8    0    1
 -2       832       920       936      3601      3660      3658
 -1      1759    8    0    1
 -2       825       912       749      3577      3596      3374
 -1      1760    8    0    1
 -2       849       835       937      3385      3661      3662
 -1      1761    8    0    1
 -2       835       917       937      3592      3663      3661
 -1      1762    8    0    1
 -2       920       747       915      3600      3587      3664
 -1      1763    8    0    1
 -2       815       823       924      3291      3665      3666
 -1      1764    8    0    1
 -2       928       834       938      3631      3667      3668
 -1      1765    8    0    1
 -2       834       856       938      3412      3669      3667
 -1      1766    8    0    1
 -2       823       849       873      3384      3670      3671
 -1      1767    8    0    1
 -2       828       922       939      3607      3672      3673
 -1      1768    8    0    1
 -2       828       939       845      3673      3674      3368
 -1      1769    8    0    1
 -2       844       854       940      3405      3675      3676
 -1      1770    8    0    1
 -2       852       843       941      3398      3677      3678
 -1      1771    8    0    1
 -2       843       925       941      3623      3679      3677
 -1      1772    8    0    1
 -2       829       734       839      3313      3680      3565
 -1      1773    8    0    1
 -2       844       940       934      3676      3681      3682
 -1      1774    8    0    1
 -2       742       919       855      3599      3683      3408
 -1      1775    8    0    1
 -2       831       853       919      3401      3684      3598
 -1      1776    8    0    1
 -2       841       932       908      3643      3685      3651
 -1      1777    8    0    1
 -2       922       852       941      3606      3678      3686
 -1      1778    8    0    1
 -2       818       850       927      3389      3629      3687
 -1      1779    8    0    1
 -2       734       844       839      3366      3688      3680
 -1      1780    8    0    1
 -2       823       873       924      3671      3689      3665
 -1      1781    8    0    1
 -2       844       934       839      3682      3654      3688
 -1      1782    8    0    1
 -2       818       927       942      3687      3690      3691
 -1      1783    8    0    1
 -2       824       818       942      3295      3691      3692
 -1      1784    8    0    1
 -2       927       887       942      3630      3693      3690
 -1      1785    8    0    1
 -2       895       909       943      3614      3694      3695
 -1      1786    8    0    1
 -2       895       943       894      3695      3696      3525
 -1      1787    8    0    1
 -2       856       857       944      3616      3697      3698
 -1      1788    8    0    1
 -2       917       928       945      3632      3699      3700
 -1      1789    8    0    1
 -2       860       859       946      3424      3701      3702
 -1      1790    8    0    1
 -2       861       860       947      3427      3703      3704
 -1      1791    8    0    1
 -2       860       946       947      3702      3705      3703
 -1      1792    8    0    1
 -2       862       861       948      3430      3706      3707
 -1      1793    8    0    1
 -2       861       947       948      3704      3708      3706
 -1      1794    8    0    1
 -2       863       862       949      3433      3709      3710
 -1      1795    8    0    1
 -2       862       948       949      3707      3711      3709
 -1      1796    8    0    1
 -2       864       863       950      3436      3712      3713
 -1      1797    8    0    1
 -2       863       949       950      3710      3714      3712
 -1      1798    8    0    1
 -2       865       864       951      3439      3715      3716
 -1      1799    8    0    1
 -2       864       950       951      3713      3717      3715
 -1      1800    8    0    1
 -2       866       865       952      3442      3718      3719
 -1      1801    8    0    1
 -2       865       951       952      3716      3720      3718
 -1      1802    8    0    1
 -2       867       866       953      3445      3721      3722
 -1      1803    8    0    1
 -2       866       952       953      3719      3723      3721
 -1      1804    8    0    1
 -2       868       867       954      3448      3724      3725
 -1      1805    8    0    1
 -2       867       953       954      3722      3726      3724
 -1      1806    8    0    1
 -2       869       868       955      3451      3727      3728
 -1      1807    8    0    1
 -2       868       954       955      3725      3729      3727
 -1      1808    8    0    1
 -2       870       869       956      3454      3730      3731
 -1      1809    8    0    1
 -2       869       955       956      3728      3732      3730
 -1      1810    8    0    1
 -2       871       870       957      3457      3733      3734
 -1      1811    8    0    1
 -2       870       956       957      3731      3735      3733
 -1      1812    8    0    1
 -2       873       772       924      3461      3620      3689
 -1      1813    8    0    1
 -2       924       771       815      3619      3736      3666
 -1      1814    8    0    1
 -2       771       770       815      3136      3737      3736
 -1      1815    8    0    1
 -2       875       874       958      3468      3738      3739
 -1      1816    8    0    1
 -2       876       875       959      3471      3740      3741
 -1      1817    8    0    1
 -2       875       958       959      3739      3742      3740
 -1      1818    8    0    1
 -2       877       876       960      3474      3743      3744
 -1      1819    8    0    1
 -2       876       959       960      3741      3745      3743
 -1      1820    8    0    1
 -2       878       877       961      3477      3746      3747
 -1      1821    8    0    1
 -2       877       960       961      3744      3748      3746
 -1      1822    8    0    1
 -2       879       878       962      3480      3749      3750
 -1      1823    8    0    1
 -2       878       961       962      3747      3751      3749
 -1      1824    8    0    1
 -2       880       879       963      3483      3752      3753
 -1      1825    8    0    1
 -2       879       962       963      3750      3754      3752
 -1      1826    8    0    1
 -2       881       880       964      3486      3755      3756
 -1      1827    8    0    1
 -2       880       963       964      3753      3757      3755
 -1      1828    8    0    1
 -2       882       881       965      3489      3758      3759
 -1      1829    8    0    1
 -2       881       964       965      3756      3760      3758
 -1      1830    8    0    1
 -2       883       882       966      3492      3761      3762
 -1      1831    8    0    1
 -2       882       965       966      3759      3763      3761
 -1      1832    8    0    1
 -2       884       883       967      3495      3764      3765
 -1      1833    8    0    1
 -2       883       966       967      3762      3766      3764
 -1      1834    8    0    1
 -2       885       884       968      3498      3767      3768
 -1      1835    8    0    1
 -2       884       967       968      3765      3769      3767
 -1      1836    8    0    1
 -2       886       885       969      3501      3770      3771
 -1      1837    8    0    1
 -2       885       968       969      3768      3772      3770
 -1      1838    8    0    1
 -2       887       886       970      3504      3773      3774
 -1      1839    8    0    1
 -2       886       969       970      3771      3775      3773
 -1      1840    8    0    1
 -2       892       893       971      3519      3776      3777
 -1      1841    8    0    1
 -2       891       892       972      3516      3778      3779
 -1      1842    8    0    1
 -2       892       971       972      3777      3780      3778
 -1      1843    8    0    1
 -2       836       930       973      3637      3781      3782
 -1      1844    8    0    1
 -2       836       973       916      3782      3783      3638
 -1      1845    8    0    1
 -2       897       896       974      3531      3784      3785
 -1      1846    8    0    1
 -2       857       838       975      3644      3786      3787
 -1      1847    8    0    1
 -2       899       900       976      3540      3788      3789
 -1      1848    8    0    1
 -2       896       899       977      3537      3790      3791
 -1      1849    8    0    1
 -2       899       976       977      3789      3792      3790
 -1      1850    8    0    1
 -2       898       897       978      3534      3793      3794
 -1      1851    8    0    1
 -2       897       974       978      3785      3795      3793
 -1      1852    8    0    1
 -2       900       901       979      3543      3796      3797
 -1      1853    8    0    1
 -2       900       979       976      3797      3798      3788
 -1      1854    8    0    1
 -2       901       902       980      3546      3799      3800
 -1      1855    8    0    1
 -2       901       980       979      3800      3801      3796
 -1      1856    8    0    1
 -2       902       903       981      3549      3802      3803
 -1      1857    8    0    1
 -2       902       981       980      3803      3804      3799
 -1      1858    8    0    1
 -2       903       904       982      3552      3805      3806
 -1      1859    8    0    1
 -2       903       982       981      3806      3807      3802
 -1      1860    8    0    1
 -2       904       905       983      3555      3808      3809
 -1      1861    8    0    1
 -2       904       983       982      3809      3810      3805
 -1      1862    8    0    1
 -2       905       906       984      3558      3811      3812
 -1      1863    8    0    1
 -2       905       984       983      3812      3813      3808
 -1      1864    8    0    1
 -2       906       907       985      3561      3814      3815
 -1      1865    8    0    1
 -2       906       985       984      3815      3816      3811
 -1      1866    8    0    1
 -2       907       908       932      3564      3685      3817
 -1      1867    8    0    1
 -2       922       941       986      3686      3818      3819
 -1      1868    8    0    1
 -2       921       934       987      3653      3820      3821
 -1      1869    8    0    1
 -2       934       940       987      3681      3822      3820
 -1      1870    8    0    1
 -2       909       848       943      3568      3823      3694
 -1      1871    8    0    1
 -2       770       731       826      3575      3302      3824
 -1      1872    8    0    1
 -2       851       845       988      3394      3825      3826
 -1      1873    8    0    1
 -2       913       851       988      3581      3826      3827
 -1      1874    8    0    1
 -2       845       939       988      3674      3828      3825
 -1      1875    8    0    1
 -2       854       916       989      3590      3829      3830
 -1      1876    8    0    1
 -2       854       989       940      3830      3831      3675
 -1      1877    8    0    1
 -2       907       932       985      3817      3832      3814
 -1      1878    8    0    1
 -2       873       849       874      3670      3833      3465
 -1      1879    8    0    1
 -2       842       847       990      3377      3834      3835
 -1      1880    8    0    1
 -2       932       842       990      3642      3835      3836
 -1      1881    8    0    1
 -2       847       923       990      3613      3837      3834
 -1      1882    8    0    1
 -2       837       913       991      3609      3838      3839
 -1      1883    8    0    1
 -2       858       918       992      3595      3840      3841
 -1      1884    8    0    1
 -2       855       919       993      3683      3842      3843
 -1      1885    8    0    1
 -2       855       993       931      3843      3844      3639
 -1      1886    8    0    1
 -2       838       912       975      3610      3845      3786
 -1      1887    8    0    1
 -2       920       915       994      3664      3846      3847
 -1      1888    8    0    1
 -2       919       853       872      3684      3618      3848
 -1      1889    8    0    1
 -2       846       837       991      3645      3839      3849
 -1      1890    8    0    1
 -2       893       894       995      3522      3850      3851
 -1      1891    8    0    1
 -2       971       893       995      3776      3851      3852
 -1      1892    8    0    1
 -2       894       943       995      3696      3853      3850
 -1      1893    8    0    1
 -2       890       889       996      3511      3854      3855
 -1      1894    8    0    1
 -2       918       921       997      3604      3856      3857
 -1      1895    8    0    1
 -2       992       918       997      3840      3857      3858
 -1      1896    8    0    1
 -2       921       987       997      3821      3859      3856
 -1      1897    8    0    1
 -2       859       858       998      3421      3860      3861
 -1      1898    8    0    1
 -2       858       992       998      3841      3862      3860
 -1      1899    8    0    1
 -2       919       872       993      3848      3863      3842
 -1      1900    8    0    1
 -2       923       911       999      3611      3864      3865
 -1      1901    8    0    1
 -2       944       857      1000      3697      3866      3867
 -1      1902    8    0    1
 -2       857       975      1000      3787      3868      3866
 -1      1903    8    0    1
 -2       917       945       937      3700      3869      3663
 -1      1904    8    0    1
 -2       871       957       993      3734      3870      3871
 -1      1905    8    0    1
 -2       872       871       993      3460      3871      3863
 -1      1906    8    0    1
 -2       920       994      1001      3847      3872      3873
 -1      1907    8    0    1
 -2       925       888      1002      3621      3874      3875
 -1      1908    8    0    1
 -2       889       914      1003      3584      3876      3877
 -1      1909    8    0    1
 -2       889      1003       996      3877      3878      3854
 -1      1910    8    0    1
 -2       887       970       942      3774      3879      3693
 -1      1911    8    0    1
 -2       926       827       929      3626      3635      3880
 -1      1912    8    0    1
 -2       916       973       989      3783      3881      3829
 -1      1913    8    0    1
 -2       890       996      1004      3855      3882      3883
 -1      1914    8    0    1
 -2       890      1004       929      3883      3884      3633
 -1      1915    8    0    1
 -2       888       926      1005      3625      3885      3886
 -1      1916    8    0    1
 -2       888      1005      1002      3886      3887      3874
 -1      1917    8    0    1
 -2       973       930      1006      3781      3888      3889
 -1      1918    8    0    1
 -2       856       944       938      3698      3890      3669
 -1      1919    8    0    1
 -2       974       896       977      3784      3791      3891
 -1      1920    8    0    1
 -2       975       912       898      3845      3578      3892
 -1      1921    8    0    1
 -2       991       913       988      3838      3827      3893
 -1      1922    8    0    1
 -2       898       978       975      3794      3894      3892
 -1      1923    8    0    1
 -2       874       849       937      3833      3662      3895
 -1      1924    8    0    1
 -2       987       940       989      3822      3831      3896
 -1      1925    8    0    1
 -2       946       859       998      3701      3861      3897
 -1      1926    8    0    1
 -2       933       824       942      3647      3692      3898
 -1      1927    8    0    1
 -2       935       846       991      3657      3849      3899
 -1      1928    8    0    1
 -2       936       920      1001      3660      3873      3900
 -1      1929    8    0    1
 -2       939       922      1007      3672      3901      3902
 -1      1930    8    0    1
 -2       922       986      1007      3819      3903      3901
 -1      1931    8    0    1
 -2       914       891      1008      3585      3904      3905
 -1      1932    8    0    1
 -2       914      1008      1003      3905      3906      3876
 -1      1933    8    0    1
 -2       848       936       943      3659      3907      3823
 -1      1934    8    0    1
 -2       928       938      1009      3668      3908      3909
 -1      1935    8    0    1
 -2       985       932      1010      3832      3910      3911
 -1      1936    8    0    1
 -2       932       990      1010      3836      3912      3910
 -1      1937    8    0    1
 -2       945       928      1009      3699      3909      3913
 -1      1938    8    0    1
 -2       994       915      1011      3846      3914      3915
 -1      1939    8    0    1
 -2       999       911      1012      3864      3916      3917
 -1      1940    8    0    1
 -2       911       933      1012      3649      3918      3916
 -1      1941    8    0    1
 -2       941       925      1013      3679      3919      3920
 -1      1942    8    0    1
 -2       986       941      1013      3818      3920      3921
 -1      1943    8    0    1
 -2       925      1002      1013      3875      3922      3919
 -1      1944    8    0    1
 -2       930       935      1014      3656      3923      3924
 -1      1945    8    0    1
 -2       930      1014      1006      3924      3925      3888
 -1      1946    8    0    1
 -2      1008       891       972      3904      3779      3926
 -1      1947    8    0    1
 -2      1011       915       931      3914      3641      3927
 -1      1948    8    0    1
 -2       993       957       931      3870      3928      3844
 -1      1949    8    0    1
 -2       979       980      1015      3801      3929      3930
 -1      1950    8    0    1
 -2       943       936      1016      3907      3931      3932
 -1      1951    8    0    1
 -2       995       943      1016      3853      3932      3933
 -1      1952    8    0    1
 -2       936      1001      1016      3900      3934      3931
 -1      1953    8    0    1
 -2       948       947      1017      3708      3935      3936
 -1      1954    8    0    1
 -2       949       948      1018      3711      3937      3938
 -1      1955    8    0    1
 -2       948      1017      1018      3936      3939      3937
 -1      1956    8    0    1
 -2       950       949      1019      3714      3940      3941
 -1      1957    8    0    1
 -2       949      1018      1019      3938      3942      3940
 -1      1958    8    0    1
 -2       951       950      1020      3717      3943      3944
 -1      1959    8    0    1
 -2       950      1019      1020      3941      3945      3943
 -1      1960    8    0    1
 -2       952       951      1021      3720      3946      3947
 -1      1961    8    0    1
 -2       951      1020      1021      3944      3948      3946
 -1      1962    8    0    1
 -2       953       952      1022      3723      3949      3950
 -1      1963    8    0    1
 -2       952      1021      1022      3947      3951      3949
 -1      1964    8    0    1
 -2       954       953      1023      3726      3952      3953
 -1      1965    8    0    1
 -2       953      1022      1023      3950      3954      3952
 -1      1966    8    0    1
 -2       955       954      1024      3729      3955      3956
 -1      1967    8    0    1
 -2       954      1023      1024      3953      3957      3955
 -1      1968    8    0    1
 -2       957       956      1011      3735      3958      3959
 -1      1969    8    0    1
 -2       977       976      1025      3792      3960      3961
 -1      1970    8    0    1
 -2       973      1006      1026      3889      3962      3963
 -1      1971    8    0    1
 -2       973      1026       989      3963      3964      3881
 -1      1972    8    0    1
 -2       958       874       937      3738      3895      3965
 -1      1973    8    0    1
 -2       960       959      1027      3745      3966      3967
 -1      1974    8    0    1
 -2       961       960      1028      3748      3968      3969
 -1      1975    8    0    1
 -2       960      1027      1028      3967      3970      3968
 -1      1976    8    0    1
 -2       962       961      1029      3751      3971      3972
 -1      1977    8    0    1
 -2       961      1028      1029      3969      3973      3971
 -1      1978    8    0    1
 -2       963       962      1030      3754      3974      3975
 -1      1979    8    0    1
 -2       962      1029      1030      3972      3976      3974
 -1      1980    8    0    1
 -2       964       963      1031      3757      3977      3978
 -1      1981    8    0    1
 -2       963      1030      1031      3975      3979      3977
 -1      1982    8    0    1
 -2       965       964      1032      3760      3980      3981
 -1      1983    8    0    1
 -2       964      1031      1032      3978      3982      3980
 -1      1984    8    0    1
 -2       966       965      1033      3763      3983      3984
 -1      1985    8    0    1
 -2       965      1032      1033      3981      3985      3983
 -1      1986    8    0    1
 -2       967       966      1034      3766      3986      3987
 -1      1987    8    0    1
 -2       966      1033      1034      3984      3988      3986
 -1      1988    8    0    1
 -2       968       967      1035      3769      3989      3990
 -1      1989    8    0    1
 -2       967      1034      1035      3987      3991      3989
 -1      1990    8    0    1
 -2       969       968      1036      3772      3992      3993
 -1      1991    8    0    1
 -2       968      1035      1036      3990      3994      3992
 -1      1992    8    0    1
 -2       970       969      1037      3775      3995      3996
 -1      1993    8    0    1
 -2       969      1036      1037      3993      3997      3995
 -1      1994    8    0    1
 -2       942       970       933      3879      3998      3898
 -1      1995    8    0    1
 -2       958       937       945      3965      3869      3999
 -1      1996    8    0    1
 -2      1008       972      1038      3926      4000      4001
 -1      1997    8    0    1
 -2      1011       931       957      3927      3928      3959
 -1      1998    8    0    1
 -2       938       944      1039      3890      4002      4003
 -1      1999    8    0    1
 -2       976       979      1040      3798      4004      4005
 -1      2000    8    0    1
 -2      1025       976      1040      3960      4005      4006
 -1      2001    8    0    1
 -2       979      1015      1040      3930      4007      4004
 -1      2002    8    0    1
 -2       978       974      1041      3795      4008      4009
 -1      2003    8    0    1
 -2       980       981      1042      3804      4010      4011
 -1      2004    8    0    1
 -2       980      1042      1015      4011      4012      3929
 -1      2005    8    0    1
 -2       981       982      1043      3807      4013      4014
 -1      2006    8    0    1
 -2       981      1043      1042      4014      4015      4010
 -1      2007    8    0    1
 -2       982       983      1044      3810      4016      4017
 -1      2008    8    0    1
 -2       982      1044      1043      4017      4018      4013
 -1      2009    8    0    1
 -2       983       984      1045      3813      4019      4020
 -1      2010    8    0    1
 -2       983      1045      1044      4020      4021      4016
 -1      2011    8    0    1
 -2       984       985      1046      3816      4022      4023
 -1      2012    8    0    1
 -2      1045       984      1046      4019      4023      4024
 -1      2013    8    0    1
 -2       985      1010      1046      3911      4025      4022
 -1      2014    8    0    1
 -2       958       945       959      3999      4026      3742
 -1      2015    8    0    1
 -2       926       929      1047      3880      4027      4028
 -1      2016    8    0    1
 -2      1005       926      1047      3885      4028      4029
 -1      2017    8    0    1
 -2       929      1004      1047      3884      4030      4027
 -1      2018    8    0    1
 -2       988       939      1048      3828      4031      4032
 -1      2019    8    0    1
 -2       991       988      1048      3893      4032      4033
 -1      2020    8    0    1
 -2       939      1007      1048      3902      4034      4031
 -1      2021    8    0    1
 -2       974       977      1049      3891      4035      4036
 -1      2022    8    0    1
 -2       974      1049      1041      4036      4037      4008
 -1      2023    8    0    1
 -2       947       946      1050      3705      4038      4039
 -1      2024    8    0    1
 -2       947      1050      1017      4039      4040      3935
 -1      2025    8    0    1
 -2      1009       938      1039      3908      4003      4041
 -1      2026    8    0    1
 -2       959       945      1027      4026      4042      3966
 -1      2027    8    0    1
 -2       770       826       815      3824      3386      3737
 -1      2028    8    0    1
 -2       990       923      1051      3837      4043      4044
 -1      2029    8    0    1
 -2      1010       990      1051      3912      4044      4045
 -1      2030    8    0    1
 -2       923       999      1051      3865      4046      4043
 -1      2031    8    0    1
 -2       998       992      1052      3862      4047      4048
 -1      2032    8    0    1
 -2       975       978      1000      3894      4049      3868
 -1      2033    8    0    1
 -2       935       991      1053      3899      4050      4051
 -1      2034    8    0    1
 -2      1014       935      1053      3923      4051      4052
 -1      2035    8    0    1
 -2       991      1048      1053      4033      4053      4050
 -1      2036    8    0    1
 -2       946       998      1054      3897      4054      4055
 -1      2037    8    0    1
 -2       946      1054      1050      4055      4056      4038
 -1      2038    8    0    1
 -2       994      1011      1055      3915      4057      4058
 -1      2039    8    0    1
 -2      1001       994      1056      3872      4059      4060
 -1      2040    8    0    1
 -2       994      1055      1056      4058      4061      4059
 -1      2041    8    0    1
 -2       987       989      1026      3896      3964      4062
 -1      2042    8    0    1
 -2       972       971      1057      3780      4063      4064
 -1      2043    8    0    1
 -2       972      1057      1038      4064      4065      4000
 -1      2044    8    0    1
 -2       945      1009      1027      3913      4066      4042
 -1      2045    8    0    1
 -2      1011       956      1055      3958      4067      4057
 -1      2046    8    0    1
 -2       944      1000      1058      3867      4068      4069
 -1      2047    8    0    1
 -2       944      1058      1039      4069      4070      4002
 -1      2048    8    0    1
 -2       971       995      1059      3852      4071      4072
 -1      2049    8    0    1
 -2      1057       971      1059      4063      4072      4073
 -1      2050    8    0    1
 -2       995      1016      1059      3933      4074      4071
 -1      2051    8    0    1
 -2       955      1024      1055      3956      4075      4076
 -1      2052    8    0    1
 -2       956       955      1055      3732      4076      4067
 -1      2053    8    0    1
 -2       977      1025      1049      3961      4077      4035
 -1      2054    8    0    1
 -2      1006      1014      1060      3925      4078      4079
 -1      2055    8    0    1
 -2       996      1003      1061      3878      4080      4081
 -1      2056    8    0    1
 -2      1004       996      1062      3882      4082      4083
 -1      2057    8    0    1
 -2       996      1061      1062      4081      4084      4082
 -1      2058    8    0    1
 -2       933       970      1012      3998      4085      3918
 -1      2059    8    0    1
 -2      1002      1005      1063      3887      4086      4087
 -1      2060    8    0    1
 -2      1027      1009      1064      4066      4088      4089
 -1      2061    8    0    1
 -2      1028      1027      1064      3970      4089      4090
 -1      2062    8    0    1
 -2      1009      1039      1064      4041      4091      4088
 -1      2063    8    0    1
 -2       970      1037      1012      3996      4092      4085
 -1      2064    8    0    1
 -2       998      1052      1054      4048      4093      4054
 -1      2065    8    0    1
 -2      1007       986      1065      3903      4094      4095
 -1      2066    8    0    1
 -2      1006      1060      1066      4079      4096      4097
 -1      2067    8    0    1
 -2      1006      1066      1026      4097      4098      3962
 -1      2068    8    0    1
 -2       987      1026       997      4062      4099      3859
 -1      2069    8    0    1
 -2      1052       992      1067      4047      4100      4101
 -1      2070    8    0    1
 -2       992       997      1067      3858      4102      4100
 -1      2071    8    0    1
 -2      1000       978      1041      4049      4009      4103
 -1      2072    8    0    1
 -2      1002      1063      1068      4087      4104      4105
 -1      2073    8    0    1
 -2      1002      1068      1013      4105      4106      3922
 -1      2074    8    0    1
 -2      1016      1001      1069      3934      4107      4108
 -1      2075    8    0    1
 -2      1059      1016      1069      4074      4108      4109
 -1      2076    8    0    1
 -2      1001      1056      1069      4060      4110      4107
 -1      2077    8    0    1
 -2       999      1012      1070      3917      4111      4112
 -1      2078    8    0    1
 -2      1012      1037      1070      4092      4113      4111
 -1      2079    8    0    1
 -2      1003      1008      1071      3906      4114      4115
 -1      2080    8    0    1
 -2      1003      1071      1061      4115      4116      4080
 -1      2081    8    0    1
 -2      1051       999      1072      4046      4117      4118
 -1      2082    8    0    1
 -2       999      1070      1072      4112      4119      4117
 -1      2083    8    0    1
 -2       986      1013      1073      3921      4120      4121
 -1      2084    8    0    1
 -2      1013      1068      1073      4106      4122      4120
 -1      2085    8    0    1
 -2      1065       986      1073      4094      4121      4123
 -1      2086    8    0    1
 -2      1071      1008      1038      4114      4001      4124
 -1      2087    8    0    1
 -2      1070      1037      1036      4113      3997      4125
 -1      2088    8    0    1
 -2      1042      1043      1074      4015      4126      4127
 -1      2089    8    0    1
 -2      1018      1017      1075      3939      4128      4129
 -1      2090    8    0    1
 -2      1019      1018      1076      3942      4130      4131
 -1      2091    8    0    1
 -2      1018      1075      1076      4129      4132      4130
 -1      2092    8    0    1
 -2      1020      1019      1077      3945      4133      4134
 -1      2093    8    0    1
 -2      1019      1076      1077      4131      4135      4133
 -1      2094    8    0    1
 -2      1021      1020      1078      3948      4136      4137
 -1      2095    8    0    1
 -2      1020      1077      1078      4134      4138      4136
 -1      2096    8    0    1
 -2      1022      1021      1079      3951      4139      4140
 -1      2097    8    0    1
 -2      1021      1078      1079      4137      4141      4139
 -1      2098    8    0    1
 -2      1023      1022      1080      3954      4142      4143
 -1      2099    8    0    1
 -2      1022      1079      1080      4140      4144      4142
 -1      2100    8    0    1
 -2      1024      1023      1081      3957      4145      4146
 -1      2101    8    0    1
 -2      1023      1080      1081      4143      4147      4145
 -1      2102    8    0    1
 -2      1038      1057      1082      4065      4148      4149
 -1      2103    8    0    1
 -2      1054      1052      1083      4093      4150      4151
 -1      2104    8    0    1
 -2      1063      1005      1084      4086      4152      4153
 -1      2105    8    0    1
 -2      1005      1047      1084      4029      4154      4152
 -1      2106    8    0    1
 -2      1029      1028      1085      3973      4155      4156
 -1      2107    8    0    1
 -2      1028      1064      1085      4090      4157      4155
 -1      2108    8    0    1
 -2      1030      1029      1086      3976      4158      4159
 -1      2109    8    0    1
 -2      1029      1085      1086      4156      4160      4158
 -1      2110    8    0    1
 -2      1031      1030      1087      3979      4161      4162
 -1      2111    8    0    1
 -2      1030      1086      1087      4159      4163      4161
 -1      2112    8    0    1
 -2      1032      1031      1088      3982      4164      4165
 -1      2113    8    0    1
 -2      1031      1087      1088      4162      4166      4164
 -1      2114    8    0    1
 -2      1033      1032      1089      3985      4167      4168
 -1      2115    8    0    1
 -2      1032      1088      1089      4165      4169      4167
 -1      2116    8    0    1
 -2      1034      1033      1090      3988      4170      4171
 -1      2117    8    0    1
 -2      1033      1089      1090      4168      4172      4170
 -1      2118    8    0    1
 -2      1035      1034      1091      3991      4173      4174
 -1      2119    8    0    1
 -2      1034      1090      1091      4171      4175      4173
 -1      2120    8    0    1
 -2      1036      1035      1092      3994      4176      4177
 -1      2121    8    0    1
 -2      1035      1091      1092      4174      4178      4176
 -1      2122    8    0    1
 -2      1048      1007      1093      4034      4179      4180
 -1      2123    8    0    1
 -2      1053      1048      1093      4053      4180      4181
 -1      2124    8    0    1
 -2      1007      1065      1093      4095      4182      4179
 -1      2125    8    0    1
 -2      1070      1036      1092      4125      4177      4183
 -1      2126    8    0    1
 -2      1043      1044      1094      4018      4184      4185
 -1      2127    8    0    1
 -2      1043      1094      1074      4185      4186      4126
 -1      2128    8    0    1
 -2      1015      1042      1095      4012      4187      4188
 -1      2129    8    0    1
 -2      1042      1074      1095      4127      4189      4187
 -1      2130    8    0    1
 -2      1044      1045      1096      4021      4190      4191
 -1      2131    8    0    1
 -2      1044      1096      1094      4191      4192      4184
 -1      2132    8    0    1
 -2      1017      1050      1097      4040      4193      4194
 -1      2133    8    0    1
 -2      1017      1097      1075      4194      4195      4128
 -1      2134    8    0    1
 -2      1050      1054      1098      4056      4196      4197
 -1      2135    8    0    1
 -2      1054      1083      1098      4151      4198      4196
 -1      2136    8    0    1
 -2      1056      1055      1081      4061      4199      4200
 -1      2137    8    0    1
 -2      1041      1049      1099      4037      4201      4202
 -1      2138    8    0    1
 -2      1071      1038      1100      4124      4203      4204
 -1      2139    8    0    1
 -2      1038      1082      1100      4149      4205      4203
 -1      2140    8    0    1
 -2      1065      1073      1101      4123      4206      4207
 -1      2141    8    0    1
 -2      1010      1051      1102      4045      4208      4209
 -1      2142    8    0    1
 -2      1046      1010      1102      4025      4209      4210
 -1      2143    8    0    1
 -2      1051      1072      1102      4118      4211      4208
 -1      2144    8    0    1
 -2      1055      1024      1081      4075      4146      4199
 -1      2145    8    0    1
 -2      1061      1071      1103      4116      4212      4213
 -1      2146    8    0    1
 -2      1071      1100      1103      4204      4214      4212
 -1      2147    8    0    1
 -2      1000      1041      1058      4103      4215      4068
 -1      2148    8    0    1
 -2       997      1026      1067      4099      4216      4102
 -1      2149    8    0    1
 -2      1049      1025      1104      4077      4217      4218
 -1      2150    8    0    1
 -2      1049      1104      1099      4218      4219      4201
 -1      2151    8    0    1
 -2      1015      1095      1105      4188      4220      4221
 -1      2152    8    0    1
 -2      1015      1105      1040      4221      4222      4007
 -1      2153    8    0    1
 -2      1065      1101      1106      4207      4223      4224
 -1      2154    8    0    1
 -2      1065      1106      1093      4224      4225      4182
 -1      2155    8    0    1
 -2      1067      1026      1066      4216      4098      4226
 -1      2156    8    0    1
 -2      1062      1061      1107      4084      4227      4228
 -1      2157    8    0    1
 -2      1061      1103      1107      4213      4229      4227
 -1      2158    8    0    1
 -2      1060      1014      1093      4078      4230      4231
 -1      2159    8    0    1
 -2      1056      1081      1082      4200      4232      4233
 -1      2160    8    0    1
 -2      1063      1084      1108      4153      4234      4235
 -1      2161    8    0    1
 -2      1004      1062      1109      4083      4236      4237
 -1      2162    8    0    1
 -2      1004      1109      1047      4237      4238      4030
 -1      2163    8    0    1
 -2      1064      1039      1110      4091      4239      4240
 -1      2164    8    0    1
 -2      1085      1064      1110      4157      4240      4241
 -1      2165    8    0    1
 -2      1039      1058      1110      4070      4242      4239
 -1      2166    8    0    1
 -2      1025      1040      1111      4006      4243      4244
 -1      2167    8    0    1
 -2      1040      1105      1111      4222      4245      4243
 -1      2168    8    0    1
 -2      1097      1050      1098      4193      4197      4246
 -1      2169    8    0    1
 -2      1045      1046      1112      4024      4247      4248
 -1      2170    8    0    1
 -2      1096      1045      1112      4190      4248      4249
 -1      2171    8    0    1
 -2      1046      1102      1112      4210      4250      4247
 -1      2172    8    0    1
 -2      1070      1092      1072      4183      4251      4119
 -1      2173    8    0    1
 -2      1060      1093      1106      4231      4225      4252
 -1      2174    8    0    1
 -2      1057      1059      1069      4073      4109      4253
 -1      2175    8    0    1
 -2      1068      1063      1113      4104      4254      4255
 -1      2176    8    0    1
 -2      1063      1108      1113      4235      4256      4254
 -1      2177    8    0    1
 -2      1041      1099      1058      4202      4257      4215
 -1      2178    8    0    1
 -2      1025      1111      1104      4244      4258      4217
 -1      2179    8    0    1
 -2      1069      1056      1082      4110      4233      4259
 -1      2180    8    0    1
 -2      1101      1073      1114      4206      4260      4261
 -1      2181    8    0    1
 -2      1073      1068      1114      4122      4262      4260
 -1      2182    8    0    1
 -2      1052      1067      1115      4101      4263      4264
 -1      2183    8    0    1
 -2      1083      1052      1115      4150      4264      4265
 -1      2184    8    0    1
 -2      1067      1066      1115      4226      4266      4263
 -1      2185    8    0    1
 -2      1060      1106      1116      4252      4267      4268
 -1      2186    8    0    1
 -2      1066      1060      1116      4096      4268      4269
 -1      2187    8    0    1
 -2      1106      1101      1116      4223      4270      4267
 -1      2188    8    0    1
 -2      1014      1053      1093      4052      4181      4230
 -1      2189    8    0    1
 -2      1057      1069      1082      4253      4259      4148
 -1      2190    8    0    1
 -2      1103      1100      1079      4214      4271      4272
 -1      2191    8    0    1
 -2      1082      1081      1080      4232      4147      4273
 -1      2192    8    0    1
 -2      1077      1076      1117      4135      4274      4275
 -1      2193    8    0    1
 -2      1078      1077      1107      4138      4276      4277
 -1      2194    8    0    1
 -2      1079      1078      1103      4141      4278      4272
 -1      2195    8    0    1
 -2      1080      1079      1100      4144      4271      4279
 -1      2196    8    0    1
 -2      1080      1100      1082      4279      4205      4273
 -1      2197    8    0    1
 -2      1058      1099      1110      4257      4280      4242
 -1      2198    8    0    1
 -2      1086      1085      1118      4160      4281      4282
 -1      2199    8    0    1
 -2      1085      1110      1118      4241      4283      4281
 -1      2200    8    0    1
 -2      1087      1086      1119      4163      4284      4285
 -1      2201    8    0    1
 -2      1086      1118      1119      4282      4286      4284
 -1      2202    8    0    1
 -2      1088      1087      1120      4166      4287      4288
 -1      2203    8    0    1
 -2      1087      1119      1120      4285      4289      4287
 -1      2204    8    0    1
 -2      1089      1088      1121      4169      4290      4291
 -1      2205    8    0    1
 -2      1088      1120      1121      4288      4292      4290
 -1      2206    8    0    1
 -2      1090      1089      1122      4172      4293      4294
 -1      2207    8    0    1
 -2      1089      1121      1122      4291      4295      4293
 -1      2208    8    0    1
 -2      1091      1090      1123      4175      4296      4297
 -1      2209    8    0    1
 -2      1090      1122      1123      4294      4298      4296
 -1      2210    8    0    1
 -2      1092      1091      1124      4178      4299      4300
 -1      2211    8    0    1
 -2      1091      1123      1124      4297      4301      4299
 -1      2212    8    0    1
 -2      1094      1096      1124      4192      4302      4303
 -1      2213    8    0    1
 -2      1074      1094      1123      4186      4304      4305
 -1      2214    8    0    1
 -2      1075      1097      1108      4195      4306      4307
 -1      2215    8    0    1
 -2      1095      1074      1122      4189      4308      4309
 -1      2216    8    0    1
 -2      1076      1075      1125      4132      4310      4311
 -1      2217    8    0    1
 -2      1117      1076      1125      4274      4311      4312
 -1      2218    8    0    1
 -2      1075      1108      1125      4307      4313      4310
 -1      2219    8    0    1
 -2      1098      1083      1114      4198      4314      4315
 -1      2220    8    0    1
 -2      1099      1104      1118      4219      4316      4317
 -1      2221    8    0    1
 -2      1097      1098      1113      4246      4318      4319
 -1      2222    8    0    1
 -2      1084      1047      1109      4154      4238      4320
 -1      2223    8    0    1
 -2      1104      1111      1119      4258      4321      4322
 -1      2224    8    0    1
 -2      1108      1084      1125      4234      4323      4313
 -1      2225    8    0    1
 -2      1103      1078      1107      4278      4277      4229
 -1      2226    8    0    1
 -2      1108      1097      1113      4306      4319      4256
 -1      2227    8    0    1
 -2      1110      1099      1118      4280      4317      4283
 -1      2228    8    0    1
 -2      1114      1083      1101      4314      4324      4261
 -1      2229    8    0    1
 -2      1077      1117      1107      4275      4325      4276
 -1      2230    8    0    1
 -2      1101      1083      1116      4324      4326      4270
 -1      2231    8    0    1
 -2      1104      1119      1118      4322      4286      4316
 -1      2232    8    0    1
 -2      1111      1105      1120      4245      4327      4328
 -1      2233    8    0    1
 -2      1074      1123      1122      4305      4298      4308
 -1      2234    8    0    1
 -2      1123      1094      1124      4304      4303      4301
 -1      2235    8    0    1
 -2      1095      1122      1121      4309      4295      4329
 -1      2236    8    0    1
 -2      1111      1120      1119      4328      4289      4321
 -1      2237    8    0    1
 -2      1062      1107      1117      4228      4325      4330
 -1      2238    8    0    1
 -2      1102      1072      1112      4211      4331      4250
 -1      2239    8    0    1
 -2      1084      1109      1125      4320      4332      4323
 -1      2240    8    0    1
 -2      1114      1068      1113      4262      4255      4333
 -1      2241    8    0    1
 -2      1062      1117      1109      4330      4334      4236
 -1      2242    8    0    1
 -2      1072      1092      1126      4251      4335      4336
 -1      2243    8    0    1
 -2      1105      1095      1121      4220      4329      4337
 -1      2244    8    0    1
 -2      1113      1098      1114      4318      4315      4333
 -1      2245    8    0    1
 -2      1112      1072      1126      4331      4336      4338
 -1      2246    8    0    1
 -2      1092      1124      1126      4300      4339      4335
 -1      2247    8    0    1
 -2      1120      1105      1121      4327      4337      4292
 -1      2248    8    0    1
 -2      1124      1096      1126      4302      4340      4339
 -1      2249    8    0    1
 -2      1066      1116      1115      4269      4341      4266
 -1      2250    8    0    1
 -2      1116      1083      1115      4326      4265      4341
 -1      2251    8    0    1
 -2      1117      1125      1109      4312      4332      4334
 -1      2252    8    0    1
 -2      1112      1126      1096      4338      4340      4249
 -3
    1PSTEP                         1           1           1          
  100CL  101 1.000000000        4341                     0    1           1
 -4  DISP        4    1
 -5  D1          1    2    1    0
 -5  D2          1    2    2    0
 -5  D3          1    2    3    0
 -5  ALL         1    2    0    0    1ALL
 -1         1 9.10015E-03-2.97178E-04-1.88672E-14
 -1         2 1.02038E-02 4.28175E-04-1.98106E-14
 -1         3 1.57452E-02 2.24222E-03-5.89788E-14
 -1         4 1.46696E-02 8.23782E-04-6.64487E-14
 -1         5 0.00000E+00 0.00000E+00 0.00000E+00
 -1         6 0.00000E+00 0.00000E+00 0.00000E+00
 -1         7 0.00000E+00 0.00000E+00 0.00000E+00
 -1         8 0.00000E+00 0.00000E+00 0.00000E+00
 -1         9 0.00000E+00 0.00000E+00 0.00000E+00
 -1        10 0.00000E+00 0.00000E+00 0.00000E+00
 -1        11 0.00000E+00 0.00000E+00 0.00000E+00
 -1        12 0.00000E+00 0.00000E+00 0.00000E+00
 -1        13 0.00000E+00 0.00000E+00 0.00000E+00
 -1        14 0.00000E+00 0.00000E+00 0.00000E+00
 -1        15 0.00000E+00 0.00000E+00 0.00000E+00
 -1        16 0.00000E+00 0.00000E+00 0.00000E+00
 -1        17 0.00000E+00 0.00000E+00 0.00000E+00
 -1        18 0.00000E+00 0.00000E+00 0.00000E+00
 -1        19 0.00000E+00 0.00000E+00 0.00000E+00
 -1        20 0.00000E+00 0.00000E+00 0.00000E+00
 -1        21 0.00000E+00 0.00000E+00 0.00000E+00
 -1        22 0.00000E+00 0.00000E+00 0.00000E+00
 -1        23 4.10222E-04-2.59820E-04 1.10792E-18
 -1        24 7.01421E-04-3.99011E-04-7.01106E-17
 -1        25 9.70880E-04-4.95021E-04-2.08689E-16
 -1        26 1.23493E-03-5.62034E-04-4.13057E-16
 -1        27 1.49825E-03-6.09132E-04-6.78714E-16
 -1        28 1.76304E-03-6.41631E-04-1.00443E-15
 -1        29 2.03040E-03-6.63183E-04-1.38918E-15
 -1        30 2.30093E-03-6.76445E-04-1.83039E-15
 -1        31 2.57498E-03-6.83444E-04-2.32915E-15
 -1        32 2.85279E-03-6.85782E-04-2.88520E-15
 -1        33 3.13462E-03-6.84793E-04-3.49253E-15
 -1        34 3.42076E-03-6.81679E-04-4.14390E-15
 -1        35 3.71158E-03-6.77621E-04-4.84422E-15
 -1        36 4.00751E-03-6.73899E-04-5.59036E-15
 -1        37 4.30897E-03-6.71990E-04-6.38355E-15
 -1        38 4.61622E-03-6.73632E-04-7.22489E-15
 -1        39 4.92920E-03-6.80825E-04-8.11259E-15
 -1        40 5.24722E-03-6.95710E-04-9.04874E-15
 -1        41 5.56865E-03-7.20244E-04-1.00376E-14
 -1        42 5.89064E-03-7.55609E-04-1.10831E-14
 -1        43 6.20902E-03-8.01327E-04-1.21879E-14
 -1        44 6.51874E-03-8.54246E-04-1.33540E-14
 -1        45 6.81491E-03-9.07777E-04-1.45872E-14
 -1        46 7.09454E-03-9.52065E-04-1.58914E-14
 -1        47 7.35829E-03-9.75677E-04-1.72633E-14
 -1        48 7.61132E-03-9.68731E-04-1.86926E-14
 -1        49 7.86223E-03-9.26310E-04-2.01803E-14
 -1        50 8.12035E-03-8.50350E-04-2.17305E-14
 -1        51 8.39262E-03-7.48878E-04-2.33521E-14
 -1        52 8.68171E-03-6.33057E-04-2.50411E-14
 -1        53 8.98611E-03-5.13732E-04-2.67836E-14
 -1        54 9.30158E-03-3.99031E-04-2.85650E-14
 -1        55 9.62301E-03-2.93579E-04-3.03827E-14
 -1        56 9.94582E-03-1.98927E-04-3.22398E-14
 -1        57 1.02667E-02-1.14535E-04-3.41362E-14
 -1        58 1.05835E-02-3.87513E-05-3.60575E-14
 -1        59 1.08955E-02 3.04482E-05-3.80100E-14
 -1        60 1.12024E-02 9.50143E-05-3.99805E-14
 -1        61 1.15045E-02 1.56603E-04-4.19859E-14
 -1        62 1.18026E-02 2.16507E-04-4.40404E-14
 -1        63 1.20973E-02 2.75671E-04-4.61430E-14
 -1        64 1.23893E-02 3.34740E-04-4.83045E-14
 -1        65 1.26792E-02 3.94128E-04-5.05218E-14
 -1        66 1.29675E-02 4.54074E-04-5.27807E-14
 -1        67 1.32547E-02 5.14697E-04-5.50611E-14
 -1        68 1.35410E-02 5.76028E-04-5.73581E-14
 -1        69 1.38269E-02 6.38042E-04-5.96555E-14
 -1        70 1.41126E-02 7.00657E-04-6.19468E-14
 -1        71 1.43982E-02 7.63715E-04-6.42482E-14
 -1        72 4.12637E-04 2.60520E-04 4.40355E-17
 -1        73 7.01195E-04 4.01704E-04 5.16317E-17
 -1        74 9.71329E-04 4.96765E-04 1.90074E-17
 -1        75 1.23562E-03 5.63680E-04-5.69308E-17
 -1        76 1.49901E-03 6.10752E-04-1.80831E-16
 -1        77 1.76378E-03 6.43212E-04-3.54182E-16
 -1        78 2.03109E-03 6.64655E-04-5.77036E-16
 -1        79 2.30155E-03 6.77683E-04-8.48283E-16
 -1        80 2.57556E-03 6.84247E-04-1.16701E-15
 -1        81 2.85344E-03 6.85849E-04-1.53821E-15
 -1        82 3.13558E-03 6.83701E-04-1.95961E-15
 -1        83 3.42253E-03 6.78852E-04-2.42851E-15
 -1        84 3.71510E-03 6.72338E-04-2.94080E-15
 -1        85 4.01441E-03 6.65342E-04-3.50375E-15
 -1        86 4.32200E-03 6.59405E-04-4.11959E-15
 -1        87 4.63983E-03 6.56708E-04-4.78155E-15
 -1        88 4.97020E-03 6.60423E-04-5.48715E-15
 -1        89 5.31556E-03 6.75131E-04-6.23561E-15
 -1        90 5.67780E-03 7.07185E-04-7.02718E-15
 -1        91 6.05709E-03 7.64707E-04-7.86505E-15
 -1        92 6.44984E-03 8.56491E-04-8.75311E-15
 -1        93 6.84634E-03 9.88688E-04-9.68322E-15
 -1        94 7.22975E-03 1.15843E-03-1.06670E-14
 -1        95 7.57980E-03 1.34599E-03-1.17054E-14
 -1        96 7.88361E-03 1.51237E-03-1.28098E-14
 -1        97 8.14877E-03 1.61168E-03-1.39780E-14
 -1        98 8.40543E-03 1.61706E-03-1.52231E-14
 -1        99 8.68938E-03 1.53949E-03-1.65514E-14
 -1       100 9.01943E-03 1.41975E-03-1.79709E-14
 -1       101 9.39058E-03 1.30240E-03-1.94823E-14
 -1       102 9.78404E-03 1.21618E-03-2.10639E-14
 -1       103 1.01805E-02 1.17066E-03-2.27010E-14
 -1       104 1.05671E-02 1.16275E-03-2.43928E-14
 -1       105 1.09378E-02 1.18424E-03-2.61428E-14
 -1       106 1.12916E-02 1.22649E-03-2.79586E-14
 -1       107 1.16298E-02 1.28232E-03-2.98296E-14
 -1       108 1.19550E-02 1.34650E-03-3.17437E-14
 -1       109 1.22698E-02 1.41539E-03-3.37106E-14
 -1       110 1.25764E-02 1.48664E-03-3.57142E-14
 -1       111 1.28768E-02 1.55875E-03-3.77382E-14
 -1       112 1.31727E-02 1.63082E-03-3.98102E-14
 -1       113 1.34651E-02 1.70234E-03-4.19022E-14
 -1       114 1.37552E-02 1.77305E-03-4.40103E-14
 -1       115 1.40435E-02 1.84285E-03-4.61294E-14
 -1       116 1.43306E-02 1.91172E-03-4.82454E-14
 -1       117 1.46169E-02 1.97972E-03-5.03841E-14
 -1       118 1.49027E-02 2.04694E-03-5.25331E-14
 -1       119 1.51883E-02 2.11350E-03-5.46969E-14
 -1       120 1.54739E-02 2.17959E-03-5.68854E-14
 -1       121 1.56804E-02 2.15789E-03-5.94045E-14
 -1       122 1.56157E-02 2.07348E-03-5.98326E-14
 -1       123 1.55515E-02 1.98912E-03-6.02421E-14
 -1       124 1.54877E-02 1.90499E-03-6.06525E-14
 -1       125 1.54243E-02 1.82122E-03-6.10849E-14
 -1       126 1.53621E-02 1.73927E-03-6.15390E-14
 -1       127 1.52990E-02 1.65628E-03-6.19867E-14
 -1       128 1.52357E-02 1.57353E-03-6.24352E-14
 -1       129 1.51723E-02 1.49088E-03-6.29032E-14
 -1       130 1.51087E-02 1.40815E-03-6.33458E-14
 -1       131 1.50450E-02 1.32516E-03-6.37809E-14
 -1       132 1.49824E-02 1.24324E-03-6.42548E-14
 -1       133 1.49189E-02 1.15950E-03-6.47338E-14
 -1       134 1.48557E-02 1.07541E-03-6.51848E-14
 -1       135 1.47930E-02 9.91069E-04-6.56171E-14
 -1       136 1.47307E-02 9.06685E-04-6.60396E-14
 -1       137 1.01743E-02 6.14412E-04-1.95427E-14
 -1       138 1.00414E-02 7.84964E-04-1.91380E-14
 -1       139 9.82274E-03 9.35701E-04-1.86313E-14
 -1       140 9.48288E-03 1.08101E-03-1.79692E-14
 -1       141 9.08663E-03 1.18674E-03-1.72943E-14
 -1       142 8.60955E-03 1.25462E-03-1.65695E-14
 -1       143 8.09027E-03 1.26991E-03-1.58426E-14
 -1       144 7.60243E-03 1.23206E-03-1.52230E-14
 -1       145 7.11391E-03 1.14312E-03-1.46490E-14
 -1       146 6.66154E-03 1.00806E-03-1.41610E-14
 -1       147 6.30996E-03 8.55180E-04-1.38255E-14
 -1       148 6.04230E-03 6.88408E-04-1.36150E-14
 -1       149 5.85049E-03 5.00073E-04-1.35254E-14
 -1       150 5.77101E-03 3.22311E-04-1.35678E-14
 -1       151 5.78732E-03 1.53408E-04-1.37257E-14
 -1       152 5.90759E-03-1.64433E-05-1.40273E-14
 -1       153 6.11040E-03-1.60374E-04-1.44204E-14
 -1       154 6.41220E-03-2.88891E-04-1.49395E-14
 -1       155 6.79775E-03-3.90057E-04-1.55587E-14
 -1       156 7.22169E-03-4.50831E-04-1.62061E-14
 -1       157 7.75960E-03-4.74037E-04-1.70055E-14
 -1       158 8.22912E-03-4.50478E-04-1.76778E-14
 -1       159 8.67441E-03-3.91527E-04-1.82988E-14
 -1       160 9.44940E-03-1.84581E-04-1.92982E-14
 -1       161 9.74273E-03-5.29675E-05-1.96204E-14
 -1       162 9.97632E-03 9.71252E-05-1.98278E-14
 -1       163 1.01301E-02 2.55602E-04-1.98941E-14
 -1       164 2.40138E-04-1.24970E-04-2.16807E-17
 -1       165 2.25223E-04-9.40680E-05-2.82333E-17
 -1       166 2.19610E-04-7.22265E-05-3.10963E-17
 -1       167 2.16867E-04-5.45744E-05-3.20687E-17
 -1       168 2.15403E-04-3.95076E-05-3.15300E-17
 -1       169 2.14576E-04-2.55784E-05-3.04864E-17
 -1       170 2.14158E-04-1.24691E-05-2.90871E-17
 -1       171 2.14037E-04 2.64628E-07-2.73117E-17
 -1       172 2.14183E-04 1.30117E-05-2.54415E-17
 -1       173 2.14628E-04 2.61637E-05-2.32290E-17
 -1       174 2.15465E-04 3.99277E-05-2.02068E-17
 -1       175 2.16983E-04 5.53803E-05-1.61783E-17
 -1       176 2.19765E-04 7.32632E-05-1.08827E-17
 -1       177 2.25398E-04 9.54752E-05-2.88330E-18
 -1       178 2.39059E-04 1.27054E-04 8.93112E-18
 -1       179 2.97103E-04 1.84814E-04 2.23718E-17
 -1       180 4.67806E-04-2.62299E-04-5.58398E-17
 -1       181 7.65534E-04-3.79652E-04-1.69339E-16
 -1       182 1.04913E-03-4.60946E-04-3.44583E-16
 -1       183 1.32649E-03-5.17723E-04-5.80868E-16
 -1       184 1.60134E-03-5.56927E-04-8.75693E-16
 -1       185 1.87589E-03-5.83167E-04-1.22769E-15
 -1       186 2.15142E-03-5.99682E-04-1.63640E-15
 -1       187 2.42876E-03-6.08861E-04-2.09970E-15
 -1       188 2.70842E-03-6.12531E-04-2.61874E-15
 -1       189 2.99082E-03-6.12154E-04-3.19132E-15
 -1       190 3.27631E-03-6.08977E-04-3.81135E-15
 -1       191 3.56523E-03-6.04167E-04-4.47795E-15
 -1       192 3.85794E-03-5.98931E-04-5.19174E-15
 -1       193 4.15475E-03-5.94640E-04-5.95240E-15
 -1       194 4.45594E-03-5.92926E-04-6.76132E-15
 -1       195 4.76157E-03-5.95736E-04-7.61741E-15
 -1       196 5.07140E-03-6.05294E-04-8.52010E-15
 -1       197 5.38470E-03-6.23905E-04-9.47333E-15
 -1       198 5.70004E-03-6.53496E-04-1.04808E-14
 -1       199 6.01523E-03-6.94841E-04-1.15450E-14
 -1       200 6.32735E-03-7.46481E-04-1.26711E-14
 -1       201 6.63324E-03-8.03611E-04-1.38605E-14
 -1       202 6.93025E-03-8.57534E-04-1.51162E-14
 -1       203 7.21743E-03-8.96475E-04-1.64420E-14
 -1       204 7.49637E-03-9.08263E-04-1.78270E-14
 -1       205 7.77130E-03-8.84270E-04-1.92707E-14
 -1       206 8.04784E-03-8.22744E-04-2.07763E-14
 -1       207 8.33104E-03-7.29527E-04-2.23519E-14
 -1       208 8.62376E-03-6.15693E-04-2.39917E-14
 -1       209 8.92612E-03-4.93606E-04-2.56967E-14
 -1       210 9.23612E-03-3.73521E-04-2.74462E-14
 -1       211 9.55073E-03-2.61957E-04-2.92361E-14
 -1       212 9.86690E-03-1.61737E-04-3.10652E-14
 -1       213 1.01822E-02-7.29491E-05-3.29313E-14
 -1       214 1.04948E-02 5.90476E-06-3.48364E-14
 -1       215 1.08040E-02 7.69723E-05-3.67717E-14
 -1       216 1.11093E-02 1.42446E-04-3.87294E-14
 -1       217 1.14108E-02 2.04248E-04-4.07155E-14
 -1       218 1.17089E-02 2.63905E-04-4.27411E-14
 -1       219 1.20040E-02 3.22549E-04-4.48149E-14
 -1       220 1.22967E-02 3.80963E-04-4.69381E-14
 -1       221 1.25874E-02 4.39656E-04-4.91152E-14
 -1       222 1.28765E-02 4.98926E-04-5.13365E-14
 -1       223 1.31645E-02 5.58926E-04-5.35911E-14
 -1       224 1.34516E-02 6.19710E-04-5.58662E-14
 -1       225 1.37381E-02 6.81263E-04-5.81514E-14
 -1       226 1.40242E-02 7.43519E-04-6.04444E-14
 -1       227 1.43100E-02 8.06356E-04-6.27358E-14
 -1       228 6.03400E-04 3.29296E-04 1.67408E-17
 -1       229 8.92078E-04 4.29528E-04-2.67933E-17
 -1       230 1.17073E-03 4.99501E-04-1.12862E-16
 -1       231 1.44507E-03 5.48342E-04-2.44952E-16
 -1       232 1.71822E-03 5.81773E-04-4.24912E-16
 -1       233 1.99194E-03 6.03671E-04-6.53774E-16
 -1       234 2.26727E-03 6.16803E-04-9.31208E-16
 -1       235 2.54492E-03 6.23213E-04-1.25701E-15
 -1       236 2.82539E-03 6.24450E-04-1.63175E-15
 -1       237 3.10920E-03 6.21732E-04-2.05628E-15
 -1       238 3.39689E-03 6.16083E-04-2.52906E-15
 -1       239 3.68915E-03 6.08484E-04-3.04746E-15
 -1       240 3.98690E-03 6.00031E-04-3.61542E-15
 -1       241 4.29127E-03 5.92147E-04-4.23373E-15
 -1       242 4.60366E-03 5.86865E-04-4.89802E-15
 -1       243 4.92563E-03 5.87192E-04-5.60775E-15
 -1       244 5.25879E-03 5.97568E-04-6.36151E-15
 -1       245 5.60437E-03 6.24316E-04-7.15832E-15
 -1       246 5.96261E-03 6.75818E-04-7.99875E-15
 -1       247 6.33170E-03 7.61711E-04-8.89112E-15
 -1       248 6.70665E-03 8.89890E-04-9.82964E-15
 -1       249 7.07862E-03 1.06006E-03-1.08198E-14
 -1       250 7.43633E-03 1.25467E-03-1.18639E-14
 -1       251 7.77125E-03 1.43394E-03-1.29700E-14
 -1       252 8.08518E-03 1.54662E-03-1.41455E-14
 -1       253 8.39291E-03 1.55902E-03-1.53968E-14
 -1       254 8.71364E-03 1.47981E-03-1.67315E-14
 -1       255 9.05769E-03 1.35318E-03-1.81487E-14
 -1       256 9.42220E-03 1.22842E-03-1.96513E-14
 -1       257 9.79679E-03 1.13706E-03-2.12314E-14
 -1       258 1.01707E-02 1.08916E-03-2.28665E-14
 -1       259 1.05367E-02 1.08101E-03-2.45609E-14
 -1       260 1.08909E-02 1.10354E-03-2.63130E-14
 -1       261 1.12328E-02 1.14741E-03-2.81267E-14
 -1       262 1.15630E-02 1.20504E-03-2.99910E-14
 -1       263 1.18830E-02 1.27091E-03-3.18983E-14
 -1       264 1.21947E-02 1.34132E-03-3.38525E-14
 -1       265 1.24997E-02 1.41384E-03-3.58439E-14
 -1       266 1.27995E-02 1.48700E-03-3.78646E-14
 -1       267 1.30952E-02 1.55991E-03-3.99245E-14
 -1       268 1.33879E-02 1.63209E-03-4.20110E-14
 -1       269 1.36783E-02 1.70331E-03-4.41172E-14
 -1       270 1.39671E-02 1.77350E-03-4.62355E-14
 -1       271 1.42547E-02 1.84267E-03-4.83605E-14
 -1       272 1.45415E-02 1.91089E-03-5.04984E-14
 -1       273 1.48278E-02 1.97826E-03-5.26512E-14
 -1       274 1.51137E-02 2.04491E-03-5.48163E-14
 -1       275 1.53994E-02 2.11103E-03-5.70028E-14
 -1       276 1.54006E-02 2.05872E-03-5.77141E-14
 -1       277 1.53361E-02 1.97455E-03-5.81347E-14
 -1       278 1.52722E-02 1.89057E-03-5.85517E-14
 -1       279 1.52087E-02 1.80688E-03-5.89740E-14
 -1       280 1.51466E-02 1.72493E-03-5.93988E-14
 -1       281 1.50835E-02 1.64186E-03-5.98400E-14
 -1       282 1.50204E-02 1.55904E-03-6.02893E-14
 -1       283 1.49571E-02 1.47635E-03-6.07435E-14
 -1       284 1.48935E-02 1.39366E-03-6.11913E-14
 -1       285 1.48298E-02 1.31083E-03-6.16367E-14
 -1       286 1.47671E-02 1.22918E-03-6.20774E-14
 -1       287 1.47034E-02 1.14582E-03-6.25258E-14
 -1       288 1.46399E-02 1.06213E-03-6.29684E-14
 -1       289 1.45769E-02 9.78169E-04-6.34020E-14
 -1       290 1.44433E-02 8.92274E-04-6.30733E-14
 -1       291 1.02294E-02 4.93581E-04-2.04228E-14
 -1       292 1.01045E-02 6.01004E-04-1.99245E-14
 -1       293 9.86735E-03 7.35328E-04-1.93376E-14
 -1       294 9.52045E-03 8.93264E-04-1.86828E-14
 -1       295 9.13550E-03 1.08659E-03-1.78340E-14
 -1       296 8.72700E-03 1.24597E-03-1.69992E-14
 -1       297 8.30143E-03 1.35112E-03-1.61266E-14
 -1       298 7.90573E-03 1.33482E-03-1.53355E-14
 -1       299 7.49253E-03 1.21801E-03-1.46699E-14
 -1       300 7.05709E-03 1.02859E-03-1.40683E-14
 -1       301 6.64355E-03 8.09696E-04-1.35810E-14
 -1       302 6.27448E-03 6.18331E-04-1.32739E-14
 -1       303 5.97348E-03 4.47977E-04-1.30430E-14
 -1       304 5.78343E-03 3.40070E-04-1.30758E-14
 -1       305 5.74155E-03 2.48536E-04-1.32192E-14
 -1       306 5.83693E-03 1.56556E-04-1.34217E-14
 -1       307 6.05698E-03 3.18805E-05-1.38671E-14
 -1       308 6.36689E-03-1.11908E-04-1.43827E-14
 -1       309 6.76853E-03-2.65892E-04-1.49748E-14
 -1       310 7.14475E-03-4.24817E-04-1.57605E-14
 -1       311 7.56156E-03-5.34115E-04-1.66169E-14
 -1       312 7.96543E-03-5.39730E-04-1.74844E-14
 -1       313 8.34255E-03-4.66988E-04-1.82536E-14
 -1       314 8.72213E-03-3.27005E-04-1.89906E-14
 -1       315 9.10443E-03-1.52483E-04-1.95980E-14
 -1       316 9.46145E-03 1.91064E-05-2.00615E-14
 -1       317 9.78567E-03 1.74026E-04-2.03897E-14
 -1       318 1.00426E-02 2.94660E-04-2.05148E-14
 -1       319 1.01999E-02 4.03996E-04-2.05973E-14
 -1       320 4.55359E-04-1.63391E-04-1.03074E-16
 -1       321 4.73995E-04-2.11600E-04-9.36514E-17
 -1       322 4.40743E-04-9.28758E-05-1.07109E-16
 -1       323 4.37784E-04-6.40142E-05-1.05107E-16
 -1       324 4.36144E-04-3.73353E-05-1.01776E-16
 -1       325 4.35420E-04-1.18318E-05-9.73478E-17
 -1       326 4.35457E-04 1.33173E-05-9.22182E-17
 -1       327 4.36259E-04 3.88816E-05-8.59434E-17
 -1       328 4.37952E-04 6.52227E-05-7.83099E-17
 -1       329 4.41007E-04 9.42638E-05-6.85182E-17
 -1       330 4.46324E-04 1.27037E-04-5.63040E-17
 -1       331 4.55972E-04 1.65955E-04-4.00240E-17
 -1       332 4.75608E-04 2.15668E-04-1.78690E-17
 -1       333 5.31371E-04 2.68432E-04-3.63885E-18
 -1       334 8.23608E-04 3.70609E-04-5.46641E-17
 -1       335 8.62740E-04-3.54225E-04-2.75564E-16
 -1       336 1.14913E-03-4.21171E-04-4.84029E-16
 -1       337 1.43214E-03-4.68068E-04-7.49590E-16
 -1       338 1.71338E-03-4.99977E-04-1.07153E-15
 -1       339 1.99407E-03-5.20616E-04-1.44825E-15
 -1       340 2.27511E-03-5.32741E-04-1.87862E-15
 -1       341 2.55714E-03-5.38441E-04-2.36260E-15
 -1       342 2.84066E-03-5.39342E-04-2.90022E-15
 -1       343 3.12604E-03-5.36772E-04-3.48789E-15
 -1       344 3.41363E-03-5.31903E-04-4.12225E-15
 -1       345 3.70376E-03-5.25883E-04-4.80380E-15
 -1       346 3.99678E-03-5.19959E-04-5.53292E-15
 -1       347 4.29300E-03-5.15596E-04-6.30960E-15
 -1       348 4.59274E-03-5.14569E-04-7.13225E-15
 -1       349 4.89623E-03-5.19002E-04-8.00137E-15
 -1       350 5.20350E-03-5.31287E-04-8.91915E-15
 -1       351 5.51431E-03-5.53814E-04-9.89008E-15
 -1       352 5.82789E-03-5.88403E-04-1.09147E-14
 -1       353 6.14278E-03-6.35355E-04-1.20010E-14
 -1       354 6.45673E-03-6.92177E-04-1.31468E-14
 -1       355 6.76692E-03-7.52334E-04-1.43568E-14
 -1       356 7.07080E-03-8.04853E-04-1.56349E-14
 -1       357 7.36745E-03-8.35890E-04-1.69750E-14
 -1       358 7.65870E-03-8.32722E-04-1.83748E-14
 -1       359 7.94884E-03-7.88790E-04-1.98374E-14
 -1       360 8.24273E-03-7.06697E-04-2.13663E-14
 -1       361 8.54344E-03-5.96983E-04-2.29630E-14
 -1       362 8.85120E-03-4.73577E-04-2.46224E-14
 -1       363 9.16402E-03-3.49048E-04-2.63367E-14
 -1       364 9.47910E-03-2.31928E-04-2.80953E-14
 -1       365 9.79389E-03-1.26373E-04-2.98980E-14
 -1       366 1.01066E-02-3.31569E-05-3.17384E-14
 -1       367 1.04163E-02 4.89857E-05-3.36190E-14
 -1       368 1.07225E-02 1.22240E-04-3.55342E-14
 -1       369 1.10253E-02 1.88968E-04-3.74776E-14
 -1       370 1.13248E-02 2.51304E-04-3.94500E-14
 -1       371 1.16215E-02 3.10984E-04-4.14503E-14
 -1       372 1.19157E-02 3.69316E-04-4.34940E-14
 -1       373 1.22078E-02 4.27226E-04-4.55863E-14
 -1       374 1.24983E-02 4.85320E-04-4.77281E-14
 -1       375 1.27874E-02 5.43970E-04-4.99159E-14
 -1       376 1.30756E-02 6.03372E-04-5.21391E-14
 -1       377 1.33629E-02 6.63604E-04-5.43899E-14
 -1       378 1.36496E-02 7.24668E-04-5.66579E-14
 -1       379 1.39359E-02 7.86511E-04-5.89362E-14
 -1       380 1.41897E-02 8.39165E-04-6.10012E-14
 -1       381 1.10900E-03 4.43180E-04-1.47045E-16
 -1       382 1.38988E-03 4.94019E-04-2.84122E-16
 -1       383 1.66862E-03 5.28831E-04-4.68477E-16
 -1       384 1.94688E-03 5.51625E-04-7.00893E-16
 -1       385 2.22576E-03 5.65296E-04-9.81596E-16
 -1       386 2.50603E-03 5.71976E-04-1.31042E-15
 -1       387 2.78827E-03 5.73269E-04-1.68771E-15
 -1       388 3.07297E-03 5.70417E-04-2.11336E-15
 -1       389 3.36063E-03 5.64446E-04-2.58782E-15
 -1       390 3.65182E-03 5.56305E-04-3.10890E-15
 -1       391 3.94722E-03 5.47028E-04-3.67909E-15
 -1       392 4.24765E-03 5.37942E-04-4.29774E-15
 -1       393 4.55412E-03 5.30930E-04-4.96389E-15
 -1       394 4.86776E-03 5.28790E-04-5.67526E-15
 -1       395 5.18985E-03 5.35682E-04-6.43145E-15
 -1       396 5.52167E-03 5.57608E-04-7.22955E-15
 -1       397 5.86433E-03 6.02713E-04-8.07227E-15
 -1       398 6.21833E-03 6.80846E-04-8.96629E-15
 -1       399 6.58267E-03 8.01284E-04-9.90884E-15
 -1       400 6.95334E-03 9.67013E-04-1.09019E-14
 -1       401 7.32217E-03 1.16515E-03-1.19488E-14
 -1       402 7.67895E-03 1.35795E-03-1.30558E-14
 -1       403 8.01961E-03 1.48858E-03-1.42317E-14
 -1       404 8.35344E-03 1.51225E-03-1.54810E-14
 -1       405 8.69637E-03 1.43291E-03-1.68146E-14
 -1       406 9.05559E-03 1.29997E-03-1.82297E-14
 -1       407 9.42547E-03 1.16873E-03-1.97283E-14
 -1       408 9.79584E-03 1.07330E-03-2.13044E-14
 -1       409 1.01591E-02 1.02350E-03-2.29378E-14
 -1       410 1.05119E-02 1.01475E-03-2.46320E-14
 -1       411 1.08535E-02 1.03740E-03-2.63810E-14
 -1       412 1.11847E-02 1.08180E-03-2.81917E-14
 -1       413 1.15066E-02 1.14015E-03-3.00508E-14
 -1       414 1.18206E-02 1.20683E-03-3.19527E-14
 -1       415 1.21281E-02 1.27802E-03-3.38977E-14
 -1       416 1.24304E-02 1.35128E-03-3.58765E-14
 -1       417 1.27284E-02 1.42509E-03-3.78900E-14
 -1       418 1.30231E-02 1.49856E-03-3.99433E-14
 -1       419 1.33152E-02 1.57122E-03-4.20247E-14
 -1       420 1.36055E-02 1.64283E-03-4.41274E-14
 -1       421 1.38942E-02 1.71334E-03-4.62451E-14
 -1       422 1.41819E-02 1.78276E-03-4.83731E-14
 -1       423 1.44689E-02 1.85118E-03-5.05137E-14
 -1       424 1.47553E-02 1.91870E-03-5.26670E-14
 -1       425 1.50413E-02 1.98546E-03-5.48320E-14
 -1       426 1.52210E-02 2.02219E-03-5.62679E-14
 -1       427 1.49931E-02 1.79185E-03-5.68662E-14
 -1       428 1.50567E-02 1.87552E-03-5.64465E-14
 -1       429 1.51387E-02 1.94878E-03-5.63577E-14
 -1       430 1.49310E-02 1.70994E-03-5.72818E-14
 -1       431 1.48680E-02 1.62696E-03-5.77058E-14
 -1       432 1.48050E-02 1.54425E-03-5.81432E-14
 -1       433 1.47419E-02 1.46173E-03-5.85878E-14
 -1       434 1.46784E-02 1.37926E-03-5.90359E-14
 -1       435 1.46147E-02 1.29672E-03-5.94793E-14
 -1       436 1.45519E-02 1.21540E-03-5.99124E-14
 -1       437 1.44880E-02 1.13239E-03-6.03449E-14
 -1       438 1.44243E-02 1.04905E-03-6.07743E-14
 -1       439 1.43609E-02 9.65377E-04-6.12003E-14
 -1       440 9.97760E-03 6.14705E-04-2.02482E-14
 -1       441 1.02542E-02 4.66404E-04-2.13822E-14
 -1       442 1.01879E-02 5.25772E-04-2.07718E-14
 -1       443 9.70088E-03 7.39214E-04-1.95713E-14
 -1       444 9.24888E-03 9.67063E-04-1.85381E-14
 -1       445 4.45914E-04-1.25202E-04-1.06929E-16
 -1       446 8.52868E-03 1.32127E-03-1.66985E-14
 -1       447 8.09893E-03 1.38758E-03-1.55532E-14
 -1       448 7.73287E-03 1.30149E-03-1.46835E-14
 -1       449 7.36328E-03 1.11869E-03-1.39809E-14
 -1       450 6.95443E-03 8.75214E-04-1.33541E-14
 -1       451 6.51591E-03 6.35220E-04-1.29376E-14
 -1       452 6.18144E-03 4.75033E-04-1.27112E-14
 -1       453 5.84624E-03 3.26417E-04-1.24966E-14
 -1       454 5.72426E-03 2.65810E-04-1.25665E-14
 -1       455 5.74497E-03 2.23647E-04-1.27567E-14
 -1       456 5.95463E-03 1.37507E-04-1.31887E-14
 -1       457 6.23746E-03 1.60818E-05-1.37727E-14
 -1       458 6.57002E-03-1.29429E-04-1.43045E-14
 -1       459 7.03670E-03-3.54273E-04-1.52504E-14
 -1       460 7.37296E-03-4.98704E-04-1.60567E-14
 -1       461 7.78806E-03-5.85340E-04-1.72382E-14
 -1       462 8.11023E-03-5.39433E-04-1.80980E-14
 -1       463 8.43854E-03-4.11541E-04-1.90226E-14
 -1       464 8.82776E-03-2.09923E-04-1.98161E-14
 -1       465 9.21251E-03-5.83090E-06-2.04289E-14
 -1       466 9.57708E-03 1.81188E-04-2.09881E-14
 -1       467 9.91326E-03 3.15691E-04-2.11901E-14
 -1       468 1.01234E-02 3.96296E-04-2.12740E-14
 -1       469 8.87223E-03 1.16759E-03-1.75663E-14
 -1       470 6.80335E-03-2.37192E-04-1.45684E-14
 -1       471 5.98730E-03 3.60890E-04-1.21667E-14
 -1       472 8.33918E-03 1.39147E-03-1.61066E-14
 -1       473 9.31058E-04 3.42379E-04-1.44643E-16
 -1       474 6.66119E-04-7.38785E-05-2.17996E-16
 -1       475 6.70140E-04-1.14138E-04-2.22824E-16
 -1       476 6.63374E-04 1.08338E-06-2.01926E-16
 -1       477 6.64131E-04 3.80790E-05-1.90626E-16
 -1       478 6.66342E-04 7.55378E-05-1.77308E-16
 -1       479 6.70506E-04 1.15955E-04-1.61156E-16
 -1       480 6.77519E-04 1.60220E-04-1.41292E-16
 -1       481 6.89293E-04 2.10370E-04-1.16450E-16
 -1       482 1.21708E-03 4.00893E-04-2.74195E-16
 -1       483 9.76341E-04-3.24693E-04-3.89700E-16
 -1       484 8.76394E-03 1.23530E-03-1.74221E-14
 -1       485 1.26240E-03-3.77565E-04-6.27211E-16
 -1       486 1.54774E-03-4.14796E-04-9.19834E-16
 -1       487 1.83238E-03-4.39731E-04-1.26649E-15
 -1       488 2.11671E-03-4.55192E-04-1.66549E-15
 -1       489 2.40116E-03-4.63410E-04-2.11615E-15
 -1       490 2.68608E-03-4.66135E-04-2.61950E-15
 -1       491 2.97180E-03-4.64772E-04-3.17295E-15
 -1       492 3.25861E-03-4.60502E-04-3.77564E-15
 -1       493 3.54680E-03-4.54407E-04-4.42580E-15
 -1       494 3.83670E-03-4.47595E-04-5.12309E-15
 -1       495 4.12870E-03-4.41319E-04-5.86749E-15
 -1       496 4.42326E-03-4.37089E-04-6.65755E-15
 -1       497 4.72096E-03-4.36763E-04-7.49367E-15
 -1       498 5.02245E-03-4.42574E-04-8.37551E-15
 -1       499 5.32845E-03-4.57054E-04-9.31020E-15
 -1       500 5.63945E-03-4.82753E-04-1.02982E-14
 -1       501 5.95548E-03-5.21607E-04-1.13444E-14
 -1       502 6.27547E-03-5.73818E-04-1.24479E-14
 -1       503 6.59688E-03-6.36160E-04-1.36130E-14
 -1       504 6.91580E-03-7.00193E-04-1.48435E-14
 -1       505 7.22843E-03-7.51656E-04-1.61393E-14
 -1       506 7.53366E-03-7.73245E-04-1.74944E-14
 -1       507 7.83465E-03-7.51324E-04-1.89134E-14
 -1       508 8.13738E-03-6.82966E-04-2.03981E-14
 -1       509 8.44665E-03-5.77722E-04-2.19491E-14
 -1       510 8.76321E-03-4.52214E-04-2.35654E-14
 -1       511 9.08414E-03-3.22626E-04-2.52390E-14
 -1       512 9.40532E-03-2.00041E-04-2.69627E-14
 -1       513 9.72352E-03-8.97994E-05-2.87380E-14
 -1       514 1.00371E-02 7.01639E-06-3.05521E-14
 -1       515 1.03457E-02 9.17361E-05-3.24040E-14
 -1       516 1.06496E-02 1.66713E-04-3.42970E-14
 -1       517 1.09496E-02 2.34482E-04-3.62254E-14
 -1       518 1.12463E-02 2.97333E-04-3.81856E-14
 -1       519 1.15405E-02 3.57137E-04-4.01678E-14
 -1       520 1.18326E-02 4.15319E-04-4.21853E-14
 -1       521 1.21232E-02 4.72900E-04-4.42468E-14
 -1       522 1.24125E-02 5.30564E-04-4.63556E-14
 -1       523 1.27008E-02 5.88737E-04-4.85110E-14
 -1       524 1.29884E-02 6.47653E-04-5.07056E-14
 -1       525 1.32754E-02 7.07416E-04-5.29308E-14
 -1       526 1.35620E-02 7.68043E-04-5.51785E-14
 -1       527 1.38482E-02 8.29495E-04-5.74336E-14
 -1       528 1.78483E-03 4.69794E-04-6.70206E-16
 -1       529 2.06776E-03 4.87228E-04-9.39522E-16
 -1       530 2.35093E-03 4.96744E-04-1.25625E-15
 -1       531 2.63484E-03 5.00151E-04-1.62036E-15
 -1       532 2.91990E-03 4.98836E-04-2.03263E-15
 -1       533 3.20645E-03 4.93895E-04-2.49404E-15
 -1       534 3.49485E-03 4.86272E-04-3.00272E-15
 -1       535 3.78543E-03 4.76900E-04-3.55830E-15
 -1       536 4.07860E-03 4.66869E-04-4.16291E-15
 -1       537 4.37483E-03 4.57639E-04-4.81564E-15
 -1       538 4.67471E-03 4.51315E-04-5.51500E-15
 -1       539 4.97908E-03 4.51000E-04-6.25862E-15
 -1       540 5.28921E-03 4.61222E-04-7.04452E-15
 -1       541 5.60710E-03 4.88386E-04-7.87701E-15
 -1       542 5.93586E-03 5.41100E-04-8.75594E-15
 -1       543 6.27970E-03 6.29933E-04-9.68588E-15
 -1       544 6.64247E-03 7.65432E-04-1.06644E-14
 -1       545 7.02295E-03 9.51121E-04-1.16961E-14
 -1       546 7.41311E-03 1.16959E-03-1.27836E-14
 -1       547 7.79311E-03 1.36340E-03-1.39336E-14
 -1       548 8.16108E-03 1.45518E-03-1.51546E-14
 -1       549 8.52959E-03 1.40843E-03-1.64579E-14
 -1       550 8.91327E-03 1.26979E-03-1.78445E-14
 -1       551 9.30188E-03 1.11775E-03-1.93116E-14
 -1       552 9.68074E-03 1.00304E-03-2.08576E-14
 -1       553 1.00407E-02 9.38956E-04-2.24695E-14
 -1       554 1.03823E-02 9.19964E-04-2.41410E-14
 -1       555 1.07096E-02 9.35368E-04-2.58691E-14
 -1       556 1.10267E-02 9.74822E-04-2.76560E-14
 -1       557 1.13365E-02 1.03006E-03-2.94929E-14
 -1       558 1.16410E-02 1.09503E-03-3.13769E-14
 -1       559 1.19415E-02 1.16552E-03-3.32981E-14
 -1       560 1.22387E-02 1.23875E-03-3.52558E-14
 -1       561 1.25333E-02 1.31294E-03-3.72466E-14
 -1       562 1.28257E-02 1.38702E-03-3.92754E-14
 -1       563 1.31165E-02 1.46038E-03-4.13374E-14
 -1       564 1.34060E-02 1.53271E-03-4.34225E-14
 -1       565 1.36944E-02 1.60390E-03-4.55324E-14
 -1       566 1.39819E-02 1.67395E-03-4.76619E-14
 -1       567 1.42689E-02 1.74293E-03-4.98013E-14
 -1       568 1.45554E-02 1.81093E-03-5.19528E-14
 -1       569 1.48415E-02 1.87808E-03-5.41147E-14
 -1       570 1.46525E-02 1.61146E-03-5.55900E-14
 -1       571 1.45898E-02 1.52896E-03-5.60101E-14
 -1       572 1.47774E-02 1.77622E-03-5.47655E-14
 -1       573 1.47148E-02 1.69363E-03-5.51754E-14
 -1       574 1.45268E-02 1.44674E-03-5.64429E-14
 -1       575 1.44636E-02 1.36465E-03-5.68790E-14
 -1       576 1.44000E-02 1.28255E-03-5.73197E-14
 -1       577 1.43371E-02 1.20168E-03-5.77474E-14
 -1       578 1.42730E-02 1.11913E-03-5.81733E-14
 -1       579 1.42090E-02 1.03620E-03-5.85934E-14
 -1       580 1.41452E-02 9.52858E-04-5.90142E-14
 -1       581 1.02706E-02 5.04013E-04-2.18166E-14
 -1       582 1.01393E-02 5.55970E-04-2.13210E-14
 -1       583 1.02200E-02 4.54498E-04-2.21725E-14
 -1       584 1.50151E-03 4.42057E-04-4.48592E-16
 -1       585 9.85953E-03 6.62394E-04-2.04484E-14
 -1       586 9.08409E-03 1.06391E-03-1.83927E-14
 -1       587 9.77776E-03 3.00197E-04-2.18677E-14
 -1       588 6.73066E-03 7.10764E-04-1.25824E-14
 -1       589 6.63999E-04-3.58750E-05-2.11003E-16
 -1       590 7.93769E-03 1.38004E-03-1.48980E-14
 -1       591 5.73587E-03 2.66378E-04-1.19444E-14
 -1       592 7.57551E-03 1.22474E-03-1.39703E-14
 -1       593 7.20077E-03 9.97247E-04-1.32217E-14
 -1       594 6.33719E-03 5.05965E-04-1.22852E-14
 -1       595 6.10240E-03 7.79125E-05-1.30136E-14
 -1       596 5.68474E-03 2.30015E-04-1.20640E-14
 -1       597 5.79422E-03 1.85888E-04-1.24079E-14
 -1       598 6.37062E-03-3.51914E-05-1.35205E-14
 -1       599 7.17827E-03-4.30419E-04-1.54268E-14
 -1       600 7.57465E-03-5.77598E-04-1.66631E-14
 -1       601 7.96631E-03-5.84331E-04-1.80283E-14
 -1       602 8.23420E-03-4.97959E-04-1.89515E-14
 -1       603 8.61704E-03-2.99971E-04-1.99930E-14
 -1       604 9.00565E-03-7.75399E-05-2.07966E-14
 -1       605 9.34115E-03 1.02881E-04-2.13617E-14
 -1       606 1.00735E-02 4.06663E-04-2.20868E-14
 -1       607 7.12727E-04-2.49399E-04-2.23878E-16
 -1       608 7.03526E-04 2.88500E-04-6.65124E-17
 -1       609 9.49846E-03 8.33347E-04-1.95027E-14
 -1       610 6.76941E-04-1.57952E-04-2.24908E-16
 -1       611 9.57890E-03 2.21482E-04-2.22442E-14
 -1       612 1.03112E-02 4.92335E-04-2.26142E-14
 -1       613 6.55961E-03-1.42199E-04-1.37693E-14
 -1       614 5.81614E-03 2.90980E-04-1.16206E-14
 -1       615 8.57984E-03 1.33984E-03-1.68088E-14
 -1       616 6.92086E-04-2.00563E-04-2.26683E-16
 -1       617 1.40403E-02 8.69803E-04-5.89769E-14
 -1       618 8.99867E-04 7.26176E-05-3.18240E-16
 -1       619 8.97667E-04 2.46576E-05-3.37953E-16
 -1       620 9.12252E-04 1.75218E-04-2.67734E-16
 -1       621 9.24633E-04 2.33314E-04-2.34476E-16
 -1       622 1.04919E-03 3.09506E-04-2.51657E-16
 -1       623 5.85974E-03 1.21782E-04-1.20816E-14
 -1       624 1.33510E-03 3.54988E-04-4.16791E-16
 -1       625 9.97100E-03 3.79484E-04-2.28145E-14
 -1       626 1.38376E-03-3.30289E-04-7.74524E-16
 -1       627 1.67010E-03-3.58503E-04-1.09167E-15
 -1       628 1.95650E-03-3.76961E-04-1.46008E-15
 -1       629 2.24282E-03-3.87726E-04-1.87913E-15
 -1       630 2.52908E-03-3.92532E-04-2.34858E-15
 -1       631 2.81537E-03-3.92790E-04-2.86879E-15
 -1       632 3.10185E-03-3.89660E-04-3.43863E-15
 -1       633 3.38868E-03-3.84152E-04-4.05656E-15
 -1       634 3.67612E-03-3.77221E-04-4.72305E-15
 -1       635 3.96451E-03-3.69886E-04-5.43616E-15
 -1       636 4.25435E-03-3.63333E-04-6.19402E-15
 -1       637 4.54636E-03-3.59031E-04-6.99724E-15
 -1       638 4.84156E-03-3.58830E-04-7.84665E-15
 -1       639 5.14128E-03-3.65033E-04-8.74482E-15
 -1       640 5.44709E-03-3.80397E-04-9.69589E-15
 -1       641 5.76053E-03-4.07946E-04-1.07019E-14
 -1       642 6.08239E-03-4.50372E-04-1.17653E-14
 -1       643 6.41171E-03-5.08595E-04-1.28867E-14
 -1       644 6.74470E-03-5.79070E-04-1.40682E-14
 -1       645 7.07503E-03-6.50414E-04-1.53177E-14
 -1       646 7.39696E-03-7.02239E-04-1.66308E-14
 -1       647 7.71020E-03-7.10683E-04-1.80020E-14
 -1       648 8.02134E-03-6.62046E-04-1.94439E-14
 -1       649 8.33897E-03-5.61889E-04-2.09523E-14
 -1       650 8.66606E-03-4.31362E-04-2.25247E-14
 -1       651 8.99875E-03-2.93496E-04-2.41568E-14
 -1       652 9.33038E-03-1.63882E-04-2.58451E-14
 -1       653 9.65586E-03-4.91332E-05-2.75848E-14
 -1       654 9.97307E-03 5.01019E-05-2.93702E-14
 -1       655 1.02822E-02 1.35969E-04-3.11958E-14
 -1       656 1.05845E-02 2.11440E-04-3.30626E-14
 -1       657 1.08816E-02 2.79396E-04-3.49721E-14
 -1       658 1.11750E-02 3.42278E-04-3.69178E-14
 -1       659 1.14659E-02 4.02015E-04-3.88876E-14
 -1       660 1.17550E-02 4.60054E-04-4.08829E-14
 -1       661 1.20429E-02 5.17429E-04-4.29188E-14
 -1       662 1.23302E-02 5.74840E-04-4.49959E-14
 -1       663 1.26169E-02 6.32727E-04-4.71209E-14
 -1       664 1.29033E-02 6.91340E-04-4.92877E-14
 -1       665 1.31894E-02 7.50795E-04-5.14883E-14
 -1       666 1.34755E-02 8.11116E-04-5.37094E-14
 -1       667 1.37613E-02 8.72272E-04-5.59475E-14
 -1       668 2.19238E-03 4.20516E-04-1.19157E-15
 -1       669 7.33441E-03-5.33312E-04-1.59036E-14
 -1       670 1.00616E-02 6.20396E-04-2.16320E-14
 -1       671 1.90682E-03 4.07981E-04-8.85793E-16
 -1       672 2.76363E-03 4.27145E-04-1.94209E-15
 -1       673 3.04965E-03 4.23893E-04-2.39046E-15
 -1       674 3.33608E-03 4.17623E-04-2.88580E-15
 -1       675 3.62301E-03 4.09217E-04-3.42899E-15
 -1       676 3.91046E-03 3.99608E-04-4.01948E-15
 -1       677 4.19848E-03 3.89938E-04-4.65911E-15
 -1       678 4.48716E-03 3.81745E-04-5.34493E-15
 -1       679 4.77676E-03 3.77195E-04-6.07525E-15
 -1       680 5.06798E-03 3.79358E-04-6.85138E-15
 -1       681 5.36243E-03 3.92560E-04-7.67280E-15
 -1       682 5.66343E-03 4.22868E-04-8.54000E-15
 -1       683 5.97689E-03 4.78864E-04-9.45468E-15
 -1       684 6.31189E-03 5.72725E-04-1.04186E-14
 -1       685 6.67853E-03 7.20124E-04-1.14326E-14
 -1       686 9.18407E-03 1.07348E-03-1.88677E-14
 -1       687 9.58041E-03 9.34837E-04-2.03836E-14
 -1       688 9.94375E-03 8.58586E-04-2.19695E-14
 -1       689 1.02767E-02 8.33381E-04-2.36187E-14
 -1       690 1.05902E-02 8.44456E-04-2.53263E-14
 -1       691 1.08920E-02 8.80174E-04-2.70865E-14
 -1       692 1.11877E-02 9.32210E-04-2.89029E-14
 -1       693 1.14802E-02 9.94690E-04-3.07666E-14
 -1       694 1.17711E-02 1.06347E-03-3.26695E-14
 -1       695 1.20610E-02 1.13567E-03-3.46111E-14
 -1       696 1.23501E-02 1.20938E-03-3.65827E-14
 -1       697 1.26387E-02 1.28336E-03-3.85877E-14
 -1       698 1.29267E-02 1.35688E-03-4.06299E-14
 -1       699 1.32143E-02 1.42952E-03-4.26964E-14
 -1       700 1.35014E-02 1.50109E-03-4.47929E-14
 -1       701 1.37882E-02 1.57156E-03-4.69144E-14
 -1       702 1.40747E-02 1.64094E-03-4.90542E-14
 -1       703 1.43609E-02 1.70932E-03-5.12037E-14
 -1       704 1.45693E-02 1.74303E-03-5.29787E-14
 -1       705 1.42490E-02 1.34959E-03-5.47418E-14
 -1       706 1.39533E-02 9.12401E-04-5.74774E-14
 -1       707 1.43745E-02 1.51302E-03-5.39006E-14
 -1       708 1.41856E-02 1.26807E-03-5.51694E-14
 -1       709 1.43120E-02 1.43117E-03-5.43187E-14
 -1       710 7.75152E-03-6.17409E-04-1.74495E-14
 -1       711 1.41227E-02 1.18781E-03-5.55913E-14
 -1       712 1.40584E-02 1.10587E-03-5.60148E-14
 -1       713 1.39940E-02 1.02350E-03-5.64345E-14
 -1       714 9.50701E-04-2.66326E-04-3.93711E-16
 -1       715 8.44200E-03-4.04514E-04-2.00294E-14
 -1       716 6.88777E-03-3.18161E-04-1.45319E-14
 -1       717 1.62107E-03 3.86917E-04-6.27960E-16
 -1       718 6.09030E-03 3.92042E-04-1.16128E-14
 -1       719 1.02775E-02 5.39382E-04-2.23860E-14
 -1       720 2.47792E-03 4.26410E-04-1.54302E-15
 -1       721 1.16680E-03-3.02388E-04-5.68759E-16
 -1       722 9.38349E-03 9.45684E-04-1.95027E-14
 -1       723 9.04485E-04 1.22274E-04-2.95140E-16
 -1       724 9.04053E-04-1.19898E-04-3.76720E-16
 -1       725 5.63895E-03 2.29530E-04-1.13996E-14
 -1       726 6.47287E-03 5.71864E-04-1.18421E-14
 -1       727 9.74369E-03 7.47909E-04-2.05631E-14
 -1       728 5.65862E-03 1.92069E-04-1.16104E-14
 -1       729 6.15730E-03 6.95279E-06-1.27041E-14
 -1       730 8.83668E-03-1.77141E-04-2.10607E-14
 -1       731 8.07495E-03-5.68569E-04-1.87747E-14
 -1       732 9.20615E-03 2.92484E-05-2.19898E-14
 -1       733 1.01898E-02 4.50177E-04-2.30731E-14
 -1       734 9.11574E-04-1.72596E-04-3.82032E-16
 -1       735 8.97591E-04-2.26630E-05-3.54361E-16
 -1       736 9.81117E-03 3.13147E-04-2.31956E-14
 -1       737 1.03277E-02 4.90977E-04-2.35245E-14
 -1       738 1.44364E-02 1.59458E-03-5.34919E-14
 -1       739 7.05705E-03-4.49549E-04-1.49826E-14
 -1       740 1.45027E-02 1.66859E-03-5.32365E-14
 -1       741 1.03678E-02 5.25275E-04-2.31932E-14
 -1       742 6.31146E-03-8.52508E-05-1.29386E-14
 -1       743 1.38777E-02 9.47965E-04-5.61935E-14
 -1       744 5.66735E-03 2.46443E-04-1.10842E-14
 -1       745 8.99621E-04-7.03648E-05-3.67206E-16
 -1       746 7.51396E-03-6.12959E-04-1.66607E-14
 -1       747 5.63201E-03 1.35308E-04-1.11343E-14
 -1       748 1.16197E-03 2.38936E-04-3.94785E-16
 -1       749 9.99165E-03 7.10399E-04-2.18137E-14
 -1       750 1.79721E-03-2.99431E-04-1.26394E-15
 -1       751 2.08444E-03-3.12141E-04-1.65196E-15
 -1       752 2.37161E-03-3.18835E-04-2.08952E-15
 -1       753 2.65848E-03-3.20812E-04-2.57627E-15
 -1       754 2.94491E-03-3.19152E-04-3.11275E-15
 -1       755 3.23090E-03-3.14760E-04-3.69899E-15
 -1       756 3.51652E-03-3.08436E-04-4.33340E-15
 -1       757 3.80197E-03-3.00961E-04-5.01414E-15
 -1       758 4.08765E-03-2.93188E-04-5.73933E-15
 -1       759 4.37420E-03-2.86141E-04-6.51085E-15
 -1       760 4.66266E-03-2.81139E-04-7.32993E-15
 -1       761 4.95457E-03-2.79937E-04-8.19275E-15
 -1       762 5.25207E-03-2.84908E-04-9.10749E-15
 -1       763 5.55784E-03-2.99241E-04-1.00764E-14
 -1       764 5.87475E-03-3.27036E-04-1.10986E-14
 -1       765 6.20480E-03-3.72878E-04-1.21779E-14
 -1       766 6.54696E-03-4.39675E-04-1.33138E-14
 -1       767 6.89560E-03-5.24384E-04-1.45135E-14
 -1       768 7.24004E-03-6.08858E-04-1.57800E-14
 -1       769 7.89682E-03-6.45266E-04-1.85019E-14
 -1       770 8.22458E-03-5.55269E-04-1.99688E-14
 -1       771 8.56417E-03-4.15987E-04-2.14985E-14
 -1       772 8.91253E-03-2.63035E-04-2.30909E-14
 -1       773 9.25855E-03-1.22251E-04-2.47405E-14
 -1       774 9.59426E-03-2.07893E-06-2.64441E-14
 -1       775 9.91672E-03 9.84072E-05-2.81992E-14
 -1       776 1.02269E-02 1.83500E-04-2.99970E-14
 -1       777 1.05275E-02 2.57611E-04-3.18360E-14
 -1       778 1.08212E-02 3.24322E-04-3.37208E-14
 -1       779 1.11105E-02 3.86297E-04-3.56484E-14
 -1       780 1.13972E-02 4.45458E-04-3.76064E-14
 -1       781 1.16824E-02 5.03163E-04-3.95859E-14
 -1       782 1.19670E-02 5.60353E-04-4.15966E-14
 -1       783 1.22513E-02 6.17657E-04-4.36486E-14
 -1       784 1.25358E-02 6.75467E-04-4.57435E-14
 -1       785 1.28203E-02 7.34004E-04-4.78812E-14
 -1       786 1.31052E-02 7.93369E-04-5.00545E-14
 -1       787 1.33902E-02 8.53580E-04-5.22515E-14
 -1       788 1.36338E-02 9.00507E-04-5.42156E-14
 -1       789 3.17753E-03 3.49638E-04-2.76053E-15
 -1       790 2.89218E-03 3.54010E-04-2.27877E-15
 -1       791 3.74562E-03 3.34807E-04-3.86816E-15
 -1       792 4.02782E-03 3.26116E-04-4.49371E-15
 -1       793 4.30832E-03 3.18029E-04-5.16671E-15
 -1       794 4.58681E-03 3.12038E-04-5.88513E-15
 -1       795 4.86315E-03 3.10114E-04-6.64769E-15
 -1       796 5.13772E-03 3.14851E-04-7.45786E-15
 -1       797 5.41214E-03 3.29702E-04-8.31430E-15
 -1       798 5.69030E-03 3.59612E-04-9.21566E-15
 -1       799 5.98037E-03 4.13226E-04-1.01646E-14
 -1       800 1.05021E-02 7.49414E-04-2.48090E-14
 -1       801 1.07816E-02 7.85123E-04-2.65477E-14
 -1       802 1.10576E-02 8.35363E-04-2.83397E-14
 -1       803 1.13337E-02 8.95329E-04-3.01836E-14
 -1       804 1.16113E-02 9.61628E-04-3.20723E-14
 -1       805 1.18907E-02 1.03177E-03-3.39963E-14
 -1       806 1.21718E-02 1.10395E-03-3.59543E-14
 -1       807 1.24543E-02 1.17689E-03-3.79410E-14
 -1       808 1.27378E-02 1.24978E-03-3.99588E-14
 -1       809 1.30221E-02 1.32210E-03-4.20068E-14
 -1       810 1.33069E-02 1.39356E-03-4.40893E-14
 -1       811 1.35920E-02 1.46405E-03-4.61984E-14
 -1       812 1.38774E-02 1.53355E-03-4.83304E-14
 -1       813 1.41629E-02 1.60211E-03-5.04780E-14
 -1       814 1.43328E-02 1.63552E-03-5.18544E-14
 -1       815 8.69605E-03-2.88871E-04-2.12986E-14
 -1       816 1.13784E-03 5.76203E-05-5.01423E-16
 -1       817 1.39716E-02 1.25305E-03-5.30503E-14
 -1       818 1.37797E-02 1.01081E-03-5.42944E-14
 -1       819 1.39089E-02 1.17356E-03-5.34623E-14
 -1       820 5.84795E-03 3.12092E-04-1.09550E-14
 -1       821 1.24672E-03 2.95183E-04-4.08856E-16
 -1       822 1.02812E-02 5.94976E-04-2.29237E-14
 -1       823 9.01980E-03-1.04979E-04-2.22361E-14
 -1       824 1.38445E-02 1.09242E-03-5.38799E-14
 -1       825 1.02111E-02 7.36019E-04-2.31262E-14
 -1       826 8.28587E-03-5.08421E-04-1.99582E-14
 -1       827 3.46209E-03 3.42958E-04-3.29063E-15
 -1       828 2.03300E-03 3.44020E-04-1.11704E-15
 -1       829 9.29278E-04-2.17528E-04-3.89554E-16
 -1       830 5.88761E-03 3.83620E-05-1.17482E-14
 -1       831 6.61118E-03-2.33811E-04-1.36663E-14
 -1       832 5.53676E-03 1.91898E-04-1.08068E-14
 -1       833 1.51040E-03-2.79212E-04-9.25594E-16
 -1       834 1.01546E-02 4.26951E-04-2.42490E-14
 -1       835 9.52435E-03 1.73683E-04-2.31326E-14
 -1       836 1.13636E-03 1.19485E-06-5.27105E-16
 -1       837 1.14997E-03 1.75260E-04-4.35673E-16
 -1       838 1.04096E-02 5.71852E-04-2.37430E-14
 -1       839 1.29336E-03-2.59315E-04-7.01906E-16
 -1       840 7.62043E-03-6.66761E-04-1.73291E-14
 -1       841 1.41590E-02 1.49595E-03-5.18101E-14
 -1       842 1.40969E-02 1.41451E-03-5.22206E-14
 -1       843 2.60621E-03 3.55220E-04-1.84389E-15
 -1       844 1.14933E-03-1.72325E-04-5.75603E-16
 -1       845 1.74610E-03 3.28974E-04-8.22737E-16
 -1       846 1.14219E-03 1.15040E-04-4.71093E-16
 -1       847 1.40346E-02 1.33368E-03-5.26316E-14
 -1       848 5.52089E-03 2.07254E-04-1.05023E-14
 -1       849 9.33194E-03 4.26227E-05-2.33849E-14
 -1       850 1.37068E-02 9.55732E-04-5.42561E-14
 -1       851 1.49610E-03 3.16435E-04-5.96660E-16
 -1       852 2.31977E-03 3.52285E-04-1.45707E-15
 -1       853 6.78268E-03-3.71772E-04-1.40950E-14
 -1       854 1.14181E-03-1.12471E-04-5.64276E-16
 -1       855 6.01191E-03-3.35111E-05-1.19693E-14
 -1       856 1.03290E-02 4.78762E-04-2.47155E-14
 -1       857 1.04715E-02 5.34531E-04-2.45895E-14
 -1       858 2.21539E-03-2.45660E-04-1.84220E-15
 -1       859 2.50261E-03-2.49049E-04-2.29660E-15
 -1       860 2.78915E-03-2.48873E-04-2.79994E-15
 -1       861 3.07472E-03-2.45894E-04-3.35258E-15
 -1       862 3.35917E-03-2.40748E-04-3.95464E-15
 -1       863 3.64247E-03-2.33993E-04-4.60246E-15
 -1       864 3.92480E-03-2.26171E-04-5.29624E-15
 -1       865 4.20655E-03-2.17888E-04-6.03610E-15
 -1       866 4.48849E-03-2.09901E-04-6.82205E-15
 -1       867 4.77191E-03-2.03258E-04-7.65501E-15
 -1       868 5.05884E-03-1.99521E-04-8.53354E-15
 -1       869 5.35229E-03-2.01150E-04-9.46530E-15
 -1       870 5.65633E-03-2.12038E-04-1.04499E-14
 -1       871 5.97562E-03-2.38216E-04-1.14876E-14
 -1       872 6.31482E-03-2.88235E-04-1.25800E-14
 -1       873 9.19812E-03-7.48500E-05-2.36510E-14
 -1       874 9.54598E-03 5.31392E-05-2.53179E-14
 -1       875 9.87338E-03 1.53705E-04-2.70378E-14
 -1       876 1.01833E-02 2.35679E-04-2.88074E-14
 -1       877 1.04804E-02 3.06079E-04-3.06200E-14
 -1       878 1.07691E-02 3.69689E-04-3.24768E-14
 -1       879 1.10530E-02 4.29491E-04-3.43792E-14
 -1       880 1.13343E-02 4.87326E-04-3.63208E-14
 -1       881 1.16146E-02 5.44346E-04-3.82879E-14
 -1       882 1.18949E-02 6.01281E-04-4.02801E-14
 -1       883 1.21757E-02 6.58584E-04-4.23098E-14
 -1       884 1.24572E-02 7.16522E-04-4.43780E-14
 -1       885 1.27394E-02 7.75234E-04-4.64873E-14
 -1       886 1.30224E-02 8.34769E-04-4.86317E-14
 -1       887 1.33061E-02 8.95125E-04-5.08081E-14
 -1       888 3.02058E-03 2.81704E-04-2.62769E-15
 -1       889 4.13955E-03 2.57738E-04-4.97903E-15
 -1       890 3.86408E-03 2.64307E-04-4.31973E-15
 -1       891 4.67753E-03 2.49784E-04-6.43488E-15
 -1       892 4.93835E-03 2.51279E-04-7.23268E-15
 -1       893 5.19290E-03 2.58719E-04-8.07750E-15
 -1       894 5.44136E-03 2.74135E-04-8.96723E-15
 -1       895 5.68615E-03 3.00900E-04-9.90271E-15
 -1       896 1.11989E-02 8.04243E-04-2.95995E-14
 -1       897 1.09425E-02 7.46906E-04-2.77794E-14
 -1       898 1.06914E-02 6.97369E-04-2.60127E-14
 -1       899 1.14611E-02 8.67307E-04-3.14727E-14
 -1       900 1.17284E-02 9.34348E-04-3.33802E-14
 -1       901 1.20001E-02 1.00389E-03-3.53247E-14
 -1       902 1.22753E-02 1.07476E-03-3.72994E-14
 -1       903 1.25533E-02 1.14611E-03-3.92988E-14
 -1       904 1.28334E-02 1.21732E-03-4.13300E-14
 -1       905 1.31151E-02 1.28804E-03-4.33957E-14
 -1       906 1.33980E-02 1.35805E-03-4.54920E-14
 -1       907 1.36817E-02 1.42726E-03-4.76117E-14
 -1       908 1.39661E-02 1.49568E-03-4.97540E-14
 -1       909 5.62449E-03 2.52906E-04-1.03843E-14
 -1       910 1.42458E-02 1.56550E-03-5.18312E-14
 -1       911 1.36952E-02 1.15805E-03-5.13630E-14
 -1       912 1.04437E-02 6.59735E-04-2.42967E-14
 -1       913 1.41070E-03 2.59541E-04-5.79526E-16
 -1       914 4.41099E-03 2.52457E-04-5.68441E-15
 -1       915 5.60421E-03 5.77653E-05-1.07261E-14
 -1       916 1.13765E-03-5.50942E-05-5.48142E-16
 -1       917 9.85177E-03 2.90100E-04-2.44991E-14
 -1       918 1.92793E-03-2.37794E-04-1.43649E-15
 -1       919 6.32235E-03-1.89931E-04-1.27192E-14
 -1       920 5.41267E-03 1.39696E-04-1.01240E-14
 -1       921 1.64090E-03-2.24397E-04-1.07881E-15
 -1       922 2.16238E-03 2.78397E-04-1.36306E-15
 -1       923 1.37586E-02 1.23778E-03-5.09548E-14
 -1       924 8.83332E-03-2.34861E-04-2.20400E-14
 -1       925 2.73557E-03 2.83997E-04-2.15889E-15
 -1       926 3.30399E-03 2.77143E-04-3.14415E-15
 -1       927 1.35062E-02 9.25319E-04-5.25259E-14
 -1       928 1.01692E-02 3.97281E-04-2.55424E-14
 -1       929 3.58533E-03 2.71079E-04-3.70740E-15
 -1       930 1.37972E-03 3.31462E-05-7.26388E-16
 -1       931 5.69964E-03 4.86363E-06-1.09338E-14
 -1       932 1.38822E-02 1.39730E-03-5.01408E-14
 -1       933 1.36308E-02 1.07790E-03-5.17731E-14
 -1       934 1.42369E-03-2.11322E-04-8.38779E-16
 -1       935 1.38319E-03 9.69693E-05-6.89891E-16
 -1       936 5.36336E-03 1.60480E-04-9.83646E-15
 -1       937 9.67305E-03 1.77245E-04-2.47592E-14
 -1       938 1.03551E-02 4.58843E-04-2.60281E-14
 -1       939 1.87510E-03 2.68470E-04-1.03377E-15
 -1       940 1.38966E-03-1.59667E-04-8.01757E-16
 -1       941 2.44937E-03 2.83207E-04-1.73736E-15
 -1       942 1.35755E-02 9.93326E-04-5.23425E-14
 -1       943 5.42078E-03 2.29174E-04-9.42423E-15
 -1       944 1.05478E-02 5.32697E-04-2.60374E-14
 -1       945 1.00257E-02 3.10598E-04-2.59728E-14
 -1       946 2.63564E-03-1.78875E-04-2.50114E-15
 -1       947 2.92112E-03-1.77295E-04-3.02037E-15
 -1       948 3.20502E-03-1.73636E-04-3.58848E-15
 -1       949 3.48705E-03-1.68252E-04-4.20389E-15
 -1       950 3.76709E-03-1.61427E-04-4.86455E-15
 -1       951 4.04519E-03-1.53415E-04-5.57175E-15
 -1       952 4.32169E-03-1.44491E-04-6.32681E-15
 -1       953 4.59731E-03-1.35045E-04-7.12710E-15
 -1       954 4.87341E-03-1.25727E-04-7.97455E-15
 -1       955 5.15218E-03-1.17698E-04-8.87048E-15
 -1       956 5.43764E-03-1.13638E-04-9.81757E-15
 -1       957 5.73493E-03-1.18089E-04-1.08161E-14
 -1       958 9.85232E-03 2.17104E-04-2.58894E-14
 -1       959 1.01569E-02 2.92835E-04-2.76276E-14
 -1       960 1.04462E-02 3.56852E-04-2.94161E-14
 -1       961 1.07265E-02 4.15323E-04-3.12460E-14
 -1       962 1.10024E-02 4.71596E-04-3.31183E-14
 -1       963 1.12766E-02 5.27302E-04-3.50389E-14
 -1       964 1.15509E-02 5.83249E-04-3.69923E-14
 -1       965 1.18260E-02 6.39830E-04-3.89685E-14
 -1       966 1.21026E-02 6.97227E-04-4.09740E-14
 -1       967 1.23806E-02 7.55505E-04-4.30219E-14
 -1       968 1.26602E-02 8.14665E-04-4.51029E-14
 -1       969 1.29410E-02 8.74662E-04-4.72237E-14
 -1       970 1.32231E-02 9.35440E-04-4.93731E-14
 -1       971 5.00931E-03 2.01713E-04-7.83025E-15
 -1       972 4.76490E-03 1.95697E-04-6.99774E-15
 -1       973 1.37962E-03-3.02451E-05-7.57217E-16
 -1       974 1.10694E-02 7.22337E-04-2.90212E-14
 -1       975 1.05745E-02 5.84531E-04-2.52280E-14
 -1       976 1.15702E-02 8.44019E-04-3.27669E-14
 -1       977 1.13153E-02 7.81148E-04-3.08714E-14
 -1       978 1.08344E-02 6.68696E-04-2.72254E-14
 -1       979 1.18322E-02 9.09857E-04-3.46930E-14
 -1       980 1.20998E-02 9.77639E-04-3.66541E-14
 -1       981 1.23718E-02 1.04651E-03-3.86441E-14
 -1       982 1.26473E-02 1.11581E-03-4.06605E-14
 -1       983 1.29255E-02 1.18509E-03-4.27123E-14
 -1       984 1.32057E-02 1.25404E-03-4.47930E-14
 -1       985 1.34874E-02 1.32251E-03-4.69011E-14
 -1       986 2.29445E-03 2.11561E-04-1.62417E-15
 -1       987 1.60624E-03-1.70096E-04-1.03461E-15
 -1       988 1.64257E-03 2.67067E-04-7.89570E-16
 -1       989 1.38284E-03-9.41978E-05-7.82736E-16
 -1       990 1.38208E-02 1.31734E-03-5.05447E-14
 -1       991 1.44628E-03 1.88302E-04-6.77325E-16
 -1       992 2.06171E-03-1.73865E-04-1.60727E-15
 -1       993 5.97180E-03-1.09996E-04-1.16433E-14
 -1       994 5.32227E-03 6.96875E-05-9.65347E-15
 -1       995 5.22038E-03 2.13072E-04-8.60923E-15
 -1       996 3.98064E-03 1.98543E-04-4.78233E-15
 -1       997 1.83368E-03-1.73615E-04-1.30621E-15
 -1       998 2.34897E-03-1.77920E-04-2.03042E-15
 -1       999 1.34828E-02 1.14230E-03-4.92917E-14
 -1      1000 1.06995E-02 5.85879E-04-2.66977E-14
 -1      1001 5.19942E-03 1.18720E-04-9.13771E-15
 -1      1002 2.86612E-03 2.13453E-04-2.48850E-15
 -1      1003 4.24885E-03 1.95237E-04-5.47632E-15
 -1      1004 3.70735E-03 2.02836E-04-4.13723E-15
 -1      1005 3.14934E-03 2.11016E-04-2.99147E-15
 -1      1006 1.62492E-03 1.63713E-06-9.92750E-16
 -1      1007 2.00729E-03 2.05692E-04-1.26118E-15
 -1      1008 4.51078E-03 1.93920E-04-6.21246E-15
 -1      1009 1.03382E-02 4.19497E-04-2.69641E-14
 -1      1010 1.34275E-02 1.24411E-03-4.72979E-14
 -1      1011 5.44739E-03-8.53432E-06-9.99411E-15
 -1      1012 1.34185E-02 1.06336E-03-4.96920E-14
 -1      1013 2.58096E-03 2.13878E-04-2.03247E-15
 -1      1014 1.62689E-03 7.05696E-05-9.50849E-16
 -1      1015 1.19245E-02 8.85603E-04-3.60114E-14
 -1      1016 5.18673E-03 1.65226E-04-8.87856E-15
 -1      1017 3.05464E-03-1.06625E-04-3.23632E-15
 -1      1018 3.33626E-03-1.02948E-04-3.81826E-15
 -1      1019 3.61520E-03-9.78578E-05-4.44578E-15
 -1      1020 3.89117E-03-9.13470E-05-5.12098E-15
 -1      1021 4.16402E-03-8.33451E-05-5.84290E-15
 -1      1022 4.43385E-03-7.37429E-05-6.61291E-15
 -1      1023 4.70107E-03-6.24865E-05-7.42873E-15
 -1      1024 4.96682E-03-4.97732E-05-8.29129E-15
 -1      1025 1.14103E-02 7.60543E-04-3.21514E-14
 -1      1026 1.62669E-03-6.74519E-05-1.02878E-15
 -1      1027 1.04282E-02 4.08267E-04-2.82216E-14
 -1      1028 1.06945E-02 4.60002E-04-3.00246E-14
 -1      1029 1.09587E-02 5.11699E-04-3.18687E-14
 -1      1030 1.12236E-02 5.64707E-04-3.37590E-14
 -1      1031 1.14903E-02 6.19345E-04-3.56969E-14
 -1      1032 1.17594E-02 6.75569E-04-3.76645E-14
 -1      1033 1.20311E-02 7.33212E-04-3.96497E-14
 -1      1034 1.23054E-02 7.92079E-04-4.16693E-14
 -1      1035 1.25819E-02 8.51984E-04-4.37291E-14
 -1      1036 1.28604E-02 9.12774E-04-4.58254E-14
 -1      1037 1.31406E-02 9.74272E-04-4.79560E-14
 -1      1038 4.61357E-03 1.42210E-04-6.75391E-15
 -1      1039 1.06230E-02 5.21830E-04-2.75777E-14
 -1      1040 1.16637E-02 8.21764E-04-3.40625E-14
 -1      1041 1.09347E-02 6.49738E-04-2.84493E-14
 -1      1042 1.21910E-02 9.51204E-04-3.79901E-14
 -1      1043 1.24621E-02 1.01786E-03-3.99957E-14
 -1      1044 1.27368E-02 1.08504E-03-4.20331E-14
 -1      1045 1.30143E-02 1.15235E-03-4.41013E-14
 -1      1046 1.32205E-02 1.19837E-03-4.56907E-14
 -1      1047 3.42998E-03 2.07248E-04-3.54080E-15
 -1      1048 1.72623E-03 1.99865E-04-9.45926E-16
 -1      1049 1.11663E-02 7.02874E-04-3.02752E-14
 -1      1050 2.77074E-03-1.08817E-04-2.70214E-15
 -1      1051 1.34558E-02 1.19350E-03-4.82908E-14
 -1      1052 2.19836E-03-1.08005E-04-1.77613E-15
 -1      1053 1.67491E-03 1.33983E-04-9.52343E-16
 -1      1054 2.48509E-03-1.09360E-04-2.21565E-15
 -1      1055 5.17567E-03 6.85064E-06-9.04023E-15
 -1      1056 5.04234E-03 6.60283E-05-8.55175E-15
 -1      1057 4.85695E-03 1.49525E-04-7.57346E-15
 -1      1058 1.08076E-02 5.83252E-04-2.82593E-14
 -1      1059 5.02645E-03 1.55923E-04-8.21353E-15
 -1      1060 1.87288E-03 3.82599E-05-1.25412E-15
 -1      1061 4.09842E-03 1.37707E-04-5.25898E-15
 -1      1062 3.83029E-03 1.38581E-04-4.57947E-15
 -1      1063 2.99837E-03 1.44135E-04-2.83275E-15
 -1      1064 1.06545E-02 4.93267E-04-2.87967E-14
 -1      1065 2.14240E-03 1.40982E-04-1.50317E-15
 -1      1066 1.87280E-03-3.47360E-05-1.30133E-15
 -1      1067 1.97018E-03-1.11032E-04-1.46289E-15
 -1      1068 2.71470E-03 1.44810E-04-2.34275E-15
 -1      1069 5.02193E-03 1.12998E-04-8.38668E-15
 -1      1070 1.32060E-02 1.05222E-03-4.75613E-14
 -1      1071 4.36002E-03 1.38600E-04-5.98380E-15
 -1      1072 1.31801E-02 1.10247E-03-4.65724E-14
 -1      1073 2.42911E-03 1.43948E-04-1.89941E-15
 -1      1074 1.22759E-02 9.23312E-04-3.93294E-14
 -1      1075 3.19015E-03-3.73683E-05-3.44633E-15
 -1      1076 3.46912E-03-3.43368E-05-4.04149E-15
 -1      1077 3.74460E-03-3.00791E-05-4.68323E-15
 -1      1078 4.01592E-03-2.43629E-05-5.37142E-15
 -1      1079 4.28274E-03-1.67021E-05-6.10847E-15
 -1      1080 4.54461E-03-6.65277E-06-6.89327E-15
 -1      1081 4.80130E-03 6.15169E-06-7.72382E-15
 -1      1082 4.72661E-03 9.56135E-05-7.31062E-15
 -1      1083 2.33791E-03-4.06699E-05-1.94220E-15
 -1      1084 3.27940E-03 1.42486E-04-3.36794E-15
 -1      1085 1.09041E-02 5.40495E-04-3.06130E-14
 -1      1086 1.11580E-02 5.90848E-04-3.24758E-14
 -1      1087 1.14164E-02 6.44198E-04-3.43863E-14
 -1      1088 1.16791E-02 7.00094E-04-3.63385E-14
 -1      1089 1.19459E-02 7.58040E-04-3.83130E-14
 -1      1090 1.22164E-02 8.17586E-04-4.03123E-14
 -1      1091 1.24899E-02 8.78358E-04-4.23453E-14
 -1      1092 1.27662E-02 9.40057E-04-4.44199E-14
 -1      1093 1.90844E-03 1.38654E-04-1.21198E-15
 -1      1094 1.25477E-02 9.87882E-04-4.13517E-14
 -1      1095 1.20083E-02 8.59810E-04-3.73330E-14
 -1      1096 1.28229E-02 1.05308E-03-4.34079E-14
 -1      1097 2.90819E-03-3.93742E-05-2.89849E-15
 -1      1098 2.62386E-03-4.04692E-05-2.39737E-15
 -1      1099 1.10042E-02 6.30383E-04-2.96811E-14
 -1      1100 4.47829E-03 8.67359E-05-6.50555E-15
 -1      1101 2.28047E-03 7.47249E-05-1.76001E-15
 -1      1102 1.32008E-02 1.15043E-03-4.61313E-14
 -1      1103 4.22117E-03 8.11695E-05-5.74679E-15
 -1      1104 1.12418E-02 6.82355E-04-3.15364E-14
 -1      1105 1.17458E-02 7.97967E-04-3.53651E-14
 -1      1106 2.04656E-03 7.49340E-05-1.44220E-15
 -1      1107 3.95697E-03 7.81169E-05-5.03533E-15
 -1      1108 3.13308E-03 7.63814E-05-3.18927E-15
 -1      1109 3.55701E-03 1.40445E-04-3.94964E-15
 -1      1110 1.08567E-02 5.64475E-04-2.94324E-14
 -1      1111 1.14898E-02 7.38525E-04-3.34312E-14
 -1      1112 1.30113E-02 1.10163E-03-4.47619E-14
 -1      1113 2.85102E-03 7.64006E-05-2.66726E-15
 -1      1114 2.56654E-03 7.59746E-05-2.19039E-15
 -1      1115 2.10531E-03-3.79617E-05-1.60592E-15
 -1      1116 2.07546E-03 1.87174E-05-1.52617E-15
 -1      1117 3.60466E-03 3.17770E-05-4.25882E-15
 -1      1118 1.10979E-02 6.12740E-04-3.12710E-14
 -1      1119 1.13473E-02 6.65196E-04-3.31560E-14
 -1      1120 1.16035E-02 7.21057E-04-3.50844E-14
 -1      1121 1.18655E-02 7.79556E-04-3.70465E-14
 -1      1122 1.21323E-02 8.40020E-04-3.90328E-14
 -1      1123 1.24031E-02 9.01895E-04-4.10470E-14
 -1      1124 1.26772E-02 9.64754E-04-4.30979E-14
 -1      1125 3.36991E-03 5.33192E-05-3.70448E-15
 -1      1126 1.28554E-02 1.03351E-03-4.40356E-14
 -1      1127 0.00000E+00 0.00000E+00 0.00000E+00
 -1      1128 0.00000E+00 0.00000E+00 0.00000E+00
 -1      1129 0.00000E+00 0.00000E+00 0.00000E+00
 -1      1130 0.00000E+00 0.00000E+00 0.00000E+00
 -1      1131 0.00000E+00 0.00000E+00 0.00000E+00
 -1      1132 0.00000E+00 0.00000E+00 0.00000E+00
 -1      1133 0.00000E+00 0.00000E+00 0.00000E+00
 -1      1134 0.00000E+00 0.00000E+00 0.00000E+00
 -1      1135 0.00000E+00 0.00000E+00 0.00000E+00
 -1      1136 0.00000E+00 0.00000E+00 0.00000E+00
 -1      1137 0.00000E+00 0.00000E+00 0.00000E+00
 -1      1138 0.00000E+00 0.00000E+00 0.00000E+00
 -1      1139 0.00000E+00 0.00000E+00 0.00000E+00
 -1      1140 0.00000E+00 0.00000E+00 0.00000E+00
 -1      1141 0.00000E+00 0.00000E+00 0.00000E+00
 -1      1142 0.00000E+00 0.00000E+00 0.00000E+00
 -1      1143 0.00000E+00 0.00000E+00 0.00000E+00
 -1      1144 2.11074E-04-1.47934E-04-5.14996E-19
 -1      1145 5.50099E-04-3.36200E-04-4.41541E-17
 -1      1146 8.31227E-04-4.56473E-04-1.47302E-16
 -1      1147 1.10028E-03-5.36608E-04-3.18742E-16
 -1      1148 1.36538E-03-5.91918E-04-5.54122E-16
 -1      1149 1.63017E-03-6.30227E-04-8.50028E-16
 -1      1150 1.89662E-03-6.56114E-04-1.20544E-15
 -1      1151 2.16578E-03-6.72641E-04-1.61814E-15
 -1      1152 2.43820E-03-6.82071E-04-2.08751E-15
 -1      1153 2.71422E-03-6.86154E-04-2.61439E-15
 -1      1154 2.99411E-03-6.86313E-04-3.19607E-15
 -1      1155 3.27815E-03-6.83771E-04-3.82455E-15
 -1      1156 3.56667E-03-6.79682E-04-4.50058E-15
 -1      1157 3.86007E-03-6.75245E-04-5.22451E-15
 -1      1158 4.15877E-03-6.71817E-04-5.99482E-15
 -1      1159 4.46308E-03-6.71008E-04-6.81192E-15
 -1      1160 4.77311E-03-6.74725E-04-7.67663E-15
 -1      1161 5.08846E-03-6.85135E-04-8.58685E-15
 -1      1162 5.40800E-03-7.04459E-04-9.54990E-15
 -1      1163 5.72950E-03-7.34513E-04-1.05690E-14
 -1      1164 6.04951E-03-7.75940E-04-1.16464E-14
 -1      1165 6.36348E-03-8.27153E-04-1.27833E-14
 -1      1166 6.66645E-03-8.83295E-04-1.39818E-14
 -1      1167 6.95447E-03-9.35776E-04-1.52467E-14
 -1      1168 7.22629E-03-9.73174E-04-1.65835E-14
 -1      1169 7.48477E-03-9.83848E-04-1.79869E-14
 -1      1170 7.73679E-03-9.59633E-04-1.94471E-14
 -1      1171 7.99137E-03-8.98875E-04-2.09636E-14
 -1      1172 8.25669E-03-8.07090E-04-2.25536E-14
 -1      1173 8.53751E-03-6.94817E-04-2.42072E-14
 -1      1174 8.83434E-03-5.73968E-04-2.59188E-14
 -1      1175 9.14424E-03-4.54587E-04-2.76797E-14
 -1      1176 9.46255E-03-3.43192E-04-2.94764E-14
 -1      1177 9.78449E-03-2.42711E-04-3.13151E-14
 -1      1178 1.01061E-02-1.53370E-04-3.31924E-14
 -1      1179 1.04248E-02-7.37954E-05-3.51028E-14
 -1      1180 1.07391E-02-1.93707E-06-3.70390E-14
 -1      1181 1.10485E-02 6.43264E-05-3.90008E-14
 -1      1182 1.13530E-02 1.26868E-04-4.09872E-14
 -1      1183 1.16532E-02 1.87187E-04-4.30179E-14
 -1      1184 1.19496E-02 2.46401E-04-4.50979E-14
 -1      1185 1.22430E-02 3.05292E-04-4.72309E-14
 -1      1186 1.25340E-02 3.64372E-04-4.94220E-14
 -1      1187 1.28232E-02 4.23948E-04-5.16598E-14
 -1      1188 1.31109E-02 4.84185E-04-5.39277E-14
 -1      1189 1.33977E-02 5.45147E-04-5.62128E-14
 -1      1190 1.36839E-02 6.06830E-04-5.85086E-14
 -1      1191 1.39697E-02 6.69180E-04-6.08022E-14
 -1      1192 1.42553E-02 7.32078E-04-6.30968E-14
 -1      1193 1.45338E-02 7.93703E-04-6.53525E-14
 -1      1194 2.27777E-04 1.60281E-04 2.18738E-17
 -1      1195 5.52231E-04 3.40820E-04 4.37205E-17
 -1      1196 8.32086E-04 4.58628E-04 3.04932E-17
 -1      1197 1.10107E-03 5.38261E-04-2.50044E-17
 -1      1198 1.36612E-03 5.93518E-04-1.25564E-16
 -1      1199 1.63088E-03 6.31824E-04-2.74452E-16
 -1      1200 1.89731E-03 6.57655E-04-4.72726E-16
 -1      1201 2.16642E-03 6.74034E-04-7.19327E-16
 -1      1202 2.43881E-03 6.83157E-04-1.01479E-15
 -1      1203 2.71487E-03 6.86689E-04-1.35894E-15
 -1      1204 2.99499E-03 6.85933E-04-1.75516E-15
 -1      1205 3.27964E-03 6.81968E-04-2.20061E-15
 -1      1206 3.56952E-03 6.75776E-04-2.69268E-15
 -1      1207 3.86559E-03 6.68393E-04-3.23016E-15
 -1      1208 4.16918E-03 6.61091E-04-3.81826E-15
 -1      1209 4.48202E-03 6.55626E-04-4.45839E-15
 -1      1210 4.80619E-03 6.54560E-04-5.14198E-15
 -1      1211 5.14403E-03 6.61687E-04-5.86742E-15
 -1      1212 5.49763E-03 6.82524E-04-6.63754E-15
 -1      1213 5.86802E-03 7.24658E-04-7.45321E-15
 -1      1214 6.25362E-03 7.97448E-04-8.31794E-15
 -1      1215 6.64810E-03 9.09967E-04-9.22672E-15
 -1      1216 7.03856E-03 1.06586E-03-1.01813E-14
 -1      1217 7.40637E-03 1.25487E-03-1.11942E-14
 -1      1218 7.73397E-03 1.44567E-03-1.22689E-14
 -1      1219 8.01763E-03 1.58997E-03-1.34067E-14
 -1      1220 8.27655E-03 1.64475E-03-1.46104E-14
 -1      1221 8.54541E-03 1.60036E-03-1.58952E-14
 -1      1222 8.85250E-03 1.48773E-03-1.72705E-14
 -1      1223 9.20406E-03 1.35665E-03-1.87360E-14
 -1      1224 9.58710E-03 1.24767E-03-2.02812E-14
 -1      1225 9.98219E-03 1.17985E-03-2.18907E-14
 -1      1226 1.03734E-02 1.15442E-03-2.35564E-14
 -1      1227 1.07517E-02 1.16379E-03-2.52763E-14
 -1      1228 1.11137E-02 1.19834E-03-2.70580E-14
 -1      1229 1.14596E-02 1.24965E-03-2.88986E-14
 -1      1230 1.17914E-02 1.31137E-03-3.07903E-14
 -1      1231 1.21114E-02 1.37913E-03-3.27326E-14
 -1      1232 1.24223E-02 1.45003E-03-3.47208E-14
 -1      1233 1.27260E-02 1.52225E-03-3.67322E-14
 -1      1234 1.30242E-02 1.59468E-03-3.87776E-14
 -1      1235 1.33185E-02 1.66668E-03-4.08608E-14
 -1      1236 1.36099E-02 1.73791E-03-4.29581E-14
 -1      1237 1.38991E-02 1.80821E-03-4.50719E-14
 -1      1238 1.41868E-02 1.87756E-03-4.71854E-14
 -1      1239 1.44736E-02 1.94599E-03-4.93150E-14
 -1      1240 1.47597E-02 2.01357E-03-5.14620E-14
 -1      1241 1.50454E-02 2.08040E-03-5.36192E-14
 -1      1242 1.53310E-02 2.14666E-03-5.57916E-14
 -1      1243 1.56095E-02 2.21095E-03-5.79340E-14
 -1      1244 1.57128E-02 2.20010E-03-5.91904E-14
 -1      1245 1.56480E-02 2.11573E-03-5.96206E-14
 -1      1246 1.55835E-02 2.03134E-03-6.00378E-14
 -1      1247 1.55194E-02 1.94709E-03-6.04426E-14
 -1      1248 1.54559E-02 1.86313E-03-6.08642E-14
 -1      1249 1.53931E-02 1.78027E-03-6.13132E-14
 -1      1250 1.53306E-02 1.69779E-03-6.17726E-14
 -1      1251 1.52674E-02 1.61492E-03-6.22116E-14
 -1      1252 1.52041E-02 1.53221E-03-6.26730E-14
 -1      1253 1.51405E-02 1.44950E-03-6.31321E-14
 -1      1254 1.50769E-02 1.36663E-03-6.35609E-14
 -1      1255 1.50136E-02 1.28417E-03-6.40121E-14
 -1      1256 1.49506E-02 1.20134E-03-6.44997E-14
 -1      1257 1.48872E-02 1.11742E-03-6.49626E-14
 -1      1258 1.48242E-02 1.03320E-03-6.53977E-14
 -1      1259 1.47617E-02 9.48838E-04-6.58262E-14
 -1      1260 1.47001E-02 8.65190E-04-6.62505E-14
 -1      1261 1.02422E-02 5.08094E-04-1.97065E-14
 -1      1262 1.01438E-02 6.64934E-04-1.93685E-14
 -1      1263 9.94107E-03 8.18472E-04-1.89109E-14
 -1      1264 9.63669E-03 9.77945E-04-1.83277E-14
 -1      1265 9.25084E-03 1.12940E-03-1.76602E-14
 -1      1266 8.81681E-03 1.24698E-03-1.69617E-14
 -1      1267 8.33625E-03 1.30849E-03-1.62300E-14
 -1      1268 7.85689E-03 1.29826E-03-1.55536E-14
 -1      1269 7.38852E-03 1.21795E-03-1.49534E-14
 -1      1270 6.92257E-03 1.07642E-03-1.44118E-14
 -1      1271 6.50840E-03 9.04222E-04-1.39902E-14
 -1      1272 6.17367E-03 7.30244E-04-1.37088E-14
 -1      1273 5.91442E-03 5.55734E-04-1.35544E-14
 -1      1274 5.76072E-03 3.91367E-04-1.35341E-14
 -1      1275 5.72640E-03 2.43714E-04-1.36376E-14
 -1      1276 5.80698E-03 9.68529E-05-1.38684E-14
 -1      1277 5.99441E-03-4.90727E-05-1.42248E-14
 -1      1278 6.27233E-03-1.91712E-04-1.46870E-14
 -1      1279 6.63567E-03-3.27272E-04-1.52640E-14
 -1      1280 7.04456E-03-4.35369E-04-1.59037E-14
 -1      1281 7.50983E-03-5.00824E-04-1.66308E-14
 -1      1282 7.98997E-03-5.07494E-04-1.73681E-14
 -1      1283 8.42571E-03-4.55356E-04-1.80189E-14
 -1      1284 8.85098E-03-3.55334E-04-1.86153E-14
 -1      1285 9.24222E-03-2.25908E-04-1.91147E-14
 -1      1286 9.58073E-03-8.49946E-05-1.94911E-14
 -1      1287 9.86965E-03 6.27736E-05-1.97500E-14
 -1      1288 1.00878E-02 2.09494E-04-1.98835E-14
 -1      1289 1.02179E-02 3.55008E-04-1.98765E-14
 -1      1290 1.66322E-04-1.10050E-04-9.37835E-18
 -1      1291 1.12448E-04-5.67846E-05-1.77267E-17
 -1      1292 1.17462E-04-6.73894E-05-1.53008E-17
 -1      1293 1.08417E-04-4.32818E-05-2.14943E-17
 -1      1294 1.10237E-04-4.94019E-05-2.04372E-17
 -1      1295 2.26198E-04-1.07151E-04-4.82877E-17
 -1      1296 1.06907E-04-3.33919E-05-2.30122E-17
 -1      1297 1.07725E-04-3.81203E-05-2.26056E-17
 -1      1298 2.19140E-04-8.19757E-05-5.43727E-17
 -1      1299 1.06161E-04-2.51240E-05-2.35949E-17
 -1      1300 1.06580E-04-2.91478E-05-2.35136E-17
 -1      1301 2.16021E-04-6.27780E-05-5.70019E-17
 -1      1302 1.05770E-04-1.78968E-05-2.31884E-17
 -1      1303 1.05993E-04-2.14431E-05-2.34052E-17
 -1      1304 2.14402E-04-4.67158E-05-5.73814E-17
 -1      1305 1.05557E-04-1.11025E-05-2.27140E-17
 -1      1306 1.05677E-04-1.44537E-05-2.29309E-17
 -1      1307 2.13502E-04-3.23691E-05-5.64869E-17
 -1      1308 1.05460E-04-4.63002E-06-2.17925E-17
 -1      1309 1.05512E-04-7.84098E-06-2.21448E-17
 -1      1310 2.13011E-04-1.89414E-05-5.49013E-17
 -1      1311 1.05450E-04 1.71543E-06-2.05592E-17
 -1      1312 1.05447E-04-1.45287E-06-2.09251E-17
 -1      1313 2.12797E-04-6.07976E-06-5.25567E-17
 -1      1314 1.05523E-04 8.11430E-06-1.92581E-17
 -1      1315 1.05466E-04 4.89625E-06-1.96241E-17
 -1      1316 2.12808E-04 6.61003E-06-4.96429E-17
 -1      1317 1.05699E-04 1.47546E-05-1.77403E-17
 -1      1318 1.05572E-04 1.13875E-05-1.81468E-17
 -1      1319 2.13044E-04 1.95001E-05-4.63090E-17
 -1      1320 1.06022E-04 2.17323E-05-1.54905E-17
 -1      1321 1.05793E-04 1.81611E-05-1.61817E-17
 -1      1322 2.13555E-04 3.28729E-05-4.21890E-17
 -1      1323 1.06621E-04 2.95860E-05-1.26581E-17
 -1      1324 1.06196E-04 2.55157E-05-1.35932E-17
 -1      1325 2.14478E-04 4.73209E-05-3.66731E-17
 -1      1326 1.07763E-04 3.86976E-05-9.22927E-18
 -1      1327 1.06939E-04 3.38993E-05-1.05845E-17
 -1      1328 2.16130E-04 6.37072E-05-2.99375E-17
 -1      1329 1.10223E-04 5.01504E-05-3.93023E-18
 -1      1330 1.08430E-04 4.39579E-05-6.19350E-18
 -1      1331 2.19252E-04 8.32217E-05-2.12233E-17
 -1      1332 1.16773E-04 6.74342E-05 3.40168E-18
 -1      1333 1.12092E-04 5.75922E-05-1.35525E-20
 -1      1334 2.26188E-04 1.08986E-04-9.02598E-18
 -1      1335 1.57190E-04 1.09579E-04 1.38100E-17
 -1      1336 1.35410E-04 8.58652E-05 7.92823E-18
 -1      1337 2.55648E-04 1.51579E-04 4.97378E-18
 -1      1338 3.34265E-04 2.20040E-04 2.31206E-17
 -1      1339 4.20580E-04-2.60774E-04-4.47369E-17
 -1      1340 5.73361E-04-3.35287E-04-8.11119E-17
 -1      1341 7.20276E-04-3.95270E-04-1.35552E-16
 -1      1342 8.63210E-04-4.43869E-04-2.06256E-16
 -1      1343 6.11071E-04-3.29142E-04-1.22257E-16
 -1      1344 1.00305E-03-4.84157E-04-2.92870E-16
 -1      1345 1.14076E-03-5.17267E-04-3.95246E-16
 -1      1346 9.03976E-04-4.28424E-04-2.66199E-16
 -1      1347 1.27718E-03-5.45055E-04-5.12801E-16
 -1      1348 1.41282E-03-5.67995E-04-6.45642E-16
 -1      1349 1.18627E-03-4.96058E-04-4.71885E-16
 -1      1350 1.54814E-03-5.87137E-04-7.93229E-16
 -1      1351 1.68340E-03-6.02810E-04-9.55833E-16
 -1      1352 1.46332E-03-5.42595E-04-7.37230E-16
 -1      1353 1.81888E-03-6.15626E-04-1.13229E-15
 -1      1354 1.95469E-03-6.25879E-04-1.32315E-15
 -1      1355 1.73849E-03-5.74133E-04-1.06036E-15
 -1      1356 2.09100E-03-6.33953E-04-1.52836E-15
 -1      1357 2.22787E-03-6.40106E-04-1.74780E-15
 -1      1358 2.01378E-03-5.94574E-04-1.44040E-15
 -1      1359 2.36540E-03-6.44597E-04-1.98142E-15
 -1      1360 2.50363E-03-6.47648E-04-2.22841E-15
 -1      1361 2.29035E-03-6.06671E-04-1.87639E-15
 -1      1362 2.64261E-03-6.49446E-04-2.48975E-15
 -1      1363 2.78240E-03-6.50181E-04-2.76489E-15
 -1      1364 2.56895E-03-6.12477E-04-2.36746E-15
 -1      1365 2.92303E-03-6.49997E-04-3.05258E-15
 -1      1366 3.06454E-03-6.49068E-04-3.35326E-15
 -1      1367 2.85005E-03-6.13591E-04-2.91225E-15
 -1      1368 3.20698E-03-6.47513E-04-3.66544E-15
 -1      1369 3.35038E-03-6.45500E-04-3.98893E-15
 -1      1370 3.13406E-03-6.11325E-04-3.50821E-15
 -1      1371 3.49480E-03-6.43148E-04-4.32473E-15
 -1      1372 3.64027E-03-6.40627E-04-4.67274E-15
 -1      1373 3.42131E-03-6.06848E-04-4.15132E-15
 -1      1374 3.78685E-03-6.38073E-04-5.03254E-15
 -1      1375 3.93458E-03-6.35673E-04-5.40376E-15
 -1      1376 3.71216E-03-6.01312E-04-4.84272E-15
 -1      1377 4.08349E-03-6.33598E-04-5.78624E-15
 -1      1378 4.23362E-03-6.32057E-04-6.18096E-15
 -1      1379 4.00694E-03-5.95980E-04-5.58055E-15
 -1      1380 4.38500E-03-6.31272E-04-6.58744E-15
 -1      1381 4.53762E-03-6.31479E-04-7.00553E-15
 -1      1382 4.30593E-03-5.92342E-04-6.36527E-15
 -1      1383 4.69148E-03-6.32962E-04-7.43500E-15
 -1      1384 4.84652E-03-6.35970E-04-7.87676E-15
 -1      1385 4.60928E-03-5.92203E-04-7.19635E-15
 -1      1386 5.00267E-03-6.40842E-04-8.33077E-15
 -1      1387 5.15979E-03-6.47814E-04-8.79598E-15
 -1      1388 4.91688E-03-5.97710E-04-8.07541E-15
 -1      1389 5.31773E-03-6.57246E-04-9.27550E-15
 -1      1390 5.47625E-03-6.69303E-04-9.76908E-15
 -1      1391 5.22825E-03-6.11253E-04-9.00420E-15
 -1      1392 5.63506E-03-6.84284E-04-1.02757E-14
 -1      1393 5.79381E-03-7.02198E-04-1.07965E-14
 -1      1394 5.54230E-03-6.35155E-04-9.98534E-15
 -1      1395 5.95211E-03-7.23138E-04-1.13325E-14
 -1      1396 6.10950E-03-7.46844E-04-1.18848E-14
 -1      1397 5.85728E-03-6.71040E-04-1.10227E-14
 -1      1398 6.26551E-03-7.73024E-04-1.24492E-14
 -1      1399 6.41966E-03-8.01029E-04-1.30296E-14
 -1      1400 6.17069E-03-7.18857E-04-1.21182E-14
 -1      1401 6.57149E-03-8.30023E-04-1.36285E-14
 -1      1402 6.72062E-03-8.58921E-04-1.42415E-14
 -1      1403 6.47957E-03-7.75644E-04-1.32765E-14
 -1      1404 6.86678E-03-8.86321E-04-1.48711E-14
 -1      1405 7.00987E-03-9.10804E-04-1.55183E-14
 -1      1406 6.78106E-03-8.34524E-04-1.44983E-14
 -1      1407 7.14992E-03-9.30642E-04-1.61838E-14
 -1      1408 7.28724E-03-9.44394E-04-1.68651E-14
 -1      1409 7.07332E-03-8.84685E-04-1.57875E-14
 -1      1410 7.42228E-03-9.50513E-04-1.75627E-14
 -1      1411 7.55572E-03-9.47988E-04-1.82750E-14
 -1      1412 7.35661E-03-9.13189E-04-1.71429E-14
 -1      1413 7.68833E-03-9.36036E-04-1.90002E-14
 -1      1414 7.82101E-03-9.14452E-04-1.97410E-14
 -1      1415 7.63379E-03-9.08628E-04-1.85579E-14
 -1      1416 7.95459E-03-8.83545E-04-2.04980E-14
 -1      1417 8.08988E-03-8.44000E-04-2.12716E-14
 -1      1418 7.90976E-03-8.65264E-04-2.00342E-14
 -1      1419 8.22750E-03-7.97083E-04-2.20617E-14
 -1      1420 8.36792E-03-7.44102E-04-2.28704E-14
 -1      1421 8.18987E-03-7.85360E-04-2.15755E-14
 -1      1422 8.51139E-03-6.86774E-04-2.36940E-14
 -1      1423 8.65795E-03-6.26574E-04-2.45308E-14
 -1      1424 8.47804E-03-6.78241E-04-2.31821E-14
 -1      1425 8.80748E-03-5.65092E-04-2.53831E-14
 -1      1426 8.95969E-03-5.03588E-04-2.62494E-14
 -1      1427 8.77568E-03-5.56666E-04-2.48520E-14
 -1      1428 9.11420E-03-4.43156E-04-2.71279E-14
 -1      1429 9.27055E-03-3.84639E-04-2.80147E-14
 -1      1430 9.08181E-03-4.32716E-04-2.65776E-14
 -1      1431 9.42827E-03-3.28555E-04-2.89113E-14
 -1      1432 9.58689E-03-2.75327E-04-2.98177E-14
 -1      1433 9.39392E-03-3.15093E-04-2.83471E-14
 -1      1434 9.74597E-03-2.25005E-04-3.07346E-14
 -1      1435 9.90513E-03-1.77692E-04-3.16620E-14
 -1      1436 9.70904E-03-2.08405E-04-3.01567E-14
 -1      1437 1.00640E-02-1.33158E-04-3.25974E-14
 -1      1438 1.02224E-02-9.13025E-05-3.35414E-14
 -1      1439 1.00245E-02-1.13847E-04-3.20046E-14
 -1      1440 1.03801E-02-5.17804E-05-3.44929E-14
 -1      1441 1.05369E-02-1.43921E-05-3.54549E-14
 -1      1442 1.03382E-02-3.04184E-05-3.38889E-14
 -1      1443 1.06926E-02 2.12144E-05-3.64230E-14
 -1      1444 1.08474E-02 5.52674E-05-3.73962E-14
 -1      1445 1.06490E-02 4.39477E-05-3.58061E-14
 -1      1446 1.10010E-02 8.80690E-05-3.83771E-14
 -1      1447 1.11536E-02 1.19835E-04-3.93645E-14
 -1      1448 1.09561E-02 1.11587E-04-3.77549E-14
 -1      1449 1.13052E-02 1.50799E-04-4.03587E-14
 -1      1450 1.14558E-02 1.81145E-04-4.13598E-14
 -1      1451 1.12595E-02 1.74652E-04-3.97271E-14
 -1      1452 1.16054E-02 2.11036E-04-4.23764E-14
 -1      1453 1.17542E-02 2.40621E-04-4.34037E-14
 -1      1454 1.15594E-02 2.34907E-04-4.17349E-14
 -1      1455 1.19022E-02 2.70005E-04-4.44409E-14
 -1      1456 1.20494E-02 2.99298E-04-4.54919E-14
 -1      1457 1.18561E-02 2.93691E-04-4.37851E-14
 -1      1458 1.21960E-02 3.28565E-04-4.65581E-14
 -1      1459 1.23421E-02 3.57882E-04-4.76366E-14
 -1      1460 1.21500E-02 3.51954E-04-4.58854E-14
 -1      1461 1.24876E-02 3.87283E-04-4.87268E-14
 -1      1462 1.26326E-02 4.16820E-04-4.98296E-14
 -1      1463 1.24418E-02 4.10324E-04-4.80363E-14
 -1      1464 1.27772E-02 4.46503E-04-5.09440E-14
 -1      1465 1.29215E-02 4.76367E-04-5.20673E-14
 -1      1466 1.27317E-02 4.69188E-04-5.02348E-14
 -1      1467 1.30655E-02 5.06410E-04-5.31963E-14
 -1      1468 1.32092E-02 5.36649E-04-5.43309E-14
 -1      1469 1.30203E-02 5.28756E-04-5.24693E-14
 -1      1470 1.33528E-02 5.67077E-04-5.54702E-14
 -1      1471 1.34961E-02 5.97702E-04-5.66107E-14
 -1      1472 1.33079E-02 5.89116E-04-5.47322E-14
 -1      1473 1.36393E-02 6.28509E-04-5.77550E-14
 -1      1474 1.37824E-02 6.59500E-04-5.89031E-14
 -1      1475 1.35947E-02 6.50280E-04-5.70085E-14
 -1      1476 1.39254E-02 6.90656E-04-6.00509E-14
 -1      1477 1.40683E-02 7.21971E-04-6.11943E-14
 -1      1478 1.38811E-02 7.12204E-04-5.92965E-14
 -1      1479 1.42112E-02 7.53417E-04-6.23424E-14
 -1      1480 1.43540E-02 7.84973E-04-6.34951E-14
 -1      1481 1.41670E-02 7.74795E-04-6.15889E-14
 -1      1482 1.45644E-02 8.35134E-04-6.51469E-14
 -1      1483 1.45203E-02 8.56430E-04-6.43859E-14
 -1      1484 6.41567E-04 3.70240E-04 2.34730E-17
 -1      1485 4.91767E-04 3.02492E-04 2.79182E-17
 -1      1486 4.44016E-04 2.64807E-04 1.44199E-17
 -1      1487 9.26628E-04 4.68815E-04-1.62224E-17
 -1      1488 7.86007E-04 4.24062E-04 8.74138E-18
 -1      1489 7.43394E-04 3.88406E-04-1.04219E-17
 -1      1490 1.20118E-03 5.36466E-04-9.86895E-17
 -1      1491 1.06466E-03 5.05724E-04-5.17029E-17
 -1      1492 1.02912E-03 4.72275E-04-7.61245E-17
 -1      1493 1.47163E-03 5.83428E-04-2.27127E-16
 -1      1494 1.33659E-03 5.62149E-04-1.56965E-16
 -1      1495 1.30693E-03 5.30104E-04-1.85670E-16
 -1      1496 1.74141E-03 6.15524E-04-4.04218E-16
 -1      1497 1.60643E-03 6.01097E-04-3.09404E-16
 -1      1498 1.58134E-03 5.69876E-04-3.41930E-16
 -1      1499 2.01238E-03 6.36518E-04-6.29000E-16
 -1      1500 1.87665E-03 6.27239E-04-5.10686E-16
 -1      1501 1.85511E-03 5.96461E-04-5.46086E-16
 -1      1502 2.28556E-03 6.49058E-04-9.04103E-16
 -1      1503 2.14864E-03 6.43714E-04-7.60676E-16
 -1      1504 2.12982E-03 6.13131E-04-7.99342E-16
 -1      1505 2.56160E-03 6.55098E-04-1.22660E-15
 -1      1506 2.42319E-03 6.52785E-04-1.05901E-15
 -1      1507 2.40644E-03 6.22229E-04-1.10094E-15
 -1      1508 2.84098E-03 6.56129E-04-1.59906E-15
 -1      1509 2.70084E-03 6.56152E-04-1.40682E-15
 -1      1510 2.68560E-03 6.25497E-04-1.45134E-15
 -1      1511 3.12419E-03 6.53330E-04-2.02187E-15
 -1      1512 2.98208E-03 6.55129E-04-1.80441E-15
 -1      1513 2.96784E-03 6.24270E-04-1.85098E-15
 -1      1514 3.41181E-03 6.47701E-04-2.49219E-15
 -1      1515 3.26741E-03 6.50789E-04-2.25064E-15
 -1      1516 3.25369E-03 6.19619E-04-2.29942E-15
 -1      1517 3.70461E-03 6.40201E-04-3.00977E-15
 -1      1518 3.55751E-03 6.44092E-04-2.74539E-15
 -1      1519 3.54380E-03 6.12490E-04-2.79563E-15
 -1      1520 4.00363E-03 6.31916E-04-3.57478E-15
 -1      1521 3.85328E-03 6.36039E-04-3.28573E-15
 -1      1522 3.83896E-03 6.03853E-04-3.33913E-15
 -1      1523 4.31019E-03 6.24262E-04-4.18976E-15
 -1      1524 4.15588E-03 6.27851E-04-3.87638E-15
 -1      1525 4.14019E-03 5.94885E-04-3.93130E-15
 -1      1526 4.62592E-03 6.19276E-04-4.85462E-15
 -1      1527 4.46680E-03 6.21215E-04-4.51620E-15
 -1      1528 4.44874E-03 5.87214E-04-4.57331E-15
 -1      1529 4.95264E-03 6.19990E-04-5.56071E-15
 -1      1530 4.78778E-03 6.18619E-04-5.20233E-15
 -1      1531 4.76607E-03 5.83252E-04-5.26005E-15
 -1      1532 5.29217E-03 6.30920E-04-6.31044E-15
 -1      1533 5.12069E-03 6.23779E-04-5.92999E-15
 -1      1534 5.09368E-03 5.86638E-04-5.99092E-15
 -1      1535 5.64576E-03 6.58562E-04-7.10582E-15
 -1      1536 5.46714E-03 6.42161E-04-6.70317E-15
 -1      1537 5.43291E-03 6.02768E-04-6.76603E-15
 -1      1538 6.01319E-03 7.11613E-04-7.94873E-15
 -1      1539 5.82780E-03 6.81389E-04-7.52123E-15
 -1      1540 5.78442E-03 6.39257E-04-7.58661E-15
 -1      1541 6.39152E-03 8.00145E-04-8.83676E-15
 -1      1542 6.20130E-03 7.51064E-04-8.38592E-15
 -1      1543 6.14745E-03 7.05860E-04-8.45366E-15
 -1      1544 6.77365E-03 9.32359E-04-9.77237E-15
 -1      1545 6.58277E-03 8.60908E-04-9.29912E-15
 -1      1546 6.51883E-03 8.12791E-04-9.36871E-15
 -1      1547 7.14784E-03 1.10767E-03-1.07577E-14
 -1      1548 6.96270E-03 1.01574E-03-1.02583E-14
 -1      1549 6.89206E-03 9.65911E-04-1.03326E-14
 -1      1550 7.50028E-03 1.30702E-03-1.18043E-14
 -1      1551 7.32770E-03 1.20675E-03-1.12735E-14
 -1      1552 7.25737E-03 1.15788E-03-1.13503E-14
 -1      1553 7.82174E-03 1.48845E-03-1.29122E-14
 -1      1554 7.66504E-03 1.40319E-03-1.23498E-14
 -1      1555 7.60441E-03 1.35891E-03-1.24280E-14
 -1      1556 8.11658E-03 1.59931E-03-1.40851E-14
 -1      1557 7.97142E-03 1.55504E-03-1.34899E-14
 -1      1558 7.92884E-03 1.51782E-03-1.35707E-14
 -1      1559 8.40463E-03 1.60667E-03-1.53333E-14
 -1      1560 8.25967E-03 1.61572E-03-1.46995E-14
 -1      1561 8.23881E-03 1.58447E-03-1.47834E-14
 -1      1562 8.71013E-03 1.52118E-03-1.66646E-14
 -1      1563 8.55389E-03 1.57276E-03-1.59877E-14
 -1      1564 8.55249E-03 1.54345E-03-1.60754E-14
 -1      1565 9.04636E-03 1.38893E-03-1.80839E-14
 -1      1566 8.87424E-03 1.45742E-03-1.73634E-14
 -1      1567 8.88535E-03 1.42620E-03-1.74515E-14
 -1      1568 9.41061E-03 1.26071E-03-1.95890E-14
 -1      1569 9.22568E-03 1.32197E-03-1.88260E-14
 -1      1570 9.24037E-03 1.28727E-03-1.89118E-14
 -1      1571 9.79045E-03 1.16826E-03-2.11626E-14
 -1      1572 9.59952E-03 1.20922E-03-2.03676E-14
 -1      1573 9.61010E-03 1.17147E-03-2.04518E-14
 -1      1574 1.01724E-02 1.12087E-03-2.28012E-14
 -1      1575 9.98194E-03 1.13917E-03-2.19748E-14
 -1      1576 9.98390E-03 1.09956E-03-2.20578E-14
 -1      1577 1.05469E-02 1.11391E-03-2.44949E-14
 -1      1578 1.03611E-02 1.11297E-03-2.36411E-14
 -1      1579 1.03531E-02 1.07264E-03-2.37239E-14
 -1      1580 1.09089E-02 1.13763E-03-2.62471E-14
 -1      1581 1.07296E-02 1.12258E-03-2.53629E-14
 -1      1582 1.07127E-02 1.08232E-03-2.54466E-14
 -1      1583 1.12569E-02 1.18240E-03-2.80561E-14
 -1      1584 1.10846E-02 1.15791E-03-2.71446E-14
 -1      1585 1.10605E-02 1.11818E-03-2.72278E-14
 -1      1586 1.15918E-02 1.24056E-03-2.99205E-14
 -1      1587 1.14259E-02 1.21018E-03-2.89828E-14
 -1      1588 1.13965E-02 1.17121E-03-2.90645E-14
 -1      1589 1.19152E-02 1.30668E-03-3.18349E-14
 -1      1590 1.17548E-02 1.27288E-03-3.08708E-14
 -1      1591 1.17217E-02 1.23471E-03-3.09500E-14
 -1      1592 1.22292E-02 1.37712E-03-3.37930E-14
 -1      1593 1.20733E-02 1.34153E-03-3.28080E-14
 -1      1594 1.20378E-02 1.30411E-03-3.28817E-14
 -1      1595 1.25357E-02 1.44954E-03-3.57895E-14
 -1      1596 1.23833E-02 1.41318E-03-3.47878E-14
 -1      1597 1.23463E-02 1.37645E-03-3.48544E-14
 -1      1598 1.28363E-02 1.52254E-03-3.78141E-14
 -1      1599 1.26866E-02 1.48603E-03-3.67982E-14
 -1      1600 1.26489E-02 1.44986E-03-3.68602E-14
 -1      1601 1.31326E-02 1.59526E-03-3.98739E-14
 -1      1602 1.29849E-02 1.55897E-03-3.88385E-14
 -1      1603 1.29468E-02 1.52326E-03-3.88991E-14
 -1      1604 1.34255E-02 1.66725E-03-4.19619E-14
 -1      1605 1.32794E-02 1.63136E-03-4.09169E-14
 -1      1606 1.32411E-02 1.59603E-03-4.09721E-14
 -1      1607 1.37160E-02 1.73829E-03-4.40670E-14
 -1      1608 1.35710E-02 1.70290E-03-4.30114E-14
 -1      1609 1.35328E-02 1.66786E-03-4.30657E-14
 -1      1610 1.40048E-02 1.80833E-03-4.61808E-14
 -1      1611 1.38606E-02 1.77344E-03-4.51247E-14
 -1      1612 1.38225E-02 1.73864E-03-4.51756E-14
 -1      1613 1.42923E-02 1.87736E-03-4.83073E-14
 -1      1614 1.41487E-02 1.84297E-03-4.72432E-14
 -1      1615 1.41108E-02 1.80834E-03-4.72986E-14
 -1      1616 1.45790E-02 1.94547E-03-5.04445E-14
 -1      1617 1.44357E-02 1.91152E-03-4.93738E-14
 -1      1618 1.43980E-02 1.87703E-03-4.94315E-14
 -1      1619 1.48651E-02 2.01274E-03-5.25965E-14
 -1      1620 1.47221E-02 1.97920E-03-5.15180E-14
 -1      1621 1.46846E-02 1.94480E-03-5.15768E-14
 -1      1622 1.51509E-02 2.07930E-03-5.47642E-14
 -1      1623 1.50080E-02 2.04610E-03-5.36782E-14
 -1      1624 1.49707E-02 2.01177E-03-5.37357E-14
 -1      1625 1.54366E-02 2.14537E-03-5.69453E-14
 -1      1626 1.52938E-02 2.11238E-03-5.58524E-14
 -1      1627 1.52565E-02 2.07810E-03-5.59103E-14
 -1      1628 1.55771E-02 2.16880E-03-5.81466E-14
 -1      1629 1.55081E-02 2.06619E-03-5.87727E-14
 -1      1630 1.55404E-02 2.10834E-03-5.85590E-14
 -1      1631 1.54437E-02 1.98197E-03-5.91873E-14
 -1      1632 1.54758E-02 2.02406E-03-5.89819E-14
 -1      1633 1.53682E-02 2.01667E-03-5.79241E-14
 -1      1634 1.53798E-02 1.89795E-03-5.95994E-14
 -1      1635 1.54117E-02 1.93992E-03-5.93937E-14
 -1      1636 1.53040E-02 1.93259E-03-5.83409E-14
 -1      1637 1.53164E-02 1.81422E-03-6.00295E-14
 -1      1638 1.53481E-02 1.85604E-03-5.98140E-14
 -1      1639 1.52403E-02 1.84876E-03-5.87607E-14
 -1      1640 1.52543E-02 1.73225E-03-6.04706E-14
 -1      1641 1.52853E-02 1.77320E-03-6.02466E-14
 -1      1642 1.51775E-02 1.76594E-03-5.91878E-14
 -1      1643 1.51912E-02 1.64917E-03-6.09178E-14
 -1      1644 1.52228E-02 1.69068E-03-6.06967E-14
 -1      1645 1.51150E-02 1.68342E-03-5.96243E-14
 -1      1646 1.51281E-02 1.56633E-03-6.13627E-14
 -1      1647 1.51597E-02 1.60773E-03-6.11380E-14
 -1      1648 1.50519E-02 1.60047E-03-6.00660E-14
 -1      1649 1.50647E-02 1.48360E-03-6.18197E-14
 -1      1650 1.50964E-02 1.52496E-03-6.15907E-14
 -1      1651 1.49887E-02 1.51770E-03-6.05128E-14
 -1      1652 1.50011E-02 1.40083E-03-6.22686E-14
 -1      1653 1.50329E-02 1.44223E-03-6.20485E-14
 -1      1654 1.49253E-02 1.43500E-03-6.09647E-14
 -1      1655 1.49374E-02 1.31789E-03-6.27066E-14
 -1      1656 1.49693E-02 1.35939E-03-6.24878E-14
 -1      1657 1.48617E-02 1.35223E-03-6.14100E-14
 -1      1658 1.48747E-02 1.23609E-03-6.31578E-14
 -1      1659 1.49060E-02 1.27703E-03-6.29304E-14
 -1      1660 1.47984E-02 1.26998E-03-6.18507E-14
 -1      1661 1.48110E-02 1.15255E-03-6.36273E-14
 -1      1662 1.48428E-02 1.19436E-03-6.33941E-14
 -1      1663 1.47351E-02 1.18746E-03-6.22996E-14
 -1      1664 1.47477E-02 1.06869E-03-6.40743E-14
 -1      1665 1.47793E-02 1.11065E-03-6.38553E-14
 -1      1666 1.46715E-02 1.10394E-03-6.27501E-14
 -1      1667 1.46849E-02 9.84571E-04-6.45076E-14
 -1      1668 1.47162E-02 1.02665E-03-6.42925E-14
 -1      1669 1.46083E-02 1.02012E-03-6.31890E-14
 -1      1670 1.45869E-02 8.99436E-04-6.45553E-14
 -1      1671 1.46181E-02 9.41564E-04-6.43418E-14
 -1      1672 1.45100E-02 9.35165E-04-6.32397E-14
 -1      1673 1.43766E-02 8.49258E-04-6.29062E-14
 -1      1674 1.02426E-02 5.12280E-04-1.99901E-14
 -1      1675 1.02662E-02 4.66678E-04-2.01259E-14
 -1      1676 1.00869E-02 6.31221E-04-1.95421E-14
 -1      1677 1.01746E-02 5.75722E-04-1.97456E-14
 -1      1678 9.82733E-03 7.75651E-04-1.89970E-14
 -1      1679 9.95857E-03 7.07569E-04-1.92521E-14
 -1      1680 9.45446E-03 9.48572E-04-1.83424E-14
 -1      1681 9.63612E-03 8.59738E-04-1.86747E-14
 -1      1682 9.06060E-03 1.13768E-03-1.75886E-14
 -1      1683 9.24653E-03 1.05581E-03-1.79255E-14
 -1      1684 8.63938E-03 1.28887E-03-1.68119E-14
 -1      1685 8.83666E-03 1.22469E-03-1.71758E-14
 -1      1686 8.20601E-03 1.36913E-03-1.60121E-14
 -1      1687 8.39689E-03 1.34686E-03-1.63754E-14
 -1      1688 7.80234E-03 1.32971E-03-1.53079E-14
 -1      1689 7.98309E-03 1.35882E-03-1.56154E-14
 -1      1690 7.37189E-03 1.19591E-03-1.46887E-14
 -1      1691 7.57125E-03 1.26763E-03-1.49724E-14
 -1      1692 6.92489E-03 9.95707E-04-1.41363E-14
 -1      1693 7.13311E-03 1.09478E-03-1.43809E-14
 -1      1694 6.51857E-03 7.82249E-04-1.37147E-14
 -1      1695 6.70172E-03 8.76863E-04-1.38820E-14
 -1      1696 6.16320E-03 5.97871E-04-1.34482E-14
 -1      1697 6.31841E-03 6.78498E-04-1.35540E-14
 -1      1698 5.88130E-03 4.35079E-04-1.32869E-14
 -1      1699 6.00149E-03 5.01181E-04-1.33302E-14
 -1      1700 5.72897E-03 3.26703E-04-1.33258E-14
 -1      1701 5.77989E-03 3.74975E-04-1.33041E-14
 -1      1702 5.72008E-03 2.30310E-04-1.34773E-14
 -1      1703 5.70738E-03 2.74180E-04-1.33991E-14
 -1      1704 5.85225E-03 1.27907E-04-1.37320E-14
 -1      1705 5.77278E-03 1.78593E-04-1.35828E-14
 -1      1706 6.09373E-03-4.89894E-06-1.41558E-14
 -1      1707 5.97086E-03 5.54492E-05-1.39610E-14
 -1      1708 6.42664E-03-1.58862E-04-1.46791E-14
 -1      1709 6.26167E-03-8.40118E-05-1.44209E-14
 -1      1710 6.83799E-03-3.17515E-04-1.52894E-14
 -1      1711 6.65361E-03-2.37770E-04-1.49811E-14
 -1      1712 7.22087E-03-4.64147E-04-1.60085E-14
 -1      1713 7.04150E-03-4.04994E-04-1.56856E-14
 -1      1714 7.66022E-03-5.55095E-04-1.68349E-14
 -1      1715 7.45578E-03-5.22777E-04-1.64357E-14
 -1      1716 8.06336E-03-5.42616E-04-1.76052E-14
 -1      1717 7.88491E-03-5.57390E-04-1.72688E-14
 -1      1718 8.44824E-03-4.54574E-04-1.83003E-14
 -1      1719 8.27085E-03-5.04089E-04-1.79873E-14
 -1      1720 8.84140E-03-3.04080E-04-1.89494E-14
 -1      1721 8.65629E-03-3.80301E-04-1.86651E-14
 -1      1722 9.22051E-03-1.31477E-04-1.94704E-14
 -1      1723 9.05052E-03-2.11028E-04-1.92507E-14
 -1      1724 9.57334E-03 3.66340E-05-1.98591E-14
 -1      1725 9.41481E-03-3.93867E-05-1.96977E-14
 -1      1726 9.88660E-03 1.87545E-04-2.01169E-14
 -1      1727 9.74891E-03 1.20878E-04-2.00150E-14
 -1      1728 1.01211E-02 3.05939E-04-2.02099E-14
 -1      1729 1.00258E-02 2.52855E-04-2.01768E-14
 -1      1730 1.02503E-02 4.13075E-04-2.02092E-14
 -1      1731 1.02053E-02 3.69026E-04-2.02500E-14
 -1      1732 9.29641E-03 9.65910E-04-1.82756E-14
 -1      1733 9.68516E-03 7.70309E-04-1.90236E-14
 -1      1734 1.55399E-02 2.13452E-03-5.82042E-14
 -1      1735 1.53999E-02 2.08493E-03-5.73596E-14
 -1      1736 1.02130E-02 5.16641E-04-2.01832E-14
 -1      1737 1.00068E-02 6.21945E-04-1.96427E-14
 -1      1738 1.02692E-02 4.49691E-04-2.05169E-14
 -1      1739 8.89032E-03 1.17447E-03-1.74396E-14
 -1      1740 8.47702E-03 1.33624E-03-1.65870E-14
 -1      1741 8.10516E-03 1.39384E-03-1.57551E-14
 -1      1742 7.72887E-03 1.31647E-03-1.50282E-14
 -1      1743 7.31514E-03 1.13738E-03-1.43917E-14
 -1      1744 6.88539E-03 9.00462E-04-1.38392E-14
 -1      1745 6.47409E-03 6.72215E-04-1.34334E-14
 -1      1746 6.10842E-03 4.85000E-04-1.31604E-14
 -1      1747 5.83585E-03 3.62866E-04-1.30622E-14
 -1      1748 5.70925E-03 2.88639E-04-1.31519E-14
 -1      1749 5.74132E-03 2.21452E-04-1.33264E-14
 -1      1750 5.92080E-03 1.36269E-04-1.36529E-14
 -1      1751 6.21375E-03 3.42344E-06-1.41392E-14
 -1      1752 6.59841E-03-1.59360E-04-1.46981E-14
 -1      1753 6.99398E-03-3.45040E-04-1.53884E-14
 -1      1754 7.38931E-03-5.06742E-04-1.62083E-14
 -1      1755 7.76758E-03-5.82327E-04-1.70698E-14
 -1      1756 8.13644E-03-5.44748E-04-1.78888E-14
 -1      1757 8.49719E-03-4.18975E-04-1.86405E-14
 -1      1758 8.87272E-03-2.34088E-04-1.93135E-14
 -1      1759 9.25334E-03-3.67220E-05-1.98487E-14
 -1      1760 9.61676E-03 1.40374E-04-2.02385E-14
 -1      1761 9.93481E-03 2.76462E-04-2.04595E-14
 -1      1762 1.01645E-02 3.77948E-04-2.05613E-14
 -1      1763 2.84695E-04-1.75646E-04-3.65647E-17
 -1      1764 3.32260E-04-1.15924E-04-8.45949E-17
 -1      1765 3.36268E-04-1.32130E-04-8.18031E-17
 -1      1766 3.42096E-04-1.51139E-04-7.80083E-17
 -1      1767 3.51498E-04-1.73149E-04-7.18555E-17
 -1      1768 4.58255E-04-1.86759E-04-1.18883E-16
 -1      1769 3.24833E-04-6.46372E-05-8.69801E-17
 -1      1770 3.25962E-04-7.58737E-05-8.74545E-17
 -1      1771 3.23356E-04-4.33162E-05-8.55571E-17
 -1      1772 3.24005E-04-5.37096E-05-8.64516E-17
 -1      1773 4.36841E-04-7.82774E-05-1.27380E-16
 -1      1774 3.22570E-04-2.34358E-05-8.28330E-17
 -1      1775 3.22903E-04-3.32231E-05-8.43780E-17
 -1      1776 4.34841E-04-5.05831E-05-1.24737E-16
 -1      1777 3.22275E-04-4.27885E-06-7.89977E-17
 -1      1778 3.22371E-04-1.37890E-05-8.10035E-17
 -1      1779 4.33806E-04-2.45448E-05-1.20428E-16
 -1      1780 3.22404E-04 1.47545E-05-7.46067E-17
 -1      1781 3.22285E-04 5.23345E-06-7.69784E-17
 -1      1782 4.33506E-04 7.39474E-07-1.14898E-16
 -1      1783 3.22981E-04 3.42460E-05-6.91857E-17
 -1      1784 3.22624E-04 2.44238E-05-7.20723E-17
 -1      1785 4.33878E-04 2.60545E-05-1.08244E-16
 -1      1786 3.24113E-04 5.44848E-05-6.25991E-17
 -1      1787 3.23451E-04 4.42135E-05-6.63261E-17
 -1      1788 4.34979E-04 5.19622E-05-1.00221E-16
 -1      1789 3.26142E-04 7.70075E-05-5.42643E-17
 -1      1790 3.24964E-04 6.54812E-05-5.88993E-17
 -1      1791 4.37047E-04 7.95718E-05-9.05444E-17
 -1      1792 3.29744E-04 1.02792E-04-4.36933E-17
 -1      1793 3.27649E-04 8.94599E-05-4.93312E-17
 -1      1794 4.40659E-04 1.10366E-04-7.81439E-17
 -1      1795 3.36600E-04 1.34251E-04-2.93954E-17
 -1      1796 3.32521E-04 1.17747E-04-3.72830E-17
 -1      1797 4.47001E-04 1.46053E-04-6.23145E-17
 -1      1798 3.52019E-04 1.76749E-04-1.02593E-17
 -1      1799 3.42696E-04 1.53905E-04-2.07760E-17
 -1      1800 4.59268E-04 1.90154E-04-4.16605E-17
 -1      1801 4.07059E-04 2.32691E-04 5.20417E-18
 -1      1802 3.77660E-04 2.01741E-04-4.13352E-18
 -1      1803 4.95445E-04 2.42611E-04-2.20229E-17
 -1      1804 5.57700E-04 3.00944E-04-4.22839E-18
 -1      1805 3.39563E-04-1.90122E-04-5.67173E-17
 -1      1806 8.52406E-04 4.04173E-04-5.27735E-17
 -1      1807 7.06142E-04 3.57168E-04-2.33646E-17
 -1      1808 6.72660E-04 3.26703E-04-3.49520E-17
 -1      1809 4.58482E-04-2.35493E-04-9.44476E-17
 -1      1810 8.06404E-04-3.71356E-04-2.38782E-16
 -1      1811 9.51608E-04-4.11736E-04-3.27443E-16
 -1      1812 1.09443E-03-4.45515E-04-4.30754E-16
 -1      1813 1.23614E-03-4.73397E-04-5.48688E-16
 -1      1814 1.00345E-03-3.93934E-04-3.89866E-16
 -1      1815 1.37665E-03-4.96744E-04-6.81326E-16
 -1      1816 1.51652E-03-5.15852E-04-8.28520E-16
 -1      1817 1.28928E-03-4.49850E-04-6.26330E-16
 -1      1818 1.65596E-03-5.31621E-04-9.89687E-16
 -1      1819 1.79518E-03-5.44286E-04-1.16465E-15
 -1      1820 1.57209E-03-4.88240E-04-9.19824E-16
 -1      1821 1.93439E-03-5.54438E-04-1.35356E-15
 -1      1822 2.07370E-03-5.62280E-04-1.55625E-15
 -1      1823 1.85345E-03-5.13625E-04-1.26846E-15
 -1      1824 2.21325E-03-5.68215E-04-1.77327E-15
 -1      1825 2.35310E-03-5.72418E-04-2.00361E-15
 -1      1826 2.13455E-03-5.29263E-04-1.67192E-15
 -1      1827 2.49337E-03-5.75177E-04-2.24737E-15
 -1      1828 2.63407E-03-5.76644E-04-2.50448E-15
 -1      1829 2.41625E-03-5.37552E-04-2.12926E-15
 -1      1830 2.77531E-03-5.77034E-04-2.77506E-15
 -1      1831 2.91710E-03-5.76483E-04-3.05798E-15
 -1      1832 2.69914E-03-5.40314E-04-2.63972E-15
 -1      1833 3.05951E-03-5.75161E-04-3.35341E-15
 -1      1834 3.20257E-03-5.73198E-04-3.66088E-15
 -1      1835 2.98367E-03-5.38994E-04-3.20153E-15
 -1      1836 3.34633E-03-5.70748E-04-3.98028E-15
 -1      1837 3.49084E-03-5.67940E-04-4.31164E-15
 -1      1838 3.27021E-03-5.34809E-04-3.81163E-15
 -1      1839 3.63613E-03-5.64933E-04-4.65509E-15
 -1      1840 3.78225E-03-5.61869E-04-5.01078E-15
 -1      1841 3.55911E-03-5.28886E-04-4.47065E-15
 -1      1842 3.92923E-03-5.58934E-04-5.37724E-15
 -1      1843 4.07711E-03-5.56289E-04-5.75565E-15
 -1      1844 3.85069E-03-5.22396E-04-5.17636E-15
 -1      1845 4.22592E-03-5.54168E-04-6.14595E-15
 -1      1846 4.37570E-03-5.52760E-04-6.54798E-15
 -1      1847 4.14529E-03-5.16678E-04-5.92911E-15
 -1      1848 4.52646E-03-5.52356E-04-6.96145E-15
 -1      1849 4.67818E-03-5.53180E-04-7.38605E-15
 -1      1850 4.44321E-03-5.13353E-04-6.72856E-15
 -1      1851 4.83091E-03-5.55580E-04-7.82368E-15
 -1      1852 4.98453E-03-5.59802E-04-8.27292E-15
 -1      1853 4.74473E-03-5.14404E-04-7.57424E-15
 -1      1854 5.13911E-03-5.66226E-04-8.73506E-15
 -1      1855 5.29440E-03-5.75097E-04-9.20977E-15
 -1      1856 5.04997E-03-5.22169E-04-8.46824E-15
 -1      1857 5.45050E-03-5.86759E-04-9.69812E-15
 -1      1858 5.60698E-03-6.01393E-04-1.01999E-14
 -1      1859 5.35885E-03-5.39187E-04-9.41329E-15
 -1      1860 5.76400E-03-6.19191E-04-1.07157E-14
 -1      1861 5.92090E-03-6.40168E-04-1.12469E-14
 -1      1862 5.67094E-03-5.67788E-04-1.04126E-14
 -1      1863 6.07786E-03-6.64194E-04-1.17916E-14
 -1      1864 6.23408E-03-6.90968E-04-1.23516E-14
 -1      1865 5.98518E-03-6.09317E-04-1.14679E-14
 -1      1866 6.38971E-03-7.19858E-04-1.29284E-14
 -1      1867 6.54394E-03-7.50101E-04-1.35215E-14
 -1      1868 6.29980E-03-6.62951E-04-1.25845E-14
 -1      1869 6.69683E-03-7.80458E-04-1.41300E-14
 -1      1870 6.84785E-03-8.09644E-04-1.47530E-14
 -1      1871 6.61221E-03-7.24285E-04-1.37627E-14
 -1      1872 6.99691E-03-8.35919E-04-1.53946E-14
 -1      1873 7.14407E-03-8.57660E-04-1.60526E-14
 -1      1874 6.91959E-03-7.84296E-04-1.50062E-14
 -1      1875 7.28910E-03-8.73020E-04-1.67259E-14
 -1      1876 7.43286E-03-8.80511E-04-1.74153E-14
 -1      1877 7.21992E-03-8.29786E-04-1.63142E-14
 -1      1878 7.57502E-03-8.78801E-04-1.81195E-14
 -1      1879 7.71707E-03-8.67128E-04-1.88378E-14
 -1      1880 7.51352E-03-8.46325E-04-1.76839E-14
 -1      1881 7.85865E-03-8.45217E-04-1.95740E-14
 -1      1882 8.00139E-03-8.13372E-04-2.03251E-14
 -1      1883 7.80360E-03-8.23302E-04-1.91170E-14
 -1      1884 8.14494E-03-7.72496E-04-2.10927E-14
 -1      1885 8.29049E-03-7.23826E-04-2.18773E-14
 -1      1886 8.09511E-03-7.58528E-04-2.06134E-14
 -1      1887 8.43774E-03-6.69056E-04-2.26769E-14
 -1      1888 8.58712E-03-6.09814E-04-2.34934E-14
 -1      1889 8.39230E-03-6.59265E-04-2.21763E-14
 -1      1890 8.73847E-03-5.47949E-04-2.43259E-14
 -1      1891 8.89149E-03-4.84940E-04-2.51706E-14
 -1      1892 8.69678E-03-5.38892E-04-2.38020E-14
 -1      1893 9.04618E-03-4.22274E-04-2.60299E-14
 -1      1894 9.20181E-03-3.60947E-04-2.69015E-14
 -1      1895 9.00745E-03-4.11648E-04-2.54867E-14
 -1      1896 9.35851E-03-3.01854E-04-2.77831E-14
 -1      1897 9.51545E-03-2.45487E-04-2.86757E-14
 -1      1898 9.32167E-03-2.88584E-04-2.72220E-14
 -1      1899 9.67281E-03-1.92177E-04-2.95784E-14
 -1      1900 9.82988E-03-1.42030E-04-3.04914E-14
 -1      1901 9.63670E-03-1.76071E-04-2.90024E-14
 -1      1902 9.98681E-03-9.49736E-05-3.14137E-14
 -1      1903 1.01431E-02-5.08906E-05-3.23441E-14
 -1      1904 9.95040E-03-7.63484E-05-3.08239E-14
 -1      1905 1.02989E-02-9.48670E-06-3.32855E-14
 -1      1906 1.04538E-02 2.94560E-05-3.42348E-14
 -1      1907 1.02615E-02 1.11250E-05-3.26823E-14
 -1      1908 1.06080E-02 6.63083E-05-3.51923E-14
 -1      1909 1.07613E-02 1.01309E-04-3.61589E-14
 -1      1910 1.05693E-02 8.83335E-05-3.45803E-14
 -1      1911 1.09138E-02 1.34816E-04-3.71313E-14
 -1      1912 1.10653E-02 1.67047E-04-3.81110E-14
 -1      1913 1.08737E-02 1.57737E-04-3.65092E-14
 -1      1914 1.12161E-02 1.98302E-04-3.90977E-14
 -1      1915 1.13660E-02 2.28761E-04-4.00920E-14
 -1      1916 1.11747E-02 2.21697E-04-3.84682E-14
 -1      1917 1.15152E-02 2.58654E-04-4.10963E-14
 -1      1918 1.16637E-02 2.88120E-04-4.21091E-14
 -1      1919 1.14728E-02 2.82208E-04-4.04580E-14
 -1      1920 1.18114E-02 3.17319E-04-4.31319E-14
 -1      1921 1.19586E-02 3.46356E-04-4.41678E-14
 -1      1922 1.17682E-02 3.40814E-04-4.24810E-14
 -1      1923 1.21052E-02 3.75333E-04-4.52148E-14
 -1      1924 1.22512E-02 4.04324E-04-4.62759E-14
 -1      1925 1.20615E-02 3.98632E-04-4.45486E-14
 -1      1926 1.23968E-02 4.33390E-04-4.73513E-14
 -1      1927 1.25420E-02 4.62578E-04-4.84350E-14
 -1      1928 1.23528E-02 4.56415E-04-4.66654E-14
 -1      1929 1.26869E-02 4.91918E-04-4.95292E-14
 -1      1930 1.28314E-02 5.21442E-04-5.06353E-14
 -1      1931 1.26427E-02 5.14639E-04-4.88305E-14
 -1      1932 1.29756E-02 5.51158E-04-5.17503E-14
 -1      1933 1.31196E-02 5.81083E-04-5.28717E-14
 -1      1934 1.29313E-02 5.73571E-04-5.10336E-14
 -1      1935 1.32633E-02 6.11214E-04-5.39984E-14
 -1      1936 1.34069E-02 6.41558E-04-5.51295E-14
 -1      1937 1.32191E-02 6.33335E-04-5.32696E-14
 -1      1938 1.35503E-02 6.72105E-04-5.62659E-14
 -1      1939 1.36936E-02 7.02856E-04-5.74047E-14
 -1      1940 1.35061E-02 6.93959E-04-5.55246E-14
 -1      1941 1.38368E-02 7.33794E-04-5.85462E-14
 -1      1942 1.39799E-02 7.64916E-04-5.96904E-14
 -1      1943 1.37927E-02 7.55413E-04-5.77980E-14
 -1      1944 1.41068E-02 7.91262E-04-6.07236E-14
 -1      1945 1.42498E-02 8.22680E-04-6.18700E-14
 -1      1946 1.43164E-02 8.65606E-04-6.20358E-14
 -1      1947 1.40627E-02 8.12696E-04-5.99688E-14
 -1      1948 1.13732E-03 4.75368E-04-1.43155E-16
 -1      1949 9.95594E-04 4.43053E-04-9.24824E-17
 -1      1950 9.63572E-04 4.13716E-04-1.07133E-16
 -1      1951 1.41653E-03 5.24607E-04-2.78206E-16
 -1      1952 1.27729E-03 5.02343E-04-2.04806E-16
 -1      1953 1.24808E-03 4.74337E-04-2.22194E-16
 -1      1954 1.69335E-03 5.58081E-04-4.60786E-16
 -1      1955 1.55505E-03 5.43074E-04-3.63547E-16
 -1      1956 1.52865E-03 5.16045E-04-3.83103E-16
 -1      1957 1.96983E-03 5.79855E-04-6.90786E-16
 -1      1958 1.83153E-03 5.70264E-04-5.69924E-16
 -1      1959 1.80756E-03 5.43882E-04-5.91541E-16
 -1      1960 2.24725E-03 5.92768E-04-9.70578E-16
 -1      1961 2.10837E-03 5.87296E-04-8.24576E-16
 -1      1962 2.08638E-03 5.61321E-04-8.48307E-16
 -1      1963 2.52644E-03 5.98891E-04-1.29776E-15
 -1      1964 2.38659E-03 5.96584E-04-1.12807E-15
 -1      1965 2.36612E-03 5.70846E-04-1.15325E-15
 -1      1966 2.80800E-03 5.99777E-04-1.67374E-15
 -1      1967 2.66689E-03 5.99913E-04-1.47942E-15
 -1      1968 2.64750E-03 5.74286E-04-1.50600E-15
 -1      1969 3.09245E-03 5.96625E-04-2.09899E-15
 -1      1970 2.94983E-03 5.98640E-04-1.88037E-15
 -1      1971 2.93108E-03 5.73023E-04-1.90769E-15
 -1      1972 3.38036E-03 5.90429E-04-2.57155E-15
 -1      1973 3.23593E-03 5.93845E-04-2.32949E-15
 -1      1974 3.21737E-03 5.68145E-04-2.35781E-15
 -1      1975 3.67237E-03 5.82111E-04-3.09320E-15
 -1      1976 3.52580E-03 5.86466E-04-2.82634E-15
 -1      1977 3.50692E-03 5.60589E-04-2.85603E-15
 -1      1978 3.96928E-03 5.72688E-04-3.66170E-15
 -1      1979 3.82015E-03 5.77451E-04-3.37119E-15
 -1      1980 3.80034E-03 5.51283E-04-3.40116E-15
 -1      1981 4.27207E-03 5.63481E-04-4.27955E-15
 -1      1982 4.11985E-03 5.67940E-04-3.96476E-15
 -1      1983 4.09839E-03 5.41331E-04-3.99575E-15
 -1      1984 4.58188E-03 5.56387E-04-4.94509E-15
 -1      1985 4.42598E-03 5.59503E-04-4.60646E-15
 -1      1986 4.40196E-03 5.32245E-04-4.63849E-15
 -1      1987 4.90001E-03 5.54270E-04-5.65490E-15
 -1      1988 4.73977E-03 5.54469E-04-5.29432E-15
 -1      1989 4.71208E-03 5.26262E-04-5.32689E-15
 -1      1990 5.22775E-03 5.61441E-04-6.40818E-15
 -1      1991 5.06255E-03 5.56361E-04-6.02650E-15
 -1      1992 5.02991E-03 5.26774E-04-6.06028E-15
 -1      1993 5.56620E-03 5.84207E-04-7.20706E-15
 -1      1994 5.39555E-03 5.70427E-04-6.80214E-15
 -1      1995 5.35664E-03 5.38846E-04-6.83688E-15
 -1      1996 5.91588E-03 6.31212E-04-8.05234E-15
 -1      1997 5.73966E-03 6.04131E-04-7.62347E-15
 -1      1998 5.69344E-03 5.69734E-04-7.65941E-15
 -1      1999 6.27614E-03 7.12940E-04-8.94357E-15
 -1      2000 6.09494E-03 6.67199E-04-8.49205E-15
 -1      2001 6.04119E-03 6.29040E-04-8.52800E-15
 -1      2002 6.64429E-03 8.38988E-04-9.88479E-15
 -1      2003 6.45981E-03 7.70179E-04-9.40780E-15
 -1      2004 6.40002E-03 7.27608E-04-9.44650E-15
 -1      2005 7.01460E-03 1.01179E-03-1.08758E-14
 -1      2006 6.83017E-03 9.20225E-04-1.03743E-14
 -1      2007 6.76810E-03 8.73760E-04-1.04132E-14
 -1      2008 7.37780E-03 1.21571E-03-1.19246E-14
 -1      2009 7.19810E-03 1.11193E-03-1.13927E-14
 -1      2010 7.13965E-03 1.06459E-03-1.14342E-14
 -1      2011 7.72471E-03 1.41006E-03-1.30347E-14
 -1      2012 7.55380E-03 1.31761E-03-1.24712E-14
 -1      2013 7.50456E-03 1.27463E-03-1.25128E-14
 -1      2014 8.05285E-03 1.53644E-03-1.42112E-14
 -1      2015 7.88996E-03 1.48463E-03-1.36142E-14
 -1      2016 7.85291E-03 1.45085E-03-1.36557E-14
 -1      2017 8.37446E-03 1.55338E-03-1.54642E-14
 -1      2018 8.21242E-03 1.55872E-03-1.48283E-14
 -1      2019 8.18626E-03 1.53335E-03-1.48696E-14
 -1      2020 8.70704E-03 1.46791E-03-1.67964E-14
 -1      2021 8.53793E-03 1.52056E-03-1.61193E-14
 -1      2022 8.52108E-03 1.49800E-03-1.61618E-14
 -1      2023 9.05889E-03 1.32990E-03-1.82133E-14
 -1      2024 8.88062E-03 1.40185E-03-1.74943E-14
 -1      2025 8.87213E-03 1.37699E-03-1.75347E-14
 -1      2026 9.42511E-03 1.19515E-03-1.97149E-14
 -1      2027 9.24106E-03 1.25980E-03-1.89542E-14
 -1      2028 9.23882E-03 1.23131E-03-1.89932E-14
 -1      2029 9.79581E-03 1.09799E-03-2.12836E-14
 -1      2030 9.61084E-03 1.14121E-03-2.04900E-14
 -1      2031 9.61070E-03 1.11015E-03-2.05283E-14
 -1      2032 1.01626E-02 1.04809E-03-2.29192E-14
 -1      2033 9.98038E-03 1.06747E-03-2.20948E-14
 -1      2034 9.97796E-03 1.03516E-03-2.21301E-14
 -1      2035 1.05208E-02 1.04028E-03-2.46145E-14
 -1      2036 1.03432E-02 1.03959E-03-2.37598E-14
 -1      2037 1.03356E-02 1.00681E-03-2.37942E-14
 -1      2038 1.08683E-02 1.06425E-03-2.63651E-14
 -1      2039 1.06960E-02 1.04893E-03-2.54822E-14
 -1      2040 1.06822E-02 1.01607E-03-2.55158E-14
 -1      2041 1.12048E-02 1.10990E-03-2.81730E-14
 -1      2042 1.10379E-02 1.08486E-03-2.72622E-14
 -1      2043 1.10182E-02 1.05212E-03-2.72950E-14
 -1      2044 1.15313E-02 1.16923E-03-3.00323E-14
 -1      2045 1.13692E-02 1.13820E-03-2.90979E-14
 -1      2046 1.13446E-02 1.10570E-03-2.91285E-14
 -1      2047 1.18488E-02 1.23658E-03-3.19379E-14
 -1      2048 1.16910E-02 1.20213E-03-3.09782E-14
 -1      2049 1.16625E-02 1.16996E-03-3.10075E-14
 -1      2050 1.21590E-02 1.30818E-03-3.38849E-14
 -1      2051 1.20047E-02 1.27199E-03-3.29060E-14
 -1      2052 1.19734E-02 1.24017E-03-3.29307E-14
 -1      2053 1.24631E-02 1.38164E-03-3.58704E-14
 -1      2054 1.23117E-02 1.34476E-03-3.48743E-14
 -1      2055 1.22784E-02 1.31330E-03-3.48929E-14
 -1      2056 1.27624E-02 1.45552E-03-3.78910E-14
 -1      2057 1.26133E-02 1.41858E-03-3.68761E-14
 -1      2058 1.25787E-02 1.38745E-03-3.68919E-14
 -1      2059 1.30580E-02 1.52898E-03-3.99395E-14
 -1      2060 1.29106E-02 1.49233E-03-3.89101E-14
 -1      2061 1.28752E-02 1.46150E-03-3.89224E-14
 -1      2062 1.33507E-02 1.60157E-03-4.20234E-14
 -1      2063 1.32046E-02 1.56539E-03-4.09790E-14
 -1      2064 1.31687E-02 1.53482E-03-4.09870E-14
 -1      2065 1.36413E-02 1.67309E-03-4.41250E-14
 -1      2066 1.34962E-02 1.63747E-03-4.30727E-14
 -1      2067 1.34600E-02 1.60711E-03-4.30772E-14
 -1      2068 1.39302E-02 1.74350E-03-4.62406E-14
 -1      2069 1.37859E-02 1.70844E-03-4.51820E-14
 -1      2070 1.37496E-02 1.67826E-03-4.51869E-14
 -1      2071 1.42180E-02 1.81283E-03-4.83701E-14
 -1      2072 1.40742E-02 1.77830E-03-4.73030E-14
 -1      2073 1.40379E-02 1.74827E-03-4.73095E-14
 -1      2074 1.45050E-02 1.88116E-03-5.05096E-14
 -1      2075 1.43616E-02 1.84711E-03-4.94374E-14
 -1      2076 1.43253E-02 1.81720E-03-4.94428E-14
 -1      2077 1.47914E-02 1.94859E-03-5.26605E-14
 -1      2078 1.46482E-02 1.91498E-03-5.15839E-14
 -1      2079 1.46120E-02 1.88516E-03-5.15898E-14
 -1      2080 1.50774E-02 2.01527E-03-5.48316E-14
 -1      2081 1.49344E-02 1.98202E-03-5.37448E-14
 -1      2082 1.48983E-02 1.95227E-03-5.37513E-14
 -1      2083 1.53102E-02 2.06667E-03-5.66393E-14
 -1      2084 1.51672E-02 2.03364E-03-5.55475E-14
 -1      2085 1.51311E-02 2.00393E-03-5.55553E-14
 -1      2086 1.53107E-02 2.04053E-03-5.69933E-14
 -1      2087 1.51008E-02 1.79951E-03-5.79227E-14
 -1      2088 1.51325E-02 1.84131E-03-5.77092E-14
 -1      2089 1.51643E-02 1.88318E-03-5.74984E-14
 -1      2090 1.51963E-02 1.92512E-03-5.72908E-14
 -1      2091 1.50247E-02 1.83371E-03-5.66583E-14
 -1      2092 1.52373E-02 1.96177E-03-5.72471E-14
 -1      2093 1.52695E-02 2.00382E-03-5.70367E-14
 -1      2094 1.51797E-02 1.98553E-03-5.63172E-14
 -1      2095 1.50975E-02 1.91219E-03-5.64049E-14
 -1      2096 1.50387E-02 1.71758E-03-5.83411E-14
 -1      2097 1.50697E-02 1.75851E-03-5.81294E-14
 -1      2098 1.49619E-02 1.75091E-03-5.70764E-14
 -1      2099 1.49757E-02 1.63453E-03-5.87781E-14
 -1      2100 1.50072E-02 1.67602E-03-5.85595E-14
 -1      2101 1.48994E-02 1.66846E-03-5.74960E-14
 -1      2102 1.49127E-02 1.55173E-03-5.92184E-14
 -1      2103 1.49442E-02 1.59311E-03-5.89992E-14
 -1      2104 1.48365E-02 1.58561E-03-5.79296E-14
 -1      2105 1.48495E-02 1.46907E-03-5.96625E-14
 -1      2106 1.48811E-02 1.51039E-03-5.94385E-14
 -1      2107 1.47735E-02 1.50299E-03-5.83669E-14
 -1      2108 1.47860E-02 1.38645E-03-6.01123E-14
 -1      2109 1.48177E-02 1.42777E-03-5.98882E-14
 -1      2110 1.47102E-02 1.42049E-03-5.88102E-14
 -1      2111 1.47222E-02 1.30372E-03-6.05543E-14
 -1      2112 1.47541E-02 1.34511E-03-6.03331E-14
 -1      2113 1.46466E-02 1.33799E-03-5.92547E-14
 -1      2114 1.46594E-02 1.22221E-03-6.09896E-14
 -1      2115 1.46908E-02 1.26300E-03-6.07709E-14
 -1      2116 1.45833E-02 1.25605E-03-5.96922E-14
 -1      2117 1.45956E-02 1.13901E-03-6.14335E-14
 -1      2118 1.46275E-02 1.18065E-03-6.12112E-14
 -1      2119 1.45199E-02 1.17388E-03-6.01248E-14
 -1      2120 1.45320E-02 1.05550E-03-6.18722E-14
 -1      2121 1.45638E-02 1.09729E-03-6.16542E-14
 -1      2122 1.44561E-02 1.09071E-03-6.05599E-14
 -1      2123 1.44688E-02 9.71681E-04-6.23033E-14
 -1      2124 1.45004E-02 1.01362E-03-6.20889E-14
 -1      2125 1.43925E-02 1.00719E-03-6.09912E-14
 -1      2126 9.91999E-03 6.17489E-04-1.98083E-14
 -1      2127 1.00519E-02 5.65249E-04-2.01048E-14
 -1      2128 1.02801E-02 4.65412E-04-2.09085E-14
 -1      2129 1.02644E-02 4.50640E-04-2.09950E-14
 -1      2130 1.01707E-02 5.20122E-04-2.03603E-14
 -1      2131 1.02435E-02 4.92226E-04-2.06105E-14
 -1      2132 9.58621E-03 7.67417E-04-1.91414E-14
 -1      2133 9.76447E-03 6.86536E-04-1.94711E-14
 -1      2134 9.84254E-03 6.32817E-04-1.99281E-14
 -1      2135 9.14491E-03 1.00404E-03-1.82064E-14
 -1      2136 9.33570E-03 8.94434E-04-1.86304E-14
 -1      2137 3.27432E-04-8.81381E-05-8.72647E-17
 -1      2138 3.29491E-04-1.01293E-04-8.63025E-17
 -1      2139 4.46534E-04-1.43849E-04-1.25998E-16
 -1      2140 4.40345E-04-1.08762E-04-1.28180E-16
 -1      2141 8.40019E-03 1.37327E-03-1.64380E-14
 -1      2142 8.56904E-03 1.30558E-03-1.68773E-14
 -1      2143 8.02141E-03 1.40289E-03-1.54711E-14
 -1      2144 8.17927E-03 1.41121E-03-1.58649E-14
 -1      2145 7.66381E-03 1.28727E-03-1.47038E-14
 -1      2146 7.82989E-03 1.35736E-03-1.50331E-14
 -1      2147 7.27570E-03 1.07144E-03-1.40484E-14
 -1      2148 7.46559E-03 1.18604E-03-1.43465E-14
 -1      2149 6.85413E-03 8.10247E-04-1.34811E-14
 -1      2150 7.05376E-03 9.34814E-04-1.37258E-14
 -1      2151 6.42199E-03 5.78518E-04-1.31128E-14
 -1      2152 6.61254E-03 6.77863E-04-1.32665E-14
 -1      2153 6.07054E-03 4.18018E-04-1.28815E-14
 -1      2154 6.23800E-03 4.91922E-04-1.29963E-14
 -1      2155 6.35389E-03 5.12107E-04-1.28303E-14
 -1      2156 5.78487E-03 3.10888E-04-1.27904E-14
 -1      2157 5.88688E-03 3.41740E-04-1.27726E-14
 -1      2158 5.69436E-03 2.65682E-04-1.28970E-14
 -1      2159 5.71640E-03 2.81211E-04-1.28261E-14
 -1      2160 5.75951E-03 2.26128E-04-1.30951E-14
 -1      2161 5.70796E-03 2.45240E-04-1.29956E-14
 -1      2162 5.69061E-03 2.51330E-04-1.26682E-14
 -1      2163 6.00253E-03 1.39214E-04-1.35376E-14
 -1      2164 5.87899E-03 1.83179E-04-1.33166E-14
 -1      2165 6.32276E-03 1.35349E-06-1.40926E-14
 -1      2166 6.15756E-03 7.13448E-05-1.38355E-14
 -1      2167 6.70470E-03-1.69488E-04-1.46584E-14
 -1      2168 6.50960E-03-7.87843E-05-1.43645E-14
 -1      2169 7.13337E-03-3.92143E-04-1.55280E-14
 -1      2170 6.95716E-03-2.97246E-04-1.51355E-14
 -1      2171 7.48909E-03-5.44854E-04-1.63582E-14
 -1      2172 7.31817E-03-4.75507E-04-1.59326E-14
 -1      2173 7.86510E-03-6.04974E-04-1.73835E-14
 -1      2174 7.70796E-03-5.96279E-04-1.69468E-14
 -1      2175 8.18607E-03-5.36110E-04-1.81988E-14
 -1      2176 8.03654E-03-5.80518E-04-1.78131E-14
 -1      2177 8.52024E-03-3.78414E-04-1.90292E-14
 -1      2178 8.35991E-03-4.64172E-04-1.86586E-14
 -1      2179 8.90803E-03-1.62614E-04-1.97300E-14
 -1      2180 8.73105E-03-2.65697E-04-1.94218E-14
 -1      2181 9.29590E-03 4.60621E-05-2.02651E-14
 -1      2182 9.11794E-03-4.92543E-05-2.00310E-14
 -1      2183 9.66486E-03 2.26304E-04-2.07027E-14
 -1      2184 9.49523E-03 1.49830E-04-2.05405E-14
 -1      2185 9.99086E-03 3.45443E-04-2.08597E-14
 -1      2186 9.85193E-03 2.97439E-04-2.07973E-14
 -1      2187 1.01958E-02 4.17557E-04-2.09400E-14
 -1      2188 1.01068E-02 3.86834E-04-2.08988E-14
 -1      2189 1.00449E-02 3.89966E-04-2.12378E-14
 -1      2190 8.75909E-03 1.21877E-03-1.73072E-14
 -1      2191 8.94118E-03 1.11915E-03-1.77254E-14
 -1      2192 9.45516E-03 8.17526E-04-1.90702E-14
 -1      2193 6.07279E-04-2.96302E-04-1.48509E-16
 -1      2194 8.65779E-03 1.26356E-03-1.71545E-14
 -1      2195 6.63249E-04-2.90284E-04-1.90969E-16
 -1      2196 1.01130E-02 5.33334E-04-2.05275E-14
 -1      2197 1.02733E-02 4.78370E-04-2.10868E-14
 -1      2198 1.44019E-02 9.28809E-04-6.21387E-14
 -1      2199 1.02376E-02 4.48831E-04-2.13335E-14
 -1      2200 9.02395E-03 1.05844E-03-1.80698E-14
 -1      2201 9.75105E-03 2.89769E-04-2.11014E-14
 -1      2202 9.37759E-03 1.23765E-04-2.07245E-14
 -1      2203 8.98447E-03-9.06948E-05-2.01410E-14
 -1      2204 8.59365E-03-3.19429E-04-1.94385E-14
 -1      2205 8.25084E-03-5.06167E-04-1.85786E-14
 -1      2206 7.93954E-03-6.03980E-04-1.76849E-14
 -1      2207 7.60162E-03-5.82392E-04-1.66612E-14
 -1      2208 7.24405E-03-4.38652E-04-1.56722E-14
 -1      2209 6.84088E-03-2.26169E-04-1.47942E-14
 -1      2210 6.72548E-03-1.61419E-04-1.44573E-14
 -1      2211 6.95342E-03-2.84542E-04-1.49283E-14
 -1      2212 6.42170E-03-1.97704E-05-1.40548E-14
 -1      2213 5.80812E-03 2.12220E-04-1.29812E-14
 -1      2214 5.97840E-03 3.55064E-04-1.26079E-14
 -1      2215 6.07539E-03 3.73880E-04-1.24433E-14
 -1      2216 5.89864E-03 3.14135E-04-1.23372E-14
 -1      2217 6.76215E-03 7.25422E-04-1.31540E-14
 -1      2218 7.19654E-03 9.94368E-04-1.36811E-14
 -1      2219 7.58176E-03 1.23581E-03-1.43511E-14
 -1      2220 8.29969E-03 1.40758E-03-1.61435E-14
 -1      2221 8.40589E-03 1.38538E-03-1.64262E-14
 -1      2222 8.21955E-03 1.42638E-03-1.58527E-14
 -1      2223 7.92909E-03 1.38996E-03-1.51384E-14
 -1      2224 5.74014E-03 2.78270E-04-1.25368E-14
 -1      2225 6.08612E-03 1.20910E-04-1.34917E-14
 -1      2226 1.01612E-03 3.95727E-04-1.59947E-16
 -1      2227 8.71650E-04 3.60221E-04-1.09355E-16
 -1      2228 5.48117E-04-5.44389E-05-1.75180E-16
 -1      2229 5.49173E-04-7.09405E-05-1.77565E-16
 -1      2230 5.50607E-04-8.80748E-05-1.79422E-16
 -1      2231 5.52478E-04-1.05892E-04-1.80642E-16
 -1      2232 6.65644E-04-9.39867E-05-2.40937E-16
 -1      2233 5.46705E-04 8.70367E-06-1.61031E-16
 -1      2234 5.46681E-04-6.86943E-06-1.65192E-16
 -1      2235 5.47494E-04 4.02045E-05-1.51260E-16
 -1      2236 5.46974E-04 2.43800E-05-1.56450E-16
 -1      2237 6.61601E-04 1.95726E-05-2.15146E-16
 -1      2238 5.49370E-04 7.23884E-05-1.40052E-16
 -1      2239 5.48282E-04 5.61045E-05-1.45947E-16
 -1      2240 6.62987E-04 5.67961E-05-2.02082E-16
 -1      2241 5.52794E-04 1.07519E-04-1.25944E-16
 -1      2242 5.50860E-04 8.96003E-05-1.33248E-16
 -1      2243 6.65930E-04 9.57215E-05-1.86361E-16
 -1      2244 5.58634E-04 1.46633E-04-1.08258E-16
 -1      2245 5.55348E-04 1.26503E-04-1.17649E-16
 -1      2246 6.71073E-04 1.38077E-04-1.67252E-16
 -1      2247 5.68789E-04 1.92120E-04-8.61670E-17
 -1      2248 5.63058E-04 1.68445E-04-9.80525E-17
 -1      2249 6.79671E-04 1.85352E-04-1.43684E-16
 -1      2250 1.30174E-03 4.50552E-04-2.93412E-16
 -1      2251 1.15931E-03 4.25730E-04-2.21055E-16
 -1      2252 1.07169E-03 3.76798E-04-2.16434E-16
 -1      2253 9.15023E-04-3.42865E-04-3.49384E-16
 -1      2254 1.05917E-03-3.75285E-04-4.53657E-16
 -1      2255 8.62183E-03 1.29422E-03-1.70836E-14
 -1      2256 8.77045E-03 1.20634E-03-1.75204E-14
 -1      2257 1.20250E-03-4.02643E-04-5.72106E-16
 -1      2258 1.34545E-03-4.25377E-04-7.04691E-16
 -1      2259 1.11717E-03-3.55668E-04-5.18886E-16
 -1      2260 1.48780E-03-4.44310E-04-8.51017E-16
 -1      2261 1.62984E-03-4.59722E-04-1.01125E-15
 -1      2262 1.40372E-03-4.00152E-04-7.83553E-16
 -1      2263 1.77159E-03-4.72265E-04-1.18478E-15
 -1      2264 1.91319E-03-4.82150E-04-1.37172E-15
 -1      2265 1.68927E-03-4.30546E-04-1.10240E-15
 -1      2266 2.05473E-03-4.89855E-04-1.57205E-15
 -1      2267 2.19629E-03-4.95553E-04-1.78621E-15
 -1      2268 1.97413E-03-4.50091E-04-1.47462E-15
 -1      2269 2.33796E-03-4.99594E-04-2.01316E-15
 -1      2270 2.47978E-03-5.02124E-04-2.25353E-15
 -1      2271 2.25877E-03-4.61349E-04-1.89921E-15
 -1      2272 2.62183E-03-5.03404E-04-2.50678E-15
 -1      2273 2.76414E-03-5.03559E-04-2.77297E-15
 -1      2274 2.54362E-03-4.66308E-04-2.37615E-15
 -1      2275 2.90678E-03-5.02791E-04-3.05169E-15
 -1      2276 3.04977E-03-5.01214E-04-3.34238E-15
 -1      2277 2.82906E-03-4.66527E-04-2.90409E-15
 -1      2278 3.19316E-03-4.98999E-04-3.64525E-15
 -1      2279 3.33700E-03-4.96256E-04-3.96069E-15
 -1      2280 3.11540E-03-4.63272E-04-3.48148E-15
 -1      2281 3.48131E-03-4.93146E-04-4.28809E-15
 -1      2282 3.62615E-03-4.89787E-04-4.62720E-15
 -1      2283 3.40295E-03-4.57651E-04-4.10785E-15
 -1      2284 3.77155E-03-4.86352E-04-4.97788E-15
 -1      2285 3.91756E-03-4.82979E-04-5.34078E-15
 -1      2286 3.69200E-03-4.50734E-04-4.78198E-15
 -1      2287 4.06423E-03-4.79869E-04-5.71419E-15
 -1      2288 4.21160E-03-4.77194E-04-6.10018E-15
 -1      2289 3.98292E-03-4.43681E-04-5.50262E-15
 -1      2290 4.35973E-03-4.75199E-04-6.49760E-15
 -1      2291 4.50865E-03-4.74099E-04-6.90661E-15
 -1      2292 4.27613E-03-4.37864E-04-6.26897E-15
 -1      2293 4.65845E-03-4.74190E-04-7.32715E-15
 -1      2294 4.80913E-03-4.75737E-04-7.75943E-15
 -1      2295 4.57214E-03-4.34974E-04-7.08267E-15
 -1      2296 4.96082E-03-4.79076E-04-8.20466E-15
 -1      2297 5.11344E-03-4.84517E-04-8.66151E-15
 -1      2298 4.87160E-03-4.37095E-04-7.94320E-15
 -1      2299 5.26718E-03-4.92397E-04-9.13096E-15
 -1      2300 5.42184E-03-5.03043E-04-9.61434E-15
 -1      2301 5.17522E-03-4.46698E-04-8.85232E-15
 -1      2302 5.57767E-03-5.16717E-04-1.01116E-14
 -1      2303 5.73428E-03-5.33685E-04-1.06231E-14
 -1      2304 5.48369E-03-4.66478E-04-9.81376E-15
 -1      2305 5.89195E-03-5.54010E-04-1.11480E-14
 -1      2306 6.05008E-03-5.77747E-04-1.16878E-14
 -1      2307 5.79738E-03-4.98920E-04-1.08309E-14
 -1      2308 6.20889E-03-6.04602E-04-1.22426E-14
 -1      2309 6.36755E-03-6.34171E-04-1.28129E-14
 -1      2310 6.11588E-03-5.45431E-04-1.19054E-14
 -1      2311 6.52617E-03-6.65645E-04-1.34002E-14
 -1      2312 6.68387E-03-6.97918E-04-1.40025E-14
 -1      2313 6.43741E-03-6.04849E-04-1.30404E-14
 -1      2314 6.84052E-03-7.29596E-04-1.46220E-14
 -1      2315 6.99557E-03-7.58774E-04-1.52558E-14
 -1      2316 6.75850E-03-6.71498E-04-1.42392E-14
 -1      2317 7.14869E-03-7.83639E-04-1.59048E-14
 -1      2318 7.30012E-03-8.01910E-04-1.65708E-14
 -1      2319 7.07476E-03-7.33609E-04-1.55010E-14
 -1      2320 7.44946E-03-8.11872E-04-1.72535E-14
 -1      2321 7.59794E-03-8.11722E-04-1.79508E-14
 -1      2322 7.38313E-03-7.74193E-04-1.68262E-14
 -1      2323 7.74517E-03-8.00569E-04-1.86638E-14
 -1      2324 7.89302E-03-7.78031E-04-1.93942E-14
 -1      2325 7.68460E-03-7.76138E-04-1.82150E-14
 -1      2326 8.04112E-03-7.44458E-04-2.01384E-14
 -1      2327 8.19106E-03-7.01111E-04-2.09001E-14
 -1      2328 7.98457E-03-7.30150E-04-1.96673E-14
 -1      2329 8.34244E-03-6.49435E-04-2.16785E-14
 -1      2330 8.49594E-03-5.91600E-04-2.24723E-14
 -1      2331 8.28948E-03-6.39975E-04-2.11841E-14
 -1      2332 8.65122E-03-5.29444E-04-2.32837E-14
 -1      2333 8.80799E-03-4.65149E-04-2.41093E-14
 -1      2334 8.60247E-03-5.20182E-04-2.27679E-14
 -1      2335 8.96602E-03-4.00331E-04-2.49480E-14
 -1      2336 9.12455E-03-3.36445E-04-2.57990E-14
 -1      2337 8.92203E-03-3.88668E-04-2.44118E-14
 -1      2338 9.28357E-03-2.74561E-04-2.66639E-14
 -1      2339 9.44221E-03-2.15372E-04-2.75413E-14
 -1      2340 9.24401E-03-2.59855E-04-2.61093E-14
 -1      2341 9.60066E-03-1.59380E-04-2.84282E-14
 -1      2342 9.75819E-03-1.06701E-04-2.93275E-14
 -1      2343 9.56436E-03-1.41981E-04-2.78572E-14
 -1      2344 9.91509E-03-5.74076E-05-3.02359E-14
 -1      2345 1.00709E-02-1.13061E-05-3.11542E-14
 -1      2346 9.88056E-03-3.79596E-05-2.96495E-14
 -1      2347 1.02258E-02 3.17927E-05-3.20835E-14
 -1      2348 1.03797E-02 7.21999E-05-3.30210E-14
 -1      2349 1.01917E-02 5.26926E-05-3.14832E-14
 -1      2350 1.05326E-02 1.10225E-04-3.39677E-14
 -1      2351 1.06846E-02 1.46187E-04-3.49232E-14
 -1      2352 1.04978E-02 1.32106E-04-3.33562E-14
 -1      2353 1.08357E-02 1.80417E-04-3.58872E-14
 -1      2354 1.09859E-02 2.13193E-04-3.68594E-14
 -1      2355 1.07997E-02 2.02921E-04-3.52654E-14
 -1      2356 1.11354E-02 2.44815E-04-3.78371E-14
 -1      2357 1.12841E-02 2.75501E-04-3.88240E-14
 -1      2358 1.10979E-02 2.67669E-04-3.72082E-14
 -1      2359 1.14322E-02 3.05495E-04-3.98186E-14
 -1      2360 1.15797E-02 3.34960E-04-4.08208E-14
 -1      2361 1.13933E-02 3.28493E-04-3.91794E-14
 -1      2362 1.17266E-02 3.64078E-04-4.18319E-14
 -1      2363 1.18730E-02 3.92965E-04-4.28531E-14
 -1      2364 1.16864E-02 3.87068E-04-4.11823E-14
 -1      2365 1.20189E-02 4.21745E-04-4.38864E-14
 -1      2366 1.21645E-02 4.50499E-04-4.49295E-14
 -1      2367 1.19777E-02 4.44623E-04-4.32255E-14
 -1      2368 1.23097E-02 4.79303E-04-4.59856E-14
 -1      2369 1.24546E-02 5.08211E-04-4.70561E-14
 -1      2370 1.22676E-02 5.02001E-04-4.53103E-14
 -1      2371 1.25992E-02 5.37265E-04-4.81338E-14
 -1      2372 1.27435E-02 5.66497E-04-4.92224E-14
 -1      2373 1.25564E-02 5.59746E-04-4.74405E-14
 -1      2374 1.28876E-02 5.95924E-04-5.03219E-14
 -1      2375 1.30315E-02 6.25566E-04-5.14300E-14
 -1      2376 1.28444E-02 6.18174E-04-4.96137E-14
 -1      2377 1.31752E-02 6.55422E-04-5.25460E-14
 -1      2378 1.33188E-02 6.85503E-04-5.36641E-14
 -1      2379 1.31317E-02 6.77440E-04-5.18233E-14
 -1      2380 1.34622E-02 7.15798E-04-5.47881E-14
 -1      2381 1.36055E-02 7.46312E-04-5.59177E-14
 -1      2382 1.34186E-02 7.37595E-04-5.40562E-14
 -1      2383 1.37487E-02 7.77027E-04-5.70520E-14
 -1      2384 1.38919E-02 8.07942E-04-5.81873E-14
 -1      2385 1.37050E-02 7.98616E-04-5.63085E-14
 -1      2386 1.86609E-03 5.13006E-04-7.00069E-16
 -1      2387 1.72542E-03 5.02033E-04-5.80753E-16
 -1      2388 2.14743E-03 5.28100E-04-9.75321E-16
 -1      2389 2.00673E-03 5.21636E-04-8.31624E-16
 -1      2390 1.92596E-03 4.81456E-04-8.12149E-16
 -1      2391 2.42941E-03 5.35764E-04-1.29761E-15
 -1      2392 2.28831E-03 5.32758E-04-1.13036E-15
 -1      2393 2.20927E-03 4.94296E-04-1.10510E-15
 -1      2394 2.71266E-03 5.37700E-04-1.66833E-15
 -1      2395 2.57085E-03 5.37366E-04-1.47713E-15
 -1      2396 2.49300E-03 5.00213E-04-1.44534E-15
 -1      2397 2.99766E-03 5.35203E-04-2.08816E-15
 -1      2398 2.85491E-03 5.36938E-04-1.87192E-15
 -1      2399 2.77762E-03 5.00775E-04-1.83377E-15
 -1      2400 3.28488E-03 5.29305E-04-2.55538E-15
 -1      2401 3.14096E-03 5.32619E-04-2.31592E-15
 -1      2402 3.06355E-03 4.97190E-04-2.27083E-15
 -1      2403 3.57475E-03 5.20913E-04-3.07014E-15
 -1      2404 3.42943E-03 5.25361E-04-2.80647E-15
 -1      2405 3.35114E-03 4.90437E-04-2.75562E-15
 -1      2406 3.86781E-03 5.10963E-04-3.63350E-15
 -1      2407 3.72082E-03 5.16064E-04-3.34598E-15
 -1      2408 3.64072E-03 4.81405E-04-3.28768E-15
 -1      2409 4.16464E-03 5.00607E-04-4.24487E-15
 -1      2410 4.01568E-03 5.05748E-04-3.93302E-15
 -1      2411 3.93268E-03 4.71042E-04-3.86843E-15
 -1      2412 4.46594E-03 4.91454E-04-4.90405E-15
 -1      2413 4.31464E-03 4.95756E-04-4.56839E-15
 -1      2414 4.22743E-03 4.60550E-04-4.49663E-15
 -1      2415 4.77254E-03 4.85900E-04-5.60848E-15
 -1      2416 4.61847E-03 4.88046E-04-5.25036E-15
 -1      2417 4.52546E-03 4.51628E-04-5.17194E-15
 -1      2418 5.08544E-03 4.87557E-04-6.35779E-15
 -1      2419 4.92808E-03 4.85558E-04-5.97839E-15
 -1      2420 4.82746E-03 4.46794E-04-5.89313E-15
 -1      2421 5.40595E-03 5.01769E-04-7.15109E-15
 -1      2422 5.24463E-03 4.92696E-04-6.74878E-15
 -1      2423 5.13442E-03 4.49798E-04-6.65855E-15
 -1      2424 5.73576E-03 5.36101E-04-7.99033E-15
 -1      2425 5.56962E-03 5.15852E-04-7.56423E-15
 -1      2426 5.44794E-03 4.66109E-04-7.46874E-15
 -1      2427 6.07713E-03 6.00461E-04-8.87667E-15
 -1      2428 5.90504E-03 5.63768E-04-8.42749E-15
 -1      2429 5.77067E-03 5.03408E-04-8.32479E-15
 -1      2430 6.43239E-03 7.06062E-04-9.81291E-15
 -1      2431 6.25333E-03 6.47316E-04-9.33883E-15
 -1      2432 6.10668E-03 5.71871E-04-9.22954E-15
 -1      2433 6.80198E-03 8.61320E-04-1.07989E-14
 -1      2434 6.61609E-03 7.77034E-04-1.02997E-14
 -1      2435 6.46079E-03 6.83398E-04-1.01835E-14
 -1      2436 7.18112E-03 1.06273E-03-1.18394E-14
 -1      2437 6.99174E-03 9.57454E-04-1.13112E-14
 -1      2438 6.83563E-03 8.48090E-04-1.11878E-14
 -1      2439 7.55720E-03 1.27898E-03-1.29394E-14
 -1      2440 7.37103E-03 1.17225E-03-1.23812E-14
 -1      2441 7.22590E-03 1.06100E-03-1.22472E-14
 -1      2442 7.91623E-03 1.44964E-03-1.41043E-14
 -1      2443 7.73880E-03 1.37598E-03-1.35133E-14
 -1      2444 7.61373E-03 1.28728E-03-1.33683E-14
 -1      2445 8.25995E-03 1.50521E-03-1.53432E-14
 -1      2446 8.08674E-03 1.49425E-03-1.47145E-14
 -1      2447 7.98231E-03 1.44768E-03-1.45567E-14
 -1      2448 8.61017E-03 1.43393E-03-1.66608E-14
 -1      2449 8.43146E-03 1.48282E-03-1.59924E-14
 -1      2450 8.33925E-03 1.46827E-03-1.58204E-14
 -1      2451 8.98020E-03 1.28879E-03-1.80620E-14
 -1      2452 8.79310E-03 1.36520E-03-1.73511E-14
 -1      2453 8.71020E-03 1.35632E-03-1.71663E-14
 -1      2454 9.36005E-03 1.14051E-03-1.95459E-14
 -1      2455 9.17058E-03 1.21159E-03-1.87931E-14
 -1      2456 9.09945E-03 1.19267E-03-1.85939E-14
 -1      2457 9.73456E-03 1.03155E-03-2.10995E-14
 -1      2458 9.54937E-03 1.08009E-03-2.03153E-14
 -1      2459 9.48867E-03 1.04892E-03-2.00995E-14
 -1      2460 1.00955E-02 9.73079E-04-2.27214E-14
 -1      2461 9.91738E-03 9.96319E-04-2.19015E-14
 -1      2462 9.86111E-03 9.56620E-04-2.16755E-14
 -1      2463 1.04421E-02 9.59345E-04-2.44045E-14
 -1      2464 1.02708E-02 9.61348E-04-2.35553E-14
 -1      2465 1.02126E-02 9.16117E-04-2.33152E-14
 -1      2466 1.07764E-02 9.79401E-04-2.61425E-14
 -1      2467 1.06107E-02 9.65848E-04-2.52663E-14
 -1      2468 1.05467E-02 9.16732E-04-2.50159E-14
 -1      2469 1.11007E-02 1.02270E-03-2.79376E-14
 -1      2470 1.09396E-02 9.98703E-04-2.70336E-14
 -1      2471 1.08683E-02 9.46760E-04-2.67710E-14
 -1      2472 1.14171E-02 1.08085E-03-2.97846E-14
 -1      2473 1.12597E-02 1.05032E-03-2.88546E-14
 -1      2474 1.11813E-02 9.96405E-04-2.85819E-14
 -1      2475 1.17270E-02 1.14785E-03-3.16738E-14
 -1      2476 1.15727E-02 1.11352E-03-3.07228E-14
 -1      2477 1.14882E-02 1.05835E-03-3.04388E-14
 -1      2478 1.20316E-02 1.21963E-03-3.36062E-14
 -1      2479 1.18799E-02 1.18333E-03-3.26364E-14
 -1      2480 1.17906E-02 1.12748E-03-3.23415E-14
 -1      2481 1.23320E-02 1.29359E-03-3.55752E-14
 -1      2482 1.21822E-02 1.25646E-03-3.45871E-14
 -1      2483 1.20894E-02 1.20036E-03-3.42831E-14
 -1      2484 1.26288E-02 1.36811E-03-3.75805E-14
 -1      2485 1.24808E-02 1.33085E-03-3.65727E-14
 -1      2486 1.23854E-02 1.27478E-03-3.62578E-14
 -1      2487 1.29229E-02 1.44225E-03-3.96169E-14
 -1      2488 1.27761E-02 1.40527E-03-3.85954E-14
 -1      2489 1.26790E-02 1.34941E-03-3.82678E-14
 -1      2490 1.32147E-02 1.51551E-03-4.16841E-14
 -1      2491 1.30690E-02 1.47902E-03-4.06463E-14
 -1      2492 1.29707E-02 1.42345E-03-4.03114E-14
 -1      2493 1.35048E-02 1.58765E-03-4.37803E-14
 -1      2494 1.33600E-02 1.55173E-03-4.27301E-14
 -1      2495 1.32609E-02 1.49650E-03-4.23832E-14
 -1      2496 1.37937E-02 1.65861E-03-4.58926E-14
 -1      2497 1.36494E-02 1.62328E-03-4.48341E-14
 -1      2498 1.35499E-02 1.56839E-03-4.44812E-14
 -1      2499 1.40815E-02 1.72841E-03-4.80211E-14
 -1      2500 1.39377E-02 1.69365E-03-4.69544E-14
 -1      2501 1.38379E-02 1.63908E-03-4.65994E-14
 -1      2502 1.43686E-02 1.79714E-03-5.01596E-14
 -1      2503 1.42251E-02 1.76290E-03-4.90885E-14
 -1      2504 1.41253E-02 1.70862E-03-4.87332E-14
 -1      2505 1.46551E-02 1.86491E-03-5.23115E-14
 -1      2506 1.45119E-02 1.83114E-03-5.12350E-14
 -1      2507 1.44120E-02 1.77712E-03-5.08761E-14
 -1      2508 1.49413E-02 1.93185E-03-5.44796E-14
 -1      2509 1.47982E-02 1.89848E-03-5.33929E-14
 -1      2510 1.46984E-02 1.84468E-03-5.30360E-14
 -1      2511 1.50899E-02 1.96720E-03-5.55982E-14
 -1      2512 1.47602E-02 1.61933E-03-5.66523E-14
 -1      2513 1.47916E-02 1.66075E-03-5.64399E-14
 -1      2514 1.46973E-02 1.53670E-03-5.70828E-14
 -1      2515 1.47288E-02 1.57798E-03-5.68661E-14
 -1      2516 1.46211E-02 1.57019E-03-5.58075E-14
 -1      2517 1.48852E-02 1.78417E-03-5.58180E-14
 -1      2518 1.49169E-02 1.82596E-03-5.56076E-14
 -1      2519 1.48228E-02 1.70191E-03-5.62315E-14
 -1      2520 1.48538E-02 1.74281E-03-5.60265E-14
 -1      2521 1.47460E-02 1.73492E-03-5.49759E-14
 -1      2522 1.46836E-02 1.65253E-03-5.53884E-14
 -1      2523 1.46343E-02 1.45430E-03-5.75153E-14
 -1      2524 1.46659E-02 1.49549E-03-5.72994E-14
 -1      2525 1.45583E-02 1.48784E-03-5.62342E-14
 -1      2526 1.45710E-02 1.37199E-03-5.79588E-14
 -1      2527 1.46027E-02 1.41315E-03-5.77366E-14
 -1      2528 1.44952E-02 1.40569E-03-5.66672E-14
 -1      2529 1.45073E-02 1.28963E-03-5.83970E-14
 -1      2530 1.45392E-02 1.33083E-03-5.81764E-14
 -1      2531 1.44318E-02 1.32360E-03-5.71020E-14
 -1      2532 1.44444E-02 1.20851E-03-5.88247E-14
 -1      2533 1.44759E-02 1.24910E-03-5.86115E-14
 -1      2534 1.43685E-02 1.24212E-03-5.75314E-14
 -1      2535 1.43804E-02 1.12570E-03-5.92576E-14
 -1      2536 1.44124E-02 1.16714E-03-5.90431E-14
 -1      2537 1.43050E-02 1.16041E-03-5.79608E-14
 -1      2538 1.43165E-02 1.04255E-03-5.96876E-14
 -1      2539 1.43484E-02 1.08417E-03-5.94735E-14
 -1      2540 1.42409E-02 1.07767E-03-5.83902E-14
 -1      2541 1.42529E-02 9.59021E-04-6.01106E-14
 -1      2542 1.42847E-02 1.00083E-03-5.98975E-14
 -1      2543 1.41769E-02 9.94532E-04-5.88120E-14
 -1      2544 1.02561E-02 4.90471E-04-2.13060E-14
 -1      2545 1.02961E-02 4.81096E-04-2.16087E-14
 -1      2546 1.00721E-02 5.44283E-04-2.08012E-14
 -1      2547 1.01799E-02 5.13407E-04-2.10638E-14
 -1      2548 1.02695E-02 4.65241E-04-2.17844E-14
 -1      2549 1.01968E-02 4.49269E-04-2.17290E-14
 -1      2550 1.58457E-03 4.88197E-04-4.73336E-16
 -1      2551 1.44339E-03 4.71289E-04-3.77411E-16
 -1      2552 1.64245E-03 4.59605E-04-5.66740E-16
 -1      2553 1.42751E-02 9.02243E-04-6.11047E-14
 -1      2554 9.77182E-03 6.57907E-04-2.00262E-14
 -1      2555 9.91471E-03 6.00694E-04-2.03703E-14
 -1      2556 8.94285E-03 1.10796E-03-1.80013E-14
 -1      2557 9.12125E-03 1.00037E-03-1.84892E-14
 -1      2558 8.89401E-03 1.15278E-03-1.79284E-14
 -1      2559 9.84393E-03 3.44388E-04-2.15396E-14
 -1      2560 9.67425E-03 2.81674E-04-2.14409E-14
 -1      2561 6.65737E-03 6.42420E-04-1.27706E-14
 -1      2562 6.87015E-03 7.67167E-04-1.29767E-14
 -1      2563 5.46899E-04-2.25280E-05-1.68837E-16
 -1      2564 5.47369E-04-3.83169E-05-1.72266E-16
 -1      2565 6.62807E-04-5.48620E-05-2.34662E-16
 -1      2566 6.61537E-04-1.73923E-05-2.26083E-16
 -1      2567 7.86107E-03 1.37275E-03-1.48146E-14
 -1      2568 8.01655E-03 1.41898E-03-1.52474E-14
 -1      2569 5.70166E-03 2.58562E-04-1.22610E-14
 -1      2570 5.76459E-03 2.71810E-04-1.22263E-14
 -1      2571 7.51331E-03 1.18511E-03-1.39979E-14
 -1      2572 7.67505E-03 1.28513E-03-1.43461E-14
 -1      2573 7.12406E-03 9.27017E-04-1.33027E-14
 -1      2574 7.31566E-03 1.05760E-03-1.36165E-14
 -1      2575 6.27128E-03 4.51674E-04-1.25056E-14
 -1      2576 6.44020E-03 5.29442E-04-1.26173E-14
 -1      2577 6.17890E-03 9.12631E-05-1.34063E-14
 -1      2578 6.02975E-03 1.43220E-04-1.31163E-14
 -1      2579 5.68666E-03 2.40705E-04-1.24180E-14
 -1      2580 5.67499E-03 2.45703E-04-1.23234E-14
 -1      2581 5.85606E-03 1.98155E-04-1.28071E-14
 -1      2582 5.74656E-03 2.23733E-04-1.25940E-14
 -1      2583 6.49217E-03-4.62380E-05-1.39283E-14
 -1      2584 6.33116E-03 2.81638E-05-1.36647E-14
 -1      2585 6.24098E-03 5.28867E-05-1.32826E-14
 -1      2586 7.30344E-03-4.75504E-04-1.57629E-14
 -1      2587 7.15330E-03-3.94180E-04-1.53620E-14
 -1      2588 7.68618E-03-6.11803E-04-1.69693E-14
 -1      2589 7.50976E-03-5.62764E-04-1.63803E-14
 -1      2590 8.01776E-03-5.92713E-04-1.80866E-14
 -1      2591 7.88563E-03-6.18032E-04-1.76512E-14
 -1      2592 8.29798E-03-4.74465E-04-1.90113E-14
 -1      2593 8.15812E-03-5.44905E-04-1.85454E-14
 -1      2594 8.08704E-03-5.71194E-04-1.85081E-14
 -1      2595 8.67429E-03-2.53559E-04-1.99263E-14
 -1      2596 8.49869E-03-3.63316E-04-1.95254E-14
 -1      2597 9.06657E-03-1.95625E-05-2.06315E-14
 -1      2598 8.88315E-03-1.28540E-04-2.03229E-14
 -1      2599 9.43447E-03 1.75138E-04-2.11924E-14
 -1      2600 9.25003E-03 8.09230E-05-2.09110E-14
 -1      2601 9.14935E-03 3.39882E-05-2.10955E-14
 -1      2602 1.01155E-02 4.27186E-04-2.16866E-14
 -1      2603 1.00092E-02 3.99125E-04-2.16454E-14
 -1      2604 1.01749E-02 4.50876E-04-2.21387E-14
 -1      2605 5.88442E-04-2.36152E-04-1.71589E-16
 -1      2606 7.81174E-04-3.02082E-04-2.68625E-16
 -1      2607 8.40872E-04-2.90483E-04-3.19352E-16
 -1      2608 5.79057E-04-2.08349E-04-1.77145E-16
 -1      2609 7.57379E-04 3.31646E-04-7.34276E-17
 -1      2610 6.11027E-04 2.82984E-04-4.22161E-17
 -1      2611 5.84490E-04 2.56301E-04-5.00359E-17
 -1      2612 8.13509E-04 3.19960E-04-1.13909E-16
 -1      2613 9.34842E-03 8.69346E-04-1.90384E-14
 -1      2614 9.57139E-03 7.51381E-04-1.95588E-14
 -1      2615 8.13491E-03 1.43538E-03-1.55162E-14
 -1      2616 6.70607E-04-1.36043E-04-2.44284E-16
 -1      2617 5.54948E-04-1.24664E-04-1.81170E-16
 -1      2618 5.58127E-04-1.44539E-04-1.81008E-16
 -1      2619 1.35795E-03 4.25959E-04-3.68588E-16
 -1      2620 5.72226E-04 2.26121E-04-6.58924E-17
 -1      2621 9.26442E-03 9.29924E-04-1.89676E-14
 -1      2622 9.55534E-03 2.39615E-04-2.16295E-14
 -1      2623 9.44960E-03 1.91473E-04-2.18170E-14
 -1      2624 9.66939E-03 2.89519E-04-2.20705E-14
 -1      2625 9.94488E-03 3.86787E-04-2.19885E-14
 -1      2626 8.39566E-03-4.19546E-04-1.94892E-14
 -1      2627 1.00185E-02 5.71469E-04-2.09030E-14
 -1      2628 1.49900E-02 1.91358E-03-5.52366E-14
 -1      2629 1.49490E-02 1.87693E-03-5.52812E-14
 -1      2630 7.77647E-03-6.24168E-04-1.73576E-14
 -1      2631 1.03213E-02 4.90539E-04-2.22280E-14
 -1      2632 1.03045E-02 4.79617E-04-2.20059E-14
 -1      2633 1.02960E-02 4.81005E-04-2.24052E-14
 -1      2634 1.02384E-02 5.06900E-04-2.15845E-14
 -1      2635 6.60512E-03-1.05245E-04-1.40576E-14
 -1      2636 6.48628E-03-6.69217E-05-1.36638E-14
 -1      2637 6.70511E-03-1.67583E-04-1.41861E-14
 -1      2638 6.89632E-04 2.48912E-04-1.05764E-16
 -1      2639 5.92256E-03 1.66635E-04-1.27235E-14
 -1      2640 9.67270E-03 7.11989E-04-1.99945E-14
 -1      2641 5.70007E-03 2.24316E-04-1.22477E-14
 -1      2642 6.99237E-03 8.41099E-04-1.29117E-14
 -1      2643 7.03125E-03-3.34620E-04-1.50157E-14
 -1      2644 6.15144E-03 3.95541E-04-1.22337E-14
 -1      2645 7.41671E-03 1.12327E-03-1.36095E-14
 -1      2646 6.54598E-03 5.77601E-04-1.24433E-14
 -1      2647 5.81976E-03 2.82256E-04-1.20629E-14
 -1      2648 5.88355E-03 2.96453E-04-1.18996E-14
 -1      2649 5.75307E-03 2.61968E-04-1.17904E-14
 -1      2650 8.52662E-03 1.34775E-03-1.67820E-14
 -1      2651 8.64521E-03 1.30229E-03-1.71404E-14
 -1      2652 8.44629E-03 1.39063E-03-1.64800E-14
 -1      2653 5.66944E-03 2.43099E-04-1.20144E-14
 -1      2654 5.64577E-04-1.63233E-04-1.81414E-16
 -1      2655 5.69922E-04-1.86250E-04-1.79042E-16
 -1      2656 6.98060E-04-2.25406E-04-2.44840E-16
 -1      2657 6.81072E-04-1.79475E-04-2.45694E-16
 -1      2658 7.77459E-03 1.33739E-03-1.44491E-14
 -1      2659 1.41149E-02 8.54405E-04-5.99899E-14
 -1      2660 1.42006E-02 9.17436E-04-6.00923E-14
 -1      2661 1.40926E-02 9.11300E-04-5.89996E-14
 -1      2662 1.39880E-02 8.28110E-04-5.89595E-14
 -1      2663 7.40512E-03-5.30896E-04-1.60588E-14
 -1      2664 8.77811E-03-1.86247E-04-2.04106E-14
 -1      2665 1.48092E-02 1.82714E-03-5.44443E-14
 -1      2666 1.39442E-02 8.49544E-04-5.82080E-14
 -1      2667 7.80482E-04 7.59253E-05-2.59815E-16
 -1      2668 7.79168E-04 5.44326E-05-2.68692E-16
 -1      2669 7.78278E-04 3.29187E-05-2.76824E-16
 -1      2670 7.77830E-04 1.16670E-05-2.84590E-16
 -1      2671 8.96574E-04 4.86616E-05-3.45779E-16
 -1      2672 7.92019E-04 1.70585E-04-2.14171E-16
 -1      2673 7.87989E-04 1.45392E-04-2.27384E-16
 -1      2674 8.03810E-04 2.25472E-04-1.83867E-16
 -1      2675 7.97248E-04 1.97215E-04-1.99737E-16
 -1      2676 9.15339E-04 2.04577E-04-2.66294E-16
 -1      2677 1.13003E-03 3.56988E-04-2.77230E-16
 -1      2678 9.86349E-04 3.28898E-04-2.08885E-16
 -1      2679 5.97222E-03 1.30897E-04-1.25581E-14
 -1      2680 5.81925E-03 1.75710E-04-1.22598E-14
 -1      2681 1.41654E-03 4.00530E-04-4.47681E-16
 -1      2682 1.27334E-03 3.80747E-04-3.56879E-16
 -1      2683 1.19011E-03 3.36103E-04-3.42283E-16
 -1      2684 8.03238E-04 2.75324E-04-1.45961E-16
 -1      2685 1.00305E-02 4.16848E-04-2.24614E-14
 -1      2686 9.88152E-03 3.70809E-04-2.23530E-14
 -1      2687 1.32061E-03-3.56398E-04-7.17444E-16
 -1      2688 1.46395E-03-3.74139E-04-8.62971E-16
 -1      2689 1.60714E-03-3.88821E-04-1.02206E-15
 -1      2690 1.75027E-03-4.00678E-04-1.19394E-15
 -1      2691 1.52559E-03-3.47359E-04-9.43283E-16
 -1      2692 1.89326E-03-4.10160E-04-1.37885E-15
 -1      2693 2.03620E-03-4.17449E-04-1.57676E-15
 -1      2694 1.81245E-03-3.70230E-04-1.28534E-15
 -1      2695 2.17908E-03-4.22907E-04-1.78775E-15
 -1      2696 2.32195E-03-4.26683E-04-2.01159E-15
 -1      2697 2.09916E-03-3.84361E-04-1.67864E-15
 -1      2698 2.46483E-03-4.29059E-04-2.24805E-15
 -1      2699 2.60777E-03-4.30158E-04-2.49743E-15
 -1      2700 2.38569E-03-3.91694E-04-2.12258E-15
 -1      2701 2.75078E-03-4.30201E-04-2.75958E-15
 -1      2702 2.89391E-03-4.29292E-04-3.03377E-15
 -1      2703 2.67214E-03-3.93808E-04-2.61733E-15
 -1      2704 3.03717E-03-4.27611E-04-3.32072E-15
 -1      2705 3.18060E-03-4.25254E-04-3.61949E-15
 -1      2706 2.95864E-03-3.91978E-04-3.16214E-15
 -1      2707 3.32424E-03-4.22380E-04-3.93054E-15
 -1      2708 3.46812E-03-4.19085E-04-4.25395E-15
 -1      2709 3.24536E-03-3.87271E-04-3.75606E-15
 -1      2710 3.61226E-03-4.15524E-04-4.58860E-15
 -1      2711 3.75674E-03-4.11809E-04-4.93551E-15
 -1      2712 3.53251E-03-3.80648E-04-4.39811E-15
 -1      2713 3.90158E-03-4.08108E-04-5.29390E-15
 -1      2714 4.04686E-03-4.04559E-04-5.66303E-15
 -1      2715 3.82039E-03-3.73078E-04-5.08687E-15
 -1      2716 4.19263E-03-4.01359E-04-6.04445E-15
 -1      2717 4.33898E-03-3.98692E-04-6.43687E-15
 -1      2718 4.10942E-03-3.65644E-04-5.82208E-15
 -1      2719 4.48600E-03-3.96790E-04-6.84133E-15
 -1      2720 4.63379E-03-3.95899E-04-7.25745E-15
 -1      2721 4.40022E-03-3.59665E-04-6.60289E-15
 -1      2722 4.78249E-03-3.96288E-04-7.68495E-15
 -1      2723 4.93218E-03-3.98284E-04-8.12478E-15
 -1      2724 4.69366E-03-3.56805E-04-7.43031E-15
 -1      2725 5.08310E-03-4.02173E-04-8.57723E-15
 -1      2726 5.23526E-03-4.08373E-04-9.04177E-15
 -1      2727 4.99095E-03-3.59168E-04-8.30457E-15
 -1      2728 5.38899E-03-4.17153E-04-9.52039E-15
 -1      2729 5.54418E-03-4.28996E-04-1.00125E-14
 -1      2730 5.29364E-03-3.69356E-04-9.23044E-15
 -1      2731 5.70123E-03-4.44085E-04-1.05190E-14
 -1      2732 5.85980E-03-4.62874E-04-1.10389E-14
 -1      2733 5.60342E-03-3.90410E-04-1.02103E-14
 -1      2734 6.02028E-03-4.85356E-04-1.15723E-14
 -1      2735 6.18199E-03-5.11720E-04-1.21210E-14
 -1      2736 5.92164E-03-4.25477E-04-1.12441E-14
 -1      2737 6.34517E-03-5.41619E-04-1.26860E-14
 -1      2738 6.50874E-03-5.74517E-04-1.32665E-14
 -1      2739 6.24843E-03-4.76878E-04-1.23362E-14
 -1      2740 6.67264E-03-6.09552E-04-1.38614E-14
 -1      2741 6.83564E-03-6.44994E-04-1.44727E-14
 -1      2742 6.58130E-03-5.43930E-04-1.34883E-14
 -1      2743 6.99736E-03-6.79283E-04-1.51018E-14
 -1      2744 7.15702E-03-7.09385E-04-1.57440E-14
 -1      2745 6.91456E-03-6.19562E-04-1.47033E-14
 -1      2746 7.31404E-03-7.33337E-04-1.64026E-14
 -1      2747 7.46906E-03-7.47646E-04-1.70780E-14
 -1      2748 7.24091E-03-6.87043E-04-1.59843E-14
 -1      2749 7.62160E-03-7.50743E-04-1.77695E-14
 -1      2750 7.77380E-03-7.40531E-04-1.84764E-14
 -1      2751 7.55628E-03-7.22039E-04-1.73270E-14
 -1      2752 7.92528E-03-7.16647E-04-1.91995E-14
 -1      2753 8.07866E-03-6.79992E-04-1.99395E-14
 -1      2754 7.86468E-03-7.03062E-04-1.87345E-14
 -1      2755 8.23340E-03-6.31745E-04-2.06944E-14
 -1      2756 8.39100E-03-5.74885E-04-2.14665E-14
 -1      2757 8.17590E-03-6.25210E-04-2.02086E-14
 -1      2758 8.55089E-03-5.11286E-04-2.22569E-14
 -1      2759 8.71274E-03-4.44517E-04-2.30615E-14
 -1      2760 8.49748E-03-5.04041E-04-2.17488E-14
 -1      2761 8.87607E-03-3.76363E-04-2.38803E-14
 -1      2762 9.03977E-03-3.09084E-04-2.47123E-14
 -1      2763 8.82856E-03-3.64344E-04-2.33522E-14
 -1      2764 9.20363E-03-2.43868E-04-2.55587E-14
 -1      2765 9.36644E-03-1.81730E-04-2.64177E-14
 -1      2766 9.16250E-03-2.27060E-04-2.50120E-14
 -1      2767 9.52833E-03-1.23227E-04-2.72896E-14
 -1      2768 9.68845E-03-6.84214E-05-2.81721E-14
 -1      2769 9.49251E-03-1.03157E-04-2.67246E-14
 -1      2770 9.84712E-03-1.74466E-05-2.90660E-14
 -1      2771 1.00039E-02 3.00665E-05-2.99707E-14
 -1      2772 9.81469E-03 4.29194E-06-2.84857E-14
 -1      2773 1.01592E-02 7.42347E-05-3.08853E-14
 -1      2774 1.03127E-02 1.15545E-04-3.18111E-14
 -1      2775 1.01282E-02 9.66262E-05-3.02901E-14
 -1      2776 1.04650E-02 1.54234E-04-3.27478E-14
 -1      2777 1.06158E-02 1.90752E-04-3.36917E-14
 -1      2778 1.04339E-02 1.76783E-04-3.21374E-14
 -1      2779 1.07656E-02 2.25376E-04-3.46439E-14
 -1      2780 1.09144E-02 2.58467E-04-3.56079E-14
 -1      2781 1.07335E-02 2.47899E-04-3.40253E-14
 -1      2782 1.10623E-02 2.90289E-04-3.65787E-14
 -1      2783 1.12095E-02 3.21114E-04-3.75567E-14
 -1      2784 1.10286E-02 3.12739E-04-3.59487E-14
 -1      2785 1.13561E-02 3.51167E-04-3.85418E-14
 -1      2786 1.15021E-02 3.80641E-04-3.95342E-14
 -1      2787 1.13205E-02 3.73537E-04-3.79056E-14
 -1      2788 1.16477E-02 4.09713E-04-4.05358E-14
 -1      2789 1.17928E-02 4.38514E-04-4.15462E-14
 -1      2790 1.16104E-02 4.32000E-04-3.98888E-14
 -1      2791 1.19377E-02 4.67174E-04-4.25652E-14
 -1      2792 1.20822E-02 4.95779E-04-4.35954E-14
 -1      2793 1.18989E-02 4.89370E-04-4.19080E-14
 -1      2794 1.22265E-02 5.24415E-04-4.46374E-14
 -1      2795 1.23706E-02 5.53136E-04-4.56893E-14
 -1      2796 1.21864E-02 5.46506E-04-4.39648E-14
 -1      2797 1.25145E-02 5.81994E-04-4.67537E-14
 -1      2798 1.26582E-02 6.11020E-04-4.78262E-14
 -1      2799 1.24734E-02 6.03967E-04-4.60681E-14
 -1      2800 1.28018E-02 6.40241E-04-4.89084E-14
 -1      2801 1.29453E-02 6.69672E-04-5.00033E-14
 -1      2802 1.27599E-02 6.62086E-04-4.82102E-14
 -1      2803 1.30887E-02 6.99323E-04-5.11063E-14
 -1      2804 1.32320E-02 7.29198E-04-5.22148E-14
 -1      2805 1.30462E-02 7.21033E-04-5.03922E-14
 -1      2806 1.33753E-02 7.59294E-04-5.33285E-14
 -1      2807 1.35184E-02 7.89612E-04-5.44459E-14
 -1      2808 1.33323E-02 7.80866E-04-5.26017E-14
 -1      2809 1.36615E-02 8.20141E-04-5.55670E-14
 -1      2810 1.38046E-02 8.50876E-04-5.66935E-14
 -1      2811 1.36183E-02 8.41576E-04-5.48317E-14
 -1      2812 2.27184E-03 4.59956E-04-1.23808E-15
 -1      2813 2.12945E-03 4.55525E-04-1.07701E-15
 -1      2814 7.46792E-03-5.72421E-04-1.63004E-14
 -1      2815 7.28917E-03-4.94956E-04-1.56860E-14
 -1      2816 9.96439E-03 6.07350E-04-2.10554E-14
 -1      2817 1.01060E-02 5.62004E-04-2.14961E-14
 -1      2818 1.98707E-03 4.49240E-04-9.27684E-16
 -1      2819 1.84464E-03 4.40946E-04-7.89882E-16
 -1      2820 2.04917E-03 4.16540E-04-1.04639E-15
 -1      2821 2.84236E-03 4.63628E-04-2.00251E-15
 -1      2822 2.69950E-03 4.64504E-04-1.79328E-15
 -1      2823 3.12873E-03 4.59145E-04-2.45696E-15
 -1      2824 2.98542E-03 4.61811E-04-2.22362E-15
 -1      2825 2.90682E-03 4.26426E-04-2.17427E-15
 -1      2826 3.41616E-03 4.51754E-04-2.95827E-15
 -1      2827 3.27229E-03 4.55764E-04-2.70178E-15
 -1      2828 3.19317E-03 4.21232E-04-2.64552E-15
 -1      2829 3.70486E-03 4.42329E-04-3.50886E-15
 -1      2830 3.56032E-03 4.47245E-04-3.22726E-15
 -1      2831 3.47994E-03 4.13422E-04-3.16508E-15
 -1      2832 3.99504E-03 4.31837E-04-4.10610E-15
 -1      2833 3.84973E-03 4.37155E-04-3.80170E-15
 -1      2834 3.76718E-03 4.03858E-04-3.73166E-15
 -1      2835 4.28693E-03 4.21523E-04-4.75138E-15
 -1      2836 4.14072E-03 4.26575E-04-4.42251E-15
 -1      2837 4.05493E-03 3.93522E-04-4.34686E-15
 -1      2838 4.58083E-03 4.13148E-04-5.44309E-15
 -1      2839 4.43355E-03 4.16972E-04-5.09175E-15
 -1      2840 4.34321E-03 3.83689E-04-5.00892E-15
 -1      2841 4.87729E-03 4.09283E-04-6.18067E-15
 -1      2842 4.72864E-03 4.10468E-04-5.80640E-15
 -1      2843 4.63216E-03 3.76140E-04-5.71755E-15
 -1      2844 5.17733E-03 4.13688E-04-6.96265E-15
 -1      2845 5.02672E-03 4.10169E-04-6.56578E-15
 -1      2846 4.92220E-03 3.73415E-04-6.47074E-15
 -1      2847 5.48297E-03 4.31764E-04-7.78902E-15
 -1      2848 5.32924E-03 4.20576E-04-7.36977E-15
 -1      2849 5.21444E-03 3.79128E-04-7.26905E-15
 -1      2850 5.79793E-03 4.71071E-04-8.66306E-15
 -1      2851 5.63900E-03 4.48075E-04-8.22000E-15
 -1      2852 5.51136E-03 3.98377E-04-8.11260E-15
 -1      2853 6.12827E-03 5.41898E-04-9.58427E-15
 -1      2854 5.96085E-03 5.01481E-04-9.11803E-15
 -1      2855 5.81785E-03 4.38398E-04-9.00423E-15
 -1      2856 6.48188E-03 6.57672E-04-1.05570E-14
 -1      2857 6.30214E-03 5.92953E-04-1.00644E-14
 -1      2858 6.14219E-03 5.09983E-04-9.94354E-15
 -1      2859 6.86559E-03 8.29974E-04-1.15794E-14
 -1      2860 6.67111E-03 7.34811E-04-1.10620E-14
 -1      2861 6.49660E-03 6.27716E-04-1.09335E-14
 -1      2862 7.34653E-03 1.09098E-03-1.30228E-14
 -1      2863 7.13882E-03 9.64802E-04-1.24667E-14
 -1      2864 7.55397E-03 1.21836E-03-1.35952E-14
 -1      2865 8.06215E-03 1.44683E-03-1.50522E-14
 -1      2866 7.87153E-03 1.39471E-03-1.44351E-14
 -1      2867 8.73526E-03 1.31181E-03-1.73477E-14
 -1      2868 8.53764E-03 1.39134E-03-1.66604E-14
 -1      2869 9.22915E-03 1.09141E-03-1.91164E-14
 -1      2870 9.02645E-03 1.17732E-03-1.83796E-14
 -1      2871 9.62177E-03 9.60946E-04-2.06437E-14
 -1      2872 9.42949E-03 1.01928E-03-1.98709E-14
 -1      2873 9.37410E-03 9.88736E-04-1.96418E-14
 -1      2874 9.98674E-03 8.89886E-04-2.22385E-14
 -1      2875 9.80860E-03 9.18910E-04-2.14334E-14
 -1      2876 9.76140E-03 8.78412E-04-2.11909E-14
 -1      2877 1.03256E-02 8.68269E-04-2.38981E-14
 -1      2878 1.01592E-02 8.74117E-04-2.30601E-14
 -1      2879 1.01121E-02 8.30657E-04-2.28065E-14
 -1      2880 1.06466E-02 8.82519E-04-2.56149E-14
 -1      2881 1.04880E-02 8.71818E-04-2.47494E-14
 -1      2882 1.04356E-02 8.26900E-04-2.44828E-14
 -1      2883 1.09562E-02 9.21400E-04-2.73852E-14
 -1      2884 1.08025E-02 8.99535E-04-2.64920E-14
 -1      2885 1.07425E-02 8.53294E-04-2.62142E-14
 -1      2886 1.12592E-02 9.76327E-04-2.92101E-14
 -1      2887 1.11083E-02 9.47286E-04-2.82925E-14
 -1      2888 1.10405E-02 8.99590E-04-2.80014E-14
 -1      2889 1.15580E-02 1.04121E-03-3.10799E-14
 -1      2890 1.14090E-02 1.00781E-03-3.01401E-14
 -1      2891 1.13340E-02 9.58735E-04-2.98395E-14
 -1      2892 1.18540E-02 1.11182E-03-3.29939E-14
 -1      2893 1.17062E-02 1.07599E-03-3.20329E-14
 -1      2894 1.16254E-02 1.02581E-03-3.17239E-14
 -1      2895 1.21478E-02 1.18531E-03-3.49435E-14
 -1      2896 1.20011E-02 1.14833E-03-3.39639E-14
 -1      2897 1.19156E-02 1.09737E-03-3.36458E-14
 -1      2898 1.24401E-02 1.25986E-03-3.69254E-14
 -1      2899 1.22941E-02 1.22253E-03-3.59298E-14
 -1      2900 1.22051E-02 1.17111E-03-3.56034E-14
 -1      2901 1.27309E-02 1.33433E-03-3.89426E-14
 -1      2902 1.25856E-02 1.29715E-03-3.79299E-14
 -1      2903 1.24940E-02 1.24552E-03-3.75927E-14
 -1      2904 1.30206E-02 1.40808E-03-4.09879E-14
 -1      2905 1.28758E-02 1.37132E-03-3.99628E-14
 -1      2906 1.27823E-02 1.31965E-03-3.96140E-14
 -1      2907 1.33093E-02 1.48079E-03-4.30699E-14
 -1      2908 1.31650E-02 1.44458E-03-4.20261E-14
 -1      2909 1.30701E-02 1.39299E-03-4.16695E-14
 -1      2910 1.35973E-02 1.55233E-03-4.51687E-14
 -1      2911 1.34534E-02 1.51671E-03-4.41153E-14
 -1      2912 1.33576E-02 1.46527E-03-4.37520E-14
 -1      2913 1.38846E-02 1.62269E-03-4.72922E-14
 -1      2914 1.37410E-02 1.58766E-03-4.62284E-14
 -1      2915 1.36446E-02 1.53639E-03-4.58577E-14
 -1      2916 1.41714E-02 1.69193E-03-4.94317E-14
 -1      2917 1.40281E-02 1.65745E-03-4.83614E-14
 -1      2918 1.39312E-02 1.60637E-03-4.79872E-14
 -1      2919 1.44579E-02 1.76016E-03-5.15806E-14
 -1      2920 1.43147E-02 1.72617E-03-5.05037E-14
 -1      2921 1.42176E-02 1.67528E-03-5.01321E-14
 -1      2922 1.47052E-02 1.81059E-03-5.35516E-14
 -1      2923 1.45621E-02 1.77699E-03-5.24674E-14
 -1      2924 1.44650E-02 1.72629E-03-5.20932E-14
 -1      2925 1.46732E-02 1.75974E-03-5.38752E-14
 -1      2926 1.43562E-02 1.35719E-03-5.58156E-14
 -1      2927 1.43878E-02 1.39810E-03-5.56009E-14
 -1      2928 1.39006E-02 8.70933E-04-5.74630E-14
 -1      2929 1.39966E-02 8.91078E-04-5.82300E-14
 -1      2930 1.38572E-02 8.92255E-04-5.67180E-14
 -1      2931 1.44821E-02 1.52109E-03-5.49622E-14
 -1      2932 1.45134E-02 1.56224E-03-5.47516E-14
 -1      2933 1.42927E-02 1.27535E-03-5.62461E-14
 -1      2934 1.43245E-02 1.31628E-03-5.60329E-14
 -1      2935 1.42173E-02 1.30882E-03-5.49654E-14
 -1      2936 1.44193E-02 1.43904E-03-5.53852E-14
 -1      2937 1.44507E-02 1.48004E-03-5.51733E-14
 -1      2938 1.43432E-02 1.47206E-03-5.41161E-14
 -1      2939 1.42805E-02 1.39036E-03-5.45386E-14
 -1      2940 7.85290E-03-6.27729E-04-1.77589E-14
 -1      2941 7.67867E-03-6.23505E-04-1.70746E-14
 -1      2942 1.42298E-02 1.19476E-03-5.66690E-14
 -1      2943 1.42613E-02 1.23508E-03-5.64582E-14
 -1      2944 1.41542E-02 1.22795E-03-5.53897E-14
 -1      2945 1.41656E-02 1.11248E-03-5.70969E-14
 -1      2946 1.41977E-02 1.15367E-03-5.68825E-14
 -1      2947 1.40906E-02 1.14687E-03-5.58116E-14
 -1      2948 1.41013E-02 1.02981E-03-5.75216E-14
 -1      2949 1.41335E-02 1.07120E-03-5.73086E-14
 -1      2950 1.40262E-02 1.06473E-03-5.62336E-14
 -1      2951 8.28264E-04-2.62259E-04-3.22022E-16
 -1      2952 9.59898E-04-2.96746E-04-4.10357E-16
 -1      2953 8.17773E-04-2.35725E-04-3.23255E-16
 -1      2954 8.49664E-03-3.61614E-04-2.00323E-14
 -1      2955 8.32177E-03-4.64979E-04-1.95075E-14
 -1      2956 7.05620E-03-3.72188E-04-1.49980E-14
 -1      2957 6.88454E-03-2.68008E-04-1.45734E-14
 -1      2958 1.70212E-03 4.30246E-04-6.63938E-16
 -1      2959 1.55941E-03 4.16946E-04-5.50043E-16
 -1      2960 1.47678E-03 3.74356E-04-5.30487E-16
 -1      2961 1.76315E-03 4.00286E-04-7.65054E-16
 -1      2962 6.03798E-03 3.47605E-04-1.18976E-14
 -1      2963 6.21047E-03 4.14676E-04-1.19562E-14
 -1      2964 1.02275E-02 5.23537E-04-2.18679E-14
 -1      2965 1.02930E-02 5.07650E-04-2.21142E-14
 -1      2966 2.55682E-03 4.64273E-04-1.59637E-15
 -1      2967 2.41428E-03 4.62830E-04-1.41146E-15
 -1      2968 2.33498E-03 4.25255E-04-1.37499E-15
 -1      2969 2.62081E-03 4.28113E-04-1.75053E-15
 -1      2970 1.06847E-03-3.17112E-04-4.93908E-16
 -1      2971 1.21186E-03-3.41329E-04-6.15705E-16
 -1      2972 1.27339E-03-3.18973E-04-6.84972E-16
 -1      2973 1.05621E-03-2.87011E-04-4.95087E-16
 -1      2974 9.21509E-03 9.87833E-04-1.89680E-14
 -1      2975 9.41068E-03 8.70715E-04-1.95282E-14
 -1      2976 7.84794E-04 1.21400E-04-2.39080E-16
 -1      2977 7.82347E-04 9.82714E-05-2.49881E-16
 -1      2978 8.99835E-04 9.75140E-05-3.23756E-16
 -1      2979 9.05748E-04 1.48897E-04-2.97600E-16
 -1      2980 7.82030E-04-9.62499E-05-3.11545E-16
 -1      2981 7.84393E-04-1.19293E-04-3.14703E-16
 -1      2982 5.63722E-03 2.30672E-04-1.17416E-14
 -1      2983 5.66389E-03 2.38150E-04-1.16813E-14
 -1      2984 6.42201E-03 5.11956E-04-1.20749E-14
 -1      2985 6.61324E-03 6.14408E-04-1.22216E-14
 -1      2986 9.61055E-03 7.59518E-04-2.00515E-14
 -1      2987 9.78850E-03 6.76319E-04-2.05288E-14
 -1      2988 1.40491E-02 9.32539E-04-5.82510E-14
 -1      2989 5.70592E-03 2.07065E-04-1.20189E-14
 -1      2990 5.64983E-03 2.18244E-04-1.18488E-14
 -1      2991 6.27182E-03 1.44451E-05-1.31273E-14
 -1      2992 6.14092E-03 6.80888E-05-1.28771E-14
 -1      2993 8.88644E-03-1.20123E-04-2.09478E-14
 -1      2994 8.70313E-03-2.35476E-04-2.05427E-14
 -1      2995 8.13517E-03-5.54445E-04-1.88883E-14
 -1      2996 8.01594E-03-5.98359E-04-1.84233E-14
 -1      2997 9.24556E-03 8.56934E-05-2.16930E-14
 -1      2998 9.08430E-03-4.95024E-06-2.14057E-14
 -1      2999 1.02227E-02 4.65771E-04-2.26329E-14
 -1      3000 1.01476E-02 4.49722E-04-2.25894E-14
 -1      3001 6.94970E-03 8.31308E-04-1.23246E-14
 -1      3002 7.87484E-04-1.43176E-04-3.16709E-16
 -1      3003 7.91368E-04-1.68131E-04-3.17739E-16
 -1      3004 9.05204E-04-1.46404E-04-3.98417E-16
 -1      3005 8.95481E-04 9.95110E-07-3.64346E-16
 -1      3006 7.77793E-04-9.53259E-06-2.91447E-16
 -1      3007 7.78170E-04-3.07675E-05-2.97573E-16
 -1      3008 8.65185E-04 2.63314E-04-1.91023E-16
 -1      3009 5.73037E-03 1.77921E-04-1.18599E-14
 -1      3010 9.78570E-03 3.34946E-04-2.25431E-14
 -1      3011 9.69509E-03 2.92610E-04-2.27328E-14
 -1      3012 9.89286E-03 3.68149E-04-2.30197E-14
 -1      3013 1.01010E-02 4.36681E-04-2.29580E-14
 -1      3014 1.02900E-02 4.82567E-04-2.28583E-14
 -1      3015 1.02823E-02 4.81802E-04-2.33146E-14
 -1      3016 1.03411E-02 4.94145E-04-2.30839E-14
 -1      3017 9.37530E-03 1.46196E-04-2.21332E-14
 -1      3018 1.44054E-02 1.55375E-03-5.37018E-14
 -1      3019 1.45444E-02 1.60313E-03-5.45443E-14
 -1      3020 1.45755E-02 1.64414E-03-5.43386E-14
 -1      3021 7.21147E-03-4.99212E-04-1.54589E-14
 -1      3022 7.14513E-03-4.40926E-04-1.52290E-14
 -1      3023 6.99992E-03-3.87236E-04-1.47789E-14
 -1      3024 1.01944E-02 5.53536E-04-2.20251E-14
 -1      3025 6.27989E-03 4.51979E-04-1.17397E-14
 -1      3026 7.71490E-03 1.31728E-03-1.39756E-14
 -1      3027 8.86531E-03 1.21563E-03-1.78440E-14
 -1      3028 8.24014E-03-5.11603E-04-1.94174E-14
 -1      3029 5.61216E-03 2.15093E-04-1.15187E-14
 -1      3030 7.91162E-03-6.24052E-04-1.81266E-14
 -1      3031 1.46087E-02 1.68122E-03-5.42098E-14
 -1      3032 1.46399E-02 1.72245E-03-5.40062E-14
 -1      3033 1.45358E-02 1.70580E-03-5.31121E-14
 -1      3034 1.44694E-02 1.63155E-03-5.33680E-14
 -1      3035 9.00145E-03-6.38993E-05-2.15404E-14
 -1      3036 1.03354E-02 5.04035E-04-2.25159E-14
 -1      3037 1.03618E-02 5.05451E-04-2.29189E-14
 -1      3038 1.03464E-02 5.19943E-04-2.28051E-14
 -1      3039 9.55035E-03 8.23767E-04-2.00546E-14
 -1      3040 1.40810E-02 9.74238E-04-5.80455E-14
 -1      3041 6.36242E-03-3.70355E-05-1.32481E-14
 -1      3042 6.24314E-03-2.11474E-05-1.28407E-14
 -1      3043 6.44697E-03-9.25838E-05-1.33701E-14
 -1      3044 5.93272E-03 3.13508E-04-1.16273E-14
 -1      3045 6.74933E-03-2.19688E-04-1.41684E-14
 -1      3046 1.39153E-02 9.30189E-04-5.68423E-14
 -1      3047 1.40432E-02 9.91931E-04-5.73993E-14
 -1      3048 1.39358E-02 9.85726E-04-5.63219E-14
 -1      3049 1.38194E-02 9.10115E-04-5.60764E-14
 -1      3050 8.61225E-03-2.99840E-04-2.05608E-14
 -1      3051 8.95643E-03 1.15107E-03-1.81606E-14
 -1      3052 9.10761E-03 1.06060E-03-1.86558E-14
 -1      3053 9.83391E-04 2.71879E-04-2.57796E-16
 -1      3054 5.68773E-03 2.44108E-04-1.15211E-14
 -1      3055 5.72164E-03 2.52227E-04-1.13613E-14
 -1      3056 5.63101E-03 2.30582E-04-1.12537E-14
 -1      3057 7.78980E-04-5.21552E-05-3.02913E-16
 -1      3058 7.80242E-04-7.39681E-05-3.07642E-16
 -1      3059 8.99501E-04-9.52021E-05-3.90936E-16
 -1      3060 8.96416E-04-4.65429E-05-3.79471E-16
 -1      3061 9.90998E-03 6.52666E-04-2.11154E-14
 -1      3062 5.99979E-03 9.07714E-05-1.24078E-14
 -1      3063 9.26494E-03 1.00090E-03-1.92104E-14
 -1      3064 7.63708E-03-6.35102E-04-1.70721E-14
 -1      3065 7.55930E-03-6.10687E-04-1.66838E-14
 -1      3066 7.44178E-03-5.90758E-04-1.62984E-14
 -1      3067 5.73179E-03 1.46117E-04-1.16178E-14
 -1      3068 5.63418E-03 1.74644E-04-1.13866E-14
 -1      3069 1.04079E-03 2.39209E-04-3.23485E-16
 -1      3070 1.03413E-03 2.07765E-04-3.43502E-16
 -1      3071 9.86643E-03 7.04052E-04-2.12049E-14
 -1      3072 1.00235E-02 6.44577E-04-2.17429E-14
 -1      3073 1.73212E-03-3.30609E-04-1.19400E-15
 -1      3074 1.87576E-03-3.39196E-04-1.37649E-15
 -1      3075 2.01938E-03-3.45892E-04-1.57181E-15
 -1      3076 2.16298E-03-3.50841E-04-1.77981E-15
 -1      3077 1.93996E-03-3.07637E-04-1.46768E-15
 -1      3078 2.30651E-03-3.54311E-04-1.99996E-15
 -1      3079 2.44999E-03-3.56420E-04-2.23275E-15
 -1      3080 2.22749E-03-3.16981E-04-1.88002E-15
 -1      3081 2.59340E-03-3.57390E-04-2.47845E-15
 -1      3082 2.73675E-03-3.57316E-04-2.73631E-15
 -1      3083 2.51474E-03-3.20968E-04-2.34223E-15
 -1      3084 2.88005E-03-3.56379E-04-3.00641E-15
 -1      3085 3.02330E-03-3.54658E-04-3.28902E-15
 -1      3086 2.80155E-03-3.20791E-04-2.85377E-15
 -1      3087 3.16651E-03-3.52309E-04-3.58406E-15
 -1      3088 3.30972E-03-3.49403E-04-3.89117E-15
 -1      3089 3.08786E-03-3.17436E-04-3.41472E-15
 -1      3090 3.45294E-03-3.46082E-04-4.20967E-15
 -1      3091 3.59621E-03-3.42423E-04-4.54044E-15
 -1      3092 3.37370E-03-3.11743E-04-4.02450E-15
 -1      3093 3.73955E-03-3.38568E-04-4.88249E-15
 -1      3094 3.88304E-03-3.34610E-04-5.23626E-15
 -1      3095 3.65921E-03-3.04484E-04-4.68115E-15
 -1      3096 4.02671E-03-3.30704E-04-5.60152E-15
 -1      3097 4.17068E-03-3.26980E-04-5.97841E-15
 -1      3098 3.94470E-03-2.96456E-04-5.38381E-15
 -1      3099 4.31503E-03-3.23609E-04-6.36703E-15
 -1      3100 4.45988E-03-3.20782E-04-6.76687E-15
 -1      3101 4.23067E-03-2.88579E-04-6.13329E-15
 -1      3102 4.60538E-03-3.18693E-04-7.17713E-15
 -1      3103 4.75171E-03-3.17623E-04-7.60027E-15
 -1      3104 4.51798E-03-2.82007E-04-6.92820E-15
 -1      3105 4.89909E-03-3.17787E-04-8.03619E-15
 -1      3106 5.04773E-03-3.19593E-04-8.48337E-15
 -1      3107 4.80794E-03-2.78258E-04-7.76977E-15
 -1      3108 5.19795E-03-3.23262E-04-8.94375E-15
 -1      3109 5.34994E-03-3.29376E-04-9.41743E-15
 -1      3110 5.10245E-03-2.79390E-04-8.66021E-15
 -1      3111 5.50416E-03-3.38142E-04-9.90419E-15
 -1      3112 5.66066E-03-3.50314E-04-1.04051E-14
 -1      3113 5.40406E-03-2.88213E-04-9.60248E-15
 -1      3114 5.81998E-03-3.66049E-04-1.09200E-14
 -1      3115 5.98187E-03-3.86175E-04-1.14472E-14
 -1      3116 5.71578E-03-3.08504E-04-1.05980E-14
 -1      3117 6.14686E-03-4.10718E-04-1.19893E-14
 -1      3118 6.31404E-03-4.40223E-04-1.25475E-14
 -1      3119 6.04038E-03-3.44968E-04-1.16490E-14
 -1      3120 6.48371E-03-4.74412E-04-1.31205E-14
 -1      3121 6.65422E-03-5.12567E-04-1.37076E-14
 -1      3122 6.37866E-03-4.02473E-04-1.27564E-14
 -1      3123 6.82546E-03-5.53723E-04-1.43120E-14
 -1      3124 6.99513E-03-5.95079E-04-1.49328E-14
 -1      3125 6.72714E-03-4.81809E-04-1.39253E-14
 -1      3126 7.16270E-03-6.34695E-04-1.55690E-14
 -1      3127 7.32718E-03-6.67278E-04-1.62207E-14
 -1      3128 7.07605E-03-5.73735E-04-1.51577E-14
 -1      3129 7.80143E-03-6.90180E-04-1.82752E-14
 -1      3130 7.95831E-03-6.64177E-04-1.89929E-14
 -1      3131 8.11564E-03-6.21431E-04-1.97275E-14
 -1      3132 8.27711E-03-5.65469E-04-2.04787E-14
 -1      3133 8.05533E-03-6.20225E-04-1.92486E-14
 -1      3134 8.44198E-03-4.98391E-04-2.12441E-14
 -1      3135 8.60977E-03-4.26649E-04-2.20281E-14
 -1      3136 8.38600E-03-4.96730E-04-2.07463E-14
 -1      3137 8.77999E-03-3.52249E-04-2.28271E-14
 -1      3138 8.95074E-03-2.79165E-04-2.36402E-14
 -1      3139 8.73128E-03-3.41808E-04-2.23056E-14
 -1      3140 9.12168E-03-2.08782E-04-2.44669E-14
 -1      3141 9.29070E-03-1.42591E-04-2.53078E-14
 -1      3142 9.08139E-03-1.89985E-04-2.39260E-14
 -1      3143 9.45801E-03-8.11625E-05-2.61623E-14
 -1      3144 9.62233E-03-2.43651E-05-2.70288E-14
 -1      3145 9.42494E-03-5.74618E-05-2.56019E-14
 -1      3146 9.78415E-03 2.77343E-05-2.79070E-14
 -1      3147 9.94295E-03 7.58819E-05-2.87960E-14
 -1      3148 9.75562E-03 5.30199E-05-2.73310E-14
 -1      3149 1.00993E-02 1.20199E-04-2.96972E-14
 -1      3150 1.02531E-02 1.61495E-04-3.06081E-14
 -1      3151 1.00726E-02 1.45189E-04-2.91073E-14
 -1      3152 1.04049E-02 1.99961E-04-3.15295E-14
 -1      3153 1.05548E-02 2.36259E-04-3.24641E-14
 -1      3154 1.03781E-02 2.23979E-04-3.09250E-14
 -1      3155 1.07033E-02 2.70598E-04-3.34065E-14
 -1      3156 1.08505E-02 3.03460E-04-3.43578E-14
 -1      3157 1.06752E-02 2.93621E-04-3.27876E-14
 -1      3158 1.09966E-02 3.35049E-04-3.53199E-14
 -1      3159 1.11419E-02 3.65695E-04-3.62903E-14
 -1      3160 1.09665E-02 3.57307E-04-3.46910E-14
 -1      3161 1.12866E-02 3.95580E-04-3.72668E-14
 -1      3162 1.14307E-02 4.24922E-04-3.82516E-14
 -1      3163 1.12542E-02 4.17335E-04-3.66301E-14
 -1      3164 1.15745E-02 4.53873E-04-3.92420E-14
 -1      3165 1.17180E-02 4.82570E-04-4.02426E-14
 -1      3166 1.15400E-02 4.75336E-04-3.85966E-14
 -1      3167 1.18612E-02 5.11133E-04-4.12520E-14
 -1      3168 1.20043E-02 5.39645E-04-4.22686E-14
 -1      3169 1.18247E-02 5.32447E-04-4.05944E-14
 -1      3170 1.21473E-02 5.68190E-04-4.32960E-14
 -1      3171 1.22902E-02 5.96818E-04-4.43350E-14
 -1      3172 1.21091E-02 5.89438E-04-4.26295E-14
 -1      3173 1.24330E-02 6.25583E-04-4.53852E-14
 -1      3174 1.25758E-02 6.54510E-04-4.64445E-14
 -1      3175 1.23934E-02 6.46805E-04-4.47038E-14
 -1      3176 1.27186E-02 6.83633E-04-4.75138E-14
 -1      3177 1.28614E-02 7.12959E-04-4.85919E-14
 -1      3178 1.26779E-02 7.04842E-04-4.68186E-14
 -1      3179 1.30042E-02 7.42504E-04-4.96793E-14
 -1      3180 1.31470E-02 7.72269E-04-5.07755E-14
 -1      3181 1.29626E-02 7.63700E-04-4.89708E-14
 -1      3182 1.32897E-02 8.02255E-04-5.18783E-14
 -1      3183 1.34325E-02 8.32458E-04-5.29845E-14
 -1      3184 1.32475E-02 8.23428E-04-5.11555E-14
 -1      3185 1.35545E-02 8.55836E-04-5.39693E-14
 -1      3186 1.36973E-02 8.86425E-04-5.50840E-14
 -1      3187 1.37556E-02 9.24160E-04-5.52084E-14
 -1      3188 1.35119E-02 8.76992E-04-5.32374E-14
 -1      3189 3.25693E-03 3.83619E-04-2.83794E-15
 -1      3190 3.11400E-03 3.86805E-04-2.58784E-15
 -1      3191 2.97104E-03 3.89295E-04-2.34943E-15
 -1      3192 2.82801E-03 3.91021E-04-2.12294E-15
 -1      3193 3.03498E-03 3.52381E-04-2.52776E-15
 -1      3194 3.82786E-03 3.66235E-04-3.95882E-15
 -1      3195 3.68525E-03 3.71078E-04-3.66050E-15
 -1      3196 4.11262E-03 3.56374E-04-4.59066E-15
 -1      3197 3.97029E-03 3.61307E-04-4.26911E-15
 -1      3198 3.88700E-03 3.29604E-04-4.18892E-15
 -1      3199 4.39668E-03 3.47348E-04-5.26911E-15
 -1      3200 4.25471E-03 3.51683E-04-4.92384E-15
 -1      3201 4.16827E-03 3.20528E-04-4.83703E-15
 -1      3202 4.67999E-03 3.40910E-04-5.99361E-15
 -1      3203 4.53838E-03 3.43699E-04-5.62576E-15
 -1      3204 4.44756E-03 3.12613E-04-5.53203E-15
 -1      3205 4.96281E-03 3.39479E-04-6.76436E-15
 -1      3206 4.82136E-03 3.39408E-04-6.37362E-15
 -1      3207 4.72459E-03 3.07526E-04-6.27345E-15
 -1      3208 5.24625E-03 3.46381E-04-7.57893E-15
 -1      3209 5.10426E-03 3.41637E-04-7.16559E-15
 -1      3210 4.99941E-03 3.07464E-04-7.06001E-15
 -1      3211 5.53306E-03 3.66215E-04-8.44061E-15
 -1      3212 5.38886E-03 3.54255E-04-8.00366E-15
 -1      3213 5.27298E-03 3.15285E-04-7.89268E-15
 -1      3214 5.82905E-03 4.05688E-04-9.34912E-15
 -1      3215 5.67927E-03 3.82703E-04-8.88908E-15
 -1      3216 5.54810E-03 3.34821E-04-8.77134E-15
 -1      3217 6.14452E-03 4.75676E-04-1.03065E-14
 -1      3218 5.98349E-03 4.35454E-04-9.82162E-15
 -1      3219 5.83117E-03 3.72080E-04-9.69799E-15
 -1      3220 6.59777E-03 6.31151E-04-1.16528E-14
 -1      3221 6.41148E-03 5.54093E-04-1.11347E-14
 -1      3222 8.23246E-03 1.45357E-03-1.56530E-14
 -1      3223 8.42552E-03 1.41982E-03-1.63079E-14
 -1      3224 9.46888E-03 9.25555E-04-1.99649E-14
 -1      3225 1.05438E-02 7.88591E-04-2.50850E-14
 -1      3226 1.03938E-02 7.78363E-04-2.42312E-14
 -1      3227 1.08351E-02 8.25935E-04-2.68329E-14
 -1      3228 1.06904E-02 8.05099E-04-2.59529E-14
 -1      3229 1.06447E-02 7.57770E-04-2.56905E-14
 -1      3230 1.11211E-02 8.78416E-04-2.86362E-14
 -1      3231 1.09784E-02 8.50671E-04-2.77270E-14
 -1      3232 1.09214E-02 8.03461E-04-2.74543E-14
 -1      3233 1.14054E-02 9.40803E-04-3.04861E-14
 -1      3234 1.12633E-02 9.08622E-04-2.95552E-14
 -1      3235 1.11966E-02 8.60454E-04-2.92696E-14
 -1      3236 1.16897E-02 1.00933E-03-3.23809E-14
 -1      3237 1.15474E-02 9.74466E-04-3.14279E-14
 -1      3238 1.14728E-02 9.24985E-04-3.11338E-14
 -1      3239 1.19744E-02 1.08132E-03-3.43147E-14
 -1      3240 1.18319E-02 1.04500E-03-3.33441E-14
 -1      3241 1.17509E-02 9.94259E-04-3.30400E-14
 -1      3242 1.22597E-02 1.15491E-03-3.62764E-14
 -1      3243 1.21169E-02 1.11798E-03-3.52904E-14
 -1      3244 1.20310E-02 1.06621E-03-3.49806E-14
 -1      3245 1.25454E-02 1.22888E-03-3.82741E-14
 -1      3246 1.24024E-02 1.19189E-03-3.72717E-14
 -1      3247 1.23127E-02 1.13935E-03-3.69509E-14
 -1      3248 1.28313E-02 1.30246E-03-4.03002E-14
 -1      3249 1.26883E-02 1.26575E-03-3.92842E-14
 -1      3250 1.25957E-02 1.21268E-03-3.89548E-14
 -1      3251 1.31174E-02 1.37523E-03-4.23643E-14
 -1      3252 1.29743E-02 1.33896E-03-4.13282E-14
 -1      3253 1.28796E-02 1.28558E-03-4.09914E-14
 -1      3254 1.34035E-02 1.44695E-03-4.44505E-14
 -1      3255 1.32604E-02 1.41123E-03-4.34039E-14
 -1      3256 1.31642E-02 1.35766E-03-4.30568E-14
 -1      3257 1.36896E-02 1.51758E-03-4.65621E-14
 -1      3258 1.35466E-02 1.48240E-03-4.55036E-14
 -1      3259 1.34492E-02 1.42877E-03-4.51517E-14
 -1      3260 1.39757E-02 1.58712E-03-4.86969E-14
 -1      3261 1.38326E-02 1.55248E-03-4.76270E-14
 -1      3262 1.37345E-02 1.49885E-03-4.72692E-14
 -1      3263 1.42616E-02 1.65567E-03-5.08482E-14
 -1      3264 1.41186E-02 1.62151E-03-4.97722E-14
 -1      3265 1.40200E-02 1.56793E-03-4.94097E-14
 -1      3266 1.44508E-02 1.68928E-03-5.24224E-14
 -1      3267 1.43467E-02 1.67238E-03-5.15345E-14
 -1      3268 1.42477E-02 1.61887E-03-5.11731E-14
 -1      3269 1.44176E-02 1.65212E-03-5.25513E-14
 -1      3270 8.74039E-03-2.35199E-04-2.11988E-14
 -1      3271 8.55424E-03-3.50621E-04-2.06762E-14
 -1      3272 1.01649E-03 6.66959E-05-4.21335E-16
 -1      3273 1.01524E-03 4.03009E-05-4.33478E-16
 -1      3274 1.40785E-02 1.26063E-03-5.41156E-14
 -1      3275 1.41102E-02 1.30122E-03-5.39035E-14
 -1      3276 1.38867E-02 1.01715E-03-5.53697E-14
 -1      3277 1.39190E-02 1.05823E-03-5.51594E-14
 -1      3278 1.40157E-02 1.18074E-03-5.45301E-14
 -1      3279 1.40472E-02 1.22071E-03-5.43227E-14
 -1      3280 1.39403E-02 1.21332E-03-5.32640E-14
 -1      3281 5.82456E-03 2.82426E-04-1.12963E-14
 -1      3282 5.95705E-03 3.26376E-04-1.12925E-14
 -1      3283 1.14551E-03 3.05565E-04-3.39504E-16
 -1      3284 1.08288E-03 2.67177E-04-3.29489E-16
 -1      3285 1.20197E-03 2.67873E-04-4.16822E-16
 -1      3286 1.28875E-03 3.26450E-04-4.27609E-16
 -1      3287 1.01842E-02 5.84754E-04-2.22919E-14
 -1      3288 1.02887E-02 5.51029E-04-2.26706E-14
 -1      3289 9.08916E-03-3.12653E-05-2.21298E-14
 -1      3290 8.91116E-03-1.33443E-04-2.16623E-14
 -1      3291 8.84110E-03-1.96755E-04-2.17801E-14
 -1      3292 1.39513E-02 1.09918E-03-5.49519E-14
 -1      3293 1.39835E-02 1.14001E-03-5.47428E-14
 -1      3294 1.38767E-02 1.13305E-03-5.36793E-14
 -1      3295 1.38120E-02 1.05169E-03-5.40961E-14
 -1      3296 1.02395E-02 7.74849E-04-2.33909E-14
 -1      3297 1.00788E-02 7.81302E-04-2.25665E-14
 -1      3298 1.03607E-02 7.29198E-04-2.39795E-14
 -1      3299 9.95404E-03 7.71985E-04-2.19136E-14
 -1      3300 9.77992E-03 7.99958E-04-2.11169E-14
 -1      3301 8.34447E-03-4.69397E-04-2.00153E-14
 -1      3302 8.17344E-03-5.53183E-04-1.93838E-14
 -1      3303 3.54258E-03 3.75648E-04-3.37420E-15
 -1      3304 3.39978E-03 3.79879E-04-3.09995E-15
 -1      3305 3.32004E-03 3.46450E-04-3.03338E-15
 -1      3306 3.60414E-03 3.38576E-04-3.58697E-15
 -1      3307 9.63638E-03 8.26214E-04-2.04993E-14
 -1      3308 2.11217E-03 3.83377E-04-1.16893E-15
 -1      3309 1.96883E-03 3.77523E-04-1.01351E-15
 -1      3310 7.99618E-04-1.88904E-04-3.20788E-16
 -1      3311 8.07601E-04-2.12636E-04-3.21913E-16
 -1      3312 9.36909E-04-2.42736E-04-4.10316E-16
 -1      3313 9.17710E-04-1.95572E-04-4.04462E-16
 -1      3314 7.97669E-03-6.23875E-04-1.86653E-14
 -1      3315 7.82969E-03-6.48300E-04-1.79959E-14
 -1      3316 6.73512E-03 6.96470E-04-1.20171E-14
 -1      3317 6.01938E-03 4.42151E-05-1.22390E-14
 -1      3318 5.87534E-03 9.70396E-05-1.19321E-14
 -1      3319 6.76537E-03-2.64975E-04-1.41162E-14
 -1      3320 6.61010E-03-1.75953E-04-1.37391E-14
 -1      3321 6.47441E-03-1.45558E-04-1.33188E-14
 -1      3322 5.57802E-03 1.97957E-04-1.12197E-14
 -1      3323 5.57014E-03 2.09594E-04-1.11154E-14
 -1      3324 1.44505E-03-3.06647E-04-8.66630E-16
 -1      3325 1.58855E-03-3.19819E-04-1.02397E-15
 -1      3326 1.65251E-03-2.91504E-04-1.10498E-15
 -1      3327 1.01796E-02 4.53065E-04-2.36725E-14
 -1      3328 1.00698E-02 4.22754E-04-2.35409E-14
 -1      3329 9.53633E-03 2.17009E-04-2.27027E-14
 -1      3330 9.35786E-03 1.20936E-04-2.25737E-14
 -1      3331 6.22092E-03 4.57177E-04-1.10005E-14
 -1      3332 1.01460E-03 1.41312E-05-4.44455E-16
 -1      3333 1.01456E-03-1.19348E-05-4.54701E-16
 -1      3334 1.13502E-03 2.94361E-05-5.31503E-16
 -1      3335 1.15345E-03 2.07506E-04-4.31106E-16
 -1      3336 1.02871E-03 1.77727E-04-3.61527E-16
 -1      3337 1.02442E-03 1.48802E-04-3.78400E-16
 -1      3338 1.01511E-02 6.27694E-04-2.23869E-14
 -1      3339 9.99812E-03 3.93073E-04-2.37340E-14
 -1      3340 1.03611E-02 5.69159E-04-2.33499E-14
 -1      3341 1.03532E-02 5.42027E-04-2.30765E-14
 -1      3342 1.04044E-02 5.39322E-04-2.34857E-14
 -1      3343 7.38365E-03-6.20769E-04-1.62372E-14
 -1      3344 7.30419E-03-5.77985E-04-1.58650E-14
 -1      3345 1.03816E-02 5.07600E-04-2.33773E-14
 -1      3346 1.22763E-03-2.82942E-04-6.51944E-16
 -1      3347 1.33627E-03-2.95638E-04-7.55418E-16
 -1      3348 1.40019E-03-2.71199E-04-8.26948E-16
 -1      3349 7.43785E-03-6.57308E-04-1.65629E-14
 -1      3350 7.51078E-03-6.94544E-04-1.69973E-14
 -1      3351 7.66857E-03-7.00335E-04-1.76850E-14
 -1      3352 7.57595E-03-6.54889E-04-1.70132E-14
 -1      3353 1.42667E-02 1.50459E-03-5.28600E-14
 -1      3354 1.42975E-02 1.54524E-03-5.26549E-14
 -1      3355 7.17195E-03-5.42806E-04-1.54000E-14
 -1      3356 7.75945E-03-6.75655E-04-1.79308E-14
 -1      3357 1.42356E-02 1.46371E-03-5.30671E-14
 -1      3358 1.41279E-02 1.45515E-03-5.20221E-14
 -1      3359 1.42044E-02 1.42294E-03-5.32743E-14
 -1      3360 1.04464E-03-2.60617E-04-4.93285E-16
 -1      3361 2.74917E-03 3.55553E-04-2.06925E-15
 -1      3362 2.68494E-03 3.91827E-04-1.90813E-15
 -1      3363 2.54182E-03 3.91632E-04-1.70545E-15
 -1      3364 5.74308E-03 1.06402E-04-1.14566E-14
 -1      3365 1.02387E-03-1.46120E-04-4.89070E-16
 -1      3366 1.02802E-03-1.74969E-04-4.92323E-16
 -1      3367 7.68829E-03-6.54596E-04-1.74133E-14
 -1      3368 1.88873E-03 3.38621E-04-9.78289E-16
 -1      3369 1.82545E-03 3.69717E-04-8.69855E-16
 -1      3370 1.68200E-03 3.59796E-04-7.37705E-16
 -1      3371 1.01839E-03 9.34017E-05-4.08297E-16
 -1      3372 1.13788E-03 8.64335E-05-5.03273E-16
 -1      3373 1.02098E-03 1.20655E-04-3.93904E-16
 -1      3374 1.01008E-02 7.07483E-04-2.24851E-14
 -1      3375 1.41417E-02 1.34172E-03-5.36951E-14
 -1      3376 1.41732E-02 1.38235E-03-5.34843E-14
 -1      3377 1.40658E-02 1.37404E-03-5.24364E-14
 -1      3378 1.40032E-02 1.29335E-03-5.28518E-14
 -1      3379 5.73479E-03 2.61289E-04-1.10335E-14
 -1      3380 5.51096E-03 1.98633E-04-1.06696E-14
 -1      3381 5.56812E-03 2.14446E-04-1.09600E-14
 -1      3382 5.57572E-03 2.19498E-04-1.08053E-14
 -1      3383 9.25327E-03 4.87956E-05-2.26999E-14
 -1      3384 9.16650E-03-2.17989E-05-2.28222E-14
 -1      3385 9.41402E-03 1.18824E-04-2.32746E-14
 -1      3386 8.47211E-03-4.13683E-04-2.06411E-14
 -1      3387 1.37920E-02 9.51869E-04-5.52287E-14
 -1      3388 1.38503E-02 9.89515E-04-5.53503E-14
 -1      3389 1.37431E-02 9.83289E-04-5.42821E-14
 -1      3390 1.36702E-02 9.28142E-04-5.42414E-14
 -1      3391 1.55704E-03 3.52999E-04-6.27618E-16
 -1      3392 1.41358E-03 3.38184E-04-5.17829E-16
 -1      3393 1.36971E-03 3.08489E-04-5.12299E-16
 -1      3394 1.61987E-03 3.25036E-04-7.19653E-16
 -1      3395 9.66278E-03 2.63237E-04-2.31795E-14
 -1      3396 2.39866E-03 3.90249E-04-1.51512E-15
 -1      3397 2.25544E-03 3.87576E-04-1.33613E-15
 -1      3398 2.46277E-03 3.55072E-04-1.65856E-15
 -1      3399 6.93291E-03-4.09863E-04-1.45553E-14
 -1      3400 6.85779E-03-3.40029E-04-1.43360E-14
 -1      3401 6.71646E-03-2.99617E-04-1.39002E-14
 -1      3402 6.05117E-03 3.81879E-04-1.08910E-14
 -1      3403 1.01807E-03-9.09649E-05-4.78675E-16
 -1      3404 1.02056E-03-1.18171E-04-4.84557E-16
 -1      3405 1.14326E-03-1.42605E-04-5.88017E-16
 -1      3406 6.09189E-03 3.62756E-06-1.23533E-14
 -1      3407 5.95016E-03 1.61482E-05-1.18769E-14
 -1      3408 6.16276E-03-4.11712E-05-1.24674E-14
 -1      3409 5.55573E-03 1.73733E-04-1.09875E-14
 -1      3410 2.17591E-03 3.49870E-04-1.29547E-15
 -1      3411 1.02675E-02 4.75747E-04-2.39038E-14
 -1      3412 1.02564E-02 4.64577E-04-2.44979E-14
 -1      3413 1.03427E-02 4.92420E-04-2.41354E-14
 -1      3414 1.04370E-02 5.25868E-04-2.39056E-14
 -1      3415 1.04167E-02 5.14655E-04-2.40728E-14
 -1      3416 6.99118E-03-4.87976E-04-1.47723E-14
 -1      3417 2.14888E-03-2.79858E-04-1.76312E-15
 -1      3418 2.29268E-03-2.82811E-04-1.97964E-15
 -1      3419 2.43638E-03-2.84624E-04-2.20921E-15
 -1      3420 2.57995E-03-2.85381E-04-2.45085E-15
 -1      3421 2.35846E-03-2.48406E-04-2.07927E-15
 -1      3422 2.72334E-03-2.85249E-04-2.70397E-15
 -1      3423 2.86656E-03-2.84292E-04-2.96990E-15
 -1      3424 2.64555E-03-2.49750E-04-2.55801E-15
 -1      3425 3.00956E-03-2.82654E-04-3.24838E-15
 -1      3426 3.15237E-03-2.80383E-04-3.53922E-15
 -1      3427 2.93175E-03-2.47914E-04-3.08534E-15
 -1      3428 3.29496E-03-2.77607E-04-3.84224E-15
 -1      3429 3.43736E-03-2.74369E-04-4.15642E-15
 -1      3430 3.21683E-03-2.43590E-04-3.66243E-15
 -1      3431 3.57956E-03-2.70786E-04-4.48178E-15
 -1      3432 3.72163E-03-2.66909E-04-4.81925E-15
 -1      3433 3.50071E-03-2.37362E-04-4.28592E-15
 -1      3434 3.86357E-03-2.62853E-04-5.16915E-15
 -1      3435 4.00547E-03-2.58688E-04-5.52969E-15
 -1      3436 3.78347E-03-2.29764E-04-4.95639E-15
 -1      3437 4.14738E-03-2.54535E-04-5.90200E-15
 -1      3438 4.28944E-03-2.50506E-04-6.28630E-15
 -1      3439 4.06537E-03-2.21349E-04-5.67405E-15
 -1      3440 4.43175E-03-2.46729E-04-6.68121E-15
 -1      3441 4.57450E-03-2.43388E-04-7.08750E-15
 -1      3442 4.34700E-03-2.12769E-04-6.43700E-15
 -1      3443 4.71787E-03-2.40618E-04-7.50642E-15
 -1      3444 4.86216E-03-2.38734E-04-7.93757E-15
 -1      3445 4.62941E-03-2.04886E-04-7.24685E-15
 -1      3446 5.00764E-03-2.37879E-04-8.38004E-15
 -1      3447 5.15468E-03-2.38556E-04-8.83592E-15
 -1      3448 4.91428E-03-1.98951E-04-8.10350E-15
 -1      3449 5.30371E-03-2.40906E-04-9.30449E-15
 -1      3450 5.45517E-03-2.45777E-04-9.78571E-15
 -1      3451 5.20423E-03-1.96880E-04-9.00946E-15
 -1      3452 5.60965E-03-2.53316E-04-1.02802E-14
 -1      3453 5.76746E-03-2.64742E-04-1.07891E-14
 -1      3454 5.50298E-03-2.01794E-04-9.96737E-15
 -1      3455 5.92944E-03-2.80187E-04-1.13117E-14
 -1      3456 6.09536E-03-3.01319E-04-1.18468E-14
 -1      3457 5.81537E-03-2.18738E-04-1.09785E-14
 -1      3458 6.26636E-03-3.28300E-04-1.23975E-14
 -1      3459 6.44067E-03-3.62450E-04-1.29635E-14
 -1      3460 6.14654E-03-2.55192E-04-1.20446E-14
 -1      3461 9.04320E-03-1.69579E-04-2.33892E-14
 -1      3462 9.22057E-03-9.67789E-05-2.42104E-14
 -1      3463 9.39529E-03-3.14080E-05-2.50466E-14
 -1      3464 9.56499E-03 2.77629E-05-2.58963E-14
 -1      3465 9.36906E-03-3.20989E-06-2.44951E-14
 -1      3466 9.73071E-03 8.05094E-05-2.67583E-14
 -1      3467 9.89184E-03 1.28436E-04-2.76325E-14
 -1      3468 9.70971E-03 1.10343E-04-2.61881E-14
 -1      3469 1.00493E-02 1.71747E-04-2.85180E-14
 -1      3470 1.02032E-02 2.11836E-04-2.94154E-14
 -1      3471 1.00295E-02 2.00164E-04-2.79322E-14
 -1      3472 1.03542E-02 2.48875E-04-3.03224E-14
 -1      3473 1.05027E-02 2.83868E-04-3.12417E-14
 -1      3474 1.03333E-02 2.74904E-04-2.97225E-14
 -1      3475 1.06493E-02 3.16958E-04-3.21717E-14
 -1      3476 1.07944E-02 3.48783E-04-3.31120E-14
 -1      3477 1.06260E-02 3.40772E-04-3.15581E-14
 -1      3478 1.09382E-02 3.79478E-04-3.40630E-14
 -1      3479 1.10812E-02 4.09425E-04-3.50237E-14
 -1      3480 1.09120E-02 4.01650E-04-3.34358E-14
 -1      3481 1.12234E-02 4.38750E-04-3.59940E-14
 -1      3482 1.13653E-02 4.67681E-04-3.69691E-14
 -1      3483 1.11942E-02 4.59865E-04-3.53565E-14
 -1      3484 1.15068E-02 4.96326E-04-3.79515E-14
 -1      3485 1.16481E-02 5.24815E-04-3.89422E-14
 -1      3486 1.14748E-02 5.16849E-04-3.73078E-14
 -1      3487 1.17893E-02 5.53240E-04-3.99409E-14
 -1      3488 1.19305E-02 5.81669E-04-4.09486E-14
 -1      3489 1.17549E-02 5.73497E-04-3.92880E-14
 -1      3490 1.20718E-02 6.10174E-04-4.19642E-14
 -1      3491 1.22131E-02 6.38787E-04-4.29915E-14
 -1      3492 1.20353E-02 6.30372E-04-4.13005E-14
 -1      3493 1.23546E-02 6.67560E-04-4.40260E-14
 -1      3494 1.24961E-02 6.96502E-04-4.50716E-14
 -1      3495 1.23164E-02 6.87814E-04-4.33511E-14
 -1      3496 1.26378E-02 7.25647E-04-4.61288E-14
 -1      3497 1.27796E-02 7.54993E-04-4.71937E-14
 -1      3498 1.25982E-02 7.46011E-04-4.54394E-14
 -1      3499 1.29215E-02 7.84559E-04-4.82659E-14
 -1      3500 1.30635E-02 8.14335E-04-4.93464E-14
 -1      3501 1.28808E-02 8.05046E-04-4.75648E-14
 -1      3502 1.32057E-02 8.44332E-04-5.04370E-14
 -1      3503 1.33479E-02 8.74530E-04-5.15341E-14
 -1      3504 1.31641E-02 8.64929E-04-4.97232E-14
 -1      3505 3.09874E-03 3.15801E-04-2.70962E-15
 -1      3506 2.95627E-03 3.17948E-04-2.46576E-15
 -1      3507 4.22236E-03 2.86183E-04-5.08630E-15
 -1      3508 4.08400E-03 2.90093E-04-4.74809E-15
 -1      3509 3.94495E-03 2.94151E-04-4.42188E-15
 -1      3510 3.80518E-03 2.98319E-04-4.10678E-15
 -1      3511 4.00189E-03 2.59979E-04-4.65724E-15
 -1      3512 4.76675E-03 2.76237E-04-6.55652E-15
 -1      3513 4.63207E-03 2.77520E-04-6.17114E-15
 -1      3514 5.03288E-03 2.77716E-04-7.35889E-15
 -1      3515 4.90024E-03 2.76267E-04-6.95192E-15
 -1      3516 4.80689E-03 2.47086E-04-6.84084E-15
 -1      3517 5.29538E-03 2.86460E-04-8.20921E-15
 -1      3518 5.16435E-03 2.81040E-04-7.77841E-15
 -1      3519 5.06365E-03 2.50245E-04-7.66119E-15
 -1      3520 5.55650E-03 3.05428E-04-9.10502E-15
 -1      3521 5.42556E-03 2.94359E-04-8.65130E-15
 -1      3522 5.31378E-03 2.59806E-04-8.52880E-15
 -1      3523 5.82199E-03 3.39850E-04-1.00483E-14
 -1      3524 5.68762E-03 3.19951E-04-9.57065E-15
 -1      3525 5.55842E-03 2.77676E-04-9.44143E-15
 -1      3526 5.91851E-03 3.44617E-04-1.05723E-14
 -1      3527 1.12666E-02 8.45402E-04-2.99065E-14
 -1      3528 1.11331E-02 8.14554E-04-2.89847E-14
 -1      3529 1.10007E-02 7.85502E-04-2.80742E-14
 -1      3530 1.08687E-02 7.58500E-04-2.71794E-14
 -1      3531 1.10725E-02 7.70912E-04-2.86992E-14
 -1      3532 1.07373E-02 7.33910E-04-2.62972E-14
 -1      3533 1.06053E-02 7.12412E-04-2.54277E-14
 -1      3534 1.08199E-02 7.15626E-04-2.69059E-14
 -1      3535 1.15361E-02 9.11064E-04-3.17828E-14
 -1      3536 1.14008E-02 8.77611E-04-3.08389E-14
 -1      3537 1.13310E-02 8.32370E-04-3.05448E-14
 -1      3538 1.18092E-02 9.80444E-04-3.37012E-14
 -1      3539 1.16721E-02 9.45364E-04-3.27369E-14
 -1      3540 1.15952E-02 8.98365E-04-3.24345E-14
 -1      3541 1.20854E-02 1.05194E-03-3.56479E-14
 -1      3542 1.19469E-02 1.01598E-03-3.46708E-14
 -1      3543 1.18643E-02 9.67376E-04-3.43593E-14
 -1      3544 1.23642E-02 1.12436E-03-3.76264E-14
 -1      3545 1.22245E-02 1.08807E-03-3.66318E-14
 -1      3546 1.21376E-02 1.03813E-03-3.63160E-14
 -1      3547 1.26450E-02 1.19687E-03-3.96381E-14
 -1      3548 1.25044E-02 1.16063E-03-3.86306E-14
 -1      3549 1.24141E-02 1.10965E-03-3.83040E-14
 -1      3550 1.29272E-02 1.26894E-03-4.16810E-14
 -1      3551 1.27859E-02 1.23298E-03-4.06546E-14
 -1      3552 1.26931E-02 1.18123E-03-4.03231E-14
 -1      3553 1.32105E-02 1.34027E-03-4.37533E-14
 -1      3554 1.30687E-02 1.30471E-03-4.27130E-14
 -1      3555 1.29740E-02 1.25241E-03-4.23717E-14
 -1      3556 1.34946E-02 1.41069E-03-4.58548E-14
 -1      3557 1.33525E-02 1.37559E-03-4.48016E-14
 -1      3558 1.32563E-02 1.32292E-03-4.44534E-14
 -1      3559 1.37792E-02 1.48017E-03-4.79780E-14
 -1      3560 1.36369E-02 1.44555E-03-4.69133E-14
 -1      3561 1.35396E-02 1.39263E-03-4.65595E-14
 -1      3562 1.40642E-02 1.54876E-03-5.01257E-14
 -1      3563 1.39217E-02 1.51458E-03-4.90495E-14
 -1      3564 1.38237E-02 1.46151E-03-4.86906E-14
 -1      3565 1.10858E-03-2.42238E-04-5.52564E-16
 -1      3566 5.63548E-03 2.39082E-04-1.07443E-14
 -1      3567 5.71973E-03 2.65569E-04-1.06810E-14
 -1      3568 5.55017E-03 2.21194E-04-1.04590E-14
 -1      3569 1.43410E-02 1.58011E-03-5.26664E-14
 -1      3570 1.43740E-02 1.61703E-03-5.25392E-14
 -1      3571 1.42891E-02 1.60047E-03-5.18497E-14
 -1      3572 1.42023E-02 1.53066E-03-5.18269E-14
 -1      3573 1.38019E-02 1.16589E-03-5.24186E-14
 -1      3574 1.38333E-02 1.20542E-03-5.22161E-14
 -1      3575 8.14374E-03-5.73119E-04-1.93918E-14
 -1      3576 1.04733E-02 6.94359E-04-2.45712E-14
 -1      3577 1.03383E-02 6.80972E-04-2.37289E-14
 -1      3578 1.05723E-02 6.68720E-04-2.51658E-14
 -1      3579 1.32663E-03 2.79579E-04-5.05374E-16
 -1      3580 1.28435E-03 2.51429E-04-4.97242E-16
 -1      3581 1.45160E-03 2.88920E-04-6.03616E-16
 -1      3582 4.49648E-03 2.79696E-04-5.79747E-15
 -1      3583 4.35983E-03 2.82701E-04-5.43618E-15
 -1      3584 4.27516E-03 2.53428E-04-5.33872E-15
 -1      3585 4.54380E-03 2.48670E-04-6.06667E-15
 -1      3586 5.73750E-03 6.24416E-05-1.12465E-14
 -1      3587 5.61449E-03 1.06787E-04-1.09453E-14
 -1      3588 1.01511E-03-3.80379E-05-4.63551E-16
 -1      3589 1.01626E-03-6.42970E-05-4.71506E-16
 -1      3590 1.13758E-03-8.38862E-05-5.73895E-16
 -1      3591 9.82527E-03 3.17151E-04-2.38598E-14
 -1      3592 9.68994E-03 2.50864E-04-2.38263E-14
 -1      3593 1.86119E-03-2.69837E-04-1.36608E-15
 -1      3594 2.00503E-03-2.75570E-04-1.55841E-15
 -1      3595 2.07083E-03-2.43040E-04-1.64881E-15
 -1      3596 1.02374E-02 6.57251E-04-2.30610E-14
 -1      3597 1.03636E-02 6.13754E-04-2.36235E-14
 -1      3598 6.47506E-03-1.99495E-04-1.32073E-14
 -1      3599 6.33209E-03-1.27302E-04-1.28496E-14
 -1      3600 5.50789E-03 1.45265E-04-1.06386E-14
 -1      3601 5.46500E-03 1.69086E-04-1.04788E-14
 -1      3602 1.57390E-03-2.53267E-04-1.01811E-15
 -1      3603 1.71746E-03-2.62449E-04-1.18586E-15
 -1      3604 1.78321E-03-2.32647E-04-1.26699E-15
 -1      3605 1.00094E-02 3.77774E-04-2.43900E-14
 -1      3606 2.24035E-03 3.16054E-04-1.42490E-15
 -1      3607 2.09668E-03 3.12295E-04-1.25189E-15
 -1      3608 6.85677E-03-4.52867E-04-1.43263E-14
 -1      3609 1.27753E-03 2.17320E-04-5.21759E-16
 -1      3610 1.04338E-02 6.02916E-04-2.40384E-14
 -1      3611 1.37270E-02 1.19792E-03-5.11708E-14
 -1      3612 1.38650E-02 1.24551E-03-5.20092E-14
 -1      3613 1.38965E-02 1.28561E-03-5.18047E-14
 -1      3614 5.64631E-03 2.64981E-04-1.01568E-14
 -1      3615 5.76496E-03 2.91510E-04-1.04345E-14
 -1      3616 1.04290E-02 5.12656E-04-2.46725E-14
 -1      3617 6.67528E-03-4.03049E-04-1.37256E-14
 -1      3618 6.55285E-03-3.18818E-04-1.33447E-14
 -1      3619 8.68251E-03-3.32192E-04-2.17861E-14
 -1      3620 8.86251E-03-2.48930E-04-2.25806E-14
 -1      3621 2.87801E-03 2.83435E-04-2.40186E-15
 -1      3622 2.81354E-03 3.19383E-04-2.23367E-15
 -1      3623 2.67053E-03 3.20052E-04-2.01359E-15
 -1      3624 3.24086E-03 3.13094E-04-2.96505E-15
 -1      3625 3.16235E-03 2.79676E-04-2.89478E-15
 -1      3626 3.38264E-03 3.09871E-04-3.23213E-15
 -1      3627 1.34481E-02 8.89505E-04-5.23950E-14
 -1      3628 1.35698E-02 9.13005E-04-5.33731E-14
 -1      3629 1.36063E-02 9.40511E-04-5.33943E-14
 -1      3630 1.34060E-02 9.10237E-04-5.16703E-14
 -1      3631 1.01623E-02 4.23271E-04-2.49092E-14
 -1      3632 1.00192E-02 3.59129E-04-2.50344E-14
 -1      3633 3.72485E-03 2.67158E-04-4.02177E-15
 -1      3634 3.66485E-03 3.02375E-04-3.80297E-15
 -1      3635 3.52397E-03 3.06286E-04-3.51127E-15
 -1      3636 1.25669E-03 4.65850E-05-6.24948E-16
 -1      3637 1.25589E-03 1.63645E-05-6.39883E-16
 -1      3638 1.13493E-03-2.69815E-05-5.54935E-16
 -1      3639 5.85042E-03-1.98008E-07-1.14618E-14
 -1      3640 5.79331E-03 3.28901E-05-1.13544E-14
 -1      3641 5.64754E-03 4.07543E-05-1.08451E-14
 -1      3642 1.39895E-02 1.40600E-03-5.11866E-14
 -1      3643 1.40204E-02 1.44653E-03-5.09809E-14
 -1      3644 1.04704E-02 5.45410E-04-2.41848E-14
 -1      3645 1.14380E-03 1.45362E-04-4.69866E-16
 -1      3646 1.42043E-02 1.58381E-03-5.11611E-14
 -1      3647 1.37375E-02 1.08524E-03-5.28339E-14
 -1      3648 1.37698E-02 1.12561E-03-5.26256E-14
 -1      3649 1.36631E-02 1.11803E-03-5.15801E-14
 -1      3650 1.41058E-02 1.53066E-03-5.07992E-14
 -1      3651 1.40625E-02 1.49590E-03-5.07875E-14
 -1      3652 1.46508E-03-2.45754E-04-8.98966E-16
 -1      3653 1.53078E-03-2.19240E-04-9.71364E-16
 -1      3654 1.35648E-03-2.36974E-04-7.86738E-16
 -1      3655 1.25828E-03 7.69150E-05-6.08780E-16
 -1      3656 1.37949E-03 6.51520E-05-7.24586E-16
 -1      3657 1.26065E-03 1.07628E-04-5.91215E-16
 -1      3658 5.44276E-03 1.76789E-04-1.03304E-14
 -1      3659 5.42880E-03 1.83105E-04-1.01822E-14
 -1      3660 5.37589E-03 1.52531E-04-9.99481E-15
 -1      3661 9.58978E-03 1.87989E-04-2.39551E-14
 -1      3662 9.50026E-03 1.22606E-04-2.40818E-14
 -1      3663 9.75727E-03 2.44782E-04-2.46449E-14
 -1      3664 5.48756E-03 1.11415E-04-1.04402E-14
 -1      3665 8.90964E-03-1.69669E-04-2.21538E-14
 -1      3666 8.75225E-03-2.62315E-04-2.16834E-14
 -1      3667 1.02592E-02 4.52476E-04-2.51455E-14
 -1      3668 1.02707E-02 4.37589E-04-2.58022E-14
 -1      3669 1.03480E-02 4.76483E-04-2.53856E-14
 -1      3670 9.25225E-03-1.19634E-05-2.35346E-14
 -1      3671 9.09815E-03-8.35569E-05-2.29553E-14
 -1      3672 2.01793E-03 2.74963E-04-1.20714E-15
 -1      3673 1.95295E-03 3.07018E-04-1.09086E-15
 -1      3674 1.80920E-03 3.00097E-04-9.41155E-16
 -1      3675 1.26343E-03-1.36145E-04-6.95190E-16
 -1      3676 1.26746E-03-1.68019E-04-7.01750E-16
 -1      3677 2.52732E-03 3.19789E-04-1.80554E-15
 -1      3678 2.38390E-03 3.18520E-04-1.60957E-15
 -1      3679 2.59223E-03 2.84505E-04-1.95638E-15
 -1      3680 1.09887E-03-2.17108E-04-5.48132E-16
 -1      3681 1.40482E-03-1.85929E-04-8.37370E-16
 -1      3682 1.28431E-03-1.93009E-04-7.18189E-16
 -1      3683 6.17322E-03-9.79286E-05-1.23601E-14
 -1      3684 6.56234E-03-2.71206E-04-1.34148E-14
 -1      3685 1.39241E-02 1.44630E-03-4.99560E-14
 -1      3686 2.30539E-03 2.82021E-04-1.55838E-15
 -1      3687 1.36429E-02 9.67975E-04-5.34151E-14
 -1      3688 1.21841E-03-2.15339E-04-6.55170E-16
 -1      3689 9.00765E-03-1.49549E-04-2.28549E-14
 -1      3690 1.35408E-02 9.59402E-04-5.24413E-14
 -1      3691 1.36774E-02 1.00209E-03-5.33238E-14
 -1      3692 1.37100E-02 1.04278E-03-5.31191E-14
 -1      3693 1.34408E-02 9.44155E-04-5.15826E-14
 -1      3694 5.51579E-03 2.32120E-04-9.91165E-15
 -1      3695 5.53679E-03 2.53122E-04-9.67673E-15
 -1      3696 5.42387E-03 2.44059E-04-9.20849E-15
 -1      3697 1.05220E-02 5.34894E-04-2.53281E-14
 -1      3698 1.04509E-02 5.10677E-04-2.53903E-14
 -1      3699 1.00988E-02 3.63956E-04-2.57775E-14
 -1      3700 9.93788E-03 3.10334E-04-2.52481E-14
 -1      3701 2.56834E-03-2.14355E-04-2.41513E-15
 -1      3702 2.71160E-03-2.14124E-04-2.66418E-15
 -1      3703 2.85455E-03-2.13235E-04-2.92588E-15
 -1      3704 2.99719E-03-2.11715E-04-3.19997E-15
 -1      3705 2.77805E-03-1.78587E-04-2.77000E-15
 -1      3706 3.13944E-03-2.09674E-04-3.48612E-15
 -1      3707 3.28133E-03-2.07124E-04-3.78441E-15
 -1      3708 3.06286E-03-1.75783E-04-3.31327E-15
 -1      3709 3.42280E-03-2.04163E-04-4.09389E-15
 -1      3710 3.56388E-03-2.00798E-04-4.41395E-15
 -1      3711 3.34587E-03-1.71070E-04-3.90446E-15
 -1      3712 3.70455E-03-1.97118E-04-4.74745E-15
 -1      3713 3.84486E-03-1.93134E-04-5.09246E-15
 -1      3714 3.62688E-03-1.64754E-04-4.54210E-15
 -1      3715 3.98482E-03-1.88931E-04-5.44862E-15
 -1      3716 4.12452E-03-1.84537E-04-5.81669E-15
 -1      3717 3.90584E-03-1.57085E-04-5.22657E-15
 -1      3718 4.26400E-03-1.80033E-04-6.19594E-15
 -1      3719 4.40343E-03-1.75489E-04-6.58679E-15
 -1      3720 4.18294E-03-1.48301E-04-5.95768E-15
 -1      3721 4.54288E-03-1.70983E-04-6.98913E-15
 -1      3722 4.68266E-03-1.66663E-04-7.40353E-15
 -1      3723 4.45872E-03-1.38690E-04-6.73519E-15
 -1      3724 4.82289E-03-1.62597E-04-7.82985E-15
 -1      3725 4.96402E-03-1.59110E-04-8.26838E-15
 -1      3726 4.73420E-03-1.28694E-04-7.55971E-15
 -1      3727 5.10634E-03-1.56249E-04-8.71922E-15
 -1      3728 5.25046E-03-1.54664E-04-9.18269E-15
 -1      3729 5.01126E-03-1.19146E-04-8.43183E-15
 -1      3730 5.39674E-03-1.54357E-04-9.65898E-15
 -1      3731 5.54615E-03-1.56535E-04-1.01480E-14
 -1      3732 5.29301E-03-1.11657E-04-9.35450E-15
 -1      3733 5.69934E-03-1.61251E-04-1.06502E-14
 -1      3734 5.85727E-03-1.70653E-04-1.11655E-14
 -1      3735 5.58422E-03-1.09613E-04-1.03270E-14
 -1      3736 8.61316E-03-3.58797E-04-2.14177E-14
 -1      3737 8.43448E-03-4.44427E-04-2.06488E-14
 -1      3738 9.69538E-03 1.42643E-04-2.56224E-14
 -1      3739 9.85797E-03 1.89459E-04-2.64786E-14
 -1      3740 1.00151E-02 2.30236E-04-2.73495E-14
 -1      3741 1.01676E-02 2.67629E-04-2.82319E-14
 -1      3742 1.00065E-02 2.62328E-04-2.67697E-14
 -1      3743 1.03163E-02 3.01782E-04-2.91249E-14
 -1      3744 1.04621E-02 3.34146E-04-3.00312E-14
 -1      3745 1.03037E-02 3.29819E-04-2.85323E-14
 -1      3746 1.06055E-02 3.64823E-04-3.09474E-14
 -1      3747 1.07473E-02 3.94640E-04-3.18734E-14
 -1      3748 1.05881E-02 3.89275E-04-3.03395E-14
 -1      3749 1.08878E-02 4.23649E-04-3.28123E-14
 -1      3750 1.10275E-02 4.52267E-04-3.37609E-14
 -1      3751 1.08658E-02 4.45542E-04-3.21907E-14
 -1      3752 1.11666E-02 4.80552E-04-3.47212E-14
 -1      3753 1.13054E-02 5.08712E-04-3.56898E-14
 -1      3754 1.11405E-02 5.00828E-04-3.40861E-14
 -1      3755 1.14440E-02 5.36806E-04-3.66631E-14
 -1      3756 1.15827E-02 5.64930E-04-3.76447E-14
 -1      3757 1.14144E-02 5.56190E-04-3.60208E-14
 -1      3758 1.17214E-02 5.93138E-04-3.86353E-14
 -1      3759 1.18604E-02 6.21465E-04-3.96328E-14
 -1      3760 1.16888E-02 6.12140E-04-3.79850E-14
 -1      3761 1.19996E-02 6.49960E-04-4.06382E-14
 -1      3762 1.21390E-02 6.78627E-04-4.16547E-14
 -1      3763 1.19644E-02 6.68911E-04-3.99777E-14
 -1      3764 1.22787E-02 7.07503E-04-4.26783E-14
 -1      3765 1.24188E-02 7.36577E-04-4.37095E-14
 -1      3766 1.22416E-02 7.26595E-04-4.20062E-14
 -1      3767 1.25591E-02 7.65876E-04-4.47545E-14
 -1      3768 1.26996E-02 7.95380E-04-4.58079E-14
 -1      3769 1.25203E-02 7.85207E-04-4.40712E-14
 -1      3770 1.28405E-02 8.25108E-04-4.68662E-14
 -1      3771 1.29816E-02 8.55037E-04-4.79337E-14
 -1      3772 1.28005E-02 8.44713E-04-4.61711E-14
 -1      3773 1.31229E-02 8.85179E-04-4.90104E-14
 -1      3774 1.32644E-02 9.15510E-04-5.00951E-14
 -1      3775 1.30819E-02 9.05048E-04-4.83035E-14
 -1      3776 5.09325E-03 2.25435E-04-7.96733E-15
 -1      3777 4.97081E-03 2.22293E-04-7.54233E-15
 -1      3778 4.84621E-03 2.20246E-04-7.12948E-15
 -1      3779 4.71925E-03 2.19518E-04-6.72796E-15
 -1      3780 4.88535E-03 1.95741E-04-7.42123E-15
 -1      3781 1.37773E-03 1.44960E-06-7.58372E-16
 -1      3782 1.25584E-03-1.37206E-05-6.53381E-16
 -1      3783 1.25654E-03-4.38711E-05-6.65646E-16
 -1      3784 1.11368E-02 7.59122E-04-2.93282E-14
 -1      3785 1.10133E-02 7.29901E-04-2.84159E-14
 -1      3786 1.05049E-02 5.70172E-04-2.44984E-14
 -1      3787 1.05374E-02 5.55857E-04-2.49258E-14
 -1      3788 1.16502E-02 8.86645E-04-3.30846E-14
 -1      3789 1.15191E-02 8.53362E-04-3.21291E-14
 -1      3790 1.13898E-02 8.20988E-04-3.11839E-14
 -1      3791 1.12622E-02 7.89427E-04-3.02497E-14
 -1      3792 1.14436E-02 8.10363E-04-3.18263E-14
 -1      3793 1.08925E-02 7.02285E-04-2.75176E-14
 -1      3794 1.07738E-02 6.75848E-04-2.66339E-14
 -1      3795 1.09547E-02 6.91522E-04-2.81336E-14
 -1      3796 1.19166E-02 9.54895E-04-3.50183E-14
 -1      3797 1.17827E-02 9.20475E-04-3.40481E-14
 -1      3798 1.17016E-02 8.75293E-04-3.37351E-14
 -1      3799 1.21876E-02 1.02468E-03-3.69824E-14
 -1      3800 1.20516E-02 9.89623E-04-3.59972E-14
 -1      3801 1.19661E-02 9.42564E-04-3.56775E-14
 -1      3802 1.24625E-02 1.09515E-03-3.89817E-14
 -1      3803 1.23246E-02 1.05985E-03-3.79778E-14
 -1      3804 1.22357E-02 1.01125E-03-3.76533E-14
 -1      3805 1.27402E-02 1.16570E-03-4.10077E-14
 -1      3806 1.26010E-02 1.13043E-03-3.99906E-14
 -1      3807 1.25094E-02 1.08062E-03-3.96581E-14
 -1      3808 1.30200E-02 1.23593E-03-4.30640E-14
 -1      3809 1.28798E-02 1.20087E-03-4.20314E-14
 -1      3810 1.27862E-02 1.15011E-03-4.16930E-14
 -1      3811 1.33016E-02 1.30559E-03-4.51533E-14
 -1      3812 1.31606E-02 1.27084E-03-4.41064E-14
 -1      3813 1.30653E-02 1.21937E-03-4.37599E-14
 -1      3814 1.35843E-02 1.37457E-03-4.72666E-14
 -1      3815 1.34428E-02 1.34017E-03-4.62082E-14
 -1      3816 1.33463E-02 1.28818E-03-4.58558E-14
 -1      3817 1.37822E-02 1.41240E-03-4.88809E-14
 -1      3818 2.37104E-03 2.47814E-04-1.69567E-15
 -1      3819 2.22742E-03 2.45706E-04-1.50537E-15
 -1      3820 1.51324E-03-1.92310E-04-9.51293E-16
 -1      3821 1.62198E-03-1.97724E-04-1.07256E-15
 -1      3822 1.49631E-03-1.65906E-04-9.30896E-16
 -1      3823 5.46066E-03 2.11184E-04-9.97129E-15
 -1      3824 8.24617E-03-5.42682E-04-1.99855E-14
 -1      3825 1.69293E-03 2.98895E-04-8.22042E-16
 -1      3826 1.56761E-03 2.93528E-04-7.05463E-16
 -1      3827 1.52514E-03 2.65213E-04-6.95394E-16
 -1      3828 1.75769E-03 2.69403E-04-9.22412E-16
 -1      3829 1.25802E-03-7.42529E-05-6.76867E-16
 -1      3830 1.26028E-03-1.04933E-04-6.86883E-16
 -1      3831 1.38423E-03-1.27146E-04-8.09763E-16
 -1      3832 1.36846E-02 1.36006E-03-4.85243E-14
 -1      3833 9.43124E-03 5.51435E-05-2.43592E-14
 -1      3834 1.39276E-02 1.32561E-03-5.15973E-14
 -1      3835 1.39587E-02 1.36582E-03-5.13906E-14
 -1      3836 1.38515E-02 1.35721E-03-5.03512E-14
 -1      3837 1.37898E-02 1.27751E-03-5.07591E-14
 -1      3838 1.42634E-03 2.24675E-04-6.43894E-16
 -1      3839 1.29604E-03 1.83810E-04-5.64951E-16
 -1      3840 1.99353E-03-2.06706E-04-1.53726E-15
 -1      3841 2.13737E-03-2.10085E-04-1.73874E-15
 -1      3842 6.14759E-03-1.37022E-04-1.21922E-14
 -1      3843 5.99756E-03-6.24909E-05-1.18241E-14
 -1      3844 5.83284E-03-3.93971E-05-1.13022E-14
 -1      3845 1.05324E-02 6.08246E-04-2.47809E-14
 -1      3846 5.45393E-03 7.15619E-05-1.01967E-14
 -1      3847 5.36200E-03 1.09896E-04-9.90408E-15
 -1      3848 6.32889E-03-2.34233E-04-1.26698E-14
 -1      3849 1.29149E-03 1.51169E-04-5.86716E-16
 -1      3850 5.31954E-03 2.36365E-04-8.80120E-15
 -1      3851 5.20181E-03 2.30487E-04-8.35447E-15
 -1      3852 5.11149E-03 2.03595E-04-8.22783E-15
 -1      3853 5.31552E-03 2.15837E-04-9.02516E-15
 -1      3854 4.05834E-03 2.27181E-04-4.89553E-15
 -1      3855 3.92194E-03 2.30066E-04-4.56398E-15
 -1      3856 1.73578E-03-2.00432E-04-1.20666E-15
 -1      3857 1.87943E-03-2.06062E-04-1.38653E-15
 -1      3858 1.94665E-03-1.74630E-04-1.46835E-15
 -1      3859 1.71862E-03-1.72877E-04-1.18220E-15
 -1      3860 2.28116E-03-2.12428E-04-1.95215E-15
 -1      3861 2.42485E-03-2.13805E-04-2.17769E-15
 -1      3862 2.20457E-03-1.76755E-04-1.82806E-15
 -1      3863 6.14974E-03-1.88954E-04-1.21250E-14
 -1      3864 1.35889E-02 1.15029E-03-5.03316E-14
 -1      3865 1.36206E-02 1.18989E-03-5.01285E-14
 -1      3866 1.05901E-02 5.58150E-04-2.56512E-14
 -1      3867 1.06358E-02 5.59617E-04-2.63842E-14
 -1      3868 1.06491E-02 5.82340E-04-2.59758E-14
 -1      3869 9.85265E-03 2.56455E-04-2.53794E-14
 -1      3870 5.85368E-03-1.06248E-04-1.12425E-14
 -1      3871 5.98191E-03-1.69240E-04-1.15846E-14
 -1      3872 5.24889E-03 9.86910E-05-9.40839E-15
 -1      3873 5.30060E-03 1.30892E-04-9.63888E-15
 -1      3874 2.94271E-03 2.47785E-04-2.57360E-15
 -1      3875 2.80033E-03 2.48868E-04-2.33609E-15
 -1      3876 4.32736E-03 2.22353E-04-5.59280E-15
 -1      3877 4.19350E-03 2.24616E-04-5.23863E-15
 -1      3878 4.11459E-03 1.95810E-04-5.13672E-15
 -1      3879 1.33990E-02 9.64376E-04-5.08589E-14
 -1      3880 3.44480E-03 2.73999E-04-3.43447E-15
 -1      3881 1.37927E-03-6.23125E-05-7.86927E-16
 -1      3882 3.84399E-03 2.00031E-04-4.46854E-15
 -1      3883 3.78449E-03 2.33021E-04-4.24415E-15
 -1      3884 3.64606E-03 2.36044E-04-3.93553E-15
 -1      3885 3.22597E-03 2.44094E-04-3.08298E-15
 -1      3886 3.08460E-03 2.46183E-04-2.82261E-15
 -1      3887 3.00765E-03 2.12524E-04-2.74851E-15
 -1      3888 1.50052E-03 1.81874E-05-8.70357E-16
 -1      3889 1.50047E-03-1.51020E-05-8.87853E-16
 -1      3890 1.04693E-02 5.03760E-04-2.60515E-14
 -1      3891 1.11939E-02 7.48791E-04-2.99557E-14
 -1      3892 1.06405E-02 6.31489E-04-2.56356E-14
 -1      3893 1.54238E-03 2.27881E-04-7.49116E-16
 -1      3894 1.07058E-02 6.20630E-04-2.62332E-14
 -1      3895 9.60041E-03 1.20433E-04-2.50556E-14
 -1      3896 1.49229E-03-1.31541E-04-9.20732E-16
 -1      3897 2.49179E-03-1.79082E-04-2.27494E-15
 -1      3898 1.36032E-02 1.03574E-03-5.20675E-14
 -1      3899 1.41227E-03 1.42273E-04-7.01086E-16
 -1      3900 5.27512E-03 1.40728E-04-9.49869E-15
 -1      3901 2.08369E-03 2.42491E-04-1.32732E-15
 -1      3902 1.93989E-03 2.38077E-04-1.16062E-15
 -1      3903 2.15011E-03 2.09652E-04-1.45125E-15
 -1      3904 4.59042E-03 2.19635E-04-6.33891E-15
 -1      3905 4.45968E-03 2.20710E-04-5.96032E-15
 -1      3906 4.37936E-03 1.92992E-04-5.85198E-15
 -1      3907 5.36383E-03 1.90261E-04-9.64720E-15
 -1      3908 1.03502E-02 4.45970E-04-2.65116E-14
 -1      3909 1.02566E-02 4.15697E-04-2.62661E-14
 -1      3910 1.36544E-02 1.32039E-03-4.87236E-14
 -1      3911 1.34576E-02 1.28310E-03-4.71118E-14
 -1      3912 1.36239E-02 1.28088E-03-4.89248E-14
 -1      3913 1.01894E-02 3.75302E-04-2.64843E-14
 -1      3914 5.52591E-03 3.07496E-05-1.03727E-14
 -1      3915 5.37733E-03 3.82501E-05-9.83893E-15
 -1      3916 1.35568E-02 1.11056E-03-5.05356E-14
 -1      3917 1.34508E-02 1.10287E-03-4.94974E-14
 -1      3918 1.35245E-02 1.07074E-03-5.07372E-14
 -1      3919 2.65756E-03 2.49284E-04-2.11116E-15
 -1      3920 2.51443E-03 2.48985E-04-1.89773E-15
 -1      3921 2.43723E-03 2.13511E-04-1.83690E-15
 -1      3922 2.72329E-03 2.14212E-04-2.26934E-15
 -1      3923 1.50329E-03 8.49577E-05-8.30811E-16
 -1      3924 1.50146E-03 5.14715E-05-8.51221E-16
 -1      3925 1.62412E-03 3.61561E-05-9.88548E-16
 -1      3926 4.63689E-03 1.92617E-04-6.61321E-15
 -1      3927 5.57006E-03 5.51286E-06-1.04742E-14
 -1      3928 5.72120E-03-4.89568E-05-1.08927E-14
 -1      3929 1.20130E-02 9.30257E-04-3.63402E-14
 -1      3930 1.18805E-02 8.96925E-04-3.53610E-14
 -1      3931 5.26795E-03 1.61125E-04-9.36482E-15
 -1      3932 5.28793E-03 1.92469E-04-9.16400E-15
 -1      3933 5.19240E-03 1.85474E-04-8.75707E-15
 -1      3934 5.18097E-03 1.42371E-04-9.02219E-15
 -1      3935 2.98717E-03-1.41914E-04-3.14406E-15
 -1      3936 3.12887E-03-1.40172E-04-3.42505E-15
 -1      3937 3.27002E-03-1.38041E-04-3.71868E-15
 -1      3938 3.41059E-03-1.35491E-04-4.02319E-15
 -1      3939 3.19524E-03-1.04965E-04-3.53594E-15
 -1      3940 3.55054E-03-1.32592E-04-4.33967E-15
 -1      3941 3.68987E-03-1.29305E-04-4.66795E-15
 -1      3942 3.47553E-03-1.00466E-04-4.14102E-15
 -1      3943 3.82853E-03-1.25692E-04-5.00737E-15
 -1      3944 3.96659E-03-1.21713E-04-5.35917E-15
 -1      3945 3.75291E-03-9.45253E-05-4.79182E-15
 -1      3946 4.10398E-03-1.17419E-04-5.72276E-15
 -1      3947 4.24083E-03-1.12777E-04-6.09786E-15
 -1      3948 4.02717E-03-8.70896E-05-5.49054E-15
 -1      3949 4.37710E-03-1.07830E-04-6.48429E-15
 -1      3950 4.51302E-03-1.02575E-04-6.88249E-15
 -1      3951 4.29824E-03-7.80275E-05-6.23599E-15
 -1      3952 4.64855E-03-9.70474E-05-7.29214E-15
 -1      3953 4.78408E-03-9.13097E-05-7.71415E-15
 -1      3954 4.56638E-03-6.71979E-05-7.02864E-15
 -1      3955 4.91957E-03-8.54008E-05-8.14854E-15
 -1      3956 5.05571E-03-7.95378E-05-8.59470E-15
 -1      3957 4.83226E-03-5.44945E-05-7.86816E-15
 -1      3958 5.44329E-03-5.57941E-05-9.92343E-15
 -1      3959 5.58555E-03-5.24994E-05-1.04168E-14
 -1      3960 1.14927E-02 8.00197E-04-3.24683E-14
 -1      3961 1.13674E-02 7.69278E-04-3.15230E-14
 -1      3962 1.62401E-03-3.29625E-05-1.02739E-15
 -1      3963 1.50130E-03-4.84561E-05-9.03601E-16
 -1      3964 1.50303E-03-8.20132E-05-9.18373E-16
 -1      3965 9.76116E-03 2.05091E-04-2.53380E-14
 -1      3966 1.02966E-02 3.58205E-04-2.79397E-14
 -1      3967 1.04366E-02 3.86385E-04-2.88313E-14
 -1      3968 1.05742E-02 4.13515E-04-2.97326E-14
 -1      3969 1.07107E-02 4.40351E-04-3.06457E-14
 -1      3970 1.05640E-02 4.37708E-04-2.91294E-14
 -1      3971 1.08460E-02 4.66945E-04-3.15719E-14
 -1      3972 1.09810E-02 4.93633E-04-3.25079E-14
 -1      3973 1.08285E-02 4.87875E-04-3.09536E-14
 -1      3974 1.11158E-02 5.20452E-04-3.34535E-14
 -1      3975 1.12506E-02 5.47513E-04-3.44111E-14
 -1      3976 1.10924E-02 5.39405E-04-3.28234E-14
 -1      3977 1.13856E-02 5.74849E-04-3.53775E-14
 -1      3978 1.15210E-02 6.02467E-04-3.63513E-14
 -1      3979 1.13578E-02 5.92749E-04-3.47348E-14
 -1      3980 1.16568E-02 6.30403E-04-3.73320E-14
 -1      3981 1.17931E-02 6.58619E-04-3.83213E-14
 -1      3982 1.16253E-02 6.47891E-04-3.66828E-14
 -1      3983 1.19298E-02 6.87151E-04-3.93196E-14
 -1      3984 1.20671E-02 7.15946E-04-4.03232E-14
 -1      3985 1.18955E-02 7.04646E-04-3.86602E-14
 -1      3986 1.22048E-02 7.45034E-04-4.13365E-14
 -1      3987 1.23431E-02 7.74364E-04-4.23570E-14
 -1      3988 1.21683E-02 7.62788E-04-4.06677E-14
 -1      3989 1.24818E-02 8.03959E-04-4.33876E-14
 -1      3990 1.26211E-02 8.33771E-04-4.44301E-14
 -1      3991 1.24436E-02 8.22100E-04-4.27079E-14
 -1      3992 1.27607E-02 8.63820E-04-4.54773E-14
 -1      3993 1.29007E-02 8.94059E-04-4.65329E-14
 -1      3994 1.27210E-02 8.82397E-04-4.47839E-14
 -1      3995 1.30411E-02 9.24499E-04-4.75964E-14
 -1      3996 1.31818E-02 9.55116E-04-4.86666E-14
 -1      3997 1.30004E-02 9.43505E-04-4.68934E-14
 -1      3998 1.34270E-02 1.00640E-03-5.05795E-14
 -1      3999 9.93835E-03 2.71796E-04-2.59505E-14
 -1      4000 4.68443E-03 1.67514E-04-6.89162E-15
 -1      4001 4.55940E-03 1.66056E-04-6.49704E-15
 -1      4002 1.05913E-02 5.30654E-04-2.68207E-14
 -1      4003 1.04974E-02 4.95533E-04-2.68143E-14
 -1      4004 1.17495E-02 8.64116E-04-3.43897E-14
 -1      4005 1.16201E-02 8.31763E-04-3.34255E-14
 -1      4006 1.15378E-02 7.89825E-04-3.31136E-14
 -1      4007 1.17945E-02 8.52665E-04-3.50446E-14
 -1      4008 1.10077E-02 6.82759E-04-2.87516E-14
 -1      4009 1.08945E-02 6.55896E-04-2.78518E-14
 -1      4010 1.22819E-02 9.97774E-04-3.83254E-14
 -1      4011 1.21469E-02 9.63861E-04-3.73283E-14
 -1      4012 1.20579E-02 9.17654E-04-3.70057E-14
 -1      4013 1.25549E-02 1.06599E-03-4.03385E-14
 -1      4014 1.24180E-02 1.03181E-03-3.93278E-14
 -1      4015 1.23265E-02 9.84004E-04-3.89983E-14
 -1      4016 1.28312E-02 1.13441E-03-4.23813E-14
 -1      4017 1.26927E-02 1.10019E-03-4.13570E-14
 -1      4018 1.25993E-02 1.05110E-03-4.10189E-14
 -1      4019 1.31099E-02 1.20270E-03-4.44563E-14
 -1      4020 1.29703E-02 1.16858E-03-4.34145E-14
 -1      4021 1.28754E-02 1.11847E-03-4.30712E-14
 -1      4022 1.33537E-02 1.25997E-03-4.63057E-14
 -1      4023 1.32133E-02 1.22603E-03-4.52527E-14
 -1      4024 1.31173E-02 1.17523E-03-4.49019E-14
 -1      4025 1.33239E-02 1.22117E-03-4.65028E-14
 -1      4026 1.00888E-02 3.06903E-04-2.68136E-14
 -1      4027 3.50678E-03 2.38930E-04-3.63915E-15
 -1      4028 3.36671E-03 2.41671E-04-3.35544E-15
 -1      4029 3.28967E-03 2.09146E-04-3.27494E-15
 -1      4030 3.56871E-03 2.04747E-04-3.84782E-15
 -1      4031 1.79920E-03 2.34607E-04-1.00567E-15
 -1      4032 1.68271E-03 2.34443E-04-8.82405E-16
 -1      4033 1.58473E-03 1.95591E-04-8.21270E-16
 -1      4034 1.86565E-03 2.04055E-04-1.11281E-15
 -1      4035 1.12446E-02 7.39448E-04-3.05888E-14
 -1      4036 1.11245E-02 7.10411E-04-2.96656E-14
 -1      4037 1.10528E-02 6.74194E-04-2.93727E-14
 -1      4038 2.70235E-03-1.44005E-04-2.61744E-15
 -1      4039 2.84499E-03-1.43187E-04-2.87488E-15
 -1      4040 2.91239E-03-1.08006E-04-2.97837E-15
 -1      4041 1.04935E-02 4.79082E-04-2.72883E-14
 -1      4042 1.02334E-02 3.68252E-04-2.71029E-14
 -1      4043 1.36070E-02 1.21577E-03-4.96301E-14
 -1      4044 1.36380E-02 1.25518E-03-4.94244E-14
 -1      4045 1.34418E-02 1.21879E-03-4.78043E-14
 -1      4046 1.34694E-02 1.16796E-03-4.87974E-14
 -1      4047 2.12879E-03-1.41517E-04-1.70697E-15
 -1      4048 2.27247E-03-1.43099E-04-1.91677E-15
 -1      4049 1.07789E-02 6.22659E-04-2.69788E-14
 -1      4050 1.55875E-03 1.62985E-04-8.24685E-16
 -1      4051 1.52716E-03 1.15721E-04-8.31976E-16
 -1      4052 1.64921E-03 1.02316E-04-9.68165E-16
 -1      4053 1.69892E-03 1.67154E-04-9.65631E-16
 -1      4054 2.41601E-03-1.44011E-04-2.13821E-15
 -1      4055 2.55934E-03-1.44281E-04-2.37161E-15
 -1      4056 2.62746E-03-1.09480E-04-2.46756E-15
 -1      4057 5.30582E-03 4.44271E-06-9.52561E-15
 -1      4058 5.24769E-03 4.19056E-05-9.35959E-15
 -1      4059 5.17716E-03 7.01813E-05-9.10733E-15
 -1      4060 5.11694E-03 9.41373E-05-8.85662E-15
 -1      4061 5.10139E-03 4.05336E-05-8.80974E-15
 -1      4062 1.61409E-03-1.18962E-04-1.04955E-15
 -1      4063 4.92610E-03 1.73498E-04-7.71669E-15
 -1      4064 4.80676E-03 1.70099E-04-7.29805E-15
 -1      4065 4.73382E-03 1.44253E-04-7.17293E-15
 -1      4066 1.03843E-02 4.18599E-04-2.76050E-14
 -1      4067 5.29910E-03-4.39829E-05-9.44282E-15
 -1      4068 1.07613E-02 5.84951E-04-2.74927E-14
 -1      4069 1.06805E-02 5.58241E-04-2.71573E-14
 -1      4070 1.07243E-02 5.54797E-04-2.79341E-14
 -1      4071 5.11282E-03 1.81428E-04-8.42478E-15
 -1      4072 5.01070E-03 1.75992E-04-8.03476E-15
 -1      4073 4.93865E-03 1.51062E-04-7.90397E-15
 -1      4074 5.10247E-03 1.58613E-04-8.55535E-15
 -1      4075 5.07083E-03-1.91166E-05-8.67721E-15
 -1      4076 5.16376E-03-5.06547E-05-8.97424E-15
 -1      4077 1.12897E-02 7.30040E-04-3.12225E-14
 -1      4078 1.74842E-03 5.51890E-05-1.11278E-15
 -1      4079 1.74739E-03 1.95308E-05-1.13624E-15
 -1      4080 4.17127E-03 1.65824E-04-5.38123E-15
 -1      4081 4.03827E-03 1.66882E-04-5.03334E-15
 -1      4082 3.90378E-03 1.68190E-04-4.69651E-15
 -1      4083 3.76793E-03 1.69790E-04-4.37200E-15
 -1      4084 3.96417E-03 1.37504E-04-4.92817E-15
 -1      4085 1.33211E-02 9.99445E-04-4.95409E-14
 -1      4086 3.07298E-03 1.77700E-04-2.92680E-15
 -1      4087 2.93155E-03 1.78722E-04-2.67291E-15
 -1      4088 1.05024E-02 4.61513E-04-2.78883E-14
 -1      4089 1.05475E-02 4.56427E-04-2.85216E-14
 -1      4090 1.06759E-02 4.79777E-04-2.94200E-14
 -1      4091 1.06422E-02 5.11226E-04-2.81985E-14
 -1      4092 1.32796E-02 1.01870E-03-4.88271E-14
 -1      4093 2.34103E-03-1.09176E-04-2.00459E-15
 -1      4094 2.21725E-03 1.76493E-04-1.57865E-15
 -1      4095 2.07360E-03 1.74011E-04-1.39516E-15
 -1      4096 1.87119E-03 1.76389E-06-1.29440E-15
 -1      4097 1.74734E-03-1.61391E-05-1.15779E-15
 -1      4098 1.74827E-03-5.18909E-05-1.17748E-15
 -1      4099 1.72778E-03-1.19674E-04-1.18029E-15
 -1      4100 2.01463E-03-1.42612E-04-1.54961E-15
 -1      4101 2.08332E-03-1.10039E-04-1.63075E-15
 -1      4102 1.90050E-03-1.43110E-04-1.39987E-15
 -1      4103 1.08206E-02 6.15117E-04-2.75834E-14
 -1      4104 2.85629E-03 1.44732E-04-2.59609E-15
 -1      4105 2.78953E-03 1.79338E-04-2.43084E-15
 -1      4106 2.64700E-03 1.79528E-04-2.20032E-15
 -1      4107 5.10608E-03 1.16002E-04-8.77193E-15
 -1      4108 5.09711E-03 1.38950E-04-8.64516E-15
 -1      4109 5.01634E-03 1.33979E-04-8.31427E-15
 -1      4110 5.02521E-03 9.10705E-05-8.48353E-15
 -1      4111 1.33121E-02 1.05795E-03-4.86329E-14
 -1      4112 1.33443E-02 1.09710E-03-4.84303E-14
 -1      4113 1.31736E-02 1.01336E-03-4.77642E-14
 -1      4114 4.43205E-03 1.65267E-04-6.11331E-15
 -1      4115 4.30258E-03 1.65313E-04-5.74109E-15
 -1      4116 4.22880E-03 1.37210E-04-5.62979E-15
 -1      4117 1.33312E-02 1.12254E-03-4.79360E-14
 -1      4118 1.33178E-02 1.14778E-03-4.74432E-14
 -1      4119 1.31932E-02 1.07745E-03-4.70772E-14
 -1      4120 2.50405E-03 1.79156E-04-1.98183E-15
 -1      4121 2.36076E-03 1.78189E-04-1.77431E-15
 -1      4122 2.57147E-03 1.44816E-04-2.12987E-15
 -1      4123 2.28506E-03 1.43064E-04-1.71044E-15
 -1      4124 4.48598E-03 1.39138E-04-6.37782E-15
 -1      4125 1.30335E-02 9.82170E-04-4.67014E-14
 -1      4126 1.23697E-02 9.69894E-04-3.96708E-14
 -1      4127 1.22347E-02 9.37133E-04-3.86664E-14
 -1      4128 3.12155E-03-7.18142E-05-3.35707E-15
 -1      4129 3.26208E-03-7.02076E-05-3.64511E-15
 -1      4130 3.40185E-03-6.83018E-05-3.94499E-15
 -1      4131 3.54085E-03-6.60460E-05-4.25690E-15
 -1      4132 3.32944E-03-3.59639E-05-3.75264E-15
 -1      4133 3.67899E-03-6.34660E-05-4.57963E-15
 -1      4134 3.81624E-03-6.04802E-05-4.91435E-15
 -1      4135 3.60664E-03-3.22942E-05-4.37081E-15
 -1      4136 3.95252E-03-5.71349E-05-5.26211E-15
 -1      4137 4.08786E-03-5.33219E-05-5.62090E-15
 -1      4138 3.87995E-03-2.72642E-05-5.03634E-15
 -1      4139 4.22216E-03-4.90447E-05-5.99140E-15
 -1      4140 4.35552E-03-4.42247E-05-6.37382E-15
 -1      4141 4.14882E-03-2.04680E-05-5.74951E-15
 -1      4142 4.48779E-03-3.88476E-05-6.76758E-15
 -1      4143 4.61918E-03-3.28500E-05-7.17368E-15
 -1      4144 4.41283E-03-1.14368E-05-6.51017E-15
 -1      4145 4.74950E-03-2.62462E-05-7.59058E-15
 -1      4146 4.87906E-03-1.87768E-05-8.02068E-15
 -1      4147 4.67159E-03 3.83184E-07-7.31675E-15
 -1      4148 4.78651E-03 1.22373E-04-7.45678E-15
 -1      4149 4.66574E-03 1.17893E-04-7.04524E-15
 -1      4150 2.26692E-03-7.46651E-05-1.87441E-15
 -1      4151 2.41031E-03-7.50375E-05-2.09209E-15
 -1      4152 3.21371E-03 1.76414E-04-3.19249E-15
 -1      4153 3.13876E-03 1.43376E-04-3.10845E-15
 -1      4154 3.35369E-03 1.74870E-04-3.46961E-15
 -1      4155 1.08041E-02 5.03659E-04-3.03304E-14
 -1      4156 1.09328E-02 5.28172E-04-3.12538E-14
 -1      4157 1.07818E-02 5.18764E-04-2.97118E-14
 -1      4158 1.10620E-02 5.53375E-04-3.21879E-14
 -1      4159 1.11920E-02 5.79218E-04-3.31321E-14
 -1      4160 1.10327E-02 5.66602E-04-3.15539E-14
 -1      4161 1.13227E-02 6.05735E-04-3.40864E-14
 -1      4162 1.14543E-02 6.32815E-04-3.50513E-14
 -1      4163 1.12883E-02 6.17969E-04-3.34409E-14
 -1      4164 1.15867E-02 6.60482E-04-3.60238E-14
 -1      4165 1.17200E-02 6.88616E-04-3.70047E-14
 -1      4166 1.15484E-02 6.72341E-04-3.53670E-14
 -1      4167 1.18541E-02 7.17236E-04-3.79919E-14
 -1      4168 1.19891E-02 7.46232E-04-3.89896E-14
 -1      4169 1.18129E-02 7.29134E-04-3.73279E-14
 -1      4170 1.21248E-02 7.75621E-04-3.99941E-14
 -1      4171 1.22612E-02 8.05309E-04-4.10030E-14
 -1      4172 1.20813E-02 7.87817E-04-3.93188E-14
 -1      4173 1.23983E-02 8.35310E-04-4.20206E-14
 -1      4174 1.25361E-02 8.65547E-04-4.30486E-14
 -1      4175 1.23531E-02 8.47948E-04-4.13376E-14
 -1      4176 1.26745E-02 8.96031E-04-4.40860E-14
 -1      4177 1.28134E-02 9.26708E-04-4.51303E-14
 -1      4178 1.26280E-02 9.09171E-04-4.33904E-14
 -1      4179 1.95648E-03 1.72376E-04-1.25263E-15
 -1      4180 1.81581E-03 1.70404E-04-1.09078E-15
 -1      4181 1.79040E-03 1.37031E-04-1.09357E-15
 -1      4182 2.02444E-03 1.40446E-04-1.36868E-15
 -1      4183 1.29857E-02 9.95867E-04-4.59899E-14
 -1      4184 1.26427E-02 1.03589E-03-4.17020E-14
 -1      4185 1.25058E-02 1.00281E-03-4.06827E-14
 -1      4186 1.24118E-02 9.55290E-04-4.03445E-14
 -1      4187 1.21008E-02 9.04681E-04-3.76710E-14
 -1      4188 1.19681E-02 8.72507E-04-3.66818E-14
 -1      4189 1.21422E-02 8.91136E-04-3.83358E-14
 -1      4190 1.29188E-02 1.10226E-03-4.37627E-14
 -1      4191 1.27804E-02 1.06904E-03-4.27292E-14
 -1      4192 1.26852E-02 1.02027E-03-4.23855E-14
 -1      4193 2.83856E-03-7.40730E-05-2.81546E-15
 -1      4194 2.98036E-03-7.30891E-05-3.08002E-15
 -1      4195 3.04892E-03-3.85034E-05-3.18133E-15
 -1      4196 2.55345E-03-7.50596E-05-2.32130E-15
 -1      4197 2.69623E-03-7.47229E-05-2.56270E-15
 -1      4198 2.48030E-03-4.07501E-05-2.17864E-15
 -1      4199 4.98461E-03 8.49732E-06-8.38331E-15
 -1      4200 4.92101E-03 3.74031E-05-8.14726E-15
 -1      4201 1.10912E-02 6.65459E-04-2.99947E-14
 -1      4202 1.09768E-02 6.39567E-04-2.90790E-14
 -1      4203 4.54215E-03 1.14268E-04-6.64551E-15
 -1      4204 4.41613E-03 1.11700E-04-6.25642E-15
 -1      4205 4.60123E-03 9.05071E-05-6.91560E-15
 -1      4206 2.35361E-03 1.09409E-04-1.84557E-15
 -1      4207 2.21020E-03 1.08259E-04-1.64468E-15
 -1      4208 1.33281E-02 1.17199E-03-4.72192E-14
 -1      4209 1.33141E-02 1.19699E-03-4.67255E-14
 -1      4210 1.32108E-02 1.17428E-03-4.59221E-14
 -1      4211 1.31906E-02 1.12639E-03-4.63652E-14
 -1      4212 4.28788E-03 1.09749E-04-5.88012E-15
 -1      4213 4.15768E-03 1.08578E-04-5.51551E-15
 -1      4214 4.34899E-03 8.33412E-05-6.13425E-15
 -1      4215 1.08816E-02 6.15832E-04-2.83713E-14
 -1      4216 1.79683E-03-8.92575E-05-1.25158E-15
 -1      4217 1.13300E-02 7.20299E-04-3.18548E-14
 -1      4218 1.12091E-02 6.92213E-04-3.09216E-14
 -1      4219 1.11248E-02 6.55568E-04-3.06170E-14
 -1      4220 1.18773E-02 8.28330E-04-3.63575E-14
 -1      4221 1.18369E-02 8.40827E-04-3.56998E-14
 -1      4222 1.17073E-02 8.09586E-04-3.47268E-14
 -1      4223 2.16262E-03 7.51094E-05-1.61221E-15
 -1      4224 2.09315E-03 1.08010E-04-1.48832E-15
 -1      4225 1.97609E-03 1.07387E-04-1.34029E-15
 -1      4226 1.91983E-03-7.27137E-05-1.39695E-15
 -1      4227 4.02570E-03 1.07849E-04-5.16266E-15
 -1      4228 3.89214E-03 1.07631E-04-4.82131E-15
 -1      4229 4.08865E-03 7.91549E-05-5.39979E-15
 -1      4230 1.76586E-03 1.04228E-04-1.09434E-15
 -1      4231 1.88860E-03 8.83707E-05-1.25059E-15
 -1      4232 4.75507E-03 5.33666E-05-7.53331E-15
 -1      4233 4.87875E-03 8.04107E-05-7.93346E-15
 -1      4234 3.20519E-03 1.09554E-04-3.29302E-15
 -1      4235 3.06483E-03 1.10065E-04-3.02319E-15
 -1      4236 3.69358E-03 1.39148E-04-4.27361E-15
 -1      4237 3.63091E-03 1.71472E-04-4.05931E-15
 -1      4238 3.49278E-03 1.73228E-04-3.75844E-15
 -1      4239 1.07428E-02 5.44640E-04-2.85138E-14
 -1      4240 1.07624E-02 5.32062E-04-2.91279E-14
 -1      4241 1.08834E-02 5.54589E-04-3.00367E-14
 -1      4242 1.08374E-02 5.75605E-04-2.88607E-14
 -1      4243 1.15794E-02 7.79072E-04-3.37600E-14
 -1      4244 1.14536E-02 7.49180E-04-3.28014E-14
 -1      4245 1.16184E-02 7.67555E-04-3.44063E-14
 -1      4246 2.76564E-03-4.00753E-05-2.65608E-15
 -1      4247 1.31159E-02 1.14963E-03-4.52358E-14
 -1      4248 1.30131E-02 1.12686E-03-4.44404E-14
 -1      4249 1.29171E-02 1.07720E-03-4.40933E-14
 -1      4250 1.31060E-02 1.12591E-03-4.54561E-14
 -1      4251 1.29733E-02 1.02064E-03-4.55057E-14
 -1      4252 1.95850E-03 5.65419E-05-1.36229E-15
 -1      4253 4.93319E-03 1.29940E-04-7.99011E-15
 -1      4254 2.92371E-03 1.10412E-04-2.76461E-15
 -1      4255 2.78192E-03 1.10606E-04-2.51737E-15
 -1      4256 2.99182E-03 7.64261E-05-2.93629E-15
 -1      4257 1.09096E-02 6.06469E-04-2.89823E-14
 -1      4258 1.13669E-02 7.09649E-04-3.24920E-14
 -1      4259 4.87308E-03 1.03380E-04-7.85297E-15
 -1      4260 2.49677E-03 1.10162E-04-2.05807E-15
 -1      4261 2.42288E-03 7.55814E-05-1.98452E-15
 -1      4262 2.63958E-03 1.10521E-04-2.28191E-15
 -1      4263 2.03627E-03-7.49924E-05-1.55014E-15
 -1      4264 2.15047E-03-7.29561E-05-1.70590E-15
 -1      4265 2.22075E-03-3.94680E-05-1.78533E-15
 -1      4266 1.98797E-03-3.65050E-05-1.46529E-15
 -1      4267 2.05973E-03 4.69609E-05-1.49967E-15
 -1      4268 1.97304E-03 2.87372E-05-1.40251E-15
 -1      4269 1.97277E-03-8.46212E-06-1.42818E-15
 -1      4270 2.17678E-03 4.65789E-05-1.65741E-15
 -1      4271 4.37667E-03 3.66660E-05-6.32441E-15
 -1      4272 4.24691E-03 3.29166E-05-5.94408E-15
 -1      4273 4.63089E-03 4.67105E-05-7.11871E-15
 -1      4274 3.53581E-03-9.28184E-07-4.16564E-15
 -1      4275 3.67308E-03 7.36534E-07-4.48337E-15
 -1      4276 3.84818E-03 2.50433E-05-4.87547E-15
 -1      4277 3.98253E-03 2.71946E-05-5.22054E-15
 -1      4278 4.11543E-03 2.97168E-05-5.57589E-15
 -1      4279 4.50480E-03 4.13284E-05-6.71539E-15
 -1      4280 1.09379E-02 5.98695E-04-2.95721E-14
 -1      4281 1.10059E-02 5.78368E-04-3.09554E-14
 -1      4282 1.11303E-02 6.03124E-04-3.18881E-14
 -1      4283 1.09794E-02 5.89092E-04-3.03618E-14
 -1      4284 1.12561E-02 6.28941E-04-3.28311E-14
 -1      4285 1.13836E-02 6.55576E-04-3.37837E-14
 -1      4286 1.12240E-02 6.39024E-04-3.22226E-14
 -1      4287 1.15124E-02 6.83060E-04-3.47477E-14
 -1      4288 1.16426E-02 7.11190E-04-3.57186E-14
 -1      4289 1.14762E-02 6.92994E-04-3.41283E-14
 -1      4290 1.17740E-02 7.39976E-04-3.66987E-14
 -1      4291 1.19066E-02 7.69252E-04-3.76857E-14
 -1      4292 1.17349E-02 7.50116E-04-3.60717E-14
 -1      4293 1.20403E-02 7.99022E-04-3.86785E-14
 -1      4294 1.21750E-02 8.29154E-04-3.96835E-14
 -1      4295 1.19991E-02 8.09601E-04-3.80440E-14
 -1      4296 1.23105E-02 8.59650E-04-4.06916E-14
 -1      4297 1.24469E-02 8.90408E-04-4.17070E-14
 -1      4298 1.22677E-02 8.70798E-04-4.00455E-14
 -1      4299 1.25841E-02 9.21429E-04-4.27336E-14
 -1      4300 1.27220E-02 9.52631E-04-4.37677E-14
 -1      4301 1.25401E-02 9.33200E-04-4.20778E-14
 -1      4302 1.27506E-02 1.00868E-03-4.32633E-14
 -1      4303 1.26130E-02 9.76562E-04-4.22325E-14
 -1      4304 1.24762E-02 9.44632E-04-4.12104E-14
 -1      4305 1.23403E-02 9.12873E-04-4.01954E-14
 -1      4306 3.01885E-03 1.89273E-05-3.06023E-15
 -1      4307 3.15944E-03 1.94935E-05-3.33402E-15
 -1      4308 1.22053E-02 8.81407E-04-3.91882E-14
 -1      4309 1.20714E-02 8.50215E-04-3.81913E-14
 -1      4310 3.27868E-03 8.39871E-06-3.59189E-15
 -1      4311 3.41773E-03 9.40401E-06-3.88745E-15
 -1      4312 3.48689E-03 4.22828E-05-3.99123E-15
 -1      4313 3.25115E-03 6.46549E-05-3.45594E-15
 -1      4314 2.45028E-03 1.74616E-05-2.08336E-15
 -1      4315 2.59317E-03 1.78002E-05-2.31043E-15
 -1      4316 1.11751E-02 6.48063E-04-3.14173E-14
 -1      4317 1.10552E-02 6.22646E-04-3.04892E-14
 -1      4318 2.73563E-03 1.81142E-05-2.54853E-15
 -1      4319 2.87756E-03 1.85108E-05-2.79873E-15
 -1      4320 3.41814E-03 1.41317E-04-3.66769E-15
 -1      4321 1.14222E-02 7.01960E-04-3.33080E-14
 -1      4322 1.12976E-02 6.74443E-04-3.23581E-14
 -1      4323 3.32310E-03 9.75456E-05-3.55053E-15
 -1      4324 2.30708E-03 1.71493E-05-1.86771E-15
 -1      4325 3.78070E-03 5.51681E-05-4.65403E-15
 -1      4326 2.20548E-03-1.06927E-05-1.74341E-15
 -1      4327 1.16772E-02 7.59392E-04-3.52380E-14
 -1      4328 1.15489E-02 7.30248E-04-3.42669E-14
 -1      4329 1.19387E-02 8.19460E-04-3.71985E-14
 -1      4330 3.71479E-03 8.58438E-05-4.43586E-15
 -1      4331 1.30958E-02 1.10217E-03-4.56758E-14
 -1      4332 3.46176E-03 9.71551E-05-3.84351E-15
 -1      4333 2.70838E-03 7.63255E-05-2.43722E-15
 -1      4334 3.57816E-03 8.57665E-05-4.12075E-15
 -1      4335 1.28115E-02 9.86818E-04-4.42386E-14
 -1      4336 1.30175E-02 1.06794E-03-4.53092E-14
 -1      4337 1.18072E-02 7.89115E-04-3.62148E-14
 -1      4338 1.29335E-02 1.06735E-03-4.44083E-14
 -1      4339 1.27665E-02 9.98928E-04-4.35768E-14
 -1      4340 1.28394E-02 1.04324E-03-4.37315E-14
 -1      4341 2.08912E-03-9.59730E-06-1.58182E-15
 -3
    1PSTEP                         2           1           1          
  100CL  101 1.000000000        4341                     0    1           1
 -4  STRESS      6    1
 -5  SXX         1    4    1    1
 -5  SYY         1    4    2    2
 -5  SZZ         1    4    3    3
 -5  SXY         1    4    1    2
 -5  SYZ         1    4    2    3
 -5  SZX         1    4    3    1
 -1         1 2.91135E+01 1.09430E+01 1.45317E+00-1.74648E+01-5.35849E-13 9.58400E-13
 -1         2-8.48209E-01-2.45277E+01-3.36409E+00-1.44501E-01 5.74860E-13 4.89296E-14
 -1         3 1.99998E+01 2.17974E-05 3.45113E-03-2.43158E-05-3.51963E-13-2.66482E-13
 -1         4 1.99997E+01-1.50703E-04 3.26399E-03 1.90094E-04 1.33068E-13 6.35065E-14
 -1         5 3.26722E+01 6.12456E+00 2.73130E+00 6.20934E+00-2.32592E-14 1.47440E-12
 -1         6 3.56485E+01 1.22267E+01 5.10680E+00-8.62409E+00-9.28285E-14 9.21319E-13
 -1         7 2.07842E+01 6.08946E+00-1.27462E-01-4.71330E+00-1.51545E-14-3.85213E-14
 -1         8 1.96586E+01 5.93069E+00 5.15648E-02-3.26281E+00-1.25108E-14-2.82646E-13
 -1         9 1.91391E+01 5.77227E+00 4.96702E-02-2.51339E+00-9.19230E-15-3.99279E-13
 -1        10 1.89078E+01 5.69551E+00 5.16295E-02-1.93690E+00-2.11376E-15-4.40340E-13
 -1        11 1.87912E+01 5.65628E+00 5.04622E-02-1.44226E+00 3.64292E-16-4.46690E-13
 -1        12 1.87305E+01 5.63541E+00 4.85323E-02-1.00371E+00 3.10299E-15-4.21331E-13
 -1        13 1.86983E+01 5.62438E+00 4.69272E-02-5.87884E-01 5.60641E-15-3.99128E-13
 -1        14 1.86848E+01 5.61972E+00 4.60750E-02-1.88799E-01 5.06518E-15-3.62533E-13
 -1        15 1.86856E+01 5.61994E+00 4.61243E-02 2.05184E-01 9.89215E-15-3.27386E-13
 -1        16 1.87005E+01 5.62505E+00 4.70876E-02 6.05184E-01 1.01724E-14-2.90700E-13
 -1        17 1.87342E+01 5.63643E+00 4.88563E-02 1.02315E+00 9.66458E-15-2.51035E-13
 -1        18 1.87963E+01 5.65761E+00 5.09226E-02 1.46513E+00 1.43848E-14-1.76958E-13
 -1        19 1.89136E+01 5.69723E+00 5.19593E-02 1.96592E+00 1.96388E-14-8.35425E-14
 -1        20 1.91449E+01 5.77489E+00 4.94870E-02 2.55068E+00 2.03396E-14 5.75907E-14
 -1        21 1.96540E+01 5.94521E+00 4.67285E-02 3.29741E+00 2.18575E-14 3.10001E-13
 -1        22 2.11638E+01 6.36999E+00 1.39804E-01 4.51175E+00 2.47025E-15 7.22495E-13
 -1        23 2.29642E+01-1.37633E+00-9.37283E-01-7.08686E-01-6.39003E-14 6.05557E-13
 -1        24 1.93177E+01-9.94609E-02-3.09316E-01 6.30436E-02-1.29124E-14 3.54843E-13
 -1        25 1.86407E+01-5.65405E-02-6.87654E-02 6.04347E-02-4.80518E-15 1.21703E-13
 -1        26 1.84519E+01-2.25354E-02-6.77393E-03 3.26406E-02-5.20417E-15-5.48468E-14
 -1        27 1.84824E+01-1.24862E-02 9.76264E-04 2.22683E-02-1.45805E-14-1.59164E-13
 -1        28 1.86248E+01-7.19790E-03 8.44916E-04 1.60497E-02-8.39948E-15-2.27062E-13
 -1        29 1.88261E+01-4.36190E-03 3.99018E-04 1.20712E-02 7.33409E-15-2.76324E-13
 -1        30 1.90600E+01-2.86680E-03 1.20789E-04 9.40696E-03-5.15904E-15-3.21694E-13
 -1        31 1.93144E+01-2.16018E-03-2.55814E-04 7.64585E-03 9.56945E-15-4.09899E-13
 -1        32 1.95860E+01-1.92049E-03-8.15554E-04 6.60763E-03-1.56236E-14-5.44357E-13
 -1        33 1.98765E+01-1.92215E-03-1.49693E-03 6.21531E-03 7.10178E-14-5.01113E-13
 -1        34 2.01905E+01-1.96828E-03-2.15777E-03 6.42951E-03-4.40743E-14-5.34339E-13
 -1        35 2.05327E+01-1.85313E-03-2.58219E-03 7.20123E-03 4.95236E-16-6.49241E-13
 -1        36 2.09049E+01-1.34192E-03-2.45831E-03 8.41913E-03 3.71326E-15-6.30966E-13
 -1        37 2.13025E+01-1.69752E-04-1.35597E-03 9.83680E-03-2.55569E-14-4.86902E-13
 -1        38 2.17092E+01 1.92652E-03 1.25990E-03 1.09741E-02-2.05143E-14-4.95823E-13
 -1        39 2.20924E+01 5.12075E-03 5.92311E-03 1.10060E-02-3.85285E-14-4.49625E-13
 -1        40 2.23978E+01 9.32977E-03 1.28803E-02 8.69833E-03-5.41065E-14-6.15586E-13
 -1        41 2.25488E+01 1.39685E-02 2.15620E-02 2.52573E-03 6.12329E-14-7.99773E-13
 -1        42 2.24541E+01 1.77177E-02 2.98948E-02-8.80376E-03-2.43157E-14-8.30266E-13
 -1        43 2.20311E+01 1.85306E-02 3.38931E-02-2.52230E-02-2.35140E-14-6.79849E-13
 -1        44 2.12471E+01 1.42314E-02 2.84823E-02-4.37973E-02 4.50963E-14-3.56659E-13
 -1        45 2.01687E+01 3.85407E-03 1.02824E-02-5.79007E-02-3.38193E-14-2.01294E-13
 -1        46 1.89932E+01-1.07985E-02-1.82835E-02-5.89335E-02-3.26640E-14-6.91329E-13
 -1        47 1.80203E+01-2.47981E-02-4.71332E-02-4.13805E-02-3.48152E-14-8.63205E-13
 -1        48 1.75481E+01-3.21075E-02-6.25969E-02-8.37429E-03 4.34767E-14-8.71580E-13
 -1        49 1.77354E+01-2.92095E-02-5.63979E-02 2.79516E-02-9.58868E-16-6.47878E-13
 -1        50 1.85188E+01-1.75450E-02-3.19434E-02 5.33663E-02-6.02832E-14-8.24851E-13
 -1        51 1.96467E+01-2.48105E-03-1.68708E-03 6.03344E-02-2.03650E-14-6.57328E-13
 -1        52 2.08043E+01 1.01632E-02 2.18271E-02 5.10474E-02-2.43478E-14-5.10992E-13
 -1        53 2.17416E+01 1.71125E-02 3.26662E-02 3.34849E-02 4.70158E-14-5.30038E-13
 -1        54 2.23359E+01 1.82690E-02 3.21620E-02 1.55835E-02-5.55383E-15-4.34089E-13
 -1        55 2.25827E+01 1.54615E-02 2.50638E-02 1.92708E-03-5.36820E-14-8.26588E-13
 -1        56 2.25498E+01 1.09148E-02 1.60487E-02-6.31389E-03 2.68448E-14-9.18845E-13
 -1        57 2.23301E+01 6.29955E-03 8.03363E-03-9.98756E-03 4.91310E-14-9.02182E-13
 -1        58 2.20101E+01 2.50974E-03 2.17500E-03-1.05969E-02 1.03364E-13-7.94126E-13
 -1        59 2.16562E+01-1.74546E-04-1.48908E-03-9.51997E-03-8.44047E-14-4.55699E-13
 -1        60 2.13125E+01-1.82758E-03-3.40939E-03-7.73954E-03-8.90082E-14-2.67739E-13
 -1        61 2.10040E+01-2.67052E-03-4.13336E-03-5.84808E-03 1.51756E-14-3.95368E-13
 -1        62 2.07419E+01-2.94788E-03-4.12867E-03-4.14837E-03 3.03630E-14-8.59113E-13
 -1        63 2.05284E+01-2.87051E-03-3.73614E-03-2.75966E-03-1.74363E-14-8.60189E-13
 -1        64 2.03605E+01-2.59859E-03-3.18103E-03-1.69800E-03-8.45520E-14-1.24416E-12
 -1        65 2.02326E+01-2.24394E-03-2.60267E-03-9.27968E-04-4.72713E-14-9.97988E-13
 -1        66 2.01383E+01-1.87924E-03-2.08469E-03-3.91465E-04-9.01621E-14-8.33531E-13
 -1        67 2.00716E+01-1.54729E-03-1.67932E-03-1.99436E-05 7.93221E-14-3.96781E-13
 -1        68 2.00273E+01-1.26530E-03-1.41567E-03 2.67696E-04-1.22231E-14-9.92157E-14
 -1        69 2.00015E+01-1.01673E-03-1.25853E-03 5.75043E-04-4.83923E-15-8.32682E-14
 -1        70 1.99914E+01-6.77097E-04-9.23863E-04 1.06743E-03-2.46899E-14 2.45629E-13
 -1        71 1.99947E+01 1.12835E-04 6.36464E-04 1.54977E-03-7.27732E-14 9.01621E-14
 -1        72 2.09796E+01-4.03912E-01-9.79198E-01-3.10652E-01 1.58935E-14 1.44365E-12
 -1        73 1.92799E+01-6.59185E-02-2.90672E-01-5.35550E-02 5.78574E-15 1.21884E-12
 -1        74 1.86468E+01-2.07401E-02-6.42771E-02-1.99026E-02-6.61905E-16 1.08136E-12
 -1        75 1.84565E+01-1.02789E-02-9.63171E-03-1.47946E-02-2.85720E-15 1.03631E-12
 -1        76 1.84857E+01-5.76354E-03 6.00502E-05-1.15164E-02 1.13451E-14 9.49672E-13
 -1        77 1.86261E+01-3.46204E-03 7.69843E-04-9.02749E-03-2.86880E-16 8.46974E-13
 -1        78 1.88258E+01-2.30910E-03 4.49070E-04-7.05851E-03-9.74893E-15 8.21416E-13
 -1        79 1.90597E+01-1.84765E-03 4.16598E-05-5.39415E-03 1.45498E-14 7.70516E-13
 -1        80 1.93179E+01-1.85523E-03-6.10304E-04-3.94793E-03-1.97705E-14 7.24806E-13
 -1        81 1.96005E+01-2.21429E-03-1.64200E-03-2.71603E-03 3.01319E-14 6.61755E-13
 -1        82 1.99156E+01-2.85394E-03-3.11176E-03-1.74937E-03 1.18759E-14 5.59120E-13
 -1        83 2.02777E+01-3.71410E-03-5.05518E-03-1.15811E-03-1.15155E-14 4.34941E-13
 -1        84 2.07073E+01-4.70932E-03-7.49249E-03-1.14048E-03 2.57787E-14 6.41678E-13
 -1        85 2.12301E+01-5.67729E-03-1.03759E-02-2.03386E-03-7.59906E-15 5.46725E-13
 -1        86 2.18756E+01-6.29879E-03-1.34487E-02-4.38242E-03 1.84502E-14 4.34916E-13
 -1        87 2.26728E+01-5.98288E-03-1.59475E-02-8.99165E-03-6.04904E-14 6.04869E-13
 -1        88 2.36408E+01-3.74393E-03-1.60595E-02-1.68680E-02 1.82894E-15 6.87905E-13
 -1        89 2.47698E+01 1.80113E-03-1.01547E-02-2.87749E-02 4.49657E-14 5.88240E-13
 -1        90 2.59871E+01 1.19884E-02 7.65649E-03-4.38440E-02-1.44659E-14 5.44197E-13
 -1        91 2.71053E+01 2.64479E-02 4.35623E-02-5.65340E-02 3.53246E-14 5.10590E-13
 -1        92 2.77729E+01 4.02338E-02 9.63941E-02-5.25790E-02-1.83217E-14 7.16194E-13
 -1        93 2.74900E+01 4.13926E-02 1.43041E-01-9.42878E-03-4.18376E-14 9.52623E-13
 -1        94 2.58136E+01 1.72926E-02 1.33001E-01 8.59972E-02 5.15863E-14 7.08690E-13
 -1        95 2.28202E+01-2.79760E-02 1.79608E-02 2.00154E-01-2.83884E-14 6.77791E-13
 -1        96 1.95606E+01-6.38700E-02-1.67529E-01 2.37589E-01 4.48092E-14 1.13385E-12
 -1        97 1.77803E+01-6.02267E-02-2.85675E-01 1.25536E-01-6.80012E-14 1.33426E-12
 -1        98 1.86266E+01-2.46375E-02-2.24350E-01-7.23116E-02 5.29754E-14 1.16722E-12
 -1        99 2.15464E+01 1.32345E-02-4.38142E-02-2.02575E-01 8.43431E-15 3.59893E-13
 -1       100 2.48317E+01 3.46538E-02 1.03866E-01-2.01336E-01 3.81596E-14 1.04618E-13
 -1       101 2.70748E+01 3.64384E-02 1.47827E-01-1.22748E-01 2.87108E-14-6.52672E-14
 -1       102 2.78592E+01 2.64369E-02 1.15208E-01-4.08535E-02-3.06352E-14 7.68760E-14
 -1       103 2.74991E+01 1.36623E-02 6.07574E-02 1.03232E-02-4.73385E-14 5.15785E-14
 -1       104 2.65148E+01 3.47748E-03 1.77425E-02 3.17911E-02-6.48109E-15 3.80050E-13
 -1       105 2.53243E+01-2.71011E-03-6.38453E-03 3.54433E-02 6.78891E-14 1.63982E-13
 -1       106 2.41738E+01-5.60420E-03-1.61003E-02 3.11958E-02-1.40360E-13 2.17774E-13
 -1       107 2.31749E+01-6.40796E-03-1.78005E-02 2.46996E-02-3.39458E-15-1.04542E-13
 -1       108 2.23585E+01-6.10292E-03-1.59946E-02 1.84708E-02 1.50426E-13-2.53062E-13
 -1       109 2.17160E+01-5.32095E-03-1.31204E-02 1.33444E-02 4.79242E-14-9.62650E-14
 -1       110 2.12232E+01-4.41139E-03-1.02673E-02 9.41698E-03-4.50743E-14 1.77874E-13
 -1       111 2.08523E+01-3.54419E-03-7.82322E-03 6.52199E-03 1.26317E-13 2.59881E-14
 -1       112 2.05776E+01-2.78894E-03-5.86389E-03 4.43713E-03-6.95883E-14-1.52505E-13
 -1       113 2.03774E+01-2.16457E-03-4.34820E-03 2.96071E-03 4.78984E-14 2.30444E-13
 -1       114 2.02338E+01-1.66728E-03-3.20582E-03 1.93142E-03-7.84039E-14-1.22363E-13
 -1       115 2.01332E+01-1.28403E-03-2.37338E-03 1.22478E-03-5.33371E-15 8.44532E-14
 -1       116 2.00649E+01-9.95901E-04-1.80474E-03 7.38853E-04 5.28715E-14-2.89144E-13
 -1       117 2.00213E+01-7.80172E-04-1.46426E-03 3.78862E-04 6.16781E-14-5.05147E-13
 -1       118 1.99974E+01-5.99285E-04-1.27150E-03 3.41907E-05-2.25893E-14-2.99595E-13
 -1       119 1.99896E+01-2.88274E-04-8.44086E-04-5.56587E-04-1.03827E-14-3.99542E-13
 -1       120 1.99945E+01 4.59666E-04 7.72292E-04-1.50616E-03 2.17670E-13-4.20111E-13
 -1       121 1.99999E+01-5.29040E-03 5.02636E-04-1.90993E-03-4.05703E-13 7.62888E-14
 -1       122 1.99993E+01-9.04323E-03-1.11127E-03-7.88956E-04 3.65245E-13-8.70227E-14
 -1       123 1.99993E+01 1.12022E-03-1.19779E-03 1.36888E-04 7.24342E-13 7.61194E-14
 -1       124 1.99995E+01 2.30374E-02-7.03211E-04 7.16173E-04 1.94131E-13 1.01178E-13
 -1       125 1.99998E+01 5.13572E-02-7.63922E-05 9.41471E-04-4.99427E-13-3.16632E-13
 -1       126 2.00002E+01 7.92997E-02 4.72610E-04 8.92801E-04-1.01469E-12 1.23277E-13
 -1       127 2.00004E+01 1.01995E-01 8.74862E-04 6.29805E-04 2.48608E-13 1.82291E-13
 -1       128 2.00006E+01 1.14586E-01 1.08268E-03 2.37483E-04-4.51693E-13-1.45409E-14
 -1       129 2.00006E+01 1.14790E-01 1.07661E-03-1.95150E-04-4.64800E-13 2.51449E-13
 -1       130 2.00004E+01 1.02678E-01 8.63518E-04-5.80710E-04 6.36221E-13 1.11815E-14
 -1       131 2.00002E+01 8.06150E-02 4.68504E-04-8.44959E-04-3.64716E-13-2.09235E-14
 -1       132 1.99999E+01 5.33528E-02-4.89402E-05-8.97013E-04-1.98970E-12 1.23365E-13
 -1       133 1.99995E+01 2.55221E-02-6.34238E-04-6.97193E-04-8.83459E-13 1.33943E-13
 -1       134 1.99992E+01 3.44554E-03-1.16986E-03-2.45373E-04-2.60163E-13 6.79665E-14
 -1       135 1.99994E+01-7.25504E-03-9.76476E-04 9.35715E-04-1.06638E-13-2.26829E-14
 -1       136 1.99995E+01-4.81352E-03 4.55965E-04 2.66209E-03-2.71710E-13-7.79816E-14
 -1       137-1.58566E+00-2.00774E+01-3.15166E+00-4.00566E+00 9.09356E-13 2.39905E-13
 -1       138-1.68562E+00-8.52438E+00-2.38472E+00-3.19825E+00 8.42104E-13 3.22076E-13
 -1       139 3.12170E+00 3.36486E+00-1.18969E+00 3.57462E+00 8.28670E-13 8.00915E-13
 -1       140 1.76162E+01 1.04532E+01 4.17444E-01 1.34856E+01 9.48630E-13 1.20709E-12
 -1       141 3.85160E+01 9.49817E+00 2.02626E+00 1.86283E+01 6.63802E-13 1.25500E-12
 -1       142 5.95696E+01 4.11125E+00 3.37807E+00 1.36790E+01 1.59456E-13 3.38729E-13
 -1       143 6.86780E+01 1.17259E+00 3.91594E+00 1.02895E+00-8.58064E-14-3.50553E-13
 -1       144 6.24004E+01 3.19997E+00 3.56670E+00-1.19649E+01 3.31051E-13-7.88425E-13
 -1       145 4.31284E+01 8.63297E+00 2.35983E+00-1.86217E+01 8.24257E-13-1.72123E-12
 -1       146 2.04744E+01 1.08125E+01 6.79369E-01-1.47859E+01 1.30623E-12-1.78840E-12
 -1       147 5.43049E+00 5.47976E+00-8.70618E-01-5.69463E+00 1.28575E-12-1.10584E-12
 -1       148-1.08662E+00-5.80524E+00-2.14010E+00 1.95854E+00 7.17704E-13-4.85917E-13
 -1       149-1.84325E+00-1.83478E+01-3.04124E+00 4.46926E+00 1.04916E-13 1.79301E-14
 -1       150-7.57746E-01-2.46210E+01-3.38082E+00 1.29683E+00-5.85663E-13 2.16493E-14
 -1       151-1.13950E+00-2.17130E+01-3.17923E+00-3.08783E+00-1.08713E-12-2.69494E-13
 -1       152-1.60084E+00-1.08564E+01-2.43579E+00-3.40290E+00-1.70325E-12-6.40987E-13
 -1       153 1.47222E+00 1.61627E+00-1.30376E+00 1.92643E+00-1.52467E-12-1.04849E-12
 -1       154 1.29566E+01 9.89524E+00 1.70624E-01 1.12078E+01-1.07658E-12-1.02135E-12
 -1       155 3.18077E+01 1.05883E+01 1.61524E+00 1.78693E+01-4.06120E-13-6.97498E-13
 -1       156 5.17175E+01 5.84988E+00 2.80927E+00 1.61572E+01-7.78266E-14-2.35478E-13
 -1       157 6.50283E+01 1.21584E+00 3.46750E+00 4.62254E+00 5.27495E-14 4.20927E-13
 -1       158 6.26787E+01 1.96340E+00 3.31858E+00-8.86876E+00-4.94908E-14 6.04711E-13
 -1       159 4.86477E+01 6.81254E+00 2.61430E+00-1.72878E+01-4.27602E-13 7.13762E-13
 -1       160 1.27901E+01 9.94765E+00 1.60648E-01-1.12249E+01-1.09768E-12 9.06109E-13
 -1       161 2.49638E+00 2.81272E+00-1.11419E+00-2.97039E+00-1.24467E-12 1.02401E-12
 -1       162-1.46111E+00-8.68007E+00-2.22599E+00 2.98248E+00-6.48925E-13 3.67872E-13
 -1       163-1.29167E+00-1.95573E+01-3.01038E+00 3.52829E+00-4.98268E-13 1.93755E-13
 -1       164 2.09912E+01 3.68750E+00-5.71239E-02-3.59467E+00-1.67710E-13-1.45457E-13
 -1       165 1.99866E+01 4.20591E+00-4.57107E-02-2.79177E+00-1.24537E-13-2.84744E-13
 -1       166 1.95183E+01 4.47884E+00-3.11703E-02-2.17830E+00-7.09628E-14-3.49830E-13
 -1       167 1.92818E+01 4.62253E+00-2.33317E-02-1.65746E+00-3.56592E-14-3.74987E-13
 -1       168 1.91538E+01 4.70868E+00-1.93579E-02-1.20402E+00-1.31741E-15-3.58863E-13
 -1       169 1.90807E+01 4.76323E+00-1.72435E-02-7.80929E-01 3.13569E-14-3.45251E-13
 -1       170 1.90435E+01 4.79339E+00-1.62149E-02-3.81071E-01 6.64858E-14-3.12068E-13
 -1       171 1.90327E+01 4.80272E+00-1.59165E-02 7.98674E-03 1.00492E-13-2.87699E-13
 -1       172 1.90457E+01 4.79212E+00-1.62548E-02 3.97416E-01 1.30264E-13-2.56687E-13
 -1       173 1.90854E+01 4.76026E+00-1.73235E-02 7.98425E-01 1.56812E-13-2.22892E-13
 -1       174 1.91595E+01 4.70426E+00-1.95112E-02 1.21619E+00 1.65955E-13-1.67255E-13
 -1       175 1.92924E+01 4.61254E+00-2.38417E-02 1.68091E+00 1.96150E-13-9.10331E-14
 -1       176 1.95327E+01 4.46172E+00-3.26708E-02 2.20908E+00 2.21075E-13 9.07087E-15
 -1       177 2.00099E+01 4.18124E+00-4.69674E-02 2.83045E+00 2.04681E-13 1.79867E-13
 -1       178 2.11111E+01 3.45808E+00-5.95406E-02 3.52207E+00 1.72532E-13 4.53755E-13
 -1       179 2.23747E+01 1.14148E+00-3.35671E-01 3.00392E+00 1.06358E-13 7.70439E-13
 -1       180 2.19363E+01 8.56687E-01 7.20021E-04-1.94851E+00-1.54175E-13 6.65544E-14
 -1       181 2.04230E+01 1.90624E-01-9.80616E-03-7.53994E-01-1.20022E-13 5.25014E-15
 -1       182 1.96610E+01 1.02888E-01 1.37261E-02-2.73316E-01-9.52580E-14-2.36824E-14
 -1       183 1.93390E+01 4.94100E-02 1.01702E-02-5.08069E-02-7.94263E-14-9.74958E-14
 -1       184 1.92339E+01 2.59614E-02 5.38457E-03 6.40997E-02-3.33442E-14-1.20181E-13
 -1       185 1.92549E+01 1.42690E-02 2.72865E-03 1.27636E-01-2.48746E-14-1.17600E-13
 -1       186 1.93513E+01 8.46544E-03 1.50813E-03 1.64764E-01-2.98231E-14-1.39266E-13
 -1       187 1.94953E+01 6.06070E-03 9.57700E-04 1.88857E-01-3.31813E-14-1.29519E-13
 -1       188 1.96727E+01 5.74737E-03 6.99268E-04 2.07799E-01-5.36224E-14-9.92116E-14
 -1       189 1.98767E+01 6.65711E-03 5.68624E-04 2.26330E-01-6.15277E-15-1.08983E-13
 -1       190 2.01052E+01 8.04159E-03 4.80837E-04 2.46909E-01-8.90621E-14-2.74686E-13
 -1       191 2.03578E+01 9.09375E-03 3.73968E-04 2.69879E-01-7.86215E-14-3.22705E-13
 -1       192 2.06339E+01 8.82171E-03 1.91650E-04 2.93217E-01 3.28579E-14-3.06959E-13
 -1       193 2.09300E+01 5.96469E-03-1.17334E-04 3.12026E-01 2.87191E-14-3.06173E-13
 -1       194 2.12371E+01-1.00211E-03-5.87830E-04 3.17933E-01 1.67320E-14-1.85812E-13
 -1       195 2.15375E+01-1.36624E-02-1.21672E-03 2.98776E-01-1.39802E-14-1.78822E-13
 -1       196 2.18027E+01-3.30678E-02-1.93191E-03 2.39279E-01-1.10198E-13-2.32824E-13
 -1       197 2.19918E+01-5.85570E-02-2.56886E-03 1.23883E-01-6.19635E-14-2.69676E-13
 -1       198 2.20550E+01-8.59673E-02-2.87691E-03-5.68781E-02-1.67466E-14-2.92438E-13
 -1       199 2.19419E+01-1.05893E-01-2.58757E-03-2.95802E-01 1.04132E-13-2.94022E-13
 -1       200 2.16196E+01-1.03970E-01-1.58620E-03-5.56689E-01 1.77772E-13-1.56953E-13
 -1       201 2.10979E+01-6.60107E-02-4.94286E-05-7.68425E-01 2.08152E-14-1.33277E-13
 -1       202 2.04525E+01 1.09190E-02 1.53008E-03-8.38534E-01-1.53123E-13-8.63259E-14
 -1       203 1.98288E+01 1.07228E-01 2.67721E-03-6.94372E-01-7.67934E-14-1.48848E-14
 -1       204 1.94057E+01 1.82619E-01 3.20187E-03-3.36997E-01-9.34951E-14-2.37826E-14
 -1       205 1.93225E+01 1.98514E-01 3.28410E-03 1.34039E-01 5.83249E-14-1.66798E-13
 -1       206 1.96086E+01 1.46175E-01 2.98259E-03 5.59707E-01-1.14774E-14-2.93062E-13
 -1       207 2.01675E+01 5.37959E-02 2.12332E-03 8.05435E-01 1.01898E-13-1.28321E-13
 -1       208 2.08284E+01-3.54135E-02 7.14170E-04 8.26209E-01 9.53059E-14 5.59578E-14
 -1       209 2.14245E+01-9.12359E-02-9.14363E-04 6.67992E-01-1.02301E-13-1.46791E-13
 -1       210 2.18482E+01-1.07485E-01-2.15821E-03 4.21070E-01-1.19583E-13-3.08563E-13
 -1       211 2.20634E+01-9.49756E-02-2.74000E-03 1.69435E-01-2.30079E-13-4.09561E-13
 -1       212 2.20883E+01-6.89813E-02-2.64799E-03-3.49421E-02-1.24501E-14-3.54038E-13
 -1       213 2.19691E+01-4.13606E-02-2.10249E-03-1.73208E-01 4.28787E-14-4.29052E-13
 -1       214 2.17586E+01-1.84530E-02-1.37309E-03-2.48765E-01 1.02665E-13-5.03502E-13
 -1       215 2.15035E+01-2.24879E-03-6.69679E-04-2.75368E-01 1.09882E-13-5.06279E-13
 -1       216 2.12390E+01 7.70191E-03-1.07133E-04-2.68879E-01-2.55736E-14-5.42974E-13
 -1       217 2.09886E+01 1.28056E-02 2.79840E-04-2.43057E-01-5.83827E-14-3.32116E-13
 -1       218 2.07654E+01 1.45838E-02 5.05608E-04-2.08164E-01-2.44129E-13-4.90200E-13
 -1       219 2.05754E+01 1.43134E-02 6.05944E-04-1.71045E-01-7.46473E-14-5.46754E-13
 -1       220 2.04194E+01 1.29365E-02 6.20238E-04-1.35789E-01-1.51371E-13-5.30032E-13
 -1       221 2.02953E+01 1.10934E-02 5.82547E-04-1.04491E-01 6.73864E-14-4.71068E-13
 -1       222 2.01995E+01 9.19219E-03 5.18145E-04-7.79059E-02 1.05723E-13-1.57656E-13
 -1       223 2.01277E+01 7.47945E-03 4.42299E-04-5.59444E-02 2.84398E-13-2.45097E-14
 -1       224 2.00759E+01 6.09579E-03 3.59861E-04-3.80207E-02 2.52718E-13 1.20678E-13
 -1       225 2.00403E+01 5.09094E-03 2.69686E-04-2.33077E-02 8.17608E-14-1.33420E-15
 -1       226 2.00179E+01 4.35137E-03 2.02019E-04-1.10818E-02 8.37209E-14-1.50192E-14
 -1       227 2.00052E+01 3.34231E-03 1.59801E-04-1.30759E-03-1.71807E-14 9.59180E-16
 -1       228 2.09279E+01 2.76698E-01-5.11381E-02 1.15675E+00 1.06803E-13 6.90309E-13
 -1       229 1.98447E+01 1.27200E-01 8.40686E-03 4.34855E-01 6.76499E-14 6.05581E-13
 -1       230 1.93527E+01 5.91115E-02 1.28341E-02 1.39263E-01 5.35834E-14 5.09192E-13
 -1       231 1.91629E+01 2.95544E-02 7.76576E-03-4.88447E-03 5.79636E-14 4.35879E-13
 -1       232 1.91417E+01 1.58684E-02 4.01350E-03-8.16583E-02 3.09415E-14 4.37202E-13
 -1       233 1.92186E+01 9.15360E-03 2.16116E-03-1.25202E-01 7.83591E-15 3.88735E-13
 -1       234 1.93562E+01 6.20211E-03 1.33531E-03-1.52525E-01 2.86106E-14 3.53858E-13
 -1       235 1.95361E+01 5.66895E-03 9.63932E-04-1.73599E-01 4.43124E-14 3.48732E-13
 -1       236 1.97515E+01 6.92961E-03 7.99783E-04-1.95202E-01 4.20310E-14 3.10761E-13
 -1       237 2.00037E+01 9.67763E-03 7.41232E-04-2.22532E-01 6.20943E-14 2.84239E-13
 -1       238 2.02999E+01 1.37522E-02 7.31247E-04-2.59931E-01 3.03317E-14 2.11563E-13
 -1       239 2.06524E+01 1.90168E-02 7.14892E-04-3.11146E-01-4.35158E-14 2.00580E-13
 -1       240 2.10768E+01 2.51994E-02 6.19298E-04-3.79139E-01 1.88957E-14 2.29698E-13
 -1       241 2.15903E+01 3.16087E-02 3.44458E-04-4.65218E-01 4.90931E-14 2.44788E-13
 -1       242 2.22084E+01 3.66208E-02-2.23285E-04-5.67021E-01-1.22668E-13 2.98561E-13
 -1       243 2.29380E+01 3.68161E-02-1.13820E-03-6.74578E-01 8.55902E-15 2.86749E-13
 -1       244 2.37668E+01 2.57875E-02-2.20622E-03-7.63666E-01 8.73164E-14 2.92428E-13
 -1       245 2.46455E+01-6.74472E-03-2.68462E-03-7.86712E-01 5.92012E-14 1.59217E-13
 -1       246 2.54661E+01-7.29458E-02-1.04598E-03-6.65768E-01-2.42055E-14 2.43034E-13
 -1       247 2.60447E+01-1.76362E-01 3.91362E-03-3.02759E-01-9.29812E-14 2.89708E-13
 -1       248 2.61346E+01-2.86481E-01 1.10999E-02 3.62087E-01-7.15920E-14 2.87659E-13
 -1       249 2.55146E+01-3.13214E-01 1.29242E-02 1.22186E+00 1.00737E-13 2.65014E-13
 -1       250 2.41892E+01-1.35996E-01-8.83028E-04 1.87234E+00-7.45665E-14 3.54699E-13
 -1       251 2.26162E+01 2.39821E-01-3.07034E-02 1.72288E+00-2.06096E-13 4.50999E-13
 -1       252 2.16580E+01 5.55050E-01-5.34100E-02 5.55234E-01-1.02106E-13 6.66782E-13
 -1       253 2.19752E+01 5.00420E-01-4.22479E-02-9.86515E-01 2.39081E-13 6.36402E-13
 -1       254 2.33547E+01 1.35536E-01-9.33039E-03-1.87762E+00 3.23035E-13 5.69711E-13
 -1       255 2.49249E+01-1.95695E-01 1.23481E-02-1.74075E+00 1.50045E-13 3.71269E-13
 -1       256 2.59635E+01-3.12428E-01 1.39166E-02-9.74597E-01 3.88665E-15 3.70760E-13
 -1       257 2.62414E+01-2.57263E-01 5.63809E-03-1.47485E-01-2.43095E-14 4.25627E-14
 -1       258 2.58991E+01-1.47049E-01-1.65889E-03 4.27110E-01-5.00177E-14 3.34793E-14
 -1       259 2.51921E+01-5.42776E-02-4.36750E-03 7.07462E-01-5.73018E-14-8.55045E-14
 -1       260 2.43431E+01 2.48774E-03-3.85558E-03 7.74180E-01 1.22527E-13-6.38070E-14
 -1       261 2.34995E+01 2.95426E-02-2.20637E-03 7.21460E-01-9.49896E-14-5.31532E-14
 -1       262 2.27403E+01 3.82265E-02-6.98974E-04 6.17778E-01 1.86804E-13-7.05939E-14
 -1       263 2.20968E+01 3.75001E-02 2.79674E-04 5.02862E-01 4.00608E-14-8.96035E-14
 -1       264 2.15726E+01 3.28254E-02 7.73751E-04 3.96034E-01-1.97988E-13 2.06305E-13
 -1       265 2.11574E+01 2.70706E-02 9.42878E-04 3.04712E-01 2.14950E-14 3.80437E-13
 -1       266 2.08354E+01 2.15562E-02 9.30907E-04 2.30235E-01 1.38034E-13 5.39680E-13
 -1       267 2.05899E+01 1.67865E-02 8.34540E-04 1.71232E-01 7.18934E-15 5.86089E-13
 -1       268 2.04059E+01 1.28772E-02 7.09584E-04 1.25375E-01 4.56391E-14 3.06729E-13
 -1       269 2.02701E+01 9.78196E-03 5.84157E-04 9.01942E-02 5.76963E-14 2.89125E-13
 -1       270 2.01717E+01 7.40585E-03 4.68890E-04 6.34049E-02-1.78756E-14 2.81759E-14
 -1       271 2.01023E+01 5.65299E-03 3.63296E-04 4.30006E-02 1.92978E-13 5.67384E-14
 -1       272 2.00551E+01 4.42470E-03 2.57526E-04 2.72647E-02 9.08450E-15 3.10759E-14
 -1       273 2.00252E+01 3.62803E-03 1.49618E-04 1.48326E-02-2.31797E-14-4.89241E-14
 -1       274 2.00086E+01 3.11241E-03 1.54875E-04 4.78679E-03 1.24244E-13-1.36855E-14
 -1       275 2.00015E+01 1.32208E-03 3.49543E-04-2.20241E-03 7.16576E-14 1.00844E-13
 -1       276 2.00033E+01 4.66287E-03 1.41641E-04 1.29104E-03 2.19941E-13 5.18398E-13
 -1       277 2.00039E+01 1.54214E-02 3.40642E-05 1.02891E-02 1.84038E-13-5.43925E-14
 -1       278 2.00026E+01 3.26103E-02 8.95527E-06 1.84834E-02 1.16479E-13-1.42507E-13
 -1       279 2.00007E+01 5.40565E-02-5.65122E-06 2.28174E-02 1.03052E-13-2.66594E-13
 -1       280 1.99988E+01 7.59744E-02-5.02973E-05 2.25116E-02-2.60716E-14-3.92320E-13
 -1       281 1.99972E+01 9.53397E-02-9.55275E-05 1.78285E-02-1.70079E-13 3.97451E-13
 -1       282 1.99962E+01 1.08391E-01-1.30089E-04 9.82134E-03-2.23233E-13-1.65651E-13
 -1       283 1.99958E+01 1.12933E-01-1.42380E-04 8.04587E-05 5.06130E-14 1.25471E-13
 -1       284 1.99962E+01 1.08247E-01-1.29868E-04-9.59593E-03 1.75747E-13 4.44665E-13
 -1       285 1.99973E+01 9.51829E-02-9.57615E-05-1.74643E-02-8.06440E-15-4.28646E-13
 -1       286 1.99988E+01 7.63762E-02-4.77881E-05-2.20187E-02 8.52375E-14-9.81412E-13
 -1       287 2.00006E+01 5.43848E-02-6.51211E-06-2.24602E-02-4.44069E-14 6.08791E-13
 -1       288 2.00024E+01 3.31680E-02 8.61166E-06-1.84071E-02-1.45566E-13 2.32030E-13
 -1       289 2.00036E+01 1.64858E-02 1.10553E-04-1.08653E-02-3.27797E-13 1.88204E-13
 -1       290 2.00061E+01 9.57453E-03 1.01979E-04-6.27767E-03-1.48309E-13-6.81928E-14
 -1       291-6.58335E-01-9.43704E+00-7.40864E-01 1.14059E+00-9.82686E-14 1.04999E-13
 -1       292 2.91862E+00-8.53380E+00-7.81766E-01 3.33520E+00 3.15581E-14-5.06470E-14
 -1       293 9.60618E+00-5.23578E+00-5.58426E-01 5.31569E+00 1.18072E-13 3.00648E-13
 -1       294 2.03731E+01-1.85248E+00-1.20957E-01 6.81016E+00 1.83270E-13 3.30208E-13
 -1       295 3.11572E+01 2.39460E+00 3.64530E-01 7.26423E+00 2.84939E-13 3.92297E-13
 -1       296 4.13944E+01 5.03578E+00 8.36733E-01 5.58614E+00 4.51143E-13 1.98397E-13
 -1       297 4.41993E+01 7.06399E+00 7.27674E-01 1.23766E+00 4.92051E-13-1.77358E-14
 -1       298 4.63091E+01 6.94981E+00 9.48911E-01-1.32482E+00 3.55493E-13-3.23241E-13
 -1       299 4.30220E+01 5.44765E+00 9.34824E-01-5.09609E+00 5.49741E-13-4.13169E-13
 -1       300 3.31516E+01 2.98724E+00 4.68109E-01-7.17156E+00 5.10023E-13-6.11011E-13
 -1       301 2.21081E+01-8.89237E-01-5.01313E-02-7.01119E+00 4.02456E-13-6.91419E-13
 -1       302 1.20752E+01-4.52639E+00-4.31600E-01-5.89225E+00 2.63428E-13-6.53047E-13
 -1       303 4.81695E+00-7.61944E+00-5.80711E-01-4.48079E+00 1.05554E-13-5.29590E-13
 -1       304-4.11072E-01-1.01920E+01-8.87169E-01-1.46012E+00-1.10842E-13-3.93074E-13
 -1       305-1.18152E+00-1.10600E+01-9.84849E-01 8.83195E-01-3.17295E-13-3.33900E-13
 -1       306 1.87792E+00-8.55434E+00-7.24723E-01 3.53021E+00-3.72147E-13-4.44630E-13
 -1       307 7.51215E+00-5.60791E+00-5.82253E-01 5.18388E+00-5.77788E-13-3.07490E-13
 -1       308 1.62784E+01-1.34300E+00-1.73092E-01 7.13875E+00-5.47423E-13-2.62346E-13
 -1       309 2.79019E+01 7.66084E-01 1.69739E-01 6.52139E+00-4.34749E-13-1.31922E-13
 -1       310 3.69233E+01 4.66813E+00 5.83469E-01 6.26633E+00-2.77755E-13-3.43059E-14
 -1       311 4.28034E+01 6.65990E+00 7.42389E-01 2.78275E+00-3.06311E-13 2.02269E-13
 -1       312 4.67898E+01 6.63856E+00 1.03108E+00-7.41359E-01-5.84810E-14 1.73469E-13
 -1       313 4.33658E+01 6.09799E+00 9.06247E-01-4.54590E+00-1.08996E-13 1.38223E-13
 -1       314 3.57013E+01 4.39407E+00 5.63155E-01-6.58471E+00-2.14162E-13 4.38816E-14
 -1       315 2.65808E+01 1.67399E+00 2.10778E-01-7.52458E+00-4.24522E-13 1.23401E-13
 -1       316 1.73870E+01-1.58152E+00-1.35448E-01-7.14252E+00-5.37154E-13 2.94598E-13
 -1       317 9.05752E+00-5.06158E+00-4.58660E-01-5.75944E+00-3.52746E-13 6.85438E-13
 -1       318 2.56038E+00-8.48595E+00-7.88525E-01-3.47138E+00-3.32123E-13 2.72213E-13
 -1       319-6.20530E-01-9.70697E+00-7.89351E-01-1.69339E+00 3.17246E-14 6.25694E-13
 -1       320 2.01411E+01 3.00444E+00-2.19273E-02-2.07522E+00-1.07780E-13-2.34208E-13
 -1       321 2.07476E+01 2.20738E+00-1.75563E-02-2.34569E+00-1.50940E-13-1.59320E-13
 -1       322 1.95970E+01 3.70918E+00-1.55180E-02-1.29559E+00-3.29903E-14-2.87992E-13
 -1       323 1.94735E+01 3.87274E+00-1.35992E-02-9.06134E-01 1.03549E-14-2.73019E-13
 -1       324 1.94033E+01 3.96860E+00-1.25812E-02-5.32536E-01 5.53513E-14-2.45478E-13
 -1       325 1.93719E+01 4.01258E+00-1.21437E-02-1.69549E-01 1.05419E-13-2.25025E-13
 -1       326 1.93735E+01 4.01093E+00-1.21610E-02 1.89991E-01 1.49345E-13-2.01652E-13
 -1       327 1.94083E+01 3.96330E+00-1.26229E-02 5.53406E-01 1.72953E-13-1.87474E-13
 -1       328 1.94807E+01 3.86504E+00-1.36593E-02 9.21361E-01 1.86819E-13-1.47593E-13
 -1       329 1.96082E+01 3.69608E+00-1.55757E-02 1.31155E+00 2.15769E-13-7.34538E-14
 -1       330 1.98213E+01 3.42007E+00-1.87724E-02 1.71562E+00 2.42143E-13-2.21091E-15
 -1       331 2.01843E+01 2.95869E+00-2.28436E-02 2.10544E+00 2.41276E-13 9.08483E-14
 -1       332 2.07391E+01 2.12878E+00-3.03368E-02 2.30428E+00 1.93502E-13 2.86039E-13
 -1       333 2.10736E+01 1.18669E+00-2.47644E-02 1.90820E+00 1.51391E-13 4.42146E-13
 -1       334 2.03797E+01 4.90897E-01 8.42702E-03 9.11891E-01 1.17718E-13 3.55012E-13
 -1       335 2.04562E+01 6.79107E-01 1.26693E-02-1.00315E+00-1.07389E-13-1.13976E-13
 -1       336 2.00475E+01 3.44965E-01 7.28286E-03-4.28811E-01-1.13774E-13-1.01507E-13
 -1       337 1.98117E+01 1.88743E-01 4.24766E-03-1.08134E-01-8.29639E-14-9.48364E-14
 -1       338 1.97014E+01 1.07735E-01 2.08070E-03 7.99352E-02-2.52600E-14-1.14109E-13
 -1       339 1.96800E+01 6.45711E-02 1.05376E-03 1.93987E-01-3.94247E-14-1.19919E-13
 -1       340 1.97201E+01 4.24766E-02 6.15594E-04 2.67063E-01-3.78687E-14-1.14417E-13
 -1       341 1.98036E+01 3.30710E-02 4.38264E-04 3.18884E-01-1.52424E-14-1.34541E-13
 -1       342 1.99199E+01 3.13965E-02 3.78456E-04 3.61629E-01-2.93745E-14-1.20557E-13
 -1       343 2.00629E+01 3.38319E-02 3.67765E-04 4.02522E-01-1.21264E-13-1.66293E-13
 -1       344 2.02296E+01 3.70542E-02 3.58557E-04 4.44822E-01-9.48138E-14-1.77646E-13
 -1       345 2.04188E+01 3.74144E-02 3.04469E-04 4.87940E-01-6.70162E-14-1.62051E-13
 -1       346 2.06291E+01 3.05294E-02 1.54786E-04 5.27008E-01 6.15212E-14-1.03959E-13
 -1       347 2.08582E+01 1.11347E-02-1.43462E-04 5.52164E-01 1.54126E-14-8.82153E-14
 -1       348 2.11005E+01-2.65406E-02-6.33855E-04 5.47908E-01 3.07947E-14-1.08235E-13
 -1       349 2.13464E+01-8.73792E-02-1.32995E-03 4.93267E-01-7.10699E-14-2.56018E-14
 -1       350 2.15797E+01-1.72281E-01-2.17259E-03 3.64009E-01-1.15010E-13 1.78425E-14
 -1       351 2.17758E+01-2.72906E-01-2.99062E-03 1.38767E-01-4.43142E-14 2.31775E-14
 -1       352 2.19007E+01-3.65066E-01-3.46693E-03-1.88921E-01 6.25997E-14 1.74855E-14
 -1       353 2.19134E+01-4.04907E-01-3.16377E-03-5.92399E-01 1.56507E-13 3.56427E-14
 -1       354 2.17768E+01-3.36992E-01-1.83246E-03-9.93227E-01 1.11900E-13-1.04484E-13
 -1       355 2.14823E+01-1.23154E-01 3.66671E-04-1.25862E+00 1.45499E-14 3.21271E-15
 -1       356 2.10829E+01 2.11420E-01 2.65504E-03-1.23830E+00-9.60683E-14-4.74845E-14
 -1       357 2.07062E+01 5.51681E-01 4.29504E-03-8.50262E-01-5.11583E-14 9.33380E-14
 -1       358 2.05106E+01 7.35188E-01 4.88589E-03-1.68512E-01-3.25629E-14 5.95270E-14
 -1       359 2.05905E+01 6.61736E-01 4.62737E-03 5.75960E-01-2.55017E-14 8.08978E-14
 -1       360 2.09073E+01 3.72700E-01 3.42123E-03 1.11538E+00 9.86523E-14 2.01110E-13
 -1       361 2.13192E+01 1.76750E-02 1.41105E-03 1.29873E+00 9.81622E-14 4.45430E-14
 -1       362 2.16756E+01-2.57260E-01-1.01479E-03 1.14647E+00-2.08702E-14 7.18609E-15
 -1       363 2.18901E+01-3.86802E-01-2.66077E-03 7.91240E-01-2.78709E-13-7.90097E-14
 -1       364 2.19479E+01-3.86816E-01-3.35882E-03 3.81335E-01-1.87164E-13-1.09042E-13
 -1       365 2.18780E+01-3.09924E-01-3.16356E-03 2.10404E-02-7.73911E-14 4.44697E-14
 -1       366 2.17224E+01-2.07174E-01-2.44530E-03-2.41620E-01-8.57321E-14-1.08410E-13
 -1       367 2.15194E+01-1.11461E-01-1.56674E-03-4.00644E-01 4.43639E-15-1.04022E-13
 -1       368 2.12983E+01-3.74481E-02-7.69212E-04-4.72478E-01 1.48184E-14-3.72958E-13
 -1       369 2.10794E+01 1.23216E-02-1.61167E-04-4.81089E-01 4.56748E-14-3.78723E-13
 -1       370 2.08755E+01 4.12911E-02 2.40770E-04-4.49476E-01-1.27158E-14-2.15484E-13
 -1       371 2.06938E+01 5.48072E-02 4.66748E-04-3.96088E-01 2.20497E-15-2.08197E-13
 -1       372 2.05373E+01 5.80145E-02 5.62350E-04-3.34105E-01 3.83612E-14 2.30862E-13
 -1       373 2.04065E+01 5.50466E-02 5.71897E-04-2.72049E-01-2.58180E-13 1.60223E-13
 -1       374 2.03000E+01 4.88990E-02 5.31376E-04-2.14835E-01-4.41624E-14 6.06842E-14
 -1       375 2.02153E+01 4.15889E-02 4.67093E-04-1.64811E-01 2.68274E-13 1.53678E-13
 -1       376 2.01495E+01 3.43925E-02 3.96218E-04-1.22620E-01 3.20250E-13 2.61787E-13
 -1       377 2.00995E+01 2.80525E-02 3.27361E-04-8.78551E-02 2.52794E-13 1.34553E-13
 -1       378 2.00626E+01 2.29171E-02 2.67382E-04-5.95770E-02 7.27978E-14 4.27546E-13
 -1       379 2.00360E+01 1.89304E-02 2.48762E-04-3.66364E-02-8.73187E-14 2.91487E-13
 -1       380 2.00186E+01 1.46010E-02 1.28312E-04-1.94124E-02-8.89975E-14 1.28409E-13
 -1       381 1.98916E+01 2.32470E-01 1.08921E-02 3.78333E-01 1.22360E-13 2.97752E-13
 -1       382 1.96218E+01 1.22099E-01 6.32729E-03 9.10353E-02 7.52514E-14 2.42007E-13
 -1       383 1.95135E+01 6.77770E-02 3.03358E-03-7.09745E-02 5.05586E-14 2.11075E-13
 -1       384 1.95107E+01 4.01851E-02 1.49961E-03-1.66754E-01 2.83803E-14 1.67903E-13
 -1       385 1.95778E+01 2.72367E-02 8.92634E-04-2.28163E-01 3.31434E-14 1.60134E-13
 -1       386 1.96944E+01 2.35704E-02 6.95386E-04-2.74106E-01 6.36476E-14 1.72548E-13
 -1       387 1.98501E+01 2.65922E-02 6.99532E-04-3.17221E-01 9.48137E-14 1.55624E-13
 -1       388 2.00419E+01 3.49514E-02 8.28724E-04-3.66858E-01 3.80596E-14 1.48740E-13
 -1       389 2.02722E+01 4.78557E-02 1.04583E-03-4.30485E-01 6.02273E-14 2.13299E-13
 -1       390 2.05471E+01 6.46085E-02 1.31469E-03-5.14202E-01 1.88387E-14 7.54244E-14
 -1       391 2.08755E+01 8.40587E-02 1.57776E-03-6.22531E-01 6.23444E-14 1.40641E-14
 -1       392 2.12673E+01 1.03705E-01 1.73286E-03-7.57220E-01 2.00595E-14 8.97515E-14
 -1       393 2.17321E+01 1.18167E-01 1.60858E-03-9.14496E-01-5.03438E-14 1.40848E-13
 -1       394 2.22762E+01 1.16768E-01 9.56637E-04-1.07991E+00-4.07768E-16 6.77635E-14
 -1       395 2.28986E+01 8.04313E-02-4.97429E-04-1.21994E+00 9.89291E-14-4.69796E-14
 -1       396 2.35864E+01-2.01610E-02-2.87562E-03-1.27077E+00 1.64972E-13-9.36751E-15
 -1       397 2.43073E+01-2.18655E-01-5.80155E-03-1.12922E+00-9.18870E-14-8.34970E-14
 -1       398 2.49971E+01-5.24565E-01-7.95811E-03-6.61810E-01-4.03249E-14 2.64574E-14
 -1       399 2.55339E+01-8.55814E-01-9.62380E-03 2.29335E-01-1.27961E-13 4.14355E-14
 -1       400 2.57337E+01-9.67573E-01-8.38306E-03 1.44794E+00 9.22422E-14 9.32826E-14
 -1       401 2.53740E+01-4.93830E-01-1.66684E-02 2.49457E+00-2.32353E-13 2.98185E-13
 -1       402 2.45437E+01 6.07692E-01-2.78012E-02 2.49828E+00-2.71764E-13 4.37058E-13
 -1       403 2.37843E+01 1.65857E+00-4.09192E-02 9.85313E-01-1.25754E-13 4.24379E-13
 -1       404 2.38797E+01 1.58602E+00-3.70411E-02-1.24079E+00 2.36797E-13 3.82847E-13
 -1       405 2.47295E+01 4.81644E-01-1.95268E-02-2.59614E+00 4.09867E-13 5.56147E-13
 -1       406 2.55375E+01-5.74604E-01-1.00029E-02-2.41832E+00 2.51647E-13 4.26079E-13
 -1       407 2.57976E+01-9.76313E-01-9.81984E-03-1.30255E+00 8.48089E-14 4.17585E-13
 -1       408 2.55205E+01-8.26021E-01-1.11798E-02-1.01193E-01 2.15217E-13 3.37546E-13
 -1       409 2.49346E+01-4.84696E-01-9.95961E-03 7.33580E-01-2.39058E-14 3.79865E-14
 -1       410 2.42324E+01-1.87270E-01-6.53530E-03 1.14593E+00-4.79131E-15-1.57142E-13
 -1       411 2.35222E+01 5.15808E-04-2.90952E-03 1.24822E+00-4.97544E-14 7.61392E-14
 -1       412 2.28607E+01 9.36352E-02-1.57267E-04 1.17190E+00-2.91139E-14 2.61318E-13
 -1       413 2.22752E+01 1.26128E-01 1.38884E-03 1.01501E+00 9.36665E-14 2.01558E-13
 -1       414 2.17756E+01 1.26366E-01 2.01623E-03 8.36683E-01-1.16585E-14 3.91709E-13
 -1       415 2.13615E+01 1.12313E-01 2.09221E-03 6.67340E-01-2.20060E-13 2.91310E-13
 -1       416 2.10261E+01 9.37629E-02 1.89707E-03 5.19830E-01-1.23547E-13 2.54788E-13
 -1       417 2.07598E+01 7.54356E-02 1.60271E-03 3.97502E-01-8.14977E-14 4.92447E-13
 -1       418 2.05521E+01 5.92713E-02 1.29909E-03 2.99133E-01 2.88342E-14 7.26593E-13
 -1       419 2.03925E+01 4.58295E-02 1.02638E-03 2.21647E-01 9.88009E-14 5.96479E-13
 -1       420 2.02719E+01 3.50568E-02 7.98294E-04 1.61482E-01 1.92207E-13 4.34116E-13
 -1       421 2.01823E+01 2.66816E-02 6.14737E-04 1.15200E-01 1.23160E-13 1.67439E-13
 -1       422 2.01170E+01 2.03898E-02 4.69405E-04 7.97133E-02 1.32666E-14 1.28328E-13
 -1       423 2.00708E+01 1.58419E-02 3.53782E-04 5.23600E-02 8.88093E-14 2.92106E-13
 -1       424 2.00390E+01 1.26014E-02 2.47181E-04 3.10572E-02 1.16016E-13 2.05855E-13
 -1       425 2.00183E+01 9.92478E-03 1.68647E-04 1.45214E-02-1.10207E-13 2.57421E-13
 -1       426 2.00097E+01 8.20772E-03 8.65470E-05 7.07587E-03-4.24197E-14 5.89828E-13
 -1       427 2.00063E+01 5.82684E-02 5.96054E-05 4.04715E-02-1.86008E-13 1.29526E-13
 -1       428 2.00125E+01 3.62855E-02 1.12812E-04 3.13496E-02-2.10780E-13-2.78435E-15
 -1       429 2.00129E+01 2.02250E-02 1.28913E-04 1.89139E-02-1.82212E-13 1.01403E-13
 -1       430 1.99989E+01 8.04755E-02-5.95770E-06 4.24991E-02 1.60970E-13-5.91347E-13
 -1       431 1.99920E+01 1.00692E-01-6.50642E-05 3.69591E-02 1.23914E-13 7.53433E-14
 -1       432 1.99867E+01 1.15734E-01-1.12430E-04 2.49253E-02-1.87161E-13 6.08554E-14
 -1       433 1.99840E+01 1.23531E-01-1.38480E-04 8.66618E-03-2.82092E-13 2.36944E-13
 -1       434 1.99841E+01 1.23049E-01-1.38592E-04-8.94591E-03 5.10645E-14 5.07854E-13
 -1       435 1.99870E+01 1.14430E-01-1.12603E-04-2.49116E-02-1.56683E-13-1.32704E-13
 -1       436 1.99921E+01 9.92684E-02-6.59408E-05-3.63910E-02 1.68167E-13-4.14034E-13
 -1       437 1.99988E+01 7.91440E-02-1.22177E-05-4.18045E-02 5.76966E-13-4.43318E-14
 -1       438 2.00058E+01 5.70055E-02 4.52433E-05-3.99284E-02 3.11390E-13 5.29535E-14
 -1       439 2.00119E+01 3.53031E-02 9.92271E-05-3.12223E-02-1.07839E-13-8.50619E-14
 -1       440 1.13809E+01-5.66359E+00-2.13060E-02 6.73990E+00-2.20976E-13 3.50345E-14
 -1       441 1.87232E+00-3.34249E+00 5.14982E-02-5.16144E-01-3.85048E-13 8.71941E-14
 -1       442 3.95614E+00-4.97509E+00-6.82287E-02 4.30304E+00-3.97612E-13-2.28428E-14
 -1       443 1.90339E+01-5.86281E+00-5.82823E-02 6.40236E+00-2.32647E-13 1.54890E-13
 -1       444 2.87356E+01-3.46311E+00 1.86992E-03 3.28603E+00-2.52229E-14-1.46522E-13
 -1       445 1.98020E+01 3.44343E+00-1.86529E-02-1.69684E+00-7.70639E-14-2.91918E-13
 -1       446 3.47328E+01 4.83954E+00-5.45245E-02-1.27761E+00 3.03743E-13-4.75647E-13
 -1       447 3.67199E+01 7.90681E+00 6.34980E-02 4.98294E-02 3.16525E-13-1.86903E-13
 -1       448 3.63744E+01 6.07084E+00 7.69509E-02 7.26286E-01 3.90535E-13 8.88456E-14
 -1       449 3.43353E+01 1.81416E+00 2.49922E-02-2.16662E-01 3.12458E-13 1.15907E-13
 -1       450 2.97465E+01-2.90519E+00-8.56602E-03-2.65543E+00-1.46896E-14-7.38160E-14
 -1       451 2.18214E+01-5.50231E+00-4.04155E-02-5.86708E+00-8.10046E-14-2.10311E-13
 -1       452 1.37022E+01-5.76569E+00-3.46335E-02-6.78909E+00-1.03972E-13-4.98393E-13
 -1       453 5.15485E+00-4.38016E+00 3.73508E-02-4.76748E+00-1.16449E-13-4.77451E-13
 -1       454 1.65643E+00-3.76042E+00 1.47870E-02-6.13295E-01-1.91687E-15-3.14970E-13
 -1       455 2.61827E+00-4.12900E+00-9.26717E-03 3.42173E+00 1.42282E-13-3.29403E-13
 -1       456 9.35847E+00-5.17065E+00-6.63588E-03 6.98283E+00 2.09971E-14-1.43587E-13
 -1       457 1.65823E+01-5.26725E+00-4.13386E-02 7.14321E+00-1.26316E-13-1.13153E-13
 -1       458 2.44666E+01-3.92118E+00-9.61115E-03 5.35332E+00-2.45540E-13 8.50292E-14
 -1       459 3.13687E+01 7.50521E-01 1.62131E-03 1.93191E+00-3.05624E-13 3.77420E-13
 -1       460 3.35602E+01 4.66813E+00-3.51869E-02-1.55717E-01-2.87007E-13 3.62696E-13
 -1       461 3.46329E+01 8.15078E+00-6.15376E-03-1.96047E-01-9.28424E-14 8.70519E-14
 -1       462 3.59352E+01 7.46299E+00 6.40991E-02-1.97582E-03 2.56739E-15-1.25733E-14
 -1       463 3.36483E+01 4.19671E+00-3.76032E-03-1.00267E-01-7.37049E-14-1.14991E-13
 -1       464 3.07315E+01-1.87042E-01 4.97613E-03-2.44575E+00-2.13310E-13-1.08663E-14
 -1       465 2.51468E+01-3.52169E+00-1.96037E-03-5.16454E+00-2.06488E-13-1.34878E-13
 -1       466 1.82311E+01-5.37255E+00 4.96046E-03-7.01976E+00 1.88127E-13 1.22260E-13
 -1       467 9.56756E+00-5.38754E+00-6.26350E-02-6.95242E+00-3.40838E-14 4.05814E-13
 -1       468 4.00790E+00-4.90801E+00-6.38526E-02-4.86603E+00 6.62387E-14 5.36723E-13
 -1       469 3.39334E+01 1.09163E+00 5.03642E-02 1.00640E+00 2.27676E-13-2.75446E-13
 -1       470 2.83587E+01-2.96555E+00-4.37246E-02 2.23712E+00-1.95809E-13 3.56437E-13
 -1       471 1.15941E+01-4.29806E+00 9.99993E-02-6.49549E+00-2.33299E-13-4.27672E-13
 -1       472 3.16753E+01 6.06021E+00-1.61914E-01-1.54880E+00 2.65510E-13-4.85799E-13
 -1       473 2.03804E+01 8.40475E-01 4.05145E-03 9.43533E-01 1.51771E-13 1.50079E-13
 -1       474 1.97391E+01 3.14577E+00-5.35550E-03-6.13977E-01 4.05594E-14-2.22527E-13
 -1       475 1.98387E+01 2.96366E+00-5.99228E-03-9.24031E-01 1.54461E-15-2.57956E-13
 -1       476 1.96680E+01 3.27576E+00-4.96563E-03 8.42295E-03 1.08316E-13-1.85029E-13
 -1       477 1.96879E+01 3.24080E+00-5.04656E-03 3.19255E-01 1.39773E-13-1.82288E-13
 -1       478 1.97447E+01 3.13862E+00-5.38012E-03 6.25399E-01 1.65355E-13-1.58473E-13
 -1       479 1.98471E+01 2.95242E+00-5.93413E-03 9.34225E-01 2.03421E-13-1.00722E-13
 -1       480 2.00046E+01 2.65743E+00-6.51028E-03 1.22638E+00 2.04728E-13-3.33609E-14
 -1       481 2.02448E+01 2.20160E+00-5.68224E-03 1.47178E+00 2.08473E-13 1.32414E-14
 -1       482 2.01315E+01 4.68556E-01 5.14397E-03 4.24881E-01 1.38982E-13 1.21775E-13
 -1       483 2.03525E+01 9.86811E-01 2.77806E-03-9.03681E-01-8.86313E-14-1.79280E-13
 -1       484 3.10946E+01 1.08978E+00-9.87226E-02-2.21886E+00 1.37640E-13-6.92828E-13
 -1       485 2.01932E+01 5.69304E-01 2.41552E-03-4.20142E-01-6.72777E-14-1.47734E-13
 -1       486 2.00620E+01 3.35388E-01 1.05036E-03-9.93745E-02-7.03650E-14-1.07425E-13
 -1       487 1.99818E+01 2.04838E-01 5.33969E-04 1.08204E-01-6.08029E-14-9.68012E-14
 -1       488 1.99499E+01 1.31932E-01 2.84187E-04 2.45178E-01-4.98088E-14-1.22427E-13
 -1       489 1.99576E+01 9.42490E-02 1.86069E-04 3.40351E-01-5.45316E-14-1.11797E-13
 -1       490 1.99966E+01 7.87376E-02 1.53047E-04 4.13135E-01-1.88505E-14-9.35548E-14
 -1       491 2.00611E+01 7.65715E-02 1.49495E-04 4.76296E-01-1.02137E-13-6.88795E-14
 -1       492 2.01478E+01 8.05294E-02 1.54743E-04 5.37400E-01-9.42939E-14-3.24783E-14
 -1       493 2.02556E+01 8.34799E-02 1.50352E-04 5.99362E-01-7.29847E-14-3.56988E-14
 -1       494 2.03852E+01 7.73856E-02 1.15454E-04 6.60345E-01 3.10838E-14 1.59111E-14
 -1       495 2.05388E+01 5.27110E-02 2.58815E-05 7.13177E-01 4.71178E-14-2.47174E-14
 -1       496 2.07200E+01-1.51845E-03-1.44328E-04 7.44514E-01-7.69282E-16 4.02696E-14
 -1       497 2.09329E+01-9.63492E-02-4.14419E-04 7.34132E-01 1.74998E-14 6.52807E-15
 -1       498 2.11808E+01-2.39144E-01-7.97304E-04 6.55150E-01-2.05555E-14 1.38031E-13
 -1       499 2.14621E+01-4.26112E-01-1.25003E-03 4.76695E-01-8.59555E-14 1.70118E-13
 -1       500 2.17638E+01-6.30560E-01-1.66455E-03 1.71582E-01-3.67278E-14 1.61317E-13
 -1       501 2.20509E+01-7.89573E-01-1.80910E-03-2.67312E-01 9.06433E-14 1.24766E-13
 -1       502 2.22599E+01-8.00101E-01-1.26158E-03-7.99252E-01 5.40371E-14-4.20770E-14
 -1       503 2.23101E+01-5.48293E-01-2.23454E-04-1.30406E+00 3.99871E-14-1.37141E-13
 -1       504 2.21493E+01 1.39367E-02 8.25707E-04-1.57670E+00-5.45124E-14-9.33088E-14
 -1       505 2.18297E+01 7.57589E-01 5.63342E-04-1.39988E+00-2.40612E-14-1.09631E-14
 -1       506 2.15345E+01 1.36221E+00 6.64922E-05-7.05825E-01-7.90815E-14-8.19008E-14
 -1       507 2.14688E+01 1.49322E+00-3.50533E-04 2.84456E-01-6.46599E-14-9.43661E-14
 -1       508 2.16840E+01 1.06829E+00 1.25747E-04 1.15492E+00 1.71136E-13-1.23604E-13
 -1       509 2.20233E+01 3.41429E-01 7.89219E-04 1.57058E+00 1.20702E-13-1.54632E-13
 -1       510 2.22720E+01-3.28652E-01-2.97342E-04 1.47886E+00 3.65021E-14 4.85232E-14
 -1       511 2.23172E+01-7.18083E-01-8.65861E-04 1.05303E+00-1.21359E-13 1.71079E-13
 -1       512 2.21736E+01-8.09170E-01-1.49449E-03 5.19102E-01-2.18536E-13 2.24688E-13
 -1       513 2.19177E+01-6.98715E-01-1.62904E-03 3.78363E-02-1.39039E-13 1.57131E-13
 -1       514 2.16241E+01-5.00937E-01-1.37238E-03-3.17948E-01-5.64896E-14 2.50016E-13
 -1       515 2.13403E+01-2.97254E-01-9.39078E-04-5.37820E-01-9.65780E-14 3.60559E-13
 -1       516 2.10882E+01-1.29167E-01-5.13394E-04-6.42505E-01-1.50704E-13 1.11009E-13
 -1       517 2.08735E+01-9.20672E-03-1.80755E-04-6.62587E-01 9.08718E-14 1.56419E-13
 -1       518 2.06944E+01 6.58906E-02 4.37455E-05-6.27457E-01 1.18192E-13 4.85663E-14
 -1       519 2.05466E+01 1.05650E-01 1.75818E-04-5.60941E-01-2.52846E-14 1.70857E-13
 -1       520 2.04255E+01 1.20521E-01 2.38685E-04-4.80438E-01 1.82731E-13 2.00352E-13
 -1       521 2.03271E+01 1.19508E-01 2.54973E-04-3.97606E-01-8.02794E-14 2.51378E-13
 -1       522 2.02477E+01 1.09479E-01 2.43127E-04-3.19548E-01-4.94452E-14 4.77099E-13
 -1       523 2.01843E+01 9.52630E-02 2.16606E-04-2.50028E-01 7.96270E-14 4.29461E-13
 -1       524 2.01342E+01 8.00376E-02 1.85376E-04-1.90516E-01 3.19875E-13 2.54678E-13
 -1       525 2.00952E+01 6.57600E-02 1.55831E-04-1.41006E-01 1.95841E-13 3.11571E-13
 -1       526 2.00650E+01 5.34284E-02 1.28571E-04-1.00648E-01 2.96140E-13 1.20578E-13
 -1       527 2.00418E+01 4.33681E-02 1.18505E-04-6.81987E-02 2.23255E-14 9.18034E-14
 -1       528 1.98718E+01 1.61559E-01 1.15510E-03-9.95359E-02 7.75921E-14 3.80749E-14
 -1       529 1.98471E+01 1.04661E-01 5.92505E-04-2.31117E-01 4.26195E-14 6.79652E-16
 -1       530 1.98726E+01 7.87826E-02 3.94752E-04-3.23829E-01 3.57227E-14 1.62103E-14
 -1       531 1.99367E+01 7.40426E-02 3.61197E-04-3.99421E-01 7.14825E-14 3.67261E-14
 -1       532 2.00325E+01 8.51293E-02 4.17812E-04-4.73590E-01 7.58768E-14 1.02572E-13
 -1       533 2.01562E+01 1.08923E-01 5.37585E-04-5.58323E-01 7.85597E-14 5.11090E-14
 -1       534 2.03070E+01 1.43166E-01 7.03279E-04-6.63059E-01 1.27005E-13 6.44024E-15
 -1       535 2.04859E+01 1.85294E-01 8.92412E-04-7.95012E-01 4.00900E-14 3.76117E-14
 -1       536 2.06954E+01 2.30871E-01 1.06457E-03-9.58610E-01 2.79244E-14 1.53188E-14
 -1       537 2.09393E+01 2.71081E-01 1.14492E-03-1.15374E+00-3.38806E-14-9.11666E-15
 -1       538 2.12242E+01 2.88770E-01 1.00454E-03-1.37228E+00 4.27330E-14-3.05808E-14
 -1       539 2.15625E+01 2.52892E-01 4.50999E-04-1.59213E+00 1.19615E-13-9.60486E-14
 -1       540 2.19798E+01 1.12841E-01-7.49474E-04-1.76804E+00 6.83437E-14 1.06157E-13
 -1       541 2.25228E+01-2.00497E-01-2.73317E-03-1.81924E+00-2.05485E-14 1.92033E-13
 -1       542 2.32637E+01-7.49180E-01-5.22163E-03-1.61768E+00-1.92663E-13 2.03583E-13
 -1       543 2.42761E+01-1.50313E+00-6.34716E-03-9.86765E-01-1.70398E-14 2.16412E-13
 -1       544 2.55166E+01-2.15167E+00-1.23213E-02 2.23005E-01-1.76797E-13 1.51823E-13
 -1       545 2.66420E+01-2.06922E+00-1.70734E-02 1.86792E+00-2.02016E-13 3.61811E-13
 -1       546 2.71089E+01-1.05710E-01-6.70563E-02 3.19477E+00-2.21718E-13 2.04989E-13
 -1       547 2.66491E+01 2.80864E+00-1.68580E-01 2.57134E+00 2.07195E-14-7.14142E-14
 -1       548 2.63628E+01 4.03785E+00-1.45820E-01-2.22758E-01 9.31061E-14-2.50940E-13
 -1       549 2.67890E+01 2.24804E+00-8.25533E-02-2.69819E+00 2.32196E-13-1.87165E-13
 -1       550 2.70525E+01-5.61369E-01-5.40574E-02-2.94142E+00 1.94421E-13 9.74570E-14
 -1       551 2.65269E+01-2.10233E+00-2.17644E-02-1.61324E+00 5.40423E-14 2.61222E-13
 -1       552 2.53346E+01-2.09052E+00-8.75192E-03-9.53440E-03 1.82070E-13 4.27494E-13
 -1       553 2.41210E+01-1.37836E+00-6.08338E-03 1.09916E+00 2.08899E-13 4.76259E-13
 -1       554 2.31629E+01-6.43510E-01-4.31372E-03 1.64430E+00 1.37486E-14 5.47580E-13
 -1       555 2.24658E+01-1.28178E-01-2.30299E-03 1.79025E+00-9.39091E-14 5.82048E-13
 -1       556 2.19569E+01 1.58552E-01-3.37261E-04 1.70246E+00-1.24494E-13 4.41368E-13
 -1       557 2.15681E+01 2.82477E-01 8.27728E-04 1.50254E+00 1.43363E-13 5.10601E-13
 -1       558 2.12564E+01 3.10989E-01 1.33129E-03 1.26510E+00 9.86044E-15 3.94318E-13
 -1       559 2.09992E+01 2.91520E-01 1.42458E-03 1.03120E+00 8.30722E-14 1.98069E-13
 -1       560 2.07852E+01 2.52410E-01 1.30930E-03 8.20651E-01-2.48250E-13 2.14862E-13
 -1       561 2.06081E+01 2.08751E-01 1.11344E-03 6.40804E-01-2.65131E-13 2.32109E-13
 -1       562 2.04632E+01 1.67694E-01 9.05161E-04 4.92289E-01-2.92927E-13 2.56121E-13
 -1       563 2.03465E+01 1.32076E-01 7.15512E-04 3.72492E-01 6.27233E-14 4.76233E-13
 -1       564 2.02539E+01 1.02582E-01 5.55349E-04 2.77504E-01 2.60767E-13 2.80199E-13
 -1       565 2.01818E+01 7.89326E-02 4.26072E-04 2.03154E-01 2.45043E-13 3.94121E-13
 -1       566 2.01265E+01 6.05271E-02 3.22718E-04 1.45485E-01 1.53510E-13 2.43379E-13
 -1       567 2.00848E+01 4.66197E-02 2.54921E-04 1.00959E-01-3.13428E-14-1.88654E-14
 -1       568 2.00537E+01 3.64326E-02 2.32032E-04 6.66882E-02 1.67369E-13 3.42610E-13
 -1       569 2.00308E+01 2.84792E-02 1.81727E-04 4.01354E-02-9.86976E-14 3.26441E-13
 -1       570 1.99887E+01 1.11274E-01-2.01432E-05 5.94475E-02 3.01971E-13-2.50684E-13
 -1       571 1.99758E+01 1.31026E-01-4.07214E-05 4.53542E-02 1.09749E-14-2.75152E-13
 -1       572 2.00185E+01 5.97321E-02 1.96552E-06 5.82124E-02-2.45615E-13-5.42097E-14
 -1       573 2.00040E+01 8.65713E-02 3.33121E-07 6.39530E-02-4.02236E-14 1.53127E-13
 -1       574 1.99674E+01 1.43338E-01-5.75142E-05 2.40850E-02 2.83874E-14-1.22739E-13
 -1       575 1.99648E+01 1.46855E-01-6.44386E-05-8.26391E-04-9.33658E-14 5.45663E-13
 -1       576 1.99681E+01 1.41299E-01-5.78620E-05-2.53960E-02-2.15955E-13 3.33040E-13
 -1       577 1.99765E+01 1.27785E-01-4.03092E-05-4.55044E-02 2.02224E-14-4.13093E-14
 -1       578 1.99891E+01 1.07473E-01-2.70291E-05-5.87388E-02 4.24235E-13-2.53099E-13
 -1       579 2.00034E+01 8.30056E-02-1.95868E-05-6.27398E-02 3.54854E-13-1.06346E-13
 -1       580 2.00172E+01 5.72369E-02 4.96999E-05-5.70631E-02-1.59101E-13-4.14547E-13
 -1       581 5.66405E+00-1.59997E+00 1.77203E-01 2.69256E+00-3.60253E-13 2.66454E-14
 -1       582 1.04038E+01-3.28638E+00 1.36694E-01 5.87635E+00-1.90667E-13 2.19873E-13
 -1       583 5.79596E+00-1.68133E+00 1.67326E-01-3.52889E+00-4.86625E-14 8.62921E-14
 -1       584 1.99621E+01 2.69075E-01 2.55037E-03 1.02760E-01 9.94399E-14 7.12093E-14
 -1       585 1.78480E+01-5.45657E+00 7.91909E-02 6.40942E+00-2.00798E-13 2.28990E-13
 -1       586 3.00797E+01-3.02771E+00-9.66613E-02-3.37338E-01-1.21700E-14-5.22443E-13
 -1       587 1.57850E+01-4.83583E+00 9.88204E-02-7.09292E+00 2.28505E-13 4.84578E-14
 -1       588 2.67588E+01-5.43930E+00-3.02719E-02-2.80404E+00-2.51986E-13 2.04142E-14
 -1       589 1.96844E+01 3.24524E+00-5.05927E-03-3.02447E-01 9.01821E-14-2.02635E-13
 -1       590 3.15141E+01 6.38632E+00-1.82920E-01 1.12116E+00 2.39600E-13-2.73327E-13
 -1       591 6.17722E+00-1.47997E+00 1.88634E-01-2.88973E+00-1.28387E-13-2.02005E-13
 -1       592 3.17056E+01 2.95100E+00-7.41382E-02 2.60111E+00 2.93265E-13-7.81736E-14
 -1       593 3.06313E+01-1.74726E+00-9.28857E-02 1.29624E+00 6.29271E-14 1.34281E-13
 -1       594 2.00158E+01-5.72810E+00 5.41811E-02-5.99383E+00-2.87728E-13-1.00163E-13
 -1       595 1.69351E+01-4.88876E+00 1.18075E-01 7.00801E+00 1.51046E-13 7.48603E-14
 -1       596 5.18385E+00-1.03665E+00 1.82801E-01 1.55493E+00 2.22648E-13-1.59733E-13
 -1       597 8.63210E+00-2.56116E+00 1.47691E-01 5.73220E+00 3.17871E-13-2.74003E-13
 -1       598 2.24722E+01-5.36026E+00 4.68189E-02 5.35278E+00 9.98576E-14 1.93021E-13
 -1       599 2.99970E+01 1.13655E+00-1.25074E-01-1.15457E+00-3.15671E-13 2.68834E-13
 -1       600 2.95586E+01 5.98540E+00-1.68023E-01-1.50670E+00-1.58470E-13-9.18848E-14
 -1       601 2.93233E+01 7.20686E+00-1.82703E-01 5.91510E-01 8.37941E-14-2.40538E-13
 -1       602 2.94441E+01 5.08588E+00-1.64197E-01 1.74495E+00 3.48332E-15-1.93193E-13
 -1       603 2.98335E+01 5.98101E-01-1.17600E-01 9.34934E-01-2.20199E-13-1.70211E-13
 -1       604 2.78577E+01-3.37525E+00-4.92492E-02-1.96008E+00-2.36876E-14 3.51108E-15
 -1       605 2.38007E+01-5.09359E+00 8.89440E-03-4.74012E+00 2.64302E-14-9.22734E-14
 -1       606 8.94248E+00-3.14395E+00 1.28740E-01-6.09563E+00 1.39132E-13 2.07723E-13
 -1       607 2.03966E+01 1.76366E+00-5.20388E-03-1.49467E+00-1.09774E-13-2.00165E-13
 -1       608 2.05830E+01 1.30861E+00-9.68357E-04 1.52607E+00 1.74959E-13 2.01166E-13
 -1       609 2.53533E+01-5.61080E+00 6.79293E-03 3.77857E+00-1.61267E-13-1.97800E-13
 -1       610 1.99911E+01 2.67642E+00-6.43243E-03-1.21452E+00-5.17329E-14-2.56860E-13
 -1       611 2.10303E+01-5.11396E+00 4.88018E-02-5.57694E+00 1.50401E-13 2.05556E-13
 -1       612 6.63936E+00-2.72113E-01 1.67459E-01-3.83656E-01-1.67460E-13-1.76956E-13
 -1       613 2.55798E+01-4.76168E+00-1.45755E-02 2.92643E+00-4.93095E-14 2.80075E-13
 -1       614 1.03483E+01-1.90125E+00 1.39965E-01-4.85068E+00-2.66752E-13-4.11400E-13
 -1       615 2.97893E+01 2.61665E+00-1.40949E-01-2.94681E+00 1.12382E-13-4.99122E-13
 -1       616 2.01774E+01 2.29391E+00-5.80658E-03-1.40646E+00-8.66236E-14-2.46092E-13
 -1       617 2.00292E+01 3.71580E-02 1.15924E-04-4.95608E-02-3.00270E-13 1.84842E-13
 -1       618 1.99564E+01 2.51393E+00-1.56336E-03 3.72690E-01 1.31028E-13-1.52794E-13
 -1       619 1.99205E+01 2.59391E+00-1.49511E-03 1.28054E-01 9.91795E-14-1.55294E-13
 -1       620 2.01298E+01 2.08911E+00-1.60482E-03 8.10890E-01 1.81522E-13-5.14142E-14
 -1       621 2.02525E+01 1.70562E+00-2.22439E-03 9.51541E-01 1.84700E-13-2.05406E-14
 -1       622 2.03358E+01 1.05919E+00 2.91285E-03 7.89377E-01 1.53318E-13 1.55340E-14
 -1       623 1.47170E+01-2.75521E+00 1.04831E-01 5.98865E+00 3.19515E-13-6.86534E-14
 -1       624 2.02316E+01 6.49657E-01 1.16702E-03 3.61324E-01 1.42109E-13 2.34949E-14
 -1       625 1.40185E+01-3.12540E+00 1.04146E-01-6.33413E+00 1.94979E-13 5.58581E-15
 -1       626 2.02608E+01 7.21479E-01 5.78644E-04-3.27488E-01-2.60334E-14-1.74114E-13
 -1       627 2.01976E+01 4.53209E-01 1.76061E-04-4.78536E-02-4.97570E-14-1.30212E-13
 -1       628 2.01430E+01 2.93890E-01 8.66638E-05 1.48214E-01-4.01655E-14-1.17253E-13
 -1       629 2.01067E+01 2.02623E-01 5.02873E-05 2.87199E-01-4.59310E-14-1.30437E-13
 -1       630 2.00896E+01 1.56182E-01 4.11061E-05 3.91108E-01-1.33721E-14-1.13411E-13
 -1       631 2.00902E+01 1.38833E-01 4.22257E-05 4.76444E-01-2.82625E-14-1.04698E-13
 -1       632 2.01072E+01 1.38422E-01 4.72395E-05 5.54710E-01-6.14683E-14-2.83430E-14
 -1       633 2.01406E+01 1.43928E-01 5.17933E-05 6.32835E-01-7.64167E-14 8.63773E-15
 -1       634 2.01925E+01 1.43792E-01 5.08135E-05 7.13280E-01-1.99252E-14 6.21292E-14
 -1       635 2.02679E+01 1.24717E-01 3.71775E-05 7.93746E-01-3.78330E-15 1.00466E-13
 -1       636 2.03752E+01 7.10493E-02 1.52898E-06 8.66451E-01 3.79618E-14 8.78804E-14
 -1       637 2.05275E+01-3.47380E-02-6.93581E-05 9.16989E-01-1.07568E-14 9.73228E-14
 -1       638 2.07421E+01-2.09277E-01-1.82364E-04 9.22875E-01 6.36797E-14 5.88514E-14
 -1       639 2.10385E+01-4.61415E-01-3.96737E-04 8.52344E-01-3.79970E-14 6.51973E-14
 -1       640 2.14315E+01-7.78908E-01-6.84191E-04 6.64873E-01-3.96180E-14 1.65792E-13
 -1       641 2.19164E+01-1.10726E+00-1.01160E-03 3.17450E-01 3.49489E-15 1.46302E-13
 -1       642 2.24448E+01-1.32506E+00-1.28913E-03-2.14887E-01-2.83406E-14 2.00024E-13
 -1       643 2.29035E+01-1.23733E+00-5.96947E-04-8.89594E-01-7.33863E-14-1.24252E-15
 -1       644 2.31295E+01-6.47015E-01-1.23111E-03-1.53632E+00 2.88456E-14-6.72764E-14
 -1       645 2.30155E+01 4.71884E-01-4.34765E-03-1.81213E+00 7.93864E-15 3.32616E-14
 -1       646 2.26608E+01 1.76546E+00-6.53858E-03-1.39677E+00-1.33009E-13 1.05526E-13
 -1       647 2.24093E+01 2.49421E+00-1.06993E-02-2.92159E-01-1.20854E-13 6.43428E-14
 -1       648 2.25118E+01 2.20200E+00-1.06126E-02 9.75372E-01-7.01470E-14 8.87685E-14
 -1       649 2.28753E+01 1.06272E+00-5.83525E-03 1.73225E+00 1.98713E-13 8.82191E-14
 -1       650 2.31220E+01-1.95708E-01-4.96432E-03 1.74010E+00 1.47470E-13 1.11058E-13
 -1       651 2.30475E+01-1.03485E+00-9.46716E-04 1.21237E+00 5.59742E-14 9.93005E-14
 -1       652 2.26731E+01-1.32181E+00-4.45529E-04 5.25262E-01-6.97997E-14 1.02953E-13
 -1       653 2.21599E+01-1.20828E+00-5.84614E-04-7.41752E-02-1.55501E-13 2.59638E-13
 -1       654 2.16486E+01-9.04896E-01-6.42372E-04-4.93353E-01-6.77368E-14 4.02236E-13
 -1       655 2.12150E+01-5.66882E-01-4.72267E-04-7.35067E-01-2.14981E-13 8.17333E-14
 -1       656 2.08799E+01-2.76090E-01-2.56054E-04-8.37770E-01-1.75688E-13 1.80846E-13
 -1       657 2.06346E+01-6.09370E-02-9.60640E-05-8.44509E-01-1.52622E-13 1.84255E-13
 -1       658 2.04601E+01 7.97317E-02-2.45550E-07-7.91440E-01-9.08898E-15-2.36065E-14
 -1       659 2.03373E+01 1.59523E-01 5.26751E-05-7.05566E-01 4.22396E-14-2.14194E-13
 -1       660 2.02503E+01 1.94893E-01 7.77276E-05-6.05744E-01 1.13416E-13-2.14466E-13
 -1       661 2.01879E+01 2.00711E-01 8.51653E-05-5.04385E-01 2.80481E-14-1.53710E-13
 -1       662 2.01422E+01 1.88734E-01 8.23177E-05-4.09074E-01 1.98404E-14-1.71063E-13
 -1       663 2.01080E+01 1.67511E-01 7.36997E-05-3.23922E-01-6.33063E-15-1.10329E-14
 -1       664 2.00819E+01 1.42854E-01 6.22116E-05-2.50634E-01 1.23094E-13-2.05340E-14
 -1       665 2.00615E+01 1.18458E-01 5.04057E-05-1.89359E-01 1.55519E-13-4.40514E-13
 -1       666 2.00454E+01 9.64748E-02 5.80366E-05-1.39240E-01 3.08295E-14-4.83403E-13
 -1       667 2.00322E+01 7.77927E-02 3.80182E-05-9.90484E-02 1.44667E-13-6.05992E-13
 -1       668 2.00489E+01 1.82553E-01 1.46570E-04-2.82375E-01 2.99916E-14 3.45718E-14
 -1       669 2.72397E+01 2.72792E+00-1.18557E-01-2.17633E+00-1.80078E-13-3.63494E-14
 -1       670 1.63753E+01-3.43464E+00 9.88139E-02 5.70058E+00-6.55552E-14 1.95267E-13
 -1       671 2.00817E+01 2.59282E-01 2.29114E-04-1.38566E-01 7.69460E-14 2.78573E-14
 -1       672 2.00587E+01 1.51121E-01 1.34393E-04-4.87459E-01 3.02951E-14 4.77130E-14
 -1       673 2.00913E+01 1.76977E-01 1.68502E-04-5.84170E-01 9.71817E-14 3.74901E-14
 -1       674 2.01363E+01 2.23156E-01 2.22439E-04-6.94193E-01 7.89116E-14 1.06343E-13
 -1       675 2.01899E+01 2.85341E-01 2.92691E-04-8.26896E-01 9.74388E-14 1.40775E-13
 -1       676 2.02488E+01 3.57935E-01 3.71469E-04-9.89150E-01 9.90104E-14 1.28469E-13
 -1       677 2.03110E+01 4.31289E-01 4.42837E-04-1.18499E+00 2.18898E-15 9.90332E-14
 -1       678 2.03775E+01 4.87397E-01 4.73853E-04-1.41455E+00 7.02718E-15 4.21115E-14
 -1       679 2.04582E+01 4.93579E-01 4.03507E-04-1.67216E+00 7.55791E-14 1.24315E-13
 -1       680 2.05814E+01 3.94150E-01 1.57039E-04-1.94313E+00 1.22006E-14 1.26429E-13
 -1       681 2.08112E+01 1.02742E-01-3.12894E-04-2.19731E+00-7.13767E-14 2.10095E-13
 -1       682 2.12723E+01-4.93329E-01-6.05785E-04-2.37307E+00-1.02736E-13 2.76485E-13
 -1       683 2.21570E+01-1.48101E+00-1.74460E-04-2.34533E+00-1.06670E-13 1.19629E-13
 -1       684 2.37434E+01-2.82968E+00-1.14922E-03-1.83590E+00-1.46781E-13 1.35356E-13
 -1       685 2.59403E+01-3.77446E+00 3.88559E-03-5.66483E-01-2.48959E-13 1.40467E-13
 -1       686 2.80099E+01-3.11790E+00-7.91509E-02-1.40874E+00 1.12429E-13-4.33400E-13
 -1       687 2.58270E+01-3.62702E+00-6.31187E-03 6.53072E-01-4.34296E-14-2.53330E-13
 -1       688 2.35935E+01-2.50771E+00 7.58418E-04 1.82919E+00 1.06066E-13-1.30061E-14
 -1       689 2.21627E+01-1.28672E+00 2.25274E-03 2.26007E+00 4.68365E-14 1.82881E-13
 -1       690 2.13383E+01-3.72191E-01-8.05204E-04 2.28024E+00-2.68802E-14 1.96153E-13
 -1       691 2.09064E+01 1.68993E-01-2.46285E-04 2.09464E+00 4.26453E-14 2.27909E-13
 -1       692 2.06828E+01 4.27541E-01 2.51147E-04 1.83139E+00 3.13400E-14-9.36087E-14
 -1       693 2.05558E+01 5.12090E-01 5.01708E-04 1.54919E+00 1.93510E-13-2.37234E-13
 -1       694 2.04691E+01 5.02438E-01 5.75248E-04 1.27825E+00 1.36832E-13-3.77378E-13
 -1       695 2.03981E+01 4.49056E-01 5.44718E-04 1.03361E+00-4.38441E-14-1.05986E-13
 -1       696 2.03338E+01 3.80647E-01 4.70921E-04 8.21444E-01-2.07780E-13-7.23731E-14
 -1       697 2.02747E+01 3.12040E-01 3.86947E-04 6.42731E-01-2.28439E-13-1.18217E-14
 -1       698 2.02212E+01 2.50025E-01 3.08506E-04 4.95528E-01-1.37848E-13-1.08936E-14
 -1       699 2.01741E+01 1.97062E-01 2.41409E-04 3.76426E-01 2.06331E-13-9.90223E-14
 -1       700 2.01339E+01 1.53444E-01 1.85631E-04 2.81462E-01 1.48902E-13 1.41842E-13
 -1       701 2.01003E+01 1.18492E-01 1.37208E-04 2.06704E-01 2.91859E-13-2.44715E-13
 -1       702 2.00729E+01 9.13609E-02 1.11305E-04 1.48412E-01 2.35205E-13-1.21478E-13
 -1       703 2.00508E+01 7.08132E-02 1.46455E-04 1.03327E-01-1.88571E-13-1.66637E-13
 -1       704 2.00324E+01 6.52589E-02 8.83617E-05 7.89272E-02-1.78266E-13-1.95360E-13
 -1       705 1.99395E+01 1.78559E-01-2.44994E-05 1.49631E-02 1.71254E-13 2.50106E-13
 -1       706 2.00245E+01 6.67730E-02 2.11787E-05-7.65443E-02 9.61012E-14-6.54866E-13
 -1       707 1.99666E+01 1.50408E-01-9.16100E-06 7.25296E-02 2.34429E-13-6.71925E-13
 -1       708 1.99403E+01 1.76651E-01-2.37693E-05-1.90233E-02 4.22617E-14 1.99214E-13
 -1       709 1.99486E+01 1.69562E-01-1.66931E-05 4.70993E-02-9.58593E-15 7.13984E-15
 -1       710 2.64499E+01 5.98746E+00-1.50012E-01-5.72764E-01-4.08840E-14-2.13752E-13
 -1       711 1.99504E+01 1.64606E-01-1.49797E-05-4.94091E-02-1.32097E-13 1.31862E-13
 -1       712 1.99683E+01 1.43512E-01-2.19552E-05-7.29256E-02 4.86895E-14 2.23068E-13
 -1       713 1.99916E+01 1.15800E-01-2.73896E-05-8.56214E-02 2.02174E-13-1.18212E-13
 -1       714 2.03008E+01 1.45408E+00 1.23356E-03-9.54710E-01-8.12043E-14-2.20356E-13
 -1       715 2.74603E+01 1.93910E+00-1.02312E-01 2.20066E+00-1.69059E-13 4.53387E-14
 -1       716 2.77933E+01-2.26411E+00-6.00548E-02-2.35291E-01-1.65964E-13 2.43271E-13
 -1       717 2.01438E+01 4.03347E-01 6.28313E-04 6.55051E-02 1.25704E-13 4.71627E-14
 -1       718 1.71511E+01-4.04993E+00 9.16185E-02-5.81836E+00-4.06085E-13-1.16466E-13
 -1       719 1.01872E+01-1.10553E+00 1.43900E-01 4.05062E+00-4.94639E-14 3.45633E-13
 -1       720 2.00429E+01 1.50533E-01 1.23714E-04-3.92005E-01 3.56566E-14 3.76055E-14
 -1       721 2.02992E+01 1.01302E+00-1.13258E-03-6.11864E-01-3.45941E-14-2.11610E-13
 -1       722 2.72715E+01-4.35004E+00 1.06635E-02 8.24937E-01 8.50795E-15-4.43952E-13
 -1       723 2.00265E+01 2.35023E+00-1.65026E-03 6.04959E-01 1.63297E-13-8.64808E-14
 -1       724 2.00196E+01 2.36029E+00-1.65349E-03-5.97454E-01 1.63912E-14-1.98221E-13
 -1       725 8.10327E+00 1.27184E-01 1.51555E-01-7.17847E-01-2.84243E-14 1.37869E-13
 -1       726 2.36937E+01-5.07658E+00 5.85467E-02-3.70969E+00-3.04347E-13 6.43882E-14
 -1       727 2.26181E+01-5.16179E+00 4.36230E-02 4.35730E+00-1.49148E-13-1.05582E-13
 -1       728 9.34048E+00-4.17710E-01 1.30934E-01 3.51024E+00 2.35418E-13-2.30350E-13
 -1       729 2.06107E+01-4.54392E+00 5.84112E-02 5.22109E+00 1.57915E-13 1.21669E-13
 -1       730 2.77096E+01-2.09484E+00-7.13269E-02 4.30662E-01-5.85304E-14-1.61128E-13
 -1       731 2.62150E+01 4.99114E+00-1.37438E-01 1.45063E+00-3.51941E-14-2.60660E-14
 -1       732 2.56263E+01-4.44089E+00-6.44811E-03-2.27945E+00 6.51007E-14-1.39123E-13
 -1       733 1.01486E+01-1.19124E+00 1.48375E-01-4.64493E+00 3.53745E-14 8.99628E-14
 -1       734 2.01266E+01 2.09838E+00-6.64810E-04-8.05870E-01-2.34745E-14-2.12353E-13
 -1       735 1.99193E+01 2.59536E+00-1.49563E-03-1.19319E-01 8.68321E-14-1.85818E-13
 -1       736 1.84708E+01-3.88002E+00 6.54013E-02-5.61422E+00 1.18947E-13 4.21288E-13
 -1       737 9.31859E+00 2.14824E-01 1.27932E-01-2.22587E+00-1.19086E-13-6.70991E-14
 -1       738 1.99906E+01 1.23159E-01-4.83112E-05 8.72117E-02 6.74048E-14 9.29712E-14
 -1       739 2.66172E+01-2.12840E-01-5.72474E-02-1.81940E+00-7.78700E-14-1.08261E-13
 -1       740 2.00130E+01 9.45567E-02-9.43572E-06 8.80398E-02-1.56624E-13 4.69665E-13
 -1       741 9.38898E+00 2.64811E-01 1.26637E-01 1.66910E+00-1.05766E-14-9.31755E-14
 -1       742 2.32414E+01-4.57186E+00 1.02046E-02 3.49070E+00 1.43590E-13 1.39951E-13
 -1       743 2.00100E+01 9.83943E-02-8.69556E-06-9.54240E-02-7.30262E-14-8.51950E-13
 -1       744 1.03722E+01-1.37136E-01 1.12444E-01-2.79430E+00-7.09519E-14-1.28571E-13
 -1       745 1.99523E+01 2.51928E+00-1.56004E-03-3.63336E-01 5.64481E-14-1.51541E-13
 -1       746 2.52959E+01 3.86908E+00-8.91635E-02-1.71220E+00-1.96024E-15-3.08191E-14
 -1       747 1.36499E+01-7.13525E-01 6.10621E-02 4.19548E+00 1.90805E-13-1.21115E-13
 -1       748 2.02751E+01 1.36046E+00 5.49204E-05 5.76007E-01 1.48213E-13-3.92786E-14
 -1       749 2.06715E+01-3.49401E+00 4.13503E-02 4.24311E+00-9.62303E-14-9.48217E-14
 -1       750 2.02682E+01 5.34013E-01-1.02280E-05 1.76880E-02-1.24203E-14-1.65015E-13
 -1       751 2.02252E+01 3.65599E-01-4.88312E-06 1.87025E-01-5.66164E-14-1.06551E-13
 -1       752 2.01797E+01 2.69336E-01-1.18542E-06 3.14824E-01-4.81749E-14-8.88305E-14
 -1       753 2.01371E+01 2.23118E-01 3.70865E-06 4.17408E-01-8.57581E-15-8.35046E-14
 -1       754 2.00999E+01 2.09730E-01 8.64424E-06 5.08080E-01-6.65050E-15-1.00215E-13
 -1       755 2.00702E+01 2.14313E-01 1.33230E-05 5.96730E-01 9.98532E-15 1.22982E-14
 -1       756 2.00511E+01 2.22269E-01 1.74201E-05 6.89774E-01-1.22783E-14 8.54545E-14
 -1       757 2.00483E+01 2.17594E-01 2.06628E-05 7.90063E-01 1.03059E-14 7.30552E-14
 -1       758 2.00716E+01 1.81576E-01 2.11544E-05 8.96532E-01-3.85913E-14 8.93287E-15
 -1       759 2.01370E+01 9.21387E-02 1.61944E-05 1.00333E+00-4.36950E-14-4.62105E-15
 -1       760 2.02686E+01-7.54025E-02-4.10085E-06 1.09805E+00-7.62295E-14-5.83634E-14
 -1       761 2.04996E+01-3.44420E-01-1.32985E-05 1.15836E+00-6.84792E-15-1.69200E-13
 -1       762 2.08704E+01-7.26949E-01-2.62254E-04 1.14723E+00 2.86835E-15-1.21881E-13
 -1       763 2.14189E+01-1.20337E+00-6.14812E-04 1.00733E+00-2.39175E-14-2.87414E-14
 -1       764 2.21582E+01-1.68750E+00-1.07739E-03 6.60891E-01 4.52396E-14 1.50355E-13
 -1       765 2.30262E+01-1.97332E+00-2.27542E-03 2.60372E-02-8.31934E-14 1.59203E-13
 -1       766 2.38246E+01-1.73966E+00-4.61697E-03-8.56512E-01 2.15091E-14 2.68754E-13
 -1       767 2.42491E+01-5.53449E-01-8.87630E-03-1.75047E+00 2.71630E-14 1.57769E-13
 -1       768 2.40777E+01 1.42552E+00-3.56437E-02-2.06204E+00-1.10262E-13 4.55727E-14
 -1       769 2.35547E+01 3.74242E+00-4.80613E-02 4.86986E-01-8.21617E-14 3.28823E-13
 -1       770 2.39162E+01 2.38905E+00-4.68879E-02 1.82645E+00-4.22778E-14 3.05894E-13
 -1       771 2.43015E+01 2.95838E-01-1.66263E-02 2.01933E+00 1.05762E-13 1.20515E-13
 -1       772 2.40818E+01-1.31312E+00-7.25722E-03 1.29126E+00 8.33670E-14 2.19565E-13
 -1       773 2.34055E+01-1.92769E+00 1.73807E-04 3.58997E-01-5.92385E-14 2.19540E-13
 -1       774 2.25348E+01-1.83132E+00 5.85925E-04-3.93030E-01-1.93141E-13 2.11918E-13
 -1       775 2.17229E+01-1.39610E+00-1.82838E-04-8.49374E-01-1.05672E-13 1.04591E-13
 -1       776 2.10862E+01-8.93288E-01-2.97225E-04-1.06042E+00-2.15831E-13 2.61708E-14
 -1       777 2.06371E+01-4.55527E-01-1.41967E-04-1.10751E+00-5.45561E-14 3.48054E-13
 -1       778 2.03449E+01-1.28050E-01-2.16235E-05-1.05819E+00-2.86565E-13 3.82256E-13
 -1       779 2.01677E+01 9.01408E-02 2.01438E-05-9.58270E-01-1.68449E-13 3.70590E-13
 -1       780 2.00680E+01 2.18282E-01 3.10031E-05-8.36195E-01-1.43341E-13 1.47270E-13
 -1       781 2.00171E+01 2.79719E-01 3.15158E-05-7.09143E-01 1.01887E-13 1.21117E-13
 -1       782 1.99951E+01 2.95734E-01 2.88917E-05-5.87216E-01-8.11030E-14-1.92271E-13
 -1       783 1.99889E+01 2.83400E-01 2.54102E-05-4.76036E-01 9.70924E-14-2.07266E-13
 -1       784 1.99904E+01 2.55376E-01 2.20698E-05-3.78337E-01 5.31414E-14-2.26111E-14
 -1       785 1.99948E+01 2.20515E-01 1.70257E-05-2.94940E-01-2.13553E-14-1.33207E-13
 -1       786 1.99995E+01 1.84549E-01 1.16428E-05-2.25396E-01-5.70749E-14-2.36421E-13
 -1       787 2.00035E+01 1.50936E-01 1.58536E-05-1.68801E-01-5.96640E-14-3.38749E-13
 -1       788 2.00087E+01 1.22087E-01 1.87241E-05-1.28461E-01-2.17703E-13-3.98053E-13
 -1       789 2.00396E+01 2.94453E-01 4.73184E-05-6.38966E-01 4.14506E-14 8.17089E-14
 -1       790 2.00757E+01 2.48046E-01 3.43611E-05-5.33098E-01 6.53041E-14 5.61890E-14
 -1       791 1.99409E+01 4.59362E-01 9.60641E-05-9.00160E-01 3.43063E-14 1.23336E-13
 -1       792 1.98639E+01 5.62077E-01 1.28607E-04-1.06951E+00 5.27117E-14 1.68173E-13
 -1       793 1.97596E+01 6.60059E-01 1.57433E-04-1.27162E+00 3.88290E-14 2.24738E-13
 -1       794 1.96261E+01 7.26685E-01 1.57923E-04-1.51117E+00 2.56638E-14 1.45754E-13
 -1       795 1.94728E+01 7.16414E-01 8.27263E-05-1.79470E+00 3.11432E-14 2.35700E-13
 -1       796 1.93347E+01 5.54773E-01 5.45714E-05-2.13360E+00 1.00649E-15 2.16746E-13
 -1       797 1.92976E+01 1.27099E-01 8.05722E-04-2.54463E+00-1.10687E-13 2.53715E-14
 -1       798 1.95383E+01-7.24622E-01 3.83419E-03-3.03554E+00-6.42468E-14-5.60170E-14
 -1       799 2.04828E+01-2.14017E+00 3.51125E-02-3.53949E+00-9.12583E-14-5.61773E-14
 -1       800 1.96521E+01-5.76086E-01-1.41835E-05 2.89861E+00-5.71491E-14 1.04440E-13
 -1       801 1.94354E+01 2.12603E-01 8.67220E-04 2.43225E+00-6.43201E-14 4.59631E-15
 -1       802 1.94615E+01 6.03571E-01 2.85734E-04 2.03237E+00 1.80290E-13-1.30732E-14
 -1       803 1.95793E+01 7.48470E-01 1.75459E-04 1.69001E+00 1.78220E-13-7.65979E-14
 -1       804 1.97104E+01 7.53964E-01 1.90739E-04 1.39528E+00 1.78054E-13 3.77609E-14
 -1       805 1.98221E+01 6.89742E-01 1.77219E-04 1.14036E+00-1.03754E-13-2.03865E-14
 -1       806 1.99056E+01 5.97138E-01 1.49442E-04 9.20838E-01-1.97525E-13 1.24716E-13
 -1       807 1.99624E+01 4.98977E-01 1.20032E-04 7.33877E-01-2.92963E-13 2.17733E-13
 -1       808 1.99979E+01 4.06792E-01 9.40436E-05 5.76901E-01-2.04234E-13-1.69446E-15
 -1       809 2.00179E+01 3.25628E-01 7.39761E-05 4.47090E-01-5.18025E-14 5.34812E-14
 -1       810 2.00274E+01 2.57014E-01 6.10183E-05 3.41319E-01 1.01443E-13 1.96821E-13
 -1       811 2.00301E+01 2.00651E-01 4.76559E-05 2.56267E-01 3.01959E-13 1.70963E-13
 -1       812 2.00287E+01 1.55533E-01 3.34610E-05 1.89141E-01 2.84013E-13 1.54742E-13
 -1       813 2.00247E+01 1.20371E-01 2.70965E-05 1.36441E-01 6.74306E-14-6.38963E-14
 -1       814 2.00180E+01 1.06630E-01-6.96429E-05 1.10180E-01-2.30759E-13 1.95814E-13
 -1       815 2.62463E+01-5.97091E-01-4.11117E-02 1.76287E+00 7.86125E-14 7.51205E-14
 -1       816 2.01181E+01 1.98242E+00-3.01985E-04 1.79388E-01 7.89057E-14-1.19989E-13
 -1       817 1.99040E+01 2.20267E-01-1.62475E-05-4.33781E-03-1.26231E-13 1.87084E-13
 -1       818 1.99660E+01 1.58463E-01-1.85662E-05-1.07744E-01-1.43272E-13-1.12933E-13
 -1       819 1.99126E+01 2.10810E-01 3.18513E-07-4.68995E-02-1.39339E-13 1.88437E-13
 -1       820 1.49031E+01-1.77127E+00 8.91407E-02-4.78114E+00-2.49045E-13-2.14728E-13
 -1       821 2.02961E+01 9.87388E-01 5.12014E-05 4.94588E-01 1.33617E-13 6.78982E-18
 -1       822 1.46821E+01-1.34528E+00 7.10065E-02 4.38033E+00-5.67896E-14 1.31513E-13
 -1       823 2.58807E+01-2.90517E+00-2.06863E-02-1.36927E-02 2.80187E-13-1.92082E-13
 -1       824 1.99343E+01 1.89388E-01-1.40540E-05-8.32748E-02-2.23673E-14 4.14859E-13
 -1       825 2.05139E+01-1.94155E+00 2.33699E-02 3.33321E+00-7.21419E-14-4.89641E-14
 -1       826 2.50747E+01 2.54339E+00-4.81778E-02 2.10480E+00-2.27436E-13 1.45044E-13
 -1       827 1.99970E+01 3.67128E-01 6.74535E-05-7.58671E-01 7.62471E-14 8.83021E-14
 -1       828 2.01934E+01 3.45714E-01 1.36654E-05-1.80564E-01 3.89124E-14 6.88910E-14
 -1       829 2.02233E+01 1.80667E+00 7.97645E-04-9.12934E-01-6.49510E-14-2.22341E-13
 -1       830 1.85182E+01-2.90113E+00 4.57761E-02 4.79283E+00 1.95915E-13-1.11831E-13
 -1       831 2.57571E+01-3.66863E+00-1.89507E-02 1.04164E+00-1.82433E-14 1.45794E-13
 -1       832 1.08178E+01 7.18337E-01 7.95691E-02 1.12295E+00-8.52773E-14 3.52149E-15
 -1       833 2.02960E+01 8.07697E-01 7.09347E-06-2.10278E-01-2.89757E-14-1.97985E-13
 -1       834 1.46343E+01-1.44571E+00 6.84076E-02-4.81604E+00 1.37512E-14-3.10880E-14
 -1       835 2.26921E+01-4.36872E+00 2.73148E-02-3.70388E+00 5.14319E-14-1.59842E-13
 -1       836 2.01034E+01 2.02339E+00-3.06522E-04 3.42331E-03 7.13667E-14-1.46882E-13
 -1       837 2.02210E+01 1.65138E+00 2.56704E-04 4.86894E-01 1.34756E-13-6.15887E-14
 -1       838 1.28465E+01 7.69776E-02 6.09639E-02 3.06925E+00 1.47365E-15 3.44377E-13
 -1       839 2.03014E+01 1.09190E+00-2.73365E-04-4.32456E-01-1.46182E-14-2.03468E-13
 -1       840 2.35602E+01 3.35779E+00-3.49963E-02-9.45327E-01-5.48650E-14 1.85060E-13
 -1       841 1.99620E+01 1.71268E-01 2.43162E-05 1.07872E-01-1.89797E-13 1.53997E-13
 -1       842 1.99299E+01 2.00011E-01-9.07222E-06 7.93917E-02 8.85094E-14-4.81230E-13
 -1       843 2.01108E+01 2.34632E-01 2.61080E-05-4.30725E-01 2.87441E-14 3.58483E-14
 -1       844 2.02125E+01 1.65705E+00-1.36304E-03-4.79524E-01-1.12795E-14-1.85503E-13
 -1       845 2.02406E+01 5.04461E-01 3.50755E-05 3.22383E-03 1.07846E-13 4.97781E-14
 -1       846 2.01607E+01 1.85899E+00-4.72081E-05 3.46043E-01 1.00526E-13-9.18872E-14
 -1       847 1.99098E+01 2.16728E-01-2.30088E-05 4.00113E-02 2.91376E-14 1.71011E-13
 -1       848 1.14588E+01 8.75195E-01 4.91937E-02-7.13634E-01 1.89183E-14 5.28032E-14
 -1       849 2.42456E+01-3.65212E+00 1.89355E-04-1.52320E+00 1.28120E-13-4.07698E-13
 -1       850 1.99863E+01 1.41759E-01 1.64074E-04-1.20423E-01-3.65745E-13-3.24130E-13
 -1       851 2.02700E+01 7.00823E-01 2.14158E-05 2.14820E-01 1.02455E-13 1.18359E-14
 -1       852 2.01493E+01 2.62916E-01 2.20749E-05-3.18698E-01 3.87762E-14 7.99731E-14
 -1       853 2.57700E+01-2.13106E+00-1.55824E-02-8.44992E-01-1.43388E-13-1.94931E-14
 -1       854 2.01557E+01 1.86442E+00-2.64782E-04-3.39027E-01 3.07230E-14-1.42435E-13
 -1       855 2.08283E+01-3.49842E+00 1.54811E-02 3.91160E+00 1.55102E-13 1.57934E-13
 -1       856 1.29643E+01-5.80973E-02 6.05504E-02-3.40213E+00-1.62570E-14-1.34073E-13
 -1       857 1.14423E+01 1.01112E+00 6.77050E-02-2.19857E-01 6.02675E-14 1.24912E-13
 -1       858 2.02515E+01 4.18226E-01-2.46761E-05 2.10594E-01-2.15490E-15-1.30862E-13
 -1       859 2.01889E+01 3.29414E-01-9.04124E-06 3.19779E-01-5.14604E-15-2.20772E-14
 -1       860 2.01169E+01 2.92439E-01-5.53411E-06 4.14310E-01 1.08222E-14 3.31266E-16
 -1       861 2.00399E+01 2.89289E-01-2.21210E-06 5.04951E-01 3.40047E-14-1.47555E-14
 -1       862 1.99619E+01 3.03068E-01 2.32408E-06 6.00482E-01 2.34825E-14-3.07239E-14
 -1       863 1.98881E+01 3.16204E-01 5.09858E-06 7.07637E-01-6.84675E-14-7.27141E-14
 -1       864 1.98268E+01 3.08859E-01 6.17818E-06 8.31088E-01-5.56723E-14-1.66188E-13
 -1       865 1.97921E+01 2.57448E-01 8.39762E-06 9.73304E-01-6.00792E-14-1.99342E-13
 -1       866 1.98062E+01 1.33694E-01 1.93054E-05 1.13355E+00-5.55148E-14-1.53469E-13
 -1       867 1.99040E+01-9.50663E-02 1.50192E-05 1.30564E+00-3.62743E-14-9.15992E-14
 -1       868 2.01384E+01-4.62783E-01 3.97380E-04 1.47144E+00 6.28635E-14-4.44499E-14
 -1       869 2.05739E+01-9.88711E-01-5.43575E-05 1.58893E+00 2.56175E-14 3.89528E-14
 -1       870 2.12982E+01-1.66274E+00 5.41362E-04 1.57694E+00 1.14163E-13 8.39265E-14
 -1       871 2.23585E+01-2.35910E+00-7.20998E-04 1.30183E+00 1.45608E-14 5.56464E-14
 -1       872 2.37403E+01-2.78624E+00 9.42868E-03 5.91831E-01 3.72640E-15 8.57729E-14
 -1       873 2.43120E+01-2.67287E+00-2.49646E-03-6.75084E-02 9.47531E-14 2.23244E-13
 -1       874 2.29410E+01-2.58634E+00 5.40445E-03-1.02242E+00-8.96859E-14 1.57599E-13
 -1       875 2.17151E+01-1.94852E+00 1.23174E-03-1.47117E+00-2.69108E-13 2.65441E-13
 -1       876 2.08379E+01-1.23288E+00-3.05548E-04-1.57162E+00-2.72231E-13 2.16114E-13
 -1       877 2.02772E+01-6.25165E-01-1.69789E-04-1.48720E+00 1.77547E-13 2.82817E-13
 -1       878 1.99535E+01-1.78134E-01 1.50283E-05-1.32327E+00-1.57907E-13 2.62636E-13
 -1       879 1.97905E+01 1.18083E-01 5.18340E-05-1.13718E+00-3.19177E-13 1.88692E-13
 -1       880 1.97283E+01 2.93358E-01 4.24183E-05-9.55184E-01-3.09115E-13 1.79333E-13
 -1       881 1.97249E+01 3.79686E-01 2.83807E-05-7.88482E-01-3.52017E-14 1.76965E-13
 -1       882 1.97524E+01 4.05066E-01 1.80551E-05-6.41138E-01-1.18548E-13 7.21899E-14
 -1       883 1.97931E+01 3.91721E-01 1.28805E-05-5.13938E-01 5.15969E-14 2.70161E-13
 -1       884 1.98367E+01 3.56193E-01 1.10223E-05-4.06141E-01-6.58434E-14-1.14073E-13
 -1       885 1.98774E+01 3.10154E-01 6.47492E-06-3.16339E-01 3.88206E-14-2.40716E-13
 -1       886 1.99124E+01 2.61611E-01 1.95055E-05-2.42669E-01-1.37225E-14-2.31671E-13
 -1       887 1.99409E+01 2.14896E-01-6.52856E-05-1.82904E-01 3.99150E-14-1.10178E-13
 -1       888 2.00081E+01 3.55607E-01 1.39144E-06-5.25981E-01-1.75586E-14 2.79048E-15
 -1       889 1.93754E+01 7.72553E-01 3.62165E-05-1.01139E+00 2.27127E-14 9.51373E-14
 -1       890 1.95949E+01 6.44216E-01 2.13166E-05-8.62368E-01 9.41109E-14 1.38674E-13
 -1       891 1.87385E+01 9.67979E-01-1.17219E-04-1.40715E+00-1.11576E-14 3.27981E-14
 -1       892 1.83032E+01 9.56029E-01-4.29653E-04-1.68959E+00 2.72228E-14 4.50953E-14
 -1       893 1.77942E+01 7.77275E-01-6.34402E-04-2.08405E+00 9.31787E-14-1.06047E-14
 -1       894 1.72549E+01 3.05291E-01 7.92700E-04-2.67902E+00-3.86532E-14-5.10260E-14
 -1       895 1.68969E+01-6.52934E-01 2.60302E-02-3.57843E+00-3.55662E-14-6.99180E-14
 -1       896 1.84302E+01 9.98008E-01 1.06422E-04 1.61556E+00 1.27513E-13 3.03595E-14
 -1       897 1.79657E+01 8.33509E-01 6.38715E-04 2.01141E+00 5.99119E-14 8.93767E-14
 -1       898 1.74929E+01 3.86878E-01 3.29288E-03 2.60705E+00-4.12668E-14-1.94285E-14
 -1       899 1.88253E+01 1.00655E+00 7.44780E-06 1.32398E+00 6.20077E-14-4.98962E-15
 -1       900 1.91436E+01 9.32211E-01 2.50755E-05 1.09109E+00 3.85767E-14 2.95644E-13
 -1       901 1.93897E+01 8.20202E-01 2.87251E-05 8.95933E-01-8.79110E-14 4.12607E-13
 -1       902 1.95745E+01 6.97218E-01 2.38034E-05 7.28901E-01-2.04326E-13-3.06938E-14
 -1       903 1.97100E+01 5.78035E-01 1.79410E-05 5.85694E-01-9.17923E-14-1.86859E-13
 -1       904 1.98074E+01 4.70059E-01 1.34326E-05 4.64025E-01-3.10846E-13-3.30632E-13
 -1       905 1.98761E+01 3.76363E-01 1.20995E-05 3.62132E-01-2.15118E-13-3.36504E-14
 -1       906 1.99238E+01 2.97382E-01 2.69360E-05 2.78152E-01 1.62539E-13-8.30603E-14
 -1       907 1.99553E+01 2.32469E-01-1.03097E-04 2.09536E-01 2.75518E-13 1.19799E-13
 -1       908 1.99769E+01 1.81052E-01 1.15672E-04 1.55302E-01 2.19584E-13 4.48194E-13
 -1       909 1.35467E+01 7.72282E-03 7.20788E-02-3.13316E+00 1.74591E-14-1.30933E-13
 -1       910 1.99916E+01 1.39201E-01 2.54792E-05 1.14027E-01-2.31631E-13 5.46236E-13
 -1       911 1.98630E+01 2.66108E-01-3.02241E-05-3.62333E-02-4.33470E-14 1.69796E-13
 -1       912 1.71074E+01-4.86084E-01 3.01831E-02 3.49234E+00-1.02452E-13 7.12702E-14
 -1       913 2.03046E+01 9.76950E-01-1.56065E-04 3.02722E-01 6.85683E-14-3.35029E-14
 -1       914 1.90940E+01 8.90511E-01 1.54566E-05-1.18899E+00 4.25912E-14 7.44095E-14
 -1       915 1.69823E+01-1.19042E+00 2.42075E-02 3.81882E+00 1.08698E-13-1.33274E-13
 -1       916 2.01164E+01 1.98444E+00-3.00532E-04-1.72976E-01 6.43024E-14-1.56068E-13
 -1       917 2.00074E+01-3.11509E+00 2.74773E-02-4.16390E+00 3.09043E-13 1.80298E-14
 -1       918 2.02973E+01 5.80640E-01 4.64467E-05 7.46365E-02-6.12235E-17-1.57672E-13
 -1       919 2.38919E+01-3.66976E+00-1.63629E-03 1.71730E+00 1.10751E-13 1.42334E-15
 -1       920 1.38142E+01 6.41125E-01 2.26792E-02 2.10657E+00-1.89772E-14 4.41184E-14
 -1       921 2.03152E+01 8.40741E-01-6.05951E-05-9.87708E-02 5.04778E-15-1.64745E-13
 -1       922 2.02368E+01 4.14850E-01 6.77152E-06-2.09597E-01 4.28145E-14 2.05167E-14
 -1       923 1.98602E+01 2.71185E-01-2.68417E-05 2.11908E-02-1.32760E-13-9.15067E-17
 -1       924 2.54676E+01-1.47732E+00-2.74911E-02 1.24174E+00 3.49201E-13 7.29890E-15
 -1       925 2.00975E+01 3.23572E-01 1.91611E-06-4.30614E-01 1.99442E-14-4.24467E-14
 -1       926 1.99000E+01 4.25450E-01 1.15779E-06-6.25044E-01-9.37126E-15 1.49834E-13
 -1       927 1.99678E+01 1.75264E-01 3.67666E-05-1.49571E-01-9.09528E-14-1.74404E-13
 -1       928 1.73747E+01-1.49376E+00 1.86538E-02-3.91648E+00 1.13919E-13-1.32888E-14
 -1       929 1.97656E+01 5.24644E-01 1.07689E-05-7.35321E-01 7.36997E-14 2.01774E-13
 -1       930 2.02321E+01 1.53378E+00-1.37083E-05 5.72856E-02 6.43638E-14-1.14817E-13
 -1       931 1.87635E+01-1.95003E+00 1.09979E-02 3.69443E+00 1.07471E-13-9.31972E-14
 -1       932 1.99148E+01 2.31922E-01-7.75053E-05 1.23295E-01-4.70098E-14-1.60669E-13
 -1       933 1.98852E+01 2.45861E-01 1.68389E-05-8.78382E-02-1.39309E-13 3.54588E-13
 -1       934 2.03016E+01 1.11895E+00 3.26888E-04-2.64706E-01-4.29089E-15-1.76651E-13
 -1       935 2.02498E+01 1.45769E+00-5.65880E-04 1.58763E-01 6.96154E-14-1.23639E-13
 -1       936 1.35810E+01 1.09600E+00 2.91593E-02 8.42620E-01 6.59587E-14-4.85037E-14
 -1       937 2.21498E+01-3.21625E+00 5.81667E-03-2.60787E+00 1.38326E-13-2.98318E-13
 -1       938 1.58120E+01-3.83480E-01 2.06391E-02-3.36000E+00 1.05979E-13-1.48459E-13
 -1       939 2.02851E+01 5.69623E-01-4.31731E-05-5.76430E-02 6.99626E-14 6.54356E-14
 -1       940 2.02762E+01 1.31467E+00 6.61470E-04-2.42476E-01 1.57371E-14-1.20502E-13
 -1       941 2.01733E+01 3.39018E-01 7.19773E-08-3.29181E-01 3.27568E-14 6.68827E-15
 -1       942 1.99305E+01 2.05876E-01-1.37253E-05-1.28295E-01-2.76115E-13 2.74315E-14
 -1       943 1.50228E+01 8.06746E-01 1.67160E-02-2.17300E+00 5.30235E-14-7.03864E-14
 -1       944 1.37313E+01 9.12477E-01 1.80433E-02-1.57991E+00-1.81693E-13-4.88021E-14
 -1       945 1.97869E+01-2.13947E+00 2.22876E-03-3.26608E+00 1.34033E-13-2.78718E-14
 -1       946 2.01491E+01 3.82968E-01-1.40599E-05 2.94319E-01 2.07832E-14-4.65519E-14
 -1       947 2.00432E+01 3.63343E-01-1.61882E-05 3.76415E-01 7.23239E-14-4.33045E-14
 -1       948 1.99233E+01 3.76687E-01-1.32158E-05 4.62893E-01-1.05197E-14-7.36682E-15
 -1       949 1.97933E+01 4.04912E-01-4.56123E-06 5.62201E-01-2.68611E-14-8.99560E-14
 -1       950 1.96590E+01 4.28431E-01-2.14155E-05 6.82381E-01-6.73463E-14-2.34858E-14
 -1       951 1.95288E+01 4.25023E-01-4.41510E-05 8.31546E-01-2.01532E-14-2.21542E-14
 -1       952 1.94180E+01 3.67287E-01-6.11062E-05 1.01809E+00-6.31639E-15 3.15120E-14
 -1       953 1.93517E+01 2.21759E-01-4.62041E-05 1.24982E+00-1.49320E-14-4.60225E-15
 -1       954 1.93687E+01-5.09767E-02-1.89430E-04 1.53205E+00 2.61080E-14 4.89084E-14
 -1       955 1.95429E+01-5.13721E-01-2.49250E-03 1.87211E+00 6.66993E-14 2.25817E-14
 -1       956 1.99866E+01-1.18732E+00 2.98911E-03 2.22406E+00 9.82795E-14-1.54163E-14
 -1       957 2.08447E+01-2.11161E+00 5.01254E-04 2.47129E+00 1.16088E-14-2.49357E-14
 -1       958 2.13455E+01-2.51145E+00-2.04247E-03-2.44843E+00-2.00144E-15-1.56826E-13
 -1       959 2.02669E+01-1.51065E+00 1.04746E-03-2.30098E+00-1.51852E-13 7.62068E-14
 -1       960 1.96602E+01-7.20007E-01-9.95697E-04-1.98368E+00-1.89484E-14 4.10393E-13
 -1       961 1.93776E+01-1.63216E-01-4.73001E-05-1.63253E+00-7.61342E-14 1.31341E-13
 -1       962 1.92836E+01 1.95112E-01 2.69387E-05-1.31798E+00-2.88299E-13-6.73213E-14
 -1       963 1.92977E+01 4.03284E-01 2.77219E-05-1.05252E+00-2.98095E-13 1.77509E-13
 -1       964 1.93676E+01 5.04052E-01 1.56062E-05-8.34633E-01-9.03888E-14 1.32813E-13
 -1       965 1.94616E+01 5.31901E-01 6.79046E-06-6.57827E-01-3.95432E-14 1.36843E-13
 -1       966 1.95606E+01 5.13250E-01 2.73789E-06-5.15090E-01 7.56805E-14 2.60066E-13
 -1       967 1.96541E+01 4.67622E-01 7.61251E-06-4.00256E-01-3.11593E-13-1.54214E-15
 -1       968 1.97365E+01 4.08834E-01 1.47768E-05-3.08152E-01-2.34675E-13-1.90854E-14
 -1       969 1.98060E+01 3.46466E-01 3.55912E-05-2.35141E-01 1.71656E-13 2.94508E-14
 -1       970 1.98620E+01 2.86468E-01 1.83755E-05-1.76554E-01 1.07710E-13 1.19135E-13
 -1       971 1.70231E+01 1.18485E+00-1.66876E-03-1.26453E+00 2.88102E-14-1.24728E-13
 -1       972 1.77978E+01 1.17830E+00-5.41175E-04-1.05437E+00 4.85835E-14 7.39767E-15
 -1       973 2.02318E+01 1.53438E+00 2.69434E-05-5.10395E-02 4.99176E-14-1.63953E-13
 -1       974 1.71849E+01 1.23482E+00-7.80920E-04 1.23929E+00-3.79823E-14 1.10224E-13
 -1       975 1.35611E+01 9.77527E-01 2.00368E-02 1.56103E+00 1.69133E-14 1.06209E-13
 -1       976 1.84330E+01 1.14175E+00-1.17236E-04 8.56620E-01-5.18940E-14 3.24316E-13
 -1       977 1.78934E+01 1.22688E+00-2.68526E-04 1.01714E+00-1.91169E-14 3.79194E-13
 -1       978 1.62763E+01 1.11171E+00 4.44405E-03 1.59650E+00-1.59629E-13-8.84470E-14
 -1       979 1.88439E+01 1.01802E+00-4.09221E-05 7.25300E-01 1.14448E-15 3.30347E-13
 -1       980 1.91557E+01 8.79771E-01-1.27306E-05 6.10018E-01 1.36925E-13 2.06480E-13
 -1       981 1.93907E+01 7.42042E-01-3.85095E-06 5.06354E-01-9.79979E-14 1.42461E-13
 -1       982 1.95665E+01 6.13605E-01-1.23497E-06 4.13541E-01-1.42236E-13 3.60038E-13
 -1       983 1.96967E+01 4.98955E-01-1.95990E-05 3.31825E-01-1.68820E-13 5.48664E-14
 -1       984 1.97924E+01 3.99743E-01-6.46021E-05 2.61830E-01 2.19105E-14-4.35227E-13
 -1       985 1.98617E+01 3.16750E-01 8.84841E-06 2.03122E-01 1.39589E-13-1.24669E-13
 -1       986 2.02315E+01 4.64694E-01-2.01155E-05-2.11061E-01 6.72061E-14-6.16279E-14
 -1       987 2.03147E+01 1.00534E+00 8.71236E-05-1.09222E-01 9.36860E-15-9.46417E-14
 -1       988 2.03021E+01 7.39314E-01-8.02705E-05 9.85937E-02 7.21083E-14 1.37532E-14
 -1       989 2.02496E+01 1.46027E+00 1.10912E-04-1.55788E-01 2.85652E-14-1.08825E-13
 -1       990 1.98787E+01 2.59438E-01 1.03668E-05 7.70895E-02-8.83679E-14-2.52019E-13
 -1       991 2.03020E+01 1.16084E+00-8.63258E-05 2.28891E-01 4.87193E-14-4.04086E-14
 -1       992 2.02964E+01 5.97266E-01 6.85714E-05 1.07144E-01 1.61085E-16-5.62033E-14
 -1       993 2.16921E+01-3.00562E+00 7.80071E-03 2.74254E+00 1.72292E-14-6.61470E-14
 -1       994 1.63143E+01 1.27042E-01 4.38327E-03 2.51517E+00 6.20446E-14-3.95799E-14
 -1       995 1.61628E+01 1.06663E+00 2.29029E-03-1.59032E+00-2.00454E-14-1.51884E-14
 -1       996 1.92013E+01 8.13903E-01-6.24972E-06-6.99876E-01 1.02351E-13 1.73600E-14
 -1       997 2.03201E+01 7.65199E-01-3.16125E-04 1.13264E-02-1.10834E-15-7.64785E-14
 -1       998 2.02359E+01 4.53889E-01-2.07555E-05 2.07582E-01 3.80661E-14-5.59991E-14
 -1       999 1.98015E+01 3.30142E-01-3.45364E-05-1.36663E-02-3.22232E-14 6.03353E-13
 -1      1000 1.44282E+01 1.30200E+00 7.17331E-03 8.34686E-03-1.65459E-13 2.44933E-13
 -1      1001 1.53613E+01 1.00361E+00 3.69518E-03 1.19280E+00 1.56097E-13-3.64728E-14
 -1      1002 2.00254E+01 4.09093E-01 1.34866E-06-3.82715E-01-2.69296E-14-4.96815E-15
 -1      1003 1.88456E+01 9.57624E-01-1.53475E-05-7.96840E-01 7.59076E-14 1.94429E-14
 -1      1004 1.94815E+01 6.74173E-01-6.07167E-05-6.13322E-01 1.16128E-13-3.51565E-14
 -1      1005 1.98815E+01 4.61998E-01-9.55557E-06-4.57323E-01-4.31055E-14-1.36001E-14
 -1      1006 2.02966E+01 1.16582E+00 2.36525E-05 2.87446E-03 3.94633E-14-1.49852E-13
 -1      1007 2.02932E+01 6.03272E-01 7.45247E-05-9.77512E-02 7.26034E-14-2.16745E-14
 -1      1008 1.83888E+01 1.08809E+00-1.10777E-04-9.09449E-01 1.57120E-14 8.83580E-15
 -1      1009 1.77236E+01-7.81614E-01 9.66219E-03-3.08773E+00 8.38082E-14 4.68936E-14
 -1      1010 1.97959E+01 3.57563E-01-5.06173E-06 1.34136E-01 7.00142E-14-3.96076E-13
 -1      1011 1.83860E+01-9.29558E-01-3.11037E-03 2.89571E+00 1.18139E-13-7.77257E-14
 -1      1012 1.98195E+01 3.13255E-01 2.78287E-05-8.43142E-02 1.31148E-13 1.89359E-13
 -1      1013 2.01414E+01 4.05732E-01-8.95045E-08-3.03119E-01 3.49153E-14-5.89961E-14
 -1      1014 2.03030E+01 1.13256E+00 3.59480E-04 4.77526E-02 6.05636E-14-1.25016E-13
 -1      1015 1.87645E+01 1.01465E+00-6.89481E-05 3.70113E-01 4.60079E-14 2.96122E-13
 -1      1016 1.51481E+01 1.29699E+00 2.42366E-03-2.57790E-01 2.32388E-14 5.31654E-14
 -1      1017 1.99298E+01 4.35486E-01-8.10147E-05 2.99016E-01 7.04843E-14-1.06208E-13
 -1      1018 1.97641E+01 4.71228E-01-3.04797E-05 3.77133E-01-3.09197E-14-6.75233E-14
 -1      1019 1.95774E+01 5.20235E-01 2.42872E-05 4.75642E-01 4.65261E-15-1.13599E-14
 -1      1020 1.93735E+01 5.61434E-01-9.50384E-05 6.04196E-01 2.64770E-15 6.29005E-14
 -1      1021 1.91566E+01 5.73507E-01-2.11078E-04 7.76618E-01-7.47453E-14-3.18534E-14
 -1      1022 1.89388E+01 5.26132E-01-3.00147E-04 1.00754E+00-6.02680E-14-1.13886E-13
 -1      1023 1.87369E+01 3.83570E-01-1.04680E-03 1.31814E+00 5.33803E-14-1.25722E-13
 -1      1024 1.86172E+01 9.66267E-02 4.06804E-03 1.72479E+00 8.74503E-14-1.48576E-13
 -1      1025 1.77937E+01 1.26792E+00-2.92219E-04 4.16653E-01 1.08381E-13 2.07277E-13
 -1      1026 2.03034E+01 1.13221E+00-7.78634E-05-4.42529E-02 1.54862E-14-1.39609E-13
 -1      1027 1.85771E+01-6.39582E-01 1.07965E-03-2.52728E+00 7.82252E-15 1.55801E-13
 -1      1028 1.85121E+01-2.51946E-02-1.68015E-04-1.92782E+00-1.27449E-13-1.08455E-13
 -1      1029 1.85953E+01 3.56920E-01-5.31194E-05-1.45498E+00-2.21935E-13-6.53964E-14
 -1      1030 1.87552E+01 5.67916E-01-3.55463E-05-1.09580E+00-1.45127E-13-8.56757E-14
 -1      1031 1.89414E+01 6.62461E-01-2.42155E-05-8.25303E-01-2.69657E-13-7.63365E-14
 -1      1032 1.91276E+01 6.79462E-01-1.76965E-05-6.21806E-01-2.71057E-14-1.13000E-13
 -1      1033 1.93001E+01 6.47341E-01-1.40591E-05-4.68348E-01 6.06875E-14-7.65778E-15
 -1      1034 1.94523E+01 5.86781E-01-8.67072E-06-3.52257E-01-2.39071E-13-2.00310E-13
 -1      1035 1.95819E+01 5.12637E-01 2.99528E-05-2.64240E-01-2.05644E-13 3.16593E-13
 -1      1036 1.96880E+01 4.35201E-01-1.17897E-04-1.96688E-01 3.87378E-15 8.04011E-13
 -1      1037 1.97749E+01 3.60485E-01 8.06017E-05-1.45761E-01 5.40418E-14 4.00688E-13
 -1      1038 1.77568E+01 1.19908E+00-1.03874E-05-4.15442E-01 1.54229E-14 3.88932E-14
 -1      1039 1.58428E+01 5.86408E-01 4.41608E-03-2.03933E+00-3.27574E-13-2.79743E-13
 -1      1040 1.83458E+01 1.15068E+00-1.45709E-04 3.98695E-01 2.24345E-14 1.89083E-13
 -1      1041 1.60434E+01 1.36511E+00-7.47975E-04 4.50904E-01-1.91619E-13 2.13499E-13
 -1      1042 1.90840E+01 8.73324E-01-3.39990E-05 3.32329E-01-4.20243E-14 3.68360E-13
 -1      1043 1.93278E+01 7.36206E-01-1.89178E-05 2.89031E-01-1.37736E-13 2.80347E-13
 -1      1044 1.95132E+01 6.09390E-01-2.21198E-05 2.44120E-01-1.17787E-15-3.94548E-14
 -1      1045 1.96528E+01 4.96313E-01-1.30073E-04 2.01119E-01 2.12995E-13 7.43117E-14
 -1      1046 1.97310E+01 4.23561E-01-1.11213E-05 1.66087E-01 2.45403E-13-4.25363E-13
 -1      1047 1.97031E+01 5.53935E-01-6.52362E-05-5.32776E-01 7.40115E-15-6.60149E-14
 -1      1048 2.03181E+01 8.27237E-01 2.44196E-04 4.28222E-02 5.69583E-14-4.31159E-14
 -1      1049 1.70557E+01 1.34769E+00-5.15751E-04 4.29335E-01-2.30130E-13 2.58208E-13
 -1      1050 2.00724E+01 4.31092E-01-9.17724E-05 2.32669E-01 2.11534E-14-6.56646E-14
 -1      1051 1.97855E+01 3.52557E-01 5.79039E-05 5.63072E-02-8.10779E-14-2.01136E-13
 -1      1052 2.02719E+01 5.89723E-01-9.39192E-05 1.05067E-01 2.64922E-14-1.31622E-13
 -1      1053 2.03160E+01 9.99608E-01 6.96554E-04 5.83902E-02 3.47399E-14-1.04886E-13
 -1      1054 2.01886E+01 4.75664E-01-8.78773E-05 1.70247E-01 4.08357E-14-1.13042E-13
 -1      1055 1.77800E+01-3.15127E-03-6.31922E-04 2.19353E+00 8.10632E-14-9.28483E-14
 -1      1056 1.67570E+01 7.81327E-01 1.75541E-04 1.40625E+00 2.79567E-14-1.00394E-13
 -1      1057 1.69573E+01 1.29349E+00 2.55293E-03-4.01882E-01 4.73613E-14 1.82039E-13
 -1      1058 1.57231E+01 1.16315E+00 2.95144E-03-8.95187E-01-1.34870E-13 5.85426E-14
 -1      1059 1.61962E+01 1.31170E+00 8.76848E-03-3.42754E-01 1.49764E-14 1.83657E-13
 -1      1060 2.03101E+01 8.79895E-01-2.15703E-04-6.57164E-04 5.98201E-14-9.78740E-14
 -1      1061 1.88251E+01 9.34837E-01-1.19041E-04-4.10096E-01 8.24920E-14 4.86475E-14
 -1      1062 1.91906E+01 7.93040E-01-1.23697E-04-3.87237E-01 6.17532E-14 2.78178E-14
 -1      1063 1.99181E+01 4.81976E-01-8.23701E-05-2.82369E-01-5.58640E-14-5.82781E-14
 -1      1064 1.73733E+01 2.07241E-01-1.78012E-04-2.12213E+00-2.23196E-13-3.37929E-13
 -1      1065 2.02753E+01 6.08487E-01-6.91680E-05-1.03200E-01 1.08095E-13-8.40882E-14
 -1      1066 2.03130E+01 8.75054E-01-1.50249E-04 1.06079E-02 3.06754E-14-1.28598E-13
 -1      1067 2.03114E+01 7.35817E-01 1.29800E-04 4.70222E-02 6.17806E-15-1.28557E-13
 -1      1068 2.00729E+01 4.58062E-01-6.69857E-05-2.33486E-01-1.82449E-14-1.63279E-14
 -1      1069 1.62070E+01 1.15232E+00-1.21798E-03 6.08869E-01 4.52077E-14 3.35301E-14
 -1      1070 1.97331E+01 3.93999E-01-2.57033E-05-6.13299E-02-1.69430E-13 4.57765E-13
 -1      1071 1.83574E+01 1.07704E+00-1.89591E-04-4.19329E-01 2.87690E-14 4.93218E-14
 -1      1072 1.96956E+01 4.31357E-01-4.19128E-05 2.12808E-02 1.97504E-13 3.02104E-14
 -1      1073 2.01928E+01 4.94332E-01-8.68642E-05-1.75227E-01 3.08194E-14-4.65416E-14
 -1      1074 1.91297E+01 8.16498E-01-3.55565E-05 9.29923E-02 2.10184E-14 2.45157E-13
 -1      1075 1.97906E+01 5.09971E-01 1.20343E-04 1.79338E-01 2.83625E-14-1.10900E-13
 -1      1076 1.95783E+01 5.71000E-01-1.42461E-04 2.42483E-01 7.96720E-15-1.25622E-13
 -1      1077 1.93313E+01 6.46976E-01 6.74084E-04 3.35540E-01 5.56903E-15-1.69116E-13
 -1      1078 1.90429E+01 7.17552E-01 6.22134E-04 4.65910E-01-5.23161E-14-1.89585E-13
 -1      1079 1.87172E+01 7.57504E-01 4.68993E-04 6.47989E-01-2.13003E-14-6.69906E-14
 -1      1080 1.83487E+01 7.40836E-01-3.61963E-04 9.09866E-01-4.26546E-14 4.36275E-14
 -1      1081 1.79448E+01 6.50226E-01 1.99308E-03 1.26219E+00 1.58899E-14 1.28241E-14
 -1      1082 1.73307E+01 1.16435E+00-8.83399E-04 2.81089E-01-5.56724E-14-4.25320E-14
 -1      1083 2.02290E+01 5.66215E-01-1.26465E-04 6.24519E-02 3.80968E-14-7.96521E-14
 -1      1084 1.97250E+01 5.53501E-01-6.75667E-05-3.24835E-01 3.68691E-14-4.05224E-14
 -1      1085 1.77701E+01 5.70409E-01 3.09207E-04-1.50547E+00-1.17996E-13-4.27224E-13
 -1      1086 1.81440E+01 7.58640E-01-6.53876E-05-1.06975E+00-1.52021E-14-3.91272E-13
 -1      1087 1.84835E+01 8.32023E-01-5.93585E-05-7.60735E-01-1.42119E-13-1.39516E-13
 -1      1088 1.87815E+01 8.29872E-01-3.91895E-05-5.41094E-01-2.70297E-13-2.45839E-13
 -1      1089 1.90370E+01 7.80070E-01-2.74737E-05-3.84822E-01-6.47770E-16-5.60568E-13
 -1      1090 1.92520E+01 7.02869E-01-2.63197E-05-2.73570E-01 1.21862E-14-3.74887E-13
 -1      1091 1.94299E+01 6.12706E-01-2.34674E-05-1.94350E-01 2.24748E-13 1.27075E-13
 -1      1092 1.95724E+01 5.21802E-01 2.72528E-05-1.36616E-01 2.88643E-13 1.98046E-13
 -1      1093 2.03125E+01 7.66308E-01-4.30611E-04-2.93689E-02 5.62990E-14-9.70148E-14
 -1      1094 1.93541E+01 6.90743E-01-4.81900E-06 9.89993E-02 1.11516E-13 5.87445E-14
 -1      1095 1.88415E+01 9.44482E-01-5.99310E-05 6.91971E-02 7.92541E-14 1.95062E-13
 -1      1096 1.95281E+01 5.73370E-01 9.07301E-05 9.55392E-02 2.46469E-13-2.07180E-13
 -1      1097 1.99708E+01 4.77075E-01 1.26347E-04 1.33095E-01 6.27702E-14-9.27312E-14
 -1      1098 2.01179E+01 4.90536E-01 1.63067E-04 9.65117E-02 6.16968E-14-9.12472E-14
 -1      1099 1.65371E+01 1.26218E+00 1.56631E-03-4.38841E-01-2.33887E-13 7.82047E-14
 -1      1100 1.80105E+01 1.08289E+00-7.73630E-05 1.14305E-01 2.73727E-14-2.46597E-14
 -1      1101 2.02407E+01 5.88944E-01 1.79612E-05-6.72277E-02 2.83236E-14-1.21627E-13
 -1      1102 1.97038E+01 4.33455E-01 1.15904E-04 9.30119E-02 2.86587E-13-3.13307E-13
 -1      1103 1.85341E+01 9.74343E-01-4.52219E-04-2.71072E-03 1.13828E-13-8.07638E-15
 -1      1104 1.73722E+01 1.23988E+00-1.16842E-04-2.18468E-01 1.33028E-13-2.30951E-13
 -1      1105 1.84717E+01 1.06608E+00-1.05558E-04 1.80937E-02-1.10039E-13 7.64241E-16
 -1      1106 2.02946E+01 7.20395E-01 1.32073E-04-3.56643E-02 5.50462E-14-1.76095E-13
 -1      1107 1.89528E+01 8.49759E-01-6.31212E-04-7.25872E-02 6.35129E-14-3.04415E-14
 -1      1108 1.97990E+01 5.35792E-01-9.08166E-05-1.27432E-01 1.30574E-14-1.69047E-13
 -1      1109 1.94857E+01 6.62550E-01 2.71340E-04-3.58684E-01 4.15920E-14-5.22539E-14
 -1      1110 1.67935E+01 8.50879E-01 6.65018E-04-1.36500E+00-2.54130E-13-2.43856E-13
 -1      1111 1.79948E+01 1.16946E+00-1.75481E-04-7.25194E-02 1.73962E-14-2.51733E-13
 -1      1112 1.96234E+01 5.00696E-01-4.04469E-05 9.59288E-02 4.85042E-13-3.36529E-13
 -1      1113 1.99867E+01 4.93275E-01-2.87638E-05-1.16960E-01 2.62078E-14-1.28306E-13
 -1      1114 2.01341E+01 5.06003E-01-3.09763E-05-9.68054E-02-6.93364E-17-9.57973E-14
 -1      1115 2.02869E+01 6.91952E-01 7.07643E-04 3.51545E-02 2.88891E-14-8.25084E-14
 -1      1116 2.02896E+01 7.17231E-01 6.90164E-05-3.65086E-03 6.15906E-14-9.21771E-14
 -1      1117 1.93849E+01 6.72801E-01-4.49604E-04 5.45315E-02-3.96734E-14-8.00197E-14
 -1      1118 1.74638E+01 9.85988E-01 3.44435E-04-9.10106E-01 9.45115E-14-2.23687E-13
 -1      1119 1.79997E+01 1.01830E+00 1.93635E-04-6.00025E-01 8.58024E-14-2.22343E-13
 -1      1120 1.84314E+01 9.85291E-01 1.50254E-04-3.88743E-01-1.80446E-13-1.83818E-13
 -1      1121 1.87804E+01 9.11146E-01 1.11603E-04-2.46350E-01-1.47996E-13-4.18149E-14
 -1      1122 1.90623E+01 8.13794E-01 7.72692E-05-1.51856E-01-7.56981E-14 1.38011E-13
 -1      1123 1.92888E+01 7.06653E-01 6.59766E-05-9.04914E-02 2.55594E-13-3.03687E-14
 -1      1124 1.94674E+01 5.99602E-01-1.21427E-04-5.19523E-02 3.12047E-13-3.52136E-14
 -1      1125 1.96049E+01 6.01528E-01 2.62601E-04-5.42374E-02-1.15475E-14-1.21323E-13
 -1      1126 1.95493E+01 5.49745E-01 1.53437E-04 2.88311E-02 3.35810E-13-1.89785E-13
 -1      1127 2.78961E+01 9.06422E+00 2.31777E+00-6.68130E+00-2.98095E-14 4.30073E-13
 -1      1128 2.05223E+01 6.21966E+00 2.09839E-01-3.89236E+00-1.27398E-14-1.32228E-13
 -1      1129 1.94289E+01 5.85147E+00 7.59425E-02-2.87555E+00-7.33441E-15-3.34378E-13
 -1      1130 1.90332E+01 5.72826E+00 6.09980E-02-2.22148E+00-3.02536E-15-4.13597E-13
 -1      1131 1.88550E+01 5.67394E+00 5.81469E-02-1.68737E+00-1.58033E-15-4.35620E-13
 -1      1132 1.87650E+01 5.64618E+00 5.55455E-02-1.22153E+00 1.03736E-15-4.27593E-13
 -1      1133 1.87182E+01 5.63151E+00 5.34621E-02-7.94885E-01 1.92121E-15-4.04303E-13
 -1      1134 1.86952E+01 5.62417E+00 5.20169E-02-3.87905E-01 2.30501E-15-3.75260E-13
 -1      1135 1.86888E+01 5.62210E+00 5.15558E-02 8.17012E-03 2.37972E-15-3.38020E-13
 -1      1136 1.86967E+01 5.62466E+00 5.21526E-02 4.04696E-01 4.81191E-15-3.05096E-13
 -1      1137 1.87212E+01 5.63249E+00 5.37606E-02 8.13147E-01 5.19593E-15-2.65592E-13
 -1      1138 1.87699E+01 5.64787E+00 5.62841E-02 1.24263E+00 6.17995E-15-2.05188E-13
 -1      1139 1.88608E+01 5.67589E+00 5.88362E-02 1.71323E+00 7.94156E-15-1.23269E-13
 -1      1140 1.90392E+01 5.73009E+00 6.10967E-02 2.25475E+00 8.81240E-15-7.37604E-15
 -1      1141 1.94257E+01 5.84873E+00 7.00572E-02 2.91642E+00 1.09218E-14 1.89921E-13
 -1      1142 2.04281E+01 6.17452E+00 1.53634E-01 3.86757E+00 8.49321E-15 5.19196E-13
 -1      1143 2.51556E+01 7.97420E+00 1.42497E+00 5.83231E+00 8.43769E-15 1.08055E-12
 -1      1144 2.87290E+01 3.60433E+00 1.26430E+00-4.20546E+00-1.07053E-13 7.69829E-13
 -1      1145 2.01719E+01-1.77674E-01-6.15747E-01-1.09391E-01-3.53537E-14 5.22776E-13
 -1      1146 1.87898E+01-9.66106E-02-2.36209E-01 6.23157E-02-1.27485E-14 2.38698E-13
 -1      1147 1.84677E+01-4.86246E-02-6.00292E-02 4.02286E-02-9.94343E-15 2.17881E-14
 -1      1148 1.84283E+01-2.55607E-02-1.61559E-02 2.64872E-02-5.68838E-15-1.07886E-13
 -1      1149 1.85331E+01-1.44365E-02-6.49869E-03 1.88087E-02-1.60755E-14-2.04278E-13
 -1      1150 1.87140E+01-8.50067E-03-3.63693E-03 1.40025E-02-4.43363E-15-2.45980E-13
 -1      1151 1.89362E+01-5.32036E-03-2.34946E-03 1.08188E-02-1.00290E-14-3.10878E-13
 -1      1152 1.91823E+01-3.74947E-03-1.89909E-03 8.67602E-03-1.77592E-16-3.51226E-13
 -1      1153 1.94458E+01-3.15599E-03-2.11111E-03 7.31369E-03 6.45800E-15-5.09803E-13
 -1      1154 1.97265E+01-3.12990E-03-2.77435E-03 6.61794E-03 1.85579E-14-5.54772E-13
 -1      1155 2.00281E+01-3.34180E-03-3.60983E-03 6.53527E-03 1.87138E-14-4.72304E-13
 -1      1156 2.03558E+01-3.46546E-03-4.26134E-03 7.02002E-03-1.64090E-14-6.23964E-13
 -1      1157 2.07134E+01-3.12984E-03-4.25991E-03 7.98624E-03-6.39012E-15-6.40503E-13
 -1      1158 2.11004E+01-1.89426E-03-2.98650E-03 9.24650E-03-4.84857E-15-5.60961E-13
 -1      1159 2.15073E+01 7.40207E-04 3.27481E-04 1.04289E-02-3.69646E-14-5.09376E-13
 -1      1160 2.19105E+01 5.24871E-03 6.49572E-03 1.08772E-02-2.47832E-15-4.89794E-13
 -1      1161 2.22671E+01 1.18800E-02 1.60663E-02 9.57120E-03-3.05602E-14-5.12319E-13
 -1      1162 2.25109E+01 2.02818E-02 2.86970E-02 5.16087E-03-2.65801E-14-7.43892E-13
 -1      1163 2.25553E+01 2.89745E-02 4.22355E-02-3.71203E-03 2.70678E-14-8.13840E-13
 -1      1164 2.23073E+01 3.48980E-02 5.18907E-02-1.76058E-02-1.07405E-14-8.30166E-13
 -1      1165 2.17009E+01 3.35956E-02 5.05308E-02-3.49995E-02 5.09141E-16-4.84952E-13
 -1      1166 2.07452E+01 2.08761E-02 3.14496E-02-5.11560E-02 2.08564E-14-2.33778E-13
 -1      1167 1.95719E+01-3.87464E-03-6.22933E-03-5.85507E-02-5.59697E-14-4.42632E-13
 -1      1168 1.84415E+01-3.43521E-02-5.26011E-02-5.01890E-02-3.31788E-14-8.03621E-13
 -1      1169 1.76758E+01-5.80519E-02-8.85077E-02-2.48773E-02 1.83889E-14-8.90107E-13
 -1      1170 1.75243E+01-6.30401E-02-9.60333E-02 9.78997E-03 2.46790E-14-7.37179E-13
 -1      1171 1.80395E+01-4.66298E-02-7.11816E-02 4.06737E-02-2.84430E-14-7.73256E-13
 -1      1172 1.90485E+01-1.75238E-02-2.69441E-02 5.69323E-02-3.29667E-14-7.31595E-13
 -1      1173 2.02442E+01 1.09208E-02 1.64046E-02 5.59205E-02 5.63297E-15-6.41848E-13
 -1      1174 2.13262E+01 2.91550E-02 4.40758E-02 4.26886E-02-5.00286E-14-5.48867E-13
 -1      1175 2.21036E+01 3.50308E-02 5.25446E-02 2.51063E-02 6.44376E-14-4.74953E-13
 -1      1176 2.25181E+01 3.15961E-02 4.66765E-02 9.36761E-03-3.09683E-14-6.34638E-13
 -1      1177 2.26100E+01 2.35082E-02 3.39144E-02-1.65817E-03 7.72277E-15-8.94568E-13
 -1      1178 2.24670E+01 1.45353E-02 2.02404E-02-7.76500E-03 2.80010E-14-9.32520E-13
 -1      1179 2.21828E+01 6.82884E-03 8.91480E-03-1.00732E-02 6.08207E-14-7.93530E-13
 -1      1180 2.18354E+01 1.18148E-03 9.67481E-04-9.98327E-03-1.20460E-14-7.32287E-13
 -1      1181 2.14800E+01-2.43155E-03-3.84165E-03-8.65819E-03-6.04971E-14-3.10018E-13
 -1      1182 2.11504E+01-4.39683E-03-6.24525E-03-6.88476E-03-6.58382E-16-3.31588E-13
 -1      1183 2.08637E+01-5.18392E-03-7.02478E-03-5.11826E-03 1.55985E-14-6.90995E-13
 -1      1184 2.06260E+01-5.21202E-03-6.82479E-03-3.57974E-03 2.39014E-14-7.99705E-13
 -1      1185 2.04361E+01-4.80566E-03-6.11197E-03-2.34586E-03-6.15688E-14-1.06867E-12
 -1      1186 2.02893E+01-4.19450E-03-5.19715E-03-1.41375E-03-2.21509E-14-1.27691E-12
 -1      1187 2.01794E+01-3.53024E-03-4.27588E-03-7.41207E-04-7.82899E-14-8.48851E-13
 -1      1188 2.01000E+01-2.90621E-03-3.46749E-03-2.67752E-04 2.77282E-15-4.90175E-13
 -1      1189 2.00454E+01-2.37264E-03-2.84104E-03 7.91635E-05 7.13657E-15-2.54648E-13
 -1      1190 2.00110E+01-1.94150E-03-2.40075E-03 3.88835E-04-2.13040E-14-1.82569E-13
 -1      1191 1.99936E+01-1.54250E-03-1.97523E-03 7.70133E-04 3.24565E-14 1.72243E-13
 -1      1192 1.99913E+01-1.24572E-03-8.13385E-04 1.41568E-03-5.91275E-14 2.54668E-14
 -1      1193 1.99975E+01 8.77672E-04 2.10591E-03 7.81104E-04 4.19234E-14 1.28683E-13
 -1      1194 2.77107E+01 5.24247E-01 3.73364E-01 1.96221E+00-1.61260E-14 1.50302E-12
 -1      1195 2.00281E+01-6.63400E-02-5.73062E-01 1.29302E-01-1.11022E-15 1.35744E-12
 -1      1196 1.88618E+01-4.08958E-02-1.93118E-01 1.96737E-02 4.24313E-15 1.15114E-12
 -1      1197 1.84931E+01-2.19619E-02-5.09440E-02 1.99850E-03-1.11456E-16 1.07088E-12
 -1      1198 1.84366E+01-1.32715E-02-1.42614E-02-3.26587E-03 1.74557E-15 1.01144E-12
 -1      1199 1.85339E+01-8.68516E-03-6.05921E-03-4.42777E-03 2.48261E-15 9.05779E-13
 -1      1200 1.87109E+01-6.16023E-03-4.02668E-03-4.28328E-03-1.87307E-15 8.42274E-13
 -1      1201 1.89314E+01-4.91333E-03-3.36139E-03-3.62035E-03 3.48560E-15 7.86055E-13
 -1      1202 1.91792E+01-4.58704E-03-3.46378E-03-2.68908E-03-4.11872E-15 7.76582E-13
 -1      1203 1.94496E+01-5.00502E-03-4.36624E-03-1.61132E-03 4.59355E-15 7.11135E-13
 -1      1204 1.97471E+01-6.07925E-03-6.11351E-03-4.80740E-04 1.29182E-14 6.08328E-13
 -1      1205 2.00829E+01-7.76002E-03-8.73660E-03 5.99172E-04 2.78986E-14 4.67532E-13
 -1      1206 2.04746E+01-9.98668E-03-1.22576E-02 1.47815E-03-1.66950E-14 5.58326E-13
 -1      1207 2.09453E+01-1.26104E-02-1.66289E-02 1.90487E-03 3.10765E-15 6.17700E-13
 -1      1208 2.15228E+01-1.52568E-02-2.15667E-02 1.44557E-03 1.94861E-14 5.13249E-13
 -1      1209 2.22372E+01-1.70908E-02-2.62040E-02-6.23209E-04-2.55672E-14 4.59317E-13
 -1      1210 2.31149E+01-1.64626E-02-2.84562E-02-5.40739E-03-2.15539E-14 6.67001E-13
 -1      1211 2.41651E+01-1.05212E-02-2.40749E-02-1.43209E-02 2.39767E-14 6.21621E-13
 -1      1212 2.53547E+01 4.76923E-03-5.82727E-03-2.84430E-02-7.99168E-15 6.00069E-13
 -1      1213 2.65648E+01 3.31012E-02 3.53965E-02-4.65389E-02 1.49262E-14 5.40165E-13
 -1      1214 2.75344E+01 7.25478E-02 1.03621E-01-6.12160E-02 3.51334E-14 5.58147E-13
 -1      1215 2.78278E+01 1.07382E-01 1.81910E-01-5.51850E-02-2.06033E-14 8.76826E-13
 -1      1216 2.69228E+01 1.03610E-01 2.16736E-01-5.95461E-03-7.77330E-15 8.78839E-13
 -1      1217 2.45502E+01 3.16788E-02 1.34148E-01 8.96759E-02 1.23443E-14 6.76265E-13
 -1      1218 2.12245E+01-8.43060E-02-8.04420E-02 1.84104E-01-4.30472E-15 8.38746E-13
 -1      1219 1.84379E+01-1.56622E-01-3.04913E-01 1.92461E-01-1.18846E-14 1.22036E-12
 -1      1220 1.78391E+01-1.21725E-01-3.55926E-01 8.18940E-02-3.92915E-14 1.30827E-12
 -1      1221 1.98185E+01-2.73173E-02-1.95512E-01-7.20586E-02 4.41591E-14 7.70800E-13
 -1      1222 2.31229E+01 4.28891E-02 2.42817E-02-1.62364E-01-1.05764E-14 3.37896E-13
 -1      1223 2.60350E+01 6.36914E-02 1.52920E-01-1.57625E-01 5.46507E-14-7.97695E-14
 -1      1224 2.75941E+01 5.20796E-02 1.64504E-01-9.93883E-02-3.66460E-15 1.43219E-14
 -1      1225 2.77854E+01 3.14148E-02 1.13106E-01-3.79733E-02 3.03056E-15 5.31866E-15
 -1      1226 2.70733E+01 1.37807E-02 5.40850E-02 2.95331E-03-4.58826E-14 2.63154E-13
 -1      1227 2.59517E+01 2.19402E-03 1.24651E-02 2.25086E-02-3.46111E-14 2.84883E-13
 -1      1228 2.47588E+01-4.09475E-03-9.55363E-03 2.79946E-02-3.01465E-14 2.45165E-13
 -1      1229 2.36718E+01-6.82130E-03-1.80444E-02 2.63619E-02-4.32336E-15 5.01404E-14
 -1      1230 2.27584E+01-7.47709E-03-1.92766E-02 2.20487E-02 3.95231E-14-1.82132E-13
 -1      1231 2.20272E+01-7.07490E-03-1.73505E-02 1.73125E-02 1.05002E-13-2.44927E-13
 -1      1232 2.14596E+01-6.21791E-03-1.44400E-02 1.30924E-02-3.78560E-15 2.91208E-14
 -1      1233 2.10287E+01-5.23403E-03-1.15287E-02 9.66166E-03-5.02046E-14 1.36804E-13
 -1      1234 2.07073E+01-4.28664E-03-8.98542E-03 7.00493E-03 8.21397E-14-1.51622E-13
 -1      1235 2.04711E+01-3.44838E-03-6.90036E-03 5.00675E-03-1.39444E-14 1.75695E-13
 -1      1236 2.03004E+01-2.74599E-03-5.25456E-03 3.53452E-03-1.56637E-14 3.74089E-14
 -1      1237 2.01792E+01-2.18563E-03-3.99973E-03 2.46910E-03-3.25302E-14 1.76968E-14
 -1      1238 2.00955E+01-1.76319E-03-3.09084E-03 1.70934E-03 2.65487E-14-3.64652E-14
 -1      1239 2.00402E+01-1.46213E-03-2.48895E-03 1.16410E-03 2.60438E-14-4.53213E-13
 -1      1240 2.00067E+01-1.25275E-03-2.13230E-03 7.35700E-04 5.66730E-14-3.91889E-13
 -1      1241 1.99910E+01-1.00525E-03-1.76644E-03 2.50059E-04-8.57013E-15-2.61557E-13
 -1      1242 1.99902E+01-2.17155E-04-4.92920E-04-5.83341E-04 9.61395E-14-4.09595E-13
 -1      1243 1.99977E+01 7.60084E-04 2.26358E-03-7.61501E-04-1.73484E-14-3.94948E-13
 -1      1244 2.00005E+01-2.30929E-03 2.04686E-03-8.25940E-04-4.20481E-13-2.28303E-14
 -1      1245 1.99990E+01-9.25399E-03-9.11962E-04-1.29544E-03-1.93227E-13 1.47137E-14
 -1      1246 1.99986E+01-6.25738E-03-1.86732E-03-3.13483E-04 6.35489E-13-7.81466E-14
 -1      1247 1.99990E+01 1.04132E-02-1.45499E-03 4.17049E-04 6.46487E-13 6.30150E-15
 -1      1248 1.99996E+01 3.66582E-02-5.36487E-04 8.10405E-04-8.44499E-14-2.59752E-15
 -1      1249 2.00002E+01 6.59610E-02 4.20269E-04 8.95008E-04-1.11530E-12-1.13494E-13
 -1      1250 2.00008E+01 9.22684E-02 1.20549E-03 7.50378E-04-2.04455E-13 1.24517E-13
 -1      1251 2.00011E+01 1.10568E-01 1.71810E-03 4.28149E-04 1.04198E-13-1.54162E-14
 -1      1252 2.00013E+01 1.17181E-01 1.88621E-03 2.25295E-05-6.96162E-13 6.71513E-14
 -1      1253 2.00011E+01 1.10986E-01 1.69915E-03-3.80588E-04 2.27308E-13 1.67034E-13
 -1      1254 2.00007E+01 9.32404E-02 1.18598E-03-6.97024E-04 4.37712E-13-5.11628E-14
 -1      1255 2.00002E+01 6.76091E-02 4.30207E-04-8.54528E-04-1.47461E-12-2.42469E-14
 -1      1256 1.99996E+01 3.89542E-02-4.74492E-04-7.81548E-04-1.52222E-12 2.75456E-14
 -1      1257 1.99990E+01 1.29762E-02-1.35451E-03-4.39894E-04-5.66482E-13 7.52233E-14
 -1      1258 1.99988E+01-4.37555E-03-1.80918E-03 2.59810E-04-1.14849E-13 8.11875E-14
 -1      1259 1.99988E+01-7.43540E-03-6.61474E-04 1.89357E-03-1.97100E-13-7.78372E-14
 -1      1260 2.00005E+01-2.57132E-03 1.87620E-03 9.67324E-04-1.03981E-13 1.22170E-14
 -1      1261-1.30973E+00-2.42440E+01-3.79712E+00-2.37825E+00 7.17759E-13 8.94979E-14
 -1      1262-1.99897E+00-1.55536E+01-3.20887E+00-4.35811E+00 9.86766E-13 3.50886E-13
 -1      1263 1.16602E-01-2.83366E+00-2.01180E+00-4.43324E-01 7.82707E-13 5.30020E-13
 -1      1264 9.84005E+00 7.48147E+00-3.61343E-01 8.47275E+00 9.90985E-13 1.06248E-12
 -1      1265 2.82648E+01 1.07438E+01 1.48811E+00 1.67131E+01 8.40661E-13 1.30873E-12
 -1      1266 5.08233E+01 7.25784E+00 3.32414E+00 1.72674E+01 3.76477E-13 8.68194E-13
 -1      1267 6.67870E+01 3.02501E+00 4.47694E+00 7.75521E+00 3.95378E-14-1.56986E-13
 -1      1268 6.84561E+01 2.47775E+00 4.64260E+00-5.78651E+00 7.15088E-14-4.39926E-13
 -1      1269 5.46706E+01 6.25737E+00 3.58074E+00-1.62559E+01 5.75262E-13-1.34648E-12
 -1      1270 3.21652E+01 1.04776E+01 1.82392E+00-1.74971E+01 1.16362E-12-1.96998E-12
 -1      1271 1.24936E+01 8.75434E+00-4.56882E-02-1.02673E+01 1.32494E-12-1.46416E-12
 -1      1272 1.46295E+00-2.68029E-01-1.73108E+00-1.30570E+00 1.07803E-12-8.33000E-13
 -1      1273-1.93683E+00-1.30911E+01-2.97918E+00 3.95446E+00 3.10640E-13-2.14884E-13
 -1      1274-1.39060E+00-2.32558E+01-3.71264E+00 3.31437E+00-2.77445E-13-3.77198E-14
 -1      1275-9.06528E-01-2.50575E+01-3.78451E+00-1.05390E+00-7.65221E-13-6.88338E-14
 -1      1276-1.64146E+00-1.75146E+01-3.20229E+00-3.83132E+00-1.45473E-12-4.97463E-13
 -1      1277-5.80131E-01-5.06846E+00-2.13453E+00-1.38483E+00-1.68132E-12-8.64642E-13
 -1      1278 6.74782E+00 6.33153E+00-5.11545E-01 6.46046E+00-1.41398E-12-1.19038E-12
 -1      1279 2.24942E+01 1.11324E+01 1.17429E+00 1.49955E+01-7.13651E-13-8.62421E-13
 -1      1280 4.29989E+01 8.95471E+00 2.77152E+00 1.80388E+01-2.14162E-13-5.34239E-13
 -1      1281 6.06303E+01 3.77101E+00 3.79746E+00 1.10704E+01 3.69010E-14 5.56222E-14
 -1      1282 6.64087E+01 1.57572E+00 4.10163E+00-2.30921E+00-6.51354E-14 5.99631E-13
 -1      1283 5.74899E+01 4.68710E+00 3.55647E+00-1.37782E+01-2.33757E-13 6.07403E-13
 -1      1284 3.97544E+01 9.58307E+00 2.47175E+00-1.81733E+01-5.12923E-13 9.64118E-13
 -1      1285 2.09842E+01 1.12385E+01 1.04754E+00-1.47403E+01-8.55760E-13 9.20597E-13
 -1      1286 7.19553E+00 6.82314E+00-4.72806E-01-6.99450E+00-1.18927E-12 9.81881E-13
 -1      1287-5.21800E-03-3.15376E+00-1.86665E+00 5.27513E-01-9.57900E-13 7.18092E-13
 -1      1288-1.67937E+00-1.52888E+01-3.02469E+00 3.91637E+00-6.49925E-13 1.98952E-13
 -1      1289-1.20391E+00-2.38747E+01-3.72680E+00 2.00072E+00 1.29674E-13 1.99001E-13
 -1      1290 2.22161E+01 1.83582E+00-7.24229E-01-2.78301E+00-4.28824E-14 2.79499E-13
 -1      1291 2.03414E+01 4.68495E+00-4.82084E-02-3.29393E+00-8.24618E-14-2.29573E-13
 -1      1292 2.08380E+01 4.80205E+00-1.12953E-01-4.14738E+00-1.14381E-13-1.24518E-13
 -1      1293 1.95303E+01 4.99246E+00-1.93872E-02-2.63983E+00-6.50452E-14-3.69253E-13
 -1      1294 1.98210E+01 5.08661E+00 4.50310E-04-3.03119E+00-7.97140E-14-3.13014E-13
 -1      1295 2.05130E+01 3.94873E+00-2.57738E-02-3.05886E+00-1.36811E-13-2.02977E-13
 -1      1296 1.91947E+01 5.08657E+00-3.27240E-03-2.05512E+00-3.44620E-14-4.24209E-13
 -1      1297 1.93383E+01 5.14037E+00 1.09067E-02-2.34870E+00-4.83572E-14-4.00423E-13
 -1      1298 1.97573E+01 4.36731E+00-2.36192E-02-2.47337E+00-9.43013E-14-3.13340E-13
 -1      1299 1.90247E+01 5.13684E+00 3.44100E-03-1.54933E+00-1.51702E-14-4.39461E-13
 -1      1300 1.91004E+01 5.16581E+00 1.31167E-02-1.79881E+00-1.98556E-14-4.36842E-13
 -1      1301 1.94042E+01 4.56022E+00-1.92519E-02-1.91397E+00-4.77656E-14-3.60816E-13
 -1      1302 1.89338E+01 5.16924E+00 6.42714E-03-1.10401E+00 4.25224E-15-4.17590E-13
 -1      1303 1.89752E+01 5.18531E+00 1.29643E-02-1.32412E+00-3.89532E-15-4.27264E-13
 -1      1304 1.92212E+01 4.67131E+00-1.57883E-02-1.42857E+00-2.39305E-14-3.61104E-13
 -1      1305 1.88835E+01 5.19109E+00 7.99186E-03-6.84666E-01 2.33700E-14-3.95661E-13
 -1      1306 1.89061E+01 5.19986E+00 1.20668E-02-8.92762E-01 1.86513E-14-4.10557E-13
 -1      1307 1.91200E+01 4.74065E+00-1.37295E-02-9.91133E-01 1.58387E-14-3.55615E-13
 -1      1308 1.88600E+01 5.20431E+00 9.08956E-03-2.85151E-01 4.06986E-14-3.66112E-13
 -1      1309 1.88698E+01 5.20811E+00 1.10103E-02-4.84616E-01 3.75984E-14-3.81627E-13
 -1      1310 1.90646E+01 4.78251E+00-1.26419E-02-5.80275E-01 4.61806E-14-3.20990E-13
 -1      1311 1.88565E+01 5.20973E+00 1.00784E-02 1.06509E-01 6.19191E-14-3.29270E-13
 -1      1312 1.88561E+01 5.20956E+00 9.99918E-03-9.03342E-02 5.18913E-14-3.47795E-13
 -1      1313 1.90405E+01 4.80206E+00-1.21829E-02-1.86323E-01 7.65453E-14-2.99170E-13
 -1      1314 1.88721E+01 5.20784E+00 1.11169E-02 5.01435E-01 7.75708E-14-2.95073E-13
 -1      1315 1.88613E+01 5.20370E+00 9.02542E-03 3.01511E-01 7.23990E-14-3.16077E-13
 -1      1316 1.90416E+01 4.80143E+00-1.21990E-02 2.02443E-01 1.09930E-13-2.71363E-13
 -1      1317 1.89104E+01 5.19881E+00 1.21766E-02 9.11192E-01 9.13158E-14-2.60333E-13
 -1      1318 1.88868E+01 5.18984E+00 7.93886E-03 7.02060E-01 8.92862E-14-2.80621E-13
 -1      1319 1.90680E+01 4.78046E+00-1.26920E-02 5.97148E-01 1.38145E-13-2.35523E-13
 -1      1320 1.89806E+01 5.18356E+00 1.31109E-02 1.34150E+00 1.00716E-13-1.92558E-13
 -1      1321 1.89384E+01 5.16710E+00 6.31440E-03 1.11984E+00 9.20822E-14-2.33093E-13
 -1      1322 1.91255E+01 4.73712E+00-1.37246E-02 1.00596E+00 1.49121E-13-1.93869E-13
 -1      1323 1.91090E+01 5.16186E+00 1.31528E-02 1.82501E+00 1.20548E-13-1.02515E-13
 -1      1324 1.90320E+01 5.13226E+00 3.12530E-03 1.57260E+00 1.12003E-13-1.54057E-13
 -1      1325 1.92294E+01 4.66470E+00-1.58899E-02 1.44623E+00 1.71404E-13-1.25479E-13
 -1      1326 1.93492E+01 5.13445E+00 1.05738E-02 2.38259E+00 1.33182E-13 1.64938E-14
 -1      1327 1.92039E+01 5.07879E+00-4.23036E-03 2.08499E+00 1.28376E-13-5.58165E-14
 -1      1328 1.94174E+01 4.54746E+00-1.97379E-02 1.94085E+00 2.00536E-13-3.87884E-14
 -1      1329 1.98465E+01 5.09551E+00 6.45362E-03 3.07012E+00 1.27273E-13 2.31343E-13
 -1      1330 1.95425E+01 4.98292E+00-2.01873E-02 2.68217E+00 1.15408E-13 1.05686E-13
 -1      1331 1.97773E+01 4.34648E+00-2.43153E-02 2.51124E+00 1.98060E-13 9.99895E-14
 -1      1332 2.10721E+01 4.89826E+00 8.43390E-03 4.04103E+00 9.82270E-14 5.70599E-13
 -1      1333 2.03154E+01 4.72846E+00-4.74484E-02 3.40363E+00 9.77413E-14 3.68816E-13
 -1      1334 2.05508E+01 3.91187E+00-2.21755E-02 3.16307E+00 1.78829E-13 3.20105E-13
 -1      1335 2.71334E+01 3.19682E+00 9.24822E-01 4.56955E+00 3.38063E-14 1.10145E-12
 -1      1336 2.19779E+01 3.51623E+00-1.81273E-01 3.87376E+00 4.24105E-14 7.43294E-13
 -1      1337 2.20768E+01 2.55739E+00-3.25379E-02 3.44339E+00 1.48012E-13 6.20837E-13
 -1      1338 2.13738E+01 3.59103E-01-7.62241E-01 1.17924E+00 7.01522E-14 1.09618E-12
 -1      1339 2.19522E+01 1.31105E-01-4.00288E-01-1.27957E+00-9.91707E-14 3.20105E-13
 -1      1340 2.06361E+01 3.06237E-01-1.64364E-01-8.00818E-01-8.79227E-14 2.06613E-13
 -1      1341 2.00435E+01 1.53566E-01-7.32814E-02-3.97189E-01-6.24015E-14 1.68787E-13
 -1      1342 1.95797E+01 9.15177E-02-1.46927E-02-3.24988E-01-5.84741E-14 6.78416E-14
 -1      1343 2.09422E+01 3.68860E-01-1.04073E-01-1.26389E+00-1.49915E-13 3.80806E-14
 -1      1344 1.92289E+01 6.50080E-02 3.19487E-03-1.29441E-01-5.46230E-14 4.54844E-14
 -1      1345 1.90818E+01 4.20237E-02 1.34055E-02-1.11332E-01-5.47461E-14-3.29702E-14
 -1      1346 1.99031E+01 1.34382E-01-3.52439E-02-4.92900E-01-1.07733E-13-8.27116E-15
 -1      1347 1.89302E+01 3.24932E-02 1.33675E-02-1.98470E-02-3.39112E-14-7.34690E-14
 -1      1348 1.89207E+01 2.06348E-02 1.12349E-02-9.92173E-03-4.26438E-14-1.27924E-13
 -1      1349 1.94409E+01 5.66988E-02-8.78849E-03-1.55444E-01-8.91526E-14-5.14883E-14
 -1      1350 1.88768E+01 1.75233E-02 8.89963E-03 3.68645E-02-1.82356E-14-1.44777E-13
 -1      1351 1.89337E+01 1.09043E-02 6.64015E-03 4.23339E-02-1.32529E-14-1.70121E-13
 -1      1352 1.92525E+01 2.65231E-02-3.94403E-03 9.57593E-03-5.99720E-14-1.20732E-13
 -1      1353 1.89508E+01 1.00055E-02 4.80445E-03 6.80087E-02-1.41810E-14-1.63555E-13
 -1      1354 1.90424E+01 5.99692E-03 3.88741E-03 7.10755E-02-7.07117E-15-1.95810E-13
 -1      1355 1.92244E+01 1.33194E-02-2.83106E-03 9.75003E-02-2.91069E-14-1.06607E-13
 -1      1356 1.90956E+01 6.09093E-03 2.57775E-03 8.59743E-02-4.68104E-15-2.06206E-13
 -1      1357 1.92064E+01 3.59747E-03 2.49674E-03 8.78192E-02-1.47431E-14-2.27669E-13
 -1      1358 1.92908E+01 7.06083E-03-2.14049E-03 1.47124E-01-2.93173E-14-1.37230E-13
 -1      1359 1.92825E+01 4.22183E-03 1.45168E-03 9.74457E-02-1.57981E-14-2.12314E-13
 -1      1360 1.94054E+01 2.66785E-03 1.75185E-03 9.88049E-02-2.07247E-14-2.47776E-13
 -1      1361 1.94151E+01 4.33417E-03-1.61370E-03 1.77313E-01-2.82661E-14-1.35768E-13
 -1      1362 1.94975E+01 3.60859E-03 8.22331E-04 1.06399E-01-2.69297E-14-2.55598E-13
 -1      1363 1.96301E+01 2.63157E-03 1.28694E-03 1.07752E-01-3.82301E-14-3.09677E-13
 -1      1364 1.95779E+01 3.65211E-03-1.32103E-03 1.98566E-01-4.39597E-14-1.32710E-13
 -1      1365 1.97350E+01 3.76045E-03 4.03583E-04 1.15259E-01-2.02070E-14-3.16432E-13
 -1      1366 1.98777E+01 3.08098E-03 9.42992E-04 1.16897E-01 2.60642E-14-3.12988E-13
 -1      1367 1.97695E+01 4.18562E-03-1.24819E-03 2.17147E-01-3.70431E-14-1.20898E-13
 -1      1368 1.99947E+01 4.28922E-03 7.01606E-05 1.25319E-01 4.80074E-15-3.86465E-13
 -1      1369 2.01492E+01 3.64686E-03 6.43194E-04 1.27363E-01-6.52092E-14-4.11583E-13
 -1      1370 1.99859E+01 5.32083E-03-1.32143E-03 2.36640E-01-3.29421E-14-1.90546E-13
 -1      1371 2.02783E+01 4.80517E-03-2.35116E-04 1.36826E-01-6.49270E-14-4.38004E-13
 -1      1372 2.04465E+01 3.92263E-03 3.43303E-04 1.39202E-01-4.29518E-14-4.92259E-13
 -1      1373 2.02265E+01 6.45618E-03-1.44236E-03 2.58454E-01-9.66887E-14-3.17006E-13
 -1      1374 2.05876E+01 4.84743E-03-5.31869E-04 1.48845E-01 1.10435E-14-4.66980E-13
 -1      1375 2.07699E+01 3.41269E-03 2.18228E-05 1.51234E-01 1.07856E-14-4.45851E-13
 -1      1376 2.04912E+01 6.87895E-03-1.49287E-03 2.81767E-01-2.02424E-14-3.24030E-13
 -1      1377 2.09214E+01 3.83527E-03-8.02214E-04 1.58995E-01 2.16781E-14-4.39393E-13
 -1      1378 2.11148E+01 1.50674E-03-3.11335E-04 1.60762E-01-2.89466E-15-3.92295E-13
 -1      1379 2.07786E+01 5.67912E-03-1.32665E-03 3.03146E-01 2.92682E-14-2.89168E-13
 -1      1380 2.12722E+01 1.05478E-03-9.77269E-04 1.63119E-01-1.52041E-14-3.46218E-13
 -1      1381 2.14684E+01-2.49118E-03-5.97293E-04 1.63229E-01-2.93061E-14-3.37477E-13
 -1      1382 2.10829E+01 1.71658E-03-7.60930E-04 3.15979E-01 1.36485E-14-2.76370E-13
 -1      1383 2.16227E+01-4.27490E-03-9.22811E-04 1.55073E-01 5.44779E-15-3.22405E-13
 -1      1384 2.18052E+01-9.22089E-03-7.11992E-04 1.52055E-01-1.66074E-14-3.19926E-13
 -1      1385 2.13914E+01-6.28940E-03 4.18782E-04 3.09997E-01 1.42150E-15-1.68167E-13
 -1      1386 2.19415E+01-1.27754E-02-4.42708E-04 1.26972E-01-6.83123E-14-3.27825E-13
 -1      1387 2.20841E+01-1.89263E-02-4.73987E-04 1.19019E-01-8.47881E-14-3.99692E-13
 -1      1388 2.16814E+01-1.94230E-02 2.42109E-03 2.71410E-01-4.06392E-14-2.15867E-13
 -1      1389 2.21812E+01-2.44245E-02 6.62704E-04 7.04946E-02-7.65984E-14-4.35931E-13
 -1      1390 2.22474E+01-3.08482E-02 2.88836E-04 5.58680E-02-1.05723E-14-5.12537E-13
 -1      1391 2.19179E+01-3.78176E-02 5.34983E-03 1.84591E-01-1.22404E-13-2.46362E-13
 -1      1392 2.22788E+01-3.77665E-02 2.44817E-03-2.00092E-02 5.15595E-14-5.21165E-13
 -1      1393 2.22269E+01-4.24135E-02 1.58432E-03-4.20844E-02-3.27897E-14-5.49805E-13
 -1      1394 2.20546E+01-5.94044E-02 9.01180E-03 3.66136E-02-3.55098E-15-2.93681E-13
 -1      1395 2.21659E+01-4.90207E-02 4.58914E-03-1.42169E-01 4.44193E-14-5.97189E-13
 -1      1396 2.19597E+01-4.86645E-02 3.03131E-03-1.70059E-01 5.03035E-14-5.23404E-13
 -1      1397 2.20383E+01-7.84590E-02 1.26466E-02-1.74274E-01-2.44683E-15-3.19836E-13
 -1      1398 2.17883E+01-5.18674E-02 6.17882E-03-2.79010E-01 7.66197E-14-3.83769E-13
 -1      1399 2.14164E+01-4.29410E-02 3.74085E-03-3.07163E-01 1.00461E-13-2.37647E-13
 -1      1400 2.18232E+01-8.51061E-02 1.47016E-02-4.26965E-01 1.61721E-13-2.42905E-13
 -1      1401 2.11391E+01-3.91885E-02 5.89984E-03-3.95106E-01 7.15834E-14-2.59126E-13
 -1      1402 2.06363E+01-1.99496E-02 2.58336E-03-4.13807E-01 1.53202E-14-1.85199E-13
 -1      1403 2.13925E+01-6.78104E-02 1.30016E-02-6.67794E-01 1.01212E-13-1.26242E-13
 -1      1404 2.02928E+01-7.68914E-03 2.78943E-03-4.42224E-01-1.37320E-13-1.92988E-13
 -1      1405 1.97518E+01 1.89526E-02-9.58545E-04-4.40481E-01-1.50898E-13-3.80404E-13
 -1      1406 2.07861E+01-2.02099E-02 5.78987E-03-8.13600E-01-7.32973E-14-1.11555E-13
 -1      1407 1.94193E+01 3.64307E-02-2.57761E-03-3.79490E-01-2.76168E-14-3.73260E-13
 -1      1408 1.89756E+01 6.18713E-02-5.81687E-03-3.51391E-01-3.70207E-14-4.37435E-13
 -1      1409 2.01179E+01 5.00690E-02-6.38277E-03-7.78990E-01-1.18786E-13-7.85153E-14
 -1      1410 1.87497E+01 7.63231E-02-7.76853E-03-2.01880E-01-5.75963E-14-4.95454E-13
 -1      1411 1.85356E+01 8.96328E-02-9.38474E-03-1.52825E-01-3.70710E-15-5.00692E-13
 -1      1412 1.95614E+01 1.18658E-01-1.92631E-02-5.25482E-01-9.92158E-14-5.52666E-14
 -1      1413 1.84911E+01 9.27394E-02-9.84709E-03 4.37373E-02 8.20550E-14-5.40283E-13
 -1      1414 1.85761E+01 8.74439E-02-9.19927E-03 9.72374E-02 2.34483E-14-4.48641E-13
 -1      1415 1.92906E+01 1.54767E-01-2.63678E-02-1.03546E-01 1.98244E-14-6.93712E-14
 -1      1416 1.87288E+01 7.72835E-02-7.73438E-03 2.75028E-01-1.18412E-14-4.96065E-13
 -1      1417 1.90851E+01 5.60380E-02-5.08155E-03 3.13917E-01-3.82003E-14-5.47718E-13
 -1      1418 1.93991E+01 1.40378E-01-2.35168E-02 3.53677E-01-2.33147E-15-2.73706E-13
 -1      1419 1.93832E+01 3.87604E-02-3.07585E-03 4.17124E-01 4.09247E-14-4.79759E-13
 -1      1420 1.99001E+01 1.13865E-02 5.90220E-04 4.30515E-01 5.90092E-14-3.98834E-13
 -1      1421 1.98494E+01 8.28514E-02-1.24589E-02 6.94582E-01 5.19654E-14-2.47798E-13
 -1      1422 2.02520E+01-3.88685E-03 1.29686E-03 4.40080E-01-1.01481E-14-2.99347E-13
 -1      1423 2.07886E+01-2.70609E-02 4.90981E-03 4.29401E-01 4.65014E-14-2.29761E-13
 -1      1424 2.04944E+01 9.74828E-03 7.45387E-04 8.27483E-01 7.07182E-14-1.24935E-14
 -1      1425 2.11054E+01-3.45866E-02 3.52867E-03 3.64011E-01-6.56177E-14-3.26062E-13
 -1      1426 2.15466E+01-4.80296E-02 6.39099E-03 3.38894E-01-1.49221E-14-3.03708E-13
 -1      1427 2.11513E+01-4.97618E-02 1.03853E-02 7.54577E-01-7.13969E-15-1.35465E-13
 -1      1428 2.17715E+01-4.74508E-02 3.52348E-03 2.35970E-01-1.61373E-14-3.47181E-13
 -1      1429 2.20574E+01-5.11488E-02 5.48875E-03 2.07307E-01-6.85944E-14-3.15300E-13
 -1      1430 2.16760E+01-8.01569E-02 1.43787E-02 5.47056E-01-7.93888E-14-1.73071E-13
 -1      1431 2.21719E+01-4.55154E-02 2.27592E-03 1.02012E-01-1.37748E-13-4.26392E-13
 -1      1432 2.22963E+01-4.25669E-02 3.46242E-03 7.73294E-02-1.34291E-13-6.17581E-13
 -1      1433 2.19972E+01-8.25804E-02 1.36818E-02 2.94152E-01-2.21358E-13-3.88340E-13
 -1      1434 2.23106E+01-3.53665E-02 8.34546E-04-8.40684E-03-1.68815E-14-6.26375E-13
 -1      1435 2.23020E+01-2.93290E-02 1.45863E-03-2.58693E-02 3.58238E-14-6.75938E-13
 -1      1436 2.21104E+01-6.73178E-02 1.04622E-02 6.43774E-02-1.00163E-13-3.94900E-13
 -1      1437 2.22410E+01-2.29184E-02-1.90335E-04-8.39884E-02 1.19434E-14-6.09551E-13
 -1      1438 2.21412E+01-1.64009E-02 4.88134E-05-9.41172E-02 4.63774E-14-6.70537E-13
 -1      1439 2.20529E+01-4.55351E-02 6.61432E-03-1.07273E-01 6.91201E-15-3.28878E-13
 -1      1440 2.20328E+01-1.17781E-02-6.61663E-04-1.25959E-01 5.67170E-14-6.73169E-13
 -1      1441 2.18825E+01-6.18070E-03-6.84288E-04-1.30191E-01 7.25227E-14-6.46441E-13
 -1      1442 2.18777E+01-2.48586E-02 3.24157E-03-2.13729E-01 8.96807E-14-5.13495E-13
 -1      1443 2.17512E+01-3.41578E-03-7.05767E-04-1.41495E-01 1.57707E-13-6.79658E-13
 -1      1444 2.15822E+01 7.73471E-04-9.03885E-04-1.41667E-01 4.88202E-14-5.00065E-13
 -1      1445 2.16364E+01-8.82768E-03 7.57298E-04-2.64083E-01 9.85100E-14-5.43392E-13
 -1      1446 2.14464E+01 2.04679E-03-5.17853E-04-1.39082E-01-2.51571E-14-4.33066E-13
 -1      1447 2.12803E+01 4.85835E-03-8.24233E-04-1.36834E-01-9.11059E-14-3.93173E-13
 -1      1448 2.13706E+01 1.87824E-03-8.36335E-04-2.73433E-01 3.72883E-14-5.15179E-13
 -1      1449 2.11521E+01 5.11130E-03-2.56939E-04-1.26137E-01-5.07311E-14-2.40190E-13
 -1      1450 2.10017E+01 6.79713E-03-6.16355E-04-1.22699E-01-1.73088E-14-3.60437E-13
 -1      1451 2.11094E+01 8.01943E-03-1.71214E-03-2.56711E-01-3.96445E-14-4.52702E-13
 -1      1452 2.08878E+01 6.44418E-03-1.73997E-05-1.08197E-01-1.46568E-13-4.27495E-13
 -1      1453 2.07591E+01 7.30536E-03-3.86277E-04-1.04393E-01-1.64114E-13-6.84100E-13
 -1      1454 2.08706E+01 1.08108E-02-2.07877E-03-2.25950E-01-1.60700E-13-4.16067E-13
 -1      1455 2.06624E+01 6.65328E-03 1.60794E-04-8.89570E-02-5.98848E-15-6.93429E-13
 -1      1456 2.05569E+01 6.96002E-03-1.86496E-04-8.52826E-02-7.57612E-14-7.23827E-13
 -1      1457 2.06634E+01 1.14121E-02-2.11866E-03-1.89683E-01-1.44540E-13-5.47389E-13
 -1      1458 2.04777E+01 6.21146E-03 2.71439E-04-7.06239E-02-1.20324E-13-7.97728E-13
 -1      1459 2.03942E+01 6.17673E-03-3.52762E-05-6.73385E-02-1.38617E-13-8.63615E-13
 -1      1460 2.04906E+01 1.07386E-02-1.97018E-03-1.53342E-01-1.62666E-13-5.70948E-13
 -1      1461 2.03314E+01 5.45328E-03 3.24265E-04-5.43321E-02-1.31469E-14-8.37084E-13
 -1      1462 2.02675E+01 5.23236E-03 6.67923E-05-5.15377E-02 6.19794E-14-8.21041E-13
 -1      1463 2.03512E+01 9.43855E-03-1.72967E-03-1.19988E-01-6.49771E-14-4.16988E-13
 -1      1464 2.02191E+01 4.60016E-03 3.32850E-04-4.04969E-02 2.54427E-14-5.45433E-13
 -1      1465 2.01718E+01 4.29993E-03 1.24963E-04-3.81970E-02-9.02067E-15-5.62472E-13
 -1      1466 2.02420E+01 7.93847E-03-1.46037E-03-9.10209E-02 1.36905E-13-3.95752E-13
 -1      1467 2.01356E+01 3.79093E-03 3.06966E-04-2.90812E-02 8.59756E-14-4.87710E-13
 -1      1468 2.01019E+01 3.48057E-03 1.42325E-04-2.72205E-02 1.81409E-13-2.32515E-13
 -1      1469 2.01590E+01 6.50300E-03-1.20229E-03-6.67538E-02 2.03178E-13-1.74909E-13
 -1      1470 2.00760E+01 3.10814E-03 2.47744E-04-1.97809E-02 1.94137E-13-1.78616E-13
 -1      1471 2.00534E+01 2.82679E-03 1.17214E-04-1.82696E-02 1.26180E-13-3.63232E-15
 -1      1472 2.00980E+01 5.28921E-03-9.80088E-04-4.68363E-02 2.57613E-13 7.32600E-14
 -1      1473 2.00357E+01 2.59070E-03 1.49955E-04-1.21564E-02-2.96623E-14-7.31001E-14
 -1      1474 2.00223E+01 2.33837E-03 5.70788E-05-1.08887E-02-3.40713E-14-1.09784E-13
 -1      1475 2.00551E+01 4.38245E-03-8.04268E-04-3.05525E-02 1.46618E-13 7.65014E-14
 -1      1476 2.00113E+01 2.19321E-03 3.06345E-05-5.80832E-03 1.18588E-13-1.09986E-14
 -1      1477 2.00056E+01 1.89547E-03 3.30309E-05-4.69529E-03 8.50852E-14 1.18302E-13
 -1      1478 2.00267E+01 3.75943E-03-6.49329E-04-1.71126E-02 7.94894E-14-5.17595E-14
 -1      1479 1.99996E+01 1.97836E-03 7.60217E-05-6.37859E-04-4.19798E-14 1.58007E-13
 -1      1480 2.00001E+01 1.13521E-03 3.78805E-04 3.55677E-04-7.97668E-14 1.21625E-13
 -1      1481 2.00099E+01 3.12097E-03-4.47498E-04-6.20419E-03 7.25770E-14-3.59213E-14
 -1      1482 1.99982E+01-9.09454E-04 9.45345E-04 1.65202E-03-1.62613E-13 8.06653E-14
 -1      1483 2.00014E+01-2.34060E-04 1.12987E-04 1.23685E-03-1.25127E-13-4.56381E-14
 -1      1484 2.02155E+01 7.54451E-02-1.51759E-01 4.79997E-01 6.13433E-14 9.44703E-13
 -1      1485 2.14794E+01 2.15893E-01-2.29101E-01 7.16572E-01 6.01186E-14 1.04367E-12
 -1      1486 2.16876E+01 8.79967E-01-8.54353E-02 2.05550E+00 1.08497E-13 7.50913E-13
 -1      1487 1.92982E+01 3.25895E-02-2.12374E-02 1.81985E-01 3.66929E-14 8.36484E-13
 -1      1488 1.97134E+01 1.13727E-01-6.24902E-02 2.34027E-01 3.84900E-14 8.89666E-13
 -1      1489 2.02729E+01 1.87536E-01-5.51567E-02 7.78208E-01 8.63407E-14 6.57159E-13
 -1      1490 1.89299E+01 1.55638E-02 5.64634E-03 4.81798E-02 2.29842E-14 7.63889E-13
 -1      1491 1.90620E+01 5.21332E-02 1.10858E-03 7.47619E-02 1.85754E-14 7.90611E-13
 -1      1492 1.95403E+01 7.23358E-02-1.22402E-02 2.89633E-01 5.89216E-14 5.75161E-13
 -1      1493 1.88384E+01 7.87457E-03 6.88130E-03-1.68204E-02 3.55180E-14 6.89292E-13
 -1      1494 1.88438E+01 2.68115E-02 1.12061E-02-1.87454E-03 2.06996E-14 7.20864E-13
 -1      1495 1.92216E+01 3.21369E-02-2.65394E-03 7.04844E-02 4.95281E-14 4.66851E-13
 -1      1496 1.88924E+01 4.32850E-03 4.61750E-03-5.10132E-02 1.42054E-14 6.37579E-13
 -1      1497 1.88347E+01 1.53132E-02 8.66252E-03-4.19951E-02 2.08466E-14 6.70764E-13
 -1      1498 1.91286E+01 1.50610E-02-1.93408E-03-4.06670E-02 4.32094E-14 4.41472E-13
 -1      1499 1.90278E+01 2.64156E-03 3.04461E-03-7.01860E-02 4.39861E-15 6.07629E-13
 -1      1500 1.89365E+01 9.50008E-03 5.55515E-03-6.43505E-02 9.15761E-15 6.19801E-13
 -1      1501 1.91638E+01 7.18980E-03-2.11923E-03-1.01405E-01 1.73221E-14 4.35507E-13
 -1      1502 1.92121E+01 2.00102E-03 2.15306E-03-8.21968E-02 1.98161E-14 5.59074E-13
 -1      1503 1.91012E+01 6.60432E-03 3.67919E-03-7.80004E-02 1.40570E-14 5.73350E-13
 -1      1504 1.92753E+01 3.62420E-03-2.09815E-03-1.37201E-01 3.16502E-14 3.62128E-13
 -1      1505 1.94306E+01 2.07664E-03 1.54273E-03-9.17451E-02 1.26958E-14 5.19416E-13
 -1      1506 1.93059E+01 5.50097E-03 2.65167E-03-8.81447E-02 1.87810E-14 5.52679E-13
 -1      1507 1.94363E+01 2.50080E-03-2.04367E-03-1.61564E-01 1.87483E-14 3.66242E-13
 -1      1508 1.96798E+01 2.71496E-03 1.00223E-03-1.02107E-01 4.01471E-14 4.86202E-13
 -1      1509 1.95417E+01 5.69291E-03 2.06107E-03-9.82939E-02 1.52442E-14 4.99727E-13
 -1      1510 1.96347E+01 3.01693E-03-2.13662E-03-1.82896E-01 5.22344E-14 3.31811E-13
 -1      1511 1.99642E+01 3.83912E-03 4.44870E-04-1.15856E-01 3.10470E-14 4.25373E-13
 -1      1512 1.98092E+01 6.94708E-03 1.69687E-03-1.11128E-01 4.60638E-14 4.63787E-13
 -1      1513 1.98680E+01 4.78589E-03-2.45750E-03-2.07200E-01 5.60014E-14 3.13813E-13
 -1      1514 2.02947E+01 5.40329E-03-1.74993E-04-1.35193E-01 2.21833E-14 3.19036E-13
 -1      1515 2.01158E+01 9.15332E-03 1.45781E-03-1.28883E-01 3.79688E-14 3.84737E-13
 -1      1516 2.01407E+01 7.60918E-03-3.04495E-03-2.39253E-01 6.13394E-14 2.43430E-13
 -1      1517 2.06875E+01 7.35210E-03-8.96750E-04-1.62063E-01-1.16901E-14 4.09591E-13
 -1      1518 2.04750E+01 1.22423E-02 1.27733E-03-1.53509E-01-5.07784E-14 3.19527E-13
 -1      1519 2.04625E+01 1.13610E-02-3.92993E-03-2.83109E-01-3.09028E-14 2.05251E-13
 -1      1520 2.11633E+01 9.55748E-03-1.75505E-03-1.98036E-01 8.83516E-15 3.79387E-13
 -1      1521 2.09050E+01 1.60938E-02 1.08728E-03-1.86604E-01 2.59788E-14 4.25981E-13
 -1      1522 2.08476E+01 1.58798E-02-5.13554E-03-3.42144E-01-1.16790E-15 2.30562E-13
 -1      1523 2.17450E+01 1.17038E-02-2.74739E-03-2.43834E-01 3.33397E-14 3.65284E-13
 -1      1524 2.14271E+01 2.03806E-02 8.04344E-04-2.29045E-01 2.45704E-14 3.83932E-13
 -1      1525 2.13125E+01 2.07984E-02-6.64581E-03-4.18561E-01 3.13139E-14 2.38436E-13
 -1      1526 2.24541E+01 1.30853E-02-3.73840E-03-2.98208E-01-9.50136E-14 4.38958E-13
 -1      1527 2.20637E+01 2.42851E-02 3.41785E-04-2.80061E-01-5.28909E-14 3.56864E-13
 -1      1528 2.18742E+01 2.52340E-02-8.32633E-03-5.12003E-01-3.30001E-14 2.83796E-13
 -1      1529 2.33025E+01 1.22842E-02-4.24436E-03-3.55737E-01 9.21312E-15 4.72681E-13
 -1      1530 2.28319E+01 2.60141E-02-3.22428E-04-3.35401E-01-2.56826E-14 4.55306E-13
 -1      1531 2.25454E+01 2.72459E-02-9.75932E-03-6.16655E-01-6.31301E-14 2.90397E-13
 -1      1532 2.42768E+01 6.77704E-03-3.05679E-03-4.03058E-01 7.65822E-14 4.28640E-13
 -1      1533 2.37333E+01 2.21026E-02-9.64553E-04-3.84143E-01 4.44527E-14 4.96440E-13
 -1      1534 2.33258E+01 2.30019E-02-9.95500E-03-7.16064E-01 3.55198E-14 2.96773E-13
 -1      1535 2.53126E+01-7.20290E-03 2.14540E-03-4.13643E-01-3.76977E-15 3.62037E-13
 -1      1536 2.47345E+01 6.80015E-03-7.90733E-04-4.04131E-01 4.29498E-14 3.86149E-13
 -1      1537 2.41890E+01 5.88177E-03-6.99236E-03-7.75302E-01 1.01776E-13 2.23783E-13
 -1      1538 2.62596E+01-3.34734E-02 1.43908E-02-3.43700E-01-3.13204E-15 3.91832E-13
 -1      1539 2.57389E+01-2.72328E-02 1.85769E-03-3.57835E-01-1.25421E-14 3.77746E-13
 -1      1540 2.50618E+01-3.33423E-02 2.01034E-03-7.32617E-01-6.34735E-15 1.89248E-13
 -1      1541 2.68519E+01-7.11700E-02 3.44619E-02-1.38236E-01-6.29757E-14 5.14742E-13
 -1      1542 2.65533E+01-8.40668E-02 8.86297E-03-1.95304E-01-2.08375E-14 4.22235E-13
 -1      1543 2.58023E+01-1.01698E-01 1.95365E-02-4.99770E-01-4.55608E-14 3.05143E-13
 -1      1544 2.67286E+01-1.05557E-01 5.42699E-02 2.34929E-01-4.22058E-14 6.04954E-13
 -1      1545 2.68760E+01-1.52159E-01 1.97006E-02 1.21163E-01-5.18995E-14 5.14505E-13
 -1      1546 2.61901E+01-1.90794E-01 4.28898E-02 5.66666E-03-9.74880E-14 2.72509E-13
 -1      1547 2.55835E+01-1.01102E-01 5.20674E-02 7.11043E-01 9.33732E-14 5.11383E-13
 -1      1548 2.63614E+01-1.89646E-01 2.66635E-02 5.57724E-01 2.10595E-15 6.26353E-13
 -1      1549 2.59694E+01-2.51641E-01 6.00120E-02 7.69560E-01-1.45682E-14 2.94483E-13
 -1      1550 2.34761E+01-2.15565E-02 1.35036E-03 1.05756E+00-1.68693E-14 5.38791E-13
 -1      1551 2.48311E+01-1.31825E-01 1.40955E-02 9.36411E-01 3.46658E-14 5.08066E-13
 -1      1552 2.49908E+01-1.97663E-01 4.64709E-02 1.54326E+00 5.47912E-14 2.89227E-13
 -1      1553 2.11465E+01 1.13242E-01-8.82915E-02 9.46193E-01-8.05259E-14 7.85885E-13
 -1      1554 2.25993E+01 4.38996E-02-2.77404E-02 9.60195E-01-1.33565E-13 5.89293E-13
 -1      1555 2.34610E+01 4.26666E-02-4.73137E-03 1.82391E+00-1.59045E-13 4.51111E-13
 -1      1556 1.98381E+01 1.99659E-01-1.50459E-01 2.72448E-01-6.77965E-14 9.80861E-13
 -1      1557 2.06210E+01 2.39156E-01-7.82541E-02 4.53315E-01-2.96013E-14 9.24066E-13
 -1      1558 2.20738E+01 3.63667E-01-6.88616E-02 1.17471E+00-1.40735E-13 5.51757E-13
 -1      1559 2.04072E+01 1.50534E-01-1.17607E-01-5.88677E-01 1.71488E-13 9.05498E-13
 -1      1560 2.00232E+01 2.90614E-01-8.96196E-02-3.50983E-01 4.37914E-14 9.85788E-13
 -1      1561 2.16775E+01 5.05622E-01-9.10722E-02-2.06116E-01 1.16712E-14 6.63029E-13
 -1      1562 2.24900E+01 1.70940E-02-1.69990E-02-1.06601E+00 1.63834E-13 4.40092E-13
 -1      1563 2.11828E+01 1.59161E-01-4.50488E-02-9.27208E-01 1.89690E-13 7.72771E-13
 -1      1564 2.25353E+01 3.09664E-01-6.13521E-02-1.45054E+00 3.31991E-13 5.63466E-13
 -1      1565 2.48533E+01-8.35844E-02 6.28378E-02-9.65433E-01 7.49383E-14 2.16605E-13
 -1      1566 2.33728E+01-2.23287E-02 1.46668E-02-9.72399E-01 3.83192E-14 3.25018E-13
 -1      1567 2.40677E+01-4.13864E-02-1.84798E-02-1.82681E+00 2.06028E-13 5.37397E-13
 -1      1568 2.64645E+01-1.07445E-01 8.19215E-02-5.27060E-01 4.30211E-16 1.43156E-13
 -1      1569 2.54400E+01-1.27591E-01 4.56149E-02-6.19488E-01 4.62928E-14 1.83603E-13
 -1      1570 2.54323E+01-2.65041E-01 9.13693E-03-1.36220E+00 1.06068E-13 3.82045E-13
 -1      1571 2.69981E+01-8.02085E-02 5.87898E-02-7.08306E-02-8.00696E-14 9.62043E-14
 -1      1572 2.66298E+01-1.36904E-01 4.24471E-02-1.71708E-01-1.20806E-14 8.57647E-14
 -1      1573 2.61282E+01-2.88180E-01 1.72656E-02-5.56588E-01 1.52482E-14 2.08814E-13
 -1      1574 2.66637E+01-4.16525E-02 2.65663E-02 2.36291E-01-2.44249E-14 3.95482E-14
 -1      1575 2.68241E+01-9.59776E-02 2.35823E-02 1.66052E-01 1.05801E-14 7.62788E-14
 -1      1576 2.61092E+01-1.97419E-01 1.44093E-02 1.45249E-01-3.04982E-14 3.06005E-15
 -1      1577 2.58358E+01-1.23158E-02 3.59671E-03 3.79808E-01-7.74597E-15 1.88613E-13
 -1      1578 2.62942E+01-4.86784E-02 6.08515E-03 3.44266E-01-1.16424E-13 8.66113E-14
 -1      1579 2.55811E+01-9.27204E-02 8.70116E-03 5.70323E-01-1.28346E-13 2.87964E-16
 -1      1580 2.48290E+01 4.35914E-03-7.61676E-03 4.08981E-01 1.06127E-13 9.55486E-15
 -1      1581 2.53928E+01-1.40813E-02-3.73579E-03 3.98047E-01 7.27927E-14 1.27055E-13
 -1      1582 2.47926E+01-1.89026E-02 4.07516E-03 7.41687E-01 8.07301E-14-9.15205E-14
 -1      1583 2.38396E+01 1.16097E-02-1.08616E-02 3.76601E-01-1.34504E-13 6.22835E-14
 -1      1584 2.43910E+01 5.69023E-03-6.95959E-03 3.79331E-01-6.09972E-15 5.50532E-14
 -1      1585 2.39353E+01 2.05572E-02 1.34923E-03 7.47594E-01 2.48694E-15-2.19026E-14
 -1      1586 2.29641E+01 1.33982E-02-1.02522E-02 3.19402E-01 1.15597E-13-6.62907E-14
 -1      1587 2.34473E+01 1.45924E-02-6.60576E-03 3.28145E-01 4.53656E-14 3.87745E-14
 -1      1588 2.31253E+01 3.60531E-02 7.99709E-06 6.69110E-01 5.73257E-14-9.85280E-14
 -1      1589 2.22352E+01 1.25647E-02-8.33385E-03 2.57925E-01 1.52664E-13-2.06507E-13
 -1      1590 2.26331E+01 1.70712E-02-5.01663E-03 2.68342E-01 2.86776E-14-1.31985E-13
 -1      1591 2.24185E+01 3.83205E-02-5.80562E-04 5.59917E-01 9.61843E-14-5.84359E-14
 -1      1592 2.16516E+01 1.07369E-02-6.30151E-03 2.01749E-01-5.69174E-14 3.17619E-14
 -1      1593 2.19667E+01 1.63195E-02-3.36635E-03 2.11731E-01-3.90946E-14-3.66929E-14
 -1      1594 2.18316E+01 3.45879E-02-8.05035E-04 4.49257E-01-6.96995E-14 7.39413E-14
 -1      1595 2.11967E+01 8.72589E-03-4.58194E-03 1.54291E-01 9.04225E-16 3.29136E-13
 -1      1596 2.14397E+01 1.42314E-02-2.06424E-03 1.62991E-01 1.47000E-14 2.07210E-13
 -1      1597 2.13605E+01 2.88513E-02-8.59820E-04 3.50373E-01-5.29147E-14 2.76777E-13
 -1      1598 2.08492E+01 6.88221E-03-3.25484E-03 1.15932E-01 1.33952E-13 2.81514E-13
 -1      1599 2.10329E+01 1.18001E-02-1.15785E-03 1.23140E-01 2.23606E-14 3.22865E-13
 -1      1600 2.09915E+01 2.30246E-02-8.33413E-04 2.67605E-01 2.29669E-14 4.46175E-13
 -1      1601 2.05882E+01 5.32440E-03-2.27489E-03 8.57614E-02-4.44449E-14 2.33555E-13
 -1      1602 2.07247E+01 9.48919E-03-5.71521E-04 9.15558E-02 1.06948E-13 3.06628E-13
 -1      1603 2.07080E+01 1.78815E-02-7.67163E-04 2.00939E-01 1.39928E-13 5.92938E-13
 -1      1604 2.03951E+01 4.06609E-03-1.56808E-03 6.24537E-02 3.80258E-14 2.27887E-13
 -1      1605 2.04951E+01 7.48136E-03-2.11722E-04 6.70239E-02-4.84173E-14 8.31596E-14
 -1      1606 2.04937E+01 1.36395E-02-6.83169E-04 1.48541E-01-1.02307E-14 4.29007E-13
 -1      1607 2.02547E+01 3.08084E-03-1.06720E-03 4.46647E-02-2.56576E-14 8.36049E-14
 -1      1608 2.03266E+01 5.82428E-03-1.97363E-06 4.82270E-02 6.88564E-14 1.95580E-13
 -1      1609 2.03344E+01 1.02750E-02-5.95613E-04 1.08027E-01 6.18572E-14 2.60619E-13
 -1      1610 2.01546E+01 2.33299E-03-7.22562E-04 3.11769E-02 2.05504E-14 9.70651E-14
 -1      1611 2.02053E+01 4.50940E-03 1.10600E-04 3.39421E-02-2.21795E-14-7.64322E-16
 -1      1612 2.02178E+01 7.68191E-03-5.16155E-04 7.70341E-02-9.86819E-15 2.09427E-13
 -1      1613 2.00853E+01 1.78883E-03-5.02833E-04 2.09311E-02 1.02187E-13-1.63339E-13
 -1      1614 2.01198E+01 3.51069E-03 1.57637E-04 2.30971E-02 8.71707E-14-1.76523E-14
 -1      1615 2.01344E+01 5.74326E-03-4.56253E-04 5.34275E-02 1.43071E-13 6.43557E-14
 -1      1616 2.00397E+01 1.41184E-03-3.89017E-04 1.30258E-02 4.10354E-15-1.94885E-13
 -1      1617 2.00618E+01 2.79405E-03 1.53457E-04 1.47748E-02 1.54420E-14-1.64786E-13
 -1      1618 2.00765E+01 4.35394E-03-4.26735E-04 3.53520E-02 1.04583E-13 1.68306E-14
 -1      1619 2.00125E+01 1.16179E-03-3.43142E-04 6.74030E-03-4.83241E-14-2.00525E-13
 -1      1620 2.00250E+01 2.31324E-03 1.06677E-04 8.23471E-03 2.15854E-14-2.80394E-13
 -1      1621 2.00383E+01 3.40956E-03-4.30241E-04 2.12652E-02-5.49799E-16 1.94175E-14
 -1      1622 1.99999E+01 9.62222E-04-1.94885E-04 1.57639E-03 9.00976E-14-2.23636E-13
 -1      1623 2.00046E+01 1.97813E-03 6.91842E-05 2.97498E-03 3.55952E-14-1.51523E-13
 -1      1624 2.00153E+01 2.82614E-03-4.04951E-04 1.00523E-02-7.10006E-15 2.17416E-14
 -1      1625 1.99983E+01 4.00823E-04 5.42028E-04-1.88385E-03 1.27166E-13-2.14116E-13
 -1      1626 1.99969E+01 1.25805E-03 2.24640E-04-8.62125E-04 7.48756E-14-2.15773E-13
 -1      1627 2.00036E+01 1.83700E-03-2.20247E-04 1.30449E-03 1.54021E-13 8.24844E-14
 -1      1628 1.99983E+01-1.19078E-03 9.94705E-04-1.63147E-03-1.01192E-13-1.19698E-13
 -1      1629 2.00015E+01-1.09702E-03-2.10214E-04 6.08564E-04 2.03994E-13 2.68927E-13
 -1      1630 2.00012E+01-5.99447E-04 3.17702E-04-2.67016E-04-8.57608E-14 3.14833E-13
 -1      1631 2.00016E+01 9.29522E-03-2.94075E-04 5.54040E-03 3.73023E-13-5.53374E-14
 -1      1632 2.00017E+01 4.12506E-03-1.64594E-04 4.48924E-03 3.52318E-13-1.82498E-13
 -1      1633 2.00032E+01 8.89635E-03-3.33479E-04 5.66551E-03 1.74062E-13 1.44159E-13
 -1      1634 2.00009E+01 2.82777E-02-2.05754E-04 9.72491E-03 1.76626E-13-1.99116E-13
 -1      1635 2.00013E+01 1.78851E-02-1.96899E-04 8.98402E-03 4.99212E-13 2.46276E-14
 -1      1636 2.00027E+01 2.28979E-02-4.50469E-04 1.45281E-02 1.92385E-13 6.53017E-14
 -1      1637 2.00000E+01 5.25362E-02-9.95540E-05 1.18096E-02-1.70923E-13-2.98669E-13
 -1      1638 2.00005E+01 3.92209E-02-1.20510E-04 1.15734E-02 9.31313E-14 3.96906E-15
 -1      1639 2.00014E+01 4.27635E-02-2.27257E-04 2.08749E-02 8.64395E-14-2.85927E-13
 -1      1640 1.99991E+01 7.69172E-02-3.33871E-05 1.14545E-02-5.15425E-13-2.80795E-14
 -1      1641 1.99996E+01 6.37955E-02-4.91459E-05 1.17093E-02-2.29498E-13-4.17703E-13
 -1      1642 1.99999E+01 6.52438E-02 5.61186E-05 2.28913E-02-2.05063E-14-5.39037E-13
 -1      1643 1.99984E+01 9.75791E-02 7.55683E-06 8.85547E-03-4.72877E-14 3.10101E-13
 -1      1644 1.99988E+01 8.69097E-02-4.15273E-06 9.52996E-03-4.48600E-13 2.81030E-13
 -1      1645 1.99985E+01 8.66637E-02 3.16644E-04 2.03714E-02-6.53878E-14 1.83738E-13
 -1      1646 1.99980E+01 1.10249E-01 2.66640E-05 4.60202E-03-2.81818E-13-1.77490E-13
 -1      1647 1.99982E+01 1.04323E-01 1.80981E-05 5.54270E-03-3.71558E-14 5.49348E-14
 -1      1648 1.99974E+01 1.03470E-01 5.09666E-04 1.39550E-02-2.30433E-13 2.30892E-13
 -1      1649 1.99979E+01 1.12703E-01 3.07378E-05-4.61789E-04-1.74813E-13 2.52265E-13
 -1      1650 1.99979E+01 1.12603E-01 2.57849E-05 5.65060E-04-2.19798E-13 1.10705E-14
 -1      1651 1.99969E+01 1.12583E-01 6.07953E-04 4.99399E-03-1.16202E-13-2.37043E-13
 -1      1652 1.99982E+01 1.04596E-01 2.16316E-05-5.39973E-03 3.00241E-13 1.87112E-13
 -1      1653 1.99980E+01 1.10293E-01 2.17877E-05-4.47338E-03-1.22201E-13 2.99547E-13
 -1      1654 1.99969E+01 1.12495E-01 6.01423E-04-4.80563E-03 1.37932E-13 3.85258E-13
 -1      1655 1.99988E+01 8.74837E-02-2.18432E-06-9.31458E-03-6.37172E-14-2.57603E-13
 -1      1656 1.99984E+01 9.78685E-02 7.16340E-06-8.65949E-03 2.68829E-13-1.73001E-13
 -1      1657 1.99974E+01 1.03286E-01 4.92834E-04-1.36603E-02 4.73884E-14 9.75926E-14
 -1      1658 1.99995E+01 6.49842E-02-3.91779E-05-1.14485E-02-8.45447E-13-3.27675E-13
 -1      1659 1.99991E+01 7.77999E-02-2.84234E-05-1.11934E-02-2.52801E-13-5.23917E-13
 -1      1660 1.99985E+01 8.67416E-02 3.06571E-04-1.99279E-02-3.23766E-14-8.28286E-13
 -1      1661 2.00004E+01 4.05826E-02-1.01796E-04-1.13964E-02-4.37212E-13 3.69333E-13
 -1      1662 1.99999E+01 5.36885E-02-8.82332E-05-1.16080E-02-9.77129E-13 4.24780E-13
 -1      1663 1.99998E+01 6.56039E-02 5.39219E-05-2.24636E-02-3.61531E-14-2.37473E-14
 -1      1664 2.00012E+01 1.92918E-02-2.04489E-04-8.99488E-03-2.49123E-13 1.67498E-13
 -1      1665 2.00008E+01 2.97734E-02-1.79421E-04-9.67779E-03-5.28955E-13 2.53297E-13
 -1      1666 2.00013E+01 4.32425E-02-2.13794E-04-2.06613E-02-9.99019E-14 3.63493E-13
 -1      1667 2.00019E+01 5.37946E-03-6.94862E-05-4.87783E-03-2.50246E-13 8.58247E-14
 -1      1668 2.00014E+01 1.08574E-02-2.89662E-04-5.91895E-03-2.80664E-13 1.60250E-13
 -1      1669 2.00023E+01 2.37247E-02-4.24690E-04-1.46975E-02-2.19557E-13 1.78244E-13
 -1      1670 2.00022E+01 1.98490E-03 2.87183E-04-1.39757E-03-1.81984E-13-7.88388E-14
 -1      1671 2.00024E+01 2.46355E-03-2.58673E-04-2.62822E-03-1.17895E-13-8.55179E-14
 -1      1672 2.00050E+01 1.28371E-02 1.71723E-05-8.61737E-03-2.65201E-13 7.38537E-14
 -1      1673 2.00061E+01 6.90898E-03 3.24587E-04-3.93929E-03-5.46057E-14-1.09247E-13
 -1      1674-5.74623E-01-1.41134E+01-1.56604E+00-1.04573E+00 3.46223E-13 1.50990E-13
 -1      1675-5.55738E-01-1.59827E+01-1.69529E+00 2.02697E-01 1.97314E-13 8.12683E-14
 -1      1676 1.31545E+00-8.27617E+00-1.25973E+00 2.21432E-01 4.51084E-13 1.15713E-13
 -1      1677 5.96339E-01-1.33334E+01-1.72166E+00-3.25853E-01 4.65183E-13 1.13548E-13
 -1      1678 6.76962E+00-8.15994E-01-6.69369E-01 4.21169E+00 4.84945E-13 5.54556E-13
 -1      1679 3.67289E+00-6.30188E+00-1.42234E+00 1.30677E+00 4.75842E-13 2.88436E-13
 -1      1680 1.90217E+01 4.28786E+00 2.20751E-01 9.65131E+00 5.55223E-13 7.02660E-13
 -1      1681 1.17690E+01 6.90700E-01-7.31199E-01 5.70596E+00 4.85501E-13 5.62550E-13
 -1      1682 3.41392E+01 6.22448E+00 1.11619E+00 1.26419E+01 5.00378E-13 7.98472E-13
 -1      1683 2.42605E+01 5.91676E+00 1.46752E-01 1.06387E+01 5.44786E-13 7.98472E-13
 -1      1684 4.90504E+01 4.60379E+00 1.71824E+00 9.75791E+00 2.73608E-13 3.01315E-13
 -1      1685 3.96925E+01 6.48002E+00 1.07263E+00 1.20389E+01 4.85501E-13 6.82121E-13
 -1      1686 5.49743E+01 3.81992E+00 1.78147E+00 1.56968E+00 2.05724E-13-1.42497E-13
 -1      1687 5.11902E+01 4.84746E+00 1.56793E+00 6.81289E+00 3.49165E-13 1.48326E-13
 -1      1688 5.34193E+01 4.45128E+00 1.76896E+00-6.04473E+00 3.60573E-13-5.58886E-13
 -1      1689 5.60084E+01 3.65458E+00 1.87286E+00-5.88396E-01 1.40998E-13-3.28515E-13
 -1      1690 4.27878E+01 6.15035E+00 1.25036E+00-1.16403E+01 6.01241E-13-1.00475E-12
 -1      1691 5.14186E+01 4.30767E+00 1.88202E+00-8.69232E+00 4.81917E-13-6.52700E-13
 -1      1692 2.66690E+01 6.29784E+00 2.96014E-01-1.12131E+01 9.08718E-13-1.20659E-12
 -1      1693 3.73122E+01 6.12619E+00 1.30493E+00-1.26970E+01 7.15372E-13-1.10778E-12
 -1      1694 1.37022E+01 2.17129E+00-5.71419E-01-6.79484E+00 8.21787E-13-8.98503E-13
 -1      1695 2.11818E+01 5.09861E+00 3.85941E-01-1.04378E+01 8.67972E-13-1.16263E-12
 -1      1696 5.32210E+00-4.60964E+00-1.21515E+00-2.33877E+00 5.08038E-13-5.67102E-13
 -1      1697 9.17821E+00 5.66945E-01-4.41962E-01-5.53887E+00 7.58726E-13-8.32556E-13
 -1      1698 1.32708E+00-1.19972E+01-1.58409E+00-1.14203E-01 1.16351E-13-2.21823E-13
 -1      1699 2.57114E+00-6.61108E+00-1.05296E+00-1.31149E+00 3.69371E-13-4.88554E-13
 -1      1700-5.13445E-01-1.65642E+01-1.86377E+00 1.68676E-01-3.40034E-13-2.02199E-13
 -1      1701-5.38574E-01-1.37579E+01-1.61080E+00 1.19884E+00-1.57652E-14-1.90625E-13
 -1      1702-7.33388E-01-1.58173E+01-1.76715E+00-7.92600E-01-6.83009E-13-2.47774E-13
 -1      1703-7.31128E-01-1.71172E+01-1.89179E+00 7.57184E-01-4.13915E-13-1.03750E-13
 -1      1704 8.48292E-01-9.49087E+00-1.26323E+00 2.95819E-01-1.00631E-12-4.93466E-13
 -1      1705 3.30925E-01-1.42080E+01-1.71067E+00 1.80661E-01-7.68274E-13-3.60711E-13
 -1      1706 5.01457E+00-1.89724E+00-7.15156E-01 3.39892E+00-1.04317E-12-6.23057E-13
 -1      1707 2.74393E+00-7.52917E+00-1.40070E+00 1.06939E+00-1.09568E-12-4.79061E-13
 -1      1708 1.44548E+01 4.30356E+00 1.11817E-02 8.74832E+00-8.42659E-13-5.85643E-13
 -1      1709 8.56712E+00 2.69588E-01-8.31303E-01 4.86873E+00-1.01052E-12-6.75460E-13
 -1      1710 2.92156E+01 5.65000E+00 7.55606E-01 1.16165E+01-4.39648E-13-3.81029E-13
 -1      1711 2.06082E+01 4.75627E+00-2.50011E-02 9.22576E+00-7.00773E-13-5.06151E-13
 -1      1712 4.30792E+01 5.47501E+00 1.42681E+00 1.11642E+01-1.86434E-13-1.46216E-13
 -1      1713 3.40259E+01 6.87963E+00 7.33240E-01 1.20672E+01-3.44891E-13-3.46612E-13
 -1      1714 5.26857E+01 3.85509E+00 1.72133E+00 4.05163E+00-8.27116E-14 2.46692E-13
 -1      1715 4.67841E+01 5.34528E+00 1.31775E+00 8.95607E+00-1.61093E-13 2.39808E-14
 -1      1716 5.39701E+01 3.79190E+00 1.78253E+00-4.38450E+00-3.65818E-14 3.65652E-13
 -1      1717 5.48696E+01 3.45757E+00 1.79519E+00 1.41510E+00-1.62648E-14 2.97401E-13
 -1      1718 4.55498E+01 5.62958E+00 1.34476E+00-1.05874E+01-2.66842E-13 3.34510E-13
 -1      1719 5.19760E+01 4.02183E+00 1.81170E+00-6.91077E+00-5.81618E-14 3.32623E-13
 -1      1720 3.22558E+01 6.86182E+00 6.73806E-01-1.20258E+01-3.74090E-13 5.32463E-13
 -1      1721 4.12216E+01 5.79122E+00 1.39694E+00-1.17784E+01-3.38118E-13 4.06342E-13
 -1      1722 1.96152E+01 5.34276E+00-2.37113E-02-9.64047E+00-7.28528E-13 5.25358E-13
 -1      1723 2.73628E+01 6.39298E+00 7.62245E-01-1.20654E+01-4.51528E-13 5.12923E-13
 -1      1724 9.83722E+00 6.52900E-01-6.94689E-01-5.44142E+00-8.68194E-13 6.75349E-13
 -1      1725 1.51768E+01 4.17788E+00 8.64980E-02-8.79458E+00-8.00582E-13 5.70433E-13
 -1      1726 3.63342E+00-6.35418E+00-1.27538E+00-1.70146E+00-4.76619E-13 5.53391E-13
 -1      1727 6.26433E+00-1.11705E+00-5.88426E-01-4.21756E+00-7.68718E-13 8.36775E-13
 -1      1728 5.32316E-01-1.31589E+01-1.69264E+00 4.81977E-02-4.09672E-13 2.13655E-13
 -1      1729 1.12319E+00-8.32173E+00-1.22378E+00-3.52081E-01-5.28244E-13 2.97040E-13
 -1      1730-5.24677E-01-1.61189E+01-1.72294E+00-6.19577E-01 2.59875E-13 3.27738E-13
 -1      1731-4.52822E-01-1.40356E+01-1.55006E+00 5.93423E-01-2.05835E-13 4.19192E-13
 -1      1732 2.59183E+01 4.09443E-01 2.24817E-01 6.96879E+00 2.34146E-13 4.05453E-13
 -1      1733 1.49440E+01-3.58099E+00-3.68722E-01 6.21264E+00 1.72529E-13 4.06120E-13
 -1      1734 2.00004E+01-1.55976E-03 3.86450E-04-2.28837E-03-1.66345E-13 6.70291E-14
 -1      1735 2.00022E+01 3.09898E-03 1.78174E-04-6.06898E-04 1.18390E-13 4.33072E-13
 -1      1736 6.32853E-01-9.94016E+00-1.13948E+00 2.13776E+00-2.95319E-14 7.92699E-14
 -1      1737 5.84691E+00-7.48391E+00-9.35131E-01 4.18839E+00 7.58282E-14 2.77278E-14
 -1      1738-1.18563E+00-1.04897E+01-1.16104E+00-2.95544E-01-4.48114E-14 3.48721E-13
 -1      1739 3.71748E+01 4.21602E+00 9.85840E-01 6.69399E+00 3.78808E-13 3.07754E-13
 -1      1740 4.44565E+01 6.73658E+00 1.39215E+00 3.51712E+00 4.97630E-13 4.84057E-14
 -1      1741 4.67331E+01 7.72970E+00 1.43087E+00 2.60271E-02 3.49110E-13-1.14457E-13
 -1      1742 4.61541E+01 6.93358E+00 1.54858E+00-3.30417E+00 5.13145E-13-4.50140E-13
 -1      1743 3.90848E+01 4.78590E+00 1.12735E+00-6.36187E+00 4.76813E-13-4.84612E-13
 -1      1744 2.79055E+01 1.26899E+00 3.59423E-01-7.13304E+00 5.00544E-13-7.12319E-13
 -1      1745 1.70156E+01-2.79495E+00-2.77746E-01-6.47305E+00 3.58380E-13-7.15261E-13
 -1      1746 7.97900E+00-6.75270E+00-7.89367E-01-4.95414E+00 1.53766E-13-6.03545E-13
 -1      1747 1.68322E+00-9.54688E+00-1.03441E+00-2.90912E+00-7.16094E-15-4.04510E-13
 -1      1748-1.34488E+00-1.16202E+01-1.35065E+00-2.53041E-01-1.77594E-13-3.63265E-13
 -1      1749-1.59024E-01-1.06166E+01-1.21107E+00 2.17510E+00-4.05231E-13-4.31766E-13
 -1      1750 4.33161E+00-7.81237E+00-9.36802E-01 4.22026E+00-4.50529E-13-3.93116E-13
 -1      1751 1.16762E+01-3.65430E+00-4.74191E-01 6.10588E+00-6.10623E-13-3.77753E-13
 -1      1752 2.25978E+01 1.30505E-01 2.26815E-01 7.25683E+00-5.24247E-13-1.76303E-13
 -1      1753 3.27166E+01 3.09831E+00 5.90461E-01 6.41576E+00-3.64708E-13-1.23013E-13
 -1      1754 4.11910E+01 6.27076E+00 1.17976E+00 4.66881E+00-2.73448E-13 1.14908E-13
 -1      1755 4.60930E+01 7.42368E+00 1.45300E+00 1.14965E+00-1.91791E-13 1.86989E-13
 -1      1756 4.64977E+01 6.97426E+00 1.52829E+00-2.77220E+00-6.62248E-14 2.23987E-13
 -1      1757 4.04492E+01 5.88292E+00 1.17070E+00-5.71635E+00-2.32869E-13 4.25215E-14
 -1      1758 3.17486E+01 3.44302E+00 6.75074E-01-7.21716E+00-2.89158E-13 1.43330E-13
 -1      1759 2.21576E+01 2.32305E-01 1.44106E-01-7.41182E+00-4.78062E-13 1.69420E-13
 -1      1760 1.31164E+01-3.47542E+00-3.61817E-01-6.41737E+00-4.45532E-13 5.40346E-13
 -1      1761 5.45362E+00-7.20402E+00-8.37983E-01-4.55837E+00-4.06231E-13 4.65451E-13
 -1      1762 4.98917E-01-1.00304E+01-1.16407E+00-2.47753E+00-5.71765E-14 4.85390E-13
 -1      1763 2.28146E+01 1.98093E+00-2.39036E-02-2.71205E+00-1.18273E-13 2.02754E-13
 -1      1764 1.98281E+01 3.72128E+00-3.49235E-02-2.13535E+00-8.73494E-14-2.70589E-13
 -1      1765 2.00520E+01 3.56128E+00-4.26869E-02-2.42221E+00-1.20950E-13-2.36755E-13
 -1      1766 2.03586E+01 3.18058E+00-4.50861E-02-2.56755E+00-1.33994E-13-1.90348E-13
 -1      1767 2.05691E+01 2.80599E+00-1.42178E-01-2.83656E+00-1.58439E-13-1.29882E-13
 -1      1768 2.04282E+01 2.69272E+00-2.83127E-03-2.20113E+00-1.31008E-13-1.93227E-13
 -1      1769 1.93695E+01 4.20336E+00-2.02519E-02-1.25228E+00-1.92658E-14-2.98791E-13
 -1      1770 1.94421E+01 4.16168E+00-1.69798E-02-1.47542E+00-3.95612E-14-3.03396E-13
 -1      1771 1.92731E+01 4.31414E+00-1.68465E-02-8.45420E-01 2.20980E-14-2.84137E-13
 -1      1772 1.93160E+01 4.28864E+00-1.41732E-02-1.05404E+00 6.66307E-15-2.91062E-13
 -1      1773 1.95400E+01 3.80423E+00-9.08389E-03-1.09989E+00-1.34460E-14-2.83109E-13
 -1      1774 1.92210E+01 4.37823E+00-1.47966E-02-4.58309E-01 5.96285E-14-2.49438E-13
 -1      1775 1.92433E+01 4.36440E+00-1.31622E-02-6.55728E-01 4.40631E-14-2.70648E-13
 -1      1776 1.94422E+01 3.93041E+00-8.93886E-03-7.18655E-01 3.43604E-14-2.63413E-13
 -1      1777 1.92014E+01 4.40562E+00-1.35988E-02-8.20211E-02 1.05761E-13-2.31629E-13
 -1      1778 1.92079E+01 4.40135E+00-1.30986E-02-2.74201E-01 8.60648E-14-2.41911E-13
 -1      1779 1.93909E+01 3.99875E+00-8.84051E-03-3.50711E-01 7.47661E-14-2.33678E-13
 -1      1780 1.92099E+01 4.39996E+00-1.30452E-02 2.92644E-01 1.42004E-13-2.06703E-13
 -1      1781 1.92020E+01 4.40476E+00-1.36866E-02 1.00287E-01 1.27851E-13-2.22485E-13
 -1      1782 1.93759E+01 4.01948E+00-8.80657E-03 1.02064E-02 1.24016E-13-2.16244E-13
 -1      1783 1.92483E+01 4.36031E+00-1.31636E-02 6.74972E-01 1.66288E-13-1.80782E-13
 -1      1784 1.92245E+01 4.37500E+00-1.49081E-02 4.77011E-01 1.52789E-13-2.00000E-13
 -1      1785 1.93942E+01 3.99538E+00-8.86299E-03 3.71360E-01 1.57547E-13-1.92991E-13
 -1      1786 1.93226E+01 4.28269E+00-1.42197E-02 1.06777E+00 1.78154E-13-1.36757E-13
 -1      1787 1.92789E+01 4.30869E+00-1.70166E-02 8.61883E-01 1.70179E-13-1.65909E-13
 -1      1788 1.94485E+01 3.92401E+00-8.90483E-03 7.36694E-01 1.78585E-13-1.69656E-13
 -1      1789 1.94533E+01 4.14990E+00-1.72019E-02 1.49485E+00 2.08886E-13-6.36713E-14
 -1      1790 1.93775E+01 4.19448E+00-2.05713E-02 1.26651E+00 1.91929E-13-1.00739E-13
 -1      1791 1.95493E+01 3.79421E+00-9.02411E-03 1.11548E+00 1.96925E-13-1.08474E-13
 -1      1792 1.96780E+01 3.92723E+00-2.49917E-02 1.95920E+00 2.33370E-13 1.95781E-14
 -1      1793 1.95479E+01 4.00623E+00-2.69532E-02 1.70214E+00 2.17589E-13-3.38202E-14
 -1      1794 1.97218E+01 3.58003E+00-8.55811E-03 1.51264E+00 2.24823E-13-4.02733E-14
 -1      1795 2.00769E+01 3.52324E+00-4.49505E-02 2.45288E+00 2.25844E-13 1.44322E-13
 -1      1796 1.98425E+01 3.68591E+00-3.96680E-02 2.16329E+00 2.27388E-13 6.96145E-14
 -1      1797 2.00132E+01 3.22981E+00-5.21750E-03 1.91200E+00 2.35972E-13 5.34225E-14
 -1      1798 2.09047E+01 2.67894E+00-5.73800E-02 2.84153E+00 1.84387E-13 3.77559E-13
 -1      1799 2.04072E+01 3.09536E+00-5.02340E-02 2.59869E+00 2.01370E-13 2.41966E-13
 -1      1800 2.05153E+01 2.61123E+00 3.18926E-03 2.22463E+00 2.13113E-13 1.82018E-13
 -1      1801 2.16988E+01 1.21133E+00-1.21759E-01 2.31788E+00 1.36773E-13 6.12746E-13
 -1      1802 2.12516E+01 2.25980E+00 1.21893E-04 2.72613E+00 1.65420E-13 4.60951E-13
 -1      1803 2.09224E+01 1.68428E+00-2.27298E-02 2.12413E+00 1.74007E-13 3.66769E-13
 -1      1804 2.09249E+01 7.78012E-01-6.21726E-02 1.51299E+00 1.26461E-13 5.75654E-13
 -1      1805 2.17681E+01 2.45367E+00 9.07289E-02-3.03436E+00-1.53006E-13-3.06699E-15
 -1      1806 2.00847E+01 2.99145E-01-8.68251E-03 6.44875E-01 9.42059E-14 4.87171E-13
 -1      1807 2.06309E+01 4.40963E-01-1.22883E-02 1.02235E+00 1.05520E-13 5.33214E-13
 -1      1808 2.07280E+01 8.45214E-01 2.14772E-03 1.40057E+00 1.27797E-13 4.06852E-13
 -1      1809 2.14860E+01 1.74066E+00 7.93858E-02-2.32228E+00-1.51806E-13-4.75869E-14
 -1      1810 2.05086E+01 5.02631E-01 3.25992E-02-9.05689E-01-1.11942E-13-5.00269E-14
 -1      1811 2.00843E+01 3.55214E-01 8.11830E-03-6.12401E-01-9.36681E-14-8.07514E-14
 -1      1812 1.98959E+01 2.61623E-01 2.75391E-02-3.70801E-01-1.00355E-13-7.24585E-14
 -1      1813 1.97144E+01 1.83820E-01 1.09413E-02-2.29926E-01-1.00257E-13-1.01079E-13
 -1      1814 2.02030E+01 4.88970E-01-6.13610E-03-6.97577E-01-1.14483E-13-1.16410E-13
 -1      1815 1.96013E+01 1.39645E-01 1.68470E-02-9.13027E-02-8.52443E-14-1.00726E-13
 -1      1816 1.95360E+01 1.01672E-01 7.63901E-03-1.58693E-02-5.89372E-14-1.15541E-13
 -1      1817 1.98926E+01 2.53338E-01-6.13282E-03-2.61046E-01-1.03613E-13-9.49028E-14
 -1      1818 1.94834E+01 7.84442E-02 8.98749E-03 6.50530E-02-2.94344E-14-1.08652E-13
 -1      1819 1.94866E+01 5.86804E-02 5.00469E-03 1.07780E-01-1.35089E-14-1.15088E-13
 -1      1820 1.97312E+01 1.39179E-01-5.08527E-03-1.00092E-02-5.79983E-14-1.03979E-13
 -1      1821 1.94771E+01 4.60409E-02 4.64349E-03 1.56542E-01-3.90871E-14-1.14348E-13
 -1      1822 1.95214E+01 3.58741E-02 3.59271E-03 1.82110E-01-3.79667E-14-1.34345E-13
 -1      1823 1.96736E+01 8.01171E-02-4.01807E-03 1.39229E-01-3.30921E-14-1.22311E-13
 -1      1824 1.95418E+01 2.91871E-02 2.37254E-03 2.13187E-01-3.66227E-14-1.25792E-13
 -1      1825 1.96119E+01 2.46040E-02 2.90052E-03 2.29988E-01-2.67654E-14-1.22665E-13
 -1      1826 1.96883E+01 4.93539E-02-3.02906E-03 2.31756E-01-3.82250E-14-1.13731E-13
 -1      1827 1.96536E+01 2.15446E-02 1.18060E-03 2.52015E-01-2.31297E-14-1.25076E-13
 -1      1828 1.97416E+01 2.03741E-02 2.58569E-03 2.65013E-01-2.15223E-14-1.17755E-13
 -1      1829 1.97534E+01 3.47338E-02-2.28114E-03 2.93568E-01-3.01043E-14-1.17066E-13
 -1      1830 1.97993E+01 1.95461E-02 5.59682E-04 2.83316E-01-3.71732E-14-1.00448E-13
 -1      1831 1.99014E+01 2.03740E-02 2.46049E-03 2.95502E-01-8.22432E-15-1.00343E-13
 -1      1832 1.98553E+01 2.98291E-02-1.79623E-03 3.40457E-01-2.70873E-14-1.54136E-13
 -1      1833 1.99722E+01 2.07341E-02 2.53255E-04 3.13230E-01-5.60461E-14-1.20308E-13
 -1      1834 2.00869E+01 2.24033E-02 2.39125E-03 3.26181E-01-1.02308E-13-1.77056E-13
 -1      1835 1.99859E+01 3.05259E-02-1.52075E-03 3.82060E-01-7.44736E-14-1.39438E-13
 -1      1836 2.01695E+01 2.29771E-02 1.14391E-04 3.44735E-01-1.06876E-13-1.96431E-13
 -1      1837 2.02963E+01 2.43097E-02 2.24448E-03 3.58740E-01-7.69224E-14-2.21221E-13
 -1      1838 2.01414E+01 3.34938E-02-1.38387E-03 4.23602E-01-1.06218E-13-1.76340E-13
 -1      1839 2.03902E+01 2.40180E-02 4.43858E-05 3.77808E-01-6.50435E-14-2.41450E-13
 -1      1840 2.05284E+01 2.36333E-02 1.86524E-03 3.91753E-01-1.42945E-14-2.42480E-13
 -1      1841 2.03198E+01 3.53757E-02-1.31697E-03 4.66431E-01-7.15343E-14-1.82091E-13
 -1      1842 2.06332E+01 2.11771E-02-3.03209E-05 4.09103E-01 5.14380E-14-2.54779E-13
 -1      1843 2.07805E+01 1.73808E-02 1.07400E-03 4.20206E-01 5.15667E-14-2.14977E-13
 -1      1844 2.05202E+01 3.22833E-02-1.25525E-03 5.07848E-01-3.32969E-15-1.42323E-13
 -1      1845 2.08952E+01 1.12002E-02-1.65540E-04 4.31341E-01 3.91353E-14-2.29079E-13
 -1      1846 2.10466E+01 2.00119E-03-3.15538E-04 4.34844E-01 4.60738E-14-1.32835E-13
 -1      1847 2.07411E+01 1.95257E-02-1.13331E-03 5.40527E-01 3.64013E-14-9.39217E-14
 -1      1848 2.11689E+01-9.61172E-03-4.00467E-04 4.32697E-01 4.43678E-14-1.40567E-13
 -1      1849 2.13151E+01-2.62245E-02-2.44533E-03 4.21723E-01-8.53918E-15-1.26427E-13
 -1      1850 2.09787E+01-8.27860E-03-8.77398E-04 5.51812E-01 2.13953E-14-1.17771E-13
 -1      1851 2.14404E+01-4.47089E-02-7.61405E-04 3.96711E-01-4.96172E-14-1.16421E-13
 -1      1852 2.15668E+01-7.00099E-02-5.31208E-03 3.62677E-01-7.04163E-14-1.37816E-13
 -1      1853 2.12259E+01-5.63249E-02-3.94722E-04 5.23436E-01-2.10522E-14-6.72283E-14
 -1      1854 2.16871E+01-9.56050E-02-1.26897E-03 3.03721E-01-1.26672E-13-1.47420E-13
 -1      1855 2.17735E+01-1.28663E-01-8.60985E-03 2.37941E-01-7.91446E-14-1.31710E-13
 -1      1856 2.14697E+01-1.27406E-01 4.37713E-04 4.32639E-01-1.10970E-13-2.40042E-14
 -1      1857 2.18766E+01-1.58818E-01-1.96082E-03 1.35299E-01-1.89367E-14-1.24611E-13
 -1      1858 2.18991E+01-1.94308E-01-1.15515E-02 3.25164E-02-3.31592E-15-1.35448E-13
 -1      1859 2.16897E+01-2.17774E-01 1.77449E-03 2.56230E-01-6.96841E-14 4.58653E-14
 -1      1860 2.19671E+01-2.21658E-01-2.89456E-03-1.16617E-01-7.60459E-15-1.30576E-13
 -1      1861 2.19031E+01-2.47750E-01-1.27842E-02-2.52409E-01 4.83216E-14-9.53826E-14
 -1      1862 2.18563E+01-3.11292E-01 3.73598E-03-2.04214E-02 2.50060E-15-2.17772E-14
 -1      1863 2.19135E+01-2.58911E-01-4.05932E-03-4.35505E-01 1.40858E-13-8.63668E-14
 -1      1864 2.17508E+01-2.57618E-01-1.07037E-02-5.84168E-01 1.89847E-13-1.03605E-13
 -1      1865 2.19305E+01-3.74403E-01 6.21128E-03-3.88232E-01 9.34855E-14 2.89483E-14
 -1      1866 2.16825E+01-2.35613E-01-5.19767E-03-7.65006E-01 1.49207E-13-1.13912E-13
 -1      1867 2.14302E+01-1.89081E-01-4.41318E-03-8.86721E-01 3.46008E-14-9.44054E-14
 -1      1868 2.18707E+01-3.58589E-01 8.41381E-03-7.95489E-01 1.52745E-13-4.16698E-14
 -1      1869 2.12766E+01-1.22137E-01-5.44053E-03-1.00476E+00-1.53334E-14-1.72488E-14
 -1      1870 2.09741E+01-2.64020E-02 4.87959E-03-1.04700E+00-2.12851E-14 2.82465E-14
 -1      1871 2.16501E+01-2.19085E-01 8.54763E-03-1.13618E+00 5.61376E-14-6.39757E-14
 -1      1872 2.07620E+01 7.77511E-02-3.37024E-03-1.03499E+00-5.87516E-14-3.91224E-14
 -1      1873 2.04770E+01 1.98393E-01 1.33476E-02-9.55438E-01-7.36728E-14 1.33062E-14
 -1      1874 2.12880E+01 4.82709E-02 4.46136E-03-1.26573E+00-5.32678E-14-4.09768E-14
 -1      1875 2.02750E+01 3.04171E-01 2.09448E-03-7.78024E-01-7.36668E-14 8.25876E-14
 -1      1876 2.00850E+01 3.98986E-01 1.64976E-02-5.75994E-01-7.89082E-14 1.21463E-13
 -1      1877 2.08771E+01 3.73558E-01-3.85938E-03-1.06274E+00-5.83908E-14-7.10803E-16
 -1      1878 1.99796E+01 4.56019E-01 9.71721E-03-2.67550E-01-7.30206E-14 1.17818E-13
 -1      1879 1.99426E+01 4.76061E-01 1.28578E-02 1.80868E-04-1.01542E-14 7.18054E-14
 -1      1880 2.05711E+01 6.24046E-01-1.20072E-02-5.19598E-01-3.22537E-14 5.74272E-14
 -1      1881 1.99856E+01 4.53246E-01 1.56016E-02 3.36449E-01-2.29443E-14-1.64805E-14
 -1      1882 2.01136E+01 3.87386E-01 5.40970E-03 5.77941E-01-8.67362E-15-9.22400E-14
 -1      1883 2.05087E+01 6.76325E-01-1.39840E-02 2.07844E-01-6.25975E-14 8.97253E-14
 -1      1884 2.02838E+01 2.97515E-01 1.55645E-02 8.23006E-01 3.91250E-14-3.90864E-14
 -1      1885 2.05372E+01 1.81588E-01-1.33085E-03 9.60771E-01 8.71274E-14 6.98408E-14
 -1      1886 2.07213E+01 5.03515E-01-8.00684E-03 8.61584E-01 7.22322E-14 9.73535E-14
 -1      1887 2.07568E+01 7.11706E-02 9.03230E-03 1.04631E+00 9.95861E-14 2.81285E-14
 -1      1888 2.10632E+01-4.01748E-02-4.79973E-03 1.05561E+00 1.48025E-13 5.52865E-14
 -1      1889 2.11087E+01 1.94355E-01 1.03857E-03 1.22583E+00 8.82391E-14 1.46704E-13
 -1      1890 2.12507E+01-1.25984E-01-4.75386E-04 9.89267E-01 3.84389E-14 4.70977E-14
 -1      1891 2.15349E+01-1.94964E-01-5.39317E-03 8.97516E-01-8.28669E-14-2.84273E-14
 -1      1892 2.15122E+01-1.11257E-01 7.15313E-03 1.23629E+00 5.38564E-14-1.32600E-14
 -1      1893 2.16448E+01-2.35960E-01-8.36349E-03 7.37941E-01-2.23636E-13-1.12639E-13
 -1      1894 2.18543E+01-2.55164E-01-4.39173E-03 5.96925E-01-1.71850E-13-2.09546E-13
 -1      1895 2.18069E+01-3.09878E-01 8.71124E-03 9.74650E-01-1.55268E-13-1.81881E-14
 -1      1896 2.18806E+01-2.56307E-01-1.22430E-02 4.11255E-01-2.11362E-13-3.25863E-13
 -1      1897 2.19937E+01-2.39442E-01-3.10002E-03 2.68246E-01-2.53472E-13-2.60353E-13
 -1      1898 2.19435E+01-3.75400E-01 7.19722E-03 5.85694E-01-2.17601E-13-8.85320E-14
 -1      1899 2.19535E+01-2.16881E-01-1.22753E-02 1.04373E-01-1.46776E-13-1.47789E-13
 -1      1900 2.19749E+01-1.83096E-01-1.98419E-03-1.16550E-02-6.41943E-14-1.17328E-13
 -1      1901 2.19330E+01-3.39597E-01 4.67585E-03 1.97139E-01-1.43633E-13-4.62632E-15
 -1      1902 2.18916E+01-1.52438E-01-9.88635E-03-1.31378E-01-5.14940E-14-1.71401E-13
 -1      1903 2.18410E+01-1.16602E-01-1.11789E-03-2.09958E-01-9.39917E-15-2.24740E-13
 -1      1904 2.18141E+01-2.52801E-01 2.40327E-03-1.15310E-01-9.03279E-14-7.19246E-14
 -1      1905 2.17350E+01-8.78716E-02-6.60315E-03-2.82555E-01 3.60835E-14-3.39122E-13
 -1      1906 2.16371E+01-5.80181E-02-4.48029E-04-3.25577E-01 1.05366E-13-3.23861E-13
 -1      1907 2.16289E+01-1.56266E-01 7.56917E-04-3.25668E-01-4.95849E-14-1.09812E-13
 -1      1908 2.15235E+01-3.56859E-02-3.47034E-03-3.58494E-01 1.12661E-13-4.37973E-13
 -1      1909 2.14011E+01-1.44291E-02 6.72460E-05-3.73627E-01 4.85629E-14-3.96756E-13
 -1      1910 2.14119E+01-7.35219E-02-3.08595E-04-4.40023E-01 4.67621E-14-2.49122E-13
 -1      1911 2.12899E+01 7.03507E-04-9.95081E-04-3.77810E-01-2.79954E-14-4.70624E-13
 -1      1912 2.11609E+01 1.38443E-02 4.45166E-04-3.73955E-01-4.05311E-14-4.78773E-13
 -1      1913 2.11883E+01-1.31373E-02-9.46113E-04-4.79105E-01-2.54747E-15-3.89083E-13
 -1      1914 2.10581E+01 2.27806E-02 6.99686E-04-3.59905E-01 4.89541E-14-4.00804E-13
 -1      1915 2.09345E+01 2.95481E-02 6.95728E-04-3.44847E-01-2.65062E-14-3.21650E-13
 -1      1916 2.09745E+01 2.52717E-02-1.29067E-03-4.66643E-01 6.54179E-14-2.58301E-13
 -1      1917 2.08435E+01 3.38655E-02 1.69815E-03-3.20965E-01-5.18216E-14-3.11131E-13
 -1      1918 2.07323E+01 3.62002E-02 8.33957E-04-3.00563E-01-7.45528E-14-3.34435E-13
 -1      1919 2.07802E+01 4.59946E-02-1.43723E-03-4.23430E-01-7.99335E-14-2.44821E-13
 -1      1920 2.06544E+01 3.74194E-02 2.16302E-03-2.72828E-01-7.46620E-14-1.07613E-13
 -1      1921 2.05591E+01 3.69840E-02 8.81756E-04-2.51034E-01-2.20742E-14-6.47195E-14
 -1      1922 2.06105E+01 5.41633E-02-1.45074E-03-3.65267E-01 8.25925E-14-3.62867E-14
 -1      1923 2.04943E+01 3.63288E-02 2.26254E-03-2.23293E-01-1.78625E-13-1.30015E-13
 -1      1924 2.04156E+01 3.43736E-02 8.64555E-04-2.02498E-01-1.78210E-13-1.00116E-13
 -1      1925 2.04668E+01 5.43128E-02-1.37739E-03-3.02957E-01-1.65513E-13 1.98532E-13
 -1      1926 2.03629E+01 3.27329E-02 2.13789E-03-1.76958E-01-5.93209E-14-2.00143E-13
 -1      1927 2.03000E+01 3.01211E-02 8.07095E-04-1.58411E-01-1.54197E-14-9.30035E-14
 -1      1928 2.03484E+01 4.99219E-02-1.25135E-03-2.43169E-01-1.02331E-13 7.09921E-14
 -1      1929 2.02582E+01 2.80965E-02 1.89405E-03-1.36115E-01 1.28647E-13-1.69833E-13
 -1      1930 2.02094E+01 2.53852E-02 7.30413E-04-1.20291E-01 2.14492E-13 1.87386E-14
 -1      1931 2.02533E+01 4.34314E-02-1.09801E-03-1.89489E-01 3.91791E-14 1.34518E-13
 -1      1932 2.01770E+01 2.33602E-02 1.60162E-03-1.01513E-01 2.07964E-13 1.65059E-13
 -1      1933 2.01402E+01 2.08854E-02 6.49038E-04-8.83914E-02 3.31304E-13 2.94922E-13
 -1      1934 2.01786E+01 3.64426E-02-9.35203E-04-1.43381E-01 3.62822E-13 1.98652E-13
 -1      1935 2.01157E+01 1.90870E-02 1.30192E-03-7.29355E-02 2.13935E-13 2.44405E-13
 -1      1936 2.00891E+01 1.70286E-02 5.67906E-04-6.22076E-02 2.37715E-13 1.65021E-13
 -1      1937 2.01213E+01 2.99345E-02-7.75575E-04-1.04937E-01 2.29130E-13 2.11242E-13
 -1      1938 2.00709E+01 1.55700E-02 1.01284E-03-4.96298E-02 9.98174E-14 2.16406E-13
 -1      1939 2.00525E+01 1.39990E-02 4.92350E-04-4.08642E-02 9.11861E-14 1.95255E-13
 -1      1940 2.00785E+01 2.44443E-02-6.22451E-04-7.34582E-02 2.35759E-13 1.79555E-13
 -1      1941 2.00393E+01 1.27976E-02 7.21232E-04-3.06099E-02 8.23321E-14 9.70957E-14
 -1      1942 2.00277E+01 1.15649E-02 4.06090E-04-2.34451E-02-4.06513E-14 1.08899E-13
 -1      1943 2.00472E+01 2.01866E-02-4.56986E-04-4.79088E-02-3.60104E-14 3.69983E-13
 -1      1944 2.00191E+01 1.03093E-02 5.27013E-04-1.56307E-02-3.78181E-14 1.93128E-14
 -1      1945 2.00123E+01 8.83683E-03 3.47968E-04-1.02107E-02 2.39739E-15-6.79707E-15
 -1      1946 2.00117E+01 1.11781E-02-3.22266E-04-1.26374E-02-1.30523E-13 5.96849E-14
 -1      1947 2.00256E+01 1.59639E-02-4.99899E-04-2.77645E-02-6.97397E-14 1.82633E-13
 -1      1948 1.96160E+01 1.44859E-01 8.13680E-03 2.43439E-01 1.02106E-13 4.02629E-13
 -1      1949 1.98807E+01 2.06283E-01 1.66199E-02 4.18150E-01 9.34548E-14 4.46346E-13
 -1      1950 2.00973E+01 3.53114E-01-1.67666E-03 6.37070E-01 1.19895E-13 3.26040E-13
 -1      1951 1.93932E+01 7.66090E-02 7.29385E-03 3.35723E-02 7.95232E-14 3.36830E-13
 -1      1952 1.94980E+01 1.05770E-01 1.44637E-02 1.25196E-01 7.27942E-14 3.74789E-13
 -1      1953 1.97205E+01 1.70206E-01-2.16232E-03 2.31591E-01 1.01119E-13 2.80918E-13
 -1      1954 1.93305E+01 4.31439E-02 4.91940E-03-8.25012E-02 3.59218E-14 3.27004E-13
 -1      1955 1.93460E+01 5.80952E-02 8.72828E-03-3.04826E-02 5.19914E-14 3.31475E-13
 -1      1956 1.95424E+01 8.86295E-02-3.11560E-03 8.73221E-03 6.69061E-14 2.26479E-13
 -1      1957 1.93683E+01 2.61411E-02 3.54948E-03-1.50275E-01 6.25433E-15 2.74670E-13
 -1      1958 1.93320E+01 3.39307E-02 4.90114E-03-1.18666E-01 3.35298E-14 3.20401E-13
 -1      1959 1.94946E+01 4.90703E-02-3.23391E-03-1.19171E-01 3.80342E-14 1.97895E-13
 -1      1960 1.94710E+01 1.82757E-02 2.93893E-03-1.93599E-01 3.23658E-14 2.59069E-13
 -1      1961 1.94026E+01 2.19629E-02 2.89245E-03-1.72378E-01 2.07765E-14 2.60134E-13
 -1      1962 1.95316E+01 2.98891E-02-2.83514E-03-1.97224E-01 3.40564E-14 1.62764E-13
 -1      1963 1.96195E+01 1.63069E-02 2.74065E-03-2.26623E-01 4.78618E-14 2.67261E-13
 -1      1964 1.95290E+01 1.73620E-02 1.93463E-03-2.09716E-01 2.72564E-14 2.68710E-13
 -1      1965 1.96262E+01 2.22537E-02-2.38335E-03-2.50526E-01 4.12897E-14 1.69190E-13
 -1      1966 1.98055E+01 1.86586E-02 2.80087E-03-2.58910E-01 4.88637E-14 2.33658E-13
 -1      1967 1.96965E+01 1.78707E-02 1.55352E-03-2.42090E-01 7.06106E-14 2.53624E-13
 -1      1968 1.97637E+01 2.22293E-02-2.07258E-03-2.94735E-01 8.45172E-14 1.71455E-13
 -1      1969 2.00282E+01 2.45067E-02 3.06881E-03-2.97662E-01 4.48849E-14 2.18590E-13
 -1      1970 1.99002E+01 2.23379E-02 1.51732E-03-2.77628E-01 3.99103E-14 2.23757E-13
 -1      1971 1.99378E+01 2.78928E-02-1.94161E-03-3.40790E-01 6.32277E-14 1.59091E-13
 -1      1972 2.02925E+01 3.33579E-02 3.51923E-03-3.48743E-01 5.05303E-14 2.08429E-13
 -1      1973 2.01419E+01 3.01253E-02 1.70677E-03-3.22690E-01 7.83869E-14 2.30637E-13
 -1      1974 2.01483E+01 3.82153E-02-1.97964E-03-3.97071E-01 6.08490E-14 1.91361E-13
 -1      1975 2.06075E+01 4.47467E-02 4.10900E-03-4.17044E-01-1.25154E-14 1.46602E-13
 -1      1976 2.04284E+01 4.07657E-02 2.03845E-03-3.82515E-01-1.01293E-14 1.45269E-13
 -1      1977 2.03996E+01 5.24889E-02-2.17107E-03-4.70355E-01 2.00478E-14 1.51027E-13
 -1      1978 2.09855E+01 5.78528E-02 4.73767E-03-5.06258E-01 3.49592E-14 1.23130E-13
 -1      1979 2.07702E+01 5.36225E-02 2.42355E-03-4.61258E-01 2.62030E-14 1.04359E-13
 -1      1980 2.06995E+01 6.98302E-02-2.50917E-03-5.65976E-01 6.15270E-14 2.25640E-14
 -1      1981 2.14397E+01 7.08642E-02 5.19424E-03-6.17801E-01 3.59693E-14 1.53784E-13
 -1      1982 2.11800E+01 6.73723E-02 2.73691E-03-5.61329E-01 1.62838E-14 1.42050E-13
 -1      1983 2.10577E+01 8.84766E-02-3.00057E-03-6.87150E-01 3.29500E-14 7.14325E-14
 -1      1984 2.19821E+01 7.98919E-02 5.09090E-03-7.48360E-01-9.42063E-14 2.02372E-13
 -1      1985 2.16710E+01 7.91186E-02 2.78967E-03-6.81639E-01-7.47926E-15 1.91857E-13
 -1      1986 2.14843E+01 1.04605E-01-3.66507E-03-8.33048E-01-9.72269E-15 1.41309E-13
 -1      1987 2.26181E+01 7.72776E-02 3.81682E-03-8.85237E-01 7.70130E-15 1.79396E-13
 -1      1988 2.22537E+01 8.29459E-02 2.31952E-03-8.14102E-01-6.98651E-14 1.81797E-13
 -1      1989 2.19879E+01 1.10410E-01-4.52230E-03-9.94922E-01-3.52108E-14 9.65460E-14
 -1      1990 2.33390E+01 4.95122E-02 6.13844E-04-9.98688E-01 6.59131E-14 1.18221E-13
 -1      1991 2.29300E+01 6.78892E-02 1.03716E-03-9.37616E-01 3.40832E-14 1.41860E-13
 -1      1992 2.25721E+01 9.14014E-02-5.53667E-03-1.14941E+00 5.48736E-14 5.14597E-14
 -1      1993 2.41114E+01-2.36450E-02-5.02528E-03-1.03165E+00 1.32212E-13 7.22044E-14
 -1      1994 2.36856E+01 1.61407E-02-1.21303E-03-1.00931E+00 1.39558E-13 1.21530E-13
 -1      1995 2.32313E+01 2.39989E-02-6.46889E-03-1.24876E+00 1.37624E-13-2.91408E-14
 -1      1996 2.48637E+01-1.63866E-01-1.23530E-02-8.91902E-01-6.13546E-14 6.73333E-14
 -1      1997 2.44771E+01-9.53224E-02-4.18928E-03-9.55658E-01-1.93005E-14 9.29291E-15
 -1      1998 2.39441E+01-1.22410E-01-6.59081E-03-1.21035E+00 3.99034E-14-5.50948E-14
 -1      1999 2.54756E+01-3.72127E-01-1.80714E-02-4.62615E-01-6.01481E-14 1.36273E-13
 -1      2000 2.52162E+01-2.81428E-01-6.97396E-03-6.73309E-01-2.91538E-14 1.46850E-13
 -1      2001 2.46636E+01-3.68862E-01-4.38621E-03-9.15610E-01-6.88234E-14-1.23790E-14
 -1      2002 2.57768E+01-5.82383E-01-1.70215E-02 3.32342E-01-8.26787E-14 1.56212E-13
 -1      2003 2.57509E+01-5.11987E-01-9.55757E-03-6.53376E-02-1.03754E-13 8.93276E-14
 -1      2004 2.52974E+01-6.76669E-01 2.00017E-03-2.43818E-01-9.00079E-14 2.30957E-14
 -1      2005 2.55813E+01-6.16237E-01-5.09032E-03 1.38105E+00 9.26620E-14 1.38667E-13
 -1      2006 2.58718E+01-6.56570E-01-1.13412E-02 8.55080E-01 4.62130E-15 1.89701E-13
 -1      2007 2.56859E+01-8.84408E-01 1.12466E-02 8.16267E-01-1.42386E-14 9.32622E-14
 -1      2008 2.47892E+01-2.55178E-01 2.80648E-03 2.21550E+00-1.53709E-13 2.92259E-13
 -1      2009 2.53820E+01-4.85670E-01-1.68246E-02 1.80180E+00-3.47951E-14 2.20619E-13
 -1      2010 2.56195E+01-6.92980E-01 1.54206E-02 1.98733E+00-7.69263E-14 1.63904E-13
 -1      2011 2.36188E+01 4.84314E-01-1.21455E-02 2.10554E+00-2.27533E-13 4.39749E-13
 -1      2012 2.43336E+01 1.40563E-01-2.04092E-02 2.16355E+00-2.22596E-13 3.83790E-13
 -1      2013 2.49989E+01 7.10306E-02-1.00973E-02 2.55761E+00-2.61891E-13 3.66943E-13
 -1      2014 2.27501E+01 1.09063E+00-5.24525E-02 7.29446E-01-1.29875E-13 5.50714E-13
 -1      2015 2.32268E+01 9.05914E-01-2.13533E-02 1.38797E+00-1.85504E-13 4.09657E-13
 -1      2016 2.41619E+01 1.12337E+00-3.94962E-02 1.81990E+00-1.87378E-13 4.40286E-13
 -1      2017 2.29087E+01 9.67618E-01-6.90047E-02-1.15288E+00 2.31162E-13 5.09377E-13
 -1      2018 2.28355E+01 1.14586E+00-1.28031E-02-2.94664E-01 5.66769E-14 5.13232E-13
 -1      2019 2.38118E+01 1.58619E+00-5.64010E-02-1.35392E-01 4.87596E-14 4.12814E-13
 -1      2020 2.40182E+01 2.44525E-01-3.54797E-02-2.25405E+00 4.00766E-13 6.01817E-13
 -1      2021 2.34169E+01 6.15372E-01-6.36617E-03-1.77438E+00 3.53370E-13 5.74797E-13
 -1      2022 2.42973E+01 1.02803E+00-3.12021E-02-1.99384E+00 3.29625E-13 4.42209E-13
 -1      2023 2.52389E+01-3.99176E-01 8.47857E-03-2.08116E+00 2.00102E-13 4.19571E-13
 -1      2024 2.44793E+01-1.49928E-01-1.16240E-02-2.14840E+00 2.74808E-13 5.41303E-13
 -1      2025 2.51409E+01-2.76095E-02-5.27158E-03-2.56294E+00 3.43271E-13 4.82926E-13
 -1      2026 2.59180E+01-6.23616E-01 2.83541E-02-1.13311E+00 1.36800E-14 4.20581E-13
 -1      2027 2.53656E+01-5.88108E-01-1.90698E-02-1.52325E+00 1.14032E-13 4.32019E-13
 -1      2028 2.56708E+01-7.52713E-01-7.31716E-04-1.86859E+00 1.49034E-13 4.01488E-13
 -1      2029 2.59204E+01-5.12838E-01 2.37083E-02-1.14666E-01 8.53085E-14 1.57668E-13
 -1      2030 2.57310E+01-6.05336E-01-2.04399E-02-5.34228E-01 8.24826E-14 3.52314E-13
 -1      2031 2.56537E+01-8.97573E-01-1.04935E-02-6.82898E-01 1.75235E-13 3.68978E-13
 -1      2032 2.54415E+01-2.94698E-01 1.05967E-02 5.90479E-01-5.48528E-14 2.08167E-17
 -1      2033 2.55735E+01-4.07783E-01-1.63716E-02 2.95960E-01 1.91843E-14 1.36306E-14
 -1      2034 2.52223E+01-6.60847E-01-1.41912E-02 3.37566E-01 1.10283E-13 2.04409E-13
 -1      2035 2.47207E+01-1.09426E-01 6.18461E-04 9.34340E-01-5.68382E-14-2.37865E-13
 -1      2036 2.50530E+01-1.92123E-01-1.02668E-02 7.85880E-01-8.31106E-14-1.06613E-13
 -1      2037 2.45834E+01-3.41742E-01-1.08280E-02 9.53836E-01-3.00324E-14-9.25614E-14
 -1      2038 2.39304E+01 5.97288E-03-3.99069E-03 1.01550E+00 3.04787E-14 1.80030E-14
 -1      2039 2.43478E+01-3.98390E-02-4.40702E-03 9.75127E-01 2.58829E-14-1.17510E-13
 -1      2040 2.38795E+01-9.77855E-02-6.08412E-03 1.20406E+00-1.47157E-14-8.14140E-14
 -1      2041 2.31728E+01 6.23874E-02-4.91052E-03 9.48096E-01-8.29208E-14 1.05354E-13
 -1      2042 2.35959E+01 4.36469E-02 9.08671E-05 9.70058E-01-1.61298E-14 1.32052E-13
 -1      2043 2.31926E+01 4.40319E-02-2.47579E-03 1.21239E+00-5.47360E-14 2.31364E-13
 -1      2044 2.24993E+01 8.14404E-02-4.20658E-03 8.15858E-01 9.96690E-14 4.35199E-14
 -1      2045 2.28840E+01 7.84386E-02 2.88182E-03 8.66001E-01-2.12139E-14 5.85938E-14
 -1      2046 2.25666E+01 1.07502E-01-5.57341E-04 1.09334E+00 5.17982E-14 2.33040E-13
 -1      2047 2.19284E+01 8.07858E-02-3.08378E-03 6.68155E-01-1.70428E-14 1.57759E-13
 -1      2048 2.22565E+01 8.53724E-02 4.19252E-03 7.26011E-01 8.79574E-14 1.69525E-13
 -1      2049 2.20216E+01 1.24100E-01 1.26628E-04 9.24710E-01 5.04050E-14 2.81613E-13
 -1      2050 2.14607E+01 7.14978E-02-2.05789E-03 5.29614E-01-2.37159E-13 2.10990E-13
 -1      2051 2.17289E+01 7.88959E-02 4.49353E-03 5.84752E-01-1.56217E-13 1.20295E-13
 -1      2052 2.15632E+01 1.17268E-01 1.80321E-04 7.50605E-01-1.25866E-13 3.77754E-13
 -1      2053 2.10868E+01 5.95782E-02-1.27437E-03 4.10130E-01-1.40023E-14 3.14310E-13
 -1      2054 2.12999E+01 6.73432E-02 4.21931E-03 4.58189E-01-1.66580E-13 2.64719E-13
 -1      2055 2.11878E+01 1.01040E-01 6.30845E-06 5.92255E-01-1.82205E-13 1.89761E-13
 -1      2056 2.07940E+01 4.79013E-02-7.26544E-04 3.11869E-01 3.46789E-14 5.37303E-13
 -1      2057 2.09595E+01 5.49502E-02 3.68167E-03 3.51721E-01-3.52303E-14 4.35140E-13
 -1      2058 2.08870E+01 8.27253E-02-1.91766E-04 4.57539E-01-1.08505E-13 3.91185E-13
 -1      2059 2.05684E+01 3.76379E-02-3.63212E-04 2.33420E-01 1.65569E-14 6.21077E-13
 -1      2060 2.06947E+01 4.35992E-02 3.07023E-03 2.65467E-01 1.06863E-13 6.67361E-13
 -1      2061 2.06504E+01 6.56541E-02-3.36755E-04 3.47417E-01-2.57188E-14 6.37116E-13
 -1      2062 2.03974E+01 2.91169E-02-1.30648E-04 1.72013E-01 1.01411E-13 5.32394E-13
 -1      2063 2.04922E+01 3.39553E-02 2.48512E-03 1.97267E-01 1.84245E-14 5.29529E-13
 -1      2064 2.04673E+01 5.10560E-02-4.15076E-04 2.59697E-01 6.81848E-14 6.00434E-13
 -1      2065 2.02698E+01 2.22957E-02 1.49371E-05 1.24592E-01 3.90183E-14 3.57680E-13
 -1      2066 2.03398E+01 2.61124E-02 1.97082E-03 1.44226E-01 7.04705E-14 4.36455E-13
 -1      2067 2.03280E+01 3.91615E-02-4.38203E-04 1.91046E-01 1.33248E-13 5.34832E-13
 -1      2068 2.01763E+01 1.70027E-02 1.04643E-04 8.82789E-02-7.56885E-14 2.98196E-14
 -1      2069 2.02270E+01 1.99364E-02 1.54011E-03 1.03429E-01 8.20860E-14 2.54266E-13
 -1      2070 2.02236E+01 2.97918E-02-4.23597E-04 1.37965E-01 1.91240E-13 3.11131E-13
 -1      2071 2.01093E+01 1.30397E-02 1.57219E-04 6.05168E-02 1.49734E-13 6.07126E-14
 -1      2072 2.01451E+01 1.52292E-02 1.18918E-03 7.22137E-02 6.12589E-14-8.90945E-14
 -1      2073 2.01468E+01 2.26398E-02-3.89223E-04 9.71989E-02 9.08891E-14 9.86513E-14
 -1      2074 2.00628E+01 1.01882E-02 1.76603E-04 3.91118E-02 3.27314E-14 8.07159E-14
 -1      2075 2.00872E+01 1.17797E-02 9.04994E-04 4.82647E-02 1.45001E-13 2.13605E-13
 -1      2076 2.00915E+01 1.73812E-02-3.47175E-04 6.58755E-02 6.15491E-14 3.25144E-13
 -1      2077 2.00322E+01 8.16199E-03 1.55530E-04 2.23632E-02 7.32893E-14 6.24677E-14
 -1      2078 2.00477E+01 9.31410E-03 6.64387E-04 2.96828E-02 8.10170E-14 1.63721E-13
 -1      2079 2.00530E+01 1.35958E-02-3.16802E-04 4.16172E-02 6.52378E-14 2.11152E-13
 -1      2080 2.00137E+01 6.54533E-03 2.24207E-04 9.34976E-03 1.14759E-14 5.19788E-14
 -1      2081 2.00223E+01 7.41524E-03 4.40001E-04 1.51081E-02-5.31910E-14 4.21776E-14
 -1      2082 2.00272E+01 1.08349E-02-2.60571E-04 2.26807E-02-1.63716E-14 1.81066E-13
 -1      2083 2.00055E+01 4.55400E-03 2.91232E-04 2.23841E-03 2.08322E-14 3.94073E-13
 -1      2084 2.00096E+01 6.19369E-03 2.76823E-04 6.11983E-03 7.33844E-14 2.61350E-13
 -1      2085 2.00132E+01 9.05038E-03-1.52208E-04 1.07531E-02-5.90189E-14 4.86871E-13
 -1      2086 2.00065E+01 6.24767E-03 6.15319E-05 4.05053E-03 8.39633E-14 5.25939E-13
 -1      2087 2.00028E+01 5.59749E-02-1.80195E-04 3.15879E-02 6.26087E-14-9.78086E-14
 -1      2088 2.00052E+01 4.58635E-02 3.16508E-04 2.92447E-02-6.30517E-14-5.02079E-14
 -1      2089 2.00071E+01 3.45278E-02-3.48326E-05 2.50523E-02-7.58115E-14-4.32835E-14
 -1      2090 2.00087E+01 2.61861E-02 3.18695E-04 2.04127E-02 1.76334E-14 1.40817E-13
 -1      2091 2.00092E+01 4.69723E-02-6.80476E-05 3.62656E-02-2.12566E-13-4.74442E-14
 -1      2092 2.00084E+01 1.79995E-02 7.97225E-05 1.46998E-02-2.69893E-14 3.07344E-14
 -1      2093 2.00082E+01 1.21808E-02 2.32011E-04 9.69541E-03 5.26351E-14 2.14068E-13
 -1      2094 2.00116E+01 1.39403E-02 1.28861E-04 1.29146E-02-9.01059E-14 3.30606E-13
 -1      2095 2.00121E+01 2.77651E-02-2.14650E-04 2.49445E-02-2.15530E-13 9.54781E-14
 -1      2096 1.99981E+01 7.77369E-02-3.17424E-04 3.22573E-02-1.73618E-14-5.73698E-13
 -1      2097 2.00005E+01 6.74173E-02 1.75014E-04 3.25845E-02 1.52590E-13-3.84924E-13
 -1      2098 2.00027E+01 6.95818E-02 8.84897E-05 4.18521E-02 7.46254E-15-2.22463E-13
 -1      2099 1.99938E+01 9.72742E-02-4.22074E-04 2.69969E-02-2.33909E-14 1.38971E-13
 -1      2100 1.99959E+01 8.81513E-02-2.02213E-05 2.98662E-02 3.53920E-14-9.47148E-14
 -1      2101 1.99958E+01 9.13530E-02 2.55853E-04 4.00766E-02 1.77908E-13-2.48250E-13
 -1      2102 1.99908E+01 1.11187E-01-4.66647E-04 1.68913E-02-2.07680E-13 4.90551E-14
 -1      2103 1.99922E+01 1.05020E-01-2.17065E-04 2.16857E-02-1.74916E-13 2.76812E-13
 -1      2104 1.99899E+01 1.09470E-01 4.00239E-04 3.12011E-02-5.44657E-14 5.30437E-14
 -1      2105 1.99895E+01 1.17359E-01-4.41902E-04 3.88232E-03-1.15008E-13 5.72623E-14
 -1      2106 1.99900E+01 1.15198E-01-3.72456E-04 9.68142E-03-2.04341E-13-4.66826E-14
 -1      2107 1.99861E+01 1.21210E-01 4.90333E-04 1.69295E-02-2.17220E-13 4.59951E-14
 -1      2108 1.99901E+01 1.14911E-01-3.48903E-04-9.69430E-03 2.27158E-13 5.39671E-13
 -1      2109 1.99895E+01 1.17106E-01-4.60961E-04-3.93851E-03 5.33316E-14 4.34893E-13
 -1      2110 1.99848E+01 1.24961E-01 5.13563E-04-1.47858E-04-1.33132E-13 4.26708E-13
 -1      2111 1.99923E+01 1.04315E-01-2.02520E-04-2.14754E-02-1.24772E-13-2.23682E-13
 -1      2112 1.99910E+01 1.10477E-01-4.71124E-04-1.67830E-02 9.04267E-15 2.35413E-13
 -1      2113 1.99862E+01 1.20271E-01 4.67556E-04-1.70741E-02-2.85940E-14 1.38108E-13
 -1      2114 1.99959E+01 8.76450E-02-1.76641E-05-2.93179E-02 8.84839E-14-6.98707E-13
 -1      2115 1.99939E+01 9.65069E-02-4.15556E-04-2.65511E-02 2.72325E-14-3.83897E-13
 -1      2116 1.99901E+01 1.08017E-01 3.72406E-04-3.09015E-02-3.04013E-14-2.89461E-13
 -1      2117 2.00004E+01 6.69162E-02 1.66499E-04-3.20575E-02 2.80118E-13 3.30485E-13
 -1      2118 1.99980E+01 7.72922E-02-3.06776E-04-3.16771E-02 3.82624E-13-5.39571E-13
 -1      2119 1.99957E+01 8.98993E-02 2.19050E-04-3.94294E-02 3.81087E-13-3.28661E-13
 -1      2120 2.00048E+01 4.54757E-02 2.96852E-04-2.89612E-02 1.28414E-13 1.18942E-13
 -1      2121 2.00025E+01 5.55268E-02-1.70091E-04-3.11431E-02 2.10786E-13 2.96904E-13
 -1      2122 2.00023E+01 6.82150E-02 4.79137E-05-4.12041E-02 4.38064E-13 1.65365E-13
 -1      2123 2.00079E+01 2.54514E-02 3.38054E-05-2.05404E-02-2.12835E-13-2.11068E-14
 -1      2124 2.00067E+01 3.44236E-02-1.08613E-05-2.49726E-02-8.13264E-14-6.60027E-14
 -1      2125 2.00086E+01 4.60644E-02-3.72227E-05-3.58714E-02 1.48297E-13-8.12901E-14
 -1      2126 1.08058E+01-5.47977E+00-1.73569E-01 6.17050E+00-8.48210E-14 1.39007E-13
 -1      2127 7.14548E+00-6.82945E+00-3.88302E-01 5.05348E+00-1.21070E-13-7.75491E-14
 -1      2128 7.45597E-01-6.10091E+00-2.35141E-01 5.29580E-01-2.16327E-13 5.69544E-14
 -1      2129 7.45768E-01-6.26423E+00-2.72098E-01-1.35221E+00-1.65479E-13 3.62488E-13
 -1      2130 3.66565E+00-6.65018E+00-3.26507E-01 4.03317E+00-1.62315E-13 1.40998E-14
 -1      2131 1.62407E+00-6.95065E+00-3.62728E-01 2.57419E+00-2.65982E-13 4.19109E-14
 -1      2132 1.95929E+01-3.85266E+00-5.81896E-02 6.63157E+00 3.10862E-14 2.45692E-13
 -1      2133 1.43726E+01-5.57078E+00-3.55351E-01 5.87092E+00-1.08580E-13 2.74392E-13
 -1      2134 1.52208E+01-5.89948E+00-5.73093E-02 6.56143E+00-2.87714E-13 1.27297E-13
 -1      2135 2.98482E+01-5.93514E-01 2.06700E-01 5.21366E+00 1.58429E-13 9.48130E-14
 -1      2136 2.46012E+01-2.78780E+00-1.54064E-01 4.97923E+00 8.30447E-14 1.14131E-13
 -1      2137 1.95352E+01 4.02448E+00-2.57165E-02-1.68074E+00-5.56534E-14-3.08632E-13
 -1      2138 1.96610E+01 3.94874E+00-2.41401E-02-1.93552E+00-7.52037E-14-2.96603E-13
 -1      2139 1.99813E+01 3.26022E+00-7.87056E-03-1.88654E+00-8.99463E-14-2.68067E-13
 -1      2140 1.97061E+01 3.59727E+00-9.10543E-03-1.49511E+00-5.41574E-14-2.91515E-13
 -1      2141 3.86793E+01 5.85130E+00 1.20351E-01 1.47703E-01 3.87301E-13-2.61513E-13
 -1      2142 3.80777E+01 4.71037E+00 2.97078E-01 1.58903E+00 4.41924E-13-1.15130E-13
 -1      2143 4.14388E+01 7.36936E+00 4.83220E-01-2.60700E-01 3.08642E-13-2.00895E-13
 -1      2144 4.02081E+01 7.35354E+00 3.06987E-01 4.17502E-01 3.89466E-13-1.25899E-13
 -1      2145 3.93977E+01 5.45576E+00 3.25575E-01-1.71826E+00 4.79006E-13-1.97009E-13
 -1      2146 4.07574E+01 6.33753E+00 3.28382E-01-5.64533E-01 3.73479E-13-1.14020E-13
 -1      2147 3.36550E+01 1.97459E+00 4.41467E-02-3.37897E+00 3.47875E-13-2.84883E-13
 -1      2148 3.80398E+01 3.60653E+00 3.49349E-01-2.69139E+00 4.36387E-13-1.17906E-13
 -1      2149 2.59758E+01-2.15876E+00-1.63535E-01-4.75846E+00 1.67533E-13-3.73701E-13
 -1      2150 3.12201E+01-7.98253E-02 2.06109E-01-4.78958E+00 2.48024E-13-3.50386E-13
 -1      2151 1.69357E+01-5.03682E+00-3.11305E-01-5.90555E+00 1.05249E-13-4.64739E-13
 -1      2152 2.19591E+01-3.21047E+00 6.07852E-03-6.43586E+00 1.50990E-13-4.36595E-13
 -1      2153 9.24112E+00-6.39054E+00-2.81173E-01-5.72879E+00 1.36002E-14-5.64077E-13
 -1      2154 1.31106E+01-5.12928E+00-1.32506E-01-6.48512E+00 8.72635E-14-5.67713E-13
 -1      2155 1.77869E+01-5.76368E+00-5.12829E-02-6.38284E+00-1.01696E-13-4.05342E-13
 -1      2156 2.30701E+00-7.08639E+00-4.13540E-01-2.96550E+00-1.23984E-13-4.22828E-13
 -1      2157 5.01862E+00-6.00311E+00-2.36425E-01-4.71831E+00-7.38298E-15-4.57523E-13
 -1      2158 3.34954E-01-6.99673E+00-3.60522E-01 3.55259E-01-1.35558E-13-3.39562E-13
 -1      2159 7.61878E-01-6.63075E+00-3.01665E-01-1.25908E+00-4.59910E-14-3.82361E-13
 -1      2160 2.33089E+00-6.07473E+00-2.43932E-01 3.67098E+00-1.04139E-13-3.92519E-13
 -1      2161 8.17343E-01-7.21163E+00-4.02402E-01 1.98094E+00-8.35998E-14-3.55993E-13
 -1      2162 1.94720E+00-4.29509E+00-1.45587E-01 1.39535E+00 7.19980E-14-3.06477E-13
 -1      2163 8.77976E+00-5.37277E+00-1.68736E-01 6.29506E+00-2.79887E-13-1.52885E-13
 -1      2164 5.64627E+00-6.52500E+00-3.12243E-01 5.21669E+00-1.38556E-13-2.93487E-13
 -1      2165 1.64439E+01-3.29795E+00-4.87393E-02 7.13980E+00-3.32290E-13-1.75027E-13
 -1      2166 1.19260E+01-5.30942E+00-3.58360E-01 6.17039E+00-3.46168E-13-2.19352E-13
 -1      2167 2.56226E+01-1.63290E+00-4.12792E-02 5.84109E+00-3.60156E-13-4.40759E-14
 -1      2168 2.05286E+01-2.85531E+00-1.72219E-01 6.19831E+00-3.65152E-13-1.09246E-13
 -1      2169 3.39481E+01 2.73670E+00 3.06642E-01 4.15848E+00-2.90271E-13 1.56375E-13
 -1      2170 2.96122E+01 7.03001E-01 2.11353E-02 4.23427E+00-3.59268E-13 8.70415E-14
 -1      2171 3.75081E+01 5.61050E+00 1.95348E-01 1.49148E+00-3.09253E-13 2.78111E-13
 -1      2172 3.52180E+01 4.26909E+00 1.31414E-01 2.67497E+00-2.41446E-13 1.95677E-13
 -1      2173 4.02229E+01 7.34164E+00 3.92106E-01-7.28726E-02-1.18294E-13 1.41095E-13
 -1      2174 3.81882E+01 7.13848E+00 1.33311E-01 9.18687E-01-2.51188E-13 1.37196E-13
 -1      2175 3.92229E+01 6.49155E+00 2.61883E-01-1.94778E+00-4.55747E-14 1.70863E-13
 -1      2176 4.07438E+01 6.91321E+00 3.46577E-01-6.21555E-01-7.41629E-14 8.62643E-14
 -1      2177 3.45033E+01 3.87499E+00 6.84327E-02-3.02610E+00-1.23485E-13-7.99361E-14
 -1      2178 3.79547E+01 5.18470E+00 3.58904E-01-2.40586E+00-9.76996E-14 6.81122E-14
 -1      2179 2.85790E+01 4.24178E-01-5.16843E-02-4.84966E+00-3.06311E-13 5.04041E-14
 -1      2180 3.28344E+01 2.09470E+00 2.26638E-01-4.49176E+00-1.58859E-13-5.45120E-14
 -1      2181 2.11722E+01-2.69304E+00-1.84057E-01-6.12148E+00-3.43503E-13 5.76761E-14
 -1      2182 2.57483E+01-8.81912E-01 1.33862E-01-6.32046E+00-3.85247E-13-3.11418E-14
 -1      2183 1.36498E+01-5.16746E+00-2.68013E-01-6.41507E+00-7.29972E-14 3.80307E-13
 -1      2184 1.78762E+01-3.48942E+00 7.09720E-03-7.09844E+00-1.97287E-13 1.96315E-13
 -1      2185 6.05374E+00-6.73565E+00-4.23123E-01-5.18364E+00-2.04781E-13 3.30444E-13
 -1      2186 9.44291E+00-5.14187E+00-1.67667E-01-6.43219E+00-2.43694E-13 5.26298E-13
 -1      2187 1.67869E+00-6.99538E+00-3.67557E-01-3.17180E+00 9.58122E-14 6.69020E-13
 -1      2188 3.53716E+00-6.58201E+00-3.18547E-01-4.39406E+00-1.01918E-13 4.31710E-13
 -1      2189 6.61970E+00-5.41786E+00-1.78768E-01-5.94894E+00-9.43690E-16 3.80002E-13
 -1      2190 3.70668E+01 2.99521E+00 3.01420E-01 3.31653E+00 3.88696E-13-3.41949E-14
 -1      2191 3.24285E+01 1.42658E+00 2.43629E-02 3.93272E+00 2.48593E-13 5.57332E-14
 -1      2192 2.41477E+01-4.74018E+00 2.43628E-02 5.00392E+00-8.88178E-14-8.57647E-15
 -1      2193 2.07198E+01 1.10891E+00-2.02952E-02-1.60103E+00-1.36311E-13-7.93480E-14
 -1      2194 3.51319E+01 3.41539E+00 2.88740E-01-1.09285E-01 3.07976E-13-3.94795E-13
 -1      2195 2.06196E+01 1.33099E+00-1.89813E-02-1.65746E+00-1.29985E-13-1.22263E-13
 -1      2196 7.50646E+00-5.57050E+00-1.44792E-01 5.61229E+00-2.76668E-13-3.38063E-14
 -1      2197 2.53405E+00-4.49251E+00-1.35010E-01 1.89031E+00-4.10616E-13 3.03091E-14
 -1      2198 2.00097E+01 2.16230E-02 1.34883E-04-1.87313E-02-1.84400E-13-2.45992E-14
 -1      2199 2.57566E+00-4.48884E+00-1.50741E-01-2.70004E+00-1.26232E-13 3.94129E-13
 -1      2200 3.16286E+01-1.06246E+00 1.52010E-01 2.09045E+00 9.49241E-14-1.29785E-13
 -1      2201 1.39120E+01-5.43743E+00-2.80110E-02-7.10301E+00 3.61933E-14 2.64518E-13
 -1      2202 2.16980E+01-4.57304E+00-5.59212E-03-6.07103E+00-1.87073E-14-7.02216E-15
 -1      2203 2.82847E+01-1.74845E+00 1.21977E-01-3.88937E+00-2.73059E-13 2.58127E-14
 -1      2204 3.27846E+01 2.21315E+00 1.98211E-01-1.31779E+00-1.04264E-13-1.39222E-13
 -1      2205 3.53628E+01 6.23481E+00 2.97464E-01-5.83458E-02-1.88738E-14 5.55112E-17
 -1      2206 3.59627E+01 8.26059E+00 3.31383E-01-8.13371E-02-5.62328E-14 4.52555E-14
 -1      2207 3.48024E+01 6.72770E+00 2.02897E-01-2.04775E-01-1.93290E-13 2.05252E-13
 -1      2208 3.30571E+01 2.87889E+00 1.90610E-01 8.93632E-01-2.62096E-13 3.96017E-13
 -1      2209 2.82986E+01-1.28903E+00 9.73350E-02 4.16371E+00-2.89879E-13 1.02085E-13
 -1      2210 2.67995E+01-3.18138E+00 1.42880E-01 3.90481E+00-2.07612E-13 2.22933E-13
 -1      2211 2.95412E+01-1.45080E+00-1.87969E-01 2.05932E+00-2.67160E-13 3.56548E-13
 -1      2212 2.08087E+01-4.48321E+00 7.76155E-02 6.37897E+00-2.16605E-13-1.74305E-14
 -1      2213 5.71587E+00-4.97143E+00-1.08600E-01 5.29939E+00 8.12683E-14-3.00981E-13
 -1      2214 8.61862E+00-5.70196E+00-1.22475E-01-5.68340E+00-6.20060E-14-5.22471E-13
 -1      2215 1.23126E+01-5.32369E+00-1.22972E-01-6.65801E+00-1.65978E-13-4.34375E-13
 -1      2216 8.54370E+00-4.17976E+00 1.33136E-01-5.75863E+00-1.43607E-13-4.78811E-13
 -1      2217 2.61114E+01-4.22773E+00 5.52286E-02-4.37453E+00-4.82947E-14-1.70197E-13
 -1      2218 3.24927E+01-4.06557E-01 1.73186E-01-1.38881E+00 1.57135E-13-3.17524E-14
 -1      2219 3.59574E+01 4.33099E+00 3.14272E-01 2.64366E-01 3.74090E-13 1.11855E-13
 -1      2220 3.71873E+01 6.53424E+00 1.64310E-01-2.84931E-01 3.99125E-13-3.12278E-13
 -1      2221 3.34215E+01 5.58698E+00-4.36134E-03-1.34814E+00 2.68674E-13-4.97075E-13
 -1      2222 3.40353E+01 7.03505E+00-8.13334E-02-7.03789E-01 2.96208E-13-3.36842E-13
 -1      2223 3.72533E+01 7.34625E+00 3.20217E-01 3.41869E-01 3.48332E-13-4.56302E-14
 -1      2224 3.11588E+00-4.44452E+00-1.06672E-01-2.71352E+00-8.44047E-14-3.97404E-13
 -1      2225 1.28770E+01-5.52897E+00-1.06526E-01 6.99102E+00-7.39409E-14-1.18041E-13
 -1      2226 2.01530E+01 5.13380E-01 4.14266E-03 6.53176E-01 1.38700E-13 2.20411E-13
 -1      2227 2.04137E+01 7.04826E-01 2.08424E-02 9.47714E-01 1.39081E-13 2.42065E-13
 -1      2228 1.95686E+01 3.55119E+00-1.12530E-02-5.76086E-01 5.13480E-14-2.34492E-13
 -1      2229 1.96053E+01 3.50311E+00-1.03856E-02-7.57097E-01 2.14964E-14-2.49695E-13
 -1      2230 1.96530E+01 3.41060E+00-1.29619E-02-9.18520E-01 1.14045E-14-2.64955E-13
 -1      2231 1.97146E+01 3.32699E+00-1.27658E-02-1.10554E+00-1.73582E-14-2.71884E-13
 -1      2232 1.97949E+01 3.07141E+00 4.23277E-04-7.68816E-01 2.15091E-14-2.41772E-13
 -1      2233 1.95196E+01 3.63877E+00-9.61902E-03 9.69118E-02 1.30972E-13-1.94829E-13
 -1      2234 1.95187E+01 3.63962E+00-9.62840E-03-7.82558E-02 1.07210E-13-2.10662E-13
 -1      2235 1.95472E+01 3.59711E+00-9.66246E-03 4.33907E-01 1.58457E-13-1.88154E-13
 -1      2236 1.95288E+01 3.62090E+00-1.02051E-02 2.57100E-01 1.44164E-13-1.92579E-13
 -1      2237 1.96825E+01 3.27016E+00-5.74757E-04 1.63790E-01 1.21688E-13-1.81425E-13
 -1      2238 1.96117E+01 3.49550E+00-1.04957E-02 7.70359E-01 1.80469E-13-1.50722E-13
 -1      2239 1.95739E+01 3.54472E+00-1.13379E-02 5.92151E-01 1.72623E-13-1.75368E-13
 -1      2240 1.97216E+01 3.20292E+00-2.14126E-04 4.72248E-01 1.49737E-13-1.76357E-13
 -1      2241 1.97247E+01 3.31434E+00-1.27907E-02 1.11850E+00 2.10734E-13-8.38600E-14
 -1      2242 1.96609E+01 3.40064E+00-1.30486E-02 9.31346E-01 1.91655E-13-1.22317E-13
 -1      2243 1.98020E+01 3.06230E+00 4.75069E-04 7.79894E-01 1.80878E-13-1.29635E-13
 -1      2244 1.99038E+01 3.02027E+00-1.79786E-02 1.46347E+00 2.30320E-13-2.07742E-14
 -1      2245 1.98047E+01 3.16480E+00-1.53498E-02 1.27381E+00 2.07417E-13-5.73725E-14
 -1      2246 1.99342E+01 2.82790E+00 2.08465E-03 1.08124E+00 1.95974E-13-6.71759E-14
 -1      2247 2.01776E+01 2.55248E+00-2.82462E-02 1.76884E+00 2.28224E-13 5.58616E-14
 -1      2248 2.00293E+01 2.79494E+00-1.72034E-02 1.59387E+00 2.24196E-13 1.32117E-14
 -1      2249 2.01290E+01 2.46736E+00 5.92464E-03 1.34594E+00 2.09470E-13-3.52062E-15
 -1      2250 1.98920E+01 2.79951E-01 5.31043E-03 2.50718E-01 1.01969E-13 1.78623E-13
 -1      2251 2.00428E+01 3.77116E-01 2.02568E-02 4.12839E-01 1.25459E-13 2.09383E-13
 -1      2252 2.02231E+01 6.45956E-01-2.54775E-03 6.71191E-01 1.43992E-13 1.38580E-13
 -1      2253 2.04056E+01 8.61826E-01 1.25467E-02-9.72852E-01-9.18363E-14-1.49414E-13
 -1      2254 2.02030E+01 6.39625E-01-3.36500E-03-6.59690E-01-1.00630E-13-1.41541E-13
 -1      2255 3.26409E+01 2.91306E+00-1.51045E-01-1.72386E+00 2.30899E-13-5.77094E-13
 -1      2256 3.26203E+01 1.05466E+00-2.74225E-02-8.21747E-01 1.65548E-13-5.15366E-13
 -1      2257 2.01399E+01 4.83712E-01 1.55596E-02-4.36586E-01-9.33724E-14-1.10265E-13
 -1      2258 2.00104E+01 3.62699E-01 6.93411E-04-2.58655E-01-7.83249E-14-1.15882E-13
 -1      2259 2.02601E+01 7.65058E-01-1.61587E-03-6.51746E-01-8.35551E-14-1.63463E-13
 -1      2260 1.99537E+01 2.80847E-01 1.07471E-02-1.12518E-01-7.83604E-14-8.69253E-14
 -1      2261 1.98884E+01 2.13611E-01 1.44387E-03-6.12502E-03-5.69341E-14-9.75131E-14
 -1      2262 2.01096E+01 4.42003E-01-4.21784E-03-2.53352E-01-7.10248E-14-1.35823E-13
 -1      2263 1.98536E+01 1.68107E-01 6.40684E-03 8.81216E-02-4.52038E-14-1.07572E-13
 -1      2264 1.98363E+01 1.30679E-01 1.68322E-03 1.53781E-01-3.70252E-14-1.12432E-13
 -1      2265 2.00061E+01 2.64017E-01-4.07396E-03 8.24178E-03-6.55852E-14-1.06673E-13
 -1      2266 1.98231E+01 1.05427E-01 3.63068E-03 2.15545E-01-3.61555E-14-1.22598E-13
 -1      2267 1.98394E+01 8.55511E-02 1.82678E-03 2.58175E-01-4.06866E-14-1.24604E-13
 -1      2268 1.99537E+01 1.63850E-01-3.41131E-03 1.78975E-01-5.04851E-14-1.03017E-13
 -1      2269 1.98443E+01 7.25170E-02 1.94415E-03 3.00932E-01-4.99617E-14-1.18400E-13
 -1      2270 1.98843E+01 6.35046E-02 1.95407E-03 3.31271E-01-3.23166E-14-1.25884E-13
 -1      2271 1.99446E+01 1.09703E-01-2.69182E-03 2.94052E-01-5.25966E-14-1.11587E-13
 -1      2272 1.99039E+01 5.81177E-02 9.23391E-04 3.64042E-01-8.61840E-15-1.35729E-13
 -1      2273 1.99615E+01 5.58502E-02 2.07113E-03 3.88795E-01-1.75744E-14-1.13443E-13
 -1      2274 1.99701E+01 8.38904E-02-2.11120E-03 3.77368E-01-3.50962E-14-1.25132E-13
 -1      2275 1.99932E+01 5.50384E-02 3.31415E-04 4.17483E-01-7.40918E-14-1.09135E-13
 -1      2276 2.00649E+01 5.64783E-02 2.15295E-03 4.40672E-01-1.23365E-13-1.27415E-13
 -1      2277 2.00233E+01 7.55536E-02-1.71059E-03 4.44921E-01-5.93548E-14-6.76094E-14
 -1      2278 2.01074E+01 5.77109E-02 3.78114E-05 4.68746E-01-1.11267E-13-1.19377E-13
 -1      2279 2.01914E+01 6.01131E-02 2.14278E-03 4.92248E-01-9.07956E-14-1.18736E-13
 -1      2280 2.00998E+01 7.67438E-02-1.47255E-03 5.06836E-01-9.96180E-14-4.27779E-14
 -1      2281 2.02444E+01 6.08626E-02-2.73665E-05 5.20984E-01-9.12718E-14-1.22141E-13
 -1      2282 2.03395E+01 6.12838E-02 1.95206E-03 5.44621E-01-6.34383E-14-1.00370E-13
 -1      2283 2.01975E+01 8.03484E-02-1.37092E-03 5.68349E-01-8.99137E-14-4.19842E-14
 -1      2284 2.04037E+01 5.86746E-02 1.04743E-04 5.73029E-01-1.17099E-14-6.27995E-14
 -1      2285 2.05089E+01 5.36491E-02 1.46194E-03 5.94376E-01 4.96913E-14-1.09099E-14
 -1      2286 2.03165E+01 7.88329E-02-1.38799E-03 6.30014E-01-8.72451E-15-2.38807E-14
 -1      2287 2.05859E+01 4.42509E-02 4.29116E-04 6.18896E-01 5.44838E-14-5.23108E-14
 -1      2288 2.06992E+01 2.96610E-02 5.30421E-04 6.32943E-01 1.69635E-14-3.95425E-14
 -1      2289 2.04581E+01 6.34450E-02-1.51861E-03 6.87364E-01 3.67257E-14-1.80755E-15
 -1      2290 2.07914E+01 9.52388E-03 9.50991E-04 6.47003E-01-1.70445E-14-2.57651E-14
 -1      2291 2.09095E+01-1.91520E-02-9.84915E-04 6.45861E-01 1.87875E-14-2.40026E-14
 -1      2292 2.06255E+01 2.39495E-02-1.76364E-03 7.30181E-01 1.40458E-14 3.74731E-15
 -1      2293 2.10196E+01-5.39735E-02 1.65665E-03 6.39524E-01 2.21500E-14-3.85885E-14
 -1      2294 2.11369E+01-1.00677E-01-3.17686E-03 6.12517E-01-3.01237E-14-3.85195E-15
 -1      2295 2.08224E+01-5.06509E-02-2.10630E-03 7.41710E-01 1.17334E-14 2.66867E-14
 -1      2296 2.12669E+01-1.52710E-01 2.44819E-03 5.72615E-01-6.78343E-14 5.60038E-14
 -1      2297 2.13749E+01-2.18569E-01-5.98823E-03 5.07380E-01-8.47549E-14 9.31166E-14
 -1      2298 2.10528E+01-1.69511E-01-2.46330E-03 6.98363E-01-1.46775E-14 5.00770E-14
 -1      2299 2.15242E+01-2.86139E-01 3.06635E-03 4.18916E-01-7.79008E-14 1.49791E-13
 -1      2300 2.16108E+01-3.65565E-01-9.03601E-03 3.04401E-01-6.42997E-14 1.35232E-13
 -1      2301 2.13179E+01-3.34292E-01-2.60617E-03 5.71085E-01-4.62270E-14 1.53717E-13
 -1      2302 2.17718E+01-4.38509E-01 2.97882E-03 1.54551E-01-7.47933E-14 1.04650E-13
 -1      2303 2.18215E+01-5.13954E-01-1.13761E-02-1.30927E-02 2.10975E-14 1.02801E-13
 -1      2304 2.16112E+01-5.29399E-01-2.04809E-03 3.30380E-01-7.11870E-14 1.45930E-13
 -1      2305 2.19743E+01-5.68964E-01 1.40648E-03-2.26669E-01 1.15623E-13 7.58810E-14
 -1      2306 2.19706E+01-6.07040E-01-1.12999E-02-4.35005E-01 1.21685E-13 7.32369E-14
 -1      2307 2.19101E+01-7.09415E-01-8.36736E-05-4.18719E-02 3.51434E-14 1.50923E-13
 -1      2308 2.20789E+01-6.06749E-01-2.24789E-03-6.90611E-01 6.18099E-14 7.91543E-15
 -1      2309 2.20099E+01-5.62831E-01-6.84878E-03-9.00847E-01 5.59431E-14-9.45312E-14
 -1      2310 2.21660E+01-7.90663E-01 3.86169E-03-5.30509E-01 5.47194E-14 5.35000E-14
 -1      2311 2.20279E+01-4.67099E-01-7.76611E-03-1.13867E+00 8.92140E-14-1.43646E-13
 -1      2312 2.18965E+01-3.06620E-01 2.52966E-03-1.28301E+00 2.78333E-14-1.36351E-13
 -1      2313 2.23045E+01-6.65124E-01 8.84648E-03-1.05652E+00 6.42050E-14-9.73654E-14
 -1      2314 2.17953E+01-1.00155E-01-1.27152E-02-1.40495E+00-1.64864E-14-1.00688E-13
 -1      2315 2.16289E+01 1.62622E-01 1.35106E-02-1.40281E+00-8.36526E-14-6.68773E-14
 -1      2316 2.22529E+01-2.54854E-01 1.13624E-02-1.45707E+00-2.17677E-14-1.37807E-13
 -1      2317 2.14395E+01 4.31733E-01-1.28077E-02-1.30946E+00-5.96575E-14-4.44024E-14
 -1      2318 2.12898E+01 7.06242E-01 1.89497E-02-1.11321E+00-1.68927E-14 2.11094E-15
 -1      2319 2.20036E+01 3.94004E-01 6.53322E-03-1.51436E+00-3.80619E-14-2.78760E-14
 -1      2320 2.11174E+01 9.23322E-01-4.56868E-03-7.78747E-01-8.93252E-14-4.70704E-14
 -1      2321 2.10418E+01 1.07342E+00 1.38127E-02-4.24110E-01-5.60108E-14-7.01675E-14
 -1      2322 2.16756E+01 1.05519E+00-5.30804E-03-1.07617E+00-4.35433E-14-4.74971E-14
 -1      2323 2.10036E+01 1.12028E+00 8.48289E-03 4.69514E-02-2.29912E-14-6.41039E-14
 -1      2324 2.10344E+01 1.05999E+00 9.59066E-04 4.36080E-01-3.27880E-14-6.54858E-17
 -1      2325 2.14812E+01 1.41477E+00-1.30737E-02-2.16058E-01-6.39979E-14-6.57575E-14
 -1      2326 2.11599E+01 9.07762E-01 1.78985E-02 8.51975E-01 9.13332E-14 4.03334E-15
 -1      2327 2.12839E+01 6.72680E-01-1.03067E-02 1.12955E+00 1.62206E-13 4.36231E-14
 -1      2328 2.15620E+01 1.27134E+00-9.97155E-03 7.36753E-01 4.97762E-14-9.06391E-14
 -1      2329 2.14830E+01 4.10865E-01 1.68987E-02 1.33490E+00 8.82901E-14 1.46356E-14
 -1      2330 2.16512E+01 1.28324E-01-1.35999E-02 1.42258E+00 5.59023E-14-3.74926E-14
 -1      2331 2.18594E+01 7.08876E-01 1.96346E-03 1.38959E+00 1.31448E-13-1.10507E-13
 -1      2332 2.18014E+01-1.15916E-01 7.32381E-03 1.38803E+00 6.25260E-14 4.46626E-15
 -1      2333 2.19556E+01-3.27166E-01-1.04375E-02 1.30104E+00 4.52982E-14-2.06211E-14
 -1      2334 2.21684E+01 1.75309E-02 9.67565E-03 1.54643E+00 6.78652E-14-6.80699E-14
 -1      2335 2.19912E+01-4.72301E-01-3.31766E-03 1.10337E+00-9.58999E-14-8.96115E-15
 -1      2336 2.20927E+01-5.64694E-01-4.39513E-03 9.14937E-01-1.80972E-13 4.83965E-14
 -1      2337 2.23167E+01-5.12303E-01 1.02409E-02 1.27568E+00-3.95297E-14 1.20289E-13
 -1      2338 2.20212E+01-6.02234E-01-9.89003E-03 6.60234E-01-2.91499E-13 1.96808E-14
 -1      2339 2.20572E+01-5.93894E-01 3.55476E-04 4.47448E-01-1.84121E-13 6.72691E-14
 -1      2340 2.22598E+01-7.57457E-01 6.08399E-03 7.86031E-01-1.71463E-13 2.55207E-13
 -1      2341 2.19215E+01-5.57230E-01-1.16809E-02 2.14316E-01-1.24915E-13-1.15167E-14
 -1      2342 2.18990E+01-4.92120E-01 2.84952E-03 2.94993E-02-1.09586E-13 9.89694E-14
 -1      2343 2.20512E+01-7.52097E-01 1.48139E-03 2.73351E-01-1.80349E-13 1.51194E-13
 -1      2344 2.17418E+01-4.22239E-01-1.02062E-02-1.44725E-01-6.21521E-14 2.27337E-14
 -1      2345 2.16766E+01-3.40092E-01 3.51239E-03-2.78402E-01-8.81292E-14 4.84039E-14
 -1      2346 2.17704E+01-6.00475E-01-1.41577E-03-1.46520E-01-1.12500E-13 1.70957E-13
 -1      2347 2.15250E+01-2.66876E-01-7.34502E-03-3.87152E-01-5.19422E-14 8.33203E-14
 -1      2348 2.14337E+01-1.92087E-01 3.17299E-03-4.67438E-01-4.22922E-14 1.46929E-13
 -1      2349 2.14788E+01-4.00772E-01-2.57499E-03-4.33717E-01-5.98567E-14 3.21012E-13
 -1      2350 2.13002E+01-1.31110E-01-4.36721E-03-5.20106E-01-1.05600E-13 1.07305E-14
 -1      2351 2.11968E+01-7.39901E-02 2.47177E-03-5.55700E-01-6.94523E-14-1.70704E-13
 -1      2352 2.12098E+01-2.15170E-01-2.69255E-03-5.94636E-01-1.68431E-13 2.47841E-13
 -1      2353 2.10846E+01-3.01772E-02-1.89065E-03-5.66998E-01-2.58581E-14-1.30477E-13
 -1      2354 2.09796E+01 7.90562E-03 1.76521E-03-5.70193E-01 5.89617E-14-7.00413E-14
 -1      2355 2.09763E+01-7.11426E-02-2.38507E-03-6.55599E-01 7.01674E-15 8.94492E-14
 -1      2356 2.08873E+01 3.55365E-02-9.86711E-05-5.54462E-01 1.52081E-13-1.19231E-13
 -1      2357 2.07876E+01 5.74862E-02 1.19613E-03-5.36997E-01 3.45468E-14-3.23346E-14
 -1      2358 2.07796E+01 2.64670E-02-1.99559E-03-6.46875E-01 7.11043E-14 1.00568E-13
 -1      2359 2.07125E+01 7.23073E-02 1.04835E-03-5.05901E-01-3.28682E-14-2.78423E-14
 -1      2360 2.06224E+01 8.23160E-02 7.88904E-04-4.77217E-01-2.12934E-14 7.34493E-14
 -1      2361 2.06164E+01 8.39920E-02-1.65539E-03-5.95146E-01 4.34715E-14 4.79653E-14
 -1      2362 2.05618E+01 8.80905E-02 1.67682E-03-4.39261E-01 1.31009E-13 7.09686E-15
 -1      2363 2.04833E+01 9.01327E-02 5.18264E-04-4.06135E-01 1.89666E-13 1.50674E-13
 -1      2364 2.04822E+01 1.11415E-01-1.38926E-03-5.21011E-01 4.44122E-14 2.27542E-13
 -1      2365 2.04346E+01 9.01191E-02 1.92921E-03-3.66996E-01-6.64453E-15 1.66657E-13
 -1      2366 2.03684E+01 8.73825E-02 3.47728E-04-3.33843E-01-1.38354E-13 1.73455E-13
 -1      2367 2.03727E+01 1.18469E-01-1.18310E-03-4.38946E-01 5.58996E-14 1.76408E-13
 -1      2368 2.03296E+01 8.40686E-02 1.93207E-03-2.96960E-01-1.47321E-13 2.32361E-13
 -1      2369 2.02752E+01 7.88702E-02 2.45135E-04-2.66349E-01-1.71591E-14 2.48317E-13
 -1      2370 2.02840E+01 1.13092E-01-1.01605E-03-3.58275E-01-7.70499E-14 4.03307E-13
 -1      2371 2.02445E+01 7.40058E-02 1.78488E-03-2.33532E-01 1.86249E-14 2.62940E-13
 -1      2372 2.02009E+01 6.79121E-02 1.86667E-04-2.06709E-01 1.66496E-13 3.14989E-13
 -1      2373 2.02130E+01 1.01127E-01-8.72248E-04-2.84380E-01 2.94215E-14 4.96211E-13
 -1      2374 2.01769E+01 6.26500E-02 1.55971E-03-1.78653E-01 2.81110E-13 2.77233E-13
 -1      2375 2.01428E+01 5.66538E-02 1.56662E-04-1.55979E-01 3.23080E-13 1.79589E-13
 -1      2376 2.01566E+01 8.65714E-02-7.41602E-04-2.19837E-01 1.66894E-13 2.98574E-13
 -1      2377 2.01241E+01 5.17070E-02 1.30492E-03-1.32665E-01 2.07822E-13 1.80463E-13
 -1      2378 2.00982E+01 4.63803E-02 1.41508E-04-1.13951E-01 2.28522E-13 1.92948E-13
 -1      2379 2.01125E+01 7.19877E-02-6.16855E-04-1.65350E-01 2.34065E-13 2.31930E-13
 -1      2380 2.00837E+01 4.21213E-02 1.04769E-03-9.49495E-02 3.64411E-13 1.42526E-13
 -1      2381 2.00644E+01 3.77454E-02 1.43518E-04-7.97397E-02 3.16403E-13 2.85200E-13
 -1      2382 2.00783E+01 5.88487E-02-4.99064E-04-1.20452E-01 2.59282E-13 2.11168E-13
 -1      2383 2.00532E+01 3.41759E-02 7.71570E-04-6.44028E-02 4.82507E-14 3.68270E-13
 -1      2384 2.00395E+01 3.09211E-02 2.43605E-04-5.22156E-02-1.26340E-13 3.23938E-13
 -1      2385 2.00518E+01 4.79101E-02-3.70700E-04-8.40794E-02 1.96078E-13 7.87222E-15
 -1      2386 1.96984E+01 9.74980E-02 3.15094E-03-1.37612E-01 4.37757E-14 8.75698E-14
 -1      2387 1.97064E+01 1.25135E-01 7.12596E-03-8.07814E-02 6.30163E-14 1.23365E-13
 -1      2388 1.97177E+01 6.50411E-02 2.78969E-03-2.33296E-01 2.74529E-14 6.90838E-14
 -1      2389 1.96879E+01 7.87369E-02 3.97895E-03-1.96057E-01 3.15379E-14 6.15261E-14
 -1      2390 1.98450E+01 1.27862E-01-3.75304E-03-1.67513E-01 5.98925E-14 6.77377E-15
 -1      2391 1.97877E+01 5.19264E-02 2.78735E-03-3.02212E-01 5.60466E-14 8.59729E-14
 -1      2392 1.97312E+01 5.65407E-02 2.20086E-03-2.74119E-01 3.32046E-14 8.35901E-14
 -1      2393 1.98490E+01 8.78175E-02-3.00012E-03-2.78581E-01 3.74625E-14 1.99019E-14
 -1      2394 1.98974E+01 5.23455E-02 3.04293E-03-3.61491E-01 9.31825E-14 8.59030E-14
 -1      2395 1.98199E+01 5.04132E-02 1.19423E-03-3.35505E-01 7.27172E-14 9.99027E-14
 -1      2396 1.98962E+01 7.33298E-02-2.38618E-03-3.61989E-01 5.15294E-14 2.73533E-14
 -1      2397 2.00415E+01 6.31587E-02 3.51880E-03-4.23606E-01 5.46856E-14 1.20483E-13
 -1      2398 1.99448E+01 5.60761E-02 6.35133E-04-3.94516E-01 1.02095E-13 1.09873E-13
 -1      2399 1.99774E+01 7.69357E-02-1.97588E-03-4.36311E-01 7.81673E-14 6.33511E-14
 -1      2400 2.02191E+01 8.24811E-02 4.18959E-03-4.98237E-01 5.18973E-14 1.37247E-13
 -1      2401 2.01023E+01 7.11152E-02 3.48955E-04-4.61913E-01 5.64608E-14 1.04089E-13
 -1      2402 2.00877E+01 9.45228E-02-1.73846E-03-5.15322E-01 7.16942E-14 9.67011E-14
 -1      2403 2.04326E+01 1.08810E-01 5.01022E-03-5.93099E-01 8.47641E-14 5.05702E-14
 -1      2404 2.02931E+01 9.39238E-02 2.28230E-04-5.46214E-01 8.02614E-14 1.09077E-13
 -1      2405 2.02251E+01 1.23491E-01-1.62232E-03-6.09709E-01 1.06231E-13 1.53176E-14
 -1      2406 2.06868E+01 1.40146E-01 5.88595E-03-7.13982E-01 5.06849E-14 2.72322E-15
 -1      2407 2.05204E+01 1.22886E-01 1.99805E-04-6.54128E-01 4.60530E-14 3.11470E-14
 -1      2408 2.03897E+01 1.61511E-01-1.58232E-03-7.27802E-01 7.94385E-14 1.55601E-14
 -1      2409 2.09878E+01 1.72702E-01 6.62940E-03-8.63838E-01 1.33741E-14 3.50670E-14
 -1      2410 2.07897E+01 1.55350E-01 2.17216E-04-7.90163E-01 5.72732E-14 2.80827E-14
 -1      2411 2.05836E+01 2.05160E-01-1.59946E-03-8.75467E-01 4.52727E-14 5.13022E-14
 -1      2412 2.13417E+01 1.98788E-01 6.90211E-03-1.04050E+00-1.27021E-14 8.38441E-14
 -1      2413 2.11079E+01 1.85996E-01 2.71239E-04-9.55137E-01-6.68519E-15 7.18138E-14
 -1      2414 2.08100E+01 2.47871E-01-1.71181E-03-1.05497E+00-2.43369E-14 6.02160E-15
 -1      2415 2.17547E+01 2.03529E-01 6.15145E-03-1.23234E+00 4.72799E-15 2.90538E-14
 -1      2416 2.14830E+01 2.04200E-01 4.23994E-04-1.14302E+00-7.61132E-15 7.89396E-14
 -1      2417 2.10740E+01 2.76675E-01-2.07096E-03-1.26240E+00 1.27328E-14-2.17539E-14
 -1      2418 2.22324E+01 1.60488E-01 3.57572E-03-1.41106E+00 1.26245E-13-4.29429E-14
 -1      2419 2.19244E+01 1.90140E-01 8.78447E-04-1.33527E+00 6.64377E-14-1.76030E-14
 -1      2420 2.13847E+01 2.67356E-01-3.03101E-03-1.48297E+00 8.28187E-14-8.91017E-14
 -1      2421 2.27810E+01 2.82235E-02-1.79258E-03-1.52161E+00 1.24816E-13 4.02369E-15
 -1      2422 2.24448E+01 1.10383E-01 2.06154E-03-1.49196E+00 1.25336E-13-6.36253E-15
 -1      2423 2.17597E+01 1.78682E-01-5.22846E-03-1.68350E+00 8.96896E-14 4.25790E-14
 -1      2424 2.34083E+01-2.44909E-01-1.06689E-02-1.47161E+00-4.15458E-14 5.06531E-14
 -1      2425 2.30618E+01-8.30984E-02 4.60819E-03-1.53986E+00 7.14574E-14 5.65611E-14
 -1      2426 2.22330E+01-5.01130E-02-9.47847E-03-1.80164E+00 2.86599E-14 1.31856E-13
 -1      2427 2.41182E+01-6.90828E-01-2.25749E-02-1.13040E+00-1.08258E-13 1.18615E-13
 -1      2428 2.37952E+01-4.39024E-01 8.89070E-03-1.36245E+00-1.35208E-13 1.02057E-13
 -1      2429 2.28621E+01-4.85667E-01-1.60514E-02-1.73354E+00-1.18773E-13 1.95382E-13
 -1      2430 2.48854E+01-1.23546E+00-3.43204E-02-3.60328E-01-9.12881E-14 1.31737E-13
 -1      2431 2.46461E+01-9.54360E-01 1.35490E-02-8.05987E-01-3.49460E-14 1.29012E-13
 -1      2432 2.37221E+01-1.14708E+00-2.32234E-02-1.32787E+00-1.00989E-13 2.11624E-13
 -1      2433 2.56084E+01-1.56348E+00-3.33329E-02 8.60587E-01-3.33344E-14 1.57354E-13
 -1      2434 2.55196E+01-1.45470E+00 7.37157E-03 2.43328E-01-1.51319E-13 6.66515E-14
 -1      2435 2.48426E+01-1.85080E+00-2.39936E-02-4.14590E-01-1.01488E-13 1.06099E-13
 -1      2436 2.60242E+01-1.12916E+00-1.65280E-02 2.17471E+00-2.26667E-13 3.63773E-13
 -1      2437 2.61513E+01-1.48794E+00-1.99608E-02 1.63980E+00-7.28220E-14 2.63886E-13
 -1      2438 2.60207E+01-2.08687E+00-3.50992E-02 1.04710E+00-1.88540E-13 3.00152E-13
 -1      2439 2.58193E+01 4.46434E-01-2.19691E-02 2.78356E+00-2.56156E-13 3.17127E-13
 -1      2440 2.62097E+01-4.57184E-01-6.18645E-02 2.77923E+00-2.57284E-13 3.12573E-13
 -1      2441 2.69617E+01-1.21295E+00-2.14007E-02 2.60858E+00-2.03809E-13 2.85515E-13
 -1      2442 2.53040E+01 2.31512E+00-3.60229E-02 1.68213E+00-3.04756E-14 1.89491E-13
 -1      2443 2.56404E+01 1.44498E+00-9.38394E-02 2.43290E+00-1.67769E-13 2.58311E-13
 -1      2444 2.69861E+01 1.41253E+00-1.08249E-01 3.00094E+00-1.31256E-13 9.95037E-14
 -1      2445 2.51524E+01 2.68650E+00-9.85129E-02-7.33517E-01 1.57235E-13 7.66904E-14
 -1      2446 2.51383E+01 2.78170E+00-8.38527E-02 3.67518E-01 4.14113E-14 9.62043E-14
 -1      2447 2.67165E+01 3.47847E+00-6.73484E-02 1.19883E+00 1.05319E-13-1.87485E-13
 -1      2448 2.57247E+01 1.14697E+00-9.69234E-02-2.63143E+00 3.15421E-13 1.95505E-13
 -1      2449 2.53773E+01 2.10631E+00-2.56696E-02-1.97869E+00 2.47607E-13 1.26447E-13
 -1      2450 2.66906E+01 3.26263E+00-8.03651E-02-1.55090E+00 1.21056E-13-2.08382E-13
 -1      2451 2.62243E+01-6.79725E-01-6.00390E-02-2.64924E+00 2.22947E-13 2.76089E-13
 -1      2452 2.59273E+01 1.50116E-01-4.52519E-03-2.76514E+00 2.83190E-13 3.23731E-13
 -1      2453 2.70431E+01 7.11562E-01-6.80509E-02-2.90754E+00 2.22877E-13-3.02293E-14
 -1      2454 2.61170E+01-1.53493E+00-9.57567E-03-1.45625E+00 8.14091E-14 3.34954E-13
 -1      2455 2.60059E+01-1.25919E+00-2.07363E-02-2.03252E+00 1.74678E-13 3.72663E-13
 -1      2456 2.68482E+01-1.26135E+00-1.43360E-03-2.35849E+00 1.33032E-13 1.95576E-13
 -1      2457 2.54216E+01-1.39250E+00 1.39879E-02-7.54412E-02 2.08354E-13 3.88999E-13
 -1      2458 2.55239E+01-1.54847E+00-3.42899E-02-6.61416E-01 1.37279E-13 4.30870E-13
 -1      2459 2.59092E+01-2.10402E+00-1.32349E-02-7.90955E-01 9.31865E-14 2.95583E-13
 -1      2460 2.45373E+01-8.65039E-01 1.40728E-02 8.96484E-01 1.14634E-13 2.61485E-13
 -1      2461 2.47925E+01-1.14561E+00-2.92921E-02 4.98372E-01 2.71227E-13 4.07616E-13
 -1      2462 2.46769E+01-1.75913E+00-2.33072E-02 5.75550E-01 2.08335E-13 4.49660E-13
 -1      2463 2.37116E+01-3.70013E-01 8.45924E-03 1.38305E+00 5.36034E-14 2.14643E-13
 -1      2464 2.40370E+01-6.02639E-01-1.79563E-02 1.18789E+00-1.08811E-14 3.07716E-13
 -1      2465 2.35983E+01-1.02453E+00-2.00299E-02 1.39394E+00 7.47119E-14 4.94659E-13
 -1      2466 2.30074E+01-3.86304E-02 3.87176E-03 1.51373E+00-1.12125E-13 3.00294E-13
 -1      2467 2.33480E+01-1.83589E-01-7.87088E-03 1.46803E+00-1.89258E-15 2.91552E-13
 -1      2468 2.27868E+01-3.95155E-01-1.41504E-02 1.73057E+00 2.25484E-14 5.85100E-13
 -1      2469 2.24211E+01 1.37188E-01 1.61322E-03 1.43525E+00-7.96372E-14 3.51473E-13
 -1      2470 2.27451E+01 6.55314E-02-4.90158E-04 1.47653E+00-1.35146E-13 3.13788E-13
 -1      2471 2.21950E+01 9.91076E-03-8.19001E-03 1.75319E+00-1.53865E-13 4.30167E-13
 -1      2472 2.19327E+01 2.07251E-01 7.40501E-04 1.25823E+00 1.48007E-13 3.69661E-13
 -1      2473 2.22235E+01 1.82425E-01 3.87606E-03 1.33949E+00 9.09774E-14 3.58574E-13
 -1      2474 2.17520E+01 2.16688E-01-4.34416E-03 1.60536E+00 5.67387E-14 4.92327E-13
 -1      2475 2.15260E+01 2.17568E-01 5.27986E-04 1.05061E+00-4.59795E-14 3.89189E-13
 -1      2476 2.17765E+01 2.18021E-01 5.88382E-03 1.14298E+00 3.85080E-14 3.73402E-13
 -1      2477 2.14041E+01 2.93349E-01-2.41945E-03 1.38444E+00 4.63133E-14 4.77205E-13
 -1      2478 2.11891E+01 1.99150E-01 5.46553E-04 8.48860E-01-5.76806E-14 2.80961E-13
 -1      2479 2.13982E+01 2.11115E-01 6.38411E-03 9.37068E-01 2.29595E-14 3.59031E-13
 -1      2480 2.11203E+01 2.97999E-01-1.62451E-03 1.14762E+00 6.37041E-14 3.22869E-13
 -1      2481 2.09132E+01 1.69925E-01 6.03245E-04 6.69636E-01-2.15514E-13 2.53907E-13
 -1      2482 2.10835E+01 1.85712E-01 6.04251E-03 7.47005E-01-1.94320E-13 2.89726E-13
 -1      2483 2.08851E+01 2.68834E-01-1.35350E-03 9.24891E-01-6.45284E-14 1.01079E-13
 -1      2484 2.06903E+01 1.39123E-01 6.32250E-04 5.18411E-01-1.74645E-13 3.73129E-13
 -1      2485 2.08261E+01 1.54895E-01 5.31037E-03 5.83026E-01-1.85651E-13 2.71827E-13
 -1      2486 2.06899E+01 2.27662E-01-1.26492E-03 7.29555E-01-2.49599E-13 2.27262E-13
 -1      2487 2.05128E+01 1.10930E-01 6.23079E-04 3.94913E-01-1.39074E-13 5.64641E-13
 -1      2488 2.06192E+01 1.25021E-01 4.45796E-03 4.47225E-01-1.90060E-13 4.29987E-13
 -1      2489 2.05294E+01 1.85595E-01-1.20485E-03 5.65417E-01-3.17428E-13 2.61360E-13
 -1      2490 2.03737E+01 8.68662E-02 5.84890E-04 2.96282E-01 1.14570E-13 5.56459E-13
 -1      2491 2.04556E+01 9.87348E-02 3.62901E-03 3.37753E-01 7.63389E-14 5.98482E-13
 -1      2492 2.03993E+01 1.47594E-01-1.12190E-03 4.31385E-01-1.05379E-13 3.15462E-13
 -1      2493 2.02662E+01 6.71704E-02 5.30738E-04 2.18759E-01 3.25189E-13 3.26108E-13
 -1      2494 2.03284E+01 7.68005E-02 2.88914E-03 2.51153E-01 1.58922E-13 4.28683E-13
 -1      2495 2.02955E+01 1.15384E-01-1.01072E-03 3.24145E-01 1.17261E-13 4.49518E-13
 -1      2496 2.01847E+01 5.15433E-02 4.72552E-04 1.58518E-01 2.10698E-13 2.91303E-13
 -1      2497 2.02310E+01 5.91254E-02 2.25964E-03 1.83574E-01 3.43211E-13 3.04414E-13
 -1      2498 2.02139E+01 8.91416E-02-8.81096E-04 2.39628E-01 3.31698E-13 2.46367E-13
 -1      2499 2.01238E+01 3.95181E-02 4.14532E-04 1.12018E-01 2.54906E-14 2.49023E-13
 -1      2500 2.01576E+01 4.53050E-02 1.73733E-03 1.31322E-01 1.49503E-13 2.82077E-13
 -1      2501 2.01509E+01 6.84186E-02-7.42557E-04 1.73761E-01 1.34911E-13 4.04852E-13
 -1      2502 2.00793E+01 3.05779E-02 3.75683E-04 7.61611E-02 8.01804E-14 1.76416E-13
 -1      2503 2.01034E+01 3.48382E-02 1.31313E-03 9.10775E-02-8.02404E-14 2.29570E-13
 -1      2504 2.01031E+01 5.25277E-02-6.07080E-04 1.22775E-01 5.03973E-14 1.33325E-13
 -1      2505 2.00474E+01 2.39742E-02 2.97513E-04 4.82952E-02 1.17960E-13 2.64652E-13
 -1      2506 2.00640E+01 2.71518E-02 9.62272E-04 5.99487E-02 1.52020E-13 3.74627E-13
 -1      2507 2.00671E+01 4.07369E-02-4.90411E-04 8.35010E-02 1.01410E-13 1.65865E-13
 -1      2508 2.00249E+01 1.88565E-02 2.24352E-04 2.68805E-02-1.19464E-13 2.85614E-13
 -1      2509 2.00361E+01 2.13791E-02 7.10435E-04 3.59127E-02 4.74437E-14 2.41176E-13
 -1      2510 2.00404E+01 3.14287E-02-5.28140E-04 5.29672E-02 5.88114E-14 3.63561E-13
 -1      2511 2.00164E+01 1.56416E-02 4.18396E-04 1.69555E-02-1.47217E-13 2.51037E-13
 -1      2512 1.99892E+01 1.05151E-01-5.49110E-04 4.77846E-02 2.62656E-13-1.28716E-14
 -1      2513 1.99948E+01 9.59002E-02 2.16000E-04 5.09863E-02 2.05507E-13-4.07107E-13
 -1      2514 1.99803E+01 1.22481E-01-5.47487E-04 3.46709E-02-6.28375E-14-9.13281E-14
 -1      2515 1.99845E+01 1.15606E-01 1.52275E-05 4.13211E-02 7.40055E-14-4.58252E-14
 -1      2516 1.99828E+01 1.22303E-01 4.21675E-04 5.27980E-02 2.17589E-13-2.63042E-13
 -1      2517 2.00113E+01 5.86764E-02-3.38520E-04 4.90769E-02-2.64005E-13 8.56351E-14
 -1      2518 2.00163E+01 4.85257E-02 4.27700E-04 4.47777E-02-2.59972E-13-6.37983E-14
 -1      2519 2.00002E+01 8.28932E-02-4.72048E-04 5.28995E-02 4.30882E-14-2.95688E-13
 -1      2520 2.00062E+01 7.26854E-02 3.78114E-04 5.21275E-02-1.90219E-13 2.18693E-13
 -1      2521 2.00116E+01 7.36421E-02 2.11323E-04 6.14839E-02-1.11173E-13 7.26080E-14
 -1      2522 1.99966E+01 9.96986E-02 2.65811E-04 6.21457E-02 8.29805E-14-1.77272E-13
 -1      2523 1.99751E+01 1.32585E-01-4.71854E-04 1.59180E-02-1.35461E-13 9.24243E-14
 -1      2524 1.99773E+01 1.29009E-01-1.96162E-04 2.48097E-02-1.28590E-13-7.90852E-14
 -1      2525 1.99723E+01 1.38633E-01 5.32742E-04 3.49735E-02-2.31841E-14-1.51714E-13
 -1      2526 1.99743E+01 1.34254E-01-3.35305E-04-5.27494E-03-8.33315E-14 4.67197E-13
 -1      2527 1.99741E+01 1.34454E-01-3.75433E-04 4.32501E-03-2.21517E-13 5.41062E-13
 -1      2528 1.99668E+01 1.46683E-01 5.77506E-04 1.17051E-02 6.26759E-14 2.04705E-13
 -1      2529 1.99778E+01 1.27391E-01-1.60564E-04-2.54239E-02-1.41203E-13 7.40681E-14
 -1      2530 1.99754E+01 1.31325E-01-4.92903E-04-1.67197E-02-1.60282E-13 2.76693E-13
 -1      2531 1.99671E+01 1.45622E-01 5.56171E-04-1.32191E-02-1.95822E-13 3.43420E-13
 -1      2532 1.99849E+01 1.13327E-01 3.87569E-05-4.10786E-02 1.04862E-13-2.10045E-13
 -1      2533 1.99808E+01 1.20238E-01-5.43778E-04-3.47685E-02-1.97167E-14-1.43994E-13
 -1      2534 1.99729E+01 1.35858E-01 4.87435E-04-3.57105E-02-6.26852E-14 4.69817E-14
 -1      2535 1.99948E+01 9.33846E-02 2.14825E-04-5.02556E-02 4.76922E-13-1.77747E-13
 -1      2536 1.99894E+01 1.02621E-01-5.22603E-04-4.71893E-02 3.27752E-13-3.63868E-13
 -1      2537 1.99832E+01 1.18630E-01 3.52974E-04-5.25216E-02 2.23041E-13-1.26190E-13
 -1      2538 2.00057E+01 7.01208E-02 3.06718E-04-5.11725E-02 2.71831E-13 5.17638E-14
 -1      2539 2.00001E+01 8.05297E-02-4.03721E-04-5.20320E-02 4.59056E-13 8.80146E-14
 -1      2540 1.99965E+01 9.58639E-02 1.89143E-04-6.11656E-02 3.91192E-13-1.38841E-13
 -1      2541 2.00153E+01 4.64957E-02 3.45761E-04-4.39263E-02-1.22289E-13-2.13918E-13
 -1      2542 2.00107E+01 5.68107E-02-2.31466E-04-4.84079E-02 5.06669E-14-2.50555E-13
 -1      2543 2.00101E+01 7.01009E-02-8.64449E-05-6.02805E-02 1.11608E-13-3.11531E-13
 -1      2544 4.80049E+00-3.25552E+00 6.68658E-02 3.56046E+00-3.98737E-13 3.16414E-14
 -1      2545 3.68010E+00-2.42873E+00 9.83006E-02 1.13287E+00-4.09089E-13 8.49321E-15
 -1      2546 1.07339E+01-4.49975E+00 2.58096E-02 6.36218E+00-2.16188E-13 8.01859E-14
 -1      2547 7.31660E+00-3.97503E+00 5.90691E-02 5.05113E+00-3.21826E-13 4.04399E-14
 -1      2548 3.77111E+00-2.44433E+00 1.01137E-01-2.08035E+00-2.33077E-13 1.30118E-13
 -1      2549 4.92976E+00-3.26420E+00 7.56225E-02-4.25965E+00 1.16018E-14 3.23797E-13
 -1      2550 1.97481E+01 1.60881E-01 4.06011E-03 1.01843E-02 8.14975E-14 1.38309E-13
 -1      2551 1.98128E+01 2.12498E-01 1.25279E-02 1.03891E-01 7.60652E-14 1.47167E-13
 -1      2552 1.98975E+01 2.07994E-01-4.32432E-03-2.19515E-03 9.17251E-14 6.04766E-14
 -1      2553 2.00159E+01 2.53982E-02 3.68320E-04-2.58193E-02-1.53491E-13 1.62318E-13
 -1      2554 1.82469E+01-5.73761E+00-5.13208E-02 6.50300E+00-2.72948E-13 1.37595E-13
 -1      2555 1.47033E+01-5.44452E+00 4.90203E-02 6.45353E+00-1.97009E-13 1.49297E-13
 -1      2556 3.16682E+01-1.14054E+00-9.81384E-02 4.16016E-01 1.09301E-13-4.22495E-13
 -1      2557 2.94932E+01-3.12760E+00-3.78098E-02 1.25205E+00-4.38607E-14-2.92821E-13
 -1      2558 3.07752E+01-9.46468E-01-4.35322E-02-1.21260E+00 7.61613E-14-6.41792E-13
 -1      2559 1.28219E+01-5.07046E+00 3.95340E-02-6.95127E+00 1.34559E-13 2.43167E-13
 -1      2560 1.67317E+01-5.19840E+00-1.97840E-02-7.02544E+00 1.94428E-13 7.14290E-14
 -1      2561 2.44857E+01-5.33779E+00 1.18207E-03-4.23002E+00-1.52350E-13-3.26128E-14
 -1      2562 2.78642E+01-4.29658E+00-1.21253E-01-2.87410E+00-1.41137E-13-2.65343E-14
 -1      2563 1.95263E+01 3.62397E+00-1.01643E-02-2.38418E-01 9.68528E-14-2.12220E-13
 -1      2564 1.95430E+01 3.60211E+00-9.61393E-03-4.15073E-01 6.83975E-14-2.22031E-13
 -1      2565 1.97167E+01 3.20865E+00-3.16269E-04-4.58146E-01 6.70432E-14-2.10974E-13
 -1      2566 1.96807E+01 3.27228E+00-6.04374E-04-1.46975E-01 9.80405E-14-1.99233E-13
 -1      2567 3.39064E+01 6.17698E+00-8.64543E-02 1.07296E+00 2.82607E-13-3.92186E-14
 -1      2568 3.41007E+01 7.06324E+00-9.64891E-02 3.11078E-01 2.61124E-13-2.31211E-13
 -1      2569 3.93108E+00-2.58686E+00 1.03829E-01-1.71128E+00-7.04159E-14-2.58238E-13
 -1      2570 5.60205E+00-2.96353E+00 9.41809E-02-3.87121E+00-1.16601E-13-3.71758E-13
 -1      2571 3.28742E+01 2.42921E+00-5.75801E-02 1.31294E+00 2.86410E-13 1.27343E-13
 -1      2572 3.37303E+01 4.35060E+00-7.37307E-02 1.50059E+00 3.64708E-13 3.16136E-14
 -1      2573 3.02793E+01-2.20662E+00-3.61062E-02-6.11636E-01-1.12063E-14 7.60503E-14
 -1      2574 3.21395E+01-2.09182E-01-1.46751E-01 2.87782E-01 1.87440E-13 1.43996E-13
 -1      2575 1.70446E+01-5.70278E+00 4.39630E-02-6.26595E+00-2.09277E-13-3.21091E-13
 -1      2576 2.06563E+01-5.74015E+00-7.53719E-02-5.97075E+00-1.75193E-13-1.30715E-13
 -1      2577 1.67551E+01-5.20602E+00 1.42866E-02 7.13580E+00 1.45439E-14-4.35416E-16
 -1      2578 1.33139E+01-4.87816E+00 9.00743E-02 6.95466E+00 7.56617E-14-1.34753E-14
 -1      2579 3.92351E+00-2.50342E+00 8.50786E-02 2.55177E+00 1.75318E-13-1.95288E-13
 -1      2580 3.48747E+00-2.32210E+00 1.07882E-01 4.08118E-01 1.14946E-13-2.04836E-13
 -1      2581 8.81248E+00-3.90628E+00 2.68753E-02 6.44054E+00 1.68560E-13-2.45248E-13
 -1      2582 5.70900E+00-3.20612E+00 9.87878E-02 4.52354E+00 2.47552E-13-3.27571E-13
 -1      2583 2.31650E+01-4.80166E+00-6.48624E-02 5.33381E+00-6.16729E-14 1.66339E-13
 -1      2584 1.97258E+01-5.32308E+00-7.04555E-03 6.19487E+00 5.77316E-15 4.32293E-14
 -1      2585 1.98655E+01-5.18068E+00 1.07898E-01 6.16651E+00 1.18433E-13 1.06222E-13
 -1      2586 3.14124E+01 2.71841E+00-1.94451E-01-5.16289E-01-3.16358E-13 2.73115E-13
 -1      2587 3.09188E+01 9.32304E-01-1.94576E-02 2.00841E-01-2.90240E-13 3.16858E-13
 -1      2588 3.18779E+01 6.96242E+00-1.65627E-01-6.95877E-01-6.71685E-14 5.27356E-15
 -1      2589 3.15671E+01 5.40997E+00-1.02905E-01-9.93714E-01-2.22655E-13 1.95899E-13
 -1      2590 3.24148E+01 7.21270E+00-1.19589E-01 4.89351E-01 4.92384E-14-1.94636E-13
 -1      2591 3.16428E+01 7.64413E+00-1.82325E-01 9.83097E-02 1.24345E-14-7.66037E-14
 -1      2592 3.13630E+01 4.64461E+00-1.42990E-01 9.78868E-01-6.33937E-14-1.80467E-13
 -1      2593 3.23318E+01 6.14455E+00-1.29191E-01 7.71492E-01 1.98175E-14-1.78954E-13
 -1      2594 2.96345E+01 6.28409E+00-5.60402E-02 1.18626E+00 5.10147E-14-2.50813E-13
 -1      2595 3.03370E+01 2.26155E-01-5.70091E-02-5.84887E-01-2.06515E-13-8.82072E-14
 -1      2596 3.14026E+01 2.25332E+00-1.54816E-01 3.24064E-01-1.46244E-13-1.77802E-13
 -1      2597 2.65938E+01-3.41376E+00-3.04162E-02-3.45748E+00-1.24567E-13-6.37823E-14
 -1      2598 2.90046E+01-1.93247E+00-1.00792E-01-2.26217E+00-1.77372E-13 4.81282E-14
 -1      2599 2.11196E+01-5.11473E+00 2.12263E-02-5.90820E+00 1.11522E-13 1.03806E-14
 -1      2600 2.43753E+01-4.36482E+00-3.74501E-03-5.05558E+00-4.97935E-14-1.39000E-13
 -1      2601 2.60350E+01-4.28257E+00 2.93865E-02-3.37448E+00-1.83187E-15 5.46785E-15
 -1      2602 6.59488E+00-3.90872E+00 5.49000E-02-5.38635E+00 1.13104E-13 2.63928E-13
 -1      2603 9.10760E+00-4.27726E+00 1.33652E-02-6.59049E+00 9.49241E-14 2.36949E-13
 -1      2604 7.34773E+00-2.53310E+00 1.25384E-01-4.80047E+00 8.54594E-14 2.01339E-13
 -1      2605 2.05455E+01 1.95929E+00-1.37117E-02-1.87889E+00-1.25969E-13-1.82441E-13
 -1      2606 2.04147E+01 1.22384E+00-5.42939E-03-1.26200E+00-1.08757E-13-1.65749E-13
 -1      2607 2.03803E+01 1.38298E+00 2.68434E-03-1.19859E+00-9.81216E-14-1.92373E-13
 -1      2608 2.02915E+01 2.37202E+00-7.72382E-03-1.80264E+00-1.03784E-13-2.01795E-13
 -1      2609 2.04839E+01 8.77841E-01-6.97207E-03 1.20799E+00 1.51493E-13 2.73590E-13
 -1      2610 2.08291E+01 1.25802E+00-5.92812E-03 1.70990E+00 1.62280E-13 3.18140E-13
 -1      2611 2.06404E+01 1.71694E+00-1.57960E-02 1.90186E+00 1.80509E-13 2.46071E-13
 -1      2612 2.04511E+01 1.06382E+00-9.52679E-03 1.21653E+00 1.65990E-13 1.80402E-13
 -1      2613 2.66632E+01-4.70038E+00-1.02277E-01 3.63103E+00-1.23707E-13-2.30038E-13
 -1      2614 2.24151E+01-5.58911E+00 2.73803E-02 5.01948E+00-2.02172E-13-3.66790E-14
 -1      2615 3.20313E+01 6.54162E+00-6.63104E-02-2.02925E-01 2.41418E-13-3.52347E-13
 -1      2616 1.99224E+01 2.84311E+00 1.60428E-03-1.07108E+00-3.11928E-14-2.53699E-13
 -1      2617 1.97937E+01 3.18226E+00-1.47959E-02-1.26070E+00-3.78646E-14-2.73937E-13
 -1      2618 1.98897E+01 3.04206E+00-1.72125E-02-1.44920E+00-6.54594E-14-2.78255E-13
 -1      2619 2.00223E+01 3.58549E-01-3.93669E-03 2.57244E-01 1.22726E-13 9.99366E-14
 -1      2620 2.04239E+01 2.11931E+00-1.26842E-02 1.85257E+00 2.03138E-13 1.41491E-13
 -1      2621 2.80958E+01-4.30542E+00 2.95884E-02 1.71843E+00-9.05109E-14-2.82219E-13
 -1      2622 1.98688E+01-5.23106E+00 7.55024E-02-6.24992E+00 2.16022E-13 2.00347E-13
 -1      2623 2.21906E+01-5.28667E+00-6.95929E-02-5.15875E+00 8.80268E-14 4.19040E-14
 -1      2624 1.85569E+01-4.85156E+00 1.24561E-01-6.40578E+00 1.76859E-13 1.07234E-13
 -1      2625 1.23231E+01-4.06920E+00 1.23694E-01-6.71300E+00 1.71974E-13 1.69031E-13
 -1      2626 2.99675E+01 2.94952E+00-6.10243E-02 1.37088E+00-9.15934E-14-1.60538E-13
 -1      2627 1.41262E+01-4.44280E+00 1.30973E-01 6.21408E+00-1.40221E-13 1.98105E-13
 -1      2628 2.00209E+01 2.45617E-02 2.26774E-05 2.92445E-02-2.19623E-13 2.65796E-13
 -1      2629 2.00211E+01 3.26547E-02 3.98131E-05 3.59654E-02-1.99457E-13 1.13149E-13
 -1      2630 2.97209E+01 6.86789E+00-1.00503E-01-4.54675E-01-2.38420E-14-1.38070E-13
 -1      2631 6.09304E+00-9.24643E-01 1.60631E-01 1.00281E+00-2.59398E-13-1.37057E-13
 -1      2632 4.58704E+00-1.68872E+00 1.60103E-01-4.50301E-01-2.81775E-13-5.31519E-14
 -1      2633 6.16178E+00-9.87541E-01 1.57998E-01-1.82623E+00-1.41241E-13-1.32672E-14
 -1      2634 7.96873E+00-2.51091E+00 1.53934E-01 4.34175E+00-2.65191E-13 2.07417E-13
 -1      2635 2.52355E+01-4.40907E+00 2.83479E-02 4.06885E+00-1.21347E-13 2.53492E-13
 -1      2636 2.42488E+01-4.93821E+00 1.04029E-01 4.21460E+00 1.16157E-14 2.28269E-13
 -1      2637 2.65327E+01-4.09666E+00-1.78925E-01 2.55033E+00-9.68323E-14 3.63889E-13
 -1      2638 2.04416E+01 1.81637E+00 1.25049E-02 1.53626E+00 1.88312E-13 1.01717E-13
 -1      2639 1.27533E+01-3.85218E+00 1.36928E-01 6.54634E+00 2.09555E-13-1.06401E-13
 -1      2640 2.17852E+01-5.57374E+00 9.38374E-02 5.17964E+00-2.20962E-13-2.25514E-14
 -1      2641 6.85127E+00-1.82383E+00 1.78320E-01 3.65662E+00 2.90878E-13-2.36838E-13
 -1      2642 2.90372E+01-3.76951E+00 4.83509E-03-9.07279E-01-1.10509E-13 7.22200E-14
 -1      2643 2.95261E+01-7.82246E-01-1.11149E-02 6.04004E-01-2.96464E-13 2.94709E-13
 -1      2644 1.58522E+01-5.05506E+00 1.12449E-01-6.40325E+00-2.61430E-13-3.14415E-13
 -1      2645 3.14192E+01 8.38302E-01-1.13413E-02 2.05650E+00 1.77719E-13 2.94209E-14
 -1      2646 2.36302E+01-5.56609E+00 7.19658E-02-4.45747E+00-2.38282E-13-1.37113E-14
 -1      2647 8.08815E+00-3.04705E+00 1.45830E-01-4.80322E+00-1.90820E-13-4.60132E-13
 -1      2648 1.06290E+01-3.19142E+00 5.05695E-03-5.58449E+00-2.63373E-13-3.85469E-13
 -1      2649 8.33988E+00-1.68192E+00 1.75610E-01-3.95459E+00-1.70405E-13-3.44391E-13
 -1      2650 3.22332E+01 3.52523E+00-1.29717E-01-2.01768E+00 1.63952E-13-5.05596E-13
 -1      2651 3.06817E+01 2.09641E+00-2.98839E-03-2.62312E+00 1.49880E-13-5.88363E-13
 -1      2652 3.06142E+01 4.23263E+00-2.12546E-01-2.24695E+00 1.76192E-13-4.95423E-13
 -1      2653 5.55011E+00-1.32817E+00 1.74829E-01-6.81875E-01 1.24553E-14-1.65951E-13
 -1      2654 1.99966E+01 2.85223E+00-1.51497E-02-1.55998E+00-7.73837E-14-2.71717E-13
 -1      2655 2.01397E+01 2.62163E+00-2.23627E-02-1.72656E+00-9.47040E-14-2.47075E-13
 -1      2656 2.02943E+01 2.06471E+00 4.40102E-03-1.45790E+00-9.87587E-14-2.19135E-13
 -1      2657 2.00967E+01 2.51430E+00 4.23373E-03-1.31267E+00-7.03498E-14-2.54948E-13
 -1      2658 3.19405E+01 4.71364E+00-3.77282E-02 1.89918E+00 3.19411E-13-1.74499E-13
 -1      2659 2.00246E+01 2.58734E-02 3.63776E-04-3.43328E-02-1.72318E-13 2.03225E-13
 -1      2660 2.00193E+01 3.60376E-02-2.79039E-04-4.01368E-02-2.09903E-13 7.51677E-14
 -1      2661 2.00236E+01 4.75429E-02 2.56215E-04-5.35996E-02-2.62969E-13-1.78785E-13
 -1      2662 2.00337E+01 2.87810E-02 6.67066E-04-4.34178E-02-2.01137E-13 3.56951E-13
 -1      2663 3.00777E+01 3.72340E+00-7.96538E-02-1.41914E+00-2.38337E-13 1.51046E-13
 -1      2664 2.91410E+01-1.37283E+00-1.29696E-02-5.29445E-01-1.40983E-13-8.72080E-14
 -1      2665 2.00255E+01 4.43876E-02 2.75220E-04 4.97950E-02-1.88185E-13 9.62978E-14
 -1      2666 2.00343E+01 3.94096E-02-4.71184E-04-5.86258E-02-1.72982E-13 1.82131E-13
 -1      2667 1.98469E+01 2.81807E+00-6.27208E-03 4.95191E-01 1.46893E-13-1.56424E-13
 -1      2668 1.98200E+01 2.87021E+00-5.90930E-03 3.49255E-01 1.35263E-13-1.65474E-13
 -1      2669 1.98015E+01 2.91037E+00-5.65863E-03 2.20255E-01 1.21312E-13-1.70568E-13
 -1      2670 1.97920E+01 2.92814E+00-5.56485E-03 7.14040E-02 1.01770E-13-1.67813E-13
 -1      2671 1.99443E+01 2.56909E+00 4.02283E-03 2.50488E-01 1.15720E-13-1.57442E-13
 -1      2672 2.00556E+01 2.35736E+00-1.05261E-02 1.01119E+00 1.90310E-13-4.28418E-14
 -1      2673 1.99891E+01 2.51072E+00-6.61917E-03 8.77357E-01 1.91995E-13-8.30746E-14
 -1      2674 2.02298E+01 1.93024E+00-1.17823E-02 1.19253E+00 1.98999E-13-8.88439E-15
 -1      2675 2.01373E+01 2.17250E+00-5.08646E-03 1.09873E+00 1.97530E-13-2.47801E-14
 -1      2676 2.02013E+01 1.92347E+00 6.56520E-03 8.86425E-01 1.81021E-13-2.67446E-14
 -1      2677 2.02318E+01 7.46476E-01-2.97029E-03 6.01824E-01 1.47223E-13 7.03514E-14
 -1      2678 2.03670E+01 9.66896E-01 9.19124E-03 8.71482E-01 1.43511E-13 8.95401E-14
 -1      2679 1.55063E+01-3.95002E+00 1.05720E-02 6.53316E+00 2.37185E-13-1.07137E-14
 -1      2680 1.18882E+01-2.56877E+00 1.70312E-01 5.84007E+00 3.03063E-13-1.33879E-13
 -1      2681 2.01026E+01 4.45639E-01-9.49332E-04 2.29739E-01 1.24230E-13 5.77290E-14
 -1      2682 2.01944E+01 5.78374E-01 1.04058E-02 4.01665E-01 1.44705E-13 7.99062E-14
 -1      2683 2.02743E+01 8.50128E-01 5.07248E-04 5.67142E-01 1.53736E-13 1.71384E-14
 -1      2684 2.03475E+01 1.51197E+00-1.66400E-03 1.23738E+00 1.76041E-13 7.87335E-14
 -1      2685 1.15665E+01-3.10974E+00 1.24179E-01-6.19318E+00 1.26496E-13 7.77711E-14
 -1      2686 1.47381E+01-4.03745E+00 6.02968E-02-6.71882E+00 2.15800E-13 2.15661E-14
 -1      2687 2.02359E+01 6.60445E-01 6.93580E-03-3.80479E-01-4.67086E-14-1.54972E-13
 -1      2688 2.01632E+01 5.16075E-01-2.35764E-03-2.11078E-01-5.21373E-14-1.53496E-13
 -1      2689 2.01403E+01 4.08190E-01 6.25619E-03-7.93000E-02-5.40622E-14-1.25745E-13
 -1      2690 2.00923E+01 3.21500E-01-1.01999E-03 3.20834E-02-5.31165E-14-1.22601E-13
 -1      2691 2.02209E+01 5.80832E-01-2.06342E-03-1.82768E-01-4.47076E-14-1.60348E-13
 -1      2692 2.00707E+01 2.59039E-01 4.23376E-03 1.23907E-01-5.50264E-14-1.02848E-13
 -1      2693 2.00494E+01 2.08654E-01 8.08009E-05 1.98358E-01-4.70396E-14-1.20335E-13
 -1      2694 2.01613E+01 3.69945E-01-2.33430E-03 5.32684E-02-4.16294E-14-1.20040E-13
 -1      2695 2.00344E+01 1.73456E-01 2.56246E-03 2.63062E-01-4.45629E-14-1.13642E-13
 -1      2696 2.00351E+01 1.46494E-01 8.07990E-04 3.15221E-01-4.37670E-14-1.12271E-13
 -1      2697 2.01171E+01 2.45285E-01-2.17136E-03 2.19631E-01-4.37865E-14-1.26610E-13
 -1      2698 2.00279E+01 1.28829E-01 1.35715E-03 3.63497E-01-4.13392E-14-9.78010E-14
 -1      2699 2.00459E+01 1.17100E-01 1.29379E-03 4.03393E-01-2.66355E-14-8.56948E-14
 -1      2700 2.00918E+01 1.77027E-01-1.84224E-03 3.40250E-01-3.99669E-14-1.20525E-13
 -1      2701 2.00463E+01 1.10636E-01 5.33081E-04 4.43189E-01-3.34965E-14-9.60101E-14
 -1      2702 2.00783E+01 1.08353E-01 1.61932E-03 4.77510E-01-6.13814E-14-7.97507E-14
 -1      2703 2.00848E+01 1.45606E-01-1.53041E-03 4.34280E-01-1.69774E-14-1.17614E-13
 -1      2704 2.00862E+01 1.08276E-01 2.57145E-05 5.14311E-01-7.08525E-14-6.17880E-14
 -1      2705 2.01300E+01 1.10637E-01 1.81422E-03 5.47090E-01-6.79771E-14-3.08339E-14
 -1      2706 2.00945E+01 1.37061E-01-1.31039E-03 5.15695E-01-4.84371E-14-4.47461E-14
 -1      2707 2.01458E+01 1.12584E-01-1.98369E-04 5.84136E-01-9.89727E-14 5.72440E-15
 -1      2708 2.02005E+01 1.14871E-01 1.86975E-03 6.17039E-01-8.94109E-14-1.10673E-15
 -1      2709 2.01203E+01 1.39797E-01-1.21738E-03 5.93694E-01-6.21339E-14 1.07013E-14
 -1      2710 2.02257E+01 1.14236E-01-1.37220E-04 6.55362E-01-4.02958E-14 2.93350E-14
 -1      2711 2.02911E+01 1.11198E-01 1.74652E-03 6.87655E-01 8.69202E-15 2.51281E-14
 -1      2712 2.01630E+01 1.42513E-01-1.28338E-03 6.72975E-01-5.97123E-14 1.58192E-14
 -1      2713 2.03286E+01 1.02648E-01 2.45458E-04 7.25901E-01 1.83441E-14 3.07360E-14
 -1      2714 2.04054E+01 8.80977E-02 1.37749E-03 7.54205E-01 2.97815E-14 4.91857E-14
 -1      2715 2.02263E+01 1.32746E-01-1.55469E-03 7.53642E-01-5.02669E-15 4.86391E-14
 -1      2716 2.04601E+01 6.53598E-02 1.01433E-03 7.88234E-01 6.15248E-14 1.17291E-14
 -1      2717 2.05493E+01 3.21246E-02 6.66811E-04 8.06139E-01 4.47555E-14 4.74674E-14
 -1      2718 2.03166E+01 9.59559E-02-2.09714E-03 8.30693E-01 1.52818E-14 1.08051E-13
 -1      2719 2.06284E+01-1.17432E-02 2.24011E-03 8.28432E-01-1.28986E-14 5.47933E-14
 -1      2720 2.07315E+01-7.11231E-02-5.08033E-04 8.26164E-01 1.00245E-14 5.57977E-14
 -1      2721 2.04444E+01 1.54613E-02-2.98283E-03 8.93094E-01 6.70758E-15 7.86212E-14
 -1      2722 2.08445E+01-1.42464E-01 3.95057E-03 8.25107E-01 3.09889E-14 5.47234E-14
 -1      2723 2.09620E+01-2.33640E-01-2.28793E-03 7.89598E-01 3.08471E-14 1.21466E-13
 -1      2724 2.06248E+01-1.25918E-01-4.24217E-03 9.22474E-01 1.44717E-14 5.70242E-14
 -1      2725 2.11192E+01-3.35206E-01 5.98477E-03 7.49028E-01 1.43054E-14 1.24296E-13
 -1      2726 2.12497E+01-4.57611E-01-4.77089E-03 6.65051E-01-7.09873E-14 1.11212E-13
 -1      2727 2.08765E+01-3.40883E-01-5.76520E-03 8.91757E-01 4.58848E-14 7.67023E-14
 -1      2728 2.14585E+01-5.82996E-01 7.87103E-03 5.64885E-01-6.87617E-14 1.29927E-13
 -1      2729 2.15948E+01-7.22379E-01-7.79076E-03 4.18458E-01-2.42471E-15 1.36860E-13
 -1      2730 2.12176E+01-6.27530E-01-7.14853E-03 7.64758E-01-6.81574E-14 9.71047E-14
 -1      2731 2.18514E+01-8.47775E-01 8.50806E-03 2.38546E-01 9.26936E-15 1.55660E-13
 -1      2732 2.19776E+01-9.66338E-01-1.04898E-02 2.43805E-02 4.70861E-14 1.47420E-13
 -1      2733 2.16554E+01-9.51611E-01-7.36386E-03 4.99327E-01-8.10064E-15 1.73164E-13
 -1      2734 2.22538E+01-1.04212E+00 6.09215E-03-2.44299E-01 6.69522E-16 1.66923E-13
 -1      2735 2.23439E+01-1.07176E+00-1.04826E-02-5.09674E-01 2.29159E-14 7.25216E-14
 -1      2736 2.21673E+01-1.22353E+00-4.81362E-03 6.01972E-02-4.48860E-15 1.80262E-13
 -1      2737 2.25751E+01-1.02264E+00-8.95688E-04-8.40770E-01 4.19068E-14-1.06618E-14
 -1      2738 2.25997E+01-8.79525E-01-4.80708E-03-1.10097E+00-1.42834E-14-5.06564E-14
 -1      2739 2.26757E+01-1.28212E+00 2.25627E-03-5.47319E-01-5.21431E-14 8.43749E-14
 -1      2740 2.26966E+01-6.34824E-01-1.29888E-02-1.40509E+00 3.65417E-14-9.24620E-14
 -1      2741 2.26420E+01-2.67605E-01 7.02351E-03-1.55854E+00-2.13476E-14-9.63919E-14
 -1      2742 2.30408E+01-9.30913E-01 1.22900E-02-1.21982E+00-3.15502E-14-3.70295E-14
 -1      2743 2.25469E+01 1.73519E-01-2.48704E-02-1.67324E+00-2.24402E-14-2.42460E-14
 -1      2744 2.24385E+01 6.88705E-01 1.73179E-02-1.60171E+00-2.72334E-14 8.46961E-14
 -1      2745 2.31086E+01-6.84738E-02 1.35372E-02-1.70103E+00 3.78380E-14-7.36832E-14
 -1      2746 2.22164E+01 1.18517E+00-2.53978E-02-1.38314E+00-8.57535E-14 1.73453E-14
 -1      2747 2.21160E+01 1.61858E+00 1.54626E-02-1.03598E+00-7.29243E-14 2.75110E-14
 -1      2748 2.28682E+01 1.13020E+00 3.55972E-03-1.64826E+00-8.25056E-14 8.19566E-14
 -1      2749 2.19678E+01 1.89788E+00-1.02642E-02-5.01510E-01-8.94918E-14 3.26814E-14
 -1      2750 2.19409E+01 1.99357E+00-2.63329E-03 3.50857E-03-1.23042E-13 2.76438E-14
 -1      2751 2.25400E+01 2.11844E+00-1.70100E-02-8.64184E-01-1.18933E-13 1.20915E-13
 -1      2752 2.20077E+01 1.88091E+00 8.90251E-03 6.18024E-01-7.40033E-14-2.21774E-15
 -1      2753 2.20779E+01 1.57096E+00-2.23040E-02 1.05660E+00 6.72500E-14-4.47148E-14
 -1      2754 2.24598E+01 2.35205E+00-1.83368E-02 3.53152E-01-9.08830E-14 9.17671E-14
 -1      2755 2.22979E+01 1.13964E+00 1.84545E-02 1.43566E+00 1.65586E-13-7.37600E-14
 -1      2756 2.24141E+01 6.26448E-01-2.69346E-02 1.63085E+00 1.55262E-13-4.61844E-14
 -1      2757 2.27137E+01 1.64430E+00-3.79837E-03 1.39441E+00 7.99543E-14 4.91499E-14
 -1      2758 2.25813E+01 1.35769E-01 1.12067E-02 1.65480E+00 1.77749E-13-8.22684E-14
 -1      2759 2.26682E+01-3.15402E-01-1.98758E-02 1.59003E+00 9.49032E-14 6.38192E-14
 -1      2760 2.30334E+01 4.50293E-01 8.10908E-03 1.76927E+00 1.46785E-13 8.86786E-14
 -1      2761 2.26555E+01-6.53604E-01-7.86602E-04 1.34940E+00 4.91636E-14 8.74433E-14
 -1      2762 2.26686E+01-8.93230E-01-5.72937E-03 1.12431E+00-6.71295E-15 1.28860E-13
 -1      2763 2.31174E+01-6.00696E-01 1.28870E-02 1.49131E+00 1.03411E-13 1.72334E-13
 -1      2764 2.24865E+01-1.02123E+00-8.65411E-03 7.92463E-01-8.18419E-14 1.42005E-13
 -1      2765 2.24248E+01-1.05662E+00 4.13068E-03 5.22871E-01-1.04242E-13 2.43679E-13
 -1      2766 2.28711E+01-1.17484E+00 6.64489E-03 8.67826E-01 7.66672E-15 3.05279E-14
 -1      2767 2.21594E+01-1.02448E+00-1.07432E-02 2.23848E-01-1.75547E-13 2.74320E-13
 -1      2768 2.20486E+01-9.33453E-01 8.41677E-03-1.28657E-02-1.38854E-13 2.45279E-13
 -1      2769 2.24084E+01-1.27025E+00-1.61781E-03 2.17474E-01-1.41110E-13 1.81941E-13
 -1      2770 2.17790E+01-8.20480E-01-9.05290E-03-2.27696E-01-1.22123E-13 3.31163E-13
 -1      2771 2.16485E+01-6.81772E-01 8.72627E-03-3.99399E-01-9.20469E-14 3.45788E-13
 -1      2772 2.18868E+01-1.06509E+00-6.35868E-03-2.92627E-01-1.09834E-13 3.27360E-13
 -1      2773 2.14181E+01-5.49902E-01-6.15059E-03-5.26980E-01-8.71782E-14 2.81479E-13
 -1      2774 2.12886E+01-4.14491E-01 7.17749E-03-6.31025E-01-1.31412E-13 2.23540E-13
 -1      2775 2.14133E+01-7.43995E-01-7.40108E-03-6.21412E-01-1.48757E-13 2.60226E-13
 -1      2776 2.11102E+01-2.98319E-01-3.43833E-03-6.88396E-01-1.94454E-13 2.58094E-13
 -1      2777 2.09925E+01-1.89845E-01 5.13131E-03-7.36059E-01-1.90732E-13 2.28902E-13
 -1      2778 2.10319E+01-4.27904E-01-6.45454E-03-7.91527E-01-1.68052E-13 1.38144E-14
 -1      2779 2.08624E+01-1.02522E-01-1.37795E-03-7.44117E-01-1.41895E-13 2.04311E-13
 -1      2780 2.07599E+01-2.66844E-02 3.26773E-03-7.50700E-01 2.43142E-14 1.54681E-13
 -1      2781 2.07456E+01-1.73118E-01-4.89923E-03-8.44437E-01-1.71175E-13 2.99517E-13
 -1      2782 2.06683E+01 3.11646E-02 2.17994E-05-7.27644E-01 5.29659E-14 7.03560E-14
 -1      2783 2.05811E+01 7.77421E-02 1.83172E-03-7.07533E-01 3.02285E-14-1.99490E-15
 -1      2784 2.05393E+01 6.24017E-03-3.45440E-03-8.19902E-01-7.60442E-14 2.68759E-14
 -1      2785 2.05176E+01 1.11083E-01 8.94488E-04-6.67194E-01 9.89217E-14-1.85473E-14
 -1      2786 2.04444E+01 1.35039E-01 8.40488E-04-6.31977E-01 1.31905E-15-3.23613E-14
 -1      2787 2.03932E+01 1.17483E-01-2.34737E-03-7.49457E-01-4.61382E-15-6.35978E-14
 -1      2788 2.04004E+01 1.50328E-01 1.37906E-03-5.84085E-01 3.63890E-14-4.75223E-14
 -1      2789 2.03394E+01 1.58510E-01 2.16059E-04-5.42231E-01 1.06814E-13-1.55211E-14
 -1      2790 2.02900E+01 1.75717E-01-1.58049E-03-6.55953E-01 1.20697E-13-3.05213E-13
 -1      2791 2.03087E+01 1.61717E-01 1.58925E-03-4.93197E-01 1.14212E-13-1.66315E-15
 -1      2792 2.02584E+01 1.59898E-01-1.39464E-04-4.50398E-01-1.93492E-14-5.85117E-16
 -1      2793 2.02164E+01 1.96717E-01-1.08086E-03-5.54947E-01 5.28720E-14-1.62818E-13
 -1      2794 2.02366E+01 1.55788E-01 1.61376E-03-4.04136E-01-6.58666E-14 9.58068E-14
 -1      2795 2.01955E+01 1.48336E-01-3.12778E-04-3.63878E-01 2.60385E-14 1.52437E-13
 -1      2796 2.01630E+01 1.93886E-01-7.65948E-04-4.56370E-01-2.00013E-15-1.31553E-13
 -1      2797 2.01797E+01 1.40388E-01 1.51973E-03-3.22507E-01-2.86984E-14 2.60073E-13
 -1      2798 2.01465E+01 1.30367E-01-3.71401E-04-2.86648E-01 3.04255E-14 2.58214E-13
 -1      2799 2.01235E+01 1.77447E-01-5.67751E-04-3.66021E-01 3.97149E-14-1.66439E-13
 -1      2800 2.01347E+01 1.20949E-01 1.35695E-03-2.51049E-01 6.16004E-14 1.47116E-13
 -1      2801 2.01083E+01 1.10372E-01-3.63503E-04-2.20321E-01 2.55576E-13 6.61870E-14
 -1      2802 2.00936E+01 1.54618E-01-4.39792E-04-2.86767E-01 3.49820E-14 5.00094E-14
 -1      2803 2.00993E+01 1.00994E-01 1.16149E-03-1.90578E-01 3.17571E-13-7.96551E-14
 -1      2804 2.00786E+01 9.11014E-02-3.18899E-04-1.64988E-01 2.06355E-13 1.53210E-14
 -1      2805 2.00706E+01 1.30183E-01-3.47847E-04-2.19502E-01 2.04981E-13-2.71804E-13
 -1      2806 2.00715E+01 8.26862E-02 9.69015E-04-1.40681E-01 1.45171E-13-1.56055E-15
 -1      2807 2.00553E+01 7.40913E-02-2.44082E-04-1.19768E-01 1.04897E-13-1.14801E-13
 -1      2808 2.00524E+01 1.07116E-01-2.63660E-04-1.63864E-01 8.77605E-14-4.45895E-13
 -1      2809 2.00494E+01 6.68784E-02 7.29020E-04-1.00334E-01 1.18816E-13-1.94578E-13
 -1      2810 2.00372E+01 6.01892E-02-4.62331E-05-8.35750E-02 1.30147E-13-3.08498E-13
 -1      2811 2.00377E+01 8.66684E-02-3.08181E-04-1.18671E-01 4.61816E-14-4.83601E-13
 -1      2812 1.99646E+01 1.29462E-01 1.51059E-03-3.04970E-01 3.08662E-14 2.39453E-14
 -1      2813 1.99549E+01 1.49849E-01 2.88285E-03-2.53195E-01 4.60463E-14 3.58547E-14
 -1      2814 2.82775E+01 4.25250E+00-1.79770E-01-1.83312E+00-2.27540E-13-7.41074E-14
 -1      2815 2.86323E+01 2.08879E+00-1.02067E-01-1.73799E+00-2.36394E-13 1.14408E-13
 -1      2816 1.68790E+01-4.53766E+00 8.13913E-03 6.09437E+00-9.85878E-14 2.19380E-13
 -1      2817 1.35547E+01-3.27803E+00 1.53605E-01 5.76006E+00-1.01863E-13 2.00756E-13
 -1      2818 1.99686E+01 1.78166E-01 8.75394E-04-1.87017E-01 6.35256E-14 1.23938E-14
 -1      2819 1.99865E+01 2.20683E-01 4.98983E-03-1.14028E-01 8.22134E-14 3.43525E-14
 -1      2820 2.00556E+01 2.17255E-01-2.71371E-03-2.12434E-01 4.77599E-14 2.28985E-14
 -1      2821 2.00493E+01 1.20345E-01 2.57697E-03-4.82135E-01 5.26766E-14 7.18566E-14
 -1      2822 2.00008E+01 1.13579E-01 3.44885E-04-4.41702E-01 6.21974E-14 6.78815E-14
 -1      2823 2.01275E+01 1.46403E-01 3.13081E-03-5.72846E-01 8.65436E-14 5.74509E-14
 -1      2824 2.00638E+01 1.30334E-01-4.41541E-04-5.27654E-01 7.30461E-14 8.76681E-14
 -1      2825 2.00704E+01 1.62318E-01-1.25259E-03-5.35487E-01 5.71845E-14 1.29365E-14
 -1      2826 2.02255E+01 1.87620E-01 3.72616E-03-6.80234E-01 1.06799E-13 4.08815E-14
 -1      2827 2.01473E+01 1.63986E-01-1.06493E-03-6.25391E-01 1.04870E-13 6.97931E-14
 -1      2828 2.01103E+01 1.98725E-01-8.69408E-04-6.38407E-01 9.23345E-14 7.35684E-14
 -1      2829 2.03419E+01 2.40519E-01 4.34685E-03-8.12531E-01 6.50322E-14 1.07823E-13
 -1      2830 2.02488E+01 2.11186E-01-1.59127E-03-7.44376E-01 9.47615E-14 1.05505E-13
 -1      2831 2.01607E+01 2.53266E-01-4.99250E-04-7.59429E-01 7.95699E-14 1.28194E-13
 -1      2832 2.04761E+01 2.99955E-01 4.94458E-03-9.75336E-01 7.36954E-14 6.59736E-14
 -1      2833 2.03672E+01 2.67892E-01-2.04197E-03-8.91692E-01 9.79393E-14 1.07130E-13
 -1      2834 2.02180E+01 3.21043E-01-1.24545E-04-9.06675E-01 1.07362E-13 1.24972E-13
 -1      2835 2.06291E+01 3.56444E-01 5.43266E-03-1.17058E+00-3.23998E-14 9.88814E-15
 -1      2836 2.05026E+01 3.27254E-01-2.36876E-03-1.07156E+00 2.80689E-15 3.92941E-14
 -1      2837 2.02796E+01 3.94447E-01 2.11423E-04-1.08563E+00 4.95293E-14 1.24191E-13
 -1      2838 2.08048E+01 3.92015E-01 5.68388E-03-1.39432E+00 2.88513E-14-3.73310E-14
 -1      2839 2.06580E+01 3.76272E-01-2.40758E-03-1.28390E+00-1.13873E-14-8.23359E-15
 -1      2840 2.03446E+01 4.59584E-01 3.44148E-04-1.29844E+00 1.47327E-14 6.05704E-14
 -1      2841 2.10152E+01 3.74216E-01 5.52583E-03-1.63291E+00 1.13792E-13 6.82183E-15
 -1      2842 2.08423E+01 3.90782E-01-1.79886E-03-1.52151E+00 8.29317E-14 1.81539E-14
 -1      2843 2.04177E+01 4.90852E-01-1.30434E-04-1.54243E+00 1.50186E-14 8.51130E-14
 -1      2844 2.12879E+01 2.48961E-01 4.68638E-03-1.85699E+00 3.94171E-15 1.49742E-13
 -1      2845 2.10773E+01 3.28710E-01 1.51072E-04-1.76535E+00 4.97920E-14 3.96741E-14
 -1      2846 2.05156E+01 4.43428E-01-2.02208E-03-1.80758E+00 5.35883E-14 1.36087E-13
 -1      2847 2.16797E+01-6.31802E-02 2.57613E-03-2.01221E+00-2.55954E-14 2.68583E-13
 -1      2848 2.14101E+01 1.23693E-01 4.62051E-03-1.97641E+00 1.20393E-15 1.85384E-13
 -1      2849 2.06808E+01 2.44965E-01-6.70224E-03-2.07180E+00-1.61768E-14 1.16721E-13
 -1      2850 2.22892E+01-6.51442E-01-1.70512E-03-2.00500E+00-1.61059E-13 2.42886E-13
 -1      2851 2.19290E+01-3.12101E-01 1.33178E-02-2.08164E+00-7.15395E-14 2.81832E-13
 -1      2852 2.10015E+01-2.06669E-01-1.59318E-02-2.29037E+00-1.04502E-13 2.79343E-13
 -1      2853 2.32445E+01-1.54955E+00-1.06178E-02-1.68863E+00-5.75096E-14 1.63979E-13
 -1      2854 2.27679E+01-1.05106E+00 2.79283E-02-1.95385E+00-1.54220E-13 1.60462E-13
 -1      2855 2.16316E+01-1.01557E+00-3.07648E-02-2.37105E+00-8.57011E-14 1.88901E-13
 -1      2856 2.46727E+01-2.52694E+00-1.18644E-02-8.49146E-01-1.69767E-13 1.57130E-13
 -1      2857 2.40823E+01-2.04595E+00 4.72820E-02-1.38286E+00-7.41681E-14 1.56733E-13
 -1      2858 2.27830E+01-2.21858E+00-5.93066E-02-2.13598E+00-1.23259E-13 8.49286E-14
 -1      2859 2.63696E+01-2.96627E+00-4.02977E-03 6.02135E-01-2.06082E-13 2.48109E-13
 -1      2860 2.58531E+01-2.88882E+00 2.64556E-02-1.58976E-01-2.17675E-13 2.22154E-13
 -1      2861 2.47043E+01-3.30677E+00-5.37161E-02-1.19814E+00-2.00322E-13 1.52010E-13
 -1      2862 2.88447E+01-7.56361E-01-1.10970E-01 2.40896E+00-4.56996E-14 1.10870E-13
 -1      2863 2.83198E+01-2.15539E+00-4.90065E-02 1.65313E+00-8.80684E-14 2.14828E-13
 -1      2864 2.91176E+01 1.13418E+00-1.01658E-01 2.37171E+00 7.02494E-14-2.27041E-14
 -1      2865 2.86095E+01 5.25701E+00-2.16901E-01 5.14897E-01 1.58124E-13-3.02508E-13
 -1      2866 2.86603E+01 4.41233E+00-2.34904E-01 1.75993E+00 1.90292E-13-2.02241E-13
 -1      2867 2.82593E+01 7.06294E-01-1.62793E-01-2.90174E+00 1.55848E-13-2.15286E-13
 -1      2868 2.81563E+01 2.68069E+00-6.41485E-02-2.75235E+00 2.08972E-13-3.64660E-13
 -1      2869 2.72693E+01-2.67094E+00-7.42450E-02-1.45480E+00 5.22221E-14-7.83332E-14
 -1      2870 2.76630E+01-1.57621E+00-1.21944E-02-2.24740E+00 1.58117E-13-1.52347E-13
 -1      2871 2.55979E+01-2.74083E+00 3.96271E-02 2.81077E-01 8.25355E-14 1.42108E-13
 -1      2872 2.61574E+01-2.83675E+00-2.12613E-02-4.64458E-01 1.37876E-14 5.69280E-14
 -1      2873 2.67866E+01-3.34131E+00-3.60206E-02-2.94764E-01 2.09971E-14-3.25028E-13
 -1      2874 2.39051E+01-1.85224E+00 3.86416E-02 1.43807E+00 1.85451E-13 2.78979E-13
 -1      2875 2.44697E+01-2.37185E+00-2.20457E-02 9.58142E-01 2.30042E-13 2.48408E-13
 -1      2876 2.45038E+01-3.16155E+00-6.78573E-02 1.31230E+00 6.17102E-14-1.42535E-13
 -1      2877 2.27071E+01-9.04362E-01 2.56224E-02 1.92795E+00-1.68294E-14 3.37739E-13
 -1      2878 2.31579E+01-1.37760E+00-8.49331E-03 1.69607E+00 1.01588E-13 3.16378E-13
 -1      2879 2.27308E+01-1.93328E+00-4.19589E-02 2.06556E+00 7.30063E-14 1.27360E-13
 -1      2880 2.19269E+01-2.16154E-01 1.18602E-02 2.02151E+00-5.27593E-14 4.65053E-13
 -1      2881 2.22626E+01-5.36643E-01-3.50214E-03 1.97008E+00-2.25930E-14 3.66130E-13
 -1      2882 2.16805E+01-8.57532E-01-2.64791E-02 2.28321E+00-1.74862E-14 1.63827E-13
 -1      2883 2.14430E+01 1.79371E-01 4.17319E-03 1.89159E+00-2.07893E-14 2.96114E-13
 -1      2884 2.16951E+01 6.75029E-03 1.46009E-03 1.94443E+00-7.99751E-15 4.05989E-13
 -1      2885 2.10886E+01-1.10479E-01-1.35326E-02 2.19208E+00 3.84378E-14 2.85849E-13
 -1      2886 2.11292E+01 3.60375E-01 3.06286E-04 1.66327E+00 9.36108E-14 2.32140E-13
 -1      2887 2.13260E+01 2.88130E-01 3.95782E-03 1.76674E+00 5.66300E-15 1.87227E-13
 -1      2888 2.07818E+01 2.95293E-01-5.59456E-03 1.96469E+00 1.71344E-14 3.58675E-14
 -1      2889 2.09065E+01 4.11556E-01-1.34728E-03 1.40488E+00 9.50390E-14 8.45627E-14
 -1      2890 2.10669E+01 3.97471E-01 5.05947E-03 1.52538E+00 1.22117E-13 2.13941E-13
 -1      2891 2.06156E+01 4.69354E-01-1.63443E-03 1.69043E+00 1.22827E-13-1.26798E-13
 -1      2892 2.07334E+01 3.94512E-01-1.84672E-03 1.15305E+00 1.46485E-13-5.90685E-14
 -1      2893 2.08673E+01 4.09743E-01 5.33686E-03 1.27157E+00 1.47329E-13 3.29657E-14
 -1      2894 2.05119E+01 5.07441E-01-4.64488E-05 1.41301E+00 1.64941E-13-2.92056E-13
 -1      2895 2.05907E+01 3.47369E-01-1.80501E-03 9.25730E-01-1.52257E-13 3.71857E-14
 -1      2896 2.07030E+01 3.74684E-01 5.11321E-03 1.03280E+00 4.01144E-14-1.56070E-14
 -1      2897 2.04335E+01 4.75814E-01 3.50032E-04 1.15480E+00 6.57645E-14-2.78153E-13
 -1      2898 2.04702E+01 2.91256E-01-1.54797E-03 7.29886E-01-2.32339E-13 6.01063E-14
 -1      2899 2.05637E+01 3.21354E-01 4.61481E-03 8.21831E-01-2.33604E-13 4.04274E-14
 -1      2900 2.03654E+01 4.14616E-01 2.58953E-04 9.26244E-01-1.34146E-13-9.63662E-14
 -1      2901 2.03684E+01 2.36727E-01-1.23793E-03 5.66413E-01-2.38082E-13 8.05753E-14
 -1      2902 2.04453E+01 2.65095E-01 3.99657E-03 6.42769E-01-2.39160E-13 7.30331E-14
 -1      2903 2.03031E+01 3.45839E-01 3.67528E-05 7.30816E-01-2.38004E-13-1.27494E-14
 -1      2904 2.02836E+01 1.88357E-01-9.46897E-04 4.33055E-01-8.58600E-14 2.66573E-13
 -1      2905 2.03456E+01 2.13136E-01 3.35712E-03 4.94984E-01-2.31665E-13 1.32328E-13
 -1      2906 2.02463E+01 2.80358E-01-1.65489E-04 5.67958E-01-1.75392E-13 5.54893E-15
 -1      2907 2.02139E+01 1.47598E-01-7.01016E-04 3.26153E-01 2.07140E-13 1.01615E-13
 -1      2908 2.02633E+01 1.68290E-01 2.75332E-03 3.75509E-01 1.07544E-13 1.42663E-13
 -1      2909 2.01958E+01 2.22799E-01-3.00530E-04 4.34948E-01 4.13024E-14-8.43297E-14
 -1      2910 2.01579E+01 1.14396E-01-5.06390E-04 2.41634E-01 1.90083E-13 2.95499E-13
 -1      2911 2.01964E+01 1.31148E-01 2.21287E-03 2.80447E-01 2.31793E-13 1.37737E-13
 -1      2912 2.01521E+01 1.74515E-01-3.67749E-04 3.28071E-01 1.95206E-13-3.16060E-14
 -1      2913 2.01135E+01 8.81107E-02-3.55598E-04 1.75554E-01 2.28108E-13-8.71049E-14
 -1      2914 2.01432E+01 1.01287E-01 1.74312E-03 2.05770E-01 2.46414E-13 1.27878E-13
 -1      2915 2.01153E+01 1.35283E-01-3.83152E-04 2.43352E-01 2.59652E-13 3.46097E-14
 -1      2916 2.00790E+01 6.79503E-02-2.08391E-04 1.24259E-01 7.33216E-14-7.40603E-14
 -1      2917 2.01014E+01 7.79952E-02 1.34288E-03 1.47650E-01 2.21057E-13-2.08869E-14
 -1      2918 2.00851E+01 1.04322E-01-3.58454E-04 1.76965E-01 2.25294E-13-2.57896E-13
 -1      2919 2.00530E+01 5.30622E-02 1.69490E-04 8.47496E-02-5.30925E-14 3.86719E-14
 -1      2920 2.00690E+01 6.01437E-02 1.00145E-03 1.02503E-01-1.51459E-13-1.25601E-13
 -1      2921 2.00603E+01 8.06157E-02-3.24413E-04 1.25316E-01-2.46340E-14 2.36774E-14
 -1      2922 2.00327E+01 4.63832E-02 2.70348E-04 5.93193E-02-1.14918E-13 8.28880E-14
 -1      2923 2.00442E+01 5.19319E-02 7.29735E-04 7.34809E-02 3.19316E-14 1.35923E-14
 -1      2924 2.00396E+01 6.70535E-02-7.04237E-04 9.07131E-02-1.44138E-13-2.03144E-13
 -1      2925 2.00241E+01 6.13804E-02-6.33782E-04 6.82753E-02-2.26826E-13-1.12533E-13
 -1      2926 1.99517E+01 1.61895E-01-3.80542E-04 6.63497E-03 5.77103E-14 4.06534E-13
 -1      2927 1.99535E+01 1.60298E-01-2.39388E-04 1.98810E-02 1.46787E-13 1.00283E-13
 -1      2928 2.00341E+01 5.59490E-02 5.71537E-04-7.27620E-02 1.20661E-13-2.78040E-13
 -1      2929 2.00273E+01 5.17846E-02 7.88376E-05-6.31819E-02-7.77086E-14-1.45212E-13
 -1      2930 2.00275E+01 7.16816E-02-3.63409E-04-8.74908E-02 1.09562E-13-7.39492E-13
 -1      2931 1.99698E+01 1.39641E-01-6.69069E-04 5.84036E-02 7.08077E-14-5.23487E-13
 -1      2932 1.99787E+01 1.30748E-01 2.11431E-04 6.60522E-02 2.56366E-13-3.81354E-13
 -1      2933 1.99543E+01 1.58414E-01-1.68518E-04-2.25185E-02-1.04908E-13 3.51884E-13
 -1      2934 1.99520E+01 1.60901E-01-4.36121E-04-9.47694E-03-5.36431E-14 3.83052E-13
 -1      2935 1.99406E+01 1.79292E-01 6.76980E-04-2.06122E-03 9.68414E-14 1.52592E-13
 -1      2936 1.99571E+01 1.55454E-01-5.57857E-04 3.50795E-02-1.26157E-14-1.41271E-14
 -1      2937 1.99628E+01 1.49921E-01-4.12989E-06 4.64581E-02-3.19459E-14-1.60521E-13
 -1      2938 1.99583E+01 1.61480E-01 6.06115E-04 6.02248E-02 1.08670E-13-4.14946E-13
 -1      2939 1.99448E+01 1.75734E-01 6.77555E-04 3.12239E-02 6.66312E-14 1.56038E-13
 -1      2940 2.79048E+01 6.65604E+00-1.67498E-01 4.36877E-02 1.87073E-14-2.14814E-13
 -1      2941 2.79854E+01 6.04696E+00-1.62532E-01-1.04521E+00-1.19099E-13-2.41786E-13
 -1      2942 1.99641E+01 1.45931E-01 5.90238E-05-4.76244E-02-1.13230E-13 4.76849E-14
 -1      2943 1.99582E+01 1.51967E-01-5.77089E-04-3.69200E-02-1.72265E-13 3.49577E-13
 -1      2944 1.99460E+01 1.72137E-01 6.24004E-04-3.44541E-02-3.43139E-14 2.37429E-13
 -1      2945 1.99797E+01 1.25498E-01 2.35145E-04-6.58606E-02 2.13418E-13-7.33112E-14
 -1      2946 1.99711E+01 1.34684E-01-6.45613E-04-5.87447E-02 4.45839E-14 1.59679E-13
 -1      2947 1.99599E+01 1.55310E-01 4.91947E-04-6.16006E-02-3.90718E-14 2.25090E-13
 -1      2948 1.99983E+01 9.92198E-02 1.21140E-04-7.39516E-02 3.29186E-13-1.01973E-13
 -1      2949 1.99890E+01 1.10856E-01-5.81542E-04-7.19694E-02 3.57511E-13-1.18134E-13
 -1      2950 1.99801E+01 1.30727E-01 3.15963E-04-7.99303E-02 7.54994E-14-5.19235E-14
 -1      2951 2.03308E+01 1.59601E+00-8.69984E-03-1.20877E+00-9.20427E-14-2.11745E-13
 -1      2952 2.03149E+01 1.23305E+00 3.03404E-04-9.31005E-01-8.41051E-14-1.97395E-13
 -1      2953 2.02510E+01 1.86333E+00-6.48823E-04-1.18576E+00-8.20091E-14-2.25985E-13
 -1      2954 2.87306E+01 1.42200E+00-5.03692E-02 1.66431E+00-1.54390E-13-9.49518E-14
 -1      2955 2.83085E+01 3.37500E+00-1.91661E-01 1.90673E+00-5.80092E-14-4.87665E-14
 -1      2956 2.86887E+01-7.08870E-01-1.55092E-01-6.92856E-01-2.67418E-13 2.79249E-13
 -1      2957 2.82163E+01-2.51223E+00-9.16452E-03 8.80821E-01-2.11303E-13 2.83690E-13
 -1      2958 2.00128E+01 2.74130E-01 5.49300E-05-1.97736E-02 1.04181E-13 5.50294E-14
 -1      2959 2.00653E+01 3.50829E-01 7.70199E-03 9.06989E-02 1.10101E-13 6.75882E-14
 -1      2960 2.01773E+01 5.20155E-01-2.16596E-03 2.09263E-01 1.28417E-13 3.24382E-14
 -1      2961 2.01018E+01 3.25743E-01-3.02777E-03-3.97236E-02 1.10166E-13 4.30088E-14
 -1      2962 1.45725E+01-3.98200E+00 1.88514E-01-6.06021E+00-3.30763E-13-2.63733E-13
 -1      2963 1.81460E+01-5.08529E+00-7.68998E-02-5.99037E+00-3.47333E-13-1.08143E-13
 -1      2964 1.01226E+01-2.24036E+00 8.75326E-02 4.98548E+00-1.00739E-13 3.52440E-13
 -1      2965 7.97674E+00-1.33026E+00 1.62559E-01 3.33907E+00-1.80835E-13 1.31173E-13
 -1      2966 1.99936E+01 1.13001E-01 2.05190E-03-3.97400E-01 5.87756E-14 3.97398E-14
 -1      2967 1.99625E+01 1.17898E-01 1.40001E-03-3.55435E-01 4.40711E-14 2.64190E-14
 -1      2968 2.00383E+01 1.63700E-01-2.18102E-03-3.38173E-01 3.53311E-14 2.65943E-14
 -1      2969 2.00449E+01 1.48615E-01-1.68280E-03-4.39977E-01 3.60659E-14 7.28966E-14
 -1      2970 2.03248E+01 1.00871E+00 3.40185E-03-7.55827E-01-6.53128E-14-1.90815E-13
 -1      2971 2.02399E+01 7.89279E-01-3.21469E-03-5.15312E-01-4.74985E-14-1.79546E-13
 -1      2972 2.02722E+01 8.76538E-01 7.34317E-04-4.67238E-01-2.60636E-14-1.83355E-13
 -1      2973 2.02976E+01 1.22863E+00-1.83072E-03-7.80823E-01-6.25972E-14-2.15202E-13
 -1      2974 2.83757E+01-3.80657E+00-1.18212E-01 2.60262E-01 1.09843E-14-5.09620E-13
 -1      2975 2.65749E+01-4.87752E+00 7.02849E-02 2.10908E+00-4.10505E-14-2.97887E-13
 -1      2976 1.99307E+01 2.64027E+00-7.77964E-03 7.64471E-01 1.90642E-13-9.95740E-14
 -1      2977 1.98840E+01 2.73618E+00-6.41514E-03 6.19096E-01 1.61129E-13-1.24768E-13
 -1      2978 1.99981E+01 2.44941E+00 4.71863E-03 4.89494E-01 1.40754E-13-1.23144E-13
 -1      2979 2.00862E+01 2.24050E+00 5.82604E-03 7.09393E-01 1.71450E-13-7.29362E-14
 -1      2980 1.98778E+01 2.74475E+00-6.37643E-03-6.09521E-01 2.76953E-14-2.17024E-13
 -1      2981 1.99234E+01 2.65083E+00-7.78920E-03-7.55294E-01 6.85308E-15-2.37763E-13
 -1      2982 6.57813E+00-4.73154E-01 1.40710E-01 4.01676E-01 9.46430E-14-2.21489E-14
 -1      2983 7.10412E+00-7.02084E-01 1.48459E-01-1.80619E+00-9.72208E-14-2.29816E-14
 -1      2984 2.21835E+01-5.26305E+00 1.56497E-01-4.71598E+00-3.03965E-13 4.89539E-14
 -1      2985 2.49654E+01-5.36726E+00-6.65872E-02-3.19740E+00-2.69951E-13 4.30211E-14
 -1      2986 2.35377E+01-5.55523E+00-1.13723E-01 4.15430E+00-1.10301E-13-1.31044E-13
 -1      2987 2.03738E+01-5.20466E+00 1.03342E-01 5.31564E+00-2.13940E-13 7.06553E-14
 -1      2988 2.00206E+01 6.20570E-02-4.54310E-06-6.67010E-02 5.90960E-15-4.73153E-13
 -1      2989 8.81851E+00-1.54291E+00 6.26996E-02 4.62050E+00 2.81164E-13-2.41501E-13
 -1      2990 7.31155E+00-7.05300E-01 1.55684E-01 2.51197E+00 2.31589E-13-2.32397E-13
 -1      2991 2.13204E+01-5.01828E+00-9.43536E-03 5.29961E+00 1.42039E-13 1.94674E-13
 -1      2992 1.89581E+01-4.64323E+00 1.22111E-01 5.96696E+00 1.55403E-13 1.27488E-13
 -1      2993 2.78800E+01-2.59392E+00-1.09141E-02-6.73008E-01-8.44984E-15-1.54182E-13
 -1      2994 2.85388E+01-9.30126E-01-1.81568E-01 5.83355E-01-1.59928E-13-1.84491E-13
 -1      2995 2.78205E+01 5.11623E+00-1.33645E-01 1.66292E+00 1.70142E-14-9.61453E-14
 -1      2996 2.76860E+01 6.00611E+00-1.80799E-01 9.19510E-01 4.24105E-14-1.34677E-13
 -1      2997 2.49373E+01-4.69036E+00 5.93893E-02-3.40400E+00 2.69992E-14-6.86534E-14
 -1      2998 2.64638E+01-4.05169E+00-1.07533E-01-2.21022E+00 5.05082E-14-2.32037E-14
 -1      2999 7.97443E+00-1.41075E+00 1.47227E-01-4.07057E+00-2.15938E-14 7.28584E-14
 -1      3000 9.50377E+00-2.16427E+00 1.24214E-01-5.38410E+00 6.98192E-14 2.20768E-13
 -1      3001 2.78978E+01-3.26880E+00-7.82454E-02 3.10773E-01-1.27507E-13 1.48128E-13
 -1      3002 1.99804E+01 2.52496E+00-6.34638E-03-8.69024E-01-1.26708E-14-2.29273E-13
 -1      3003 2.00458E+01 2.37116E+00-1.08438E-02-1.00036E+00-3.97987E-14-2.27766E-13
 -1      3004 2.00785E+01 2.25622E+00 6.87681E-03-7.04244E-01-1.77701E-15-2.07231E-13
 -1      3005 1.99254E+01 2.60900E+00 3.79727E-03 4.38695E-03 9.20187E-14-1.63673E-13
 -1      3006 1.97912E+01 2.92887E+00-5.62934E-03-5.86806E-02 9.97743E-14-1.80108E-13
 -1      3007 1.97993E+01 2.91340E+00-5.58814E-03-2.07624E-01 8.97899E-14-1.98224E-13
 -1      3008 2.03032E+01 1.60567E+00-1.46062E-03 1.13025E+00 1.77833E-13 1.54369E-14
 -1      3009 1.20824E+01-1.55150E+00 1.73011E-01 4.85841E+00 2.96721E-13-1.64077E-13
 -1      3010 1.73764E+01-4.29685E+00 1.31266E-01-6.29127E+00 1.91819E-13 1.87600E-13
 -1      3011 1.94766E+01-4.58611E+00-3.11239E-02-5.56062E+00 1.33907E-13 2.91524E-13
 -1      3012 1.62104E+01-3.47254E+00 7.32079E-02-6.02283E+00 1.69559E-13 2.39322E-13
 -1      3013 1.20993E+01-2.20899E+00 1.44886E-01-5.51023E+00 1.36516E-13 1.01294E-13
 -1      3014 7.74641E+00-6.93653E-01 1.69386E-01-2.86099E+00-1.05166E-13 5.93692E-14
 -1      3015 9.72896E+00-4.96628E-01 1.41634E-01-3.34194E+00-5.31450E-14 2.11220E-14
 -1      3016 7.93242E+00-4.67591E-02 1.30694E-01-1.34392E+00-1.47221E-13-4.24383E-14
 -1      3017 2.35039E+01-4.79849E+00 4.06160E-02-4.00107E+00 5.88002E-14-1.39402E-14
 -1      3018 1.99789E+01 1.38009E-01 3.98092E-04 8.04473E-02 1.89755E-13-1.88533E-13
 -1      3019 1.99881E+01 1.16316E-01-6.70484E-04 7.28332E-02 1.74027E-13-1.54504E-13
 -1      3020 1.99984E+01 1.04940E-01 3.09227E-04 7.54299E-02-3.49996E-14 9.53183E-14
 -1      3021 2.69698E+01 1.25804E+00-6.99137E-02-2.08262E+00-1.30659E-13-6.17700E-14
 -1      3022 2.82068E+01 3.08091E-01-9.59455E-02-1.48014E+00-1.80411E-13 7.48845E-14
 -1      3023 2.72213E+01-1.15552E+00-4.83906E-02-9.86588E-01-8.97060E-14 8.36414E-14
 -1      3024 1.32076E+01-2.27914E+00 1.35911E-01 5.03893E+00-1.87766E-14 3.25573E-13
 -1      3025 2.05664E+01-4.74057E+00 7.71761E-02-4.93100E+00-3.56687E-13-1.26080E-14
 -1      3026 2.89949E+01 2.92681E+00-2.04220E-01 2.63391E+00 1.85935E-13-1.41581E-13
 -1      3027 2.90890E+01-4.15027E-01-9.74039E-02-2.35075E+00 1.14790E-13-4.51195E-13
 -1      3028 2.69656E+01 3.56741E+00-9.93915E-02 1.87296E+00-7.72576E-14-3.20577E-15
 -1      3029 8.60256E+00-7.80296E-02 1.72214E-01 1.41189E+00 8.25104E-14-4.88776E-14
 -1      3030 2.64631E+01 5.63955E+00-1.10206E-01 4.56748E-01-1.75276E-14-1.15602E-13
 -1      3031 2.00070E+01 8.97070E-02-6.14925E-04 7.55696E-02-3.59969E-14 3.89042E-13
 -1      3032 2.00170E+01 7.71691E-02 3.44629E-04 7.29310E-02-2.09534E-13 2.11563E-13
 -1      3033 2.00237E+01 8.09652E-02 6.10375E-04 8.39707E-02-2.56966E-13 1.26935E-13
 -1      3034 2.00023E+01 1.09847E-01 4.03210E-04 8.80881E-02-5.18373E-14 2.54522E-13
 -1      3035 2.67866E+01-3.30336E+00-4.30993E-03-9.13510E-01 1.93942E-14-1.61260E-13
 -1      3036 7.74696E+00-6.24219E-01 1.73920E-01 2.16385E+00-1.26558E-13-4.60743E-14
 -1      3037 7.94619E+00-3.46629E-02 1.20479E-01 6.89595E-01-6.34753E-14-1.64035E-13
 -1      3038 9.79205E+00-3.94557E-01 1.42802E-01 2.73210E+00-5.13548E-14 1.32172E-13
 -1      3039 2.53050E+01-4.75128E+00 1.05594E-01 2.53126E+00-5.41511E-14-1.93200E-13
 -1      3040 2.00136E+01 7.54945E-02 1.51873E-04-6.99367E-02 2.19730E-13-4.87417E-13
 -1      3041 2.29758E+01-4.89447E+00 6.59926E-02 4.35713E+00 1.21042E-13 1.93217E-13
 -1      3042 2.19685E+01-4.52354E+00 4.62536E-02 4.39014E+00 1.50074E-13 1.03190E-13
 -1      3043 2.41072E+01-4.75754E+00-9.60653E-02 3.22307E+00 4.11060E-14 1.77237E-13
 -1      3044 1.37342E+01-2.94407E+00 1.57479E-01-5.48838E+00-3.38091E-13-2.74808E-13
 -1      3045 2.69526E+01-3.50060E+00 1.83172E-02 1.40106E+00-1.22756E-13 2.18353E-13
 -1      3046 2.00171E+01 8.22655E-02-1.69035E-04-8.58465E-02-3.63792E-14-8.00273E-13
 -1      3047 2.00059E+01 9.05364E-02-2.04965E-04-7.86067E-02 2.01818E-13-4.88017E-13
 -1      3048 2.00015E+01 1.07931E-01 4.51931E-04-9.07122E-02 1.09184E-13-4.55368E-13
 -1      3049 2.00220E+01 8.93262E-02 6.34338E-04-9.75554E-02 5.20388E-14-7.95227E-13
 -1      3050 2.77612E+01-9.63984E-02-7.12581E-02 1.33946E+00-1.18260E-13 5.82867E-16
 -1      3051 2.93819E+01-1.50343E+00-2.02502E-01-1.75008E+00 1.52350E-13-6.11039E-13
 -1      3052 2.89770E+01-3.03315E+00-6.73411E-02-9.74558E-01 7.81103E-14-5.53516E-13
 -1      3053 2.02948E+01 1.39313E+00 2.28332E-03 8.77957E-01 1.68762E-13-6.40381E-15
 -1      3054 8.53137E+00-7.73862E-01 1.84429E-01-2.78256E+00-1.23707E-13-1.72973E-13
 -1      3055 1.01298E+01-1.07908E+00 4.63979E-02-3.77892E+00-1.72973E-13-2.71588E-13
 -1      3056 9.28692E+00-2.57084E-02 1.33393E-01-1.83320E+00-6.37337E-14-1.36696E-14
 -1      3057 1.98161E+01 2.87517E+00-5.91898E-03-3.36270E-01 7.90391E-14-1.81760E-13
 -1      3058 1.98422E+01 2.82446E+00-6.16028E-03-4.84855E-01 4.94159E-14-1.88774E-13
 -1      3059 1.99926E+01 2.45650E+00 4.56970E-03-4.81045E-01 3.34711E-14-1.77904E-13
 -1      3060 1.99416E+01 2.57223E+00 3.97260E-03-2.41519E-01 7.21097E-14-1.73681E-13
 -1      3061 1.96424E+01-4.33149E+00 1.34866E-01 5.08116E+00-1.42303E-13 8.89566E-15
 -1      3062 1.78061E+01-3.73926E+00 1.11754E-01 5.68283E+00 2.29955E-13 3.43753E-14
 -1      3063 2.75676E+01-3.48303E+00 1.66149E-02-1.52088E-01 5.37955E-14-4.19560E-13
 -1      3064 2.58951E+01 4.89881E+00-1.16316E-01-1.24369E+00-4.75314E-14-1.20733E-13
 -1      3065 2.73158E+01 4.77678E+00-1.21918E-01-1.61498E+00-9.26759E-14-1.54134E-13
 -1      3066 2.63193E+01 3.30395E+00-9.53480E-02-1.87461E+00-7.30249E-14-1.34823E-14
 -1      3067 1.38996E+01-1.82901E+00-2.12936E-02 5.08561E+00 2.67987E-13-1.14991E-13
 -1      3068 1.16655E+01-5.23917E-01 1.29501E-01 3.84679E+00 2.44076E-13-1.70197E-13
 -1      3069 2.02529E+01 1.52238E+00-5.96718E-03 7.55477E-01 1.62422E-13-2.52455E-14
 -1      3070 2.02101E+01 1.71664E+00-8.77047E-04 6.99863E-01 1.66649E-13-4.09626E-14
 -1      3071 2.14289E+01-4.51052E+00-6.22001E-02 4.32850E+00-1.42428E-13-1.52347E-13
 -1      3072 1.87423E+01-3.31873E+00 1.53667E-01 4.86274E+00-1.60663E-13 4.86070E-14
 -1      3073 2.02391E+01 5.03148E-01 3.62193E-03-1.84284E-02-3.63928E-14-1.34916E-13
 -1      3074 2.02062E+01 4.07832E-01-1.61534E-03 8.37181E-02-2.85711E-14-1.37318E-13
 -1      3075 2.01893E+01 3.36768E-01 2.61059E-03 1.64813E-01-5.96067E-14-1.14801E-13
 -1      3076 2.01672E+01 2.80456E-01-4.91128E-04 2.37979E-01-6.37474E-14-1.29766E-13
 -1      3077 2.02423E+01 4.47936E-01-8.71480E-04 1.04566E-01-3.14413E-14-1.43042E-13
 -1      3078 2.01472E+01 2.40530E-01 1.56981E-03 2.98886E-01-4.78923E-14-1.19808E-13
 -1      3079 2.01363E+01 2.11085E-01 3.36190E-04 3.53857E-01-2.21306E-14-1.21026E-13
 -1      3080 2.01982E+01 3.15822E-01-9.84316E-04 2.52345E-01-5.33535E-14-8.20603E-14
 -1      3081 2.01161E+01 1.92187E-01 7.03627E-04 4.02726E-01-3.70702E-15-1.25588E-13
 -1      3082 2.01155E+01 1.80756E-01 9.29197E-04 4.47790E-01-1.57634E-14-1.11256E-13
 -1      3083 2.01547E+01 2.44850E-01-9.33039E-04 3.66885E-01-3.10624E-14-9.00584E-14
 -1      3084 2.00969E+01 1.75349E-01 6.05041E-05 4.91189E-01-1.33811E-14-1.03643E-13
 -1      3085 2.01056E+01 1.74838E-01 1.35251E-03 5.32219E-01-4.14927E-14-7.51397E-14
 -1      3086 2.01154E+01 2.15302E-01-8.36372E-04 4.63018E-01-1.09400E-14-8.78419E-14
 -1      3087 2.00899E+01 1.76519E-01-3.43830E-04 5.74948E-01-3.15556E-14-2.86804E-14
 -1      3088 2.01075E+01 1.80427E-01 1.65103E-03 6.15578E-01-1.22008E-14 5.62939E-15
 -1      3089 2.00825E+01 2.11088E-01-7.84448E-04 5.52334E-01 2.07393E-15-5.46187E-14
 -1      3090 2.00969E+01 1.82916E-01-4.85075E-04 6.60650E-01-3.65088E-14 2.65432E-14
 -1      3091 2.01241E+01 1.84454E-01 1.84874E-03 7.02334E-01-1.28394E-14 6.79769E-14
 -1      3092 2.00583E+01 2.17420E-01-8.54083E-04 6.42985E-01-1.36228E-14 5.94787E-14
 -1      3093 2.01218E+01 1.80831E-01-3.12159E-04 7.50905E-01 8.98926E-16 8.44630E-14
 -1      3094 2.01607E+01 1.72233E-01 1.95006E-03 7.92802E-01 2.95049E-15 1.14370E-13
 -1      3095 2.00469E+01 2.18920E-01-1.13101E-03 7.39612E-01 2.88054E-15 8.48100E-14
 -1      3096 2.01721E+01 1.54402E-01 2.63281E-04 8.43950E-01-3.37590E-14 1.05693E-13
 -1      3097 2.02265E+01 1.26492E-01 1.93194E-03 8.82622E-01-2.60183E-14 7.86986E-14
 -1      3098 2.00559E+01 1.98118E-01-1.72765E-03 8.43126E-01-1.12851E-14 6.60017E-14
 -1      3099 2.02604E+01 8.49979E-02 1.37316E-03 9.32846E-01-2.98983E-14 7.32609E-14
 -1      3100 2.03362E+01 2.72544E-02 1.71939E-03 9.61745E-01-2.40045E-14 5.92020E-14
 -1      3101 2.00977E+01 1.34460E-01-2.78897E-03 9.50120E-01-4.41068E-14-1.91610E-14
 -1      3102 2.04053E+01-4.81528E-02 3.17864E-03 1.00403E+00-2.69837E-14 1.33348E-14
 -1      3103 2.05104E+01-1.46446E-01 1.14373E-03 1.01279E+00 5.77256E-15-6.00869E-14
 -1      3104 2.01919E+01 4.36418E-03-4.48050E-03 1.05156E+00-6.34805E-14-2.05804E-14
 -1      3105 2.06325E+01-2.64683E-01 5.83851E-03 1.03495E+00 4.70685E-14-6.69290E-14
 -1      3106 2.07751E+01-4.11089E-01-1.29744E-04 1.00868E+00-2.66900E-14-9.40029E-14
 -1      3107 2.03667E+01-2.16505E-01-6.92947E-03 1.13029E+00-3.43468E-14-1.31176E-13
 -1      3108 2.09714E+01-5.74903E-01 9.19284E-03 9.91264E-01-3.92452E-14-3.92821E-14
 -1      3109 2.11572E+01-7.66879E-01-2.63229E-03 9.10447E-01-3.03546E-14 2.05054E-14
 -1      3110 2.06591E+01-5.45716E-01-1.00568E-02 1.15684E+00-1.15155E-14-1.70284E-13
 -1      3111 2.14473E+01-9.63646E-01 1.27770E-02 8.24507E-01-3.49294E-14 7.56107E-14
 -1      3112 2.16719E+01-1.17605E+00-6.69468E-03 6.67250E-01-1.59709E-14 4.99555E-14
 -1      3113 2.11093E+01-9.79802E-01-1.35190E-02 1.08442E+00-2.09224E-15-9.67137E-14
 -1      3114 2.20601E+01-1.36342E+00 1.48494E-02 4.76007E-01 4.15618E-15 1.51337E-13
 -1      3115 2.22996E+01-1.53094E+00-1.19878E-02 2.26926E-01 2.98432E-14 2.07354E-13
 -1      3116 2.17464E+01-1.46329E+00-1.53183E-02 8.45533E-01-3.31825E-15 6.01317E-14
 -1      3117 2.27502E+01-1.62003E+00 1.16865E-02-1.02268E-01-4.46494E-14 2.11686E-13
 -1      3118 2.29555E+01-1.61691E+00-1.34251E-02-4.32068E-01-9.65935E-14 9.78289E-14
 -1      3119 2.25550E+01-1.85171E+00-1.36295E-02 3.59854E-01-1.19559E-14 1.46576E-13
 -1      3120 2.33560E+01-1.47880E+00-2.18550E-03-8.67001E-01-5.04687E-14 1.61914E-13
 -1      3121 2.34737E+01-1.16293E+00-7.11843E-03-1.20240E+00-1.66555E-15 1.29714E-13
 -1      3122 2.34072E+01-1.85386E+00-5.58941E-03-4.04954E-01-4.24539E-14 2.04881E-13
 -1      3123 2.36548E+01-6.53618E-01-2.56970E-02-1.61980E+00 2.58827E-14 4.83160E-14
 -1      3124 2.36417E+01 4.54138E-02 7.00855E-03-1.78032E+00 4.03098E-14 7.99100E-15
 -1      3125 2.40786E+01-1.14093E+00 1.07310E-02-1.33116E+00 1.21791E-14 2.36993E-13
 -1      3126 2.35156E+01 8.34260E-01-5.40638E-02-1.87808E+00-5.35531E-14 3.08226E-14
 -1      3127 2.34184E+01 1.71120E+00 1.18750E-02-1.70708E+00-1.25035E-13 8.65471E-14
 -1      3128 2.42481E+01 4.57270E-01 1.11100E-03-1.95470E+00-1.47000E-14 9.07417E-14
 -1      3129 2.29998E+01 3.12030E+00-2.43739E-02 1.00443E-01-8.55357E-14 1.98983E-13
 -1      3130 2.30333E+01 2.90547E+00-4.56548E-02 7.19785E-01-9.97744E-14 2.61671E-13
 -1      3131 2.32448E+01 2.37883E+00 4.93100E-03 1.38049E+00-5.67602E-14 1.77517E-13
 -1      3132 2.33750E+01 1.59738E+00-4.98074E-02 1.73593E+00 1.69406E-13 2.54030E-13
 -1      3133 2.38293E+01 3.08839E+00-1.95655E-02 1.18476E+00-1.08948E-13 3.04526E-13
 -1      3134 2.35679E+01 7.68313E-01 4.47730E-03 1.86004E+00 1.62929E-13 1.74453E-13
 -1      3135 2.36580E+01-3.71130E-02-3.50372E-02 1.84370E+00 1.11030E-13 1.18241E-13
 -1      3136 2.41718E+01 1.37403E+00-1.98159E-02 1.97955E+00 9.05734E-14 2.56408E-13
 -1      3137 2.35931E+01-7.13461E-01-7.44799E-03 1.52038E+00 1.09615E-13 1.94443E-13
 -1      3138 2.35457E+01-1.19504E+00-1.07368E-02 1.24003E+00 6.96687E-14 2.00275E-13
 -1      3139 2.42344E+01-5.32200E-01 2.92249E-03 1.67660E+00 1.00631E-13 1.70801E-13
 -1      3140 2.32170E+01-1.48347E+00-1.12862E-02 7.88933E-01-2.61618E-14 1.44419E-13
 -1      3141 2.30457E+01-1.60547E+00 8.73366E-03 4.47178E-01-5.79462E-14 1.87075E-13
 -1      3142 2.37514E+01-1.61975E+00 4.87978E-03 8.23471E-01-4.36858E-15 1.77784E-13
 -1      3143 2.25994E+01-1.59920E+00-1.21110E-02 6.43967E-02-1.78705E-13 1.72813E-13
 -1      3144 2.23682E+01-1.48616E+00 1.55147E-02-2.20949E-01-1.65699E-13 2.08637E-13
 -1      3145 2.29426E+01-1.89327E+00-5.92099E-03-3.11020E-02-1.14787E-13 2.69551E-13
 -1      3146 2.19435E+01-1.32567E+00-8.46708E-03-4.66311E-01-1.31303E-13 1.84969E-13
 -1      3147 2.17092E+01-1.11948E+00 1.45523E-02-6.58680E-01-5.44573E-14 2.56213E-13
 -1      3148 2.20874E+01-1.63269E+00-1.36702E-02-6.34724E-01-1.31053E-13 1.54220E-13
 -1      3149 2.13730E+01-9.16362E-01-4.26791E-03-7.81553E-01-1.05199E-13 1.89236E-13
 -1      3150 2.11702E+01-7.06847E-01 1.10661E-02-8.87756E-01-2.64784E-13 8.43857E-14
 -1      3151 2.13658E+01-1.16117E+00-1.42784E-02-9.63937E-01-1.60859E-13 3.65135E-14
 -1      3152 2.09322E+01-5.22086E-01-1.26186E-03-9.25060E-01-1.97929E-13 1.30583E-13
 -1      3153 2.07726E+01-3.50410E-01 7.41940E-03-9.65750E-01-1.02537E-13 2.17513E-13
 -1      3154 2.08317E+01-6.86403E-01-1.15669E-02-1.08937E+00-1.56057E-13 1.58000E-13
 -1      3155 2.06177E+01-2.08114E-01 4.53114E-04-9.50643E-01-1.98881E-13 2.93252E-13
 -1      3156 2.04989E+01-8.52225E-02 4.42943E-03-9.47010E-01-2.27855E-13 3.15459E-13
 -1      3157 2.04704E+01-2.99677E-01-8.17302E-03-1.08577E+00-1.07993E-13 3.83021E-13
 -1      3158 2.04052E+01 1.17939E-02 1.26290E-03-9.03152E-01-1.65245E-13 2.04742E-13
 -1      3159 2.03193E+01 8.98964E-02 2.26014E-03-8.72319E-01-4.99225E-14 1.37796E-13
 -1      3160 2.02433E+01-2.38014E-02-5.31558E-03-1.00964E+00-2.78704E-13 3.63139E-13
 -1      3161 2.02671E+01 1.48278E-01 1.58218E-03-8.14975E-01-6.12943E-14 4.26132E-14
 -1      3162 2.02055E+01 1.91003E-01 8.22308E-04-7.69519E-01-8.07363E-14-2.95984E-14
 -1      3163 2.01102E+01 1.51427E-01-3.23792E-03-8.97734E-01-1.34190E-13 2.67914E-13
 -1      3164 2.01795E+01 2.20194E-01 1.65923E-03-7.08152E-01 8.31324E-14-3.74466E-14
 -1      3165 2.01350E+01 2.37606E-01-5.61776E-05-6.56798E-01 1.04529E-13-5.98961E-14
 -1      3166 2.00384E+01 2.47513E-01-1.84689E-03-7.72630E-01-1.65442E-14 1.94103E-13
 -1      3167 2.01246E+01 2.46663E-01 1.61490E-03-5.97083E-01 4.02975E-14-1.10219E-13
 -1      3168 2.00919E+01 2.47462E-01-5.40497E-04-5.45561E-01-4.10836E-14-1.33097E-13
 -1      3169 2.00041E+01 2.87002E-01-9.74048E-04-6.47828E-01 3.29314E-14-6.31180E-14
 -1      3170 2.00900E+01 2.43817E-01 1.50598E-03-4.90716E-01 2.87644E-14-1.56165E-13
 -1      3171 2.00654E+01 2.34749E-01-7.63125E-04-4.42529E-01 3.94639E-14-2.02061E-13
 -1      3172 1.99911E+01 2.89259E-01-4.59383E-04-5.31107E-01-1.09380E-14-2.32124E-13
 -1      3173 2.00676E+01 2.23975E-01 1.36086E-03-3.94159E-01 1.34328E-14-1.22160E-13
 -1      3174 2.00488E+01 2.09905E-01-8.20707E-04-3.51202E-01 5.61381E-14-4.29140E-14
 -1      3175 1.99893E+01 2.69285E-01-1.76376E-04-4.26596E-01 5.18390E-14-1.27487E-13
 -1      3176 2.00526E+01 1.95911E-01 1.19503E-03-3.09848E-01 3.78624E-15-6.51467E-14
 -1      3177 2.00379E+01 1.80132E-01-7.84010E-04-2.72891E-01 4.38584E-14-9.31738E-14
 -1      3178 1.99925E+01 2.37933E-01-3.24725E-05-3.36044E-01 3.71729E-14-5.00551E-14
 -1      3179 2.00417E+01 1.65470E-01 1.01887E-03-2.38412E-01 1.34084E-14-7.29349E-14
 -1      3180 2.00301E+01 1.50053E-01-6.99838E-04-2.07501E-01 2.15848E-14-3.79792E-13
 -1      3181 1.99971E+01 2.02560E-01 3.03039E-05-2.59609E-01-6.88588E-14-1.80956E-13
 -1      3182 2.00332E+01 1.36313E-01 8.35537E-04-1.79414E-01-4.81486E-14-3.86097E-13
 -1      3183 2.00242E+01 1.22559E-01-5.05505E-04-1.54120E-01-2.11542E-14-5.29103E-13
 -1      3184 2.00014E+01 1.67933E-01 9.98159E-05-1.96586E-01-7.87137E-14-2.73909E-13
 -1      3185 2.00278E+01 1.10660E-01 7.14236E-04-1.34201E-01-9.66885E-14-4.86107E-13
 -1      3186 2.00204E+01 9.91238E-02-2.98422E-04-1.13614E-01-2.56640E-14-5.42549E-13
 -1      3187 2.00088E+01 1.09463E-01-3.66025E-04-1.11582E-01-1.80410E-13-6.68207E-13
 -1      3188 2.00059E+01 1.36174E-01-1.29805E-04-1.48293E-01-1.01570E-13-3.87663E-13
 -1      3189 2.00900E+01 2.61719E-01 2.32597E-03-6.67327E-01 3.94699E-14 1.00116E-13
 -1      3190 2.00656E+01 2.34115E-01-1.30892E-03-6.11178E-01 7.78436E-14 6.13447E-14
 -1      3191 2.00857E+01 2.14396E-01 1.89295E-03-5.59570E-01 6.84871E-14 4.01216E-14
 -1      3192 2.00687E+01 1.99680E-01-4.37893E-04-5.09293E-01 3.02658E-14 2.52553E-14
 -1      3193 2.00564E+01 2.70779E-01-1.47795E-04-5.85653E-01 5.03573E-14 7.53988E-14
 -1      3194 2.00960E+01 4.12754E-01 3.07060E-03-9.44746E-01 3.36580E-14 1.28701E-13
 -1      3195 2.00630E+01 3.68196E-01-2.87459E-03-8.64253E-01 7.18316E-14 1.02451E-13
 -1      3196 2.00881E+01 5.00991E-01 3.46538E-03-1.12686E+00 3.84270E-14 1.68725E-13
 -1      3197 2.00528E+01 4.54926E-01-3.60904E-03-1.03063E+00 5.92444E-14 1.69338E-13
 -1      3198 1.99072E+01 5.12575E-01 1.81818E-03-9.83581E-01 3.08289E-14 1.50346E-13
 -1      3199 2.00689E+01 5.78051E-01 4.00532E-03-1.34220E+00 1.86822E-14 1.48026E-13
 -1      3200 2.00308E+01 5.39977E-01-4.25030E-03-1.23014E+00 3.04468E-14 1.73019E-13
 -1      3201 1.98189E+01 6.13932E-01 2.54146E-03-1.16914E+00 5.92214E-14 1.85930E-13
 -1      3202 2.00433E+01 6.14475E-01 4.92895E-03-1.59057E+00 1.56003E-14 1.41007E-13
 -1      3203 1.99972E+01 6.01200E-01-4.63739E-03-1.46502E+00-2.20948E-15 1.39961E-13
 -1      3204 1.97019E+01 6.97218E-01 3.00905E-03-1.38978E+00 2.73634E-14 1.96678E-13
 -1      3205 2.00316E+01 5.59934E-01 6.68298E-03-1.86849E+00 3.88208E-14 1.80282E-13
 -1      3206 1.99627E+01 5.99858E-01-4.40956E-03-1.73523E+00 5.54363E-14 1.67098E-13
 -1      3207 1.95586E+01 7.25912E-01 2.65693E-03-1.65098E+00 1.95940E-14 1.44259E-13
 -1      3208 2.00860E+01 3.33803E-01 9.93288E-03-2.16778E+00-4.74438E-14 1.58377E-13
 -1      3209 1.99613E+01 4.71858E-01-2.68857E-03-2.03805E+00 2.68962E-14 1.64985E-13
 -1      3210 1.94080E+01 6.39206E-01 5.05275E-04-1.96145E+00 2.36977E-14 2.64582E-13
 -1      3211 2.03158E+01-1.80382E-01 1.54268E-02-2.46817E+00-1.23178E-13 1.31528E-13
 -1      3212 2.00724E+01 1.19350E-01 2.61752E-03-2.36444E+00-1.29767E-13 1.37979E-13
 -1      3213 1.93049E+01 3.40975E-01-4.86860E-03-2.33505E+00-7.25776E-14 1.14852E-13
 -1      3214 2.09121E+01-1.11813E+00 2.12435E-02-2.71106E+00-9.49288E-14 5.75511E-14
 -1      3215 2.04574E+01-5.87482E-01 1.63213E-02-2.68132E+00-7.51686E-14 1.06357E-13
 -1      3216 1.93717E+01-3.08535E-01-1.50681E-02-2.78318E+00-7.50347E-14-2.87834E-14
 -1      3217 2.21392E+01-2.56535E+00 2.29299E-02-2.77224E+00-1.24869E-13 4.91274E-15
 -1      3218 2.13974E+01-1.71410E+00 6.19639E-02-2.87709E+00-9.61464E-14 3.69167E-14
 -1      3219 1.98639E+01-1.46661E+00-2.42839E-02-3.27772E+00-6.34319E-14-6.45196E-14
 -1      3220 2.50213E+01-4.36786E+00 3.28718E-02-2.13233E+00-2.44488E-13 4.65322E-14
 -1      3221 2.38151E+01-3.84372E+00 7.15089E-02-2.65405E+00-2.22241E-13 1.03988E-13
 -1      3222 2.88230E+01 5.14085E+00-1.79949E-01-9.85775E-01 1.42830E-13-3.49720E-13
 -1      3223 2.89521E+01 3.93278E+00-1.74550E-01-2.11893E+00 2.06113E-13-4.05037E-13
 -1      3224 2.63438E+01-4.13901E+00-8.85053E-02 7.64265E-01-6.54025E-14-3.70792E-13
 -1      3225 2.05447E+01-4.52720E-01 1.42328E-02 2.57221E+00-5.48355E-14 3.59912E-14
 -1      3226 2.09613E+01-9.51575E-01 1.63030E-02 2.60442E+00 7.01305E-15 1.41069E-13
 -1      3227 2.01878E+01 1.95428E-01 2.75445E-03 2.25852E+00-2.83552E-14 7.44062E-14
 -1      3228 2.04147E+01-7.86051E-02 1.36481E-02 2.36447E+00-8.80069E-15 5.00637E-14
 -1      3229 1.95029E+01-1.87257E-01-1.45136E-02 2.65924E+00-5.43764E-14 5.02298E-14
 -1      3230 2.00757E+01 5.13890E-01-2.03517E-03 1.93228E+00 1.08197E-13-8.15579E-14
 -1      3231 2.01949E+01 3.89245E-01 8.66604E-03 2.06617E+00 8.21587E-14 1.31092E-13
 -1      3232 1.94388E+01 4.07237E-01-4.30999E-03 2.22928E+00 2.15397E-14 6.18776E-15
 -1      3233 2.00657E+01 6.25929E-01-3.69593E-03 1.62184E+00 2.20277E-13-2.58546E-13
 -1      3234 2.01346E+01 5.91374E-01 5.93675E-03 1.76100E+00 1.41360E-13-1.64693E-13
 -1      3235 1.95245E+01 6.79443E-01 6.70332E-04 1.85900E+00 2.05995E-13-8.65437E-14
 -1      3236 2.00862E+01 6.23004E-01-3.94975E-03 1.33924E+00 1.21093E-13-2.98214E-13
 -1      3237 2.01338E+01 6.36606E-01 4.42899E-03 1.47191E+00 2.23911E-13-2.44914E-13
 -1      3238 1.96535E+01 7.55296E-01 2.57729E-03 1.54095E+00 1.85760E-13 2.96658E-14
 -1      3239 2.01066E+01 5.64170E-01-3.62505E-03 1.08911E+00-8.72946E-14-7.62141E-14
 -1      3240 2.01457E+01 5.99905E-01 3.61155E-03 1.20910E+00-3.73974E-14-2.59868E-13
 -1      3241 1.97748E+01 7.25437E-01 2.86891E-03 1.26636E+00 2.82017E-14 3.15319E-15
 -1      3242 2.01168E+01 4.84028E-01-3.09077E-03 8.72761E-01-1.83891E-13-2.04186E-14
 -1      3243 2.01522E+01 5.27056E-01 3.11137E-03 9.77346E-01-9.74732E-14 4.68970E-15
 -1      3244 1.98708E+01 6.46166E-01 2.46102E-03 1.02925E+00-1.30322E-13 6.33253E-14
 -1      3245 2.01164E+01 4.01192E-01-2.52237E-03 6.89454E-01-2.86066E-13 6.49888E-14
 -1      3246 2.01490E+01 4.43739E-01 2.73233E-03 7.78086E-01-2.12558E-13 7.55199E-14
 -1      3247 1.99389E+01 5.49933E-01 1.85387E-03 8.26090E-01-2.52564E-13 1.82923E-13
 -1      3248 2.01081E+01 3.24703E-01-1.99920E-03 5.36987E-01-1.86478E-13-6.17439E-14
 -1      3249 2.01375E+01 3.63138E-01 2.39003E-03 6.10442E-01-2.58064E-13 1.38587E-14
 -1      3250 1.99834E+01 4.54062E-01 1.27611E-03 6.54217E-01-2.53720E-13 9.67262E-14
 -1      3251 2.00951E+01 2.58243E-01-1.55054E-03 4.12251E-01 8.81484E-14 2.44645E-14
 -1      3252 2.01210E+01 2.91215E-01 2.05988E-03 4.72030E-01-8.15182E-14-5.55059E-14
 -1      3253 2.00098E+01 3.66870E-01 8.11141E-04 5.10938E-01-1.41624E-13 2.06188E-16
 -1      3254 2.00800E+01 2.02684E-01-1.18183E-03 3.11691E-01 8.81007E-14 1.31941E-13
 -1      3255 2.01022E+01 2.30016E-01 1.74241E-03 3.59606E-01 1.64464E-13 4.98704E-14
 -1      3256 2.00236E+01 2.91626E-01 4.73650E-04 3.93277E-01 7.09727E-14 1.09758E-13
 -1      3257 2.00649E+01 1.57468E-01-9.01698E-04 2.31668E-01 3.23526E-13-5.49393E-14
 -1      3258 2.00834E+01 1.79581E-01 1.44037E-03 2.69578E-01 2.21755E-13 1.14618E-13
 -1      3259 2.00291E+01 2.28930E-01 2.53357E-04 2.98018E-01 1.62951E-13 1.79528E-13
 -1      3260 2.00506E+01 1.21844E-01-6.54636E-04 1.68832E-01 2.45892E-13-1.27286E-13
 -1      3261 2.00658E+01 1.39102E-01 1.15498E-03 1.98513E-01 2.53733E-13-6.79663E-14
 -1      3262 2.00294E+01 1.78064E-01 1.31738E-04 2.22012E-01 3.09001E-13 2.40783E-13
 -1      3263 2.00382E+01 9.48302E-02-1.34651E-04 1.20061E-01 6.29077E-15-1.49770E-13
 -1      3264 2.00499E+01 1.07395E-01 8.82449E-04 1.42761E-01 2.09954E-13-1.16563E-13
 -1      3265 2.00264E+01 1.37895E-01 1.22423E-05 1.62112E-01 1.89852E-13-2.69624E-15
 -1      3266 2.00263E+01 8.57763E-02 2.13123E-04 9.46078E-02-2.18245E-13 3.27740E-14
 -1      3267 2.00355E+01 8.98475E-02 6.11238E-04 1.07517E-01-1.58587E-13-3.91115E-14
 -1      3268 2.00206E+01 1.13464E-01-2.04530E-04 1.23085E-01-1.02955E-13 2.27580E-14
 -1      3269 2.00143E+01 9.94936E-02-6.85521E-04 9.88135E-02-2.04024E-13 3.64839E-13
 -1      3270 2.70246E+01-1.25084E+00-1.50926E-02 1.12683E+00 1.89293E-14 6.04794E-14
 -1      3271 2.66876E+01 4.81478E-01-1.36623E-01 1.89767E+00-1.09662E-13 1.25948E-13
 -1      3272 2.00330E+01 2.23935E+00-4.29819E-03 2.71727E-01 1.07288E-13-1.40842E-13
 -1      3273 2.00171E+01 2.28052E+00-3.56710E-03 1.57488E-01 8.80968E-14-1.40938E-13
 -1      3274 1.99221E+01 1.97730E-01-2.65411E-04-1.20751E-02 1.94109E-15 1.34801E-13
 -1      3275 1.99214E+01 1.98556E-01-3.81801E-04 5.76560E-03 2.03794E-14 2.41565E-13
 -1      3276 1.99797E+01 1.36833E-01 1.01295E-04-9.65747E-02-3.43508E-14-1.50475E-13
 -1      3277 1.99657E+01 1.49885E-01-7.25233E-04-9.00809E-02-5.71541E-14 1.00399E-13
 -1      3278 1.99321E+01 1.87324E-01 2.74021E-05-4.83913E-02-6.40975E-14 7.41091E-14
 -1      3279 1.99255E+01 1.92637E-01-5.93826E-04-3.24473E-02 2.70334E-14 2.58674E-13
 -1      3280 1.99091E+01 2.17304E-01 7.73363E-04-2.57966E-02-5.78273E-14 2.56023E-13
 -1      3281 1.28254E+01-1.75286E+00 1.88803E-01-4.80562E+00-2.74648E-13-3.07407E-13
 -1      3282 1.57944E+01-2.90502E+00 3.39603E-02-5.28016E+00-3.31186E-13-1.32908E-13
 -1      3283 2.03089E+01 1.02201E+00-5.01906E-04 6.39993E-01 1.47872E-13-1.44817E-15
 -1      3284 2.02825E+01 1.34344E+00 2.68045E-03 7.21990E-01 1.56796E-13-1.15372E-14
 -1      3285 2.02857E+01 1.17612E+00 2.24902E-04 5.36619E-01 1.37387E-13-1.76640E-14
 -1      3286 2.02549E+01 8.16471E-01-3.32256E-03 4.25740E-01 1.38964E-13 4.63461E-15
 -1      3287 1.52752E+01-2.50810E+00-7.60649E-03 5.10288E+00-4.99878E-14 2.04323E-13
 -1      3288 1.25545E+01-1.17659E+00 1.35072E-01 4.21303E+00-2.29122E-14 2.37713E-13
 -1      3289 2.57696E+01-3.56386E+00-3.35350E-03-1.07380E+00 1.45825E-13-1.70815E-13
 -1      3290 2.66350E+01-2.61513E+00-9.98033E-02 1.26555E-01 8.80112E-14-1.53641E-13
 -1      3291 2.61751E+01-1.80536E+00-8.81440E-03 8.59013E-01 2.23064E-13-1.07900E-14
 -1      3292 1.99525E+01 1.66405E-01 2.65273E-04-7.81275E-02 5.23271E-14 3.61883E-13
 -1      3293 1.99409E+01 1.75793E-01-7.37517E-04-6.57688E-02-5.62486E-14 2.30189E-13
 -1      3294 1.99242E+01 2.01556E-01 6.55737E-04-6.55465E-02-1.19094E-13 2.11215E-13
 -1      3295 1.99502E+01 1.75041E-01 3.18898E-04-9.63259E-02-6.13996E-14 1.67030E-13
 -1      3296 2.14392E+01-1.56218E+00 4.46741E-02 2.74666E+00-3.36276E-15 5.44877E-14
 -1      3297 2.21986E+01-2.20760E+00 4.97677E-02 2.56197E+00-4.10678E-14-6.15376E-14
 -1      3298 1.99672E+01-1.32550E+00-3.81212E-02 3.14056E+00-4.09898E-14 6.10727E-14
 -1      3299 2.24315E+01-2.98799E+00 6.04396E-02 2.95177E+00-1.09643E-14-7.74276E-14
 -1      3300 2.36071E+01-3.67966E+00 5.09503E-02 2.49615E+00-4.20913E-14-1.66539E-13
 -1      3301 2.62960E+01 2.35834E+00-3.16898E-02 2.20146E+00-2.40891E-13 1.01981E-13
 -1      3302 2.56063E+01 3.61370E+00-1.24513E-01 1.75210E+00-1.51372E-13 6.52811E-14
 -1      3303 2.00951E+01 3.29881E-01 2.70778E-03-7.93259E-01 9.56393E-14 9.30437E-14
 -1      3304 2.00655E+01 2.92143E-01-2.10923E-03-7.26599E-01 7.52053E-14 1.04738E-13
 -1      3305 2.00188E+01 3.30970E-01 4.16059E-04-6.98061E-01 5.70622E-14 6.47126E-14
 -1      3306 1.99714E+01 4.14185E-01 1.07409E-03-8.28378E-01 5.82966E-14 1.02191E-13
 -1      3307 2.46074E+01-4.25976E+00 9.02637E-02 2.37793E+00-1.29436E-13-2.01061E-13
 -1      3308 2.01232E+01 2.60593E-01-1.36319E-04-2.32731E-01 2.74732E-14 5.38255E-14
 -1      3309 2.01438E+01 3.10239E-01 3.07025E-03-1.56159E-01 5.44819E-14 5.38894E-14
 -1      3310 2.01094E+01 2.22891E+00-5.41901E-03-1.06919E+00-5.52860E-14-2.33976E-13
 -1      3311 2.01844E+01 2.03414E+00-1.02396E-02-1.14941E+00-7.99120E-14-2.29264E-13
 -1      3312 2.02731E+01 1.65416E+00 9.30439E-03-9.38684E-01-7.91422E-14-2.24261E-13
 -1      3313 2.01906E+01 1.97025E+00 9.28813E-03-8.62744E-01-4.29140E-14-2.18677E-13
 -1      3314 2.47735E+01 4.43565E+00-8.48722E-02 9.67445E-01-8.09491E-14 8.41740E-14
 -1      3315 2.48785E+01 4.83282E+00-1.07308E-01-5.01923E-02-3.63043E-14 5.90717E-15
 -1      3316 2.64545E+01-4.58872E+00 3.95069E-02-1.47631E+00-2.82836E-13 5.25829E-14
 -1      3317 1.93731E+01-3.80208E+00-9.71390E-03 5.02280E+00 1.53835E-13-1.18724E-14
 -1      3318 1.68511E+01-2.77212E+00 1.25501E-01 5.33036E+00 2.56947E-13-8.80060E-14
 -1      3319 2.66134E+01-3.02757E+00-8.02848E-02 4.20342E-01-1.05076E-13 1.73528E-13
 -1      3320 2.57960E+01-4.06129E+00 4.18582E-02 1.92098E+00-3.56781E-14 1.80932E-13
 -1      3321 2.46788E+01-4.20516E+00 1.95410E-02 2.29631E+00 8.67015E-14 1.56881E-13
 -1      3322 9.90416E+00 1.12985E-01 4.73858E-02 2.27379E+00 5.98514E-14-7.51621E-14
 -1      3323 9.47959E+00 4.27787E-01 1.14443E-01 2.15363E-01-6.28393E-14 7.98528E-14
 -1      3324 2.02831E+01 7.72886E-01 3.35703E-03-2.71732E-01-2.53461E-14-1.96563E-13
 -1      3325 2.02467E+01 6.21551E-01-2.64223E-03-1.28551E-01-3.80419E-14-1.75536E-13
 -1      3326 2.02792E+01 6.67351E-01-4.63835E-04-9.29550E-02-1.61956E-14-1.73164E-13
 -1      3327 1.24454E+01-1.29460E+00 1.01937E-01-4.72823E+00-1.09981E-14-1.98314E-14
 -1      3328 1.43757E+01-2.24046E+00 1.16638E-01-5.57929E+00 9.56110E-14-6.82787E-15
 -1      3329 2.20443E+01-4.62621E+00 1.04865E-01-4.57765E+00 9.26412E-14 5.39586E-14
 -1      3330 2.40038E+01-4.47672E+00-3.05770E-02-3.01982E+00 6.08749E-14-1.42018E-13
 -1      3331 2.16455E+01-3.67208E+00-3.16948E-02-3.66966E+00-2.34144E-13-1.50296E-14
 -1      3332 2.00087E+01 2.30078E+00-3.83058E-03 6.19832E-02 8.25913E-14-1.45244E-13
 -1      3333 2.00083E+01 2.30158E+00-3.76617E-03-5.41705E-02 7.61172E-14-1.67108E-13
 -1      3334 2.01169E+01 2.01850E+00 5.43135E-03 9.16963E-02 7.26899E-14-1.29857E-13
 -1      3335 2.02580E+01 1.52450E+00 7.01295E-03 5.35522E-01 1.49733E-13-5.55777E-14
 -1      3336 2.01637E+01 1.85806E+00-6.72145E-03 6.41452E-01 1.62936E-13-6.15812E-14
 -1      3337 2.01237E+01 1.99228E+00-3.06985E-03 5.50092E-01 1.44052E-13-7.23659E-14
 -1      3338 1.75795E+01-2.46134E+00 5.07282E-02 4.51175E+00-1.09399E-13 4.64351E-14
 -1      3339 1.62852E+01-2.71081E+00 2.49154E-02-5.27672E+00 7.08739E-14 2.12955E-13
 -1      3340 1.37670E+01-5.74256E-01 7.52024E-02 3.61660E+00-7.50580E-14 2.28026E-13
 -1      3341 1.16758E+01-5.03283E-01 1.12340E-01 3.54535E+00-6.03961E-14 4.22828E-13
 -1      3342 1.10597E+01 1.13415E-01 5.35486E-02 2.40429E+00 1.28057E-14 1.64854E-13
 -1      3343 2.46117E+01 2.58268E+00-8.46695E-02-1.89560E+00-8.30724E-14 1.44607E-14
 -1      3344 2.55960E+01 1.95696E+00-8.45629E-02-2.10954E+00-1.47125E-13-2.06606E-14
 -1      3345 9.25352E+00 2.64606E-01 1.55308E-01-2.84071E-01-7.06510E-14-1.25649E-13
 -1      3346 2.03069E+01 1.06919E+00 5.54908E-03-5.23142E-01-1.83045E-14-2.09021E-13
 -1      3347 2.02757E+01 9.08343E-01-2.65647E-03-3.79890E-01-1.05560E-14-2.00473E-13
 -1      3348 2.02934E+01 9.58330E-01 9.64416E-04-3.19675E-01-2.93547E-14-2.06996E-13
 -1      3349 2.39091E+01 2.44431E+00-2.33028E-02-1.54824E+00-7.27855E-14 1.31558E-13
 -1      3350 2.30888E+01 2.50220E+00-4.22077E-02-1.17314E+00-1.18244E-13 1.97249E-13
 -1      3351 2.30013E+01 2.97199E+00-8.31215E-03-6.30377E-01-9.83953E-14 1.35760E-13
 -1      3352 2.44099E+01 3.69451E+00-4.51780E-02-1.31685E+00-3.46181E-14 5.02758E-14
 -1      3353 1.99626E+01 1.59531E-01-7.88065E-04 8.96195E-02 1.42062E-14-2.88793E-13
 -1      3354 1.99775E+01 1.47116E-01 2.44372E-04 9.74123E-02 3.11063E-14 2.47470E-13
 -1      3355 2.53405E+01 7.76815E-01-2.96850E-02-1.95455E+00-1.13722E-13-4.81603E-14
 -1      3356 2.36043E+01 3.57285E+00-3.20600E-02-2.44710E-01-6.13155E-14 2.95402E-13
 -1      3357 1.99493E+01 1.74994E-01 1.86082E-04 7.61565E-02 1.96429E-13-6.40925E-13
 -1      3358 1.99467E+01 1.87065E-01 6.32680E-04 9.44860E-02-1.26266E-13-2.74450E-13
 -1      3359 1.99379E+01 1.83507E-01-7.33238E-04 6.26324E-02 8.44995E-14-2.36532E-13
 -1      3360 2.02637E+01 1.39629E+00-4.03754E-03-7.65013E-01-5.18547E-14-2.21736E-13
 -1      3361 2.00904E+01 2.40285E-01-6.33423E-04-4.82024E-01 5.43968E-14 4.13765E-14
 -1      3362 2.00871E+01 1.93396E-01 1.37736E-03-4.60165E-01 2.28806E-14 3.80451E-14
 -1      3363 2.00798E+01 1.94755E-01 5.56449E-04-4.09700E-01 2.18847E-14 3.35928E-14
 -1      3364 1.61890E+01-1.83743E+00 9.30465E-02 4.58843E+00 1.92246E-13-1.35537E-13
 -1      3365 2.01190E+01 2.00012E+00-3.02319E-03-5.43956E-01 7.32617E-15-1.77665E-13
 -1      3366 2.01609E+01 1.86232E+00-7.16632E-03-6.40474E-01-1.63881E-14-2.05535E-13
 -1      3367 2.48894E+01 4.53020E+00-1.00013E-01-7.44617E-01-3.23352E-14-1.90906E-14
 -1      3368 2.02113E+01 4.21411E-01-1.49739E-03-9.12824E-02 7.49089E-14 5.90126E-14
 -1      3369 2.01630E+01 3.74998E-01-1.20793E-03-6.90624E-02 9.22077E-14 5.12169E-14
 -1      3370 2.01987E+01 4.63887E-01 3.92283E-03 3.86552E-02 1.15175E-13 4.19362E-14
 -1      3371 2.00557E+01 2.17928E+00-3.57855E-03 3.62342E-01 1.15345E-13-1.22984E-13
 -1      3372 2.01456E+01 1.93905E+00 6.33768E-03 2.63508E-01 8.93995E-14-1.13104E-13
 -1      3373 2.00852E+01 2.09397E+00-5.75182E-03 4.68453E-01 1.34718E-13-8.19898E-14
 -1      3374 2.04978E+01-2.66590E+00 1.76548E-02 3.74700E+00-4.23862E-14-6.03979E-14
 -1      3375 1.99239E+01 1.96623E-01-5.21601E-04 2.69575E-02 8.14104E-14 2.55810E-13
 -1      3376 1.99296E+01 1.92569E-01-1.19052E-04 4.38846E-02 2.65951E-14 8.30717E-14
 -1      3377 1.99207E+01 2.10155E-01 7.64852E-04 6.00196E-02 1.09296E-13-1.73260E-13
 -1      3378 1.99078E+01 2.20424E-01 8.08509E-04 1.79052E-02-1.15602E-13 1.85657E-13
 -1      3379 1.26002E+01-9.71345E-01 1.22708E-01-3.89124E+00-1.58568E-13-2.07528E-13
 -1      3380 1.11870E+01 7.77646E-01 7.07332E-02 9.95662E-02-6.63384E-14 2.52368E-14
 -1      3381 9.96927E+00 5.11507E-01 1.18179E-01-6.60605E-01-4.12799E-15 1.20265E-13
 -1      3382 1.07637E+01 3.50271E-01 3.21536E-02-1.67406E+00-5.72979E-15-6.66134E-15
 -1      3383 2.49076E+01-4.05073E+00-1.56088E-03-1.89068E+00 1.19783E-13-2.44223E-13
 -1      3384 2.50879E+01-3.28393E+00 6.00889E-03-7.41480E-01 2.26829E-13-3.56685E-13
 -1      3385 2.34460E+01-4.01312E+00-1.12879E-02-2.61803E+00 5.12767E-14-2.32266E-13
 -1      3386 2.57862E+01 1.04969E+00-1.89484E-02 2.01119E+00-1.30944E-13 1.22742E-13
 -1      3387 1.99983E+01 1.19099E-01-2.57548E-04-1.07841E-01-2.55312E-13-5.69411E-13
 -1      3388 1.99882E+01 1.27828E-01-3.95257E-04-1.02578E-01-1.37641E-13-2.00616E-13
 -1      3389 1.99764E+01 1.50748E-01 3.56810E-04-1.14239E-01-2.31703E-13-2.19764E-13
 -1      3390 1.99981E+01 1.32886E-01 5.56832E-04-1.24637E-01-2.76842E-13-3.80720E-13
 -1      3391 2.02065E+01 5.45124E-01-2.12881E-03 1.39132E-01 1.11070E-13 2.41253E-14
 -1      3392 2.02547E+01 6.83960E-01 3.60955E-03 2.91241E-01 1.18428E-13 8.77823E-15
 -1      3393 2.02794E+01 8.48214E-01 9.62589E-04 3.52487E-01 1.18164E-13 2.30756E-15
 -1      3394 2.02502E+01 6.01864E-01-8.27253E-04 1.06780E-01 1.00448E-13 3.21209E-14
 -1      3395 2.06895E+01-4.20388E+00 4.49746E-02-4.75702E+00 7.94989E-14 1.30098E-13
 -1      3396 2.00984E+01 2.05469E-01 7.27489E-04-3.56529E-01 3.51032E-14 5.56136E-14
 -1      3397 2.01037E+01 2.27466E-01 1.73278E-03-2.98072E-01 4.41071E-14 5.38657E-14
 -1      3398 2.01258E+01 2.47179E-01-1.04241E-03-3.75449E-01 3.02185E-14 5.21273E-14
 -1      3399 2.61711E+01-1.15645E+00-3.91448E-02-1.37591E+00-1.07303E-13-5.26731E-14
 -1      3400 2.67560E+01-2.19784E+00-3.66906E-02-5.49844E-01-1.46435E-13 1.36280E-13
 -1      3401 2.58627E+01-2.79729E+00 2.16800E-02 6.98107E-02-1.04389E-13 9.96876E-14
 -1      3402 1.91586E+01-2.97019E+00 1.36681E-01-4.50573E+00-2.55140E-13-6.17804E-14
 -1      3403 2.00528E+01 2.18394E+00-3.43644E-03-3.55017E-01 4.53810E-14-1.42609E-13
 -1      3404 2.00812E+01 2.10191E+00-5.23170E-03-4.63683E-01 2.17973E-14-1.66289E-13
 -1      3405 2.01911E+01 1.77804E+00 5.34250E-03-4.10710E-01 6.12700E-15-1.60477E-13
 -1      3406 2.08016E+01-3.92871E+00 7.93363E-02 4.46083E+00 1.45606E-13 8.21652E-14
 -1      3407 1.96315E+01-3.19435E+00 1.57235E-02 4.35085E+00 1.70596E-13 2.67772E-14
 -1      3408 2.18541E+01-4.10937E+00-4.46517E-02 3.73757E+00 1.36847E-13 1.40672E-13
 -1      3409 1.21598E+01 9.38000E-02 1.10497E-01 2.73779E+00 5.98688E-14-4.53249E-14
 -1      3410 2.01659E+01 3.02232E-01-1.34487E-03-2.51179E-01 3.85872E-14 6.29039E-14
 -1      3411 1.17145E+01-6.27051E-01 1.11461E-01-4.03131E+00-1.03216E-14-4.37567E-14
 -1      3412 1.38140E+01-7.52234E-01 6.78807E-02-3.99969E+00-1.68979E-14-7.01245E-14
 -1      3413 1.11201E+01 5.01293E-02 6.61167E-02-2.86130E+00-9.03583E-14-1.23679E-13
 -1      3414 1.03761E+01 6.53703E-01 9.12974E-02 6.98175E-01-3.26648E-14 2.48135E-14
 -1      3415 1.03037E+01 6.00418E-01 7.23997E-02-1.19896E+00-8.47308E-14-6.80289E-14
 -1      3416 2.53547E+01-4.54587E-01-5.51819E-02-1.75162E+00-3.82923E-14 3.23023E-14
 -1      3417 2.02411E+01 3.96392E-01 1.31617E-03 1.97184E-01-3.11505E-14-1.07672E-13
 -1      3418 2.02158E+01 3.41078E-01-6.04460E-04 2.63020E-01-3.65279E-14-8.84626E-14
 -1      3419 2.01864E+01 3.02148E-01 6.61751E-04 3.16090E-01-3.45454E-14-4.74708E-14
 -1      3420 2.01638E+01 2.75167E-01 1.57739E-04 3.69027E-01-9.36892E-15-4.11400E-14
 -1      3421 2.02186E+01 3.73246E-01-3.89492E-05 2.66098E-01-2.48303E-15-5.61730E-14
 -1      3422 2.01283E+01 2.58993E-01 2.57156E-05 4.15046E-01-2.06115E-15-1.24113E-14
 -1      3423 2.01095E+01 2.51264E-01 7.56125E-04 4.61677E-01-7.02929E-15-3.79187E-14
 -1      3424 2.01515E+01 3.10447E-01-1.23276E-04 3.67436E-01 2.65094E-15-1.32541E-14
 -1      3425 2.00705E+01 2.49498E-01-4.84617E-04 5.06039E-01 1.43867E-14-4.24954E-14
 -1      3426 2.00565E+01 2.52937E-01 1.23890E-03 5.51347E-01 1.87464E-14-1.82224E-14
 -1      3427 2.00773E+01 2.90521E-01-1.46217E-04 4.59605E-01 2.53549E-14 1.17690E-16
 -1      3428 2.00163E+01 2.57840E-01-8.25714E-04 5.98353E-01 1.56020E-14-8.10753E-16
 -1      3429 2.00083E+01 2.64477E-01 1.66298E-03 6.45689E-01 4.13118E-15 1.28982E-14
 -1      3430 2.00000E+01 2.95945E-01-1.94886E-04 5.52364E-01 2.72424E-14-4.88360E-14
 -1      3431 1.99698E+01 2.67990E-01-9.49798E-04 6.98502E-01-5.30065E-14 9.90833E-15
 -1      3432 1.99705E+01 2.69133E-01 2.08409E-03 7.49555E-01-3.79555E-14-3.73417E-14
 -1      3433 1.99240E+01 3.09387E-01-3.73763E-04 6.53468E-01-3.45284E-14-1.95040E-14
 -1      3434 1.99383E+01 2.62123E-01-7.80706E-04 8.10163E-01-4.07717E-14-7.74841E-14
 -1      3435 1.99524E+01 2.47638E-01 2.55094E-03 8.64848E-01-4.15832E-14-7.81686E-14
 -1      3436 1.98557E+01 3.12025E-01-8.10607E-04 7.68616E-01-6.47968E-14-1.33510E-13
 -1      3437 1.99340E+01 2.19286E-01-1.89183E-04 9.33895E-01-3.93361E-14-1.18362E-13
 -1      3438 1.99692E+01 1.77076E-01 3.08820E-03 9.89986E-01-3.86488E-14-1.07119E-13
 -1      3439 1.98058E+01 2.81959E-01-1.68228E-03 9.01392E-01-4.59931E-14-1.66464E-13
 -1      3440 1.99765E+01 1.14669E-01 1.03610E-03 1.06620E+00-5.48433E-14-8.38844E-14
 -1      3441 2.00444E+01 3.07135E-02 3.65361E-03 1.11855E+00-9.67853E-14-8.55072E-14
 -1      3442 1.97918E+01 1.93032E-01-3.20450E-03 1.05272E+00-4.58351E-14-1.72881E-13
 -1      3443 2.00957E+01-7.97323E-02 3.20996E-03 1.19745E+00-6.55071E-14-7.74860E-14
 -1      3444 2.02120E+01-2.20227E-01 4.01040E-03 1.23646E+00-6.78751E-15-8.94977E-14
 -1      3445 1.98412E+01 1.44832E-02-5.68569E-03 1.21924E+00-7.03176E-14-1.60383E-13
 -1      3446 2.03350E+01-3.91319E-01 6.88697E-03 1.30690E+00 2.61071E-14-7.02355E-14
 -1      3447 2.05181E+01-5.99491E-01 3.64398E-03 1.31597E+00 1.28823E-14-3.99638E-14
 -1      3448 1.99965E+01-2.87658E-01-9.42635E-03 1.38938E+00 4.35724E-14-6.78203E-14
 -1      3449 2.07480E+01-8.35763E-01 1.18735E-02 1.35517E+00-6.55725E-15-3.72222E-14
 -1      3450 2.10133E+01-1.11007E+00 9.11419E-04 1.30785E+00-1.40319E-14-6.84240E-16
 -1      3451 2.03175E+01-7.39428E-01-1.41560E-02 1.53237E+00 1.41723E-14-7.30416E-15
 -1      3452 2.13935E+01-1.39480E+00 1.87261E-02 1.27296E+00 4.03590E-14 3.63838E-14
 -1      3453 2.17448E+01-1.69927E+00-3.50249E-03 1.13012E+00 9.04151E-14 8.04823E-14
 -1      3454 2.08773E+01-1.34972E+00-2.12811E-02 1.59195E+00 7.36596E-14 6.14088E-14
 -1      3455 2.22967E+01-1.97071E+00 2.38675E-02 9.59870E-01 2.18710E-14 1.19025E-13
 -1      3456 2.27002E+01-2.21297E+00-1.50677E-02 6.82991E-01-4.09100E-14 1.03213E-13
 -1      3457 2.17425E+01-2.03866E+00-2.72090E-02 1.45156E+00 6.99584E-14 7.94503E-14
 -1      3458 2.34218E+01-2.30687E+00 2.97130E-02 2.69921E-01-2.80461E-14 1.55757E-13
 -1      3459 2.37565E+01-2.28071E+00-1.62285E-02-1.24441E-01 1.48779E-14 1.41700E-13
 -1      3460 2.29623E+01-2.64154E+00-3.56815E-02 9.73284E-01 1.95226E-14 1.09264E-13
 -1      3461 2.42240E+01-2.00126E+00-1.50650E-02 6.23425E-01 4.85452E-14 2.12160E-13
 -1      3462 2.38833E+01-2.27037E+00 1.07147E-02 1.59693E-01 1.96872E-14 2.25204E-13
 -1      3463 2.31825E+01-2.29153E+00-1.04311E-02-3.35644E-01-7.11462E-14 2.19078E-13
 -1      3464 2.27689E+01-2.15509E+00 2.47488E-02-6.84123E-01-1.24211E-13 2.06936E-13
 -1      3465 2.35887E+01-2.62928E+00 1.80408E-03-5.51825E-01-5.49148E-15 1.73731E-13
 -1      3466 2.21384E+01-1.92118E+00-6.33366E-03-9.42740E-01-2.08524E-13 1.89726E-13
 -1      3467 2.17581E+01-1.62673E+00 2.24612E-02-1.13785E+00-1.77345E-13 1.71768E-13
 -1      3468 2.22397E+01-2.28936E+00-2.27138E-02-1.26739E+00-1.68542E-13 2.32452E-13
 -1      3469 2.12969E+01-1.33348E+00-1.12064E-03-1.22092E+00-2.10945E-13 1.11624E-13
 -1      3470 2.09928E+01-1.03382E+00 1.49868E-02-1.30033E+00-2.52971E-13 1.00644E-13
 -1      3471 2.12087E+01-1.61791E+00-2.36631E-02-1.53348E+00-2.74846E-13 2.60111E-13
 -1      3472 2.06966E+01-7.67624E-01 2.38648E-03-1.28175E+00-3.22681E-14 1.67906E-13
 -1      3473 2.04773E+01-5.23801E-01 8.89204E-03-1.28748E+00 6.57112E-14 3.08423E-13
 -1      3474 2.05103E+01-9.47591E-01-1.79252E-02-1.53442E+00-5.12222E-14 2.11008E-13
 -1      3475 2.03067E+01-3.19160E-01 3.63898E-03-1.22065E+00-8.65965E-14 3.72810E-13
 -1      3476 2.01612E+01-1.44910E-01 4.67528E-03-1.18509E+00-2.46861E-13 3.00185E-13
 -1      3477 2.00854E+01-4.12486E-01-1.15992E-02-1.40683E+00 2.77617E-14 3.16833E-13
 -1      3478 2.00755E+01-4.46836E-03 3.56975E-03-1.10092E+00-3.25183E-13 3.23575E-13
 -1      3479 1.99855E+01 1.07371E-01 1.95310E-03-1.04481E+00-2.27376E-13 3.10482E-13
 -1      3480 1.98547E+01-3.61662E-02-6.95769E-03-1.23032E+00-2.74463E-13 2.02769E-13
 -1      3481 1.99531E+01 1.93462E-01 3.04410E-03-9.58592E-01-2.71545E-13 3.00336E-13
 -1      3482 1.99009E+01 2.56280E-01 3.12001E-04-8.94435E-01-2.61621E-13 2.02724E-13
 -1      3483 1.97504E+01 2.02617E-01-3.85081E-03-1.04565E+00-2.77110E-13 1.12647E-13
 -1      3484 1.98996E+01 3.01138E-01 2.47125E-03-8.13347E-01-9.80325E-14 1.48526E-13
 -1      3485 1.98717E+01 3.28635E-01-6.08828E-04-7.48511E-01 3.27679E-14 5.22593E-14
 -1      3486 1.97227E+01 3.35255E-01-1.87924E-03-8.71061E-01-1.97238E-13 2.57713E-13
 -1      3487 1.98867E+01 3.44656E-01 1.98438E-03-6.75657E-01-3.55300E-16 4.17640E-14
 -1      3488 1.98733E+01 3.48562E-01-1.06903E-03-6.14381E-01-1.20786E-13-1.29787E-13
 -1      3489 1.97376E+01 3.92150E-01-6.90683E-04-7.13972E-01-5.54919E-14 1.09883E-13
 -1      3490 1.98954E+01 3.45950E-01 1.60327E-03-5.50836E-01-9.08039E-15-3.36884E-15
 -1      3491 1.98900E+01 3.35408E-01-1.24288E-03-4.95423E-01 1.00989E-13 5.77223E-14
 -1      3492 1.97733E+01 3.98704E-01-1.96433E-05-5.76712E-01-2.24198E-14 1.04440E-13
 -1      3493 1.99137E+01 3.21902E-01 1.30948E-03-4.41232E-01 2.41892E-14-1.05190E-13
 -1      3494 1.99123E+01 3.03587E-01-1.24698E-03-3.92746E-01 4.06807E-14-1.01222E-13
 -1      3495 1.98161E+01 3.74497E-01 3.21498E-04-4.59264E-01-6.78409E-14 1.69084E-13
 -1      3496 1.99345E+01 2.84710E-01 1.07632E-03-3.47432E-01 1.04707E-13-1.32056E-13
 -1      3497 1.99349E+01 2.63274E-01-1.15566E-03-3.06133E-01 5.61885E-14-1.07736E-13
 -1      3498 1.98585E+01 3.33763E-01 4.58986E-04-3.60523E-01 4.08444E-14-2.64895E-13
 -1      3499 1.99540E+01 2.42795E-01 8.80966E-04-2.68884E-01-8.28770E-14-1.66373E-13
 -1      3500 1.99549E+01 2.21294E-01-9.90323E-04-2.34487E-01-3.70594E-14-2.57218E-13
 -1      3501 1.98962E+01 2.86418E-01 4.80238E-04-2.78857E-01-3.08974E-14-1.99047E-13
 -1      3502 1.99704E+01 2.01102E-01 5.89414E-04-2.04216E-01 1.44330E-14-2.85297E-13
 -1      3503 1.99719E+01 1.81606E-01-6.17156E-04-1.76447E-01 1.24794E-14-1.74414E-13
 -1      3504 1.99277E+01 2.39166E-01 5.24620E-04-2.12220E-01 2.64989E-14-2.36740E-13
 -1      3505 2.00243E+01 3.26227E-01 1.08375E-03-5.82533E-01 1.95746E-14 4.79172E-14
 -1      3506 2.00415E+01 3.01128E-01-1.11255E-03-5.29420E-01 4.16530E-14 5.49880E-14
 -1      3507 1.95639E+01 7.18993E-01 1.75687E-03-1.13901E+00 2.34418E-14 1.52563E-13
 -1      3508 1.96126E+01 6.61134E-01-4.82365E-03-1.04355E+00 4.21561E-14 1.30880E-13
 -1      3509 1.97271E+01 6.05555E-01 1.52122E-03-9.64285E-01 4.73174E-14 1.44829E-13
 -1      3510 1.97628E+01 5.47001E-01-3.78254E-03-8.83411E-01 6.04198E-14 1.42665E-13
 -1      3511 1.94967E+01 7.12826E-01 4.06703E-03-9.35875E-01 6.88901E-14 1.14519E-13
 -1      3512 1.91018E+01 8.48216E-01 4.01633E-03-1.59724E+00-2.18468E-14 1.27398E-13
 -1      3513 1.91716E+01 8.37012E-01-7.53665E-03-1.46444E+00 1.78978E-14 8.23564E-14
 -1      3514 1.88188E+01 7.67079E-01 7.70655E-03-1.90865E+00 2.49058E-14 1.76658E-13
 -1      3515 1.88766E+01 8.22247E-01-9.32967E-03-1.74836E+00 2.90330E-14 1.86579E-13
 -1      3516 1.85458E+01 9.71976E-01 7.57009E-03-1.54514E+00-2.50929E-14 2.28383E-14
 -1      3517 1.85577E+01 4.74858E-01 1.59782E-02-2.31403E+00 6.93849E-15 4.72230E-15
 -1      3518 1.85569E+01 6.46743E-01-1.09322E-02-2.11539E+00 5.18343E-14 1.11995E-13
 -1      3519 1.80762E+01 8.78379E-01 7.40319E-03-1.88111E+00 6.24238E-14 2.56288E-14
 -1      3520 1.84296E+01-1.80966E-01 2.79485E-02-2.86195E+00-4.99488E-14-5.95946E-14
 -1      3521 1.82842E+01 1.90115E-01-9.92325E-03-2.61608E+00-5.97054E-14-3.97538E-14
 -1      3522 1.75529E+01 5.61657E-01 9.15063E-03-2.36772E+00 3.88164E-14-3.20985E-14
 -1      3523 1.86922E+01-1.44929E+00 2.53203E-02-3.58567E+00-4.64732E-14-4.41383E-14
 -1      3524 1.82273E+01-7.10367E-01 3.72401E-03-3.28740E+00-3.27112E-14-6.21664E-14
 -1      3525 1.70844E+01-1.52083E-01 1.98494E-02-3.10257E+00-4.80883E-14-5.80018E-14
 -1      3526 1.79185E+01-2.04535E+00 4.45515E-02-4.24471E+00-1.52642E-13-8.93868E-14
 -1      3527 1.89943E+01 8.60555E-01-8.32817E-03 1.65850E+00 1.48948E-13 1.47411E-14
 -1      3528 1.89461E+01 8.11066E-01 7.58799E-03 1.82094E+00 1.85265E-13-8.84546E-15
 -1      3529 1.87081E+01 7.00497E-01-8.99431E-03 2.02656E+00 1.11954E-13 2.11114E-14
 -1      3530 1.87121E+01 5.39745E-01 1.47590E-02 2.22097E+00 1.10789E-14 1.00024E-13
 -1      3531 1.82242E+01 9.27245E-01 8.21070E-03 1.80709E+00 5.93756E-14-5.45332E-15
 -1      3532 1.84758E+01 2.73607E-01-6.13105E-03 2.50445E+00-6.57687E-14 6.71676E-14
 -1      3533 1.86102E+01-7.42135E-02 2.59286E-02 2.73658E+00-3.94897E-14 6.58464E-14
 -1      3534 1.77645E+01 6.27824E-01 1.48798E-02 2.29682E+00-1.96507E-14 7.30115E-14
 -1      3535 1.92578E+01 8.70777E-01-6.94173E-03 1.36462E+00 1.16637E-13 8.83664E-14
 -1      3536 1.91986E+01 8.82806E-01 3.75706E-03 1.50340E+00 8.98085E-14-3.00758E-16
 -1      3537 1.86514E+01 1.01185E+00 7.50244E-03 1.46682E+00 1.19618E-13-2.75030E-15
 -1      3538 1.94742E+01 8.03560E-01-5.65338E-03 1.11975E+00-1.89303E-14 1.39957E-13
 -1      3539 1.94227E+01 8.46307E-01 2.17487E-03 1.24000E+00 1.04178E-13 1.92196E-13
 -1      3540 1.90043E+01 9.77189E-01 6.51770E-03 1.20575E+00 6.48177E-14 1.51800E-13
 -1      3541 1.96407E+01 7.02626E-01-4.57219E-03 9.11480E-01-1.66076E-13 2.77144E-13
 -1      3542 1.96023E+01 7.57492E-01 1.54163E-03 1.01571E+00-8.19190E-14 2.61146E-13
 -1      3543 1.92822E+01 8.82256E-01 5.30149E-03 9.92278E-01-3.56417E-14 4.15594E-13
 -1      3544 1.97631E+01 5.93049E-01-3.67550E-03 7.33693E-01-2.84594E-13 1.64232E-13
 -1      3545 1.97375E+01 6.49569E-01 1.31789E-03 8.23204E-01-2.31309E-13 1.96427E-13
 -1      3546 1.94938E+01 7.63223E-01 4.10605E-03 8.11406E-01-1.44002E-13 2.04450E-13
 -1      3547 1.98499E+01 4.88160E-01-2.93263E-03 5.82975E-01-1.57028E-13-3.25997E-14
 -1      3548 1.98347E+01 5.40914E-01 1.23471E-03 6.58760E-01-2.15035E-13 1.04256E-13
 -1      3549 1.96508E+01 6.40891E-01 3.06722E-03 6.56384E-01-1.39747E-13-1.50068E-13
 -1      3550 1.99097E+01 3.94270E-01-2.31963E-03 4.56757E-01-1.58879E-13-6.13183E-14
 -1      3551 1.99020E+01 4.40817E-01 1.17311E-03 5.19917E-01-2.10101E-13-9.75663E-14
 -1      3552 1.97647E+01 5.26345E-01 2.22678E-03 5.24009E-01-2.07365E-13-3.16754E-13
 -1      3553 1.99495E+01 3.13716E-01-1.81821E-03 3.52561E-01-4.83076E-14 9.07057E-14
 -1      3554 1.99469E+01 3.53281E-01 1.09612E-03 4.04384E-01-1.08060E-13 2.54469E-14
 -1      3555 1.98459E+01 4.24768E-01 1.57651E-03 4.12291E-01-2.69771E-13-2.43071E-13
 -1      3556 1.99753E+01 2.46696E-01-1.39106E-03 2.67817E-01 2.00082E-13 6.81819E-14
 -1      3557 1.99758E+01 2.79355E-01 1.00029E-03 3.09674E-01 8.69216E-14 7.10690E-14
 -1      3558 1.99026E+01 3.37894E-01 1.07695E-03 3.19354E-01-3.32748E-14-2.23355E-14
 -1      3559 1.99909E+01 1.91767E-01-1.24371E-03 2.00212E-01 3.26669E-13 2.54988E-13
 -1      3560 1.99934E+01 2.18161E-01 7.63498E-04 2.33080E-01 3.18179E-13 2.52045E-13
 -1      3561 1.99417E+01 2.65707E-01 7.99245E-04 2.43155E-01 1.89324E-13-6.43311E-16
 -1      3562 2.00006E+01 1.49358E-01-5.40292E-04 1.46095E-01 1.42717E-13 2.34615E-13
 -1      3563 2.00031E+01 1.69871E-01 7.00931E-04 1.72194E-01 2.89092E-13 2.58448E-13
 -1      3564 1.99673E+01 2.08255E-01 8.29609E-04 1.82173E-01 2.69221E-13 2.23587E-13
 -1      3565 2.02555E+01 1.42638E+00-5.01138E-03-6.63224E-01-3.49597E-14-2.02186E-13
 -1      3566 1.20735E+01-2.06010E-02 1.33365E-01-2.96779E+00-1.01481E-14-1.28175E-13
 -1      3567 1.40146E+01-8.88917E-01 4.01318E-02-3.91789E+00-1.14516E-13-2.14259E-13
 -1      3568 1.25207E+01 4.56326E-01 9.17099E-02-1.93615E+00 2.46131E-14-4.43673E-14
 -1      3569 1.99899E+01 1.29948E-01-7.09417E-04 1.00324E-01-7.86378E-14 2.96716E-13
 -1      3570 2.00033E+01 1.16415E-01 7.72941E-05 1.00925E-01-1.64929E-13 4.30280E-13
 -1      3571 2.00050E+01 1.23264E-01 1.29423E-04 1.12249E-01-2.21577E-13 3.53028E-13
 -1      3572 1.99763E+01 1.55949E-01 1.00555E-04 1.11344E-01-1.60437E-13 4.62284E-13
 -1      3573 1.98882E+01 2.37976E-01-6.42100E-05-4.18782E-02-1.80080E-13 1.65696E-13
 -1      3574 1.98826E+01 2.42062E-01-6.34063E-04-1.97249E-02-6.92994E-14 1.90721E-13
 -1      3575 2.49493E+01 3.56356E+00-8.81593E-02 1.59867E+00-1.29126E-13 1.46395E-13
 -1      3576 1.84046E+01-4.98581E-01 1.71753E-02 3.13668E+00-1.25359E-13 7.50832E-14
 -1      3577 1.86686E+01-1.24432E+00 2.69212E-03 3.47811E+00-1.29334E-13 4.79825E-15
 -1      3578 1.73115E+01-5.41688E-02 1.03606E-02 3.01109E+00-5.93614E-14 2.95857E-15
 -1      3579 2.03010E+01 9.87401E-01 1.03593E-03 3.98761E-01 1.01721E-13-1.56692E-14
 -1      3580 2.02868E+01 1.16317E+00-1.71276E-03 4.35732E-01 1.11497E-13-3.77363E-14
 -1      3581 2.02825E+01 8.38416E-01-1.98091E-03 2.57230E-01 9.07055E-14-1.10708E-14
 -1      3582 1.93557E+01 8.12209E-01 2.42005E-03-1.34678E+00 5.70386E-14 1.12677E-13
 -1      3583 1.94178E+01 7.67413E-01-6.03884E-03-1.23450E+00 3.48502E-14 1.53640E-13
 -1      3584 1.92506E+01 8.37724E-01 5.41663E-03-1.09891E+00 2.26053E-14 9.04017E-14
 -1      3585 1.89369E+01 9.37406E-01 6.72072E-03-1.29610E+00 4.84236E-14 6.39753E-14
 -1      3586 1.75889E+01-2.10523E+00-1.77851E-02 4.30264E+00 1.74295E-13-1.34091E-13
 -1      3587 1.54778E+01-9.22702E-01 7.94008E-02 4.00634E+00 1.42808E-13-1.21483E-13
 -1      3588 2.00155E+01 2.28221E+00-3.61678E-03-1.49765E-01 7.55790E-14-1.74213E-13
 -1      3589 2.00300E+01 2.24323E+00-4.26043E-03-2.64002E-01 5.83850E-14-1.47116E-13
 -1      3590 2.01424E+01 1.94093E+00 5.69363E-03-2.56536E-01 4.63167E-14-1.42924E-13
 -1      3591 1.94225E+01-3.38136E+00 1.19256E-01-4.86513E+00 2.10144E-13 2.83036E-13
 -1      3592 2.11736E+01-3.76293E+00-8.87367E-03-3.92579E+00 1.86693E-13-1.29525E-13
 -1      3593 2.02855E+01 5.62891E-01 1.69208E-03 4.42105E-02-1.58066E-15-1.71280E-13
 -1      3594 2.02609E+01 4.68352E-01-1.45914E-03 1.30968E-01-1.20024E-14-1.35822E-13
 -1      3595 2.02733E+01 4.98072E-01 1.05837E-04 1.44130E-01-1.46584E-16-1.51136E-13
 -1      3596 1.85168E+01-1.94626E+00-1.83773E-03 3.89522E+00-6.95295E-14 1.37390E-14
 -1      3597 1.61125E+01-8.22389E-01 1.16646E-01 3.90042E+00-4.85592E-14 1.38797E-13
 -1      3598 2.46740E+01-3.81758E+00-8.11904E-02 1.43116E+00 6.78763E-14 1.00066E-13
 -1      3599 2.37005E+01-3.94109E+00 7.54285E-02 2.53366E+00 1.58744E-13 1.09586E-13
 -1      3600 1.35241E+01-7.00097E-02-2.18141E-02 3.12650E+00 5.39534E-14-3.55341E-14
 -1      3601 1.24115E+01 6.97194E-01 6.72168E-02 1.65280E+00-3.24090E-14 1.17822E-14
 -1      3602 2.03068E+01 8.28996E-01 1.01566E-03-1.56237E-01-3.85248E-15-1.75785E-13
 -1      3603 2.02913E+01 6.81438E-01-2.08308E-03-4.14198E-02 6.27157E-15-1.65171E-13
 -1      3604 2.03066E+01 7.08367E-01 5.19918E-04-1.03720E-02 1.74818E-15-1.52277E-13
 -1      3605 1.73656E+01-2.40958E+00 2.67266E-02-4.63582E+00 2.12851E-13 1.07778E-13
 -1      3606 2.01936E+01 3.35916E-01-5.56538E-04-2.64622E-01 3.50818E-14 5.28301E-14
 -1      3607 2.02187E+01 3.85556E-01 1.68292E-03-1.93102E-01 4.78566E-14 4.92844E-14
 -1      3608 2.49430E+01-1.22273E+00-1.58542E-02-1.29645E+00-5.65468E-14 5.66194E-14
 -1      3609 2.02665E+01 1.30349E+00-2.26803E-03 4.00934E-01 1.05723E-13-4.82669E-14
 -1      3610 1.50483E+01-2.87733E-01 1.90082E-02 3.33162E+00-5.44842E-14 1.49901E-13
 -1      3611 1.98623E+01 2.71104E-01 9.76374E-04-7.61967E-03-3.01455E-14 1.74055E-13
 -1      3612 1.98816E+01 2.44983E-01-3.72631E-04 8.07243E-03-1.41746E-13 7.98708E-14
 -1      3613 1.98849E+01 2.43015E-01-3.93312E-04 3.11627E-02-6.45276E-14 3.79030E-14
 -1      3614 1.51155E+01-3.53447E-01 4.57522E-03-3.41045E+00-1.73507E-14-1.13725E-13
 -1      3615 1.60424E+01-1.19492E+00 7.46165E-02-4.14154E+00-1.25219E-13-1.39909E-13
 -1      3616 1.20741E+01 5.33492E-01 8.50417E-02-1.86688E+00-8.47239E-15-2.19894E-14
 -1      3617 2.47330E+01-1.92482E+00-5.61010E-03-8.40541E-01-1.07477E-14 9.91048E-14
 -1      3618 2.46373E+01-2.58498E+00-3.24025E-02-5.25440E-02-6.24260E-14 8.31149E-15
 -1      3619 2.49051E+01-5.78203E-01-3.22624E-02 1.63694E+00 1.82170E-13 1.13303E-14
 -1      3620 2.47633E+01-1.42998E+00-2.12671E-02 1.26079E+00 1.93717E-13 9.89686E-14
 -1      3621 2.00533E+01 3.39773E-01 5.15915E-04-4.78339E-01-5.49304E-16-2.26979E-14
 -1      3622 2.00873E+01 2.86013E-01 7.29449E-04-4.82185E-01 5.36698E-14 3.60770E-15
 -1      3623 2.01052E+01 2.80149E-01-2.17613E-04-4.29899E-01 2.88386E-14 9.81021E-15
 -1      3624 1.99680E+01 3.57744E-01-1.98180E-03-6.32565E-01 2.66836E-14 1.29326E-13
 -1      3625 1.99564E+01 3.91452E-01 1.11385E-03-5.75189E-01-5.96381E-15 6.21017E-14
 -1      3626 1.99482E+01 3.98122E-01 1.29686E-03-6.91514E-01 2.69139E-14 1.12824E-13
 -1      3627 1.99860E+01 1.64050E-01 4.13850E-04-1.59366E-01 1.22216E-14-2.79244E-13
 -1      3628 1.99884E+01 1.47813E-01-2.93647E-04-1.39262E-01-1.35851E-13-2.61488E-13
 -1      3629 1.99772E+01 1.57878E-01-5.70415E-05-1.34599E-01-2.34423E-13-2.74138E-13
 -1      3630 1.99554E+01 1.95542E-01 3.97268E-04-1.66165E-01-1.79770E-14-8.06164E-14
 -1      3631 1.61655E+01-1.44295E+00 7.32312E-02-4.35446E+00 7.83887E-14-2.20692E-14
 -1      3632 1.85657E+01-2.34849E+00-8.20332E-03-4.09517E+00 2.61012E-13 8.35269E-15
 -1      3633 1.96881E+01 5.87441E-01 2.87708E-03-7.98081E-01 8.43556E-14 1.39073E-13
 -1      3634 1.98521E+01 4.94183E-01 1.41299E-03-8.16830E-01 6.75264E-14 1.50001E-13
 -1      3635 1.98779E+01 4.42355E-01-2.85459E-03-7.48289E-01 7.07303E-14 1.67720E-13
 -1      3636 2.01707E+01 1.74960E+00-3.56823E-03 1.14393E-01 7.37349E-14-1.08904E-13
 -1      3637 2.01651E+01 1.77089E+00-2.90219E-03 3.40829E-02 6.86391E-14-1.39493E-13
 -1      3638 2.01161E+01 2.01945E+00 5.41518E-03-8.49087E-02 6.78680E-14-1.58759E-13
 -1      3639 1.96162E+01-2.71796E+00-2.31000E-02 3.81556E+00 1.38427E-13 1.35135E-14
 -1      3640 1.86898E+01-2.35026E+00 5.91086E-02 4.15336E+00 1.79140E-13-1.20843E-13
 -1      3641 1.79025E+01-1.58965E+00 1.70652E-02 3.75601E+00 1.38154E-13-1.47151E-13
 -1      3642 1.99203E+01 2.14365E-01-1.07546E-03 1.00517E-01-3.19003E-14-3.10286E-13
 -1      3643 1.99401E+01 2.02398E-01 6.07061E-04 1.15820E-01-1.46648E-13-2.90118E-14
 -1      3644 1.20173E+01 6.05183E-01 8.98395E-02 1.45680E+00 9.55143E-14 1.97412E-13
 -1      3645 2.02012E+01 1.77374E+00 7.79889E-03 4.18713E-01 1.11671E-13-7.06171E-14
 -1      3646 2.00079E+01 1.30632E-01 2.59422E-04 1.25418E-01-1.30217E-13 3.22173E-13
 -1      3647 1.99114E+01 2.17901E-01 4.72297E-04-8.58781E-02-1.21380E-13 3.92809E-13
 -1      3648 1.98975E+01 2.26909E-01-8.30703E-04-6.68127E-02-2.04301E-13 2.35838E-13
 -1      3649 1.98753E+01 2.57704E-01 8.91759E-04-6.24483E-02-9.47733E-14 1.94163E-13
 -1      3650 1.99853E+01 1.59949E-01 3.53943E-04 1.34172E-01-1.34207E-15 5.49971E-13
 -1      3651 1.99673E+01 1.75152E-01-7.05625E-04 1.31254E-01 1.16277E-14 4.25477E-13
 -1      3652 2.02956E+01 9.61979E-01-2.02845E-03-2.37554E-01-2.73715E-14-1.88801E-13
 -1      3653 2.03081E+01 9.81978E-01 1.19433E-03-1.80752E-01-9.62572E-15-1.74417E-13
 -1      3654 2.02970E+01 1.10866E+00-1.75007E-03-3.50265E-01-1.40245E-14-1.94944E-13
 -1      3655 2.01835E+01 1.71217E+00-2.45331E-03 1.72292E-01 7.49392E-14-1.18684E-13
 -1      3656 2.02472E+01 1.51147E+00 5.54368E-03 1.08086E-01 6.74723E-14-1.08935E-13
 -1      3657 2.02000E+01 1.64664E+00-4.88867E-03 2.49025E-01 8.51467E-14-1.09835E-13
 -1      3658 1.23735E+01 8.79500E-01 6.18011E-02 1.03959E+00-1.45569E-14-3.92186E-14
 -1      3659 1.24582E+01 9.50106E-01 8.28680E-03 9.73798E-02 3.45089E-14-4.78437E-15
 -1      3660 1.38037E+01 8.42866E-01 4.09914E-02 1.41843E+00 5.63213E-14 1.13364E-14
 -1      3661 2.24482E+01-3.76366E+00 3.08823E-02-3.11883E+00 1.16632E-13-2.61586E-13
 -1      3662 2.31791E+01-3.43272E+00 8.13884E-03-2.05342E+00 1.32964E-13-3.79323E-13
 -1      3663 2.10550E+01-3.19295E+00-7.38181E-03-3.37818E+00 1.81353E-13-1.76942E-13
 -1      3664 1.53427E+01-2.21352E-01 5.34172E-02 3.07704E+00 1.33817E-14-5.78669E-14
 -1      3665 2.57251E+01-2.13698E+00-5.14292E-03 6.36308E-01 3.42504E-13-7.41386E-14
 -1      3666 2.57863E+01-1.08828E+00-5.52309E-02 1.44225E+00 2.66853E-13 3.01807E-14
 -1      3667 1.52306E+01-9.00563E-01 2.93156E-02-4.04352E+00 9.41851E-14-1.31169E-13
 -1      3668 1.66645E+01-9.40412E-01 3.99937E-02-3.59481E+00 1.12150E-13-4.68982E-14
 -1      3669 1.44162E+01-2.45429E-01 2.82950E-02-3.37163E+00 7.35453E-14-2.18024E-13
 -1      3670 2.42535E+01-3.11562E+00-5.23490E-03-7.93893E-01 1.47539E-13-1.11315E-13
 -1      3671 2.50522E+01-2.85519E+00-2.46759E-02-8.40990E-02 2.35222E-13 2.81962E-14
 -1      3672 2.02587E+01 4.90815E-01-1.19607E-04-1.35530E-01 5.84413E-14 4.63719E-14
 -1      3673 2.02391E+01 4.52744E-01-1.39619E-03-1.19386E-01 5.30226E-14 7.40938E-14
 -1      3674 2.02666E+01 5.43594E-01 2.16770E-03-2.50109E-02 9.48093E-14 6.20086E-14
 -1      3675 2.02185E+01 1.58154E+00-1.10426E-03-2.94525E-01 2.65373E-14-1.29275E-13
 -1      3676 2.02378E+01 1.47694E+00-4.08890E-03-3.54876E-01 3.95471E-15-1.53007E-13
 -1      3677 2.01428E+01 2.85650E-01 1.95814E-04-3.80421E-01 3.69725E-14 2.51731E-14
 -1      3678 2.01637E+01 3.04027E-01 7.22336E-04-3.22536E-01 3.62556E-14 5.28624E-14
 -1      3679 2.01344E+01 3.30930E-01 1.03566E-04-3.80403E-01 2.80680E-14-1.60847E-14
 -1      3680 2.02239E+01 1.57388E+00-1.61987E-03-6.23863E-01-2.02818E-14-2.00864E-13
 -1      3681 2.02885E+01 1.22241E+00 1.84906E-03-2.53629E-01 1.37128E-14-1.48149E-13
 -1      3682 2.02602E+01 1.38945E+00 1.62318E-03-3.74386E-01-5.53104E-15-1.80512E-13
 -1      3683 2.24406E+01-3.63639E+00 6.73201E-03 2.87769E+00 1.37883E-13 1.10020E-13
 -1      3684 2.49284E+01-3.05812E+00-2.04869E-02 4.57599E-01-3.26041E-14 4.10089E-15
 -1      3685 1.99434E+01 2.07765E-01-2.80110E-04 1.40482E-01 6.61236E-14 1.79263E-13
 -1      3686 2.02031E+01 3.76170E-01-1.03709E-04-2.70478E-01 3.49956E-14 8.34028E-15
 -1      3687 1.99655E+01 1.66267E-01-4.81138E-04-1.28031E-01-1.65692E-13-2.23420E-13
 -1      3688 2.02665E+01 1.38685E+00 3.67911E-03-4.63967E-01-1.58755E-14-2.05436E-13
 -1      3689 2.49311E+01-2.11766E+00 3.77029E-03 6.03094E-01 2.28427E-13 1.14431E-13
 -1      3690 1.99484E+01 1.91386E-01 9.26675E-05-1.39380E-01-2.06232E-13-3.34303E-14
 -1      3691 1.99497E+01 1.82533E-01 4.58776E-04-1.17980E-01-2.33397E-13-3.48860E-14
 -1      3692 1.99302E+01 1.96198E-01-9.95947E-04-1.05629E-01-1.50824E-13 2.60245E-13
 -1      3693 1.99343E+01 2.10295E-01-3.98117E-04-1.54756E-01-1.33073E-13-1.91407E-14
 -1      3694 1.43733E+01 4.03883E-01 4.75418E-02-2.64340E+00 5.07112E-14-1.25507E-13
 -1      3695 1.58974E+01 8.51831E-02 2.12212E-02-2.85946E+00-7.60676E-16-1.19661E-13
 -1      3696 1.60860E+01 4.67127E-01-3.53972E-02-2.43401E+00-5.90934E-15-3.80303E-14
 -1      3697 1.25810E+01 9.32489E-01 2.39986E-02-9.50348E-01-2.46365E-14 1.03147E-13
 -1      3698 1.32431E+01 4.30417E-01 2.25776E-02-2.46961E+00-8.21513E-14-1.14880E-13
 -1      3699 1.85248E+01-1.85037E+00-1.80201E-02-3.64025E+00 1.71252E-13-6.22592E-15
 -1      3700 1.99811E+01-2.57876E+00 5.08793E-02-3.67137E+00 1.96218E-13-7.87634E-14
 -1      3701 2.01695E+01 3.57264E-01-1.46812E-04 3.06634E-01 8.37679E-15-4.26515E-14
 -1      3702 2.01331E+01 3.37295E-01 1.07932E-04 3.54380E-01 1.82992E-14-3.32080E-14
 -1      3703 2.00800E+01 3.27706E-01-6.49639E-04 3.95245E-01 4.29636E-14-1.11155E-14
 -1      3704 2.00420E+01 3.27036E-01 6.70337E-04 4.40808E-01 5.17208E-14 3.13868E-15
 -1      3705 2.00968E+01 3.73468E-01 5.75707E-04 3.35380E-01 5.24597E-14-3.57200E-14
 -1      3706 1.99809E+01 3.31690E-01-1.10358E-03 4.84096E-01 1.74584E-14-5.88703E-15
 -1      3707 1.99434E+01 3.41583E-01 1.19708E-03 5.31856E-01 1.12716E-14-1.98554E-14
 -1      3708 1.99842E+01 3.70463E-01 5.41416E-04 4.19302E-01 2.96114E-14-2.95953E-14
 -1      3709 1.98765E+01 3.51761E-01-1.47060E-03 5.81735E-01-1.40373E-15-4.39577E-14
 -1      3710 1.98420E+01 3.63162E-01 1.75845E-03 6.35189E-01-3.68617E-14-6.23716E-14
 -1      3711 1.98595E+01 3.91380E-01 5.03611E-04 5.11845E-01-2.45227E-14-4.94425E-14
 -1      3712 1.97724E+01 3.69396E-01-1.71888E-03 6.95481E-01-5.98656E-14-6.94448E-14
 -1      3713 1.97450E+01 3.72194E-01 2.44499E-03 7.57243E-01-5.52059E-14-1.11030E-13
 -1      3714 1.97274E+01 4.17287E-01 3.36442E-04 6.21273E-01-5.30908E-14-5.81565E-14
 -1      3715 1.96772E+01 3.63609E-01-1.76927E-03 8.31605E-01-4.60761E-14-1.02510E-13
 -1      3716 1.96640E+01 3.45786E-01 3.35713E-03 9.03463E-01-6.91269E-14-1.15249E-13
 -1      3717 1.95944E+01 4.27141E-01-1.16286E-04 7.55569E-01-3.71720E-14-9.27736E-15
 -1      3718 1.96059E+01 3.09159E-01-1.46001E-03 9.95366E-01-4.71540E-14-7.82149E-14
 -1      3719 1.96181E+01 2.56084E-01 4.60175E-03 1.07781E+00-1.57124E-14-5.83287E-14
 -1      3720 1.94720E+01 3.95896E-01-1.05098E-03 9.23058E-01-1.34547E-14 2.39088E-15
 -1      3721 1.95827E+01 1.75648E-01-5.17872E-04 1.19002E+00-5.10811E-14-4.13975E-14
 -1      3722 1.96376E+01 6.98531E-02 6.23152E-03 1.28136E+00-5.96507E-14-2.47770E-14
 -1      3723 1.93792E+01 2.92872E-01-2.74310E-03 1.13186E+00-2.14950E-14 1.48616E-14
 -1      3724 1.96464E+01-7.26471E-02 1.51331E-03 1.41482E+00-1.00712E-15-6.01841E-16
 -1      3725 1.97705E+01-2.50272E-01 8.78713E-03 1.50800E+00 4.95185E-14-8.38812E-15
 -1      3726 1.93477E+01 8.05482E-02-5.72951E-03 1.38862E+00 6.80293E-15 9.87621E-15
 -1      3727 1.98598E+01-4.79703E-01 4.96615E-03 1.66061E+00 6.93251E-14-3.41389E-14
 -1      3728 2.00898E+01-7.46441E-01 1.12342E-02 1.73538E+00 6.56591E-14 1.81497E-14
 -1      3729 1.94267E+01-2.83520E-01-9.87088E-03 1.69941E+00 4.89812E-14 5.46551E-14
 -1      3730 2.03090E+01-1.06218E+00 1.25732E-02 1.87721E+00 7.92309E-14 5.72446E-14
 -1      3731 2.06720E+01-1.43052E+00 9.25746E-03 1.90404E+00 8.05035E-14 4.89535E-14
 -1      3732 1.97174E+01-8.69815E-01-1.79066E-02 2.04664E+00 8.65718E-14-3.68846E-15
 -1      3733 2.11219E+01-1.83876E+00 2.44612E-02 1.98675E+00 6.68450E-14 7.29427E-14
 -1      3734 2.16699E+01-2.24114E+00 1.57656E-02 1.88042E+00 1.81309E-14-2.62362E-14
 -1      3735 2.03043E+01-1.67795E+00-3.43328E-02 2.35832E+00 6.78440E-14-1.46853E-14
 -1      3736 2.52207E+01-9.91878E-02-3.79741E-02 1.90954E+00 1.13926E-13 4.40481E-14
 -1      3737 2.51873E+01 1.09903E+00-3.14360E-02 1.93402E+00-1.03251E-14 1.54966E-13
 -1      3738 2.22157E+01-2.57391E+00 8.65669E-03-1.74230E+00-4.31669E-14 2.36373E-14
 -1      3739 2.16065E+01-2.18630E+00 2.81476E-02-1.93234E+00-1.46610E-13 1.10286E-13
 -1      3740 2.10229E+01-1.74739E+00 5.74473E-03-1.90495E+00-2.43112E-13 1.90984E-13
 -1      3741 2.06016E+01-1.33874E+00 1.98497E-02-1.91453E+00-2.21168E-13 2.22068E-13
 -1      3742 2.07189E+01-2.01349E+00-2.27871E-02-2.38587E+00-7.16907E-14-5.67094E-14
 -1      3743 2.02754E+01-9.81042E-01 7.37883E-03-1.79120E+00-1.14839E-13 3.47799E-13
 -1      3744 1.99957E+01-6.58433E-01 8.65303E-03-1.72321E+00 9.07657E-14 3.20539E-13
 -1      3745 1.99031E+01-1.15045E+00-2.58302E-02-2.15088E+00-9.25592E-14 2.36818E-13
 -1      3746 1.98460E+01-3.89567E-01 8.38813E-03-1.56769E+00 8.08912E-14 2.69345E-13
 -1      3747 1.96788E+01-1.66822E-01 3.22207E-03-1.47202E+00-7.80060E-14 1.78262E-13
 -1      3748 1.94833E+01-4.53561E-01-1.41557E-02-1.80617E+00-3.22116E-14 2.94298E-13
 -1      3749 1.96302E+01 1.45541E-02 6.75068E-03-1.32512E+00-2.18586E-13 6.01664E-14
 -1      3750 1.95428E+01 1.55679E-01 3.34000E-04-1.22514E+00-3.42181E-13 4.19154E-14
 -1      3751 1.93125E+01 9.96263E-03-7.42945E-03-1.47317E+00-1.68956E-13-3.41474E-14
 -1      3752 1.95510E+01 2.66359E-01 5.01951E-03-1.09722E+00-2.95282E-13 1.07955E-13
 -1      3753 1.95145E+01 3.45416E-01-1.09746E-03-1.00331E+00-2.30871E-13 1.39067E-13
 -1      3754 1.92830E+01 2.96849E-01-3.51087E-03-1.18311E+00-2.82113E-13 4.92873E-14
 -1      3755 1.95518E+01 4.03437E-01 3.58412E-03-8.95989E-01-1.98602E-13 1.67480E-13
 -1      3756 1.95455E+01 4.38308E-01-1.72655E-03-8.12004E-01-5.51603E-14 2.12620E-13
 -1      3757 1.93309E+01 4.53312E-01-1.24320E-03-9.41718E-01-2.31796E-13 1.68087E-13
 -1      3758 1.95951E+01 4.59597E-01 2.52697E-03-7.23498E-01-2.33617E-14 1.89336E-13
 -1      3759 1.96052E+01 4.64875E-01-1.92356E-03-6.50381E-01-7.62602E-14 1.12399E-13
 -1      3760 1.94159E+01 5.18669E-01 2.59908E-05-7.44694E-01-5.35293E-14 1.11108E-13
 -1      3761 1.96573E+01 4.62205E-01 1.78964E-03-5.78072E-01-1.26069E-14 1.96124E-13
 -1      3762 1.96747E+01 4.49106E-01-1.88900E-03-5.15564E-01 3.52714E-14 2.23928E-13
 -1      3763 1.95138E+01 5.23750E-01 6.87716E-04-5.85203E-01 2.92603E-14 2.16113E-13
 -1      3764 1.97238E+01 4.32138E-01 1.29067E-03-4.56883E-01-1.22351E-13 1.78870E-13
 -1      3765 1.97432E+01 4.08872E-01-1.73242E-03-4.04235E-01-1.58866E-13 4.18883E-14
 -1      3766 1.96105E+01 4.91761E-01 9.84366E-04-4.56649E-01-1.56226E-13 4.17975E-14
 -1      3767 1.97866E+01 3.84526E-01 9.53119E-04-3.56919E-01-1.55970E-13-5.94268E-14
 -1      3768 1.98050E+01 3.56784E-01-1.53308E-03-3.13197E-01-1.02812E-13-1.07612E-13
 -1      3769 1.96984E+01 4.39519E-01 1.06843E-03-3.53389E-01-2.71630E-13 3.17579E-15
 -1      3770 1.98416E+01 3.29961E-01 7.22021E-04-2.75475E-01 9.94103E-15-1.05311E-13
 -1      3771 1.98574E+01 3.01795E-01-1.29086E-03-2.39608E-01 1.16070E-13-8.04918E-14
 -1      3772 1.97742E+01 3.78794E-01 1.05363E-03-2.70932E-01-2.82116E-14 8.42890E-15
 -1      3773 1.98873E+01 2.75049E-01 4.88407E-04-2.09587E-01 8.22272E-14 7.49129E-15
 -1      3774 1.99012E+01 2.49182E-01-6.66858E-04-1.80659E-01 3.07431E-14 1.69171E-14
 -1      3775 1.98365E+01 3.17204E-01 8.28721E-04-2.05464E-01 1.59457E-13 1.07709E-13
 -1      3776 1.73941E+01 9.96958E-01 4.15550E-03-1.66603E+00 4.05313E-14-8.26308E-14
 -1      3777 1.76414E+01 1.04854E+00-1.56033E-02-1.48946E+00 2.76298E-14-5.46545E-14
 -1      3778 1.80367E+01 1.07210E+00 6.16547E-04-1.36394E+00 1.47822E-14-3.79683E-14
 -1      3779 1.82487E+01 1.05793E+00-1.10917E-02-1.24008E+00 6.98443E-15-2.62046E-15
 -1      3780 1.74646E+01 1.20002E+00 1.55350E-02-1.15569E+00 4.05909E-14-5.66808E-14
 -1      3781 2.02380E+01 1.54932E+00 5.57966E-03 2.96841E-03 6.07250E-14-1.46939E-13
 -1      3782 2.01648E+01 1.77102E+00-2.96352E-03-2.76845E-02 6.81209E-14-1.51302E-13
 -1      3783 2.01703E+01 1.75116E+00-3.29156E-03-1.07872E-01 5.74594E-14-1.61411E-13
 -1      3784 1.77825E+01 1.09391E+00-1.49430E-02 1.43889E+00 1.76366E-14 9.05811E-14
 -1      3785 1.75559E+01 1.04544E+00 2.63650E-03 1.61580E+00 1.68971E-14 1.14030E-13
 -1      3786 1.31491E+01 5.64638E-01 4.83112E-02 2.27501E+00 3.71404E-14 1.91652E-13
 -1      3787 1.24507E+01 9.67073E-01 2.11670E-02 6.94701E-01 7.48143E-14 7.05026E-14
 -1      3788 1.87742E+01 1.02776E+00-7.38800E-03 9.80489E-01-3.23715E-14 2.73544E-13
 -1      3789 1.86178E+01 1.07535E+00-4.68676E-04 1.08400E+00-4.92442E-14 1.46991E-13
 -1      3790 1.83406E+01 1.10272E+00-1.02949E-02 1.17954E+00 4.89268E-14 1.49649E-13
 -1      3791 1.81482E+01 1.11732E+00 8.76723E-04 1.30865E+00 8.98270E-14 1.60723E-13
 -1      3792 1.81976E+01 1.19702E+00 1.12120E-02 9.35341E-01-4.87585E-14 4.52612E-13
 -1      3793 1.70670E+01 9.39140E-01-2.17743E-02 1.80296E+00-4.32581E-14 4.89136E-14
 -1      3794 1.68120E+01 7.67446E-01-5.63348E-03 2.08610E+00-8.95109E-14-3.37274E-15
 -1      3795 1.68005E+01 1.19718E+00 2.63233E-02 1.40398E+00-9.43724E-14 4.54632E-14
 -1      3796 1.91062E+01 9.12520E-01-5.52185E-03 8.15542E-01-3.85207E-14 3.50371E-13
 -1      3797 1.89849E+01 9.75102E-01-7.41766E-04 9.03342E-01-3.26909E-15 3.40497E-13
 -1      3798 1.86638E+01 1.08939E+00 8.48615E-03 7.90216E-01-4.05119E-14 3.71386E-13
 -1      3799 1.93571E+01 7.83401E-01-4.26699E-03 6.73123E-01 2.75135E-14 2.42270E-14
 -1      3800 1.92661E+01 8.49899E-01-5.85199E-04 7.49385E-01 1.08799E-13 2.63180E-13
 -1      3801 1.90185E+01 9.55979E-01 6.42570E-03 6.67192E-01 9.89923E-14 2.45246E-13
 -1      3802 1.95443E+01 6.55881E-01-3.36447E-03 5.48746E-01-4.51132E-14-5.88153E-15
 -1      3803 1.94779E+01 7.19885E-01-3.00929E-04 6.15071E-01-1.23660E-13-1.38062E-14
 -1      3804 1.92870E+01 8.16158E-01 4.84167E-03 5.57770E-01-6.74932E-15 1.83705E-13
 -1      3805 1.96824E+01 5.38342E-01-2.67535E-03 4.40797E-01-1.99659E-13 1.23361E-14
 -1      3806 1.96350E+01 5.96469E-01-2.95305E-05 4.97863E-01-6.84350E-14 1.01265E-13
 -1      3807 1.94887E+01 6.81688E-01 3.62195E-03 4.59509E-01-1.17330E-13 2.57664E-13
 -1      3808 1.97830E+01 4.34635E-01-2.16561E-03 3.48433E-01-2.67709E-13-8.75241E-14
 -1      3809 1.97500E+01 4.85473E-01 1.78817E-04 3.96776E-01-2.89774E-13-1.12240E-13
 -1      3810 1.96389E+01 5.59092E-01 2.67474E-03 3.72237E-01-1.49229E-13 2.50070E-13
 -1      3811 1.98554E+01 3.46175E-01-1.71068E-03 2.70681E-01 1.42500E-13-2.47249E-13
 -1      3812 1.98331E+01 3.89562E-01 4.34846E-04 3.11213E-01-1.04029E-13-2.09045E-13
 -1      3813 1.97498E+01 4.51085E-01 1.84543E-03 2.96308E-01-1.14131E-13-3.00523E-13
 -1      3814 1.99057E+01 2.72895E-01-1.40922E-03 2.05760E-01 1.33323E-13-6.61818E-15
 -1      3815 1.98922E+01 3.08840E-01 6.38592E-04 2.40044E-01 1.80613E-13-1.09618E-13
 -1      3816 1.98300E+01 3.58825E-01 9.02930E-04 2.32229E-01 1.24955E-13-3.21002E-13
 -1      3817 1.99327E+01 2.33789E-01 1.71337E-04 1.65820E-01 9.54297E-14-3.05777E-14
 -1      3818 2.02017E+01 3.99435E-01-7.95703E-04-2.69973E-01 3.75268E-14-2.75327E-14
 -1      3819 2.02355E+01 4.42889E-01 5.80316E-04-2.09403E-01 4.70275E-14-1.42223E-14
 -1      3820 2.03071E+01 1.05977E+00-4.88342E-04-1.83315E-01 6.11177E-15-1.40710E-13
 -1      3821 2.03105E+01 9.24910E-01-8.99706E-04-1.01851E-01-4.74291E-15-1.42285E-13
 -1      3822 2.02950E+01 1.15571E+00-4.19243E-04-1.74549E-01 8.61650E-15-1.07175E-13
 -1      3823 1.32835E+01 8.70723E-01 4.19443E-02-1.53889E+00 5.40054E-14-3.89411E-14
 -1      3824 2.43776E+01 2.44756E+00-8.41348E-02 1.92494E+00-1.28238E-13 2.28702E-13
 -1      3825 2.02691E+01 6.19070E-01-1.72614E-03 5.06408E-02 9.65627E-14 4.55242E-14
 -1      3826 2.02890E+01 7.26219E-01 2.00060E-03 1.58179E-01 8.46460E-14 1.39754E-14
 -1      3827 2.02982E+01 8.58473E-01-8.85027E-04 1.96075E-01 6.43142E-14-2.19270E-14
 -1      3828 2.02899E+01 6.55988E-01-1.78873E-04 1.79770E-02 7.95198E-14 5.42078E-14
 -1      3829 2.01808E+01 1.71416E+00-2.71518E-03-1.67969E-01 5.00319E-14-1.34851E-13
 -1      3830 2.01961E+01 1.65295E+00-4.09540E-03-2.42076E-01 3.38194E-14-1.32171E-13
 -1      3831 2.02678E+01 1.39942E+00 4.45667E-03-2.01260E-01 2.18102E-14-1.08441E-13
 -1      3832 1.98889E+01 2.72680E-01-2.04129E-04 1.61292E-01 6.74550E-14-5.30846E-14
 -1      3833 2.35585E+01-3.11479E+00 2.81755E-03-1.27629E+00 5.52097E-15-1.42854E-13
 -1      3834 1.98928E+01 2.37110E-01-6.57044E-04 5.80299E-02-3.48064E-14-1.83053E-14
 -1      3835 1.99049E+01 2.29309E-01 2.29051E-05 7.85944E-02 1.67795E-14-3.95481E-13
 -1      3836 1.98990E+01 2.47770E-01 1.17353E-03 1.00996E-01-2.68192E-14-3.03530E-13
 -1      3837 1.98705E+01 2.68112E-01 1.17600E-03 4.93203E-02-2.01876E-13-1.04873E-13
 -1      3838 2.03109E+01 1.08381E+00 5.15963E-03 2.69825E-01 5.36094E-14-3.69009E-14
 -1      3839 2.02548E+01 1.39276E+00-4.31002E-03 3.52589E-01 9.18368E-14-4.65452E-14
 -1      3840 2.02977E+01 5.91810E-01 4.84281E-04 9.01403E-02-1.26898E-15-1.16315E-13
 -1      3841 2.02733E+01 5.04581E-01-1.06388E-03 1.58451E-01 4.72299E-15-1.21435E-13
 -1      3842 2.26132E+01-3.41526E+00-5.79338E-02 2.30003E+00 3.91510E-14-5.53320E-14
 -1      3843 2.13862E+01-3.15431E+00 6.96032E-02 3.30477E+00 1.02179E-13 7.91194E-14
 -1      3844 2.02830E+01-2.47533E+00 3.40028E-02 3.26161E+00 5.81826E-14-1.11885E-14
 -1      3845 1.52778E+01 2.54448E-01 3.94561E-02 2.61914E+00-2.38594E-14 1.11406E-13
 -1      3846 1.65316E+01-5.67830E-01-2.14077E-02 3.16572E+00 7.44760E-14-8.75168E-14
 -1      3847 1.51174E+01 3.89799E-01 2.56026E-02 2.35456E+00-1.70350E-15-1.35447E-14
 -1      3848 2.39465E+01-3.12201E+00 7.01826E-02 1.11139E+00 4.26473E-14-1.56195E-14
 -1      3849 2.02327E+01 1.50059E+00-1.99864E-03 2.94445E-01 7.15022E-14-6.26302E-14
 -1      3850 1.66856E+01 7.22910E-01 1.20206E-02-2.12192E+00-3.40439E-15-4.74231E-14
 -1      3851 1.69410E+01 8.81873E-01-2.41756E-02-1.85394E+00 5.70286E-14-2.40476E-14
 -1      3852 1.66716E+01 1.15554E+00 2.64405E-02-1.41691E+00 1.22140E-14-6.55994E-14
 -1      3853 1.57416E+01 9.73922E-01 5.39302E-02-1.82869E+00 2.12872E-15-3.60645E-14
 -1      3854 1.92820E+01 7.92981E-01-4.56614E-04-8.52126E-01 7.48729E-14 6.23021E-14
 -1      3855 1.93905E+01 7.23987E-01-4.32034E-03-7.84626E-01 1.37760E-13 1.03989E-13
 -1      3856 2.03183E+01 8.02614E-01-1.27430E-04-4.14493E-02-4.11834E-15-1.34413E-13
 -1      3857 2.03065E+01 6.72080E-01-1.13005E-03 4.32769E-02-7.68962E-15-1.25620E-13
 -1      3858 2.03087E+01 6.85265E-01 1.77061E-03 5.98139E-02-2.77788E-15-5.97058E-14
 -1      3859 2.03170E+01 8.87553E-01 7.97340E-04-4.62614E-02 3.24847E-15-8.77558E-14
 -1      3860 2.02447E+01 4.38358E-01 3.12037E-04 2.08419E-01 3.23035E-14-1.04756E-13
 -1      3861 2.02120E+01 3.89943E-01-5.42228E-04 2.63622E-01 2.10742E-14-4.83493E-14
 -1      3862 2.02671E+01 5.24884E-01 8.46784E-04 1.58202E-01 1.67275E-14-5.15419E-14
 -1      3863 2.27847E+01-2.97410E+00-3.97225E-03 1.68179E+00-1.19696E-16-5.18700E-14
 -1      3864 1.98323E+01 2.97296E-01-2.50754E-04-2.52264E-02 3.71615E-14 4.33589E-13
 -1      3865 1.98295E+01 2.98544E-01-1.07718E-03 4.22239E-03-5.20467E-14 2.76692E-13
 -1      3866 1.31577E+01 1.14043E+00 5.67510E-02-1.18773E-01-3.97451E-14 2.07339E-13
 -1      3867 1.40840E+01 1.11056E+00 1.41251E-02-7.25891E-01-2.59633E-13 1.01587E-13
 -1      3868 1.39110E+01 1.12781E+00-1.88051E-02 6.89325E-01-2.97878E-14 1.54330E-13
 -1      3869 2.09709E+01-2.70277E+00 8.93767E-03-2.95955E+00 8.55201E-14-1.39007E-13
 -1      3870 2.11566E+01-2.61245E+00-4.41957E-02 2.60996E+00 4.79694E-15-8.37199E-14
 -1      3871 2.21155E+01-2.60751E+00 3.64268E-02 1.96338E+00 2.81901E-14-7.86580E-14
 -1      3872 1.58522E+01 5.94161E-01 2.49468E-02 1.85261E+00 9.91898E-14-6.49418E-14
 -1      3873 1.46197E+01 7.95676E-01-7.36265E-04 1.63781E+00 8.08179E-14 3.25434E-14
 -1      3874 2.00158E+01 3.81960E-01 2.65383E-05-4.53901E-01-2.53664E-14 1.10909E-14
 -1      3875 2.00608E+01 3.66509E-01-8.03487E-04-4.06716E-01-4.21752E-15-1.91269E-14
 -1      3876 1.89608E+01 9.24172E-01-6.39179E-04-9.87972E-01 3.35835E-14 4.34491E-14
 -1      3877 1.90998E+01 8.58436E-01-5.68094E-03-9.09081E-01 4.48422E-14 5.78084E-14
 -1      3878 1.90422E+01 8.92738E-01 6.44855E-03-7.48078E-01 9.77964E-14 1.66447E-15
 -1      3879 1.98995E+01 2.45580E-01 5.55504E-04-1.51438E-01-1.11397E-13-1.87928E-14
 -1      3880 1.98376E+01 4.76890E-01 1.88991E-03-6.79601E-01 3.03468E-14 1.88233E-13
 -1      3881 2.02474E+01 1.51211E+00 5.81476E-03-1.03671E-01 3.00244E-14-1.32843E-13
 -1      3882 1.93546E+01 7.49065E-01 4.68912E-03-6.56037E-01 1.10023E-13-1.26218E-14
 -1      3883 1.95337E+01 6.59335E-01-2.00279E-04-7.35368E-01 1.07195E-13 5.29524E-14
 -1      3884 1.96180E+01 5.96055E-01-3.26248E-03-6.76619E-01 8.81805E-14 7.81385E-14
 -1      3885 1.98891E+01 4.43803E-01 1.20910E-04-5.40280E-01-3.55666E-14 5.14101E-14
 -1      3886 1.99428E+01 4.07625E-01-1.56257E-03-4.92356E-01-3.26665E-14-1.17609E-14
 -1      3887 1.99569E+01 4.36835E-01 1.56729E-03-4.20101E-01-2.27024E-14 6.50090E-15
 -1      3888 2.02613E+01 1.34216E+00-2.81319E-03 2.60635E-02 5.09270E-14-1.28129E-13
 -1      3889 2.02611E+01 1.34250E+00-2.76023E-03-2.03843E-02 4.03929E-14-1.60026E-13
 -1      3890 1.47271E+01 2.97596E-01 4.08313E-02-2.53267E+00-9.48651E-14-1.81587E-13
 -1      3891 1.75864E+01 1.24876E+00 1.50635E-02 1.12420E+00-9.55540E-15 2.20756E-13
 -1      3892 1.55561E+01 6.49745E-01 3.62602E-03 2.20547E+00-1.60765E-14 7.07281E-14
 -1      3893 2.03043E+01 9.44454E-01-1.35238E-03 1.67359E-01 5.74378E-14-2.02098E-14
 -1      3894 1.51156E+01 1.06745E+00 4.59975E-02 1.58083E+00-9.27587E-14 1.59337E-14
 -1      3895 2.25796E+01-2.86844E+00 1.11650E-02-1.78804E+00 3.15019E-14-9.91044E-14
 -1      3896 2.02836E+01 1.22840E+00-1.25525E-03-1.39038E-01 2.08898E-14-9.15040E-14
 -1      3897 2.01930E+01 4.18703E-01 6.97368E-04 2.51393E-01 2.25389E-14-5.54065E-14
 -1      3898 1.99076E+01 2.26858E-01 2.37146E-04-1.09269E-01-2.27330E-13 1.78339E-13
 -1      3899 2.02805E+01 1.32707E+00 4.39672E-03 1.97017E-01 6.06482E-14-7.86447E-14
 -1      3900 1.44430E+01 1.00041E+00-1.77117E-02 1.00009E+00 1.10698E-13-1.10473E-14
 -1      3901 2.02642E+01 5.05097E-01-1.34764E-03-1.53302E-01 5.76545E-14 1.01615E-14
 -1      3902 2.02909E+01 5.90348E-01 1.09086E-03-7.67044E-02 7.25512E-14 1.10893E-14
 -1      3903 2.02630E+01 5.33315E-01 7.85355E-04-1.55499E-01 6.80228E-14-2.49175E-14
 -1      3904 1.85520E+01 1.02965E+00-3.85171E-04-1.15174E+00 4.04107E-14 2.66343E-14
 -1      3905 1.87267E+01 9.79551E-01-7.77299E-03-1.05610E+00 4.41648E-14 8.36177E-15
 -1      3906 1.86431E+01 1.03246E+00 8.66838E-03-8.52387E-01 3.51033E-14 9.54835E-15
 -1      3907 1.40931E+01 1.03034E+00 2.69000E-02-7.27970E-01 5.37174E-14-2.06623E-14
 -1      3908 1.67776E+01-6.03244E-01 7.75655E-03-3.20988E+00 1.20439E-13 4.33997E-14
 -1      3909 1.75914E+01-1.14880E+00 1.76894E-02-3.48992E+00 8.78317E-14-5.24537E-15
 -1      3910 1.98576E+01 2.92225E-01-5.64344E-04 1.29652E-01 3.98584E-14-2.97382E-13
 -1      3911 1.98304E+01 3.39328E-01 1.16094E-03 1.69561E-01 1.15455E-13-2.35730E-13
 -1      3912 1.98373E+01 3.06112E-01-7.45947E-04 1.04631E-01 4.05830E-14-3.58632E-13
 -1      3913 1.87184E+01-1.47690E+00-8.54467E-04-3.21305E+00 1.18135E-13 2.14028E-14
 -1      3914 1.77734E+01-1.00930E+00 3.40750E-02 3.27720E+00 1.02841E-13-1.18268E-13
 -1      3915 1.73661E+01-4.10460E-01 8.47143E-03 2.75475E+00 8.91865E-14-8.16526E-14
 -1      3916 1.98398E+01 2.87867E-01-9.96072E-04-5.97179E-02 7.50011E-14 8.79378E-14
 -1      3917 1.98113E+01 3.24133E-01 1.06253E-03-4.92456E-02 8.16664E-14 3.82532E-13
 -1      3918 1.98533E+01 2.78719E-01-5.01649E-06-8.61360E-02-2.15871E-15 2.36625E-13
 -1      3919 2.01189E+01 3.63423E-01-2.72162E-04-3.66667E-01 2.52828E-14-4.22440E-14
 -1      3920 2.01579E+01 3.74016E-01-7.24032E-05-3.15665E-01 3.21032E-14-2.89733E-14
 -1      3921 2.01873E+01 4.35562E-01 8.73654E-04-2.57841E-01 5.44572E-14-6.18859E-14
 -1      3922 2.00851E+01 4.08128E-01 1.09432E-03-3.43282E-01-1.50962E-15-3.96416E-14
 -1      3923 2.02693E+01 1.28500E+00-4.58635E-03 9.80158E-02 6.86379E-14-1.28068E-13
 -1      3924 2.02649E+01 1.32632E+00-2.25722E-03 5.56483E-02 6.25349E-14-1.11608E-13
 -1      3925 2.03055E+01 1.16376E+00 5.42468E-03 2.52057E-02 5.48768E-14-1.20457E-13
 -1      3926 1.81295E+01 1.14663E+00 1.17016E-02-9.79898E-01 1.97325E-14 2.43421E-14
 -1      3927 1.84897E+01-1.46564E+00-3.45140E-02 3.27717E+00 1.18659E-13-9.26845E-14
 -1      3928 1.98897E+01-2.02036E+00 1.94547E-02 3.06972E+00 3.75851E-14-2.66258E-14
 -1      3929 1.89500E+01 9.43152E-01-4.25439E-03 4.94838E-01 1.41804E-14 3.09118E-13
 -1      3930 1.87931E+01 1.01274E+00-3.04179E-03 5.42149E-01 1.80803E-14 2.63791E-13
 -1      3931 1.43930E+01 1.23907E+00 3.68438E-02 2.43438E-01 3.48929E-14-2.00690E-14
 -1      3932 1.49375E+01 1.04967E+00-1.75008E-02-1.18372E+00 3.76110E-14 1.55362E-14
 -1      3933 1.55466E+01 1.15426E+00-2.88574E-02-9.64396E-01-1.50169E-14 3.73920E-14
 -1      3934 1.52810E+01 1.16329E+00 1.99198E-02 4.57893E-01 7.14713E-14 8.76187E-15
 -1      3935 1.99850E+01 3.97938E-01-1.32245E-03 3.38274E-01 7.56086E-14-1.12301E-13
 -1      3936 1.99263E+01 4.07423E-01 5.72367E-04 3.80680E-01 3.76836E-14-7.60808E-14
 -1      3937 1.98415E+01 4.21295E-01-1.79827E-03 4.20884E-01-2.54247E-14-4.49887E-14
 -1      3938 1.97787E+01 4.40408E-01 1.12234E-03 4.69376E-01-3.03161E-14-7.49591E-14
 -1      3939 1.98499E+01 4.54587E-01 1.19519E-03 3.37332E-01 2.62033E-14-1.06108E-13
 -1      3940 1.96827E+01 4.58545E-01-2.28565E-03 5.20073E-01-2.52001E-14-5.37379E-14
 -1      3941 1.96187E+01 4.77643E-01 1.76485E-03 5.78769E-01-4.53996E-14-1.19908E-14
 -1      3942 1.96747E+01 4.97150E-01 1.40500E-03 4.25181E-01-1.70366E-14-2.84657E-14
 -1      3943 1.95129E+01 4.89806E-01-2.88733E-03 6.44819E-01-2.99031E-14 2.52132E-14
 -1      3944 1.94524E+01 4.98385E-01 2.67072E-03 7.17933E-01 8.67180E-15 3.11096E-14
 -1      3945 1.94802E+01 5.42989E-01 1.58077E-03 5.38595E-01 9.12602E-15 2.08223E-14
 -1      3946 1.93394E+01 4.92665E-01-3.47765E-03 8.05611E-01-3.41029E-14-3.31386E-14
 -1      3947 1.92904E+01 4.77400E-01 3.98836E-03 8.97884E-01-4.32276E-14-5.25568E-15
 -1      3948 1.92696E+01 5.69703E-01 1.21346E-03 6.88084E-01-3.11954E-14 3.45555E-14
 -1      3949 1.91757E+01 4.38868E-01-3.90511E-03 1.01412E+00-1.99103E-14-5.14924E-14
 -1      3950 1.91513E+01 3.83644E-01 5.99534E-03 1.13029E+00-9.60603E-17-7.16693E-14
 -1      3951 1.90517E+01 5.51853E-01 6.76169E-04 8.89078E-01-7.50837E-14-9.57770E-14
 -1      3952 1.90448E+01 2.94134E-01-3.94560E-03 1.28409E+00 4.23711E-14-1.02796E-13
 -1      3953 1.90617E+01 1.76709E-01 7.01821E-03 1.42933E+00 3.67817E-14-4.69322E-14
 -1      3954 1.88393E+01 4.56281E-01-8.43945E-04 1.15804E+00 2.80451E-15-1.25105E-13
 -1      3955 1.89886E+01 1.64826E-02-2.57866E-03 1.62233E+00 6.77234E-14-6.97270E-14
 -1      3956 1.90793E+01-1.94023E-01 6.48205E-03 1.80531E+00 7.58989E-14-4.24435E-14
 -1      3957 1.86677E+01 2.31815E-01-4.07591E-03 1.51908E+00 6.39116E-14-1.29535E-13
 -1      3958 1.92657E+01-1.04794E+00 2.32268E-02 2.55650E+00 1.29144E-13-3.60536E-14
 -1      3959 1.96673E+01-1.50382E+00 2.77240E-02 2.72211E+00 8.63498E-14-1.85919E-14
 -1      3960 1.80937E+01 1.19608E+00-8.26566E-03 6.45806E-01 7.47683E-14 2.25227E-13
 -1      3961 1.78223E+01 1.24312E+00-5.25181E-03 7.06599E-01-1.82328E-14 3.50291E-13
 -1      3962 2.03049E+01 1.16278E+00 5.09210E-03-1.96226E-02 2.36680E-14-1.58912E-13
 -1      3963 2.02644E+01 1.32602E+00-2.44527E-03-4.96532E-02 3.68962E-14-1.56031E-13
 -1      3964 2.02727E+01 1.29101E+00-2.33626E-03-9.39252E-02 2.07565E-14-1.19202E-13
 -1      3965 2.17103E+01-2.86231E+00-5.11626E-03-2.53624E+00 4.04459E-14-2.34100E-13
 -1      3966 1.94284E+01-1.08943E+00 3.57677E-03-2.45095E+00-2.50988E-14 1.02453E-13
 -1      3967 1.91584E+01-6.65804E-01 9.85531E-03-2.24287E+00-1.41775E-14 3.03092E-13
 -1      3968 1.91070E+01-3.59516E-01 1.24383E-02-1.96627E+00-6.53355E-14 1.60065E-13
 -1      3969 1.89561E+01-9.89113E-02-3.87243E-04-1.77679E+00-1.31139E-13 6.20103E-14
 -1      3970 1.85273E+01-3.51983E-01-1.29589E-02-2.21841E+00-7.09743E-14 5.36528E-14
 -1      3971 1.89983E+01 1.10127E-01 9.81027E-03-1.54965E+00-1.91544E-13 1.53708E-14
 -1      3972 1.89416E+01 2.68213E-01-2.79151E-03-1.38676E+00-2.56225E-13-6.43772E-14
 -1      3973 1.85421E+01 1.62398E-01-5.49105E-03-1.68602E+00-1.67955E-13-9.24675E-14
 -1      3974 1.90251E+01 3.92004E-01 6.63430E-03-1.20980E+00-2.20756E-13-3.55171E-14
 -1      3975 1.90245E+01 4.77856E-01-3.41887E-03-1.07576E+00-2.31769E-13 3.72850E-14
 -1      3976 1.86737E+01 4.61903E-01-1.72134E-03-1.27154E+00-2.12312E-13-4.06146E-14
 -1      3977 1.91218E+01 5.40623E-01 4.35019E-03-9.40113E-01-3.47912E-13 5.17391E-14
 -1      3978 1.91509E+01 5.76443E-01-3.35324E-03-8.32021E-01-1.78874E-13 6.07925E-14
 -1      3979 1.88512E+01 6.16214E-01 1.66692E-04-9.57666E-01-2.05343E-13-1.87602E-13
 -1      3980 1.92479E+01 5.97355E-01 2.79987E-03-7.28468E-01-4.17033E-14 5.81946E-17
 -1      3981 1.92905E+01 5.99957E-01-3.03492E-03-6.41919E-01-5.03734E-14 1.38218E-14
 -1      3982 1.90393E+01 6.72688E-01 1.09615E-03-7.21409E-01-1.20583E-13-5.31315E-14
 -1      3983 1.93802E+01 5.93654E-01 1.77811E-03-5.62835E-01 5.48089E-14 7.76606E-14
 -1      3984 1.94263E+01 5.75576E-01-2.64447E-03-4.93674E-01 1.05565E-13 1.55567E-13
 -1      3985 1.92192E+01 6.65368E-01 1.50120E-03-5.43482E-01 2.31003E-14-6.12498E-14
 -1      3986 1.95054E+01 5.52949E-01 1.11977E-03-4.33192E-01-1.11909E-13 2.63856E-15
 -1      3987 1.95496E+01 5.23359E-01-2.24517E-03-3.77986E-01-3.43545E-13-3.11710E-14
 -1      3988 1.93814E+01 6.19004E-01 1.60944E-03-4.09102E-01-1.10357E-13-1.51794E-13
 -1      3989 1.96167E+01 4.92281E-01 7.14873E-04-3.31669E-01-3.11522E-13 1.50195E-13
 -1      3990 1.96560E+01 4.57680E-01-1.85272E-03-2.87687E-01-2.49778E-13 1.37076E-13
 -1      3991 1.95218E+01 5.51492E-01 1.57245E-03-3.07321E-01-2.04856E-13 6.19955E-14
 -1      3992 1.97116E+01 4.22993E-01 3.36392E-04-2.52076E-01-1.53021E-13 3.68753E-13
 -1      3993 1.97445E+01 3.87720E-01-1.73538E-03-2.17791E-01 1.11487E-13 3.75907E-13
 -1      3994 1.96397E+01 4.75425E-01 1.57836E-03-2.29740E-01-1.12170E-13 6.33335E-13
 -1      3995 1.97897E+01 3.55155E-01 4.65955E-04-1.89632E-01 1.34858E-13 2.73052E-13
 -1      3996 1.98167E+01 3.21965E-01-9.54092E-04-1.62264E-01 1.22181E-13 2.68964E-13
 -1      3997 1.97346E+01 4.00047E-01 1.36014E-03-1.70573E-01 3.87121E-14 6.04204E-13
 -1      3998 1.98709E+01 2.65950E-01-6.65977E-04-1.30257E-01-3.37757E-14 2.06580E-13
 -1      3999 2.05728E+01-2.35042E+00-5.29473E-03-2.85719E+00 6.12574E-14-1.34914E-13
 -1      4000 1.77542E+01 1.18451E+00-5.68116E-03-7.23460E-01 5.10981E-14 3.63017E-14
 -1      4001 1.80519E+01 1.13475E+00-8.49465E-03-6.71705E-01 4.71205E-15 4.10707E-14
 -1      4002 1.48112E+01 7.28841E-01 3.99585E-03-1.83807E+00-2.31830E-13-1.65773E-13
 -1      4003 1.57501E+01 9.29020E-02-3.81213E-03-2.69328E+00-1.79995E-13-2.06316E-13
 -1      4004 1.85810E+01 1.07872E+00-5.75173E-03 5.68526E-01-5.38258E-15 2.88350E-13
 -1      4005 1.83741E+01 1.14187E+00-4.08755E-03 6.20105E-01 3.09847E-14 2.68441E-13
 -1      4006 1.81041E+01 1.22175E+00 1.12996E-02 4.08215E-01 8.63714E-14 1.95596E-13
 -1      4007 1.85798E+01 1.09181E+00 8.30094E-03 3.84935E-01 3.16843E-14 1.79242E-13
 -1      4008 1.65648E+01 1.28234E+00-1.93701E-02 8.61755E-01-1.63604E-13 9.31416E-14
 -1      4009 1.60714E+01 1.21806E+00-2.16994E-02 1.01309E+00-2.11717E-13 1.03059E-14
 -1      4010 1.92298E+01 8.04446E-01-3.30121E-03 4.22890E-01-8.11540E-14 2.75946E-13
 -1      4011 1.91118E+01 8.73964E-01-2.16251E-03 4.67107E-01-1.22206E-15 2.96781E-13
 -1      4012 1.89423E+01 9.50801E-01 6.21727E-03 3.51591E-01-1.09432E-14 3.78069E-13
 -1      4013 1.94414E+01 6.72146E-01-2.63758E-03 3.53949E-01-1.68154E-13 2.99572E-13
 -1      4014 1.93534E+01 7.37512E-01-1.46040E-03 3.94750E-01-1.68962E-13 2.38147E-13
 -1      4015 1.92192E+01 8.09870E-01 4.70017E-03 3.10858E-01-1.01435E-13 3.84703E-13
 -1      4016 1.96006E+01 5.51730E-01-2.16494E-03 2.89958E-01-5.30600E-14 4.55904E-14
 -1      4017 1.95357E+01 6.10704E-01-9.20027E-04 3.26723E-01-1.21085E-13 1.68256E-13
 -1      4018 1.94304E+01 6.76600E-01 3.54830E-03 2.66593E-01-5.87026E-14 1.07413E-13
 -1      4019 1.97194E+01 4.45947E-01-1.77395E-03 2.32505E-01 5.79211E-14-1.63794E-13
 -1      4020 1.96722E+01 4.97891E-01-3.85794E-04 2.64737E-01 4.32809E-14 1.62331E-14
 -1      4021 1.95903E+01 5.55250E-01 2.45551E-03 2.22464E-01 1.13557E-13-7.27986E-14
 -1      4022 1.97955E+01 3.68369E-01-1.09530E-03 1.86616E-01 1.84219E-13-2.87139E-13
 -1      4023 1.97607E+01 4.12794E-01 2.23500E-04 2.13497E-01 1.16668E-13-3.35354E-13
 -1      4024 1.96955E+01 4.61664E-01 1.43635E-03 1.83205E-01 1.96303E-13-1.35622E-13
 -1      4025 1.97643E+01 3.90051E-01 4.59116E-05 1.49979E-01 1.45907E-13-3.58746E-13
 -1      4026 2.00753E+01-1.77075E+00 2.22860E-02-2.72969E+00 2.71640E-14 1.96989E-15
 -1      4027 1.97316E+01 5.39469E-01 2.00271E-05-6.32511E-01 3.10144E-14 8.68664E-14
 -1      4028 1.97981E+01 4.87288E-01-2.37387E-03-5.80387E-01-1.52757E-14 3.84303E-14
 -1      4029 1.97982E+01 5.10178E-01 2.30027E-03-4.94942E-01-2.74371E-14-5.73682E-14
 -1      4030 1.96010E+01 6.17635E-01 3.23577E-03-5.72949E-01 6.75469E-14-3.99370E-14
 -1      4031 2.03015E+01 6.93588E-01-1.53248E-03-5.64866E-03 5.94879E-14 1.15208E-14
 -1      4032 2.03129E+01 7.89770E-01 1.90414E-03 7.31883E-02 6.04476E-14-1.28992E-14
 -1      4033 2.03090E+01 9.91227E-01 1.69947E-04 1.32861E-01 5.20665E-14-4.96877E-14
 -1      4034 2.03069E+01 7.13569E-01 9.27663E-04-2.86600E-02 6.79261E-14-3.71446E-14
 -1      4035 1.74454E+01 1.27277E+00-1.25852E-02 7.36133E-01-1.70354E-13 2.68091E-13
 -1      4036 1.70883E+01 1.28770E+00-7.45445E-03 8.20000E-01-1.31475E-13 1.29166E-13
 -1      4037 1.66261E+01 1.37992E+00 2.34396E-02 4.35872E-01-1.95308E-13 2.35918E-13
 -1      4038 2.01098E+01 4.06638E-01-8.79247E-04 2.63755E-01 2.46207E-14-6.28851E-14
 -1      4039 2.00574E+01 3.97550E-01 7.27303E-05 3.04254E-01 5.07428E-14-7.80652E-14
 -1      4040 2.00035E+01 4.34297E-01 1.09385E-03 2.65479E-01 3.31350E-14-7.02156E-14
 -1      4041 1.67384E+01-6.91756E-02 1.87545E-02-2.61732E+00-1.55146E-13-1.08111E-13
 -1      4042 1.90761E+01-1.35477E+00-1.04371E-02-2.90559E+00 7.86104E-14 6.95121E-14
 -1      4043 1.98233E+01 3.10169E-01-3.76001E-04 3.82173E-02-1.57011E-13-5.56258E-14
 -1      4044 1.98316E+01 3.03441E-01-1.01739E-03 6.72781E-02-1.28875E-13-2.11811E-13
 -1      4045 1.97910E+01 3.58047E-01 1.22163E-03 9.49025E-02 5.08723E-14-4.65245E-13
 -1      4046 1.97948E+01 3.43631E-01 1.19275E-03 2.07081E-02-7.38244E-14 2.36093E-13
 -1      4047 2.02835E+01 5.94097E-01-4.37658E-04 1.06124E-01 1.60122E-14-8.31284E-14
 -1      4048 2.02529E+01 5.20080E-01-8.35101E-04 1.55622E-01 2.57263E-14-7.68191E-14
 -1      4049 1.53110E+01 1.20294E+00 1.80160E-03 8.77009E-01-1.16868E-13 5.19190E-14
 -1      4050 2.03045E+01 1.07634E+00-2.47986E-03 1.38024E-01 4.35915E-14-7.44292E-14
 -1      4051 2.02867E+01 1.22533E+00 8.43120E-04 1.13445E-01 5.15661E-14-1.23847E-13
 -1      4052 2.03155E+01 1.07594E+00 4.92258E-03 5.57063E-02 4.88027E-14-1.30366E-13
 -1      4053 2.03125E+01 9.15444E-01-8.16336E-04 4.78889E-02 4.92855E-14-6.83659E-14
 -1      4054 2.02117E+01 4.65408E-01-5.16443E-04 1.89029E-01 4.04628E-14-7.15793E-14
 -1      4055 2.01680E+01 4.28677E-01-4.49804E-04 2.31938E-01 3.33111E-14-7.47414E-14
 -1      4056 2.01325E+01 4.54236E-01 1.10000E-03 2.01385E-01 3.83498E-14-8.95753E-14
 -1      4057 1.79824E+01-5.12848E-01-3.89362E-02 2.56390E+00 8.38643E-14-5.45059E-14
 -1      4058 1.71147E+01 9.57084E-02 2.34338E-02 2.32272E+00 7.36744E-14-4.72721E-14
 -1      4059 1.64976E+01 4.44931E-01-1.42196E-02 1.94048E+00 5.60465E-14-3.67597E-14
 -1      4060 1.60713E+01 8.85990E-01 1.61573E-03 1.30084E+00 1.05064E-13-1.21556E-13
 -1      4061 1.72904E+01 4.02630E-01 1.51902E-02 1.79971E+00 4.88006E-14-4.23763E-14
 -1      4062 2.03104E+01 1.08278E+00 2.27688E-03-8.02630E-02 1.18378E-14-1.06018E-13
 -1      4063 1.69449E+01 1.22668E+00-1.21287E-02-8.18816E-01 4.51373E-14 1.64129E-14
 -1      4064 1.73465E+01 1.21652E+00-1.34232E-02-7.41500E-01 7.93329E-14 8.83668E-14
 -1      4065 1.74127E+01 1.26305E+00 1.85731E-02-4.08402E-01 3.02214E-14 1.00852E-13
 -1      4066 1.81659E+01-6.93188E-01 1.10876E-02-2.76928E+00 3.74692E-14 9.99856E-14
 -1      4067 1.88930E+01-5.94284E-01 1.43540E-02 2.27884E+00 9.35445E-14-6.26413E-14
 -1      4068 1.50033E+01 1.18863E+00-2.78652E-02-4.88134E-01-1.67378E-13 1.11255E-13
 -1      4069 1.48473E+01 1.04572E+00 2.64394E-02-1.22853E+00-1.63974E-13-1.01637E-14
 -1      4070 1.58013E+01 8.90087E-01 1.32157E-02-1.42843E+00-2.34620E-13-8.37691E-14
 -1      4071 1.60936E+01 1.18372E+00-1.41859E-02-9.57066E-01-2.49594E-14 8.17671E-14
 -1      4072 1.65356E+01 1.23458E+00-1.83849E-02-8.21169E-01 3.59923E-14 1.96256E-14
 -1      4073 1.66377E+01 1.32914E+00 2.87187E-02-3.75450E-01 4.00732E-14 2.09133E-13
 -1      4074 1.57600E+01 1.33412E+00 3.42705E-02-2.80458E-01 1.61412E-14 1.39749E-13
 -1      4075 1.82194E+01 3.82448E-02-2.09785E-03 1.93896E+00 9.85083E-14-1.35627E-13
 -1      4076 1.87214E+01-2.81750E-01 4.53687E-03 2.06094E+00 6.77398E-14-6.82549E-14
 -1      4077 1.74738E+01 1.32530E+00 1.58784E-02 4.22763E-01-1.12017E-13 2.78063E-13
 -1      4078 2.03047E+01 9.99161E-01-2.29143E-03 2.01312E-02 5.57004E-14-1.12447E-13
 -1      4079 2.03018E+01 1.01485E+00-2.31951E-03 4.03758E-03 5.53604E-14-1.17467E-13
 -1      4080 1.88242E+01 9.42399E-01-3.08390E-03-5.97954E-01 9.63210E-14 2.42878E-14
 -1      4081 1.90032E+01 8.70557E-01-4.27733E-03-5.59791E-01 7.94727E-14 1.30886E-14
 -1      4082 1.91903E+01 7.99416E-01-2.03763E-03-5.41394E-01 6.16065E-14 1.04646E-14
 -1      4083 1.93288E+01 7.29189E-01-3.96609E-03-5.06103E-01 9.77795E-14-2.59515E-15
 -1      4084 1.90299E+01 8.70436E-01 7.14897E-03-3.99198E-01 6.91014E-14 2.09800E-14
 -1      4085 1.98386E+01 3.02483E-01 4.99236E-04-1.31179E-01 8.99619E-14 1.45733E-13
 -1      4086 1.98972E+01 4.70621E-01-8.24839E-04-3.68632E-01-4.66527E-14-2.86439E-14
 -1      4087 1.99699E+01 4.45364E-01-1.10851E-03-3.33214E-01-4.31062E-14-3.65528E-14
 -1      4088 1.74881E+01-2.78461E-01-7.01200E-03-2.60446E+00-8.27901E-14-1.40136E-13
 -1      4089 1.79953E+01-2.14584E-01 1.04204E-02-2.33586E+00-1.03291E-13-1.41097E-13
 -1      4090 1.79478E+01 8.05085E-02-5.24338E-03-2.02566E+00-1.47167E-13-2.18176E-13
 -1      4091 1.66145E+01 3.76515E-01-4.45524E-03-2.09692E+00-3.20726E-13-2.74525E-13
 -1      4092 1.97965E+01 3.35636E-01-4.99395E-04-1.14904E-01 8.46562E-14 3.13257E-13
 -1      4093 2.02326E+01 5.32883E-01 1.25885E-03 1.38001E-01 2.78284E-14-1.26410E-13
 -1      4094 2.02519E+01 5.33682E-01-1.26932E-03-1.56402E-01 8.88444E-14-7.40525E-14
 -1      4095 2.02841E+01 6.07473E-01-1.58181E-04-1.00020E-01 8.62230E-14-5.32883E-14
 -1      4096 2.03159E+01 8.87016E-01 3.44250E-03 5.41123E-03 5.37694E-14-1.03775E-13
 -1      4097 2.03033E+01 1.01344E+00-2.13732E-03 3.22029E-03 3.63546E-14-1.53577E-13
 -1      4098 2.03052E+01 9.93743E-01-2.98049E-03-1.37469E-02 2.03503E-14-1.46177E-13
 -1      4099 2.03145E+01 9.50161E-01-2.38905E-04-2.35011E-02 6.51184E-15-9.32384E-14
 -1      4100 2.03009E+01 6.66215E-01-1.16010E-03 7.81000E-02 1.73716E-14-7.99964E-14
 -1      4101 2.02924E+01 6.65055E-01 1.25664E-03 7.75904E-02 2.51787E-14-1.30272E-13
 -1      4102 2.03134E+01 7.49534E-01-1.41393E-03 2.82422E-02 1.25899E-14-9.11838E-14
 -1      4103 1.53200E+01 1.38167E+00 3.74694E-02 2.44599E-01-1.29912E-13 2.57558E-13
 -1      4104 1.99992E+01 4.71603E-01 1.71402E-03-2.58247E-01-3.67319E-14-4.41237E-14
 -1      4105 2.00473E+01 4.32154E-01-7.66895E-04-3.07284E-01-3.23152E-14-3.23812E-14
 -1      4106 2.01063E+01 4.32651E-01-5.95680E-04-2.68543E-01 3.34707E-15-5.00363E-14
 -1      4107 1.58045E+01 1.06184E+00 1.71253E-03 9.07542E-01 9.45223E-14-1.92468E-15
 -1      4108 1.56692E+01 1.20866E+00-8.69016E-03 2.10383E-01 4.88208E-14 8.30872E-14
 -1      4109 1.61668E+01 1.21528E+00-8.50518E-03 1.26260E-01 4.01648E-14 1.56725E-13
 -1      4110 1.64896E+01 9.67946E-01 3.76241E-03 1.02440E+00 1.84724E-14-9.60255E-14
 -1      4111 1.97771E+01 3.52921E-01-9.83350E-06-7.36545E-02-9.48214E-15 4.35385E-13
 -1      4112 1.97656E+01 3.59721E-01-1.24544E-03-3.80491E-02-1.51232E-13 5.33882E-13
 -1      4113 1.97521E+01 3.77320E-01-2.89645E-04-1.04470E-01-7.08957E-14 4.23537E-13
 -1      4114 1.83572E+01 1.07779E+00-4.30965E-03-6.56721E-01 1.48074E-14 4.70228E-14
 -1      4115 1.85877E+01 1.01165E+00-5.78816E-03-6.14583E-01 6.04431E-14 6.38810E-14
 -1      4116 1.86160E+01 1.01513E+00 8.30987E-03-4.15349E-01 5.14466E-14 6.43853E-14
 -1      4117 1.97506E+01 3.81013E-01 5.54635E-04 3.47799E-03 5.46895E-14 3.58213E-13
 -1      4118 1.97399E+01 3.90152E-01-8.38043E-04 3.90976E-02 4.36798E-14-3.14469E-14
 -1      4119 1.97124E+01 4.13523E-01-2.22403E-04-2.12584E-02 3.47711E-14 2.40104E-13
 -1      4120 2.01654E+01 4.48062E-01-1.03238E-03-2.38538E-01 3.39004E-14-6.55873E-14
 -1      4121 2.02120E+01 4.81215E-01-1.82304E-04-1.93070E-01 5.91749E-14-7.05840E-14
 -1      4122 2.01354E+01 4.77293E-01 1.41134E-03-2.04904E-01 5.76152E-15-2.82624E-14
 -1      4123 2.02366E+01 5.51289E-01 1.28672E-03-1.40180E-01 7.48493E-14-6.32799E-14
 -1      4124 1.80920E+01 1.15085E+00 1.16367E-02-4.18497E-01 1.99470E-14 3.47556E-14
 -1      4125 1.97090E+01 4.16622E-01 1.47746E-04-1.25758E-01-6.98530E-14 6.04809E-13
 -1      4126 1.92226E+01 7.75269E-01-2.07065E-03 1.94297E-01-2.68163E-14 2.15823E-13
 -1      4127 1.90987E+01 8.40810E-01-2.99441E-03 2.09279E-01 1.94241E-14 2.97064E-13
 -1      4128 1.98570E+01 4.69097E-01-2.25044E-03 2.39787E-01 4.08795E-14-1.07702E-13
 -1      4129 1.97777E+01 4.92174E-01 8.17702E-04 2.77425E-01-7.79403E-15-9.80862E-14
 -1      4130 1.96672E+01 5.16640E-01-2.77115E-03 3.11515E-01-1.71133E-14-8.68940E-14
 -1      4131 1.95776E+01 5.48302E-01 1.00774E-03 3.58292E-01 9.73109E-15-5.08393E-14
 -1      4132 1.96914E+01 5.42523E-01 2.50003E-03 2.09804E-01 2.09931E-14-1.39282E-13
 -1      4133 1.94511E+01 5.76352E-01-3.12332E-03 4.05337E-01 2.91501E-14-7.20275E-14
 -1      4134 1.93521E+01 6.06827E-01 1.32063E-03 4.65343E-01 1.87781E-14-6.29308E-14
 -1      4135 1.94671E+01 6.11532E-01 4.05174E-03 2.87368E-01 5.87792E-15-1.18495E-13
 -1      4136 1.92030E+01 6.30107E-01-4.89102E-03 5.34503E-01-4.25346E-14-5.69240E-14
 -1      4137 1.91038E+01 6.51029E-01 3.20532E-03 6.16469E-01-7.88644E-14-8.68546E-14
 -1      4138 1.91987E+01 6.89373E-01 5.36366E-03 3.98595E-01-1.13464E-14-1.94184E-13
 -1      4139 1.89307E+01 6.52319E-01-6.81685E-03 7.11598E-01-5.65294E-14-4.99726E-14
 -1      4140 1.88353E+01 6.50354E-01 5.07803E-03 8.22120E-01-6.10071E-14-7.68559E-14
 -1      4141 1.89009E+01 7.44626E-01 7.33834E-03 5.53605E-01-5.06895E-14-1.28362E-13
 -1      4142 1.86367E+01 6.17251E-01-8.89798E-03 9.56706E-01-6.63393E-14-2.79751E-14
 -1      4143 1.85539E+01 5.74202E-01 6.84386E-03 1.10713E+00 7.96672E-16-4.61489E-14
 -1      4144 1.85575E+01 7.59002E-01 8.27243E-03 7.73576E-01-2.29662E-14-6.29515E-15
 -1      4145 1.83304E+01 5.04016E-01-7.32273E-03 1.29310E+00 1.40449E-14-6.04785E-14
 -1      4146 1.82701E+01 3.84095E-01 6.22839E-03 1.50640E+00 2.93749E-14-8.49334E-14
 -1      4147 1.81713E+01 6.87410E-01 4.45700E-03 1.08214E+00-1.43167E-14 2.68082E-14
 -1      4148 1.71290E+01 1.20383E+00-1.12134E-02-4.77592E-02-2.96954E-14 7.96429E-14
 -1      4149 1.75316E+01 1.16819E+00-7.15605E-03-8.39258E-02-2.55909E-14 5.29069E-15
 -1      4150 2.02497E+01 5.76996E-01-7.49428E-04 8.40994E-02 3.89557E-14-1.16933E-13
 -1      4151 2.02081E+01 5.20177E-01-4.15965E-04 1.15924E-01 3.72254E-14-1.11409E-13
 -1      4152 1.98010E+01 5.06650E-01-1.53402E-03-3.91762E-01-7.75909E-16-2.34213E-14
 -1      4153 1.98284E+01 5.19665E-01 2.50465E-03-3.03808E-01-1.75131E-14-4.27259E-14
 -1      4154 1.97104E+01 5.51823E-01-1.25910E-03-4.26347E-01 3.31723E-14-4.91668E-14
 -1      4155 1.81526E+01 2.92193E-01 1.23281E-02-1.71676E+00-1.51092E-13-2.80077E-13
 -1      4156 1.81761E+01 4.47937E-01-7.71911E-03-1.48247E+00-1.71525E-13-2.63835E-13
 -1      4157 1.75808E+01 3.90910E-01 2.27379E-04-1.80330E+00-1.37021E-13-3.01229E-13
 -1      4158 1.83748E+01 5.71718E-01 7.64573E-03-1.26147E+00-1.43796E-13-2.24173E-13
 -1      4159 1.84421E+01 6.50362E-01-6.66389E-03-1.08586E+00-1.03883E-13-1.78247E-13
 -1      4160 1.79672E+01 6.68333E-01 2.43102E-03-1.28233E+00-1.00261E-13-4.78414E-13
 -1      4161 1.86215E+01 7.09549E-01 4.82413E-03-9.26812E-01-1.38527E-13-1.23350E-13
 -1      4162 1.87055E+01 7.37090E-01-5.37502E-03-7.96104E-01-2.11596E-13-1.65043E-13
 -1      4163 1.83242E+01 7.99200E-01 2.73861E-03-9.11665E-01-6.28498E-14-1.99378E-13
 -1      4164 1.88619E+01 7.52678E-01 3.01675E-03-6.81560E-01-2.69416E-13-1.42242E-13
 -1      4165 1.89484E+01 7.46786E-01-4.26979E-03-5.84274E-01-1.61061E-13-1.53197E-13
 -1      4166 1.86421E+01 8.34498E-01 2.72779E-03-6.48417E-01-2.04185E-13-2.24566E-13
 -1      4167 1.90819E+01 7.34173E-01 1.84862E-03-5.01697E-01-1.09744E-14-3.50169E-13
 -1      4168 1.91634E+01 7.07607E-01-3.38306E-03-4.29060E-01 2.16067E-14-3.59216E-13
 -1      4169 1.89177E+01 8.08128E-01 2.55453E-03-4.61194E-01-1.67867E-13-3.51685E-13
 -1      4170 1.92752E+01 6.78082E-01 1.09658E-03-3.69472E-01-5.21527E-15-2.45318E-13
 -1      4171 1.93479E+01 6.40093E-01-2.68424E-03-3.15010E-01-9.81137E-14-2.99232E-13
 -1      4172 1.91518E+01 7.44216E-01 2.30469E-03-3.27950E-01 1.72029E-15-6.23580E-13
 -1      4173 1.94401E+01 6.01806E-01 6.26358E-04-2.71998E-01 5.44768E-15-5.84624E-14
 -1      4174 1.95023E+01 5.59042E-01-2.10585E-03-2.31011E-01 3.41784E-14 1.57088E-13
 -1      4175 1.93470E+01 6.60157E-01 2.01353E-03-2.33037E-01 1.37446E-13-1.17556E-14
 -1      4176 1.95770E+01 5.17956E-01 4.17995E-04-2.00092E-01 8.65771E-14 2.82729E-13
 -1      4177 1.96275E+01 4.75085E-01-1.92900E-03-1.68445E-01 1.92188E-13 5.78260E-13
 -1      4178 1.95071E+01 5.68418E-01 1.76044E-03-1.65696E-01 2.21627E-13 1.02370E-13
 -1      4179 2.03004E+01 6.84970E-01-1.00865E-03-6.42240E-02 6.52317E-14-4.84511E-14
 -1      4180 2.03156E+01 7.96706E-01-3.28182E-04 5.17200E-03 6.23971E-14-4.53710E-14
 -1      4181 2.03125E+01 8.77048E-01-1.41695E-03 1.37430E-02 4.77845E-14-9.34044E-14
 -1      4182 2.02946E+01 6.90341E-01 1.40155E-03-6.79574E-02 8.56522E-14-8.13527E-14
 -1      4183 1.96596E+01 4.58698E-01 1.54878E-03-9.59327E-02 7.84013E-14 3.17501E-13
 -1      4184 1.94289E+01 6.48875E-01-1.74316E-03 1.74025E-01 7.95635E-14 6.92689E-14
 -1      4185 1.93349E+01 7.10782E-01-2.09498E-03 1.91500E-01 1.40101E-15 1.81353E-13
 -1      4186 1.92530E+01 7.57653E-01 3.79224E-03 9.63287E-02 3.52555E-14 2.22558E-13
 -1      4187 1.89546E+01 9.07942E-01-2.52092E-03 2.05057E-01 3.72150E-15 2.52311E-13
 -1      4188 1.87918E+01 9.73764E-01-4.19703E-03 2.15066E-01 7.69207E-14 3.00679E-13
 -1      4189 1.90003E+01 8.85722E-01 4.88148E-03 8.16752E-02 4.56000E-14 1.67343E-13
 -1      4190 1.95871E+01 5.34190E-01-1.21637E-03 1.49483E-01 2.35154E-13 2.84320E-14
 -1      4191 1.95163E+01 5.90295E-01-1.20859E-03 1.67253E-01 9.11125E-14-6.76810E-14
 -1      4192 1.94489E+01 6.34265E-01 2.52473E-03 9.73137E-02 1.92849E-13-1.67643E-13
 -1      4193 2.00192E+01 4.51375E-01-1.72020E-03 1.82593E-01 3.41152E-14-8.52634E-14
 -1      4194 1.99505E+01 4.56768E-01 3.69391E-04 2.14955E-01 5.98782E-14-9.07680E-14
 -1      4195 1.98861E+01 4.94875E-01 2.24062E-03 1.55104E-01 4.39743E-14-1.15563E-13
 -1      4196 2.01511E+01 4.81229E-01-1.31806E-03 1.32675E-01 5.73421E-14-1.12289E-13
 -1      4197 2.00950E+01 4.60434E-01 2.53133E-05 1.63555E-01 5.55925E-14-8.06920E-14
 -1      4198 2.01767E+01 5.29453E-01 1.86273E-03 7.92364E-02 4.66563E-14-9.81763E-14
 -1      4199 1.78049E+01 3.43270E-01-1.27460E-02 1.69392E+00 5.80513E-14-3.64856E-14
 -1      4200 1.73875E+01 7.21528E-01 8.78620E-03 1.32440E+00 3.27266E-14-1.01967E-14
 -1      4201 1.67622E+01 1.30109E+00-8.69189E-03 1.31859E-02-1.86617E-13 8.78980E-14
 -1      4202 1.62377E+01 1.28661E+00-1.89961E-02-1.20859E-02-1.71989E-13 1.37201E-13
 -1      4203 1.78622E+01 1.12761E+00-9.79855E-03-1.46101E-01 1.01266E-14 3.51265E-15
 -1      4204 1.81745E+01 1.07813E+00-3.69096E-03-1.65377E-01 2.44520E-14-5.33745E-15
 -1      4205 1.77203E+01 1.13342E+00 1.38951E-02 1.97253E-01-9.35656E-15-3.84392E-14
 -1      4206 2.02138E+01 5.38852E-01-1.66049E-03-1.20908E-01 3.38236E-14-7.98094E-14
 -1      4207 2.02579E+01 5.99425E-01-1.57650E-04-8.57027E-02 7.61313E-14-1.03770E-13
 -1      4208 1.97451E+01 3.92654E-01 5.57989E-05 7.43968E-02 1.23788E-13-2.49694E-13
 -1      4209 1.97471E+01 3.94315E-01-1.14534E-03 1.13855E-01 9.65465E-14-3.81512E-13
 -1      4210 1.97165E+01 4.29478E-01 1.89569E-04 1.29368E-01 2.68914E-13-4.36910E-13
 -1      4211 1.97000E+01 4.32759E-01 4.24613E-04 5.62747E-02 3.00899E-13-1.49639E-13
 -1      4212 1.84314E+01 1.01502E+00-7.39538E-03-2.06671E-01 8.44242E-14 1.66849E-14
 -1      4213 1.86735E+01 9.53222E-01-2.90745E-03-2.14435E-01 1.16123E-13 6.65384E-14
 -1      4214 1.83095E+01 1.03910E+00 1.11425E-02 5.25589E-02 6.41713E-14-3.96278E-14
 -1      4215 1.58512E+01 1.27746E+00 4.49507E-03-1.98495E-01-9.85178E-14 1.45218E-13
 -1      4216 2.03111E+01 9.27291E-01 5.75786E-04-1.74878E-03-7.08106E-16-1.30892E-13
 -1      4217 1.75596E+01 1.25135E+00-6.40210E-03 1.10304E-01 9.84939E-14-7.06032E-15
 -1      4218 1.71820E+01 1.27997E+00-1.15808E-02 9.27753E-02-7.23857E-14 4.95382E-14
 -1      4219 1.70073E+01 1.26551E+00 1.59062E-02-3.27126E-01-3.53234E-14-9.65709E-14
 -1      4220 1.86760E+01 1.01205E+00 6.29345E-03 4.45351E-02-3.34357E-14 1.42759E-13
 -1      4221 1.86070E+01 1.03939E+00-3.21722E-03 1.99812E-01 1.95930E-14 1.09319E-13
 -1      4222 1.83933E+01 1.10045E+00-5.86602E-03 2.02151E-01 2.44889E-14 2.73293E-14
 -1      4223 2.02694E+01 6.53387E-01 8.55412E-04-5.24054E-02 4.53513E-14-1.48282E-13
 -1      4224 2.02824E+01 6.63588E-01-1.21963E-03-6.97153E-02 8.17025E-14-1.30442E-13
 -1      4225 2.03016E+01 7.43952E-01-1.20655E-03-3.51796E-02 5.70344E-14-1.46760E-13
 -1      4226 2.03151E+01 8.11086E-01 2.10929E-03 2.66298E-02 1.59814E-15-1.27906E-13
 -1      4227 1.88773E+01 8.85812E-01-5.43806E-03-2.38430E-01 9.07490E-14 3.00391E-14
 -1      4228 1.90607E+01 8.18924E-01-4.72170E-03-2.32709E-01 7.43426E-14 1.26453E-14
 -1      4229 1.87694E+01 9.20758E-01 7.89453E-03-4.09037E-02 9.64227E-14 1.00939E-14
 -1      4230 2.03088E+01 9.44880E-01-6.13345E-04 1.56154E-02 5.19074E-14-1.41580E-13
 -1      4231 2.03136E+01 8.34587E-01 2.27739E-03-1.33513E-02 5.11975E-14-1.27677E-13
 -1      4232 1.76044E+01 9.15608E-01 2.00526E-03 7.92182E-01 5.57258E-15 9.05184E-15
 -1      4233 1.70032E+01 9.87167E-01-8.79625E-03 8.13113E-01-3.11166E-14-7.99283E-14
 -1      4234 1.97559E+01 5.40537E-01-2.70772E-03-2.26211E-01 2.04868E-14-1.10107E-13
 -1      4235 1.98568E+01 5.08303E-01-1.01492E-03-2.06946E-01-2.18271E-14-1.09473E-13
 -1      4236 1.93496E+01 7.34880E-01 4.91183E-03-3.73498E-01 5.77134E-14-1.45144E-14
 -1      4237 1.94786E+01 6.66316E-01-1.53411E-03-4.83104E-01 8.58490E-14-3.65102E-14
 -1      4238 1.95912E+01 6.06030E-01-2.13875E-03-4.47691E-01 3.44152E-14-6.27407E-14
 -1      4239 1.63676E+01 7.24603E-01 1.06568E-02-1.68896E+00-2.88416E-13-2.82886E-13
 -1      4240 1.70990E+01 5.53495E-01 1.45557E-02-1.73174E+00-2.54047E-13-3.11968E-13
 -1      4241 1.72616E+01 6.85964E-01-1.35517E-02-1.44201E+00-1.18125E-13-3.22390E-13
 -1      4242 1.62074E+01 9.68036E-01-2.24403E-02-1.14485E+00-2.34153E-13-2.18141E-14
 -1      4243 1.81546E+01 1.15871E+00-4.39117E-03 1.70908E-01 4.15062E-14-8.30421E-14
 -1      4244 1.78723E+01 1.20811E+00-8.24928E-03 1.63438E-01 1.18973E-13-5.20021E-14
 -1      4245 1.82593E+01 1.12664E+00 8.28423E-03-2.59311E-02-2.48042E-14-1.55370E-13
 -1      4246 2.00493E+01 4.84749E-01 2.22663E-03 1.13714E-01 6.31256E-14-9.33509E-14
 -1      4247 1.96750E+01 4.60772E-01-1.11699E-03 1.32027E-01 3.74804E-13-3.64639E-13
 -1      4248 1.96355E+01 4.98024E-01-7.30646E-04 1.48171E-01 3.69787E-13-1.03090E-13
 -1      4249 1.95802E+01 5.39435E-01 1.91318E-03 9.60379E-02 3.70830E-13-2.70261E-13
 -1      4250 1.96651E+01 4.67147E-01 4.36911E-04 9.44199E-02 4.31159E-13-2.84942E-13
 -1      4251 1.96314E+01 4.78007E-01-4.16400E-04-5.19672E-02 2.24642E-13 1.17447E-13
 -1      4252 2.03016E+01 7.99600E-01-4.56059E-04-1.53238E-02 5.70427E-14-1.42850E-13
 -1      4253 1.65583E+01 1.23558E+00-1.64013E-03 7.10220E-02 3.26969E-14 1.32769E-13
 -1      4254 1.99491E+01 4.85028E-01-1.50234E-03-1.99448E-01-1.75011E-14-1.00158E-13
 -1      4255 2.00290E+01 4.75639E-01-5.17985E-04-1.76350E-01 2.22256E-15-6.63960E-14
 -1      4256 1.98995E+01 5.16233E-01 2.48248E-03-1.23464E-01 2.17732E-14-1.60470E-13
 -1      4257 1.61710E+01 1.24216E+00 2.40424E-02-6.57784E-01-1.78602E-13 1.47881E-13
 -1      4258 1.77197E+01 1.21647E+00 1.13135E-02-1.43701E-01 9.59104E-14-2.59081E-13
 -1      4259 1.68514E+01 1.17487E+00 1.91961E-02 4.17006E-01-3.40846E-14-4.27197E-14
 -1      4260 2.01632E+01 5.00745E-01-1.50181E-04-1.36646E-01 5.53408E-15-7.11965E-14
 -1      4261 2.01907E+01 5.47995E-01 1.53901E-03-8.36617E-02 1.28427E-14-1.19519E-13
 -1      4262 2.01005E+01 4.79365E-01-1.46128E-03-1.65234E-01-8.19933E-15-5.59035E-14
 -1      4263 2.02972E+01 7.12427E-01-1.26177E-03 4.25225E-02 9.73766E-15-1.11648E-13
 -1      4264 2.02773E+01 6.40452E-01-8.37868E-04 7.07594E-02 2.66992E-14-1.15385E-13
 -1      4265 2.02589E+01 6.25534E-01 1.98376E-04 4.81570E-02 3.64957E-14-7.89742E-14
 -1      4266 2.03003E+01 7.84007E-01 8.76623E-04 2.16264E-02 2.81640E-14-9.95846E-14
 -1      4267 2.02943E+01 7.24338E-01 2.32511E-03-1.94946E-02 5.65989E-14-1.27147E-13
 -1      4268 2.02975E+01 7.96279E-01-1.09275E-03-4.12009E-03 6.72345E-14-9.02798E-14
 -1      4269 2.02990E+01 7.93602E-01-1.56833E-03 7.84220E-03 5.48120E-14-1.04812E-13
 -1      4270 2.02639E+01 6.48950E-01-1.50594E-03-3.33068E-02 3.88545E-14-1.15907E-13
 -1      4271 1.83348E+01 9.04858E-01-1.03858E-02 3.99972E-01 1.74469E-14-4.18323E-14
 -1      4272 1.85988E+01 8.72551E-01-1.91343E-03 3.26048E-01 3.43752E-14-5.98564E-14
 -1      4273 1.78122E+01 9.41559E-01-8.85238E-03 6.34532E-01-3.30510E-14-4.10869E-15
 -1      4274 1.94734E+01 6.15292E-01-4.89296E-03 1.48949E-01-8.81863E-15-1.01468E-13
 -1      4275 1.93490E+01 6.59517E-01-2.53541E-03 1.94673E-01-2.30514E-14-1.28263E-13
 -1      4276 1.91316E+01 7.43377E-01-3.09301E-03 1.41858E-01-1.56288E-15-1.26960E-13
 -1      4277 1.89787E+01 7.87878E-01-1.71139E-03 1.97989E-01 1.55613E-14-1.26648E-13
 -1      4278 1.87658E+01 8.35006E-01-7.74602E-03 2.44801E-01 3.70890E-14-9.29279E-14
 -1      4279 1.81471E+01 9.22356E-01-1.11027E-03 5.18297E-01-5.51745E-15 1.31834E-14
 -1      4280 1.66514E+01 1.06874E+00 5.47975E-03-8.95315E-01-2.81628E-13 1.73854E-14
 -1      4281 1.76170E+01 7.94017E-01 7.42657E-03-1.20135E+00-2.25168E-14-3.87139E-13
 -1      4282 1.77881E+01 8.52921E-01-1.05421E-02-9.94426E-01 6.06194E-14-2.92377E-13
 -1      4283 1.71583E+01 9.29512E-01 9.57720E-03-1.13217E+00-9.48815E-14-2.65108E-13
 -1      4284 1.80709E+01 8.98662E-01 4.28935E-03-8.29804E-01 9.63256E-14-3.07421E-13
 -1      4285 1.82299E+01 9.10937E-01-7.70306E-03-6.84119E-01-9.13148E-15-1.79724E-13
 -1      4286 1.77568E+01 1.01062E+00 8.09845E-03-7.51812E-01 1.24690E-13-2.18270E-13
 -1      4287 1.84561E+01 9.15384E-01 2.56363E-03-5.70689E-01-1.35132E-13-1.88556E-13
 -1      4288 1.85975E+01 8.97154E-01-5.66434E-03-4.68103E-01-1.84722E-13-1.83118E-13
 -1      4289 1.82350E+01 1.00848E+00 6.33063E-03-4.92083E-01-6.88180E-14-2.51669E-13
 -1      4290 1.87794E+01 8.74893E-01 1.46656E-03-3.90440E-01-1.91884E-13-1.61168E-13
 -1      4291 1.89018E+01 8.37910E-01-4.21836E-03-3.18249E-01-6.64926E-14-1.37247E-13
 -1      4292 1.86211E+01 9.53534E-01 5.03786E-03-3.15977E-01-1.76799E-13-1.34826E-13
 -1      4293 1.90481E+01 7.99720E-01 7.59799E-04-2.65650E-01-2.34313E-14-2.25801E-13
 -1      4294 1.91518E+01 7.52626E-01-3.18018E-03-2.14909E-01-5.44471E-15-1.56770E-13
 -1      4295 1.89334E+01 8.66761E-01 4.07672E-03-1.98031E-01-1.09329E-13 7.42636E-14
 -1      4296 1.92688E+01 7.06462E-01 3.09519E-04-1.79797E-01 1.46712E-13-1.28468E-13
 -1      4297 1.93552E+01 6.55523E-01-2.35830E-03-1.44138E-01 2.54298E-13 2.43026E-14
 -1      4298 1.91852E+01 7.63657E-01 3.32057E-03-1.20435E-01 8.18261E-14 7.13253E-14
 -1      4299 1.94479E+01 6.06826E-01-9.47847E-06-1.20674E-01 2.75217E-13 1.16929E-14
 -1      4300 1.95173E+01 5.58764E-01-1.22636E-03-9.65388E-02 2.97806E-13 8.08716E-14
 -1      4301 1.93857E+01 6.55493E-01 2.40591E-03-7.05823E-02 3.19981E-13-1.11930E-13
 -1      4302 1.94951E+01 5.86549E-01-5.00913E-04 2.27098E-02 2.62860E-13-1.83108E-13
 -1      4303 1.94070E+01 6.41976E-01-1.88713E-03 1.98476E-02 2.26444E-13-7.37776E-14
 -1      4304 1.93170E+01 6.99471E-01-6.17436E-04 5.97916E-03 1.79613E-13 6.81702E-14
 -1      4305 1.92024E+01 7.56748E-01-3.01759E-03-2.78004E-03 1.14101E-13 1.68943E-13
 -1      4306 1.98801E+01 5.03217E-01-2.32988E-03 8.22698E-03 4.39011E-14-1.11130E-13
 -1      4307 1.97904E+01 5.27443E-01 1.38555E-04 2.65809E-02 2.55585E-14-1.15973E-13
 -1      4308 1.90902E+01 8.16317E-01-7.12494E-04-2.72711E-02-7.00704E-14 1.94041E-13
 -1      4309 1.89431E+01 8.72631E-01-4.03338E-03-4.65572E-02-1.28126E-16 1.61890E-13
 -1      4310 1.96918E+01 5.50188E-01-3.24893E-03 6.61184E-02 1.55240E-14-8.95352E-14
 -1      4311 1.95892E+01 5.89285E-01 4.86672E-04 9.32068E-02 2.01569E-15-1.09081E-13
 -1      4312 1.95050E+01 6.42594E-01 4.09469E-03-3.09051E-03-2.02000E-14-8.65204E-14
 -1      4313 1.97101E+01 5.72544E-01 3.32621E-03-9.31768E-02-8.57975E-15-1.57660E-13
 -1      4314 2.01793E+01 5.34765E-01-1.81675E-03-1.11060E-02 2.16810E-14-8.58437E-14
 -1      4315 2.01232E+01 5.02840E-01-2.63361E-04 1.00024E-03 2.48882E-14-8.29793E-14
 -1      4316 1.74034E+01 1.11874E+00 4.27079E-04-5.58558E-01 1.37128E-13-2.00207E-13
 -1      4317 1.69790E+01 1.09957E+00-1.33706E-02-6.95177E-01-8.59410E-14-5.68467E-14
 -1      4318 2.00486E+01 4.88995E-01-2.21413E-03-5.70866E-03 4.74080E-14-9.25136E-14
 -1      4319 1.99743E+01 4.89154E-01-4.34642E-04 8.97423E-03 5.59804E-14-8.55142E-14
 -1      4320 1.96169E+01 6.10903E-01 3.93768E-03-3.42489E-01 3.55966E-14-4.81098E-14
 -1      4321 1.79857E+01 1.09774E+00-3.08227E-04-3.31891E-01 1.36165E-15-1.60271E-13
 -1      4322 1.76669E+01 1.11232E+00-1.01614E-02-4.22008E-01 1.24568E-13-2.16916E-13
 -1      4323 1.96601E+01 5.79198E-01-7.68875E-04-1.92198E-01 1.92348E-14-1.18389E-13
 -1      4324 2.02336E+01 5.86044E-01 8.10216E-04-2.24912E-03 2.06012E-14-8.97666E-14
 -1      4325 1.91926E+01 7.64471E-01 6.08719E-03-6.88667E-03 3.00817E-15-7.02098E-14
 -1      4326 2.02594E+01 6.40665E-01-8.29484E-05 2.39468E-02 3.86049E-14-8.51345E-14
 -1      4327 1.84425E+01 1.02833E+00-5.12974E-04-1.81932E-01-2.08802E-13-6.63884E-14
 -1      4328 1.81985E+01 1.06535E+00-7.35776E-03-2.39856E-01-1.20149E-13-1.99961E-13
 -1      4329 1.88038E+01 9.29598E-01-6.40737E-04-8.58850E-02-2.94104E-14 7.32662E-14
 -1      4330 1.92785E+01 7.30562E-01-2.16959E-03-1.57293E-01 1.31579E-15-3.13424E-14
 -1      4331 1.96593E+01 4.64630E-01-4.70514E-04 5.56618E-02 3.52133E-13-2.08253E-13
 -1      4332 1.95346E+01 6.26612E-01-3.49596E-03-2.03979E-01 2.03929E-14-9.51894E-14
 -1      4333 2.00652E+01 5.00774E-01 2.06927E-03-1.08488E-01 1.44264E-14-1.08829E-13
 -1      4334 1.94244E+01 6.70134E-01-1.47889E-03-1.54105E-01 4.75667E-15-5.20031E-14
 -1      4335 1.95561E+01 5.37360E-01-1.87657E-04-5.55335E-02 2.67147E-13-9.97923E-15
 -1      4336 1.96263E+01 4.91310E-01 1.04191E-03 2.53342E-02 2.83290E-13-1.40155E-13
 -1      4337 1.86148E+01 9.79804E-01-5.40191E-03-1.21004E-01-1.78223E-13-3.40181E-14
 -1      4338 1.95851E+01 5.25555E-01-4.03533E-04 6.34474E-02 4.31355E-13-3.46312E-13
 -1      4339 1.95096E+01 5.75347E-01 7.29469E-04-1.11824E-02 2.47636E-13 1.31046E-14
 -1      4340 1.95363E+01 5.59179E-01-1.21241E-03 6.24627E-02 3.33902E-13-2.30309E-13
 -1      4341 2.02907E+01 7.08345E-01 2.13857E-03 1.52223E-02 4.67853E-14-7.85037E-14
 -3
    1PSTEP                         3           1           1          
  100CL  101 1.000000000        4341                     0    1           1
 -4  TOSTRAIN    6    1
 -5  EXX         1    4    1    1
 -5  EYY         1    4    2    2
 -5  EZZ         1    4    3    3
 -5  EXY         1    4    1    2
 -5  EYZ         1    4    2    3
 -5  EZX         1    4    3    1
 -1         1 1.20927E-04 8.44263E-06-5.03037E-05-1.08116E-04-3.31635E-18 5.93008E-18
 -1         2 3.58063E-05-1.10781E-04 2.02318E-05-8.94531E-07 3.55836E-18 3.03185E-19
 -1         3 9.52323E-05-2.85760E-05-2.85548E-05-1.50526E-10-2.17882E-18-1.64965E-18
 -1         4 9.52321E-05-2.85763E-05-2.85552E-05 1.17677E-09 8.23752E-19 3.93136E-19
 -1         5 1.42931E-04-2.14118E-05-4.24177E-05 3.84388E-05-1.44101E-19 9.12720E-18
 -1         6 1.44993E-04 2.56842E-10-4.40750E-05-5.33872E-05-5.74712E-19 5.70392E-18
 -1         7 9.04553E-05-5.12227E-07-3.89979E-05-2.91776E-05-9.41265E-20-2.38387E-19
 -1         8 8.50663E-05 8.39898E-08-3.63106E-05-2.01984E-05-7.73447E-20-1.74968E-18
 -1         9 8.28217E-05 7.44154E-08-3.53512E-05-1.55591E-05-5.69233E-20-2.47174E-18
 -1        10 8.18267E-05 3.66557E-08-3.49017E-05-1.19903E-05-1.30959E-20-2.72592E-18
 -1        11 8.13295E-05 1.79526E-08-3.46847E-05-8.92827E-06 2.24993E-21-2.76523E-18
 -1        12 8.10730E-05 8.08818E-09-3.45774E-05-6.21345E-06 1.92121E-20-2.60824E-18
 -1        13 8.09379E-05 3.79687E-09-3.45233E-05-3.63928E-06 3.47077E-20-2.47080E-18
 -1        14 8.08815E-05 2.10409E-09-3.45014E-05-1.16875E-06 3.13545E-20-2.24425E-18
 -1        15 8.08845E-05 2.07022E-09-3.45025E-05 1.27019E-06 6.12382E-20-2.02667E-18
 -1        16 8.09471E-05 3.64981E-09-3.45266E-05 3.74637E-06 6.29700E-20-1.79958E-18
 -1        17 8.10888E-05 7.14979E-09-3.45826E-05 6.33380E-06 5.98234E-20-1.55403E-18
 -1        18 8.13509E-05 1.64823E-08-3.46916E-05 9.06986E-06 8.90278E-20-1.09547E-18
 -1        19 8.18516E-05 3.60348E-08-3.49109E-05 1.21700E-05 1.21569E-19-5.17162E-19
 -1        20 8.28456E-05 7.89474E-08-3.53640E-05 1.57900E-05 1.25943E-19 3.56518E-19
 -1        21 8.50304E-05 1.66657E-07-3.63477E-05 2.04125E-05 1.35181E-19 1.91904E-18
 -1        22 9.14804E-05-1.00491E-07-3.86683E-05 2.79299E-05 1.55642E-20 4.47259E-18
 -1        23 1.12659E-04-3.80210E-05-3.53031E-05-4.38710E-06-3.95511E-19 3.74854E-18
 -1        24 9.25729E-05-2.76284E-05-2.89275E-05 3.90270E-07-7.99288E-20 2.19666E-18
 -1        25 8.89441E-05-2.68005E-05-2.68762E-05 3.74119E-07-2.97322E-20 7.53370E-19
 -1        26 8.79080E-05-2.64575E-05-2.63599E-05 2.02061E-07-3.22145E-20-3.39554E-19
 -1        27 8.80278E-05-2.64643E-05-2.63809E-05 1.37851E-07-9.02591E-20-9.85311E-19
 -1        28 8.86985E-05-2.66423E-05-2.65925E-05 9.93553E-08-5.19978E-20-1.40560E-18
 -1        29 8.96538E-05-2.69158E-05-2.68863E-05 7.47268E-08 4.54019E-20-1.71058E-18
 -1        30 9.07659E-05-2.72424E-05-2.72239E-05 5.82336E-08-3.19367E-20-1.99144E-18
 -1        31 9.19769E-05-2.76020E-05-2.75902E-05 4.73314E-08 5.92396E-20-2.53748E-18
 -1        32 9.32704E-05-2.79879E-05-2.79811E-05 4.09044E-08-9.67179E-20-3.36984E-18
 -1        33 9.46548E-05-2.84020E-05-2.83993E-05 3.84757E-08 4.39634E-19-3.10212E-18
 -1        34 9.61511E-05-2.88499E-05-2.88510E-05 3.98018E-08-2.72840E-19-3.30781E-18
 -1        35 9.77810E-05-2.93375E-05-2.93421E-05 4.45791E-08 3.06605E-21-4.01912E-18
 -1        36 9.95527E-05-2.98671E-05-2.98740E-05 5.21184E-08 2.29865E-20-3.90597E-18
 -1        37 1.01442E-04-3.04310E-05-3.04383E-05 6.08945E-08-1.58209E-19-3.01416E-18
 -1        38 1.03373E-04-3.10058E-05-3.10099E-05 6.79347E-08-1.26993E-19-3.06939E-18
 -1        39 1.05186E-04-3.15447E-05-3.15397E-05 6.81321E-08-2.38510E-19-2.78338E-18
 -1        40 1.06625E-04-3.19709E-05-3.19489E-05 5.38468E-08-3.34944E-19-3.81077E-18
 -1        41 1.07324E-04-3.21768E-05-3.21298E-05 1.56355E-08 3.79058E-19-4.95097E-18
 -1        42 1.06856E-04-3.20356E-05-3.19602E-05-5.44995E-08-1.50525E-19-5.13977E-18
 -1        43 1.04835E-04-3.14332E-05-3.13381E-05-1.56142E-07-1.45563E-19-4.20860E-18
 -1        44 1.01115E-04-3.03259E-05-3.02376E-05-2.71126E-07 2.79173E-19-2.20786E-18
 -1        45 9.60210E-05-2.88087E-05-2.87689E-05-3.58433E-07-2.09358E-19-1.24605E-18
 -1        46 9.04852E-05-2.71584E-05-2.72047E-05-3.64826E-07-2.02209E-19-4.27961E-18
 -1        47 8.59135E-05-2.57940E-05-2.59322E-05-2.56165E-07-2.15525E-19-5.34368E-18
 -1        48 8.36975E-05-2.51321E-05-2.53209E-05-5.18408E-08 2.69141E-19-5.39551E-18
 -1        49 8.45765E-05-2.53948E-05-2.55631E-05 1.73034E-07-5.93585E-21-4.01067E-18
 -1        50 8.82554E-05-2.64933E-05-2.65825E-05 3.30363E-07-3.73186E-19-5.10629E-18
 -1        51 9.35616E-05-2.80761E-05-2.80712E-05 3.73499E-07-1.26070E-19-4.06919E-18
 -1        52 9.90224E-05-2.97032E-05-2.96310E-05 3.16008E-07-1.50726E-19-3.16326E-18
 -1        53 1.03460E-04-3.10246E-05-3.09283E-05 2.07287E-07 2.91053E-19-3.28119E-18
 -1        54 1.06289E-04-3.18673E-05-3.17813E-05 9.64692E-08-3.43834E-20-2.68721E-18
 -1        55 1.07479E-04-3.22232E-05-3.21637E-05 1.19295E-08-3.32318E-19-5.11698E-18
 -1        56 1.07342E-04-3.21850E-05-3.21532E-05-3.90860E-08 1.66181E-19-5.68809E-18
 -1        57 1.06313E-04-3.18816E-05-3.18709E-05-6.18278E-08 3.04143E-19-5.58494E-18
 -1        58 1.04803E-04-3.14341E-05-3.14362E-05-6.55999E-08 6.39873E-19-4.91602E-18
 -1        59 1.03127E-04-3.09361E-05-3.09442E-05-5.89331E-08-5.22506E-19-2.82100E-18
 -1        60 1.01495E-04-3.04502E-05-3.04600E-05-4.79115E-08-5.51003E-19-1.65744E-18
 -1        61 1.00029E-04-3.00125E-05-3.00215E-05-3.62024E-08 9.39443E-20-2.44751E-18
 -1        62 9.87809E-05-2.96394E-05-2.96467E-05-2.56804E-08 1.87962E-19-5.31832E-18
 -1        63 9.77636E-05-2.93346E-05-2.93399E-05-1.70836E-08-1.07939E-19-5.32498E-18
 -1        64 9.69629E-05-2.90942E-05-2.90978E-05-1.05114E-08-5.23417E-19-7.70195E-18
 -1        65 9.63526E-05-2.89107E-05-2.89129E-05-5.74457E-09-2.92632E-19-6.17802E-18
 -1        66 9.59025E-05-2.87750E-05-2.87763E-05-2.42336E-09-5.58146E-19-5.15996E-18
 -1        67 9.55838E-05-2.86787E-05-2.86795E-05-1.23461E-10 4.91042E-19-2.45627E-18
 -1        68 9.53719E-05-2.86144E-05-2.86154E-05 1.65717E-09-7.56668E-20-6.14192E-19
 -1        69 9.52483E-05-2.85766E-05-2.85780E-05 3.55979E-09-2.99572E-20-5.15469E-19
 -1        70 9.51994E-05-2.85610E-05-2.85626E-05 6.60792E-09-1.52842E-19 1.52056E-18
 -1        71 9.52120E-05-2.85643E-05-2.85610E-05 9.59383E-09-4.50500E-19 5.58147E-19
 -1        72 1.01879E-04-3.04954E-05-3.40567E-05-1.92308E-06 9.84940E-20 8.93673E-18
 -1        73 9.23186E-05-2.74414E-05-2.88327E-05-3.31531E-07 3.58533E-20 7.54522E-18
 -1        74 8.89160E-05-2.66453E-05-2.69148E-05-1.23207E-07-4.09785E-21 6.69413E-18
 -1        75 8.79166E-05-2.64016E-05-2.63976E-05-9.15856E-08-1.76843E-20 6.41527E-18
 -1        76 8.80352E-05-2.64356E-05-2.63996E-05-7.12918E-08 7.02330E-20 5.87891E-18
 -1        77 8.86995E-05-2.66263E-05-2.66001E-05-5.58844E-08-1.77513E-21 5.24318E-18
 -1        78 8.96493E-05-2.69056E-05-2.68886E-05-4.36955E-08-6.03505E-20 5.08495E-18
 -1        79 9.07631E-05-2.72370E-05-2.72253E-05-3.33924E-08 9.00695E-20 4.76986E-18
 -1        80 9.19934E-05-2.76049E-05-2.75972E-05-2.44396E-08-1.22390E-19 4.48690E-18
 -1        81 9.33412E-05-2.80089E-05-2.80054E-05-1.68135E-08 1.86531E-19 4.09658E-18
 -1        82 9.48446E-05-2.84600E-05-2.84616E-05-1.08294E-08 7.35174E-20 3.46122E-18
 -1        83 9.65728E-05-2.89786E-05-2.89869E-05-7.16925E-09-7.12862E-20 2.69249E-18
 -1        84 9.86234E-05-2.95935E-05-2.96107E-05-7.06013E-09 1.59581E-19 3.97229E-18
 -1        85 1.01119E-04-3.03409E-05-3.03700E-05-1.25905E-08-4.70405E-20 3.38449E-18
 -1        86 1.04198E-04-3.12617E-05-3.13059E-05-2.71293E-08 1.14215E-19 2.69234E-18
 -1        87 1.07997E-04-3.23954E-05-3.24571E-05-5.56626E-08-3.74463E-19 3.74443E-18
 -1        88 1.12603E-04-3.37674E-05-3.38436E-05-1.04421E-07 1.13208E-20 4.25844E-18
 -1        89 1.17963E-04-3.53624E-05-3.54364E-05-1.78130E-07 2.78361E-19 3.64147E-18
 -1        90 1.23720E-04-3.70782E-05-3.71051E-05-2.71415E-07-8.95483E-20 3.36874E-18
 -1        91 1.28973E-04-3.86581E-05-3.85522E-05-3.49972E-07 2.18679E-19 3.16081E-18
 -1        92 1.32057E-04-3.96216E-05-3.92740E-05-3.25489E-07-1.13430E-19 4.43357E-18
 -1        93 1.30641E-04-3.92786E-05-3.86494E-05-5.83686E-08-2.59017E-19 5.89710E-18
 -1        94 1.22707E-04-3.69842E-05-3.62679E-05 5.32363E-07 3.19343E-19 4.38721E-18
 -1        95 1.08682E-04-3.27592E-05-3.24748E-05 1.23905E-06-1.75738E-19 4.19588E-18
 -1        96 9.34764E-05-2.80086E-05-2.86503E-05 1.47079E-06 2.77417E-19 7.01899E-18
 -1        97 8.51622E-05-2.52791E-05-2.66747E-05 7.77126E-07-4.20956E-19 8.25971E-18
 -1        98 8.90539E-05-2.64063E-05-2.76426E-05-4.47643E-07 3.27931E-19 7.22572E-18
 -1        99 1.02645E-04-3.06549E-05-3.10081E-05-1.25404E-06 5.22079E-20 2.22801E-18
 -1       100 1.18048E-04-3.54572E-05-3.50287E-05-1.24636E-06 2.36223E-19 6.47663E-19
 -1       101 1.28664E-04-3.87159E-05-3.80263E-05-7.59869E-07 1.77730E-19-4.03929E-19
 -1       102 1.32461E-04-3.98376E-05-3.92881E-05-2.52903E-07-1.89644E-19 4.75927E-19
 -1       103 1.30842E-04-3.93062E-05-3.90146E-05 6.39055E-08-2.93049E-19 3.19292E-19
 -1       104 1.26231E-04-3.78870E-05-3.77987E-05 1.96802E-07-4.01203E-20 2.35266E-18
 -1       105 1.20605E-04-3.61813E-05-3.62040E-05 2.19411E-07 4.20266E-19 1.01520E-18
 -1       106 1.15144E-04-3.45377E-05-3.46027E-05 1.93117E-07-8.68896E-19 1.34816E-18
 -1       107 1.10391E-04-3.31121E-05-3.31826E-05 1.52902E-07-2.10135E-20-6.47173E-19
 -1       108 1.06501E-04-3.19470E-05-3.20082E-05 1.14343E-07 9.31212E-19-1.56656E-18
 -1       109 1.03436E-04-3.10295E-05-3.10778E-05 8.26082E-08 2.96674E-19-5.95917E-19
 -1       110 1.01084E-04-3.03252E-05-3.03615E-05 5.82956E-08-2.79031E-19 1.10113E-18
 -1       111 9.93130E-05-2.97947E-05-2.98212E-05 4.03742E-08 7.81962E-19 1.60882E-19
 -1       112 9.80012E-05-2.94015E-05-2.94206E-05 2.74679E-08-4.30785E-19-9.44084E-19
 -1       113 9.70444E-05-2.91146E-05-2.91282E-05 1.83282E-08 2.96514E-19 1.42656E-18
 -1       114 9.63585E-05-2.89088E-05-2.89184E-05 1.19564E-08-4.85357E-19-7.57488E-19
 -1       115 9.58774E-05-2.87644E-05-2.87711E-05 7.58199E-09-3.30180E-20 5.22805E-19
 -1       116 9.55510E-05-2.86663E-05-2.86713E-05 4.57385E-09 3.27300E-19-1.78994E-18
 -1       117 9.53430E-05-2.86035E-05-2.86078E-05 2.34533E-09 3.81817E-19-3.12710E-18
 -1       118 9.52282E-05-2.85687E-05-2.85728E-05 2.11657E-10-1.39838E-19-1.85463E-18
 -1       119 9.51900E-05-2.85567E-05-2.85601E-05-3.44554E-09-6.42739E-20-2.47335E-18
 -1       120 9.52102E-05-2.85625E-05-2.85606E-05-9.32386E-09 1.34748E-18-2.60069E-18
 -1       121 9.52446E-05-2.85972E-05-2.85614E-05-1.18234E-08-2.51149E-18 4.72264E-19
 -1       122 9.52492E-05-2.86119E-05-2.85628E-05-4.88402E-09 2.26104E-18-5.38712E-19
 -1       123 9.52347E-05-2.85633E-05-2.85777E-05 8.47400E-10 4.48402E-18 4.71216E-19
 -1       124 9.52038E-05-2.84600E-05-2.86070E-05 4.43345E-09 1.20176E-18 6.26339E-19
 -1       125 9.51641E-05-2.83265E-05-2.86449E-05 5.82815E-09-3.09169E-18-1.96010E-18
 -1       126 9.51251E-05-2.81948E-05-2.86827E-05 5.52686E-09-6.28139E-18 7.63140E-19
 -1       127 9.50933E-05-2.80876E-05-2.87136E-05 3.89879E-09 1.53900E-18 1.12847E-18
 -1       128 9.50756E-05-2.80282E-05-2.87308E-05 1.47013E-09-2.79620E-18-9.00153E-20
 -1       129 9.50753E-05-2.80272E-05-2.87311E-05-1.20807E-09-2.87734E-18 1.55659E-18
 -1       130 9.50923E-05-2.80843E-05-2.87146E-05-3.59487E-09 3.93851E-18 6.92190E-20
 -1       131 9.51231E-05-2.81885E-05-2.86846E-05-5.23070E-09-2.25777E-18-1.29526E-19
 -1       132 9.51613E-05-2.83171E-05-2.86477E-05-5.55294E-09-1.23172E-17 7.63688E-19
 -1       133 9.52003E-05-2.84483E-05-2.86102E-05-4.31596E-09-5.46903E-18 8.29171E-19
 -1       134 9.52312E-05-2.85522E-05-2.85808E-05-1.51898E-09-1.61053E-18 4.20745E-19
 -1       135 9.52472E-05-2.86038E-05-2.85649E-05 5.79252E-09-6.60137E-19-1.40418E-19
 -1       136 9.52419E-05-2.85943E-05-2.85616E-05 1.64796E-08-1.68202E-18-4.82744E-19
 -1       137 2.56336E-05-8.88388E-05 1.59392E-05-2.47969E-05 5.62853E-18 1.48506E-18
 -1       138 7.55766E-06-3.47775E-05 3.22991E-06-1.97987E-05 5.21349E-18 1.99286E-18
 -1       139 1.17578E-05 1.32631E-05-1.49317E-05 2.21286E-05 5.13175E-18 4.95684E-18
 -1       140 6.83574E-05 2.40146E-05-3.81114E-05 8.34825E-05 5.87206E-18 7.47125E-18
 -1       141 1.66946E-04-1.26881E-05-5.89428E-05 1.15318E-04 4.10959E-18 7.76772E-18
 -1       142 2.72966E-04-7.03479E-05-7.48866E-05 8.46793E-05 9.87217E-19 2.09641E-18
 -1       143 3.19769E-04-9.81219E-05-8.11393E-05 6.36969E-06-5.30957E-19-2.16995E-18
 -1       144 2.87478E-04-7.90008E-05-7.67306E-05-7.40686E-05 2.04934E-18-4.88124E-18
 -1       145 1.89669E-04-2.38738E-05-6.27075E-05-1.15277E-04 5.10316E-18-1.06544E-17
 -1       146 8.10800E-05 2.12686E-05-4.14605E-05-9.15318E-05 8.08620E-18-1.10728E-17
 -1       147 1.92750E-05 1.95800E-05-1.97319E-05-3.52525E-05 7.96084E-18-6.84657E-18
 -1       148 6.17609E-06-2.30344E-05-3.45446E-07 1.21243E-05 4.44184E-18-3.00803E-18
 -1       149 2.17784E-05-8.03925E-05 1.43622E-05 2.76668E-05 6.49463E-19 1.10961E-19
 -1       150 3.63943E-05-1.11331E-04 2.01562E-05 8.02800E-06-3.62554E-18 1.34016E-19
 -1       151 3.01342E-05-9.72256E-05 1.75072E-05-1.91152E-05-6.73010E-18-1.66828E-18
 -1       152 1.13658E-05-4.59306E-05 6.19705E-06-2.10656E-05-1.05439E-17-3.96856E-18
 -1       153 6.56411E-06 7.45587E-06-1.06205E-05 1.19255E-05-9.43552E-18-6.49081E-18
 -1       154 4.73184E-05 2.83670E-05-3.18330E-05 6.93818E-05-6.66361E-18-6.32395E-18
 -1       155 1.34032E-04 2.67344E-06-5.28741E-05 1.10620E-04-2.51272E-18-4.32072E-18
 -1       156 2.33904E-04-5.00388E-05-6.88616E-05 1.00021E-04-4.81750E-19-1.45901E-18
 -1       157 3.02968E-04-9.20614E-05-7.81225E-05 2.86157E-05 3.26584E-19 2.60579E-18
 -1       158 2.90924E-04-8.49323E-05-7.65431E-05-5.49019E-05-3.06414E-19 3.74304E-18
 -1       159 2.18189E-04-4.07907E-05-6.67798E-05-1.07020E-04-2.64751E-18 4.41770E-18
 -1       160 4.64647E-05 2.88687E-05-3.17175E-05-6.94874E-05-6.79405E-18 5.60905E-18
 -1       161 9.46105E-06 1.14193E-05-1.28901E-05-1.83881E-05-7.70758E-18 6.34004E-18
 -1       162 8.62241E-06-3.60664E-05 3.88746E-06 1.84630E-05-4.01705E-18 2.27682E-18
 -1       163 2.60887E-05-8.69840E-05 1.54490E-05 2.18418E-05-3.08384E-18 1.19943E-18
 -1       164 9.47719E-05-1.23463E-05-3.55273E-05-2.22527E-05-1.03822E-18-9.00396E-19
 -1       165 8.92310E-05-8.45880E-06-3.47784E-05-1.72824E-05-7.70952E-19-1.76274E-18
 -1       166 8.65904E-05-6.51094E-06-3.44300E-05-1.34847E-05-4.39292E-19-2.16561E-18
 -1       167 8.52480E-05-5.50010E-06-3.42602E-05-1.02605E-05-2.20745E-19-2.32133E-18
 -1       168 8.45097E-05-4.91268E-06-3.41815E-05-7.45344E-06-8.15269E-21-2.22152E-18
 -1       169 8.40806E-05-4.55150E-06-3.41449E-05-4.83432E-06 1.94114E-19-2.13726E-18
 -1       170 8.38588E-05-4.35617E-06-3.41299E-05-2.35901E-06 4.11580E-19-1.93185E-18
 -1       171 8.37936E-05-4.29675E-06-3.41264E-05 4.94417E-08 6.22092E-19-1.78098E-18
 -1       172 8.38712E-05-4.36533E-06-3.41314E-05 2.46019E-06 8.06396E-19-1.58901E-18
 -1       173 8.41070E-05-4.57215E-06-3.41476E-05 4.94263E-06 9.70741E-19-1.37980E-18
 -1       174 8.45432E-05-4.94160E-06-3.41840E-05 7.52880E-06 1.02734E-18-1.03541E-18
 -1       175 8.53133E-05-5.56202E-06-3.42635E-05 1.04057E-05 1.21426E-18-5.63515E-19
 -1       176 8.66855E-05-6.61087E-06-3.44333E-05 1.36753E-05 1.36855E-18 5.61424E-20
 -1       177 8.93790E-05-8.60778E-06-3.47824E-05 1.75218E-05 1.26706E-18 1.11345E-18
 -1       178 9.56740E-05-1.36066E-05-3.53824E-05 2.18033E-05 1.06811E-18 2.80892E-18
 -1       179 1.05395E-04-2.60487E-05-3.51930E-05 1.85957E-05 6.58363E-19 4.76959E-18
 -1       180 1.03234E-04-2.72592E-05-3.25580E-05-1.20622E-05-9.54394E-19 4.12055E-19
 -1       181 9.69943E-05-2.82540E-05-2.94948E-05-4.66758E-06-7.43020E-19 3.25049E-20
 -1       182 9.34572E-05-2.76168E-05-2.81688E-05-1.69196E-06-5.89704E-19-1.46596E-19
 -1       183 9.20052E-05-2.74063E-05-2.76493E-05-3.14519E-07-4.91691E-19-6.03551E-19
 -1       184 9.15453E-05-2.73611E-05-2.74885E-05 3.96808E-07-2.06415E-19-7.43978E-19
 -1       185 9.16659E-05-2.74430E-05-2.75145E-05 7.90127E-07-1.53988E-19-7.28002E-19
 -1       186 9.21347E-05-2.76065E-05-2.76496E-05 1.01997E-06-1.84620E-19-8.62121E-19
 -1       187 9.28249E-05-2.78230E-05-2.78546E-05 1.16912E-06-2.05407E-19-8.01785E-19
 -1       188 9.36704E-05-2.80775E-05-2.81088E-05 1.28638E-06-3.31948E-19-6.14166E-19
 -1       189 9.46408E-05-2.83644E-05-2.84021E-05 1.40109E-06-3.80884E-20-6.74657E-19
 -1       190 9.57267E-05-2.86841E-05-2.87309E-05 1.52848E-06-5.51337E-19-1.70044E-18
 -1       191 9.69282E-05-2.90397E-05-2.90937E-05 1.67068E-06-4.86705E-19-1.99770E-18
 -1       192 9.82436E-05-2.94352E-05-2.94886E-05 1.81515E-06 2.03406E-19-1.90022E-18
 -1       193 9.96582E-05-2.98714E-05-2.99090E-05 1.93159E-06 1.77785E-19-1.89536E-18
 -1       194 1.01131E-04-3.03426E-05-3.03400E-05 1.96816E-06 1.03579E-19-1.15027E-18
 -1       195 1.02581E-04-3.08312E-05-3.07541E-05 1.84956E-06-8.65434E-20-1.10699E-18
 -1       196 1.03872E-04-3.13014E-05-3.11086E-05 1.48125E-06-6.82181E-19-1.44129E-18
 -1       197 1.04810E-04-3.16921E-05-3.13455E-05 7.66892E-07-3.83589E-19-1.66942E-18
 -1       198 1.05151E-04-3.19124E-05-3.13980E-05-3.52102E-07-1.03669E-19-1.81033E-18
 -1       199 1.04640E-04-3.18461E-05-3.12066E-05-1.83116E-06 6.44633E-19-1.82014E-18
 -1       200 1.03101E-04-3.13780E-05-3.07442E-05-3.44617E-06 1.10049E-18-9.71610E-19
 -1       201 1.00561E-04-3.04541E-05-3.00458E-05-4.75692E-06 1.28859E-19-8.25033E-19
 -1       202 9.73751E-05-2.91681E-05-2.92262E-05-5.19092E-06-9.47906E-19-5.34405E-19
 -1       203 9.42660E-05-2.78201E-05-2.84673E-05-4.29850E-06-4.75387E-19-9.21380E-20
 -1       204 9.21427E-05-2.68574E-05-2.79681E-05-2.08617E-06-5.78775E-19-1.47222E-19
 -1       205 9.17236E-05-2.66630E-05-2.78715E-05 8.29763E-07 3.61064E-19-1.03255E-18
 -1       206 9.31612E-05-2.73205E-05-2.82069E-05 3.46485E-06-7.10548E-20-1.81419E-18
 -1       207 9.59559E-05-2.85576E-05-2.88775E-05 4.98602E-06 6.30800E-19-7.94365E-19
 -1       208 9.92325E-05-2.99245E-05-2.97009E-05 5.11462E-06 5.89987E-19 3.46407E-19
 -1       209 1.02153E-04-3.10395E-05-3.04804E-05 4.13519E-06-6.33285E-19-9.08708E-19
 -1       210 1.04196E-04-3.17204E-05-3.10684E-05 2.60662E-06-7.40272E-19-1.91015E-18
 -1       211 1.05203E-04-3.19675E-05-3.13965E-05 1.04889E-06-1.42429E-18-2.53538E-18
 -1       212 1.05285E-04-3.18794E-05-3.14687E-05-2.16308E-07-7.70684E-20-2.19166E-18
 -1       213 1.04677E-04-3.15783E-05-3.13353E-05-1.07224E-06 2.65441E-19-2.65603E-18
 -1       214 1.03641E-04-3.11696E-05-3.10639E-05-1.53997E-06 6.35549E-19-3.11692E-18
 -1       215 1.02402E-04-3.07290E-05-3.07192E-05-1.70466E-06 6.80223E-19-3.13411E-18
 -1       216 1.01127E-04-3.03047E-05-3.03530E-05-1.66449E-06-1.58313E-19-3.36127E-18
 -1       217 9.99269E-05-2.99231E-05-3.00007E-05-1.50464E-06-3.61417E-19-2.05596E-18
 -1       218 9.88614E-05-2.95962E-05-2.96833E-05-1.28863E-06-1.51127E-18-3.03457E-18
 -1       219 9.79569E-05-2.93262E-05-2.94110E-05-1.05885E-06-4.62103E-19-3.38467E-18
 -1       220 9.72160E-05-2.91099E-05-2.91861E-05-8.40597E-07-9.37056E-19-3.28115E-18
 -1       221 9.66278E-05-2.89414E-05-2.90064E-05-6.46847E-07 4.17154E-19-2.91613E-18
 -1       222 9.61742E-05-2.88134E-05-2.88671E-05-4.82275E-07 6.54475E-19-9.75967E-19
 -1       223 9.58348E-05-2.87189E-05-2.87624E-05-3.46322E-07 1.76056E-18-1.51726E-19
 -1       224 9.55901E-05-2.86513E-05-2.86868E-05-2.35366E-07 1.56444E-18 7.47053E-19
 -1       225 9.54225E-05-2.86052E-05-2.86350E-05-1.44286E-07 5.06139E-19-8.25924E-21
 -1       226 9.53168E-05-2.85766E-05-2.86022E-05-6.86017E-08 5.18272E-19-9.29762E-20
 -1       227 9.52576E-05-2.85631E-05-2.85828E-05-8.09461E-09-1.06357E-19 5.93771E-21
 -1       228 9.93346E-05-2.85064E-05-3.05358E-05 7.16084E-06 6.61149E-19 4.27334E-18
 -1       229 9.43047E-05-2.77558E-05-2.84912E-05 2.69196E-06 4.18785E-19 3.74884E-18
 -1       230 9.20529E-05-2.73836E-05-2.76700E-05 8.62102E-07 3.31713E-19 3.15213E-18
 -1       231 9.11986E-05-2.72459E-05-2.73808E-05-3.02372E-08 3.58821E-19 2.69830E-18
 -1       232 9.11224E-05-2.72754E-05-2.73488E-05-5.05504E-07 1.91545E-19 2.70649E-18
 -1       233 9.15008E-05-2.74146E-05-2.74579E-05-7.75057E-07 4.85092E-20 2.40646E-18
 -1       234 9.21617E-05-2.76241E-05-2.76542E-05-9.44202E-07 1.77113E-19 2.19055E-18
 -1       235 9.30198E-05-2.78832E-05-2.79123E-05-1.07466E-06 2.74314E-19 2.15882E-18
 -1       236 9.40438E-05-2.81846E-05-2.82226E-05-1.20840E-06 2.60192E-19 1.92376E-18
 -1       237 9.52406E-05-2.85316E-05-2.85869E-05-1.37758E-06 3.84394E-19 1.75958E-18
 -1       238 9.66455E-05-2.89354E-05-2.90160E-05-1.60909E-06 1.87768E-19 1.30968E-18
 -1       239 9.83165E-05-2.94139E-05-2.95272E-05-1.92614E-06-2.69382E-19 1.24169E-18
 -1       240 1.00329E-04-2.99906E-05-3.01427E-05-2.34705E-06 1.16972E-19 1.42194E-18
 -1       241 1.02765E-04-3.06933E-05-3.08868E-05-2.87992E-06 3.03912E-19 1.51535E-18
 -1       242 1.05702E-04-3.15515E-05-3.17796E-05-3.51013E-06-7.59376E-19 1.84823E-18
 -1       243 1.09178E-04-3.25916E-05-3.28266E-05-4.17596E-06 5.29834E-20 1.77512E-18
 -1       244 1.13141E-04-3.38266E-05-3.39999E-05-4.72746E-06 5.40530E-19 1.81026E-18
 -1       245 1.17373E-04-3.52361E-05-3.52110E-05-4.87012E-06 3.66483E-19 9.85629E-19
 -1       246 1.21373E-04-3.67261E-05-3.62810E-05-4.12142E-06-1.49845E-19 1.50449E-18
 -1       247 1.24269E-04-3.80522E-05-3.69362E-05-1.87422E-06-5.75585E-19 1.79343E-18
 -1       248 1.24844E-04-3.87152E-05-3.68730E-05 2.24149E-06-4.43190E-19 1.78074E-18
 -1       249 1.21927E-04-3.79593E-05-3.59404E-05 7.56389E-06 6.23608E-19 1.64060E-18
 -1       250 1.15382E-04-3.52024E-05-3.43660E-05 1.15907E-05-4.61600E-19 2.19573E-18
 -1       251 1.07397E-04-3.11230E-05-3.27977E-05 1.06654E-05-1.27583E-18 2.79195E-18
 -1       252 1.02417E-04-2.82206E-05-3.19872E-05 3.43716E-06-6.32098E-19 4.12771E-18
 -1       253 1.03989E-04-2.89498E-05-3.23092E-05-6.10700E-06 1.47998E-18 3.93964E-18
 -1       254 1.11033E-04-3.27052E-05-3.36020E-05-1.16234E-05 1.99974E-18 3.52683E-18
 -1       255 1.18952E-04-3.65565E-05-3.52686E-05-1.07761E-05 9.28848E-19 2.29834E-18
 -1       256 1.24062E-04-3.85984E-05-3.65782E-05-6.03322E-06 2.40544E-20 2.29520E-18
 -1       257 1.25319E-04-3.87209E-05-3.70934E-05-9.13003E-07-1.50494E-19 2.63479E-19
 -1       258 1.23541E-04-3.76965E-05-3.67965E-05 2.64402E-06-3.09630E-19 2.07255E-19
 -1       259 1.20046E-04-3.62410E-05-3.59320E-05 4.37953E-06-3.54723E-19-5.29323E-19
 -1       260 1.15921E-04-3.47585E-05-3.47978E-05 4.79254E-06 7.58501E-19-3.94989E-19
 -1       261 1.11863E-04-3.34269E-05-3.36235E-05 4.46618E-06-5.88032E-19-3.29046E-19
 -1       262 1.08234E-04-3.23031E-05-3.25441E-05 3.82434E-06 1.15640E-18-4.37005E-19
 -1       263 1.05169E-04-3.13887E-05-3.16191E-05 3.11295E-06 2.47999E-19-5.54688E-19
 -1       264 1.02679E-04-3.06628E-05-3.08613E-05 2.45164E-06-1.22564E-18 1.27713E-18
 -1       265 1.00709E-04-3.00973E-05-3.02590E-05 1.88631E-06 1.33064E-19 2.35508E-18
 -1       266 9.91839E-05-2.96635E-05-2.97912E-05 1.42526E-06 8.54499E-19 3.34088E-18
 -1       267 9.80222E-05-2.93355E-05-2.94342E-05 1.06001E-06 4.45056E-20 3.62817E-18
 -1       268 9.71514E-05-2.90909E-05-2.91663E-05 7.76133E-07 2.82529E-19 1.89880E-18
 -1       269 9.65093E-05-2.89115E-05-2.89684E-05 5.58345E-07 3.57167E-19 1.78982E-18
 -1       270 9.60445E-05-2.87821E-05-2.88251E-05 3.92506E-07-1.10659E-19 1.74422E-19
 -1       271 9.57165E-05-2.86911E-05-2.87239E-05 2.66194E-07 1.19463E-18 3.51238E-19
 -1       272 9.54940E-05-2.86295E-05-2.86553E-05 1.68782E-07 5.62373E-20 1.92374E-19
 -1       273 9.53529E-05-2.85904E-05-2.86120E-05 9.18206E-08-1.43493E-19-3.02863E-19
 -1       274 9.52745E-05-2.85691E-05-2.85875E-05 2.96325E-08 7.69131E-19-8.47196E-20
 -1       275 9.52427E-05-2.85677E-05-2.85738E-05-1.36340E-08 4.43595E-19 6.24270E-19
 -1       276 9.52469E-05-2.85541E-05-2.85821E-05 7.99214E-09 1.36154E-18 3.20913E-18
 -1       277 9.52346E-05-2.85036E-05-2.85989E-05 6.36945E-08 1.13928E-18-3.36715E-19
 -1       278 9.52040E-05-2.84199E-05-2.86217E-05 1.14421E-07 7.21061E-19-8.82186E-19
 -1       279 9.51644E-05-2.83151E-05-2.86497E-05 1.41251E-07 6.37941E-19-1.65034E-18
 -1       280 9.51240E-05-2.82079E-05-2.86785E-05 1.39358E-07-1.61396E-19-2.42865E-18
 -1       281 9.50887E-05-2.81133E-05-2.87041E-05 1.10367E-07-1.05287E-18 2.46041E-18
 -1       282 9.50651E-05-2.80496E-05-2.87214E-05 6.07988E-08-1.38192E-18-1.02546E-18
 -1       283 9.50570E-05-2.80275E-05-2.87275E-05 4.98078E-10 3.13318E-19 7.76722E-19
 -1       284 9.50656E-05-2.80504E-05-2.87213E-05-5.94034E-08 1.08796E-18 2.75269E-18
 -1       285 9.50892E-05-2.81141E-05-2.87039E-05-1.08112E-07-4.99224E-20-2.65352E-18
 -1       286 9.51233E-05-2.82059E-05-2.86790E-05-1.36306E-07 5.27661E-19-6.07541E-18
 -1       287 9.51634E-05-2.83134E-05-2.86501E-05-1.39040E-07-2.74900E-19 3.76871E-18
 -1       288 9.52022E-05-2.84170E-05-2.86222E-05-1.13949E-07-9.01125E-19 1.43638E-18
 -1       289 9.52318E-05-2.84983E-05-2.85997E-05-6.72611E-08-2.02922E-18 1.16507E-18
 -1       290 9.52533E-05-2.85347E-05-2.85933E-05-3.88618E-08-9.18106E-19-4.22146E-19
 -1       291 1.14049E-05-4.29394E-05 1.08940E-05 7.06078E-06-6.08276E-19 6.49674E-19
 -1       292 2.72062E-05-4.36898E-05 4.29898E-06 2.06465E-05 1.95453E-19-3.13614E-19
 -1       293 5.40212E-05-3.78577E-05-8.90261E-06 3.29066E-05 7.31836E-19 1.86125E-18
 -1       294 9.98342E-05-3.77531E-05-2.70341E-05 4.21581E-05 1.13418E-18 2.04326E-18
 -1       295 1.44426E-04-3.36282E-05-4.61953E-05 4.49690E-05 1.76384E-18 2.42823E-18
 -1       296 1.88727E-04-3.63503E-05-6.23444E-05 3.45808E-05 2.79277E-18 1.22841E-18
 -1       297 1.99342E-04-3.05433E-05-6.97682E-05 7.66174E-06 3.04582E-18-1.09797E-19
 -1       298 2.09235E-04-3.44170E-05-7.15655E-05-8.20128E-06 2.20080E-18-2.00096E-18
 -1       299 1.95749E-04-3.68542E-05-6.47908E-05-3.15472E-05 3.40322E-18-2.55719E-18
 -1       300 1.52929E-04-3.38032E-05-4.93978E-05-4.43954E-05 3.15732E-18-3.78348E-18
 -1       301 1.06618E-04-3.57458E-05-3.05513E-05-4.34026E-05 2.49176E-18-4.28048E-18
 -1       302 6.45840E-05-3.81880E-05-1.28393E-05-3.64758E-05 1.63075E-18-4.04236E-18
 -1       303 3.46524E-05-4.23348E-05 1.23827E-06-2.77382E-05 6.53909E-19-3.27841E-18
 -1       304 1.38700E-05-4.66789E-05 1.09227E-05-9.03882E-06-6.86203E-19-2.43300E-18
 -1       305 1.15806E-05-4.95717E-05 1.27981E-05 5.46740E-06-1.96432E-18-2.06655E-18
 -1       306 2.21983E-05-4.23824E-05 6.08668E-06 2.18537E-05-2.30435E-18-2.75275E-18
 -1       307 4.46152E-05-3.66042E-05-5.49296E-06 3.20907E-05-3.57617E-18-1.90349E-18
 -1       308 7.96822E-05-2.94029E-05-2.21606E-05 4.41923E-05-3.38877E-18-1.62397E-18
 -1       309 1.31529E-04-3.64544E-05-4.01460E-05 4.03705E-05-2.69102E-18-8.17175E-19
 -1       310 1.68323E-04-3.13519E-05-5.66380E-05 3.87916E-05-1.71948E-18-2.13241E-19
 -1       311 1.93251E-04-3.04944E-05-6.71266E-05 1.72265E-05-1.89598E-18 1.25181E-18
 -1       312 2.11852E-04-3.67033E-05-7.14163E-05-4.58937E-06-3.61789E-19 1.07383E-18
 -1       313 1.96498E-04-3.42077E-05-6.63471E-05-2.81413E-05-6.74874E-19 8.55927E-19
 -1       314 1.62925E-04-3.08823E-05-5.45975E-05-4.07625E-05-1.32571E-18 2.72321E-19
 -1       315 1.23883E-04-3.03023E-05-3.93603E-05-4.65808E-05-2.62834E-18 7.63812E-19
 -1       316 8.52479E-05-3.21761E-05-2.32242E-05-4.42156E-05-3.32482E-18 1.82366E-18
 -1       317 5.10171E-05-3.63868E-05-7.89258E-06-3.56537E-05-2.18365E-18 4.24321E-18
 -1       318 2.54415E-05-4.29405E-05 4.71023E-06-2.14895E-05-2.05638E-18 1.68522E-18
 -1       319 1.20398E-05-4.42096E-05 1.09948E-05-1.04829E-05 1.96300E-19 3.87348E-18
 -1       320 9.16491E-05-1.44348E-05-3.31694E-05-1.28466E-05-6.67210E-19-1.44988E-18
 -1       321 9.56698E-05-1.91030E-05-3.28764E-05-1.45209E-05-9.34393E-19-9.86284E-19
 -1       322 8.80424E-05-1.03108E-05-3.33685E-05-8.02033E-06-2.04225E-19-1.78282E-18
 -1       323 8.72179E-05-9.35821E-06-3.34165E-05-5.60940E-06 6.41011E-20-1.69013E-18
 -1       324 8.67450E-05-8.80288E-06-3.34483E-05-3.29665E-06 3.42651E-19-1.51962E-18
 -1       325 8.65323E-05-8.54930E-06-3.34642E-05-1.04959E-06 6.52594E-19-1.39302E-18
 -1       326 8.65424E-05-8.55947E-06-3.34643E-05 1.17614E-06 9.24514E-19-1.24832E-18
 -1       327 8.67766E-05-8.83522E-06-3.34481E-05 3.42585E-06 1.07066E-18-1.16055E-18
 -1       328 8.72634E-05-9.40514E-06-3.34161E-05 5.70367E-06 1.15650E-18-9.13664E-19
 -1       329 8.81146E-05-1.03891E-05-3.33660E-05 8.11910E-06 1.33571E-18-4.54711E-19
 -1       330 8.95279E-05-1.20032E-05-3.32913E-05 1.06205E-05 1.49898E-18-1.36783E-20
 -1       331 9.19217E-05-1.47131E-05-3.31702E-05 1.30337E-05 1.49362E-18 5.62423E-19
 -1       332 9.57600E-05-1.94470E-05-3.28129E-05 1.42646E-05 1.19787E-18 1.77069E-18
 -1       333 9.86905E-05-2.44188E-05-3.19183E-05 1.18127E-05 9.37149E-19 2.73708E-18
 -1       334 9.63327E-05-2.67883E-05-2.97750E-05 5.64504E-06 7.28726E-19 2.19769E-18
 -1       335 9.64223E-05-2.60074E-05-3.01330E-05-6.20995E-06-6.64789E-19-7.05566E-19
 -1       336 9.49609E-05-2.70070E-05-2.90974E-05-2.65455E-06-7.04308E-19-6.28371E-19
 -1       337 9.40656E-05-2.74097E-05-2.85518E-05-6.69400E-07-5.13585E-19-5.87083E-19
 -1       338 9.36594E-05-2.76348E-05-2.82889E-05 4.94837E-07-1.56373E-19-7.06388E-19
 -1       339 9.36205E-05-2.78083E-05-2.82015E-05 1.20087E-06-2.44057E-19-7.42355E-19
 -1       340 9.38435E-05-2.79701E-05-2.82293E-05 1.65325E-06-2.34425E-19-7.08298E-19
 -1       341 9.42552E-05-2.81341E-05-2.83361E-05 1.97404E-06-9.43579E-20-8.32870E-19
 -1       342 9.48113E-05-2.83080E-05-2.85000E-05 2.23866E-06-1.81843E-19-7.46307E-19
 -1       343 9.54886E-05-2.85006E-05-2.87078E-05 2.49181E-06-7.50683E-19-1.02943E-18
 -1       344 9.62780E-05-2.87235E-05-2.89507E-05 2.75366E-06-5.86943E-19-1.09972E-18
 -1       345 9.71784E-05-2.89920E-05-2.92217E-05 3.02058E-06-4.14862E-19-1.00317E-18
 -1       346 9.81902E-05-2.93251E-05-2.95131E-05 3.26243E-06 3.80846E-19-6.43558E-19
 -1       347 9.93089E-05-2.97441E-05-2.98140E-05 3.41816E-06 9.54114E-20-5.46095E-19
 -1       348 1.00517E-04-3.02691E-05-3.01087E-05 3.39181E-06 1.90634E-19-6.70025E-19
 -1       349 1.01776E-04-3.09091E-05-3.03764E-05 3.05356E-06-4.39955E-19-1.58487E-19
 -1       350 1.03010E-04-3.16454E-05-3.05923E-05 2.25339E-06-7.11970E-19 1.10453E-19
 -1       351 1.04088E-04-3.24035E-05-3.07326E-05 8.59037E-07-2.74325E-19 1.43480E-19
 -1       352 1.04815E-04-3.30202E-05-3.07817E-05-1.16951E-06 3.87522E-19 1.08244E-19
 -1       353 1.04932E-04-3.32285E-05-3.07415E-05-3.66723E-06 9.68853E-19 2.20646E-19
 -1       354 1.04183E-04-3.27118E-05-3.06370E-05-6.14855E-06 6.92712E-19-6.46810E-19
 -1       355 1.02472E-04-3.12760E-05-3.05114E-05-7.79148E-06 9.00713E-20 1.98862E-20
 -1       356 1.00089E-04-2.91155E-05-3.04079E-05-7.66565E-06-5.94709E-19-2.93951E-19
 -1       357 9.78067E-05-2.69594E-05-3.03480E-05-5.26353E-06-3.16691E-19 5.77806E-19
 -1       358 9.66124E-05-2.58070E-05-3.03279E-05-1.04317E-06-2.01577E-19 3.68501E-19
 -1       359 9.70979E-05-2.62704E-05-3.03382E-05 3.56546E-06-1.57872E-19 5.00797E-19
 -1       360 9.90212E-05-2.80977E-05-3.03837E-05 6.90471E-06 6.10705E-19 1.24497E-18
 -1       361 1.01493E-04-3.03738E-05-3.04745E-05 8.03978E-06 6.07671E-19 2.75741E-19
 -1       362 1.03586E-04-3.21888E-05-3.06025E-05 7.09721E-06-1.29196E-19 4.44874E-20
 -1       363 1.04795E-04-3.31096E-05-3.07316E-05 4.89815E-06-1.72534E-18-4.89108E-19
 -1       364 1.05071E-04-3.31914E-05-3.08176E-05 2.36065E-06-1.15863E-18-6.75023E-19
 -1       365 1.04628E-04-3.27257E-05-3.08267E-05 1.30250E-07-4.79088E-19 2.75288E-19
 -1       366 1.03739E-04-3.20150E-05-3.07477E-05-1.49574E-06-5.30724E-19-6.71109E-19
 -1       367 1.02635E-04-3.12705E-05-3.05902E-05-2.48018E-06 2.74632E-20-6.43948E-19
 -1       368 1.01475E-04-3.06034E-05-3.03763E-05-2.92487E-06 9.17334E-20-2.30879E-18
 -1       369 1.00361E-04-3.00545E-05-3.01318E-05-2.97817E-06 2.82749E-19-2.34447E-18
 -1       370 9.93479E-05-2.96259E-05-2.98800E-05-2.78247E-06-7.87170E-20-1.33395E-18
 -1       371 9.84628E-05-2.93022E-05-2.96386E-05-2.45198E-06 1.36498E-20-1.28884E-18
 -1       372 9.77131E-05-2.90636E-05-2.94192E-05-2.06827E-06 2.37474E-19 1.42915E-18
 -1       373 9.70945E-05-2.88909E-05-2.92281E-05-1.68411E-06-1.59826E-18 9.91857E-19
 -1       374 9.65961E-05-2.87679E-05-2.90673E-05-1.32993E-06-2.73386E-19 3.75664E-19
 -1       375 9.62032E-05-2.86816E-05-2.89362E-05-1.02026E-06 1.66074E-18 9.51337E-19
 -1       376 9.59001E-05-2.86217E-05-2.88322E-05-7.59076E-07 1.98250E-18 1.62058E-18
 -1       377 9.56715E-05-2.85805E-05-2.87521E-05-5.43865E-07 1.56491E-18 8.32949E-19
 -1       378 9.55030E-05-2.85521E-05-2.86923E-05-3.68810E-07 4.50653E-19 2.64671E-18
 -1       379 9.53820E-05-2.85330E-05-2.86487E-05-2.26797E-07-5.40545E-19 1.80444E-18
 -1       380 9.53057E-05-2.85287E-05-2.86183E-05-1.20172E-07-5.50937E-19 7.94913E-19
 -1       381 9.43741E-05-2.73251E-05-2.86968E-05 2.34206E-06 7.57466E-19 1.84322E-18
 -1       382 9.32535E-05-2.74587E-05-2.81754E-05 5.63552E-07 4.65841E-19 1.49814E-18
 -1       383 9.28204E-05-2.75581E-05-2.79589E-05-4.39366E-07 3.12982E-19 1.30665E-18
 -1       384 9.28485E-05-2.76832E-05-2.79227E-05-1.03228E-06 1.75686E-19 1.03940E-18
 -1       385 9.31875E-05-2.78399E-05-2.80030E-05-1.41244E-06 2.05173E-19 9.91303E-19
 -1       386 9.37480E-05-2.80236E-05-2.81652E-05-1.69685E-06 3.94009E-19 1.06816E-18
 -1       387 9.44851E-05-2.82316E-05-2.83919E-05-1.96375E-06 5.86943E-19 9.63385E-19
 -1       388 9.53866E-05-2.84661E-05-2.86773E-05-2.27103E-06 2.35607E-19 9.20769E-19
 -1       389 9.64645E-05-2.87339E-05-2.90237E-05-2.66491E-06 3.72837E-19 1.32042E-18
 -1       390 9.77493E-05-2.90473E-05-2.94391E-05-3.18315E-06 1.16619E-19 4.66913E-19
 -1       391 9.92846E-05-2.94241E-05-2.99346E-05-3.85376E-06 3.85943E-19 8.70638E-20
 -1       392 1.01122E-04-2.98905E-05-3.05218E-05-4.68755E-06 1.24177E-19 5.55605E-19
 -1       393 1.03315E-04-3.04855E-05-3.12071E-05-5.66116E-06-3.11654E-19 8.71917E-19
 -1       394 1.05909E-04-3.12685E-05-3.19854E-05-6.68515E-06-2.52456E-21 4.19486E-19
 -1       395 1.08927E-04-3.23286E-05-3.28296E-05-7.55203E-06 6.12417E-19-2.90825E-19
 -1       396 1.12349E-04-3.37868E-05-3.36798E-05-7.86669E-06 1.02125E-18-5.79870E-20
 -1       397 1.16070E-04-3.57576E-05-3.44400E-05-6.99043E-06-5.68824E-19-5.16882E-19
 -1       398 1.19795E-04-3.81967E-05-3.49987E-05-4.09692E-06-2.49633E-19 1.63787E-19
 -1       399 1.22826E-04-4.05385E-05-3.53002E-05 1.41969E-06-7.92141E-19 2.56507E-19
 -1       400 1.23936E-04-4.13579E-05-3.54201E-05 8.96344E-06 5.71029E-19 5.77465E-19
 -1       401 1.21558E-04-3.85763E-05-3.56224E-05 1.54426E-05-1.43837E-18 1.84590E-18
 -1       402 1.16046E-04-3.21290E-05-3.60630E-05 1.54656E-05-1.68237E-18 2.70559E-18
 -1       403 1.10948E-04-2.60212E-05-3.65418E-05 6.09956E-06-7.78476E-19 2.62710E-18
 -1       404 1.11500E-04-2.65085E-05-3.65560E-05-7.68109E-06 1.46583E-18 2.36999E-18
 -1       405 1.17100E-04-3.30065E-05-3.61090E-05-1.60714E-05 2.53729E-18 3.44282E-18
 -1       406 1.22442E-04-3.92040E-05-3.57089E-05-1.49705E-05 1.55781E-18 2.63763E-18
 -1       407 1.24255E-04-4.14889E-05-3.55058E-05-8.06343E-06 5.25005E-19 2.58505E-18
 -1       408 1.22722E-04-4.03753E-05-3.53310E-05-6.26434E-07 1.33228E-18 2.08957E-18
 -1       409 1.19443E-04-3.79147E-05-3.49758E-05 4.54121E-06-1.47979E-19 2.35158E-19
 -1       410 1.15669E-04-3.55001E-05-3.43813E-05 7.09384E-06-2.96594E-20-9.72784E-19
 -1       411 1.12014E-04-3.35965E-05-3.36177E-05 7.72711E-06-3.08004E-19 4.71336E-19
 -1       412 1.08727E-04-3.22121E-05-3.27927E-05 7.25461E-06-1.80229E-19 1.61768E-18
 -1       413 1.05890E-04-3.12231E-05-3.19953E-05 6.28338E-06 5.79840E-19 1.24774E-18
 -1       414 1.03510E-04-3.05092E-05-3.12789E-05 5.17947E-06-7.21699E-20 2.42486E-18
 -1       415 1.01558E-04-2.99846E-05-3.06669E-05 4.13115E-06-1.36228E-18 1.80335E-18
 -1       416 9.99877E-05-2.95935E-05-3.01622E-05 3.21800E-06-7.64816E-19 1.57726E-18
 -1       417 9.87464E-05-2.93000E-05-2.97571E-05 2.46073E-06-5.04509E-19 3.04848E-18
 -1       418 9.77804E-05-2.90797E-05-2.94386E-05 1.85177E-06 1.78496E-19 4.49796E-18
 -1       419 9.70401E-05-2.89154E-05-2.91927E-05 1.37210E-06 6.11624E-19 3.69249E-18
 -1       420 9.64815E-05-2.87940E-05-2.90061E-05 9.99650E-07 1.18985E-18 2.68738E-18
 -1       421 9.60671E-05-2.87057E-05-2.88670E-05 7.13143E-07 7.62420E-19 1.03653E-18
 -1       422 9.57657E-05-2.86422E-05-2.87655E-05 4.93463E-07 8.21266E-20 7.94412E-19
 -1       423 9.55519E-05-2.85976E-05-2.86935E-05 3.24133E-07 5.49772E-19 1.80827E-18
 -1       424 9.54057E-05-2.85675E-05-2.86440E-05 1.92259E-07 7.18195E-19 1.27434E-18
 -1       425 9.53110E-05-2.85506E-05-2.86110E-05 8.98945E-08-6.82236E-19 1.59356E-18
 -1       426 9.52723E-05-2.85463E-05-2.85966E-05 4.38030E-08-2.62598E-19 3.65132E-18
 -1       427 9.51847E-05-2.83030E-05-2.86634E-05 2.50538E-07-1.15148E-18 8.01830E-19
 -1       428 9.52454E-05-2.84166E-05-2.86405E-05 1.94069E-07-1.30483E-18-1.72365E-20
 -1       429 9.52706E-05-2.84938E-05-2.86182E-05 1.17086E-07-1.12798E-18 6.27735E-19
 -1       430 9.51181E-05-2.81867E-05-2.86849E-05 2.63090E-07 9.96480E-19-3.66072E-18
 -1       431 9.50561E-05-2.80804E-05-2.87041E-05 2.28794E-07 7.67086E-19 4.66411E-19
 -1       432 9.50097E-05-2.80012E-05-2.87183E-05 1.54299E-07-1.15862E-18 3.76724E-19
 -1       433 9.49856E-05-2.79601E-05-2.87257E-05 5.36478E-08-1.74629E-18 1.46679E-18
 -1       434 9.49869E-05-2.79626E-05-2.87252E-05-5.53794E-08 3.16114E-19 3.14386E-18
 -1       435 9.50129E-05-2.80078E-05-2.87169E-05-1.54215E-07-9.69942E-19-8.21503E-19
 -1       436 9.50587E-05-2.80873E-05-2.87022E-05-2.25277E-07 1.04103E-18-2.56307E-18
 -1       437 9.51192E-05-2.81928E-05-2.86828E-05-2.58790E-07 3.57170E-18-2.74435E-19
 -1       438 9.51842E-05-2.83083E-05-2.86609E-05-2.47176E-07 1.92765E-18 3.27807E-19
 -1       439 9.52440E-05-2.84204E-05-2.86383E-05-1.93281E-07-6.67574E-19-5.26574E-19
 -1       440 6.23158E-05-4.31974E-05-8.26897E-06 4.17232E-05-1.36785E-18 2.16893E-19
 -1       441 1.36172E-05-1.86649E-05 2.34547E-06-3.19518E-06-2.38361E-18 5.39878E-19
 -1       442 2.60435E-05-2.92451E-05 1.13074E-06 2.66379E-05-2.46137E-18-1.41243E-19
 -1       443 9.90964E-05-5.50262E-05-1.90934E-05 3.96337E-05-1.43996E-18 9.58815E-19
 -1       444 1.41781E-04-5.75445E-05-3.60947E-05 2.03421E-05-1.56278E-19-9.06961E-19
 -1       445 8.94027E-05-1.18646E-05-3.32966E-05-1.05042E-05-4.77061E-19-1.80713E-18
 -1       446 1.58558E-04-2.64950E-05-5.67915E-05-7.90900E-06 1.88020E-18-2.94450E-18
 -1       447 1.63471E-04-1.48963E-05-6.34501E-05 3.08468E-07 1.95919E-18-1.15701E-18
 -1       448 1.64429E-04-2.31645E-05-6.02696E-05 4.49606E-06 2.41775E-18 5.50042E-19
 -1       449 1.60874E-04-4.04473E-05-5.15231E-05-1.34124E-06 1.93415E-18 7.17437E-19
 -1       450 1.45812E-04-5.63170E-05-3.83855E-05-1.64384E-05-9.07913E-20-4.56551E-19
 -1       451 1.11830E-04-5.73171E-05-2.35054E-05-3.63200E-05-5.01126E-19-1.30173E-18
 -1       452 7.35349E-05-4.69808E-05-1.15029E-05-4.20277E-05-6.43533E-19-3.08532E-18
 -1       453 3.07509E-05-2.82754E-05-9.28835E-07-2.95130E-05-7.20825E-19-2.95562E-18
 -1       454 1.32387E-05-2.02942E-05 3.07611E-06-3.79659E-06-1.19246E-20-1.94998E-18
 -1       455 1.83798E-05-2.33891E-05 2.11405E-06 2.11821E-05 8.80597E-19-2.03934E-18
 -1       456 5.19603E-05-3.79819E-05-6.01420E-06 4.32271E-05 1.30020E-19-8.89014E-19
 -1       457 8.65470E-05-4.87121E-05-1.63612E-05 4.42198E-05-7.82023E-19-7.00443E-19
 -1       458 1.22123E-04-5.36109E-05-2.93964E-05 3.31396E-05-1.51989E-18 5.26431E-19
 -1       459 1.48300E-04-4.12408E-05-4.58769E-05 1.19594E-05-1.89194E-18 2.33643E-18
 -1       460 1.53192E-04-2.56638E-05-5.47795E-05-9.63961E-07-1.77665E-18 2.24506E-18
 -1       461 1.53284E-04-1.06536E-05-6.11489E-05-1.21362E-06-5.74818E-19 5.38978E-19
 -1       462 1.60367E-04-1.58894E-05-6.16921E-05-1.22313E-08 1.66230E-20-7.78741E-20
 -1       463 1.54240E-04-2.80792E-05-5.40822E-05-6.20700E-07-4.56392E-19-7.11825E-19
 -1       464 1.46601E-04-4.48000E-05-4.36113E-05-1.51403E-05-1.32044E-18-6.73391E-20
 -1       465 1.24781E-04-5.26912E-05-3.09024E-05-3.19710E-05-1.27817E-18-8.34645E-19
 -1       466 9.44826E-05-5.16350E-05-1.83457E-05-4.34556E-05 1.16478E-18 7.56930E-19
 -1       467 5.33458E-05-3.92334E-05-6.26973E-06-4.30388E-05-2.11017E-19 2.51198E-18
 -1       468 2.61879E-05-2.90058E-05 9.81800E-07-3.01230E-05 4.09646E-19 3.32259E-18
 -1       469 1.59956E-04-4.33500E-05-4.97960E-05 6.23010E-06 1.40946E-18-1.70518E-18
 -1       470 1.39341E-04-5.45717E-05-3.64842E-05 1.38488E-05-1.21213E-18 2.20652E-18
 -1       471 6.12070E-05-3.71727E-05-9.94667E-06-4.02102E-05-1.44419E-18-2.64756E-18
 -1       472 1.42409E-04-1.61610E-05-5.46789E-05-9.58779E-06 1.64367E-18-3.00723E-18
 -1       473 9.58430E-05-2.51184E-05-3.02962E-05 5.84092E-06 9.39542E-19 9.29060E-19
 -1       474 8.95093E-05-1.32112E-05-3.27181E-05-3.80081E-06 2.51082E-19-1.37755E-18
 -1       475 9.02450E-05-1.42198E-05-3.26034E-05-5.72019E-06 9.56231E-21-1.59687E-18
 -1       476 8.89844E-05-1.24912E-05-3.28004E-05 5.21421E-08 6.70529E-19-1.14541E-18
 -1       477 8.91295E-05-1.26860E-05-3.27793E-05 1.97634E-06 8.65261E-19-1.12844E-18
 -1       478 8.95465E-05-1.32533E-05-3.27161E-05 3.87152E-06 1.02363E-18-9.81024E-19
 -1       479 9.03006E-05-1.42854E-05-3.25990E-05 5.78330E-06 1.25927E-18-6.23509E-19
 -1       480 9.14731E-05-1.59143E-05-3.24054E-05 7.59186E-06 1.26737E-18-2.06521E-19
 -1       481 9.32667E-05-1.84292E-05-3.20933E-05 9.11102E-06 1.29055E-18 8.19736E-20
 -1       482 9.51874E-05-2.65354E-05-2.94041E-05 2.63021E-06 8.60361E-19 7.53849E-19
 -1       483 9.55030E-05-2.43799E-05-3.04715E-05-5.59422E-06-5.48671E-19-1.10983E-18
 -1       484 1.46654E-04-3.90904E-05-4.64478E-05-1.37358E-05 8.51850E-19-4.28900E-18
 -1       485 9.53411E-05-2.61398E-05-2.96492E-05-2.60088E-06-4.16479E-19-9.14543E-19
 -1       486 9.50529E-05-2.70645E-05-2.91342E-05-6.15176E-07-4.35593E-19-6.65012E-19
 -1       487 9.48580E-05-2.75708E-05-2.88355E-05 6.69833E-07-3.76399E-19-5.99245E-19
 -1       488 9.48108E-05-2.78721E-05-2.86870E-05 1.51777E-06-3.08340E-19-7.57881E-19
 -1       489 9.49014E-05-2.80623E-05-2.86446E-05 2.10693E-06-3.37577E-19-6.92078E-19
 -1       490 9.51092E-05-2.81919E-05-2.86783E-05 2.55750E-06-1.16694E-19-5.79149E-19
 -1       491 9.54195E-05-2.82943E-05-2.87674E-05 2.94850E-06-6.32278E-19-4.26397E-19
 -1       492 9.58267E-05-2.83993E-05-2.88969E-05 3.32676E-06-5.83724E-19-2.01056E-19
 -1       493 9.63358E-05-2.85393E-05-2.90551E-05 3.71034E-06-4.51810E-19-2.20993E-19
 -1       494 9.69615E-05-2.87533E-05-2.92317E-05 4.08785E-06 1.92424E-19 9.84977E-20
 -1       495 9.77284E-05-2.90901E-05-2.94163E-05 4.41490E-06 2.91682E-19-1.53012E-19
 -1       496 9.86689E-05-2.96070E-05-2.95985E-05 4.60890E-06-4.76219E-21 2.49288E-19
 -1       497 9.98187E-05-3.03624E-05-2.97685E-05 4.54463E-06 1.08332E-19 4.04120E-20
 -1       498 1.01204E-04-3.13959E-05-2.99204E-05 4.05569E-06-1.27248E-19 8.54477E-19
 -1       499 1.02811E-04-3.26875E-05-3.00574E-05 2.95097E-06-5.32106E-19 1.05311E-18
 -1       500 1.04540E-04-3.40914E-05-3.01982E-05 1.06217E-06-2.27362E-19 9.98633E-19
 -1       501 1.06135E-04-3.52585E-05-3.03819E-05-1.65479E-06 5.61124E-19 7.72362E-19
 -1       502 1.07144E-04-3.56081E-05-3.06629E-05-4.94775E-06 3.34516E-19-2.60476E-19
 -1       503 1.07022E-04-3.44822E-05-3.10893E-05-8.07273E-06 2.47541E-19-8.48967E-19
 -1       504 1.05452E-04-3.15767E-05-3.16579E-05-9.76052E-06-3.37455E-19-5.77630E-19
 -1       505 1.02868E-04-2.75786E-05-3.22649E-05-8.66595E-06-1.48948E-19-6.78648E-20
 -1       506 1.00599E-04-2.42770E-05-3.27093E-05-4.36939E-06-4.89552E-19-5.07003E-19
 -1       507 1.00100E-04-2.35587E-05-3.28046E-05 1.76092E-06-4.00268E-19-5.84169E-19
 -1       508 1.01731E-04-2.58902E-05-3.25027E-05 7.14948E-06 1.05941E-18-7.65170E-19
 -1       509 1.04384E-04-2.98371E-05-3.19458E-05 9.72266E-06 7.47205E-19-9.57249E-19
 -1       510 1.06527E-04-3.33817E-05-3.13490E-05 9.15487E-06 2.25963E-19 3.00381E-19
 -1       511 1.07300E-04-3.52999E-05-3.08600E-05 6.51874E-06-7.51274E-19 1.05906E-18
 -1       512 1.06747E-04-3.55276E-05-3.05277E-05 3.21349E-06-1.35284E-18 1.39093E-18
 -1       513 1.05370E-04-3.46358E-05-3.03205E-05 2.34225E-07-8.60715E-19 9.72713E-19
 -1       514 1.03689E-04-3.32750E-05-3.01824E-05-1.96825E-06-3.49697E-19 1.54772E-18
 -1       515 1.02047E-04-3.19003E-05-3.00660E-05-3.32936E-06-5.97864E-19 2.23203E-18
 -1       516 1.00605E-04-3.07404E-05-2.99439E-05-3.97741E-06-9.32926E-19 6.87197E-19
 -1       517 9.94110E-05-2.98629E-05-2.98070E-05-4.10173E-06 5.62540E-19 9.68308E-19
 -1       518 9.84506E-05-2.92497E-05-2.96574E-05-3.88426E-06 7.31667E-19 3.00648E-19
 -1       519 9.76898E-05-2.88495E-05-2.95024E-05-3.47249E-06-1.56524E-19 1.05769E-18
 -1       520 9.70920E-05-2.86058E-05-2.93504E-05-2.97414E-06 1.13119E-18 1.24027E-18
 -1       521 9.66244E-05-2.84699E-05-2.92082E-05-2.46137E-06-4.96967E-19 1.55615E-18
 -1       522 9.62607E-05-2.84042E-05-2.90805E-05-1.97815E-06-3.06090E-19 2.95347E-18
 -1       523 9.59792E-05-2.83813E-05-2.89697E-05-1.54779E-06 4.92929E-19 2.65857E-18
 -1       524 9.57628E-05-2.83823E-05-2.88767E-05-1.17938E-06 1.98018E-18 1.57658E-18
 -1       525 9.55973E-05-2.83945E-05-2.88006E-05-8.72895E-07 1.21235E-18 1.92878E-18
 -1       526 9.54711E-05-2.84100E-05-2.87400E-05-6.23057E-07 1.83325E-18 7.46434E-19
 -1       527 9.53751E-05-2.84248E-05-2.86926E-05-4.22183E-07 1.38206E-19 5.68307E-19
 -1       528 9.43952E-05-2.76206E-05-2.86136E-05-6.16175E-07 4.80332E-19 2.35701E-19
 -1       529 9.43597E-05-2.78555E-05-2.84997E-05-1.43073E-06 2.63835E-19 4.20751E-21
 -1       530 9.45181E-05-2.80148E-05-2.85000E-05-2.00465E-06 2.21140E-19 1.00349E-19
 -1       531 9.48306E-05-2.81290E-05-2.85851E-05-2.47261E-06 4.42511E-19 2.27352E-19
 -1       532 9.52705E-05-2.82130E-05-2.87374E-05-2.93175E-06 4.69713E-19 6.34968E-19
 -1       533 9.58255E-05-2.82766E-05-2.89476E-05-3.45628E-06 4.86322E-19 3.16389E-19
 -1       534 9.64945E-05-2.83293E-05-2.92112E-05-4.10465E-06 7.86219E-19 3.98681E-20
 -1       535 9.72861E-05-2.83846E-05-2.95261E-05-4.92151E-06 2.48176E-19 2.32835E-19
 -1       536 9.82183E-05-2.84670E-05-2.98896E-05-5.93425E-06 1.72865E-19 9.48305E-20
 -1       537 9.93221E-05-2.86241E-05-3.02951E-05-7.14223E-06-2.09738E-19-5.64364E-20
 -1       538 1.00653E-04-2.89466E-05-3.07280E-05-8.49509E-06 2.64538E-19-1.89310E-19
 -1       539 1.02317E-04-2.96000E-05-3.11628E-05-9.85602E-06 7.40472E-19-5.94587E-19
 -1       540 1.04505E-04-3.08613E-05-3.15644E-05-1.09450E-05 4.23080E-19 6.57163E-19
 -1       541 1.07542E-04-3.31263E-05-3.19021E-05-1.12620E-05-1.27205E-19 1.18878E-18
 -1       542 1.11857E-04-3.67939E-05-3.21884E-05-1.00142E-05-1.19267E-18 1.26028E-18
 -1       543 1.17757E-04-4.18288E-05-3.25631E-05-6.10855E-06-1.05494E-19 1.33969E-18
 -1       544 1.24599E-04-4.66807E-05-3.34371E-05 1.38051E-06-1.09446E-18 9.39856E-19
 -1       545 1.29847E-04-4.78891E-05-3.51853E-05 1.15633E-05-1.25061E-18 2.23976E-18
 -1       546 1.29337E-04-3.91346E-05-3.88953E-05 1.97772E-05-1.37256E-18 1.26896E-18
 -1       547 1.23129E-04-2.44548E-05-4.28852E-05 1.59178E-05 1.28193E-19-4.42118E-19
 -1       548 1.19977E-04-1.82250E-05-4.41239E-05-1.37898E-06 5.76512E-19-1.55343E-18
 -1       549 1.24473E-04-2.74471E-05-4.18745E-05-1.67031E-05 1.43734E-18-1.15864E-18
 -1       550 1.29701E-04-4.12425E-05-3.81020E-05-1.82088E-05 1.20359E-18 6.03307E-19
 -1       551 1.29353E-04-4.78755E-05-3.49959E-05-9.98672E-06 3.34551E-19 1.61711E-18
 -1       552 1.23640E-04-4.61347E-05-3.32475E-05-5.90224E-08 1.12710E-18 2.64639E-18
 -1       553 1.16840E-04-4.10135E-05-3.25185E-05 6.80434E-06 1.29319E-18 2.94827E-18
 -1       554 1.11225E-04-3.61480E-05-3.21911E-05 1.01790E-05 8.51078E-20 3.38978E-18
 -1       555 1.07166E-04-3.27011E-05-3.19219E-05 1.10825E-05-5.81342E-19 3.60316E-18
 -1       556 1.04331E-04-3.06115E-05-3.15951E-05 1.05390E-05-7.70678E-19 2.73228E-18
 -1       557 1.02300E-04-2.94676E-05-3.12111E-05 9.30146E-06 8.87482E-19 3.16086E-18
 -1       558 1.00775E-04-2.88872E-05-3.08042E-05 7.83155E-06 6.10410E-20 2.44102E-18
 -1       559 9.95777E-05-2.86127E-05-3.04085E-05 6.38359E-06 5.14257E-19 1.22614E-18
 -1       560 9.86148E-05-2.84931E-05-3.00475E-05 5.08022E-06-1.53678E-18 1.33010E-18
 -1       561 9.78339E-05-2.84477E-05-2.97330E-05 3.96688E-06-1.64128E-18 1.43686E-18
 -1       562 9.72029E-05-2.84359E-05-2.94684E-05 3.04750E-06-1.81336E-18 1.58551E-18
 -1       563 9.66982E-05-2.84385E-05-2.92516E-05 2.30590E-06 3.88287E-19 2.94811E-18
 -1       564 9.63000E-05-2.84465E-05-2.90781E-05 1.71788E-06 1.61427E-18 1.73457E-18
 -1       565 9.59906E-05-2.84559E-05-2.89419E-05 1.25762E-06 1.51693E-18 2.43980E-18
 -1       566 9.57537E-05-2.84644E-05-2.88371E-05 9.00620E-07 9.50300E-19 1.50663E-18
 -1       567 9.55750E-05-2.84710E-05-2.87580E-05 6.24982E-07-1.94027E-19-1.16786E-19
 -1       568 9.54416E-05-2.84751E-05-2.86991E-05 4.12832E-07 1.03610E-18 2.12092E-18
 -1       569 9.53437E-05-2.84800E-05-2.86552E-05 2.48457E-07-6.10985E-19 2.02083E-18
 -1       570 9.50254E-05-2.80254E-05-2.87144E-05 3.68009E-07 1.86935E-18-1.55186E-18
 -1       571 9.49357E-05-2.79129E-05-2.87242E-05 2.80764E-07 6.79396E-20-1.70332E-18
 -1       572 9.52411E-05-2.83135E-05-2.86832E-05 3.60362E-07-1.52048E-18-3.35584E-19
 -1       573 9.51334E-05-2.81649E-05-2.87008E-05 3.95899E-07-2.49003E-19 9.47931E-19
 -1       574 9.48783E-05-2.78423E-05-2.87299E-05 1.49098E-07 1.75731E-19-7.59813E-19
 -1       575 9.48606E-05-2.78217E-05-2.87312E-05-5.11575E-09-5.77979E-19 3.37791E-18
 -1       576 9.48842E-05-2.78529E-05-2.87279E-05-1.57213E-07-1.33686E-18 2.06168E-18
 -1       577 9.49437E-05-2.79293E-05-2.87206E-05-2.81694E-07 1.25186E-19-2.55724E-19
 -1       578 9.50325E-05-2.80440E-05-2.87095E-05-3.63621E-07 2.62622E-18-1.56680E-18
 -1       579 9.51359E-05-2.81811E-05-2.86950E-05-3.88390E-07 2.19672E-18-6.58335E-19
 -1       580 9.52383E-05-2.83236E-05-2.86776E-05-3.53248E-07-9.84913E-19-2.56624E-18
 -1       581 2.90042E-05-1.59635E-05-4.96201E-06 1.66682E-05-2.23013E-18 1.64748E-19
 -1       582 5.40415E-05-3.07073E-05-9.51683E-06 3.63774E-05-1.18029E-18 1.36102E-18
 -1       583 2.97627E-05-1.65253E-05-5.08125E-06-2.18455E-05-3.01200E-19 5.34266E-19
 -1       584 9.46695E-05-2.72396E-05-2.88895E-05 6.36134E-07 6.15580E-19 4.40819E-19
 -1       585 9.26726E-05-5.15940E-05-1.73250E-05 3.96774E-05-1.24318E-18 1.41751E-18
 -1       586 1.47700E-04-5.72506E-05-3.91061E-05-2.08828E-06-7.53859E-20-3.23402E-18
 -1       587 8.19336E-05-4.57189E-05-1.51710E-05-4.39086E-05 1.41465E-18 2.99929E-19
 -1       588 1.35237E-04-6.40851E-05-3.06006E-05-1.73584E-05-1.55971E-18 1.26420E-19
 -1       589 8.91062E-05-1.26597E-05-3.27807E-05-1.87229E-06 5.58270E-19-1.25441E-18
 -1       590 1.41205E-04-1.43478E-05-5.50145E-05 6.94053E-06 1.48326E-18-1.69211E-18
 -1       591 3.12601E-05-1.61416E-05-5.81209E-06-1.78888E-05-7.94729E-19-1.24990E-18
 -1       592 1.46869E-04-3.11354E-05-4.98625E-05 1.61021E-05 1.81556E-18-4.83762E-19
 -1       593 1.48492E-04-5.19466E-05-4.17053E-05 8.02434E-06 3.89582E-19 8.31310E-19
 -1       594 1.03419E-04-5.59480E-05-2.01529E-05-3.71047E-05-1.78126E-18-6.20045E-19
 -1       595 8.74585E-05-4.76415E-05-1.66468E-05 4.33829E-05 9.35018E-19 4.63446E-19
 -1       596 2.59048E-05-1.26031E-05-5.05408E-06 9.62574E-06 1.37834E-18-9.88699E-19
 -1       597 4.45531E-05-2.47385E-05-7.96949E-06 3.54850E-05 1.96766E-18-1.69618E-18
 -1       598 1.14601E-04-5.76951E-05-2.42227E-05 3.31363E-05 6.18043E-19 1.19490E-18
 -1       599 1.41398E-04-3.72621E-05-4.50721E-05-7.14734E-06-1.95413E-18 1.66400E-18
 -1       600 1.32445E-04-1.34847E-05-5.15773E-05-9.32719E-06-9.81129E-19-5.68809E-19
 -1       601 1.29600E-04-7.31106E-06-5.30560E-05 3.66173E-06 5.18914E-19-1.48907E-18
 -1       602 1.33179E-04-1.76100E-05-5.01105E-05 1.08021E-05 2.15993E-20-1.19588E-18
 -1       603 1.41378E-04-3.96032E-05-4.40337E-05 5.78769E-06-1.36303E-18-1.05387E-18
 -1       604 1.37548E-04-5.57990E-05-3.52094E-05-1.21338E-05-1.46656E-19 2.19170E-20
 -1       605 1.20601E-04-5.82689E-05-2.66821E-05-2.93436E-05 1.63451E-19-5.71244E-19
 -1       606 4.68907E-05-2.79301E-05-7.67057E-06-3.77348E-05 8.61274E-19 1.28606E-18
 -1       607 9.46144E-05-2.07321E-05-3.16822E-05-9.25273E-06-6.79550E-19-1.23912E-18
 -1       608 9.61461E-05-2.31714E-05-3.12783E-05 9.44711E-06 1.08308E-18 1.24531E-18
 -1       609 1.28736E-04-6.29468E-05-2.81713E-05 2.33912E-05-9.98281E-19-1.22439E-18
 -1       610 9.13812E-05-1.58046E-05-3.24127E-05-7.51846E-06-3.20251E-19-1.59008E-18
 -1       611 1.07380E-04-5.44653E-05-2.25053E-05-3.45239E-05 9.30969E-19 1.27251E-18
 -1       612 3.17655E-05-1.10198E-05-8.29864E-06-2.37502E-06-1.03665E-18-1.09527E-18
 -1       613 1.28632E-04-5.91964E-05-2.98096E-05 1.81160E-05-3.05236E-19 1.73384E-18
 -1       614 5.17939E-05-2.40368E-05-1.14008E-05-3.00280E-05-1.65137E-18-2.54666E-18
 -1       615 1.38317E-04-2.98946E-05-4.69654E-05-1.82421E-05 6.95732E-19-3.08987E-18
 -1       616 9.28141E-05-1.78932E-05-3.21295E-05-8.70663E-06-5.36241E-19-1.52342E-18
 -1       617 9.53239E-05-2.84364E-05-2.86657E-05-3.06805E-07-1.85881E-18 1.14426E-18
 -1       618 9.14414E-05-1.65358E-05-3.21079E-05 2.30713E-06 8.11123E-19-9.45866E-19
 -1       619 9.11561E-05-1.61038E-05-3.21706E-05 7.92717E-07 6.13969E-19-9.61345E-19
 -1       620 9.28742E-05-1.88064E-05-3.17490E-05 5.01980E-06 1.12371E-18-3.18277E-19
 -1       621 9.40071E-05-2.08070E-05-3.13794E-05 5.89049E-06 1.14338E-18-1.27156E-19
 -1       622 9.53200E-05-2.40116E-05-3.05505E-05 4.88662E-06 9.49107E-19 9.61626E-20
 -1       623 7.38673E-05-3.42941E-05-1.65891E-05 3.70726E-05 1.97795E-18-4.25025E-19
 -1       624 9.54111E-05-2.58103E-05-2.98248E-05 2.23677E-06 8.79726E-19 1.45445E-19
 -1       625 7.10710E-05-3.50581E-05-1.50657E-05-3.92113E-05 1.20702E-18 3.48078E-20
 -1       626 9.54486E-05-2.55093E-05-2.99720E-05-2.02730E-06-1.61159E-19-1.07785E-18
 -1       627 9.55313E-05-2.66958E-05-2.95003E-05-2.96236E-07-3.08019E-19-8.06074E-19
 -1       628 9.54992E-05-2.73764E-05-2.91952E-05 9.17516E-07-2.48643E-19-7.25850E-19
 -1       629 9.54567E-05-2.77591E-05-2.90131E-05 1.77790E-06-2.84335E-19-8.07468E-19
 -1       630 9.54415E-05-2.79557E-05-2.89223E-05 2.42114E-06-8.27795E-20-7.02068E-19
 -1       631 9.54691E-05-2.80392E-05-2.88984E-05 2.94942E-06-1.74958E-19-6.48131E-19
 -1       632 9.55507E-05-2.80655E-05-2.89221E-05 3.43392E-06-3.80518E-19-1.75457E-19
 -1       633 9.57020E-05-2.80870E-05-2.89777E-05 3.91755E-06-4.73056E-19 5.34718E-20
 -1       634 9.59495E-05-2.81618E-05-2.90517E-05 4.41554E-06-1.23346E-19 3.84609E-19
 -1       635 9.63356E-05-2.83603E-05-2.91321E-05 4.91367E-06-2.34204E-20 6.21930E-19
 -1       636 9.69234E-05-2.87692E-05-2.92090E-05 5.36374E-06 2.35002E-19 5.44022E-19
 -1       637 9.77997E-05-2.94903E-05-2.92757E-05 5.67660E-06-6.65898E-20 6.02474E-19
 -1       638 9.90710E-05-3.06278E-05-2.93334E-05 5.71304E-06 3.94207E-19 3.64318E-19
 -1       639 1.00843E-04-3.22516E-05-2.93977E-05 5.27641E-06-2.35220E-19 4.03602E-19
 -1       640 1.03168E-04-3.43245E-05-2.95070E-05 4.11588E-06-2.45255E-19 1.02633E-18
 -1       641 1.05947E-04-3.65803E-05-2.97321E-05 1.96516E-06 2.16358E-20 9.05678E-19
 -1       642 1.08775E-04-3.83720E-05-3.01772E-05-1.33025E-06-1.75441E-19 1.23824E-18
 -1       643 1.10833E-04-3.86104E-05-3.09545E-05-5.50701E-06-4.54296E-19-7.69175E-21
 -1       644 1.11067E-04-3.61214E-05-3.21237E-05-9.51057E-06 1.78566E-19-4.16473E-19
 -1       645 1.08930E-04-3.06260E-05-3.35741E-05-1.12180E-05 4.91468E-20 2.05902E-19
 -1       646 1.05396E-04-2.39562E-05-3.49257E-05-8.64665E-06-8.23395E-19 6.53251E-19
 -1       647 1.03163E-04-2.01209E-05-3.56274E-05-1.80860E-06-7.48140E-19 3.98313E-19
 -1       648 1.04068E-04-2.16588E-05-3.53559E-05 6.03802E-06-4.34230E-19 5.49522E-19
 -1       649 1.07420E-04-2.76101E-05-3.42250E-05 1.07235E-05 1.23013E-18 5.46121E-19
 -1       650 1.10392E-04-3.39563E-05-3.27755E-05 1.07720E-05 9.12910E-19 6.87502E-19
 -1       651 1.11230E-04-3.78514E-05-3.14511E-05 7.50515E-06 3.46506E-19 6.14718E-19
 -1       652 1.09856E-04-3.86839E-05-3.05040E-05 3.25162E-06-4.32092E-19 6.37329E-19
 -1       653 1.07250E-04-3.74098E-05-2.99336E-05-4.59180E-07-9.62622E-19 1.60729E-18
 -1       654 1.04382E-04-3.52347E-05-2.96370E-05-3.05409E-06-4.19324E-19 2.49003E-18
 -1       655 1.01835E-04-3.30060E-05-2.94996E-05-4.55042E-06-1.33084E-18 5.05968E-19
 -1       656 9.98229E-05-3.11428E-05-2.94352E-05-5.18619E-06-1.08759E-18 1.11952E-18
 -1       657 9.83471E-05-2.97680E-05-2.93914E-05-5.22791E-06-9.44800E-19 1.14063E-18
 -1       658 9.73153E-05-2.88491E-05-2.93427E-05-4.89939E-06-5.62650E-20-1.46136E-19
 -1       659 9.66161E-05-2.82937E-05-2.92809E-05-4.36779E-06 2.61483E-19-1.32596E-18
 -1       660 9.61516E-05-2.80011E-05-2.92071E-05-3.74985E-06 7.02098E-19-1.32765E-18
 -1       661 9.58462E-05-2.78843E-05-2.91262E-05-3.12238E-06 1.73631E-19-9.51541E-19
 -1       662 9.56457E-05-2.78760E-05-2.90438E-05-2.53236E-06 1.22821E-19-1.05896E-18
 -1       663 9.55131E-05-2.79282E-05-2.89647E-05-2.00523E-06-3.91897E-20-6.82990E-20
 -1       664 9.54239E-05-2.80083E-05-2.88922E-05-1.55154E-06 7.62013E-19-1.27115E-19
 -1       665 9.53618E-05-2.80953E-05-2.88283E-05-1.17222E-06 9.62735E-19-2.72699E-18
 -1       666 9.53163E-05-2.81769E-05-2.87738E-05-8.61963E-07 1.90849E-19-2.99249E-18
 -1       667 9.52801E-05-2.82470E-05-2.87283E-05-6.13157E-07 8.95561E-19-3.75138E-18
 -1       668 9.52098E-05-2.77722E-05-2.89013E-05-1.74803E-06 1.85662E-19 2.14016E-19
 -1       669 1.25985E-04-2.57544E-05-4.33755E-05-1.34725E-05-1.11485E-18-2.25046E-19
 -1       670 8.27433E-05-3.98900E-05-1.80162E-05 3.52893E-05-4.05888E-19 1.20874E-18
 -1       671 9.52562E-05-2.74537E-05-2.90574E-05-8.57792E-07 4.76332E-19 1.72449E-19
 -1       672 9.53017E-05-2.79359E-05-2.88706E-05-3.01760E-06 1.87541E-19 2.95366E-19
 -1       673 9.54198E-05-2.78593E-05-2.89539E-05-3.61629E-06 6.01601E-19 2.32081E-19
 -1       674 9.55680E-05-2.77038E-05-2.90839E-05-4.29739E-06 4.88500E-19 6.58315E-19
 -1       675 9.57344E-05-2.74844E-05-2.92490E-05-5.11888E-06 6.03192E-19 8.71467E-19
 -1       676 9.59112E-05-2.72230E-05-2.94365E-05-6.12331E-06 6.12921E-19 7.95283E-19
 -1       677 9.61021E-05-2.69625E-05-2.96297E-05-7.33566E-06 1.35507E-20 6.13062E-19
 -1       678 9.63387E-05-2.67904E-05-2.98047E-05-8.75674E-06 4.35016E-20 2.60690E-19
 -1       679 9.67143E-05-2.68762E-05-2.99292E-05-1.03515E-05 4.67871E-19 7.69571E-19
 -1       680 9.74432E-05-2.75253E-05-2.99643E-05-1.20289E-05 7.55278E-20 7.82653E-19
 -1       681 9.89547E-05-2.92406E-05-2.98786E-05-1.36024E-05-4.41856E-19 1.30059E-18
 -1       682 1.02002E-04-3.27373E-05-2.96871E-05-1.46904E-05-6.35982E-19 1.71157E-18
 -1       683 1.07625E-04-3.87050E-05-2.95379E-05-1.45187E-05-6.60338E-19 7.40557E-19
 -1       684 1.17108E-04-4.73921E-05-2.98822E-05-1.13651E-05-9.08635E-19 8.37914E-19
 -1       685 1.28912E-04-5.50367E-05-3.16469E-05-3.50680E-06-1.54116E-18 8.69532E-19
 -1       686 1.37948E-04-5.47482E-05-3.59369E-05-8.72077E-06 6.95998E-19-2.68302E-18
 -1       687 1.28176E-04-5.41582E-05-3.17444E-05 4.04283E-06-2.68844E-19-1.56823E-18
 -1       688 1.15932E-04-4.56476E-05-3.01190E-05 1.13236E-05 6.56601E-19-8.05194E-20
 -1       689 1.07371E-04-3.77914E-05-2.98120E-05 1.39909E-05 2.89945E-19 1.13212E-18
 -1       690 1.02144E-04-3.22544E-05-2.99554E-05 1.41158E-05-1.66406E-19 1.21428E-18
 -1       691 9.93134E-05-2.90613E-05-3.01089E-05 1.29668E-05 2.63995E-19 1.41087E-18
 -1       692 9.78782E-05-2.75112E-05-3.01564E-05 1.13372E-05 1.94009E-19-5.79483E-19
 -1       693 9.71523E-05-2.69276E-05-3.00945E-05 9.59020E-06 1.19792E-18-1.46859E-18
 -1       694 9.67534E-05-2.68499E-05-2.99566E-05 7.91296E-06 8.47058E-19-2.33615E-18
 -1       695 9.64913E-05-2.70025E-05-2.97790E-05 6.39853E-06-2.71416E-19-6.56105E-19
 -1       696 9.62834E-05-2.72364E-05-2.95899E-05 5.08513E-06-1.28626E-18-4.48024E-19
 -1       697 9.60999E-05-2.74785E-05-2.94078E-05 3.97881E-06-1.41414E-18-7.31820E-20
 -1       698 9.59337E-05-2.76972E-05-2.92431E-05 3.06755E-06-8.53344E-19-6.74363E-20
 -1       699 9.57853E-05-2.78821E-05-2.91005E-05 2.33026E-06 1.27729E-18-6.12996E-19
 -1       700 9.56560E-05-2.80322E-05-2.89810E-05 1.74239E-06 9.21776E-19 8.78069E-19
 -1       701 9.55464E-05-2.81507E-05-2.88834E-05 1.27959E-06 1.80675E-18-1.51490E-18
 -1       702 9.54545E-05-2.82406E-05-2.88055E-05 9.18744E-07 1.45603E-18-7.52006E-19
 -1       703 9.53786E-05-2.83070E-05-2.87444E-05 6.39642E-07-1.16734E-18-1.03156E-18
 -1       704 9.52992E-05-2.83071E-05-2.87106E-05 4.88597E-07-1.10355E-18-1.20937E-18
 -1       705 9.46950E-05-2.76347E-05-2.87402E-05 9.26284E-08 1.06014E-18 1.54828E-18
 -1       706 9.52592E-05-2.82885E-05-2.87017E-05-4.73846E-07 5.94912E-19-4.05393E-18
 -1       707 9.48641E-05-2.78074E-05-2.87386E-05 4.48993E-07 1.45123E-18-4.15953E-18
 -1       708 9.47015E-05-2.76449E-05-2.87386E-05-1.17763E-07 2.61620E-19 1.23323E-18
 -1       709 9.47513E-05-2.76906E-05-2.87404E-05 2.91567E-07-5.93415E-20 4.41990E-20
 -1       710 1.17613E-04-9.05953E-06-4.70534E-05-3.54568E-06-2.52998E-19-1.32323E-18
 -1       711 9.47666E-05-2.77167E-05-2.87357E-05-3.05866E-07-8.17746E-19 8.16289E-19
 -1       712 9.48824E-05-2.78428E-05-2.87313E-05-4.51444E-07 3.01411E-19 1.38090E-18
 -1       713 9.50325E-05-2.80079E-05-2.87249E-05-5.30037E-07 1.25155E-18-7.31787E-19
 -1       714 9.45914E-05-2.20787E-05-3.10725E-05-5.91011E-06-5.02694E-19-1.36411E-18
 -1       715 1.28140E-04-2.98491E-05-4.24864E-05 1.36231E-05-1.04654E-18 2.80659E-19
 -1       716 1.35669E-04-5.04004E-05-3.67563E-05-1.45657E-06-1.02744E-18 1.50589E-18
 -1       717 9.53455E-05-2.68570E-05-2.93500E-05 4.05507E-07 7.78170E-19 2.91959E-19
 -1       718 8.73266E-05-4.39178E-05-1.82797E-05-3.60184E-05-2.51402E-18-7.20931E-19
 -1       719 4.98842E-05-2.00232E-05-1.22886E-05 2.50753E-05-3.06176E-19 2.13966E-18
 -1       720 9.52274E-05-2.79161E-05-2.88472E-05-2.42670E-06 2.20731E-19 2.32796E-19
 -1       721 9.52175E-05-2.41734E-05-3.04515E-05-3.78773E-06-2.14155E-19-1.30997E-18
 -1       722 1.36063E-04-5.96889E-05-3.26941E-05 5.10676E-06 5.26682E-20-2.74821E-18
 -1       723 9.20094E-05-1.74154E-05-3.19747E-05 3.74498E-06 1.01088E-18-5.35357E-19
 -1       724 9.19617E-05-1.73575E-05-3.19791E-05-3.69852E-06 1.01469E-19-1.22708E-18
 -1       725 3.81888E-05-1.11870E-05-1.10361E-05-4.44382E-06-1.75948E-19 8.53386E-19
 -1       726 1.19996E-04-5.81060E-05-2.63171E-05-2.29647E-05-1.88403E-18 3.98589E-19
 -1       727 1.15017E-04-5.69539E-05-2.47299E-05 2.69737E-05-9.23372E-19-6.53593E-19
 -1       728 4.48881E-05-1.55197E-05-1.21233E-05 2.17300E-05 1.45736E-18-1.42582E-18
 -1       729 1.04554E-04-5.11650E-05-2.26744E-05 3.23210E-05 9.77608E-19 7.53237E-19
 -1       730 1.35045E-04-4.94587E-05-3.69322E-05 2.66601E-06-3.62312E-19-9.97487E-19
 -1       731 1.17900E-04-1.34864E-05-4.52347E-05 8.98007E-06-2.17793E-19-1.61386E-19
 -1       732 1.28383E-04-5.77468E-05-3.02955E-05-1.41109E-05 4.03016E-19-8.61300E-19
 -1       733 4.98166E-05-2.03826E-05-1.20897E-05-2.87543E-05 2.18958E-19 5.56765E-19
 -1       734 9.28444E-05-1.87591E-05-3.17532E-05-4.98872E-06-1.45319E-19-1.31457E-18
 -1       735 9.11481E-05-1.60951E-05-3.21709E-05-7.38640E-07 5.37532E-19-1.15031E-18
 -1       736 9.34056E-05-4.49566E-05-2.05325E-05-3.47547E-05 7.36283E-19 2.60799E-18
 -1       737 4.38846E-05-1.24721E-05-1.30100E-05-1.37792E-05-7.37197E-19-4.15417E-19
 -1       738 9.50173E-05-2.79714E-05-2.87341E-05 5.39882E-07 4.17268E-19 5.75536E-19
 -1       739 1.27134E-04-3.89563E-05-3.79931E-05-1.12629E-05-4.82035E-19-6.70202E-19
 -1       740 9.51648E-05-2.81397E-05-2.87251E-05 5.45009E-07-9.69575E-19 2.90745E-18
 -1       741 4.41502E-05-1.23327E-05-1.31881E-05 1.03325E-05-6.54531E-20-5.76750E-19
 -1       742 1.17190E-04-5.49874E-05-2.66222E-05 2.16091E-05 8.88895E-19 8.66372E-19
 -1       743 9.51453E-05-2.81172E-05-2.87264E-05-5.90720E-07-4.52067E-19-5.27397E-18
 -1       744 4.94266E-05-1.56311E-05-1.40860E-05-1.72980E-05-4.39213E-19-7.95999E-19
 -1       745 9.14144E-05-1.65045E-05-3.21097E-05-2.24923E-06 3.49441E-19-9.38109E-19
 -1       746 1.15057E-04-1.75855E-05-4.20889E-05-1.05994E-05-1.21761E-20-1.90794E-19
 -1       747 6.59314E-05-2.29848E-05-1.81897E-05 2.59720E-05 1.18118E-18-7.49757E-19
 -1       748 9.46045E-05-2.24861E-05-3.09077E-05 3.56576E-06 9.17510E-19-2.43154E-19
 -1       749 1.03368E-04-4.62279E-05-2.43424E-05 2.62669E-05-5.95702E-19-5.86974E-19
 -1       750 9.57525E-05-2.64117E-05-2.97175E-05 1.09497E-07-7.68875E-20-1.02152E-18
 -1       751 9.57881E-05-2.71522E-05-2.94154E-05 1.15777E-06-3.50482E-19-6.59602E-19
 -1       752 9.57090E-05-2.75456E-05-2.92129E-05 1.94891E-06-2.98226E-19-5.49903E-19
 -1       753 9.55720E-05-2.77048E-05-2.90859E-05 2.58395E-06-5.30884E-20-5.16933E-19
 -1       754 9.54142E-05-2.77154E-05-2.90137E-05 3.14526E-06-4.11697E-20-6.20377E-19
 -1       755 9.52663E-05-2.76512E-05-2.89778E-05 3.69404E-06 6.18138E-20 7.61316E-20
 -1       756 9.51641E-05-2.75861E-05-2.89619E-05 4.27003E-06-7.60086E-20 5.29004E-19
 -1       757 9.51573E-05-2.76043E-05-2.89512E-05 4.89086E-06 6.37983E-20 4.52246E-19
 -1       758 9.53197E-05-2.78091E-05-2.89330E-05 5.54996E-06-2.38899E-19 5.52987E-20
 -1       759 9.57589E-05-2.83284E-05-2.88987E-05 6.21110E-06-2.70493E-19-2.86064E-20
 -1       760 9.66247E-05-2.93141E-05-2.88474E-05 6.79748E-06-4.71897E-19-3.61297E-19
 -1       761 9.81093E-05-3.09252E-05-2.87932E-05 7.17080E-06-4.23921E-20-1.04743E-18
 -1       762 1.00422E-04-3.32761E-05-2.87776E-05 7.10189E-06 1.77565E-20-7.54502E-19
 -1       763 1.03715E-04-3.63279E-05-2.88823E-05 6.23583E-06-1.48061E-19-1.77921E-19
 -1       764 1.07927E-04-3.96887E-05-2.92490E-05 4.09123E-06 2.80054E-19 9.30771E-19
 -1       765 1.12471E-04-4.22880E-05-3.00864E-05 1.61183E-07-5.15004E-19 9.85543E-19
 -1       766 1.15942E-04-4.23126E-05-3.15719E-05-5.30222E-06 1.33155E-19 1.66372E-18
 -1       767 1.16275E-04-3.72644E-05-3.38932E-05-1.08363E-05 1.68166E-19 9.76659E-19
 -1       768 1.12670E-04-2.75576E-05-3.66029E-05-1.27650E-05-6.82566E-19 2.82098E-19
 -1       769 1.06888E-04-1.57599E-05-3.92247E-05 3.01467E-06-5.08604E-19 2.03558E-18
 -1       770 1.10541E-04-2.27225E-05-3.78022E-05 1.13066E-05-2.61730E-19 1.89362E-18
 -1       771 1.15323E-04-3.32839E-05-3.52182E-05 1.25006E-05 6.54723E-19 7.46047E-19
 -1       772 1.16562E-04-4.06452E-05-3.25613E-05 7.99353E-06 5.16082E-19 1.35921E-18
 -1       773 1.14208E-04-4.26161E-05-3.06817E-05 2.22236E-06-3.66716E-19 1.35905E-18
 -1       774 1.09924E-04-4.09140E-05-2.95737E-05-2.43304E-06-1.19564E-18 1.31187E-18
 -1       775 1.05437E-04-3.76806E-05-2.90392E-05-5.25803E-06-6.54162E-19 6.47469E-19
 -1       776 1.01687E-04-3.43765E-05-2.88485E-05-6.56449E-06-1.33609E-18 1.62010E-19
 -1       777 9.89228E-05-3.16505E-05-2.88315E-05-6.85602E-06-3.37729E-19 2.15462E-18
 -1       778 9.70633E-05-2.96738E-05-2.88813E-05-6.55073E-06-1.77398E-18 2.36635E-18
 -1       779 9.59077E-05-2.83818E-05-2.89396E-05-5.93215E-06-1.04278E-18 2.29413E-18
 -1       780 9.52499E-05-2.76291E-05-2.89802E-05-5.17645E-06-8.87351E-19 9.11672E-19
 -1       781 9.49200E-05-2.72639E-05-2.89953E-05-4.38994E-06 6.30727E-19 7.49772E-19
 -1       782 9.47924E-05-2.71563E-05-2.89868E-05-3.63515E-06-5.02066E-19-1.19025E-18
 -1       783 9.47805E-05-2.72061E-05-2.89603E-05-2.94689E-06 6.01048E-19-1.28308E-18
 -1       784 9.48275E-05-2.73416E-05-2.89224E-05-2.34209E-06 3.28971E-19-1.39974E-19
 -1       785 9.48981E-05-2.75139E-05-2.88789E-05-1.82582E-06-1.32200E-19-8.24616E-19
 -1       786 9.49719E-05-2.76919E-05-2.88343E-05-1.39531E-06-3.53321E-19-1.46356E-18
 -1       787 9.50390E-05-2.78577E-05-2.87919E-05-1.04496E-06-3.69349E-19-2.09702E-18
 -1       788 9.51052E-05-2.80026E-05-2.87582E-05-7.95232E-07-1.34768E-18-2.46414E-18
 -1       789 9.50061E-05-2.72260E-05-2.90485E-05-3.95551E-06 2.56599E-19 5.05817E-19
 -1       790 9.52441E-05-2.74984E-05-2.90337E-05-3.30013E-06 4.04264E-19 3.47837E-19
 -1       791 9.43001E-05-2.62996E-05-2.91427E-05-5.57242E-06 2.12373E-19 7.63507E-19
 -1       792 9.37868E-05-2.57006E-05-2.91793E-05-6.62075E-06 3.26310E-19 1.04107E-18
 -1       793 9.31502E-05-2.50851E-05-2.91702E-05-7.87193E-06 2.40370E-19 1.39124E-18
 -1       794 9.24190E-05-2.45770E-05-2.90746E-05-9.35487E-06 1.58871E-19 9.02287E-19
 -1       795 9.17039E-05-2.44069E-05-2.88413E-05-1.11101E-05 1.92791E-19 1.45909E-18
 -1       796 9.12773E-05-2.49793E-05-2.84132E-05-1.32080E-05 6.23063E-21 1.34176E-18
 -1       797 9.17105E-05-2.69639E-05-2.77457E-05-1.57525E-05-6.85204E-19 1.57062E-19
 -1       798 9.40693E-05-3.13679E-05-2.68585E-05-1.87914E-05-3.97718E-19-3.46771E-19
 -1       799 1.00544E-04-3.95026E-05-2.60365E-05-2.19111E-05-5.64907E-19-3.47760E-19
 -1       800 9.44044E-05-3.08177E-05-2.72515E-05 1.79438E-05-3.53780E-19 6.46533E-19
 -1       801 9.22445E-05-2.67537E-05-2.80644E-05 1.50568E-05-3.98172E-19 2.84542E-20
 -1       802 9.18113E-05-2.49284E-05-2.86631E-05 1.25813E-05 1.11608E-18-8.09291E-20
 -1       803 9.21654E-05-2.44066E-05-2.90389E-05 1.04620E-05 1.10327E-18-4.74178E-19
 -1       804 9.27818E-05-2.45677E-05-2.92339E-05 8.63744E-06 1.10224E-18 2.33758E-19
 -1       805 9.34055E-05-2.50331E-05-2.93018E-05 7.05936E-06-6.42286E-19-1.26202E-19
 -1       806 9.39352E-05-2.55933E-05-2.92889E-05 5.70042E-06-1.22277E-18 7.72050E-19
 -1       807 9.43461E-05-2.61418E-05-2.92300E-05 4.54305E-06-1.81358E-18 1.34787E-18
 -1       808 9.46470E-05-2.66315E-05-2.91492E-05 3.57129E-06-1.26430E-18-1.04896E-20
 -1       809 9.48583E-05-2.70466E-05-2.90619E-05 2.76770E-06-3.20682E-19 3.31074E-19
 -1       810 9.50014E-05-2.73868E-05-2.89775E-05 2.11292E-06 6.27981E-19 1.21842E-18
 -1       811 9.50947E-05-2.76590E-05-2.89008E-05 1.58641E-06 1.86927E-18 1.05834E-18
 -1       812 9.51524E-05-2.78718E-05-2.88344E-05 1.17087E-06 1.75818E-18 9.57924E-19
 -1       813 9.51837E-05-2.80336E-05-2.87785E-05 8.44635E-07 4.17428E-19-3.95549E-19
 -1       814 9.51716E-05-2.80893E-05-2.87498E-05 6.82068E-07-1.42851E-18 1.21218E-18
 -1       815 1.25894E-04-4.02792E-05-3.68374E-05 1.09130E-05 4.86647E-19 4.65034E-19
 -1       816 9.29689E-05-1.92996E-05-3.15736E-05 1.11050E-06 4.88464E-19-7.42786E-19
 -1       817 9.44664E-05-2.73854E-05-2.87490E-05-2.68531E-08-7.81429E-19 1.15814E-18
 -1       818 9.48498E-05-2.77682E-05-2.87493E-05-6.66986E-07-8.86924E-19-6.99112E-19
 -1       819 9.45209E-05-2.74428E-05-2.87478E-05-2.90331E-07-8.62577E-19 1.16651E-18
 -1       820 7.33702E-05-2.98521E-05-1.83353E-05-2.95976E-05-1.54168E-18-1.32926E-18
 -1       821 9.52377E-05-2.42927E-05-3.04048E-05 3.06174E-06 8.27153E-19 4.21862E-23
 -1       822 7.17353E-05-2.74820E-05-1.87145E-05 2.71163E-05-3.51539E-19 8.14052E-19
 -1       823 1.27421E-04-5.07770E-05-3.29207E-05-8.47645E-08 1.73450E-18-1.18906E-18
 -1       824 9.46547E-05-2.75757E-05-2.87482E-05-5.15511E-07-1.38464E-19 2.56818E-18
 -1       825 1.00426E-04-3.85844E-05-2.64207E-05 2.06341E-05-4.46519E-19-3.03110E-19
 -1       826 1.15839E-04-2.36409E-05-3.96839E-05 1.30297E-05-1.40802E-18 8.97921E-19
 -1       827 9.46991E-05-2.68190E-05-2.90912E-05-4.69654E-06 4.72006E-19 5.46632E-19
 -1       828 9.56650E-05-2.72014E-05-2.93415E-05-1.11778E-06 2.40886E-19 4.26468E-19
 -1       829 9.37192E-05-2.02884E-05-3.14676E-05-5.65150E-06-4.02078E-19-1.37640E-18
 -1       830 9.22608E-05-4.03348E-05-2.20921E-05 2.96699E-05 1.21277E-18-6.92271E-19
 -1       831 1.27921E-04-5.42384E-05-3.16451E-05 6.44824E-06-1.12932E-19 9.02553E-19
 -1       832 5.03733E-05-1.21470E-05-1.61012E-05 6.95161E-06-5.27900E-19 2.17582E-20
 -1       833 9.54936E-05-2.51481E-05-3.01481E-05-1.30172E-06-1.79373E-19-1.22562E-18
 -1       834 7.16548E-05-2.78882E-05-1.85151E-05-2.98136E-05 8.51268E-20-1.92435E-19
 -1       835 1.14260E-04-5.32597E-05-2.60462E-05-2.29288E-05 3.18385E-19-9.89514E-19
 -1       836 9.28404E-05-1.90835E-05-3.16112E-05 2.11919E-08 4.41794E-19-9.09267E-19
 -1       837 9.39312E-05-2.10239E-05-3.12451E-05 3.01411E-06 8.34205E-19-3.81263E-19
 -1       838 6.09769E-05-1.80727E-05-1.81719E-05 1.90001E-05 9.13207E-21 2.13190E-18
 -1       839 9.51137E-05-2.38020E-05-3.05631E-05-2.67711E-06-9.04932E-20-1.25956E-18
 -1       840 1.07445E-04-1.76180E-05-3.86209E-05-5.85202E-06-3.39634E-19 1.14560E-18
 -1       841 9.48124E-05-2.77016E-05-2.87617E-05 6.67780E-07-1.17494E-18 9.53317E-19
 -1       842 9.46186E-05-2.75189E-05-2.87571E-05 4.91472E-07 5.47915E-19-2.97904E-18
 -1       843 9.54305E-05-2.76125E-05-2.90648E-05-2.66639E-06 1.77940E-19 2.21918E-19
 -1       844 9.38850E-05-2.09824E-05-3.12488E-05-2.96848E-06-6.98255E-20-1.14835E-18
 -1       845 9.56629E-05-2.65129E-05-2.96356E-05 1.99570E-08 6.67621E-19 3.08150E-19
 -1       846 9.33475E-05-1.99485E-05-3.14569E-05 2.14217E-06 6.22304E-19-5.68825E-19
 -1       847 9.44992E-05-2.74106E-05-2.87524E-05 2.47689E-07 1.80376E-19 1.05864E-18
 -1       848 5.32451E-05-1.22724E-05-1.73857E-05-4.41774E-06 1.17119E-19 3.26981E-19
 -1       849 1.20672E-04-5.20279E-05-2.94183E-05-9.42935E-06 7.93117E-19-2.52384E-18
 -1       850 9.49700E-05-2.78770E-05-2.87536E-05-7.45478E-07-2.26414E-18-2.00652E-18
 -1       851 9.55228E-05-2.56200E-05-2.99583E-05 1.32984E-06 6.34245E-19 7.32700E-20
 -1       852 9.55734E-05-2.75328E-05-2.91602E-05-1.97289E-06 2.40043E-19 4.95071E-19
 -1       853 1.25781E-04-4.69399E-05-3.38441E-05-5.23090E-06-8.87631E-19-1.20636E-19
 -1       854 9.33165E-05-1.99153E-05-3.14586E-05-2.09874E-06 1.90190E-19-8.81739E-19
 -1       855 1.04158E-04-4.64359E-05-2.46832E-05 2.42146E-05 9.60145E-19 9.77684E-19
 -1       856 6.17312E-05-1.88836E-05-1.81491E-05-2.10608E-05-1.00622E-19-8.29986E-19
 -1       857 5.29461E-05-1.16280E-05-1.74682E-05-1.36102E-06 3.73084E-19 7.73262E-19
 -1       858 9.58381E-05-2.69391E-05-2.95282E-05 1.30368E-06-1.33399E-20-8.10097E-19
 -1       859 9.56672E-05-2.72727E-05-2.93120E-05 1.97958E-06-3.18564E-20-1.36669E-19
 -1       860 9.53769E-05-2.73458E-05-2.91562E-05 2.56477E-06 6.69948E-20 2.05082E-21
 -1       861 9.50147E-05-2.72508E-05-2.90417E-05 3.12588E-06 2.10506E-19-9.13438E-20
 -1       862 9.46235E-05-2.70738E-05-2.89499E-05 3.71727E-06 1.45368E-19-1.90195E-19
 -1       863 9.42533E-05-2.69058E-05-2.88632E-05 4.38061E-06-4.23847E-19-4.50134E-19
 -1       864 9.39723E-05-2.68533E-05-2.87653E-05 5.14483E-06-3.44639E-19-1.02878E-18
 -1       865 9.38802E-05-2.70485E-05-2.86421E-05 6.02521E-06-3.71918E-19-1.23402E-18
 -1       866 9.41244E-05-2.76580E-05-2.84855E-05 7.01720E-06-3.43663E-19-9.50044E-19
 -1       867 9.49168E-05-2.88870E-05-2.82984E-05 8.08256E-06-2.24555E-19-5.67043E-19
 -1       868 9.65578E-05-3.09735E-05-2.81062E-05 9.10894E-06 3.89155E-19-2.75165E-19
 -1       869 9.93835E-05-3.40994E-05-2.79791E-05 9.83623E-06 1.58583E-19 2.41137E-19
 -1       870 1.03795E-04-3.83446E-05-2.80481E-05 9.76202E-06 7.06723E-19 5.19546E-19
 -1       871 1.09840E-04-4.31735E-05-2.85741E-05 8.05895E-06 9.01379E-20 3.44470E-19
 -1       872 1.17016E-04-4.71960E-05-2.98895E-05 3.66371E-06 2.30767E-20 5.30971E-19
 -1       873 1.19593E-04-4.74558E-05-3.09249E-05-4.17909E-07 5.86569E-19 1.38199E-18
 -1       874 1.12930E-04-4.50965E-05-2.90524E-05-6.32929E-06-5.55195E-19 9.75612E-19
 -1       875 1.06187E-04-4.03021E-05-2.82322E-05-9.10726E-06-1.66591E-18 1.64321E-18
 -1       876 1.00990E-04-3.56389E-05-2.80086E-05-9.72907E-06-1.68524E-18 1.33785E-18
 -1       877 9.74514E-05-3.19441E-05-2.80751E-05-9.20648E-06 1.09910E-18 1.75077E-18
 -1       878 9.52713E-05-2.93533E-05-2.82505E-05-8.19169E-06-9.77522E-19 1.62584E-18
 -1       879 9.40718E-05-2.77099E-05-2.84406E-05-7.03968E-06-1.97586E-18 1.16809E-18
 -1       880 9.35252E-05-2.67864E-05-2.86022E-05-5.91304E-06-1.91357E-18 1.11016E-18
 -1       881 9.33856E-05-2.63704E-05-2.87207E-05-4.88108E-06-2.17915E-19 1.09550E-18
 -1       882 9.34802E-05-2.62888E-05-2.87962E-05-3.96895E-06-7.33869E-19 4.46890E-19
 -1       883 9.36934E-05-2.64106E-05-2.88354E-05-3.18152E-06 3.19409E-19 1.67243E-18
 -1       884 9.39518E-05-2.66421E-05-2.88470E-05-2.51421E-06-4.07602E-19-7.06166E-19
 -1       885 9.42114E-05-2.69194E-05-2.88394E-05-1.95829E-06 2.40318E-19-1.49015E-18
 -1       886 9.44473E-05-2.72006E-05-2.88200E-05-1.50223E-06-8.49485E-20-1.43415E-18
 -1       887 9.46497E-05-2.74636E-05-2.87943E-05-1.13227E-06 2.47093E-19-6.82054E-19
 -1       888 9.47686E-05-2.68896E-05-2.90910E-05-3.25607E-06-1.08696E-19 1.72743E-20
 -1       889 9.11601E-05-2.40004E-05-2.87826E-05-6.26098E-06 1.40603E-19 5.88945E-19
 -1       890 9.23888E-05-2.49251E-05-2.89130E-05-5.33847E-06 5.82591E-19 8.58457E-19
 -1       891 8.78485E-05-2.21598E-05-2.81527E-05-8.71091E-06-6.90719E-20 2.03036E-19
 -1       892 8.57931E-05-2.15943E-05-2.75153E-05-1.04593E-05 1.68522E-19 2.79161E-19
 -1       893 8.36249E-05-2.17181E-05-2.65337E-05-1.29013E-05 5.76820E-19-6.56471E-20
 -1       894 8.17289E-05-2.31972E-05-2.50822E-05-1.65844E-05-2.39283E-19-3.15879E-19
 -1       895 8.13568E-05-2.72848E-05-2.30816E-05-2.21522E-05-2.20172E-19-4.32826E-19
 -1       896 8.63370E-05-2.15766E-05-2.77541E-05 1.00011E-05 7.89364E-19 1.87938E-19
 -1       897 8.43592E-05-2.16971E-05-2.68529E-05 1.24516E-05 3.70883E-19 5.53285E-19
 -1       898 8.27423E-05-2.31523E-05-2.55269E-05 1.61389E-05-2.55461E-19-1.20270E-19
 -1       899 8.82064E-05-2.21002E-05-2.83312E-05 8.19610E-06 3.83858E-19-3.08884E-20
 -1       900 8.98281E-05-2.29089E-05-2.86796E-05 6.75437E-06 2.38808E-19 1.83017E-18
 -1       901 9.11602E-05-2.37939E-05-2.88712E-05 5.54625E-06-5.44211E-19 2.55423E-18
 -1       902 9.22157E-05-2.46435E-05-2.89595E-05 4.51225E-06-1.26487E-18-1.90009E-19
 -1       903 9.30312E-05-2.54046E-05-2.89828E-05 3.62573E-06-5.68238E-19-1.15675E-18
 -1       904 9.36492E-05-2.60579E-05-2.89677E-05 2.87254E-06-1.92429E-18-2.04677E-18
 -1       905 9.41103E-05-2.66022E-05-2.89320E-05 2.24177E-06-1.33168E-18-2.08312E-19
 -1       906 9.44503E-05-2.70465E-05-2.88872E-05 1.72190E-06 1.00619E-18-5.14183E-19
 -1       907 9.46932E-05-2.74004E-05-2.88401E-05 1.29713E-06 1.70559E-18 7.41611E-19
 -1       908 9.48692E-05-2.76764E-05-2.87965E-05 9.61391E-07 1.35933E-18 2.77453E-18
 -1       909 6.43939E-05-1.94186E-05-1.90202E-05-1.93958E-05 1.08079E-19-8.10505E-19
 -1       910 9.49993E-05-2.78966E-05-2.87582E-05 7.05880E-07-1.43391E-18 3.38146E-18
 -1       911 9.42054E-05-2.71084E-05-2.87559E-05-2.24301E-07-2.68338E-19 1.05112E-18
 -1       912 8.21153E-05-2.67970E-05-2.36011E-05 2.16193E-05-6.34241E-19 4.41193E-19
 -1       913 9.52931E-05-2.43542E-05-3.04029E-05 1.87399E-06 4.24471E-19-2.07399E-19
 -1       914 8.96515E-05-2.30366E-05-2.85492E-05-7.36044E-06 2.63660E-19 4.60630E-19
 -1       915 8.25343E-05-2.99637E-05-2.24446E-05 2.36403E-05 6.72894E-19-8.25037E-19
 -1       916 9.29580E-05-1.92876E-05-3.15741E-05-1.07081E-06 3.98062E-19-9.66132E-19
 -1       917 9.96843E-05-4.34550E-05-2.40011E-05-2.57765E-05 1.91311E-18 1.11603E-19
 -1       918 9.58240E-05-2.62312E-05-2.98253E-05 4.62036E-07-3.78978E-22-9.76062E-19
 -1       919 1.19016E-04-5.16040E-05-2.88965E-05 1.06309E-05 6.85620E-19 8.80451E-21
 -1       920 6.48337E-05-1.67140E-05-2.05425E-05 1.30407E-05-1.17471E-19 2.73109E-19
 -1       921 9.55382E-05-2.50181E-05-3.02231E-05-6.11438E-07 3.12480E-20-1.01985E-18
 -1       922 9.57732E-05-2.69343E-05-2.95024E-05-1.29751E-06 2.65042E-19 1.27008E-19
 -1       923 9.41850E-05-2.70803E-05-2.87593E-05 1.31181E-07-8.21847E-19-5.66405E-22
 -1       924 1.23424E-04-4.33779E-05-3.44028E-05 7.68694E-06 2.16172E-18 4.51932E-20
 -1       925 9.52403E-05-2.71700E-05-2.91730E-05-2.66570E-06 1.23464E-19-2.62765E-19
 -1       926 9.41541E-05-2.64026E-05-2.90363E-05-3.86932E-06-5.80126E-20 9.27541E-19
 -1       927 9.48342E-05-2.76908E-05-2.87756E-05-9.25916E-07-5.63041E-19-1.07965E-18
 -1       928 8.48438E-05-3.19608E-05-2.25982E-05-2.42449E-05 7.05221E-19-8.22681E-20
 -1       929 9.33726E-05-2.57383E-05-2.89861E-05-4.55199E-06 4.56236E-19 1.24908E-18
 -1       930 9.41524E-05-2.15993E-05-3.10942E-05 3.54625E-07 3.98443E-19-7.10769E-19
 -1       931 9.21198E-05-3.61065E-05-2.39668E-05 2.28703E-05 6.65288E-19-5.76934E-19
 -1       932 9.45011E-05-2.73452E-05-2.87814E-05 7.63253E-07-2.91013E-19-9.94620E-19
 -1       933 9.43402E-05-2.72367E-05-2.87586E-05-5.43760E-07-8.62386E-19 2.19507E-18
 -1       934 9.50755E-05-2.36745E-05-3.05993E-05-1.63865E-06-2.65627E-20-1.09356E-18
 -1       935 9.43461E-05-2.19861E-05-3.10134E-05 9.82817E-07 4.30953E-19-7.65387E-19
 -1       936 6.30642E-05-1.42241E-05-2.08283E-05 5.21622E-06 4.08315E-19-3.00267E-19
 -1       937 1.10062E-04-4.69664E-05-2.70203E-05-1.61439E-05 8.56298E-19-1.84674E-18
 -1       938 7.58137E-05-2.44442E-05-2.19425E-05-2.08000E-05 6.56062E-19-9.19024E-19
 -1       939 9.57820E-05-2.62662E-05-2.97927E-05-3.56838E-07 4.33102E-19 4.05078E-19
 -1       940 9.46742E-05-2.27066E-05-3.08409E-05-1.50104E-06 9.74200E-20-7.45967E-19
 -1       941 9.55789E-05-2.72046E-05-2.93033E-05-2.03778E-06 2.02780E-19 4.14035E-20
 -1       942 9.46132E-05-2.74918E-05-2.87664E-05-7.94209E-07-1.70929E-18 1.69814E-19
 -1       943 7.03609E-05-1.76434E-05-2.25341E-05-1.34519E-05 3.28240E-19-4.35714E-19
 -1       944 6.40580E-05-1.52968E-05-2.08338E-05-9.78041E-06-1.12477E-18-3.02123E-19
 -1       945 9.72767E-05-3.84582E-05-2.52001E-05-2.02186E-05 8.29733E-19-1.72540E-19
 -1       946 9.54009E-05-2.69607E-05-2.93315E-05 1.82198E-06 1.28658E-19-2.88178E-19
 -1       947 9.49250E-05-2.69030E-05-2.91523E-05 2.33019E-06 4.47720E-19-2.68076E-19
 -1       948 9.43345E-05-2.66680E-05-2.90000E-05 2.86553E-06-6.51220E-20-4.56043E-20
 -1       949 9.36755E-05-2.63480E-05-2.88546E-05 3.48029E-06-1.66283E-19-5.56871E-19
 -1       950 9.30021E-05-2.60441E-05-2.86964E-05 4.22426E-06-4.16906E-19-1.45388E-19
 -1       951 9.23873E-05-2.58743E-05-2.85057E-05 5.14767E-06-1.24758E-19-1.37145E-19
 -1       952 9.19421E-05-2.59909E-05-2.82650E-05 6.30248E-06-3.91014E-20 1.95074E-19
 -1       953 9.18342E-05-2.65892E-05-2.79623E-05 7.73697E-06-9.24356E-20-2.84904E-20
 -1       954 9.23051E-05-2.79121E-05-2.75977E-05 9.48412E-06 1.61621E-19 3.02766E-19
 -1       955 9.37989E-05-3.03612E-05-2.71964E-05 1.15893E-05 4.12902E-19 1.39793E-19
 -1       956 9.68664E-05-3.42105E-05-2.68419E-05 1.37680E-05 6.08397E-19-9.54383E-20
 -1       957 1.02276E-04-3.98342E-05-2.67592E-05 1.52984E-05 7.18646E-20-1.54361E-19
 -1       958 1.05236E-04-4.24499E-05-2.69155E-05-1.51570E-05-1.23879E-20-9.70831E-19
 -1       959 9.86658E-05-3.61478E-05-2.67897E-05-1.42441E-05-9.40038E-19 4.71761E-19
 -1       960 9.46502E-05-3.15132E-05-2.70622E-05-1.22799E-05-1.17301E-19 2.54052E-18
 -1       961 9.25076E-05-2.84595E-05-2.74494E-05-1.01061E-05-4.71308E-19 8.13062E-19
 -1       962 9.15479E-05-2.66189E-05-2.78266E-05-8.15895E-06-1.78471E-18-4.16751E-19
 -1       963 9.13175E-05-2.56478E-05-2.81441E-05-6.51557E-06-1.84535E-18 1.09886E-18
 -1       964 9.15068E-05-2.52678E-05-2.83881E-05-5.16677E-06-5.59550E-19 8.22175E-19
 -1       965 9.19144E-05-2.52694E-05-2.85621E-05-4.07226E-06-2.44791E-19 8.47123E-19
 -1       966 9.24126E-05-2.54997E-05-2.86769E-05-3.18865E-06 4.68499E-19 1.60993E-18
 -1       967 9.29227E-05-2.58505E-05-2.87452E-05-2.47777E-06-1.92891E-18-9.54654E-21
 -1       968 9.33994E-05-2.62482E-05-2.87790E-05-1.90761E-06-1.45275E-18-1.18148E-19
 -1       969 9.38195E-05-2.66446E-05-2.87891E-05-1.45564E-06 1.06263E-18 1.82314E-19
 -1       970 9.41716E-05-2.70102E-05-2.87834E-05-1.09296E-06 6.66775E-19 7.37501E-19
 -1       971 7.93723E-05-1.86742E-05-2.60194E-05-7.82803E-06 1.78349E-19-7.72125E-19
 -1       972 8.30688E-05-1.98137E-05-2.71112E-05-6.52703E-06 3.00754E-19 4.57940E-20
 -1       973 9.41498E-05-2.15960E-05-3.10944E-05-3.15959E-07 3.09013E-19-1.01495E-18
 -1       974 8.00697E-05-1.86686E-05-2.63175E-05 7.67178E-06-2.35128E-19 6.82335E-19
 -1       975 6.31517E-05-1.47468E-05-2.06741E-05 9.66350E-06 1.04708E-19 6.57483E-19
 -1       976 8.61452E-05-2.08957E-05-2.79645E-05 5.30288E-06-3.21248E-19 2.00767E-18
 -1       977 8.34545E-05-1.97194E-05-2.73160E-05 6.29657E-06-1.18341E-19 2.34739E-18
 -1       978 7.59116E-05-1.79643E-05-2.48188E-05 9.88311E-06-9.88181E-19-5.47527E-19
 -1       979 8.82788E-05-2.20721E-05-2.83744E-05 4.48995E-06 7.08453E-21 2.04500E-18
 -1       980 8.99609E-05-2.31759E-05-2.86222E-05 3.77630E-06 8.47634E-19 1.27821E-18
 -1       981 9.12767E-05-2.41675E-05-2.87611E-05 3.13457E-06-6.06654E-19 8.81899E-19
 -1       982 9.22971E-05-2.50302E-05-2.88287E-05 2.56001E-06-8.80511E-19 2.22880E-18
 -1       983 9.30812E-05-2.57622E-05-2.88511E-05 2.05416E-06-1.04507E-18 3.39649E-19
 -1       984 9.36787E-05-2.63713E-05-2.88463E-05 1.62086E-06 1.35637E-19-2.69426E-18
 -1       985 9.41271E-05-2.68656E-05-2.88263E-05 1.25742E-06 8.64123E-19-7.71759E-19
 -1       986 9.56767E-05-2.66893E-05-2.95661E-05-1.30657E-06 4.16038E-19-3.81506E-19
 -1       987 9.53004E-05-2.42338E-05-3.04568E-05-6.76135E-07 5.79962E-20-5.85877E-19
 -1       988 9.56209E-05-2.54824E-05-3.00596E-05 6.10342E-07 4.46385E-19 8.51389E-20
 -1       989 9.43406E-05-2.19745E-05-3.10136E-05-9.64401E-07 1.76832E-19-6.73678E-19
 -1       990 9.42898E-05-2.71627E-05-2.87687E-05 4.77221E-07-5.47039E-19-1.56012E-18
 -1       991 9.50180E-05-2.34749E-05-3.06616E-05 1.41694E-06 3.01595E-19-2.50149E-19
 -1       992 9.57963E-05-2.61509E-05-2.98478E-05 6.63275E-07 9.97153E-22-3.47925E-19
 -1       993 1.07578E-04-4.53123E-05-2.66578E-05 1.69776E-05 1.06655E-19-4.09481E-19
 -1       994 7.74995E-05-2.27075E-05-2.34668E-05 1.55701E-05 3.84086E-19-2.45021E-19
 -1       995 7.54386E-05-1.80138E-05-2.46025E-05-9.84485E-06-1.24085E-19-9.40202E-20
 -1       996 9.02722E-05-2.35547E-05-2.85932E-05-4.33257E-06 6.33602E-19 1.07467E-19
 -1       997 9.56697E-05-2.53845E-05-3.01234E-05 7.01155E-08-6.86102E-21-4.73438E-19
 -1       998 9.57128E-05-2.67470E-05-2.95569E-05 1.28503E-06 2.35647E-19-3.46661E-19
 -1       999 9.38211E-05-2.67156E-05-2.87596E-05-8.46008E-08-1.99477E-19 3.73504E-18
 -1      1000 6.68357E-05-1.44220E-05-2.24376E-05 5.16710E-08-1.02428E-18 1.51625E-18
 -1      1001 7.17098E-05-1.71708E-05-2.33608E-05 7.38400E-06 9.66319E-19-2.25782E-19
 -1      1002 9.47746E-05-2.66596E-05-2.91921E-05-2.36919E-06-1.66707E-19-3.07551E-20
 -1      1003 8.83731E-05-2.23622E-05-2.82904E-05-4.93282E-06 4.69905E-19 1.20360E-19
 -1      1004 9.18059E-05-2.46202E-05-2.87941E-05-3.79675E-06 7.18885E-19-2.17636E-19
 -1      1005 9.40136E-05-2.62021E-05-2.90621E-05-2.83105E-06-2.66844E-19-8.41911E-20
 -1      1006 9.49852E-05-2.34437E-05-3.06605E-05 1.77943E-08 2.44297E-19-9.27656E-19
 -1      1007 9.57724E-05-2.61177E-05-2.98518E-05-6.05127E-07 4.49449E-19-1.34175E-19
 -1      1008 8.60114E-05-2.10881E-05-2.78246E-05-5.62992E-06 9.72641E-20 5.46977E-20
 -1      1009 8.55008E-05-2.90552E-05-2.41568E-05-1.91145E-05 5.18813E-19 2.90292E-19
 -1      1010 9.37554E-05-2.65772E-05-2.87907E-05 8.30365E-07 4.33421E-19-2.45190E-18
 -1      1011 8.88847E-05-3.06877E-05-2.49526E-05 1.79258E-05 7.31339E-19-4.81164E-19
 -1      1012 9.39308E-05-2.68219E-05-2.87609E-05-5.21945E-07 8.11868E-19 1.17222E-18
 -1      1013 9.53317E-05-2.68413E-05-2.93530E-05-1.87645E-06 2.16142E-19-3.65214E-19
 -1      1014 9.50625E-05-2.36117E-05-3.06205E-05 2.95611E-07 3.74918E-19-7.73907E-19
 -1      1015 8.79055E-05-2.19747E-05-2.82563E-05 2.29118E-06 2.84810E-19 1.83314E-18
 -1      1016 7.02775E-05-1.54674E-05-2.34814E-05-1.59585E-06 1.43855E-19 3.29124E-19
 -1      1017 9.42818E-05-2.63973E-05-2.90937E-05 1.85105E-06 4.36332E-19-6.57480E-19
 -1      1018 9.34414E-05-2.59904E-05-2.89077E-05 2.33463E-06-1.91408E-19-4.18002E-19
 -1      1019 9.24824E-05-2.54904E-05-2.87108E-05 2.94445E-06 2.88018E-20-7.03229E-20
 -1      1020 9.14530E-05-2.50028E-05-2.84790E-05 3.74026E-06 1.63906E-20 3.89384E-19
 -1      1021 9.04031E-05-2.46353E-05-2.81869E-05 4.80764E-06-4.62709E-19-1.97188E-19
 -1      1022 8.94335E-05-2.45496E-05-2.78085E-05 6.23715E-06-3.73087E-19-7.05011E-19
 -1      1023 8.86770E-05-2.49390E-05-2.73200E-05 8.15990E-06 3.30450E-19-7.78278E-19
 -1      1024 8.85096E-05-2.61417E-05-2.67147E-05 1.06773E-05 5.41360E-19-9.19757E-19
 -1      1025 8.29210E-05-1.93814E-05-2.72323E-05 2.57928E-06 6.70931E-19 1.28314E-18
 -1      1026 9.50653E-05-2.36132E-05-3.06226E-05-2.73947E-07 9.58671E-20-8.64244E-19
 -1      1027 8.93746E-05-2.95859E-05-2.56199E-05-1.56451E-05 4.84219E-20 9.64484E-19
 -1      1028 8.81892E-05-2.65656E-05-2.64107E-05-1.19341E-05-7.88972E-19-6.71390E-19
 -1      1029 8.80390E-05-2.48650E-05-2.70748E-05-9.00705E-06-1.37388E-18-4.04835E-19
 -1      1030 8.84991E-05-2.40887E-05-2.76046E-05-6.78355E-06-8.98402E-19-5.30373E-19
 -1      1031 8.92507E-05-2.39045E-05-2.80056E-05-5.10902E-06-1.66931E-18-4.72559E-19
 -1      1032 9.01130E-05-2.40895E-05-2.82958E-05-3.84928E-06-1.67797E-19-6.99526E-19
 -1      1033 9.09804E-05-2.44889E-05-2.84964E-05-2.89930E-06 3.75684E-19-4.74053E-20
 -1      1034 9.17919E-05-2.49948E-05-2.86273E-05-2.18064E-06-1.47997E-18-1.24001E-18
 -1      1035 9.25147E-05-2.55330E-05-2.87063E-05-1.63577E-06-1.27304E-18 1.95986E-18
 -1      1036 9.31310E-05-2.60532E-05-2.87480E-05-1.21759E-06 2.39803E-20 4.97721E-18
 -1      1037 9.36512E-05-2.65334E-05-2.87645E-05-9.02329E-07 3.34544E-19 2.48045E-18
 -1      1038 8.28435E-05-1.96570E-05-2.70799E-05-2.57178E-06 9.54759E-20 2.40768E-19
 -1      1039 7.45977E-05-1.98464E-05-2.34492E-05-1.26245E-05-2.02784E-18-1.73174E-18
 -1      1040 8.57175E-05-2.07287E-05-2.78529E-05 2.46811E-06 1.38880E-19 1.17051E-18
 -1      1041 7.44482E-05-1.64176E-05-2.48729E-05 2.79131E-06-1.18621E-18 1.32166E-18
 -1      1042 8.96284E-05-2.31041E-05-2.85106E-05 2.05727E-06-2.60150E-19 2.28032E-18
 -1      1043 9.09853E-05-2.41053E-05-2.86629E-05 1.78924E-06-8.52652E-19 1.73548E-18
 -1      1044 9.20493E-05-2.49740E-05-2.87466E-05 1.51122E-06-7.29147E-21-2.44244E-19
 -1      1045 9.28761E-05-2.57119E-05-2.87851E-05 1.24502E-06 1.31854E-18 4.60025E-19
 -1      1046 9.33522E-05-2.61702E-05-2.87923E-05 1.02816E-06 1.51916E-18-2.63320E-18
 -1      1047 9.30332E-05-2.55094E-05-2.89390E-05-3.29813E-06 4.58169E-20-4.08664E-19
 -1      1048 9.55709E-05-2.50870E-05-3.02065E-05 2.65090E-07 3.52599E-19-2.66908E-19
 -1      1049 7.92929E-05-1.79469E-05-2.62929E-05 2.65779E-06-1.42461E-18 1.59843E-18
 -1      1050 9.49672E-05-2.66219E-05-2.92912E-05 1.44033E-06 1.30949E-19-4.06495E-19
 -1      1051 9.37131E-05-2.65863E-05-2.87684E-05 3.48569E-07-5.01911E-19-1.24513E-18
 -1      1052 9.56906E-05-2.61516E-05-2.98028E-05 6.50412E-07 1.64000E-19-8.14804E-19
 -1      1053 9.53137E-05-2.42638E-05-3.04475E-05 3.61463E-07 2.15057E-19-6.49296E-19
 -1      1054 9.54570E-05-2.65757E-05-2.95209E-05 1.05391E-06 2.52792E-19-6.99783E-19
 -1      1055 8.46723E-05-2.54142E-05-2.53986E-05 1.35790E-05 5.01818E-19-5.74774E-19
 -1      1056 7.86788E-05-2.02182E-05-2.50539E-05 8.70535E-06 1.73067E-19-6.21488E-19
 -1      1057 7.88977E-05-1.80689E-05-2.60604E-05-2.48784E-06 2.93188E-19 1.12691E-18
 -1      1058 7.32058E-05-1.69269E-05-2.41091E-05-5.54163E-06-8.34907E-19 3.62406E-19
 -1      1059 7.52382E-05-1.69037E-05-2.49695E-05-2.12181E-06 9.27096E-20 1.13693E-18
 -1      1060 9.54578E-05-2.48241E-05-3.02724E-05-4.06816E-09 3.70315E-19-6.05887E-19
 -1      1061 8.83079E-05-2.24412E-05-2.82290E-05-2.53869E-06 5.10665E-19 3.01151E-19
 -1      1062 9.02510E-05-2.36386E-05-2.85486E-05-2.39718E-06 3.82281E-19 1.72205E-19
 -1      1063 9.41594E-05-2.61591E-05-2.91433E-05-1.74800E-06-3.45824E-19-3.60769E-19
 -1      1064 8.24343E-05-2.38319E-05-2.51159E-05-1.31370E-05-1.38169E-18-2.09194E-18
 -1      1065 9.56797E-05-2.60670E-05-2.98343E-05-6.38855E-07 6.69157E-19-5.20546E-19
 -1      1066 9.54785E-05-2.48514E-05-3.02693E-05 6.56683E-08 1.89895E-19-7.96083E-19
 -1      1067 9.56697E-05-2.55126E-05-3.00669E-05 2.91090E-07 3.82453E-20-7.95827E-19
 -1      1068 9.49309E-05-2.64942E-05-2.93302E-05-1.44539E-06-1.12945E-19-1.01077E-19
 -1      1069 7.55318E-05-1.76639E-05-2.48048E-05 3.76919E-06 2.79855E-19 2.07567E-19
 -1      1070 9.34045E-05-2.63140E-05-2.87532E-05-3.79661E-07-1.04885E-18 2.83378E-18
 -1      1071 8.58777E-05-2.10958E-05-2.77643E-05-2.59585E-06 1.78095E-19 3.05326E-19
 -1      1072 9.31723E-05-2.60824E-05-2.87530E-05 1.31738E-07 1.22265E-18 1.87017E-19
 -1      1073 9.54502E-05-2.64928E-05-2.95535E-05-1.08474E-06 1.90787E-19-2.88115E-19
 -1      1074 8.99272E-05-2.34399E-05-2.84947E-05 5.75667E-07 1.30114E-19 1.51764E-18
 -1      1075 9.35123E-05-2.58440E-05-2.90003E-05 1.11019E-06 1.75577E-19-6.86526E-19
 -1      1076 9.24143E-05-2.52497E-05-2.87853E-05 1.50108E-06 4.93209E-20-7.77663E-19
 -1      1077 9.11285E-05-2.45362E-05-2.85371E-05 2.07716E-06 3.44752E-20-1.04691E-18
 -1      1078 8.96547E-05-2.37882E-05-2.82263E-05 2.88421E-06-3.23862E-19-1.17362E-18
 -1      1079 8.80467E-05-2.31324E-05-2.78188E-05 4.01136E-06-1.31859E-19-4.14703E-19
 -1      1080 8.63171E-05-2.26842E-05-2.72725E-05 5.63250E-06-2.64052E-19 2.70074E-19
 -1      1081 8.45196E-05-2.25419E-05-2.65548E-05 7.81357E-06 9.83661E-20 7.93885E-20
 -1      1082 8.08650E-05-1.92123E-05-2.64257E-05 1.74008E-06-3.44638E-19-2.63294E-19
 -1      1083 9.55196E-05-2.62021E-05-2.97080E-05 3.86607E-07 2.35838E-19-4.93085E-19
 -1      1084 9.31380E-05-2.55428E-05-2.89696E-05-2.01088E-06 2.28237E-19-2.50853E-19
 -1      1085 8.38042E-05-2.26701E-05-2.61992E-05-9.31958E-06-7.30451E-19-2.64472E-18
 -1      1086 8.53161E-05-2.23073E-05-2.70040E-05-6.62224E-06-9.41082E-20-2.42216E-18
 -1      1087 8.68283E-05-2.24429E-05-2.75939E-05-4.70931E-06-8.79786E-19-8.63670E-19
 -1      1088 8.82501E-05-2.28788E-05-2.80164E-05-3.34963E-06-1.67327E-18-1.52186E-18
 -1      1089 8.95380E-05-2.34811E-05-2.83102E-05-2.38223E-06-4.00982E-21-3.47018E-18
 -1      1090 9.06721E-05-2.41558E-05-2.85071E-05-1.69353E-06 7.54383E-20-2.32073E-18
 -1      1091 9.16479E-05-2.48393E-05-2.86324E-05-1.20312E-06 1.39130E-18 7.86656E-19
 -1      1092 9.24564E-05-2.54758E-05-2.87059E-05-8.45721E-07 1.78683E-18 1.22600E-18
 -1      1093 9.56319E-05-2.53681E-05-3.01146E-05-1.81808E-07 3.48518E-19-6.00568E-19
 -1      1094 9.11756E-05-2.43595E-05-2.86355E-05 6.12853E-07 6.90340E-19 3.63656E-19
 -1      1095 8.83723E-05-2.24188E-05-2.82660E-05 4.28363E-07 4.90621E-19 1.20752E-18
 -1      1096 9.21719E-05-2.51671E-05-2.87160E-05 5.91433E-07 1.52576E-18-1.28254E-18
 -1      1097 9.44171E-05-2.62580E-05-2.92106E-05 8.23921E-07 3.88578E-19-5.74050E-19
 -1      1098 9.50987E-05-2.64042E-05-2.94399E-05 5.97453E-07 3.81933E-19-5.64864E-19
 -1      1099 7.69427E-05-1.76163E-05-2.54201E-05-2.71664E-06-1.44787E-18 4.84124E-19
 -1      1100 8.42174E-05-2.05725E-05-2.72766E-05 7.07603E-07 1.69449E-19-1.52656E-19
 -1      1101 9.55431E-05-2.61109E-05-2.97566E-05-4.16171E-07 1.75337E-19-7.52927E-19
 -1      1102 9.32081E-05-2.60843E-05-2.87669E-05 5.75788E-07 1.77411E-18-1.93952E-18
 -1      1103 8.68663E-05-2.18369E-05-2.78713E-05-1.67806E-08 7.04650E-19-4.99962E-20
 -1      1104 8.09537E-05-1.89131E-05-2.65893E-05-1.35242E-06 8.23505E-19-1.42969E-18
 -1      1105 8.64376E-05-2.13114E-05-2.79116E-05 1.12008E-07-6.81196E-19 4.73147E-21
 -1      1106 9.56115E-05-2.55620E-05-3.00207E-05-2.20779E-07 3.40762E-19-1.09011E-18
 -1      1107 8.90383E-05-2.30280E-05-2.82924E-05-4.49349E-07 3.93176E-19-1.88447E-19
 -1      1108 9.35155E-05-2.57327E-05-2.90501E-05-7.88866E-07 8.08317E-20-1.04648E-18
 -1      1109 9.18423E-05-2.46821E-05-2.87820E-05-2.22043E-06 2.57475E-19-3.23477E-19
 -1      1110 7.87524E-05-1.99398E-05-2.52030E-05-8.44997E-06-1.57318E-18-1.50959E-18
 -1      1111 8.40190E-05-2.01377E-05-2.73783E-05-4.48929E-07 1.07690E-19-1.55835E-18
 -1      1112 9.27294E-05-2.56491E-05-2.87488E-05 5.93845E-07 3.00264E-18-2.08328E-18
 -1      1113 9.44700E-05-2.62034E-05-2.92572E-05-7.24035E-07 1.62239E-19-7.94276E-19
 -1      1114 9.51540E-05-2.63535E-05-2.94861E-05-5.99272E-07-4.29307E-22-5.93031E-19
 -1      1115 9.56149E-05-2.56873E-05-2.99665E-05 2.17623E-07 1.78837E-19-5.10767E-19
 -1      1116 9.55925E-05-2.55699E-05-3.00095E-05-2.26005E-08 3.81275E-19-5.70620E-19
 -1      1117 9.13486E-05-2.44883E-05-2.86560E-05 3.37576E-07-2.45597E-19-4.95360E-19
 -1      1118 8.17517E-05-2.02535E-05-2.63551E-05-5.63399E-06 5.85071E-19-1.38473E-18
 -1      1119 8.42580E-05-2.08651E-05-2.71677E-05-3.71444E-06 5.31158E-19-1.37641E-18
 -1      1120 8.63608E-05-2.16389E-05-2.77374E-05-2.40650E-06-1.11705E-18-1.13792E-18
 -1      1121 8.81287E-05-2.24905E-05-2.81303E-05-1.52502E-06-9.16164E-19-2.58854E-19
 -1      1122 8.96103E-05-2.33568E-05-2.83941E-05-9.40064E-07-4.68607E-19 8.54352E-19
 -1      1123 9.08417E-05-2.41905E-05-2.85646E-05-5.60185E-07 1.58225E-18-1.87997E-19
 -1      1124 9.18455E-05-2.49552E-05-2.86677E-05-3.21609E-07 1.93172E-18-2.17989E-19
 -1      1125 9.24972E-05-2.51430E-05-2.88651E-05-3.35755E-07-7.14848E-20-7.51048E-19
 -1      1126 9.23061E-05-2.53099E-05-2.87121E-05 1.78478E-07 2.07882E-18-1.17486E-18
 -1      1127 1.16579E-04 2.56842E-10-4.17635E-05-4.13604E-05-1.85500E-19 2.66265E-18
 -1      1128 8.85403E-05 7.18966E-11-3.72036E-05-2.40956E-05-7.84564E-20-8.18446E-19
 -1      1129 8.40510E-05 4.14920E-11-3.57532E-05-1.78010E-05-4.54221E-20-2.06999E-18
 -1      1130 8.23639E-05 3.20566E-11-3.50830E-05-1.37520E-05-1.87406E-20-2.56040E-18
 -1      1131 8.15968E-05 2.72798E-11-3.47644E-05-1.04456E-05-9.78058E-21-2.69669E-18
 -1      1132 8.12120E-05 2.44569E-11-3.46087E-05-7.56186E-06 6.42554E-21-2.64700E-18
 -1      1133 8.10130E-05 2.27198E-11-3.45308E-05-4.92072E-06 1.18982E-20-2.50286E-18
 -1      1134 8.09159E-05 2.17692E-11-3.44943E-05-2.40132E-06 1.42705E-20-2.32303E-18
 -1      1135 8.08889E-05 2.14800E-11-3.44843E-05 5.05770E-08 1.47321E-20-2.09250E-18
 -1      1136 8.09221E-05 2.18173E-11-3.44964E-05 2.50526E-06 2.97851E-20-1.88869E-18
 -1      1137 8.10254E-05 2.28278E-11-3.45350E-05 5.03377E-06 3.21608E-20-1.64415E-18
 -1      1138 8.12318E-05 2.46292E-11-3.46146E-05 7.69247E-06 3.82488E-20-1.27021E-18
 -1      1139 8.16207E-05 2.75951E-11-3.47722E-05 1.06057E-05 4.91411E-20-7.63111E-19
 -1      1140 8.23896E-05 3.25303E-11-3.50937E-05 1.39580E-05 5.45277E-20-4.56471E-20
 -1      1141 8.40478E-05 4.19836E-11-3.57727E-05 1.80540E-05 6.76568E-20 1.17573E-18
 -1      1142 8.82362E-05 6.67253E-11-3.72721E-05 2.39421E-05 5.27278E-20 3.21401E-18
 -1      1143 1.06361E-04 1.63546E-10-4.05427E-05 3.61048E-05 5.25160E-20 6.68934E-18
 -1      1144 1.29850E-04-2.56841E-05-4.01700E-05-2.60338E-05-6.62803E-19 4.76625E-18
 -1      1145 9.71903E-05-2.87835E-05-3.14954E-05-6.77183E-07-2.18799E-19 3.23641E-18
 -1      1146 8.99507E-05-2.69652E-05-2.78294E-05 3.85764E-07-7.89196E-20 1.47766E-18
 -1      1147 8.80966E-05-2.65282E-05-2.65988E-05 2.49034E-07-6.15555E-20 1.34784E-19
 -1      1148 8.78136E-05-2.64248E-05-2.63666E-05 1.63968E-07-3.52131E-20-6.67885E-19
 -1      1149 8.82825E-05-2.65353E-05-2.64861E-05 1.16435E-07-9.95164E-20-1.26457E-18
 -1      1150 8.91315E-05-2.67695E-05-2.67394E-05 8.66824E-08-2.74459E-20-1.52278E-18
 -1      1151 9.01831E-05-2.70736E-05-2.70552E-05 6.69732E-08-6.20845E-20-1.92449E-18
 -1      1152 9.13526E-05-2.74185E-05-2.74070E-05 5.37087E-08-1.09891E-21-2.17427E-18
 -1      1153 9.26068E-05-2.77918E-05-2.77853E-05 4.52752E-08 3.99774E-20-3.15594E-18
 -1      1154 9.39443E-05-2.81917E-05-2.81895E-05 4.09682E-08 1.14882E-19-3.43430E-18
 -1      1155 9.53819E-05-2.86223E-05-2.86240E-05 4.04564E-08 1.15847E-19-2.92379E-18
 -1      1156 9.69433E-05-2.90901E-05-2.90950E-05 4.34573E-08-1.01579E-19-3.86264E-18
 -1      1157 9.86458E-05-2.95994E-05-2.96064E-05 4.94386E-08-3.95581E-20-3.96503E-18
 -1      1158 1.00485E-04-3.01482E-05-3.01549E-05 5.72402E-08-3.00148E-20-3.47261E-18
 -1      1159 1.02414E-04-3.07216E-05-3.07241E-05 6.45598E-08-2.28828E-19-3.15328E-18
 -1      1160 1.04319E-04-3.12850E-05-3.12773E-05 6.73352E-08-1.53430E-20-3.03205E-18
 -1      1161 1.05994E-04-3.17765E-05-3.17506E-05 5.92503E-08-1.89182E-19-3.17150E-18
 -1      1162 1.07125E-04-3.21029E-05-3.20508E-05 3.19482E-08-1.64543E-19-4.60504E-18
 -1      1163 1.07304E-04-3.21442E-05-3.20621E-05-2.29792E-08 1.67564E-19-5.03807E-18
 -1      1164 1.06101E-04-3.17755E-05-3.16703E-05-1.08988E-07-6.64855E-20-5.13916E-18
 -1      1165 1.03217E-04-3.09134E-05-3.08086E-05-2.16663E-07 3.15652E-21-3.00210E-18
 -1      1166 9.87121E-05-2.95816E-05-2.95161E-05-3.16680E-07 1.29110E-19-1.44716E-18
 -1      1167 9.32141E-05-2.79694E-05-2.79840E-05-3.62457E-07-3.46479E-19-2.74005E-18
 -1      1168 8.79410E-05-2.64335E-05-2.65464E-05-3.10694E-07-2.05392E-19-4.97484E-18
 -1      1169 8.43797E-05-2.54011E-05-2.55896E-05-1.54003E-07 1.13833E-19-5.51021E-18
 -1      1170 8.36763E-05-2.51977E-05-2.54020E-05 6.06046E-08 1.52774E-19-4.56349E-18
 -1      1171 8.60706E-05-2.58910E-05-2.60430E-05 2.51789E-07-1.76084E-19-4.78679E-18
 -1      1172 9.07708E-05-2.72571E-05-2.73154E-05 3.52438E-07-2.04079E-19-4.52898E-18
 -1      1173 9.63617E-05-2.88916E-05-2.88577E-05 3.46175E-07 3.48698E-20-3.97333E-18
 -1      1174 1.01449E-04-3.03901E-05-3.02978E-05 2.64263E-07-3.09698E-19-3.39777E-18
 -1      1175 1.05130E-04-3.14848E-05-3.13764E-05 1.55420E-07 3.98900E-19-2.94018E-18
 -1      1176 1.07117E-04-3.20849E-05-3.19915E-05 5.79900E-08-1.91712E-19-3.92871E-18
 -1      1177 1.07585E-04-3.22366E-05-3.21722E-05-1.02649E-08 4.78077E-20-5.53780E-18
 -1      1178 1.06936E-04-3.20554E-05-3.20201E-05-4.80691E-08 1.73338E-19-5.77273E-18
 -1      1179 1.05610E-04-3.16699E-05-3.16570E-05-6.23577E-08 3.76509E-19-4.91233E-18
 -1      1180 1.03975E-04-3.11892E-05-3.11905E-05-6.18012E-08-7.45704E-20-4.53321E-18
 -1      1181 1.02295E-04-3.06918E-05-3.07005E-05-5.35983E-08-3.74506E-19-1.91915E-18
 -1      1182 1.00731E-04-3.02269E-05-3.02383E-05-4.26199E-08-4.07552E-21-2.05270E-18
 -1      1183 9.93686E-05-2.98200E-05-2.98314E-05-3.16845E-08 9.65613E-20-4.27760E-18
 -1      1184 9.82361E-05-2.94807E-05-2.94907E-05-2.21603E-08 1.47960E-19-4.95056E-18
 -1      1185 9.73302E-05-2.92085E-05-2.92166E-05-1.45220E-08-3.81140E-19-6.61558E-18
 -1      1186 9.66291E-05-2.89972E-05-2.90035E-05-8.75177E-09-1.37124E-19-7.90466E-18
 -1      1187 9.61036E-05-2.88384E-05-2.88430E-05-4.58842E-09-4.84652E-19-5.25479E-18
 -1      1188 9.57235E-05-2.87232E-05-2.87267E-05-1.65751E-09 1.71650E-20-3.03442E-18
 -1      1189 9.54618E-05-2.86435E-05-2.86464E-05 4.90060E-10 4.41787E-20-1.57639E-18
 -1      1190 9.52968E-05-2.85930E-05-2.85958E-05 2.40708E-09-1.31882E-19-1.13019E-18
 -1      1191 9.52128E-05-2.85669E-05-2.85695E-05 4.76749E-09 2.00921E-19 1.06627E-18
 -1      1192 9.51998E-05-2.85638E-05-2.85611E-05 8.76372E-09-3.66027E-19 1.57652E-19
 -1      1193 9.52220E-05-2.85667E-05-2.85591E-05 4.83541E-09 2.59526E-19 7.96609E-19
 -1      1194 1.30674E-04-3.76237E-05-3.85578E-05 1.21470E-05-9.99234E-20 9.30381E-18
 -1      1195 9.62855E-05-2.81089E-05-3.12457E-05 8.00441E-07-6.82920E-21 8.40320E-18
 -1      1196 9.01523E-05-2.68642E-05-2.78066E-05 1.21789E-07 2.62779E-20 7.12609E-18
 -1      1197 8.81667E-05-2.64506E-05-2.66300E-05 1.23717E-08-6.88214E-22 6.62928E-18
 -1      1198 8.78325E-05-2.63808E-05-2.63869E-05-2.02173E-08 1.08063E-20 6.26124E-18
 -1      1199 8.82777E-05-2.65097E-05-2.64934E-05-2.74100E-08 1.53690E-20 5.60723E-18
 -1      1200 8.91139E-05-2.67534E-05-2.67402E-05-2.65156E-08-1.15958E-20 5.21407E-18
 -1      1201 9.01615E-05-2.70635E-05-2.70539E-05-2.24117E-08 2.15770E-20 4.86609E-18
 -1      1202 9.13408E-05-2.74157E-05-2.74087E-05-1.66467E-08-2.54974E-20 4.80740E-18
 -1      1203 9.26306E-05-2.78028E-05-2.77988E-05-9.97481E-09 2.84364E-20 4.40227E-18
 -1      1204 9.40512E-05-2.82304E-05-2.82306E-05-2.97601E-09 7.99693E-20 3.76585E-18
 -1      1205 9.56565E-05-2.87144E-05-2.87204E-05 3.70916E-09 1.72706E-19 2.89425E-18
 -1      1206 9.75299E-05-2.92795E-05-2.92935E-05 9.15044E-09-1.03350E-19 3.45629E-18
 -1      1207 9.97812E-05-2.99581E-05-2.99830E-05 1.17920E-08 1.92369E-20 3.82386E-18
 -1      1208 1.02542E-04-3.07887E-05-3.08277E-05 8.94878E-09 1.20628E-19 3.17727E-18
 -1      1209 1.05953E-04-3.18114E-05-3.18678E-05-3.85796E-09-1.58274E-19 2.84337E-18
 -1      1210 1.10135E-04-3.30590E-05-3.31332E-05-3.34743E-08-1.33429E-19 4.12907E-18
 -1      1211 1.15121E-04-3.45373E-05-3.46212E-05-8.86531E-08 1.48428E-19 3.84812E-18
 -1      1212 1.20738E-04-3.61899E-05-3.62555E-05-1.76075E-07-4.94722E-20 3.71472E-18
 -1      1213 1.26401E-04-3.78427E-05-3.78285E-05-2.88098E-07 9.23994E-20 3.34387E-18
 -1      1214 1.30865E-04-3.91375E-05-3.89451E-05-3.78956E-07 2.17502E-19 3.45522E-18
 -1      1215 1.32100E-04-3.95025E-05-3.90412E-05-3.41622E-07-1.27545E-19 5.42795E-18
 -1      1216 1.27746E-04-3.82774E-05-3.75771E-05-3.68619E-08-4.81353E-20 5.44039E-18
 -1      1217 1.16669E-04-3.51126E-05-3.44782E-05 5.55137E-07 7.64249E-20 4.18667E-18
 -1      1218 1.01304E-04-3.06072E-05-3.05833E-05 1.13969E-06-2.66485E-20 5.19231E-18
 -1      1219 8.84589E-05-2.66501E-05-2.75681E-05 1.19142E-06-7.35595E-20 7.55469E-18
 -1      1220 8.56305E-05-2.55556E-05-2.70054E-05 5.06963E-07-2.43204E-19 8.09875E-18
 -1      1221 9.46920E-05-2.81629E-05-2.92041E-05-4.46077E-07 2.73367E-19 4.77176E-18
 -1      1222 1.10013E-04-3.28632E-05-3.29784E-05-1.00511E-06-6.54730E-20 2.09175E-18
 -1      1223 1.23667E-04-3.71080E-05-3.65556E-05-9.75773E-07 3.38310E-19-4.93608E-19
 -1      1224 1.31091E-04-3.94071E-05-3.87112E-05-6.15261E-07-2.26912E-20 8.86738E-20
 -1      1225 1.32105E-04-3.97054E-05-3.91997E-05-2.35073E-07 1.87638E-20 3.29152E-20
 -1      1226 1.28824E-04-3.86878E-05-3.84383E-05 1.82824E-08-2.84032E-19 1.62903E-18
 -1      1227 1.23558E-04-3.70812E-05-3.70176E-05 1.39339E-07-2.14260E-19 1.76360E-18
 -1      1228 1.17918E-04-3.53755E-05-3.54093E-05 1.73300E-07-1.86621E-19 1.51778E-18
 -1      1229 1.12758E-04-3.38235E-05-3.38930E-05 1.63193E-07-2.67634E-20 3.10411E-19
 -1      1230 1.08412E-04-3.25201E-05-3.25932E-05 1.36492E-07 2.44668E-19-1.12751E-18
 -1      1231 1.04926E-04-3.14763E-05-3.15399E-05 1.07173E-07 6.50010E-19-1.51622E-18
 -1      1232 1.02218E-04-3.06656E-05-3.07165E-05 8.10483E-08-2.34332E-20 1.80272E-19
 -1      1233 1.00161E-04-3.00495E-05-3.00885E-05 5.98103E-08-3.10791E-19 8.46881E-19
 -1      1234 9.86249E-05-2.95894E-05-2.96185E-05 4.33638E-08 5.08484E-19-9.38612E-19
 -1      1235 9.74962E-05-2.92510E-05-2.92724E-05 3.09942E-08-8.63217E-20 1.08764E-18
 -1      1236 9.66798E-05-2.90061E-05-2.90216E-05 2.18803E-08-9.69656E-20 2.31579E-19
 -1      1237 9.61005E-05-2.88322E-05-2.88434E-05 1.52849E-08-2.01377E-19 1.09552E-19
 -1      1238 9.57000E-05-2.87119E-05-2.87201E-05 1.05816E-08 1.64349E-19-2.25737E-19
 -1      1239 9.54350E-05-2.86322E-05-2.86386E-05 7.20630E-09 1.61224E-19-2.80561E-18
 -1      1240 9.52749E-05-2.85839E-05-2.85894E-05 4.55433E-09 3.50833E-19-2.42598E-18
 -1      1241 9.51991E-05-2.85608E-05-2.85655E-05 1.54798E-09-5.30533E-20-1.61916E-18
 -1      1242 9.51926E-05-2.85578E-05-2.85595E-05-3.61116E-09 5.95149E-19-2.53559E-18
 -1      1243 9.52229E-05-2.85678E-05-2.85585E-05-4.71406E-09-1.07395E-19-2.44491E-18
 -1      1244 9.52407E-05-2.85860E-05-2.85590E-05-5.11296E-09-2.60298E-18-1.41330E-19
 -1      1245 9.52477E-05-2.86127E-05-2.85611E-05-8.01937E-09-1.19617E-18 9.10847E-20
 -1      1246 9.52432E-05-2.85966E-05-2.85694E-05-1.94061E-09 3.93398E-18-4.83765E-19
 -1      1247 9.52203E-05-2.85183E-05-2.85917E-05 2.58173E-09 4.00206E-18 3.90094E-20
 -1      1248 9.51844E-05-2.83955E-05-2.86257E-05 5.01679E-09-5.22787E-19-1.60799E-20
 -1      1249 9.51443E-05-2.82582E-05-2.86640E-05 5.54053E-09-6.90427E-18-7.02579E-19
 -1      1250 9.51082E-05-2.81349E-05-2.86986E-05 4.64520E-09-1.26567E-18 7.70818E-19
 -1      1251 9.50831E-05-2.80490E-05-2.87228E-05 2.65045E-09 6.45038E-19-9.54338E-20
 -1      1252 9.50740E-05-2.80179E-05-2.87316E-05 1.39469E-10-4.30957E-18 4.15699E-19
 -1      1253 9.50824E-05-2.80470E-05-2.87235E-05-2.35602E-09 1.40715E-18 1.03402E-18
 -1      1254 9.51067E-05-2.81302E-05-2.87000E-05-4.31491E-09 2.70965E-18-3.16722E-19
 -1      1255 9.51419E-05-2.82504E-05-2.86663E-05-5.28993E-09-9.12851E-18-1.50100E-19
 -1      1256 9.51812E-05-2.83847E-05-2.86287E-05-4.83815E-09-9.42329E-18 1.70520E-19
 -1      1257 9.52167E-05-2.85063E-05-2.85950E-05-2.72315E-09-3.50679E-18 4.65668E-19
 -1      1258 9.52413E-05-2.85880E-05-2.85721E-05 1.60835E-09-7.10969E-19 5.02589E-19
 -1      1259 9.52441E-05-2.86042E-05-2.85623E-05 1.17221E-08-1.22014E-18-4.81849E-19
 -1      1260 9.52414E-05-2.85870E-05-2.85595E-05 5.98820E-09-6.43693E-19 7.56290E-20
 -1      1261 3.38219E-05-1.08152E-04 1.84238E-05-1.47225E-05 4.44353E-18 5.54065E-19
 -1      1262 1.72846E-05-6.66248E-05 9.79468E-06-2.69788E-05 6.10880E-18 2.17179E-18
 -1      1263 7.47734E-06-1.07862E-05-5.69851E-06-2.74439E-06 4.84672E-18 3.28056E-18
 -1      1264 3.66858E-05 2.20850E-05-2.64657E-05 5.24504E-05 6.13591E-18 6.57467E-18
 -1      1265 1.17120E-04 8.65674E-06-4.86403E-05 1.03462E-04 5.20417E-18 8.10102E-18
 -1      1266 2.26899E-04-4.27923E-05-6.71438E-05 1.06893E-04 2.33061E-18 5.37527E-18
 -1      1267 3.07316E-04-8.74008E-05-7.84127E-05 4.80085E-05 2.44793E-19-9.71970E-19
 -1      1268 3.15810E-04-9.26279E-05-7.92264E-05-3.58213E-05 4.42786E-19-2.72363E-18
 -1      1269 2.46282E-04-5.34193E-05-6.99888E-05-1.00632E-04 3.56177E-18-8.33650E-18
 -1      1270 1.35594E-04 1.33773E-06-5.22330E-05-1.08316E-04 7.20486E-18-1.21939E-17
 -1      1271 4.70525E-05 2.39046E-05-3.05718E-05-6.35593E-05 8.20267E-18-9.06495E-18
 -1      1272 9.82232E-06-8.93283E-07-9.95029E-06-8.08290E-06 6.67293E-18-5.15674E-18
 -1      1273 1.37346E-05-5.53158E-05 7.28194E-06 2.44800E-05 1.92446E-18-1.33027E-18
 -1      1274 3.19044E-05-1.03451E-04 1.75298E-05 2.05175E-05-1.71736E-18-2.33490E-19
 -1      1275 3.68861E-05-1.12620E-04 1.90700E-05-6.52415E-06-4.73703E-18-4.26111E-19
 -1      1276 2.17791E-05-7.64834E-05 1.21169E-05-2.37177E-05-9.00565E-18-3.07939E-18
 -1      1277 7.52746E-06-2.02574E-05-2.09503E-06-8.57277E-06-1.04033E-17-5.35155E-18
 -1      1278 2.38182E-05 2.12412E-05-2.11207E-05 3.99933E-05-8.75154E-18-7.37088E-18
 -1      1279 8.95342E-05 1.91995E-05-4.24462E-05 9.28291E-05-4.41643E-18-5.33800E-18
 -1      1280 1.88005E-04-2.27449E-05-6.10217E-05 1.11668E-04-1.32561E-18-3.31020E-18
 -1      1281 2.77904E-04-7.40825E-05-7.39187E-05 6.85312E-05 2.28275E-19 3.44742E-19
 -1      1282 3.08121E-04-9.32256E-05-7.75890E-05-1.42951E-05-4.03294E-19 3.71170E-18
 -1      1283 2.61985E-04-6.48895E-05-7.18887E-05-8.52938E-05-1.44737E-18 3.75998E-18
 -1      1284 1.72086E-04-1.46894E-05-5.87119E-05-1.12502E-04-3.17510E-18 5.96819E-18
 -1      1285 8.23733E-05 2.20428E-05-4.10442E-05-9.12496E-05-5.29650E-18 5.69545E-18
 -1      1286 2.51925E-05 2.28872E-05-2.22781E-05-4.32993E-05-7.36072E-18 6.07916E-18
 -1      1287 7.14716E-06-1.23438E-05-4.37597E-06 3.26556E-06-5.93092E-18 4.44523E-18
 -1      1288 1.81651E-05-6.60835E-05 9.83690E-06 2.42442E-05-4.02171E-18 1.23116E-18
 -1      1289 3.36978E-05-1.06645E-04 1.80800E-05 1.23854E-05 8.02987E-19 1.23206E-18
 -1      1290 1.04203E-04-2.19607E-05-3.78087E-05-1.72282E-05-2.65968E-19 1.73049E-18
 -1      1291 9.02401E-05-6.68108E-06-3.59815E-05-2.03910E-05-5.10337E-19-1.42106E-18
 -1      1292 9.25299E-05-6.74031E-06-3.71665E-05-2.56742E-05-7.07908E-19-7.70747E-19
 -1      1293 8.58971E-05-4.09914E-06-3.51248E-05-1.63418E-05-4.02711E-19-2.28588E-18
 -1      1294 8.71184E-05-4.09439E-06-3.55801E-05-1.87645E-05-4.93344E-19-1.93769E-18
 -1      1295 9.20766E-05-1.04639E-05-3.50680E-05-1.89358E-05-8.46980E-19-1.25652E-18
 -1      1296 8.41416E-05-3.19463E-06-3.47032E-05-1.27222E-05-2.13346E-19-2.62607E-18
 -1      1297 8.47284E-05-3.16382E-06-3.49176E-05-1.45396E-05-2.99373E-19-2.47879E-18
 -1      1298 8.78771E-05-7.39425E-06-3.45762E-05-1.53114E-05-5.83765E-19-1.93968E-18
 -1      1299 8.32508E-05-2.72199E-06-3.45002E-05-9.59111E-06-9.39015E-20-2.72046E-18
 -1      1300 8.35559E-05-2.70595E-06-3.46036E-05-1.11355E-05-1.22926E-19-2.70425E-18
 -1      1301 8.59138E-05-5.97742E-06-3.43266E-05-1.18484E-05-2.95694E-19-2.23360E-18
 -1      1302 8.27673E-05-2.44206E-06-3.44024E-05-6.83433E-06 2.63308E-20-2.58505E-18
 -1      1303 8.29318E-05-2.43394E-06-3.44532E-05-8.19694E-06-2.41140E-20-2.64495E-18
 -1      1304 8.48789E-05-5.19201E-06-3.42074E-05-8.84352E-06-1.48138E-19-2.23540E-18
 -1      1305 8.24944E-05-2.26843E-06-3.43543E-05-4.23841E-06 1.44671E-19-2.44933E-18
 -1      1306 8.25836E-05-2.26477E-06-3.43797E-05-5.52662E-06 1.15461E-19-2.54154E-18
 -1      1307 8.42950E-05-4.72021E-06-3.41521E-05-6.13558E-06 9.80457E-20-2.20139E-18
 -1      1308 8.23618E-05-2.17340E-06-3.43343E-05-1.76522E-06 2.51943E-19-2.26640E-18
 -1      1309 8.24001E-05-2.17198E-06-3.43445E-05-3.00001E-06 2.32754E-19-2.36247E-18
 -1      1310 8.39699E-05-4.44326E-06-3.41276E-05-3.59218E-06 2.85881E-19-1.98709E-18
 -1      1311 8.23362E-05-2.14407E-06-3.43324E-05 6.59343E-07 3.83310E-19-2.03833E-18
 -1      1312 8.23343E-05-2.14410E-06-3.43319E-05-5.59212E-07 3.21231E-19-2.15301E-18
 -1      1313 8.38263E-05-4.31634E-06-3.41188E-05-1.15343E-06 4.73852E-19-1.85198E-18
 -1      1314 8.24113E-05-2.17672E-06-3.43469E-05 3.10412E-06 4.80200E-19-1.82664E-18
 -1      1315 8.23692E-05-2.17816E-06-3.43357E-05 1.86649E-06 4.48184E-19-1.95667E-18
 -1      1316 8.38325E-05-4.32089E-06-3.41196E-05 1.25322E-06 6.80520E-19-1.67986E-18
 -1      1317 8.26051E-05-2.27596E-06-3.43837E-05 5.64071E-06 5.65289E-19-1.61157E-18
 -1      1318 8.25118E-05-2.27897E-06-3.43574E-05 4.34608E-06 5.52722E-19-1.73716E-18
 -1      1319 8.39889E-05-4.45777E-06-3.41297E-05 3.69663E-06 8.55182E-19-1.45802E-18
 -1      1320 8.29601E-05-2.45030E-06-3.44578E-05 8.30455E-06 6.23463E-19-1.19204E-18
 -1      1321 8.27921E-05-2.45858E-06-3.44063E-05 6.93236E-06 5.70027E-19-1.44299E-18
 -1      1322 8.43259E-05-4.74478E-06-3.41547E-05 6.22738E-06 9.23129E-19-1.20017E-18
 -1      1323 8.36023E-05-2.73707E-06-3.46100E-05 1.12977E-05 7.46262E-19-6.34613E-19
 -1      1324 8.32923E-05-2.75373E-06-3.45055E-05 9.73511E-06 6.93349E-19-9.53666E-19
 -1      1325 8.49274E-05-5.23503E-06-3.42101E-05 8.95284E-06 1.06107E-18-7.76756E-19
 -1      1326 8.47890E-05-3.20703E-06-3.49263E-05 1.47494E-05 8.24481E-19 1.02067E-19
 -1      1327 8.41977E-05-3.24337E-06-3.47097E-05 1.29071E-05 7.94702E-19-3.45497E-19
 -1      1328 8.59957E-05-6.05640E-06-3.43295E-05 1.20148E-05 1.24141E-18-2.40134E-19
 -1      1329 8.72188E-05-4.09707E-06-3.56007E-05 1.90055E-05 7.87847E-19 1.43209E-18
 -1      1330 8.59698E-05-4.16077E-06-3.51324E-05 1.66039E-05 7.14366E-19 6.54227E-19
 -1      1331 8.80030E-05-7.52098E-06-3.45783E-05 1.55457E-05 1.22609E-18 6.18969E-19
 -1      1332 9.33340E-05-6.79009E-06-3.70604E-05 2.50159E-05 6.08064E-19 3.53229E-18
 -1      1333 9.00528E-05-6.43775E-06-3.60029E-05 2.10701E-05 6.05046E-19 2.28312E-18
 -1      1334 9.23042E-05-1.06986E-05-3.50523E-05 1.95809E-05 1.10702E-18 1.98169E-18
 -1      1335 1.23319E-04-2.48602E-05-3.89250E-05 2.82877E-05 2.09217E-19 6.81819E-18
 -1      1336 9.98925E-05-1.43941E-05-3.72834E-05 2.39804E-05 2.62580E-19 4.60140E-18
 -1      1337 1.01521E-04-1.93138E-05-3.53467E-05 2.13162E-05 9.16298E-19 3.84320E-18
 -1      1338 1.02356E-04-2.77350E-05-3.46767E-05 7.30004E-06 4.34316E-19 6.78579E-18
 -1      1339 1.04919E-04-3.01641E-05-3.34537E-05-7.92113E-06-6.13887E-19 1.98163E-18
 -1      1340 9.80645E-05-2.77871E-05-3.07003E-05-4.95745E-06-5.44219E-19 1.27907E-18
 -1      1341 9.53307E-05-2.77977E-05-2.92020E-05-2.45879E-06-3.86300E-19 1.04488E-18
 -1      1342 9.31271E-05-2.75143E-05-2.81718E-05-2.01183E-06-3.61974E-19 4.19943E-19
 -1      1343 9.93465E-05-2.80123E-05-3.09400E-05-7.82408E-06-9.28030E-19 2.35793E-19
 -1      1344 9.14690E-05-2.71649E-05-2.75476E-05-8.01303E-07-3.38145E-19 2.81533E-19
 -1      1345 9.07866E-05-2.70788E-05-2.72559E-05-6.89195E-07-3.38893E-19-2.04161E-19
 -1      1346 9.46350E-05-2.77427E-05-2.87928E-05-3.05129E-06-6.66959E-19-5.12058E-20
 -1      1347 9.00781E-05-2.69074E-05-2.70258E-05-1.22862E-07-2.09932E-19-4.54830E-19
 -1      1348 9.00530E-05-2.69474E-05-2.70055E-05-6.14202E-08-2.63990E-19-7.91910E-19
 -1      1349 9.25070E-05-2.74901E-05-2.78955E-05-9.62270E-07-5.51902E-19-3.18749E-19
 -1      1350 8.98517E-05-2.68961E-05-2.69495E-05 2.28209E-07-1.12889E-19-8.96227E-19
 -1      1351 9.01354E-05-2.70057E-05-2.70321E-05 2.62067E-07-8.20414E-20-1.05313E-18
 -1      1352 9.16461E-05-2.73716E-05-2.75602E-05 5.92796E-08-3.71259E-19-7.47381E-19
 -1      1353 9.02208E-05-2.70318E-05-2.70640E-05 4.21006E-07-8.77879E-20-1.01248E-18
 -1      1354 9.06638E-05-2.71804E-05-2.71934E-05 4.39991E-07-4.37727E-20-1.21216E-18
 -1      1355 9.15299E-05-2.73960E-05-2.74960E-05 6.03573E-07-1.80185E-19-6.59948E-19
 -1      1356 9.09193E-05-2.72542E-05-2.72759E-05 5.32222E-07-2.89778E-20-1.27651E-18
 -1      1357 9.14506E-05-2.74242E-05-2.74310E-05 5.43642E-07-9.12678E-20-1.40939E-18
 -1      1358 9.18537E-05-2.75215E-05-2.75785E-05 9.10765E-07-1.81487E-19-8.49521E-19
 -1      1359 9.18134E-05-2.75284E-05-2.75456E-05 6.03235E-07-9.77976E-20-1.31433E-18
 -1      1360 9.24006E-05-2.77119E-05-2.77175E-05 6.11649E-07-1.28295E-19-1.53385E-18
 -1      1361 9.24489E-05-2.77129E-05-2.77497E-05 1.09765E-06-1.74982E-19-8.40470E-19
 -1      1362 9.28387E-05-2.78375E-05-2.78548E-05 6.58661E-07-1.66707E-19-1.58227E-18
 -1      1363 9.34710E-05-2.80323E-05-2.80406E-05 6.67037E-07-2.36663E-19-1.91705E-18
 -1      1364 9.32248E-05-2.79491E-05-2.79799E-05 1.22922E-06-2.72133E-19-8.21542E-19
 -1      1365 9.39703E-05-2.81755E-05-2.81963E-05 7.13507E-07-1.25091E-19-1.95887E-18
 -1      1366 9.46501E-05-2.83834E-05-2.83967E-05 7.23651E-07 1.61350E-19-1.93755E-18
 -1      1367 9.41361E-05-2.82204E-05-2.82540E-05 1.34424E-06-2.29314E-19-7.48416E-19
 -1      1368 9.52065E-05-2.85435E-05-2.85696E-05 7.75787E-07 2.97189E-20-2.39240E-18
 -1      1369 9.59425E-05-2.87682E-05-2.87867E-05 7.88441E-07-4.03676E-19-2.54790E-18
 -1      1370 9.51653E-05-2.85241E-05-2.85652E-05 1.46491E-06-2.03927E-19-1.17957E-18
 -1      1371 9.65568E-05-2.89458E-05-2.89770E-05 8.47018E-07-4.01929E-19-2.71145E-18
 -1      1372 9.73582E-05-2.91911E-05-2.92133E-05 8.61725E-07-2.65892E-19-3.04732E-18
 -1      1373 9.63094E-05-2.88622E-05-2.89111E-05 1.59995E-06-5.98550E-19-1.96242E-18
 -1      1374 9.80301E-05-2.93870E-05-2.94203E-05 9.21419E-07 6.83648E-20-2.89083E-18
 -1      1375 9.88992E-05-2.96550E-05-2.96760E-05 9.36213E-07 6.67675E-20-2.76003E-18
 -1      1376 9.75695E-05-2.92383E-05-2.92901E-05 1.74427E-06-1.25311E-19-2.00590E-18
 -1      1377 9.96212E-05-2.98683E-05-2.98970E-05 9.84252E-07 1.34198E-19-2.72005E-18
 -1      1378 1.00545E-04-3.01564E-05-3.01677E-05 9.95193E-07-1.79192E-20-2.42850E-18
 -1      1379 9.89394E-05-2.96547E-05-2.96981E-05 1.87662E-06 1.81185E-19-1.79009E-18
 -1      1380 1.01296E-04-3.03824E-05-3.03950E-05 1.00979E-06-9.41205E-20-2.14326E-18
 -1      1381 1.02235E-04-3.06802E-05-3.06684E-05 1.01047E-06-1.81419E-19-2.08915E-18
 -1      1382 1.00393E-04-3.01092E-05-3.01245E-05 1.95606E-06 8.44910E-20-1.71086E-18
 -1      1383 1.02973E-04-3.09086E-05-3.08878E-05 9.59976E-07 3.37250E-20-1.99585E-18
 -1      1384 1.03849E-04-3.11932E-05-3.11405E-05 9.41293E-07-1.02808E-19-1.98048E-18
 -1      1385 1.01872E-04-3.05897E-05-3.05482E-05 1.91903E-06 8.80120E-21-1.04103E-18
 -1      1386 1.04502E-04-3.14053E-05-3.13289E-05 7.86015E-07-4.22888E-19-2.02939E-18
 -1      1387 1.05190E-04-3.16381E-05-3.15239E-05 7.36783E-07-5.24879E-19-2.47428E-18
 -1      1388 1.03269E-04-3.10693E-05-3.09341E-05 1.68016E-06-2.51579E-19-1.33632E-18
 -1      1389 1.05659E-04-3.18046E-05-3.16493E-05 4.36395E-07-4.74180E-19-2.69862E-18
 -1      1390 1.05984E-04-3.19293E-05-3.17365E-05 3.45849E-07-6.54531E-20-3.17285E-18
 -1      1391 1.04418E-04-3.14991E-05-3.12319E-05 1.14271E-06-7.57750E-19-1.52510E-18
 -1      1392 1.06140E-04-3.20103E-05-3.17613E-05-1.23866E-07 3.19173E-19-3.22626E-18
 -1      1393 1.05901E-04-3.19569E-05-3.16846E-05-2.60523E-07-2.02984E-19-3.40357E-18
 -1      1394 1.05094E-04-3.18023E-05-3.13788E-05 2.26656E-07-2.19832E-20-1.81803E-18
 -1      1395 1.05615E-04-3.19056E-05-3.15737E-05-8.80093E-07 2.74968E-19-3.69690E-18
 -1      1396 1.04635E-04-3.16070E-05-3.12870E-05-1.05275E-06 3.11404E-19-3.24014E-18
 -1      1397 1.05038E-04-3.18750E-05-3.13110E-05-1.07884E-06-1.51407E-20-1.97994E-18
 -1      1398 1.03819E-04-3.13820E-05-3.10226E-05-1.72721E-06 4.74312E-19-2.37572E-18
 -1      1399 1.02039E-04-3.08047E-05-3.05157E-05-1.90149E-06 6.21911E-19-1.47116E-18
 -1      1400 1.04021E-04-3.16023E-05-3.09844E-05-2.64312E-06 1.00113E-18-1.50369E-18
 -1      1401 1.00710E-04-3.03937E-05-3.01146E-05-2.44589E-06 4.43136E-19-1.60407E-18
 -1      1402 9.82931E-05-2.95792E-05-2.94397E-05-2.56166E-06 9.48396E-20-1.14646E-18
 -1      1403 1.01947E-04-3.09022E-05-3.04019E-05-4.13396E-06 6.26553E-19-7.81494E-19
 -1      1404 9.66395E-05-2.90303E-05-2.89655E-05-2.73758E-06-8.50075E-19-1.19466E-18
 -1      1405 9.40306E-05-2.81253E-05-2.82485E-05-2.72679E-06-9.34134E-19-2.35488E-18
 -1      1406 9.90020E-05-2.97989E-05-2.96380E-05-5.03657E-06-4.53747E-19-6.90563E-19
 -1      1407 9.24245E-05-2.75647E-05-2.78062E-05-2.34922E-06-1.70962E-19-2.31065E-18
 -1      1408 9.02801E-05-2.68051E-05-2.72241E-05-2.17528E-06-2.29175E-19-2.70794E-18
 -1      1409 9.57372E-05-2.84923E-05-2.88418E-05-4.82232E-06-7.35340E-19-4.86065E-19
 -1      1410 8.91866E-05-2.64108E-05-2.69314E-05-1.24973E-06-3.56555E-19-3.06712E-18
 -1      1411 8.81501E-05-2.60392E-05-2.66522E-05-9.46058E-07-2.29493E-20-3.09954E-18
 -1      1412 9.30075E-05-2.73523E-05-2.82061E-05-3.25299E-06-6.14185E-19-3.42122E-19
 -1      1413 8.79344E-05-2.59602E-05-2.65952E-05 2.70755E-07 5.07955E-19-3.34461E-18
 -1      1414 8.83457E-05-2.61077E-05-2.67060E-05 6.01946E-07 1.45160E-19-2.77732E-18
 -1      1415 9.16768E-05-2.67834E-05-2.79047E-05-6.40997E-07 1.22734E-19-4.29441E-19
 -1      1416 8.90853E-05-2.63763E-05-2.69026E-05 1.70255E-06-7.33014E-20-3.07088E-18
 -1      1417 9.08088E-05-2.69904E-05-2.73687E-05 1.94330E-06-2.36488E-19-3.39062E-18
 -1      1418 9.22096E-05-2.70109E-05-2.80255E-05 2.18943E-06-1.44260E-20-1.69437E-18
 -1      1419 9.22500E-05-2.75013E-05-2.77603E-05 2.58219E-06 2.53344E-19-2.96996E-18
 -1      1420 9.47455E-05-2.83754E-05-2.84422E-05 2.66509E-06 3.65296E-19-2.46894E-18
 -1      1421 9.44206E-05-2.79440E-05-2.85340E-05 4.29979E-06 3.21687E-19-1.53398E-18
 -1      1422 9.64419E-05-2.89518E-05-2.89197E-05 2.72431E-06-6.28211E-20-1.85310E-18
 -1      1423 9.90252E-05-2.98339E-05-2.96360E-05 2.65820E-06 2.87869E-19-1.42227E-18
 -1      1424 9.75775E-05-2.92324E-05-2.92881E-05 5.12251E-06 4.37780E-19-7.73579E-20
 -1      1425 1.00546E-04-3.03204E-05-3.00844E-05 2.25340E-06-4.06205E-19-2.01853E-18
 -1      1426 1.02662E-04-3.10187E-05-3.06818E-05 2.09792E-06-9.23762E-20-1.88010E-18
 -1      1427 1.00777E-04-3.04680E-05-3.00956E-05 4.67119E-06-4.41979E-20-8.38589E-19
 -1      1428 1.03737E-04-3.13332E-05-3.10176E-05 1.46077E-06-9.98969E-20-2.14921E-18
 -1      1429 1.05100E-04-3.17620E-05-3.14114E-05 1.28333E-06-4.24635E-19-1.95186E-18
 -1      1430 1.03313E-04-3.13679E-05-3.07827E-05 3.38654E-06-4.91451E-19-1.07138E-18
 -1      1431 1.05642E-04-3.18941E-05-3.15983E-05 6.31505E-07-8.52731E-19-2.63957E-18
 -1      1432 1.06229E-04-3.20595E-05-3.17746E-05 4.78706E-07-8.31323E-19-3.82312E-18
 -1      1433 1.04847E-04-3.18373E-05-3.12414E-05 1.82094E-06-1.37031E-18-2.40401E-18
 -1      1434 1.06290E-04-3.20419E-05-3.18178E-05-5.20424E-08-1.04496E-19-3.87756E-18
 -1      1435 1.06240E-04-3.20018E-05-3.18112E-05-1.60143E-07 2.21774E-19-4.18438E-18
 -1      1436 1.05369E-04-3.19218E-05-3.14403E-05 3.98527E-07-6.20051E-19-2.44462E-18
 -1      1437 1.05942E-04-3.18817E-05-3.17410E-05-5.19928E-07 7.39367E-20-3.77341E-18
 -1      1438 1.05458E-04-3.17085E-05-3.16067E-05-5.82630E-07 2.87100E-19-4.15094E-18
 -1      1439 1.05069E-04-3.17304E-05-3.14076E-05-6.64074E-07 4.27851E-20-2.03591E-18
 -1      1440 1.04936E-04-3.15306E-05-3.14618E-05-7.79746E-07 3.51103E-19-4.16724E-18
 -1      1441 1.04212E-04-3.12891E-05-3.12551E-05-8.05946E-07 4.48951E-19-4.00178E-18
 -1      1442 1.04210E-04-3.13768E-05-3.12029E-05-1.32309E-06 5.55166E-19-3.17878E-18
 -1      1443 1.03583E-04-3.10884E-05-3.10716E-05-8.75919E-07 9.76283E-19-4.20740E-18
 -1      1444 1.02772E-04-3.08267E-05-3.08371E-05-8.76989E-07 3.02220E-19-3.09565E-18
 -1      1445 1.03042E-04-3.09523E-05-3.08929E-05-1.63480E-06 6.09822E-19-3.36386E-18
 -1      1446 1.02123E-04-3.06272E-05-3.06431E-05-8.60987E-07-1.55735E-19-2.68088E-18
 -1      1447 1.01329E-04-3.03762E-05-3.04113E-05-8.47067E-07-5.63989E-19-2.43393E-18
 -1      1448 1.01763E-04-3.05193E-05-3.05361E-05-1.69268E-06 2.30832E-19-3.18920E-18
 -1      1449 1.00717E-04-3.01925E-05-3.02258E-05-7.80849E-07-3.14049E-19-1.48689E-18
 -1      1450 9.99994E-05-2.99692E-05-3.00151E-05-7.59564E-07-1.07150E-19-2.23128E-18
 -1      1451 1.00512E-04-3.01156E-05-3.01759E-05-1.58916E-06-2.45419E-19-2.80244E-18
 -1      1452 9.94564E-05-2.98090E-05-2.98490E-05-6.69793E-07-9.07324E-19-2.64640E-18
 -1      1453 9.88430E-05-2.96205E-05-2.96682E-05-6.46243E-07-1.01594E-18-4.23490E-18
 -1      1454 9.93715E-05-2.97608E-05-2.98405E-05-1.39874E-06-9.94812E-19-2.57566E-18
 -1      1455 9.83824E-05-2.94862E-05-2.95264E-05-5.50686E-07-3.70718E-20-4.29265E-18
 -1      1456 9.78803E-05-2.93336E-05-2.93778E-05-5.27940E-07-4.68997E-19-4.48083E-18
 -1      1457 9.83839E-05-2.94618E-05-2.95455E-05-1.17423E-06-8.94771E-19-3.38860E-18
 -1      1458 9.75035E-05-2.92246E-05-2.92614E-05-4.37196E-07-7.44865E-19-4.93831E-18
 -1      1459 9.71067E-05-2.91052E-05-2.91436E-05-4.16857E-07-8.58105E-19-5.34619E-18
 -1      1460 9.75616E-05-2.92183E-05-2.92970E-05-9.49261E-07-1.00698E-18-3.53444E-18
 -1      1461 9.68080E-05-2.90194E-05-2.90511E-05-3.36342E-07-8.13859E-20-5.18195E-18
 -1      1462 9.65044E-05-2.89288E-05-2.89608E-05-3.19043E-07 3.83682E-19-5.08263E-18
 -1      1463 9.68992E-05-2.90257E-05-2.90948E-05-7.42785E-07-4.02241E-19-2.58135E-18
 -1      1464 9.62745E-05-2.88630E-05-2.88895E-05-2.50695E-07 1.57503E-19-3.37649E-18
 -1      1465 9.60497E-05-2.87965E-05-2.88224E-05-2.36458E-07-5.58421E-20-3.48197E-18
 -1      1466 9.63812E-05-2.88773E-05-2.89354E-05-5.63463E-07 8.47509E-19-2.44989E-18
 -1      1467 9.58782E-05-2.87476E-05-2.87692E-05-1.80027E-07 5.32230E-19-3.01915E-18
 -1      1468 9.57183E-05-2.87007E-05-2.87213E-05-1.68508E-07 1.12301E-18-1.43938E-18
 -1      1469 9.59878E-05-2.87659E-05-2.88136E-05-4.13238E-07 1.25777E-18-1.08277E-18
 -1      1470 9.55950E-05-2.86655E-05-2.86832E-05-1.22453E-07 1.20180E-18-1.10572E-18
 -1      1471 9.54881E-05-2.86344E-05-2.86512E-05-1.13098E-07 7.81117E-19-2.24859E-20
 -1      1472 9.56987E-05-2.86849E-05-2.87237E-05-2.89939E-07 1.59475E-18 4.53515E-19
 -1      1473 9.54042E-05-2.86103E-05-2.86254E-05-7.52538E-08-1.83623E-19-4.52524E-19
 -1      1474 9.53409E-05-2.85922E-05-2.86064E-05-6.74063E-08-2.10917E-19-6.79616E-19
 -1      1475 9.54951E-05-2.86281E-05-2.86602E-05-1.89135E-07 9.07633E-19 4.73580E-19
 -1      1476 9.52887E-05-2.85772E-05-2.85906E-05-3.59563E-08 7.34115E-19-6.80861E-20
 -1      1477 9.52619E-05-2.85704E-05-2.85820E-05-2.90661E-08 5.26718E-19 7.32347E-19
 -1      1478 9.53609E-05-2.85908E-05-2.86181E-05-1.05935E-07 4.92078E-19-3.20416E-19
 -1      1479 9.52333E-05-2.85615E-05-2.85733E-05-3.94865E-09-2.59875E-19 9.78138E-19
 -1      1480 9.52362E-05-2.85667E-05-2.85713E-05 2.20181E-09-4.93795E-19 7.52916E-19
 -1      1481 9.52813E-05-2.85700E-05-2.85921E-05-3.84069E-08 4.49286E-19-2.22370E-19
 -1      1482 9.52295E-05-2.85745E-05-2.85631E-05 1.02268E-08-1.00665E-18 4.99357E-19
 -1      1483 9.52449E-05-2.85747E-05-2.85725E-05 7.65672E-09-7.74594E-19-2.82521E-19
 -1      1484 9.63733E-05-2.83032E-05-2.97097E-05 2.97141E-06 3.79762E-19 5.84818E-18
 -1      1485 1.02302E-04-2.93294E-05-3.20842E-05 4.43592E-06 3.72165E-19 6.46085E-18
 -1      1486 1.02139E-04-2.66699E-05-3.26462E-05 1.27245E-05 6.71644E-19 4.64862E-18
 -1      1487 9.18798E-05-2.73833E-05-2.77165E-05 1.12658E-06 2.27124E-19 5.17823E-18
 -1      1488 9.38004E-05-2.75312E-05-2.86221E-05 1.44874E-06 2.38281E-19 5.50743E-18
 -1      1489 9.63483E-05-2.79894E-05-2.94918E-05 4.81748E-06 5.34531E-19 4.06810E-18
 -1      1490 9.01119E-05-2.69766E-05-2.70380E-05 2.98256E-07 1.42295E-19 4.72888E-18
 -1      1491 9.06953E-05-2.69847E-05-2.73006E-05 4.62812E-07 1.14991E-19 4.89424E-18
 -1      1492 9.29632E-05-2.75528E-05-2.80763E-05 1.79296E-06 3.64767E-19 3.56053E-18
 -1      1493 8.96855E-05-2.68843E-05-2.68905E-05-1.04127E-07 2.19871E-19 4.26706E-18
 -1      1494 8.96778E-05-2.68080E-05-2.69046E-05-1.16043E-08 1.28140E-19 4.46253E-18
 -1      1495 9.14893E-05-2.73026E-05-2.75180E-05 4.36332E-07 3.06613E-19 2.89004E-18
 -1      1496 8.99510E-05-2.69751E-05-2.69733E-05-3.15796E-07 8.79409E-20 3.94692E-18
 -1      1497 8.96549E-05-2.68462E-05-2.68874E-05-2.59970E-07 1.29048E-19 4.15233E-18
 -1      1498 9.10699E-05-2.72521E-05-2.73573E-05-2.51748E-07 2.67487E-19 2.73291E-18
 -1      1499 9.06003E-05-2.71743E-05-2.71718E-05-4.34485E-07 2.72291E-20 3.76151E-18
 -1      1500 9.01521E-05-2.70148E-05-2.70392E-05-3.98360E-07 5.66900E-20 3.83687E-18
 -1      1501 9.12490E-05-2.73396E-05-2.73972E-05-6.27744E-07 1.07236E-19 2.69600E-18
 -1      1502 9.14802E-05-2.74394E-05-2.74385E-05-5.08837E-07 1.22671E-19 3.46094E-18
 -1      1503 9.09435E-05-2.72613E-05-2.72794E-05-4.82860E-07 8.70198E-20 3.54933E-18
 -1      1504 9.17850E-05-2.75159E-05-2.75513E-05-8.49342E-07 1.95931E-19 2.24174E-18
 -1      1505 9.25217E-05-2.77504E-05-2.77537E-05-5.67946E-07 7.85933E-20 3.21544E-18
 -1      1506 9.19214E-05-2.75575E-05-2.75751E-05-5.45657E-07 1.16264E-19 3.42135E-18
 -1      1507 9.25531E-05-2.77513E-05-2.77794E-05-1.00016E-06 1.16062E-19 2.26721E-18
 -1      1508 9.37082E-05-2.81026E-05-2.81132E-05-6.32092E-07 2.48529E-19 3.00982E-18
 -1      1509 9.30448E-05-2.78926E-05-2.79151E-05-6.08486E-07 9.43693E-20 3.09355E-18
 -1      1510 9.34972E-05-2.80321E-05-2.80640E-05-1.13221E-06 3.23355E-19 2.05406E-18
 -1      1511 9.50617E-05-2.85027E-05-2.85237E-05-7.17203E-07 1.92196E-19 2.63326E-18
 -1      1512 9.43170E-05-2.82681E-05-2.83006E-05-6.87932E-07 2.85159E-19 2.87106E-18
 -1      1513 9.46062E-05-2.83566E-05-2.84014E-05-1.28267E-06 3.46676E-19 1.94265E-18
 -1      1514 9.66340E-05-2.89665E-05-2.90010E-05-8.36910E-07 1.37326E-19 1.97499E-18
 -1      1515 9.57743E-05-2.86953E-05-2.87430E-05-7.97847E-07 2.35046E-19 2.38170E-18
 -1      1516 9.59015E-05-2.87318E-05-2.87978E-05-1.48109E-06 3.79719E-19 1.50695E-18
 -1      1517 9.85028E-05-2.95173E-05-2.95684E-05-1.00325E-06-7.23659E-20 2.53556E-18
 -1      1518 9.74808E-05-2.91936E-05-2.92614E-05-9.50292E-07-3.14342E-19 1.97802E-18
 -1      1519 9.74300E-05-2.91725E-05-2.92671E-05-1.75258E-06-1.91302E-19 1.27060E-18
 -1      1520 1.00766E-04-3.01852E-05-3.02553E-05-1.22594E-06 5.46932E-20 2.34858E-18
 -1      1521 9.95229E-05-2.97892E-05-2.98821E-05-1.15517E-06 1.60820E-19 2.63703E-18
 -1      1522 9.92588E-05-2.96993E-05-2.98294E-05-2.11803E-06-7.22460E-21 1.42729E-18
 -1      1523 1.03535E-04-3.10046E-05-3.10940E-05-1.50945E-06 2.06388E-19 2.26129E-18
 -1      1524 1.02004E-04-3.05143E-05-3.06355E-05-1.41790E-06 1.52105E-19 2.37672E-18
 -1      1525 1.01468E-04-3.03379E-05-3.05078E-05-2.59109E-06 1.93851E-19 1.47603E-18
 -1      1526 1.06911E-04-3.20096E-05-3.21138E-05-1.84605E-06-5.88178E-19 2.71736E-18
 -1      1527 1.05030E-04-3.14044E-05-3.15526E-05-1.73371E-06-3.27418E-19 2.20916E-18
 -1      1528 1.04139E-04-3.11168E-05-3.13246E-05-3.16954E-06-2.04281E-19 1.75683E-18
 -1      1529 1.10953E-04-3.32247E-05-3.33271E-05-2.20218E-06 5.70324E-20 2.92613E-18
 -1      1530 1.08687E-04-3.24926E-05-3.26557E-05-2.07629E-06-1.58989E-19 2.81856E-18
 -1      1531 1.07334E-04-3.20640E-05-3.22930E-05-3.81739E-06-3.90803E-19 1.79770E-18
 -1      1532 1.15598E-04-3.46445E-05-3.47053E-05-2.49512E-06 4.74080E-19 2.65346E-18
 -1      1533 1.12985E-04-3.37980E-05-3.39408E-05-2.37803E-06 2.75183E-19 3.07319E-18
 -1      1534 1.11057E-04-3.31988E-05-3.34029E-05-4.43278E-06 2.19884E-19 1.83717E-18
 -1      1535 1.20543E-04-3.61982E-05-3.61404E-05-2.56065E-06-2.33356E-20 2.24117E-18
 -1      1536 1.17775E-04-3.53015E-05-3.53485E-05-2.50176E-06 2.65881E-19 2.39043E-18
 -1      1537 1.15187E-04-3.45177E-05-3.45974E-05-4.79949E-06 6.30041E-19 1.38532E-18
 -1      1538 1.25073E-04-3.76937E-05-3.73974E-05-2.12766E-06-1.93957E-20 2.42564E-18
 -1      1539 1.22603E-04-3.69022E-05-3.67221E-05-2.21517E-06-7.76425E-20 2.33834E-18
 -1      1540 1.19387E-04-3.59642E-05-3.57454E-05-4.53525E-06-3.93010E-20 1.17153E-18
 -1      1541 1.27918E-04-3.87479E-05-3.80940E-05-8.55745E-07-3.89854E-19 3.18648E-18
 -1      1542 1.26552E-04-3.83462E-05-3.77709E-05-1.20902E-06-1.28994E-19 2.61382E-18
 -1      1543 1.22985E-04-3.73726E-05-3.66221E-05-3.09381E-06-2.82049E-19 1.88899E-18
 -1      1544 1.27353E-04-3.87640E-05-3.77746E-05 1.45432E-06-2.61270E-19 3.74489E-18
 -1      1545 1.28170E-04-3.91469E-05-3.80830E-05 7.50057E-07-3.21303E-19 3.18503E-18
 -1      1546 1.24926E-04-3.83843E-05-3.69377E-05 3.50793E-08-6.03498E-19 1.68697E-18
 -1      1547 1.21896E-04-3.71036E-05-3.61554E-05 4.40169E-06 5.78021E-19 3.16579E-18
 -1      1548 1.25764E-04-3.86004E-05-3.72613E-05 3.45258E-06 1.29967E-20 3.87735E-18
 -1      1549 1.23938E-04-3.83832E-05-3.64539E-05 4.76394E-06-9.01825E-20 1.82301E-18
 -1      1550 1.11820E-04-3.36419E-05-3.35001E-05 6.54677E-06-1.04430E-19 3.33530E-18
 -1      1551 1.18412E-04-3.61209E-05-3.52176E-05 5.79683E-06 2.14604E-19 3.14514E-18
 -1      1552 1.19220E-04-3.67087E-05-3.51974E-05 9.55351E-06 3.39197E-19 1.79052E-18
 -1      1553 1.00662E-04-2.95438E-05-3.07914E-05 5.85739E-06-4.98452E-19 4.86493E-18
 -1      1554 1.07593E-04-3.20360E-05-3.24795E-05 5.94406E-06-8.26837E-19 3.64796E-18
 -1      1555 1.11665E-04-3.33058E-05-3.35993E-05 1.12909E-05-9.84543E-19 2.79261E-18
 -1      1556 9.43968E-05-2.71744E-05-2.93418E-05 1.68658E-06-4.19678E-19 6.07204E-18
 -1      1557 9.79652E-05-2.82079E-05-3.01728E-05 2.80624E-06-1.83224E-19 5.72038E-18
 -1      1558 1.04692E-04-2.97038E-05-3.23814E-05 7.27204E-06-8.71253E-19 3.41566E-18
 -1      1559 9.71303E-05-2.82683E-05-2.99283E-05-3.64419E-06 1.06160E-18 5.60556E-18
 -1      1560 9.50616E-05-2.70927E-05-2.94466E-05-2.17275E-06 2.71077E-19 6.10250E-18
 -1      1561 1.02634E-04-2.84301E-05-3.21239E-05-1.27595E-06 7.22625E-20 4.10443E-18
 -1      1562 1.07095E-04-3.20229E-05-3.22339E-05-6.59914E-06 1.01421E-18 2.72448E-18
 -1      1563 1.00708E-04-2.94389E-05-3.07031E-05-5.73986E-06 1.17428E-18 4.78404E-18
 -1      1564 1.06956E-04-3.06311E-05-3.29279E-05-8.97953E-06 2.05517E-18 3.48813E-18
 -1      1565 1.18379E-04-3.59925E-05-3.50861E-05-5.97649E-06 4.63909E-19 1.34106E-18
 -1      1566 1.11310E-04-3.35170E-05-3.32880E-05-6.01961E-06 2.37209E-19 2.01213E-18
 -1      1567 1.14694E-04-3.45531E-05-3.44113E-05-1.13088E-05 1.27541E-18 3.32677E-18
 -1      1568 1.26058E-04-3.84351E-05-3.72629E-05-3.26275E-06 2.67345E-21 8.86314E-19
 -1      1569 1.21260E-04-3.70155E-05-3.59433E-05-3.83493E-06 2.86575E-19 1.13672E-18
 -1      1570 1.21472E-04-3.76070E-05-3.59097E-05-8.43269E-06 6.56609E-19 2.36507E-18
 -1      1571 1.28593E-04-3.90346E-05-3.81742E-05-4.38475E-07-4.95666E-19 5.95570E-19
 -1      1572 1.26944E-04-3.87552E-05-3.76449E-05-1.06295E-06-7.47904E-20 5.30878E-19
 -1      1573 1.24807E-04-3.87230E-05-3.68321E-05-3.44555E-06 9.43912E-20 1.29265E-18
 -1      1574 1.26992E-04-3.83273E-05-3.79050E-05 1.46275E-06-1.51209E-19 2.44819E-19
 -1      1575 1.27837E-04-3.88108E-05-3.80707E-05 1.02794E-06 6.55061E-20 4.72211E-19
 -1      1576 1.24591E-04-3.82595E-05-3.69482E-05 8.99159E-07-1.88796E-19 1.89491E-20
 -1      1577 1.23040E-04-3.69721E-05-3.68736E-05 2.35119E-06-4.79467E-20 1.16758E-18
 -1      1578 1.25272E-04-3.78037E-05-3.74647E-05 2.13117E-06-7.20716E-19 5.36132E-19
 -1      1579 1.21935E-04-3.69984E-05-3.63706E-05 3.53057E-06-7.94524E-19 1.77348E-21
 -1      1580 1.18238E-04-3.54384E-05-3.55126E-05 2.53178E-06 6.56974E-19 5.91864E-20
 -1      1581 1.20944E-04-3.63371E-05-3.62731E-05 2.46410E-06 4.50620E-19 7.86523E-19
 -1      1582 1.18081E-04-3.55138E-05-3.53716E-05 4.59140E-06 4.99759E-19-5.66572E-19
 -1      1583 1.13521E-04-3.39858E-05-3.41249E-05 2.33134E-06-8.32645E-19 3.85572E-19
 -1      1584 1.16149E-04-3.48072E-05-3.48855E-05 2.34824E-06-3.77591E-20 3.40825E-19
 -1      1585 1.13946E-04-3.40973E-05-3.42162E-05 4.62796E-06 1.53971E-20-1.35585E-19
 -1      1586 1.09348E-04-3.27274E-05-3.28738E-05 1.97725E-06 7.15604E-19-4.10361E-19
 -1      1587 1.11643E-04-3.34173E-05-3.35485E-05 2.03137E-06 2.80834E-19 2.40028E-19
 -1      1588 1.10069E-04-3.28645E-05-3.30877E-05 4.14211E-06 3.54874E-19-6.09937E-19
 -1      1589 1.05876E-04-3.16929E-05-3.18223E-05 1.59668E-06 9.45069E-19-1.27837E-18
 -1      1590 1.07760E-04-3.22446E-05-3.23813E-05 1.66117E-06 1.77533E-19-8.17069E-19
 -1      1591 1.06701E-04-3.18431E-05-3.20839E-05 3.46616E-06 5.95424E-19-3.61746E-19
 -1      1592 1.03097E-04-3.08708E-05-3.09763E-05 1.24892E-06-3.52346E-19 1.96611E-19
 -1      1593 1.04585E-04-3.12985E-05-3.14203E-05 1.31072E-06-2.42013E-19-2.27137E-19
 -1      1594 1.03912E-04-3.10221E-05-3.12412E-05 2.78112E-06-4.31474E-19 4.57735E-19
 -1      1595 1.00931E-04-3.02330E-05-3.03153E-05 9.55138E-07 5.59505E-21 2.03750E-18
 -1      1596 1.02076E-04-3.05574E-05-3.06582E-05 1.00899E-06 9.10031E-20 1.28273E-18
 -1      1597 1.01677E-04-3.03764E-05-3.05603E-05 2.16897E-06-3.27570E-19 1.71338E-18
 -1      1598 9.92769E-05-2.97472E-05-2.98100E-05 7.17677E-07 8.29225E-19 1.74271E-18
 -1      1599 1.00141E-04-2.99891E-05-3.00693E-05 7.62295E-07 1.38420E-19 1.99869E-18
 -1      1600 9.99279E-05-2.98771E-05-3.00247E-05 1.65660E-06 1.42176E-19 2.76203E-18
 -1      1601 9.80347E-05-2.93831E-05-2.94302E-05 5.30904E-07-2.75135E-19 1.44582E-18
 -1      1602 9.86765E-05-2.95608E-05-2.96231E-05 5.66774E-07 6.62059E-19 1.89817E-18
 -1      1603 9.85851E-05-2.94966E-05-2.96121E-05 1.24391E-06 8.66224E-19 3.67057E-18
 -1      1604 9.71162E-05-2.91143E-05-2.91492E-05 3.86618E-07 2.35398E-19 1.41073E-18
 -1      1605 9.75853E-05-2.92428E-05-2.92904E-05 4.14910E-07-2.99726E-19 5.14796E-19
 -1      1606 9.75707E-05-2.92108E-05-2.92995E-05 9.19539E-07-6.33306E-20 2.65576E-18
 -1      1607 9.64482E-05-2.89191E-05-2.89448E-05 2.76496E-07-1.58833E-19 5.17554E-19
 -1      1608 9.67852E-05-2.90103E-05-2.90464E-05 2.98548E-07 4.26253E-19 1.21073E-18
 -1      1609 9.68164E-05-2.89993E-05-2.90666E-05 6.68738E-07 3.82927E-19 1.61335E-18
 -1      1610 9.59721E-05-2.87802E-05-2.87991E-05 1.93000E-07 1.27217E-19 6.00879E-19
 -1      1611 9.62090E-05-2.88434E-05-2.88706E-05 2.10118E-07-1.37301E-19-4.73178E-21
 -1      1612 9.62651E-05-2.88453E-05-2.88960E-05 4.76878E-07-6.10889E-20 1.29645E-18
 -1      1613 9.56425E-05-2.86841E-05-2.86982E-05 1.29573E-07 6.32584E-19-1.01114E-18
 -1      1614 9.58036E-05-2.87261E-05-2.87469E-05 1.42982E-07 5.39629E-19-1.09276E-19
 -1      1615 9.58706E-05-2.87354E-05-2.87738E-05 3.30742E-07 8.85680E-19 3.98392E-19
 -1      1616 9.54255E-05-2.86208E-05-2.86319E-05 8.06360E-08 2.54027E-20-1.20643E-18
 -1      1617 9.55284E-05-2.86467E-05-2.86630E-05 9.14632E-08 9.55929E-20-1.02011E-18
 -1      1618 9.55968E-05-2.86594E-05-2.86890E-05 2.18846E-07 6.47416E-19 1.04189E-19
 -1      1619 9.52964E-05-2.85832E-05-2.85926E-05 4.17257E-08-2.99149E-19-1.24135E-18
 -1      1620 9.53535E-05-2.85962E-05-2.86099E-05 5.09768E-08 1.33624E-19-1.73577E-18
 -1      1621 9.54161E-05-2.86093E-05-2.86330E-05 1.31641E-07-3.40343E-21 1.20203E-19
 -1      1622 9.52366E-05-2.85665E-05-2.85736E-05 9.75861E-09 5.57747E-19-1.38442E-18
 -1      1623 9.52569E-05-2.85686E-05-2.85804E-05 1.84165E-08 2.20351E-19-9.38001E-19
 -1      1624 9.53073E-05-2.85792E-05-2.85992E-05 6.22288E-08-4.39533E-20 1.34592E-19
 -1      1625 9.52287E-05-2.85679E-05-2.85670E-05-1.16619E-08 7.87216E-19-1.32548E-18
 -1      1626 9.52213E-05-2.85614E-05-2.85678E-05-5.33697E-09 4.63516E-19-1.33574E-18
 -1      1627 9.52531E-05-2.85675E-05-2.85803E-05 8.07542E-09 9.53461E-19 5.10617E-19
 -1      1628 9.52303E-05-2.85761E-05-2.85626E-05-1.00995E-08-6.26424E-19-7.40985E-19
 -1      1629 9.52471E-05-2.85785E-05-2.85730E-05 3.76730E-09 1.26282E-18 1.66479E-18
 -1      1630 9.52440E-05-2.85764E-05-2.85707E-05-1.65295E-09-5.30900E-19 1.94896E-18
 -1      1631 9.52327E-05-2.85290E-05-2.85883E-05 3.42977E-08 2.30919E-18-3.42565E-19
 -1      1632 9.52404E-05-2.85539E-05-2.85805E-05 2.77905E-08 2.18101E-18-1.12975E-18
 -1      1633 9.52413E-05-2.85332E-05-2.85904E-05 3.50722E-08 1.07753E-18 8.92414E-19
 -1      1634 9.52022E-05-2.84377E-05-2.86141E-05 6.02018E-08 1.09340E-18-1.23262E-18
 -1      1635 9.52190E-05-2.84878E-05-2.85998E-05 5.56154E-08 3.09036E-18 1.52456E-19
 -1      1636 9.52187E-05-2.84656E-05-2.86101E-05 8.99361E-08 1.19096E-18 4.04248E-19
 -1      1637 9.51630E-05-2.83211E-05-2.86469E-05 7.31070E-08-1.05810E-18-1.84891E-18
 -1      1638 9.51845E-05-2.83852E-05-2.86287E-05 7.16446E-08 5.76527E-19 2.45703E-20
 -1      1639 9.51840E-05-2.83695E-05-2.86356E-05 1.29226E-07 5.35102E-19-1.77002E-18
 -1      1640 9.51239E-05-2.82038E-05-2.86802E-05 7.09085E-08-3.19073E-18-1.73826E-19
 -1      1641 9.51449E-05-2.82669E-05-2.86622E-05 7.24859E-08-1.42070E-18-2.58578E-18
 -1      1642 9.51442E-05-2.82606E-05-2.86642E-05 1.41708E-07-1.26944E-19-3.33689E-18
 -1      1643 9.50909E-05-2.81045E-05-2.87085E-05 5.48196E-08-2.92733E-19 1.91967E-18
 -1      1644 9.51080E-05-2.81558E-05-2.86938E-05 5.89950E-08-2.77705E-18 1.73971E-18
 -1      1645 9.51066E-05-2.81570E-05-2.86915E-05 1.26109E-07-4.04781E-19 1.13742E-18
 -1      1646 9.50709E-05-2.80436E-05-2.87259E-05 2.84887E-08-1.74459E-18-1.09875E-18
 -1      1647 9.50803E-05-2.80721E-05-2.87178E-05 3.43119E-08-2.30012E-19 3.40073E-19
 -1      1648 9.50772E-05-2.80757E-05-2.87131E-05 8.63883E-08-1.42649E-18 1.42933E-18
 -1      1649 9.50671E-05-2.80318E-05-2.87293E-05-2.85869E-09-1.08217E-18 1.56164E-18
 -1      1650 9.50672E-05-2.80323E-05-2.87292E-05 3.49799E-09-1.36066E-18 6.85313E-20
 -1      1651 9.50614E-05-2.80317E-05-2.87249E-05 3.09152E-08-7.19345E-19-1.46741E-18
 -1      1652 9.50800E-05-2.80708E-05-2.87182E-05-3.34269E-08 1.85864E-18 1.15831E-18
 -1      1653 9.50709E-05-2.80434E-05-2.87260E-05-2.76923E-08-7.56483E-19 1.85434E-18
 -1      1654 9.50616E-05-2.80321E-05-2.87248E-05-2.97491E-08 8.53865E-19 2.38493E-18
 -1      1655 9.51072E-05-2.81531E-05-2.86947E-05-5.76617E-08-3.94439E-19-1.59469E-18
 -1      1656 9.50907E-05-2.81031E-05-2.87089E-05-5.36064E-08 1.66418E-18-1.07096E-18
 -1      1657 9.50776E-05-2.80766E-05-2.87130E-05-8.45640E-08 2.93357E-19 6.04145E-19
 -1      1658 9.51431E-05-2.82613E-05-2.86638E-05-7.08717E-08-5.23372E-18-2.02847E-18
 -1      1659 9.51226E-05-2.81996E-05-2.86814E-05-6.92922E-08-1.56496E-18-3.24330E-18
 -1      1660 9.51065E-05-2.81566E-05-2.86917E-05-1.23363E-07-2.00427E-19-5.12748E-18
 -1      1661 9.51822E-05-2.83786E-05-2.86305E-05-7.05488E-08-2.70655E-18 2.28635E-18
 -1      1662 9.51612E-05-2.83155E-05-2.86484E-05-7.18591E-08-6.04889E-18 2.62959E-18
 -1      1663 9.51434E-05-2.82588E-05-2.86646E-05-1.39060E-07-2.23805E-19-1.47007E-19
 -1      1664 9.52163E-05-2.84809E-05-2.86016E-05-5.56826E-08-1.54219E-18 1.03689E-18
 -1      1665 9.51996E-05-2.84305E-05-2.86160E-05-5.99101E-08-3.27448E-18 1.56803E-18
 -1      1666 9.51827E-05-2.83670E-05-2.86360E-05-1.27903E-07-6.18440E-19 2.25019E-18
 -1      1667 9.52394E-05-2.85484E-05-2.85821E-05-3.01961E-08-1.54914E-18 5.31295E-19
 -1      1668 9.52294E-05-2.85212E-05-2.85902E-05-3.66411E-08-1.73744E-18 9.92023E-19
 -1      1669 9.52160E-05-2.84612E-05-2.86107E-05-9.09847E-08-1.35916E-18 1.10341E-18
 -1      1670 9.52455E-05-2.85656E-05-2.85761E-05-8.65162E-09-1.12657E-18-4.88050E-19
 -1      1671 9.52462E-05-2.85627E-05-2.85796E-05-1.62699E-08-7.29826E-19-5.29397E-19
 -1      1672 9.52436E-05-2.85175E-05-2.85969E-05-5.33456E-08-1.64172E-18 4.57189E-19
 -1      1673 9.52567E-05-2.85477E-05-2.85884E-05-2.43861E-08-3.38035E-19-6.76292E-19
 -1      1674 1.96629E-05-6.41486E-05 1.35256E-05-6.47358E-06 2.14257E-18 9.34277E-19
 -1      1675 2.26079E-05-7.28922E-05 1.55535E-05 1.25479E-06 1.22153E-18 5.02714E-19
 -1      1676 1.98868E-05-3.94899E-05 3.94516E-06 1.37077E-06 2.79267E-18 7.16166E-19
 -1      1677 2.43469E-05-6.18847E-05 9.99741E-06-2.01719E-06 2.87991E-18 7.02879E-19
 -1      1678 3.43582E-05-1.26003E-05-1.16927E-05 2.60724E-05 3.00358E-18 3.43302E-18
 -1      1679 2.85246E-05-3.32240E-05-3.01734E-06 8.08956E-06 2.94598E-18 1.78512E-18
 -1      1680 8.41389E-05-7.07089E-06-3.22483E-05 5.97462E-05 3.43895E-18 4.34951E-18
 -1      1681 5.61009E-05-1.24793E-05-2.12815E-05 3.53226E-05 3.00527E-18 3.48131E-18
 -1      1682 1.52081E-04-2.07244E-05-5.23472E-05 7.82593E-05 3.09760E-18 4.94159E-18
 -1      1683 1.06864E-04-6.69247E-06-4.24115E-05 6.58588E-05 3.37204E-18 4.94244E-18
 -1      1684 2.24542E-04-5.06038E-05-6.84668E-05 6.04061E-05 1.69380E-18 1.86601E-18
 -1      1685 1.78222E-04-2.73786E-05-6.08530E-05 7.45263E-05 3.00591E-18 4.22331E-18
 -1      1686 2.53781E-04-6.28896E-05-7.55086E-05 9.71704E-06 1.27351E-18-8.82185E-19
 -1      1687 2.34598E-04-5.22856E-05-7.25874E-05 4.21751E-05 2.16184E-18 9.19031E-19
 -1      1688 2.45492E-04-5.76439E-05-7.42487E-05-3.74197E-05 2.23193E-18-3.45971E-18
 -1      1689 2.58810E-04-6.52848E-05-7.63145E-05-3.64245E-06 8.72867E-19-2.03351E-18
 -1      1690 1.93179E-04-3.36243E-05-6.39576E-05-7.20591E-05 3.72271E-18-6.21892E-18
 -1      1691 2.36008E-04-5.56310E-05-7.06470E-05-5.38096E-05 2.98338E-18-4.04035E-18
 -1      1692 1.17575E-04-8.53173E-06-4.56859E-05-6.94146E-05 5.62599E-18-7.46744E-18
 -1      1693 1.67061E-04-2.59950E-05-5.58409E-05-7.86005E-05 4.42871E-18-6.85758E-18
 -1      1694 6.29631E-05-8.41877E-06-2.53975E-05-4.20633E-05 5.08813E-18-5.56331E-18
 -1      1695 9.30307E-05-6.53197E-06-3.57056E-05-6.46147E-05 5.37358E-18-7.19639E-18
 -1      1696 3.36645E-05-2.78177E-05-6.80425E-06-1.44781E-05 3.14419E-18-3.51010E-18
 -1      1697 4.35272E-05-9.78061E-06-1.60262E-05-3.42882E-05 4.69849E-18-5.15504E-18
 -1      1698 2.57213E-05-5.67624E-05 7.69975E-06-7.06971E-07 7.19978E-19-1.37317E-18
 -1      1699 2.31921E-05-3.36502E-05 7.57277E-07-8.11874E-06 2.28614E-18-3.02454E-18
 -1      1700 2.38807E-05-7.54812E-05 1.55216E-05 1.04419E-06-2.10488E-18-1.25191E-18
 -1      1701 1.93906E-05-6.24433E-05 1.27531E-05 7.42138E-06-9.78323E-20-1.18023E-18
 -1      1702 2.16283E-05-7.17482E-05 1.52288E-05-4.90657E-06-4.22796E-18-1.53355E-18
 -1      1703 2.36742E-05-7.77635E-05 1.64891E-05 4.68733E-06-2.56225E-18-6.41627E-19
 -1      1704 1.94025E-05-4.46019E-05 6.33118E-06 1.83126E-06-6.22908E-18-3.05488E-18
 -1      1705 2.43168E-05-6.56862E-05 1.16784E-05 1.11838E-06-4.75694E-18-2.23288E-18
 -1      1706 2.76109E-05-1.51765E-05-7.85884E-06 2.10410E-05-6.45609E-18-3.85654E-18
 -1      1707 2.58233E-05-3.77721E-05 1.66070E-07 6.62002E-06-6.78219E-18-2.96589E-18
 -1      1708 6.26687E-05-1.72622E-07-2.67445E-05 5.41563E-05-5.21603E-18-3.62784E-18
 -1      1709 4.15982E-05-9.76741E-06-1.65824E-05 3.01397E-05-6.25534E-18-4.18180E-18
 -1      1710 1.29971E-04-1.59113E-05-4.62099E-05 7.19117E-05-2.72025E-18-2.35983E-18
 -1      1711 9.13755E-05-6.75572E-06-3.63541E-05 5.71118E-05-4.33766E-18-3.13402E-18
 -1      1712 1.95280E-04-3.75086E-05-6.25689E-05 6.91116E-05-1.15387E-18-9.06325E-19
 -1      1713 1.51153E-04-1.68958E-05-5.49449E-05 7.47017E-05-2.13452E-18-2.14723E-18
 -1      1714 2.42918E-04-5.93667E-05-7.25757E-05 2.50815E-05-5.12243E-19 1.52678E-18
 -1      1715 2.13263E-04-4.32632E-05-6.81956E-05 5.54423E-05-9.97487E-19 1.48231E-19
 -1      1716 2.49037E-04-6.15899E-05-7.40289E-05-2.71422E-05-2.26370E-19 2.26370E-18
 -1      1717 2.53780E-04-6.44851E-05-7.47760E-05 8.76017E-06-1.00797E-19 1.84113E-18
 -1      1718 2.06940E-04-4.01847E-05-6.67098E-05-6.55413E-05-1.65214E-18 2.07100E-18
 -1      1719 2.39171E-04-5.76880E-05-7.13698E-05-4.27810E-05-3.60095E-19 2.05914E-18
 -1      1720 1.42834E-04-1.43670E-05-5.26738E-05-7.44452E-05-2.31621E-18 3.29581E-18
 -1      1721 1.86024E-04-3.33063E-05-6.05090E-05-7.29137E-05-2.09323E-18 2.51484E-18
 -1      1722 8.58070E-05-2.54613E-06-3.57671E-05-5.96791E-05-4.51045E-18 3.25261E-18
 -1      1723 1.20077E-04-9.73588E-06-4.45928E-05-7.46905E-05-2.79521E-18 3.17383E-18
 -1      1724 4.69036E-05-9.95171E-06-1.82939E-05-3.36850E-05-5.37358E-18 4.18095E-18
 -1      1725 6.61783E-05-1.91000E-06-2.72376E-05-5.44426E-05-4.95599E-18 3.53213E-18
 -1      1726 2.82014E-05-3.36266E-05-2.18644E-06-1.05328E-05-2.94937E-18 3.42582E-18
 -1      1727 3.22666E-05-1.34277E-05-1.01553E-05-2.61087E-05-4.75948E-18 5.17961E-18
 -1      1728 2.37513E-05-6.10037E-05 9.97775E-06 2.98367E-07-2.53686E-18 1.32269E-18
 -1      1729 1.89850E-05-3.94836E-05 4.45613E-06-2.17955E-06-3.27124E-18 1.83880E-18
 -1      1730 2.29899E-05-7.35458E-05 1.55721E-05-3.83547E-06 1.60830E-18 2.02907E-18
 -1      1731 2.01089E-05-6.39749E-05 1.33165E-05 3.67357E-06-1.27478E-18 2.59531E-18
 -1      1732 1.22514E-04-3.53976E-05-3.65405E-05 4.31401E-05 1.45012E-18 2.50891E-18
 -1      1733 7.68043E-05-3.78741E-05-1.79887E-05 3.84592E-05 1.06896E-18 2.51399E-18
 -1      1734 9.52419E-05-2.85800E-05-2.85680E-05-1.41661E-08-1.02976E-18 4.14942E-19
 -1      1735 9.52438E-05-2.85600E-05-2.85781E-05-3.75698E-09 7.32889E-19 2.68092E-18
 -1      1736 1.88416E-05-4.66103E-05 7.87004E-06 1.32337E-05-1.82536E-19 4.90220E-19
 -1      1737 3.98696E-05-4.26545E-05-2.11443E-06 2.59281E-05 4.69256E-19 1.71577E-19
 -1      1738 1.09981E-05-4.65985E-05 1.11502E-05-1.82956E-06-2.77668E-19 2.15909E-18
 -1      1739 1.69592E-04-3.44390E-05-5.44353E-05 4.14390E-05 2.34501E-18 1.90498E-18
 -1      1740 2.00085E-04-3.34190E-05-6.65036E-05 2.17726E-05 3.08045E-18 2.99426E-19
 -1      1741 2.09452E-04-3.19975E-05-7.09903E-05 1.61120E-07 2.16205E-18-7.08437E-19
 -1      1742 2.07664E-04-3.51297E-05-6.84654E-05-2.04544E-05 3.17680E-18-2.78674E-18
 -1      1743 1.77671E-04-3.46560E-05-5.73041E-05-3.93830E-05 2.95138E-18-3.00019E-18
 -1      1744 1.30557E-04-3.43356E-05-3.99663E-05-4.41569E-05 3.09929E-18-4.41050E-18
 -1      1745 8.54165E-05-3.72206E-05-2.16379E-05-4.00713E-05 2.21838E-18-4.42829E-18
 -1      1746 4.87696E-05-4.24266E-05-5.51075E-06-3.06685E-05 9.52912E-19-3.73626E-18
 -1      1747 2.31314E-05-4.63882E-05 6.30804E-06-1.80088E-05-4.40457E-20-2.50383E-18
 -1      1748 1.21256E-05-5.14836E-05 1.20899E-05-1.56644E-06-1.09934E-18-2.24803E-18
 -1      1749 1.61394E-05-4.85979E-05 9.62674E-06 1.34649E-05-2.50976E-18-2.67239E-18
 -1      1750 3.31255E-05-4.20515E-05 5.11561E-07 2.61254E-05-2.78843E-18-2.43368E-18
 -1      1751 6.14990E-05-3.34043E-05-1.37180E-05 3.77983E-05-3.78031E-18-2.33866E-18
 -1      1752 1.07098E-04-3.19851E-05-3.13889E-05 4.49233E-05-3.24498E-18-1.09098E-18
 -1      1753 1.50524E-04-3.28276E-05-4.83524E-05 3.97166E-05-2.25734E-18-7.63177E-19
 -1      1754 1.85504E-04-3.06689E-05-6.21846E-05 2.89022E-05-1.69280E-18 7.10237E-19
 -1      1755 2.06810E-04-3.25720E-05-6.95334E-05 7.11687E-06-1.18754E-18 1.15747E-18
 -1      1756 2.09271E-04-3.53978E-05-6.91110E-05-1.71612E-05-4.09964E-19 1.38680E-18
 -1      1757 1.82539E-04-3.14431E-05-6.06140E-05-3.53869E-05-1.44160E-18 2.62580E-19
 -1      1758 1.45301E-04-2.99242E-05-4.70590E-05-4.46776E-05-1.78957E-18 8.87691E-19
 -1      1759 1.04975E-04-3.07533E-05-3.12993E-05-4.58827E-05-2.95869E-18 1.04947E-18
 -1      1760 6.79410E-05-3.47705E-05-1.54958E-05-3.97266E-05-2.75794E-18 3.34493E-18
 -1      1761 3.74582E-05-4.08986E-05-1.48982E-06-2.82185E-05-2.51399E-18 2.88134E-18
 -1      1762 1.83679E-05-4.68137E-05 8.07322E-06-1.53371E-05-3.54060E-19 3.00485E-18
 -1      1763 1.05845E-04-2.31252E-05-3.55361E-05-1.67889E-05-7.32167E-19 1.25488E-18
 -1      1764 8.91531E-05-1.05555E-05-3.38082E-05-1.32188E-05-5.40731E-19-1.67503E-18
 -1      1765 9.04593E-05-1.16263E-05-3.39366E-05-1.49946E-05-7.48737E-19-1.46563E-18
 -1      1766 9.24663E-05-1.38736E-05-3.38421E-05-1.58943E-05-8.29488E-19-1.17838E-18
 -1      1767 9.41425E-05-1.58194E-05-3.40700E-05-1.75596E-05-9.80824E-19-8.04046E-19
 -1      1768 9.34344E-05-1.63566E-05-3.30434E-05-1.36260E-05-8.10988E-19-1.19617E-18
 -1      1769 8.62599E-05-7.62580E-06-3.37720E-05-7.75218E-06-1.19265E-19-1.84966E-18
 -1      1770 8.66605E-05-7.93265E-06-3.38006E-05-9.13357E-06-2.44905E-19-1.87816E-18
 -1      1771 8.56378E-05-6.96547E-06-3.37763E-05-5.23355E-06 1.36797E-19-1.75893E-18
 -1      1772 8.58744E-05-7.15189E-06-3.37883E-05-6.52498E-06 4.12498E-20-1.80181E-18
 -1      1773 8.76261E-05-9.78598E-06-3.33922E-05-6.80885E-06-8.32375E-20-1.75259E-18
 -1      1774 8.52952E-05-6.58874E-06-3.37837E-05-2.83715E-06 3.69129E-19-1.54415E-18
 -1      1775 8.54188E-05-6.68880E-06-3.37880E-05-4.05927E-06 2.72771E-19-1.67546E-18
 -1      1776 8.69800E-05-9.04560E-06-3.34321E-05-4.44881E-06 2.12707E-19-1.63064E-18
 -1      1777 8.51607E-05-6.43195E-06-3.37890E-05-5.07750E-07 6.54710E-19-1.43388E-18
 -1      1778 8.51970E-05-6.46226E-06-3.37898E-05-1.69744E-06 5.32782E-19-1.49755E-18
 -1      1779 8.66378E-05-8.64698E-06-3.34559E-05-2.17107E-06 4.62838E-19-1.44659E-18
 -1      1780 8.52089E-05-6.47192E-06-3.37905E-05 1.81161E-06 8.79070E-19-1.27958E-18
 -1      1781 8.51651E-05-6.43681E-06-3.37891E-05 6.20824E-07 7.91460E-19-1.37728E-18
 -1      1782 8.65366E-05-8.52687E-06-3.34639E-05 6.31824E-08 7.67717E-19-1.33865E-18
 -1      1783 8.54482E-05-6.71533E-06-3.37892E-05 4.17840E-06 1.02940E-18-1.11914E-18
 -1      1784 8.53163E-05-6.60887E-06-3.37845E-05 2.95293E-06 9.45836E-19-1.23810E-18
 -1      1785 8.66582E-05-8.66767E-06-3.34559E-05 2.29889E-06 9.75288E-19-1.19470E-18
 -1      1786 8.59144E-05-7.18956E-06-3.37895E-05 6.60998E-06 1.10286E-18-8.46570E-19
 -1      1787 8.56731E-05-6.99932E-06-3.37775E-05 5.33547E-06 1.05349E-18-1.02705E-18
 -1      1788 8.70190E-05-9.08512E-06-3.34317E-05 4.56048E-06 1.10552E-18-1.05024E-18
 -1      1789 8.67308E-05-8.00439E-06-3.38007E-05 9.25381E-06 1.29311E-18-3.94161E-19
 -1      1790 8.63111E-05-7.67904E-06-3.37722E-05 7.84030E-06 1.18813E-18-6.23615E-19
 -1      1791 8.76846E-05-9.84705E-06-3.33909E-05 6.90538E-06 1.21906E-18-6.71512E-19
 -1      1792 8.81303E-05-9.37468E-06-3.38408E-05 1.21284E-05 1.44467E-18 1.21179E-19
 -1      1793 8.74006E-05-8.80978E-06-3.37771E-05 1.05371E-05 1.34698E-18-2.09376E-19
 -1      1794 8.88113E-05-1.11140E-05-3.33291E-05 9.36397E-06 1.39176E-18-2.49332E-19
 -1      1795 9.06353E-05-1.18398E-05-3.39285E-05 1.51845E-05 1.39811E-18 8.93461E-19
 -1      1796 8.92793E-05-1.07379E-05-3.38010E-05 1.33918E-05 1.40764E-18 4.30954E-19
 -1      1797 9.06945E-05-1.32028E-05-3.32292E-05 1.18362E-05 1.46078E-18 3.30727E-19
 -1      1798 9.58012E-05-1.70251E-05-3.39642E-05 1.75904E-05 1.14144E-18 2.33728E-18
 -1      1799 9.28268E-05-1.43415E-05-3.38142E-05 1.60871E-05 1.24657E-18 1.49787E-18
 -1      1800 9.39571E-05-1.68777E-05-3.30227E-05 1.37715E-05 1.31928E-18 1.12679E-18
 -1      1801 1.01771E-04-2.50561E-05-3.33086E-05 1.43488E-05 8.46662E-19 3.79323E-18
 -1      1802 9.79695E-05-1.95986E-05-3.35871E-05 1.68761E-05 1.02399E-18 2.85350E-18
 -1      1803 9.72569E-05-2.18363E-05-3.24035E-05 1.31494E-05 1.07716E-18 2.27045E-18
 -1      1804 9.86196E-05-2.60990E-05-3.13002E-05 9.36613E-06 7.82817E-19 3.56356E-18
 -1      1805 1.00023E-04-1.95428E-05-3.41705E-05-1.87841E-05-9.47221E-19-1.88465E-20
 -1      1806 9.52265E-05-2.72555E-05-2.91611E-05 3.99208E-06 5.83182E-19 3.01581E-18
 -1      1807 9.76298E-05-2.73553E-05-3.01611E-05 6.32881E-06 6.53168E-19 3.30084E-18
 -1      1808 9.74942E-05-2.55897E-05-3.08086E-05 8.67021E-06 7.91155E-19 2.51863E-18
 -1      1809 9.97141E-05-2.25188E-05-3.28029E-05-1.43760E-05-9.39783E-19-2.94450E-19
 -1      1810 9.68955E-05-2.69511E-05-2.98608E-05-5.60665E-06-6.92979E-19-3.09689E-19
 -1      1811 9.51205E-05-2.70120E-05-2.91607E-05-3.79105E-06-5.79873E-19-4.99902E-19
 -1      1812 9.43295E-05-2.72163E-05-2.86654E-05-2.29544E-06-6.21232E-19-4.48564E-19
 -1      1813 9.35998E-05-2.73037E-05-2.83739E-05-1.42335E-06-6.20637E-19-6.25722E-19
 -1      1814 9.55151E-05-2.65243E-05-2.95892E-05-4.31834E-06-7.08695E-19-7.20630E-19
 -1      1815 9.31158E-05-2.73609E-05-2.81211E-05-5.65207E-07-5.27705E-19-6.23545E-19
 -1      1816 9.28723E-05-2.74353E-05-2.80174E-05-9.82387E-08-3.64850E-19-7.15253E-19
 -1      1817 9.43733E-05-2.72028E-05-2.88090E-05-1.61600E-06-6.41412E-19-5.87493E-19
 -1      1818 9.26530E-05-2.74727E-05-2.79026E-05 4.02709E-07-1.82215E-19-6.72607E-19
 -1      1819 9.27025E-05-2.75658E-05-2.78980E-05 6.67208E-07-8.36313E-20-7.12451E-19
 -1      1820 9.37666E-05-2.75174E-05-2.84105E-05-6.19618E-08-3.59038E-19-6.43681E-19
 -1      1821 9.26759E-05-2.76119E-05-2.78682E-05 9.69070E-07-2.41969E-19-7.07871E-19
 -1      1822 9.29026E-05-2.77220E-05-2.79218E-05 1.12735E-06-2.35032E-19-8.31659E-19
 -1      1823 9.35752E-05-2.77179E-05-2.82388E-05 8.61896E-07-2.04856E-19-7.57159E-19
 -1      1824 9.30111E-05-2.77813E-05-2.79473E-05 1.31973E-06-2.26712E-19-7.78714E-19
 -1      1825 9.33509E-05-2.79041E-05-2.80384E-05 1.42374E-06-1.65690E-19-7.59357E-19
 -1      1826 9.36876E-05-2.78868E-05-2.82111E-05 1.43468E-06-2.36630E-19-7.04049E-19
 -1      1827 9.35561E-05-2.79756E-05-2.81017E-05 1.56010E-06-1.43184E-19-7.74280E-19
 -1      1828 9.39750E-05-2.81090E-05-2.82191E-05 1.64056E-06-1.33234E-19-7.28957E-19
 -1      1829 9.40175E-05-2.80505E-05-2.82796E-05 1.81732E-06-1.86360E-19-7.24693E-19
 -1      1830 9.42535E-05-2.81924E-05-2.83099E-05 1.75386E-06-2.30120E-19-6.21824E-19
 -1      1831 9.47360E-05-2.83371E-05-2.84480E-05 1.82930E-06-5.09126E-20-6.21172E-19
 -1      1832 9.45088E-05-2.82200E-05-2.84158E-05 2.10759E-06-1.67683E-19-9.54176E-19
 -1      1833 9.50757E-05-2.84333E-05-2.85601E-05 1.93904E-06-3.46952E-19-7.44762E-19
 -1      1834 9.56165E-05-2.85923E-05-2.87162E-05 2.01922E-06-6.33334E-19-1.09606E-18
 -1      1835 9.51297E-05-2.84038E-05-2.86022E-05 2.36514E-06-4.61027E-19-8.63190E-19
 -1      1836 9.60123E-05-2.87043E-05-2.88459E-05 2.13408E-06-6.61612E-19-1.21600E-18
 -1      1837 9.66112E-05-2.88822E-05-2.90188E-05 2.22077E-06-4.76186E-19-1.36946E-18
 -1      1838 9.58655E-05-2.86119E-05-2.88278E-05 2.62230E-06-6.57541E-19-1.09163E-18
 -1      1839 9.70619E-05-2.90146E-05-2.91630E-05 2.33881E-06-4.02650E-19-1.49469E-18
 -1      1840 9.77177E-05-2.92164E-05-2.93511E-05 2.42513E-06-8.84893E-20-1.50107E-18
 -1      1841 9.67123E-05-2.88580E-05-2.90851E-05 2.88743E-06-4.42832E-19-1.12723E-18
 -1      1842 9.82230E-05-2.93751E-05-2.95064E-05 2.53254E-06 3.18426E-19-1.57720E-18
 -1      1843 9.89284E-05-2.96052E-05-2.97061E-05 2.60127E-06 3.19222E-19-1.33081E-18
 -1      1844 9.76711E-05-2.91591E-05-2.93667E-05 3.14382E-06-2.06119E-20-8.81049E-19
 -1      1845 9.94851E-05-2.97967E-05-2.98671E-05 2.67021E-06 2.42267E-19-1.41811E-18
 -1      1846 1.00220E-04-3.00566E-05-3.00710E-05 2.69189E-06 2.85219E-19-8.22314E-19
 -1      1847 9.87407E-05-2.95355E-05-2.96634E-05 3.34612E-06 2.25341E-19-5.81420E-19
 -1      1848 1.00818E-04-3.02864E-05-3.02294E-05 2.67860E-06 2.74658E-19-8.70176E-19
 -1      1849 1.01541E-04-3.05715E-05-3.04243E-05 2.61066E-06-5.28622E-20-7.82644E-19
 -1      1850 9.99117E-05-3.00078E-05-2.99619E-05 3.41598E-06 1.32447E-19-7.29062E-19
 -1      1851 1.02162E-04-3.08409E-05-3.05688E-05 2.45583E-06-3.07153E-19-7.20703E-19
 -1      1852 1.02806E-04-3.11354E-05-3.07349E-05 2.24514E-06-4.35911E-19-8.53147E-19
 -1      1853 1.01157E-04-3.05903E-05-3.02441E-05 3.24032E-06-1.30323E-19-4.16175E-19
 -1      1854 1.03410E-04-3.14351E-05-3.08511E-05 1.88018E-06-7.84164E-19-9.12599E-19
 -1      1855 1.03880E-04-3.17054E-05-3.09622E-05 1.47297E-06-4.89941E-19-8.15346E-19
 -1      1856 1.02418E-04-3.12783E-05-3.04869E-05 2.67824E-06-6.86957E-19-1.48598E-19
 -1      1857 1.04404E-04-3.20058E-05-3.10348E-05 8.37566E-07-1.17228E-19-7.71406E-19
 -1      1858 1.04575E-04-3.21932E-05-3.10618E-05 2.01292E-07-2.05273E-20-8.38487E-19
 -1      1859 1.03593E-04-3.20249E-05-3.06657E-05 1.58619E-06-4.31375E-19 2.83929E-19
 -1      1860 1.04926E-04-3.24329E-05-3.10786E-05-7.21917E-07-4.70798E-20-8.08325E-19
 -1      1861 1.04673E-04-3.24517E-05-3.09971E-05-1.56253E-06 2.99135E-19-5.90466E-19
 -1      1862 1.04517E-04-3.27109E-05-3.07608E-05-1.26418E-07 1.54799E-20-1.34811E-19
 -1      1863 1.04726E-04-3.25321E-05-3.09545E-05-2.69598E-06 8.71981E-19-5.34651E-19
 -1      1864 1.03959E-04-3.22841E-05-3.07556E-05-3.61628E-06 1.17525E-18-6.41364E-19
 -1      1865 1.04957E-04-3.31210E-05-3.07649E-05-2.40334E-06 5.78722E-19 1.79205E-19
 -1      1866 1.03594E-04-3.20895E-05-3.06631E-05-4.73575E-06 9.23663E-19-7.05171E-19
 -1      1867 1.02325E-04-3.15087E-05-3.03655E-05-5.48923E-06 2.14197E-19-5.84403E-19
 -1      1868 1.04646E-04-3.29634E-05-3.06915E-05-4.92445E-06 9.45563E-19-2.57955E-19
 -1      1869 1.01499E-04-3.09689E-05-3.02465E-05-6.21995E-06-9.49206E-20-1.06776E-19
 -1      1870 9.99075E-05-3.00957E-05-2.99021E-05-6.48140E-06-1.31764E-19 1.74863E-19
 -1      1871 1.03397E-04-3.19842E-05-3.05750E-05-7.03349E-06 3.47517E-19-3.96042E-19
 -1      1872 9.87605E-05-2.92850E-05-2.97871E-05-6.40709E-06-3.63700E-19-2.42179E-19
 -1      1873 9.72069E-05-2.83272E-05-2.94727E-05-5.91462E-06-4.56074E-19 8.23740E-20
 -1      1874 1.01296E-04-3.01879E-05-3.04591E-05-7.83549E-06-3.29753E-19-2.53667E-19
 -1      1875 9.61101E-05-2.75189E-05-2.93889E-05-4.81634E-06-4.56038E-19 5.11257E-19
 -1      1876 9.50493E-05-2.68165E-05-2.91843E-05-3.56568E-06-4.88473E-19 7.51917E-19
 -1      1877 9.88867E-05-2.80401E-05-3.03765E-05-6.57884E-06-3.61465E-19-4.40060E-21
 -1      1878 9.44758E-05-2.63847E-05-2.91475E-05-1.65626E-06-4.52024E-19 7.29348E-19
 -1      1879 9.42665E-05-2.62409E-05-2.91083E-05 1.11966E-09-6.28657E-20 4.44509E-19
 -1      1880 9.70833E-05-2.63985E-05-3.03360E-05-3.21656E-06-1.99665E-19 3.55502E-19
 -1      1881 9.44996E-05-2.64148E-05-2.91240E-05 2.08278E-06-1.42037E-19-1.02020E-19
 -1      1882 9.52179E-05-2.68968E-05-2.92614E-05 3.57773E-06-5.37006E-20-5.71009E-19
 -1      1883 9.67145E-05-2.60576E-05-3.03310E-05 1.28665E-06-3.87504E-19 5.55442E-19
 -1      1884 9.61423E-05-2.75824E-05-2.93278E-05 5.09480E-06 2.42202E-19-2.41964E-19
 -1      1885 9.75387E-05-2.84723E-05-2.96046E-05 5.94763E-06 5.39361E-19 4.32344E-19
 -1      1886 9.79649E-05-2.71927E-05-3.03593E-05 5.33361E-06 4.47147E-19 6.02664E-19
 -1      1887 9.87274E-05-2.93266E-05-2.97113E-05 6.47714E-06 6.16487E-19 1.74125E-19
 -1      1888 1.00365E-04-3.02747E-05-3.00557E-05 6.53476E-06 9.16345E-19 3.42244E-19
 -1      1889 1.00239E-04-2.92313E-05-3.04280E-05 7.58846E-06 5.46244E-19 9.08167E-19
 -1      1890 1.01375E-04-3.09575E-05-3.01805E-05 6.12403E-06 2.37953E-19 2.91561E-19
 -1      1891 1.02834E-04-3.16849E-05-3.05114E-05 5.55605E-06-5.12981E-19-1.75978E-19
 -1      1892 1.02588E-04-3.12717E-05-3.05387E-05 7.65321E-06 3.33397E-19-8.20861E-20
 -1      1893 1.03420E-04-3.20328E-05-3.06239E-05 4.56820E-06-1.38441E-18-6.97287E-19
 -1      1894 1.04439E-04-3.24292E-05-3.08768E-05 3.69525E-06-1.06384E-18-1.29719E-18
 -1      1895 1.04273E-04-3.26408E-05-3.06685E-05 6.03355E-06-9.61184E-19-1.12593E-19
 -1      1896 1.04577E-04-3.24610E-05-3.09501E-05 2.54586E-06-1.30843E-18-2.01725E-18
 -1      1897 1.05079E-04-3.25554E-05-3.10923E-05 1.66057E-06-1.56911E-18-1.61171E-18
 -1      1898 1.05019E-04-3.31458E-05-3.07773E-05 3.62572E-06-1.34705E-18-5.48055E-19
 -1      1899 1.04868E-04-3.23774E-05-3.11108E-05 6.46117E-07-9.08608E-19-9.14881E-19
 -1      1900 1.04907E-04-3.22618E-05-3.11406E-05-7.21497E-08-3.97387E-19-7.26317E-19
 -1      1901 1.04921E-04-3.29567E-05-3.08255E-05 1.22038E-06-8.89156E-19-2.86385E-20
 -1      1902 1.04477E-04-3.19854E-05-3.11030E-05-8.13291E-07-3.18772E-19-1.06105E-18
 -1      1903 1.04173E-04-3.17551E-05-3.10402E-05-1.29974E-06-5.81855E-20-1.39124E-18
 -1      1904 1.04234E-04-3.23703E-05-3.07904E-05-7.13826E-07-5.59171E-19-4.45247E-19
 -1      1905 1.03635E-04-3.14589E-05-3.09559E-05-1.74915E-06 2.23374E-19-2.09933E-18
 -1      1906 1.03117E-04-3.11858E-05-3.08294E-05-2.01548E-06 6.52263E-19-2.00486E-18
 -1      1907 1.03217E-04-3.16436E-05-3.06715E-05-2.01604E-06-3.06957E-19-6.79790E-19
 -1      1908 1.02549E-04-3.09128E-05-3.07134E-05-2.21925E-06 6.97424E-19-2.71126E-18
 -1      1909 1.01931E-04-3.06419E-05-3.05521E-05-2.31293E-06 3.00628E-19-2.45611E-18
 -1      1910 1.02067E-04-3.09381E-05-3.04849E-05-2.72395E-06 2.89479E-19-1.54218E-18
 -1      1911 1.01381E-04-3.04094E-05-3.04199E-05-2.33883E-06-1.73305E-19-2.91339E-18
 -1      1912 1.00746E-04-3.01645E-05-3.02475E-05-2.31496E-06-2.50907E-19-2.96384E-18
 -1      1913 1.00917E-04-3.03302E-05-3.02548E-05-2.96589E-06-1.57702E-20-2.40861E-18
 -1      1914 1.00243E-04-2.99756E-05-3.01123E-05-2.22798E-06 3.03050E-19-2.48117E-18
 -1      1915 9.96447E-05-2.97667E-05-2.99453E-05-2.13476E-06-1.64086E-19-1.99116E-18
 -1      1916 9.98442E-05-2.98413E-05-3.00058E-05-2.88874E-06 4.04968E-19-1.59900E-18
 -1      1917 9.92040E-05-2.96176E-05-2.98167E-05-1.98693E-06-3.20800E-19-1.92605E-18
 -1      1918 9.86725E-05-2.94464E-05-2.96654E-05-1.86063E-06-4.61517E-19-2.07031E-18
 -1      1919 9.88897E-05-2.94649E-05-2.97586E-05-2.62124E-06-4.94826E-19-1.51556E-18
 -1      1920 9.82979E-05-2.93312E-05-2.95495E-05-1.68893E-06-4.62193E-19-6.66174E-19
 -1      1921 9.78465E-05-2.91953E-05-2.94188E-05-1.55402E-06-1.36651E-19-4.00644E-19
 -1      1922 9.80698E-05-2.91835E-05-2.95278E-05-2.26118E-06 5.11287E-19-2.24632E-19
 -1      1923 9.75366E-05-2.91078E-05-2.93186E-05-1.38229E-06-1.10577E-18-8.04856E-19
 -1      1924 9.71667E-05-2.90026E-05-2.92101E-05-1.25356E-06-1.10320E-18-6.19764E-19
 -1      1925 9.73852E-05-2.89777E-05-2.93224E-05-1.87545E-06-1.02461E-18 1.22900E-18
 -1      1926 9.69163E-05-2.89370E-05-2.91264E-05-1.09545E-06-3.67226E-19-1.23898E-18
 -1      1927 9.66224E-05-2.88577E-05-2.90392E-05-9.80642E-07-9.54550E-20-5.75736E-19
 -1      1928 9.68276E-05-2.88296E-05-2.91464E-05-1.50533E-06-6.33477E-19 4.39475E-19
 -1      1929 9.64247E-05-2.88092E-05-2.89714E-05-8.42616E-07 7.96389E-19-1.05135E-18
 -1      1930 9.61978E-05-2.87507E-05-2.89033E-05-7.44658E-07 1.32781E-18 1.16001E-19
 -1      1931 9.63837E-05-2.87249E-05-2.90005E-05-1.17303E-06 2.42537E-19 8.32731E-19
 -1      1932 9.60451E-05-2.87153E-05-2.88500E-05-6.28416E-07 1.28740E-18 1.02180E-18
 -1      1933 9.58752E-05-2.86733E-05-2.87985E-05-5.47185E-07 2.05093E-18 1.82571E-18
 -1      1934 9.60378E-05-2.86517E-05-2.88831E-05-8.87596E-07 2.24604E-18 1.22975E-18
 -1      1935 9.57599E-05-2.86477E-05-2.87578E-05-4.51506E-07 1.32436E-18 1.51298E-18
 -1      1936 9.56371E-05-2.86184E-05-2.87203E-05-3.85095E-07 1.47157E-18 1.02156E-18
 -1      1937 9.57742E-05-2.86011E-05-2.87912E-05-6.49610E-07 1.41842E-18 1.30769E-18
 -1      1938 9.55520E-05-2.86000E-05-2.86901E-05-3.07232E-07 6.17917E-19 1.33966E-18
 -1      1939 9.54676E-05-2.85805E-05-2.86641E-05-2.52969E-07 5.64485E-19 1.20872E-18
 -1      1940 9.55778E-05-2.85663E-05-2.87214E-05-4.54741E-07 1.45946E-18 1.11153E-18
 -1      1941 9.54061E-05-2.85677E-05-2.86425E-05-1.89490E-07 5.09675E-19 6.01069E-19
 -1      1942 9.53528E-05-2.85565E-05-2.86256E-05-1.45136E-07-2.51651E-19 6.74139E-19
 -1      1943 9.54347E-05-2.85421E-05-2.86699E-05-2.96578E-07-2.22922E-19 2.29037E-18
 -1      1944 9.53134E-05-2.85503E-05-2.86109E-05-9.67614E-08-2.34112E-19 1.19556E-19
 -1      1945 9.52837E-05-2.85475E-05-2.86000E-05-6.32090E-08 1.48409E-20-4.20773E-20
 -1      1946 9.52785E-05-2.85345E-05-2.86057E-05-7.82316E-08-8.07997E-19 3.69478E-19
 -1      1947 9.53379E-05-2.85313E-05-2.86332E-05-1.71875E-07-4.31722E-19 1.13059E-18
 -1      1948 9.31912E-05-2.73447E-05-2.81911E-05 1.50700E-06 6.32092E-19 2.49247E-18
 -1      1949 9.43514E-05-2.74424E-05-2.86165E-05 2.58855E-06 5.78524E-19 2.76311E-18
 -1      1950 9.51993E-05-2.70265E-05-2.92228E-05 3.94377E-06 7.42213E-19 2.01834E-18
 -1      1951 9.22289E-05-2.73502E-05-2.77793E-05 2.07829E-07 4.92278E-19 2.08513E-18
 -1      1952 9.26757E-05-2.73712E-05-2.79365E-05 7.75023E-07 4.50631E-19 2.32013E-18
 -1      1953 9.36669E-05-2.73585E-05-2.84255E-05 1.43366E-06 6.25964E-19 1.73901E-18
 -1      1954 9.19815E-05-2.74166E-05-2.76533E-05-5.10722E-07 2.22371E-19 2.02431E-18
 -1      1955 9.20283E-05-2.73730E-05-2.76786E-05-1.88702E-07 3.21849E-19 2.05199E-18
 -1      1956 9.29370E-05-2.74913E-05-2.80592E-05 5.40565E-08 4.14176E-19 1.40201E-18
 -1      1957 9.21874E-05-2.75495E-05-2.76894E-05-9.30275E-07 3.87170E-20 1.70034E-18
 -1      1958 9.20014E-05-2.74625E-05-2.76422E-05-7.34599E-07 2.07568E-19 1.98344E-18
 -1      1959 9.27658E-05-2.76111E-05-2.79349E-05-7.37727E-07 2.35449E-19 1.22507E-18
 -1      1960 9.26886E-05-2.77328E-05-2.78278E-05-1.19847E-06 2.00360E-19 1.60376E-18
 -1      1961 9.23580E-05-2.76176E-05-2.77357E-05-1.06710E-06 1.28615E-19 1.61036E-18
 -1      1962 9.29689E-05-2.77559E-05-2.79585E-05-1.22091E-06 2.10825E-19 1.00759E-18
 -1      1963 9.33990E-05-2.79541E-05-2.80381E-05-1.40290E-06 2.96286E-19 1.65447E-18
 -1      1964 9.29675E-05-2.78186E-05-2.79141E-05-1.29824E-06 1.68730E-19 1.66344E-18
 -1      1965 9.34299E-05-2.79281E-05-2.80806E-05-1.55087E-06 2.55603E-19 1.04737E-18
 -1      1966 9.42812E-05-2.82087E-05-2.83069E-05-1.60278E-06 3.02490E-19 1.44645E-18
 -1      1967 9.37650E-05-2.80549E-05-2.81559E-05-1.49866E-06 4.37113E-19 1.57005E-18
 -1      1968 9.40841E-05-2.81251E-05-2.82755E-05-1.82455E-06 5.23202E-19 1.06139E-18
 -1      1969 9.53330E-05-2.84994E-05-2.86321E-05-1.84267E-06 2.77858E-19 1.35318E-18
 -1      1970 9.47288E-05-2.83247E-05-2.84536E-05-1.71865E-06 2.47065E-19 1.38516E-18
 -1      1971 9.49047E-05-2.83469E-05-2.85316E-05-2.10965E-06 3.91410E-19 9.84847E-19
 -1      1972 9.65783E-05-2.88355E-05-2.90202E-05-2.15888E-06 3.12807E-19 1.29028E-18
 -1      1973 9.58685E-05-2.86332E-05-2.88091E-05-1.99761E-06 4.85252E-19 1.42775E-18
 -1      1974 9.58924E-05-2.85984E-05-2.88473E-05-2.45806E-06 3.76683E-19 1.18462E-18
 -1      1975 9.80614E-05-2.92321E-05-2.94837E-05-2.58170E-06-7.74754E-20 9.07538E-19
 -1      1976 9.72171E-05-2.89923E-05-2.92320E-05-2.36795E-06-6.27036E-20 8.99284E-19
 -1      1977 9.70692E-05-2.88893E-05-2.92276E-05-2.91172E-06 1.24104E-19 9.34929E-19
 -1      1978 9.98415E-05-2.97106E-05-3.00394E-05-3.13398E-06 2.16415E-19 7.62238E-19
 -1      1979 9.88255E-05-2.94198E-05-2.97367E-05-2.85541E-06 1.62210E-19 6.46029E-19
 -1      1980 9.84730E-05-2.92346E-05-2.96824E-05-3.50366E-06 3.80884E-19 1.39682E-19
 -1      1981 1.01985E-04-3.02982E-05-3.07047E-05-3.82448E-06 2.22665E-19 9.51994E-19
 -1      1982 1.00757E-04-2.99402E-05-3.03403E-05-3.47489E-06 1.00802E-19 8.79359E-19
 -1      1983 1.00153E-04-2.96568E-05-3.02231E-05-4.25379E-06 2.03973E-19 4.42201E-19
 -1      1984 1.04555E-04-3.10299E-05-3.14929E-05-4.63270E-06-5.83182E-19 1.25278E-18
 -1      1985 1.03078E-04-3.05859E-05-3.10584E-05-4.21967E-06-4.62990E-20 1.18769E-18
 -1      1986 1.02162E-04-3.01885E-05-3.08588E-05-5.15697E-06-6.01890E-20 8.74772E-19
 -1      1987 1.07589E-04-3.19490E-05-3.24037E-05-5.48004E-06 4.76770E-20 1.11055E-18
 -1      1988 1.05848E-04-3.13993E-05-3.18984E-05-5.03968E-06-4.32500E-19 1.12541E-18
 -1      1989 1.04553E-04-3.08791E-05-3.15906E-05-6.15904E-06-2.17970E-19 5.97665E-19
 -1      1990 1.11066E-04-3.31065E-05-3.34092E-05-6.18235E-06 4.08032E-19 7.31843E-19
 -1      1991 1.09092E-04-3.24354E-05-3.28492E-05-5.80429E-06 2.10989E-19 8.78191E-19
 -1      1992 1.07364E-04-3.18027E-05-3.24028E-05-7.11542E-06 3.39692E-19 3.18560E-19
 -1      1993 1.14857E-04-3.45502E-05-3.44349E-05-6.38641E-06 8.18457E-19 4.46989E-19
 -1      1994 1.12767E-04-3.37580E-05-3.38654E-05-6.24812E-06 8.63931E-19 7.52317E-19
 -1      1995 1.10600E-04-3.30640E-05-3.32526E-05-7.73041E-06 8.51960E-19-1.80395E-19
 -1      1996 1.18650E-04-3.62823E-05-3.53443E-05-5.52130E-06-3.79812E-19 4.16833E-19
 -1      1997 1.16700E-04-3.54152E-05-3.48510E-05-5.91598E-06-1.19481E-19 5.75321E-20
 -1      1998 1.14204E-04-3.47793E-05-3.40624E-05-7.49264E-06 2.47023E-19-3.41056E-19
 -1      1999 1.21870E-04-3.81400E-05-3.59482E-05-2.86381E-06-3.72350E-19 8.43598E-19
 -1      2000 1.20489E-04-3.73533E-05-3.56543E-05-4.16810E-06-1.80471E-19 9.09071E-19
 -1      2001 1.17979E-04-3.69839E-05-3.47276E-05-5.66806E-06-4.26031E-19-7.66300E-20
 -1      2002 1.23603E-04-3.95730E-05-3.60731E-05 2.05735E-06-5.11800E-19 9.67027E-19
 -1      2003 1.23369E-04-3.92114E-05-3.61012E-05-4.04471E-07-6.42276E-19 5.52982E-19
 -1      2004 1.21428E-04-3.93642E-05-3.51629E-05-1.50935E-06-5.57215E-19 1.42977E-19
 -1      2005 1.22703E-04-3.94718E-05-3.56886E-05 8.54938E-06 5.73620E-19 8.58415E-19
 -1      2006 1.24153E-04-4.00701E-05-3.60758E-05 5.29335E-06 2.86138E-20 1.17433E-18
 -1      2007 1.23561E-04-4.09216E-05-3.53771E-05 5.05308E-06-8.81311E-20 5.77336E-19
 -1      2008 1.18404E-04-3.66323E-05-3.50352E-05 1.37150E-05-9.51526E-19 1.80918E-18
 -1      2009 1.21585E-04-3.85487E-05-3.56463E-05 1.11540E-05-2.15371E-19 1.36571E-18
 -1      2010 1.22966E-04-3.99213E-05-3.55359E-05 1.23025E-05-4.76205E-19 1.01464E-18
 -1      2011 1.11796E-04-3.14176E-05-3.44909E-05 1.30343E-05-1.40856E-18 2.72226E-18
 -1      2012 1.15702E-04-3.40637E-05-3.50602E-05 1.33934E-05-1.37798E-18 2.37580E-18
 -1      2013 1.18955E-04-3.53601E-05-3.58623E-05 1.58328E-05-1.62123E-18 2.27153E-18
 -1      2014 1.06851E-04-2.72318E-05-3.43080E-05 4.51562E-06-8.04046E-19 3.40917E-18
 -1      2015 1.09340E-04-2.88367E-05-3.45770E-05 8.59218E-06-1.14842E-18 2.53598E-18
 -1      2016 1.13508E-04-2.91112E-05-3.63099E-05 1.12661E-05-1.16001E-18 2.72557E-18
 -1      2017 1.07805E-04-2.80204E-05-3.44376E-05-7.13686E-06 1.43096E-18 3.15327E-18
 -1      2018 1.07122E-04-2.71474E-05-3.43201E-05-1.82411E-06 3.50778E-19 3.17715E-18
 -1      2019 1.11204E-04-2.63831E-05-3.65515E-05-8.38143E-07 3.01808E-19 2.55552E-18
 -1      2020 1.14074E-04-3.30966E-05-3.48299E-05-1.39537E-05 2.48093E-18 3.72554E-18
 -1      2021 1.10639E-04-3.05133E-05-3.43622E-05-1.09843E-05 2.18752E-18 3.55831E-18
 -1      2022 1.14277E-04-2.97705E-05-3.63276E-05-1.23428E-05 2.04056E-18 2.73748E-18
 -1      2023 1.20744E-04-3.79686E-05-3.54450E-05-1.28833E-05 1.23873E-18 2.59732E-18
 -1      2024 1.16799E-04-3.56677E-05-3.48115E-05-1.32996E-05 1.70120E-18 3.35092E-18
 -1      2025 1.19765E-04-3.60395E-05-3.59012E-05-1.58658E-05 2.12501E-18 2.98955E-18
 -1      2026 1.24269E-04-4.00358E-05-3.59998E-05-7.01447E-06 8.46967E-20 2.60359E-18
 -1      2027 1.21656E-04-3.90099E-05-3.54873E-05-9.42961E-06 7.05923E-19 2.67441E-18
 -1      2028 1.23318E-04-4.02559E-05-3.56008E-05-1.15675E-05 9.22591E-19 2.48541E-18
 -1      2029 1.24129E-04-3.95051E-05-3.61836E-05-7.09840E-07 5.28105E-19 9.76047E-19
 -1      2030 1.23422E-04-3.96119E-05-3.59911E-05-3.30712E-06 5.10562E-19 2.18099E-18
 -1      2031 1.23458E-04-4.09073E-05-3.54159E-05-4.22746E-06 1.08477E-18 2.28416E-18
 -1      2032 1.21556E-04-3.77634E-05-3.58735E-05 3.65535E-06-3.39554E-19 1.19114E-22
 -1      2033 1.22385E-04-3.84520E-05-3.60290E-05 1.83213E-06 1.18770E-19 8.43790E-20
 -1      2034 1.21071E-04-3.91585E-05-3.51554E-05 2.08969E-06 6.82695E-19 1.26539E-18
 -1      2035 1.17873E-04-3.58372E-05-3.51560E-05 5.78401E-06-3.51859E-19-1.47251E-18
 -1      2036 1.19589E-04-3.66902E-05-3.55645E-05 4.86497E-06-5.14493E-19-6.59991E-19
 -1      2037 1.17567E-04-3.67310E-05-3.46825E-05 5.90470E-06-1.85904E-19-5.73005E-19
 -1      2038 1.13951E-04-3.41521E-05-3.42138E-05 6.28644E-06 1.88677E-19 1.11444E-19
 -1      2039 1.16005E-04-3.49660E-05-3.47467E-05 6.03650E-06 1.60232E-19-7.27442E-19
 -1      2040 1.13860E-04-3.45705E-05-3.40029E-05 7.45373E-06-9.10957E-20-5.03995E-19
 -1      2041 1.10265E-04-3.28000E-05-3.32166E-05 5.86917E-06-5.13321E-19 6.52196E-19
 -1      2042 1.12299E-04-3.35007E-05-3.37703E-05 6.00512E-06-9.98490E-20 8.17466E-19
 -1      2043 1.10382E-04-3.29191E-05-3.32070E-05 7.50526E-06-3.38842E-19 1.43225E-18
 -1      2044 1.07029E-04-3.17480E-05-3.22782E-05 5.05055E-06 6.16997E-19 2.69409E-19
 -1      2045 1.08855E-04-3.23220E-05-3.27898E-05 5.36096E-06-1.31330E-19 3.62725E-19
 -1      2046 1.07307E-04-3.17252E-05-3.23942E-05 6.76830E-06 3.20655E-19 1.44263E-18
 -1      2047 1.04310E-04-3.09372E-05-3.14564E-05 4.13620E-06-1.05499E-19 9.76603E-19
 -1      2048 1.05855E-04-3.13945E-05-3.18970E-05 4.49435E-06 5.44500E-19 1.04944E-18
 -1      2049 1.04687E-04-3.08687E-05-3.16361E-05 5.72439E-06 3.12034E-19 1.74331E-18
 -1      2050 1.02094E-04-3.03147E-05-3.07700E-05 3.27856E-06-1.46813E-18 1.30613E-18
 -1      2051 1.03352E-04-3.06720E-05-3.11326E-05 3.61989E-06-9.67057E-19 7.44683E-19
 -1      2052 1.02514E-04-3.02464E-05-3.09712E-05 4.64660E-06-7.79173E-19 2.33848E-18
 -1      2053 1.00330E-04-2.98385E-05-3.02153E-05 2.53890E-06-8.66786E-20 1.94573E-18
 -1      2054 1.01326E-04-3.01137E-05-3.05045E-05 2.83641E-06-1.03121E-18 1.63874E-18
 -1      2055 1.00750E-04-2.97871E-05-3.04126E-05 3.66634E-06-1.12793E-18 1.17471E-18
 -1      2056 9.89516E-05-2.94766E-05-2.97776E-05 1.93062E-06 2.14678E-19 3.32616E-18
 -1      2057 9.97232E-05-2.96857E-05-3.00031E-05 2.17732E-06-2.18089E-19 2.69373E-18
 -1      2058 9.93439E-05-2.94443E-05-2.99576E-05 2.83238E-06-6.71700E-19 2.42162E-18
 -1      2059 9.78916E-05-2.92037E-05-2.94390E-05 1.44498E-06 1.02496E-19 3.84476E-18
 -1      2060 9.84795E-05-2.93606E-05-2.96115E-05 1.64336E-06 6.61536E-19 4.13128E-18
 -1      2061 9.82418E-05-2.91874E-05-2.95959E-05 2.15068E-06-1.59211E-19 3.94405E-18
 -1      2062 9.70891E-05-2.90003E-05-2.91814E-05 1.06484E-06 6.27780E-19 3.29577E-18
 -1      2063 9.75299E-05-2.91164E-05-2.93113E-05 1.22118E-06 1.14056E-19 3.27804E-18
 -1      2064 9.73912E-05-2.89953E-05-2.93140E-05 1.60765E-06 4.22095E-19 3.71697E-18
 -1      2065 9.64909E-05-2.88507E-05-2.89886E-05 7.71285E-07 2.41541E-19 2.21421E-18
 -1      2066 9.68161E-05-2.89353E-05-2.90848E-05 8.92830E-07 4.36247E-19 2.70187E-18
 -1      2067 9.67445E-05-2.88528E-05-2.90980E-05 1.18267E-06 8.24865E-19 3.31087E-18
 -1      2068 9.60530E-05-2.87424E-05-2.88470E-05 5.46488E-07-4.68548E-19 1.84598E-19
 -1      2069 9.62884E-05-2.88030E-05-2.89169E-05 6.40272E-07 5.08152E-19 1.57403E-18
 -1      2070 9.62607E-05-2.87483E-05-2.89354E-05 8.54071E-07 1.18387E-18 1.92605E-18
 -1      2071 9.57395E-05-2.86656E-05-2.87454E-05 3.74628E-07 9.26923E-19 3.75840E-19
 -1      2072 9.59057E-05-2.87079E-05-2.87948E-05 4.47037E-07 3.79221E-19-5.51538E-19
 -1      2073 9.59052E-05-2.86727E-05-2.88153E-05 6.01707E-07 5.62646E-19 6.10698E-19
 -1      2074 9.55223E-05-2.86129E-05-2.86748E-05 2.42121E-07 2.02622E-19 4.99670E-19
 -1      2075 9.56352E-05-2.86412E-05-2.87085E-05 2.98782E-07 8.97629E-19 1.32231E-18
 -1      2076 9.56497E-05-2.86189E-05-2.87287E-05 4.07801E-07 3.81018E-19 2.01279E-18
 -1      2077 9.53794E-05-2.85787E-05-2.86283E-05 1.38439E-07 4.53696E-19 3.86705E-19
 -1      2078 9.54511E-05-2.85962E-05-2.86497E-05 1.83751E-07 5.01534E-19 1.01351E-18
 -1      2079 9.54716E-05-2.85820E-05-2.86681E-05 2.57630E-07 4.03854E-19 1.30713E-18
 -1      2080 9.52938E-05-2.85602E-05-2.85993E-05 5.78795E-08 7.10411E-20 3.21773E-19
 -1      2081 9.53332E-05-2.85687E-05-2.86118E-05 9.35263E-08-3.29277E-19 2.61100E-19
 -1      2082 9.53526E-05-2.85583E-05-2.86270E-05 1.40404E-07-1.01349E-19 1.12088E-18
 -1      2083 9.52574E-05-2.85580E-05-2.85844E-05 1.38568E-08 1.28961E-19 2.43950E-18
 -1      2084 9.52744E-05-2.85560E-05-2.85926E-05 3.78847E-08 4.54285E-19 1.61788E-18
 -1      2085 9.52884E-05-2.85470E-05-2.86040E-05 6.65665E-08-3.65355E-19 3.01397E-18
 -1      2086 9.52599E-05-2.85510E-05-2.85893E-05 2.50747E-08 5.19773E-19 3.25581E-18
 -1      2087 9.51717E-05-2.83086E-05-2.86563E-05 1.95544E-07 3.87578E-19-6.05482E-19
 -1      2088 9.51969E-05-2.83609E-05-2.86429E-05 1.81039E-07-3.90320E-19-3.10811E-19
 -1      2089 9.52228E-05-2.84172E-05-2.86311E-05 1.55086E-07-4.69309E-19-2.67946E-19
 -1      2090 9.52414E-05-2.84596E-05-2.86197E-05 1.26365E-07 1.09159E-19 8.71725E-19
 -1      2091 9.52148E-05-2.83608E-05-2.86520E-05 2.24501E-07-1.31588E-18-2.93702E-19
 -1      2092 9.52521E-05-2.84978E-05-2.86087E-05 9.09987E-08-1.67076E-19 1.90260E-19
 -1      2093 9.52595E-05-2.85255E-05-2.85995E-05 6.00192E-08 3.25837E-19 1.32518E-18
 -1      2094 9.52734E-05-2.85219E-05-2.86073E-05 7.99474E-08-5.57798E-19 2.04661E-18
 -1      2095 9.52561E-05-2.84561E-05-2.86293E-05 1.54418E-07-1.33423E-18 5.91055E-19
 -1      2096 9.51182E-05-2.81980E-05-2.86812E-05 1.99688E-07-1.07478E-19-3.55146E-18
 -1      2097 9.51441E-05-2.82514E-05-2.86677E-05 2.01713E-07 9.44602E-19-2.38286E-18
 -1      2098 9.51513E-05-2.82440E-05-2.86742E-05 2.59085E-07 4.61966E-20-1.37715E-18
 -1      2099 9.50701E-05-2.80987E-05-2.87035E-05 1.67124E-07-1.44801E-19 8.60295E-19
 -1      2100 9.50927E-05-2.81458E-05-2.86916E-05 1.84886E-07 2.19093E-19-5.86330E-19
 -1      2101 9.50872E-05-2.81308E-05-2.86947E-05 2.48093E-07 1.10134E-18-1.53679E-18
 -1      2102 9.50361E-05-2.80281E-05-2.87193E-05 1.04565E-07-1.28564E-18 3.03674E-19
 -1      2103 9.50511E-05-2.80598E-05-2.87113E-05 1.34245E-07-1.08281E-18 1.71360E-18
 -1      2104 9.50331E-05-2.80363E-05-2.87115E-05 1.93150E-07-3.37169E-19 3.28366E-19
 -1      2105 9.50211E-05-2.79970E-05-2.87262E-05 2.40334E-08-7.11954E-19 3.54481E-19
 -1      2106 9.50262E-05-2.80080E-05-2.87234E-05 5.99326E-08-1.26497E-18-2.88988E-19
 -1      2107 9.49979E-05-2.79750E-05-2.87224E-05 1.04802E-07-1.34470E-18 2.84731E-19
 -1      2108 9.50271E-05-2.80095E-05-2.87231E-05-6.00124E-08 1.40622E-18 3.34082E-18
 -1      2109 9.50216E-05-2.79982E-05-2.87260E-05-2.43813E-08 3.30148E-19 2.69219E-18
 -1      2110 9.49865E-05-2.79554E-05-2.87258E-05-9.15310E-10-8.24150E-19 2.64152E-18
 -1      2111 9.50529E-05-2.80635E-05-2.87105E-05-1.32943E-07-7.72400E-19-1.38470E-18
 -1      2112 9.50379E-05-2.80317E-05-2.87186E-05-1.03895E-07 5.59785E-20 1.45732E-18
 -1      2113 9.50001E-05-2.79797E-05-2.87214E-05-1.05697E-07-1.77010E-19 8.54954E-19
 -1      2114 9.50935E-05-2.81482E-05-2.86909E-05-1.81492E-07 5.47758E-19-4.32533E-18
 -1      2115 9.50718E-05-2.81026E-05-2.87026E-05-1.64364E-07 1.68582E-19-2.37650E-18
 -1      2116 9.50361E-05-2.80434E-05-2.87098E-05-1.91295E-07-1.88199E-19-1.79190E-18
 -1      2117 9.51441E-05-2.82536E-05-2.86668E-05-1.98451E-07 1.73407E-18 2.04586E-18
 -1      2118 9.51185E-05-2.82001E-05-2.86804E-05-1.96096E-07 2.36862E-18-3.34020E-18
 -1      2119 9.50889E-05-2.81375E-05-2.86927E-05-2.44087E-07 2.35911E-18-2.03457E-18
 -1      2120 9.51958E-05-2.83622E-05-2.86419E-05-1.79283E-07 7.94944E-19 7.36307E-19
 -1      2121 9.51711E-05-2.83104E-05-2.86552E-05-1.92790E-07 1.30487E-18 1.83798E-18
 -1      2122 9.51515E-05-2.82499E-05-2.86719E-05-2.55073E-07 2.71183E-18 1.02369E-18
 -1      2123 9.52392E-05-2.84615E-05-2.86189E-05-1.27155E-07-1.31755E-18-1.30661E-19
 -1      2124 9.52211E-05-2.84171E-05-2.86303E-05-1.54592E-07-5.03449E-19-4.08589E-19
 -1      2125 9.52133E-05-2.83643E-05-2.86497E-05-2.22061E-07 9.18030E-19-5.03225E-19
 -1      2126 5.95326E-05-4.12831E-05-8.43518E-06 3.81983E-05-5.23466E-19 8.60427E-19
 -1      2127 4.43372E-05-4.21743E-05-2.30053E-06 3.12835E-05-7.49201E-19-4.80374E-19
 -1      2128 1.26020E-05-2.97812E-05 6.53073E-06 3.27835E-06-1.33916E-18 3.52366E-19
 -1      2129 1.28889E-05-3.05063E-05 6.58782E-06-8.37083E-06-1.02470E-18 2.24464E-18
 -1      2130 2.74222E-05-3.64377E-05 2.70881E-06 2.49673E-05-1.00458E-18 8.70326E-20
 -1      2131 1.81814E-05-3.49003E-05 5.88213E-06 1.59355E-05-1.64642E-18 2.59616E-19
 -1      2132 9.88862E-05-4.62527E-05-2.27631E-05 4.10525E-05 1.93124E-19 1.52064E-18
 -1      2133 7.69066E-05-4.65521E-05-1.42661E-05 3.63438E-05-6.71274E-19 1.69872E-18
 -1      2134 8.09895E-05-4.97548E-05-1.35890E-05 4.06183E-05-1.78089E-18 7.87992E-19
 -1      2135 1.42687E-04-4.57619E-05-4.08082E-05 3.22751E-05 9.81076E-19 5.86994E-19
 -1      2136 1.21351E-04-4.81998E-05-3.18957E-05 3.08238E-05 5.13725E-19 7.06002E-19
 -1      2137 8.73123E-05-8.70652E-06-3.37792E-05-1.04046E-05-3.44521E-19-1.91056E-18
 -1      2138 8.80174E-05-9.24921E-06-3.38432E-05-1.19818E-05-4.65537E-19-1.83613E-18
 -1      2139 9.05030E-05-1.30087E-05-3.32397E-05-1.16786E-05-5.56812E-19-1.65947E-18
 -1      2140 8.87128E-05-1.10087E-05-3.33339E-05-9.25546E-06-3.35260E-19-1.80463E-18
 -1      2141 1.75656E-04-2.75647E-05-6.30420E-05 9.14354E-07 2.39753E-18-1.61826E-18
 -1      2142 1.74169E-04-3.23907E-05-5.97111E-05 9.83687E-06 2.73570E-18-7.12778E-19
 -1      2143 1.86110E-04-2.47964E-05-6.74249E-05-1.61386E-06 1.91006E-18-1.24355E-18
 -1      2144 1.80524E-04-2.28618E-05-6.64834E-05 2.58454E-06 2.41066E-18-7.79482E-19
 -1      2145 1.79349E-04-3.07677E-05-6.25260E-05-1.06369E-05 2.96504E-18-1.21973E-18
 -1      2146 1.84560E-04-2.85153E-05-6.57148E-05-3.49473E-06 2.31240E-18-7.06002E-19
 -1      2147 1.57378E-04-3.87388E-05-5.06891E-05-2.09175E-05 2.15342E-18-1.76479E-18
 -1      2148 1.75491E-04-3.76677E-05-5.78312E-05-1.66610E-05 2.70151E-18-7.29719E-19
 -1      2149 1.27012E-04-4.71544E-05-3.48030E-05-2.94571E-05 1.03762E-18-2.31367E-18
 -1      2150 1.48487E-04-4.52747E-05-4.35046E-05-2.96498E-05 1.53567E-18-2.16925E-18
 -1      2151 8.82863E-05-4.77340E-05-1.84808E-05-3.65582E-05 6.50098E-19-2.87695E-18
 -1      2152 1.09145E-04-4.66668E-05-2.67548E-05-3.98410E-05 9.34277E-19-2.70288E-18
 -1      2153 5.35364E-05-4.32311E-05-5.41117E-06-3.54639E-05 8.42798E-20-3.49189E-18
 -1      2154 6.99482E-05-4.29653E-05-1.20328E-05-4.01460E-05 5.39560E-19-3.51413E-18
 -1      2155 9.30067E-05-5.27827E-05-1.74203E-05-3.95128E-05-6.28922E-19-2.50923E-18
 -1      2156 2.17000E-05-3.64497E-05 4.85844E-06-1.83579E-05-7.67412E-19-2.61733E-18
 -1      2157 3.28118E-05-3.54180E-05 2.80579E-07-2.92086E-05-4.57398E-20-2.83205E-18
 -1      2158 1.21054E-05-3.32812E-05 7.80005E-06 2.19922E-06-8.39198E-19-2.10234E-18
 -1      2159 1.35314E-05-3.22324E-05 6.94760E-06-7.79429E-06-2.84603E-19-2.36661E-18
 -1      2160 2.01262E-05-3.19087E-05 4.18676E-06 2.27251E-05-6.45439E-19-2.42971E-18
 -1      2161 1.47693E-05-3.49339E-05 7.21850E-06 1.22630E-05-5.17749E-19-2.20313E-18
 -1      2162 1.56162E-05-2.30265E-05 2.66086E-06 8.63791E-06 4.45486E-19-1.89735E-18
 -1      2163 4.97248E-05-3.78861E-05-5.67064E-06 3.89694E-05-1.73218E-18-9.46453E-19
 -1      2164 3.66545E-05-3.86915E-05-2.31547E-07 3.22938E-05-8.57621E-19-1.81667E-18
 -1      2165 8.30850E-05-3.91261E-05-1.90120E-05 4.41988E-05-2.05744E-18-1.08336E-18
 -1      2166 6.48872E-05-4.18081E-05-1.11587E-05 3.81977E-05-2.14257E-18-1.35790E-18
 -1      2167 1.24404E-04-4.43205E-05-3.44676E-05 3.61591E-05-2.22939E-18-2.72745E-19
 -1      2168 1.02080E-04-4.26773E-05-2.60677E-05 3.83705E-05-2.26031E-18-6.75085E-19
 -1      2169 1.57310E-04-3.59035E-05-5.09467E-05 2.57430E-05-1.79693E-18 9.67312E-19
 -1      2170 1.39976E-04-3.89857E-05-4.32068E-05 2.62121E-05-2.22378E-18 5.38289E-19
 -1      2171 1.70316E-04-2.71454E-05-6.06678E-05 9.23298E-06-1.91408E-18 1.72202E-18
 -1      2172 1.61418E-04-3.01702E-05-5.57843E-05 1.65593E-05-1.49501E-18 1.21126E-18
 -1      2173 1.80490E-04-2.30613E-05-6.60822E-05-4.51116E-07-7.31836E-19 8.73542E-19
 -1      2174 1.71460E-04-2.07523E-05-6.41176E-05 5.68711E-06-1.55473E-18 8.48727E-19
 -1      2175 1.77128E-04-2.54947E-05-6.40593E-05-1.20577E-05-2.82062E-19 1.05710E-18
 -1      2176 1.83647E-04-2.57805E-05-6.64311E-05-3.84772E-06-4.58668E-19 5.34054E-19
 -1      2177 1.58668E-04-3.09358E-05-5.45002E-05-1.87330E-05-7.64341E-19-4.95091E-19
 -1      2178 1.72817E-04-3.00447E-05-5.99187E-05-1.48934E-05-6.04782E-19 4.21399E-19
 -1      2179 1.35558E-04-3.87334E-05-4.16792E-05-3.00217E-05-1.89608E-18 3.12555E-19
 -1      2180 1.53038E-04-3.72553E-05-4.88195E-05-2.78062E-05-9.83352E-19-3.37119E-19
 -1      2181 1.04930E-04-4.28070E-05-2.72752E-05-3.78949E-05-2.12521E-18 3.57448E-19
 -1      2182 1.23680E-04-4.11741E-05-3.48859E-05-3.91267E-05-2.38440E-18-1.92700E-19
 -1      2183 7.27639E-05-4.37237E-05-1.33939E-05-3.97123E-05-4.52316E-19 2.35412E-18
 -1      2184 9.00996E-05-4.21639E-05-2.05188E-05-4.39427E-05-1.22057E-18 1.21528E-18
 -1      2185 3.90541E-05-4.01183E-05-1.04070E-06-3.20892E-05-1.26716E-18 2.04548E-18
 -1      2186 5.25513E-05-3.77354E-05-6.94277E-06-3.98183E-05-1.50730E-18 3.25777E-18
 -1      2187 1.85122E-05-3.51844E-05 5.84501E-06-1.96350E-05 5.92923E-19 4.14199E-18
 -1      2188 2.67015E-05-3.59409E-05 2.83290E-06-2.72013E-05-6.31463E-19 2.67324E-18
 -1      2189 3.95176E-05-3.50007E-05-2.56820E-06-3.68268E-05-5.92923E-21 2.35242E-18
 -1      2190 1.71799E-04-3.91202E-05-5.57961E-05 2.05309E-05 2.40626E-18-2.11758E-19
 -1      2191 1.52349E-04-3.95681E-05-4.82484E-05 2.43454E-05 1.53885E-18 3.44742E-19
 -1      2192 1.21726E-04-5.71037E-05-2.76090E-05 3.09766E-05-5.48877E-19-5.31513E-20
 -1      2193 9.71107E-05-2.42903E-05-3.12805E-05-9.91113E-06-8.43857E-19-4.91200E-19
 -1      2194 1.62003E-04-3.43372E-05-5.36927E-05-6.76524E-07 1.90667E-18-2.44411E-18
 -1      2195 9.63140E-05-2.30913E-05-3.14483E-05-1.02605E-05-8.04655E-19-7.56877E-19
 -1      2196 4.39098E-05-3.70429E-05-3.45515E-06 3.47428E-05-1.71228E-18-2.09429E-19
 -1      2197 1.86777E-05-2.48201E-05 2.15490E-06 1.17019E-05-2.54195E-18 1.87618E-19
 -1      2198 9.52532E-05-2.84825E-05-2.86155E-05-1.15956E-07-1.14152E-18-1.52281E-19
 -1      2199 1.88930E-05-2.48396E-05 2.01529E-06-1.67146E-05-7.81600E-19 2.43988E-18
 -1      2200 1.51913E-04-5.04602E-05-4.29421E-05 1.29409E-05 5.87523E-19-8.03834E-19
 -1      2201 7.40555E-05-4.57268E-05-1.22400E-05-4.39710E-05 2.24464E-19 1.63750E-18
 -1      2202 1.09865E-04-5.27655E-05-2.44908E-05-3.75826E-05-1.15196E-19-4.31987E-20
 -1      2203 1.37013E-04-4.89070E-05-3.73281E-05-2.40770E-05-1.69025E-18 1.59666E-19
 -1      2204 1.52672E-04-3.65794E-05-4.90529E-05-8.15777E-06-6.45545E-19-8.61856E-19
 -1      2205 1.59063E-04-2.12537E-05-5.80087E-05-3.61188E-07-1.16891E-19 2.11758E-22
 -1      2206 1.58977E-04-1.25126E-05-6.15982E-05-5.03515E-07-3.48131E-19 2.80262E-19
 -1      2207 1.55825E-04-1.79709E-05-5.83625E-05-1.26766E-06-1.19643E-18 1.27076E-18
 -1      2208 1.53030E-04-3.37878E-05-5.04295E-05 5.53201E-06-1.62270E-18 2.45174E-18
 -1      2209 1.36458E-04-4.67039E-05-3.81216E-05 2.57753E-05-1.79444E-18 6.31463E-19
 -1      2210 1.31957E-04-5.36385E-05-3.30598E-05 2.41726E-05-1.28548E-18 1.37982E-18
 -1      2211 1.43014E-04-4.88418E-05-4.10243E-05 1.27482E-05-1.65382E-18 2.20673E-18
 -1      2212 1.05383E-04-5.11863E-05-2.29526E-05 3.94888E-05-1.34085E-18-1.07573E-19
 -1      2213 3.44756E-05-3.16839E-05-1.58062E-06 3.28058E-05 5.02714E-19-1.86305E-18
 -1      2214 4.93617E-05-3.92895E-05-4.74988E-06-3.51830E-05-3.84129E-19-3.23440E-18
 -1      2215 6.64122E-05-4.27646E-05-1.05697E-05-4.12163E-05-1.02724E-18-2.68891E-18
 -1      2216 4.64652E-05-3.22991E-05-5.60022E-06-3.56486E-05-8.89173E-19-2.96419E-18
 -1      2217 1.30301E-04-5.75129E-05-3.09994E-05-2.70804E-05-2.98156E-19-1.05371E-18
 -1      2218 1.55060E-04-4.86015E-05-4.50126E-05-8.59740E-06 9.72685E-19-1.96512E-19
 -1      2219 1.64589E-04-3.11929E-05-5.60583E-05 1.63655E-06 2.31600E-18 6.92026E-19
 -1      2220 1.67513E-04-2.22439E-05-6.16769E-05-1.76386E-06 2.47080E-18-1.93335E-18
 -1      2221 1.51175E-04-2.11340E-05-5.57471E-05-8.34565E-06 1.66294E-18-3.07685E-18
 -1      2222 1.52139E-04-1.50054E-05-5.90593E-05-4.35679E-06 1.83340E-18-2.08524E-18
 -1      2223 1.66445E-04-1.86943E-05-6.21888E-05 2.11633E-06 2.15655E-18-2.82591E-19
 -1      2224 2.13392E-05-2.54633E-05 1.39009E-06-1.67980E-05-5.22408E-19-2.46063E-18
 -1      2225 6.93698E-05-4.45720E-05-1.10045E-05 4.32778E-05-4.58245E-19-7.30857E-19
 -1      2226 9.52273E-05-2.63512E-05-2.95037E-05 4.04347E-06 8.58613E-19 1.36444E-18
 -1      2227 9.61716E-05-2.58359E-05-3.00701E-05 5.86680E-06 8.60996E-19 1.49850E-18
 -1      2228 8.81267E-05-1.10286E-05-3.30818E-05-3.56625E-06 3.17869E-19-1.45163E-18
 -1      2229 8.83691E-05-1.13113E-05-3.30615E-05-4.68679E-06 1.33073E-19-1.54573E-18
 -1      2230 8.87319E-05-1.18162E-05-3.30097E-05-5.68608E-06 7.05990E-20-1.64020E-18
 -1      2231 8.91446E-05-1.23027E-05-3.29774E-05-6.84382E-06-1.07455E-19-1.68309E-18
 -1      2232 8.98732E-05-1.36533E-05-3.26642E-05-4.75934E-06 1.33151E-19-1.49668E-18
 -1      2233 8.77659E-05-1.05439E-05-3.31292E-05 5.99930E-07 8.10780E-19-1.20608E-18
 -1      2234 8.77606E-05-1.05386E-05-3.31292E-05-4.84441E-07 6.63681E-19-1.30411E-18
 -1      2235 8.79572E-05-1.07818E-05-3.31094E-05 2.68609E-06 9.80927E-19-1.16476E-18
 -1      2236 8.78363E-05-1.06414E-05-3.31196E-05 1.59157E-06 8.92446E-19-1.19216E-18
 -1      2237 8.90553E-05-1.25448E-05-3.27922E-05 1.01394E-06 7.53307E-19-1.12311E-18
 -1      2238 8.84103E-05-1.13564E-05-3.30602E-05 4.76889E-06 1.11719E-18-9.33060E-19
 -1      2239 8.81616E-05-1.10670E-05-3.30806E-05 3.66570E-06 1.06862E-18-1.08562E-18
 -1      2240 8.93369E-05-1.29213E-05-3.27503E-05 2.92344E-06 9.26943E-19-1.09173E-18
 -1      2241 8.92105E-05-1.23773E-05-3.29738E-05 6.92407E-06 1.30454E-18-5.19139E-19
 -1      2242 8.87840E-05-1.18749E-05-3.30072E-05 5.76548E-06 1.18644E-18-7.57201E-19
 -1      2243 8.99198E-05-1.37069E-05-3.26610E-05 4.82791E-06 1.11972E-18-8.02504E-19
 -1      2244 9.04911E-05-1.40261E-05-3.28343E-05 9.05955E-06 1.42579E-18-1.28597E-19
 -1      2245 8.98087E-05-1.32000E-05-3.28866E-05 7.88547E-06 1.28401E-18-3.55172E-19
 -1      2246 9.08818E-05-1.50142E-05-3.25073E-05 6.69337E-06 1.21317E-18-4.15853E-19
 -1      2247 9.24776E-05-1.66301E-05-3.26060E-05 1.09500E-05 1.41281E-18 3.45828E-19
 -1      2248 9.14095E-05-1.52795E-05-3.26880E-05 9.86684E-06 1.38788E-18 8.18049E-20
 -1      2249 9.23192E-05-1.70149E-05-3.22523E-05 8.33202E-06 1.29672E-18-2.17946E-20
 -1      2250 9.43165E-05-2.70917E-05-2.87918E-05 1.55206E-06 6.31235E-19 1.10576E-18
 -1      2251 9.48744E-05-2.68658E-05-2.90749E-05 2.55567E-06 7.76650E-19 1.29618E-18
 -1      2252 9.53814E-05-2.58105E-05-2.98251E-05 4.15499E-06 8.91376E-19 8.57876E-19
 -1      2253 9.59204E-05-2.50648E-05-3.03223E-05-6.02242E-06-5.68515E-19-9.24945E-19
 -1      2254 9.52959E-05-2.58108E-05-2.97912E-05-4.08380E-06-6.22943E-19-8.76202E-19
 -1      2255 1.51487E-04-3.25424E-05-5.15107E-05-1.06715E-05 1.42894E-18-3.57278E-18
 -1      2256 1.53867E-04-4.15390E-05-4.82376E-05-5.08700E-06 1.02470E-18-3.19056E-18
 -1      2257 9.51912E-05-2.64902E-05-2.93883E-05-2.70267E-06-5.78017E-19-6.82591E-19
 -1      2258 9.47683E-05-2.68601E-05-2.91011E-05-1.60120E-06-4.84868E-19-7.17365E-19
 -1      2259 9.53858E-05-2.52975E-05-3.00436E-05-4.03462E-06-5.17246E-19-1.01191E-18
 -1      2260 9.46010E-05-2.71832E-05-2.88553E-05-6.96537E-07-4.85087E-19-5.38107E-19
 -1      2261 9.43994E-05-2.73969E-05-2.87103E-05-3.79168E-08-3.52450E-19-6.03651E-19
 -1      2262 9.51348E-05-2.66172E-05-2.93796E-05-1.56837E-06-4.39676E-19-8.40809E-19
 -1      2263 9.42916E-05-2.75709E-05-2.85719E-05 5.45514E-07-2.79835E-19-6.65922E-19
 -1      2264 9.42696E-05-2.77177E-05-2.85163E-05 9.51978E-07-2.29203E-19-6.96006E-19
 -1      2265 9.48958E-05-2.73171E-05-2.89767E-05 5.10205E-08-4.06004E-19-6.60356E-19
 -1      2266 9.42401E-05-2.78219E-05-2.84521E-05 1.33433E-06-2.23820E-19-7.58939E-19
 -1      2267 9.43486E-05-2.79372E-05-2.84555E-05 1.59823E-06-2.51869E-19-7.71361E-19
 -1      2268 9.47883E-05-2.77201E-05-2.87556E-05 1.10794E-06-3.12527E-19-6.37722E-19
 -1      2269 9.43905E-05-2.80065E-05-2.84434E-05 1.86291E-06-3.09287E-19-7.32955E-19
 -1      2270 9.45938E-05-2.81066E-05-2.84876E-05 2.05072E-06-2.00055E-19-7.79281E-19
 -1      2271 9.48213E-05-2.79660E-05-2.86618E-05 1.82032E-06-3.25598E-19-6.90776E-19
 -1      2272 9.46960E-05-2.81587E-05-2.85127E-05 2.25359E-06-5.33522E-20-8.40227E-19
 -1      2273 9.49720E-05-2.82534E-05-2.85864E-05 2.40682E-06-1.08794E-19-7.02264E-19
 -1      2274 9.49787E-05-2.81262E-05-2.86586E-05 2.33609E-06-2.17263E-19-7.74626E-19
 -1      2275 9.51264E-05-2.83000E-05-2.86387E-05 2.58442E-06-4.58664E-19-6.75595E-19
 -1      2276 9.54635E-05-2.83983E-05-2.87346E-05 2.72797E-06-7.63687E-19-7.88762E-19
 -1      2277 9.52433E-05-2.82424E-05-2.87207E-05 2.75427E-06-3.67434E-19-4.18534E-19
 -1      2278 9.56669E-05-2.84501E-05-2.88071E-05 2.90176E-06-6.88794E-19-7.39002E-19
 -1      2279 9.60605E-05-2.85617E-05-2.89205E-05 3.04725E-06-5.62068E-19-7.35033E-19
 -1      2280 9.56056E-05-2.83464E-05-2.88306E-05 3.13756E-06-6.16683E-19-2.64816E-19
 -1      2281 9.63149E-05-2.86307E-05-2.90076E-05 3.22514E-06-5.65016E-19-7.56111E-19
 -1      2282 9.67644E-05-2.87674E-05-2.91347E-05 3.37146E-06-3.92714E-19-6.21337E-19
 -1      2283 9.60659E-05-2.84690E-05-2.89749E-05 3.51835E-06-5.56608E-19-2.59902E-19
 -1      2284 9.70767E-05-2.88689E-05-2.92315E-05 3.54733E-06-7.24898E-20-3.88759E-19
 -1      2285 9.75825E-05-2.90450E-05-2.93680E-05 3.67947E-06 3.07613E-19-6.75379E-20
 -1      2286 9.66344E-05-2.86461E-05-2.91427E-05 3.90009E-06-5.40087E-20-1.47833E-19
 -1      2287 9.79644E-05-2.91984E-05-2.94696E-05 3.83126E-06 3.37280E-19-3.23829E-19
 -1      2288 9.85245E-05-2.94298E-05-2.96101E-05 3.91822E-06 1.05012E-19-2.44787E-19
 -1      2289 9.73312E-05-2.89216E-05-2.93238E-05 4.25511E-06 2.27349E-19-1.11896E-20
 -1      2290 9.89918E-05-2.96580E-05-2.97111E-05 4.00526E-06-1.05514E-19-1.59498E-19
 -1      2291 9.95978E-05-2.99605E-05-2.98481E-05 3.99819E-06 1.16304E-19-1.48588E-19
 -1      2292 9.81848E-05-2.93484E-05-2.95076E-05 4.52017E-06 8.69503E-20 2.31976E-20
 -1      2293 1.00168E-04-3.02873E-05-2.99430E-05 3.95896E-06 1.37119E-19-2.38881E-19
 -1      2294 1.00800E-04-3.06705E-05-3.00669E-05 3.79177E-06-1.86480E-19-2.38449E-20
 -1      2295 9.92297E-05-2.99845E-05-2.96840E-05 4.59154E-06 7.26353E-20 1.65204E-19
 -1      2296 1.01486E-04-3.11120E-05-3.01515E-05 3.54476E-06-4.19927E-19 3.46691E-19
 -1      2297 1.02106E-04-3.15679E-05-3.02519E-05 3.14092E-06-5.24672E-19 5.76435E-19
 -1      2298 1.00497E-04-3.08791E-05-2.98450E-05 4.32320E-06-9.08612E-20 3.10001E-19
 -1      2299 1.02901E-04-3.21158E-05-3.03255E-05 2.59329E-06-4.82242E-19 9.27279E-19
 -1      2300 1.03444E-04-3.26004E-05-3.03934E-05 1.88439E-06-3.98046E-19 8.37150E-19
 -1      2301 1.01995E-04-3.20423E-05-2.99890E-05 3.53529E-06-2.86167E-19 9.51582E-19
 -1      2302 1.04297E-04-3.31950E-05-3.04620E-05 9.56746E-07-4.63006E-19 6.47835E-19
 -1      2303 1.04663E-04-3.36048E-05-3.04936E-05-8.10497E-08 1.30604E-19 6.36390E-19
 -1      2304 1.03670E-04-3.33912E-05-3.01267E-05 2.04521E-06-4.40680E-19 9.03378E-19
 -1      2305 1.05450E-04-3.41033E-05-3.05724E-05-1.40319E-06 7.15761E-19 4.69740E-19
 -1      2306 1.05505E-04-3.42611E-05-3.05732E-05-2.69289E-06 7.53289E-19 4.53371E-19
 -1      2307 1.05347E-04-3.46782E-05-3.02871E-05-2.59207E-07 2.17553E-19 9.34286E-19
 -1      2308 1.06008E-04-3.44274E-05-3.06853E-05-4.27521E-06 3.82632E-19 4.90005E-20
 -1      2309 1.05623E-04-3.41131E-05-3.06713E-05-5.57667E-06 3.46312E-19-5.85194E-19
 -1      2310 1.06676E-04-3.54362E-05-3.05178E-05-3.28410E-06 3.38740E-19 3.31191E-19
 -1      2311 1.05573E-04-3.36817E-05-3.08382E-05-7.04890E-06 5.52279E-19-8.89236E-19
 -1      2312 1.04704E-04-3.27445E-05-3.08307E-05-7.94246E-06 1.72302E-19-8.44077E-19
 -1      2313 1.07150E-04-3.50435E-05-3.08713E-05-6.54038E-06 3.97460E-19-6.02737E-19
 -1      2314 1.03948E-04-3.15949E-05-3.10536E-05-8.69732E-06-1.02059E-19-6.23310E-19
 -1      2315 1.02743E-04-3.01434E-05-3.10665E-05-8.68404E-06-5.17850E-19-4.14001E-19
 -1      2316 1.06314E-04-3.30197E-05-3.13717E-05-9.01998E-06-1.34752E-19-8.53092E-19
 -1      2317 1.01494E-04-2.85536E-05-3.13055E-05-8.10619E-06-3.69310E-19-2.74874E-19
 -1      2318 1.00344E-04-2.70781E-05-3.13327E-05-6.89131E-06-1.04575E-19 1.30695E-20
 -1      2319 1.04207E-04-2.95668E-05-3.19655E-05-9.37464E-06-2.35615E-19-1.72566E-19
 -1      2320 9.92465E-05-2.57644E-05-3.15085E-05-4.82081E-06-5.52967E-19-2.91388E-19
 -1      2321 9.86458E-05-2.49679E-05-3.15274E-05-2.62544E-06-3.46734E-19-4.34370E-19
 -1      2322 1.01717E-04-2.59329E-05-3.24979E-05-6.66198E-06-2.69555E-19-2.94029E-19
 -1      2323 9.84046E-05-2.46826E-05-3.15651E-05 2.90651E-07-1.42328E-19-3.96835E-19
 -1      2324 9.86483E-05-2.50030E-05-3.15589E-05 2.69954E-06-2.02967E-19-4.05319E-22
 -1      2325 1.00289E-04-2.39317E-05-3.27708E-05-1.33750E-06-3.96173E-19-4.07068E-19
 -1      2326 9.94391E-05-2.59313E-05-3.14400E-05 5.27413E-06 5.65401E-19 2.49693E-20
 -1      2327 1.00406E-04-2.71877E-05-3.14157E-05 6.99246E-06 1.00413E-18 2.70050E-19
 -1      2328 1.00874E-04-2.47346E-05-3.26666E-05 4.56085E-06 3.08136E-19-5.61099E-19
 -1      2329 1.01689E-04-2.87577E-05-3.11965E-05 8.26365E-06 5.46556E-19 9.06027E-20
 -1      2330 1.02937E-04-3.02997E-05-3.11783E-05 8.80643E-06 3.46063E-19-2.32092E-19
 -1      2331 1.03077E-04-2.78549E-05-3.22311E-05 8.60222E-06 8.13730E-19-6.84092E-19
 -1      2332 1.03972E-04-3.17074E-05-3.09445E-05 8.59258E-06 3.87066E-19 2.76477E-20
 -1      2333 1.05033E-04-3.29081E-05-3.09474E-05 8.05407E-06 2.80414E-19-1.27654E-19
 -1      2334 1.05525E-04-3.15995E-05-3.16481E-05 9.57313E-06 4.20115E-19-4.21386E-19
 -1      2335 1.05399E-04-3.36603E-05-3.07571E-05 6.83041E-06-5.93664E-19-5.54749E-20
 -1      2336 1.06016E-04-3.42438E-05-3.07753E-05 5.66390E-06-1.12030E-18 2.99597E-19
 -1      2337 1.06987E-04-3.43352E-05-3.11004E-05 7.89709E-06-2.44708E-19 7.44648E-19
 -1      2338 1.05737E-04-3.43125E-05-3.06456E-05 4.08717E-06-1.80452E-18 1.21834E-19
 -1      2339 1.05882E-04-3.43388E-05-3.06601E-05 2.76991E-06-1.13979E-18 4.16428E-19
 -1      2340 1.07073E-04-3.54154E-05-3.06887E-05 4.86591E-06-1.06144E-18 1.57985E-18
 -1      2341 1.05201E-04-3.39533E-05-3.05761E-05 1.32672E-06-7.73285E-19-7.12932E-20
 -1      2342 1.04980E-04-3.36318E-05-3.05677E-05 1.82615E-07-6.78391E-19 6.12668E-19
 -1      2343 1.06078E-04-3.50852E-05-3.04202E-05 1.69217E-06-1.11645E-18 9.35960E-19
 -1      2344 1.04150E-04-3.30558E-05-3.05052E-05-8.95914E-07-3.84748E-19 1.40732E-19
 -1      2345 1.03703E-04-3.25911E-05-3.04640E-05-1.72344E-06-5.45561E-19 2.99642E-19
 -1      2346 1.04528E-04-3.39579E-05-3.02494E-05-9.07029E-07-6.96427E-19 1.05830E-18
 -1      2347 1.02892E-04-3.20103E-05-3.04037E-05-2.39665E-06-3.21548E-19 5.15792E-19
 -1      2348 1.02335E-04-3.15388E-05-3.03301E-05-2.89366E-06-2.61809E-19 9.09562E-19
 -1      2349 1.02856E-04-3.25887E-05-3.01237E-05-2.68491E-06-3.70541E-19 1.98722E-18
 -1      2350 1.01623E-04-3.10469E-05-3.02623E-05-3.21970E-06-6.53714E-19 6.64267E-20
 -1      2351 1.01040E-04-3.06371E-05-3.01637E-05-3.44005E-06-4.29942E-19-1.05674E-18
 -1      2352 1.01311E-04-3.13206E-05-3.00052E-05-3.68108E-06-1.04267E-18 1.53426E-18
 -1      2353 1.00448E-04-3.02618E-05-3.00867E-05-3.50999E-06-1.60074E-19-8.07716E-19
 -1      2354 9.98888E-05-2.99357E-05-2.99737E-05-3.52976E-06 3.65001E-19-4.33589E-19
 -1      2355 9.99923E-05-3.03015E-05-2.98759E-05-4.05847E-06 4.34371E-20 5.53733E-19
 -1      2356 9.94125E-05-2.96696E-05-2.98902E-05-3.43238E-06 9.41451E-19-7.38099E-19
 -1      2357 9.89045E-05-2.94245E-05-2.97729E-05-3.32427E-06 2.13861E-19-2.00167E-19
 -1      2358 9.89154E-05-2.95562E-05-2.97324E-05-4.00446E-06 4.40169E-19 6.22561E-19
 -1      2359 9.85264E-05-2.92465E-05-2.96876E-05-3.13177E-06-2.03470E-19-1.72357E-19
 -1      2360 9.80831E-05-2.90697E-05-2.95744E-05-2.95420E-06-1.31816E-19 4.54687E-19
 -1      2361 9.80555E-05-2.90496E-05-2.95798E-05-3.68424E-06 2.69109E-19 2.96928E-19
 -1      2362 9.77851E-05-2.89569E-05-2.94919E-05-2.71924E-06 8.11011E-19 4.39330E-20
 -1      2363 9.74099E-05-2.88334E-05-2.93881E-05-2.51417E-06 1.17412E-18 9.32743E-19
 -1      2364 9.73769E-05-2.87277E-05-2.94260E-05-3.22531E-06 2.74933E-19 1.40860E-18
 -1      2365 9.71763E-05-2.87660E-05-2.93119E-05-2.27188E-06-4.11328E-20 1.03169E-18
 -1      2366 9.68669E-05-2.86821E-05-2.92209E-05-2.06665E-06-8.56475E-19 1.07377E-18
 -1      2367 9.68451E-05-2.85380E-05-2.92787E-05-2.71728E-06 3.46046E-19 1.09205E-18
 -1      2368 9.66846E-05-2.86447E-05-2.91531E-05-1.83832E-06-9.11986E-19 1.43842E-18
 -1      2369 9.64354E-05-2.85893E-05-2.90760E-05-1.64883E-06-1.06222E-19 1.53720E-18
 -1      2370 9.64305E-05-2.84372E-05-2.91436E-05-2.21789E-06-4.76976E-19 2.49666E-18
 -1      2371 9.62940E-05-2.85708E-05-2.90179E-05-1.44567E-06 1.15298E-19 1.62773E-18
 -1      2372 9.60976E-05-2.85353E-05-2.89546E-05-1.27963E-06 1.03069E-18 1.94993E-18
 -1      2373 9.61090E-05-2.83929E-05-2.90243E-05-1.76045E-06 1.82133E-19 3.07178E-18
 -1      2374 9.59886E-05-2.85280E-05-2.89062E-05-1.10595E-06 1.74021E-18 1.71621E-18
 -1      2375 9.58370E-05-2.85059E-05-2.88556E-05-9.65584E-07 2.00002E-18 1.11174E-18
 -1      2376 9.58614E-05-2.83819E-05-2.89224E-05-1.36090E-06 1.03315E-18 1.84832E-18
 -1      2377 9.57535E-05-2.85044E-05-2.88164E-05-8.21260E-07 1.28652E-18 1.11715E-18
 -1      2378 9.56390E-05-2.84910E-05-2.87772E-05-7.05409E-07 1.41466E-18 1.19444E-18
 -1      2379 9.56718E-05-2.83885E-05-2.88379E-05-1.02360E-06 1.44897E-18 1.43576E-18
 -1      2380 9.55752E-05-2.84920E-05-2.87462E-05-5.87783E-07 2.25588E-18 8.82301E-19
 -1      2381 9.54907E-05-2.84839E-05-2.87167E-05-4.93627E-07 1.95868E-18 1.76552E-18
 -1      2382 9.55274E-05-2.84023E-05-2.87697E-05-7.45653E-07 1.60508E-18 1.30723E-18
 -1      2383 9.54417E-05-2.84858E-05-2.86926E-05-3.98684E-07 2.98695E-19 2.27977E-18
 -1      2384 9.53816E-05-2.84809E-05-2.86709E-05-3.23239E-07-7.82108E-19 2.00533E-18
 -1      2385 9.54170E-05-2.84168E-05-2.87157E-05-5.20492E-07 1.21382E-18 4.87328E-20
 -1      2386 9.36579E-05-2.76807E-05-2.82648E-05-8.51885E-07 2.70992E-19 5.42099E-19
 -1      2387 9.36512E-05-2.75663E-05-2.82969E-05-5.00075E-07 3.90102E-19 7.63685E-19
 -1      2388 9.37967E-05-2.78623E-05-2.82477E-05-1.44421E-06 1.69945E-19 4.27662E-19
 -1      2389 9.36336E-05-2.77563E-05-2.82191E-05-1.21369E-06 1.95234E-19 3.80876E-19
 -1      2390 9.43226E-05-2.77358E-05-2.85505E-05-1.03698E-06 3.70763E-19 4.19335E-20
 -1      2391 9.41491E-05-2.80249E-05-2.83291E-05-1.87084E-06 3.46955E-19 5.32213E-19
 -1      2392 9.38742E-05-2.79213E-05-2.82577E-05-1.69693E-06 2.05551E-19 5.17462E-19
 -1      2393 9.43978E-05-2.79332E-05-2.84954E-05-1.72455E-06 2.31911E-19 1.23202E-19
 -1      2394 9.46706E-05-2.81800E-05-2.84852E-05-2.23780E-06 5.76844E-19 5.31781E-19
 -1      2395 9.43066E-05-2.80758E-05-2.83804E-05-2.07694E-06 4.50155E-19 6.18445E-19
 -1      2396 9.46423E-05-2.80705E-05-2.85392E-05-2.24088E-06 3.18992E-19 1.69330E-19
 -1      2397 9.53404E-05-2.83350E-05-2.87042E-05-2.62232E-06 3.38530E-19 7.45846E-19
 -1      2398 9.48941E-05-2.82264E-05-2.85696E-05-2.44224E-06 6.32016E-19 6.80164E-19
 -1      2399 9.50236E-05-2.81700E-05-2.86585E-05-2.70097E-06 4.83893E-19 3.92174E-19
 -1      2400 9.61574E-05-2.84976E-05-2.89822E-05-3.08432E-06 3.21270E-19 8.49622E-19
 -1      2401 9.56233E-05-2.83795E-05-2.88176E-05-2.85946E-06 3.49519E-19 6.44359E-19
 -1      2402 9.55233E-05-2.82442E-05-2.88401E-05-3.19009E-06 4.43821E-19 5.98626E-19
 -1      2403 9.71355E-05-2.86784E-05-2.93210E-05-3.67157E-06 5.24729E-19 3.13054E-19
 -1      2404 9.64991E-05-2.85432E-05-2.91232E-05-3.38133E-06 4.96857E-19 6.75241E-19
 -1      2405 9.61357E-05-2.83026E-05-2.90771E-05-3.77439E-06 6.57623E-19 9.48232E-20
 -1      2406 9.83001E-05-2.88937E-05-2.97248E-05-4.41989E-06 3.13767E-19 1.68581E-20
 -1      2407 9.75402E-05-2.87299E-05-2.94894E-05-4.04936E-06 2.85089E-19 1.92815E-19
 -1      2408 9.68654E-05-2.83568E-05-2.93664E-05-4.50544E-06 4.91762E-19 9.63247E-20
 -1      2409 9.96855E-05-2.91696E-05-3.01977E-05-5.34757E-06 8.27925E-20 2.17081E-19
 -1      2410 9.87763E-05-2.89601E-05-2.99205E-05-4.89148E-06 3.54549E-19 1.73845E-19
 -1      2411 9.77264E-05-2.84259E-05-2.97059E-05-5.41956E-06 2.80259E-19 3.17585E-19
 -1      2412 1.01333E-04-2.95514E-05-3.07393E-05-6.44121E-06-7.86318E-20 5.19034E-19
 -1      2413 1.00248E-04-2.92689E-05-3.04186E-05-5.91275E-06-4.13855E-20 4.44562E-19
 -1      2414 9.87436E-05-2.85458E-05-3.00908E-05-6.53079E-06-1.50659E-19 3.72766E-20
 -1      2415 1.03294E-04-3.01178E-05-3.13396E-05-7.62877E-06 2.92690E-20 1.79856E-19
 -1      2416 1.02008E-04-2.97182E-05-3.09797E-05-7.07581E-06-4.71170E-20 4.88674E-19
 -1      2417 9.99602E-05-2.87853E-05-3.05108E-05-7.81488E-06 7.88229E-20-1.34667E-19
 -1      2418 1.05634E-04-3.10015E-05-3.19728E-05-8.73515E-06 7.81519E-19-2.65836E-19
 -1      2419 1.04129E-04-3.04164E-05-3.15880E-05-8.26595E-06 4.11281E-19-1.08972E-19
 -1      2420 1.01454E-04-2.92721E-05-3.09459E-05-9.18028E-06 5.12688E-19-5.51582E-19
 -1      2421 1.08443E-04-3.24074E-05-3.25932E-05-9.41950E-06 7.72671E-19 2.49048E-20
 -1      2422 1.06719E-04-3.15413E-05-3.22119E-05-9.23595E-06 7.75889E-19-3.93870E-20
 -1      2423 1.03370E-04-3.02269E-05-3.13654E-05-1.04216E-05 5.55221E-19 2.63583E-19
 -1      2424 1.11833E-04-3.45914E-05-3.31413E-05-9.10998E-06-2.57190E-19 3.13564E-19
 -1      2425 1.09930E-04-3.33477E-05-3.28048E-05-9.53249E-06 4.42353E-19 3.50142E-19
 -1      2426 1.05956E-04-3.19865E-05-3.17349E-05-1.11530E-05 1.77417E-19 8.16252E-19
 -1      2427 1.15868E-04-3.77120E-05-3.35752E-05-6.99773E-06-6.70162E-19 7.34285E-19
 -1      2428 1.13925E-04-3.60964E-05-3.33236E-05-8.43423E-06-8.37001E-19 6.31781E-19
 -1      2429 1.09584E-04-3.49500E-05-3.20428E-05-1.07315E-05-7.35258E-19 1.20951E-18
 -1      2430 1.20316E-04-4.13846E-05-3.39490E-05-2.23060E-06-5.65130E-19 8.15521E-19
 -1      2431 1.18707E-04-3.97727E-05-3.37809E-05-4.98944E-06-2.16344E-19 7.98646E-19
 -1      2432 1.14634E-04-3.93178E-05-3.23606E-05-8.22016E-06-6.25173E-19 1.31005E-18
 -1      2433 1.24226E-04-4.39809E-05-3.45086E-05 5.32744E-06-2.06358E-19 9.74091E-19
 -1      2434 1.23589E-04-4.33942E-05-3.43433E-05 1.50632E-06-9.36746E-19 4.12598E-19
 -1      2435 1.20976E-04-4.42685E-05-3.29596E-05-2.56651E-06-6.28264E-19 6.56811E-19
 -1      2436 1.25562E-04-4.25308E-05-3.56431E-05 1.34625E-05-1.40318E-18 2.25192E-18
 -1      2437 1.26684E-04-4.44159E-05-3.53284E-05 1.01511E-05-4.50800E-19 1.63356E-18
 -1      2438 1.26939E-04-4.70597E-05-3.43583E-05 6.48202E-06-1.16715E-18 1.85810E-18
 -1      2439 1.22343E-04-3.47274E-05-3.76271E-05 1.72316E-05-1.58570E-18 1.96319E-18
 -1      2440 1.25550E-04-3.95311E-05-3.70839E-05 1.72048E-05-1.59274E-18 1.93497E-18
 -1      2441 1.30152E-04-4.42620E-05-3.68858E-05 1.61483E-05-1.26179E-18 1.76744E-18
 -1      2442 1.17239E-04-2.50727E-05-3.96274E-05 1.04132E-05-1.88571E-19 1.17304E-18
 -1      2443 1.20167E-04-2.96143E-05-3.91403E-05 1.50608E-05-1.03857E-18 1.59907E-18
 -1      2444 1.26642E-04-3.16706E-05-4.10849E-05 1.85772E-05-8.12622E-19 6.15899E-19
 -1      2445 1.16076E-04-2.29983E-05-4.02389E-05-4.54082E-06 9.73453E-19 4.74742E-19
 -1      2446 1.15852E-04-2.25459E-05-4.02850E-05 2.27511E-06 2.56439E-19 5.95557E-19
 -1      2447 1.22348E-04-2.15061E-05-4.34564E-05 7.42133E-06 6.52109E-19-1.16063E-18
 -1      2448 1.20999E-04-3.11493E-05-3.88496E-05-1.62898E-05 1.95260E-18 1.21027E-18
 -1      2449 1.17872E-04-2.61866E-05-3.93846E-05-1.22490E-05 1.53281E-18 7.82764E-19
 -1      2450 1.22552E-04-2.24782E-05-4.31730E-05-9.60079E-06 7.49518E-19-1.28998E-18
 -1      2451 1.25934E-04-4.06142E-05-3.67781E-05-1.64001E-05 1.38012E-18 1.70912E-18
 -1      2452 1.23255E-04-3.63177E-05-3.72750E-05-1.71175E-05 1.75315E-18 2.00408E-18
 -1      2453 1.27857E-04-3.51474E-05-3.99736E-05-1.79991E-05 1.37971E-18-1.87141E-19
 -1      2454 1.26573E-04-4.46055E-05-3.51628E-05-9.01486E-06 5.03956E-19 2.07352E-18
 -1      2455 1.25666E-04-4.31178E-05-3.54511E-05-1.25823E-05 1.08135E-18 2.30696E-18
 -1      2456 1.29652E-04-4.43589E-05-3.65594E-05-1.46002E-05 8.23554E-19 1.21071E-18
 -1      2457 1.23025E-04-4.29675E-05-3.42607E-05-4.67017E-07 1.28981E-18 2.40809E-18
 -1      2458 1.23803E-04-4.37874E-05-3.44139E-05-4.09448E-06 8.49839E-19 2.66730E-18
 -1      2459 1.26402E-04-4.70134E-05-3.40705E-05-4.89639E-06 5.76863E-19 1.82980E-18
 -1      2460 1.18060E-04-3.91926E-05-3.37504E-05 5.54967E-06 7.09648E-19 1.61873E-18
 -1      2461 1.19738E-04-4.08313E-05-3.39208E-05 3.08516E-06 1.67904E-18 2.52334E-18
 -1      2462 1.20055E-04-4.35961E-05-3.28506E-05 3.56293E-06 1.28969E-18 2.78361E-18
 -1      2463 1.13429E-04-3.56478E-05-3.33049E-05 8.56176E-06 3.31828E-19 1.32874E-18
 -1      2464 1.15349E-04-3.71826E-05-3.35632E-05 7.35362E-06-6.73524E-20 1.90491E-18
 -1      2465 1.13865E-04-3.85620E-05-3.23437E-05 8.62913E-06 4.62503E-19 3.06218E-18
 -1      2466 1.09609E-04-3.30573E-05-3.27941E-05 9.37072E-06-6.94107E-19 1.85896E-18
 -1      2467 1.11454E-04-3.42172E-05-3.31295E-05 9.08778E-06-1.17129E-20 1.80486E-18
 -1      2468 1.09093E-04-3.44140E-05-3.20554E-05 1.07130E-05 1.39580E-19 3.62205E-18
 -1      2469 1.06569E-04-3.13792E-05-3.22184E-05 8.88491E-06-4.92993E-19 2.17578E-18
 -1      2470 1.08217E-04-3.21802E-05-3.25889E-05 9.14043E-06-8.36620E-19 1.94250E-18
 -1      2471 1.05688E-04-3.16482E-05-3.17603E-05 1.08531E-05-9.52498E-19 2.66294E-18
 -1      2472 1.04145E-04-3.03466E-05-3.16250E-05 7.78905E-06 9.16235E-19 2.28838E-18
 -1      2473 1.05560E-04-3.08848E-05-3.19901E-05 8.29210E-06 5.63193E-19 2.21975E-18
 -1      2474 1.03278E-04-3.00363E-05-3.14045E-05 9.93794E-06 3.51239E-19 3.04774E-18
 -1      2475 1.02193E-04-2.97161E-05-3.10597E-05 6.50381E-06-2.84635E-19 2.40927E-18
 -1      2476 1.03378E-04-3.00794E-05-3.13927E-05 7.07557E-06 2.38384E-19 2.31154E-18
 -1      2477 1.01508E-04-2.91769E-05-3.10078E-05 8.57036E-06 2.86701E-19 2.95413E-18
 -1      2478 1.00615E-04-2.93226E-05-3.05520E-05 5.25485E-06-3.57067E-19 1.73928E-18
 -1      2479 1.01586E-04-2.95727E-05-3.08401E-05 5.80089E-06 1.42133E-19 2.22257E-18
 -1      2480 1.00150E-04-2.87506E-05-3.06054E-05 7.10429E-06 3.94358E-19 1.99871E-18
 -1      2481 9.93430E-05-2.90677E-05-3.01159E-05 4.14536E-06-1.33414E-18 1.57180E-18
 -1      2482 1.00124E-04-2.92435E-05-3.03558E-05 4.62432E-06-1.20294E-18 1.79354E-18
 -1      2483 9.90707E-05-2.85537E-05-3.02263E-05 5.72552E-06-3.99460E-19 6.25730E-19
 -1      2484 9.83255E-05-2.88959E-05-2.97533E-05 3.20921E-06-1.08113E-18 2.30985E-18
 -1      2485 9.89429E-05-2.90215E-05-2.99475E-05 3.60921E-06-1.14927E-18 1.68274E-18
 -1      2486 9.82000E-05-2.84711E-05-2.98883E-05 4.51629E-06-1.54514E-18 1.40686E-18
 -1      2487 9.75207E-05-2.87767E-05-2.94595E-05 2.44470E-06-8.60933E-19 3.49540E-18
 -1      2488 9.80015E-05-2.88670E-05-2.96133E-05 2.76854E-06-1.17656E-18 2.66183E-18
 -1      2489 9.74958E-05-2.84423E-05-2.95987E-05 3.50020E-06-1.96503E-18 1.61794E-18
 -1      2490 9.68925E-05-2.86924E-05-2.92265E-05 1.83413E-06 7.09240E-19 3.44474E-18
 -1      2491 9.72614E-05-2.87573E-05-2.93461E-05 2.09085E-06 4.72573E-19 3.70489E-18
 -1      2492 9.69304E-05-2.84375E-05-2.93581E-05 2.67048E-06-6.52346E-19 1.95286E-18
 -1      2493 9.64092E-05-2.86327E-05-2.90452E-05 1.35422E-06 2.01308E-18 2.01876E-18
 -1      2494 9.66879E-05-2.86789E-05-2.91365E-05 1.55475E-06 9.83801E-19 2.65375E-18
 -1      2495 9.64817E-05-2.84426E-05-2.91632E-05 2.00661E-06 7.25903E-19 2.78273E-18
 -1      2496 9.60432E-05-2.85905E-05-2.89066E-05 9.81300E-07 1.30432E-18 1.80330E-18
 -1      2497 9.62503E-05-2.86231E-05-2.89751E-05 1.13641E-06 2.12464E-18 1.88447E-18
 -1      2498 9.61307E-05-2.84513E-05-2.90086E-05 1.48341E-06 2.05337E-18 1.52513E-18
 -1      2499 9.57707E-05-2.85607E-05-2.88028E-05 6.93445E-07 1.57799E-19 1.54157E-18
 -1      2500 9.59215E-05-2.85834E-05-2.88531E-05 8.12946E-07 9.25492E-19 1.74619E-18
 -1      2501 9.58602E-05-2.84602E-05-2.88883E-05 1.07566E-06 8.35166E-19 2.50623E-18
 -1      2502 9.55715E-05-2.85397E-05-2.87266E-05 4.71474E-07 4.96355E-19 1.09210E-18
 -1      2503 9.56788E-05-2.85551E-05-2.87626E-05 5.63813E-07-4.96727E-19 1.42115E-18
 -1      2504 9.56547E-05-2.84677E-05-2.87966E-05 7.60037E-07 3.11983E-19 8.25344E-19
 -1      2505 9.54290E-05-2.85254E-05-2.86719E-05 2.98970E-07 7.30231E-19 1.63832E-18
 -1      2506 9.55025E-05-2.85349E-05-2.86970E-05 3.71111E-07 9.41075E-19 2.31912E-18
 -1      2507 9.54999E-05-2.84725E-05-2.87278E-05 5.16911E-07 6.27775E-19 1.02678E-18
 -1      2508 9.53296E-05-2.85176E-05-2.86329E-05 1.66403E-07-7.39542E-19 1.76809E-18
 -1      2509 9.53785E-05-2.85222E-05-2.86502E-05 2.22317E-07 2.93699E-19 1.49299E-18
 -1      2510 9.53866E-05-2.84788E-05-2.86766E-05 3.27892E-07 3.64071E-19 2.25062E-18
 -1      2511 9.52934E-05-2.85210E-05-2.86153E-05 1.04962E-07-9.11345E-19 1.55404E-18
 -1      2512 9.50370E-05-2.80544E-05-2.87088E-05 2.95810E-07 1.62597E-18-7.96812E-20
 -1      2513 9.50758E-05-2.81076E-05-2.86999E-05 3.15629E-07 1.27219E-18-2.52019E-18
 -1      2514 9.49701E-05-2.79592E-05-2.87209E-05 2.14629E-07-3.88994E-19-5.65365E-19
 -1      2515 9.49991E-05-2.79988E-05-2.87144E-05 2.55797E-07 4.58129E-19-2.83680E-19
 -1      2516 9.49806E-05-2.79650E-05-2.87195E-05 3.26845E-07 1.34698E-18-1.62835E-18
 -1      2517 9.52084E-05-2.83076E-05-2.86729E-05 3.03810E-07-1.63431E-18 5.30122E-19
 -1      2518 9.52456E-05-2.83642E-05-2.86619E-05 2.77195E-07-1.60935E-18-3.94942E-19
 -1      2519 9.51215E-05-2.81764E-05-2.86924E-05 3.27473E-07 2.66737E-19-1.83045E-18
 -1      2520 9.51631E-05-2.82347E-05-2.86823E-05 3.22694E-07-1.17755E-18 1.35381E-18
 -1      2521 9.51878E-05-2.82376E-05-2.86922E-05 3.80614E-07-6.88213E-19 4.49478E-19
 -1      2522 9.50791E-05-2.80922E-05-2.87077E-05 3.84712E-07 5.13689E-19-1.09740E-18
 -1      2523 9.49308E-05-2.79038E-05-2.87275E-05 9.85401E-08-8.38568E-19 5.72150E-19
 -1      2524 9.49458E-05-2.79243E-05-2.87242E-05 1.53584E-07-7.96035E-19-4.89575E-19
 -1      2525 9.49072E-05-2.78724E-05-2.87273E-05 2.16503E-07-1.43520E-19-9.39184E-19
 -1      2526 9.49242E-05-2.78949E-05-2.87280E-05-3.26544E-08-5.15862E-19 2.89217E-18
 -1      2527 9.49233E-05-2.78937E-05-2.87283E-05 2.67739E-08-1.37129E-18 3.34943E-18
 -1      2528 9.48696E-05-2.78263E-05-2.87308E-05 7.24601E-08 3.87994E-19 1.26722E-18
 -1      2529 9.49505E-05-2.79328E-05-2.87224E-05-1.57386E-07-8.74116E-19 4.58517E-19
 -1      2530 9.49342E-05-2.79103E-05-2.87263E-05-1.03503E-07-9.92221E-19 1.71286E-18
 -1      2531 9.48726E-05-2.78318E-05-2.87298E-05-8.18327E-08-1.21223E-18 2.12594E-18
 -1      2532 9.50043E-05-2.80103E-05-2.87116E-05-2.54296E-07 6.49146E-19-1.30028E-18
 -1      2533 9.49757E-05-2.79707E-05-2.87184E-05-2.15233E-07-1.22055E-19-8.91389E-19
 -1      2534 9.49142E-05-2.78865E-05-2.87245E-05-2.21065E-07-3.88051E-19 2.90839E-19
 -1      2535 9.50796E-05-2.81196E-05-2.86964E-05-3.11106E-07 2.95237E-18-1.10034E-18
 -1      2536 9.50420E-05-2.80669E-05-2.87054E-05-2.92125E-07 2.02894E-18-2.25251E-18
 -1      2537 9.49881E-05-2.79830E-05-2.87152E-05-3.25134E-07 1.38073E-18-7.81174E-19
 -1      2538 9.51646E-05-2.82461E-05-2.86783E-05-3.16782E-07 1.68276E-18 3.20443E-19
 -1      2539 9.51243E-05-2.81876E-05-2.86886E-05-3.22103E-07 2.84177E-18 5.44852E-19
 -1      2540 9.50841E-05-2.81102E-05-2.87024E-05-3.78644E-07 2.42166E-18-8.59490E-19
 -1      2541 9.52439E-05-2.83723E-05-2.86580E-05-2.71925E-07-7.57027E-19-1.32425E-18
 -1      2542 9.52083E-05-2.83159E-05-2.86690E-05-2.99668E-07 3.13652E-19-1.55106E-18
 -1      2543 9.51864E-05-2.82520E-05-2.86865E-05-3.73165E-07 6.90909E-19-1.92852E-18
 -1      2544 2.74147E-05-2.24558E-05-1.88869E-06 2.20409E-05-2.46868E-18 1.95876E-19
 -1      2545 2.08534E-05-1.69631E-05-1.31958E-06 7.01298E-06-2.53242E-18 5.25160E-20
 -1      2546 5.75050E-05-3.67983E-05-8.78297E-06 3.93849E-05-1.33874E-18 4.96573E-19
 -1      2547 4.04352E-05-2.94654E-05-4.49239E-06 3.12689E-05-1.99222E-18 2.50086E-19
 -1      2548 2.13051E-05-1.71715E-05-1.41379E-06-1.28784E-05-1.44281E-18 8.06375E-19
 -1      2549 2.80302E-05-2.26944E-05-2.01926E-06-2.63693E-05 7.17860E-20 2.00366E-18
 -1      2550 9.38031E-05-2.74513E-05-2.84221E-05 6.30459E-08 5.04511E-19 8.56198E-19
 -1      2551 9.40254E-05-2.73101E-05-2.85480E-05 6.43132E-07 4.70878E-19 9.11040E-19
 -1      2552 9.44591E-05-2.74284E-05-2.87427E-05-1.35890E-08 5.67822E-19 3.74377E-19
 -1      2553 9.52771E-05-2.84737E-05-2.86287E-05-1.59834E-07-9.50181E-19 1.00483E-18
 -1      2554 9.51598E-05-5.33156E-05-1.81148E-05 4.02567E-05-1.69004E-18 8.51745E-19
 -1      2555 7.77236E-05-4.70010E-05-1.29934E-05 3.99504E-05-1.21930E-18 9.24325E-19
 -1      2556 1.52571E-04-5.05313E-05-4.40783E-05 2.57534E-06 6.76611E-19-2.61564E-18
 -1      2557 1.44966E-04-5.69725E-05-3.78452E-05 7.75079E-06-2.71527E-19-1.81265E-18
 -1      2558 1.47963E-04-4.84094E-05-4.28197E-05-7.50654E-06 4.71480E-19-3.97280E-18
 -1      2559 6.82435E-05-4.25185E-05-1.08852E-05-4.30317E-05 8.33480E-19 1.50539E-18
 -1      2560 8.71293E-05-4.86284E-05-1.65704E-05-4.34908E-05 1.20363E-18 4.42231E-19
 -1      2561 1.24222E-04-6.03993E-05-2.73485E-05-2.61858E-05-9.42959E-19-2.01594E-19
 -1      2562 1.38998E-04-6.00927E-05-3.42454E-05-1.77921E-05-8.73291E-19-1.63689E-19
 -1      2563 8.78198E-05-1.06232E-05-3.31202E-05-1.47592E-06 5.99565E-19-1.31374E-18
 -1      2564 8.79299E-05-1.07520E-05-3.31103E-05-2.56950E-06 4.23413E-19-1.37448E-18
 -1      2565 8.93057E-05-1.28870E-05-3.27520E-05-2.83614E-06 4.15029E-19-1.30604E-18
 -1      2566 8.90438E-05-1.25322E-05-3.27929E-05-9.09845E-07 6.06918E-19-1.23335E-18
 -1      2567 1.52758E-04-1.89000E-05-5.76736E-05 6.64215E-06 1.74955E-18-2.42675E-19
 -1      2568 1.52432E-04-1.49430E-05-5.92651E-05 1.92572E-06 1.61741E-18-1.43138E-18
 -1      2569 2.22666E-05-1.80825E-05-1.42590E-06-1.05937E-05-4.35904E-19-1.59835E-18
 -1      2570 3.07755E-05-2.22495E-05-3.32084E-06-2.39646E-05-7.21884E-19-2.30097E-18
 -1      2571 1.53156E-04-3.53133E-05-5.07077E-05 8.12771E-06 1.77284E-18 7.89011E-19
 -1      2572 1.54511E-04-2.73637E-05-5.47523E-05 9.28935E-06 2.25798E-18 1.95876E-19
 -1      2573 1.47391E-04-5.37122E-05-4.02757E-05-3.78632E-06-6.92714E-20 4.71797E-19
 -1      2574 1.53554E-04-4.67001E-05-4.63136E-05 1.78151E-06 1.16038E-18 8.91714E-19
 -1      2575 8.92487E-05-5.15683E-05-1.59932E-05-3.87892E-05-1.29554E-18-1.98774E-18
 -1      2576 1.06671E-04-5.67353E-05-2.16677E-05-3.69618E-05-1.08420E-18-8.09128E-19
 -1      2577 8.72030E-05-4.87469E-05-1.64307E-05 4.41740E-05 9.04208E-20-2.69992E-21
 -1      2578 7.02395E-05-4.23778E-05-1.16221E-05 4.30527E-05 4.68409E-19-8.37504E-20
 -1      2579 2.21382E-05-1.76476E-05-1.62357E-06 1.57967E-05 1.08516E-18-1.20935E-18
 -1      2580 1.97702E-05-1.61938E-05-1.15109E-06 2.52645E-06 7.11574E-19-1.26801E-18
 -1      2581 4.75062E-05-3.12290E-05-6.88089E-06 3.98700E-05 1.04333E-18-1.51831E-18
 -1      2582 3.16248E-05-2.35641E-05-3.10512E-06 2.80029E-05 1.53249E-18-2.02801E-18
 -1      2583 1.17262E-04-5.58653E-05-2.65423E-05 3.30188E-05-3.81588E-19 1.02978E-18
 -1      2584 1.01547E-04-5.35177E-05-2.06089E-05 3.83492E-05 3.55754E-20 2.67768E-19
 -1      2585 1.01845E-04-5.32034E-05-2.04646E-05 3.81736E-05 7.33001E-19 6.57602E-19
 -1      2586 1.45977E-04-3.16523E-05-4.96843E-05-3.19608E-06-1.95823E-18 1.69047E-18
 -1      2587 1.45928E-04-3.97024E-05-4.55942E-05 1.24330E-06-1.79677E-18 1.96194E-18
 -1      2588 1.42090E-04-1.21488E-05-5.62748E-05-4.30781E-06-4.15893E-19 3.27166E-20
 -1      2589 1.42738E-04-1.91870E-05-5.33143E-05-6.15156E-06-1.37855E-18 1.21232E-18
 -1      2590 1.44223E-04-1.17898E-05-5.71801E-05 3.02932E-06 3.05144E-19-1.20490E-18
 -1      2591 1.40020E-04-8.54294E-06-5.69924E-05 6.08584E-07 7.75035E-20-4.74246E-19
 -1      2592 1.42917E-04-2.24829E-05-5.21204E-05 6.05966E-06-3.92600E-19-1.11724E-18
 -1      2593 1.45367E-04-1.67439E-05-5.55814E-05 4.77591E-06 1.23667E-19-1.10781E-18
 -1      2594 1.32219E-04-1.23307E-05-5.15791E-05 7.34353E-06 3.15520E-19-1.55272E-18
 -1      2595 1.44220E-04-4.21803E-05-4.39332E-05-3.62073E-06-1.27838E-18-5.46336E-19
 -1      2596 1.46538E-04-3.39095E-05-4.88171E-05 2.00611E-06-9.05266E-19-1.10093E-18
 -1      2597 1.31558E-04-5.42037E-05-3.32592E-05-2.14035E-05-7.71118E-19-3.94717E-19
 -1      2598 1.41022E-04-5.04934E-05-3.91545E-05-1.40039E-05-1.09802E-18 2.98156E-19
 -1      2599 1.07846E-04-5.45570E-05-2.27630E-05-3.65745E-05 6.90544E-19 6.41627E-20
 -1      2600 1.22314E-04-5.56013E-05-2.86042E-05-3.12964E-05-3.08108E-19-8.59950E-19
 -1      2601 1.30052E-04-5.76281E-05-3.09350E-05-2.08896E-05-1.14349E-20 3.38813E-20
 -1      2602 3.69096E-05-2.81126E-05-3.57593E-06-3.33441E-05 7.00284E-19 1.63350E-18
 -1      2603 4.94608E-05-3.33978E-05-6.83685E-06-4.07983E-05 5.88053E-19 1.46706E-18
 -1      2604 3.84288E-05-2.27383E-05-6.28096E-06-2.97172E-05 5.29184E-19 1.24620E-18
 -1      2605 9.50565E-05-2.00012E-05-3.22150E-05-1.16312E-05-7.79773E-19-1.12939E-18
 -1      2606 9.54723E-05-2.33283E-05-3.09381E-05-7.81236E-06-6.73246E-19-1.02607E-18
 -1      2607 9.50695E-05-2.25329E-05-3.10776E-05-7.41983E-06-6.07429E-19-1.19088E-18
 -1      2608 9.32488E-05-1.76815E-05-3.24133E-05-1.11592E-05-6.42465E-19-1.24923E-18
 -1      2609 9.62981E-05-2.50725E-05-3.05499E-05 7.47801E-06 9.37824E-19 1.69365E-18
 -1      2610 9.73975E-05-2.37568E-05-3.15813E-05 1.05851E-05 1.00458E-18 1.96944E-18
 -1      2611 9.58576E-05-2.12878E-05-3.20143E-05 1.17734E-05 1.11743E-18 1.52327E-18
 -1      2612 9.58799E-05-2.41364E-05-3.07809E-05 7.53090E-06 1.02754E-18 1.11677E-18
 -1      2613 1.33828E-04-6.03269E-05-3.18625E-05 2.24778E-05-7.65930E-19-1.42407E-18
 -1      2614 1.14684E-04-5.86754E-05-2.39067E-05 3.10730E-05-1.25170E-18-2.27111E-19
 -1      2615 1.43279E-04-1.45136E-05-5.54199E-05-1.25620E-06 1.49480E-18-2.18124E-18
 -1      2616 9.08048E-05-1.49243E-05-3.25145E-05-6.63052E-06-1.93098E-19-1.57052E-18
 -1      2617 8.97307E-05-1.31020E-05-3.28932E-05-7.80431E-06-2.34401E-19-1.69581E-18
 -1      2618 9.03917E-05-1.39033E-05-3.28416E-05-8.97125E-06-4.05224E-19-1.72253E-18
 -1      2619 9.48375E-05-2.68902E-05-2.91342E-05 1.59247E-06 7.59736E-19 6.18658E-19
 -1      2620 9.42472E-05-1.90669E-05-3.22650E-05 1.14683E-05 1.25752E-18 8.75911E-19
 -1      2621 1.39898E-04-6.06811E-05-3.38453E-05 1.06379E-05-5.60418E-19-1.74690E-18
 -1      2622 1.01978E-04-5.34016E-05-2.05515E-05-3.86900E-05 1.33747E-18 1.24027E-18
 -1      2623 1.13321E-04-5.67760E-05-2.44798E-05-3.19351E-05 5.44748E-19 2.59404E-19
 -1      2624 9.51190E-05-4.97905E-05-1.89859E-05-3.96548E-05 1.09500E-18 6.63809E-19
 -1      2625 6.43178E-05-3.71583E-05-1.12022E-05-4.15567E-05 1.06451E-18 1.04651E-18
 -1      2626 1.38576E-04-2.86782E-05-4.73149E-05 8.48638E-06-5.67089E-19-9.93781E-19
 -1      2627 7.34272E-05-4.15235E-05-1.32097E-05 3.84681E-05-8.67997E-19 1.22629E-18
 -1      2628 9.53027E-05-2.84844E-05-2.86363E-05 1.81038E-07-1.35957E-18 1.64541E-18
 -1      2629 9.52916E-05-2.84461E-05-2.86480E-05 2.22643E-07-1.23474E-18 7.00447E-19
 -1      2630 1.31860E-04-9.61061E-06-5.27483E-05-2.81465E-06-1.47384E-19-8.54736E-19
 -1      2631 3.01059E-05-1.33369E-05-6.61851E-06 6.20790E-06-1.60579E-18-8.48727E-19
 -1      2632 2.40268E-05-1.48232E-05-3.37805E-06-2.78758E-06-1.74429E-18-3.28649E-19
 -1      2633 3.05269E-05-1.37308E-05-6.63939E-06-1.13052E-05-8.74350E-19-8.19504E-20
 -1      2634 4.13135E-05-2.35605E-05-7.06387E-06 2.68775E-05-1.64176E-18 1.28410E-18
 -1      2635 1.26427E-04-5.70868E-05-2.96171E-05 2.51881E-05-7.51424E-19 1.56934E-18
 -1      2636 1.22376E-04-5.83050E-05-2.70912E-05 2.60904E-05 7.19978E-20 1.41312E-18
 -1      2637 1.32454E-04-5.71562E-05-3.29036E-05 1.57877E-05-5.99488E-19 2.25258E-18
 -1      2638 9.47282E-05-2.05708E-05-3.17375E-05 9.51018E-06 1.16575E-18 6.29690E-19
 -1      2639 6.60373E-05-3.67583E-05-1.20638E-05 4.05250E-05 1.29723E-18-6.58568E-19
 -1      2640 1.11567E-04-5.77974E-05-2.27124E-05 3.20644E-05-1.36796E-18-1.39496E-19
 -1      2641 3.49758E-05-1.87272E-05-6.33291E-06 2.26362E-05 1.80069E-18-1.46664E-18
 -1      2642 1.43650E-04-5.94387E-05-3.60736E-05-5.61649E-06-6.83979E-19 4.47233E-19
 -1      2643 1.41734E-04-4.58893E-05-4.11156E-05 3.73907E-06-1.83526E-18 1.82472E-18
 -1      2644 8.25477E-05-4.68784E-05-1.48891E-05-3.96392E-05-1.61868E-18-1.94643E-18
 -1      2645 1.48434E-04-4.08765E-05-4.61362E-05 1.27307E-05 1.10030E-18 1.82536E-19
 -1      2646 1.20373E-04-6.03654E-05-2.54631E-05-2.75939E-05-1.47532E-18-8.48092E-20
 -1      2647 4.26596E-05-2.62726E-05-6.50714E-06-2.97342E-05-1.18129E-18-2.84794E-18
 -1      2648 5.51663E-05-3.03888E-05-1.06010E-05-3.45707E-05-1.63043E-18-2.38588E-18
 -1      2649 4.18656E-05-2.01741E-05-8.67513E-06-2.44808E-05-1.05487E-18-2.13177E-18
 -1      2650 1.48641E-04-2.90753E-05-5.17012E-05-1.24904E-05 1.01496E-18-3.13000E-18
 -1      2651 1.43113E-04-3.38438E-05-4.68401E-05-1.62383E-05 9.27713E-19-3.64235E-18
 -1      2652 1.40039E-04-2.32756E-05-5.07933E-05-1.39097E-05 1.09077E-18-3.06689E-18
 -1      2653 2.80767E-05-1.45031E-05-5.19882E-06-4.22113E-06 7.71329E-20-1.02703E-18
 -1      2654 9.11691E-05-1.49629E-05-3.27134E-05-9.65702E-06-4.79040E-19-1.68206E-18
 -1      2655 9.21899E-05-1.62551E-05-3.26226E-05-1.06882E-05-5.86263E-19-1.52952E-18
 -1      2656 9.36836E-05-1.91662E-05-3.19205E-05-9.02509E-06-6.11368E-19-1.35655E-18
 -1      2657 9.21005E-05-1.67427E-05-3.22812E-05-8.12606E-06-4.35497E-19-1.57825E-18
 -1      2658 1.45418E-04-2.31295E-05-5.25428E-05 1.17568E-05 1.97719E-18-1.08018E-18
 -1      2659 9.53179E-05-2.84839E-05-2.86419E-05-2.12537E-07-1.06673E-18 1.25806E-18
 -1      2660 9.52791E-05-2.84270E-05-2.86519E-05-2.48466E-07-1.29940E-18 4.65324E-19
 -1      2661 9.52822E-05-2.83791E-05-2.86718E-05-3.31807E-07-1.62790E-18-1.10677E-18
 -1      2662 9.53565E-05-2.84835E-05-2.86575E-05-2.68777E-07-1.24514E-18 2.20970E-18
 -1      2663 1.38022E-04-2.51238E-05-4.86666E-05-8.78516E-06-1.47553E-18 9.34595E-19
 -1      2664 1.40746E-04-4.81488E-05-3.97306E-05-3.27751E-06-8.72709E-19-5.39984E-19
 -1      2665 9.52955E-05-2.83968E-05-2.86699E-05 3.08255E-07-1.16495E-18 5.96129E-19
 -1      2666 9.53458E-05-2.84321E-05-2.86790E-05-3.62921E-07-1.07084E-18 1.12748E-18
 -1      2667 9.04921E-05-1.49243E-05-3.24084E-05 3.06547E-06 9.09336E-19-9.68337E-19
 -1      2668 9.02890E-05-1.46381E-05-3.24427E-05 2.16205E-06 8.37343E-19-1.02437E-18
 -1      2669 9.01434E-05-1.44209E-05-3.24725E-05 1.36349E-06 7.50979E-19-1.05589E-18
 -1      2670 9.00726E-05-1.43228E-05-3.24839E-05 4.42025E-07 6.30006E-19-1.03884E-18
 -1      2671 9.12967E-05-1.62637E-05-3.21428E-05 1.55064E-06 7.16362E-19-9.74644E-19
 -1      2672 9.21502E-05-1.74103E-05-3.20686E-05 6.25977E-06 1.17811E-18-2.65207E-19
 -1      2673 9.16089E-05-1.65906E-05-3.21741E-05 5.43126E-06 1.18854E-18-5.14268E-19
 -1      2674 9.35915E-05-1.96912E-05-3.17132E-05 7.38235E-06 1.23190E-18-5.49959E-20
 -1      2675 9.27957E-05-1.84151E-05-3.18954E-05 6.80166E-06 1.22281E-18-1.53402E-19
 -1      2676 9.34394E-05-1.97090E-05-3.15755E-05 5.48739E-06 1.12061E-18-1.65561E-19
 -1      2677 9.52800E-05-2.53437E-05-2.99832E-05 3.72558E-06 9.11381E-19 4.35507E-19
 -1      2678 9.55914E-05-2.45046E-05-3.04333E-05 5.39489E-06 8.88402E-19 5.54295E-19
 -1      2679 7.94674E-05-4.09766E-05-1.64586E-05 4.04433E-05 1.46833E-18-6.64921E-20
 -1      2680 6.00369E-05-2.94587E-05-1.25025E-05 3.61528E-05 1.87597E-18-8.28716E-19
 -1      2681 9.50914E-05-2.65946E-05-2.93591E-05 1.42219E-06 7.69040E-19 3.57370E-19
 -1      2682 9.53226E-05-2.61098E-05-2.96258E-05 2.48650E-06 8.95792E-19 4.94657E-19
 -1      2683 9.53290E-05-2.49158E-05-3.01753E-05 3.51088E-06 9.51700E-19 1.06095E-19
 -1      2684 9.47354E-05-2.18657E-05-3.12358E-05 7.65995E-06 1.08978E-18 4.87395E-19
 -1      2685 5.93434E-05-3.15092E-05-1.14897E-05-3.83387E-05 7.83294E-19 4.81538E-19
 -1      2686 7.58629E-05-4.03665E-05-1.49995E-05-4.15927E-05 1.33598E-18 1.33619E-19
 -1      2687 9.54078E-05-2.57733E-05-2.98188E-05-2.35535E-06-2.89148E-19-9.59349E-19
 -1      2688 9.52813E-05-2.63437E-05-2.95530E-05-1.30667E-06-3.22754E-19-9.50212E-19
 -1      2689 9.53140E-05-2.68370E-05-2.93252E-05-4.90905E-07-3.34670E-19-7.78424E-19
 -1      2690 9.52200E-05-2.71709E-05-2.91675E-05 1.98611E-07-3.28817E-19-7.58955E-19
 -1      2691 9.54631E-05-2.61181E-05-2.97265E-05-1.13142E-06-2.76760E-19-9.92627E-19
 -1      2692 9.51989E-05-2.74450E-05-2.90224E-05 7.67044E-07-3.40639E-19-6.36676E-19
 -1      2693 9.51753E-05-2.76486E-05-2.89397E-05 1.22793E-06-2.91197E-19-7.44932E-19
 -1      2694 9.54811E-05-2.70369E-05-2.93415E-05 3.29757E-07-2.57706E-19-7.43107E-19
 -1      2695 9.51505E-05-2.77983E-05-2.88562E-05 1.62848E-06-2.75865E-19-7.03500E-19
 -1      2696 9.51947E-05-2.79251E-05-2.88270E-05 1.95137E-06-2.70939E-19-6.95008E-19
 -1      2697 9.54484E-05-2.75676E-05-2.90995E-05 1.35962E-06-2.71059E-19-7.83778E-19
 -1      2698 9.51848E-05-2.79997E-05-2.87888E-05 2.25022E-06-2.55909E-19-6.05435E-19
 -1      2699 9.52874E-05-2.80812E-05-2.87981E-05 2.49720E-06-1.64886E-19-5.30491E-19
 -1      2700 9.54250E-05-2.78570E-05-2.89643E-05 2.10631E-06-2.47414E-19-7.46110E-19
 -1      2701 9.52999E-05-2.81115E-05-2.87931E-05 2.74355E-06-2.07359E-19-5.94348E-19
 -1      2702 9.54538E-05-2.81696E-05-2.88304E-05 2.95601E-06-3.79980E-19-4.93695E-19
 -1      2703 9.54360E-05-2.79970E-05-2.89079E-05 2.68840E-06-1.05098E-19-7.28085E-19
 -1      2704 9.54939E-05-2.81790E-05-2.88491E-05 3.18383E-06-4.38611E-19-3.82497E-19
 -1      2705 9.56966E-05-2.82329E-05-2.89066E-05 3.38675E-06-4.20810E-19-1.90876E-19
 -1      2706 9.54942E-05-2.80519E-05-2.89085E-05 3.19240E-06-2.99849E-19-2.76999E-19
 -1      2707 9.57719E-05-2.82434E-05-2.89415E-05 3.61608E-06-6.12688E-19 3.54369E-20
 -1      2708 9.60261E-05-2.83135E-05-2.90131E-05 3.81976E-06-5.53496E-19-6.85102E-21
 -1      2709 9.56128E-05-2.80758E-05-2.89487E-05 3.67525E-06-3.84638E-19 6.62458E-20
 -1      2710 9.61497E-05-2.83496E-05-2.90577E-05 4.05700E-06-2.49450E-19 1.81598E-19
 -1      2711 9.64629E-05-2.84603E-05-2.91378E-05 4.25691E-06 5.38080E-20 1.55555E-19
 -1      2712 9.58128E-05-2.81239E-05-2.90141E-05 4.16604E-06-3.69648E-19 9.79282E-20
 -1      2713 9.66558E-05-2.85524E-05-2.91863E-05 4.49367E-06 1.13558E-19 1.90270E-19
 -1      2714 9.70406E-05-2.87330E-05-2.92698E-05 4.66889E-06 1.84361E-19 3.04483E-19
 -1      2715 9.61283E-05-2.82604E-05-2.90917E-05 4.66540E-06-3.11175E-20 3.01099E-19
 -1      2716 9.73340E-05-2.89189E-05-2.93172E-05 4.87955E-06 3.80868E-19 7.26088E-20
 -1      2717 9.78071E-05-2.92042E-05-2.93989E-05 4.99038E-06 2.77058E-19 2.93846E-19
 -1      2718 9.66114E-05-2.85637E-05-2.91707E-05 5.14238E-06 9.46018E-20 6.68889E-19
 -1      2719 9.82442E-05-2.95283E-05-2.94417E-05 5.12839E-06-7.98484E-20 3.39196E-19
 -1      2720 9.88238E-05-2.99544E-05-2.95173E-05 5.11435E-06 6.20565E-20 3.45414E-19
 -1      2721 9.73364E-05-2.91284E-05-2.92426E-05 5.52868E-06 4.15227E-20 4.86702E-19
 -1      2722 9.94573E-05-3.04619E-05-2.95555E-05 5.10781E-06 1.91836E-19 3.38764E-19
 -1      2723 1.00156E-04-3.10551E-05-2.96229E-05 4.88799E-06 1.90958E-19 7.51934E-19
 -1      2724 9.83994E-05-3.00576E-05-2.93043E-05 5.71055E-06 8.95860E-20 3.53007E-19
 -1      2725 1.01038E-04-3.17751E-05-2.96630E-05 4.63684E-06 8.85572E-20 7.69452E-19
 -1      2726 1.01849E-04-3.25289E-05-2.97257E-05 4.11698E-06-4.39445E-19 6.88453E-19
 -1      2727 9.99072E-05-3.14386E-05-2.93641E-05 5.52040E-06 2.84049E-19 4.74824E-19
 -1      2728 1.03005E-04-3.34424E-05-2.97847E-05 3.49691E-06-4.25668E-19 8.04311E-19
 -1      2729 1.03875E-04-3.42785E-05-2.98548E-05 2.59046E-06-1.50084E-20 8.47232E-19
 -1      2730 1.01943E-04-3.32889E-05-2.94484E-05 4.73422E-06-4.21927E-19 6.01124E-19
 -1      2731 1.05253E-04-3.52654E-05-2.99646E-05 1.47672E-06 5.73813E-20 9.63611E-19
 -1      2732 1.06051E-04-3.59832E-05-3.00661E-05 1.50927E-07 2.91484E-19 9.12601E-19
 -1      2733 1.04491E-04-3.54572E-05-2.96119E-05 3.09107E-06-5.01478E-20 1.07197E-18
 -1      2734 1.07451E-04-3.67623E-05-3.02734E-05-1.51233E-06 4.14542E-21 1.03333E-18
 -1      2735 1.07946E-04-3.70086E-05-3.04387E-05-3.15513E-06 1.41863E-19 4.48944E-19
 -1      2736 1.07313E-04-3.74870E-05-2.99426E-05 3.72650E-07-2.77852E-20 1.11591E-18
 -1      2737 1.08963E-04-3.71186E-05-3.07935E-05-5.20477E-06 2.59423E-19-6.60013E-20
 -1      2738 1.08881E-04-3.64666E-05-3.10517E-05-6.81554E-06-8.84215E-20-3.13584E-19
 -1      2739 1.09808E-04-3.85025E-05-3.05516E-05-3.38816E-06-3.22790E-19 5.22321E-19
 -1      2740 1.09004E-04-3.54281E-05-3.15787E-05-8.69817E-06 2.26211E-19-5.72383E-19
 -1      2741 1.08191E-04-3.36301E-05-3.19300E-05-9.64811E-06-1.32152E-19-5.96717E-19
 -1      2742 1.11030E-04-3.73659E-05-3.15270E-05-7.55127E-06-1.95311E-19-2.29231E-19
 -1      2743 1.07154E-04-3.13481E-05-3.25762E-05-1.03581E-05-1.38910E-19-1.50100E-19
 -1      2744 1.05842E-04-2.88002E-05-3.29565E-05-9.91534E-06-1.68586E-19 5.24312E-19
 -1      2745 1.10120E-04-3.33577E-05-3.28500E-05-1.05302E-05 2.34234E-19-4.56134E-19
 -1      2746 1.04136E-04-2.60578E-05-3.35518E-05-8.56231E-06-5.30851E-19 1.07378E-19
 -1      2747 1.02980E-04-2.39089E-05-3.38330E-05-6.41320E-06-4.51442E-19 1.70307E-19
 -1      2748 1.07276E-04-2.72920E-05-3.42664E-05-1.02035E-05-5.10748E-19 5.07346E-19
 -1      2749 1.01912E-04-2.23303E-05-3.41427E-05-3.10459E-06-5.53996E-19 2.02317E-19
 -1      2750 1.01636E-04-2.18471E-05-3.42046E-05 2.17197E-08-7.61681E-19 1.71130E-19
 -1      2751 1.04331E-04-2.20878E-05-3.53073E-05-5.34971E-06-7.36247E-19 7.48521E-19
 -1      2752 1.02099E-04-2.24956E-05-3.40842E-05 3.82586E-06-4.58106E-19-1.37275E-20
 -1      2753 1.02920E-04-2.40272E-05-3.38903E-05 6.54086E-06 4.16307E-19-2.76808E-19
 -1      2754 1.03618E-04-2.08590E-05-3.55328E-05 2.18618E-06-5.62609E-19 5.68081E-19
 -1      2755 1.04526E-04-2.64537E-05-3.33944E-05 8.88740E-06 1.02505E-18-4.56614E-19
 -1      2756 1.05878E-04-2.89986E-05-3.30434E-05 1.00957E-05 9.61144E-19-2.85903E-19
 -1      2757 1.05817E-04-2.46127E-05-3.48152E-05 8.63205E-06 4.94958E-19 3.04263E-19
 -1      2758 1.07320E-04-3.16285E-05-3.23996E-05 1.02440E-05 1.10035E-18-5.09281E-19
 -1      2759 1.08423E-04-3.38567E-05-3.20272E-05 9.84306E-06 5.87495E-19 3.95070E-19
 -1      2760 1.09028E-04-3.07722E-05-3.35095E-05 1.09527E-05 9.08671E-19 5.48962E-19
 -1      2761 1.08818E-04-3.54762E-05-3.14350E-05 8.35340E-06 3.04347E-19 5.41313E-19
 -1      2762 1.09230E-04-3.66290E-05-3.11350E-05 6.96002E-06-4.15551E-20 7.97707E-19
 -1      2763 1.10923E-04-3.59037E-05-3.21054E-05 9.23193E-06 6.40162E-19 1.06683E-18
 -1      2764 1.08550E-04-3.69742E-05-3.07059E-05 4.90572E-06-5.06642E-19 8.79081E-19
 -1      2765 1.08288E-04-3.70728E-05-3.05063E-05 3.23682E-06-6.45307E-19 1.50849E-18
 -1      2766 1.10579E-04-3.82769E-05-3.09629E-05 5.37226E-06 4.74587E-20 1.88983E-19
 -1      2767 1.07000E-04-3.65194E-05-3.02439E-05 1.38573E-06-1.08672E-18 1.69817E-18
 -1      2768 1.06315E-04-3.59551E-05-3.01245E-05-7.96447E-08-8.59575E-19 1.51839E-18
 -1      2769 1.08524E-04-3.80585E-05-3.02051E-05 1.34627E-06-8.73533E-19 1.12630E-18
 -1      2770 1.04895E-04-3.50070E-05-2.99839E-05-1.40955E-06-7.55998E-19 2.05006E-18
 -1      2771 1.04050E-04-3.41855E-05-2.99110E-05-2.47247E-06-5.69815E-19 2.14059E-18
 -1      2772 1.05754E-04-3.63297E-05-2.97756E-05-1.81150E-06-6.79926E-19 2.02651E-18
 -1      2773 1.02785E-04-3.32070E-05-2.98409E-05-3.26226E-06-5.39673E-19 1.74249E-18
 -1      2774 1.01956E-04-3.23964E-05-2.97860E-05-3.90635E-06-8.13503E-19 1.38382E-18
 -1      2775 1.03042E-04-3.41227E-05-2.95628E-05-3.84684E-06-9.20879E-19 1.61092E-18
 -1      2776 1.00956E-04-3.15731E-05-2.97477E-05-4.26150E-06-1.20376E-18 1.59772E-18
 -1      2777 1.00228E-04-3.09006E-05-2.96936E-05-4.55656E-06-1.18072E-18 1.41701E-18
 -1      2778 1.00772E-04-3.20740E-05-2.94650E-05-4.89993E-06-1.04032E-18 8.55177E-20
 -1      2779 9.94931E-05-3.02896E-05-2.96635E-05-4.60644E-06-8.78398E-19 1.26478E-18
 -1      2780 9.88902E-05-2.97888E-05-2.96034E-05-4.64719E-06 1.50516E-19 9.57549E-19
 -1      2781 9.90431E-05-3.04540E-05-2.94126E-05-5.22747E-06-1.05966E-18 1.85415E-18
 -1      2782 9.83758E-05-2.93777E-05-2.95705E-05-4.50446E-06 3.27884E-19 4.35537E-19
 -1      2783 9.78917E-05-2.90340E-05-2.95039E-05-4.37996E-06 1.87129E-19-1.23493E-20
 -1      2784 9.78020E-05-2.93072E-05-2.93672E-05-5.07558E-06-4.70750E-19 1.66374E-19
 -1      2785 9.75428E-05-2.87831E-05-2.94653E-05-4.13025E-06 6.12372E-19-1.14816E-19
 -1      2786 9.71600E-05-2.85644E-05-2.93951E-05-3.91224E-06 8.16546E-21-2.00332E-19
 -1      2787 9.69459E-05-2.85703E-05-2.93121E-05-4.63950E-06-2.85615E-20-3.93700E-19
 -1      2788 9.69279E-05-2.84295E-05-2.93516E-05-3.61576E-06 2.25265E-19-2.94186E-19
 -1      2789 9.66277E-05-2.83018E-05-2.92817E-05-3.35667E-06 6.61229E-19-9.60827E-20
 -1      2790 9.63703E-05-2.81467E-05-2.92443E-05-4.06066E-06 7.47170E-19-1.88941E-18
 -1      2791 9.64748E-05-2.82446E-05-2.92359E-05-3.05312E-06 7.07027E-19-1.02957E-20
 -1      2792 9.62404E-05-2.81790E-05-2.91697E-05-2.78818E-06-1.19781E-19-3.62222E-21
 -1      2793 9.59891E-05-2.79423E-05-2.91668E-05-3.43538E-06 3.27303E-19-1.00792E-18
 -1      2794 9.61398E-05-2.81698E-05-2.91243E-05-2.50179E-06-4.07745E-19 5.93090E-19
 -1      2795 9.59577E-05-2.81439E-05-2.90641E-05-2.25258E-06 1.61191E-19 9.43658E-19
 -1      2796 9.57385E-05-2.78800E-05-2.90849E-05-2.82515E-06-1.23816E-20-8.14376E-19
 -1      2797 9.58909E-05-2.81617E-05-2.90214E-05-1.99647E-06-1.77657E-19 1.60998E-18
 -1      2798 9.57502E-05-2.81594E-05-2.89688E-05-1.77449E-06 1.88349E-19 1.59847E-18
 -1      2799 9.55734E-05-2.79020E-05-2.90040E-05-2.26584E-06 2.45854E-19-1.03034E-18
 -1      2800 9.57050E-05-2.81899E-05-2.89302E-05-1.55411E-06 3.81336E-19 9.10721E-19
 -1      2801 9.55968E-05-2.82001E-05-2.88856E-05-1.36389E-06 1.58214E-18 4.09729E-19
 -1      2802 9.54635E-05-2.79682E-05-2.89281E-05-1.77522E-06 2.16555E-19 3.09582E-19
 -1      2803 9.55652E-05-2.82341E-05-2.88521E-05-1.17977E-06 1.96592E-18-4.93103E-19
 -1      2804 9.54825E-05-2.82494E-05-2.88153E-05-1.02135E-06 1.27743E-18 9.48443E-20
 -1      2805 9.53886E-05-2.80518E-05-2.88598E-05-1.35882E-06 1.26893E-18-1.68260E-18
 -1      2806 9.54589E-05-2.82812E-05-2.87870E-05-8.70882E-07 8.98678E-19-9.66056E-21
 -1      2807 9.53960E-05-2.82973E-05-2.87575E-05-7.41422E-07 6.49361E-19-7.10671E-19
 -1      2808 9.53352E-05-2.81359E-05-2.88006E-05-1.01440E-06 5.43279E-19-2.76030E-18
 -1      2809 9.53768E-05-2.83246E-05-2.87341E-05-6.21114E-07 7.35526E-19-1.20453E-18
 -1      2810 9.53293E-05-2.83379E-05-2.87108E-05-5.17369E-07 8.05670E-19-1.90975E-18
 -1      2811 9.52945E-05-2.82122E-05-2.87506E-05-7.34629E-07 2.85886E-19-2.99372E-18
 -1      2812 9.48825E-05-2.79066E-05-2.86986E-05-1.88791E-06 1.91076E-19 1.48233E-19
 -1      2813 9.48053E-05-2.77976E-05-2.87074E-05-1.56740E-06 2.85049E-19 2.21958E-19
 -1      2814 1.28836E-04-1.98895E-05-4.73274E-05-1.13479E-05-1.40883E-18-4.58774E-19
 -1      2815 1.33506E-04-3.08109E-05-4.43733E-05-1.07590E-05-1.46346E-18 7.08120E-19
 -1      2816 8.68469E-05-4.57324E-05-1.75917E-05 3.77271E-05-6.10393E-19 1.35806E-18
 -1      2817 6.90097E-05-3.51930E-05-1.39495E-05 3.56575E-05-6.30616E-19 1.24281E-18
 -1      2818 9.48328E-05-2.76794E-05-2.87769E-05-1.15772E-06 3.93254E-19 7.67238E-20
 -1      2819 9.48512E-05-2.75083E-05-2.88436E-05-7.05887E-07 5.08940E-19 2.12658E-19
 -1      2820 9.51963E-05-2.76124E-05-2.89741E-05-1.31507E-06 2.95656E-19 1.41752E-19
 -1      2821 9.52971E-05-2.80724E-05-2.88015E-05-2.98464E-06 3.26093E-19 4.44827E-19
 -1      2822 9.50794E-05-2.80323E-05-2.87333E-05-2.73434E-06 3.85031E-19 4.20219E-19
 -1      2823 9.56315E-05-2.80609E-05-2.89478E-05-3.54619E-06 5.35746E-19 3.55648E-19
 -1      2824 9.53564E-05-2.80413E-05-2.88509E-05-3.26643E-06 4.52190E-19 5.42707E-19
 -1      2825 9.53433E-05-2.78973E-05-2.89099E-05-3.31492E-06 3.53999E-19 8.00830E-20
 -1      2826 9.60386E-05-2.80055E-05-2.91439E-05-4.21097E-06 6.61135E-19 2.53076E-19
 -1      2827 9.57067E-05-2.79994E-05-2.90212E-05-3.87147E-06 6.49198E-19 4.32053E-19
 -1      2828 9.54808E-05-2.77815E-05-2.90171E-05-3.95204E-06 5.71595E-19 4.55423E-19
 -1      2829 9.65163E-05-2.79207E-05-2.93827E-05-5.02995E-06 4.02580E-19 6.67478E-19
 -1      2830 9.61234E-05-2.79189E-05-2.92361E-05-4.60804E-06 5.86619E-19 6.53125E-19
 -1      2831 9.56421E-05-2.75942E-05-2.91651E-05-4.70123E-06 4.92575E-19 7.93583E-19
 -1      2832 9.70697E-05-2.78303E-05-2.96566E-05-6.03779E-06 4.56210E-19 4.08409E-19
 -1      2833 9.66067E-05-2.78174E-05-2.94884E-05-5.52000E-06 6.06291E-19 6.63188E-19
 -1      2834 9.58178E-05-2.73539E-05-2.93421E-05-5.61275E-06 6.64621E-19 7.73638E-19
 -1      2835 9.77167E-05-2.77805E-05-2.99534E-05-7.24647E-06-2.00570E-19 6.12124E-20
 -1      2836 9.71674E-05-2.77277E-05-2.97682E-05-6.63347E-06 1.73762E-20 2.43249E-19
 -1      2837 9.60057E-05-2.70928E-05-2.95333E-05-6.72056E-06 3.06610E-19 7.68802E-19
 -1      2838 9.85025E-05-2.78626E-05-3.02541E-05-8.63152E-06 1.78603E-19-2.31097E-19
 -1      2839 9.78374E-05-2.77162E-05-3.00604E-05-7.94793E-06-7.04927E-20-5.09698E-20
 -1      2840 9.62222E-05-2.68758E-05-2.97187E-05-8.03795E-06 9.12020E-20 3.74960E-19
 -1      2841 9.95297E-05-2.82476E-05-3.05299E-05-1.01085E-05 7.04429E-19 4.22296E-20
 -1      2842 9.86931E-05-2.79112E-05-3.03415E-05-9.41887E-06 5.13386E-19 1.12381E-19
 -1      2843 9.65260E-05-2.68305E-05-2.98699E-05-9.54838E-06 9.29723E-20 5.26890E-19
 -1      2844 1.01008E-04-2.92324E-05-3.07446E-05-1.14956E-05 2.44014E-20 9.26972E-19
 -1      2845 9.98981E-05-2.85453E-05-3.05792E-05-1.09283E-05 3.08237E-19 2.45601E-19
 -1      2846 9.70629E-05-2.71936E-05-2.99511E-05-1.11898E-05 3.31738E-19 8.42443E-19
 -1      2847 1.03323E-04-3.12756E-05-3.08685E-05-1.24565E-05-1.58446E-19 1.66266E-18
 -1      2848 1.01770E-04-3.00035E-05-3.07406E-05-1.22349E-05 7.45290E-21 1.14762E-18
 -1      2849 9.81396E-05-2.83679E-05-2.99259E-05-1.28255E-05-1.00142E-19 7.22560E-19
 -1      2850 1.07072E-04-3.49413E-05-3.09192E-05-1.24119E-05-9.97031E-19 1.50358E-18
 -1      2851 1.04850E-04-3.28323E-05-3.08178E-05-1.28863E-05-4.42862E-19 1.74467E-18
 -1      2852 1.00325E-04-3.09635E-05-2.97828E-05-1.41785E-05-6.46917E-19 1.72927E-18
 -1      2853 1.12917E-04-4.05701E-05-3.10434E-05-1.04534E-05-3.56005E-19 1.01510E-18
 -1      2854 1.09880E-04-3.75704E-05-3.08910E-05-1.20953E-05-9.54696E-19 9.93338E-19
 -1      2855 1.04502E-04-3.56943E-05-2.95979E-05-1.46779E-05-5.30527E-19 1.16939E-18
 -1      2856 1.21116E-04-4.72628E-05-3.16933E-05-5.25662E-06-1.05093E-18 9.72698E-19
 -1      2857 1.17533E-04-4.42134E-05-3.12553E-05-8.56057E-06-4.59138E-19 9.70243E-19
 -1      2858 1.11744E-04-4.30270E-05-2.96601E-05-1.32227E-05-7.63018E-19 5.25749E-19
 -1      2859 1.29813E-04-5.17902E-05-3.34525E-05 3.72750E-06-1.27576E-18 1.53590E-18
 -1      2860 1.27199E-04-5.07271E-05-3.26801E-05-9.84140E-07-1.34751E-18 1.37522E-18
 -1      2861 1.22440E-04-5.09616E-05-3.08236E-05-7.41706E-06-1.24008E-18 9.41011E-19
 -1      2862 1.38595E-04-4.46499E-05-4.06546E-05 1.49126E-05-2.82909E-19 6.86256E-19
 -1      2863 1.38005E-04-5.06505E-05-3.76110E-05 1.02337E-05-5.45231E-19 1.32989E-18
 -1      2864 1.37180E-04-3.60505E-05-4.37009E-05 1.46820E-05 4.34846E-19-1.40713E-19
 -1      2865 1.29036E-04-1.55275E-05-4.94136E-05 3.18746E-06 9.78747E-19-1.87263E-18
 -1      2866 1.30510E-04-1.95966E-05-4.83652E-05 1.08948E-05 1.17780E-18-1.25205E-18
 -1      2867 1.33792E-04-3.67746E-05-4.21546E-05-1.79631E-05 9.64718E-19-1.33259E-18
 -1      2868 1.30340E-04-2.73665E-05-4.43583E-05-1.70383E-05 1.29342E-18-2.25734E-18
 -1      2869 1.33776E-04-5.15689E-05-3.54941E-05-9.00589E-06 3.23269E-19-4.84900E-19
 -1      2870 1.33998E-04-4.70070E-05-3.73250E-05-1.39125E-05 9.78852E-19-9.43171E-19
 -1      2871 1.25753E-04-4.96766E-05-3.24642E-05 1.74000E-06 5.10938E-19 8.79717E-19
 -1      2872 1.28642E-04-5.08457E-05-3.34165E-05-2.87521E-06 8.53518E-20 3.52422E-19
 -1      2873 1.32380E-04-5.41261E-05-3.36648E-05-1.82473E-06 1.29973E-19-2.01209E-18
 -1      2874 1.16425E-04-4.30255E-05-3.13201E-05 8.90234E-06 1.14803E-18 1.72701E-18
 -1      2875 1.19942E-04-4.62197E-05-3.16733E-05 5.93135E-06 1.42406E-18 1.53776E-18
 -1      2876 1.21298E-04-4.99634E-05-3.08120E-05 8.12376E-06 3.82015E-19-8.82370E-19
 -1      2877 1.09384E-04-3.67818E-05-3.10247E-05 1.19350E-05-1.04182E-19 2.09076E-18
 -1      2878 1.12256E-04-3.96305E-05-3.11551E-05 1.04995E-05 6.28882E-19 1.95853E-18
 -1      2879 1.11063E-04-4.16187E-05-2.99105E-05 1.27868E-05 4.51952E-19 7.88416E-19
 -1      2880 1.04706E-04-3.23704E-05-3.09589E-05 1.25141E-05-3.26606E-19 2.87890E-18
 -1      2881 1.06784E-04-3.43542E-05-3.10538E-05 1.21957E-05-1.39863E-19 2.26652E-18
 -1      2882 1.04503E-04-3.50178E-05-2.98731E-05 1.41342E-05-1.08250E-19 1.01417E-18
 -1      2883 1.01847E-04-2.97847E-05-3.08692E-05 1.17098E-05-1.28695E-19 1.83308E-18
 -1      2884 1.03298E-04-3.09630E-05-3.09957E-05 1.20370E-05-4.95084E-20 2.51326E-18
 -1      2885 1.00599E-04-3.06334E-05-3.00333E-05 1.35700E-05 2.37948E-19 1.76954E-18
 -1      2886 1.00100E-04-2.84689E-05-3.06979E-05 1.02964E-05 5.79495E-19 1.43706E-18
 -1      2887 1.01135E-04-2.90994E-05-3.08585E-05 1.09370E-05 3.50567E-20 1.15902E-18
 -1      2888 9.85470E-05-2.82741E-05-3.01367E-05 1.21624E-05 1.06070E-19 2.22037E-19
 -1      2889 9.89685E-05-2.79046E-05-3.04607E-05 8.69685E-06 5.88336E-19 5.23483E-19
 -1      2890 9.97434E-05-2.82100E-05-3.06392E-05 9.44282E-06 7.55964E-19 1.32440E-18
 -1      2891 9.75013E-05-2.72135E-05-3.01291E-05 1.04646E-05 7.60357E-19-7.84942E-19
 -1      2892 9.81694E-05-2.77378E-05-3.01915E-05 7.13796E-06 9.06815E-19-3.65662E-19
 -1      2893 9.87749E-05-2.78668E-05-3.03703E-05 7.87165E-06 9.12036E-19 2.04073E-19
 -1      2894 9.69510E-05-2.68863E-05-3.00279E-05 8.74718E-06 1.02107E-18-1.80797E-18
 -1      2895 9.75571E-05-2.77585E-05-2.99201E-05 5.73071E-06-9.42546E-19 2.30197E-19
 -1      2896 9.80430E-05-2.77988E-05-3.00866E-05 6.39354E-06 2.48328E-19-9.66150E-20
 -1      2897 9.66222E-05-2.69255E-05-2.98688E-05 7.14875E-06 4.07113E-19-1.72190E-18
 -1      2898 9.70632E-05-2.78540E-05-2.96666E-05 4.51834E-06-1.43829E-18 3.72087E-19
 -1      2899 9.74567E-05-2.78530E-05-2.98138E-05 5.08753E-06-1.44612E-18 2.50265E-19
 -1      2900 9.63853E-05-2.71194E-05-2.96845E-05 5.73389E-06-8.30424E-19-5.96553E-19
 -1      2901 9.66562E-05-2.79687E-05-2.94419E-05 3.50637E-06-1.47384E-18 4.98799E-19
 -1      2902 9.69739E-05-2.79509E-05-2.95672E-05 3.97905E-06-1.48051E-18 4.52110E-19
 -1      2903 9.61872E-05-2.73576E-05-2.94983E-05 4.52410E-06-1.47336E-18-7.89248E-20
 -1      2904 9.63207E-05-2.80782E-05-2.92501E-05 2.68082E-06-5.31515E-19 1.65022E-18
 -1      2905 9.65747E-05-2.80551E-05-2.93537E-05 3.06419E-06-1.43411E-18 8.19172E-19
 -1      2906 9.60107E-05-2.75880E-05-2.93246E-05 3.51593E-06-1.08576E-18 3.43505E-20
 -1      2907 9.60470E-05-2.81732E-05-2.90913E-05 2.01904E-06 1.28229E-18 6.29047E-19
 -1      2908 9.62475E-05-2.81501E-05-2.91749E-05 2.32458E-06 6.65747E-19 8.83152E-19
 -1      2909 9.58525E-05-2.77897E-05-2.91708E-05 2.69254E-06 2.55681E-19-5.22041E-19
 -1      2910 9.58272E-05-2.82515E-05-2.89628E-05 1.49583E-06 1.17670E-18 1.82928E-18
 -1      2911 9.59830E-05-2.82307E-05-2.90289E-05 1.73610E-06 1.43491E-18 8.52660E-19
 -1      2912 9.57136E-05-2.79572E-05-2.90398E-05 2.03092E-06 1.20842E-18-1.95656E-19
 -1      2913 9.56534E-05-2.83135E-05-2.88612E-05 1.08676E-06 1.41210E-18-5.39221E-19
 -1      2914 9.57727E-05-2.82961E-05-2.89124E-05 1.27381E-06 1.52542E-18 7.91628E-19
 -1      2915 9.55946E-05-2.80915E-05-2.89313E-05 1.50646E-06 1.60737E-18 2.14250E-19
 -1      2916 9.55175E-05-2.83604E-05-2.87823E-05 7.69221E-07 4.53895E-19-4.58469E-19
 -1      2917 9.56074E-05-2.83467E-05-2.88213E-05 9.14022E-07 1.36845E-18-1.29300E-19
 -1      2918 9.54946E-05-2.81957E-05-2.88437E-05 1.09550E-06 1.39468E-18-1.59650E-18
 -1      2919 9.54142E-05-2.83946E-05-2.87221E-05 5.24640E-07-3.28668E-19 2.39397E-19
 -1      2920 9.54794E-05-2.83851E-05-2.87512E-05 6.34543E-07-9.37601E-19-7.77528E-19
 -1      2921 9.54104E-05-2.82732E-05-2.87742E-05 7.75768E-07-1.52496E-19 1.46574E-19
 -1      2922 9.53272E-05-2.83977E-05-2.86831E-05 3.67215E-07-7.11396E-19 5.13116E-19
 -1      2923 9.53734E-05-2.83883E-05-2.87053E-05 4.54882E-07 1.97672E-19 8.41430E-20
 -1      2924 9.53317E-05-2.83076E-05-2.87271E-05 5.61557E-07-8.92283E-19-1.25756E-18
 -1      2925 9.52662E-05-2.83127E-05-2.86966E-05 4.22656E-07-1.40416E-18-6.96631E-19
 -1      2926 9.47775E-05-2.77310E-05-2.87356E-05 4.10736E-08 3.57254E-19 2.51664E-18
 -1      2927 9.47880E-05-2.77413E-05-2.87351E-05 1.23073E-07 9.08683E-19 6.20797E-19
 -1      2928 9.53200E-05-2.83546E-05-2.86974E-05-4.50431E-07 7.46950E-19-1.72120E-18
 -1      2929 9.52940E-05-2.83639E-05-2.86840E-05-3.91126E-07-4.81053E-19-8.98929E-19
 -1      2930 9.52674E-05-2.82689E-05-2.87149E-05-5.41610E-07 6.78243E-19-4.57781E-18
 -1      2931 9.48959E-05-2.78624E-05-2.87310E-05 3.61546E-07 4.38333E-19-3.24063E-18
 -1      2932 9.49494E-05-2.79186E-05-2.87267E-05 4.08895E-07 1.58702E-18-2.36076E-18
 -1      2933 9.47945E-05-2.77516E-05-2.87333E-05-1.39400E-07-6.49430E-19 2.17833E-18
 -1      2934 9.47803E-05-2.77360E-05-2.87348E-05-5.86668E-08-3.32076E-19 2.37127E-18
 -1      2935 9.46983E-05-2.76338E-05-2.87395E-05-1.27599E-08 5.99494E-19 9.44616E-19
 -1      2936 9.48125E-05-2.77691E-05-2.87349E-05 2.17159E-07-7.80970E-20-8.74536E-20
 -1      2937 9.48468E-05-2.78044E-05-2.87325E-05 2.87598E-07-1.97760E-19-9.93700E-19
 -1      2938 9.48079E-05-2.77437E-05-2.87396E-05 3.72820E-07 6.72718E-19-2.56872E-18
 -1      2939 9.47233E-05-2.76567E-05-2.87404E-05 1.93291E-07 4.12479E-19 9.65947E-19
 -1      2940 1.23611E-04-7.92927E-06-5.01702E-05 2.70447E-07 1.16044E-19-1.32980E-18
 -1      2941 1.24857E-04-1.09519E-05-4.93916E-05-6.47033E-06-7.37342E-19-1.49671E-18
 -1      2942 9.48585E-05-2.78253E-05-2.87283E-05-2.94818E-07-7.00951E-19 2.95192E-19
 -1      2943 9.48229E-05-2.77873E-05-2.87316E-05-2.28553E-07-1.06640E-18 2.16405E-18
 -1      2944 9.47343E-05-2.76755E-05-2.87373E-05-2.13287E-07-2.12420E-19 1.46980E-18
 -1      2945 9.49619E-05-2.79452E-05-2.87206E-05-4.07709E-07 1.32116E-18-4.53831E-19
 -1      2946 9.49090E-05-2.78879E-05-2.87256E-05-3.63658E-07 2.75996E-19 9.88489E-19
 -1      2947 9.48245E-05-2.77752E-05-2.87336E-05-3.81337E-07-2.41873E-19 1.39341E-18
 -1      2948 9.50881E-05-2.80967E-05-2.87102E-05-4.57796E-07 2.03782E-18-6.31259E-19
 -1      2949 9.50280E-05-2.80269E-05-2.87168E-05-4.45525E-07 2.21316E-18-7.31306E-19
 -1      2950 9.49562E-05-2.79209E-05-2.87283E-05-4.94807E-07 4.67377E-19-3.21431E-19
 -1      2951 9.45456E-05-2.14315E-05-3.13654E-05-7.48285E-06-5.69795E-19-1.31080E-18
 -1      2952 9.49758E-05-2.31501E-05-3.07814E-05-5.76336E-06-5.20653E-19-1.22197E-18
 -1      2953 9.37725E-05-2.00561E-05-3.15950E-05-7.34044E-06-5.07675E-19-1.39896E-18
 -1      2954 1.34853E-04-3.42004E-05-4.33150E-05 1.03029E-05-9.55559E-19-5.87841E-19
 -1      2955 1.30255E-04-2.40955E-05-4.61749E-05 1.18035E-05-3.59142E-19-3.01967E-19
 -1      2956 1.37847E-04-4.41378E-05-4.07097E-05-4.28911E-06-1.65553E-18 1.72858E-18
 -1      2957 1.37965E-04-5.22589E-05-3.67637E-05 5.45270E-06-1.30809E-18 1.75590E-18
 -1      2958 9.49071E-05-2.72843E-05-2.89810E-05-1.22408E-07 6.44928E-19 3.40657E-19
 -1      2959 9.50367E-05-2.70051E-05-2.91292E-05 5.61469E-07 6.81577E-19 4.18402E-19
 -1      2960 9.53426E-05-2.63447E-05-2.95782E-05 1.29544E-06 7.94965E-19 2.00808E-19
 -1      2961 9.52616E-05-2.71613E-05-2.91966E-05-2.45908E-07 6.81981E-19 2.66244E-19
 -1      2962 7.48120E-05-4.00490E-05-1.42316E-05-3.75156E-05-2.04770E-18-1.63244E-18
 -1      2963 9.37841E-05-5.00287E-05-1.90244E-05-3.70832E-05-2.15040E-18-6.69368E-19
 -1      2964 5.12781E-05-2.52542E-05-1.08434E-05 3.08625E-05-6.23628E-19 2.18175E-18
 -1      2965 3.96526E-05-1.79621E-05-8.72088E-06 2.06705E-05-1.11941E-18 8.11881E-19
 -1      2966 9.50430E-05-2.80270E-05-2.87139E-05-2.46009E-06 3.63849E-19 2.46008E-19
 -1      2967 9.48890E-05-2.79584E-05-2.86796E-05-2.20031E-06 2.72821E-19 1.63546E-19
 -1      2968 9.51896E-05-2.78435E-05-2.88703E-05-2.09345E-06 2.18717E-19 1.64632E-19
 -1      2969 9.52420E-05-2.79255E-05-2.88559E-05-2.72367E-06 2.23265E-19 4.51264E-19
 -1      2970 9.53391E-05-2.42370E-05-3.04603E-05-4.67893E-06-4.04318E-19-1.18123E-18
 -1      2971 9.52577E-05-2.51511E-05-3.00571E-05-3.19003E-06-2.94038E-19-1.11148E-18
 -1      2972 9.52811E-05-2.47874E-05-3.02090E-05-2.89242E-06-1.61346E-19-1.13505E-18
 -1      2973 9.49029E-05-2.31434E-05-3.07605E-05-4.83367E-06-3.87506E-19-1.33220E-18
 -1      2974 1.40729E-04-5.84943E-05-3.56616E-05 1.61114E-06 6.79479E-20-3.15477E-18
 -1      2975 1.33414E-04-6.12908E-05-3.06615E-05 1.30562E-05-2.54110E-19-1.84399E-18
 -1      2976 9.11476E-05-1.58887E-05-3.22813E-05 4.73244E-06 1.18016E-18-6.16408E-19
 -1      2977 9.07862E-05-1.53672E-05-3.23452E-05 3.83250E-06 9.97464E-19-7.72377E-19
 -1      2978 9.17233E-05-1.69117E-05-3.20455E-05 3.03020E-06 8.71333E-19-7.62322E-19
 -1      2979 9.24395E-05-1.80338E-05-3.18675E-05 4.39148E-06 1.06135E-18-4.51512E-19
 -1      2980 9.07444E-05-1.53176E-05-3.23483E-05-3.77323E-06 1.71447E-19-1.34348E-18
 -1      2981 9.10974E-05-1.58278E-05-3.22860E-05-4.67563E-06 4.24234E-20-1.47186E-18
 -1      2982 3.17994E-05-1.18515E-05-8.05135E-06 2.48656E-06 5.85882E-19-1.37219E-19
 -1      2983 3.46201E-05-1.37041E-05-8.43882E-06-1.11812E-05-6.01923E-19-1.42090E-19
 -1      2984 1.12931E-04-5.69764E-05-2.34269E-05-2.91942E-05-1.88179E-18 3.03026E-19
 -1      2985 1.26645E-04-6.11280E-05-2.83144E-05-1.97934E-05-1.67109E-18 2.66339E-19
 -1      2986 1.20183E-04-5.99162E-05-2.62307E-05 2.57171E-05-6.82814E-19-8.11193E-19
 -1      2987 1.04306E-04-5.40372E-05-2.11781E-05 3.29063E-05-1.32412E-18 4.37334E-19
 -1      2988 9.52475E-05-2.83053E-05-2.86895E-05-4.12911E-07 3.65833E-20-2.92904E-18
 -1      2989 4.41075E-05-2.00346E-05-1.00951E-05 2.86031E-05 1.74055E-18-1.49501E-18
 -1      2990 3.56021E-05-1.40260E-05-8.69615E-06 1.55503E-05 1.43366E-18-1.43869E-18
 -1      2991 1.08708E-04-5.43408E-05-2.33337E-05 3.28071E-05 8.79326E-19 1.20514E-18
 -1      2992 9.67353E-05-4.93680E-05-1.98683E-05 3.69383E-05 9.61806E-19 7.89196E-19
 -1      2993 1.36483E-04-5.21650E-05-3.61750E-05-4.16624E-06-5.23109E-20-9.54394E-19
 -1      2994 1.37487E-04-4.49396E-05-4.03056E-05 3.61124E-06-9.89970E-19-1.14201E-18
 -1      2995 1.25361E-04-1.51896E-05-4.76889E-05 1.02943E-05 1.05561E-19-5.95252E-19
 -1      2996 1.23516E-04-1.06926E-05-4.89925E-05 5.69221E-06 2.62580E-19-8.33666E-19
 -1      2997 1.25365E-04-5.80446E-05-2.86414E-05-2.10724E-05 1.67077E-19-4.25052E-19
 -1      2998 1.31960E-04-5.69456E-05-3.25294E-05-1.36823E-05 3.12714E-19-1.43678E-19
 -1      2999 3.97785E-05-1.83202E-05-8.67560E-06-2.51988E-05-1.33619E-19 4.50833E-19
 -1      3000 4.81704E-05-2.40603E-05-9.89350E-06-3.33301E-05 4.32199E-19 1.36669E-18
 -1      3001 1.37628E-04-5.53080E-05-3.55569E-05 1.92383E-06-7.89335E-19 9.16966E-19
 -1      3002 9.15470E-05-1.65108E-05-3.21808E-05-5.37967E-06-7.84385E-20-1.41931E-18
 -1      3003 9.20841E-05-1.73300E-05-3.20758E-05-6.19270E-06-2.46373E-19-1.40998E-18
 -1      3004 9.23791E-05-1.79495E-05-3.18741E-05-4.35961E-06-1.10007E-20-1.28286E-18
 -1      3005 9.11505E-05-1.60466E-05-3.21740E-05 2.71573E-08 5.69640E-19-1.01322E-18
 -1      3006 9.00678E-05-1.43181E-05-3.24841E-05-3.63261E-07 6.17650E-19-1.11495E-18
 -1      3007 9.01284E-05-1.44034E-05-3.24733E-05-1.28529E-06 5.55842E-19-1.22710E-18
 -1      3008 9.43901E-05-2.13564E-05-3.13053E-05 6.99678E-06 1.10087E-18 9.55625E-20
 -1      3009 5.95043E-05-2.48958E-05-1.42202E-05 3.00759E-05 1.83679E-18-1.01570E-18
 -1      3010 8.86954E-05-4.54721E-05-1.80599E-05-3.89460E-05 1.18754E-18 1.16126E-18
 -1      3011 9.93417E-05-4.96179E-05-2.14203E-05-3.44229E-05 8.28875E-19 1.80466E-18
 -1      3012 8.20484E-05-3.97981E-05-1.78483E-05-3.72842E-05 1.04953E-18 1.48173E-18
 -1      3013 6.05647E-05-2.80107E-05-1.34392E-05-3.41110E-05 8.45021E-19 6.27016E-19
 -1      3014 3.76366E-05-1.46114E-05-9.26877E-06-1.77109E-05-6.51157E-19 3.67824E-19
 -1      3015 4.68355E-05-1.64658E-05-1.25146E-05-2.06882E-05-3.29019E-19 1.30549E-19
 -1      3016 3.76535E-05-1.17414E-05-1.06429E-05-8.31952E-06-9.11368E-19-2.62898E-19
 -1      3017 1.18720E-04-5.64850E-05-2.65286E-05-2.47685E-05 3.63959E-19-8.62650E-20
 -1      3018 9.49397E-05-2.78846E-05-2.87365E-05 4.98007E-07 1.17467E-18-1.16711E-18
 -1      3019 9.50161E-05-2.79995E-05-2.87237E-05 4.50872E-07 1.07731E-18-9.56455E-19
 -1      3020 9.50803E-05-2.80699E-05-2.87176E-05 4.66947E-07-2.16664E-19 5.90065E-19
 -1      3021 1.26730E-04-3.24378E-05-4.06584E-05-1.28924E-05-8.08705E-19-3.82382E-19
 -1      3022 1.34015E-04-3.86912E-05-4.11924E-05-9.16279E-06-1.11681E-18 4.63539E-19
 -1      3023 1.31345E-04-4.43209E-05-3.74672E-05-6.10745E-06-5.55336E-19 5.17696E-19
 -1      3024 6.59550E-05-2.99152E-05-1.49649E-05 3.11934E-05-1.16255E-19 2.01509E-18
 -1      3025 1.04597E-04-5.20649E-05-2.22408E-05-3.05252E-05-2.20821E-18-7.81123E-20
 -1      3026 1.34182E-04-2.71924E-05-4.65750E-05 1.63052E-05 1.15101E-18-8.76361E-19
 -1      3027 1.39251E-04-4.33928E-05-4.14266E-05-1.45522E-05 7.10661E-19-2.79309E-18
 -1      3028 1.23453E-04-2.13926E-05-4.40919E-05 1.15945E-05-4.78044E-19-1.98523E-20
 -1      3029 4.08300E-05-1.29070E-05-1.13578E-05 8.74029E-06 5.10801E-19-3.02497E-19
 -1      3030 1.18116E-04-1.07919E-05-4.63857E-05 2.82749E-06-1.08420E-19-7.15637E-19
 -1      3031 9.51442E-05-2.81534E-05-2.87125E-05 4.67812E-07-2.22838E-19 2.40835E-18
 -1      3032 9.52081E-05-2.82287E-05-2.87043E-05 4.51478E-07-1.29711E-18 1.30968E-18
 -1      3033 9.52345E-05-2.82206E-05-2.87181E-05 5.19819E-07-1.59074E-18 7.85791E-19
 -1      3034 9.50918E-05-2.80523E-05-2.87298E-05 5.45308E-07-3.20898E-19 1.57561E-18
 -1      3035 1.32280E-04-5.39907E-05-3.35680E-05-5.65506E-06 1.20120E-19-9.98493E-19
 -1      3036 3.75336E-05-1.42880E-05-9.34716E-06 1.33953E-05-7.83453E-19-2.85238E-19
 -1      3037 3.77164E-05-1.16889E-05-1.07285E-05 4.26892E-06-3.92944E-19-1.01496E-18
 -1      3038 4.69885E-05-1.60715E-05-1.27450E-05 1.69130E-05-3.17902E-19 8.18446E-19
 -1      3039 1.27137E-04-5.89260E-05-2.88596E-05 1.56697E-05-3.35266E-19-1.19590E-18
 -1      3040 9.51946E-05-2.82315E-05-2.86979E-05-4.32942E-07 1.36023E-18-3.01734E-18
 -1      3041 1.16306E-04-5.62239E-05-2.55162E-05 2.69727E-05 7.49412E-19 1.19612E-18
 -1      3042 1.11008E-04-5.29903E-05-2.47011E-05 2.71770E-05 9.29089E-19 6.38808E-19
 -1      3043 1.21730E-04-5.69565E-05-2.80998E-05 1.99524E-05 2.54480E-19 1.09716E-18
 -1      3044 6.93816E-05-3.38646E-05-1.46645E-05-3.39757E-05-2.09312E-18-1.70116E-18
 -1      3045 1.33321E-04-5.51995E-05-3.34157E-05 8.67320E-06-7.59947E-19 1.35165E-18
 -1      3046 9.52020E-05-2.82038E-05-2.87141E-05-5.31431E-07-2.25204E-19-4.95407E-18
 -1      3047 9.51372E-05-2.81485E-05-2.87102E-05-4.86613E-07 1.24935E-18-3.02106E-18
 -1      3048 9.50904E-05-2.80603E-05-2.87256E-05-5.61552E-07 6.75903E-19-2.81895E-18
 -1      3049 9.52143E-05-2.81784E-05-2.87274E-05-6.03915E-07 3.22145E-19-4.92284E-18
 -1      3050 1.32436E-04-4.00161E-05-3.98605E-05 8.29191E-06-7.32101E-19 3.59989E-21
 -1      3051 1.42351E-04-4.88440E-05-4.07906E-05-1.08338E-05 9.43145E-19-3.78253E-18
 -1      3052 1.42415E-04-5.57431E-05-3.73833E-05-6.03298E-06 4.83537E-19-3.42646E-18
 -1      3053 9.46484E-05-2.23619E-05-3.09719E-05 5.43497E-06 1.04472E-18-3.96420E-20
 -1      3054 4.14676E-05-1.61362E-05-1.02039E-05-1.72254E-05-7.65771E-19-1.07054E-18
 -1      3055 4.97122E-05-1.96759E-05-1.27086E-05-2.33933E-05-1.07076E-18-1.68136E-18
 -1      3056 4.40696E-05-1.35800E-05-1.25951E-05-1.13484E-05-3.94559E-19-8.45974E-20
 -1      3057 9.02637E-05-1.46090E-05-3.24443E-05-2.08167E-06 4.89290E-19-1.12518E-18
 -1      3058 9.04607E-05-1.48874E-05-3.24103E-05-3.00148E-06 3.05908E-19-1.16860E-18
 -1      3059 9.16873E-05-1.68698E-05-3.20484E-05-2.97790E-06 2.07202E-19-1.10131E-18
 -1      3060 9.12798E-05-1.62450E-05-3.21437E-05-1.49512E-06 4.46393E-19-1.07517E-18
 -1      3061 9.95303E-05-4.88794E-05-2.12305E-05 3.14548E-05-8.80914E-19 5.50571E-20
 -1      3062 8.99729E-05-4.34029E-05-1.95633E-05 3.51794E-05 1.42349E-18 2.12764E-19
 -1      3063 1.36226E-04-5.59918E-05-3.43273E-05-9.41499E-07 3.33016E-19-2.59727E-18
 -1      3064 1.16478E-04-1.34992E-05-4.45452E-05-7.69903E-06-2.94344E-19-7.47454E-19
 -1      3065 1.23425E-04-1.61018E-05-4.64271E-05-9.99747E-06-5.73547E-19-9.54130E-19
 -1      3066 1.20746E-04-2.17297E-05-4.27729E-05-1.16047E-05-4.52210E-19-8.34327E-20
 -1      3067 6.88318E-05-2.85357E-05-1.73451E-05 3.14823E-05 1.65891E-18-7.11984E-19
 -1      3068 5.61133E-05-1.93448E-05-1.52998E-05 2.38135E-05 1.51097E-18-1.05360E-18
 -1      3069 9.42762E-05-2.16748E-05-3.11360E-05 4.67676E-06 1.00547E-18-1.56283E-19
 -1      3070 9.37873E-05-2.06958E-05-3.13280E-05 4.33249E-06 1.03163E-18-2.53576E-19
 -1      3071 1.08575E-04-5.20025E-05-2.44653E-05 2.67955E-05-8.81655E-19-9.43118E-19
 -1      3072 9.37705E-05-4.27977E-05-2.13019E-05 3.01027E-05-9.94575E-19 3.00908E-19
 -1      3073 9.56525E-05-2.65222E-05-2.96145E-05-1.14081E-07-2.25289E-19-8.35194E-19
 -1      3074 9.56395E-05-2.69216E-05-2.94562E-05 5.18255E-07-1.76869E-19-8.50065E-19
 -1      3075 9.56549E-05-2.72420E-05-2.93106E-05 1.02027E-06-3.68993E-19-7.10675E-19
 -1      3076 9.56345E-05-2.74741E-05-2.92133E-05 1.47320E-06-3.94627E-19-8.03311E-19
 -1      3077 9.57533E-05-2.67833E-05-2.95617E-05 6.47313E-07-1.94637E-19-8.85496E-19
 -1      3078 9.55931E-05-2.76385E-05-2.91178E-05 1.85025E-06-2.96476E-19-7.41670E-19
 -1      3079 9.55853E-05-2.77615E-05-2.90661E-05 2.19054E-06-1.36999E-19-7.49207E-19
 -1      3080 9.57320E-05-2.73492E-05-2.93104E-05 1.56214E-06-3.30283E-19-5.07992E-19
 -1      3081 9.55155E-05-2.78231E-05-2.90085E-05 2.49307E-06-2.29484E-20-7.77452E-19
 -1      3082 9.55286E-05-2.78770E-05-2.89903E-05 2.77203E-06-9.75832E-20-6.88729E-19
 -1      3083 9.56262E-05-2.76251E-05-2.91466E-05 2.27120E-06-1.92291E-19-5.57504E-19
 -1      3084 9.54489E-05-2.78749E-05-2.89601E-05 3.04069E-06-8.28355E-20-6.41597E-19
 -1      3085 9.54890E-05-2.78916E-05-2.89655E-05 3.29469E-06-2.56860E-19-4.65151E-19
 -1      3086 9.54813E-05-2.77099E-05-2.90479E-05 2.86630E-06-6.77236E-20-5.43783E-19
 -1      3087 9.54147E-05-2.78589E-05-2.89537E-05 3.55920E-06-1.95344E-19-1.77545E-19
 -1      3088 9.54900E-05-2.78682E-05-2.89749E-05 3.81072E-06-7.55285E-20 3.48487E-20
 -1      3089 9.53304E-05-2.76830E-05-2.89946E-05 3.41921E-06 1.28386E-20-3.38116E-19
 -1      3090 9.54390E-05-2.78382E-05-2.89735E-05 4.08974E-06-2.26007E-19 1.64315E-19
 -1      3091 9.55630E-05-2.78730E-05-2.90035E-05 4.34778E-06-7.94818E-20 4.20809E-19
 -1      3092 9.52061E-05-2.76181E-05-2.89693E-05 3.98039E-06-8.43318E-20 3.68201E-19
 -1      3093 9.55602E-05-2.78839E-05-2.90052E-05 4.64846E-06 5.56475E-21 5.22866E-19
 -1      3094 9.57545E-05-2.79836E-05-2.90378E-05 4.90782E-06 1.82649E-20 7.08007E-19
 -1      3095 9.51503E-05-2.75943E-05-2.89566E-05 4.57855E-06 1.78320E-20 5.25014E-19
 -1      3096 9.58368E-05-2.80824E-05-2.90366E-05 5.22445E-06-2.08984E-19 6.54288E-19
 -1      3097 9.61334E-05-2.82955E-05-2.90666E-05 5.46385E-06-1.61066E-19 4.87182E-19
 -1      3098 9.52237E-05-2.77054E-05-2.89425E-05 5.21935E-06-6.98602E-20 4.08582E-19
 -1      3099 9.63546E-05-2.85406E-05-2.90583E-05 5.77476E-06-1.85085E-19 4.53520E-19
 -1      3100 9.67977E-05-2.89244E-05-2.90825E-05 5.95366E-06-1.48599E-19 3.66488E-19
 -1      3101 9.55153E-05-2.80668E-05-2.89164E-05 5.88170E-06-2.73042E-19-1.18616E-19
 -1      3102 9.72326E-05-2.93843E-05-2.90666E-05 6.21542E-06-1.67042E-19 8.25486E-20
 -1      3103 9.78760E-05-2.99995E-05-2.90859E-05 6.26965E-06 3.57348E-20-3.71967E-19
 -1      3104 9.61521E-05-2.88184E-05-2.88732E-05 6.50968E-06-3.92975E-19-1.27402E-19
 -1      3105 9.86199E-05-3.07438E-05-2.90691E-05 6.40683E-06 2.91376E-19-4.14323E-19
 -1      3106 9.95165E-05-3.16361E-05-2.90921E-05 6.24423E-06-1.65224E-19-5.81922E-19
 -1      3107 9.73037E-05-3.01164E-05-2.88191E-05 6.99702E-06-2.12623E-19-8.12043E-19
 -1      3108 1.00672E-04-3.27099E-05-2.90941E-05 6.13639E-06-2.42947E-19-2.43175E-19
 -1      3109 1.01848E-04-3.38726E-05-2.91416E-05 5.63610E-06-1.87909E-19 1.26940E-19
 -1      3110 9.91705E-05-3.20972E-05-2.87813E-05 7.16139E-06-7.12873E-20-1.05414E-18
 -1      3111 1.03488E-04-3.52460E-05-2.92015E-05 5.10409E-06-2.16232E-19 4.68068E-19
 -1      3112 1.04889E-04-3.65506E-05-2.93117E-05 4.13060E-06-9.88671E-20 3.09251E-19
 -1      3113 1.01940E-04-3.48026E-05-2.88208E-05 6.71307E-06-1.29518E-20-5.98701E-19
 -1      3114 1.06975E-04-3.80281E-05-2.94960E-05 2.94671E-06 2.57295E-20 9.36850E-19
 -1      3115 1.08393E-04-3.91296E-05-2.97265E-05 1.40478E-06 1.84744E-19 1.28362E-18
 -1      3116 1.05667E-04-3.80124E-05-2.90488E-05 5.23425E-06-2.05426E-20 3.72245E-19
 -1      3117 1.10632E-04-4.02314E-05-3.01303E-05-6.33086E-07-2.76401E-19 1.31044E-18
 -1      3118 1.11641E-04-4.04739E-05-3.05476E-05-2.67471E-06-5.97959E-19 6.05608E-19
 -1      3119 1.10069E-04-4.10196E-05-2.96410E-05 2.22767E-06-7.40128E-20 9.07377E-19
 -1      3120 1.13335E-04-4.04045E-05-3.12635E-05-5.36715E-06-3.12428E-19 1.00233E-18
 -1      3121 1.13451E-04-3.90614E-05-3.19064E-05-7.44346E-06-1.03116E-20 8.02994E-19
 -1      3122 1.14119E-04-4.22587E-05-3.08171E-05-2.50686E-06-2.62805E-19 1.26831E-18
 -1      3123 1.13612E-04-3.68683E-05-3.29812E-05-1.00273E-05 1.60222E-19 2.99102E-19
 -1      3124 1.12505E-04-3.35676E-05-3.38054E-05-1.10210E-05 2.49544E-19 4.94671E-20
 -1      3125 1.16275E-04-3.98463E-05-3.27170E-05-8.24054E-06 7.54008E-20 1.46710E-18
 -1      3126 1.10864E-04-2.95438E-05-3.50430E-05-1.16262E-05-3.31508E-19 1.90807E-19
 -1      3127 1.09055E-04-2.53232E-05-3.58428E-05-1.05676E-05-7.74016E-19 5.35762E-19
 -1      3128 1.14812E-04-3.24643E-05-3.52881E-05-1.21005E-05-9.10097E-20 5.61728E-19
 -1      3129 1.05100E-04-1.79634E-05-3.74304E-05 6.21788E-07-5.29528E-19 1.23180E-18
 -1      3130 1.05597E-04-1.90040E-05-3.72728E-05 4.45581E-06-6.17646E-19 1.61987E-18
 -1      3131 1.07284E-04-2.18862E-05-3.65818E-05 8.54587E-06-3.51360E-19 1.09892E-18
 -1      3132 1.09099E-04-2.57152E-05-3.59120E-05 1.07462E-05 1.04870E-18 1.57256E-18
 -1      3133 1.09089E-04-1.93072E-05-3.85470E-05 7.33424E-06-6.74450E-19 1.88516E-18
 -1      3134 1.11124E-04-3.00162E-05-3.47447E-05 1.15146E-05 1.00862E-18 1.07995E-18
 -1      3135 1.12760E-04-3.39238E-05-3.39110E-05 1.14134E-05 6.87334E-19 7.31962E-19
 -1      3136 1.13169E-04-2.79599E-05-3.65884E-05 1.22543E-05 5.60656E-19 1.58728E-18
 -1      3137 1.13378E-04-3.70912E-05-3.27207E-05 9.41185E-06 6.78566E-19 1.20369E-18
 -1      3138 1.13845E-04-3.93120E-05-3.19806E-05 7.67638E-06 4.31282E-19 1.23980E-18
 -1      3139 1.16158E-04-3.71591E-05-3.38464E-05 1.03790E-05 6.22960E-19 1.05735E-18
 -1      3140 1.12693E-04-4.02152E-05-3.11017E-05 4.88387E-06-1.61957E-19 8.94023E-19
 -1      3141 1.12023E-04-4.05800E-05-3.05873E-05 2.76825E-06-3.58714E-19 1.15808E-18
 -1      3142 1.15409E-04-4.16506E-05-3.15933E-05 5.09768E-06-2.70438E-20 1.10056E-18
 -1      3143 1.09918E-04-3.98828E-05-3.00580E-05 3.98646E-07-1.10626E-18 1.06980E-18
 -1      3144 1.08616E-04-3.90537E-05-2.97576E-05-1.36778E-06-1.02576E-18 1.29156E-18
 -1      3145 1.11964E-04-4.17823E-05-3.00987E-05-1.92536E-07-7.10590E-19 1.66865E-18
 -1      3146 1.06399E-04-3.76485E-05-2.94944E-05-2.88669E-06-8.12827E-19 1.14505E-18
 -1      3147 1.04956E-04-3.63648E-05-2.93446E-05-4.07754E-06-3.37117E-19 1.58608E-18
 -1      3148 1.07530E-04-3.93086E-05-2.92861E-05-3.92924E-06-8.11280E-19 9.54700E-19
 -1      3149 1.03092E-04-3.48904E-05-2.92441E-05-4.83819E-06-6.51229E-19 1.17146E-18
 -1      3150 1.01804E-04-3.36249E-05-2.91806E-05-5.49563E-06-1.63914E-18 5.22389E-19
 -1      3151 1.03421E-04-3.60316E-05-2.89318E-05-5.96723E-06-9.95794E-19 2.26035E-19
 -1      3152 1.00425E-04-3.23875E-05-2.91634E-05-5.72656E-06-1.22527E-18 8.08373E-19
 -1      3153 9.94069E-05-3.13543E-05-2.91392E-05-5.97845E-06-6.34756E-19 1.34651E-18
 -1      3154 1.00195E-04-3.30116E-05-2.88340E-05-6.74369E-06-9.66070E-19 9.78094E-19
 -1      3155 9.84762E-05-3.04455E-05-2.91544E-05-5.88493E-06-1.23117E-18 1.81537E-18
 -1      3156 9.77290E-05-2.96962E-05-2.91412E-05-5.86244E-06-1.41053E-18 1.95284E-18
 -1      3157 9.79178E-05-3.06588E-05-2.88542E-05-6.72141E-06-6.68527E-19 2.37108E-18
 -1      3158 9.71492E-05-2.90960E-05-2.91612E-05-5.59094E-06-1.02295E-18 1.26745E-18
 -1      3159 9.66269E-05-2.86027E-05-2.91452E-05-5.40007E-06-3.09044E-19 8.53022E-19
 -1      3160 9.64382E-05-2.90247E-05-2.89103E-05-6.25014E-06-1.72531E-18 2.24800E-18
 -1      3161 9.62960E-05-2.82492E-05-2.91573E-05-5.04508E-06-3.79441E-19 2.63796E-19
 -1      3162 9.59424E-05-2.79566E-05-2.91339E-05-4.76369E-06-4.99796E-19-1.83229E-19
 -1      3163 9.55512E-05-2.80032E-05-2.89606E-05-5.55740E-06-8.30697E-19 1.65852E-18
 -1      3164 9.57760E-05-2.77817E-05-2.91345E-05-4.38380E-06 5.14629E-19-2.31812E-19
 -1      3165 9.55415E-05-2.76327E-05-2.91040E-05-4.06589E-06 6.47085E-19-3.70785E-19
 -1      3166 9.50701E-05-2.74450E-05-2.89887E-05-4.78295E-06-1.02416E-19 1.20159E-18
 -1      3167 9.54766E-05-2.75771E-05-2.90941E-05-3.69623E-06 2.49461E-19-6.82306E-19
 -1      3168 9.53228E-05-2.75235E-05-2.90588E-05-3.37729E-06-2.54327E-19-8.23936E-19
 -1      3169 9.48489E-05-2.72092E-05-2.89919E-05-4.01036E-06 2.03861E-19-3.90731E-19
 -1      3170 9.53160E-05-2.75411E-05-2.90411E-05-3.03776E-06 1.78066E-19-9.66736E-19
 -1      3171 9.52153E-05-2.75459E-05-2.90039E-05-2.73946E-06 2.44300E-19-1.25085E-18
 -1      3172 9.47833E-05-2.71807E-05-2.89742E-05-3.28781E-06-6.77114E-20-1.43696E-18
 -1      3173 9.52382E-05-2.76034E-05-2.89815E-05-2.44003E-06 8.31557E-20-7.56228E-19
 -1      3174 9.51719E-05-2.76405E-05-2.89450E-05-2.17411E-06 3.47522E-19-2.65658E-19
 -1      3175 9.48029E-05-2.72736E-05-2.89417E-05-2.64083E-06 3.20908E-19-7.89205E-19
 -1      3176 9.52068E-05-2.77153E-05-2.89207E-05-1.91811E-06 2.34385E-20-4.03289E-19
 -1      3177 9.51623E-05-2.77667E-05-2.88866E-05-1.68933E-06 2.71505E-19-5.76790E-19
 -1      3178 9.48625E-05-2.74277E-05-2.89008E-05-2.08027E-06 2.30118E-19-3.09865E-19
 -1      3179 9.51988E-05-2.78445E-05-2.88625E-05-1.47588E-06 8.30043E-20-4.51502E-19
 -1      3180 9.51680E-05-2.78989E-05-2.88321E-05-1.28453E-06 1.33620E-19-2.35110E-18
 -1      3181 9.49350E-05-2.76028E-05-2.88565E-05-1.60711E-06-4.26269E-19-1.12021E-18
 -1      3182 9.52002E-05-2.79709E-05-2.88096E-05-1.11066E-06-2.98063E-19-2.39012E-18
 -1      3183 9.51788E-05-2.80216E-05-2.87834E-05-9.54078E-07-1.30954E-19-3.27540E-18
 -1      3184 9.50048E-05-2.77739E-05-2.88129E-05-1.21696E-06-4.87275E-19-1.69563E-18
 -1      3185 9.52114E-05-2.80852E-05-2.87658E-05-8.30766E-07-5.98548E-19-3.00923E-18
 -1      3186 9.51940E-05-2.81281E-05-2.87436E-05-7.03323E-07-1.58873E-19-3.35864E-18
 -1      3187 9.51242E-05-2.80622E-05-2.87421E-05-6.90748E-07-1.11682E-18-4.13652E-18
 -1      3188 9.50717E-05-2.79312E-05-2.87750E-05-9.18004E-07-6.28766E-19-2.39982E-18
 -1      3189 9.52894E-05-2.74570E-05-2.90628E-05-4.13107E-06 2.44338E-19 6.19767E-19
 -1      3190 9.52178E-05-2.75484E-05-2.90058E-05-3.78348E-06 4.81889E-19 3.79753E-19
 -1      3191 9.53373E-05-2.76757E-05-2.89911E-05-3.46401E-06 4.23968E-19 2.48372E-19
 -1      3192 9.52804E-05-2.77180E-05-2.89569E-05-3.15276E-06 1.87360E-19 1.56342E-19
 -1      3193 9.51201E-05-2.73624E-05-2.90395E-05-3.62547E-06 3.11736E-19 4.66754E-19
 -1      3194 9.51013E-05-2.67475E-05-2.92836E-05-5.84843E-06 2.08359E-19 7.96719E-19
 -1      3195 9.50164E-05-2.69041E-05-2.92012E-05-5.35014E-06 4.44672E-19 6.34219E-19
 -1      3196 9.49368E-05-2.63165E-05-2.93964E-05-6.97579E-06 2.37881E-19 1.04449E-18
 -1      3197 9.48450E-05-2.64755E-05-2.93140E-05-6.38009E-06 3.66752E-19 1.04828E-18
 -1      3198 9.40612E-05-2.60006E-05-2.91624E-05-6.08883E-06 1.90846E-19 9.30714E-19
 -1      3199 9.47349E-05-2.59230E-05-2.94766E-05-8.30889E-06 1.15652E-19 9.16353E-19
 -1      3200 9.46196E-05-2.60381E-05-2.94071E-05-7.61517E-06 1.88480E-19 1.07107E-18
 -1      3201 9.34952E-05-2.53929E-05-2.91777E-05-7.23754E-06 3.66608E-19 1.15100E-18
 -1      3202 9.45594E-05-2.57143E-05-2.94876E-05-9.84638E-06 9.65733E-20 8.72898E-19
 -1      3203 9.43724E-05-2.56979E-05-2.94483E-05-9.06916E-06-1.36776E-20 8.66427E-19
 -1      3204 9.28185E-05-2.48298E-05-2.91273E-05-8.60342E-06 1.69393E-19 1.21753E-18
 -1      3205 9.45790E-05-2.59597E-05-2.93846E-05-1.15668E-05 2.40320E-19 1.11603E-18
 -1      3206 9.42097E-05-2.56554E-05-2.93961E-05-1.07419E-05 3.43177E-19 1.03442E-18
 -1      3207 9.20952E-05-2.44879E-05-2.89652E-05-1.02203E-05 1.21296E-19 8.93030E-19
 -1      3208 9.51565E-05-2.71189E-05-2.91238E-05-1.34196E-05-2.93700E-19 9.80428E-19
 -1      3209 9.43835E-05-2.62653E-05-2.92030E-05-1.26165E-05 1.66500E-19 1.02134E-18
 -1      3210 9.15054E-05-2.46827E-05-2.86365E-05-1.21423E-05 1.46700E-19 1.63789E-18
 -1      3211 9.69776E-05-2.99036E-05-2.86914E-05-1.52792E-05-7.62531E-19 8.14217E-19
 -1      3212 9.54088E-05-2.81103E-05-2.88330E-05-1.46370E-05-8.03318E-19 8.54157E-19
 -1      3213 9.14480E-05-2.59478E-05-2.80887E-05-1.44551E-05-4.49290E-19 7.10987E-19
 -1      3214 1.01148E-04-3.52292E-05-2.81759E-05-1.67828E-05-5.87652E-19 3.56265E-19
 -1      3215 9.82319E-05-3.20456E-05-2.83078E-05-1.65987E-05-4.65323E-19 6.58392E-19
 -1      3216 9.27085E-05-2.91215E-05-2.73048E-05-1.72292E-05-4.64500E-19-1.78185E-19
 -1      3217 1.09057E-04-4.38761E-05-2.78535E-05-1.71615E-05-7.72971E-19 3.04171E-20
 -1      3218 1.04252E-04-3.88186E-05-2.78239E-05-1.78105E-05-5.95193E-19 2.28519E-19
 -1      3219 9.67201E-05-3.53262E-05-2.63976E-05-2.02906E-05-3.92679E-19-3.99403E-19
 -1      3220 1.25342E-04-5.65910E-05-2.93484E-05-1.32001E-05-1.51345E-18 2.88057E-19
 -1      3221 1.18794E-04-5.24271E-05-2.81900E-05-1.64299E-05-1.37576E-18 6.43745E-19
 -1      3222 1.30166E-04-1.64384E-05-4.93767E-05-6.10242E-06 8.84302E-19-2.16491E-18
 -1      3223 1.32498E-04-2.23833E-05-4.78096E-05-1.31172E-05 1.27606E-18-2.50743E-18
 -1      3224 1.31486E-04-5.72172E-05-3.21426E-05 4.73117E-06-4.04862E-19-2.29535E-18
 -1      3225 9.84581E-05-3.15257E-05-2.86350E-05 1.59232E-05-3.39462E-19 2.22800E-19
 -1      3226 1.01152E-04-3.44993E-05-2.85077E-05 1.61226E-05 4.34237E-20 8.73284E-19
 -1      3227 9.58493E-05-2.79131E-05-2.91058E-05 1.39813E-05-1.75532E-19 4.60610E-19
 -1      3228 9.73054E-05-2.95576E-05-2.89865E-05 1.46372E-05-5.44806E-20 3.09918E-19
 -1      3229 9.31591E-05-2.87322E-05-2.76629E-05 1.64620E-05-3.36619E-19 3.10944E-19
 -1      3230 9.48672E-05-2.62295E-05-2.94233E-05 1.19617E-05 6.69791E-19-5.04883E-19
 -1      3231 9.55979E-05-2.70087E-05-2.93647E-05 1.27906E-05 5.08601E-19 8.11520E-19
 -1      3232 9.19899E-05-2.58243E-05-2.83719E-05 1.38003E-05 1.33342E-19 3.83047E-20
 -1      3233 9.46619E-05-2.56793E-05-2.95770E-05 1.00399E-05 1.36362E-18-1.60052E-18
 -1      3234 9.50257E-05-2.59561E-05-2.95803E-05 1.09014E-05 8.75084E-19-1.01953E-18
 -1      3235 9.20020E-05-2.46576E-05-2.88595E-05 1.15081E-05 1.27521E-18-5.35747E-19
 -1      3236 9.47643E-05-2.57223E-05-2.96034E-05 8.29054E-06 7.49624E-19-1.84609E-18
 -1      3237 9.49593E-05-2.57374E-05-2.96509E-05 9.11179E-06 1.38611E-18-1.51614E-18
 -1      3238 9.25052E-05-2.44834E-05-2.91431E-05 9.53921E-06 1.14994E-18 1.83645E-19
 -1      3239 9.49448E-05-2.60320E-05-2.95469E-05 6.74209E-06-5.40395E-19-4.71801E-19
 -1      3240 9.50698E-05-2.59281E-05-2.96194E-05 7.48488E-06-2.31508E-19-1.60870E-18
 -1      3241 9.31255E-05-2.47994E-05-2.92724E-05 7.83935E-06 1.74582E-19 1.95196E-20
 -1      3242 9.51073E-05-2.64290E-05-2.94445E-05 5.40280E-06-1.13838E-18-1.26401E-19
 -1      3243 9.52055E-05-2.62835E-05-2.95270E-05 6.05024E-06-6.03405E-19 2.90317E-20
 -1      3244 9.36961E-05-2.53133E-05-2.92982E-05 6.37153E-06-8.06758E-19 3.92013E-19
 -1      3245 9.52230E-05-2.68237E-05-2.93229E-05 4.26805E-06-1.77089E-18 4.02311E-19
 -1      3246 9.53097E-05-2.66751E-05-2.94052E-05 4.81672E-06-1.31584E-18 4.67504E-19
 -1      3247 9.41590E-05-2.58681E-05-2.92610E-05 5.11389E-06-1.56349E-18 1.13238E-18
 -1      3248 9.52918E-05-2.71768E-05-2.91992E-05 3.32420E-06-1.15439E-18-3.82224E-19
 -1      3249 9.53709E-05-2.70421E-05-2.92753E-05 3.77893E-06-1.59754E-18 8.57921E-20
 -1      3250 9.45084E-05-2.63873E-05-2.91902E-05 4.04991E-06-1.57065E-18 5.98781E-19
 -1      3251 9.53240E-05-2.74753E-05-2.90835E-05 2.55203E-06 5.45681E-19 1.51447E-19
 -1      3252 9.53953E-05-2.73605E-05-2.91505E-05 2.92209E-06-5.04637E-19-3.43608E-19
 -1      3253 9.47594E-05-2.68396E-05-2.91056E-05 3.16295E-06-8.76720E-19 1.27639E-21
 -1      3254 9.53314E-05-2.77189E-05-2.89809E-05 1.92952E-06 5.45385E-19 8.16778E-19
 -1      3255 9.53939E-05-2.76247E-05-2.90378E-05 2.22613E-06 1.01811E-18 3.08722E-19
 -1      3256 9.49331E-05-2.72171E-05-2.90195E-05 2.43457E-06 4.39355E-19 6.79453E-19
 -1      3257 9.53234E-05-2.79130E-05-2.88934E-05 1.43413E-06 2.00278E-18-3.40101E-19
 -1      3258 9.53766E-05-2.78375E-05-2.89403E-05 1.66882E-06 1.37277E-18 7.09539E-19
 -1      3259 9.50491E-05-2.75232E-05-2.89388E-05 1.84487E-06 1.00875E-18 1.11137E-18
 -1      3260 9.53058E-05-2.80625E-05-2.88209E-05 1.04515E-06 1.52219E-18-7.87963E-19
 -1      3261 9.53509E-05-2.80046E-05-2.88586E-05 1.22889E-06 1.57073E-18-4.20744E-19
 -1      3262 9.51235E-05-2.77657E-05-2.88672E-05 1.37436E-06 1.91286E-18 1.49056E-18
 -1      3263 9.52848E-05-2.81743E-05-2.87621E-05 7.43233E-07 3.89428E-20-9.27149E-19
 -1      3264 9.53210E-05-2.81326E-05-2.87919E-05 8.83756E-07 1.29971E-18-7.21577E-19
 -1      3265 9.51666E-05-2.79525E-05-2.88060E-05 1.00355E-06 1.17528E-18-1.66910E-20
 -1      3266 9.52404E-05-2.82008E-05-2.87305E-05 5.85667E-07-1.35104E-18 2.02887E-19
 -1      3267 9.52779E-05-2.81952E-05-2.87476E-05 6.65579E-07-9.81729E-19-2.42119E-19
 -1      3268 9.51744E-05-2.80603E-05-2.87639E-05 7.61954E-07-6.37341E-19 1.40883E-19
 -1      3269 9.51650E-05-2.81171E-05-2.87372E-05 6.11703E-07-1.26300E-18 2.25852E-18
 -1      3270 1.30497E-04-4.45414E-05-3.68915E-05 6.97558E-06 1.17235E-19 3.74389E-19
 -1      3271 1.26591E-04-3.56373E-05-3.94636E-05 1.17475E-05-6.78791E-19 7.79694E-19
 -1      3272 9.22024E-05-1.79489E-05-3.18381E-05 1.68212E-06 6.64165E-19-8.71876E-19
 -1      3273 9.20666E-05-1.77311E-05-3.18707E-05 9.74926E-07 5.45361E-19-8.72472E-19
 -1      3274 9.45848E-05-2.75181E-05-2.87438E-05-7.47507E-08 1.20162E-20 8.34483E-19
 -1      3275 9.45809E-05-2.75132E-05-2.87447E-05 3.56918E-08 1.26158E-19 1.49540E-18
 -1      3276 9.49458E-05-2.78910E-05-2.87374E-05-5.97843E-07-2.12648E-19-9.31513E-19
 -1      3277 9.48615E-05-2.78076E-05-2.87399E-05-5.57644E-07-3.53811E-19 6.21520E-19
 -1      3278 9.46471E-05-2.75824E-05-2.87419E-05-2.99565E-07-3.96794E-19 4.58771E-19
 -1      3279 9.46092E-05-2.75469E-05-2.87431E-05-2.00864E-07 1.67350E-19 1.60131E-18
 -1      3280 9.44939E-05-2.74080E-05-2.87484E-05-1.59693E-07-3.57978E-19 1.58491E-18
 -1      3281 6.33079E-05-2.69387E-05-1.49189E-05-2.97491E-05-1.70015E-18-1.90307E-18
 -1      3282 7.93127E-05-3.64453E-05-1.82516E-05-3.26867E-05-2.05024E-18-8.22945E-19
 -1      3283 9.52497E-05-2.41453E-05-3.04751E-05 3.96186E-06 9.15398E-19-8.96416E-21
 -1      3284 9.46604E-05-2.25815E-05-3.08815E-05 4.46946E-06 9.70639E-19-7.14200E-20
 -1      3285 9.49181E-05-2.33793E-05-3.06587E-05 3.32193E-06 8.50489E-19-1.09350E-19
 -1      3286 9.52905E-05-2.50429E-05-3.01178E-05 2.63553E-06 8.60255E-19 2.86908E-20
 -1      3287 7.63331E-05-3.37543E-05-1.82750E-05 3.15893E-05-3.09379E-19 1.26483E-18
 -1      3288 6.12713E-05-2.37308E-05-1.56110E-05 2.60807E-05-1.41825E-19 1.47151E-18
 -1      3289 1.27808E-04-5.37797E-05-3.17384E-05-6.64730E-06 9.02739E-19-1.05747E-18
 -1      3290 1.30712E-04-5.03604E-05-3.47894E-05 7.83435E-07 5.44834E-19-9.51086E-19
 -1      3291 1.27235E-04-4.59773E-05-3.48559E-05 5.31770E-06 1.38089E-18-6.68097E-20
 -1      3292 9.47738E-05-2.77115E-05-2.87400E-05-4.83646E-07 3.23930E-19 2.24023E-18
 -1      3293 9.47068E-05-2.76489E-05-2.87417E-05-4.07140E-07-3.48205E-19 1.42498E-18
 -1      3294 9.45884E-05-2.75043E-05-2.87480E-05-4.05764E-07-7.37247E-19 1.30752E-18
 -1      3295 9.47502E-05-2.76671E-05-2.87488E-05-5.96303E-07-3.80093E-19 1.03399E-18
 -1      3296 1.04259E-04-3.81302E-05-2.81830E-05 1.70031E-05-2.07920E-20 3.37298E-19
 -1      3297 1.08790E-04-4.22958E-05-2.83216E-05 1.58598E-05-2.54183E-19-3.80953E-19
 -1      3298 9.70300E-05-3.47820E-05-2.68125E-05 1.94415E-05-2.53726E-19 3.78068E-19
 -1      3299 1.10999E-04-4.63599E-05-2.74887E-05 1.82729E-05-6.78751E-20-4.79308E-19
 -1      3300 1.17598E-04-5.13194E-05-2.82251E-05 1.54523E-05-2.60569E-19-1.03093E-18
 -1      3301 1.21895E-04-2.62903E-05-4.10857E-05 1.36281E-05-1.49131E-18 6.31357E-19
 -1      3302 1.16950E-04-1.91945E-05-4.23358E-05 1.08464E-05-9.37083E-19 4.04141E-19
 -1      3303 9.52158E-05-2.71403E-05-2.91656E-05-4.91065E-06 5.92053E-19 5.75985E-19
 -1      3304 9.51357E-05-2.72708E-05-2.90924E-05-4.49799E-06 4.65557E-19 6.48378E-19
 -1      3305 9.48542E-05-2.70228E-05-2.90691E-05-4.32133E-06 3.53242E-19 4.00602E-19
 -1      3306 9.45087E-05-2.65598E-05-2.91172E-05-5.12805E-06 3.60884E-19 6.32613E-19
 -1      3307 1.23135E-04-5.55670E-05-2.86383E-05 1.47205E-05-8.01280E-19-1.24466E-18
 -1      3308 9.54527E-05-2.75063E-05-2.91203E-05-1.44071E-06 1.70072E-19 3.33206E-19
 -1      3309 9.54755E-05-2.73040E-05-2.92055E-05-9.66699E-07 3.37269E-19 3.33601E-19
 -1      3310 9.25825E-05-1.81061E-05-3.19376E-05-6.61881E-06-3.42247E-19-1.44842E-18
 -1      3311 9.32248E-05-1.91338E-05-3.17895E-05-7.11540E-06-4.94694E-19-1.41925E-18
 -1      3312 9.41621E-05-2.10979E-05-3.12803E-05-5.81090E-06-4.89927E-19-1.38829E-18
 -1      3313 9.33179E-05-1.94749E-05-3.16142E-05-5.34080E-06-2.65658E-19-1.35371E-18
 -1      3314 1.11754E-04-1.41474E-05-4.21316E-05 5.98894E-06-5.01126E-19 5.21084E-19
 -1      3315 1.11718E-04-1.23740E-05-4.29557E-05-3.10714E-07-2.24675E-19 3.65680E-20
 -1      3316 1.32473E-04-5.96997E-05-3.10487E-05-9.13909E-06-1.75082E-18 3.25578E-19
 -1      3317 9.76982E-05-4.57671E-05-2.22905E-05 3.10935E-05 9.52197E-19-7.35066E-20
 -1      3318 8.40241E-05-3.74528E-05-1.95152E-05 3.29975E-05 1.59060E-18-5.44801E-19
 -1      3319 1.31170E-04-5.23214E-05-3.40763E-05 2.60212E-06-6.50482E-19 1.07425E-18
 -1      3320 1.28580E-04-5.62508E-05-3.08503E-05 1.18918E-05-2.20851E-19 1.11999E-18
 -1      3321 1.23497E-04-5.53078E-05-2.91549E-05 1.42153E-05 5.36701E-19 9.71203E-19
 -1      3322 4.69336E-05-1.36785E-05-1.40846E-05 1.40758E-05 3.70471E-19-4.65339E-19
 -1      3323 4.43663E-05-1.16687E-05-1.36084E-05 1.33320E-06-3.89010E-19 4.94350E-19
 -1      3324 9.54775E-05-2.53003E-05-3.00641E-05-1.68215E-06-1.56904E-19-1.21682E-18
 -1      3325 9.55287E-05-2.59603E-05-2.98244E-05-7.95790E-07-2.35497E-19-1.08665E-18
 -1      3326 9.56151E-05-2.57918E-05-2.99259E-05-5.75436E-07-1.00259E-19-1.07197E-18
 -1      3327 6.09675E-05-2.40895E-05-1.54443E-05-2.92700E-05-6.81332E-20-1.22714E-19
 -1      3328 7.14899E-05-3.13722E-05-1.67807E-05-3.45385E-05 5.91917E-19-4.21399E-20
 -1      3329 1.11432E-04-5.36713E-05-2.43836E-05-2.83378E-05 5.73547E-19 3.33982E-19
 -1      3330 1.20743E-04-5.55652E-05-2.80415E-05-1.86941E-05 3.76797E-19-8.79154E-19
 -1      3331 1.08365E-04-4.83630E-05-2.58272E-05-2.27169E-05-1.44941E-18-9.30677E-20
 -1      3332 9.19983E-05-1.76223E-05-3.18890E-05 3.83706E-07 5.11279E-19-8.99130E-19
 -1      3333 9.19948E-05-1.76180E-05-3.18891E-05-3.35341E-07 4.71202E-19-1.03448E-18
 -1      3334 9.29036E-05-1.91343E-05-3.15962E-05 5.67644E-07 4.49985E-19-8.03876E-19
 -1      3335 9.42790E-05-2.16905E-05-3.10845E-05 3.31514E-06 9.26916E-19-3.44052E-19
 -1      3336 9.33726E-05-1.99477E-05-3.14916E-05 3.97090E-06 1.00865E-18-3.81215E-19
 -1      3337 9.29855E-05-1.92567E-05-3.16089E-05 3.40533E-06 8.91751E-19-4.47980E-19
 -1      3338 8.71559E-05-3.69068E-05-2.13559E-05 2.79299E-05-6.77203E-19 2.87515E-19
 -1      3339 8.13856E-05-3.62088E-05-1.92734E-05-3.26654E-05 4.38737E-19 1.31830E-18
 -1      3340 6.62700E-05-2.25091E-05-1.84886E-05 2.23885E-05-4.64637E-19 1.41158E-18
 -1      3341 5.61575E-05-1.92368E-05-1.54258E-05 2.19474E-05-3.73859E-19 2.61765E-18
 -1      3342 5.24269E-05-1.53361E-05-1.57067E-05 1.48837E-05 7.93035E-20 1.02046E-18
 -1      3343 1.13630E-04-2.27402E-05-3.92523E-05-1.17347E-05-5.14228E-19 8.95208E-20
 -1      3344 1.19211E-04-2.71261E-05-3.97641E-05-1.30590E-05-9.10772E-19-1.27955E-19
 -1      3345 4.34645E-05-1.21812E-05-1.28578E-05-1.75853E-06-4.37350E-19-7.77682E-19
 -1      3346 9.51640E-05-2.39263E-05-3.05108E-05-3.23850E-06-1.13314E-19-1.29394E-18
 -1      3347 9.52569E-05-2.46360E-05-3.02755E-05-2.35170E-06-6.53470E-20-1.24102E-18
 -1      3348 9.52646E-05-2.44284E-05-3.03550E-05-1.97894E-06-1.81720E-19-1.28140E-18
 -1      3349 1.10394E-04-2.24830E-05-3.77587E-05-9.58436E-06-4.50555E-19 8.14422E-19
 -1      3350 1.06432E-04-2.10085E-05-3.67596E-05-7.26232E-06-7.31989E-19 1.22106E-18
 -1      3351 1.05296E-04-1.86947E-05-3.71442E-05-3.90233E-06-6.09096E-19 8.40420E-19
 -1      3352 1.11024E-04-1.72138E-05-4.03642E-05-8.15191E-06-2.14352E-19 3.11222E-19
 -1      3353 9.48334E-05-2.77573E-05-2.87497E-05 5.54787E-07 8.79431E-20-1.78777E-18
 -1      3354 9.49203E-05-2.78390E-05-2.87482E-05 6.03029E-07 1.92563E-19 1.53195E-18
 -1      3355 1.19602E-04-3.24592E-05-3.74518E-05-1.20996E-05-7.04017E-19-2.98156E-19
 -1      3356 1.07343E-04-1.66610E-05-3.89771E-05-1.51487E-06-3.79497E-19 1.82867E-18
 -1      3357 9.47466E-05-2.76660E-05-2.87481E-05 4.71445E-07 1.21599E-18-3.96763E-18
 -1      3358 9.47162E-05-2.76054E-05-2.87595E-05 5.84913E-07-7.81644E-19-1.69898E-18
 -1      3359 9.46814E-05-2.76079E-05-2.87484E-05 3.87725E-07 5.23092E-19-1.46425E-18
 -1      3360 9.45048E-05-2.22933E-05-3.09621E-05-4.73579E-06-3.21006E-19-1.37265E-18
 -1      3361 9.53263E-05-2.75555E-05-2.90469E-05-2.98396E-06 3.36742E-19 2.56140E-19
 -1      3362 9.53746E-05-2.77769E-05-2.89656E-05-2.84864E-06 1.41642E-19 2.35518E-19
 -1      3363 9.53391E-05-2.77588E-05-2.89610E-05-2.53624E-06 1.35476E-19 2.07955E-19
 -1      3364 7.95827E-05-3.20098E-05-2.00592E-05 2.84045E-05 1.19005E-18-8.39039E-19
 -1      3365 9.29515E-05-1.92127E-05-3.16131E-05-3.36734E-06 4.53520E-20-1.09983E-18
 -1      3366 9.33543E-05-1.99229E-05-3.14959E-05-3.96484E-06-1.01450E-19-1.27236E-18
 -1      3367 1.12192E-04-1.38410E-05-4.25042E-05-4.60953E-06-2.00217E-19-1.18206E-19
 -1      3368 9.56445E-05-2.68644E-05-2.94824E-05-5.65081E-07 4.63722E-19 3.65316E-19
 -1      3369 9.54801E-05-2.70168E-05-2.93457E-05-4.27529E-07 5.70810E-19 3.17057E-19
 -1      3370 9.55162E-05-2.66520E-05-2.94994E-05 2.39294E-07 7.12988E-19 2.59605E-19
 -1      3371 9.23949E-05-1.82683E-05-3.17812E-05 2.24307E-06 7.14039E-19-7.61329E-19
 -1      3372 9.31525E-05-1.95550E-05-3.15194E-05 1.63124E-06 5.53425E-19-7.00166E-19
 -1      3373 9.26607E-05-1.87136E-05-3.17119E-05 2.89995E-06 8.33970E-19-5.07555E-19
 -1      3374 1.01392E-04-4.20025E-05-2.53900E-05 2.31957E-05-2.62395E-19-3.73886E-19
 -1      3375 9.45956E-05-2.75257E-05-2.87461E-05 1.66880E-07 5.03969E-19 1.58359E-18
 -1      3376 9.46280E-05-2.75537E-05-2.87465E-05 2.71667E-07 1.64636E-19 5.14254E-19
 -1      3377 9.45592E-05-2.74585E-05-2.87547E-05 3.71550E-07 6.76595E-19-1.07256E-18
 -1      3378 9.44828E-05-2.73912E-05-2.87507E-05 1.10842E-07-7.15630E-19 1.14931E-18
 -1      3379 6.12132E-05-2.28010E-05-1.60283E-05-2.40886E-05-9.81499E-19-1.28474E-18
 -1      3380 5.20595E-05-1.23794E-05-1.67555E-05 6.16362E-07-4.10665E-19 1.56331E-19
 -1      3381 4.65732E-05-1.19749E-05-1.44098E-05-4.08946E-06-2.55433E-20 7.44436E-19
 -1      3382 5.07093E-05-1.37547E-05-1.57240E-05-1.03632E-05-3.54761E-20-4.12399E-20
 -1      3383 1.24396E-04-5.48692E-05-2.98029E-05-1.17042E-05 7.41471E-19-1.51185E-18
 -1      3384 1.24149E-04-5.14861E-05-3.11199E-05-4.59011E-06 1.40417E-18-2.20804E-18
 -1      3385 1.17397E-04-5.25882E-05-2.78149E-05-1.62068E-05 3.17412E-19-1.43784E-18
 -1      3386 1.21319E-04-3.18118E-05-3.84272E-05 1.24502E-05-8.10716E-19 7.59868E-19
 -1      3387 9.50600E-05-2.80014E-05-2.87403E-05-6.67585E-07-1.58051E-18-3.52492E-18
 -1      3388 9.49997E-05-2.79453E-05-2.87390E-05-6.35006E-07-8.52066E-19-1.24191E-18
 -1      3389 9.49097E-05-2.78203E-05-2.87513E-05-7.07191E-07-1.43435E-18-1.36044E-18
 -1      3390 9.50385E-05-2.79368E-05-2.87559E-05-7.71564E-07-1.71379E-18-2.35684E-18
 -1      3391 9.54458E-05-2.62676E-05-2.96553E-05 8.61296E-07 6.87574E-19 1.49347E-19
 -1      3392 9.54686E-05-2.56834E-05-2.98951E-05 1.80292E-06 7.33125E-19 5.43415E-20
 -1      3393 9.53556E-05-2.49329E-05-3.01778E-05 2.18207E-06 7.31490E-19 1.42851E-20
 -1      3394 9.55711E-05-2.60617E-05-2.97927E-05 6.61021E-07 6.21823E-19 1.98843E-19
 -1      3395 1.04463E-04-4.96391E-05-2.33367E-05-2.94482E-05 4.92126E-19 8.05346E-19
 -1      3396 9.54122E-05-2.77346E-05-2.90021E-05-2.20708E-06 2.17306E-19 3.44274E-19
 -1      3397 9.54044E-05-2.76389E-05-2.90363E-05-1.84521E-06 2.73044E-19 3.33454E-19
 -1      3398 9.54857E-05-2.75726E-05-2.91093E-05-2.32421E-06 1.87067E-19 3.22693E-19
 -1      3399 1.26332E-04-4.28383E-05-3.59216E-05-8.51756E-06-6.64233E-19-3.26108E-19
 -1      3400 1.30602E-04-4.86364E-05-3.52578E-05-3.40380E-06-9.06511E-19 8.43645E-19
 -1      3401 1.27121E-04-5.02981E-05-3.28473E-05 4.32162E-07-6.46207E-19 6.17116E-19
 -1      3402 9.52791E-05-4.17084E-05-2.24754E-05-2.78926E-05-1.57940E-18-3.82462E-19
 -1      3403 9.23745E-05-1.82422E-05-3.17831E-05-2.19772E-06 2.80929E-19-8.82815E-19
 -1      3404 9.26293E-05-1.86708E-05-3.17150E-05-2.87042E-06 1.34936E-19-1.02941E-18
 -1      3405 9.36006E-05-2.03853E-05-3.13591E-05-2.54249E-06 3.79292E-20-9.93428E-19
 -1      3406 1.04554E-04-4.85380E-05-2.37263E-05 2.76147E-05 9.01375E-19 5.08643E-19
 -1      3407 9.80243E-05-4.32787E-05-2.34068E-05 2.69339E-05 1.05604E-18 1.65780E-19
 -1      3408 1.10001E-04-5.07248E-05-2.55622E-05 2.31373E-05 8.47165E-19 8.70843E-19
 -1      3409 5.76119E-05-1.70823E-05-1.69789E-05 1.69483E-05 3.70603E-19-2.80686E-19
 -1      3410 9.55982E-05-2.73673E-05-2.92466E-05-1.55492E-06 2.38873E-19 3.89405E-19
 -1      3411 5.65200E-05-1.98802E-05-1.53085E-05-2.49557E-05-6.38451E-20-2.70839E-19
 -1      3412 6.67586E-05-2.34133E-05-1.83364E-05-2.47600E-05-1.04622E-19-4.34157E-19
 -1      3413 5.27868E-05-1.57416E-05-1.56426E-05-1.77128E-05-5.59333E-19-7.65506E-19
 -1      3414 4.83456E-05-1.18405E-05-1.53221E-05 4.32203E-06-2.02189E-19 1.53684E-19
 -1      3415 4.81042E-05-1.19639E-05-1.52326E-05-7.42211E-06-5.24525E-19-4.21293E-19
 -1      3416 1.21465E-04-3.83068E-05-3.58343E-05-1.08433E-05-2.37010E-19 1.99933E-19
 -1      3417 9.58181E-05-2.70302E-05-2.94759E-05 1.22066E-06-1.92837E-19-6.66541E-19
 -1      3418 9.57795E-05-2.72547E-05-2.93699E-05 1.62822E-06-2.26125E-19-5.47626E-19
 -1      3419 9.56932E-05-2.73999E-05-2.92662E-05 1.95675E-06-2.13853E-19-2.93867E-19
 -1      3420 9.56247E-05-2.74953E-05-2.91978E-05 2.28445E-06-5.79982E-20-2.54676E-19
 -1      3421 9.57460E-05-2.71063E-05-2.94171E-05 1.64727E-06-1.53710E-20-3.47737E-19
 -1      3422 9.54790E-05-2.75214E-05-2.91246E-05 2.56933E-06-1.27595E-20-7.68316E-20
 -1      3423 9.53997E-05-2.75325E-05-2.90833E-05 2.85800E-06-4.35147E-20-2.34735E-19
 -1      3424 9.55162E-05-2.73094E-05-2.92319E-05 2.27460E-06 1.64107E-20-8.20490E-20
 -1      3425 9.52182E-05-2.74834E-05-2.90309E-05 3.13262E-06 8.90607E-20-2.63067E-19
 -1      3426 9.51439E-05-2.74494E-05-2.90075E-05 3.41310E-06 1.16049E-19-1.12806E-19
 -1      3427 9.51914E-05-2.72982E-05-2.90976E-05 2.84517E-06 1.56959E-19 7.28436E-22
 -1      3428 9.49484E-05-2.73657E-05-2.89670E-05 3.70409E-06 9.65838E-20-5.01913E-21
 -1      3429 9.48972E-05-2.73262E-05-2.89531E-05 3.99712E-06 2.55739E-20 7.98461E-20
 -1      3430 9.48158E-05-2.71619E-05-2.89952E-05 3.41939E-06 1.68643E-19-3.02318E-19
 -1      3431 9.47129E-05-2.72508E-05-2.89157E-05 4.32406E-06-3.28136E-19 6.13373E-20
 -1      3432 9.47100E-05-2.72506E-05-2.89038E-05 4.64010E-06-2.34963E-19-2.31163E-19
 -1      3433 9.44349E-05-2.69891E-05-2.89067E-05 4.04528E-06-2.13748E-19-1.20739E-19
 -1      3434 9.45711E-05-2.72340E-05-2.88615E-05 5.01530E-06-2.52396E-19-4.79663E-19
 -1      3435 9.46541E-05-2.73279E-05-2.88451E-05 5.35382E-06-2.57420E-19-4.83901E-19
 -1      3436 9.41066E-05-2.68784E-05-2.88150E-05 4.75810E-06-4.01124E-19-8.26488E-19
 -1      3437 9.46109E-05-2.74327E-05-2.87913E-05 5.78125E-06-2.43509E-19-7.32717E-19
 -1      3438 9.48341E-05-2.76886E-05-2.87657E-05 6.12848E-06-2.39254E-19-6.63118E-19
 -1      3439 9.39130E-05-2.69490E-05-2.87048E-05 5.58004E-06-2.84719E-19-1.03049E-18
 -1      3440 9.49608E-05-2.79933E-05-2.86967E-05 6.60029E-06-3.39506E-19-5.19284E-19
 -1      3441 9.54003E-05-2.84938E-05-2.86613E-05 6.92438E-06-5.99147E-19-5.29330E-19
 -1      3442 9.39753E-05-2.73502E-05-2.85650E-05 6.51681E-06-2.83741E-19-1.07022E-18
 -1      3443 9.58032E-05-2.90924E-05-2.85790E-05 7.41279E-06-4.05520E-19-4.79675E-19
 -1      3444 9.65566E-05-2.99288E-05-2.85406E-05 7.65429E-06-4.20183E-20-5.54034E-19
 -1      3445 9.44695E-05-2.82675E-05-2.83924E-05 7.54766E-06-4.35300E-19-9.92846E-19
 -1      3446 9.73823E-05-3.09232E-05-2.84581E-05 8.09035E-06 1.61615E-19-4.34791E-19
 -1      3447 9.85564E-05-3.21715E-05-2.84378E-05 8.14649E-06 7.97477E-20-2.47394E-19
 -1      3448 9.56458E-05-2.99228E-05-2.82004E-05 8.60095E-06 2.69733E-19-4.19840E-19
 -1      3449 9.99771E-05-3.36368E-05-2.83895E-05 8.38912E-06-4.05922E-20-2.30422E-19
 -1      3450 1.01648E-04-3.53064E-05-2.84289E-05 8.09621E-06-8.68626E-20-4.23310E-21
 -1      3451 9.78266E-05-3.25259E-05-2.80361E-05 9.48608E-06 8.77333E-20-4.52145E-20
 -1      3452 1.03840E-04-3.72308E-05-2.84805E-05 7.88021E-06 2.49842E-19 2.25236E-19
 -1      3453 1.05979E-04-3.91507E-05-2.86531E-05 6.99597E-06 5.59712E-19 4.98223E-19
 -1      3454 1.01374E-04-3.62216E-05-2.79979E-05 9.85492E-06 4.55987E-19 3.80151E-19
 -1      3455 1.08956E-04-4.12709E-05-2.89235E-05 5.94205E-06 1.35395E-19 7.36823E-19
 -1      3456 1.11279E-04-4.29453E-05-2.93393E-05 4.22804E-06-2.53251E-19 6.38938E-19
 -1      3457 1.06487E-04-4.07298E-05-2.82780E-05 8.98587E-06 4.33077E-19 4.91838E-19
 -1      3458 1.14786E-04-4.44873E-05-3.00227E-05 1.67094E-06-1.73615E-19 9.64215E-19
 -1      3459 1.16408E-04-4.47752E-05-3.07570E-05-7.70347E-07 9.21016E-20 8.77192E-19
 -1      3460 1.13169E-04-4.53310E-05-2.91995E-05 6.02509E-06 1.20855E-19 6.76396E-19
 -1      3461 1.18233E-04-4.41139E-05-3.18185E-05 3.85929E-06 3.00521E-19 1.31337E-18
 -1      3462 1.16958E-04-4.49456E-05-3.08246E-05 9.88578E-07 1.21873E-19 1.39412E-18
 -1      3463 1.13681E-04-4.40150E-05-2.98939E-05-2.07780E-06-4.40431E-19 1.35620E-18
 -1      3464 1.11467E-04-4.28247E-05-2.93304E-05-4.23505E-06-7.68925E-19 1.28103E-18
 -1      3465 1.16081E-04-4.62211E-05-2.99335E-05-3.41606E-06-3.39905E-20 1.07548E-18
 -1      3466 1.08175E-04-4.07657E-05-2.89119E-05-5.83601E-06-1.29086E-18 1.17449E-18
 -1      3467 1.05902E-04-3.88614E-05-2.86521E-05-7.04384E-06-1.09785E-18 1.06333E-18
 -1      3468 1.09206E-04-4.26403E-05-2.86087E-05-7.84574E-06-1.04336E-18 1.43899E-18
 -1      3469 1.03321E-04-3.67725E-05-2.85246E-05-7.55807E-06-1.30585E-18 6.91004E-19
 -1      3470 1.01421E-04-3.49341E-05-2.84415E-05-8.04965E-06-1.56601E-18 6.23037E-19
 -1      3471 1.03339E-04-3.79687E-05-2.80996E-05-9.49295E-06-1.70143E-18 1.61020E-18
 -1      3472 9.96484E-05-3.32253E-05-2.84586E-05-7.93462E-06-1.99756E-19 1.03942E-18
 -1      3473 9.82463E-05-3.17602E-05-2.84626E-05-7.97013E-06 4.06783E-19 1.90928E-18
 -1      3474 9.90473E-05-3.37871E-05-2.80321E-05-9.49879E-06-3.17093E-19 1.30624E-18
 -1      3475 9.71493E-05-3.05346E-05-2.85363E-05-7.55641E-06-5.36073E-19 2.30787E-18
 -1      3476 9.62061E-05-2.94984E-05-2.85724E-05-7.33627E-06-1.52819E-18 1.85829E-18
 -1      3477 9.62505E-05-3.06410E-05-2.81594E-05-8.70892E-06 1.71859E-19 1.96135E-18
 -1      3478 9.55991E-05-2.87057E-05-2.86560E-05-6.81524E-06-2.01304E-18 2.00308E-18
 -1      3479 9.50127E-05-2.80422E-05-2.86948E-05-6.46786E-06-1.40756E-18 1.92203E-18
 -1      3480 9.46080E-05-2.85262E-05-2.83454E-05-7.61630E-06-1.69905E-18 1.25523E-18
 -1      3481 9.47339E-05-2.75875E-05-2.87663E-05-5.93414E-06-1.68099E-18 1.85923E-18
 -1      3482 9.43999E-05-2.72100E-05-2.87946E-05-5.53698E-06-1.61956E-18 1.25496E-18
 -1      3483 9.37656E-05-2.72445E-05-2.85227E-05-6.47308E-06-1.71544E-18 6.97340E-19
 -1      3484 9.43263E-05-2.69975E-05-2.88464E-05-5.03500E-06-6.06868E-19 9.19447E-19
 -1      3485 9.41585E-05-2.68223E-05-2.88605E-05-4.63364E-06 2.02849E-19 3.23510E-19
 -1      3486 9.34412E-05-2.65761E-05-2.86631E-05-5.39228E-06-1.22100E-18 1.59537E-18
 -1      3487 9.42034E-05-2.67712E-05-2.88925E-05-4.18264E-06-2.19952E-21 2.58539E-19
 -1      3488 9.41383E-05-2.67291E-05-2.88934E-05-3.80331E-06-7.47722E-19-8.03441E-19
 -1      3489 9.34294E-05-2.63282E-05-2.87601E-05-4.41983E-06-3.43521E-19 6.80230E-19
 -1      3490 9.42434E-05-2.67769E-05-2.89086E-05-3.40994E-06-5.62119E-20-2.08547E-20
 -1      3491 9.42370E-05-2.68153E-05-2.88994E-05-3.06690E-06 6.25169E-19 3.57329E-19
 -1      3492 9.35888E-05-2.63489E-05-2.88172E-05-3.57012E-06-1.38789E-19 6.46530E-19
 -1      3493 9.43653E-05-2.69171E-05-2.89017E-05-2.73143E-06 1.49743E-19-6.51177E-19
 -1      3494 9.43888E-05-2.69988E-05-2.88858E-05-2.43128E-06 2.51833E-19-6.26615E-19
 -1      3495 9.38271E-05-2.65259E-05-2.88422E-05-2.84306E-06-4.19967E-19 1.04671E-18
 -1      3496 9.45180E-05-2.71237E-05-2.88795E-05-2.15077E-06 6.48189E-19-8.17487E-19
 -1      3497 9.45536E-05-2.72231E-05-2.88600E-05-1.89511E-06 3.47833E-19-6.66939E-19
 -1      3498 9.40867E-05-2.67806E-05-2.88439E-05-2.23181E-06 2.52846E-19-1.63983E-18
 -1      3499 9.46712E-05-2.73509E-05-2.88484E-05-1.66452E-06-5.13048E-19-1.02993E-18
 -1      3500 9.47085E-05-2.74518E-05-2.88278E-05-1.45159E-06-2.29415E-19-1.59230E-18
 -1      3501 9.43342E-05-2.70600E-05-2.88301E-05-1.72626E-06-1.91270E-19-1.23220E-18
 -1      3502 9.48089E-05-2.75723E-05-2.88136E-05-1.26420E-06 8.93470E-20-1.76612E-18
 -1      3503 9.48458E-05-2.76656E-05-2.87937E-05-1.09229E-06 7.72537E-20-1.07971E-18
 -1      3504 9.45514E-05-2.73300E-05-2.88073E-05-1.31374E-06 1.64041E-19-1.46553E-18
 -1      3505 9.48860E-05-2.70542E-05-2.90670E-05-3.60616E-06 1.21176E-19 2.96630E-19
 -1      3506 9.50073E-05-2.71952E-05-2.90663E-05-3.27736E-06 2.57852E-19 3.40402E-19
 -1      3507 9.21320E-05-2.45272E-05-2.89673E-05-7.05101E-06 1.45116E-19 9.44440E-19
 -1      3508 9.24558E-05-2.48629E-05-2.89855E-05-6.46009E-06 2.60966E-19 8.10209E-19
 -1      3509 9.30711E-05-2.53001E-05-2.90393E-05-5.96938E-06 2.92917E-19 8.96562E-19
 -1      3510 9.33324E-05-2.56224E-05-2.90320E-05-5.46874E-06 3.74027E-19 8.83162E-19
 -1      3511 9.18174E-05-2.44639E-05-2.88514E-05-5.79351E-06 4.26462E-19 7.08924E-19
 -1      3512 8.97436E-05-2.32549E-05-2.84809E-05-9.88766E-06-1.35242E-19 7.88655E-19
 -1      3513 9.01082E-05-2.33914E-05-2.86196E-05-9.06557E-06 1.10797E-19 5.09826E-19
 -1      3514 8.85064E-05-2.32422E-05-2.79431E-05-1.18155E-05 1.54179E-19 1.09360E-18
 -1      3515 8.87275E-05-2.30379E-05-2.81857E-05-1.08232E-05 1.79728E-19 1.15502E-18
 -1      3516 8.69141E-05-2.18764E-05-2.78465E-05-9.56513E-06-1.55338E-19 1.41380E-19
 -1      3517 8.76687E-05-2.42726E-05-2.71132E-05-1.43249E-05 4.29524E-20 2.92346E-20
 -1      3518 8.74577E-05-2.34144E-05-2.74858E-05-1.30953E-05 3.20879E-19 6.93302E-19
 -1      3519 8.48117E-05-2.16510E-05-2.70427E-05-1.16450E-05 3.86433E-19 1.58655E-19
 -1      3520 8.79788E-05-2.72297E-05-2.59364E-05-1.77168E-05-3.09203E-19-3.68916E-19
 -1      3521 8.68100E-05-2.52007E-05-2.64391E-05-1.61948E-05-3.69605E-19-2.46095E-19
 -1      3522 8.27700E-05-2.24142E-05-2.58344E-05-1.46573E-05 2.40292E-19-1.98704E-19
 -1      3523 9.10447E-05-3.36407E-05-2.45121E-05-2.21970E-05-2.87687E-19-2.73234E-19
 -1      3524 8.78063E-05-2.94271E-05-2.50065E-05-2.03506E-05-2.02494E-19-3.84834E-19
 -1      3525 8.15430E-05-2.51588E-05-2.40945E-05-1.92064E-05-2.97692E-19-3.59058E-19
 -1      3526 8.81845E-05-3.54013E-05-2.24638E-05-2.62768E-05-9.44905E-19-5.53404E-19
 -1      3527 8.92317E-05-2.30250E-05-2.84038E-05 1.02669E-05 9.22061E-19 9.12542E-20
 -1      3528 8.90503E-05-2.32145E-05-2.81885E-05 1.12725E-05 1.14688E-18-5.47565E-20
 -1      3529 8.80985E-05-2.33773E-05-2.77694E-05 1.25453E-05 6.93046E-19 1.30689E-19
 -1      3530 8.83129E-05-2.41824E-05-2.74323E-05 1.37489E-05 6.85832E-20 6.19193E-19
 -1      3531 8.54454E-05-2.16308E-05-2.73201E-05 1.11868E-05 3.67565E-19-3.37593E-20
 -1      3532 8.75980E-05-2.50824E-05-2.68141E-05 1.55038E-05-4.07138E-19 4.15801E-19
 -1      3533 8.86892E-05-2.69765E-05-2.63566E-05 1.69407E-05-2.44464E-19 4.07621E-19
 -1      3534 8.36745E-05-2.24094E-05-2.62038E-05 1.42184E-05-1.21648E-19 4.51978E-19
 -1      3535 9.04696E-05-2.33546E-05-2.87881E-05 8.44764E-06 7.22039E-19 5.47030E-19
 -1      3536 9.01553E-05-2.32281E-05-2.86698E-05 9.30677E-06 5.55958E-19-1.86240E-21
 -1      3537 8.73599E-05-2.18372E-05-2.80546E-05 9.08033E-06 7.40494E-19-1.70267E-20
 -1      3538 9.15946E-05-2.39858E-05-2.89952E-05 6.93179E-06-1.17188E-19 8.66402E-19
 -1      3539 9.12769E-05-2.37198E-05-2.89454E-05 7.67617E-06 6.44912E-19 1.18979E-18
 -1      3540 8.90912E-05-2.25050E-05-2.85139E-05 7.46420E-06 4.01252E-19 9.39717E-19
 -1      3541 9.25301E-05-2.47058E-05-2.90837E-05 5.64249E-06-1.02809E-18 1.71566E-18
 -1      3542 9.22601E-05-2.43984E-05-2.90781E-05 6.28774E-06-5.07118E-19 1.61662E-18
 -1      3543 9.05522E-05-2.33524E-05-2.87812E-05 6.14267E-06-2.20640E-19 2.57272E-18
 -1      3544 9.32681E-05-2.54037E-05-2.90977E-05 4.54191E-06-1.76177E-18 1.01667E-18
 -1      3545 9.30584E-05-2.51052E-05-2.91182E-05 5.09602E-06-1.43191E-18 1.21598E-18
 -1      3546 9.17316E-05-2.42198E-05-2.89191E-05 5.02299E-06-8.91438E-19 1.26564E-18
 -1      3547 9.38303E-05-2.60283E-05-2.90684E-05 3.60889E-06-9.72081E-19-2.01808E-19
 -1      3548 9.36765E-05-2.57613E-05-2.91021E-05 4.07804E-06-1.33117E-18 6.45392E-19
 -1      3549 9.26551E-05-2.50250E-05-2.89735E-05 4.06333E-06-8.65100E-19-9.28993E-19
 -1      3550 9.42480E-05-2.65616E-05-2.90167E-05 2.82754E-06-9.83535E-19-3.79590E-19
 -1      3551 9.41398E-05-2.63339E-05-2.90555E-05 3.21853E-06-1.30062E-18-6.03982E-19
 -1      3552 9.33625E-05-2.57321E-05-2.89766E-05 3.24387E-06-1.28369E-18-1.96086E-18
 -1      3553 9.45522E-05-2.70029E-05-2.89562E-05 2.18252E-06-2.99047E-19 5.61512E-19
 -1      3554 9.44789E-05-2.68148E-05-2.89950E-05 2.50333E-06-6.68945E-19 1.57528E-19
 -1      3555 9.38951E-05-2.63308E-05-2.89505E-05 2.55228E-06-1.67001E-18-1.50473E-18
 -1      3556 9.47698E-05-2.73594E-05-2.88951E-05 1.65791E-06 1.23860E-18 4.22079E-19
 -1      3557 9.47221E-05-2.72080E-05-2.89311E-05 1.91703E-06 5.38086E-19 4.39951E-19
 -1      3558 9.42902E-05-2.68248E-05-2.89099E-05 1.97695E-06-2.05987E-19-1.38267E-19
 -1      3559 9.49228E-05-2.76435E-05-2.88384E-05 1.23941E-06 2.02224E-18 1.57850E-18
 -1      3560 9.48937E-05-2.75242E-05-2.88700E-05 1.44288E-06 1.96968E-18 1.56028E-18
 -1      3561 9.45798E-05-2.72240E-05-2.88639E-05 1.50524E-06 1.17201E-18-3.98246E-21
 -1      3562 9.50284E-05-2.78603E-05-2.87883E-05 9.04397E-07 8.83485E-19 1.45238E-18
 -1      3563 9.50094E-05-2.77680E-05-2.88152E-05 1.06597E-06 1.78962E-18 1.59992E-18
 -1      3564 9.47838E-05-2.75342E-05-2.88183E-05 1.12774E-06 1.66661E-18 1.38411E-18
 -1      3565 9.44242E-05-2.21370E-05-3.09980E-05-4.10567E-06-2.16417E-19-1.25162E-18
 -1      3566 5.73317E-05-1.75365E-05-1.65833E-05-1.83720E-05-6.28128E-20-7.93405E-19
 -1      3567 6.79490E-05-2.43112E-05-1.85599E-05-2.42536E-05-7.08914E-19-1.32635E-18
 -1      3568 5.88394E-05-1.58447E-05-1.81019E-05-1.19857E-05 1.52373E-19-2.74597E-19
 -1      3569 9.50052E-05-2.79371E-05-2.87460E-05 6.21050E-07-4.86805E-19 1.83681E-18
 -1      3570 9.50872E-05-2.80218E-05-2.87420E-05 6.24774E-07-1.02099E-18 2.66363E-18
 -1      3571 9.50858E-05-2.79918E-05-2.87541E-05 6.94877E-07-1.37167E-18 2.18541E-18
 -1      3572 9.49025E-05-2.77952E-05-2.87599E-05 6.89273E-07-9.93179E-19 2.86176E-18
 -1      3573 9.43661E-05-2.72785E-05-2.87521E-05-2.59246E-07-1.11478E-18 1.02574E-18
 -1      3574 9.43342E-05-2.72501E-05-2.87525E-05-1.22106E-07-4.28996E-19 1.18066E-18
 -1      3575 1.13841E-04-1.85466E-05-4.11524E-05 9.89654E-06-7.99308E-19 9.06246E-19
 -1      3576 8.83289E-05-2.86911E-05-2.54983E-05 1.94176E-05-7.76034E-19 4.64809E-19
 -1      3577 9.06719E-05-3.25986E-05-2.48790E-05 2.15311E-05-8.00605E-19 2.97189E-20
 -1      3578 8.24982E-05-2.50034E-05-2.46040E-05 1.86401E-05-3.67480E-19 1.83154E-20
 -1      3579 9.52596E-05-2.43011E-05-3.04071E-05 2.46852E-06 6.29704E-19-9.70000E-20
 -1      3580 9.49444E-05-2.34397E-05-3.06509E-05 2.69739E-06 6.90219E-19-2.33605E-19
 -1      3581 9.53886E-05-2.49798E-05-3.01822E-05 1.59238E-06 5.61510E-19-6.85338E-20
 -1      3582 9.10061E-05-2.37867E-05-2.87997E-05-8.33719E-06 3.53096E-19 6.97522E-19
 -1      3583 9.13780E-05-2.40767E-05-2.88648E-05-7.64217E-06 2.15740E-19 9.51106E-19
 -1      3584 9.04652E-05-2.35195E-05-2.86719E-05-6.80276E-06 1.39938E-19 5.59629E-19
 -1      3585 8.88271E-05-2.25985E-05-2.83599E-05-8.02346E-06 2.99765E-19 3.96038E-19
 -1      3586 8.67898E-05-3.51266E-05-2.22043E-05 2.66354E-05 1.07895E-18-8.30092E-19
 -1      3587 7.49086E-05-2.66184E-05-2.04149E-05 2.48011E-05 8.84044E-19-7.52006E-19
 -1      3588 9.20569E-05-1.77208E-05-3.18711E-05-9.27119E-07 4.67870E-19-1.07846E-18
 -1      3589 9.21826E-05-1.79262E-05-3.18392E-05-1.63430E-06 3.61431E-19-9.10720E-19
 -1      3590 9.31355E-05-1.95405E-05-3.15206E-05-1.58808E-06 2.86722E-19-8.84765E-19
 -1      3591 9.71483E-05-4.40185E-05-2.23480E-05-3.01175E-05 1.30088E-18 1.75211E-18
 -1      3592 1.06215E-04-4.81540E-05-2.49146E-05-2.43025E-05 1.15570E-18-8.01823E-19
 -1      3593 9.57913E-05-2.63013E-05-2.97754E-05 2.73684E-07-9.78482E-21-1.06031E-18
 -1      3594 9.58137E-05-2.67119E-05-2.96202E-05 8.10752E-07-7.43006E-20-8.40801E-19
 -1      3595 9.58277E-05-2.65902E-05-2.96728E-05 8.92231E-07-9.07521E-22-9.35604E-19
 -1      3596 9.09580E-05-3.57178E-05-2.36809E-05 2.41133E-05-4.30438E-19 8.50739E-20
 -1      3597 7.77343E-05-2.71006E-05-2.12875E-05 2.41454E-05-3.00611E-19 8.59183E-19
 -1      3598 1.23065E-04-5.33115E-05-3.01815E-05 8.85957E-06 4.20195E-19 6.19442E-19
 -1      3599 1.18382E-04-5.27326E-05-2.78685E-05 1.56846E-05 9.82724E-19 6.78368E-19
 -1      3600 6.45317E-05-1.96224E-05-1.93240E-05 1.93545E-05 3.33996E-19-2.19964E-19
 -1      3601 5.80102E-05-1.45067E-05-1.84066E-05 1.02316E-05-2.00628E-19 7.28978E-20
 -1      3602 9.55132E-05-2.50635E-05-3.01891E-05-9.67181E-07-2.38489E-20-1.08819E-18
 -1      3603 9.56545E-05-2.57396E-05-2.99709E-05-2.56408E-07 3.88239E-20-1.02248E-18
 -1      3604 9.56855E-05-2.56370E-05-3.00189E-05-6.42074E-08 1.08218E-20-9.42668E-19
 -1      3605 8.60976E-05-3.63204E-05-2.12385E-05-2.86979E-05 1.31767E-18 6.67197E-19
 -1      3606 9.56807E-05-2.72475E-05-2.93305E-05-1.63814E-06 2.17173E-19 3.27044E-19
 -1      3607 9.57262E-05-2.70502E-05-2.94266E-05-1.19539E-06 2.96255E-19 3.05094E-19
 -1      3608 1.20546E-04-4.14327E-05-3.39616E-05-8.02564E-06-3.50050E-19 3.50486E-19
 -1      3609 9.46481E-05-2.27418E-05-3.08250E-05 2.48197E-06 6.54478E-19-2.98795E-19
 -1      3610 7.20423E-05-2.28948E-05-2.09959E-05 2.06243E-05-3.37291E-19 9.27978E-19
 -1      3611 9.41936E-05-2.70851E-05-2.87573E-05-4.71694E-08-1.86615E-19 1.07748E-18
 -1      3612 9.43250E-05-2.72352E-05-2.87541E-05 4.99722E-08-8.77474E-19 4.94438E-19
 -1      3613 9.43433E-05-2.72492E-05-2.87560E-05 1.92912E-07-3.99456E-19 2.34638E-19
 -1      3614 7.24770E-05-2.32832E-05-2.10669E-05-2.11123E-05-1.07401E-19-7.03964E-19
 -1      3615 7.79927E-05-2.87144E-05-2.08553E-05-2.56381E-05-7.75194E-19-8.66171E-19
 -1      3616 5.66122E-05-1.48298E-05-1.76059E-05-1.15568E-05-5.24433E-20-1.36134E-19
 -1      3617 1.20534E-04-4.44907E-05-3.26099E-05-5.20335E-06-6.65334E-20 6.13510E-19
 -1      3618 1.21060E-04-4.74593E-05-3.16576E-05-3.25272E-07-3.86441E-19 5.14573E-20
 -1      3619 1.19468E-04-3.82860E-05-3.49063E-05 1.01334E-05 1.12776E-18 7.01449E-20
 -1      3620 1.19994E-04-4.21551E-05-3.34345E-05 7.80489E-06 1.19920E-18 6.12663E-19
 -1      3621 9.50056E-05-2.70303E-05-2.91305E-05-2.96115E-06-3.40031E-21-1.40511E-19
 -1      3622 9.52444E-05-2.73353E-05-2.91013E-05-2.98496E-06 3.32241E-19 2.23334E-20
 -1      3623 9.53393E-05-2.73874E-05-2.91230E-05-2.66128E-06 1.78524E-19 6.07300E-20
 -1      3624 9.45776E-05-2.68194E-05-2.90462E-05-3.91588E-06 1.65184E-19 8.00589E-19
 -1      3625 9.44698E-05-2.66467E-05-2.90631E-05-3.56069E-06-3.69188E-20 3.84439E-19
 -1      3626 9.44210E-05-2.66035E-05-2.90600E-05-4.28080E-06 1.66610E-19 6.98435E-19
 -1      3627 9.49363E-05-2.77708E-05-2.87837E-05-9.86551E-07 7.56577E-20-1.72865E-18
 -1      3628 9.49723E-05-2.78506E-05-2.87675E-05-8.62097E-07-8.40985E-19-1.61873E-18
 -1      3629 9.49040E-05-2.77869E-05-2.87646E-05-8.33231E-07-1.45119E-18-1.69705E-18
 -1      3630 9.47457E-05-2.75771E-05-2.87851E-05-1.02864E-06-1.11286E-19-4.99054E-19
 -1      3631 7.89353E-05-3.00694E-05-2.06835E-05-2.69562E-05 4.85304E-19-1.36624E-19
 -1      3632 9.17749E-05-3.76940E-05-2.32065E-05-2.53510E-05 1.61579E-18 5.17087E-20
 -1      3633 9.29096E-05-2.53327E-05-2.89514E-05-4.94050E-06 5.22201E-19 8.60930E-19
 -1      3634 9.38256E-05-2.60089E-05-2.90593E-05-5.05657E-06 4.18021E-19 9.28575E-19
 -1      3635 9.40289E-05-2.62865E-05-2.90426E-05-4.63227E-06 4.37854E-19 1.03827E-18
 -1      3636 9.35566E-05-2.04787E-05-3.13317E-05 7.08147E-07 4.56454E-19-6.74170E-19
 -1      3637 9.34985E-05-2.03703E-05-3.13509E-05 2.10989E-07 4.24909E-19-8.63527E-19
 -1      3638 9.28983E-05-1.91286E-05-3.15964E-05-5.25625E-07 4.20135E-19-9.82792E-19
 -1      3639 9.73263E-05-4.09328E-05-2.42504E-05 2.36201E-05 8.56913E-19 8.36577E-20
 -1      3640 9.22721E-05-3.79758E-05-2.30607E-05 2.57113E-05 1.10894E-18-7.48089E-19
 -1      3641 8.74964E-05-3.31691E-05-2.32228E-05 2.32515E-05 8.55245E-19-9.10957E-19
 -1      3642 9.45537E-05-2.74352E-05-2.87689E-05 6.22250E-07-1.97478E-19-1.92082E-18
 -1      3643 9.46628E-05-2.75229E-05-2.87721E-05 7.16981E-07-9.07819E-19-1.79597E-19
 -1      3644 5.62323E-05-1.44141E-05-1.76043E-05 9.01826E-06 5.91279E-19 1.22206E-18
 -1      3645 9.36510E-05-2.04236E-05-3.13556E-05 2.59203E-06 6.91299E-19-4.37152E-19
 -1      3646 9.50887E-05-2.79610E-05-2.87681E-05 7.76395E-07-8.06105E-19 1.99440E-18
 -1      3647 9.45040E-05-2.74078E-05-2.87538E-05-5.31626E-07-7.51399E-19 2.43168E-18
 -1      3648 9.44271E-05-2.73433E-05-2.87531E-05-4.13602E-07-1.26472E-18 1.45995E-18
 -1      3649 9.42750E-05-2.71674E-05-2.87572E-05-3.86585E-07-5.86692E-19 1.20196E-18
 -1      3650 9.49389E-05-2.77892E-05-2.87772E-05 8.30586E-07-8.30802E-21 3.40458E-18
 -1      3651 9.48330E-05-2.76896E-05-2.87782E-05 8.12526E-07 7.19813E-20 2.63390E-18
 -1      3652 9.52745E-05-2.44100E-05-3.03777E-05-1.47057E-06-1.69443E-19-1.16877E-18
 -1      3653 9.53008E-05-2.43372E-05-3.04088E-05-1.11894E-06-5.95879E-20-1.07972E-18
 -1      3654 9.50712E-05-2.37139E-05-3.05879E-05-2.16831E-06-8.68183E-20-1.20680E-18
 -1      3655 9.36697E-05-2.06770E-05-3.12913E-05 1.06657E-06 4.63909E-19-7.34708E-19
 -1      3656 9.42480E-05-2.17350E-05-3.10574E-05 6.69103E-07 4.17686E-19-6.74357E-19
 -1      3657 9.38452E-05-2.10090E-05-3.12328E-05 1.54158E-06 5.27099E-19-6.79933E-19
 -1      3658 5.75766E-05-1.35766E-05-1.86385E-05 6.43558E-06-9.01031E-20-2.42794E-19
 -1      3659 5.79558E-05-1.32850E-05-1.91153E-05 6.02827E-07 2.13631E-19-2.95403E-20
 -1      3660 6.44692E-05-1.57645E-05-2.07285E-05 8.78075E-06 3.48647E-19 7.01714E-20
 -1      3661 1.12229E-04-5.00352E-05-2.65451E-05-1.93070E-05 7.22003E-19-1.61934E-18
 -1      3662 1.15269E-04-4.94709E-05-2.81703E-05-1.27116E-05 8.23116E-19-2.34819E-18
 -1      3663 1.04834E-04-4.52725E-05-2.55523E-05-2.09126E-05 1.12268E-18-1.09537E-18
 -1      3664 7.33003E-05-2.30485E-05-2.13475E-05 1.90483E-05 8.28306E-20-3.58216E-19
 -1      3665 1.25560E-04-4.69188E-05-3.37218E-05 3.93905E-06 2.12027E-18-4.58973E-19
 -1      3666 1.24426E-04-4.19410E-05-3.55459E-05 8.92823E-06 1.65194E-18 1.86850E-19
 -1      3667 7.37715E-05-2.60883E-05-2.03319E-05-2.50313E-05 5.83063E-19-8.12040E-19
 -1      3668 8.06410E-05-2.83417E-05-2.22725E-05-2.22536E-05 6.94269E-19-2.90314E-19
 -1      3669 6.89587E-05-2.18037E-05-2.01092E-05-2.08720E-05 4.55287E-19-1.34972E-18
 -1      3670 1.19951E-04-4.94767E-05-3.02219E-05-4.91458E-06 9.13336E-19-6.89091E-19
 -1      3671 1.23410E-04-4.93498E-05-3.18276E-05-5.20613E-07 1.45613E-18 1.74545E-19
 -1      3672 9.57690E-05-2.66036E-05-2.96427E-05-8.38995E-07 3.61780E-19 2.87064E-19
 -1      3673 9.57321E-05-2.67551E-05-2.95665E-05-7.39056E-07 3.28236E-19 4.58676E-19
 -1      3674 9.57281E-05-2.63669E-05-2.97186E-05-1.54829E-07 5.86914E-19 3.83863E-19
 -1      3675 9.40208E-05-2.13508E-05-3.11482E-05-1.82325E-06 1.64278E-19-8.00271E-19
 -1      3676 9.42662E-05-2.18722E-05-3.10405E-05-2.19685E-06 2.44812E-20-9.47185E-19
 -1      3677 9.55098E-05-2.74155E-05-2.91826E-05-2.35499E-06 2.28877E-19 1.55833E-19
 -1      3678 9.55821E-05-2.73585E-05-2.92361E-05-1.99665E-06 2.24440E-19 3.27244E-19
 -1      3679 9.54052E-05-2.71877E-05-2.92357E-05-2.35487E-06 1.73755E-19-9.95717E-20
 -1      3680 9.40583E-05-2.13943E-05-3.11474E-05-3.86201E-06-1.25553E-19-1.24345E-18
 -1      3681 9.48630E-05-2.31652E-05-3.07211E-05-1.57009E-06 8.48888E-20-9.17110E-19
 -1      3682 9.44899E-05-2.23290E-05-3.09203E-05-2.31763E-06-3.42396E-20-1.11745E-18
 -1      3683 1.12045E-04-4.93838E-05-2.68312E-05 1.78143E-05 8.53545E-19 6.81074E-19
 -1      3684 1.23105E-04-5.01452E-05-3.13408E-05 2.83276E-06-2.01819E-19 2.54375E-20
 -1      3685 9.46720E-05-2.75008E-05-2.87887E-05 8.69652E-07 4.09336E-19 1.10972E-18
 -1      3686 9.56681E-05-2.70702E-05-2.93995E-05-1.67439E-06 2.16640E-19 5.16305E-20
 -1      3687 9.48369E-05-2.77297E-05-2.87619E-05-7.92573E-07-1.02572E-18-1.38307E-18
 -1      3688 9.45208E-05-2.23534E-05-3.09159E-05-2.87217E-06-9.82770E-20-1.27174E-18
 -1      3689 1.21740E-04-4.57054E-05-3.25727E-05 3.73344E-06 1.41407E-18 7.08386E-19
 -1      3690 9.47189E-05-2.75865E-05-2.87707E-05-8.62830E-07-1.27667E-18-2.06949E-19
 -1      3691 9.47370E-05-2.76310E-05-2.87581E-05-7.30353E-07-1.44484E-18-2.15961E-19
 -1      3692 9.46270E-05-2.75360E-05-2.87568E-05-6.53893E-07-9.33672E-19 1.61104E-18
 -1      3693 9.46253E-05-2.74756E-05-2.87799E-05-9.58010E-07-8.23787E-19-1.18490E-19
 -1      3694 6.77995E-05-1.86780E-05-2.08839E-05-1.63639E-05 3.13918E-19-7.76901E-19
 -1      3695 7.55501E-05-2.23353E-05-2.27313E-05-1.77014E-05-4.71824E-21-7.40770E-19
 -1      3696 7.59835E-05-2.07051E-05-2.38159E-05-1.50677E-05-3.65845E-20-2.35429E-19
 -1      3697 5.85431E-05-1.35667E-05-1.91907E-05-5.88311E-06-1.52512E-19 6.38530E-19
 -1      3698 6.24154E-05-1.69014E-05-1.94261E-05-1.52881E-05-5.08551E-19-7.11243E-19
 -1      3699 9.08824E-05-3.52495E-05-2.39064E-05-2.25349E-05 1.06014E-18-3.85532E-20
 -1      3700 9.87595E-05-4.08970E-05-2.46183E-05-2.27275E-05 1.21468E-18-4.87583E-19
 -1      3701 9.55351E-05-2.71121E-05-2.93246E-05 1.89821E-06 5.18563E-20-2.64033E-19
 -1      3702 9.53899E-05-2.71556E-05-2.92429E-05 2.19378E-06 1.13281E-19-2.05573E-19
 -1      3703 9.51517E-05-2.71242E-05-2.91569E-05 2.44675E-06 2.65965E-19-6.88098E-20
 -1      3704 9.49701E-05-2.70751E-05-2.90955E-05 2.72881E-06 3.20177E-19 1.94301E-20
 -1      3705 9.51646E-05-2.69321E-05-2.92405E-05 2.07616E-06 3.24751E-19-2.21124E-19
 -1      3706 9.46749E-05-2.69631E-05-2.90232E-05 2.99678E-06 1.08076E-19-3.64435E-20
 -1      3707 9.44788E-05-2.68657E-05-2.89728E-05 3.29244E-06 6.97763E-20-1.22914E-19
 -1      3708 9.46328E-05-2.67855E-05-2.90755E-05 2.59568E-06 1.83309E-19-1.83209E-19
 -1      3709 9.41498E-05-2.67179E-05-2.89046E-05 3.60121E-06-8.68964E-21-2.72119E-19
 -1      3710 9.39644E-05-2.66189E-05-2.88561E-05 3.93212E-06-2.28192E-19-3.86109E-19
 -1      3711 9.40094E-05-2.65078E-05-2.89275E-05 3.16856E-06-1.51807E-19-3.06072E-19
 -1      3712 9.36290E-05-2.64848E-05-2.87822E-05 4.30536E-06-3.70596E-19-4.29896E-19
 -1      3713 9.34887E-05-2.64383E-05-2.87272E-05 4.68769E-06-3.41751E-19-6.87329E-19
 -1      3714 9.33433E-05-2.61954E-05-2.87765E-05 3.84597E-06-3.28657E-19-3.60017E-19
 -1      3715 9.31840E-05-2.63763E-05-2.86382E-05 5.14803E-06-2.85233E-19-6.34583E-19
 -1      3716 9.31394E-05-2.64496E-05-2.85694E-05 5.59287E-06-4.27928E-19-7.13446E-19
 -1      3717 9.26967E-05-2.59579E-05-2.86028E-05 4.67733E-06-2.30113E-19-5.74311E-20
 -1      3718 9.29217E-05-2.65341E-05-2.84570E-05 6.16179E-06-2.91906E-19-4.84187E-19
 -1      3719 9.30471E-05-2.68130E-05-2.83698E-05 6.67218E-06-9.72672E-20-3.61082E-19
 -1      3720 9.21596E-05-2.59304E-05-2.83877E-05 5.71417E-06-8.32912E-20 1.48006E-20
 -1      3721 9.30009E-05-2.71382E-05-2.82287E-05 7.36678E-06-3.16216E-19-2.56270E-19
 -1      3722 9.34038E-05-2.77300E-05-2.81239E-05 7.93222E-06-3.69265E-19-1.53381E-19
 -1      3723 9.18677E-05-2.62861E-05-2.81161E-05 7.00674E-06-1.33063E-19 9.20001E-20
 -1      3724 9.36561E-05-2.84145E-05-2.79554E-05 8.75839E-06-6.23363E-21-3.72562E-21
 -1      3725 9.44904E-05-2.94479E-05-2.78442E-05 9.33525E-06 3.06544E-19-5.19269E-20
 -1      3726 9.20248E-05-2.72478E-05-2.77819E-05 8.59620E-06 4.21142E-20 6.11382E-20
 -1      3727 9.52487E-05-3.06626E-05-2.76622E-05 1.02800E-05 4.29157E-19-2.11336E-19
 -1      3728 9.67160E-05-3.22702E-05-2.75799E-05 1.07428E-05 4.06465E-19 1.12356E-19
 -1      3729 9.29271E-05-2.90884E-05-2.73944E-05 1.05201E-05 3.03218E-19 3.38342E-19
 -1      3730 9.82088E-05-3.40888E-05-2.74355E-05 1.16208E-05 4.90475E-19 3.54371E-19
 -1      3731 1.00468E-04-3.63566E-05-2.74437E-05 1.17869E-05 4.98355E-19 3.03045E-19
 -1      3732 9.51603E-05-3.22840E-05-2.70103E-05 1.26697E-05 5.35923E-19-2.28335E-20
 -1      3733 1.03172E-04-3.89651E-05-2.74309E-05 1.22990E-05 4.13802E-19 4.51551E-19
 -1      3734 1.06369E-04-4.16517E-05-2.76803E-05 1.16407E-05 1.12242E-19-1.62419E-19
 -1      3735 9.91333E-05-3.69473E-05-2.67726E-05 1.45991E-05 4.19988E-19-9.09105E-20
 -1      3736 1.20294E-04-3.64476E-05-3.60687E-05 1.18209E-05 7.05261E-19 2.72705E-19
 -1      3737 1.18414E-04-3.07034E-05-3.77015E-05 1.19725E-05-6.39510E-20 9.59305E-19
 -1      3738 1.09454E-04-4.40058E-05-2.80185E-05-1.07857E-05-2.67219E-19 1.46325E-19
 -1      3739 1.05971E-04-4.13176E-05-2.76091E-05-1.19621E-05-9.07591E-19 6.82726E-19
 -1      3740 1.02597E-04-3.83618E-05-2.75091E-05-1.17926E-05-1.50498E-18 1.18229E-18
 -1      3741 9.99872E-05-3.58342E-05-2.74239E-05-1.18518E-05-1.36914E-18 1.37470E-18
 -1      3742 1.01570E-04-3.91539E-05-2.68305E-05-1.47697E-05-4.43799E-19-3.51059E-19
 -1      3743 9.79403E-05-3.36470E-05-2.75282E-05-1.10884E-05-7.10908E-19 2.15304E-18
 -1      3744 9.61457E-05-3.17130E-05-2.75834E-05-1.06675E-05 5.61880E-19 1.98429E-18
 -1      3745 9.64569E-05-3.38744E-05-2.69125E-05-1.33150E-05-5.72987E-19 1.46602E-18
 -1      3746 9.50492E-05-3.02185E-05-2.77549E-05-9.70476E-06 5.00754E-19 1.66737E-18
 -1      3747 9.39421E-05-2.89115E-05-2.78588E-05-9.11248E-06-4.82894E-19 1.10353E-18
 -1      3748 9.34456E-05-2.99728E-05-2.72527E-05-1.11810E-05-1.99406E-19 1.82184E-18
 -1      3749 9.34467E-05-2.79835E-05-2.80318E-05-8.20313E-06-1.35315E-18 3.72458E-19
 -1      3750 9.28379E-05-2.71774E-05-2.81391E-05-7.58421E-06-2.11826E-18 2.59476E-19
 -1      3751 9.19608E-05-2.75313E-05-2.76389E-05-9.11962E-06-1.04591E-18-2.11388E-19
 -1      3752 9.27122E-05-2.66688E-05-2.82866E-05-6.79231E-06-1.82794E-18 6.68293E-19
 -1      3753 9.24343E-05-2.62314E-05-2.83765E-05-6.21100E-06-1.42920E-18 8.60890E-19
 -1      3754 9.14048E-05-2.61286E-05-2.79879E-05-7.32403E-06-1.74641E-18 3.05112E-19
 -1      3755 9.25222E-05-2.60151E-05-2.84904E-05-5.54660E-06-1.22944E-18 1.03678E-18
 -1      3756 9.24502E-05-2.58325E-05-2.85566E-05-5.02669E-06-3.41468E-19 1.31622E-18
 -1      3757 9.14059E-05-2.54551E-05-2.82690E-05-5.82968E-06-1.43493E-18 1.04054E-18
 -1      3758 9.26500E-05-2.58081E-05-2.86376E-05-4.47879E-06-1.44620E-19 1.17208E-18
 -1      3759 9.26966E-05-2.57909E-05-2.86806E-05-4.02617E-06-4.72087E-19 6.95806E-19
 -1      3760 9.17156E-05-2.52671E-05-2.84778E-05-4.61001E-06-3.31372E-19 6.87811E-19
 -1      3761 9.29434E-05-2.58834E-05-2.87336E-05-3.57854E-06-7.80428E-20 1.21410E-18
 -1      3762 9.30500E-05-2.59654E-05-2.87572E-05-3.19159E-06 2.18347E-19 1.38622E-18
 -1      3763 9.21736E-05-2.53838E-05-2.86218E-05-3.62269E-06 1.81135E-19 1.33784E-18
 -1      3764 9.33038E-05-2.61209E-05-2.87881E-05-2.82832E-06-7.57412E-19 1.10729E-18
 -1      3765 9.34334E-05-2.62550E-05-2.87969E-05-2.50240E-06-9.83456E-19 2.59309E-19
 -1      3766 9.26795E-05-2.56747E-05-2.87128E-05-2.82688E-06-9.67111E-19 2.58746E-19
 -1      3767 9.36713E-05-2.64369E-05-2.88114E-05-2.20950E-06-9.65528E-19-3.67880E-19
 -1      3768 9.38018E-05-2.65916E-05-2.88098E-05-1.93884E-06-6.36453E-19-6.66167E-19
 -1      3769 9.31727E-05-2.60492E-05-2.87634E-05-2.18765E-06-1.68152E-18 1.96597E-20
 -1      3770 9.40114E-05-2.67749E-05-2.88131E-05-1.70532E-06 6.15397E-20-6.51924E-19
 -1      3771 9.41298E-05-2.69288E-05-2.88050E-05-1.48329E-06 7.18532E-19-4.98282E-19
 -1      3772 9.36201E-05-2.64465E-05-2.87849E-05-1.67720E-06-1.74643E-19 5.21789E-20
 -1      3773 9.43078E-05-2.71014E-05-2.88010E-05-1.29744E-06 5.09025E-19 4.63747E-20
 -1      3774 9.44128E-05-2.72428E-05-2.87895E-05-1.11836E-06 1.90315E-19 1.04725E-19
 -1      3775 9.40050E-05-2.68285E-05-2.87870E-05-1.27192E-06 9.87116E-19 6.66770E-19
 -1      3776 8.13987E-05-2.01072E-05-2.62531E-05-1.03135E-05 2.50908E-19-5.11524E-19
 -1      3777 8.25312E-05-2.01867E-05-2.67742E-05-9.22045E-06 1.71041E-19-3.38340E-19
 -1      3778 8.43566E-05-2.06624E-05-2.72954E-05-8.44344E-06 9.15093E-20-2.35043E-19
 -1      3779 8.54031E-05-2.10160E-05-2.76337E-05-7.67671E-06 4.32367E-20-1.62210E-20
 -1      3780 8.14283E-05-1.92573E-05-2.65898E-05-7.15424E-06 2.51274E-19-3.50883E-19
 -1      3781 9.41504E-05-2.15417E-05-3.10982E-05 1.83759E-08 3.75916E-19-9.09624E-19
 -1      3782 9.34969E-05-2.03691E-05-3.13509E-05-1.71380E-07 4.21701E-19-9.36632E-19
 -1      3783 9.35522E-05-2.04712E-05-3.13321E-05-6.67782E-07 3.55701E-19-9.99208E-19
 -1      3784 8.31374E-05-2.01732E-05-2.70375E-05 8.90740E-06 1.09179E-19 5.60738E-19
 -1      3785 8.21023E-05-2.01053E-05-2.65608E-05 1.00026E-05 1.04602E-19 7.05900E-19
 -1      3786 6.17392E-05-1.61647E-05-1.93610E-05 1.40834E-05 2.29917E-19 1.18651E-18
 -1      3787 5.78772E-05-1.32118E-05-1.90674E-05 4.30053E-06 4.63138E-19 4.36460E-19
 -1      3788 8.79432E-05-2.19156E-05-2.83237E-05 6.06969E-06-2.00395E-19 1.69337E-18
 -1      3789 8.71209E-05-2.14755E-05-2.81354E-05 6.71051E-06-3.04844E-19 9.09946E-19
 -1      3790 8.57754E-05-2.09351E-05-2.78251E-05 7.30193E-06 3.02880E-19 9.26398E-19
 -1      3791 8.48224E-05-2.06066E-05-2.75180E-05 8.10115E-06 5.56073E-19 9.94949E-19
 -1      3792 8.49291E-05-2.03124E-05-2.76532E-05 5.79021E-06-3.01837E-19 2.80188E-18
 -1      3793 7.99608E-05-1.98782E-05-2.58267E-05 1.11612E-05-2.67788E-19 3.02799E-19
 -1      3794 7.89687E-05-2.03546E-05-2.51403E-05 1.29140E-05-5.54118E-19-2.08764E-20
 -1      3795 7.82545E-05-1.83375E-05-2.55856E-05 8.69133E-06-5.84210E-19 2.81440E-19
 -1      3796 8.96863E-05-2.29414E-05-2.86245E-05 5.04860E-06-2.38462E-19 2.16897E-18
 -1      3797 8.90124E-05-2.24769E-05-2.85178E-05 5.59212E-06-2.02374E-20 2.10784E-18
 -1      3798 8.73067E-05-2.14871E-05-2.81784E-05 4.89181E-06-2.50788E-19 2.29906E-18
 -1      3799 9.10636E-05-2.39164E-05-2.87925E-05 4.16695E-06 1.70322E-19 1.49977E-19
 -1      3800 9.05301E-05-2.34751E-05-2.87400E-05 4.63905E-06 6.73515E-19 1.62921E-18
 -1      3801 8.91896E-05-2.26262E-05-2.85044E-05 4.13024E-06 6.12810E-19 1.51819E-18
 -1      3802 9.21359E-05-2.47924E-05-2.88734E-05 3.39700E-06-2.79272E-19-3.64095E-20
 -1      3803 9.17239E-05-2.43971E-05-2.88554E-05 3.80758E-06-7.65515E-19-8.54666E-20
 -1      3804 9.06700E-05-2.36733E-05-2.86957E-05 3.45286E-06-4.17813E-20 1.13722E-18
 -1      3805 9.29603E-05-2.55503E-05-2.88995E-05 2.72874E-06-1.23598E-18 7.63663E-20
 -1      3806 9.26480E-05-2.52097E-05-2.89023E-05 3.08201E-06-4.23645E-19 6.26877E-19
 -1      3807 9.18243E-05-2.46000E-05-2.87976E-05 2.84458E-06-7.26328E-19 1.59506E-18
 -1      3808 9.35867E-05-2.61886E-05-2.88926E-05 2.15697E-06-1.65725E-18-5.41816E-19
 -1      3809 9.33538E-05-2.59028E-05-2.89070E-05 2.45624E-06-1.79384E-18-6.94818E-19
 -1      3810 9.27162E-05-2.53971E-05-2.88416E-05 2.30432E-06-9.23801E-19 1.54805E-18
 -1      3811 9.40574E-05-2.67140E-05-2.88675E-05 1.67564E-06 8.82141E-19-1.53059E-18
 -1      3812 9.38863E-05-2.64786E-05-2.88875E-05 1.92656E-06-6.43991E-19-1.29409E-18
 -1      3813 9.33997E-05-2.60686E-05-2.88497E-05 1.83429E-06-7.06528E-19-1.86038E-18
 -1      3814 9.44014E-05-2.71353E-05-2.88333E-05 1.27375E-06 8.25332E-19-4.09698E-20
 -1      3815 9.42825E-05-2.69476E-05-2.88556E-05 1.48599E-06 1.11808E-18-6.78588E-19
 -1      3816 9.39148E-05-2.66212E-05-2.88369E-05 1.43761E-06 7.73531E-19-1.98716E-18
 -1      3817 9.45835E-05-2.73623E-05-2.88085E-05 1.02651E-06 5.90755E-19-1.89290E-19
 -1      3818 9.56292E-05-2.69564E-05-2.94340E-05-1.67126E-06 2.32309E-19-1.70441E-19
 -1      3819 9.57262E-05-2.67998E-05-2.95379E-05-1.29630E-06 2.91123E-19-8.80430E-20
 -1      3820 9.51874E-05-2.39630E-05-3.05265E-05-1.13481E-06 3.78348E-20-8.71059E-19
 -1      3821 9.53965E-05-2.46093E-05-3.03405E-05-6.30507E-07-2.93608E-20-8.80810E-19
 -1      3822 9.49925E-05-2.34889E-05-3.06459E-05-1.08054E-06 5.33402E-20-6.63465E-19
 -1      3823 6.19508E-05-1.48900E-05-2.00206E-05-9.52646E-06 3.34307E-19-2.41034E-19
 -1      3824 1.12708E-04-2.30499E-05-3.87224E-05 1.19163E-05-7.93855E-19 1.41577E-18
 -1      3825 9.56376E-05-2.60054E-05-2.98485E-05 3.13491E-07 5.97769E-19 2.81816E-19
 -1      3826 9.55738E-05-2.55289E-05-3.00122E-05 9.79203E-07 5.23999E-19 8.65145E-20
 -1      3827 9.54332E-05-2.49083E-05-3.02281E-05 1.21380E-06 3.98135E-19-1.35739E-19
 -1      3828 9.56817E-05-2.58616E-05-2.99236E-05 1.11286E-07 4.92265E-19 3.35572E-19
 -1      3829 9.36540E-05-2.06631E-05-3.12914E-05-1.03981E-06 3.09721E-19-8.34791E-19
 -1      3830 9.38166E-05-2.09746E-05-3.12325E-05-1.49857E-06 2.09358E-19-8.18199E-19
 -1      3831 9.45080E-05-2.22965E-05-3.09320E-05-1.24590E-06 1.35015E-19-6.71303E-19
 -1      3832 9.43199E-05-2.71140E-05-2.88033E-05 9.98477E-07 4.17579E-19-3.28619E-19
 -1      3833 1.16629E-04-4.84914E-05-2.91919E-05-7.90087E-06 3.41791E-20-8.84329E-19
 -1      3834 9.43897E-05-2.72882E-05-2.87601E-05 3.59233E-07-2.15468E-19-1.13319E-19
 -1      3835 9.44577E-05-2.73437E-05-2.87631E-05 4.86537E-07 1.03873E-19-2.44821E-18
 -1      3836 9.44013E-05-2.72489E-05-2.87754E-05 6.25214E-07-1.66024E-19-1.87899E-18
 -1      3837 9.42366E-05-2.71114E-05-2.87638E-05 3.05316E-07-1.24971E-18-6.49211E-19
 -1      3838 9.51627E-05-2.38619E-05-3.05392E-05 1.67035E-06 3.31867E-19-2.28434E-19
 -1      3839 9.44681E-05-2.22971E-05-3.09457E-05 2.18270E-06 5.68513E-19-2.88137E-19
 -1      3840 9.58096E-05-2.61793E-05-2.98399E-05 5.58011E-07-7.85563E-21-7.20044E-19
 -1      3841 9.58200E-05-2.65575E-05-2.96877E-05 9.80888E-07 2.92376E-20-7.51738E-19
 -1      3842 1.12644E-04-4.84850E-05-2.77015E-05 1.42383E-05 2.42371E-19-3.42534E-19
 -1      3843 1.06246E-04-4.56716E-05-2.57141E-05 2.04581E-05 6.32538E-19 4.89792E-19
 -1      3844 1.00073E-04-4.08115E-05-2.52776E-05 2.01909E-05 3.60174E-19-6.92615E-20
 -1      3845 7.23315E-05-2.06701E-05-2.20010E-05 1.62137E-05-1.47708E-19 6.89657E-19
 -1      3846 7.95636E-05-2.62899E-05-2.29073E-05 1.95973E-05 4.61045E-19-5.41770E-19
 -1      3847 7.13940E-05-1.97766E-05-2.20312E-05 1.45758E-05-1.05482E-20-8.38298E-20
 -1      3848 1.18391E-04-4.91762E-05-2.94150E-05 6.88005E-06 2.64010E-19-9.67007E-20
 -1      3849 9.42055E-05-2.17554E-05-3.10571E-05 1.82276E-06 4.42633E-19-3.87710E-19
 -1      3850 7.84055E-05-2.04114E-05-2.48121E-05-1.31357E-05-2.10741E-20-2.93574E-19
 -1      3851 7.94462E-05-1.99675E-05-2.55764E-05-1.14767E-05 3.53034E-19-1.48864E-19
 -1      3852 7.76998E-05-1.83517E-05-2.53414E-05-8.77135E-06 7.56126E-20-4.06086E-19
 -1      3853 7.34916E-05-1.79273E-05-2.36225E-05-1.13205E-05 1.31786E-20-2.23253E-19
 -1      3854 9.06867E-05-2.37689E-05-2.86807E-05-5.27506E-06 4.63499E-19 3.85679E-19
 -1      3855 9.13074E-05-2.42469E-05-2.87555E-05-4.85721E-06 8.52803E-19 6.43743E-19
 -1      3856 9.56072E-05-2.52039E-05-3.01733E-05-2.56591E-07-2.54945E-20-8.32080E-19
 -1      3857 9.57391E-05-2.58073E-05-2.99748E-05 2.67904E-07-4.76023E-20-7.77651E-19
 -1      3858 9.57267E-05-2.57518E-05-2.99830E-05 3.70277E-07-1.71965E-20-3.69607E-19
 -1      3859 9.54787E-05-2.47990E-05-3.02885E-05-2.86380E-07 2.01098E-20-5.43250E-19
 -1      3860 9.57764E-05-2.68340E-05-2.95457E-05 1.29021E-06 1.99974E-19-6.48488E-19
 -1      3861 9.56915E-05-2.70167E-05-2.94340E-05 1.63194E-06 1.30460E-19-2.99306E-19
 -1      3862 9.57591E-05-2.64548E-05-2.96989E-05 9.79346E-07 1.03551E-19-3.19069E-19
 -1      3863 1.12753E-04-4.67063E-05-2.83197E-05 1.04111E-05-7.37845E-22-3.21112E-19
 -1      3864 9.40152E-05-2.69158E-05-2.87578E-05-1.56163E-07 2.30048E-19 2.68412E-18
 -1      3865 9.40010E-05-2.69046E-05-2.87594E-05 2.61386E-08-3.22194E-19 1.71286E-18
 -1      3866 6.09453E-05-1.34471E-05-2.01556E-05-7.35261E-07-2.46050E-19 1.28352E-18
 -1      3867 6.54598E-05-1.48517E-05-2.16392E-05-4.49361E-06-1.60726E-18 6.28876E-19
 -1      3868 6.46588E-05-1.44755E-05-2.15736E-05 4.26725E-06-1.84408E-19 9.55361E-19
 -1      3869 1.03710E-04-4.28415E-05-2.60548E-05-1.83210E-05 5.29409E-19-8.60519E-19
 -1      3870 1.04541E-04-4.26008E-05-2.67020E-05 1.61569E-05 2.96925E-20-5.18263E-19
 -1      3871 1.08985E-04-4.40623E-05-2.76951E-05 1.21543E-05 1.74502E-19-4.86941E-19
 -1      3872 7.46025E-05-1.98524E-05-2.33761E-05 1.14686E-05 6.14033E-19-4.02020E-19
 -1      3873 6.84819E-05-1.70953E-05-2.20255E-05 1.01389E-05 5.00301E-19 2.01471E-19
 -1      3874 9.47677E-05-2.67752E-05-2.91396E-05-2.80986E-06-1.57030E-19 6.86578E-20
 -1      3875 9.50054E-05-2.69119E-05-2.91858E-05-2.51777E-06-2.61085E-20-1.18405E-19
 -1      3876 8.89701E-05-2.26851E-05-2.84101E-05-6.11602E-06 2.07898E-19 2.68970E-19
 -1      3877 8.97331E-05-2.31895E-05-2.85388E-05-5.62764E-06 2.77595E-19 3.57861E-19
 -1      3878 8.93928E-05-2.29613E-05-2.84478E-05-4.63096E-06 6.05406E-19 1.03042E-20
 -1      3879 9.44079E-05-2.72592E-05-2.87760E-05-9.37476E-07-6.89598E-19-1.16336E-19
 -1      3880 9.37809E-05-2.60712E-05-2.90117E-05-4.20705E-06 1.87861E-19 1.16525E-18
 -1      3881 9.42480E-05-2.17327E-05-3.10574E-05-6.41774E-07 1.85866E-19-8.22362E-19
 -1      3882 9.10881E-05-2.40892E-05-2.86972E-05-4.06118E-06 6.81095E-19-7.81351E-20
 -1      3883 9.20760E-05-2.47653E-05-2.88482E-05-4.55228E-06 6.63586E-19 3.27801E-19
 -1      3884 9.25722E-05-2.51827E-05-2.88927E-05-4.18860E-06 5.45879E-19 4.83715E-19
 -1      3885 9.40757E-05-2.62998E-05-2.90464E-05-3.34459E-06-2.20174E-19 3.18253E-19
 -1      3886 9.43857E-05-2.65464E-05-2.90795E-05-3.04792E-06-2.02221E-19-7.28059E-20
 -1      3887 9.44065E-05-2.64319E-05-2.91264E-05-2.60063E-06-1.40539E-19 4.02436E-20
 -1      3888 9.45690E-05-2.25494E-05-3.08755E-05 1.61346E-07 3.15262E-19-7.93181E-19
 -1      3889 9.45677E-05-2.25477E-05-3.08755E-05-1.26188E-07 2.50051E-19-9.90637E-19
 -1      3890 6.96457E-05-1.96800E-05-2.12695E-05-1.56785E-05-5.87259E-19-1.12409E-18
 -1      3891 8.19392E-05-1.91984E-05-2.68356E-05 6.95936E-06-5.91509E-20 1.36658E-18
 -1      3892 7.31434E-05-1.91342E-05-2.31340E-05 1.36529E-05-9.95131E-20 4.37830E-19
 -1      3893 9.53397E-05-2.45068E-05-3.03618E-05 1.03603E-06 3.55568E-19-1.25108E-19
 -1      3894 7.03886E-05-1.65764E-05-2.28997E-05 9.78608E-06-5.74212E-19 9.86413E-20
 -1      3895 1.11604E-04-4.59317E-05-2.81056E-05-1.10688E-05 1.95008E-19-6.13505E-19
 -1      3896 9.48353E-05-2.31252E-05-3.07373E-05-8.60713E-07 1.29318E-19-5.66454E-19
 -1      3897 9.55579E-05-2.68543E-05-2.94419E-05 1.55624E-06 1.39526E-19-3.42992E-19
 -1      3898 9.44737E-05-2.73595E-05-2.87624E-05-6.76429E-07-1.40728E-18 1.10400E-18
 -1      3899 9.46718E-05-2.26590E-05-3.08470E-05 1.21963E-06 3.75441E-19-4.86848E-19
 -1      3900 6.73724E-05-1.58437E-05-2.21464E-05 6.19101E-06 6.85279E-19-6.83880E-20
 -1      3901 9.57764E-05-2.65417E-05-2.96768E-05-9.49009E-07 3.56909E-19 6.29050E-20
 -1      3902 9.57784E-05-2.61774E-05-2.98252E-05-4.74836E-07 4.49126E-19 6.86485E-20
 -1      3903 9.57276E-05-2.64087E-05-2.97053E-05-9.62611E-07 4.21094E-19-1.54251E-19
 -1      3904 8.68725E-05-2.15992E-05-2.79756E-05-7.12981E-06 2.50162E-19 1.64880E-19
 -1      3905 8.77867E-05-2.20769E-05-2.81889E-05-6.53776E-06 2.73401E-19 5.17638E-20
 -1      3906 8.72894E-05-2.17289E-05-2.80667E-05-5.27668E-06 2.17307E-19 5.91095E-20
 -1      3907 6.55998E-05-1.52651E-05-2.14768E-05-4.50648E-06 3.32533E-19-1.27902E-19
 -1      3908 8.07441E-05-2.68517E-05-2.30693E-05-1.98707E-05 7.45576E-19 2.68668E-19
 -1      3909 8.53847E-05-3.06264E-05-2.34053E-05-2.16043E-05 5.43719E-19-3.24751E-20
 -1      3910 9.41432E-05-2.69756E-05-2.87881E-05 8.02605E-07 2.46742E-19-1.84094E-18
 -1      3911 9.39440E-05-2.67149E-05-2.88084E-05 1.04967E-06 7.14721E-19-1.45928E-18
 -1      3912 9.40270E-05-2.68802E-05-2.87798E-05 6.47714E-07 2.51228E-19-2.22010E-18
 -1      3913 9.12462E-05-3.37722E-05-2.46348E-05-1.98903E-05 7.31320E-19 1.32491E-19
 -1      3914 8.60282E-05-3.02454E-05-2.37864E-05 2.02874E-05 6.36645E-19-7.32144E-19
 -1      3915 8.32699E-05-2.67754E-05-2.41820E-05 1.70532E-05 5.52107E-19-5.05467E-19
 -1      3916 9.40653E-05-2.69703E-05-2.87585E-05-3.69682E-07 4.64293E-19 5.44377E-19
 -1      3917 9.38750E-05-2.67599E-05-2.87599E-05-3.04854E-07 5.05554E-19 2.36805E-18
 -1      3918 9.41412E-05-2.70346E-05-2.87600E-05-5.33223E-07-1.33635E-20 1.46482E-18
 -1      3919 9.52853E-05-2.70103E-05-2.92617E-05-2.26984E-06 1.56513E-19-2.61511E-19
 -1      3920 9.54556E-05-2.70158E-05-2.93316E-05-1.95411E-06 1.98734E-19-1.79358E-19
 -1      3921 9.55063E-05-2.67661E-05-2.94570E-05-1.59616E-06 3.37116E-19-3.83103E-19
 -1      3922 9.50589E-05-2.67512E-05-2.92709E-05-2.12508E-06-9.34538E-21-2.45400E-19
 -1      3923 9.46912E-05-2.28305E-05-3.08137E-05 6.06765E-07 4.24901E-19-7.92799E-19
 -1      3924 9.46082E-05-2.26309E-05-3.08554E-05 3.44489E-07 3.87121E-19-6.90908E-19
 -1      3925 9.50227E-05-2.34739E-05-3.06446E-05 1.56035E-07 3.39714E-19-7.45688E-19
 -1      3926 8.46762E-05-2.04558E-05-2.74816E-05-6.06603E-06 1.22153E-19 1.50689E-19
 -1      3927 9.01892E-05-3.33438E-05-2.44844E-05 2.02872E-05 7.34565E-19-5.73759E-19
 -1      3928 9.75711E-05-3.80623E-05-2.54349E-05 1.90030E-05 2.32666E-19-1.64821E-19
 -1      3929 8.88967E-05-2.25741E-05-2.84390E-05 3.06328E-06 8.77837E-20 1.91359E-18
 -1      3930 8.80485E-05-2.20204E-05-2.83085E-05 3.35616E-06 1.11925E-19 1.63299E-18
 -1      3931 6.67154E-05-1.47137E-05-2.21561E-05 1.50700E-06 2.15998E-19-1.24236E-19
 -1      3932 6.96564E-05-1.63158E-05-2.29221E-05-7.32781E-06 2.32822E-19 9.61779E-20
 -1      3933 7.24235E-05-1.66716E-05-2.39957E-05-5.97007E-06-9.29552E-20 2.31491E-19
 -1      3934 7.10763E-05-1.63189E-05-2.33970E-05 2.83458E-06 4.42438E-19 5.42389E-20
 -1      3935 9.46000E-05-2.66531E-05-2.91248E-05 2.09408E-06 4.68053E-19-6.95196E-19
 -1      3936 9.43044E-05-2.65269E-05-2.90455E-05 2.35659E-06 2.33279E-19-4.70977E-19
 -1      3937 9.38839E-05-2.63362E-05-2.89554E-05 2.60547E-06-1.57391E-19-2.78502E-19
 -1      3938 9.35537E-05-2.61598E-05-2.88791E-05 2.90566E-06-1.87671E-19-4.64032E-19
 -1      3939 9.38723E-05-2.61940E-05-2.90007E-05 2.08825E-06 1.62211E-19-6.56859E-19
 -1      3940 9.30753E-05-2.59313E-05-2.87841E-05 3.21950E-06-1.56000E-19-3.32663E-19
 -1      3941 9.27376E-05-2.57548E-05-2.87007E-05 3.58286E-06-2.81045E-19-7.42288E-20
 -1      3942 9.29770E-05-2.57414E-05-2.88103E-05 2.63207E-06-1.05465E-19-1.76217E-19
 -1      3943 9.22232E-05-2.55391E-05-2.85891E-05 3.99174E-06-1.85115E-19 1.56082E-19
 -1      3944 9.19149E-05-2.54198E-05-2.84885E-05 4.44435E-06 5.36826E-20 1.92583E-19
 -1      3945 9.19847E-05-2.52454E-05-2.85970E-05 3.33416E-06 5.64946E-20 1.28900E-19
 -1      3946 9.13936E-05-2.52767E-05-2.83481E-05 4.98711E-06-2.11113E-19-2.05144E-19
 -1      3947 9.11714E-05-2.52901E-05-2.82207E-05 5.55833E-06-2.67600E-19-3.25347E-20
 -1      3948 9.09445E-05-2.48169E-05-2.83361E-05 4.25957E-06-1.93115E-19 2.13915E-19
 -1      3949 9.06916E-05-2.52985E-05-2.80394E-05 6.27791E-06-1.23254E-19-3.18762E-19
 -1      3950 9.06400E-05-2.55407E-05-2.78785E-05 6.99705E-06-5.93709E-22-4.43668E-19
 -1      3951 8.99330E-05-2.45898E-05-2.80018E-05 5.50382E-06-4.64803E-19-5.92905E-19
 -1      3952 9.02751E-05-2.58006E-05-2.76459E-05 7.94914E-06 2.62298E-19-6.36354E-19
 -1      3953 9.05076E-05-2.63996E-05-2.74500E-05 8.84823E-06 2.27696E-19-2.90532E-19
 -1      3954 8.90602E-05-2.47393E-05-2.75691E-05 7.16884E-06 1.73613E-20-7.74459E-19
 -1      3955 9.04020E-05-2.70444E-05-2.71624E-05 1.00430E-05 4.19242E-19-4.31644E-19
 -1      3956 9.11216E-05-2.81893E-05-2.69481E-05 1.11757E-05 4.69852E-19-2.62744E-19
 -1      3957 8.85687E-05-2.55585E-05-2.70188E-05 9.40380E-06 3.95643E-19-8.01885E-19
 -1      3958 9.32054E-05-3.25458E-05-2.59148E-05 1.58259E-05 7.99464E-19-2.23196E-19
 -1      3959 9.57626E-05-3.52968E-05-2.58158E-05 1.68511E-05 5.34552E-19-1.15091E-19
 -1      3960 8.44634E-05-2.01407E-05-2.75961E-05 3.99785E-06 4.62852E-19 1.39426E-18
 -1      3961 8.30999E-05-1.95334E-05-2.72614E-05 4.37419E-06-1.12870E-19 2.16847E-18
 -1      3962 9.50217E-05-2.34773E-05-3.06439E-05-1.21473E-07 1.46516E-19-9.83742E-19
 -1      3963 9.46064E-05-2.26313E-05-3.08551E-05-3.07377E-07 2.28405E-19-9.65909E-19
 -1      3964 9.46957E-05-2.28100E-05-3.08164E-05-5.81442E-07 1.28493E-19-7.37920E-19
 -1      3965 1.07479E-04-4.46375E-05-2.69501E-05-1.57005E-05 2.50381E-19-1.44919E-18
 -1      3966 9.40675E-05-3.29478E-05-2.61815E-05-1.51725E-05-1.55376E-19 6.34236E-19
 -1      3967 9.21677E-05-3.05538E-05-2.63711E-05-1.38844E-05-8.77705E-20 1.87628E-18
 -1      3968 9.14816E-05-2.90255E-05-2.67229E-05-1.21722E-05-4.04459E-19 9.90878E-19
 -1      3969 9.04089E-05-2.75506E-05-2.69407E-05-1.09992E-05-8.11814E-19 3.83874E-19
 -1      3970 8.87465E-05-2.81252E-05-2.60264E-05-1.37330E-05-4.39364E-19 3.32137E-19
 -1      3971 9.02969E-05-2.66301E-05-2.72511E-05-9.59307E-06-1.18575E-18 9.51529E-20
 -1      3972 8.98190E-05-2.57783E-05-2.74559E-05-8.58468E-06-1.58616E-18-3.98526E-19
 -1      3973 8.80716E-05-2.57076E-05-2.67469E-05-1.04373E-05-1.03972E-18-5.72418E-19
 -1      3974 9.00263E-05-2.53215E-05-2.77072E-05-7.48922E-06-1.36659E-18-2.19868E-19
 -1      3975 8.99151E-05-2.48975E-05-2.78768E-05-6.65944E-06-1.43476E-18 2.30812E-19
 -1      3976 8.82649E-05-2.44747E-05-2.73447E-05-7.87142E-06-1.31431E-18-2.51424E-19
 -1      3977 9.02774E-05-2.47486E-05-2.80684E-05-5.81974E-06-2.15374E-18 3.20289E-19
 -1      3978 9.03761E-05-2.46087E-05-2.81979E-05-5.15061E-06-1.10732E-18 3.76335E-19
 -1      3979 8.88871E-05-2.39962E-05-2.78098E-05-5.92841E-06-1.27117E-18-1.16134E-18
 -1      3980 9.07994E-05-2.46565E-05-2.83371E-05-4.50956E-06-2.58164E-19 3.60496E-22
 -1      3981 9.10067E-05-2.46966E-05-2.84294E-05-3.97378E-06-3.11835E-19 8.55637E-20
 -1      3982 8.97006E-05-2.39972E-05-2.81547E-05-4.46586E-06-7.46465E-19-3.28909E-19
 -1      3983 9.14359E-05-2.48616E-05-2.85256E-05-3.48422E-06 3.39293E-19 4.80756E-19
 -1      3984 9.16880E-05-2.50073E-05-2.85868E-05-3.05608E-06 6.53499E-19 9.63036E-19
 -1      3985 9.05672E-05-2.42897E-05-2.83993E-05-3.36441E-06 1.43001E-19-3.79165E-19
 -1      3986 9.20912E-05-2.52333E-05-2.86494E-05-2.68167E-06-6.92767E-19 1.63340E-20
 -1      3987 9.23487E-05-2.54325E-05-2.86863E-05-2.33991E-06-2.12671E-18-1.92964E-19
 -1      3988 9.14058E-05-2.47424E-05-2.85643E-05-2.53254E-06-6.83160E-19-9.39677E-19
 -1      3989 9.27088E-05-2.56807E-05-2.87238E-05-2.05319E-06-1.92847E-18 9.29779E-19
 -1      3990 9.29488E-05-2.58979E-05-2.87427E-05-1.78092E-06-1.54625E-18 8.48566E-19
 -1      3991 9.21710E-05-2.52644E-05-2.86687E-05-1.90246E-06-1.26815E-18 3.83781E-19
 -1      3992 9.32598E-05-2.61456E-05-2.87621E-05-1.56047E-06-9.47275E-19 2.28275E-18
 -1      3993 9.34701E-05-2.63577E-05-2.87686E-05-1.34823E-06 6.90160E-19 2.32704E-18
 -1      3994 9.28411E-05-2.57951E-05-2.87284E-05-1.42220E-06-6.94385E-19 3.92064E-18
 -1      3995 9.37286E-05-2.65804E-05-2.87761E-05-1.17391E-06 8.34836E-19 1.69032E-18
 -1      3996 9.39065E-05-2.67750E-05-2.87740E-05-1.00449E-06 7.56361E-19 1.66501E-18
 -1      3997 9.34010E-05-2.62893E-05-2.87574E-05-1.05593E-06 2.39646E-19 3.74031E-18
 -1      3998 9.42445E-05-2.71196E-05-2.87701E-05-8.06350E-07-2.09088E-19 1.27883E-18
 -1      3999 1.01331E-04-4.05746E-05-2.60572E-05-1.76874E-05 3.79219E-19-8.35189E-19
 -1      4000 8.28598E-05-1.97145E-05-2.70824E-05-4.47856E-06 3.16322E-19 2.24726E-19
 -1      4001 8.43526E-05-2.03728E-05-2.74500E-05-4.15818E-06 2.91680E-20 2.54248E-19
 -1      4002 6.94826E-05-1.76939E-05-2.21810E-05-1.13785E-05-1.43514E-18-1.02621E-18
 -1      4003 7.48734E-05-2.20524E-05-2.26511E-05-1.66727E-05-1.11426E-18-1.27719E-18
 -1      4004 8.69481E-05-2.13993E-05-2.81127E-05 3.51945E-06-3.33213E-20 1.78502E-18
 -1      4005 8.58702E-05-2.08054E-05-2.78994E-05 3.83874E-06 1.91810E-19 1.66178E-18
 -1      4006 8.44483E-05-2.00612E-05-2.75545E-05 2.52705E-06 5.34680E-19 1.21083E-18
 -1      4007 8.69037E-05-2.13553E-05-2.80628E-05 2.38293E-06 1.96141E-19 1.10959E-18
 -1      4008 7.70757E-05-1.75300E-05-2.55881E-05 5.33468E-06-1.01279E-18 5.76589E-19
 -1      4009 7.48214E-05-1.71279E-05-2.48026E-05 6.27149E-06-1.31062E-18 6.37963E-20
 -1      4010 9.04259E-05-2.36357E-05-2.86360E-05 2.61789E-06-5.02382E-19 1.70823E-18
 -1      4011 8.97629E-05-2.31377E-05-2.85613E-05 2.89162E-06-7.56498E-21 1.83721E-18
 -1      4012 8.88342E-05-2.25417E-05-2.83891E-05 2.17651E-06-6.77436E-20 2.34043E-18
 -1      4013 9.16216E-05-2.45690E-05-2.87462E-05 2.19111E-06-1.04095E-18 1.85450E-18
 -1      4014 9.11077E-05-2.41337E-05-2.87083E-05 2.44369E-06-1.04595E-18 1.47424E-18
 -1      4015 9.03565E-05-2.36062E-05-2.85906E-05 1.92436E-06-6.27933E-19 2.38149E-18
 -1      4016 9.25509E-05-2.53704E-05-2.87993E-05 1.79498E-06-3.28467E-19 2.82226E-19
 -1      4017 9.21561E-05-2.49987E-05-2.87850E-05 2.02257E-06-7.49574E-19 1.04159E-18
 -1      4018 9.15540E-05-2.45409E-05-2.87074E-05 1.65034E-06-3.63397E-19 6.64938E-19
 -1      4019 9.32673E-05-2.60445E-05-2.88161E-05 1.43932E-06 3.58559E-19-1.01396E-18
 -1      4020 9.29666E-05-2.57317E-05-2.88163E-05 1.63885E-06 2.67929E-19 1.00491E-19
 -1      4021 9.24904E-05-2.53456E-05-2.87676E-05 1.37716E-06 7.02969E-19-4.50658E-19
 -1      4022 9.37394E-05-2.65235E-05-2.88107E-05 1.15524E-06 1.14040E-18-1.77752E-18
 -1      4023 9.35085E-05-2.62642E-05-2.88182E-05 1.32165E-06 7.22230E-19-2.07600E-18
 -1      4024 9.31264E-05-2.59400E-05-2.87891E-05 1.13412E-06 1.21521E-18-8.39568E-19
 -1      4025 9.35583E-05-2.63774E-05-2.87917E-05 9.28440E-07 9.03237E-19-2.22081E-18
 -1      4026 9.80944E-05-3.71430E-05-2.60432E-05-1.68981E-05 1.68156E-19 1.21968E-20
 -1      4027 9.31893E-05-2.56191E-05-2.89586E-05-3.91554E-06 1.91994E-19 5.37745E-19
 -1      4028 9.35839E-05-2.59592E-05-2.89904E-05-3.59287E-06-9.45637E-20 2.37902E-19
 -1      4029 9.35451E-05-2.58570E-05-2.90010E-05-3.06392E-06-1.69849E-19-3.55137E-19
 -1      4030 9.24513E-05-2.50650E-05-2.88684E-05-3.54683E-06 4.18148E-19-2.47229E-19
 -1      4031 9.56853E-05-2.56972E-05-3.00003E-05-3.49679E-08 3.68258E-19 7.13193E-20
 -1      4032 9.55972E-05-2.52603E-05-3.01376E-05 4.53071E-07 3.74199E-19-7.98520E-20
 -1      4033 9.52933E-05-2.42930E-05-3.04281E-05 8.22470E-07 3.22316E-19-3.07591E-19
 -1      4034 9.56787E-05-2.56132E-05-3.00248E-05-1.77419E-07 4.20495E-19-2.29943E-19
 -1      4035 8.12733E-05-1.88433E-05-2.68002E-05 4.55702E-06-1.05457E-18 1.65961E-18
 -1      4036 7.95438E-05-1.82692E-05-2.62869E-05 5.07619E-06-8.13892E-19 7.99596E-19
 -1      4037 7.71671E-05-1.72140E-05-2.56113E-05 2.69825E-06-1.20905E-18 1.46044E-18
 -1      4038 9.51813E-05-2.67906E-05-2.93134E-05 1.63277E-06 1.52414E-19-3.89289E-19
 -1      4039 9.49433E-05-2.67604E-05-2.92210E-05 1.88348E-06 3.14122E-19-4.83260E-19
 -1      4040 9.46326E-05-2.65099E-05-2.91916E-05 1.64344E-06 2.05121E-19-4.34668E-19
 -1      4041 7.97786E-05-2.42682E-05-2.37238E-05-1.62025E-05-9.60429E-19-6.69265E-19
 -1      4042 9.27891E-05-3.36880E-05-2.53660E-05-1.79870E-05 4.86633E-19 4.30313E-19
 -1      4043 9.39543E-05-2.68415E-05-2.87639E-05 2.36583E-07-9.71974E-19-3.44350E-19
 -1      4044 9.40040E-05-2.68844E-05-2.87691E-05 4.16484E-07-7.97800E-19-1.31121E-18
 -1      4045 9.37297E-05-2.65696E-05-2.87786E-05 5.87492E-07 3.14924E-19-2.88009E-18
 -1      4046 9.37685E-05-2.66437E-05-2.87636E-05 1.28193E-07-4.57008E-19 1.46153E-18
 -1      4047 9.57401E-05-2.61468E-05-2.98273E-05 6.56959E-07 9.91230E-20-5.14604E-19
 -1      4048 9.57005E-05-2.64549E-05-2.96796E-05 9.63377E-07 1.59258E-19-4.75547E-19
 -1      4049 7.11884E-05-1.61471E-05-2.35828E-05 5.42910E-06-7.23459E-19 3.21398E-19
 -1      4050 9.51540E-05-2.38775E-05-3.05559E-05 8.54436E-07 2.69852E-19-4.60752E-19
 -1      4051 9.48517E-05-2.31473E-05-3.07275E-05 7.02281E-07 3.19219E-19-7.66673E-19
 -1      4052 9.51966E-05-2.39057E-05-3.05358E-05 3.44849E-07 3.02112E-19-8.07029E-19
 -1      4053 9.54195E-05-2.46574E-05-3.03295E-05 2.96455E-07 3.05101E-19-4.23218E-19
 -1      4054 9.55819E-05-2.66569E-05-2.95411E-05 1.17018E-06 2.50484E-19-4.43110E-19
 -1      4055 9.54264E-05-2.67695E-05-2.94260E-05 1.43581E-06 2.06211E-19-4.62685E-19
 -1      4056 9.52185E-05-2.65992E-05-2.94044E-05 1.24667E-06 2.37403E-19-5.54514E-19
 -1      4057 8.64187E-05-2.80756E-05-2.51419E-05 1.58718E-05 5.19158E-19-3.37415E-19
 -1      4058 8.13285E-05-2.40273E-05-2.44747E-05 1.43787E-05 4.56078E-19-2.92637E-19
 -1      4059 7.79445E-05-2.14289E-05-2.42713E-05 1.20125E-05 3.46954E-19-2.27561E-19
 -1      4060 7.52618E-05-1.87423E-05-2.42170E-05 8.05285E-06 6.50409E-19-7.52490E-19
 -1      4061 8.17382E-05-2.28049E-05-2.52034E-05 1.11411E-05 3.02099E-19-2.62332E-19
 -1      4062 9.51663E-05-2.38621E-05-3.05509E-05-4.96866E-07 7.32818E-20-6.56304E-19
 -1      4063 7.89547E-05-1.83483E-05-2.60171E-05-5.06886E-06 2.79422E-19 1.01603E-19
 -1      4064 8.08838E-05-1.89686E-05-2.65826E-05-4.59024E-06 4.91106E-19 5.47030E-19
 -1      4065 8.10867E-05-1.88873E-05-2.65912E-05-2.52820E-06 1.87086E-19 6.24320E-19
 -1      4066 8.74785E-05-2.92680E-05-2.49082E-05-1.71431E-05 2.31941E-19 6.18959E-19
 -1      4067 9.07953E-05-2.98405E-05-2.60727E-05 1.41071E-05 5.79086E-19-3.87782E-19
 -1      4068 6.97863E-05-1.57334E-05-2.32641E-05-3.02178E-06-1.03614E-18 6.88721E-19
 -1      4069 6.91696E-05-1.62685E-05-2.25784E-05-7.60517E-06-1.01508E-18-6.29203E-20
 -1      4070 7.39540E-05-1.83537E-05-2.37820E-05-8.84267E-06-1.45241E-18-5.18573E-19
 -1      4071 7.49652E-05-1.73338E-05-2.47494E-05-5.92469E-06-1.54508E-19 5.06178E-19
 -1      4072 7.70035E-05-1.77171E-05-2.54735E-05-5.08343E-06 2.22810E-19 1.21494E-19
 -1      4073 7.72873E-05-1.74799E-05-2.55302E-05-2.32422E-06 2.48070E-19 1.29463E-18
 -1      4074 7.30927E-05-1.62103E-05-2.42569E-05-1.73617E-06 9.99168E-20 8.65113E-19
 -1      4075 8.67076E-05-2.58427E-05-2.60924E-05 1.20031E-05 6.09812E-19-8.39595E-19
 -1      4076 8.95457E-05-2.80930E-05-2.63208E-05 1.27582E-05 4.19338E-19-4.22529E-19
 -1      4077 8.12924E-05-1.86742E-05-2.67802E-05 2.61710E-06-6.93435E-19 1.72134E-18
 -1      4078 9.52649E-05-2.42455E-05-3.04450E-05 1.24622E-07 3.44812E-19-6.96100E-19
 -1      4079 9.52289E-05-2.41667E-05-3.04634E-05 2.49945E-08 3.42707E-19-7.27176E-19
 -1      4080 8.82970E-05-2.23996E-05-2.82526E-05-3.70162E-06 5.96273E-19 1.50352E-19
 -1      4081 8.92541E-05-2.29959E-05-2.84115E-05-3.46537E-06 4.91975E-19 8.10252E-20
 -1      4082 9.02435E-05-2.36051E-05-2.85665E-05-3.35149E-06 3.81374E-19 6.47814E-20
 -1      4083 9.10060E-05-2.41346E-05-2.86732E-05-3.13302E-06 6.05302E-19-1.60652E-20
 -1      4084 8.93647E-05-2.30508E-05-2.83949E-05-2.47123E-06 4.27770E-19 1.29876E-19
 -1      4085 9.40369E-05-2.69012E-05-2.87707E-05-8.12058E-07 5.56907E-19 9.02155E-19
 -1      4086 9.40776E-05-2.61824E-05-2.91009E-05-2.28201E-06-2.88802E-19-1.77319E-19
 -1      4087 9.44602E-05-2.64061E-05-2.91700E-05-2.06275E-06-2.66848E-19-2.26279E-19
 -1      4088 8.36845E-05-2.62990E-05-2.46186E-05-1.61228E-05-5.12511E-19-8.67514E-19
 -1      4089 8.59837E-05-2.67443E-05-2.53515E-05-1.44601E-05-6.39423E-19-8.73459E-19
 -1      4090 8.53583E-05-2.52489E-05-2.57797E-05-1.25398E-05-9.11037E-19-1.35062E-18
 -1      4091 7.85851E-05-2.19357E-05-2.42941E-05-1.29809E-05-1.98545E-18-1.69945E-18
 -1      4092 9.37901E-05-2.66817E-05-2.87625E-05-7.11308E-07 5.24062E-19 1.93921E-18
 -1      4093 9.55827E-05-2.63680E-05-2.96590E-05 8.54291E-07 1.72271E-19-7.82538E-19
 -1      4094 9.56773E-05-2.63882E-05-2.96998E-05-9.68202E-07 5.49989E-19-4.58420E-19
 -1      4095 9.57232E-05-2.60843E-05-2.98458E-05-6.19170E-07 5.33761E-19-3.29880E-19
 -1      4096 9.54705E-05-2.48038E-05-3.02735E-05 3.34981E-08 3.32858E-19-6.42419E-19
 -1      4097 9.52379E-05-2.41758E-05-3.04627E-05 1.99351E-08 2.25052E-19-9.50714E-19
 -1      4098 9.52763E-05-2.42711E-05-3.04413E-05-8.51001E-08 1.25978E-19-9.04906E-19
 -1      4099 9.53786E-05-2.44958E-05-3.03792E-05-1.45483E-07 4.03118E-20-5.77190E-19
 -1      4100 9.57207E-05-2.58271E-05-2.99585E-05 4.83476E-07 1.07538E-19-4.95216E-19
 -1      4101 9.56788E-05-2.58241E-05-2.99333E-05 4.80321E-07 1.55868E-19-8.06446E-19
 -1      4102 9.56618E-05-2.54479E-05-3.00967E-05 1.74832E-07 7.79379E-20-5.64471E-19
 -1      4103 7.09248E-05-1.53598E-05-2.36810E-05 1.51418E-06-8.04213E-19 1.59441E-18
 -1      4104 9.45582E-05-2.63270E-05-2.92359E-05-1.59867E-06-2.27388E-19-2.73147E-19
 -1      4105 9.48471E-05-2.65800E-05-2.92600E-05-1.90224E-06-2.00047E-19-2.00455E-19
 -1      4106 9.51269E-05-2.66621E-05-2.93441E-05-1.66241E-06 2.07199E-20-3.09749E-19
 -1      4107 7.37401E-05-1.75239E-05-2.40866E-05 5.61812E-06 5.85138E-19-1.19180E-20
 -1      4108 7.29012E-05-1.66167E-05-2.41527E-05 1.30237E-06 3.02222E-19 5.14354E-19
 -1      4109 7.52607E-05-1.72962E-05-2.48720E-05 7.81610E-07 2.48640E-19 9.70200E-19
 -1      4110 7.71337E-05-1.89527E-05-2.49214E-05 6.34149E-06 1.14353E-19-5.94446E-19
 -1      4111 9.36727E-05-2.65725E-05-2.87573E-05-4.55956E-07-5.86989E-20 2.69524E-18
 -1      4112 9.36098E-05-2.65218E-05-2.87564E-05-2.35542E-07-9.36199E-19 3.30498E-18
 -1      4113 9.35189E-05-2.64201E-05-2.87577E-05-6.46717E-07-4.38879E-19 2.62189E-18
 -1      4114 8.58819E-05-2.10862E-05-2.77849E-05-4.06541E-06 9.16653E-20 2.91094E-19
 -1      4115 8.70760E-05-2.17282E-05-2.80266E-05-3.80456E-06 3.74172E-19 3.95453E-19
 -1      4116 8.71853E-05-2.17721E-05-2.80048E-05-2.57121E-06 3.18479E-19 3.98577E-19
 -1      4117 9.35055E-05-2.64016E-05-2.87568E-05 2.15304E-08 3.38554E-19 2.21751E-18
 -1      4118 9.34431E-05-2.63407E-05-2.87611E-05 2.42033E-07 2.70399E-19-1.94671E-19
 -1      4119 9.32783E-05-2.61911E-05-2.87524E-05-1.31599E-07 2.15249E-19 1.48636E-18
 -1      4120 9.53871E-05-2.66726E-05-2.94527E-05-1.47666E-06 2.09860E-19-4.06017E-19
 -1      4121 9.55603E-05-2.65825E-05-2.95626E-05-1.19519E-06 3.66321E-19-4.36948E-19
 -1      4122 9.51992E-05-2.64941E-05-2.94400E-05-1.26845E-06 3.56666E-20-1.74958E-19
 -1      4123 9.55752E-05-2.62860E-05-2.96908E-05-8.67782E-07 4.63353E-19-3.91733E-19
 -1      4124 8.44916E-05-2.03820E-05-2.74343E-05-2.59069E-06 1.23484E-19 2.15153E-19
 -1      4125 9.32571E-05-2.61720E-05-2.87502E-05-7.78503E-07-4.32423E-19 3.74406E-18
 -1      4126 9.04315E-05-2.37661E-05-2.85782E-05 1.20279E-06-1.66006E-19 1.33605E-18
 -1      4127 8.97491E-05-2.32757E-05-2.84992E-05 1.29553E-06 1.20245E-19 1.83897E-18
 -1      4128 9.38900E-05-2.61301E-05-2.90479E-05 1.48440E-06 2.53064E-19-6.66729E-19
 -1      4129 9.34752E-05-2.59113E-05-2.89531E-05 1.71740E-06-4.82484E-20-6.07200E-19
 -1      4130 9.29193E-05-2.56319E-05-2.88473E-05 1.92843E-06-1.05940E-19-5.37916E-19
 -1      4131 9.24417E-05-2.53584E-05-2.87464E-05 2.21800E-06 6.02398E-20-3.14719E-19
 -1      4132 9.29899E-05-2.55507E-05-2.88937E-05 1.29879E-06 1.29957E-19-8.62222E-19
 -1      4133 9.18055E-05-2.50383E-05-2.86255E-05 2.50923E-06 1.80453E-19-4.45884E-19
 -1      4134 9.12841E-05-2.47581E-05-2.85065E-05 2.88070E-06 1.16246E-19-3.89572E-19
 -1      4135 9.18212E-05-2.49039E-05-2.86645E-05 1.77894E-06 3.63875E-20-7.33540E-19
 -1      4136 9.05499E-05-2.44254E-05-2.83564E-05 3.30883E-06-2.63309E-19-3.52387E-19
 -1      4137 9.00361E-05-2.41957E-05-2.82060E-05 3.81624E-06-4.88208E-19-5.37672E-19
 -1      4138 9.04300E-05-2.41517E-05-2.83860E-05 2.46749E-06-7.02386E-20-1.20209E-18
 -1      4139 8.92241E-05-2.39278E-05-2.80082E-05 4.40513E-06-3.49944E-19-3.09354E-19
 -1      4140 8.87554E-05-2.38179E-05-2.78124E-05 5.08931E-06-3.77663E-19-4.75775E-19
 -1      4141 8.89303E-05-2.34660E-05-2.80302E-05 3.42708E-06-3.13793E-19-7.94625E-19
 -1      4142 8.78769E-05-2.36718E-05-2.75480E-05 5.92246E-06-4.10671E-19-1.73180E-19
 -1      4143 8.75218E-05-2.37811E-05-2.72933E-05 6.85364E-06 4.93165E-21-2.85685E-19
 -1      4144 8.72728E-05-2.29082E-05-2.75556E-05 4.78880E-06-1.42172E-19-3.89699E-20
 -1      4145 8.65781E-05-2.37758E-05-2.69412E-05 8.00491E-06 8.69450E-20-3.74391E-19
 -1      4146 8.64428E-05-2.42800E-05-2.66192E-05 9.32532E-06 1.81844E-19-5.25779E-19
 -1      4147 8.55417E-05-2.26920E-05-2.69198E-05 6.69895E-06-8.86274E-20 1.65956E-19
 -1      4148 7.98628E-05-1.87214E-05-2.62431E-05-2.95652E-07-1.83828E-19 4.93029E-19
 -1      4149 8.18253E-05-1.94722E-05-2.67481E-05-5.19541E-07-1.58418E-19 3.27514E-20
 -1      4150 9.56039E-05-2.61795E-05-2.97560E-05 5.20616E-07 2.41154E-19-7.23872E-19
 -1      4151 9.54863E-05-2.63910E-05-2.96137E-05 7.17624E-07 2.30443E-19-6.89676E-19
 -1      4152 9.35687E-05-2.58723E-05-2.90182E-05-2.42519E-06-4.80323E-21-1.44989E-19
 -1      4153 9.36752E-05-2.58553E-05-2.90568E-05-1.88072E-06-1.08414E-19-2.64493E-19
 -1      4154 9.30724E-05-2.55281E-05-2.89520E-05-2.63929E-06 2.05352E-19-3.04366E-19
 -1      4155 8.60059E-05-2.45585E-05-2.62910E-05-1.06275E-05-9.35334E-19-1.73381E-18
 -1      4156 8.59241E-05-2.38219E-05-2.66426E-05-9.17722E-06-1.06182E-18-1.63326E-18
 -1      4157 8.31593E-05-2.32543E-05-2.56728E-05-1.11633E-05-8.48222E-19-1.86475E-18
 -1      4158 8.66716E-05-2.35382E-05-2.70301E-05-7.80910E-06-8.90164E-19-1.38774E-18
 -1      4159 8.69000E-05-2.32394E-05-2.73067E-05-6.72197E-06-6.43086E-19-1.10343E-18
 -1      4160 8.46000E-05-2.24884E-05-2.66107E-05-7.93821E-06-6.20666E-19-2.96161E-18
 -1      4161 8.76534E-05-2.32303E-05-2.75929E-05-5.73741E-06-8.57545E-19-7.63593E-19
 -1      4162 8.80283E-05-2.32045E-05-2.78007E-05-4.92826E-06-1.30988E-18-1.02169E-18
 -1      4163 8.61123E-05-2.23756E-05-2.73061E-05-5.64364E-06-3.89070E-19-1.23424E-18
 -1      4164 8.87391E-05-2.33657E-05-2.80065E-05-4.21918E-06-1.66781E-18-8.80545E-19
 -1      4165 8.91698E-05-2.35069E-05-2.81563E-05-3.61694E-06-9.97042E-19-9.48364E-19
 -1      4166 8.75758E-05-2.26616E-05-2.78107E-05-4.01401E-06-1.26400E-18-1.39017E-18
 -1      4167 8.98147E-05-2.37664E-05-2.82999E-05-3.10574E-06-6.79369E-20-2.16771E-18
 -1      4168 9.02481E-05-2.40018E-05-2.84032E-05-2.65609E-06 1.33756E-19-2.22372E-18
 -1      4169 8.89261E-05-2.31807E-05-2.81676E-05-2.85501E-06-1.03918E-18-2.17710E-18
 -1      4170 9.08164E-05-2.43086E-05-2.84995E-05-2.28721E-06-3.22852E-20-1.51864E-18
 -1      4171 9.12221E-05-2.45879E-05-2.85670E-05-1.95006E-06-6.07370E-19-1.85239E-18
 -1      4172 9.01324E-05-2.38191E-05-2.84119E-05-2.03017E-06 1.06492E-20-3.86026E-18
 -1      4173 9.17111E-05-2.49067E-05-2.86283E-05-1.68380E-06 3.37237E-20-3.61910E-19
 -1      4174 9.20727E-05-2.51954E-05-2.86692E-05-1.43007E-06 2.11581E-19 9.72449E-19
 -1      4175 9.11826E-05-2.44978E-05-2.85720E-05-1.44261E-06 8.50859E-19-7.27728E-20
 -1      4176 9.24831E-05-2.55012E-05-2.87050E-05-1.23866E-06 5.35953E-19 1.75022E-18
 -1      4177 9.27884E-05-2.57742E-05-2.87272E-05-1.04276E-06 1.18973E-18 3.57970E-18
 -1      4178 9.20764E-05-2.51631E-05-2.86709E-05-1.02574E-06 1.37197E-18 6.33717E-19
 -1      4179 9.56916E-05-2.57374E-05-2.99839E-05-3.97577E-07 4.03815E-19-2.99935E-19
 -1      4180 9.56034E-05-2.52280E-05-3.01620E-05 3.20172E-08 3.86267E-19-2.80868E-19
 -1      4181 9.54751E-05-2.48394E-05-3.02775E-05 8.50759E-08 2.95809E-19-5.78218E-19
 -1      4182 9.56527E-05-2.57069E-05-2.99718E-05-4.20689E-07 5.30228E-19-5.03612E-19
 -1      4183 9.29594E-05-2.59030E-05-2.87330E-05-5.93869E-07 4.85341E-19 1.96548E-18
 -1      4184 9.15940E-05-2.46632E-05-2.86908E-05 1.07729E-06 4.92536E-19 4.28808E-19
 -1      4185 9.10587E-05-2.42337E-05-2.86467E-05 1.18547E-06 8.67268E-21 1.12266E-18
 -1      4186 9.05932E-05-2.39018E-05-2.85686E-05 5.96320E-07 2.18248E-19 1.37774E-18
 -1      4187 8.89664E-05-2.27508E-05-2.83870E-05 1.26940E-06 2.30378E-20 1.56192E-18
 -1      4188 8.80998E-05-2.22025E-05-2.82566E-05 1.33136E-06 4.76176E-19 1.86135E-18
 -1      4189 8.92052E-05-2.29325E-05-2.83853E-05 5.05608E-07 2.82286E-19 1.03593E-18
 -1      4190 9.25106E-05-2.54361E-05-2.87505E-05 9.25373E-07 1.45572E-18 1.76007E-19
 -1      4191 9.20934E-05-2.50678E-05-2.87295E-05 1.03538E-06 5.64030E-19-4.18977E-19
 -1      4192 9.17039E-05-2.47674E-05-2.86782E-05 6.02418E-07 1.19383E-18-1.03779E-18
 -1      4193 9.46871E-05-2.64470E-05-2.92518E-05 1.13034E-06 2.11189E-19-5.27821E-19
 -1      4194 9.43494E-05-2.63262E-05-2.91515E-05 1.33067E-06 3.70675E-19-5.61897E-19
 -1      4195 9.39857E-05-2.60554E-05-2.91051E-05 9.60170E-07 2.72221E-19-7.15388E-19
 -1      4196 9.52721E-05-2.64939E-05-2.94811E-05 8.21323E-07 3.54975E-19-6.95124E-19
 -1      4197 9.50329E-05-2.65147E-05-2.93648E-05 1.01249E-06 3.44144E-19-4.99522E-19
 -1      4198 9.53206E-05-2.63053E-05-2.95714E-05 4.90511E-07 2.88825E-19-6.07758E-19
 -1      4199 8.43130E-05-2.37827E-05-2.59866E-05 1.04861E-05 3.59365E-19-2.25863E-19
 -1      4200 8.17542E-05-2.14159E-05-2.58282E-05 8.19868E-06 2.02593E-19-6.31209E-20
 -1      4201 7.79736E-05-1.77379E-05-2.58460E-05 8.16271E-08-1.15525E-18 5.44129E-19
 -1      4202 7.55113E-05-1.70428E-05-2.51251E-05-7.48176E-08-1.06469E-18 8.49338E-19
 -1      4203 8.34611E-05-2.01338E-05-2.71749E-05-9.04433E-07 6.26871E-20 2.17445E-20
 -1      4204 8.50102E-05-2.08243E-05-2.75213E-05-1.02376E-06 1.51371E-19-3.30409E-20
 -1      4205 8.27433E-05-1.99373E-05-2.68677E-05 1.22109E-06-5.79233E-20-2.37958E-19
 -1      4206 9.54886E-05-2.63085E-05-2.96545E-05-7.48475E-07 2.09384E-19-4.94058E-19
 -1      4207 9.56101E-05-2.60852E-05-2.97969E-05-5.30541E-07 4.71289E-19-6.42389E-19
 -1      4208 9.34635E-05-2.63376E-05-2.87680E-05 4.60552E-07 7.66307E-19-1.54572E-18
 -1      4209 9.34722E-05-2.63308E-05-2.87789E-05 7.04816E-07 5.97669E-19-2.36174E-18
 -1      4210 9.32741E-05-2.61215E-05-2.87790E-05 8.00848E-07 1.66471E-18-2.70468E-18
 -1      4211 9.31908E-05-2.60827E-05-2.87591E-05 3.48367E-07 1.86271E-18-9.26337E-19
 -1      4212 8.63290E-05-2.14865E-05-2.78158E-05-1.27939E-06 5.22626E-19 1.03289E-19
 -1      4213 8.75636E-05-2.21331E-05-2.80520E-05-1.32745E-06 7.18854E-19 4.11904E-19
 -1      4214 8.56877E-05-2.12243E-05-2.75878E-05 3.25365E-07 3.97251E-19-2.45314E-19
 -1      4215 7.36508E-05-1.65679E-05-2.44482E-05-1.22878E-06-6.09870E-19 8.98970E-19
 -1      4216 9.53939E-05-2.46010E-05-3.03378E-05-1.08258E-08-4.38341E-21-8.10282E-19
 -1      4217 8.18385E-05-1.91171E-05-2.69032E-05 6.82835E-07 6.09725E-19-4.37074E-20
 -1      4218 8.00071E-05-1.84341E-05-2.64294E-05 5.74324E-07-4.48102E-19 3.06665E-19
 -1      4219 7.91567E-05-1.82927E-05-2.60283E-05-2.02507E-06-2.18670E-19-5.97819E-19
 -1      4220 8.74784E-05-2.18697E-05-2.80958E-05 2.75694E-07-2.06983E-19 8.83747E-19
 -1      4221 8.71244E-05-2.16273E-05-2.80816E-05 1.23693E-06 1.21290E-19 6.76737E-19
 -1      4222 8.60233E-05-2.10275E-05-2.78761E-05 1.25141E-06 1.51598E-19 1.69182E-19
 -1      4223 9.55866E-05-2.58462E-05-2.98857E-05-3.24414E-07 2.80746E-19-9.17938E-19
 -1      4224 9.56367E-05-2.58132E-05-2.99287E-05-4.31571E-07 5.05777E-19-8.07497E-19
 -1      4225 9.56131E-05-2.54579E-05-3.00708E-05-2.17779E-07 3.53070E-19-9.08513E-19
 -1      4226 9.55766E-05-2.51622E-05-3.01702E-05 1.64851E-07 9.89331E-21-7.91801E-19
 -1      4227 8.86341E-05-2.27416E-05-2.82589E-05-1.47599E-06 5.61780E-19 1.85957E-19
 -1      4228 8.96019E-05-2.33231E-05-2.84219E-05-1.44058E-06 4.60216E-19 7.82800E-20
 -1      4229 8.80516E-05-2.24402E-05-2.80913E-05-2.53213E-07 5.96902E-19 6.24852E-20
 -1      4230 9.53598E-05-2.45123E-05-3.03654E-05 9.66667E-08 3.21332E-19-8.76446E-19
 -1      4231 9.55357E-05-2.50484E-05-3.02008E-05-8.26508E-08 3.16937E-19-7.90380E-19
 -1      4232 8.25198E-05-2.07920E-05-2.64477E-05 4.90398E-06 3.45000E-20 5.60345E-20
 -1      4233 7.95702E-05-1.95770E-05-2.57425E-05 5.03356E-06-1.92627E-19-4.94796E-19
 -1      4234 9.33073E-05-2.56448E-05-2.90078E-05-1.40035E-06 1.26823E-19-6.81616E-19
 -1      4235 9.38316E-05-2.59450E-05-2.90979E-05-1.28109E-06-1.35120E-19-6.77693E-19
 -1      4236 9.10839E-05-2.41498E-05-2.86687E-05-2.31213E-06 3.57273E-19-8.98508E-20
 -1      4237 9.18053E-05-2.46514E-05-2.87857E-05-2.99065E-06 5.31447E-19-2.26015E-19
 -1      4238 9.24289E-05-2.50986E-05-2.88634E-05-2.77142E-06 2.13047E-19-3.88394E-19
 -1      4239 7.68905E-05-1.99470E-05-2.43666E-05-1.04555E-05-1.78543E-18-1.75120E-18
 -1      4240 8.06123E-05-2.18122E-05-2.51485E-05-1.07203E-05-1.57267E-18-1.93123E-18
 -1      4241 8.12374E-05-2.13735E-05-2.57039E-05-8.92675E-06-7.31248E-19-1.99574E-18
 -1      4242 7.58272E-05-1.85117E-05-2.46432E-05-7.08714E-06-1.44952E-18-1.35039E-19
 -1      4243 8.48013E-05-2.04112E-05-2.76113E-05 1.05800E-06 2.56943E-19-5.14070E-19
 -1      4244 8.33921E-05-1.97672E-05-2.72970E-05 1.01176E-06 7.36499E-19-3.21919E-19
 -1      4245 8.53277E-05-2.07316E-05-2.76548E-05-1.60526E-07-1.53550E-19-9.61813E-19
 -1      4246 9.47771E-05-2.63367E-05-2.93237E-05 7.03945E-07 3.90777E-19-5.77886E-19
 -1      4247 9.30337E-05-2.59114E-05-2.87707E-05 8.17307E-07 2.32022E-18-2.25729E-18
 -1      4248 9.27920E-05-2.56781E-05-2.87657E-05 9.17252E-07 2.28916E-18-6.38178E-19
 -1      4249 9.24657E-05-2.54057E-05-2.87332E-05 5.94520E-07 2.29561E-18-1.67304E-18
 -1      4250 9.29753E-05-2.58691E-05-2.87583E-05 5.84504E-07 2.66908E-18-1.76393E-18
 -1      4251 9.28005E-05-2.57680E-05-2.87297E-05-3.21702E-07 1.39064E-18 7.27054E-19
 -1      4252 9.55325E-05-2.51940E-05-3.01467E-05-9.48617E-08 3.53122E-19-8.84312E-19
 -1      4253 7.70864E-05-1.77687E-05-2.54277E-05 4.39660E-07 2.02408E-19 8.21906E-19
 -1      4254 9.43051E-05-2.61870E-05-2.91988E-05-1.23468E-06-1.08340E-19-6.20025E-19
 -1      4255 9.46977E-05-2.63472E-05-2.92949E-05-1.09169E-06 1.37587E-20-4.11023E-19
 -1      4256 9.40186E-05-2.59732E-05-2.91535E-05-7.64302E-07 1.34786E-19-9.93388E-19
 -1      4257 7.51961E-05-1.72208E-05-2.47615E-05-4.07200E-06-1.10563E-18 9.15449E-19
 -1      4258 8.26255E-05-1.95373E-05-2.69978E-05-8.89577E-07 5.93730E-19-1.60384E-18
 -1      4259 7.85391E-05-1.85063E-05-2.56605E-05 2.58146E-06-2.10998E-19-2.64455E-19
 -1      4260 9.53002E-05-2.64199E-05-2.95207E-05-8.45901E-07 3.42587E-20-4.40740E-19
 -1      4261 9.53610E-05-2.62365E-05-2.96193E-05-5.17906E-07 7.95023E-20-7.39881E-19
 -1      4262 9.50340E-05-2.64302E-05-2.94068E-05-1.02288E-06-5.07580E-20-3.46069E-19
 -1      4263 9.56376E-05-2.56018E-05-3.00198E-05 2.63235E-07 6.02808E-20-6.91154E-19
 -1      4264 9.56448E-05-2.59166E-05-2.98865E-05 4.38035E-07 1.65281E-19-7.14287E-19
 -1      4265 9.55770E-05-2.59628E-05-2.98339E-05 2.98115E-07 2.25926E-19-4.88888E-19
 -1      4266 9.55467E-05-2.52683E-05-3.01162E-05 1.33878E-07 1.74349E-19-6.16476E-19
 -1      4267 9.56015E-05-2.55460E-05-3.00156E-05-1.20681E-07 3.50374E-19-7.87098E-19
 -1      4268 9.55187E-05-2.52030E-05-3.01391E-05-2.55053E-08 4.16214E-19-5.58875E-19
 -1      4269 9.55303E-05-2.52172E-05-3.01397E-05 4.85469E-08 3.39313E-19-6.48836E-19
 -1      4270 9.55696E-05-2.58560E-05-2.98826E-05-2.06185E-07 2.40528E-19-7.17518E-19
 -1      4271 8.60309E-05-2.18689E-05-2.75347E-05 2.47602E-06 1.08004E-19-2.58961E-19
 -1      4272 8.73220E-05-2.24120E-05-2.78253E-05 2.01839E-06 2.12798E-19-3.70538E-19
 -1      4273 8.34874E-05-2.09497E-05-2.68332E-05 3.92806E-06-2.04603E-19-2.54375E-20
 -1      4274 9.18586E-05-2.48822E-05-2.87215E-05 9.22066E-07-5.45909E-20-6.28134E-19
 -1      4275 9.11997E-05-2.44973E-05-2.85957E-05 1.20512E-06-1.42700E-19-7.94011E-19
 -1      4276 9.00451E-05-2.37865E-05-2.84075E-05 8.78167E-07-9.67346E-21-7.85945E-19
 -1      4277 8.92517E-05-2.33582E-05-2.82461E-05 1.22565E-06 9.63320E-20-7.84011E-19
 -1      4278 8.81792E-05-2.28210E-05-2.80380E-05 1.51543E-06 2.29598E-19-5.75268E-19
 -1      4279 8.50989E-05-2.15307E-05-2.72474E-05 3.20851E-06-3.41555E-20 8.16101E-20
 -1      4280 7.77578E-05-1.87063E-05-2.52884E-05-5.54243E-06-1.74341E-18 1.07624E-19
 -1      4281 8.27456E-05-2.13967E-05-2.62661E-05-7.43695E-06-1.39390E-19-2.39658E-18
 -1      4282 8.35019E-05-2.13350E-05-2.66802E-05-6.15597E-06 3.75263E-19-1.80995E-18
 -1      4283 8.03644E-05-2.00992E-05-2.57941E-05-7.00866E-06-5.87363E-19-1.64115E-18
 -1      4284 8.47621E-05-2.15424E-05-2.70790E-05-5.13688E-06 5.96302E-19-1.90308E-18
 -1      4285 8.55185E-05-2.16939E-05-2.73807E-05-4.23502E-06-5.65275E-20-1.11257E-18
 -1      4286 8.31010E-05-2.05660E-05-2.67721E-05-4.65408E-06 7.71890E-19-1.35119E-18
 -1      4287 8.65749E-05-2.20106E-05-2.76614E-05-3.53284E-06-8.36534E-19-1.16725E-18
 -1      4288 8.72857E-05-2.22875E-05-2.78764E-05-2.89778E-06-1.14351E-18-1.13359E-18
 -1      4289 8.53837E-05-2.12568E-05-2.74606E-05-3.04623E-06-4.26016E-19-1.55795E-18
 -1      4290 8.81737E-05-2.26636E-05-2.80706E-05-2.41701E-06-1.18785E-18-9.97706E-19
 -1      4291 8.88175E-05-2.30065E-05-2.82197E-05-1.97011E-06-4.11620E-19-8.49623E-19
 -1      4292 8.73027E-05-2.20682E-05-2.79398E-05-1.95605E-06-1.09447E-18-8.34638E-19
 -1      4293 8.95616E-05-2.34044E-05-2.83504E-05-1.64450E-06-1.45051E-19-1.39781E-18
 -1      4294 9.01284E-05-2.37712E-05-2.84500E-05-1.33039E-06-3.37054E-20-9.70480E-19
 -1      4295 8.89152E-05-2.29262E-05-2.82666E-05-1.22591E-06-6.76797E-19 4.59727E-19
 -1      4296 9.07467E-05-2.41633E-05-2.85347E-05-1.11303E-06 9.08218E-19-7.95279E-19
 -1      4297 9.12346E-05-2.45254E-05-2.85980E-05-8.92282E-07 1.57422E-18 1.50445E-19
 -1      4298 9.02625E-05-2.37757E-05-2.84826E-05-7.45552E-07 5.06542E-19 4.41537E-19
 -1      4299 9.17423E-05-2.48931E-05-2.86497E-05-7.47032E-07 1.70372E-18 7.23845E-20
 -1      4300 9.21430E-05-2.52193E-05-2.86859E-05-5.97621E-07 1.84356E-18 5.00634E-19
 -1      4301 9.13731E-05-2.45759E-05-2.86188E-05-4.36938E-07 1.98083E-18-6.92901E-19
 -1      4302 9.19967E-05-2.50564E-05-2.86905E-05 1.40585E-07 1.62723E-18-1.13352E-18
 -1      4303 9.14998E-05-2.46645E-05-2.86503E-05 1.22866E-07 1.40180E-18-4.56718E-19
 -1      4304 9.09874E-05-2.42640E-05-2.85979E-05 3.70139E-08 1.11189E-18 4.22006E-19
 -1      4305 9.03635E-05-2.38242E-05-2.85275E-05-1.72098E-08 7.06342E-19 1.04583E-18
 -1      4306 9.39516E-05-2.60006E-05-2.91301E-05 5.09289E-08 2.71769E-19-6.87945E-19
 -1      4307 9.34861E-05-2.57605E-05-2.90248E-05 1.64548E-07 1.58219E-19-7.17926E-19
 -1      4308 8.97404E-05-2.33834E-05-2.84412E-05-1.68821E-07-4.33769E-19 1.20121E-18
 -1      4309 8.89646E-05-2.29005E-05-2.83275E-05-2.88211E-07-7.92646E-22 1.00218E-18
 -1      4310 9.29892E-05-2.55066E-05-2.89326E-05 4.09304E-07 9.61010E-20-5.54265E-19
 -1      4311 9.24394E-05-2.51792E-05-2.88241E-05 5.76994E-07 1.24780E-20-6.75265E-19
 -1      4312 9.19573E-05-2.48102E-05-2.87628E-05-1.91317E-08-1.25048E-19-5.35603E-19
 -1      4313 9.30351E-05-2.54357E-05-2.89594E-05-5.76809E-07-5.31126E-20-9.75992E-19
 -1      4314 9.53308E-05-2.62785E-05-2.96002E-05-6.87515E-08 1.34216E-19-5.31413E-19
 -1      4315 9.51067E-05-2.63526E-05-2.94670E-05 6.19196E-09 1.54070E-19-5.13682E-19
 -1      4316 8.12743E-05-1.95352E-05-2.64581E-05-3.45774E-06 8.48886E-19-1.23938E-18
 -1      4317 7.93008E-05-1.90006E-05-2.58902E-05-4.30348E-06-5.32017E-19-3.51909E-19
 -1      4318 9.47741E-05-2.63091E-05-2.93499E-05-3.53393E-08 2.93478E-19-5.72704E-19
 -1      4319 9.44178E-05-2.62049E-05-2.92356E-05 5.55548E-08 3.46546E-19-5.29374E-19
 -1      4320 9.25357E-05-2.51208E-05-2.88782E-05-2.12017E-06 2.20360E-19-2.97823E-19
 -1      4321 8.40782E-05-2.04660E-05-2.72635E-05-2.05456E-06 8.42897E-21-9.92151E-19
 -1      4322 8.25536E-05-1.99271E-05-2.68759E-05-2.61243E-06 7.71133E-19-1.34281E-18
 -1      4323 9.27934E-05-2.53267E-05-2.89170E-05-1.18979E-06 1.19072E-19-7.32885E-19
 -1      4324 9.55121E-05-2.61156E-05-2.97385E-05-1.39231E-08 1.27532E-19-5.55698E-19
 -1      4325 9.02925E-05-2.37863E-05-2.84811E-05-4.26317E-08 1.86209E-20-4.34631E-19
 -1      4326 9.55582E-05-2.58911E-05-2.98576E-05 1.48242E-07 2.38983E-19-5.27023E-19
 -1      4327 8.63532E-05-2.14489E-05-2.78179E-05-1.12625E-06-1.29258E-18-4.10976E-19
 -1      4328 8.51481E-05-2.09143E-05-2.75548E-05-1.48482E-06-7.43778E-19-1.23785E-18
 -1      4329 8.82147E-05-2.24349E-05-2.81936E-05-5.31669E-07-1.82065E-19 4.53553E-19
 -1      4330 9.07618E-05-2.40587E-05-2.85947E-05-9.73717E-07 8.14483E-21-1.94025E-19
 -1      4331 9.29528E-05-2.58716E-05-2.87508E-05 3.44573E-07 2.17987E-18-1.28919E-18
 -1      4332 9.21318E-05-2.49177E-05-2.88184E-05-1.26273E-06 1.26241E-19-5.89268E-19
 -1      4333 9.48301E-05-2.62829E-05-2.93701E-05-6.71595E-07 8.93063E-20-6.73704E-19
 -1      4334 9.15419E-05-2.45559E-05-2.87135E-05-9.53986E-07 2.94456E-20-3.21924E-19
 -1      4335 9.23570E-05-2.53782E-05-2.87059E-05-3.43779E-07 1.65376E-18-6.17762E-20
 -1      4336 9.27553E-05-2.56995E-05-2.87345E-05 1.56831E-07 1.75370E-18-8.67627E-19
 -1      4337 8.72498E-05-2.19191E-05-2.80180E-05-7.49075E-07-1.10329E-18-2.10588E-19
 -1      4338 9.25119E-05-2.54754E-05-2.87314E-05 3.92769E-07 2.67029E-18-2.14384E-18
 -1      4339 9.20799E-05-2.51322E-05-2.86893E-05-6.92244E-08 1.53299E-18 8.11237E-20
 -1      4340 9.22330E-05-2.52445E-05-2.87136E-05 3.86674E-07 2.06701E-18-1.42572E-18
 -1      4341 9.56073E-05-2.56167E-05-2.99884E-05 9.42330E-08 2.89623E-19-4.85975E-19
 -3
    1PSTEP                         4           1           1          
  100CL  101 1.000000000        4341                     0    1           1
 -4  ERROR       1    1
 -5  STR(%)      1    1    0    0
 -1         1 1.17325E+01
 -1         2 2.62537E+01
 -1         3 6.54425E-03
 -1         4 7.27181E-03
 -1         5 1.40386E+01
 -1         6 1.31414E+01
 -1         7 1.31414E+01
 -1         8 3.63756E+00
 -1         9 1.80539E+00
 -1        10 1.28026E+00
 -1        11 1.03428E+00
 -1        12 8.89920E-01
 -1        13 7.97783E-01
 -1        14 7.42699E-01
 -1        15 7.44967E-01
 -1        16 8.02351E-01
 -1        17 8.91028E-01
 -1        18 1.04314E+00
 -1        19 1.29750E+00
 -1        20 1.81341E+00
 -1        21 3.47857E+00
 -1        22 8.62204E+00
 -1        23 1.31414E+01
 -1        24 4.34062E+00
 -1        25 3.36360E+00
 -1        26 2.13543E+00
 -1        27 1.40064E+00
 -1        28 1.07280E+00
 -1        29 8.45849E-01
 -1        30 6.78502E-01
 -1        31 5.49928E-01
 -1        32 4.48377E-01
 -1        33 3.64984E-01
 -1        34 3.85909E-01
 -1        35 4.09179E-01
 -1        36 4.22242E-01
 -1        37 5.08029E-01
 -1        38 6.31753E-01
 -1        39 7.29591E-01
 -1        40 7.63929E-01
 -1        41 7.63929E-01
 -1        42 8.09899E-01
 -1        43 8.73668E-01
 -1        44 1.16458E+00
 -1        45 1.73340E+00
 -1        46 2.49348E+00
 -1        47 2.83038E+00
 -1        48 2.83038E+00
 -1        49 2.79103E+00
 -1        50 2.71382E+00
 -1        51 2.10950E+00
 -1        52 1.27131E+00
 -1        53 1.02334E+00
 -1        54 7.96757E-01
 -1        55 7.96757E-01
 -1        56 7.35934E-01
 -1        57 7.35934E-01
 -1        58 6.59655E-01
 -1        59 5.44576E-01
 -1        60 4.30847E-01
 -1        61 3.39587E-01
 -1        62 2.99548E-01
 -1        63 2.51998E-01
 -1        64 2.03944E-01
 -1        65 1.59537E-01
 -1        66 1.20787E-01
 -1        67 9.32891E-02
 -1        68 7.98985E-02
 -1        69 6.46087E-02
 -1        70 4.61265E-02
 -1        71 2.36872E-02
 -1        72 1.40386E+01
 -1        73 3.41807E+00
 -1        74 2.43865E+00
 -1        75 1.69507E+00
 -1        76 1.17910E+00
 -1        77 9.78739E-01
 -1        78 8.25613E-01
 -1        79 7.09222E-01
 -1        80 6.22833E-01
 -1        81 5.63003E-01
 -1        82 5.27204E-01
 -1        83 5.13557E-01
 -1        84 5.98601E-01
 -1        85 7.14076E-01
 -1        86 8.41669E-01
 -1        87 9.62382E-01
 -1        88 1.04139E+00
 -1        89 1.12981E+00
 -1        90 1.52983E+00
 -1        91 1.85642E+00
 -1        92 2.01865E+00
 -1        93 2.39894E+00
 -1        94 2.53612E+00
 -1        95 3.28425E+00
 -1        96 5.28125E+00
 -1        97 6.00679E+00
 -1        98 6.00679E+00
 -1        99 5.77466E+00
 -1       100 3.33370E+00
 -1       101 1.92522E+00
 -1       102 2.06554E+00
 -1       103 2.22113E+00
 -1       104 2.22113E+00
 -1       105 2.02263E+00
 -1       106 1.69244E+00
 -1       107 1.39742E+00
 -1       108 1.10047E+00
 -1       109 8.34912E-01
 -1       110 6.13663E-01
 -1       111 4.43810E-01
 -1       112 3.39131E-01
 -1       113 2.54067E-01
 -1       114 1.86730E-01
 -1       115 1.34389E-01
 -1       116 9.41002E-02
 -1       117 6.29612E-02
 -1       118 5.13749E-02
 -1       119 3.77014E-02
 -1       120 2.16918E-02
 -1       121 6.82661E-03
 -1       122 8.57232E-03
 -1       123 8.57232E-03
 -1       124 6.36645E-03
 -1       125 2.66978E-03
 -1       126 5.69460E-03
 -1       127 7.85971E-03
 -1       128 8.49381E-03
 -1       129 8.49381E-03
 -1       130 7.76072E-03
 -1       131 5.53197E-03
 -1       132 2.66817E-03
 -1       133 6.00201E-03
 -1       134 7.99516E-03
 -1       135 8.92559E-03
 -1       136 9.88045E-03
 -1       137 2.62537E+01
 -1       138 4.83992E+01
 -1       139 4.83992E+01
 -1       140 2.13731E+01
 -1       141 1.24739E+01
 -1       142 1.37169E+01
 -1       143 1.37169E+01
 -1       144 1.31218E+01
 -1       145 1.23439E+01
 -1       146 1.71512E+01
 -1       147 4.43441E+01
 -1       148 4.43441E+01
 -1       149 2.49427E+01
 -1       150 2.49427E+01
 -1       151 2.52517E+01
 -1       152 3.10600E+01
 -1       153 3.10600E+01
 -1       154 2.57023E+01
 -1       155 1.22416E+01
 -1       156 1.29830E+01
 -1       157 1.29830E+01
 -1       158 1.18840E+01
 -1       159 1.18840E+01
 -1       160 2.18772E+01
 -1       161 4.78992E+01
 -1       162 4.78992E+01
 -1       163 2.57278E+01
 -1       164 6.04372E+00
 -1       165 2.27925E+00
 -1       166 1.49691E+00
 -1       167 1.15026E+00
 -1       168 9.63649E-01
 -1       169 8.54897E-01
 -1       170 7.85405E-01
 -1       171 7.44967E-01
 -1       172 7.89181E-01
 -1       173 8.58146E-01
 -1       174 9.72801E-01
 -1       175 1.16441E+00
 -1       176 1.51823E+00
 -1       177 2.24887E+00
 -1       178 3.91026E+00
 -1       179 1.40386E+01
 -1       180 4.34062E+00
 -1       181 3.36360E+00
 -1       182 2.13543E+00
 -1       183 1.46462E+00
 -1       184 1.07280E+00
 -1       185 8.45849E-01
 -1       186 6.78502E-01
 -1       187 5.49928E-01
 -1       188 4.48377E-01
 -1       189 3.64984E-01
 -1       190 3.60886E-01
 -1       191 3.85909E-01
 -1       192 4.09179E-01
 -1       193 4.22242E-01
 -1       194 5.08029E-01
 -1       195 6.31753E-01
 -1       196 7.29591E-01
 -1       197 7.63929E-01
 -1       198 7.57441E-01
 -1       199 8.09899E-01
 -1       200 8.73668E-01
 -1       201 1.16458E+00
 -1       202 1.73340E+00
 -1       203 2.49348E+00
 -1       204 2.83038E+00
 -1       205 2.79103E+00
 -1       206 2.71382E+00
 -1       207 2.10950E+00
 -1       208 1.41894E+00
 -1       209 1.02334E+00
 -1       210 7.76338E-01
 -1       211 7.96757E-01
 -1       212 7.27628E-01
 -1       213 7.35934E-01
 -1       214 6.59655E-01
 -1       215 5.44576E-01
 -1       216 4.52957E-01
 -1       217 3.87797E-01
 -1       218 3.18256E-01
 -1       219 2.51998E-01
 -1       220 2.03944E-01
 -1       221 1.59537E-01
 -1       222 1.25213E-01
 -1       223 9.54843E-02
 -1       224 7.98985E-02
 -1       225 6.46087E-02
 -1       226 4.61265E-02
 -1       227 2.63025E-02
 -1       228 3.41807E+00
 -1       229 2.43865E+00
 -1       230 1.69507E+00
 -1       231 1.17910E+00
 -1       232 9.78739E-01
 -1       233 8.25613E-01
 -1       234 7.09222E-01
 -1       235 6.22833E-01
 -1       236 5.63003E-01
 -1       237 5.27204E-01
 -1       238 5.12321E-01
 -1       239 5.15659E-01
 -1       240 6.11479E-01
 -1       241 7.14211E-01
 -1       242 8.41669E-01
 -1       243 9.62382E-01
 -1       244 1.04139E+00
 -1       245 1.30297E+00
 -1       246 1.52983E+00
 -1       247 1.85642E+00
 -1       248 2.01865E+00
 -1       249 2.39894E+00
 -1       250 2.53612E+00
 -1       251 3.44482E+00
 -1       252 5.28125E+00
 -1       253 6.00679E+00
 -1       254 5.77466E+00
 -1       255 3.33370E+00
 -1       256 1.92522E+00
 -1       257 1.80540E+00
 -1       258 2.06554E+00
 -1       259 2.22113E+00
 -1       260 2.02263E+00
 -1       261 1.69244E+00
 -1       262 1.39754E+00
 -1       263 1.13469E+00
 -1       264 8.84736E-01
 -1       265 6.67517E-01
 -1       266 4.89346E-01
 -1       267 3.51993E-01
 -1       268 2.54067E-01
 -1       269 1.86730E-01
 -1       270 1.35655E-01
 -1       271 9.74659E-02
 -1       272 6.78501E-02
 -1       273 5.13749E-02
 -1       274 3.77014E-02
 -1       275 2.16918E-02
 -1       276 1.27456E-02
 -1       277 1.50936E-02
 -1       278 1.50936E-02
 -1       279 9.53529E-03
 -1       280 1.14801E-02
 -1       281 1.58015E-02
 -1       282 1.74733E-02
 -1       283 1.74733E-02
 -1       284 1.73712E-02
 -1       285 1.53236E-02
 -1       286 1.10578E-02
 -1       287 8.79693E-03
 -1       288 1.45180E-02
 -1       289 1.45180E-02
 -1       290 1.55755E-02
 -1       291 3.24812E+01
 -1       292 2.97605E+01
 -1       293 4.83992E+01
 -1       294 2.34444E+01
 -1       295 1.14561E+01
 -1       296 1.24739E+01
 -1       297 1.37169E+01
 -1       298 1.31218E+01
 -1       299 1.23439E+01
 -1       300 1.12388E+01
 -1       301 1.77855E+01
 -1       302 4.43441E+01
 -1       303 3.68502E+01
 -1       304 3.17727E+01
 -1       305 3.17727E+01
 -1       306 3.19057E+01
 -1       307 3.19057E+01
 -1       308 2.72437E+01
 -1       309 1.20375E+01
 -1       310 1.22416E+01
 -1       311 1.29830E+01
 -1       312 1.15764E+01
 -1       313 1.18840E+01
 -1       314 1.17325E+01
 -1       315 1.12341E+01
 -1       316 2.37761E+01
 -1       317 4.78992E+01
 -1       318 2.93114E+01
 -1       319 3.24812E+01
 -1       320 1.05340E+00
 -1       321 2.45334E+00
 -1       322 7.81751E-01
 -1       323 6.87288E-01
 -1       324 6.23240E-01
 -1       325 5.78096E-01
 -1       326 5.81592E-01
 -1       327 6.26078E-01
 -1       328 6.93617E-01
 -1       329 7.89333E-01
 -1       330 9.24763E-01
 -1       331 1.14213E+00
 -1       332 1.30780E+00
 -1       333 2.19554E+00
 -1       334 1.90474E+00
 -1       335 1.74230E+00
 -1       336 1.27784E+00
 -1       337 9.13719E-01
 -1       338 6.87120E-01
 -1       339 5.84107E-01
 -1       340 4.89959E-01
 -1       341 4.04374E-01
 -1       342 3.26165E-01
 -1       343 2.78727E-01
 -1       344 3.03238E-01
 -1       345 3.24818E-01
 -1       346 3.38560E-01
 -1       347 4.09178E-01
 -1       348 4.86213E-01
 -1       349 5.42414E-01
 -1       350 5.45603E-01
 -1       351 4.63327E-01
 -1       352 3.78922E-01
 -1       353 4.84291E-01
 -1       354 8.56394E-01
 -1       355 1.23744E+00
 -1       356 1.58775E+00
 -1       357 1.83357E+00
 -1       358 1.78880E+00
 -1       359 1.85042E+00
 -1       360 1.73428E+00
 -1       361 1.35248E+00
 -1       362 1.04458E+00
 -1       363 6.11070E-01
 -1       364 3.55713E-01
 -1       365 4.11904E-01
 -1       366 5.15361E-01
 -1       367 5.47929E-01
 -1       368 5.15779E-01
 -1       369 4.57936E-01
 -1       370 4.05032E-01
 -1       371 3.53176E-01
 -1       372 2.92826E-01
 -1       373 2.32528E-01
 -1       374 1.77449E-01
 -1       375 1.30190E-01
 -1       376 9.54843E-02
 -1       377 7.03586E-02
 -1       378 5.06313E-02
 -1       379 3.67240E-02
 -1       380 2.42960E-02
 -1       381 1.14713E+00
 -1       382 8.96677E-01
 -1       383 7.02980E-01
 -1       384 5.39912E-01
 -1       385 4.97427E-01
 -1       386 4.56872E-01
 -1       387 4.22519E-01
 -1       388 3.96708E-01
 -1       389 3.79678E-01
 -1       390 4.34106E-01
 -1       391 6.10893E-01
 -1       392 8.28253E-01
 -1       393 1.06599E+00
 -1       394 1.30069E+00
 -1       395 1.48695E+00
 -1       396 1.65231E+00
 -1       397 1.70146E+00
 -1       398 1.71143E+00
 -1       399 1.40397E+00
 -1       400 1.51135E+00
 -1       401 2.14767E+00
 -1       402 2.84549E+00
 -1       403 4.07745E+00
 -1       404 3.92315E+00
 -1       405 3.26105E+00
 -1       406 2.30449E+00
 -1       407 1.58904E+00
 -1       408 1.52021E+00
 -1       409 1.72495E+00
 -1       410 1.69673E+00
 -1       411 1.64106E+00
 -1       412 1.47751E+00
 -1       413 1.28661E+00
 -1       414 1.05766E+00
 -1       415 8.40996E-01
 -1       416 6.46395E-01
 -1       417 4.83066E-01
 -1       418 3.51993E-01
 -1       419 2.50112E-01
 -1       420 1.84649E-01
 -1       421 1.35655E-01
 -1       422 9.74659E-02
 -1       423 6.78501E-02
 -1       424 4.46595E-02
 -1       425 2.90908E-02
 -1       426 1.56250E-02
 -1       427 1.79138E-02
 -1       428 2.43931E-02
 -1       429 2.43931E-02
 -1       430 1.64646E-02
 -1       431 2.31947E-02
 -1       432 2.62467E-02
 -1       433 2.62467E-02
 -1       434 2.56508E-02
 -1       435 2.56508E-02
 -1       436 2.21744E-02
 -1       437 1.52774E-02
 -1       438 1.71097E-02
 -1       439 2.26929E-02
 -1       440 2.97605E+01
 -1       441 3.24812E+01
 -1       442 2.98170E+01
 -1       443 1.72714E+01
 -1       444 1.04370E+01
 -1       445 9.06241E-01
 -1       446 9.53530E+00
 -1       447 9.89095E+00
 -1       448 9.87985E+00
 -1       449 8.65168E+00
 -1       450 8.59530E+00
 -1       451 1.50210E+01
 -1       452 2.56393E+01
 -1       453 2.86205E+01
 -1       454 3.65192E+01
 -1       455 3.65192E+01
 -1       456 3.19057E+01
 -1       457 1.93385E+01
 -1       458 1.03002E+01
 -1       459 7.61940E+00
 -1       460 9.52304E+00
 -1       461 1.14194E+01
 -1       462 1.05332E+01
 -1       463 9.58805E+00
 -1       464 6.82641E+00
 -1       465 9.98327E+00
 -1       466 1.68577E+01
 -1       467 2.93114E+01
 -1       468 2.65220E+01
 -1       469 7.91461E+00
 -1       470 5.55395E+00
 -1       471 2.15375E+01
 -1       472 9.77244E+00
 -1       473 1.05715E+00
 -1       474 4.79413E-01
 -1       475 5.05247E-01
 -1       476 4.21872E-01
 -1       477 4.48908E-01
 -1       478 4.80069E-01
 -1       479 5.05730E-01
 -1       480 5.05730E-01
 -1       481 5.92559E-01
 -1       482 8.96677E-01
 -1       483 7.88508E-01
 -1       484 4.54559E+00
 -1       485 6.99320E-01
 -1       486 5.77372E-01
 -1       487 4.52453E-01
 -1       488 3.85016E-01
 -1       489 3.29428E-01
 -1       490 2.67335E-01
 -1       491 2.02008E-01
 -1       492 2.08027E-01
 -1       493 2.29885E-01
 -1       494 2.88020E-01
 -1       495 3.56447E-01
 -1       496 4.17301E-01
 -1       497 4.63532E-01
 -1       498 5.09084E-01
 -1       499 5.12737E-01
 -1       500 5.92837E-01
 -1       501 6.88821E-01
 -1       502 8.32169E-01
 -1       503 1.05192E+00
 -1       504 1.24367E+00
 -1       505 1.47207E+00
 -1       506 1.57453E+00
 -1       507 1.50266E+00
 -1       508 1.59327E+00
 -1       509 1.32787E+00
 -1       510 1.15304E+00
 -1       511 9.45543E-01
 -1       512 7.01431E-01
 -1       513 6.43381E-01
 -1       514 5.21550E-01
 -1       515 5.42763E-01
 -1       516 5.21669E-01
 -1       517 4.73373E-01
 -1       518 4.29727E-01
 -1       519 3.80188E-01
 -1       520 3.23424E-01
 -1       521 2.64475E-01
 -1       522 2.08873E-01
 -1       523 1.59696E-01
 -1       524 1.18263E-01
 -1       525 8.47546E-02
 -1       526 5.86826E-02
 -1       527 3.90873E-02
 -1       528 5.34353E-01
 -1       529 4.72694E-01
 -1       530 4.05265E-01
 -1       531 3.36394E-01
 -1       532 2.67037E-01
 -1       533 2.91932E-01
 -1       534 3.46045E-01
 -1       535 5.10647E-01
 -1       536 7.06594E-01
 -1       537 9.29734E-01
 -1       538 1.17127E+00
 -1       539 1.40926E+00
 -1       540 1.60346E+00
 -1       541 1.79266E+00
 -1       542 2.13545E+00
 -1       543 2.47272E+00
 -1       544 2.69616E+00
 -1       545 4.33288E+00
 -1       546 3.33881E+00
 -1       547 6.46494E+00
 -1       548 7.62104E+00
 -1       549 5.20132E+00
 -1       550 2.39998E+00
 -1       551 2.68949E+00
 -1       552 2.57501E+00
 -1       553 2.26419E+00
 -1       554 1.95996E+00
 -1       555 1.69673E+00
 -1       556 1.54461E+00
 -1       557 1.31925E+00
 -1       558 1.08290E+00
 -1       559 8.70413E-01
 -1       560 6.79733E-01
 -1       561 5.18343E-01
 -1       562 3.87033E-01
 -1       563 2.83218E-01
 -1       564 2.02977E-01
 -1       565 1.42172E-01
 -1       566 9.70060E-02
 -1       567 6.42478E-02
 -1       568 4.46168E-02
 -1       569 3.19925E-02
 -1       570 3.09011E-02
 -1       571 3.59590E-02
 -1       572 2.49173E-02
 -1       573 2.49173E-02
 -1       574 3.59590E-02
 -1       575 3.55973E-02
 -1       576 3.54169E-02
 -1       577 3.44349E-02
 -1       578 2.85625E-02
 -1       579 2.78736E-02
 -1       580 2.78736E-02
 -1       581 2.98170E+01
 -1       582 2.05556E+01
 -1       583 2.65220E+01
 -1       584 7.02980E-01
 -1       585 1.25737E+01
 -1       586 6.04705E+00
 -1       587 1.34004E+01
 -1       588 8.20034E+00
 -1       589 4.48656E-01
 -1       590 7.62104E+00
 -1       591 2.86205E+01
 -1       592 6.46494E+00
 -1       593 5.21595E+00
 -1       594 1.32686E+01
 -1       595 1.43935E+01
 -1       596 3.65192E+01
 -1       597 2.36540E+01
 -1       598 8.62103E+00
 -1       599 4.40957E+00
 -1       600 7.07546E+00
 -1       601 8.88896E+00
 -1       602 7.76247E+00
 -1       603 4.45603E+00
 -1       604 4.97745E+00
 -1       605 8.37236E+00
 -1       606 1.89635E+01
 -1       607 8.69811E-01
 -1       608 1.31880E+00
 -1       609 9.19563E+00
 -1       610 5.05247E-01
 -1       611 8.74716E+00
 -1       612 1.82265E+01
 -1       613 5.29136E+00
 -1       614 1.48642E+01
 -1       615 5.56854E+00
 -1       616 4.60883E-01
 -1       617 2.42820E-02
 -1       618 3.52599E-01
 -1       619 3.34162E-01
 -1       620 3.59584E-01
 -1       621 3.39028E-01
 -1       622 5.29640E-01
 -1       623 1.22633E+01
 -1       624 5.06889E-01
 -1       625 1.16413E+01
 -1       626 3.81288E-01
 -1       627 3.57379E-01
 -1       628 2.99726E-01
 -1       629 2.37841E-01
 -1       630 1.97775E-01
 -1       631 1.46117E-01
 -1       632 1.18712E-01
 -1       633 1.60344E-01
 -1       634 2.41543E-01
 -1       635 3.23515E-01
 -1       636 4.00504E-01
 -1       637 4.63532E-01
 -1       638 5.66745E-01
 -1       639 6.60911E-01
 -1       640 7.24207E-01
 -1       641 9.01466E-01
 -1       642 1.11138E+00
 -1       643 1.15615E+00
 -1       644 1.44348E+00
 -1       645 1.47207E+00
 -1       646 2.03094E+00
 -1       647 1.99589E+00
 -1       648 2.26221E+00
 -1       649 1.59327E+00
 -1       650 1.44191E+00
 -1       651 1.32861E+00
 -1       652 1.15269E+00
 -1       653 1.01359E+00
 -1       654 7.71451E-01
 -1       655 7.20676E-01
 -1       656 6.43786E-01
 -1       657 5.50529E-01
 -1       658 4.75713E-01
 -1       659 4.16351E-01
 -1       660 3.51072E-01
 -1       661 2.86983E-01
 -1       662 2.28252E-01
 -1       663 1.76964E-01
 -1       664 1.33813E-01
 -1       665 9.85984E-02
 -1       666 7.07243E-02
 -1       667 4.43743E-02
 -1       668 3.00108E-01
 -1       669 3.78527E+00
 -1       670 1.13824E+01
 -1       671 3.60162E-01
 -1       672 1.90852E-01
 -1       673 1.73926E-01
 -1       674 2.43325E-01
 -1       675 3.81118E-01
 -1       676 5.45950E-01
 -1       677 7.43621E-01
 -1       678 9.80484E-01
 -1       679 1.26268E+00
 -1       680 1.59365E+00
 -1       681 1.96513E+00
 -1       682 2.32297E+00
 -1       683 3.01722E+00
 -1       684 4.41402E+00
 -1       685 4.74333E+00
 -1       686 3.36579E+00
 -1       687 6.09459E+00
 -1       688 3.59176E+00
 -1       689 2.87106E+00
 -1       690 2.24803E+00
 -1       691 1.90338E+00
 -1       692 1.55770E+00
 -1       693 1.24982E+00
 -1       694 9.87022E-01
 -1       695 7.68736E-01
 -1       696 5.90769E-01
 -1       697 4.47858E-01
 -1       698 3.34672E-01
 -1       699 2.46223E-01
 -1       700 1.78038E-01
 -1       701 1.26217E-01
 -1       702 8.74957E-02
 -1       703 5.84702E-02
 -1       704 3.56360E-02
 -1       705 4.98656E-02
 -1       706 2.78736E-02
 -1       707 4.76899E-02
 -1       708 4.87750E-02
 -1       709 4.98656E-02
 -1       710 5.11224E+00
 -1       711 4.87750E-02
 -1       712 4.42810E-02
 -1       713 3.32040E-02
 -1       714 3.40598E-01
 -1       715 3.40722E+00
 -1       716 3.68687E+00
 -1       717 4.44159E-01
 -1       718 1.23426E+01
 -1       719 1.52338E+01
 -1       720 2.52073E-01
 -1       721 3.79519E-01
 -1       722 6.25465E+00
 -1       723 3.59584E-01
 -1       724 3.58499E-01
 -1       725 1.38778E+01
 -1       726 8.82147E+00
 -1       727 7.85080E+00
 -1       728 1.50548E+01
 -1       729 8.17419E+00
 -1       730 3.13165E+00
 -1       731 5.10388E+00
 -1       732 6.15992E+00
 -1       733 1.35089E+01
 -1       734 3.58499E-01
 -1       735 3.33266E-01
 -1       736 7.60595E+00
 -1       737 1.06140E+01
 -1       738 3.76374E-02
 -1       739 3.01388E+00
 -1       740 3.22229E-02
 -1       741 1.03817E+01
 -1       742 4.31939E+00
 -1       743 3.18395E-02
 -1       744 1.00740E+01
 -1       745 3.51282E-01
 -1       746 4.63683E+00
 -1       747 9.19774E+00
 -1       748 2.42209E-01
 -1       749 8.14248E+00
 -1       750 2.17825E-01
 -1       751 1.91764E-01
 -1       752 1.44922E-01
 -1       753 1.02378E-01
 -1       754 9.37875E-02
 -1       755 1.35391E-01
 -1       756 1.94524E-01
 -1       757 2.75961E-01
 -1       758 3.74848E-01
 -1       759 4.81880E-01
 -1       760 5.90072E-01
 -1       761 7.32639E-01
 -1       762 9.16284E-01
 -1       763 1.09611E+00
 -1       764 1.27732E+00
 -1       765 1.76819E+00
 -1       766 2.43728E+00
 -1       767 2.74441E+00
 -1       768 3.75132E+00
 -1       769 4.54267E+00
 -1       770 2.74743E+00
 -1       771 1.92173E+00
 -1       772 1.78981E+00
 -1       773 1.78125E+00
 -1       774 1.47929E+00
 -1       775 1.17893E+00
 -1       776 1.02468E+00
 -1       777 8.41981E-01
 -1       778 6.73186E-01
 -1       779 5.71291E-01
 -1       780 4.75113E-01
 -1       781 3.88122E-01
 -1       782 3.08589E-01
 -1       783 2.39735E-01
 -1       784 1.82272E-01
 -1       785 1.38961E-01
 -1       786 1.02901E-01
 -1       787 7.39291E-02
 -1       788 5.11797E-02
 -1       789 1.73446E-01
 -1       790 1.07882E-01
 -1       791 4.30625E-01
 -1       792 6.19209E-01
 -1       793 8.47860E-01
 -1       794 1.11813E+00
 -1       795 1.44803E+00
 -1       796 1.92623E+00
 -1       797 2.70597E+00
 -1       798 3.94219E+00
 -1       799 7.75853E+00
 -1       800 3.66689E+00
 -1       801 2.52257E+00
 -1       802 1.84750E+00
 -1       803 1.40960E+00
 -1       804 1.10306E+00
 -1       805 8.54287E-01
 -1       806 6.47925E-01
 -1       807 4.82634E-01
 -1       808 3.53365E-01
 -1       809 2.54072E-01
 -1       810 1.82182E-01
 -1       811 1.33252E-01
 -1       812 9.58855E-02
 -1       813 6.67755E-02
 -1       814 4.56742E-02
 -1       815 2.74743E+00
 -1       816 2.78956E-01
 -1       817 6.44385E-02
 -1       818 4.57786E-02
 -1       819 6.44385E-02
 -1       820 9.78137E+00
 -1       821 2.71444E-01
 -1       822 9.69539E+00
 -1       823 2.38277E+00
 -1       824 6.42236E-02
 -1       825 5.05717E+00
 -1       826 3.31792E+00
 -1       827 2.82655E-01
 -1       828 2.31315E-01
 -1       829 3.01565E-01
 -1       830 7.53644E+00
 -1       831 3.75950E+00
 -1       832 8.87064E+00
 -1       833 2.09985E-01
 -1       834 8.44813E+00
 -1       835 5.94521E+00
 -1       836 2.68416E-01
 -1       837 2.77740E-01
 -1       838 8.46339E+00
 -1       839 2.77474E-01
 -1       840 3.82909E+00
 -1       841 6.21165E-02
 -1       842 6.70887E-02
 -1       843 1.21603E-01
 -1       844 2.80007E-01
 -1       845 2.70465E-01
 -1       846 2.78956E-01
 -1       847 6.70887E-02
 -1       848 8.34858E+00
 -1       849 3.76471E+00
 -1       850 4.70537E-02
 -1       851 2.53315E-01
 -1       852 1.70598E-01
 -1       853 2.74441E+00
 -1       854 2.80007E-01
 -1       855 3.87184E+00
 -1       856 8.63609E+00
 -1       857 8.10056E+00
 -1       858 1.20132E-01
 -1       859 1.10770E-01
 -1       860 1.28753E-01
 -1       861 1.42020E-01
 -1       862 1.99038E-01
 -1       863 2.77825E-01
 -1       864 3.67805E-01
 -1       865 4.67126E-01
 -1       866 6.04373E-01
 -1       867 7.99589E-01
 -1       868 1.00324E+00
 -1       869 1.23195E+00
 -1       870 1.68593E+00
 -1       871 1.90825E+00
 -1       872 2.90795E+00
 -1       873 2.15982E+00
 -1       874 2.49777E+00
 -1       875 1.88652E+00
 -1       876 1.47531E+00
 -1       877 1.11404E+00
 -1       878 9.16459E-01
 -1       879 7.21557E-01
 -1       880 5.57203E-01
 -1       881 4.42421E-01
 -1       882 3.55631E-01
 -1       883 2.91674E-01
 -1       884 2.33270E-01
 -1       885 1.81495E-01
 -1       886 1.37409E-01
 -1       887 1.00863E-01
 -1       888 1.66633E-01
 -1       889 7.83396E-01
 -1       890 5.65381E-01
 -1       891 1.43548E+00
 -1       892 1.92623E+00
 -1       893 2.55823E+00
 -1       894 3.35277E+00
 -1       895 5.89297E+00
 -1       896 1.84750E+00
 -1       897 2.55068E+00
 -1       898 5.75632E+00
 -1       899 1.39621E+00
 -1       900 1.05408E+00
 -1       901 7.94238E-01
 -1       902 5.95951E-01
 -1       903 4.44116E-01
 -1       904 3.27819E-01
 -1       905 2.38938E-01
 -1       906 1.71411E-01
 -1       907 1.19810E-01
 -1       908 8.58420E-02
 -1       909 7.18156E+00
 -1       910 5.38271E-02
 -1       911 8.81915E-02
 -1       912 7.01757E+00
 -1       913 1.67478E-01
 -1       914 1.06558E+00
 -1       915 6.14948E+00
 -1       916 2.79532E-01
 -1       917 7.60595E+00
 -1       918 1.32370E-01
 -1       919 3.87184E+00
 -1       920 6.14948E+00
 -1       921 1.15929E-01
 -1       922 1.44702E-01
 -1       923 1.17344E-01
 -1       924 1.87372E+00
 -1       925 1.39116E-01
 -1       926 2.59377E-01
 -1       927 6.94571E-02
 -1       928 5.13543E+00
 -1       929 3.94437E-01
 -1       930 2.03953E-01
 -1       931 3.73284E+00
 -1       932 1.52307E-01
 -1       933 8.81915E-02
 -1       934 1.61066E-01
 -1       935 2.21364E-01
 -1       936 7.03493E+00
 -1       937 3.61388E+00
 -1       938 4.71112E+00
 -1       939 1.64204E-01
 -1       940 1.97107E-01
 -1       941 1.14004E-01
 -1       942 8.36822E-02
 -1       943 7.03493E+00
 -1       944 5.54484E+00
 -1       945 4.01881E+00
 -1       946 1.43798E-01
 -1       947 1.69852E-01
 -1       948 1.99038E-01
 -1       949 2.77825E-01
 -1       950 3.67805E-01
 -1       951 4.68259E-01
 -1       952 6.12613E-01
 -1       953 7.92168E-01
 -1       954 1.11031E+00
 -1       955 2.38658E+00
 -1       956 2.99849E+00
 -1       957 3.02399E+00
 -1       958 2.78664E+00
 -1       959 2.26135E+00
 -1       960 1.72347E+00
 -1       961 1.27652E+00
 -1       962 9.18592E-01
 -1       963 6.92521E-01
 -1       964 5.38419E-01
 -1       965 4.42421E-01
 -1       966 3.55631E-01
 -1       967 2.80328E-01
 -1       968 2.16995E-01
 -1       969 1.64864E-01
 -1       970 1.22832E-01
 -1       971 2.24725E+00
 -1       972 1.69445E+00
 -1       973 2.01684E-01
 -1       974 2.27710E+00
 -1       975 6.63391E+00
 -1       976 1.17594E+00
 -1       977 1.63563E+00
 -1       978 4.95998E+00
 -1       979 8.67395E-01
 -1       980 6.48826E-01
 -1       981 4.87846E-01
 -1       982 3.66258E-01
 -1       983 2.73271E-01
 -1       984 2.01918E-01
 -1       985 1.60969E-01
 -1       986 1.22643E-01
 -1       987 1.17600E-01
 -1       988 1.37537E-01
 -1       989 2.01684E-01
 -1       990 1.52307E-01
 -1       991 2.21364E-01
 -1       992 9.43745E-02
 -1       993 3.73284E+00
 -1       994 4.46496E+00
 -1       995 3.04236E+00
 -1       996 6.33316E-01
 -1       997 6.47488E-02
 -1       998 1.15467E-01
 -1       999 1.34143E-01
 -1      1000 5.54484E+00
 -1      1001 4.09510E+00
 -1      1002 1.80296E-01
 -1      1003 8.67997E-01
 -1      1004 4.59011E-01
 -1      1005 2.17720E-01
 -1      1006 1.29389E-01
 -1      1007 1.03126E-01
 -1      1008 1.20052E+00
 -1      1009 3.09546E+00
 -1      1010 1.56523E-01
 -1      1011 3.07549E+00
 -1      1012 1.10964E-01
 -1      1013 1.45432E-01
 -1      1014 1.42807E-01
 -1      1015 6.00410E-01
 -1      1016 3.53173E+00
 -1      1017 2.18644E-01
 -1      1018 2.64204E-01
 -1      1019 3.50971E-01
 -1      1020 4.68259E-01
 -1      1021 6.12613E-01
 -1      1022 7.92168E-01
 -1      1023 1.05399E+00
 -1      1024 1.91753E+00
 -1      1025 1.08860E+00
 -1      1026 1.29389E-01
 -1      1027 2.36029E+00
 -1      1028 1.55740E+00
 -1      1029 1.09753E+00
 -1      1030 8.79443E-01
 -1      1031 6.92521E-01
 -1      1032 5.38419E-01
 -1      1033 4.15060E-01
 -1      1034 3.17568E-01
 -1      1035 2.40777E-01
 -1      1036 2.03178E-01
 -1      1037 1.36384E-01
 -1      1038 1.15290E+00
 -1      1039 3.42268E+00
 -1      1040 7.96294E-01
 -1      1041 3.05353E+00
 -1      1042 4.59401E-01
 -1      1043 3.52807E-01
 -1      1044 2.69949E-01
 -1      1045 2.05442E-01
 -1      1046 1.60969E-01
 -1      1047 3.24351E-01
 -1      1048 8.77109E-02
 -1      1049 1.55890E+00
 -1      1050 1.84508E-01
 -1      1051 1.34143E-01
 -1      1052 1.13800E-01
 -1      1053 1.42807E-01
 -1      1054 1.46384E-01
 -1      1055 2.99849E+00
 -1      1056 2.45186E+00
 -1      1057 1.64885E+00
 -1      1058 3.37040E+00
 -1      1059 1.91342E+00
 -1      1060 6.46170E-02
 -1      1061 6.26941E-01
 -1      1062 5.77587E-01
 -1      1063 2.18704E-01
 -1      1064 2.59888E+00
 -1      1065 1.17160E-01
 -1      1066 6.46170E-02
 -1      1067 6.64476E-02
 -1      1068 1.84851E-01
 -1      1069 2.45186E+00
 -1      1070 2.03178E-01
 -1      1071 8.41466E-01
 -1      1072 1.85010E-01
 -1      1073 1.51997E-01
 -1      1074 3.85597E-01
 -1      1075 2.64204E-01
 -1      1076 3.03873E-01
 -1      1077 5.57026E-01
 -1      1078 7.87781E-01
 -1      1079 1.10380E+00
 -1      1080 1.56490E+00
 -1      1081 1.77537E+00
 -1      1082 1.77537E+00
 -1      1083 1.46384E-01
 -1      1084 2.81312E-01
 -1      1085 1.48558E+00
 -1      1086 1.09753E+00
 -1      1087 8.10673E-01
 -1      1088 5.98854E-01
 -1      1089 4.43733E-01
 -1      1090 3.29562E-01
 -1      1091 2.44957E-01
 -1      1092 2.03178E-01
 -1      1093 6.73603E-02
 -1      1094 2.92481E-01
 -1      1095 5.08770E-01
 -1      1096 2.19599E-01
 -1      1097 2.30318E-01
 -1      1098 1.84508E-01
 -1      1099 1.72330E+00
 -1      1100 1.24791E+00
 -1      1101 1.36089E-01
 -1      1102 1.25114E-01
 -1      1103 8.17453E-01
 -1      1104 1.27767E+00
 -1      1105 6.76158E-01
 -1      1106 8.14247E-02
 -1      1107 5.77587E-01
 -1      1108 2.42924E-01
 -1      1109 3.70766E-01
 -1      1110 2.18412E+00
 -1      1111 9.12239E-01
 -1      1112 1.84393E-01
 -1      1113 2.17007E-01
 -1      1114 1.76587E-01
 -1      1115 9.26517E-02
 -1      1116 9.26517E-02
 -1      1117 5.77587E-01
 -1      1118 1.53676E+00
 -1      1119 1.02740E+00
 -1      1120 7.02525E-01
 -1      1121 5.08770E-01
 -1      1122 3.85778E-01
 -1      1123 3.03080E-01
 -1      1124 2.34640E-01
 -1      1125 2.94503E-01
 -1      1126 1.84393E-01
 -1      1127 1.31414E+01
 -1      1128 8.38950E+00
 -1      1129 2.72147E+00
 -1      1130 1.54282E+00
 -1      1131 1.15727E+00
 -1      1132 9.62099E-01
 -1      1133 8.43851E-01
 -1      1134 7.70241E-01
 -1      1135 7.43833E-01
 -1      1136 7.73659E-01
 -1      1137 8.46689E-01
 -1      1138 9.67085E-01
 -1      1139 1.17032E+00
 -1      1140 1.55545E+00
 -1      1141 2.64599E+00
 -1      1142 6.05030E+00
 -1      1143 1.13303E+01
 -1      1144 1.31414E+01
 -1      1145 8.74103E+00
 -1      1146 3.85211E+00
 -1      1147 2.74951E+00
 -1      1148 1.76804E+00
 -1      1149 1.23672E+00
 -1      1150 9.59326E-01
 -1      1151 7.62175E-01
 -1      1152 6.14215E-01
 -1      1153 4.99152E-01
 -1      1154 4.06681E-01
 -1      1155 3.75447E-01
 -1      1156 3.97544E-01
 -1      1157 4.15711E-01
 -1      1158 4.65136E-01
 -1      1159 5.69891E-01
 -1      1160 6.80672E-01
 -1      1161 7.46760E-01
 -1      1162 7.63929E-01
 -1      1163 7.86914E-01
 -1      1164 8.41784E-01
 -1      1165 1.01912E+00
 -1      1166 1.44899E+00
 -1      1167 2.11344E+00
 -1      1168 2.66193E+00
 -1      1169 2.83038E+00
 -1      1170 2.81070E+00
 -1      1171 2.75243E+00
 -1      1172 2.41166E+00
 -1      1173 1.69040E+00
 -1      1174 1.14732E+00
 -1      1175 9.10050E-01
 -1      1176 7.96757E-01
 -1      1177 7.66346E-01
 -1      1178 7.35934E-01
 -1      1179 6.97795E-01
 -1      1180 6.02115E-01
 -1      1181 4.87712E-01
 -1      1182 3.85217E-01
 -1      1183 3.19567E-01
 -1      1184 2.75773E-01
 -1      1185 2.27971E-01
 -1      1186 1.81741E-01
 -1      1187 1.40162E-01
 -1      1188 1.07038E-01
 -1      1189 8.65938E-02
 -1      1190 7.22536E-02
 -1      1191 5.53676E-02
 -1      1192 3.49069E-02
 -1      1193 1.54795E-02
 -1      1194 1.40386E+01
 -1      1195 8.72836E+00
 -1      1196 2.92836E+00
 -1      1197 2.06686E+00
 -1      1198 1.43709E+00
 -1      1199 1.07892E+00
 -1      1200 9.02176E-01
 -1      1201 7.67417E-01
 -1      1202 6.66028E-01
 -1      1203 5.92918E-01
 -1      1204 5.45103E-01
 -1      1205 5.20380E-01
 -1      1206 5.56079E-01
 -1      1207 6.56338E-01
 -1      1208 7.77872E-01
 -1      1209 9.02026E-01
 -1      1210 1.00189E+00
 -1      1211 1.08560E+00
 -1      1212 1.32982E+00
 -1      1213 1.69313E+00
 -1      1214 1.93753E+00
 -1      1215 2.20880E+00
 -1      1216 2.46753E+00
 -1      1217 2.91018E+00
 -1      1218 4.28275E+00
 -1      1219 5.64402E+00
 -1      1220 6.00679E+00
 -1      1221 5.89073E+00
 -1      1222 4.55418E+00
 -1      1223 2.62946E+00
 -1      1224 1.99538E+00
 -1      1225 2.14334E+00
 -1      1226 2.22113E+00
 -1      1227 2.12188E+00
 -1      1228 1.85754E+00
 -1      1229 1.54493E+00
 -1      1230 1.24894E+00
 -1      1231 9.67691E-01
 -1      1232 7.24287E-01
 -1      1233 5.28736E-01
 -1      1234 3.91470E-01
 -1      1235 2.96599E-01
 -1      1236 2.20398E-01
 -1      1237 1.60559E-01
 -1      1238 1.14245E-01
 -1      1239 7.85307E-02
 -1      1240 5.71681E-02
 -1      1241 4.45381E-02
 -1      1242 2.96966E-02
 -1      1243 1.41180E-02
 -1      1244 6.68543E-03
 -1      1245 7.69947E-03
 -1      1246 8.57232E-03
 -1      1247 7.46939E-03
 -1      1248 4.51811E-03
 -1      1249 4.18219E-03
 -1      1250 6.77715E-03
 -1      1251 8.17676E-03
 -1      1252 8.49381E-03
 -1      1253 8.12726E-03
 -1      1254 6.64635E-03
 -1      1255 4.10007E-03
 -1      1256 4.33509E-03
 -1      1257 6.99859E-03
 -1      1258 8.46038E-03
 -1      1259 9.40302E-03
 -1      1260 8.57613E-03
 -1      1261 2.62537E+01
 -1      1262 3.73265E+01
 -1      1263 4.83992E+01
 -1      1264 3.48862E+01
 -1      1265 1.69235E+01
 -1      1266 1.30954E+01
 -1      1267 1.37169E+01
 -1      1268 1.34193E+01
 -1      1269 1.27329E+01
 -1      1270 1.47475E+01
 -1      1271 3.07476E+01
 -1      1272 4.43441E+01
 -1      1273 3.46434E+01
 -1      1274 2.49427E+01
 -1      1275 2.50972E+01
 -1      1276 2.81559E+01
 -1      1277 3.10600E+01
 -1      1278 2.83811E+01
 -1      1279 1.89720E+01
 -1      1280 1.26123E+01
 -1      1281 1.29830E+01
 -1      1282 1.24335E+01
 -1      1283 1.18840E+01
 -1      1284 1.18082E+01
 -1      1285 1.68048E+01
 -1      1286 3.48882E+01
 -1      1287 4.78992E+01
 -1      1288 3.68135E+01
 -1      1289 2.59907E+01
 -1      1290 1.31414E+01
 -1      1291 4.84064E+00
 -1      1292 9.59258E+00
 -1      1293 2.04232E+00
 -1      1294 2.95841E+00
 -1      1295 4.16149E+00
 -1      1296 1.38858E+00
 -1      1297 1.65115E+00
 -1      1298 1.88808E+00
 -1      1299 1.09227E+00
 -1      1300 1.21526E+00
 -1      1301 1.32358E+00
 -1      1302 9.26784E-01
 -1      1303 9.98964E-01
 -1      1304 1.05695E+00
 -1      1305 8.26340E-01
 -1      1306 8.72408E-01
 -1      1307 9.09273E-01
 -1      1308 7.64052E-01
 -1      1309 7.91594E-01
 -1      1310 8.20151E-01
 -1      1311 7.44967E-01
 -1      1312 7.43833E-01
 -1      1313 7.65186E-01
 -1      1314 7.95766E-01
 -1      1315 7.67074E-01
 -1      1316 7.67074E-01
 -1      1317 8.74587E-01
 -1      1318 8.30248E-01
 -1      1319 8.23664E-01
 -1      1320 1.00797E+00
 -1      1321 9.31915E-01
 -1      1322 9.15474E-01
 -1      1323 1.23096E+00
 -1      1324 1.10378E+00
 -1      1325 1.06861E+00
 -1      1326 1.66582E+00
 -1      1327 1.40786E+00
 -1      1328 1.34132E+00
 -1      1329 2.86372E+00
 -1      1330 2.03114E+00
 -1      1331 1.88355E+00
 -1      1332 6.26615E+00
 -1      1333 3.69442E+00
 -1      1334 3.07957E+00
 -1      1335 1.40386E+01
 -1      1336 1.13303E+01
 -1      1337 8.97445E+00
 -1      1338 1.40386E+01
 -1      1339 8.74103E+00
 -1      1340 4.34062E+00
 -1      1341 3.85211E+00
 -1      1342 3.36360E+00
 -1      1343 3.85211E+00
 -1      1344 2.74951E+00
 -1      1345 2.13543E+00
 -1      1346 2.74951E+00
 -1      1347 1.80003E+00
 -1      1348 1.43263E+00
 -1      1349 1.80003E+00
 -1      1350 1.23672E+00
 -1      1351 1.07280E+00
 -1      1352 1.26871E+00
 -1      1353 9.59326E-01
 -1      1354 8.45849E-01
 -1      1355 9.59326E-01
 -1      1356 7.62175E-01
 -1      1357 6.78502E-01
 -1      1358 7.62175E-01
 -1      1359 6.14215E-01
 -1      1360 5.49928E-01
 -1      1361 6.14215E-01
 -1      1362 4.99152E-01
 -1      1363 4.48377E-01
 -1      1364 4.99152E-01
 -1      1365 4.06681E-01
 -1      1366 3.64984E-01
 -1      1367 4.06681E-01
 -1      1368 3.62935E-01
 -1      1369 3.73398E-01
 -1      1370 3.62935E-01
 -1      1371 3.85909E-01
 -1      1372 3.97544E-01
 -1      1373 3.73398E-01
 -1      1374 4.09179E-01
 -1      1375 4.15711E-01
 -1      1376 3.97544E-01
 -1      1377 4.22242E-01
 -1      1378 4.65136E-01
 -1      1379 4.15711E-01
 -1      1380 5.08029E-01
 -1      1381 5.69891E-01
 -1      1382 4.65136E-01
 -1      1383 6.31753E-01
 -1      1384 6.80672E-01
 -1      1385 5.69891E-01
 -1      1386 7.29591E-01
 -1      1387 7.46760E-01
 -1      1388 6.80672E-01
 -1      1389 7.63929E-01
 -1      1390 7.63929E-01
 -1      1391 7.46760E-01
 -1      1392 7.60685E-01
 -1      1393 7.83670E-01
 -1      1394 7.60685E-01
 -1      1395 8.09899E-01
 -1      1396 8.41784E-01
 -1      1397 7.83670E-01
 -1      1398 8.73668E-01
 -1      1399 1.01912E+00
 -1      1400 8.41784E-01
 -1      1401 1.16458E+00
 -1      1402 1.44899E+00
 -1      1403 1.01912E+00
 -1      1404 1.73340E+00
 -1      1405 2.11344E+00
 -1      1406 1.44899E+00
 -1      1407 2.49348E+00
 -1      1408 2.66193E+00
 -1      1409 2.11344E+00
 -1      1410 2.83038E+00
 -1      1411 2.83038E+00
 -1      1412 2.66193E+00
 -1      1413 2.81070E+00
 -1      1414 2.79103E+00
 -1      1415 2.81070E+00
 -1      1416 2.75243E+00
 -1      1417 2.71382E+00
 -1      1418 2.75243E+00
 -1      1419 2.41166E+00
 -1      1420 2.10950E+00
 -1      1421 2.41166E+00
 -1      1422 1.76422E+00
 -1      1423 1.34512E+00
 -1      1424 1.76422E+00
 -1      1425 1.14732E+00
 -1      1426 1.02334E+00
 -1      1427 1.22114E+00
 -1      1428 8.99840E-01
 -1      1429 7.86547E-01
 -1      1430 8.99840E-01
 -1      1431 7.96757E-01
 -1      1432 7.96757E-01
 -1      1433 7.86547E-01
 -1      1434 7.62193E-01
 -1      1435 7.31781E-01
 -1      1436 7.62193E-01
 -1      1437 7.35934E-01
 -1      1438 7.35934E-01
 -1      1439 7.31781E-01
 -1      1440 6.97795E-01
 -1      1441 6.59655E-01
 -1      1442 6.97795E-01
 -1      1443 6.02115E-01
 -1      1444 5.44576E-01
 -1      1445 6.02115E-01
 -1      1446 4.98766E-01
 -1      1447 4.41902E-01
 -1      1448 4.98766E-01
 -1      1449 4.09322E-01
 -1      1450 3.63692E-01
 -1      1451 4.20377E-01
 -1      1452 3.28922E-01
 -1      1453 3.08902E-01
 -1      1454 3.53027E-01
 -1      1455 2.75773E-01
 -1      1456 2.51998E-01
 -1      1457 2.85127E-01
 -1      1458 2.27971E-01
 -1      1459 2.03944E-01
 -1      1460 2.27971E-01
 -1      1461 1.81741E-01
 -1      1462 1.59537E-01
 -1      1463 1.81741E-01
 -1      1464 1.42375E-01
 -1      1465 1.23000E-01
 -1      1466 1.42375E-01
 -1      1467 1.08135E-01
 -1      1468 9.43867E-02
 -1      1469 1.10349E-01
 -1      1470 8.65938E-02
 -1      1471 7.98985E-02
 -1      1472 8.76914E-02
 -1      1473 7.22536E-02
 -1      1474 6.46087E-02
 -1      1475 7.22536E-02
 -1      1476 5.53676E-02
 -1      1477 4.61265E-02
 -1      1478 5.53676E-02
 -1      1479 3.62145E-02
 -1      1480 2.49949E-02
 -1      1481 3.62145E-02
 -1      1482 1.67838E-02
 -1      1483 1.80915E-02
 -1      1484 3.41807E+00
 -1      1485 8.72836E+00
 -1      1486 8.72836E+00
 -1      1487 2.43865E+00
 -1      1488 2.92836E+00
 -1      1489 2.92836E+00
 -1      1490 1.69507E+00
 -1      1491 2.06686E+00
 -1      1492 2.06686E+00
 -1      1493 1.17910E+00
 -1      1494 1.43709E+00
 -1      1495 1.43709E+00
 -1      1496 9.78739E-01
 -1      1497 1.07892E+00
 -1      1498 1.07892E+00
 -1      1499 8.25613E-01
 -1      1500 9.02176E-01
 -1      1501 9.02176E-01
 -1      1502 7.09222E-01
 -1      1503 7.67417E-01
 -1      1504 7.67417E-01
 -1      1505 6.22833E-01
 -1      1506 6.66028E-01
 -1      1507 6.66028E-01
 -1      1508 5.63003E-01
 -1      1509 5.92918E-01
 -1      1510 5.92918E-01
 -1      1511 5.27204E-01
 -1      1512 5.45103E-01
 -1      1513 5.45103E-01
 -1      1514 5.12939E-01
 -1      1515 5.19762E-01
 -1      1516 5.19762E-01
 -1      1517 5.57130E-01
 -1      1518 5.14608E-01
 -1      1519 5.13990E-01
 -1      1520 6.62777E-01
 -1      1521 6.05040E-01
 -1      1522 5.63569E-01
 -1      1523 7.77940E-01
 -1      1524 7.14143E-01
 -1      1525 6.62845E-01
 -1      1526 9.02026E-01
 -1      1527 8.41669E-01
 -1      1528 7.77940E-01
 -1      1529 1.00189E+00
 -1      1530 9.62382E-01
 -1      1531 9.02026E-01
 -1      1532 1.08560E+00
 -1      1533 1.04139E+00
 -1      1534 1.00189E+00
 -1      1535 1.41640E+00
 -1      1536 1.21639E+00
 -1      1537 1.17218E+00
 -1      1538 1.69313E+00
 -1      1539 1.52983E+00
 -1      1540 1.41640E+00
 -1      1541 1.93753E+00
 -1      1542 1.85642E+00
 -1      1543 1.69313E+00
 -1      1544 2.20880E+00
 -1      1545 2.01865E+00
 -1      1546 1.93753E+00
 -1      1547 2.46753E+00
 -1      1548 2.39894E+00
 -1      1549 2.20880E+00
 -1      1550 2.91018E+00
 -1      1551 2.53612E+00
 -1      1552 2.46753E+00
 -1      1553 4.36303E+00
 -1      1554 3.36453E+00
 -1      1555 2.99047E+00
 -1      1556 5.64402E+00
 -1      1557 5.28125E+00
 -1      1558 4.36303E+00
 -1      1559 6.00679E+00
 -1      1560 6.00679E+00
 -1      1561 5.64402E+00
 -1      1562 5.77466E+00
 -1      1563 5.89073E+00
 -1      1564 5.89073E+00
 -1      1565 3.33370E+00
 -1      1566 4.55418E+00
 -1      1567 4.55418E+00
 -1      1568 1.92522E+00
 -1      1569 2.62946E+00
 -1      1570 2.62946E+00
 -1      1571 1.93547E+00
 -1      1572 1.86531E+00
 -1      1573 1.86531E+00
 -1      1574 2.14334E+00
 -1      1575 2.06554E+00
 -1      1576 1.93547E+00
 -1      1577 2.22113E+00
 -1      1578 2.22113E+00
 -1      1579 2.14334E+00
 -1      1580 2.02263E+00
 -1      1581 2.12188E+00
 -1      1582 2.12188E+00
 -1      1583 1.69244E+00
 -1      1584 1.85754E+00
 -1      1585 1.85754E+00
 -1      1586 1.39748E+00
 -1      1587 1.54499E+00
 -1      1588 1.54499E+00
 -1      1589 1.11758E+00
 -1      1590 1.26605E+00
 -1      1591 1.26611E+00
 -1      1592 8.59824E-01
 -1      1593 9.92603E-01
 -1      1594 1.00971E+00
 -1      1595 6.40590E-01
 -1      1596 7.51215E-01
 -1      1597 7.76127E-01
 -1      1598 4.66578E-01
 -1      1599 5.51504E-01
 -1      1600 5.78432E-01
 -1      1601 3.45562E-01
 -1      1602 3.97901E-01
 -1      1603 4.20669E-01
 -1      1604 2.54067E-01
 -1      1605 2.96599E-01
 -1      1606 3.03030E-01
 -1      1607 1.86730E-01
 -1      1608 2.20398E-01
 -1      1609 2.20398E-01
 -1      1610 1.35022E-01
 -1      1611 1.61193E-01
 -1      1612 1.61193E-01
 -1      1613 9.57830E-02
 -1      1614 1.15927E-01
 -1      1615 1.16561E-01
 -1      1616 6.54056E-02
 -1      1617 8.09751E-02
 -1      1618 8.26580E-02
 -1      1619 5.13749E-02
 -1      1620 5.71681E-02
 -1      1621 5.96125E-02
 -1      1622 3.77014E-02
 -1      1623 4.45381E-02
 -1      1624 4.45381E-02
 -1      1625 2.16918E-02
 -1      1626 2.96966E-02
 -1      1627 2.96966E-02
 -1      1628 1.42592E-02
 -1      1629 1.06590E-02
 -1      1630 9.78612E-03
 -1      1631 1.18330E-02
 -1      1632 1.18330E-02
 -1      1633 1.39196E-02
 -1      1634 1.07300E-02
 -1      1635 1.18330E-02
 -1      1636 1.50936E-02
 -1      1637 6.10254E-03
 -1      1638 7.95087E-03
 -1      1639 1.23145E-02
 -1      1640 8.58734E-03
 -1      1641 7.07493E-03
 -1      1642 1.05077E-02
 -1      1643 1.18306E-02
 -1      1644 1.07481E-02
 -1      1645 1.36408E-02
 -1      1646 1.29836E-02
 -1      1647 1.26665E-02
 -1      1648 1.66374E-02
 -1      1649 1.29836E-02
 -1      1650 1.29836E-02
 -1      1651 1.74733E-02
 -1      1652 1.25660E-02
 -1      1653 1.29325E-02
 -1      1654 1.74223E-02
 -1      1655 1.04278E-02
 -1      1656 1.15422E-02
 -1      1657 1.63474E-02
 -1      1658 6.86301E-03
 -1      1659 8.29491E-03
 -1      1660 1.31907E-02
 -1      1661 7.39947E-03
 -1      1662 5.73255E-03
 -1      1663 9.92739E-03
 -1      1664 1.12566E-02
 -1      1665 1.02600E-02
 -1      1666 1.16575E-02
 -1      1667 1.17218E-02
 -1      1668 1.12566E-02
 -1      1669 1.45180E-02
 -1      1670 1.27280E-02
 -1      1671 1.22505E-02
 -1      1672 1.50468E-02
 -1      1673 2.09390E-02
 -1      1674 2.93675E+01
 -1      1675 2.93675E+01
 -1      1676 3.90799E+01
 -1      1677 2.80071E+01
 -1      1678 4.83992E+01
 -1      1679 4.83992E+01
 -1      1680 2.24088E+01
 -1      1681 3.59218E+01
 -1      1682 1.19650E+01
 -1      1683 1.64146E+01
 -1      1684 1.30954E+01
 -1      1685 1.24739E+01
 -1      1686 1.37169E+01
 -1      1687 1.37169E+01
 -1      1688 1.31218E+01
 -1      1689 1.34193E+01
 -1      1690 1.23439E+01
 -1      1691 1.27329E+01
 -1      1692 1.41950E+01
 -1      1693 1.17914E+01
 -1      1694 3.10648E+01
 -1      1695 1.74684E+01
 -1      1696 4.43441E+01
 -1      1697 4.43441E+01
 -1      1698 3.08965E+01
 -1      1699 4.05971E+01
 -1      1700 2.83577E+01
 -1      1701 2.83577E+01
 -1      1702 2.85122E+01
 -1      1703 2.83577E+01
 -1      1704 3.14828E+01
 -1      1705 2.85787E+01
 -1      1706 3.14828E+01
 -1      1707 3.14828E+01
 -1      1708 2.64730E+01
 -1      1709 2.91519E+01
 -1      1710 1.21396E+01
 -1      1711 1.88699E+01
 -1      1712 1.26123E+01
 -1      1713 1.22416E+01
 -1      1714 1.29830E+01
 -1      1715 1.29830E+01
 -1      1716 1.17302E+01
 -1      1717 1.22797E+01
 -1      1718 1.18840E+01
 -1      1719 1.18840E+01
 -1      1720 1.17325E+01
 -1      1721 1.18082E+01
 -1      1722 1.65557E+01
 -1      1723 1.14833E+01
 -1      1724 3.58377E+01
 -1      1725 2.28267E+01
 -1      1726 4.78992E+01
 -1      1727 4.78992E+01
 -1      1728 2.75196E+01
 -1      1729 3.86053E+01
 -1      1730 2.93675E+01
 -1      1731 2.91045E+01
 -1      1732 1.74503E+01
 -1      1733 3.59218E+01
 -1      1734 1.42592E-02
 -1      1735 1.72187E-02
 -1      1736 3.11209E+01
 -1      1737 3.90799E+01
 -1      1738 3.24812E+01
 -1      1739 1.19650E+01
 -1      1740 1.30954E+01
 -1      1741 1.34193E+01
 -1      1742 1.27329E+01
 -1      1743 1.17914E+01
 -1      1744 1.45122E+01
 -1      1745 3.10648E+01
 -1      1746 4.05971E+01
 -1      1747 3.43115E+01
 -1      1748 3.17727E+01
 -1      1749 3.18392E+01
 -1      1750 3.19057E+01
 -1      1751 2.95747E+01
 -1      1752 1.96406E+01
 -1      1753 1.21396E+01
 -1      1754 1.26123E+01
 -1      1755 1.22797E+01
 -1      1756 1.17302E+01
 -1      1757 1.18082E+01
 -1      1758 1.14833E+01
 -1      1759 1.75051E+01
 -1      1760 3.58377E+01
 -1      1761 3.86053E+01
 -1      1762 3.08963E+01
 -1      1763 9.59258E+00
 -1      1764 1.27515E+00
 -1      1765 1.66632E+00
 -1      1766 2.36630E+00
 -1      1767 4.24853E+00
 -1      1768 1.75337E+00
 -1      1769 8.72700E-01
 -1      1770 9.66005E-01
 -1      1771 7.71093E-01
 -1      1772 8.25469E-01
 -1      1773 7.34520E-01
 -1      1774 7.04322E-01
 -1      1775 7.39069E-01
 -1      1776 6.55264E-01
 -1      1777 6.61531E-01
 -1      1778 6.81750E-01
 -1      1779 6.00668E-01
 -1      1780 6.85386E-01
 -1      1781 6.63279E-01
 -1      1782 5.79844E-01
 -1      1783 7.42112E-01
 -1      1784 7.07630E-01
 -1      1785 6.03835E-01
 -1      1786 8.33209E-01
 -1      1787 7.75881E-01
 -1      1788 6.59847E-01
 -1      1789 9.76873E-01
 -1      1790 8.81067E-01
 -1      1791 7.41475E-01
 -1      1792 1.22149E+00
 -1      1793 1.04459E+00
 -1      1794 8.57048E-01
 -1      1795 1.69550E+00
 -1      1796 1.33018E+00
 -1      1797 1.03345E+00
 -1      1798 2.60903E+00
 -1      1799 1.77834E+00
 -1      1800 1.22497E+00
 -1      1801 8.11709E+00
 -1      1802 3.05290E+00
 -1      1803 1.75167E+00
 -1      1804 2.80681E+00
 -1      1805 5.19217E+00
 -1      1806 2.17170E+00
 -1      1807 2.66141E+00
 -1      1808 2.05014E+00
 -1      1809 3.39698E+00
 -1      1810 2.55295E+00
 -1      1811 1.93886E+00
 -1      1812 1.70663E+00
 -1      1813 1.37123E+00
 -1      1814 1.51007E+00
 -1      1815 1.18917E+00
 -1      1816 9.93261E-01
 -1      1817 1.09578E+00
 -1      1818 8.79961E-01
 -1      1819 7.66484E-01
 -1      1820 8.00419E-01
 -1      1821 7.14978E-01
 -1      1822 6.31305E-01
 -1      1823 6.35614E-01
 -1      1824 5.84230E-01
 -1      1825 5.19943E-01
 -1      1826 5.37033E-01
 -1      1827 4.77151E-01
 -1      1828 4.26375E-01
 -1      1829 4.47166E-01
 -1      1830 3.87271E-01
 -1      1831 3.45575E-01
 -1      1832 3.65269E-01
 -1      1833 3.21856E-01
 -1      1834 3.19806E-01
 -1      1835 3.02446E-01
 -1      1836 3.32062E-01
 -1      1837 3.44574E-01
 -1      1838 2.90982E-01
 -1      1839 3.55364E-01
 -1      1840 3.66999E-01
 -1      1841 3.14028E-01
 -1      1842 3.73870E-01
 -1      1843 3.80401E-01
 -1      1844 3.31689E-01
 -1      1845 4.15710E-01
 -1      1846 4.58604E-01
 -1      1847 3.73869E-01
 -1      1848 4.97121E-01
 -1      1849 5.58983E-01
 -1      1850 4.47696E-01
 -1      1851 5.87084E-01
 -1      1852 6.36003E-01
 -1      1853 5.14314E-01
 -1      1854 6.37597E-01
 -1      1855 6.54766E-01
 -1      1856 5.44008E-01
 -1      1857 6.13628E-01
 -1      1858 6.10384E-01
 -1      1859 5.04465E-01
 -1      1860 5.68181E-01
 -1      1861 5.94411E-01
 -1      1862 4.21124E-01
 -1      1863 6.47095E-01
 -1      1864 6.78979E-01
 -1      1865 4.31606E-01
 -1      1866 8.65031E-01
 -1      1867 1.01049E+00
 -1      1868 6.70343E-01
 -1      1869 1.20101E+00
 -1      1870 1.48542E+00
 -1      1871 1.04692E+00
 -1      1872 1.66058E+00
 -1      1873 2.04061E+00
 -1      1874 1.41260E+00
 -1      1875 2.16352E+00
 -1      1876 2.33198E+00
 -1      1877 1.71066E+00
 -1      1878 2.30959E+00
 -1      1879 2.28991E+00
 -1      1880 1.81119E+00
 -1      1881 2.32073E+00
 -1      1882 2.28212E+00
 -1      1883 1.81961E+00
 -1      1884 2.22405E+00
 -1      1885 1.92189E+00
 -1      1886 1.79235E+00
 -1      1887 1.73099E+00
 -1      1888 1.38571E+00
 -1      1889 1.54338E+00
 -1      1890 1.23176E+00
 -1      1891 1.03396E+00
 -1      1892 1.19853E+00
 -1      1893 8.17206E-01
 -1      1894 6.93704E-01
 -1      1895 8.27823E-01
 -1      1896 5.66025E-01
 -1      1897 5.76235E-01
 -1      1898 4.83392E-01
 -1      1899 6.04331E-01
 -1      1900 5.69766E-01
 -1      1901 3.83808E-01
 -1      1902 6.21495E-01
 -1      1903 6.25647E-01
 -1      1904 4.63632E-01
 -1      1905 6.41931E-01
 -1      1906 6.03792E-01
 -1      1907 5.31645E-01
 -1      1908 5.87717E-01
 -1      1909 5.30178E-01
 -1      1910 5.31854E-01
 -1      1911 5.01256E-01
 -1      1912 4.55446E-01
 -1      1913 4.86858E-01
 -1      1914 4.28994E-01
 -1      1915 3.96414E-01
 -1      1916 4.31484E-01
 -1      1917 3.70486E-01
 -1      1918 3.35716E-01
 -1      1919 3.79104E-01
 -1      1920 3.05541E-01
 -1      1921 2.72412E-01
 -1      1922 3.23001E-01
 -1      1923 2.42263E-01
 -1      1924 2.18236E-01
 -1      1925 2.62677E-01
 -1      1926 1.90697E-01
 -1      1927 1.68493E-01
 -1      1928 2.04988E-01
 -1      1929 1.44864E-01
 -1      1930 1.27702E-01
 -1      1931 1.53820E-01
 -1      1932 1.10349E-01
 -1      1933 9.54843E-02
 -1      1934 1.12837E-01
 -1      1935 8.29214E-02
 -1      1936 7.51285E-02
 -1      1937 8.29214E-02
 -1      1938 6.52649E-02
 -1      1939 5.76200E-02
 -1      1940 6.04949E-02
 -1      1941 5.06663E-02
 -1      1942 4.14253E-02
 -1      1943 4.36776E-02
 -1      1944 3.52113E-02
 -1      1945 2.52993E-02
 -1      1946 1.99357E-02
 -1      1947 3.05100E-02
 -1      1948 1.42110E+00
 -1      1949 1.79289E+00
 -1      1950 1.52594E+00
 -1      1951 1.03789E+00
 -1      1952 1.29587E+00
 -1      1953 1.02190E+00
 -1      1954 8.40860E-01
 -1      1955 9.41042E-01
 -1      1956 7.99828E-01
 -1      1957 6.82762E-01
 -1      1958 7.59326E-01
 -1      1959 6.21446E-01
 -1      1960 6.03325E-01
 -1      1961 6.61520E-01
 -1      1962 5.18670E-01
 -1      1963 5.39852E-01
 -1      1964 5.83047E-01
 -1      1965 4.77150E-01
 -1      1966 4.92761E-01
 -1      1967 5.22676E-01
 -1      1968 4.39696E-01
 -1      1969 4.61956E-01
 -1      1970 4.79856E-01
 -1      1971 4.09614E-01
 -1      1972 4.46000E-01
 -1      1973 4.53441E-01
 -1      1974 3.88193E-01
 -1      1975 4.74883E-01
 -1      1976 4.73213E-01
 -1      1977 4.06892E-01
 -1      1978 6.11186E-01
 -1      1979 5.63276E-01
 -1      1980 5.22499E-01
 -1      1981 7.71232E-01
 -1      1982 7.19866E-01
 -1      1983 7.19573E-01
 -1      1984 9.53829E-01
 -1      1985 8.90100E-01
 -1      1986 9.47121E-01
 -1      1987 1.13154E+00
 -1      1988 1.07118E+00
 -1      1989 1.18334E+00
 -1      1990 1.26417E+00
 -1      1991 1.22467E+00
 -1      1992 1.39382E+00
 -1      1993 1.47764E+00
 -1      1994 1.34685E+00
 -1      1995 1.56963E+00
 -1      1996 1.61565E+00
 -1      1997 1.50222E+00
 -1      1998 1.67688E+00
 -1      1999 1.78393E+00
 -1      2000 1.62063E+00
 -1      2001 1.70645E+00
 -1      2002 1.71131E+00
 -1      2003 1.63019E+00
 -1      2004 1.55770E+00
 -1      2005 1.95515E+00
 -1      2006 1.76500E+00
 -1      2007 1.45766E+00
 -1      2008 2.34190E+00
 -1      2009 2.27331E+00
 -1      2010 1.82951E+00
 -1      2011 3.14516E+00
 -1      2012 2.69081E+00
 -1      2013 2.49658E+00
 -1      2014 4.67935E+00
 -1      2015 3.76113E+00
 -1      2016 3.46147E+00
 -1      2017 4.96497E+00
 -1      2018 4.60220E+00
 -1      2019 4.00030E+00
 -1      2020 4.51785E+00
 -1      2021 4.63392E+00
 -1      2022 3.59210E+00
 -1      2023 2.81910E+00
 -1      2024 4.03958E+00
 -1      2025 2.78277E+00
 -1      2026 1.75713E+00
 -1      2027 2.46137E+00
 -1      2028 1.94677E+00
 -1      2029 1.66280E+00
 -1      2030 1.72271E+00
 -1      2031 1.55463E+00
 -1      2032 1.89525E+00
 -1      2033 1.76518E+00
 -1      2034 1.62258E+00
 -1      2035 1.95893E+00
 -1      2036 1.88114E+00
 -1      2037 1.71084E+00
 -1      2038 1.83185E+00
 -1      2039 1.93110E+00
 -1      2040 1.66890E+00
 -1      2041 1.58498E+00
 -1      2042 1.75007E+00
 -1      2043 1.55928E+00
 -1      2044 1.34207E+00
 -1      2045 1.48953E+00
 -1      2046 1.38206E+00
 -1      2047 1.09617E+00
 -1      2048 1.22760E+00
 -1      2049 1.17214E+00
 -1      2050 8.62866E-01
 -1      2051 9.87841E-01
 -1      2052 9.49329E-01
 -1      2053 6.56956E-01
 -1      2054 7.65566E-01
 -1      2055 7.43696E-01
 -1      2056 4.86206E-01
 -1      2057 5.75292E-01
 -1      2058 5.64731E-01
 -1      2059 3.51993E-01
 -1      2060 4.20669E-01
 -1      2061 4.17530E-01
 -1      2062 2.52089E-01
 -1      2063 3.01052E-01
 -1      2064 3.01052E-01
 -1      2065 1.85689E-01
 -1      2066 2.19358E-01
 -1      2067 2.17380E-01
 -1      2068 1.35655E-01
 -1      2069 1.61193E-01
 -1      2070 1.60152E-01
 -1      2071 9.74659E-02
 -1      2072 1.16561E-01
 -1      2073 1.16561E-01
 -1      2074 6.78501E-02
 -1      2075 8.26580E-02
 -1      2076 8.26580E-02
 -1      2077 4.80172E-02
 -1      2078 5.62548E-02
 -1      2079 5.62548E-02
 -1      2080 3.33961E-02
 -1      2081 4.02329E-02
 -1      2082 3.68752E-02
 -1      2083 1.86584E-02
 -1      2084 2.66632E-02
 -1      2085 2.23579E-02
 -1      2086 1.41853E-02
 -1      2087 1.37245E-02
 -1      2088 1.65037E-02
 -1      2089 1.97434E-02
 -1      2090 1.97434E-02
 -1      2091 2.11535E-02
 -1      2092 1.97434E-02
 -1      2093 1.85694E-02
 -1      2094 2.00091E-02
 -1      2095 2.43931E-02
 -1      2096 1.39724E-02
 -1      2097 1.30000E-02
 -1      2098 1.71892E-02
 -1      2099 1.94981E-02
 -1      2100 1.73374E-02
 -1      2101 1.98297E-02
 -1      2102 2.18600E-02
 -1      2103 2.10241E-02
 -1      2104 2.47207E-02
 -1      2105 2.18600E-02
 -1      2106 2.18600E-02
 -1      2107 2.62467E-02
 -1      2108 2.15110E-02
 -1      2109 2.15621E-02
 -1      2110 2.59487E-02
 -1      2111 2.04872E-02
 -1      2112 2.15110E-02
 -1      2113 2.56508E-02
 -1      2114 1.66161E-02
 -1      2115 1.87490E-02
 -1      2116 2.39126E-02
 -1      2117 1.20372E-02
 -1      2118 1.31676E-02
 -1      2119 1.87259E-02
 -1      2120 1.58139E-02
 -1      2121 1.29533E-02
 -1      2122 1.61936E-02
 -1      2123 1.86055E-02
 -1      2124 1.86055E-02
 -1      2125 1.99013E-02
 -1      2126 3.90799E+01
 -1      2127 2.97605E+01
 -1      2128 3.24812E+01
 -1      2129 3.24812E+01
 -1      2130 2.97887E+01
 -1      2131 3.11491E+01
 -1      2132 2.03579E+01
 -1      2133 3.28353E+01
 -1      2134 2.35160E+01
 -1      2135 1.09465E+01
 -1      2136 1.69407E+01
 -1      2137 1.02825E+00
 -1      2138 1.20157E+00
 -1      2139 9.79819E-01
 -1      2140 8.43996E-01
 -1      2141 1.16261E+01
 -1      2142 1.10046E+01
 -1      2143 1.15064E+01
 -1      2144 1.18039E+01
 -1      2145 1.11119E+01
 -1      2146 1.15008E+01
 -1      2147 9.94524E+00
 -1      2148 1.04978E+01
 -1      2149 1.31904E+01
 -1      2150 9.91705E+00
 -1      2151 2.96825E+01
 -1      2152 1.64033E+01
 -1      2153 3.12448E+01
 -1      2154 3.49917E+01
 -1      2155 2.03302E+01
 -1      2156 3.01966E+01
 -1      2157 3.27354E+01
 -1      2158 3.41459E+01
 -1      2159 3.41459E+01
 -1      2160 3.42124E+01
 -1      2161 3.41459E+01
 -1      2162 3.65192E+01
 -1      2163 3.19057E+01
 -1      2164 3.19057E+01
 -1      2165 2.32911E+01
 -1      2166 2.56221E+01
 -1      2167 1.11689E+01
 -1      2168 1.87720E+01
 -1      2169 9.93052E+00
 -1      2170 9.82846E+00
 -1      2171 1.12530E+01
 -1      2172 1.08823E+01
 -1      2173 1.14979E+01
 -1      2174 1.22012E+01
 -1      2175 1.12086E+01
 -1      2176 1.10548E+01
 -1      2177 1.06603E+01
 -1      2178 1.07360E+01
 -1      2179 9.03027E+00
 -1      2180 9.27944E+00
 -1      2181 1.68797E+01
 -1      2182 1.06087E+01
 -1      2183 3.23785E+01
 -1      2184 2.03169E+01
 -1      2185 2.93114E+01
 -1      2186 3.86053E+01
 -1      2187 2.95016E+01
 -1      2188 2.79167E+01
 -1      2189 2.79167E+01
 -1      2190 1.01942E+01
 -1      2191 9.68534E+00
 -1      2192 1.38542E+01
 -1      2193 2.90847E+00
 -1      2194 8.72495E+00
 -1      2195 2.09782E+00
 -1      2196 2.97887E+01
 -1      2197 3.11491E+01
 -1      2198 1.91342E-02
 -1      2199 2.95016E+01
 -1      2200 9.17579E+00
 -1      2201 2.30846E+01
 -1      2202 1.34205E+01
 -1      2203 8.40484E+00
 -1      2204 8.20723E+00
 -1      2205 1.00606E+01
 -1      2206 1.09763E+01
 -1      2207 1.04712E+01
 -1      2208 8.57122E+00
 -1      2209 8.79573E+00
 -1      2210 7.92710E+00
 -1      2211 6.58667E+00
 -1      2212 1.48194E+01
 -1      2213 3.42124E+01
 -1      2214 2.91938E+01
 -1      2215 2.35884E+01
 -1      2216 2.50790E+01
 -1      2217 1.18082E+01
 -1      2218 8.62349E+00
 -1      2219 9.26576E+00
 -1      2220 1.17447E+01
 -1      2221 9.65387E+00
 -1      2222 9.83169E+00
 -1      2223 9.88540E+00
 -1      2224 3.25698E+01
 -1      2225 2.56221E+01
 -1      2226 1.10214E+00
 -1      2227 1.48095E+00
 -1      2228 5.51327E-01
 -1      2229 5.83351E-01
 -1      2230 5.96267E-01
 -1      2231 6.43499E-01
 -1      2232 4.92330E-01
 -1      2233 5.01732E-01
 -1      2234 4.99984E-01
 -1      2235 5.37493E-01
 -1      2236 5.15250E-01
 -1      2237 4.35390E-01
 -1      2238 5.86843E-01
 -1      2239 5.53073E-01
 -1      2240 4.64488E-01
 -1      2241 6.47532E-01
 -1      2242 5.99673E-01
 -1      2243 4.92899E-01
 -1      2244 7.15247E-01
 -1      2245 6.47532E-01
 -1      2246 5.05730E-01
 -1      2247 8.67345E-01
 -1      2248 7.58661E-01
 -1      2249 5.49144E-01
 -1      2250 8.96677E-01
 -1      2251 1.02190E+00
 -1      2252 9.76912E-01
 -1      2253 1.26540E+00
 -1      2254 1.03317E+00
 -1      2255 7.04044E+00
 -1      2256 6.23010E+00
 -1      2257 9.88581E-01
 -1      2258 8.06520E-01
 -1      2259 7.43914E-01
 -1      2260 7.45545E-01
 -1      2261 6.32246E-01
 -1      2262 6.38346E-01
 -1      2263 5.69786E-01
 -1      2264 5.18280E-01
 -1      2265 5.14912E-01
 -1      2266 4.84562E-01
 -1      2267 4.37488E-01
 -1      2268 4.18735E-01
 -1      2269 4.09693E-01
 -1      2270 3.66901E-01
 -1      2271 3.57222E-01
 -1      2272 3.35854E-01
 -1      2273 2.96750E-01
 -1      2274 2.98381E-01
 -1      2275 2.64086E-01
 -1      2276 2.40367E-01
 -1      2277 2.34671E-01
 -1      2278 2.43377E-01
 -1      2279 2.55633E-01
 -1      2280 2.05017E-01
 -1      2281 2.66561E-01
 -1      2282 2.77352E-01
 -1      2283 2.18956E-01
 -1      2284 3.06419E-01
 -1      2285 3.13290E-01
 -1      2286 2.58952E-01
 -1      2287 3.47504E-01
 -1      2288 3.82813E-01
 -1      2289 3.22233E-01
 -1      2290 4.13240E-01
 -1      2291 4.51757E-01
 -1      2292 3.86874E-01
 -1      2293 4.74872E-01
 -1      2294 5.02973E-01
 -1      2295 4.40416E-01
 -1      2296 5.25749E-01
 -1      2297 5.27343E-01
 -1      2298 4.86308E-01
 -1      2299 5.29170E-01
 -1      2300 4.88032E-01
 -1      2301 5.10910E-01
 -1      2302 5.28082E-01
 -1      2303 4.85880E-01
 -1      2304 5.52787E-01
 -1      2305 5.33871E-01
 -1      2306 5.86556E-01
 -1      2307 6.40829E-01
 -1      2308 6.58230E-01
 -1      2309 8.44282E-01
 -1      2310 7.60495E-01
 -1      2311 9.54157E-01
 -1      2312 1.14468E+00
 -1      2313 9.42045E-01
 -1      2314 1.24056E+00
 -1      2315 1.41571E+00
 -1      2316 1.14780E+00
 -1      2317 1.52991E+00
 -1      2318 1.65282E+00
 -1      2319 1.35787E+00
 -1      2320 1.70405E+00
 -1      2321 1.68167E+00
 -1      2322 1.52330E+00
 -1      2323 1.64573E+00
 -1      2324 1.67654E+00
 -1      2325 1.53860E+00
 -1      2326 1.72185E+00
 -1      2327 1.66378E+00
 -1      2328 1.54797E+00
 -1      2329 1.53107E+00
 -1      2330 1.34017E+00
 -1      2331 1.46057E+00
 -1      2332 1.25276E+00
 -1      2333 1.09881E+00
 -1      2334 1.24045E+00
 -1      2335 9.95060E-01
 -1      2336 7.78307E-01
 -1      2337 1.04929E+00
 -1      2338 6.56251E-01
 -1      2339 5.28572E-01
 -1      2340 8.23487E-01
 -1      2341 4.99547E-01
 -1      2342 5.27643E-01
 -1      2343 6.72406E-01
 -1      2344 4.66727E-01
 -1      2345 5.18456E-01
 -1      2346 5.82466E-01
 -1      2347 5.29062E-01
 -1      2348 5.45346E-01
 -1      2349 5.32157E-01
 -1      2350 5.34799E-01
 -1      2351 5.18724E-01
 -1      2352 5.32216E-01
 -1      2353 4.94576E-01
 -1      2354 4.65655E-01
 -1      2355 4.97521E-01
 -1      2356 4.43831E-01
 -1      2357 4.17379E-01
 -1      2358 4.51550E-01
 -1      2359 3.92610E-01
 -1      2360 3.66682E-01
 -1      2361 4.04957E-01
 -1      2362 3.38300E-01
 -1      2363 3.08125E-01
 -1      2364 3.51806E-01
 -1      2365 2.78650E-01
 -1      2366 2.48501E-01
 -1      2367 2.93949E-01
 -1      2368 2.20700E-01
 -1      2369 1.93161E-01
 -1      2370 2.36674E-01
 -1      2371 1.68572E-01
 -1      2372 1.44943E-01
 -1      2373 1.84284E-01
 -1      2374 1.24227E-01
 -1      2375 1.06874E-01
 -1      2376 1.38979E-01
 -1      2377 9.01194E-02
 -1      2378 7.75566E-02
 -1      2379 1.01509E-01
 -1      2380 6.45206E-02
 -1      2381 5.46569E-02
 -1      2382 7.17186E-02
 -1      2383 4.48593E-02
 -1      2384 3.79057E-02
 -1      2385 4.88850E-02
 -1      2386 5.37133E-01
 -1      2387 6.18666E-01
 -1      2388 4.85060E-01
 -1      2389 5.06303E-01
 -1      2390 5.03523E-01
 -1      2391 4.31069E-01
 -1      2392 4.51346E-01
 -1      2393 4.38979E-01
 -1      2394 3.79456E-01
 -1      2395 3.96633E-01
 -1      2396 3.70829E-01
 -1      2397 3.31873E-01
 -1      2398 3.44778E-01
 -1      2399 3.01715E-01
 -1      2400 3.35805E-01
 -1      2401 3.44320E-01
 -1      2402 2.79484E-01
 -1      2403 3.90075E-01
 -1      2404 3.62862E-01
 -1      2405 3.18988E-01
 -1      2406 5.60770E-01
 -1      2407 4.72376E-01
 -1      2408 4.28346E-01
 -1      2409 7.67423E-01
 -1      2410 6.58743E-01
 -1      2411 6.08620E-01
 -1      2412 9.97861E-01
 -1      2413 8.78994E-01
 -1      2414 8.18164E-01
 -1      2415 1.23598E+00
 -1      2416 1.11863E+00
 -1      2417 1.05050E+00
 -1      2418 1.44811E+00
 -1      2419 1.35498E+00
 -1      2420 1.29027E+00
 -1      2421 1.62788E+00
 -1      2422 1.54520E+00
 -1      2423 1.50636E+00
 -1      2424 1.74706E+00
 -1      2425 1.72248E+00
 -1      2426 1.69806E+00
 -1      2427 1.92344E+00
 -1      2428 1.91846E+00
 -1      2429 1.96406E+00
 -1      2430 1.93835E+00
 -1      2431 2.09208E+00
 -1      2432 2.30409E+00
 -1      2433 2.10376E+00
 -1      2434 2.05007E+00
 -1      2435 2.58444E+00
 -1      2436 3.24028E+00
 -1      2437 2.92212E+00
 -1      2438 3.51452E+00
 -1      2439 3.09215E+00
 -1      2440 2.74324E+00
 -1      2441 3.83584E+00
 -1      2442 5.27120E+00
 -1      2443 4.65522E+00
 -1      2444 4.90188E+00
 -1      2445 5.77210E+00
 -1      2446 5.84924E+00
 -1      2447 7.04299E+00
 -1      2448 4.23118E+00
 -1      2449 4.56223E+00
 -1      2450 6.41118E+00
 -1      2451 2.35224E+00
 -1      2452 2.83051E+00
 -1      2453 3.80065E+00
 -1      2454 2.13926E+00
 -1      2455 2.49699E+00
 -1      2456 2.54473E+00
 -1      2457 2.04761E+00
 -1      2458 2.08203E+00
 -1      2459 2.63225E+00
 -1      2460 1.99457E+00
 -1      2461 1.89220E+00
 -1      2462 2.41960E+00
 -1      2463 1.82835E+00
 -1      2464 1.84246E+00
 -1      2465 2.11207E+00
 -1      2466 1.66890E+00
 -1      2467 1.69673E+00
 -1      2468 1.82835E+00
 -1      2469 1.51106E+00
 -1      2470 1.59284E+00
 -1      2471 1.62067E+00
 -1      2472 1.30293E+00
 -1      2473 1.39838E+00
 -1      2474 1.43193E+00
 -1      2475 1.07028E+00
 -1      2476 1.18476E+00
 -1      2477 1.20108E+00
 -1      2478 8.55705E-01
 -1      2479 9.64037E-01
 -1      2480 9.76657E-01
 -1      2481 6.63064E-01
 -1      2482 7.60364E-01
 -1      2483 7.75073E-01
 -1      2484 5.00705E-01
 -1      2485 5.82369E-01
 -1      2486 5.99038E-01
 -1      2487 3.69513E-01
 -1      2488 4.35050E-01
 -1      2489 4.52688E-01
 -1      2490 2.66665E-01
 -1      2491 3.17606E-01
 -1      2492 3.35126E-01
 -1      2493 1.93813E-01
 -1      2494 2.26544E-01
 -1      2495 2.43098E-01
 -1      2496 1.38914E-01
 -1      2497 1.63410E-01
 -1      2498 1.72575E-01
 -1      2499 9.72360E-02
 -1      2500 1.16331E-01
 -1      2501 1.19589E-01
 -1      2502 6.60489E-02
 -1      2503 8.08568E-02
 -1      2504 8.06269E-02
 -1      2505 4.46381E-02
 -1      2506 5.62334E-02
 -1      2507 5.44323E-02
 -1      2508 3.05417E-02
 -1      2509 3.83260E-02
 -1      2510 3.83046E-02
 -1      2511 2.67420E-02
 -1      2512 2.70479E-02
 -1      2513 2.36829E-02
 -1      2514 3.11028E-02
 -1      2515 2.95769E-02
 -1      2516 3.34301E-02
 -1      2517 2.14156E-02
 -1      2518 2.46552E-02
 -1      2519 2.06910E-02
 -1      2520 2.14156E-02
 -1      2521 2.49173E-02
 -1      2522 2.79092E-02
 -1      2523 3.11028E-02
 -1      2524 3.11028E-02
 -1      2525 3.59590E-02
 -1      2526 3.06241E-02
 -1      2527 3.09220E-02
 -1      2528 3.57782E-02
 -1      2529 3.05339E-02
 -1      2530 3.05339E-02
 -1      2531 3.55071E-02
 -1      2532 2.83047E-02
 -1      2533 3.00429E-02
 -1      2534 3.49259E-02
 -1      2535 2.19200E-02
 -1      2536 2.53685E-02
 -1      2537 3.14987E-02
 -1      2538 2.24916E-02
 -1      2539 2.15755E-02
 -1      2540 2.82180E-02
 -1      2541 2.52832E-02
 -1      2542 2.24916E-02
 -1      2543 2.78736E-02
 -1      2544 2.98170E+01
 -1      2545 3.11491E+01
 -1      2546 2.51580E+01
 -1      2547 2.51863E+01
 -1      2548 2.95016E+01
 -1      2549 2.65220E+01
 -1      2550 7.02980E-01
 -1      2551 7.99828E-01
 -1      2552 6.18666E-01
 -1      2553 2.34944E-02
 -1      2554 1.49226E+01
 -1      2555 2.11671E+01
 -1      2556 6.98083E+00
 -1      2557 8.24201E+00
 -1      2558 5.29632E+00
 -1      2559 2.13559E+01
 -1      2560 1.51291E+01
 -1      2561 1.16107E+01
 -1      2562 8.39782E+00
 -1      2563 5.13376E-01
 -1      2564 5.35948E-01
 -1      2565 4.64034E-01
 -1      2566 4.35264E-01
 -1      2567 8.75044E+00
 -1      2568 8.75599E+00
 -1      2569 3.25698E+01
 -1      2570 2.86205E+01
 -1      2571 7.55831E+00
 -1      2572 8.17239E+00
 -1      2573 6.90563E+00
 -1      2574 6.93381E+00
 -1      2575 1.94540E+01
 -1      2576 1.41448E+01
 -1      2577 1.68660E+01
 -1      2578 2.31496E+01
 -1      2579 3.65192E+01
 -1      2580 3.65192E+01
 -1      2581 2.77798E+01
 -1      2582 3.00866E+01
 -1      2583 9.46064E+00
 -1      2584 1.39798E+01
 -1      2585 1.15073E+01
 -1      2586 6.96631E+00
 -1      2587 6.01448E+00
 -1      2588 9.24745E+00
 -1      2589 8.29925E+00
 -1      2590 9.71109E+00
 -1      2591 1.01542E+01
 -1      2592 8.67526E+00
 -1      2593 9.14784E+00
 -1      2594 8.32571E+00
 -1      2595 5.64122E+00
 -1      2596 7.02204E+00
 -1      2597 7.48036E+00
 -1      2598 5.90193E+00
 -1      2599 1.26150E+01
 -1      2600 9.17782E+00
 -1      2601 6.67490E+00
 -1      2602 2.27428E+01
 -1      2603 2.41374E+01
 -1      2604 2.27428E+01
 -1      2605 1.66157E+00
 -1      2606 1.30606E+00
 -1      2607 8.29159E-01
 -1      2608 9.61604E-01
 -1      2609 1.61177E+00
 -1      2610 1.75717E+00
 -1      2611 1.31330E+00
 -1      2612 1.18798E+00
 -1      2613 9.81630E+00
 -1      2614 1.32335E+01
 -1      2615 8.69674E+00
 -1      2616 5.05247E-01
 -1      2617 6.43499E-01
 -1      2618 7.05744E-01
 -1      2619 7.99828E-01
 -1      2620 1.23047E+00
 -1      2621 7.62134E+00
 -1      2622 1.28024E+01
 -1      2623 8.55976E+00
 -1      2624 1.10738E+01
 -1      2625 1.61819E+01
 -1      2626 6.10925E+00
 -1      2627 1.65646E+01
 -1      2628 2.81928E-02
 -1      2629 2.81928E-02
 -1      2630 7.98221E+00
 -1      2631 2.40218E+01
 -1      2632 2.53539E+01
 -1      2633 2.23743E+01
 -1      2634 2.51863E+01
 -1      2635 7.79580E+00
 -1      2636 6.95619E+00
 -1      2637 5.42265E+00
 -1      2638 9.55681E-01
 -1      2639 1.90238E+01
 -1      2640 1.08847E+01
 -1      2641 3.00866E+01
 -1      2642 6.70814E+00
 -1      2643 4.98176E+00
 -1      2644 1.74030E+01
 -1      2645 5.84045E+00
 -1      2646 1.07345E+01
 -1      2647 2.17423E+01
 -1      2648 1.82008E+01
 -1      2649 2.17423E+01
 -1      2650 7.55192E+00
 -1      2651 5.05707E+00
 -1      2652 7.67049E+00
 -1      2653 3.25698E+01
 -1      2654 6.83562E-01
 -1      2655 7.57140E-01
 -1      2656 6.65347E-01
 -1      2657 4.83065E-01
 -1      2658 7.04299E+00
 -1      2659 2.42890E-02
 -1      2660 2.34874E-02
 -1      2661 2.60778E-02
 -1      2662 3.05030E-02
 -1      2663 5.74252E+00
 -1      2664 4.71674E+00
 -1      2665 2.84549E-02
 -1      2666 3.16847E-02
 -1      2667 4.16334E-01
 -1      2668 4.00753E-01
 -1      2669 3.91535E-01
 -1      2670 3.78017E-01
 -1      2671 3.43380E-01
 -1      2672 4.32657E-01
 -1      2673 4.32657E-01
 -1      2674 4.65793E-01
 -1      2675 4.22379E-01
 -1      2676 3.49306E-01
 -1      2677 7.13158E-01
 -1      2678 7.93394E-01
 -1      2679 1.33284E+01
 -1      2680 1.79587E+01
 -1      2681 6.04934E-01
 -1      2682 7.01783E-01
 -1      2683 5.18264E-01
 -1      2684 8.24853E-01
 -1      2685 1.53024E+01
 -1      2686 1.25208E+01
 -1      2687 5.40304E-01
 -1      2688 4.79330E-01
 -1      2689 4.67375E-01
 -1      2690 4.04916E-01
 -1      2691 3.69334E-01
 -1      2692 3.76090E-01
 -1      2693 3.42371E-01
 -1      2694 3.28553E-01
 -1      2695 3.11429E-01
 -1      2696 2.83634E-01
 -1      2697 2.68784E-01
 -1      2698 2.63601E-01
 -1      2699 2.32555E-01
 -1      2700 2.17808E-01
 -1      2701 2.06726E-01
 -1      2702 1.74063E-01
 -1      2703 1.71946E-01
 -1      2704 1.60360E-01
 -1      2705 1.63369E-01
 -1      2706 1.32415E-01
 -1      2707 1.84186E-01
 -1      2708 1.95115E-01
 -1      2709 1.39528E-01
 -1      2710 2.35714E-01
 -1      2711 2.64781E-01
 -1      2712 2.00944E-01
 -1      2713 3.05767E-01
 -1      2714 3.39981E-01
 -1      2715 2.82529E-01
 -1      2716 3.78475E-01
 -1      2717 4.08902E-01
 -1      2718 3.62009E-01
 -1      2719 4.40416E-01
 -1      2720 4.63532E-01
 -1      2721 4.32018E-01
 -1      2722 5.15138E-01
 -1      2723 5.37914E-01
 -1      2724 5.15138E-01
 -1      2725 5.84997E-01
 -1      2726 5.86824E-01
 -1      2727 6.13828E-01
 -1      2728 6.18472E-01
 -1      2729 6.58522E-01
 -1      2730 6.92559E-01
 -1      2731 7.47152E-01
 -1      2732 7.95143E-01
 -1      2733 8.12837E-01
 -1      2734 9.00103E-01
 -1      2735 9.71777E-01
 -1      2736 1.00643E+00
 -1      2737 9.94159E-01
 -1      2738 1.10403E+00
 -1      2739 1.13377E+00
 -1      2740 1.24770E+00
 -1      2741 1.34357E+00
 -1      2742 1.29981E+00
 -1      2743 1.35787E+00
 -1      2744 1.47207E+00
 -1      2745 1.45777E+00
 -1      2746 1.75151E+00
 -1      2747 1.80274E+00
 -1      2748 1.75151E+00
 -1      2749 1.78521E+00
 -1      2750 1.74928E+00
 -1      2751 2.01342E+00
 -1      2752 1.88244E+00
 -1      2753 1.92774E+00
 -1      2754 2.12905E+00
 -1      2755 1.59327E+00
 -1      2756 1.46057E+00
 -1      2757 1.92774E+00
 -1      2758 1.38489E+00
 -1      2759 1.29747E+00
 -1      2760 1.51759E+00
 -1      2761 1.24083E+00
 -1      2762 1.13708E+00
 -1      2763 1.38526E+00
 -1      2764 1.04911E+00
 -1      2765 9.27059E-01
 -1      2766 1.24065E+00
 -1      2767 8.57512E-01
 -1      2768 8.28487E-01
 -1      2769 1.08314E+00
 -1      2770 7.07416E-01
 -1      2771 6.46501E-01
 -1      2772 8.92522E-01
 -1      2773 6.21113E-01
 -1      2774 6.31720E-01
 -1      2775 7.46063E-01
 -1      2776 5.93275E-01
 -1      2777 5.82728E-01
 -1      2778 6.82231E-01
 -1      2779 5.36099E-01
 -1      2780 5.11951E-01
 -1      2781 5.97158E-01
 -1      2782 4.74543E-01
 -1      2783 4.52720E-01
 -1      2784 5.13121E-01
 -1      2785 4.23039E-01
 -1      2786 3.98269E-01
 -1      2787 4.46032E-01
 -1      2788 3.65630E-01
 -1      2789 3.37248E-01
 -1      2790 3.83711E-01
 -1      2791 3.05204E-01
 -1      2792 2.75729E-01
 -1      2793 3.19028E-01
 -1      2794 2.46363E-01
 -1      2795 2.18562E-01
 -1      2796 2.57618E-01
 -1      2797 1.92918E-01
 -1      2798 1.68330E-01
 -1      2799 2.02608E-01
 -1      2800 1.46754E-01
 -1      2801 1.26038E-01
 -1      2802 1.55388E-01
 -1      2803 1.08431E-01
 -1      2804 9.16765E-02
 -1      2805 1.16206E-01
 -1      2806 7.77395E-02
 -1      2807 6.47035E-02
 -1      2808 8.46614E-02
 -1      2809 5.15285E-02
 -1      2810 4.17308E-02
 -1      2811 5.75493E-02
 -1      2812 3.52686E-01
 -1      2813 3.86401E-01
 -1      2814 5.43036E+00
 -1      2815 4.09742E+00
 -1      2816 1.19780E+01
 -1      2817 1.59690E+01
 -1      2818 4.16428E-01
 -1      2819 4.47258E-01
 -1      2820 3.30135E-01
 -1      2821 2.28944E-01
 -1      2822 2.63623E-01
 -1      2823 2.32929E-01
 -1      2824 2.20481E-01
 -1      2825 1.82389E-01
 -1      2826 2.94685E-01
 -1      2827 2.67628E-01
 -1      2828 2.08625E-01
 -1      2829 4.45882E-01
 -1      2830 3.63581E-01
 -1      2831 3.12221E-01
 -1      2832 6.26272E-01
 -1      2833 5.28298E-01
 -1      2834 4.63534E-01
 -1      2835 8.36678E-01
 -1      2836 7.25107E-01
 -1      2837 6.44785E-01
 -1      2838 1.07588E+00
 -1      2839 9.55109E-01
 -1      2840 8.62053E-01
 -1      2841 1.33597E+00
 -1      2842 1.21698E+00
 -1      2843 1.12158E+00
 -1      2844 1.59855E+00
 -1      2845 1.50145E+00
 -1      2846 1.42817E+00
 -1      2847 1.87889E+00
 -1      2848 1.78429E+00
 -1      2849 1.77939E+00
 -1      2850 2.22921E+00
 -1      2851 2.05782E+00
 -1      2852 2.14405E+00
 -1      2853 2.74497E+00
 -1      2854 2.57633E+00
 -1      2855 2.67009E+00
 -1      2856 3.55509E+00
 -1      2857 3.44337E+00
 -1      2858 3.71562E+00
 -1      2859 4.53810E+00
 -1      2860 3.71974E+00
 -1      2861 4.57867E+00
 -1      2862 4.27738E+00
 -1      2863 4.77441E+00
 -1      2864 5.84045E+00
 -1      2865 7.62104E+00
 -1      2866 7.04299E+00
 -1      2867 3.98426E+00
 -1      2868 5.38493E+00
 -1      2869 3.02764E+00
 -1      2870 2.88288E+00
 -1      2871 4.33480E+00
 -1      2872 4.39204E+00
 -1      2873 4.73019E+00
 -1      2874 2.92798E+00
 -1      2875 3.08339E+00
 -1      2876 4.84318E+00
 -1      2877 2.41551E+00
 -1      2878 2.56762E+00
 -1      2879 3.23141E+00
 -1      2880 1.97238E+00
 -1      2881 2.10400E+00
 -1      2882 2.55955E+00
 -1      2883 1.72400E+00
 -1      2884 1.80006E+00
 -1      2885 2.07570E+00
 -1      2886 1.43848E+00
 -1      2887 1.55116E+00
 -1      2888 1.73054E+00
 -1      2889 1.16636E+00
 -1      2890 1.28454E+00
 -1      2891 1.40376E+00
 -1      2892 9.28718E-01
 -1      2893 1.03496E+00
 -1      2894 1.11842E+00
 -1      2895 7.24235E-01
 -1      2896 8.19575E-01
 -1      2897 8.77879E-01
 -1      2898 5.54556E-01
 -1      2899 6.35251E-01
 -1      2900 6.79753E-01
 -1      2901 4.17446E-01
 -1      2902 4.83101E-01
 -1      2903 5.19314E-01
 -1      2904 3.08945E-01
 -1      2905 3.60853E-01
 -1      2906 3.91265E-01
 -1      2907 2.24600E-01
 -1      2908 2.64720E-01
 -1      2909 2.90448E-01
 -1      2910 1.60105E-01
 -1      2911 1.90507E-01
 -1      2912 2.12130E-01
 -1      2913 1.11611E-01
 -1      2914 1.34195E-01
 -1      2915 1.52127E-01
 -1      2916 7.58717E-02
 -1      2917 9.22509E-02
 -1      2918 1.06856E-01
 -1      2919 5.15435E-02
 -1      2920 6.13590E-02
 -1      2921 7.29829E-02
 -1      2922 3.38143E-02
 -1      2923 4.01264E-02
 -1      2924 4.70531E-02
 -1      2925 3.02767E-02
 -1      2926 4.27315E-02
 -1      2927 4.29123E-02
 -1      2928 3.34804E-02
 -1      2929 2.60778E-02
 -1      2930 3.61239E-02
 -1      2931 4.18244E-02
 -1      2932 3.92955E-02
 -1      2933 4.20960E-02
 -1      2934 4.21862E-02
 -1      2935 4.93203E-02
 -1      2936 4.29123E-02
 -1      2937 4.29123E-02
 -1      2938 4.87777E-02
 -1      2939 4.98656E-02
 -1      2940 7.00060E+00
 -1      2941 6.09385E+00
 -1      2942 4.16050E-02
 -1      2943 4.20960E-02
 -1      2944 4.87750E-02
 -1      2945 3.64217E-02
 -1      2946 3.93579E-02
 -1      2947 4.65280E-02
 -1      2948 3.05388E-02
 -1      2949 3.08832E-02
 -1      2950 3.87425E-02
 -1      2951 6.05204E-01
 -1      2952 5.64553E-01
 -1      2953 4.00741E-01
 -1      2954 3.93163E+00
 -1      2955 5.58485E+00
 -1      2956 4.04822E+00
 -1      2957 4.62041E+00
 -1      2958 4.89256E-01
 -1      2959 5.73569E-01
 -1      2960 4.75524E-01
 -1      2961 4.02160E-01
 -1      2962 1.69400E+01
 -1      2963 1.28056E+01
 -1      2964 1.78947E+01
 -1      2965 2.25254E+01
 -1      2966 2.94233E-01
 -1      2967 3.28669E-01
 -1      2968 2.76090E-01
 -1      2969 2.21462E-01
 -1      2970 5.84013E-01
 -1      2971 5.39420E-01
 -1      2972 3.80403E-01
 -1      2973 3.60058E-01
 -1      2974 6.15085E+00
 -1      2975 7.72514E+00
 -1      2976 4.32657E-01
 -1      2977 4.19826E-01
 -1      2978 3.56091E-01
 -1      2979 3.59584E-01
 -1      2980 4.18956E-01
 -1      2981 4.31873E-01
 -1      2982 2.51985E+01
 -1      2983 2.12491E+01
 -1      2984 1.10451E+01
 -1      2985 8.51090E+00
 -1      2986 8.52322E+00
 -1      2987 1.02122E+01
 -1      2988 2.78736E-02
 -1      2989 1.93544E+01
 -1      2990 2.57870E+01
 -1      2991 8.39761E+00
 -1      2992 1.12839E+01
 -1      2993 4.05455E+00
 -1      2994 3.79384E+00
 -1      2995 6.43317E+00
 -1      2996 6.99642E+00
 -1      2997 7.26614E+00
 -1      2998 5.56868E+00
 -1      2999 2.00155E+01
 -1      3000 1.62362E+01
 -1      3001 4.97964E+00
 -1      3002 4.31873E-01
 -1      3003 4.31873E-01
 -1      3004 3.58499E-01
 -1      3005 3.33714E-01
 -1      3006 3.77569E-01
 -1      3007 3.90961E-01
 -1      3008 5.61099E-01
 -1      3009 1.36591E+01
 -1      3010 1.05032E+01
 -1      3011 8.17655E+00
 -1      3012 9.62361E+00
 -1      3013 1.25751E+01
 -1      3014 1.85680E+01
 -1      3015 1.20615E+01
 -1      3016 1.44202E+01
 -1      3017 7.45354E+00
 -1      3018 4.26636E-02
 -1      3019 3.42693E-02
 -1      3020 3.12774E-02
 -1      3021 3.39957E+00
 -1      3022 3.71172E+00
 -1      3023 3.35037E+00
 -1      3024 1.33081E+01
 -1      3025 1.05820E+01
 -1      3026 6.46494E+00
 -1      3027 4.46716E+00
 -1      3028 4.25555E+00
 -1      3029 1.44663E+01
 -1      3030 5.10806E+00
 -1      3031 2.85701E-02
 -1      3032 2.85701E-02
 -1      3033 3.39294E-02
 -1      3034 3.49301E-02
 -1      3035 4.64579E+00
 -1      3036 2.00994E+01
 -1      3037 1.43041E+01
 -1      3038 1.28078E+01
 -1      3039 7.05273E+00
 -1      3040 2.78736E-02
 -1      3041 6.47021E+00
 -1      3042 6.24679E+00
 -1      3043 4.80537E+00
 -1      3044 1.36034E+01
 -1      3045 4.48911E+00
 -1      3046 2.98565E-02
 -1      3047 2.98565E-02
 -1      3048 3.25218E-02
 -1      3049 3.81069E-02
 -1      3050 3.26944E+00
 -1      3051 3.95569E+00
 -1      3052 4.70642E+00
 -1      3053 4.34334E-01
 -1      3054 1.93472E+01
 -1      3055 1.24691E+01
 -1      3056 1.19759E+01
 -1      3057 3.99969E-01
 -1      3058 4.15347E-01
 -1      3059 3.54890E-01
 -1      3060 3.42274E-01
 -1      3061 9.61659E+00
 -1      3062 1.02188E+01
 -1      3063 4.81022E+00
 -1      3064 4.87453E+00
 -1      3065 5.85614E+00
 -1      3066 4.21105E+00
 -1      3067 1.07305E+01
 -1      3068 1.21263E+01
 -1      3069 2.90619E-01
 -1      3070 3.00897E-01
 -1      3071 7.99664E+00
 -1      3072 9.76242E+00
 -1      3073 2.87602E-01
 -1      3074 2.58776E-01
 -1      3075 2.45745E-01
 -1      3076 2.14803E-01
 -1      3077 2.04794E-01
 -1      3078 1.91381E-01
 -1      3079 1.71348E-01
 -1      3080 1.68343E-01
 -1      3081 1.50076E-01
 -1      3082 1.24248E-01
 -1      3083 1.23650E-01
 -1      3084 1.19952E-01
 -1      3085 1.06250E-01
 -1      3086 9.80827E-02
 -1      3087 1.27051E-01
 -1      3088 1.47867E-01
 -1      3089 1.14589E-01
 -1      3090 1.77434E-01
 -1      3091 2.18034E-01
 -1      3092 1.64958E-01
 -1      3093 2.58752E-01
 -1      3094 2.99738E-01
 -1      3095 2.35243E-01
 -1      3096 3.49181E-01
 -1      3097 3.87676E-01
 -1      3098 3.25404E-01
 -1      3099 4.41192E-01
 -1      3100 4.72706E-01
 -1      3101 4.28364E-01
 -1      3102 5.26802E-01
 -1      3103 5.78409E-01
 -1      3104 5.35976E-01
 -1      3105 6.49692E-01
 -1      3106 6.96775E-01
 -1      3107 6.61355E-01
 -1      3108 7.88597E-01
 -1      3109 8.20246E-01
 -1      3110 8.24461E-01
 -1      3111 9.10161E-01
 -1      3112 9.98790E-01
 -1      3113 1.00620E+00
 -1      3114 1.08939E+00
 -1      3115 1.19435E+00
 -1      3116 1.18672E+00
 -1      3117 1.43979E+00
 -1      3118 1.46217E+00
 -1      3119 1.52275E+00
 -1      3120 1.79671E+00
 -1      3121 1.94038E+00
 -1      3122 2.10273E+00
 -1      3123 2.09394E+00
 -1      3124 2.10824E+00
 -1      3125 2.59084E+00
 -1      3126 2.61170E+00
 -1      3127 2.89113E+00
 -1      3128 3.24786E+00
 -1      3129 3.26928E+00
 -1      3130 3.40244E+00
 -1      3131 2.50482E+00
 -1      3132 2.17035E+00
 -1      3133 3.64505E+00
 -1      3134 1.75750E+00
 -1      3135 1.68182E+00
 -1      3136 2.33458E+00
 -1      3137 1.61586E+00
 -1      3138 1.55921E+00
 -1      3139 1.85577E+00
 -1      3140 1.55493E+00
 -1      3141 1.46697E+00
 -1      3142 1.78553E+00
 -1      3143 1.31599E+00
 -1      3144 1.24644E+00
 -1      3145 1.63027E+00
 -1      3146 1.09626E+00
 -1      3147 9.75189E-01
 -1      3148 1.32911E+00
 -1      3149 8.98066E-01
 -1      3150 8.72679E-01
 -1      3151 1.10180E+00
 -1      3152 7.81328E-01
 -1      3153 7.42883E-01
 -1      3154 9.33331E-01
 -1      3155 6.58486E-01
 -1      3156 6.11858E-01
 -1      3157 7.57583E-01
 -1      3158 5.60910E-01
 -1      3159 5.23502E-01
 -1      3160 6.22239E-01
 -1      3161 4.75413E-01
 -1      3162 4.45732E-01
 -1      3163 5.23202E-01
 -1      3164 4.02236E-01
 -1      3165 3.69597E-01
 -1      3166 4.31617E-01
 -1      3167 3.29831E-01
 -1      3168 2.97786E-01
 -1      3169 3.48355E-01
 -1      3170 2.63359E-01
 -1      3171 2.33993E-01
 -1      3172 2.74162E-01
 -1      3173 2.05262E-01
 -1      3174 1.79618E-01
 -1      3175 2.11003E-01
 -1      3176 1.57963E-01
 -1      3177 1.36387E-01
 -1      3178 1.60617E-01
 -1      3179 1.18357E-01
 -1      3180 1.00750E-01
 -1      3181 1.20931E-01
 -1      3182 8.62638E-02
 -1      3183 7.23267E-02
 -1      3184 8.84151E-02
 -1      3185 6.09520E-02
 -1      3186 4.77770E-02
 -1      3187 4.15096E-02
 -1      3188 6.25544E-02
 -1      3189 2.08386E-01
 -1      3190 1.73686E-01
 -1      3191 1.40904E-01
 -1      3192 1.49367E-01
 -1      3193 1.40664E-01
 -1      3194 4.88287E-01
 -1      3195 4.05871E-01
 -1      3196 6.81415E-01
 -1      3197 5.82579E-01
 -1      3198 5.24917E-01
 -1      3199 9.14172E-01
 -1      3200 7.95741E-01
 -1      3201 7.33535E-01
 -1      3202 1.19041E+00
 -1      3203 1.04930E+00
 -1      3204 9.82993E-01
 -1      3205 1.52084E+00
 -1      3206 1.35536E+00
 -1      3207 1.28308E+00
 -1      3208 1.94568E+00
 -1      3209 1.75994E+00
 -1      3210 1.68713E+00
 -1      3211 2.51447E+00
 -1      3212 2.33555E+00
 -1      3213 2.31610E+00
 -1      3214 3.47970E+00
 -1      3215 3.13258E+00
 -1      3216 3.32408E+00
 -1      3217 6.08628E+00
 -1      3218 5.38787E+00
 -1      3219 5.85036E+00
 -1      3220 6.78240E+00
 -1      3221 6.61775E+00
 -1      3222 8.69674E+00
 -1      3223 7.48688E+00
 -1      3224 6.17462E+00
 -1      3225 2.95746E+00
 -1      3226 3.26897E+00
 -1      3227 2.21297E+00
 -1      3228 2.38530E+00
 -1      3229 3.09473E+00
 -1      3230 1.70260E+00
 -1      3231 1.87544E+00
 -1      3232 2.18504E+00
 -1      3233 1.32971E+00
 -1      3234 1.48365E+00
 -1      3235 1.62855E+00
 -1      3236 1.04504E+00
 -1      3237 1.17644E+00
 -1      3238 1.25633E+00
 -1      3239 8.11512E-01
 -1      3240 9.20655E-01
 -1      3241 9.78671E-01
 -1      3242 6.19347E-01
 -1      3243 7.08330E-01
 -1      3244 7.51106E-01
 -1      3245 4.65246E-01
 -1      3246 5.36702E-01
 -1      3247 5.65280E-01
 -1      3248 3.44019E-01
 -1      3249 4.00612E-01
 -1      3250 4.18000E-01
 -1      3251 2.50147E-01
 -1      3252 2.94372E-01
 -1      3253 3.03719E-01
 -1      3254 1.80110E-01
 -1      3255 2.14202E-01
 -1      3256 2.18127E-01
 -1      3257 1.29734E-01
 -1      3258 1.55645E-01
 -1      3259 1.57717E-01
 -1      3260 9.16906E-02
 -1      3261 1.11051E-01
 -1      3262 1.14569E-01
 -1      3263 6.26229E-02
 -1      3264 7.71356E-02
 -1      3265 8.13305E-02
 -1      3266 4.06551E-02
 -1      3267 5.20722E-02
 -1      3268 5.62249E-02
 -1      3269 3.89486E-02
 -1      3270 2.93954E+00
 -1      3271 3.07733E+00
 -1      3272 3.15777E-01
 -1      3273 3.06559E-01
 -1      3274 5.66068E-02
 -1      3275 5.71521E-02
 -1      3276 3.94913E-02
 -1      3277 4.50298E-02
 -1      3278 5.66068E-02
 -1      3279 5.66068E-02
 -1      3280 6.44385E-02
 -1      3281 1.23228E+01
 -1      3282 1.10620E+01
 -1      3283 4.00542E-01
 -1      3284 3.05236E-01
 -1      3285 2.56826E-01
 -1      3286 3.89166E-01
 -1      3287 1.05389E+01
 -1      3288 1.24646E+01
 -1      3289 4.27134E+00
 -1      3290 2.75721E+00
 -1      3291 2.56510E+00
 -1      3292 5.42523E-02
 -1      3293 5.64993E-02
 -1      3294 6.43310E-02
 -1      3295 5.50011E-02
 -1      3296 3.96411E+00
 -1      3297 4.32447E+00
 -1      3298 4.36203E+00
 -1      3299 5.86712E+00
 -1      3300 7.11854E+00
 -1      3301 3.36257E+00
 -1      3302 4.21090E+00
 -1      3303 3.31886E-01
 -1      3304 2.62990E-01
 -1      3305 2.28051E-01
 -1      3306 3.56640E-01
 -1      3307 6.97270E+00
 -1      3308 2.65711E-01
 -1      3309 2.95738E-01
 -1      3310 4.03406E-01
 -1      3311 3.81224E-01
 -1      3312 3.21081E-01
 -1      3313 3.30032E-01
 -1      3314 4.82328E+00
 -1      3315 4.82746E+00
 -1      3316 6.47183E+00
 -1      3317 7.85532E+00
 -1      3318 9.89988E+00
 -1      3319 3.72318E+00
 -1      3320 4.52543E+00
 -1      3321 4.03944E+00
 -1      3322 1.19627E+01
 -1      3323 1.13742E+01
 -1      3324 2.95637E-01
 -1      3325 2.83682E-01
 -1      3326 2.13905E-01
 -1      3327 1.09785E+01
 -1      3328 1.00447E+01
 -1      3329 7.34619E+00
 -1      3330 6.05257E+00
 -1      3331 8.29000E+00
 -1      3332 3.01289E-01
 -1      3333 3.00841E-01
 -1      3334 2.73686E-01
 -1      3335 2.59975E-01
 -1      3336 3.18662E-01
 -1      3337 3.18662E-01
 -1      3338 8.91893E+00
 -1      3339 8.02704E+00
 -1      3340 9.07939E+00
 -1      3341 1.18486E+01
 -1      3342 9.42255E+00
 -1      3343 4.19407E+00
 -1      3344 3.76830E+00
 -1      3345 1.04978E+01
 -1      3346 3.28497E-01
 -1      3347 3.29381E-01
 -1      3348 2.43730E-01
 -1      3349 3.79021E+00
 -1      3350 2.93002E+00
 -1      3351 2.91249E+00
 -1      3352 4.23296E+00
 -1      3353 5.49032E-02
 -1      3354 4.98770E-02
 -1      3355 3.38260E+00
 -1      3356 4.18588E+00
 -1      3357 5.73893E-02
 -1      3358 6.46026E-02
 -1      3359 5.84771E-02
 -1      3360 3.40542E-01
 -1      3361 1.14743E-01
 -1      3362 1.56227E-01
 -1      3363 1.86838E-01
 -1      3364 8.36709E+00
 -1      3365 3.19253E-01
 -1      3366 3.19253E-01
 -1      3367 4.47067E+00
 -1      3368 2.50890E-01
 -1      3369 3.15314E-01
 -1      3370 3.57312E-01
 -1      3371 3.15777E-01
 -1      3372 2.78956E-01
 -1      3373 3.19270E-01
 -1      3374 6.59982E+00
 -1      3375 5.84771E-02
 -1      3376 5.84771E-02
 -1      3377 6.70887E-02
 -1      3378 6.57636E-02
 -1      3379 9.92767E+00
 -1      3380 8.60961E+00
 -1      3381 1.11132E+01
 -1      3382 9.21128E+00
 -1      3383 4.96232E+00
 -1      3384 3.07374E+00
 -1      3385 4.85496E+00
 -1      3386 3.03268E+00
 -1      3387 3.94466E-02
 -1      3388 4.01288E-02
 -1      3389 4.64161E-02
 -1      3390 4.91167E-02
 -1      3391 3.48737E-01
 -1      3392 3.80102E-01
 -1      3393 2.62379E-01
 -1      3394 2.61890E-01
 -1      3395 6.77558E+00
 -1      3396 2.11335E-01
 -1      3397 2.35353E-01
 -1      3398 1.46101E-01
 -1      3399 2.87914E+00
 -1      3400 3.21564E+00
 -1      3401 3.25195E+00
 -1      3402 1.00505E+01
 -1      3403 3.15645E-01
 -1      3404 3.19253E-01
 -1      3405 2.80007E-01
 -1      3406 6.02302E+00
 -1      3407 5.70414E+00
 -1      3408 4.09562E+00
 -1      3409 9.03419E+00
 -1      3410 2.00956E-01
 -1      3411 1.10725E+01
 -1      3412 8.54211E+00
 -1      3413 9.62504E+00
 -1      3414 9.24113E+00
 -1      3415 9.35727E+00
 -1      3416 2.87914E+00
 -1      3417 1.55948E-01
 -1      3418 1.32527E-01
 -1      3419 1.27846E-01
 -1      3420 1.06574E-01
 -1      3421 1.15451E-01
 -1      3422 1.15565E-01
 -1      3423 1.11270E-01
 -1      3424 1.19761E-01
 -1      3425 1.17904E-01
 -1      3426 1.38705E-01
 -1      3427 1.35387E-01
 -1      3428 1.67214E-01
 -1      3429 1.96781E-01
 -1      3430 1.70529E-01
 -1      3431 2.36175E-01
 -1      3432 2.76893E-01
 -1      3433 2.38432E-01
 -1      3434 3.21883E-01
 -1      3435 3.71326E-01
 -1      3436 3.22815E-01
 -1      3437 4.20987E-01
 -1      3438 4.74503E-01
 -1      3439 4.17465E-01
 -1      3440 5.43126E-01
 -1      3441 5.97223E-01
 -1      3442 5.35749E-01
 -1      3443 6.94831E-01
 -1      3444 7.66114E-01
 -1      3445 7.01981E-01
 -1      3446 8.67937E-01
 -1      3447 9.59760E-01
 -1      3448 9.01412E-01
 -1      3449 1.07412E+00
 -1      3450 1.16403E+00
 -1      3451 1.11759E+00
 -1      3452 1.39102E+00
 -1      3453 1.48162E+00
 -1      3454 1.45894E+00
 -1      3455 1.59278E+00
 -1      3456 1.83822E+00
 -1      3457 1.79709E+00
 -1      3458 2.33807E+00
 -1      3459 2.67261E+00
 -1      3460 2.40810E+00
 -1      3461 1.97481E+00
 -1      3462 1.97053E+00
 -1      3463 2.13951E+00
 -1      3464 1.98853E+00
 -1      3465 2.32879E+00
 -1      3466 1.68291E+00
 -1      3467 1.53272E+00
 -1      3468 2.19214E+00
 -1      3469 1.32712E+00
 -1      3470 1.24999E+00
 -1      3471 1.68091E+00
 -1      3472 1.06936E+00
 -1      3473 9.78010E-01
 -1      3474 1.29467E+00
 -1      3475 8.79220E-01
 -1      3476 7.94822E-01
 -1      3477 1.01525E+00
 -1      3478 6.97371E-01
 -1      3479 6.46424E-01
 -1      3480 8.19008E-01
 -1      3481 5.64247E-01
 -1      3482 5.16158E-01
 -1      3483 6.39380E-01
 -1      3484 4.58767E-01
 -1      3485 4.15271E-01
 -1      3486 4.99812E-01
 -1      3487 3.71877E-01
 -1      3488 3.32110E-01
 -1      3489 3.99026E-01
 -1      3490 3.00132E-01
 -1      3491 2.65705E-01
 -1      3492 3.23653E-01
 -1      3493 2.36503E-01
 -1      3494 2.07771E-01
 -1      3495 2.62472E-01
 -1      3496 1.81884E-01
 -1      3497 1.60228E-01
 -1      3498 2.07383E-01
 -1      3499 1.38185E-01
 -1      3500 1.20155E-01
 -1      3501 1.59452E-01
 -1      3502 1.01882E-01
 -1      3503 8.73963E-02
 -1      3504 1.19136E-01
 -1      3505 1.70040E-01
 -1      3506 1.37257E-01
 -1      3507 8.15628E-01
 -1      3508 7.01302E-01
 -1      3509 5.92295E-01
 -1      3510 4.98003E-01
 -1      3511 6.74388E-01
 -1      3512 1.44176E+00
 -1      3513 1.27680E+00
 -1      3514 1.92623E+00
 -1      3515 1.68713E+00
 -1      3516 1.68086E+00
 -1      3517 2.63210E+00
 -1      3518 2.24223E+00
 -1      3519 2.24223E+00
 -1      3520 3.64748E+00
 -1      3521 3.02937E+00
 -1      3522 2.95550E+00
 -1      3523 6.82575E+00
 -1      3524 4.91758E+00
 -1      3525 4.62287E+00
 -1      3526 8.76995E+00
 -1      3527 1.62855E+00
 -1      3528 1.84750E+00
 -1      3529 2.19909E+00
 -1      3530 2.53663E+00
 -1      3531 2.19909E+00
 -1      3532 4.13945E+00
 -1      3533 4.71160E+00
 -1      3534 4.15350E+00
 -1      3535 1.24963E+00
 -1      3536 1.40290E+00
 -1      3537 1.62185E+00
 -1      3538 9.54183E-01
 -1      3539 1.07857E+00
 -1      3540 1.22514E+00
 -1      3541 7.21081E-01
 -1      3542 8.24263E-01
 -1      3543 9.24158E-01
 -1      3544 5.39293E-01
 -1      3545 6.21938E-01
 -1      3546 6.95094E-01
 -1      3547 3.98740E-01
 -1      3548 4.63375E-01
 -1      3549 5.20033E-01
 -1      3550 2.90946E-01
 -1      3551 3.40592E-01
 -1      3552 3.85967E-01
 -1      3553 2.10560E-01
 -1      3554 2.46505E-01
 -1      3555 2.83378E-01
 -1      3556 1.52331E-01
 -1      3557 1.76796E-01
 -1      3558 2.05174E-01
 -1      3559 1.07848E-01
 -1      3560 1.26531E-01
 -1      3561 1.45610E-01
 -1      3562 7.63087E-02
 -1      3563 9.08637E-02
 -1      3564 1.02826E-01
 -1      3565 2.89520E-01
 -1      3566 8.62776E+00
 -1      3567 8.48146E+00
 -1      3568 7.76507E+00
 -1      3569 4.57323E-02
 -1      3570 4.30250E-02
 -1      3571 4.97507E-02
 -1      3572 5.79718E-02
 -1      3573 7.63150E-02
 -1      3574 7.63150E-02
 -1      3575 3.92566E+00
 -1      3576 5.34223E+00
 -1      3577 6.03737E+00
 -1      3578 6.38694E+00
 -1      3579 2.19461E-01
 -1      3580 2.04844E-01
 -1      3581 2.10397E-01
 -1      3582 1.09185E+00
 -1      3583 9.56720E-01
 -1      3584 9.24488E-01
 -1      3585 1.25053E+00
 -1      3586 6.84296E+00
 -1      3587 7.67361E+00
 -1      3588 3.06399E-01
 -1      3589 3.15407E-01
 -1      3590 2.79770E-01
 -1      3591 7.60595E+00
 -1      3592 6.77558E+00
 -1      3593 1.75098E-01
 -1      3594 1.62067E-01
 -1      3595 1.26251E-01
 -1      3596 7.58002E+00
 -1      3597 8.35648E+00
 -1      3598 3.81567E+00
 -1      3599 4.09562E+00
 -1      3600 7.67361E+00
 -1      3601 7.51006E+00
 -1      3602 1.62957E-01
 -1      3603 1.66877E-01
 -1      3604 1.24150E-01
 -1      3605 8.02704E+00
 -1      3606 1.57650E-01
 -1      3607 1.88008E-01
 -1      3608 2.74441E+00
 -1      3609 2.22609E-01
 -1      3610 7.74048E+00
 -1      3611 1.02768E-01
 -1      3612 9.08914E-02
 -1      3613 9.22165E-02
 -1      3614 6.53726E+00
 -1      3615 7.83717E+00
 -1      3616 8.36832E+00
 -1      3617 2.59084E+00
 -1      3618 2.82618E+00
 -1      3619 1.89773E+00
 -1      3620 1.83177E+00
 -1      3621 1.52874E-01
 -1      3622 1.23499E-01
 -1      3623 1.30359E-01
 -1      3624 2.16412E-01
 -1      3625 2.13005E-01
 -1      3626 2.71016E-01
 -1      3627 7.16931E-02
 -1      3628 6.03184E-02
 -1      3629 5.82554E-02
 -1      3630 8.51603E-02
 -1      3631 6.79178E+00
 -1      3632 6.37069E+00
 -1      3633 4.79909E-01
 -1      3634 4.12531E-01
 -1      3635 3.38546E-01
 -1      3636 2.41454E-01
 -1      3637 2.36185E-01
 -1      3638 2.73974E-01
 -1      3639 3.80234E+00
 -1      3640 5.63464E+00
 -1      3641 4.94116E+00
 -1      3642 1.09698E-01
 -1      3643 1.07212E-01
 -1      3644 8.28197E+00
 -1      3645 2.78348E-01
 -1      3646 6.03013E-02
 -1      3647 7.62075E-02
 -1      3648 7.63150E-02
 -1      3649 8.81915E-02
 -1      3650 6.98345E-02
 -1      3651 7.39792E-02
 -1      3652 1.85525E-01
 -1      3653 1.38497E-01
 -1      3654 2.19270E-01
 -1      3655 2.50160E-01
 -1      3656 2.12659E-01
 -1      3657 2.50160E-01
 -1      3658 7.95279E+00
 -1      3659 7.69176E+00
 -1      3660 6.59221E+00
 -1      3661 4.77955E+00
 -1      3662 3.68929E+00
 -1      3663 5.60991E+00
 -1      3664 6.14948E+00
 -1      3665 2.12824E+00
 -1      3666 2.31057E+00
 -1      3667 6.57963E+00
 -1      3668 4.92327E+00
 -1      3669 6.67361E+00
 -1      3670 2.96226E+00
 -1      3671 2.27129E+00
 -1      3672 1.54453E-01
 -1      3673 1.97759E-01
 -1      3674 2.17335E-01
 -1      3675 2.38557E-01
 -1      3676 2.38557E-01
 -1      3677 1.17804E-01
 -1      3678 1.42301E-01
 -1      3679 1.26560E-01
 -1      3680 3.17987E-01
 -1      3681 1.79086E-01
 -1      3682 2.20536E-01
 -1      3683 3.87184E+00
 -1      3684 3.30812E+00
 -1      3685 1.19074E-01
 -1      3686 1.29353E-01
 -1      3687 5.76179E-02
 -1      3688 2.78741E-01
 -1      3689 2.01677E+00
 -1      3690 7.65697E-02
 -1      3691 6.47304E-02
 -1      3692 7.39529E-02
 -1      3693 9.22728E-02
 -1      3694 7.10824E+00
 -1      3695 6.46395E+00
 -1      3696 5.19385E+00
 -1      3697 6.82270E+00
 -1      3698 7.09047E+00
 -1      3699 4.57712E+00
 -1      3700 5.81238E+00
 -1      3701 1.27284E-01
 -1      3702 1.36275E-01
 -1      3703 1.49302E-01
 -1      3704 1.55936E-01
 -1      3705 1.56825E-01
 -1      3706 1.70529E-01
 -1      3707 1.99038E-01
 -1      3708 1.84445E-01
 -1      3709 2.38432E-01
 -1      3710 2.77825E-01
 -1      3711 2.38432E-01
 -1      3712 3.22815E-01
 -1      3713 3.67805E-01
 -1      3714 3.22815E-01
 -1      3715 4.18032E-01
 -1      3716 4.67693E-01
 -1      3717 4.18032E-01
 -1      3718 5.39869E-01
 -1      3719 6.08493E-01
 -1      3720 5.40436E-01
 -1      3721 6.98270E-01
 -1      3722 7.95878E-01
 -1      3723 7.02390E-01
 -1      3724 9.54949E-01
 -1      3725 1.05677E+00
 -1      3726 9.51239E-01
 -1      3727 1.69491E+00
 -1      3728 1.80926E+00
 -1      3729 1.74845E+00
 -1      3730 2.11522E+00
 -1      3731 2.34221E+00
 -1      3732 2.69254E+00
 -1      3733 2.35496E+00
 -1      3734 2.46612E+00
 -1      3735 3.01124E+00
 -1      3736 2.33458E+00
 -1      3737 2.74743E+00
 -1      3738 2.64220E+00
 -1      3739 2.33658E+00
 -1      3740 2.07394E+00
 -1      3741 1.86833E+00
 -1      3742 2.52400E+00
 -1      3743 1.59939E+00
 -1      3744 1.41876E+00
 -1      3745 1.99241E+00
 -1      3746 1.19528E+00
 -1      3747 1.09649E+00
 -1      3748 1.50000E+00
 -1      3749 9.17525E-01
 -1      3750 8.20074E-01
 -1      3751 1.09756E+00
 -1      3752 7.07039E-01
 -1      3753 6.24862E-01
 -1      3754 8.05556E-01
 -1      3755 5.47811E-01
 -1      3756 4.90420E-01
 -1      3757 6.15470E-01
 -1      3758 4.42421E-01
 -1      3759 3.99026E-01
 -1      3760 4.90420E-01
 -1      3761 3.55631E-01
 -1      3762 3.23653E-01
 -1      3763 3.99026E-01
 -1      3764 2.86001E-01
 -1      3765 2.56799E-01
 -1      3766 3.17980E-01
 -1      3767 2.25133E-01
 -1      3768 1.99245E-01
 -1      3769 2.48662E-01
 -1      3770 1.73180E-01
 -1      3771 1.51136E-01
 -1      3772 1.90930E-01
 -1      3773 1.30120E-01
 -1      3774 1.11848E-01
 -1      3775 1.43848E-01
 -1      3776 2.40274E+00
 -1      3777 2.08674E+00
 -1      3778 1.81034E+00
 -1      3779 1.56496E+00
 -1      3780 1.97085E+00
 -1      3781 2.02818E-01
 -1      3782 2.35050E-01
 -1      3783 2.40608E-01
 -1      3784 2.06230E+00
 -1      3785 2.41389E+00
 -1      3786 7.54865E+00
 -1      3787 7.36723E+00
 -1      3788 1.11501E+00
 -1      3789 1.28607E+00
 -1      3790 1.51592E+00
 -1      3791 1.74156E+00
 -1      3792 1.40578E+00
 -1      3793 3.75533E+00
 -1      3794 5.35815E+00
 -1      3795 3.61854E+00
 -1      3796 8.30816E-01
 -1      3797 9.60737E-01
 -1      3798 1.02167E+00
 -1      3799 6.22388E-01
 -1      3800 7.21532E-01
 -1      3801 7.58110E-01
 -1      3802 4.65981E-01
 -1      3803 5.41899E-01
 -1      3804 5.68336E-01
 -1      3805 3.47039E-01
 -1      3806 4.05187E-01
 -1      3807 4.27052E-01
 -1      3808 2.56105E-01
 -1      3809 3.00545E-01
 -1      3810 3.19765E-01
 -1      3811 1.86664E-01
 -1      3812 2.20428E-01
 -1      3813 2.37595E-01
 -1      3814 1.40389E-01
 -1      3815 1.66190E-01
 -1      3816 1.81444E-01
 -1      3817 1.36058E-01
 -1      3818 1.18323E-01
 -1      3819 1.33673E-01
 -1      3820 1.39333E-01
 -1      3821 1.16764E-01
 -1      3822 1.57354E-01
 -1      3823 7.69176E+00
 -1      3824 3.03268E+00
 -1      3825 2.04001E-01
 -1      3826 1.95426E-01
 -1      3827 1.52508E-01
 -1      3828 1.50871E-01
 -1      3829 2.40608E-01
 -1      3830 2.40845E-01
 -1      3831 1.99395E-01
 -1      3832 1.56638E-01
 -1      3833 3.13124E+00
 -1      3834 1.09698E-01
 -1      3835 1.09698E-01
 -1      3836 1.52307E-01
 -1      3837 1.34826E-01
 -1      3838 1.94421E-01
 -1      3839 2.49552E-01
 -1      3840 1.13372E-01
 -1      3841 1.07253E-01
 -1      3842 3.80234E+00
 -1      3843 3.80234E+00
 -1      3844 3.73284E+00
 -1      3845 6.82574E+00
 -1      3846 5.30722E+00
 -1      3847 5.30722E+00
 -1      3848 3.38989E+00
 -1      3849 2.50160E-01
 -1      3850 3.19756E+00
 -1      3851 2.80030E+00
 -1      3852 2.64481E+00
 -1      3853 5.03865E+00
 -1      3854 7.08356E-01
 -1      3855 5.99348E-01
 -1      3856 9.03388E-02
 -1      3857 9.85596E-02
 -1      3858 7.95616E-02
 -1      3859 9.11744E-02
 -1      3860 1.17799E-01
 -1      3861 1.13118E-01
 -1      3862 1.04921E-01
 -1      3863 3.32039E+00
 -1      3864 1.11167E-01
 -1      3865 1.25744E-01
 -1      3866 6.82270E+00
 -1      3867 5.54484E+00
 -1      3868 6.08938E+00
 -1      3869 3.81634E+00
 -1      3870 3.37842E+00
 -1      3871 2.82054E+00
 -1      3872 4.28003E+00
 -1      3873 5.12229E+00
 -1      3874 1.73464E-01
 -1      3875 1.59706E-01
 -1      3876 9.66788E-01
 -1      3877 8.25696E-01
 -1      3878 7.50656E-01
 -1      3879 1.03257E-01
 -1      3880 3.26907E-01
 -1      3881 2.01684E-01
 -1      3882 5.46164E-01
 -1      3883 5.12196E-01
 -1      3884 4.26724E-01
 -1      3885 2.38548E-01
 -1      3886 1.92176E-01
 -1      3887 1.99008E-01
 -1      3888 1.66671E-01
 -1      3889 1.65536E-01
 -1      3890 5.12798E+00
 -1      3891 1.95636E+00
 -1      3892 6.19512E+00
 -1      3893 1.79451E-01
 -1      3894 5.79695E+00
 -1      3895 3.05582E+00
 -1      3896 1.59642E-01
 -1      3897 1.29632E-01
 -1      3898 8.59368E-02
 -1      3899 2.21364E-01
 -1      3900 5.56502E+00
 -1      3901 1.23914E-01
 -1      3902 1.33665E-01
 -1      3903 1.12885E-01
 -1      3904 1.31800E+00
 -1      3905 1.13305E+00
 -1      3906 1.03426E+00
 -1      3907 7.03493E+00
 -1      3908 3.90329E+00
 -1      3909 4.11544E+00
 -1      3910 1.54415E-01
 -1      3911 1.58746E-01
 -1      3912 1.54415E-01
 -1      3913 3.55714E+00
 -1      3914 4.61248E+00
 -1      3915 3.77022E+00
 -1      3916 9.95779E-02
 -1      3917 1.22554E-01
 -1      3918 9.95779E-02
 -1      3919 1.42274E-01
 -1      3920 1.29718E-01
 -1      3921 1.34038E-01
 -1      3922 1.62864E-01
 -1      3923 1.82086E-01
 -1      3924 1.73380E-01
 -1      3925 1.36098E-01
 -1      3926 1.44748E+00
 -1      3927 3.40416E+00
 -1      3928 3.37842E+00
 -1      3929 6.24618E-01
 -1      3930 7.33902E-01
 -1      3931 5.28333E+00
 -1      3932 5.28333E+00
 -1      3933 3.28705E+00
 -1      3934 3.81341E+00
 -1      3935 1.94248E-01
 -1      3936 2.08841E-01
 -1      3937 2.31621E-01
 -1      3938 2.71015E-01
 -1      3939 2.41424E-01
 -1      3940 3.14398E-01
 -1      3941 3.59388E-01
 -1      3942 3.07588E-01
 -1      3943 4.18032E-01
 -1      3944 4.68259E-01
 -1      3945 4.09615E-01
 -1      3946 5.40436E-01
 -1      3947 6.12613E-01
 -1      3948 5.40436E-01
 -1      3949 7.02390E-01
 -1      3950 7.92168E-01
 -1      3951 7.02390E-01
 -1      3952 9.23077E-01
 -1      3953 1.08215E+00
 -1      3954 9.23077E-01
 -1      3955 1.51392E+00
 -1      3956 2.15206E+00
 -1      3957 1.48576E+00
 -1      3958 3.03699E+00
 -1      3959 3.04974E+00
 -1      3960 1.13227E+00
 -1      3961 1.36211E+00
 -1      3962 1.29389E-01
 -1      3963 1.65536E-01
 -1      3964 1.65536E-01
 -1      3965 3.20026E+00
 -1      3966 2.31082E+00
 -1      3967 2.04188E+00
 -1      3968 1.64044E+00
 -1      3969 1.41696E+00
 -1      3970 1.95884E+00
 -1      3971 1.18702E+00
 -1      3972 1.00806E+00
 -1      3973 1.32746E+00
 -1      3974 8.99017E-01
 -1      3975 7.85982E-01
 -1      3976 9.88485E-01
 -1      3977 6.92521E-01
 -1      3978 6.15470E-01
 -1      3979 7.85982E-01
 -1      3980 5.38419E-01
 -1      3981 4.90420E-01
 -1      3982 6.15470E-01
 -1      3983 4.28740E-01
 -1      3984 3.85345E-01
 -1      3985 4.76739E-01
 -1      3986 3.36600E-01
 -1      3987 2.98948E-01
 -1      3988 3.66314E-01
 -1      3989 2.60552E-01
 -1      3990 2.28886E-01
 -1      3991 2.79172E-01
 -1      3992 2.10087E-01
 -1      3993 1.84021E-01
 -1      3994 2.21977E-01
 -1      3995 1.50624E-01
 -1      3996 1.29608E-01
 -1      3997 1.69781E-01
 -1      3998 1.05512E-01
 -1      3999 3.40272E+00
 -1      4000 1.42367E+00
 -1      4001 1.17671E+00
 -1      4002 4.48376E+00
 -1      4003 4.06690E+00
 -1      4004 8.31844E-01
 -1      4005 9.86116E-01
 -1      4006 9.42446E-01
 -1      4007 6.98352E-01
 -1      4008 2.66531E+00
 -1      4009 4.00675E+00
 -1      4010 4.73624E-01
 -1      4011 5.54113E-01
 -1      4012 5.29905E-01
 -1      4013 3.59533E-01
 -1      4014 4.20327E-01
 -1      4015 4.06104E-01
 -1      4016 2.71610E-01
 -1      4017 3.18104E-01
 -1      4018 3.11378E-01
 -1      4019 2.03680E-01
 -1      4020 2.39357E-01
 -1      4021 2.37695E-01
 -1      4022 1.60969E-01
 -1      4023 1.81444E-01
 -1      4024 1.83206E-01
 -1      4025 1.58746E-01
 -1      4026 3.14008E+00
 -1      4027 3.59394E-01
 -1      4028 2.91864E-01
 -1      4029 2.71035E-01
 -1      4030 3.91681E-01
 -1      4031 1.25958E-01
 -1      4032 1.12624E-01
 -1      4033 1.54538E-01
 -1      4034 9.54185E-02
 -1      4035 1.59726E+00
 -1      4036 1.91800E+00
 -1      4037 2.30621E+00
 -1      4038 1.64153E-01
 -1      4039 1.77180E-01
 -1      4040 2.01576E-01
 -1      4041 3.25907E+00
 -1      4042 3.18955E+00
 -1      4043 1.25744E-01
 -1      4044 1.43225E-01
 -1      4045 1.45333E-01
 -1      4046 1.34143E-01
 -1      4047 1.04087E-01
 -1      4048 1.14633E-01
 -1      4049 5.25241E+00
 -1      4050 1.82086E-01
 -1      4051 1.82086E-01
 -1      4052 1.42807E-01
 -1      4053 1.15259E-01
 -1      4054 1.30925E-01
 -1      4055 1.45091E-01
 -1      4056 1.65446E-01
 -1      4057 3.03699E+00
 -1      4058 3.73173E+00
 -1      4059 3.45841E+00
 -1      4060 3.27348E+00
 -1      4061 2.72518E+00
 -1      4062 1.23494E-01
 -1      4063 1.94805E+00
 -1      4064 1.67165E+00
 -1      4065 1.40088E+00
 -1      4066 2.72787E+00
 -1      4067 2.99849E+00
 -1      4068 4.45762E+00
 -1      4069 4.45762E+00
 -1      4070 3.39654E+00
 -1      4071 2.47789E+00
 -1      4072 2.08034E+00
 -1      4073 1.78114E+00
 -1      4074 2.72257E+00
 -1      4075 2.45801E+00
 -1      4076 2.69254E+00
 -1      4077 1.32375E+00
 -1      4078 1.03712E-01
 -1      4079 9.70028E-02
 -1      4080 7.47469E-01
 -1      4081 6.30129E-01
 -1      4082 6.05452E-01
 -1      4083 5.18299E-01
 -1      4084 6.02264E-01
 -1      4085 1.16898E-01
 -1      4086 2.18212E-01
 -1      4087 1.99500E-01
 -1      4088 2.84717E+00
 -1      4089 2.47958E+00
 -1      4090 2.07814E+00
 -1      4091 3.01078E+00
 -1      4092 1.23674E-01
 -1      4093 1.30092E-01
 -1      4094 1.19902E-01
 -1      4095 1.10143E-01
 -1      4096 6.46170E-02
 -1      4097 9.70028E-02
 -1      4098 9.70028E-02
 -1      4099 9.70687E-02
 -1      4100 8.04110E-02
 -1      4101 9.01238E-02
 -1      4102 6.55982E-02
 -1      4103 4.29918E+00
 -1      4104 2.01777E-01
 -1      4105 1.82573E-01
 -1      4106 1.65141E-01
 -1      4107 3.27348E+00
 -1      4108 2.99180E+00
 -1      4109 2.18264E+00
 -1      4110 2.45186E+00
 -1      4111 1.57071E-01
 -1      4112 1.68661E-01
 -1      4113 1.69781E-01
 -1      4114 1.02099E+00
 -1      4115 8.54732E-01
 -1      4116 7.34204E-01
 -1      4117 1.59577E-01
 -1      4118 1.59577E-01
 -1      4119 1.94094E-01
 -1      4120 1.48714E-01
 -1      4121 1.37320E-01
 -1      4122 1.68424E-01
 -1      4123 1.34579E-01
 -1      4124 9.97182E-01
 -1      4125 2.03178E-01
 -1      4126 3.69202E-01
 -1      4127 4.22499E-01
 -1      4128 2.41424E-01
 -1      4129 2.64204E-01
 -1      4130 2.84039E-01
 -1      4131 3.27422E-01
 -1      4132 2.84039E-01
 -1      4133 4.53998E-01
 -1      4134 5.12643E-01
 -1      4135 4.30450E-01
 -1      4136 6.28020E-01
 -1      4137 7.00197E-01
 -1      4138 6.72404E-01
 -1      4139 8.58208E-01
 -1      4140 9.47986E-01
 -1      4141 9.45792E-01
 -1      4142 1.17854E+00
 -1      4143 1.30945E+00
 -1      4144 1.33435E+00
 -1      4145 1.41468E+00
 -1      4146 1.84645E+00
 -1      4147 1.67014E+00
 -1      4148 1.71211E+00
 -1      4149 1.46413E+00
 -1      4150 1.30092E-01
 -1      4151 1.46384E-01
 -1      4152 2.49516E-01
 -1      4153 2.50008E-01
 -1      4154 3.02831E-01
 -1      4155 1.52149E+00
 -1      4156 1.29155E+00
 -1      4157 2.04223E+00
 -1      4158 1.09753E+00
 -1      4159 9.88485E-01
 -1      4160 1.29155E+00
 -1      4161 8.45058E-01
 -1      4162 7.51597E-01
 -1      4163 9.54100E-01
 -1      4164 6.45688E-01
 -1      4165 5.68637E-01
 -1      4166 7.04763E-01
 -1      4167 4.91076E-01
 -1      4168 4.29396E-01
 -1      4169 5.21294E-01
 -1      4170 3.72311E-01
 -1      4171 3.23565E-01
 -1      4172 3.86648E-01
 -1      4173 2.81263E-01
 -1      4174 2.42867E-01
 -1      4175 2.87260E-01
 -1      4176 2.21977E-01
 -1      4177 2.03178E-01
 -1      4178 2.24067E-01
 -1      4179 8.52432E-02
 -1      4180 7.75356E-02
 -1      4181 1.05084E-01
 -1      4182 9.22604E-02
 -1      4183 2.03178E-01
 -1      4184 2.81215E-01
 -1      4185 3.22644E-01
 -1      4186 3.39039E-01
 -1      4187 4.84086E-01
 -1      4188 5.54590E-01
 -1      4189 4.47183E-01
 -1      4190 2.12520E-01
 -1      4191 2.44774E-01
 -1      4192 2.56040E-01
 -1      4193 2.07413E-01
 -1      4194 2.24481E-01
 -1      4195 2.47261E-01
 -1      4196 1.65446E-01
 -1      4197 1.84508E-01
 -1      4198 1.65446E-01
 -1      4199 2.38693E+00
 -1      4200 2.11362E+00
 -1      4201 1.64110E+00
 -1      4202 2.38842E+00
 -1      4203 1.20040E+00
 -1      4204 1.04469E+00
 -1      4205 1.51164E+00
 -1      4206 1.44043E-01
 -1      4207 1.26625E-01
 -1      4208 1.29629E-01
 -1      4209 1.40819E-01
 -1      4210 1.43041E-01
 -1      4211 1.55062E-01
 -1      4212 8.29460E-01
 -1      4213 7.22197E-01
 -1      4214 1.03268E+00
 -1      4215 3.21197E+00
 -1      4216 9.79181E-02
 -1      4217 1.18314E+00
 -1      4218 1.41829E+00
 -1      4219 1.50049E+00
 -1      4220 5.92464E-01
 -1      4221 6.38284E-01
 -1      4222 7.36226E-01
 -1      4223 1.08757E-01
 -1      4224 9.92926E-02
 -1      4225 7.43925E-02
 -1      4226 6.55323E-02
 -1      4227 6.02264E-01
 -1      4228 5.77587E-01
 -1      4229 6.97520E-01
 -1      4230 1.05084E-01
 -1      4231 6.59887E-02
 -1      4232 1.77537E+00
 -1      4233 2.11362E+00
 -1      4234 2.62118E-01
 -1      4235 2.30814E-01
 -1      4236 4.74176E-01
 -1      4237 4.14889E-01
 -1      4238 3.47559E-01
 -1      4239 2.80340E+00
 -1      4240 2.39150E+00
 -1      4241 1.83485E+00
 -1      4242 2.77726E+00
 -1      4243 8.54266E-01
 -1      4244 1.00042E+00
 -1      4245 7.94198E-01
 -1      4246 2.07413E-01
 -1      4247 1.72681E-01
 -1      4248 1.94917E-01
 -1      4249 2.01996E-01
 -1      4250 1.54753E-01
 -1      4251 1.94094E-01
 -1      4252 7.30209E-02
 -1      4253 2.05036E+00
 -1      4254 2.17855E-01
 -1      4255 2.00929E-01
 -1      4256 2.29966E-01
 -1      4257 2.54685E+00
 -1      4258 1.09496E+00
 -1      4259 2.11362E+00
 -1      4260 1.64292E-01
 -1      4261 1.56338E-01
 -1      4262 1.80719E-01
 -1      4263 7.95497E-02
 -1      4264 1.03226E-01
 -1      4265 1.19518E-01
 -1      4266 7.86344E-02
 -1      4267 8.70382E-02
 -1      4268 7.86344E-02
 -1      4269 7.86344E-02
 -1      4270 1.14370E-01
 -1      4271 1.17586E+00
 -1      4272 9.60628E-01
 -1      4273 1.67014E+00
 -1      4274 4.40730E-01
 -1      4275 5.67307E-01
 -1      4276 5.67307E-01
 -1      4277 6.82684E-01
 -1      4278 8.02617E-01
 -1      4279 1.40641E+00
 -1      4280 1.95371E+00
 -1      4281 1.51117E+00
 -1      4282 1.31715E+00
 -1      4283 1.86044E+00
 -1      4284 1.06247E+00
 -1      4285 9.19037E-01
 -1      4286 1.28208E+00
 -1      4287 7.56599E-01
 -1      4288 6.50689E-01
 -1      4289 8.64963E-01
 -1      4290 5.53812E-01
 -1      4291 4.76252E-01
 -1      4292 6.05647E-01
 -1      4293 4.14756E-01
 -1      4294 3.57670E-01
 -1      4295 4.47274E-01
 -1      4296 3.16321E-01
 -1      4297 2.74019E-01
 -1      4298 3.44429E-01
 -1      4299 2.39799E-01
 -1      4300 2.18909E-01
 -1      4301 2.68860E-01
 -1      4302 2.27120E-01
 -1      4303 2.63561E-01
 -1      4304 2.97781E-01
 -1      4305 3.44338E-01
 -1      4306 2.36621E-01
 -1      4307 2.53564E-01
 -1      4308 3.85687E-01
 -1      4309 4.47274E-01
 -1      4310 2.79353E-01
 -1      4311 2.99188E-01
 -1      4312 4.36045E-01
 -1      4313 2.68714E-01
 -1      4314 1.61486E-01
 -1      4315 1.80548E-01
 -1      4316 1.40722E+00
 -1      4317 1.63003E+00
 -1      4318 2.00757E-01
 -1      4319 2.23662E-01
 -1      4320 3.26039E-01
 -1      4321 9.69820E-01
 -1      4322 1.15254E+00
 -1      4323 2.87907E-01
 -1      4324 1.41237E-01
 -1      4325 5.77587E-01
 -1      4326 1.19518E-01
 -1      4327 6.89341E-01
 -1      4328 8.07382E-01
 -1      4329 5.08770E-01
 -1      4330 5.77587E-01
 -1      4331 1.84702E-01
 -1      4332 3.32634E-01
 -1      4333 1.96797E-01
 -1      4334 4.74176E-01
 -1      4335 1.93785E-01
 -1      4336 1.84702E-01
 -1      4337 5.92464E-01
 -1      4338 1.84393E-01
 -1      4339 2.09516E-01
 -1      4340 2.01996E-01
 -1      4341 9.26517E-02
 -3
 9999
