    1C
    1UUSER                                                              
    1UDATE              27.october.2022                                 
    1UTIME              00:58:36                                        
    1UHOST                                                              
    1UPGM               CalculiX                                        
    1UVERSION           Version 2.17                             
    1UCOMPILETIME       Thu Jul 23 21:43:50 CEST 2020                    
    1UDIR                                                               
    1UDBN                                                               
    1UMAT    1SOLIDMATERIAL                                             
    2C                          4384                                     1
 -1         1 3.17820E+01 3.63638E+01 0.00000E+00
 -1         2 4.45765E+01 3.24365E+01 0.00000E+00
 -1         3 1.50000E+02 0.00000E+00 0.00000E+00
 -1         4 1.50000E+02 5.00000E+01 0.00000E+00
 -1         5 0.00000E+00 0.00000E+00 0.00000E+00
 -1         6 0.00000E+00 5.00000E+01 0.00000E+00
 -1         7 0.00000E+00 4.70500E+01 0.00000E+00
 -1         8 0.00000E+00 4.41000E+01 0.00000E+00
 -1         9 0.00000E+00 4.11500E+01 0.00000E+00
 -1        10 0.00000E+00 3.82000E+01 0.00000E+00
 -1        11 0.00000E+00 3.52500E+01 0.00000E+00
 -1        12 0.00000E+00 3.23500E+01 0.00000E+00
 -1        13 0.00000E+00 2.94000E+01 0.00000E+00
 -1        14 0.00000E+00 2.64500E+01 0.00000E+00
 -1        15 0.00000E+00 2.35000E+01 0.00000E+00
 -1        16 0.00000E+00 2.05500E+01 0.00000E+00
 -1        17 0.00000E+00 1.76000E+01 0.00000E+00
 -1        18 0.00000E+00 1.47000E+01 0.00000E+00
 -1        19 0.00000E+00 1.17500E+01 0.00000E+00
 -1        20 0.00000E+00 8.80000E+00 0.00000E+00
 -1        21 0.00000E+00 5.85000E+00 0.00000E+00
 -1        22 0.00000E+00 2.90000E+00 0.00000E+00
 -1        23 3.15000E+00 5.00000E+01 0.00000E+00
 -1        24 6.15000E+00 5.00000E+01 0.00000E+00
 -1        25 9.15000E+00 5.00000E+01 0.00000E+00
 -1        26 1.21500E+01 5.00000E+01 0.00000E+00
 -1        27 1.51500E+01 5.00000E+01 0.00000E+00
 -1        28 1.81500E+01 5.00000E+01 0.00000E+00
 -1        29 2.11500E+01 5.00000E+01 0.00000E+00
 -1        30 2.41500E+01 5.00000E+01 0.00000E+00
 -1        31 2.71500E+01 5.00000E+01 0.00000E+00
 -1        32 3.01500E+01 5.00000E+01 0.00000E+00
 -1        33 3.31500E+01 5.00000E+01 0.00000E+00
 -1        34 3.61500E+01 5.00000E+01 0.00000E+00
 -1        35 3.90000E+01 5.00000E+01 0.00000E+00
 -1        36 4.20000E+01 5.00000E+01 0.00000E+00
 -1        37 4.50000E+01 5.00000E+01 0.00000E+00
 -1        38 4.80000E+01 5.00000E+01 0.00000E+00
 -1        39 5.10000E+01 5.00000E+01 0.00000E+00
 -1        40 5.40000E+01 5.00000E+01 0.00000E+00
 -1        41 5.70000E+01 5.00000E+01 0.00000E+00
 -1        42 6.00000E+01 5.00000E+01 0.00000E+00
 -1        43 6.30000E+01 5.00000E+01 0.00000E+00
 -1        44 6.60000E+01 5.00000E+01 0.00000E+00
 -1        45 6.90000E+01 5.00000E+01 0.00000E+00
 -1        46 7.20000E+01 5.00000E+01 0.00000E+00
 -1        47 7.50000E+01 5.00000E+01 0.00000E+00
 -1        48 7.80000E+01 5.00000E+01 0.00000E+00
 -1        49 8.10000E+01 5.00000E+01 0.00000E+00
 -1        50 8.40000E+01 5.00000E+01 0.00000E+00
 -1        51 8.70000E+01 5.00000E+01 0.00000E+00
 -1        52 9.00000E+01 5.00000E+01 0.00000E+00
 -1        53 9.30000E+01 5.00000E+01 0.00000E+00
 -1        54 9.60000E+01 5.00000E+01 0.00000E+00
 -1        55 9.90000E+01 5.00000E+01 0.00000E+00
 -1        56 1.02000E+02 5.00000E+01 0.00000E+00
 -1        57 1.05000E+02 5.00000E+01 0.00000E+00
 -1        58 1.08000E+02 5.00000E+01 0.00000E+00
 -1        59 1.11000E+02 5.00000E+01 0.00000E+00
 -1        60 1.14000E+02 5.00000E+01 0.00000E+00
 -1        61 1.17000E+02 5.00000E+01 0.00000E+00
 -1        62 1.20000E+02 5.00000E+01 0.00000E+00
 -1        63 1.23000E+02 5.00000E+01 0.00000E+00
 -1        64 1.26000E+02 5.00000E+01 0.00000E+00
 -1        65 1.29000E+02 5.00000E+01 0.00000E+00
 -1        66 1.32000E+02 5.00000E+01 0.00000E+00
 -1        67 1.35000E+02 5.00000E+01 0.00000E+00
 -1        68 1.38000E+02 5.00000E+01 0.00000E+00
 -1        69 1.41000E+02 5.00000E+01 0.00000E+00
 -1        70 1.44000E+02 5.00000E+01 0.00000E+00
 -1        71 1.47000E+02 5.00000E+01 0.00000E+00
 -1        72 3.15000E+00 0.00000E+00 0.00000E+00
 -1        73 6.15000E+00 0.00000E+00 0.00000E+00
 -1        74 9.15000E+00 0.00000E+00 0.00000E+00
 -1        75 1.21500E+01 0.00000E+00 0.00000E+00
 -1        76 1.51500E+01 0.00000E+00 0.00000E+00
 -1        77 1.81500E+01 0.00000E+00 0.00000E+00
 -1        78 2.11500E+01 0.00000E+00 0.00000E+00
 -1        79 2.41500E+01 0.00000E+00 0.00000E+00
 -1        80 2.71500E+01 0.00000E+00 0.00000E+00
 -1        81 3.01500E+01 0.00000E+00 0.00000E+00
 -1        82 3.31500E+01 0.00000E+00 0.00000E+00
 -1        83 3.61500E+01 0.00000E+00 0.00000E+00
 -1        84 3.91500E+01 0.00000E+00 0.00000E+00
 -1        85 4.21500E+01 0.00000E+00 0.00000E+00
 -1        86 4.51500E+01 0.00000E+00 0.00000E+00
 -1        87 4.81500E+01 0.00000E+00 0.00000E+00
 -1        88 5.11500E+01 0.00000E+00 0.00000E+00
 -1        89 5.41500E+01 0.00000E+00 0.00000E+00
 -1        90 5.71500E+01 0.00000E+00 0.00000E+00
 -1        91 6.01500E+01 0.00000E+00 0.00000E+00
 -1        92 6.31500E+01 0.00000E+00 0.00000E+00
 -1        93 6.61500E+01 0.00000E+00 0.00000E+00
 -1        94 6.91500E+01 0.00000E+00 0.00000E+00
 -1        95 7.21500E+01 0.00000E+00 0.00000E+00
 -1        96 7.51500E+01 0.00000E+00 0.00000E+00
 -1        97 7.81500E+01 0.00000E+00 0.00000E+00
 -1        98 8.11500E+01 0.00000E+00 0.00000E+00
 -1        99 8.41500E+01 0.00000E+00 0.00000E+00
 -1       100 8.71500E+01 0.00000E+00 0.00000E+00
 -1       101 9.01500E+01 0.00000E+00 0.00000E+00
 -1       102 9.31500E+01 0.00000E+00 0.00000E+00
 -1       103 9.61500E+01 0.00000E+00 0.00000E+00
 -1       104 9.91500E+01 0.00000E+00 0.00000E+00
 -1       105 1.02150E+02 0.00000E+00 0.00000E+00
 -1       106 1.05150E+02 0.00000E+00 0.00000E+00
 -1       107 1.08150E+02 0.00000E+00 0.00000E+00
 -1       108 1.11150E+02 0.00000E+00 0.00000E+00
 -1       109 1.14150E+02 0.00000E+00 0.00000E+00
 -1       110 1.17150E+02 0.00000E+00 0.00000E+00
 -1       111 1.20150E+02 0.00000E+00 0.00000E+00
 -1       112 1.23150E+02 0.00000E+00 0.00000E+00
 -1       113 1.26150E+02 0.00000E+00 0.00000E+00
 -1       114 1.29150E+02 0.00000E+00 0.00000E+00
 -1       115 1.32150E+02 0.00000E+00 0.00000E+00
 -1       116 1.35150E+02 0.00000E+00 0.00000E+00
 -1       117 1.38150E+02 0.00000E+00 0.00000E+00
 -1       118 1.41150E+02 0.00000E+00 0.00000E+00
 -1       119 1.44150E+02 0.00000E+00 0.00000E+00
 -1       120 1.47150E+02 0.00000E+00 0.00000E+00
 -1       121 1.50000E+02 2.95000E+00 0.00000E+00
 -1       122 1.50000E+02 5.90000E+00 0.00000E+00
 -1       123 1.50000E+02 8.85000E+00 0.00000E+00
 -1       124 1.50000E+02 1.18000E+01 0.00000E+00
 -1       125 1.50000E+02 1.47500E+01 0.00000E+00
 -1       126 1.50000E+02 1.76500E+01 0.00000E+00
 -1       127 1.50000E+02 2.06000E+01 0.00000E+00
 -1       128 1.50000E+02 2.35500E+01 0.00000E+00
 -1       129 1.50000E+02 2.65000E+01 0.00000E+00
 -1       130 1.50000E+02 2.94500E+01 0.00000E+00
 -1       131 1.50000E+02 3.24000E+01 0.00000E+00
 -1       132 1.50000E+02 3.53000E+01 0.00000E+00
 -1       133 1.50000E+02 3.82500E+01 0.00000E+00
 -1       134 1.50000E+02 4.12000E+01 0.00000E+00
 -1       135 1.50000E+02 4.41500E+01 0.00000E+00
 -1       136 1.50000E+02 4.71000E+01 0.00000E+00
 -1       137 4.44261E+01 3.09931E+01 0.00000E+00
 -1       138 4.39587E+01 2.95612E+01 0.00000E+00
 -1       139 4.32301E+01 2.83090E+01 0.00000E+00
 -1       140 4.22724E+01 2.72453E+01 0.00000E+00
 -1       141 4.10773E+01 2.63748E+01 0.00000E+00
 -1       142 3.97074E+01 2.57687E+01 0.00000E+00
 -1       143 3.83470E+01 2.54790E+01 0.00000E+00
 -1       144 3.68949E+01 2.54698E+01 0.00000E+00
 -1       145 3.54092E+01 2.57805E+01 0.00000E+00
 -1       146 3.40699E+01 2.63781E+01 0.00000E+00
 -1       147 3.29362E+01 2.71955E+01 0.00000E+00
 -1       148 3.19948E+01 2.82122E+01 0.00000E+00
 -1       149 3.12628E+01 2.94137E+01 0.00000E+00
 -1       150 3.07773E+01 3.07719E+01 0.00000E+00
 -1       151 3.05801E+01 3.22124E+01 0.00000E+00
 -1       152 3.06963E+01 3.37263E+01 0.00000E+00
 -1       153 3.11296E+01 3.51638E+01 0.00000E+00
 -1       154 3.26906E+01 3.74493E+01 0.00000E+00
 -1       155 3.39318E+01 3.84128E+01 0.00000E+00
 -1       156 3.52911E+01 3.90529E+01 0.00000E+00
 -1       157 3.67423E+01 3.93866E+01 0.00000E+00
 -1       158 3.81839E+01 3.94101E+01 0.00000E+00
 -1       159 3.97118E+01 3.91029E+01 0.00000E+00
 -1       160 4.10285E+01 3.85261E+01 0.00000E+00
 -1       161 4.22094E+01 3.76840E+01 0.00000E+00
 -1       162 4.32227E+01 3.65742E+01 0.00000E+00
 -1       163 4.39401E+01 3.53526E+01 0.00000E+00
 -1       164 4.44078E+01 3.39639E+01 0.00000E+00
 -1       165 2.59800E+00 4.55750E+01 0.00000E+00
 -1       166 2.59800E+00 4.26250E+01 0.00000E+00
 -1       167 2.59800E+00 3.96750E+01 0.00000E+00
 -1       168 2.59800E+00 3.67250E+01 0.00000E+00
 -1       169 2.59800E+00 3.38250E+01 0.00000E+00
 -1       170 2.59800E+00 3.08750E+01 0.00000E+00
 -1       171 2.59800E+00 2.79250E+01 0.00000E+00
 -1       172 2.59800E+00 2.49750E+01 0.00000E+00
 -1       173 2.59800E+00 2.20250E+01 0.00000E+00
 -1       174 2.59800E+00 1.90750E+01 0.00000E+00
 -1       175 2.59800E+00 1.61750E+01 0.00000E+00
 -1       176 2.59800E+00 1.32250E+01 0.00000E+00
 -1       177 2.59800E+00 1.02750E+01 0.00000E+00
 -1       178 2.59800E+00 7.32500E+00 0.00000E+00
 -1       179 2.59800E+00 4.37500E+00 0.00000E+00
 -1       180 2.87400E+00 2.18750E+00 0.00000E+00
 -1       181 4.65000E+00 4.74020E+01 0.00000E+00
 -1       182 7.65000E+00 4.74020E+01 0.00000E+00
 -1       183 1.06500E+01 4.74020E+01 0.00000E+00
 -1       184 1.36500E+01 4.74020E+01 0.00000E+00
 -1       185 1.66500E+01 4.74020E+01 0.00000E+00
 -1       186 1.96500E+01 4.74020E+01 0.00000E+00
 -1       187 2.26500E+01 4.74020E+01 0.00000E+00
 -1       188 2.56500E+01 4.74020E+01 0.00000E+00
 -1       189 2.86500E+01 4.74020E+01 0.00000E+00
 -1       190 3.16500E+01 4.74020E+01 0.00000E+00
 -1       191 3.46500E+01 4.74020E+01 0.00000E+00
 -1       192 3.75000E+01 4.74020E+01 0.00000E+00
 -1       193 4.05000E+01 4.74020E+01 0.00000E+00
 -1       194 4.35000E+01 4.74020E+01 0.00000E+00
 -1       195 4.65000E+01 4.74020E+01 0.00000E+00
 -1       196 4.95000E+01 4.74020E+01 0.00000E+00
 -1       197 5.25000E+01 4.74020E+01 0.00000E+00
 -1       198 5.55000E+01 4.74020E+01 0.00000E+00
 -1       199 5.85000E+01 4.74020E+01 0.00000E+00
 -1       200 6.15000E+01 4.74020E+01 0.00000E+00
 -1       201 6.45000E+01 4.74020E+01 0.00000E+00
 -1       202 6.75000E+01 4.74020E+01 0.00000E+00
 -1       203 7.05000E+01 4.74020E+01 0.00000E+00
 -1       204 7.35000E+01 4.74020E+01 0.00000E+00
 -1       205 7.65000E+01 4.74020E+01 0.00000E+00
 -1       206 7.95000E+01 4.74020E+01 0.00000E+00
 -1       207 8.25000E+01 4.74020E+01 0.00000E+00
 -1       208 8.55000E+01 4.74020E+01 0.00000E+00
 -1       209 8.85000E+01 4.74020E+01 0.00000E+00
 -1       210 9.15000E+01 4.74020E+01 0.00000E+00
 -1       211 9.45000E+01 4.74020E+01 0.00000E+00
 -1       212 9.75000E+01 4.74020E+01 0.00000E+00
 -1       213 1.00500E+02 4.74020E+01 0.00000E+00
 -1       214 1.03500E+02 4.74020E+01 0.00000E+00
 -1       215 1.06500E+02 4.74020E+01 0.00000E+00
 -1       216 1.09500E+02 4.74020E+01 0.00000E+00
 -1       217 1.12500E+02 4.74020E+01 0.00000E+00
 -1       218 1.15500E+02 4.74020E+01 0.00000E+00
 -1       219 1.18500E+02 4.74020E+01 0.00000E+00
 -1       220 1.21500E+02 4.74020E+01 0.00000E+00
 -1       221 1.24500E+02 4.74020E+01 0.00000E+00
 -1       222 1.27500E+02 4.74020E+01 0.00000E+00
 -1       223 1.30500E+02 4.74020E+01 0.00000E+00
 -1       224 1.33500E+02 4.74020E+01 0.00000E+00
 -1       225 1.36500E+02 4.74020E+01 0.00000E+00
 -1       226 1.39500E+02 4.74020E+01 0.00000E+00
 -1       227 1.42500E+02 4.74020E+01 0.00000E+00
 -1       228 1.45500E+02 4.74020E+01 0.00000E+00
 -1       229 1.47750E+02 4.72510E+01 0.00000E+00
 -1       230 5.87400E+00 2.18750E+00 0.00000E+00
 -1       231 8.87400E+00 2.18750E+00 0.00000E+00
 -1       232 1.18740E+01 2.18750E+00 0.00000E+00
 -1       233 1.48740E+01 2.18750E+00 0.00000E+00
 -1       234 1.78740E+01 2.18750E+00 0.00000E+00
 -1       235 2.08740E+01 2.18750E+00 0.00000E+00
 -1       236 2.38740E+01 2.18750E+00 0.00000E+00
 -1       237 2.68740E+01 2.18750E+00 0.00000E+00
 -1       238 2.98740E+01 2.18750E+00 0.00000E+00
 -1       239 3.28740E+01 2.18750E+00 0.00000E+00
 -1       240 3.58740E+01 2.18750E+00 0.00000E+00
 -1       241 3.88740E+01 2.18750E+00 0.00000E+00
 -1       242 4.18740E+01 2.18750E+00 0.00000E+00
 -1       243 4.48740E+01 2.18750E+00 0.00000E+00
 -1       244 4.78740E+01 2.18750E+00 0.00000E+00
 -1       245 5.08740E+01 2.18750E+00 0.00000E+00
 -1       246 5.38740E+01 2.18750E+00 0.00000E+00
 -1       247 5.68740E+01 2.18750E+00 0.00000E+00
 -1       248 5.98740E+01 2.18750E+00 0.00000E+00
 -1       249 6.28740E+01 2.18750E+00 0.00000E+00
 -1       250 6.58740E+01 2.18750E+00 0.00000E+00
 -1       251 6.88740E+01 2.18750E+00 0.00000E+00
 -1       252 7.18740E+01 2.18750E+00 0.00000E+00
 -1       253 7.48740E+01 2.18750E+00 0.00000E+00
 -1       254 7.78740E+01 2.18750E+00 0.00000E+00
 -1       255 8.08740E+01 2.18750E+00 0.00000E+00
 -1       256 8.38740E+01 2.18750E+00 0.00000E+00
 -1       257 8.68740E+01 2.18750E+00 0.00000E+00
 -1       258 8.98740E+01 2.18750E+00 0.00000E+00
 -1       259 9.28740E+01 2.18750E+00 0.00000E+00
 -1       260 9.58740E+01 2.18750E+00 0.00000E+00
 -1       261 9.88740E+01 2.18750E+00 0.00000E+00
 -1       262 1.01874E+02 2.18750E+00 0.00000E+00
 -1       263 1.04874E+02 2.18750E+00 0.00000E+00
 -1       264 1.07874E+02 2.18750E+00 0.00000E+00
 -1       265 1.10874E+02 2.18750E+00 0.00000E+00
 -1       266 1.13874E+02 2.18750E+00 0.00000E+00
 -1       267 1.16874E+02 2.18750E+00 0.00000E+00
 -1       268 1.19874E+02 2.18750E+00 0.00000E+00
 -1       269 1.22874E+02 2.18750E+00 0.00000E+00
 -1       270 1.25874E+02 2.18750E+00 0.00000E+00
 -1       271 1.28874E+02 2.18750E+00 0.00000E+00
 -1       272 1.31874E+02 2.18750E+00 0.00000E+00
 -1       273 1.34874E+02 2.18750E+00 0.00000E+00
 -1       274 1.37874E+02 2.18750E+00 0.00000E+00
 -1       275 1.40874E+02 2.18750E+00 0.00000E+00
 -1       276 1.43874E+02 2.18750E+00 0.00000E+00
 -1       277 1.46874E+02 2.18750E+00 0.00000E+00
 -1       278 1.47402E+02 4.42500E+00 0.00000E+00
 -1       279 1.47402E+02 7.37500E+00 0.00000E+00
 -1       280 1.47402E+02 1.03250E+01 0.00000E+00
 -1       281 1.47402E+02 1.32750E+01 0.00000E+00
 -1       282 1.47402E+02 1.61750E+01 0.00000E+00
 -1       283 1.47402E+02 1.91250E+01 0.00000E+00
 -1       284 1.47402E+02 2.20750E+01 0.00000E+00
 -1       285 1.47402E+02 2.50250E+01 0.00000E+00
 -1       286 1.47402E+02 2.79750E+01 0.00000E+00
 -1       287 1.47402E+02 3.09250E+01 0.00000E+00
 -1       288 1.47402E+02 3.38250E+01 0.00000E+00
 -1       289 1.47402E+02 3.67750E+01 0.00000E+00
 -1       290 1.47402E+02 3.97250E+01 0.00000E+00
 -1       291 1.47402E+02 4.26750E+01 0.00000E+00
 -1       292 1.47576E+02 4.49630E+01 0.00000E+00
 -1       293 4.57905E+01 3.15805E+01 0.00000E+00
 -1       294 4.55042E+01 2.98490E+01 0.00000E+00
 -1       295 4.47148E+01 2.82832E+01 0.00000E+00
 -1       296 4.36523E+01 2.69659E+01 0.00000E+00
 -1       297 4.23887E+01 2.58301E+01 0.00000E+00
 -1       298 4.09507E+01 2.48098E+01 0.00000E+00
 -1       299 3.92797E+01 2.44381E+01 0.00000E+00
 -1       300 3.76292E+01 2.41782E+01 0.00000E+00
 -1       301 3.58695E+01 2.42744E+01 0.00000E+00
 -1       302 3.42454E+01 2.49721E+01 0.00000E+00
 -1       303 3.27940E+01 2.58034E+01 0.00000E+00
 -1       304 3.15759E+01 2.68801E+01 0.00000E+00
 -1       305 3.05934E+01 2.81822E+01 0.00000E+00
 -1       306 2.98784E+01 2.96847E+01 0.00000E+00
 -1       307 2.94775E+01 3.13277E+01 0.00000E+00
 -1       308 2.94294E+01 3.30622E+01 0.00000E+00
 -1       309 2.96720E+01 3.48191E+01 0.00000E+00
 -1       310 3.03906E+01 3.63429E+01 0.00000E+00
 -1       311 3.13066E+01 3.76847E+01 0.00000E+00
 -1       312 3.24650E+01 3.90211E+01 0.00000E+00
 -1       313 3.40593E+01 3.99056E+01 0.00000E+00
 -1       314 3.57450E+01 4.04013E+01 0.00000E+00
 -1       315 3.74433E+01 4.06106E+01 0.00000E+00
 -1       316 3.92199E+01 4.06094E+01 0.00000E+00
 -1       317 4.08566E+01 3.99250E+01 0.00000E+00
 -1       318 4.23229E+01 3.90922E+01 0.00000E+00
 -1       319 4.36114E+01 3.79466E+01 0.00000E+00
 -1       320 4.46268E+01 3.65774E+01 0.00000E+00
 -1       321 4.54024E+01 3.50720E+01 0.00000E+00
 -1       322 4.58638E+01 3.33517E+01 0.00000E+00
 -1       323 5.19600E+00 4.11500E+01 0.00000E+00
 -1       324 5.19600E+00 4.41000E+01 0.00000E+00
 -1       325 5.19600E+00 3.52750E+01 0.00000E+00
 -1       326 5.19600E+00 3.23250E+01 0.00000E+00
 -1       327 5.19600E+00 2.93750E+01 0.00000E+00
 -1       328 5.19600E+00 2.64250E+01 0.00000E+00
 -1       329 5.19600E+00 2.34750E+01 0.00000E+00
 -1       330 5.19600E+00 2.05250E+01 0.00000E+00
 -1       331 5.19600E+00 1.76250E+01 0.00000E+00
 -1       332 5.19600E+00 1.46750E+01 0.00000E+00
 -1       333 5.19600E+00 1.17250E+01 0.00000E+00
 -1       334 5.19600E+00 8.77500E+00 0.00000E+00
 -1       335 5.19600E+00 5.82500E+00 0.00000E+00
 -1       336 5.53500E+00 4.00625E+00 0.00000E+00
 -1       337 8.53500E+00 4.00625E+00 0.00000E+00
 -1       338 9.15000E+00 4.48040E+01 0.00000E+00
 -1       339 1.21500E+01 4.48040E+01 0.00000E+00
 -1       340 1.51500E+01 4.48040E+01 0.00000E+00
 -1       341 1.81500E+01 4.48040E+01 0.00000E+00
 -1       342 2.11500E+01 4.48040E+01 0.00000E+00
 -1       343 2.41500E+01 4.48040E+01 0.00000E+00
 -1       344 2.71500E+01 4.48040E+01 0.00000E+00
 -1       345 3.01500E+01 4.48040E+01 0.00000E+00
 -1       346 3.31500E+01 4.48040E+01 0.00000E+00
 -1       347 3.60000E+01 4.48040E+01 0.00000E+00
 -1       348 3.90000E+01 4.48040E+01 0.00000E+00
 -1       349 4.20000E+01 4.48040E+01 0.00000E+00
 -1       350 4.50000E+01 4.48040E+01 0.00000E+00
 -1       351 4.80000E+01 4.48040E+01 0.00000E+00
 -1       352 5.10000E+01 4.48040E+01 0.00000E+00
 -1       353 5.40000E+01 4.48040E+01 0.00000E+00
 -1       354 5.70000E+01 4.48040E+01 0.00000E+00
 -1       355 6.00000E+01 4.48040E+01 0.00000E+00
 -1       356 6.30000E+01 4.48040E+01 0.00000E+00
 -1       357 6.60000E+01 4.48040E+01 0.00000E+00
 -1       358 6.90000E+01 4.48040E+01 0.00000E+00
 -1       359 7.20000E+01 4.48040E+01 0.00000E+00
 -1       360 7.50000E+01 4.48040E+01 0.00000E+00
 -1       361 7.80000E+01 4.48040E+01 0.00000E+00
 -1       362 8.10000E+01 4.48040E+01 0.00000E+00
 -1       363 8.40000E+01 4.48040E+01 0.00000E+00
 -1       364 8.70000E+01 4.48040E+01 0.00000E+00
 -1       365 9.00000E+01 4.48040E+01 0.00000E+00
 -1       366 9.30000E+01 4.48040E+01 0.00000E+00
 -1       367 9.60000E+01 4.48040E+01 0.00000E+00
 -1       368 9.90000E+01 4.48040E+01 0.00000E+00
 -1       369 1.02000E+02 4.48040E+01 0.00000E+00
 -1       370 1.05000E+02 4.48040E+01 0.00000E+00
 -1       371 1.08000E+02 4.48040E+01 0.00000E+00
 -1       372 1.11000E+02 4.48040E+01 0.00000E+00
 -1       373 1.14000E+02 4.48040E+01 0.00000E+00
 -1       374 1.17000E+02 4.48040E+01 0.00000E+00
 -1       375 1.20000E+02 4.48040E+01 0.00000E+00
 -1       376 1.23000E+02 4.48040E+01 0.00000E+00
 -1       377 1.26000E+02 4.48040E+01 0.00000E+00
 -1       378 1.29000E+02 4.48040E+01 0.00000E+00
 -1       379 1.32000E+02 4.48040E+01 0.00000E+00
 -1       380 1.35000E+02 4.48040E+01 0.00000E+00
 -1       381 1.38000E+02 4.48040E+01 0.00000E+00
 -1       382 1.41000E+02 4.48040E+01 0.00000E+00
 -1       383 1.44000E+02 4.48040E+01 0.00000E+00
 -1       384 1.33740E+01 4.78550E+00 0.00000E+00
 -1       385 1.63740E+01 4.78550E+00 0.00000E+00
 -1       386 1.93740E+01 4.78550E+00 0.00000E+00
 -1       387 2.23740E+01 4.78550E+00 0.00000E+00
 -1       388 2.53740E+01 4.78550E+00 0.00000E+00
 -1       389 2.83740E+01 4.78550E+00 0.00000E+00
 -1       390 3.13740E+01 4.78550E+00 0.00000E+00
 -1       391 3.43740E+01 4.78550E+00 0.00000E+00
 -1       392 3.73740E+01 4.78550E+00 0.00000E+00
 -1       393 4.03740E+01 4.78550E+00 0.00000E+00
 -1       394 4.33740E+01 4.78550E+00 0.00000E+00
 -1       395 4.63740E+01 4.78550E+00 0.00000E+00
 -1       396 4.93740E+01 4.78550E+00 0.00000E+00
 -1       397 5.23740E+01 4.78550E+00 0.00000E+00
 -1       398 5.53740E+01 4.78550E+00 0.00000E+00
 -1       399 5.83740E+01 4.78550E+00 0.00000E+00
 -1       400 6.13740E+01 4.78550E+00 0.00000E+00
 -1       401 6.43740E+01 4.78550E+00 0.00000E+00
 -1       402 6.73740E+01 4.78550E+00 0.00000E+00
 -1       403 7.03740E+01 4.78550E+00 0.00000E+00
 -1       404 7.33740E+01 4.78550E+00 0.00000E+00
 -1       405 7.63740E+01 4.78550E+00 0.00000E+00
 -1       406 7.93740E+01 4.78550E+00 0.00000E+00
 -1       407 8.23740E+01 4.78550E+00 0.00000E+00
 -1       408 8.53740E+01 4.78550E+00 0.00000E+00
 -1       409 8.83740E+01 4.78550E+00 0.00000E+00
 -1       410 9.13740E+01 4.78550E+00 0.00000E+00
 -1       411 9.43740E+01 4.78550E+00 0.00000E+00
 -1       412 9.73740E+01 4.78550E+00 0.00000E+00
 -1       413 1.00374E+02 4.78550E+00 0.00000E+00
 -1       414 1.03374E+02 4.78550E+00 0.00000E+00
 -1       415 1.06374E+02 4.78550E+00 0.00000E+00
 -1       416 1.09374E+02 4.78550E+00 0.00000E+00
 -1       417 1.12374E+02 4.78550E+00 0.00000E+00
 -1       418 1.15374E+02 4.78550E+00 0.00000E+00
 -1       419 1.18374E+02 4.78550E+00 0.00000E+00
 -1       420 1.21374E+02 4.78550E+00 0.00000E+00
 -1       421 1.24374E+02 4.78550E+00 0.00000E+00
 -1       422 1.27374E+02 4.78550E+00 0.00000E+00
 -1       423 1.30374E+02 4.78550E+00 0.00000E+00
 -1       424 1.33374E+02 4.78550E+00 0.00000E+00
 -1       425 1.36374E+02 4.78550E+00 0.00000E+00
 -1       426 1.39374E+02 4.78550E+00 0.00000E+00
 -1       427 1.42374E+02 4.78550E+00 0.00000E+00
 -1       428 1.44888E+02 4.60525E+00 0.00000E+00
 -1       429 1.44804E+02 1.18000E+01 0.00000E+00
 -1       430 1.44804E+02 8.85000E+00 0.00000E+00
 -1       431 1.44804E+02 1.47000E+01 0.00000E+00
 -1       432 1.44804E+02 1.76500E+01 0.00000E+00
 -1       433 1.44804E+02 2.06000E+01 0.00000E+00
 -1       434 1.44804E+02 2.35500E+01 0.00000E+00
 -1       435 1.44804E+02 2.65000E+01 0.00000E+00
 -1       436 1.44804E+02 2.94500E+01 0.00000E+00
 -1       437 1.44804E+02 3.23500E+01 0.00000E+00
 -1       438 1.44804E+02 3.53000E+01 0.00000E+00
 -1       439 1.44804E+02 3.82500E+01 0.00000E+00
 -1       440 1.44804E+02 4.12000E+01 0.00000E+00
 -1       441 1.09545E+01 4.39587E+00 0.00000E+00
 -1       442 4.64913E+01 2.83694E+01 0.00000E+00
 -1       443 4.39990E+01 2.53094E+01 0.00000E+00
 -1       444 4.74571E+01 3.23986E+01 0.00000E+00
 -1       445 4.51924E+01 2.68108E+01 0.00000E+00
 -1       446 5.19600E+00 3.82125E+01 0.00000E+00
 -1       447 4.25167E+01 2.41261E+01 0.00000E+00
 -1       448 4.04330E+01 2.31951E+01 0.00000E+00
 -1       449 3.87825E+01 2.29353E+01 0.00000E+00
 -1       450 3.66558E+01 2.25137E+01 0.00000E+00
 -1       451 3.45127E+01 2.33554E+01 0.00000E+00
 -1       452 3.28755E+01 2.42630E+01 0.00000E+00
 -1       453 3.12155E+01 2.52451E+01 0.00000E+00
 -1       454 2.99831E+01 2.66999E+01 0.00000E+00
 -1       455 2.89142E+01 2.83044E+01 0.00000E+00
 -1       456 2.84187E+01 3.01989E+01 0.00000E+00
 -1       457 2.78227E+01 3.21497E+01 0.00000E+00
 -1       458 2.80177E+01 3.41523E+01 0.00000E+00
 -1       459 2.87074E+01 3.62054E+01 0.00000E+00
 -1       460 2.97089E+01 3.77918E+01 0.00000E+00
 -1       461 3.07164E+01 3.93666E+01 0.00000E+00
 -1       462 3.25521E+01 4.07433E+01 0.00000E+00
 -1       463 3.44655E+01 4.16381E+01 0.00000E+00
 -1       464 3.64357E+01 4.17924E+01 0.00000E+00
 -1       465 3.83326E+01 4.19900E+01 0.00000E+00
 -1       466 4.06352E+01 4.16950E+01 0.00000E+00
 -1       467 4.21015E+01 4.08621E+01 0.00000E+00
 -1       468 4.38841E+01 3.95507E+01 0.00000E+00
 -1       469 4.53621E+01 3.81839E+01 0.00000E+00
 -1       470 4.62413E+01 3.64566E+01 0.00000E+00
 -1       471 4.74515E+01 3.46995E+01 0.00000E+00
 -1       472 4.71708E+01 3.06671E+01 0.00000E+00
 -1       473 7.79400E+00 3.08500E+01 0.00000E+00
 -1       474 7.79400E+00 3.38000E+01 0.00000E+00
 -1       475 7.79400E+00 2.49500E+01 0.00000E+00
 -1       476 7.79400E+00 2.20000E+01 0.00000E+00
 -1       477 7.79400E+00 1.91000E+01 0.00000E+00
 -1       478 7.79400E+00 1.61500E+01 0.00000E+00
 -1       479 7.79400E+00 1.32000E+01 0.00000E+00
 -1       480 7.79400E+00 1.02500E+01 0.00000E+00
 -1       481 7.79400E+00 7.30000E+00 0.00000E+00
 -1       482 8.16450E+00 5.65312E+00 0.00000E+00
 -1       483 1.06500E+01 4.22060E+01 0.00000E+00
 -1       484 4.69663E+01 2.66530E+01 0.00000E+00
 -1       485 4.57729E+01 2.51516E+01 0.00000E+00
 -1       486 1.36500E+01 4.22060E+01 0.00000E+00
 -1       487 1.66500E+01 4.22060E+01 0.00000E+00
 -1       488 1.96500E+01 4.22060E+01 0.00000E+00
 -1       489 2.26500E+01 4.22060E+01 0.00000E+00
 -1       490 2.56500E+01 4.22060E+01 0.00000E+00
 -1       491 2.86500E+01 4.22060E+01 0.00000E+00
 -1       492 3.16500E+01 4.27537E+01 0.00000E+00
 -1       493 3.45750E+01 4.30889E+01 0.00000E+00
 -1       494 4.35000E+01 4.27537E+01 0.00000E+00
 -1       495 4.65000E+01 4.22060E+01 0.00000E+00
 -1       496 4.95000E+01 4.22060E+01 0.00000E+00
 -1       497 5.25000E+01 4.22060E+01 0.00000E+00
 -1       498 5.55000E+01 4.22060E+01 0.00000E+00
 -1       499 5.85000E+01 4.22060E+01 0.00000E+00
 -1       500 6.15000E+01 4.22060E+01 0.00000E+00
 -1       501 6.45000E+01 4.22060E+01 0.00000E+00
 -1       502 6.75000E+01 4.22060E+01 0.00000E+00
 -1       503 7.05000E+01 4.22060E+01 0.00000E+00
 -1       504 7.35000E+01 4.22060E+01 0.00000E+00
 -1       505 7.65000E+01 4.22060E+01 0.00000E+00
 -1       506 7.95000E+01 4.22060E+01 0.00000E+00
 -1       507 8.25000E+01 4.22060E+01 0.00000E+00
 -1       508 8.55000E+01 4.22060E+01 0.00000E+00
 -1       509 8.85000E+01 4.22060E+01 0.00000E+00
 -1       510 9.15000E+01 4.22060E+01 0.00000E+00
 -1       511 9.45000E+01 4.22060E+01 0.00000E+00
 -1       512 9.75000E+01 4.22060E+01 0.00000E+00
 -1       513 1.00500E+02 4.22060E+01 0.00000E+00
 -1       514 1.03500E+02 4.22060E+01 0.00000E+00
 -1       515 1.06500E+02 4.22060E+01 0.00000E+00
 -1       516 1.09500E+02 4.22060E+01 0.00000E+00
 -1       517 1.12500E+02 4.22060E+01 0.00000E+00
 -1       518 1.15500E+02 4.22060E+01 0.00000E+00
 -1       519 1.18500E+02 4.22060E+01 0.00000E+00
 -1       520 1.21500E+02 4.22060E+01 0.00000E+00
 -1       521 1.24500E+02 4.22060E+01 0.00000E+00
 -1       522 1.27500E+02 4.22060E+01 0.00000E+00
 -1       523 1.30500E+02 4.22060E+01 0.00000E+00
 -1       524 1.33500E+02 4.22060E+01 0.00000E+00
 -1       525 1.36500E+02 4.22060E+01 0.00000E+00
 -1       526 1.39500E+02 4.22060E+01 0.00000E+00
 -1       527 1.42152E+02 4.17030E+01 0.00000E+00
 -1       528 2.08740E+01 7.38350E+00 0.00000E+00
 -1       529 1.78740E+01 7.38350E+00 0.00000E+00
 -1       530 1.48740E+01 7.38350E+00 0.00000E+00
 -1       531 2.38740E+01 7.38350E+00 0.00000E+00
 -1       532 2.68740E+01 7.38350E+00 0.00000E+00
 -1       533 2.98740E+01 7.38350E+00 0.00000E+00
 -1       534 3.28740E+01 7.38350E+00 0.00000E+00
 -1       535 3.58740E+01 7.38350E+00 0.00000E+00
 -1       536 3.88740E+01 7.38350E+00 0.00000E+00
 -1       537 4.18740E+01 7.38350E+00 0.00000E+00
 -1       538 4.48740E+01 7.38350E+00 0.00000E+00
 -1       539 4.78740E+01 7.38350E+00 0.00000E+00
 -1       540 5.08740E+01 7.38350E+00 0.00000E+00
 -1       541 5.38740E+01 7.38350E+00 0.00000E+00
 -1       542 5.68740E+01 7.38350E+00 0.00000E+00
 -1       543 5.98740E+01 7.38350E+00 0.00000E+00
 -1       544 6.28740E+01 7.38350E+00 0.00000E+00
 -1       545 6.58740E+01 7.38350E+00 0.00000E+00
 -1       546 6.88740E+01 7.38350E+00 0.00000E+00
 -1       547 7.18740E+01 7.38350E+00 0.00000E+00
 -1       548 7.48740E+01 7.38350E+00 0.00000E+00
 -1       549 7.78740E+01 7.38350E+00 0.00000E+00
 -1       550 8.08740E+01 7.38350E+00 0.00000E+00
 -1       551 8.38740E+01 7.38350E+00 0.00000E+00
 -1       552 8.68740E+01 7.38350E+00 0.00000E+00
 -1       553 8.98740E+01 7.38350E+00 0.00000E+00
 -1       554 9.28740E+01 7.38350E+00 0.00000E+00
 -1       555 9.58740E+01 7.38350E+00 0.00000E+00
 -1       556 9.88740E+01 7.38350E+00 0.00000E+00
 -1       557 1.01874E+02 7.38350E+00 0.00000E+00
 -1       558 1.04874E+02 7.38350E+00 0.00000E+00
 -1       559 1.07874E+02 7.38350E+00 0.00000E+00
 -1       560 1.10874E+02 7.38350E+00 0.00000E+00
 -1       561 1.13874E+02 7.38350E+00 0.00000E+00
 -1       562 1.16874E+02 7.38350E+00 0.00000E+00
 -1       563 1.19874E+02 7.38350E+00 0.00000E+00
 -1       564 1.22874E+02 7.38350E+00 0.00000E+00
 -1       565 1.25874E+02 7.38350E+00 0.00000E+00
 -1       566 1.28874E+02 7.38350E+00 0.00000E+00
 -1       567 1.31874E+02 7.38350E+00 0.00000E+00
 -1       568 1.34874E+02 7.38350E+00 0.00000E+00
 -1       569 1.37874E+02 7.38350E+00 0.00000E+00
 -1       570 1.40874E+02 7.38350E+00 0.00000E+00
 -1       571 1.42206E+02 1.61750E+01 0.00000E+00
 -1       572 1.42206E+02 1.32750E+01 0.00000E+00
 -1       573 1.42206E+02 1.03250E+01 0.00000E+00
 -1       574 4.86365E+01 2.89843E+01 0.00000E+00
 -1       575 1.42206E+02 1.91250E+01 0.00000E+00
 -1       576 1.42206E+02 2.20750E+01 0.00000E+00
 -1       577 1.42206E+02 2.50250E+01 0.00000E+00
 -1       578 1.42206E+02 2.79750E+01 0.00000E+00
 -1       579 1.42206E+02 3.08750E+01 0.00000E+00
 -1       580 1.42206E+02 3.38250E+01 0.00000E+00
 -1       581 1.42206E+02 3.67750E+01 0.00000E+00
 -1       582 1.42179E+02 3.92390E+01 0.00000E+00
 -1       583 7.92300E+00 4.16780E+01 0.00000E+00
 -1       584 4.42756E+01 2.34428E+01 0.00000E+00
 -1       585 4.95045E+01 3.35540E+01 0.00000E+00
 -1       586 4.83969E+01 3.66460E+01 0.00000E+00
 -1       587 3.96912E+01 4.34606E+01 0.00000E+00
 -1       588 7.79400E+00 2.79000E+01 0.00000E+00
 -1       589 4.21404E+01 2.21712E+01 0.00000E+00
 -1       590 3.50186E+01 2.14941E+01 0.00000E+00
 -1       591 3.98745E+01 2.13709E+01 0.00000E+00
 -1       592 4.57875E+01 4.01265E+01 0.00000E+00
 -1       593 3.77478E+01 2.09494E+01 0.00000E+00
 -1       594 3.29032E+01 2.23824E+01 0.00000E+00
 -1       595 3.12431E+01 2.33645E+01 0.00000E+00
 -1       596 2.94185E+01 2.49722E+01 0.00000E+00
 -1       597 2.80213E+01 2.65513E+01 0.00000E+00
 -1       598 2.72503E+01 2.88813E+01 0.00000E+00
 -1       599 2.66543E+01 3.08321E+01 0.00000E+00
 -1       600 2.62131E+01 3.33172E+01 0.00000E+00
 -1       601 2.68955E+01 3.56717E+01 0.00000E+00
 -1       602 2.79704E+01 3.77800E+01 0.00000E+00
 -1       603 2.89779E+01 3.93548E+01 0.00000E+00
 -1       604 3.08136E+01 4.07315E+01 0.00000E+00
 -1       605 3.72238E+01 4.34304E+01 0.00000E+00
 -1       606 4.40092E+01 4.15879E+01 0.00000E+00
 -1       607 4.75177E+01 3.83732E+01 0.00000E+00
 -1       608 4.90061E+01 3.12531E+01 0.00000E+00
 -1       609 7.79400E+00 3.67375E+01 0.00000E+00
 -1       610 1.05840E+01 6.04275E+00 0.00000E+00
 -1       611 4.91115E+01 2.72680E+01 0.00000E+00
 -1       612 5.04500E+01 3.55005E+01 0.00000E+00
 -1       613 1.27290E+01 6.71313E+00 0.00000E+00
 -1       614 3.61106E+01 1.99298E+01 0.00000E+00
 -1       615 1.03920E+01 2.05500E+01 0.00000E+00
 -1       616 1.03920E+01 2.35000E+01 0.00000E+00
 -1       617 1.03920E+01 1.46750E+01 0.00000E+00
 -1       618 1.03920E+01 1.17250E+01 0.00000E+00
 -1       619 1.02135E+01 7.68962E+00 0.00000E+00
 -1       620 4.40856E+01 2.13334E+01 0.00000E+00
 -1       621 4.77123E+01 2.48351E+01 0.00000E+00
 -1       622 1.21500E+01 3.96080E+01 0.00000E+00
 -1       623 1.51500E+01 3.96080E+01 0.00000E+00
 -1       624 1.81500E+01 3.96080E+01 0.00000E+00
 -1       625 2.11500E+01 3.96080E+01 0.00000E+00
 -1       626 2.41500E+01 3.96080E+01 0.00000E+00
 -1       627 5.06795E+01 2.98160E+01 0.00000E+00
 -1       628 5.11779E+01 3.21169E+01 0.00000E+00
 -1       629 5.10000E+01 3.96530E+01 0.00000E+00
 -1       630 5.40000E+01 3.96530E+01 0.00000E+00
 -1       631 5.70000E+01 3.96530E+01 0.00000E+00
 -1       632 6.00000E+01 3.96530E+01 0.00000E+00
 -1       633 6.30000E+01 3.96530E+01 0.00000E+00
 -1       634 6.60000E+01 3.96530E+01 0.00000E+00
 -1       635 6.90000E+01 3.96530E+01 0.00000E+00
 -1       636 7.20000E+01 3.96530E+01 0.00000E+00
 -1       637 7.50000E+01 3.96530E+01 0.00000E+00
 -1       638 7.80000E+01 3.96530E+01 0.00000E+00
 -1       639 8.10000E+01 3.96530E+01 0.00000E+00
 -1       640 8.40000E+01 3.96530E+01 0.00000E+00
 -1       641 8.70000E+01 3.96530E+01 0.00000E+00
 -1       642 9.00000E+01 3.96530E+01 0.00000E+00
 -1       643 9.30000E+01 3.96530E+01 0.00000E+00
 -1       644 9.60000E+01 3.96530E+01 0.00000E+00
 -1       645 9.90000E+01 3.96530E+01 0.00000E+00
 -1       646 1.02000E+02 3.96530E+01 0.00000E+00
 -1       647 1.05000E+02 3.96530E+01 0.00000E+00
 -1       648 1.08000E+02 3.96530E+01 0.00000E+00
 -1       649 1.11000E+02 3.96530E+01 0.00000E+00
 -1       650 1.14000E+02 3.96530E+01 0.00000E+00
 -1       651 1.17000E+02 3.96530E+01 0.00000E+00
 -1       652 1.20000E+02 3.96530E+01 0.00000E+00
 -1       653 1.23000E+02 3.96530E+01 0.00000E+00
 -1       654 1.26000E+02 3.96530E+01 0.00000E+00
 -1       655 1.29000E+02 3.96530E+01 0.00000E+00
 -1       656 1.32000E+02 3.96530E+01 0.00000E+00
 -1       657 1.35000E+02 3.96530E+01 0.00000E+00
 -1       658 1.38000E+02 3.96530E+01 0.00000E+00
 -1       659 1.40089E+02 3.94460E+01 0.00000E+00
 -1       660 1.93740E+01 9.98150E+00 0.00000E+00
 -1       661 2.23740E+01 9.98150E+00 0.00000E+00
 -1       662 1.63740E+01 9.98150E+00 0.00000E+00
 -1       663 2.83740E+01 9.98150E+00 0.00000E+00
 -1       664 3.13740E+01 9.98150E+00 0.00000E+00
 -1       665 3.43740E+01 9.98150E+00 0.00000E+00
 -1       666 3.73740E+01 9.98150E+00 0.00000E+00
 -1       667 4.03740E+01 9.98150E+00 0.00000E+00
 -1       668 4.33740E+01 9.98150E+00 0.00000E+00
 -1       669 4.63740E+01 9.98150E+00 0.00000E+00
 -1       670 4.93740E+01 9.98150E+00 0.00000E+00
 -1       671 5.23740E+01 9.98150E+00 0.00000E+00
 -1       672 5.53740E+01 9.98150E+00 0.00000E+00
 -1       673 5.83740E+01 9.98150E+00 0.00000E+00
 -1       674 6.13740E+01 9.98150E+00 0.00000E+00
 -1       675 6.43740E+01 9.98150E+00 0.00000E+00
 -1       676 6.73740E+01 9.98150E+00 0.00000E+00
 -1       677 7.03740E+01 9.98150E+00 0.00000E+00
 -1       678 7.33740E+01 9.98150E+00 0.00000E+00
 -1       679 7.63740E+01 9.98150E+00 0.00000E+00
 -1       680 7.93740E+01 9.98150E+00 0.00000E+00
 -1       681 8.23740E+01 9.98150E+00 0.00000E+00
 -1       682 8.53740E+01 9.98150E+00 0.00000E+00
 -1       683 8.83740E+01 9.98150E+00 0.00000E+00
 -1       684 9.13740E+01 9.98150E+00 0.00000E+00
 -1       685 9.43740E+01 9.98150E+00 0.00000E+00
 -1       686 9.73740E+01 9.98150E+00 0.00000E+00
 -1       687 1.00374E+02 9.98150E+00 0.00000E+00
 -1       688 1.03374E+02 9.98150E+00 0.00000E+00
 -1       689 1.06374E+02 9.98150E+00 0.00000E+00
 -1       690 1.09374E+02 9.98150E+00 0.00000E+00
 -1       691 1.12374E+02 9.98150E+00 0.00000E+00
 -1       692 1.15374E+02 9.98150E+00 0.00000E+00
 -1       693 1.18374E+02 9.98150E+00 0.00000E+00
 -1       694 1.21374E+02 9.98150E+00 0.00000E+00
 -1       695 1.24374E+02 9.98150E+00 0.00000E+00
 -1       696 1.27374E+02 9.98150E+00 0.00000E+00
 -1       697 1.30374E+02 9.98150E+00 0.00000E+00
 -1       698 1.33374E+02 9.98150E+00 0.00000E+00
 -1       699 1.36374E+02 9.98150E+00 0.00000E+00
 -1       700 1.39290E+02 1.01532E+01 0.00000E+00
 -1       701 1.39608E+02 1.47250E+01 0.00000E+00
 -1       702 1.39608E+02 2.06000E+01 0.00000E+00
 -1       703 1.39449E+02 1.24391E+01 0.00000E+00
 -1       704 1.39608E+02 1.76625E+01 0.00000E+00
 -1       705 1.39608E+02 2.65000E+01 0.00000E+00
 -1       706 1.39608E+02 2.94000E+01 0.00000E+00
 -1       707 1.39608E+02 3.23500E+01 0.00000E+00
 -1       708 1.39608E+02 3.53000E+01 0.00000E+00
 -1       709 4.96351E+01 3.83637E+01 0.00000E+00
 -1       710 2.58484E+01 2.71249E+01 0.00000E+00
 -1       711 1.39608E+02 2.35500E+01 0.00000E+00
 -1       712 2.74354E+01 2.46252E+01 0.00000E+00
 -1       713 4.79927E+01 4.05722E+01 0.00000E+00
 -1       714 2.56064E+01 3.76571E+01 0.00000E+00
 -1       715 1.03920E+01 1.76125E+01 0.00000E+00
 -1       716 3.91446E+01 1.94778E+01 0.00000E+00
 -1       717 3.11999E+01 2.13973E+01 0.00000E+00
 -1       718 2.49240E+01 3.53025E+01 0.00000E+00
 -1       719 2.92523E+01 2.29444E+01 0.00000E+00
 -1       720 2.52524E+01 2.90757E+01 0.00000E+00
 -1       721 2.47450E+01 3.17748E+01 0.00000E+00
 -1       722 2.66140E+01 3.92318E+01 0.00000E+00
 -1       723 1.03920E+01 3.23250E+01 0.00000E+00
 -1       724 2.53740E+01 9.98150E+00 0.00000E+00
 -1       725 3.32320E+01 2.02024E+01 0.00000E+00
 -1       726 4.15786E+01 2.01539E+01 0.00000E+00
 -1       727 4.62149E+01 2.31263E+01 0.00000E+00
 -1       728 1.03920E+01 2.64500E+01 0.00000E+00
 -1       729 5.21233E+01 3.40633E+01 0.00000E+00
 -1       730 9.78035E+00 3.93914E+01 0.00000E+00
 -1       731 1.03920E+01 3.52625E+01 0.00000E+00
 -1       732 1.39849E+02 3.73730E+01 0.00000E+00
 -1       733 1.33741E+01 9.98153E+00 0.00000E+00
 -1       734 5.11545E+01 2.80996E+01 0.00000E+00
 -1       735 1.03920E+01 2.93875E+01 0.00000E+00
 -1       736 3.75074E+01 1.84581E+01 0.00000E+00
 -1       737 2.34559E+01 3.37602E+01 0.00000E+00
 -1       738 1.29900E+01 1.32000E+01 0.00000E+00
 -1       739 4.37763E+01 1.87369E+01 0.00000E+00
 -1       740 1.66500E+01 3.70100E+01 0.00000E+00
 -1       741 1.96500E+01 3.70100E+01 0.00000E+00
 -1       742 2.26282E+01 3.73335E+01 0.00000E+00
 -1       743 3.58740E+01 1.25795E+01 0.00000E+00
 -1       744 5.29324E+01 3.05324E+01 0.00000E+00
 -1       745 3.44621E+01 1.78581E+01 0.00000E+00
 -1       746 4.08655E+01 1.80018E+01 0.00000E+00
 -1       747 5.55000E+01 3.70550E+01 0.00000E+00
 -1       748 5.85000E+01 3.70550E+01 0.00000E+00
 -1       749 6.15000E+01 3.70550E+01 0.00000E+00
 -1       750 6.45000E+01 3.70550E+01 0.00000E+00
 -1       751 6.75000E+01 3.70550E+01 0.00000E+00
 -1       752 7.05000E+01 3.70550E+01 0.00000E+00
 -1       753 7.35000E+01 3.70550E+01 0.00000E+00
 -1       754 7.65000E+01 3.70550E+01 0.00000E+00
 -1       755 7.95000E+01 3.70550E+01 0.00000E+00
 -1       756 8.25000E+01 3.70550E+01 0.00000E+00
 -1       757 8.55000E+01 3.70550E+01 0.00000E+00
 -1       758 8.85000E+01 3.70550E+01 0.00000E+00
 -1       759 9.15000E+01 3.70550E+01 0.00000E+00
 -1       760 9.45000E+01 3.70550E+01 0.00000E+00
 -1       761 9.75000E+01 3.70550E+01 0.00000E+00
 -1       762 1.00500E+02 3.70550E+01 0.00000E+00
 -1       763 1.03500E+02 3.70550E+01 0.00000E+00
 -1       764 1.06500E+02 3.70550E+01 0.00000E+00
 -1       765 1.09500E+02 3.70550E+01 0.00000E+00
 -1       766 1.12500E+02 3.70550E+01 0.00000E+00
 -1       767 1.15500E+02 3.70550E+01 0.00000E+00
 -1       768 1.18500E+02 3.70550E+01 0.00000E+00
 -1       769 1.21500E+02 3.70550E+01 0.00000E+00
 -1       770 1.24500E+02 3.70550E+01 0.00000E+00
 -1       771 1.27500E+02 3.70550E+01 0.00000E+00
 -1       772 1.30500E+02 3.70550E+01 0.00000E+00
 -1       773 1.33500E+02 3.70550E+01 0.00000E+00
 -1       774 1.36500E+02 3.70550E+01 0.00000E+00
 -1       775 2.08740E+01 1.25795E+01 0.00000E+00
 -1       776 1.78740E+01 1.25795E+01 0.00000E+00
 -1       777 3.28740E+01 1.25795E+01 0.00000E+00
 -1       778 2.98740E+01 1.25795E+01 0.00000E+00
 -1       779 3.88740E+01 1.25795E+01 0.00000E+00
 -1       780 4.18740E+01 1.25795E+01 0.00000E+00
 -1       781 4.48740E+01 1.25795E+01 0.00000E+00
 -1       782 4.78740E+01 1.25795E+01 0.00000E+00
 -1       783 5.08740E+01 1.25795E+01 0.00000E+00
 -1       784 5.38740E+01 1.25795E+01 0.00000E+00
 -1       785 5.68740E+01 1.25795E+01 0.00000E+00
 -1       786 5.98740E+01 1.25795E+01 0.00000E+00
 -1       787 6.28740E+01 1.25795E+01 0.00000E+00
 -1       788 6.58740E+01 1.25795E+01 0.00000E+00
 -1       789 6.88740E+01 1.25795E+01 0.00000E+00
 -1       790 7.18740E+01 1.25795E+01 0.00000E+00
 -1       791 7.48740E+01 1.25795E+01 0.00000E+00
 -1       792 7.78740E+01 1.25795E+01 0.00000E+00
 -1       793 8.08740E+01 1.25795E+01 0.00000E+00
 -1       794 8.38740E+01 1.25795E+01 0.00000E+00
 -1       795 8.68740E+01 1.25795E+01 0.00000E+00
 -1       796 8.98740E+01 1.25795E+01 0.00000E+00
 -1       797 9.28740E+01 1.25795E+01 0.00000E+00
 -1       798 9.58740E+01 1.25795E+01 0.00000E+00
 -1       799 9.88740E+01 1.25795E+01 0.00000E+00
 -1       800 1.01874E+02 1.25795E+01 0.00000E+00
 -1       801 1.04874E+02 1.25795E+01 0.00000E+00
 -1       802 1.07874E+02 1.25795E+01 0.00000E+00
 -1       803 1.10874E+02 1.25795E+01 0.00000E+00
 -1       804 1.13874E+02 1.25795E+01 0.00000E+00
 -1       805 1.16874E+02 1.25795E+01 0.00000E+00
 -1       806 1.19874E+02 1.25795E+01 0.00000E+00
 -1       807 1.22874E+02 1.25795E+01 0.00000E+00
 -1       808 1.25874E+02 1.25795E+01 0.00000E+00
 -1       809 1.28874E+02 1.25795E+01 0.00000E+00
 -1       810 1.31874E+02 1.25795E+01 0.00000E+00
 -1       811 1.34874E+02 1.25795E+01 0.00000E+00
 -1       812 1.37161E+02 1.25093E+01 0.00000E+00
 -1       813 1.37010E+02 3.08750E+01 0.00000E+00
 -1       814 1.37010E+02 3.38250E+01 0.00000E+00
 -1       815 1.37010E+02 2.79750E+01 0.00000E+00
 -1       816 1.12017E+01 3.69125E+01 0.00000E+00
 -1       817 3.12616E+01 1.91770E+01 0.00000E+00
 -1       818 5.18149E+01 3.67898E+01 0.00000E+00
 -1       819 2.50525E+01 2.48660E+01 0.00000E+00
 -1       820 1.39258E+01 3.69612E+01 0.00000E+00
 -1       821 4.63629E+01 2.07897E+01 0.00000E+00
 -1       822 2.70654E+01 2.24028E+01 0.00000E+00
 -1       823 1.37010E+02 2.20750E+01 0.00000E+00
 -1       824 2.29838E+01 3.00465E+01 0.00000E+00
 -1       825 2.39101E+01 2.75992E+01 0.00000E+00
 -1       826 1.37010E+02 2.50250E+01 0.00000E+00
 -1       827 1.29900E+01 2.20250E+01 0.00000E+00
 -1       828 2.90551E+01 2.06967E+01 0.00000E+00
 -1       829 5.00439E+01 2.51129E+01 0.00000E+00
 -1       830 4.86316E+01 2.25190E+01 0.00000E+00
 -1       831 2.68740E+01 1.25795E+01 0.00000E+00
 -1       832 5.34075E+01 2.88160E+01 0.00000E+00
 -1       833 5.38779E+01 3.24788E+01 0.00000E+00
 -1       834 3.24918E+01 1.68327E+01 0.00000E+00
 -1       835 2.38740E+01 1.25795E+01 0.00000E+00
 -1       836 1.29900E+01 3.37938E+01 0.00000E+00
 -1       837 1.29900E+01 2.49750E+01 0.00000E+00
 -1       838 1.29900E+01 1.90875E+01 0.00000E+00
 -1       839 2.15529E+01 3.53851E+01 0.00000E+00
 -1       840 1.37010E+02 1.91375E+01 0.00000E+00
 -1       841 1.48741E+01 1.25795E+01 0.00000E+00
 -1       842 2.16946E+01 3.20318E+01 0.00000E+00
 -1       843 1.29900E+01 1.61437E+01 0.00000E+00
 -1       844 3.92282E+01 1.69822E+01 0.00000E+00
 -1       845 1.29900E+01 3.08563E+01 0.00000E+00
 -1       846 1.37010E+02 1.62000E+01 0.00000E+00
 -1       847 4.03740E+01 1.49649E+01 0.00000E+00
 -1       848 1.34010E+02 3.38250E+01 0.00000E+00
 -1       849 5.70000E+01 3.45021E+01 0.00000E+00
 -1       850 5.45617E+01 3.42827E+01 0.00000E+00
 -1       851 4.64483E+01 1.80261E+01 0.00000E+00
 -1       852 6.00000E+01 3.45021E+01 0.00000E+00
 -1       853 6.30000E+01 3.45021E+01 0.00000E+00
 -1       854 6.60000E+01 3.45021E+01 0.00000E+00
 -1       855 6.90000E+01 3.45021E+01 0.00000E+00
 -1       856 7.20000E+01 3.45021E+01 0.00000E+00
 -1       857 7.50000E+01 3.45021E+01 0.00000E+00
 -1       858 7.80000E+01 3.45021E+01 0.00000E+00
 -1       859 8.10000E+01 3.45021E+01 0.00000E+00
 -1       860 8.40000E+01 3.45021E+01 0.00000E+00
 -1       861 8.70000E+01 3.45021E+01 0.00000E+00
 -1       862 9.00000E+01 3.45021E+01 0.00000E+00
 -1       863 9.30000E+01 3.45021E+01 0.00000E+00
 -1       864 9.60000E+01 3.45021E+01 0.00000E+00
 -1       865 9.90000E+01 3.45021E+01 0.00000E+00
 -1       866 1.02000E+02 3.45021E+01 0.00000E+00
 -1       867 1.05000E+02 3.45021E+01 0.00000E+00
 -1       868 1.08000E+02 3.45021E+01 0.00000E+00
 -1       869 1.11000E+02 3.45021E+01 0.00000E+00
 -1       870 1.14000E+02 3.45021E+01 0.00000E+00
 -1       871 1.17000E+02 3.45021E+01 0.00000E+00
 -1       872 1.20000E+02 3.45021E+01 0.00000E+00
 -1       873 1.23000E+02 3.45021E+01 0.00000E+00
 -1       874 1.26000E+02 3.45021E+01 0.00000E+00
 -1       875 1.29000E+02 3.45021E+01 0.00000E+00
 -1       876 1.31505E+02 3.41635E+01 0.00000E+00
 -1       877 3.43740E+01 1.51775E+01 0.00000E+00
 -1       878 4.33740E+01 1.49649E+01 0.00000E+00
 -1       879 4.63740E+01 1.49649E+01 0.00000E+00
 -1       880 4.93740E+01 1.49649E+01 0.00000E+00
 -1       881 5.23740E+01 1.49649E+01 0.00000E+00
 -1       882 5.53740E+01 1.49649E+01 0.00000E+00
 -1       883 5.83740E+01 1.49649E+01 0.00000E+00
 -1       884 6.13740E+01 1.49649E+01 0.00000E+00
 -1       885 6.43740E+01 1.49649E+01 0.00000E+00
 -1       886 6.73740E+01 1.49649E+01 0.00000E+00
 -1       887 7.03740E+01 1.49649E+01 0.00000E+00
 -1       888 7.33740E+01 1.49649E+01 0.00000E+00
 -1       889 7.63740E+01 1.49649E+01 0.00000E+00
 -1       890 7.93740E+01 1.49649E+01 0.00000E+00
 -1       891 8.23740E+01 1.49649E+01 0.00000E+00
 -1       892 8.53740E+01 1.49649E+01 0.00000E+00
 -1       893 8.83740E+01 1.49649E+01 0.00000E+00
 -1       894 9.13740E+01 1.49649E+01 0.00000E+00
 -1       895 9.43740E+01 1.49649E+01 0.00000E+00
 -1       896 9.73740E+01 1.49649E+01 0.00000E+00
 -1       897 1.00374E+02 1.49649E+01 0.00000E+00
 -1       898 1.03374E+02 1.49649E+01 0.00000E+00
 -1       899 1.06374E+02 1.49649E+01 0.00000E+00
 -1       900 1.09374E+02 1.49649E+01 0.00000E+00
 -1       901 1.12374E+02 1.49649E+01 0.00000E+00
 -1       902 1.15374E+02 1.49649E+01 0.00000E+00
 -1       903 1.18374E+02 1.49649E+01 0.00000E+00
 -1       904 1.21374E+02 1.49649E+01 0.00000E+00
 -1       905 1.24374E+02 1.49649E+01 0.00000E+00
 -1       906 1.27374E+02 1.49649E+01 0.00000E+00
 -1       907 1.30374E+02 1.49649E+01 0.00000E+00
 -1       908 1.33374E+02 1.49649E+01 0.00000E+00
 -1       909 1.34412E+02 2.94250E+01 0.00000E+00
 -1       910 2.43416E+01 2.22310E+01 0.00000E+00
 -1       911 5.23638E+01 2.59501E+01 0.00000E+00
 -1       912 2.66166E+01 1.98661E+01 0.00000E+00
 -1       913 1.29900E+01 2.79188E+01 0.00000E+00
 -1       914 5.11384E+01 2.28356E+01 0.00000E+00
 -1       915 1.48741E+01 1.55233E+01 0.00000E+00
 -1       916 2.25896E+01 2.54419E+01 0.00000E+00
 -1       917 3.64459E+01 1.58177E+01 0.00000E+00
 -1       918 1.93740E+01 1.51775E+01 0.00000E+00
 -1       919 2.16633E+01 2.78892E+01 0.00000E+00
 -1       920 1.71240E+01 1.53504E+01 0.00000E+00
 -1       921 1.81500E+01 3.44120E+01 0.00000E+00
 -1       922 2.89004E+01 1.81103E+01 0.00000E+00
 -1       923 4.88417E+01 1.98905E+01 0.00000E+00
 -1       924 1.34579E+01 3.53775E+01 0.00000E+00
 -1       925 5.55508E+01 3.04634E+01 0.00000E+00
 -1       926 3.73740E+01 1.51325E+01 0.00000E+00
 -1       927 1.55880E+01 2.35000E+01 0.00000E+00
 -1       928 1.34412E+02 2.64750E+01 0.00000E+00
 -1       929 1.34412E+02 2.06063E+01 0.00000E+00
 -1       930 1.33374E+02 1.79024E+01 0.00000E+00
 -1       931 1.55880E+01 2.05625E+01 0.00000E+00
 -1       932 1.58040E+01 3.48947E+01 0.00000E+00
 -1       933 1.53360E+01 3.33110E+01 0.00000E+00
 -1       934 2.03741E+01 2.98746E+01 0.00000E+00
 -1       935 2.23740E+01 1.51775E+01 0.00000E+00
 -1       936 1.34412E+02 2.35406E+01 0.00000E+00
 -1       937 5.13485E+01 2.02071E+01 0.00000E+00
 -1       938 2.52453E+01 1.62228E+01 0.00000E+00
 -1       939 2.11850E+01 2.25921E+01 0.00000E+00
 -1       940 5.63162E+01 3.26982E+01 0.00000E+00
 -1       941 1.60412E+01 3.02886E+01 0.00000E+00
 -1       942 5.93162E+01 3.26982E+01 0.00000E+00
 -1       943 1.55880E+01 2.64438E+01 0.00000E+00
 -1       944 6.23162E+01 3.26982E+01 0.00000E+00
 -1       945 6.53162E+01 3.26982E+01 0.00000E+00
 -1       946 6.83162E+01 3.26982E+01 0.00000E+00
 -1       947 7.13162E+01 3.26982E+01 0.00000E+00
 -1       948 7.43162E+01 3.26982E+01 0.00000E+00
 -1       949 7.73162E+01 3.26982E+01 0.00000E+00
 -1       950 8.03162E+01 3.26982E+01 0.00000E+00
 -1       951 8.33162E+01 3.26982E+01 0.00000E+00
 -1       952 8.63162E+01 3.26982E+01 0.00000E+00
 -1       953 8.93162E+01 3.26982E+01 0.00000E+00
 -1       954 9.23162E+01 3.26982E+01 0.00000E+00
 -1       955 9.53162E+01 3.26982E+01 0.00000E+00
 -1       956 9.83162E+01 3.26982E+01 0.00000E+00
 -1       957 1.01316E+02 3.26982E+01 0.00000E+00
 -1       958 1.04316E+02 3.26982E+01 0.00000E+00
 -1       959 1.07316E+02 3.26982E+01 0.00000E+00
 -1       960 1.10316E+02 3.26982E+01 0.00000E+00
 -1       961 1.13316E+02 3.26982E+01 0.00000E+00
 -1       962 1.16316E+02 3.26982E+01 0.00000E+00
 -1       963 1.19316E+02 3.26982E+01 0.00000E+00
 -1       964 1.22316E+02 3.26982E+01 0.00000E+00
 -1       965 1.25316E+02 3.26982E+01 0.00000E+00
 -1       966 1.28316E+02 3.26982E+01 0.00000E+00
 -1       967 5.08740E+01 1.75629E+01 0.00000E+00
 -1       968 5.38740E+01 1.75629E+01 0.00000E+00
 -1       969 5.68740E+01 1.75629E+01 0.00000E+00
 -1       970 5.98740E+01 1.75629E+01 0.00000E+00
 -1       971 6.28740E+01 1.75629E+01 0.00000E+00
 -1       972 6.58740E+01 1.75629E+01 0.00000E+00
 -1       973 6.88740E+01 1.75629E+01 0.00000E+00
 -1       974 7.18740E+01 1.75629E+01 0.00000E+00
 -1       975 7.48740E+01 1.75629E+01 0.00000E+00
 -1       976 7.78740E+01 1.75629E+01 0.00000E+00
 -1       977 8.08740E+01 1.75629E+01 0.00000E+00
 -1       978 8.38740E+01 1.75629E+01 0.00000E+00
 -1       979 8.68740E+01 1.75629E+01 0.00000E+00
 -1       980 8.98740E+01 1.75629E+01 0.00000E+00
 -1       981 9.28740E+01 1.75629E+01 0.00000E+00
 -1       982 9.58740E+01 1.75629E+01 0.00000E+00
 -1       983 9.88740E+01 1.75629E+01 0.00000E+00
 -1       984 1.01874E+02 1.75629E+01 0.00000E+00
 -1       985 1.04874E+02 1.75629E+01 0.00000E+00
 -1       986 1.07874E+02 1.75629E+01 0.00000E+00
 -1       987 1.10874E+02 1.75629E+01 0.00000E+00
 -1       988 1.13874E+02 1.75629E+01 0.00000E+00
 -1       989 1.16874E+02 1.75629E+01 0.00000E+00
 -1       990 1.19874E+02 1.75629E+01 0.00000E+00
 -1       991 1.22874E+02 1.75629E+01 0.00000E+00
 -1       992 1.25874E+02 1.75629E+01 0.00000E+00
 -1       993 1.28874E+02 1.75629E+01 0.00000E+00
 -1       994 1.31124E+02 1.77326E+01 0.00000E+00
 -1       995 5.48121E+01 2.66815E+01 0.00000E+00
 -1       996 2.32151E+01 1.94075E+01 0.00000E+00
 -1       997 1.31907E+02 2.97635E+01 0.00000E+00
 -1       998 1.50570E+01 1.72189E+01 0.00000E+00
 -1       999 1.98955E+01 2.58211E+01 0.00000E+00
 -1      1000 5.69555E+01 2.83289E+01 0.00000E+00
 -1      1001 5.38149E+01 2.35808E+01 0.00000E+00
 -1      1002 1.31907E+02 2.68135E+01 0.00000E+00
 -1      1003 1.81860E+01 2.49719E+01 0.00000E+00
 -1      1004 5.81359E+01 3.05135E+01 0.00000E+00
 -1      1005 5.40250E+01 2.09523E+01 0.00000E+00
 -1      1006 1.81860E+01 2.20344E+01 0.00000E+00
 -1      1007 1.32162E+02 2.04365E+01 0.00000E+00
 -1      1008 1.84481E+01 1.78543E+01 0.00000E+00
 -1      1009 1.32162E+02 2.33709E+01 0.00000E+00
 -1      1010 2.18467E+01 1.70386E+01 0.00000E+00
 -1      1011 1.76821E+01 3.28283E+01 0.00000E+00
 -1      1012 6.11359E+01 3.05135E+01 0.00000E+00
 -1      1013 6.41359E+01 3.05135E+01 0.00000E+00
 -1      1014 6.71359E+01 3.05135E+01 0.00000E+00
 -1      1015 7.01359E+01 3.05135E+01 0.00000E+00
 -1      1016 7.31359E+01 3.05135E+01 0.00000E+00
 -1      1017 7.61359E+01 3.05135E+01 0.00000E+00
 -1      1018 7.91359E+01 3.05135E+01 0.00000E+00
 -1      1019 8.21359E+01 3.05135E+01 0.00000E+00
 -1      1020 8.51359E+01 3.05135E+01 0.00000E+00
 -1      1021 8.81359E+01 3.05135E+01 0.00000E+00
 -1      1022 9.11359E+01 3.05135E+01 0.00000E+00
 -1      1023 9.41359E+01 3.05135E+01 0.00000E+00
 -1      1024 9.71359E+01 3.05135E+01 0.00000E+00
 -1      1025 1.00136E+02 3.05135E+01 0.00000E+00
 -1      1026 1.03136E+02 3.05135E+01 0.00000E+00
 -1      1027 1.06136E+02 3.05135E+01 0.00000E+00
 -1      1028 1.09136E+02 3.05135E+01 0.00000E+00
 -1      1029 1.12136E+02 3.05135E+01 0.00000E+00
 -1      1030 1.15136E+02 3.05135E+01 0.00000E+00
 -1      1031 1.18136E+02 3.05135E+01 0.00000E+00
 -1      1032 1.21136E+02 3.05135E+01 0.00000E+00
 -1      1033 1.24136E+02 3.05135E+01 0.00000E+00
 -1      1034 1.27136E+02 3.05135E+01 0.00000E+00
 -1      1035 1.29905E+02 3.17582E+01 0.00000E+00
 -1      1036 5.83740E+01 2.01609E+01 0.00000E+00
 -1      1037 6.13740E+01 2.01609E+01 0.00000E+00
 -1      1038 6.43740E+01 2.01609E+01 0.00000E+00
 -1      1039 6.73740E+01 2.01609E+01 0.00000E+00
 -1      1040 7.03740E+01 2.01609E+01 0.00000E+00
 -1      1041 7.33740E+01 2.01609E+01 0.00000E+00
 -1      1042 7.63740E+01 2.01609E+01 0.00000E+00
 -1      1043 7.93740E+01 2.01609E+01 0.00000E+00
 -1      1044 8.23740E+01 2.01609E+01 0.00000E+00
 -1      1045 8.53740E+01 2.01609E+01 0.00000E+00
 -1      1046 8.83740E+01 2.01609E+01 0.00000E+00
 -1      1047 9.13740E+01 2.01609E+01 0.00000E+00
 -1      1048 9.43740E+01 2.01609E+01 0.00000E+00
 -1      1049 9.73740E+01 2.01609E+01 0.00000E+00
 -1      1050 1.00374E+02 2.01609E+01 0.00000E+00
 -1      1051 1.03374E+02 2.01609E+01 0.00000E+00
 -1      1052 1.06374E+02 2.01609E+01 0.00000E+00
 -1      1053 1.09374E+02 2.01609E+01 0.00000E+00
 -1      1054 1.12374E+02 2.01609E+01 0.00000E+00
 -1      1055 1.15374E+02 2.01609E+01 0.00000E+00
 -1      1056 1.18374E+02 2.01609E+01 0.00000E+00
 -1      1057 1.21374E+02 2.01609E+01 0.00000E+00
 -1      1058 1.24374E+02 2.01609E+01 0.00000E+00
 -1      1059 1.27374E+02 2.01609E+01 0.00000E+00
 -1      1060 1.79340E+01 2.89001E+01 0.00000E+00
 -1      1061 1.92991E+01 2.77653E+01 0.00000E+00
 -1      1062 5.67868E+01 2.43358E+01 0.00000E+00
 -1      1063 1.32035E+02 2.50922E+01 0.00000E+00
 -1      1064 1.29309E+02 2.82885E+01 0.00000E+00
 -1      1065 5.99555E+01 2.83289E+01 0.00000E+00
 -1      1066 1.29624E+02 2.03306E+01 0.00000E+00
 -1      1067 2.00093E+01 1.96032E+01 0.00000E+00
 -1      1068 5.97868E+01 2.43358E+01 0.00000E+00
 -1      1069 1.29624E+02 2.32650E+01 0.00000E+00
 -1      1070 1.27374E+02 2.30953E+01 0.00000E+00
 -1      1071 6.29555E+01 2.83289E+01 0.00000E+00
 -1      1072 6.59555E+01 2.83289E+01 0.00000E+00
 -1      1073 6.89555E+01 2.83289E+01 0.00000E+00
 -1      1074 7.19555E+01 2.83289E+01 0.00000E+00
 -1      1075 7.49555E+01 2.83289E+01 0.00000E+00
 -1      1076 7.79555E+01 2.83289E+01 0.00000E+00
 -1      1077 8.09555E+01 2.83289E+01 0.00000E+00
 -1      1078 8.39555E+01 2.83289E+01 0.00000E+00
 -1      1079 8.69555E+01 2.83289E+01 0.00000E+00
 -1      1080 8.99555E+01 2.83289E+01 0.00000E+00
 -1      1081 9.29555E+01 2.83289E+01 0.00000E+00
 -1      1082 9.59555E+01 2.83289E+01 0.00000E+00
 -1      1083 9.89555E+01 2.83289E+01 0.00000E+00
 -1      1084 1.01955E+02 2.83289E+01 0.00000E+00
 -1      1085 1.04955E+02 2.83289E+01 0.00000E+00
 -1      1086 1.07955E+02 2.83289E+01 0.00000E+00
 -1      1087 1.10955E+02 2.83289E+01 0.00000E+00
 -1      1088 1.13955E+02 2.83289E+01 0.00000E+00
 -1      1089 1.16955E+02 2.83289E+01 0.00000E+00
 -1      1090 1.19955E+02 2.83289E+01 0.00000E+00
 -1      1091 1.22955E+02 2.83289E+01 0.00000E+00
 -1      1092 1.25955E+02 2.83289E+01 0.00000E+00
 -1      1093 6.58740E+01 2.27589E+01 0.00000E+00
 -1      1094 6.88740E+01 2.27589E+01 0.00000E+00
 -1      1095 7.18740E+01 2.27589E+01 0.00000E+00
 -1      1096 7.48740E+01 2.27589E+01 0.00000E+00
 -1      1097 7.78740E+01 2.27589E+01 0.00000E+00
 -1      1098 8.08740E+01 2.27589E+01 0.00000E+00
 -1      1099 8.38740E+01 2.27589E+01 0.00000E+00
 -1      1100 8.68740E+01 2.27589E+01 0.00000E+00
 -1      1101 8.98740E+01 2.27589E+01 0.00000E+00
 -1      1102 9.28740E+01 2.27589E+01 0.00000E+00
 -1      1103 9.58740E+01 2.27589E+01 0.00000E+00
 -1      1104 9.88740E+01 2.27589E+01 0.00000E+00
 -1      1105 1.01874E+02 2.27589E+01 0.00000E+00
 -1      1106 1.04874E+02 2.27589E+01 0.00000E+00
 -1      1107 1.07874E+02 2.27589E+01 0.00000E+00
 -1      1108 1.10874E+02 2.27589E+01 0.00000E+00
 -1      1109 1.13874E+02 2.27589E+01 0.00000E+00
 -1      1110 1.16874E+02 2.27589E+01 0.00000E+00
 -1      1111 1.19874E+02 2.27589E+01 0.00000E+00
 -1      1112 1.22874E+02 2.27589E+01 0.00000E+00
 -1      1113 1.25124E+02 2.29271E+01 0.00000E+00
 -1      1114 1.29436E+02 2.65672E+01 0.00000E+00
 -1      1115 6.28740E+01 2.27589E+01 0.00000E+00
 -1      1116 6.44555E+01 2.57309E+01 0.00000E+00
 -1      1117 6.74555E+01 2.57309E+01 0.00000E+00
 -1      1118 7.04555E+01 2.57309E+01 0.00000E+00
 -1      1119 7.34555E+01 2.57309E+01 0.00000E+00
 -1      1120 7.64555E+01 2.57309E+01 0.00000E+00
 -1      1121 7.94555E+01 2.57309E+01 0.00000E+00
 -1      1122 8.24555E+01 2.57309E+01 0.00000E+00
 -1      1123 8.54555E+01 2.57309E+01 0.00000E+00
 -1      1124 8.84555E+01 2.57309E+01 0.00000E+00
 -1      1125 9.14555E+01 2.57309E+01 0.00000E+00
 -1      1126 9.44555E+01 2.57309E+01 0.00000E+00
 -1      1127 9.74555E+01 2.57309E+01 0.00000E+00
 -1      1128 1.00455E+02 2.57309E+01 0.00000E+00
 -1      1129 1.03455E+02 2.57309E+01 0.00000E+00
 -1      1130 1.06455E+02 2.57309E+01 0.00000E+00
 -1      1131 1.09455E+02 2.57309E+01 0.00000E+00
 -1      1132 1.12455E+02 2.57309E+01 0.00000E+00
 -1      1133 1.15455E+02 2.57309E+01 0.00000E+00
 -1      1134 1.18455E+02 2.57309E+01 0.00000E+00
 -1      1135 1.21455E+02 2.57309E+01 0.00000E+00
 -1      1136 1.24455E+02 2.57309E+01 0.00000E+00
 -1      1137 1.27601E+02 2.57109E+01 0.00000E+00
 -1      1138 0.00000E+00 4.85250E+01 0.00000E+00
 -1      1139 0.00000E+00 4.55750E+01 0.00000E+00
 -1      1140 0.00000E+00 4.26250E+01 0.00000E+00
 -1      1141 0.00000E+00 3.96750E+01 0.00000E+00
 -1      1142 0.00000E+00 3.67250E+01 0.00000E+00
 -1      1143 0.00000E+00 3.38000E+01 0.00000E+00
 -1      1144 0.00000E+00 3.08750E+01 0.00000E+00
 -1      1145 0.00000E+00 2.79250E+01 0.00000E+00
 -1      1146 0.00000E+00 2.49750E+01 0.00000E+00
 -1      1147 0.00000E+00 2.20250E+01 0.00000E+00
 -1      1148 0.00000E+00 1.90750E+01 0.00000E+00
 -1      1149 0.00000E+00 1.61500E+01 0.00000E+00
 -1      1150 0.00000E+00 1.32250E+01 0.00000E+00
 -1      1151 0.00000E+00 1.02750E+01 0.00000E+00
 -1      1152 0.00000E+00 7.32500E+00 0.00000E+00
 -1      1153 0.00000E+00 4.37500E+00 0.00000E+00
 -1      1154 0.00000E+00 1.45000E+00 0.00000E+00
 -1      1155 1.57500E+00 5.00000E+01 0.00000E+00
 -1      1156 4.65000E+00 5.00000E+01 0.00000E+00
 -1      1157 7.65000E+00 5.00000E+01 0.00000E+00
 -1      1158 1.06500E+01 5.00000E+01 0.00000E+00
 -1      1159 1.36500E+01 5.00000E+01 0.00000E+00
 -1      1160 1.66500E+01 5.00000E+01 0.00000E+00
 -1      1161 1.96500E+01 5.00000E+01 0.00000E+00
 -1      1162 2.26500E+01 5.00000E+01 0.00000E+00
 -1      1163 2.56500E+01 5.00000E+01 0.00000E+00
 -1      1164 2.86500E+01 5.00000E+01 0.00000E+00
 -1      1165 3.16500E+01 5.00000E+01 0.00000E+00
 -1      1166 3.46500E+01 5.00000E+01 0.00000E+00
 -1      1167 3.75750E+01 5.00000E+01 0.00000E+00
 -1      1168 4.05000E+01 5.00000E+01 0.00000E+00
 -1      1169 4.35000E+01 5.00000E+01 0.00000E+00
 -1      1170 4.65000E+01 5.00000E+01 0.00000E+00
 -1      1171 4.95000E+01 5.00000E+01 0.00000E+00
 -1      1172 5.25000E+01 5.00000E+01 0.00000E+00
 -1      1173 5.55000E+01 5.00000E+01 0.00000E+00
 -1      1174 5.85000E+01 5.00000E+01 0.00000E+00
 -1      1175 6.15000E+01 5.00000E+01 0.00000E+00
 -1      1176 6.45000E+01 5.00000E+01 0.00000E+00
 -1      1177 6.75000E+01 5.00000E+01 0.00000E+00
 -1      1178 7.05000E+01 5.00000E+01 0.00000E+00
 -1      1179 7.35000E+01 5.00000E+01 0.00000E+00
 -1      1180 7.65000E+01 5.00000E+01 0.00000E+00
 -1      1181 7.95000E+01 5.00000E+01 0.00000E+00
 -1      1182 8.25000E+01 5.00000E+01 0.00000E+00
 -1      1183 8.55000E+01 5.00000E+01 0.00000E+00
 -1      1184 8.85000E+01 5.00000E+01 0.00000E+00
 -1      1185 9.15000E+01 5.00000E+01 0.00000E+00
 -1      1186 9.45000E+01 5.00000E+01 0.00000E+00
 -1      1187 9.75000E+01 5.00000E+01 0.00000E+00
 -1      1188 1.00500E+02 5.00000E+01 0.00000E+00
 -1      1189 1.03500E+02 5.00000E+01 0.00000E+00
 -1      1190 1.06500E+02 5.00000E+01 0.00000E+00
 -1      1191 1.09500E+02 5.00000E+01 0.00000E+00
 -1      1192 1.12500E+02 5.00000E+01 0.00000E+00
 -1      1193 1.15500E+02 5.00000E+01 0.00000E+00
 -1      1194 1.18500E+02 5.00000E+01 0.00000E+00
 -1      1195 1.21500E+02 5.00000E+01 0.00000E+00
 -1      1196 1.24500E+02 5.00000E+01 0.00000E+00
 -1      1197 1.27500E+02 5.00000E+01 0.00000E+00
 -1      1198 1.30500E+02 5.00000E+01 0.00000E+00
 -1      1199 1.33500E+02 5.00000E+01 0.00000E+00
 -1      1200 1.36500E+02 5.00000E+01 0.00000E+00
 -1      1201 1.39500E+02 5.00000E+01 0.00000E+00
 -1      1202 1.42500E+02 5.00000E+01 0.00000E+00
 -1      1203 1.45500E+02 5.00000E+01 0.00000E+00
 -1      1204 1.48500E+02 5.00000E+01 0.00000E+00
 -1      1205 1.57500E+00 0.00000E+00 0.00000E+00
 -1      1206 4.65000E+00 0.00000E+00 0.00000E+00
 -1      1207 7.65000E+00 0.00000E+00 0.00000E+00
 -1      1208 1.06500E+01 0.00000E+00 0.00000E+00
 -1      1209 1.36500E+01 0.00000E+00 0.00000E+00
 -1      1210 1.66500E+01 0.00000E+00 0.00000E+00
 -1      1211 1.96500E+01 0.00000E+00 0.00000E+00
 -1      1212 2.26500E+01 0.00000E+00 0.00000E+00
 -1      1213 2.56500E+01 0.00000E+00 0.00000E+00
 -1      1214 2.86500E+01 0.00000E+00 0.00000E+00
 -1      1215 3.16500E+01 0.00000E+00 0.00000E+00
 -1      1216 3.46500E+01 0.00000E+00 0.00000E+00
 -1      1217 3.76500E+01 0.00000E+00 0.00000E+00
 -1      1218 4.06500E+01 0.00000E+00 0.00000E+00
 -1      1219 4.36500E+01 0.00000E+00 0.00000E+00
 -1      1220 4.66500E+01 0.00000E+00 0.00000E+00
 -1      1221 4.96500E+01 0.00000E+00 0.00000E+00
 -1      1222 5.26500E+01 0.00000E+00 0.00000E+00
 -1      1223 5.56500E+01 0.00000E+00 0.00000E+00
 -1      1224 5.86500E+01 0.00000E+00 0.00000E+00
 -1      1225 6.16500E+01 0.00000E+00 0.00000E+00
 -1      1226 6.46500E+01 0.00000E+00 0.00000E+00
 -1      1227 6.76500E+01 0.00000E+00 0.00000E+00
 -1      1228 7.06500E+01 0.00000E+00 0.00000E+00
 -1      1229 7.36500E+01 0.00000E+00 0.00000E+00
 -1      1230 7.66500E+01 0.00000E+00 0.00000E+00
 -1      1231 7.96500E+01 0.00000E+00 0.00000E+00
 -1      1232 8.26500E+01 0.00000E+00 0.00000E+00
 -1      1233 8.56500E+01 0.00000E+00 0.00000E+00
 -1      1234 8.86500E+01 0.00000E+00 0.00000E+00
 -1      1235 9.16500E+01 0.00000E+00 0.00000E+00
 -1      1236 9.46500E+01 0.00000E+00 0.00000E+00
 -1      1237 9.76500E+01 0.00000E+00 0.00000E+00
 -1      1238 1.00650E+02 0.00000E+00 0.00000E+00
 -1      1239 1.03650E+02 0.00000E+00 0.00000E+00
 -1      1240 1.06650E+02 0.00000E+00 0.00000E+00
 -1      1241 1.09650E+02 0.00000E+00 0.00000E+00
 -1      1242 1.12650E+02 0.00000E+00 0.00000E+00
 -1      1243 1.15650E+02 0.00000E+00 0.00000E+00
 -1      1244 1.18650E+02 0.00000E+00 0.00000E+00
 -1      1245 1.21650E+02 0.00000E+00 0.00000E+00
 -1      1246 1.24650E+02 0.00000E+00 0.00000E+00
 -1      1247 1.27650E+02 0.00000E+00 0.00000E+00
 -1      1248 1.30650E+02 0.00000E+00 0.00000E+00
 -1      1249 1.33650E+02 0.00000E+00 0.00000E+00
 -1      1250 1.36650E+02 0.00000E+00 0.00000E+00
 -1      1251 1.39650E+02 0.00000E+00 0.00000E+00
 -1      1252 1.42650E+02 0.00000E+00 0.00000E+00
 -1      1253 1.45650E+02 0.00000E+00 0.00000E+00
 -1      1254 1.48575E+02 0.00000E+00 0.00000E+00
 -1      1255 1.50000E+02 1.47500E+00 0.00000E+00
 -1      1256 1.50000E+02 4.42500E+00 0.00000E+00
 -1      1257 1.50000E+02 7.37500E+00 0.00000E+00
 -1      1258 1.50000E+02 1.03250E+01 0.00000E+00
 -1      1259 1.50000E+02 1.32750E+01 0.00000E+00
 -1      1260 1.50000E+02 1.62000E+01 0.00000E+00
 -1      1261 1.50000E+02 1.91250E+01 0.00000E+00
 -1      1262 1.50000E+02 2.20750E+01 0.00000E+00
 -1      1263 1.50000E+02 2.50250E+01 0.00000E+00
 -1      1264 1.50000E+02 2.79750E+01 0.00000E+00
 -1      1265 1.50000E+02 3.09250E+01 0.00000E+00
 -1      1266 1.50000E+02 3.38500E+01 0.00000E+00
 -1      1267 1.50000E+02 3.67750E+01 0.00000E+00
 -1      1268 1.50000E+02 3.97250E+01 0.00000E+00
 -1      1269 1.50000E+02 4.26750E+01 0.00000E+00
 -1      1270 1.50000E+02 4.56250E+01 0.00000E+00
 -1      1271 1.50000E+02 4.85500E+01 0.00000E+00
 -1      1272 4.45388E+01 3.17109E+01 0.00000E+00
 -1      1273 4.42310E+01 3.02645E+01 0.00000E+00
 -1      1274 4.36269E+01 2.89162E+01 0.00000E+00
 -1      1275 4.27785E+01 2.77526E+01 0.00000E+00
 -1      1276 4.16979E+01 2.67784E+01 0.00000E+00
 -1      1277 4.04086E+01 2.60350E+01 0.00000E+00
 -1      1278 3.90344E+01 2.55900E+01 0.00000E+00
 -1      1279 3.76212E+01 2.54366E+01 0.00000E+00
 -1      1280 3.61436E+01 2.55847E+01 0.00000E+00
 -1      1281 3.47238E+01 2.60441E+01 0.00000E+00
 -1      1282 3.34826E+01 2.67585E+01 0.00000E+00
 -1      1283 3.24403E+01 2.76805E+01 0.00000E+00
 -1      1284 3.15985E+01 2.87945E+01 0.00000E+00
 -1      1285 3.09850E+01 3.00803E+01 0.00000E+00
 -1      1286 3.06412E+01 3.14870E+01 0.00000E+00
 -1      1287 3.05970E+01 3.29725E+01 0.00000E+00
 -1      1288 3.08743E+01 3.44567E+01 0.00000E+00
 -1      1289 3.14265E+01 3.57798E+01 0.00000E+00
 -1      1290 3.22088E+01 3.69296E+01 0.00000E+00
 -1      1291 3.32841E+01 3.79660E+01 0.00000E+00
 -1      1292 3.45943E+01 3.87695E+01 0.00000E+00
 -1      1293 3.60078E+01 3.92585E+01 0.00000E+00
 -1      1294 3.74625E+01 3.94356E+01 0.00000E+00
 -1      1295 3.89564E+01 3.92991E+01 0.00000E+00
 -1      1296 4.03850E+01 3.88484E+01 0.00000E+00
 -1      1297 4.16408E+01 3.81357E+01 0.00000E+00
 -1      1298 4.27459E+01 3.71564E+01 0.00000E+00
 -1      1299 4.36124E+01 3.59816E+01 0.00000E+00
 -1      1300 4.42104E+01 3.46705E+01 0.00000E+00
 -1      1301 4.45342E+01 3.32048E+01 0.00000E+00
 -1      1302 1.57500E+00 4.85250E+01 0.00000E+00
 -1      1303 1.29900E+00 4.48375E+01 0.00000E+00
 -1      1304 1.29900E+00 4.63125E+01 0.00000E+00
 -1      1305 1.29900E+00 4.18875E+01 0.00000E+00
 -1      1306 1.29900E+00 4.33625E+01 0.00000E+00
 -1      1307 2.59800E+00 4.41000E+01 0.00000E+00
 -1      1308 1.29900E+00 3.89375E+01 0.00000E+00
 -1      1309 1.29900E+00 4.04125E+01 0.00000E+00
 -1      1310 2.59800E+00 4.11500E+01 0.00000E+00
 -1      1311 1.29900E+00 3.59875E+01 0.00000E+00
 -1      1312 1.29900E+00 3.74625E+01 0.00000E+00
 -1      1313 2.59800E+00 3.82000E+01 0.00000E+00
 -1      1314 1.29900E+00 3.30875E+01 0.00000E+00
 -1      1315 1.29900E+00 3.45375E+01 0.00000E+00
 -1      1316 2.59800E+00 3.52750E+01 0.00000E+00
 -1      1317 1.29900E+00 3.01375E+01 0.00000E+00
 -1      1318 1.29900E+00 3.16125E+01 0.00000E+00
 -1      1319 2.59800E+00 3.23500E+01 0.00000E+00
 -1      1320 1.29900E+00 2.71875E+01 0.00000E+00
 -1      1321 1.29900E+00 2.86625E+01 0.00000E+00
 -1      1322 2.59800E+00 2.94000E+01 0.00000E+00
 -1      1323 1.29900E+00 2.42375E+01 0.00000E+00
 -1      1324 1.29900E+00 2.57125E+01 0.00000E+00
 -1      1325 2.59800E+00 2.64500E+01 0.00000E+00
 -1      1326 1.29900E+00 2.12875E+01 0.00000E+00
 -1      1327 1.29900E+00 2.27625E+01 0.00000E+00
 -1      1328 2.59800E+00 2.35000E+01 0.00000E+00
 -1      1329 1.29900E+00 1.83375E+01 0.00000E+00
 -1      1330 1.29900E+00 1.98125E+01 0.00000E+00
 -1      1331 2.59800E+00 2.05500E+01 0.00000E+00
 -1      1332 1.29900E+00 1.54375E+01 0.00000E+00
 -1      1333 1.29900E+00 1.68875E+01 0.00000E+00
 -1      1334 2.59800E+00 1.76250E+01 0.00000E+00
 -1      1335 1.29900E+00 1.24875E+01 0.00000E+00
 -1      1336 1.29900E+00 1.39625E+01 0.00000E+00
 -1      1337 2.59800E+00 1.47000E+01 0.00000E+00
 -1      1338 1.29900E+00 9.53750E+00 0.00000E+00
 -1      1339 1.29900E+00 1.10125E+01 0.00000E+00
 -1      1340 2.59800E+00 1.17500E+01 0.00000E+00
 -1      1341 1.29900E+00 6.58750E+00 0.00000E+00
 -1      1342 1.29900E+00 8.06250E+00 0.00000E+00
 -1      1343 2.59800E+00 8.80000E+00 0.00000E+00
 -1      1344 1.29900E+00 3.63750E+00 0.00000E+00
 -1      1345 1.29900E+00 5.11250E+00 0.00000E+00
 -1      1346 2.59800E+00 5.85000E+00 0.00000E+00
 -1      1347 1.43700E+00 1.09375E+00 0.00000E+00
 -1      1348 1.43700E+00 2.54375E+00 0.00000E+00
 -1      1349 2.73600E+00 3.28125E+00 0.00000E+00
 -1      1350 3.01200E+00 1.09375E+00 0.00000E+00
 -1      1351 3.90000E+00 4.87010E+01 0.00000E+00
 -1      1352 5.40000E+00 4.87010E+01 0.00000E+00
 -1      1353 6.90000E+00 4.87010E+01 0.00000E+00
 -1      1354 8.40000E+00 4.87010E+01 0.00000E+00
 -1      1355 6.15000E+00 4.74020E+01 0.00000E+00
 -1      1356 9.90000E+00 4.87010E+01 0.00000E+00
 -1      1357 1.14000E+01 4.87010E+01 0.00000E+00
 -1      1358 9.15000E+00 4.74020E+01 0.00000E+00
 -1      1359 1.29000E+01 4.87010E+01 0.00000E+00
 -1      1360 1.44000E+01 4.87010E+01 0.00000E+00
 -1      1361 1.21500E+01 4.74020E+01 0.00000E+00
 -1      1362 1.59000E+01 4.87010E+01 0.00000E+00
 -1      1363 1.74000E+01 4.87010E+01 0.00000E+00
 -1      1364 1.51500E+01 4.74020E+01 0.00000E+00
 -1      1365 1.89000E+01 4.87010E+01 0.00000E+00
 -1      1366 2.04000E+01 4.87010E+01 0.00000E+00
 -1      1367 1.81500E+01 4.74020E+01 0.00000E+00
 -1      1368 2.19000E+01 4.87010E+01 0.00000E+00
 -1      1369 2.34000E+01 4.87010E+01 0.00000E+00
 -1      1370 2.11500E+01 4.74020E+01 0.00000E+00
 -1      1371 2.49000E+01 4.87010E+01 0.00000E+00
 -1      1372 2.64000E+01 4.87010E+01 0.00000E+00
 -1      1373 2.41500E+01 4.74020E+01 0.00000E+00
 -1      1374 2.79000E+01 4.87010E+01 0.00000E+00
 -1      1375 2.94000E+01 4.87010E+01 0.00000E+00
 -1      1376 2.71500E+01 4.74020E+01 0.00000E+00
 -1      1377 3.09000E+01 4.87010E+01 0.00000E+00
 -1      1378 3.24000E+01 4.87010E+01 0.00000E+00
 -1      1379 3.01500E+01 4.74020E+01 0.00000E+00
 -1      1380 3.39000E+01 4.87010E+01 0.00000E+00
 -1      1381 3.54000E+01 4.87010E+01 0.00000E+00
 -1      1382 3.31500E+01 4.74020E+01 0.00000E+00
 -1      1383 3.68250E+01 4.87010E+01 0.00000E+00
 -1      1384 3.82500E+01 4.87010E+01 0.00000E+00
 -1      1385 3.60750E+01 4.74020E+01 0.00000E+00
 -1      1386 3.97500E+01 4.87010E+01 0.00000E+00
 -1      1387 4.12500E+01 4.87010E+01 0.00000E+00
 -1      1388 3.90000E+01 4.74020E+01 0.00000E+00
 -1      1389 4.27500E+01 4.87010E+01 0.00000E+00
 -1      1390 4.42500E+01 4.87010E+01 0.00000E+00
 -1      1391 4.20000E+01 4.74020E+01 0.00000E+00
 -1      1392 4.57500E+01 4.87010E+01 0.00000E+00
 -1      1393 4.72500E+01 4.87010E+01 0.00000E+00
 -1      1394 4.50000E+01 4.74020E+01 0.00000E+00
 -1      1395 4.87500E+01 4.87010E+01 0.00000E+00
 -1      1396 5.02500E+01 4.87010E+01 0.00000E+00
 -1      1397 4.80000E+01 4.74020E+01 0.00000E+00
 -1      1398 5.17500E+01 4.87010E+01 0.00000E+00
 -1      1399 5.32500E+01 4.87010E+01 0.00000E+00
 -1      1400 5.10000E+01 4.74020E+01 0.00000E+00
 -1      1401 5.47500E+01 4.87010E+01 0.00000E+00
 -1      1402 5.62500E+01 4.87010E+01 0.00000E+00
 -1      1403 5.40000E+01 4.74020E+01 0.00000E+00
 -1      1404 5.77500E+01 4.87010E+01 0.00000E+00
 -1      1405 5.92500E+01 4.87010E+01 0.00000E+00
 -1      1406 5.70000E+01 4.74020E+01 0.00000E+00
 -1      1407 6.07500E+01 4.87010E+01 0.00000E+00
 -1      1408 6.22500E+01 4.87010E+01 0.00000E+00
 -1      1409 6.00000E+01 4.74020E+01 0.00000E+00
 -1      1410 6.37500E+01 4.87010E+01 0.00000E+00
 -1      1411 6.52500E+01 4.87010E+01 0.00000E+00
 -1      1412 6.30000E+01 4.74020E+01 0.00000E+00
 -1      1413 6.67500E+01 4.87010E+01 0.00000E+00
 -1      1414 6.82500E+01 4.87010E+01 0.00000E+00
 -1      1415 6.60000E+01 4.74020E+01 0.00000E+00
 -1      1416 6.97500E+01 4.87010E+01 0.00000E+00
 -1      1417 7.12500E+01 4.87010E+01 0.00000E+00
 -1      1418 6.90000E+01 4.74020E+01 0.00000E+00
 -1      1419 7.27500E+01 4.87010E+01 0.00000E+00
 -1      1420 7.42500E+01 4.87010E+01 0.00000E+00
 -1      1421 7.20000E+01 4.74020E+01 0.00000E+00
 -1      1422 7.57500E+01 4.87010E+01 0.00000E+00
 -1      1423 7.72500E+01 4.87010E+01 0.00000E+00
 -1      1424 7.50000E+01 4.74020E+01 0.00000E+00
 -1      1425 7.87500E+01 4.87010E+01 0.00000E+00
 -1      1426 8.02500E+01 4.87010E+01 0.00000E+00
 -1      1427 7.80000E+01 4.74020E+01 0.00000E+00
 -1      1428 8.17500E+01 4.87010E+01 0.00000E+00
 -1      1429 8.32500E+01 4.87010E+01 0.00000E+00
 -1      1430 8.10000E+01 4.74020E+01 0.00000E+00
 -1      1431 8.47500E+01 4.87010E+01 0.00000E+00
 -1      1432 8.62500E+01 4.87010E+01 0.00000E+00
 -1      1433 8.40000E+01 4.74020E+01 0.00000E+00
 -1      1434 8.77500E+01 4.87010E+01 0.00000E+00
 -1      1435 8.92500E+01 4.87010E+01 0.00000E+00
 -1      1436 8.70000E+01 4.74020E+01 0.00000E+00
 -1      1437 9.07500E+01 4.87010E+01 0.00000E+00
 -1      1438 9.22500E+01 4.87010E+01 0.00000E+00
 -1      1439 9.00000E+01 4.74020E+01 0.00000E+00
 -1      1440 9.37500E+01 4.87010E+01 0.00000E+00
 -1      1441 9.52500E+01 4.87010E+01 0.00000E+00
 -1      1442 9.30000E+01 4.74020E+01 0.00000E+00
 -1      1443 9.67500E+01 4.87010E+01 0.00000E+00
 -1      1444 9.82500E+01 4.87010E+01 0.00000E+00
 -1      1445 9.60000E+01 4.74020E+01 0.00000E+00
 -1      1446 9.97500E+01 4.87010E+01 0.00000E+00
 -1      1447 1.01250E+02 4.87010E+01 0.00000E+00
 -1      1448 9.90000E+01 4.74020E+01 0.00000E+00
 -1      1449 1.02750E+02 4.87010E+01 0.00000E+00
 -1      1450 1.04250E+02 4.87010E+01 0.00000E+00
 -1      1451 1.02000E+02 4.74020E+01 0.00000E+00
 -1      1452 1.05750E+02 4.87010E+01 0.00000E+00
 -1      1453 1.07250E+02 4.87010E+01 0.00000E+00
 -1      1454 1.05000E+02 4.74020E+01 0.00000E+00
 -1      1455 1.08750E+02 4.87010E+01 0.00000E+00
 -1      1456 1.10250E+02 4.87010E+01 0.00000E+00
 -1      1457 1.08000E+02 4.74020E+01 0.00000E+00
 -1      1458 1.11750E+02 4.87010E+01 0.00000E+00
 -1      1459 1.13250E+02 4.87010E+01 0.00000E+00
 -1      1460 1.11000E+02 4.74020E+01 0.00000E+00
 -1      1461 1.14750E+02 4.87010E+01 0.00000E+00
 -1      1462 1.16250E+02 4.87010E+01 0.00000E+00
 -1      1463 1.14000E+02 4.74020E+01 0.00000E+00
 -1      1464 1.17750E+02 4.87010E+01 0.00000E+00
 -1      1465 1.19250E+02 4.87010E+01 0.00000E+00
 -1      1466 1.17000E+02 4.74020E+01 0.00000E+00
 -1      1467 1.20750E+02 4.87010E+01 0.00000E+00
 -1      1468 1.22250E+02 4.87010E+01 0.00000E+00
 -1      1469 1.20000E+02 4.74020E+01 0.00000E+00
 -1      1470 1.23750E+02 4.87010E+01 0.00000E+00
 -1      1471 1.25250E+02 4.87010E+01 0.00000E+00
 -1      1472 1.23000E+02 4.74020E+01 0.00000E+00
 -1      1473 1.26750E+02 4.87010E+01 0.00000E+00
 -1      1474 1.28250E+02 4.87010E+01 0.00000E+00
 -1      1475 1.26000E+02 4.74020E+01 0.00000E+00
 -1      1476 1.29750E+02 4.87010E+01 0.00000E+00
 -1      1477 1.31250E+02 4.87010E+01 0.00000E+00
 -1      1478 1.29000E+02 4.74020E+01 0.00000E+00
 -1      1479 1.32750E+02 4.87010E+01 0.00000E+00
 -1      1480 1.34250E+02 4.87010E+01 0.00000E+00
 -1      1481 1.32000E+02 4.74020E+01 0.00000E+00
 -1      1482 1.35750E+02 4.87010E+01 0.00000E+00
 -1      1483 1.37250E+02 4.87010E+01 0.00000E+00
 -1      1484 1.35000E+02 4.74020E+01 0.00000E+00
 -1      1485 1.38750E+02 4.87010E+01 0.00000E+00
 -1      1486 1.40250E+02 4.87010E+01 0.00000E+00
 -1      1487 1.38000E+02 4.74020E+01 0.00000E+00
 -1      1488 1.41750E+02 4.87010E+01 0.00000E+00
 -1      1489 1.43250E+02 4.87010E+01 0.00000E+00
 -1      1490 1.41000E+02 4.74020E+01 0.00000E+00
 -1      1491 1.44750E+02 4.87010E+01 0.00000E+00
 -1      1492 1.46250E+02 4.87010E+01 0.00000E+00
 -1      1493 1.44000E+02 4.74020E+01 0.00000E+00
 -1      1494 1.47375E+02 4.86255E+01 0.00000E+00
 -1      1495 1.48875E+02 4.86255E+01 0.00000E+00
 -1      1496 1.48875E+02 4.71755E+01 0.00000E+00
 -1      1497 1.46625E+02 4.73265E+01 0.00000E+00
 -1      1498 6.01200E+00 1.09375E+00 0.00000E+00
 -1      1499 4.51200E+00 1.09375E+00 0.00000E+00
 -1      1500 4.37400E+00 2.18750E+00 0.00000E+00
 -1      1501 9.01200E+00 1.09375E+00 0.00000E+00
 -1      1502 7.51200E+00 1.09375E+00 0.00000E+00
 -1      1503 7.37400E+00 2.18750E+00 0.00000E+00
 -1      1504 1.20120E+01 1.09375E+00 0.00000E+00
 -1      1505 1.05120E+01 1.09375E+00 0.00000E+00
 -1      1506 1.03740E+01 2.18750E+00 0.00000E+00
 -1      1507 1.50120E+01 1.09375E+00 0.00000E+00
 -1      1508 1.35120E+01 1.09375E+00 0.00000E+00
 -1      1509 1.33740E+01 2.18750E+00 0.00000E+00
 -1      1510 1.80120E+01 1.09375E+00 0.00000E+00
 -1      1511 1.65120E+01 1.09375E+00 0.00000E+00
 -1      1512 1.63740E+01 2.18750E+00 0.00000E+00
 -1      1513 2.10120E+01 1.09375E+00 0.00000E+00
 -1      1514 1.95120E+01 1.09375E+00 0.00000E+00
 -1      1515 1.93740E+01 2.18750E+00 0.00000E+00
 -1      1516 2.40120E+01 1.09375E+00 0.00000E+00
 -1      1517 2.25120E+01 1.09375E+00 0.00000E+00
 -1      1518 2.23740E+01 2.18750E+00 0.00000E+00
 -1      1519 2.70120E+01 1.09375E+00 0.00000E+00
 -1      1520 2.55120E+01 1.09375E+00 0.00000E+00
 -1      1521 2.53740E+01 2.18750E+00 0.00000E+00
 -1      1522 3.00120E+01 1.09375E+00 0.00000E+00
 -1      1523 2.85120E+01 1.09375E+00 0.00000E+00
 -1      1524 2.83740E+01 2.18750E+00 0.00000E+00
 -1      1525 3.30120E+01 1.09375E+00 0.00000E+00
 -1      1526 3.15120E+01 1.09375E+00 0.00000E+00
 -1      1527 3.13740E+01 2.18750E+00 0.00000E+00
 -1      1528 3.60120E+01 1.09375E+00 0.00000E+00
 -1      1529 3.45120E+01 1.09375E+00 0.00000E+00
 -1      1530 3.43740E+01 2.18750E+00 0.00000E+00
 -1      1531 3.90120E+01 1.09375E+00 0.00000E+00
 -1      1532 3.75120E+01 1.09375E+00 0.00000E+00
 -1      1533 3.73740E+01 2.18750E+00 0.00000E+00
 -1      1534 4.20120E+01 1.09375E+00 0.00000E+00
 -1      1535 4.05120E+01 1.09375E+00 0.00000E+00
 -1      1536 4.03740E+01 2.18750E+00 0.00000E+00
 -1      1537 4.50120E+01 1.09375E+00 0.00000E+00
 -1      1538 4.35120E+01 1.09375E+00 0.00000E+00
 -1      1539 4.33740E+01 2.18750E+00 0.00000E+00
 -1      1540 4.80120E+01 1.09375E+00 0.00000E+00
 -1      1541 4.65120E+01 1.09375E+00 0.00000E+00
 -1      1542 4.63740E+01 2.18750E+00 0.00000E+00
 -1      1543 5.10120E+01 1.09375E+00 0.00000E+00
 -1      1544 4.95120E+01 1.09375E+00 0.00000E+00
 -1      1545 4.93740E+01 2.18750E+00 0.00000E+00
 -1      1546 5.40120E+01 1.09375E+00 0.00000E+00
 -1      1547 5.25120E+01 1.09375E+00 0.00000E+00
 -1      1548 5.23740E+01 2.18750E+00 0.00000E+00
 -1      1549 5.70120E+01 1.09375E+00 0.00000E+00
 -1      1550 5.55120E+01 1.09375E+00 0.00000E+00
 -1      1551 5.53740E+01 2.18750E+00 0.00000E+00
 -1      1552 6.00120E+01 1.09375E+00 0.00000E+00
 -1      1553 5.85120E+01 1.09375E+00 0.00000E+00
 -1      1554 5.83740E+01 2.18750E+00 0.00000E+00
 -1      1555 6.30120E+01 1.09375E+00 0.00000E+00
 -1      1556 6.15120E+01 1.09375E+00 0.00000E+00
 -1      1557 6.13740E+01 2.18750E+00 0.00000E+00
 -1      1558 6.60120E+01 1.09375E+00 0.00000E+00
 -1      1559 6.45120E+01 1.09375E+00 0.00000E+00
 -1      1560 6.43740E+01 2.18750E+00 0.00000E+00
 -1      1561 6.90120E+01 1.09375E+00 0.00000E+00
 -1      1562 6.75120E+01 1.09375E+00 0.00000E+00
 -1      1563 6.73740E+01 2.18750E+00 0.00000E+00
 -1      1564 7.20120E+01 1.09375E+00 0.00000E+00
 -1      1565 7.05120E+01 1.09375E+00 0.00000E+00
 -1      1566 7.03740E+01 2.18750E+00 0.00000E+00
 -1      1567 7.50120E+01 1.09375E+00 0.00000E+00
 -1      1568 7.35120E+01 1.09375E+00 0.00000E+00
 -1      1569 7.33740E+01 2.18750E+00 0.00000E+00
 -1      1570 7.80120E+01 1.09375E+00 0.00000E+00
 -1      1571 7.65120E+01 1.09375E+00 0.00000E+00
 -1      1572 7.63740E+01 2.18750E+00 0.00000E+00
 -1      1573 8.10120E+01 1.09375E+00 0.00000E+00
 -1      1574 7.95120E+01 1.09375E+00 0.00000E+00
 -1      1575 7.93740E+01 2.18750E+00 0.00000E+00
 -1      1576 8.40120E+01 1.09375E+00 0.00000E+00
 -1      1577 8.25120E+01 1.09375E+00 0.00000E+00
 -1      1578 8.23740E+01 2.18750E+00 0.00000E+00
 -1      1579 8.70120E+01 1.09375E+00 0.00000E+00
 -1      1580 8.55120E+01 1.09375E+00 0.00000E+00
 -1      1581 8.53740E+01 2.18750E+00 0.00000E+00
 -1      1582 9.00120E+01 1.09375E+00 0.00000E+00
 -1      1583 8.85120E+01 1.09375E+00 0.00000E+00
 -1      1584 8.83740E+01 2.18750E+00 0.00000E+00
 -1      1585 9.30120E+01 1.09375E+00 0.00000E+00
 -1      1586 9.15120E+01 1.09375E+00 0.00000E+00
 -1      1587 9.13740E+01 2.18750E+00 0.00000E+00
 -1      1588 9.60120E+01 1.09375E+00 0.00000E+00
 -1      1589 9.45120E+01 1.09375E+00 0.00000E+00
 -1      1590 9.43740E+01 2.18750E+00 0.00000E+00
 -1      1591 9.90120E+01 1.09375E+00 0.00000E+00
 -1      1592 9.75120E+01 1.09375E+00 0.00000E+00
 -1      1593 9.73740E+01 2.18750E+00 0.00000E+00
 -1      1594 1.02012E+02 1.09375E+00 0.00000E+00
 -1      1595 1.00512E+02 1.09375E+00 0.00000E+00
 -1      1596 1.00374E+02 2.18750E+00 0.00000E+00
 -1      1597 1.05012E+02 1.09375E+00 0.00000E+00
 -1      1598 1.03512E+02 1.09375E+00 0.00000E+00
 -1      1599 1.03374E+02 2.18750E+00 0.00000E+00
 -1      1600 1.08012E+02 1.09375E+00 0.00000E+00
 -1      1601 1.06512E+02 1.09375E+00 0.00000E+00
 -1      1602 1.06374E+02 2.18750E+00 0.00000E+00
 -1      1603 1.11012E+02 1.09375E+00 0.00000E+00
 -1      1604 1.09512E+02 1.09375E+00 0.00000E+00
 -1      1605 1.09374E+02 2.18750E+00 0.00000E+00
 -1      1606 1.14012E+02 1.09375E+00 0.00000E+00
 -1      1607 1.12512E+02 1.09375E+00 0.00000E+00
 -1      1608 1.12374E+02 2.18750E+00 0.00000E+00
 -1      1609 1.17012E+02 1.09375E+00 0.00000E+00
 -1      1610 1.15512E+02 1.09375E+00 0.00000E+00
 -1      1611 1.15374E+02 2.18750E+00 0.00000E+00
 -1      1612 1.20012E+02 1.09375E+00 0.00000E+00
 -1      1613 1.18512E+02 1.09375E+00 0.00000E+00
 -1      1614 1.18374E+02 2.18750E+00 0.00000E+00
 -1      1615 1.23012E+02 1.09375E+00 0.00000E+00
 -1      1616 1.21512E+02 1.09375E+00 0.00000E+00
 -1      1617 1.21374E+02 2.18750E+00 0.00000E+00
 -1      1618 1.26012E+02 1.09375E+00 0.00000E+00
 -1      1619 1.24512E+02 1.09375E+00 0.00000E+00
 -1      1620 1.24374E+02 2.18750E+00 0.00000E+00
 -1      1621 1.29012E+02 1.09375E+00 0.00000E+00
 -1      1622 1.27512E+02 1.09375E+00 0.00000E+00
 -1      1623 1.27374E+02 2.18750E+00 0.00000E+00
 -1      1624 1.32012E+02 1.09375E+00 0.00000E+00
 -1      1625 1.30512E+02 1.09375E+00 0.00000E+00
 -1      1626 1.30374E+02 2.18750E+00 0.00000E+00
 -1      1627 1.35012E+02 1.09375E+00 0.00000E+00
 -1      1628 1.33512E+02 1.09375E+00 0.00000E+00
 -1      1629 1.33374E+02 2.18750E+00 0.00000E+00
 -1      1630 1.38012E+02 1.09375E+00 0.00000E+00
 -1      1631 1.36512E+02 1.09375E+00 0.00000E+00
 -1      1632 1.36374E+02 2.18750E+00 0.00000E+00
 -1      1633 1.41012E+02 1.09375E+00 0.00000E+00
 -1      1634 1.39512E+02 1.09375E+00 0.00000E+00
 -1      1635 1.39374E+02 2.18750E+00 0.00000E+00
 -1      1636 1.44012E+02 1.09375E+00 0.00000E+00
 -1      1637 1.42512E+02 1.09375E+00 0.00000E+00
 -1      1638 1.42374E+02 2.18750E+00 0.00000E+00
 -1      1639 1.47012E+02 1.09375E+00 0.00000E+00
 -1      1640 1.45512E+02 1.09375E+00 0.00000E+00
 -1      1641 1.45374E+02 2.18750E+00 0.00000E+00
 -1      1642 1.48575E+02 1.47500E+00 0.00000E+00
 -1      1643 1.48701E+02 5.16250E+00 0.00000E+00
 -1      1644 1.48701E+02 3.68750E+00 0.00000E+00
 -1      1645 1.48701E+02 8.11250E+00 0.00000E+00
 -1      1646 1.48701E+02 6.63750E+00 0.00000E+00
 -1      1647 1.47402E+02 5.90000E+00 0.00000E+00
 -1      1648 1.48701E+02 1.10625E+01 0.00000E+00
 -1      1649 1.48701E+02 9.58750E+00 0.00000E+00
 -1      1650 1.47402E+02 8.85000E+00 0.00000E+00
 -1      1651 1.48701E+02 1.40125E+01 0.00000E+00
 -1      1652 1.48701E+02 1.25375E+01 0.00000E+00
 -1      1653 1.47402E+02 1.18000E+01 0.00000E+00
 -1      1654 1.48701E+02 1.69125E+01 0.00000E+00
 -1      1655 1.48701E+02 1.54625E+01 0.00000E+00
 -1      1656 1.47402E+02 1.47250E+01 0.00000E+00
 -1      1657 1.48701E+02 1.98625E+01 0.00000E+00
 -1      1658 1.48701E+02 1.83875E+01 0.00000E+00
 -1      1659 1.47402E+02 1.76500E+01 0.00000E+00
 -1      1660 1.48701E+02 2.28125E+01 0.00000E+00
 -1      1661 1.48701E+02 2.13375E+01 0.00000E+00
 -1      1662 1.47402E+02 2.06000E+01 0.00000E+00
 -1      1663 1.48701E+02 2.57625E+01 0.00000E+00
 -1      1664 1.48701E+02 2.42875E+01 0.00000E+00
 -1      1665 1.47402E+02 2.35500E+01 0.00000E+00
 -1      1666 1.48701E+02 2.87125E+01 0.00000E+00
 -1      1667 1.48701E+02 2.72375E+01 0.00000E+00
 -1      1668 1.47402E+02 2.65000E+01 0.00000E+00
 -1      1669 1.48701E+02 3.16625E+01 0.00000E+00
 -1      1670 1.48701E+02 3.01875E+01 0.00000E+00
 -1      1671 1.47402E+02 2.94500E+01 0.00000E+00
 -1      1672 1.48701E+02 3.45625E+01 0.00000E+00
 -1      1673 1.48701E+02 3.31125E+01 0.00000E+00
 -1      1674 1.47402E+02 3.23750E+01 0.00000E+00
 -1      1675 1.48701E+02 3.75125E+01 0.00000E+00
 -1      1676 1.48701E+02 3.60375E+01 0.00000E+00
 -1      1677 1.47402E+02 3.53000E+01 0.00000E+00
 -1      1678 1.48701E+02 4.04625E+01 0.00000E+00
 -1      1679 1.48701E+02 3.89875E+01 0.00000E+00
 -1      1680 1.47402E+02 3.82500E+01 0.00000E+00
 -1      1681 1.48701E+02 4.34125E+01 0.00000E+00
 -1      1682 1.48701E+02 4.19375E+01 0.00000E+00
 -1      1683 1.47402E+02 4.12000E+01 0.00000E+00
 -1      1684 1.48788E+02 4.60315E+01 0.00000E+00
 -1      1685 1.48788E+02 4.45565E+01 0.00000E+00
 -1      1686 1.47489E+02 4.38190E+01 0.00000E+00
 -1      1687 1.47663E+02 4.61070E+01 0.00000E+00
 -1      1688 4.51083E+01 3.12868E+01 0.00000E+00
 -1      1689 4.51835E+01 3.20085E+01 0.00000E+00
 -1      1690 4.47315E+01 2.97051E+01 0.00000E+00
 -1      1691 4.49651E+01 3.04211E+01 0.00000E+00
 -1      1692 4.39725E+01 2.82961E+01 0.00000E+00
 -1      1693 4.43367E+01 2.89222E+01 0.00000E+00
 -1      1694 4.29623E+01 2.71056E+01 0.00000E+00
 -1      1695 4.34412E+01 2.76375E+01 0.00000E+00
 -1      1696 4.17330E+01 2.61024E+01 0.00000E+00
 -1      1697 4.23305E+01 2.65377E+01 0.00000E+00
 -1      1698 4.03290E+01 2.52892E+01 0.00000E+00
 -1      1699 4.10140E+01 2.55923E+01 0.00000E+00
 -1      1700 3.88134E+01 2.49585E+01 0.00000E+00
 -1      1701 3.94936E+01 2.51034E+01 0.00000E+00
 -1      1702 3.72620E+01 2.48240E+01 0.00000E+00
 -1      1703 3.79881E+01 2.48286E+01 0.00000E+00
 -1      1704 3.56393E+01 2.50274E+01 0.00000E+00
 -1      1705 3.63822E+01 2.48721E+01 0.00000E+00
 -1      1706 3.41576E+01 2.56751E+01 0.00000E+00
 -1      1707 3.48273E+01 2.53763E+01 0.00000E+00
 -1      1708 3.28651E+01 2.64995E+01 0.00000E+00
 -1      1709 3.34319E+01 2.60908E+01 0.00000E+00
 -1      1710 3.17853E+01 2.75462E+01 0.00000E+00
 -1      1711 3.22561E+01 2.70378E+01 0.00000E+00
 -1      1712 3.09281E+01 2.87979E+01 0.00000E+00
 -1      1713 3.12941E+01 2.81972E+01 0.00000E+00
 -1      1714 3.03278E+01 3.02283E+01 0.00000E+00
 -1      1715 3.05706E+01 2.95492E+01 0.00000E+00
 -1      1716 3.00288E+01 3.17701E+01 0.00000E+00
 -1      1717 3.01274E+01 3.10498E+01 0.00000E+00
 -1      1718 3.00629E+01 3.33943E+01 0.00000E+00
 -1      1719 3.00047E+01 3.26373E+01 0.00000E+00
 -1      1720 3.04008E+01 3.49915E+01 0.00000E+00
 -1      1721 3.01841E+01 3.42727E+01 0.00000E+00
 -1      1722 3.10863E+01 3.63533E+01 0.00000E+00
 -1      1723 3.07601E+01 3.57533E+01 0.00000E+00
 -1      1724 3.19986E+01 3.75670E+01 0.00000E+00
 -1      1725 3.15443E+01 3.70243E+01 0.00000E+00
 -1      1726 3.31984E+01 3.87170E+01 0.00000E+00
 -1      1727 3.25778E+01 3.82352E+01 0.00000E+00
 -1      1728 3.46752E+01 3.94792E+01 0.00000E+00
 -1      1729 3.39956E+01 3.91592E+01 0.00000E+00
 -1      1730 3.62437E+01 3.98940E+01 0.00000E+00
 -1      1731 3.55181E+01 3.97271E+01 0.00000E+00
 -1      1732 3.78136E+01 4.00103E+01 0.00000E+00
 -1      1733 3.70928E+01 3.99986E+01 0.00000E+00
 -1      1734 3.94658E+01 3.98561E+01 0.00000E+00
 -1      1735 3.87019E+01 4.00097E+01 0.00000E+00
 -1      1736 4.09426E+01 3.92256E+01 0.00000E+00
 -1      1737 4.02842E+01 3.95139E+01 0.00000E+00
 -1      1738 4.22661E+01 3.83881E+01 0.00000E+00
 -1      1739 4.16757E+01 3.88091E+01 0.00000E+00
 -1      1740 4.34170E+01 3.72604E+01 0.00000E+00
 -1      1741 4.29104E+01 3.78153E+01 0.00000E+00
 -1      1742 4.42835E+01 3.59650E+01 0.00000E+00
 -1      1743 4.39248E+01 3.65758E+01 0.00000E+00
 -1      1744 4.49051E+01 3.45179E+01 0.00000E+00
 -1      1745 4.46713E+01 3.52123E+01 0.00000E+00
 -1      1746 4.52201E+01 3.28941E+01 0.00000E+00
 -1      1747 4.51358E+01 3.36578E+01 0.00000E+00
 -1      1748 4.41835E+01 2.76246E+01 0.00000E+00
 -1      1749 4.58271E+01 3.24661E+01 0.00000E+00
 -1      1750 1.48437E+02 2.56875E+00 0.00000E+00
 -1      1751 1.47138E+02 3.30625E+00 0.00000E+00
 -1      1752 4.56474E+01 3.07147E+01 0.00000E+00
 -1      1753 4.51095E+01 2.90661E+01 0.00000E+00
 -1      1754 4.30205E+01 2.63980E+01 0.00000E+00
 -1      1755 4.16697E+01 2.53199E+01 0.00000E+00
 -1      1756 4.01152E+01 2.46239E+01 0.00000E+00
 -1      1757 3.84545E+01 2.43082E+01 0.00000E+00
 -1      1758 3.67494E+01 2.42263E+01 0.00000E+00
 -1      1759 3.50575E+01 2.46233E+01 0.00000E+00
 -1      1760 3.35197E+01 2.53878E+01 0.00000E+00
 -1      1761 3.21849E+01 2.63418E+01 0.00000E+00
 -1      1762 3.10847E+01 2.75311E+01 0.00000E+00
 -1      1763 3.02359E+01 2.89334E+01 0.00000E+00
 -1      1764 2.96779E+01 3.05062E+01 0.00000E+00
 -1      1765 2.94534E+01 3.21950E+01 0.00000E+00
 -1      1766 2.95507E+01 3.39407E+01 0.00000E+00
 -1      1767 3.00313E+01 3.55810E+01 0.00000E+00
 -1      1768 3.08486E+01 3.70138E+01 0.00000E+00
 -1      1769 3.18858E+01 3.83529E+01 0.00000E+00
 -1      1770 3.32621E+01 3.94633E+01 0.00000E+00
 -1      1771 3.49021E+01 4.01534E+01 0.00000E+00
 -1      1772 3.65942E+01 4.05060E+01 0.00000E+00
 -1      1773 3.83316E+01 4.06100E+01 0.00000E+00
 -1      1774 4.00382E+01 4.02672E+01 0.00000E+00
 -1      1775 4.15897E+01 3.95086E+01 0.00000E+00
 -1      1776 4.29671E+01 3.85194E+01 0.00000E+00
 -1      1777 4.41191E+01 3.72620E+01 0.00000E+00
 -1      1778 4.50146E+01 3.58247E+01 0.00000E+00
 -1      1779 4.56331E+01 3.42118E+01 0.00000E+00
 -1      1780 2.87400E+00 4.77875E+01 0.00000E+00
 -1      1781 3.89700E+00 4.04125E+01 0.00000E+00
 -1      1782 3.89700E+00 4.18875E+01 0.00000E+00
 -1      1783 3.89700E+00 4.33625E+01 0.00000E+00
 -1      1784 3.89700E+00 4.48375E+01 0.00000E+00
 -1      1785 5.19600E+00 4.26250E+01 0.00000E+00
 -1      1786 3.89700E+00 3.45500E+01 0.00000E+00
 -1      1787 3.89700E+00 3.60000E+01 0.00000E+00
 -1      1788 3.89700E+00 3.16000E+01 0.00000E+00
 -1      1789 3.89700E+00 3.30750E+01 0.00000E+00
 -1      1790 5.19600E+00 3.38000E+01 0.00000E+00
 -1      1791 3.89700E+00 2.86500E+01 0.00000E+00
 -1      1792 3.89700E+00 3.01250E+01 0.00000E+00
 -1      1793 5.19600E+00 3.08500E+01 0.00000E+00
 -1      1794 3.89700E+00 2.57000E+01 0.00000E+00
 -1      1795 3.89700E+00 2.71750E+01 0.00000E+00
 -1      1796 5.19600E+00 2.79000E+01 0.00000E+00
 -1      1797 3.89700E+00 2.27500E+01 0.00000E+00
 -1      1798 3.89700E+00 2.42250E+01 0.00000E+00
 -1      1799 5.19600E+00 2.49500E+01 0.00000E+00
 -1      1800 3.89700E+00 1.98000E+01 0.00000E+00
 -1      1801 3.89700E+00 2.12750E+01 0.00000E+00
 -1      1802 5.19600E+00 2.20000E+01 0.00000E+00
 -1      1803 3.89700E+00 1.69000E+01 0.00000E+00
 -1      1804 3.89700E+00 1.83500E+01 0.00000E+00
 -1      1805 5.19600E+00 1.90750E+01 0.00000E+00
 -1      1806 3.89700E+00 1.39500E+01 0.00000E+00
 -1      1807 3.89700E+00 1.54250E+01 0.00000E+00
 -1      1808 5.19600E+00 1.61500E+01 0.00000E+00
 -1      1809 3.89700E+00 1.10000E+01 0.00000E+00
 -1      1810 3.89700E+00 1.24750E+01 0.00000E+00
 -1      1811 5.19600E+00 1.32000E+01 0.00000E+00
 -1      1812 3.89700E+00 8.05000E+00 0.00000E+00
 -1      1813 3.89700E+00 9.52500E+00 0.00000E+00
 -1      1814 5.19600E+00 1.02500E+01 0.00000E+00
 -1      1815 3.89700E+00 5.10000E+00 0.00000E+00
 -1      1816 3.89700E+00 6.57500E+00 0.00000E+00
 -1      1817 5.19600E+00 7.30000E+00 0.00000E+00
 -1      1818 4.20450E+00 3.09687E+00 0.00000E+00
 -1      1819 4.06650E+00 4.19063E+00 0.00000E+00
 -1      1820 5.36550E+00 4.91563E+00 0.00000E+00
 -1      1821 5.70450E+00 3.09687E+00 0.00000E+00
 -1      1822 3.62400E+00 4.64885E+01 0.00000E+00
 -1      1823 8.70450E+00 3.09687E+00 0.00000E+00
 -1      1824 7.20450E+00 3.09687E+00 0.00000E+00
 -1      1825 7.03500E+00 4.00625E+00 0.00000E+00
 -1      1826 4.92300E+00 4.57510E+01 0.00000E+00
 -1      1827 8.40000E+00 4.61030E+01 0.00000E+00
 -1      1828 9.90000E+00 4.61030E+01 0.00000E+00
 -1      1829 1.14000E+01 4.61030E+01 0.00000E+00
 -1      1830 1.29000E+01 4.61030E+01 0.00000E+00
 -1      1831 1.06500E+01 4.48040E+01 0.00000E+00
 -1      1832 1.44000E+01 4.61030E+01 0.00000E+00
 -1      1833 1.59000E+01 4.61030E+01 0.00000E+00
 -1      1834 1.36500E+01 4.48040E+01 0.00000E+00
 -1      1835 1.74000E+01 4.61030E+01 0.00000E+00
 -1      1836 1.89000E+01 4.61030E+01 0.00000E+00
 -1      1837 1.66500E+01 4.48040E+01 0.00000E+00
 -1      1838 2.04000E+01 4.61030E+01 0.00000E+00
 -1      1839 2.19000E+01 4.61030E+01 0.00000E+00
 -1      1840 1.96500E+01 4.48040E+01 0.00000E+00
 -1      1841 2.34000E+01 4.61030E+01 0.00000E+00
 -1      1842 2.49000E+01 4.61030E+01 0.00000E+00
 -1      1843 2.26500E+01 4.48040E+01 0.00000E+00
 -1      1844 2.64000E+01 4.61030E+01 0.00000E+00
 -1      1845 2.79000E+01 4.61030E+01 0.00000E+00
 -1      1846 2.56500E+01 4.48040E+01 0.00000E+00
 -1      1847 2.94000E+01 4.61030E+01 0.00000E+00
 -1      1848 3.09000E+01 4.61030E+01 0.00000E+00
 -1      1849 2.86500E+01 4.48040E+01 0.00000E+00
 -1      1850 3.24000E+01 4.61030E+01 0.00000E+00
 -1      1851 3.39000E+01 4.61030E+01 0.00000E+00
 -1      1852 3.16500E+01 4.48040E+01 0.00000E+00
 -1      1853 3.53250E+01 4.61030E+01 0.00000E+00
 -1      1854 3.67500E+01 4.61030E+01 0.00000E+00
 -1      1855 3.45750E+01 4.48040E+01 0.00000E+00
 -1      1856 3.82500E+01 4.61030E+01 0.00000E+00
 -1      1857 3.97500E+01 4.61030E+01 0.00000E+00
 -1      1858 3.75000E+01 4.48040E+01 0.00000E+00
 -1      1859 4.12500E+01 4.61030E+01 0.00000E+00
 -1      1860 4.27500E+01 4.61030E+01 0.00000E+00
 -1      1861 4.05000E+01 4.48040E+01 0.00000E+00
 -1      1862 4.42500E+01 4.61030E+01 0.00000E+00
 -1      1863 4.57500E+01 4.61030E+01 0.00000E+00
 -1      1864 4.35000E+01 4.48040E+01 0.00000E+00
 -1      1865 4.72500E+01 4.61030E+01 0.00000E+00
 -1      1866 4.87500E+01 4.61030E+01 0.00000E+00
 -1      1867 4.65000E+01 4.48040E+01 0.00000E+00
 -1      1868 5.02500E+01 4.61030E+01 0.00000E+00
 -1      1869 5.17500E+01 4.61030E+01 0.00000E+00
 -1      1870 4.95000E+01 4.48040E+01 0.00000E+00
 -1      1871 5.32500E+01 4.61030E+01 0.00000E+00
 -1      1872 5.47500E+01 4.61030E+01 0.00000E+00
 -1      1873 5.25000E+01 4.48040E+01 0.00000E+00
 -1      1874 5.62500E+01 4.61030E+01 0.00000E+00
 -1      1875 5.77500E+01 4.61030E+01 0.00000E+00
 -1      1876 5.55000E+01 4.48040E+01 0.00000E+00
 -1      1877 5.92500E+01 4.61030E+01 0.00000E+00
 -1      1878 6.07500E+01 4.61030E+01 0.00000E+00
 -1      1879 5.85000E+01 4.48040E+01 0.00000E+00
 -1      1880 6.22500E+01 4.61030E+01 0.00000E+00
 -1      1881 6.37500E+01 4.61030E+01 0.00000E+00
 -1      1882 6.15000E+01 4.48040E+01 0.00000E+00
 -1      1883 6.52500E+01 4.61030E+01 0.00000E+00
 -1      1884 6.67500E+01 4.61030E+01 0.00000E+00
 -1      1885 6.45000E+01 4.48040E+01 0.00000E+00
 -1      1886 6.82500E+01 4.61030E+01 0.00000E+00
 -1      1887 6.97500E+01 4.61030E+01 0.00000E+00
 -1      1888 6.75000E+01 4.48040E+01 0.00000E+00
 -1      1889 7.12500E+01 4.61030E+01 0.00000E+00
 -1      1890 7.27500E+01 4.61030E+01 0.00000E+00
 -1      1891 7.05000E+01 4.48040E+01 0.00000E+00
 -1      1892 7.42500E+01 4.61030E+01 0.00000E+00
 -1      1893 7.57500E+01 4.61030E+01 0.00000E+00
 -1      1894 7.35000E+01 4.48040E+01 0.00000E+00
 -1      1895 7.72500E+01 4.61030E+01 0.00000E+00
 -1      1896 7.87500E+01 4.61030E+01 0.00000E+00
 -1      1897 7.65000E+01 4.48040E+01 0.00000E+00
 -1      1898 8.02500E+01 4.61030E+01 0.00000E+00
 -1      1899 8.17500E+01 4.61030E+01 0.00000E+00
 -1      1900 7.95000E+01 4.48040E+01 0.00000E+00
 -1      1901 8.32500E+01 4.61030E+01 0.00000E+00
 -1      1902 8.47500E+01 4.61030E+01 0.00000E+00
 -1      1903 8.25000E+01 4.48040E+01 0.00000E+00
 -1      1904 8.62500E+01 4.61030E+01 0.00000E+00
 -1      1905 8.77500E+01 4.61030E+01 0.00000E+00
 -1      1906 8.55000E+01 4.48040E+01 0.00000E+00
 -1      1907 8.92500E+01 4.61030E+01 0.00000E+00
 -1      1908 9.07500E+01 4.61030E+01 0.00000E+00
 -1      1909 8.85000E+01 4.48040E+01 0.00000E+00
 -1      1910 9.22500E+01 4.61030E+01 0.00000E+00
 -1      1911 9.37500E+01 4.61030E+01 0.00000E+00
 -1      1912 9.15000E+01 4.48040E+01 0.00000E+00
 -1      1913 9.52500E+01 4.61030E+01 0.00000E+00
 -1      1914 9.67500E+01 4.61030E+01 0.00000E+00
 -1      1915 9.45000E+01 4.48040E+01 0.00000E+00
 -1      1916 9.82500E+01 4.61030E+01 0.00000E+00
 -1      1917 9.97500E+01 4.61030E+01 0.00000E+00
 -1      1918 9.75000E+01 4.48040E+01 0.00000E+00
 -1      1919 1.01250E+02 4.61030E+01 0.00000E+00
 -1      1920 1.02750E+02 4.61030E+01 0.00000E+00
 -1      1921 1.00500E+02 4.48040E+01 0.00000E+00
 -1      1922 1.04250E+02 4.61030E+01 0.00000E+00
 -1      1923 1.05750E+02 4.61030E+01 0.00000E+00
 -1      1924 1.03500E+02 4.48040E+01 0.00000E+00
 -1      1925 1.07250E+02 4.61030E+01 0.00000E+00
 -1      1926 1.08750E+02 4.61030E+01 0.00000E+00
 -1      1927 1.06500E+02 4.48040E+01 0.00000E+00
 -1      1928 1.10250E+02 4.61030E+01 0.00000E+00
 -1      1929 1.11750E+02 4.61030E+01 0.00000E+00
 -1      1930 1.09500E+02 4.48040E+01 0.00000E+00
 -1      1931 1.13250E+02 4.61030E+01 0.00000E+00
 -1      1932 1.14750E+02 4.61030E+01 0.00000E+00
 -1      1933 1.12500E+02 4.48040E+01 0.00000E+00
 -1      1934 1.16250E+02 4.61030E+01 0.00000E+00
 -1      1935 1.17750E+02 4.61030E+01 0.00000E+00
 -1      1936 1.15500E+02 4.48040E+01 0.00000E+00
 -1      1937 1.19250E+02 4.61030E+01 0.00000E+00
 -1      1938 1.20750E+02 4.61030E+01 0.00000E+00
 -1      1939 1.18500E+02 4.48040E+01 0.00000E+00
 -1      1940 1.22250E+02 4.61030E+01 0.00000E+00
 -1      1941 1.23750E+02 4.61030E+01 0.00000E+00
 -1      1942 1.21500E+02 4.48040E+01 0.00000E+00
 -1      1943 1.25250E+02 4.61030E+01 0.00000E+00
 -1      1944 1.26750E+02 4.61030E+01 0.00000E+00
 -1      1945 1.24500E+02 4.48040E+01 0.00000E+00
 -1      1946 1.28250E+02 4.61030E+01 0.00000E+00
 -1      1947 1.29750E+02 4.61030E+01 0.00000E+00
 -1      1948 1.27500E+02 4.48040E+01 0.00000E+00
 -1      1949 1.31250E+02 4.61030E+01 0.00000E+00
 -1      1950 1.32750E+02 4.61030E+01 0.00000E+00
 -1      1951 1.30500E+02 4.48040E+01 0.00000E+00
 -1      1952 1.34250E+02 4.61030E+01 0.00000E+00
 -1      1953 1.35750E+02 4.61030E+01 0.00000E+00
 -1      1954 1.33500E+02 4.48040E+01 0.00000E+00
 -1      1955 1.37250E+02 4.61030E+01 0.00000E+00
 -1      1956 1.38750E+02 4.61030E+01 0.00000E+00
 -1      1957 1.36500E+02 4.48040E+01 0.00000E+00
 -1      1958 1.40250E+02 4.61030E+01 0.00000E+00
 -1      1959 1.41750E+02 4.61030E+01 0.00000E+00
 -1      1960 1.39500E+02 4.48040E+01 0.00000E+00
 -1      1961 1.43250E+02 4.61030E+01 0.00000E+00
 -1      1962 1.44750E+02 4.61030E+01 0.00000E+00
 -1      1963 1.42500E+02 4.48040E+01 0.00000E+00
 -1      1964 1.46538E+02 4.61825E+01 0.00000E+00
 -1      1965 1.41240E+01 3.48650E+00 0.00000E+00
 -1      1966 1.26240E+01 3.48650E+00 0.00000E+00
 -1      1967 1.71240E+01 3.48650E+00 0.00000E+00
 -1      1968 1.56240E+01 3.48650E+00 0.00000E+00
 -1      1969 1.48740E+01 4.78550E+00 0.00000E+00
 -1      1970 2.01240E+01 3.48650E+00 0.00000E+00
 -1      1971 1.86240E+01 3.48650E+00 0.00000E+00
 -1      1972 1.78740E+01 4.78550E+00 0.00000E+00
 -1      1973 2.31240E+01 3.48650E+00 0.00000E+00
 -1      1974 2.16240E+01 3.48650E+00 0.00000E+00
 -1      1975 2.08740E+01 4.78550E+00 0.00000E+00
 -1      1976 2.61240E+01 3.48650E+00 0.00000E+00
 -1      1977 2.46240E+01 3.48650E+00 0.00000E+00
 -1      1978 2.38740E+01 4.78550E+00 0.00000E+00
 -1      1979 2.91240E+01 3.48650E+00 0.00000E+00
 -1      1980 2.76240E+01 3.48650E+00 0.00000E+00
 -1      1981 2.68740E+01 4.78550E+00 0.00000E+00
 -1      1982 3.21240E+01 3.48650E+00 0.00000E+00
 -1      1983 3.06240E+01 3.48650E+00 0.00000E+00
 -1      1984 2.98740E+01 4.78550E+00 0.00000E+00
 -1      1985 3.51240E+01 3.48650E+00 0.00000E+00
 -1      1986 3.36240E+01 3.48650E+00 0.00000E+00
 -1      1987 3.28740E+01 4.78550E+00 0.00000E+00
 -1      1988 3.81240E+01 3.48650E+00 0.00000E+00
 -1      1989 3.66240E+01 3.48650E+00 0.00000E+00
 -1      1990 3.58740E+01 4.78550E+00 0.00000E+00
 -1      1991 4.11240E+01 3.48650E+00 0.00000E+00
 -1      1992 3.96240E+01 3.48650E+00 0.00000E+00
 -1      1993 3.88740E+01 4.78550E+00 0.00000E+00
 -1      1994 4.41240E+01 3.48650E+00 0.00000E+00
 -1      1995 4.26240E+01 3.48650E+00 0.00000E+00
 -1      1996 4.18740E+01 4.78550E+00 0.00000E+00
 -1      1997 4.71240E+01 3.48650E+00 0.00000E+00
 -1      1998 4.56240E+01 3.48650E+00 0.00000E+00
 -1      1999 4.48740E+01 4.78550E+00 0.00000E+00
 -1      2000 5.01240E+01 3.48650E+00 0.00000E+00
 -1      2001 4.86240E+01 3.48650E+00 0.00000E+00
 -1      2002 4.78740E+01 4.78550E+00 0.00000E+00
 -1      2003 5.31240E+01 3.48650E+00 0.00000E+00
 -1      2004 5.16240E+01 3.48650E+00 0.00000E+00
 -1      2005 5.08740E+01 4.78550E+00 0.00000E+00
 -1      2006 5.61240E+01 3.48650E+00 0.00000E+00
 -1      2007 5.46240E+01 3.48650E+00 0.00000E+00
 -1      2008 5.38740E+01 4.78550E+00 0.00000E+00
 -1      2009 5.91240E+01 3.48650E+00 0.00000E+00
 -1      2010 5.76240E+01 3.48650E+00 0.00000E+00
 -1      2011 5.68740E+01 4.78550E+00 0.00000E+00
 -1      2012 6.21240E+01 3.48650E+00 0.00000E+00
 -1      2013 6.06240E+01 3.48650E+00 0.00000E+00
 -1      2014 5.98740E+01 4.78550E+00 0.00000E+00
 -1      2015 6.51240E+01 3.48650E+00 0.00000E+00
 -1      2016 6.36240E+01 3.48650E+00 0.00000E+00
 -1      2017 6.28740E+01 4.78550E+00 0.00000E+00
 -1      2018 6.81240E+01 3.48650E+00 0.00000E+00
 -1      2019 6.66240E+01 3.48650E+00 0.00000E+00
 -1      2020 6.58740E+01 4.78550E+00 0.00000E+00
 -1      2021 7.11240E+01 3.48650E+00 0.00000E+00
 -1      2022 6.96240E+01 3.48650E+00 0.00000E+00
 -1      2023 6.88740E+01 4.78550E+00 0.00000E+00
 -1      2024 7.41240E+01 3.48650E+00 0.00000E+00
 -1      2025 7.26240E+01 3.48650E+00 0.00000E+00
 -1      2026 7.18740E+01 4.78550E+00 0.00000E+00
 -1      2027 7.71240E+01 3.48650E+00 0.00000E+00
 -1      2028 7.56240E+01 3.48650E+00 0.00000E+00
 -1      2029 7.48740E+01 4.78550E+00 0.00000E+00
 -1      2030 8.01240E+01 3.48650E+00 0.00000E+00
 -1      2031 7.86240E+01 3.48650E+00 0.00000E+00
 -1      2032 7.78740E+01 4.78550E+00 0.00000E+00
 -1      2033 8.31240E+01 3.48650E+00 0.00000E+00
 -1      2034 8.16240E+01 3.48650E+00 0.00000E+00
 -1      2035 8.08740E+01 4.78550E+00 0.00000E+00
 -1      2036 8.61240E+01 3.48650E+00 0.00000E+00
 -1      2037 8.46240E+01 3.48650E+00 0.00000E+00
 -1      2038 8.38740E+01 4.78550E+00 0.00000E+00
 -1      2039 8.91240E+01 3.48650E+00 0.00000E+00
 -1      2040 8.76240E+01 3.48650E+00 0.00000E+00
 -1      2041 8.68740E+01 4.78550E+00 0.00000E+00
 -1      2042 9.21240E+01 3.48650E+00 0.00000E+00
 -1      2043 9.06240E+01 3.48650E+00 0.00000E+00
 -1      2044 8.98740E+01 4.78550E+00 0.00000E+00
 -1      2045 9.51240E+01 3.48650E+00 0.00000E+00
 -1      2046 9.36240E+01 3.48650E+00 0.00000E+00
 -1      2047 9.28740E+01 4.78550E+00 0.00000E+00
 -1      2048 9.81240E+01 3.48650E+00 0.00000E+00
 -1      2049 9.66240E+01 3.48650E+00 0.00000E+00
 -1      2050 9.58740E+01 4.78550E+00 0.00000E+00
 -1      2051 1.01124E+02 3.48650E+00 0.00000E+00
 -1      2052 9.96240E+01 3.48650E+00 0.00000E+00
 -1      2053 9.88740E+01 4.78550E+00 0.00000E+00
 -1      2054 1.04124E+02 3.48650E+00 0.00000E+00
 -1      2055 1.02624E+02 3.48650E+00 0.00000E+00
 -1      2056 1.01874E+02 4.78550E+00 0.00000E+00
 -1      2057 1.07124E+02 3.48650E+00 0.00000E+00
 -1      2058 1.05624E+02 3.48650E+00 0.00000E+00
 -1      2059 1.04874E+02 4.78550E+00 0.00000E+00
 -1      2060 1.10124E+02 3.48650E+00 0.00000E+00
 -1      2061 1.08624E+02 3.48650E+00 0.00000E+00
 -1      2062 1.07874E+02 4.78550E+00 0.00000E+00
 -1      2063 1.13124E+02 3.48650E+00 0.00000E+00
 -1      2064 1.11624E+02 3.48650E+00 0.00000E+00
 -1      2065 1.10874E+02 4.78550E+00 0.00000E+00
 -1      2066 1.16124E+02 3.48650E+00 0.00000E+00
 -1      2067 1.14624E+02 3.48650E+00 0.00000E+00
 -1      2068 1.13874E+02 4.78550E+00 0.00000E+00
 -1      2069 1.19124E+02 3.48650E+00 0.00000E+00
 -1      2070 1.17624E+02 3.48650E+00 0.00000E+00
 -1      2071 1.16874E+02 4.78550E+00 0.00000E+00
 -1      2072 1.22124E+02 3.48650E+00 0.00000E+00
 -1      2073 1.20624E+02 3.48650E+00 0.00000E+00
 -1      2074 1.19874E+02 4.78550E+00 0.00000E+00
 -1      2075 1.25124E+02 3.48650E+00 0.00000E+00
 -1      2076 1.23624E+02 3.48650E+00 0.00000E+00
 -1      2077 1.22874E+02 4.78550E+00 0.00000E+00
 -1      2078 1.28124E+02 3.48650E+00 0.00000E+00
 -1      2079 1.26624E+02 3.48650E+00 0.00000E+00
 -1      2080 1.25874E+02 4.78550E+00 0.00000E+00
 -1      2081 1.31124E+02 3.48650E+00 0.00000E+00
 -1      2082 1.29624E+02 3.48650E+00 0.00000E+00
 -1      2083 1.28874E+02 4.78550E+00 0.00000E+00
 -1      2084 1.34124E+02 3.48650E+00 0.00000E+00
 -1      2085 1.32624E+02 3.48650E+00 0.00000E+00
 -1      2086 1.31874E+02 4.78550E+00 0.00000E+00
 -1      2087 1.37124E+02 3.48650E+00 0.00000E+00
 -1      2088 1.35624E+02 3.48650E+00 0.00000E+00
 -1      2089 1.34874E+02 4.78550E+00 0.00000E+00
 -1      2090 1.40124E+02 3.48650E+00 0.00000E+00
 -1      2091 1.38624E+02 3.48650E+00 0.00000E+00
 -1      2092 1.37874E+02 4.78550E+00 0.00000E+00
 -1      2093 1.43124E+02 3.48650E+00 0.00000E+00
 -1      2094 1.41624E+02 3.48650E+00 0.00000E+00
 -1      2095 1.40874E+02 4.78550E+00 0.00000E+00
 -1      2096 1.45881E+02 3.39637E+00 0.00000E+00
 -1      2097 1.44381E+02 3.39637E+00 0.00000E+00
 -1      2098 1.43631E+02 4.69537E+00 0.00000E+00
 -1      2099 1.46145E+02 4.51512E+00 0.00000E+00
 -1      2100 1.46103E+02 1.25375E+01 0.00000E+00
 -1      2101 1.46103E+02 1.10625E+01 0.00000E+00
 -1      2102 1.46103E+02 9.58750E+00 0.00000E+00
 -1      2103 1.46103E+02 8.11250E+00 0.00000E+00
 -1      2104 1.44804E+02 1.03250E+01 0.00000E+00
 -1      2105 1.46145E+02 5.99013E+00 0.00000E+00
 -1      2106 1.46103E+02 1.54375E+01 0.00000E+00
 -1      2107 1.46103E+02 1.39875E+01 0.00000E+00
 -1      2108 1.44804E+02 1.32500E+01 0.00000E+00
 -1      2109 1.46103E+02 1.83875E+01 0.00000E+00
 -1      2110 1.46103E+02 1.69125E+01 0.00000E+00
 -1      2111 1.44804E+02 1.61750E+01 0.00000E+00
 -1      2112 1.46103E+02 2.13375E+01 0.00000E+00
 -1      2113 1.46103E+02 1.98625E+01 0.00000E+00
 -1      2114 1.44804E+02 1.91250E+01 0.00000E+00
 -1      2115 1.46103E+02 2.42875E+01 0.00000E+00
 -1      2116 1.46103E+02 2.28125E+01 0.00000E+00
 -1      2117 1.44804E+02 2.20750E+01 0.00000E+00
 -1      2118 1.46103E+02 2.72375E+01 0.00000E+00
 -1      2119 1.46103E+02 2.57625E+01 0.00000E+00
 -1      2120 1.44804E+02 2.50250E+01 0.00000E+00
 -1      2121 1.46103E+02 3.01875E+01 0.00000E+00
 -1      2122 1.46103E+02 2.87125E+01 0.00000E+00
 -1      2123 1.44804E+02 2.79750E+01 0.00000E+00
 -1      2124 1.46103E+02 3.30875E+01 0.00000E+00
 -1      2125 1.46103E+02 3.16375E+01 0.00000E+00
 -1      2126 1.44804E+02 3.09000E+01 0.00000E+00
 -1      2127 1.46103E+02 3.60375E+01 0.00000E+00
 -1      2128 1.46103E+02 3.45625E+01 0.00000E+00
 -1      2129 1.44804E+02 3.38250E+01 0.00000E+00
 -1      2130 1.46103E+02 3.89875E+01 0.00000E+00
 -1      2131 1.46103E+02 3.75125E+01 0.00000E+00
 -1      2132 1.44804E+02 3.67750E+01 0.00000E+00
 -1      2133 1.46103E+02 4.19375E+01 0.00000E+00
 -1      2134 1.46103E+02 4.04625E+01 0.00000E+00
 -1      2135 1.44804E+02 3.97250E+01 0.00000E+00
 -1      2136 1.14143E+01 3.29169E+00 0.00000E+00
 -1      2137 9.91425E+00 3.29169E+00 0.00000E+00
 -1      2138 9.74475E+00 4.20106E+00 0.00000E+00
 -1      2139 1.21643E+01 4.59069E+00 0.00000E+00
 -1      2140 4.56030E+01 2.83263E+01 0.00000E+00
 -1      2141 4.59978E+01 2.91092E+01 0.00000E+00
 -1      2142 4.31938E+01 2.55697E+01 0.00000E+00
 -1      2143 4.38256E+01 2.61377E+01 0.00000E+00
 -1      2144 4.66238E+01 3.19895E+01 0.00000E+00
 -1      2145 4.66604E+01 3.28751E+01 0.00000E+00
 -1      2146 4.44224E+01 2.68884E+01 0.00000E+00
 -1      2147 4.49536E+01 2.75470E+01 0.00000E+00
 -1      2148 3.89700E+00 3.74688E+01 0.00000E+00
 -1      2149 3.89700E+00 3.89437E+01 0.00000E+00
 -1      2150 5.19600E+00 3.96813E+01 0.00000E+00
 -1      2151 5.19600E+00 3.67438E+01 0.00000E+00
 -1      2152 4.17337E+01 2.44679E+01 0.00000E+00
 -1      2153 4.24527E+01 2.49781E+01 0.00000E+00
 -1      2154 3.98564E+01 2.38166E+01 0.00000E+00
 -1      2155 4.06919E+01 2.40024E+01 0.00000E+00
 -1      2156 3.82059E+01 2.35567E+01 0.00000E+00
 -1      2157 3.90311E+01 2.36867E+01 0.00000E+00
 -1      2158 3.96078E+01 2.30652E+01 0.00000E+00
 -1      2159 3.62627E+01 2.33941E+01 0.00000E+00
 -1      2160 3.71425E+01 2.33460E+01 0.00000E+00
 -1      2161 3.43791E+01 2.41637E+01 0.00000E+00
 -1      2162 3.51911E+01 2.38149E+01 0.00000E+00
 -1      2163 3.28348E+01 2.50332E+01 0.00000E+00
 -1      2164 3.35605E+01 2.46176E+01 0.00000E+00
 -1      2165 3.13957E+01 2.60626E+01 0.00000E+00
 -1      2166 3.20047E+01 2.55242E+01 0.00000E+00
 -1      2167 3.02883E+01 2.74411E+01 0.00000E+00
 -1      2168 3.07795E+01 2.67900E+01 0.00000E+00
 -1      2169 2.93963E+01 2.89946E+01 0.00000E+00
 -1      2170 2.97538E+01 2.82433E+01 0.00000E+00
 -1      2171 2.89481E+01 3.07633E+01 0.00000E+00
 -1      2172 2.91485E+01 2.99418E+01 0.00000E+00
 -1      2173 2.86260E+01 3.26060E+01 0.00000E+00
 -1      2174 2.86501E+01 3.17387E+01 0.00000E+00
 -1      2175 2.88448E+01 3.44857E+01 0.00000E+00
 -1      2176 2.87235E+01 3.36073E+01 0.00000E+00
 -1      2177 2.95490E+01 3.62741E+01 0.00000E+00
 -1      2178 2.91897E+01 3.55123E+01 0.00000E+00
 -1      2179 3.05077E+01 3.77383E+01 0.00000E+00
 -1      2180 3.00497E+01 3.70673E+01 0.00000E+00
 -1      2181 3.15907E+01 3.91938E+01 0.00000E+00
 -1      2182 3.10115E+01 3.85257E+01 0.00000E+00
 -1      2183 3.33057E+01 4.03244E+01 0.00000E+00
 -1      2184 3.25085E+01 3.98822E+01 0.00000E+00
 -1      2185 3.51053E+01 4.10197E+01 0.00000E+00
 -1      2186 3.42624E+01 4.07718E+01 0.00000E+00
 -1      2187 3.69395E+01 4.12015E+01 0.00000E+00
 -1      2188 3.60903E+01 4.10969E+01 0.00000E+00
 -1      2189 3.87762E+01 4.12997E+01 0.00000E+00
 -1      2190 3.78879E+01 4.13003E+01 0.00000E+00
 -1      2191 4.07459E+01 4.08100E+01 0.00000E+00
 -1      2192 3.99275E+01 4.11522E+01 0.00000E+00
 -1      2193 4.22122E+01 3.99771E+01 0.00000E+00
 -1      2194 4.14790E+01 4.03936E+01 0.00000E+00
 -1      2195 4.13684E+01 4.12785E+01 0.00000E+00
 -1      2196 4.37477E+01 3.87486E+01 0.00000E+00
 -1      2197 4.31035E+01 3.93214E+01 0.00000E+00
 -1      2198 4.49945E+01 3.73806E+01 0.00000E+00
 -1      2199 4.44867E+01 3.80652E+01 0.00000E+00
 -1      2200 4.58219E+01 3.57643E+01 0.00000E+00
 -1      2201 4.54341E+01 3.65170E+01 0.00000E+00
 -1      2202 4.66576E+01 3.40256E+01 0.00000E+00
 -1      2203 4.64269E+01 3.48857E+01 0.00000E+00
 -1      2204 4.63375E+01 3.02580E+01 0.00000E+00
 -1      2205 4.64806E+01 3.11238E+01 0.00000E+00
 -1      2206 4.73139E+01 3.15329E+01 0.00000E+00
 -1      2207 1.45788E+02 4.48835E+01 0.00000E+00
 -1      2208 4.45957E+01 2.60601E+01 0.00000E+00
 -1      2209 6.42300E+00 4.57510E+01 0.00000E+00
 -1      2210 4.58419E+01 2.75901E+01 0.00000E+00
 -1      2211 4.32579E+01 2.47178E+01 0.00000E+00
 -1      2212 7.17300E+00 4.44520E+01 0.00000E+00
 -1      2213 1.44846E+02 6.72762E+00 0.00000E+00
 -1      2214 1.45701E+02 4.37395E+01 0.00000E+00
 -1      2215 4.68311E+01 2.95182E+01 0.00000E+00
 -1      2216 4.74543E+01 3.35491E+01 0.00000E+00
 -1      2217 4.68464E+01 3.55781E+01 0.00000E+00
 -1      2218 4.58017E+01 3.73203E+01 0.00000E+00
 -1      2219 4.29928E+01 4.02064E+01 0.00000E+00
 -1      2220 3.94839E+01 4.18425E+01 0.00000E+00
 -1      2221 3.73841E+01 4.18912E+01 0.00000E+00
 -1      2222 3.54506E+01 4.17153E+01 0.00000E+00
 -1      2223 3.35088E+01 4.11907E+01 0.00000E+00
 -1      2224 3.16342E+01 4.00550E+01 0.00000E+00
 -1      2225 3.02126E+01 3.85792E+01 0.00000E+00
 -1      2226 2.92081E+01 3.69986E+01 0.00000E+00
 -1      2227 2.83625E+01 3.51789E+01 0.00000E+00
 -1      2228 2.79202E+01 3.31510E+01 0.00000E+00
 -1      2229 2.81207E+01 3.11743E+01 0.00000E+00
 -1      2230 2.86664E+01 2.92517E+01 0.00000E+00
 -1      2231 2.94486E+01 2.75022E+01 0.00000E+00
 -1      2232 3.05993E+01 2.59725E+01 0.00000E+00
 -1      2233 3.20455E+01 2.47540E+01 0.00000E+00
 -1      2234 3.36941E+01 2.38092E+01 0.00000E+00
 -1      2235 3.77192E+01 2.27245E+01 0.00000E+00
 -1      2236 4.14749E+01 2.36606E+01 0.00000E+00
 -1      2237 3.55843E+01 2.29345E+01 0.00000E+00
 -1      2238 4.46231E+01 3.88673E+01 0.00000E+00
 -1      2239 1.44402E+02 4.30020E+01 0.00000E+00
 -1      2240 6.49500E+00 3.01125E+01 0.00000E+00
 -1      2241 6.49500E+00 3.15875E+01 0.00000E+00
 -1      2242 6.49500E+00 3.30625E+01 0.00000E+00
 -1      2243 6.49500E+00 3.45375E+01 0.00000E+00
 -1      2244 7.79400E+00 3.23250E+01 0.00000E+00
 -1      2245 6.49500E+00 2.42125E+01 0.00000E+00
 -1      2246 6.49500E+00 2.56875E+01 0.00000E+00
 -1      2247 6.49500E+00 2.12625E+01 0.00000E+00
 -1      2248 6.49500E+00 2.27375E+01 0.00000E+00
 -1      2249 7.79400E+00 2.34750E+01 0.00000E+00
 -1      2250 6.49500E+00 1.83625E+01 0.00000E+00
 -1      2251 6.49500E+00 1.98125E+01 0.00000E+00
 -1      2252 7.79400E+00 2.05500E+01 0.00000E+00
 -1      2253 6.49500E+00 1.54125E+01 0.00000E+00
 -1      2254 6.49500E+00 1.68875E+01 0.00000E+00
 -1      2255 7.79400E+00 1.76250E+01 0.00000E+00
 -1      2256 6.49500E+00 1.24625E+01 0.00000E+00
 -1      2257 6.49500E+00 1.39375E+01 0.00000E+00
 -1      2258 7.79400E+00 1.46750E+01 0.00000E+00
 -1      2259 6.49500E+00 9.51250E+00 0.00000E+00
 -1      2260 6.49500E+00 1.09875E+01 0.00000E+00
 -1      2261 7.79400E+00 1.17250E+01 0.00000E+00
 -1      2262 6.49500E+00 6.56250E+00 0.00000E+00
 -1      2263 6.49500E+00 8.03750E+00 0.00000E+00
 -1      2264 7.79400E+00 8.77500E+00 0.00000E+00
 -1      2265 6.84975E+00 4.82969E+00 0.00000E+00
 -1      2266 6.68025E+00 5.73906E+00 0.00000E+00
 -1      2267 7.97925E+00 6.47656E+00 0.00000E+00
 -1      2268 8.34975E+00 4.82969E+00 0.00000E+00
 -1      2269 9.90000E+00 4.35050E+01 0.00000E+00
 -1      2270 1.14000E+01 4.35050E+01 0.00000E+00
 -1      2271 4.60794E+01 2.67319E+01 0.00000E+00
 -1      2272 4.67288E+01 2.75112E+01 0.00000E+00
 -1      2273 4.48860E+01 2.52305E+01 0.00000E+00
 -1      2274 4.54827E+01 2.59812E+01 0.00000E+00
 -1      2275 4.63696E+01 2.59023E+01 0.00000E+00
 -1      2276 1.29000E+01 4.35050E+01 0.00000E+00
 -1      2277 1.44000E+01 4.35050E+01 0.00000E+00
 -1      2278 1.21500E+01 4.22060E+01 0.00000E+00
 -1      2279 1.59000E+01 4.35050E+01 0.00000E+00
 -1      2280 1.74000E+01 4.35050E+01 0.00000E+00
 -1      2281 1.51500E+01 4.22060E+01 0.00000E+00
 -1      2282 1.89000E+01 4.35050E+01 0.00000E+00
 -1      2283 2.04000E+01 4.35050E+01 0.00000E+00
 -1      2284 1.81500E+01 4.22060E+01 0.00000E+00
 -1      2285 2.19000E+01 4.35050E+01 0.00000E+00
 -1      2286 2.34000E+01 4.35050E+01 0.00000E+00
 -1      2287 2.11500E+01 4.22060E+01 0.00000E+00
 -1      2288 2.49000E+01 4.35050E+01 0.00000E+00
 -1      2289 2.64000E+01 4.35050E+01 0.00000E+00
 -1      2290 2.41500E+01 4.22060E+01 0.00000E+00
 -1      2291 2.79000E+01 4.35050E+01 0.00000E+00
 -1      2292 2.94000E+01 4.35050E+01 0.00000E+00
 -1      2293 2.71500E+01 4.22060E+01 0.00000E+00
 -1      2294 3.09000E+01 4.37789E+01 0.00000E+00
 -1      2295 3.24000E+01 4.37789E+01 0.00000E+00
 -1      2296 3.38625E+01 4.39464E+01 0.00000E+00
 -1      2297 3.52875E+01 4.39464E+01 0.00000E+00
 -1      2298 4.27500E+01 4.37789E+01 0.00000E+00
 -1      2299 4.42500E+01 4.37789E+01 0.00000E+00
 -1      2300 4.57500E+01 4.35050E+01 0.00000E+00
 -1      2301 4.72500E+01 4.35050E+01 0.00000E+00
 -1      2302 4.87500E+01 4.35050E+01 0.00000E+00
 -1      2303 5.02500E+01 4.35050E+01 0.00000E+00
 -1      2304 4.80000E+01 4.22060E+01 0.00000E+00
 -1      2305 5.17500E+01 4.35050E+01 0.00000E+00
 -1      2306 5.32500E+01 4.35050E+01 0.00000E+00
 -1      2307 5.10000E+01 4.22060E+01 0.00000E+00
 -1      2308 5.47500E+01 4.35050E+01 0.00000E+00
 -1      2309 5.62500E+01 4.35050E+01 0.00000E+00
 -1      2310 5.40000E+01 4.22060E+01 0.00000E+00
 -1      2311 5.77500E+01 4.35050E+01 0.00000E+00
 -1      2312 5.92500E+01 4.35050E+01 0.00000E+00
 -1      2313 5.70000E+01 4.22060E+01 0.00000E+00
 -1      2314 6.07500E+01 4.35050E+01 0.00000E+00
 -1      2315 6.22500E+01 4.35050E+01 0.00000E+00
 -1      2316 6.00000E+01 4.22060E+01 0.00000E+00
 -1      2317 6.37500E+01 4.35050E+01 0.00000E+00
 -1      2318 6.52500E+01 4.35050E+01 0.00000E+00
 -1      2319 6.30000E+01 4.22060E+01 0.00000E+00
 -1      2320 6.67500E+01 4.35050E+01 0.00000E+00
 -1      2321 6.82500E+01 4.35050E+01 0.00000E+00
 -1      2322 6.60000E+01 4.22060E+01 0.00000E+00
 -1      2323 6.97500E+01 4.35050E+01 0.00000E+00
 -1      2324 7.12500E+01 4.35050E+01 0.00000E+00
 -1      2325 6.90000E+01 4.22060E+01 0.00000E+00
 -1      2326 7.27500E+01 4.35050E+01 0.00000E+00
 -1      2327 7.42500E+01 4.35050E+01 0.00000E+00
 -1      2328 7.20000E+01 4.22060E+01 0.00000E+00
 -1      2329 7.57500E+01 4.35050E+01 0.00000E+00
 -1      2330 7.72500E+01 4.35050E+01 0.00000E+00
 -1      2331 7.50000E+01 4.22060E+01 0.00000E+00
 -1      2332 7.87500E+01 4.35050E+01 0.00000E+00
 -1      2333 8.02500E+01 4.35050E+01 0.00000E+00
 -1      2334 7.80000E+01 4.22060E+01 0.00000E+00
 -1      2335 8.17500E+01 4.35050E+01 0.00000E+00
 -1      2336 8.32500E+01 4.35050E+01 0.00000E+00
 -1      2337 8.10000E+01 4.22060E+01 0.00000E+00
 -1      2338 8.47500E+01 4.35050E+01 0.00000E+00
 -1      2339 8.62500E+01 4.35050E+01 0.00000E+00
 -1      2340 8.40000E+01 4.22060E+01 0.00000E+00
 -1      2341 8.77500E+01 4.35050E+01 0.00000E+00
 -1      2342 8.92500E+01 4.35050E+01 0.00000E+00
 -1      2343 8.70000E+01 4.22060E+01 0.00000E+00
 -1      2344 9.07500E+01 4.35050E+01 0.00000E+00
 -1      2345 9.22500E+01 4.35050E+01 0.00000E+00
 -1      2346 9.00000E+01 4.22060E+01 0.00000E+00
 -1      2347 9.37500E+01 4.35050E+01 0.00000E+00
 -1      2348 9.52500E+01 4.35050E+01 0.00000E+00
 -1      2349 9.30000E+01 4.22060E+01 0.00000E+00
 -1      2350 9.67500E+01 4.35050E+01 0.00000E+00
 -1      2351 9.82500E+01 4.35050E+01 0.00000E+00
 -1      2352 9.60000E+01 4.22060E+01 0.00000E+00
 -1      2353 9.97500E+01 4.35050E+01 0.00000E+00
 -1      2354 1.01250E+02 4.35050E+01 0.00000E+00
 -1      2355 9.90000E+01 4.22060E+01 0.00000E+00
 -1      2356 1.02750E+02 4.35050E+01 0.00000E+00
 -1      2357 1.04250E+02 4.35050E+01 0.00000E+00
 -1      2358 1.02000E+02 4.22060E+01 0.00000E+00
 -1      2359 1.05750E+02 4.35050E+01 0.00000E+00
 -1      2360 1.07250E+02 4.35050E+01 0.00000E+00
 -1      2361 1.05000E+02 4.22060E+01 0.00000E+00
 -1      2362 1.08750E+02 4.35050E+01 0.00000E+00
 -1      2363 1.10250E+02 4.35050E+01 0.00000E+00
 -1      2364 1.08000E+02 4.22060E+01 0.00000E+00
 -1      2365 1.11750E+02 4.35050E+01 0.00000E+00
 -1      2366 1.13250E+02 4.35050E+01 0.00000E+00
 -1      2367 1.11000E+02 4.22060E+01 0.00000E+00
 -1      2368 1.14750E+02 4.35050E+01 0.00000E+00
 -1      2369 1.16250E+02 4.35050E+01 0.00000E+00
 -1      2370 1.14000E+02 4.22060E+01 0.00000E+00
 -1      2371 1.17750E+02 4.35050E+01 0.00000E+00
 -1      2372 1.19250E+02 4.35050E+01 0.00000E+00
 -1      2373 1.17000E+02 4.22060E+01 0.00000E+00
 -1      2374 1.20750E+02 4.35050E+01 0.00000E+00
 -1      2375 1.22250E+02 4.35050E+01 0.00000E+00
 -1      2376 1.20000E+02 4.22060E+01 0.00000E+00
 -1      2377 1.23750E+02 4.35050E+01 0.00000E+00
 -1      2378 1.25250E+02 4.35050E+01 0.00000E+00
 -1      2379 1.23000E+02 4.22060E+01 0.00000E+00
 -1      2380 1.26750E+02 4.35050E+01 0.00000E+00
 -1      2381 1.28250E+02 4.35050E+01 0.00000E+00
 -1      2382 1.26000E+02 4.22060E+01 0.00000E+00
 -1      2383 1.29750E+02 4.35050E+01 0.00000E+00
 -1      2384 1.31250E+02 4.35050E+01 0.00000E+00
 -1      2385 1.29000E+02 4.22060E+01 0.00000E+00
 -1      2386 1.32750E+02 4.35050E+01 0.00000E+00
 -1      2387 1.34250E+02 4.35050E+01 0.00000E+00
 -1      2388 1.32000E+02 4.22060E+01 0.00000E+00
 -1      2389 1.35750E+02 4.35050E+01 0.00000E+00
 -1      2390 1.37250E+02 4.35050E+01 0.00000E+00
 -1      2391 1.35000E+02 4.22060E+01 0.00000E+00
 -1      2392 1.38750E+02 4.35050E+01 0.00000E+00
 -1      2393 1.40250E+02 4.35050E+01 0.00000E+00
 -1      2394 1.38000E+02 4.22060E+01 0.00000E+00
 -1      2395 1.41576E+02 4.32535E+01 0.00000E+00
 -1      2396 1.43076E+02 4.32535E+01 0.00000E+00
 -1      2397 1.43478E+02 4.14515E+01 0.00000E+00
 -1      2398 1.40826E+02 4.19545E+01 0.00000E+00
 -1      2399 2.16240E+01 6.08450E+00 0.00000E+00
 -1      2400 2.01240E+01 6.08450E+00 0.00000E+00
 -1      2401 1.86240E+01 6.08450E+00 0.00000E+00
 -1      2402 1.71240E+01 6.08450E+00 0.00000E+00
 -1      2403 1.93740E+01 7.38350E+00 0.00000E+00
 -1      2404 1.56240E+01 6.08450E+00 0.00000E+00
 -1      2405 1.41240E+01 6.08450E+00 0.00000E+00
 -1      2406 1.63740E+01 7.38350E+00 0.00000E+00
 -1      2407 2.46240E+01 6.08450E+00 0.00000E+00
 -1      2408 2.31240E+01 6.08450E+00 0.00000E+00
 -1      2409 2.23740E+01 7.38350E+00 0.00000E+00
 -1      2410 2.76240E+01 6.08450E+00 0.00000E+00
 -1      2411 2.61240E+01 6.08450E+00 0.00000E+00
 -1      2412 2.53740E+01 7.38350E+00 0.00000E+00
 -1      2413 3.06240E+01 6.08450E+00 0.00000E+00
 -1      2414 2.91240E+01 6.08450E+00 0.00000E+00
 -1      2415 2.83740E+01 7.38350E+00 0.00000E+00
 -1      2416 3.36240E+01 6.08450E+00 0.00000E+00
 -1      2417 3.21240E+01 6.08450E+00 0.00000E+00
 -1      2418 3.13740E+01 7.38350E+00 0.00000E+00
 -1      2419 3.66240E+01 6.08450E+00 0.00000E+00
 -1      2420 3.51240E+01 6.08450E+00 0.00000E+00
 -1      2421 3.43740E+01 7.38350E+00 0.00000E+00
 -1      2422 3.96240E+01 6.08450E+00 0.00000E+00
 -1      2423 3.81240E+01 6.08450E+00 0.00000E+00
 -1      2424 3.73740E+01 7.38350E+00 0.00000E+00
 -1      2425 4.26240E+01 6.08450E+00 0.00000E+00
 -1      2426 4.11240E+01 6.08450E+00 0.00000E+00
 -1      2427 4.03740E+01 7.38350E+00 0.00000E+00
 -1      2428 4.56240E+01 6.08450E+00 0.00000E+00
 -1      2429 4.41240E+01 6.08450E+00 0.00000E+00
 -1      2430 4.33740E+01 7.38350E+00 0.00000E+00
 -1      2431 4.86240E+01 6.08450E+00 0.00000E+00
 -1      2432 4.71240E+01 6.08450E+00 0.00000E+00
 -1      2433 4.63740E+01 7.38350E+00 0.00000E+00
 -1      2434 5.16240E+01 6.08450E+00 0.00000E+00
 -1      2435 5.01240E+01 6.08450E+00 0.00000E+00
 -1      2436 4.93740E+01 7.38350E+00 0.00000E+00
 -1      2437 5.46240E+01 6.08450E+00 0.00000E+00
 -1      2438 5.31240E+01 6.08450E+00 0.00000E+00
 -1      2439 5.23740E+01 7.38350E+00 0.00000E+00
 -1      2440 5.76240E+01 6.08450E+00 0.00000E+00
 -1      2441 5.61240E+01 6.08450E+00 0.00000E+00
 -1      2442 5.53740E+01 7.38350E+00 0.00000E+00
 -1      2443 6.06240E+01 6.08450E+00 0.00000E+00
 -1      2444 5.91240E+01 6.08450E+00 0.00000E+00
 -1      2445 5.83740E+01 7.38350E+00 0.00000E+00
 -1      2446 6.36240E+01 6.08450E+00 0.00000E+00
 -1      2447 6.21240E+01 6.08450E+00 0.00000E+00
 -1      2448 6.13740E+01 7.38350E+00 0.00000E+00
 -1      2449 6.66240E+01 6.08450E+00 0.00000E+00
 -1      2450 6.51240E+01 6.08450E+00 0.00000E+00
 -1      2451 6.43740E+01 7.38350E+00 0.00000E+00
 -1      2452 6.96240E+01 6.08450E+00 0.00000E+00
 -1      2453 6.81240E+01 6.08450E+00 0.00000E+00
 -1      2454 6.73740E+01 7.38350E+00 0.00000E+00
 -1      2455 7.26240E+01 6.08450E+00 0.00000E+00
 -1      2456 7.11240E+01 6.08450E+00 0.00000E+00
 -1      2457 7.03740E+01 7.38350E+00 0.00000E+00
 -1      2458 7.56240E+01 6.08450E+00 0.00000E+00
 -1      2459 7.41240E+01 6.08450E+00 0.00000E+00
 -1      2460 7.33740E+01 7.38350E+00 0.00000E+00
 -1      2461 7.86240E+01 6.08450E+00 0.00000E+00
 -1      2462 7.71240E+01 6.08450E+00 0.00000E+00
 -1      2463 7.63740E+01 7.38350E+00 0.00000E+00
 -1      2464 8.16240E+01 6.08450E+00 0.00000E+00
 -1      2465 8.01240E+01 6.08450E+00 0.00000E+00
 -1      2466 7.93740E+01 7.38350E+00 0.00000E+00
 -1      2467 8.46240E+01 6.08450E+00 0.00000E+00
 -1      2468 8.31240E+01 6.08450E+00 0.00000E+00
 -1      2469 8.23740E+01 7.38350E+00 0.00000E+00
 -1      2470 8.76240E+01 6.08450E+00 0.00000E+00
 -1      2471 8.61240E+01 6.08450E+00 0.00000E+00
 -1      2472 8.53740E+01 7.38350E+00 0.00000E+00
 -1      2473 9.06240E+01 6.08450E+00 0.00000E+00
 -1      2474 8.91240E+01 6.08450E+00 0.00000E+00
 -1      2475 8.83740E+01 7.38350E+00 0.00000E+00
 -1      2476 9.36240E+01 6.08450E+00 0.00000E+00
 -1      2477 9.21240E+01 6.08450E+00 0.00000E+00
 -1      2478 9.13740E+01 7.38350E+00 0.00000E+00
 -1      2479 9.66240E+01 6.08450E+00 0.00000E+00
 -1      2480 9.51240E+01 6.08450E+00 0.00000E+00
 -1      2481 9.43740E+01 7.38350E+00 0.00000E+00
 -1      2482 9.96240E+01 6.08450E+00 0.00000E+00
 -1      2483 9.81240E+01 6.08450E+00 0.00000E+00
 -1      2484 9.73740E+01 7.38350E+00 0.00000E+00
 -1      2485 1.02624E+02 6.08450E+00 0.00000E+00
 -1      2486 1.01124E+02 6.08450E+00 0.00000E+00
 -1      2487 1.00374E+02 7.38350E+00 0.00000E+00
 -1      2488 1.05624E+02 6.08450E+00 0.00000E+00
 -1      2489 1.04124E+02 6.08450E+00 0.00000E+00
 -1      2490 1.03374E+02 7.38350E+00 0.00000E+00
 -1      2491 1.08624E+02 6.08450E+00 0.00000E+00
 -1      2492 1.07124E+02 6.08450E+00 0.00000E+00
 -1      2493 1.06374E+02 7.38350E+00 0.00000E+00
 -1      2494 1.11624E+02 6.08450E+00 0.00000E+00
 -1      2495 1.10124E+02 6.08450E+00 0.00000E+00
 -1      2496 1.09374E+02 7.38350E+00 0.00000E+00
 -1      2497 1.14624E+02 6.08450E+00 0.00000E+00
 -1      2498 1.13124E+02 6.08450E+00 0.00000E+00
 -1      2499 1.12374E+02 7.38350E+00 0.00000E+00
 -1      2500 1.17624E+02 6.08450E+00 0.00000E+00
 -1      2501 1.16124E+02 6.08450E+00 0.00000E+00
 -1      2502 1.15374E+02 7.38350E+00 0.00000E+00
 -1      2503 1.20624E+02 6.08450E+00 0.00000E+00
 -1      2504 1.19124E+02 6.08450E+00 0.00000E+00
 -1      2505 1.18374E+02 7.38350E+00 0.00000E+00
 -1      2506 1.23624E+02 6.08450E+00 0.00000E+00
 -1      2507 1.22124E+02 6.08450E+00 0.00000E+00
 -1      2508 1.21374E+02 7.38350E+00 0.00000E+00
 -1      2509 1.26624E+02 6.08450E+00 0.00000E+00
 -1      2510 1.25124E+02 6.08450E+00 0.00000E+00
 -1      2511 1.24374E+02 7.38350E+00 0.00000E+00
 -1      2512 1.29624E+02 6.08450E+00 0.00000E+00
 -1      2513 1.28124E+02 6.08450E+00 0.00000E+00
 -1      2514 1.27374E+02 7.38350E+00 0.00000E+00
 -1      2515 1.32624E+02 6.08450E+00 0.00000E+00
 -1      2516 1.31124E+02 6.08450E+00 0.00000E+00
 -1      2517 1.30374E+02 7.38350E+00 0.00000E+00
 -1      2518 1.35624E+02 6.08450E+00 0.00000E+00
 -1      2519 1.34124E+02 6.08450E+00 0.00000E+00
 -1      2520 1.33374E+02 7.38350E+00 0.00000E+00
 -1      2521 1.38624E+02 6.08450E+00 0.00000E+00
 -1      2522 1.37124E+02 6.08450E+00 0.00000E+00
 -1      2523 1.36374E+02 7.38350E+00 0.00000E+00
 -1      2524 1.41624E+02 6.08450E+00 0.00000E+00
 -1      2525 1.40124E+02 6.08450E+00 0.00000E+00
 -1      2526 1.39374E+02 7.38350E+00 0.00000E+00
 -1      2527 1.43589E+02 6.81775E+00 0.00000E+00
 -1      2528 1.43505E+02 1.69125E+01 0.00000E+00
 -1      2529 1.43505E+02 1.54375E+01 0.00000E+00
 -1      2530 1.43505E+02 1.39875E+01 0.00000E+00
 -1      2531 1.43505E+02 1.25375E+01 0.00000E+00
 -1      2532 1.42206E+02 1.47250E+01 0.00000E+00
 -1      2533 1.43505E+02 1.10625E+01 0.00000E+00
 -1      2534 1.43505E+02 9.58750E+00 0.00000E+00
 -1      2535 1.42206E+02 1.18000E+01 0.00000E+00
 -1      2536 4.75639E+01 2.86769E+01 0.00000E+00
 -1      2537 4.79036E+01 2.98257E+01 0.00000E+00
 -1      2538 1.43505E+02 1.98625E+01 0.00000E+00
 -1      2539 1.43505E+02 1.83875E+01 0.00000E+00
 -1      2540 1.42206E+02 1.76500E+01 0.00000E+00
 -1      2541 1.43505E+02 2.28125E+01 0.00000E+00
 -1      2542 1.43505E+02 2.13375E+01 0.00000E+00
 -1      2543 1.42206E+02 2.06000E+01 0.00000E+00
 -1      2544 1.43505E+02 2.57625E+01 0.00000E+00
 -1      2545 1.43505E+02 2.42875E+01 0.00000E+00
 -1      2546 1.42206E+02 2.35500E+01 0.00000E+00
 -1      2547 1.43505E+02 2.87125E+01 0.00000E+00
 -1      2548 1.43505E+02 2.72375E+01 0.00000E+00
 -1      2549 1.42206E+02 2.65000E+01 0.00000E+00
 -1      2550 1.43505E+02 3.16125E+01 0.00000E+00
 -1      2551 1.43505E+02 3.01625E+01 0.00000E+00
 -1      2552 1.42206E+02 2.94250E+01 0.00000E+00
 -1      2553 1.43505E+02 3.45625E+01 0.00000E+00
 -1      2554 1.43505E+02 3.30875E+01 0.00000E+00
 -1      2555 1.42206E+02 3.23500E+01 0.00000E+00
 -1      2556 1.43505E+02 3.75125E+01 0.00000E+00
 -1      2557 1.43505E+02 3.60375E+01 0.00000E+00
 -1      2558 1.42206E+02 3.53000E+01 0.00000E+00
 -1      2559 1.43492E+02 4.02195E+01 0.00000E+00
 -1      2560 1.43492E+02 3.87445E+01 0.00000E+00
 -1      2561 1.42193E+02 3.80070E+01 0.00000E+00
 -1      2562 1.42165E+02 4.04710E+01 0.00000E+00
 -1      2563 6.55950E+00 4.28890E+01 0.00000E+00
 -1      2564 8.53650E+00 4.32410E+01 0.00000E+00
 -1      2565 9.28650E+00 4.19420E+01 0.00000E+00
 -1      2566 6.55950E+00 4.14140E+01 0.00000E+00
 -1      2567 4.33961E+01 2.37845E+01 0.00000E+00
 -1      2568 4.41373E+01 2.43761E+01 0.00000E+00
 -1      2569 4.84808E+01 3.29763E+01 0.00000E+00
 -1      2570 4.84780E+01 3.41268E+01 0.00000E+00
 -1      2571 4.79242E+01 3.56727E+01 0.00000E+00
 -1      2572 4.73191E+01 3.65513E+01 0.00000E+00
 -1      2573 4.01632E+01 4.25778E+01 0.00000E+00
 -1      2574 3.90119E+01 4.27253E+01 0.00000E+00
 -1      2575 6.49500E+00 2.71625E+01 0.00000E+00
 -1      2576 6.49500E+00 2.86375E+01 0.00000E+00
 -1      2577 7.79400E+00 2.93750E+01 0.00000E+00
 -1      2578 7.79400E+00 2.64250E+01 0.00000E+00
 -1      2579 4.12867E+01 2.26831E+01 0.00000E+00
 -1      2580 4.23285E+01 2.31487E+01 0.00000E+00
 -1      2581 3.47657E+01 2.24247E+01 0.00000E+00
 -1      2582 3.58372E+01 2.20039E+01 0.00000E+00
 -1      2583 3.93285E+01 2.21531E+01 0.00000E+00
 -1      2584 4.01538E+01 2.22830E+01 0.00000E+00
 -1      2585 4.55748E+01 3.91552E+01 0.00000E+00
 -1      2586 4.48358E+01 3.98386E+01 0.00000E+00
 -1      2587 3.72018E+01 2.17316E+01 0.00000E+00
 -1      2588 3.82652E+01 2.19423E+01 0.00000E+00
 -1      2589 3.88111E+01 2.11602E+01 0.00000E+00
 -1      2590 3.28894E+01 2.33227E+01 0.00000E+00
 -1      2591 3.37080E+01 2.28689E+01 0.00000E+00
 -1      2592 3.12293E+01 2.43048E+01 0.00000E+00
 -1      2593 3.20593E+01 2.38137E+01 0.00000E+00
 -1      2594 3.20732E+01 2.28735E+01 0.00000E+00
 -1      2595 2.97008E+01 2.58361E+01 0.00000E+00
 -1      2596 3.03170E+01 2.51087E+01 0.00000E+00
 -1      2597 2.84677E+01 2.74279E+01 0.00000E+00
 -1      2598 2.90022E+01 2.66256E+01 0.00000E+00
 -1      2599 2.78345E+01 2.95401E+01 0.00000E+00
 -1      2600 2.80822E+01 2.85929E+01 0.00000E+00
 -1      2601 2.72385E+01 3.14909E+01 0.00000E+00
 -1      2602 2.75365E+01 3.05155E+01 0.00000E+00
 -1      2603 2.69523E+01 2.98567E+01 0.00000E+00
 -1      2604 2.71154E+01 3.37348E+01 0.00000E+00
 -1      2605 2.70179E+01 3.27335E+01 0.00000E+00
 -1      2606 2.78015E+01 3.59386E+01 0.00000E+00
 -1      2607 2.74566E+01 3.49120E+01 0.00000E+00
 -1      2608 2.88396E+01 3.77859E+01 0.00000E+00
 -1      2609 2.83389E+01 3.69927E+01 0.00000E+00
 -1      2610 2.98472E+01 3.93607E+01 0.00000E+00
 -1      2611 2.93434E+01 3.85733E+01 0.00000E+00
 -1      2612 2.84742E+01 3.85674E+01 0.00000E+00
 -1      2613 3.16828E+01 4.07374E+01 0.00000E+00
 -1      2614 3.07650E+01 4.00490E+01 0.00000E+00
 -1      2615 2.98958E+01 4.00431E+01 0.00000E+00
 -1      2616 3.55053E+01 4.24407E+01 0.00000E+00
 -1      2617 3.45203E+01 4.23635E+01 0.00000E+00
 -1      2618 3.77782E+01 4.27102E+01 0.00000E+00
 -1      2619 3.68297E+01 4.26114E+01 0.00000E+00
 -1      2620 4.39466E+01 4.05693E+01 0.00000E+00
 -1      2621 4.30553E+01 4.12250E+01 0.00000E+00
 -1      2622 4.68795E+01 3.74149E+01 0.00000E+00
 -1      2623 4.64399E+01 3.82785E+01 0.00000E+00
 -1      2624 4.79573E+01 3.75096E+01 0.00000E+00
 -1      2625 4.80884E+01 3.09601E+01 0.00000E+00
 -1      2626 4.82316E+01 3.18259E+01 0.00000E+00
 -1      2627 1.42839E+02 8.11675E+00 0.00000E+00
 -1      2628 7.79400E+00 3.52687E+01 0.00000E+00
 -1      2629 6.49500E+00 3.60062E+01 0.00000E+00
 -1      2630 6.49500E+00 3.74750E+01 0.00000E+00
 -1      2631 4.32080E+01 2.28070E+01 0.00000E+00
 -1      2632 9.55950E+00 5.02450E+00 0.00000E+00
 -1      2633 9.37425E+00 5.84794E+00 0.00000E+00
 -1      2634 1.07692E+01 5.21931E+00 0.00000E+00
 -1      2635 3.31125E+01 4.29213E+01 0.00000E+00
 -1      2636 4.80389E+01 2.69605E+01 0.00000E+00
 -1      2637 4.78014E+01 2.78187E+01 0.00000E+00
 -1      2638 4.88740E+01 2.81261E+01 0.00000E+00
 -1      2639 3.01500E+01 4.24799E+01 0.00000E+00
 -1      2640 3.58994E+01 4.32596E+01 0.00000E+00
 -1      2641 3.66119E+01 4.41172E+01 0.00000E+00
 -1      2642 4.50000E+01 4.24799E+01 0.00000E+00
 -1      2643 3.81119E+01 4.41172E+01 0.00000E+00
 -1      2644 3.93456E+01 4.41323E+01 0.00000E+00
 -1      2645 4.08456E+01 4.41323E+01 0.00000E+00
 -1      2646 4.88213E+01 3.01187E+01 0.00000E+00
 -1      2647 4.10074E+01 2.17711E+01 0.00000E+00
 -1      2648 6.55950E+00 3.99453E+01 0.00000E+00
 -1      2649 4.89507E+01 3.51000E+01 0.00000E+00
 -1      2650 4.94235E+01 3.60732E+01 0.00000E+00
 -1      2651 4.99772E+01 3.45272E+01 0.00000E+00
 -1      2652 1.30515E+01 5.74931E+00 0.00000E+00
 -1      2653 1.18418E+01 5.55450E+00 0.00000E+00
 -1      2654 1.16565E+01 6.37794E+00 0.00000E+00
 -1      2655 1.38015E+01 7.04831E+00 0.00000E+00
 -1      2656 4.92553E+01 3.24036E+01 0.00000E+00
 -1      2657 1.41540E+02 8.85425E+00 0.00000E+00
 -1      2658 3.84575E+01 4.34455E+01 0.00000E+00
 -1      2659 4.48984E+01 4.08572E+01 0.00000E+00
 -1      2660 2.74330E+01 3.67259E+01 0.00000E+00
 -1      2661 2.64337E+01 3.20746E+01 0.00000E+00
 -1      2662 2.76358E+01 2.77163E+01 0.00000E+00
 -1      2663 3.03308E+01 2.41684E+01 0.00000E+00
 -1      2664 3.63832E+01 2.12218E+01 0.00000E+00
 -1      2665 3.69292E+01 2.04396E+01 0.00000E+00
 -1      2666 3.55646E+01 2.07119E+01 0.00000E+00
 -1      2667 4.66526E+01 3.92498E+01 0.00000E+00
 -1      2668 3.39609E+01 2.19383E+01 0.00000E+00
 -1      2669 4.15956E+01 4.31072E+01 0.00000E+00
 -1      2670 4.50242E+01 2.42972E+01 0.00000E+00
 -1      2671 2.87199E+01 2.57618E+01 0.00000E+00
 -1      2672 2.65543E+01 3.44945E+01 0.00000E+00
 -1      2673 3.21010E+01 4.17485E+01 0.00000E+00
 -1      2674 3.12318E+01 4.17426E+01 0.00000E+00
 -1      2675 3.30578E+01 4.21959E+01 0.00000E+00
 -1      2676 4.28008E+01 4.18079E+01 0.00000E+00
 -1      2677 4.20676E+01 4.22244E+01 0.00000E+00
 -1      2678 9.09300E+00 1.98250E+01 0.00000E+00
 -1      2679 9.09300E+00 2.12750E+01 0.00000E+00
 -1      2680 9.09300E+00 2.27500E+01 0.00000E+00
 -1      2681 9.09300E+00 2.42250E+01 0.00000E+00
 -1      2682 1.03920E+01 2.20250E+01 0.00000E+00
 -1      2683 9.09300E+00 1.39375E+01 0.00000E+00
 -1      2684 9.09300E+00 1.54125E+01 0.00000E+00
 -1      2685 9.09300E+00 1.09875E+01 0.00000E+00
 -1      2686 9.09300E+00 1.24625E+01 0.00000E+00
 -1      2687 1.03920E+01 1.32000E+01 0.00000E+00
 -1      2688 9.18900E+00 6.67137E+00 0.00000E+00
 -1      2689 9.00375E+00 7.49481E+00 0.00000E+00
 -1      2690 1.03988E+01 6.86619E+00 0.00000E+00
 -1      2691 4.31130E+01 2.17523E+01 0.00000E+00
 -1      2692 4.41806E+01 2.23881E+01 0.00000E+00
 -1      2693 4.67426E+01 2.49933E+01 0.00000E+00
 -1      2694 4.73393E+01 2.57440E+01 0.00000E+00
 -1      2695 1.14000E+01 4.09070E+01 0.00000E+00
 -1      2696 1.29000E+01 4.09070E+01 0.00000E+00
 -1      2697 1.44000E+01 4.09070E+01 0.00000E+00
 -1      2698 1.59000E+01 4.09070E+01 0.00000E+00
 -1      2699 1.36500E+01 3.96080E+01 0.00000E+00
 -1      2700 1.74000E+01 4.09070E+01 0.00000E+00
 -1      2701 1.89000E+01 4.09070E+01 0.00000E+00
 -1      2702 1.66500E+01 3.96080E+01 0.00000E+00
 -1      2703 2.04000E+01 4.09070E+01 0.00000E+00
 -1      2704 2.19000E+01 4.09070E+01 0.00000E+00
 -1      2705 1.96500E+01 3.96080E+01 0.00000E+00
 -1      2706 2.34000E+01 4.09070E+01 0.00000E+00
 -1      2707 2.49000E+01 4.09070E+01 0.00000E+00
 -1      2708 2.26500E+01 3.96080E+01 0.00000E+00
 -1      2709 4.96580E+01 2.94002E+01 0.00000E+00
 -1      2710 4.98428E+01 3.05346E+01 0.00000E+00
 -1      2711 5.00920E+01 3.16850E+01 0.00000E+00
 -1      2712 5.03412E+01 3.28355E+01 0.00000E+00
 -1      2713 5.09287E+01 3.09665E+01 0.00000E+00
 -1      2714 5.02500E+01 4.09295E+01 0.00000E+00
 -1      2715 5.17500E+01 4.09295E+01 0.00000E+00
 -1      2716 5.32500E+01 4.09295E+01 0.00000E+00
 -1      2717 5.47500E+01 4.09295E+01 0.00000E+00
 -1      2718 5.25000E+01 3.96530E+01 0.00000E+00
 -1      2719 5.62500E+01 4.09295E+01 0.00000E+00
 -1      2720 5.77500E+01 4.09295E+01 0.00000E+00
 -1      2721 5.55000E+01 3.96530E+01 0.00000E+00
 -1      2722 5.92500E+01 4.09295E+01 0.00000E+00
 -1      2723 6.07500E+01 4.09295E+01 0.00000E+00
 -1      2724 5.85000E+01 3.96530E+01 0.00000E+00
 -1      2725 6.22500E+01 4.09295E+01 0.00000E+00
 -1      2726 6.37500E+01 4.09295E+01 0.00000E+00
 -1      2727 6.15000E+01 3.96530E+01 0.00000E+00
 -1      2728 6.52500E+01 4.09295E+01 0.00000E+00
 -1      2729 6.67500E+01 4.09295E+01 0.00000E+00
 -1      2730 6.45000E+01 3.96530E+01 0.00000E+00
 -1      2731 6.82500E+01 4.09295E+01 0.00000E+00
 -1      2732 6.97500E+01 4.09295E+01 0.00000E+00
 -1      2733 6.75000E+01 3.96530E+01 0.00000E+00
 -1      2734 7.12500E+01 4.09295E+01 0.00000E+00
 -1      2735 7.27500E+01 4.09295E+01 0.00000E+00
 -1      2736 7.05000E+01 3.96530E+01 0.00000E+00
 -1      2737 7.42500E+01 4.09295E+01 0.00000E+00
 -1      2738 7.57500E+01 4.09295E+01 0.00000E+00
 -1      2739 7.35000E+01 3.96530E+01 0.00000E+00
 -1      2740 7.72500E+01 4.09295E+01 0.00000E+00
 -1      2741 7.87500E+01 4.09295E+01 0.00000E+00
 -1      2742 7.65000E+01 3.96530E+01 0.00000E+00
 -1      2743 8.02500E+01 4.09295E+01 0.00000E+00
 -1      2744 8.17500E+01 4.09295E+01 0.00000E+00
 -1      2745 7.95000E+01 3.96530E+01 0.00000E+00
 -1      2746 8.32500E+01 4.09295E+01 0.00000E+00
 -1      2747 8.47500E+01 4.09295E+01 0.00000E+00
 -1      2748 8.25000E+01 3.96530E+01 0.00000E+00
 -1      2749 8.62500E+01 4.09295E+01 0.00000E+00
 -1      2750 8.77500E+01 4.09295E+01 0.00000E+00
 -1      2751 8.55000E+01 3.96530E+01 0.00000E+00
 -1      2752 8.92500E+01 4.09295E+01 0.00000E+00
 -1      2753 9.07500E+01 4.09295E+01 0.00000E+00
 -1      2754 8.85000E+01 3.96530E+01 0.00000E+00
 -1      2755 9.22500E+01 4.09295E+01 0.00000E+00
 -1      2756 9.37500E+01 4.09295E+01 0.00000E+00
 -1      2757 9.15000E+01 3.96530E+01 0.00000E+00
 -1      2758 9.52500E+01 4.09295E+01 0.00000E+00
 -1      2759 9.67500E+01 4.09295E+01 0.00000E+00
 -1      2760 9.45000E+01 3.96530E+01 0.00000E+00
 -1      2761 9.82500E+01 4.09295E+01 0.00000E+00
 -1      2762 9.97500E+01 4.09295E+01 0.00000E+00
 -1      2763 9.75000E+01 3.96530E+01 0.00000E+00
 -1      2764 1.01250E+02 4.09295E+01 0.00000E+00
 -1      2765 1.02750E+02 4.09295E+01 0.00000E+00
 -1      2766 1.00500E+02 3.96530E+01 0.00000E+00
 -1      2767 1.04250E+02 4.09295E+01 0.00000E+00
 -1      2768 1.05750E+02 4.09295E+01 0.00000E+00
 -1      2769 1.03500E+02 3.96530E+01 0.00000E+00
 -1      2770 1.07250E+02 4.09295E+01 0.00000E+00
 -1      2771 1.08750E+02 4.09295E+01 0.00000E+00
 -1      2772 1.06500E+02 3.96530E+01 0.00000E+00
 -1      2773 1.10250E+02 4.09295E+01 0.00000E+00
 -1      2774 1.11750E+02 4.09295E+01 0.00000E+00
 -1      2775 1.09500E+02 3.96530E+01 0.00000E+00
 -1      2776 1.13250E+02 4.09295E+01 0.00000E+00
 -1      2777 1.14750E+02 4.09295E+01 0.00000E+00
 -1      2778 1.12500E+02 3.96530E+01 0.00000E+00
 -1      2779 1.16250E+02 4.09295E+01 0.00000E+00
 -1      2780 1.17750E+02 4.09295E+01 0.00000E+00
 -1      2781 1.15500E+02 3.96530E+01 0.00000E+00
 -1      2782 1.19250E+02 4.09295E+01 0.00000E+00
 -1      2783 1.20750E+02 4.09295E+01 0.00000E+00
 -1      2784 1.18500E+02 3.96530E+01 0.00000E+00
 -1      2785 1.22250E+02 4.09295E+01 0.00000E+00
 -1      2786 1.23750E+02 4.09295E+01 0.00000E+00
 -1      2787 1.21500E+02 3.96530E+01 0.00000E+00
 -1      2788 1.25250E+02 4.09295E+01 0.00000E+00
 -1      2789 1.26750E+02 4.09295E+01 0.00000E+00
 -1      2790 1.24500E+02 3.96530E+01 0.00000E+00
 -1      2791 1.28250E+02 4.09295E+01 0.00000E+00
 -1      2792 1.29750E+02 4.09295E+01 0.00000E+00
 -1      2793 1.27500E+02 3.96530E+01 0.00000E+00
 -1      2794 1.31250E+02 4.09295E+01 0.00000E+00
 -1      2795 1.32750E+02 4.09295E+01 0.00000E+00
 -1      2796 1.30500E+02 3.96530E+01 0.00000E+00
 -1      2797 1.34250E+02 4.09295E+01 0.00000E+00
 -1      2798 1.35750E+02 4.09295E+01 0.00000E+00
 -1      2799 1.33500E+02 3.96530E+01 0.00000E+00
 -1      2800 1.37250E+02 4.09295E+01 0.00000E+00
 -1      2801 1.38750E+02 4.09295E+01 0.00000E+00
 -1      2802 1.36500E+02 3.96530E+01 0.00000E+00
 -1      2803 1.39795E+02 4.08260E+01 0.00000E+00
 -1      2804 1.41121E+02 4.05745E+01 0.00000E+00
 -1      2805 1.41134E+02 3.93425E+01 0.00000E+00
 -1      2806 1.39045E+02 3.95495E+01 0.00000E+00
 -1      2807 2.01240E+01 8.68250E+00 0.00000E+00
 -1      2808 1.86240E+01 8.68250E+00 0.00000E+00
 -1      2809 2.31240E+01 8.68250E+00 0.00000E+00
 -1      2810 2.16240E+01 8.68250E+00 0.00000E+00
 -1      2811 2.08740E+01 9.98150E+00 0.00000E+00
 -1      2812 1.71240E+01 8.68250E+00 0.00000E+00
 -1      2813 1.56240E+01 8.68250E+00 0.00000E+00
 -1      2814 1.78740E+01 9.98150E+00 0.00000E+00
 -1      2815 2.91240E+01 8.68250E+00 0.00000E+00
 -1      2816 2.76240E+01 8.68250E+00 0.00000E+00
 -1      2817 3.21240E+01 8.68250E+00 0.00000E+00
 -1      2818 3.06240E+01 8.68250E+00 0.00000E+00
 -1      2819 2.98740E+01 9.98150E+00 0.00000E+00
 -1      2820 3.51240E+01 8.68250E+00 0.00000E+00
 -1      2821 3.36240E+01 8.68250E+00 0.00000E+00
 -1      2822 3.28740E+01 9.98150E+00 0.00000E+00
 -1      2823 3.81240E+01 8.68250E+00 0.00000E+00
 -1      2824 3.66240E+01 8.68250E+00 0.00000E+00
 -1      2825 3.58740E+01 9.98150E+00 0.00000E+00
 -1      2826 4.11240E+01 8.68250E+00 0.00000E+00
 -1      2827 3.96240E+01 8.68250E+00 0.00000E+00
 -1      2828 3.88740E+01 9.98150E+00 0.00000E+00
 -1      2829 4.41240E+01 8.68250E+00 0.00000E+00
 -1      2830 4.26240E+01 8.68250E+00 0.00000E+00
 -1      2831 4.18740E+01 9.98150E+00 0.00000E+00
 -1      2832 4.71240E+01 8.68250E+00 0.00000E+00
 -1      2833 4.56240E+01 8.68250E+00 0.00000E+00
 -1      2834 4.48740E+01 9.98150E+00 0.00000E+00
 -1      2835 5.01240E+01 8.68250E+00 0.00000E+00
 -1      2836 4.86240E+01 8.68250E+00 0.00000E+00
 -1      2837 4.78740E+01 9.98150E+00 0.00000E+00
 -1      2838 5.31240E+01 8.68250E+00 0.00000E+00
 -1      2839 5.16240E+01 8.68250E+00 0.00000E+00
 -1      2840 5.08740E+01 9.98150E+00 0.00000E+00
 -1      2841 5.61240E+01 8.68250E+00 0.00000E+00
 -1      2842 5.46240E+01 8.68250E+00 0.00000E+00
 -1      2843 5.38740E+01 9.98150E+00 0.00000E+00
 -1      2844 5.91240E+01 8.68250E+00 0.00000E+00
 -1      2845 5.76240E+01 8.68250E+00 0.00000E+00
 -1      2846 5.68740E+01 9.98150E+00 0.00000E+00
 -1      2847 6.21240E+01 8.68250E+00 0.00000E+00
 -1      2848 6.06240E+01 8.68250E+00 0.00000E+00
 -1      2849 5.98740E+01 9.98150E+00 0.00000E+00
 -1      2850 6.51240E+01 8.68250E+00 0.00000E+00
 -1      2851 6.36240E+01 8.68250E+00 0.00000E+00
 -1      2852 6.28740E+01 9.98150E+00 0.00000E+00
 -1      2853 6.81240E+01 8.68250E+00 0.00000E+00
 -1      2854 6.66240E+01 8.68250E+00 0.00000E+00
 -1      2855 6.58740E+01 9.98150E+00 0.00000E+00
 -1      2856 7.11240E+01 8.68250E+00 0.00000E+00
 -1      2857 6.96240E+01 8.68250E+00 0.00000E+00
 -1      2858 6.88740E+01 9.98150E+00 0.00000E+00
 -1      2859 7.41240E+01 8.68250E+00 0.00000E+00
 -1      2860 7.26240E+01 8.68250E+00 0.00000E+00
 -1      2861 7.18740E+01 9.98150E+00 0.00000E+00
 -1      2862 7.71240E+01 8.68250E+00 0.00000E+00
 -1      2863 7.56240E+01 8.68250E+00 0.00000E+00
 -1      2864 7.48740E+01 9.98150E+00 0.00000E+00
 -1      2865 8.01240E+01 8.68250E+00 0.00000E+00
 -1      2866 7.86240E+01 8.68250E+00 0.00000E+00
 -1      2867 7.78740E+01 9.98150E+00 0.00000E+00
 -1      2868 8.31240E+01 8.68250E+00 0.00000E+00
 -1      2869 8.16240E+01 8.68250E+00 0.00000E+00
 -1      2870 8.08740E+01 9.98150E+00 0.00000E+00
 -1      2871 8.61240E+01 8.68250E+00 0.00000E+00
 -1      2872 8.46240E+01 8.68250E+00 0.00000E+00
 -1      2873 8.38740E+01 9.98150E+00 0.00000E+00
 -1      2874 8.91240E+01 8.68250E+00 0.00000E+00
 -1      2875 8.76240E+01 8.68250E+00 0.00000E+00
 -1      2876 8.68740E+01 9.98150E+00 0.00000E+00
 -1      2877 9.21240E+01 8.68250E+00 0.00000E+00
 -1      2878 9.06240E+01 8.68250E+00 0.00000E+00
 -1      2879 8.98740E+01 9.98150E+00 0.00000E+00
 -1      2880 9.51240E+01 8.68250E+00 0.00000E+00
 -1      2881 9.36240E+01 8.68250E+00 0.00000E+00
 -1      2882 9.28740E+01 9.98150E+00 0.00000E+00
 -1      2883 9.81240E+01 8.68250E+00 0.00000E+00
 -1      2884 9.66240E+01 8.68250E+00 0.00000E+00
 -1      2885 9.58740E+01 9.98150E+00 0.00000E+00
 -1      2886 1.01124E+02 8.68250E+00 0.00000E+00
 -1      2887 9.96240E+01 8.68250E+00 0.00000E+00
 -1      2888 9.88740E+01 9.98150E+00 0.00000E+00
 -1      2889 1.04124E+02 8.68250E+00 0.00000E+00
 -1      2890 1.02624E+02 8.68250E+00 0.00000E+00
 -1      2891 1.01874E+02 9.98150E+00 0.00000E+00
 -1      2892 1.07124E+02 8.68250E+00 0.00000E+00
 -1      2893 1.05624E+02 8.68250E+00 0.00000E+00
 -1      2894 1.04874E+02 9.98150E+00 0.00000E+00
 -1      2895 1.10124E+02 8.68250E+00 0.00000E+00
 -1      2896 1.08624E+02 8.68250E+00 0.00000E+00
 -1      2897 1.07874E+02 9.98150E+00 0.00000E+00
 -1      2898 1.13124E+02 8.68250E+00 0.00000E+00
 -1      2899 1.11624E+02 8.68250E+00 0.00000E+00
 -1      2900 1.10874E+02 9.98150E+00 0.00000E+00
 -1      2901 1.16124E+02 8.68250E+00 0.00000E+00
 -1      2902 1.14624E+02 8.68250E+00 0.00000E+00
 -1      2903 1.13874E+02 9.98150E+00 0.00000E+00
 -1      2904 1.19124E+02 8.68250E+00 0.00000E+00
 -1      2905 1.17624E+02 8.68250E+00 0.00000E+00
 -1      2906 1.16874E+02 9.98150E+00 0.00000E+00
 -1      2907 1.22124E+02 8.68250E+00 0.00000E+00
 -1      2908 1.20624E+02 8.68250E+00 0.00000E+00
 -1      2909 1.19874E+02 9.98150E+00 0.00000E+00
 -1      2910 1.25124E+02 8.68250E+00 0.00000E+00
 -1      2911 1.23624E+02 8.68250E+00 0.00000E+00
 -1      2912 1.22874E+02 9.98150E+00 0.00000E+00
 -1      2913 1.28124E+02 8.68250E+00 0.00000E+00
 -1      2914 1.26624E+02 8.68250E+00 0.00000E+00
 -1      2915 1.25874E+02 9.98150E+00 0.00000E+00
 -1      2916 1.31124E+02 8.68250E+00 0.00000E+00
 -1      2917 1.29624E+02 8.68250E+00 0.00000E+00
 -1      2918 1.28874E+02 9.98150E+00 0.00000E+00
 -1      2919 1.34124E+02 8.68250E+00 0.00000E+00
 -1      2920 1.32624E+02 8.68250E+00 0.00000E+00
 -1      2921 1.31874E+02 9.98150E+00 0.00000E+00
 -1      2922 1.37124E+02 8.68250E+00 0.00000E+00
 -1      2923 1.35624E+02 8.68250E+00 0.00000E+00
 -1      2924 1.34874E+02 9.98150E+00 0.00000E+00
 -1      2925 1.40082E+02 8.76838E+00 0.00000E+00
 -1      2926 1.38582E+02 8.76838E+00 0.00000E+00
 -1      2927 1.37832E+02 1.00674E+01 0.00000E+00
 -1      2928 1.40748E+02 1.02391E+01 0.00000E+00
 -1      2929 1.40907E+02 1.54500E+01 0.00000E+00
 -1      2930 1.40907E+02 1.40000E+01 0.00000E+00
 -1      2931 1.40907E+02 2.13375E+01 0.00000E+00
 -1      2932 1.40907E+02 1.98625E+01 0.00000E+00
 -1      2933 1.40827E+02 1.28571E+01 0.00000E+00
 -1      2934 1.40827E+02 1.13821E+01 0.00000E+00
 -1      2935 1.39370E+02 1.12962E+01 0.00000E+00
 -1      2936 1.39529E+02 1.35821E+01 0.00000E+00
 -1      2937 2.97318E+01 4.14688E+01 0.00000E+00
 -1      2938 1.40907E+02 1.83937E+01 0.00000E+00
 -1      2939 1.40907E+02 1.69188E+01 0.00000E+00
 -1      2940 1.39608E+02 1.61938E+01 0.00000E+00
 -1      2941 1.39608E+02 1.91313E+01 0.00000E+00
 -1      2942 1.40907E+02 2.72375E+01 0.00000E+00
 -1      2943 1.40907E+02 2.57625E+01 0.00000E+00
 -1      2944 1.40907E+02 3.01375E+01 0.00000E+00
 -1      2945 1.40907E+02 2.86875E+01 0.00000E+00
 -1      2946 1.39608E+02 2.79500E+01 0.00000E+00
 -1      2947 1.40907E+02 3.30875E+01 0.00000E+00
 -1      2948 1.40907E+02 3.16125E+01 0.00000E+00
 -1      2949 1.39608E+02 3.08750E+01 0.00000E+00
 -1      2950 1.40907E+02 3.60375E+01 0.00000E+00
 -1      2951 1.40907E+02 3.45625E+01 0.00000E+00
 -1      2952 1.39608E+02 3.38250E+01 0.00000E+00
 -1      2953 4.90160E+01 3.75048E+01 0.00000E+00
 -1      2954 4.85764E+01 3.83684E+01 0.00000E+00
 -1      2955 2.88140E+01 4.07804E+01 0.00000E+00
 -1      2956 2.65494E+01 2.80031E+01 0.00000E+00
 -1      2957 2.69348E+01 2.68381E+01 0.00000E+00
 -1      2958 1.40907E+02 2.42875E+01 0.00000E+00
 -1      2959 1.40907E+02 2.28125E+01 0.00000E+00
 -1      2960 1.39608E+02 2.50250E+01 0.00000E+00
 -1      2961 2.77283E+01 2.55882E+01 0.00000E+00
 -1      2962 2.84269E+01 2.47987E+01 0.00000E+00
 -1      2963 4.77552E+01 3.94727E+01 0.00000E+00
 -1      2964 4.68901E+01 4.03493E+01 0.00000E+00
 -1      2965 7.85850E+00 3.92077E+01 0.00000E+00
 -1      2966 2.67884E+01 3.77185E+01 0.00000E+00
 -1      2967 2.62510E+01 3.66644E+01 0.00000E+00
 -1      2968 9.09300E+00 1.68813E+01 0.00000E+00
 -1      2969 9.09300E+00 1.83563E+01 0.00000E+00
 -1      2970 1.03920E+01 1.90812E+01 0.00000E+00
 -1      2971 1.03920E+01 1.61437E+01 0.00000E+00
 -1      2972 3.84462E+01 2.02136E+01 0.00000E+00
 -1      2973 3.95095E+01 2.04244E+01 0.00000E+00
 -1      2974 3.12215E+01 2.23809E+01 0.00000E+00
 -1      2975 3.20515E+01 2.18899E+01 0.00000E+00
 -1      2976 2.59098E+01 3.54871E+01 0.00000E+00
 -1      2977 2.55686E+01 3.43099E+01 0.00000E+00
 -1      2978 2.52652E+01 3.64798E+01 0.00000E+00
 -1      2979 2.93354E+01 2.39583E+01 0.00000E+00
 -1      2980 3.02477E+01 2.31544E+01 0.00000E+00
 -1      2981 2.59534E+01 2.99539E+01 0.00000E+00
 -1      2982 2.62514E+01 2.89785E+01 0.00000E+00
 -1      2983 2.55504E+01 2.81003E+01 0.00000E+00
 -1      2984 2.54791E+01 3.25460E+01 0.00000E+00
 -1      2985 2.56997E+01 3.13035E+01 0.00000E+00
 -1      2986 2.77959E+01 3.92933E+01 0.00000E+00
 -1      2987 2.72922E+01 3.85059E+01 0.00000E+00
 -1      2988 2.61102E+01 3.84444E+01 0.00000E+00
 -1      2989 4.37546E+01 4.21708E+01 0.00000E+00
 -1      2990 9.09300E+00 3.15875E+01 0.00000E+00
 -1      2991 9.09300E+00 3.30625E+01 0.00000E+00
 -1      2992 2.61240E+01 8.68250E+00 0.00000E+00
 -1      2993 2.46240E+01 8.68250E+00 0.00000E+00
 -1      2994 2.38740E+01 9.98150E+00 0.00000E+00
 -1      2995 2.68740E+01 9.98150E+00 0.00000E+00
 -1      2996 3.30676E+01 2.12924E+01 0.00000E+00
 -1      2997 3.41253E+01 2.08483E+01 0.00000E+00
 -1      2998 4.07266E+01 2.07624E+01 0.00000E+00
 -1      2999 4.18595E+01 2.11625E+01 0.00000E+00
 -1      3000 4.52452E+01 2.32846E+01 0.00000E+00
 -1      3001 4.59939E+01 2.41389E+01 0.00000E+00
 -1      3002 4.69636E+01 2.39807E+01 0.00000E+00
 -1      3003 2.76320E+01 4.07189E+01 0.00000E+00
 -1      3004 1.03920E+01 2.49750E+01 0.00000E+00
 -1      3005 9.09300E+00 2.57000E+01 0.00000E+00
 -1      3006 9.09300E+00 2.71750E+01 0.00000E+00
 -1      3007 9.00375E+00 8.96981E+00 0.00000E+00
 -1      3008 4.28321E+01 2.07437E+01 0.00000E+00
 -1      3009 4.84119E+01 2.60515E+01 0.00000E+00
 -1      3010 2.53820E+01 3.94199E+01 0.00000E+00
 -1      3011 2.61320E+01 4.07189E+01 0.00000E+00
 -1      3012 1.39608E+02 2.20750E+01 0.00000E+00
 -1      3013 5.16506E+01 3.30901E+01 0.00000E+00
 -1      3014 5.08139E+01 3.38087E+01 0.00000E+00
 -1      3015 5.12867E+01 3.47819E+01 0.00000E+00
 -1      3016 8.85168E+00 4.05347E+01 0.00000E+00
 -1      3017 1.02152E+01 4.07987E+01 0.00000E+00
 -1      3018 3.46713E+01 2.00661E+01 0.00000E+00
 -1      3019 3.22159E+01 2.07999E+01 0.00000E+00
 -1      3020 9.09300E+00 3.45313E+01 0.00000E+00
 -1      3021 9.09300E+00 3.60000E+01 0.00000E+00
 -1      3022 1.03920E+01 3.37938E+01 0.00000E+00
 -1      3023 3.02261E+01 2.21709E+01 0.00000E+00
 -1      3024 2.83439E+01 2.37848E+01 0.00000E+00
 -1      3025 2.49987E+01 3.04253E+01 0.00000E+00
 -1      3026 4.88139E+01 3.94679E+01 0.00000E+00
 -1      3027 5.00425E+01 3.69321E+01 0.00000E+00
 -1      3028 1.41014E+02 3.83060E+01 0.00000E+00
 -1      3029 1.41027E+02 3.70740E+01 0.00000E+00
 -1      3030 1.39728E+02 3.63365E+01 0.00000E+00
 -1      3031 1.39969E+02 3.84095E+01 0.00000E+00
 -1      3032 1.09652E+01 3.94997E+01 0.00000E+00
 -1      3033 1.48740E+01 9.98151E+00 0.00000E+00
 -1      3034 1.41240E+01 8.68251E+00 0.00000E+00
 -1      3035 1.30515E+01 8.34733E+00 0.00000E+00
 -1      3036 4.51502E+01 2.22299E+01 0.00000E+00
 -1      3037 4.61438E+01 4.11662E+01 0.00000E+00
 -1      3038 4.52546E+01 4.18969E+01 0.00000E+00
 -1      3039 4.98955E+01 2.85420E+01 0.00000E+00
 -1      3040 5.09170E+01 2.89578E+01 0.00000E+00
 -1      3041 5.01330E+01 2.76838E+01 0.00000E+00
 -1      3042 9.09300E+00 2.86437E+01 0.00000E+00
 -1      3043 9.09300E+00 3.01187E+01 0.00000E+00
 -1      3044 1.03920E+01 3.08563E+01 0.00000E+00
 -1      3045 1.03920E+01 2.79188E+01 0.00000E+00
 -1      3046 2.66419E+01 2.58750E+01 0.00000E+00
 -1      3047 1.03027E+01 9.70731E+00 0.00000E+00
 -1      3048 4.72463E+01 4.13891E+01 0.00000E+00
 -1      3049 4.87463E+01 4.13891E+01 0.00000E+00
 -1      3050 3.68090E+01 1.91940E+01 0.00000E+00
 -1      3051 3.76276E+01 1.97038E+01 0.00000E+00
 -1      3052 3.83260E+01 1.89680E+01 0.00000E+00
 -1      3053 2.41899E+01 3.45314E+01 0.00000E+00
 -1      3054 2.48345E+01 3.35387E+01 0.00000E+00
 -1      3055 2.41004E+01 3.27675E+01 0.00000E+00
 -1      3056 4.94963E+01 4.01126E+01 0.00000E+00
 -1      3057 4.03616E+01 1.98158E+01 0.00000E+00
 -1      3058 1.16910E+01 1.24625E+01 0.00000E+00
 -1      3059 1.16910E+01 1.39375E+01 0.00000E+00
 -1      3060 1.14712E+01 7.20138E+00 0.00000E+00
 -1      3061 4.26775E+01 1.94454E+01 0.00000E+00
 -1      3062 4.39310E+01 2.00352E+01 0.00000E+00
 -1      3063 2.48782E+01 3.86325E+01 0.00000E+00
 -1      3064 1.59000E+01 3.83090E+01 0.00000E+00
 -1      3065 1.74000E+01 3.83090E+01 0.00000E+00
 -1      3066 1.89000E+01 3.83090E+01 0.00000E+00
 -1      3067 2.04000E+01 3.83090E+01 0.00000E+00
 -1      3068 1.81500E+01 3.70100E+01 0.00000E+00
 -1      3069 2.18891E+01 3.84708E+01 0.00000E+00
 -1      3070 2.33891E+01 3.84708E+01 0.00000E+00
 -1      3071 2.41173E+01 3.74953E+01 0.00000E+00
 -1      3072 2.11391E+01 3.71718E+01 0.00000E+00
 -1      3073 3.66240E+01 1.12805E+01 0.00000E+00
 -1      3074 3.51240E+01 1.12805E+01 0.00000E+00
 -1      3075 5.18060E+01 3.01742E+01 0.00000E+00
 -1      3076 5.20552E+01 3.13247E+01 0.00000E+00
 -1      3077 8.78718E+00 3.80644E+01 0.00000E+00
 -1      3078 3.38471E+01 1.90303E+01 0.00000E+00
 -1      3079 3.52864E+01 1.88940E+01 0.00000E+00
 -1      3080 4.00050E+01 1.87398E+01 0.00000E+00
 -1      3081 4.12220E+01 1.90778E+01 0.00000E+00
 -1      3082 5.47500E+01 3.83540E+01 0.00000E+00
 -1      3083 5.62500E+01 3.83540E+01 0.00000E+00
 -1      3084 5.77500E+01 3.83540E+01 0.00000E+00
 -1      3085 5.92500E+01 3.83540E+01 0.00000E+00
 -1      3086 5.70000E+01 3.70550E+01 0.00000E+00
 -1      3087 6.07500E+01 3.83540E+01 0.00000E+00
 -1      3088 6.22500E+01 3.83540E+01 0.00000E+00
 -1      3089 6.00000E+01 3.70550E+01 0.00000E+00
 -1      3090 6.37500E+01 3.83540E+01 0.00000E+00
 -1      3091 6.52500E+01 3.83540E+01 0.00000E+00
 -1      3092 6.30000E+01 3.70550E+01 0.00000E+00
 -1      3093 6.67500E+01 3.83540E+01 0.00000E+00
 -1      3094 6.82500E+01 3.83540E+01 0.00000E+00
 -1      3095 6.60000E+01 3.70550E+01 0.00000E+00
 -1      3096 6.97500E+01 3.83540E+01 0.00000E+00
 -1      3097 7.12500E+01 3.83540E+01 0.00000E+00
 -1      3098 6.90000E+01 3.70550E+01 0.00000E+00
 -1      3099 7.27500E+01 3.83540E+01 0.00000E+00
 -1      3100 7.42500E+01 3.83540E+01 0.00000E+00
 -1      3101 7.20000E+01 3.70550E+01 0.00000E+00
 -1      3102 7.57500E+01 3.83540E+01 0.00000E+00
 -1      3103 7.72500E+01 3.83540E+01 0.00000E+00
 -1      3104 7.50000E+01 3.70550E+01 0.00000E+00
 -1      3105 7.87500E+01 3.83540E+01 0.00000E+00
 -1      3106 8.02500E+01 3.83540E+01 0.00000E+00
 -1      3107 7.80000E+01 3.70550E+01 0.00000E+00
 -1      3108 8.17500E+01 3.83540E+01 0.00000E+00
 -1      3109 8.32500E+01 3.83540E+01 0.00000E+00
 -1      3110 8.10000E+01 3.70550E+01 0.00000E+00
 -1      3111 8.47500E+01 3.83540E+01 0.00000E+00
 -1      3112 8.62500E+01 3.83540E+01 0.00000E+00
 -1      3113 8.40000E+01 3.70550E+01 0.00000E+00
 -1      3114 8.77500E+01 3.83540E+01 0.00000E+00
 -1      3115 8.92500E+01 3.83540E+01 0.00000E+00
 -1      3116 8.70000E+01 3.70550E+01 0.00000E+00
 -1      3117 9.07500E+01 3.83540E+01 0.00000E+00
 -1      3118 9.22500E+01 3.83540E+01 0.00000E+00
 -1      3119 9.00000E+01 3.70550E+01 0.00000E+00
 -1      3120 9.37500E+01 3.83540E+01 0.00000E+00
 -1      3121 9.52500E+01 3.83540E+01 0.00000E+00
 -1      3122 9.30000E+01 3.70550E+01 0.00000E+00
 -1      3123 9.67500E+01 3.83540E+01 0.00000E+00
 -1      3124 9.82500E+01 3.83540E+01 0.00000E+00
 -1      3125 9.60000E+01 3.70550E+01 0.00000E+00
 -1      3126 9.97500E+01 3.83540E+01 0.00000E+00
 -1      3127 1.01250E+02 3.83540E+01 0.00000E+00
 -1      3128 9.90000E+01 3.70550E+01 0.00000E+00
 -1      3129 1.02750E+02 3.83540E+01 0.00000E+00
 -1      3130 1.04250E+02 3.83540E+01 0.00000E+00
 -1      3131 1.02000E+02 3.70550E+01 0.00000E+00
 -1      3132 1.05750E+02 3.83540E+01 0.00000E+00
 -1      3133 1.07250E+02 3.83540E+01 0.00000E+00
 -1      3134 1.05000E+02 3.70550E+01 0.00000E+00
 -1      3135 1.08750E+02 3.83540E+01 0.00000E+00
 -1      3136 1.10250E+02 3.83540E+01 0.00000E+00
 -1      3137 1.08000E+02 3.70550E+01 0.00000E+00
 -1      3138 1.11750E+02 3.83540E+01 0.00000E+00
 -1      3139 1.13250E+02 3.83540E+01 0.00000E+00
 -1      3140 1.11000E+02 3.70550E+01 0.00000E+00
 -1      3141 1.14750E+02 3.83540E+01 0.00000E+00
 -1      3142 1.16250E+02 3.83540E+01 0.00000E+00
 -1      3143 1.14000E+02 3.70550E+01 0.00000E+00
 -1      3144 1.17750E+02 3.83540E+01 0.00000E+00
 -1      3145 1.19250E+02 3.83540E+01 0.00000E+00
 -1      3146 1.17000E+02 3.70550E+01 0.00000E+00
 -1      3147 1.20750E+02 3.83540E+01 0.00000E+00
 -1      3148 1.22250E+02 3.83540E+01 0.00000E+00
 -1      3149 1.20000E+02 3.70550E+01 0.00000E+00
 -1      3150 1.23750E+02 3.83540E+01 0.00000E+00
 -1      3151 1.25250E+02 3.83540E+01 0.00000E+00
 -1      3152 1.23000E+02 3.70550E+01 0.00000E+00
 -1      3153 1.26750E+02 3.83540E+01 0.00000E+00
 -1      3154 1.28250E+02 3.83540E+01 0.00000E+00
 -1      3155 1.26000E+02 3.70550E+01 0.00000E+00
 -1      3156 1.29750E+02 3.83540E+01 0.00000E+00
 -1      3157 1.31250E+02 3.83540E+01 0.00000E+00
 -1      3158 1.29000E+02 3.70550E+01 0.00000E+00
 -1      3159 1.32750E+02 3.83540E+01 0.00000E+00
 -1      3160 1.34250E+02 3.83540E+01 0.00000E+00
 -1      3161 1.32000E+02 3.70550E+01 0.00000E+00
 -1      3162 1.35750E+02 3.83540E+01 0.00000E+00
 -1      3163 1.37250E+02 3.83540E+01 0.00000E+00
 -1      3164 1.35000E+02 3.70550E+01 0.00000E+00
 -1      3165 2.16240E+01 1.12805E+01 0.00000E+00
 -1      3166 2.01240E+01 1.12805E+01 0.00000E+00
 -1      3167 1.86240E+01 1.12805E+01 0.00000E+00
 -1      3168 1.71240E+01 1.12805E+01 0.00000E+00
 -1      3169 1.93740E+01 1.25795E+01 0.00000E+00
 -1      3170 3.36240E+01 1.12805E+01 0.00000E+00
 -1      3171 3.21240E+01 1.12805E+01 0.00000E+00
 -1      3172 3.43740E+01 1.25795E+01 0.00000E+00
 -1      3173 3.06240E+01 1.12805E+01 0.00000E+00
 -1      3174 2.91240E+01 1.12805E+01 0.00000E+00
 -1      3175 3.13740E+01 1.25795E+01 0.00000E+00
 -1      3176 3.96240E+01 1.12805E+01 0.00000E+00
 -1      3177 3.81240E+01 1.12805E+01 0.00000E+00
 -1      3178 3.73740E+01 1.25795E+01 0.00000E+00
 -1      3179 4.26240E+01 1.12805E+01 0.00000E+00
 -1      3180 4.11240E+01 1.12805E+01 0.00000E+00
 -1      3181 4.03740E+01 1.25795E+01 0.00000E+00
 -1      3182 4.56240E+01 1.12805E+01 0.00000E+00
 -1      3183 4.41240E+01 1.12805E+01 0.00000E+00
 -1      3184 4.33740E+01 1.25795E+01 0.00000E+00
 -1      3185 4.86240E+01 1.12805E+01 0.00000E+00
 -1      3186 4.71240E+01 1.12805E+01 0.00000E+00
 -1      3187 4.63740E+01 1.25795E+01 0.00000E+00
 -1      3188 5.16240E+01 1.12805E+01 0.00000E+00
 -1      3189 5.01240E+01 1.12805E+01 0.00000E+00
 -1      3190 4.93740E+01 1.25795E+01 0.00000E+00
 -1      3191 5.46240E+01 1.12805E+01 0.00000E+00
 -1      3192 5.31240E+01 1.12805E+01 0.00000E+00
 -1      3193 5.23740E+01 1.25795E+01 0.00000E+00
 -1      3194 5.76240E+01 1.12805E+01 0.00000E+00
 -1      3195 5.61240E+01 1.12805E+01 0.00000E+00
 -1      3196 5.53740E+01 1.25795E+01 0.00000E+00
 -1      3197 6.06240E+01 1.12805E+01 0.00000E+00
 -1      3198 5.91240E+01 1.12805E+01 0.00000E+00
 -1      3199 5.83740E+01 1.25795E+01 0.00000E+00
 -1      3200 6.36240E+01 1.12805E+01 0.00000E+00
 -1      3201 6.21240E+01 1.12805E+01 0.00000E+00
 -1      3202 6.13740E+01 1.25795E+01 0.00000E+00
 -1      3203 6.66240E+01 1.12805E+01 0.00000E+00
 -1      3204 6.51240E+01 1.12805E+01 0.00000E+00
 -1      3205 6.43740E+01 1.25795E+01 0.00000E+00
 -1      3206 6.96240E+01 1.12805E+01 0.00000E+00
 -1      3207 6.81240E+01 1.12805E+01 0.00000E+00
 -1      3208 6.73740E+01 1.25795E+01 0.00000E+00
 -1      3209 7.26240E+01 1.12805E+01 0.00000E+00
 -1      3210 7.11240E+01 1.12805E+01 0.00000E+00
 -1      3211 7.03740E+01 1.25795E+01 0.00000E+00
 -1      3212 7.56240E+01 1.12805E+01 0.00000E+00
 -1      3213 7.41240E+01 1.12805E+01 0.00000E+00
 -1      3214 7.33740E+01 1.25795E+01 0.00000E+00
 -1      3215 7.86240E+01 1.12805E+01 0.00000E+00
 -1      3216 7.71240E+01 1.12805E+01 0.00000E+00
 -1      3217 7.63740E+01 1.25795E+01 0.00000E+00
 -1      3218 8.16240E+01 1.12805E+01 0.00000E+00
 -1      3219 8.01240E+01 1.12805E+01 0.00000E+00
 -1      3220 7.93740E+01 1.25795E+01 0.00000E+00
 -1      3221 8.46240E+01 1.12805E+01 0.00000E+00
 -1      3222 8.31240E+01 1.12805E+01 0.00000E+00
 -1      3223 8.23740E+01 1.25795E+01 0.00000E+00
 -1      3224 8.76240E+01 1.12805E+01 0.00000E+00
 -1      3225 8.61240E+01 1.12805E+01 0.00000E+00
 -1      3226 8.53740E+01 1.25795E+01 0.00000E+00
 -1      3227 9.06240E+01 1.12805E+01 0.00000E+00
 -1      3228 8.91240E+01 1.12805E+01 0.00000E+00
 -1      3229 8.83740E+01 1.25795E+01 0.00000E+00
 -1      3230 9.36240E+01 1.12805E+01 0.00000E+00
 -1      3231 9.21240E+01 1.12805E+01 0.00000E+00
 -1      3232 9.13740E+01 1.25795E+01 0.00000E+00
 -1      3233 9.66240E+01 1.12805E+01 0.00000E+00
 -1      3234 9.51240E+01 1.12805E+01 0.00000E+00
 -1      3235 9.43740E+01 1.25795E+01 0.00000E+00
 -1      3236 9.96240E+01 1.12805E+01 0.00000E+00
 -1      3237 9.81240E+01 1.12805E+01 0.00000E+00
 -1      3238 9.73740E+01 1.25795E+01 0.00000E+00
 -1      3239 1.02624E+02 1.12805E+01 0.00000E+00
 -1      3240 1.01124E+02 1.12805E+01 0.00000E+00
 -1      3241 1.00374E+02 1.25795E+01 0.00000E+00
 -1      3242 1.05624E+02 1.12805E+01 0.00000E+00
 -1      3243 1.04124E+02 1.12805E+01 0.00000E+00
 -1      3244 1.03374E+02 1.25795E+01 0.00000E+00
 -1      3245 1.08624E+02 1.12805E+01 0.00000E+00
 -1      3246 1.07124E+02 1.12805E+01 0.00000E+00
 -1      3247 1.06374E+02 1.25795E+01 0.00000E+00
 -1      3248 1.11624E+02 1.12805E+01 0.00000E+00
 -1      3249 1.10124E+02 1.12805E+01 0.00000E+00
 -1      3250 1.09374E+02 1.25795E+01 0.00000E+00
 -1      3251 1.14624E+02 1.12805E+01 0.00000E+00
 -1      3252 1.13124E+02 1.12805E+01 0.00000E+00
 -1      3253 1.12374E+02 1.25795E+01 0.00000E+00
 -1      3254 1.17624E+02 1.12805E+01 0.00000E+00
 -1      3255 1.16124E+02 1.12805E+01 0.00000E+00
 -1      3256 1.15374E+02 1.25795E+01 0.00000E+00
 -1      3257 1.20624E+02 1.12805E+01 0.00000E+00
 -1      3258 1.19124E+02 1.12805E+01 0.00000E+00
 -1      3259 1.18374E+02 1.25795E+01 0.00000E+00
 -1      3260 1.23624E+02 1.12805E+01 0.00000E+00
 -1      3261 1.22124E+02 1.12805E+01 0.00000E+00
 -1      3262 1.21374E+02 1.25795E+01 0.00000E+00
 -1      3263 1.26624E+02 1.12805E+01 0.00000E+00
 -1      3264 1.25124E+02 1.12805E+01 0.00000E+00
 -1      3265 1.24374E+02 1.25795E+01 0.00000E+00
 -1      3266 1.29624E+02 1.12805E+01 0.00000E+00
 -1      3267 1.28124E+02 1.12805E+01 0.00000E+00
 -1      3268 1.27374E+02 1.25795E+01 0.00000E+00
 -1      3269 1.32624E+02 1.12805E+01 0.00000E+00
 -1      3270 1.31124E+02 1.12805E+01 0.00000E+00
 -1      3271 1.30374E+02 1.25795E+01 0.00000E+00
 -1      3272 1.35624E+02 1.12805E+01 0.00000E+00
 -1      3273 1.34124E+02 1.12805E+01 0.00000E+00
 -1      3274 1.33374E+02 1.25795E+01 0.00000E+00
 -1      3275 1.38226E+02 1.13313E+01 0.00000E+00
 -1      3276 1.36768E+02 1.12454E+01 0.00000E+00
 -1      3277 1.36018E+02 1.25444E+01 0.00000E+00
 -1      3278 1.38305E+02 1.24742E+01 0.00000E+00
 -1      3279 1.38309E+02 3.16125E+01 0.00000E+00
 -1      3280 1.38309E+02 3.01375E+01 0.00000E+00
 -1      3281 2.37761E+01 3.63180E+01 0.00000E+00
 -1      3282 1.38309E+02 3.45625E+01 0.00000E+00
 -1      3283 1.38309E+02 3.30875E+01 0.00000E+00
 -1      3284 1.37010E+02 3.23500E+01 0.00000E+00
 -1      3285 1.38309E+02 2.86875E+01 0.00000E+00
 -1      3286 1.38309E+02 2.72375E+01 0.00000E+00
 -1      3287 1.37010E+02 2.94250E+01 0.00000E+00
 -1      3288 1.17938E+01 8.83558E+00 0.00000E+00
 -1      3289 1.04910E+01 3.81519E+01 0.00000E+00
 -1      3290 1.16758E+01 3.82602E+01 0.00000E+00
 -1      3291 5.03176E+01 3.90083E+01 0.00000E+00
 -1      3292 3.12307E+01 2.02871E+01 0.00000E+00
 -1      3293 3.22468E+01 1.96897E+01 0.00000E+00
 -1      3294 5.11324E+01 3.61451E+01 0.00000E+00
 -1      3295 5.07250E+01 3.75767E+01 0.00000E+00
 -1      3296 5.14074E+01 3.82214E+01 0.00000E+00
 -1      3297 1.18830E+01 1.08533E+01 0.00000E+00
 -1      3298 2.54504E+01 2.59954E+01 0.00000E+00
 -1      3299 2.62439E+01 2.47456E+01 0.00000E+00
 -1      3300 1.30379E+01 3.82846E+01 0.00000E+00
 -1      3301 1.45379E+01 3.82846E+01 0.00000E+00
 -1      3302 1.52879E+01 3.69856E+01 0.00000E+00
 -1      3303 1.25638E+01 3.69369E+01 0.00000E+00
 -1      3304 4.52242E+01 2.10616E+01 0.00000E+00
 -1      3305 4.62889E+01 2.19580E+01 0.00000E+00
 -1      3306 2.72504E+01 2.35140E+01 0.00000E+00
 -1      3307 2.81588E+01 2.26736E+01 0.00000E+00
 -1      3308 1.38309E+02 2.28125E+01 0.00000E+00
 -1      3309 1.38309E+02 2.13375E+01 0.00000E+00
 -1      3310 2.38644E+01 3.09107E+01 0.00000E+00
 -1      3311 2.41181E+01 2.95611E+01 0.00000E+00
 -1      3312 2.45813E+01 2.83374E+01 0.00000E+00
 -1      3313 2.48793E+01 2.73620E+01 0.00000E+00
 -1      3314 1.38309E+02 2.57625E+01 0.00000E+00
 -1      3315 1.38309E+02 2.42875E+01 0.00000E+00
 -1      3316 1.37010E+02 2.35500E+01 0.00000E+00
 -1      3317 1.37010E+02 2.65000E+01 0.00000E+00
 -1      3318 1.16910E+01 2.12875E+01 0.00000E+00
 -1      3319 1.16910E+01 2.27625E+01 0.00000E+00
 -1      3320 2.91537E+01 2.18205E+01 0.00000E+00
 -1      3321 3.01275E+01 2.10470E+01 0.00000E+00
 -1      3322 4.88781E+01 2.49740E+01 0.00000E+00
 -1      3323 4.95777E+01 2.61904E+01 0.00000E+00
 -1      3324 4.74233E+01 2.28227E+01 0.00000E+00
 -1      3325 4.81719E+01 2.36771E+01 0.00000E+00
 -1      3326 1.31820E+01 1.15908E+01 0.00000E+00
 -1      3327 4.74972E+01 2.16544E+01 0.00000E+00
 -1      3328 4.23209E+01 1.83693E+01 0.00000E+00
 -1      3329 4.50696E+01 1.97633E+01 0.00000E+00
 -1      3330 5.29074E+01 3.82214E+01 0.00000E+00
 -1      3331 2.83740E+01 1.25795E+01 0.00000E+00
 -1      3332 2.76240E+01 1.12805E+01 0.00000E+00
 -1      3333 2.61240E+01 1.12805E+01 0.00000E+00
 -1      3334 5.20435E+01 2.93160E+01 0.00000E+00
 -1      3335 5.31700E+01 2.96742E+01 0.00000E+00
 -1      3336 5.22810E+01 2.84578E+01 0.00000E+00
 -1      3337 5.34052E+01 3.15056E+01 0.00000E+00
 -1      3338 5.25279E+01 3.22979E+01 0.00000E+00
 -1      3339 5.30006E+01 3.32711E+01 0.00000E+00
 -1      3340 5.36574E+01 3.69224E+01 0.00000E+00
 -1      3341 3.28619E+01 1.85176E+01 0.00000E+00
 -1      3342 3.34770E+01 1.73454E+01 0.00000E+00
 -1      3343 3.18767E+01 1.80048E+01 0.00000E+00
 -1      3344 2.31240E+01 1.12805E+01 0.00000E+00
 -1      3345 2.23740E+01 1.25795E+01 0.00000E+00
 -1      3346 2.46240E+01 1.12805E+01 0.00000E+00
 -1      3347 1.38924E+02 3.85130E+01 0.00000E+00
 -1      3348 1.16910E+01 3.30594E+01 0.00000E+00
 -1      3349 1.16910E+01 3.45281E+01 0.00000E+00
 -1      3350 1.29900E+01 2.35000E+01 0.00000E+00
 -1      3351 1.16910E+01 2.42375E+01 0.00000E+00
 -1      3352 1.16910E+01 2.57125E+01 0.00000E+00
 -1      3353 1.16910E+01 1.98188E+01 0.00000E+00
 -1      3354 1.29900E+01 2.05562E+01 0.00000E+00
 -1      3355 1.16910E+01 1.83500E+01 0.00000E+00
 -1      3356 2.20906E+01 3.63593E+01 0.00000E+00
 -1      3357 2.32385E+01 3.53438E+01 0.00000E+00
 -1      3358 2.25044E+01 3.45726E+01 0.00000E+00
 -1      3359 2.06015E+01 3.61975E+01 0.00000E+00
 -1      3360 1.38054E+02 3.61775E+01 0.00000E+00
 -1      3361 1.36755E+02 3.54400E+01 0.00000E+00
 -1      3362 5.19691E+01 3.54266E+01 0.00000E+00
 -1      3363 2.60589E+01 2.36344E+01 0.00000E+00
 -1      3364 1.38309E+02 1.98687E+01 0.00000E+00
 -1      3365 1.38309E+02 1.84000E+01 0.00000E+00
 -1      3366 1.37010E+02 2.06063E+01 0.00000E+00
 -1      3367 1.56240E+01 1.12805E+01 0.00000E+00
 -1      3368 1.41241E+01 1.12805E+01 0.00000E+00
 -1      3369 5.05992E+01 2.66063E+01 0.00000E+00
 -1      3370 2.32198E+01 3.19033E+01 0.00000E+00
 -1      3371 2.23392E+01 3.10391E+01 0.00000E+00
 -1      3372 2.25752E+01 3.28960E+01 0.00000E+00
 -1      3373 3.01583E+01 1.99368E+01 0.00000E+00
 -1      3374 1.16910E+01 1.54094E+01 0.00000E+00
 -1      3375 1.16910E+01 1.68781E+01 0.00000E+00
 -1      3376 1.29900E+01 1.76156E+01 0.00000E+00
 -1      3377 1.29900E+01 1.46719E+01 0.00000E+00
 -1      3378 3.83678E+01 1.77202E+01 0.00000E+00
 -1      3379 3.91864E+01 1.82300E+01 0.00000E+00
 -1      3380 4.00468E+01 1.74920E+01 0.00000E+00
 -1      3381 2.44813E+01 2.62326E+01 0.00000E+00
 -1      3382 2.34470E+01 2.88228E+01 0.00000E+00
 -1      3383 1.16910E+01 3.01219E+01 0.00000E+00
 -1      3384 1.16910E+01 3.15906E+01 0.00000E+00
 -1      3385 1.29900E+01 3.23250E+01 0.00000E+00
 -1      3386 9.49785E+00 3.68250E+01 0.00000E+00
 -1      3387 2.80602E+01 2.15497E+01 0.00000E+00
 -1      3388 1.38174E+02 3.72140E+01 0.00000E+00
 -1      3389 3.59848E+01 1.81581E+01 0.00000E+00
 -1      3390 1.39320E+01 1.28898E+01 0.00000E+00
 -1      3391 1.07968E+01 3.60875E+01 0.00000E+00
 -1      3392 1.38309E+02 1.69312E+01 0.00000E+00
 -1      3393 1.38309E+02 1.54625E+01 0.00000E+00
 -1      3394 1.37010E+02 1.76688E+01 0.00000E+00
 -1      3395 4.93377E+01 2.38160E+01 0.00000E+00
 -1      3396 1.38385E+02 1.36172E+01 0.00000E+00
 -1      3397 1.37086E+02 1.43547E+01 0.00000E+00
 -1      3398 1.63740E+01 1.25795E+01 0.00000E+00
 -1      3399 4.11240E+01 1.37722E+01 0.00000E+00
 -1      3400 3.96240E+01 1.37722E+01 0.00000E+00
 -1      3401 1.35255E+02 3.54400E+01 0.00000E+00
 -1      3402 1.35510E+02 3.38250E+01 0.00000E+00
 -1      3403 1.33755E+02 3.54400E+01 0.00000E+00
 -1      3404 5.62500E+01 3.57785E+01 0.00000E+00
 -1      3405 5.77500E+01 3.57785E+01 0.00000E+00
 -1      3406 5.31883E+01 3.55363E+01 0.00000E+00
 -1      3407 5.50308E+01 3.56689E+01 0.00000E+00
 -1      3408 5.57808E+01 3.43924E+01 0.00000E+00
 -1      3409 5.33425E+01 3.41730E+01 0.00000E+00
 -1      3410 4.51123E+01 1.83815E+01 0.00000E+00
 -1      3411 4.64056E+01 1.94079E+01 0.00000E+00
 -1      3412 5.92500E+01 3.57785E+01 0.00000E+00
 -1      3413 6.07500E+01 3.57785E+01 0.00000E+00
 -1      3414 5.85000E+01 3.45021E+01 0.00000E+00
 -1      3415 6.22500E+01 3.57785E+01 0.00000E+00
 -1      3416 6.37500E+01 3.57785E+01 0.00000E+00
 -1      3417 6.15000E+01 3.45021E+01 0.00000E+00
 -1      3418 6.52500E+01 3.57785E+01 0.00000E+00
 -1      3419 6.67500E+01 3.57785E+01 0.00000E+00
 -1      3420 6.45000E+01 3.45021E+01 0.00000E+00
 -1      3421 6.82500E+01 3.57785E+01 0.00000E+00
 -1      3422 6.97500E+01 3.57785E+01 0.00000E+00
 -1      3423 6.75000E+01 3.45021E+01 0.00000E+00
 -1      3424 7.12500E+01 3.57785E+01 0.00000E+00
 -1      3425 7.27500E+01 3.57785E+01 0.00000E+00
 -1      3426 7.05000E+01 3.45021E+01 0.00000E+00
 -1      3427 7.42500E+01 3.57785E+01 0.00000E+00
 -1      3428 7.57500E+01 3.57785E+01 0.00000E+00
 -1      3429 7.35000E+01 3.45021E+01 0.00000E+00
 -1      3430 7.72500E+01 3.57785E+01 0.00000E+00
 -1      3431 7.87500E+01 3.57785E+01 0.00000E+00
 -1      3432 7.65000E+01 3.45021E+01 0.00000E+00
 -1      3433 8.02500E+01 3.57785E+01 0.00000E+00
 -1      3434 8.17500E+01 3.57785E+01 0.00000E+00
 -1      3435 7.95000E+01 3.45021E+01 0.00000E+00
 -1      3436 8.32500E+01 3.57785E+01 0.00000E+00
 -1      3437 8.47500E+01 3.57785E+01 0.00000E+00
 -1      3438 8.25000E+01 3.45021E+01 0.00000E+00
 -1      3439 8.62500E+01 3.57785E+01 0.00000E+00
 -1      3440 8.77500E+01 3.57785E+01 0.00000E+00
 -1      3441 8.55000E+01 3.45021E+01 0.00000E+00
 -1      3442 8.92500E+01 3.57785E+01 0.00000E+00
 -1      3443 9.07500E+01 3.57785E+01 0.00000E+00
 -1      3444 8.85000E+01 3.45021E+01 0.00000E+00
 -1      3445 9.22500E+01 3.57785E+01 0.00000E+00
 -1      3446 9.37500E+01 3.57785E+01 0.00000E+00
 -1      3447 9.15000E+01 3.45021E+01 0.00000E+00
 -1      3448 9.52500E+01 3.57785E+01 0.00000E+00
 -1      3449 9.67500E+01 3.57785E+01 0.00000E+00
 -1      3450 9.45000E+01 3.45021E+01 0.00000E+00
 -1      3451 9.82500E+01 3.57785E+01 0.00000E+00
 -1      3452 9.97500E+01 3.57785E+01 0.00000E+00
 -1      3453 9.75000E+01 3.45021E+01 0.00000E+00
 -1      3454 1.01250E+02 3.57785E+01 0.00000E+00
 -1      3455 1.02750E+02 3.57785E+01 0.00000E+00
 -1      3456 1.00500E+02 3.45021E+01 0.00000E+00
 -1      3457 1.04250E+02 3.57785E+01 0.00000E+00
 -1      3458 1.05750E+02 3.57785E+01 0.00000E+00
 -1      3459 1.03500E+02 3.45021E+01 0.00000E+00
 -1      3460 1.07250E+02 3.57785E+01 0.00000E+00
 -1      3461 1.08750E+02 3.57785E+01 0.00000E+00
 -1      3462 1.06500E+02 3.45021E+01 0.00000E+00
 -1      3463 1.10250E+02 3.57785E+01 0.00000E+00
 -1      3464 1.11750E+02 3.57785E+01 0.00000E+00
 -1      3465 1.09500E+02 3.45021E+01 0.00000E+00
 -1      3466 1.13250E+02 3.57785E+01 0.00000E+00
 -1      3467 1.14750E+02 3.57785E+01 0.00000E+00
 -1      3468 1.12500E+02 3.45021E+01 0.00000E+00
 -1      3469 1.16250E+02 3.57785E+01 0.00000E+00
 -1      3470 1.17750E+02 3.57785E+01 0.00000E+00
 -1      3471 1.15500E+02 3.45021E+01 0.00000E+00
 -1      3472 1.19250E+02 3.57785E+01 0.00000E+00
 -1      3473 1.20750E+02 3.57785E+01 0.00000E+00
 -1      3474 1.18500E+02 3.45021E+01 0.00000E+00
 -1      3475 1.22250E+02 3.57785E+01 0.00000E+00
 -1      3476 1.23750E+02 3.57785E+01 0.00000E+00
 -1      3477 1.21500E+02 3.45021E+01 0.00000E+00
 -1      3478 1.25250E+02 3.57785E+01 0.00000E+00
 -1      3479 1.26750E+02 3.57785E+01 0.00000E+00
 -1      3480 1.24500E+02 3.45021E+01 0.00000E+00
 -1      3481 1.28250E+02 3.57785E+01 0.00000E+00
 -1      3482 1.29750E+02 3.57785E+01 0.00000E+00
 -1      3483 1.27500E+02 3.45021E+01 0.00000E+00
 -1      3484 1.31003E+02 3.56093E+01 0.00000E+00
 -1      3485 1.32503E+02 3.56093E+01 0.00000E+00
 -1      3486 1.32758E+02 3.39943E+01 0.00000E+00
 -1      3487 1.30253E+02 3.43328E+01 0.00000E+00
 -1      3488 3.51240E+01 1.38785E+01 0.00000E+00
 -1      3489 3.36240E+01 1.38785E+01 0.00000E+00
 -1      3490 3.26829E+01 1.47061E+01 0.00000E+00
 -1      3491 3.11829E+01 1.47061E+01 0.00000E+00
 -1      3492 4.41240E+01 1.37722E+01 0.00000E+00
 -1      3493 4.26240E+01 1.37722E+01 0.00000E+00
 -1      3494 4.18740E+01 1.49649E+01 0.00000E+00
 -1      3495 4.71240E+01 1.37722E+01 0.00000E+00
 -1      3496 4.56240E+01 1.37722E+01 0.00000E+00
 -1      3497 4.48740E+01 1.49649E+01 0.00000E+00
 -1      3498 5.01240E+01 1.37722E+01 0.00000E+00
 -1      3499 4.86240E+01 1.37722E+01 0.00000E+00
 -1      3500 4.78740E+01 1.49649E+01 0.00000E+00
 -1      3501 5.31240E+01 1.37722E+01 0.00000E+00
 -1      3502 5.16240E+01 1.37722E+01 0.00000E+00
 -1      3503 5.08740E+01 1.49649E+01 0.00000E+00
 -1      3504 5.61240E+01 1.37722E+01 0.00000E+00
 -1      3505 5.46240E+01 1.37722E+01 0.00000E+00
 -1      3506 5.38740E+01 1.49649E+01 0.00000E+00
 -1      3507 5.91240E+01 1.37722E+01 0.00000E+00
 -1      3508 5.76240E+01 1.37722E+01 0.00000E+00
 -1      3509 5.68740E+01 1.49649E+01 0.00000E+00
 -1      3510 6.21240E+01 1.37722E+01 0.00000E+00
 -1      3511 6.06240E+01 1.37722E+01 0.00000E+00
 -1      3512 5.98740E+01 1.49649E+01 0.00000E+00
 -1      3513 6.51240E+01 1.37722E+01 0.00000E+00
 -1      3514 6.36240E+01 1.37722E+01 0.00000E+00
 -1      3515 6.28740E+01 1.49649E+01 0.00000E+00
 -1      3516 6.81240E+01 1.37722E+01 0.00000E+00
 -1      3517 6.66240E+01 1.37722E+01 0.00000E+00
 -1      3518 6.58740E+01 1.49649E+01 0.00000E+00
 -1      3519 7.11240E+01 1.37722E+01 0.00000E+00
 -1      3520 6.96240E+01 1.37722E+01 0.00000E+00
 -1      3521 6.88740E+01 1.49649E+01 0.00000E+00
 -1      3522 7.41240E+01 1.37722E+01 0.00000E+00
 -1      3523 7.26240E+01 1.37722E+01 0.00000E+00
 -1      3524 7.18740E+01 1.49649E+01 0.00000E+00
 -1      3525 7.71240E+01 1.37722E+01 0.00000E+00
 -1      3526 7.56240E+01 1.37722E+01 0.00000E+00
 -1      3527 7.48740E+01 1.49649E+01 0.00000E+00
 -1      3528 8.01240E+01 1.37722E+01 0.00000E+00
 -1      3529 7.86240E+01 1.37722E+01 0.00000E+00
 -1      3530 7.78740E+01 1.49649E+01 0.00000E+00
 -1      3531 8.31240E+01 1.37722E+01 0.00000E+00
 -1      3532 8.16240E+01 1.37722E+01 0.00000E+00
 -1      3533 8.08740E+01 1.49649E+01 0.00000E+00
 -1      3534 8.61240E+01 1.37722E+01 0.00000E+00
 -1      3535 8.46240E+01 1.37722E+01 0.00000E+00
 -1      3536 8.38740E+01 1.49649E+01 0.00000E+00
 -1      3537 8.91240E+01 1.37722E+01 0.00000E+00
 -1      3538 8.76240E+01 1.37722E+01 0.00000E+00
 -1      3539 8.68740E+01 1.49649E+01 0.00000E+00
 -1      3540 9.21240E+01 1.37722E+01 0.00000E+00
 -1      3541 9.06240E+01 1.37722E+01 0.00000E+00
 -1      3542 8.98740E+01 1.49649E+01 0.00000E+00
 -1      3543 9.51240E+01 1.37722E+01 0.00000E+00
 -1      3544 9.36240E+01 1.37722E+01 0.00000E+00
 -1      3545 9.28740E+01 1.49649E+01 0.00000E+00
 -1      3546 9.81240E+01 1.37722E+01 0.00000E+00
 -1      3547 9.66240E+01 1.37722E+01 0.00000E+00
 -1      3548 9.58740E+01 1.49649E+01 0.00000E+00
 -1      3549 1.01124E+02 1.37722E+01 0.00000E+00
 -1      3550 9.96240E+01 1.37722E+01 0.00000E+00
 -1      3551 9.88740E+01 1.49649E+01 0.00000E+00
 -1      3552 1.04124E+02 1.37722E+01 0.00000E+00
 -1      3553 1.02624E+02 1.37722E+01 0.00000E+00
 -1      3554 1.01874E+02 1.49649E+01 0.00000E+00
 -1      3555 1.07124E+02 1.37722E+01 0.00000E+00
 -1      3556 1.05624E+02 1.37722E+01 0.00000E+00
 -1      3557 1.04874E+02 1.49649E+01 0.00000E+00
 -1      3558 1.10124E+02 1.37722E+01 0.00000E+00
 -1      3559 1.08624E+02 1.37722E+01 0.00000E+00
 -1      3560 1.07874E+02 1.49649E+01 0.00000E+00
 -1      3561 1.13124E+02 1.37722E+01 0.00000E+00
 -1      3562 1.11624E+02 1.37722E+01 0.00000E+00
 -1      3563 1.10874E+02 1.49649E+01 0.00000E+00
 -1      3564 1.16124E+02 1.37722E+01 0.00000E+00
 -1      3565 1.14624E+02 1.37722E+01 0.00000E+00
 -1      3566 1.13874E+02 1.49649E+01 0.00000E+00
 -1      3567 1.19124E+02 1.37722E+01 0.00000E+00
 -1      3568 1.17624E+02 1.37722E+01 0.00000E+00
 -1      3569 1.16874E+02 1.49649E+01 0.00000E+00
 -1      3570 1.22124E+02 1.37722E+01 0.00000E+00
 -1      3571 1.20624E+02 1.37722E+01 0.00000E+00
 -1      3572 1.19874E+02 1.49649E+01 0.00000E+00
 -1      3573 1.25124E+02 1.37722E+01 0.00000E+00
 -1      3574 1.23624E+02 1.37722E+01 0.00000E+00
 -1      3575 1.22874E+02 1.49649E+01 0.00000E+00
 -1      3576 1.28124E+02 1.37722E+01 0.00000E+00
 -1      3577 1.26624E+02 1.37722E+01 0.00000E+00
 -1      3578 1.25874E+02 1.49649E+01 0.00000E+00
 -1      3579 1.31124E+02 1.37722E+01 0.00000E+00
 -1      3580 1.29624E+02 1.37722E+01 0.00000E+00
 -1      3581 1.28874E+02 1.49649E+01 0.00000E+00
 -1      3582 1.34124E+02 1.37722E+01 0.00000E+00
 -1      3583 1.32624E+02 1.37722E+01 0.00000E+00
 -1      3584 1.31874E+02 1.49649E+01 0.00000E+00
 -1      3585 1.35942E+02 1.43897E+01 0.00000E+00
 -1      3586 1.35711E+02 3.01500E+01 0.00000E+00
 -1      3587 1.35711E+02 2.87000E+01 0.00000E+00
 -1      3588 2.46970E+01 2.35485E+01 0.00000E+00
 -1      3589 2.57035E+01 2.23169E+01 0.00000E+00
 -1      3590 5.12038E+01 2.55315E+01 0.00000E+00
 -1      3591 5.17591E+01 2.70249E+01 0.00000E+00
 -1      3592 2.68410E+01 2.11344E+01 0.00000E+00
 -1      3593 2.78358E+01 2.02814E+01 0.00000E+00
 -1      3594 1.16910E+01 2.71844E+01 0.00000E+00
 -1      3595 1.16910E+01 2.86531E+01 0.00000E+00
 -1      3596 1.29900E+01 2.93875E+01 0.00000E+00
 -1      3597 4.21197E+01 1.64834E+01 0.00000E+00
 -1      3598 4.35752E+01 1.68509E+01 0.00000E+00
 -1      3599 4.98850E+01 2.26773E+01 0.00000E+00
 -1      3600 5.05911E+01 2.39742E+01 0.00000E+00
 -1      3601 1.48741E+01 1.40514E+01 0.00000E+00
 -1      3602 1.39320E+01 1.43616E+01 0.00000E+00
 -1      3603 1.39320E+01 1.58335E+01 0.00000E+00
 -1      3604 2.32499E+01 2.65205E+01 0.00000E+00
 -1      3605 2.38211E+01 2.51539E+01 0.00000E+00
 -1      3606 3.54540E+01 1.68379E+01 0.00000E+00
 -1      3607 3.69766E+01 1.71379E+01 0.00000E+00
 -1      3608 2.01240E+01 1.38785E+01 0.00000E+00
 -1      3609 1.86240E+01 1.38785E+01 0.00000E+00
 -1      3610 2.23235E+01 2.89678E+01 0.00000E+00
 -1      3611 2.27867E+01 2.77442E+01 0.00000E+00
 -1      3612 2.21265E+01 2.66656E+01 0.00000E+00
 -1      3613 1.74990E+01 1.39649E+01 0.00000E+00
 -1      3614 1.59990E+01 1.39649E+01 0.00000E+00
 -1      3615 1.59990E+01 1.54368E+01 0.00000E+00
 -1      3616 1.82490E+01 1.52639E+01 0.00000E+00
 -1      3617 1.35510E+02 3.23500E+01 0.00000E+00
 -1      3618 1.74000E+01 3.57110E+01 0.00000E+00
 -1      3619 1.89000E+01 3.57110E+01 0.00000E+00
 -1      3620 2.89777E+01 1.94035E+01 0.00000E+00
 -1      3621 3.00810E+01 1.86436E+01 0.00000E+00
 -1      3622 4.76023E+01 2.03401E+01 0.00000E+00
 -1      3623 4.87366E+01 2.12048E+01 0.00000E+00
 -1      3624 1.19250E+01 3.53200E+01 0.00000E+00
 -1      3625 1.23298E+01 3.61450E+01 0.00000E+00
 -1      3626 1.36919E+01 3.61694E+01 0.00000E+00
 -1      3627 1.32240E+01 3.45856E+01 0.00000E+00
 -1      3628 1.35192E+02 1.55824E+01 0.00000E+00
 -1      3629 1.98515E+01 3.48985E+01 0.00000E+00
 -1      3630 5.28856E+01 2.73831E+01 0.00000E+00
 -1      3631 4.49112E+01 1.64955E+01 0.00000E+00
 -1      3632 5.42416E+01 3.04979E+01 0.00000E+00
 -1      3633 5.47144E+01 3.14711E+01 0.00000E+00
 -1      3634 3.06961E+01 1.74715E+01 0.00000E+00
 -1      3635 2.53740E+01 1.25795E+01 0.00000E+00
 -1      3636 3.81240E+01 1.38560E+01 0.00000E+00
 -1      3637 3.66240E+01 1.38560E+01 0.00000E+00
 -1      3638 1.42890E+01 2.27625E+01 0.00000E+00
 -1      3639 1.42890E+01 2.42375E+01 0.00000E+00
 -1      3640 1.29900E+01 2.64469E+01 0.00000E+00
 -1      3641 3.88740E+01 1.50487E+01 0.00000E+00
 -1      3642 2.93872E+01 1.53449E+01 0.00000E+00
 -1      3643 2.34656E+01 2.38365E+01 0.00000E+00
 -1      3644 1.34211E+02 3.16250E+01 0.00000E+00
 -1      3645 3.78371E+01 1.64000E+01 0.00000E+00
 -1      3646 1.34412E+02 2.79500E+01 0.00000E+00
 -1      3647 1.35711E+02 2.72250E+01 0.00000E+00
 -1      3648 1.35711E+02 2.57500E+01 0.00000E+00
 -1      3649 4.76450E+01 1.89583E+01 0.00000E+00
 -1      3650 1.35711E+02 2.13406E+01 0.00000E+00
 -1      3651 1.35711E+02 1.98719E+01 0.00000E+00
 -1      3652 2.54791E+01 2.10485E+01 0.00000E+00
 -1      3653 1.35192E+02 1.70512E+01 0.00000E+00
 -1      3654 1.33374E+02 1.64336E+01 0.00000E+00
 -1      3655 1.35192E+02 1.85199E+01 0.00000E+00
 -1      3656 2.77585E+01 1.89882E+01 0.00000E+00
 -1      3657 2.16238E+01 3.37085E+01 0.00000E+00
 -1      3658 1.42890E+01 1.98250E+01 0.00000E+00
 -1      3659 1.42890E+01 2.12938E+01 0.00000E+00
 -1      3660 1.55880E+01 2.20313E+01 0.00000E+00
 -1      3661 3.34329E+01 1.60051E+01 0.00000E+00
 -1      3662 3.44181E+01 1.65178E+01 0.00000E+00
 -1      3663 5.42198E+01 3.33808E+01 0.00000E+00
 -1      3664 5.17511E+01 2.43928E+01 0.00000E+00
 -1      3665 1.48649E+01 3.59280E+01 0.00000E+00
 -1      3666 1.62270E+01 3.59524E+01 0.00000E+00
 -1      3667 1.69770E+01 3.46534E+01 0.00000E+00
 -1      3668 1.46309E+01 3.51361E+01 0.00000E+00
 -1      3669 1.41630E+01 3.35524E+01 0.00000E+00
 -1      3670 1.43970E+01 3.43442E+01 0.00000E+00
 -1      3671 1.55700E+01 3.41029E+01 0.00000E+00
 -1      3672 2.16789E+01 2.99605E+01 0.00000E+00
 -1      3673 2.10187E+01 2.88819E+01 0.00000E+00
 -1      3674 2.10344E+01 3.09532E+01 0.00000E+00
 -1      3675 2.16240E+01 1.38785E+01 0.00000E+00
 -1      3676 2.08740E+01 1.51775E+01 0.00000E+00
 -1      3677 2.31240E+01 1.38785E+01 0.00000E+00
 -1      3678 3.54099E+01 1.54976E+01 0.00000E+00
 -1      3679 1.41630E+01 3.20836E+01 0.00000E+00
 -1      3680 1.35711E+02 2.42828E+01 0.00000E+00
 -1      3681 1.35711E+02 2.28078E+01 0.00000E+00
 -1      3682 1.34412E+02 2.20734E+01 0.00000E+00
 -1      3683 1.34412E+02 2.50078E+01 0.00000E+00
 -1      3684 4.99900E+01 2.13631E+01 0.00000E+00
 -1      3685 5.12434E+01 2.15213E+01 0.00000E+00
 -1      3686 5.00951E+01 2.00488E+01 0.00000E+00
 -1      3687 5.44791E+01 2.96397E+01 0.00000E+00
 -1      3688 2.78872E+01 1.53449E+01 0.00000E+00
 -1      3689 2.70728E+01 1.71665E+01 0.00000E+00
 -1      3690 2.60596E+01 1.44012E+01 0.00000E+00
 -1      3691 2.45596E+01 1.44012E+01 0.00000E+00
 -1      3692 2.59309E+01 1.80445E+01 0.00000E+00
 -1      3693 2.18873E+01 2.40170E+01 0.00000E+00
 -1      3694 2.27633E+01 2.24115E+01 0.00000E+00
 -1      3695 5.54390E+01 3.34904E+01 0.00000E+00
 -1      3696 5.66581E+01 3.36001E+01 0.00000E+00
 -1      3697 5.50971E+01 3.25885E+01 0.00000E+00
 -1      3698 1.45156E+01 3.05724E+01 0.00000E+00
 -1      3699 1.56886E+01 3.17998E+01 0.00000E+00
 -1      3700 5.81581E+01 3.36001E+01 0.00000E+00
 -1      3701 5.96581E+01 3.36001E+01 0.00000E+00
 -1      3702 5.78162E+01 3.26982E+01 0.00000E+00
 -1      3703 1.55880E+01 2.49719E+01 0.00000E+00
 -1      3704 1.42890E+01 2.57094E+01 0.00000E+00
 -1      3705 1.42890E+01 2.71812E+01 0.00000E+00
 -1      3706 6.11581E+01 3.36001E+01 0.00000E+00
 -1      3707 6.26581E+01 3.36001E+01 0.00000E+00
 -1      3708 6.08162E+01 3.26982E+01 0.00000E+00
 -1      3709 6.41581E+01 3.36001E+01 0.00000E+00
 -1      3710 6.56581E+01 3.36001E+01 0.00000E+00
 -1      3711 6.38162E+01 3.26982E+01 0.00000E+00
 -1      3712 6.71581E+01 3.36001E+01 0.00000E+00
 -1      3713 6.86581E+01 3.36001E+01 0.00000E+00
 -1      3714 6.68162E+01 3.26982E+01 0.00000E+00
 -1      3715 7.01581E+01 3.36001E+01 0.00000E+00
 -1      3716 7.16581E+01 3.36001E+01 0.00000E+00
 -1      3717 6.98162E+01 3.26982E+01 0.00000E+00
 -1      3718 7.31581E+01 3.36001E+01 0.00000E+00
 -1      3719 7.46581E+01 3.36001E+01 0.00000E+00
 -1      3720 7.28162E+01 3.26982E+01 0.00000E+00
 -1      3721 7.61581E+01 3.36001E+01 0.00000E+00
 -1      3722 7.76581E+01 3.36001E+01 0.00000E+00
 -1      3723 7.58162E+01 3.26982E+01 0.00000E+00
 -1      3724 7.91581E+01 3.36001E+01 0.00000E+00
 -1      3725 8.06581E+01 3.36001E+01 0.00000E+00
 -1      3726 7.88162E+01 3.26982E+01 0.00000E+00
 -1      3727 8.21581E+01 3.36001E+01 0.00000E+00
 -1      3728 8.36581E+01 3.36001E+01 0.00000E+00
 -1      3729 8.18162E+01 3.26982E+01 0.00000E+00
 -1      3730 8.51581E+01 3.36001E+01 0.00000E+00
 -1      3731 8.66581E+01 3.36001E+01 0.00000E+00
 -1      3732 8.48162E+01 3.26982E+01 0.00000E+00
 -1      3733 8.81581E+01 3.36001E+01 0.00000E+00
 -1      3734 8.96581E+01 3.36001E+01 0.00000E+00
 -1      3735 8.78162E+01 3.26982E+01 0.00000E+00
 -1      3736 9.11581E+01 3.36001E+01 0.00000E+00
 -1      3737 9.26581E+01 3.36001E+01 0.00000E+00
 -1      3738 9.08162E+01 3.26982E+01 0.00000E+00
 -1      3739 9.41581E+01 3.36001E+01 0.00000E+00
 -1      3740 9.56581E+01 3.36001E+01 0.00000E+00
 -1      3741 9.38162E+01 3.26982E+01 0.00000E+00
 -1      3742 9.71581E+01 3.36001E+01 0.00000E+00
 -1      3743 9.86581E+01 3.36001E+01 0.00000E+00
 -1      3744 9.68162E+01 3.26982E+01 0.00000E+00
 -1      3745 1.00158E+02 3.36001E+01 0.00000E+00
 -1      3746 1.01658E+02 3.36001E+01 0.00000E+00
 -1      3747 9.98162E+01 3.26982E+01 0.00000E+00
 -1      3748 1.03158E+02 3.36001E+01 0.00000E+00
 -1      3749 1.04658E+02 3.36001E+01 0.00000E+00
 -1      3750 1.02816E+02 3.26982E+01 0.00000E+00
 -1      3751 1.06158E+02 3.36001E+01 0.00000E+00
 -1      3752 1.07658E+02 3.36001E+01 0.00000E+00
 -1      3753 1.05816E+02 3.26982E+01 0.00000E+00
 -1      3754 1.09158E+02 3.36001E+01 0.00000E+00
 -1      3755 1.10658E+02 3.36001E+01 0.00000E+00
 -1      3756 1.08816E+02 3.26982E+01 0.00000E+00
 -1      3757 1.12158E+02 3.36001E+01 0.00000E+00
 -1      3758 1.13658E+02 3.36001E+01 0.00000E+00
 -1      3759 1.11816E+02 3.26982E+01 0.00000E+00
 -1      3760 1.15158E+02 3.36001E+01 0.00000E+00
 -1      3761 1.16658E+02 3.36001E+01 0.00000E+00
 -1      3762 1.14816E+02 3.26982E+01 0.00000E+00
 -1      3763 1.18158E+02 3.36001E+01 0.00000E+00
 -1      3764 1.19658E+02 3.36001E+01 0.00000E+00
 -1      3765 1.17816E+02 3.26982E+01 0.00000E+00
 -1      3766 1.21158E+02 3.36001E+01 0.00000E+00
 -1      3767 1.22658E+02 3.36001E+01 0.00000E+00
 -1      3768 1.20816E+02 3.26982E+01 0.00000E+00
 -1      3769 1.24158E+02 3.36001E+01 0.00000E+00
 -1      3770 1.25658E+02 3.36001E+01 0.00000E+00
 -1      3771 1.23816E+02 3.26982E+01 0.00000E+00
 -1      3772 1.27158E+02 3.36001E+01 0.00000E+00
 -1      3773 1.28658E+02 3.36001E+01 0.00000E+00
 -1      3774 1.26816E+02 3.26982E+01 0.00000E+00
 -1      3775 3.61599E+01 1.41986E+01 0.00000E+00
 -1      3776 5.16240E+01 1.62639E+01 0.00000E+00
 -1      3777 5.01240E+01 1.62639E+01 0.00000E+00
 -1      3778 5.46240E+01 1.62639E+01 0.00000E+00
 -1      3779 5.31240E+01 1.62639E+01 0.00000E+00
 -1      3780 5.23740E+01 1.75629E+01 0.00000E+00
 -1      3781 5.76240E+01 1.62639E+01 0.00000E+00
 -1      3782 5.61240E+01 1.62639E+01 0.00000E+00
 -1      3783 5.53740E+01 1.75629E+01 0.00000E+00
 -1      3784 6.06240E+01 1.62639E+01 0.00000E+00
 -1      3785 5.91240E+01 1.62639E+01 0.00000E+00
 -1      3786 5.83740E+01 1.75629E+01 0.00000E+00
 -1      3787 6.36240E+01 1.62639E+01 0.00000E+00
 -1      3788 6.21240E+01 1.62639E+01 0.00000E+00
 -1      3789 6.13740E+01 1.75629E+01 0.00000E+00
 -1      3790 6.66240E+01 1.62639E+01 0.00000E+00
 -1      3791 6.51240E+01 1.62639E+01 0.00000E+00
 -1      3792 6.43740E+01 1.75629E+01 0.00000E+00
 -1      3793 6.96240E+01 1.62639E+01 0.00000E+00
 -1      3794 6.81240E+01 1.62639E+01 0.00000E+00
 -1      3795 6.73740E+01 1.75629E+01 0.00000E+00
 -1      3796 7.26240E+01 1.62639E+01 0.00000E+00
 -1      3797 7.11240E+01 1.62639E+01 0.00000E+00
 -1      3798 7.03740E+01 1.75629E+01 0.00000E+00
 -1      3799 7.56240E+01 1.62639E+01 0.00000E+00
 -1      3800 7.41240E+01 1.62639E+01 0.00000E+00
 -1      3801 7.33740E+01 1.75629E+01 0.00000E+00
 -1      3802 7.86240E+01 1.62639E+01 0.00000E+00
 -1      3803 7.71240E+01 1.62639E+01 0.00000E+00
 -1      3804 7.63740E+01 1.75629E+01 0.00000E+00
 -1      3805 8.16240E+01 1.62639E+01 0.00000E+00
 -1      3806 8.01240E+01 1.62639E+01 0.00000E+00
 -1      3807 7.93740E+01 1.75629E+01 0.00000E+00
 -1      3808 8.46240E+01 1.62639E+01 0.00000E+00
 -1      3809 8.31240E+01 1.62639E+01 0.00000E+00
 -1      3810 8.23740E+01 1.75629E+01 0.00000E+00
 -1      3811 8.76240E+01 1.62639E+01 0.00000E+00
 -1      3812 8.61240E+01 1.62639E+01 0.00000E+00
 -1      3813 8.53740E+01 1.75629E+01 0.00000E+00
 -1      3814 9.06240E+01 1.62639E+01 0.00000E+00
 -1      3815 8.91240E+01 1.62639E+01 0.00000E+00
 -1      3816 8.83740E+01 1.75629E+01 0.00000E+00
 -1      3817 9.36240E+01 1.62639E+01 0.00000E+00
 -1      3818 9.21240E+01 1.62639E+01 0.00000E+00
 -1      3819 9.13740E+01 1.75629E+01 0.00000E+00
 -1      3820 9.66240E+01 1.62639E+01 0.00000E+00
 -1      3821 9.51240E+01 1.62639E+01 0.00000E+00
 -1      3822 9.43740E+01 1.75629E+01 0.00000E+00
 -1      3823 9.96240E+01 1.62639E+01 0.00000E+00
 -1      3824 9.81240E+01 1.62639E+01 0.00000E+00
 -1      3825 9.73740E+01 1.75629E+01 0.00000E+00
 -1      3826 1.02624E+02 1.62639E+01 0.00000E+00
 -1      3827 1.01124E+02 1.62639E+01 0.00000E+00
 -1      3828 1.00374E+02 1.75629E+01 0.00000E+00
 -1      3829 1.05624E+02 1.62639E+01 0.00000E+00
 -1      3830 1.04124E+02 1.62639E+01 0.00000E+00
 -1      3831 1.03374E+02 1.75629E+01 0.00000E+00
 -1      3832 1.08624E+02 1.62639E+01 0.00000E+00
 -1      3833 1.07124E+02 1.62639E+01 0.00000E+00
 -1      3834 1.06374E+02 1.75629E+01 0.00000E+00
 -1      3835 1.11624E+02 1.62639E+01 0.00000E+00
 -1      3836 1.10124E+02 1.62639E+01 0.00000E+00
 -1      3837 1.09374E+02 1.75629E+01 0.00000E+00
 -1      3838 1.14624E+02 1.62639E+01 0.00000E+00
 -1      3839 1.13124E+02 1.62639E+01 0.00000E+00
 -1      3840 1.12374E+02 1.75629E+01 0.00000E+00
 -1      3841 1.17624E+02 1.62639E+01 0.00000E+00
 -1      3842 1.16124E+02 1.62639E+01 0.00000E+00
 -1      3843 1.15374E+02 1.75629E+01 0.00000E+00
 -1      3844 1.20624E+02 1.62639E+01 0.00000E+00
 -1      3845 1.19124E+02 1.62639E+01 0.00000E+00
 -1      3846 1.18374E+02 1.75629E+01 0.00000E+00
 -1      3847 1.23624E+02 1.62639E+01 0.00000E+00
 -1      3848 1.22124E+02 1.62639E+01 0.00000E+00
 -1      3849 1.21374E+02 1.75629E+01 0.00000E+00
 -1      3850 1.26624E+02 1.62639E+01 0.00000E+00
 -1      3851 1.25124E+02 1.62639E+01 0.00000E+00
 -1      3852 1.24374E+02 1.75629E+01 0.00000E+00
 -1      3853 1.29624E+02 1.62639E+01 0.00000E+00
 -1      3854 1.28124E+02 1.62639E+01 0.00000E+00
 -1      3855 1.27374E+02 1.75629E+01 0.00000E+00
 -1      3856 1.32249E+02 1.63488E+01 0.00000E+00
 -1      3857 1.30749E+02 1.63488E+01 0.00000E+00
 -1      3858 1.29999E+02 1.76478E+01 0.00000E+00
 -1      3859 1.32249E+02 1.78175E+01 0.00000E+00
 -1      3860 1.99223E+01 3.32219E+01 0.00000E+00
 -1      3861 5.35880E+01 2.63158E+01 0.00000E+00
 -1      3862 5.41098E+01 2.77488E+01 0.00000E+00
 -1      3863 2.37784E+01 2.08192E+01 0.00000E+00
 -1      3864 2.49159E+01 1.96368E+01 0.00000E+00
 -1      3865 2.42302E+01 1.78151E+01 0.00000E+00
 -1      3866 2.22001E+01 2.09998E+01 0.00000E+00
 -1      3867 4.64112E+01 1.64955E+01 0.00000E+00
 -1      3868 1.45156E+01 2.91037E+01 0.00000E+00
 -1      3869 1.32958E+02 3.17943E+01 0.00000E+00
 -1      3870 1.33160E+02 2.95943E+01 0.00000E+00
 -1      3871 1.31706E+02 3.19635E+01 0.00000E+00
 -1      3872 4.06197E+01 1.64834E+01 0.00000E+00
 -1      3873 4.86612E+01 1.77945E+01 0.00000E+00
 -1      3874 4.98578E+01 1.87267E+01 0.00000E+00
 -1      3875 5.59335E+01 3.15808E+01 0.00000E+00
 -1      3876 1.49655E+01 1.63711E+01 0.00000E+00
 -1      3877 1.40235E+01 1.66813E+01 0.00000E+00
 -1      3878 1.40235E+01 1.81532E+01 0.00000E+00
 -1      3879 1.60905E+01 1.62847E+01 0.00000E+00
 -1      3880 4.79112E+01 1.64955E+01 0.00000E+00
 -1      3881 2.07794E+01 2.68552E+01 0.00000E+00
 -1      3882 2.12426E+01 2.56315E+01 0.00000E+00
 -1      3883 1.33893E+02 1.92543E+01 0.00000E+00
 -1      3884 5.51815E+01 2.85724E+01 0.00000E+00
 -1      3885 5.62532E+01 2.93961E+01 0.00000E+00
 -1      3886 5.58838E+01 2.75052E+01 0.00000E+00
 -1      3887 3.98011E+01 1.59735E+01 0.00000E+00
 -1      3888 5.24767E+01 2.32082E+01 0.00000E+00
 -1      3889 5.30894E+01 2.47655E+01 0.00000E+00
 -1      3890 1.53225E+01 1.88907E+01 0.00000E+00
 -1      3891 1.58146E+01 2.83662E+01 0.00000E+00
 -1      3892 1.31907E+02 2.82885E+01 0.00000E+00
 -1      3893 1.33160E+02 2.81193E+01 0.00000E+00
 -1      3894 1.33160E+02 2.66443E+01 0.00000E+00
 -1      3895 1.68870E+01 2.42359E+01 0.00000E+00
 -1      3896 1.68870E+01 2.57078E+01 0.00000E+00
 -1      3897 2.38096E+01 1.57002E+01 0.00000E+00
 -1      3898 5.43135E+01 2.51312E+01 0.00000E+00
 -1      3899 2.05403E+01 2.42066E+01 0.00000E+00
 -1      3900 5.11112E+01 1.88850E+01 0.00000E+00
 -1      3901 5.68433E+01 3.04884E+01 0.00000E+00
 -1      3902 5.72261E+01 3.16058E+01 0.00000E+00
 -1      3903 5.87261E+01 3.16058E+01 0.00000E+00
 -1      3904 5.75457E+01 2.94212E+01 0.00000E+00
 -1      3905 5.26867E+01 2.05797E+01 0.00000E+00
 -1      3906 5.25817E+01 2.18939E+01 0.00000E+00
 -1      3907 5.39200E+01 2.22666E+01 0.00000E+00
 -1      3908 1.68870E+01 2.12984E+01 0.00000E+00
 -1      3909 1.68870E+01 2.27672E+01 0.00000E+00
 -1      3910 1.81860E+01 2.35031E+01 0.00000E+00
 -1      3911 3.83011E+01 1.60573E+01 0.00000E+00
 -1      3912 1.33287E+02 2.05214E+01 0.00000E+00
 -1      3913 1.32768E+02 1.91694E+01 0.00000E+00
 -1      3914 1.31643E+02 1.90846E+01 0.00000E+00
 -1      3915 1.89110E+01 1.65159E+01 0.00000E+00
 -1      3916 1.77860E+01 1.66023E+01 0.00000E+00
 -1      3917 1.33287E+02 2.34557E+01 0.00000E+00
 -1      3918 1.33287E+02 2.19886E+01 0.00000E+00
 -1      3919 1.32162E+02 2.19037E+01 0.00000E+00
 -1      3920 2.21103E+01 1.61080E+01 0.00000E+00
 -1      3921 2.06103E+01 1.61080E+01 0.00000E+00
 -1      3922 2.01474E+01 1.74464E+01 0.00000E+00
 -1      3923 2.35460E+01 1.66307E+01 0.00000E+00
 -1      3924 1.65091E+01 3.30696E+01 0.00000E+00
 -1      3925 1.67430E+01 3.38615E+01 0.00000E+00
 -1      3926 1.79160E+01 3.36201E+01 0.00000E+00
 -1      3927 1.92621E+01 3.21433E+01 0.00000E+00
 -1      3928 1.68616E+01 3.15584E+01 0.00000E+00
 -1      3929 3.69099E+01 1.54751E+01 0.00000E+00
 -1      3930 6.02261E+01 3.16058E+01 0.00000E+00
 -1      3931 6.17261E+01 3.16058E+01 0.00000E+00
 -1      3932 5.96359E+01 3.05135E+01 0.00000E+00
 -1      3933 6.32261E+01 3.16058E+01 0.00000E+00
 -1      3934 6.47261E+01 3.16058E+01 0.00000E+00
 -1      3935 6.26359E+01 3.05135E+01 0.00000E+00
 -1      3936 6.62261E+01 3.16058E+01 0.00000E+00
 -1      3937 6.77261E+01 3.16058E+01 0.00000E+00
 -1      3938 6.56359E+01 3.05135E+01 0.00000E+00
 -1      3939 6.92261E+01 3.16058E+01 0.00000E+00
 -1      3940 7.07261E+01 3.16058E+01 0.00000E+00
 -1      3941 6.86359E+01 3.05135E+01 0.00000E+00
 -1      3942 7.22261E+01 3.16058E+01 0.00000E+00
 -1      3943 7.37261E+01 3.16058E+01 0.00000E+00
 -1      3944 7.16359E+01 3.05135E+01 0.00000E+00
 -1      3945 7.52261E+01 3.16058E+01 0.00000E+00
 -1      3946 7.67261E+01 3.16058E+01 0.00000E+00
 -1      3947 7.46359E+01 3.05135E+01 0.00000E+00
 -1      3948 7.82261E+01 3.16058E+01 0.00000E+00
 -1      3949 7.97261E+01 3.16058E+01 0.00000E+00
 -1      3950 7.76359E+01 3.05135E+01 0.00000E+00
 -1      3951 8.12261E+01 3.16058E+01 0.00000E+00
 -1      3952 8.27261E+01 3.16058E+01 0.00000E+00
 -1      3953 8.06359E+01 3.05135E+01 0.00000E+00
 -1      3954 8.42261E+01 3.16058E+01 0.00000E+00
 -1      3955 8.57261E+01 3.16058E+01 0.00000E+00
 -1      3956 8.36359E+01 3.05135E+01 0.00000E+00
 -1      3957 8.72261E+01 3.16058E+01 0.00000E+00
 -1      3958 8.87261E+01 3.16058E+01 0.00000E+00
 -1      3959 8.66359E+01 3.05135E+01 0.00000E+00
 -1      3960 9.02261E+01 3.16058E+01 0.00000E+00
 -1      3961 9.17261E+01 3.16058E+01 0.00000E+00
 -1      3962 8.96359E+01 3.05135E+01 0.00000E+00
 -1      3963 9.32261E+01 3.16058E+01 0.00000E+00
 -1      3964 9.47261E+01 3.16058E+01 0.00000E+00
 -1      3965 9.26359E+01 3.05135E+01 0.00000E+00
 -1      3966 9.62261E+01 3.16058E+01 0.00000E+00
 -1      3967 9.77261E+01 3.16058E+01 0.00000E+00
 -1      3968 9.56359E+01 3.05135E+01 0.00000E+00
 -1      3969 9.92261E+01 3.16058E+01 0.00000E+00
 -1      3970 1.00726E+02 3.16058E+01 0.00000E+00
 -1      3971 9.86359E+01 3.05135E+01 0.00000E+00
 -1      3972 1.02226E+02 3.16058E+01 0.00000E+00
 -1      3973 1.03726E+02 3.16058E+01 0.00000E+00
 -1      3974 1.01636E+02 3.05135E+01 0.00000E+00
 -1      3975 1.05226E+02 3.16058E+01 0.00000E+00
 -1      3976 1.06726E+02 3.16058E+01 0.00000E+00
 -1      3977 1.04636E+02 3.05135E+01 0.00000E+00
 -1      3978 1.08226E+02 3.16058E+01 0.00000E+00
 -1      3979 1.09726E+02 3.16058E+01 0.00000E+00
 -1      3980 1.07636E+02 3.05135E+01 0.00000E+00
 -1      3981 1.11226E+02 3.16058E+01 0.00000E+00
 -1      3982 1.12726E+02 3.16058E+01 0.00000E+00
 -1      3983 1.10636E+02 3.05135E+01 0.00000E+00
 -1      3984 1.14226E+02 3.16058E+01 0.00000E+00
 -1      3985 1.15726E+02 3.16058E+01 0.00000E+00
 -1      3986 1.13636E+02 3.05135E+01 0.00000E+00
 -1      3987 1.17226E+02 3.16058E+01 0.00000E+00
 -1      3988 1.18726E+02 3.16058E+01 0.00000E+00
 -1      3989 1.16636E+02 3.05135E+01 0.00000E+00
 -1      3990 1.20226E+02 3.16058E+01 0.00000E+00
 -1      3991 1.21726E+02 3.16058E+01 0.00000E+00
 -1      3992 1.19636E+02 3.05135E+01 0.00000E+00
 -1      3993 1.23226E+02 3.16058E+01 0.00000E+00
 -1      3994 1.24726E+02 3.16058E+01 0.00000E+00
 -1      3995 1.22636E+02 3.05135E+01 0.00000E+00
 -1      3996 1.26226E+02 3.16058E+01 0.00000E+00
 -1      3997 1.27726E+02 3.16058E+01 0.00000E+00
 -1      3998 1.25636E+02 3.05135E+01 0.00000E+00
 -1      3999 1.29452E+02 3.31301E+01 0.00000E+00
 -1      4000 1.30705E+02 3.29609E+01 0.00000E+00
 -1      4001 5.91240E+01 1.88619E+01 0.00000E+00
 -1      4002 5.76240E+01 1.88619E+01 0.00000E+00
 -1      4003 1.29110E+02 3.22282E+01 0.00000E+00
 -1      4004 5.54495E+01 1.92576E+01 0.00000E+00
 -1      4005 5.39495E+01 1.92576E+01 0.00000E+00
 -1      4006 5.26112E+01 1.88850E+01 0.00000E+00
 -1      4007 6.21240E+01 1.88619E+01 0.00000E+00
 -1      4008 6.06240E+01 1.88619E+01 0.00000E+00
 -1      4009 5.98740E+01 2.01609E+01 0.00000E+00
 -1      4010 6.51240E+01 1.88619E+01 0.00000E+00
 -1      4011 6.36240E+01 1.88619E+01 0.00000E+00
 -1      4012 6.28740E+01 2.01609E+01 0.00000E+00
 -1      4013 6.81240E+01 1.88619E+01 0.00000E+00
 -1      4014 6.66240E+01 1.88619E+01 0.00000E+00
 -1      4015 6.58740E+01 2.01609E+01 0.00000E+00
 -1      4016 7.11240E+01 1.88619E+01 0.00000E+00
 -1      4017 6.96240E+01 1.88619E+01 0.00000E+00
 -1      4018 6.88740E+01 2.01609E+01 0.00000E+00
 -1      4019 7.41240E+01 1.88619E+01 0.00000E+00
 -1      4020 7.26240E+01 1.88619E+01 0.00000E+00
 -1      4021 7.18740E+01 2.01609E+01 0.00000E+00
 -1      4022 7.71240E+01 1.88619E+01 0.00000E+00
 -1      4023 7.56240E+01 1.88619E+01 0.00000E+00
 -1      4024 7.48740E+01 2.01609E+01 0.00000E+00
 -1      4025 8.01240E+01 1.88619E+01 0.00000E+00
 -1      4026 7.86240E+01 1.88619E+01 0.00000E+00
 -1      4027 7.78740E+01 2.01609E+01 0.00000E+00
 -1      4028 8.31240E+01 1.88619E+01 0.00000E+00
 -1      4029 8.16240E+01 1.88619E+01 0.00000E+00
 -1      4030 8.08740E+01 2.01609E+01 0.00000E+00
 -1      4031 8.61240E+01 1.88619E+01 0.00000E+00
 -1      4032 8.46240E+01 1.88619E+01 0.00000E+00
 -1      4033 8.38740E+01 2.01609E+01 0.00000E+00
 -1      4034 8.91240E+01 1.88619E+01 0.00000E+00
 -1      4035 8.76240E+01 1.88619E+01 0.00000E+00
 -1      4036 8.68740E+01 2.01609E+01 0.00000E+00
 -1      4037 9.21240E+01 1.88619E+01 0.00000E+00
 -1      4038 9.06240E+01 1.88619E+01 0.00000E+00
 -1      4039 8.98740E+01 2.01609E+01 0.00000E+00
 -1      4040 9.51240E+01 1.88619E+01 0.00000E+00
 -1      4041 9.36240E+01 1.88619E+01 0.00000E+00
 -1      4042 9.28740E+01 2.01609E+01 0.00000E+00
 -1      4043 9.81240E+01 1.88619E+01 0.00000E+00
 -1      4044 9.66240E+01 1.88619E+01 0.00000E+00
 -1      4045 9.58740E+01 2.01609E+01 0.00000E+00
 -1      4046 1.01124E+02 1.88619E+01 0.00000E+00
 -1      4047 9.96240E+01 1.88619E+01 0.00000E+00
 -1      4048 9.88740E+01 2.01609E+01 0.00000E+00
 -1      4049 1.04124E+02 1.88619E+01 0.00000E+00
 -1      4050 1.02624E+02 1.88619E+01 0.00000E+00
 -1      4051 1.01874E+02 2.01609E+01 0.00000E+00
 -1      4052 1.07124E+02 1.88619E+01 0.00000E+00
 -1      4053 1.05624E+02 1.88619E+01 0.00000E+00
 -1      4054 1.04874E+02 2.01609E+01 0.00000E+00
 -1      4055 1.10124E+02 1.88619E+01 0.00000E+00
 -1      4056 1.08624E+02 1.88619E+01 0.00000E+00
 -1      4057 1.07874E+02 2.01609E+01 0.00000E+00
 -1      4058 1.13124E+02 1.88619E+01 0.00000E+00
 -1      4059 1.11624E+02 1.88619E+01 0.00000E+00
 -1      4060 1.10874E+02 2.01609E+01 0.00000E+00
 -1      4061 1.16124E+02 1.88619E+01 0.00000E+00
 -1      4062 1.14624E+02 1.88619E+01 0.00000E+00
 -1      4063 1.13874E+02 2.01609E+01 0.00000E+00
 -1      4064 1.19124E+02 1.88619E+01 0.00000E+00
 -1      4065 1.17624E+02 1.88619E+01 0.00000E+00
 -1      4066 1.16874E+02 2.01609E+01 0.00000E+00
 -1      4067 1.22124E+02 1.88619E+01 0.00000E+00
 -1      4068 1.20624E+02 1.88619E+01 0.00000E+00
 -1      4069 1.19874E+02 2.01609E+01 0.00000E+00
 -1      4070 1.25124E+02 1.88619E+01 0.00000E+00
 -1      4071 1.23624E+02 1.88619E+01 0.00000E+00
 -1      4072 1.22874E+02 2.01609E+01 0.00000E+00
 -1      4073 1.28124E+02 1.88619E+01 0.00000E+00
 -1      4074 1.26624E+02 1.88619E+01 0.00000E+00
 -1      4075 1.25874E+02 2.01609E+01 0.00000E+00
 -1      4076 1.67525E+01 1.75366E+01 0.00000E+00
 -1      4077 1.67610E+01 2.76719E+01 0.00000E+00
 -1      4078 1.69876E+01 2.95943E+01 0.00000E+00
 -1      4079 1.78081E+01 3.08642E+01 0.00000E+00
 -1      4080 1.80600E+01 2.69360E+01 0.00000E+00
 -1      4081 1.70180E+01 1.92084E+01 0.00000E+00
 -1      4082 1.98366E+01 2.88200E+01 0.00000E+00
 -1      4083 2.04812E+01 2.78273E+01 0.00000E+00
 -1      4084 5.53008E+01 2.39583E+01 0.00000E+00
 -1      4085 5.57994E+01 2.55086E+01 0.00000E+00
 -1      4086 1.95973E+01 2.67932E+01 0.00000E+00
 -1      4087 1.33223E+02 2.57836E+01 0.00000E+00
 -1      4088 1.33223E+02 2.43164E+01 0.00000E+00
 -1      4089 1.32098E+02 2.42315E+01 0.00000E+00
 -1      4090 1.31971E+02 2.59529E+01 0.00000E+00
 -1      4091 5.68711E+01 2.63323E+01 0.00000E+00
 -1      4092 1.28520E+02 3.11359E+01 0.00000E+00
 -1      4093 1.83170E+01 1.99443E+01 0.00000E+00
 -1      4094 1.30608E+02 2.90260E+01 0.00000E+00
 -1      4095 1.30608E+02 2.75510E+01 0.00000E+00
 -1      4096 5.61995E+01 2.05566E+01 0.00000E+00
 -1      4097 5.84555E+01 2.83289E+01 0.00000E+00
 -1      4098 5.90457E+01 2.94212E+01 0.00000E+00
 -1      4099 6.05457E+01 2.94212E+01 0.00000E+00
 -1      4100 1.29249E+02 1.89468E+01 0.00000E+00
 -1      4101 1.28499E+02 2.02458E+01 0.00000E+00
 -1      4102 1.30374E+02 1.90316E+01 0.00000E+00
 -1      4103 2.05972E+01 2.10977E+01 0.00000E+00
 -1      4104 2.16122E+01 1.95054E+01 0.00000E+00
 -1      4105 1.90408E+01 2.39277E+01 0.00000E+00
 -1      4106 1.96855E+01 2.23132E+01 0.00000E+00
 -1      4107 2.25309E+01 1.82230E+01 0.00000E+00
 -1      4108 1.30906E+02 3.07609E+01 0.00000E+00
 -1      4109 5.54059E+01 2.26440E+01 0.00000E+00
 -1      4110 5.82868E+01 2.43358E+01 0.00000E+00
 -1      4111 5.83711E+01 2.63323E+01 0.00000E+00
 -1      4112 5.98711E+01 2.63323E+01 0.00000E+00
 -1      4113 1.29607E+02 3.00234E+01 0.00000E+00
 -1      4114 1.91541E+01 2.93873E+01 0.00000E+00
 -1      4115 1.86166E+01 2.83327E+01 0.00000E+00
 -1      4116 1.28222E+02 2.94010E+01 0.00000E+00
 -1      4117 1.87426E+01 2.63686E+01 0.00000E+00
 -1      4118 1.90408E+01 2.53965E+01 0.00000E+00
 -1      4119 1.30893E+02 2.03836E+01 0.00000E+00
 -1      4120 1.30893E+02 2.18508E+01 0.00000E+00
 -1      4121 1.29624E+02 2.17978E+01 0.00000E+00
 -1      4122 1.30893E+02 2.33179E+01 0.00000E+00
 -1      4123 5.75804E+01 2.22483E+01 0.00000E+00
 -1      4124 1.28499E+02 2.17130E+01 0.00000E+00
 -1      4125 1.27374E+02 2.16281E+01 0.00000E+00
 -1      4126 1.28499E+02 2.31801E+01 0.00000E+00
 -1      4127 6.20457E+01 2.94212E+01 0.00000E+00
 -1      4128 6.35457E+01 2.94212E+01 0.00000E+00
 -1      4129 6.14555E+01 2.83289E+01 0.00000E+00
 -1      4130 6.50457E+01 2.94212E+01 0.00000E+00
 -1      4131 6.65457E+01 2.94212E+01 0.00000E+00
 -1      4132 6.44555E+01 2.83289E+01 0.00000E+00
 -1      4133 6.80457E+01 2.94212E+01 0.00000E+00
 -1      4134 6.95457E+01 2.94212E+01 0.00000E+00
 -1      4135 6.74555E+01 2.83289E+01 0.00000E+00
 -1      4136 7.10457E+01 2.94212E+01 0.00000E+00
 -1      4137 7.25457E+01 2.94212E+01 0.00000E+00
 -1      4138 7.04555E+01 2.83289E+01 0.00000E+00
 -1      4139 7.40457E+01 2.94212E+01 0.00000E+00
 -1      4140 7.55457E+01 2.94212E+01 0.00000E+00
 -1      4141 7.34555E+01 2.83289E+01 0.00000E+00
 -1      4142 7.70457E+01 2.94212E+01 0.00000E+00
 -1      4143 7.85457E+01 2.94212E+01 0.00000E+00
 -1      4144 7.64555E+01 2.83289E+01 0.00000E+00
 -1      4145 8.00457E+01 2.94212E+01 0.00000E+00
 -1      4146 8.15457E+01 2.94212E+01 0.00000E+00
 -1      4147 7.94555E+01 2.83289E+01 0.00000E+00
 -1      4148 8.30457E+01 2.94212E+01 0.00000E+00
 -1      4149 8.45457E+01 2.94212E+01 0.00000E+00
 -1      4150 8.24555E+01 2.83289E+01 0.00000E+00
 -1      4151 8.60457E+01 2.94212E+01 0.00000E+00
 -1      4152 8.75457E+01 2.94212E+01 0.00000E+00
 -1      4153 8.54555E+01 2.83289E+01 0.00000E+00
 -1      4154 8.90457E+01 2.94212E+01 0.00000E+00
 -1      4155 9.05457E+01 2.94212E+01 0.00000E+00
 -1      4156 8.84555E+01 2.83289E+01 0.00000E+00
 -1      4157 9.20457E+01 2.94212E+01 0.00000E+00
 -1      4158 9.35457E+01 2.94212E+01 0.00000E+00
 -1      4159 9.14555E+01 2.83289E+01 0.00000E+00
 -1      4160 9.50457E+01 2.94212E+01 0.00000E+00
 -1      4161 9.65457E+01 2.94212E+01 0.00000E+00
 -1      4162 9.44555E+01 2.83289E+01 0.00000E+00
 -1      4163 9.80457E+01 2.94212E+01 0.00000E+00
 -1      4164 9.95457E+01 2.94212E+01 0.00000E+00
 -1      4165 9.74555E+01 2.83289E+01 0.00000E+00
 -1      4166 1.01046E+02 2.94212E+01 0.00000E+00
 -1      4167 1.02546E+02 2.94212E+01 0.00000E+00
 -1      4168 1.00455E+02 2.83289E+01 0.00000E+00
 -1      4169 1.04046E+02 2.94212E+01 0.00000E+00
 -1      4170 1.05546E+02 2.94212E+01 0.00000E+00
 -1      4171 1.03455E+02 2.83289E+01 0.00000E+00
 -1      4172 1.07046E+02 2.94212E+01 0.00000E+00
 -1      4173 1.08546E+02 2.94212E+01 0.00000E+00
 -1      4174 1.06455E+02 2.83289E+01 0.00000E+00
 -1      4175 1.10046E+02 2.94212E+01 0.00000E+00
 -1      4176 1.11546E+02 2.94212E+01 0.00000E+00
 -1      4177 1.09455E+02 2.83289E+01 0.00000E+00
 -1      4178 1.13046E+02 2.94212E+01 0.00000E+00
 -1      4179 1.14546E+02 2.94212E+01 0.00000E+00
 -1      4180 1.12455E+02 2.83289E+01 0.00000E+00
 -1      4181 1.16046E+02 2.94212E+01 0.00000E+00
 -1      4182 1.17546E+02 2.94212E+01 0.00000E+00
 -1      4183 1.15455E+02 2.83289E+01 0.00000E+00
 -1      4184 1.19046E+02 2.94212E+01 0.00000E+00
 -1      4185 1.20546E+02 2.94212E+01 0.00000E+00
 -1      4186 1.18455E+02 2.83289E+01 0.00000E+00
 -1      4187 1.22046E+02 2.94212E+01 0.00000E+00
 -1      4188 1.23546E+02 2.94212E+01 0.00000E+00
 -1      4189 1.21455E+02 2.83289E+01 0.00000E+00
 -1      4190 1.25046E+02 2.94212E+01 0.00000E+00
 -1      4191 1.26546E+02 2.94212E+01 0.00000E+00
 -1      4192 1.24455E+02 2.83289E+01 0.00000E+00
 -1      4193 6.66240E+01 2.14599E+01 0.00000E+00
 -1      4194 6.51240E+01 2.14599E+01 0.00000E+00
 -1      4195 6.96240E+01 2.14599E+01 0.00000E+00
 -1      4196 6.81240E+01 2.14599E+01 0.00000E+00
 -1      4197 6.73740E+01 2.27589E+01 0.00000E+00
 -1      4198 7.26240E+01 2.14599E+01 0.00000E+00
 -1      4199 7.11240E+01 2.14599E+01 0.00000E+00
 -1      4200 7.03740E+01 2.27589E+01 0.00000E+00
 -1      4201 7.56240E+01 2.14599E+01 0.00000E+00
 -1      4202 7.41240E+01 2.14599E+01 0.00000E+00
 -1      4203 7.33740E+01 2.27589E+01 0.00000E+00
 -1      4204 7.86240E+01 2.14599E+01 0.00000E+00
 -1      4205 7.71240E+01 2.14599E+01 0.00000E+00
 -1      4206 7.63740E+01 2.27589E+01 0.00000E+00
 -1      4207 8.16240E+01 2.14599E+01 0.00000E+00
 -1      4208 8.01240E+01 2.14599E+01 0.00000E+00
 -1      4209 7.93740E+01 2.27589E+01 0.00000E+00
 -1      4210 8.46240E+01 2.14599E+01 0.00000E+00
 -1      4211 8.31240E+01 2.14599E+01 0.00000E+00
 -1      4212 8.23740E+01 2.27589E+01 0.00000E+00
 -1      4213 8.76240E+01 2.14599E+01 0.00000E+00
 -1      4214 8.61240E+01 2.14599E+01 0.00000E+00
 -1      4215 8.53740E+01 2.27589E+01 0.00000E+00
 -1      4216 9.06240E+01 2.14599E+01 0.00000E+00
 -1      4217 8.91240E+01 2.14599E+01 0.00000E+00
 -1      4218 8.83740E+01 2.27589E+01 0.00000E+00
 -1      4219 9.36240E+01 2.14599E+01 0.00000E+00
 -1      4220 9.21240E+01 2.14599E+01 0.00000E+00
 -1      4221 9.13740E+01 2.27589E+01 0.00000E+00
 -1      4222 9.66240E+01 2.14599E+01 0.00000E+00
 -1      4223 9.51240E+01 2.14599E+01 0.00000E+00
 -1      4224 9.43740E+01 2.27589E+01 0.00000E+00
 -1      4225 9.96240E+01 2.14599E+01 0.00000E+00
 -1      4226 9.81240E+01 2.14599E+01 0.00000E+00
 -1      4227 9.73740E+01 2.27589E+01 0.00000E+00
 -1      4228 1.02624E+02 2.14599E+01 0.00000E+00
 -1      4229 1.01124E+02 2.14599E+01 0.00000E+00
 -1      4230 1.00374E+02 2.27589E+01 0.00000E+00
 -1      4231 1.05624E+02 2.14599E+01 0.00000E+00
 -1      4232 1.04124E+02 2.14599E+01 0.00000E+00
 -1      4233 1.03374E+02 2.27589E+01 0.00000E+00
 -1      4234 1.08624E+02 2.14599E+01 0.00000E+00
 -1      4235 1.07124E+02 2.14599E+01 0.00000E+00
 -1      4236 1.06374E+02 2.27589E+01 0.00000E+00
 -1      4237 1.11624E+02 2.14599E+01 0.00000E+00
 -1      4238 1.10124E+02 2.14599E+01 0.00000E+00
 -1      4239 1.09374E+02 2.27589E+01 0.00000E+00
 -1      4240 1.14624E+02 2.14599E+01 0.00000E+00
 -1      4241 1.13124E+02 2.14599E+01 0.00000E+00
 -1      4242 1.12374E+02 2.27589E+01 0.00000E+00
 -1      4243 1.17624E+02 2.14599E+01 0.00000E+00
 -1      4244 1.16124E+02 2.14599E+01 0.00000E+00
 -1      4245 1.15374E+02 2.27589E+01 0.00000E+00
 -1      4246 1.20624E+02 2.14599E+01 0.00000E+00
 -1      4247 1.19124E+02 2.14599E+01 0.00000E+00
 -1      4248 1.18374E+02 2.27589E+01 0.00000E+00
 -1      4249 1.23624E+02 2.14599E+01 0.00000E+00
 -1      4250 1.22124E+02 2.14599E+01 0.00000E+00
 -1      4251 1.21374E+02 2.27589E+01 0.00000E+00
 -1      4252 1.26249E+02 2.15440E+01 0.00000E+00
 -1      4253 1.24749E+02 2.15440E+01 0.00000E+00
 -1      4254 1.23999E+02 2.28430E+01 0.00000E+00
 -1      4255 1.26249E+02 2.30112E+01 0.00000E+00
 -1      4256 1.90977E+01 2.08188E+01 0.00000E+00
 -1      4257 2.09280E+01 1.83209E+01 0.00000E+00
 -1      4258 1.90281E+01 3.13514E+01 0.00000E+00
 -1      4259 1.27632E+02 2.83087E+01 0.00000E+00
 -1      4260 1.29373E+02 2.74279E+01 0.00000E+00
 -1      4261 1.30672E+02 2.66904E+01 0.00000E+00
 -1      4262 1.30736E+02 2.58297E+01 0.00000E+00
 -1      4263 1.92287E+01 1.87288E+01 0.00000E+00
 -1      4264 6.36240E+01 2.14599E+01 0.00000E+00
 -1      4265 6.21240E+01 2.14599E+01 0.00000E+00
 -1      4266 6.43740E+01 2.27589E+01 0.00000E+00
 -1      4267 5.90804E+01 2.22483E+01 0.00000E+00
 -1      4268 6.05804E+01 2.22483E+01 0.00000E+00
 -1      4269 6.13711E+01 2.63323E+01 0.00000E+00
 -1      4270 1.30829E+02 2.41786E+01 0.00000E+00
 -1      4271 6.13304E+01 2.35473E+01 0.00000E+00
 -1      4272 6.37055E+01 2.70299E+01 0.00000E+00
 -1      4273 6.52055E+01 2.70299E+01 0.00000E+00
 -1      4274 6.67055E+01 2.70299E+01 0.00000E+00
 -1      4275 6.82055E+01 2.70299E+01 0.00000E+00
 -1      4276 6.59555E+01 2.57309E+01 0.00000E+00
 -1      4277 6.97055E+01 2.70299E+01 0.00000E+00
 -1      4278 7.12055E+01 2.70299E+01 0.00000E+00
 -1      4279 6.89555E+01 2.57309E+01 0.00000E+00
 -1      4280 7.27055E+01 2.70299E+01 0.00000E+00
 -1      4281 7.42055E+01 2.70299E+01 0.00000E+00
 -1      4282 7.19555E+01 2.57309E+01 0.00000E+00
 -1      4283 7.57055E+01 2.70299E+01 0.00000E+00
 -1      4284 7.72055E+01 2.70299E+01 0.00000E+00
 -1      4285 7.49555E+01 2.57309E+01 0.00000E+00
 -1      4286 7.87055E+01 2.70299E+01 0.00000E+00
 -1      4287 8.02055E+01 2.70299E+01 0.00000E+00
 -1      4288 7.79555E+01 2.57309E+01 0.00000E+00
 -1      4289 8.17055E+01 2.70299E+01 0.00000E+00
 -1      4290 8.32055E+01 2.70299E+01 0.00000E+00
 -1      4291 8.09555E+01 2.57309E+01 0.00000E+00
 -1      4292 8.47055E+01 2.70299E+01 0.00000E+00
 -1      4293 8.62055E+01 2.70299E+01 0.00000E+00
 -1      4294 8.39555E+01 2.57309E+01 0.00000E+00
 -1      4295 8.77055E+01 2.70299E+01 0.00000E+00
 -1      4296 8.92055E+01 2.70299E+01 0.00000E+00
 -1      4297 8.69555E+01 2.57309E+01 0.00000E+00
 -1      4298 9.07055E+01 2.70299E+01 0.00000E+00
 -1      4299 9.22055E+01 2.70299E+01 0.00000E+00
 -1      4300 8.99555E+01 2.57309E+01 0.00000E+00
 -1      4301 9.37055E+01 2.70299E+01 0.00000E+00
 -1      4302 9.52055E+01 2.70299E+01 0.00000E+00
 -1      4303 9.29555E+01 2.57309E+01 0.00000E+00
 -1      4304 9.67055E+01 2.70299E+01 0.00000E+00
 -1      4305 9.82055E+01 2.70299E+01 0.00000E+00
 -1      4306 9.59555E+01 2.57309E+01 0.00000E+00
 -1      4307 9.97055E+01 2.70299E+01 0.00000E+00
 -1      4308 1.01205E+02 2.70299E+01 0.00000E+00
 -1      4309 9.89555E+01 2.57309E+01 0.00000E+00
 -1      4310 1.02705E+02 2.70299E+01 0.00000E+00
 -1      4311 1.04205E+02 2.70299E+01 0.00000E+00
 -1      4312 1.01955E+02 2.57309E+01 0.00000E+00
 -1      4313 1.05705E+02 2.70299E+01 0.00000E+00
 -1      4314 1.07205E+02 2.70299E+01 0.00000E+00
 -1      4315 1.04955E+02 2.57309E+01 0.00000E+00
 -1      4316 1.08705E+02 2.70299E+01 0.00000E+00
 -1      4317 1.10205E+02 2.70299E+01 0.00000E+00
 -1      4318 1.07955E+02 2.57309E+01 0.00000E+00
 -1      4319 1.11705E+02 2.70299E+01 0.00000E+00
 -1      4320 1.13205E+02 2.70299E+01 0.00000E+00
 -1      4321 1.10955E+02 2.57309E+01 0.00000E+00
 -1      4322 1.14705E+02 2.70299E+01 0.00000E+00
 -1      4323 1.16205E+02 2.70299E+01 0.00000E+00
 -1      4324 1.13955E+02 2.57309E+01 0.00000E+00
 -1      4325 1.17705E+02 2.70299E+01 0.00000E+00
 -1      4326 1.19205E+02 2.70299E+01 0.00000E+00
 -1      4327 1.16955E+02 2.57309E+01 0.00000E+00
 -1      4328 1.20705E+02 2.70299E+01 0.00000E+00
 -1      4329 1.22205E+02 2.70299E+01 0.00000E+00
 -1      4330 1.19955E+02 2.57309E+01 0.00000E+00
 -1      4331 1.23705E+02 2.70299E+01 0.00000E+00
 -1      4332 1.25205E+02 2.70299E+01 0.00000E+00
 -1      4333 1.22955E+02 2.57309E+01 0.00000E+00
 -1      4334 6.21211E+01 2.50333E+01 0.00000E+00
 -1      4335 7.41647E+01 2.42449E+01 0.00000E+00
 -1      4336 7.26647E+01 2.42449E+01 0.00000E+00
 -1      4337 6.81647E+01 2.42449E+01 0.00000E+00
 -1      4338 6.66647E+01 2.42449E+01 0.00000E+00
 -1      4339 7.71647E+01 2.42449E+01 0.00000E+00
 -1      4340 7.56647E+01 2.42449E+01 0.00000E+00
 -1      4341 8.01647E+01 2.42449E+01 0.00000E+00
 -1      4342 7.86647E+01 2.42449E+01 0.00000E+00
 -1      4343 8.31647E+01 2.42449E+01 0.00000E+00
 -1      4344 8.16647E+01 2.42449E+01 0.00000E+00
 -1      4345 8.61647E+01 2.42449E+01 0.00000E+00
 -1      4346 8.46647E+01 2.42449E+01 0.00000E+00
 -1      4347 8.91647E+01 2.42449E+01 0.00000E+00
 -1      4348 8.76647E+01 2.42449E+01 0.00000E+00
 -1      4349 9.21647E+01 2.42449E+01 0.00000E+00
 -1      4350 9.06647E+01 2.42449E+01 0.00000E+00
 -1      4351 9.51647E+01 2.42449E+01 0.00000E+00
 -1      4352 9.36647E+01 2.42449E+01 0.00000E+00
 -1      4353 9.81647E+01 2.42449E+01 0.00000E+00
 -1      4354 9.66647E+01 2.42449E+01 0.00000E+00
 -1      4355 1.01165E+02 2.42449E+01 0.00000E+00
 -1      4356 9.96647E+01 2.42449E+01 0.00000E+00
 -1      4357 1.04165E+02 2.42449E+01 0.00000E+00
 -1      4358 1.02665E+02 2.42449E+01 0.00000E+00
 -1      4359 1.07165E+02 2.42449E+01 0.00000E+00
 -1      4360 1.05665E+02 2.42449E+01 0.00000E+00
 -1      4361 1.10165E+02 2.42449E+01 0.00000E+00
 -1      4362 1.08665E+02 2.42449E+01 0.00000E+00
 -1      4363 1.13165E+02 2.42449E+01 0.00000E+00
 -1      4364 1.11665E+02 2.42449E+01 0.00000E+00
 -1      4365 1.16165E+02 2.42449E+01 0.00000E+00
 -1      4366 1.14665E+02 2.42449E+01 0.00000E+00
 -1      4367 1.19165E+02 2.42449E+01 0.00000E+00
 -1      4368 1.17665E+02 2.42449E+01 0.00000E+00
 -1      4369 1.22165E+02 2.42449E+01 0.00000E+00
 -1      4370 1.20665E+02 2.42449E+01 0.00000E+00
 -1      4371 1.29530E+02 2.49161E+01 0.00000E+00
 -1      4372 1.26778E+02 2.70199E+01 0.00000E+00
 -1      4373 1.28455E+02 2.69997E+01 0.00000E+00
 -1      4374 6.36647E+01 2.42449E+01 0.00000E+00
 -1      4375 1.28405E+02 2.48312E+01 0.00000E+00
 -1      4376 1.26028E+02 2.57209E+01 0.00000E+00
 -1      4377 7.11647E+01 2.42449E+01 0.00000E+00
 -1      4378 6.96647E+01 2.42449E+01 0.00000E+00
 -1      4379 1.24790E+02 2.43290E+01 0.00000E+00
 -1      4380 1.26363E+02 2.43190E+01 0.00000E+00
 -1      4381 6.51647E+01 2.42449E+01 0.00000E+00
 -1      4382 1.23665E+02 2.42449E+01 0.00000E+00
 -1      4383 1.28519E+02 2.61390E+01 0.00000E+00
 -1      4384 1.27488E+02 2.44031E+01 0.00000E+00
 -3
    3C                          2110                                     1
 -1       165    8    0    1
 -2         6         7        23      1138      1302      1155
 -1       166    8    0    1
 -2         7         8       165      1139      1303      1304
 -1       167    8    0    1
 -2         8         9       166      1140      1305      1306
 -1       168    8    0    1
 -2         8       166       165      1306      1307      1303
 -1       169    8    0    1
 -2         9        10       167      1141      1308      1309
 -1       170    8    0    1
 -2         9       167       166      1309      1310      1305
 -1       171    8    0    1
 -2        10        11       168      1142      1311      1312
 -1       172    8    0    1
 -2        10       168       167      1312      1313      1308
 -1       173    8    0    1
 -2        11        12       169      1143      1314      1315
 -1       174    8    0    1
 -2        11       169       168      1315      1316      1311
 -1       175    8    0    1
 -2        12        13       170      1144      1317      1318
 -1       176    8    0    1
 -2        12       170       169      1318      1319      1314
 -1       177    8    0    1
 -2        13        14       171      1145      1320      1321
 -1       178    8    0    1
 -2        13       171       170      1321      1322      1317
 -1       179    8    0    1
 -2        14        15       172      1146      1323      1324
 -1       180    8    0    1
 -2        14       172       171      1324      1325      1320
 -1       181    8    0    1
 -2        15        16       173      1147      1326      1327
 -1       182    8    0    1
 -2        15       173       172      1327      1328      1323
 -1       183    8    0    1
 -2        16        17       174      1148      1329      1330
 -1       184    8    0    1
 -2        16       174       173      1330      1331      1326
 -1       185    8    0    1
 -2        17        18       175      1149      1332      1333
 -1       186    8    0    1
 -2        17       175       174      1333      1334      1329
 -1       187    8    0    1
 -2        18        19       176      1150      1335      1336
 -1       188    8    0    1
 -2        18       176       175      1336      1337      1332
 -1       189    8    0    1
 -2        19        20       177      1151      1338      1339
 -1       190    8    0    1
 -2        19       177       176      1339      1340      1335
 -1       191    8    0    1
 -2        20        21       178      1152      1341      1342
 -1       192    8    0    1
 -2        20       178       177      1342      1343      1338
 -1       193    8    0    1
 -2        21        22       179      1153      1344      1345
 -1       194    8    0    1
 -2        21       179       178      1345      1346      1341
 -1       195    8    0    1
 -2        22         5       180      1154      1347      1348
 -1       196    8    0    1
 -2       179        22       180      1344      1348      1349
 -1       197    8    0    1
 -2         5        72       180      1205      1350      1347
 -1       198    8    0    1
 -2        24        23       181      1156      1351      1352
 -1       199    8    0    1
 -2        25        24       182      1157      1353      1354
 -1       200    8    0    1
 -2        24       181       182      1352      1355      1353
 -1       201    8    0    1
 -2        26        25       183      1158      1356      1357
 -1       202    8    0    1
 -2        25       182       183      1354      1358      1356
 -1       203    8    0    1
 -2        27        26       184      1159      1359      1360
 -1       204    8    0    1
 -2        26       183       184      1357      1361      1359
 -1       205    8    0    1
 -2        28        27       185      1160      1362      1363
 -1       206    8    0    1
 -2        27       184       185      1360      1364      1362
 -1       207    8    0    1
 -2        29        28       186      1161      1365      1366
 -1       208    8    0    1
 -2        28       185       186      1363      1367      1365
 -1       209    8    0    1
 -2        30        29       187      1162      1368      1369
 -1       210    8    0    1
 -2        29       186       187      1366      1370      1368
 -1       211    8    0    1
 -2        31        30       188      1163      1371      1372
 -1       212    8    0    1
 -2        30       187       188      1369      1373      1371
 -1       213    8    0    1
 -2        32        31       189      1164      1374      1375
 -1       214    8    0    1
 -2        31       188       189      1372      1376      1374
 -1       215    8    0    1
 -2        33        32       190      1165      1377      1378
 -1       216    8    0    1
 -2        32       189       190      1375      1379      1377
 -1       217    8    0    1
 -2        34        33       191      1166      1380      1381
 -1       218    8    0    1
 -2        33       190       191      1378      1382      1380
 -1       219    8    0    1
 -2        35        34       192      1167      1383      1384
 -1       220    8    0    1
 -2        34       191       192      1381      1385      1383
 -1       221    8    0    1
 -2        36        35       193      1168      1386      1387
 -1       222    8    0    1
 -2        35       192       193      1384      1388      1386
 -1       223    8    0    1
 -2        37        36       194      1169      1389      1390
 -1       224    8    0    1
 -2        36       193       194      1387      1391      1389
 -1       225    8    0    1
 -2        38        37       195      1170      1392      1393
 -1       226    8    0    1
 -2        37       194       195      1390      1394      1392
 -1       227    8    0    1
 -2        39        38       196      1171      1395      1396
 -1       228    8    0    1
 -2        38       195       196      1393      1397      1395
 -1       229    8    0    1
 -2        40        39       197      1172      1398      1399
 -1       230    8    0    1
 -2        39       196       197      1396      1400      1398
 -1       231    8    0    1
 -2        41        40       198      1173      1401      1402
 -1       232    8    0    1
 -2        40       197       198      1399      1403      1401
 -1       233    8    0    1
 -2        42        41       199      1174      1404      1405
 -1       234    8    0    1
 -2        41       198       199      1402      1406      1404
 -1       235    8    0    1
 -2        43        42       200      1175      1407      1408
 -1       236    8    0    1
 -2        42       199       200      1405      1409      1407
 -1       237    8    0    1
 -2        44        43       201      1176      1410      1411
 -1       238    8    0    1
 -2        43       200       201      1408      1412      1410
 -1       239    8    0    1
 -2        45        44       202      1177      1413      1414
 -1       240    8    0    1
 -2        44       201       202      1411      1415      1413
 -1       241    8    0    1
 -2        46        45       203      1178      1416      1417
 -1       242    8    0    1
 -2        45       202       203      1414      1418      1416
 -1       243    8    0    1
 -2        47        46       204      1179      1419      1420
 -1       244    8    0    1
 -2        46       203       204      1417      1421      1419
 -1       245    8    0    1
 -2        48        47       205      1180      1422      1423
 -1       246    8    0    1
 -2        47       204       205      1420      1424      1422
 -1       247    8    0    1
 -2        49        48       206      1181      1425      1426
 -1       248    8    0    1
 -2        48       205       206      1423      1427      1425
 -1       249    8    0    1
 -2        50        49       207      1182      1428      1429
 -1       250    8    0    1
 -2        49       206       207      1426      1430      1428
 -1       251    8    0    1
 -2        51        50       208      1183      1431      1432
 -1       252    8    0    1
 -2        50       207       208      1429      1433      1431
 -1       253    8    0    1
 -2        52        51       209      1184      1434      1435
 -1       254    8    0    1
 -2        51       208       209      1432      1436      1434
 -1       255    8    0    1
 -2        53        52       210      1185      1437      1438
 -1       256    8    0    1
 -2        52       209       210      1435      1439      1437
 -1       257    8    0    1
 -2        54        53       211      1186      1440      1441
 -1       258    8    0    1
 -2        53       210       211      1438      1442      1440
 -1       259    8    0    1
 -2        55        54       212      1187      1443      1444
 -1       260    8    0    1
 -2        54       211       212      1441      1445      1443
 -1       261    8    0    1
 -2        56        55       213      1188      1446      1447
 -1       262    8    0    1
 -2        55       212       213      1444      1448      1446
 -1       263    8    0    1
 -2        57        56       214      1189      1449      1450
 -1       264    8    0    1
 -2        56       213       214      1447      1451      1449
 -1       265    8    0    1
 -2        58        57       215      1190      1452      1453
 -1       266    8    0    1
 -2        57       214       215      1450      1454      1452
 -1       267    8    0    1
 -2        59        58       216      1191      1455      1456
 -1       268    8    0    1
 -2        58       215       216      1453      1457      1455
 -1       269    8    0    1
 -2        60        59       217      1192      1458      1459
 -1       270    8    0    1
 -2        59       216       217      1456      1460      1458
 -1       271    8    0    1
 -2        61        60       218      1193      1461      1462
 -1       272    8    0    1
 -2        60       217       218      1459      1463      1461
 -1       273    8    0    1
 -2        62        61       219      1194      1464      1465
 -1       274    8    0    1
 -2        61       218       219      1462      1466      1464
 -1       275    8    0    1
 -2        63        62       220      1195      1467      1468
 -1       276    8    0    1
 -2        62       219       220      1465      1469      1467
 -1       277    8    0    1
 -2        64        63       221      1196      1470      1471
 -1       278    8    0    1
 -2        63       220       221      1468      1472      1470
 -1       279    8    0    1
 -2        65        64       222      1197      1473      1474
 -1       280    8    0    1
 -2        64       221       222      1471      1475      1473
 -1       281    8    0    1
 -2        66        65       223      1198      1476      1477
 -1       282    8    0    1
 -2        65       222       223      1474      1478      1476
 -1       283    8    0    1
 -2        67        66       224      1199      1479      1480
 -1       284    8    0    1
 -2        66       223       224      1477      1481      1479
 -1       285    8    0    1
 -2        68        67       225      1200      1482      1483
 -1       286    8    0    1
 -2        67       224       225      1480      1484      1482
 -1       287    8    0    1
 -2        69        68       226      1201      1485      1486
 -1       288    8    0    1
 -2        68       225       226      1483      1487      1485
 -1       289    8    0    1
 -2        70        69       227      1202      1488      1489
 -1       290    8    0    1
 -2        69       226       227      1486      1490      1488
 -1       291    8    0    1
 -2        71        70       228      1203      1491      1492
 -1       292    8    0    1
 -2        70       227       228      1489      1493      1491
 -1       293    8    0    1
 -2         4        71       229      1204      1494      1495
 -1       294    8    0    1
 -2       136         4       229      1271      1495      1496
 -1       295    8    0    1
 -2        71       228       229      1492      1497      1494
 -1       296    8    0    1
 -2        72        73       230      1206      1498      1499
 -1       297    8    0    1
 -2        72       230       180      1499      1500      1350
 -1       298    8    0    1
 -2        73        74       231      1207      1501      1502
 -1       299    8    0    1
 -2        73       231       230      1502      1503      1498
 -1       300    8    0    1
 -2        74        75       232      1208      1504      1505
 -1       301    8    0    1
 -2        74       232       231      1505      1506      1501
 -1       302    8    0    1
 -2        75        76       233      1209      1507      1508
 -1       303    8    0    1
 -2        75       233       232      1508      1509      1504
 -1       304    8    0    1
 -2        76        77       234      1210      1510      1511
 -1       305    8    0    1
 -2        76       234       233      1511      1512      1507
 -1       306    8    0    1
 -2        77        78       235      1211      1513      1514
 -1       307    8    0    1
 -2        77       235       234      1514      1515      1510
 -1       308    8    0    1
 -2        78        79       236      1212      1516      1517
 -1       309    8    0    1
 -2        78       236       235      1517      1518      1513
 -1       310    8    0    1
 -2        79        80       237      1213      1519      1520
 -1       311    8    0    1
 -2        79       237       236      1520      1521      1516
 -1       312    8    0    1
 -2        80        81       238      1214      1522      1523
 -1       313    8    0    1
 -2        80       238       237      1523      1524      1519
 -1       314    8    0    1
 -2        81        82       239      1215      1525      1526
 -1       315    8    0    1
 -2        81       239       238      1526      1527      1522
 -1       316    8    0    1
 -2        82        83       240      1216      1528      1529
 -1       317    8    0    1
 -2        82       240       239      1529      1530      1525
 -1       318    8    0    1
 -2        83        84       241      1217      1531      1532
 -1       319    8    0    1
 -2        83       241       240      1532      1533      1528
 -1       320    8    0    1
 -2        84        85       242      1218      1534      1535
 -1       321    8    0    1
 -2        84       242       241      1535      1536      1531
 -1       322    8    0    1
 -2        85        86       243      1219      1537      1538
 -1       323    8    0    1
 -2        85       243       242      1538      1539      1534
 -1       324    8    0    1
 -2        86        87       244      1220      1540      1541
 -1       325    8    0    1
 -2        86       244       243      1541      1542      1537
 -1       326    8    0    1
 -2        87        88       245      1221      1543      1544
 -1       327    8    0    1
 -2        87       245       244      1544      1545      1540
 -1       328    8    0    1
 -2        88        89       246      1222      1546      1547
 -1       329    8    0    1
 -2        88       246       245      1547      1548      1543
 -1       330    8    0    1
 -2        89        90       247      1223      1549      1550
 -1       331    8    0    1
 -2        89       247       246      1550      1551      1546
 -1       332    8    0    1
 -2        90        91       248      1224      1552      1553
 -1       333    8    0    1
 -2        90       248       247      1553      1554      1549
 -1       334    8    0    1
 -2        91        92       249      1225      1555      1556
 -1       335    8    0    1
 -2        91       249       248      1556      1557      1552
 -1       336    8    0    1
 -2        92        93       250      1226      1558      1559
 -1       337    8    0    1
 -2        92       250       249      1559      1560      1555
 -1       338    8    0    1
 -2        93        94       251      1227      1561      1562
 -1       339    8    0    1
 -2        93       251       250      1562      1563      1558
 -1       340    8    0    1
 -2        94        95       252      1228      1564      1565
 -1       341    8    0    1
 -2        94       252       251      1565      1566      1561
 -1       342    8    0    1
 -2        95        96       253      1229      1567      1568
 -1       343    8    0    1
 -2        95       253       252      1568      1569      1564
 -1       344    8    0    1
 -2        96        97       254      1230      1570      1571
 -1       345    8    0    1
 -2        96       254       253      1571      1572      1567
 -1       346    8    0    1
 -2        97        98       255      1231      1573      1574
 -1       347    8    0    1
 -2        97       255       254      1574      1575      1570
 -1       348    8    0    1
 -2        98        99       256      1232      1576      1577
 -1       349    8    0    1
 -2        98       256       255      1577      1578      1573
 -1       350    8    0    1
 -2        99       100       257      1233      1579      1580
 -1       351    8    0    1
 -2        99       257       256      1580      1581      1576
 -1       352    8    0    1
 -2       100       101       258      1234      1582      1583
 -1       353    8    0    1
 -2       100       258       257      1583      1584      1579
 -1       354    8    0    1
 -2       101       102       259      1235      1585      1586
 -1       355    8    0    1
 -2       101       259       258      1586      1587      1582
 -1       356    8    0    1
 -2       102       103       260      1236      1588      1589
 -1       357    8    0    1
 -2       102       260       259      1589      1590      1585
 -1       358    8    0    1
 -2       103       104       261      1237      1591      1592
 -1       359    8    0    1
 -2       103       261       260      1592      1593      1588
 -1       360    8    0    1
 -2       104       105       262      1238      1594      1595
 -1       361    8    0    1
 -2       104       262       261      1595      1596      1591
 -1       362    8    0    1
 -2       105       106       263      1239      1597      1598
 -1       363    8    0    1
 -2       105       263       262      1598      1599      1594
 -1       364    8    0    1
 -2       106       107       264      1240      1600      1601
 -1       365    8    0    1
 -2       106       264       263      1601      1602      1597
 -1       366    8    0    1
 -2       107       108       265      1241      1603      1604
 -1       367    8    0    1
 -2       107       265       264      1604      1605      1600
 -1       368    8    0    1
 -2       108       109       266      1242      1606      1607
 -1       369    8    0    1
 -2       108       266       265      1607      1608      1603
 -1       370    8    0    1
 -2       109       110       267      1243      1609      1610
 -1       371    8    0    1
 -2       109       267       266      1610      1611      1606
 -1       372    8    0    1
 -2       110       111       268      1244      1612      1613
 -1       373    8    0    1
 -2       110       268       267      1613      1614      1609
 -1       374    8    0    1
 -2       111       112       269      1245      1615      1616
 -1       375    8    0    1
 -2       111       269       268      1616      1617      1612
 -1       376    8    0    1
 -2       112       113       270      1246      1618      1619
 -1       377    8    0    1
 -2       112       270       269      1619      1620      1615
 -1       378    8    0    1
 -2       113       114       271      1247      1621      1622
 -1       379    8    0    1
 -2       113       271       270      1622      1623      1618
 -1       380    8    0    1
 -2       114       115       272      1248      1624      1625
 -1       381    8    0    1
 -2       114       272       271      1625      1626      1621
 -1       382    8    0    1
 -2       115       116       273      1249      1627      1628
 -1       383    8    0    1
 -2       115       273       272      1628      1629      1624
 -1       384    8    0    1
 -2       116       117       274      1250      1630      1631
 -1       385    8    0    1
 -2       116       274       273      1631      1632      1627
 -1       386    8    0    1
 -2       117       118       275      1251      1633      1634
 -1       387    8    0    1
 -2       117       275       274      1634      1635      1630
 -1       388    8    0    1
 -2       118       119       276      1252      1636      1637
 -1       389    8    0    1
 -2       118       276       275      1637      1638      1633
 -1       390    8    0    1
 -2       119       120       277      1253      1639      1640
 -1       391    8    0    1
 -2       119       277       276      1640      1641      1636
 -1       392    8    0    1
 -2       120         3       121      1254      1255      1642
 -1       393    8    0    1
 -2       121       122       278      1256      1643      1644
 -1       394    8    0    1
 -2       122       123       279      1257      1645      1646
 -1       395    8    0    1
 -2       122       279       278      1646      1647      1643
 -1       396    8    0    1
 -2       123       124       280      1258      1648      1649
 -1       397    8    0    1
 -2       123       280       279      1649      1650      1645
 -1       398    8    0    1
 -2       124       125       281      1259      1651      1652
 -1       399    8    0    1
 -2       124       281       280      1652      1653      1648
 -1       400    8    0    1
 -2       125       126       282      1260      1654      1655
 -1       401    8    0    1
 -2       125       282       281      1655      1656      1651
 -1       402    8    0    1
 -2       126       127       283      1261      1657      1658
 -1       403    8    0    1
 -2       126       283       282      1658      1659      1654
 -1       404    8    0    1
 -2       127       128       284      1262      1660      1661
 -1       405    8    0    1
 -2       127       284       283      1661      1662      1657
 -1       406    8    0    1
 -2       128       129       285      1263      1663      1664
 -1       407    8    0    1
 -2       128       285       284      1664      1665      1660
 -1       408    8    0    1
 -2       129       130       286      1264      1666      1667
 -1       409    8    0    1
 -2       129       286       285      1667      1668      1663
 -1       410    8    0    1
 -2       130       131       287      1265      1669      1670
 -1       411    8    0    1
 -2       130       287       286      1670      1671      1666
 -1       412    8    0    1
 -2       131       132       288      1266      1672      1673
 -1       413    8    0    1
 -2       131       288       287      1673      1674      1669
 -1       414    8    0    1
 -2       132       133       289      1267      1675      1676
 -1       415    8    0    1
 -2       132       289       288      1676      1677      1672
 -1       416    8    0    1
 -2       133       134       290      1268      1678      1679
 -1       417    8    0    1
 -2       133       290       289      1679      1680      1675
 -1       418    8    0    1
 -2       134       135       291      1269      1681      1682
 -1       419    8    0    1
 -2       134       291       290      1682      1683      1678
 -1       420    8    0    1
 -2       135       136       292      1270      1684      1685
 -1       421    8    0    1
 -2       291       135       292      1681      1685      1686
 -1       422    8    0    1
 -2       136       229       292      1496      1687      1684
 -1       423    8    0    1
 -2         2       137       293      1272      1688      1689
 -1       424    8    0    1
 -2       137       138       294      1273      1690      1691
 -1       425    8    0    1
 -2       138       139       295      1274      1692      1693
 -1       426    8    0    1
 -2       139       140       296      1275      1694      1695
 -1       427    8    0    1
 -2       140       141       297      1276      1696      1697
 -1       428    8    0    1
 -2       141       142       298      1277      1698      1699
 -1       429    8    0    1
 -2       142       143       299      1278      1700      1701
 -1       430    8    0    1
 -2       143       144       300      1279      1702      1703
 -1       431    8    0    1
 -2       144       145       301      1280      1704      1705
 -1       432    8    0    1
 -2       145       146       302      1281      1706      1707
 -1       433    8    0    1
 -2       146       147       303      1282      1708      1709
 -1       434    8    0    1
 -2       147       148       304      1283      1710      1711
 -1       435    8    0    1
 -2       148       149       305      1284      1712      1713
 -1       436    8    0    1
 -2       149       150       306      1285      1714      1715
 -1       437    8    0    1
 -2       150       151       307      1286      1716      1717
 -1       438    8    0    1
 -2       151       152       308      1287      1718      1719
 -1       439    8    0    1
 -2       152       153       309      1288      1720      1721
 -1       440    8    0    1
 -2       153         1       310      1289      1722      1723
 -1       441    8    0    1
 -2         1       154       311      1290      1724      1725
 -1       442    8    0    1
 -2       154       155       312      1291      1726      1727
 -1       443    8    0    1
 -2       155       156       313      1292      1728      1729
 -1       444    8    0    1
 -2       156       157       314      1293      1730      1731
 -1       445    8    0    1
 -2       157       158       315      1294      1732      1733
 -1       446    8    0    1
 -2       158       159       316      1295      1734      1735
 -1       447    8    0    1
 -2       159       160       317      1296      1736      1737
 -1       448    8    0    1
 -2       160       161       318      1297      1738      1739
 -1       449    8    0    1
 -2       161       162       319      1298      1740      1741
 -1       450    8    0    1
 -2       162       163       320      1299      1742      1743
 -1       451    8    0    1
 -2       163       164       321      1300      1744      1745
 -1       452    8    0    1
 -2       164         2       322      1301      1746      1747
 -1       453    8    0    1
 -2       295       139       296      1692      1695      1748
 -1       454    8    0    1
 -2         2       293       322      1689      1749      1746
 -1       455    8    0    1
 -2       120       121       277      1642      1750      1639
 -1       456    8    0    1
 -2       121       278       277      1644      1751      1750
 -1       457    8    0    1
 -2       293       137       294      1688      1691      1752
 -1       458    8    0    1
 -2       294       138       295      1690      1693      1753
 -1       459    8    0    1
 -2       140       297       296      1697      1754      1694
 -1       460    8    0    1
 -2       141       298       297      1699      1755      1696
 -1       461    8    0    1
 -2       142       299       298      1701      1756      1698
 -1       462    8    0    1
 -2       143       300       299      1703      1757      1700
 -1       463    8    0    1
 -2       144       301       300      1705      1758      1702
 -1       464    8    0    1
 -2       145       302       301      1707      1759      1704
 -1       465    8    0    1
 -2       146       303       302      1709      1760      1706
 -1       466    8    0    1
 -2       147       304       303      1711      1761      1708
 -1       467    8    0    1
 -2       148       305       304      1713      1762      1710
 -1       468    8    0    1
 -2       149       306       305      1715      1763      1712
 -1       469    8    0    1
 -2       150       307       306      1717      1764      1714
 -1       470    8    0    1
 -2       151       308       307      1719      1765      1716
 -1       471    8    0    1
 -2       152       309       308      1721      1766      1718
 -1       472    8    0    1
 -2       153       310       309      1723      1767      1720
 -1       473    8    0    1
 -2         1       311       310      1725      1768      1722
 -1       474    8    0    1
 -2       154       312       311      1727      1769      1724
 -1       475    8    0    1
 -2       155       313       312      1729      1770      1726
 -1       476    8    0    1
 -2       156       314       313      1731      1771      1728
 -1       477    8    0    1
 -2       157       315       314      1733      1772      1730
 -1       478    8    0    1
 -2       158       316       315      1735      1773      1732
 -1       479    8    0    1
 -2       159       317       316      1737      1774      1734
 -1       480    8    0    1
 -2       160       318       317      1739      1775      1736
 -1       481    8    0    1
 -2       161       319       318      1741      1776      1738
 -1       482    8    0    1
 -2       162       320       319      1743      1777      1740
 -1       483    8    0    1
 -2       163       321       320      1745      1778      1742
 -1       484    8    0    1
 -2       164       322       321      1747      1779      1744
 -1       485    8    0    1
 -2        23         7       165      1302      1304      1780
 -1       486    8    0    1
 -2       166       167       323      1310      1781      1782
 -1       487    8    0    1
 -2       165       166       324      1307      1783      1784
 -1       488    8    0    1
 -2       166       323       324      1782      1785      1783
 -1       489    8    0    1
 -2       168       169       325      1316      1786      1787
 -1       490    8    0    1
 -2       169       170       326      1319      1788      1789
 -1       491    8    0    1
 -2       169       326       325      1789      1790      1786
 -1       492    8    0    1
 -2       170       171       327      1322      1791      1792
 -1       493    8    0    1
 -2       170       327       326      1792      1793      1788
 -1       494    8    0    1
 -2       171       172       328      1325      1794      1795
 -1       495    8    0    1
 -2       171       328       327      1795      1796      1791
 -1       496    8    0    1
 -2       172       173       329      1328      1797      1798
 -1       497    8    0    1
 -2       172       329       328      1798      1799      1794
 -1       498    8    0    1
 -2       173       174       330      1331      1800      1801
 -1       499    8    0    1
 -2       173       330       329      1801      1802      1797
 -1       500    8    0    1
 -2       174       175       331      1334      1803      1804
 -1       501    8    0    1
 -2       174       331       330      1804      1805      1800
 -1       502    8    0    1
 -2       175       176       332      1337      1806      1807
 -1       503    8    0    1
 -2       175       332       331      1807      1808      1803
 -1       504    8    0    1
 -2       176       177       333      1340      1809      1810
 -1       505    8    0    1
 -2       176       333       332      1810      1811      1806
 -1       506    8    0    1
 -2       177       178       334      1343      1812      1813
 -1       507    8    0    1
 -2       177       334       333      1813      1814      1809
 -1       508    8    0    1
 -2       178       179       335      1346      1815      1816
 -1       509    8    0    1
 -2       178       335       334      1816      1817      1812
 -1       510    8    0    1
 -2       179       180       336      1349      1818      1819
 -1       511    8    0    1
 -2       335       179       336      1815      1819      1820
 -1       512    8    0    1
 -2       180       230       336      1500      1821      1818
 -1       513    8    0    1
 -2       181        23       165      1351      1780      1822
 -1       514    8    0    1
 -2       230       231       337      1503      1823      1824
 -1       515    8    0    1
 -2       230       337       336      1824      1825      1821
 -1       516    8    0    1
 -2       181       165       324      1822      1784      1826
 -1       517    8    0    1
 -2       183       182       338      1358      1827      1828
 -1       518    8    0    1
 -2       184       183       339      1361      1829      1830
 -1       519    8    0    1
 -2       183       338       339      1828      1831      1829
 -1       520    8    0    1
 -2       185       184       340      1364      1832      1833
 -1       521    8    0    1
 -2       184       339       340      1830      1834      1832
 -1       522    8    0    1
 -2       186       185       341      1367      1835      1836
 -1       523    8    0    1
 -2       185       340       341      1833      1837      1835
 -1       524    8    0    1
 -2       187       186       342      1370      1838      1839
 -1       525    8    0    1
 -2       186       341       342      1836      1840      1838
 -1       526    8    0    1
 -2       188       187       343      1373      1841      1842
 -1       527    8    0    1
 -2       187       342       343      1839      1843      1841
 -1       528    8    0    1
 -2       189       188       344      1376      1844      1845
 -1       529    8    0    1
 -2       188       343       344      1842      1846      1844
 -1       530    8    0    1
 -2       190       189       345      1379      1847      1848
 -1       531    8    0    1
 -2       189       344       345      1845      1849      1847
 -1       532    8    0    1
 -2       191       190       346      1382      1850      1851
 -1       533    8    0    1
 -2       190       345       346      1848      1852      1850
 -1       534    8    0    1
 -2       192       191       347      1385      1853      1854
 -1       535    8    0    1
 -2       191       346       347      1851      1855      1853
 -1       536    8    0    1
 -2       193       192       348      1388      1856      1857
 -1       537    8    0    1
 -2       192       347       348      1854      1858      1856
 -1       538    8    0    1
 -2       194       193       349      1391      1859      1860
 -1       539    8    0    1
 -2       193       348       349      1857      1861      1859
 -1       540    8    0    1
 -2       195       194       350      1394      1862      1863
 -1       541    8    0    1
 -2       194       349       350      1860      1864      1862
 -1       542    8    0    1
 -2       196       195       351      1397      1865      1866
 -1       543    8    0    1
 -2       195       350       351      1863      1867      1865
 -1       544    8    0    1
 -2       197       196       352      1400      1868      1869
 -1       545    8    0    1
 -2       196       351       352      1866      1870      1868
 -1       546    8    0    1
 -2       198       197       353      1403      1871      1872
 -1       547    8    0    1
 -2       197       352       353      1869      1873      1871
 -1       548    8    0    1
 -2       199       198       354      1406      1874      1875
 -1       549    8    0    1
 -2       198       353       354      1872      1876      1874
 -1       550    8    0    1
 -2       200       199       355      1409      1877      1878
 -1       551    8    0    1
 -2       199       354       355      1875      1879      1877
 -1       552    8    0    1
 -2       201       200       356      1412      1880      1881
 -1       553    8    0    1
 -2       200       355       356      1878      1882      1880
 -1       554    8    0    1
 -2       202       201       357      1415      1883      1884
 -1       555    8    0    1
 -2       201       356       357      1881      1885      1883
 -1       556    8    0    1
 -2       203       202       358      1418      1886      1887
 -1       557    8    0    1
 -2       202       357       358      1884      1888      1886
 -1       558    8    0    1
 -2       204       203       359      1421      1889      1890
 -1       559    8    0    1
 -2       203       358       359      1887      1891      1889
 -1       560    8    0    1
 -2       205       204       360      1424      1892      1893
 -1       561    8    0    1
 -2       204       359       360      1890      1894      1892
 -1       562    8    0    1
 -2       206       205       361      1427      1895      1896
 -1       563    8    0    1
 -2       205       360       361      1893      1897      1895
 -1       564    8    0    1
 -2       207       206       362      1430      1898      1899
 -1       565    8    0    1
 -2       206       361       362      1896      1900      1898
 -1       566    8    0    1
 -2       208       207       363      1433      1901      1902
 -1       567    8    0    1
 -2       207       362       363      1899      1903      1901
 -1       568    8    0    1
 -2       209       208       364      1436      1904      1905
 -1       569    8    0    1
 -2       208       363       364      1902      1906      1904
 -1       570    8    0    1
 -2       210       209       365      1439      1907      1908
 -1       571    8    0    1
 -2       209       364       365      1905      1909      1907
 -1       572    8    0    1
 -2       211       210       366      1442      1910      1911
 -1       573    8    0    1
 -2       210       365       366      1908      1912      1910
 -1       574    8    0    1
 -2       212       211       367      1445      1913      1914
 -1       575    8    0    1
 -2       211       366       367      1911      1915      1913
 -1       576    8    0    1
 -2       213       212       368      1448      1916      1917
 -1       577    8    0    1
 -2       212       367       368      1914      1918      1916
 -1       578    8    0    1
 -2       214       213       369      1451      1919      1920
 -1       579    8    0    1
 -2       213       368       369      1917      1921      1919
 -1       580    8    0    1
 -2       215       214       370      1454      1922      1923
 -1       581    8    0    1
 -2       214       369       370      1920      1924      1922
 -1       582    8    0    1
 -2       216       215       371      1457      1925      1926
 -1       583    8    0    1
 -2       215       370       371      1923      1927      1925
 -1       584    8    0    1
 -2       217       216       372      1460      1928      1929
 -1       585    8    0    1
 -2       216       371       372      1926      1930      1928
 -1       586    8    0    1
 -2       218       217       373      1463      1931      1932
 -1       587    8    0    1
 -2       217       372       373      1929      1933      1931
 -1       588    8    0    1
 -2       219       218       374      1466      1934      1935
 -1       589    8    0    1
 -2       218       373       374      1932      1936      1934
 -1       590    8    0    1
 -2       220       219       375      1469      1937      1938
 -1       591    8    0    1
 -2       219       374       375      1935      1939      1937
 -1       592    8    0    1
 -2       221       220       376      1472      1940      1941
 -1       593    8    0    1
 -2       220       375       376      1938      1942      1940
 -1       594    8    0    1
 -2       222       221       377      1475      1943      1944
 -1       595    8    0    1
 -2       221       376       377      1941      1945      1943
 -1       596    8    0    1
 -2       223       222       378      1478      1946      1947
 -1       597    8    0    1
 -2       222       377       378      1944      1948      1946
 -1       598    8    0    1
 -2       224       223       379      1481      1949      1950
 -1       599    8    0    1
 -2       223       378       379      1947      1951      1949
 -1       600    8    0    1
 -2       225       224       380      1484      1952      1953
 -1       601    8    0    1
 -2       224       379       380      1950      1954      1952
 -1       602    8    0    1
 -2       226       225       381      1487      1955      1956
 -1       603    8    0    1
 -2       225       380       381      1953      1957      1955
 -1       604    8    0    1
 -2       227       226       382      1490      1958      1959
 -1       605    8    0    1
 -2       226       381       382      1956      1960      1958
 -1       606    8    0    1
 -2       228       227       383      1493      1961      1962
 -1       607    8    0    1
 -2       227       382       383      1959      1963      1961
 -1       608    8    0    1
 -2       229       228       292      1497      1964      1687
 -1       609    8    0    1
 -2       232       233       384      1509      1965      1966
 -1       610    8    0    1
 -2       233       234       385      1512      1967      1968
 -1       611    8    0    1
 -2       233       385       384      1968      1969      1965
 -1       612    8    0    1
 -2       234       235       386      1515      1970      1971
 -1       613    8    0    1
 -2       234       386       385      1971      1972      1967
 -1       614    8    0    1
 -2       235       236       387      1518      1973      1974
 -1       615    8    0    1
 -2       235       387       386      1974      1975      1970
 -1       616    8    0    1
 -2       236       237       388      1521      1976      1977
 -1       617    8    0    1
 -2       236       388       387      1977      1978      1973
 -1       618    8    0    1
 -2       237       238       389      1524      1979      1980
 -1       619    8    0    1
 -2       237       389       388      1980      1981      1976
 -1       620    8    0    1
 -2       238       239       390      1527      1982      1983
 -1       621    8    0    1
 -2       238       390       389      1983      1984      1979
 -1       622    8    0    1
 -2       239       240       391      1530      1985      1986
 -1       623    8    0    1
 -2       239       391       390      1986      1987      1982
 -1       624    8    0    1
 -2       240       241       392      1533      1988      1989
 -1       625    8    0    1
 -2       240       392       391      1989      1990      1985
 -1       626    8    0    1
 -2       241       242       393      1536      1991      1992
 -1       627    8    0    1
 -2       241       393       392      1992      1993      1988
 -1       628    8    0    1
 -2       242       243       394      1539      1994      1995
 -1       629    8    0    1
 -2       242       394       393      1995      1996      1991
 -1       630    8    0    1
 -2       243       244       395      1542      1997      1998
 -1       631    8    0    1
 -2       243       395       394      1998      1999      1994
 -1       632    8    0    1
 -2       244       245       396      1545      2000      2001
 -1       633    8    0    1
 -2       244       396       395      2001      2002      1997
 -1       634    8    0    1
 -2       245       246       397      1548      2003      2004
 -1       635    8    0    1
 -2       245       397       396      2004      2005      2000
 -1       636    8    0    1
 -2       246       247       398      1551      2006      2007
 -1       637    8    0    1
 -2       246       398       397      2007      2008      2003
 -1       638    8    0    1
 -2       247       248       399      1554      2009      2010
 -1       639    8    0    1
 -2       247       399       398      2010      2011      2006
 -1       640    8    0    1
 -2       248       249       400      1557      2012      2013
 -1       641    8    0    1
 -2       248       400       399      2013      2014      2009
 -1       642    8    0    1
 -2       249       250       401      1560      2015      2016
 -1       643    8    0    1
 -2       249       401       400      2016      2017      2012
 -1       644    8    0    1
 -2       250       251       402      1563      2018      2019
 -1       645    8    0    1
 -2       250       402       401      2019      2020      2015
 -1       646    8    0    1
 -2       251       252       403      1566      2021      2022
 -1       647    8    0    1
 -2       251       403       402      2022      2023      2018
 -1       648    8    0    1
 -2       252       253       404      1569      2024      2025
 -1       649    8    0    1
 -2       252       404       403      2025      2026      2021
 -1       650    8    0    1
 -2       253       254       405      1572      2027      2028
 -1       651    8    0    1
 -2       253       405       404      2028      2029      2024
 -1       652    8    0    1
 -2       254       255       406      1575      2030      2031
 -1       653    8    0    1
 -2       254       406       405      2031      2032      2027
 -1       654    8    0    1
 -2       255       256       407      1578      2033      2034
 -1       655    8    0    1
 -2       255       407       406      2034      2035      2030
 -1       656    8    0    1
 -2       256       257       408      1581      2036      2037
 -1       657    8    0    1
 -2       256       408       407      2037      2038      2033
 -1       658    8    0    1
 -2       257       258       409      1584      2039      2040
 -1       659    8    0    1
 -2       257       409       408      2040      2041      2036
 -1       660    8    0    1
 -2       258       259       410      1587      2042      2043
 -1       661    8    0    1
 -2       258       410       409      2043      2044      2039
 -1       662    8    0    1
 -2       259       260       411      1590      2045      2046
 -1       663    8    0    1
 -2       259       411       410      2046      2047      2042
 -1       664    8    0    1
 -2       260       261       412      1593      2048      2049
 -1       665    8    0    1
 -2       260       412       411      2049      2050      2045
 -1       666    8    0    1
 -2       261       262       413      1596      2051      2052
 -1       667    8    0    1
 -2       261       413       412      2052      2053      2048
 -1       668    8    0    1
 -2       262       263       414      1599      2054      2055
 -1       669    8    0    1
 -2       262       414       413      2055      2056      2051
 -1       670    8    0    1
 -2       263       264       415      1602      2057      2058
 -1       671    8    0    1
 -2       263       415       414      2058      2059      2054
 -1       672    8    0    1
 -2       264       265       416      1605      2060      2061
 -1       673    8    0    1
 -2       264       416       415      2061      2062      2057
 -1       674    8    0    1
 -2       265       266       417      1608      2063      2064
 -1       675    8    0    1
 -2       265       417       416      2064      2065      2060
 -1       676    8    0    1
 -2       266       267       418      1611      2066      2067
 -1       677    8    0    1
 -2       266       418       417      2067      2068      2063
 -1       678    8    0    1
 -2       267       268       419      1614      2069      2070
 -1       679    8    0    1
 -2       267       419       418      2070      2071      2066
 -1       680    8    0    1
 -2       268       269       420      1617      2072      2073
 -1       681    8    0    1
 -2       268       420       419      2073      2074      2069
 -1       682    8    0    1
 -2       269       270       421      1620      2075      2076
 -1       683    8    0    1
 -2       269       421       420      2076      2077      2072
 -1       684    8    0    1
 -2       270       271       422      1623      2078      2079
 -1       685    8    0    1
 -2       270       422       421      2079      2080      2075
 -1       686    8    0    1
 -2       271       272       423      1626      2081      2082
 -1       687    8    0    1
 -2       271       423       422      2082      2083      2078
 -1       688    8    0    1
 -2       272       273       424      1629      2084      2085
 -1       689    8    0    1
 -2       272       424       423      2085      2086      2081
 -1       690    8    0    1
 -2       273       274       425      1632      2087      2088
 -1       691    8    0    1
 -2       273       425       424      2088      2089      2084
 -1       692    8    0    1
 -2       274       275       426      1635      2090      2091
 -1       693    8    0    1
 -2       274       426       425      2091      2092      2087
 -1       694    8    0    1
 -2       275       276       427      1638      2093      2094
 -1       695    8    0    1
 -2       275       427       426      2094      2095      2090
 -1       696    8    0    1
 -2       276       277       428      1641      2096      2097
 -1       697    8    0    1
 -2       427       276       428      2093      2097      2098
 -1       698    8    0    1
 -2       277       278       428      1751      2099      2096
 -1       699    8    0    1
 -2       280       281       429      1653      2100      2101
 -1       700    8    0    1
 -2       279       280       430      1650      2102      2103
 -1       701    8    0    1
 -2       280       429       430      2101      2104      2102
 -1       702    8    0    1
 -2       278       279       428      1647      2105      2099
 -1       703    8    0    1
 -2       281       282       431      1656      2106      2107
 -1       704    8    0    1
 -2       281       431       429      2107      2108      2100
 -1       705    8    0    1
 -2       282       283       432      1659      2109      2110
 -1       706    8    0    1
 -2       282       432       431      2110      2111      2106
 -1       707    8    0    1
 -2       283       284       433      1662      2112      2113
 -1       708    8    0    1
 -2       283       433       432      2113      2114      2109
 -1       709    8    0    1
 -2       284       285       434      1665      2115      2116
 -1       710    8    0    1
 -2       284       434       433      2116      2117      2112
 -1       711    8    0    1
 -2       285       286       435      1668      2118      2119
 -1       712    8    0    1
 -2       285       435       434      2119      2120      2115
 -1       713    8    0    1
 -2       286       287       436      1671      2121      2122
 -1       714    8    0    1
 -2       286       436       435      2122      2123      2118
 -1       715    8    0    1
 -2       287       288       437      1674      2124      2125
 -1       716    8    0    1
 -2       287       437       436      2125      2126      2121
 -1       717    8    0    1
 -2       288       289       438      1677      2127      2128
 -1       718    8    0    1
 -2       288       438       437      2128      2129      2124
 -1       719    8    0    1
 -2       289       290       439      1680      2130      2131
 -1       720    8    0    1
 -2       289       439       438      2131      2132      2127
 -1       721    8    0    1
 -2       290       291       440      1683      2133      2134
 -1       722    8    0    1
 -2       290       440       439      2134      2135      2130
 -1       723    8    0    1
 -2       231       232       441      1506      2136      2137
 -1       724    8    0    1
 -2       337       231       441      1823      2137      2138
 -1       725    8    0    1
 -2       232       384       441      1966      2139      2136
 -1       726    8    0    1
 -2       294       295       442      1753      2140      2141
 -1       727    8    0    1
 -2       296       297       443      1754      2142      2143
 -1       728    8    0    1
 -2       322       293       444      1749      2144      2145
 -1       729    8    0    1
 -2       295       296       445      1748      2146      2147
 -1       730    8    0    1
 -2       167       168       446      1313      2148      2149
 -1       731    8    0    1
 -2       323       167       446      1781      2149      2150
 -1       732    8    0    1
 -2       168       325       446      1787      2151      2148
 -1       733    8    0    1
 -2       297       298       447      1755      2152      2153
 -1       734    8    0    1
 -2       298       299       448      1756      2154      2155
 -1       735    8    0    1
 -2       299       300       449      1757      2156      2157
 -1       736    8    0    1
 -2       299       449       448      2157      2158      2154
 -1       737    8    0    1
 -2       300       301       450      1758      2159      2160
 -1       738    8    0    1
 -2       301       302       451      1759      2161      2162
 -1       739    8    0    1
 -2       302       303       452      1760      2163      2164
 -1       740    8    0    1
 -2       303       304       453      1761      2165      2166
 -1       741    8    0    1
 -2       304       305       454      1762      2167      2168
 -1       742    8    0    1
 -2       305       306       455      1763      2169      2170
 -1       743    8    0    1
 -2       306       307       456      1764      2171      2172
 -1       744    8    0    1
 -2       307       308       457      1765      2173      2174
 -1       745    8    0    1
 -2       308       309       458      1766      2175      2176
 -1       746    8    0    1
 -2       309       310       459      1767      2177      2178
 -1       747    8    0    1
 -2       310       311       460      1768      2179      2180
 -1       748    8    0    1
 -2       311       312       461      1769      2181      2182
 -1       749    8    0    1
 -2       312       313       462      1770      2183      2184
 -1       750    8    0    1
 -2       313       314       463      1771      2185      2186
 -1       751    8    0    1
 -2       314       315       464      1772      2187      2188
 -1       752    8    0    1
 -2       315       316       465      1773      2189      2190
 -1       753    8    0    1
 -2       316       317       466      1774      2191      2192
 -1       754    8    0    1
 -2       317       318       467      1775      2193      2194
 -1       755    8    0    1
 -2       317       467       466      2194      2195      2191
 -1       756    8    0    1
 -2       318       319       468      1776      2196      2197
 -1       757    8    0    1
 -2       319       320       469      1777      2198      2199
 -1       758    8    0    1
 -2       320       321       470      1778      2200      2201
 -1       759    8    0    1
 -2       321       322       471      1779      2202      2203
 -1       760    8    0    1
 -2       293       294       472      1752      2204      2205
 -1       761    8    0    1
 -2       293       472       444      2205      2206      2144
 -1       762    8    0    1
 -2       292       228       383      1964      1962      2207
 -1       763    8    0    1
 -2       445       296       443      2146      2143      2208
 -1       764    8    0    1
 -2       181       324       182      1826      2209      1355
 -1       765    8    0    1
 -2       442       295       445      2140      2147      2210
 -1       766    8    0    1
 -2       297       447       443      2153      2211      2142
 -1       767    8    0    1
 -2       338       182       324      1827      2209      2212
 -1       768    8    0    1
 -2       428       279       430      2105      2103      2213
 -1       769    8    0    1
 -2       291       292       383      1686      2207      2214
 -1       770    8    0    1
 -2       294       442       472      2141      2215      2204
 -1       771    8    0    1
 -2       322       444       471      2145      2216      2202
 -1       772    8    0    1
 -2       470       321       471      2200      2203      2217
 -1       773    8    0    1
 -2       469       320       470      2198      2201      2218
 -1       774    8    0    1
 -2       467       318       468      2193      2197      2219
 -1       775    8    0    1
 -2       465       316       466      2189      2192      2220
 -1       776    8    0    1
 -2       464       315       465      2187      2190      2221
 -1       777    8    0    1
 -2       463       314       464      2185      2188      2222
 -1       778    8    0    1
 -2       462       313       463      2183      2186      2223
 -1       779    8    0    1
 -2       461       312       462      2181      2184      2224
 -1       780    8    0    1
 -2       460       311       461      2179      2182      2225
 -1       781    8    0    1
 -2       459       310       460      2177      2180      2226
 -1       782    8    0    1
 -2       458       309       459      2175      2178      2227
 -1       783    8    0    1
 -2       457       308       458      2173      2176      2228
 -1       784    8    0    1
 -2       456       307       457      2171      2174      2229
 -1       785    8    0    1
 -2       455       306       456      2169      2172      2230
 -1       786    8    0    1
 -2       454       305       455      2167      2170      2231
 -1       787    8    0    1
 -2       453       304       454      2165      2168      2232
 -1       788    8    0    1
 -2       452       303       453      2163      2166      2233
 -1       789    8    0    1
 -2       451       302       452      2161      2164      2234
 -1       790    8    0    1
 -2       449       300       450      2156      2160      2235
 -1       791    8    0    1
 -2       447       298       448      2152      2155      2236
 -1       792    8    0    1
 -2       450       301       451      2159      2162      2237
 -1       793    8    0    1
 -2       468       319       469      2196      2199      2238
 -1       794    8    0    1
 -2       291       383       440      2214      2239      2133
 -1       795    8    0    1
 -2       326       327       473      1793      2240      2241
 -1       796    8    0    1
 -2       325       326       474      1790      2242      2243
 -1       797    8    0    1
 -2       326       473       474      2241      2244      2242
 -1       798    8    0    1
 -2       328       329       475      1799      2245      2246
 -1       799    8    0    1
 -2       329       330       476      1802      2247      2248
 -1       800    8    0    1
 -2       329       476       475      2248      2249      2245
 -1       801    8    0    1
 -2       330       331       477      1805      2250      2251
 -1       802    8    0    1
 -2       330       477       476      2251      2252      2247
 -1       803    8    0    1
 -2       331       332       478      1808      2253      2254
 -1       804    8    0    1
 -2       331       478       477      2254      2255      2250
 -1       805    8    0    1
 -2       332       333       479      1811      2256      2257
 -1       806    8    0    1
 -2       332       479       478      2257      2258      2253
 -1       807    8    0    1
 -2       333       334       480      1814      2259      2260
 -1       808    8    0    1
 -2       333       480       479      2260      2261      2256
 -1       809    8    0    1
 -2       334       335       481      1817      2262      2263
 -1       810    8    0    1
 -2       334       481       480      2263      2264      2259
 -1       811    8    0    1
 -2       335       336       482      1820      2265      2266
 -1       812    8    0    1
 -2       481       335       482      2262      2266      2267
 -1       813    8    0    1
 -2       336       337       482      1825      2268      2265
 -1       814    8    0    1
 -2       339       338       483      1831      2269      2270
 -1       815    8    0    1
 -2       442       445       484      2210      2271      2272
 -1       816    8    0    1
 -2       445       443       485      2208      2273      2274
 -1       817    8    0    1
 -2       445       485       484      2274      2275      2271
 -1       818    8    0    1
 -2       340       339       486      1834      2276      2277
 -1       819    8    0    1
 -2       339       483       486      2270      2278      2276
 -1       820    8    0    1
 -2       341       340       487      1837      2279      2280
 -1       821    8    0    1
 -2       340       486       487      2277      2281      2279
 -1       822    8    0    1
 -2       342       341       488      1840      2282      2283
 -1       823    8    0    1
 -2       341       487       488      2280      2284      2282
 -1       824    8    0    1
 -2       343       342       489      1843      2285      2286
 -1       825    8    0    1
 -2       342       488       489      2283      2287      2285
 -1       826    8    0    1
 -2       344       343       490      1846      2288      2289
 -1       827    8    0    1
 -2       343       489       490      2286      2290      2288
 -1       828    8    0    1
 -2       345       344       491      1849      2291      2292
 -1       829    8    0    1
 -2       344       490       491      2289      2293      2291
 -1       830    8    0    1
 -2       346       345       492      1852      2294      2295
 -1       831    8    0    1
 -2       347       346       493      1855      2296      2297
 -1       832    8    0    1
 -2       350       349       494      1864      2298      2299
 -1       833    8    0    1
 -2       351       350       495      1867      2300      2301
 -1       834    8    0    1
 -2       352       351       496      1870      2302      2303
 -1       835    8    0    1
 -2       351       495       496      2301      2304      2302
 -1       836    8    0    1
 -2       353       352       497      1873      2305      2306
 -1       837    8    0    1
 -2       352       496       497      2303      2307      2305
 -1       838    8    0    1
 -2       354       353       498      1876      2308      2309
 -1       839    8    0    1
 -2       353       497       498      2306      2310      2308
 -1       840    8    0    1
 -2       355       354       499      1879      2311      2312
 -1       841    8    0    1
 -2       354       498       499      2309      2313      2311
 -1       842    8    0    1
 -2       356       355       500      1882      2314      2315
 -1       843    8    0    1
 -2       355       499       500      2312      2316      2314
 -1       844    8    0    1
 -2       357       356       501      1885      2317      2318
 -1       845    8    0    1
 -2       356       500       501      2315      2319      2317
 -1       846    8    0    1
 -2       358       357       502      1888      2320      2321
 -1       847    8    0    1
 -2       357       501       502      2318      2322      2320
 -1       848    8    0    1
 -2       359       358       503      1891      2323      2324
 -1       849    8    0    1
 -2       358       502       503      2321      2325      2323
 -1       850    8    0    1
 -2       360       359       504      1894      2326      2327
 -1       851    8    0    1
 -2       359       503       504      2324      2328      2326
 -1       852    8    0    1
 -2       361       360       505      1897      2329      2330
 -1       853    8    0    1
 -2       360       504       505      2327      2331      2329
 -1       854    8    0    1
 -2       362       361       506      1900      2332      2333
 -1       855    8    0    1
 -2       361       505       506      2330      2334      2332
 -1       856    8    0    1
 -2       363       362       507      1903      2335      2336
 -1       857    8    0    1
 -2       362       506       507      2333      2337      2335
 -1       858    8    0    1
 -2       364       363       508      1906      2338      2339
 -1       859    8    0    1
 -2       363       507       508      2336      2340      2338
 -1       860    8    0    1
 -2       365       364       509      1909      2341      2342
 -1       861    8    0    1
 -2       364       508       509      2339      2343      2341
 -1       862    8    0    1
 -2       366       365       510      1912      2344      2345
 -1       863    8    0    1
 -2       365       509       510      2342      2346      2344
 -1       864    8    0    1
 -2       367       366       511      1915      2347      2348
 -1       865    8    0    1
 -2       366       510       511      2345      2349      2347
 -1       866    8    0    1
 -2       368       367       512      1918      2350      2351
 -1       867    8    0    1
 -2       367       511       512      2348      2352      2350
 -1       868    8    0    1
 -2       369       368       513      1921      2353      2354
 -1       869    8    0    1
 -2       368       512       513      2351      2355      2353
 -1       870    8    0    1
 -2       370       369       514      1924      2356      2357
 -1       871    8    0    1
 -2       369       513       514      2354      2358      2356
 -1       872    8    0    1
 -2       371       370       515      1927      2359      2360
 -1       873    8    0    1
 -2       370       514       515      2357      2361      2359
 -1       874    8    0    1
 -2       372       371       516      1930      2362      2363
 -1       875    8    0    1
 -2       371       515       516      2360      2364      2362
 -1       876    8    0    1
 -2       373       372       517      1933      2365      2366
 -1       877    8    0    1
 -2       372       516       517      2363      2367      2365
 -1       878    8    0    1
 -2       374       373       518      1936      2368      2369
 -1       879    8    0    1
 -2       373       517       518      2366      2370      2368
 -1       880    8    0    1
 -2       375       374       519      1939      2371      2372
 -1       881    8    0    1
 -2       374       518       519      2369      2373      2371
 -1       882    8    0    1
 -2       376       375       520      1942      2374      2375
 -1       883    8    0    1
 -2       375       519       520      2372      2376      2374
 -1       884    8    0    1
 -2       377       376       521      1945      2377      2378
 -1       885    8    0    1
 -2       376       520       521      2375      2379      2377
 -1       886    8    0    1
 -2       378       377       522      1948      2380      2381
 -1       887    8    0    1
 -2       377       521       522      2378      2382      2380
 -1       888    8    0    1
 -2       379       378       523      1951      2383      2384
 -1       889    8    0    1
 -2       378       522       523      2381      2385      2383
 -1       890    8    0    1
 -2       380       379       524      1954      2386      2387
 -1       891    8    0    1
 -2       379       523       524      2384      2388      2386
 -1       892    8    0    1
 -2       381       380       525      1957      2389      2390
 -1       893    8    0    1
 -2       380       524       525      2387      2391      2389
 -1       894    8    0    1
 -2       382       381       526      1960      2392      2393
 -1       895    8    0    1
 -2       381       525       526      2390      2394      2392
 -1       896    8    0    1
 -2       383       382       527      1963      2395      2396
 -1       897    8    0    1
 -2       440       383       527      2239      2396      2397
 -1       898    8    0    1
 -2       382       526       527      2393      2398      2395
 -1       899    8    0    1
 -2       386       387       528      1975      2399      2400
 -1       900    8    0    1
 -2       385       386       529      1972      2401      2402
 -1       901    8    0    1
 -2       386       528       529      2400      2403      2401
 -1       902    8    0    1
 -2       384       385       530      1969      2404      2405
 -1       903    8    0    1
 -2       385       529       530      2402      2406      2404
 -1       904    8    0    1
 -2       387       388       531      1978      2407      2408
 -1       905    8    0    1
 -2       387       531       528      2408      2409      2399
 -1       906    8    0    1
 -2       388       389       532      1981      2410      2411
 -1       907    8    0    1
 -2       388       532       531      2411      2412      2407
 -1       908    8    0    1
 -2       389       390       533      1984      2413      2414
 -1       909    8    0    1
 -2       389       533       532      2414      2415      2410
 -1       910    8    0    1
 -2       390       391       534      1987      2416      2417
 -1       911    8    0    1
 -2       390       534       533      2417      2418      2413
 -1       912    8    0    1
 -2       391       392       535      1990      2419      2420
 -1       913    8    0    1
 -2       391       535       534      2420      2421      2416
 -1       914    8    0    1
 -2       392       393       536      1993      2422      2423
 -1       915    8    0    1
 -2       392       536       535      2423      2424      2419
 -1       916    8    0    1
 -2       393       394       537      1996      2425      2426
 -1       917    8    0    1
 -2       393       537       536      2426      2427      2422
 -1       918    8    0    1
 -2       394       395       538      1999      2428      2429
 -1       919    8    0    1
 -2       394       538       537      2429      2430      2425
 -1       920    8    0    1
 -2       395       396       539      2002      2431      2432
 -1       921    8    0    1
 -2       395       539       538      2432      2433      2428
 -1       922    8    0    1
 -2       396       397       540      2005      2434      2435
 -1       923    8    0    1
 -2       396       540       539      2435      2436      2431
 -1       924    8    0    1
 -2       397       398       541      2008      2437      2438
 -1       925    8    0    1
 -2       397       541       540      2438      2439      2434
 -1       926    8    0    1
 -2       398       399       542      2011      2440      2441
 -1       927    8    0    1
 -2       398       542       541      2441      2442      2437
 -1       928    8    0    1
 -2       399       400       543      2014      2443      2444
 -1       929    8    0    1
 -2       399       543       542      2444      2445      2440
 -1       930    8    0    1
 -2       400       401       544      2017      2446      2447
 -1       931    8    0    1
 -2       400       544       543      2447      2448      2443
 -1       932    8    0    1
 -2       401       402       545      2020      2449      2450
 -1       933    8    0    1
 -2       401       545       544      2450      2451      2446
 -1       934    8    0    1
 -2       402       403       546      2023      2452      2453
 -1       935    8    0    1
 -2       402       546       545      2453      2454      2449
 -1       936    8    0    1
 -2       403       404       547      2026      2455      2456
 -1       937    8    0    1
 -2       403       547       546      2456      2457      2452
 -1       938    8    0    1
 -2       404       405       548      2029      2458      2459
 -1       939    8    0    1
 -2       404       548       547      2459      2460      2455
 -1       940    8    0    1
 -2       405       406       549      2032      2461      2462
 -1       941    8    0    1
 -2       405       549       548      2462      2463      2458
 -1       942    8    0    1
 -2       406       407       550      2035      2464      2465
 -1       943    8    0    1
 -2       406       550       549      2465      2466      2461
 -1       944    8    0    1
 -2       407       408       551      2038      2467      2468
 -1       945    8    0    1
 -2       407       551       550      2468      2469      2464
 -1       946    8    0    1
 -2       408       409       552      2041      2470      2471
 -1       947    8    0    1
 -2       408       552       551      2471      2472      2467
 -1       948    8    0    1
 -2       409       410       553      2044      2473      2474
 -1       949    8    0    1
 -2       409       553       552      2474      2475      2470
 -1       950    8    0    1
 -2       410       411       554      2047      2476      2477
 -1       951    8    0    1
 -2       410       554       553      2477      2478      2473
 -1       952    8    0    1
 -2       411       412       555      2050      2479      2480
 -1       953    8    0    1
 -2       411       555       554      2480      2481      2476
 -1       954    8    0    1
 -2       412       413       556      2053      2482      2483
 -1       955    8    0    1
 -2       412       556       555      2483      2484      2479
 -1       956    8    0    1
 -2       413       414       557      2056      2485      2486
 -1       957    8    0    1
 -2       413       557       556      2486      2487      2482
 -1       958    8    0    1
 -2       414       415       558      2059      2488      2489
 -1       959    8    0    1
 -2       414       558       557      2489      2490      2485
 -1       960    8    0    1
 -2       415       416       559      2062      2491      2492
 -1       961    8    0    1
 -2       415       559       558      2492      2493      2488
 -1       962    8    0    1
 -2       416       417       560      2065      2494      2495
 -1       963    8    0    1
 -2       416       560       559      2495      2496      2491
 -1       964    8    0    1
 -2       417       418       561      2068      2497      2498
 -1       965    8    0    1
 -2       417       561       560      2498      2499      2494
 -1       966    8    0    1
 -2       418       419       562      2071      2500      2501
 -1       967    8    0    1
 -2       418       562       561      2501      2502      2497
 -1       968    8    0    1
 -2       419       420       563      2074      2503      2504
 -1       969    8    0    1
 -2       419       563       562      2504      2505      2500
 -1       970    8    0    1
 -2       420       421       564      2077      2506      2507
 -1       971    8    0    1
 -2       420       564       563      2507      2508      2503
 -1       972    8    0    1
 -2       421       422       565      2080      2509      2510
 -1       973    8    0    1
 -2       421       565       564      2510      2511      2506
 -1       974    8    0    1
 -2       422       423       566      2083      2512      2513
 -1       975    8    0    1
 -2       422       566       565      2513      2514      2509
 -1       976    8    0    1
 -2       423       424       567      2086      2515      2516
 -1       977    8    0    1
 -2       423       567       566      2516      2517      2512
 -1       978    8    0    1
 -2       424       425       568      2089      2518      2519
 -1       979    8    0    1
 -2       424       568       567      2519      2520      2515
 -1       980    8    0    1
 -2       425       426       569      2092      2521      2522
 -1       981    8    0    1
 -2       425       569       568      2522      2523      2518
 -1       982    8    0    1
 -2       426       427       570      2095      2524      2525
 -1       983    8    0    1
 -2       426       570       569      2525      2526      2521
 -1       984    8    0    1
 -2       427       428       430      2098      2213      2527
 -1       985    8    0    1
 -2       431       432       571      2111      2528      2529
 -1       986    8    0    1
 -2       429       431       572      2108      2530      2531
 -1       987    8    0    1
 -2       431       571       572      2529      2532      2530
 -1       988    8    0    1
 -2       430       429       573      2104      2533      2534
 -1       989    8    0    1
 -2       429       572       573      2531      2535      2533
 -1       990    8    0    1
 -2       472       442       574      2215      2536      2537
 -1       991    8    0    1
 -2       432       433       575      2114      2538      2539
 -1       992    8    0    1
 -2       432       575       571      2539      2540      2528
 -1       993    8    0    1
 -2       433       434       576      2117      2541      2542
 -1       994    8    0    1
 -2       433       576       575      2542      2543      2538
 -1       995    8    0    1
 -2       434       435       577      2120      2544      2545
 -1       996    8    0    1
 -2       434       577       576      2545      2546      2541
 -1       997    8    0    1
 -2       435       436       578      2123      2547      2548
 -1       998    8    0    1
 -2       435       578       577      2548      2549      2544
 -1       999    8    0    1
 -2       436       437       579      2126      2550      2551
 -1      1000    8    0    1
 -2       436       579       578      2551      2552      2547
 -1      1001    8    0    1
 -2       437       438       580      2129      2553      2554
 -1      1002    8    0    1
 -2       437       580       579      2554      2555      2550
 -1      1003    8    0    1
 -2       438       439       581      2132      2556      2557
 -1      1004    8    0    1
 -2       438       581       580      2557      2558      2553
 -1      1005    8    0    1
 -2       439       440       582      2135      2559      2560
 -1      1006    8    0    1
 -2       581       439       582      2556      2560      2561
 -1      1007    8    0    1
 -2       440       527       582      2397      2562      2559
 -1      1008    8    0    1
 -2       338       324       583      2212      2563      2564
 -1      1009    8    0    1
 -2       483       338       583      2269      2564      2565
 -1      1010    8    0    1
 -2       324       323       583      1785      2566      2563
 -1      1011    8    0    1
 -2       443       447       584      2211      2567      2568
 -1      1012    8    0    1
 -2       471       444       585      2216      2569      2570
 -1      1013    8    0    1
 -2       470       471       586      2217      2571      2572
 -1      1014    8    0    1
 -2       465       466       587      2220      2573      2574
 -1      1015    8    0    1
 -2       327       328       588      1796      2575      2576
 -1      1016    8    0    1
 -2       473       327       588      2240      2576      2577
 -1      1017    8    0    1
 -2       328       475       588      2246      2578      2575
 -1      1018    8    0    1
 -2       447       448       589      2236      2579      2580
 -1      1019    8    0    1
 -2       450       451       590      2237      2581      2582
 -1      1020    8    0    1
 -2       448       449       591      2158      2583      2584
 -1      1021    8    0    1
 -2       468       469       592      2238      2585      2586
 -1      1022    8    0    1
 -2       449       450       593      2235      2587      2588
 -1      1023    8    0    1
 -2       449       593       591      2588      2589      2583
 -1      1024    8    0    1
 -2       451       452       594      2234      2590      2591
 -1      1025    8    0    1
 -2       452       453       595      2233      2592      2593
 -1      1026    8    0    1
 -2       452       595       594      2593      2594      2590
 -1      1027    8    0    1
 -2       453       454       596      2232      2595      2596
 -1      1028    8    0    1
 -2       454       455       597      2231      2597      2598
 -1      1029    8    0    1
 -2       455       456       598      2230      2599      2600
 -1      1030    8    0    1
 -2       456       457       599      2229      2601      2602
 -1      1031    8    0    1
 -2       456       599       598      2602      2603      2599
 -1      1032    8    0    1
 -2       457       458       600      2228      2604      2605
 -1      1033    8    0    1
 -2       458       459       601      2227      2606      2607
 -1      1034    8    0    1
 -2       459       460       602      2226      2608      2609
 -1      1035    8    0    1
 -2       460       461       603      2225      2610      2611
 -1      1036    8    0    1
 -2       460       603       602      2611      2612      2608
 -1      1037    8    0    1
 -2       461       462       604      2224      2613      2614
 -1      1038    8    0    1
 -2       461       604       603      2614      2615      2610
 -1      1039    8    0    1
 -2       463       464       493      2222      2616      2617
 -1      1040    8    0    1
 -2       464       465       605      2221      2618      2619
 -1      1041    8    0    1
 -2       467       468       606      2219      2620      2621
 -1      1042    8    0    1
 -2       469       470       607      2218      2622      2623
 -1      1043    8    0    1
 -2       470       586       607      2572      2624      2622
 -1      1044    8    0    1
 -2       444       472       608      2206      2625      2626
 -1      1045    8    0    1
 -2       427       430       570      2527      2627      2524
 -1      1046    8    0    1
 -2       325       474       609      2243      2628      2629
 -1      1047    8    0    1
 -2       325       609       446      2629      2630      2151
 -1      1048    8    0    1
 -2       584       447       589      2567      2580      2631
 -1      1049    8    0    1
 -2       482       337       610      2268      2632      2633
 -1      1050    8    0    1
 -2       337       441       610      2138      2634      2632
 -1      1051    8    0    1
 -2       346       492       493      2295      2635      2296
 -1      1052    8    0    1
 -2       442       484       611      2272      2636      2637
 -1      1053    8    0    1
 -2       442       611       574      2637      2638      2536
 -1      1054    8    0    1
 -2       492       345       491      2294      2292      2639
 -1      1055    8    0    1
 -2       347       493       605      2297      2640      2641
 -1      1056    8    0    1
 -2       350       494       495      2299      2642      2300
 -1      1057    8    0    1
 -2       348       347       605      1858      2641      2643
 -1      1058    8    0    1
 -2       349       348       587      1861      2644      2645
 -1      1059    8    0    1
 -2       472       574       608      2537      2646      2625
 -1      1060    8    0    1
 -2       589       448       591      2579      2584      2647
 -1      1061    8    0    1
 -2       583       323       446      2566      2150      2648
 -1      1062    8    0    1
 -2       586       471       612      2571      2649      2650
 -1      1063    8    0    1
 -2       471       585       612      2570      2651      2649
 -1      1064    8    0    1
 -2       441       384       613      2139      2652      2653
 -1      1065    8    0    1
 -2       610       441       613      2634      2653      2654
 -1      1066    8    0    1
 -2       384       530       613      2405      2655      2652
 -1      1067    8    0    1
 -2       585       444       608      2569      2626      2656
 -1      1068    8    0    1
 -2       430       573       570      2534      2657      2627
 -1      1069    8    0    1
 -2       465       587       605      2574      2658      2618
 -1      1070    8    0    1
 -2       606       468       592      2620      2586      2659
 -1      1071    8    0    1
 -2       601       459       602      2606      2609      2660
 -1      1072    8    0    1
 -2       599       457       600      2601      2605      2661
 -1      1073    8    0    1
 -2       597       455       598      2597      2600      2662
 -1      1074    8    0    1
 -2       595       453       596      2592      2596      2663
 -1      1075    8    0    1
 -2       593       450       614      2587      2664      2665
 -1      1076    8    0    1
 -2       450       590       614      2582      2666      2664
 -1      1077    8    0    1
 -2       592       469       607      2585      2623      2667
 -1      1078    8    0    1
 -2       451       594       590      2591      2668      2581
 -1      1079    8    0    1
 -2       348       605       587      2643      2658      2644
 -1      1080    8    0    1
 -2       494       349       587      2298      2645      2669
 -1      1081    8    0    1
 -2       443       584       485      2568      2670      2273
 -1      1082    8    0    1
 -2       596       454       597      2595      2598      2671
 -1      1083    8    0    1
 -2       600       458       601      2604      2607      2672
 -1      1084    8    0    1
 -2       604       462       492      2613      2673      2674
 -1      1085    8    0    1
 -2       493       464       605      2616      2619      2640
 -1      1086    8    0    1
 -2       462       463       492      2223      2675      2673
 -1      1087    8    0    1
 -2       466       467       494      2195      2676      2677
 -1      1088    8    0    1
 -2       476       477       615      2252      2678      2679
 -1      1089    8    0    1
 -2       475       476       616      2249      2680      2681
 -1      1090    8    0    1
 -2       476       615       616      2679      2682      2680
 -1      1091    8    0    1
 -2       478       479       617      2258      2683      2684
 -1      1092    8    0    1
 -2       479       480       618      2261      2685      2686
 -1      1093    8    0    1
 -2       479       618       617      2686      2687      2683
 -1      1094    8    0    1
 -2       481       482       619      2267      2688      2689
 -1      1095    8    0    1
 -2       482       610       619      2633      2690      2688
 -1      1096    8    0    1
 -2       584       589       620      2631      2691      2692
 -1      1097    8    0    1
 -2       484       485       621      2275      2693      2694
 -1      1098    8    0    1
 -2       486       483       622      2278      2695      2696
 -1      1099    8    0    1
 -2       487       486       623      2281      2697      2698
 -1      1100    8    0    1
 -2       486       622       623      2696      2699      2697
 -1      1101    8    0    1
 -2       488       487       624      2284      2700      2701
 -1      1102    8    0    1
 -2       487       623       624      2698      2702      2700
 -1      1103    8    0    1
 -2       489       488       625      2287      2703      2704
 -1      1104    8    0    1
 -2       488       624       625      2701      2705      2703
 -1      1105    8    0    1
 -2       490       489       626      2290      2706      2707
 -1      1106    8    0    1
 -2       489       625       626      2704      2708      2706
 -1      1107    8    0    1
 -2       492       463       493      2675      2617      2635
 -1      1108    8    0    1
 -2       608       574       627      2646      2709      2710
 -1      1109    8    0    1
 -2       585       608       628      2656      2711      2712
 -1      1110    8    0    1
 -2       608       627       628      2710      2713      2711
 -1      1111    8    0    1
 -2       497       496       629      2307      2714      2715
 -1      1112    8    0    1
 -2       498       497       630      2310      2716      2717
 -1      1113    8    0    1
 -2       497       629       630      2715      2718      2716
 -1      1114    8    0    1
 -2       499       498       631      2313      2719      2720
 -1      1115    8    0    1
 -2       498       630       631      2717      2721      2719
 -1      1116    8    0    1
 -2       500       499       632      2316      2722      2723
 -1      1117    8    0    1
 -2       499       631       632      2720      2724      2722
 -1      1118    8    0    1
 -2       501       500       633      2319      2725      2726
 -1      1119    8    0    1
 -2       500       632       633      2723      2727      2725
 -1      1120    8    0    1
 -2       502       501       634      2322      2728      2729
 -1      1121    8    0    1
 -2       501       633       634      2726      2730      2728
 -1      1122    8    0    1
 -2       503       502       635      2325      2731      2732
 -1      1123    8    0    1
 -2       502       634       635      2729      2733      2731
 -1      1124    8    0    1
 -2       504       503       636      2328      2734      2735
 -1      1125    8    0    1
 -2       503       635       636      2732      2736      2734
 -1      1126    8    0    1
 -2       505       504       637      2331      2737      2738
 -1      1127    8    0    1
 -2       504       636       637      2735      2739      2737
 -1      1128    8    0    1
 -2       506       505       638      2334      2740      2741
 -1      1129    8    0    1
 -2       505       637       638      2738      2742      2740
 -1      1130    8    0    1
 -2       507       506       639      2337      2743      2744
 -1      1131    8    0    1
 -2       506       638       639      2741      2745      2743
 -1      1132    8    0    1
 -2       508       507       640      2340      2746      2747
 -1      1133    8    0    1
 -2       507       639       640      2744      2748      2746
 -1      1134    8    0    1
 -2       509       508       641      2343      2749      2750
 -1      1135    8    0    1
 -2       508       640       641      2747      2751      2749
 -1      1136    8    0    1
 -2       510       509       642      2346      2752      2753
 -1      1137    8    0    1
 -2       509       641       642      2750      2754      2752
 -1      1138    8    0    1
 -2       511       510       643      2349      2755      2756
 -1      1139    8    0    1
 -2       510       642       643      2753      2757      2755
 -1      1140    8    0    1
 -2       512       511       644      2352      2758      2759
 -1      1141    8    0    1
 -2       511       643       644      2756      2760      2758
 -1      1142    8    0    1
 -2       513       512       645      2355      2761      2762
 -1      1143    8    0    1
 -2       512       644       645      2759      2763      2761
 -1      1144    8    0    1
 -2       514       513       646      2358      2764      2765
 -1      1145    8    0    1
 -2       513       645       646      2762      2766      2764
 -1      1146    8    0    1
 -2       515       514       647      2361      2767      2768
 -1      1147    8    0    1
 -2       514       646       647      2765      2769      2767
 -1      1148    8    0    1
 -2       516       515       648      2364      2770      2771
 -1      1149    8    0    1
 -2       515       647       648      2768      2772      2770
 -1      1150    8    0    1
 -2       517       516       649      2367      2773      2774
 -1      1151    8    0    1
 -2       516       648       649      2771      2775      2773
 -1      1152    8    0    1
 -2       518       517       650      2370      2776      2777
 -1      1153    8    0    1
 -2       517       649       650      2774      2778      2776
 -1      1154    8    0    1
 -2       519       518       651      2373      2779      2780
 -1      1155    8    0    1
 -2       518       650       651      2777      2781      2779
 -1      1156    8    0    1
 -2       520       519       652      2376      2782      2783
 -1      1157    8    0    1
 -2       519       651       652      2780      2784      2782
 -1      1158    8    0    1
 -2       521       520       653      2379      2785      2786
 -1      1159    8    0    1
 -2       520       652       653      2783      2787      2785
 -1      1160    8    0    1
 -2       522       521       654      2382      2788      2789
 -1      1161    8    0    1
 -2       521       653       654      2786      2790      2788
 -1      1162    8    0    1
 -2       523       522       655      2385      2791      2792
 -1      1163    8    0    1
 -2       522       654       655      2789      2793      2791
 -1      1164    8    0    1
 -2       524       523       656      2388      2794      2795
 -1      1165    8    0    1
 -2       523       655       656      2792      2796      2794
 -1      1166    8    0    1
 -2       525       524       657      2391      2797      2798
 -1      1167    8    0    1
 -2       524       656       657      2795      2799      2797
 -1      1168    8    0    1
 -2       526       525       658      2394      2800      2801
 -1      1169    8    0    1
 -2       525       657       658      2798      2802      2800
 -1      1170    8    0    1
 -2       527       526       659      2398      2803      2804
 -1      1171    8    0    1
 -2       582       527       659      2562      2804      2805
 -1      1172    8    0    1
 -2       526       658       659      2801      2806      2803
 -1      1173    8    0    1
 -2       529       528       660      2403      2807      2808
 -1      1174    8    0    1
 -2       528       531       661      2409      2809      2810
 -1      1175    8    0    1
 -2       528       661       660      2810      2811      2807
 -1      1176    8    0    1
 -2       530       529       662      2406      2812      2813
 -1      1177    8    0    1
 -2       529       660       662      2808      2814      2812
 -1      1178    8    0    1
 -2       532       533       663      2415      2815      2816
 -1      1179    8    0    1
 -2       533       534       664      2418      2817      2818
 -1      1180    8    0    1
 -2       533       664       663      2818      2819      2815
 -1      1181    8    0    1
 -2       534       535       665      2421      2820      2821
 -1      1182    8    0    1
 -2       534       665       664      2821      2822      2817
 -1      1183    8    0    1
 -2       535       536       666      2424      2823      2824
 -1      1184    8    0    1
 -2       535       666       665      2824      2825      2820
 -1      1185    8    0    1
 -2       536       537       667      2427      2826      2827
 -1      1186    8    0    1
 -2       536       667       666      2827      2828      2823
 -1      1187    8    0    1
 -2       537       538       668      2430      2829      2830
 -1      1188    8    0    1
 -2       537       668       667      2830      2831      2826
 -1      1189    8    0    1
 -2       538       539       669      2433      2832      2833
 -1      1190    8    0    1
 -2       538       669       668      2833      2834      2829
 -1      1191    8    0    1
 -2       539       540       670      2436      2835      2836
 -1      1192    8    0    1
 -2       539       670       669      2836      2837      2832
 -1      1193    8    0    1
 -2       540       541       671      2439      2838      2839
 -1      1194    8    0    1
 -2       540       671       670      2839      2840      2835
 -1      1195    8    0    1
 -2       541       542       672      2442      2841      2842
 -1      1196    8    0    1
 -2       541       672       671      2842      2843      2838
 -1      1197    8    0    1
 -2       542       543       673      2445      2844      2845
 -1      1198    8    0    1
 -2       542       673       672      2845      2846      2841
 -1      1199    8    0    1
 -2       543       544       674      2448      2847      2848
 -1      1200    8    0    1
 -2       543       674       673      2848      2849      2844
 -1      1201    8    0    1
 -2       544       545       675      2451      2850      2851
 -1      1202    8    0    1
 -2       544       675       674      2851      2852      2847
 -1      1203    8    0    1
 -2       545       546       676      2454      2853      2854
 -1      1204    8    0    1
 -2       545       676       675      2854      2855      2850
 -1      1205    8    0    1
 -2       546       547       677      2457      2856      2857
 -1      1206    8    0    1
 -2       546       677       676      2857      2858      2853
 -1      1207    8    0    1
 -2       547       548       678      2460      2859      2860
 -1      1208    8    0    1
 -2       547       678       677      2860      2861      2856
 -1      1209    8    0    1
 -2       548       549       679      2463      2862      2863
 -1      1210    8    0    1
 -2       548       679       678      2863      2864      2859
 -1      1211    8    0    1
 -2       549       550       680      2466      2865      2866
 -1      1212    8    0    1
 -2       549       680       679      2866      2867      2862
 -1      1213    8    0    1
 -2       550       551       681      2469      2868      2869
 -1      1214    8    0    1
 -2       550       681       680      2869      2870      2865
 -1      1215    8    0    1
 -2       551       552       682      2472      2871      2872
 -1      1216    8    0    1
 -2       551       682       681      2872      2873      2868
 -1      1217    8    0    1
 -2       552       553       683      2475      2874      2875
 -1      1218    8    0    1
 -2       552       683       682      2875      2876      2871
 -1      1219    8    0    1
 -2       553       554       684      2478      2877      2878
 -1      1220    8    0    1
 -2       553       684       683      2878      2879      2874
 -1      1221    8    0    1
 -2       554       555       685      2481      2880      2881
 -1      1222    8    0    1
 -2       554       685       684      2881      2882      2877
 -1      1223    8    0    1
 -2       555       556       686      2484      2883      2884
 -1      1224    8    0    1
 -2       555       686       685      2884      2885      2880
 -1      1225    8    0    1
 -2       556       557       687      2487      2886      2887
 -1      1226    8    0    1
 -2       556       687       686      2887      2888      2883
 -1      1227    8    0    1
 -2       557       558       688      2490      2889      2890
 -1      1228    8    0    1
 -2       557       688       687      2890      2891      2886
 -1      1229    8    0    1
 -2       558       559       689      2493      2892      2893
 -1      1230    8    0    1
 -2       558       689       688      2893      2894      2889
 -1      1231    8    0    1
 -2       559       560       690      2496      2895      2896
 -1      1232    8    0    1
 -2       559       690       689      2896      2897      2892
 -1      1233    8    0    1
 -2       560       561       691      2499      2898      2899
 -1      1234    8    0    1
 -2       560       691       690      2899      2900      2895
 -1      1235    8    0    1
 -2       561       562       692      2502      2901      2902
 -1      1236    8    0    1
 -2       561       692       691      2902      2903      2898
 -1      1237    8    0    1
 -2       562       563       693      2505      2904      2905
 -1      1238    8    0    1
 -2       562       693       692      2905      2906      2901
 -1      1239    8    0    1
 -2       563       564       694      2508      2907      2908
 -1      1240    8    0    1
 -2       563       694       693      2908      2909      2904
 -1      1241    8    0    1
 -2       564       565       695      2511      2910      2911
 -1      1242    8    0    1
 -2       564       695       694      2911      2912      2907
 -1      1243    8    0    1
 -2       565       566       696      2514      2913      2914
 -1      1244    8    0    1
 -2       565       696       695      2914      2915      2910
 -1      1245    8    0    1
 -2       566       567       697      2517      2916      2917
 -1      1246    8    0    1
 -2       566       697       696      2917      2918      2913
 -1      1247    8    0    1
 -2       567       568       698      2520      2919      2920
 -1      1248    8    0    1
 -2       567       698       697      2920      2921      2916
 -1      1249    8    0    1
 -2       568       569       699      2523      2922      2923
 -1      1250    8    0    1
 -2       568       699       698      2923      2924      2919
 -1      1251    8    0    1
 -2       569       570       700      2526      2925      2926
 -1      1252    8    0    1
 -2       699       569       700      2922      2926      2927
 -1      1253    8    0    1
 -2       570       573       700      2657      2928      2925
 -1      1254    8    0    1
 -2       572       571       701      2532      2929      2930
 -1      1255    8    0    1
 -2       575       576       702      2543      2931      2932
 -1      1256    8    0    1
 -2       573       572       703      2535      2933      2934
 -1      1257    8    0    1
 -2       700       573       703      2928      2934      2935
 -1      1258    8    0    1
 -2       572       701       703      2930      2936      2933
 -1      1259    8    0    1
 -2       492       491       604      2639      2937      2674
 -1      1260    8    0    1
 -2       571       575       704      2540      2938      2939
 -1      1261    8    0    1
 -2       701       571       704      2929      2939      2940
 -1      1262    8    0    1
 -2       575       702       704      2932      2941      2938
 -1      1263    8    0    1
 -2       577       578       705      2549      2942      2943
 -1      1264    8    0    1
 -2       578       579       706      2552      2944      2945
 -1      1265    8    0    1
 -2       578       706       705      2945      2946      2942
 -1      1266    8    0    1
 -2       579       580       707      2555      2947      2948
 -1      1267    8    0    1
 -2       579       707       706      2948      2949      2944
 -1      1268    8    0    1
 -2       580       581       708      2558      2950      2951
 -1      1269    8    0    1
 -2       580       708       707      2951      2952      2947
 -1      1270    8    0    1
 -2       607       586       709      2624      2953      2954
 -1      1271    8    0    1
 -2       604       491       603      2937      2955      2615
 -1      1272    8    0    1
 -2       597       598       710      2662      2956      2957
 -1      1273    8    0    1
 -2       587       466       494      2573      2677      2669
 -1      1274    8    0    1
 -2       576       577       711      2546      2958      2959
 -1      1275    8    0    1
 -2       577       705       711      2943      2960      2958
 -1      1276    8    0    1
 -2       596       597       712      2671      2961      2962
 -1      1277    8    0    1
 -2       592       607       713      2667      2963      2964
 -1      1278    8    0    1
 -2       583       446       609      2648      2630      2965
 -1      1279    8    0    1
 -2       601       602       714      2660      2966      2967
 -1      1280    8    0    1
 -2       477       478       715      2255      2968      2969
 -1      1281    8    0    1
 -2       615       477       715      2678      2969      2970
 -1      1282    8    0    1
 -2       478       617       715      2684      2971      2968
 -1      1283    8    0    1
 -2       591       593       716      2589      2972      2973
 -1      1284    8    0    1
 -2       594       595       717      2594      2974      2975
 -1      1285    8    0    1
 -2       600       601       718      2672      2976      2977
 -1      1286    8    0    1
 -2       601       714       718      2967      2978      2976
 -1      1287    8    0    1
 -2       595       596       719      2663      2979      2980
 -1      1288    8    0    1
 -2       598       599       720      2603      2981      2982
 -1      1289    8    0    1
 -2       598       720       710      2982      2983      2956
 -1      1290    8    0    1
 -2       599       600       721      2661      2984      2985
 -1      1291    8    0    1
 -2       602       603       722      2612      2986      2987
 -1      1292    8    0    1
 -2       602       722       714      2987      2988      2966
 -1      1293    8    0    1
 -2       494       467       606      2676      2621      2989
 -1      1294    8    0    1
 -2       474       473       723      2244      2990      2991
 -1      1295    8    0    1
 -2       531       532       724      2412      2992      2993
 -1      1296    8    0    1
 -2       661       531       724      2809      2993      2994
 -1      1297    8    0    1
 -2       532       663       724      2816      2995      2992
 -1      1298    8    0    1
 -2       590       594       725      2668      2996      2997
 -1      1299    8    0    1
 -2       589       591       726      2647      2998      2999
 -1      1300    8    0    1
 -2       485       584       727      2670      3000      3001
 -1      1301    8    0    1
 -2       485       727       621      3001      3002      2693
 -1      1302    8    0    1
 -2       603       491       722      2955      3003      2986
 -1      1303    8    0    1
 -2       475       616       728      2681      3004      3005
 -1      1304    8    0    1
 -2       475       728       588      3005      3006      2578
 -1      1305    8    0    1
 -2       481       619       480      2689      3007      2264
 -1      1306    8    0    1
 -2       620       589       726      2691      2999      3008
 -1      1307    8    0    1
 -2       611       484       621      2636      2694      3009
 -1      1308    8    0    1
 -2       490       626       722      2707      3010      3011
 -1      1309    8    0    1
 -2       491       490       722      2293      3011      3003
 -1      1310    8    0    1
 -2       576       711       702      2959      3012      2931
 -1      1311    8    0    1
 -2       585       628       729      2712      3013      3014
 -1      1312    8    0    1
 -2       585       729       612      3014      3015      2651
 -1      1313    8    0    1
 -2       483       583       730      2565      3016      3017
 -1      1314    8    0    1
 -2       590       725       614      2997      3018      2666
 -1      1315    8    0    1
 -2       725       594       717      2996      2975      3019
 -1      1316    8    0    1
 -2       609       474       731      2628      3020      3021
 -1      1317    8    0    1
 -2       474       723       731      2991      3022      3020
 -1      1318    8    0    1
 -2       595       719       717      2980      3023      2974
 -1      1319    8    0    1
 -2       596       712       719      2962      3024      2979
 -1      1320    8    0    1
 -2       720       599       721      2981      2985      3025
 -1      1321    8    0    1
 -2       607       709       713      2954      3026      2963
 -1      1322    8    0    1
 -2       709       586       612      2953      2650      3027
 -1      1323    8    0    1
 -2       581       582       732      2561      3028      3029
 -1      1324    8    0    1
 -2       708       581       732      2950      3029      3030
 -1      1325    8    0    1
 -2       582       659       732      2805      3031      3028
 -1      1326    8    0    1
 -2       483       730       622      3017      3032      2695
 -1      1327    8    0    1
 -2       530       662       733      2813      3033      3034
 -1      1328    8    0    1
 -2       613       530       733      2655      3034      3035
 -1      1329    8    0    1
 -2       584       620       727      2692      3036      3000
 -1      1330    8    0    1
 -2       606       592       495      2659      3037      3038
 -1      1331    8    0    1
 -2       627       574       734      2709      3039      3040
 -1      1332    8    0    1
 -2       574       611       734      2638      3041      3039
 -1      1333    8    0    1
 -2       473       588       735      2577      3042      3043
 -1      1334    8    0    1
 -2       723       473       735      2990      3043      3044
 -1      1335    8    0    1
 -2       588       728       735      3006      3045      3042
 -1      1336    8    0    1
 -2       597       710       712      2957      3046      2961
 -1      1337    8    0    1
 -2       480       619       618      3007      3047      2685
 -1      1338    8    0    1
 -2       496       495       713      2304      3048      3049
 -1      1339    8    0    1
 -2       495       592       713      3037      2964      3048
 -1      1340    8    0    1
 -2       593       614       736      2665      3050      3051
 -1      1341    8    0    1
 -2       593       736       716      3051      3052      2972
 -1      1342    8    0    1
 -2       600       718       737      2977      3053      3054
 -1      1343    8    0    1
 -2       600       737       721      3054      3055      2984
 -1      1344    8    0    1
 -2       496       713       629      3049      3056      2714
 -1      1345    8    0    1
 -2       591       716       726      2973      3057      2998
 -1      1346    8    0    1
 -2       617       618       738      2687      3058      3059
 -1      1347    8    0    1
 -2       619       610       613      2690      2654      3060
 -1      1348    8    0    1
 -2       620       726       739      3008      3061      3062
 -1      1349    8    0    1
 -2       722       626       714      3010      3063      2988
 -1      1350    8    0    1
 -2       624       623       740      2702      3064      3065
 -1      1351    8    0    1
 -2       625       624       741      2705      3066      3067
 -1      1352    8    0    1
 -2       624       740       741      3065      3068      3066
 -1      1353    8    0    1
 -2       626       625       742      2708      3069      3070
 -1      1354    8    0    1
 -2       714       626       742      3063      3070      3071
 -1      1355    8    0    1
 -2       625       741       742      3067      3072      3069
 -1      1356    8    0    1
 -2       665       666       743      2825      3073      3074
 -1      1357    8    0    1
 -2       628       627       744      2713      3075      3076
 -1      1358    8    0    1
 -2       495       494       606      2642      2989      3038
 -1      1359    8    0    1
 -2       730       583       609      3016      2965      3077
 -1      1360    8    0    1
 -2       614       725       745      3018      3078      3079
 -1      1361    8    0    1
 -2       726       716       746      3057      3080      3081
 -1      1362    8    0    1
 -2       631       630       747      2721      3082      3083
 -1      1363    8    0    1
 -2       632       631       748      2724      3084      3085
 -1      1364    8    0    1
 -2       631       747       748      3083      3086      3084
 -1      1365    8    0    1
 -2       633       632       749      2727      3087      3088
 -1      1366    8    0    1
 -2       632       748       749      3085      3089      3087
 -1      1367    8    0    1
 -2       634       633       750      2730      3090      3091
 -1      1368    8    0    1
 -2       633       749       750      3088      3092      3090
 -1      1369    8    0    1
 -2       635       634       751      2733      3093      3094
 -1      1370    8    0    1
 -2       634       750       751      3091      3095      3093
 -1      1371    8    0    1
 -2       636       635       752      2736      3096      3097
 -1      1372    8    0    1
 -2       635       751       752      3094      3098      3096
 -1      1373    8    0    1
 -2       637       636       753      2739      3099      3100
 -1      1374    8    0    1
 -2       636       752       753      3097      3101      3099
 -1      1375    8    0    1
 -2       638       637       754      2742      3102      3103
 -1      1376    8    0    1
 -2       637       753       754      3100      3104      3102
 -1      1377    8    0    1
 -2       639       638       755      2745      3105      3106
 -1      1378    8    0    1
 -2       638       754       755      3103      3107      3105
 -1      1379    8    0    1
 -2       640       639       756      2748      3108      3109
 -1      1380    8    0    1
 -2       639       755       756      3106      3110      3108
 -1      1381    8    0    1
 -2       641       640       757      2751      3111      3112
 -1      1382    8    0    1
 -2       640       756       757      3109      3113      3111
 -1      1383    8    0    1
 -2       642       641       758      2754      3114      3115
 -1      1384    8    0    1
 -2       641       757       758      3112      3116      3114
 -1      1385    8    0    1
 -2       643       642       759      2757      3117      3118
 -1      1386    8    0    1
 -2       642       758       759      3115      3119      3117
 -1      1387    8    0    1
 -2       644       643       760      2760      3120      3121
 -1      1388    8    0    1
 -2       643       759       760      3118      3122      3120
 -1      1389    8    0    1
 -2       645       644       761      2763      3123      3124
 -1      1390    8    0    1
 -2       644       760       761      3121      3125      3123
 -1      1391    8    0    1
 -2       646       645       762      2766      3126      3127
 -1      1392    8    0    1
 -2       645       761       762      3124      3128      3126
 -1      1393    8    0    1
 -2       647       646       763      2769      3129      3130
 -1      1394    8    0    1
 -2       646       762       763      3127      3131      3129
 -1      1395    8    0    1
 -2       648       647       764      2772      3132      3133
 -1      1396    8    0    1
 -2       647       763       764      3130      3134      3132
 -1      1397    8    0    1
 -2       649       648       765      2775      3135      3136
 -1      1398    8    0    1
 -2       648       764       765      3133      3137      3135
 -1      1399    8    0    1
 -2       650       649       766      2778      3138      3139
 -1      1400    8    0    1
 -2       649       765       766      3136      3140      3138
 -1      1401    8    0    1
 -2       651       650       767      2781      3141      3142
 -1      1402    8    0    1
 -2       650       766       767      3139      3143      3141
 -1      1403    8    0    1
 -2       652       651       768      2784      3144      3145
 -1      1404    8    0    1
 -2       651       767       768      3142      3146      3144
 -1      1405    8    0    1
 -2       653       652       769      2787      3147      3148
 -1      1406    8    0    1
 -2       652       768       769      3145      3149      3147
 -1      1407    8    0    1
 -2       654       653       770      2790      3150      3151
 -1      1408    8    0    1
 -2       653       769       770      3148      3152      3150
 -1      1409    8    0    1
 -2       655       654       771      2793      3153      3154
 -1      1410    8    0    1
 -2       654       770       771      3151      3155      3153
 -1      1411    8    0    1
 -2       656       655       772      2796      3156      3157
 -1      1412    8    0    1
 -2       655       771       772      3154      3158      3156
 -1      1413    8    0    1
 -2       657       656       773      2799      3159      3160
 -1      1414    8    0    1
 -2       656       772       773      3157      3161      3159
 -1      1415    8    0    1
 -2       658       657       774      2802      3162      3163
 -1      1416    8    0    1
 -2       657       773       774      3160      3164      3162
 -1      1417    8    0    1
 -2       660       661       775      2811      3165      3166
 -1      1418    8    0    1
 -2       662       660       776      2814      3167      3168
 -1      1419    8    0    1
 -2       660       775       776      3166      3169      3167
 -1      1420    8    0    1
 -2       664       665       777      2822      3170      3171
 -1      1421    8    0    1
 -2       665       743       777      3074      3172      3170
 -1      1422    8    0    1
 -2       663       664       778      2819      3173      3174
 -1      1423    8    0    1
 -2       664       777       778      3171      3175      3173
 -1      1424    8    0    1
 -2       666       667       779      2828      3176      3177
 -1      1425    8    0    1
 -2       666       779       743      3177      3178      3073
 -1      1426    8    0    1
 -2       667       668       780      2831      3179      3180
 -1      1427    8    0    1
 -2       667       780       779      3180      3181      3176
 -1      1428    8    0    1
 -2       668       669       781      2834      3182      3183
 -1      1429    8    0    1
 -2       668       781       780      3183      3184      3179
 -1      1430    8    0    1
 -2       669       670       782      2837      3185      3186
 -1      1431    8    0    1
 -2       669       782       781      3186      3187      3182
 -1      1432    8    0    1
 -2       670       671       783      2840      3188      3189
 -1      1433    8    0    1
 -2       670       783       782      3189      3190      3185
 -1      1434    8    0    1
 -2       671       672       784      2843      3191      3192
 -1      1435    8    0    1
 -2       671       784       783      3192      3193      3188
 -1      1436    8    0    1
 -2       672       673       785      2846      3194      3195
 -1      1437    8    0    1
 -2       672       785       784      3195      3196      3191
 -1      1438    8    0    1
 -2       673       674       786      2849      3197      3198
 -1      1439    8    0    1
 -2       673       786       785      3198      3199      3194
 -1      1440    8    0    1
 -2       674       675       787      2852      3200      3201
 -1      1441    8    0    1
 -2       674       787       786      3201      3202      3197
 -1      1442    8    0    1
 -2       675       676       788      2855      3203      3204
 -1      1443    8    0    1
 -2       675       788       787      3204      3205      3200
 -1      1444    8    0    1
 -2       676       677       789      2858      3206      3207
 -1      1445    8    0    1
 -2       676       789       788      3207      3208      3203
 -1      1446    8    0    1
 -2       677       678       790      2861      3209      3210
 -1      1447    8    0    1
 -2       677       790       789      3210      3211      3206
 -1      1448    8    0    1
 -2       678       679       791      2864      3212      3213
 -1      1449    8    0    1
 -2       678       791       790      3213      3214      3209
 -1      1450    8    0    1
 -2       679       680       792      2867      3215      3216
 -1      1451    8    0    1
 -2       679       792       791      3216      3217      3212
 -1      1452    8    0    1
 -2       680       681       793      2870      3218      3219
 -1      1453    8    0    1
 -2       680       793       792      3219      3220      3215
 -1      1454    8    0    1
 -2       681       682       794      2873      3221      3222
 -1      1455    8    0    1
 -2       681       794       793      3222      3223      3218
 -1      1456    8    0    1
 -2       682       683       795      2876      3224      3225
 -1      1457    8    0    1
 -2       682       795       794      3225      3226      3221
 -1      1458    8    0    1
 -2       683       684       796      2879      3227      3228
 -1      1459    8    0    1
 -2       683       796       795      3228      3229      3224
 -1      1460    8    0    1
 -2       684       685       797      2882      3230      3231
 -1      1461    8    0    1
 -2       684       797       796      3231      3232      3227
 -1      1462    8    0    1
 -2       685       686       798      2885      3233      3234
 -1      1463    8    0    1
 -2       685       798       797      3234      3235      3230
 -1      1464    8    0    1
 -2       686       687       799      2888      3236      3237
 -1      1465    8    0    1
 -2       686       799       798      3237      3238      3233
 -1      1466    8    0    1
 -2       687       688       800      2891      3239      3240
 -1      1467    8    0    1
 -2       687       800       799      3240      3241      3236
 -1      1468    8    0    1
 -2       688       689       801      2894      3242      3243
 -1      1469    8    0    1
 -2       688       801       800      3243      3244      3239
 -1      1470    8    0    1
 -2       689       690       802      2897      3245      3246
 -1      1471    8    0    1
 -2       689       802       801      3246      3247      3242
 -1      1472    8    0    1
 -2       690       691       803      2900      3248      3249
 -1      1473    8    0    1
 -2       690       803       802      3249      3250      3245
 -1      1474    8    0    1
 -2       691       692       804      2903      3251      3252
 -1      1475    8    0    1
 -2       691       804       803      3252      3253      3248
 -1      1476    8    0    1
 -2       692       693       805      2906      3254      3255
 -1      1477    8    0    1
 -2       692       805       804      3255      3256      3251
 -1      1478    8    0    1
 -2       693       694       806      2909      3257      3258
 -1      1479    8    0    1
 -2       693       806       805      3258      3259      3254
 -1      1480    8    0    1
 -2       694       695       807      2912      3260      3261
 -1      1481    8    0    1
 -2       694       807       806      3261      3262      3257
 -1      1482    8    0    1
 -2       695       696       808      2915      3263      3264
 -1      1483    8    0    1
 -2       695       808       807      3264      3265      3260
 -1      1484    8    0    1
 -2       696       697       809      2918      3266      3267
 -1      1485    8    0    1
 -2       696       809       808      3267      3268      3263
 -1      1486    8    0    1
 -2       697       698       810      2921      3269      3270
 -1      1487    8    0    1
 -2       697       810       809      3270      3271      3266
 -1      1488    8    0    1
 -2       698       699       811      2924      3272      3273
 -1      1489    8    0    1
 -2       698       811       810      3273      3274      3269
 -1      1490    8    0    1
 -2       699       700       812      2927      3275      3276
 -1      1491    8    0    1
 -2       811       699       812      3272      3276      3277
 -1      1492    8    0    1
 -2       700       703       812      2935      3278      3275
 -1      1493    8    0    1
 -2       706       707       813      2949      3279      3280
 -1      1494    8    0    1
 -2       718       714       742      2978      3071      3281
 -1      1495    8    0    1
 -2       707       708       814      2952      3282      3283
 -1      1496    8    0    1
 -2       707       814       813      3283      3284      3279
 -1      1497    8    0    1
 -2       705       706       815      2946      3285      3286
 -1      1498    8    0    1
 -2       706       813       815      3280      3287      3285
 -1      1499    8    0    1
 -2       613       733       619      3035      3288      3060
 -1      1500    8    0    1
 -2       622       730       816      3032      3289      3290
 -1      1501    8    0    1
 -2       713       709       629      3026      3291      3056
 -1      1502    8    0    1
 -2       725       717       817      3019      3292      3293
 -1      1503    8    0    1
 -2       709       612       818      3027      3294      3295
 -1      1504    8    0    1
 -2       709       818       629      3295      3296      3291
 -1      1505    8    0    1
 -2       618       619       733      3047      3288      3297
 -1      1506    8    0    1
 -2       712       710       819      3046      3298      3299
 -1      1507    8    0    1
 -2       623       622       820      2699      3300      3301
 -1      1508    8    0    1
 -2       740       623       820      3064      3301      3302
 -1      1509    8    0    1
 -2       622       816       820      3290      3303      3300
 -1      1510    8    0    1
 -2       727       620       821      3036      3304      3305
 -1      1511    8    0    1
 -2       719       712       822      3024      3306      3307
 -1      1512    8    0    1
 -2       702       711       823      3012      3308      3309
 -1      1513    8    0    1
 -2       720       721       824      3025      3310      3311
 -1      1514    8    0    1
 -2       710       720       825      2983      3312      3313
 -1      1515    8    0    1
 -2       711       705       826      2960      3314      3315
 -1      1516    8    0    1
 -2       823       711       826      3308      3315      3316
 -1      1517    8    0    1
 -2       705       815       826      3286      3317      3314
 -1      1518    8    0    1
 -2       616       615       827      2682      3318      3319
 -1      1519    8    0    1
 -2       717       719       828      3023      3320      3321
 -1      1520    8    0    1
 -2       611       621       829      3009      3322      3323
 -1      1521    8    0    1
 -2       621       727       830      3002      3324      3325
 -1      1522    8    0    1
 -2       618       733       738      3297      3326      3058
 -1      1523    8    0    1
 -2       727       821       830      3305      3327      3324
 -1      1524    8    0    1
 -2       739       726       746      3061      3081      3328
 -1      1525    8    0    1
 -2       821       620       739      3304      3062      3329
 -1      1526    8    0    1
 -2       630       629       818      2718      3296      3330
 -1      1527    8    0    1
 -2       663       778       831      3174      3331      3332
 -1      1528    8    0    1
 -2       663       831       724      3332      3333      2995
 -1      1529    8    0    1
 -2       744       627       832      3075      3334      3335
 -1      1530    8    0    1
 -2       627       734       832      3040      3336      3334
 -1      1531    8    0    1
 -2       628       744       833      3076      3337      3338
 -1      1532    8    0    1
 -2       628       833       729      3338      3339      3013
 -1      1533    8    0    1
 -2       747       630       818      3082      3330      3340
 -1      1534    8    0    1
 -2       745       725       834      3078      3341      3342
 -1      1535    8    0    1
 -2       725       817       834      3293      3343      3341
 -1      1536    8    0    1
 -2       775       661       835      3165      3344      3345
 -1      1537    8    0    1
 -2       661       724       835      2994      3346      3344
 -1      1538    8    0    1
 -2       659       658       732      2806      3347      3031
 -1      1539    8    0    1
 -2       731       723       836      3022      3348      3349
 -1      1540    8    0    1
 -2       616       827       837      3319      3350      3351
 -1      1541    8    0    1
 -2       616       837       728      3351      3352      3004
 -1      1542    8    0    1
 -2       827       615       838      3318      3353      3354
 -1      1543    8    0    1
 -2       615       715       838      2970      3355      3353
 -1      1544    8    0    1
 -2       718       742       839      3281      3356      3357
 -1      1545    8    0    1
 -2       737       718       839      3053      3357      3358
 -1      1546    8    0    1
 -2       742       741       839      3072      3359      3356
 -1      1547    8    0    1
 -2       814       708       774      3282      3360      3361
 -1      1548    8    0    1
 -2       612       729       818      3015      3362      3294
 -1      1549    8    0    1
 -2       712       819       822      3299      3363      3306
 -1      1550    8    0    1
 -2       704       702       840      2941      3364      3365
 -1      1551    8    0    1
 -2       702       823       840      3309      3366      3364
 -1      1552    8    0    1
 -2       733       662       841      3033      3367      3368
 -1      1553    8    0    1
 -2       734       611       829      3041      3323      3369
 -1      1554    8    0    1
 -2       824       721       842      3310      3370      3371
 -1      1555    8    0    1
 -2       721       737       842      3055      3372      3370
 -1      1556    8    0    1
 -2       817       717       828      3292      3321      3373
 -1      1557    8    0    1
 -2       715       617       843      2971      3374      3375
 -1      1558    8    0    1
 -2       838       715       843      3355      3375      3376
 -1      1559    8    0    1
 -2       617       738       843      3059      3377      3374
 -1      1560    8    0    1
 -2       716       736       844      3052      3378      3379
 -1      1561    8    0    1
 -2       716       844       746      3379      3380      3080
 -1      1562    8    0    1
 -2       819       710       825      3298      3313      3381
 -1      1563    8    0    1
 -2       825       720       824      3312      3311      3382
 -1      1564    8    0    1
 -2       723       735       845      3044      3383      3384
 -1      1565    8    0    1
 -2       723       845       836      3384      3385      3348
 -1      1566    8    0    1
 -2       730       609       816      3077      3386      3289
 -1      1567    8    0    1
 -2       719       822       828      3307      3387      3320
 -1      1568    8    0    1
 -2       708       732       774      3030      3388      3360
 -1      1569    8    0    1
 -2       736       614       745      3050      3079      3389
 -1      1570    8    0    1
 -2       733       841       738      3368      3390      3326
 -1      1571    8    0    1
 -2       609       731       816      3021      3391      3386
 -1      1572    8    0    1
 -2       701       704       846      2940      3392      3393
 -1      1573    8    0    1
 -2       704       840       846      3365      3394      3392
 -1      1574    8    0    1
 -2       829       621       830      3322      3325      3395
 -1      1575    8    0    1
 -2       732       658       774      3347      3163      3388
 -1      1576    8    0    1
 -2       703       701       812      2936      3396      3278
 -1      1577    8    0    1
 -2       701       846       812      3393      3397      3396
 -1      1578    8    0    1
 -2       841       662       776      3367      3168      3398
 -1      1579    8    0    1
 -2       779       780       847      3181      3399      3400
 -1      1580    8    0    1
 -2       814       774       848      3361      3401      3402
 -1      1581    8    0    1
 -2       774       773       848      3164      3403      3401
 -1      1582    8    0    1
 -2       748       747       849      3086      3404      3405
 -1      1583    8    0    1
 -2       747       818       850      3340      3406      3407
 -1      1584    8    0    1
 -2       849       747       850      3404      3407      3408
 -1      1585    8    0    1
 -2       818       729       850      3362      3409      3406
 -1      1586    8    0    1
 -2       821       739       851      3329      3410      3411
 -1      1587    8    0    1
 -2       749       748       852      3089      3412      3413
 -1      1588    8    0    1
 -2       748       849       852      3405      3414      3412
 -1      1589    8    0    1
 -2       750       749       853      3092      3415      3416
 -1      1590    8    0    1
 -2       749       852       853      3413      3417      3415
 -1      1591    8    0    1
 -2       751       750       854      3095      3418      3419
 -1      1592    8    0    1
 -2       750       853       854      3416      3420      3418
 -1      1593    8    0    1
 -2       752       751       855      3098      3421      3422
 -1      1594    8    0    1
 -2       751       854       855      3419      3423      3421
 -1      1595    8    0    1
 -2       753       752       856      3101      3424      3425
 -1      1596    8    0    1
 -2       752       855       856      3422      3426      3424
 -1      1597    8    0    1
 -2       754       753       857      3104      3427      3428
 -1      1598    8    0    1
 -2       753       856       857      3425      3429      3427
 -1      1599    8    0    1
 -2       755       754       858      3107      3430      3431
 -1      1600    8    0    1
 -2       754       857       858      3428      3432      3430
 -1      1601    8    0    1
 -2       756       755       859      3110      3433      3434
 -1      1602    8    0    1
 -2       755       858       859      3431      3435      3433
 -1      1603    8    0    1
 -2       757       756       860      3113      3436      3437
 -1      1604    8    0    1
 -2       756       859       860      3434      3438      3436
 -1      1605    8    0    1
 -2       758       757       861      3116      3439      3440
 -1      1606    8    0    1
 -2       757       860       861      3437      3441      3439
 -1      1607    8    0    1
 -2       759       758       862      3119      3442      3443
 -1      1608    8    0    1
 -2       758       861       862      3440      3444      3442
 -1      1609    8    0    1
 -2       760       759       863      3122      3445      3446
 -1      1610    8    0    1
 -2       759       862       863      3443      3447      3445
 -1      1611    8    0    1
 -2       761       760       864      3125      3448      3449
 -1      1612    8    0    1
 -2       760       863       864      3446      3450      3448
 -1      1613    8    0    1
 -2       762       761       865      3128      3451      3452
 -1      1614    8    0    1
 -2       761       864       865      3449      3453      3451
 -1      1615    8    0    1
 -2       763       762       866      3131      3454      3455
 -1      1616    8    0    1
 -2       762       865       866      3452      3456      3454
 -1      1617    8    0    1
 -2       764       763       867      3134      3457      3458
 -1      1618    8    0    1
 -2       763       866       867      3455      3459      3457
 -1      1619    8    0    1
 -2       765       764       868      3137      3460      3461
 -1      1620    8    0    1
 -2       764       867       868      3458      3462      3460
 -1      1621    8    0    1
 -2       766       765       869      3140      3463      3464
 -1      1622    8    0    1
 -2       765       868       869      3461      3465      3463
 -1      1623    8    0    1
 -2       767       766       870      3143      3466      3467
 -1      1624    8    0    1
 -2       766       869       870      3464      3468      3466
 -1      1625    8    0    1
 -2       768       767       871      3146      3469      3470
 -1      1626    8    0    1
 -2       767       870       871      3467      3471      3469
 -1      1627    8    0    1
 -2       769       768       872      3149      3472      3473
 -1      1628    8    0    1
 -2       768       871       872      3470      3474      3472
 -1      1629    8    0    1
 -2       770       769       873      3152      3475      3476
 -1      1630    8    0    1
 -2       769       872       873      3473      3477      3475
 -1      1631    8    0    1
 -2       771       770       874      3155      3478      3479
 -1      1632    8    0    1
 -2       770       873       874      3476      3480      3478
 -1      1633    8    0    1
 -2       772       771       875      3158      3481      3482
 -1      1634    8    0    1
 -2       771       874       875      3479      3483      3481
 -1      1635    8    0    1
 -2       773       772       876      3161      3484      3485
 -1      1636    8    0    1
 -2       848       773       876      3403      3485      3486
 -1      1637    8    0    1
 -2       772       875       876      3482      3487      3484
 -1      1638    8    0    1
 -2       777       743       877      3172      3488      3489
 -1      1639    8    0    1
 -2       778       777       834      3175      3490      3491
 -1      1640    8    0    1
 -2       780       781       878      3184      3492      3493
 -1      1641    8    0    1
 -2       780       878       847      3493      3494      3399
 -1      1642    8    0    1
 -2       781       782       879      3187      3495      3496
 -1      1643    8    0    1
 -2       781       879       878      3496      3497      3492
 -1      1644    8    0    1
 -2       782       783       880      3190      3498      3499
 -1      1645    8    0    1
 -2       782       880       879      3499      3500      3495
 -1      1646    8    0    1
 -2       783       784       881      3193      3501      3502
 -1      1647    8    0    1
 -2       783       881       880      3502      3503      3498
 -1      1648    8    0    1
 -2       784       785       882      3196      3504      3505
 -1      1649    8    0    1
 -2       784       882       881      3505      3506      3501
 -1      1650    8    0    1
 -2       785       786       883      3199      3507      3508
 -1      1651    8    0    1
 -2       785       883       882      3508      3509      3504
 -1      1652    8    0    1
 -2       786       787       884      3202      3510      3511
 -1      1653    8    0    1
 -2       786       884       883      3511      3512      3507
 -1      1654    8    0    1
 -2       787       788       885      3205      3513      3514
 -1      1655    8    0    1
 -2       787       885       884      3514      3515      3510
 -1      1656    8    0    1
 -2       788       789       886      3208      3516      3517
 -1      1657    8    0    1
 -2       788       886       885      3517      3518      3513
 -1      1658    8    0    1
 -2       789       790       887      3211      3519      3520
 -1      1659    8    0    1
 -2       789       887       886      3520      3521      3516
 -1      1660    8    0    1
 -2       790       791       888      3214      3522      3523
 -1      1661    8    0    1
 -2       790       888       887      3523      3524      3519
 -1      1662    8    0    1
 -2       791       792       889      3217      3525      3526
 -1      1663    8    0    1
 -2       791       889       888      3526      3527      3522
 -1      1664    8    0    1
 -2       792       793       890      3220      3528      3529
 -1      1665    8    0    1
 -2       792       890       889      3529      3530      3525
 -1      1666    8    0    1
 -2       793       794       891      3223      3531      3532
 -1      1667    8    0    1
 -2       793       891       890      3532      3533      3528
 -1      1668    8    0    1
 -2       794       795       892      3226      3534      3535
 -1      1669    8    0    1
 -2       794       892       891      3535      3536      3531
 -1      1670    8    0    1
 -2       795       796       893      3229      3537      3538
 -1      1671    8    0    1
 -2       795       893       892      3538      3539      3534
 -1      1672    8    0    1
 -2       796       797       894      3232      3540      3541
 -1      1673    8    0    1
 -2       796       894       893      3541      3542      3537
 -1      1674    8    0    1
 -2       797       798       895      3235      3543      3544
 -1      1675    8    0    1
 -2       797       895       894      3544      3545      3540
 -1      1676    8    0    1
 -2       798       799       896      3238      3546      3547
 -1      1677    8    0    1
 -2       798       896       895      3547      3548      3543
 -1      1678    8    0    1
 -2       799       800       897      3241      3549      3550
 -1      1679    8    0    1
 -2       799       897       896      3550      3551      3546
 -1      1680    8    0    1
 -2       800       801       898      3244      3552      3553
 -1      1681    8    0    1
 -2       800       898       897      3553      3554      3549
 -1      1682    8    0    1
 -2       801       802       899      3247      3555      3556
 -1      1683    8    0    1
 -2       801       899       898      3556      3557      3552
 -1      1684    8    0    1
 -2       802       803       900      3250      3558      3559
 -1      1685    8    0    1
 -2       802       900       899      3559      3560      3555
 -1      1686    8    0    1
 -2       803       804       901      3253      3561      3562
 -1      1687    8    0    1
 -2       803       901       900      3562      3563      3558
 -1      1688    8    0    1
 -2       804       805       902      3256      3564      3565
 -1      1689    8    0    1
 -2       804       902       901      3565      3566      3561
 -1      1690    8    0    1
 -2       805       806       903      3259      3567      3568
 -1      1691    8    0    1
 -2       805       903       902      3568      3569      3564
 -1      1692    8    0    1
 -2       806       807       904      3262      3570      3571
 -1      1693    8    0    1
 -2       806       904       903      3571      3572      3567
 -1      1694    8    0    1
 -2       807       808       905      3265      3573      3574
 -1      1695    8    0    1
 -2       807       905       904      3574      3575      3570
 -1      1696    8    0    1
 -2       808       809       906      3268      3576      3577
 -1      1697    8    0    1
 -2       808       906       905      3577      3578      3573
 -1      1698    8    0    1
 -2       809       810       907      3271      3579      3580
 -1      1699    8    0    1
 -2       809       907       906      3580      3581      3576
 -1      1700    8    0    1
 -2       810       811       908      3274      3582      3583
 -1      1701    8    0    1
 -2       810       908       907      3583      3584      3579
 -1      1702    8    0    1
 -2       811       812       846      3277      3397      3585
 -1      1703    8    0    1
 -2       815       813       909      3287      3586      3587
 -1      1704    8    0    1
 -2       822       819       910      3363      3588      3589
 -1      1705    8    0    1
 -2       734       829       911      3369      3590      3591
 -1      1706    8    0    1
 -2       828       822       912      3387      3592      3593
 -1      1707    8    0    1
 -2       735       728       913      3045      3594      3595
 -1      1708    8    0    1
 -2       735       913       845      3595      3596      3383
 -1      1709    8    0    1
 -2       739       746       878      3328      3597      3598
 -1      1710    8    0    1
 -2       829       830       914      3395      3599      3600
 -1      1711    8    0    1
 -2       738       841       915      3390      3601      3602
 -1      1712    8    0    1
 -2       738       915       843      3602      3603      3377
 -1      1713    8    0    1
 -2       819       825       916      3381      3604      3605
 -1      1714    8    0    1
 -2       736       745       917      3389      3606      3607
 -1      1715    8    0    1
 -2       776       775       918      3169      3608      3609
 -1      1716    8    0    1
 -2       825       824       919      3382      3610      3611
 -1      1717    8    0    1
 -2       825       919       916      3611      3612      3604
 -1      1718    8    0    1
 -2       841       776       920      3398      3613      3614
 -1      1719    8    0    1
 -2       915       841       920      3601      3614      3615
 -1      1720    8    0    1
 -2       776       918       920      3609      3616      3613
 -1      1721    8    0    1
 -2       813       814       848      3284      3402      3617
 -1      1722    8    0    1
 -2       741       740       921      3068      3618      3619
 -1      1723    8    0    1
 -2       817       828       922      3373      3620      3621
 -1      1724    8    0    1
 -2       830       821       923      3327      3622      3623
 -1      1725    8    0    1
 -2       816       731       924      3391      3624      3625
 -1      1726    8    0    1
 -2       820       816       924      3303      3625      3626
 -1      1727    8    0    1
 -2       731       836       924      3349      3627      3624
 -1      1728    8    0    1
 -2       811       846       908      3585      3628      3582
 -1      1729    8    0    1
 -2       741       921       839      3619      3629      3359
 -1      1730    8    0    1
 -2       832       734       911      3336      3591      3630
 -1      1731    8    0    1
 -2       851       739       878      3410      3598      3631
 -1      1732    8    0    1
 -2       833       744       925      3337      3632      3633
 -1      1733    8    0    1
 -2       834       817       922      3343      3621      3634
 -1      1734    8    0    1
 -2       835       724       831      3346      3333      3635
 -1      1735    8    0    1
 -2       743       779       926      3178      3636      3637
 -1      1736    8    0    1
 -2       837       827       927      3350      3638      3639
 -1      1737    8    0    1
 -2       728       837       913      3352      3640      3594
 -1      1738    8    0    1
 -2       779       847       926      3400      3641      3636
 -1      1739    8    0    1
 -2       778       834       922      3491      3634      3642
 -1      1740    8    0    1
 -2       910       819       916      3588      3605      3643
 -1      1741    8    0    1
 -2       909       813       848      3586      3617      3644
 -1      1742    8    0    1
 -2       844       736       917      3378      3607      3645
 -1      1743    8    0    1
 -2       815       909       928      3587      3646      3647
 -1      1744    8    0    1
 -2       815       928       826      3647      3648      3317
 -1      1745    8    0    1
 -2       821       851       923      3411      3649      3622
 -1      1746    8    0    1
 -2       840       823       929      3366      3650      3651
 -1      1747    8    0    1
 -2       822       910       912      3589      3652      3592
 -1      1748    8    0    1
 -2       908       846       930      3628      3653      3654
 -1      1749    8    0    1
 -2       846       840       930      3394      3655      3653
 -1      1750    8    0    1
 -2       828       912       922      3593      3656      3620
 -1      1751    8    0    1
 -2       842       737       839      3372      3358      3657
 -1      1752    8    0    1
 -2       827       838       931      3354      3658      3659
 -1      1753    8    0    1
 -2       827       931       927      3659      3660      3638
 -1      1754    8    0    1
 -2       745       834       877      3342      3661      3662
 -1      1755    8    0    1
 -2       729       833       850      3339      3663      3409
 -1      1756    8    0    1
 -2       829       914       911      3600      3664      3590
 -1      1757    8    0    1
 -2       740       820       932      3302      3665      3666
 -1      1758    8    0    1
 -2       921       740       932      3618      3666      3667
 -1      1759    8    0    1
 -2       820       924       932      3626      3668      3665
 -1      1760    8    0    1
 -2       924       836       933      3627      3669      3670
 -1      1761    8    0    1
 -2       924       933       932      3670      3671      3668
 -1      1762    8    0    1
 -2       919       824       934      3610      3672      3673
 -1      1763    8    0    1
 -2       824       842       934      3371      3674      3672
 -1      1764    8    0    1
 -2       918       775       935      3608      3675      3676
 -1      1765    8    0    1
 -2       775       835       935      3345      3677      3675
 -1      1766    8    0    1
 -2       917       745       877      3606      3662      3678
 -1      1767    8    0    1
 -2       836       845       933      3385      3679      3669
 -1      1768    8    0    1
 -2       823       826       936      3316      3680      3681
 -1      1769    8    0    1
 -2       929       823       936      3650      3681      3682
 -1      1770    8    0    1
 -2       826       928       936      3648      3683      3680
 -1      1771    8    0    1
 -2       914       830       937      3599      3684      3685
 -1      1772    8    0    1
 -2       830       923       937      3623      3686      3684
 -1      1773    8    0    1
 -2       744       832       925      3335      3687      3632
 -1      1774    8    0    1
 -2       831       778       922      3331      3642      3688
 -1      1775    8    0    1
 -2       831       922       938      3688      3689      3690
 -1      1776    8    0    1
 -2       835       831       938      3635      3690      3691
 -1      1777    8    0    1
 -2       922       912       938      3656      3692      3689
 -1      1778    8    0    1
 -2       910       916       939      3643      3693      3694
 -1      1779    8    0    1
 -2       849       850       940      3408      3695      3696
 -1      1780    8    0    1
 -2       850       833       940      3663      3697      3695
 -1      1781    8    0    1
 -2       933       845       941      3679      3698      3699
 -1      1782    8    0    1
 -2       852       849       942      3414      3700      3701
 -1      1783    8    0    1
 -2       849       940       942      3696      3702      3700
 -1      1784    8    0    1
 -2       837       927       943      3639      3703      3704
 -1      1785    8    0    1
 -2       837       943       913      3704      3705      3640
 -1      1786    8    0    1
 -2       853       852       944      3417      3706      3707
 -1      1787    8    0    1
 -2       852       942       944      3701      3708      3706
 -1      1788    8    0    1
 -2       854       853       945      3420      3709      3710
 -1      1789    8    0    1
 -2       853       944       945      3707      3711      3709
 -1      1790    8    0    1
 -2       855       854       946      3423      3712      3713
 -1      1791    8    0    1
 -2       854       945       946      3710      3714      3712
 -1      1792    8    0    1
 -2       856       855       947      3426      3715      3716
 -1      1793    8    0    1
 -2       855       946       947      3713      3717      3715
 -1      1794    8    0    1
 -2       857       856       948      3429      3718      3719
 -1      1795    8    0    1
 -2       856       947       948      3716      3720      3718
 -1      1796    8    0    1
 -2       858       857       949      3432      3721      3722
 -1      1797    8    0    1
 -2       857       948       949      3719      3723      3721
 -1      1798    8    0    1
 -2       859       858       950      3435      3724      3725
 -1      1799    8    0    1
 -2       858       949       950      3722      3726      3724
 -1      1800    8    0    1
 -2       860       859       951      3438      3727      3728
 -1      1801    8    0    1
 -2       859       950       951      3725      3729      3727
 -1      1802    8    0    1
 -2       861       860       952      3441      3730      3731
 -1      1803    8    0    1
 -2       860       951       952      3728      3732      3730
 -1      1804    8    0    1
 -2       862       861       953      3444      3733      3734
 -1      1805    8    0    1
 -2       861       952       953      3731      3735      3733
 -1      1806    8    0    1
 -2       863       862       954      3447      3736      3737
 -1      1807    8    0    1
 -2       862       953       954      3734      3738      3736
 -1      1808    8    0    1
 -2       864       863       955      3450      3739      3740
 -1      1809    8    0    1
 -2       863       954       955      3737      3741      3739
 -1      1810    8    0    1
 -2       865       864       956      3453      3742      3743
 -1      1811    8    0    1
 -2       864       955       956      3740      3744      3742
 -1      1812    8    0    1
 -2       866       865       957      3456      3745      3746
 -1      1813    8    0    1
 -2       865       956       957      3743      3747      3745
 -1      1814    8    0    1
 -2       867       866       958      3459      3748      3749
 -1      1815    8    0    1
 -2       866       957       958      3746      3750      3748
 -1      1816    8    0    1
 -2       868       867       959      3462      3751      3752
 -1      1817    8    0    1
 -2       867       958       959      3749      3753      3751
 -1      1818    8    0    1
 -2       869       868       960      3465      3754      3755
 -1      1819    8    0    1
 -2       868       959       960      3752      3756      3754
 -1      1820    8    0    1
 -2       870       869       961      3468      3757      3758
 -1      1821    8    0    1
 -2       869       960       961      3755      3759      3757
 -1      1822    8    0    1
 -2       871       870       962      3471      3760      3761
 -1      1823    8    0    1
 -2       870       961       962      3758      3762      3760
 -1      1824    8    0    1
 -2       872       871       963      3474      3763      3764
 -1      1825    8    0    1
 -2       871       962       963      3761      3765      3763
 -1      1826    8    0    1
 -2       873       872       964      3477      3766      3767
 -1      1827    8    0    1
 -2       872       963       964      3764      3768      3766
 -1      1828    8    0    1
 -2       874       873       965      3480      3769      3770
 -1      1829    8    0    1
 -2       873       964       965      3767      3771      3769
 -1      1830    8    0    1
 -2       875       874       966      3483      3772      3773
 -1      1831    8    0    1
 -2       874       965       966      3770      3774      3772
 -1      1832    8    0    1
 -2       834       777       877      3490      3489      3661
 -1      1833    8    0    1
 -2       877       743       917      3488      3775      3678
 -1      1834    8    0    1
 -2       880       881       967      3503      3776      3777
 -1      1835    8    0    1
 -2       881       882       968      3506      3778      3779
 -1      1836    8    0    1
 -2       881       968       967      3779      3780      3776
 -1      1837    8    0    1
 -2       882       883       969      3509      3781      3782
 -1      1838    8    0    1
 -2       882       969       968      3782      3783      3778
 -1      1839    8    0    1
 -2       883       884       970      3512      3784      3785
 -1      1840    8    0    1
 -2       883       970       969      3785      3786      3781
 -1      1841    8    0    1
 -2       884       885       971      3515      3787      3788
 -1      1842    8    0    1
 -2       884       971       970      3788      3789      3784
 -1      1843    8    0    1
 -2       885       886       972      3518      3790      3791
 -1      1844    8    0    1
 -2       885       972       971      3791      3792      3787
 -1      1845    8    0    1
 -2       886       887       973      3521      3793      3794
 -1      1846    8    0    1
 -2       886       973       972      3794      3795      3790
 -1      1847    8    0    1
 -2       887       888       974      3524      3796      3797
 -1      1848    8    0    1
 -2       887       974       973      3797      3798      3793
 -1      1849    8    0    1
 -2       888       889       975      3527      3799      3800
 -1      1850    8    0    1
 -2       888       975       974      3800      3801      3796
 -1      1851    8    0    1
 -2       889       890       976      3530      3802      3803
 -1      1852    8    0    1
 -2       889       976       975      3803      3804      3799
 -1      1853    8    0    1
 -2       890       891       977      3533      3805      3806
 -1      1854    8    0    1
 -2       890       977       976      3806      3807      3802
 -1      1855    8    0    1
 -2       891       892       978      3536      3808      3809
 -1      1856    8    0    1
 -2       891       978       977      3809      3810      3805
 -1      1857    8    0    1
 -2       892       893       979      3539      3811      3812
 -1      1858    8    0    1
 -2       892       979       978      3812      3813      3808
 -1      1859    8    0    1
 -2       893       894       980      3542      3814      3815
 -1      1860    8    0    1
 -2       893       980       979      3815      3816      3811
 -1      1861    8    0    1
 -2       894       895       981      3545      3817      3818
 -1      1862    8    0    1
 -2       894       981       980      3818      3819      3814
 -1      1863    8    0    1
 -2       895       896       982      3548      3820      3821
 -1      1864    8    0    1
 -2       895       982       981      3821      3822      3817
 -1      1865    8    0    1
 -2       896       897       983      3551      3823      3824
 -1      1866    8    0    1
 -2       896       983       982      3824      3825      3820
 -1      1867    8    0    1
 -2       897       898       984      3554      3826      3827
 -1      1868    8    0    1
 -2       897       984       983      3827      3828      3823
 -1      1869    8    0    1
 -2       898       899       985      3557      3829      3830
 -1      1870    8    0    1
 -2       898       985       984      3830      3831      3826
 -1      1871    8    0    1
 -2       899       900       986      3560      3832      3833
 -1      1872    8    0    1
 -2       899       986       985      3833      3834      3829
 -1      1873    8    0    1
 -2       900       901       987      3563      3835      3836
 -1      1874    8    0    1
 -2       900       987       986      3836      3837      3832
 -1      1875    8    0    1
 -2       901       902       988      3566      3838      3839
 -1      1876    8    0    1
 -2       901       988       987      3839      3840      3835
 -1      1877    8    0    1
 -2       902       903       989      3569      3841      3842
 -1      1878    8    0    1
 -2       902       989       988      3842      3843      3838
 -1      1879    8    0    1
 -2       903       904       990      3572      3844      3845
 -1      1880    8    0    1
 -2       903       990       989      3845      3846      3841
 -1      1881    8    0    1
 -2       904       905       991      3575      3847      3848
 -1      1882    8    0    1
 -2       904       991       990      3848      3849      3844
 -1      1883    8    0    1
 -2       905       906       992      3578      3850      3851
 -1      1884    8    0    1
 -2       905       992       991      3851      3852      3847
 -1      1885    8    0    1
 -2       906       907       993      3581      3853      3854
 -1      1886    8    0    1
 -2       906       993       992      3854      3855      3850
 -1      1887    8    0    1
 -2       907       908       994      3584      3856      3857
 -1      1888    8    0    1
 -2       993       907       994      3853      3857      3858
 -1      1889    8    0    1
 -2       908       930       994      3654      3859      3856
 -1      1890    8    0    1
 -2       839       921       842      3629      3860      3657
 -1      1891    8    0    1
 -2       832       911       995      3630      3861      3862
 -1      1892    8    0    1
 -2       912       910       996      3652      3863      3864
 -1      1893    8    0    1
 -2       938       912       996      3692      3864      3865
 -1      1894    8    0    1
 -2       910       939       996      3694      3866      3863
 -1      1895    8    0    1
 -2       878       879       851      3497      3867      3631
 -1      1896    8    0    1
 -2       845       913       941      3596      3868      3698
 -1      1897    8    0    1
 -2       909       848       997      3644      3869      3870
 -1      1898    8    0    1
 -2       848       876       997      3486      3871      3869
 -1      1899    8    0    1
 -2       878       746       847      3597      3872      3494
 -1      1900    8    0    1
 -2       923       851       967      3649      3873      3874
 -1      1901    8    0    1
 -2       833       925       940      3633      3875      3697
 -1      1902    8    0    1
 -2       843       915       998      3603      3876      3877
 -1      1903    8    0    1
 -2       838       843       998      3376      3877      3878
 -1      1904    8    0    1
 -2       915       920       998      3615      3879      3876
 -1      1905    8    0    1
 -2       851       879       880      3867      3500      3880
 -1      1906    8    0    1
 -2       916       919       999      3612      3881      3882
 -1      1907    8    0    1
 -2       840       929       930      3651      3883      3655
 -1      1908    8    0    1
 -2       925       832      1000      3687      3884      3885
 -1      1909    8    0    1
 -2       832       995      1000      3862      3886      3884
 -1      1910    8    0    1
 -2       746       844       847      3380      3887      3872
 -1      1911    8    0    1
 -2       911       914      1001      3664      3888      3889
 -1      1912    8    0    1
 -2       851       880       967      3880      3777      3873
 -1      1913    8    0    1
 -2       838       998       931      3878      3890      3658
 -1      1914    8    0    1
 -2       913       943       941      3705      3891      3868
 -1      1915    8    0    1
 -2       909       997      1002      3870      3892      3893
 -1      1916    8    0    1
 -2       909      1002       928      3893      3894      3646
 -1      1917    8    0    1
 -2       943       927      1003      3703      3895      3896
 -1      1918    8    0    1
 -2       835       938       935      3691      3897      3677
 -1      1919    8    0    1
 -2       911      1001       995      3889      3898      3861
 -1      1920    8    0    1
 -2       916       999       939      3882      3899      3693
 -1      1921    8    0    1
 -2       923       967       937      3874      3900      3686
 -1      1922    8    0    1
 -2       940       925      1004      3875      3901      3902
 -1      1923    8    0    1
 -2       942       940      1004      3702      3902      3903
 -1      1924    8    0    1
 -2       925      1000      1004      3885      3904      3901
 -1      1925    8    0    1
 -2       914       937      1005      3685      3905      3906
 -1      1926    8    0    1
 -2       914      1005      1001      3906      3907      3888
 -1      1927    8    0    1
 -2       927       931      1006      3660      3908      3909
 -1      1928    8    0    1
 -2       927      1006      1003      3909      3910      3895
 -1      1929    8    0    1
 -2       847       844       926      3887      3911      3641
 -1      1930    8    0    1
 -2       930       929      1007      3883      3912      3913
 -1      1931    8    0    1
 -2       930      1007       994      3913      3914      3859
 -1      1932    8    0    1
 -2       920       918      1008      3616      3915      3916
 -1      1933    8    0    1
 -2       929       936      1009      3682      3917      3918
 -1      1934    8    0    1
 -2       929      1009      1007      3918      3919      3912
 -1      1935    8    0    1
 -2       918       935      1010      3676      3920      3921
 -1      1936    8    0    1
 -2      1008       918      1010      3915      3921      3922
 -1      1937    8    0    1
 -2       935       938      1010      3897      3923      3920
 -1      1938    8    0    1
 -2       932       933      1011      3671      3924      3925
 -1      1939    8    0    1
 -2       932      1011       921      3925      3926      3667
 -1      1940    8    0    1
 -2       842       921       934      3860      3927      3674
 -1      1941    8    0    1
 -2      1011       933       941      3924      3699      3928
 -1      1942    8    0    1
 -2       926       844       917      3911      3645      3929
 -1      1943    8    0    1
 -2       944       942      1012      3708      3930      3931
 -1      1944    8    0    1
 -2       942      1004      1012      3903      3932      3930
 -1      1945    8    0    1
 -2       945       944      1013      3711      3933      3934
 -1      1946    8    0    1
 -2       944      1012      1013      3931      3935      3933
 -1      1947    8    0    1
 -2       946       945      1014      3714      3936      3937
 -1      1948    8    0    1
 -2       945      1013      1014      3934      3938      3936
 -1      1949    8    0    1
 -2       947       946      1015      3717      3939      3940
 -1      1950    8    0    1
 -2       946      1014      1015      3937      3941      3939
 -1      1951    8    0    1
 -2       948       947      1016      3720      3942      3943
 -1      1952    8    0    1
 -2       947      1015      1016      3940      3944      3942
 -1      1953    8    0    1
 -2       949       948      1017      3723      3945      3946
 -1      1954    8    0    1
 -2       948      1016      1017      3943      3947      3945
 -1      1955    8    0    1
 -2       950       949      1018      3726      3948      3949
 -1      1956    8    0    1
 -2       949      1017      1018      3946      3950      3948
 -1      1957    8    0    1
 -2       951       950      1019      3729      3951      3952
 -1      1958    8    0    1
 -2       950      1018      1019      3949      3953      3951
 -1      1959    8    0    1
 -2       952       951      1020      3732      3954      3955
 -1      1960    8    0    1
 -2       951      1019      1020      3952      3956      3954
 -1      1961    8    0    1
 -2       953       952      1021      3735      3957      3958
 -1      1962    8    0    1
 -2       952      1020      1021      3955      3959      3957
 -1      1963    8    0    1
 -2       954       953      1022      3738      3960      3961
 -1      1964    8    0    1
 -2       953      1021      1022      3958      3962      3960
 -1      1965    8    0    1
 -2       955       954      1023      3741      3963      3964
 -1      1966    8    0    1
 -2       954      1022      1023      3961      3965      3963
 -1      1967    8    0    1
 -2       956       955      1024      3744      3966      3967
 -1      1968    8    0    1
 -2       955      1023      1024      3964      3968      3966
 -1      1969    8    0    1
 -2       957       956      1025      3747      3969      3970
 -1      1970    8    0    1
 -2       956      1024      1025      3967      3971      3969
 -1      1971    8    0    1
 -2       958       957      1026      3750      3972      3973
 -1      1972    8    0    1
 -2       957      1025      1026      3970      3974      3972
 -1      1973    8    0    1
 -2       959       958      1027      3753      3975      3976
 -1      1974    8    0    1
 -2       958      1026      1027      3973      3977      3975
 -1      1975    8    0    1
 -2       960       959      1028      3756      3978      3979
 -1      1976    8    0    1
 -2       959      1027      1028      3976      3980      3978
 -1      1977    8    0    1
 -2       961       960      1029      3759      3981      3982
 -1      1978    8    0    1
 -2       960      1028      1029      3979      3983      3981
 -1      1979    8    0    1
 -2       962       961      1030      3762      3984      3985
 -1      1980    8    0    1
 -2       961      1029      1030      3982      3986      3984
 -1      1981    8    0    1
 -2       963       962      1031      3765      3987      3988
 -1      1982    8    0    1
 -2       962      1030      1031      3985      3989      3987
 -1      1983    8    0    1
 -2       964       963      1032      3768      3990      3991
 -1      1984    8    0    1
 -2       963      1031      1032      3988      3992      3990
 -1      1985    8    0    1
 -2       965       964      1033      3771      3993      3994
 -1      1986    8    0    1
 -2       964      1032      1033      3991      3995      3993
 -1      1987    8    0    1
 -2       966       965      1034      3774      3996      3997
 -1      1988    8    0    1
 -2       965      1033      1034      3994      3998      3996
 -1      1989    8    0    1
 -2       876       875      1035      3487      3999      4000
 -1      1990    8    0    1
 -2       969       970      1036      3786      4001      4002
 -1      1991    8    0    1
 -2       875       966      1035      3773      4003      3999
 -1      1992    8    0    1
 -2       968       969      1005      3783      4004      4005
 -1      1993    8    0    1
 -2       967       968       937      3780      4006      3900
 -1      1994    8    0    1
 -2       970       971      1037      3789      4007      4008
 -1      1995    8    0    1
 -2       970      1037      1036      4008      4009      4001
 -1      1996    8    0    1
 -2       971       972      1038      3792      4010      4011
 -1      1997    8    0    1
 -2       971      1038      1037      4011      4012      4007
 -1      1998    8    0    1
 -2       972       973      1039      3795      4013      4014
 -1      1999    8    0    1
 -2       972      1039      1038      4014      4015      4010
 -1      2000    8    0    1
 -2       973       974      1040      3798      4016      4017
 -1      2001    8    0    1
 -2       973      1040      1039      4017      4018      4013
 -1      2002    8    0    1
 -2       974       975      1041      3801      4019      4020
 -1      2003    8    0    1
 -2       974      1041      1040      4020      4021      4016
 -1      2004    8    0    1
 -2       975       976      1042      3804      4022      4023
 -1      2005    8    0    1
 -2       975      1042      1041      4023      4024      4019
 -1      2006    8    0    1
 -2       976       977      1043      3807      4025      4026
 -1      2007    8    0    1
 -2       976      1043      1042      4026      4027      4022
 -1      2008    8    0    1
 -2       977       978      1044      3810      4028      4029
 -1      2009    8    0    1
 -2       977      1044      1043      4029      4030      4025
 -1      2010    8    0    1
 -2       978       979      1045      3813      4031      4032
 -1      2011    8    0    1
 -2       978      1045      1044      4032      4033      4028
 -1      2012    8    0    1
 -2       979       980      1046      3816      4034      4035
 -1      2013    8    0    1
 -2       979      1046      1045      4035      4036      4031
 -1      2014    8    0    1
 -2       980       981      1047      3819      4037      4038
 -1      2015    8    0    1
 -2       980      1047      1046      4038      4039      4034
 -1      2016    8    0    1
 -2       981       982      1048      3822      4040      4041
 -1      2017    8    0    1
 -2       981      1048      1047      4041      4042      4037
 -1      2018    8    0    1
 -2       982       983      1049      3825      4043      4044
 -1      2019    8    0    1
 -2       982      1049      1048      4044      4045      4040
 -1      2020    8    0    1
 -2       983       984      1050      3828      4046      4047
 -1      2021    8    0    1
 -2       983      1050      1049      4047      4048      4043
 -1      2022    8    0    1
 -2       984       985      1051      3831      4049      4050
 -1      2023    8    0    1
 -2       984      1051      1050      4050      4051      4046
 -1      2024    8    0    1
 -2       985       986      1052      3834      4052      4053
 -1      2025    8    0    1
 -2       985      1052      1051      4053      4054      4049
 -1      2026    8    0    1
 -2       986       987      1053      3837      4055      4056
 -1      2027    8    0    1
 -2       986      1053      1052      4056      4057      4052
 -1      2028    8    0    1
 -2       987       988      1054      3840      4058      4059
 -1      2029    8    0    1
 -2       987      1054      1053      4059      4060      4055
 -1      2030    8    0    1
 -2       988       989      1055      3843      4061      4062
 -1      2031    8    0    1
 -2       988      1055      1054      4062      4063      4058
 -1      2032    8    0    1
 -2       989       990      1056      3846      4064      4065
 -1      2033    8    0    1
 -2       989      1056      1055      4065      4066      4061
 -1      2034    8    0    1
 -2       990       991      1057      3849      4067      4068
 -1      2035    8    0    1
 -2       990      1057      1056      4068      4069      4064
 -1      2036    8    0    1
 -2       991       992      1058      3852      4070      4071
 -1      2037    8    0    1
 -2       991      1058      1057      4071      4072      4067
 -1      2038    8    0    1
 -2       992       993      1059      3855      4073      4074
 -1      2039    8    0    1
 -2       992      1059      1058      4074      4075      4070
 -1      2040    8    0    1
 -2       920      1008       998      3916      4076      3879
 -1      2041    8    0    1
 -2       941       943      1060      3891      4077      4078
 -1      2042    8    0    1
 -2      1011       941      1060      3928      4078      4079
 -1      2043    8    0    1
 -2       943      1003      1060      3896      4080      4077
 -1      2044    8    0    1
 -2       917       743       926      3775      3637      3929
 -1      2045    8    0    1
 -2       931       998      1008      3890      4076      4081
 -1      2046    8    0    1
 -2       919       934      1061      3673      4082      4083
 -1      2047    8    0    1
 -2       995      1001      1062      3898      4084      4085
 -1      2048    8    0    1
 -2       999       919      1061      3881      4083      4086
 -1      2049    8    0    1
 -2       936       928      1063      3683      4087      4088
 -1      2050    8    0    1
 -2      1009       936      1063      3917      4088      4089
 -1      2051    8    0    1
 -2       928      1002      1063      3894      4090      4087
 -1      2052    8    0    1
 -2      1000       995      1062      3886      4085      4091
 -1      2053    8    0    1
 -2      1035       966      1034      4003      3997      4092
 -1      2054    8    0    1
 -2       937       968      1005      4006      4005      3905
 -1      2055    8    0    1
 -2       931      1008      1006      4081      4093      3908
 -1      2056    8    0    1
 -2      1002       997      1064      3892      4094      4095
 -1      2057    8    0    1
 -2       969      1036      1005      4002      4096      4004
 -1      2058    8    0    1
 -2      1004      1000      1065      3904      4097      4098
 -1      2059    8    0    1
 -2      1004      1065      1012      4098      4099      3932
 -1      2060    8    0    1
 -2      1059       993      1066      4073      4100      4101
 -1      2061    8    0    1
 -2       993       994      1066      3858      4102      4100
 -1      2062    8    0    1
 -2       996       939      1067      3866      4103      4104
 -1      2063    8    0    1
 -2       939       999      1006      3899      4105      4106
 -1      2064    8    0    1
 -2       938       996      1010      3865      4107      3923
 -1      2065    8    0    1
 -2       876      1035       997      4000      4108      3871
 -1      2066    8    0    1
 -2      1001      1005      1062      3907      4109      4084
 -1      2067    8    0    1
 -2      1000      1062      1068      4091      4110      4111
 -1      2068    8    0    1
 -2      1000      1068      1065      4111      4112      4097
 -1      2069    8    0    1
 -2      1064       997      1035      4094      4108      4113
 -1      2070    8    0    1
 -2      1061       934      1060      4082      4114      4115
 -1      2071    8    0    1
 -2      1035      1034      1064      4092      4116      4113
 -1      2072    8    0    1
 -2       999      1061      1003      4086      4117      4118
 -1      2073    8    0    1
 -2       994      1007      1066      3914      4119      4102
 -1      2074    8    0    1
 -2      1066      1007      1069      4119      4120      4121
 -1      2075    8    0    1
 -2      1007      1009      1069      3919      4122      4120
 -1      2076    8    0    1
 -2      1005      1036      1062      4096      4123      4109
 -1      2077    8    0    1
 -2      1059      1066      1070      4101      4124      4125
 -1      2078    8    0    1
 -2      1066      1069      1070      4121      4126      4124
 -1      2079    8    0    1
 -2      1013      1012      1071      3935      4127      4128
 -1      2080    8    0    1
 -2      1012      1065      1071      4099      4129      4127
 -1      2081    8    0    1
 -2      1014      1013      1072      3938      4130      4131
 -1      2082    8    0    1
 -2      1013      1071      1072      4128      4132      4130
 -1      2083    8    0    1
 -2      1015      1014      1073      3941      4133      4134
 -1      2084    8    0    1
 -2      1014      1072      1073      4131      4135      4133
 -1      2085    8    0    1
 -2      1016      1015      1074      3944      4136      4137
 -1      2086    8    0    1
 -2      1015      1073      1074      4134      4138      4136
 -1      2087    8    0    1
 -2      1017      1016      1075      3947      4139      4140
 -1      2088    8    0    1
 -2      1016      1074      1075      4137      4141      4139
 -1      2089    8    0    1
 -2      1018      1017      1076      3950      4142      4143
 -1      2090    8    0    1
 -2      1017      1075      1076      4140      4144      4142
 -1      2091    8    0    1
 -2      1019      1018      1077      3953      4145      4146
 -1      2092    8    0    1
 -2      1018      1076      1077      4143      4147      4145
 -1      2093    8    0    1
 -2      1020      1019      1078      3956      4148      4149
 -1      2094    8    0    1
 -2      1019      1077      1078      4146      4150      4148
 -1      2095    8    0    1
 -2      1021      1020      1079      3959      4151      4152
 -1      2096    8    0    1
 -2      1020      1078      1079      4149      4153      4151
 -1      2097    8    0    1
 -2      1022      1021      1080      3962      4154      4155
 -1      2098    8    0    1
 -2      1021      1079      1080      4152      4156      4154
 -1      2099    8    0    1
 -2      1023      1022      1081      3965      4157      4158
 -1      2100    8    0    1
 -2      1022      1080      1081      4155      4159      4157
 -1      2101    8    0    1
 -2      1024      1023      1082      3968      4160      4161
 -1      2102    8    0    1
 -2      1023      1081      1082      4158      4162      4160
 -1      2103    8    0    1
 -2      1025      1024      1083      3971      4163      4164
 -1      2104    8    0    1
 -2      1024      1082      1083      4161      4165      4163
 -1      2105    8    0    1
 -2      1026      1025      1084      3974      4166      4167
 -1      2106    8    0    1
 -2      1025      1083      1084      4164      4168      4166
 -1      2107    8    0    1
 -2      1027      1026      1085      3977      4169      4170
 -1      2108    8    0    1
 -2      1026      1084      1085      4167      4171      4169
 -1      2109    8    0    1
 -2      1028      1027      1086      3980      4172      4173
 -1      2110    8    0    1
 -2      1027      1085      1086      4170      4174      4172
 -1      2111    8    0    1
 -2      1029      1028      1087      3983      4175      4176
 -1      2112    8    0    1
 -2      1028      1086      1087      4173      4177      4175
 -1      2113    8    0    1
 -2      1030      1029      1088      3986      4178      4179
 -1      2114    8    0    1
 -2      1029      1087      1088      4176      4180      4178
 -1      2115    8    0    1
 -2      1031      1030      1089      3989      4181      4182
 -1      2116    8    0    1
 -2      1030      1088      1089      4179      4183      4181
 -1      2117    8    0    1
 -2      1032      1031      1090      3992      4184      4185
 -1      2118    8    0    1
 -2      1031      1089      1090      4182      4186      4184
 -1      2119    8    0    1
 -2      1033      1032      1091      3995      4187      4188
 -1      2120    8    0    1
 -2      1032      1090      1091      4185      4189      4187
 -1      2121    8    0    1
 -2      1034      1033      1092      3998      4190      4191
 -1      2122    8    0    1
 -2      1033      1091      1092      4188      4192      4190
 -1      2123    8    0    1
 -2       999      1003      1006      4118      3910      4105
 -1      2124    8    0    1
 -2      1038      1039      1093      4015      4193      4194
 -1      2125    8    0    1
 -2      1039      1040      1094      4018      4195      4196
 -1      2126    8    0    1
 -2      1039      1094      1093      4196      4197      4193
 -1      2127    8    0    1
 -2      1040      1041      1095      4021      4198      4199
 -1      2128    8    0    1
 -2      1040      1095      1094      4199      4200      4195
 -1      2129    8    0    1
 -2      1041      1042      1096      4024      4201      4202
 -1      2130    8    0    1
 -2      1041      1096      1095      4202      4203      4198
 -1      2131    8    0    1
 -2      1042      1043      1097      4027      4204      4205
 -1      2132    8    0    1
 -2      1042      1097      1096      4205      4206      4201
 -1      2133    8    0    1
 -2      1043      1044      1098      4030      4207      4208
 -1      2134    8    0    1
 -2      1043      1098      1097      4208      4209      4204
 -1      2135    8    0    1
 -2      1044      1045      1099      4033      4210      4211
 -1      2136    8    0    1
 -2      1044      1099      1098      4211      4212      4207
 -1      2137    8    0    1
 -2      1045      1046      1100      4036      4213      4214
 -1      2138    8    0    1
 -2      1045      1100      1099      4214      4215      4210
 -1      2139    8    0    1
 -2      1046      1047      1101      4039      4216      4217
 -1      2140    8    0    1
 -2      1046      1101      1100      4217      4218      4213
 -1      2141    8    0    1
 -2      1047      1048      1102      4042      4219      4220
 -1      2142    8    0    1
 -2      1047      1102      1101      4220      4221      4216
 -1      2143    8    0    1
 -2      1048      1049      1103      4045      4222      4223
 -1      2144    8    0    1
 -2      1048      1103      1102      4223      4224      4219
 -1      2145    8    0    1
 -2      1049      1050      1104      4048      4225      4226
 -1      2146    8    0    1
 -2      1049      1104      1103      4226      4227      4222
 -1      2147    8    0    1
 -2      1050      1051      1105      4051      4228      4229
 -1      2148    8    0    1
 -2      1050      1105      1104      4229      4230      4225
 -1      2149    8    0    1
 -2      1051      1052      1106      4054      4231      4232
 -1      2150    8    0    1
 -2      1051      1106      1105      4232      4233      4228
 -1      2151    8    0    1
 -2      1052      1053      1107      4057      4234      4235
 -1      2152    8    0    1
 -2      1052      1107      1106      4235      4236      4231
 -1      2153    8    0    1
 -2      1053      1054      1108      4060      4237      4238
 -1      2154    8    0    1
 -2      1053      1108      1107      4238      4239      4234
 -1      2155    8    0    1
 -2      1054      1055      1109      4063      4240      4241
 -1      2156    8    0    1
 -2      1054      1109      1108      4241      4242      4237
 -1      2157    8    0    1
 -2      1055      1056      1110      4066      4243      4244
 -1      2158    8    0    1
 -2      1055      1110      1109      4244      4245      4240
 -1      2159    8    0    1
 -2      1056      1057      1111      4069      4246      4247
 -1      2160    8    0    1
 -2      1056      1111      1110      4247      4248      4243
 -1      2161    8    0    1
 -2      1057      1058      1112      4072      4249      4250
 -1      2162    8    0    1
 -2      1057      1112      1111      4250      4251      4246
 -1      2163    8    0    1
 -2      1058      1059      1113      4075      4252      4253
 -1      2164    8    0    1
 -2      1112      1058      1113      4249      4253      4254
 -1      2165    8    0    1
 -2      1059      1070      1113      4125      4255      4252
 -1      2166    8    0    1
 -2      1067       939      1006      4103      4106      4256
 -1      2167    8    0    1
 -2       996      1067      1010      4104      4257      4107
 -1      2168    8    0    1
 -2      1060       934      1011      4114      4258      4079
 -1      2169    8    0    1
 -2      1064      1034      1092      4116      4191      4259
 -1      2170    8    0    1
 -2      1003      1061      1060      4117      4115      4080
 -1      2171    8    0    1
 -2      1002      1064      1114      4095      4260      4261
 -1      2172    8    0    1
 -2      1002      1114      1063      4261      4262      4090
 -1      2173    8    0    1
 -2      1008      1010      1067      3922      4257      4263
 -1      2174    8    0    1
 -2      1008      1067      1006      4263      4256      4093
 -1      2175    8    0    1
 -2      1037      1038      1115      4012      4264      4265
 -1      2176    8    0    1
 -2      1038      1093      1115      4194      4266      4264
 -1      2177    8    0    1
 -2      1062      1036      1068      4123      4267      4110
 -1      2178    8    0    1
 -2      1036      1037      1068      4009      4268      4267
 -1      2179    8    0    1
 -2      1071      1065      1068      4129      4112      4269
 -1      2180    8    0    1
 -2       921      1011       934      3926      4258      3927
 -1      2181    8    0    1
 -2      1009      1063      1069      4089      4270      4122
 -1      2182    8    0    1
 -2      1068      1037      1115      4268      4265      4271
 -1      2183    8    0    1
 -2      1072      1071      1116      4132      4272      4273
 -1      2184    8    0    1
 -2      1073      1072      1117      4135      4274      4275
 -1      2185    8    0    1
 -2      1072      1116      1117      4273      4276      4274
 -1      2186    8    0    1
 -2      1074      1073      1118      4138      4277      4278
 -1      2187    8    0    1
 -2      1073      1117      1118      4275      4279      4277
 -1      2188    8    0    1
 -2      1075      1074      1119      4141      4280      4281
 -1      2189    8    0    1
 -2      1074      1118      1119      4278      4282      4280
 -1      2190    8    0    1
 -2      1076      1075      1120      4144      4283      4284
 -1      2191    8    0    1
 -2      1075      1119      1120      4281      4285      4283
 -1      2192    8    0    1
 -2      1077      1076      1121      4147      4286      4287
 -1      2193    8    0    1
 -2      1076      1120      1121      4284      4288      4286
 -1      2194    8    0    1
 -2      1078      1077      1122      4150      4289      4290
 -1      2195    8    0    1
 -2      1077      1121      1122      4287      4291      4289
 -1      2196    8    0    1
 -2      1079      1078      1123      4153      4292      4293
 -1      2197    8    0    1
 -2      1078      1122      1123      4290      4294      4292
 -1      2198    8    0    1
 -2      1080      1079      1124      4156      4295      4296
 -1      2199    8    0    1
 -2      1079      1123      1124      4293      4297      4295
 -1      2200    8    0    1
 -2      1081      1080      1125      4159      4298      4299
 -1      2201    8    0    1
 -2      1080      1124      1125      4296      4300      4298
 -1      2202    8    0    1
 -2      1082      1081      1126      4162      4301      4302
 -1      2203    8    0    1
 -2      1081      1125      1126      4299      4303      4301
 -1      2204    8    0    1
 -2      1083      1082      1127      4165      4304      4305
 -1      2205    8    0    1
 -2      1082      1126      1127      4302      4306      4304
 -1      2206    8    0    1
 -2      1084      1083      1128      4168      4307      4308
 -1      2207    8    0    1
 -2      1083      1127      1128      4305      4309      4307
 -1      2208    8    0    1
 -2      1085      1084      1129      4171      4310      4311
 -1      2209    8    0    1
 -2      1084      1128      1129      4308      4312      4310
 -1      2210    8    0    1
 -2      1086      1085      1130      4174      4313      4314
 -1      2211    8    0    1
 -2      1085      1129      1130      4311      4315      4313
 -1      2212    8    0    1
 -2      1087      1086      1131      4177      4316      4317
 -1      2213    8    0    1
 -2      1086      1130      1131      4314      4318      4316
 -1      2214    8    0    1
 -2      1088      1087      1132      4180      4319      4320
 -1      2215    8    0    1
 -2      1087      1131      1132      4317      4321      4319
 -1      2216    8    0    1
 -2      1089      1088      1133      4183      4322      4323
 -1      2217    8    0    1
 -2      1088      1132      1133      4320      4324      4322
 -1      2218    8    0    1
 -2      1090      1089      1134      4186      4325      4326
 -1      2219    8    0    1
 -2      1089      1133      1134      4323      4327      4325
 -1      2220    8    0    1
 -2      1091      1090      1135      4189      4328      4329
 -1      2221    8    0    1
 -2      1090      1134      1135      4326      4330      4328
 -1      2222    8    0    1
 -2      1092      1091      1136      4192      4331      4332
 -1      2223    8    0    1
 -2      1091      1135      1136      4329      4333      4331
 -1      2224    8    0    1
 -2      1071      1068      1116      4269      4334      4272
 -1      2225    8    0    1
 -2      1095      1096      1119      4203      4335      4336
 -1      2226    8    0    1
 -2      1093      1094      1117      4197      4337      4338
 -1      2227    8    0    1
 -2      1096      1097      1120      4206      4339      4340
 -1      2228    8    0    1
 -2      1097      1098      1121      4209      4341      4342
 -1      2229    8    0    1
 -2      1098      1099      1122      4212      4343      4344
 -1      2230    8    0    1
 -2      1099      1100      1123      4215      4345      4346
 -1      2231    8    0    1
 -2      1100      1101      1124      4218      4347      4348
 -1      2232    8    0    1
 -2      1101      1102      1125      4221      4349      4350
 -1      2233    8    0    1
 -2      1102      1103      1126      4224      4351      4352
 -1      2234    8    0    1
 -2      1103      1104      1127      4227      4353      4354
 -1      2235    8    0    1
 -2      1104      1105      1128      4230      4355      4356
 -1      2236    8    0    1
 -2      1105      1106      1129      4233      4357      4358
 -1      2237    8    0    1
 -2      1106      1107      1130      4236      4359      4360
 -1      2238    8    0    1
 -2      1107      1108      1131      4239      4361      4362
 -1      2239    8    0    1
 -2      1108      1109      1132      4242      4363      4364
 -1      2240    8    0    1
 -2      1109      1110      1133      4245      4365      4366
 -1      2241    8    0    1
 -2      1110      1111      1134      4248      4367      4368
 -1      2242    8    0    1
 -2      1111      1112      1135      4251      4369      4370
 -1      2243    8    0    1
 -2      1063      1114      1069      4262      4371      4270
 -1      2244    8    0    1
 -2      1064      1092      1137      4259      4372      4373
 -1      2245    8    0    1
 -2      1068      1115      1116      4271      4374      4334
 -1      2246    8    0    1
 -2      1069      1114      1070      4371      4375      4126
 -1      2247    8    0    1
 -2      1137      1092      1136      4372      4332      4376
 -1      2248    8    0    1
 -2      1094      1095      1118      4200      4377      4378
 -1      2249    8    0    1
 -2      1137      1136      1113      4376      4379      4380
 -1      2250    8    0    1
 -2      1123      1100      1124      4345      4348      4297
 -1      2251    8    0    1
 -2      1121      1098      1122      4341      4344      4291
 -1      2252    8    0    1
 -2      1117      1094      1118      4337      4378      4279
 -1      2253    8    0    1
 -2      1119      1096      1120      4335      4340      4285
 -1      2254    8    0    1
 -2      1093      1117      1116      4338      4276      4381
 -1      2255    8    0    1
 -2      1132      1109      1133      4363      4366      4324
 -1      2256    8    0    1
 -2      1097      1121      1120      4342      4288      4339
 -1      2257    8    0    1
 -2      1099      1123      1122      4346      4294      4343
 -1      2258    8    0    1
 -2      1101      1125      1124      4350      4300      4347
 -1      2259    8    0    1
 -2      1102      1126      1125      4352      4303      4349
 -1      2260    8    0    1
 -2      1103      1127      1126      4354      4306      4351
 -1      2261    8    0    1
 -2      1104      1128      1127      4356      4309      4353
 -1      2262    8    0    1
 -2      1105      1129      1128      4358      4312      4355
 -1      2263    8    0    1
 -2      1106      1130      1129      4360      4315      4357
 -1      2264    8    0    1
 -2      1107      1131      1130      4362      4318      4359
 -1      2265    8    0    1
 -2      1108      1132      1131      4364      4321      4361
 -1      2266    8    0    1
 -2      1110      1134      1133      4368      4327      4365
 -1      2267    8    0    1
 -2      1111      1135      1134      4370      4330      4367
 -1      2268    8    0    1
 -2      1112      1113      1136      4254      4379      4382
 -1      2269    8    0    1
 -2      1135      1112      1136      4369      4382      4333
 -1      2270    8    0    1
 -2      1118      1095      1119      4377      4336      4282
 -1      2271    8    0    1
 -2      1115      1093      1116      4266      4381      4374
 -1      2272    8    0    1
 -2      1114      1064      1137      4260      4373      4383
 -1      2273    8    0    1
 -2      1070      1114      1137      4375      4383      4384
 -1      2274    8    0    1
 -2      1113      1070      1137      4255      4384      4380
 -3
    1PSTEP                         1           1           1          
  100CL  101 1.000000000        4384                     0    1           1
 -4  DISP        4    1
 -5  D1          1    2    1    0
 -5  D2          1    2    2    0
 -5  D3          1    2    3    0
 -5  ALL         1    2    0    0    1ALL
 -1         1 2.29107E-03-9.85650E-04 5.76985E-15
 -1         2 6.46141E-03-6.89594E-04 1.18460E-14
 -1         3 1.43357E-02-3.39171E-03 9.05401E-14
 -1         4 1.61686E-02-4.82100E-03 8.58214E-14
 -1         5 0.00000E+00 0.00000E+00 0.00000E+00
 -1         6 0.00000E+00 0.00000E+00 0.00000E+00
 -1         7 0.00000E+00 0.00000E+00 0.00000E+00
 -1         8 0.00000E+00 0.00000E+00 0.00000E+00
 -1         9 0.00000E+00 0.00000E+00 0.00000E+00
 -1        10 0.00000E+00 0.00000E+00 0.00000E+00
 -1        11 0.00000E+00 0.00000E+00 0.00000E+00
 -1        12 0.00000E+00 0.00000E+00 0.00000E+00
 -1        13 0.00000E+00 0.00000E+00 0.00000E+00
 -1        14 0.00000E+00 0.00000E+00 0.00000E+00
 -1        15 0.00000E+00 0.00000E+00 0.00000E+00
 -1        16 0.00000E+00 0.00000E+00 0.00000E+00
 -1        17 0.00000E+00 0.00000E+00 0.00000E+00
 -1        18 0.00000E+00 0.00000E+00 0.00000E+00
 -1        19 0.00000E+00 0.00000E+00 0.00000E+00
 -1        20 0.00000E+00 0.00000E+00 0.00000E+00
 -1        21 0.00000E+00 0.00000E+00 0.00000E+00
 -1        22 0.00000E+00 0.00000E+00 0.00000E+00
 -1        23 4.28723E-04-2.44035E-04-4.10235E-17
 -1        24 7.53939E-04-3.63938E-04 3.86654E-17
 -1        25 1.07285E-03-4.48042E-04 2.35685E-16
 -1        26 1.40231E-03-5.15434E-04 5.48078E-16
 -1        27 1.75042E-03-5.80965E-04 9.72001E-16
 -1        28 2.12320E-03-6.59077E-04 1.50349E-15
 -1        29 2.52332E-03-7.66547E-04 2.13972E-15
 -1        30 2.94626E-03-9.21454E-04 2.87583E-15
 -1        31 3.37485E-03-1.13631E-03 3.70893E-15
 -1        32 3.77736E-03-1.40272E-03 4.64115E-15
 -1        33 4.11937E-03-1.67374E-03 5.68224E-15
 -1        34 4.39302E-03-1.86771E-03 6.84664E-15
 -1        35 4.62568E-03-1.91796E-03 8.06951E-15
 -1        36 4.90357E-03-1.83110E-03 9.47226E-15
 -1        37 5.25291E-03-1.67116E-03 1.09812E-14
 -1        38 5.66473E-03-1.52054E-03 1.25767E-14
 -1        39 6.10406E-03-1.42657E-03 1.42527E-14
 -1        40 6.53902E-03-1.39815E-03 1.59962E-14
 -1        41 6.95237E-03-1.42398E-03 1.77908E-14
 -1        42 7.33928E-03-1.48794E-03 1.96412E-14
 -1        43 7.70161E-03-1.57626E-03 2.15522E-14
 -1        44 8.04366E-03-1.67911E-03 2.35063E-14
 -1        45 8.37000E-03-1.79007E-03 2.55061E-14
 -1        46 8.68457E-03-1.90520E-03 2.75550E-14
 -1        47 8.99049E-03-2.02214E-03 2.96544E-14
 -1        48 9.29016E-03-2.13954E-03 3.18079E-14
 -1        49 9.58533E-03-2.25666E-03 3.39901E-14
 -1        50 9.87730E-03-2.37312E-03 3.61985E-14
 -1        51 1.01670E-02-2.48875E-03 3.84383E-14
 -1        52 1.04552E-02-2.60354E-03 4.07050E-14
 -1        53 1.07422E-02-2.71751E-03 4.29760E-14
 -1        54 1.10286E-02-2.83075E-03 4.52316E-14
 -1        55 1.13145E-02-2.94334E-03 4.74682E-14
 -1        56 1.16001E-02-3.05537E-03 4.97039E-14
 -1        57 1.18855E-02-3.16695E-03 5.19368E-14
 -1        58 1.21709E-02-3.27814E-03 5.41646E-14
 -1        59 1.24562E-02-3.38904E-03 5.64055E-14
 -1        60 1.27416E-02-3.49969E-03 5.86808E-14
 -1        61 1.30269E-02-3.61015E-03 6.09647E-14
 -1        62 1.33123E-02-3.72047E-03 6.32492E-14
 -1        63 1.35978E-02-3.83068E-03 6.55301E-14
 -1        64 1.38833E-02-3.94080E-03 6.78162E-14
 -1        65 1.41689E-02-4.05088E-03 7.01080E-14
 -1        66 1.44545E-02-4.16091E-03 7.23940E-14
 -1        67 1.47401E-02-4.27093E-03 7.46825E-14
 -1        68 1.50257E-02-4.38093E-03 7.69656E-14
 -1        69 1.53114E-02-4.49093E-03 7.92215E-14
 -1        70 1.55971E-02-4.60094E-03 8.14319E-14
 -1        71 1.58828E-02-4.71096E-03 8.36211E-14
 -1        72 4.26231E-04 2.56695E-04-1.04897E-17
 -1        73 7.34441E-04 3.91967E-04 1.32161E-16
 -1        74 1.02892E-03 4.86065E-04 4.18109E-16
 -1        75 1.32026E-03 5.59302E-04 8.42066E-16
 -1        76 1.61118E-03 6.21140E-04 1.39748E-15
 -1        77 1.90118E-03 6.76930E-04 2.07838E-15
 -1        78 2.18797E-03 7.29033E-04 2.88147E-15
 -1        79 2.46830E-03 7.76916E-04 3.80464E-15
 -1        80 2.73898E-03 8.17140E-04 4.84337E-15
 -1        81 2.99802E-03 8.43766E-04 5.99205E-15
 -1        82 3.24580E-03 8.49549E-04 7.24397E-15
 -1        83 3.48562E-03 8.27899E-04 8.59806E-15
 -1        84 3.72326E-03 7.75030E-04 1.00486E-14
 -1        85 3.96543E-03 6.91399E-04 1.15855E-14
 -1        86 4.21790E-03 5.81715E-04 1.32047E-14
 -1        87 4.48395E-03 4.53548E-04 1.49008E-14
 -1        88 4.76391E-03 3.15258E-04 1.66678E-14
 -1        89 5.05573E-03 1.74153E-04 1.85016E-14
 -1        90 5.35605E-03 3.54460E-05 2.03977E-14
 -1        91 5.66123E-03-9.79283E-05 2.23488E-14
 -1        92 5.96812E-03-2.24933E-04 2.43462E-14
 -1        93 6.27442E-03-3.45815E-04 2.63858E-14
 -1        94 6.57866E-03-4.61528E-04 2.84588E-14
 -1        95 6.88011E-03-5.73281E-04 3.05683E-14
 -1        96 7.17859E-03-6.82265E-04 3.27219E-14
 -1        97 7.47424E-03-7.89503E-04 3.49077E-14
 -1        98 7.76739E-03-8.95802E-04 3.71145E-14
 -1        99 8.05845E-03-1.00175E-03 3.93488E-14
 -1       100 8.34784E-03-1.10773E-03 4.15915E-14
 -1       101 8.63595E-03-1.21401E-03 4.38403E-14
 -1       102 8.92310E-03-1.32070E-03 4.61081E-14
 -1       103 9.20958E-03-1.42787E-03 4.83864E-14
 -1       104 9.49558E-03-1.53551E-03 5.06812E-14
 -1       105 9.78128E-03-1.64358E-03 5.29868E-14
 -1       106 1.00668E-02-1.75205E-03 5.53020E-14
 -1       107 1.03522E-02-1.86085E-03 5.76290E-14
 -1       108 1.06376E-02-1.96993E-03 5.99758E-14
 -1       109 1.09230E-02-2.07924E-03 6.23293E-14
 -1       110 1.12084E-02-2.18873E-03 6.46835E-14
 -1       111 1.14938E-02-2.29835E-03 6.70505E-14
 -1       112 1.17793E-02-2.40809E-03 6.94202E-14
 -1       113 1.20648E-02-2.51790E-03 7.17915E-14
 -1       114 1.23503E-02-2.62776E-03 7.41563E-14
 -1       115 1.26359E-02-2.73766E-03 7.65093E-14
 -1       116 1.29216E-02-2.84759E-03 7.88653E-14
 -1       117 1.32072E-02-2.95752E-03 8.12223E-14
 -1       118 1.34929E-02-3.06746E-03 8.35834E-14
 -1       119 1.37786E-02-3.17738E-03 8.59392E-14
 -1       120 1.40643E-02-3.28730E-03 8.82902E-14
 -1       121 1.44438E-02-3.47599E-03 9.02782E-14
 -1       122 1.45519E-02-3.56028E-03 8.99828E-14
 -1       123 1.46599E-02-3.64458E-03 8.97028E-14
 -1       124 1.47680E-02-3.72889E-03 8.94071E-14
 -1       125 1.48760E-02-3.81323E-03 8.91021E-14
 -1       126 1.49823E-02-3.89614E-03 8.87894E-14
 -1       127 1.50903E-02-3.98051E-03 8.84671E-14
 -1       128 1.51985E-02-4.06488E-03 8.81391E-14
 -1       129 1.53066E-02-4.14926E-03 8.78273E-14
 -1       130 1.54148E-02-4.23363E-03 8.75562E-14
 -1       131 1.55229E-02-4.31799E-03 8.72870E-14
 -1       132 1.56293E-02-4.40091E-03 8.70239E-14
 -1       133 1.57375E-02-4.48524E-03 8.67650E-14
 -1       134 1.58458E-02-4.56956E-03 8.65043E-14
 -1       135 1.59540E-02-4.65385E-03 8.62667E-14
 -1       136 1.60622E-02-4.73814E-03 8.60434E-14
 -1       137 6.36742E-03-5.12392E-04 1.18338E-14
 -1       138 6.17434E-03-3.34723E-04 1.16553E-14
 -1       139 5.90565E-03-1.73773E-04 1.13398E-14
 -1       140 5.57090E-03-3.05618E-05 1.09078E-14
 -1       141 5.16633E-03 9.41850E-05 1.03590E-14
 -1       142 4.71517E-03 1.91308E-04 9.72301E-15
 -1       143 4.27218E-03 2.49865E-04 9.09202E-15
 -1       144 3.80632E-03 2.75864E-04 8.42261E-15
 -1       145 3.33623E-03 2.63215E-04 7.74488E-15
 -1       146 2.91476E-03 2.13752E-04 7.14081E-15
 -1       147 2.56222E-03 1.34915E-04 6.63173E-15
 -1       148 2.27270E-03 3.01510E-05 6.20833E-15
 -1       149 2.05111E-03-9.92973E-05 5.87096E-15
 -1       150 1.90880E-03-2.51892E-04 5.62744E-15
 -1       151 1.85881E-03-4.21643E-04 5.49119E-15
 -1       152 1.91010E-03-6.11707E-04 5.47150E-15
 -1       153 2.06467E-03-8.06432E-04 5.57367E-15
 -1       154 2.60572E-03-1.16554E-03 6.07579E-15
 -1       155 3.03690E-03-1.34654E-03 6.53163E-15
 -1       156 3.51225E-03-1.48587E-03 7.06655E-15
 -1       157 4.02149E-03-1.57467E-03 7.67640E-15
 -1       158 4.52428E-03-1.60322E-03 8.32410E-15
 -1       159 5.04403E-03-1.56876E-03 9.05178E-15
 -1       160 5.47995E-03-1.48555E-03 9.71285E-15
 -1       161 5.85362E-03-1.36370E-03 1.03404E-14
 -1       162 6.15548E-03-1.21063E-03 1.09191E-14
 -1       163 6.35083E-03-1.05064E-03 1.13605E-14
 -1       164 6.45681E-03-8.76294E-04 1.16821E-14
 -1       165 2.58154E-04-1.01610E-04 1.87838E-17
 -1       166 2.36016E-04-6.66906E-05 3.74863E-17
 -1       167 2.21273E-04-4.55228E-05 4.82030E-17
 -1       168 2.10029E-04-3.27644E-05 5.45083E-17
 -1       169 2.02201E-04-2.54335E-05 5.84690E-17
 -1       170 1.97761E-04-2.07860E-05 6.12337E-17
 -1       171 1.96734E-04-1.67299E-05 6.34191E-17
 -1       172 1.98563E-04-1.14796E-05 6.47608E-17
 -1       173 2.02420E-04-3.86149E-06 6.57670E-17
 -1       174 2.07465E-04 6.68795E-06 6.62786E-17
 -1       175 2.12985E-04 2.00543E-05 6.64887E-17
 -1       176 2.18960E-04 3.67448E-05 6.58145E-17
 -1       177 2.25677E-04 5.69668E-05 6.31311E-17
 -1       178 2.34622E-04 8.22673E-05 5.62735E-17
 -1       179 2.50829E-04 1.17611E-04 4.12065E-17
 -1       180 3.11251E-04 1.77962E-04 2.68543E-17
 -1       181 5.07337E-04-2.27329E-04 5.12523E-17
 -1       182 8.40015E-04-3.25881E-04 2.16820E-16
 -1       183 1.16809E-03-3.97538E-04 4.91659E-16
 -1       184 1.50175E-03-4.58664E-04 8.75446E-16
 -1       185 1.84704E-03-5.23434E-04 1.36577E-15
 -1       186 2.20801E-03-6.07889E-04 1.95832E-15
 -1       187 2.58615E-03-7.31060E-04 2.65123E-15
 -1       188 2.97877E-03-9.12013E-04 3.44095E-15
 -1       189 3.37686E-03-1.15887E-03 4.33003E-15
 -1       190 3.76490E-03-1.44807E-03 5.32332E-15
 -1       191 4.12855E-03-1.70769E-03 6.43286E-15
 -1       192 4.45336E-03-1.83895E-03 7.60392E-15
 -1       193 4.79632E-03-1.81003E-03 8.95677E-15
 -1       194 5.16337E-03-1.65887E-03 1.04202E-14
 -1       195 5.55633E-03-1.48262E-03 1.19809E-14
 -1       196 5.96041E-03-1.35381E-03 1.36233E-14
 -1       197 6.35972E-03-1.29621E-03 1.53395E-14
 -1       198 6.74493E-03-1.30255E-03 1.71153E-14
 -1       199 7.11274E-03-1.35544E-03 1.89446E-14
 -1       200 7.46352E-03-1.43843E-03 2.08299E-14
 -1       201 7.79937E-03-1.53939E-03 2.27648E-14
 -1       202 8.12292E-03-1.65034E-03 2.47454E-14
 -1       203 8.43673E-03-1.76635E-03 2.67719E-14
 -1       204 8.74302E-03-1.88454E-03 2.88448E-14
 -1       205 9.04359E-03-2.00326E-03 3.09638E-14
 -1       206 9.33989E-03-2.12162E-03 3.31199E-14
 -1       207 9.63302E-03-2.23919E-03 3.53076E-14
 -1       208 9.92383E-03-2.35578E-03 3.75225E-14
 -1       209 1.02130E-02-2.47137E-03 3.97683E-14
 -1       210 1.05009E-02-2.58601E-03 4.20306E-14
 -1       211 1.07879E-02-2.69978E-03 4.42927E-14
 -1       212 1.10744E-02-2.81280E-03 4.65417E-14
 -1       213 1.13605E-02-2.92518E-03 4.87847E-14
 -1       214 1.16463E-02-3.03702E-03 5.10269E-14
 -1       215 1.19320E-02-3.14842E-03 5.32674E-14
 -1       216 1.22175E-02-3.25947E-03 5.55107E-14
 -1       217 1.25030E-02-3.37024E-03 5.77728E-14
 -1       218 1.27886E-02-3.48078E-03 6.00557E-14
 -1       219 1.30741E-02-3.59116E-03 6.23396E-14
 -1       220 1.33596E-02-3.70141E-03 6.46212E-14
 -1       221 1.36452E-02-3.81157E-03 6.68978E-14
 -1       222 1.39307E-02-3.92166E-03 6.91774E-14
 -1       223 1.42163E-02-4.03170E-03 7.14600E-14
 -1       224 1.45020E-02-4.14171E-03 7.37387E-14
 -1       225 1.47876E-02-4.25171E-03 7.60213E-14
 -1       226 1.50733E-02-4.36171E-03 7.82869E-14
 -1       227 1.53590E-02-4.47171E-03 8.05211E-14
 -1       228 1.56447E-02-4.58172E-03 8.27251E-14
 -1       229 1.58534E-02-4.65993E-03 8.43820E-14
 -1       230 6.35383E-04 3.15329E-04 1.78385E-16
 -1       231 9.44514E-04 4.13387E-04 4.63320E-16
 -1       232 1.24544E-03 4.88607E-04 8.80514E-16
 -1       233 1.54255E-03 5.51497E-04 1.42498E-15
 -1       234 1.83704E-03 6.08145E-04 2.09294E-15
 -1       235 2.12833E-03 6.61480E-04 2.88104E-15
 -1       236 2.41481E-03 7.11380E-04 3.78627E-15
 -1       237 2.69467E-03 7.54600E-04 4.80551E-15
 -1       238 2.96669E-03 7.85081E-04 5.93575E-15
 -1       239 3.23111E-03 7.95099E-04 7.16977E-15
 -1       240 3.49002E-03 7.77328E-04 8.50570E-15
 -1       241 3.74716E-03 7.27246E-04 9.93743E-15
 -1       242 4.00699E-03 6.44872E-04 1.14583E-14
 -1       243 4.27344E-03 5.34925E-04 1.30632E-14
 -1       244 4.54882E-03 4.05376E-04 1.47454E-14
 -1       245 4.83356E-03 2.65157E-04 1.64999E-14
 -1       246 5.12640E-03 1.22102E-04 1.83215E-14
 -1       247 5.42516E-03-1.82244E-05 2.02060E-14
 -1       248 5.72737E-03-1.52730E-04 2.21450E-14
 -1       249 6.03084E-03-2.80371E-04 2.41291E-14
 -1       250 6.33387E-03-4.01473E-04 2.61560E-14
 -1       251 6.63536E-03-5.17100E-04 2.82206E-14
 -1       252 6.93471E-03-6.28572E-04 3.03241E-14
 -1       253 7.23171E-03-7.37173E-04 3.24668E-14
 -1       254 7.52643E-03-8.43994E-04 3.46391E-14
 -1       255 7.81908E-03-9.49886E-04 3.68374E-14
 -1       256 8.10996E-03-1.05546E-03 3.90599E-14
 -1       257 8.39939E-03-1.16113E-03 4.12987E-14
 -1       258 8.68767E-03-1.26714E-03 4.35476E-14
 -1       259 8.97507E-03-1.37362E-03 4.58084E-14
 -1       260 9.26182E-03-1.48062E-03 4.80844E-14
 -1       261 9.54810E-03-1.58813E-03 5.03701E-14
 -1       262 9.83406E-03-1.69612E-03 5.26701E-14
 -1       263 1.01198E-02-1.80452E-03 5.49805E-14
 -1       264 1.04054E-02-1.91328E-03 5.73027E-14
 -1       265 1.06910E-02-2.02233E-03 5.96453E-14
 -1       266 1.09765E-02-2.13162E-03 6.19923E-14
 -1       267 1.12620E-02-2.24109E-03 6.43436E-14
 -1       268 1.15475E-02-2.35071E-03 6.67017E-14
 -1       269 1.18330E-02-2.46045E-03 6.90601E-14
 -1       270 1.21186E-02-2.57026E-03 7.14168E-14
 -1       271 1.24042E-02-2.68012E-03 7.37702E-14
 -1       272 1.26898E-02-2.79003E-03 7.61210E-14
 -1       273 1.29754E-02-2.89996E-03 7.84775E-14
 -1       274 1.32611E-02-3.00990E-03 8.08321E-14
 -1       275 1.35468E-02-3.11984E-03 8.31893E-14
 -1       276 1.38325E-02-3.22977E-03 8.55365E-14
 -1       277 1.41182E-02-3.33969E-03 8.78875E-14
 -1       278 1.42504E-02-3.42296E-03 8.81020E-14
 -1       279 1.43585E-02-3.50726E-03 8.78319E-14
 -1       280 1.44665E-02-3.59157E-03 8.75524E-14
 -1       281 1.45746E-02-3.67588E-03 8.72539E-14
 -1       282 1.46808E-02-3.75879E-03 8.69553E-14
 -1       283 1.47889E-02-3.84313E-03 8.66497E-14
 -1       284 1.48969E-02-3.92748E-03 8.63401E-14
 -1       285 1.50051E-02-4.01183E-03 8.60376E-14
 -1       286 1.51132E-02-4.09619E-03 8.57478E-14
 -1       287 1.52214E-02-4.18054E-03 8.54805E-14
 -1       288 1.53278E-02-4.26345E-03 8.52227E-14
 -1       289 1.54360E-02-4.34778E-03 8.49708E-14
 -1       290 1.55442E-02-4.43210E-03 8.47302E-14
 -1       291 1.56524E-02-4.51641E-03 8.44896E-14
 -1       292 1.57529E-02-4.58817E-03 8.44321E-14
 -1       293 6.44545E-03-6.76516E-04 1.25809E-14
 -1       294 6.25253E-03-5.71433E-04 1.25182E-14
 -1       295 5.95177E-03-4.20781E-04 1.21686E-14
 -1       296 5.59363E-03-2.39367E-04 1.16678E-14
 -1       297 5.19321E-03-4.71729E-05 1.10672E-14
 -1       298 4.76307E-03 1.36652E-04 1.03932E-14
 -1       299 4.38745E-03 2.74687E-04 9.59150E-15
 -1       300 4.01396E-03 3.46614E-04 8.82585E-15
 -1       301 3.63925E-03 3.39010E-04 8.02723E-15
 -1       302 3.24934E-03 2.49541E-04 7.29661E-15
 -1       303 2.88009E-03 1.21478E-04 6.66651E-15
 -1       304 2.53550E-03-1.98684E-05 6.14695E-15
 -1       305 2.22855E-03-1.54806E-04 5.72742E-15
 -1       306 1.98814E-03-2.72187E-04 5.41052E-15
 -1       307 1.85109E-03-3.72355E-04 5.20625E-15
 -1       308 1.84656E-03-4.69240E-04 5.12390E-15
 -1       309 1.98967E-03-5.79959E-04 5.14529E-15
 -1       310 2.24727E-03-7.33218E-04 5.33311E-15
 -1       311 2.58558E-03-9.18314E-04 5.60569E-15
 -1       312 3.02303E-03-1.14224E-03 5.98097E-15
 -1       313 3.46837E-03-1.39450E-03 6.55389E-15
 -1       314 3.89263E-03-1.58564E-03 7.21585E-15
 -1       315 4.30202E-03-1.67875E-03 7.93862E-15
 -1       316 4.70745E-03-1.66285E-03 8.74810E-15
 -1       317 5.12268E-03-1.53395E-03 9.56309E-15
 -1       318 5.51468E-03-1.36017E-03 1.03353E-14
 -1       319 5.88946E-03-1.17209E-03 1.10605E-14
 -1       320 6.19842E-03-1.00783E-03 1.16734E-14
 -1       321 6.40880E-03-8.75068E-04 1.21760E-14
 -1       322 6.50164E-03-7.72047E-04 1.25248E-14
 -1       323 4.67305E-04-1.15693E-04 1.63074E-16
 -1       324 5.05737E-04-1.64753E-04 1.31310E-16
 -1       325 4.15215E-04-6.33423E-05 1.97210E-16
 -1       326 4.01317E-04-5.01299E-05 2.07235E-16
 -1       327 3.95806E-04-3.98061E-05 2.14354E-16
 -1       328 3.97694E-04-2.87010E-05 2.19670E-16
 -1       329 4.05142E-04-1.41411E-05 2.23424E-16
 -1       330 4.16023E-04 5.38060E-06 2.25890E-16
 -1       331 4.28343E-04 2.99393E-05 2.27215E-16
 -1       332 4.41600E-04 6.04706E-05 2.26422E-16
 -1       333 4.55846E-04 9.69197E-05 2.21919E-16
 -1       334 4.73115E-04 1.40725E-04 2.11406E-16
 -1       335 4.98769E-04 1.95836E-04 1.89356E-16
 -1       336 5.59330E-04 2.51426E-04 1.90010E-16
 -1       337 8.69733E-04 3.50197E-04 4.70618E-16
 -1       338 9.32514E-04-2.86282E-04 4.18387E-16
 -1       339 1.25014E-03-3.48096E-04 7.66209E-16
 -1       340 1.57131E-03-4.05565E-04 1.21828E-15
 -1       341 1.90002E-03-4.72223E-04 1.77241E-15
 -1       342 2.24120E-03-5.64680E-04 2.42477E-15
 -1       343 2.60107E-03-7.02971E-04 3.17299E-15
 -1       344 2.98568E-03-9.07018E-04 4.01722E-15
 -1       345 3.39443E-03-1.18278E-03 4.96119E-15
 -1       346 3.81313E-03-1.49247E-03 6.01402E-15
 -1       347 4.20208E-03-1.72044E-03 7.12962E-15
 -1       348 4.60266E-03-1.77783E-03 8.43048E-15
 -1       349 5.01367E-03-1.64753E-03 9.85267E-15
 -1       350 5.43410E-03-1.44795E-03 1.13788E-14
 -1       351 5.84530E-03-1.28786E-03 1.29913E-14
 -1       352 6.23246E-03-1.20440E-03 1.46789E-14
 -1       353 6.59505E-03-1.19223E-03 1.64319E-14
 -1       354 6.93857E-03-1.23278E-03 1.82414E-14
 -1       355 7.26841E-03-1.30820E-03 2.01041E-14
 -1       356 7.58827E-03-1.40501E-03 2.20199E-14
 -1       357 7.90054E-03-1.51408E-03 2.39828E-14
 -1       358 8.20683E-03-1.62961E-03 2.59889E-14
 -1       359 8.50833E-03-1.74811E-03 2.80379E-14
 -1       360 8.80603E-03-1.86755E-03 3.01316E-14
 -1       361 9.10070E-03-1.98678E-03 3.22620E-14
 -1       362 9.39302E-03-2.10524E-03 3.44248E-14
 -1       363 9.68352E-03-2.22267E-03 3.66183E-14
 -1       364 9.97263E-03-2.33901E-03 3.88418E-14
 -1       365 1.02607E-02-2.45429E-03 4.10924E-14
 -1       366 1.05480E-02-2.56861E-03 4.33528E-14
 -1       367 1.08347E-02-2.68208E-03 4.56085E-14
 -1       368 1.11211E-02-2.79482E-03 4.78580E-14
 -1       369 1.14071E-02-2.90696E-03 5.01087E-14
 -1       370 1.16930E-02-3.01858E-03 5.23569E-14
 -1       371 1.19787E-02-3.12981E-03 5.46079E-14
 -1       372 1.22644E-02-3.24071E-03 5.68656E-14
 -1       373 1.25501E-02-3.35135E-03 5.91429E-14
 -1       374 1.28357E-02-3.46181E-03 6.14275E-14
 -1       375 1.31213E-02-3.57211E-03 6.37058E-14
 -1       376 1.34069E-02-3.68230E-03 6.59815E-14
 -1       377 1.36925E-02-3.79242E-03 6.82575E-14
 -1       378 1.39782E-02-3.90247E-03 7.05359E-14
 -1       379 1.42638E-02-4.01250E-03 7.28090E-14
 -1       380 1.45495E-02-4.12250E-03 7.50847E-14
 -1       381 1.48352E-02-4.23249E-03 7.73553E-14
 -1       382 1.51208E-02-4.34248E-03 7.96045E-14
 -1       383 1.54065E-02-4.45249E-03 8.18211E-14
 -1       384 1.34613E-03 4.43482E-04 1.20928E-15
 -1       385 1.64752E-03 5.02313E-04 1.81693E-15
 -1       386 1.94707E-03 5.57265E-04 2.54321E-15
 -1       387 2.24430E-03 6.09994E-04 3.38453E-15
 -1       388 2.53796E-03 6.59007E-04 4.33885E-15
 -1       389 2.82660E-03 6.99469E-04 5.40469E-15
 -1       390 3.10936E-03 7.23753E-04 6.57722E-15
 -1       391 3.38667E-03 7.23127E-04 7.85261E-15
 -1       392 3.66071E-03 6.90466E-04 9.22703E-15
 -1       393 3.93494E-03 6.22958E-04 1.06944E-14
 -1       394 4.21286E-03 5.23378E-04 1.22506E-14
 -1       395 4.49685E-03 3.99199E-04 1.38871E-14
 -1       396 4.78748E-03 2.60107E-04 1.55989E-14
 -1       397 5.08380E-03 1.15318E-04 1.73820E-14
 -1       398 5.38400E-03-2.81962E-05 1.92297E-14
 -1       399 5.68614E-03-1.66253E-04 2.11333E-14
 -1       400 5.98855E-03-2.97119E-04 2.30861E-14
 -1       401 6.29005E-03-4.20788E-04 2.50853E-14
 -1       402 6.58992E-03-5.38232E-04 2.71237E-14
 -1       403 6.88782E-03-6.50829E-04 2.92031E-14
 -1       404 7.18366E-03-7.59989E-04 3.13182E-14
 -1       405 7.47755E-03-8.66948E-04 3.34683E-14
 -1       406 7.76969E-03-9.72692E-04 3.56480E-14
 -1       407 8.06031E-03-1.07795E-03 3.78526E-14
 -1       408 8.34969E-03-1.18321E-03 4.00780E-14
 -1       409 8.63805E-03-1.28878E-03 4.23167E-14
 -1       410 8.92562E-03-1.39484E-03 4.45680E-14
 -1       411 9.21259E-03-1.50145E-03 4.68308E-14
 -1       412 9.49910E-03-1.60862E-03 4.91079E-14
 -1       413 9.78528E-03-1.71632E-03 5.13985E-14
 -1       414 1.00712E-02-1.82448E-03 5.36996E-14
 -1       415 1.03570E-02-1.93305E-03 5.60105E-14
 -1       416 1.06427E-02-2.04195E-03 5.83380E-14
 -1       417 1.09284E-02-2.15112E-03 6.06774E-14
 -1       418 1.12140E-02-2.26051E-03 6.30212E-14
 -1       419 1.14996E-02-2.37007E-03 6.53686E-14
 -1       420 1.17852E-02-2.47976E-03 6.77194E-14
 -1       421 1.20708E-02-2.58954E-03 7.00637E-14
 -1       422 1.23564E-02-2.69939E-03 7.24059E-14
 -1       423 1.26421E-02-2.80928E-03 7.47498E-14
 -1       424 1.29277E-02-2.91921E-03 7.70985E-14
 -1       425 1.32134E-02-3.02915E-03 7.94488E-14
 -1       426 1.34991E-02-3.13909E-03 8.17996E-14
 -1       427 1.37848E-02-3.24903E-03 8.41457E-14
 -1       428 1.40176E-02-3.33600E-03 8.61236E-14
 -1       429 1.42731E-02-3.53853E-03 8.54009E-14
 -1       430 1.41651E-02-3.45422E-03 8.56841E-14
 -1       431 1.43793E-02-3.62142E-03 8.51117E-14
 -1       432 1.44874E-02-3.70575E-03 8.48199E-14
 -1       433 1.45954E-02-3.79009E-03 8.45258E-14
 -1       434 1.47036E-02-3.87443E-03 8.42337E-14
 -1       435 1.48117E-02-3.95877E-03 8.39465E-14
 -1       436 1.49199E-02-4.04311E-03 8.36728E-14
 -1       437 1.50262E-02-4.12602E-03 8.34150E-14
 -1       438 1.51344E-02-4.21035E-03 8.31683E-14
 -1       439 1.52427E-02-4.29467E-03 8.29324E-14
 -1       440 1.53509E-02-4.37898E-03 8.26969E-14
 -1       441 1.10869E-03 4.01666E-04 7.99067E-16
 -1       442 6.07231E-03-5.88481E-04 1.31666E-14
 -1       443 5.30054E-03-2.14310E-04 1.19571E-14
 -1       444 6.51053E-03-7.56275E-04 1.34815E-14
 -1       445 5.70477E-03-4.11217E-04 1.25260E-14
 -1       446 4.37350E-04-8.37007E-05 1.83488E-16
 -1       447 4.90663E-03-1.99781E-07 1.12355E-14
 -1       448 4.47129E-03 2.29019E-04 1.02241E-14
 -1       449 4.18320E-03 3.39639E-04 9.43222E-15
 -1       450 3.82914E-03 3.89805E-04 8.46712E-15
 -1       451 3.45721E-03 3.13019E-04 7.49335E-15
 -1       452 3.11905E-03 1.81607E-04 6.78237E-15
 -1       453 2.76169E-03 1.60909E-05 6.10384E-15
 -1       454 2.41377E-03-1.38483E-04 5.59817E-15
 -1       455 2.11033E-03-2.62875E-04 5.17007E-15
 -1       456 1.89642E-03-3.45077E-04 4.93358E-15
 -1       457 1.80994E-03-3.97840E-04 4.68171E-15
 -1       458 1.88750E-03-4.53620E-04 4.67416E-15
 -1       459 2.13953E-03-5.61876E-04 4.82116E-15
 -1       460 2.46857E-03-7.22666E-04 5.08889E-15
 -1       461 2.86267E-03-9.23757E-04 5.37361E-15
 -1       462 3.35791E-03-1.23732E-03 5.96798E-15
 -1       463 3.78841E-03-1.50982E-03 6.65709E-15
 -1       464 4.14794E-03-1.67785E-03 7.45392E-15
 -1       465 4.49202E-03-1.72672E-03 8.27506E-15
 -1       466 4.90329E-03-1.62032E-03 9.36658E-15
 -1       467 5.21725E-03-1.46344E-03 1.01329E-14
 -1       468 5.65158E-03-1.22309E-03 1.11194E-14
 -1       469 6.01721E-03-1.02818E-03 1.19847E-14
 -1       470 6.30228E-03-8.96988E-04 1.25642E-14
 -1       471 6.49099E-03-8.12256E-04 1.33442E-14
 -1       472 6.39475E-03-7.04151E-04 1.34193E-14
 -1       473 5.98807E-04-7.15978E-05 4.46735E-16
 -1       474 6.14071E-04-8.94807E-05 4.30665E-16
 -1       475 6.06907E-04-3.36049E-05 4.67671E-16
 -1       476 6.23712E-04-6.36838E-06 4.73881E-16
 -1       477 6.43762E-04 2.76788E-05 4.77737E-16
 -1       478 6.65359E-04 6.96984E-05 4.78787E-16
 -1       479 6.87542E-04 1.18924E-04 4.74952E-16
 -1       480 7.11767E-04 1.75688E-04 4.63432E-16
 -1       481 7.42393E-04 2.41652E-04 4.39810E-16
 -1       482 8.02649E-04 2.93754E-04 4.58960E-16
 -1       483 1.01543E-03-2.51769E-04 6.45720E-16
 -1       484 5.84782E-03-5.38990E-04 1.35319E-14
 -1       485 5.49803E-03-3.72217E-04 1.29418E-14
 -1       486 1.31259E-03-3.05704E-04 1.06269E-15
 -1       487 1.61106E-03-3.60561E-04 1.58024E-15
 -1       488 1.91441E-03-4.28051E-04 2.19512E-15
 -1       489 2.23049E-03-5.23837E-04 2.90434E-15
 -1       490 2.57248E-03-6.69155E-04 3.70570E-15
 -1       491 2.95838E-03-8.91583E-04 4.60051E-15
 -1       492 3.44686E-03-1.23653E-03 5.57106E-15
 -1       493 3.92020E-03-1.56938E-03 6.64072E-15
 -1       494 5.30049E-03-1.44389E-03 1.07353E-14
 -1       495 5.76734E-03-1.21263E-03 1.23543E-14
 -1       496 6.15184E-03-1.10888E-03 1.40165E-14
 -1       497 6.49400E-03-1.08657E-03 1.57467E-14
 -1       498 6.80966E-03-1.11965E-03 1.75330E-14
 -1       499 7.11219E-03-1.18855E-03 1.93756E-14
 -1       500 7.40887E-03-1.28008E-03 2.12721E-14
 -1       501 7.70303E-03-1.38536E-03 2.32166E-14
 -1       502 7.99591E-03-1.49849E-03 2.52054E-14
 -1       503 8.28786E-03-1.61569E-03 2.72344E-14
 -1       504 8.57893E-03-1.73458E-03 2.93045E-14
 -1       505 8.86912E-03-1.85378E-03 3.14122E-14
 -1       506 9.15848E-03-1.97249E-03 3.35540E-14
 -1       507 9.44707E-03-2.09031E-03 3.57289E-14
 -1       508 9.73500E-03-2.20710E-03 3.79310E-14
 -1       509 1.00224E-02-2.32284E-03 4.01628E-14
 -1       510 1.03093E-02-2.43757E-03 4.24161E-14
 -1       511 1.05959E-02-2.55141E-03 4.46730E-14
 -1       512 1.08821E-02-2.66447E-03 4.69267E-14
 -1       513 1.11682E-02-2.77686E-03 4.91836E-14
 -1       514 1.14542E-02-2.88870E-03 5.14409E-14
 -1       515 1.17400E-02-3.00010E-03 5.36961E-14
 -1       516 1.20258E-02-3.11113E-03 5.59579E-14
 -1       517 1.23115E-02-3.22188E-03 5.82314E-14
 -1       518 1.25972E-02-3.33241E-03 6.05139E-14
 -1       519 1.28829E-02-3.44278E-03 6.27904E-14
 -1       520 1.31686E-02-3.55301E-03 6.50629E-14
 -1       521 1.34542E-02-3.66316E-03 6.73373E-14
 -1       522 1.37399E-02-3.77323E-03 6.96199E-14
 -1       523 1.40256E-02-3.88327E-03 7.18937E-14
 -1       524 1.43113E-02-3.99327E-03 7.41630E-14
 -1       525 1.45970E-02-4.10327E-03 7.64317E-14
 -1       526 1.48827E-02-4.21325E-03 7.86878E-14
 -1       527 1.51168E-02-4.29611E-03 8.06994E-14
 -1       528 2.06893E-03 5.02071E-04 2.99482E-15
 -1       529 1.76275E-03 4.49004E-04 2.21434E-15
 -1       530 1.45731E-03 3.94544E-04 1.54734E-15
 -1       531 2.37477E-03 5.54280E-04 3.88620E-15
 -1       532 2.67840E-03 6.02748E-04 4.88786E-15
 -1       533 2.97762E-03 6.40761E-04 5.99741E-15
 -1       534 3.27106E-03 6.58567E-04 7.21239E-15
 -1       535 3.55934E-03 6.45915E-04 8.52839E-15
 -1       536 3.84542E-03 5.96017E-04 9.94142E-15
 -1       537 4.13343E-03 5.08702E-04 1.14458E-14
 -1       538 4.42659E-03 3.90696E-04 1.30371E-14
 -1       539 4.72580E-03 2.52869E-04 1.47064E-14
 -1       540 5.02976E-03 1.06388E-04 1.64486E-14
 -1       541 5.33609E-03-4.00498E-05 1.82606E-14
 -1       542 5.64244E-03-1.81160E-04 2.01304E-14
 -1       543 5.94717E-03-3.14666E-04 2.20517E-14
 -1       544 6.24940E-03-4.40370E-04 2.40204E-14
 -1       545 6.54890E-03-5.59241E-04 2.60323E-14
 -1       546 6.84578E-03-6.72732E-04 2.80863E-14
 -1       547 7.14034E-03-7.82355E-04 3.01783E-14
 -1       548 7.43294E-03-8.89453E-04 3.23048E-14
 -1       549 7.72393E-03-9.95106E-04 3.44643E-14
 -1       550 8.01363E-03-1.10012E-03 3.66508E-14
 -1       551 8.30230E-03-1.20506E-03 3.88601E-14
 -1       552 8.59018E-03-1.31027E-03 4.10877E-14
 -1       553 8.87744E-03-1.41597E-03 4.33309E-14
 -1       554 9.16424E-03-1.52224E-03 4.55825E-14
 -1       555 9.45069E-03-1.62911E-03 4.78478E-14
 -1       556 9.73688E-03-1.73654E-03 5.01291E-14
 -1       557 1.00229E-02-1.84448E-03 5.24223E-14
 -1       558 1.03088E-02-1.95286E-03 5.47266E-14
 -1       559 1.05945E-02-2.06161E-03 5.70402E-14
 -1       560 1.08803E-02-2.17067E-03 5.93678E-14
 -1       561 1.11660E-02-2.27997E-03 6.17071E-14
 -1       562 1.14516E-02-2.38946E-03 6.40456E-14
 -1       563 1.17373E-02-2.49910E-03 6.63873E-14
 -1       564 1.20230E-02-2.60884E-03 6.87221E-14
 -1       565 1.23086E-02-2.71867E-03 7.10545E-14
 -1       566 1.25943E-02-2.82855E-03 7.33894E-14
 -1       567 1.28800E-02-2.93846E-03 7.57266E-14
 -1       568 1.31657E-02-3.04840E-03 7.80674E-14
 -1       569 1.34514E-02-3.15835E-03 8.04101E-14
 -1       570 1.37371E-02-3.26830E-03 8.27552E-14
 -1       571 1.41859E-02-3.56837E-03 8.29798E-14
 -1       572 1.40797E-02-3.48548E-03 8.32572E-14
 -1       573 1.39717E-02-3.40117E-03 8.35333E-14
 -1       574 6.27652E-03-7.09058E-04 1.43579E-14
 -1       575 1.42940E-02-3.65270E-03 8.26959E-14
 -1       576 1.44020E-02-3.73703E-03 8.24143E-14
 -1       577 1.45102E-02-3.82137E-03 8.21377E-14
 -1       578 1.46183E-02-3.90570E-03 8.18668E-14
 -1       579 1.47247E-02-3.98861E-03 8.16113E-14
 -1       580 1.48329E-02-4.07294E-03 8.13661E-14
 -1       581 1.49411E-02-4.15726E-03 8.11288E-14
 -1       582 1.50289E-02-4.22669E-03 8.09129E-14
 -1       583 7.35611E-04-1.85795E-04 3.64665E-16
 -1       584 5.07469E-03-1.44165E-04 1.22076E-14
 -1       585 6.57567E-03-8.09968E-04 1.45880E-14
 -1       586 6.41434E-03-8.68739E-04 1.37619E-14
 -1       587 4.70004E-03-1.72659E-03 8.82436E-15
 -1       588 5.97335E-04-5.44405E-05 4.58831E-16
 -1       589 4.64351E-03 1.11394E-04 1.11428E-14
 -1       590 3.59785E-03 3.73919E-04 7.79715E-15
 -1       591 4.27244E-03 3.03734E-04 1.00396E-14
 -1       592 5.83644E-03-1.12084E-03 1.21012E-14
 -1       593 3.97021E-03 3.94584E-04 9.04201E-15
 -1       594 3.26603E-03 2.55898E-04 6.88235E-15
 -1       595 2.96237E-03 1.14429E-04 6.20045E-15
 -1       596 2.56556E-03-7.32695E-05 5.48029E-15
 -1       597 2.24245E-03-2.06017E-04 4.95433E-15
 -1       598 1.95413E-03-3.10838E-04 4.62734E-15
 -1       599 1.81033E-03-3.55371E-04 4.38208E-15
 -1       600 1.79885E-03-3.83708E-04 4.17566E-15
 -1       601 1.98464E-03-4.50219E-04 4.30046E-15
 -1       602 2.31391E-03-5.83102E-04 4.55322E-15
 -1       603 2.64687E-03-7.44866E-04 4.81269E-15
 -1       604 3.08982E-03-1.02043E-03 5.36257E-15
 -1       605 4.33400E-03-1.74304E-03 7.71630E-15
 -1       606 5.45242E-03-1.33678E-03 1.10684E-14
 -1       607 6.20269E-03-9.51625E-04 1.31595E-14
 -1       608 6.49005E-03-7.68942E-04 1.44391E-14
 -1       609 6.43769E-04-1.13449E-04 4.09002E-16
 -1       610 1.04251E-03 3.45125E-04 7.76977E-16
 -1       611 6.11169E-03-6.66151E-04 1.47273E-14
 -1       612 6.58558E-03-8.55641E-04 1.50135E-14
 -1       613 1.24949E-03 3.72768E-04 1.13157E-15
 -1       614 3.74658E-03 4.13957E-04 8.34263E-15
 -1       615 8.57780E-04 1.29231E-05 8.12254E-16
 -1       616 8.28626E-04-3.00419E-05 8.03661E-16
 -1       617 9.19541E-04 1.24752E-04 8.15862E-16
 -1       618 9.50497E-04 1.91970E-04 8.06785E-16
 -1       619 9.80658E-04 2.90964E-04 7.47869E-16
 -1       620 4.85099E-03-2.37460E-05 1.22078E-14
 -1       621 5.68168E-03-4.85877E-04 1.40507E-14
 -1       622 1.08373E-03-2.24489E-04 9.00501E-16
 -1       623 1.35536E-03-2.72998E-04 1.38273E-15
 -1       624 1.62388E-03-3.25167E-04 1.96276E-15
 -1       625 1.89221E-03-3.90023E-04 2.63571E-15
 -1       626 2.16937E-03-4.81168E-04 3.39768E-15
 -1       627 6.45863E-03-7.80790E-04 1.54975E-14
 -1       628 6.60845E-03-8.23854E-04 1.56530E-14
 -1       629 6.44411E-03-9.83090E-04 1.50569E-14
 -1       630 6.72077E-03-1.01612E-03 1.68217E-14
 -1       631 6.98820E-03-1.08175E-03 1.86401E-14
 -1       632 7.25593E-03-1.16822E-03 2.05155E-14
 -1       633 7.52726E-03-1.26829E-03 2.24422E-14
 -1       634 7.80271E-03-1.37706E-03 2.44130E-14
 -1       635 8.08167E-03-1.49101E-03 2.64249E-14
 -1       636 8.36327E-03-1.60771E-03 2.84754E-14
 -1       637 8.64666E-03-1.72554E-03 3.05625E-14
 -1       638 8.93122E-03-1.84350E-03 3.26836E-14
 -1       639 9.21646E-03-1.96098E-03 3.48422E-14
 -1       640 9.50209E-03-2.07769E-03 3.70301E-14
 -1       641 9.78791E-03-2.19348E-03 3.92434E-14
 -1       642 1.00738E-02-2.30836E-03 4.14815E-14
 -1       643 1.03597E-02-2.42238E-03 4.37347E-14
 -1       644 1.06456E-02-2.53562E-03 4.59923E-14
 -1       645 1.09315E-02-2.64819E-03 4.82472E-14
 -1       646 1.12173E-02-2.76018E-03 5.05115E-14
 -1       647 1.15031E-02-2.87171E-03 5.27712E-14
 -1       648 1.17889E-02-2.98286E-03 5.50388E-14
 -1       649 1.20747E-02-3.09370E-03 5.73079E-14
 -1       650 1.23604E-02-3.20430E-03 5.95863E-14
 -1       651 1.26461E-02-3.31471E-03 6.18677E-14
 -1       652 1.29318E-02-3.42499E-03 6.41400E-14
 -1       653 1.32176E-02-3.53516E-03 6.64126E-14
 -1       654 1.35033E-02-3.64526E-03 6.86960E-14
 -1       655 1.37890E-02-3.75531E-03 7.09749E-14
 -1       656 1.40747E-02-3.86533E-03 7.32462E-14
 -1       657 1.43604E-02-3.97532E-03 7.55112E-14
 -1       658 1.46461E-02-4.08531E-03 7.77650E-14
 -1       659 1.48375E-02-4.15600E-03 7.93430E-14
 -1       660 1.88625E-03 3.89941E-04 2.61818E-15
 -1       661 2.20106E-03 4.41314E-04 3.44886E-15
 -1       662 1.57534E-03 3.40194E-04 1.89650E-15
 -1       663 2.83307E-03 5.43911E-04 5.43277E-15
 -1       664 3.14328E-03 5.81195E-04 6.58451E-15
 -1       665 3.44636E-03 5.92483E-04 7.84079E-15
 -1       666 3.74395E-03 5.65088E-04 9.19782E-15
 -1       667 4.04104E-03 4.93425E-04 1.06511E-14
 -1       668 4.34289E-03 3.82340E-04 1.21940E-14
 -1       669 4.65172E-03 2.44583E-04 1.38214E-14
 -1       670 4.96595E-03 9.47942E-05 1.55246E-14
 -1       671 5.28189E-03-5.55194E-05 1.72985E-14
 -1       672 5.59597E-03-1.99698E-04 1.91343E-14
 -1       673 5.90597E-03-3.35174E-04 2.10242E-14
 -1       674 6.21108E-03-4.61958E-04 2.29627E-14
 -1       675 6.51152E-03-5.81321E-04 2.49466E-14
 -1       676 6.80799E-03-6.94961E-04 2.69742E-14
 -1       677 7.10135E-03-8.04540E-04 2.90423E-14
 -1       678 7.39240E-03-9.11484E-04 3.11463E-14
 -1       679 7.68179E-03-1.01692E-03 3.32842E-14
 -1       680 7.97001E-03-1.12169E-03 3.54531E-14
 -1       681 8.25742E-03-1.22635E-03 3.76452E-14
 -1       682 8.54429E-03-1.33130E-03 3.98608E-14
 -1       683 8.83078E-03-1.43673E-03 4.20923E-14
 -1       684 9.11702E-03-1.54275E-03 4.43363E-14
 -1       685 9.40308E-03-1.64940E-03 4.65919E-14
 -1       686 9.68903E-03-1.75663E-03 4.88624E-14
 -1       687 9.97490E-03-1.86440E-03 5.11479E-14
 -1       688 1.02607E-02-1.97263E-03 5.34448E-14
 -1       689 1.05465E-02-2.08126E-03 5.57514E-14
 -1       690 1.08322E-02-2.19022E-03 5.80700E-14
 -1       691 1.11180E-02-2.29944E-03 6.03974E-14
 -1       692 1.14037E-02-2.40887E-03 6.27284E-14
 -1       693 1.16894E-02-2.51846E-03 6.50590E-14
 -1       694 1.19751E-02-2.62816E-03 6.73871E-14
 -1       695 1.22608E-02-2.73796E-03 6.97126E-14
 -1       696 1.25465E-02-2.84782E-03 7.20391E-14
 -1       697 1.28322E-02-2.95773E-03 7.43642E-14
 -1       698 1.31179E-02-3.06766E-03 7.66912E-14
 -1       699 1.34036E-02-3.17761E-03 7.90253E-14
 -1       700 1.36876E-02-3.28939E-03 8.12795E-14
 -1       701 1.38853E-02-3.43171E-03 8.11172E-14
 -1       702 1.41005E-02-3.59964E-03 8.05782E-14
 -1       703 1.37865E-02-3.36055E-03 8.12004E-14
 -1       704 1.39929E-02-3.51567E-03 8.08479E-14
 -1       705 1.43168E-02-3.76830E-03 8.00516E-14
 -1       706 1.44231E-02-3.85120E-03 7.97993E-14
 -1       707 1.45313E-02-3.93553E-03 7.95548E-14
 -1       708 1.46395E-02-4.01985E-03 7.93160E-14
 -1       709 6.39198E-03-9.30345E-04 1.43579E-14
 -1       710 2.00213E-03-2.47780E-04 4.25998E-15
 -1       711 1.42086E-02-3.68397E-03 8.03142E-14
 -1       712 2.36326E-03-1.16750E-04 4.83089E-15
 -1       713 6.07072E-03-1.05726E-03 1.32831E-14
 -1       714 2.10787E-03-4.64001E-04 3.86759E-15
 -1       715 8.88829E-04 6.48392E-05 8.16855E-16
 -1       716 4.11268E-03 3.64054E-04 9.77034E-15
 -1       717 3.06980E-03 2.06273E-04 6.26216E-15
 -1       718 1.85806E-03-3.81962E-04 3.75222E-15
 -1       719 2.71881E-03 3.62784E-05 5.49825E-15
 -1       720 1.83233E-03-3.01715E-04 4.02776E-15
 -1       721 1.72914E-03-3.35679E-04 3.80648E-15
 -1       722 2.37222E-03-5.74913E-04 4.10152E-15
 -1       723 8.07311E-04-1.11958E-04 7.52152E-16
 -1       724 2.51777E-03 4.94124E-04 4.38729E-15
 -1       725 3.37641E-03 3.40013E-04 7.10604E-15
 -1       726 4.44393E-03 2.15120E-04 1.09494E-14
 -1       727 5.30244E-03-2.89172E-04 1.32897E-14
 -1       728 8.06407E-04-6.35928E-05 7.91203E-16
 -1       729 6.68676E-03-8.64409E-04 1.60879E-14
 -1       730 8.62681E-04-1.80863E-04 5.93794E-16
 -1       731 8.39017E-04-1.37489E-04 7.23563E-16
 -1       732 1.47385E-02-4.08793E-03 7.93296E-14
 -1       733 1.26911E-03 2.89647E-04 1.28717E-15
 -1       734 6.34447E-03-7.52020E-04 1.58741E-14
 -1       735 7.97467E-04-8.94145E-05 7.74483E-16
 -1       736 3.89639E-03 4.20132E-04 9.03699E-15
 -1       737 1.71011E-03-3.29046E-04 3.39914E-15
 -1       738 1.18962E-03 1.93298E-04 1.23590E-15
 -1       739 4.65789E-03 1.03220E-04 1.21548E-14
 -1       740 1.38457E-03-2.51411E-04 1.72731E-15
 -1       741 1.61676E-03-3.01459E-04 2.36631E-15
 -1       742 1.85694E-03-3.68412E-04 3.07720E-15
 -1       743 3.63201E-03 5.27934E-04 8.46574E-15
 -1       744 6.62328E-03-8.38848E-04 1.67889E-14
 -1       745 3.53622E-03 4.24992E-04 7.70462E-15
 -1       746 4.27622E-03 3.05295E-04 1.06778E-14
 -1       747 6.88782E-03-9.87322E-04 1.79107E-14
 -1       748 7.12007E-03-1.06897E-03 1.97605E-14
 -1       749 7.36484E-03-1.16253E-03 2.16671E-14
 -1       750 7.62026E-03-1.26497E-03 2.36204E-14
 -1       751 7.88410E-03-1.37362E-03 2.56166E-14
 -1       752 8.15434E-03-1.48624E-03 2.76502E-14
 -1       753 8.42929E-03-1.60113E-03 2.97203E-14
 -1       754 8.70762E-03-1.71705E-03 3.18221E-14
 -1       755 8.98833E-03-1.83319E-03 3.39616E-14
 -1       756 9.27068E-03-1.94904E-03 3.61369E-14
 -1       757 9.55417E-03-2.06433E-03 3.83362E-14
 -1       758 9.83844E-03-2.17893E-03 4.05586E-14
 -1       759 1.01232E-02-2.29282E-03 4.28021E-14
 -1       760 1.04084E-02-2.40601E-03 4.50550E-14
 -1       761 1.06937E-02-2.51859E-03 4.73140E-14
 -1       762 1.09792E-02-2.63062E-03 4.95771E-14
 -1       763 1.12648E-02-2.74219E-03 5.18409E-14
 -1       764 1.15505E-02-2.85339E-03 5.41117E-14
 -1       765 1.18362E-02-2.96427E-03 5.63835E-14
 -1       766 1.21220E-02-3.07492E-03 5.86599E-14
 -1       767 1.24077E-02-3.18537E-03 6.09436E-14
 -1       768 1.26935E-02-3.29568E-03 6.32199E-14
 -1       769 1.29792E-02-3.40588E-03 6.54919E-14
 -1       770 1.32650E-02-3.51600E-03 6.77699E-14
 -1       771 1.35507E-02-3.62606E-03 7.00521E-14
 -1       772 1.38365E-02-3.73608E-03 7.23315E-14
 -1       773 1.41222E-02-3.84608E-03 7.46005E-14
 -1       774 1.44079E-02-3.95607E-03 7.68543E-14
 -1       775 2.01448E-03 3.23521E-04 3.02805E-15
 -1       776 1.69647E-03 2.78489E-04 2.25712E-15
 -1       777 3.31993E-03 5.24849E-04 7.16797E-15
 -1       778 2.99821E-03 4.85737E-04 5.97397E-15
 -1       779 3.93911E-03 4.79288E-04 9.86439E-15
 -1       780 4.24955E-03 3.77870E-04 1.13593E-14
 -1       781 4.56864E-03 2.38346E-04 1.29429E-14
 -1       782 4.89524E-03 8.17124E-05 1.46061E-14
 -1       783 5.22382E-03-7.52779E-05 1.63434E-14
 -1       784 5.54863E-03-2.23586E-04 1.81460E-14
 -1       785 5.86627E-03-3.60639E-04 2.00051E-14
 -1       786 6.17585E-03-4.87334E-04 2.19128E-14
 -1       787 6.47810E-03-6.05823E-04 2.38684E-14
 -1       788 6.77450E-03-7.18393E-04 2.58681E-14
 -1       789 7.06662E-03-8.27005E-04 2.79093E-14
 -1       790 7.35582E-03-9.33186E-04 2.99918E-14
 -1       791 7.64317E-03-1.03806E-03 3.21093E-14
 -1       792 7.92941E-03-1.14243E-03 3.42573E-14
 -1       793 8.21505E-03-1.24681E-03 3.64342E-14
 -1       794 8.50043E-03-1.35155E-03 3.86343E-14
 -1       795 8.78572E-03-1.45683E-03 4.08553E-14
 -1       796 9.07103E-03-1.56273E-03 4.30893E-14
 -1       797 9.35641E-03-1.66926E-03 4.53359E-14
 -1       798 9.64186E-03-1.77639E-03 4.75972E-14
 -1       799 9.92739E-03-1.88408E-03 4.98740E-14
 -1       800 1.02130E-02-1.99224E-03 5.21657E-14
 -1       801 1.04986E-02-2.10080E-03 5.44651E-14
 -1       802 1.07843E-02-2.20970E-03 5.67743E-14
 -1       803 1.10700E-02-2.31887E-03 5.90920E-14
 -1       804 1.13558E-02-2.42825E-03 6.14149E-14
 -1       805 1.16415E-02-2.53781E-03 6.37360E-14
 -1       806 1.19272E-02-2.64749E-03 6.60573E-14
 -1       807 1.22130E-02-2.75727E-03 6.83755E-14
 -1       808 1.24987E-02-2.86711E-03 7.06953E-14
 -1       809 1.27844E-02-2.97701E-03 7.30121E-14
 -1       810 1.30702E-02-3.08693E-03 7.53235E-14
 -1       811 1.33559E-02-3.19688E-03 7.76397E-14
 -1       812 1.35712E-02-3.27871E-03 7.94191E-14
 -1       813 1.42298E-02-3.79813E-03 7.77343E-14
 -1       814 1.43380E-02-3.88245E-03 7.74964E-14
 -1       815 1.41234E-02-3.71523E-03 7.79757E-14
 -1       816 9.34459E-04-1.68065E-04 8.11976E-16
 -1       817 3.13748E-03 2.99069E-04 6.36199E-15
 -1       818 6.62926E-03-9.04414E-04 1.57273E-14
 -1       819 2.09096E-03-1.53827E-04 4.08283E-15
 -1       820 1.16254E-03-2.09377E-04 1.22946E-15
 -1       821 5.11405E-03-1.72577E-04 1.34792E-14
 -1       822 2.47272E-03-3.14984E-06 4.77583E-15
 -1       823 1.39071E-02-3.54657E-03 7.84755E-14
 -1       824 1.67214E-03-2.81485E-04 3.37020E-15
 -1       825 1.82519E-03-2.46621E-04 3.68409E-15
 -1       826 1.40152E-02-3.63090E-03 7.82221E-14
 -1       827 1.06795E-03-1.54037E-05 1.22486E-15
 -1       828 2.80940E-03 1.48642E-04 5.50093E-15
 -1       829 5.95773E-03-6.08400E-04 1.53812E-14
 -1       830 5.54493E-03-4.09974E-04 1.46865E-14
 -1       831 2.67010E-03 4.30863E-04 4.88660E-15
 -1       832 6.54938E-03-8.19029E-04 1.71749E-14
 -1       833 6.75225E-03-8.83535E-04 1.72348E-14
 -1       834 3.30273E-03 4.10284E-04 6.91790E-15
 -1       835 2.34011E-03 3.74452E-04 3.90462E-15
 -1       836 1.02316E-03-1.59281E-04 1.12453E-15
 -1       837 1.02881E-03-6.53910E-05 1.20897E-15
 -1       838 1.11054E-03 4.57680E-05 1.23560E-15
 -1       839 1.67131E-03-3.11723E-04 2.86471E-15
 -1       840 1.37995E-02-3.46260E-03 7.87261E-14
 -1       841 1.38711E-03 2.36567E-04 1.59342E-15
 -1       842 1.58899E-03-2.79017E-04 2.98640E-15
 -1       843 1.15150E-03 1.16226E-04 1.23999E-15
 -1       844 4.06285E-03 3.92798E-04 9.90773E-15
 -1       845 9.97824E-04-1.32581E-04 1.15977E-15
 -1       846 1.36919E-02-3.37864E-03 7.89807E-14
 -1       847 4.14411E-03 3.85273E-04 1.05362E-14
 -1       848 1.40522E-02-3.77247E-03 7.52502E-14
 -1       849 6.98683E-03-9.85368E-04 1.90032E-14
 -1       850 6.82445E-03-9.21291E-04 1.75305E-14
 -1       851 4.95513E-03-4.80728E-05 1.36378E-14
 -1       852 7.20570E-03-1.07049E-03 2.08846E-14
 -1       853 7.44209E-03-1.16479E-03 2.28185E-14
 -1       854 7.69151E-03-1.26635E-03 2.47978E-14
 -1       855 7.95067E-03-1.37323E-03 2.68168E-14
 -1       856 8.21708E-03-1.48369E-03 2.88699E-14
 -1       857 8.48888E-03-1.59632E-03 3.09555E-14
 -1       858 8.76462E-03-1.71009E-03 3.30805E-14
 -1       859 9.04326E-03-1.82428E-03 3.52401E-14
 -1       860 9.32398E-03-1.93842E-03 3.74256E-14
 -1       861 9.60622E-03-2.05224E-03 3.96357E-14
 -1       862 9.88953E-03-2.16561E-03 4.18656E-14
 -1       863 1.01736E-02-2.27847E-03 4.41150E-14
 -1       864 1.04583E-02-2.39083E-03 4.63711E-14
 -1       865 1.07433E-02-2.50274E-03 4.86336E-14
 -1       866 1.10286E-02-2.61424E-03 5.08988E-14
 -1       867 1.13141E-02-2.72539E-03 5.31696E-14
 -1       868 1.15996E-02-2.83626E-03 5.54464E-14
 -1       869 1.18853E-02-2.94690E-03 5.77270E-14
 -1       870 1.21710E-02-3.05736E-03 6.00096E-14
 -1       871 1.24568E-02-3.16768E-03 6.22901E-14
 -1       872 1.27426E-02-3.27789E-03 6.45636E-14
 -1       873 1.30283E-02-3.38802E-03 6.68368E-14
 -1       874 1.33141E-02-3.49809E-03 6.91201E-14
 -1       875 1.35999E-02-3.60812E-03 7.14066E-14
 -1       876 1.38261E-02-3.69030E-03 7.33346E-14
 -1       877 3.50538E-03 4.76650E-04 7.74709E-15
 -1       878 4.47347E-03 2.45419E-04 1.20752E-14
 -1       879 4.81333E-03 7.80907E-05 1.36996E-14
 -1       880 5.15674E-03-9.03800E-05 1.54002E-14
 -1       881 5.49421E-03-2.45240E-04 1.71686E-14
 -1       882 5.82094E-03-3.84442E-04 1.89992E-14
 -1       883 6.13572E-03-5.10388E-04 2.08776E-14
 -1       884 6.44004E-03-6.26876E-04 2.28043E-14
 -1       885 6.73632E-03-7.37239E-04 2.47753E-14
 -1       886 7.02701E-03-8.43952E-04 2.67924E-14
 -1       887 7.31411E-03-9.48706E-04 2.88486E-14
 -1       888 7.59912E-03-1.05261E-03 3.09466E-14
 -1       889 7.88308E-03-1.15636E-03 3.30767E-14
 -1       890 8.16667E-03-1.26039E-03 3.52359E-14
 -1       891 8.45028E-03-1.36495E-03 3.74201E-14
 -1       892 8.73411E-03-1.47015E-03 3.96287E-14
 -1       893 9.01826E-03-1.57602E-03 4.18517E-14
 -1       894 9.30274E-03-1.68255E-03 4.40899E-14
 -1       895 9.58753E-03-1.78969E-03 4.63440E-14
 -1       896 9.87258E-03-1.89738E-03 4.86122E-14
 -1       897 1.01578E-02-2.00554E-03 5.08976E-14
 -1       898 1.04433E-02-2.11410E-03 5.31917E-14
 -1       899 1.07288E-02-2.22299E-03 5.54921E-14
 -1       900 1.10144E-02-2.33215E-03 5.78000E-14
 -1       901 1.13001E-02-2.44152E-03 6.01172E-14
 -1       902 1.15858E-02-2.55106E-03 6.24323E-14
 -1       903 1.18716E-02-2.66073E-03 6.47446E-14
 -1       904 1.21573E-02-2.77049E-03 6.70585E-14
 -1       905 1.24431E-02-2.88033E-03 6.93707E-14
 -1       906 1.27289E-02-2.99021E-03 7.16813E-14
 -1       907 1.30146E-02-3.10013E-03 7.39831E-14
 -1       908 1.33004E-02-3.21007E-03 7.62836E-14
 -1       909 1.39291E-02-3.66144E-03 7.58984E-14
 -1       910 2.16233E-03-3.57754E-05 3.92904E-15
 -1       911 6.24916E-03-7.16098E-04 1.67069E-14
 -1       912 2.52963E-03 1.18049E-04 4.69075E-15
 -1       913 1.00205E-03-1.03358E-04 1.18770E-15
 -1       914 5.85824E-03-5.44879E-04 1.61320E-14
 -1       915 1.34566E-03 1.49644E-04 1.59872E-15
 -1       916 1.82736E-03-1.66543E-04 3.36446E-15
 -1       917 3.73768E-03 4.65343E-04 8.64229E-15
 -1       918 1.81573E-03 2.07546E-04 2.62718E-15
 -1       919 1.65186E-03-2.21297E-04 3.06895E-15
 -1       920 1.57687E-03 1.76920E-04 2.08288E-15
 -1       921 1.41413E-03-2.41526E-04 2.09676E-15
 -1       922 2.85874E-03 2.63138E-04 5.51408E-15
 -1       923 5.36178E-03-2.83932E-04 1.49202E-14
 -1       924 1.08690E-03-1.82471E-04 1.17838E-15
 -1       925 6.77850E-03-8.94136E-04 1.83756E-14
 -1       926 3.82693E-03 4.65365E-04 9.08809E-15
 -1       927 1.27148E-03-5.68675E-05 1.70971E-15
 -1       928 1.38209E-02-3.57712E-03 7.61391E-14
 -1       929 1.36058E-02-3.40936E-03 7.66187E-14
 -1       930 1.34079E-02-3.29403E-03 7.60418E-14
 -1       931 1.32891E-03 1.31004E-05 1.72934E-15
 -1       932 1.25686E-03-2.11028E-04 1.60691E-15
 -1       933 1.19220E-03-1.87670E-04 1.54560E-15
 -1       934 1.51930E-03-2.32685E-04 2.70405E-15
 -1       935 2.14206E-03 2.48247E-04 3.44326E-15
 -1       936 1.37134E-02-3.49324E-03 7.63768E-14
 -1       937 5.67912E-03-4.28958E-04 1.63702E-14
 -1       938 2.45111E-03 2.55417E-04 4.30849E-15
 -1       939 1.81468E-03-5.87271E-05 3.03393E-15
 -1       940 6.90597E-03-9.43183E-04 1.87018E-14
 -1       941 1.22147E-03-1.68200E-04 1.72891E-15
 -1       942 7.11375E-03-1.02254E-03 2.05716E-14
 -1       943 1.22048E-03-1.12089E-04 1.68363E-15
 -1       944 7.34188E-03-1.11132E-03 2.24963E-14
 -1       945 7.58476E-03-1.20799E-03 2.44663E-14
 -1       946 7.83859E-03-1.31073E-03 2.64790E-14
 -1       947 8.10066E-03-1.41781E-03 2.85248E-14
 -1       948 8.36892E-03-1.52777E-03 3.06058E-14
 -1       949 8.64183E-03-1.63947E-03 3.27252E-14
 -1       950 8.91823E-03-1.75207E-03 3.48777E-14
 -1       951 9.19722E-03-1.86502E-03 3.70577E-14
 -1       952 9.47813E-03-1.97795E-03 3.92613E-14
 -1       953 9.76045E-03-2.09066E-03 4.14852E-14
 -1       954 1.00438E-02-2.20303E-03 4.37302E-14
 -1       955 1.03279E-02-2.31504E-03 4.59856E-14
 -1       956 1.06126E-02-2.42669E-03 4.82466E-14
 -1       957 1.08976E-02-2.53800E-03 5.05119E-14
 -1       958 1.11829E-02-2.64903E-03 5.27853E-14
 -1       959 1.14684E-02-2.75981E-03 5.50657E-14
 -1       960 1.17540E-02-2.87038E-03 5.73498E-14
 -1       961 1.20397E-02-2.98080E-03 5.96332E-14
 -1       962 1.23254E-02-3.09109E-03 6.19145E-14
 -1       963 1.26112E-02-3.20128E-03 6.41899E-14
 -1       964 1.28970E-02-3.31140E-03 6.64653E-14
 -1       965 1.31827E-02-3.42147E-03 6.87457E-14
 -1       966 1.34685E-02-3.53150E-03 7.10320E-14
 -1       967 5.45875E-03-2.82314E-04 1.61917E-14
 -1       968 5.79576E-03-4.24095E-04 1.79896E-14
 -1       969 6.11527E-03-5.47236E-04 1.98416E-14
 -1       970 6.42015E-03-6.59271E-04 2.17405E-14
 -1       971 6.71457E-03-7.65120E-04 2.36838E-14
 -1       972 7.00217E-03-8.68133E-04 2.56732E-14
 -1       973 7.28575E-03-9.70203E-04 2.77043E-14
 -1       974 7.56727E-03-1.07235E-03 2.97764E-14
 -1       975 7.84803E-03-1.17507E-03 3.18879E-14
 -1       976 8.12881E-03-1.27859E-03 3.40293E-14
 -1       977 8.41005E-03-1.38298E-03 3.61982E-14
 -1       978 8.69195E-03-1.48821E-03 3.83904E-14
 -1       979 8.97456E-03-1.59423E-03 4.06042E-14
 -1       980 9.25784E-03-1.70095E-03 4.28323E-14
 -1       981 9.54172E-03-1.80829E-03 4.50760E-14
 -1       982 9.82609E-03-1.91615E-03 4.73395E-14
 -1       983 1.01109E-02-2.02446E-03 4.96174E-14
 -1       984 1.03960E-02-2.13313E-03 5.19046E-14
 -1       985 1.06813E-02-2.24211E-03 5.41991E-14
 -1       986 1.09668E-02-2.35133E-03 5.64990E-14
 -1       987 1.12524E-02-2.46075E-03 5.88078E-14
 -1       988 1.15380E-02-2.57032E-03 6.11187E-14
 -1       989 1.18238E-02-2.68000E-03 6.34250E-14
 -1       990 1.21095E-02-2.78977E-03 6.57295E-14
 -1       991 1.23953E-02-2.89961E-03 6.80366E-14
 -1       992 1.26811E-02-3.00949E-03 7.03418E-14
 -1       993 1.29668E-02-3.11941E-03 7.26375E-14
 -1       994 1.31874E-02-3.20672E-03 7.43364E-14
 -1       995 6.50654E-03-8.00697E-04 1.81447E-14
 -1       996 2.14263E-03 8.23169E-05 3.64439E-15
 -1       997 1.37029E-02-3.57928E-03 7.39869E-14
 -1       998 1.33732E-03 1.02584E-04 1.63364E-15
 -1       999 1.58255E-03-1.49524E-04 2.65671E-15
 -1      1000 6.77068E-03-8.89512E-04 1.93673E-14
 -1      1001 6.19069E-03-6.71894E-04 1.76984E-14
 -1      1002 1.35947E-02-3.49496E-03 7.42162E-14
 -1      1003 1.46335E-03-1.10841E-04 2.26014E-15
 -1      1004 6.95716E-03-9.57357E-04 1.99698E-14
 -1      1005 6.02299E-03-5.73571E-04 1.79461E-14
 -1      1006 1.54097E-03-3.24047E-05 2.29158E-15
 -1      1007 1.33853E-02-3.32204E-03 7.49131E-14
 -1      1008 1.66770E-03 1.03965E-04 2.38604E-15
 -1      1009 1.34928E-02-3.40591E-03 7.46796E-14
 -1      1010 2.04951E-03 1.66254E-04 3.27898E-15
 -1      1011 1.35006E-03-2.18448E-04 2.02798E-15
 -1      1012 7.18040E-03-1.03871E-03 2.18750E-14
 -1      1013 7.41843E-03-1.12862E-03 2.38284E-14
 -1      1014 7.66771E-03-1.22562E-03 2.58251E-14
 -1      1015 7.92564E-03-1.32795E-03 2.78603E-14
 -1      1016 8.19026E-03-1.43409E-03 2.99295E-14
 -1      1017 8.46007E-03-1.54278E-03 3.20366E-14
 -1      1018 8.73389E-03-1.65306E-03 3.41808E-14
 -1      1019 9.01079E-03-1.76424E-03 3.63494E-14
 -1      1020 9.29005E-03-1.87584E-03 3.85466E-14
 -1      1021 9.57109E-03-1.98755E-03 4.07627E-14
 -1      1022 9.85347E-03-2.09919E-03 4.29967E-14
 -1      1023 1.01369E-02-2.21065E-03 4.52472E-14
 -1      1024 1.04210E-02-2.32190E-03 4.75093E-14
 -1      1025 1.07056E-02-2.43292E-03 4.97754E-14
 -1      1026 1.09907E-02-2.54374E-03 5.20483E-14
 -1      1027 1.12760E-02-2.65437E-03 5.43302E-14
 -1      1028 1.15615E-02-2.76484E-03 5.66196E-14
 -1      1029 1.18471E-02-2.87519E-03 5.89044E-14
 -1      1030 1.21328E-02-2.98543E-03 6.11886E-14
 -1      1031 1.24186E-02-3.09560E-03 6.34672E-14
 -1      1032 1.27043E-02-3.20570E-03 6.57432E-14
 -1      1033 1.29901E-02-3.31576E-03 6.80236E-14
 -1      1034 1.32759E-02-3.42578E-03 7.03052E-14
 -1      1035 1.35853E-02-3.56287E-03 7.23145E-14
 -1      1036 6.41329E-03-6.96368E-04 2.06778E-14
 -1      1037 6.70247E-03-7.95403E-04 2.25963E-14
 -1      1038 6.98418E-03-8.93012E-04 2.45594E-14
 -1      1039 7.26226E-03-9.91281E-04 2.65637E-14
 -1      1040 7.53891E-03-1.09098E-03 2.86112E-14
 -1      1041 7.81549E-03-1.19231E-03 3.06987E-14
 -1      1042 8.09281E-03-1.29520E-03 3.28240E-14
 -1      1043 8.37122E-03-1.39945E-03 3.49768E-14
 -1      1044 8.65086E-03-1.50485E-03 3.71557E-14
 -1      1045 8.93169E-03-1.61118E-03 3.93552E-14
 -1      1046 9.21359E-03-1.71829E-03 4.15725E-14
 -1      1047 9.49643E-03-1.82600E-03 4.38073E-14
 -1      1048 9.78002E-03-1.93421E-03 4.60606E-14
 -1      1049 1.00642E-02-2.04282E-03 4.83346E-14
 -1      1050 1.03489E-02-2.15174E-03 5.06154E-14
 -1      1051 1.06339E-02-2.26092E-03 5.29038E-14
 -1      1052 1.09192E-02-2.37029E-03 5.51920E-14
 -1      1053 1.12047E-02-2.47981E-03 5.74960E-14
 -1      1054 1.14903E-02-2.58946E-03 5.98042E-14
 -1      1055 1.17760E-02-2.69920E-03 6.21041E-14
 -1      1056 1.20618E-02-2.80900E-03 6.44007E-14
 -1      1057 1.23475E-02-2.91886E-03 6.66998E-14
 -1      1058 1.26333E-02-3.02876E-03 6.90011E-14
 -1      1059 1.29191E-02-3.13869E-03 7.12965E-14
 -1      1060 1.36564E-03-1.79458E-04 2.15032E-15
 -1      1061 1.48381E-03-1.82691E-04 2.48234E-15
 -1      1062 6.51751E-03-7.84564E-04 1.94852E-14
 -1      1063 1.35438E-02-3.45044E-03 7.44475E-14
 -1      1064 1.34013E-02-3.44188E-03 7.21324E-14
 -1      1065 6.99982E-03-9.65867E-04 2.12534E-14
 -1      1066 1.31397E-02-3.22599E-03 7.29926E-14
 -1      1067 1.78845E-03 5.01036E-05 2.76238E-15
 -1      1068 6.78228E-03-8.68691E-04 2.13727E-14
 -1      1069 1.32472E-02-3.30986E-03 7.27619E-14
 -1      1070 1.30266E-02-3.22254E-03 7.10689E-14
 -1      1071 7.23956E-03-1.05035E-03 2.31883E-14
 -1      1072 7.48886E-03-1.14237E-03 2.51692E-14
 -1      1073 7.74558E-03-1.24022E-03 2.71911E-14
 -1      1074 8.00849E-03-1.34256E-03 2.92497E-14
 -1      1075 8.27646E-03-1.44811E-03 3.13453E-14
 -1      1076 8.54852E-03-1.55585E-03 3.34777E-14
 -1      1077 8.82385E-03-1.66501E-03 3.56390E-14
 -1      1078 9.10177E-03-1.77502E-03 3.78271E-14
 -1      1079 9.38171E-03-1.88549E-03 4.00352E-14
 -1      1080 9.66321E-03-1.99618E-03 4.22618E-14
 -1      1081 9.94591E-03-2.10692E-03 4.45043E-14
 -1      1082 1.02295E-02-2.21761E-03 4.67651E-14
 -1      1083 1.05138E-02-2.32823E-03 4.90317E-14
 -1      1084 1.07986E-02-2.43874E-03 5.13052E-14
 -1      1085 1.10837E-02-2.54914E-03 5.35872E-14
 -1      1086 1.13691E-02-2.65946E-03 5.58755E-14
 -1      1087 1.16546E-02-2.76969E-03 5.81670E-14
 -1      1088 1.19403E-02-2.87985E-03 6.04544E-14
 -1      1089 1.22260E-02-2.98996E-03 6.27356E-14
 -1      1090 1.25117E-02-3.10003E-03 6.50162E-14
 -1      1091 1.27975E-02-3.21006E-03 6.72945E-14
 -1      1092 1.30833E-02-3.32007E-03 6.95809E-14
 -1      1093 7.24390E-03-1.01112E-03 2.54274E-14
 -1      1094 7.51374E-03-1.10786E-03 2.74519E-14
 -1      1095 7.78495E-03-1.20760E-03 2.95138E-14
 -1      1096 8.05805E-03-1.30984E-03 3.16170E-14
 -1      1097 8.33320E-03-1.41406E-03 3.37555E-14
 -1      1098 8.61032E-03-1.51980E-03 3.59190E-14
 -1      1099 8.88922E-03-1.62667E-03 3.81061E-14
 -1      1100 9.16966E-03-1.73437E-03 4.03140E-14
 -1      1101 9.45139E-03-1.84268E-03 4.25400E-14
 -1      1102 9.73417E-03-1.95144E-03 4.47845E-14
 -1      1103 1.00178E-02-2.06052E-03 4.70456E-14
 -1      1104 1.03020E-02-2.16984E-03 4.93211E-14
 -1      1105 1.05867E-02-2.27933E-03 5.16033E-14
 -1      1106 1.08718E-02-2.38895E-03 5.38892E-14
 -1      1107 1.11572E-02-2.49866E-03 5.61838E-14
 -1      1108 1.14427E-02-2.60845E-03 5.84851E-14
 -1      1109 1.17283E-02-2.71829E-03 6.07842E-14
 -1      1110 1.20140E-02-2.82817E-03 6.30747E-14
 -1      1111 1.22998E-02-2.93808E-03 6.53636E-14
 -1      1112 1.25856E-02-3.04800E-03 6.76606E-14
 -1      1113 1.28061E-02-3.13527E-03 6.93706E-14
 -1      1114 1.33503E-02-3.39736E-03 7.23629E-14
 -1      1115 6.97406E-03-9.17477E-04 2.34470E-14
 -1      1116 7.25377E-03-1.03931E-03 2.43238E-14
 -1      1117 7.51341E-03-1.13318E-03 2.63268E-14
 -1      1118 7.77735E-03-1.23168E-03 2.83690E-14
 -1      1119 8.04521E-03-1.33377E-03 3.04498E-14
 -1      1120 8.31658E-03-1.43851E-03 3.25671E-14
 -1      1121 8.59096E-03-1.54515E-03 3.47174E-14
 -1      1122 8.86789E-03-1.65308E-03 3.68937E-14
 -1      1123 9.14691E-03-1.76187E-03 3.90920E-14
 -1      1124 9.42761E-03-1.87121E-03 4.13107E-14
 -1      1125 9.70964E-03-1.98089E-03 4.35444E-14
 -1      1126 9.99271E-03-2.09076E-03 4.57965E-14
 -1      1127 1.02766E-02-2.20073E-03 4.80632E-14
 -1      1128 1.05610E-02-2.31075E-03 5.03378E-14
 -1      1129 1.08459E-02-2.42079E-03 5.26186E-14
 -1      1130 1.11311E-02-2.53083E-03 5.49076E-14
 -1      1131 1.14166E-02-2.64086E-03 5.72020E-14
 -1      1132 1.17022E-02-2.75088E-03 5.94973E-14
 -1      1133 1.19879E-02-2.86089E-03 6.17860E-14
 -1      1134 1.22736E-02-2.97088E-03 6.40696E-14
 -1      1135 1.25594E-02-3.08087E-03 6.63521E-14
 -1      1136 1.28452E-02-3.19086E-03 6.86422E-14
 -1      1137 1.31441E-02-3.30560E-03 7.10378E-14
 -1      1138 0.00000E+00 0.00000E+00 0.00000E+00
 -1      1139 0.00000E+00 0.00000E+00 0.00000E+00
 -1      1140 0.00000E+00 0.00000E+00 0.00000E+00
 -1      1141 0.00000E+00 0.00000E+00 0.00000E+00
 -1      1142 0.00000E+00 0.00000E+00 0.00000E+00
 -1      1143 0.00000E+00 0.00000E+00 0.00000E+00
 -1      1144 0.00000E+00 0.00000E+00 0.00000E+00
 -1      1145 0.00000E+00 0.00000E+00 0.00000E+00
 -1      1146 0.00000E+00 0.00000E+00 0.00000E+00
 -1      1147 0.00000E+00 0.00000E+00 0.00000E+00
 -1      1148 0.00000E+00 0.00000E+00 0.00000E+00
 -1      1149 0.00000E+00 0.00000E+00 0.00000E+00
 -1      1150 0.00000E+00 0.00000E+00 0.00000E+00
 -1      1151 0.00000E+00 0.00000E+00 0.00000E+00
 -1      1152 0.00000E+00 0.00000E+00 0.00000E+00
 -1      1153 0.00000E+00 0.00000E+00 0.00000E+00
 -1      1154 0.00000E+00 0.00000E+00 0.00000E+00
 -1      1155 2.18759E-04-1.41899E-04-1.83637E-17
 -1      1156 5.85967E-04-3.08784E-04 1.46232E-17
 -1      1157 9.09776E-04-4.11061E-04 1.50365E-16
 -1      1158 1.23649E-03-4.83079E-04 4.06494E-16
 -1      1159 1.57659E-03-5.44765E-04 7.74446E-16
 -1      1160 1.93736E-03-6.11146E-04 1.25154E-15
 -1      1161 2.32349E-03-6.98423E-04 1.83576E-15
 -1      1162 2.73464E-03-8.25771E-04 2.52379E-15
 -1      1163 3.16098E-03-1.01206E-03 3.30965E-15
 -1      1164 3.57884E-03-1.26354E-03 4.19375E-15
 -1      1165 3.95381E-03-1.55297E-03 5.17972E-15
 -1      1166 4.26112E-03-1.80773E-03 6.28143E-15
 -1      1167 4.50942E-03-1.93726E-03 7.47479E-15
 -1      1168 4.75983E-03-1.91046E-03 8.78389E-15
 -1      1169 5.07300E-03-1.76434E-03 1.02400E-14
 -1      1170 5.45628E-03-1.58803E-03 1.17921E-14
 -1      1171 5.88407E-03-1.45465E-03 1.34252E-14
 -1      1172 6.32166E-03-1.39168E-03 1.51347E-14
 -1      1173 6.74523E-03-1.39365E-03 1.69034E-14
 -1      1174 7.14471E-03-1.44317E-03 1.87234E-14
 -1      1175 7.51899E-03-1.52348E-03 2.06032E-14
 -1      1176 7.87114E-03-1.62222E-03 2.25349E-14
 -1      1177 8.20549E-03-1.73130E-03 2.45126E-14
 -1      1178 8.52616E-03-1.84577E-03 2.65385E-14
 -1      1179 8.83664E-03-1.96270E-03 2.86108E-14
 -1      1180 9.13963E-03-2.08042E-03 3.07369E-14
 -1      1181 9.43722E-03-2.19800E-03 3.29070E-14
 -1      1182 9.73092E-03-2.31497E-03 3.51011E-14
 -1      1183 1.00219E-02-2.43112E-03 3.73203E-14
 -1      1184 1.03109E-02-2.54637E-03 3.95752E-14
 -1      1185 1.05985E-02-2.66076E-03 4.18437E-14
 -1      1186 1.08853E-02-2.77435E-03 4.41072E-14
 -1      1187 1.11715E-02-2.88724E-03 4.63500E-14
 -1      1188 1.14572E-02-2.99953E-03 4.85867E-14
 -1      1189 1.17428E-02-3.11131E-03 5.08191E-14
 -1      1190 1.20282E-02-3.22267E-03 5.30515E-14
 -1      1191 1.23135E-02-3.33369E-03 5.52862E-14
 -1      1192 1.25989E-02-3.44444E-03 5.75457E-14
 -1      1193 1.28842E-02-3.55498E-03 5.98255E-14
 -1      1194 1.31696E-02-3.66536E-03 6.21029E-14
 -1      1195 1.34551E-02-3.77561E-03 6.43831E-14
 -1      1196 1.37406E-02-3.88577E-03 6.66744E-14
 -1      1197 1.40261E-02-3.99586E-03 6.89696E-14
 -1      1198 1.43117E-02-4.10591E-03 7.12588E-14
 -1      1199 1.45973E-02-4.21593E-03 7.35406E-14
 -1      1200 1.48829E-02-4.32593E-03 7.58223E-14
 -1      1201 1.51686E-02-4.43593E-03 7.80902E-14
 -1      1202 1.54543E-02-4.54594E-03 8.03231E-14
 -1      1203 1.57400E-02-4.65595E-03 8.25286E-14
 -1      1204 1.60257E-02-4.76598E-03 8.47234E-14
 -1      1205 2.34123E-04 1.59368E-04-6.64074E-18
 -1      1206 5.75494E-04 3.32775E-04 7.85911E-17
 -1      1207 8.77541E-04 4.46219E-04 2.92409E-16
 -1      1208 1.17217E-03 5.27990E-04 6.47594E-16
 -1      1209 1.46436E-03 5.93649E-04 1.13703E-15
 -1      1210 1.75531E-03 6.51355E-04 1.75523E-15
 -1      1211 2.04391E-03 7.05140E-04 2.49708E-15
 -1      1212 2.32758E-03 7.55943E-04 3.36027E-15
 -1      1213 2.60319E-03 8.01673E-04 4.34131E-15
 -1      1214 2.86818E-03 8.37339E-04 5.43429E-15
 -1      1215 3.12174E-03 8.55819E-04 6.63308E-15
 -1      1216 3.36568E-03 8.49541E-04 7.93566E-15
 -1      1217 3.60454E-03 8.12763E-04 9.33716E-15
 -1      1218 3.84456E-03 7.43606E-04 1.08302E-14
 -1      1219 4.09200E-03 6.44865E-04 1.24084E-14
 -1      1220 4.35137E-03 5.23221E-04 1.40642E-14
 -1      1221 4.62443E-03 3.87264E-04 1.57946E-14
 -1      1222 4.91032E-03 2.45308E-04 1.75948E-14
 -1      1223 5.20631E-03 1.03847E-04 1.94581E-14
 -1      1224 5.50892E-03-3.30433E-05 2.13796E-14
 -1      1225 5.81481E-03-1.63515E-04 2.33536E-14
 -1      1226 6.12126E-03-2.87360E-04 2.53737E-14
 -1      1227 6.42641E-03-4.05351E-04 2.74302E-14
 -1      1228 6.72919E-03-5.18700E-04 2.95189E-14
 -1      1229 7.02912E-03-6.28690E-04 3.16487E-14
 -1      1230 7.32617E-03-7.36473E-04 3.38199E-14
 -1      1231 7.62058E-03-8.42981E-04 3.60163E-14
 -1      1232 7.91271E-03-9.48910E-04 3.82378E-14
 -1      1233 8.20297E-03-1.05474E-03 4.04759E-14
 -1      1234 8.49175E-03-1.16079E-03 4.27181E-14
 -1      1235 8.77941E-03-1.26723E-03 4.49748E-14
 -1      1236 9.06625E-03-1.37414E-03 4.72472E-14
 -1      1237 9.35251E-03-1.48154E-03 4.95351E-14
 -1      1238 9.63838E-03-1.58940E-03 5.18370E-14
 -1      1239 9.92400E-03-1.69769E-03 5.41482E-14
 -1      1240 1.02095E-02-1.80634E-03 5.64692E-14
 -1      1241 1.04949E-02-1.91530E-03 5.88055E-14
 -1      1242 1.07803E-02-2.02451E-03 6.11541E-14
 -1      1243 1.10657E-02-2.13392E-03 6.35072E-14
 -1      1244 1.13511E-02-2.24349E-03 6.58667E-14
 -1      1245 1.16365E-02-2.35318E-03 6.82344E-14
 -1      1246 1.19220E-02-2.46296E-03 7.06073E-14
 -1      1247 1.22076E-02-2.57281E-03 7.29795E-14
 -1      1248 1.24931E-02-2.68270E-03 7.53371E-14
 -1      1249 1.27787E-02-2.79262E-03 7.76919E-14
 -1      1250 1.30644E-02-2.90255E-03 8.00435E-14
 -1      1251 1.33501E-02-3.01249E-03 8.24010E-14
 -1      1252 1.36357E-02-3.12242E-03 8.47633E-14
 -1      1253 1.39215E-02-3.23235E-03 8.71159E-14
 -1      1254 1.42000E-02-3.33951E-03 8.94094E-14
 -1      1255 1.43898E-02-3.43385E-03 9.04144E-14
 -1      1256 1.44978E-02-3.51814E-03 9.01295E-14
 -1      1257 1.46059E-02-3.60243E-03 8.98345E-14
 -1      1258 1.47140E-02-3.68674E-03 8.95507E-14
 -1      1259 1.48220E-02-3.77106E-03 8.92497E-14
 -1      1260 1.49291E-02-3.85469E-03 8.89476E-14
 -1      1261 1.50363E-02-3.93833E-03 8.86241E-14
 -1      1262 1.51444E-02-4.02269E-03 8.83000E-14
 -1      1263 1.52525E-02-4.10707E-03 8.79790E-14
 -1      1264 1.53607E-02-4.19144E-03 8.76903E-14
 -1      1265 1.54688E-02-4.27581E-03 8.74258E-14
 -1      1266 1.55761E-02-4.35945E-03 8.71592E-14
 -1      1267 1.56834E-02-4.44307E-03 8.68987E-14
 -1      1268 1.57916E-02-4.52740E-03 8.66331E-14
 -1      1269 1.58999E-02-4.61170E-03 8.63825E-14
 -1      1270 1.60081E-02-4.69599E-03 8.61553E-14
 -1      1271 1.61154E-02-4.77957E-03 8.59380E-14
 -1      1272 6.46687E-03-6.15390E-04 1.18649E-14
 -1      1273 6.30577E-03-4.58342E-04 1.17680E-14
 -1      1274 6.04722E-03-2.95719E-04 1.15233E-14
 -1      1275 5.71959E-03-1.34221E-04 1.11558E-14
 -1      1276 5.33368E-03 2.20735E-05 1.06722E-14
 -1      1277 4.90412E-03 1.59957E-04 1.00845E-14
 -1      1278 4.46992E-03 2.59494E-04 9.45164E-15
 -1      1279 4.03800E-03 3.09810E-04 8.80210E-15
 -1      1280 3.59264E-03 3.08229E-04 8.12647E-15
 -1      1281 3.16064E-03 2.55993E-04 7.48021E-15
 -1      1282 2.77293E-03 1.65278E-04 6.91638E-15
 -1      1283 2.43641E-03 5.19075E-05 6.44077E-15
 -1      1284 2.15574E-03-7.52009E-05 6.05118E-15
 -1      1285 1.94676E-03-2.11090E-04 5.75361E-15
 -1      1286 1.83166E-03-3.53340E-04 5.55685E-15
 -1      1287 1.82749E-03-5.06364E-04 5.47421E-15
 -1      1288 1.94412E-03-6.74781E-04 5.51633E-15
 -1      1289 2.16081E-03-8.50796E-04 5.67196E-15
 -1      1290 2.45810E-03-1.03613E-03 5.92979E-15
 -1      1291 2.85178E-03-1.23951E-03 6.32011E-15
 -1      1292 3.31249E-03-1.43229E-03 6.83020E-15
 -1      1293 3.79286E-03-1.57518E-03 7.41101E-15
 -1      1294 4.27516E-03-1.64527E-03 8.04489E-15
 -1      1295 4.76241E-03-1.63256E-03 8.73612E-15
 -1      1296 5.22583E-03-1.54685E-03 9.42871E-15
 -1      1297 5.63419E-03-1.41343E-03 1.00644E-14
 -1      1298 5.99238E-03-1.25158E-03 1.06622E-14
 -1      1299 6.26761E-03-1.08619E-03 1.11692E-14
 -1      1300 6.44396E-03-9.28202E-04 1.15530E-14
 -1      1301 6.51465E-03-7.70527E-04 1.17960E-14
 -1      1302 1.77606E-04-1.01169E-04-5.82759E-19
 -1      1303 1.20637E-04-4.30029E-05 2.15892E-17
 -1      1304 1.26779E-04-5.56325E-05 1.55176E-17
 -1      1305 1.12822E-04-2.71395E-05 3.19026E-17
 -1      1306 1.16590E-04-3.38879E-05 2.87585E-17
 -1      1307 2.41586E-04-7.91921E-05 6.70444E-17
 -1      1308 1.07048E-04-1.79168E-05 3.79742E-17
 -1      1309 1.09958E-04-2.19191E-05 3.62530E-17
 -1      1310 2.25714E-04-5.17972E-05 8.60585E-17
 -1      1311 1.02532E-04-1.28403E-05 4.18909E-17
 -1      1312 1.04736E-04-1.51006E-05 4.09286E-17
 -1      1313 2.13495E-04-3.55191E-05 9.79035E-17
 -1      1314 9.94522E-05-1.03561E-05 4.43439E-17
 -1      1315 1.00873E-04-1.15541E-05 4.36933E-17
 -1      1316 2.04337E-04-2.64116E-05 1.05615E-16
 -1      1317 9.78244E-05-9.04362E-06 4.62277E-17
 -1      1318 9.84765E-05-9.83973E-06 4.57940E-17
 -1      1319 1.98393E-04-2.14978E-05 1.10995E-16
 -1      1320 9.76489E-05-7.74819E-06 4.78675E-17
 -1      1321 9.75752E-05-8.66157E-06 4.75287E-17
 -1      1322 1.95795E-04-1.82597E-05 1.15305E-16
 -1      1323 9.86615E-05-5.54310E-06 4.87755E-17
 -1      1324 9.80176E-05-6.96841E-06 4.85723E-17
 -1      1325 1.96286E-04-1.45760E-05 1.18341E-16
 -1      1326 1.00496E-04-1.86710E-06 4.93990E-17
 -1      1327 9.94736E-05-4.02552E-06 4.92905E-17
 -1      1328 1.99164E-04-8.86438E-06 1.20387E-16
 -1      1329 1.02794E-04 3.49718E-06 4.97378E-17
 -1      1330 1.01565E-04 5.33183E-07 4.96565E-17
 -1      1331 2.03579E-04-2.33869E-07 1.21607E-16
 -1      1332 1.05261E-04 1.04132E-05 4.96022E-17
 -1      1333 1.03953E-04 6.72473E-06 4.96022E-17
 -1      1334 2.08731E-04 1.15027E-05 1.22041E-16
 -1      1335 1.07908E-04 1.90895E-05 4.88704E-17
 -1      1336 1.06473E-04 1.45302E-05 4.91821E-17
 -1      1337 2.14204E-04 2.63997E-05 1.21322E-16
 -1      1338 1.10877E-04 2.96330E-05 4.65529E-17
 -1      1339 1.09172E-04 2.40940E-05 4.75016E-17
 -1      1340 2.20036E-04 4.47219E-05 1.18517E-16
 -1      1341 1.14868E-04 4.30188E-05 4.13488E-17
 -1      1342 1.12366E-04 3.58688E-05 4.36662E-17
 -1      1343 2.26814E-04 6.71797E-05 1.11849E-16
 -1      1344 1.22491E-04 6.28465E-05 3.06694E-17
 -1      1345 1.17398E-04 5.17137E-05 3.59549E-17
 -1      1346 2.36770E-04 9.66516E-05 9.82152E-17
 -1      1347 1.63595E-04 1.07528E-04 1.19262E-17
 -1      1348 1.42081E-04 8.21068E-05 2.47876E-17
 -1      1349 2.68876E-04 1.42673E-04 8.08815E-17
 -1      1350 3.49086E-04 2.14224E-04 5.19739E-17
 -1      1351 4.53216E-04-2.34513E-04 3.26074E-17
 -1      1352 6.23233E-04-2.97601E-04 7.74934E-17
 -1      1353 7.89953E-04-3.47791E-04 1.53388E-16
 -1      1354 9.55558E-04-3.88742E-04 2.58013E-16
 -1      1355 6.69475E-04-2.81368E-04 1.50094E-16
 -1      1356 1.12125E-03-4.24018E-04 3.90191E-16
 -1      1357 1.28830E-03-4.55316E-04 5.50924E-16
 -1      1358 1.00245E-03-3.64304E-04 3.69713E-16
 -1      1359 1.45788E-03-4.85050E-04 7.38965E-16
 -1      1360 1.63083E-03-5.14646E-04 9.53434E-16
 -1      1361 1.33525E-03-4.26811E-04 6.98958E-16
 -1      1362 1.80793E-03-5.46289E-04 1.19506E-15
 -1      1363 1.98965E-03-5.81710E-04 1.46305E-15
 -1      1364 1.67553E-03-4.84909E-04 1.13595E-15
 -1      1365 2.17638E-03-6.23471E-04 1.75715E-15
 -1      1366 2.36803E-03-6.73737E-04 2.07741E-15
 -1      1367 2.02858E-03-5.54038E-04 1.67746E-15
 -1      1368 2.56443E-03-7.35576E-04 2.42228E-15
 -1      1369 2.76460E-03-8.11240E-04 2.79181E-15
 -1      1370 2.39740E-03-6.52583E-04 2.32046E-15
 -1      1371 2.96751E-03-9.03442E-04 3.18567E-15
 -1      1372 3.17091E-03-1.01321E-03 3.60465E-15
 -1      1373 2.78196E-03-8.02027E-04 3.06238E-15
 -1      1374 3.37283E-03-1.14045E-03 4.04779E-15
 -1      1375 3.56980E-03-1.28203E-03 4.51679E-15
 -1      1376 3.17762E-03-1.02048E-03 3.90219E-15
 -1      1377 3.75959E-03-1.43179E-03 5.01320E-15
 -1      1378 3.93927E-03-1.57993E-03 5.53632E-15
 -1      1379 3.57287E-03-1.30466E-03 4.84428E-15
 -1      1380 4.10805E-03-1.71414E-03 6.09004E-15
 -1      1381 4.26710E-03-1.82096E-03 6.67438E-15
 -1      1382 3.95076E-03-1.60476E-03 5.89611E-15
 -1      1383 4.41104E-03-1.88720E-03 7.25822E-15
 -1      1384 4.55375E-03-1.91282E-03 7.86857E-15
 -1      1385 4.29314E-03-1.81904E-03 7.03747E-15
 -1      1386 4.70591E-03-1.89668E-03 8.54128E-15
 -1      1387 4.86656E-03-1.84306E-03 9.24301E-15
 -1      1388 4.62271E-03-1.87182E-03 8.29638E-15
 -1      1389 5.03764E-03-1.76292E-03 9.97160E-15
 -1      1390 5.22010E-03-1.67000E-03 1.07267E-14
 -1      1391 4.97606E-03-1.75997E-03 9.70301E-15
 -1      1392 5.41307E-03-1.57675E-03 1.15036E-14
 -1      1393 5.61363E-03-1.49290E-03 1.23017E-14
 -1      1394 5.35811E-03-1.57020E-03 1.12139E-14
 -1      1395 5.81948E-03-1.42462E-03 1.31204E-14
 -1      1396 6.02707E-03-1.37510E-03 1.39572E-14
 -1      1397 5.75874E-03-1.40134E-03 1.28137E-14
 -1      1398 6.23439E-03-1.34450E-03 1.48117E-14
 -1      1399 6.43919E-03-1.33185E-03 1.56840E-14
 -1      1400 6.16063E-03-1.30332E-03 1.44909E-14
 -1      1401 6.64036E-03-1.33460E-03 1.65701E-14
 -1      1402 6.83689E-03-1.35066E-03 1.74684E-14
 -1      1403 6.55194E-03-1.27987E-03 1.62354E-14
 -1      1404 7.02847E-03-1.37729E-03 1.83821E-14
 -1      1405 7.21493E-03-1.41251E-03 1.93093E-14
 -1      1406 6.92750E-03-1.31408E-03 1.80380E-14
 -1      1407 7.39643E-03-1.45429E-03 2.02496E-14
 -1      1408 7.57321E-03-1.50115E-03 2.12032E-14
 -1      1409 7.28631E-03-1.38655E-03 1.98953E-14
 -1      1410 7.74563E-03-1.55184E-03 2.21688E-14
 -1      1411 7.91411E-03-1.60530E-03 2.31470E-14
 -1      1412 7.62956E-03-1.48212E-03 2.18035E-14
 -1      1413 8.07904E-03-1.66086E-03 2.41367E-14
 -1      1414 8.24082E-03-1.71782E-03 2.51391E-14
 -1      1415 7.95946E-03-1.59064E-03 2.37609E-14
 -1      1416 8.39985E-03-1.77582E-03 2.61519E-14
 -1      1417 8.55647E-03-1.83442E-03 2.71757E-14
 -1      1418 8.27843E-03-1.70584E-03 2.57646E-14
 -1      1419 8.71100E-03-1.89346E-03 2.82128E-14
 -1      1420 8.86371E-03-1.95264E-03 2.92611E-14
 -1      1421 8.58876E-03-1.82405E-03 2.78142E-14
 -1      1422 9.01487E-03-2.01191E-03 3.03204E-14
 -1      1423 9.16469E-03-2.07110E-03 3.13929E-14
 -1      1424 8.89245E-03-1.94320E-03 2.99092E-14
 -1      1425 9.31336E-03-2.13019E-03 3.24746E-14
 -1      1426 9.46106E-03-2.18908E-03 3.35643E-14
 -1      1427 9.19110E-03-2.06217E-03 3.20470E-14
 -1      1428 9.60792E-03-2.24778E-03 3.46604E-14
 -1      1429 9.75407E-03-2.30622E-03 3.57598E-14
 -1      1430 9.48598E-03-2.18038E-03 3.42187E-14
 -1      1431 9.89963E-03-2.36445E-03 3.68701E-14
 -1      1432 1.00447E-02-2.42241E-03 3.79874E-14
 -1      1433 9.77808E-03-2.29760E-03 3.64208E-14
 -1      1434 1.01893E-02-2.48014E-03 3.91112E-14
 -1      1435 1.03335E-02-2.53763E-03 4.02401E-14
 -1      1436 1.00681E-02-2.41377E-03 3.86507E-14
 -1      1437 1.04775E-02-2.59490E-03 4.13701E-14
 -1      1438 1.06212E-02-2.65194E-03 4.25040E-14
 -1      1439 1.03567E-02-2.52890E-03 4.09025E-14
 -1      1440 1.07647E-02-2.70878E-03 4.36345E-14
 -1      1441 1.09080E-02-2.76543E-03 4.47595E-14
 -1      1442 1.06443E-02-2.64311E-03 4.31630E-14
 -1      1443 1.10512E-02-2.82191E-03 4.58833E-14
 -1      1444 1.11943E-02-2.87822E-03 4.70056E-14
 -1      1445 1.09311E-02-2.75649E-03 4.54171E-14
 -1      1446 1.13373E-02-2.93439E-03 4.81246E-14
 -1      1447 1.14802E-02-2.99041E-03 4.92448E-14
 -1      1448 1.12174E-02-2.86917E-03 4.76617E-14
 -1      1449 1.16231E-02-3.04631E-03 5.03632E-14
 -1      1450 1.17659E-02-3.10210E-03 5.14806E-14
 -1      1451 1.15034E-02-2.98126E-03 4.99053E-14
 -1      1452 1.19087E-02-3.15778E-03 5.25997E-14
 -1      1453 1.20514E-02-3.21338E-03 5.37200E-14
 -1      1454 1.17891E-02-3.09285E-03 5.21469E-14
 -1      1455 1.21941E-02-3.26889E-03 5.48410E-14
 -1      1456 1.23369E-02-3.32433E-03 5.59647E-14
 -1      1457 1.20747E-02-3.20406E-03 5.43912E-14
 -1      1458 1.24796E-02-3.37970E-03 5.70952E-14
 -1      1459 1.26223E-02-3.43502E-03 5.82336E-14
 -1      1460 1.23603E-02-3.31494E-03 5.66451E-14
 -1      1461 1.27650E-02-3.49029E-03 5.93701E-14
 -1      1462 1.29078E-02-3.54551E-03 6.05093E-14
 -1      1463 1.26458E-02-3.42558E-03 5.89153E-14
 -1      1464 1.30505E-02-3.60070E-03 6.16496E-14
 -1      1465 1.31932E-02-3.65585E-03 6.27871E-14
 -1      1466 1.29313E-02-3.53603E-03 6.11946E-14
 -1      1467 1.33360E-02-3.71097E-03 6.39275E-14
 -1      1468 1.34787E-02-3.76607E-03 6.50701E-14
 -1      1469 1.32168E-02-3.64633E-03 6.34730E-14
 -1      1470 1.36215E-02-3.82115E-03 6.62132E-14
 -1      1471 1.37643E-02-3.87621E-03 6.73590E-14
 -1      1472 1.35024E-02-3.75652E-03 6.57548E-14
 -1      1473 1.39070E-02-3.93125E-03 6.85038E-14
 -1      1474 1.40498E-02-3.98628E-03 6.96462E-14
 -1      1475 1.37879E-02-3.86663E-03 6.80389E-14
 -1      1476 1.41926E-02-4.04130E-03 7.07890E-14
 -1      1477 1.43354E-02-4.09632E-03 7.19303E-14
 -1      1478 1.40735E-02-3.97669E-03 7.03238E-14
 -1      1479 1.44782E-02-4.15132E-03 7.30717E-14
 -1      1480 1.46210E-02-4.20633E-03 7.42121E-14
 -1      1481 1.43592E-02-4.08672E-03 7.26048E-14
 -1      1482 1.47639E-02-4.26133E-03 7.53510E-14
 -1      1483 1.49067E-02-4.31632E-03 7.64882E-14
 -1      1484 1.46448E-02-4.19672E-03 7.48825E-14
 -1      1485 1.50495E-02-4.37132E-03 7.76185E-14
 -1      1486 1.51924E-02-4.42632E-03 7.87442E-14
 -1      1487 1.49305E-02-4.30671E-03 7.71514E-14
 -1      1488 1.53352E-02-4.48132E-03 7.98607E-14
 -1      1489 1.54781E-02-4.53632E-03 8.09689E-14
 -1      1490 1.52162E-02-4.41671E-03 7.93976E-14
 -1      1491 1.56209E-02-4.59133E-03 8.20715E-14
 -1      1492 1.57638E-02-4.64634E-03 8.31747E-14
 -1      1493 1.55018E-02-4.52671E-03 8.16184E-14
 -1      1494 1.58681E-02-4.68544E-03 8.40079E-14
 -1      1495 1.60110E-02-4.74046E-03 8.51052E-14
 -1      1496 1.59578E-02-4.69903E-03 8.52156E-14
 -1      1497 1.57491E-02-4.62082E-03 8.35531E-14
 -1      1498 6.75197E-04 3.57212E-04 1.94154E-16
 -1      1499 5.15532E-04 2.92671E-04 1.04246E-16
 -1      1500 4.67133E-04 2.53208E-04 1.25618E-16
 -1      1501 9.82259E-04 4.53729E-04 4.79095E-16
 -1      1502 8.30292E-04 4.09203E-04 3.19447E-16
 -1      1503 7.85756E-04 3.71235E-04 3.40019E-16
 -1      1504 1.28081E-03 5.26932E-04 8.98411E-16
 -1      1505 1.13212E-03 4.92389E-04 6.72260E-16
 -1      1506 1.09272E-03 4.56082E-04 6.90827E-16
 -1      1507 1.57555E-03 5.88415E-04 1.44699E-15
 -1      1508 1.42845E-03 5.58762E-04 1.15683E-15
 -1      1509 1.39282E-03 5.23378E-04 1.17136E-15
 -1      1510 1.86762E-03 6.44288E-04 2.12092E-15
 -1      1511 1.72190E-03 6.16909E-04 1.76856E-15
 -1      1512 1.68903E-03 5.82084E-04 1.77721E-15
 -1      1513 2.15606E-03 6.97281E-04 2.91562E-15
 -1      1514 2.01239E-03 6.71186E-04 2.50341E-15
 -1      1515 1.98200E-03 6.36865E-04 2.50491E-15
 -1      1516 2.43886E-03 7.47043E-04 3.82937E-15
 -1      1517 2.29832E-03 7.22788E-04 3.35771E-15
 -1      1518 2.27086E-03 6.89192E-04 3.35147E-15
 -1      1519 2.71384E-03 7.90094E-04 4.85739E-15
 -1      1520 2.57746E-03 7.69788E-04 4.32931E-15
 -1      1521 2.55404E-03 7.37328E-04 4.31344E-15
 -1      1522 2.97969E-03 8.20156E-04 5.99442E-15
 -1      1523 2.84795E-03 8.07219E-04 5.41268E-15
 -1      1524 2.83006E-03 7.76364E-04 5.38731E-15
 -1      1525 3.23679E-03 8.29364E-04 7.23655E-15
 -1      1526 3.10924E-03 8.27806E-04 6.60252E-15
 -1      1527 3.09846E-03 7.98915E-04 6.56825E-15
 -1      1528 3.48771E-03 8.10372E-04 8.58005E-15
 -1      1529 3.36279E-03 8.23657E-04 7.89599E-15
 -1      1530 3.36037E-03 7.96806E-04 7.85258E-15
 -1      1531 3.73683E-03 7.58783E-04 1.00185E-14
 -1      1532 3.61217E-03 7.88637E-04 9.28794E-15
 -1      1533 3.61867E-03 7.63533E-04 9.23545E-15
 -1      1534 3.98931E-03 6.74822E-04 1.15469E-14
 -1      1535 3.86232E-03 7.20541E-04 1.07718E-14
 -1      1536 3.87744E-03 6.96577E-04 1.07110E-14
 -1      1537 4.24962E-03 5.63428E-04 1.31574E-14
 -1      1538 4.11824E-03 6.22039E-04 1.23420E-14
 -1      1539 4.14083E-03 5.98474E-04 1.22733E-14
 -1      1540 4.52044E-03 4.32736E-04 1.48439E-14
 -1      1541 4.38361E-03 4.99917E-04 1.39919E-14
 -1      1542 4.41192E-03 4.76085E-04 1.39159E-14
 -1      1543 4.80225E-03 2.91756E-04 1.66036E-14
 -1      1544 4.66000E-03 3.63026E-04 1.57146E-14
 -1      1545 4.69205E-03 3.38482E-04 1.56334E-14
 -1      1546 5.09366E-03 1.48306E-04 1.84301E-14
 -1      1547 4.94689E-03 2.19982E-04 1.75086E-14
 -1      1548 4.98078E-03 1.94547E-04 1.74201E-14
 -1      1549 5.39214E-03 7.87897E-06 2.03169E-14
 -1      1550 5.24219E-03 7.75191E-05 1.93663E-14
 -1      1551 5.27642E-03 5.12316E-05 1.92719E-14
 -1      1552 5.69488E-03-1.26538E-04 2.22586E-14
 -1      1553 5.54316E-03-6.01432E-05 2.12817E-14
 -1      1554 5.57668E-03-8.71121E-05 2.11812E-14
 -1      1555 5.99932E-03-2.53999E-04 2.42510E-14
 -1      1556 5.84704E-03-1.91112E-04 2.32492E-14
 -1      1557 5.87929E-03-2.18540E-04 2.31429E-14
 -1      1558 6.30349E-03-3.74908E-04 2.62816E-14
 -1      1559 6.15154E-03-3.15201E-04 2.52612E-14
 -1      1560 6.18234E-03-3.42870E-04 2.51489E-14
 -1      1561 6.60608E-03-4.90375E-04 2.83524E-14
 -1      1562 6.45504E-03-4.33235E-04 2.73125E-14
 -1      1563 6.48446E-03-4.60970E-04 2.71937E-14
 -1      1564 6.90638E-03-6.01744E-04 3.04563E-14
 -1      1565 6.75655E-03-5.46489E-04 2.94000E-14
 -1      1566 6.78479E-03-5.74160E-04 2.92778E-14
 -1      1567 7.20414E-03-7.10298E-04 3.26020E-14
 -1      1568 7.05559E-03-6.56303E-04 3.15240E-14
 -1      1569 7.08292E-03-6.83831E-04 3.13990E-14
 -1      1570 7.49942E-03-8.17122E-04 3.47813E-14
 -1      1571 7.35208E-03-7.63873E-04 3.36887E-14
 -1      1572 7.37878E-03-7.91218E-04 3.35564E-14
 -1      1573 7.79245E-03-9.23053E-04 3.69833E-14
 -1      1574 7.64620E-03-8.70161E-04 3.58792E-14
 -1      1575 7.67248E-03-8.97312E-04 3.57422E-14
 -1      1576 8.08356E-03-1.02869E-03 3.92108E-14
 -1      1577 7.93823E-03-9.75885E-04 3.80946E-14
 -1      1578 7.96428E-03-1.00285E-03 3.79523E-14
 -1      1579 8.37311E-03-1.13444E-03 4.14483E-14
 -1      1580 8.22851E-03-1.08154E-03 4.03288E-14
 -1      1581 8.25448E-03-1.10833E-03 4.01821E-14
 -1      1582 8.66142E-03-1.24053E-03 4.36973E-14
 -1      1583 8.51740E-03-1.18743E-03 4.25716E-14
 -1      1584 8.54337E-03-1.21408E-03 4.24242E-14
 -1      1585 8.94880E-03-1.34708E-03 4.59607E-14
 -1      1586 8.80521E-03-1.29374E-03 4.48276E-14
 -1      1587 8.83125E-03-1.32027E-03 4.46789E-14
 -1      1588 9.23549E-03-1.45415E-03 4.82383E-14
 -1      1589 9.09222E-03-1.40056E-03 4.70975E-14
 -1      1590 9.11835E-03-1.42699E-03 4.69470E-14
 -1      1591 9.52170E-03-1.56173E-03 5.05285E-14
 -1      1592 9.37865E-03-1.50788E-03 4.93814E-14
 -1      1593 9.40489E-03-1.53424E-03 4.92278E-14
 -1      1594 9.80758E-03-1.66976E-03 5.28321E-14
 -1      1595 9.66467E-03-1.61569E-03 5.16799E-14
 -1      1596 9.69103E-03-1.64199E-03 5.15224E-14
 -1      1597 1.00932E-02-1.77820E-03 5.51457E-14
 -1      1598 9.95043E-03-1.72394E-03 5.39877E-14
 -1      1599 9.97690E-03-1.75020E-03 5.38292E-14
 -1      1600 1.03788E-02-1.88699E-03 5.74740E-14
 -1      1601 1.02360E-02-1.83256E-03 5.63070E-14
 -1      1602 1.02626E-02-1.85879E-03 5.61456E-14
 -1      1603 1.06643E-02-1.99607E-03 5.98110E-14
 -1      1604 1.05215E-02-1.94150E-03 5.86414E-14
 -1      1605 1.05482E-02-1.96771E-03 5.84765E-14
 -1      1606 1.09497E-02-2.10538E-03 6.21632E-14
 -1      1607 1.08070E-02-2.05070E-03 6.09863E-14
 -1      1608 1.08337E-02-2.07690E-03 6.08195E-14
 -1      1609 1.12352E-02-2.21487E-03 6.45158E-14
 -1      1610 1.10924E-02-2.16011E-03 6.33385E-14
 -1      1611 1.11192E-02-2.18629E-03 6.31696E-14
 -1      1612 1.15206E-02-2.32450E-03 6.68763E-14
 -1      1613 1.13779E-02-2.26967E-03 6.56953E-14
 -1      1614 1.14047E-02-2.29586E-03 6.55237E-14
 -1      1615 1.18061E-02-2.43424E-03 6.92382E-14
 -1      1616 1.16634E-02-2.37936E-03 6.80572E-14
 -1      1617 1.16902E-02-2.40554E-03 6.78810E-14
 -1      1618 1.20917E-02-2.54406E-03 7.16053E-14
 -1      1619 1.19489E-02-2.48914E-03 7.04229E-14
 -1      1620 1.19758E-02-2.51532E-03 7.02401E-14
 -1      1621 1.23773E-02-2.65393E-03 7.39682E-14
 -1      1622 1.22345E-02-2.59899E-03 7.27866E-14
 -1      1623 1.22614E-02-2.62517E-03 7.25985E-14
 -1      1624 1.26629E-02-2.76384E-03 7.63181E-14
 -1      1625 1.25201E-02-2.70888E-03 7.51442E-14
 -1      1626 1.25470E-02-2.73506E-03 7.49490E-14
 -1      1627 1.29485E-02-2.87377E-03 7.86728E-14
 -1      1628 1.28057E-02-2.81880E-03 7.74937E-14
 -1      1629 1.28326E-02-2.84499E-03 7.73014E-14
 -1      1630 1.32342E-02-2.98371E-03 8.10246E-14
 -1      1631 1.30913E-02-2.92874E-03 7.98504E-14
 -1      1632 1.31183E-02-2.95493E-03 7.96523E-14
 -1      1633 1.35198E-02-3.09365E-03 8.33848E-14
 -1      1634 1.33770E-02-3.03868E-03 8.22047E-14
 -1      1635 1.34039E-02-3.06487E-03 8.20089E-14
 -1      1636 1.38055E-02-3.20358E-03 8.57395E-14
 -1      1637 1.36627E-02-3.14861E-03 8.45631E-14
 -1      1638 1.36896E-02-3.17481E-03 8.43634E-14
 -1      1639 1.40912E-02-3.31350E-03 8.80933E-14
 -1      1640 1.39484E-02-3.25854E-03 8.69163E-14
 -1      1641 1.39753E-02-3.28473E-03 8.67140E-14
 -1      1642 1.42541E-02-3.38165E-03 8.92877E-14
 -1      1643 1.44011E-02-3.49163E-03 8.90446E-14
 -1      1644 1.43471E-02-3.44948E-03 8.91849E-14
 -1      1645 1.45092E-02-3.57592E-03 8.87608E-14
 -1      1646 1.44552E-02-3.53377E-03 8.89021E-14
 -1      1647 1.43044E-02-3.46511E-03 8.79651E-14
 -1      1648 1.46172E-02-3.66023E-03 8.84764E-14
 -1      1649 1.45632E-02-3.61808E-03 8.86211E-14
 -1      1650 1.44125E-02-3.54941E-03 8.76886E-14
 -1      1651 1.47253E-02-3.74456E-03 8.81748E-14
 -1      1652 1.46713E-02-3.70240E-03 8.83258E-14
 -1      1653 1.45205E-02-3.63373E-03 8.74013E-14
 -1      1654 1.48315E-02-3.82747E-03 8.78752E-14
 -1      1655 1.47784E-02-3.78601E-03 8.80273E-14
 -1      1656 1.46277E-02-3.71734E-03 8.71043E-14
 -1      1657 1.49396E-02-3.91182E-03 8.75575E-14
 -1      1658 1.48856E-02-3.86964E-03 8.77160E-14
 -1      1659 1.47348E-02-3.80096E-03 8.68028E-14
 -1      1660 1.50477E-02-3.99618E-03 8.72452E-14
 -1      1661 1.49936E-02-3.95400E-03 8.74030E-14
 -1      1662 1.48429E-02-3.88530E-03 8.64977E-14
 -1      1663 1.51558E-02-4.08054E-03 8.69373E-14
 -1      1664 1.51018E-02-4.03836E-03 8.70875E-14
 -1      1665 1.49510E-02-3.96966E-03 8.61921E-14
 -1      1666 1.52640E-02-4.16490E-03 8.66583E-14
 -1      1667 1.52099E-02-4.12272E-03 8.67942E-14
 -1      1668 1.50591E-02-4.05401E-03 8.58966E-14
 -1      1669 1.53722E-02-4.24926E-03 8.63883E-14
 -1      1670 1.53181E-02-4.20708E-03 8.65229E-14
 -1      1671 1.51673E-02-4.13836E-03 8.56214E-14
 -1      1672 1.54785E-02-4.33217E-03 8.61303E-14
 -1      1673 1.54253E-02-4.29072E-03 8.62562E-14
 -1      1674 1.52746E-02-4.22200E-03 8.53575E-14
 -1      1675 1.55868E-02-4.41651E-03 8.58740E-14
 -1      1676 1.55326E-02-4.37434E-03 8.60015E-14
 -1      1677 1.53819E-02-4.30562E-03 8.51005E-14
 -1      1678 1.56950E-02-4.50082E-03 8.56192E-14
 -1      1679 1.56409E-02-4.45867E-03 8.57456E-14
 -1      1680 1.54901E-02-4.38994E-03 8.48529E-14
 -1      1681 1.58032E-02-4.58513E-03 8.53759E-14
 -1      1682 1.57491E-02-4.54298E-03 8.54950E-14
 -1      1683 1.55983E-02-4.47426E-03 8.46064E-14
 -1      1684 1.59076E-02-4.66315E-03 8.52381E-14
 -1      1685 1.58535E-02-4.62101E-03 8.53509E-14
 -1      1686 1.57027E-02-4.55229E-03 8.44587E-14
 -1      1687 1.58032E-02-4.62405E-03 8.44092E-14
 -1      1688 6.44799E-03-6.34866E-04 1.22121E-14
 -1      1689 6.50401E-03-6.82001E-04 1.22189E-14
 -1      1690 6.22622E-03-5.16029E-04 1.20923E-14
 -1      1691 6.34435E-03-5.75818E-04 1.21801E-14
 -1      1692 5.90973E-03-3.57504E-04 1.17650E-14
 -1      1693 6.06517E-03-4.31567E-04 1.19221E-14
 -1      1694 5.53941E-03-1.73485E-04 1.13064E-14
 -1      1695 5.71744E-03-2.58526E-04 1.15229E-14
 -1      1696 5.12941E-03 1.86516E-05 1.07401E-14
 -1      1697 5.32241E-03-7.07417E-05 1.10156E-14
 -1      1698 4.69986E-03 1.93110E-04 1.00913E-14
 -1      1699 4.89050E-03 1.14522E-04 1.04102E-14
 -1      1700 4.32044E-03 3.12203E-04 9.38084E-15
 -1      1701 4.49426E-03 2.65857E-04 9.69697E-15
 -1      1702 3.93877E-03 3.62875E-04 8.66906E-15
 -1      1703 4.11364E-03 3.49774E-04 9.00132E-15
 -1      1704 3.54870E-03 3.33193E-04 7.93219E-15
 -1      1705 3.72901E-03 3.58250E-04 8.26921E-15
 -1      1706 3.15121E-03 2.31661E-04 7.26326E-15
 -1      1707 3.33022E-03 2.84566E-04 7.56274E-15
 -1      1708 2.78105E-03 9.68904E-05 6.68934E-15
 -1      1709 2.94882E-03 1.61863E-04 6.94152E-15
 -1      1710 2.43807E-03-4.65144E-05 6.20982E-15
 -1      1711 2.59246E-03 1.97837E-05 6.41983E-15
 -1      1712 2.13951E-03-1.81076E-04 5.82444E-15
 -1      1713 2.27053E-03-1.20566E-04 5.99062E-15
 -1      1714 1.91608E-03-2.98673E-04 5.53816E-15
 -1      1715 2.00807E-03-2.46590E-04 5.65807E-15
 -1      1716 1.80501E-03-4.01175E-04 5.36224E-15
 -1      1717 1.84075E-03-3.55146E-04 5.42954E-15
 -1      1718 1.83134E-03-5.07508E-04 5.30779E-15
 -1      1719 1.80068E-03-4.56749E-04 5.31764E-15
 -1      1720 2.00388E-03-6.32365E-04 5.36916E-15
 -1      1721 1.90705E-03-5.69891E-04 5.31891E-15
 -1      1722 2.27718E-03-7.94093E-04 5.56376E-15
 -1      1723 2.14131E-03-7.18124E-04 5.46683E-15
 -1      1724 2.63335E-03-9.91866E-04 5.85975E-15
 -1      1725 2.45870E-03-8.94951E-04 5.70806E-15
 -1      1726 3.08644E-03-1.22917E-03 6.28507E-15
 -1      1727 2.87362E-03-1.11033E-03 6.05977E-15
 -1      1728 3.53542E-03-1.46750E-03 6.84893E-15
 -1      1729 3.32913E-03-1.36440E-03 6.58368E-15
 -1      1730 3.96890E-03-1.63649E-03 7.49102E-15
 -1      1731 3.76858E-03-1.56911E-03 7.18899E-15
 -1      1732 4.38380E-03-1.70086E-03 8.17746E-15
 -1      1733 4.19530E-03-1.68541E-03 7.85640E-15
 -1      1734 4.80726E-03-1.65189E-03 8.94540E-15
 -1      1735 4.60953E-03-1.69158E-03 8.58233E-15
 -1      1736 5.22739E-03-1.50918E-03 9.67848E-15
 -1      1737 5.04121E-03-1.58164E-03 9.34983E-15
 -1      1738 5.62443E-03-1.32600E-03 1.03663E-14
 -1      1739 5.44290E-03-1.41416E-03 1.00553E-14
 -1      1740 5.99612E-03-1.13552E-03 1.10103E-14
 -1      1741 5.82940E-03-1.22296E-03 1.07216E-14
 -1      1742 6.28515E-03-9.75854E-04 1.15337E-14
 -1      1743 6.16396E-03-1.04445E-03 1.13123E-14
 -1      1744 6.47253E-03-8.45572E-04 1.19446E-14
 -1      1745 6.39926E-03-9.00385E-04 1.17822E-14
 -1      1746 6.53331E-03-7.37739E-04 1.21972E-14
 -1      1747 6.52324E-03-7.84381E-04 1.21132E-14
 -1      1748 5.76315E-03-3.73385E-04 1.19311E-14
 -1      1749 6.52946E-03-7.26080E-04 1.25618E-14
 -1      1750 1.42810E-02-3.40784E-03 8.90820E-14
 -1      1751 1.41843E-02-3.38133E-03 8.79977E-14
 -1      1752 6.39356E-03-6.51270E-04 1.25544E-14
 -1      1753 6.12146E-03-5.41057E-04 1.23503E-14
 -1      1754 5.36069E-03-1.69421E-04 1.13887E-14
 -1      1755 4.93333E-03 4.46548E-05 1.07583E-14
 -1      1756 4.54345E-03 2.33977E-04 1.00245E-14
 -1      1757 4.18533E-03 3.54723E-04 9.24559E-15
 -1      1758 3.83763E-03 3.86928E-04 8.46564E-15
 -1      1759 3.48181E-03 3.21233E-04 7.70120E-15
 -1      1760 3.10675E-03 1.86149E-04 7.01850E-15
 -1      1761 2.74139E-03 2.47092E-05 6.43853E-15
 -1      1762 2.39360E-03-1.30373E-04 5.96208E-15
 -1      1763 2.09142E-03-2.58838E-04 5.58803E-15
 -1      1764 1.87703E-03-3.53427E-04 5.32265E-15
 -1      1765 1.79272E-03-4.25787E-04 5.17580E-15
 -1      1766 1.86627E-03-5.01648E-04 5.14366E-15
 -1      1767 2.08921E-03-6.10920E-04 5.24864E-15
 -1      1768 2.41588E-03-7.76520E-04 5.48291E-15
 -1      1769 2.83145E-03-9.94932E-04 5.81525E-15
 -1      1770 3.28661E-03-1.26413E-03 6.29648E-15
 -1      1771 3.71734E-03-1.52069E-03 6.92130E-15
 -1      1772 4.11401E-03-1.68580E-03 7.61785E-15
 -1      1773 4.49569E-03-1.72572E-03 8.38359E-15
 -1      1774 4.87465E-03-1.63049E-03 9.19363E-15
 -1      1775 5.27549E-03-1.44679E-03 9.98087E-15
 -1      1776 5.67233E-03-1.23493E-03 1.07202E-14
 -1      1777 6.04049E-03-1.04125E-03 1.13848E-14
 -1      1778 6.32935E-03-8.94037E-04 1.19415E-14
 -1      1779 6.50381E-03-7.94504E-04 1.23650E-14
 -1      1780 3.08302E-04-1.54512E-04 3.30953E-17
 -1      1781 3.38118E-04-7.51988E-05 1.38087E-16
 -1      1782 3.49633E-04-9.07727E-05 1.27245E-16
 -1      1783 3.62753E-04-1.10658E-04 1.14519E-16
 -1      1784 3.78426E-04-1.35252E-04 9.72800E-17
 -1      1785 4.81361E-04-1.35681E-04 1.83867E-16
 -1      1786 3.05233E-04-4.07992E-05 1.63823E-16
 -1      1787 3.11386E-04-4.62014E-05 1.59052E-16
 -1      1788 2.96965E-04-3.30806E-05 1.71575E-16
 -1      1789 3.00370E-04-3.65115E-05 1.67916E-16
 -1      1790 4.04894E-04-5.43719E-05 2.44867E-16
 -1      1791 2.94331E-04-2.69777E-05 1.77118E-16
 -1      1792 2.94989E-04-3.00141E-05 1.74326E-16
 -1      1793 3.95422E-04-4.39375E-05 2.54828E-16
 -1      1794 2.96534E-04-1.96172E-05 1.81197E-16
 -1      1795 2.94923E-04-2.35931E-05 1.79300E-16
 -1      1796 3.93909E-04-3.44602E-05 2.62092E-16
 -1      1797 3.02255E-04-9.01847E-06 1.84043E-16
 -1      1798 2.99069E-04-1.47983E-05 1.82756E-16
 -1      1799 3.98894E-04-2.25845E-05 2.67554E-16
 -1      1800 3.10058E-04 5.84378E-06 1.85710E-16
 -1      1801 3.05994E-04-2.13816E-06 1.84924E-16
 -1      1802 4.08299E-04-6.14461E-06 2.71227E-16
 -1      1803 3.18655E-04 2.49031E-05 1.86158E-16
 -1      1804 3.14296E-04 1.48415E-05 1.86225E-16
 -1      1805 4.19975E-04 1.56423E-05 2.73409E-16
 -1      1806 3.27815E-04 4.88522E-05 1.84477E-16
 -1      1807 3.23178E-04 3.63341E-05 1.85588E-16
 -1      1808 4.32580E-04 4.31098E-05 2.73490E-16
 -1      1809 3.37704E-04 7.78135E-05 1.79232E-16
 -1      1810 3.32587E-04 6.27187E-05 1.82417E-16
 -1      1811 4.45795E-04 7.66510E-05 2.70129E-16
 -1      1812 3.49978E-04 1.13553E-04 1.67875E-16
 -1      1813 3.43353E-04 9.47714E-05 1.74800E-16
 -1      1814 4.60423E-04 1.16835E-04 2.61618E-16
 -1      1815 3.69684E-04 1.60984E-04 1.45283E-16
 -1      1816 3.58360E-04 1.35541E-04 1.58551E-16
 -1      1817 4.79561E-04 1.66304E-04 2.43918E-16
 -1      1818 4.28612E-04 2.19802E-04 1.34102E-16
 -1      1819 3.97363E-04 1.87132E-04 1.43318E-16
 -1      1820 5.21264E-04 2.23062E-04 2.30027E-16
 -1      1821 5.88224E-04 2.84341E-04 2.22871E-16
 -1      1822 3.69503E-04-1.58837E-04 6.59737E-17
 -1      1823 9.02136E-04 3.84399E-04 5.05238E-16
 -1      1824 7.46050E-04 3.38189E-04 3.47744E-16
 -1      1825 7.09818E-04 3.05948E-04 3.51973E-16
 -1      1826 4.98080E-04-1.91655E-04 1.24832E-16
 -1      1827 8.84130E-04-3.05846E-04 3.44871E-16
 -1      1828 1.04802E-03-3.40109E-04 4.87118E-16
 -1      1829 1.21137E-03-3.70741E-04 6.56037E-16
 -1      1830 1.37605E-03-3.98969E-04 8.52142E-16
 -1      1831 1.09002E-03-3.16810E-04 6.09999E-16
 -1      1832 1.54189E-03-4.27153E-04 1.07377E-15
 -1      1833 1.71002E-03-4.56543E-04 1.32186E-15
 -1      1834 1.41027E-03-3.72736E-04 1.00926E-15
 -1      1835 1.88072E-03-4.89625E-04 1.59544E-15
 -1      1836 2.05450E-03-5.28266E-04 1.89444E-15
 -1      1837 1.73524E-03-4.30163E-04 1.51185E-15
 -1      1838 2.23225E-03-5.75204E-04 2.21793E-15
 -1      1839 2.41347E-03-6.33187E-04 2.56643E-15
 -1      1840 2.06962E-03-5.04431E-04 2.11466E-15
 -1      1841 2.60024E-03-7.04756E-04 2.93854E-15
 -1      1842 2.79022E-03-7.93310E-04 3.33548E-15
 -1      1843 2.41960E-03-6.14875E-04 2.81495E-15
 -1      1844 2.98698E-03-8.99732E-04 3.75667E-15
 -1      1845 3.18527E-03-1.02618E-03 4.20268E-15
 -1      1846 2.79296E-03-7.84164E-04 3.61103E-15
 -1      1847 3.38916E-03-1.16924E-03 4.67454E-15
 -1      1848 3.59073E-03-1.32459E-03 5.17362E-15
 -1      1849 3.19473E-03-1.03110E-03 4.50556E-15
 -1      1850 3.79119E-03-1.48255E-03 5.70103E-15
 -1      1851 3.98639E-03-1.62735E-03 6.25796E-15
 -1      1852 3.61571E-03-1.34591E-03 5.50493E-15
 -1      1853 4.16326E-03-1.74126E-03 6.81673E-15
 -1      1854 4.33947E-03-1.81500E-03 7.40227E-15
 -1      1855 4.01929E-03-1.64480E-03 6.59252E-15
 -1      1856 4.51719E-03-1.84365E-03 8.04948E-15
 -1      1857 4.70271E-03-1.82135E-03 8.72707E-15
 -1      1858 4.40261E-03-1.80612E-03 7.79976E-15
 -1      1859 4.89020E-03-1.75491E-03 9.43233E-15
 -1      1860 5.08665E-03-1.66405E-03 1.01657E-14
 -1      1861 4.79655E-03-1.75110E-03 9.16000E-15
 -1      1862 5.28848E-03-1.56150E-03 1.09229E-14
 -1      1863 5.49177E-03-1.46249E-03 1.17040E-14
 -1      1864 5.21195E-03-1.55438E-03 1.06310E-14
 -1      1865 5.69766E-03-1.37706E-03 1.25068E-14
 -1      1866 5.89796E-03-1.30953E-03 1.33294E-14
 -1      1867 5.63520E-03-1.35239E-03 1.21987E-14
 -1      1868 6.09678E-03-1.26334E-03 1.41696E-14
 -1      1869 6.28898E-03-1.23630E-03 1.50265E-14
 -1      1870 6.03933E-03-1.22345E-03 1.38467E-14
 -1      1871 6.47798E-03-1.22769E-03 1.59010E-14
 -1      1872 6.66143E-03-1.23423E-03 1.67903E-14
 -1      1873 6.41514E-03-1.17717E-03 1.55661E-14
 -1      1874 6.84124E-03-1.25367E-03 1.76921E-14
 -1      1875 7.01686E-03-1.28341E-03 1.86099E-14
 -1      1876 6.76742E-03-1.19580E-03 1.73465E-14
 -1      1877 7.18898E-03-1.32120E-03 1.95392E-14
 -1      1878 7.35791E-03-1.36535E-03 2.04815E-14
 -1      1879 7.10317E-03-1.25842E-03 1.91813E-14
 -1      1880 7.52370E-03-1.41417E-03 2.14369E-14
 -1      1881 7.68699E-03-1.46661E-03 2.24040E-14
 -1      1882 7.42745E-03-1.34836E-03 2.10691E-14
 -1      1883 7.84761E-03-1.52160E-03 2.33831E-14
 -1      1884 8.00623E-03-1.57846E-03 2.43758E-14
 -1      1885 7.74331E-03-1.45414E-03 2.30069E-14
 -1      1886 8.16266E-03-1.63659E-03 2.53795E-14
 -1      1887 8.31750E-03-1.69557E-03 2.63926E-14
 -1      1888 8.05261E-03-1.56845E-03 2.49918E-14
 -1      1889 8.47059E-03-1.75507E-03 2.74169E-14
 -1      1890 8.62243E-03-1.81484E-03 2.84535E-14
 -1      1891 8.35663E-03-1.68681E-03 2.70205E-14
 -1      1892 8.77290E-03-1.87471E-03 2.94998E-14
 -1      1893 8.92238E-03-1.93452E-03 3.05556E-14
 -1      1894 8.65639E-03-1.80666E-03 2.90904E-14
 -1      1895 9.07083E-03-1.99423E-03 3.16222E-14
 -1      1896 9.21851E-03-2.05372E-03 3.26989E-14
 -1      1897 8.95273E-03-1.92656E-03 3.12017E-14
 -1      1898 9.36541E-03-2.11300E-03 3.37821E-14
 -1      1899 9.51172E-03-2.17199E-03 3.48738E-14
 -1      1900 9.24637E-03-2.04576E-03 3.33485E-14
 -1      1901 9.65745E-03-2.23073E-03 3.59734E-14
 -1      1902 9.80274E-03-2.28916E-03 3.70792E-14
 -1      1903 9.53789E-03-2.16392E-03 3.55281E-14
 -1      1904 9.94760E-03-2.34733E-03 3.81926E-14
 -1      1905 1.00921E-02-2.40522E-03 3.93120E-14
 -1      1906 9.82778E-03-2.28092E-03 3.77374E-14
 -1      1907 1.02363E-02-2.46285E-03 4.04356E-14
 -1      1908 1.03803E-02-2.52023E-03 4.15637E-14
 -1      1909 1.01164E-02-2.39680E-03 3.99726E-14
 -1      1910 1.05241E-02-2.57738E-03 4.26927E-14
 -1      1911 1.06676E-02-2.63430E-03 4.38217E-14
 -1      1912 1.04042E-02-2.51162E-03 4.22245E-14
 -1      1913 1.08111E-02-2.69102E-03 4.49483E-14
 -1      1914 1.09544E-02-2.74755E-03 4.60742E-14
 -1      1915 1.06912E-02-2.62552E-03 4.44798E-14
 -1      1916 1.10975E-02-2.80391E-03 4.71987E-14
 -1      1917 1.12406E-02-2.86011E-03 4.83224E-14
 -1      1918 1.09778E-02-2.73862E-03 4.67332E-14
 -1      1919 1.13837E-02-2.91616E-03 4.94443E-14
 -1      1920 1.15266E-02-2.97208E-03 5.05678E-14
 -1      1921 1.12640E-02-2.85104E-03 4.89834E-14
 -1      1922 1.16696E-02-3.02789E-03 5.16910E-14
 -1      1923 1.18124E-02-3.08359E-03 5.28139E-14
 -1      1924 1.15500E-02-2.96290E-03 5.12336E-14
 -1      1925 1.19553E-02-3.13919E-03 5.39371E-14
 -1      1926 1.20981E-02-3.19471E-03 5.50632E-14
 -1      1927 1.18358E-02-3.07431E-03 5.34820E-14
 -1      1928 1.22409E-02-3.25016E-03 5.61943E-14
 -1      1929 1.23837E-02-3.30553E-03 5.73282E-14
 -1      1930 1.21216E-02-3.18535E-03 5.57398E-14
 -1      1931 1.25265E-02-3.36085E-03 5.84621E-14
 -1      1932 1.26693E-02-3.41612E-03 5.95986E-14
 -1      1933 1.24072E-02-3.29611E-03 5.80081E-14
 -1      1934 1.28121E-02-3.47134E-03 6.07375E-14
 -1      1935 1.29549E-02-3.52652E-03 6.18763E-14
 -1      1936 1.26929E-02-3.40664E-03 6.02815E-14
 -1      1937 1.30977E-02-3.58167E-03 6.30177E-14
 -1      1938 1.32405E-02-3.63679E-03 6.41572E-14
 -1      1939 1.29785E-02-3.51700E-03 6.25604E-14
 -1      1940 1.33832E-02-3.69188E-03 6.52980E-14
 -1      1941 1.35260E-02-3.74696E-03 6.64395E-14
 -1      1942 1.32641E-02-3.62724E-03 6.48418E-14
 -1      1943 1.36688E-02-3.80201E-03 6.75770E-14
 -1      1944 1.38116E-02-3.85705E-03 6.87195E-14
 -1      1945 1.35497E-02-3.73738E-03 6.71186E-14
 -1      1946 1.39544E-02-3.91208E-03 6.98588E-14
 -1      1947 1.40973E-02-3.96710E-03 7.09979E-14
 -1      1948 1.38353E-02-3.84746E-03 6.93970E-14
 -1      1949 1.42401E-02-4.02211E-03 7.21387E-14
 -1      1950 1.43829E-02-4.07711E-03 7.32773E-14
 -1      1951 1.41210E-02-3.95750E-03 7.16737E-14
 -1      1952 1.45257E-02-4.13211E-03 7.44157E-14
 -1      1953 1.46686E-02-4.18711E-03 7.55502E-14
 -1      1954 1.44066E-02-4.06750E-03 7.39496E-14
 -1      1955 1.48114E-02-4.24211E-03 7.66847E-14
 -1      1956 1.49542E-02-4.29710E-03 7.78135E-14
 -1      1957 1.46923E-02-4.17750E-03 7.62182E-14
 -1      1958 1.50971E-02-4.35210E-03 7.89363E-14
 -1      1959 1.52399E-02-4.40710E-03 8.00532E-14
 -1      1960 1.49780E-02-4.28749E-03 7.84772E-14
 -1      1961 1.53828E-02-4.46210E-03 8.11642E-14
 -1      1962 1.55256E-02-4.51710E-03 8.22689E-14
 -1      1963 1.52637E-02-4.39748E-03 8.07083E-14
 -1      1964 1.56988E-02-4.58495E-03 8.35756E-14
 -1      1965 1.44288E-03 4.99574E-04 1.35163E-15
 -1      1966 1.29247E-03 4.68620E-04 1.07934E-15
 -1      1967 1.74134E-03 5.57172E-04 1.98802E-15
 -1      1968 1.59254E-03 5.29013E-04 1.65445E-15
 -1      1969 1.49562E-03 4.75168E-04 1.53322E-15
 -1      1970 2.03685E-03 6.11684E-04 2.74382E-15
 -1      1971 1.88958E-03 5.84728E-04 2.35105E-15
 -1      1972 1.79649E-03 5.31618E-04 2.19924E-15
 -1      1973 2.32869E-03 6.63930E-04 3.61617E-15
 -1      1974 2.18340E-03 6.38176E-04 3.16563E-15
 -1      1975 2.09515E-03 5.85782E-04 2.98248E-15
 -1      1976 2.61558E-03 7.11423E-04 4.60260E-15
 -1      1977 2.47291E-03 6.88543E-04 4.09541E-15
 -1      1978 2.39085E-03 6.37834E-04 3.88022E-15
 -1      1979 2.89634E-03 7.48437E-04 5.69802E-15
 -1      1980 2.75680E-03 7.31675E-04 5.13654E-15
 -1      1981 2.68227E-03 6.84516E-04 4.88947E-15
 -1      1982 3.17069E-03 7.66907E-04 6.90032E-15
 -1      1983 3.03424E-03 7.60502E-04 6.28608E-15
 -1      1984 2.96818E-03 7.19251E-04 6.00742E-15
 -1      1985 3.43983E-03 7.58422E-04 8.20466E-15
 -1      1986 3.30567E-03 7.66470E-04 7.53987E-15
 -1      1987 3.24828E-03 7.33262E-04 7.23044E-15
 -1      1988 3.70654E-03 7.16947E-04 9.60562E-15
 -1      1989 3.57313E-03 7.42014E-04 8.89343E-15
 -1      1990 3.52386E-03 7.17932E-04 8.55445E-15
 -1      1991 3.97451E-03 6.41095E-04 1.10998E-14
 -1      1992 3.83999E-03 6.83204E-04 1.03418E-14
 -1      1993 3.79781E-03 6.67805E-04 9.97486E-15
 -1      1994 4.24722E-03 5.34836E-04 1.26778E-14
 -1      1995 4.11000E-03 5.91367E-04 1.18779E-14
 -1      1996 4.07376E-03 5.82812E-04 1.14858E-14
 -1      1997 4.52687E-03 4.06212E-04 1.43358E-14
 -1      1998 4.38606E-03 4.72765E-04 1.34972E-14
 -1      1999 4.35473E-03 4.68491E-04 1.30808E-14
 -1      2000 4.81400E-03 2.64848E-04 1.60680E-14
 -1      2001 4.66955E-03 3.36570E-04 1.51933E-14
 -1      2002 4.64218E-03 3.34071E-04 1.47545E-14
 -1      2003 5.10768E-03 1.19497E-04 1.78691E-14
 -1      2004 4.96018E-03 1.92233E-04 1.69600E-14
 -1      2005 4.93583E-03 1.89601E-04 1.65017E-14
 -1      2006 5.40613E-03-2.34553E-05 1.97307E-14
 -1      2007 5.25650E-03 4.74419E-05 1.87924E-14
 -1      2008 5.23420E-03 4.35361E-05 1.83152E-14
 -1      2009 5.70733E-03-1.60365E-04 2.16497E-14
 -1      2010 5.55657E-03-9.27982E-05 2.06841E-14
 -1      2011 5.53538E-03-9.84508E-05 2.01883E-14
 -1      2012 6.00949E-03-2.89904E-04 2.36186E-14
 -1      2013 5.85844E-03-2.26080E-04 2.26277E-14
 -1      2014 5.83758E-03-2.33489E-04 2.21158E-14
 -1      2015 6.31123E-03-4.12326E-04 2.56294E-14
 -1      2016 6.16052E-03-3.51964E-04 2.46195E-14
 -1      2017 6.13942E-03-3.60874E-04 2.40908E-14
 -1      2018 6.61161E-03-5.28743E-04 2.76820E-14
 -1      2019 6.46165E-03-4.71214E-04 2.66504E-14
 -1      2020 6.43999E-03-4.81265E-04 2.61094E-14
 -1      2021 6.91011E-03-6.40584E-04 2.97724E-14
 -1      2022 6.76112E-03-5.85158E-04 2.87230E-14
 -1      2023 6.73877E-03-5.95979E-04 2.81685E-14
 -1      2024 7.20655E-03-7.49249E-04 3.18991E-14
 -1      2025 7.05860E-03-6.95242E-04 3.08324E-14
 -1      2026 7.03558E-03-7.06511E-04 3.02659E-14
 -1      2027 7.50096E-03-8.55937E-04 3.40608E-14
 -1      2028 7.35400E-03-8.02782E-04 3.29750E-14
 -1      2029 7.33041E-03-8.14242E-04 3.23970E-14
 -1      2030 7.79350E-03-9.61584E-04 3.62489E-14
 -1      2031 7.64744E-03-9.08846E-04 3.51521E-14
 -1      2032 7.62341E-03-9.20315E-04 3.45625E-14
 -1      2033 8.08441E-03-1.06686E-03 3.84608E-14
 -1      2034 7.93913E-03-1.01424E-03 3.73518E-14
 -1      2035 7.91480E-03-1.02560E-03 3.67541E-14
 -1      2036 8.37396E-03-1.17223E-03 4.06897E-14
 -1      2037 8.22933E-03-1.11952E-03 3.95731E-14
 -1      2038 8.20482E-03-1.13069E-03 3.89660E-14
 -1      2039 8.66242E-03-1.27795E-03 4.29340E-14
 -1      2040 8.51831E-03-1.22503E-03 4.18104E-14
 -1      2041 8.49371E-03-1.23600E-03 4.11971E-14
 -1      2042 8.95002E-03-1.38418E-03 4.51893E-14
 -1      2043 8.80631E-03-1.33100E-03 4.40598E-14
 -1      2044 8.78171E-03-1.34174E-03 4.34424E-14
 -1      2045 9.23697E-03-1.49096E-03 4.74597E-14
 -1      2046 9.09356E-03-1.43750E-03 4.63239E-14
 -1      2047 9.06900E-03-1.44804E-03 4.56997E-14
 -1      2048 9.52344E-03-1.59829E-03 4.97423E-14
 -1      2049 9.38025E-03-1.54456E-03 4.86003E-14
 -1      2050 9.35576E-03-1.55491E-03 4.79721E-14
 -1      2051 9.80957E-03-1.70613E-03 5.20376E-14
 -1      2052 9.66654E-03-1.65215E-03 5.08878E-14
 -1      2053 9.64213E-03-1.66234E-03 5.02561E-14
 -1      2054 1.00955E-02-1.81442E-03 5.43425E-14
 -1      2055 9.95253E-03-1.76022E-03 5.31882E-14
 -1      2056 9.92822E-03-1.77028E-03 5.25502E-14
 -1      2057 1.03812E-02-1.92309E-03 5.66627E-14
 -1      2058 1.02383E-02-1.86871E-03 5.55014E-14
 -1      2059 1.02141E-02-1.87866E-03 5.48576E-14
 -1      2060 1.06668E-02-2.03208E-03 5.89921E-14
 -1      2061 1.05240E-02-1.97755E-03 5.78259E-14
 -1      2062 1.04999E-02-1.98740E-03 5.71761E-14
 -1      2063 1.09524E-02-2.14132E-03 6.13369E-14
 -1      2064 1.08096E-02-2.08667E-03 6.01638E-14
 -1      2065 1.07855E-02-2.09646E-03 5.95098E-14
 -1      2066 1.12380E-02-2.25076E-03 6.36839E-14
 -1      2067 1.10952E-02-2.19602E-03 6.25092E-14
 -1      2068 1.10712E-02-2.20575E-03 6.18515E-14
 -1      2069 1.15235E-02-2.36036E-03 6.60342E-14
 -1      2070 1.13808E-02-2.30554E-03 6.48576E-14
 -1      2071 1.13568E-02-2.31524E-03 6.41953E-14
 -1      2072 1.18091E-02-2.47007E-03 6.83861E-14
 -1      2073 1.16663E-02-2.41520E-03 6.72113E-14
 -1      2074 1.16424E-02-2.42487E-03 6.65426E-14
 -1      2075 1.20947E-02-2.57988E-03 7.07401E-14
 -1      2076 1.19519E-02-2.52497E-03 6.95632E-14
 -1      2077 1.19280E-02-2.53462E-03 6.88910E-14
 -1      2078 1.23803E-02-2.68974E-03 7.30905E-14
 -1      2079 1.22375E-02-2.63480E-03 7.19149E-14
 -1      2080 1.22136E-02-2.64444E-03 7.12355E-14
 -1      2081 1.26659E-02-2.79965E-03 7.54381E-14
 -1      2082 1.25231E-02-2.74469E-03 7.42645E-14
 -1      2083 1.24993E-02-2.75432E-03 7.35814E-14
 -1      2084 1.29516E-02-2.90958E-03 7.77878E-14
 -1      2085 1.28088E-02-2.85461E-03 7.66128E-14
 -1      2086 1.27849E-02-2.86423E-03 7.59259E-14
 -1      2087 1.32372E-02-3.01952E-03 8.01382E-14
 -1      2088 1.30944E-02-2.96455E-03 7.89623E-14
 -1      2089 1.30706E-02-2.97417E-03 7.82743E-14
 -1      2090 1.35229E-02-3.12947E-03 8.24921E-14
 -1      2091 1.33801E-02-3.07449E-03 8.13143E-14
 -1      2092 1.33562E-02-3.08412E-03 8.06219E-14
 -1      2093 1.38086E-02-3.23940E-03 8.48381E-14
 -1      2094 1.36658E-02-3.18444E-03 8.36644E-14
 -1      2095 1.36419E-02-3.19406E-03 8.29690E-14
 -1      2096 1.40679E-02-3.33785E-03 8.70045E-14
 -1      2097 1.39250E-02-3.28289E-03 8.58300E-14
 -1      2098 1.39012E-02-3.29252E-03 8.51292E-14
 -1      2099 1.41340E-02-3.37949E-03 8.71113E-14
 -1      2100 1.44238E-02-3.60721E-03 8.63232E-14
 -1      2101 1.43698E-02-3.56505E-03 8.64699E-14
 -1      2102 1.43158E-02-3.52290E-03 8.66107E-14
 -1      2103 1.42618E-02-3.48074E-03 8.67477E-14
 -1      2104 1.42191E-02-3.49638E-03 8.55351E-14
 -1      2105 1.41880E-02-3.42163E-03 8.69773E-14
 -1      2106 1.45300E-02-3.69011E-03 8.60343E-14
 -1      2107 1.44769E-02-3.64866E-03 8.61799E-14
 -1      2108 1.43262E-02-3.57998E-03 8.52529E-14
 -1      2109 1.46381E-02-3.77444E-03 8.57349E-14
 -1      2110 1.45841E-02-3.73227E-03 8.58866E-14
 -1      2111 1.44333E-02-3.66359E-03 8.49670E-14
 -1      2112 1.47462E-02-3.85878E-03 8.54380E-14
 -1      2113 1.46921E-02-3.81661E-03 8.55843E-14
 -1      2114 1.45414E-02-3.74792E-03 8.46736E-14
 -1      2115 1.48543E-02-3.94313E-03 8.51389E-14
 -1      2116 1.48002E-02-3.90096E-03 8.52893E-14
 -1      2117 1.46495E-02-3.83226E-03 8.43814E-14
 -1      2118 1.49624E-02-4.02748E-03 8.48545E-14
 -1      2119 1.49084E-02-3.98530E-03 8.49935E-14
 -1      2120 1.47576E-02-3.91660E-03 8.40924E-14
 -1      2121 1.50706E-02-4.11182E-03 8.45806E-14
 -1      2122 1.50165E-02-4.06965E-03 8.47159E-14
 -1      2123 1.48658E-02-4.00094E-03 8.38126E-14
 -1      2124 1.51770E-02-4.19473E-03 8.43244E-14
 -1      2125 1.51238E-02-4.15328E-03 8.44526E-14
 -1      2126 1.49730E-02-4.08457E-03 8.35462E-14
 -1      2127 1.52852E-02-4.27906E-03 8.40733E-14
 -1      2128 1.52311E-02-4.23690E-03 8.41958E-14
 -1      2129 1.50803E-02-4.16819E-03 8.32932E-14
 -1      2130 1.53934E-02-4.36338E-03 8.38321E-14
 -1      2131 1.53393E-02-4.32122E-03 8.39533E-14
 -1      2132 1.51885E-02-4.25251E-03 8.30495E-14
 -1      2133 1.55017E-02-4.44769E-03 8.35918E-14
 -1      2134 1.54476E-02-4.40554E-03 8.37120E-14
 -1      2135 1.52968E-02-4.33683E-03 8.28133E-14
 -1      2136 1.17436E-03 4.47540E-04 8.76808E-16
 -1      2137 1.02181E-03 4.11259E-04 6.60835E-16
 -1      2138 9.86111E-04 3.79614E-04 6.61228E-16
 -1      2139 1.22537E-03 4.25387E-04 1.03028E-15
 -1      2140 6.01000E-03-5.60531E-04 1.26760E-14
 -1      2141 6.17281E-03-6.21847E-04 1.28501E-14
 -1      2142 5.20242E-03-1.56794E-04 1.15353E-14
 -1      2143 5.39952E-03-2.65560E-04 1.18364E-14
 -1      2144 6.51724E-03-7.34233E-04 1.30402E-14
 -1      2145 6.54614E-03-7.50033E-04 1.30145E-14
 -1      2146 5.62140E-03-3.72836E-04 1.21122E-14
 -1      2147 5.81016E-03-4.63916E-04 1.23620E-14
 -1      2148 3.18956E-04-5.34806E-05 1.53537E-16
 -1      2149 3.27832E-04-6.28991E-05 1.46381E-16
 -1      2150 4.48144E-04-9.53551E-05 2.12219E-16
 -1      2151 4.22688E-04-6.99613E-05 2.31233E-16
 -1      2152 4.79309E-03 7.14994E-05 1.08423E-14
 -1      2153 4.98704E-03-3.84152E-05 1.11821E-14
 -1      2154 4.40312E-03 2.82857E-04 9.94140E-15
 -1      2155 4.56147E-03 1.98636E-04 1.03422E-14
 -1      2156 4.10268E-03 3.85795E-04 9.16728E-15
 -1      2157 4.24979E-03 3.43527E-04 9.55038E-15
 -1      2158 4.30398E-03 3.16703E-04 9.85884E-15
 -1      2159 3.77071E-03 4.01686E-04 8.28962E-15
 -1      2160 3.91561E-03 4.11258E-04 8.68741E-15
 -1      2161 3.41087E-03 2.95525E-04 7.43806E-15
 -1      2162 3.57234E-03 3.55029E-04 7.80043E-15
 -1      2163 3.05911E-03 1.38445E-04 6.76591E-15
 -1      2164 3.22745E-03 2.19896E-04 7.07819E-15
 -1      2165 2.69659E-03-4.00819E-05 6.16088E-15
 -1      2166 2.86575E-03 4.28017E-05 6.41853E-15
 -1      2167 2.34215E-03-1.96026E-04 5.69153E-15
 -1      2168 2.50313E-03-1.26717E-04 5.89902E-15
 -1      2169 2.04059E-03-3.12410E-04 5.31426E-15
 -1      2170 2.17286E-03-2.65411E-04 5.46999E-15
 -1      2171 1.84010E-03-3.81056E-04 5.08860E-15
 -1      2172 1.91850E-03-3.54447E-04 5.18923E-15
 -1      2173 1.78686E-03-4.23380E-04 4.91804E-15
 -1      2174 1.79085E-03-4.07480E-04 4.95830E-15
 -1      2175 1.90604E-03-4.76457E-04 4.92206E-15
 -1      2176 1.82794E-03-4.50854E-04 4.91250E-15
 -1      2177 2.18664E-03-5.89585E-04 5.08970E-15
 -1      2178 2.04445E-03-5.31811E-04 4.99791E-15
 -1      2179 2.54671E-03-7.64926E-04 5.36345E-15
 -1      2180 2.36656E-03-6.76168E-04 5.22850E-15
 -1      2181 2.98260E-03-9.97428E-04 5.69941E-15
 -1      2182 2.76636E-03-8.74219E-04 5.51406E-15
 -1      2183 3.45926E-03-1.31593E-03 6.29282E-15
 -1      2184 3.25092E-03-1.17112E-03 6.00888E-15
 -1      2185 3.87148E-03-1.58063E-03 6.97505E-15
 -1      2186 3.69227E-03-1.46679E-03 6.64602E-15
 -1      2187 4.22290E-03-1.72814E-03 7.73825E-15
 -1      2188 4.06077E-03-1.67327E-03 7.37965E-15
 -1      2189 4.56384E-03-1.73818E-03 8.55303E-15
 -1      2190 4.40368E-03-1.75318E-03 8.15149E-15
 -1      2191 4.94886E-03-1.59311E-03 9.50390E-15
 -1      2192 4.77938E-03-1.67466E-03 9.09543E-15
 -1      2193 5.30104E-03-1.39844E-03 1.02664E-14
 -1      2194 5.12171E-03-1.50388E-03 9.88386E-15
 -1      2195 5.01883E-03-1.55630E-03 9.78061E-15
 -1      2196 5.72609E-03-1.15518E-03 1.11151E-14
 -1      2197 5.53916E-03-1.26146E-03 1.07527E-14
 -1      2198 6.09224E-03-9.64904E-04 1.18506E-14
 -1      2199 5.92762E-03-1.04462E-03 1.15419E-14
 -1      2200 6.37277E-03-8.44680E-04 1.23902E-14
 -1      2201 6.25342E-03-8.93746E-04 1.21361E-14
 -1      2202 6.53157E-03-7.76226E-04 1.29506E-14
 -1      2203 6.47629E-03-7.97665E-04 1.27743E-14
 -1      2204 6.35197E-03-6.81151E-04 1.29758E-14
 -1      2205 6.45314E-03-7.08596E-04 1.30068E-14
 -1      2206 6.49597E-03-7.43910E-04 1.34618E-14
 -1      2207 1.55797E-02-4.52032E-03 8.31280E-14
 -1      2208 5.47871E-03-3.47016E-04 1.22596E-14
 -1      2209 6.61177E-04-2.41284E-04 2.06676E-16
 -1      2210 5.89289E-03-5.44715E-04 1.28564E-14
 -1      2211 5.06472E-03-1.20866E-04 1.16196E-14
 -1      2212 7.13591E-04-2.27618E-04 2.86338E-16
 -1      2213 1.40913E-02-3.39511E-03 8.58985E-14
 -1      2214 1.55295E-02-4.48444E-03 8.31522E-14
 -1      2215 6.26998E-03-6.82150E-04 1.33018E-14
 -1      2216 6.55304E-03-7.72429E-04 1.34290E-14
 -1      2217 6.43214E-03-8.13087E-04 1.29718E-14
 -1      2218 6.16784E-03-9.15277E-04 1.22954E-14
 -1      2219 5.39737E-03-1.32904E-03 1.06507E-14
 -1      2220 4.67532E-03-1.72072E-03 8.85067E-15
 -1      2221 4.32460E-03-1.75583E-03 7.89990E-15
 -1      2222 3.99176E-03-1.63547E-03 7.08757E-15
 -1      2223 3.61307E-03-1.38729E-03 6.34128E-15
 -1      2224 3.14254E-03-1.06031E-03 5.69292E-15
 -1      2225 2.68097E-03-7.81734E-04 5.25066E-15
 -1      2226 2.29081E-03-5.94825E-04 4.97028E-15
 -1      2227 1.97196E-03-4.72281E-04 4.76236E-15
 -1      2228 1.79751E-03-4.16387E-04 4.69407E-15
 -1      2229 1.80509E-03-3.92221E-04 4.82475E-15
 -1      2230 1.97561E-03-3.41523E-04 5.07273E-15
 -1      2231 2.26022E-03-2.44937E-04 5.40730E-15
 -1      2232 2.61151E-03-9.52274E-05 5.87882E-15
 -1      2233 2.97715E-03 8.56014E-05 6.47458E-15
 -1      2234 3.32929E-03 2.59706E-04 7.17341E-15
 -1      2235 3.99898E-03 4.09540E-04 8.98148E-15
 -1      2236 4.65010E-03 1.29901E-04 1.07546E-14
 -1      2237 3.67288E-03 3.89046E-04 8.01296E-15
 -1      2238 5.81806E-03-1.08424E-03 1.15733E-14
 -1      2239 1.53787E-02-4.41573E-03 8.22547E-14
 -1      2240 4.94190E-04-5.39605E-05 3.63899E-16
 -1      2241 4.97534E-04-6.02682E-05 3.58207E-16
 -1      2242 5.03688E-04-6.71009E-05 3.51539E-16
 -1      2243 5.12656E-04-7.50715E-05 3.43516E-16
 -1      2244 6.01573E-04-7.89095E-05 4.80247E-16
 -1      2245 5.03943E-04-2.34670E-05 3.80121E-16
 -1      2246 4.98720E-04-3.26862E-05 3.76936E-16
 -1      2247 5.17866E-04-3.20640E-07 3.84756E-16
 -1      2248 5.10500E-04-1.26967E-05 3.82710E-16
 -1      2249 6.12160E-04-2.18485E-05 5.15050E-16
 -1      2250 5.33899E-04 2.90293E-05 3.87101E-16
 -1      2251 5.25760E-04 1.35532E-05 3.86071E-16
 -1      2252 6.31104E-04 8.50700E-06 5.20376E-16
 -1      2253 5.50992E-04 6.56187E-05 3.86572E-16
 -1      2254 5.42430E-04 4.65185E-05 3.87385E-16
 -1      2255 6.52104E-04 4.65317E-05 5.22897E-16
 -1      2256 5.68733E-04 1.09067E-04 3.81219E-16
 -1      2257 5.59765E-04 8.65021E-05 3.84783E-16
 -1      2258 6.73756E-04 9.23759E-05 5.21352E-16
 -1      2259 5.88884E-04 1.60345E-04 3.68209E-16
 -1      2260 5.78354E-04 1.33664E-04 3.75893E-16
 -1      2261 6.96226E-04 1.45702E-04 5.13221E-16
 -1      2262 6.16158E-04 2.22238E-04 3.42554E-16
 -1      2263 6.01338E-04 1.89792E-04 3.57489E-16
 -1      2264 7.22364E-04 2.07509E-04 4.94776E-16
 -1      2265 6.75966E-04 2.77037E-04 3.50048E-16
 -1      2266 6.45381E-04 2.47889E-04 3.48964E-16
 -1      2267 7.67633E-04 2.67994E-04 4.89856E-16
 -1      2268 8.31134E-04 3.23311E-04 5.04100E-16
 -1      2269 9.73766E-04-2.66518E-04 5.60722E-16
 -1      2270 1.12852E-03-2.95358E-04 7.38680E-16
 -1      2271 5.76341E-03-5.18309E-04 1.30413E-14
 -1      2272 5.95575E-03-6.00407E-04 1.33608E-14
 -1      2273 5.37239E-03-3.25246E-04 1.24669E-14
 -1      2274 5.57199E-03-4.27488E-04 1.27517E-14
 -1      2275 5.66260E-03-4.89073E-04 1.32510E-14
 -1      2276 1.28305E-03-3.22426E-04 9.42307E-16
 -1      2277 1.43843E-03-3.48685E-04 1.17158E-15
 -1      2278 1.16208E-03-2.75911E-04 8.73447E-16
 -1      2279 1.59436E-03-3.76054E-04 1.42642E-15
 -1      2280 1.75193E-03-4.05948E-04 1.70636E-15
 -1      2281 1.45995E-03-3.26996E-04 1.33942E-15
 -1      2282 1.91153E-03-4.40402E-04 2.01014E-15
 -1      2283 2.07420E-03-4.81856E-04 2.33866E-15
 -1      2284 1.76018E-03-3.83697E-04 1.90504E-15
 -1      2285 2.24151E-03-5.32148E-04 2.69080E-15
 -1      2286 2.41416E-03-5.95502E-04 3.06658E-15
 -1      2287 2.06893E-03-4.59665E-04 2.56639E-15
 -1      2288 2.59563E-03-6.72801E-04 3.46567E-15
 -1      2289 2.78485E-03-7.70585E-04 3.88888E-15
 -1      2290 2.39840E-03-5.73711E-04 3.32121E-15
 -1      2291 2.98743E-03-8.87648E-04 4.33587E-15
 -1      2292 3.19718E-03-1.02986E-03 4.80857E-15
 -1      2293 2.76723E-03-7.52376E-04 4.16819E-15
 -1      2294 3.44025E-03-1.20702E-03 5.29539E-15
 -1      2295 3.66031E-03-1.37846E-03 5.82322E-15
 -1      2296 3.88300E-03-1.54977E-03 6.36080E-15
 -1      2297 4.08477E-03-1.68016E-03 6.92046E-15
 -1      2298 5.12659E-03-1.55962E-03 1.03192E-14
 -1      2299 5.34765E-03-1.44269E-03 1.10829E-14
 -1      2300 5.58045E-03-1.32176E-03 1.18875E-14
 -1      2301 5.79073E-03-1.23731E-03 1.26962E-14
 -1      2302 5.99344E-03-1.17974E-03 1.35234E-14
 -1      2303 6.18305E-03-1.14216E-03 1.43677E-14
 -1      2304 5.95771E-03-1.13179E-03 1.31981E-14
 -1      2305 6.36495E-03-1.12615E-03 1.52298E-14
 -1      2306 6.53804E-03-1.12564E-03 1.61069E-14
 -1      2307 6.32599E-03-1.07322E-03 1.48933E-14
 -1      2308 6.70563E-03-1.13984E-03 1.69981E-14
 -1      2309 6.86845E-03-1.16458E-03 1.79035E-14
 -1      2310 6.65490E-03-1.08473E-03 1.66498E-14
 -1      2311 7.02793E-03-1.19846E-03 1.88225E-14
 -1      2312 7.18502E-03-1.23920E-03 1.97550E-14
 -1      2313 6.96268E-03-1.14092E-03 1.84632E-14
 -1      2314 7.34003E-03-1.28533E-03 2.07016E-14
 -1      2315 7.49377E-03-1.33566E-03 2.16599E-14
 -1      2316 7.26109E-03-1.22511E-03 2.03319E-14
 -1      2317 7.64608E-03-1.38903E-03 2.26293E-14
 -1      2318 7.79760E-03-1.44477E-03 2.36107E-14
 -1      2319 7.55577E-03-1.32645E-03 2.22514E-14
 -1      2320 7.94803E-03-1.50209E-03 2.46042E-14
 -1      2321 8.09787E-03-1.56061E-03 2.56093E-14
 -1      2322 7.84893E-03-1.43777E-03 2.42176E-14
 -1      2323 8.24682E-03-1.61985E-03 2.66230E-14
 -1      2324 8.39526E-03-1.67958E-03 2.76478E-14
 -1      2325 8.14123E-03-1.55442E-03 2.62259E-14
 -1      2326 8.54297E-03-1.73952E-03 2.86831E-14
 -1      2327 8.69024E-03-1.79954E-03 2.97280E-14
 -1      2328 8.43275E-03-1.67349E-03 2.82760E-14
 -1      2329 8.83690E-03-1.85949E-03 3.07819E-14
 -1      2330 8.98318E-03-1.91931E-03 3.18450E-14
 -1      2331 8.72345E-03-1.79321E-03 3.03644E-14
 -1      2332 9.12897E-03-1.97892E-03 3.29170E-14
 -1      2333 9.27443E-03-2.03827E-03 3.39975E-14
 -1      2334 9.01332E-03-1.91261E-03 3.24873E-14
 -1      2335 9.41950E-03-2.09736E-03 3.50860E-14
 -1      2336 9.56430E-03-2.15616E-03 3.61821E-14
 -1      2337 9.30239E-03-2.03117E-03 3.46469E-14
 -1      2338 9.70880E-03-2.21467E-03 3.72866E-14
 -1      2339 9.85308E-03-2.27289E-03 3.83972E-14
 -1      2340 9.59072E-03-2.14865E-03 3.68379E-14
 -1      2341 9.99712E-03-2.33083E-03 3.95126E-14
 -1      2342 1.01410E-02-2.38850E-03 4.06334E-14
 -1      2343 9.87844E-03-2.26502E-03 3.90552E-14
 -1      2344 1.02847E-02-2.44592E-03 4.17571E-14
 -1      2345 1.04282E-02-2.50309E-03 4.28846E-14
 -1      2346 1.01656E-02-2.38031E-03 4.12933E-14
 -1      2347 1.05717E-02-2.56004E-03 4.40118E-14
 -1      2348 1.07150E-02-2.61678E-03 4.51380E-14
 -1      2349 1.04524E-02-2.49462E-03 4.35446E-14
 -1      2350 1.08582E-02-2.67333E-03 4.62674E-14
 -1      2351 1.10014E-02-2.72970E-03 4.73955E-14
 -1      2352 1.07389E-02-2.60807E-03 4.58006E-14
 -1      2353 1.11445E-02-2.78591E-03 4.85208E-14
 -1      2354 1.12876E-02-2.84197E-03 4.96466E-14
 -1      2355 1.10251E-02-2.72079E-03 4.80559E-14
 -1      2356 1.14305E-02-2.89790E-03 5.07726E-14
 -1      2357 1.15735E-02-2.95371E-03 5.18991E-14
 -1      2358 1.13111E-02-2.83290E-03 5.03108E-14
 -1      2359 1.17164E-02-3.00941E-03 5.30266E-14
 -1      2360 1.18593E-02-3.06501E-03 5.41536E-14
 -1      2361 1.15971E-02-2.94451E-03 5.25673E-14
 -1      2362 1.20022E-02-3.12053E-03 5.52826E-14
 -1      2363 1.21451E-02-3.17597E-03 5.64188E-14
 -1      2364 1.18829E-02-3.05571E-03 5.48280E-14
 -1      2365 1.22879E-02-3.23135E-03 5.75525E-14
 -1      2366 1.24308E-02-3.28666E-03 5.86876E-14
 -1      2367 1.21686E-02-3.16658E-03 5.70940E-14
 -1      2368 1.25736E-02-3.34193E-03 5.98255E-14
 -1      2369 1.27164E-02-3.39715E-03 6.09632E-14
 -1      2370 1.24543E-02-3.27721E-03 5.93678E-14
 -1      2371 1.28593E-02-3.45233E-03 6.21032E-14
 -1      2372 1.30021E-02-3.50747E-03 6.32428E-14
 -1      2373 1.27400E-02-3.38764E-03 6.16465E-14
 -1      2374 1.31449E-02-3.56259E-03 6.43831E-14
 -1      2375 1.32877E-02-3.61768E-03 6.55221E-14
 -1      2376 1.30257E-02-3.49793E-03 6.39245E-14
 -1      2377 1.34306E-02-3.67275E-03 6.66596E-14
 -1      2378 1.35734E-02-3.72780E-03 6.77978E-14
 -1      2379 1.33114E-02-3.60811E-03 6.61991E-14
 -1      2380 1.37162E-02-3.78284E-03 6.89365E-14
 -1      2381 1.38590E-02-3.83787E-03 7.00750E-14
 -1      2382 1.35971E-02-3.71822E-03 6.84767E-14
 -1      2383 1.40019E-02-3.89288E-03 7.12139E-14
 -1      2384 1.41447E-02-3.94789E-03 7.23521E-14
 -1      2385 1.38827E-02-3.82827E-03 7.07556E-14
 -1      2386 1.42875E-02-4.00289E-03 7.34876E-14
 -1      2387 1.44304E-02-4.05789E-03 7.46223E-14
 -1      2388 1.41684E-02-3.93828E-03 7.30284E-14
 -1      2389 1.45732E-02-4.11289E-03 7.57587E-14
 -1      2390 1.47161E-02-4.16788E-03 7.68896E-14
 -1      2391 1.44541E-02-4.04827E-03 7.52974E-14
 -1      2392 1.48589E-02-4.22287E-03 7.80146E-14
 -1      2393 1.50018E-02-4.27787E-03 7.91363E-14
 -1      2394 1.47398E-02-4.15826E-03 7.75565E-14
 -1      2395 1.51188E-02-4.31930E-03 8.01441E-14
 -1      2396 1.52617E-02-4.37430E-03 8.12559E-14
 -1      2397 1.52338E-02-4.33755E-03 8.16952E-14
 -1      2398 1.49997E-02-4.25468E-03 7.96887E-14
 -1      2399 2.15682E-03 5.58604E-04 3.22111E-15
 -1      2400 2.00591E-03 5.31863E-04 2.80190E-15
 -1      2401 1.85446E-03 5.04832E-04 2.41141E-15
 -1      2402 1.70292E-03 4.77565E-04 2.04936E-15
 -1      2403 1.91518E-03 4.76941E-04 2.62443E-15
 -1      2404 1.55105E-03 4.49661E-04 1.71660E-15
 -1      2405 1.39904E-03 4.20891E-04 1.41312E-15
 -1      2406 1.60875E-03 4.23156E-04 1.90184E-15
 -1      2407 2.45709E-03 6.10533E-04 4.14347E-15
 -1      2408 2.30739E-03 5.84978E-04 3.66818E-15
 -1      2409 2.22182E-03 5.30340E-04 3.45973E-15
 -1      2410 2.75364E-03 6.56568E-04 5.17524E-15
 -1      2411 2.60598E-03 6.34698E-04 4.64604E-15
 -1      2412 2.52721E-03 5.82313E-04 4.40571E-15
 -1      2413 3.04492E-03 6.89175E-04 6.31513E-15
 -1      2414 2.89999E-03 6.75145E-04 5.73196E-15
 -1      2415 2.82917E-03 6.27935E-04 5.46034E-15
 -1      2416 3.33048E-03 6.98686E-04 7.55936E-15
 -1      2417 3.18829E-03 6.97452E-04 6.92456E-15
 -1      2418 3.12567E-03 6.58508E-04 6.62170E-15
 -1      2419 3.61176E-03 6.76160E-04 8.90255E-15
 -1      2420 3.47133E-03 6.91877E-04 8.21855E-15
 -1      2421 3.41614E-03 6.63249E-04 7.88596E-15
 -1      2422 3.89204E-03 6.16778E-04 1.03420E-14
 -1      2423 3.75161E-03 6.51136E-04 9.61031E-15
 -1      2424 3.70247E-03 6.32813E-04 9.24918E-15
 -1      2425 4.17515E-03 5.22077E-04 1.18703E-14
 -1      2426 4.03289E-03 5.73483E-04 1.10960E-14
 -1      2427 3.98863E-03 5.63327E-04 1.07075E-14
 -1      2428 4.46377E-03 3.99464E-04 1.34829E-14
 -1      2429 4.31861E-03 4.63625E-04 1.26664E-14
 -1      2430 4.27870E-03 4.58356E-04 1.22548E-14
 -1      2431 4.75856E-03 2.59471E-04 1.51719E-14
 -1      2432 4.61043E-03 3.30950E-04 1.43178E-14
 -1      2433 4.57490E-03 3.27455E-04 1.38840E-14
 -1      2434 5.05835E-03 1.12474E-04 1.69342E-14
 -1      2435 4.90800E-03 1.86285E-04 1.60446E-14
 -1      2436 4.87689E-03 1.82435E-04 1.55892E-14
 -1      2437 5.36111E-03-3.35821E-05 1.87595E-14
 -1      2438 5.20958E-03 3.89690E-05 1.78391E-14
 -1      2439 5.18253E-03 3.37441E-05 1.73649E-14
 -1      2440 5.66479E-03-1.73934E-04 2.06439E-14
 -1      2441 5.51302E-03-1.04643E-04 1.96950E-14
 -1      2442 5.48925E-03-1.11477E-04 1.92035E-14
 -1      2443 5.96783E-03-3.06589E-04 2.25794E-14
 -1      2444 5.81653E-03-2.41257E-04 2.16058E-14
 -1      2445 5.79499E-03-2.49538E-04 2.10973E-14
 -1      2446 6.26928E-03-4.31496E-04 2.45626E-14
 -1      2447 6.11884E-03-3.69964E-04 2.35659E-14
 -1      2448 6.09853E-03-3.79383E-04 2.30426E-14
 -1      2449 6.56869E-03-5.49693E-04 2.65881E-14
 -1      2450 6.41929E-03-4.91350E-04 2.55696E-14
 -1      2451 6.39935E-03-5.01587E-04 2.50322E-14
 -1      2452 6.86593E-03-6.62660E-04 2.86533E-14
 -1      2453 6.71759E-03-6.06739E-04 2.76154E-14
 -1      2454 6.69745E-03-6.17514E-04 2.70642E-14
 -1      2455 7.16109E-03-7.71913E-04 3.07568E-14
 -1      2456 7.01376E-03-7.17668E-04 2.97010E-14
 -1      2457 6.99308E-03-7.28751E-04 2.91371E-14
 -1      2458 7.45436E-03-8.78781E-04 3.28935E-14
 -1      2459 7.30794E-03-8.25577E-04 3.18211E-14
 -1      2460 7.28658E-03-8.36793E-04 3.12459E-14
 -1      2461 7.74601E-03-9.84324E-04 3.50621E-14
 -1      2462 7.60037E-03-9.31667E-04 3.39734E-14
 -1      2463 7.57833E-03-9.42887E-04 3.33882E-14
 -1      2464 8.03628E-03-1.08932E-03 3.72567E-14
 -1      2465 7.89129E-03-1.03686E-03 3.61568E-14
 -1      2466 7.86864E-03-1.04799E-03 3.55596E-14
 -1      2467 8.32542E-03-1.19431E-03 3.94710E-14
 -1      2468 8.18097E-03-1.14179E-03 3.83619E-14
 -1      2469 8.15782E-03-1.15279E-03 3.77573E-14
 -1      2470 8.61365E-03-1.29962E-03 4.17035E-14
 -1      2471 8.46963E-03-1.24691E-03 4.05850E-14
 -1      2472 8.44610E-03-1.25774E-03 3.99751E-14
 -1      2473 8.90117E-03-1.40543E-03 4.39497E-14
 -1      2474 8.75748E-03-1.35246E-03 4.28253E-14
 -1      2475 8.73368E-03-1.36311E-03 4.22083E-14
 -1      2476 9.18814E-03-1.51184E-03 4.62088E-14
 -1      2477 9.04471E-03-1.45856E-03 4.50778E-14
 -1      2478 9.02073E-03-1.46904E-03 4.44565E-14
 -1      2479 9.47469E-03-1.61883E-03 4.84821E-14
 -1      2480 9.33146E-03-1.56526E-03 4.73433E-14
 -1      2481 9.30737E-03-1.57558E-03 4.67164E-14
 -1      2482 9.76094E-03-1.72638E-03 5.07678E-14
 -1      2483 9.61784E-03-1.67254E-03 4.96239E-14
 -1      2484 9.59371E-03-1.68272E-03 4.89908E-14
 -1      2485 1.00470E-02-1.83443E-03 5.30628E-14
 -1      2486 9.90397E-03-1.78034E-03 5.19143E-14
 -1      2487 9.87982E-03-1.79040E-03 5.12779E-14
 -1      2488 1.03328E-02-1.94290E-03 5.53726E-14
 -1      2489 1.01899E-02-1.88861E-03 5.42162E-14
 -1      2490 1.01658E-02-1.89857E-03 5.35767E-14
 -1      2491 1.06186E-02-2.05173E-03 5.76920E-14
 -1      2492 1.04757E-02-1.99727E-03 5.65317E-14
 -1      2493 1.04516E-02-2.00715E-03 5.58864E-14
 -1      2494 1.09043E-02-2.16085E-03 6.00260E-14
 -1      2495 1.07615E-02-2.10626E-03 5.88572E-14
 -1      2496 1.07374E-02-2.11607E-03 5.82085E-14
 -1      2497 1.11900E-02-2.27020E-03 6.23639E-14
 -1      2498 1.10471E-02-2.21550E-03 6.11938E-14
 -1      2499 1.10231E-02-2.22526E-03 6.05399E-14
 -1      2500 1.14756E-02-2.37973E-03 6.47068E-14
 -1      2501 1.13328E-02-2.32495E-03 6.35361E-14
 -1      2502 1.13088E-02-2.33466E-03 6.28762E-14
 -1      2503 1.17613E-02-2.48940E-03 6.70485E-14
 -1      2504 1.16184E-02-2.43455E-03 6.58770E-14
 -1      2505 1.15945E-02-2.44424E-03 6.52152E-14
 -1      2506 1.20469E-02-2.59917E-03 6.93913E-14
 -1      2507 1.19041E-02-2.54427E-03 6.82205E-14
 -1      2508 1.18801E-02-2.55394E-03 6.75514E-14
 -1      2509 1.23325E-02-2.70901E-03 7.17311E-14
 -1      2510 1.21897E-02-2.65408E-03 7.05611E-14
 -1      2511 1.21658E-02-2.66373E-03 6.98889E-14
 -1      2512 1.26182E-02-2.81890E-03 7.40720E-14
 -1      2513 1.24754E-02-2.76395E-03 7.29002E-14
 -1      2514 1.24515E-02-2.77359E-03 7.22230E-14
 -1      2515 1.29039E-02-2.92883E-03 7.64109E-14
 -1      2516 1.27610E-02-2.87386E-03 7.52410E-14
 -1      2517 1.27372E-02-2.88349E-03 7.45584E-14
 -1      2518 1.31895E-02-3.03877E-03 7.87559E-14
 -1      2519 1.30467E-02-2.98380E-03 7.75845E-14
 -1      2520 1.30228E-02-2.99342E-03 7.68948E-14
 -1      2521 1.34752E-02-3.14872E-03 8.11027E-14
 -1      2522 1.33324E-02-3.09374E-03 7.99296E-14
 -1      2523 1.33085E-02-3.10337E-03 7.92374E-14
 -1      2524 1.37609E-02-3.25866E-03 8.34451E-14
 -1      2525 1.36181E-02-3.20369E-03 8.22746E-14
 -1      2526 1.35942E-02-3.21332E-03 8.15800E-14
 -1      2527 1.39749E-02-3.35163E-03 8.49108E-14
 -1      2528 1.43366E-02-3.63706E-03 8.39002E-14
 -1      2529 1.42826E-02-3.59490E-03 8.40430E-14
 -1      2530 1.42295E-02-3.55345E-03 8.41826E-14
 -1      2531 1.41764E-02-3.51201E-03 8.43210E-14
 -1      2532 1.41328E-02-3.52692E-03 8.31129E-14
 -1      2533 1.41224E-02-3.46985E-03 8.44615E-14
 -1      2534 1.40684E-02-3.42770E-03 8.45973E-14
 -1      2535 1.40257E-02-3.44332E-03 8.33873E-14
 -1      2536 6.18957E-03-6.88441E-04 1.37695E-14
 -1      2537 6.35352E-03-7.30402E-04 1.38982E-14
 -1      2538 1.44447E-02-3.72139E-03 8.36135E-14
 -1      2539 1.43907E-02-3.67923E-03 8.37586E-14
 -1      2540 1.42399E-02-3.61053E-03 8.28362E-14
 -1      2541 1.45528E-02-3.80573E-03 8.33278E-14
 -1      2542 1.44987E-02-3.76356E-03 8.34689E-14
 -1      2543 1.43480E-02-3.69487E-03 8.25548E-14
 -1      2544 1.46609E-02-3.89007E-03 8.30458E-14
 -1      2545 1.46069E-02-3.84790E-03 8.31848E-14
 -1      2546 1.44561E-02-3.77920E-03 8.22745E-14
 -1      2547 1.47691E-02-3.97441E-03 8.27738E-14
 -1      2548 1.47150E-02-3.93224E-03 8.29101E-14
 -1      2549 1.45642E-02-3.86354E-03 8.20021E-14
 -1      2550 1.48754E-02-4.05731E-03 8.25187E-14
 -1      2551 1.48223E-02-4.01586E-03 8.26453E-14
 -1      2552 1.46715E-02-3.94716E-03 8.17422E-14
 -1      2553 1.49837E-02-4.14164E-03 8.22682E-14
 -1      2554 1.49295E-02-4.09948E-03 8.23922E-14
 -1      2555 1.47788E-02-4.03077E-03 8.14914E-14
 -1      2556 1.50919E-02-4.22596E-03 8.20288E-14
 -1      2557 1.50378E-02-4.18380E-03 8.21462E-14
 -1      2558 1.48870E-02-4.11510E-03 8.12451E-14
 -1      2559 1.51899E-02-4.30283E-03 8.18032E-14
 -1      2560 1.51358E-02-4.26068E-03 8.19222E-14
 -1      2561 1.49850E-02-4.19197E-03 8.10167E-14
 -1      2562 1.50729E-02-4.26140E-03 8.08025E-14
 -1      2563 6.20008E-04-1.75901E-04 2.68760E-16
 -1      2564 8.27569E-04-2.30986E-04 4.27636E-16
 -1      2565 8.71649E-04-2.17018E-04 5.29036E-16
 -1      2566 5.96486E-04-1.48680E-04 2.89414E-16
 -1      2567 4.95541E-03-8.39181E-05 1.17458E-14
 -1      2568 5.14212E-03-1.98900E-04 1.21090E-14
 -1      2569 6.57133E-03-7.82278E-04 1.40476E-14
 -1      2570 6.56447E-03-7.89709E-04 1.39798E-14
 -1      2571 6.47383E-03-8.13900E-04 1.35725E-14
 -1      2572 6.36689E-03-8.39680E-04 1.31797E-14
 -1      2573 4.76411E-03-1.70265E-03 9.13036E-15
 -1      2574 4.58822E-03-1.76508E-03 8.58769E-15
 -1      2575 4.95061E-04-4.06326E-05 3.73277E-16
 -1      2576 4.93472E-04-4.75729E-05 3.68913E-16
 -1      2577 5.93599E-04-6.28918E-05 4.95426E-16
 -1      2578 5.98288E-04-4.51144E-05 5.06743E-16
 -1      2579 4.52959E-03 1.83853E-04 1.07102E-14
 -1      2580 4.72535E-03 5.91461E-05 1.12193E-14
 -1      2581 3.56617E-03 3.65056E-04 7.68526E-15
 -1      2582 3.72361E-03 4.11718E-04 8.16740E-15
 -1      2583 4.21465E-03 3.50332E-04 9.76928E-15
 -1      2584 4.33654E-03 2.90337E-04 1.01643E-14
 -1      2585 5.90071E-03-1.03678E-03 1.20682E-14
 -1      2586 5.71697E-03-1.13473E-03 1.16328E-14
 -1      2587 3.91121E-03 4.25298E-04 8.79109E-15
 -1      2588 4.05722E-03 4.01340E-04 9.27345E-15
 -1      2589 4.10901E-03 3.84421E-04 9.56773E-15
 -1      2590 3.24241E-03 2.20783E-04 6.87318E-15
 -1      2591 3.39173E-03 2.95938E-04 7.22412E-15
 -1      2592 2.90750E-03 4.74337E-05 6.18896E-15
 -1      2593 3.07828E-03 1.37673E-04 6.52622E-15
 -1      2594 3.14758E-03 1.85942E-04 6.57308E-15
 -1      2595 2.51944E-03-1.40889E-04 5.57120E-15
 -1      2596 2.69091E-03-6.01301E-05 5.82101E-15
 -1      2597 2.18385E-03-2.72960E-04 5.09065E-15
 -1      2598 2.33975E-03-2.16087E-04 5.30032E-15
 -1      2599 1.90815E-03-3.57277E-04 4.80392E-15
 -1      2600 2.01891E-03-3.27917E-04 4.91952E-15
 -1      2601 1.77752E-03-3.84429E-04 4.55253E-15
 -1      2602 1.82591E-03-3.77780E-04 4.67638E-15
 -1      2603 1.84919E-03-3.58300E-04 4.52700E-15
 -1      2604 1.81144E-03-4.00470E-04 4.44210E-15
 -1      2605 1.77098E-03-3.92353E-04 4.44636E-15
 -1      2606 2.04247E-03-4.65918E-04 4.57638E-15
 -1      2607 1.91052E-03-4.29149E-04 4.50514E-15
 -1      2608 2.39399E-03-6.05904E-04 4.83741E-15
 -1      2609 2.22275E-03-5.33713E-04 4.70643E-15
 -1      2610 2.77381E-03-7.95041E-04 5.11209E-15
 -1      2611 2.57793E-03-6.93132E-04 4.97254E-15
 -1      2612 2.48078E-03-6.25294E-04 4.70325E-15
 -1      2613 3.25500E-03-1.11285E-03 5.69010E-15
 -1      2614 3.01165E-03-9.45823E-04 5.39453E-15
 -1      2615 2.88437E-03-8.49219E-04 5.10750E-15
 -1      2616 4.04486E-03-1.66208E-03 7.08008E-15
 -1      2617 3.88897E-03-1.56213E-03 6.68758E-15
 -1      2618 4.40065E-03-1.77791E-03 8.03394E-15
 -1      2619 4.25854E-03-1.75091E-03 7.62652E-15
 -1      2620 5.50492E-03-1.25860E-03 1.11218E-14
 -1      2621 5.30120E-03-1.38997E-03 1.06267E-14
 -1      2622 6.24709E-03-8.83619E-04 1.28834E-14
 -1      2623 6.10336E-03-9.41710E-04 1.25899E-14
 -1      2624 6.32328E-03-8.74727E-04 1.34797E-14
 -1      2625 6.46917E-03-7.56668E-04 1.39383E-14
 -1      2626 6.53005E-03-7.66771E-04 1.39713E-14
 -1      2627 1.39511E-02-3.36126E-03 8.42150E-14
 -1      2628 6.24016E-04-9.83716E-05 4.60163E-16
 -1      2629 5.24520E-04-8.48319E-05 3.34558E-16
 -1      2630 5.39003E-04-9.70354E-05 3.23973E-16
 -1      2631 4.82473E-03-1.42870E-05 1.16963E-14
 -1      2632 9.51920E-04 3.50721E-04 6.54668E-16
 -1      2633 9.19222E-04 3.22312E-04 6.46198E-16
 -1      2634 1.07236E-03 3.74901E-04 8.26203E-16
 -1      2635 3.70685E-03-1.42261E-03 6.12437E-15
 -1      2636 5.98485E-03-6.37412E-04 1.41391E-14
 -1      2637 6.08649E-03-6.66240E-04 1.39539E-14
 -1      2638 6.20302E-03-7.12003E-04 1.45545E-14
 -1      2639 3.21713E-03-1.04618E-03 5.10093E-15
 -1      2640 4.14213E-03-1.70865E-03 7.20355E-15
 -1      2641 4.26905E-03-1.76786E-03 7.45880E-15
 -1      2642 5.51949E-03-1.30934E-03 1.15586E-14
 -1      2643 4.47244E-03-1.80217E-03 8.10677E-15
 -1      2644 4.63665E-03-1.78397E-03 8.66256E-15
 -1      2645 4.84630E-03-1.71169E-03 9.36607E-15
 -1      2646 6.41755E-03-7.59231E-04 1.44107E-14
 -1      2647 4.42967E-03 2.32325E-04 1.06143E-14
 -1      2648 5.75118E-04-1.26456E-04 3.06639E-16
 -1      2649 6.54936E-03-8.10023E-04 1.41915E-14
 -1      2650 6.52306E-03-8.34916E-04 1.44024E-14
 -1      2651 6.60602E-03-8.20341E-04 1.48171E-14
 -1      2652 1.29556E-03 4.09434E-04 1.20792E-15
 -1      2653 1.17584E-03 3.89519E-04 9.98293E-16
 -1      2654 1.14356E-03 3.61106E-04 9.83900E-16
 -1      2655 1.35153E-03 3.85296E-04 1.36867E-15
 -1      2656 6.57418E-03-7.91588E-04 1.45280E-14
 -1      2657 1.38544E-02-3.33473E-03 8.31397E-14
 -1      2658 4.51014E-03-1.78745E-03 8.29737E-15
 -1      2659 5.62218E-03-1.20415E-03 1.16062E-14
 -1      2660 2.12294E-03-4.78019E-04 4.44595E-15
 -1      2661 1.75586E-03-3.75298E-04 4.29996E-15
 -1      2662 2.08346E-03-2.94495E-04 4.81561E-15
 -1      2663 2.79064E-03 8.23029E-07 5.86736E-15
 -1      2664 3.79787E-03 4.28598E-04 8.44493E-15
 -1      2665 3.85849E-03 4.33002E-04 8.72436E-15
 -1      2666 3.69203E-03 4.18732E-04 8.10522E-15
 -1      2667 6.02018E-03-9.95181E-04 1.26492E-14
 -1      2668 3.46195E-03 3.36813E-04 7.36976E-15
 -1      2669 4.97493E-03-1.62022E-03 9.78909E-15
 -1      2670 5.25819E-03-2.78422E-04 1.25942E-14
 -1      2671 2.41196E-03-1.73380E-04 5.24311E-15
 -1      2672 1.84791E-03-3.95676E-04 4.25866E-15
 -1      2673 3.44659E-03-1.23147E-03 5.80304E-15
 -1      2674 3.30673E-03-1.12011E-03 5.49642E-15
 -1      2675 3.64175E-03-1.38203E-03 6.13469E-15
 -1      2676 5.21689E-03-1.44967E-03 1.04641E-14
 -1      2677 5.07797E-03-1.54192E-03 1.00728E-14
 -1      2678 7.48664E-04 2.05680E-05 6.78087E-16
 -1      2679 7.36147E-04 4.27702E-07 6.75472E-16
 -1      2680 7.23997E-04-1.79216E-05 6.71894E-16
 -1      2681 7.13186E-04-3.40259E-05 6.67367E-16
 -1      2682 8.40018E-04-1.11091E-05 8.50191E-16
 -1      2683 8.01044E-04 1.22874E-04 6.77328E-16
 -1      2684 7.87974E-04 9.43786E-05 6.79646E-16
 -1      2685 8.28237E-04 1.85624E-04 6.65538E-16
 -1      2686 8.14440E-04 1.53307E-04 6.72788E-16
 -1      2687 9.32490E-04 1.56914E-04 8.53809E-16
 -1      2688 8.87887E-04 2.94857E-04 6.35586E-16
 -1      2689 8.57962E-04 2.68251E-04 6.23389E-16
 -1      2690 1.00820E-03 3.18793E-04 8.01537E-16
 -1      2691 4.72259E-03 4.47379E-05 1.16976E-14
 -1      2692 4.92584E-03-8.75546E-05 1.22350E-14
 -1      2693 5.57566E-03-4.58581E-04 1.35093E-14
 -1      2694 5.74930E-03-5.40474E-04 1.38056E-14
 -1      2695 1.04872E-03-2.34126E-04 8.02567E-16
 -1      2696 1.19158E-03-2.59026E-04 1.01433E-15
 -1      2697 1.33367E-03-2.83472E-04 1.25093E-15
 -1      2698 1.47584E-03-3.08150E-04 1.51272E-15
 -1      2699 1.21668E-03-2.44582E-04 1.16153E-15
 -1      2700 1.61763E-03-3.34498E-04 1.79862E-15
 -1      2701 1.76050E-03-3.63868E-04 2.10856E-15
 -1      2702 1.48601E-03-2.91914E-04 1.69140E-15
 -1      2703 1.90452E-03-3.97613E-04 2.44150E-15
 -1      2704 2.05221E-03-4.38438E-04 2.79814E-15
 -1      2705 1.75291E-03-3.45875E-04 2.31685E-15
 -1      2706 2.20464E-03-4.87174E-04 3.17652E-15
 -1      2707 2.36573E-03-5.50162E-04 3.57814E-15
 -1      2708 2.02397E-03-4.16720E-04 3.03291E-15
 -1      2709 6.38662E-03-7.65720E-04 1.49367E-14
 -1      2710 6.49273E-03-7.86046E-04 1.49791E-14
 -1      2711 6.57091E-03-8.02516E-04 1.50556E-14
 -1      2712 6.61732E-03-8.12409E-04 1.51320E-14
 -1      2713 6.56323E-03-8.10781E-04 1.55882E-14
 -1      2714 6.30391E-03-1.01992E-03 1.45529E-14
 -1      2715 6.46404E-03-1.01824E-03 1.54189E-14
 -1      2716 6.61586E-03-1.03183E-03 1.63004E-14
 -1      2717 6.76293E-03-1.05497E-03 1.71938E-14
 -1      2718 6.58871E-03-9.78830E-04 1.59496E-14
 -1      2719 6.90631E-03-1.08699E-03 1.81027E-14
 -1      2720 7.04841E-03-1.12525E-03 1.90246E-14
 -1      2721 6.85865E-03-1.03520E-03 1.77418E-14
 -1      2722 7.18937E-03-1.16880E-03 1.99597E-14
 -1      2723 7.33049E-03-1.21657E-03 2.09096E-14
 -1      2724 7.12433E-03-1.11557E-03 1.95876E-14
 -1      2725 7.47149E-03-1.26753E-03 2.18689E-14
 -1      2726 7.61309E-03-1.32116E-03 2.28405E-14
 -1      2727 7.39255E-03-1.21167E-03 2.14864E-14
 -1      2728 7.75489E-03-1.37662E-03 2.38249E-14
 -1      2729 7.89728E-03-1.43363E-03 2.48207E-14
 -1      2730 7.66516E-03-1.31811E-03 2.34323E-14
 -1      2731 8.03986E-03-1.49161E-03 2.58265E-14
 -1      2732 8.18289E-03-1.55039E-03 2.68408E-14
 -1      2733 7.94196E-03-1.43094E-03 2.54243E-14
 -1      2734 8.32603E-03-1.60958E-03 2.78652E-14
 -1      2735 8.46946E-03-1.66908E-03 2.89005E-14
 -1      2736 8.22206E-03-1.54732E-03 2.74558E-14
 -1      2737 8.61291E-03-1.72866E-03 2.99439E-14
 -1      2738 8.75652E-03-1.78825E-03 3.09953E-14
 -1      2739 8.50451E-03-1.66533E-03 2.95236E-14
 -1      2740 8.90009E-03-1.84773E-03 3.20572E-14
 -1      2741 9.04372E-03-1.90705E-03 3.31276E-14
 -1      2742 8.78851E-03-1.78374E-03 3.16272E-14
 -1      2743 9.18729E-03-1.96616E-03 3.42057E-14
 -1      2744 9.33087E-03-2.02504E-03 3.52935E-14
 -1      2745 9.07346E-03-1.90181E-03 3.37675E-14
 -1      2746 9.47437E-03-2.08366E-03 3.63879E-14
 -1      2747 9.61784E-03-2.14201E-03 3.74907E-14
 -1      2748 9.35895E-03-2.01913E-03 3.59405E-14
 -1      2749 9.76124E-03-2.20011E-03 3.85982E-14
 -1      2750 9.90460E-03-2.25793E-03 3.97106E-14
 -1      2751 9.64473E-03-2.13552E-03 3.81419E-14
 -1      2752 1.00479E-02-2.31551E-03 4.08284E-14
 -1      2753 1.01911E-02-2.37285E-03 4.19496E-14
 -1      2754 9.93064E-03-2.25095E-03 4.03656E-14
 -1      2755 1.03343E-02-2.42995E-03 4.30764E-14
 -1      2756 1.04775E-02-2.48684E-03 4.42035E-14
 -1      2757 1.02166E-02-2.36544E-03 4.26080E-14
 -1      2758 1.06206E-02-2.54353E-03 4.53312E-14
 -1      2759 1.07637E-02-2.60003E-03 4.64613E-14
 -1      2760 1.05025E-02-2.47909E-03 4.48642E-14
 -1      2761 1.09067E-02-2.65636E-03 4.75893E-14
 -1      2762 1.10497E-02-2.71254E-03 4.87178E-14
 -1      2763 1.07884E-02-2.59201E-03 4.71205E-14
 -1      2764 1.11927E-02-2.76857E-03 4.98450E-14
 -1      2765 1.13356E-02-2.82447E-03 5.09734E-14
 -1      2766 1.10743E-02-2.70429E-03 4.93792E-14
 -1      2767 1.14786E-02-2.88026E-03 5.21040E-14
 -1      2768 1.16215E-02-2.93594E-03 5.32352E-14
 -1      2769 1.13602E-02-2.81604E-03 5.16392E-14
 -1      2770 1.17644E-02-2.99153E-03 5.43666E-14
 -1      2771 1.19073E-02-3.04703E-03 5.54999E-14
 -1      2772 1.16460E-02-2.92737E-03 5.39038E-14
 -1      2773 1.20502E-02-3.10246E-03 5.66358E-14
 -1      2774 1.21930E-02-3.15782E-03 5.77712E-14
 -1      2775 1.19317E-02-3.03835E-03 5.61734E-14
 -1      2776 1.23359E-02-3.21313E-03 5.89078E-14
 -1      2777 1.24788E-02-3.26839E-03 6.00459E-14
 -1      2778 1.22175E-02-3.14905E-03 5.84461E-14
 -1      2779 1.26216E-02-3.32360E-03 6.11837E-14
 -1      2780 1.27645E-02-3.37877E-03 6.23230E-14
 -1      2781 1.25032E-02-3.25955E-03 6.07227E-14
 -1      2782 1.29073E-02-3.43391E-03 6.34632E-14
 -1      2783 1.30502E-02-3.48902E-03 6.46012E-14
 -1      2784 1.27890E-02-3.36989E-03 6.29998E-14
 -1      2785 1.31930E-02-3.54411E-03 6.57393E-14
 -1      2786 1.33359E-02-3.59918E-03 6.68777E-14
 -1      2787 1.30747E-02-3.48011E-03 6.52765E-14
 -1      2788 1.34787E-02-3.65423E-03 6.80150E-14
 -1      2789 1.36216E-02-3.70926E-03 6.91544E-14
 -1      2790 1.33604E-02-3.59024E-03 6.75539E-14
 -1      2791 1.37644E-02-3.76429E-03 7.02936E-14
 -1      2792 1.39073E-02-3.81930E-03 7.14328E-14
 -1      2793 1.36461E-02-3.70030E-03 6.98325E-14
 -1      2794 1.40501E-02-3.87431E-03 7.25688E-14
 -1      2795 1.41930E-02-3.92931E-03 7.37027E-14
 -1      2796 1.39318E-02-3.81033E-03 7.21077E-14
 -1      2797 1.43358E-02-3.98430E-03 7.48347E-14
 -1      2798 1.44787E-02-4.03930E-03 7.59679E-14
 -1      2799 1.42176E-02-3.92033E-03 7.43759E-14
 -1      2800 1.46216E-02-4.09429E-03 7.70978E-14
 -1      2801 1.47644E-02-4.14928E-03 7.82190E-14
 -1      2802 1.45033E-02-4.03032E-03 7.66346E-14
 -1      2803 1.48601E-02-4.18463E-03 7.90078E-14
 -1      2804 1.49772E-02-4.22605E-03 8.00176E-14
 -1      2805 1.49332E-02-4.19134E-03 8.01249E-14
 -1      2806 1.47418E-02-4.12065E-03 7.85506E-14
 -1      2807 1.97824E-03 4.47418E-04 2.83860E-15
 -1      2808 1.82310E-03 4.21225E-04 2.44993E-15
 -1      2809 2.28971E-03 5.00562E-04 3.69851E-15
 -1      2810 2.13395E-03 4.73901E-04 3.25473E-15
 -1      2811 2.04341E-03 4.16400E-04 3.05382E-15
 -1      2812 1.66840E-03 3.95128E-04 2.08956E-15
 -1      2813 1.51444E-03 3.68888E-04 1.75696E-15
 -1      2814 1.72962E-03 3.65553E-04 2.27918E-15
 -1      2815 2.90848E-03 5.98840E-04 5.74394E-15
 -1      2816 2.75528E-03 5.77373E-04 5.19226E-15
 -1      2817 3.21014E-03 6.27814E-04 6.92672E-15
 -1      2818 3.06014E-03 6.16259E-04 6.32248E-15
 -1      2819 2.99090E-03 5.69912E-04 6.02686E-15
 -1      2820 3.50506E-03 6.27712E-04 8.21127E-15
 -1      2821 3.35821E-03 6.32244E-04 7.55647E-15
 -1      2822 3.29731E-03 5.97556E-04 7.23030E-15
 -1      2823 3.79593E-03 5.88514E-04 9.59499E-15
 -1      2824 3.65051E-03 6.13385E-04 8.89092E-15
 -1      2825 3.59625E-03 5.91781E-04 8.53542E-15
 -1      2826 4.08773E-03 5.07700E-04 1.10724E-14
 -1      2827 3.94120E-03 5.53064E-04 1.03220E-14
 -1      2828 3.89161E-03 5.42289E-04 9.93938E-15
 -1      2829 4.38484E-03 3.91544E-04 1.26382E-14
 -1      2830 4.23532E-03 4.53286E-04 1.18449E-14
 -1      2831 4.18952E-03 4.48670E-04 1.14365E-14
 -1      2832 4.68876E-03 2.52193E-04 1.42843E-14
 -1      2833 4.53597E-03 3.23846E-04 1.34516E-14
 -1      2834 4.49438E-03 3.20702E-04 1.30212E-14
 -1      2835 4.99787E-03 1.02696E-04 1.60066E-14
 -1      2836 4.84291E-03 1.77936E-04 1.51364E-14
 -1      2837 4.80641E-03 1.73337E-04 1.46851E-14
 -1      2838 5.30895E-03-4.67469E-05 1.77946E-14
 -1      2839 5.15345E-03 2.74993E-05 1.68921E-14
 -1      2840 5.12244E-03 2.05168E-05 1.64219E-14
 -1      2841 5.61907E-03-1.90202E-04 1.96459E-14
 -1      2842 5.46437E-03-1.19432E-04 1.87135E-14
 -1      2843 5.43834E-03-1.28447E-04 1.82254E-14
 -1      2844 5.92627E-03-3.25241E-04 2.15500E-14
 -1      2845 5.77318E-03-2.58795E-04 2.05917E-14
 -1      2846 5.75098E-03-2.69125E-04 2.00874E-14
 -1      2847 6.22978E-03-4.51814E-04 2.35030E-14
 -1      2848 6.07855E-03-3.89514E-04 2.25204E-14
 -1      2849 6.05883E-03-4.00509E-04 2.20011E-14
 -1      2850 6.52961E-03-5.71082E-04 2.55003E-14
 -1      2851 6.38017E-03-5.12253E-04 2.44966E-14
 -1      2852 6.36168E-03-5.23495E-04 2.39619E-14
 -1      2853 6.82620E-03-6.84668E-04 2.75397E-14
 -1      2854 6.67829E-03-6.28475E-04 2.65147E-14
 -1      2855 6.66008E-03-6.39739E-04 2.59666E-14
 -1      2856 7.12012E-03-7.94205E-04 2.96187E-14
 -1      2857 6.97347E-03-7.39847E-04 2.85743E-14
 -1      2858 6.95489E-03-7.51030E-04 2.80138E-14
 -1      2859 7.41196E-03-9.01117E-04 3.17337E-14
 -1      2860 7.26627E-03-8.47913E-04 3.06717E-14
 -1      2861 7.24699E-03-8.58975E-04 3.00986E-14
 -1      2862 7.70219E-03-1.00653E-03 3.38811E-14
 -1      2863 7.55724E-03-9.53956E-04 3.28040E-14
 -1      2864 7.53712E-03-9.64885E-04 3.22194E-14
 -1      2865 7.99121E-03-1.11130E-03 3.60568E-14
 -1      2866 7.84683E-03-1.05896E-03 3.49655E-14
 -1      2867 7.82585E-03-1.06975E-03 3.43726E-14
 -1      2868 8.27934E-03-1.21599E-03 3.82580E-14
 -1      2869 8.13537E-03-1.16363E-03 3.71548E-14
 -1      2870 8.11363E-03-1.17429E-03 3.65525E-14
 -1      2871 8.56679E-03-1.32097E-03 4.04772E-14
 -1      2872 8.42313E-03-1.26843E-03 3.93654E-14
 -1      2873 8.40074E-03-1.27896E-03 3.87561E-14
 -1      2874 8.85375E-03-1.42647E-03 4.27121E-14
 -1      2875 8.71032E-03-1.37365E-03 4.15919E-14
 -1      2876 8.68742E-03-1.38405E-03 4.09772E-14
 -1      2877 9.14034E-03-1.53256E-03 4.49619E-14
 -1      2878 8.99708E-03-1.47943E-03 4.38358E-14
 -1      2879 8.97379E-03-1.48972E-03 4.32147E-14
 -1      2880 9.42666E-03-1.63927E-03 4.72233E-14
 -1      2881 9.28353E-03-1.58584E-03 4.60905E-14
 -1      2882 9.25995E-03-1.59601E-03 4.54651E-14
 -1      2883 9.71279E-03-1.74658E-03 4.95002E-14
 -1      2884 9.56974E-03-1.69286E-03 4.83599E-14
 -1      2885 9.54597E-03-1.70293E-03 4.77295E-14
 -1      2886 9.99877E-03-1.85442E-03 5.17883E-14
 -1      2887 9.85579E-03-1.80044E-03 5.06430E-14
 -1      2888 9.83189E-03-1.81042E-03 5.00082E-14
 -1      2889 1.02846E-02-1.96272E-03 5.40895E-14
 -1      2890 1.01417E-02-1.90851E-03 5.29369E-14
 -1      2891 1.01177E-02-1.91842E-03 5.22990E-14
 -1      2892 1.05705E-02-2.07140E-03 5.64007E-14
 -1      2893 1.04276E-02-2.01702E-03 5.52433E-14
 -1      2894 1.04036E-02-2.02686E-03 5.46017E-14
 -1      2895 1.08562E-02-2.18041E-03 5.87201E-14
 -1      2896 1.07133E-02-2.12587E-03 5.75579E-14
 -1      2897 1.06893E-02-2.13567E-03 5.69108E-14
 -1      2898 1.11419E-02-2.28967E-03 6.10523E-14
 -1      2899 1.09991E-02-2.23501E-03 5.98872E-14
 -1      2900 1.09751E-02-2.24477E-03 5.92326E-14
 -1      2901 1.14277E-02-2.39914E-03 6.33862E-14
 -1      2902 1.12848E-02-2.34438E-03 6.22185E-14
 -1      2903 1.12608E-02-2.35410E-03 6.15625E-14
 -1      2904 1.17133E-02-2.50875E-03 6.57189E-14
 -1      2905 1.15705E-02-2.45393E-03 6.45534E-14
 -1      2906 1.15465E-02-2.46362E-03 6.38914E-14
 -1      2907 1.19990E-02-2.61848E-03 6.80519E-14
 -1      2908 1.18562E-02-2.56361E-03 6.68861E-14
 -1      2909 1.18322E-02-2.57328E-03 6.62216E-14
 -1      2910 1.22847E-02-2.72830E-03 7.03842E-14
 -1      2911 1.21419E-02-2.67338E-03 6.92175E-14
 -1      2912 1.21180E-02-2.68304E-03 6.85485E-14
 -1      2913 1.25704E-02-2.83817E-03 7.27138E-14
 -1      2914 1.24276E-02-2.78323E-03 7.15493E-14
 -1      2915 1.24037E-02-2.79287E-03 7.08767E-14
 -1      2916 1.28561E-02-2.94809E-03 7.50426E-14
 -1      2917 1.27133E-02-2.89313E-03 7.38778E-14
 -1      2918 1.26894E-02-2.90276E-03 7.32003E-14
 -1      2919 1.31418E-02-3.05803E-03 7.73778E-14
 -1      2920 1.29990E-02-3.00305E-03 7.62106E-14
 -1      2921 1.29751E-02-3.01269E-03 7.55267E-14
 -1      2922 1.34275E-02-3.16798E-03 7.97158E-14
 -1      2923 1.32847E-02-3.11300E-03 7.85454E-14
 -1      2924 1.32608E-02-3.12263E-03 7.78557E-14
 -1      2925 1.37124E-02-3.27884E-03 8.20138E-14
 -1      2926 1.35695E-02-3.22387E-03 8.08451E-14
 -1      2927 1.35456E-02-3.23350E-03 8.01486E-14
 -1      2928 1.38296E-02-3.34528E-03 8.23997E-14
 -1      2929 1.40356E-02-3.50004E-03 8.20462E-14
 -1      2930 1.39825E-02-3.45859E-03 8.21808E-14
 -1      2931 1.42513E-02-3.66833E-03 8.14989E-14
 -1      2932 1.41972E-02-3.62617E-03 8.16371E-14
 -1      2933 1.39331E-02-3.42301E-03 8.22249E-14
 -1      2934 1.38791E-02-3.38086E-03 8.23582E-14
 -1      2935 1.37371E-02-3.32497E-03 8.12364E-14
 -1      2936 1.38359E-02-3.39612E-03 8.11540E-14
 -1      2937 3.04932E-03-9.31883E-04 5.00369E-15
 -1      2938 1.41434E-02-3.58418E-03 8.17741E-14
 -1      2939 1.40894E-02-3.54202E-03 8.19107E-14
 -1      2940 1.39391E-02-3.47369E-03 8.09798E-14
 -1      2941 1.40467E-02-3.55765E-03 8.07129E-14
 -1      2942 1.44675E-02-3.83700E-03 8.09621E-14
 -1      2943 1.44135E-02-3.79483E-03 8.10929E-14
 -1      2944 1.45739E-02-3.91990E-03 8.07115E-14
 -1      2945 1.45207E-02-3.87845E-03 8.08351E-14
 -1      2946 1.43699E-02-3.80975E-03 7.99264E-14
 -1      2947 1.46821E-02-4.00423E-03 8.04632E-14
 -1      2948 1.46280E-02-3.96207E-03 8.05874E-14
 -1      2949 1.44772E-02-3.89337E-03 7.96782E-14
 -1      2950 1.47903E-02-4.08855E-03 8.02211E-14
 -1      2951 1.47362E-02-4.04639E-03 8.03428E-14
 -1      2952 1.45854E-02-3.97769E-03 7.94355E-14
 -1      2953 6.40783E-03-8.73321E-04 1.40783E-14
 -1      2954 6.30252E-03-9.07941E-04 1.37740E-14
 -1      2955 2.83183E-03-7.93816E-04 4.73463E-15
 -1      2956 1.97484E-03-3.05881E-04 4.47072E-15
 -1      2957 2.11593E-03-2.60364E-04 4.62899E-15
 -1      2958 1.43594E-02-3.75267E-03 8.12264E-14
 -1      2959 1.43053E-02-3.71050E-03 8.13619E-14
 -1      2960 1.42627E-02-3.72613E-03 8.01827E-14
 -1      2961 2.31675E-03-1.88346E-04 4.92392E-15
 -1      2962 2.47814E-03-1.23876E-04 5.18239E-15
 -1      2963 6.12661E-03-9.75424E-04 1.32441E-14
 -1      2964 5.94363E-03-1.05575E-03 1.27116E-14
 -1      2965 6.81907E-04-1.41505E-04 4.27921E-16
 -1      2966 2.20265E-03-4.87231E-04 4.22694E-15
 -1      2967 2.03668E-03-4.31324E-04 4.10556E-15
 -1      2968 7.74866E-04 6.78037E-05 6.80405E-16
 -1      2969 7.61763E-04 4.31479E-05 6.79849E-16
 -1      2970 8.70893E-04 3.64542E-05 8.57224E-16
 -1      2971 9.01996E-04 9.27885E-05 8.59013E-16
 -1      2972 4.04020E-03 4.05126E-04 9.43706E-15
 -1      2973 4.17423E-03 3.57681E-04 9.93647E-15
 -1      2974 3.05198E-03 1.56867E-04 6.26886E-15
 -1      2975 3.19377E-03 2.31406E-04 6.60641E-15
 -1      2976 1.90220E-03-3.92996E-04 4.04505E-15
 -1      2977 1.80113E-03-3.71548E-04 3.98517E-15
 -1      2978 1.95732E-03-3.98631E-04 3.83442E-15
 -1      2979 2.67215E-03-3.76731E-05 5.52335E-15
 -1      2980 2.86411E-03 5.90508E-05 5.87892E-15
 -1      2981 1.80137E-03-3.44778E-04 4.22971E-15
 -1      2982 1.87819E-03-3.31880E-04 4.34931E-15
 -1      2983 1.89948E-03-2.97959E-04 4.17040E-15
 -1      2984 1.73396E-03-3.56620E-04 4.01332E-15
 -1      2985 1.74414E-03-3.56316E-04 4.11406E-15
 -1      2986 2.51124E-03-6.21769E-04 4.47392E-15
 -1      2987 2.34912E-03-5.47590E-04 4.34903E-15
 -1      2988 2.22981E-03-4.90663E-04 4.00792E-15
 -1      2989 5.34604E-03-1.38408E-03 1.09287E-14
 -1      2990 6.98820E-04-8.98318E-05 6.30816E-16
 -1      2991 7.07753E-04-9.96658E-05 6.19879E-16
 -1      2992 2.60079E-03 5.53004E-04 4.66759E-15
 -1      2993 2.44555E-03 5.27173E-04 4.16945E-15
 -1      2994 2.36028E-03 4.69658E-04 3.93744E-15
 -1      2995 2.67741E-03 5.23241E-04 4.92850E-15
 -1      2996 3.35523E-03 3.09761E-04 7.03192E-15
 -1      2997 3.50387E-03 3.72658E-04 7.48422E-15
 -1      2998 4.34220E-03 2.77432E-04 1.05207E-14
 -1      2999 4.51091E-03 1.76762E-04 1.10751E-14
 -1      3000 5.16576E-03-2.33825E-04 1.27685E-14
 -1      3001 5.36963E-03-3.51259E-04 1.31361E-14
 -1      3002 5.47786E-03-4.08931E-04 1.36857E-14
 -1      3003 2.66806E-03-6.99134E-04 4.37326E-15
 -1      3004 8.13178E-04-4.89590E-05 8.38983E-16
 -1      3005 7.04084E-04-4.80501E-05 6.62163E-16
 -1      3006 6.97564E-04-6.02060E-05 6.55942E-16
 -1      3007 8.40526E-04 2.31156E-04 6.39246E-16
 -1      3008 4.62080E-03 1.08831E-04 1.15971E-14
 -1      3009 5.90213E-03-6.06637E-04 1.44019E-14
 -1      3010 2.26783E-03-5.02230E-04 3.76779E-15
 -1      3011 2.48641E-03-6.01658E-04 3.93118E-15
 -1      3012 1.41546E-02-3.64180E-03 8.04462E-14
 -1      3013 6.67175E-03-8.40786E-04 1.58838E-14
 -1      3014 6.64528E-03-8.28999E-04 1.53486E-14
 -1      3015 6.65887E-03-8.47401E-04 1.55644E-14
 -1      3016 7.97841E-04-1.80960E-04 5.08423E-16
 -1      3017 9.33212E-04-2.11173E-04 6.56064E-16
 -1      3018 3.57731E-03 4.05555E-04 7.74616E-15
 -1      3019 3.24904E-03 2.84091E-04 6.71188E-15
 -1      3020 7.21341E-04-1.10612E-04 6.07614E-16
 -1      3021 7.39278E-04-1.23736E-04 5.93343E-16
 -1      3022 8.16488E-04-1.22256E-04 7.76614E-16
 -1      3023 2.91990E-03 1.15219E-04 5.90774E-15
 -1      3024 2.55412E-03-6.23187E-05 5.19016E-15
 -1      3025 1.74348E-03-3.32968E-04 3.94200E-15
 -1      3026 6.24086E-03-9.60874E-04 1.38370E-14
 -1      3027 6.51602E-03-8.65864E-04 1.47028E-14
 -1      3028 1.48837E-02-4.15731E-03 8.01183E-14
 -1      3029 1.48398E-02-4.12259E-03 8.02249E-14
 -1      3030 1.46890E-02-4.05389E-03 7.93213E-14
 -1      3031 1.47880E-02-4.12196E-03 7.93310E-14
 -1      3032 9.69833E-04-1.99905E-04 7.73700E-16
 -1      3033 1.42023E-03 3.15572E-04 1.61499E-15
 -1      3034 1.36108E-03 3.41958E-04 1.45302E-15
 -1      3035 1.25658E-03 3.31951E-04 1.24952E-15
 -1      3036 5.05017E-03-1.62956E-04 1.27664E-14
 -1      3037 5.77623E-03-1.14434E-03 1.22529E-14
 -1      3038 5.59196E-03-1.25174E-03 1.17301E-14
 -1      3039 6.31547E-03-7.50719E-04 1.51239E-14
 -1      3040 6.41617E-03-7.80547E-04 1.56986E-14
 -1      3041 6.24078E-03-7.30724E-04 1.53106E-14
 -1      3042 6.94103E-04-7.08117E-05 6.48678E-16
 -1      3043 6.94401E-04-8.05306E-05 6.40343E-16
 -1      3044 7.95973E-04-1.00114E-04 8.03069E-16
 -1      3045 7.96387E-04-7.75720E-05 8.23574E-16
 -1      3046 2.17543E-03-2.13685E-04 4.56967E-15
 -1      3047 9.61474E-04 2.40345E-04 8.20782E-16
 -1      3048 5.91094E-03-1.10954E-03 1.28381E-14
 -1      3049 6.10207E-03-1.06254E-03 1.36708E-14
 -1      3050 3.82899E-03 4.41127E-04 8.72197E-15
 -1      3051 3.93134E-03 4.29226E-04 9.07662E-15
 -1      3052 3.99825E-03 4.16668E-04 9.43226E-15
 -1      3053 1.75855E-03-3.42889E-04 3.59923E-15
 -1      3054 1.73842E-03-3.49090E-04 3.80399E-15
 -1      3055 1.69213E-03-3.31067E-04 3.62599E-15
 -1      3056 6.26785E-03-9.85846E-04 1.41801E-14
 -1      3057 4.26132E-03 3.16225E-04 1.03806E-14
 -1      3058 1.06779E-03 1.93921E-04 1.05109E-15
 -1      3059 1.05074E-03 1.56757E-04 1.05622E-15
 -1      3060 1.11226E-03 3.33150E-04 9.67800E-16
 -1      3061 4.53599E-03 1.66243E-04 1.15733E-14
 -1      3062 4.72668E-03 4.60803E-05 1.22086E-14
 -1      3063 2.13802E-03-4.51911E-04 3.65623E-15
 -1      3064 1.36630E-03-2.55809E-04 1.58357E-15
 -1      3065 1.49228E-03-2.79054E-04 1.87604E-15
 -1      3066 1.61581E-03-3.04074E-04 2.19106E-15
 -1      3067 1.73871E-03-3.31321E-04 2.52942E-15
 -1      3068 1.49512E-03-2.69301E-04 2.06584E-15
 -1      3069 1.87056E-03-3.65917E-04 2.88163E-15
 -1      3070 1.99574E-03-4.02618E-04 3.26300E-15
 -1      3071 1.97023E-03-3.93070E-04 3.48818E-15
 -1      3072 1.72734E-03-3.22384E-04 2.73930E-15
 -1      3073 3.69008E-03 5.56203E-04 8.85879E-15
 -1      3074 3.53932E-03 5.68250E-04 8.18338E-15
 -1      3075 6.55592E-03-8.18260E-04 1.61531E-14
 -1      3076 6.63224E-03-8.34196E-04 1.62316E-14
 -1      3077 7.45410E-04-1.42161E-04 5.36328E-16
 -1      3078 3.47741E-03 4.01202E-04 7.43727E-15
 -1      3079 3.64785E-03 4.36875E-04 8.05612E-15
 -1      3080 4.18724E-03 3.52208E-04 1.02496E-14
 -1      3081 4.34061E-03 2.76136E-04 1.08423E-14
 -1      3082 6.81891E-03-9.86902E-04 1.73814E-14
 -1      3083 6.94125E-03-1.02432E-03 1.82919E-14
 -1      3084 7.06429E-03-1.06569E-03 1.92176E-14
 -1      3085 7.18992E-03-1.11087E-03 2.01552E-14
 -1      3086 7.00831E-03-1.01963E-03 1.88456E-14
 -1      3087 7.31718E-03-1.15884E-03 2.11056E-14
 -1      3088 7.44682E-03-1.20955E-03 2.20675E-14
 -1      3089 7.24475E-03-1.10960E-03 2.07233E-14
 -1      3090 7.57816E-03-1.26214E-03 2.30415E-14
 -1      3091 7.71146E-03-1.31659E-03 2.40274E-14
 -1      3092 7.49358E-03-1.20929E-03 2.26499E-14
 -1      3093 7.84617E-03-1.37222E-03 2.50234E-14
 -1      3094 7.98239E-03-1.42902E-03 2.60308E-14
 -1      3095 7.75250E-03-1.31611E-03 2.46233E-14
 -1      3096 8.11969E-03-1.48647E-03 2.70468E-14
 -1      3097 8.25809E-03-1.54456E-03 2.80721E-14
 -1      3098 8.01915E-03-1.42770E-03 2.66368E-14
 -1      3099 8.39725E-03-1.60294E-03 2.91065E-14
 -1      3100 8.53720E-03-1.66160E-03 3.01485E-14
 -1      3101 8.29156E-03-1.54218E-03 2.86887E-14
 -1      3102 8.67767E-03-1.72030E-03 3.12019E-14
 -1      3103 8.81867E-03-1.77904E-03 3.22633E-14
 -1      3104 8.56813E-03-1.65811E-03 3.07752E-14
 -1      3105 8.96002E-03-1.83769E-03 3.33334E-14
 -1      3106 9.10172E-03-1.89623E-03 3.44110E-14
 -1      3107 8.84764E-03-1.77451E-03 3.28990E-14
 -1      3108 9.24365E-03-1.95460E-03 3.54955E-14
 -1      3109 9.38581E-03-2.01278E-03 3.65911E-14
 -1      3110 9.12920E-03-1.89077E-03 3.50544E-14
 -1      3111 9.52811E-03-2.07076E-03 3.76901E-14
 -1      3112 9.67057E-03-2.12852E-03 3.87963E-14
 -1      3113 9.41216E-03-2.00651E-03 3.72391E-14
 -1      3114 9.81310E-03-2.18607E-03 3.99081E-14
 -1      3115 9.95574E-03-2.24340E-03 4.10225E-14
 -1      3116 9.69607E-03-2.12157E-03 3.94492E-14
 -1      3117 1.00984E-02-2.30053E-03 4.21446E-14
 -1      3118 1.02412E-02-2.35745E-03 4.32701E-14
 -1      3119 9.98063E-03-2.23588E-03 4.16822E-14
 -1      3120 1.03839E-02-2.41418E-03 4.43967E-14
 -1      3121 1.05267E-02-2.47073E-03 4.55244E-14
 -1      3122 1.02656E-02-2.34946E-03 4.39302E-14
 -1      3123 1.06696E-02-2.52712E-03 4.66520E-14
 -1      3124 1.08124E-02-2.58335E-03 4.77824E-14
 -1      3125 1.05509E-02-2.46237E-03 4.61846E-14
 -1      3126 1.09553E-02-2.63943E-03 4.89123E-14
 -1      3127 1.10981E-02-2.69539E-03 5.00418E-14
 -1      3128 1.08364E-02-2.57468E-03 4.84427E-14
 -1      3129 1.12410E-02-2.75123E-03 5.11739E-14
 -1      3130 1.13839E-02-2.80696E-03 5.23069E-14
 -1      3131 1.11220E-02-2.68648E-03 5.07069E-14
 -1      3132 1.15268E-02-2.86259E-03 5.34404E-14
 -1      3133 1.16696E-02-2.91814E-03 5.45752E-14
 -1      3134 1.14076E-02-2.79786E-03 5.29746E-14
 -1      3135 1.18125E-02-2.97361E-03 5.57101E-14
 -1      3136 1.19554E-02-3.02900E-03 5.68472E-14
 -1      3137 1.16933E-02-2.90889E-03 5.52459E-14
 -1      3138 1.20983E-02-3.08434E-03 5.79851E-14
 -1      3139 1.22412E-02-3.13963E-03 5.91220E-14
 -1      3140 1.19791E-02-3.01965E-03 5.75193E-14
 -1      3141 1.23840E-02-3.19487E-03 6.02630E-14
 -1      3142 1.25269E-02-3.25006E-03 6.14006E-14
 -1      3143 1.22648E-02-3.13019E-03 5.97998E-14
 -1      3144 1.26698E-02-3.30522E-03 6.25405E-14
 -1      3145 1.28126E-02-3.36035E-03 6.36799E-14
 -1      3146 1.25506E-02-3.24056E-03 6.20824E-14
 -1      3147 1.29555E-02-3.41546E-03 6.48152E-14
 -1      3148 1.30984E-02-3.47054E-03 6.59538E-14
 -1      3149 1.28363E-02-3.35081E-03 6.43566E-14
 -1      3150 1.32413E-02-3.52560E-03 6.70953E-14
 -1      3151 1.33841E-02-3.58064E-03 6.82333E-14
 -1      3152 1.31221E-02-3.46096E-03 6.66310E-14
 -1      3153 1.35270E-02-3.63568E-03 6.93699E-14
 -1      3154 1.36699E-02-3.69070E-03 7.05105E-14
 -1      3155 1.34078E-02-3.57105E-03 6.89104E-14
 -1      3156 1.38127E-02-3.74571E-03 7.16479E-14
 -1      3157 1.39556E-02-3.80071E-03 7.27846E-14
 -1      3158 1.36936E-02-3.68108E-03 7.11873E-14
 -1      3159 1.40984E-02-3.85571E-03 7.39212E-14
 -1      3160 1.42413E-02-3.91071E-03 7.50508E-14
 -1      3161 1.39793E-02-3.79109E-03 7.34611E-14
 -1      3162 1.43842E-02-3.96570E-03 7.61773E-14
 -1      3163 1.45270E-02-4.02069E-03 7.73041E-14
 -1      3164 1.42651E-02-3.90108E-03 7.57242E-14
 -1      3165 2.11000E-03 3.83423E-04 3.27004E-15
 -1      3166 1.95025E-03 3.58176E-04 2.85695E-15
 -1      3167 1.79181E-03 3.33965E-04 2.47094E-15
 -1      3168 1.63509E-03 3.10485E-04 2.11192E-15
 -1      3169 1.85455E-03 3.00344E-04 2.66466E-15
 -1      3170 3.38738E-03 5.68406E-04 7.53254E-15
 -1      3171 3.23292E-03 5.59004E-04 6.90791E-15
 -1      3172 3.47924E-03 5.40589E-04 7.83424E-15
 -1      3173 3.07638E-03 5.41527E-04 6.30884E-15
 -1      3174 2.91745E-03 5.18952E-04 5.73540E-15
 -1      3175 3.16383E-03 5.14736E-04 6.58943E-15
 -1      3176 3.98993E-03 4.94460E-04 1.02831E-14
 -1      3177 3.83956E-03 5.31653E-04 9.55900E-15
 -1      3178 3.78573E-03 5.19842E-04 9.18115E-15
 -1      3179 4.29452E-03 3.86065E-04 1.18011E-14
 -1      3180 4.14102E-03 4.45228E-04 1.10308E-14
 -1      3181 4.09115E-03 4.42950E-04 1.06270E-14
 -1      3182 4.60794E-03 2.45394E-04 1.34036E-14
 -1      3183 4.45005E-03 3.18400E-04 1.25919E-14
 -1      3184 4.40414E-03 3.17919E-04 1.21647E-14
 -1      3185 4.92854E-03 9.05330E-05 1.50855E-14
 -1      3186 4.76773E-03 1.68569E-04 1.42347E-14
 -1      3187 4.72738E-03 1.64714E-04 1.37867E-14
 -1      3188 5.25114E-03-6.42230E-05 1.68384E-14
 -1      3189 5.09002E-03 1.24950E-05 1.59541E-14
 -1      3190 5.05647E-03 4.04944E-06 1.54858E-14
 -1      3191 5.57099E-03-2.11297E-04 1.86546E-14
 -1      3192 5.41177E-03-1.38969E-04 1.77389E-14
 -1      3193 5.38474E-03-1.50733E-04 1.72546E-14
 -1      3194 5.88511E-03-3.48099E-04 2.05272E-14
 -1      3195 5.72894E-03-2.80947E-04 1.95844E-14
 -1      3196 5.70713E-03-2.94302E-04 1.90841E-14
 -1      3197 6.19265E-03-4.75182E-04 2.24497E-14
 -1      3198 6.03975E-03-4.12720E-04 2.14826E-14
 -1      3199 6.02137E-03-4.26292E-04 2.09657E-14
 -1      3200 6.49411E-03-5.94291E-04 2.44192E-14
 -1      3201 6.34411E-03-5.35573E-04 2.34292E-14
 -1      3202 6.32753E-03-5.48654E-04 2.28980E-14
 -1      3203 6.79061E-03-7.07460E-04 2.64318E-14
 -1      3204 6.64292E-03-6.51475E-04 2.54206E-14
 -1      3205 6.62686E-03-6.63823E-04 2.48749E-14
 -1      3206 7.08339E-03-8.16534E-04 2.84863E-14
 -1      3207 6.93740E-03-7.62395E-04 2.74541E-14
 -1      3208 6.92101E-03-7.74041E-04 2.68963E-14
 -1      3209 7.37355E-03-9.23023E-04 3.05771E-14
 -1      3210 7.22874E-03-8.70017E-04 2.95265E-14
 -1      3211 7.21153E-03-8.81097E-04 2.89556E-14
 -1      3212 7.66195E-03-1.02808E-03 3.27036E-14
 -1      3213 7.51792E-03-9.75670E-04 3.16361E-14
 -1      3214 7.49966E-03-9.86338E-04 3.10537E-14
 -1      3215 7.94922E-03-1.13253E-03 3.48617E-14
 -1      3216 7.80569E-03-1.08034E-03 3.37798E-14
 -1      3217 7.78635E-03-1.09073E-03 3.31866E-14
 -1      3218 8.23580E-03-1.23695E-03 3.70456E-14
 -1      3219 8.09257E-03-1.18472E-03 3.59498E-14
 -1      3220 8.07221E-03-1.19492E-03 3.53495E-14
 -1      3221 8.52198E-03-1.34170E-03 3.92512E-14
 -1      3222 8.37892E-03-1.28927E-03 3.81454E-14
 -1      3223 8.35768E-03-1.29935E-03 3.75357E-14
 -1      3224 8.80793E-03-1.44697E-03 4.14749E-14
 -1      3225 8.66497E-03-1.39426E-03 4.03624E-14
 -1      3226 8.64298E-03-1.40426E-03 3.97459E-14
 -1      3227 9.09376E-03-1.55287E-03 4.37143E-14
 -1      3228 8.95085E-03-1.49984E-03 4.25920E-14
 -1      3229 8.92827E-03-1.50978E-03 4.19717E-14
 -1      3230 9.37953E-03-1.65941E-03 4.59673E-14
 -1      3231 9.23664E-03-1.60606E-03 4.48395E-14
 -1      3232 9.21362E-03-1.61596E-03 4.42132E-14
 -1      3233 9.66527E-03-1.76655E-03 4.82360E-14
 -1      3234 9.52240E-03-1.71291E-03 4.71005E-14
 -1      3235 9.49904E-03-1.72277E-03 4.64702E-14
 -1      3236 9.95101E-03-1.87425E-03 5.05155E-14
 -1      3237 9.80814E-03-1.82034E-03 4.93734E-14
 -1      3238 9.78454E-03-1.83016E-03 4.87395E-14
 -1      3239 1.02367E-02-1.98243E-03 5.28075E-14
 -1      3240 1.00939E-02-1.92829E-03 5.16600E-14
 -1      3241 1.00701E-02-1.93808E-03 5.10214E-14
 -1      3242 1.05225E-02-2.09102E-03 5.51124E-14
 -1      3243 1.03796E-02-2.03668E-03 5.39592E-14
 -1      3244 1.03558E-02-2.04645E-03 5.33167E-14
 -1      3245 1.08082E-02-2.19994E-03 5.74223E-14
 -1      3246 1.06653E-02-2.14544E-03 5.62672E-14
 -1      3247 1.06414E-02-2.15518E-03 5.56216E-14
 -1      3248 1.10940E-02-2.30913E-03 5.97438E-14
 -1      3249 1.09511E-02-2.25451E-03 5.85802E-14
 -1      3250 1.09271E-02-2.26423E-03 5.79314E-14
 -1      3251 1.13797E-02-2.41854E-03 6.20680E-14
 -1      3252 1.12368E-02-2.36381E-03 6.09061E-14
 -1      3253 1.12129E-02-2.37351E-03 6.02496E-14
 -1      3254 1.16654E-02-2.52811E-03 6.43936E-14
 -1      3255 1.15226E-02-2.47331E-03 6.32319E-14
 -1      3256 1.14986E-02-2.48299E-03 6.25724E-14
 -1      3257 1.19512E-02-2.63781E-03 6.67203E-14
 -1      3258 1.18083E-02-2.58295E-03 6.55576E-14
 -1      3259 1.17843E-02-2.59262E-03 6.48945E-14
 -1      3260 1.22369E-02-2.74760E-03 6.90432E-14
 -1      3261 1.20940E-02-2.69269E-03 6.78812E-14
 -1      3262 1.20701E-02-2.70235E-03 6.72155E-14
 -1      3263 1.25226E-02-2.85746E-03 7.13660E-14
 -1      3264 1.23797E-02-2.80252E-03 7.02043E-14
 -1      3265 1.23558E-02-2.81217E-03 6.95342E-14
 -1      3266 1.28083E-02-2.96736E-03 7.36840E-14
 -1      3267 1.26655E-02-2.91240E-03 7.25269E-14
 -1      3268 1.26416E-02-2.92204E-03 7.18521E-14
 -1      3269 1.30941E-02-3.07729E-03 7.60065E-14
 -1      3270 1.29512E-02-3.02232E-03 7.48447E-14
 -1      3271 1.29273E-02-3.03196E-03 7.41674E-14
 -1      3272 1.33798E-02-3.18724E-03 7.83314E-14
 -1      3273 1.32369E-02-3.13226E-03 7.71686E-14
 -1      3274 1.32130E-02-3.14190E-03 7.64823E-14
 -1      3275 1.36294E-02-3.28405E-03 8.03479E-14
 -1      3276 1.34874E-02-3.22816E-03 7.92231E-14
 -1      3277 1.34635E-02-3.23779E-03 7.85316E-14
 -1      3278 1.36788E-02-3.31963E-03 8.03083E-14
 -1      3279 1.43805E-02-3.86683E-03 7.86445E-14
 -1      3280 1.43264E-02-3.82467E-03 7.87673E-14
 -1      3281 1.85026E-03-3.59899E-04 3.43435E-15
 -1      3282 1.44888E-02-3.95115E-03 7.84050E-14
 -1      3283 1.44346E-02-3.90899E-03 7.85236E-14
 -1      3284 1.42839E-02-3.84029E-03 7.76112E-14
 -1      3285 1.42733E-02-3.78322E-03 7.88895E-14
 -1      3286 1.42201E-02-3.74177E-03 7.90126E-14
 -1      3287 1.41766E-02-3.75668E-03 7.78506E-14
 -1      3288 1.12228E-03 2.93428E-04 1.04054E-15
 -1      3289 8.95841E-04-1.71123E-04 7.35319E-16
 -1      3290 1.00192E-03-1.91222E-04 8.91838E-16
 -1      3291 6.41954E-03-9.35750E-04 1.47237E-14
 -1      3292 3.12942E-03 2.57033E-04 6.34890E-15
 -1      3293 3.27250E-03 3.25878E-04 6.76413E-15
 -1      3294 6.61923E-03-8.64544E-04 1.53858E-14
 -1      3295 6.53083E-03-8.91302E-04 1.50548E-14
 -1      3296 6.55426E-03-9.20200E-04 1.54083E-14
 -1      3297 1.10590E-03 2.39461E-04 1.07335E-15
 -1      3298 2.04942E-03-2.20917E-04 4.20231E-15
 -1      3299 2.22742E-03-1.59325E-04 4.48049E-15
 -1      3300 1.12076E-03-2.12377E-04 1.09336E-15
 -1      3301 1.24994E-03-2.34745E-04 1.33967E-15
 -1      3302 1.26919E-03-2.25906E-04 1.50129E-15
 -1      3303 1.04487E-03-1.85655E-04 1.04525E-15
 -1      3304 4.96515E-03-1.04585E-04 1.28610E-14
 -1      3305 5.18153E-03-2.38555E-04 1.34066E-14
 -1      3306 2.43505E-03-7.61250E-05 4.83677E-15
 -1      3307 2.60893E-03-6.14740E-07 5.16441E-15
 -1      3308 1.40579E-02-3.61527E-03 7.93946E-14
 -1      3309 1.40038E-02-3.57311E-03 7.95248E-14
 -1      3310 1.68211E-03-3.14192E-04 3.61302E-15
 -1      3311 1.73332E-03-3.05677E-04 3.71952E-15
 -1      3312 1.81936E-03-2.90098E-04 3.88323E-15
 -1      3313 1.90305E-03-2.67831E-04 3.99574E-15
 -1      3314 1.41660E-02-3.69960E-03 7.91391E-14
 -1      3315 1.41119E-02-3.65744E-03 7.92661E-14
 -1      3316 1.39612E-02-3.58874E-03 7.83444E-14
 -1      3317 1.40693E-02-3.67307E-03 7.80953E-14
 -1      3318 9.60874E-04-1.23679E-06 1.05012E-15
 -1      3319 9.43001E-04-2.58531E-05 1.04437E-15
 -1      3320 2.79005E-03 8.53527E-05 5.53527E-15
 -1      3321 2.95720E-03 1.71546E-04 5.91131E-15
 -1      3322 5.81899E-03-5.71589E-04 1.47256E-14
 -1      3323 6.03088E-03-6.57903E-04 1.50673E-14
 -1      3324 5.41156E-03-3.67738E-04 1.40021E-14
 -1      3325 5.59481E-03-4.64276E-04 1.43850E-14
 -1      3326 1.22726E-03 2.40296E-04 1.30226E-15
 -1      3327 5.31603E-03-3.03166E-04 1.40975E-14
 -1      3328 4.45090E-03 2.21239E-04 1.14325E-14
 -1      3329 4.86233E-03-2.95681E-05 1.28328E-14
 -1      3330 6.67512E-03-9.44480E-04 1.62904E-14
 -1      3331 2.83814E-03 4.62952E-04 5.44967E-15
 -1      3332 2.75663E-03 4.92916E-04 5.18928E-15
 -1      3333 2.59507E-03 4.65381E-04 4.66996E-15
 -1      3334 6.51061E-03-8.09231E-04 1.63440E-14
 -1      3335 6.60010E-03-8.35663E-04 1.69953E-14
 -1      3336 6.45951E-03-7.96918E-04 1.65347E-14
 -1      3337 6.70665E-03-8.63151E-04 1.70256E-14
 -1      3338 6.69198E-03-8.52360E-04 1.64521E-14
 -1      3339 6.73761E-03-8.69498E-04 1.66733E-14
 -1      3340 6.76379E-03-9.31446E-04 1.68256E-14
 -1      3341 3.35794E-03 3.83767E-04 7.04982E-15
 -1      3342 3.42778E-03 4.29368E-04 7.33884E-15
 -1      3343 3.23859E-03 3.65774E-04 6.67142E-15
 -1      3344 2.27112E-03 4.09826E-04 3.71003E-15
 -1      3345 2.17768E-03 3.48680E-04 3.48731E-15
 -1      3346 2.43286E-03 4.37221E-04 4.17678E-15
 -1      3347 1.46923E-02-4.08662E-03 7.85443E-14
 -1      3348 9.09662E-04-1.33303E-04 9.67583E-16
 -1      3349 9.27869E-04-1.46408E-04 9.50073E-16
 -1      3350 1.04428E-03-4.37145E-05 1.25689E-15
 -1      3351 9.26309E-04-4.77257E-05 1.03738E-15
 -1      3352 9.12092E-04-6.67702E-05 1.02930E-15
 -1      3353 9.79391E-04 2.60014E-05 1.05454E-15
 -1      3354 1.08676E-03 1.21153E-05 1.27085E-15
 -1      3355 9.97767E-04 5.55789E-05 1.05756E-15
 -1      3356 1.74522E-03-3.27147E-04 2.99776E-15
 -1      3357 1.75457E-03-3.33501E-04 3.32191E-15
 -1      3358 1.67600E-03-3.12752E-04 3.15419E-15
 -1      3359 1.63593E-03-2.98138E-04 2.63870E-15
 -1      3360 1.45237E-02-3.98796E-03 7.80852E-14
 -1      3361 1.43729E-02-3.91926E-03 7.71705E-14
 -1      3362 6.68374E-03-8.70617E-04 1.59228E-14
 -1      3363 2.28384E-03-1.00651E-04 4.45366E-15
 -1      3364 1.39500E-02-3.53112E-03 7.96546E-14
 -1      3365 1.38962E-02-3.48914E-03 7.97841E-14
 -1      3366 1.38533E-02-3.50459E-03 7.85978E-14
 -1      3367 1.47999E-03 2.87372E-04 1.78042E-15
 -1      3368 1.32666E-03 2.64050E-04 1.47662E-15
 -1      3369 6.16502E-03-7.03780E-04 1.56416E-14
 -1      3370 1.64670E-03-3.08553E-04 3.41284E-15
 -1      3371 1.60843E-03-2.84893E-04 3.20349E-15
 -1      3372 1.62870E-03-3.00508E-04 3.21774E-15
 -1      3373 2.99389E-03 2.26527E-04 5.95726E-15
 -1      3374 1.03352E-03 1.21190E-04 1.05872E-15
 -1      3375 1.01597E-03 8.74953E-05 1.05902E-15
 -1      3376 1.12942E-03 7.86211E-05 1.27880E-15
 -1      3377 1.16906E-03 1.53188E-04 1.27894E-15
 -1      3378 3.97923E-03 4.26320E-04 9.50096E-15
 -1      3379 4.08021E-03 3.94677E-04 9.87193E-15
 -1      3380 4.16011E-03 3.67308E-04 1.03188E-14
 -1      3381 1.94580E-03-2.22931E-04 3.91076E-15
 -1      3382 1.72543E-03-2.79520E-04 3.55365E-15
 -1      3383 8.93323E-04-1.09784E-04 9.96937E-16
 -1      3384 8.98222E-04-1.21584E-04 9.82992E-16
 -1      3385 1.00145E-03-1.44410E-04 1.17948E-15
 -1      3386 7.85589E-04-1.38471E-04 6.31385E-16
 -1      3387 2.65593E-03 6.22561E-05 5.16495E-15
 -1      3388 1.45732E-02-4.02200E-03 7.80886E-14
 -1      3389 3.72031E-03 4.50374E-04 8.39025E-15
 -1      3390 1.28623E-03 2.14114E-04 1.44807E-15
 -1      3391 8.81381E-04-1.49696E-04 8.04302E-16
 -1      3392 1.38424E-02-3.44715E-03 7.99181E-14
 -1      3393 1.37886E-02-3.40517E-03 8.00465E-14
 -1      3394 1.37457E-02-3.42062E-03 7.88551E-14
 -1      3395 5.74644E-03-5.28839E-04 1.50493E-14
 -1      3396 1.37283E-02-3.35521E-03 8.02687E-14
 -1      3397 1.36315E-02-3.32867E-03 7.92024E-14
 -1      3398 1.53987E-03 2.57104E-04 1.94874E-15
 -1      3399 4.19398E-03 3.89946E-04 1.09737E-14
 -1      3400 4.03689E-03 4.44681E-04 1.02278E-14
 -1      3401 1.42301E-02-3.86427E-03 7.60468E-14
 -1      3402 1.41951E-02-3.82746E-03 7.63697E-14
 -1      3403 1.40872E-02-3.80928E-03 7.49214E-14
 -1      3404 6.95282E-03-9.78426E-04 1.84727E-14
 -1      3405 7.06061E-03-1.02049E-03 1.93992E-14
 -1      3406 6.75280E-03-8.97641E-04 1.66385E-14
 -1      3407 6.86978E-03-9.45386E-04 1.77369E-14
 -1      3408 6.91254E-03-9.47516E-04 1.82791E-14
 -1      3409 6.76601E-03-8.85610E-04 1.68197E-14
 -1      3410 4.79520E-03 2.82050E-05 1.29121E-14
 -1      3411 5.01349E-03-1.09847E-04 1.35821E-14
 -1      3412 7.17283E-03-1.06450E-03 2.03391E-14
 -1      3413 7.28962E-03-1.11140E-03 2.12916E-14
 -1      3414 7.09997E-03-1.02305E-03 1.99541E-14
 -1      3415 7.40993E-03-1.16004E-03 2.22554E-14
 -1      3416 7.53365E-03-1.21088E-03 2.32317E-14
 -1      3417 7.32587E-03-1.11384E-03 2.18610E-14
 -1      3418 7.66009E-03-1.26310E-03 2.42184E-14
 -1      3419 7.78907E-03-1.31688E-03 2.52171E-14
 -1      3420 7.56775E-03-1.21264E-03 2.38136E-14
 -1      3421 7.92010E-03-1.37160E-03 2.62243E-14
 -1      3422 8.05302E-03-1.42735E-03 2.72413E-14
 -1      3423 7.82144E-03-1.31761E-03 2.58111E-14
 -1      3424 8.18745E-03-1.48367E-03 2.82677E-14
 -1      3425 8.32326E-03-1.54061E-03 2.93019E-14
 -1      3426 8.08389E-03-1.42688E-03 2.78452E-14
 -1      3427 8.46017E-03-1.59783E-03 3.03463E-14
 -1      3428 8.59808E-03-1.65535E-03 3.13999E-14
 -1      3429 8.35282E-03-1.53891E-03 2.99169E-14
 -1      3430 8.73677E-03-1.71296E-03 3.24609E-14
 -1      3431 8.87619E-03-1.77066E-03 3.35311E-14
 -1      3432 8.62652E-03-1.65248E-03 3.20236E-14
 -1      3433 9.01616E-03-1.82833E-03 3.46095E-14
 -1      3434 9.15665E-03-1.88596E-03 3.56942E-14
 -1      3435 8.90368E-03-1.76672E-03 3.41635E-14
 -1      3436 9.29752E-03-1.94348E-03 3.67878E-14
 -1      3437 9.43876E-03-2.00089E-03 3.78872E-14
 -1      3438 9.18337E-03-1.88108E-03 3.63367E-14
 -1      3439 9.58027E-03-2.05814E-03 3.89921E-14
 -1      3440 9.72204E-03-2.11525E-03 4.01023E-14
 -1      3441 9.46487E-03-1.99519E-03 3.85338E-14
 -1      3442 9.86399E-03-2.17219E-03 4.12179E-14
 -1      3443 1.00061E-02-2.22899E-03 4.23388E-14
 -1      3444 9.74767E-03-2.10887E-03 4.07538E-14
 -1      3445 1.01484E-02-2.28561E-03 4.34613E-14
 -1      3446 1.02908E-02-2.34209E-03 4.45864E-14
 -1      3447 1.00314E-02-2.22204E-03 4.29923E-14
 -1      3448 1.04333E-02-2.39843E-03 4.57129E-14
 -1      3449 1.05758E-02-2.45462E-03 4.68414E-14
 -1      3450 1.03158E-02-2.33468E-03 4.52419E-14
 -1      3451 1.07184E-02-2.51068E-03 4.79722E-14
 -1      3452 1.08611E-02-2.56663E-03 4.91028E-14
 -1      3453 1.06007E-02-2.44683E-03 4.74996E-14
 -1      3454 1.10038E-02-2.62246E-03 5.02365E-14
 -1      3455 1.11466E-02-2.67819E-03 5.13705E-14
 -1      3456 1.08858E-02-2.55854E-03 4.97648E-14
 -1      3457 1.12894E-02-2.73383E-03 5.25053E-14
 -1      3458 1.14322E-02-2.78938E-03 5.36413E-14
 -1      3459 1.11712E-02-2.66987E-03 5.20341E-14
 -1      3460 1.15750E-02-2.84486E-03 5.47776E-14
 -1      3461 1.17179E-02-2.90027E-03 5.59154E-14
 -1      3462 1.14568E-02-2.78088E-03 5.43074E-14
 -1      3463 1.18607E-02-2.95562E-03 5.70533E-14
 -1      3464 1.20036E-02-3.01092E-03 5.81927E-14
 -1      3465 1.17424E-02-2.89163E-03 5.65846E-14
 -1      3466 1.21465E-02-3.06617E-03 5.93330E-14
 -1      3467 1.22894E-02-3.12138E-03 6.04743E-14
 -1      3468 1.20282E-02-3.00217E-03 5.88660E-14
 -1      3469 1.24322E-02-3.17655E-03 6.16149E-14
 -1      3470 1.25751E-02-3.23169E-03 6.27548E-14
 -1      3471 1.23139E-02-3.11255E-03 6.11482E-14
 -1      3472 1.27180E-02-3.28681E-03 6.38931E-14
 -1      3473 1.28609E-02-3.34190E-03 6.50291E-14
 -1      3474 1.25997E-02-3.22281E-03 6.34257E-14
 -1      3475 1.30038E-02-3.39697E-03 6.61657E-14
 -1      3476 1.31466E-02-3.45202E-03 6.73045E-14
 -1      3477 1.28854E-02-3.33297E-03 6.57018E-14
 -1      3478 1.32895E-02-3.50706E-03 6.84455E-14
 -1      3479 1.34324E-02-3.56208E-03 6.95849E-14
 -1      3480 1.31712E-02-3.44307E-03 6.79769E-14
 -1      3481 1.35753E-02-3.61710E-03 7.07227E-14
 -1      3482 1.37182E-02-3.67211E-03 7.18615E-14
 -1      3483 1.34570E-02-3.55312E-03 7.02602E-14
 -1      3484 1.38312E-02-3.71320E-03 7.28245E-14
 -1      3485 1.39741E-02-3.76820E-03 7.39602E-14
 -1      3486 1.39391E-02-3.73139E-03 7.42857E-14
 -1      3487 1.37130E-02-3.64922E-03 7.23606E-14
 -1      3488 3.57422E-03 5.14814E-04 8.13428E-15
 -1      3489 3.41575E-03 5.08609E-04 7.48877E-15
 -1      3490 3.32198E-03 4.77378E-04 7.08002E-15
 -1      3491 3.15549E-03 4.50642E-04 6.47849E-15
 -1      3492 4.51618E-03 2.46781E-04 1.25318E-14
 -1      3493 4.35326E-03 3.22427E-04 1.17417E-14
 -1      3494 4.30195E-03 3.29804E-04 1.13205E-14
 -1      3495 4.84963E-03 8.19340E-05 1.41737E-14
 -1      3496 4.68214E-03 1.64987E-04 1.33429E-14
 -1      3497 4.63612E-03 1.67841E-04 1.29008E-14
 -1      3498 5.18640E-03-8.19672E-05 1.58906E-14
 -1      3499 5.01832E-03-1.04331E-06 1.50231E-14
 -1      3500 4.97973E-03-5.75857E-06 1.45622E-14
 -1      3501 5.51863E-03-2.34557E-04 1.76736E-14
 -1      3502 5.35363E-03-1.60008E-04 1.67741E-14
 -1      3503 5.32278E-03-1.70089E-04 1.62953E-14
 -1      3504 5.84168E-03-3.73095E-04 1.95144E-14
 -1      3505 5.68154E-03-3.05434E-04 1.85869E-14
 -1      3506 5.65685E-03-3.18152E-04 1.80925E-14
 -1      3507 6.15450E-03-4.99647E-04 2.14069E-14
 -1      3508 5.99940E-03-4.37625E-04 2.04551E-14
 -1      3509 5.97866E-03-4.50495E-04 1.99453E-14
 -1      3510 6.45822E-03-6.17212E-04 2.33478E-14
 -1      3511 6.30742E-03-5.59305E-04 2.23709E-14
 -1      3512 6.28864E-03-5.71173E-04 2.18476E-14
 -1      3513 6.75482E-03-7.28676E-04 2.53340E-14
 -1      3514 6.60729E-03-6.73515E-04 2.43356E-14
 -1      3515 6.58900E-03-6.84002E-04 2.37973E-14
 -1      3516 7.04636E-03-8.36285E-04 2.73614E-14
 -1      3517 6.90111E-03-7.82826E-04 2.63429E-14
 -1      3518 6.88236E-03-7.92031E-04 2.57918E-14
 -1      3519 7.33458E-03-9.41665E-04 2.94300E-14
 -1      3520 7.19079E-03-8.89161E-04 2.83922E-14
 -1      3521 7.17107E-03-8.97358E-04 2.78278E-14
 -1      3522 7.62080E-03-1.04595E-03 3.15340E-14
 -1      3523 7.47787E-03-9.93885E-04 3.04767E-14
 -1      3524 7.45694E-03-1.00137E-03 2.99027E-14
 -1      3525 7.90593E-03-1.14990E-03 3.36743E-14
 -1      3526 7.76345E-03-1.09793E-03 3.25999E-14
 -1      3527 7.74128E-03-1.10496E-03 3.20148E-14
 -1      3528 8.19057E-03-1.25401E-03 3.58406E-14
 -1      3529 8.04828E-03-1.20192E-03 3.47546E-14
 -1      3530 8.02494E-03-1.20868E-03 3.41592E-14
 -1      3531 8.47508E-03-1.35856E-03 3.80321E-14
 -1      3532 8.33282E-03-1.30622E-03 3.69338E-14
 -1      3533 8.30846E-03-1.31285E-03 3.63311E-14
 -1      3534 8.75967E-03-1.46372E-03 4.02442E-14
 -1      3535 8.61736E-03-1.41106E-03 3.91350E-14
 -1      3536 8.59213E-03-1.41763E-03 3.85268E-14
 -1      3537 9.04443E-03-1.56954E-03 4.24717E-14
 -1      3538 8.90203E-03-1.51655E-03 4.13567E-14
 -1      3539 8.87609E-03-1.52310E-03 4.07408E-14
 -1      3540 9.32939E-03-1.67602E-03 4.47168E-14
 -1      3541 9.18689E-03-1.62270E-03 4.35918E-14
 -1      3542 9.16040E-03-1.62926E-03 4.29720E-14
 -1      3543 9.61454E-03-1.78312E-03 4.69763E-14
 -1      3544 9.47194E-03-1.72949E-03 4.58440E-14
 -1      3545 9.44503E-03-1.73608E-03 4.52186E-14
 -1      3546 9.89986E-03-1.89077E-03 4.92482E-14
 -1      3547 9.75718E-03-1.83688E-03 4.81116E-14
 -1      3548 9.72996E-03-1.84348E-03 4.74813E-14
 -1      3549 1.01853E-02-1.99891E-03 5.15327E-14
 -1      3550 1.00426E-02-1.94479E-03 5.03884E-14
 -1      3551 1.00151E-02-1.95140E-03 4.97575E-14
 -1      3552 1.04709E-02-2.10746E-03 5.38299E-14
 -1      3553 1.03281E-02-2.05314E-03 5.26791E-14
 -1      3554 1.03005E-02-2.05976E-03 5.20439E-14
 -1      3555 1.07565E-02-2.21634E-03 5.61347E-14
 -1      3556 1.06137E-02-2.16186E-03 5.49818E-14
 -1      3557 1.05860E-02-2.16849E-03 5.43414E-14
 -1      3558 1.10422E-02-2.32550E-03 5.84444E-14
 -1      3559 1.08993E-02-2.27089E-03 5.72895E-14
 -1      3560 1.08716E-02-2.27752E-03 5.66457E-14
 -1      3561 1.13279E-02-2.43488E-03 6.07616E-14
 -1      3562 1.11850E-02-2.38016E-03 5.96022E-14
 -1      3563 1.11572E-02-2.38679E-03 5.89574E-14
 -1      3564 1.16136E-02-2.54442E-03 6.30802E-14
 -1      3565 1.14708E-02-2.48963E-03 6.19210E-14
 -1      3566 1.14430E-02-2.49626E-03 6.12718E-14
 -1      3567 1.18994E-02-2.65410E-03 6.53990E-14
 -1      3568 1.17565E-02-2.59925E-03 6.42401E-14
 -1      3569 1.17287E-02-2.60587E-03 6.35867E-14
 -1      3570 1.21851E-02-2.76387E-03 6.77150E-14
 -1      3571 1.20423E-02-2.70897E-03 6.65570E-14
 -1      3572 1.20145E-02-2.71559E-03 6.59003E-14
 -1      3573 1.24709E-02-2.87371E-03 7.00303E-14
 -1      3574 1.23280E-02-2.81878E-03 6.88735E-14
 -1      3575 1.23002E-02-2.82539E-03 6.82133E-14
 -1      3576 1.27566E-02-2.98360E-03 7.23408E-14
 -1      3577 1.26138E-02-2.92865E-03 7.11845E-14
 -1      3578 1.25860E-02-2.93526E-03 7.05213E-14
 -1      3579 1.30424E-02-3.09353E-03 7.46514E-14
 -1      3580 1.28995E-02-3.03856E-03 7.34977E-14
 -1      3581 1.28717E-02-3.04516E-03 7.28285E-14
 -1      3582 1.33281E-02-3.20347E-03 7.69662E-14
 -1      3583 1.31853E-02-3.14850E-03 7.58083E-14
 -1      3584 1.31575E-02-3.15510E-03 7.51334E-14
 -1      3585 1.35239E-02-3.28775E-03 7.83157E-14
 -1      3586 1.40794E-02-3.72978E-03 7.68173E-14
 -1      3587 1.40262E-02-3.68834E-03 7.69354E-14
 -1      3588 2.13528E-03-1.07547E-04 4.03914E-15
 -1      3589 2.32062E-03-3.49495E-05 4.37564E-15
 -1      3590 6.11030E-03-6.79967E-04 1.60532E-14
 -1      3591 6.29992E-03-7.47797E-04 1.63034E-14
 -1      3592 2.51757E-03 5.05736E-05 4.76844E-15
 -1      3593 2.67947E-03 1.24945E-04 5.12303E-15
 -1      3594 9.01076E-04-8.31418E-05 1.01983E-15
 -1      3595 8.94602E-04-9.73164E-05 1.00905E-15
 -1      3596 9.92047E-04-1.18940E-04 1.21172E-15
 -1      3597 4.36806E-03 2.82118E-04 1.13979E-14
 -1      3598 4.54689E-03 1.84898E-04 1.21445E-14
 -1      3599 5.69963E-03-4.93317E-04 1.54206E-14
 -1      3600 5.89962E-03-5.89886E-04 1.57710E-14
 -1      3601 1.36568E-03 1.91962E-04 1.63625E-15
 -1      3602 1.26665E-03 1.72085E-04 1.45215E-15
 -1      3603 1.24621E-03 1.31247E-04 1.45345E-15
 -1      3604 1.82396E-03-2.19784E-04 3.55444E-15
 -1      3605 1.95276E-03-1.77124E-04 3.74680E-15
 -1      3606 3.64702E-03 4.65275E-04 8.19986E-15
 -1      3607 3.81657E-03 4.58254E-04 8.87379E-15
 -1      3608 1.91692E-03 2.64266E-04 2.85989E-15
 -1      3609 1.75668E-03 2.43577E-04 2.47698E-15
 -1      3610 1.65010E-03-2.60144E-04 3.24832E-15
 -1      3611 1.72832E-03-2.45943E-04 3.40004E-15
 -1      3612 1.72704E-03-2.07806E-04 3.24609E-15
 -1      3613 1.63693E-03 2.26250E-04 2.20692E-15
 -1      3614 1.48162E-03 2.07875E-04 1.87044E-15
 -1      3615 1.45937E-03 1.61707E-04 1.87121E-15
 -1      3616 1.69520E-03 1.90444E-04 2.38415E-15
 -1      3617 1.41410E-02-3.78530E-03 7.64879E-14
 -1      3618 1.39048E-03-2.40809E-04 1.94036E-15
 -1      3619 1.49828E-03-2.63413E-04 2.26116E-15
 -1      3620 2.85308E-03 2.06545E-04 5.54405E-15
 -1      3621 3.00939E-03 2.81492E-04 5.96599E-15
 -1      3622 5.22752E-03-2.37172E-04 1.42134E-14
 -1      3623 5.43647E-03-3.53683E-04 1.48222E-14
 -1      3624 9.59288E-04-1.57491E-04 9.74074E-16
 -1      3625 1.00782E-03-1.72530E-04 1.02255E-15
 -1      3626 1.11840E-03-1.92281E-04 1.23881E-15
 -1      3627 1.04854E-03-1.68189E-04 1.18734E-15
 -1      3628 1.34961E-02-3.29435E-03 7.76373E-14
 -1      3629 1.53202E-03-2.69575E-04 2.49716E-15
 -1      3630 6.41561E-03-7.82434E-04 1.69558E-14
 -1      3631 4.69279E-03 1.12529E-04 1.28715E-14
 -1      3632 6.70880E-03-8.68864E-04 1.75909E-14
 -1      3633 6.77862E-03-8.89861E-04 1.78171E-14
 -1      3634 3.09571E-03 3.47115E-04 6.22787E-15
 -1      3635 2.50713E-03 4.03960E-04 4.41585E-15
 -1      3636 3.88402E-03 4.83455E-04 9.50351E-15
 -1      3637 3.72907E-03 5.07576E-04 8.80653E-15
 -1      3638 1.16780E-03-3.68903E-05 1.49724E-15
 -1      3639 1.14372E-03-6.50256E-05 1.48712E-15
 -1      3640 1.00933E-03-8.70655E-05 1.23718E-15
 -1      3641 3.98342E-03 4.45312E-04 9.82870E-15
 -1      3642 2.95045E-03 3.87142E-04 5.78313E-15
 -1      3643 1.98971E-03-1.20267E-04 3.67320E-15
 -1      3644 1.39907E-02-3.71696E-03 7.55720E-14
 -1      3645 3.89702E-03 4.52280E-04 9.29604E-15
 -1      3646 1.38750E-02-3.61928E-03 7.60198E-14
 -1      3647 1.39722E-02-3.64617E-03 7.70583E-14
 -1      3648 1.39181E-02-3.60401E-03 7.71796E-14
 -1      3649 5.14457E-03-1.68755E-04 1.42936E-14
 -1      3650 1.37565E-02-3.47796E-03 7.75443E-14
 -1      3651 1.37027E-02-3.43598E-03 7.76692E-14
 -1      3652 2.35245E-03 2.89436E-05 4.33408E-15
 -1      3653 1.35499E-02-3.33633E-03 7.75133E-14
 -1      3654 1.33541E-02-3.25205E-03 7.61681E-14
 -1      3655 1.36037E-02-3.37831E-03 7.73884E-14
 -1      3656 2.70668E-03 1.88380E-04 5.12748E-15
 -1      3657 1.59968E-03-2.89787E-04 2.95442E-15
 -1      3658 1.21813E-03 2.90662E-05 1.51238E-15
 -1      3659 1.19308E-03-5.37350E-06 1.50565E-15
 -1      3660 1.29739E-03-2.62113E-05 1.75795E-15
 -1      3661 3.41422E-03 4.58068E-04 7.35875E-15
 -1      3662 3.52889E-03 4.62172E-04 7.76010E-15
 -1      3663 6.80408E-03-8.98683E-04 1.73971E-14
 -1      3664 6.05714E-03-6.48317E-04 1.64354E-14
 -1      3665 1.20489E-03-2.06230E-04 1.44618E-15
 -1      3666 1.31062E-03-2.26123E-04 1.70041E-15
 -1      3667 1.32956E-03-2.22585E-04 1.87647E-15
 -1      3668 1.16753E-03-1.93727E-04 1.41903E-15
 -1      3669 1.10306E-03-1.71353E-04 1.36242E-15
 -1      3670 1.13371E-03-1.82342E-04 1.39115E-15
 -1      3671 1.21616E-03-1.96547E-04 1.61061E-15
 -1      3672 1.58606E-03-2.61659E-04 3.05822E-15
 -1      3673 1.56937E-03-2.34744E-04 2.91394E-15
 -1      3674 1.53781E-03-2.58254E-04 2.87351E-15
 -1      3675 2.08016E-03 2.86693E-04 3.26960E-15
 -1      3676 1.97855E-03 2.25714E-04 3.05752E-15
 -1      3677 2.24568E-03 3.11644E-04 3.70538E-15
 -1      3678 3.62494E-03 4.86253E-04 8.22001E-15
 -1      3679 1.08643E-03-1.58148E-04 1.38340E-15
 -1      3680 1.38643E-02-3.56207E-03 7.72989E-14
 -1      3681 1.38102E-02-3.51990E-03 7.74222E-14
 -1      3682 1.36596E-02-3.45130E-03 7.64956E-14
 -1      3683 1.37671E-02-3.53518E-03 7.62580E-14
 -1      3684 5.60100E-03-4.29185E-04 1.55406E-14
 -1      3685 5.75971E-03-4.94989E-04 1.62685E-14
 -1      3686 5.51613E-03-3.65460E-04 1.56570E-14
 -1      3687 6.67819E-03-8.61633E-04 1.77864E-14
 -1      3688 2.77571E-03 3.50814E-04 5.24235E-15
 -1      3689 2.65891E-03 2.55100E-04 4.93102E-15
 -1      3690 2.57144E-03 3.47270E-04 4.62835E-15
 -1      3691 2.40102E-03 3.16924E-04 4.14308E-15
 -1      3692 2.50371E-03 1.86589E-04 4.53660E-15
 -1      3693 1.82456E-03-1.21347E-04 3.23205E-15
 -1      3694 1.98460E-03-5.96719E-05 3.50139E-15
 -1      3695 6.87777E-03-9.28393E-04 1.81296E-14
 -1      3696 6.95705E-03-9.60866E-04 1.88694E-14
 -1      3697 6.83730E-03-9.10892E-04 1.79792E-14
 -1      3698 1.10495E-03-1.49795E-04 1.46649E-15
 -1      3699 1.19460E-03-1.77585E-04 1.67135E-15
 -1      3700 7.05883E-03-1.00080E-03 1.98007E-14
 -1      3701 7.16642E-03-1.04375E-03 2.07453E-14
 -1      3702 7.01411E-03-9.79815E-04 1.96461E-14
 -1      3703 1.24026E-03-8.91475E-05 1.73422E-15
 -1      3704 1.12184E-03-8.94487E-05 1.47546E-15
 -1      3705 1.10443E-03-1.10255E-04 1.46222E-15
 -1      3706 7.27921E-03-1.08852E-03 2.17024E-14
 -1      3707 7.39618E-03-1.13574E-03 2.26708E-14
 -1      3708 7.23022E-03-1.06419E-03 2.15429E-14
 -1      3709 7.51692E-03-1.18459E-03 2.36515E-14
 -1      3710 7.64073E-03-1.23528E-03 2.46420E-14
 -1      3711 7.46460E-03-1.15733E-03 2.34873E-14
 -1      3712 7.76731E-03-1.28722E-03 2.56441E-14
 -1      3713 7.89619E-03-1.34047E-03 2.66551E-14
 -1      3714 7.71227E-03-1.25751E-03 2.54769E-14
 -1      3715 8.02712E-03-1.39458E-03 2.76759E-14
 -1      3716 8.15977E-03-1.44957E-03 2.87047E-14
 -1      3717 7.96982E-03-1.36286E-03 2.75047E-14
 -1      3718 8.29393E-03-1.50509E-03 2.97430E-14
 -1      3719 8.42938E-03-1.56114E-03 3.07916E-14
 -1      3720 8.23475E-03-1.47177E-03 2.95694E-14
 -1      3721 8.56594E-03-1.61748E-03 3.18460E-14
 -1      3722 8.70345E-03-1.67410E-03 3.29107E-14
 -1      3723 8.50522E-03-1.58290E-03 3.16680E-14
 -1      3724 8.84177E-03-1.73084E-03 3.39850E-14
 -1      3725 8.98080E-03-1.78768E-03 3.50657E-14
 -1      3726 8.77982E-03-1.69529E-03 3.38035E-14
 -1      3727 9.12043E-03-1.84453E-03 3.61536E-14
 -1      3728 9.26057E-03-1.90137E-03 3.72483E-14
 -1      3729 9.05750E-03-1.80825E-03 3.59704E-14
 -1      3730 9.40114E-03-1.95814E-03 3.83475E-14
 -1      3731 9.54210E-03-2.01485E-03 3.94535E-14
 -1      3732 9.33745E-03-1.92131E-03 3.81612E-14
 -1      3733 9.68336E-03-2.07146E-03 4.05647E-14
 -1      3734 9.82490E-03-2.12797E-03 4.16807E-14
 -1      3735 9.61909E-03-2.03422E-03 4.03753E-14
 -1      3736 9.96666E-03-2.18436E-03 4.28011E-14
 -1      3737 1.01086E-02-2.24065E-03 4.39243E-14
 -1      3738 9.90195E-03-2.14682E-03 4.26091E-14
 -1      3739 1.02507E-02-2.29681E-03 4.50487E-14
 -1      3740 1.03930E-02-2.35287E-03 4.61769E-14
 -1      3741 1.01857E-02-2.25904E-03 4.48561E-14
 -1      3742 1.05354E-02-2.40882E-03 4.73074E-14
 -1      3743 1.06778E-02-2.46468E-03 4.84380E-14
 -1      3744 1.04701E-02-2.37089E-03 4.71139E-14
 -1      3745 1.08204E-02-2.52043E-03 4.95712E-14
 -1      3746 1.09630E-02-2.57610E-03 5.07057E-14
 -1      3747 1.07550E-02-2.48238E-03 4.93778E-14
 -1      3748 1.11057E-02-2.63169E-03 5.18410E-14
 -1      3749 1.12484E-02-2.68721E-03 5.29775E-14
 -1      3750 1.10402E-02-2.59356E-03 5.16478E-14
 -1      3751 1.13912E-02-2.74265E-03 5.41161E-14
 -1      3752 1.15340E-02-2.79804E-03 5.52556E-14
 -1      3753 1.13256E-02-2.70446E-03 5.39236E-14
 -1      3754 1.16768E-02-2.85337E-03 5.63935E-14
 -1      3755 1.18196E-02-2.90865E-03 5.75348E-14
 -1      3756 1.16111E-02-2.81513E-03 5.62039E-14
 -1      3757 1.19625E-02-2.96389E-03 5.86769E-14
 -1      3758 1.21053E-02-3.01909E-03 5.98181E-14
 -1      3759 1.18968E-02-2.92562E-03 5.84863E-14
 -1      3760 1.22482E-02-3.07426E-03 6.09585E-14
 -1      3761 1.23911E-02-3.12939E-03 6.20979E-14
 -1      3762 1.21825E-02-3.03597E-03 6.07693E-14
 -1      3763 1.25340E-02-3.18451E-03 6.32375E-14
 -1      3764 1.26769E-02-3.23960E-03 6.43765E-14
 -1      3765 1.24683E-02-3.14621E-03 6.30489E-14
 -1      3766 1.28197E-02-3.29466E-03 6.55156E-14
 -1      3767 1.29626E-02-3.34972E-03 6.66520E-14
 -1      3768 1.27541E-02-3.25636E-03 6.53266E-14
 -1      3769 1.31055E-02-3.40476E-03 6.77908E-14
 -1      3770 1.32484E-02-3.45979E-03 6.89335E-14
 -1      3771 1.30398E-02-3.36645E-03 6.76049E-14
 -1      3772 1.33913E-02-3.51480E-03 7.00731E-14
 -1      3773 1.35342E-02-3.56981E-03 7.12108E-14
 -1      3774 1.33256E-02-3.47649E-03 6.98846E-14
 -1      3775 3.68632E-03 5.06056E-04 8.58833E-15
 -1      3776 5.47071E-03-2.64821E-04 1.66970E-14
 -1      3777 5.29848E-03-1.86550E-04 1.58144E-14
 -1      3778 5.80455E-03-4.05428E-04 1.85076E-14
 -1      3779 5.63978E-03-3.37313E-04 1.75951E-14
 -1      3780 5.62579E-03-3.58775E-04 1.70987E-14
 -1      3781 6.12311E-03-5.30086E-04 2.03711E-14
 -1      3782 5.96577E-03-4.69244E-04 1.94328E-14
 -1      3783 5.95592E-03-4.90247E-04 1.89220E-14
 -1      3784 6.42866E-03-6.44252E-04 2.22829E-14
 -1      3785 6.27732E-03-5.88088E-04 2.13217E-14
 -1      3786 6.26881E-03-6.06676E-04 2.07954E-14
 -1      3787 6.72461E-03-7.52238E-04 2.42418E-14
 -1      3788 6.57763E-03-6.98734E-04 2.32567E-14
 -1      3789 6.56852E-03-7.14520E-04 2.27182E-14
 -1      3790 7.01410E-03-8.56982E-04 2.62435E-14
 -1      3791 6.86998E-03-8.04846E-04 2.52374E-14
 -1      3792 6.85937E-03-8.18178E-04 2.46843E-14
 -1      3793 7.29962E-03-9.60270E-04 2.82884E-14
 -1      3794 7.15722E-03-9.08707E-04 2.72610E-14
 -1      3795 7.14471E-03-9.20190E-04 2.66954E-14
 -1      3796 7.58297E-03-1.06317E-03 3.03701E-14
 -1      3797 7.44147E-03-1.01171E-03 2.93253E-14
 -1      3798 7.42702E-03-1.02194E-03 2.87469E-14
 -1      3799 7.86537E-03-1.16630E-03 3.24891E-14
 -1      3800 7.72423E-03-1.11468E-03 3.14248E-14
 -1      3801 7.70796E-03-1.12412E-03 3.08373E-14
 -1      3802 8.14756E-03-1.26997E-03 3.46383E-14
 -1      3803 8.00645E-03-1.21805E-03 3.35603E-14
 -1      3804 7.98857E-03-1.22708E-03 3.29620E-14
 -1      3805 8.42999E-03-1.37434E-03 3.68159E-14
 -1      3806 8.28873E-03-1.32206E-03 3.57238E-14
 -1      3807 8.26947E-03-1.33093E-03 3.51170E-14
 -1      3808 8.71286E-03-1.47948E-03 3.90129E-14
 -1      3809 8.57136E-03-1.42682E-03 3.79118E-14
 -1      3810 8.55096E-03-1.43566E-03 3.72982E-14
 -1      3811 8.99625E-03-1.58535E-03 4.12308E-14
 -1      3812 8.85449E-03-1.53232E-03 4.01198E-14
 -1      3813 8.83317E-03-1.54124E-03 3.94987E-14
 -1      3814 9.28014E-03-1.69192E-03 4.34649E-14
 -1      3815 9.13813E-03-1.63855E-03 4.23458E-14
 -1      3816 9.11610E-03-1.64758E-03 4.17187E-14
 -1      3817 9.56449E-03-1.79911E-03 4.57146E-14
 -1      3818 9.42226E-03-1.74544E-03 4.45871E-14
 -1      3819 9.39967E-03-1.75458E-03 4.39551E-14
 -1      3820 9.84922E-03-1.90685E-03 4.79823E-14
 -1      3821 9.70681E-03-1.85292E-03 4.68462E-14
 -1      3822 9.68380E-03-1.86217E-03 4.62092E-14
 -1      3823 1.01343E-02-2.01505E-03 5.02591E-14
 -1      3824 9.99170E-03-1.96090E-03 4.91198E-14
 -1      3825 9.96839E-03-1.97026E-03 4.84805E-14
 -1      3826 1.04195E-02-2.12365E-03 5.25468E-14
 -1      3827 1.02769E-02-2.06931E-03 5.14018E-14
 -1      3828 1.02533E-02-2.07875E-03 5.07595E-14
 -1      3829 1.07050E-02-2.23257E-03 5.48458E-14
 -1      3830 1.05622E-02-2.17807E-03 5.36960E-14
 -1      3831 1.05385E-02-2.18758E-03 5.30501E-14
 -1      3832 1.09905E-02-2.34175E-03 5.71504E-14
 -1      3833 1.08477E-02-2.28713E-03 5.59976E-14
 -1      3834 1.08240E-02-2.29668E-03 5.53483E-14
 -1      3835 1.12762E-02-2.45114E-03 5.94601E-14
 -1      3836 1.11334E-02-2.39642E-03 5.83043E-14
 -1      3837 1.11095E-02-2.40601E-03 5.76516E-14
 -1      3838 1.15619E-02-2.56069E-03 6.17712E-14
 -1      3839 1.14190E-02-2.50589E-03 6.06154E-14
 -1      3840 1.13952E-02-2.51550E-03 5.99608E-14
 -1      3841 1.18477E-02-2.67036E-03 6.40836E-14
 -1      3842 1.17048E-02-2.61551E-03 6.29281E-14
 -1      3843 1.16809E-02-2.62513E-03 6.22690E-14
 -1      3844 1.21334E-02-2.78013E-03 6.63920E-14
 -1      3845 1.19905E-02-2.72523E-03 6.52373E-14
 -1      3846 1.19666E-02-2.73486E-03 6.45745E-14
 -1      3847 1.24192E-02-2.88996E-03 6.87014E-14
 -1      3848 1.22763E-02-2.83504E-03 6.75466E-14
 -1      3849 1.22524E-02-2.84467E-03 6.68811E-14
 -1      3850 1.27050E-02-2.99985E-03 7.10044E-14
 -1      3851 1.25621E-02-2.94490E-03 6.98544E-14
 -1      3852 1.25382E-02-2.95454E-03 6.91850E-14
 -1      3853 1.29907E-02-3.10977E-03 7.33058E-14
 -1      3854 1.28478E-02-3.05480E-03 7.21558E-14
 -1      3855 1.28240E-02-3.06444E-03 7.14875E-14
 -1      3856 1.32439E-02-3.20839E-03 7.53135E-14
 -1      3857 1.31010E-02-3.15342E-03 7.41633E-14
 -1      3858 1.30771E-02-3.16306E-03 7.34881E-14
 -1      3859 1.32977E-02-3.25037E-03 7.51948E-14
 -1      3860 1.49002E-03-2.57073E-04 2.55371E-15
 -1      3861 6.38566E-03-7.68796E-04 1.74352E-14
 -1      3862 6.53362E-03-8.17691E-04 1.76716E-14
 -1      3863 2.16176E-03 1.76039E-05 3.82092E-15
 -1      3864 2.33786E-03 9.05289E-05 4.18643E-15
 -1      3865 2.30612E-03 1.64568E-04 4.00409E-15
 -1      3866 1.97902E-03-4.74721E-07 3.36623E-15
 -1      3867 4.87052E-03 1.90581E-05 1.36936E-14
 -1      3868 1.10735E-03-1.35351E-04 1.48410E-15
 -1      3869 1.38776E-02-3.67588E-03 7.46124E-14
 -1      3870 1.38160E-02-3.62036E-03 7.49392E-14
 -1      3871 1.37645E-02-3.63480E-03 7.36533E-14
 -1      3872 4.19981E-03 3.58139E-04 1.06378E-14
 -1      3873 5.20349E-03-1.73899E-04 1.49162E-14
 -1      3874 5.40125E-03-2.87337E-04 1.55710E-14
 -1      3875 6.85639E-03-9.19012E-04 1.85541E-14
 -1      3876 1.34053E-03 1.24682E-04 1.65537E-15
 -1      3877 1.24281E-03 1.08966E-04 1.47026E-15
 -1      3878 1.22030E-03 7.03583E-05 1.46759E-15
 -1      3879 1.45491E-03 1.36231E-04 1.88975E-15
 -1      3880 5.04866E-03-7.12652E-05 1.45349E-14
 -1      3881 1.61345E-03-1.92572E-04 2.89248E-15
 -1      3882 1.69774E-03-1.67864E-04 3.03303E-15
 -1      3883 1.35069E-02-3.35169E-03 7.63319E-14
 -1      3884 6.66351E-03-8.57962E-04 1.82749E-14
 -1      3885 6.78268E-03-8.95395E-04 1.88833E-14
 -1      3886 6.64852E-03-8.51155E-04 1.87660E-14
 -1      3887 4.09987E-03 4.01351E-04 1.02509E-14
 -1      3888 6.02821E-03-6.21681E-04 1.69240E-14
 -1      3889 6.21715E-03-7.03735E-04 1.72153E-14
 -1      3890 1.33300E-03 5.53817E-05 1.72094E-15
 -1      3891 1.20947E-03-1.43989E-04 1.74329E-15
 -1      3892 1.36488E-02-3.53712E-03 7.40971E-14
 -1      3893 1.37619E-02-3.57820E-03 7.50610E-14
 -1      3894 1.37078E-02-3.53604E-03 7.51790E-14
 -1      3895 1.36548E-03-8.59738E-05 2.01300E-15
 -1      3896 1.33347E-03-1.16632E-04 1.99725E-15
 -1      3897 2.29828E-03 2.49759E-04 3.90009E-15
 -1      3898 6.35623E-03-7.48765E-04 1.79364E-14
 -1      3899 1.69096E-03-1.17053E-04 2.87576E-15
 -1      3900 5.55986E-03-3.59517E-04 1.62996E-14
 -1      3901 6.87340E-03-9.25994E-04 1.91824E-14
 -1      3902 6.94133E-03-9.50148E-04 1.93498E-14
 -1      3903 7.04452E-03-9.89142E-04 2.02867E-14
 -1      3904 6.87427E-03-9.26029E-04 1.96828E-14
 -1      3905 5.85146E-03-5.10427E-04 1.71675E-14
 -1      3906 5.93576E-03-5.67085E-04 1.70470E-14
 -1      3907 6.10422E-03-6.30498E-04 1.78366E-14
 -1      3908 1.43390E-03-1.13233E-05 2.03921E-15
 -1      3909 1.39993E-03-5.05475E-05 2.02734E-15
 -1      3910 1.49897E-03-7.80325E-05 2.31184E-15
 -1      3911 3.94045E-03 4.46276E-04 9.52520E-15
 -1      3912 1.34956E-02-3.36570E-03 7.57676E-14
 -1      3913 1.33966E-02-3.30803E-03 7.54822E-14
 -1      3914 1.32863E-02-3.26437E-03 7.46313E-14
 -1      3915 1.74273E-03 1.52726E-04 2.54167E-15
 -1      3916 1.62321E-03 1.39677E-04 2.26998E-15
 -1      3917 1.36031E-02-3.44957E-03 7.55312E-14
 -1      3918 1.35493E-02-3.40764E-03 7.56480E-14
 -1      3919 1.34390E-02-3.36397E-03 7.48020E-14
 -1      3920 2.09889E-03 2.05676E-04 3.39582E-15
 -1      3921 1.93335E-03 1.86051E-04 2.98168E-15
 -1      3922 1.85605E-03 1.29384E-04 2.85094E-15
 -1      3923 2.25159E-03 2.05772E-04 3.81131E-15
 -1      3924 1.26526E-03-2.00836E-04 1.81238E-15
 -1      3925 1.29536E-03-2.11575E-04 1.84474E-15
 -1      3926 1.37078E-03-2.27067E-04 2.09396E-15
 -1      3927 1.43626E-03-2.37164E-04 2.42393E-15
 -1      3928 1.27493E-03-1.92819E-04 1.91020E-15
 -1      3929 3.78412E-03 4.79010E-04 8.89455E-15
 -1      3930 7.15352E-03-1.03005E-03 2.12377E-14
 -1      3931 7.26694E-03-1.07376E-03 2.21997E-14
 -1      3932 7.07186E-03-9.96860E-04 2.09312E-14
 -1      3933 7.38446E-03-1.11930E-03 2.31734E-14
 -1      3934 7.50529E-03-1.16700E-03 2.41589E-14
 -1      3935 7.30121E-03-1.08218E-03 2.28593E-14
 -1      3936 7.62913E-03-1.21618E-03 2.51548E-14
 -1      3937 7.75548E-03-1.26695E-03 2.61600E-14
 -1      3938 7.54406E-03-1.17574E-03 2.48318E-14
 -1      3939 7.88407E-03-1.31882E-03 2.71762E-14
 -1      3940 8.01458E-03-1.37181E-03 2.82010E-14
 -1      3941 7.79715E-03-1.27561E-03 2.68472E-14
 -1      3942 8.14677E-03-1.42556E-03 2.92333E-14
 -1      3943 8.28043E-03-1.48004E-03 3.02761E-14
 -1      3944 8.05811E-03-1.38010E-03 2.88973E-14
 -1      3945 8.41536E-03-1.53500E-03 3.13283E-14
 -1      3946 8.55141E-03-1.59041E-03 3.23887E-14
 -1      3947 8.32514E-03-1.48775E-03 3.09853E-14
 -1      3948 8.68842E-03-1.64609E-03 3.34574E-14
 -1      3949 8.82628E-03-1.70201E-03 3.45358E-14
 -1      3950 8.59685E-03-1.59744E-03 3.31114E-14
 -1      3951 8.96486E-03-1.75806E-03 3.56190E-14
 -1      3952 9.10407E-03-1.81421E-03 3.67093E-14
 -1      3953 8.87216E-03-1.70833E-03 3.52665E-14
 -1      3954 9.24383E-03-1.87039E-03 3.78052E-14
 -1      3955 9.38407E-03-1.92658E-03 3.89068E-14
 -1      3956 9.15023E-03-1.81984E-03 3.74480E-14
 -1      3957 9.52471E-03-1.98275E-03 4.00142E-14
 -1      3958 9.66571E-03-2.03888E-03 4.11268E-14
 -1      3959 9.43038E-03-1.93158E-03 3.96530E-14
 -1      3960 9.80700E-03-2.09494E-03 4.22443E-14
 -1      3961 9.94855E-03-2.15095E-03 4.33650E-14
 -1      3962 9.71210E-03-2.04331E-03 4.18782E-14
 -1      3963 1.00903E-02-2.20688E-03 4.44896E-14
 -1      3964 1.02323E-02-2.26274E-03 4.56155E-14
 -1      3965 9.99500E-03-2.15490E-03 4.41204E-14
 -1      3966 1.03744E-02-2.31851E-03 4.67456E-14
 -1      3967 1.05167E-02-2.37422E-03 4.78767E-14
 -1      3968 1.02788E-02-2.26628E-03 4.63766E-14
 -1      3969 1.06591E-02-2.42985E-03 4.90089E-14
 -1      3970 1.08015E-02-2.48542E-03 5.01431E-14
 -1      3971 1.05632E-02-2.37743E-03 4.86391E-14
 -1      3972 1.09441E-02-2.54092E-03 5.12800E-14
 -1      3973 1.10867E-02-2.59636E-03 5.24178E-14
 -1      3974 1.08481E-02-2.48835E-03 5.09098E-14
 -1      3975 1.12294E-02-2.65174E-03 5.35563E-14
 -1      3976 1.13721E-02-2.70707E-03 5.46975E-14
 -1      3977 1.11333E-02-2.59908E-03 5.31875E-14
 -1      3978 1.15149E-02-2.76236E-03 5.58384E-14
 -1      3979 1.16577E-02-2.81761E-03 5.69797E-14
 -1      3980 1.14187E-02-2.70963E-03 5.54700E-14
 -1      3981 1.18005E-02-2.87282E-03 5.81217E-14
 -1      3982 1.19434E-02-2.92799E-03 5.92637E-14
 -1      3983 1.17042E-02-2.82004E-03 5.77557E-14
 -1      3984 1.20862E-02-2.98314E-03 6.04061E-14
 -1      3985 1.22291E-02-3.03826E-03 6.15461E-14
 -1      3986 1.19899E-02-2.93033E-03 6.00405E-14
 -1      3987 1.23720E-02-3.09336E-03 6.26849E-14
 -1      3988 1.25149E-02-3.14844E-03 6.38246E-14
 -1      3989 1.22757E-02-3.04053E-03 6.23216E-14
 -1      3990 1.26577E-02-3.20351E-03 6.49648E-14
 -1      3991 1.28006E-02-3.25856E-03 6.61042E-14
 -1      3992 1.25614E-02-3.15066E-03 6.46006E-14
 -1      3993 1.29435E-02-3.31359E-03 6.72439E-14
 -1      3994 1.30864E-02-3.36862E-03 6.83846E-14
 -1      3995 1.28472E-02-3.26074E-03 6.68813E-14
 -1      3996 1.32293E-02-3.42363E-03 6.95256E-14
 -1      3997 1.33722E-02-3.47864E-03 7.06635E-14
 -1      3998 1.31330E-02-3.37078E-03 6.91628E-14
 -1      3999 1.35926E-02-3.58550E-03 7.18512E-14
 -1      4000 1.37057E-02-3.62659E-03 7.28152E-14
 -1      4001 6.41481E-03-6.79779E-04 2.12201E-14
 -1      4002 6.26419E-03-6.26745E-04 2.02714E-14
 -1      4003 1.35269E-02-3.54719E-03 7.16648E-14
 -1      4004 6.06299E-03-5.62415E-04 1.89023E-14
 -1      4005 5.90296E-03-5.03214E-04 1.79846E-14
 -1      4006 5.73123E-03-4.29891E-04 1.71917E-14
 -1      4007 6.70756E-03-7.81800E-04 2.31507E-14
 -1      4008 6.56234E-03-7.31113E-04 2.21785E-14
 -1      4009 6.55947E-03-7.48740E-04 2.16413E-14
 -1      4010 6.99281E-03-8.81789E-04 2.51262E-14
 -1      4011 6.85086E-03-8.31836E-04 2.41338E-14
 -1      4012 6.84466E-03-8.45892E-04 2.35819E-14
 -1      4013 7.27391E-03-9.81702E-04 2.71451E-14
 -1      4014 7.13369E-03-9.31654E-04 2.61299E-14
 -1      4015 7.12424E-03-9.43134E-04 2.55664E-14
 -1      4016 7.55310E-03-1.08243E-03 2.92049E-14
 -1      4017 7.41362E-03-1.03193E-03 2.81708E-14
 -1      4018 7.40129E-03-1.04168E-03 2.75940E-14
 -1      4019 7.83179E-03-1.18431E-03 3.13019E-14
 -1      4020 7.69243E-03-1.13322E-03 3.02496E-14
 -1      4021 7.67764E-03-1.14194E-03 2.96610E-14
 -1      4022 8.11082E-03-1.28740E-03 3.34330E-14
 -1      4023 7.97122E-03-1.23571E-03 3.23629E-14
 -1      4024 7.95438E-03-1.24390E-03 3.17657E-14
 -1      4025 8.39062E-03-1.39162E-03 3.55936E-14
 -1      4026 8.25060E-03-1.33938E-03 3.45095E-14
 -1      4027 8.23210E-03-1.34739E-03 3.39028E-14
 -1      4028 8.67136E-03-1.49685E-03 3.77782E-14
 -1      4029 8.53086E-03-1.44412E-03 3.66835E-14
 -1      4030 8.51103E-03-1.45216E-03 3.60682E-14
 -1      4031 8.95306E-03-1.60296E-03 3.99815E-14
 -1      4032 8.81209E-03-1.54980E-03 3.88772E-14
 -1      4033 8.79120E-03-1.55800E-03 3.82564E-14
 -1      4034 9.23564E-03-1.70981E-03 4.22063E-14
 -1      4035 9.09424E-03-1.65630E-03 4.10923E-14
 -1      4036 9.07254E-03-1.66470E-03 4.04652E-14
 -1      4037 9.51899E-03-1.81729E-03 4.44468E-14
 -1      4038 9.37722E-03-1.76348E-03 4.33242E-14
 -1      4039 9.35489E-03-1.77210E-03 4.26928E-14
 -1      4040 9.80297E-03-1.92529E-03 4.67066E-14
 -1      4041 9.66091E-03-1.87123E-03 4.55735E-14
 -1      4042 9.63811E-03-1.88007E-03 4.49379E-14
 -1      4043 1.00875E-02-2.03371E-03 4.89776E-14
 -1      4044 9.94516E-03-1.97945E-03 4.78396E-14
 -1      4045 9.92201E-03-1.98848E-03 4.71990E-14
 -1      4046 1.03724E-02-2.14249E-03 5.12565E-14
 -1      4047 1.02299E-02-2.08806E-03 5.01154E-14
 -1      4048 1.02065E-02-2.09724E-03 4.94713E-14
 -1      4049 1.06575E-02-2.25155E-03 5.35484E-14
 -1      4050 1.05149E-02-2.19699E-03 5.24019E-14
 -1      4051 1.04913E-02-2.20629E-03 5.17541E-14
 -1      4052 1.09429E-02-2.36083E-03 5.58482E-14
 -1      4053 1.08002E-02-2.30616E-03 5.46985E-14
 -1      4054 1.07765E-02-2.31557E-03 5.40456E-14
 -1      4055 1.12285E-02-2.47029E-03 5.81501E-14
 -1      4056 1.10857E-02-2.41554E-03 5.69977E-14
 -1      4057 1.10619E-02-2.42502E-03 5.63428E-14
 -1      4058 1.15141E-02-2.57989E-03 6.04568E-14
 -1      4059 1.13713E-02-2.52508E-03 5.93044E-14
 -1      4060 1.13475E-02-2.53461E-03 5.86471E-14
 -1      4061 1.17999E-02-2.68960E-03 6.27616E-14
 -1      4062 1.16570E-02-2.63473E-03 6.16090E-14
 -1      4063 1.16331E-02-2.64431E-03 6.09511E-14
 -1      4064 1.20856E-02-2.79939E-03 6.50622E-14
 -1      4065 1.19427E-02-2.74448E-03 6.39122E-14
 -1      4066 1.19189E-02-2.75408E-03 6.32495E-14
 -1      4067 1.23714E-02-2.90923E-03 6.73655E-14
 -1      4068 1.22285E-02-2.85430E-03 6.62142E-14
 -1      4069 1.22046E-02-2.86392E-03 6.55478E-14
 -1      4070 1.26572E-02-3.01912E-03 6.96686E-14
 -1      4071 1.25143E-02-2.96417E-03 6.85170E-14
 -1      4072 1.24904E-02-2.97380E-03 6.78479E-14
 -1      4073 1.29430E-02-3.12905E-03 7.19573E-14
 -1      4074 1.28001E-02-3.07408E-03 7.08124E-14
 -1      4075 1.27762E-02-3.08372E-03 7.01432E-14
 -1      4076 1.49995E-03 1.01639E-04 2.03086E-15
 -1      4077 1.28831E-03-1.47806E-04 1.94660E-15
 -1      4078 1.28478E-03-1.75687E-04 1.96756E-15
 -1      4079 1.33745E-03-2.01508E-04 2.12298E-15
 -1      4080 1.40085E-03-1.53618E-04 2.24016E-15
 -1      4081 1.49305E-03 5.06838E-05 2.08190E-15
 -1      4082 1.49124E-03-2.12366E-04 2.62420E-15
 -1      4083 1.56062E-03-2.07823E-04 2.80034E-15
 -1      4084 6.35964E-03-7.36503E-04 1.85990E-14
 -1      4085 6.51225E-03-7.98369E-04 1.88250E-14
 -1      4086 1.52395E-03-1.73456E-04 2.60148E-15
 -1      4087 1.36823E-02-3.51378E-03 7.52957E-14
 -1      4088 1.36286E-02-3.47184E-03 7.54116E-14
 -1      4089 1.35183E-02-3.42817E-03 7.45669E-14
 -1      4090 1.35692E-02-3.47270E-03 7.43333E-14
 -1      4091 6.65394E-03-8.46248E-04 1.94419E-14
 -1      4092 1.34306E-02-3.49433E-03 7.13051E-14
 -1      4093 1.60589E-03 2.96843E-05 2.37645E-15
 -1      4094 1.35521E-02-3.51058E-03 7.30561E-14
 -1      4095 1.34980E-02-3.46842E-03 7.31753E-14
 -1      4096 6.22013E-03-6.40369E-04 1.93119E-14
 -1      4097 6.88895E-03-9.28585E-04 2.03172E-14
 -1      4098 6.98393E-03-9.63020E-04 2.06247E-14
 -1      4099 7.09707E-03-1.00307E-03 2.15785E-14
 -1      4100 1.30532E-02-3.17270E-03 7.28148E-14
 -1      4101 1.30294E-02-3.18234E-03 7.21397E-14
 -1      4102 1.31635E-02-3.21635E-03 7.36686E-14
 -1      4103 1.80598E-03-8.85371E-06 2.93334E-15
 -1      4104 1.96353E-03 5.87489E-05 3.22377E-15
 -1      4105 1.56367E-03-9.63903E-05 2.50832E-15
 -1      4106 1.67547E-03-5.09545E-05 2.68646E-15
 -1      4107 2.10082E-03 1.21956E-04 3.49568E-15
 -1      4108 1.36441E-02-3.57108E-03 7.31428E-14
 -1      4109 6.27837E-03-6.92324E-04 1.87271E-14
 -1      4110 6.65282E-03-8.30046E-04 2.04346E-14
 -1      4111 6.77627E-03-8.83733E-04 2.03786E-14
 -1      4112 6.89870E-03-9.22645E-04 2.13288E-14
 -1      4113 1.34933E-02-3.50238E-03 7.22192E-14
 -1      4114 1.43549E-03-2.08286E-04 2.45212E-15
 -1      4115 1.41537E-03-1.85268E-04 2.34613E-15
 -1      4116 1.33386E-02-3.43384E-03 7.12186E-14
 -1      4117 1.46750E-03-1.52385E-04 2.40490E-15
 -1      4118 1.51914E-03-1.34819E-04 2.48865E-15
 -1      4119 1.32625E-02-3.27401E-03 7.39560E-14
 -1      4120 1.33162E-02-3.31595E-03 7.38410E-14
 -1      4121 1.31934E-02-3.26792E-03 7.28805E-14
 -1      4122 1.33700E-02-3.35788E-03 7.37253E-14
 -1      4123 6.46151E-03-7.45150E-04 2.00948E-14
 -1      4124 1.30831E-02-3.22426E-03 7.20288E-14
 -1      4125 1.29728E-02-3.18061E-03 7.11735E-14
 -1      4126 1.31369E-02-3.26619E-03 7.19137E-14
 -1      4127 7.21390E-03-1.04513E-03 2.25442E-14
 -1      4128 7.33368E-03-1.08951E-03 2.35213E-14
 -1      4129 7.12217E-03-1.00809E-03 2.22279E-14
 -1      4130 7.45635E-03-1.13563E-03 2.45091E-14
 -1      4131 7.58135E-03-1.18358E-03 2.55065E-14
 -1      4132 7.36567E-03-1.09576E-03 2.41857E-14
 -1      4133 7.70855E-03-1.23289E-03 2.65162E-14
 -1      4134 7.83761E-03-1.28354E-03 2.75352E-14
 -1      4135 7.61802E-03-1.19055E-03 2.61855E-14
 -1      4136 7.96839E-03-1.33517E-03 2.85618E-14
 -1      4137 8.10065E-03-1.38776E-03 2.95977E-14
 -1      4138 7.87743E-03-1.29071E-03 2.82245E-14
 -1      4139 8.23427E-03-1.44103E-03 3.06438E-14
 -1      4140 8.36906E-03-1.49493E-03 3.16999E-14
 -1      4141 8.14262E-03-1.39478E-03 3.03017E-14
 -1      4142 8.50490E-03-1.54927E-03 3.27632E-14
 -1      4143 8.64167E-03-1.60402E-03 3.38357E-14
 -1      4144 8.41248E-03-1.50155E-03 3.24145E-14
 -1      4145 8.77926E-03-1.65903E-03 3.49138E-14
 -1      4146 8.91757E-03-1.71427E-03 3.59992E-14
 -1      4147 8.68608E-03-1.61012E-03 3.45607E-14
 -1      4148 9.05652E-03-1.76965E-03 3.70907E-14
 -1      4149 9.19602E-03-1.82515E-03 3.81888E-14
 -1      4150 8.96266E-03-1.71980E-03 3.67321E-14
 -1      4151 9.33601E-03-1.88070E-03 3.92927E-14
 -1      4152 9.47643E-03-1.93631E-03 4.04005E-14
 -1      4153 9.24157E-03-1.83012E-03 3.89308E-14
 -1      4154 9.61721E-03-1.99191E-03 4.15132E-14
 -1      4155 9.75832E-03-2.04752E-03 4.26300E-14
 -1      4156 9.52229E-03-1.94076E-03 4.11472E-14
 -1      4157 9.89970E-03-2.10311E-03 4.37529E-14
 -1      4158 1.00413E-02-2.15867E-03 4.48779E-14
 -1      4159 9.80440E-03-2.05151E-03 4.33825E-14
 -1      4160 1.01832E-02-2.21419E-03 4.60055E-14
 -1      4161 1.03252E-02-2.26967E-03 4.71366E-14
 -1      4162 1.00876E-02-2.16225E-03 4.56344E-14
 -1      4163 1.04673E-02-2.32511E-03 4.82682E-14
 -1      4164 1.06096E-02-2.38052E-03 4.94024E-14
 -1      4165 1.03715E-02-2.27292E-03 4.78961E-14
 -1      4166 1.07521E-02-2.43588E-03 5.05390E-14
 -1      4167 1.08946E-02-2.49120E-03 5.16773E-14
 -1      4168 1.06561E-02-2.38349E-03 5.01661E-14
 -1      4169 1.10371E-02-2.54648E-03 5.28164E-14
 -1      4170 1.11798E-02-2.60173E-03 5.39578E-14
 -1      4171 1.09410E-02-2.49395E-03 5.24436E-14
 -1      4172 1.13225E-02-2.65695E-03 5.51012E-14
 -1      4173 1.14652E-02-2.71214E-03 5.62441E-14
 -1      4174 1.12263E-02-2.60431E-03 5.47283E-14
 -1      4175 1.16080E-02-2.76730E-03 5.73863E-14
 -1      4176 1.17508E-02-2.82243E-03 5.85299E-14
 -1      4177 1.15118E-02-2.71459E-03 5.70166E-14
 -1      4178 1.18936E-02-2.87755E-03 5.96734E-14
 -1      4179 1.20365E-02-2.93264E-03 6.08154E-14
 -1      4180 1.17974E-02-2.82478E-03 5.93041E-14
 -1      4181 1.21794E-02-2.98772E-03 6.19582E-14
 -1      4182 1.23222E-02-3.04278E-03 6.30973E-14
 -1      4183 1.20831E-02-2.93492E-03 6.15908E-14
 -1      4184 1.24651E-02-3.09783E-03 6.42366E-14
 -1      4185 1.26080E-02-3.15286E-03 6.53778E-14
 -1      4186 1.23688E-02-3.04500E-03 6.38736E-14
 -1      4187 1.27509E-02-3.20789E-03 6.65189E-14
 -1      4188 1.28938E-02-3.26291E-03 6.76604E-14
 -1      4189 1.26546E-02-3.15505E-03 6.61543E-14
 -1      4190 1.30367E-02-3.31792E-03 6.87979E-14
 -1      4191 1.31796E-02-3.37293E-03 6.99386E-14
 -1      4192 1.29404E-02-3.26507E-03 6.84354E-14
 -1      4193 7.25337E-03-1.00236E-03 2.60066E-14
 -1      4194 7.11645E-03-9.54310E-04 2.50050E-14
 -1      4195 7.52669E-03-1.10028E-03 2.80420E-14
 -1      4196 7.38999E-03-1.05100E-03 2.70184E-14
 -1      4197 7.37973E-03-1.05983E-03 2.64450E-14
 -1      4198 7.80056E-03-1.20060E-03 3.01177E-14
 -1      4199 7.66347E-03-1.15016E-03 2.90757E-14
 -1      4200 7.64990E-03-1.15782E-03 2.84896E-14
 -1      4201 8.07569E-03-1.30302E-03 3.22285E-14
 -1      4202 7.93792E-03-1.25158E-03 3.11689E-14
 -1      4203 7.92180E-03-1.25869E-03 3.05727E-14
 -1      4204 8.35240E-03-1.40715E-03 3.43722E-14
 -1      4205 8.21383E-03-1.35490E-03 3.32957E-14
 -1      4206 8.19575E-03-1.36187E-03 3.26907E-14
 -1      4207 8.63070E-03-1.51263E-03 3.65422E-14
 -1      4208 8.49134E-03-1.45975E-03 3.54542E-14
 -1      4209 8.47176E-03-1.46684E-03 3.48401E-14
 -1      4210 8.91050E-03-1.61917E-03 3.87336E-14
 -1      4211 8.77042E-03-1.56579E-03 3.76355E-14
 -1      4212 8.74970E-03-1.57315E-03 3.70136E-14
 -1      4213 9.19163E-03-1.72652E-03 4.09471E-14
 -1      4214 9.05091E-03-1.67276E-03 3.98378E-14
 -1      4215 9.02933E-03-1.68045E-03 3.92109E-14
 -1      4216 9.47388E-03-1.83449E-03 4.31791E-14
 -1      4217 9.33263E-03-1.78044E-03 4.20608E-14
 -1      4218 9.31040E-03-1.78847E-03 4.14288E-14
 -1      4219 9.75705E-03-1.94294E-03 4.54271E-14
 -1      4220 9.61536E-03-1.88867E-03 4.43005E-14
 -1      4221 9.59265E-03-1.89702E-03 4.36643E-14
 -1      4222 1.00409E-02-2.05176E-03 4.76910E-14
 -1      4223 9.89891E-03-1.99731E-03 4.65588E-14
 -1      4224 9.87585E-03-2.00594E-03 4.59159E-14
 -1      4225 1.03254E-02-2.16085E-03 4.99655E-14
 -1      4226 1.01831E-02-2.10628E-03 4.88277E-14
 -1      4227 1.01598E-02-2.11515E-03 4.81830E-14
 -1      4228 1.06103E-02-2.27017E-03 5.22521E-14
 -1      4229 1.04678E-02-2.21549E-03 5.11082E-14
 -1      4230 1.04443E-02-2.22456E-03 5.04609E-14
 -1      4231 1.08955E-02-2.37965E-03 5.45423E-14
 -1      4232 1.07528E-02-2.32489E-03 5.33946E-14
 -1      4233 1.07292E-02-2.33412E-03 5.27463E-14
 -1      4234 1.11809E-02-2.48926E-03 5.68380E-14
 -1      4235 1.10382E-02-2.43444E-03 5.56894E-14
 -1      4236 1.10144E-02-2.44379E-03 5.50342E-14
 -1      4237 1.14665E-02-2.59897E-03 5.91386E-14
 -1      4238 1.13237E-02-2.54410E-03 5.79875E-14
 -1      4239 1.12999E-02-2.55354E-03 5.73301E-14
 -1      4240 1.17521E-02-2.70875E-03 6.14395E-14
 -1      4241 1.16093E-02-2.65385E-03 6.02907E-14
 -1      4242 1.15855E-02-2.66336E-03 5.96284E-14
 -1      4243 1.20379E-02-2.81859E-03 6.37344E-14
 -1      4244 1.18950E-02-2.76366E-03 6.25868E-14
 -1      4245 1.18711E-02-2.77322E-03 6.19247E-14
 -1      4246 1.23236E-02-2.92847E-03 6.60318E-14
 -1      4247 1.21808E-02-2.87353E-03 6.48837E-14
 -1      4248 1.21569E-02-2.88312E-03 6.42178E-14
 -1      4249 1.26094E-02-3.03838E-03 6.83293E-14
 -1      4250 1.24665E-02-2.98342E-03 6.71803E-14
 -1      4251 1.24427E-02-2.99303E-03 6.65125E-14
 -1      4252 1.28626E-02-3.13698E-03 7.03221E-14
 -1      4253 1.27197E-02-3.08201E-03 6.91800E-14
 -1      4254 1.26958E-02-3.09163E-03 6.85103E-14
 -1      4255 1.29163E-02-3.17890E-03 7.02133E-14
 -1      4256 1.66180E-03 9.55770E-07 2.55740E-15
 -1      4257 1.92023E-03 1.01920E-04 3.05058E-15
 -1      4258 1.41768E-03-2.26383E-04 2.38636E-15
 -1      4259 1.32423E-02-3.38098E-03 7.08537E-14
 -1      4260 1.33758E-02-3.41962E-03 7.22470E-14
 -1      4261 1.34725E-02-3.44616E-03 7.32901E-14
 -1      4262 1.34470E-02-3.42390E-03 7.34054E-14
 -1      4263 1.72909E-03 7.47348E-05 2.60749E-15
 -1      4264 6.97924E-03-9.06891E-04 2.40135E-14
 -1      4265 6.84109E-03-8.59917E-04 2.30322E-14
 -1      4266 7.11042E-03-9.65218E-04 2.44430E-14
 -1      4267 6.60192E-03-7.90216E-04 2.10406E-14
 -1      4268 6.74065E-03-8.35502E-04 2.19968E-14
 -1      4269 7.02279E-03-9.63889E-04 2.22894E-14
 -1      4270 1.33954E-02-3.38014E-03 7.36070E-14
 -1      4271 6.87814E-03-8.94330E-04 2.24151E-14
 -1      4272 7.24928E-03-1.04611E-03 2.37692E-14
 -1      4273 7.37536E-03-1.09158E-03 2.47583E-14
 -1      4274 7.50317E-03-1.13852E-03 2.57584E-14
 -1      4275 7.63234E-03-1.18691E-03 2.67695E-14
 -1      4276 7.38468E-03-1.08613E-03 2.53321E-14
 -1      4277 7.76299E-03-1.23641E-03 2.77900E-14
 -1      4278 7.89486E-03-1.28702E-03 2.88191E-14
 -1      4279 7.64605E-03-1.18216E-03 2.73540E-14
 -1      4280 8.02797E-03-1.33845E-03 2.98580E-14
 -1      4281 8.16214E-03-1.39069E-03 3.09070E-14
 -1      4282 7.91163E-03-1.28241E-03 2.94144E-14
 -1      4283 8.29732E-03-1.44351E-03 3.19649E-14
 -1      4284 8.43339E-03-1.49688E-03 3.30305E-14
 -1      4285 8.18103E-03-1.38585E-03 3.15135E-14
 -1      4286 8.57029E-03-1.55065E-03 3.41036E-14
 -1      4287 8.70793E-03-1.60478E-03 3.51834E-14
 -1      4288 8.45377E-03-1.49160E-03 3.36462E-14
 -1      4289 8.84624E-03-1.65917E-03 3.62705E-14
 -1      4290 8.98514E-03-1.71378E-03 3.73634E-14
 -1      4291 8.72935E-03-1.59894E-03 3.58065E-14
 -1      4292 9.12457E-03-1.76855E-03 3.84625E-14
 -1      4293 9.26447E-03-1.82346E-03 3.95669E-14
 -1      4294 9.00727E-03-1.70735E-03 3.79935E-14
 -1      4295 9.40479E-03-1.87844E-03 4.06762E-14
 -1      4296 9.54548E-03-1.93351E-03 4.17882E-14
 -1      4297 9.28711E-03-1.81646E-03 4.02019E-14
 -1      4298 9.68649E-03-1.98861E-03 4.29055E-14
 -1      4299 9.82778E-03-2.04375E-03 4.40289E-14
 -1      4300 9.56848E-03-1.92599E-03 4.24292E-14
 -1      4301 9.96933E-03-2.09891E-03 4.51544E-14
 -1      4302 1.01111E-02-2.15407E-03 4.62830E-14
 -1      4303 9.85104E-03-2.03579E-03 4.46719E-14
 -1      4304 1.02530E-02-2.20923E-03 4.74127E-14
 -1      4305 1.03951E-02-2.26439E-03 4.85462E-14
 -1      4306 1.01345E-02-2.14572E-03 4.69291E-14
 -1      4307 1.05374E-02-2.31954E-03 4.96840E-14
 -1      4308 1.06797E-02-2.37468E-03 5.08224E-14
 -1      4309 1.04187E-02-2.25573E-03 4.91986E-14
 -1      4310 1.08222E-02-2.42980E-03 5.19615E-14
 -1      4311 1.09648E-02-2.48492E-03 5.31025E-14
 -1      4312 1.07034E-02-2.36576E-03 5.14769E-14
 -1      4313 1.11074E-02-2.54002E-03 5.42455E-14
 -1      4314 1.12501E-02-2.59511E-03 5.53908E-14
 -1      4315 1.09885E-02-2.47581E-03 5.37609E-14
 -1      4316 1.13928E-02-2.65019E-03 5.65350E-14
 -1      4317 1.15355E-02-2.70525E-03 5.76797E-14
 -1      4318 1.12738E-02-2.58584E-03 5.60499E-14
 -1      4319 1.16783E-02-2.76030E-03 5.88251E-14
 -1      4320 1.18212E-02-2.81535E-03 5.99701E-14
 -1      4321 1.15593E-02-2.69587E-03 5.83437E-14
 -1      4322 1.19640E-02-2.87039E-03 6.11153E-14
 -1      4323 1.21069E-02-2.92541E-03 6.22588E-14
 -1      4324 1.18450E-02-2.80588E-03 6.06363E-14
 -1      4325 1.22498E-02-2.98043E-03 6.34015E-14
 -1      4326 1.23926E-02-3.03545E-03 6.45416E-14
 -1      4327 1.21307E-02-2.91589E-03 6.29253E-14
 -1      4328 1.25355E-02-3.09046E-03 6.56838E-14
 -1      4329 1.26784E-02-3.14546E-03 6.68273E-14
 -1      4330 1.24165E-02-3.02588E-03 6.52110E-14
 -1      4331 1.28213E-02-3.20047E-03 6.79681E-14
 -1      4332 1.29642E-02-3.25546E-03 6.91083E-14
 -1      4333 1.27023E-02-3.13587E-03 6.74968E-14
 -1      4334 7.02257E-03-9.54997E-04 2.28477E-14
 -1      4335 8.05240E-03-1.32235E-03 3.10428E-14
 -1      4336 7.91688E-03-1.27104E-03 2.99939E-14
 -1      4337 7.51476E-03-1.12160E-03 2.69000E-14
 -1      4338 7.38206E-03-1.07367E-03 2.58885E-14
 -1      4339 8.32546E-03-1.42670E-03 3.31688E-14
 -1      4340 8.18858E-03-1.37428E-03 3.21029E-14
 -1      4341 8.60104E-03-1.53279E-03 3.53245E-14
 -1      4342 8.46295E-03-1.47957E-03 3.42429E-14
 -1      4343 8.87882E-03-1.64012E-03 3.75038E-14
 -1      4344 8.73968E-03-1.58633E-03 3.64111E-14
 -1      4345 9.15845E-03-1.74832E-03 3.97065E-14
 -1      4346 9.01842E-03-1.69414E-03 3.86027E-14
 -1      4347 9.43959E-03-1.85710E-03 4.19299E-14
 -1      4348 9.29885E-03-1.80266E-03 4.08158E-14
 -1      4349 9.72194E-03-1.96629E-03 4.41692E-14
 -1      4350 9.58063E-03-1.91166E-03 4.30478E-14
 -1      4351 1.00052E-02-2.07574E-03 4.64251E-14
 -1      4352 9.86348E-03-2.02099E-03 4.52946E-14
 -1      4353 1.02893E-02-2.18536E-03 4.86909E-14
 -1      4354 1.01472E-02-2.13053E-03 4.75563E-14
 -1      4355 1.05739E-02-2.29510E-03 5.09713E-14
 -1      4356 1.04315E-02-2.24022E-03 4.98308E-14
 -1      4357 1.08588E-02-2.40491E-03 5.32542E-14
 -1      4358 1.07163E-02-2.35000E-03 5.21115E-14
 -1      4359 1.11441E-02-2.51478E-03 5.55455E-14
 -1      4360 1.10014E-02-2.45984E-03 5.43985E-14
 -1      4361 1.14296E-02-2.62468E-03 5.78376E-14
 -1      4362 1.12868E-02-2.56973E-03 5.66918E-14
 -1      4363 1.17152E-02-2.73460E-03 6.01345E-14
 -1      4364 1.15724E-02-2.67964E-03 5.89858E-14
 -1      4365 1.20009E-02-2.84454E-03 6.24265E-14
 -1      4366 1.18581E-02-2.78957E-03 6.12820E-14
 -1      4367 1.22867E-02-2.95449E-03 6.47165E-14
 -1      4368 1.21438E-02-2.89951E-03 6.35709E-14
 -1      4369 1.25725E-02-3.06444E-03 6.70075E-14
 -1      4370 1.24296E-02-3.00947E-03 6.58621E-14
 -1      4371 1.32987E-02-3.35361E-03 7.25632E-14
 -1      4372 1.31137E-02-3.31284E-03 7.03042E-14
 -1      4373 1.32727E-02-3.37374E-03 7.15813E-14
 -1      4374 7.11849E-03-9.81181E-04 2.38979E-14
 -1      4375 1.31885E-02-3.30994E-03 7.17118E-14
 -1      4376 1.29946E-02-3.24823E-03 6.98384E-14
 -1      4377 7.78213E-03-1.22040E-03 2.89536E-14
 -1      4378 7.64805E-03-1.17057E-03 2.79211E-14
 -1      4379 1.28256E-02-3.16306E-03 6.90004E-14
 -1      4380 1.29751E-02-3.22043E-03 7.01980E-14
 -1      4381 7.25009E-03-1.02679E-03 2.48883E-14
 -1      4382 1.27154E-02-3.11942E-03 6.81517E-14
 -1      4383 1.32472E-02-3.35148E-03 7.16964E-14
 -1      4384 1.30853E-02-3.26407E-03 7.10468E-14
 -3
    1PSTEP                         2           1           1          
  100CL  101 1.000000000        4384                     0    1           1
 -4  STRESS      6    1
 -5  SXX         1    4    1    1
 -5  SYY         1    4    2    2
 -5  SZZ         1    4    3    3
 -5  SXY         1    4    1    2
 -5  SYZ         1    4    2    3
 -5  SZX         1    4    3    1
 -1         1 5.52481E-01-6.45089E-01-1.81920E+00 5.49307E-01 2.33091E-12 1.61315E-12
 -1         2-7.94717E-01-2.56018E+01-3.42842E+00 1.75278E-01 1.10507E-12 9.46118E-15
 -1         3 1.99998E+01 4.43492E-05-8.94911E-05 4.39078E-05-5.73840E-13-6.17598E-13
 -1         4 1.99998E+01 6.44745E-05-8.04797E-05-6.72838E-05 2.42318E-13-1.89181E-13
 -1         5 3.34774E+01 6.29428E+00 2.69474E+00 6.23526E+00 1.99007E-14-1.95842E-12
 -1         6 3.62032E+01 1.23189E+01 4.85945E+00-8.43442E+00 1.34448E-13-2.48808E-12
 -1         7 2.24536E+01 6.53934E+00 5.69944E-03-4.13587E+00 1.61399E-14-5.39496E-13
 -1         8 2.08788E+01 6.27916E+00 1.04384E-01-2.35581E+00 2.98372E-14 8.87897E-14
 -1         9 1.97159E+01 5.93785E+00 5.65315E-02-1.50047E+00 2.74780E-14 4.45580E-13
 -1        10 1.87872E+01 5.65738E+00 2.40174E-02-1.01090E+00 2.22392E-14 6.25739E-13
 -1        11 1.80708E+01 5.44137E+00 1.11757E-03-7.48242E-01 2.03552E-14 7.16532E-13
 -1        12 1.76009E+01 5.29931E+00-1.06126E-02-6.22924E-01 1.61069E-14 7.69096E-13
 -1        13 1.73773E+01 5.23162E+00-1.07452E-02-5.49767E-01 7.63539E-15 8.07577E-13
 -1        14 1.73905E+01 5.23503E+00-1.24775E-03-4.60193E-01 6.20337E-15 8.41937E-13
 -1        15 1.75921E+01 5.29515E+00 1.40661E-02-3.02420E-01 6.27796E-15 8.58477E-13
 -1        16 1.79208E+01 5.39380E+00 3.10269E-02-4.77114E-02 4.38712E-15 8.63950E-13
 -1        17 1.83205E+01 5.51415E+00 4.63312E-02 3.12841E-01-7.07767E-16 8.73813E-13
 -1        18 1.87468E+01 5.64406E+00 5.80140E-02 7.67411E-01-6.85563E-15 8.80715E-13
 -1        19 1.92102E+01 5.78656E+00 6.57395E-02 1.33134E+00-1.05888E-14 8.56717E-13
 -1        20 1.97462E+01 5.95363E+00 6.92635E-02 2.01532E+00-2.18783E-14 7.63618E-13
 -1        21 2.05001E+01 6.19251E+00 7.52230E-02 2.89601E+00-2.45359E-14 5.04310E-13
 -1        22 2.21374E+01 6.63854E+00 1.74380E-01 4.30065E+00-5.78704E-15-1.61262E-13
 -1        23 2.48539E+01-1.49261E+00-9.93590E-01-5.33476E-01 9.68947E-14-2.02097E-12
 -1        24 2.22759E+01-1.06802E-01-3.06457E-01 9.47984E-02 2.97271E-14-1.56882E-12
 -1        25 2.26401E+01-6.69330E-02-8.18797E-02 8.51300E-02 2.17560E-14-1.09336E-12
 -1        26 2.36696E+01-3.50723E-02-3.34938E-02 7.08713E-02 5.06106E-15-8.16153E-13
 -1        27 2.51916E+01-2.03195E-02-2.43620E-02 8.03034E-02 1.06384E-14-6.14397E-13
 -1        28 2.70458E+01 4.71907E-04 2.66189E-03 9.29680E-02 1.31655E-14-3.79700E-13
 -1        29 2.88917E+01 3.21926E-02 7.07219E-02 8.82314E-02-8.22259E-16-2.15338E-13
 -1        30 3.00461E+01 6.95297E-02 1.78769E-01 2.73745E-02 1.57903E-14-2.62752E-13
 -1        31 2.94797E+01 8.78114E-02 2.60535E-01-1.31301E-01-7.14880E-15-4.70152E-13
 -1        32 2.63693E+01 5.02726E-02 1.66657E-01-3.55620E-01-7.76150E-14-7.77406E-13
 -1        33 2.13797E+01-4.47795E-02-1.81730E-01-4.53363E-01 7.36613E-14-8.33014E-13
 -1        34 1.74630E+01-1.15886E-01-5.35665E-01-1.92464E-01-1.95677E-14-5.08857E-13
 -1        35 1.76053E+01-1.27993E-01-5.39875E-01 2.18962E-01 2.44648E-14-3.00877E-13
 -1        36 2.17991E+01-3.92138E-02-1.71939E-01 4.58324E-01 4.68531E-14 1.50796E-13
 -1        37 2.69582E+01 5.30944E-02 1.71197E-01 3.58569E-01-2.75613E-14 1.71446E-13
 -1        38 3.01838E+01 9.02223E-02 2.62632E-01 1.33024E-01-3.14002E-14 3.94754E-14
 -1        39 3.08402E+01 7.16025E-02 1.77461E-01-2.29812E-02 3.80017E-14 1.59208E-13
 -1        40 2.97728E+01 3.54315E-02 6.86942E-02-8.00041E-02-8.29185E-14 7.60295E-14
 -1        41 2.80019E+01 6.34485E-03 3.85899E-04-8.02977E-02 1.83471E-14 6.91357E-14
 -1        42 2.61830E+01-9.60445E-03-2.72932E-02-6.15434E-02-8.25024E-15 3.10849E-13
 -1        43 2.46087E+01-1.56093E-02-3.21278E-02-4.17951E-02 2.66478E-14 3.98575E-13
 -1        44 2.33555E+01-1.60902E-02-2.79243E-02-2.65811E-02 9.07659E-14 4.05570E-13
 -1        45 2.24022E+01-1.41734E-02-2.16351E-02-1.62193E-02 2.80941E-14 4.24683E-13
 -1        46 2.16956E+01-1.15735E-02-1.59224E-02-9.57496E-03 9.88792E-15 5.42145E-13
 -1        47 2.11801E+01-9.06906E-03-1.14513E-02-5.44797E-03 2.19730E-14 8.27060E-13
 -1        48 2.08080E+01-6.94053E-03-8.15825E-03-2.93113E-03-8.78388E-14 8.13132E-13
 -1        49 2.05419E+01-5.23654E-03-5.79280E-03-1.41690E-03 1.91507E-14 4.12673E-13
 -1        50 2.03532E+01-3.91437E-03-4.10760E-03-5.20114E-04 1.00664E-14 3.45700E-13
 -1        51 2.02210E+01-2.90538E-03-2.90719E-03-2.51900E-06 2.37910E-14 7.85975E-13
 -1        52 2.01296E+01-2.14223E-03-2.04938E-03 2.82043E-04-5.04857E-14 8.27923E-13
 -1        53 2.00677E+01-1.56790E-03-1.43411E-03 4.23457E-04-5.56009E-14 6.20998E-13
 -1        54 2.00268E+01-1.13722E-03-9.91788E-04 4.77490E-04-7.30389E-14 2.24573E-13
 -1        55 2.00009E+01-8.15446E-04-6.73871E-04 4.79159E-04 2.77658E-14-1.18456E-13
 -1        56 1.99855E+01-5.76192E-04-4.46219E-04 4.50716E-04-1.02760E-13-3.66091E-13
 -1        57 1.99772E+01-3.99472E-04-2.84488E-04 4.06411E-04 5.27365E-14-3.08538E-13
 -1        58 1.99738E+01-2.70115E-04-1.71061E-04 3.55370E-04-1.15372E-13-4.92951E-13
 -1        59 1.99734E+01-1.76549E-04-9.30178E-05 3.03366E-04 8.72103E-14-4.24563E-14
 -1        60 1.99750E+01-1.09903E-04-4.07791E-05 2.53936E-04-8.92503E-14 5.00744E-14
 -1        61 1.99775E+01-6.33555E-05-7.18479E-06 2.09119E-04-4.88239E-14-3.75594E-13
 -1        62 1.99806E+01-3.16389E-05 1.31420E-05 1.69943E-04 1.40582E-13 3.02154E-13
 -1        63 1.99839E+01-1.06782E-05 2.42572E-05 1.36764E-04 1.41639E-14 1.01518E-12
 -1        64 1.99870E+01 2.69481E-06 2.92510E-05 1.09494E-04 2.67244E-14 1.52081E-12
 -1        65 1.99899E+01 1.09677E-05 3.05490E-05 8.77366E-05-1.05696E-13 6.19964E-13
 -1        66 1.99925E+01 1.61292E-05 3.02306E-05 7.08402E-05-1.51995E-13 5.91622E-14
 -1        67 1.99948E+01 1.98010E-05 3.04138E-05 5.77950E-05 1.41414E-13 8.61367E-14
 -1        68 1.99967E+01 2.32514E-05 3.36133E-05 4.68492E-05 2.41905E-15 3.27864E-13
 -1        69 1.99983E+01 2.70232E-05 4.20752E-05 3.45002E-05-4.89851E-14 1.61886E-13
 -1        70 1.99994E+01 3.15810E-05 5.18539E-05 1.46894E-05 1.67781E-14-1.39086E-13
 -1        71 1.99999E+01 1.06938E-05 1.68460E-05-4.15033E-05-6.78153E-14-4.67013E-13
 -1        72 2.21384E+01-4.13547E-01-1.00647E+00-3.57614E-01-5.43940E-14-1.57656E-12
 -1        73 2.08537E+01-6.23237E-02-2.80440E-01-7.03232E-02-9.74741E-15-9.20304E-13
 -1        74 2.04729E+01-1.53297E-02-5.01131E-02-3.26281E-02-2.78826E-14-4.40712E-13
 -1        75 2.03948E+01-3.01985E-03 6.15608E-03-2.55687E-02-4.07077E-15-5.67150E-14
 -1        76 2.03633E+01 3.46778E-03 1.94957E-02-1.92160E-02-9.98583E-15 1.86727E-13
 -1        77 2.02239E+01 6.58813E-03 2.42392E-02-1.10621E-02 5.51366E-15 3.56811E-13
 -1        78 1.98824E+01 6.55219E-03 2.51828E-02 2.48528E-04 4.13130E-15 5.37165E-13
 -1        79 1.93047E+01 3.22326E-03 2.01218E-02 1.43721E-02-2.60154E-15 6.75317E-13
 -1        80 1.85337E+01-2.87946E-03 7.28971E-03 2.84877E-02-8.35326E-15 6.41782E-13
 -1        81 1.76995E+01-1.00168E-02-1.17595E-02 3.76379E-02 7.24133E-15 6.85889E-13
 -1        82 1.69980E+01-1.55184E-02-3.13114E-02 3.68485E-02-1.35128E-14 7.60851E-13
 -1        83 1.66308E+01-1.70279E-02-4.35611E-02 2.44471E-02-4.59355E-15 8.27282E-13
 -1        84 1.67251E+01-1.38460E-02-4.29372E-02 3.99939E-03 2.53091E-14 7.89376E-13
 -1        85 1.72764E+01-7.32310E-03-2.98212E-02-1.71504E-02-2.81216E-14 8.08525E-13
 -1        86 1.81513E+01 3.27043E-05-1.01492E-02-3.19407E-02 3.40379E-14 6.49160E-13
 -1        87 1.91462E+01 5.92753E-03 8.36204E-03-3.70841E-02-3.88996E-14 6.06463E-13
 -1        88 2.00662E+01 9.18770E-03 2.03333E-02-3.36713E-02-2.17016E-14 7.62199E-13
 -1        89 2.07806E+01 9.83571E-03 2.44267E-02-2.52910E-02 2.37117E-14 5.73707E-13
 -1        90 2.12391E+01 8.62449E-03 2.24127E-02-1.56744E-02-4.98294E-14 5.11970E-13
 -1        91 2.14558E+01 6.48606E-03 1.71487E-02-7.31780E-03-2.83026E-14 8.10000E-13
 -1        92 2.14814E+01 4.18041E-03 1.11246E-02-1.27978E-03 2.42835E-14 8.81062E-13
 -1        93 2.13774E+01 2.16886E-03 5.85150E-03 2.40469E-03-1.91519E-15 7.75493E-13
 -1        94 2.12003E+01 6.46236E-04 1.93932E-03 4.20344E-03 8.45829E-15 5.18902E-13
 -1        95 2.09939E+01-3.71656E-04-5.87995E-04 4.71068E-03-5.28569E-14 7.25885E-13
 -1        96 2.07882E+01-9.61247E-04-1.98324E-03 4.45078E-03 2.47327E-14 1.17074E-12
 -1        97 2.06009E+01-1.23007E-03-2.57104E-03 3.81140E-03 2.33286E-14 9.99893E-13
 -1        98 2.04406E+01-1.28211E-03-2.64419E-03 3.04564E-03-5.61414E-14 8.61230E-13
 -1        99 2.03100E+01-1.20261E-03-2.42712E-03 2.30043E-03 3.88798E-14 5.45433E-13
 -1       100 2.02076E+01-1.05449E-03-2.07452E-03 1.64902E-03-1.39756E-14 1.86578E-13
 -1       101 2.01303E+01-8.80367E-04-1.68394E-03 1.11822E-03 1.91830E-14 1.98672E-13
 -1       102 2.00740E+01-7.06804E-04-1.31118E-03 7.08238E-04-6.77949E-14 4.57575E-13
 -1       103 2.00345E+01-5.48637E-04-9.83997E-04 4.05917E-04 2.22051E-14 7.77229E-13
 -1       104 2.00080E+01-4.12756E-04-7.12559E-04 1.92832E-04 3.63873E-14 8.78375E-13
 -1       105 1.99914E+01-3.01017E-04-4.96809E-04 4.99420E-05 7.56263E-14 8.28905E-13
 -1       106 1.99818E+01-2.12336E-04-3.31386E-04-4.00548E-05-7.98851E-14 4.62979E-13
 -1       107 1.99772E+01-1.44113E-04-2.08678E-04-9.17451E-05-5.33645E-14 2.94104E-13
 -1       108 1.99759E+01-9.31459E-05-1.20635E-04-1.16806E-04 2.61015E-14 3.43310E-13
 -1       109 1.99767E+01-5.61785E-05-5.97323E-05-1.24222E-04-6.24077E-15 2.33087E-13
 -1       110 1.99788E+01-3.01980E-05-1.94208E-05-1.20675E-04-2.25095E-14 1.61053E-13
 -1       111 1.99815E+01-1.25712E-05 5.74327E-06-1.10988E-04-7.49158E-14 3.65915E-13
 -1       112 1.99845E+01-1.07854E-06 2.01465E-05-9.85390E-05 3.05783E-14 8.41103E-13
 -1       113 1.99874E+01 6.11057E-06 2.72666E-05-8.56296E-05 1.37186E-14 2.97272E-13
 -1       114 1.99902E+01 1.04917E-05 2.98841E-05-7.37700E-05-1.60895E-14-1.88545E-13
 -1       115 1.99928E+01 1.32899E-05 3.03788E-05-6.38833E-05 2.08902E-14-6.66032E-13
 -1       116 1.99950E+01 1.54887E-05 3.11445E-05-5.63568E-05-3.65366E-14-9.69640E-13
 -1       117 1.99969E+01 1.78240E-05 3.50124E-05-5.08111E-05-5.09204E-14-9.44164E-13
 -1       118 1.99984E+01 2.01093E-05 4.44642E-05-4.53104E-05 5.24346E-14-9.04716E-13
 -1       119 1.99994E+01 1.96295E-05 5.21961E-05-3.12120E-05 2.20134E-14-1.50830E-12
 -1       120 1.99999E+01-1.83198E-05 6.74726E-06 1.27835E-05 2.91270E-13-1.60806E-12
 -1       121 1.99998E+01 2.97907E-05 7.65776E-06 2.61621E-05-1.81127E-12-6.55544E-14
 -1       122 1.99998E+01-3.97739E-04 4.71704E-05-1.75321E-05-1.64505E-12-5.04064E-14
 -1       123 1.99998E+01-1.38263E-03 2.87833E-05-4.31545E-05-6.32290E-13 2.90941E-13
 -1       124 1.99998E+01-2.63991E-03 4.08048E-06-4.79144E-05-7.08402E-13 1.97095E-13
 -1       125 1.99998E+01-3.92704E-03-1.41402E-05-4.39398E-05-3.34926E-13-3.70747E-13
 -1       126 1.99998E+01-5.04005E-03-2.69251E-05-3.49969E-05-1.02305E-12-3.63033E-14
 -1       127 1.99998E+01-5.87395E-03-3.49411E-05-2.22302E-05-8.87113E-13 4.38953E-13
 -1       128 1.99998E+01-6.31469E-03-3.89241E-05-7.61383E-06-1.03639E-12-3.71192E-14
 -1       129 1.99998E+01-6.31503E-03-3.90037E-05 7.60448E-06-1.22696E-13 2.86027E-13
 -1       130 1.99998E+01-5.87413E-03-3.51647E-05 2.22680E-05 8.81162E-14-1.67870E-13
 -1       131 1.99998E+01-5.03821E-03-2.69654E-05 3.55462E-05-5.21830E-13-9.27463E-14
 -1       132 1.99998E+01-3.92100E-03-1.42973E-05 4.44151E-05-7.79969E-13 1.02231E-13
 -1       133 1.99998E+01-2.62746E-03 4.41434E-06 4.82883E-05-1.21677E-12 1.65408E-13
 -1       134 1.99998E+01-1.36801E-03 2.93207E-05 4.34555E-05-7.64376E-13 1.32665E-13
 -1       135 1.99998E+01-3.83856E-04 4.60024E-05 1.12943E-05-8.04028E-14 5.93480E-14
 -1       136 1.99998E+01 8.16816E-05 1.87433E-05-4.81358E-05 5.97051E-13 5.58662E-14
 -1       137-1.36710E+00-1.98073E+01-3.01383E+00-3.64305E+00 6.53866E-13 1.57666E-13
 -1       138-1.21813E+00-7.61930E+00-2.13123E+00-2.43547E+00-6.28719E-13-4.48003E-13
 -1       139 3.49696E+00 4.44952E+00-9.26254E-01 4.20901E+00-1.66972E-12-1.21692E-12
 -1       140 1.54495E+01 1.12485E+01 4.30528E-01 1.30991E+01-1.75371E-12-1.88560E-12
 -1       141 3.43939E+01 1.07945E+01 1.79673E+00 1.87118E+01-1.08710E-12-1.93939E-12
 -1       142 5.36949E+01 5.87666E+00 2.84926E+00 1.65753E+01-4.53804E-13-1.31689E-12
 -1       143 6.55666E+01 1.52326E+00 3.41937E+00 6.86553E+00-2.42410E-14-4.79200E-13
 -1       144 6.57787E+01 1.49849E+00 3.44333E+00-6.26200E+00-1.37529E-13 6.08846E-13
 -1       145 5.34382E+01 5.86228E+00 2.84889E+00-1.64680E+01-6.58473E-13 1.91003E-12
 -1       146 3.39910E+01 1.08136E+01 1.75005E+00-1.87428E+01-1.52023E-12 2.52803E-12
 -1       147 1.60902E+01 1.12205E+01 4.59036E-01-1.33318E+01-2.31559E-12 2.56706E-12
 -1       148 4.03118E+00 5.07937E+00-8.61980E-01-4.72207E+00-2.64760E-12 2.05586E-12
 -1       149-1.14420E+00-6.36186E+00-2.05769E+00 2.23504E+00-2.53758E-12 1.20251E-12
 -1       150-1.45921E+00-1.85967E+01-2.96818E+00 4.01511E+00-2.12463E-12 4.97151E-13
 -1       151-6.87198E-01-2.55055E+01-3.45251E+00 6.69318E-01-9.70224E-13 6.38135E-14
 -1       152-1.42486E+00-2.30963E+01-3.40945E+00-4.02481E+00 3.95045E-13 1.05976E-13
 -1       153-2.19139E+00-1.26753E+01-2.81074E+00-4.50669E+00 1.60366E-12 7.05352E-13
 -1       154 1.09597E+01 8.41475E+00-3.90586E-01 9.70419E+00 2.50738E-12 2.67564E-12
 -1       155 3.14604E+01 1.07280E+01 1.45760E+00 1.79393E+01 2.04042E-12 3.20544E-12
 -1       156 5.45988E+01 6.67072E+00 3.18899E+00 1.79618E+01 1.06454E-12 2.93970E-12
 -1       157 7.07280E+01 1.84665E+00 4.28311E+00 8.13178E+00 2.28081E-13 2.19905E-12
 -1       158 7.15598E+01 1.55952E+00 4.34040E+00-6.13142E+00-5.46091E-14 1.25017E-12
 -1       159 5.63953E+01 5.88682E+00 3.29114E+00-1.68416E+01 1.28689E-13-5.54556E-14
 -1       160 3.41564E+01 1.02232E+01 1.64627E+00-1.82869E+01 6.51035E-13-1.21447E-12
 -1       161 1.39053E+01 9.31537E+00-1.03716E-01-1.13893E+01 8.32001E-13-1.04949E-12
 -1       162 1.39420E+00 8.93985E-01-1.64781E+00-1.62474E+00 8.16958E-13-5.56610E-13
 -1       163-2.23246E+00-1.13192E+01-2.70169E+00 4.29979E+00 6.74405E-13-3.86136E-13
 -1       164-1.65620E+00-2.20632E+01-3.32592E+00 4.38620E+00 1.12818E-12-6.39974E-14
 -1       165 2.26816E+01 3.69920E+00-4.49051E-02-2.72310E+00 3.62283E-13-1.77417E-13
 -1       166 2.09702E+01 4.36451E+00-3.85869E-02-1.81640E+00 3.57105E-13 2.14610E-13
 -1       167 1.96525E+01 4.73327E+00-2.83950E-02-1.23872E+00 3.26840E-13 4.41225E-13
 -1       168 1.86389E+01 4.91787E+00-2.04381E-02-9.00087E-01 2.70996E-13 5.53941E-13
 -1       169 1.79322E+01 4.99703E+00-1.55094E-02-7.24925E-01 2.10788E-13 6.31769E-13
 -1       170 1.75349E+01 4.99788E+00-1.30810E-02-6.30807E-01 1.57527E-13 6.72434E-13
 -1       171 1.74501E+01 4.94180E+00-1.22211E-02-5.45809E-01 1.20008E-13 7.01394E-13
 -1       172 1.76248E+01 4.85400E+00-1.25831E-02-4.10041E-01 8.40710E-14 7.29381E-13
 -1       173 1.79819E+01 4.75901E+00-1.39282E-02-1.86467E-01 5.49365E-14 7.38438E-13
 -1       174 1.84431E+01 4.67378E+00-1.61790E-02 1.38802E-01-2.46331E-15 7.40704E-13
 -1       175 1.89423E+01 4.60317E+00-1.95419E-02 5.55284E-01-6.44537E-14 7.48349E-13
 -1       176 1.94767E+01 4.53153E+00-2.47735E-02 1.07018E+00-1.30162E-13 7.32461E-13
 -1       177 2.00697E+01 4.42121E+00-3.37704E-02 1.67763E+00-2.17442E-13 6.71166E-13
 -1       178 2.08443E+01 4.17954E+00-4.73294E-02 2.39613E+00-2.90301E-13 5.31318E-13
 -1       179 2.21770E+01 3.46407E+00-5.84996E-02 3.19142E+00-3.39269E-13 1.69142E-13
 -1       180 2.35589E+01 1.10432E+00-3.38774E-01 2.76554E+00-3.12791E-13-3.87579E-13
 -1       181 2.41128E+01 8.27508E-01 5.19819E-03-1.24778E+00 3.16882E-13-6.21583E-13
 -1       182 2.31972E+01 2.24617E-01-5.77742E-03 3.08210E-02 2.87177E-13-4.57127E-13
 -1       183 2.31972E+01 1.76957E-01 1.57123E-02 6.52497E-01 1.98092E-13-2.95501E-13
 -1       184 2.37801E+01 1.31199E-01 9.04695E-03 1.06549E+00 1.21275E-13-1.74652E-13
 -1       185 2.47144E+01 6.69832E-02 8.37913E-04 1.32932E+00 1.32114E-13-9.87448E-14
 -1       186 2.58299E+01-7.09205E-02-4.76794E-03 1.34636E+00 6.12331E-14-5.84073E-14
 -1       187 2.68950E+01-3.22777E-01-5.58444E-03 9.09373E-01-4.94023E-14-9.15830E-14
 -1       188 2.75763E+01-6.45322E-01-1.99642E-03-1.90160E-01-1.26970E-13-1.71904E-13
 -1       189 2.74725E+01-7.73491E-01-4.44338E-03-1.82831E+00-1.91685E-13-2.18516E-13
 -1       190 2.63574E+01-2.71959E-01-3.73414E-02-3.08686E+00-2.55785E-14-2.16428E-13
 -1       191 2.47552E+01 8.18975E-01-9.12382E-02-2.48586E+00 2.29920E-13-2.45359E-13
 -1       192 2.40238E+01 1.42546E+00-1.15876E-01 4.40692E-02 2.44804E-13-2.41721E-14
 -1       193 2.49184E+01 7.78791E-01-9.12836E-02 2.67791E+00 2.56663E-13 2.11869E-13
 -1       194 2.66439E+01-2.91382E-01-3.83066E-02 3.21635E+00 6.02175E-14 3.15855E-13
 -1       195 2.78545E+01-7.87237E-01-3.85798E-03 1.91437E+00-2.22756E-14 4.53897E-13
 -1       196 2.80179E+01-6.47349E-01-2.48429E-03 2.55291E-01-6.41362E-14 4.47562E-13
 -1       197 2.73764E+01-3.24974E-01-6.70093E-03-8.55159E-01 1.37295E-14 4.45034E-13
 -1       198 2.63156E+01-7.94381E-02-7.19908E-03-1.31422E+00 2.82135E-14 6.12590E-13
 -1       199 2.51424E+01 4.67915E-02-4.01988E-03-1.34583E+00 3.34278E-14 5.63203E-13
 -1       200 2.40399E+01 9.10679E-02-4.90340E-04-1.17771E+00 1.48709E-14 5.72226E-13
 -1       201 2.30921E+01 9.40432E-02 1.77487E-03-9.51472E-01-3.11600E-15 5.16385E-13
 -1       202 2.23205E+01 8.10229E-02 2.73595E-03-7.35021E-01-1.92025E-14 4.73095E-13
 -1       203 2.17141E+01 6.43791E-02 2.84150E-03-5.52945E-01-2.01891E-14 3.40283E-13
 -1       204 2.12485E+01 4.90968E-02 2.53184E-03-4.09096E-01 1.30744E-14 2.64388E-13
 -1       205 2.08968E+01 3.66372E-02 2.08691E-03-2.99184E-01-4.96841E-14 1.88170E-13
 -1       206 2.06346E+01 2.70204E-02 1.64700E-03-2.16739E-01-1.16363E-13 3.76311E-13
 -1       207 2.04411E+01 1.97934E-02 1.26710E-03-1.55551E-01 1.31505E-14 3.51495E-13
 -1       208 2.02998E+01 1.44298E-02 9.59560E-04-1.10448E-01 2.26511E-13 3.06601E-13
 -1       209 2.01979E+01 1.04696E-02 7.18917E-04-7.73822E-02-4.74826E-15 2.43018E-13
 -1       210 2.01253E+01 7.55038E-03 5.34074E-04-5.32791E-02-1.24650E-13 1.91369E-13
 -1       211 2.00745E+01 5.39995E-03 3.93579E-04-3.58341E-02-1.60150E-13 1.35931E-13
 -1       212 2.00397E+01 3.81789E-03 2.87499E-04-2.33263E-02-1.70686E-13 3.09954E-13
 -1       213 2.00165E+01 2.65747E-03 2.07817E-04-1.44701E-02-1.19960E-13 3.38020E-13
 -1       214 2.00017E+01 1.81095E-03 1.48279E-04-8.30289E-03-9.48319E-14 3.47452E-13
 -1       215 1.99927E+01 1.19868E-03 1.04075E-04-4.10245E-03-1.61482E-15 4.07935E-13
 -1       216 1.99879E+01 7.61195E-04 7.15209E-05-1.32667E-03 6.96194E-14 5.00115E-13
 -1       217 1.99858E+01 4.53787E-04 4.77939E-05 4.30771E-04 2.51628E-14 3.22791E-13
 -1       218 1.99855E+01 2.42578E-04 3.07237E-05 1.47303E-03-1.84849E-13 2.28470E-13
 -1       219 1.99863E+01 1.01789E-04 1.86348E-05 2.02454E-03 3.50339E-13 3.88493E-13
 -1       220 1.99878E+01 1.17327E-05 1.02281E-05 2.24943E-03 3.05157E-13 5.70125E-13
 -1       221 1.99895E+01-4.26933E-05 4.49041E-06 2.26547E-03 2.29667E-13 4.83659E-13
 -1       222 1.99914E+01-7.31879E-05 6.29839E-07 2.15461E-03-5.05165E-13 3.30101E-13
 -1       223 1.99932E+01-8.90403E-05-1.96895E-06 1.97071E-03-2.49896E-13 2.27041E-13
 -1       224 1.99949E+01-9.80332E-05-3.74404E-06 1.74503E-03-8.29415E-14 1.57893E-13
 -1       225 1.99964E+01-1.07288E-04-4.88250E-06 1.48958E-03 2.71871E-13-1.27434E-13
 -1       226 1.99976E+01-1.23658E-04-5.19444E-06 1.19948E-03-2.52739E-14 1.35723E-13
 -1       227 1.99986E+01-1.52202E-04-4.31217E-06 8.57232E-04-1.78048E-13 2.22094E-13
 -1       228 1.99993E+01-1.87908E-04-4.18262E-06 4.56446E-04-1.40364E-13 3.20963E-13
 -1       229 1.99997E+01-1.68398E-04 3.43850E-06 1.57966E-04-5.59666E-14 1.81941E-13
 -1       230 2.22736E+01 2.52710E-01-4.90701E-02 9.55584E-01-2.98133E-13-2.77394E-13
 -1       231 2.13494E+01 1.03660E-01 1.04154E-02 3.09289E-01-2.25341E-13-7.72628E-14
 -1       232 2.09378E+01 2.29175E-02 1.27257E-02 1.02541E-01-1.70327E-13 5.10486E-14
 -1       233 2.07122E+01-1.94306E-02 6.81532E-03 7.80139E-02-1.30965E-13 1.52575E-13
 -1       234 2.05061E+01-4.08689E-02 3.34173E-03 1.54087E-01-9.35170E-14 2.47633E-13
 -1       235 2.02228E+01-5.02051E-02 1.88701E-03 2.84045E-01-7.23803E-14 2.84884E-13
 -1       236 1.98193E+01-4.40151E-02 1.30188E-03 4.22543E-01-6.21197E-14 2.95534E-13
 -1       237 1.93093E+01-1.93771E-02 7.77457E-04 5.16015E-01-2.28729E-15 3.73181E-13
 -1       238 1.87652E+01 2.08117E-02 6.51670E-05 5.11647E-01-7.03717E-14 3.86917E-13
 -1       239 1.83040E+01 6.49050E-02-6.25608E-04 3.78988E-01-6.18485E-14 4.83245E-13
 -1       240 1.80507E+01 9.54934E-02-8.39855E-04 1.31978E-01 6.44970E-15 4.96751E-13
 -1       241 1.80889E+01 9.87393E-02-2.98574E-04-1.67411E-01 1.93903E-14 4.70306E-13
 -1       242 1.84226E+01 7.31884E-02 6.96658E-04-4.33257E-01-2.11328E-14 5.56335E-13
 -1       243 1.89744E+01 3.06212E-02 1.53118E-03-5.94930E-01 6.58673E-14 5.51698E-13
 -1       244 1.96186E+01-1.18096E-02 1.71062E-03-6.25836E-01-1.66298E-14 5.31999E-13
 -1       245 2.02294E+01-4.11976E-02 1.18389E-03-5.45474E-01-2.01670E-14 4.64113E-13
 -1       246 2.07169E+01-5.33864E-02 2.93152E-04-3.99796E-01 2.41853E-14 5.02319E-13
 -1       247 2.10406E+01-5.13820E-02-5.33018E-04-2.36974E-01-1.02388E-14 5.64603E-13
 -1       248 2.12016E+01-4.11517E-02-1.04803E-03-9.18629E-02-1.27644E-13 5.26183E-13
 -1       249 2.12276E+01-2.82150E-02-1.19753E-03 1.80639E-02-2.05011E-14 5.21758E-13
 -1       250 2.11569E+01-1.61903E-02-1.07205E-03 8.93947E-02 3.63033E-14 4.87813E-13
 -1       251 2.10273E+01-6.76582E-03-8.01381E-04 1.27075E-01 6.53934E-14 5.25897E-13
 -1       252 2.08700E+01-2.87862E-04-4.96703E-04 1.39436E-01-8.50438E-14 4.99346E-13
 -1       253 2.07081E+01 3.60842E-03-2.27251E-04 1.34994E-01-1.68161E-13 4.96173E-13
 -1       254 2.05561E+01 5.54520E-03-2.32981E-05 1.20877E-01 7.56558E-14 6.12884E-13
 -1       255 2.04222E+01 6.14678E-03 1.11259E-04 1.02349E-01 1.04431E-13 6.37000E-13
 -1       256 2.03098E+01 5.92892E-03 1.86401E-04 8.29198E-02 1.91999E-13 5.37872E-13
 -1       257 2.02190E+01 5.27156E-03 2.16974E-04 6.46902E-02 8.26233E-14 5.17214E-13
 -1       258 2.01482E+01 4.43127E-03 2.17559E-04 4.87393E-02-9.49158E-14 3.90282E-13
 -1       259 2.00947E+01 3.56746E-03 2.00193E-04 3.54660E-02-1.06863E-13 5.85977E-13
 -1       260 2.00556E+01 2.76956E-03 1.73788E-04 2.48521E-02-1.08883E-13 6.20079E-13
 -1       261 2.00280E+01 2.08007E-03 1.44385E-04 1.66510E-02 7.89172E-14 5.95415E-13
 -1       262 2.00093E+01 1.51204E-03 1.15731E-04 1.05127E-02 7.48761E-14 5.44636E-13
 -1       263 1.99973E+01 1.06149E-03 8.98969E-05 6.06245E-03 1.66970E-13 4.91334E-13
 -1       264 1.99902E+01 7.15632E-04 6.78092E-05 2.94498E-03 8.53191E-14 4.34156E-13
 -1       265 1.99865E+01 4.58174E-04 4.96685E-05 8.47344E-04 6.21066E-15 4.17436E-13
 -1       266 1.99852E+01 2.72386E-04 3.52506E-05-4.92927E-04-7.24765E-15 2.85441E-13
 -1       267 1.99854E+01 1.42793E-04 2.41122E-05-1.28763E-03 8.44618E-14 1.24039E-13
 -1       268 1.99865E+01 5.59211E-05 1.57240E-05-1.70223E-03-8.93196E-14 1.14983E-13
 -1       269 1.99882E+01 5.00493E-07 9.54974E-06-1.86197E-03-7.41810E-14-3.02814E-18
 -1       270 1.99901E+01-3.26793E-05 5.09074E-06-1.85854E-03 2.55107E-13 1.78799E-15
 -1       271 1.99920E+01-5.10928E-05 1.91503E-06-1.75596E-03 2.42924E-13-1.13251E-13
 -1       272 1.99938E+01-6.09256E-05-3.07719E-07-1.59562E-03 2.88948E-13-4.11209E-13
 -1       273 1.99955E+01-6.76176E-05-1.70392E-06-1.39988E-03 2.18962E-13-7.21168E-13
 -1       274 1.99969E+01-7.63912E-05-2.01652E-06-1.17429E-03-1.59610E-13-8.72428E-13
 -1       275 1.99981E+01-9.17192E-05-5.88839E-07-9.09781E-04 1.28691E-13-6.38484E-13
 -1       276 1.99990E+01-1.21230E-04 6.26492E-07-5.84917E-04 1.46537E-13-7.56971E-13
 -1       277 1.99996E+01-1.34617E-04-3.92605E-06-2.14341E-04-1.73179E-13-8.49387E-13
 -1       278 1.99996E+01-4.70637E-04-3.42767E-06-4.45137E-04-4.05324E-13 2.60872E-13
 -1       279 1.99997E+01-1.10834E-03-1.31935E-06-7.83057E-04-4.37422E-13 4.47066E-13
 -1       280 1.99998E+01-1.93210E-03-9.06442E-07-9.68726E-04-5.24457E-13 1.82078E-13
 -1       281 1.99998E+01-2.81737E-03 5.30719E-07-9.88922E-04-6.21774E-13 1.23761E-13
 -1       282 1.99999E+01-3.63729E-03 2.35981E-06-8.69963E-04-3.55853E-13-4.03545E-13
 -1       283 1.99999E+01-4.31547E-03 3.90386E-06-6.41201E-04-3.60330E-13-5.40084E-15
 -1       284 1.99999E+01-4.75550E-03 4.95975E-06-3.39233E-04-4.28322E-13 1.16695E-13
 -1       285 1.99999E+01-4.90832E-03 5.32299E-06-4.23981E-07-1.80412E-13 4.20945E-13
 -1       286 1.99999E+01-4.75678E-03 4.97467E-06 3.38981E-04-2.66581E-13 1.42768E-13
 -1       287 1.99999E+01-4.31693E-03 3.92641E-06 6.42625E-04-1.81678E-14-2.57205E-13
 -1       288 1.99999E+01-3.65123E-03 2.29381E-06 8.70379E-04-2.74139E-13-3.80326E-13
 -1       289 1.99998E+01-2.81530E-03 5.84971E-07 9.93142E-04-2.71607E-13-7.19616E-14
 -1       290 1.99998E+01-1.92613E-03-9.74518E-07 9.71782E-04-2.41791E-13 2.19296E-13
 -1       291 1.99997E+01-1.10845E-03-1.45976E-06 7.82146E-04-3.73501E-13 3.78264E-13
 -1       292 1.99997E+01-5.73854E-04 8.61706E-08 4.87791E-04-4.10181E-13 2.40001E-13
 -1       293-6.78754E-01-1.05826E+01-8.57403E-01 1.94671E+00 1.51670E-13-9.82964E-14
 -1       294 3.35909E+00-8.02954E+00-6.44782E-01 4.46696E+00 1.12244E-13-6.87783E-13
 -1       295 1.00816E+01-4.70287E+00-4.24331E-01 6.20171E+00-8.75411E-14-7.50941E-13
 -1       296 1.86207E+01-4.29134E-01-7.96166E-02 7.69180E+00-4.38455E-13-7.35911E-13
 -1       297 2.89196E+01 3.00197E+00 3.38318E-01 8.28483E+00-6.38600E-13-5.85310E-13
 -1       298 3.81115E+01 5.00616E+00 5.83189E-01 6.02664E+00-5.59166E-13-2.22877E-13
 -1       299 4.53892E+01 6.46612E+00 9.24746E-01 4.05563E+00-4.46518E-13-1.14242E-13
 -1       300 4.70051E+01 7.12692E+00 9.39228E-01 1.49886E-01-5.62272E-13 2.90129E-13
 -1       301 4.41669E+01 6.68180E+00 7.88667E-01-3.27151E+00-8.29642E-13 5.24247E-13
 -1       302 3.85934E+01 5.21217E+00 7.01059E-01-7.06375E+00-8.99062E-13 9.07968E-13
 -1       303 2.90874E+01 2.93573E+00 3.32178E-01-8.18721E+00-1.10073E-12 1.08452E-12
 -1       304 1.92603E+01-3.03483E-01-6.22922E-02-7.71589E+00-1.10112E-12 1.11003E-12
 -1       305 1.03576E+01-4.21868E+00-4.48814E-01-6.13096E+00-1.07309E-12 1.01742E-12
 -1       306 3.51479E+00-8.12410E+00-7.70585E-01-4.03809E+00-9.28063E-13 6.89230E-13
 -1       307-4.97640E-01-1.09756E+01-9.89824E-01-1.96585E+00-5.28175E-13 6.63206E-13
 -1       308-1.35341E+00-1.16944E+01-1.06141E+00 1.21284E-01-7.99777E-14 6.41931E-13
 -1       309 1.64333E+00-9.66929E+00-8.83196E-01 2.63480E+00 4.04760E-13 8.34791E-13
 -1       310 7.53125E+00-6.84495E+00-7.23472E-01 4.59339E+00 7.63223E-13 1.05752E-12
 -1       311 1.64040E+01-3.14000E+00-3.62745E-01 6.48702E+00 9.62896E-13 1.37257E-12
 -1       312 2.84716E+01-1.67956E-01 1.08659E-01 6.61750E+00 9.42191E-13 1.35897E-12
 -1       313 3.93494E+01 3.59852E+00 6.51527E-01 5.64388E+00 9.80813E-13 1.42725E-12
 -1       314 4.78516E+01 6.11082E+00 1.18255E+00 3.69720E+00 7.74353E-13 1.45295E-12
 -1       315 5.09896E+01 6.92484E+00 1.35341E+00 4.15341E-01 5.25524E-13 1.08172E-12
 -1       316 4.68245E+01 6.32825E+00 1.00902E+00-2.23891E+00 4.55747E-13 7.24726E-13
 -1       317 4.05722E+01 3.91169E+00 7.56148E-01-5.70801E+00 4.97300E-13 3.04590E-13
 -1       318 2.97906E+01 1.00306E+00 2.26100E-01-6.98447E+00 3.03979E-13-2.48024E-13
 -1       319 1.81052E+01-2.64562E+00-3.04296E-01-6.45178E+00 2.85383E-13-3.84720E-13
 -1       320 8.48305E+00-6.51365E+00-6.85384E-01-4.68383E+00 1.40776E-13-2.05072E-13
 -1       321 2.24726E+00-9.49668E+00-8.41965E-01-2.81949E+00 2.52687E-13 1.35503E-13
 -1       322-1.06610E+00-1.04579E+01-8.43631E-01-5.38343E-01 1.46140E-13 1.26288E-14
 -1       323 2.06610E+01 3.36365E+00-1.66120E-02-9.64100E-01 3.98581E-13 2.37524E-13
 -1       324 2.22303E+01 2.33073E+00-1.35039E-02-1.25128E+00 4.10524E-13 8.15320E-17
 -1       325 1.83518E+01 4.37818E+00-1.01435E-02-6.41023E-01 2.96101E-13 4.70224E-13
 -1       326 1.77304E+01 4.55157E+00-7.38975E-03-6.37536E-01 2.30092E-13 5.31233E-13
 -1       327 1.75017E+01 4.54860E+00-6.30235E-03-6.50081E-01 1.79324E-13 5.73129E-13
 -1       328 1.76181E+01 4.41460E+00-6.72659E-03-6.04440E-01 1.37270E-13 5.96152E-13
 -1       329 1.79876E+01 4.20539E+00-8.21746E-03-4.50748E-01 9.20650E-14 6.10166E-13
 -1       330 1.85044E+01 3.97141E+00-1.03635E-02-1.73821E-01 2.56576E-14 5.92941E-13
 -1       331 1.90717E+01 3.74483E+00-1.29785E-02 2.04815E-01-4.61290E-14 5.82910E-13
 -1       332 1.96624E+01 3.51381E+00-1.62216E-02 6.68039E-01-1.24350E-13 5.96110E-13
 -1       333 2.02706E+01 3.23699E+00-2.05422E-02 1.17210E+00-2.15741E-13 5.42019E-13
 -1       334 2.09586E+01 2.80871E+00-2.50679E-02 1.65595E+00-3.14445E-13 4.48779E-13
 -1       335 2.17956E+01 2.01046E+00-3.09855E-02 1.93165E+00-3.78047E-13 2.63524E-13
 -1       336 2.22683E+01 1.11900E+00-2.45986E-02 1.60733E+00-3.71279E-13 4.44046E-14
 -1       337 2.16724E+01 4.09256E-01 6.87180E-03 7.04215E-01-2.94870E-13 1.03154E-13
 -1       338 2.25227E+01 9.17666E-01 1.54738E-02 3.30033E-01 3.27216E-13-2.83242E-14
 -1       339 2.25444E+01 6.43895E-01 9.05646E-03 1.18925E+00 2.30289E-13 4.50599E-14
 -1       340 2.28417E+01 4.36434E-01 3.98427E-03 1.80411E+00 1.76142E-13 1.01069E-13
 -1       341 2.34104E+01 9.60872E-02-1.72919E-03 2.16919E+00 9.66323E-14 9.05782E-14
 -1       342 2.42945E+01-5.37002E-01-7.17261E-03 2.12485E+00-1.69498E-14 5.56181E-14
 -1       343 2.55770E+01-1.51346E+00-1.08425E-02 1.39109E+00-1.12381E-13 6.07431E-14
 -1       344 2.72215E+01-2.45005E+00-1.89765E-02-2.95558E-01-2.14114E-13 1.89284E-14
 -1       345 2.87187E+01-2.15757E+00-6.13896E-02-2.57600E+00-1.37920E-13-4.36266E-14
 -1       346 2.92819E+01 5.95870E-01-1.26990E-01-3.76451E+00 1.19772E-13-6.56905E-14
 -1       347 2.91085E+01 3.90251E+00-1.60439E-01-1.91523E+00 5.13298E-13 1.20556E-13
 -1       348 2.91512E+01 3.98364E+00-1.35119E-01 2.06365E+00 4.61325E-13 4.13690E-13
 -1       349 2.93309E+01 5.11697E-01-1.41842E-01 3.95227E+00 2.55365E-13 5.53217E-13
 -1       350 2.88692E+01-2.23209E+00-5.83344E-02 2.73454E+00 6.50801E-14 5.96023E-13
 -1       351 2.73818E+01-2.47537E+00-1.80253E-02 3.98013E-01-1.14847E-13 5.81421E-13
 -1       352 2.57532E+01-1.53234E+00-1.01213E-02-1.31172E+00-2.09511E-14 5.17069E-13
 -1       353 2.44579E+01-5.78417E-01-7.90900E-03-2.09606E+00 8.90195E-15 4.29182E-13
 -1       354 2.35048E+01 1.03077E-02-3.59136E-03-2.23062E+00 1.22182E-13 4.13781E-13
 -1       355 2.27834E+01 2.74901E-01 3.38933E-04-2.02953E+00 2.38765E-14 4.38476E-13
 -1       356 2.22089E+01 3.46340E-01 2.43219E-03-1.70169E+00-6.76600E-14 4.29923E-13
 -1       357 2.17382E+01 3.26770E-01 3.13309E-03-1.36006E+00 2.65591E-14 5.44922E-13
 -1       358 2.13509E+01 2.74627E-01 3.02375E-03-1.05497E+00 1.00831E-15 5.87772E-13
 -1       359 2.10353E+01 2.17826E-01 2.57412E-03-8.02333E-01-1.74678E-13 4.47084E-13
 -1       360 2.07821E+01 1.67414E-01 2.05176E-03-6.01731E-01-3.38183E-14 3.12818E-13
 -1       361 2.05819E+01 1.26389E-01 1.57657E-03-4.46347E-01-6.49079E-14 2.71366E-13
 -1       362 2.04261E+01 9.44072E-02 1.18617E-03-3.27819E-01-3.08505E-14 3.72004E-13
 -1       363 2.03066E+01 7.00203E-02 8.81230E-04-2.38319E-01 5.27525E-14 3.55845E-13
 -1       364 2.02161E+01 5.16319E-02 6.49164E-04-1.71255E-01-3.93145E-15 1.78547E-13
 -1       365 2.01486E+01 3.78431E-02 4.74918E-04-1.21348E-01 6.59198E-15 2.72688E-13
 -1       366 2.00991E+01 2.75338E-02 3.44996E-04-8.44798E-02-7.68468E-14 3.91664E-13
 -1       367 2.00632E+01 1.98443E-02 2.48510E-04-5.74774E-02 2.15351E-14 6.06263E-13
 -1       368 2.00378E+01 1.41267E-02 1.77090E-04-3.79093E-02-2.54405E-13 6.10915E-13
 -1       369 2.00203E+01 9.89553E-03 1.24433E-04-2.39160E-02-1.09369E-13 5.17074E-13
 -1       370 2.00085E+01 6.78612E-03 8.58292E-05-1.40766E-02-2.02804E-14 5.81044E-13
 -1       371 2.00009E+01 4.52322E-03 5.77529E-05-7.30634E-03 7.89940E-14 6.36963E-13
 -1       372 1.99964E+01 2.89771E-03 3.75569E-05-2.77896E-03-2.06714E-13 3.59090E-13
 -1       373 1.99939E+01 1.74982E-03 2.32401E-05 1.31903E-04-1.30399E-13 8.65065E-14
 -1       374 1.99928E+01 9.56941E-04 1.32820E-05 1.89800E-03 2.31097E-13 4.21770E-13
 -1       375 1.99927E+01 4.24757E-04 6.51996E-06 2.87106E-03 3.53151E-13 5.17538E-13
 -1       376 1.99932E+01 8.05045E-05 2.05983E-06 3.30963E-03 1.79413E-13 2.91708E-13
 -1       377 1.99939E+01-1.32192E-04-7.90316E-07 3.39969E-03-1.98915E-13 2.95261E-13
 -1       378 1.99949E+01-2.57474E-04-2.56243E-06 3.27061E-03-4.47710E-13 6.10284E-13
 -1       379 1.99959E+01-3.30719E-04-3.67932E-06 3.00716E-03-1.62118E-13 3.14302E-13
 -1       380 1.99968E+01-3.81390E-04-4.47305E-06 2.65850E-03-8.93495E-15 4.21426E-13
 -1       381 1.99977E+01-4.34540E-04-5.27769E-06 2.24587E-03 7.25521E-14 1.47038E-13
 -1       382 1.99984E+01-5.08873E-04-6.51868E-06 1.77243E-03 7.87695E-16 1.54350E-13
 -1       383 1.99991E+01-6.05464E-04-6.96209E-06 1.23315E-03-7.22441E-14 3.15931E-13
 -1       384 2.11920E+01 5.09552E-02 4.24855E-03 2.76247E-01-2.17760E-13 2.22461E-13
 -1       385 2.10102E+01-1.06682E-01 5.89329E-04 2.74033E-01-1.49640E-13 2.35061E-13
 -1       386 2.08438E+01-1.91247E-01-1.26227E-03 4.21719E-01-7.75292E-14 2.29846E-13
 -1       387 2.06369E+01-2.07170E-01-1.46419E-03 6.40070E-01-6.62149E-14 2.48526E-13
 -1       388 2.03565E+01-1.39979E-01-4.77797E-04 8.39172E-01-7.81319E-14 2.07466E-13
 -1       389 2.00109E+01 9.86835E-03 1.14982E-03 9.18964E-01-8.82612E-14 2.54192E-13
 -1       390 1.96563E+01 2.08084E-01 2.88968E-03 7.96960E-01-9.50945E-14 3.45608E-13
 -1       391 1.93859E+01 3.84329E-01 4.12684E-03 4.51575E-01-4.96842E-14 3.05706E-13
 -1       392 1.92925E+01 4.61952E-01 4.63139E-03-4.74619E-02-2.29010E-14 4.23151E-13
 -1       393 1.94177E+01 4.04064E-01 4.14637E-03-5.58014E-01-3.02985E-14 3.90445E-13
 -1       394 1.97272E+01 2.37706E-01 2.85979E-03-9.31618E-01-9.52364E-14 3.84381E-13
 -1       395 2.01291E+01 3.45807E-02 1.07584E-03-1.08273E+00-4.38733E-15 5.23259E-13
 -1       396 2.05210E+01-1.33518E-01-7.53034E-04-1.01485E+00-1.84879E-14 4.45280E-13
 -1       397 2.08290E+01-2.28261E-01-2.13540E-03-7.96373E-01-3.01775E-14 3.92957E-13
 -1       398 2.10218E+01-2.49349E-01-2.78012E-03-5.15155E-01 4.74530E-14 2.79119E-13
 -1       399 2.11022E+01-2.18992E-01-2.77948E-03-2.43186E-01-7.44580E-14 2.44773E-13
 -1       400 2.10914E+01-1.63975E-01-2.32420E-03-2.27849E-02-8.37183E-14 3.87488E-13
 -1       401 2.10168E+01-1.05146E-01-1.67439E-03 1.31096E-01-3.71518E-14 3.63395E-13
 -1       402 2.09039E+01-5.45037E-02-1.01912E-03 2.21753E-01 7.91063E-14 5.49025E-13
 -1       403 2.07735E+01-1.66883E-02-4.69540E-04 2.61505E-01-3.18395E-15 5.18868E-13
 -1       404 2.06406E+01 8.27300E-03-6.67485E-05 2.65093E-01-1.35494E-13 3.61518E-13
 -1       405 2.05154E+01 2.25623E-02 1.92843E-04 2.45970E-01-5.76010E-14 2.55374E-13
 -1       406 2.04034E+01 2.89970E-02 3.34530E-04 2.14762E-01 1.03322E-13 2.23211E-13
 -1       407 2.03074E+01 3.02010E-02 3.90110E-04 1.79028E-01 1.45804E-13 1.72789E-13
 -1       408 2.02280E+01 2.82739E-02 3.89095E-04 1.43649E-01 1.68919E-13 2.86757E-13
 -1       409 2.01641E+01 2.47375E-02 3.55101E-04 1.11436E-01-5.48601E-15 4.82841E-13
 -1       410 2.01141E+01 2.06088E-02 3.05189E-04 8.37264E-02-1.46540E-13 6.58653E-13
 -1       411 2.00760E+01 1.65129E-02 2.50655E-04 6.08964E-02-1.29095E-13 5.74328E-13
 -1       412 2.00478E+01 1.27941E-02 1.98316E-04 4.27415E-02-4.81271E-14 6.83354E-13
 -1       413 2.00274E+01 9.60899E-03 1.51784E-04 2.87494E-02 1.02270E-13 7.18197E-13
 -1       414 2.00132E+01 6.99657E-03 1.12548E-04 1.82803E-02 2.63274E-13 6.19021E-13
 -1       415 2.00038E+01 4.92791E-03 8.07847E-05 1.06786E-02 2.17941E-13 5.85417E-13
 -1       416 1.99978E+01 3.33974E-03 5.59321E-05 5.33548E-03 3.88345E-14 4.74977E-13
 -1       417 1.99943E+01 2.15562E-03 3.70762E-05 1.72018E-03 9.10804E-14 3.78321E-13
 -1       418 1.99926E+01 1.29860E-03 2.31891E-05-6.10144E-04 1.46661E-13 1.15164E-13
 -1       419 1.99921E+01 6.97891E-04 1.32682E-05-2.01188E-03 1.22462E-13 3.33853E-14
 -1       420 1.99923E+01 2.91953E-04 6.40623E-06-2.76302E-03 5.34294E-14-2.32629E-13
 -1       421 1.99930E+01 2.90943E-05 1.81826E-06-3.07370E-03 8.72644E-14-2.98464E-13
 -1       422 1.99940E+01-1.33226E-04-1.15752E-06-3.09720E-03 2.77151E-13-5.36256E-13
 -1       423 1.99951E+01-2.29878E-04-3.06809E-06-2.93988E-03 5.10552E-13-5.17492E-13
 -1       424 1.99961E+01-2.89888E-04-4.36721E-06-2.66962E-03 3.00084E-13-4.36811E-13
 -1       425 1.99971E+01-3.38187E-04-5.33433E-06-2.32262E-03 6.15682E-14-2.79701E-13
 -1       426 1.99980E+01-3.95380E-04-6.34637E-06-1.91080E-03-1.72051E-13-2.43012E-13
 -1       427 1.99987E+01-4.70440E-04-7.45621E-06-1.43563E-03 1.42398E-13-2.28584E-13
 -1       428 1.99992E+01-5.04478E-04-5.64876E-06-9.48759E-04-4.11621E-14 1.35675E-13
 -1       429 1.99998E+01-2.08860E-03-7.48372E-07-1.68381E-03-3.09285E-13 8.91400E-14
 -1       430 1.99995E+01-1.39786E-03-3.29709E-06-1.57023E-03-3.10587E-13 3.85312E-13
 -1       431 2.00000E+01-2.72934E-03 1.62638E-06-1.57999E-03-3.97715E-13-1.47300E-13
 -1       432 2.00002E+01-3.28694E-03 3.33004E-06-1.27753E-03-3.15929E-13-1.67398E-13
 -1       433 2.00003E+01-3.69318E-03 4.62301E-06-8.27550E-04-3.31639E-13 7.82564E-14
 -1       434 2.00003E+01-3.90790E-03 5.28242E-06-2.87167E-04-5.06450E-13 5.27026E-13
 -1       435 2.00003E+01-3.90986E-03 5.28814E-06 2.84268E-04-2.55254E-13 4.81887E-13
 -1       436 2.00003E+01-3.69833E-03 4.65364E-06 8.26815E-04-4.95725E-13-9.06377E-14
 -1       437 2.00002E+01-3.30208E-03 3.34253E-06 1.27377E-03-2.75391E-13-4.88521E-13
 -1       438 2.00000E+01-2.74560E-03 1.69933E-06 1.58203E-03-4.58307E-14 7.22157E-14
 -1       439 1.99998E+01-2.09163E-03-3.74967E-07 1.68980E-03 2.34773E-13 1.51139E-13
 -1       440 1.99995E+01-1.40361E-03-2.85439E-06 1.55843E-03-3.62816E-14 1.06847E-13
 -1       441 2.13715E+01 2.08181E-01 8.64421E-03 4.06561E-01-2.45597E-13 1.95103E-13
 -1       442 1.15409E+01-5.38957E+00 1.89287E-02 7.66963E+00 2.38864E-13-7.37237E-13
 -1       443 2.68132E+01-2.90895E+00 8.04813E-03 5.05761E+00 1.02529E-13 8.88178E-16
 -1       444 1.62615E+00-3.61899E+00 5.00725E-02 1.04616E+00-3.63373E-14-3.58047E-14
 -1       445 1.90769E+01-4.93624E+00-2.42200E-02 7.19888E+00 2.01700E-13-3.22908E-13
 -1       446 1.93423E+01 3.99894E+00-1.59425E-02-7.47427E-01 3.63034E-13 3.84903E-13
 -1       447 3.20070E+01 6.31502E-01 5.87434E-03 2.32204E+00-2.75811E-13 2.95680E-13
 -1       448 3.52879E+01 5.51179E+00 4.58956E-02 2.66042E-01-4.01346E-13 2.89713E-13
 -1       449 3.65360E+01 7.95705E+00 5.09939E-02 2.13905E-03-5.94441E-13 3.45654E-13
 -1       450 3.47962E+01 8.14553E+00-6.48050E-02 3.38433E-01-6.30079E-13 2.81219E-13
 -1       451 3.53999E+01 5.06513E+00 5.45848E-02-5.88610E-01-7.64805E-13 1.38181E-13
 -1       452 3.26325E+01 1.18588E+00 6.16114E-02-2.71576E+00-7.11287E-13 2.52048E-13
 -1       453 2.71161E+01-2.82939E+00 5.60923E-03-4.91270E+00-4.46532E-13 3.91076E-13
 -1       454 1.96459E+01-4.91902E+00-1.88842E-02-7.12402E+00-3.18245E-13 5.27467E-13
 -1       455 1.16041E+01-5.39925E+00-3.38092E-02-7.56832E+00-1.73861E-13 5.75581E-13
 -1       456 4.25760E+00-5.24122E+00-9.67918E-02-5.39218E+00-7.73270E-14 6.59472E-13
 -1       457 1.46700E+00-3.83400E+00 4.40082E-03-1.50009E+00 7.22894E-14 8.20233E-13
 -1       458 2.85127E+00-4.40802E+00-1.87423E-02 3.11033E+00 4.88845E-14 8.73177E-13
 -1       459 9.30293E+00-5.75998E+00-5.27657E-02 6.30581E+00 5.88141E-14 7.80043E-13
 -1       460 1.73682E+01-6.25426E+00-7.12132E-02 6.64118E+00 1.34365E-13 9.25808E-13
 -1       461 2.60813E+01-5.37221E+00-5.02095E-02 4.54403E+00 1.91513E-13 6.64149E-13
 -1       462 3.36212E+01-1.59983E+00-4.16261E-03 9.90959E-01 4.49689E-13 5.65409E-13
 -1       463 3.67996E+01 3.51744E+00 4.87321E-02-1.21483E+00 5.98591E-13 6.27942E-13
 -1       464 3.93956E+01 7.26209E+00 2.13215E-01-4.29463E-01 6.98025E-13 7.97820E-13
 -1       465 3.86849E+01 7.38869E+00 1.41190E-01 7.26643E-01 5.51170E-13 6.87068E-13
 -1       466 3.65923E+01 3.69090E+00 7.40954E-02 1.59016E+00 5.19668E-13 7.46736E-13
 -1       467 3.47766E+01-6.57059E-01 3.37666E-03-4.41539E-01 3.31218E-13 6.68854E-13
 -1       468 2.76454E+01-4.69780E+00-4.90385E-02-3.89515E+00 2.39253E-14 8.67639E-14
 -1       469 1.91924E+01-6.43441E+00-4.49637E-02-6.20049E+00-8.93452E-14-1.79017E-13
 -1       470 1.01718E+01-6.11062E+00-5.38745E-02-6.27680E+00-7.67719E-14-7.05339E-14
 -1       471 4.74186E+00-3.75613E+00 1.08207E-01-4.03408E+00-2.24251E-13 1.88766E-13
 -1       472 3.64043E+00-4.46050E+00-7.20459E-03 4.84184E+00-6.07431E-14-3.78100E-13
 -1       473 1.74846E+01 4.08326E+00-2.35958E-03-6.50972E-01 2.17267E-13 5.10174E-13
 -1       474 1.79058E+01 3.96693E+00-3.54168E-03-4.40678E-01 2.75179E-13 4.67284E-13
 -1       475 1.78930E+01 3.69248E+00-2.84209E-03-7.76784E-01 1.26507E-13 5.79761E-13
 -1       476 1.84783E+01 3.34924E+00-3.77237E-03-5.87158E-01 6.50636E-14 5.50980E-13
 -1       477 1.91264E+01 3.00658E+00-4.73011E-03-2.52934E-01-1.75411E-14 5.42331E-13
 -1       478 1.97738E+01 2.67546E+00-5.83796E-03 1.78866E-01-8.19593E-14 5.39344E-13
 -1       479 2.03792E+01 2.33633E+00-7.00510E-03 6.29255E-01-1.75401E-13 5.10177E-13
 -1       480 2.09571E+01 1.92418E+00-6.69635E-03 1.01060E+00-2.73050E-13 4.25971E-13
 -1       481 2.14807E+01 1.35410E+00-4.98286E-03 1.18272E+00-3.36092E-13 3.36955E-13
 -1       482 2.16789E+01 8.50103E-01 2.07607E-03 1.00657E+00-3.25192E-13 2.55148E-13
 -1       483 2.12682E+01 1.54700E+00 4.06530E-03 7.67851E-01 3.19318E-13 1.77920E-13
 -1       484 1.82739E+01-5.21622E+00 7.22447E-02 7.15223E+00 3.67963E-13-1.83385E-13
 -1       485 2.42383E+01-5.17831E+00 4.98664E-03 5.22445E+00 3.44648E-13 5.19168E-14
 -1       486 2.11814E+01 1.16050E+00 2.78963E-03 1.62820E+00 2.09065E-13 1.87415E-13
 -1       487 2.12165E+01 7.28098E-01 1.55146E-03 2.34003E+00 1.53183E-13 1.99251E-13
 -1       488 2.15492E+01-2.80250E-02 1.95371E-03 2.86580E+00 3.41925E-15 2.07338E-13
 -1       489 2.24873E+01-1.35487E+00 7.94858E-03 3.06026E+00-9.02050E-14 2.18850E-13
 -1       490 2.44720E+01-3.23553E+00 1.61666E-02 2.59757E+00-2.35059E-13 1.68031E-13
 -1       491 2.78623E+01-4.74204E+00 8.48991E-05 9.62412E-01-2.41305E-13 1.34450E-13
 -1       492 3.11585E+01-2.30922E+00-1.10170E-01-2.30866E+00 3.37716E-14 1.02529E-13
 -1       493 3.28442E+01 3.32866E+00-1.55826E-01-2.89311E+00 4.67654E-13 3.74478E-13
 -1       494 3.11869E+01-2.52228E+00-1.11042E-01 2.62601E+00 2.58777E-13 7.17260E-13
 -1       495 2.76002E+01-4.77771E+00-2.57038E-02-7.78987E-01-2.23242E-13 6.36036E-13
 -1       496 2.44033E+01-3.29059E+00 2.89223E-02-2.50946E+00-2.48327E-13 4.25084E-13
 -1       497 2.24239E+01-1.43885E+00 6.52003E-03-3.02833E+00-9.84399E-14 2.39795E-13
 -1       498 2.14533E+01-1.88437E-01 1.22957E-03-2.93300E+00 6.01578E-14 1.65150E-13
 -1       499 2.10284E+01 4.35914E-01 9.28959E-04-2.59371E+00 9.34335E-14 9.14888E-14
 -1       500 2.08402E+01 6.55792E-01 1.22450E-03-2.17925E+00-4.73303E-15 1.22352E-13
 -1       501 2.07320E+01 6.65138E-01 1.50020E-03-1.77149E+00 9.98142E-14 2.00614E-13
 -1       502 2.06412E+01 5.85310E-01 1.47423E-03-1.40644E+00-5.56208E-14 1.99833E-13
 -1       503 2.05506E+01 4.80282E-01 1.27154E-03-1.09691E+00-1.46039E-13 2.52673E-14
 -1       504 2.04602E+01 3.79140E-01 1.01812E-03-8.43538E-01-1.07521E-13 1.26925E-13
 -1       505 2.03743E+01 2.92583E-01 7.82596E-04-6.41054E-01-9.64781E-14 5.94999E-14
 -1       506 2.02968E+01 2.22655E-01 5.87959E-04-4.81947E-01 4.16196E-14 1.73890E-13
 -1       507 2.02298E+01 1.67869E-01 4.36007E-04-3.58479E-01-1.16064E-13 2.06156E-13
 -1       508 2.01739E+01 1.25660E-01 3.20665E-04-2.63617E-01-8.59395E-14 2.22152E-13
 -1       509 2.01286E+01 9.34410E-02 2.34321E-04-1.91373E-01-1.03299E-13-3.23773E-14
 -1       510 2.00928E+01 6.89815E-02 1.70123E-04-1.36827E-01 1.33427E-13 6.06504E-16
 -1       511 2.00652E+01 5.04854E-02 1.22562E-04-9.60241E-02 2.99037E-14 5.45945E-14
 -1       512 2.00444E+01 3.65529E-02 8.74232E-05-6.58176E-02-9.94717E-14 1.07459E-13
 -1       513 2.00290E+01 2.61089E-02 6.15472E-05-4.37274E-02-9.88398E-14 2.02346E-13
 -1       514 2.00178E+01 1.83304E-02 4.25848E-05-2.78068E-02-3.88679E-14 1.81946E-13
 -1       515 2.00100E+01 1.25866E-02 2.87881E-05-1.65347E-02-3.48445E-14-4.09517E-14
 -1       516 2.00047E+01 8.39238E-03 1.88505E-05-8.72858E-03-1.91254E-13-1.81494E-14
 -1       517 2.00012E+01 5.37308E-03 1.17898E-05-3.47437E-03-8.56150E-14 2.15899E-13
 -1       518 1.99990E+01 3.23833E-03 6.86312E-06-7.10125E-05 4.31928E-14 3.92769E-13
 -1       519 1.99978E+01 1.76280E-03 3.50518E-06 2.01411E-03 1.75553E-13 2.84119E-13
 -1       520 1.99972E+01 7.71470E-04 1.28103E-06 3.18053E-03 2.47297E-13 9.45117E-14
 -1       521 1.99971E+01 1.28179E-04-1.46544E-07 3.72300E-03 6.18331E-14 2.44232E-13
 -1       522 1.99973E+01-2.73392E-04-1.03057E-06 3.85385E-03-2.25072E-13 3.53710E-13
 -1       523 1.99976E+01-5.17037E-04-1.52454E-06 3.72063E-03-4.31573E-13 5.28473E-13
 -1       524 1.99979E+01-6.69920E-04-1.79172E-06 3.42011E-03-1.92370E-13 5.29439E-13
 -1       525 1.99983E+01-7.86990E-04-2.10304E-06 3.00935E-03-1.42409E-13 2.31186E-13
 -1       526 1.99988E+01-9.12925E-04-2.83547E-06 2.51629E-03-1.91592E-14 1.34138E-13
 -1       527 1.99992E+01-1.14406E-03-3.05655E-06 2.07899E-03 2.35110E-14 1.43627E-13
 -1       528 2.13230E+01-4.22727E-01-1.01916E-03 6.35563E-01-4.67081E-14 2.96389E-13
 -1       529 2.13411E+01-2.89501E-01-4.61130E-04 4.14199E-01-1.11734E-13 2.93445E-13
 -1       530 2.13563E+01-2.28941E-02-3.59146E-04 3.54958E-01-1.95175E-13 3.03036E-13
 -1       531 2.12502E+01-3.91677E-01-6.23691E-04 9.21386E-01-5.81110E-14 2.64746E-13
 -1       532 2.10816E+01-1.70005E-01 4.66898E-04 1.14497E+00-9.66325E-14 2.88204E-13
 -1       533 2.08186E+01 2.14913E-01 1.29387E-03 1.16510E+00-1.39197E-13 2.67715E-13
 -1       534 2.05283E+01 6.49730E-01 1.80742E-03 8.79086E-01-1.39691E-13 3.13009E-13
 -1       535 2.03312E+01 9.51963E-01 2.26878E-03 3.00965E-01-1.04700E-13 4.22755E-13
 -1       536 2.03262E+01 9.74853E-01 2.04161E-03-4.08707E-01-2.15716E-14 5.61433E-13
 -1       537 2.05199E+01 7.05595E-01 1.65836E-03-1.01588E+00-7.81110E-14 6.27388E-13
 -1       538 2.08190E+01 2.72862E-01 1.19294E-03-1.34104E+00-6.64024E-14 5.31281E-13
 -1       539 2.10971E+01-1.45386E-01 3.33895E-04-1.34178E+00 6.55480E-14 4.38181E-13
 -1       540 2.12679E+01-4.24982E-01-6.18213E-04-1.09752E+00 3.52678E-14 3.93394E-13
 -1       541 2.13107E+01-5.34020E-01-1.14810E-03-7.35900E-01 1.05126E-13 2.62396E-13
 -1       542 2.12502E+01-5.08069E-01-1.37298E-03-3.67484E-01-2.83106E-14 3.83988E-13
 -1       543 2.11266E+01-4.05886E-01-1.24286E-03-5.95452E-02-1.33704E-13 3.42678E-13
 -1       544 2.09751E+01-2.79237E-01-9.56424E-04 1.61775E-01-5.02315E-14 3.15406E-13
 -1       545 2.08198E+01-1.61331E-01-6.27666E-04 2.97603E-01-8.25301E-14 3.69675E-13
 -1       546 2.06743E+01-6.78233E-02-3.36465E-04 3.62761E-01 4.94042E-14 3.87951E-13
 -1       547 2.05446E+01-2.26539E-03-1.14147E-04 3.76274E-01 1.08470E-15 4.84367E-13
 -1       548 2.04328E+01 3.83193E-02 3.64544E-05 3.56083E-01 6.80665E-14 3.39046E-13
 -1       549 2.03386E+01 5.94565E-02 1.25099E-04 3.16771E-01 4.30598E-14 2.56859E-13
 -1       550 2.02607E+01 6.69187E-02 1.66929E-04 2.69042E-01 1.25084E-13 3.00927E-13
 -1       551 2.01973E+01 6.56491E-02 1.76823E-04 2.20091E-01 7.52985E-14 3.17040E-13
 -1       552 2.01466E+01 5.94256E-02 1.67154E-04 1.74299E-01-8.77160E-15 4.69386E-13
 -1       553 2.01066E+01 5.09018E-02 1.47130E-04 1.33978E-01-1.80640E-13 5.40941E-13
 -1       554 2.00756E+01 4.18028E-02 1.23032E-04 1.00025E-01-1.33283E-13 5.15618E-13
 -1       555 2.00520E+01 3.31549E-02 9.87849E-05 7.24404E-02-6.82799E-14 5.08211E-13
 -1       556 2.00343E+01 2.54944E-02 7.65980E-05 5.07086E-02 1.23765E-14 3.36810E-13
 -1       557 2.00214E+01 1.90353E-02 5.75084E-05 3.40632E-02 1.84594E-13 2.96832E-13
 -1       558 2.00123E+01 1.37935E-02 4.18112E-05 2.16576E-02 2.20002E-13 3.15410E-13
 -1       559 2.00059E+01 9.67413E-03 2.93680E-05 1.26694E-02 2.89557E-13 2.66305E-13
 -1       560 2.00017E+01 6.52948E-03 1.98155E-05 6.35650E-03 3.07081E-13 7.82274E-14
 -1       561 1.99990E+01 4.19525E-03 1.27005E-05 2.08232E-03 2.38696E-13-1.18332E-13
 -1       562 1.99975E+01 2.51172E-03 7.55976E-06-6.78502E-04 2.42857E-13-1.54009E-13
 -1       563 1.99968E+01 1.33475E-03 3.96363E-06-2.34592E-03 1.28304E-13 1.97051E-14
 -1       564 1.99965E+01 5.40126E-04 1.53471E-06-3.24579E-03 7.77472E-14 1.67613E-14
 -1       565 1.99967E+01 2.39884E-05-4.99180E-08-3.62337E-03 3.33363E-13-2.55910E-13
 -1       566 1.99970E+01-2.99141E-04-1.05852E-06-3.65658E-03 4.27043E-13-4.70616E-13
 -1       567 1.99974E+01-4.99303E-04-1.70258E-06-3.46818E-03 3.77276E-13-3.91327E-13
 -1       568 1.99979E+01-6.34247E-04-2.21832E-06-3.13676E-03-1.60821E-13-1.68278E-13
 -1       569 1.99984E+01-7.51692E-04-2.84298E-06-2.70599E-03-9.70130E-14 2.64610E-13
 -1       570 1.99989E+01-8.85160E-04-2.66380E-06-2.19500E-03 4.66402E-14 3.14226E-16
 -1       571 2.00004E+01-2.56629E-03 1.05994E-06-1.88429E-03-2.19288E-13-2.05241E-13
 -1       572 2.00000E+01-2.09152E-03 4.47257E-07-2.17359E-03-1.94063E-13-8.30959E-14
 -1       573 1.99995E+01-1.53023E-03-1.35352E-06-2.20360E-03-2.03449E-13 9.56555E-14
 -1       574 1.04335E+01-2.74841E+00 1.70993E-01 6.56759E+00 1.22145E-13-3.82798E-13
 -1       575 2.00007E+01-2.94117E-03 1.81485E-06-1.38074E-03-3.44215E-13 1.88843E-14
 -1       576 2.00009E+01-3.17888E-03 2.30753E-06-7.30021E-04-3.47514E-13 1.78872E-13
 -1       577 2.00009E+01-3.26285E-03 2.43491E-06-4.21582E-06-4.03421E-13 6.44043E-13
 -1       578 2.00009E+01-3.18646E-03 2.27877E-06 7.23557E-04-3.58631E-13 1.67140E-13
 -1       579 2.00007E+01-2.95961E-03 1.83784E-06 1.36904E-03-1.03381E-13-2.52474E-14
 -1       580 2.00004E+01-2.58920E-03 1.15260E-06 1.88238E-03 1.72536E-13-3.11595E-13
 -1       581 2.00000E+01-2.10353E-03 7.29682E-07 2.18127E-03-6.16778E-14 2.26005E-13
 -1       582 1.99996E+01-1.63804E-03-7.46290E-07 2.23163E-03-3.07286E-14-2.76908E-14
 -1       583 2.10489E+01 2.26739E+00-2.57547E-03-1.34833E-01 3.82225E-13 2.04361E-13
 -1       584 2.89454E+01-2.78064E+00-6.07534E-02 1.64370E+00 5.03122E-14 3.95309E-13
 -1       585 6.38451E+00-4.24848E-01 2.06934E-01-1.23161E+00-2.34568E-13 2.75918E-13
 -1       586 1.20712E+01-3.25440E+00 1.60580E-01-5.81231E+00-2.86840E-13 1.81105E-15
 -1       587 3.23734E+01 4.46977E+00-1.56298E-01 2.85560E+00 4.86236E-13 4.36394E-13
 -1       588 1.75138E+01 3.96615E+00-2.26748E-03-7.88874E-01 1.77356E-13 5.61492E-13
 -1       589 3.08365E+01 1.95128E+00-1.17691E-01-1.09558E+00-2.66405E-13 4.02123E-13
 -1       590 3.08252E+01 5.77902E+00-1.65712E-01 1.49723E+00-6.73711E-13 1.53128E-13
 -1       591 3.06078E+01 6.13841E+00-1.73163E-01-1.43234E+00-4.84585E-13 4.24279E-13
 -1       592 2.57529E+01-6.10618E+00 1.28552E-02-3.54075E+00-1.88190E-13 2.59057E-13
 -1       593 2.97925E+01 7.64888E+00-2.05283E-01-1.75736E-01-5.53613E-13 3.00307E-13
 -1       594 3.10415E+01 1.59497E+00-1.20791E-01 8.50684E-01-5.78960E-13-1.00961E-14
 -1       595 2.95941E+01-2.16178E+00-4.89614E-02-1.34576E+00-3.63601E-13-3.30985E-14
 -1       596 2.47671E+01-5.06856E+00 5.13287E-03-4.96497E+00-4.64837E-14 1.73909E-13
 -1       597 1.85776E+01-5.07598E+00 8.87308E-02-7.17068E+00 1.25129E-13 3.62297E-13
 -1       598 1.03044E+01-3.51920E+00 1.26574E-01-7.00993E+00 1.81757E-13 5.63868E-13
 -1       599 5.58745E+00-1.72697E+00 1.63023E-01-4.13043E+00 2.26090E-13 6.85577E-13
 -1       600 5.20861E+00-7.81203E-01 1.97358E-01 1.07762E+00 9.98958E-14 7.95822E-13
 -1       601 8.99386E+00-2.78978E+00 1.52407E-01 5.32563E+00-5.67255E-14 7.19841E-13
 -1       602 1.64885E+01-5.22812E+00 9.93043E-02 6.56967E+00-1.70114E-13 7.11299E-13
 -1       603 2.31427E+01-6.10695E+00 5.59886E-03 5.03236E+00-2.16584E-13 4.82697E-13
 -1       604 2.96665E+01-4.70999E+00-1.67836E-02 1.70785E+00 1.09426E-14 3.51025E-13
 -1       605 3.26127E+01 6.29605E+00-1.58354E-01-2.95491E-01 7.10737E-13 3.52656E-13
 -1       606 3.06797E+01-3.83851E+00-5.23175E-02 2.46489E-01 1.18641E-13 5.87926E-13
 -1       607 1.82423E+01-5.20958E+00 9.21702E-02-6.03535E+00-2.77695E-13-1.34816E-13
 -1       608 5.84040E+00-1.18022E+00 1.86697E-01 3.28166E+00-1.49082E-14-1.28147E-13
 -1       609 1.87861E+01 3.58642E+00-5.57921E-03-2.60195E-01 3.25102E-13 3.86173E-13
 -1       610 2.14633E+01 4.53640E-01 4.08993E-03 5.98149E-01-2.76563E-13 2.69954E-13
 -1       611 1.55083E+01-3.60616E+00 9.09294E-02 6.79001E+00 2.42695E-13-1.86705E-13
 -1       612 1.06710E+01-5.74015E-01 1.35531E-01-3.73666E+00-1.16806E-13 8.08312E-14
 -1       613 2.13684E+01 2.11342E-01 2.20637E-03 4.23796E-01-2.24801E-13 3.00922E-13
 -1       614 2.78779E+01 6.32245E+00-1.49868E-01 1.14171E+00-5.51344E-13 1.93753E-13
 -1       615 1.91126E+01 2.33575E+00-1.48372E-03-7.81959E-01 3.90185E-14 4.71582E-13
 -1       616 1.83213E+01 2.78793E+00-1.10075E-03-1.06004E+00 1.09836E-13 5.14687E-13
 -1       617 2.04745E+01 1.58697E+00-1.57585E-03 1.04631E-01-1.26893E-13 4.43350E-13
 -1       618 2.09744E+01 1.24477E+00-2.15970E-03 4.95008E-01-1.90114E-13 3.81208E-13
 -1       619 2.14314E+01 7.52705E-01 2.63785E-03 7.31869E-01-2.69493E-13 3.25647E-13
 -1       620 2.84894E+01-1.10661E+00-7.91426E-02-8.84104E-01-1.92259E-14 4.66585E-13
 -1       621 2.23272E+01-5.12506E+00 4.19975E-02 5.34634E+00 3.93074E-13 7.60819E-14
 -1       622 1.97432E+01 2.08582E+00 1.28077E-03 1.03701E+00 2.88622E-13 2.36238E-13
 -1       623 1.93712E+01 1.63487E+00 1.21948E-03 1.84972E+00 1.90605E-13 3.00529E-13
 -1       624 1.90043E+01 1.01019E+00 3.35701E-03 2.66439E+00 9.49644E-14 3.13911E-13
 -1       625 1.88899E+01-1.11680E-01 1.71877E-02 3.53589E+00-9.79945E-15 3.42164E-13
 -1       626 1.95271E+01-2.08694E+00 4.15487E-02 4.43767E+00-1.83036E-13 3.63524E-13
 -1       627 1.04395E+01-6.07418E-01 1.37220E-01 4.44855E+00 6.59889E-15-1.84595E-13
 -1       628 8.79738E+00 5.80546E-01 1.37465E-01 1.25899E+00-2.32717E-13 1.98813E-13
 -1       629 1.94040E+01-2.22376E+00 6.36935E-02-4.37402E+00-3.22551E-13 2.59280E-13
 -1       630 1.87571E+01-3.39397E-01 1.39461E-02-3.57068E+00-1.56653E-13 2.06824E-13
 -1       631 1.88121E+01 6.07402E-01 4.89503E-03-2.88108E+00-5.56521E-15 3.03999E-14
 -1       632 1.91116E+01 9.75027E-01 1.32864E-03-2.33266E+00 5.45251E-14-9.11578E-14
 -1       633 1.94270E+01 1.02748E+00 6.63942E-04-1.89200E+00 5.51343E-14-4.72558E-15
 -1       634 1.96811E+01 9.33674E-01 5.59936E-04-1.52649E+00 1.04212E-13-5.47022E-14
 -1       635 1.98591E+01 7.88088E-01 4.88328E-04-1.21998E+00-1.05377E-13 6.71984E-15
 -1       636 1.99712E+01 6.37790E-01 3.93311E-04-9.64118E-01-1.30658E-13-1.15103E-13
 -1       637 2.00344E+01 5.03073E-01 3.01939E-04-7.53041E-01 2.44658E-14-1.96999E-13
 -1       638 2.00644E+01 3.90321E-01 2.25696E-04-5.81289E-01 3.99567E-14-2.75097E-14
 -1       639 2.00739E+01 2.99425E-01 1.66644E-04-4.43396E-01 2.23242E-14 1.15933E-13
 -1       640 2.00717E+01 2.27714E-01 1.22250E-04-3.34059E-01-8.46868E-14 1.64461E-13
 -1       641 2.00637E+01 1.71863E-01 8.92390E-05-2.48367E-01-2.46059E-13-3.17154E-14
 -1       642 2.00534E+01 1.28715E-01 6.47784E-05-1.81956E-01-1.31122E-13-1.82408E-14
 -1       643 2.00429E+01 9.55756E-02 4.66807E-05-1.31064E-01 8.62736E-14-1.40779E-13
 -1       644 2.00334E+01 7.02551E-02 3.33132E-05-9.25228E-02 4.96630E-14-4.95650E-14
 -1       645 2.00252E+01 5.10161E-02 2.34685E-05-6.37052E-02-5.76188E-14-5.98437E-14
 -1       646 2.00184E+01 3.64952E-02 1.62527E-05-4.24627E-02-7.37761E-14 1.56677E-13
 -1       647 2.00131E+01 2.56257E-02 1.10015E-05-2.70574E-02-2.09381E-13 1.96530E-13
 -1       648 2.00091E+01 1.75726E-02 7.21805E-06-1.60976E-02-1.65508E-14 1.85561E-13
 -1       649 2.00060E+01 1.16815E-02 4.52871E-06-8.47954E-03 1.12745E-14 2.18127E-13
 -1       650 2.00037E+01 7.43867E-03 2.65102E-06-3.33744E-03 1.32744E-13 1.10599E-13
 -1       651 2.00022E+01 4.44101E-03 1.37053E-06 4.55431E-07 8.56094E-14 4.07781E-13
 -1       652 2.00011E+01 2.37223E-03 5.22185E-07 2.04849E-03 3.22385E-14 6.06762E-14
 -1       653 2.00003E+01 9.84561E-04-3.34688E-08 3.19451E-03 2.91494E-13-1.00951E-13
 -1       654 1.99999E+01 8.39140E-05-4.15064E-07 3.72540E-03-3.77727E-14 1.62101E-14
 -1       655 1.99996E+01-4.82273E-04-6.33185E-07 3.84801E-03-1.79802E-13 1.06358E-13
 -1       656 1.99995E+01-8.34283E-04-5.32212E-07 3.70565E-03-3.19352E-13 2.00860E-13
 -1       657 1.99994E+01-1.06767E-03-5.08012E-07 3.39282E-03-2.78613E-13 3.45945E-13
 -1       658 1.99994E+01-1.26098E-03-7.10176E-07 2.96228E-03-2.08856E-13 1.97212E-13
 -1       659 1.99995E+01-1.43680E-03-9.99053E-07 2.61603E-03 7.90926E-14 1.80808E-13
 -1       660 2.17615E+01-5.79137E-01-6.45508E-04 4.33128E-01-6.63547E-14 2.56830E-13
 -1       661 2.19417E+01-7.16063E-01-1.23759E-03 7.51053E-01-3.25714E-14 2.46327E-13
 -1       662 2.15579E+01-2.21555E-01-5.06001E-05 2.84034E-01-1.29266E-13 2.77183E-13
 -1       663 2.19308E+01-5.96342E-02 4.67967E-04 1.38337E+00-1.40069E-13 2.73832E-13
 -1       664 2.16666E+01 6.89025E-01-3.59257E-04 1.32185E+00-1.57662E-13 3.15090E-13
 -1       665 2.13699E+01 1.39512E+00 1.17613E-03 8.13474E-01-1.64020E-13 2.45370E-13
 -1       666 2.12195E+01 1.71475E+00 4.47582E-05-3.78659E-02-1.83141E-13 3.21759E-13
 -1       667 2.13221E+01 1.46754E+00-7.14625E-04-9.14511E-01-1.29432E-13 3.79551E-13
 -1       668 2.15960E+01 7.88973E-01-1.42261E-04-1.47721E+00-6.36611E-14 5.11646E-13
 -1       669 2.18519E+01 8.90194E-03 2.08800E-04-1.58175E+00 6.92661E-14 4.89900E-13
 -1       670 2.19426E+01-5.80429E-01-2.38276E-04-1.31463E+00 1.21177E-13 4.02929E-13
 -1       671 2.18415E+01-8.64304E-01-1.95889E-04-8.65700E-01 1.05805E-13 4.92737E-13
 -1       672 2.16059E+01-8.83564E-01-5.56217E-04-4.02971E-01 4.62494E-14 5.35491E-13
 -1       673 2.13155E+01-7.40275E-01-5.39239E-04-2.23293E-02-4.95567E-14 4.21290E-13
 -1       674 2.10310E+01-5.32872E-01-4.41300E-04 2.44611E-01-1.00423E-14 3.45570E-13
 -1       675 2.07846E+01-3.27326E-01-2.91886E-04 4.03640E-01-7.30114E-14 2.43033E-13
 -1       676 2.05868E+01-1.57332E-01-1.62970E-04 4.76459E-01-5.00622E-14 2.49412E-13
 -1       677 2.04351E+01-3.33754E-02-6.91131E-05 4.87879E-01 2.16151E-14 2.07027E-13
 -1       678 2.03218E+01 4.71191E-02-4.80028E-06 4.59894E-01 5.76037E-14 3.15330E-13
 -1       679 2.02383E+01 9.24020E-02 3.37452E-05 4.09753E-01 5.94317E-14 3.08428E-13
 -1       680 2.01769E+01 1.11988E-01 5.33271E-05 3.49902E-01 5.72967E-14 2.80098E-13
 -1       681 2.01316E+01 1.14456E-01 5.98797E-05 2.88672E-01 5.97063E-14 4.15879E-13
 -1       682 2.00980E+01 1.06626E-01 5.83184E-05 2.31178E-01 3.86186E-14 2.80563E-13
 -1       683 2.00728E+01 9.34642E-02 5.22971E-05 1.80179E-01-1.09975E-13 2.27633E-13
 -1       684 2.00537E+01 7.83287E-02 4.43175E-05 1.36810E-01-1.63881E-13 2.33115E-13
 -1       685 2.00393E+01 6.33184E-02 3.59623E-05 1.01157E-01-7.83538E-14 1.75657E-13
 -1       686 2.00284E+01 4.96173E-02 2.81433E-05 7.26834E-02 8.29029E-14 8.83912E-14
 -1       687 2.00201E+01 3.77846E-02 2.13137E-05 5.05310E-02 2.10825E-13-5.90226E-14
 -1       688 2.00139E+01 2.79790E-02 1.56334E-05 3.37222E-02 1.07550E-13 4.56998E-15
 -1       689 2.00093E+01 2.01214E-02 1.10877E-05 2.12847E-02 3.22959E-13 3.92209E-14
 -1       690 2.00060E+01 1.40062E-02 7.56813E-06 1.23243E-02 2.85156E-13 8.08125E-15
 -1       691 2.00036E+01 9.37489E-03 4.92503E-06 6.06018E-03 3.51136E-13 1.28991E-13
 -1       692 2.00019E+01 5.96056E-03 2.99942E-06 1.83672E-03 2.43999E-13-5.63573E-14
 -1       693 2.00007E+01 3.51305E-03 1.64007E-06-8.79597E-04-3.66804E-14-1.02959E-13
 -1       694 2.00000E+01 1.81124E-03 7.14816E-07-2.51072E-03 1.25287E-13 1.36526E-14
 -1       695 1.99995E+01 6.66969E-04 1.08697E-07-3.38135E-03 4.13483E-13-1.17815E-13
 -1       696 1.99993E+01-7.60247E-05-2.84478E-07-3.73415E-03 4.31534E-13 4.88282E-14
 -1       697 1.99992E+01-5.45894E-04-5.49164E-07-3.74409E-03 2.66812E-13 2.10957E-13
 -1       698 1.99992E+01-8.47087E-04-5.18650E-07-3.53043E-03 6.19933E-14 3.82323E-13
 -1       699 1.99992E+01-1.06416E-03-6.45602E-07-3.17184E-03-2.74483E-13 1.26447E-13
 -1       700 1.99994E+01-1.28926E-03-1.25497E-06-2.73104E-03-1.04806E-13 7.05469E-14
 -1       701 2.00005E+01-2.01265E-03 1.63788E-07-2.43923E-03 1.02870E-13-3.42804E-13
 -1       702 2.00014E+01-2.60443E-03 8.85354E-07-1.25538E-03-1.81665E-15 2.19604E-13
 -1       703 2.00000E+01-1.66421E-03-5.47181E-07-2.67730E-03-3.78977E-15 1.79956E-13
 -1       704 2.00011E+01-2.36395E-03 3.43847E-07-1.94838E-03-1.43882E-13-2.50773E-13
 -1       705 2.00016E+01-2.73874E-03 9.42400E-07 4.21278E-04-2.90225E-14 4.80886E-13
 -1       706 2.00014E+01-2.62669E-03 5.93703E-07 1.23105E-03-8.94755E-14 1.91746E-14
 -1       707 2.00011E+01-2.39322E-03 7.32399E-07 1.93908E-03-1.96709E-13 9.97856E-14
 -1       708 2.00005E+01-2.04850E-03-4.51713E-07 2.44777E-03-1.05240E-14-1.08417E-13
 -1       709 1.70739E+01-2.96569E+00 1.01130E-01-5.31682E+00-2.19078E-13-1.34767E-13
 -1       710 1.58438E+01-3.17685E+00 9.01746E-02-6.64967E+00 2.59598E-13 4.17600E-13
 -1       711 2.00016E+01-2.73208E-03 9.15490E-07-4.38434E-04 4.08191E-14 3.33026E-13
 -1       712 2.27756E+01-4.89570E+00 4.23166E-02-5.14650E+00 1.74825E-13 1.57971E-13
 -1       713 2.34820E+01-4.83126E+00 4.60900E-02-3.80095E+00-3.11501E-13 3.86673E-13
 -1       714 1.55740E+01-2.51298E+00 1.27160E-01 5.53290E+00-1.56743E-13 5.28803E-13
 -1       715 1.98520E+01 1.93559E+00-1.46159E-03-3.56010E-01-3.17559E-14 4.77208E-13
 -1       716 2.71819E+01 5.94611E+00-1.53669E-01-1.20171E+00-4.37622E-13 3.28267E-13
 -1       717 2.87128E+01-9.52302E-01-8.11991E-02 8.34359E-01-2.92787E-13-7.69385E-14
 -1       718 1.03633E+01-4.01825E-01 1.48651E-01 3.72251E+00-2.61770E-14 6.37650E-13
 -1       719 2.70362E+01-4.05618E+00-2.40751E-02-2.11054E+00-4.55660E-14-3.48992E-14
 -1       720 1.11719E+01-1.24858E+00 1.48692E-01-5.64490E+00 2.72535E-13 5.71161E-13
 -1       721 7.84504E+00 4.92713E-01 1.62427E-01-1.85265E+00 2.28280E-13 6.46282E-13
 -1       722 2.03202E+01-4.36640E+00 7.25487E-02 5.24625E+00-2.57516E-13 4.52393E-13
 -1       723 1.73346E+01 3.59494E+00-1.20597E-03-4.52578E-01 2.22237E-13 4.46448E-13
 -1       724 2.20185E+01-5.52959E-01-8.15262E-04 1.12741E+00-6.24145E-14 2.53666E-13
 -1       725 2.82210E+01 2.70028E+00-1.29452E-01 2.13934E+00-4.56985E-13 1.02661E-14
 -1       726 2.81718E+01 3.26319E+00-1.17401E-01-2.14714E+00-3.26142E-13 4.57502E-13
 -1       727 2.64492E+01-4.42883E+00-2.31714E-02 2.48448E+00 2.70291E-13 2.67213E-13
 -1       728 1.76284E+01 3.22651E+00-4.45645E-04-1.09891E+00 1.69541E-13 5.24430E-13
 -1       729 1.06953E+01 8.10071E-01 9.63601E-02-1.37511E+00-1.21644E-13 1.12636E-13
 -1       730 1.98354E+01 2.53898E+00-3.77647E-03 3.57384E-01 3.18011E-13 2.71284E-13
 -1       731 1.80272E+01 3.32067E+00-2.01713E-03 2.53221E-02 2.64698E-13 3.88728E-13
 -1       732 2.00000E+01-1.76230E-03-4.44413E-07 2.61231E-03-1.02057E-13 1.68551E-13
 -1       733 2.13820E+01 3.09015E-01 1.17094E-03 3.53202E-01-1.96400E-13 3.00628E-13
 -1       734 1.38415E+01-1.53853E+00 7.29495E-02 5.40421E+00 1.90221E-13-2.29362E-13
 -1       735 1.72382E+01 3.53651E+00 2.59270E-05-8.71601E-01 1.96712E-13 5.15264E-13
 -1       736 2.58686E+01 5.81879E+00-1.12085E-01 3.94051E-02-4.46740E-13 2.90168E-13
 -1       737 1.01092E+01 1.13394E+00 1.04129E-01 1.13368E+00 8.28736E-14 5.99652E-13
 -1       738 2.10835E+01 6.26946E-01-7.78936E-04 6.07598E-02-1.24001E-13 3.72431E-13
 -1       739 2.64505E+01 4.69656E-01-5.55191E-02-2.06527E+00-1.31195E-13 4.90248E-13
 -1       740 1.72536E+01 2.05604E+00 1.17511E-03 1.67732E+00 1.72388E-13 3.07935E-13
 -1       741 1.61637E+01 1.38184E+00 1.37837E-02 2.50830E+00 7.10481E-14 3.65815E-13
 -1       742 1.54565E+01 2.03035E-02 5.95247E-02 3.83556E+00-4.68080E-14 4.32571E-13
 -1       743 2.22409E+01 2.44959E+00-5.87459E-03 5.80604E-01-2.35004E-13 2.16764E-13
 -1       744 1.18096E+01 6.41322E-01 6.88266E-02 2.61371E+00-2.23806E-13 2.27388E-14
 -1       745 2.55212E+01 3.86331E+00-9.29901E-02 1.76713E+00-3.87284E-13 1.39116E-13
 -1       746 2.56669E+01 3.70012E+00-7.51670E-02-1.93104E+00-3.04277E-13 3.87495E-13
 -1       747 1.59762E+01 8.99194E-01 1.17313E-02-2.68090E+00-1.58200E-13 2.15862E-13
 -1       748 1.70464E+01 1.31018E+00 2.11919E-03-2.03639E+00-1.02730E-14 1.73830E-13
 -1       749 1.79051E+01 1.37113E+00 3.65034E-05-1.63391E+00 4.09325E-14 3.47559E-14
 -1       750 1.85538E+01 1.26518E+00-1.45575E-04-1.34500E+00 7.09292E-14-1.52752E-13
 -1       751 1.90268E+01 1.09196E+00-2.49143E-05-1.11252E+00-6.68955E-14-7.98743E-14
 -1       752 1.93613E+01 9.04864E-01 2.77384E-05-9.14073E-01-1.42236E-13-1.78641E-13
 -1       753 1.95917E+01 7.30263E-01 4.19880E-05-7.41975E-01-6.56417E-14 3.72359E-14
 -1       754 1.97468E+01 5.78800E-01 3.89981E-05-5.93741E-01 4.10835E-14 7.92948E-14
 -1       755 1.98487E+01 4.52784E-01 3.26448E-05-4.68061E-01 5.68029E-14-4.49732E-14
 -1       756 1.99143E+01 3.50576E-01 2.66323E-05-3.63415E-01-2.19958E-14-1.45702E-13
 -1       757 1.99555E+01 2.69017E-01 2.15242E-05-2.77824E-01-1.79406E-13 7.16394E-14
 -1       758 1.99806E+01 2.04652E-01 1.72161E-05-2.08991E-01-3.04694E-13 2.37137E-13
 -1       759 1.99953E+01 1.54274E-01 1.35758E-05-1.54513E-01-2.08638E-13 5.93928E-14
 -1       760 2.00034E+01 1.15122E-01 1.05225E-05-1.12058E-01 9.46866E-14-7.51557E-14
 -1       761 2.00074E+01 8.49064E-02 7.99983E-06-7.94800E-02 1.50272E-13-1.11417E-13
 -1       762 2.00089E+01 6.17639E-02 5.95448E-06-5.48731E-02 6.62177E-14 1.38912E-13
 -1       763 2.00091E+01 4.41922E-02 4.32923E-06-3.65973E-02 3.63089E-14 2.30402E-13
 -1       764 2.00084E+01 3.09857E-02 3.06416E-06-2.32722E-02 8.42544E-14 4.60750E-13
 -1       765 2.00074E+01 2.11790E-02 2.10004E-06-1.37587E-02-7.78811E-14 5.34067E-13
 -1       766 2.00063E+01 1.40004E-02 1.38139E-06-7.13352E-03-1.08951E-13 5.26674E-13
 -1       767 2.00052E+01 8.83452E-03 8.58399E-07-2.66015E-03 7.24217E-14 1.72011E-13
 -1       768 2.00042E+01 5.19227E-03 4.87479E-07 2.39326E-04 4.37005E-14 8.26352E-14
 -1       769 2.00032E+01 2.68622E-03 2.24753E-07 2.01090E-03-8.42308E-14 2.43959E-13
 -1       770 2.00024E+01 1.01054E-03-2.32276E-08 2.99246E-03 2.21151E-13-6.41623E-14
 -1       771 2.00018E+01-7.57590E-05-2.50376E-07 3.43401E-03-4.44326E-14-1.30556E-13
 -1       772 2.00012E+01-7.61350E-04-1.38467E-08 3.51773E-03-2.18831E-13-1.01927E-14
 -1       773 2.00008E+01-1.20451E-03-5.17409E-07 3.37205E-03-1.48063E-13 3.63902E-14
 -1       774 2.00004E+01-1.51537E-03-3.81157E-07 3.06756E-03-2.29022E-13-3.36742E-15
 -1       775 2.22880E+01-9.78114E-01-4.04599E-04 2.99519E-01-2.74424E-14 1.81421E-13
 -1       776 2.18199E+01-5.44908E-01-2.31683E-04 5.03732E-02-8.61359E-14 2.22639E-13
 -1       777 2.25545E+01 1.52122E+00-6.07375E-03 1.43734E+00-1.52005E-13 2.39167E-13
 -1       778 2.28584E+01 3.01407E-01-6.48138E-03 1.63707E+00-1.59649E-13 1.89760E-13
 -1       779 2.22071E+01 2.53622E+00-7.13394E-03-5.99785E-01-2.22762E-13 2.80765E-13
 -1       780 2.24708E+01 1.68265E+00-5.47160E-03-1.51334E+00-1.58238E-13 3.49414E-13
 -1       781 2.27765E+01 4.06373E-01-4.86354E-03-1.79107E+00-7.73729E-14 4.32466E-13
 -1       782 2.28313E+01-6.52083E-01-2.55569E-03-1.48752E+00 1.18516E-13 5.35430E-13
 -1       783 2.25858E+01-1.22688E+00 1.30061E-04-8.97875E-01 1.07093E-13 4.77303E-13
 -1       784 2.21321E+01-1.33740E+00-4.37080E-04-3.09265E-01 1.62048E-13 4.40512E-13
 -1       785 2.16200E+01-1.15499E+00-1.87322E-04 1.45018E-01 9.40426E-14 3.14912E-13
 -1       786 2.11524E+01-8.51661E-01-2.07540E-04 4.35312E-01 1.58718E-14 2.41156E-13
 -1       787 2.07762E+01-5.39065E-01-8.98249E-05 5.86349E-01-1.48680E-14 2.66912E-13
 -1       788 2.04989E+01-2.75217E-01-2.22846E-05 6.36746E-01-2.70664E-14 1.58899E-13
 -1       789 2.03077E+01-7.90744E-02 6.16715E-07 6.22166E-01-8.03929E-14 1.00457E-13
 -1       790 2.01829E+01 5.15320E-02 1.39922E-05 5.69835E-01-2.01121E-14 1.87858E-13
 -1       791 2.01054E+01 1.28054E-01 1.84102E-05 4.98847E-01 9.94806E-14 1.89110E-13
 -1       792 2.00597E+01 1.64310E-01 1.90530E-05 4.21817E-01 5.19207E-14 2.15453E-13
 -1       793 2.00342E+01 1.73067E-01 1.75376E-05 3.46613E-01 5.38375E-14 1.60934E-13
 -1       794 2.00207E+01 1.64690E-01 1.50214E-05 2.77756E-01 9.48507E-14 1.80605E-13
 -1       795 2.00142E+01 1.46902E-01 1.22308E-05 2.17478E-01 6.52699E-15 2.58287E-13
 -1       796 2.00112E+01 1.25061E-01 9.57435E-06 1.66499E-01-1.10666E-13 1.72997E-13
 -1       797 2.00098E+01 1.02624E-01 7.24797E-06 1.24596E-01-8.47285E-14 1.51315E-13
 -1       798 2.00092E+01 8.16375E-02 5.31866E-06 9.10009E-02-9.90985E-15 7.81334E-14
 -1       799 2.00086E+01 6.31547E-02 3.78144E-06 6.46749E-02 1.42450E-13-7.14802E-14
 -1       800 2.00080E+01 4.75729E-02 2.59580E-06 4.44933E-02 1.37245E-13-2.11318E-13
 -1       801 2.00072E+01 3.48839E-02 1.70739E-06 2.93594E-02 1.97223E-13-3.48531E-13
 -1       802 2.00063E+01 2.48505E-02 1.06018E-06 1.82704E-02 3.17068E-13-5.36021E-13
 -1       803 2.00054E+01 1.71262E-02 6.02532E-07 1.03494E-02 3.01400E-13-5.80111E-13
 -1       804 2.00045E+01 1.13302E-02 2.89795E-07 4.85628E-03 2.66872E-13-4.12229E-13
 -1       805 2.00037E+01 7.09274E-03 8.42640E-08 1.18349E-03 1.21779E-13-1.37779E-13
 -1       806 2.00029E+01 4.07889E-03-4.75635E-08-1.15490E-03-3.51261E-14-9.60313E-14
 -1       807 2.00022E+01 1.99857E-03-1.21317E-07-2.53830E-03 3.10808E-13-1.92542E-13
 -1       808 2.00016E+01 6.08189E-04-1.59886E-07-3.25563E-03 1.05336E-13-5.06537E-14
 -1       809 2.00011E+01-2.92842E-04-2.06850E-07-3.52099E-03 1.93205E-13 2.71229E-14
 -1       810 2.00007E+01-8.67471E-04-4.18591E-07-3.48768E-03 4.90833E-14 2.38155E-13
 -1       811 2.00004E+01-1.25040E-03-1.27188E-06-3.25974E-03-1.02552E-13 5.79197E-13
 -1       812 2.00002E+01-1.46449E-03-8.07976E-07-3.00180E-03-1.05112E-13 4.04844E-13
 -1       813 2.00020E+01-2.13001E-03 1.31801E-07 1.77908E-03 1.50147E-13 1.81296E-14
 -1       814 2.00013E+01-1.90032E-03-4.79159E-07 2.50082E-03-2.63069E-14 5.52718E-14
 -1       815 2.00023E+01-2.25193E-03 5.41738E-07 9.28652E-04 2.33650E-13 3.90786E-14
 -1       816 1.85329E+01 2.88850E+00-1.11650E-03 4.33973E-01 2.69195E-13 3.47947E-13
 -1       817 2.68630E+01 2.54019E-01-5.64328E-02 1.78521E+00-2.66676E-13-7.88536E-14
 -1       818 1.39423E+01-3.70312E-01 7.13418E-02-3.92313E+00-7.99985E-14 6.28074E-14
 -1       819 2.01407E+01-3.46878E+00 3.79467E-02-5.24551E+00 2.19935E-13 2.15684E-13
 -1       820 1.80057E+01 2.48052E+00-1.47808E-04 1.03028E+00 2.42529E-13 3.27873E-13
 -1       821 2.65886E+01-3.00769E+00-3.20442E-02 1.73878E-01 1.51195E-13 4.25120E-13
 -1       822 2.48891E+01-4.16108E+00 7.35413E-03-2.73231E+00 9.63257E-14 5.71418E-15
 -1       823 2.00023E+01-2.23136E-03 4.74613E-07-9.56958E-04 2.69281E-13 1.80088E-13
 -1       824 1.16211E+01 7.19767E-01 9.03445E-02-3.42336E+00 2.57303E-13 5.89560E-13
 -1       825 1.48325E+01-1.30766E+00 7.02055E-02-5.45344E+00 2.69167E-13 4.97210E-13
 -1       826 2.00024E+01-2.28452E-03 6.42683E-07-1.65879E-05 2.87114E-13 6.39535E-13
 -1       827 1.89845E+01 1.70527E+00-6.01229E-04-1.38485E+00 9.87711E-14 4.22093E-13
 -1       828 2.68789E+01-2.67953E+00-3.30549E-02-1.73603E-02-7.05187E-14-4.44089E-14
 -1       829 1.96862E+01-3.80598E+00 4.94228E-02 5.42578E+00 1.88698E-13 4.32744E-14
 -1       830 2.41548E+01-4.36649E+00 7.51596E-03 2.97916E+00 2.65474E-13 2.07887E-13
 -1       831 2.29783E+01-6.54042E-01 4.59694E-03 1.32227E+00-1.01343E-13 2.17406E-13
 -1       832 1.38329E+01-3.61782E-02 4.13041E-02 3.68746E+00-1.64021E-13 1.35209E-13
 -1       833 1.20289E+01 1.30385E+00 5.10791E-02 4.67781E-01-1.85402E-13 1.20917E-13
 -1       834 2.50591E+01 1.80360E+00-2.02792E-02 2.04754E+00-2.63770E-13 6.38456E-14
 -1       835 2.27209E+01-1.06922E+00-1.68016E-03 7.71627E-01-6.33883E-14 1.94355E-13
 -1       836 1.70502E+01 3.10131E+00 7.11281E-04 1.62209E-02 2.20756E-13 3.83328E-13
 -1       837 1.79647E+01 2.28123E+00-6.03376E-05-1.56525E+00 1.58106E-13 4.72673E-13
 -1       838 1.99101E+01 1.22858E+00-2.40588E-04-9.43618E-01 2.35977E-14 4.11927E-13
 -1       839 1.35244E+01 1.39456E+00 6.70249E-02 2.28229E+00 6.56012E-14 4.66044E-13
 -1       840 2.00019E+01-2.09379E-03-3.64408E-08-1.81148E-03 3.29351E-13 1.24164E-13
 -1       841 2.13963E+01 9.77228E-02 2.18926E-04 4.26553E-02-9.87267E-14 2.96064E-13
 -1       842 1.16871E+01 1.77567E+00 4.44678E-02-9.68022E-01 2.18206E-13 4.89921E-13
 -1       843 2.06104E+01 8.83932E-01 1.51612E-04-4.11657E-01-5.35661E-14 3.91275E-13
 -1       844 2.46017E+01 4.44729E+00-6.79518E-02-1.02067E+00-3.95024E-13 3.90519E-13
 -1       845 1.67086E+01 3.15991E+00 1.50425E-03-7.87252E-01 1.72358E-13 4.61440E-13
 -1       846 2.00013E+01-1.86403E-03 9.66244E-07-2.51003E-03 1.79703E-13-3.11096E-13
 -1       847 2.34209E+01 2.98935E+00-2.98045E-02-1.38338E+00-2.95596E-13 4.31944E-13
 -1       848 2.00020E+01-1.49809E-03 1.12440E-06 2.73341E-03 2.84984E-14-1.29298E-13
 -1       849 1.49705E+01 1.55560E+00 1.18504E-02-1.06719E+00-5.20532E-14 2.62579E-14
 -1       850 1.31481E+01 1.37584E+00 4.10787E-02-1.17281E+00-1.02739E-13 1.96362E-14
 -1       851 2.54019E+01-1.57705E+00-1.75086E-02-1.16785E+00 3.76019E-14 3.65846E-13
 -1       852 1.64316E+01 1.59216E+00 3.00314E-04-9.01377E-01-7.70787E-14-4.59694E-14
 -1       853 1.74673E+01 1.48610E+00-7.13547E-04-8.13892E-01 1.00630E-14-6.39977E-14
 -1       854 1.82105E+01 1.31200E+00-4.26781E-04-7.42710E-01 8.72859E-14-1.01289E-13
 -1       855 1.87449E+01 1.11579E+00-2.17414E-04-6.66709E-01-1.17803E-13-6.71773E-14
 -1       856 1.91276E+01 9.24201E-01-1.01686E-04-5.83589E-01 4.54171E-14 1.05474E-13
 -1       857 1.93999E+01 7.50757E-01-5.28156E-05-4.97367E-01-7.21640E-15 2.08060E-13
 -1       858 1.95921E+01 6.00766E-01-3.10050E-05-4.13248E-01-1.10319E-13 2.69905E-14
 -1       859 1.97267E+01 4.74866E-01-1.94573E-05-3.35374E-01-1.02205E-13-8.08630E-14
 -1       860 1.98201E+01 3.71323E-01-1.23223E-05-2.66285E-01 1.44235E-13-4.93958E-14
 -1       861 1.98845E+01 2.87418E-01-7.55898E-06-2.07073E-01-4.90569E-14 3.91305E-15
 -1       862 1.99283E+01 2.20205E-01-4.31356E-06-1.57767E-01-2.27397E-13 1.56818E-14
 -1       863 1.99578E+01 1.66891E-01-2.11641E-06-1.17715E-01-6.78850E-14-1.08651E-13
 -1       864 1.99773E+01 1.24988E-01-6.59484E-07-8.58900E-02 5.64883E-14-1.63342E-13
 -1       865 1.99899E+01 9.23571E-02 2.73003E-07-6.11177E-02 2.15360E-13-1.10112E-13
 -1       866 1.99978E+01 6.71963E-02 8.35424E-07-4.22147E-02 1.34303E-13 1.10372E-13
 -1       867 2.00025E+01 4.80048E-02 1.13940E-06-2.80775E-02 6.64961E-14 4.36766E-14
 -1       868 2.00050E+01 3.35437E-02 1.26628E-06-1.77263E-02 1.84272E-13-2.18997E-14
 -1       869 2.00061E+01 2.27971E-02 1.27560E-06-1.03223E-02-2.58476E-13 1.32627E-13
 -1       870 2.00063E+01 1.49375E-02 1.21091E-06-5.16806E-03 2.60758E-14 2.87083E-13
 -1       871 2.00060E+01 9.29533E-03 1.10326E-06-1.69758E-03 1.54124E-13 2.76560E-13
 -1       872 2.00054E+01 5.33231E-03 9.75135E-07 5.38527E-04 2.49428E-13-1.32805E-13
 -1       873 2.00046E+01 2.61875E-03 8.36602E-07 1.88949E-03-6.48202E-14 1.20547E-13
 -1       874 2.00038E+01 8.13640E-04 5.39327E-07 2.62109E-03-1.30023E-13-3.33832E-13
 -1       875 2.00030E+01-3.44174E-04 4.48804E-07 2.92885E-03 7.37171E-14-2.60401E-13
 -1       876 2.00025E+01-1.00661E-03-1.83375E-06 2.89666E-03-1.64225E-13-1.21422E-13
 -1       877 2.36730E+01 2.84244E+00-2.91878E-02 1.36732E+00-2.01916E-13 2.13906E-13
 -1       878 2.38127E+01 1.21809E+00-1.82393E-02-2.03427E+00-1.92745E-13 4.61251E-13
 -1       879 2.38903E+01-5.09290E-01-3.88986E-03-1.67623E+00 3.15910E-14 5.16712E-13
 -1       880 2.34883E+01-1.60193E+00-2.07928E-03-8.67899E-01 2.20885E-13 3.97880E-13
 -1       881 2.27774E+01-1.83908E+00-6.02893E-04-1.05377E-01 1.40679E-13 2.51700E-13
 -1       882 2.19876E+01-1.62169E+00-1.71440E-05 4.45942E-01 1.81348E-13 2.37969E-13
 -1       883 2.12973E+01-1.20744E+00-4.41516E-04 7.42308E-01 9.06681E-14 2.75779E-13
 -1       884 2.07675E+01-7.71977E-01-1.40753E-04 8.55872E-01 2.13386E-14 2.93214E-13
 -1       885 2.03991E+01-4.03917E-01 1.16799E-05 8.52407E-01-4.88209E-14 2.24797E-13
 -1       886 2.01629E+01-1.29345E-01 1.48664E-05 7.85734E-01-2.81199E-14 2.33211E-13
 -1       887 2.00243E+01 5.51165E-02 2.44776E-05 6.90107E-01-7.97904E-14 7.26469E-14
 -1       888 1.99523E+01 1.65299E-01 2.13099E-05 5.86028E-01 4.82881E-14 8.61485E-14
 -1       889 1.99226E+01 2.19888E-01 1.76353E-05 4.84892E-01 4.01732E-14 2.22629E-13
 -1       890 1.99178E+01 2.36061E-01 1.40784E-05 3.92608E-01 6.37003E-14 1.26705E-13
 -1       891 1.99261E+01 2.27823E-01 1.09196E-05 3.11788E-01 5.51120E-15 1.63650E-13
 -1       892 1.99399E+01 2.05714E-01 8.27657E-06 2.43109E-01-3.77748E-14 2.66066E-13
 -1       893 1.99549E+01 1.77155E-01 6.15600E-06 1.86145E-01-4.34038E-14 2.88007E-13
 -1       894 1.99687E+01 1.47038E-01 4.50410E-06 1.39875E-01-1.20547E-13 2.87183E-13
 -1       895 1.99802E+01 1.18344E-01 3.24402E-06 1.03003E-01 4.18090E-14 7.25864E-14
 -1       896 1.99891E+01 9.26893E-02 2.29780E-06 7.41490E-02 2.01808E-13-9.37588E-14
 -1       897 1.99956E+01 7.07671E-02 1.59638E-06 5.19732E-02 2.79253E-13-2.64339E-13
 -1       898 2.00000E+01 5.26835E-02 1.08269E-06 3.52423E-02 2.20681E-13-2.86761E-13
 -1       899 2.00028E+01 3.82004E-02 7.11292E-07 2.28646E-02 2.57861E-13-1.93628E-13
 -1       900 2.00044E+01 2.69017E-02 4.46822E-07 1.39035E-02 1.68842E-13-4.23473E-14
 -1       901 2.00051E+01 1.83028E-02 2.61997E-07 7.57462E-03 2.65384E-13 1.55464E-13
 -1       902 2.00051E+01 1.19170E-02 1.35343E-07 3.23624E-03 4.64636E-14 8.26338E-14
 -1       903 2.00048E+01 7.29416E-03 4.67627E-08 3.73668E-04 1.69740E-14 1.26408E-13
 -1       904 2.00043E+01 4.03779E-03-3.30200E-08-1.41756E-03 1.78803E-13 2.12570E-13
 -1       905 2.00036E+01 1.81117E-03-5.59788E-08-2.44880E-03 1.79066E-13 2.64809E-13
 -1       906 2.00029E+01 3.34847E-04 1.02177E-07-2.95358E-03 1.53172E-13 3.09823E-13
 -1       907 2.00022E+01-6.16629E-04 7.05945E-07-3.10498E-03-6.89287E-14 6.06744E-13
 -1       908 2.00016E+01-1.24234E-03 1.03739E-06-3.02790E-03-1.10662E-13 3.32261E-13
 -1       909 2.00030E+01-1.73023E-03-2.40026E-06 1.45871E-03 2.78380E-13-7.65175E-14
 -1       910 2.26281E+01-3.24395E+00 1.16486E-02-3.22417E+00 1.45328E-13 1.07618E-13
 -1       911 1.73922E+01-2.05799E+00 2.99422E-02 4.85147E+00 1.48232E-13-3.11556E-14
 -1       912 2.51110E+01-3.04606E+00-1.01247E-02-7.95401E-01 2.07178E-14 1.92069E-14
 -1       913 1.71046E+01 2.82310E+00-2.75984E-04-1.35957E+00 1.85181E-13 5.27901E-13
 -1       914 2.17410E+01-3.47988E+00 2.14413E-02 3.62266E+00 2.11400E-13 1.94548E-13
 -1       915 2.10709E+01 2.39894E-01 1.18722E-03-4.45715E-01-3.43206E-14 3.35114E-13
 -1       916 1.81709E+01-1.59512E+00 1.98711E-02-4.63626E+00 2.29994E-13 3.24724E-13
 -1       917 2.37972E+01 3.98400E+00-5.12917E-02 5.67141E-01-2.96618E-13 3.19553E-13
 -1       918 2.21174E+01-1.00335E+00-1.04103E-03-3.85942E-01-1.28308E-14 2.85891E-13
 -1       919 1.49968E+01 1.87207E-01 3.76404E-02-4.06334E+00 2.59168E-13 5.17736E-13
 -1       920 2.15636E+01-4.29389E-01-1.43599E-03-4.88136E-01-2.84896E-14 2.92397E-13
 -1       921 1.50667E+01 2.40536E+00 2.36452E-02 8.88914E-01 1.78997E-13 3.53687E-13
 -1       922 2.56204E+01-1.35426E+00-2.71368E-02 1.18576E+00-1.29046E-13-3.55349E-14
 -1       923 2.46823E+01-3.28547E+00-1.59664E-02 8.90480E-01 2.69585E-13 3.32032E-13
 -1       924 1.74289E+01 2.83881E+00 2.80808E-04 5.26854E-01 2.40413E-13 3.58097E-13
 -1       925 1.39000E+01 1.09627E+00 2.69788E-02 1.78401E+00-1.94913E-13 5.77316E-14
 -1       926 2.33815E+01 3.79493E+00-2.55624E-02 9.68236E-03-2.96419E-13 3.18114E-13
 -1       927 1.86794E+01 1.09244E+00 1.75714E-03-2.07766E+00 1.56210E-13 4.00800E-13
 -1       928 2.00033E+01-1.75812E-03-1.27869E-06 4.69746E-04 5.08053E-13 3.46908E-13
 -1       929 2.00029E+01-1.67930E-03-1.05915E-06-1.49694E-03 3.88278E-13 3.24506E-14
 -1       930 2.00026E+01-1.36690E-03-5.41152E-07-2.33230E-03 2.38297E-13 3.32976E-13
 -1       931 1.99362E+01 5.02197E-01 1.88481E-03-1.61803E+00 1.00564E-13 3.23584E-13
 -1       932 1.64602E+01 2.59068E+00 2.81933E-03 7.26674E-01 1.94922E-13 3.55792E-13
 -1       933 1.61325E+01 2.83036E+00 3.49297E-03 1.74222E-02 1.86910E-13 3.31842E-13
 -1       934 1.37326E+01 1.60293E+00 3.83406E-02-2.42772E+00 2.69372E-13 5.51623E-13
 -1       935 2.28795E+01-1.50243E+00-3.00910E-03-4.31112E-02-1.54497E-14 2.02958E-13
 -1       936 2.00033E+01-1.74042E-03-1.32434E-06-5.35715E-04 5.29641E-13 2.69345E-13
 -1       937 2.30708E+01-3.13694E+00 6.26814E-03 1.86509E+00 1.99952E-13 4.58940E-13
 -1       938 2.38903E+01-1.82560E+00-2.53133E-03 3.54405E-01-2.48718E-14 1.13211E-13
 -1       939 2.05463E+01-1.60607E+00 7.61343E-03-3.19484E+00 1.57957E-13 2.12161E-13
 -1       940 1.40499E+01 1.53998E+00 1.69206E-02 1.04185E-01-1.26633E-13 1.26279E-14
 -1       941 1.58022E+01 2.56372E+00-1.12377E-03-1.28164E+00 1.93273E-13 5.19536E-13
 -1       942 1.57762E+01 1.59026E+00 2.55592E-03-8.81843E-02-1.92271E-13-8.92633E-15
 -1       943 1.72639E+01 1.85214E+00 1.77183E-03-2.10354E+00 2.01888E-13 4.77704E-13
 -1       944 1.69654E+01 1.50573E+00-4.40985E-04-2.37596E-01 5.75878E-15-1.20522E-13
 -1       945 1.78135E+01 1.35620E+00-3.06760E-04-3.33399E-01 2.62200E-14-1.85944E-13
 -1       946 1.84274E+01 1.17784E+00-1.62039E-04-3.77204E-01-1.67375E-14-1.02466E-13
 -1       947 1.88745E+01 9.95653E-01-5.70475E-05-3.80971E-01 9.50496E-14 8.55790E-14
 -1       948 1.92001E+01 8.24273E-01-2.77469E-05-3.57308E-01 9.70468E-14 1.69975E-13
 -1       949 1.94366E+01 6.71045E-01-2.41143E-05-3.17746E-01-1.04410E-13 9.72890E-14
 -1       950 1.96075E+01 5.38659E-01-2.52101E-05-2.71202E-01-1.51307E-13 2.91131E-13
 -1       951 1.97304E+01 4.27032E-01-2.52390E-05-2.23854E-01 1.00594E-13 1.01124E-13
 -1       952 1.98180E+01 3.34613E-01-2.36499E-05-1.79535E-01-4.84699E-15-1.17534E-13
 -1       953 1.98800E+01 2.59201E-01-2.10536E-05-1.40304E-01-3.19369E-13-1.70513E-13
 -1       954 1.99234E+01 1.98428E-01-1.80612E-05-1.06982E-01-1.13242E-13-2.57333E-13
 -1       955 1.99535E+01 1.50004E-01-1.50759E-05-7.95905E-02 9.59930E-14-1.75711E-13
 -1       956 1.99739E+01 1.11844E-01-1.23191E-05-5.76913E-02 3.19820E-13-9.68719E-14
 -1       957 1.99875E+01 8.21099E-02-9.89122E-06-4.06113E-02 2.28015E-13-6.64016E-14
 -1       958 1.99962E+01 5.92143E-02-7.82026E-06-2.75975E-02-1.41799E-13-4.03735E-14
 -1       959 2.00016E+01 4.18097E-02-6.09464E-06-1.79086E-02 1.25781E-13-1.63128E-13
 -1       960 2.00046E+01 2.87658E-02-4.68313E-06-1.08678E-02-3.86875E-14 2.92470E-14
 -1       961 2.00060E+01 1.91447E-02-3.54648E-06-5.88627E-03-2.55330E-14 3.58316E-13
 -1       962 2.00065E+01 1.21760E-02-2.64306E-06-2.47061E-03 8.34501E-14 1.73077E-13
 -1       963 2.00062E+01 7.23339E-03-1.93018E-06-2.19431E-04-5.95527E-14 7.13432E-14
 -1       964 2.00056E+01 3.81187E-03-1.33523E-06 1.18532E-03 1.59423E-13-4.01539E-13
 -1       965 2.00048E+01 1.50746E-03-8.15211E-07 1.98936E-03-2.84503E-13-3.05348E-13
 -1       966 2.00040E+01-4.85823E-06-1.10259E-06 2.37699E-03 1.29361E-13-3.29301E-13
 -1       967 2.35515E+01-2.52730E+00 5.02043E-03 3.92034E-01 3.09216E-13 3.74171E-13
 -1       968 2.23416E+01-2.20434E+00-1.12512E-03 1.02754E+00 1.38273E-13 3.67445E-13
 -1       969 2.13558E+01-1.60975E+00-1.86005E-03 1.28353E+00 6.73986E-14 4.17736E-13
 -1       970 2.06412E+01-1.00522E+00-8.60132E-05 1.30227E+00 3.82766E-14 4.47611E-13
 -1       971 2.01857E+01-5.11389E-01 2.38707E-04 1.18159E+00 1.94183E-14 4.90836E-13
 -1       972 1.99190E+01-1.50575E-01 1.67080E-05 1.01330E+00-3.67859E-14 4.49690E-13
 -1       973 1.97847E+01 8.74990E-02 4.40694E-05 8.39631E-01 2.57193E-15 4.55316E-13
 -1       974 1.97342E+01 2.28353E-01 2.17149E-05 6.80003E-01-3.80008E-14 3.07037E-13
 -1       975 1.97338E+01 2.97641E-01 1.00930E-05 5.41396E-01-6.63913E-14 3.64342E-13
 -1       976 1.97604E+01 3.17802E-01 4.67544E-06 4.25112E-01 1.04216E-13 4.46796E-13
 -1       977 1.97988E+01 3.06746E-01 2.06938E-06 3.29690E-01-2.53791E-14 5.67502E-13
 -1       978 1.98397E+01 2.77828E-01 7.84929E-07 2.52619E-01-2.21789E-14 4.81696E-13
 -1       979 1.98781E+01 2.40450E-01 1.55076E-07 1.91157E-01-4.29148E-14 3.47492E-13
 -1       980 1.99113E+01 2.00858E-01-1.31723E-07 1.42696E-01-1.25676E-13 2.33603E-13
 -1       981 1.99385E+01 1.62905E-01-2.35372E-07 1.04905E-01-1.86971E-15 2.23311E-13
 -1       982 1.99597E+01 1.28729E-01-2.44466E-07 7.57700E-02 1.60272E-13 2.57682E-13
 -1       983 1.99757E+01 9.92935E-02-2.09673E-07 5.35794E-02 2.43812E-13 1.18156E-13
 -1       984 1.99872E+01 7.48026E-02-1.59591E-07 3.69027E-02 2.64243E-13 3.55521E-14
 -1       985 1.99952E+01 5.50036E-02-1.09450E-07 2.45564E-02-2.71726E-14 3.30539E-13
 -1       986 2.00004E+01 3.93992E-02-6.64054E-08 1.55714E-02 1.45498E-13 4.62036E-13
 -1       987 2.00035E+01 2.73882E-02-3.29094E-08 9.16273E-03 1.50620E-13 2.31384E-13
 -1       988 2.00051E+01 1.83548E-02-9.13994E-09 4.70122E-03 5.24012E-14 3.45460E-13
 -1       989 2.00058E+01 1.17197E-02 3.83428E-09 1.68882E-03-2.67065E-14 2.65656E-13
 -1       990 2.00057E+01 6.96723E-03-4.13382E-09-2.63628E-04-1.16648E-13 2.97848E-13
 -1       991 2.00053E+01 3.65510E-03-1.96307E-07-1.45568E-03-8.49791E-14 6.02341E-13
 -1       992 2.00046E+01 1.41188E-03-2.11861E-07-2.11529E-03 3.09090E-13 4.44727E-13
 -1       993 2.00038E+01-5.63070E-05 4.50399E-07-2.40669E-03-1.76812E-14 3.65906E-13
 -1       994 2.00032E+01-8.10874E-04-1.43264E-07-2.41502E-03 3.22340E-14 2.83899E-13
 -1       995 1.64848E+01-6.27947E-01 7.05136E-03 3.67388E+00-1.56367E-13 1.14698E-13
 -1       996 2.31582E+01-2.46135E+00 5.45061E-03-1.55195E+00 7.29529E-14 1.09689E-13
 -1       997 2.00037E+01-1.11538E-03 1.16482E-06 1.59442E-03 3.05282E-13-2.15152E-13
 -1       998 2.07892E+01 2.94761E-01 3.17231E-04-8.25211E-01-4.57533E-17 3.49876E-13
 -1       999 1.74846E+01 2.09601E-02 1.42049E-02-3.56476E+00 2.54589E-13 4.08726E-13
 -1      1000 1.57710E+01 5.57743E-01 5.77943E-03 2.43729E+00-1.59783E-13 7.55790E-14
 -1      1001 1.96136E+01-2.12982E+00 6.73565E-03 3.64776E+00 1.86942E-13 1.82881E-13
 -1      1002 2.00041E+01-1.09263E-03-1.70542E-07 5.83226E-04 5.25703E-13 1.39748E-13
 -1      1003 1.80460E+01 4.99098E-01 9.40681E-03-2.94744E+00 2.17041E-13 3.91034E-13
 -1      1004 1.53448E+01 1.29435E+00 8.46645E-03 1.13151E+00-1.55706E-13 6.44244E-14
 -1      1005 2.13624E+01-2.41223E+00 9.38628E-03 2.50209E+00 1.89493E-13 3.72678E-13
 -1      1006 1.99052E+01-2.93514E-01 1.32024E-03-2.42460E+00 1.39161E-13 3.07090E-13
 -1      1007 2.00036E+01-1.12261E-03-8.86902E-07-1.59908E-03 3.24827E-13 1.72146E-13
 -1      1008 2.15368E+01-8.20532E-01 1.26643E-03-1.18663E+00 2.26077E-14 2.39575E-13
 -1      1009 2.00040E+01-1.12464E-03 3.28711E-06-6.22817E-04 4.99486E-13 5.00199E-13
 -1      1010 2.28109E+01-1.73983E+00 4.05362E-03-7.00809E-01 4.54172E-14 2.01588E-13
 -1      1011 1.47837E+01 2.52452E+00-1.23816E-02-1.76854E-01 2.12968E-13 3.47990E-13
 -1      1012 1.65661E+01 1.35063E+00 9.65751E-04 6.16235E-01-5.84308E-14 6.60730E-14
 -1      1013 1.74584E+01 1.28895E+00-4.05083E-04 2.75817E-01-2.39740E-14 3.18477E-14
 -1      1014 1.81181E+01 1.17432E+00-2.37472E-04 5.93994E-02 1.46057E-13 1.40988E-13
 -1      1015 1.86103E+01 1.03261E+00-9.01150E-05-7.00355E-02 1.41983E-13 1.91343E-13
 -1      1016 1.89800E+01 8.83724E-01-2.51270E-05-1.37477E-01 1.65753E-14 1.30096E-13
 -1      1017 1.92576E+01 7.40065E-01-6.90302E-06-1.63858E-01-6.73804E-14-6.17649E-14
 -1      1018 1.94651E+01 6.08652E-01-2.53795E-06-1.64658E-01-3.00010E-15 8.03248E-14
 -1      1019 1.96194E+01 4.92756E-01-1.37294E-06-1.50963E-01-3.31072E-14 1.97490E-13
 -1      1020 1.97333E+01 3.93255E-01-8.15842E-07-1.30325E-01-8.71849E-14 1.63966E-13
 -1      1021 1.98166E+01 3.09609E-01-4.11649E-07-1.07595E-01-1.92444E-13 5.80629E-14
 -1      1022 1.98771E+01 2.40505E-01-1.18095E-07-8.56579E-02-2.31928E-13 2.79766E-13
 -1      1023 1.99203E+01 1.84280E-01 6.99446E-08-6.60460E-02 1.33995E-13 3.80654E-13
 -1      1024 1.99509E+01 1.39174E-01 1.70402E-07-4.94034E-02 1.57147E-13 3.58388E-13
 -1      1025 1.99720E+01 1.03476E-01 2.07729E-07-3.58290E-02 1.25709E-13 7.74003E-14
 -1      1026 1.99863E+01 7.56036E-02 2.04919E-07-2.51132E-02 8.94123E-14-8.54930E-14
 -1      1027 1.99956E+01 5.41441E-02 1.80057E-07-1.68962E-02 4.61256E-14-9.89905E-15
 -1      1028 2.00013E+01 3.78648E-02 1.45826E-07-1.07668E-02 1.56226E-13 1.46978E-14
 -1      1029 2.00046E+01 2.57119E-02 1.10470E-07-6.32092E-03 1.59524E-14 1.93570E-13
 -1      1030 2.00063E+01 1.67994E-02 7.98243E-08-3.19288E-03 4.25402E-14 1.61148E-13
 -1      1031 2.00068E+01 1.03930E-02 6.17763E-08-1.06910E-03-3.76842E-14 1.37342E-13
 -1      1032 2.00066E+01 5.89224E-03 7.19190E-08 3.08721E-04-1.19203E-13 1.64534E-14
 -1      1033 2.00059E+01 2.81150E-03 3.14019E-07 1.14656E-03-1.74023E-13-2.40631E-13
 -1      1034 2.00051E+01 7.55361E-04-3.14668E-08 1.60017E-03-2.10162E-13-3.02728E-13
 -1      1035 2.00038E+01-5.25928E-04 2.47669E-06 2.17795E-03 1.48874E-13-4.86910E-13
 -1      1036 2.02845E+01-1.18786E+00 2.09724E-03 1.94512E+00-1.31725E-15 4.05217E-13
 -1      1037 1.97746E+01-5.52228E-01-2.13662E-03 1.61229E+00 8.06619E-16 5.23127E-13
 -1      1038 1.95279E+01-1.05366E-01-1.03907E-04 1.28407E+00-5.06255E-14 6.77958E-13
 -1      1039 1.94432E+01 1.71045E-01 1.74635E-04 1.00111E+00-3.85605E-14 7.05717E-13
 -1      1040 1.94457E+01 3.29572E-01 7.11476E-05 7.66884E-01 2.20896E-14 6.80879E-13
 -1      1041 1.94969E+01 4.02679E-01 3.38407E-05 5.80429E-01-5.29910E-14 5.01075E-13
 -1      1042 1.95699E+01 4.18622E-01 1.59444E-05 4.35611E-01-5.44028E-14 3.29842E-13
 -1      1043 1.96484E+01 3.98953E-01 7.17121E-06 3.24698E-01 5.72970E-14 4.48512E-13
 -1      1044 1.97230E+01 3.59297E-01 2.69944E-06 2.40497E-01-6.65248E-14 3.76497E-13
 -1      1045 1.97891E+01 3.10506E-01 3.69242E-07 1.76948E-01 6.67457E-14 4.52082E-13
 -1      1046 1.98446E+01 2.59740E-01-8.01384E-07 1.29190E-01 2.93850E-15 5.17174E-13
 -1      1047 1.98895E+01 2.11406E-01-1.31440E-06 9.34361E-02 1.14339E-13 2.82456E-13
 -1      1048 1.99246E+01 1.67943E-01-1.45405E-06 6.67791E-02-1.18862E-13 1.76490E-13
 -1      1049 1.99511E+01 1.30442E-01-1.39073E-06 4.70063E-02 3.73927E-14 1.88679E-13
 -1      1050 1.99706E+01 9.91185E-02-1.22827E-06 3.24377E-02 2.86077E-13 4.89923E-13
 -1      1051 1.99845E+01 7.36555E-02-1.02892E-06 2.17968E-02 1.46226E-14 6.89249E-13
 -1      1052 1.99939E+01 5.34478E-02-8.28406E-07 1.41118E-02 9.82972E-14 5.18719E-13
 -1      1053 2.00000E+01 3.77645E-02-6.45462E-07 8.64124E-03 2.09048E-13 3.00549E-13
 -1      1054 2.00037E+01 2.58541E-02-4.88154E-07 4.81835E-03 1.30212E-14 5.46708E-13
 -1      1055 2.00056E+01 1.70062E-02-3.58136E-07 2.21040E-03-4.93216E-14 3.40611E-13
 -1      1056 2.00064E+01 1.05843E-02-2.61111E-07 4.87780E-04-1.06312E-13 5.68518E-13
 -1      1057 2.00063E+01 6.03877E-03-2.12756E-07-5.99358E-04-1.04429E-13 5.75210E-13
 -1      1058 2.00058E+01 2.91781E-03 8.59979E-07-1.23252E-03 1.81198E-13 2.69091E-13
 -1      1059 2.00050E+01 8.15789E-04-7.11176E-07-1.55889E-03 1.30721E-13 6.00384E-13
 -1      1060 1.55366E+01 1.88959E+00 7.37632E-03-2.21006E+00 2.17071E-13 5.74511E-13
 -1      1061 1.58111E+01 1.05748E+00 2.85571E-04-3.04064E+00 2.57529E-13 5.04766E-13
 -1      1062 1.84570E+01-8.56716E-01 7.37842E-03 3.01155E+00-1.25380E-13 3.16863E-13
 -1      1063 2.00041E+01-1.12094E-03 2.36642E-06-2.01796E-05 5.67309E-13 6.64741E-13
 -1      1064 2.00049E+01-1.64787E-04 2.71363E-06 1.03604E-03 1.82022E-13-2.32978E-13
 -1      1065 1.66876E+01 8.95078E-01 5.42642E-04 1.55018E+00-1.54698E-13 2.61471E-14
 -1      1066 2.00044E+01-2.50868E-04-8.47580E-07-1.61272E-03-2.02460E-14 5.09472E-13
 -1      1067 2.15935E+01-1.33301E+00 4.18048E-03-1.81654E+00 8.61058E-14 1.73866E-13
 -1      1068 1.83220E+01-1.23242E-01-4.63965E-03 2.19644E+00-2.07195E-13 4.35657E-13
 -1      1069 2.00049E+01-2.01717E-04-5.99509E-07-6.63196E-04 1.18021E-13 7.58344E-13
 -1      1070 2.00056E+01 9.80481E-04 4.72603E-06-6.90311E-04-1.98532E-13 6.71531E-13
 -1      1071 1.74082E+01 1.04104E+00 2.24719E-03 9.61591E-01 3.27457E-14-5.05715E-15
 -1      1072 1.80184E+01 1.03009E+00-3.57864E-04 5.60038E-01 1.22204E-13 1.05920E-13
 -1      1073 1.84807E+01 9.70768E-01-1.84603E-04 2.98439E-01 1.11379E-13 9.75297E-14
 -1      1074 1.88469E+01 8.73451E-01-5.37977E-05 1.33280E-01 6.34674E-14 9.28657E-14
 -1      1075 1.91338E+01 7.60549E-01-1.74338E-05 3.37758E-02-9.68419E-14 2.59469E-13
 -1      1076 1.93569E+01 6.45482E-01-5.90244E-06-2.14851E-02 1.36136E-14 2.19043E-13
 -1      1077 1.95289E+01 5.36307E-01-2.03773E-06-4.80971E-02-6.96449E-14 1.35102E-13
 -1      1078 1.96602E+01 4.37443E-01-6.00521E-07-5.70809E-02-7.81585E-14 1.27789E-13
 -1      1079 1.97594E+01 3.50874E-01-6.37584E-08-5.59658E-02-1.19558E-13 1.26286E-13
 -1      1080 1.98334E+01 2.77020E-01 7.57413E-08-4.96942E-02-1.24020E-13 3.18524E-13
 -1      1081 1.98878E+01 2.15355E-01 3.22183E-08-4.13579E-02 4.29431E-14 3.96382E-13
 -1      1082 1.99274E+01 1.64819E-01-8.29337E-08-3.27723E-02 1.31839E-13 3.05458E-13
 -1      1083 1.99555E+01 1.24101E-01-2.08930E-07-2.49070E-02 1.17890E-13 3.12749E-13
 -1      1084 1.99751E+01 9.18155E-02-3.14999E-07-1.81960E-02 1.71187E-15 3.11706E-13
 -1      1085 1.99883E+01 6.66171E-02-3.88810E-07-1.27523E-02 2.25755E-15 4.06502E-13
 -1      1086 1.99970E+01 4.72611E-02-4.28873E-07-8.51130E-03 1.14340E-13 1.66361E-13
 -1      1087 2.00023E+01 3.26386E-02-4.39401E-07-5.32254E-03 1.56130E-13 2.38898E-14
 -1      1088 2.00053E+01 2.17873E-02-4.26700E-07-3.00534E-03 4.50382E-14 5.46573E-14
 -1      1089 2.00067E+01 1.38912E-02-3.96893E-07-1.38076E-03-1.42488E-13-6.17104E-14
 -1      1090 2.00070E+01 8.27023E-03-3.49198E-07-2.87936E-04-4.57826E-14 6.07489E-14
 -1      1091 2.00066E+01 4.36712E-03-4.32956E-07 4.08738E-04-2.55724E-13 2.72695E-13
 -1      1092 2.00059E+01 1.72556E-03-4.33534E-07 8.23589E-04-4.84773E-13-9.06784E-14
 -1      1093 1.89569E+01 3.31846E-01-1.71569E-04 1.14714E+00-8.90450E-14 4.79909E-13
 -1      1094 1.90652E+01 4.86677E-01 6.87813E-05 8.23736E-01 7.87281E-14 3.66420E-13
 -1      1095 1.92038E+01 5.45067E-01 5.03739E-05 5.85289E-01 4.71038E-14 3.03646E-13
 -1      1096 1.93458E+01 5.43493E-01 2.71360E-05 4.12304E-01 5.28381E-14 1.76187E-13
 -1      1097 1.94782E+01 5.06120E-01 1.53314E-05 2.88460E-01-6.09779E-14 7.94928E-14
 -1      1098 1.95947E+01 4.49766E-01 9.18307E-06 2.00736E-01-4.26674E-14 2.33305E-13
 -1      1099 1.96932E+01 3.85824E-01 5.85693E-06 1.39085E-01-1.39848E-13 2.90200E-13
 -1      1100 1.97736E+01 3.21652E-01 4.01443E-06 9.59890E-02-8.22165E-15 5.07207E-13
 -1      1101 1.98376E+01 2.61678E-01 2.96223E-06 6.59606E-02 1.40703E-13 5.09788E-13
 -1      1102 1.98873E+01 2.08267E-01 2.32901E-06 4.50706E-02 1.49307E-13 5.33184E-13
 -1      1103 1.99248E+01 1.62384E-01 1.91517E-06 3.05470E-02 9.37998E-14 3.36429E-13
 -1      1104 1.99525E+01 1.24092E-01 1.61503E-06 2.04541E-02 4.15658E-14 4.20028E-14
 -1      1105 1.99723E+01 9.29130E-02 1.37461E-06 1.34489E-02 8.60582E-14 2.26269E-13
 -1      1106 1.99861E+01 6.80787E-02 1.16807E-06 8.60136E-03 9.14942E-14 1.22449E-13
 -1      1107 1.99954E+01 4.87014E-02 9.84432E-07 5.26640E-03 1.76499E-13 3.53300E-13
 -1      1108 2.00012E+01 3.38831E-02 8.20422E-07 2.99471E-03 6.40897E-14 4.81757E-13
 -1      1109 2.00046E+01 2.27801E-02 6.78266E-07 1.47117E-03 2.60700E-14 4.74121E-13
 -1      1110 2.00063E+01 1.46375E-02 5.72043E-07 4.73227E-04-1.06233E-13 4.02883E-13
 -1      1111 2.00068E+01 8.80338E-03 5.98522E-07-1.57215E-04-2.41333E-13 3.11687E-13
 -1      1112 2.00066E+01 4.73523E-03 1.30660E-08-5.32321E-04 7.35430E-14 2.32671E-13
 -1      1113 2.00062E+01 2.55970E-03-1.83984E-06-6.57102E-04 1.76330E-13 1.47038E-13
 -1      1114 2.00050E+01-1.50438E-04-2.12005E-06 4.44840E-04 1.65009E-13 3.80490E-13
 -1      1115 1.89401E+01 5.15678E-02 5.77528E-03 1.55631E+00-3.87128E-14 6.22146E-13
 -1      1116 1.81933E+01 6.70768E-01-2.26937E-03 1.14730E+00 1.01908E-13 1.97166E-13
 -1      1117 1.85421E+01 7.53956E-01 2.40441E-04 7.54682E-01 1.43438E-13 3.96652E-14
 -1      1118 1.88334E+01 7.56733E-01-5.02459E-05 4.85249E-01 6.84092E-14 3.37452E-14
 -1      1119 1.90830E+01 7.10381E-01-5.52469E-05 3.02527E-01 6.96066E-14 6.10554E-14
 -1      1120 1.92917E+01 6.37008E-01-3.57896E-05 1.81786E-01-4.31567E-14 1.54097E-13
 -1      1121 1.94624E+01 5.52113E-01-2.03248E-05 1.04213E-01-6.30234E-14 6.81173E-14
 -1      1122 1.95994E+01 4.65728E-01-1.01670E-05 5.59586E-02-6.12110E-14 1.49313E-13
 -1      1123 1.97073E+01 3.83971E-01-3.94722E-06 2.70855E-02-1.29176E-13 1.22416E-13
 -1      1124 1.97908E+01 3.10220E-01-3.77242E-07 1.06504E-02 2.01499E-14 1.50976E-13
 -1      1125 1.98544E+01 2.45998E-01 1.48712E-06 1.93341E-03 7.61650E-14 2.40973E-13
 -1      1126 1.99020E+01 1.91611E-01 2.29926E-06-2.18277E-03 1.58149E-13 2.42480E-13
 -1      1127 1.99369E+01 1.46618E-01 2.49582E-06-3.69477E-03 1.78928E-13 3.68965E-13
 -1      1128 1.99618E+01 1.10157E-01 2.35897E-06-3.83804E-03 6.18816E-14 2.59501E-13
 -1      1129 1.99793E+01 8.11636E-02 2.06440E-06-3.34648E-03 3.82057E-14 1.65044E-13
 -1      1130 1.99911E+01 5.85240E-02 1.71653E-06-2.63364E-03-5.06689E-14 9.13119E-14
 -1      1131 1.99987E+01 4.11611E-02 1.37358E-06-1.91544E-03 1.63186E-13 6.29007E-14
 -1      1132 2.00033E+01 2.80892E-02 1.06497E-06-1.29077E-03-1.27664E-14 2.03550E-13
 -1      1133 2.00058E+01 1.84390E-02 8.03980E-07-7.92854E-04-5.90772E-14 2.15172E-13
 -1      1134 2.00069E+01 1.14653E-02 5.98030E-07-4.20746E-04-2.30556E-14 8.92562E-14
 -1      1135 2.00070E+01 6.54358E-03 2.58966E-07-1.57394E-04 4.13014E-14-1.93362E-13
 -1      1136 2.00065E+01 3.16780E-03 1.22851E-06 1.25434E-05-3.33744E-13 1.08446E-13
 -1      1137 2.00056E+01 8.09458E-04-3.31790E-06 1.14819E-04-3.54741E-13 6.21633E-13
 -1      1138 2.90815E+01 9.41792E+00 2.31135E+00-6.34567E+00 3.33067E-14-1.48495E-12
 -1      1139 2.19398E+01 6.67148E+00 2.98349E-01-3.12712E+00 2.25653E-14-2.92266E-13
 -1      1140 2.03371E+01 6.13535E+00 1.13993E-01-1.90154E+00 1.53766E-14 2.54198E-13
 -1      1141 1.92656E+01 5.79535E+00 5.21720E-02-1.24110E+00 1.34337E-14 5.20125E-13
 -1      1142 1.84337E+01 5.53489E+00 1.58941E-02-8.70064E-01 9.14546E-15 6.62135E-13
 -1      1143 1.78370E+01 5.34942E+00-5.54763E-03-6.80543E-01 7.23033E-15 7.27341E-13
 -1      1144 1.74878E+01 5.24238E+00-1.32336E-02-5.85675E-01 5.61357E-15 7.71474E-13
 -1      1145 1.73812E+01 5.21168E+00-8.96170E-03-5.07732E-01 3.03056E-15 8.13969E-13
 -1      1146 1.74881E+01 5.24773E+00 4.30295E-03-3.86226E-01 1.93942E-15 8.36067E-13
 -1      1147 1.77538E+01 5.33279E+00 2.22089E-02-1.80837E-01 1.47798E-15 8.47248E-13
 -1      1148 1.81194E+01 5.44803E+00 4.06763E-02 1.26838E-01-1.73472E-16 8.55316E-13
 -1      1149 1.85354E+01 5.57773E+00 5.70134E-02 5.35186E-01-1.63758E-15 8.62380E-13
 -1      1150 1.89836E+01 5.71599E+00 6.96879E-02 1.04460E+00-4.80865E-15 8.55704E-13
 -1      1151 1.94903E+01 5.87128E+00 8.06139E-02 1.66754E+00-8.64586E-15 7.95700E-13
 -1      1152 2.01558E+01 6.07679E+00 1.00096E-01 2.44473E+00-1.41970E-14 6.18264E-13
 -1      1153 2.13546E+01 6.46568E+00 1.97612E-01 3.55542E+00-2.47302E-14 1.69316E-13
 -1      1154 2.60880E+01 8.26345E+00 1.45671E+00 5.72828E+00-6.88893E-14-9.62563E-13
 -1      1155 2.98829E+01 3.48911E+00 1.07704E+00-3.99656E+00 1.56944E-13-2.27007E-12
 -1      1156 2.25432E+01-2.02326E-01-6.48354E-01-2.53332E-02 5.22221E-14-1.89981E-12
 -1      1157 2.22462E+01-1.14617E-01-2.50124E-01 9.07807E-02 2.89404E-14-1.33550E-12
 -1      1158 2.30320E+01-7.29058E-02-9.41419E-02 7.28841E-02 2.05183E-14-9.47575E-13
 -1      1159 2.43460E+01-5.00267E-02-5.66403E-02 7.53745E-02 1.32975E-14-7.35995E-13
 -1      1160 2.60818E+01-2.49507E-02-2.47470E-02 8.62150E-02 9.26646E-15-5.03389E-13
 -1      1161 2.80219E+01 1.83437E-02 4.81862E-02 8.94690E-02 1.04866E-14-2.80165E-13
 -1      1162 2.96716E+01 8.85993E-02 1.79236E-01 5.63710E-02 1.07752E-14-2.29941E-13
 -1      1163 3.01337E+01 1.71557E-01 3.26663E-01-5.28994E-02 3.78170E-16-3.63223E-13
 -1      1164 2.83265E+01 1.99948E-01 3.39125E-01-2.45750E-01-1.36124E-14-6.34492E-13
 -1      1165 2.39735E+01 6.64481E-02 3.29641E-02-4.13515E-01 5.26922E-16-9.00835E-13
 -1      1166 1.89560E+01-2.08226E-01-4.97384E-01-3.39499E-01 2.47719E-14-6.33160E-13
 -1      1167 1.68142E+01-3.74013E-01-7.73448E-01 2.09304E-02-1.77289E-15-4.47122E-13
 -1      1168 1.92577E+01-2.01771E-01-4.87474E-01 3.53386E-01 2.11046E-14-8.76244E-14
 -1      1169 2.44897E+01 7.10637E-02 4.28824E-02 4.18243E-01-6.30572E-16 2.55573E-13
 -1      1170 2.89811E+01 2.05550E-01 3.45333E-01 2.48161E-01-4.55868E-14 4.49363E-14
 -1      1171 3.08862E+01 1.73760E-01 3.28164E-01 5.59995E-02 2.87045E-14 1.22347E-13
 -1      1172 3.05124E+01 9.19779E-02 1.79002E-01-5.00590E-02 1.84314E-15 1.84686E-13
 -1      1173 2.89482E+01 2.47285E-02 4.91148E-02-7.91456E-02-1.23955E-14-1.10745E-14
 -1      1174 2.70719E+01-1.27829E-02-2.11795E-02-7.08795E-02-3.48853E-15 1.97106E-13
 -1      1175 2.53433E+01-2.78420E-02-4.59945E-02-5.23328E-02 1.15914E-14 3.51025E-13
 -1      1176 2.39245E+01-3.03589E-02-4.75106E-02-3.51379E-02 2.65829E-14 3.92478E-13
 -1      1177 2.28277E+01-2.72941E-02-4.03183E-02-2.23477E-02 5.12732E-14 4.47052E-13
 -1      1178 2.20075E+01-2.24792E-02-3.14531E-02-1.37084E-02 3.69036E-14 4.32702E-13
 -1      1179 2.14059E+01-1.76759E-02-2.35701E-02-8.15215E-03-1.73099E-14 6.70052E-13
 -1      1180 2.09700E+01-1.35415E-02-1.73209E-02-4.67194E-03-7.55515E-15 9.64518E-13
 -1      1181 2.06570E+01-1.02168E-02-1.26095E-02-2.52659E-03-1.08406E-14 5.98600E-13
 -1      1182 2.04343E+01-7.63482E-03-9.13591E-03-1.22115E-03 1.46119E-14 3.55133E-13
 -1      1183 2.02774E+01-5.66608E-03-6.59741E-03-4.39768E-04-5.35563E-15 5.78216E-13
 -1      1184 2.01682E+01-4.17914E-03-4.74627E-03 1.52330E-05 1.75028E-15 7.92548E-13
 -1      1185 2.00935E+01-3.06170E-03-3.39556E-03 2.66897E-04-2.60438E-14 7.34622E-13
 -1      1186 2.00436E+01-2.22461E-03-2.40903E-03 3.92115E-04-7.49172E-14 4.12945E-13
 -1      1187 2.00113E+01-1.59942E-03-1.68862E-03 4.39374E-04-2.14249E-14-1.22097E-14
 -1      1188 1.99914E+01-1.13438E-03-1.16379E-03 4.39591E-04-1.58356E-14-2.13812E-13
 -1      1189 1.99801E+01-7.90450E-04-7.83470E-04 4.12671E-04 1.66363E-14-4.02037E-13
 -1      1190 1.99747E+01-5.38152E-04-5.10284E-04 3.71492E-04-3.56338E-14-3.54829E-13
 -1      1191 1.99731E+01-3.55088E-04-3.16592E-04 3.24360E-04-1.44588E-14-3.53711E-13
 -1      1192 1.99739E+01-2.24151E-04-1.81738E-04 2.76545E-04-3.83248E-15 1.07177E-13
 -1      1193 1.99761E+01-1.32219E-04-9.01674E-05 2.31278E-04-9.73083E-15-1.02514E-13
 -1      1194 1.99790E+01-6.91879E-05-3.00994E-05 1.90410E-04 5.17991E-14-1.89294E-13
 -1      1195 1.99822E+01-2.72612E-05 7.42104E-06 1.54860E-04 2.36642E-14 7.25909E-13
 -1      1196 1.99854E+01-4.04426E-07 2.92389E-05 1.24923E-04 4.96817E-14 1.41313E-12
 -1      1197 1.99885E+01 1.60845E-05 4.06563E-05 1.00465E-04-3.15674E-14 1.04549E-12
 -1      1198 1.99912E+01 2.59214E-05 4.59366E-05 8.10347E-05-6.47226E-14 3.03746E-13
 -1      1199 1.99937E+01 3.21221E-05 4.88195E-05 6.58425E-05 1.63243E-14 1.10229E-13
 -1      1200 1.99958E+01 3.71997E-05 5.30143E-05 5.35414E-05 1.05383E-13 2.95858E-13
 -1      1201 1.99976E+01 4.31143E-05 6.20780E-05 4.15956E-05-4.00898E-14 1.35598E-13
 -1      1202 1.99989E+01 5.03968E-05 7.55751E-05 2.49447E-05 2.00560E-14 3.80727E-15
 -1      1203 1.99997E+01 5.03943E-05 7.05536E-05-8.08803E-06-4.01974E-14-2.61778E-13
 -1      1204 1.99999E+01 4.54054E-05-2.10707E-05-5.31790E-05 4.90959E-14-4.26251E-13
 -1      1205 2.85995E+01 5.32296E-01 2.97495E-01 1.95926E+00 1.21361E-14-1.95910E-12
 -1      1206 2.14043E+01-6.38518E-02-5.76485E-01 1.09040E-01-2.23710E-14-1.26905E-12
 -1      1207 2.05714E+01-3.39369E-02-1.77681E-01 4.88875E-03-1.49594E-14-6.86340E-13
 -1      1208 2.03935E+01-1.04276E-02-3.00594E-02-1.15874E-02-2.13434E-14-2.62200E-13
 -1      1209 2.03734E+01 3.34207E-03 1.26044E-02-1.61900E-02-1.71783E-14 7.61474E-14
 -1      1210 2.03123E+01 1.29513E-02 2.82902E-02-1.52360E-02-6.67391E-15 2.62632E-13
 -1      1211 2.00888E+01 1.74681E-02 3.56116E-02-9.98997E-03 3.93392E-15 4.24551E-13
 -1      1212 1.96363E+01 1.57345E-02 3.48233E-02-1.64509E-04-1.12375E-14 6.39835E-13
 -1      1213 1.89555E+01 7.04502E-03 2.29711E-02 1.32206E-02-1.26324E-14 6.68139E-13
 -1      1214 1.81320E+01-7.08676E-03-2.97425E-05 2.69138E-02 3.13917E-15 6.62657E-13
 -1      1215 1.73330E+01-2.22798E-02-2.88015E-02 3.58632E-02 4.04798E-15 7.20899E-13
 -1      1216 1.67675E+01-3.26206E-02-5.32994E-02 3.54700E-02-1.65926E-14 7.59462E-13
 -1      1217 1.66116E+01-3.38385E-02-6.35277E-02 2.45100E-02 1.80294E-14 8.28190E-13
 -1      1218 1.69334E+01-2.58538E-02-5.54392E-02 6.40418E-03-1.76287E-14 8.32487E-13
 -1      1219 1.76624E+01-1.25770E-02-3.33168E-02-1.24227E-02-4.61653E-15 7.48963E-13
 -1      1220 1.86219E+01 7.18319E-04-6.72940E-03-2.60175E-02 8.98630E-15 5.88016E-13
 -1      1221 1.96030E+01 1.02064E-02 1.51013E-02-3.15852E-02-3.05388E-14 7.32692E-13
 -1      1222 2.04369E+01 1.46562E-02 2.73580E-02-2.98432E-02-1.79132E-15 6.70471E-13
 -1      1223 2.10315E+01 1.48638E-02 3.01173E-02-2.35497E-02-2.47263E-15 5.35974E-13
 -1      1224 2.13701E+01 1.24630E-02 2.63298E-02-1.57075E-02-1.97145E-14 6.46757E-13
 -1      1225 2.14880E+01 9.01204E-03 1.94997E-02-8.46514E-03-1.46356E-14 9.19604E-13
 -1      1226 2.14437E+01 5.58412E-03 1.23091E-02-2.88232E-03-2.15474E-15 8.33192E-13
 -1      1227 2.12981E+01 2.73959E-03 6.24562E-03 8.25125E-04 5.43998E-16 6.75423E-13
 -1      1228 2.11020E+01 6.59822E-04 1.83023E-03 2.91002E-03 1.68840E-15 5.29321E-13
 -1      1229 2.08928E+01-6.93986E-04-9.97087E-04 3.79575E-03-2.91732E-14 9.71253E-13
 -1      1230 2.06941E+01-1.45858E-03-2.55188E-03 3.90011E-03 1.53431E-15 1.08987E-12
 -1      1231 2.05191E+01-1.79339E-03-3.20321E-03 3.55914E-03 9.26554E-15 8.67677E-13
 -1      1232 2.03730E+01-1.84242E-03-3.27585E-03 3.01103E-03-4.30304E-14 7.95834E-13
 -1      1233 2.02564E+01-1.71988E-03-3.01789E-03 2.40809E-03 2.76559E-14 3.54189E-13
 -1      1234 2.01666E+01-1.50863E-03-2.60158E-03 1.83771E-03-8.11037E-16 1.50036E-13
 -1      1235 2.01000E+01-1.26445E-03-2.13718E-03 1.34273E-03 8.48768E-16 3.59571E-13
 -1      1236 2.00524E+01-1.02199E-03-1.68924E-03 9.37931E-04-4.19999E-14 5.72130E-13
 -1      1237 2.00198E+01-8.00717E-04-1.29113E-03 6.21842E-04 2.36688E-14 8.30681E-13
 -1      1238 1.99985E+01-6.09763E-04-9.56194E-04 3.84739E-04-2.08466E-14 8.30484E-13
 -1      1239 1.99857E+01-4.51684E-04-6.85815E-04 2.13605E-04 6.42676E-15 7.35981E-13
 -1      1240 1.99788E+01-3.25160E-04-4.74898E-04 9.50295E-05-1.71884E-14 3.88096E-13
 -1      1241 1.99760E+01-2.26831E-04-3.15357E-04 1.67312E-05-4.56957E-14 1.71174E-13
 -1      1242 1.99759E+01-1.52484E-04-1.98246E-04-3.17805E-05 1.12784E-14 3.88570E-13
 -1      1243 1.99775E+01-9.77791E-05-1.14955E-04-5.90477E-05-2.36687E-14 1.11545E-13
 -1      1244 1.99800E+01-5.86471E-05-5.77983E-05-7.17798E-05-3.34303E-15 2.27779E-13
 -1      1245 1.99829E+01-3.14712E-05-2.02297E-05-7.50993E-05-5.03826E-14 5.52384E-13
 -1      1246 1.99859E+01-1.31324E-05 3.18244E-06-7.28294E-05 1.68104E-14 6.33590E-13
 -1      1247 1.99888E+01-9.63399E-07 1.69188E-05-6.77758E-05-5.11498E-14 1.19813E-13
 -1      1248 1.99915E+01 7.34932E-06 2.47930E-05-6.19712E-05 4.09603E-14-5.55882E-13
 -1      1249 1.99939E+01 1.39013E-05 3.03764E-05-5.68355E-05-1.90685E-14-7.31305E-13
 -1      1250 1.99959E+01 2.06317E-05 3.74734E-05-5.31534E-05-9.02475E-15-9.93268E-13
 -1      1251 1.99977E+01 2.91239E-05 4.99377E-05-5.06962E-05-1.65300E-14-9.38445E-13
 -1      1252 1.99990E+01 3.87487E-05 6.68480E-05-4.54702E-05 5.84250E-14-1.18382E-12
 -1      1253 1.99997E+01 3.58761E-05 6.13003E-05-2.44019E-05 1.26441E-13-1.56600E-12
 -1      1254 1.99999E+01-2.02857E-05-4.62160E-05 2.12812E-05 6.00478E-14-1.23606E-12
 -1      1255 1.99998E+01 6.01726E-05-4.39253E-05 1.93776E-05-1.30732E-12-1.70651E-13
 -1      1256 1.99998E+01-7.23952E-05 6.14838E-05 8.32583E-06-1.97501E-12-4.20652E-14
 -1      1257 1.99998E+01-8.17837E-04 6.03098E-05-3.08825E-05-9.91566E-13 7.07273E-14
 -1      1258 1.99998E+01-1.98431E-03 2.39782E-05-4.51641E-05-6.40205E-13 9.82514E-14
 -1      1259 1.99998E+01-3.29729E-03-9.68946E-06-4.58801E-05-5.30790E-13 1.36986E-14
 -1      1260 1.99998E+01-4.52892E-03-3.51935E-05-3.90822E-05-7.60877E-13-2.90676E-13
 -1      1261 1.99998E+01-5.52532E-03-5.25406E-05-2.86440E-05-8.58147E-13 1.86434E-13
 -1      1262 1.99998E+01-6.17679E-03-6.30414E-05-1.49290E-05-1.01513E-12 4.09437E-14
 -1      1263 1.99998E+01-6.40210E-03-6.65778E-05 7.21191E-11-7.24522E-13 1.49600E-13
 -1      1264 1.99998E+01-6.17733E-03-6.32718E-05 1.49784E-05 2.41746E-13 1.86060E-14
 -1      1265 1.99998E+01-5.52492E-03-5.28309E-05 2.87806E-05-2.70429E-13-9.93621E-14
 -1      1266 1.99998E+01-4.52463E-03-3.52736E-05 3.99849E-05-6.60467E-13 4.74530E-14
 -1      1267 1.99998E+01-3.28780E-03-9.59306E-06 4.63404E-05-9.44678E-13 5.40891E-14
 -1      1268 1.99998E+01-1.96994E-03 2.44716E-05 4.50990E-05-1.11972E-12 1.05645E-13
 -1      1269 1.99998E+01-8.05715E-04 5.90179E-05 2.85790E-05-4.28051E-13 4.22705E-14
 -1      1270 1.99998E+01-5.73019E-05 6.05271E-05-2.38306E-05 3.35631E-13 5.21543E-14
 -1      1271 1.99998E+01 7.51777E-05-2.75239E-05-4.98692E-05 5.19232E-13-8.63600E-14
 -1      1272-1.13854E+00-2.46098E+01-3.75924E+00-2.08010E+00 9.84435E-13 7.29694E-14
 -1      1273-1.66299E+00-1.48067E+01-2.96512E+00-3.70714E+00 4.97380E-14-1.15963E-13
 -1      1274 5.50456E-01-1.79638E+00-1.74981E+00 3.40170E-01-1.20814E-12-8.24896E-13
 -1      1275 9.03803E+00 8.36555E+00-2.20116E-01 8.60005E+00-1.81477E-12-1.64890E-12
 -1      1276 2.51654E+01 1.18649E+01 1.42622E+00 1.65338E+01-1.52478E-12-2.03837E-12
 -1      1277 4.52058E+01 9.02632E+00 2.83510E+00 1.84183E+01-7.52287E-13-1.70197E-12
 -1      1278 6.17937E+01 3.95464E+00 3.81361E+00 1.23681E+01-2.57169E-13-9.06386E-13
 -1      1279 6.81764E+01 1.67393E+00 4.17519E+00 3.21181E-01-5.07164E-14-1.02973E-14
 -1      1280 6.17136E+01 4.06121E+00 3.83394E+00-1.19473E+01-3.73576E-13 1.29607E-12
 -1      1281 4.49440E+01 8.95164E+00 2.81874E+00-1.85178E+01-1.08369E-12 2.28306E-12
 -1      1282 2.52118E+01 1.17849E+01 1.37275E+00-1.65426E+01-1.96199E-12 2.65832E-12
 -1      1283 9.69928E+00 8.68836E+00-1.45920E-01-9.02855E+00-2.53331E-12 2.37987E-12
 -1      1284 9.18684E-01-7.07350E-01-1.61768E+00-7.86861E-01-2.64633E-12 1.67077E-12
 -1      1285-1.62689E+00-1.33676E+01-2.83828E+00 3.76502E+00-2.40163E-12 8.92397E-13
 -1      1286-1.14057E+00-2.36163E+01-3.65137E+00 2.71809E+00-1.63147E-12 3.14991E-13
 -1      1287-9.95349E-01-2.61594E+01-3.90873E+00-1.86778E+00-2.73143E-13 6.53366E-14
 -1      1288-2.11153E+00-1.91746E+01-3.53475E+00-4.91353E+00 1.03650E-12 4.15556E-13
 -1      1289-1.40969E+00-7.21234E+00-2.63063E+00-2.64520E+00 1.99085E-12 1.19904E-12
 -1      1290 5.13265E+00 4.16447E+00-1.17954E+00 4.78658E+00 2.50266E-12 2.19913E-12
 -1      1291 2.10294E+01 1.04172E+01 7.27558E-01 1.42167E+01 2.36988E-12 3.10751E-12
 -1      1292 4.40479E+01 9.44725E+00 2.80836E+00 1.88901E+01 1.53977E-12 3.21654E-12
 -1      1293 6.49872E+01 4.52857E+00 4.44649E+00 1.38630E+01 6.35991E-13 2.60203E-12
 -1      1294 7.41865E+01 1.77606E+00 5.17895E+00 1.05551E+00 6.53574E-14 1.80411E-12
 -1      1295 6.63707E+01 4.12719E+00 4.57781E+00-1.21969E+01-2.30371E-14 6.03961E-13
 -1      1296 4.64940E+01 8.75049E+00 3.01284E+00-1.85345E+01 4.10227E-13-7.10765E-13
 -1      1297 2.40322E+01 1.05260E+01 9.84995E-01-1.53166E+01 8.47988E-13-1.24412E-12
 -1      1298 7.00376E+00 5.47451E+00-9.40559E-01-6.29774E+00 8.10241E-13-8.02469E-13
 -1      1299-1.03388E+00-5.68338E+00-2.46809E+00 2.02884E+00 7.88480E-13-5.17475E-13
 -1      1300-2.31162E+00-1.80400E+01-3.48266E+00 5.05114E+00 8.73190E-13-2.44249E-13
 -1      1301-1.32163E+00-2.57354E+01-3.91220E+00 2.55869E+00 1.22136E-12-9.11077E-14
 -1      1302 2.39447E+01 1.92833E+00-7.08248E-01-2.40717E+00 5.65659E-14-1.25161E-12
 -1      1303 2.17558E+01 4.83062E+00-3.65077E-02-2.43640E+00 1.88349E-13-3.03785E-14
 -1      1304 2.25097E+01 4.98113E+00-6.09348E-02-3.39513E+00 2.32009E-13-3.14804E-13
 -1      1305 2.02851E+01 5.13558E+00-2.49120E-02-1.65371E+00 2.00076E-13 3.72407E-13
 -1      1306 2.09415E+01 5.32997E+00 3.33546E-02-2.08496E+00 2.23238E-13 1.93921E-13
 -1      1307 2.18535E+01 4.06399E+00-1.01367E-02-2.14426E+00 3.36887E-13-1.02696E-14
 -1      1308 1.91850E+01 5.18981E+00-2.14001E-02-1.12479E+00 1.80495E-13 5.80359E-13
 -1      1309 1.97150E+01 5.35478E+00 2.43239E-02-1.37229E+00 2.01200E-13 4.89893E-13
 -1      1310 2.03182E+01 4.58382E+00-1.62985E-02-1.50831E+00 3.26478E-13 3.20050E-13
 -1      1311 1.83348E+01 5.18203E+00-1.97003E-02-8.21742E-01 1.52309E-13 6.89736E-13
 -1      1312 1.87369E+01 5.30646E+00 1.11020E-02-9.59887E-01 1.64674E-13 6.38781E-13
 -1      1313 1.91486E+01 4.83479E+00-1.64709E-02-1.06048E+00 2.84748E-13 4.88491E-13
 -1      1314 1.77592E+01 5.15739E+00-1.60755E-02-6.69540E-01 1.18280E-13 7.52817E-13
 -1      1315 1.80177E+01 5.23706E+00 5.62293E-05-7.41436E-01 1.29688E-13 7.24327E-13
 -1      1316 1.82862E+01 4.95600E+00-1.40551E-02-8.06830E-01 2.29254E-13 5.92229E-13
 -1      1317 1.74591E+01 5.12745E+00-1.01233E-02-5.84333E-01 8.53692E-14 7.92501E-13
 -1      1318 1.75748E+01 5.16319E+00-7.97658E-03-6.31221E-01 9.87405E-14 7.69541E-13
 -1      1319 1.77310E+01 4.99078E+00-1.28486E-02-6.76041E-01 1.76185E-13 6.44939E-13
 -1      1320 1.74302E+01 5.10196E+00-2.35328E-03-4.96653E-01 6.62838E-14 8.28764E-13
 -1      1321 1.74122E+01 5.09685E+00-1.15671E-02-5.51378E-01 6.92345E-14 8.12080E-13
 -1      1322 1.74889E+01 4.96019E+00-1.27032E-02-5.89601E-01 1.27904E-13 6.83859E-13
 -1      1323 1.76216E+01 5.08655E+00 5.54601E-03-3.50486E-01 4.56302E-14 8.49524E-13
 -1      1324 1.74995E+01 5.04957E+00-1.08526E-02-4.37788E-01 5.13461E-14 8.38196E-13
 -1      1325 1.75335E+01 4.88744E+00-1.32149E-02-4.81374E-01 9.96200E-14 7.10026E-13
 -1      1326 1.79646E+01 5.08547E+00 1.21889E-02-1.12668E-01 2.87548E-14 8.58352E-13
 -1      1327 1.77746E+01 5.02741E+00-7.08470E-03-2.46269E-01 3.51802E-14 8.56759E-13
 -1      1328 1.77999E+01 4.79717E+00-1.40443E-02-3.02724E-01 6.34024E-14 7.32640E-13
 -1      1329 1.83931E+01 5.10000E+00 1.67222E-02 2.28546E-01-4.79825E-15 8.62295E-13
 -1      1330 1.81674E+01 5.03052E+00-2.14954E-03 4.43229E-02 6.28664E-15 8.56813E-13
 -1      1331 1.82103E+01 4.70989E+00-1.49790E-02-2.84281E-02 2.62143E-14 7.33356E-13
 -1      1332 1.88541E+01 5.12806E+00 1.92552E-02 6.62812E-01-4.39856E-14 8.68869E-13
 -1      1333 1.86158E+01 5.05291E+00 1.90207E-03 4.33447E-01-2.93793E-14 8.68049E-13
 -1      1334 1.86928E+01 4.63625E+00-1.59666E-02 3.42998E-01-3.17203E-14 7.41639E-13
 -1      1335 1.93528E+01 5.16499E+00 2.00558E-02 1.20138E+00-8.12544E-14 8.50927E-13
 -1      1336 1.90939E+01 5.08146E+00 3.06890E-03 9.18006E-01-6.88477E-14 8.66682E-13
 -1      1337 1.92115E+01 4.57040E+00-1.78107E-02 8.08720E-01-9.63084E-14 7.36196E-13
 -1      1338 1.99198E+01 5.19958E+00 1.87462E-02 1.84700E+00-1.37376E-13 7.75657E-13
 -1      1339 1.96162E+01 5.09853E+00-1.11487E-03 1.50280E+00-1.14443E-13 8.23473E-13
 -1      1340 1.97782E+01 4.48793E+00-2.05892E-02 1.36916E+00-1.66971E-13 6.93876E-13
 -1      1341 2.06869E+01 5.21000E+00 1.75770E-02 2.64779E+00-1.84769E-13 5.73874E-13
 -1      1342 2.02555E+01 5.06393E+00-1.45647E-02 2.19958E+00-1.59303E-13 7.03184E-13
 -1      1343 2.04647E+01 4.33130E+00-2.33223E-02 2.02818E+00-2.44362E-13 5.96356E-13
 -1      1344 2.20945E+01 5.01377E+00 1.98700E-02 3.76545E+00-1.93318E-13 7.58976E-14
 -1      1345 2.12653E+01 4.83903E+00-3.93771E-02 3.04386E+00-1.83895E-13 3.90535E-13
 -1      1346 2.15049E+01 3.92917E+00-1.76458E-02 2.78045E+00-3.08396E-13 3.40061E-13
 -1      1347 2.81499E+01 3.24366E+00 9.06513E-01 4.46346E+00-1.37779E-13-1.07575E-12
 -1      1348 2.30428E+01 3.59736E+00-1.77954E-01 3.66239E+00-1.18627E-13-2.55573E-13
 -1      1349 2.32104E+01 2.56578E+00-2.46948E-02 3.15507E+00-3.34744E-13-1.32672E-13
 -1      1350 2.25525E+01 3.41662E-01-7.71868E-01 1.02291E+00-2.20296E-13-9.52183E-13
 -1      1351 2.40806E+01 1.12414E-01-3.92849E-01-8.59924E-01 1.96648E-13-1.30548E-12
 -1      1352 2.32294E+01 2.92734E-01-1.47470E-01-4.32393E-01 1.83117E-13-1.08071E-12
 -1      1353 2.29287E+01 1.69965E-01-6.88766E-02 5.15060E-03 1.60448E-13-9.89379E-13
 -1      1354 2.29788E+01 1.12356E-01-9.81044E-03 8.17723E-02 1.44523E-13-7.74478E-13
 -1      1355 2.33951E+01 3.71555E-01-1.03830E-01-5.20057E-01 3.21417E-13-5.49359E-13
 -1      1356 2.30197E+01 9.89487E-02 6.54282E-04 3.38099E-01 1.16466E-13-6.84848E-13
 -1      1357 2.34729E+01 7.61079E-02 1.15504E-02 3.76453E-01 9.32848E-14-5.46098E-13
 -1      1358 2.30295E+01 1.75643E-01-4.42285E-02 3.58326E-01 2.48489E-13-3.93827E-13
 -1      1359 2.37905E+01 7.37156E-02 5.01660E-03 5.47737E-01 6.80185E-14-4.87291E-13
 -1      1360 2.45012E+01 5.19135E-02 5.34007E-03 5.81049E-01 6.18316E-14-3.98043E-13
 -1      1361 2.34004E+01 1.20409E-01-2.01271E-02 8.65470E-01 1.58287E-13-2.34833E-13
 -1      1362 2.49982E+01 4.69064E-02-1.43282E-03 6.89451E-01 7.56326E-14-3.46292E-13
 -1      1363 2.58610E+01 1.41391E-02 1.08731E-03 7.09817E-01 6.60600E-14-2.41585E-13
 -1      1364 2.41938E+01 7.56176E-02-1.55642E-02 1.20585E+00 1.32313E-13-1.47573E-13
 -1      1365 2.64488E+01-7.73521E-03 6.00702E-04 7.12922E-01 4.80393E-14-2.07868E-13
 -1      1366 2.72858E+01-6.02131E-02 7.73219E-03 7.00190E-01 2.78527E-14-1.35301E-13
 -1      1367 2.52603E+01-1.16033E-02-7.70890E-03 1.35458E+00 1.02550E-13-7.50719E-14
 -1      1368 2.78396E+01-1.12468E-01 1.97959E-02 5.08851E-01-7.43502E-15-1.49027E-13
 -1      1369 2.83281E+01-1.80424E-01 2.87892E-02 4.29659E-01-2.25358E-14-1.80473E-13
 -1      1370 2.64092E+01-1.82810E-01 1.13815E-02 1.15763E+00 2.27613E-14-6.51840E-14
 -1      1371 2.86632E+01-2.61744E-01 5.49731E-02-4.37811E-02-4.81351E-14-2.26672E-13
 -1      1372 2.83581E+01-3.04485E-01 5.29836E-02-2.16292E-01-6.91495E-14-3.05395E-13
 -1      1373 2.73539E+01-4.34487E-01 4.25355E-02 3.98294E-01-9.64541E-14-1.53758E-13
 -1      1374 2.82497E+01-3.60400E-01 7.60561E-02-9.12178E-01-9.71202E-14-3.43267E-13
 -1      1375 2.68462E+01-2.92916E-01 3.84628E-02-1.13176E+00-1.34771E-13-4.60576E-13
 -1      1376 2.76937E+01-6.21932E-01 6.84543E-02-9.93271E-01-1.54973E-13-2.14282E-13
 -1      1377 2.61770E+01-2.15125E-01 2.11868E-02-1.65166E+00-8.88760E-14-4.85084E-13
 -1      1378 2.40244E+01 9.50574E-03-6.01269E-02-1.73769E+00 3.02692E-14-5.29243E-13
 -1      1379 2.70487E+01-4.35254E-01 4.09095E-02-2.52322E+00-1.24386E-13-2.28415E-13
 -1      1380 2.30965E+01 2.33438E-01-1.21228E-01-1.47073E+00 1.54994E-13-4.87888E-13
 -1      1381 2.14453E+01 4.75190E-01-1.92863E-01-1.23572E+00 1.09225E-13-3.34982E-13
 -1      1382 2.55155E+01 2.61673E-01-8.03119E-02-2.93445E+00 1.41387E-13-2.56413E-13
 -1      1383 2.10414E+01 6.05138E-01-2.27894E-01-1.58237E-01 1.08955E-13-2.66703E-13
 -1      1384 2.11001E+01 6.01768E-01-2.29609E-01 2.25837E-01 1.18752E-13-1.54453E-13
 -1      1385 2.41630E+01 9.87946E-01-2.09854E-01-1.29934E+00 2.22433E-13-1.43408E-13
 -1      1386 2.15972E+01 4.55612E-01-1.96063E-01 1.34168E+00 1.61926E-13-4.71567E-14
 -1      1387 2.33812E+01 2.19963E-01-1.17363E-01 1.56202E+00 1.28467E-13 1.57457E-13
 -1      1388 2.42299E+01 9.69148E-01-2.10896E-01 1.44707E+00 2.65066E-13 9.75140E-14
 -1      1389 2.43713E+01 4.45690E-04-5.89208E-02 1.80590E+00 7.17516E-14 2.38143E-13
 -1      1390 2.66075E+01-2.23628E-01 2.16493E-02 1.71521E+00 2.45984E-15 2.85799E-13
 -1      1391 2.57445E+01 2.28550E-01-8.20360E-02 3.09062E+00 1.40533E-13 2.47261E-13
 -1      1392 2.73273E+01-2.99759E-01 3.87456E-02 1.17826E+00-7.93463E-15 2.66454E-13
 -1      1393 2.87888E+01-3.65869E-01 7.65618E-02 9.55248E-01-4.37289E-14 2.31426E-13
 -1      1394 2.73898E+01-4.44433E-01 4.47623E-02 2.63112E+00 2.57155E-14 4.16500E-13
 -1      1395 2.89288E+01-3.06651E-01 5.21296E-02 2.50260E-01-1.80446E-14 2.51049E-13
 -1      1396 2.92784E+01-2.63276E-01 5.34911E-02 7.76523E-02-2.42618E-14 2.59681E-13
 -1      1397 2.81103E+01-6.29078E-01 6.98868E-02 1.06732E+00-3.71057E-14 4.68917E-13
 -1      1398 2.89656E+01-1.81541E-01 2.65792E-02-3.99938E-01 4.22908E-14 2.69396E-13
 -1      1399 2.85166E+01-1.15342E-01 1.70145E-02-4.79285E-01-4.15033E-14 2.46317E-13
 -1      1400 2.78215E+01-4.34271E-01 4.38480E-02-3.38385E-01-1.09739E-14 4.08982E-13
 -1      1401 2.79685E+01-6.36765E-02 4.08625E-03-6.79218E-01-5.20044E-14 3.29334E-13
 -1      1402 2.71614E+01-1.47743E-02-4.24802E-03-6.93601E-01 4.24435E-14 3.26281E-13
 -1      1403 2.69026E+01-1.85093E-01 1.28385E-02-1.11357E+00-1.76161E-14 5.42410E-13
 -1      1404 2.65500E+01 5.71140E-03-5.12318E-03-7.09914E-01 1.53512E-14 3.87058E-13
 -1      1405 2.56926E+01 3.26693E-02-1.01623E-02-6.93758E-01 5.25296E-15 4.52423E-13
 -1      1406 2.57342E+01-2.02127E-02-5.52291E-03-1.34519E+00 4.53726E-14 5.89879E-13
 -1      1407 2.51189E+01 3.49400E-02-5.61270E-03-6.24014E-01-1.96522E-14 4.65641E-13
 -1      1408 2.43606E+01 4.67787E-02-8.77336E-03-5.98673E-01-6.52690E-15 4.82007E-13
 -1      1409 2.45679E+01 5.53630E-02-1.23668E-02-1.26770E+00 4.51509E-14 5.46936E-13
 -1      1410 2.38697E+01 4.14535E-02-3.24188E-03-5.03759E-01 2.86485E-14 4.65614E-13
 -1      1411 2.32570E+01 4.50892E-02-5.66283E-03-4.79071E-01 7.12308E-14 4.69819E-13
 -1      1412 2.35315E+01 7.63755E-02-1.30351E-02-1.06578E+00-9.38485E-15 5.01954E-13
 -1      1413 2.28594E+01 3.79249E-02-9.60716E-04-3.88142E-01 3.83244E-14 4.33101E-13
 -1      1414 2.23884E+01 3.77919E-02-3.03436E-03-3.67490E-01-1.51420E-14 4.61827E-13
 -1      1415 2.26709E+01 7.22652E-02-1.13269E-02-8.42475E-01 2.78709E-14 4.89145E-13
 -1      1416 2.20775E+01 3.12019E-02 4.49633E-04-2.91070E-01 2.87765E-14 3.69075E-13
 -1      1417 2.17256E+01 2.96476E-02-1.32935E-03-2.74941E-01 5.18726E-14 4.23389E-13
 -1      1418 2.19857E+01 5.96843E-02-9.10339E-03-6.42624E-01-6.83438E-14 4.26192E-13
 -1      1419 2.14880E+01 2.43528E-02 1.09043E-03-2.14664E-01 7.05642E-15 4.00172E-13
 -1      1420 2.12297E+01 2.24717E-02-3.71977E-04-2.02493E-01 2.50407E-15 5.02224E-13
 -1      1421 2.14550E+01 4.62188E-02-7.06646E-03-4.79660E-01 2.18367E-14 3.15762E-13
 -1      1422 2.10510E+01 1.84815E-02 1.25512E-03-1.56523E-01 1.09210E-14 4.59647E-13
 -1      1423 2.08638E+01 1.67200E-02 1.06702E-04-1.47499E-01-9.56357E-14 4.62205E-13
 -1      1424 2.10517E+01 3.46216E-02-5.39706E-03-3.52979E-01 7.78804E-15 2.22517E-13
 -1      1425 2.07309E+01 1.38115E-02 1.18180E-03-1.13082E-01-1.08767E-13 5.35872E-13
 -1      1426 2.05964E+01 1.23131E-02 3.13065E-04-1.06452E-01-3.71025E-14 3.36176E-13
 -1      1427 2.07495E+01 2.54830E-02-4.08791E-03-2.57035E-01-1.03885E-13 3.15640E-13
 -1      1428 2.04988E+01 1.02306E-02 1.01500E-03-8.09567E-02 2.09709E-14 4.00899E-13
 -1      1429 2.04031E+01 9.01066E-03 3.76384E-04-7.61109E-02 1.26096E-14 3.33487E-13
 -1      1430 2.05254E+01 1.85800E-02-3.08011E-03-1.85429E-01-3.45607E-14 3.80912E-13
 -1      1431 2.03320E+01 7.53414E-03 8.29219E-04-5.73504E-02 1.07120E-13 2.94555E-13
 -1      1432 2.02646E+01 6.56145E-03 3.70110E-04-5.38225E-02 1.16640E-13 4.86668E-13
 -1      1433 2.03611E+01 1.34707E-02-2.31040E-03-1.32455E-01 8.98474E-14 2.87720E-13
 -1      1434 2.02135E+01 5.52055E-03 6.57499E-04-4.00915E-02-7.73492E-15 5.21925E-13
 -1      1435 2.01668E+01 4.75276E-03 3.33570E-04-3.75341E-02-8.38338E-14 5.12871E-13
 -1      1436 2.02418E+01 9.72255E-03-1.72457E-03-9.35024E-02 1.55766E-13 2.99316E-13
 -1      1437 2.01305E+01 4.02225E-03 5.11383E-04-2.75408E-02-7.64516E-14 5.30937E-13
 -1      1438 2.00986E+01 3.41917E-03 2.86844E-04-2.56981E-02-1.20908E-13 4.29343E-13
 -1      1439 2.01564E+01 6.98159E-03-1.27953E-03-6.50185E-02-5.74389E-14 1.93670E-13
 -1      1440 2.00733E+01 2.90913E-03 3.92357E-04-1.84764E-02-1.00884E-13 3.87190E-13
 -1      1441 2.00522E+01 2.43693E-03 2.39650E-04-1.71599E-02-1.26135E-13 1.84082E-13
 -1      1442 2.00960E+01 4.97848E-03-9.42012E-04-4.43205E-02-1.65779E-13 1.87317E-13
 -1      1443 2.00349E+01 2.08344E-03 2.97805E-04-1.19900E-02-1.28054E-13 3.29526E-13
 -1      1444 2.00213E+01 1.71488E-03 1.96308E-04-1.10606E-02-7.19329E-14 7.17118E-14
 -1      1445 2.00543E+01 3.51515E-03-6.86698E-04-2.94018E-02-1.76092E-13 2.54356E-13
 -1      1446 2.00099E+01 1.47260E-03 2.23853E-04-7.40602E-03-8.35811E-14 1.75917E-13
 -1      1447 2.00017E+01 1.18614E-03 1.58409E-04-6.76051E-03-1.64515E-13 1.22347E-14
 -1      1448 2.00261E+01 2.44784E-03-4.94324E-04-1.87637E-02-1.18970E-13 3.09435E-13
 -1      1449 1.99944E+01 1.02281E-03 1.66619E-04-4.22013E-03-1.06053E-13 1.95439E-14
 -1      1450 1.99899E+01 8.01447E-04 1.26225E-04-3.78162E-03 7.07867E-15-8.64223E-15
 -1      1451 2.00076E+01 1.67230E-03-3.50211E-04-1.12855E-02-1.33470E-13 3.17545E-13
 -1      1452 1.99856E+01 6.94017E-04 1.22680E-04-2.05510E-03 5.71647E-15 5.88520E-14
 -1      1453 1.99835E+01 5.24232E-04 9.94205E-05-1.76620E-03-7.99903E-14-5.60945E-15
 -1      1454 1.99962E+01 1.11255E-03-2.43107E-04-6.12733E-03 8.46416E-15 3.46959E-13
 -1      1455 1.99812E+01 4.56149E-04 8.91903E-05-6.28378E-04-4.99009E-14 1.55761E-14
 -1      1456 1.99808E+01 3.27137E-04 7.74184E-05-4.46218E-04 9.58877E-14 1.71883E-13
 -1      1457 1.99896E+01 7.12702E-04-1.64336E-04-2.65890E-03-3.17920E-14 4.44289E-13
 -1      1458 1.99799E+01 2.86478E-04 6.38460E-05 2.71429E-04 6.48515E-14 1.77135E-13
 -1      1459 1.99805E+01 1.89535E-04 5.95714E-05 3.78744E-04-1.57540E-14 1.56367E-13
 -1      1460 1.99864E+01 4.31270E-04-1.07174E-04-4.07335E-04 9.65401E-14 4.13840E-13
 -1      1461 1.99804E+01 1.67700E-04 4.48108E-05 8.01810E-04-1.09535E-13 1.17540E-13
 -1      1462 1.99815E+01 9.57828E-05 4.52431E-05 8.57870E-04-1.60544E-13-8.76729E-14
 -1      1463 1.99854E+01 2.37183E-04-6.63879E-05 9.81073E-04-5.73273E-14 3.09339E-13
 -1      1464 1.99820E+01 8.65740E-05 3.06278E-05 1.07922E-03 1.31320E-13-2.46116E-14
 -1      1465 1.99835E+01 3.39701E-05 3.38422E-05 1.10128E-03 3.29518E-13 2.37143E-13
 -1      1466 1.99857E+01 1.07018E-04-3.78975E-05 1.76934E-03-1.02695E-14 2.50386E-13
 -1      1467 1.99843E+01 3.29375E-05 2.01445E-05 1.18873E-03 2.09757E-13 4.78266E-13
 -1      1468 1.99858E+01-4.99771E-06 2.48353E-05 1.18922E-03 1.17988E-13 7.31257E-13
 -1      1469 1.99870E+01 2.30327E-05-1.85238E-05 2.15114E-03 4.18206E-13 4.27043E-13
 -1      1470 1.99867E+01-1.04381E-06 1.24517E-05 1.19139E-03 1.86659E-13 8.03680E-13
 -1      1471 1.99882E+01-2.80970E-05 1.77519E-05 1.17901E-03 1.22308E-13 1.01132E-12
 -1      1472 1.99886E+01-2.82772E-05-5.78950E-06 2.26694E-03 2.76389E-13 5.79826E-13
 -1      1473 1.99892E+01-2.14558E-05 6.84227E-06 1.12964E-03-2.70008E-13 8.27055E-13
 -1      1474 1.99906E+01-4.07365E-05 1.21957E-05 1.11023E-03-3.23117E-13 3.27524E-13
 -1      1475 1.99905E+01-5.72748E-05 2.23882E-06 2.21626E-03-2.07350E-13 4.68039E-13
 -1      1476 1.99915E+01-3.31180E-05 2.79600E-06 1.03145E-03-2.40773E-13 4.60514E-13
 -1      1477 1.99928E+01-4.72192E-05 7.88433E-06 1.00858E-03-3.05886E-13 1.12680E-13
 -1      1478 1.99923E+01-7.20668E-05 7.08505E-06 2.06674E-03-3.10355E-13 2.76708E-13
 -1      1479 1.99937E+01-4.00132E-05 2.48879E-08 9.13123E-04-6.82451E-14 1.93723E-13
 -1      1480 1.99948E+01-5.11468E-05 4.75681E-06 8.88432E-04 3.40531E-14 1.13425E-13
 -1      1481 1.99941E+01-7.92923E-05 9.98702E-06 1.86076E-03-1.39235E-13 2.08828E-13
 -1      1482 1.99956E+01-4.56862E-05-1.38636E-06 7.81006E-04 1.34746E-13-2.17605E-14
 -1      1483 1.99965E+01-5.57443E-05 3.14937E-06 7.54332E-04 8.78018E-14 6.08826E-14
 -1      1484 1.99957E+01-8.48538E-05 1.20328E-05 1.61985E-03 3.23500E-14 8.53405E-14
 -1      1485 1.99971E+01-5.35301E-05-7.78727E-07 6.32496E-04 9.83220E-15 2.69387E-13
 -1      1486 1.99979E+01-6.38037E-05 3.75808E-06 6.01738E-04 1.39017E-15 2.15452E-13
 -1      1487 1.99970E+01-9.45239E-05 1.42548E-05 1.34751E-03 1.36329E-13-1.00268E-13
 -1      1488 1.99984E+01-6.62691E-05 2.74835E-06 4.57762E-04-8.25691E-14 2.48579E-13
 -1      1489 1.99989E+01-7.60543E-05 5.47903E-06 4.18849E-04-6.63193E-14 3.32491E-14
 -1      1490 1.99982E+01-1.13247E-04 1.73976E-05 1.03241E-03-7.23852E-14 1.92207E-13
 -1      1491 1.99993E+01-7.94289E-05 7.74663E-06 2.49579E-04-1.17928E-13 7.48000E-14
 -1      1492 1.99995E+01-9.38305E-05-6.64873E-06 1.96280E-04-9.28624E-14-1.44177E-14
 -1      1493 1.99990E+01-1.40749E-04 1.97337E-05 6.59717E-04-2.05739E-13 1.79466E-13
 -1      1494 1.99997E+01-7.87134E-05 4.61198E-07 6.16641E-05-5.22618E-14-1.50060E-13
 -1      1495 1.99997E+01-5.86580E-05-4.38291E-05 4.05190E-05 1.14816E-13-3.33056E-14
 -1      1496 1.99997E+01-7.07949E-05 7.91295E-06 6.05045E-05 2.55439E-13 1.12416E-13
 -1      1497 1.99995E+01-1.66341E-04 1.21570E-05 3.04373E-04-9.02441E-14 2.88847E-13
 -1      1498 2.16740E+01 6.58877E-02-1.44859E-01 3.71535E-01-1.66794E-13-5.85209E-13
 -1      1499 2.27635E+01 2.11528E-01-2.31050E-01 5.97556E-01-1.48770E-13-8.73843E-13
 -1      1500 2.29269E+01 8.50981E-01-9.20886E-02 1.83675E+00-3.01363E-13-4.23800E-13
 -1      1501 2.09527E+01 2.38806E-02-1.47655E-02 1.14951E-01-1.29494E-13-2.57037E-13
 -1      1502 2.12531E+01 1.01848E-01-5.84798E-02 1.59221E-01-1.18336E-13-4.71430E-13
 -1      1503 2.16958E+01 1.60326E-01-5.42955E-02 6.14569E-01-2.60895E-13-1.92561E-13
 -1      1504 2.06769E+01 3.92918E-03 1.10073E-02 3.09925E-02-8.17532E-14-6.59195E-15
 -1      1505 2.07614E+01 3.40912E-02 4.23256E-03 4.66761E-02-9.83224E-14-1.74267E-13
 -1      1506 2.10872E+01 4.00544E-02-1.15655E-02 2.03573E-01-1.99849E-13-1.43323E-14
 -1      1507 2.05345E+01-7.70446E-03 1.25956E-02 3.11504E-02-6.26897E-14 1.77197E-13
 -1      1508 2.05764E+01 1.77991E-03 1.31744E-02 2.96622E-02-6.96082E-14 6.18394E-14
 -1      1509 2.07994E+01-1.04758E-02-1.10027E-03 8.66254E-02-1.57084E-13 8.84570E-14
 -1      1510 2.03538E+01-1.53278E-02 1.12259E-02 7.74810E-02-4.01298E-14 3.01317E-13
 -1      1511 2.04372E+01-1.67742E-02 1.01607E-02 6.37643E-02-5.01660E-14 2.20815E-13
 -1      1512 2.06070E+01-2.98383E-02 4.18423E-03 1.12492E-01-1.15252E-13 1.97229E-13
 -1      1513 2.00376E+01-1.81289E-02 9.96798E-03 1.49898E-01-3.41834E-14 4.03746E-13
 -1      1514 2.02105E+01-2.74494E-02 7.06134E-03 1.28158E-01-3.38770E-14 3.28782E-13
 -1      1515 2.03793E+01-3.87447E-02 8.07564E-03 2.16038E-01-7.71353E-14 2.76523E-13
 -1      1516 1.95480E+01-1.47677E-02 7.44558E-03 2.25177E-01-2.57509E-14 4.92557E-13
 -1      1517 1.98268E+01-2.93095E-02 4.78708E-03 2.01270E-01-2.72950E-14 4.24737E-13
 -1      1518 2.00437E+01-3.67649E-02 1.01436E-02 3.51797E-01-7.36702E-14 2.78782E-13
 -1      1519 1.89139E+01-4.44079E-03 2.43536E-03 2.74906E-01-6.66567E-15 5.03098E-13
 -1      1520 1.92775E+01-2.03765E-02 2.27350E-03 2.56957E-01 1.15814E-15 5.00520E-13
 -1      1521 1.95847E+01-2.16952E-02 9.07087E-03 4.70453E-01-3.16635E-14 3.41416E-13
 -1      1522 1.82354E+01 1.12940E-02-4.84895E-03 2.70983E-01-3.22303E-14 5.36383E-13
 -1      1523 1.86232E+01-8.92903E-04-1.02479E-03 2.67621E-01-3.58436E-14 5.06553E-13
 -1      1524 1.90453E+01 5.75967E-03 4.08558E-03 5.18086E-01-4.09746E-14 3.99103E-13
 -1      1525 1.76654E+01 2.75984E-02-1.23516E-02 1.97735E-01-3.11756E-14 6.51371E-13
 -1      1526 1.79880E+01 2.43260E-02-4.65573E-03 2.14307E-01-2.80245E-14 5.79103E-13
 -1      1527 1.85230E+01 3.91301E-02-3.96457E-03 4.51653E-01-7.44231E-14 4.17619E-13
 -1      1528 1.73633E+01 3.77861E-02-1.69014E-02 6.38564E-02 1.09288E-16 6.47847E-13
 -1      1529 1.75298E+01 4.63582E-02-7.28411E-03 9.86007E-02-9.71098E-15 6.32452E-13
 -1      1530 1.81453E+01 6.68656E-02-1.23564E-02 2.61585E-01-2.14915E-14 5.26767E-13
 -1      1531 1.74316E+01 3.70265E-02-1.60700E-02-9.62128E-02 3.89012E-14 6.17164E-13
 -1      1532 1.73849E+01 5.62409E-02-7.51611E-03-5.26630E-02 2.37796E-14 6.37637E-13
 -1      1533 1.80241E+01 7.75447E-02-1.75275E-02-1.42359E-02 1.71217E-14 4.60439E-13
 -1      1534 1.78700E+01 2.55018E-02-1.00122E-02-2.36015E-01-1.71720E-14 6.83825E-13
 -1      1535 1.76123E+01 5.01554E-02-4.95075E-03-1.96589E-01-1.74262E-14 6.78875E-13
 -1      1536 1.82087E+01 6.61885E-02-1.73418E-02-3.00480E-01-3.22624E-14 5.35126E-13
 -1      1537 1.85755E+01 8.30690E-03-1.39746E-03-3.18470E-01 6.88282E-14 6.07514E-13
 -1      1538 1.81670E+01 3.15528E-02-6.46123E-04-2.93478E-01 2.31590E-14 6.67168E-13
 -1      1539 1.86620E+01 3.75360E-02-1.23321E-02-5.17016E-01 1.91834E-14 5.60392E-13
 -1      1540 1.93865E+01-7.86532E-03 6.29084E-03-3.30836E-01-2.45804E-14 5.36134E-13
 -1      1541 1.89199E+01 8.58714E-03 3.55612E-03-3.23900E-01 1.75680E-14 5.65124E-13
 -1      1542 1.92775E+01 3.08614E-03-5.12099E-03-6.14202E-01 4.44057E-14 5.49449E-13
 -1      1543 2.01452E+01-1.83715E-02 1.07223E-02-2.84945E-01-1.70638E-14 6.04621E-13
 -1      1544 1.97103E+01-1.07860E-02 6.13555E-03-2.93151E-01-4.09538E-14 5.42143E-13
 -1      1545 1.99228E+01-2.54100E-02 1.40722E-03-5.88724E-01-3.98501E-14 5.04538E-13
 -1      1546 2.07423E+01-2.20637E-02 1.15207E-02-2.06050E-01 1.73511E-14 5.52218E-13
 -1      1547 2.04010E+01-2.22786E-02 6.61114E-03-2.23060E-01 7.32053E-16 6.04621E-13
 -1      1548 2.04853E+01-4.13335E-02 5.56715E-03-4.74235E-01 1.18764E-14 4.66352E-13
 -1      1549 2.11321E+01-2.04268E-02 9.73850E-03-1.19771E-01-2.48686E-14 5.00960E-13
 -1      1550 2.09097E+01-2.56920E-02 5.46610E-03-1.39213E-01 2.26854E-14 5.33240E-13
 -1      1551 2.08979E+01-4.43909E-02 7.14751E-03-3.18634E-01 1.63801E-14 5.64811E-13
 -1      1552 2.13215E+01-1.58927E-02 6.81388E-03-4.41018E-02-4.87956E-14 6.15381E-13
 -1      1553 2.12133E+01-2.32955E-02 3.58781E-03-6.15286E-02-8.67080E-14 5.18092E-13
 -1      1554 2.11415E+01-3.84156E-02 6.80404E-03-1.63824E-01-8.35365E-14 5.46576E-13
 -1      1555 2.13487E+01-1.05773E-02 3.89061E-03 1.23556E-02 3.28329E-14 6.87686E-13
 -1      1556 2.13322E+01-1.79417E-02 1.73643E-03-8.93825E-04-4.18639E-14 6.73194E-13
 -1      1557 2.12324E+01-2.82141E-02 5.42877E-03-3.59710E-02-9.03357E-14 5.10007E-13
 -1      1558 2.12631E+01-5.80486E-03 1.57209E-03 4.83461E-02 1.72401E-14 6.29360E-13
 -1      1559 2.13098E+01-1.19116E-02 3.36268E-04 3.96756E-02 2.78490E-14 6.57505E-13
 -1      1560 2.12057E+01-1.75761E-02 3.74435E-03 5.46469E-02 2.78107E-14 5.16265E-13
 -1      1561 2.11114E+01-2.15084E-03 2.19202E-05 6.68260E-02 4.50829E-14 5.35725E-13
 -1      1562 2.11946E+01-6.56743E-03-5.09631E-04 6.21339E-02 3.37024E-14 6.57266E-13
 -1      1563 2.11009E+01-8.64284E-03 2.19027E-03 1.08976E-01 3.41231E-14 5.19839E-13
 -1      1564 2.09309E+01 3.07701E-04-8.48712E-04 7.23410E-02-7.57911E-14 5.93612E-13
 -1      1565 2.10295E+01-2.47976E-03-8.85590E-04 7.06391E-02-5.95545E-14 4.98134E-13
 -1      1566 2.09533E+01-2.17294E-03 9.62356E-04 1.33778E-01-5.87204E-16 5.17339E-13
 -1      1567 2.07480E+01 1.74695E-03-1.22142E-03 6.93946E-02-3.34405E-14 8.17381E-13
 -1      1568 2.08473E+01 2.91167E-04-9.42712E-04 6.96854E-02-9.76065E-14 6.52483E-13
 -1      1569 2.07905E+01 1.92525E-03 9.85595E-05 1.37544E-01-1.24493E-13 5.04675E-13
 -1      1570 2.05789E+01 2.42626E-03-1.27757E-03 6.16839E-02 5.10941E-14 8.16995E-13
 -1      1571 2.06700E+01 1.94047E-03-8.23810E-04 6.31378E-02 3.38927E-14 8.81739E-13
 -1      1572 2.06314E+01 4.12540E-03-4.43614E-04 1.28117E-01-5.04754E-14 5.26857E-13
 -1      1573 2.04321E+01 2.59573E-03-1.15997E-03 5.18957E-02 3.04962E-14 7.46332E-13
 -1      1574 2.05106E+01 2.74688E-03-6.33709E-04 5.39011E-02 5.55583E-14 8.27783E-13
 -1      1575 2.04871E+01 4.98404E-03-7.35909E-04 1.11696E-01 9.09022E-14 6.28252E-13
 -1      1576 2.03107E+01 2.45794E-03-9.66209E-04 4.17932E-02 1.23644E-13 5.12228E-13
 -1      1577 2.03752E+01 2.97946E-03-4.36743E-04 4.39411E-02 4.24645E-14 6.88490E-13
 -1      1578 2.03633E+01 4.99234E-03-8.51330E-04 9.26566E-02 1.25054E-13 6.32711E-13
 -1      1579 2.02142E+01 2.16023E-03-7.55802E-04 3.24119E-02 3.22985E-14 3.54878E-13
 -1      1580 2.02650E+01 2.85828E-03-2.65605E-04 3.44547E-02 5.74244E-14 4.55072E-13
 -1      1581 2.02616E+01 4.52532E-03-8.51853E-04 7.37945E-02 1.36778E-13 4.86620E-13
 -1      1582 2.01401E+01 1.80097E-03-5.60881E-04 2.42682E-02-5.79459E-14 3.32240E-13
 -1      1583 2.01786E+01 2.54581E-03-1.32292E-04 2.60752E-02-5.46535E-14 2.90071E-13
 -1      1584 2.01809E+01 3.84207E-03-7.84951E-04 5.66895E-02 2.43440E-14 4.70454E-13
 -1      1585 2.00851E+01 1.44050E-03-3.95792E-04 1.75367E-02-8.39121E-14 5.40832E-13
 -1      1586 2.01134E+01 2.15267E-03-3.70910E-05 1.90558E-02-5.10528E-14 3.94344E-13
 -1      1587 2.01190E+01 3.10655E-03-6.84367E-04 4.20733E-02-1.40552E-13 4.66105E-13
 -1      1588 2.00457E+01 1.11204E-03-2.64326E-04 1.21868E-02-1.28854E-14 6.59315E-13
 -1      1589 2.00656E+01 1.74851E-03 2.52628E-05 1.34142E-02-8.94558E-14 5.51001E-13
 -1      1590 2.00731E+01 2.41277E-03-5.72511E-04 3.01315E-02-8.86484E-14 6.57826E-13
 -1      1591 2.00185E+01 8.30750E-04-1.64620E-04 8.07768E-03 6.26842E-14 6.85871E-13
 -1      1592 2.00320E+01 1.37316E-03 6.18827E-05 9.03669E-03 3.13573E-14 6.83008E-13
 -1      1593 2.00401E+01 1.80718E-03-4.63192E-04 2.07285E-02-4.93800E-15 5.58908E-13
 -1      1594 2.00007E+01 6.00541E-04-9.22342E-05 5.02102E-03 6.39249E-14 6.71259E-13
 -1      1595 2.00093E+01 1.04616E-03 7.97572E-05 5.74800E-03 1.11058E-14 7.33543E-13
 -1      1596 2.00173E+01 1.30619E-03-3.64082E-04 1.35640E-02 3.97930E-14 5.98166E-13
 -1      1597 1.99898E+01 4.18918E-04-4.19509E-05 2.81988E-03 2.82542E-14 5.62156E-13
 -1      1598 1.99949E+01 7.74086E-04 8.48638E-05 3.35499E-03 1.58823E-13 6.92004E-13
 -1      1599 2.00022E+01 9.08611E-04-2.78706E-04 8.27462E-03 1.48692E-13 4.99372E-13
 -1      1600 1.99839E+01 2.80162E-04-8.73947E-06 1.29016E-03 1.47688E-14 4.22902E-13
 -1      1601 1.99864E+01 5.55785E-04 8.19010E-05 1.67216E-03 1.41856E-14 4.08925E-13
 -1      1602 1.99929E+01 6.04095E-04-2.07949E-04 4.49498E-03 1.35889E-13 4.46437E-13
 -1      1603 1.99813E+01 1.77342E-04 1.17936E-05 2.71157E-04 3.49045E-14 3.26542E-13
 -1      1604 1.99822E+01 3.86012E-04 7.43364E-05 5.34688E-04-2.13882E-14 2.75620E-13
 -1      1605 1.99877E+01 3.78426E-04-1.51139E-04 1.89081E-03 4.00484E-14 4.73122E-13
 -1      1606 1.99810E+01 1.03494E-04 2.32543E-05-3.70901E-04 5.57291E-15 2.53940E-13
 -1      1607 1.99808E+01 2.57730E-04 6.45906E-05-1.96424E-04 2.81436E-14 3.39848E-13
 -1      1608 1.99854E+01 2.16681E-04-1.06781E-04 1.74417E-04 2.24297E-14 3.65733E-13
 -1      1609 1.99822E+01 5.22490E-05 2.84721E-05-7.43282E-04 4.07794E-14 1.39548E-13
 -1      1610 1.99813E+01 1.63523E-04 5.42580E-05-6.33844E-04 4.84606E-14 1.69722E-13
 -1      1611 1.99850E+01 1.04944E-04-7.30386E-05-8.91221E-04 3.61791E-14 2.03209E-13
 -1      1612 1.99841E+01 1.81025E-05 2.95882E-05-9.29294E-04-6.31666E-14 2.37132E-13
 -1      1613 1.99828E+01 9.63831E-05 4.43159E-05-8.65908E-04-3.87196E-14 9.24526E-14
 -1      1614 1.99858E+01 3.10878E-05-4.80290E-05-1.49460E-03-1.18628E-14 1.29795E-14
 -1      1615 1.99864E+01-3.52494E-06 2.81755E-05-9.91655E-04 2.39941E-14 3.69164E-13
 -1      1616 1.99850E+01 5.00836E-05 3.53014E-05-9.59759E-04-8.04898E-14 1.36375E-13
 -1      1617 1.99872E+01-1.49969E-05-2.99849E-05-1.78097E-03-9.88708E-14 1.26107E-13
 -1      1618 1.99888E+01-1.63576E-05 2.53639E-05-9.75968E-04 1.65022E-13 1.24492E-13
 -1      1619 1.99874E+01 1.92893E-05 2.74535E-05-9.64759E-04 1.70173E-13 4.41664E-13
 -1      1620 1.99891E+01-4.15015E-05-1.73320E-05-1.85869E-03 1.47510E-13 5.80505E-14
 -1      1621 1.99911E+01-2.33992E-05 2.19707E-05-9.13845E-04 1.03846E-13-9.26829E-14
 -1      1622 1.99898E+01-5.01695E-07 2.08253E-05-9.15665E-04 1.12520E-13 1.12891E-13
 -1      1623 1.99910E+01-5.49778E-05-8.70446E-06-1.80558E-03 1.93366E-13-5.20948E-14
 -1      1624 1.99933E+01-2.71057E-05 1.86593E-05-8.25433E-04 1.54148E-13-5.16024E-13
 -1      1625 1.99921E+01-1.31283E-05 1.53859E-05-8.35286E-04 1.22630E-13-2.99817E-13
 -1      1626 1.99929E+01-6.07149E-05-2.91030E-06-1.67435E-03 2.74550E-13-2.64532E-13
 -1      1627 1.99952E+01-2.95778E-05 1.61767E-05-7.21173E-04 5.65282E-14-8.68368E-13
 -1      1628 1.99941E+01-2.20258E-05 1.11622E-05-7.36454E-04 1.26801E-13-7.03204E-13
 -1      1629 1.99947E+01-6.32036E-05 1.16039E-06-1.49697E-03 2.81164E-13-5.65306E-13
 -1      1630 1.99969E+01-3.27002E-05 1.56232E-05-6.02804E-04-1.00904E-13-9.19676E-13
 -1      1631 1.99960E+01-3.05213E-05 8.44299E-06-6.23264E-04-1.12590E-13-9.82626E-13
 -1      1632 1.99962E+01-6.65560E-05 4.71597E-06-1.28758E-03-8.40288E-15-8.19030E-13
 -1      1633 1.99982E+01-3.80941E-05 1.80812E-05-4.64155E-04 1.15303E-13-7.81178E-13
 -1      1634 1.99975E+01-4.18510E-05 7.91209E-06-4.91940E-04 2.47422E-14-7.57385E-13
 -1      1635 1.99976E+01-7.47733E-05 9.12428E-06-1.04451E-03-5.90806E-14-7.61639E-13
 -1      1636 1.99992E+01-4.60830E-05 2.00392E-05-2.92225E-04 5.79648E-16-1.15765E-12
 -1      1637 1.99987E+01-5.88433E-05 9.21447E-06-3.32985E-04 9.55620E-14-9.26647E-13
 -1      1638 1.99986E+01-9.15422E-05 1.43036E-05-7.53493E-04 1.98873E-13-7.97647E-13
 -1      1639 1.99997E+01-5.44731E-05-1.09257E-06-9.36423E-05-5.84405E-14-1.14756E-12
 -1      1640 1.99995E+01-7.37459E-05 6.33441E-06-1.43767E-04-2.35644E-14-1.12863E-12
 -1      1641 1.99993E+01-1.14997E-04 1.46215E-05-4.03687E-04 1.93002E-14-7.22142E-13
 -1      1642 1.99998E+01-2.80737E-05-9.35000E-06 2.48621E-06-6.95841E-13-7.98788E-13
 -1      1643 1.99997E+01-4.71785E-04 1.08449E-05-2.41874E-04-1.00781E-12 1.53889E-13
 -1      1644 1.99997E+01-2.37114E-04-3.81223E-06-1.90722E-04-1.07877E-12 5.14512E-14
 -1      1645 1.99998E+01-1.26516E-03 5.84315E-06-4.18319E-04-5.40399E-13 3.65659E-13
 -1      1646 1.99997E+01-7.99676E-04 6.82705E-06-3.84162E-04-9.96237E-13 2.11881E-13
 -1      1647 1.99997E+01-7.48705E-04 1.44288E-05-6.16345E-04-4.76668E-13 4.13082E-13
 -1      1648 1.99998E+01-2.28109E-03 8.95337E-07-5.06904E-04-6.02294E-13 2.03467E-14
 -1      1649 1.99998E+01-1.68922E-03 4.44549E-06-4.96736E-04-5.98298E-13 2.41019E-13
 -1      1650 1.99997E+01-1.49386E-03 1.00508E-05-8.86691E-04-3.87175E-13 3.34059E-13
 -1      1651 1.99998E+01-3.34959E-03-1.50939E-06-5.09417E-04-4.47766E-13-6.21987E-14
 -1      1652 1.99998E+01-2.74053E-03 1.08925E-06-5.15878E-04-6.91185E-13 2.52009E-13
 -1      1653 1.99998E+01-2.37256E-03 5.49256E-07-9.87183E-04-6.62814E-13 7.49473E-14
 -1      1654 1.99998E+01-4.30331E-03-2.11087E-06-4.41443E-04-6.32994E-13-2.58932E-13
 -1      1655 1.99998E+01-3.77472E-03-1.80742E-07-4.59952E-04-3.50941E-13-4.29713E-13
 -1      1656 1.99998E+01-3.24992E-03-7.42707E-06-9.35654E-04-4.90675E-13-2.11622E-13
 -1      1657 1.99999E+01-5.05260E-03-1.99629E-06-3.18212E-04-5.58723E-13 2.24364E-13
 -1      1658 1.99998E+01-4.65560E-03-7.80838E-07-3.46054E-04-6.15275E-13 6.36370E-14
 -1      1659 1.99999E+01-4.01892E-03-1.31876E-05-7.60437E-04-3.36717E-13-1.26359E-13
 -1      1660 1.99999E+01-5.49097E-03-1.58792E-06-1.59063E-04-6.47694E-13-5.72809E-14
 -1      1661 1.99999E+01-5.28089E-03-9.74563E-07-1.92218E-04-6.80844E-13 3.04529E-13
 -1      1662 1.99999E+01-4.59178E-03-1.71472E-05-4.93111E-04-4.23577E-13 1.09147E-13
 -1      1663 1.99999E+01-5.57033E-03-1.22288E-06 1.72832E-05-1.91747E-13 3.80111E-13
 -1      1664 1.99999E+01-5.57023E-03-1.23447E-06-1.76856E-05-5.67648E-13 2.31734E-13
 -1      1665 1.99999E+01-4.89537E-03-1.91238E-05-1.70812E-04-2.75451E-13 1.98985E-13
 -1      1666 1.99999E+01-5.28142E-03-9.54884E-07 1.92184E-04-9.05789E-14-8.12936E-14
 -1      1667 1.99999E+01-5.49172E-03-1.62391E-06 1.58913E-04-2.08034E-13 2.74509E-13
 -1      1668 1.99999E+01-4.89612E-03-1.91646E-05 1.70222E-04-3.12705E-13 3.84563E-13
 -1      1669 1.99998E+01-4.65519E-03-6.94037E-07 3.46839E-04-2.90358E-13-2.76595E-13
 -1      1670 1.99999E+01-5.05331E-03-2.13213E-06 3.18877E-04-4.23419E-14-2.65743E-13
 -1      1671 1.99999E+01-4.59355E-03-1.72139E-05 4.93682E-04-8.97365E-14-1.36263E-13
 -1      1672 1.99998E+01-3.77945E-03-2.86974E-07 4.60610E-04-5.09634E-13-1.22496E-13
 -1      1673 1.99998E+01-4.30964E-03-2.24419E-06 4.41987E-04-3.18321E-13-2.93497E-13
 -1      1674 1.99999E+01-4.02628E-03-1.34277E-05 7.61149E-04-1.45399E-13-4.05158E-13
 -1      1675 1.99998E+01-2.73339E-03 1.17135E-06 5.18031E-04-6.85624E-13-3.22020E-14
 -1      1676 1.99998E+01-3.34538E-03-1.53184E-06 5.11634E-04-5.05471E-13-3.73236E-15
 -1      1677 1.99998E+01-3.25611E-03-7.40913E-06 9.38416E-04-3.14901E-13-8.72561E-14
 -1      1678 1.99998E+01-1.67933E-03 4.27617E-06 4.97834E-04-5.48471E-13 1.88519E-13
 -1      1679 1.99998E+01-2.27206E-03 1.02366E-06 5.08571E-04-7.42715E-13 1.53707E-13
 -1      1680 1.99998E+01-2.36865E-03 5.82148E-07 9.90913E-04-2.60290E-13-1.18805E-14
 -1      1681 1.99997E+01-7.90358E-04 6.35929E-06 3.81271E-04-2.46578E-13 2.33321E-13
 -1      1682 1.99998E+01-1.25285E-03 6.87068E-06 4.18339E-04-5.49053E-13 2.37013E-13
 -1      1683 1.99997E+01-1.48467E-03 1.07421E-05 8.88197E-04-3.55019E-13 2.98385E-13
 -1      1684 1.99997E+01-2.65957E-04-7.79996E-08 2.02763E-04 4.24135E-14 1.97356E-13
 -1      1685 1.99997E+01-5.18527E-04 1.37843E-05 2.54955E-04-2.59105E-13 2.29611E-13
 -1      1686 1.99997E+01-8.10500E-04 1.74936E-05 6.34148E-04-4.23520E-13 2.80015E-13
 -1      1687 1.99997E+01-3.50415E-04 6.09775E-06 3.20603E-04-2.34427E-13 2.51169E-13
 -1      1688-5.10688E-01-1.46439E+01-1.59313E+00-5.47768E-01 4.03122E-13 3.49720E-15
 -1      1689-5.89342E-01-1.71815E+01-1.83114E+00 7.53274E-01 5.80702E-13-1.24900E-15
 -1      1690 1.78774E+00-7.64550E+00-1.07629E+00 1.16106E+00-2.07723E-13-5.73958E-13
 -1      1691 9.16779E-01-1.29755E+01-1.60347E+00 4.78734E-01 3.34177E-13-2.29892E-13
 -1      1692 7.29785E+00-9.66494E-02-4.66142E-01 4.99553E+00-8.35110E-13-9.23706E-13
 -1      1693 4.27236E+00-5.56951E+00-1.19574E+00 2.18957E+00-3.62821E-13-5.92137E-13
 -1      1694 1.70179E+01 5.50934E+00 2.50944E-01 9.99287E+00-1.07869E-12-1.23235E-12
 -1      1695 1.08942E+01 2.03643E+00-5.91167E-01 6.33958E+00-1.03495E-12-9.68448E-13
 -1      1696 3.09271E+01 7.04466E+00 9.37149E-01 1.31576E+01-9.10383E-13-1.24789E-12
 -1      1697 2.20011E+01 6.61343E+00 1.28376E-01 1.09331E+01-1.13554E-12-1.21370E-12
 -1      1698 4.47995E+01 5.51157E+00 1.44492E+00 1.11083E+01-5.37473E-13-7.81930E-13
 -1      1699 3.61511E+01 6.94845E+00 8.22785E-01 1.22021E+01-7.61002E-13-1.04095E-12
 -1      1700 5.43374E+01 3.90987E+00 1.81476E+00 5.70325E+00-2.45914E-13-2.85216E-13
 -1      1701 4.89449E+01 5.42381E+00 1.45652E+00 9.95498E+00-4.41390E-13-6.49480E-13
 -1      1702 5.53407E+01 3.78881E+00 1.71084E+00-2.53551E+00-3.53578E-13 4.21274E-13
 -1      1703 5.53665E+01 3.85225E+00 1.75260E+00 3.07560E+00-2.78277E-13-7.07490E-14
 -1      1704 4.82643E+01 5.44908E+00 1.37834E+00-9.42812E+00-7.12437E-13 1.16829E-12
 -1      1705 5.36533E+01 3.97622E+00 1.70309E+00-5.06378E+00-4.99989E-13 6.33549E-13
 -1      1706 3.60456E+01 7.23656E+00 8.79448E-01-1.28344E+01-1.15136E-12 1.68199E-12
 -1      1707 4.48642E+01 5.63898E+00 1.49326E+00-1.16990E+01-7.95253E-13 1.41465E-12
 -1      1708 2.24902E+01 6.53388E+00 1.54745E-01-1.09717E+01-1.63913E-12 1.80678E-12
 -1      1709 3.09696E+01 7.01242E+00 9.56387E-01-1.30873E+01-1.33049E-12 1.78657E-12
 -1      1710 1.15022E+01 2.32306E+00-5.71995E-01-6.59514E+00-1.83009E-12 1.57396E-12
 -1      1711 1.76416E+01 5.52024E+00 2.56361E-01-1.01249E+01-1.71219E-12 1.78479E-12
 -1      1712 4.39199E+00-4.84861E+00-1.22763E+00-2.24161E+00-1.77591E-12 1.11233E-12
 -1      1713 7.60978E+00 4.63353E-01-4.74911E-01-5.20089E+00-1.85585E-12 1.48737E-12
 -1      1714 8.70969E-01-1.25873E+01-1.71194E+00-5.05742E-02-1.50080E-12 6.11997E-13
 -1      1715 1.80731E+00-7.09076E+00-1.14328E+00-9.73754E-01-1.72395E-12 9.00835E-13
 -1      1716-5.01092E-01-1.74194E+01-1.95892E+00-3.53607E-01-7.60392E-13 3.86469E-13
 -1      1717-4.32847E-01-1.43741E+01-1.67035E+00 7.57510E-01-1.29741E-12 5.47867E-13
 -1      1718-9.09301E-01-1.68348E+01-1.90793E+00-1.59646E+00 1.38833E-13 3.37758E-13
 -1      1719-7.79474E-01-1.79140E+01-1.97219E+00 5.21727E-02-4.99080E-13 3.04951E-13
 -1      1720 4.46295E-01-1.08819E+01-1.50892E+00-7.15613E-01 9.87876E-13 7.29486E-13
 -1      1721 3.67525E-02-1.54675E+01-1.91417E+00-7.74934E-01 4.10338E-13 4.89567E-13
 -1      1722 4.65607E+00-3.60028E+00-1.00103E+00 2.48184E+00 1.52922E-12 1.31595E-12
 -1      1723 2.48313E+00-9.04090E+00-1.64524E+00 2.72313E-01 1.16740E-12 8.93952E-13
 -1      1724 1.37841E+01 2.73831E+00-2.56317E-01 7.71118E+00 1.74794E-12 1.92657E-12
 -1      1725 8.24213E+00-1.66752E+00-1.13588E+00 3.91705E+00 1.61737E-12 1.50024E-12
 -1      1726 2.94502E+01 5.33055E+00 7.13206E-01 1.17497E+01 1.52767E-12 2.20202E-12
 -1      1727 1.97886E+01 3.64040E+00-3.31163E-01 8.56479E+00 1.64091E-12 2.00107E-12
 -1      1728 4.58353E+01 5.34124E+00 1.68612E+00 1.16304E+01 1.04600E-12 2.17160E-12
 -1      1729 3.52849E+01 6.29397E+00 6.99122E-01 1.18109E+01 1.43513E-12 2.27729E-12
 -1      1730 5.80043E+01 3.92106E+00 2.34501E+00 6.18933E+00 5.24192E-13 1.82820E-12
 -1      1731 5.07202E+01 5.50230E+00 1.72771E+00 1.04221E+01 8.89233E-13 2.14528E-12
 -1      1732 6.00976E+01 3.71290E+00 2.32781E+00-2.30075E+00 2.63123E-13 1.16376E-12
 -1      1733 5.98299E+01 3.87797E+00 2.34678E+00 3.72941E+00 3.51719E-13 1.60133E-12
 -1      1734 5.10699E+01 5.18517E+00 1.66609E+00-8.98442E+00 2.86729E-13 3.82805E-13
 -1      1735 5.77054E+01 3.83817E+00 2.21524E+00-4.46952E+00 1.90348E-13 9.40803E-13
 -1      1736 3.71117E+01 6.28826E+00 8.45766E-01-1.19852E+01 5.21250E-13-4.56080E-13
 -1      1737 4.71755E+01 5.05083E+00 1.72121E+00-1.12043E+01 3.41671E-13 1.00586E-13
 -1      1738 2.17779E+01 4.69450E+00-1.51233E-01-9.52527E+00 5.41345E-13-6.47482E-13
 -1      1739 3.13890E+01 5.77344E+00 8.67982E-01-1.22344E+01 4.91829E-13-7.29639E-13
 -1      1740 9.56333E+00-7.27495E-01-1.03856E+00-4.46764E+00 5.48228E-13-4.52416E-13
 -1      1741 1.61085E+01 3.45692E+00-7.92162E-02-8.51711E+00 5.44675E-13-6.87228E-13
 -1      1742 2.93100E+00-8.25059E+00-1.58829E+00-4.51796E-01 4.25771E-13-2.80220E-13
 -1      1743 5.54494E+00-2.66822E+00-8.93582E-01-3.01793E+00 4.91385E-13-3.50830E-13
 -1      1744 2.25453E-01-1.47711E+01-1.82560E+00 8.57830E-01 6.58140E-13 1.44607E-14
 -1      1745 7.33345E-01-1.01057E+01-1.42770E+00 5.92795E-01 4.51750E-13-1.32144E-13
 -1      1746-6.85802E-01-1.71623E+01-1.79656E+00 1.14530E-01 5.98036E-13-3.87468E-14
 -1      1747-7.95892E-01-1.56277E+01-1.70346E+00 1.51226E+00 6.42097E-13 1.46272E-14
 -1      1748 1.41814E+01-2.74833E+00-3.37610E-01 6.86409E+00-2.96208E-13-8.03024E-13
 -1      1749-1.44776E+00-1.16000E+01-1.29457E+00 7.23560E-01 1.78593E-13-1.00087E-13
 -1      1750 1.99997E+01-8.24803E-05 5.89026E-06-8.79344E-05-9.07702E-13-5.43885E-13
 -1      1751 1.99996E+01-2.92164E-04 1.61145E-06-3.20991E-04-3.48259E-13-3.54730E-13
 -1      1752 8.34858E-01-1.01199E+01-1.10990E+00 3.17619E+00 1.52878E-13-3.98681E-13
 -1      1753 6.40635E+00-6.95986E+00-7.76014E-01 5.22541E+00 4.76286E-14-7.53064E-13
 -1      1754 2.40325E+01 1.54204E+00 2.81354E-01 8.09410E+00-5.48117E-13-6.93223E-13
 -1      1755 3.44387E+01 4.50105E+00 8.42754E-01 7.42099E+00-6.35103E-13-4.49418E-13
 -1      1756 4.26923E+01 6.40945E+00 1.21380E+00 5.18017E+00-5.39541E-13-1.93845E-13
 -1      1757 4.76918E+01 7.43810E+00 1.52404E+00 2.18659E+00-4.80838E-13 5.65381E-14
 -1      1758 4.68686E+01 7.69330E+00 1.44408E+00-1.63546E+00-7.19924E-13 4.44450E-13
 -1      1759 4.26799E+01 6.53361E+00 1.25966E+00-5.34536E+00-8.57009E-13 7.20535E-13
 -1      1760 3.45172E+01 4.54220E+00 8.39008E-01-7.82801E+00-1.02959E-12 1.05715E-12
 -1      1761 2.44294E+01 1.55972E+00 2.79312E-01-8.03912E+00-1.10623E-12 1.14375E-12
 -1      1762 1.47291E+01-2.32784E+00-2.89666E-01-6.91263E+00-1.12887E-12 1.10056E-12
 -1      1763 6.64009E+00-6.59793E+00-8.01199E-01-5.00574E+00-1.03706E-12 8.73343E-13
 -1      1764 1.08859E+00-1.03390E+01-1.20288E+00-2.90461E+00-7.64611E-13 6.97498E-13
 -1      1765-1.45550E+00-1.22906E+01-1.42272E+00-9.30296E-01-3.23686E-13 6.90392E-13
 -1      1766-3.77620E-01-1.15803E+01-1.35088E+00 1.30458E+00 1.76081E-13 7.74936E-13
 -1      1767 4.15678E+00-8.96924E+00-1.10735E+00 3.47136E+00 5.97522E-13 9.46687E-13
 -1      1768 1.16820E+01-5.26639E+00-6.86727E-01 5.46282E+00 8.80185E-13 1.28048E-12
 -1      1769 2.27102E+01-1.50063E+00-1.52256E-02 6.76747E+00 9.75664E-13 1.44140E-12
 -1      1770 3.45065E+01 2.11104E+00 6.66997E-01 6.21130E+00 1.01796E-12 1.45350E-12
 -1      1771 4.46620E+01 5.52879E+00 1.39840E+00 4.80345E+00 9.01654E-13 1.47504E-12
 -1      1772 5.09968E+01 7.25965E+00 1.90421E+00 2.15026E+00 6.06959E-13 1.31301E-12
 -1      1773 5.03356E+01 7.45901E+00 1.80772E+00-1.00358E+00 4.90386E-13 8.99059E-13
 -1      1774 4.51008E+01 5.76720E+00 1.44106E+00-4.11337E+00 5.23886E-13 5.34128E-13
 -1      1775 3.59050E+01 2.90458E+00 8.21625E-01-6.49449E+00 4.15779E-13-4.54081E-14
 -1      1776 2.41144E+01-6.92433E-01 5.18563E-02-6.81511E+00 2.81997E-13-3.37175E-13
 -1      1777 1.30357E+01-4.83382E+00-6.28236E-01-5.52291E+00 2.19380E-13-3.13083E-13
 -1      1778 4.89641E+00-8.75547E+00-1.08718E+00-3.55873E+00 2.00617E-13-7.77642E-14
 -1      1779 2.68558E-02-1.09332E+01-1.25180E+00-1.60161E+00 2.37255E-13 1.11799E-13
 -1      1780 2.46597E+01 1.96561E+00-2.49361E-02-2.16241E+00 2.30860E-13-1.01810E-12
 -1      1781 2.01299E+01 4.00336E+00-4.42298E-02-1.10824E+00 3.59443E-13 2.98934E-13
 -1      1782 2.08293E+01 3.82136E+00-2.70079E-02-1.37719E+00 3.83591E-13 1.96079E-13
 -1      1783 2.15644E+01 3.30498E+00-5.11722E-02-1.55121E+00 3.69947E-13 6.31578E-14
 -1      1784 2.21966E+01 2.88385E+00-1.20245E-01-1.86517E+00 3.80144E-13-1.30611E-13
 -1      1785 2.14417E+01 2.93621E+00 3.91718E-03-1.09719E+00 4.00639E-13 1.18388E-13
 -1      1786 1.81289E+01 4.67894E+00-2.08610E-02-6.87101E-01 2.50979E-13 5.00601E-13
 -1      1787 1.85113E+01 4.64999E+00-8.65184E-03-7.72693E-01 2.84790E-13 4.60642E-13
 -1      1788 1.76311E+01 4.77422E+00-1.22848E-02-6.34554E-01 1.94785E-13 5.53463E-13
 -1      1789 1.78371E+01 4.77544E+00-9.21007E-03-6.83067E-01 2.19863E-13 5.27956E-13
 -1      1790 1.80465E+01 4.47884E+00-4.60640E-04-6.37037E-01 2.52983E-13 5.02490E-13
 -1      1791 1.74838E+01 4.75100E+00-6.14109E-03-5.95133E-01 1.48602E-13 5.79526E-13
 -1      1792 1.75155E+01 4.77316E+00-1.10930E-02-6.41300E-01 1.71902E-13 5.66117E-13
 -1      1793 1.76193E+01 4.55675E+00-1.14820E-03-6.45016E-01 2.05797E-13 5.55955E-13
 -1      1794 1.76353E+01 4.64408E+00-2.83425E-03-5.02249E-01 1.09952E-13 6.05011E-13
 -1      1795 1.75247E+01 4.67692E+00-1.33527E-02-5.75117E-01 1.30708E-13 5.86178E-13
 -1      1796 1.75604E+01 4.48214E+00-3.66285E-03-6.31434E-01 1.54350E-13 5.88045E-13
 -1      1797 1.80005E+01 4.49318E+00-2.44714E-03-3.12826E-01 7.29109E-14 6.14911E-13
 -1      1798 1.77937E+01 4.52789E+00-1.52196E-02-4.29855E-01 9.09342E-14 6.13290E-13
 -1      1799 1.78010E+01 4.30599E+00-7.17815E-03-5.33164E-01 1.11695E-13 6.08321E-13
 -1      1800 1.84881E+01 4.33197E+00-4.66580E-03-1.23341E-02 9.46292E-15 6.10574E-13
 -1      1801 1.82304E+01 4.36326E+00-1.67541E-02-1.79213E-01 4.31001E-14 6.07431E-13
 -1      1802 1.82431E+01 4.08276E+00-1.04470E-02-3.17696E-01 5.80057E-14 6.08584E-13
 -1      1803 1.90182E+01 4.17981E+00-8.77450E-03 3.83690E-01-5.38718E-14 6.12763E-13
 -1      1804 1.87461E+01 4.20658E+00-1.86336E-02 1.73625E-01-2.33641E-14 6.07882E-13
 -1      1805 1.87863E+01 3.85483E+00-1.24353E-02 1.14216E-02-1.26366E-14 5.88599E-13
 -1      1806 1.95769E+01 4.02236E+00-1.49556E-02 8.70592E-01-1.29436E-13 6.07091E-13
 -1      1807 1.92920E+01 4.05408E+00-2.19854E-02 6.14258E-01-9.40749E-14 6.14890E-13
 -1      1808 1.93673E+01 3.63251E+00-1.33171E-02 4.33599E-01-8.49589E-14 5.94589E-13
 -1      1809 2.01715E+01 3.81616E+00-2.54682E-02 1.42263E+00-2.23567E-13 5.47423E-13
 -1      1810 1.98634E+01 3.87461E+00-2.84177E-02 1.12540E+00-1.69967E-13 5.76685E-13
 -1      1811 1.99708E+01 3.39129E+00-1.25604E-02 9.18675E-01-1.64552E-13 5.71864E-13
 -1      1812 2.08857E+01 3.44663E+00-4.55155E-02 2.01509E+00-3.06059E-13 4.43146E-13
 -1      1813 2.05047E+01 3.59128E+00-3.96490E-02 1.67499E+00-2.59031E-13 5.03216E-13
 -1      1814 2.06253E+01 3.06342E+00-8.65038E-03 1.41469E+00-2.65364E-13 4.98206E-13
 -1      1815 2.19562E+01 2.62095E+00-6.29318E-02 2.49394E+00-3.53511E-13 1.74132E-13
 -1      1816 2.13459E+01 3.04500E+00-5.09349E-02 2.20293E+00-3.23506E-13 3.45550E-13
 -1      1817 2.14102E+01 2.49307E+00-1.39628E-03 1.81720E+00-3.51339E-13 3.57797E-13
 -1      1818 2.28811E+01 1.16915E+00-1.25555E-01 2.05221E+00-3.35398E-13-2.27554E-13
 -1      1819 2.23776E+01 2.23601E+00 2.55675E-03 2.41751E+00-3.42342E-13 4.16195E-14
 -1      1820 2.20649E+01 1.60922E+00-1.36874E-02 1.80198E+00-3.77923E-13 1.53336E-13
 -1      1821 2.22036E+01 7.32153E-01-5.88445E-02 1.26182E+00-3.38139E-13-1.14405E-13
 -1      1822 2.36529E+01 2.42614E+00 8.14363E-02-2.23661E+00 3.20185E-13-4.42452E-13
 -1      1823 2.14998E+01 2.40708E-01-5.81585E-03 4.85125E-01-2.58002E-13 1.88599E-14
 -1      1824 2.19498E+01 3.83838E-01-1.54891E-02 8.18995E-01-2.85341E-13-8.17985E-14
 -1      1825 2.19786E+01 7.72510E-01 4.42201E-03 1.14399E+00-3.28911E-13 6.89934E-14
 -1      1826 2.33084E+01 1.78637E+00 7.72417E-02-1.40792E+00 3.52815E-13-3.07580E-13
 -1      1827 2.29404E+01 6.33258E-01 3.36660E-02 1.43635E-01 2.96995E-13-2.37141E-13
 -1      1828 2.29072E+01 5.24679E-01 2.33567E-02 5.20443E-01 2.57235E-13-1.63458E-13
 -1      1829 2.29224E+01 4.47992E-01 2.68006E-02 8.96073E-01 2.07490E-13-1.25204E-13
 -1      1830 2.31949E+01 3.77980E-01 2.08795E-02 1.14339E+00 1.67630E-13-6.51987E-14
 -1      1831 2.24668E+01 7.49107E-01-1.22334E-02 7.74712E-01 2.85019E-13 1.83317E-15
 -1      1832 2.33460E+01 3.16429E-01 1.56445E-02 1.41725E+00 1.50834E-13-3.32087E-14
 -1      1833 2.37950E+01 2.31188E-01 9.57460E-03 1.57562E+00 1.54288E-13 4.52416E-15
 -1      1834 2.26402E+01 5.20608E-01-1.22569E-02 1.50566E+00 2.03524E-13 6.08021E-14
 -1      1835 2.40883E+01 1.26883E-01 1.03749E-02 1.73561E+00 1.19340E-13 7.84962E-15
 -1      1836 2.46194E+01-3.65413E-02-7.49500E-03 1.75786E+00 7.52350E-14 1.08646E-14
 -1      1837 2.30819E+01 2.51201E-01-1.52830E-02 2.00010E+00 1.43098E-13 1.08279E-13
 -1      1838 2.50841E+01-2.32334E-01 1.36111E-02 1.72318E+00 1.32490E-14-1.40860E-15
 -1      1839 2.55734E+01-5.19110E-01-2.95426E-02 1.50695E+00-3.44828E-14-2.29088E-14
 -1      1840 2.38057E+01-2.34619E-01-2.14914E-02 2.17195E+00 4.11763E-14 7.26463E-14
 -1      1841 2.62525E+01-8.21505E-01 2.33258E-02 1.13845E+00-9.56509E-14-2.51396E-14
 -1      1842 2.65352E+01-1.18857E+00-5.06728E-02 5.80680E-01-1.12677E-13-4.25779E-14
 -1      1843 2.48726E+01-1.04433E+00-2.93995E-02 1.80099E+00-6.99441E-14 4.51901E-14
 -1      1844 2.73965E+01-1.47779E+00 2.14015E-02-2.42344E-01-1.76081E-13-5.45588E-14
 -1      1845 2.73069E+01-1.63775E+00-5.34516E-02-1.09205E+00-1.84876E-13-8.56658E-14
 -1      1846 2.63270E+01-2.01567E+00-3.45236E-02 6.04719E-01-1.52680E-13 4.33188E-14
 -1      1847 2.80568E+01-1.54401E+00-3.08275E-02-2.17316E+00-1.84147E-13-1.10807E-13
 -1      1848 2.75521E+01-1.01836E+00-4.06746E-02-2.86975E+00-7.57415E-14-1.15481E-13
 -1      1849 2.79500E+01-2.31275E+00-2.96660E-02-1.42356E+00-1.78296E-13-1.59022E-14
 -1      1850 2.77354E+01-1.25520E-01-1.27264E-01-3.38670E+00 3.73798E-14-1.20072E-13
 -1      1851 2.70543E+01 1.04576E+00-5.43272E-02-3.11021E+00 1.87503E-13-1.68671E-13
 -1      1852 2.90778E+01-7.89088E-01-5.49568E-02-3.31484E+00-2.44665E-14-4.56649E-14
 -1      1853 2.68378E+01 2.13329E+00-1.62967E-01-2.20393E+00 3.23963E-13-8.33708E-14
 -1      1854 2.65389E+01 2.79420E+00-1.10094E-01-8.80512E-01 3.66651E-13 3.65333E-14
 -1      1855 2.92583E+01 2.28875E+00-1.27261E-01-3.02884E+00 3.09919E-13-7.24421E-15
 -1      1856 2.65270E+01 2.85409E+00-1.04822E-01 9.93875E-01 3.66512E-13 1.98470E-13
 -1      1857 2.69372E+01 2.13761E+00-1.54340E-01 2.42380E+00 3.41088E-13 3.18892E-13
 -1      1858 2.91218E+01 4.07970E+00-1.72283E-01 4.47167E-02 5.01488E-13 2.96364E-13
 -1      1859 2.71978E+01 9.90136E-01-4.96569E-02 3.29266E+00 2.60930E-13 3.80721E-13
 -1      1860 2.79056E+01-1.62837E-01-1.30877E-01 3.55605E+00 1.45335E-13 4.17241E-13
 -1      1861 2.92994E+01 2.08722E+00-1.72533E-01 3.17831E+00 3.43947E-13 4.50737E-13
 -1      1862 2.77789E+01-1.06093E+00-3.71122E-02 3.02219E+00 9.25197E-14 4.36236E-13
 -1      1863 2.83181E+01-1.58882E+00-3.05888E-02 2.29550E+00 1.75953E-14 5.17831E-13
 -1      1864 2.92022E+01-7.93303E-01-3.38520E-02 3.52836E+00 1.76664E-13 6.08208E-13
 -1      1865 2.75755E+01-1.66274E+00-5.47631E-02 1.18729E+00-8.20871E-14 5.02041E-13
 -1      1866 2.76928E+01-1.49114E+00 2.09244E-02 3.26548E-01-9.61540E-14 5.20929E-13
 -1      1867 2.81085E+01-2.35887E+00-2.56333E-02 1.55172E+00-3.16264E-14 5.84987E-13
 -1      1868 2.68418E+01-1.20014E+00-5.17256E-02-5.06202E-01-4.55920E-14 5.23586E-13
 -1      1869 2.65773E+01-8.36437E-01 2.15835E-02-1.07386E+00-4.33681E-15 5.40441E-13
 -1      1870 2.65015E+01-2.02784E+00-2.96433E-02-5.13259E-01-5.05915E-14 5.57175E-13
 -1      1871 2.58911E+01-5.39956E-01-3.18442E-02-1.46331E+00 1.74721E-14 4.99770E-13
 -1      1872 2.53996E+01-2.63671E-01 9.00782E-03-1.69641E+00 3.77268E-14 5.44648E-13
 -1      1873 2.50544E+01-1.07293E+00-2.62435E-02-1.74554E+00 2.75648E-15 4.56035E-13
 -1      1874 2.49023E+01-8.08346E-02-1.13513E-02-1.76913E+00 3.87949E-14 5.09790E-13
 -1      1875 2.43351E+01 6.28896E-02 1.75255E-03-1.78098E+00 6.56166E-14 4.92487E-13
 -1      1876 2.39500E+01-2.92600E-01-1.77415E-02-2.18587E+00 3.15763E-14 4.29799E-13
 -1      1877 2.39680E+01 1.45661E-01 3.00285E-03-1.69104E+00 4.87089E-14 5.01370E-13
 -1      1878 2.34226E+01 1.96939E-01-1.00829E-04-1.59695E+00 4.81128E-14 5.29339E-13
 -1      1879 2.31239E+01 1.36018E-01-1.02183E-02-2.13964E+00 1.12296E-13 4.23224E-13
 -1      1880 2.31367E+01 2.20516E-01 1.03796E-02-1.44664E+00 7.40597E-15 5.11481E-13
 -1      1881 2.26611E+01 2.23571E-01 2.50362E-04-1.32033E+00-4.06619E-14 4.71401E-13
 -1      1882 2.24793E+01 3.03726E-01-5.88004E-03-1.86800E+00-4.33449E-14 4.13627E-13
 -1      1883 2.24302E+01 2.19388E-01 1.27155E-02-1.16385E+00-2.45923E-14 5.41530E-13
 -1      1884 2.20393E+01 2.02793E-01 1.00975E-03-1.04186E+00 2.79820E-14 4.67698E-13
 -1      1885 2.19571E+01 3.29392E-01-3.89180E-03-1.52992E+00-2.74151E-14 4.66500E-13
 -1      1886 2.18506E+01 1.88591E-01 1.22276E-02-9.02756E-01-4.29001E-14 5.10663E-13
 -1      1887 2.15414E+01 1.67012E-01 1.51287E-03-7.99021E-01-7.38741E-14 4.09851E-13
 -1      1888 2.15286E+01 2.93754E-01-3.07679E-03-1.20533E+00 2.77387E-14 5.66929E-13
 -1      1889 2.13880E+01 1.51187E-01 1.05115E-02-6.84402E-01-1.11131E-13 3.99871E-13
 -1      1890 2.11495E+01 1.30920E-01 1.69012E-03-6.01579E-01-6.86213E-14 3.64254E-13
 -1      1891 2.11783E+01 2.39927E-01-2.70558E-03-9.26275E-01-9.45064E-14 5.26985E-13
 -1      1892 2.10264E+01 1.16780E-01 8.49509E-03-5.10994E-01-4.62972E-14 2.69569E-13
 -1      1893 2.08457E+01 9.98944E-02 1.64210E-03-4.47091E-01-6.62163E-14 2.76288E-13
 -1      1894 2.08956E+01 1.87179E-01-2.43873E-03-6.99895E-01-8.01585E-14 4.01550E-13
 -1      1895 2.07483E+01 8.83515E-02 6.61956E-03-3.77218E-01-7.79312E-14 2.54755E-13
 -1      1896 2.06133E+01 7.50619E-02 1.47574E-03-3.28860E-01-7.96121E-14 3.36650E-13
 -1      1897 2.06709E+01 1.42364E-01-2.16464E-03-5.22272E-01-7.17571E-14 2.31540E-13
 -1      1898 2.05374E+01 6.60418E-02 5.04401E-03-2.75756E-01-3.26603E-14 3.81035E-13
 -1      1899 2.04376E+01 5.58844E-02 1.26404E-03-2.39580E-01 2.91249E-14 4.01173E-13
 -1      1900 2.04948E+01 1.06707E-01-1.87061E-03-3.85682E-01-2.79774E-14 2.47845E-13
 -1      1901 2.03793E+01 4.89888E-02 3.78873E-03-1.99613E-01 3.82752E-14 3.45105E-13
 -1      1902 2.03063E+01 4.13418E-02 1.04861E-03-1.72754E-01 1.37547E-13 3.96597E-13
 -1      1903 2.03590E+01 7.92673E-02-1.57400E-03-2.81983E-01 1.43553E-14 3.71135E-13
 -1      1904 2.02622E+01 3.61263E-02 2.81753E-03-1.42892E-01 1.17541E-13 3.15679E-13
 -1      1905 2.02094E+01 3.04127E-02 8.50080E-04-1.23070E-01 2.84948E-14 1.85439E-13
 -1      1906 2.02555E+01 5.85086E-02-1.29377E-03-2.03956E-01 2.53418E-14 2.65217E-13
 -1      1907 2.01765E+01 2.64873E-02 2.07849E-03-1.00906E-01 1.55865E-14 2.70651E-13
 -1      1908 2.01388E+01 2.22346E-02 6.76867E-04-8.63668E-02-5.93975E-14 2.14112E-13
 -1      1909 2.01778E+01 4.29374E-02-1.04230E-03-1.45669E-01-1.12149E-14 2.65779E-13
 -1      1910 2.01146E+01 1.92873E-02 1.52148E-03-7.00336E-02-8.32242E-14 2.62494E-13
 -1      1911 2.00882E+01 1.61299E-02 5.30832E-04-5.94468E-02-9.63262E-14 2.70440E-13
 -1      1912 2.01203E+01 3.13063E-02-8.25137E-04-1.02434E-01-5.69437E-14 2.70187E-13
 -1      1913 2.00707E+01 1.39211E-02 1.10421E-03-4.75124E-02-3.55504E-14 3.58074E-13
 -1      1914 2.00525E+01 1.15834E-02 4.10600E-04-3.98752E-02-6.89108E-14 4.36634E-13
 -1      1915 2.00784E+01 2.26398E-02-6.42943E-04-7.06159E-02-1.69553E-14 5.20950E-13
 -1      1916 2.00401E+01 9.93252E-03 7.93060E-04-3.12471E-02-2.08622E-13 4.49388E-13
 -1      1917 2.00279E+01 8.20869E-03 3.13386E-04-2.58043E-02-1.07472E-13 4.04150E-13
 -1      1918 2.00485E+01 1.61985E-02-4.93496E-04-4.74202E-02-1.40496E-13 6.31799E-13
 -1      1919 2.00194E+01 6.98012E-03 5.62144E-04-1.96497E-02-5.83094E-14 3.78559E-13
 -1      1920 2.00115E+01 5.71676E-03 2.35962E-04-1.58317E-02-9.38151E-14 4.52893E-13
 -1      1921 2.00275E+01 1.14285E-02-3.73158E-04-3.07081E-02-1.58331E-13 4.91307E-13
 -1      1922 2.00058E+01 4.80844E-03 3.91762E-04-1.15162E-02-4.12835E-14 4.62944E-13
 -1      1923 2.00010E+01 3.89067E-03 1.75137E-04-8.89301E-03 3.68916E-14 4.85060E-13
 -1      1924 2.00133E+01 7.91592E-03-2.77805E-04-1.88442E-02-4.88405E-14 5.58546E-13
 -1      1925 1.99973E+01 3.22529E-03 2.66995E-04-5.93346E-03 3.17444E-14 4.89774E-13
 -1      1926 1.99947E+01 2.56658E-03 1.27982E-04-4.18054E-03 6.77088E-14 5.95029E-13
 -1      1927 2.00039E+01 5.35010E-03-2.03357E-04-1.05794E-02 1.58999E-14 5.79506E-13
 -1      1928 1.99925E+01 2.08512E-03 1.76538E-04-2.20980E-03-4.74730E-14 4.71353E-13
 -1      1929 1.99913E+01 1.61990E-03 9.19125E-05-1.08272E-03-6.53331E-14 3.52819E-13
 -1      1930 1.99981E+01 3.49664E-03-1.46058E-04-4.96109E-03-2.99110E-14 5.42234E-13
 -1      1931 1.99901E+01 1.27705E-03 1.11801E-04 1.77052E-04-9.86705E-14 1.40786E-13
 -1      1932 1.99898E+01 9.55406E-04 6.47045E-05 8.61533E-04-1.50090E-13 2.78642E-13
 -1      1933 1.99947E+01 2.17748E-03-1.02590E-04-1.26509E-03-1.58597E-13 1.37379E-13
 -1      1934 1.99893E+01 7.16210E-04 6.62352E-05 1.61917E-03 2.91535E-14 3.20876E-13
 -1      1935 1.99897E+01 4.99996E-04 4.44723E-05 1.99735E-03 2.40758E-13 4.69957E-13
 -1      1936 1.99931E+01 1.25663E-03-7.01083E-05 1.05601E-03 3.20057E-14 2.73464E-13
 -1      1937 1.99896E+01 3.37387E-04 3.48402E-05 2.40828E-03 3.43532E-13 5.23698E-13
 -1      1938 1.99903E+01 1.97410E-04 2.96294E-05 2.58030E-03 3.79741E-13 5.04880E-13
 -1      1939 1.99926E+01 6.29815E-04-4.62224E-05 2.41269E-03 2.96166E-13 4.61437E-13
 -1      1940 1.99905E+01 9.03860E-05 1.37951E-05 2.75855E-03 2.09907E-13 5.33479E-13
 -1      1941 1.99914E+01 4.22072E-06 1.88420E-05 2.79667E-03 1.74738E-13 4.03716E-13
 -1      1942 1.99928E+01 2.16862E-04-2.89586E-05 3.10909E-03 2.82720E-13 3.52743E-13
 -1      1943 1.99918E+01-6.35933E-05 1.87118E-07 2.82408E-03-8.28657E-15 3.13624E-13
 -1      1944 1.99927E+01-1.13291E-04 1.09842E-05 2.77895E-03-3.57653E-13 4.25375E-13
 -1      1945 1.99935E+01-4.41042E-05-1.67097E-05 3.36672E-03-1.73164E-14 2.38324E-13
 -1      1946 1.99931E+01-1.54803E-04-8.18533E-06 2.71226E-03-4.47765E-13 5.40427E-13
 -1      1947 1.99940E+01-1.81680E-04 5.10016E-06 2.61757E-03-2.51811E-13 3.58648E-13
 -1      1948 1.99944E+01-2.01203E-04-8.18307E-06 3.34266E-03-3.28268E-13 6.08342E-13
 -1      1949 1.99945E+01-2.07317E-04-1.29591E-05 2.49377E-03-1.01447E-13 3.13480E-13
 -1      1950 1.99954E+01-2.22495E-04 3.86452E-07 2.36960E-03-8.14444E-14 2.44691E-13
 -1      1951 1.99954E+01-2.92495E-04-2.35761E-06 3.14357E-03-2.96872E-13 4.21287E-13
 -1      1952 1.99958E+01-2.41048E-04-1.52803E-05 2.20981E-03-1.04712E-13 2.59807E-13
 -1      1953 1.99966E+01-2.53986E-04-3.72879E-06 2.06495E-03 1.74167E-13 2.50012E-13
 -1      1954 1.99964E+01-3.49114E-04 1.52167E-06 2.83609E-03-5.45135E-14 3.54651E-13
 -1      1955 1.99970E+01-2.73265E-04-1.58480E-05 1.87762E-03 2.56380E-13 6.34237E-15
 -1      1956 1.99976E+01-2.91959E-04-7.49758E-06 1.71131E-03 5.28376E-14 3.23284E-14
 -1      1957 1.99973E+01-3.97253E-04 3.99575E-06 2.45505E-03-2.84690E-14 3.19459E-13
 -1      1958 1.99980E+01-3.18400E-04-1.48662E-05 1.49515E-03-5.66241E-14 1.33133E-13
 -1      1959 1.99985E+01-3.46699E-04-1.01511E-05 1.30030E-03-5.16568E-14 2.31249E-13
 -1      1960 1.99981E+01-4.57228E-04 6.03071E-06 2.01198E-03 4.55602E-14 1.14834E-13
 -1      1961 1.99988E+01-3.78117E-04-1.23109E-05 1.05071E-03-1.51392E-13 3.01785E-13
 -1      1962 1.99992E+01-4.06294E-04-8.31190E-06 8.29680E-04-6.49012E-14 3.98503E-13
 -1      1963 1.99988E+01-5.38470E-04 7.55615E-06 1.50235E-03-9.94302E-15 2.00465E-13
 -1      1964 1.99995E+01-3.91147E-04-7.99468E-06 4.88717E-04-2.48415E-13 3.16375E-13
 -1      1965 2.09549E+01-3.16746E-03 2.76953E-03 1.72089E-01-1.70644E-13 1.82068E-13
 -1      1966 2.10797E+01 5.72660E-02 1.43109E-02 1.97545E-01-1.96237E-13 1.32174E-13
 -1      1967 2.07515E+01-8.48184E-02-2.48787E-03 2.17780E-01-1.25967E-13 2.36825E-13
 -1      1968 2.08667E+01-4.67422E-02 8.97246E-03 1.79504E-01-1.43015E-13 1.91389E-13
 -1      1969 2.10884E+01-3.79148E-02-2.14285E-03 2.65336E-01-1.84769E-13 2.25537E-13
 -1      1970 2.05247E+01-1.26550E-01-4.76147E-03 3.60272E-01-5.98991E-14 2.54772E-13
 -1      1971 2.06713E+01-1.08730E-01 2.91550E-03 2.88136E-01-8.19540E-14 2.31121E-13
 -1      1972 2.09263E+01-1.47199E-01 6.69749E-04 3.43032E-01-1.23607E-13 2.27860E-13
 -1      1973 2.02232E+01-1.23545E-01-3.74704E-03 5.39027E-01-7.15912E-14 2.56373E-13
 -1      1974 2.04221E+01-1.30268E-01-4.38001E-04 4.60349E-01-7.44864E-14 2.41705E-13
 -1      1975 2.07491E+01-1.93531E-01 3.17007E-03 5.29700E-01-7.20960E-14 2.39749E-13
 -1      1976 1.98369E+01-6.79649E-02 7.23874E-06 6.81855E-01-3.86418E-14 2.79938E-13
 -1      1977 2.00813E+01-1.02428E-01-1.73100E-03 6.28388E-01-7.63441E-14 2.45886E-13
 -1      1978 2.05076E+01-1.66783E-01 4.44781E-03 7.42961E-01-7.22439E-14 2.40146E-13
 -1      1979 1.94037E+01 3.52762E-02 5.10327E-03 7.12815E-01-7.23847E-14 3.31675E-13
 -1      1980 1.96599E+01-2.19015E-02-1.25061E-03 7.15724E-01-3.77327E-14 3.19629E-13
 -1      1981 2.01888E+01-6.08795E-02 3.39112E-03 8.87138E-01-7.58059E-14 2.11182E-13
 -1      1982 1.90057E+01 1.58689E-01 9.38655E-03 5.77482E-01-8.18091E-14 3.92360E-13
 -1      1983 1.92209E+01 9.60697E-02 1.06461E-03 6.54890E-01-8.40174E-14 3.65083E-13
 -1      1984 1.98257E+01 1.06645E-01-4.68842E-04 8.69085E-01-1.04436E-13 3.09160E-13
 -1      1985 1.87475E+01 2.55731E-01 1.08822E-02 2.75490E-01-1.11959E-14 3.91693E-13
 -1      1986 1.88663E+01 2.12819E-01 4.86674E-03 4.19313E-01-5.64644E-14 3.66287E-13
 -1      1987 1.94972E+01 2.85156E-01-6.07605E-03 6.34413E-01-6.77691E-14 3.24101E-13
 -1      1988 1.87149E+01 2.83383E-01 9.22572E-03-1.24599E-01-6.51389E-15 4.42244E-13
 -1      1989 1.87003E+01 2.79804E-01 8.88194E-03 4.92360E-02 3.45991E-15 4.27369E-13
 -1      1990 1.93037E+01 4.05587E-01-1.04068E-02 2.06560E-01-2.59614E-14 3.61434E-13
 -1      1991 1.89330E+01 2.28543E-01 5.59428E-03-5.08595E-01-2.35367E-14 4.65077E-13
 -1      1992 1.87817E+01 2.65979E-01 1.10307E-02-3.54992E-01-2.43937E-14 4.46796E-13
 -1      1993 1.93188E+01 4.14859E-01-1.08285E-02-3.06148E-01-3.10542E-14 4.29053E-13
 -1      1994 1.93504E+01 1.16496E-01 1.87764E-03-7.69335E-01-2.17690E-14 4.60109E-13
 -1      1995 1.90949E+01 1.77807E-01 9.80826E-03-6.76658E-01-2.73540E-14 4.50880E-13
 -1      1996 1.95468E+01 3.08575E-01-7.01905E-03-7.54451E-01-4.61992E-14 3.87968E-13
 -1      1997 1.98628E+01-6.36634E-03-7.24231E-04-8.53770E-01 7.25196E-15 5.43434E-13
 -1      1998 1.95583E+01 5.42642E-02 5.40635E-03-8.36621E-01 3.18255E-14 5.32964E-13
 -1      1999 1.99192E+01 1.32707E-01-1.28578E-03-1.01867E+00-6.42483E-14 4.46608E-13
 -1      2000 2.03584E+01-9.98532E-02-2.03858E-03-7.75275E-01-3.64040E-14 4.45158E-13
 -1      2001 2.00629E+01-5.81975E-02-3.86626E-04-8.21683E-01-3.36888E-14 4.76055E-13
 -1      2002 2.03318E+01-4.52165E-02 3.43547E-03-1.05801E+00 4.79369E-15 4.78801E-13
 -1      2003 2.07553E+01-1.46470E-01-2.43923E-03-5.91324E-01 7.96498E-15 4.57813E-13
 -1      2004 2.05130E+01-1.29589E-01-5.40320E-03-6.74645E-01-2.52467E-14 4.49595E-13
 -1      2005 2.06917E+01-1.72300E-01 5.71757E-03-9.10596E-01-5.01684E-14 4.22972E-13
 -1      2006 2.10158E+01-1.50370E-01-2.32419E-03-3.69322E-01 1.19310E-14 4.77502E-13
 -1      2007 2.08494E+01-1.53942E-01-8.29175E-03-4.62137E-01 2.68613E-14 4.09842E-13
 -1      2008 2.09457E+01-2.29097E-01 5.85797E-03-6.56737E-01 1.57018E-14 3.49894E-13
 -1      2009 2.11403E+01-1.26728E-01-1.98515E-03-1.61879E-01-1.11045E-13 4.46945E-13
 -1      2010 2.10522E+01-1.42234E-01-8.89479E-03-2.44552E-01-5.13990E-14 4.70187E-13
 -1      2011 2.10812E+01-2.25509E-01 4.76926E-03-3.77476E-01-4.92401E-15 2.65149E-13
 -1      2012 2.11520E+01-9.14964E-02-1.53901E-03 1.77057E-03-6.29154E-14 4.58524E-13
 -1      2013 2.11310E+01-1.11002E-01-7.81709E-03-6.09508E-02-1.42979E-13 4.84198E-13
 -1      2014 2.11123E+01-1.84846E-01 3.30223E-03-1.30080E-01-1.10152E-13 2.93457E-13
 -1      2015 2.10829E+01-5.61961E-02-1.06317E-03 1.12866E-01 1.04584E-14 4.08725E-13
 -1      2016 2.11114E+01-7.44238E-02-5.88285E-03 7.20327E-02-1.56767E-14 4.35727E-13
 -1      2017 2.10649E+01-1.30150E-01 1.93770E-03 5.72039E-02-3.74293E-14 3.78260E-13
 -1      2018 2.09644E+01-2.69627E-02-6.08610E-04 1.75750E-01 5.30963E-14 5.04375E-13
 -1      2019 2.10241E+01-4.13757E-02-3.77993E-03 1.54064E-01 5.97648E-14 4.87410E-13
 -1      2020 2.09667E+01-7.73996E-02 8.59618E-04 1.79027E-01 2.40504E-14 4.43530E-13
 -1      2021 2.08224E+01-5.79782E-03-2.16133E-04 2.00831E-01-1.38945E-14 5.07672E-13
 -1      2022 2.08977E+01-1.58078E-02-1.93183E-03 1.93633E-01 3.38421E-14 5.04408E-13
 -1      2023 2.08414E+01-3.47288E-02 9.18506E-05 2.43570E-01 2.72441E-14 5.53210E-13
 -1      2024 2.06761E+01 7.73363E-03 9.00058E-05 1.99736E-01-1.61050E-13 4.21172E-13
 -1      2025 2.07552E+01 1.64679E-03-5.23210E-04 2.02229E-01-8.63382E-14 4.44102E-13
 -1      2026 2.07071E+01-4.44144E-03-4.08521E-04 2.64586E-01-6.41932E-14 4.44008E-13
 -1      2027 2.05380E+01 1.51384E-02 3.03150E-04 1.82711E-01-4.61599E-16 4.28742E-13
 -1      2028 2.06133E+01 1.20798E-02 4.24321E-04 1.90849E-01-1.52844E-13 4.10588E-13
 -1      2029 2.05763E+01 1.44900E-02-7.00216E-04 2.56277E-01-9.15178E-14 2.97814E-13
 -1      2030 2.04152E+01 1.81500E-02 4.30553E-04 1.57643E-01 1.10358E-13 3.97250E-13
 -1      2031 2.04822E+01 1.71908E-02 9.75431E-04 1.68409E-01 7.98786E-14 4.29528E-13
 -1      2032 2.04566E+01 2.44821E-02-8.38916E-04 2.30712E-01 8.45783E-15 2.48549E-13
 -1      2033 2.03109E+01 1.83090E-02 4.87746E-04 1.30006E-01 1.82456E-13 3.96411E-13
 -1      2034 2.03676E+01 1.86624E-02 1.22612E-03 1.41368E-01 1.50714E-13 3.93170E-13
 -1      2035 2.03522E+01 2.81674E-02-8.71326E-04 1.96972E-01 1.37052E-13 2.08397E-13
 -1      2036 2.02255E+01 1.68138E-02 4.93044E-04 1.03240E-01 1.32474E-13 4.30511E-13
 -1      2037 2.02716E+01 1.78872E-02 1.27157E-03 1.13966E-01 2.14376E-13 4.70968E-13
 -1      2038 2.02644E+01 2.78294E-02-8.34492E-04 1.61252E-01 1.60063E-13 2.43091E-13
 -1      2039 2.01579E+01 1.45143E-02 4.63815E-04 7.92503E-02-2.36482E-14 4.71256E-13
 -1      2040 2.01940E+01 1.58990E-02 1.19127E-03 8.86915E-02 3.92942E-14 5.58859E-13
 -1      2041 2.01929E+01 2.52157E-02-7.56668E-04 1.27370E-01 4.23620E-14 3.21226E-13
 -1      2042 2.01058E+01 1.19671E-02 4.14524E-04 5.88761E-02-1.53006E-13 5.82138E-13
 -1      2043 2.01333E+01 1.34032E-02 1.04472E-03 6.67811E-02-1.23629E-13 4.92086E-13
 -1      2044 2.01364E+01 2.15492E-02-6.58531E-04 9.73744E-02-6.26534E-14 5.90549E-13
 -1      2045 2.00669E+01 9.50576E-03 3.56126E-04 4.22773E-02-1.24129E-13 6.03178E-13
 -1      2046 2.00871E+01 1.08437E-02 8.72800E-04 4.86396E-02-1.08996E-13 5.65791E-13
 -1      2047 2.00927E+01 1.76189E-02-5.54465E-04 7.21032E-02-1.49267E-13 5.84270E-13
 -1      2048 2.00387E+01 7.30778E-03 2.96238E-04 2.92162E-02 6.69448E-14 6.50515E-13
 -1      2049 2.00531E+01 8.47365E-03 7.01262E-04 3.41669E-02-8.24915E-14 6.44936E-13
 -1      2050 2.00600E+01 1.38890E-02-4.53846E-04 5.16276E-02-8.43276E-14 6.13215E-13
 -1      2051 2.00190E+01 5.44743E-03 2.39694E-04 1.92555E-02 1.07125E-13 6.07562E-13
 -1      2052 2.00288E+01 6.41582E-03 5.44669E-04 2.29900E-02 1.06505E-13 7.01109E-13
 -1      2053 2.00361E+01 1.05984E-02-3.62221E-04 3.55798E-02 3.50245E-14 7.40393E-13
 -1      2054 2.00057E+01 3.93574E-03 1.89198E-04 1.18850E-02 1.70226E-13 5.20480E-13
 -1      2055 2.00121E+01 4.71021E-03 4.09891E-04 1.46172E-02 1.84750E-13 5.42109E-13
 -1      2056 2.00192E+01 7.83923E-03-2.82355E-04 2.33775E-02 1.96677E-13 6.09609E-13
 -1      2057 1.99973E+01 2.74820E-03 1.45935E-04 6.59880E-03 1.29263E-13 4.59068E-13
 -1      2058 2.00011E+01 3.34774E-03 2.98857E-04 8.53389E-03 1.74283E-13 4.85772E-13
 -1      2059 2.00076E+01 5.61494E-03-2.15100E-04 1.43695E-02 2.14859E-13 6.16454E-13
 -1      2060 1.99923E+01 1.84314E-03 1.10083E-04 2.93714E-03 1.92342E-14 4.50048E-13
 -1      2061 1.99944E+01 2.29345E-03 2.10584E-04 4.25770E-03 7.15109E-14 4.37367E-13
 -1      2062 2.00001E+01 3.88039E-03-1.60082E-04 7.92166E-03 1.50145E-13 5.40778E-13
 -1      2063 1.99899E+01 1.17319E-03 8.11968E-05 5.05035E-04 5.44199E-14 4.37820E-13
 -1      2064 1.99907E+01 1.50138E-03 1.42559E-04 1.36547E-03 3.77389E-14 4.61720E-13
 -1      2065 1.99956E+01 2.56799E-03-1.16209E-04 3.46337E-03 5.15104E-14 4.02000E-13
 -1      2066 1.99891E+01 6.91962E-04 5.84956E-05-1.02281E-03 1.00801E-13 2.19602E-13
 -1      2067 1.99890E+01 9.23555E-04 9.16477E-05-4.96944E-04 3.43887E-14 2.46682E-13
 -1      2068 1.99931E+01 1.60391E-03-8.20364E-05 5.07671E-04 1.27484E-13 2.27947E-13
 -1      2069 1.99893E+01 3.57501E-04 4.10451E-05-1.90531E-03-7.89570E-14 1.90964E-13
 -1      2070 1.99888E+01 5.15015E-04 5.46402E-05-1.61519E-03 3.04105E-14 1.11549E-13
 -1      2071 1.99921E+01 9.17267E-04-5.60127E-05-1.34480E-03 1.33817E-13 3.07237E-14
 -1      2072 1.99903E+01 1.33685E-04 2.78754E-05-2.34219E-03-2.93358E-14-8.06967E-14
 -1      2073 1.99895E+01 2.36162E-04 2.85570E-05-2.21245E-03-1.10486E-14 1.89142E-14
 -1      2074 1.99921E+01 4.44736E-04-3.66295E-05-2.41081E-03 8.78098E-14-4.12911E-14
 -1      2075 1.99915E+01-9.63767E-06 1.80451E-05-2.48269E-03 1.82398E-13-1.46711E-13
 -1      2076 1.99906E+01 5.34870E-05 1.07931E-05-2.45773E-03 1.85582E-15-1.41465E-13
 -1      2077 1.99926E+01 1.32233E-04-2.25109E-05-2.93396E-03 4.83953E-14-2.51512E-13
 -1      2078 1.99930E+01-9.72436E-05 1.06724E-05-2.43399E-03 2.04952E-13-4.00253E-13
 -1      2079 1.99920E+01-6.06989E-05-8.34075E-07-2.47457E-03 2.12982E-13-2.16517E-13
 -1      2080 1.99935E+01-6.51714E-05-1.24564E-05-3.09551E-03 2.26961E-13-3.51002E-13
 -1      2081 1.99944E+01-1.49524E-04 4.95678E-06-2.26869E-03 4.56936E-13-5.28801E-13
 -1      2082 1.99935E+01-1.29090E-04-8.08583E-06-2.34909E-03 3.97288E-13-2.93616E-13
 -1      2083 1.99945E+01-1.84349E-04-5.45425E-06-3.02488E-03 3.25737E-13-5.63107E-13
 -1      2084 1.99958E+01-1.83683E-04 2.30333E-07-2.03082E-03 3.13296E-13-5.17201E-13
 -1      2085 1.99949E+01-1.70503E-04-1.23138E-05-2.13660E-03 3.17642E-13-4.61713E-13
 -1      2086 1.99956E+01-2.55727E-04-6.84811E-07-2.80887E-03 4.10913E-13-4.99482E-13
 -1      2087 1.99970E+01-2.14582E-04-3.78491E-06-1.74034E-03-1.11854E-14-4.93682E-13
 -1      2088 1.99963E+01-2.01081E-04-1.43937E-05-1.86690E-03 1.68267E-13-4.57908E-13
 -1      2089 1.99966E+01-3.05151E-04 2.48110E-06-2.49933E-03 1.87965E-13-3.34177E-13
 -1      2090 1.99980E+01-2.54570E-04-7.07363E-06-1.39779E-03-3.70126E-14-4.05549E-13
 -1      2091 1.99974E+01-2.34931E-04-1.46666E-05-1.54891E-03-1.30269E-13-5.08562E-13
 -1      2092 1.99976E+01-3.54152E-04 4.62509E-06-2.11980E-03-4.44884E-14-3.09627E-13
 -1      2093 1.99988E+01-3.12213E-04-8.34883E-06-9.90583E-04 1.12751E-13-4.31033E-13
 -1      2094 1.99984E+01-2.82368E-04-1.20277E-05-1.17592E-03 1.03061E-13-4.29765E-13
 -1      2095 1.99984E+01-4.17822E-04 7.80063E-06-1.67766E-03 4.56443E-15-2.59577E-13
 -1      2096 1.99994E+01-3.30007E-04-8.86684E-06-5.57653E-04-1.31458E-13-3.36734E-13
 -1      2097 1.99991E+01-3.11997E-04-8.43878E-06-7.59051E-04 7.60678E-14-2.83488E-13
 -1      2098 1.99990E+01-4.72368E-04 2.16145E-06-1.18960E-03 3.25261E-14-1.77442E-13
 -1      2099 1.99994E+01-4.84495E-04-3.80985E-06-6.88738E-04-2.44584E-13 2.52918E-13
 -1      2100 1.99998E+01-2.44341E-03 4.32904E-06-1.33136E-03-4.45741E-13 6.34198E-14
 -1      2101 1.99997E+01-2.01854E-03-5.45640E-06-1.32204E-03-4.58099E-13 1.80050E-13
 -1      2102 1.99997E+01-1.66749E-03 1.64965E-06-1.25986E-03-3.90034E-13 2.26441E-13
 -1      2103 1.99996E+01-1.26659E-03-9.07387E-06-1.16494E-03-3.61458E-13 3.55345E-13
 -1      2104 1.99997E+01-1.74174E-03 7.19865E-07-1.63050E-03-3.49951E-13 1.36707E-13
 -1      2105 1.99995E+01-8.06648E-04-2.40990E-06-8.82184E-04-2.54592E-13 3.74523E-13
 -1      2106 2.00000E+01-3.16665E-03 7.97897E-06-1.21610E-03-4.16610E-13-2.43696E-13
 -1      2107 1.99999E+01-2.77101E-03 1.07597E-06-1.28577E-03-6.08843E-13 9.79476E-15
 -1      2108 1.99999E+01-2.41952E-03-3.72824E-06-1.64158E-03-3.78339E-13-4.89373E-14
 -1      2109 2.00001E+01-3.77848E-03 1.12086E-05-9.47164E-04-3.35911E-13-9.67244E-14
 -1      2110 2.00000E+01-3.45104E-03 6.44577E-06-1.08056E-03-3.43532E-13-1.68681E-13
 -1      2111 2.00001E+01-3.03231E-03-6.92410E-06-1.43697E-03-3.05217E-13-1.37446E-13
 -1      2112 2.00001E+01-4.19813E-03 1.33789E-05-5.69225E-04-4.03476E-13 1.23261E-13
 -1      2113 2.00001E+01-3.98514E-03 1.06555E-05-7.45206E-04-3.77579E-13 2.37239E-14
 -1      2114 2.00002E+01-3.52496E-03-9.58721E-06-1.05812E-03-3.14393E-13-8.47646E-14
 -1      2115 2.00001E+01-4.38122E-03 1.41644E-05-1.29155E-04-3.60701E-13 3.52824E-13
 -1      2116 2.00001E+01-4.30725E-03 1.32218E-05-3.26686E-04-4.81978E-13 2.90394E-13
 -1      2117 2.00003E+01-3.84242E-03-1.12112E-05-5.60182E-04-3.67187E-13 2.91004E-13
 -1      2118 2.00001E+01-4.30870E-03 1.33701E-05 3.25200E-04-2.01941E-13 2.67843E-13
 -1      2119 2.00001E+01-4.38228E-03 1.40697E-05 1.27312E-04-2.88927E-13 3.99365E-13
 -1      2120 2.00003E+01-3.95322E-03-1.17999E-05-1.49204E-06-4.44232E-13 4.54899E-13
 -1      2121 2.00001E+01-3.98824E-03 1.09191E-05 7.45559E-04-2.30882E-13-7.82109E-15
 -1      2122 2.00001E+01-4.20143E-03 1.32685E-05 5.68727E-04-3.44139E-13 8.43039E-14
 -1      2123 2.00003E+01-3.84630E-03-1.12592E-05 5.58320E-04-3.14783E-13 1.48778E-13
 -1      2124 2.00000E+01-3.46500E-03 6.59742E-06 1.07875E-03-2.55492E-13-4.11675E-13
 -1      2125 2.00001E+01-3.78683E-03 1.11954E-05 9.46126E-04-1.70801E-13-1.92556E-13
 -1      2126 2.00002E+01-3.53511E-03-9.79960E-06 1.05565E-03-4.45582E-13-2.43679E-13
 -1      2127 1.99999E+01-2.77867E-03 1.06320E-06 1.28904E-03-1.19184E-13 1.13127E-13
 -1      2128 2.00000E+01-3.18151E-03 8.12880E-06 1.21708E-03-2.45282E-13-9.52988E-14
 -1      2129 2.00001E+01-3.04858E-03-7.13269E-06 1.43618E-03-1.84851E-13-2.75407E-13
 -1      2130 1.99997E+01-2.01641E-03-5.09410E-06 1.32703E-03 1.03094E-13 1.72652E-13
 -1      2131 1.99998E+01-2.44458E-03 4.41548E-06 1.33686E-03 1.50141E-15 6.82910E-14
 -1      2132 1.99999E+01-2.43017E-03-3.59546E-06 1.64596E-03 1.19581E-13 1.97054E-13
 -1      2133 1.99996E+01-1.27194E-03-1.14898E-05 1.16455E-03-9.28495E-14 2.70639E-13
 -1      2134 1.99997E+01-1.66754E-03 4.93148E-07 1.26295E-03-9.25483E-14 2.62378E-13
 -1      2135 1.99996E+01-1.74777E-03-1.61752E-06 1.63295E-03 3.53541E-14 1.56416E-13
 -1      2136 2.11659E+01 9.59763E-02 8.16868E-03 2.43114E-01-1.98829E-13 1.23583E-13
 -1      2137 2.13784E+01 1.82728E-01 1.46319E-02 3.69928E-01-2.24321E-13 6.35377E-14
 -1      2138 2.14943E+01 3.16680E-01 8.42690E-04 5.54894E-01-2.75611E-13 1.53877E-13
 -1      2139 2.12586E+01 1.22656E-01-1.34545E-03 3.36171E-01-2.35439E-13 2.09168E-13
 -1      2140 1.10384E+01-5.00153E+00-8.61061E-02 7.07648E+00 6.90559E-14-7.80362E-13
 -1      2141 7.44887E+00-6.42476E+00-2.83293E-01 6.01215E+00 1.59373E-13-7.06352E-13
 -1      2142 2.76693E+01-3.40759E-02 1.57293E-01 6.57499E+00-2.58960E-13-2.56128E-13
 -1      2143 2.27437E+01-1.93201E+00-1.65390E-01 6.35452E+00-1.33837E-13-3.47000E-13
 -1      2144 6.12128E-01-6.75290E+00-2.76460E-01 1.74141E+00 4.14391E-14-7.27196E-14
 -1      2145 3.68924E-01-6.62788E+00-2.66413E-01 4.92529E-02 3.92533E-14-2.33702E-14
 -1      2146 1.89455E+01-2.64752E+00 2.68224E-02 7.45356E+00-1.31339E-13-5.42233E-13
 -1      2147 1.44711E+01-4.73330E+00-2.81732E-01 6.70684E+00 3.50830E-14-5.55278E-13
 -1      2148 1.89720E+01 4.43501E+00-3.16607E-02-8.29772E-01 3.15607E-13 4.14469E-13
 -1      2149 1.95184E+01 4.36067E+00-1.30493E-02-9.95251E-01 3.48286E-13 3.70029E-13
 -1      2150 1.99839E+01 3.70262E+00-1.49947E-02-8.53561E-01 3.69723E-13 3.17430E-13
 -1      2151 1.88675E+01 4.20852E+00 9.21008E-04-6.84347E-01 3.25833E-13 4.20892E-13
 -1      2152 3.45593E+01 2.81948E+00 2.02939E-01 4.23319E+00-4.15059E-13 5.83977E-14
 -1      2153 3.04908E+01 1.38229E+00 1.85363E-02 5.07923E+00-4.30239E-13-1.13243E-13
 -1      2154 3.98350E+01 5.98208E+00 3.88144E-01 2.29565E+00-4.39426E-13 6.07292E-14
 -1      2155 3.64362E+01 4.94698E+00 1.16173E-01 2.87385E+00-4.56468E-13 5.17919E-14
 -1      2156 4.11350E+01 7.37321E+00 2.72475E-01 3.15402E-01-5.75096E-13 2.84689E-13
 -1      2157 4.05638E+01 6.91921E+00 2.94715E-01 1.69615E+00-5.00988E-13 1.22014E-13
 -1      2158 3.64805E+01 7.14165E+00 3.32271E-01 1.51872E-01-4.88165E-13 3.12306E-13
 -1      2159 3.90630E+01 7.17553E+00 1.60176E-01-1.03574E+00-7.22200E-13 3.73146E-13
 -1      2160 4.03785E+01 7.57968E+00 2.93600E-01-1.10362E-01-6.17006E-13 3.14963E-13
 -1      2161 3.68876E+01 4.77294E+00 2.24929E-01-3.47219E+00-8.11629E-13 4.87388E-13
 -1      2162 3.91441E+01 5.77654E+00 2.43246E-01-2.05804E+00-8.13460E-13 3.14970E-13
 -1      2163 3.07203E+01 1.74699E+00 2.46075E-02-5.31266E+00-9.04055E-13 6.56808E-13
 -1      2164 3.51944E+01 3.21760E+00 3.14966E-01-4.91802E+00-8.30083E-13 5.53113E-13
 -1      2165 2.32282E+01-1.83753E+00-1.52850E-01-6.28734E+00-7.28972E-13 7.62557E-13
 -1      2166 2.79807E+01 3.27114E-02 1.89343E-01-6.48120E+00-7.95974E-13 7.15761E-13
 -1      2167 1.49576E+01-4.58040E+00-3.05695E-01-6.64502E+00-6.50813E-13 7.66331E-13
 -1      2168 1.95167E+01-2.59971E+00 2.74031E-02-7.40506E+00-7.16094E-13 7.81042E-13
 -1      2169 7.56791E+00-6.55341E+00-3.97738E-01-5.82831E+00-5.18252E-13 6.30954E-13
 -1      2170 1.12128E+01-4.78577E+00-1.27951E-01-6.96720E+00-6.22724E-13 7.64437E-13
 -1      2171 1.86638E+00-7.74420E+00-4.76867E-01-3.56530E+00-2.85216E-13 6.46594E-13
 -1      2172 4.08236E+00-6.50372E+00-3.10626E-01-4.89853E+00-5.04152E-13 6.56086E-13
 -1      2173 1.94132E-01-7.28867E+00-3.80852E-01-4.53256E-01-1.26635E-15 7.31026E-13
 -1      2174 6.24060E-01-7.01619E+00-3.47452E-01-2.00555E+00-2.12830E-13 7.04214E-13
 -1      2175 2.45891E+00-6.75247E+00-2.97966E-01 3.11292E+00 2.34368E-13 8.27671E-13
 -1      2176 7.82682E-01-7.58933E+00-4.35630E-01 1.46241E+00-9.02056E-15 7.69385E-13
 -1      2177 8.75107E+00-6.22574E+00-2.47948E-01 5.63178E+00 4.20886E-13 8.69166E-13
 -1      2178 5.45269E+00-7.37026E+00-4.26916E-01 4.45611E+00 2.19824E-13 7.94226E-13
 -1      2179 1.70302E+01-4.72130E+00-1.36448E-01 6.57552E+00 5.42011E-13 1.11433E-12
 -1      2180 1.23769E+01-6.44542E+00-4.43802E-01 5.64842E+00 4.26104E-13 9.58109E-13
 -1      2181 2.70761E+01-2.87284E+00 1.11161E-02 5.54466E+00 5.90528E-13 9.82936E-13
 -1      2182 2.14106E+01-4.49006E+00-2.96053E-01 5.48720E+00 5.57554E-13 1.00792E-12
 -1      2183 3.61185E+01 1.06482E+00 2.98193E-01 3.37232E+00 7.45487E-13 9.90652E-13
 -1      2184 3.09447E+01-1.06198E+00-9.54942E-02 3.62203E+00 6.74072E-13 9.56235E-13
 -1      2185 4.18120E+01 4.79605E+00 5.09291E-01 1.38861E+00 7.18203E-13 1.02240E-12
 -1      2186 3.78863E+01 3.17389E+00 1.18901E-01 1.83571E+00 7.48152E-13 9.80438E-13
 -1      2187 4.46181E+01 6.91588E+00 5.88586E-01 3.04898E-01 6.16729E-13 9.39845E-13
 -1      2188 4.31569E+01 6.38075E+00 4.66171E-01 1.26039E+00 7.06490E-13 1.09102E-12
 -1      2189 4.22822E+01 6.63708E+00 3.66549E-01-4.00789E-01 4.73899E-13 7.35856E-13
 -1      2190 4.43711E+01 7.04688E+00 6.15332E-01 1.84772E-01 5.15255E-13 8.69471E-13
 -1      2191 3.84504E+01 3.37335E+00 2.19139E-01-1.63688E+00 5.00877E-13 6.04627E-13
 -1      2192 4.10691E+01 4.84685E+00 3.55243E-01-5.13805E-01 4.79727E-13 7.07712E-13
 -1      2193 3.23398E+01-5.07996E-02-3.18582E-02-3.54280E+00 3.03202E-13 2.31370E-13
 -1      2194 3.72622E+01 1.66705E+00 3.15640E-01-3.09962E+00 3.98424E-13 5.09592E-13
 -1      2195 3.61687E+01 1.82314E+00 2.74644E-01 4.54631E-01 4.33431E-13 7.41518E-13
 -1      2196 2.28259E+01-3.82339E+00-2.91978E-01-5.16386E+00 1.28564E-13-1.29619E-13
 -1      2197 2.85820E+01-1.83413E+00 1.12767E-01-5.42844E+00 1.63425E-13-6.70575E-14
 -1      2198 1.38488E+01-6.41638E+00-4.16240E-01-5.52278E+00 6.77236E-15-2.27041E-13
 -1      2199 1.88813E+01-4.59067E+00-6.09783E-02-6.34962E+00 1.05138E-13-2.74725E-13
 -1      2200 6.09886E+00-7.45621E+00-4.15768E-01-4.54213E+00 9.22040E-14 4.31044E-14
 -1      2201 9.61344E+00-6.18902E+00-2.19865E-01-5.63287E+00 4.22995E-14-1.33844E-13
 -1      2202 1.86214E+00-6.57081E+00-2.38430E-01-2.17208E+00-6.11733E-14 1.38223E-13
 -1      2203 3.80590E+00-6.38163E+00-1.90284E-01-3.75477E+00 2.27596E-15 2.28484E-13
 -1      2204 3.56350E+00-6.06880E+00-2.19048E-01 4.83537E+00-1.53211E-14-5.38680E-13
 -1      2205 1.57905E+00-7.19720E+00-3.56703E-01 3.24225E+00 4.29656E-14-2.02449E-13
 -1      2206 2.44063E+00-4.41649E+00-1.30543E-01 2.93891E+00-2.03865E-14-1.78191E-13
 -1      2207 1.99994E+01-5.97874E-04-2.52841E-06 8.57689E-04-2.18836E-13 2.56381E-13
 -1      2208 2.31420E+01-3.90720E+00 4.25370E-02 6.24290E+00 1.45939E-13-1.85879E-13
 -1      2209 2.28364E+01 1.19057E+00-1.09514E-02-6.31176E-01 3.52322E-13-2.21070E-13
 -1      2210 1.51333E+01-5.49046E+00-1.01204E-01 7.38430E+00 2.43527E-13-5.82947E-13
 -1      2211 2.98281E+01-9.78054E-01 1.72586E-01 3.72156E+00-1.14228E-13 1.32616E-13
 -1      2212 2.23442E+01 1.50790E+00-2.53579E-02-4.43604E-01 3.82541E-13-2.58855E-14
 -1      2213 1.99994E+01-9.40961E-04-1.48036E-06-1.27775E-03-1.95041E-13 3.12070E-13
 -1      2214 1.99994E+01-8.62333E-04-3.76966E-06 1.02149E-03-2.66640E-13 3.43153E-13
 -1      2215 7.32989E+00-5.16519E+00-7.08821E-02 6.38689E+00 6.46150E-14-5.76095E-13
 -1      2216 2.80767E+00-4.06871E+00-7.31456E-02-1.52573E+00-8.84848E-14 7.83262E-14
 -1      2217 7.06010E+00-5.43494E+00-1.55262E-01-5.09677E+00-1.52933E-13 7.55507E-14
 -1      2218 1.46227E+01-6.47489E+00-1.17336E-01-6.32381E+00-6.53921E-14-1.55438E-13
 -1      2219 3.17646E+01-2.51333E+00 1.36265E-01-2.21516E+00 1.71058E-13 3.06699E-13
 -1      2220 3.84065E+01 5.86245E+00 3.51298E-01 1.24349E+00 5.30354E-13 7.08933E-13
 -1      2221 3.97304E+01 7.78140E+00 4.75858E-01 1.14337E-01 6.06515E-13 7.12146E-13
 -1      2222 3.87289E+01 5.74127E+00 3.85036E-01-7.44432E-01 6.76070E-13 7.83651E-13
 -1      2223 3.57063E+01 1.20265E+00 2.10377E-01-1.00883E-01 5.44453E-13 5.97633E-13
 -1      2224 3.01800E+01-3.41531E+00 7.53518E-02 2.81617E+00 3.22464E-13 6.48204E-13
 -1      2225 2.19222E+01-5.78225E+00-7.12445E-03 5.70871E+00 1.81799E-13 8.59562E-13
 -1      2226 1.32226E+01-6.25557E+00-1.39978E-01 6.46148E+00 9.69780E-14 8.56759E-13
 -1      2227 5.82832E+00-5.44145E+00-1.59218E-01 4.73883E+00 4.95159E-14 8.55205E-13
 -1      2228 1.92959E+00-4.50166E+00-1.56363E-01 7.93233E-01 4.66086E-14 8.82572E-13
 -1      2229 2.57881E+00-4.94932E+00-1.96782E-01-3.43675E+00 6.05072E-15 7.54952E-13
 -1      2230 7.78198E+00-5.54563E+00-1.54613E-01-6.56496E+00-1.54377E-13 6.33493E-13
 -1      2231 1.56356E+01-5.35509E+00-5.56265E-02-7.34940E+00-2.61402E-13 5.83894E-13
 -1      2232 2.35919E+01-3.87399E+00 4.89146E-02-6.10456E+00-3.97682E-13 4.97880E-13
 -1      2233 3.01708E+01-6.97934E-01 1.60270E-01-3.79686E+00-6.08805E-13 3.52496E-13
 -1      2234 3.46026E+01 3.43124E+00 2.94592E-01-1.70343E+00-7.25156E-13 2.19602E-13
 -1      2235 3.63783E+01 8.46082E+00 2.59423E-01 1.30302E-01-6.35603E-13 3.41335E-13
 -1      2236 3.42551E+01 3.29278E+00 2.17737E-01 1.33783E+00-3.43309E-13 2.77611E-13
 -1      2237 3.58357E+01 6.95976E+00 2.30721E-01-1.23222E-01-7.08933E-13 2.04087E-13
 -1      2238 2.34979E+01-5.67817E+00-2.32233E-02-5.04571E+00-9.10383E-15-2.20657E-14
 -1      2239 1.99993E+01-9.87574E-04-1.94476E-06 1.41368E-03-5.96504E-14 1.32230E-13
 -1      2240 1.74998E+01 4.31355E+00-4.68991E-03-6.51761E-01 1.97902E-13 5.50694E-13
 -1      2241 1.76022E+01 4.30823E+00-9.82291E-03-6.39950E-01 2.30594E-13 5.23872E-13
 -1      2242 1.78126E+01 4.24793E+00-1.19477E-02-5.44953E-01 2.51757E-13 5.08573E-13
 -1      2243 1.81332E+01 4.16236E+00-8.65891E-03-5.37683E-01 2.88061E-13 4.80991E-13
 -1      2244 1.77050E+01 4.04739E+00 9.01712E-03-5.46927E-01 2.45645E-13 4.91714E-13
 -1      2245 1.79596E+01 3.95787E+00 2.09139E-03-6.09146E-01 1.08473E-13 5.98840E-13
 -1      2246 1.77377E+01 4.04551E+00-1.29208E-02-6.87763E-01 1.33134E-13 5.95899E-13
 -1      2247 1.85084E+01 3.66911E+00 6.30188E-04-3.75691E-01 4.36645E-14 5.75344E-13
 -1      2248 1.82162E+01 3.77152E+00-1.28903E-02-5.17549E-01 7.89357E-14 5.83529E-13
 -1      2249 1.81840E+01 3.51831E+00-3.28785E-03-6.89921E-01 9.61321E-14 5.65395E-13
 -1      2250 1.91102E+01 3.38065E+00-3.22312E-03-2.10716E-02-3.65655E-14 5.59592E-13
 -1      2251 1.88033E+01 3.48484E+00-1.24835E-02-2.12575E-01 6.77323E-15 5.65822E-13
 -1      2252 1.87995E+01 3.17362E+00-5.92484E-03-4.25566E-01 2.38825E-14 5.50306E-13
 -1      2253 1.97212E+01 3.09220E+00-9.03801E-03 4.22969E-01-1.07130E-13 5.74905E-13
 -1      2254 1.94157E+01 3.20588E+00-1.28234E-02 1.92724E-01-6.59683E-14 5.64678E-13
 -1      2255 1.94487E+01 2.84091E+00-6.02702E-03-3.96116E-02-5.33502E-14 5.38484E-13
 -1      2256 2.03165E+01 2.77166E+00-1.75983E-02 8.94664E-01-1.92494E-13 5.38807E-13
 -1      2257 2.00196E+01 2.91743E+00-1.44099E-02 6.51435E-01-1.47476E-13 5.59065E-13
 -1      2258 2.00793E+01 2.51635E+00-3.56038E-03 4.04867E-01-1.30672E-13 5.27132E-13
 -1      2259 2.09240E+01 2.33202E+00-3.03181E-02 1.31225E+00-2.96497E-13 4.45418E-13
 -1      2260 2.06150E+01 2.56597E+00-1.72994E-02 1.09739E+00-2.38329E-13 4.87974E-13
 -1      2261 2.06734E+01 2.15781E+00 1.44891E-03 8.26645E-01-2.21943E-13 4.67455E-13
 -1      2262 2.16021E+01 1.65389E+00-2.83944E-02 1.52246E+00-3.59154E-13 3.07514E-13
 -1      2263 2.12591E+01 2.05994E+00-1.06879E-02 1.44003E+00-3.20989E-13 3.93394E-13
 -1      2264 2.12611E+01 1.68015E+00 1.34802E-02 1.11420E+00-3.10986E-13 3.77664E-13
 -1      2265 2.19516E+01 9.65863E-01-1.89917E-02 1.29228E+00-3.43926E-13 1.53311E-13
 -1      2266 2.17671E+01 1.41914E+00-5.96025E-06 1.45761E+00-3.47037E-13 2.47557E-13
 -1      2267 2.15762E+01 1.11165E+00-1.84538E-03 1.09463E+00-3.27755E-13 3.00511E-13
 -1      2268 2.16648E+01 6.27017E-01-4.26029E-03 8.55795E-01-3.14457E-13 1.78930E-13
 -1      2269 2.19067E+01 1.26107E+00 1.35218E-02 5.29195E-01 3.21359E-13 7.86580E-14
 -1      2270 2.19167E+01 1.07716E+00 7.40209E-03 9.85977E-01 2.74719E-13 1.14200E-13
 -1      2271 1.86307E+01-5.17015E+00 1.73073E-02 7.27177E+00 2.89102E-13-2.41179E-13
 -1      2272 1.49923E+01-5.15434E+00 6.28988E-02 7.45795E+00 3.28404E-13-4.74051E-13
 -1      2273 2.52398E+01-4.16203E+00-6.68966E-02 5.20200E+00 2.22516E-13 2.34535E-14
 -1      2274 2.17959E+01-4.99936E+00 1.23254E-03 6.12872E+00 2.84411E-13-7.67719E-14
 -1      2275 2.14070E+01-5.27608E+00 7.40153E-02 6.22017E+00 3.33039E-13-2.43416E-14
 -1      2276 2.18872E+01 9.31019E-01 1.37601E-02 1.39463E+00 2.16952E-13 1.19494E-13
 -1      2277 2.20277E+01 7.82904E-01 9.56912E-03 1.72202E+00 1.89930E-13 1.41819E-13
 -1      2278 2.12065E+01 1.34135E+00-3.61547E-03 1.20573E+00 2.60877E-13 1.79855E-13
 -1      2279 2.20589E+01 6.15787E-01 1.29827E-02 2.05839E+00 1.60761E-13 1.58195E-13
 -1      2280 2.23346E+01 3.86184E-01 6.78659E-03 2.26056E+00 1.16593E-13 1.55997E-13
 -1      2281 2.11714E+01 9.36954E-01-7.87912E-03 1.99082E+00 1.89335E-13 1.86856E-13
 -1      2282 2.25282E+01 8.87820E-02 2.10791E-02 2.49608E+00 3.90198E-14 1.37169E-13
 -1      2283 2.29547E+01-3.33643E-01 7.86373E-04 2.50761E+00-1.91860E-15 1.44627E-13
 -1      2284 2.13294E+01 3.37310E-01-1.78961E-02 2.61237E+00 8.00035E-14 2.01434E-13
 -1      2285 2.34744E+01-8.50294E-01 4.24307E-02 2.55109E+00-5.02541E-14 1.23362E-13
 -1      2286 2.40857E+01-1.52048E+00-6.31367E-03 2.25314E+00-1.02073E-13 1.42791E-13
 -1      2287 2.19024E+01-7.24924E-01-3.59717E-02 2.98398E+00-3.36320E-14 2.03552E-13
 -1      2288 2.51373E+01-2.23720E+00 6.64044E-02 1.92572E+00-1.75533E-13 1.13673E-13
 -1      2289 2.59115E+01-2.96638E+00-2.53965E-02 1.20482E+00-2.19609E-13 8.82588E-14
 -1      2290 2.32410E+01-2.35982E+00-6.16656E-02 2.87019E+00-1.53476E-13 2.08829E-13
 -1      2291 2.76053E+01-3.45443E+00 4.75682E-02 2.12760E-01-2.47887E-13 6.08819E-14
 -1      2292 2.83480E+01-3.34788E+00-3.58227E-02-8.45115E-01-1.67831E-13 3.70676E-14
 -1      2293 2.58194E+01-4.12504E+00-8.72827E-02 1.89455E+00-2.26610E-13 1.44537E-13
 -1      2294 2.99541E+01-2.46162E+00-1.21378E-01-2.36656E+00-6.27415E-14 3.85525E-14
 -1      2295 3.03164E+01-5.12053E-01-7.19348E-02-3.02809E+00 8.67362E-14 5.78704E-14
 -1      2296 3.09760E+01 1.56101E+00-2.32618E-01-3.26517E+00 2.72338E-13 1.37099E-13
 -1      2297 3.10223E+01 3.95133E+00-9.44552E-02-2.47554E+00 5.09592E-13 2.35006E-13
 -1      2298 3.04756E+01-5.03070E-01-2.23211E-02 3.34931E+00 2.74294E-13 6.38906E-13
 -1      2299 3.00047E+01-2.66774E+00-1.52929E-01 2.53249E+00 1.04640E-13 6.63650E-13
 -1      2300 2.84093E+01-3.43097E+00-3.05377E-02 9.84080E-01-6.22991E-14 6.27561E-13
 -1      2301 2.76157E+01-3.52543E+00 2.92756E-02-1.22777E-01-1.34935E-13 6.29663E-13
 -1      2302 2.59709E+01-2.99173E+00-2.03606E-02-1.07617E+00-1.68268E-13 5.13936E-13
 -1      2303 2.52124E+01-2.28036E+00 6.97483E-02-1.82571E+00-1.31973E-13 4.53354E-13
 -1      2304 2.57577E+01-4.04788E+00-4.04374E-02-1.72016E+00-2.15689E-13 5.35523E-13
 -1      2305 2.41379E+01-1.57669E+00-9.25901E-03-2.19562E+00-6.01984E-14 3.43361E-13
 -1      2306 2.35212E+01-9.21452E-01 3.86946E-02-2.52416E+00-4.48235E-14 2.90193E-13
 -1      2307 2.32298E+01-2.43892E+00-4.96735E-02-2.81809E+00-1.69899E-13 3.58526E-13
 -1      2308 2.29840E+01-4.28829E-01 3.02987E-04-2.52493E+00 3.41749E-14 2.78886E-13
 -1      2309 2.25156E+01-4.65040E-02 1.43036E-02-2.56710E+00 1.28219E-13 3.22932E-13
 -1      2310 2.18369E+01-8.41086E-01-3.27729E-02-2.99671E+00-8.37958E-15 1.69096E-13
 -1      2311 2.22809E+01 2.05190E-01 5.92889E-03-2.41500E+00 1.45707E-13 2.59583E-13
 -1      2312 2.19191E+01 3.70782E-01 2.57213E-03-2.30671E+00 7.26664E-14 2.71499E-13
 -1      2313 2.12036E+01 1.17493E-01-1.32993E-02-2.76920E+00 6.34440E-14 1.44409E-13
 -1      2314 2.18201E+01 4.63261E-01 9.18400E-03-2.10561E+00-1.65282E-14 2.72749E-13
 -1      2315 2.15276E+01 5.02682E-01-1.95305E-03-1.93916E+00-5.19211E-14 2.91389E-13
 -1      2316 2.09261E+01 5.46220E-01-3.15466E-03-2.38735E+00 2.13344E-14 1.30513E-13
 -1      2317 2.14771E+01 5.11493E-01 1.02934E-02-1.73831E+00-1.29300E-14 3.25690E-13
 -1      2318 2.12351E+01 4.91697E-01-2.95349E-03-1.56526E+00 4.62790E-14 4.10900E-13
 -1      2319 2.07871E+01 6.61986E-01 8.25997E-04-1.97408E+00 5.84798E-14 1.46130E-13
 -1      2320 2.11963E+01 4.64904E-01 9.98310E-03-1.38570E+00-2.02204E-14 4.42222E-13
 -1      2321 2.09958E+01 4.23939E-01-2.64151E-03-1.23010E+00-1.20915E-14 4.13224E-13
 -1      2322 2.06885E+01 6.26001E-01 1.65655E-03-1.58675E+00 1.99194E-14 2.24575E-13
 -1      2323 2.09574E+01 3.86839E-01 8.87050E-03-1.07880E+00-7.83414E-14 3.44129E-13
 -1      2324 2.07932E+01 3.43151E-01-1.98378E-03-9.48800E-01-2.02583E-13 2.08000E-13
 -1      2325 2.05961E+01 5.32589E-01 1.23816E-03-1.24924E+00-1.14762E-13 7.24880E-14
 -1      2326 2.07542E+01 3.07124E-01 7.45148E-03-8.25839E-01-1.96972E-13 3.27274E-13
 -1      2327 2.06219E+01 2.68222E-01-1.35166E-03-7.21683E-01-7.23917E-14 2.91914E-13
 -1      2328 2.05039E+01 4.28780E-01 5.48793E-04-9.67933E-01-1.12882E-13 6.76467E-14
 -1      2329 2.05840E+01 2.37404E-01 6.03208E-03-6.24090E-01-7.73825E-14 1.99178E-13
 -1      2330 2.04792E+01 2.05433E-01-8.54906E-04-5.42729E-01-1.15273E-13 2.41058E-13
 -1      2331 2.04146E+01 3.34538E-01-2.70357E-05-7.40306E-01-9.41731E-14 3.28431E-14
 -1      2332 2.04444E+01 1.80609E-01 4.76348E-03-4.66514E-01 4.89767E-14 2.82756E-13
 -1      2333 2.03627E+01 1.55395E-01-5.02195E-04-4.03972E-01-1.57082E-14 3.20998E-13
 -1      2334 2.03323E+01 2.56165E-01-3.97852E-04-5.59848E-01 6.48873E-15 8.87250E-14
 -1      2335 2.03322E+01 1.36014E-01 3.69791E-03-3.45145E-01-1.09721E-13 3.69529E-13
 -1      2336 2.02694E+01 1.16564E-01-2.68221E-04-2.97593E-01-3.53195E-14 3.35979E-13
 -1      2337 2.02599E+01 1.93846E-01-5.87014E-04-4.18879E-01-7.89264E-14 2.34218E-13
 -1      2338 2.02437E+01 1.01681E-01 2.83528E-03-2.52607E-01-5.52351E-14 2.77687E-13
 -1      2339 2.01961E+01 8.68564E-02-1.21653E-04-2.16752E-01-2.88901E-14 1.92894E-13
 -1      2340 2.01987E+01 1.45480E-01-6.47419E-04-3.09989E-01-8.88023E-14 1.67621E-13
 -1      2341 2.01751E+01 7.55270E-02 2.15263E-03-1.82632E-01-5.75917E-15 7.63775E-14
 -1      2342 2.01395E+01 6.43028E-02-3.51292E-05-1.55797E-01-1.26010E-14 1.30792E-13
 -1      2343 2.01485E+01 1.08439E-01-6.28491E-04-2.26664E-01-6.46710E-14 9.12745E-14
 -1      2344 2.01229E+01 5.57201E-02 1.62016E-03-1.30130E-01 5.14701E-14 8.63646E-14
 -1      2345 2.00967E+01 4.72570E-02 1.22212E-05-1.10202E-01 1.93198E-14 1.70057E-13
 -1      2346 2.01084E+01 8.02818E-02-5.67069E-04-1.63454E-01-6.05140E-14-4.48766E-14
 -1      2347 2.00839E+01 4.07767E-02 1.20886E-03-9.10654E-02-1.76653E-14 2.32958E-13
 -1      2348 2.00648E+01 3.44179E-02 3.51602E-05-7.63961E-02 2.36471E-14 3.31116E-13
 -1      2349 2.00771E+01 5.89760E-02-4.87582E-04-1.15926E-01 1.16866E-13 6.90163E-14
 -1      2350 2.00551E+01 2.95414E-02 8.93463E-04-6.22741E-02-3.59398E-14 4.12731E-13
 -1      2351 2.00416E+01 2.47831E-02 4.36121E-05-5.15902E-02-1.73241E-13 3.53664E-13
 -1      2352 2.00533E+01 4.29150E-02-4.04874E-04-8.05365E-02-3.49029E-14 1.24183E-13
 -1      2353 2.00344E+01 2.11295E-02 6.53143E-04-4.12950E-02-1.64929E-13 4.24224E-13
 -1      2354 2.00250E+01 1.75885E-02 4.39853E-05-3.36150E-02-1.19442E-13 3.79904E-13
 -1      2355 2.00355E+01 3.08581E-02-3.27173E-04-5.44791E-02-8.47076E-14 6.51735E-14
 -1      2356 2.00198E+01 1.48679E-02 4.71211E-04-2.62192E-02-8.58837E-14 4.02434E-13
 -1      2357 2.00135E+01 1.22524E-02 4.02668E-05-2.07881E-02-3.96107E-14 4.13504E-13
 -1      2358 2.00225E+01 2.18559E-02-2.58449E-04-3.55449E-02-5.37917E-14 2.55748E-13
 -1      2359 2.00098E+01 1.02432E-02 3.34489E-04-1.55705E-02-4.58995E-14 3.16758E-13
 -1      2360 2.00057E+01 8.33054E-03 3.48381E-05-1.18086E-02 2.03577E-14 3.32762E-13
 -1      2361 2.00132E+01 1.51834E-02-2.00086E-04-2.20040E-02-7.43599E-14 1.72288E-14
 -1      2362 2.00032E+01 6.86290E-03 2.32638E-04-8.21038E-03-6.52295E-14 3.36205E-13
 -1      2363 2.00007E+01 5.48226E-03 2.90485E-05-5.67385E-03-2.16070E-13 2.08501E-13
 -1      2364 2.00068E+01 1.02850E-02-1.51986E-04-1.25080E-02-9.40175E-14-1.58236E-14
 -1      2365 1.99991E+01 4.42519E-03 1.57565E-04-3.26462E-03-2.59840E-13 3.01829E-13
 -1      2366 1.99976E+01 3.44503E-03 2.36011E-05-1.61560E-03-1.56113E-13 1.51068E-13
 -1      2367 2.00025E+01 6.73362E-03-1.13281E-04-6.01101E-03-1.71447E-13 1.00424E-13
 -1      2368 1.99967E+01 2.69714E-03 1.02947E-04-6.60275E-05-8.20912E-14 2.70924E-13
 -1      2369 1.99960E+01 2.01591E-03 1.88042E-05 9.51047E-04 1.18363E-13 3.90716E-13
 -1      2370 1.99998E+01 4.19922E-03-8.27589E-05-1.70760E-03-3.89458E-14 3.43607E-13
 -1      2371 1.99955E+01 1.49850E-03 6.38411E-05 1.89045E-03 2.12190E-13 3.47076E-13
 -1      2372 1.99953E+01 1.03768E-03 1.47298E-05 2.46688E-03 2.43373E-13 3.96891E-13
 -1      2373 1.99982E+01 2.42642E-03-5.91189E-05 1.01746E-03 1.55199E-13 2.62118E-13
 -1      2374 1.99951E+01 6.89643E-04 3.63987E-05 2.98282E-03 2.64727E-13 3.32170E-13
 -1      2375 1.99952E+01 3.88443E-04 1.13087E-05 3.25979E-03 2.64674E-13 1.53831E-13
 -1      2376 1.99974E+01 1.21715E-03-4.11143E-05 2.62894E-03 1.79262E-13 1.59716E-13
 -1      2377 1.99952E+01 1.62174E-04 1.76342E-05 3.48963E-03 1.59466E-13 2.02847E-13
 -1      2378 1.99956E+01-2.65990E-05 8.38965E-06 3.56920E-03-6.58060E-14 2.84992E-13
 -1      2379 1.99971E+01 4.17594E-04-2.76272E-05 3.47296E-03 1.97555E-13 1.29436E-13
 -1      2380 1.99956E+01-1.68324E-04 5.25645E-06 3.61158E-03-2.04359E-13 3.44341E-13
 -1      2381 1.99961E+01-2.81565E-04 5.78794E-06 3.56519E-03-3.63836E-13 5.05488E-13
 -1      2382 1.99971E+01-9.19778E-05-1.76963E-05 3.80222E-03-7.79758E-14 3.54826E-13
 -1      2383 1.99962E+01-3.68204E-04-2.44827E-06 3.48834E-03-4.52269E-13 5.26015E-13
 -1      2384 1.99967E+01-4.35209E-04 3.32259E-06 3.36333E-03-3.83420E-13 4.00715E-13
 -1      2385 1.99974E+01-4.05428E-04-1.05094E-05 3.79603E-03-3.40188E-13 4.44221E-13
 -1      2386 1.99969E+01-4.90575E-04-6.76984E-06 3.21160E-03-1.65461E-13 2.72843E-13
 -1      2387 1.99974E+01-5.35206E-04 7.93528E-07 3.03621E-03-1.42732E-14 3.76332E-13
 -1      2388 1.99977E+01-5.97227E-04-5.41194E-06 3.57602E-03-3.18351E-13 5.67099E-13
 -1      2389 1.99976E+01-5.79169E-04-8.73634E-06 2.83501E-03-1.16671E-13 3.24622E-13
 -1      2390 1.99980E+01-6.20792E-04-2.13262E-06 2.62265E-03-8.23849E-14 1.73647E-13
 -1      2391 1.99981E+01-7.27881E-04-2.07500E-06 3.21875E-03-2.00310E-13 4.67432E-13
 -1      2392 1.99982E+01-6.70173E-04-1.00395E-05 2.38203E-03-8.64730E-16 2.14495E-13
 -1      2393 1.99986E+01-7.20345E-04-6.56311E-06 2.13566E-03-5.71955E-15 8.84497E-14
 -1      2394 1.99986E+01-8.44173E-04 5.84732E-07 2.76624E-03-4.88105E-14 1.43400E-13
 -1      2395 1.99988E+01-8.25400E-04-1.09686E-05 1.93487E-03-3.06750E-14 1.10410E-13
 -1      2396 1.99991E+01-8.87031E-04-9.98818E-06 1.65034E-03-2.55937E-14 9.84785E-14
 -1      2397 1.99994E+01-1.25988E-03 7.26202E-06 1.81976E-03-2.35407E-14 5.05915E-14
 -1      2398 1.99990E+01-1.01593E-03 6.47047E-06 2.29696E-03-4.92964E-14 1.85365E-13
 -1      2399 2.09757E+01-3.19292E-01-5.91044E-03 6.40141E-01-5.19044E-14 2.82045E-13
 -1      2400 2.10873E+01-2.98570E-01 3.44617E-03 5.29373E-01-6.20120E-14 2.63515E-13
 -1      2401 2.10886E+01-2.54813E-01-7.33265E-03 4.19560E-01-1.01541E-13 2.69173E-13
 -1      2402 2.11880E+01-1.77804E-01 9.14170E-03 3.49376E-01-1.27848E-13 2.70257E-13
 -1      2403 2.13284E+01-3.57012E-01-6.14288E-04 5.19552E-01-8.05409E-14 2.77155E-13
 -1      2404 2.11831E+01-8.42874E-02-5.64908E-03 3.12874E-01-1.64625E-13 2.70552E-13
 -1      2405 2.12853E+01 3.70572E-02 1.04359E-02 3.26165E-01-2.03851E-13 2.56496E-13
 -1      2406 2.13348E+01-1.62120E-01-3.96241E-03 3.72766E-01-1.59180E-13 2.99477E-13
 -1      2407 2.08027E+01-2.56400E-01-1.32285E-03 8.81424E-01-6.72225E-14 2.53544E-13
 -1      2408 2.09403E+01-3.05005E-01-1.35552E-03 7.77558E-01-5.82739E-14 2.60343E-13
 -1      2409 2.12912E+01-4.04116E-01 2.66018E-03 7.78167E-01-6.02307E-14 2.69174E-13
 -1      2410 2.05526E+01-5.58467E-02 5.59683E-03 1.02986E+00-9.51303E-14 2.59885E-13
 -1      2411 2.07108E+01-1.75132E-01-5.07974E-03 9.86371E-01-7.30583E-14 2.57407E-13
 -1      2412 2.11749E+01-2.75363E-01 5.14920E-03 1.03943E+00-6.96519E-14 2.85805E-13
 -1      2413 2.02520E+01 2.45312E-01 1.21267E-02 9.74254E-01-1.22922E-13 2.93425E-13
 -1      2414 2.04058E+01 8.22166E-02-6.64219E-03 1.03638E+00-1.23626E-13 2.66521E-13
 -1      2415 2.09567E+01 2.74885E-02 4.83489E-03 1.16788E+00-1.30307E-13 2.69835E-13
 -1      2416 1.99760E+01 5.47255E-01 1.45035E-02 6.54806E-01-7.77542E-14 3.29488E-13
 -1      2417 2.00886E+01 3.99688E-01-4.25737E-03 8.36391E-01-9.06415E-14 3.35460E-13
 -1      2418 2.06696E+01 4.31100E-01-1.23489E-04 1.03821E+00-1.37488E-13 2.79522E-13
 -1      2419 1.98280E+01 7.19607E-01 1.11435E-02 1.16449E-01-5.76648E-14 4.14851E-13
 -1      2420 1.98644E+01 6.54166E-01 2.21091E-03 3.81090E-01-6.72205E-14 3.92728E-13
 -1      2421 2.04128E+01 7.92234E-01-6.23514E-03 6.01702E-01-1.21494E-13 3.68332E-13
 -1      2422 1.98789E+01 6.78608E-01 3.60868E-03-4.88792E-01-1.80741E-14 4.64613E-13
 -1      2423 1.98244E+01 7.27744E-01 9.60416E-03-2.18130E-01-2.53604E-14 4.90948E-13
 -1      2424 2.03053E+01 9.50558E-01-9.58481E-03-5.30168E-02-7.13719E-14 4.71328E-13
 -1      2425 2.01199E+01 4.43539E-01-3.55062E-03-9.72391E-01-9.71547E-14 5.34745E-13
 -1      2426 1.99872E+01 5.83521E-01 1.36086E-02-7.76333E-01-6.85597E-14 5.16877E-13
 -1      2427 2.04055E+01 8.30824E-01-7.03466E-03-7.22882E-01-5.50766E-14 6.13611E-13
 -1      2428 2.04634E+01 1.21586E-01-7.05789E-03-1.20557E+00-5.34774E-14 5.00228E-13
 -1      2429 2.02874E+01 2.90109E-01 1.19244E-02-1.12926E+00-9.49909E-14 4.71700E-13
 -1      2430 2.06657E+01 4.87866E-01-5.12004E-04-1.19464E+00-7.07146E-14 5.83658E-13
 -1      2431 2.07968E+01-1.64189E-01-6.76586E-03-1.17058E+00 5.40917E-14 4.62199E-13
 -1      2432 2.06189E+01-2.77981E-02 5.74900E-03-1.21024E+00 2.84413E-14 4.60051E-13
 -1      2433 2.09672E+01 6.91554E-02 5.15224E-03-1.35580E+00-5.61264E-16 4.48979E-13
 -1      2434 2.10385E+01-3.39260E-01-4.38271E-03-9.40484E-01-1.96219E-14 3.72001E-13
 -1      2435 2.08919E+01-2.65416E-01-1.41879E-03-1.05822E+00-3.14397E-15 4.49518E-13
 -1      2436 2.11976E+01-2.77435E-01 6.99890E-03-1.22810E+00 6.31324E-14 4.36057E-13
 -1      2437 2.11600E+01-3.93453E-01-1.65081E-03-6.21306E-01 9.58840E-14 2.32361E-13
 -1      2438 2.10619E+01-3.80306E-01-6.59288E-03-7.70279E-01 4.39687E-14 2.82204E-13
 -1      2439 2.13038E+01-4.72640E-01 5.86163E-03-9.19060E-01 4.87592E-14 3.15782E-13
 -1      2440 2.11733E+01-3.58371E-01 2.92176E-04-3.03165E-01-4.48704E-14 2.72978E-13
 -1      2441 2.11262E+01-3.86316E-01-8.82843E-03-4.45987E-01 1.97581E-14 2.81657E-13
 -1      2442 2.12911E+01-5.16446E-01 3.50064E-03-5.49907E-01 3.91136E-14 3.30491E-13
 -1      2443 2.11084E+01-2.76789E-01 1.31923E-03-4.04380E-02-1.10532E-13 3.53319E-13
 -1      2444 2.11051E+01-3.23579E-01-8.62618E-03-1.55559E-01-1.31859E-13 2.68683E-13
 -1      2445 2.11947E+01-4.54451E-01 1.35932E-03-2.09794E-01-8.59126E-14 3.84349E-13
 -1      2446 2.09967E+01-1.83834E-01 1.62736E-03 1.46292E-01-4.95350E-14 3.71397E-13
 -1      2447 2.10259E+01-2.32730E-01-7.00981E-03 6.62289E-02-2.08670E-14 3.68685E-13
 -1      2448 2.10537E+01-3.41550E-01-5.03723E-05 5.51842E-02-7.56731E-14 3.13660E-13
 -1      2449 2.08632E+01-1.00808E-01 1.53301E-03 2.59068E-01-1.45136E-14 4.75413E-13
 -1      2450 2.09132E+01-1.42440E-01-4.90376E-03 2.12129E-01-8.04387E-14 3.91148E-13
 -1      2451 2.08980E+01-2.20244E-01-7.91864E-04 2.33247E-01-6.90174E-14 3.20999E-13
 -1      2452 2.07255E+01-3.68999E-02 1.27389E-03 3.11304E-01 2.22119E-14 4.85173E-13
 -1      2453 2.07861E+01-6.77918E-02-2.89553E-03 2.90998E-01 5.72259E-14 4.81027E-13
 -1      2454 2.07461E+01-1.15125E-01-1.08837E-03 3.32898E-01-1.37961E-14 3.68928E-13
 -1      2455 2.05942E+01 6.65637E-03 9.89713E-04 3.19781E-01-6.04480E-14 4.25549E-13
 -1      2456 2.06579E+01-1.36375E-02-1.27061E-03 3.18413E-01 1.73260E-14 4.91618E-13
 -1      2457 2.06076E+01-3.59334E-02-1.14676E-03 3.71373E-01 2.84746E-14 4.73506E-13
 -1      2458 2.04756E+01 3.26891E-02 7.43003E-04 3.00132E-01 3.15176E-14 2.54572E-13
 -1      2459 2.05368E+01 2.11493E-02-1.05501E-04 3.10688E-01-2.39021E-14 3.26265E-13
 -1      2460 2.04864E+01 1.69587E-02-1.09608E-03 3.67304E-01 5.37085E-14 4.08627E-13
 -1      2461 2.03724E+01 4.54326E-02 5.50535E-04 2.64928E-01 5.74671E-14 2.01162E-13
 -1      2462 2.04279E+01 4.03307E-02 6.36482E-04 2.81849E-01 5.99585E-15 2.28267E-13
 -1      2463 2.03832E+01 4.77511E-02-1.00354E-03 3.36997E-01 4.53449E-14 2.85470E-13
 -1      2464 2.02853E+01 4.90540E-02 4.08567E-04 2.23279E-01 1.14473E-13 2.19563E-13
 -1      2465 2.03335E+01 4.82451E-02 1.03988E-03 2.42594E-01 1.32923E-13 2.54446E-13
 -1      2466 2.02971E+01 6.20606E-02-8.98621E-04 2.93091E-01 9.10113E-14 2.91167E-13
 -1      2467 2.02137E+01 4.70087E-02 3.06482E-04 1.81210E-01 1.43862E-13 2.71678E-13
 -1      2468 2.02540E+01 4.87744E-02 1.19841E-03 2.00341E-01 1.12471E-13 2.36851E-13
 -1      2469 2.02265E+01 6.52210E-02-7.92497E-04 2.44506E-01 9.04792E-14 2.88800E-13
 -1      2470 2.01562E+01 4.18757E-02 2.33373E-04 1.42307E-01-4.75885E-14 4.47276E-13
 -1      2471 2.01889E+01 4.49656E-02 1.19555E-03 1.59757E-01 3.79485E-14 3.70512E-13
 -1      2472 2.01697E+01 6.15734E-02-6.89212E-04 1.96996E-01 5.21012E-14 3.67829E-13
 -1      2473 2.01111E+01 3.54286E-02 1.80389E-04 1.08387E-01-1.81188E-13 6.30045E-13
 -1      2474 2.01368E+01 3.90030E-02 1.09727E-03 1.23435E-01-8.07523E-14 5.26666E-13
 -1      2475 2.01245E+01 5.43175E-02-5.90668E-04 1.53875E-01-7.91200E-14 5.49293E-13
 -1      2476 2.00764E+01 2.87944E-02 1.41125E-04 8.00832E-02-1.27657E-13 6.16166E-13
 -1      2477 2.00962E+01 3.23339E-02 9.51452E-04 9.25195E-02-1.22879E-13 6.19477E-13
 -1      2478 2.00893E+01 4.56302E-02-4.98342E-04 1.16723E-01-1.82240E-13 4.41559E-13
 -1      2479 2.00504E+01 2.26238E-02 1.11251E-04 5.72911E-02-1.13792E-13 6.01496E-13
 -1      2480 2.00651E+01 2.58398E-02 7.90245E-04 6.72152E-02-9.87156E-14 5.73090E-13
 -1      2481 2.00623E+01 3.68779E-02-4.13580E-04 8.59681E-02-6.24647E-14 5.28510E-13
 -1      2482 2.00313E+01 1.72396E-02 8.79587E-05 3.94957E-02 5.97311E-14 5.44365E-13
 -1      2483 2.00420E+01 1.99997E-02 6.33540E-04 4.71745E-02-2.41737E-14 5.37570E-13
 -1      2484 2.00419E+01 2.88360E-02-3.37454E-04 6.13392E-02-4.30048E-14 4.49139E-13
 -1      2485 2.00177E+01 1.27528E-02 6.94577E-05 2.59941E-02 2.36572E-13 4.92152E-13
 -1      2486 2.00252E+01 1.50230E-02 4.92325E-04 3.17655E-02 1.24561E-13 5.16427E-13
 -1      2487 2.00269E+01 2.18760E-02-2.70606E-04 4.21863E-02 7.71215E-14 2.88250E-13
 -1      2488 2.00083E+01 9.14787E-03 5.46030E-05 1.60357E-02 2.01864E-13 4.66741E-13
 -1      2489 2.00133E+01 1.09515E-02 3.71528E-04 2.02487E-02 2.53896E-13 5.06688E-13
 -1      2490 2.00161E+01 1.61115E-02-2.13194E-04 2.76972E-02 2.37358E-13 3.37605E-13
 -1      2491 2.00020E+01 6.34060E-03 4.26342E-05 8.90616E-03 1.71081E-13 5.06194E-13
 -1      2492 2.00053E+01 7.73060E-03 2.72221E-04 1.18865E-02 3.06510E-13 4.78060E-13
 -1      2493 2.00085E+01 1.15027E-02-1.64931E-04 1.70342E-02 2.49895E-13 2.37774E-13
 -1      2494 1.99981E+01 4.21652E-03 3.30122E-05 3.97013E-03 1.54435E-13 1.80607E-13
 -1      2495 2.00001E+01 5.25743E-03 1.93215E-04 6.00345E-03 9.16576E-14 3.49924E-13
 -1      2496 2.00033E+01 7.92925E-03-1.25183E-04 9.41321E-03 2.61073E-13 2.23729E-13
 -1      2497 1.99959E+01 2.65425E-03 2.53209E-05 6.89299E-04 2.18164E-13-7.39620E-14
 -1      2498 1.99969E+01 3.41150E-03 1.32161E-04 2.01484E-03 2.03116E-13 3.43892E-14
 -1      2499 2.00000E+01 5.23652E-03-9.30852E-05 4.14447E-03 2.93148E-13-5.97431E-15
 -1      2500 1.99948E+01 1.53870E-03 1.92102E-05-1.37597E-03 2.26071E-13-1.67797E-13
 -1      2501 1.99952E+01 2.07277E-03 8.62561E-05-5.64823E-04 1.74819E-13-3.60691E-14
 -1      2502 1.99980E+01 3.26410E-03-6.76529E-05 6.47081E-04 2.17562E-13-1.43232E-13
 -1      2503 1.99946E+01 7.67653E-04 1.43635E-05-2.57351E-03 9.84324E-14-1.58845E-13
 -1      2504 1.99945E+01 1.13141E-03 5.26833E-05-2.12526E-03 2.19019E-13-8.96085E-14
 -1      2505 1.99970E+01 1.86175E-03-4.78697E-05-1.55123E-03 1.99354E-13-9.77300E-14
 -1      2506 1.99948E+01 2.53963E-04 1.04789E-05-3.17034E-03 7.52044E-14-1.84620E-13
 -1      2507 1.99945E+01 4.91938E-04 2.88516E-05-2.96993E-03 3.80991E-14-1.43175E-13
 -1      2508 1.99965E+01 8.96867E-04-3.27563E-05-2.82281E-03 9.46725E-14 6.93595E-14
 -1      2509 1.99953E+01-7.47909E-05 7.25661E-06-3.36486E-03 3.37078E-13-4.35448E-13
 -1      2510 1.99949E+01 7.41390E-05 1.25128E-05-3.32792E-03 2.43929E-13-3.40531E-13
 -1      2511 1.99965E+01 2.56883E-04-2.14199E-05-3.45261E-03 2.39722E-13-1.01004E-13
 -1      2512 1.99960E+01-2.78086E-04 4.40406E-06-3.29851E-03 4.11274E-13-5.34503E-13
 -1      2513 1.99955E+01-1.88165E-04 1.80268E-06-3.36604E-03 3.59439E-13-5.19218E-13
 -1      2514 1.99968E+01-1.51625E-04-1.30864E-05-3.65169E-03 3.80386E-13-3.66007E-13
 -1      2515 1.99968E+01-4.04825E-04 1.66311E-06-3.06608E-03 3.11700E-13-3.55464E-13
 -1      2516 1.99963E+01-3.49265E-04-4.76059E-06-3.19986E-03 4.35629E-13-4.46814E-13
 -1      2517 1.99972E+01-4.05388E-04-7.10846E-06-3.56992E-03 3.81703E-13-5.81303E-13
 -1      2518 1.99975E+01-4.95873E-04-1.16800E-06-2.72461E-03-4.50101E-14-2.30813E-13
 -1      2519 1.99970E+01-4.54093E-04-8.35668E-06-2.90330E-03 7.62278E-14-2.93676E-13
 -1      2520 1.99977E+01-5.67289E-04-2.96638E-06-3.30746E-03 1.08045E-13-2.31668E-13
 -1      2521 1.99982E+01-5.84935E-04-4.52283E-06-2.30136E-03-1.71957E-13 4.86063E-15
 -1      2522 1.99977E+01-5.40650E-04-9.95541E-06-2.51631E-03-3.95442E-14 2.74214E-14
 -1      2523 1.99982E+01-6.89176E-04-1.84359E-07-2.92485E-03-1.23982E-13 4.34976E-14
 -1      2524 1.99988E+01-6.90112E-04-1.09195E-05-1.80702E-03 1.74276E-13-1.50000E-13
 -1      2525 1.99984E+01-6.35243E-04-1.13703E-05-2.05031E-03-7.59010E-14-1.14763E-13
 -1      2526 1.99986E+01-8.11216E-04 2.25504E-06-2.45043E-03-1.17583E-14 1.24516E-13
 -1      2527 1.99991E+01-9.15291E-04-5.48589E-06-1.53020E-03-3.34451E-14 1.76724E-13
 -1      2528 2.00003E+01-2.90902E-03 1.09747E-05-1.57164E-03-2.96992E-13-1.74057E-13
 -1      2529 2.00002E+01-2.64703E-03-6.73634E-07-1.73231E-03-2.37864E-13-2.10241E-13
 -1      2530 2.00000E+01-2.39632E-03 9.38782E-06-1.86909E-03-2.99715E-13-1.89786E-13
 -1      2531 1.99999E+01-2.09478E-03-5.48104E-06-1.92579E-03-2.83180E-13-1.49639E-14
 -1      2532 2.00002E+01-2.34287E-03-4.71476E-06-2.03918E-03-2.25729E-13-1.62237E-13
 -1      2533 1.99997E+01-1.80219E-03 6.41248E-06-1.93636E-03-2.96282E-13 9.87063E-14
 -1      2534 1.99995E+01-1.48060E-03-1.20612E-05-1.86912E-03-2.36419E-13 2.66522E-13
 -1      2535 1.99998E+01-1.82035E-03-3.70905E-06-2.20142E-03-2.30458E-13-7.64115E-15
 -1      2536 1.07978E+01-4.12541E+00 5.97914E-02 7.13978E+00 1.75832E-13-5.33434E-13
 -1      2537 7.11798E+00-3.49248E+00 9.95585E-02 5.68675E+00 2.67009E-14-3.89522E-13
 -1      2538 2.00005E+01-3.29851E-03 1.15368E-05-1.09415E-03-3.53156E-13 1.41924E-13
 -1      2539 2.00004E+01-3.10726E-03 3.42992E-06-1.33294E-03-3.51314E-13-1.29306E-13
 -1      2540 2.00005E+01-2.77350E-03-6.85684E-06-1.64102E-03-2.75547E-13-1.79608E-13
 -1      2541 2.00006E+01-3.52518E-03 1.11594E-05-4.98809E-04-3.94569E-13 4.42104E-13
 -1      2542 2.00006E+01-3.42392E-03 7.08265E-06-7.85350E-04-3.31348E-13 1.56900E-13
 -1      2543 2.00008E+01-3.08447E-03-7.93444E-06-1.06039E-03-3.37144E-13 1.84185E-13
 -1      2544 2.00006E+01-3.57021E-03 9.78153E-06 1.48723E-04-3.14767E-13 6.20351E-13
 -1      2545 2.00006E+01-3.56944E-03 9.57473E-06-1.54286E-04-5.11209E-13 5.72823E-13
 -1      2546 2.00009E+01-3.24785E-03-8.62389E-06-3.68860E-04-4.10820E-13 3.93891E-13
 -1      2547 2.00006E+01-3.42993E-03 7.42136E-06 7.81824E-04-3.85798E-13-5.47813E-14
 -1      2548 2.00006E+01-3.53012E-03 1.09477E-05 4.94162E-04-3.64396E-13 3.93923E-13
 -1      2549 2.00009E+01-3.25189E-03-8.67177E-06 3.61295E-04-3.58500E-13 4.53247E-13
 -1      2550 2.00004E+01-3.12361E-03 3.73514E-06 1.32527E-03-2.42761E-13-2.34844E-13
 -1      2551 2.00005E+01-3.31032E-03 1.14582E-05 1.08805E-03-3.72588E-13-1.37181E-13
 -1      2552 2.00008E+01-3.09757E-03-8.21223E-06 1.05103E-03-2.30011E-13-5.22084E-14
 -1      2553 2.00002E+01-2.66635E-03-6.55036E-07 1.73268E-03 3.68089E-14-1.44974E-13
 -1      2554 2.00003E+01-2.92785E-03 1.11039E-05 1.56859E-03 8.21481E-15-4.99829E-13
 -1      2555 2.00005E+01-2.79496E-03-7.00347E-06 1.63403E-03 1.03106E-13-2.06962E-13
 -1      2556 1.99999E+01-2.09969E-03-3.31983E-06 1.93094E-03 6.08126E-14 2.06277E-13
 -1      2557 2.00000E+01-2.40963E-03 9.43150E-06 1.87514E-03 1.64896E-14 1.95246E-13
 -1      2558 2.00002E+01-2.36185E-03-4.92970E-06 2.04435E-03 4.83419E-14 2.47080E-14
 -1      2559 1.99995E+01-1.52940E-03-6.31427E-06 1.88779E-03-1.01786E-13-1.19325E-14
 -1      2560 1.99997E+01-1.85485E-03 6.66752E-06 1.95645E-03 6.38226E-14 7.54548E-14
 -1      2561 1.99998E+01-1.87948E-03-5.43134E-06 2.21503E-03-5.69145E-14 1.70821E-13
 -1      2562 1.99994E+01-1.39718E-03-8.08237E-06 2.16060E-03 2.14276E-14 2.62746E-14
 -1      2563 2.16452E+01 2.26541E+00-6.50325E-03-6.55536E-01 3.96580E-13 1.12391E-13
 -1      2564 2.17872E+01 1.58158E+00 1.85267E-03 1.05269E-01 3.59054E-13 8.57388E-14
 -1      2565 2.11462E+01 1.89885E+00-3.17064E-03 3.20531E-01 3.52373E-13 1.75527E-13
 -1      2566 2.08756E+01 2.80654E+00-3.24575E-03-5.72937E-01 3.95069E-13 2.12509E-13
 -1      2567 3.01285E+01-1.25283E+00-1.25555E-01 2.07192E+00-1.21739E-13 3.34427E-13
 -1      2568 2.80022E+01-2.80876E+00-1.12651E-02 3.20568E+00 7.79515E-14 2.23044E-13
 -1      2569 4.08827E+00-1.93351E+00 1.58475E-01-4.10666E-02-1.36111E-13 1.36113E-13
 -1      2570 5.42722E+00-2.03901E+00 1.29874E-01-2.58673E+00-2.16091E-13 1.85518E-13
 -1      2571 8.42559E+00-3.41975E+00 1.30695E-01-5.04535E+00-2.62512E-13 9.14546E-14
 -1      2572 1.12533E+01-4.70887E+00 8.06780E-02-6.13117E+00-2.15106E-13-3.19744E-14
 -1      2573 3.45339E+01 4.27795E+00-1.56472E-03 2.42655E+00 5.16920E-13 5.75318E-13
 -1      2574 3.52072E+01 5.67148E+00-1.38624E-01 1.56008E+00 5.13756E-13 5.29687E-13
 -1      2575 1.75818E+01 4.19527E+00 3.08093E-04-6.94285E-01 1.58390E-13 5.82705E-13
 -1      2576 1.74940E+01 4.24805E+00-1.18062E-02-7.15471E-01 1.77655E-13 5.71309E-13
 -1      2577 1.75055E+01 4.03820E+00 6.07148E-03-7.25328E-01 1.91805E-13 5.41847E-13
 -1      2578 1.77054E+01 3.83364E+00 1.33513E-03-7.90927E-01 1.50425E-13 5.71373E-13
 -1      2579 3.27339E+01 3.58184E+00-1.33651E-01-3.20892E-01-3.20716E-13 3.39229E-13
 -1      2580 3.14884E+01 1.34988E+00-5.13711E-02 4.55028E-01-2.44235E-13 3.59046E-13
 -1      2581 3.31922E+01 5.42886E+00-4.04666E-02 6.39089E-01-7.10709E-13 1.36391E-13
 -1      2582 3.26279E+01 6.91246E+00-1.60579E-01 8.72493E-01-6.41986E-13 1.95968E-13
 -1      2583 3.32528E+01 6.90215E+00-1.48205E-01-5.99120E-01-5.40623E-13 3.63390E-13
 -1      2584 3.27461E+01 5.80058E+00-1.22655E-01-7.54153E-01-4.47087E-13 3.93546E-13
 -1      2585 2.25383E+01-6.13887E+00-1.36056E-02-4.78712E+00-1.39611E-13 7.13457E-14
 -1      2586 2.65167E+01-5.56696E+00-7.11994E-02-3.79744E+00-7.48290E-14 2.25653E-13
 -1      2587 3.20204E+01 7.83747E+00-2.15832E-01 1.36555E-01-5.86975E-13 2.95972E-13
 -1      2588 3.30804E+01 7.80768E+00-1.00338E-01-2.69680E-01-5.90084E-13 3.56271E-13
 -1      2589 3.05092E+01 7.11839E+00-7.64973E-02-8.19492E-01-5.23942E-13 3.69683E-13
 -1      2590 3.18499E+01 1.33345E+00-6.07141E-02-7.65699E-01-6.20268E-13 1.11022E-13
 -1      2591 3.28394E+01 3.17168E+00-1.38885E-01 4.43357E-02-6.79484E-13 7.15816E-14
 -1      2592 2.84304E+01-2.42528E+00-2.33247E-02-3.00858E+00-4.01332E-13 1.49714E-13
 -1      2593 3.08441E+01-6.40504E-01-6.52385E-02-2.07639E+00-5.50060E-13 9.80327E-14
 -1      2594 3.05576E+01-1.97489E-01 2.18890E-03-2.35075E-01-4.77625E-13-2.34812E-14
 -1      2595 2.23241E+01-4.91228E+00 6.38687E-03-5.95197E+00-1.78191E-13 3.37314E-13
 -1      2596 2.56877E+01-4.06383E+00-6.21657E-02-5.01848E+00-2.52715E-13 2.58876E-13
 -1      2597 1.52910E+01-5.11167E+00 6.59642E-02-7.30796E+00-1.79856E-14 4.78319E-13
 -1      2598 1.89727E+01-5.10904E+00-4.82236E-03-7.21364E+00-9.39249E-14 4.30277E-13
 -1      2599 7.40206E+00-4.25835E+00 4.44475E-02-6.11185E+00 6.62248E-14 5.98716E-13
 -1      2600 1.07591E+01-4.48918E+00 6.53089E-03-7.34976E+00 1.99840E-15 5.55278E-13
 -1      2601 3.51527E+00-2.71858E+00 7.95832E-02-2.76652E+00 1.53294E-13 7.46792E-13
 -1      2602 4.95075E+00-3.46596E+00 4.06720E-02-4.86216E+00 7.71327E-14 6.53477E-13
 -1      2603 7.92556E+00-2.70083E+00 1.41771E-01-5.57485E+00 2.00007E-13 6.22502E-13
 -1      2604 4.06868E+00-2.51077E+00 1.08635E-01 2.16955E+00 8.69721E-14 8.20677E-13
 -1      2605 3.37836E+00-2.21173E+00 1.23274E-01-2.78728E-01 8.53050E-14 8.08353E-13
 -1      2606 9.08874E+00-4.29234E+00 4.17755E-02 5.89186E+00 8.10463E-15 7.32081E-13
 -1      2607 5.93810E+00-3.51322E+00 6.56282E-02 4.15233E+00-1.22680E-14 7.74270E-13
 -1      2608 1.68457E+01-5.82102E+00-1.09047E-02 6.66498E+00-1.46549E-14 8.05953E-13
 -1      2609 1.29688E+01-5.38734E+00 3.05628E-02 6.36432E+00-5.22915E-14 7.21617E-13
 -1      2610 2.42372E+01-5.84841E+00-1.16328E-01 4.91144E+00-1.33227E-14 5.58442E-13
 -1      2611 2.04220E+01-6.09501E+00-7.58633E-03 5.76405E+00-4.77396E-14 7.12402E-13
 -1      2612 1.99288E+01-5.74058E+00 7.23700E-02 5.91006E+00-1.88211E-13 6.39926E-13
 -1      2613 3.13164E+01-3.23409E+00-9.22591E-02 1.38658E+00 2.42653E-13 4.34597E-13
 -1      2614 2.79490E+01-4.89815E+00 3.83404E-03 2.96408E+00 8.46268E-14 4.97102E-13
 -1      2615 2.66740E+01-5.48755E+00 7.26444E-02 3.27816E+00-1.07636E-13 4.44034E-13
 -1      2616 3.57631E+01 5.18135E+00-7.09123E-02-1.50020E+00 6.23612E-13 6.24611E-13
 -1      2617 3.46248E+01 3.34116E+00-1.02103E-01-2.18365E+00 5.23082E-13 5.08038E-13
 -1      2618 3.53059E+01 6.80203E+00-9.24842E-02 3.55651E-01 6.45373E-13 5.10196E-13
 -1      2619 3.58635E+01 6.72040E+00-1.06602E-02-5.91833E-01 6.81899E-13 5.44093E-13
 -1      2620 2.93397E+01-4.23320E+00-6.63474E-02-1.60502E+00 5.76761E-14 3.26739E-13
 -1      2621 3.23552E+01-2.41248E+00-1.15873E-01 2.11747E-02 2.27977E-13 5.80314E-13
 -1      2622 1.44087E+01-5.53654E+00 3.38053E-02-6.16474E+00-2.15994E-13-1.37654E-13
 -1      2623 1.86016E+01-5.84943E+00 1.20313E-02-6.20218E+00-2.03726E-13-1.40651E-13
 -1      2624 1.52374E+01-4.33354E+00 1.30102E-01-5.91588E+00-2.87409E-13-7.06518E-14
 -1      2625 4.75921E+00-2.74938E+00 9.11362E-02 4.13980E+00-4.03011E-14-2.38365E-13
 -1      2626 3.75774E+00-2.31106E+00 1.17135E-01 2.10582E+00-2.21073E-14-6.24500E-14
 -1      2627 1.99992E+01-1.12988E-03 5.72672E-06-1.89249E-03-9.59701E-14 2.17155E-13
 -1      2628 1.83555E+01 3.80010E+00 7.66817E-03-3.47384E-01 2.96326E-13 4.29097E-13
 -1      2629 1.85473E+01 3.95596E+00-2.23379E-02-4.58281E-01 3.11567E-13 4.31584E-13
 -1      2630 1.90804E+01 3.79422E+00-4.79175E-03-4.92552E-01 3.50709E-13 3.87884E-13
 -1      2631 3.01950E+01-3.93380E-01-1.53382E-02 2.29270E-01-1.30652E-13 4.12642E-13
 -1      2632 2.15741E+01 4.51232E-01 8.09704E-03 6.61413E-01-2.83324E-13 1.83322E-13
 -1      2633 2.15657E+01 6.69768E-01 6.91747E-03 8.01805E-01-3.03119E-13 2.55623E-13
 -1      2634 2.14222E+01 3.22512E-01 3.66946E-03 5.00425E-01-2.65771E-13 2.38624E-13
 -1      2635 3.22666E+01 5.06003E-01-4.15986E-02-2.68885E+00 2.19380E-13 2.63012E-13
 -1      2636 1.66021E+01-4.60059E+00-3.03153E-02 6.98045E+00 3.11987E-13-2.31079E-13
 -1      2637 1.38184E+01-4.38925E+00 1.05541E-01 7.20233E+00 2.41390E-13-4.15099E-13
 -1      2638 1.30886E+01-3.09432E+00 1.63605E-01 6.76560E+00 1.68518E-13-2.43416E-13
 -1      2639 2.94733E+01-3.68125E+00-6.48796E-02-7.03976E-01-1.09534E-13 1.11855E-13
 -1      2640 3.30200E+01 5.13055E+00-5.43997E-02-1.65187E+00 6.45983E-13 3.85650E-13
 -1      2641 3.07782E+01 4.97732E+00-2.10410E-01-1.01401E+00 6.53588E-13 2.67033E-13
 -1      2642 2.94376E+01-3.79440E+00-4.44452E-02 8.09362E-01-1.91097E-14 6.81316E-13
 -1      2643 3.08276E+01 5.17638E+00-1.52330E-01 8.01563E-01 5.68490E-13 3.77320E-13
 -1      2644 3.07756E+01 4.50394E+00-4.82077E-02 2.51240E+00 4.82836E-13 4.21177E-13
 -1      2645 3.06779E+01 2.07166E+00-2.63383E-01 3.35393E+00 3.54217E-13 4.83447E-13
 -1      2646 8.06061E+00-2.06501E+00 1.67598E-01 5.01059E+00 4.93494E-14-2.93071E-13
 -1      2647 3.09979E+01 4.19254E+00-5.85132E-02-1.28999E+00-3.68539E-13 4.01706E-13
 -1      2648 2.01670E+01 3.14577E+00-1.78645E-02-4.76893E-01 3.67656E-13 2.98164E-13
 -1      2649 8.16842E+00-1.98586E+00 1.93477E-01-3.81487E+00-2.05266E-13 1.18183E-13
 -1      2650 1.10876E+01-2.01406E+00 4.67875E-02-4.74048E+00-1.83770E-13 6.10068E-14
 -1      2651 8.57566E+00-4.98948E-01 1.65602E-01-2.60476E+00-1.83874E-13 1.49242E-13
 -1      2652 2.12874E+01 1.25333E-01 2.82067E-03 3.47332E-01-2.22951E-13 2.62885E-13
 -1      2653 2.13734E+01 2.31124E-01 1.02740E-02 4.22843E-01-2.37511E-13 2.40693E-13
 -1      2654 2.13989E+01 3.24513E-01-3.21922E-03 5.04421E-01-2.46483E-13 2.87719E-13
 -1      2655 2.13438E+01 8.34073E-02-7.58799E-03 3.85680E-01-2.18761E-13 3.02103E-13
 -1      2656 5.96220E+00-8.98144E-01 1.75364E-01 9.77358E-01-1.10925E-13 1.00531E-13
 -1      2657 1.99992E+01-1.19514E-03-5.99760E-07-2.21250E-03-1.15855E-13 1.20954E-13
 -1      2658 3.26168E+01 5.58158E+00-9.98950E-02 1.23760E+00 5.58387E-13 3.81403E-13
 -1      2659 2.85282E+01-5.08500E+00 2.01561E-02-1.65418E+00-6.05488E-14 4.12281E-13
 -1      2660 1.26902E+01-4.10894E+00 1.22722E-01 6.04098E+00-1.11966E-13 7.04964E-13
 -1      2661 5.17978E+00-1.32253E+00 1.62544E-01-1.52888E+00 1.68608E-13 7.76434E-13
 -1      2662 1.44488E+01-4.38021E+00 1.03961E-01-7.27706E+00 1.29063E-13 4.89594E-13
 -1      2663 2.74311E+01-3.67181E+00 2.36938E-02-3.19018E+00-2.02824E-13 9.06497E-14
 -1      2664 3.10175E+01 7.10532E+00-1.37472E-01 7.41069E-01-5.72042E-13 2.25729E-13
 -1      2665 2.88806E+01 7.01304E+00-1.43036E-01 5.28928E-01-5.43871E-13 2.18946E-13
 -1      2666 2.93305E+01 6.16382E+00-1.26229E-01 1.31011E+00-5.98327E-13 1.74194E-13
 -1      2667 2.20636E+01-5.74911E+00 8.37791E-02-4.84630E+00-1.96676E-13 6.41640E-14
 -1      2668 3.12700E+01 3.80943E+00-4.92240E-02 1.19855E+00-6.45511E-13 9.53959E-14
 -1      2669 3.21684E+01 1.06284E+00-7.45747E-02 2.98519E+00 4.03649E-13 5.85365E-13
 -1      2670 2.68484E+01-3.99215E+00 3.00266E-02 3.51083E+00 2.05710E-13 1.84353E-13
 -1      2671 2.17990E+01-5.14379E+00 8.12040E-02-6.05750E+00 4.01623E-14 2.76792E-13
 -1      2672 6.92003E+00-1.87280E+00 1.51874E-01 3.21968E+00 1.46272E-14 7.82818E-13
 -1      2673 3.23677E+01-2.10215E+00-8.76579E-02-9.20237E-01 2.26116E-13 2.89102E-13
 -1      2674 3.06035E+01-3.30078E+00-8.48453E-03-2.17356E-01 6.02400E-14 1.89543E-13
 -1      2675 3.34740E+01 3.02590E-01-1.35376E-01-1.73296E+00 3.13111E-13 3.49165E-13
 -1      2676 3.26775E+01-1.86074E+00-1.38996E-01 1.34773E+00 3.28709E-13 6.98219E-13
 -1      2677 3.33368E+01 4.94572E-02-2.19081E-01 2.05925E+00 4.06647E-13 7.14984E-13
 -1      2678 1.91347E+01 2.67902E+00 3.45054E-03-5.12777E-01 8.45699E-15 5.10194E-13
 -1      2679 1.87770E+01 2.83662E+00-9.37526E-03-6.83419E-01 5.44924E-14 5.09547E-13
 -1      2680 1.84241E+01 3.07943E+00 6.79483E-03-8.17496E-01 8.89103E-14 5.25973E-13
 -1      2681 1.80810E+01 3.22909E+00-1.27082E-02-9.14883E-01 1.22107E-13 5.48026E-13
 -1      2682 1.87126E+01 2.55521E+00-3.96761E-03-9.30228E-01 7.78018E-14 4.84673E-13
 -1      2683 2.04157E+01 1.95182E+00-8.93315E-03 3.62548E-01-1.53293E-13 4.74593E-13
 -1      2684 2.01266E+01 2.12871E+00-3.54879E-03 1.42281E-01-9.80484E-14 4.87903E-13
 -1      2685 2.09345E+01 1.55942E+00-1.88415E-02 7.43780E-01-2.35159E-13 4.03495E-13
 -1      2686 2.06919E+01 1.78673E+00-5.43335E-04 5.61566E-01-1.76118E-13 4.37738E-13
 -1      2687 2.07279E+01 1.42987E+00 1.87920E-03 3.02338E-01-1.58290E-13 4.20050E-13
 -1      2688 2.15485E+01 8.10087E-01 1.56428E-03 8.69888E-01-2.96116E-13 2.96564E-13
 -1      2689 2.14324E+01 1.04216E+00-9.46999E-03 9.45180E-01-3.08470E-13 3.30437E-13
 -1      2690 2.14450E+01 6.05529E-01 3.29161E-03 6.61690E-01-2.69423E-13 2.99330E-13
 -1      2691 2.93911E+01 1.99201E-01-2.01061E-01-8.77201E-01-1.60955E-13 4.28296E-13
 -1      2692 2.88801E+01-1.72776E+00 1.67924E-02 2.53449E-01 3.21132E-14 4.32154E-13
 -1      2693 2.29987E+01-5.27631E+00-7.27698E-02 5.35059E+00 3.40422E-13 4.98317E-14
 -1      2694 2.05115E+01-5.07611E+00 1.19210E-01 6.16830E+00 3.64958E-13-1.32385E-14
 -1      2695 2.05076E+01 1.82270E+00 1.38086E-03 9.01120E-01 3.00738E-13 2.05715E-13
 -1      2696 2.04622E+01 1.61462E+00 4.00740E-03 1.32930E+00 2.42957E-13 2.14299E-13
 -1      2697 2.02827E+01 1.40753E+00 1.47713E-03 1.73581E+00 1.95502E-13 2.36653E-13
 -1      2698 2.03037E+01 1.17748E+00 1.02019E-02 2.09481E+00 1.66761E-13 2.43959E-13
 -1      2699 1.95718E+01 1.86342E+00 5.05638E-03 1.44568E+00 2.41683E-13 2.66512E-13
 -1      2700 2.01338E+01 8.81469E-01 5.73638E-03 2.49544E+00 1.18905E-13 2.39401E-13
 -1      2701 2.03106E+01 4.87989E-01 2.10935E-02 2.77385E+00 3.71914E-14 2.54233E-13
 -1      2702 1.91891E+01 1.32856E+00 1.79320E-03 2.25526E+00 1.49125E-13 3.13093E-13
 -1      2703 2.02862E+01-3.84925E-02 2.63079E-02 3.17907E+00-8.19093E-15 2.70535E-13
 -1      2704 2.07641E+01-7.48866E-01 4.01730E-02 3.33303E+00-5.96936E-14 2.83948E-13
 -1      2705 1.89059E+01 4.39417E-01-8.01418E-03 3.09637E+00 4.62538E-14 3.33434E-13
 -1      2706 2.11673E+01-1.65093E+00 7.16847E-02 3.69272E+00-1.39385E-13 2.93647E-13
 -1      2707 2.21963E+01-2.69224E+00 7.82303E-02 3.56901E+00-2.15300E-13 2.86230E-13
 -1      2708 1.90608E+01-1.13449E+00-2.06169E-02 3.99857E+00-8.98413E-14 3.41172E-13
 -1      2709 1.02903E+01-1.73471E+00 1.10878E-01 5.49285E+00 8.10602E-14-2.96263E-13
 -1      2710 8.16970E+00-8.84906E-01 1.53540E-01 3.87376E+00-9.49241E-15-2.06890E-13
 -1      2711 7.34182E+00-2.72859E-01 1.64285E-01 2.26406E+00-1.35190E-13 4.41314E-14
 -1      2712 7.46779E+00 2.92410E-02 1.22901E-01 5.58362E-02-2.39101E-13 2.72310E-13
 -1      2713 9.55807E+00-1.56362E-02 1.57804E-01 2.87797E+00-1.33640E-13-1.55154E-14
 -1      2714 2.19176E+01-2.85962E+00 2.96550E-02-3.52739E+00-2.74995E-13 3.48711E-13
 -1      2715 2.10462E+01-1.73734E+00 7.30639E-02-3.60856E+00-2.24893E-13 2.74810E-13
 -1      2716 2.06527E+01-9.05086E-01 3.73538E-02-3.33327E+00-1.29649E-13 2.14134E-13
 -1      2717 2.01547E+01-2.42167E-01 2.15398E-02-3.23021E+00-4.30718E-14 1.41751E-13
 -1      2718 1.89578E+01-1.34466E+00-2.63425E-02-3.97504E+00-2.66981E-13 2.59678E-13
 -1      2719 2.01648E+01 2.12570E-01 2.27242E-02-2.91213E+00 1.96492E-14 7.27500E-14
 -1      2720 1.99327E+01 5.19188E-01-3.36706E-04-2.73438E+00 6.58260E-14 3.49243E-14
 -1      2721 1.87514E+01 1.34106E-01-8.64882E-04-3.21547E+00-4.89222E-14 7.37813E-14
 -1      2722 2.00792E+01 7.11744E-01 1.31298E-02-2.46051E+00 7.49741E-14 2.09538E-14
 -1      2723 1.99711E+01 8.06826E-01-6.92553E-03-2.25945E+00 3.93396E-14 2.97295E-14
 -1      2724 1.89740E+01 8.01006E-01 5.34261E-03-2.60017E+00 1.61164E-14-1.58554E-14
 -1      2725 2.01343E+01 8.47631E-01 8.43123E-03-2.03159E+00 2.39518E-14 3.71469E-14
 -1      2726 2.00703E+01 8.36293E-01-7.80009E-03-1.83603E+00 8.40468E-14 8.21922E-14
 -1      2727 1.92919E+01 1.01218E+00 7.72947E-03-2.10876E+00 5.26108E-14-3.29074E-14
 -1      2728 2.02055E+01 8.05503E-01 6.44384E-03-1.64582E+00 1.41055E-13 5.45208E-14
 -1      2729 2.01524E+01 7.49881E-01-6.89104E-03-1.46994E+00 6.61554E-14 8.94143E-14
 -1      2730 1.95756E+01 9.89505E-01 7.53458E-03-1.70668E+00 8.57619E-14-2.90478E-14
 -1      2731 2.02497E+01 6.92957E-01 5.41155E-03-1.31139E+00-8.96264E-14 8.21509E-14
 -1      2732 2.01980E+01 6.25705E-01-5.55478E-03-1.16083E+00-1.31424E-13 3.78248E-14
 -1      2733 1.97867E+01 8.67289E-01 6.09200E-03-1.37109E+00-1.16475E-14-2.71540E-14
 -1      2734 2.02616E+01 5.65184E-01 4.66563E-03-1.02984E+00-7.74532E-14-2.84090E-14
 -1      2735 2.02108E+01 5.01351E-01-4.26787E-03-9.05286E-01-6.76148E-14-1.44286E-14
 -1      2736 1.99265E+01 7.17123E-01 4.38333E-03-1.09012E+00-1.15986E-13-2.20154E-14
 -1      2737 2.02488E+01 4.46833E-01 3.99456E-03-7.98385E-01-1.03921E-14-9.69717E-14
 -1      2738 2.02011E+01 3.92058E-01-3.17975E-03-6.97837E-01-2.96012E-15-9.38886E-14
 -1      2739 2.00098E+01 5.72932E-01 2.88818E-03-8.56858E-01-6.33595E-14-1.71330E-13
 -1      2740 2.02214E+01 3.46549E-01 3.36070E-03-6.11711E-01 3.11483E-14-2.73022E-15
 -1      2741 2.01786E+01 3.01914E-01-2.32038E-03-5.31971E-01 4.42692E-14 2.63370E-14
 -1      2742 2.00533E+01 4.48032E-01 1.75462E-03-6.65659E-01 2.42530E-14-1.15289E-13
 -1      2743 2.01875E+01 2.65420E-01 2.77433E-03-4.63417E-01 9.47221E-15 8.30975E-14
 -1      2744 2.01507E+01 2.30076E-01-1.66926E-03-4.01028E-01-5.60848E-14 1.48421E-13
 -1      2745 2.00710E+01 3.45456E-01 9.68149E-04-5.11057E-01 4.58599E-14-1.98142E-14
 -1      2746 2.01528E+01 2.01457E-01 2.25076E-03-3.47067E-01-8.17575E-14 1.44908E-13
 -1      2747 2.01221E+01 1.73927E-01-1.18914E-03-2.98785E-01-5.38708E-14 1.71958E-13
 -1      2748 2.00734E+01 2.63701E-01 4.58066E-04-3.87653E-01-7.45232E-14 2.19407E-13
 -1      2749 2.01206E+01 1.51767E-01 1.79820E-03-2.56755E-01-1.65496E-13 1.13193E-13
 -1      2750 2.00958E+01 1.30532E-01-8.41277E-04-2.19748E-01-1.83967E-13-1.72464E-14
 -1      2751 2.00675E+01 1.99669E-01 1.47393E-04-2.90331E-01-1.74922E-13 3.38057E-14
 -1      2752 2.00926E+01 1.13504E-01 1.41716E-03-1.87348E-01-1.47083E-13-3.10257E-14
 -1      2753 2.00730E+01 9.72279E-02-5.91957E-04-1.59247E-01 2.19441E-14 1.43475E-15
 -1      2754 2.00580E+01 1.50048E-01-2.84026E-05-2.14447E-01-1.94982E-13-6.16850E-14
 -1      2755 2.00692E+01 8.42108E-02 1.10290E-03-1.34533E-01 1.34207E-13-6.33896E-14
 -1      2756 2.00541E+01 7.17972E-02-4.14353E-04-1.13401E-01 2.93636E-14-5.44410E-14
 -1      2757 2.00475E+01 1.11861E-01-1.17502E-04-1.55938E-01-3.27199E-14-3.54905E-14
 -1      2758 2.00504E+01 6.18910E-02 8.47967E-04-9.47625E-02-8.94332E-15 5.03932E-15
 -1      2759 2.00389E+01 5.24696E-02-2.88219E-04-7.90418E-02-1.00024E-13 5.28791E-14
 -1      2760 2.00374E+01 8.26327E-02-1.53533E-04-1.11341E-01 7.27142E-14-6.41104E-14
 -1      2761 2.00357E+01 4.49679E-02 6.43987E-04-6.51590E-02-6.71089E-14-1.24699E-14
 -1      2762 2.00271E+01 3.78584E-02-1.98760E-04-5.36070E-02-2.06522E-14 2.46475E-14
 -1      2763 2.00286E+01 6.03777E-02-1.58880E-04-7.77593E-02-7.87048E-14-7.30830E-14
 -1      2764 2.00244E+01 3.22125E-02 4.82738E-04-4.34120E-02-1.31715E-13 1.76848E-13
 -1      2765 2.00182E+01 2.68860E-02-1.35375E-04-3.50454E-02-8.64301E-14 1.39953E-13
 -1      2766 2.00212E+01 4.35326E-02-1.47874E-04-5.28090E-02-5.58596E-15 8.36227E-14
 -1      2767 2.00160E+01 2.26700E-02 3.56705E-04-2.76803E-02-1.12862E-13 9.73129E-14
 -1      2768 2.00116E+01 1.87156E-02-9.05441E-05-2.17252E-02-1.03241E-13-3.26658E-14
 -1      2769 2.00153E+01 3.08745E-02-1.29341E-04-3.45493E-02-1.45701E-13 1.81218E-13
 -1      2770 2.00099E+01 1.55987E-02 2.59300E-04-1.65073E-02-5.89594E-14 2.50915E-14
 -1      2771 2.00069E+01 1.26962E-02-5.89526E-05-1.23583E-02-1.12367E-13 9.69042E-15
 -1      2772 2.00107E+01 2.14486E-02-1.08480E-04-2.14179E-02-1.11751E-13 2.03942E-13
 -1      2773 2.00056E+01 1.04207E-02 1.84897E-04-8.74890E-03-1.09951E-13 6.32531E-14
 -1      2774 2.00036E+01 8.32048E-03-3.68417E-05-5.93554E-03 3.17912E-14 1.56847E-13
 -1      2775 2.00072E+01 1.45080E-02-8.81696E-05-1.21694E-02-1.37930E-14 2.23274E-13
 -1      2776 2.00027E+01 6.68478E-03 1.28780E-04-3.51379E-03 1.03886E-13 9.18847E-14
 -1      2777 2.00014E+01 5.19172E-03-2.15434E-05-1.67363E-03 8.80708E-14 3.25570E-13
 -1      2778 2.00046E+01 9.46789E-03-6.98495E-05-5.82084E-03 5.89287E-14 5.91199E-14
 -1      2779 2.00007E+01 4.03842E-03 8.70495E-05-1.14158E-04 9.84436E-14 3.99733E-13
 -1      2780 2.00000E+01 2.99995E-03-1.11564E-05 1.02932E-03 1.24478E-13 3.99876E-13
 -1      2781 2.00028E+01 5.86990E-03-5.40978E-05-1.60517E-03 1.25322E-13 2.61982E-13
 -1      2782 1.99995E+01 2.20587E-03 5.65240E-05 1.97483E-03 1.28700E-13 2.07143E-13
 -1      2783 1.99992E+01 1.50284E-03-4.32538E-06 2.62989E-03 1.69634E-13 4.61993E-14
 -1      2784 2.00015E+01 3.35465E-03-4.10020E-05 1.06929E-03 5.45932E-14 2.95505E-13
 -1      2785 1.99989E+01 9.71663E-04 3.46309E-05 3.14809E-03 2.68195E-13 1.86212E-14
 -1      2786 1.99987E+01 5.11007E-04-9.01064E-08 3.46899E-03 1.63596E-13 4.38398E-14
 -1      2787 2.00006E+01 1.64067E-03-3.03981E-05 2.65249E-03 1.67695E-13-5.11573E-14
 -1      2788 1.99985E+01 1.67356E-04 1.93211E-05 3.69751E-03-5.52988E-14 1.27509E-13
 -1      2789 1.99986E+01-1.23728E-04 2.23525E-06 3.79589E-03-1.57623E-13 1.88564E-13
 -1      2790 2.00000E+01 5.07619E-04-2.20204E-05 3.48082E-03 1.25041E-13-3.09264E-14
 -1      2791 1.99985E+01-3.39117E-04 9.01719E-06 3.83354E-03-1.89202E-13 2.74338E-13
 -1      2792 1.99986E+01-5.17937E-04 3.19927E-06 3.78752E-03-2.70790E-13 3.42001E-13
 -1      2793 1.99997E+01-2.17203E-04-1.55433E-05 3.80041E-03-1.18793E-13 1.07010E-13
 -1      2794 1.99985E+01-6.52068E-04 2.59037E-06 3.70237E-03-3.17111E-13 3.55998E-13
 -1      2795 1.99987E+01-7.64100E-04 3.27057E-06 3.56374E-03-3.01407E-13 4.11089E-13
 -1      2796 1.99995E+01-6.69844E-04-1.05288E-05 3.78559E-03-2.82483E-13 1.68225E-13
 -1      2797 1.99987E+01-8.54610E-04-9.54177E-07 3.40016E-03-2.91045E-13 4.49503E-13
 -1      2798 1.99989E+01-9.37003E-04 2.19326E-06 3.20063E-03-1.85760E-13 3.41228E-13
 -1      2799 1.99994E+01-9.57890E-04-6.71294E-06 3.55462E-03-3.19976E-13 1.96986E-13
 -1      2800 1.99989E+01-1.01458E-03-2.76015E-06 2.98296E-03-1.26626E-13 1.62182E-13
 -1      2801 1.99991E+01-1.09448E-03-7.01771E-07 2.73946E-03-7.71019E-14 1.05494E-13
 -1      2802 1.99994E+01-1.16975E-03-4.68773E-06 3.18375E-03-2.18699E-13 3.12698E-13
 -1      2803 1.99991E+01-1.17650E-03-6.42862E-06 2.57274E-03 6.90348E-14 9.95991E-14
 -1      2804 1.99993E+01-1.29489E-03-2.93047E-06 2.34244E-03 1.15886E-13 2.13573E-13
 -1      2805 1.99996E+01-1.52865E-03 6.58929E-06 2.41900E-03 8.79446E-15 7.64704E-14
 -1      2806 1.99995E+01-1.34566E-03-1.11151E-06 2.78787E-03-8.67260E-14 2.02889E-13
 -1      2807 2.15377E+01-5.15512E-01-8.76518E-03 5.35087E-01-6.01283E-14 2.84457E-13
 -1      2808 2.15642E+01-4.12465E-01 9.59493E-03 4.29641E-01-8.39881E-14 2.69169E-13
 -1      2809 2.15921E+01-5.54674E-01-5.71446E-03 8.37885E-01-3.98270E-14 2.73407E-13
 -1      2810 2.16365E+01-5.60958E-01 3.74247E-03 6.94591E-01-3.49204E-14 2.86810E-13
 -1      2811 2.18464E+01-6.50141E-01-7.94863E-04 5.86057E-01-5.06730E-14 2.40498E-13
 -1      2812 2.14470E+01-2.77939E-01-9.02202E-03 3.48029E-01-1.19199E-13 2.86229E-13
 -1      2813 2.14766E+01-9.67784E-02 1.23798E-02 3.25149E-01-1.57132E-13 2.94935E-13
 -1      2814 2.16457E+01-4.06829E-01-3.93534E-03 3.48659E-01-1.06857E-13 2.57151E-13
 -1      2815 2.13829E+01 1.17969E-01 1.02005E-02 1.27257E+00-1.40294E-13 2.85479E-13
 -1      2816 2.14888E+01-1.44921E-01-9.99994E-03 1.25464E+00-1.17159E-13 2.91847E-13
 -1      2817 2.11155E+01 7.13962E-01 1.55532E-02 1.09315E+00-1.71101E-13 3.30420E-13
 -1      2818 2.12248E+01 4.04531E-01-1.41487E-02 1.23325E+00-1.56056E-13 3.14851E-13
 -1      2819 2.18142E+01 3.24144E-01 7.15556E-03 1.37593E+00-1.61878E-13 2.89659E-13
 -1      2820 2.08669E+01 1.20276E+00 1.38472E-02 5.47250E-01-1.47947E-13 3.34533E-13
 -1      2821 2.09383E+01 9.83345E-01-9.37308E-03 8.42133E-01-1.69403E-13 2.91225E-13
 -1      2822 2.15240E+01 1.04296E+00 3.79627E-04 1.08964E+00-1.50151E-13 2.80716E-13
 -1      2823 2.07784E+01 1.34020E+00 3.13020E-03-2.29109E-01-1.08696E-13 4.40851E-13
 -1      2824 2.07792E+01 1.32382E+00 1.27834E-03 1.36170E-01-1.60676E-13 3.70359E-13
 -1      2825 2.12847E+01 1.54744E+00-7.81356E-03 3.98283E-01-1.75098E-13 2.68968E-13
 -1      2826 2.09116E+01 1.05038E+00-8.73390E-03-9.61584E-01-8.00710E-14 5.30007E-13
 -1      2827 2.08394E+01 1.24711E+00 1.15727E-02-6.52005E-01-7.64896E-14 4.88377E-13
 -1      2828 2.12594E+01 1.58308E+00-9.60136E-03-4.84824E-01-1.54747E-13 3.16896E-13
 -1      2829 2.11884E+01 4.82776E-01-1.41882E-02-1.39819E+00-6.76892E-14 5.73294E-13
 -1      2830 2.10744E+01 7.92481E-01 1.50783E-02-1.23854E+00-7.61836E-14 5.82145E-13
 -1      2831 2.14617E+01 1.12914E+00-1.77480E-03-1.21726E+00-1.07172E-13 4.83501E-13
 -1      2832 2.14550E+01-1.06906E-01-1.21986E-02-1.45014E+00 4.84628E-14 4.89580E-13
 -1      2833 2.13446E+01 1.82524E-01 1.05708E-02-1.45878E+00-2.06562E-15 5.30954E-13
 -1      2834 2.17419E+01 4.08914E-01 7.55212E-03-1.55119E+00 4.60810E-15 4.92955E-13
 -1      2835 2.15925E+01-5.22340E-01-6.36934E-03-1.19821E+00 1.03555E-13 4.03198E-13
 -1      2836 2.15202E+01-3.38980E-01 2.26605E-03-1.32956E+00 8.64450E-14 4.23933E-13
 -1      2837 2.19187E+01-2.75277E-01 1.01051E-02-1.46127E+00 1.03987E-13 4.29575E-13
 -1      2838 2.15718E+01-7.01452E-01-2.42828E-04-7.97934E-01 1.14367E-13 3.85663E-13
 -1      2839 2.15492E+01-6.39353E-01-4.37475E-03-9.84308E-01 8.15296E-14 4.02335E-13
 -1      2840 2.19069E+01-7.15484E-01 7.64521E-03-1.09368E+00 1.11178E-13 4.34010E-13
 -1      2841 2.14301E+01-6.87427E-01 3.50269E-03-3.85960E-01-9.16015E-15 4.69459E-13
 -1      2842 2.14514E+01-7.15707E-01-7.52672E-03-5.71981E-01 6.41918E-14 4.24352E-13
 -1      2843 2.17284E+01-8.72433E-01 2.89620E-03-6.31836E-01 7.89954E-14 5.36517E-13
 -1      2844 2.12264E+01-5.60483E-01 5.04199E-03-4.34219E-02-8.36370E-14 4.03669E-13
 -1      2845 2.12769E+01-6.36280E-01-7.72260E-03-1.96694E-01-3.72441E-14 3.94137E-13
 -1      2846 2.14575E+01-8.13827E-01-9.53859E-04-2.07665E-01 3.71847E-15 4.41261E-13
 -1      2847 2.10092E+01-3.93490E-01 4.96569E-03 2.00287E-01-6.98582E-14 3.16020E-13
 -1      2848 2.10746E+01-4.81858E-01-6.30022E-03 9.14113E-02-7.92886E-14 3.42665E-13
 -1      2849 2.11661E+01-6.39929E-01-2.92492E-03 1.16298E-01-4.12196E-14 4.00002E-13
 -1      2850 2.08078E+01-2.33870E-01 4.09882E-03 3.47996E-01-6.60717E-14 2.87959E-13
 -1      2851 2.08774E+01-3.13734E-01-4.40403E-03 2.82104E-01-5.62266E-14 2.65114E-13
 -1      2852 2.08998E+01-4.33597E-01-3.45648E-03 3.28451E-01-3.04263E-14 3.10589E-13
 -1      2853 2.06349E+01-1.04835E-01 3.00178E-03 4.17507E-01 2.83753E-15 3.13822E-13
 -1      2854 2.07022E+01-1.66978E-01-2.63095E-03 3.86800E-01-5.51188E-14 3.23624E-13
 -1      2855 2.06785E+01-2.45351E-01-3.16745E-03 4.43247E-01-6.96654E-14 2.27304E-13
 -1      2856 2.04931E+01-1.26265E-02 1.98955E-03 4.30498E-01-7.86956E-15 3.96913E-13
 -1      2857 2.05545E+01-5.55481E-02-1.22457E-03 4.25369E-01 2.54274E-14 3.40844E-13
 -1      2858 2.05051E+01-9.77477E-02-2.57745E-03 4.84312E-01-1.86297E-14 2.27325E-13
 -1      2859 2.03796E+01 4.58483E-02 1.18973E-03 4.06840E-01 6.06566E-14 3.79347E-13
 -1      2860 2.04337E+01 1.96955E-02-2.18948E-04 4.18346E-01 1.92124E-14 3.87395E-13
 -1      2861 2.03740E+01 5.04970E-03-1.96459E-03 4.75175E-01 4.48825E-14 2.26111E-13
 -1      2862 2.02900E+01 7.75382E-02 6.18385E-04 3.62435E-01 4.81415E-14 3.12235E-13
 -1      2863 2.03365E+01 6.42766E-02 4.34009E-04 3.83334E-01 4.37135E-14 3.66232E-13
 -1      2864 2.02767E+01 6.83835E-02-1.44900E-03 4.35478E-01 8.40898E-14 3.49526E-13
 -1      2865 2.02199E+01 9.00284E-02 2.43692E-04 3.08874E-01 1.19033E-13 2.91239E-13
 -1      2866 2.02590E+01 8.57591E-02 8.08507E-04 3.33851E-01 8.00946E-14 2.98544E-13
 -1      2867 2.02051E+01 1.01141E-01-1.05821E-03 3.80044E-01 2.63484E-14 2.69026E-13
 -1      2868 2.01652E+01 8.99805E-02 1.89194E-05 2.53942E-01 5.19113E-14 3.89855E-13
 -1      2869 2.01975E+01 9.14150E-02 9.79446E-04 2.79420E-01 1.02081E-13 3.74991E-13
 -1      2870 2.01523E+01 1.12397E-01-7.78452E-04 3.19223E-01 7.91007E-14 3.27090E-13
 -1      2871 2.01228E+01 8.25902E-02-1.00780E-04 2.02410E-01 7.22638E-15 3.31673E-13
 -1      2872 2.01490E+01 8.72317E-02 1.01174E-03 2.26204E-01 1.23453E-14 3.15591E-13
 -1      2873 2.01132E+01 1.09879E-01-5.83567E-04 2.59698E-01 6.07492E-14 3.46458E-13
 -1      2874 2.00900E+01 7.15789E-02-1.52023E-04 1.56828E-01-1.34824E-13 4.19503E-13
 -1      2875 2.01109E+01 7.76785E-02 9.57126E-04 1.77784E-01-2.74641E-14 3.38769E-13
 -1      2876 2.00840E+01 9.95038E-02-4.48150E-04 2.05373E-01-3.61284E-14 1.92896E-13
 -1      2877 2.00649E+01 5.94182E-02-1.61985E-04 1.18223E-01-1.67456E-13 3.38493E-13
 -1      2878 2.00813E+01 6.58402E-02 8.54237E-04 1.35893E-01-1.65258E-13 3.83388E-13
 -1      2879 2.00621E+01 8.54484E-02-3.52251E-04 1.58167E-01-1.55163E-13 2.63686E-13
 -1      2880 2.00458E+01 4.76196E-02-1.49455E-04 8.66463E-02-7.18565E-14 2.95083E-13
 -1      2881 2.00584E+01 5.36890E-02 7.30236E-04 1.01032E-01-9.98854E-14 3.45740E-13
 -1      2882 2.00456E+01 7.04512E-02-2.81907E-04 1.18668E-01-1.08312E-13 1.90838E-13
 -1      2883 2.00315E+01 3.70082E-02-1.26628E-04 6.15761E-02 5.44053E-14 2.09288E-13
 -1      2884 2.00410E+01 4.23734E-02 6.03027E-04 7.29389E-02 3.75493E-14 2.94655E-13
 -1      2885 2.00331E+01 5.61593E-02-2.28072E-04 8.66352E-02-2.24296E-15 1.11410E-13
 -1      2886 2.00209E+01 2.79473E-02-1.00903E-04 4.22029E-02 1.92550E-13 2.38203E-14
 -1      2887 2.00279E+01 3.24703E-02 4.83479E-04 5.09339E-02 1.10789E-13 9.75200E-14
 -1      2888 2.00236E+01 4.34471E-02-1.85208E-04 6.13618E-02 1.52831E-13 2.94416E-14
 -1      2889 2.00132E+01 2.05100E-02-7.63952E-05 2.76164E-02 1.75445E-13 1.54987E-13
 -1      2890 2.00182E+01 2.41844E-02 3.77402E-04 3.41482E-02 1.81407E-13 5.23569E-14
 -1      2891 2.00165E+01 3.26754E-02-1.50063E-04 4.19228E-02 1.63962E-13-1.02898E-13
 -1      2892 2.00077E+01 1.46014E-02-5.50920E-05 1.69202E-02 3.03891E-13 6.72024E-14
 -1      2893 2.00112E+01 1.74944E-02 2.87165E-04 2.16743E-02 2.87358E-13 1.63234E-13
 -1      2894 2.00112E+01 2.38845E-02-1.20758E-04 2.73392E-02 2.08621E-13 9.83832E-14
 -1      2895 2.00039E+01 1.00411E-02-3.76852E-05 9.29701E-03 3.48079E-13 1.45097E-14
 -1      2896 2.00063E+01 1.22552E-02 2.12935E-04 1.26550E-02 2.60208E-13 1.20841E-13
 -1      2897 2.00073E+01 1.69327E-02-9.61833E-05 1.66756E-02 2.85743E-13-1.42004E-14
 -1      2898 2.00014E+01 6.61629E-03-2.41350E-05 4.03868E-03 2.46158E-13 9.10256E-15
 -1      2899 2.00029E+01 8.26522E-03 1.53590E-04 6.32879E-03 4.07254E-13 8.88055E-14
 -1      2900 2.00045E+01 1.15885E-02-7.56301E-05 9.09353E-03 3.63697E-13 1.05125E-13
 -1      2901 1.99997E+01 4.11398E-03-1.40373E-05 5.55133E-04 2.63245E-13-1.52724E-13
 -1      2902 2.00006E+01 5.30814E-03 1.07352E-04 2.04924E-03 2.25898E-13-1.09531E-13
 -1      2903 2.00025E+01 7.58971E-03-5.85775E-05 3.87469E-03 2.67972E-13 2.14012E-14
 -1      2904 1.99988E+01 2.33804E-03-6.85022E-06-1.62995E-03 6.85180E-15-2.82376E-15
 -1      2905 1.99993E+01 3.17725E-03 7.22033E-05-7.13829E-04 1.15961E-13-1.06748E-13
 -1      2906 2.00012E+01 4.67831E-03-4.45879E-05 4.24773E-04 1.10305E-13-1.01472E-13
 -1      2907 1.99983E+01 1.11721E-03-2.02352E-06-2.89012E-03 9.77989E-14 4.70704E-14
 -1      2908 1.99985E+01 1.68758E-03 4.61516E-05-2.38220E-03 1.20216E-13 9.19804E-14
 -1      2909 2.00003E+01 2.61929E-03-3.32613E-05-1.73337E-03-3.52876E-15-5.97621E-14
 -1      2910 1.99981E+01 3.06886E-04 9.31533E-07-3.51005E-03 3.93355E-13-7.24681E-14
 -1      2911 1.99981E+01 6.80511E-04 2.73766E-05-3.28203E-03 2.52958E-13-1.68844E-14
 -1      2912 1.99997E+01 1.20857E-03-2.42225E-05-2.97244E-03 2.72008E-13-6.74908E-14
 -1      2913 1.99982E+01-2.12471E-04 2.41101E-06-3.69980E-03 4.73188E-13-1.65474E-13
 -1      2914 1.99980E+01 2.37131E-05 1.43021E-05-3.65810E-03 3.99775E-13-9.06621E-14
 -1      2915 1.99994E+01 2.74501E-04-1.71352E-05-3.57548E-03 4.16566E-13-2.15350E-14
 -1      2916 1.99983E+01-5.38829E-04 2.71228E-06-3.60800E-03 3.29337E-13-1.36232E-13
 -1      2917 1.99981E+01-3.91623E-04 5.62990E-06-3.68754E-03 3.52760E-13-1.49959E-13
 -1      2918 1.99992E+01-3.24632E-04-1.17259E-05-3.75073E-03 3.57541E-13 3.43157E-14
 -1      2919 1.99986E+01-7.51582E-04 2.30899E-06-3.33340E-03-8.07927E-14 1.05495E-13
 -1      2920 1.99983E+01-6.54427E-04 3.48479E-07-3.49208E-03 2.59033E-13 2.15752E-14
 -1      2921 1.99992E+01-7.04804E-04-7.69219E-06-3.64506E-03 1.68079E-13 3.20640E-13
 -1      2922 1.99988E+01-9.16552E-04 8.52258E-07-2.93543E-03-1.96055E-13 5.75368E-14
 -1      2923 1.99986E+01-8.38650E-04-3.17378E-06-3.15026E-03-2.31684E-13 3.82756E-14
 -1      2924 1.99992E+01-9.58233E-04-4.37709E-06-3.35581E-03-1.11379E-13 3.24532E-13
 -1      2925 1.99991E+01-1.10132E-03-2.97003E-06-2.46056E-03-4.75610E-14 9.43469E-14
 -1      2926 1.99989E+01-1.01305E-03-5.13508E-06-2.71975E-03-9.53455E-14 1.66081E-13
 -1      2927 1.99993E+01-1.17591E-03-7.69616E-07-2.95384E-03-2.31746E-13 7.71344E-14
 -1      2928 1.99995E+01-1.40022E-03 4.34167E-06-2.46995E-03-1.20907E-13 6.94284E-14
 -1      2929 2.00005E+01-2.27326E-03 1.01219E-05-2.15612E-03-6.00684E-14-2.25552E-13
 -1      2930 2.00002E+01-2.05689E-03-3.43461E-06-2.30025E-03 2.88936E-14-1.57028E-13
 -1      2931 2.00012E+01-2.87843E-03 8.52902E-06-9.85915E-04-2.11192E-13 2.38875E-13
 -1      2932 2.00010E+01-2.76976E-03 9.02592E-07-1.31955E-03-2.00555E-13 1.79423E-13
 -1      2933 2.00000E+01-1.86713E-03 8.32075E-06-2.42256E-03-2.64874E-14 1.18235E-13
 -1      2934 1.99997E+01-1.60739E-03-2.68216E-06-2.43947E-03-7.68776E-14 1.03443E-13
 -1      2935 1.99997E+01-1.47630E-03-4.05410E-06-2.70350E-03-5.16955E-14 3.06917E-14
 -1      2936 2.00003E+01-1.84437E-03-1.06575E-06-2.56505E-03 8.37123E-14-5.27405E-14
 -1      2937 2.86688E+01-5.00024E+00-7.66649E-02 1.39673E+00-1.26538E-13 2.48968E-13
 -1      2938 2.00009E+01-2.63713E-03 9.91086E-06-1.65702E-03-2.40258E-13-2.27917E-13
 -1      2939 2.00007E+01-2.46693E-03-2.85485E-06-1.91629E-03-1.61400E-13-2.72183E-13
 -1      2940 2.00008E+01-2.19831E-03-5.33120E-06-2.20889E-03-3.17786E-14-3.30474E-13
 -1      2941 2.00012E+01-2.49567E-03-5.13057E-06-1.60865E-03-8.27301E-14 9.02365E-15
 -1      2942 2.00012E+01-2.95523E-03 4.21899E-06 5.76292E-04-1.70460E-13 2.98409E-13
 -1      2943 2.00013E+01-2.99040E-03 6.25889E-06 2.03159E-04-2.14317E-13 5.91637E-13
 -1      2944 2.00011E+01-2.78944E-03 1.12657E-06 1.30174E-03-4.11818E-14 4.61671E-14
 -1      2945 2.00012E+01-2.89321E-03 8.20245E-06 9.70663E-04-2.26724E-13 7.16316E-14
 -1      2946 2.00015E+01-2.69592E-03-5.86756E-06 8.29404E-04-6.06611E-14 1.61124E-13
 -1      2947 2.00007E+01-2.49255E-03-2.35874E-06 1.91047E-03-2.44848E-14-1.29001E-13
 -1      2948 2.00009E+01-2.66110E-03 1.00037E-05 1.64610E-03-1.19235E-13 4.29696E-14
 -1      2949 2.00012E+01-2.52252E-03-5.55723E-06 1.59211E-03-1.21712E-13 9.56995E-14
 -1      2950 2.00002E+01-2.07923E-03-3.15745E-06 2.31188E-03-7.24894E-14-2.80139E-14
 -1      2951 2.00005E+01-2.30085E-03 1.02725E-05 2.15893E-03 5.20188E-14-1.55430E-13
 -1      2952 2.00008E+01-2.22985E-03-4.03850E-06 2.20713E-03-4.37697E-14-1.54853E-14
 -1      2953 1.47805E+01-3.01738E+00 1.90128E-01-5.45331E+00-2.58057E-13-9.36473E-14
 -1      2954 1.75131E+01-4.18931E+00 1.93292E-02-5.69221E+00-2.33952E-13-1.41900E-13
 -1      2955 2.59432E+01-5.24274E+00 1.08629E-01 2.91197E+00-2.24057E-13 2.90247E-13
 -1      2956 1.32922E+01-3.21996E+00 1.58150E-01-6.77909E+00 2.41779E-13 4.91079E-13
 -1      2957 1.68666E+01-4.25272E+00-1.54813E-02-6.98058E+00 1.87489E-13 3.84442E-13
 -1      2958 2.00013E+01-2.98677E-03 6.55756E-06-2.15830E-04-2.12811E-13 6.28618E-13
 -1      2959 2.00012E+01-2.94846E-03 3.81154E-06-5.87900E-04-1.59538E-13 1.90979E-13
 -1      2960 2.00016E+01-2.74924E-03-5.73828E-06-8.65152E-06-3.01465E-15 5.50996E-13
 -1      2961 2.08763E+01-4.83964E+00 1.33150E-01-6.04282E+00 1.59373E-13 2.52673E-13
 -1      2962 2.34937E+01-5.12453E+00-7.67716E-02-5.14519E+00 5.36793E-14 1.85525E-13
 -1      2963 2.09989E+01-4.90792E+00 1.03519E-01-4.83306E+00-2.79152E-13 1.49644E-13
 -1      2964 2.44364E+01-5.56384E+00-2.94443E-02-3.70893E+00-2.34451E-13 3.17793E-13
 -1      2965 1.98778E+01 2.99038E+00-6.75512E-05-1.96204E-01 3.45587E-13 3.04983E-13
 -1      2966 1.58728E+01-3.90151E+00 7.40298E-02 6.07699E+00-1.59206E-13 6.09568E-13
 -1      2967 1.23889E+01-2.59381E+00 1.42099E-01 5.44800E+00-1.04500E-13 6.19171E-13
 -1      2968 1.98159E+01 2.30595E+00-1.98166E-03-8.77997E-02-5.60148E-14 5.06150E-13
 -1      2969 1.94812E+01 2.46850E+00-5.87425E-03-3.04621E-01-2.05420E-14 5.12897E-13
 -1      2970 1.94780E+01 2.12949E+00-4.99866E-03-5.72960E-01-2.37874E-16 4.73487E-13
 -1      2971 2.01635E+01 1.76255E+00-2.23153E-03-1.24812E-01-8.00440E-14 4.60802E-13
 -1      2972 2.83940E+01 6.75558E+00-2.12369E-01-6.23192E-01-4.99684E-13 3.28588E-13
 -1      2973 2.88955E+01 6.10832E+00-1.42442E-01-1.38831E+00-4.75786E-13 4.00929E-13
 -1      2974 2.92234E+01-1.40122E+00-1.46820E-02-1.30756E-01-3.14818E-13-7.31637E-14
 -1      2975 2.96367E+01 1.79552E-01-1.76671E-01 7.48409E-01-4.27325E-13-3.65541E-14
 -1      2976 9.64577E+00-1.58466E+00 1.43632E-01 4.54580E+00-2.74641E-14 7.01161E-13
 -1      2977 7.72549E+00-5.91662E-01 1.51746E-01 2.49995E+00 3.99819E-14 7.18148E-13
 -1      2978 1.29916E+01-1.48732E+00 1.66521E-01 4.70307E+00-8.41827E-14 5.91319E-13
 -1      2979 2.60730E+01-4.38811E+00 5.46606E-02-3.43216E+00-3.16136E-14 7.48013E-14
 -1      2980 2.80421E+01-3.30081E+00-1.36504E-01-1.81739E+00-2.06900E-13-1.57652E-14
 -1      2981 8.41819E+00-1.43871E+00 1.44435E-01-4.90475E+00 2.58321E-13 6.07209E-13
 -1      2982 1.06784E+01-2.40063E+00 9.95940E-02-6.35022E+00 2.22558E-13 5.58165E-13
 -1      2983 1.36361E+01-2.20795E+00 1.58569E-01-6.14848E+00 2.69937E-13 5.00947E-13
 -1      2984 6.40282E+00-1.60256E-01 1.34992E-01-4.55773E-01 1.50711E-13 7.05547E-13
 -1      2985 6.70072E+00-5.90037E-01 1.68229E-01-2.99391E+00 2.33022E-13 6.85535E-13
 -1      2986 2.14133E+01-5.42168E+00-7.08053E-02 5.24755E+00-2.40835E-13 4.58758E-13
 -1      2987 1.85073E+01-4.63129E+00 1.38699E-01 5.74677E+00-2.29289E-13 5.73916E-13
 -1      2988 1.80015E+01-3.38432E+00 1.51567E-01 5.37508E+00-2.10540E-13 5.02182E-13
 -1      2989 3.10655E+01-2.77078E+00 9.56454E-02 1.33836E+00 2.24881E-13 6.64885E-13
 -1      2990 1.74147E+01 3.83023E+00-4.66421E-03-5.57290E-01 2.17858E-13 4.75684E-13
 -1      2991 1.76138E+01 3.76748E+00-9.39714E-03-4.39323E-01 2.53143E-13 4.47970E-13
 -1      2992 2.15505E+01-3.42724E-01 1.06466E-03 1.13708E+00-8.96676E-14 2.81096E-13
 -1      2993 2.16284E+01-4.83226E-01-3.24225E-03 1.01960E+00-5.65236E-14 2.74700E-13
 -1      2994 2.19870E+01-6.31989E-01 3.78699E-03 9.39506E-01-5.01290E-14 2.49167E-13
 -1      2995 2.19876E+01-2.96195E-01 7.98839E-03 1.26414E+00-9.90460E-14 2.53844E-13
 -1      2996 2.96892E+01 2.26797E+00-8.70581E-02 1.57490E+00-5.13228E-13-9.54792E-15
 -1      2997 2.93574E+01 4.09536E+00-2.16921E-01 1.71581E+00-5.86114E-13 9.20930E-14
 -1      2998 2.92327E+01 4.58711E+00-2.00172E-01-1.71834E+00-3.80140E-13 4.42299E-13
 -1      2999 2.95538E+01 2.76152E+00-6.68857E-02-1.72164E+00-2.88380E-13 4.30767E-13
 -1      3000 2.73927E+01-3.80989E+00-1.58664E-01 2.16520E+00 1.65853E-13 3.32095E-13
 -1      3001 2.55279E+01-4.64386E+00 5.70977E-02 3.74756E+00 3.19689E-13 1.31159E-13
 -1      3002 2.45358E+01-4.79479E+00 4.76683E-02 3.91238E+00 3.38979E-13 1.12944E-13
 -1      3003 2.43848E+01-4.68197E+00 7.55632E-02 3.32412E+00-2.47635E-13 3.31807E-13
 -1      3004 1.79742E+01 3.00791E+00 8.16428E-04-1.09184E+00 1.39464E-13 5.31057E-13
 -1      3005 1.77870E+01 3.46831E+00 6.83755E-03-9.33129E-01 1.46242E-13 5.53124E-13
 -1      3006 1.75438E+01 3.58109E+00-1.41083E-02-9.37364E-01 1.74130E-13 5.43690E-13
 -1      3007 2.12348E+01 1.33340E+00 4.35983E-03 8.89890E-01-2.71282E-13 3.71996E-13
 -1      3008 2.84797E+01 1.07294E+00-7.97161E-02-1.58453E+00-1.76997E-13 4.61270E-13
 -1      3009 1.90094E+01-4.41692E+00 1.12804E-01 6.21339E+00 3.52177E-13-5.84463E-14
 -1      3010 1.96736E+01-3.31497E+00-4.47357E-02 4.86875E+00-1.99410E-13 4.11969E-13
 -1      3011 2.27201E+01-3.70698E+00 1.17290E-01 3.85559E+00-2.48496E-13 3.01734E-13
 -1      3012 2.00015E+01-2.68153E-03-5.60835E-06-8.50601E-04 1.27867E-14 1.85272E-13
 -1      3013 9.73555E+00 6.91475E-01 1.15071E-01-1.45396E-01-1.56104E-13 1.94261E-13
 -1      3014 8.87058E+00 2.16368E-01 2.01929E-01-1.28979E+00-1.71464E-13 1.98161E-13
 -1      3015 1.03943E+01 2.33904E-02 1.29702E-02-2.51943E+00-1.28370E-13 7.06241E-14
 -1      3016 2.04528E+01 2.42103E+00 4.54205E-03 1.30812E-01 3.48623E-13 2.48689E-13
 -1      3017 2.05624E+01 2.04818E+00 5.30549E-03 5.59687E-01 3.22231E-13 2.26376E-13
 -1      3018 2.82008E+01 4.55866E+00-1.34243E-01 1.71976E+00-5.13020E-13 1.14589E-13
 -1      3019 2.86415E+01 9.21639E-01-6.67910E-02 1.50539E+00-3.92540E-13-1.88738E-14
 -1      3020 1.79545E+01 3.63154E+00-9.77207E-03-2.17473E-01 2.69081E-13 4.15473E-13
 -1      3021 1.84143E+01 3.43187E+00-8.31179E-03-1.12990E-01 2.97012E-13 3.88669E-13
 -1      3022 1.76809E+01 3.48976E+00 1.16962E-02-2.09852E-01 2.47015E-13 4.15946E-13
 -1      3023 2.80418E+01-2.55252E+00-3.16297E-02-6.31281E-01-1.72010E-13-6.85840E-14
 -1      3024 2.50711E+01-4.51544E+00 4.96087E-02-3.60552E+00 6.29219E-14 6.60444E-14
 -1      3025 9.37445E+00-3.58038E-01 1.77870E-01-3.82332E+00 2.70096E-13 6.37546E-13
 -1      3026 2.03073E+01-4.01026E+00 6.11120E-02-4.64120E+00-2.77472E-13 1.31749E-13
 -1      3027 1.37410E+01-1.80730E+00 1.18398E-01-4.66710E+00-1.31437E-13-3.11140E-14
 -1      3028 1.99998E+01-1.70494E-03-8.56792E-07 2.41759E-03-5.91005E-14 9.58228E-14
 -1      3029 2.00000E+01-1.92266E-03 8.23578E-06 2.38989E-03-1.20622E-13 1.12800E-13
 -1      3030 2.00003E+01-1.91440E-03-4.16928E-06 2.54029E-03-9.07633E-14 7.10005E-14
 -1      3031 1.99998E+01-1.60872E-03-3.19901E-06 2.61358E-03-7.23253E-14 1.94247E-13
 -1      3032 1.98011E+01 2.32401E+00 5.96021E-03 6.93394E-01 3.04369E-13 2.39869E-13
 -1      3033 2.14509E+01 3.56869E-02-4.38704E-03 3.07234E-01-1.64471E-13 2.89634E-13
 -1      3034 2.13785E+01 1.32197E-01-1.41201E-03 3.54575E-01-1.95855E-13 3.12675E-13
 -1      3035 2.13750E+01 2.81184E-01 5.15850E-03 4.01915E-01-2.13996E-13 3.08731E-13
 -1      3036 2.76778E+01-2.83339E+00-2.66369E-02 8.03154E-01 1.38398E-13 3.76491E-13
 -1      3037 2.68153E+01-5.22489E+00 5.80734E-02-2.02318E+00-2.41460E-13 4.23772E-13
 -1      3038 2.89461E+01-4.62930E+00-1.23127E-01-4.09929E-01-6.76820E-14 6.41320E-13
 -1      3039 1.23970E+01-2.09338E+00 1.62430E-01 5.89496E+00 1.40055E-13-3.04728E-13
 -1      3040 1.22214E+01-1.05437E+00 1.24193E-01 4.97671E+00 9.93580E-14-1.60011E-13
 -1      3041 1.43579E+01-2.65333E+00-2.49356E-02 6.05959E+00 1.99750E-13-2.15369E-13
 -1      3042 1.73950E+01 3.75219E+00 2.65789E-03-8.30232E-01 1.86498E-13 5.42749E-13
 -1      3043 1.73426E+01 3.79312E+00-1.24609E-02-7.53570E-01 2.07776E-13 5.10669E-13
 -1      3044 1.72997E+01 3.58982E+00 1.34031E-02-6.67903E-01 2.03150E-13 4.81972E-13
 -1      3045 1.74403E+01 3.39470E+00 8.34513E-03-9.97115E-01 1.81343E-13 5.19542E-13
 -1      3046 1.93807E+01-4.11717E+00 9.60960E-02-6.05175E+00 2.12469E-13 2.97012E-13
 -1      3047 2.12185E+01 1.02650E+00 5.92995E-03 6.37462E-01-2.39849E-13 3.47782E-13
 -1      3048 2.56524E+01-4.84073E+00 1.76782E-02-2.35145E+00-2.83024E-13 4.72376E-13
 -1      3049 2.41183E+01-3.91431E+00 1.26796E-01-3.07335E+00-2.91489E-13 3.97169E-13
 -1      3050 2.68440E+01 6.17642E+00-1.13624E-01 5.54924E-01-5.10092E-13 2.42389E-13
 -1      3051 2.78041E+01 6.56993E+00-1.64236E-01-6.14687E-02-4.83336E-13 2.82011E-13
 -1      3052 2.65656E+01 5.91353E+00-1.13244E-01-5.38570E-01-4.26909E-13 3.07710E-13
 -1      3053 1.01724E+01 3.87930E-01 1.23239E-01 2.30776E+00 1.21847E-14 6.26721E-13
 -1      3054 8.00477E+00 2.39602E-01 1.95291E-01 1.10394E+00 8.52859E-14 7.00939E-13
 -1      3055 8.95139E+00 8.35216E-01 1.33223E-01-1.88818E-01 1.57884E-13 6.16590E-13
 -1      3056 2.11132E+01-3.57091E+00-1.06081E-02-4.15924E+00-2.99205E-13 3.19599E-13
 -1      3057 2.77844E+01 4.70641E+00-1.10997E-01-1.70065E+00-3.97918E-13 3.83991E-13
 -1      3058 2.10053E+01 9.22451E-01-9.70979E-03 2.67939E-01-1.59883E-13 3.86503E-13
 -1      3059 2.07948E+01 1.10388E+00 3.94686E-03 8.10887E-02-1.25808E-13 4.08844E-13
 -1      3060 2.14135E+01 4.77733E-01 8.69123E-03 5.68332E-01-2.33897E-13 3.08345E-13
 -1      3061 2.71407E+01 1.68916E+00-1.51062E-01-2.03207E+00-2.49759E-13 4.60867E-13
 -1      3062 2.75724E+01-9.55378E-02 1.50101E-02-1.56875E+00-8.70762E-14 4.52659E-13
 -1      3063 1.75953E+01-2.24602E+00 8.81929E-02 4.89176E+00-1.80002E-13 4.45484E-13
 -1      3064 1.82946E+01 1.83067E+00-1.09693E-02 1.76841E+00 1.83139E-13 3.10026E-13
 -1      3065 1.81189E+01 1.54950E+00 1.34550E-02 2.15937E+00 1.33763E-13 3.21033E-13
 -1      3066 1.75732E+01 1.17645E+00-5.82071E-03 2.60766E+00 8.17079E-14 3.40442E-13
 -1      3067 1.75248E+01 6.67450E-01 4.12594E-02 3.04538E+00 2.49687E-14 3.65366E-13
 -1      3068 1.67651E+01 1.73833E+00 2.22953E-02 2.08414E+00 1.27321E-13 3.36133E-13
 -1      3069 1.71894E+01-4.68548E-02 3.55004E-02 3.66955E+00-3.20351E-14 3.68698E-13
 -1      3070 1.74858E+01-9.98347E-01 9.06964E-02 4.19040E+00-1.18943E-13 3.95003E-13
 -1      3071 1.53610E+01-1.25783E+00 4.47299E-02 4.67738E+00-9.39943E-14 4.77313E-13
 -1      3072 1.57801E+01 6.84050E-01 1.86708E-02 3.15843E+00 1.65475E-14 4.06071E-13
 -1      3073 2.17432E+01 2.10651E+00 5.61458E-03 2.61214E-01-1.90594E-13 2.83506E-13
 -1      3074 2.17973E+01 1.88563E+00-1.34622E-02 6.88487E-01-1.84891E-13 2.49637E-13
 -1      3075 1.10922E+01 1.46283E-02 9.07249E-02 3.50631E+00-1.38691E-13-6.71824E-14
 -1      3076 1.02645E+01 5.82773E-01 7.69534E-02 1.98119E+00-2.39538E-13 8.41965E-14
 -1      3077 1.92858E+01 3.06252E+00-1.19605E-02 3.21612E-02 3.15651E-13 3.26759E-13
 -1      3078 2.68751E+01 3.41829E+00-8.33592E-02 1.95616E+00-4.04191E-13 7.31429E-14
 -1      3079 2.66554E+01 4.96581E+00-1.58981E-01 1.42195E+00-4.81767E-13 1.79905E-13
 -1      3080 2.63557E+01 4.77074E+00-1.44420E-01-1.55110E+00-3.70814E-13 3.22679E-13
 -1      3081 2.69444E+01 3.60976E+00-5.83857E-02-2.08313E+00-3.45460E-13 4.14654E-13
 -1      3082 1.74024E+01 3.22942E-01 4.55470E-02-3.10743E+00-1.69660E-13 1.89067E-13
 -1      3083 1.73756E+01 7.11924E-01-1.30124E-02-2.79022E+00-9.57437E-14 1.26117E-13
 -1      3084 1.79205E+01 9.81301E-01 1.71525E-02-2.44956E+00-5.99929E-14 1.31355E-13
 -1      3085 1.80537E+01 1.11360E+00-1.67567E-02-2.19998E+00 2.51687E-15-2.87118E-15
 -1      3086 1.65888E+01 1.13618E+00 3.15615E-02-2.34377E+00-8.89930E-14 2.04769E-13
 -1      3087 1.84941E+01 1.18310E+00 6.07502E-03-1.97406E+00 3.18966E-14 1.75464E-14
 -1      3088 1.86427E+01 1.18035E+00-1.39482E-02-1.77535E+00 6.25495E-14-2.11732E-14
 -1      3089 1.75358E+01 1.36384E+00 1.99363E-02-1.82873E+00 2.57829E-14 1.47499E-13
 -1      3090 1.89767E+01 1.15049E+00 2.11684E-03-1.61065E+00 6.57250E-14-8.62153E-14
 -1      3091 1.90987E+01 1.08633E+00-1.06974E-02-1.44500E+00 5.75174E-14-1.36961E-13
 -1      3092 1.82757E+01 1.33548E+00 1.49771E-02-1.48662E+00 4.71545E-14-1.18370E-13
 -1      3093 1.93431E+01 1.01523E+00 1.09287E-03-1.31374E+00-1.12469E-14-5.33838E-14
 -1      3094 1.94288E+01 9.30294E-01-8.08222E-03-1.17291E+00-6.03440E-14-7.29641E-14
 -1      3095 1.88244E+01 1.19132E+00 1.13449E-02-1.22729E+00 1.23560E-14-1.00584E-13
 -1      3096 1.96027E+01 8.48772E-01 1.02788E-03-1.06319E+00-8.69907E-14-6.22524E-14
 -1      3097 1.96561E+01 7.63713E-01-6.11094E-03-9.43738E-01-1.63736E-13-1.32259E-13
 -1      3098 1.92182E+01 1.00743E+00 8.34346E-03-1.01227E+00-9.63022E-14-1.49110E-13
 -1      3099 1.97768E+01 6.86593E-01 1.18010E-03-8.50730E-01-1.60846E-13-4.36186E-14
 -1      3100 1.98059E+01 6.10558E-01-4.60868E-03-7.50671E-01-3.70414E-14-1.07303E-13
 -1      3101 1.94932E+01 8.23749E-01 5.92581E-03-8.27106E-01-1.44671E-13-8.24395E-14
 -1      3102 1.98880E+01 5.43700E-01 1.29904E-03-6.72156E-01 5.55876E-15-5.93866E-14
 -1      3103 1.99007E+01 4.79621E-01-3.45956E-03-5.89628E-01-2.62159E-14 2.00855E-15
 -1      3104 1.96804E+01 6.58646E-01 4.07888E-03-6.66968E-01 3.31883E-14 1.95997E-14
 -1      3105 1.99555E+01 4.24324E-01 1.32157E-03-5.24149E-01 3.82421E-14-6.09647E-15
 -1      3106 1.99580E+01 3.72120E-01-2.58224E-03-4.57117E-01 4.00432E-14 3.91880E-14
 -1      3107 1.98050E+01 5.18449E-01 2.73031E-03-5.30046E-01 5.26973E-14 1.88661E-14
 -1      3108 1.99939E+01 3.27618E-01 1.25758E-03-4.03312E-01-3.87586E-14 9.61262E-14
 -1      3109 1.99908E+01 2.85950E-01-1.91696E-03-3.49634E-01-6.89679E-14 9.58926E-14
 -1      3110 1.98861E+01 4.03341E-01 1.78046E-03-4.14945E-01 9.74593E-15-1.08428E-13
 -1      3111 2.00139E+01 2.50725E-01 1.13659E-03-3.06090E-01-1.72995E-13 8.31512E-14
 -1      3112 2.00081E+01 2.17897E-01-1.41618E-03-2.63665E-01-2.38243E-13 1.29552E-14
 -1      3113 1.99377E+01 3.10796E-01 1.13030E-03-3.19908E-01-1.12891E-13-8.90644E-14
 -1      3114 2.00227E+01 1.90309E-01 9.87334E-04-2.28944E-01-2.39286E-13 1.14762E-13
 -1      3115 2.00160E+01 1.64675E-01-1.04144E-03-1.95828E-01-2.23279E-13 8.60100E-14
 -1      3116 1.99697E+01 2.37405E-01 6.95886E-04-2.42788E-01-2.28079E-13 2.00200E-13
 -1      3117 2.00250E+01 1.43230E-01 8.31322E-04-1.68541E-01-1.87517E-13 9.31254E-14
 -1      3118 2.00185E+01 1.23351E-01-7.62180E-04-1.43004E-01-8.84188E-14-2.69306E-14
 -1      3119 1.99888E+01 1.79762E-01 4.11943E-04-1.81227E-01-2.33670E-13 1.58711E-13
 -1      3120 2.00238E+01 1.06785E-01 6.82345E-04-1.21866E-01 8.84180E-14-1.35955E-13
 -1      3121 2.00180E+01 9.14648E-02-5.54606E-04-1.02417E-01 1.31844E-13-1.39245E-13
 -1      3122 1.99997E+01 1.34831E-01 2.30394E-04-1.32849E-01-9.90959E-14-3.52497E-14
 -1      3123 2.00209E+01 7.87460E-02 5.48027E-04-8.62798E-02 1.12050E-13-1.16203E-13
 -1      3124 2.00160E+01 6.70184E-02-4.00612E-04-7.16626E-02-7.65979E-14-8.27861E-14
 -1      3125 2.00055E+01 1.00050E-01 1.17109E-04-9.54138E-02 1.66303E-13-1.09710E-13
 -1      3126 2.00176E+01 5.73196E-02 4.31693E-04-5.95313E-02-6.86609E-15 5.22658E-14
 -1      3127 2.00136E+01 4.84101E-02-2.86595E-04-4.87029E-02 4.64123E-14 1.23871E-13
 -1      3128 2.00081E+01 7.33166E-02 4.85131E-05-6.68918E-02 7.96505E-14 3.96035E-14
 -1      3129 2.00142E+01 4.10737E-02 3.33928E-04-3.97333E-02-4.76735E-15 1.96070E-13
 -1      3130 2.00110E+01 3.43660E-02-2.02421E-04-3.18411E-02-1.21036E-13 2.93729E-13
 -1      3131 2.00089E+01 5.29324E-02 8.66036E-06-4.55106E-02 5.72346E-14 1.03964E-13
 -1      3132 2.00111E+01 2.88701E-02 2.53726E-04-2.53308E-02-1.35848E-13 4.39827E-13
 -1      3133 2.00087E+01 2.38746E-02-1.40554E-04-1.96861E-02 3.28976E-14 4.26861E-13
 -1      3134 2.00086E+01 3.75324E-02-1.30465E-05-2.97603E-02 2.39646E-14 3.96742E-13
 -1      3135 2.00085E+01 1.98053E-02 1.89265E-04-1.50607E-02 6.15417E-15 4.49753E-13
 -1      3136 2.00067E+01 1.61332E-02-9.53823E-05-1.11134E-02-9.51811E-15 4.46037E-13
 -1      3137 2.00078E+01 2.60245E-02-2.35468E-05-1.83821E-02 4.00440E-14 5.10349E-13
 -1      3138 2.00064E+01 1.31625E-02 1.38399E-04-7.91020E-03-1.48721E-14 3.94001E-13
 -1      3139 2.00050E+01 1.05052E-02-6.27138E-05-5.22639E-03 5.71991E-14 3.44496E-13
 -1      3140 2.00067E+01 1.75356E-02-2.73224E-05-1.03458E-02-1.24460E-13 5.51919E-13
 -1      3141 2.00046E+01 8.37310E-03 9.89507E-05-3.07837E-03 1.06687E-13 2.28228E-13
 -1      3142 2.00037E+01 6.48618E-03-3.94004E-05-1.31956E-03 9.48607E-14 1.89471E-13
 -1      3143 2.00056E+01 1.13697E-02-2.72279E-05-4.82270E-03 6.07008E-15 4.07064E-13
 -1      3144 2.00033E+01 4.98714E-03 6.88879E-05 5.99757E-05-2.48575E-15 2.49665E-13
 -1      3145 2.00026E+01 3.67761E-03-2.30704E-05 1.15408E-03-7.26337E-14 6.72743E-14
 -1      3146 2.00046E+01 6.97278E-03-2.50550E-05-1.15667E-03 1.03989E-13 2.88022E-14
 -1      3147 2.00022E+01 2.64943E-03 4.63983E-05 1.98548E-03-1.04786E-13 9.86620E-14
 -1      3148 2.00018E+01 1.76520E-03-1.19453E-05 2.61199E-03 1.10067E-13 3.83883E-14
 -1      3149 2.00036E+01 3.90577E-03-2.19129E-05 1.16325E-03-5.93429E-14 1.63453E-13
 -1      3150 2.00015E+01 1.08018E-03 2.99020E-05 3.06156E-03 1.88977E-13-1.88746E-14
 -1      3151 2.00012E+01 5.01646E-04-4.72763E-06 3.36689E-03 4.16365E-14-1.03204E-13
 -1      3152 2.00028E+01 1.82154E-03-1.84995E-05 2.52810E-03 1.19531E-13 1.22299E-13
 -1      3153 2.00009E+01 5.93470E-05 1.80808E-05 3.55730E-03 2.17763E-14-1.16732E-13
 -1      3154 2.00007E+01-3.07229E-04-1.69334E-07 3.64747E-03-6.89557E-14-3.31794E-14
 -1      3155 2.00021E+01 4.46355E-04-1.52687E-05 3.23122E-03 6.56329E-14-2.09373E-13
 -1      3156 2.00004E+01-5.87060E-04 9.65878E-06 3.66773E-03-1.95571E-13-9.91731E-14
 -1      3157 2.00003E+01-8.15470E-04 2.88357E-06 3.61645E-03-3.05579E-13 1.20919E-13
 -1      3158 2.00015E+01-4.34339E-04-1.24288E-05 3.48723E-03-1.19320E-13-7.08938E-14
 -1      3159 2.00001E+01-9.96227E-04 4.33274E-06 3.52622E-03-2.48106E-13 1.33625E-13
 -1      3160 2.00001E+01-1.14571E-03 4.05647E-06 3.38258E-03-2.70354E-13 1.05848E-13
 -1      3161 2.00010E+01-9.96518E-04-1.00903E-05 3.45342E-03-2.08056E-13 1.39631E-13
 -1      3162 1.99999E+01-1.27120E-03 2.69899E-06 3.21975E-03-3.18159E-13 2.17166E-13
 -1      3163 1.99999E+01-1.39596E-03 1.26414E-06 3.01812E-03-2.94146E-13 7.89472E-14
 -1      3164 2.00006E+01-1.37192E-03-7.61636E-06 3.22774E-03-1.72980E-13-5.33543E-14
 -1      3165 2.21083E+01-8.64890E-01-1.14183E-02 5.24753E-01-3.10958E-14 2.16638E-13
 -1      3166 2.20388E+01-7.52868E-01 1.10745E-02 3.74375E-01-3.78112E-14 2.08174E-13
 -1      3167 2.17885E+01-5.89072E-01-1.09718E-02 2.39770E-01-7.42628E-14 2.46335E-13
 -1      3168 2.17077E+01-3.54608E-01 1.31538E-02 1.75391E-01-1.06163E-13 2.54488E-13
 -1      3169 2.20346E+01-7.71438E-01-5.12537E-03 1.64369E-01-5.99320E-14 1.71203E-13
 -1      3170 2.19956E+01 1.51771E+00 1.85938E-02 1.10957E+00-1.60391E-13 2.37069E-13
 -1      3171 2.20875E+01 1.03143E+00-2.80748E-02 1.35415E+00-1.48387E-13 2.52854E-13
 -1      3172 2.24362E+01 2.00966E+00 3.53774E-04 1.03243E+00-2.00256E-13 2.37151E-13
 -1      3173 2.23070E+01 5.48127E-01 1.73316E-02 1.46071E+00-1.62107E-13 2.50267E-13
 -1      3174 2.23743E+01 5.21469E-02-2.53548E-02 1.47651E+00-1.53588E-13 2.31593E-13
 -1      3175 2.27847E+01 8.84061E-01 1.47936E-02 1.57030E+00-1.62519E-13 2.27584E-13
 -1      3176 2.17519E+01 1.96259E+00-1.31988E-02-7.54892E-01-1.87895E-13 3.11966E-13
 -1      3177 2.17201E+01 2.13702E+00 3.79131E-03-3.11687E-01-1.96360E-13 3.13732E-13
 -1      3178 2.22260E+01 2.50276E+00-1.42585E-02-6.80817E-03-2.14581E-13 2.32827E-13
 -1      3179 2.20032E+01 1.16734E+00-2.40833E-02-1.48005E+00-9.40510E-14 3.77067E-13
 -1      3180 2.19120E+01 1.62995E+00 1.50023E-02-1.20479E+00-1.54876E-13 3.78790E-13
 -1      3181 2.23463E+01 2.11268E+00-9.40869E-03-1.08248E+00-2.07855E-13 3.39867E-13
 -1      3182 2.22822E+01 1.52165E-01-2.16923E-02-1.66735E+00 5.74887E-15 4.23502E-13
 -1      3183 2.21953E+01 6.62992E-01 1.33787E-02-1.63328E+00-5.23240E-14 4.06699E-13
 -1      3184 2.26497E+01 1.06088E+00 4.60611E-03-1.68796E+00-1.12723E-13 3.79505E-13
 -1      3185 2.23674E+01-6.45494E-01-1.15056E-02-1.38864E+00 1.08638E-13 5.25851E-13
 -1      3186 2.23422E+01-2.83339E-01 3.67476E-03-1.53727E+00 9.63626E-14 5.30013E-13
 -1      3187 2.28344E+01-1.12683E-01 8.60044E-03-1.65673E+00 6.89162E-15 4.69495E-13
 -1      3188 2.22087E+01-1.04676E+00 1.39490E-04-8.80121E-01 9.96386E-14 5.08170E-13
 -1      3189 2.22588E+01-8.94210E-01-4.38601E-03-1.11094E+00 1.14527E-13 4.63144E-13
 -1      3190 2.27308E+01-9.30101E-01 1.09381E-02-1.19783E+00 1.24537E-13 5.17138E-13
 -1      3191 2.18758E+01-1.09645E+00 6.36309E-03-3.60336E-01 1.23267E-13 4.82331E-13
 -1      3192 2.19820E+01-1.10928E+00-8.01446E-03-5.90111E-01 1.02565E-13 4.75650E-13
 -1      3193 2.23598E+01-1.28290E+00 2.76207E-03-5.99029E-01 1.06588E-13 4.60785E-13
 -1      3194 2.14798E+01-9.29032E-01 8.66792E-03 5.46565E-02 3.99830E-14 3.70977E-13
 -1      3195 2.16108E+01-1.03436E+00-7.71470E-03-1.29228E-01 9.79957E-14 4.18795E-13
 -1      3196 2.18636E+01-1.25250E+00-3.42741E-03-7.44961E-02 1.38232E-13 3.93822E-13
 -1      3197 2.11043E+01-6.75055E-01 8.14357E-03 3.33439E-01 1.02690E-15 2.91080E-13
 -1      3198 2.12346E+01-8.10421E-01-5.54318E-03 2.07452E-01-3.42186E-14 3.71334E-13
 -1      3199 2.13683E+01-1.01131E+00-6.25734E-03 2.96895E-01 5.64174E-14 2.92264E-13
 -1      3200 2.07911E+01-4.19755E-01 6.49035E-03 4.89719E-01-4.74198E-14 2.41440E-13
 -1      3201 2.09056E+01-5.47264E-01-3.29091E-03 4.16926E-01 3.72589E-14 3.06096E-13
 -1      3202 2.09467E+01-7.02672E-01-6.60724E-03 5.15928E-01 6.29168E-15 2.55959E-13
 -1      3203 2.05509E+01-2.06858E-01 4.59310E-03 5.52801E-01-2.49962E-14 1.86118E-13
 -1      3204 2.06442E+01-3.08991E-01-1.52790E-03 5.21603E-01-5.27281E-14 2.01467E-13
 -1      3205 2.06231E+01-4.12885E-01-5.61744E-03 6.14924E-01-3.17163E-14 2.31563E-13
 -1      3206 2.03769E+01-5.02249E-02 2.92190E-03 5.52501E-01-5.04710E-14 1.21823E-13
 -1      3207 2.04496E+01-1.22913E-01-3.68018E-04 5.50511E-01-6.04269E-14 1.81866E-13
 -1      3208 2.03927E+01-1.81287E-01-4.27937E-03 6.31513E-01-5.97061E-14 6.47407E-14
 -1      3209 2.02559E+01 5.27353E-02 1.64315E-03 5.13311E-01 8.85798E-15 2.23536E-13
 -1      3210 2.03110E+01 6.62942E-03 3.32961E-04 5.29827E-01 4.01106E-15 1.64031E-13
 -1      3211 2.02380E+01-1.65619E-02-3.01974E-03 5.97115E-01-5.17073E-14 1.53490E-13
 -1      3212 2.01740E+01 1.11817E-01 7.48470E-04 4.53415E-01 9.69733E-14 2.73486E-13
 -1      3213 2.02153E+01 8.67172E-02 7.20093E-04 4.80156E-01 7.83616E-14 2.48500E-13
 -1      3214 2.01394E+01 8.79959E-02-2.01244E-03 5.34823E-01 2.43513E-14 1.68308E-13
 -1      3215 2.01194E+01 1.38541E-01 1.72134E-04 3.85406E-01 6.49829E-15 2.11817E-13
 -1      3216 2.01505E+01 1.28524E-01 9.02822E-04 4.16439E-01 1.71124E-14 2.26907E-13
 -1      3217 2.00796E+01 1.45067E-01-1.27921E-03 4.60409E-01 7.96578E-14 2.43712E-13
 -1      3218 2.00834E+01 1.43427E-01-1.65744E-04 3.17448E-01 2.93307E-14 2.80535E-13
 -1      3219 2.01068E+01 1.43324E-01 9.55715E-04 3.48819E-01 4.05790E-14 2.18061E-13
 -1      3220 2.00452E+01 1.68014E-01-7.80502E-04 3.84047E-01 8.18122E-14 1.82382E-13
 -1      3221 2.00595E+01 1.34931E-01-3.37365E-04 2.54417E-01 8.68185E-14 3.08242E-13
 -1      3222 2.00773E+01 1.40702E-01 9.28174E-04 2.83708E-01 4.43513E-14 2.94884E-13
 -1      3223 2.00264E+01 1.68473E-01-4.60119E-04 3.11884E-01 5.43887E-14 1.39330E-13
 -1      3224 2.00434E+01 1.19288E-01-4.00545E-04 1.98849E-01-4.22099E-14 2.49633E-13
 -1      3225 2.00570E+01 1.28021E-01 8.53544E-04 2.24767E-01 3.67021E-14 2.94714E-13
 -1      3226 2.00168E+01 1.55547E-01-2.64818E-04 2.47259E-01 5.97317E-14 2.50296E-13
 -1      3227 2.00323E+01 1.00775E-01-3.98150E-04 1.51703E-01-1.37301E-13 2.10955E-13
 -1      3228 2.00428E+01 1.10513E-01 7.54491E-04 1.73729E-01-1.01410E-13 2.29021E-13
 -1      3229 2.00123E+01 1.35819E-01-1.51889E-04 1.91621E-01-5.60622E-14 1.84698E-13
 -1      3230 2.00245E+01 8.21099E-02-3.60103E-04 1.12930E-01-9.66526E-14 2.12599E-13
 -1      3231 2.00325E+01 9.16379E-02 6.46357E-04 1.31047E-01-1.00768E-13 1.75902E-13
 -1      3232 2.00102E+01 1.13725E-01-9.02071E-05 1.45201E-01-8.65587E-14 1.29667E-13
 -1      3233 2.00187E+01 6.48680E-02-3.06138E-04 8.18883E-02 2.45700E-14 8.43503E-14
 -1      3234 2.00248E+01 7.35070E-02 5.39242E-04 9.63767E-02-1.53929E-14 1.46275E-13
 -1      3235 2.00093E+01 9.20373E-02-5.85955E-05 1.07489E-01-6.17903E-14 1.67517E-13
 -1      3236 2.00143E+01 4.98283E-02-2.48478E-04 5.76380E-02 1.91513E-13 3.62453E-14
 -1      3237 2.00190E+01 5.72650E-02 4.39418E-04 6.89328E-02 9.00583E-14 3.61250E-14
 -1      3238 2.00087E+01 7.23155E-02-4.34636E-05 7.75715E-02 4.65371E-14-3.30195E-14
 -1      3239 2.00109E+01 3.72526E-02-1.94086E-04 3.91313E-02 1.07867E-13-3.98834E-14
 -1      3240 2.00145E+01 4.34075E-02 3.50364E-04 4.77244E-02 1.69350E-13-5.84221E-14
 -1      3241 2.00081E+01 5.52914E-02-3.65744E-05 5.43621E-02 1.73477E-13-1.33883E-13
 -1      3242 2.00082E+01 2.70877E-02-1.46424E-04 2.53357E-02 2.27453E-13-1.04635E-13
 -1      3243 2.00109E+01 3.20203E-02 2.73578E-04 3.17152E-02 1.08229E-13-1.10080E-13
 -1      3244 2.00074E+01 4.11626E-02-3.32498E-05 3.67463E-02 1.47509E-13-2.62048E-13
 -1      3245 2.00061E+01 1.91080E-02-1.06750E-04 1.53032E-02 2.90034E-13-2.65451E-13
 -1      3246 2.00081E+01 2.29507E-02 2.09211E-04 1.99182E-02 3.43004E-13-2.24189E-13
 -1      3247 2.00066E+01 2.98080E-02-3.10507E-05 2.36723E-02 2.89737E-13-4.21272E-13
 -1      3248 2.00045E+01 1.30094E-02-7.50202E-05 8.20521E-03 3.19823E-13-2.06859E-13
 -1      3249 2.00059E+01 1.59250E-02 1.56564E-04 1.14482E-02 3.07132E-13-2.80103E-13
 -1      3250 2.00058E+01 2.09359E-02-2.88666E-05 1.41995E-02 3.05461E-13-5.41168E-13
 -1      3251 2.00032E+01 8.46832E-03-5.05016E-05 3.34334E-03 2.73007E-13-1.45647E-13
 -1      3252 2.00042E+01 1.06235E-02 1.14455E-04 5.54472E-03 3.02564E-13-1.63118E-13
 -1      3253 2.00049E+01 1.41828E-02-2.63218E-05 7.51914E-03 2.42108E-13-5.31433E-13
 -1      3254 2.00022E+01 5.17633E-03-3.21618E-05 1.46772E-04 1.07601E-13-7.96250E-14
 -1      3255 2.00029E+01 6.72664E-03 8.14838E-05 1.57596E-03 1.82433E-13-4.24050E-14
 -1      3256 2.00040E+01 9.17298E-03-2.34080E-05 2.95783E-03 1.89823E-13-2.48569E-13
 -1      3257 2.00015E+01 2.85717E-03-1.89041E-05-1.83881E-03 2.57996E-14-1.03710E-13
 -1      3258 2.00019E+01 3.94006E-03 5.62104E-05-9.68173E-04-1.28723E-14-1.08327E-13
 -1      3259 2.00032E+01 5.55395E-03-2.02726E-05-3.06613E-05 5.26292E-14-5.59527E-14
 -1      3260 2.00009E+01 1.27363E-03-9.69459E-06-2.96582E-03 3.58639E-13-1.14510E-13
 -1      3261 2.00012E+01 2.00603E-03 3.72799E-05-2.48879E-03 2.50807E-13-5.38371E-14
 -1      3262 2.00025E+01 3.01296E-03-1.71030E-05-1.87837E-03 1.20211E-13-1.79755E-13
 -1      3263 2.00005E+01 2.27586E-04-3.62578E-06-3.50030E-03 2.65002E-13 1.60600E-13
 -1      3264 2.00006E+01 7.06528E-04 2.34728E-05-3.29320E-03 2.38623E-13-2.65761E-14
 -1      3265 2.00019E+01 1.28305E-03-1.40614E-05-2.91883E-03 1.91438E-13-1.01293E-13
 -1      3266 2.00002E+01-4.43685E-04 4.57902E-08-3.63705E-03 2.35380E-13 1.84674E-13
 -1      3267 2.00003E+01-1.38765E-04 1.37234E-05-3.61021E-03 3.18505E-13 9.27788E-14
 -1      3268 2.00013E+01 1.42191E-04-1.12861E-05-3.40296E-03 1.95690E-13 4.54527E-14
 -1      3269 2.00000E+01-8.72690E-04 2.15541E-06-3.51265E-03 7.44837E-14 3.31293E-13
 -1      3270 2.00000E+01-6.77422E-04 7.15085E-06-3.60431E-03 1.94501E-13 2.93146E-13
 -1      3271 2.00009E+01-5.91921E-04-9.01329E-06-3.51377E-03 1.22663E-13 5.93774E-14
 -1      3272 1.99998E+01-1.16511E-03 4.01967E-06-3.21854E-03-1.76735E-13 3.68491E-13
 -1      3273 1.99998E+01-1.03040E-03 3.09888E-06-3.38813E-03-3.31004E-14 4.12844E-13
 -1      3274 2.00005E+01-1.06564E-03-7.04117E-06-3.38095E-03-4.33738E-14 4.38309E-13
 -1      3275 1.99998E+01-1.38319E-03 3.84098E-07-2.86262E-03-1.08423E-13 1.56361E-13
 -1      3276 1.99997E+01-1.25706E-03-1.09349E-06-3.07952E-03-1.89897E-13 2.71890E-13
 -1      3277 2.00003E+01-1.36718E-03-7.95903E-06-3.13221E-03-1.17293E-13 5.57470E-13
 -1      3278 2.00001E+01-1.56521E-03-3.80408E-06-2.83402E-03-6.06959E-14 1.81876E-13
 -1      3279 2.00015E+01-2.26947E-03-4.63259E-06 1.85568E-03-6.21516E-14 3.94084E-14
 -1      3280 2.00017E+01-2.36713E-03 6.97454E-06 1.50063E-03 1.57064E-14-1.51113E-14
 -1      3281 1.30288E+01-1.86398E-01 9.83698E-02 3.78932E+00-3.96280E-14 5.25247E-13
 -1      3282 2.00009E+01-1.97935E-03-3.96841E-06 2.46896E-03-1.44904E-14-2.86984E-14
 -1      3283 2.00012E+01-2.13795E-03 9.52810E-06 2.21543E-03-6.52332E-14 1.52980E-13
 -1      3284 2.00017E+01-2.02252E-03 1.09059E-06 2.15121E-03 9.84960E-14 9.53367E-14
 -1      3285 2.00019E+01-2.43970E-03-4.32225E-07 1.07939E-03 7.18473E-15-5.85947E-15
 -1      3286 2.00020E+01-2.48929E-03 4.66344E-06 6.71825E-04 1.65483E-13 2.87253E-13
 -1      3287 2.00021E+01-2.18898E-03-2.35061E-06 1.36125E-03 1.27532E-13 3.81943E-14
 -1      3288 2.13644E+01 5.24295E-01-9.91049E-03 5.25335E-01-2.29714E-13 3.14766E-13
 -1      3289 1.91588E+01 2.71163E+00-1.03451E-02 4.02235E-01 2.91645E-13 3.03470E-13
 -1      3290 1.91161E+01 2.49352E+00-6.41984E-04 7.33115E-01 2.79399E-13 2.94614E-13
 -1      3291 1.84743E+01-2.45783E+00 1.82320E-01-4.77059E+00-2.80401E-13 8.51576E-14
 -1      3292 2.78774E+01-2.05326E-01-1.07609E-02 1.39288E+00-2.82545E-13-8.35998E-14
 -1      3293 2.74155E+01 1.41886E+00-1.17827E-01 1.92953E+00-3.63529E-13-2.39947E-14
 -1      3294 1.25168E+01-3.52133E-01 2.05981E-01-3.78713E+00-8.50951E-14 5.29715E-14
 -1      3295 1.51700E+01-1.74506E+00-1.46771E-03-4.66193E+00-1.08226E-13-2.90323E-14
 -1      3296 1.66988E+01-1.37235E+00 6.84078E-02-4.26617E+00-1.79939E-13 1.21986E-13
 -1      3297 2.12086E+01 7.71632E-01 8.09914E-03 4.24379E-01-1.87484E-13 3.24212E-13
 -1      3298 1.81987E+01-3.19026E+00 1.36696E-01-5.89636E+00 2.21587E-13 3.09509E-13
 -1      3299 2.11409E+01-4.35372E+00-7.90949E-02-5.27568E+00 1.98945E-13 1.77983E-13
 -1      3300 1.88578E+01 2.27727E+00-8.19077E-03 1.04189E+00 2.63449E-13 2.90803E-13
 -1      3301 1.86686E+01 2.06190E+00 2.44078E-03 1.43199E+00 2.16019E-13 3.05652E-13
 -1      3302 1.76753E+01 2.28312E+00 1.52298E-02 1.35149E+00 2.12420E-13 3.03738E-13
 -1      3303 1.82962E+01 2.69234E+00 7.84442E-03 7.33095E-01 2.57261E-13 3.47312E-13
 -1      3304 2.73140E+01-2.26287E+00-1.54065E-01-2.68123E-01 4.76633E-14 4.52353E-13
 -1      3305 2.66618E+01-3.52518E+00 5.14982E-02 1.23437E+00 1.71866E-13 3.74638E-13
 -1      3306 2.40367E+01-4.35101E+00 1.07519E-01-3.81367E+00 1.32588E-13 5.90847E-14
 -1      3307 2.56887E+01-4.26352E+00-1.09459E-01-2.50725E+00 2.03622E-14-2.13302E-14
 -1      3308 2.00020E+01-2.47538E-03 4.94153E-06-6.94636E-04 1.26050E-13 1.78888E-13
 -1      3309 2.00018E+01-2.41826E-03-2.85198E-07-1.10542E-03 2.00445E-13 1.83320E-13
 -1      3310 9.72879E+00 5.89602E-01 1.03580E-01-2.67849E+00 2.44686E-13 6.10539E-13
 -1      3311 1.12571E+01-2.56308E-01 9.30225E-02-4.51644E+00 2.60680E-13 5.90292E-13
 -1      3312 1.31085E+01-1.25657E+00 1.24928E-01-5.46108E+00 2.70756E-13 5.19515E-13
 -1      3313 1.51121E+01-2.32770E+00-9.33902E-03-6.06685E+00 2.55095E-13 4.58106E-13
 -1      3314 2.00020E+01-2.50848E-03 2.77019E-06 2.03634E-04 9.22874E-14 6.66684E-13
 -1      3315 2.00020E+01-2.50569E-03 2.25025E-06-2.28507E-04 1.31065E-13 4.99596E-13
 -1      3316 2.00024E+01-2.25868E-03-1.72832E-06-4.88335E-04 2.14782E-13 3.36973E-13
 -1      3317 2.00024E+01-2.26952E-03-1.88212E-06 4.56998E-04 3.67584E-13 3.60055E-13
 -1      3318 1.90743E+01 2.03446E+00 9.28276E-03-1.07530E+00 6.91883E-14 4.43229E-13
 -1      3319 1.86218E+01 2.23766E+00-1.12901E-02-1.22050E+00 1.04108E-13 4.60503E-13
 -1      3320 2.70794E+01-3.17770E+00 4.07396E-02-9.70891E-01-7.01158E-14-4.29518E-14
 -1      3321 2.75967E+01-1.98651E+00-1.37508E-01 3.32574E-01-1.89283E-13-6.06251E-14
 -1      3322 2.06931E+01-4.61401E+00-6.77571E-02 5.44566E+00 3.17940E-13 7.80626E-14
 -1      3323 1.78049E+01-3.53751E+00 1.60209E-01 6.04320E+00 2.39406E-13 1.32394E-14
 -1      3324 2.50106E+01-4.53654E+00-1.01676E-01 2.83749E+00 2.50105E-13 2.17906E-13
 -1      3325 2.34422E+01-4.57309E+00 1.02256E-01 4.03185E+00 3.17808E-13 1.14009E-13
 -1      3326 2.12440E+01 4.67511E-01 3.18724E-04 2.18411E-01-1.64593E-13 3.27771E-13
 -1      3327 2.54760E+01-3.75089E+00 1.02458E-02 1.59784E+00 2.03986E-13 3.23769E-13
 -1      3328 2.61295E+01 2.06857E+00-6.39018E-02-2.05937E+00-2.32911E-13 4.57780E-13
 -1      3329 2.66501E+01-1.31822E+00-5.19205E-02-9.78634E-01 3.02605E-14 4.56780E-13
 -1      3330 1.64879E+01-3.61604E-01 3.71817E-02-3.76180E+00-1.67736E-13 1.76470E-13
 -1      3331 2.29400E+01-1.28714E-01 1.49207E-02 1.51521E+00-1.14796E-13 1.98144E-13
 -1      3332 2.24413E+01-3.20710E-01 4.13389E-03 1.33670E+00-1.15672E-13 2.60212E-13
 -1      3333 2.24760E+01-6.18343E-01-5.16242E-03 1.20503E+00-7.53125E-14 2.34911E-13
 -1      3334 1.23070E+01-2.94400E-01 1.06056E-01 4.00369E+00-8.59174E-14 3.11695E-14
 -1      3335 1.28182E+01 2.72942E-01 4.53901E-02 3.18686E+00-1.96326E-13 8.36206E-14
 -1      3336 1.36444E+01-8.31694E-01-1.13778E-02 4.51728E+00 1.48007E-14-8.65280E-15
 -1      3337 1.18834E+01 9.78760E-01 6.20569E-02 1.48179E+00-2.06444E-13 4.39024E-14
 -1      3338 1.05934E+01 9.93184E-01 1.31253E-01 8.59170E-01-1.95702E-13 1.57145E-13
 -1      3339 1.12592E+01 1.05602E+00 4.24755E-02-3.80429E-01-1.52478E-13 1.65083E-13
 -1      3340 1.51121E+01 3.31726E-01 6.45553E-02-3.22767E+00-1.49214E-13 1.79190E-13
 -1      3341 2.65512E+01 2.16065E+00-8.52059E-02 2.07699E+00-3.39603E-13 4.67681E-14
 -1      3342 2.52566E+01 2.82888E+00-5.68455E-02 1.90961E+00-3.33386E-13 8.60215E-14
 -1      3343 2.60632E+01 1.17319E+00 1.86948E-02 1.97233E+00-2.74954E-13 6.88338E-15
 -1      3344 2.23303E+01-8.81055E-01 3.94454E-03 7.57623E-01-4.57838E-14 2.14506E-13
 -1      3345 2.24902E+01-1.03510E+00-3.81834E-03 5.26308E-01-4.22198E-14 1.95746E-13
 -1      3346 2.23548E+01-8.10979E-01-9.43690E-03 9.43234E-01-6.31214E-14 2.27436E-13
 -1      3347 1.99998E+01-1.49921E-03 1.92631E-06 2.78050E-03-1.59189E-13 1.92402E-13
 -1      3348 1.71859E+01 3.33302E+00-7.59450E-03-2.22818E-01 2.20234E-13 4.17174E-13
 -1      3349 1.75326E+01 3.19875E+00-9.05829E-03 3.15808E-02 2.44348E-13 3.86580E-13
 -1      3350 1.84675E+01 1.98195E+00-4.83823E-03-1.49134E+00 1.25478E-13 4.54040E-13
 -1      3351 1.81815E+01 2.55057E+00 1.30877E-02-1.30351E+00 1.29291E-13 5.00278E-13
 -1      3352 1.77556E+01 2.73577E+00-1.67012E-02-1.32447E+00 1.67316E-13 4.99792E-13
 -1      3353 1.94959E+01 1.78154E+00-4.06736E-03-8.64621E-01 3.50273E-14 4.46828E-13
 -1      3354 1.94365E+01 1.45400E+00-7.65860E-03-1.17207E+00 6.31350E-14 4.15819E-13
 -1      3355 1.98880E+01 1.58783E+00 2.93289E-03-6.46571E-01-7.34945E-15 4.47495E-13
 -1      3356 1.45425E+01 7.20831E-01 8.90441E-02 3.01181E+00-7.07594E-15 4.62824E-13
 -1      3357 1.20784E+01 4.99520E-01 9.91241E-02 2.97223E+00 7.00828E-15 5.45966E-13
 -1      3358 1.18238E+01 1.23613E+00 7.61166E-02 1.73876E+00 7.70859E-14 5.31006E-13
 -1      3359 1.47927E+01 1.34933E+00 7.65258E-03 2.33926E+00 6.68606E-14 4.06147E-13
 -1      3360 2.00005E+01-1.76889E-03 4.80337E-06 2.74671E-03-1.09766E-13-3.78579E-15
 -1      3361 2.00009E+01-1.70649E-03 8.49798E-08 2.78961E-03-1.11049E-13-9.55470E-15
 -1      3362 1.21405E+01 1.83534E-01 5.72567E-02-2.73946E+00-9.82686E-14 4.86833E-14
 -1      3363 2.26607E+01-3.90370E+00 5.07960E-02-4.04676E+00 1.69392E-13 1.14268E-13
 -1      3364 2.00017E+01-2.33725E-03 7.12382E-06-1.52768E-03 1.88643E-13 1.40346E-13
 -1      3365 2.00015E+01-2.23091E-03-3.58496E-06-1.87499E-03 8.15192E-14 2.80764E-14
 -1      3366 2.00021E+01-2.16012E-03-1.19713E-06-1.38954E-03 3.10534E-13 2.24273E-13
 -1      3367 2.14757E+01-8.70592E-02-8.59920E-03 1.58357E-01-1.18100E-13 2.87532E-13
 -1      3368 2.13973E+01 2.16633E-01 6.01606E-03 2.04674E-01-1.44724E-13 3.02167E-13
 -1      3369 1.67775E+01-2.66741E+00 9.77087E-02 5.54832E+00 1.97939E-13-4.80033E-14
 -1      3370 1.00289E+01 1.18399E+00 1.39372E-01-1.41164E+00 2.08170E-13 5.58442E-13
 -1      3371 1.16696E+01 1.28120E+00 8.43290E-02-2.09937E+00 2.42172E-13 5.40117E-13
 -1      3372 1.07473E+01 1.37998E+00 1.66105E-02 2.53872E-02 1.52527E-13 5.28355E-13
 -1      3373 2.69930E+01-1.28948E+00-4.64384E-02 9.16630E-01-1.58235E-13-7.66262E-14
 -1      3374 2.05350E+01 1.23243E+00-2.82968E-03-1.55727E-01-9.55972E-14 4.12922E-13
 -1      3375 2.02339E+01 1.41011E+00 1.36500E-03-3.85042E-01-4.14528E-14 4.31931E-13
 -1      3376 2.02646E+01 1.04893E+00-2.35087E-03-6.76667E-01-1.50948E-14 4.07866E-13
 -1      3377 2.08520E+01 7.52431E-01-1.81093E-03-1.70539E-01-9.02876E-14 3.77213E-13
 -1      3378 2.52073E+01 5.19075E+00-7.87816E-02-5.44838E-01-4.17319E-13 3.19711E-13
 -1      3379 2.58867E+01 5.09454E+00-1.06981E-01-1.12719E+00-4.00985E-13 3.22192E-13
 -1      3380 2.51833E+01 4.06879E+00-6.52935E-02-1.44472E+00-3.57922E-13 3.41278E-13
 -1      3381 1.75571E+01-2.36679E+00 9.48704E-02-5.45392E+00 2.36422E-13 3.73809E-13
 -1      3382 1.31935E+01-2.49964E-01 1.13152E-01-4.47419E+00 2.64289E-13 5.47763E-13
 -1      3383 1.69988E+01 3.33872E+00 2.56947E-03-8.29597E-01 1.84252E-13 4.82284E-13
 -1      3384 1.70050E+01 3.36594E+00-9.39065E-03-6.07224E-01 1.98820E-13 4.47139E-13
 -1      3385 1.68600E+01 3.16301E+00 1.12625E-02-3.79282E-01 1.94653E-13 4.24949E-13
 -1      3386 1.87017E+01 3.22679E+00 4.34588E-03 8.19900E-02 2.97102E-13 3.62027E-13
 -1      3387 2.60015E+01-3.45467E+00 6.81435E-03-1.35532E+00 1.09825E-14-7.00481E-15
 -1      3388 2.00002E+01-1.63645E-03-5.63619E-06 2.83684E-03-1.80659E-13 1.02515E-13
 -1      3389 2.57636E+01 4.90240E+00-9.60239E-02 9.87861E-01-4.26451E-13 2.35281E-13
 -1      3390 2.12388E+01 3.76856E-01 3.74484E-03 5.36847E-02-1.08480E-13 3.32937E-13
 -1      3391 1.82945E+01 3.11032E+00 4.96778E-03 2.15844E-01 2.63736E-13 3.69935E-13
 -1      3392 2.00012E+01-2.10082E-03 1.01348E-05-2.21832E-03-8.29522E-15-2.80339E-13
 -1      3393 2.00009E+01-1.95012E-03-9.09370E-06-2.47231E-03 9.40662E-14-4.39447E-13
 -1      3394 2.00016E+01-1.97684E-03-3.55595E-07-2.16642E-03 2.63067E-13-3.78321E-14
 -1      3395 2.20571E+01-4.14830E+00 4.44878E-02 4.24263E+00 2.48551E-13 4.17075E-14
 -1      3396 2.00004E+01-1.72504E-03 8.30694E-06-2.71712E-03-1.04645E-14 2.27718E-14
 -1      3397 2.00008E+01-1.66820E-03 1.35478E-06-2.77526E-03 2.07440E-14 8.86582E-14
 -1      3398 2.15916E+01-2.30844E-01-3.55102E-03 3.53689E-02-1.01515E-13 2.62649E-13
 -1      3399 2.29188E+01 2.25114E+00-4.21944E-02-1.42659E+00-2.30483E-13 3.93290E-13
 -1      3400 2.28341E+01 2.82929E+00 3.44414E-03-9.78707E-01-2.73045E-13 3.45261E-13
 -1      3401 2.00012E+01-1.52255E-03 2.42464E-06 2.91441E-03-1.09794E-13-1.46795E-13
 -1      3402 2.00016E+01-1.70641E-03-7.01616E-06 2.61683E-03-2.70584E-16-1.52404E-13
 -1      3403 2.00014E+01-1.32814E-03 4.77503E-06 3.04626E-03-8.92189E-14-6.23515E-14
 -1      3404 1.53641E+01 1.24176E+00 2.43788E-03-1.86700E+00-9.41066E-14 9.64038E-14
 -1      3405 1.59280E+01 1.39535E+00-2.61317E-02-1.58369E+00-1.17185E-14 1.29315E-13
 -1      3406 1.33286E+01 5.72986E-01 3.79116E-02-2.47753E+00-9.56522E-14 5.22082E-14
 -1      3407 1.44099E+01 1.09122E+00-2.29207E-02-1.99180E+00-1.18511E-13 1.36127E-13
 -1      3408 1.42122E+01 1.51144E+00 7.41111E-02-1.09941E+00-1.01815E-13-6.33001E-15
 -1      3409 1.20879E+01 1.21557E+00 1.43077E-01-1.23954E+00-1.13180E-13 5.46299E-14
 -1      3410 2.58369E+01-6.40749E-01-8.12956E-02-1.58924E+00-5.06539E-14 4.48162E-13
 -1      3411 2.61102E+01-2.09833E+00 4.50704E-02-5.80787E-01 1.02838E-13 4.17600E-13
 -1      3412 1.66898E+01 1.46105E+00-1.91481E-03-1.45383E+00-2.11775E-14 4.86085E-14
 -1      3413 1.71180E+01 1.46065E+00-1.93094E-02-1.29042E+00 2.20043E-14 1.16985E-16
 -1      3414 1.57894E+01 1.59914E+00 2.96498E-02-9.71081E-01-9.44063E-14-2.10812E-15
 -1      3415 1.76519E+01 1.42972E+00-4.57819E-03-1.21259E+00 1.04077E-14-5.91154E-14
 -1      3416 1.79766E+01 1.36454E+00-1.31080E-02-1.09492E+00 4.38428E-14-6.98596E-14
 -1      3417 1.70066E+01 1.55709E+00 1.68478E-02-8.53041E-01-2.03393E-14-6.28447E-14
 -1      3418 1.83577E+01 1.28680E+00-4.24525E-03-1.03570E+00 1.14971E-13-8.01342E-14
 -1      3419 1.85953E+01 1.19560E+00-8.94405E-03-9.38321E-01 1.62073E-14-4.20384E-14
 -1      3420 1.78780E+01 1.41172E+00 1.14570E-02-7.76391E-01 6.88709E-14-1.19510E-13
 -1      3421 1.88686E+01 1.10196E+00-3.14498E-03-8.83964E-01-9.90090E-14-4.04513E-14
 -1      3422 1.90369E+01 1.00601E+00-6.38202E-03-7.97966E-01-1.10625E-13-3.83987E-14
 -1      3423 1.85050E+01 1.22293E+00 8.26782E-03-7.03697E-01-4.01947E-14-8.80333E-14
 -1      3424 1.92326E+01 9.13391E-01-2.06250E-03-7.45104E-01-6.23547E-14-4.24951E-14
 -1      3425 1.93484E+01 8.23827E-01-4.71148E-03-6.68201E-01 1.65309E-14 1.41400E-13
 -1      3426 1.89554E+01 1.02635E+00 6.00161E-03-6.24453E-01-5.89880E-14 2.15065E-14
 -1      3427 1.94878E+01 7.40261E-01-1.18416E-03-6.17340E-01 1.72291E-14 1.82178E-13
 -1      3428 1.95655E+01 6.61827E-01-3.55803E-03-5.49457E-01 5.02929E-14 2.01510E-13
 -1      3429 1.92772E+01 8.41915E-01 4.33971E-03-5.39850E-01 3.81239E-14 1.39212E-13
 -1      3430 1.96642E+01 5.90237E-01-5.49697E-04-5.02128E-01 1.20887E-14 7.55109E-14
 -1      3431 1.97151E+01 5.24139E-01-2.71455E-03-4.43474E-01-2.34368E-14-3.35854E-14
 -1      3432 1.95055E+01 6.78833E-01 3.11325E-03-4.54691E-01-2.79298E-14 1.33605E-13
 -1      3433 1.97844E+01 4.64722E-01-1.30189E-04-4.00990E-01-6.33850E-14-1.17100E-13
 -1      3434 1.98168E+01 4.10376E-01-2.07628E-03-3.51432E-01-7.01218E-14-1.84574E-13
 -1      3435 1.96660E+01 5.39924E-01 2.21735E-03-3.73711E-01-1.41105E-13-5.07686E-14
 -1      3436 1.98653E+01 3.62067E-01 1.21851E-04-3.14525E-01 4.26771E-14-1.54054E-13
 -1      3437 1.98853E+01 3.18120E-01-1.58530E-03-2.73525E-01 2.54186E-14 3.91151E-15
 -1      3438 1.97780E+01 4.24528E-01 1.56934E-03-3.00268E-01 8.18795E-15-1.11416E-13
 -1      3439 1.99189E+01 2.79391E-01 2.54287E-04-2.42366E-01-7.16127E-14 1.21786E-13
 -1      3440 1.99309E+01 2.44280E-01-1.20541E-03-2.09091E-01-2.19010E-13 1.52593E-13
 -1      3441 1.98555E+01 3.30335E-01 1.10422E-03-2.36173E-01 9.76923E-14 1.78174E-14
 -1      3442 1.99539E+01 2.13554E-01 3.07334E-04-1.83432E-01-2.72869E-13 1.42848E-13
 -1      3443 1.99607E+01 1.85768E-01-9.11297E-04-1.56899E-01-1.92109E-13 8.76589E-14
 -1      3444 1.99085E+01 2.54452E-01 7.72250E-04-1.81980E-01-1.75745E-13-1.45273E-14
 -1      3445 1.99763E+01 1.61601E-01 3.11475E-04-1.36234E-01-1.53003E-13 1.25641E-14
 -1      3446 1.99798E+01 1.39795E-01-6.84015E-04-1.15427E-01-2.59769E-14 2.59805E-14
 -1      3447 1.99445E+01 1.93966E-01 5.36306E-04-1.37369E-01-1.56159E-13-4.94659E-14
 -1      3448 1.99903E+01 1.20939E-01 2.88193E-04-9.91205E-02 1.03663E-13-3.92666E-14
 -1      3449 1.99919E+01 1.03969E-01-5.08960E-04-8.30665E-02 1.58649E-13-8.15552E-14
 -1      3450 1.99685E+01 1.46205E-01 3.69160E-04-1.01496E-01 2.40206E-14-1.44196E-13
 -1      3451 1.99987E+01 8.93754E-02 2.51757E-04-7.04473E-02 1.80567E-13-9.83890E-14
 -1      3452 1.99991E+01 7.62830E-02-3.74728E-04-5.82612E-02 1.03934E-13 3.39307E-14
 -1      3453 1.99842E+01 1.08834E-01 2.51115E-04-7.32576E-02 1.35258E-13-1.49594E-13
 -1      3454 2.00035E+01 6.50899E-02 2.11102E-04-4.86817E-02 8.51474E-14 1.62440E-13
 -1      3455 2.00033E+01 5.50867E-02-2.72379E-04-3.95880E-02 8.65468E-14 1.88765E-13
 -1      3456 1.99943E+01 7.98689E-02 1.68049E-04-5.14720E-02 2.04851E-13-2.05410E-14
 -1      3457 2.00059E+01 4.65876E-02 1.71452E-04-3.24583E-02 5.25372E-14 1.57738E-13
 -1      3458 2.00054E+01 3.90283E-02-1.94891E-04-2.57965E-02 9.36387E-14 1.72100E-13
 -1      3459 2.00004E+01 5.76469E-02 1.09891E-04-3.49959E-02 9.52954E-14 6.06296E-14
 -1      3460 2.00068E+01 3.26492E-02 1.35567E-04-2.06014E-02 2.11355E-13 1.13471E-13
 -1      3461 2.00062E+01 2.70086E-02-1.36737E-04-1.58210E-02 7.08279E-14 1.81273E-13
 -1      3462 2.00039E+01 4.07910E-02 6.94767E-05-2.27879E-02 1.04656E-13 3.08738E-14
 -1      3463 2.00069E+01 2.22847E-02 1.04640E-04-1.21244E-02-1.50994E-13 2.51635E-13
 -1      3464 2.00062E+01 1.81370E-02-9.35638E-05-8.77610E-03-2.40263E-13 2.91049E-13
 -1      3465 2.00056E+01 2.81689E-02 4.17027E-05-1.39395E-02 1.01579E-14 7.15751E-14
 -1      3466 2.00064E+01 1.46935E-02 7.89275E-05-6.21804E-03-1.14968E-13 2.97290E-13
 -1      3467 2.00058E+01 1.16956E-02-6.19409E-05-3.94134E-03 3.07780E-14 2.66987E-13
 -1      3468 2.00062E+01 1.88552E-02 2.29244E-05-7.68344E-03-1.64787E-13 2.01867E-13
 -1      3469 2.00057E+01 9.23170E-03 5.81555E-05-2.23163E-03 8.00047E-14 2.18449E-13
 -1      3470 2.00051E+01 7.10832E-03-3.91650E-05-7.42251E-04 1.65315E-13 1.67546E-13
 -1      3471 2.00062E+01 1.20989E-02 1.05282E-05-3.38893E-03 1.37261E-13 3.30800E-13
 -1      3472 2.00048E+01 5.38363E-03 4.17927E-05 3.48387E-04 1.51474E-13-3.49088E-15
 -1      3473 2.00043E+01 3.91523E-03-2.31139E-05 1.27073E-03 5.71442E-14 8.60966E-14
 -1      3474 2.00057E+01 7.29424E-03 2.63137E-06-5.49143E-04 1.62020E-13 3.98661E-14
 -1      3475 2.00040E+01 2.73883E-03 2.92050E-05 1.91970E-03-1.44167E-14 2.77603E-13
 -1      3476 2.00035E+01 1.75119E-03-1.21656E-05 2.44255E-03 1.44060E-13 1.61643E-13
 -1      3477 2.00049E+01 3.95613E-03-2.13064E-06 1.23440E-03 1.53475E-13-2.09587E-14
 -1      3478 2.00031E+01 9.71936E-04 1.96617E-05 2.78427E-03 9.84450E-14-1.41522E-13
 -1      3479 2.00028E+01 3.27264E-04-5.04352E-06 3.03222E-03-1.15540E-13-2.06656E-13
 -1      3480 2.00041E+01 1.69831E-03-4.75789E-06 2.26840E-03-1.49064E-13-6.43230E-14
 -1      3481 2.00024E+01-1.75318E-04 1.24340E-05 3.16595E-03-6.59195E-14-2.05281E-13
 -1      3482 2.00021E+01-5.78593E-04 1.34342E-06 3.22606E-03-1.08527E-13-8.49088E-14
 -1      3483 2.00033E+01 2.15555E-04-5.76070E-06 2.78395E-03-1.94760E-14-3.58738E-13
 -1      3484 2.00019E+01-8.58890E-04 7.01382E-06 3.19500E-03-1.95775E-13-2.66211E-14
 -1      3485 2.00016E+01-1.12122E-03 4.83733E-06 3.13571E-03-1.93428E-13-1.91254E-14
 -1      3486 2.00022E+01-1.26745E-03-8.25866E-06 2.82297E-03-1.22197E-13-7.49318E-14
 -1      3487 2.00027E+01-6.89742E-04-7.94005E-06 2.92176E-03-4.52605E-15-9.11811E-14
 -1      3488 2.29502E+01 2.71978E+00 7.94655E-04 9.69094E-01-2.31978E-13 2.18059E-13
 -1      3489 2.30556E+01 2.14512E+00-3.62314E-02 1.38415E+00-1.69965E-13 2.27396E-13
 -1      3490 2.36952E+01 1.73640E+00-1.39371E-02 1.69364E+00-2.00402E-13 1.59560E-13
 -1      3491 2.38156E+01 9.02073E-01-6.40896E-02 1.78728E+00-2.02731E-13 1.24148E-13
 -1      3492 2.32653E+01 7.19782E-01-3.52642E-02-1.86826E+00-1.40342E-13 4.68105E-13
 -1      3493 2.31612E+01 1.54666E+00 1.61630E-02-1.74576E+00-1.83954E-13 4.24785E-13
 -1      3494 2.36557E+01 2.08280E+00-1.53611E-02-1.72335E+00-2.21184E-13 4.45019E-13
 -1      3495 2.33319E+01-6.32411E-01-1.92370E-02-1.56298E+00 8.63623E-14 4.79998E-13
 -1      3496 2.33226E+01-6.29828E-03-1.08909E-03-1.72169E+00-4.77136E-14 5.00647E-13
 -1      3497 2.38843E+01 3.24424E-01-1.96593E-02-1.87988E+00-1.06627E-13 4.85436E-13
 -1      3498 2.30331E+01-1.40703E+00-1.42403E-03-8.78039E-01 1.63188E-13 4.28158E-13
 -1      3499 2.31615E+01-1.10646E+00-6.28636E-03-1.18330E+00 1.76102E-13 4.41488E-13
 -1      3500 2.37269E+01-1.08289E+00 9.48003E-03-1.28984E+00 1.55335E-13 4.61886E-13
 -1      3501 2.24663E+01-1.56448E+00 1.06998E-02-2.12402E-01 1.45294E-13 3.42104E-13
 -1      3502 2.26715E+01-1.54408E+00-1.05585E-02-5.00094E-01 1.03652E-13 3.63854E-13
 -1      3503 2.31232E+01-1.70771E+00 1.13263E-04-4.81859E-01 1.75551E-13 3.31261E-13
 -1      3504 2.18231E+01-1.35900E+00 1.38683E-02 2.85158E-01 1.40145E-13 2.68256E-13
 -1      3505 2.20544E+01-1.50126E+00-1.03786E-02 7.30728E-02 1.79629E-13 3.33661E-13
 -1      3506 2.23548E+01-1.74455E+00-8.22730E-03 1.83632E-01 1.44960E-13 2.60480E-13
 -1      3507 2.12432E+01-1.00461E+00 1.18017E-02 5.79444E-01 7.78736E-14 2.53299E-13
 -1      3508 2.14586E+01-1.19832E+00-6.24315E-03 4.49474E-01 7.55171E-14 2.64729E-13
 -1      3509 2.16076E+01-1.43060E+00-1.24305E-02 6.03155E-01 1.41167E-13 2.49547E-13
 -1      3510 2.07864E+01-6.37776E-01 8.73855E-03 7.13510E-01-2.49123E-14 3.18398E-13
 -1      3511 2.09631E+01-8.23413E-01-2.79267E-03 6.50822E-01 3.34771E-14 2.51129E-13
 -1      3512 2.10014E+01-1.00303E+00-1.17518E-02 8.05446E-01 8.31942E-14 2.70570E-13
 -1      3513 2.04592E+01-3.28176E-01 5.75197E-03 7.39183E-01-3.04050E-14 2.19587E-13
 -1      3514 2.05918E+01-4.77872E-01-4.21024E-04 7.23319E-01-4.97364E-14 2.69892E-13
 -1      3515 2.05595E+01-5.97595E-01-9.15587E-03 8.57477E-01-4.94699E-14 2.76323E-13
 -1      3516 2.02418E+01-9.75959E-02 3.36366E-03 7.00407E-01-4.24434E-14 1.40957E-13
 -1      3517 2.03349E+01-2.05207E-01 7.59443E-04 7.13954E-01-5.43627E-15 1.84806E-13
 -1      3518 2.02644E+01-2.73193E-01-6.56333E-03 8.20716E-01-9.90346E-15 2.38885E-13
 -1      3519 2.01073E+01 5.66676E-02 1.68496E-03 6.27802E-01-4.23140E-14 1.22910E-13
 -1      3520 2.01693E+01-1.27853E-02 1.24651E-03 6.57859E-01-6.61164E-14 1.24829E-13
 -1      3521 2.00829E+01-4.12069E-02-4.35594E-03 7.38524E-01-7.14095E-14 1.38488E-13
 -1      3522 2.00307E+01 1.47909E-01 5.81155E-04 5.41207E-01 8.03888E-14 9.05723E-14
 -1      3523 2.00702E+01 1.08806E-01 1.36226E-03 5.78953E-01 1.90190E-14 1.29923E-13
 -1      3524 1.99819E+01 1.07814E-01-2.69809E-03 6.38101E-01-5.71549E-15 8.59006E-14
 -1      3525 1.99918E+01 1.92044E-01-9.13904E-05 4.52729E-01 6.44723E-14 2.45342E-13
 -1      3526 2.00160E+01 1.74998E-01 1.30456E-03 4.92435E-01 8.95770E-14 1.82539E-13
 -1      3527 1.99340E+01 1.91337E-01-1.53728E-03 5.35188E-01 5.49938E-14 1.07609E-13
 -1      3528 1.99759E+01 2.03784E-01-4.62162E-04 3.69351E-01 5.88380E-14 1.65272E-13
 -1      3529 1.99902E+01 2.01511E-01 1.17614E-03 4.07505E-01 7.68395E-14 1.94155E-13
 -1      3530 1.99186E+01 2.27425E-01-7.73508E-04 4.38331E-01 6.40226E-14 1.64331E-13
 -1      3531 1.99729E+01 1.95125E-01-6.31879E-04 2.94718E-01 7.31057E-14 1.64380E-13
 -1      3532 1.99813E+01 2.01867E-01 1.02627E-03 3.29346E-01 5.36757E-14 1.15335E-13
 -1      3533 1.99214E+01 2.31800E-01-3.03163E-04 3.51726E-01 2.43195E-14 1.09909E-13
 -1      3534 1.99764E+01 1.75062E-01-6.74626E-04 2.30342E-01-4.90690E-15 2.62892E-13
 -1      3535 1.99812E+01 1.86599E-01 8.77432E-04 2.60508E-01 6.20754E-14 2.07885E-13
 -1      3536 1.99330E+01 2.16839E-01-3.59673E-05 2.76977E-01-1.67269E-14 2.55064E-13
 -1      3537 1.99824E+01 1.49890E-01-6.42668E-04 1.76413E-01-7.76917E-14 2.23835E-13
 -1      3538 1.99852E+01 1.63331E-01 7.38954E-04 2.01862E-01-2.58967E-14 2.64201E-13
 -1      3539 1.99477E+01 1.91596E-01 9.84323E-05 2.14187E-01-4.05833E-14 2.66654E-13
 -1      3540 1.99887E+01 1.23721E-01-5.71519E-04 1.32334E-01-1.27693E-13 1.97198E-13
 -1      3541 1.99905E+01 1.37218E-01 6.14221E-04 1.53234E-01-1.38859E-13 2.32603E-13
 -1      3542 1.99622E+01 1.62278E-01 1.51129E-04 1.62616E-01-7.53680E-14 2.44569E-13
 -1      3543 1.99942E+01 9.90264E-02-4.84316E-04 9.70906E-02-1.69442E-15 6.15571E-14
 -1      3544 1.99955E+01 1.11502E-01 5.04107E-04 1.13852E-01-5.20474E-15 1.19861E-13
 -1      3545 1.99748E+01 1.32856E-01 1.57235E-04 1.21098E-01-2.54719E-14 2.29385E-13
 -1      3546 1.99984E+01 7.71138E-02-3.95324E-04 6.94839E-02 1.56956E-13-1.07876E-13
 -1      3547 1.99995E+01 8.80288E-02 4.08418E-04 8.26340E-02 7.25291E-14-4.81941E-14
 -1      3548 1.99849E+01 1.05651E-01 1.39665E-04 8.82878E-02 1.21651E-13-6.37817E-14
 -1      3549 2.00014E+01 5.85122E-02-3.12661E-04 4.82873E-02 2.41816E-13-2.80143E-13
 -1      3550 2.00024E+01 6.76806E-02 3.26463E-04 5.83877E-02 2.48687E-13-2.23944E-13
 -1      3551 1.99925E+01 8.18269E-02 1.12556E-04 6.28233E-02 2.49354E-13-1.89269E-13
 -1      3552 2.00034E+01 4.32618E-02-2.40333E-04 3.23386E-02 2.16638E-13-3.11315E-13
 -1      3553 2.00043E+01 5.07149E-02 2.57272E-04 3.99328E-02 1.73706E-13-2.89950E-13
 -1      3554 1.99979E+01 6.17917E-02 8.40299E-05 4.34155E-02 2.37837E-13-2.57868E-13
 -1      3555 2.00044E+01 3.11210E-02-1.79726E-04 2.05919E-02 2.98220E-13-3.91720E-13
 -1      3556 2.00052E+01 3.70114E-02 1.99703E-04 2.61753E-02 2.87672E-13-3.29238E-13
 -1      3557 2.00015E+01 4.54816E-02 5.82831E-05 2.89008E-02 2.26407E-13-2.39889E-13
 -1      3558 2.00048E+01 2.17076E-02-1.30652E-04 1.21406E-02 2.86481E-13-3.54272E-13
 -1      3559 2.00055E+01 2.62446E-02 1.52513E-04 1.61460E-02 2.44165E-13-4.00491E-13
 -1      3560 2.00036E+01 3.25702E-02 3.70815E-05 1.82652E-02 2.34044E-13-1.56617E-13
 -1      3561 2.00047E+01 1.45896E-02-9.20708E-05 6.22221E-03 2.41203E-13-1.97182E-13
 -1      3562 2.00054E+01 1.79986E-02 1.14414E-04 9.01525E-03 2.75511E-13-2.36600E-13
 -1      3563 2.00047E+01 2.26069E-02 2.07807E-05 1.06481E-02 2.07406E-13 1.68892E-13
 -1      3564 2.00044E+01 9.34092E-03-6.25512E-05 2.21165E-03 6.05542E-14-9.97231E-14
 -1      3565 2.00049E+01 1.18385E-02 8.41340E-05 4.09275E-03 1.59975E-13-2.17954E-13
 -1      3566 2.00051E+01 1.51049E-02 8.99306E-06 5.33718E-03 1.86390E-13 9.67725E-14
 -1      3567 2.00038E+01 5.57110E-03-4.05694E-05-3.91888E-04 8.80091E-15 3.87230E-14
 -1      3568 2.00043E+01 7.35283E-03 6.04628E-05 8.18106E-04 5.40791E-14-1.93653E-14
 -1      3569 2.00049E+01 9.59496E-03 9.99550E-07 1.75475E-03-3.16314E-15 1.27532E-13
 -1      3570 2.00032E+01 2.93931E-03-2.46742E-05-1.98084E-03 2.07086E-13-3.51441E-14
 -1      3571 2.00036E+01 4.17408E-03 4.22829E-05-1.25344E-03 8.43776E-14 3.43080E-14
 -1      3572 2.00045E+01 5.65258E-03-4.01412E-06-5.58076E-04 1.22452E-13 1.65730E-13
 -1      3573 2.00026E+01 1.15749E-03-1.35716E-05-2.85572E-03 1.30386E-13 3.13774E-14
 -1      3574 2.00030E+01 1.98705E-03 2.86388E-05-2.46692E-03 2.69543E-13 1.37148E-14
 -1      3575 2.00039E+01 2.91028E-03-6.82887E-06-1.95857E-03 1.86426E-13 2.14455E-13
 -1      3576 2.00020E+01-1.18781E-05-5.92840E-06-3.24070E-03 1.65280E-13 1.41072E-13
 -1      3577 2.00023E+01 5.28585E-04 1.86650E-05-3.08352E-03 1.06638E-13 7.27686E-15
 -1      3578 2.00032E+01 1.05945E-03-7.95405E-06-2.71878E-03 1.30484E-13 3.04400E-13
 -1      3579 2.00015E+01-7.63777E-04-1.62611E-06-3.29958E-03-6.04104E-14 3.49624E-13
 -1      3580 2.00017E+01-4.17137E-04 1.13206E-05-3.29672E-03 4.95103E-14 2.02801E-13
 -1      3581 2.00025E+01-1.53257E-04-8.17559E-06-3.04013E-03 9.79287E-14 4.82039E-13
 -1      3582 2.00010E+01-1.25413E-03 1.10678E-06-3.13915E-03-1.54080E-13 4.44770E-13
 -1      3583 2.00012E+01-1.02685E-03 5.91455E-06-3.23976E-03-1.34051E-13 3.08131E-13
 -1      3584 2.00019E+01-9.43510E-04-7.69834E-06-3.07518E-03-9.67588E-14 5.41177E-13
 -1      3585 2.00009E+01-1.53363E-03 5.30936E-06-2.88747E-03 4.98262E-14 1.35791E-13
 -1      3586 2.00024E+01-1.93305E-03-5.69348E-06 1.61586E-03 2.45013E-13 6.73593E-14
 -1      3587 2.00027E+01-1.99220E-03 2.48878E-06 1.19332E-03 1.85633E-13-8.90897E-14
 -1      3588 2.16096E+01-3.21577E+00 1.06635E-01-4.14725E+00 1.89692E-13 1.54324E-13
 -1      3589 2.34990E+01-3.86174E+00-9.36057E-02-3.04877E+00 1.19425E-13 7.52861E-14
 -1      3590 1.82380E+01-3.04658E+00-6.64732E-02 5.17735E+00 1.41689E-13 1.25178E-14
 -1      3591 1.57658E+01-1.71733E+00 1.09030E-01 5.10505E+00 2.01575E-13-9.38555E-14
 -1      3592 2.51350E+01-3.41287E+00 7.32882E-02-1.66226E+00 5.57139E-14 2.96985E-15
 -1      3593 2.57909E+01-2.98648E+00-9.86254E-02-4.79016E-01-1.67683E-14-1.34337E-14
 -1      3594 1.73992E+01 3.03633E+00 1.03151E-02-1.22361E+00 1.78847E-13 5.18753E-13
 -1      3595 1.71298E+01 3.15898E+00-1.79595E-02-1.09993E+00 1.88793E-13 5.19309E-13
 -1      3596 1.69479E+01 3.01085E+00 2.02967E-02-1.07930E+00 1.71499E-13 4.99735E-13
 -1      3597 2.46096E+01 2.31369E+00-8.01981E-02-1.94556E+00-2.16920E-13 4.49044E-13
 -1      3598 2.51236E+01 1.00700E+00 9.59860E-03-2.10226E+00-1.62967E-13 4.92637E-13
 -1      3599 2.27435E+01-3.97435E+00-4.11142E-02 3.33725E+00 2.63225E-13 1.42523E-13
 -1      3600 2.09555E+01-3.53619E+00 1.13870E-01 4.44211E+00 1.89180E-13 6.22224E-14
 -1      3601 2.12319E+01 1.61598E-01-4.76352E-03-1.98327E-01-5.82659E-14 3.23814E-13
 -1      3602 2.10771E+01 4.35425E-01-1.94359E-04-1.88824E-01-6.71399E-14 3.63375E-13
 -1      3603 2.08437E+01 5.69455E-01 4.75750E-03-4.25289E-01-4.29923E-14 3.62489E-13
 -1      3604 1.66362E+01-1.38618E+00 8.23858E-02-5.00666E+00 2.52800E-13 4.10932E-13
 -1      3605 1.88793E+01-2.64571E+00-7.28806E-02-4.98636E+00 2.18943E-13 2.77282E-13
 -1      3606 2.46785E+01 4.05338E+00-4.50309E-02 1.15078E+00-3.51351E-13 2.25737E-13
 -1      3607 2.47779E+01 4.82567E+00-1.06309E-01 3.05247E-01-3.83402E-13 3.13231E-13
 -1      3608 2.22135E+01-1.01530E+00-7.95416E-03-4.10099E-02-2.48003E-14 2.35639E-13
 -1      3609 2.19931E+01-7.44769E-01 1.27106E-02-1.53798E-01-4.54475E-14 2.34757E-13
 -1      3610 1.32945E+01 4.30105E-01 4.48571E-02-3.78964E+00 2.51205E-13 5.40602E-13
 -1      3611 1.48289E+01-5.83130E-01 2.05495E-02-4.75177E+00 2.56489E-13 5.15712E-13
 -1      3612 1.66453E+01-6.60874E-01 6.94830E-02-4.37524E+00 2.54069E-13 4.50018E-13
 -1      3613 2.16914E+01-5.01098E-01-7.91502E-03-2.19665E-01-5.44023E-14 2.72039E-13
 -1      3614 2.14868E+01-1.46473E-01 6.47159E-03-2.11405E-01-5.58056E-14 2.92831E-13
 -1      3615 2.13040E+01-9.80847E-02-2.49455E-03-4.73573E-01-3.38668E-14 3.03552E-13
 -1      3616 2.18197E+01-7.17617E-01-7.40753E-03-4.46357E-01-2.65035E-14 2.79146E-13
 -1      3617 2.00020E+01-1.80440E-03 4.62128E-06 2.24892E-03 1.75154E-13-9.13581E-14
 -1      3618 1.61385E+01 2.17162E+00-1.24255E-02 1.27973E+00 1.78443E-13 3.34094E-13
 -1      3619 1.56026E+01 1.88074E+00 2.03226E-02 1.62739E+00 1.30783E-13 3.61191E-13
 -1      3620 2.63534E+01-1.85132E+00 3.79130E-02 6.15562E-01-9.16003E-14-5.70897E-14
 -1      3621 2.61049E+01-7.51698E-01-1.26856E-01 1.42167E+00-1.90471E-13-5.92582E-14
 -1      3622 2.54829E+01-3.25997E+00-7.90268E-02 6.23845E-01 2.09908E-13 3.61481E-13
 -1      3623 2.44747E+01-3.71877E+00 2.00571E-02 1.86258E+00 2.51112E-13 3.40832E-13
 -1      3624 1.77548E+01 3.07603E+00 2.65845E-03 2.80264E-01 2.51278E-13 3.74729E-13
 -1      3625 1.79698E+01 2.84809E+00-1.07300E-02 4.82599E-01 2.55969E-13 3.54185E-13
 -1      3626 1.77073E+01 2.65711E+00-1.58433E-03 7.63728E-01 2.42141E-13 3.51987E-13
 -1      3627 1.72246E+01 2.96989E+00-2.68173E-03 2.65293E-01 2.31783E-13 3.71565E-13
 -1      3628 2.00015E+01-1.55986E-03-1.70955E-06-2.77272E-03 5.01568E-14-5.86874E-14
 -1      3629 1.42281E+01 1.88186E+00 9.00511E-03 1.54457E+00 1.34209E-13 4.05781E-13
 -1      3630 1.55962E+01-1.00637E+00 7.16335E-02 4.34902E+00 2.16216E-14 4.43257E-14
 -1      3631 2.46819E+01-1.02760E-01-2.64222E-02-1.70711E+00-1.08720E-13 4.15195E-13
 -1      3632 1.29902E+01 9.23249E-01 9.32038E-02 2.18241E+00-1.96379E-13 8.43769E-14
 -1      3633 1.28900E+01 1.14813E+00 5.48334E-03 1.18060E+00-2.16631E-13 6.18811E-14
 -1      3634 2.54942E+01 2.05450E-01-1.18999E-02 1.74872E+00-1.86930E-13 7.90340E-15
 -1      3635 2.28445E+01-8.71124E-01-1.99595E-03 1.04653E+00-1.02781E-13 1.98004E-13
 -1      3636 2.27664E+01 3.13975E+00-2.40595E-02-2.86800E-01-2.52444E-13 2.90725E-13
 -1      3637 2.27975E+01 3.09732E+00-1.16884E-02 3.15031E-01-2.59464E-13 2.35476E-13
 -1      3638 1.88742E+01 1.42262E+00 1.72950E-02-1.71687E+00 1.23594E-13 4.19249E-13
 -1      3639 1.82689E+01 1.67208E+00-1.64445E-02-1.81969E+00 1.60483E-13 4.25577E-13
 -1      3640 1.75373E+01 2.56011E+00 5.90669E-03-1.48306E+00 1.76277E-13 5.04168E-13
 -1      3641 2.34162E+01 3.43565E+00-2.98928E-02-6.98679E-01-3.16365E-13 3.81951E-13
 -1      3642 2.42270E+01-3.36870E-01-1.42727E-04 1.50144E+00-1.48204E-13 5.72801E-14
 -1      3643 2.04977E+01-2.44918E+00 4.60228E-02-4.02848E+00 1.86403E-13 2.03985E-13
 -1      3644 2.00025E+01-1.59749E-03 4.38956E-06 2.10072E-03 2.40101E-13 7.96245E-14
 -1      3645 2.42081E+01 4.29714E+00-5.54128E-02-1.98534E-01-3.51018E-13 4.07587E-13
 -1      3646 2.00031E+01-1.73264E-03 2.79513E-06 9.59678E-04 2.92090E-13-3.17842E-14
 -1      3647 2.00028E+01-2.00717E-03 6.23382E-07 6.94810E-04 3.53021E-13 1.03122E-13
 -1      3648 2.00029E+01-2.02386E-03 6.17342E-07 2.28210E-04 4.38651E-13 4.67684E-13
 -1      3649 2.51375E+01-2.53046E+00-2.09010E-02-1.26978E-01 1.34628E-13 3.44740E-13
 -1      3650 2.00026E+01-1.95931E-03 9.81490E-07-1.22923E-03 3.33768E-13 1.06970E-13
 -1      3651 2.00024E+01-1.89444E-03-2.44928E-06-1.64817E-03 3.88023E-13 7.25358E-14
 -1      3652 2.39607E+01-3.22899E+00 3.65044E-03-2.02627E+00 7.93133E-14 7.40675E-14
 -1      3653 2.00019E+01-1.63704E-03-3.75182E-06-2.41464E-03 2.21507E-13 1.28829E-13
 -1      3654 2.00021E+01-1.28733E-03 3.06584E-06-2.68565E-03 8.95418E-14 3.07568E-13
 -1      3655 2.00023E+01-1.73779E-03 1.90643E-06-2.07300E-03 3.14681E-13 2.00118E-13
 -1      3656 2.54923E+01-2.27016E+00-5.72317E-03 1.67929E-01-4.62685E-14 1.61676E-15
 -1      3657 1.25356E+01 1.61978E+00 8.58131E-02 7.02460E-01 1.55509E-13 4.93161E-13
 -1      3658 1.99344E+01 8.72262E-01 4.38953E-03-1.27100E+00 6.20741E-14 3.63645E-13
 -1      3659 1.94308E+01 1.10553E+00-4.75955E-03-1.50315E+00 1.08255E-13 3.81804E-13
 -1      3660 1.92852E+01 7.78143E-01-1.06226E-02-1.86103E+00 1.24754E-13 3.81294E-13
 -1      3661 2.43758E+01 2.37460E+00-2.28035E-02 1.67112E+00-2.47731E-13 1.47269E-13
 -1      3662 2.46128E+01 3.26216E+00-6.72935E-02 1.55899E+00-2.99913E-13 1.71962E-13
 -1      3663 1.25412E+01 1.25595E+00 1.11333E-02-4.16395E-01-1.34956E-13 9.99235E-14
 -1      3664 1.96777E+01-2.83823E+00 4.20325E-02 4.31808E+00 1.56795E-13 8.46771E-14
 -1      3665 1.72095E+01 2.52448E+00-1.07424E-02 8.85352E-01 2.17110E-13 3.38345E-13
 -1      3666 1.68171E+01 2.32028E+00-4.97116E-03 1.17987E+00 1.82041E-13 3.27512E-13
 -1      3667 1.59144E+01 2.50905E+00 5.40452E-02 8.07477E-01 1.92919E-13 3.61727E-13
 -1      3668 1.69894E+01 2.73211E+00 1.75833E-02 6.34423E-01 2.11272E-13 3.53950E-13
 -1      3669 1.66311E+01 2.96178E+00 8.83521E-03 2.15033E-02 2.07316E-13 3.62523E-13
 -1      3670 1.67743E+01 2.82517E+00-4.23789E-03 2.96659E-01 2.10535E-13 3.42386E-13
 -1      3671 1.62521E+01 2.69207E+00-1.38383E-02 3.68911E-01 1.84281E-13 3.36125E-13
 -1      3672 1.29013E+01 1.16832E+00 1.06171E-01-2.91608E+00 2.57934E-13 5.78079E-13
 -1      3673 1.43864E+01 8.69907E-01 4.32960E-02-3.24013E+00 2.59331E-13 5.40963E-13
 -1      3674 1.25576E+01 1.63250E+00-1.66998E-02-1.71953E+00 2.43841E-13 5.12382E-13
 -1      3675 2.26139E+01-1.21142E+00 1.31064E-02 1.39364E-01-1.73162E-14 1.96780E-13
 -1      3676 2.24813E+01-1.24514E+00 1.61514E-05-2.18964E-01-9.26527E-15 2.40488E-13
 -1      3677 2.28309E+01-1.31649E+00-8.29108E-03 3.69358E-01-3.50429E-14 1.97798E-13
 -1      3678 2.37498E+01 3.46050E+00-2.70884E-02 9.99780E-01-2.39673E-13 2.53398E-13
 -1      3679 1.63759E+01 2.97430E+00-1.48421E-02-4.15902E-01 1.79472E-13 4.11186E-13
 -1      3680 2.00028E+01-2.01552E-03 1.08037E-06-2.77849E-04 3.92582E-13 4.11682E-13
 -1      3681 2.00028E+01-1.98950E-03-2.83166E-07-7.41875E-04 3.74340E-13 1.47440E-13
 -1      3682 2.00031E+01-1.69763E-03 3.38975E-06-1.01673E-03 4.42673E-13 1.45891E-13
 -1      3683 2.00033E+01-1.73813E-03 1.58390E-06-3.33644E-05 5.48073E-13 4.73075E-13
 -1      3684 2.36054E+01-3.71032E+00 1.58126E-02 2.38382E+00 2.35459E-13 3.61095E-13
 -1      3685 2.23767E+01-3.31022E+00-8.13167E-03 2.73967E+00 2.10503E-13 3.21130E-13
 -1      3686 2.38585E+01-3.16956E+00 1.08267E-02 1.35837E+00 2.53811E-13 3.90754E-13
 -1      3687 1.37941E+01 5.43506E-01 2.54335E-02 2.66448E+00-1.56731E-13 7.69280E-14
 -1      3688 2.42061E+01-9.74354E-01-1.52231E-02 1.26189E+00-1.14309E-13 8.11890E-14
 -1      3689 2.46341E+01-1.65210E+00-3.10258E-02 7.10591E-01-8.04998E-14 3.65914E-14
 -1      3690 2.34542E+01-1.23881E+00-4.56101E-03 8.45340E-01-6.92940E-14 1.49165E-13
 -1      3691 2.33173E+01-1.38962E+00 1.12729E-02 5.82658E-01-4.40728E-14 1.53882E-13
 -1      3692 2.45643E+01-2.29996E+00 4.27936E-02-1.26615E-01 7.96238E-16 5.12940E-14
 -1      3693 1.95095E+01-1.53513E+00 5.92253E-02-3.87527E+00 1.92822E-13 2.42817E-13
 -1      3694 2.13542E+01-2.51628E+00-6.85669E-02-3.26643E+00 1.51395E-13 1.59763E-13
 -1      3695 1.35647E+01 1.40113E+00-9.89501E-04-4.95186E-01-1.08042E-13 1.34615E-15
 -1      3696 1.44749E+01 1.51791E+00-2.62359E-03-5.20466E-01-7.89494E-14 1.32550E-14
 -1      3697 1.31547E+01 1.46463E+00 7.32174E-02 2.97216E-01-1.45517E-13 5.78461E-14
 -1      3698 1.62712E+01 2.85459E+00-4.70644E-03-1.01715E+00 1.83764E-13 4.90707E-13
 -1      3699 1.59454E+01 2.73453E+00 1.49740E-02-6.06146E-01 1.88723E-13 4.28694E-13
 -1      3700 1.53501E+01 1.55696E+00-6.39861E-03-5.39479E-01-1.17903E-13 1.17007E-15
 -1      3701 1.60778E+01 1.57303E+00-9.65382E-03-5.14948E-01-1.47909E-13-4.89058E-14
 -1      3702 1.50112E+01 1.59680E+00 3.76681E-02 1.49989E-02-1.60855E-13 3.19953E-14
 -1      3703 1.79642E+01 1.45173E+00-5.17758E-03-2.11475E+00 1.79088E-13 4.30825E-13
 -1      3704 1.76751E+01 2.08711E+00 2.01648E-02-1.81490E+00 1.78189E-13 4.62389E-13
 -1      3705 1.71185E+01 2.30715E+00-2.59363E-02-1.71695E+00 2.02936E-13 5.05752E-13
 -1      3706 1.66816E+01 1.53579E+00-9.00013E-03-5.46923E-01-3.80365E-14-9.67773E-14
 -1      3707 1.72021E+01 1.48715E+00-6.27621E-03-5.38884E-01 2.41474E-15-9.04467E-14
 -1      3708 1.64302E+01 1.56574E+00 1.93552E-02-1.59679E-01-6.87549E-14-4.17494E-14
 -1      3709 1.76285E+01 1.40880E+00-7.44135E-03-5.58029E-01 2.81012E-14-1.10665E-13
 -1      3710 1.80035E+01 1.33022E+00-3.44653E-03-5.46879E-01 4.17574E-14-1.75270E-13
 -1      3711 1.74287E+01 1.44308E+00 1.19184E-02-2.84328E-01 1.08558E-14-1.51118E-13
 -1      3712 1.83101E+01 1.23461E+00-5.54720E-03-5.48562E-01 2.96148E-14-1.52396E-13
 -1      3713 1.85804E+01 1.14522E+00-2.06356E-03-5.28103E-01-6.76772E-14-1.77378E-13
 -1      3714 1.81474E+01 1.27526E+00 8.22760E-03-3.54773E-01 6.45035E-15-1.79214E-13
 -1      3715 1.88030E+01 1.04755E+00-4.04371E-03-5.15402E-01-2.62071E-14-9.64249E-14
 -1      3716 1.89966E+01 9.59312E-01-1.41687E-03-4.86599E-01 5.24766E-14 5.04118E-14
 -1      3717 1.86701E+01 1.09252E+00 5.97102E-03-3.78907E-01 2.88884E-14-1.31071E-14
 -1      3718 1.91589E+01 8.68129E-01-2.86357E-03-4.64161E-01 6.26078E-14 1.45736E-13
 -1      3719 1.92964E+01 7.87206E-01-1.14219E-03-4.30388E-01 1.35245E-14 1.40723E-13
 -1      3720 1.90512E+01 9.14207E-01 4.46322E-03-3.69018E-01 9.30316E-14 1.91376E-13
 -1      3721 1.94146E+01 7.06551E-01-1.97795E-03-4.02894E-01-3.40407E-14 2.24062E-13
 -1      3722 1.95113E+01 6.35634E-01-1.00103E-03-3.67650E-01-1.05070E-13 1.25888E-13
 -1      3723 1.93286E+01 7.50862E-01 3.36806E-03-3.37384E-01 1.13286E-14 1.34894E-13
 -1      3724 1.95972E+01 5.66746E-01-1.32684E-03-3.38795E-01-1.75657E-13 2.09844E-13
 -1      3725 1.96645E+01 5.06448E-01-8.94803E-04-3.04803E-01-1.19337E-13 1.48668E-13
 -1      3726 1.95296E+01 6.07305E-01 2.54949E-03-2.94295E-01-1.21813E-13 2.13956E-13
 -1      3727 1.97267E+01 4.49011E-01-8.61366E-04-2.77114E-01 2.19038E-14 9.11246E-14
 -1      3728 1.97731E+01 3.98820E-01-7.90521E-04-2.46129E-01 1.18004E-13 3.30147E-14
 -1      3729 1.96744E+01 4.84734E-01 1.92871E-03-2.47325E-01-5.82080E-14 1.66982E-13
 -1      3730 1.98178E+01 3.51758E-01-5.38755E-04-2.21106E-01 8.10484E-14-2.00279E-14
 -1      3731 1.98494E+01 3.10642E-01-6.82569E-04-1.94041E-01-1.64485E-14-1.09712E-13
 -1      3732 1.97782E+01 3.82275E-01 1.45462E-03-2.01485E-01 8.58100E-14-4.88167E-15
 -1      3733 1.98814E+01 2.72595E-01-3.22159E-04-1.72399E-01-1.92056E-13-1.60614E-13
 -1      3734 1.99027E+01 2.39342E-01-5.74558E-04-1.49543E-01-2.67613E-13-8.33691E-14
 -1      3735 1.98519E+01 2.98020E-01 1.09166E-03-1.59719E-01-1.88605E-13-2.10153E-13
 -1      3736 1.99253E+01 2.08925E-01-1.81404E-04-1.31463E-01-1.96267E-13-1.79674E-13
 -1      3737 1.99395E+01 1.82331E-01-4.71724E-04-1.12693E-01-9.85663E-14-2.26856E-13
 -1      3738 1.99038E+01 2.29660E-01 8.13903E-04-1.23462E-01-2.41220E-13-2.20000E-13
 -1      3739 1.99553E+01 1.58259E-01-9.30958E-05-9.80154E-02 5.04149E-14-1.99777E-13
 -1      3740 1.99645E+01 1.37212E-01-3.78193E-04-8.29706E-02 6.79764E-14-1.82549E-13
 -1      3741 1.99400E+01 1.74851E-01 6.01863E-04-9.31299E-02 1.02499E-14-2.20155E-13
 -1      3742 1.99754E+01 1.18348E-01-3.99258E-05-7.13518E-02 1.70555E-13-2.10981E-13
 -1      3743 1.99812E+01 1.01866E-01-2.96360E-04-5.95549E-02 2.89861E-13-1.24883E-13
 -1      3744 1.99648E+01 1.31396E-01 4.40610E-04-6.85113E-02 1.96235E-13-1.36875E-13
 -1      3745 1.99886E+01 8.72330E-02-9.58233E-06-5.05677E-02 2.92936E-13-5.32129E-14
 -1      3746 1.99921E+01 7.44661E-02-2.27068E-04-4.15079E-02 2.36967E-13 4.82041E-14
 -1      3747 1.99814E+01 9.73228E-02 3.18611E-04-4.90474E-02 2.85349E-13-4.72631E-14
 -1      3748 1.99969E+01 6.32385E-02 6.40464E-06-3.47102E-02 2.55794E-14-3.11624E-15
 -1      3749 1.99990E+01 5.34656E-02-1.70031E-04-2.78943E-02-9.07650E-15 3.83387E-14
 -1      3750 1.99924E+01 7.09108E-02 2.26915E-04-3.40235E-02 4.24837E-14-6.17456E-14
 -1      3751 2.00020E+01 4.49541E-02 1.36915E-05-2.28681E-02 8.69701E-14-8.46928E-14
 -1      3752 2.00030E+01 3.75696E-02-1.24252E-04-1.78485E-02 1.10637E-13-1.16698E-13
 -1      3753 1.99992E+01 5.06872E-02 1.58561E-04-2.26919E-02-2.25717E-14-8.64359E-14
 -1      3754 2.00048E+01 3.12038E-02 1.59507E-05-1.42212E-02 8.82638E-14-5.14787E-14
 -1      3755 2.00052E+01 2.57045E-02-8.83633E-05-1.06091E-02-1.38564E-13 6.95048E-14
 -1      3756 2.00033E+01 3.54080E-02 1.08126E-04-1.43433E-02 6.62563E-14-1.22787E-13
 -1      3757 2.00061E+01 2.10162E-02 1.55002E-05-8.06199E-03-1.78410E-13 2.53331E-13
 -1      3758 2.00061E+01 1.69879E-02-6.08671E-05-5.53041E-03 3.53344E-14 3.33669E-13
 -1      3759 2.00054E+01 2.40349E-02 7.13807E-05-8.34511E-03-8.92607E-14 2.37882E-13
 -1      3760 2.00064E+01 1.35958E-02 1.37589E-05-3.79942E-03 1.19187E-13 2.65685E-13
 -1      3761 2.00061E+01 1.07005E-02-4.02973E-05-2.08084E-03 1.58124E-13 2.32166E-13
 -1      3762 2.00063E+01 1.57108E-02 4.50288E-05-4.15656E-03 1.03932E-13 2.84384E-13
 -1      3763 2.00061E+01 8.29655E-03 1.15660E-05-9.53046E-04 1.35614E-14 1.74101E-13
 -1      3764 2.00058E+01 6.26077E-03-2.53075E-05 1.66336E-04 1.21539E-13-7.84670E-14
 -1      3765 2.00064E+01 9.73445E-03 2.65044E-05-1.33067E-03-6.12407E-14 1.60339E-13
 -1      3766 2.00055E+01 4.59796E-03 9.40412E-06 8.58463E-04 3.08146E-13-2.27972E-13
 -1      3767 2.00051E+01 3.20229E-03-1.47048E-05 1.54573E-03 8.98898E-15-2.75679E-13
 -1      3768 2.00059E+01 5.53818E-03 1.38255E-05 4.91844E-04 1.79629E-13-1.63883E-13
 -1      3769 2.00047E+01 2.08373E-03 7.49298E-06 1.93088E-03-2.68197E-13-1.10578E-13
 -1      3770 2.00043E+01 1.15338E-03-7.63179E-06 2.31362E-03-2.23990E-13-3.78447E-13
 -1      3771 2.00052E+01 2.66600E-03 5.49904E-06 1.59253E-03-1.77747E-13-3.11723E-13
 -1      3772 2.00039E+01 4.20207E-04 4.65360E-06 2.48801E-03 1.72655E-14-3.06972E-13
 -1      3773 2.00035E+01-1.71515E-04-1.85280E-06 2.65004E-03 1.14094E-13-3.35112E-13
 -1      3774 2.00044E+01 7.55436E-04 1.06832E-06 2.18713E-03-3.52675E-14-3.09889E-13
 -1      3775 2.29986E+01 3.11688E+00-4.16302E-02 5.64884E-01-2.56482E-13 2.50522E-13
 -1      3776 2.31953E+01-2.14075E+00 1.61288E-02 1.24177E-01 2.48876E-13 2.91668E-13
 -1      3777 2.35224E+01-2.08532E+00-9.74896E-03-2.39512E-01 2.63168E-13 3.79634E-13
 -1      3778 2.22045E+01-1.87416E+00 2.08268E-02 7.20514E-01 1.37190E-13 2.91951E-13
 -1      3779 2.25687E+01-2.06068E+00-1.24141E-02 4.67051E-01 1.39903E-13 2.83907E-13
 -1      3780 2.28983E+01-2.35978E+00-7.18433E-03 7.18331E-01 2.27771E-13 3.57529E-13
 -1      3781 2.13560E+01-1.37211E+00 1.72022E-02 1.00014E+00 7.31778E-14 3.66109E-13
 -1      3782 2.16836E+01-1.63564E+00-3.50278E-03 8.79605E-01 1.17534E-13 3.26318E-13
 -1      3783 2.17963E+01-1.91868E+00-1.75800E-02 1.16579E+00 9.28726E-14 4.05901E-13
 -1      3784 2.07284E+01-8.67653E-01 1.13483E-02 1.06675E+00 5.47352E-14 3.59550E-13
 -1      3785 2.09847E+01-1.12012E+00 5.78212E-05 1.03100E+00 7.63610E-14 3.34656E-13
 -1      3786 2.09400E+01-1.33348E+00-2.19756E-02 1.30301E+00 6.38725E-14 3.91354E-13
 -1      3787 2.03080E+01-4.46135E-01 6.81304E-03 1.00928E+00-4.81881E-14 3.67052E-13
 -1      3788 2.04900E+01-6.46133E-01 3.03261E-03 1.02503E+00 1.60310E-15 4.04973E-13
 -1      3789 2.03761E+01-7.72354E-01-1.38683E-02 1.24421E+00 2.98523E-14 4.74561E-13
 -1      3790 2.00506E+01-1.34918E-01 3.48776E-03 8.95123E-01-6.84499E-14 3.48377E-13
 -1      3791 2.01695E+01-2.77603E-01 3.61141E-03 9.37439E-01-2.42875E-14 3.22148E-13
 -1      3792 2.00277E+01-3.39958E-01-9.40858E-03 1.09831E+00 6.78852E-15 4.70383E-13
 -1      3793 1.99097E+01 7.27611E-02 1.42684E-03 7.62642E-01-2.36430E-14 2.61776E-13
 -1      3794 1.99811E+01-1.91954E-02 3.35636E-03 8.15751E-01-1.64805E-14 3.46636E-13
 -1      3795 1.98374E+01-3.67877E-02-5.83681E-03 9.26010E-01-3.82852E-14 4.54787E-13
 -1      3796 1.98456E+01 1.96320E-01 1.82794E-04 6.32123E-01 1.38854E-14 2.42514E-13
 -1      3797 1.98841E+01 1.44146E-01 2.77775E-03 6.87018E-01-4.09195E-14 1.83343E-13
 -1      3798 1.97515E+01 1.55072E-01-3.37265E-03 7.58976E-01-5.61789E-15 3.31166E-13
 -1      3799 1.98288E+01 2.57281E-01-5.04330E-04 5.13035E-01-4.90266E-15 3.35540E-13
 -1      3800 1.98461E+01 2.33964E-01 2.17936E-03 5.64900E-01-5.05751E-15 2.66622E-13
 -1      3801 1.97303E+01 2.61738E-01-1.72765E-03 6.09741E-01-5.36502E-14 3.33849E-13
 -1      3802 1.98387E+01 2.75053E-01-8.35973E-04 4.09168E-01 9.31971E-14 2.72753E-13
 -1      3803 1.98433E+01 2.71153E-01 1.66083E-03 4.55680E-01 7.65208E-14 3.37234E-13
 -1      3804 1.97459E+01 3.07409E-01-6.86663E-04 4.82334E-01 4.04140E-14 3.73034E-13
 -1      3805 1.98616E+01 2.65340E-01-9.49549E-04 3.21234E-01-2.85228E-15 3.40866E-13
 -1      3806 1.98593E+01 2.73432E-01 1.24887E-03 3.61514E-01 5.58836E-14 3.49806E-13
 -1      3807 1.97798E+01 3.12482E-01-7.12628E-05 3.76582E-01 2.37862E-14 5.27028E-13
 -1      3808 1.98888E+01 2.39936E-01-9.35729E-04 2.48408E-01-9.08062E-14 3.93441E-13
 -1      3809 1.98835E+01 2.54563E-01 9.36699E-04 2.82388E-01-4.10374E-14 3.35190E-13
 -1      3810 1.98202E+01 2.92741E-01 2.58290E-04 2.90453E-01-2.14416E-14 4.72069E-13
 -1      3811 1.99155E+01 2.07165E-01-8.53143E-04 1.89167E-01-4.57807E-14 3.52744E-13
 -1      3812 1.99093E+01 2.24549E-01 7.05549E-04 2.17222E-01-4.85298E-14 3.64658E-13
 -1      3813 1.98601E+01 2.59672E-01 4.04555E-04 2.21300E-01-5.36060E-14 4.26670E-13
 -1      3814 1.99391E+01 1.72540E-01-7.39017E-04 1.41736E-01-1.19421E-13 2.89658E-13
 -1      3815 1.99333E+01 1.90233E-01 5.35686E-04 1.64466E-01-6.33511E-14 3.21017E-13
 -1      3816 1.98959E+01 2.21171E-01 4.39838E-04 1.66441E-01-4.10208E-14 2.85583E-13
 -1      3817 1.99586E+01 1.39449E-01-6.16285E-04 1.04327E-01-1.01022E-14 2.09682E-13
 -1      3818 1.99537E+01 1.55988E-01 4.10415E-04 1.22420E-01-5.81943E-14 2.87284E-13
 -1      3819 1.99260E+01 1.82335E-01 4.13256E-04 1.23405E-01-1.27922E-13 1.87667E-13
 -1      3820 1.99738E+01 1.09750E-01-4.98354E-04 7.52541E-02 1.85808E-13 9.44415E-14
 -1      3821 1.99700E+01 1.24373E-01 3.16984E-04 8.94143E-02 8.17318E-14 1.87393E-13
 -1      3822 1.99500E+01 1.46188E-01 3.56815E-04 9.00185E-02 9.47468E-14 3.05061E-13
 -1      3823 1.99852E+01 8.42641E-02-3.92344E-04 5.30006E-02 2.39192E-13-7.41575E-14
 -1      3824 1.99825E+01 9.66729E-02 2.46205E-04 6.38954E-02 2.35279E-13 1.27838E-14
 -1      3825 1.99684E+01 1.14300E-01 2.90320E-04 6.44198E-02 2.01934E-13 1.42644E-13
 -1      3826 1.99933E+01 6.31426E-02-3.01330E-04 3.62374E-02 2.51074E-13-1.13156E-13
 -1      3827 1.99915E+01 7.33343E-02 1.91692E-04 4.44733E-02 2.07487E-13-7.44677E-14
 -1      3828 1.99820E+01 8.72618E-02 2.25190E-04 4.50396E-02 2.16923E-13 3.33337E-14
 -1      3829 1.99988E+01 4.61402E-02-2.25883E-04 2.38273E-02 9.51835E-14 2.17403E-14
 -1      3830 1.99977E+01 5.42817E-02 1.49090E-04 2.99375E-02 1.59863E-13-4.66798E-14
 -1      3831 1.99916E+01 6.50539E-02 1.67300E-04 3.05722E-02 1.46513E-13 1.86141E-13
 -1      3832 2.00022E+01 3.28020E-02-1.65125E-04 1.48168E-02 1.81161E-13 2.21103E-13
 -1      3833 2.00017E+01 3.91448E-02 1.15436E-04 1.92569E-02 2.36294E-13 1.54959E-13
 -1      3834 1.99980E+01 4.73022E-02 1.19033E-04 1.99424E-02 6.08716E-14 4.04928E-13
 -1      3835 2.00042E+01 2.25877E-02-1.17430E-04 8.41990E-03 1.79729E-13 1.49579E-13
 -1      3836 2.00040E+01 2.74130E-02 8.86901E-05 1.15709E-02 7.41056E-14 1.59845E-13
 -1      3837 2.00021E+01 3.34564E-02 8.07002E-05 1.22745E-02 1.52772E-13 3.76338E-13
 -1      3838 2.00051E+01 1.49493E-02-8.08774E-05 3.99945E-03 5.97013E-14 2.51490E-13
 -1      3839 2.00052E+01 1.85340E-02 6.74094E-05 6.17304E-03 2.06870E-13 2.04520E-13
 -1      3840 2.00044E+01 2.29064E-02 5.14963E-05 6.86251E-03 1.11726E-13 2.56827E-13
 -1      3841 2.00053E+01 9.37502E-03-5.35300E-05 1.04758E-03 8.67603E-15 1.20655E-13
 -1      3842 2.00055E+01 1.19730E-02 5.05314E-05 2.49400E-03 1.59147E-14 2.64841E-13
 -1      3843 2.00055E+01 1.50528E-02 3.01026E-05 3.14374E-03 1.37885E-15 4.13266E-13
 -1      3844 2.00050E+01 5.41189E-03-3.35914E-05-8.33925E-04 6.58635E-14 2.06851E-13
 -1      3845 2.00053E+01 7.24517E-03 3.72373E-05 8.23206E-05 2.80193E-15 1.47412E-13
 -1      3846 2.00058E+01 9.34617E-03 1.50467E-05 6.75424E-04-4.43981E-14 1.75650E-13
 -1      3847 2.00044E+01 2.67293E-03-1.95476E-05-1.95190E-03 5.18482E-14 4.27734E-13
 -1      3848 2.00048E+01 3.92967E-03 2.68620E-05-1.41377E-03 1.19735E-13 4.36942E-13
 -1      3849 2.00055E+01 5.30597E-03 4.84342E-06-8.86071E-04-9.99531E-14 4.44974E-13
 -1      3850 2.00037E+01 8.35593E-04-9.56109E-06-2.53739E-03 2.20640E-13 3.64395E-13
 -1      3851 2.00041E+01 1.67140E-03 1.90709E-05-2.26332E-03 2.21217E-13 3.95537E-13
 -1      3852 2.00049E+01 2.52301E-03-2.25020E-06-1.80444E-03 1.23540E-13 5.38675E-13
 -1      3853 2.00030E+01-3.56524E-04-1.05984E-06-2.75734E-03-3.29291E-14 4.92570E-13
 -1      3854 2.00034E+01 1.77044E-04 1.30995E-05-2.66705E-03 1.54991E-13 3.22621E-13
 -1      3855 2.00041E+01 6.63860E-04-5.92142E-06-2.27470E-03 1.34188E-13 3.74033E-13
 -1      3856 2.00024E+01-1.04471E-03 9.82242E-07-2.72692E-03 6.57275E-14 3.15774E-13
 -1      3857 2.00027E+01-6.84802E-04 9.07096E-06-2.75001E-03-2.45495E-14 4.06255E-13
 -1      3858 2.00034E+01-4.45290E-04-9.98140E-06-2.42105E-03-3.35610E-14 2.82367E-13
 -1      3859 2.00029E+01-1.09750E-03-6.52025E-06-2.37835E-03 1.36984E-13 2.64488E-13
 -1      3860 1.34311E+01 2.15736E+00 5.66322E-02 4.81281E-02 1.93283E-13 4.26780E-13
 -1      3861 1.67617E+01-1.39493E+00-4.19792E-02 4.26140E+00 1.52465E-14 3.16865E-14
 -1      3862 1.51906E+01-3.17238E-01 3.35803E-02 3.70631E+00-1.54950E-13 1.17443E-13
 -1      3863 2.30350E+01-2.71338E+00 7.62819E-02-2.29288E+00 1.16519E-13 1.03880E-13
 -1      3864 2.39702E+01-2.83404E+00-5.40607E-02-1.23200E+00 4.06921E-14 7.98350E-14
 -1      3865 2.36082E+01-2.20576E+00-6.53621E-03-5.76867E-01 1.55308E-14 1.09853E-13
 -1      3866 2.19037E+01-2.09271E+00 7.92440E-03-2.41353E+00 1.23202E-13 1.65134E-13
 -1      3867 2.46258E+01-9.74407E-01-1.17741E-02-1.43539E+00 3.70832E-14 4.23503E-13
 -1      3868 1.65118E+01 2.70106E+00 8.48375E-03-1.34530E+00 1.87970E-13 5.23041E-13
 -1      3869 2.00029E+01-1.33138E-03 9.07908E-07 2.17856E-03 1.75690E-13-5.85811E-14
 -1      3870 2.00033E+01-1.43433E-03-6.10395E-06 1.53689E-03 3.28465E-13-9.20929E-14
 -1      3871 2.00032E+01-1.04039E-03 4.93087E-06 2.24851E-03 6.06381E-14-1.92251E-13
 -1      3872 2.45113E+01 3.37993E+00-3.33927E-02-1.65173E+00-2.80199E-13 4.33825E-13
 -1      3873 2.44391E+01-2.19274E+00-1.39103E-02-3.38108E-01 1.93202E-13 3.90888E-13
 -1      3874 2.41730E+01-2.86935E+00 2.73638E-02 6.36470E-01 2.96680E-13 3.62615E-13
 -1      3875 1.39139E+01 1.30110E+00 1.14984E-02 9.18609E-01-2.14409E-13 9.01189E-15
 -1      3876 2.09375E+01 2.72586E-01 4.34248E-03-6.33999E-01-2.14045E-14 3.43276E-13
 -1      3877 2.06921E+01 5.91595E-01-1.25560E-03-6.18594E-01-2.16652E-14 3.82534E-13
 -1      3878 2.03558E+01 7.69934E-01 4.20325E-03-8.79567E-01 1.15239E-14 3.76776E-13
 -1      3879 2.11869E+01-8.10069E-02 4.97441E-04-6.65351E-01-1.37731E-14 3.20756E-13
 -1      3880 2.43817E+01-1.63473E+00-7.38773E-03-9.60148E-01 1.66822E-13 3.69075E-13
 -1      3881 1.62891E+01 1.08234E-01 3.00307E-02-3.78284E+00 2.63575E-13 4.57939E-13
 -1      3882 1.76514E+01-8.10882E-01-3.68079E-02-4.09169E+00 2.41611E-13 3.67820E-13
 -1      3883 2.00028E+01-1.50461E-03 2.92443E-06-1.90978E-03 4.00928E-13 1.46404E-13
 -1      3884 1.48951E+01 2.86330E-01 3.73456E-02 3.01355E+00-1.78599E-13 4.72565E-14
 -1      3885 1.47899E+01 7.97491E-01-8.23607E-03 2.12433E+00-1.25082E-13 1.91479E-14
 -1      3886 1.60230E+01-3.04333E-02-1.94363E-02 3.02356E+00-1.95932E-13 9.57793E-14
 -1      3887 2.39729E+01 3.67459E+00-6.43059E-02-1.18205E+00-3.37737E-13 4.07163E-13
 -1      3888 2.05437E+01-2.85094E+00-2.49731E-02 3.64182E+00 2.00071E-13 2.15298E-13
 -1      3889 1.86897E+01-2.02776E+00 7.20003E-02 4.21711E+00 1.81394E-13 5.37816E-14
 -1      3890 2.03746E+01 3.90758E-01-1.06082E-03-1.21155E+00 4.20262E-14 3.20391E-13
 -1      3891 1.65608E+01 2.23826E+00 2.12069E-02-1.74037E+00 2.01865E-13 5.12421E-13
 -1      3892 2.00039E+01-1.07469E-03 7.37904E-06 1.07889E-03 4.15560E-13-9.64025E-14
 -1      3893 2.00035E+01-1.42695E-03-1.48209E-06 1.01937E-03 3.89469E-13-1.05096E-13
 -1      3894 2.00037E+01-1.43537E-03-4.46818E-06 5.33299E-04 5.37062E-13 1.64023E-13
 -1      3895 1.84403E+01 8.30563E-01 3.21768E-02-2.47645E+00 1.86687E-13 3.83176E-13
 -1      3896 1.75325E+01 1.15109E+00-3.12927E-02-2.51615E+00 2.10362E-13 4.34288E-13
 -1      3897 2.33490E+01-1.67978E+00-6.94089E-03 1.16130E-01-1.88382E-14 1.79631E-13
 -1      3898 1.81635E+01-1.40506E+00 3.92291E-02 3.72801E+00 3.81067E-14 1.19097E-13
 -1      3899 1.90749E+01-7.64778E-01 4.31079E-02-3.42994E+00 2.06613E-13 2.96064E-13
 -1      3900 2.33054E+01-2.85039E+00-1.30438E-02 1.13893E+00 2.39780E-13 3.98574E-13
 -1      3901 1.47004E+01 1.22749E+00 4.49644E-02 1.45859E+00-1.63081E-13 3.65636E-14
 -1      3902 1.46362E+01 1.39115E+00-1.07881E-02 6.50466E-01-1.43832E-13 3.08191E-14
 -1      3903 1.55188E+01 1.44480E+00-4.65266E-04 4.91942E-01-2.01227E-13 2.17660E-14
 -1      3904 1.55353E+01 9.46510E-01 1.73768E-02 1.75000E+00-1.40958E-13 7.72529E-14
 -1      3905 2.21693E+01-2.77803E+00-4.17872E-04 2.17714E+00 1.86132E-13 3.77403E-13
 -1      3906 2.15892E+01-2.92171E+00 2.69304E-02 3.01506E+00 2.20574E-13 2.83814E-13
 -1      3907 2.05146E+01-2.28258E+00 1.03817E-02 3.08138E+00 2.06042E-13 3.26478E-13
 -1      3908 1.99289E+01 1.23169E-01 1.01326E-02-2.00709E+00 1.23865E-13 3.22162E-13
 -1      3909 1.92260E+01 4.09411E-01-6.64385E-03-2.23858E+00 1.52841E-13 3.60586E-13
 -1      3910 1.90032E+01 9.25395E-02 4.54391E-03-2.66935E+00 1.71667E-13 3.34481E-13
 -1      3911 2.39897E+01 4.16942E+00-4.36278E-02-4.86196E-01-3.48957E-13 3.94987E-13
 -1      3912 2.00032E+01-1.41064E-03-1.01014E-05-1.55772E-03 3.54242E-13 9.94256E-14
 -1      3913 2.00031E+01-1.24496E-03 1.19856E-06-1.96573E-03 3.01433E-13 2.56463E-13
 -1      3914 2.00034E+01-9.40168E-04 7.59085E-06-1.99453E-03 1.69871E-13 3.16618E-13
 -1      3915 2.18123E+01-9.25999E-01-1.07235E-02-7.84642E-01 4.68104E-15 2.81289E-13
 -1      3916 2.15614E+01-5.89858E-01 1.02387E-02-8.11286E-01-2.14889E-15 2.84660E-13
 -1      3917 2.00036E+01-1.44812E-03-4.47829E-06-5.85727E-04 5.63535E-13 3.14866E-13
 -1      3918 2.00035E+01-1.41544E-03 2.34318E-06-1.06174E-03 4.05077E-13 3.24215E-13
 -1      3919 2.00038E+01-1.10658E-03 7.91029E-06-1.10184E-03 3.79517E-13 3.95818E-13
 -1      3920 2.28129E+01-1.60669E+00-5.04040E-03-3.66864E-01 3.61993E-15 2.14149E-13
 -1      3921 2.24641E+01-1.34745E+00 1.08794E-02-5.43435E-01 1.94777E-14 2.52554E-13
 -1      3922 2.21397E+01-1.31179E+00-7.93385E-03-9.66123E-01 3.76238E-14 2.10925E-13
 -1      3923 2.33325E+01-1.84763E+00-1.63272E-02-2.02649E-01 5.28787E-15 1.80199E-13
 -1      3924 1.55484E+01 2.70614E+00 1.96940E-02-6.06281E-02 2.00820E-13 3.19739E-13
 -1      3925 1.56327E+01 2.53833E+00-1.53593E-02 3.30594E-01 2.14634E-13 3.34026E-13
 -1      3926 1.48530E+01 2.40756E+00-2.43882E-02 3.65247E-01 1.94241E-13 3.44605E-13
 -1      3927 1.41421E+01 2.12299E+00 2.80442E-02-6.98434E-01 2.31674E-13 4.30144E-13
 -1      3928 1.52796E+01 2.54021E+00-7.86865E-03-7.71553E-01 1.95755E-13 4.32571E-13
 -1      3929 2.36195E+01 3.87294E+00-3.51635E-02 2.89228E-01-2.79235E-13 3.06716E-13
 -1      3930 1.61268E+01 1.44279E+00-1.64860E-02 2.80701E-01-1.52661E-13 5.70002E-14
 -1      3931 1.67393E+01 1.43187E+00-2.83223E-03 1.73182E-01-3.16182E-14-1.45298E-14
 -1      3932 1.60199E+01 1.33754E+00 2.16988E-02 8.65725E-01-1.27718E-13 1.12938E-13
 -1      3933 1.71834E+01 1.37753E+00-1.25566E-02 3.13749E-02-1.77010E-14-4.44233E-14
 -1      3934 1.76195E+01 1.32734E+00-1.83605E-03-3.94546E-02 3.05799E-15-8.00353E-14
 -1      3935 1.70555E+01 1.33207E+00 1.33038E-02 4.43586E-01-3.52962E-14 2.56477E-14
 -1      3936 1.79453E+01 1.25129E+00-8.88660E-03-1.28532E-01 1.08060E-13-4.30760E-14
 -1      3937 1.82615E+01 1.18046E+00-1.12405E-03-1.66564E-01 6.35683E-14 6.94845E-14
 -1      3938 1.78178E+01 1.24063E+00 8.62527E-03 1.65961E-01 8.95239E-14 2.32342E-14
 -1      3939 1.85042E+01 1.09481E+00-6.35189E-03-2.17603E-01 3.17262E-14 1.20100E-13
 -1      3940 1.87346E+01 1.01747E+00-8.23771E-04-2.31003E-01 1.20746E-13 1.56003E-13
 -1      3941 1.83852E+01 1.10996E+00 6.35023E-03-7.03487E-03 1.13932E-13 1.90555E-13
 -1      3942 1.89167E+01 9.32240E-01-4.47153E-03-2.54866E-01 9.40466E-14 1.54361E-13
 -1      3943 1.90844E+01 8.56196E-01-7.80529E-04-2.51483E-01 8.11623E-14 1.68110E-13
 -1      3944 1.88106E+01 9.63146E-01 4.88153E-03-1.04900E-01 1.12762E-13 1.46978E-13
 -1      3945 1.92213E+01 7.76989E-01-3.14113E-03-2.57442E-01 3.74682E-14 2.50094E-14
 -1      3946 1.93429E+01 7.06784E-01-7.93612E-04-2.43893E-01-7.85397E-14-7.72074E-14
 -1      3947 1.91304E+01 8.15728E-01 3.78066E-03-1.51403E-01-8.60325E-14 4.04926E-14
 -1      3948 1.94454E+01 6.36366E-01-2.18054E-03-2.38957E-01-7.87743E-14 2.37178E-14
 -1      3949 1.95332E+01 5.74157E-01-7.90346E-04-2.20283E-01-7.29091E-14 1.67563E-13
 -1      3950 1.93700E+01 6.77327E-01 2.93163E-03-1.64685E-01 7.58978E-15-1.13442E-14
 -1      3951 1.96096E+01 5.13456E-01-1.48946E-03-2.09495E-01-7.09958E-14 1.55935E-13
 -1      3952 1.96725E+01 4.59904E-01-7.52567E-04-1.89201E-01 4.73659E-14 1.61456E-13
 -1      3953 1.95487E+01 5.53002E-01 2.26840E-03-1.58020E-01-2.94488E-14 7.98659E-14
 -1      3954 1.97291E+01 4.08756E-01-9.99178E-04-1.75980E-01 1.98876E-14 1.07874E-13
 -1      3955 1.97738E+01 3.63649E-01-6.85182E-04-1.56291E-01-5.58634E-14-7.15669E-15
 -1      3956 1.96812E+01 4.44776E-01 1.74725E-03-1.40711E-01-4.85490E-14 2.51198E-13
 -1      3957 1.98154E+01 3.21307E-01-6.57567E-04-1.42799E-01-1.00490E-13-6.27382E-14
 -1      3958 1.98470E+01 2.83971E-01-5.99727E-04-1.24976E-01-2.61067E-13-5.61360E-14
 -1      3959 1.97786E+01 3.52787E-01 1.33728E-03-1.18940E-01-1.20149E-13 3.82359E-14
 -1      3960 1.98772E+01 2.49430E-01-4.23994E-04-1.12461E-01-2.93123E-13 4.10588E-14
 -1      3961 1.98992E+01 2.18983E-01-5.07410E-04-9.70864E-02-1.64366E-13 2.94017E-14
 -1      3962 1.98495E+01 2.76084E-01 1.01554E-03-9.65606E-02-2.47416E-13 1.33042E-13
 -1      3963 1.99210E+01 1.91169E-01-2.67242E-04-8.61667E-02 6.66878E-14 2.81682E-14
 -1      3964 1.99362E+01 1.66672E-01-4.16758E-04-7.33846E-02 1.13223E-13 4.91678E-14
 -1      3965 1.99006E+01 2.13163E-01 7.64175E-04-7.57672E-02-3.79072E-14 3.47298E-13
 -1      3966 1.99516E+01 1.44546E-01-1.63957E-04-6.42708E-02 1.28247E-13 7.06162E-14
 -1      3967 1.99618E+01 1.25086E-01-3.33298E-04-5.39599E-02 2.49793E-13 9.98287E-14
 -1      3968 1.99370E+01 1.62298E-01 5.68977E-04-5.76375E-02 1.37869E-13 3.39179E-13
 -1      3969 1.99726E+01 1.07694E-01-9.71573E-05-4.66174E-02 2.46038E-13-1.63969E-14
 -1      3970 1.99794E+01 9.24328E-02-2.60013E-04-3.85155E-02 1.32444E-13-9.98888E-14
 -1      3971 1.99624E+01 1.21741E-01 4.18463E-04-4.25358E-02 1.74822E-13 1.94850E-13
 -1      3972 1.99866E+01 7.89281E-02-5.48057E-05-3.27764E-02 1.34921E-13-1.12000E-13
 -1      3973 1.99910E+01 6.71149E-02-1.98010E-04-2.65624E-02-3.73543E-14-8.89751E-14
 -1      3974 1.99798E+01 8.98379E-02 3.03348E-04-3.04018E-02 9.02485E-14 1.91036E-14
 -1      3975 1.99957E+01 5.67634E-02-2.85598E-05-2.21990E-02-8.34084E-14 1.13107E-14
 -1      3976 1.99984E+01 4.77451E-02-1.47145E-04-1.75437E-02 8.14860E-14 5.40235E-15
 -1      3977 1.99914E+01 6.50830E-02 2.16127E-04-2.09479E-02 2.92891E-14-4.77899E-14
 -1      3978 2.00014E+01 3.99205E-02-1.27497E-05-1.43148E-02 1.06822E-13 5.58703E-14
 -1      3979 2.00028E+01 3.31381E-02-1.06528E-04-1.09104E-02-1.96653E-14 6.00634E-14
 -1      3980 1.99988E+01 4.61473E-02 1.50752E-04-1.37868E-02 1.14872E-13 6.45164E-14
 -1      3981 2.00046E+01 2.73142E-02-3.58621E-06-8.58728E-03-4.99788E-15 1.62092E-13
 -1      3982 2.00053E+01 2.22968E-02-7.48926E-05-6.16197E-03-4.70183E-14 2.61933E-13
 -1      3983 2.00032E+01 3.18825E-02 1.02368E-04-8.50989E-03 1.34751E-13 5.40360E-14
 -1      3984 2.00061E+01 1.80364E-02 1.42760E-06-4.54203E-03 1.37962E-14 2.46541E-13
 -1      3985 2.00063E+01 1.43931E-02-5.08440E-05-2.86564E-03 6.20892E-14 9.39812E-14
 -1      3986 2.00056E+01 2.13148E-02 6.70914E-05-4.73191E-03-4.65787E-15 2.37498E-13
 -1      3987 2.00066E+01 1.13374E-02 3.91911E-06-1.77761E-03 8.67006E-15 1.70094E-13
 -1      3988 2.00065E+01 8.74718E-03-3.30122E-05-6.61409E-04-7.32533E-14 1.82404E-13
 -1      3989 2.00066E+01 1.36306E-02 4.18314E-05-2.11320E-03 4.37114E-14 7.01817E-14
 -1      3990 2.00064E+01 6.60511E-03 4.94473E-06 3.43846E-05-8.23950E-14 9.63538E-14
 -1      3991 2.00061E+01 4.80754E-03-2.01176E-05 7.40912E-04 4.05072E-14-2.46335E-13
 -1      3992 2.00067E+01 8.16020E-03 2.41491E-05-3.67961E-04-1.40546E-13 1.60413E-13
 -1      3993 2.00058E+01 3.34476E-03 5.26406E-06 1.15490E-03-7.96984E-14-2.94149E-13
 -1      3994 2.00054E+01 2.13058E-03-1.09542E-05 1.56876E-03-2.46544E-13-2.85617E-13
 -1      3995 2.00063E+01 4.35827E-03 1.21785E-05 7.35723E-04-9.23659E-14-1.74081E-13
 -1      3996 2.00050E+01 1.15907E-03 4.92541E-06 1.78547E-03-1.85214E-13-3.45827E-13
 -1      3997 2.00045E+01 3.67107E-04-4.93141E-06 1.99415E-03-3.33747E-14-3.86194E-13
 -1      3998 2.00055E+01 1.78654E-03 4.96024E-06 1.38023E-03-2.10832E-13-2.32993E-13
 -1      3999 2.00034E+01-4.06527E-04 3.26446E-06 2.53898E-03 1.02405E-13-3.77856E-13
 -1      4000 2.00032E+01-7.70074E-04-1.29201E-06 2.52971E-03-2.27739E-14-3.21487E-13
 -1      4001 2.04875E+01-1.06983E+00 1.38165E-02 1.60042E+00-1.77462E-15 4.18461E-13
 -1      4002 2.08527E+01-1.40869E+00 8.54209E-03 1.61999E+00 4.23255E-14 3.52082E-13
 -1      4003 2.00039E+01-2.58767E-04 1.15567E-06 2.27088E-03 1.54555E-13-4.49541E-13
 -1      4004 2.13778E+01-1.95820E+00 1.16142E-02 1.82291E+00 1.06341E-13 4.05431E-13
 -1      4005 2.18799E+01-2.33430E+00-7.18105E-03 1.74774E+00 1.47755E-13 3.75254E-13
 -1      4006 2.27375E+01-2.62645E+00 2.32737E-02 1.42879E+00 1.65204E-13 4.44930E-13
 -1      4007 1.99961E+01-5.20821E-01 5.76169E-03 1.38871E+00 2.30317E-14 5.06354E-13
 -1      4008 2.02348E+01-7.74170E-01 1.00659E-02 1.46654E+00 7.01815E-15 4.89206E-13
 -1      4009 1.99704E+01-8.93406E-01-2.19068E-02 1.77793E+00 1.91730E-15 4.03010E-13
 -1      4010 1.97339E+01-1.26921E-01 2.16108E-03 1.14443E+00-2.23684E-14 5.61803E-13
 -1      4011 1.98731E+01-3.02691E-01 7.78668E-03 1.23958E+00 2.12172E-14 5.46397E-13
 -1      4012 1.96160E+01-3.34468E-01-1.21250E-02 1.44694E+00-4.04993E-14 6.18048E-13
 -1      4013 1.96181E+01 1.27370E-01 5.55858E-05 9.18402E-01-7.51519E-14 6.12030E-13
 -1      4014 1.96911E+01 1.66482E-02 5.93410E-03 1.01116E+00-5.73884E-14 5.62320E-13
 -1      4015 1.94716E+01 2.71959E-02-6.03605E-03 1.14025E+00-3.04330E-14 6.78168E-13
 -1      4016 1.95910E+01 2.75572E-01-1.06799E-03 7.22994E-01-1.88038E-14 5.30919E-13
 -1      4017 1.96216E+01 2.14388E-01 4.49826E-03 8.05599E-01 3.14871E-14 5.74151E-13
 -1      4018 1.94375E+01 2.48079E-01-2.99480E-03 8.81787E-01-7.94796E-15 6.73868E-13
 -1      4019 1.96147E+01 3.46422E-01-1.53292E-03 5.61283E-01-8.43914E-14 3.97011E-13
 -1      4020 1.96193E+01 3.20448E-01 3.26084E-03 6.31438E-01-7.54434E-14 4.33500E-13
 -1      4021 1.94692E+01 3.65670E-01-1.14706E-03 6.71661E-01-3.60522E-14 6.14501E-13
 -1      4022 1.96636E+01 3.64671E-01-1.63335E-03 4.31109E-01 5.52824E-14 4.18672E-13
 -1      4023 1.96539E+01 3.62038E-01 2.28271E-03 4.89030E-01-4.47636E-14 3.63051E-13
 -1      4024 1.95340E+01 4.11108E-01-7.13207E-05 5.06391E-01-3.72549E-14 3.78191E-13
 -1      4025 1.97218E+01 3.49726E-01-1.54747E-03 3.28065E-01-2.47919E-14 5.27665E-13
 -1      4026 1.97054E+01 3.61378E-01 1.56343E-03 3.75026E-01 5.51394E-14 5.39031E-13
 -1      4027 1.96111E+01 4.09688E-01 5.08167E-04 3.78872E-01-2.46169E-14 4.53430E-13
 -1      4028 1.97796E+01 3.15917E-01-1.37585E-03 2.47413E-01-7.81845E-15 4.56938E-13
 -1      4029 1.97613E+01 3.35294E-01 1.05547E-03 2.85000E-01-4.40438E-14 5.09097E-13
 -1      4030 1.96881E+01 3.80179E-01 7.74587E-04 2.81607E-01 1.07244E-14 3.59657E-13
 -1      4031 1.98319E+01 2.73298E-01-1.17400E-03 1.84819E-01-1.07766E-14 3.70305E-13
 -1      4032 1.98144E+01 2.95881E-01 7.07068E-04 2.14596E-01 4.08777E-14 4.91540E-13
 -1      4033 1.97585E+01 3.35942E-01 8.49642E-04 2.07966E-01-1.47542E-14 4.03441E-13
 -1      4034 1.98765E+01 2.28536E-01-9.72009E-04 1.36593E-01-5.34474E-14 3.37412E-13
 -1      4035 1.98612E+01 2.51391E-01 4.73566E-04 1.59964E-01 3.62031E-15 3.96142E-13
 -1      4036 1.98191E+01 2.86060E-01 8.14542E-04 1.52496E-01 3.03914E-14 4.23042E-13
 -1      4037 1.99128E+01 1.85751E-01-7.85448E-04 9.96992E-02 4.24468E-14 1.34337E-13
 -1      4038 1.99002E+01 2.07117E-01 3.19819E-04 1.17872E-01-3.96526E-14 1.94361E-13
 -1      4039 1.98690E+01 2.36368E-01 7.22605E-04 1.10880E-01 4.11346E-14 4.47625E-13
 -1      4040 1.99412E+01 1.47233E-01-6.21424E-04 7.16896E-02-2.08034E-14 2.15799E-13
 -1      4041 1.99313E+01 1.66179E-01 2.19728E-04 8.56829E-02-3.13519E-14 9.90845E-14
 -1      4042 1.99086E+01 1.90319E-01 6.07734E-04 7.97801E-02 2.78953E-14 1.37652E-13
 -1      4043 1.99627E+01 1.14013E-01-4.82139E-04 5.06090E-02 1.76382E-13 2.38795E-13
 -1      4044 1.99553E+01 1.30169E-01 1.54766E-04 6.12676E-02 1.57127E-13 2.06971E-13
 -1      4045 1.99391E+01 1.49696E-01 4.90424E-04 5.66454E-02-2.93652E-14 1.79508E-13
 -1      4046 1.99784E+01 8.63064E-02-3.67012E-04 3.49040E-02 2.82394E-13 2.49638E-13
 -1      4047 1.99730E+01 9.96595E-02 1.12278E-04 4.29245E-02 2.51839E-13 2.88194E-13
 -1      4048 1.99618E+01 1.15161E-01 3.82099E-04 3.95353E-02 1.54911E-13 3.22177E-13
 -1      4049 1.99894E+01 6.38356E-02-2.73987E-04 2.33443E-02-5.60250E-14 5.82944E-13
 -1      4050 1.99858E+01 7.45826E-02 8.39152E-05 2.92967E-02 1.84520E-13 3.98090E-13
 -1      4051 1.99782E+01 8.66644E-02 2.88229E-04 2.69766E-02 1.62204E-13 6.26407E-13
 -1      4052 1.99969E+01 4.60559E-02-2.00324E-04 1.49580E-02 4.94782E-15 4.90273E-13
 -1      4053 1.99945E+01 5.45013E-02 6.43399E-05 1.93054E-02-6.78596E-14 4.94075E-13
 -1      4054 1.99897E+01 6.37468E-02 2.10554E-04 1.78487E-02 2.06959E-14 5.67232E-13
 -1      4055 2.00016E+01 3.23073E-02-1.43095E-04 8.97950E-03 2.46630E-13 3.69452E-13
 -1      4056 2.00002E+01 3.87961E-02 5.02434E-05 1.20954E-02 1.30311E-13 3.68852E-13
 -1      4057 1.99973E+01 4.57376E-02 1.48621E-04 1.12977E-02 1.44140E-13 3.78932E-13
 -1      4058 2.00043E+01 2.19111E-02-9.94626E-05 4.80874E-03-2.69499E-15 4.37165E-13
 -1      4059 2.00036E+01 2.67867E-02 3.96311E-05 6.99189E-03 1.09551E-13 4.10601E-13
 -1      4060 2.00021E+01 3.18932E-02 1.00815E-04 6.67137E-03 1.41302E-13 4.96000E-13
 -1      4061 2.00056E+01 1.42271E-02-6.68390E-05 1.97819E-03-4.48107E-14 3.62163E-13
 -1      4062 2.00054E+01 1.78073E-02 3.13295E-05 3.46486E-03 4.48925E-15 3.72869E-13
 -1      4063 2.00048E+01 2.14795E-02 6.50259E-05 3.47156E-03-4.14414E-14 4.26354E-13
 -1      4064 2.00060E+01 8.68274E-03-4.29744E-05 1.26606E-04-1.19948E-13 4.97510E-13
 -1      4065 2.00061E+01 1.12480E-02 2.46611E-05 1.10158E-03-6.28095E-14 4.23203E-13
 -1      4066 2.00061E+01 1.38205E-02 3.90477E-05 1.31813E-03-6.77842E-14 4.39214E-13
 -1      4067 2.00058E+01 4.78463E-03-2.63204E-05-1.02250E-03-1.63897E-13 6.04425E-13
 -1      4068 2.00061E+01 6.57504E-03 1.92773E-05-4.16304E-04-1.64155E-13 5.38477E-13
 -1      4069 2.00064E+01 8.32066E-03 2.07353E-05-7.76009E-05-9.65133E-14 5.97716E-13
 -1      4070 2.00052E+01 2.12287E-03-1.51302E-05-1.68006E-03 2.97762E-13 3.80525E-13
 -1      4071 2.00056E+01 3.33984E-03 1.60083E-05-1.33012E-03 4.40948E-15 3.92698E-13
 -1      4072 2.00061E+01 4.46982E-03 6.94116E-06-9.30622E-04 1.52089E-14 3.48576E-13
 -1      4073 2.00044E+01 3.62003E-04-5.29944E-06-1.98888E-03-4.66478E-14 4.98449E-13
 -1      4074 2.00048E+01 1.15439E-03 1.31975E-05-1.82487E-03 2.03169E-13 4.30487E-13
 -1      4075 2.00054E+01 1.83900E-03-6.81345E-06-1.41392E-03 2.02319E-13 4.47986E-13
 -1      4076 2.11273E+01-2.61267E-01-4.48140E-03-1.01473E+00 9.51322E-15 2.98846E-13
 -1      4077 1.64969E+01 1.88980E+00 2.97047E-02-2.16947E+00 2.03428E-13 5.29673E-13
 -1      4078 1.56037E+01 2.18870E+00-2.37368E-02-1.73050E+00 2.04657E-13 5.47176E-13
 -1      4079 1.51081E+01 2.26935E+00 1.99723E-02-1.21372E+00 2.09656E-13 4.81801E-13
 -1      4080 1.67633E+01 1.20025E+00 1.33643E-02-2.65232E+00 2.18240E-13 4.97544E-13
 -1      4081 2.07493E+01-1.75305E-01 5.19828E-03-1.42573E+00 6.07012E-14 2.63333E-13
 -1      4082 1.47938E+01 1.23324E+00-9.11280E-03-2.81497E+00 2.53065E-13 5.33283E-13
 -1      4083 1.54229E+01 6.48436E-01 2.57287E-02-3.52441E+00 2.58705E-13 5.04125E-13
 -1      4084 1.88710E+01-1.54063E+00-4.59848E-02 3.34114E+00 2.52229E-14 2.51330E-13
 -1      4085 1.76108E+01-6.75755E-01 5.73881E-02 3.33101E+00-1.68714E-13 2.11883E-13
 -1      4086 1.66936E+01 5.76741E-01 3.58378E-02-3.26374E+00 2.57223E-13 4.77158E-13
 -1      4087 2.00037E+01-1.45051E-03-3.41383E-06 2.21106E-04 6.06872E-13 5.55716E-13
 -1      4088 2.00037E+01-1.44106E-03-3.22700E-06-2.76407E-04 5.69177E-13 4.68183E-13
 -1      4089 2.00041E+01-1.10358E-03 8.45593E-06-3.23782E-04 5.16543E-13 5.28030E-13
 -1      4090 2.00041E+01-1.07503E-03 1.01311E-05 2.80036E-04 5.45347E-13 4.93171E-13
 -1      4091 1.71597E+01-1.24973E-01 3.63486E-02 2.78224E+00-1.89940E-13 2.00933E-13
 -1      4092 2.00044E+01 9.84025E-05-8.78468E-07 1.88621E-03 4.25118E-14-3.74471E-13
 -1      4093 2.07794E+01-6.05009E-01-2.95819E-03-1.81876E+00 7.64128E-14 2.54442E-13
 -1      4094 2.00043E+01-6.50208E-04-6.45124E-06 1.30082E-03 2.98275E-13-2.93814E-13
 -1      4095 2.00045E+01-6.47496E-04-5.01419E-06 8.15220E-04 3.58546E-13-1.63437E-14
 -1      4096 2.07027E+01-1.80270E+00-2.25608E-02 2.23087E+00 7.02908E-14 3.84421E-13
 -1      4097 1.62380E+01 7.05260E-01-5.24105E-03 1.99103E+00-1.50775E-13 1.02441E-13
 -1      4098 1.59758E+01 1.05157E+00-2.17328E-02 1.34344E+00-1.49314E-13 6.22002E-14
 -1      4099 1.66223E+01 1.14866E+00 1.03931E-02 1.05349E+00-9.49384E-14 2.97250E-14
 -1      4100 2.00041E+01-1.15145E-04 1.08705E-05-1.99456E-03-4.82816E-14 5.10076E-13
 -1      4101 2.00047E+01 2.60485E-04-1.50663E-05-1.60201E-03 3.87535E-14 6.53192E-13
 -1      4102 2.00038E+01-5.36423E-04-3.90941E-08-2.01712E-03-4.19485E-14 4.46642E-13
 -1      4103 2.11375E+01-1.41445E+00 3.00964E-02-2.45867E+00 1.19191E-13 2.00583E-13
 -1      4104 2.22513E+01-1.96126E+00-3.83300E-02-1.72076E+00 7.82735E-14 1.44985E-13
 -1      4105 1.87814E+01-1.34522E-01 1.74608E-02-3.01204E+00 1.91549E-13 3.33498E-13
 -1      4106 2.01227E+01-9.71968E-01-3.12492E-02-2.80428E+00 1.41930E-13 2.65588E-13
 -1      4107 2.30497E+01-2.01768E+00 4.05629E-02-1.08587E+00 6.21660E-14 1.46881E-13
 -1      4108 2.00038E+01-8.29559E-04-1.62173E-07 1.89214E-03 2.14570E-13-3.38892E-13
 -1      4109 1.98962E+01-1.64986E+00 2.01132E-02 2.83797E+00 7.16059E-14 3.92576E-13
 -1      4110 1.83527E+01-5.61810E-01-3.68142E-02 2.59191E+00-1.51119E-13 3.30091E-13
 -1      4111 1.71266E+01 2.12392E-01 8.21305E-03 2.34699E+00-1.92649E-13 2.61236E-13
 -1      4112 1.74854E+01 3.84417E-01-1.77229E-03 1.92179E+00-2.07166E-13 2.51509E-13
 -1      4113 2.00044E+01-3.27029E-04 3.85086E-06 1.62014E-03 2.25893E-13-3.61652E-13
 -1      4114 1.47246E+01 1.74685E+00 3.18439E-02-2.31145E+00 2.43496E-13 5.60879E-13
 -1      4115 1.55874E+01 1.42904E+00-3.46783E-02-2.63247E+00 2.41704E-13 5.31908E-13
 -1      4116 2.00050E+01 3.00632E-04 4.13127E-06 1.31617E-03-2.21121E-14-2.31487E-13
 -1      4117 1.70056E+01 7.84186E-01 2.86001E-02-3.02459E+00 2.38188E-13 4.64338E-13
 -1      4118 1.77642E+01 2.09263E-01-1.07001E-02-3.23795E+00 2.32577E-13 4.04864E-13
 -1      4119 2.00040E+01-7.11409E-04-1.36710E-05-1.62040E-03 1.45703E-13 2.38821E-13
 -1      4120 2.00043E+01-6.77398E-04 4.14963E-06-1.12448E-03 2.50065E-13 5.18554E-13
 -1      4121 2.00047E+01-1.92668E-04 1.14782E-05-1.12091E-03 6.83419E-14 6.03089E-13
 -1      4122 2.00044E+01-6.96502E-04-9.58319E-06-6.45689E-04 3.15037E-13 6.15709E-13
 -1      4123 1.94225E+01-1.03726E+00 4.12535E-03 2.45736E+00-3.18356E-14 4.12780E-13
 -1      4124 2.00050E+01 3.44729E-04 4.88325E-06-1.13966E-03-6.00781E-14 6.65867E-13
 -1      4125 2.00053E+01 9.48024E-04 1.53497E-05-1.10125E-03 4.94556E-16 6.34233E-13
 -1      4126 2.00052E+01 3.54745E-04-1.41537E-05-6.79770E-04-6.88896E-14 8.17468E-13
 -1      4127 1.69549E+01 1.15532E+00-2.19082E-02 8.07426E-01 1.23705E-14-1.00028E-14
 -1      4128 1.74389E+01 1.16184E+00 1.85157E-03 6.09078E-01 4.66120E-15 2.96399E-14
 -1      4129 1.70845E+01 1.01513E+00 2.52285E-02 1.24837E+00-7.74188E-14-6.57287E-15
 -1      4130 1.77176E+01 1.13922E+00-1.23897E-02 4.27365E-01 4.20538E-14 5.77723E-14
 -1      4131 1.80646E+01 1.11057E+00 2.26874E-03 3.02134E-01 1.31324E-13 1.29503E-13
 -1      4132 1.77561E+01 1.03318E+00 8.49681E-03 7.52595E-01 8.61228E-14 3.86280E-15
 -1      4133 1.82857E+01 1.05694E+00-8.57413E-03 1.85972E-01 1.12811E-13 1.53213E-13
 -1      4134 1.85430E+01 1.00716E+00 1.37429E-03 1.09029E-01 1.60798E-13 1.34439E-13
 -1      4135 1.82697E+01 1.00744E+00 6.10962E-03 4.24540E-01 1.09030E-13 1.28089E-13
 -1      4136 1.87185E+01 9.41745E-01-6.04127E-03 3.71482E-02 9.25443E-14 1.61893E-13
 -1      4137 1.89112E+01 8.82178E-01 6.80393E-04-5.92092E-03-3.02726E-15 1.34377E-13
 -1      4138 1.86804E+01 9.27570E-01 5.14767E-03 2.13030E-01 1.03086E-13 7.26539E-14
 -1      4139 1.90494E+01 8.14012E-01-4.29983E-03-4.76152E-02-9.37577E-14 2.06248E-13
 -1      4140 1.91936E+01 7.52506E-01 1.81674E-04-6.79023E-02-1.24130E-13 1.66835E-13
 -1      4141 1.90034E+01 8.21388E-01 4.21479E-03 8.15701E-02-1.98683E-14 1.46310E-13
 -1      4142 1.93018E+01 6.87033E-01-3.04079E-03-8.94522E-02-1.21053E-14 1.66341E-13
 -1      4143 1.94091E+01 6.28255E-01-1.48247E-04-9.52273E-02 2.60530E-14 1.59602E-13
 -1      4144 1.92555E+01 7.06539E-01 3.40564E-03 4.84710E-03-4.43228E-14 2.46292E-13
 -1      4145 1.94930E+01 5.68508E-01-2.12759E-03-1.03955E-01-1.84460E-14 1.63450E-13
 -1      4146 1.95725E+01 5.15030E-01-3.39363E-04-1.01155E-01-5.41020E-14 1.46039E-13
 -1      4147 1.94508E+01 5.93702E-01 2.72355E-03-3.56162E-02-8.03464E-15 1.98578E-13
 -1      4148 1.96369E+01 4.62413E-01-1.46986E-03-1.02218E-01-6.88778E-14 1.79587E-13
 -1      4149 1.96953E+01 4.15409E-01-4.27277E-04-9.49245E-02-1.01496E-13 2.04708E-13
 -1      4150 1.96006E+01 4.89091E-01 2.15556E-03-5.30849E-02-8.05328E-14 9.39360E-14
 -1      4151 1.97443E+01 3.70290E-01-1.00208E-03-9.18179E-02-1.36027E-13 1.43652E-13
 -1      4152 1.97868E+01 3.30050E-01-4.45042E-04-8.26921E-02-1.39748E-13 1.33682E-13
 -1      4153 1.97144E+01 3.95888E-01 1.68757E-03-5.67987E-02-1.21932E-13 7.71500E-14
 -1      4154 1.98236E+01 2.92172E-01-6.74128E-04-7.76783E-02-1.75844E-13 2.39882E-13
 -1      4155 1.98542E+01 2.58450E-01-4.19528E-04-6.83506E-02-1.88601E-13 3.42959E-13
 -1      4156 1.97998E+01 3.15280E-01 1.30617E-03-5.29639E-02-8.99737E-14 2.54498E-13
 -1      4157 1.98814E+01 2.27216E-01-4.47425E-04-6.28136E-02-5.57533E-14 4.51512E-13
 -1      4158 1.99033E+01 1.99467E-01-3.70728E-04-5.41951E-02 9.46899E-14 4.84678E-13
 -1      4159 1.98632E+01 2.47202E-01 9.98845E-04-4.55739E-02-4.32462E-14 3.40973E-13
 -1      4160 1.99232E+01 1.74119E-01-2.92765E-04-4.89171E-02 8.40931E-14 4.38788E-13
 -1      4161 1.99385E+01 1.51659E-01-3.12452E-04-4.14432E-02 1.10137E-13 3.71699E-13
 -1      4162 1.99095E+01 1.90848E-01 7.54046E-04-3.70643E-02 7.54367E-14 3.69609E-13
 -1      4163 1.99527E+01 1.31390E-01-1.88530E-04-3.68123E-02 8.79248E-14 3.61769E-13
 -1      4164 1.99633E+01 1.13489E-01-2.53536E-04-3.06193E-02 1.07597E-13 1.93876E-13
 -1      4165 1.99428E+01 1.45022E-01 5.61303E-04-2.88143E-02 1.37847E-13 2.12627E-13
 -1      4166 1.99732E+01 9.75132E-02-1.19080E-04-2.67783E-02 5.51320E-14 2.64876E-13
 -1      4167 1.99803E+01 8.34595E-02-1.99115E-04-2.18283E-02 9.07089E-15 1.43181E-13
 -1      4168 1.99663E+01 1.08366E-01 4.11329E-04-2.15165E-02 1.15403E-13 2.72316E-13
 -1      4169 1.99871E+01 7.10481E-02-7.33305E-05-1.87769E-02-3.14683E-16 1.51629E-13
 -1      4170 1.99917E+01 6.01812E-02-1.51738E-04-1.49407E-02 5.46959E-15 1.42843E-13
 -1      4171 1.99824E+01 7.95064E-02 2.96060E-04-1.54379E-02-5.59437E-14 3.55136E-13
 -1      4172 1.99961E+01 5.06816E-02-4.35574E-05-1.26037E-02 1.08118E-13 4.55793E-14
 -1      4173 1.99990E+01 4.24101E-02-1.12264E-04-9.71400E-03 1.50266E-13 4.26856E-14
 -1      4174 1.99931E+01 5.71402E-02 2.08617E-04-1.05988E-02 1.02372E-13 3.18294E-13
 -1      4175 2.00017E+01 3.52533E-02-2.44555E-05-7.98373E-03 2.03557E-13-3.32492E-14
 -1      4176 2.00033E+01 2.90623E-02-8.05211E-05-5.86714E-03 7.93308E-14 7.08152E-14
 -1      4177 1.99999E+01 4.00849E-02 1.43226E-04-6.88908E-03 1.12952E-13 9.58660E-14
 -1      4178 2.00049E+01 2.37627E-02-1.24198E-05-4.62902E-03 1.86608E-14 1.81518E-13
 -1      4179 2.00057E+01 1.92129E-02-5.57753E-05-3.12401E-03 2.53885E-14 1.89093E-13
 -1      4180 2.00040E+01 2.73000E-02 9.51049E-05-4.14167E-03 1.26391E-13 7.45815E-14
 -1      4181 2.00065E+01 1.53631E-02-5.01898E-06-2.27062E-03-1.07951E-14 6.78711E-14
 -1      4182 2.00067E+01 1.20871E-02-3.70381E-05-1.23604E-03-8.94840E-15 2.48580E-14
 -1      4183 2.00061E+01 1.78920E-02 6.03421E-05-2.17598E-03-9.23298E-14-3.44092E-14
 -1      4184 2.00069E+01 9.35034E-03-6.15841E-07-6.73865E-04-1.21418E-13 8.88131E-14
 -1      4185 2.00067E+01 7.04539E-03-2.32574E-05 8.15416E-06-1.30922E-13 1.26815E-13
 -1      4186 2.00069E+01 1.11097E-02 3.57716E-05-8.21736E-04-8.43847E-14 1.30876E-14
 -1      4187 2.00066E+01 5.14736E-03 1.87331E-06 3.56510E-04-1.20383E-13 1.44026E-13
 -1      4188 2.00063E+01 3.56738E-03-1.33913E-05 7.80853E-04-1.53894E-13 3.96052E-14
 -1      4189 2.00068E+01 6.33154E-03 1.87928E-05 6.94693E-05-1.43326E-13 2.00351E-13
 -1      4190 2.00059E+01 2.28602E-03 3.22968E-06 9.77721E-04-2.31731E-13-1.51066E-13
 -1      4191 2.00055E+01 1.22905E-03-6.48211E-06 1.22049E-03-3.43125E-13-1.44154E-13
 -1      4192 2.00063E+01 3.05051E-03 7.19781E-06 6.21898E-04-3.64980E-13 1.05120E-13
 -1      4193 1.92011E+01 2.43533E-01-3.15606E-03 1.07243E+00-4.77833E-14 5.85641E-13
 -1      4194 1.92546E+01 1.23472E-01 7.70488E-03 1.21841E+00-6.96070E-14 5.78113E-13
 -1      4195 1.92536E+01 3.99562E-01-3.59049E-03 7.95881E-01 4.37451E-14 5.11455E-13
 -1      4196 1.92628E+01 3.38915E-01 6.61775E-03 9.13674E-01 4.38054E-14 5.90614E-13
 -1      4197 1.90102E+01 4.11409E-01-5.54491E-04 9.80348E-01-1.39509E-14 4.46836E-13
 -1      4198 1.93473E+01 4.66358E-01-3.39198E-03 5.84132E-01 7.54574E-15 4.33892E-13
 -1      4199 1.93295E+01 4.45024E-01 4.46128E-03 6.76300E-01 2.62588E-14 5.12831E-13
 -1      4200 1.91385E+01 5.18335E-01 1.11065E-03 7.00867E-01 4.72608E-14 3.33551E-13
 -1      4201 1.94545E+01 4.74848E-01-2.95053E-03 4.25451E-01-4.92551E-14 2.17129E-13
 -1      4202 1.94238E+01 4.78659E-01 2.91086E-03 4.96068E-01 1.55920E-14 3.05261E-13
 -1      4203 1.92803E+01 5.47018E-01 1.78112E-03 4.96092E-01 8.21487E-14 2.10217E-13
 -1      4204 1.95602E+01 4.47575E-01-2.45651E-03 3.08047E-01 4.26991E-14 2.50045E-13
 -1      4205 1.95251E+01 4.66292E-01 1.84199E-03 3.61492E-01-7.02648E-14 1.88056E-13
 -1      4206 1.94178E+01 5.27485E-01 1.98520E-03 3.48404E-01-5.44193E-14 1.71703E-13
 -1      4207 1.96561E+01 4.00654E-01-1.98983E-03 2.21938E-01-8.36258E-14 2.88687E-13
 -1      4208 1.96218E+01 4.27058E-01 1.12133E-03 2.62089E-01 3.32124E-14 2.63857E-13
 -1      4209 1.95419E+01 4.80370E-01 1.93696E-03 2.43178E-01-3.30430E-14 1.71447E-13
 -1      4210 1.97388E+01 3.45182E-01-1.58064E-03 1.59143E-01-4.48641E-14 4.50940E-13
 -1      4211 1.97079E+01 3.74385E-01 6.49797E-04 1.89175E-01-1.44878E-13 3.19104E-13
 -1      4212 1.96488E+01 4.19887E-01 1.75685E-03 1.68906E-01-1.00198E-13 2.40033E-13
 -1      4213 1.98072E+01 2.88427E-01-1.23643E-03 1.13512E-01-3.33792E-14 5.72299E-13
 -1      4214 1.97809E+01 3.17299E-01 3.52315E-04 1.35916E-01 2.88696E-14 5.43323E-13
 -1      4215 1.97375E+01 3.55476E-01 1.51810E-03 1.16835E-01-4.68239E-14 4.21753E-13
 -1      4216 1.98621E+01 2.34832E-01-9.54436E-04 8.04311E-02 1.48391E-13 5.09710E-13
 -1      4217 1.98406E+01 2.61520E-01 1.72858E-04 9.71098E-02 7.16830E-14 6.14411E-13
 -1      4218 1.98090E+01 2.93066E-01 1.26494E-03 8.04892E-02 1.48550E-14 5.34508E-13
 -1      4219 1.99047E+01 1.86826E-01-7.27683E-04 5.64910E-02 4.22787E-14 4.64007E-13
 -1      4220 1.98879E+01 2.10378E-01 7.07177E-05 6.88794E-02 1.84132E-13 4.92272E-13
 -1      4221 1.98651E+01 2.36073E-01 1.02306E-03 5.51814E-02 2.00264E-13 4.80703E-13
 -1      4222 1.99371E+01 1.45464E-01-5.47966E-04 3.92030E-02-1.99029E-15 2.13809E-13
 -1      4223 1.99243E+01 1.65529E-01 1.72239E-05 4.83750E-02-9.40477E-15 3.12638E-13
 -1      4224 1.99081E+01 1.86168E-01 8.06077E-04 3.75795E-02 9.26528E-14 5.00405E-13
 -1      4225 1.99609E+01 1.10907E-01-4.07262E-04 2.67590E-02 1.56239E-13 3.15566E-13
 -1      4226 1.99515E+01 1.27520E-01-7.13329E-06 3.35172E-02-3.10418E-14 1.50760E-13
 -1      4227 1.99402E+01 1.43869E-01 6.19838E-04 2.53432E-02 9.34725E-14 2.03605E-13
 -1      4228 1.99779E+01 8.27746E-02-2.98339E-04 1.78466E-02 6.78570E-14 4.73248E-13
 -1      4229 1.99712E+01 9.61960E-02-1.51400E-05 2.27924E-02 1.93271E-13 4.28542E-13
 -1      4230 1.99635E+01 1.08963E-01 4.65363E-04 1.68434E-02 6.91747E-14 1.34857E-13
 -1      4231 1.99897E+01 6.03953E-02-2.14957E-04 1.15117E-02 1.46417E-13 2.68122E-13
 -1      4232 1.99851E+01 7.09999E-02-1.48244E-05 1.50974E-02 4.91921E-14 3.48310E-13
 -1      4233 1.99800E+01 8.08222E-02 3.40838E-04 1.09506E-02 8.87227E-14 1.65870E-13
 -1      4234 1.99975E+01 4.29709E-02-1.51872E-04 7.05740E-03 2.13337E-13 2.63367E-13
 -1      4235 1.99945E+01 5.11756E-02-1.09714E-05 9.62493E-03 2.55286E-13 3.75264E-13
 -1      4236 1.99913E+01 5.86142E-02 2.42969E-04 6.88237E-03 1.33400E-13 2.45210E-13
 -1      4237 2.00023E+01 2.96850E-02-1.04753E-04 3.97238E-03 2.41817E-14 5.15437E-13
 -1      4238 2.00005E+01 3.59025E-02-6.24137E-06 5.78132E-03 8.94075E-14 3.69615E-13
 -1      4239 1.99986E+01 4.14400E-02 1.67861E-04 4.09488E-03 1.01054E-13 4.70329E-13
 -1      4240 2.00050E+01 1.97671E-02-7.00647E-05 1.87975E-03-3.87392E-14 3.90802E-13
 -1      4241 2.00041E+01 2.43795E-02-1.96120E-06 3.12749E-03 1.54014E-14 4.75639E-13
 -1      4242 2.00031E+01 2.84237E-02 1.11569E-04 2.20823E-03 4.31657E-14 4.80865E-13
 -1      4243 2.00063E+01 1.25268E-02-4.49458E-05 5.00917E-04-1.53154E-13 4.27578E-13
 -1      4244 2.00059E+01 1.58717E-02 1.33899E-06 1.33753E-03-1.12626E-13 3.40672E-13
 -1      4245 2.00056E+01 1.87615E-02 7.04198E-05 9.55139E-04-2.80138E-14 4.30060E-13
 -1      4246 2.00066E+01 7.36727E-03-2.67961E-05-3.69918E-04-1.71387E-13 4.09750E-13
 -1      4247 2.00066E+01 9.73369E-03 3.61530E-06 1.69026E-04-2.18403E-13 3.40146E-13
 -1      4248 2.00066E+01 1.17460E-02 4.11693E-05 1.46244E-04-1.84491E-13 3.35366E-13
 -1      4249 2.00062E+01 3.79448E-03-1.24642E-05-8.76696E-04 1.26664E-13 2.26440E-13
 -1      4250 2.00065E+01 5.41699E-03 5.95905E-06-5.60382E-04 1.04915E-14 3.65455E-13
 -1      4251 2.00068E+01 6.77378E-03 2.05565E-05-3.53795E-04-8.26384E-14 3.54382E-13
 -1      4252 2.00056E+01 1.65796E-03-1.93809E-06-1.09426E-03 2.30699E-13 2.95923E-13
 -1      4253 2.00060E+01 2.79402E-03 1.30587E-05-9.25704E-04 1.81170E-13 2.49818E-13
 -1      4254 2.00064E+01 3.66956E-03 1.14881E-06-5.99644E-04 1.44331E-13 2.00828E-13
 -1      4255 2.00058E+01 1.71923E-03-1.89745E-05-6.71222E-04-1.33101E-14 2.82937E-13
 -1      4256 2.07914E+01-8.07428E-01 1.88415E-02-2.12279E+00 1.13129E-13 2.44281E-13
 -1      4257 2.21996E+01-1.60008E+00-1.45063E-02-1.29594E+00 7.73140E-14 1.78637E-13
 -1      4258 1.41827E+01 2.17381E+00 3.51919E-02-1.20643E+00 2.46300E-13 4.54078E-13
 -1      4259 2.00054E+01 7.60680E-04-1.91145E-06 9.34849E-04-2.29744E-13-1.04860E-13
 -1      4260 2.00049E+01-1.13329E-04 1.93795E-05 7.28109E-04 1.99893E-13 1.88400E-14
 -1      4261 2.00045E+01-6.41283E-04-7.08186E-06 5.06852E-04 3.61970E-13 2.61691E-13
 -1      4262 2.00046E+01-6.60045E-04-7.20581E-06 2.23990E-04 3.48411E-13 5.13830E-13
 -1      4263 2.15893E+01-1.04750E+00 1.58782E-02-1.49026E+00 5.15868E-14 1.92131E-13
 -1      4264 1.92348E+01-3.38060E-02-1.87243E-04 1.41354E+00-5.36596E-14 6.50320E-13
 -1      4265 1.93689E+01-2.35036E-01 1.02073E-02 1.58810E+00-1.94001E-14 6.48170E-13
 -1      4266 1.89389E+01 1.79538E-01-3.59023E-03 1.34830E+00-3.94864E-14 5.23022E-13
 -1      4267 1.93872E+01-6.57344E-01 2.51288E-02 2.11040E+00-6.06190E-14 5.03941E-13
 -1      4268 1.91315E+01-3.69410E-01 3.87431E-03 1.91228E+00-8.47384E-14 5.33243E-13
 -1      4269 1.77573E+01 5.10571E-01 7.00886E-04 1.58771E+00-1.28950E-13 2.40713E-13
 -1      4270 2.00045E+01-6.76264E-04-7.67792E-07-3.47191E-04 3.29275E-13 5.86263E-13
 -1      4271 1.86384E+01-4.13384E-02-5.90539E-03 1.84687E+00-1.25372E-13 5.38062E-13
 -1      4272 1.77805E+01 8.36247E-01-1.06111E-02 1.05375E+00 8.36839E-14 8.95564E-14
 -1      4273 1.81114E+01 8.66608E-01 6.53977E-03 8.43255E-01 1.26253E-13 1.34655E-13
 -1      4274 1.82638E+01 8.73843E-01-9.81285E-03 6.63292E-01 1.36028E-13 1.06726E-13
 -1      4275 1.85067E+01 8.73315E-01 3.22138E-03 5.23093E-01 1.28967E-13 9.01108E-14
 -1      4276 1.83862E+01 7.15837E-01 2.88056E-03 9.42510E-01 1.16411E-13 1.00521E-13
 -1      4277 1.86429E+01 8.49856E-01-7.91572E-03 3.97316E-01 7.98049E-14 7.06802E-14
 -1      4278 1.88358E+01 8.22457E-01 1.64511E-03 3.06358E-01 8.30688E-14 4.83369E-14
 -1      4279 1.87022E+01 7.60390E-01 4.41277E-03 6.15174E-01 1.13393E-13 7.07087E-14
 -1      4280 1.89540E+01 7.81706E-01-5.85291E-03 2.22163E-01 7.86761E-14 1.01115E-13
 -1      4281 1.91047E+01 7.40166E-01 7.17553E-04 1.65681E-01-1.40002E-14 1.84663E-13
 -1      4282 1.89710E+01 7.38476E-01 4.09154E-03 3.90378E-01 7.49404E-14 4.13038E-14
 -1      4283 1.92045E+01 6.91432E-01-4.26918E-03 1.11075E-01-5.04923E-14 2.06811E-13
 -1      4284 1.93212E+01 6.44068E-01 1.37630E-04 7.80806E-02-2.71469E-14 1.91495E-13
 -1      4285 1.91983E+01 6.77936E-01 3.63781E-03 2.39687E-01-1.03474E-15 1.07448E-13
 -1      4286 1.94035E+01 5.93612E-01-3.08388E-03 4.38787E-02 2.03651E-14 1.24090E-13
 -1      4287 1.94930E+01 5.45754E-01-2.03551E-04 2.63483E-02-1.75192E-14 7.98060E-14
 -1      4288 1.93861E+01 5.98107E-01 3.12712E-03 1.41302E-01-5.85890E-14 1.69017E-13
 -1      4289 1.95595E+01 4.97428E-01-2.20607E-03 5.82513E-03-9.49667E-14 1.53144E-13
 -1      4290 1.96276E+01 4.52294E-01-3.80261E-04-1.95155E-03-6.89180E-14 1.80343E-13
 -1      4291 1.95382E+01 5.11819E-01 2.61566E-03 7.89484E-02-6.02443E-14 1.00840E-13
 -1      4292 1.96803E+01 4.08271E-01-1.56299E-03-1.35892E-02-7.22027E-14 1.44734E-13
 -1      4293 1.97315E+01 3.67616E-01-4.48061E-04-1.55522E-02-8.41617E-14 1.11980E-13
 -1      4294 1.96592E+01 4.27171E-01 2.13862E-03 4.07800E-02-8.44448E-14 1.52787E-13
 -1      4295 1.97726E+01 3.28928E-01-1.09708E-03-2.16242E-02-4.65333E-14 1.95218E-13
 -1      4296 1.98107E+01 2.93522E-01-4.48040E-04-2.03960E-02-7.48845E-14 2.36187E-13
 -1      4297 1.97536E+01 3.48922E-01 1.71401E-03 1.83981E-02-4.51992E-14 1.98838E-13
 -1      4298 1.98421E+01 2.60457E-01-7.63065E-04-2.31325E-02-3.21056E-14 3.15366E-13
 -1      4299 1.98700E+01 2.30434E-01-4.09565E-04-2.03869E-02 3.40195E-14 3.28504E-13
 -1      4300 1.98262E+01 2.79520E-01 1.34865E-03 6.00462E-03 4.86720E-14 1.69528E-13
 -1      4301 1.98936E+01 2.02817E-01-5.25818E-04-2.12373E-02 7.15299E-14 2.73661E-13
 -1      4302 1.99138E+01 1.77921E-01-3.52697E-04-1.79884E-02 1.71512E-13 2.87074E-13
 -1      4303 1.98809E+01 2.19875E-01 1.04259E-03-2.92971E-04 9.23453E-14 2.68703E-13
 -1      4304 1.99312E+01 1.55310E-01-3.58666E-04-1.78602E-02 1.79997E-13 2.75287E-13
 -1      4305 1.99455E+01 1.35068E-01-2.90387E-04-1.46798E-02 1.61975E-13 3.65836E-13
 -1      4306 1.99214E+01 1.69913E-01 7.91869E-04-3.03183E-03 1.74981E-13 2.99150E-13
 -1      4307 1.99580E+01 1.16888E-01-2.41738E-04-1.41165E-02 1.27938E-13 3.52946E-13
 -1      4308 1.99680E+01 1.00725E-01-2.30396E-04-1.12916E-02 5.83655E-14 2.80577E-13
 -1      4309 1.99508E+01 1.28971E-01 5.90523E-04-3.81351E-03 1.32734E-13 3.76013E-13
 -1      4310 1.99768E+01 8.63562E-02-1.60491E-04-1.06003E-02 2.75946E-14 2.28882E-13
 -1      4311 1.99835E+01 7.36724E-02-1.76866E-04-8.24323E-03 4.24387E-14 2.64531E-13
 -1      4312 1.99716E+01 9.60770E-02 4.31759E-04-3.61245E-03 3.37921E-14 1.84362E-13
 -1      4313 1.99894E+01 6.25041E-02-1.04430E-04-7.58287E-03 1.22225E-14 2.68647E-13
 -1      4314 1.99938E+01 5.27194E-02-1.31551E-04-5.70498E-03 3.92651E-14 1.49817E-13
 -1      4315 1.99859E+01 7.01340E-02 3.08760E-04-2.99536E-03 1.47548E-14 1.19684E-13
 -1      4316 1.99977E+01 4.41850E-02-6.60643E-05-5.14605E-03 1.28184E-13 1.19437E-13
 -1      4317 2.00004E+01 3.67680E-02-9.47181E-05-3.70589E-03 1.71807E-13 7.15585E-14
 -1      4318 1.99954E+01 5.00381E-02 2.15142E-04-2.27227E-03 1.74210E-14 6.59564E-14
 -1      4319 2.00027E+01 3.03609E-02-4.00828E-05-3.26876E-03 4.77274E-14 1.26261E-13
 -1      4320 2.00042E+01 2.48419E-02-6.57869E-05-2.20185E-03 6.07651E-15 2.37342E-14
 -1      4321 2.00013E+01 3.47514E-02 1.45193E-04-1.59757E-03 1.07185E-13 1.95870E-13
 -1      4322 2.00055E+01 2.01225E-02-2.27377E-05-1.88089E-03-2.45689E-14-4.16786E-14
 -1      4323 2.00062E+01 1.60974E-02-4.37587E-05-1.11722E-03-1.75192E-13-5.50830E-14
 -1      4324 2.00048E+01 2.33407E-02 9.39663E-05-1.03538E-03-2.90761E-14 2.13009E-13
 -1      4325 2.00068E+01 1.26933E-02-1.13825E-05-8.95203E-04-1.22367E-13-5.83071E-14
 -1      4326 2.00069E+01 9.82249E-03-2.74698E-05-3.68762E-04 2.18908E-14-5.14387E-14
 -1      4327 2.00065E+01 1.49943E-02 5.72923E-05-6.00682E-04-4.46413E-14 1.63471E-13
 -1      4328 2.00070E+01 7.42409E-03-4.11393E-06-2.24950E-04 5.68164E-14-8.78158E-14
 -1      4329 2.00068E+01 5.42571E-03-1.64669E-05 1.22163E-04-9.39973E-14 1.87135E-14
 -1      4330 2.00070E+01 9.02345E-03 3.16215E-05-2.84117E-04-2.56485E-16-6.28952E-14
 -1      4331 2.00066E+01 3.78481E-03 1.47397E-06 2.04341E-04-3.79126E-13 8.92568E-14
 -1      4332 2.00062E+01 2.42698E-03-9.78856E-06 4.25205E-04-5.06538E-13 2.25469E-14
 -1      4333 2.00068E+01 4.85099E-03 1.25002E-05-6.87036E-05-1.36579E-13-1.16371E-13
 -1      4334 1.82009E+01 3.31183E-01 6.43830E-04 1.63679E+00-7.66800E-14 2.76805E-13
 -1      4335 1.92063E+01 6.18099E-01-4.65514E-03 3.61565E-01 9.98549E-14 7.79159E-14
 -1      4336 1.91399E+01 6.35089E-01 2.15604E-03 4.44323E-01 7.64919E-14 9.85144E-14
 -1      4337 1.87940E+01 6.04863E-01-7.11448E-03 7.95753E-01 1.02281E-13 1.82764E-13
 -1      4338 1.87497E+01 5.59367E-01 7.27965E-03 9.54176E-01 1.73853E-14 2.37389E-13
 -1      4339 1.93782E+01 5.65059E-01-3.60976E-03 2.38390E-01-7.51756E-14 7.82828E-14
 -1      4340 1.93151E+01 5.95179E-01 1.06283E-03 2.96849E-01-1.32525E-14 1.68567E-13
 -1      4341 1.95230E+01 4.96235E-01-2.75731E-03 1.55002E-01-8.64974E-14 1.16189E-13
 -1      4342 1.94668E+01 5.32307E-01 3.86983E-04 1.95824E-01-1.20598E-13 7.74635E-14
 -1      4343 1.96418E+01 4.22426E-01-2.08090E-03 9.94487E-02-8.05475E-14 1.25292E-13
 -1      4344 1.95940E+01 4.59732E-01-8.94687E-06 1.27706E-01-4.29896E-14 1.53162E-13
 -1      4345 1.97370E+01 3.50460E-01-1.55432E-03 6.29865E-02-6.22492E-14 2.12690E-13
 -1      4346 1.96976E+01 3.86073E-01-2.19420E-04 8.24297E-02-1.26020E-13 1.64832E-13
 -1      4347 1.98116E+01 2.84319E-01-1.15014E-03 3.93810E-02 7.32611E-14 2.04473E-13
 -1      4348 1.97801E+01 3.16588E-01-3.10820E-04 5.27148E-02 3.21256E-14 2.74462E-13
 -1      4349 1.98689E+01 2.26016E-01-8.43314E-04 2.42894E-02 1.03732E-13 2.73425E-13
 -1      4350 1.98443E+01 2.54165E-01-3.29609E-04 3.34243E-02 1.38975E-13 2.66507E-13
 -1      4351 1.99119E+01 1.76242E-01-6.12438E-04 1.47500E-02 1.56249E-13 2.66964E-13
 -1      4352 1.98933E+01 2.00076E-01-3.07582E-04 2.10137E-02 1.32628E-13 3.55225E-13
 -1      4353 1.99436E+01 1.34850E-01-4.40031E-04 8.78247E-03 1.47009E-13 2.16218E-13
 -1      4354 1.99298E+01 1.54534E-01-2.65733E-04 1.30860E-02 1.78518E-13 3.14688E-13
 -1      4355 1.99663E+01 1.01202E-01-3.12200E-04 5.08544E-03 6.09040E-14 1.54922E-13
 -1      4356 1.99564E+01 1.17107E-01-2.17248E-04 8.04873E-03 6.07417E-14 1.16466E-13
 -1      4357 1.99822E+01 7.44053E-02-2.18118E-04 2.81728E-03 4.86286E-14 1.57254E-13
 -1      4358 1.99753E+01 8.70023E-02-1.69848E-04 4.86042E-03 3.19607E-14 1.53085E-13
 -1      4359 1.99929E+01 5.34761E-02-1.49448E-04 1.44096E-03 1.95487E-14 2.61088E-13
 -1      4360 1.99882E+01 6.32632E-02-1.27579E-04 2.84864E-03 5.59077E-14 1.49802E-13
 -1      4361 1.99997E+01 3.74385E-02-9.98225E-05 6.17746E-04 1.66268E-13 2.75801E-13
 -1      4362 1.99968E+01 4.48988E-02-9.21252E-05 1.58372E-03 1.12315E-13 2.46219E-13
 -1      4363 2.00038E+01 2.53859E-02-6.43980E-05 1.35895E-04 2.56483E-14 3.52125E-13
 -1      4364 2.00021E+01 3.09622E-02-6.37453E-05 7.93045E-04 1.01481E-13 3.73041E-13
 -1      4365 2.00060E+01 1.65122E-02-3.94940E-05-1.36153E-04-4.28125E-14 3.64021E-13
 -1      4366 2.00051E+01 2.05939E-02-4.19071E-05 3.04209E-04 1.11425E-14 4.44589E-13
 -1      4367 2.00068E+01 1.01227E-02-2.22493E-05-2.79815E-04-1.13100E-13 2.97815E-13
 -1      4368 2.00066E+01 1.30430E-02-2.56862E-05 8.13986E-06-4.69821E-14 3.55203E-13
 -1      4369 2.00068E+01 5.63815E-03-8.78696E-06-3.43063E-04-1.19203E-14 5.75641E-14
 -1      4370 2.00069E+01 7.67068E-03-1.38741E-05-1.64442E-04-8.14072E-14 1.06099E-13
 -1      4371 2.00050E+01-1.39728E-04 8.89158E-06-1.18213E-04 1.26103E-13 6.37786E-13
 -1      4372 2.00058E+01 1.28681E-03 5.86831E-06 4.64694E-04-4.27618E-13 1.74183E-13
 -1      4373 2.00052E+01 3.08298E-04-9.38134E-06 5.84089E-04-1.12814E-13 1.71374E-13
 -1      4374 1.85628E+01 3.68789E-01 6.36467E-03 1.36897E+00 1.10975E-14 4.16818E-13
 -1      4375 2.00053E+01 4.13468E-04 1.65607E-06-1.30324E-04-5.46013E-14 6.26847E-13
 -1      4376 2.00061E+01 1.96150E-03-2.87442E-06 7.42121E-05-3.22802E-13 3.96461E-13
 -1      4377 1.90094E+01 6.39126E-01-5.88042E-03 5.40428E-01 5.46870E-14 1.42432E-13
 -1      4378 1.89465E+01 6.32472E-01 3.88911E-03 6.55945E-01 5.98152E-14 1.84630E-13
 -1      4379 2.00064E+01 2.90113E-03 5.68606E-06-3.37070E-04-4.46876E-14 2.34765E-13
 -1      4380 2.00059E+01 1.66972E-03 6.54381E-07-2.89566E-04-1.16991E-13 4.96273E-13
 -1      4381 1.85745E+01 4.83520E-01-7.49612E-03 1.15879E+00 4.08744E-15 3.82825E-13
 -1      4382 2.00066E+01 3.95198E-03-5.69418E-06-2.62985E-04-7.51404E-14 1.52223E-13
 -1      4383 2.00053E+01 3.16249E-04-1.85034E-05 2.98191E-04-1.61925E-13 5.44133E-13
 -1      4384 2.00056E+01 9.49928E-04 1.94026E-05-3.13937E-04-2.87109E-13 7.11472E-13
 -3
    1PSTEP                         3           1           1          
  100CL  101 1.000000000        4384                     0    1           1
 -4  TOSTRAIN    6    1
 -5  EXX         1    4    1    1
 -5  EYY         1    4    2    2
 -5  EZZ         1    4    3    3
 -5  EXY         1    4    1    2
 -5  EYZ         1    4    2    3
 -5  EZX         1    4    3    1
 -1         1 6.15127E-06-1.26226E-06-8.53055E-06 3.40047E-06 1.44305E-17 9.98398E-18
 -1         2 3.76874E-05-1.15880E-04 2.13835E-05 1.08505E-06 6.84096E-18 5.85247E-20
 -1         3 9.52374E-05-2.85709E-05-2.85717E-05 2.71810E-10-3.55234E-18-3.82323E-18
 -1         4 9.52374E-05-2.85708E-05-2.85717E-05-4.16519E-10 1.50006E-18-1.17112E-18
 -1         5 1.46575E-04-2.17018E-05-4.39846E-05 3.85992E-05 1.23614E-19-1.21236E-17
 -1         6 1.47856E-04 2.76139E-10-4.61771E-05-5.22131E-05 8.32210E-19-1.54037E-17
 -1         7 9.75718E-05-9.44993E-07-4.13913E-05-2.56030E-05 9.97381E-20-3.33982E-18
 -1         8 9.03034E-05-7.51768E-08-3.83000E-05-1.45836E-05 1.84759E-19 5.49665E-19
 -1         9 8.53217E-05 2.91617E-08-3.63790E-05-9.28864E-06 1.70148E-19 2.75835E-18
 -1        10 8.13467E-05 6.67278E-08-3.48065E-05-6.25792E-06 1.37749E-19 3.87362E-18
 -1        11 7.82763E-05 9.43105E-08-3.35835E-05-4.63198E-06 1.26049E-19 4.43567E-18
 -1        12 7.62585E-05 1.05847E-07-3.27651E-05-3.85620E-06 9.97117E-20 4.76107E-18
 -1        13 7.52908E-05 1.03046E-07-3.23497E-05-3.40332E-06 4.72486E-20 4.99929E-18
 -1        14 7.53351E-05 8.69041E-08-3.23281E-05-2.84881E-06 3.83944E-20 5.21199E-18
 -1        15 7.61871E-05 6.33988E-08-3.26291E-05-1.87212E-06 3.88709E-20 5.31438E-18
 -1        16 7.75872E-05 3.93640E-08-3.31588E-05-2.95356E-07 2.71712E-20 5.34826E-18
 -1        17 7.92968E-05 1.95590E-08-3.38288E-05 1.93664E-06-4.42045E-21 5.40931E-18
 -1        18 8.11248E-05 1.24258E-08-3.45679E-05 4.75064E-06-4.24840E-20 5.45204E-18
 -1        19 8.31166E-05 1.79930E-08-3.53966E-05 8.24165E-06-6.55392E-20 5.30348E-18
 -1        20 8.54252E-05 4.28824E-08-3.63842E-05 1.24758E-05-1.35552E-19 4.72717E-18
 -1        21 8.86655E-05 9.48730E-08-3.77740E-05 1.79277E-05-1.51831E-19 3.12194E-18
 -1        22 9.56835E-05-2.61897E-07-4.02781E-05 2.66231E-05-3.61048E-20-9.98480E-19
 -1        23 1.21904E-04-4.11939E-05-3.81047E-05-3.30247E-06 5.99752E-19-1.25107E-17
 -1        24 1.06666E-04-3.18936E-05-3.31295E-05 5.86847E-07 1.84068E-19-9.71177E-18
 -1        25 1.08023E-04-3.25448E-05-3.26373E-05 5.26995E-07 1.34680E-19-6.76843E-18
 -1        26 1.12811E-04-3.39329E-05-3.39232E-05 4.38727E-07 3.13270E-20-5.05239E-18
 -1        27 1.20024E-04-3.60500E-05-3.60750E-05 4.97116E-07 6.58568E-20-3.80347E-18
 -1        28 1.28785E-04-3.86384E-05-3.86248E-05 5.75516E-07 8.15001E-20-2.35065E-18
 -1        29 1.37432E-04-4.12216E-05-4.09831E-05 5.46194E-07-5.09543E-21-1.33307E-18
 -1        30 1.42722E-04-4.28473E-05-4.21711E-05 1.69461E-07 9.77628E-20-1.62656E-18
 -1        31 1.39882E-04-4.20679E-05-4.09987E-05-8.12813E-07-4.42773E-20-2.91051E-18
 -1        32 1.25258E-04-3.76691E-05-3.69486E-05-2.20146E-06-4.80479E-19-4.81252E-18
 -1        33 1.02132E-04-3.04961E-05-3.13439E-05-2.80653E-06 4.55985E-19-5.15684E-18
 -1        34 8.40878E-05-2.47337E-05-2.73323E-05-1.19145E-06-1.21192E-19-3.15001E-18
 -1        35 8.47888E-05-2.49887E-05-2.75384E-05 1.35548E-06 1.51407E-19-1.86268E-18
 -1        36 1.04107E-04-3.10826E-05-3.19043E-05 2.83725E-06 2.90039E-19 9.33219E-19
 -1        37 1.28052E-04-3.85035E-05-3.77724E-05 2.21971E-06-1.70608E-19 1.06165E-18
 -1        38 1.43228E-04-4.30652E-05-4.19979E-05 8.23482E-07-1.94381E-19 2.44369E-19
 -1        39 1.46502E-04-4.39700E-05-4.33147E-05-1.42265E-07 2.35267E-19 9.85602E-19
 -1        40 1.41627E-04-4.24620E-05-4.22561E-05-4.95264E-07-5.13310E-19 4.70712E-19
 -1        41 1.33333E-04-3.99731E-05-4.00100E-05-4.97081E-07 1.13578E-19 4.28016E-19
 -1        42 1.24734E-04-3.74110E-05-3.75205E-05-3.80983E-07-5.10751E-20 1.92431E-18
 -1        43 1.17252E-04-3.51837E-05-3.52859E-05-2.58732E-07 1.64956E-19 2.46739E-18
 -1        44 1.11279E-04-3.34017E-05-3.34749E-05-1.64550E-07 5.61881E-19 2.51068E-18
 -1        45 1.06728E-04-3.20397E-05-3.20859E-05-1.00405E-07 1.73919E-19 2.62898E-18
 -1        46 1.03352E-04-3.10261E-05-3.10530E-05-5.92736E-08 6.12130E-20 3.35614E-18
 -1        47 1.00887E-04-3.02841E-05-3.02989E-05-3.37255E-08 1.36026E-19 5.11988E-18
 -1        48 9.91075E-05-2.97472E-05-2.97547E-05-1.81451E-08-5.43765E-19 5.03367E-18
 -1        49 9.78343E-05-2.93622E-05-2.93657E-05-8.77132E-09 1.18553E-19 2.55464E-18
 -1        50 9.69316E-05-2.90888E-05-2.90900E-05-3.21975E-09 6.23161E-20 2.14005E-18
 -1        51 9.62987E-05-2.88968E-05-2.88968E-05-1.55938E-11 1.47277E-19 4.86556E-18
 -1        52 9.58612E-05-2.87638E-05-2.87633E-05 1.74598E-09-3.12531E-19 5.12524E-18
 -1        53 9.55646E-05-2.86735E-05-2.86727E-05 2.62140E-09-3.44196E-19 3.84427E-18
 -1        54 9.53689E-05-2.86138E-05-2.86129E-05 2.95589E-09-4.52146E-19 1.39021E-18
 -1        55 9.52447E-05-2.85757E-05-2.85748E-05 2.96622E-09 1.71884E-19-7.33302E-19
 -1        56 9.51705E-05-2.85528E-05-2.85520E-05 2.79015E-09-6.36135E-19-2.26628E-18
 -1        57 9.51307E-05-2.85404E-05-2.85397E-05 2.51588E-09 3.26464E-19-1.91000E-18
 -1        58 9.51139E-05-2.85350E-05-2.85344E-05 2.19991E-09-7.14206E-19-3.05160E-18
 -1        59 9.51119E-05-2.85342E-05-2.85337E-05 1.87798E-09 5.39873E-19-2.62825E-19
 -1        60 9.51190E-05-2.85361E-05-2.85357E-05 1.57198E-09-5.52502E-19 3.09984E-19
 -1        61 9.51313E-05-2.85396E-05-2.85393E-05 1.29455E-09-3.02243E-19-2.32511E-18
 -1        62 9.51459E-05-2.85439E-05-2.85436E-05 1.05203E-09 8.70270E-19 1.87048E-18
 -1        63 9.51612E-05-2.85484E-05-2.85482E-05 8.46637E-10 8.76813E-20 6.28442E-18
 -1        64 9.51760E-05-2.85529E-05-2.85527E-05 6.77818E-10 1.65437E-19 9.41456E-18
 -1        65 9.51899E-05-2.85570E-05-2.85568E-05 5.43131E-10-6.54306E-19 3.83787E-18
 -1        66 9.52023E-05-2.85607E-05-2.85606E-05 4.38535E-10-9.40923E-19 3.66242E-19
 -1        67 9.52132E-05-2.85639E-05-2.85639E-05 3.57779E-10 8.75419E-19 5.33227E-19
 -1        68 9.52225E-05-2.85667E-05-2.85666E-05 2.90019E-10 1.49750E-20 2.02963E-18
 -1        69 9.52299E-05-2.85689E-05-2.85688E-05 2.13572E-10-3.03241E-19 1.00215E-18
 -1        70 9.52350E-05-2.85705E-05-2.85703E-05 9.09344E-11 1.03864E-19-8.61011E-19
 -1        71 9.52374E-05-2.85712E-05-2.85712E-05-2.56925E-10-4.19809E-19-2.89103E-18
 -1        72 1.07450E-04-3.21577E-05-3.58282E-05-2.21380E-06-3.36749E-19-9.75920E-18
 -1        73 9.97931E-05-2.96872E-05-3.10374E-05-4.35334E-07-6.03544E-20-5.69712E-18
 -1        74 9.75837E-05-2.92485E-05-2.94638E-05-2.01983E-07-1.72604E-19-2.72819E-18
 -1        75 9.71138E-05-2.91587E-05-2.91019E-05-1.58282E-07-2.52003E-20-3.51095E-19
 -1        76 9.69354E-05-2.91018E-05-2.90026E-05-1.18956E-07-6.18170E-20 1.15589E-18
 -1        77 9.62601E-05-2.88945E-05-2.87852E-05-6.84796E-08 3.41320E-20 2.20883E-18
 -1        78 9.46329E-05-2.84083E-05-2.82929E-05 1.53851E-09 2.55752E-20 3.32533E-18
 -1        79 9.18936E-05-2.75915E-05-2.74869E-05 8.89701E-08-1.61048E-20 4.18052E-18
 -1        80 8.82493E-05-2.65008E-05-2.64378E-05 1.76352E-07-5.17110E-20 3.97292E-18
 -1        81 8.43143E-05-2.53159E-05-2.53266E-05 2.32997E-07 4.48245E-20 4.24598E-18
 -1        82 8.10097E-05-2.43120E-05-2.44098E-05 2.28110E-07-8.36478E-20 4.71004E-18
 -1        83 7.92810E-05-2.37772E-05-2.39414E-05 1.51339E-07-2.84335E-20 5.12127E-18
 -1        84 7.97244E-05-2.38976E-05-2.40777E-05 2.47582E-08 1.56672E-19 4.88661E-18
 -1        85 8.23219E-05-2.46729E-05-2.48122E-05-1.06169E-07-1.74084E-19 5.00518E-18
 -1        86 8.64494E-05-2.59158E-05-2.59789E-05-1.97728E-07 2.10710E-19 4.01856E-18
 -1        87 9.11522E-05-2.73355E-05-2.73204E-05-2.29568E-07-2.40807E-19 3.75429E-18
 -1        88 9.55111E-05-2.86513E-05-2.85823E-05-2.08441E-07-1.34342E-19 4.71842E-18
 -1        89 9.89062E-05-2.96746E-05-2.95843E-05-1.56563E-07 1.46786E-19 3.55153E-18
 -1        90 1.01094E-04-3.03325E-05-3.02472E-05-9.70323E-08-3.08471E-19 3.16935E-18
 -1        91 1.02137E-04-3.06448E-05-3.05788E-05-4.53007E-08-1.75206E-19 5.01428E-18
 -1        92 1.02270E-04-3.06837E-05-3.06407E-05-7.92243E-09 1.50325E-19 5.45419E-18
 -1        93 1.01786E-04-3.05372E-05-3.05144E-05 1.48862E-08-1.18571E-20 4.80067E-18
 -1        94 1.00950E-04-3.02858E-05-3.02778E-05 2.60213E-08 5.23606E-20 3.21226E-18
 -1        95 9.99725E-05-2.99923E-05-2.99936E-05 2.91614E-08-3.27210E-19 4.49357E-18
 -1        96 9.89956E-05-2.96992E-05-2.97055E-05 2.75524E-08 1.53107E-19 7.24745E-18
 -1        97 9.81048E-05-2.94320E-05-2.94403E-05 2.35944E-08 1.44415E-19 6.18981E-18
 -1        98 9.73420E-05-2.92032E-05-2.92117E-05 1.88540E-08-3.47542E-19 5.33142E-18
 -1        99 9.67193E-05-2.90165E-05-2.90241E-05 1.42408E-08 2.40684E-19 3.37649E-18
 -1       100 9.62312E-05-2.88701E-05-2.88764E-05 1.02082E-08-8.65161E-20 1.15501E-18
 -1       101 9.58623E-05-2.87594E-05-2.87643E-05 6.92229E-09 1.18752E-19 1.22987E-18
 -1       102 9.55932E-05-2.86786E-05-2.86823E-05 4.38433E-09-4.19683E-19 2.83261E-18
 -1       103 9.54045E-05-2.86219E-05-2.86246E-05 2.51282E-09 1.37460E-19 4.81142E-18
 -1       104 9.52780E-05-2.85839E-05-2.85857E-05 1.19372E-09 2.25255E-19 5.43756E-18
 -1       105 9.51981E-05-2.85598E-05-2.85610E-05 3.09165E-10 4.68163E-19 5.13131E-18
 -1       106 9.51521E-05-2.85459E-05-2.85467E-05-2.47958E-10-4.94527E-19 2.86606E-18
 -1       107 9.51298E-05-2.85392E-05-2.85396E-05-5.67946E-10-3.30352E-19 1.82065E-18
 -1       108 9.51234E-05-2.85372E-05-2.85374E-05-7.23088E-10 1.61580E-19 2.12525E-18
 -1       109 9.51272E-05-2.85383E-05-2.85383E-05-7.68996E-10-3.86334E-20 1.44292E-18
 -1       110 9.51371E-05-2.85412E-05-2.85411E-05-7.47039E-10-1.39345E-19 9.96995E-19
 -1       111 9.51500E-05-2.85451E-05-2.85449E-05-6.87067E-10-4.63764E-19 2.26519E-18
 -1       112 9.51641E-05-2.85493E-05-2.85491E-05-6.10003E-10 1.89295E-19 5.20682E-18
 -1       113 9.51782E-05-2.85535E-05-2.85533E-05-5.30088E-10 8.49245E-20 1.84025E-18
 -1       114 9.51914E-05-2.85574E-05-2.85573E-05-4.56671E-10-9.96019E-20-1.16718E-18
 -1       115 9.52035E-05-2.85611E-05-2.85609E-05-3.95468E-10 1.29320E-19-4.12305E-18
 -1       116 9.52142E-05-2.85642E-05-2.85641E-05-3.48875E-10-2.26179E-19-6.00253E-18
 -1       117 9.52232E-05-2.85669E-05-2.85668E-05-3.14545E-10-3.15221E-19-5.84483E-18
 -1       118 9.52304E-05-2.85691E-05-2.85690E-05-2.80493E-10 3.24595E-19-5.60062E-18
 -1       119 9.52354E-05-2.85706E-05-2.85704E-05-1.93217E-10 1.36273E-19-9.33709E-18
 -1       120 9.52374E-05-2.85713E-05-2.85712E-05 7.91360E-11 1.80310E-18-9.95467E-18
 -1       121 9.52371E-05-2.85710E-05-2.85712E-05 1.61956E-10-1.12126E-17-4.05813E-19
 -1       122 9.52378E-05-2.85731E-05-2.85704E-05-1.08532E-10-1.01836E-17-3.12039E-19
 -1       123 9.52391E-05-2.85778E-05-2.85691E-05-2.67147E-10-3.91418E-18 1.80106E-18
 -1       124 9.52409E-05-2.85837E-05-2.85674E-05-2.96613E-10-4.38534E-18 1.22011E-18
 -1       125 9.52427E-05-2.85898E-05-2.85656E-05-2.72008E-10-2.07335E-18-2.29510E-18
 -1       126 9.52443E-05-2.85951E-05-2.85640E-05-2.16648E-10-6.33319E-18-2.24735E-19
 -1       127 9.52455E-05-2.85990E-05-2.85629E-05-1.37616E-10-5.49165E-18 2.71733E-18
 -1       128 9.52461E-05-2.86011E-05-2.85623E-05-4.71332E-11-6.41573E-18-2.29785E-19
 -1       129 9.52461E-05-2.86011E-05-2.85623E-05 4.70753E-11-7.59546E-19 1.77065E-18
 -1       130 9.52455E-05-2.85990E-05-2.85629E-05 1.37850E-10 5.45481E-19-1.03920E-18
 -1       131 9.52443E-05-2.85951E-05-2.85640E-05 2.20048E-10-3.23038E-18-5.74144E-19
 -1       132 9.52427E-05-2.85898E-05-2.85656E-05 2.74950E-10-4.82838E-18 6.32860E-19
 -1       133 9.52409E-05-2.85837E-05-2.85674E-05 2.98928E-10-7.53237E-18 1.02396E-18
 -1       134 9.52391E-05-2.85777E-05-2.85691E-05 2.69010E-10-4.73185E-18 8.21259E-19
 -1       135 9.52377E-05-2.85731E-05-2.85704E-05 6.99170E-11-4.97732E-19 3.67392E-19
 -1       136 9.52371E-05-2.85708E-05-2.85712E-05-2.97984E-10 3.69603E-18 3.45838E-19
 -1       137 2.60916E-05-8.80621E-05 1.58976E-05-2.25522E-05 4.04691E-18 9.76073E-19
 -1       138 8.12872E-06-3.14976E-05 2.47621E-06-1.50767E-05-3.89127E-18-2.77340E-18
 -1       139 1.16189E-05 1.75158E-05-1.57628E-05 2.60558E-05-1.03351E-17-7.53393E-18
 -1       140 5.68848E-05 3.08784E-05-3.60898E-05 8.10896E-05-1.08568E-17-1.16725E-17
 -1       141 1.45793E-04-2.98401E-07-5.59990E-05 1.15835E-04-6.72925E-18-1.20063E-17
 -1       142 2.43224E-04-5.27932E-05-7.15343E-05 1.02609E-04-2.80950E-18-8.15227E-18
 -1       143 3.05161E-04-9.12977E-05-7.95599E-05 4.25009E-05-1.49991E-19-2.96578E-18
 -1       144 3.06172E-04-9.17530E-05-7.97135E-05-3.87648E-05-8.51400E-19 3.76866E-18
 -1       145 2.42023E-04-5.24945E-05-7.11488E-05-1.01945E-04-4.07635E-18 1.18242E-17
 -1       146 1.43914E-04 4.34632E-07-5.56730E-05-1.16027E-04-9.41138E-18 1.56481E-17
 -1       147 5.99351E-05 2.97890E-05-3.68294E-05-8.25304E-05-1.43343E-17 1.58908E-17
 -1       148 1.31713E-05 1.96600E-05-1.71197E-05-2.92319E-05-1.63888E-17 1.27262E-17
 -1       149 6.57934E-06-2.57204E-05 9.24413E-07 1.38360E-05-1.57070E-17 7.44415E-18
 -1       150 2.38584E-05-8.22311E-05 1.45172E-05 2.48554E-05-1.31517E-17 3.07769E-18
 -1       151 3.80963E-05-1.15541E-04 2.09776E-05 4.14340E-06-6.00620E-18 3.94982E-19
 -1       152 3.10803E-05-1.03076E-04 1.87947E-05-2.49155E-05 2.44517E-18 6.55934E-19
 -1       153 1.16876E-05-5.32125E-05 7.85361E-06-2.78986E-05 9.92977E-18 4.36582E-18
 -1       154 4.07257E-05 2.49716E-05-2.95377E-05 6.00736E-05 1.55248E-17 1.65637E-17
 -1       155 1.32403E-04 4.05979E-06-5.33281E-05 1.11053E-04 1.26314E-17 1.98434E-17
 -1       156 2.45909E-04-5.07886E-05-7.23422E-05 1.11192E-04 6.58970E-18 1.81977E-17
 -1       157 3.28043E-04-9.83652E-05-8.32823E-05 5.03396E-05 1.41193E-18 1.36135E-17
 -1       158 3.32333E-04-1.01003E-04-8.37876E-05-3.79564E-05-3.38072E-19 7.73913E-18
 -1       159 2.55438E-04-5.72339E-05-7.33024E-05-1.04258E-04 7.96529E-19-3.43472E-19
 -1       160 1.45693E-04-2.46472E-06-5.55600E-05-1.13205E-04 4.02912E-18-7.52208E-18
 -1       161 5.30561E-05 2.46424E-05-3.36662E-05-7.05055E-05 5.15165E-18-6.49632E-18
 -1       162 7.71594E-06 4.61937E-06-1.11156E-05-1.00579E-05 5.05933E-18-3.44573E-18
 -1       163 9.39913E-06-4.68524E-05 6.49440E-06 2.66177E-05 4.17630E-18-2.39033E-18
 -1       164 2.83835E-05-9.79456E-05 1.80471E-05 2.71527E-05 6.98421E-18-3.96239E-19
 -1       165 1.02787E-04-1.47229E-05-3.79008E-05-1.68573E-05 2.24274E-18-1.09834E-18
 -1       166 9.36782E-05-9.11891E-06-3.63762E-05-1.12444E-05 2.21063E-18 1.32856E-18
 -1       167 8.68620E-05-5.49503E-06-3.49720E-05-7.66829E-06 2.02330E-18 2.73136E-18
 -1       168 8.17602E-05-3.17935E-06-3.37498E-05-5.57197E-06 1.67763E-18 3.42914E-18
 -1       169 7.82749E-05-1.79989E-06-3.28299E-05-4.48763E-06 1.30489E-18 3.91097E-18
 -1       170 7.63784E-05-1.23174E-06-3.22520E-05-3.90500E-06 9.75167E-19 4.16269E-18
 -1       171 7.60533E-05-1.37884E-06-3.20466E-05-3.37882E-06 7.42908E-19 4.34196E-18
 -1       172 7.70114E-05-2.04605E-06-3.21725E-05-2.53835E-06 5.20441E-19 4.51523E-18
 -1       173 7.88494E-05-3.00658E-06-3.25533E-05-1.15432E-06 3.40079E-19 4.57129E-18
 -1       174 8.11706E-05-4.06812E-06-3.31012E-05 8.59251E-07-1.52482E-20 4.58531E-18
 -1       175 8.36535E-05-5.11270E-06-3.37295E-05 3.43747E-06-3.99002E-19 4.63265E-18
 -1       176 8.63078E-05-6.20969E-06-3.44154E-05 6.62491E-06-8.05767E-19 4.53429E-18
 -1       177 8.93023E-05-7.56939E-06-3.51478E-05 1.03853E-05-1.34606E-18 4.15483E-18
 -1       178 9.33556E-05-9.80745E-06-3.59738E-05 1.48332E-05-1.79709E-18 3.28912E-18
 -1       179 1.00739E-04-1.51022E-05-3.69086E-05 1.97564E-05-2.10023E-18 1.04709E-18
 -1       180 1.11092E-04-2.79130E-05-3.68464E-05 1.71200E-05-1.93638E-18-2.39949E-18
 -1       181 1.13633E-04-3.05137E-05-3.56042E-05-7.72437E-06 1.96165E-18-3.84783E-18
 -1       182 1.10150E-04-3.20609E-05-3.34872E-05 1.90797E-07 1.77774E-18-2.82983E-18
 -1       183 1.10188E-04-3.23186E-05-3.33168E-05 4.03927E-06 1.22630E-18-1.82931E-18
 -1       184 1.13038E-04-3.33598E-05-3.41160E-05 6.59587E-06 7.50743E-19-1.08119E-18
 -1       185 1.17591E-04-3.49885E-05-3.53979E-05 8.22915E-06 8.17849E-19-6.11253E-19
 -1       186 1.23108E-04-3.72308E-05-3.68213E-05 8.33459E-06 3.79059E-19-3.61544E-19
 -1       187 1.28540E-04-3.99504E-05-3.79868E-05 5.62945E-06-3.05822E-19-5.66950E-19
 -1       188 1.32240E-04-4.24648E-05-3.84823E-05-1.17718E-06-7.86033E-19-1.06416E-18
 -1       189 1.31933E-04-4.29234E-05-3.81626E-05-1.13181E-05-1.18661E-18-1.35265E-18
 -1       190 1.25953E-04-3.88952E-05-3.74428E-05-1.91091E-05-1.58336E-19-1.33982E-18
 -1       191 1.16842E-04-3.13344E-05-3.69690E-05-1.53886E-05 1.42336E-18-1.51890E-18
 -1       192 1.12528E-04-2.73663E-05-3.69079E-05 2.72809E-07 1.51534E-18-1.49636E-19
 -1       193 1.17677E-04-3.17588E-05-3.71450E-05 1.65775E-05 1.58895E-18 1.31150E-18
 -1       194 1.27347E-04-3.93955E-05-3.78289E-05 1.99107E-05 3.72721E-19 1.95527E-18
 -1       195 1.33770E-04-4.35353E-05-3.86858E-05 1.18508E-05-1.37901E-19 2.80986E-18
 -1       196 1.34347E-04-4.31046E-05-3.91126E-05 1.58037E-06-3.97033E-19 2.77063E-18
 -1       197 1.30838E-04-4.06471E-05-3.86769E-05-5.29384E-06 8.49746E-20 2.75498E-18
 -1       198 1.25436E-04-3.79617E-05-3.75145E-05-8.13564E-06 1.74658E-19 3.79221E-18
 -1       199 1.19665E-04-3.56892E-05-3.60037E-05-8.33136E-06 2.06934E-19 3.48650E-18
 -1       200 1.14346E-04-3.39084E-05-3.44751E-05-7.29058E-06 9.20569E-20 3.54235E-18
 -1       201 1.09826E-04-3.25434E-05-3.31146E-05-5.89007E-06-1.92915E-20 3.19666E-18
 -1       202 1.06169E-04-3.15046E-05-3.19892E-05-4.55013E-06-1.18872E-19 2.92868E-18
 -1       203 1.03304E-04-3.07176E-05-3.10986E-05-3.42299E-06-1.24980E-19 2.10652E-18
 -1       204 1.01109E-04-3.01248E-05-3.04131E-05-2.53250E-06 8.09388E-20 1.63669E-18
 -1       205 9.94533E-05-2.96811E-05-2.98950E-05-1.85209E-06-3.07569E-19 1.16486E-18
 -1       206 9.82188E-05-2.93516E-05-2.95087E-05-1.34171E-06-7.20343E-19 2.32954E-18
 -1       207 9.73083E-05-2.91091E-05-2.92238E-05-9.62935E-07 8.14082E-20 2.17592E-18
 -1       208 9.66438E-05-2.89324E-05-2.90158E-05-6.83726E-07 1.40221E-18 1.89800E-18
 -1       209 9.61644E-05-2.88053E-05-2.88657E-05-4.79033E-07-2.93939E-20 1.50439E-18
 -1       210 9.58233E-05-2.87153E-05-2.87587E-05-3.29823E-07-7.71640E-19 1.18467E-18
 -1       211 9.55847E-05-2.86527E-05-2.86837E-05-2.21830E-07-9.91407E-19 8.41479E-19
 -1       212 9.54213E-05-2.86104E-05-2.86322E-05-1.44401E-07-1.05663E-18 1.91876E-18
 -1       213 9.53126E-05-2.85827E-05-2.85978E-05-8.95770E-08-7.42607E-19 2.09250E-18
 -1       214 9.52433E-05-2.85654E-05-2.85757E-05-5.13988E-08-5.87055E-19 2.15089E-18
 -1       215 9.52016E-05-2.85555E-05-2.85623E-05-2.53961E-08-9.99645E-21 2.52531E-18
 -1       216 9.51792E-05-2.85506E-05-2.85549E-05-8.21270E-09 4.30977E-19 3.09595E-18
 -1       217 9.51698E-05-2.85491E-05-2.85516E-05 2.66668E-09 1.55770E-19 1.99823E-18
 -1       218 9.51687E-05-2.85496E-05-2.85509E-05 9.11876E-09-1.14431E-18 1.41434E-18
 -1       219 9.51728E-05-2.85514E-05-2.85520E-05 1.25329E-08 2.16877E-18 2.40496E-18
 -1       220 9.51799E-05-2.85539E-05-2.85539E-05 1.39251E-08 1.88907E-18 3.52935E-18
 -1       221 9.51883E-05-2.85567E-05-2.85564E-05 1.40244E-08 1.42175E-18 2.99408E-18
 -1       222 9.51972E-05-2.85595E-05-2.85590E-05 1.33380E-08-3.12721E-18 2.04348E-18
 -1       223 9.52058E-05-2.85621E-05-2.85616E-05 1.21996E-08-1.54698E-18 1.40549E-18
 -1       224 9.52138E-05-2.85646E-05-2.85640E-05 1.08025E-08-5.13447E-19 9.77434E-19
 -1       225 9.52209E-05-2.85667E-05-2.85661E-05 9.22124E-09 1.68301E-18-7.88877E-19
 -1       226 9.52269E-05-2.85686E-05-2.85679E-05 7.42532E-09-1.56457E-19 8.40192E-19
 -1       227 9.52317E-05-2.85702E-05-2.85692E-05 5.30667E-09-1.10220E-18 1.37487E-18
 -1       228 9.52351E-05-2.85713E-05-2.85702E-05 2.82562E-09-8.68922E-19 1.98691E-18
 -1       229 9.52367E-05-2.85717E-05-2.85707E-05 9.77885E-10-3.46460E-19 1.12630E-18
 -1       230 1.05774E-04-3.05459E-05-3.24141E-05 5.91552E-06-1.84558E-18-1.71719E-18
 -1       231 1.01501E-04-3.00204E-05-3.05977E-05 1.91465E-06-1.39497E-18-4.78316E-19
 -1       232 9.96529E-05-2.98202E-05-2.98833E-05 6.34777E-07-1.05441E-18 3.15996E-19
 -1       233 9.86474E-05-2.96911E-05-2.95286E-05 4.82943E-07-8.10735E-19 9.44506E-19
 -1       234 9.77016E-05-2.94938E-05-2.92201E-05 9.53870E-07-5.78915E-19 1.53297E-18
 -1       235 9.63683E-05-2.91315E-05-2.88091E-05 1.75837E-06-4.48068E-19 1.76357E-18
 -1       236 9.44386E-05-2.85247E-05-2.82442E-05 2.61574E-06-3.84550E-19 1.82950E-18
 -1       237 9.19755E-05-2.76781E-05-2.75533E-05 3.19438E-06-1.41603E-20 2.31016E-18
 -1       238 8.93282E-05-2.67084E-05-2.68368E-05 3.16734E-06-4.35633E-19 2.39521E-18
 -1       239 8.70700E-05-2.58386E-05-2.62443E-05 2.34612E-06-3.82877E-19 2.99151E-18
 -1       240 8.58207E-05-2.53308E-05-2.59272E-05 8.17004E-07 3.99330E-20 3.07512E-18
 -1       241 8.59969E-05-2.53707E-05-2.59837E-05-1.03636E-06 1.20034E-19 2.91142E-18
 -1       242 8.76212E-05-2.59705E-05-2.64193E-05-2.68207E-06-1.30817E-19 3.44398E-18
 -1       243 9.03084E-05-2.69627E-05-2.71428E-05-3.68290E-06 4.07747E-19 3.41528E-18
 -1       244 9.34365E-05-2.80853E-05-2.80016E-05-3.87422E-06-1.02946E-19 3.29333E-18
 -1       245 9.63876E-05-2.90970E-05-2.88346E-05-3.37674E-06-1.24841E-19 2.87309E-18
 -1       246 9.87280E-05-2.98503E-05-2.95180E-05-2.47492E-06 1.49718E-19 3.10959E-18
 -1       247 1.00267E-04-3.03019E-05-2.99871E-05-1.46698E-06-6.33852E-20 3.49516E-18
 -1       248 1.01020E-04-3.04824E-05-3.02342E-05-5.68675E-07-7.90181E-19 3.25732E-18
 -1       249 1.01126E-04-3.04577E-05-3.02905E-05 1.11824E-07-1.26913E-19 3.22993E-18
 -1       250 1.00772E-04-3.02997E-05-3.02061E-05 5.53396E-07 2.24736E-19 3.01979E-18
 -1       251 1.00141E-04-3.00700E-05-3.00331E-05 7.86656E-07 4.04816E-19 3.25555E-18
 -1       252 9.93823E-05-2.98150E-05-2.98163E-05 8.63177E-07-5.26461E-19 3.09119E-18
 -1       253 9.86051E-05-2.95655E-05-2.95892E-05 8.35676E-07-1.04099E-18 3.07155E-18
 -1       254 9.78782E-05-2.93394E-05-2.93739E-05 7.48283E-07 4.68344E-19 3.79405E-18
 -1       255 9.72396E-05-2.91455E-05-2.91828E-05 6.33587E-07 6.46476E-19 3.94333E-18
 -1       256 9.67045E-05-2.89860E-05-2.90216E-05 5.13313E-07 1.18857E-18 3.32969E-18
 -1       257 9.62733E-05-2.88595E-05-2.88908E-05 4.00463E-07 5.11477E-19 3.20180E-18
 -1       258 9.59373E-05-2.87624E-05-2.87885E-05 3.01720E-07-5.87574E-19 2.41603E-18
 -1       259 9.56839E-05-2.86901E-05-2.87109E-05 2.19552E-07-6.61533E-19 3.62748E-18
 -1       260 9.54988E-05-2.86380E-05-2.86540E-05 1.53847E-07-6.74038E-19 3.83858E-18
 -1       261 9.53683E-05-2.86017E-05-2.86137E-05 1.03078E-07 4.88535E-19 3.68590E-18
 -1       262 9.52800E-05-2.85777E-05-2.85863E-05 6.50789E-08 4.63518E-19 3.37156E-18
 -1       263 9.52235E-05-2.85626E-05-2.85686E-05 3.75294E-08 1.03362E-18 3.04159E-18
 -1       264 9.51901E-05-2.85541E-05-2.85581E-05 1.82308E-08 5.28166E-19 2.68763E-18
 -1       265 9.51730E-05-2.85500E-05-2.85525E-05 5.24546E-09 3.84470E-20 2.58413E-18
 -1       266 9.51670E-05-2.85490E-05-2.85505E-05-3.05145E-09-4.48664E-20 1.76701E-18
 -1       267 9.51682E-05-2.85499E-05-2.85506E-05-7.97107E-09 5.22859E-19 7.67862E-19
 -1       268 9.51738E-05-2.85519E-05-2.85522E-05-1.05376E-08-5.52931E-19 7.11801E-19
 -1       269 9.51818E-05-2.85546E-05-2.85545E-05-1.15265E-08-4.59215E-19-1.86956E-23
 -1       270 9.51908E-05-2.85574E-05-2.85572E-05-1.15052E-08 1.57923E-18 1.10685E-20
 -1       271 9.52000E-05-2.85602E-05-2.85599E-05-1.08702E-08 1.50381E-18-7.01079E-19
 -1       272 9.52087E-05-2.85629E-05-2.85625E-05-9.87767E-09 1.78873E-18-2.54558E-18
 -1       273 9.52167E-05-2.85653E-05-2.85649E-05-8.66590E-09 1.35548E-18-4.46437E-18
 -1       274 9.52236E-05-2.85674E-05-2.85669E-05-7.26943E-09-9.88063E-19-5.40075E-18
 -1       275 9.52293E-05-2.85692E-05-2.85686E-05-5.63198E-09 7.96658E-19-3.95252E-18
 -1       276 9.52335E-05-2.85706E-05-2.85698E-05-3.62091E-09 9.07133E-19-4.68601E-18
 -1       277 9.52362E-05-2.85714E-05-2.85706E-05-1.32688E-09-1.07206E-18-5.25811E-18
 -1       278 9.52370E-05-2.85731E-05-2.85702E-05-2.75561E-09-2.50915E-18 1.61492E-18
 -1       279 9.52382E-05-2.85762E-05-2.85694E-05-4.84749E-09-2.70785E-18 2.76755E-18
 -1       280 9.52397E-05-2.85803E-05-2.85683E-05-5.99687E-09-3.24664E-18 1.12715E-18
 -1       281 9.52413E-05-2.85846E-05-2.85671E-05-6.12190E-09-3.84908E-18 7.66138E-19
 -1       282 9.52427E-05-2.85886E-05-2.85660E-05-5.38549E-09-2.20290E-18-2.49813E-18
 -1       283 9.52438E-05-2.85919E-05-2.85651E-05-3.96934E-09-2.23061E-18-3.34338E-20
 -1       284 9.52446E-05-2.85940E-05-2.85645E-05-2.10001E-09-2.65152E-18 7.22395E-19
 -1       285 9.52448E-05-2.85947E-05-2.85643E-05-2.62464E-12-1.11683E-18 2.60585E-18
 -1       286 9.52446E-05-2.85940E-05-2.85645E-05 2.09845E-09-1.65027E-18 8.83803E-19
 -1       287 9.52438E-05-2.85919E-05-2.85651E-05 3.97815E-09-1.12467E-19-1.59222E-18
 -1       288 9.52427E-05-2.85886E-05-2.85660E-05 5.38806E-09-1.69705E-18-2.35440E-18
 -1       289 9.52413E-05-2.85846E-05-2.85672E-05 6.14802E-09-1.68138E-18-4.45477E-19
 -1       290 9.52397E-05-2.85803E-05-2.85683E-05 6.01579E-09-1.49680E-18 1.35755E-18
 -1       291 9.52382E-05-2.85763E-05-2.85694E-05 4.84186E-09-2.31215E-18 2.34164E-18
 -1       292 9.52373E-05-2.85737E-05-2.85701E-05 3.01966E-09-2.53922E-18 1.48572E-18
 -1       293 1.31106E-05-4.81986E-05 1.20047E-05 1.20511E-05 9.39042E-19-6.07958E-19
 -1       294 2.83875E-05-4.21135E-05 3.60169E-06 2.76526E-05 6.94144E-19-4.25751E-18
 -1       295 5.53320E-05-3.61907E-05-9.70446E-06 3.83915E-05-5.43372E-19-4.64857E-18
 -1       296 8.93968E-05-2.85308E-05-2.63671E-05 4.76159E-05-2.71389E-18-4.55513E-18
 -1       297 1.32940E-04-2.75019E-05-4.39912E-05 5.12871E-05-3.95374E-18-3.62361E-18
 -1       298 1.73498E-04-3.14392E-05-5.88195E-05 3.73078E-05-3.46159E-18-1.37918E-18
 -1       299 2.05580E-04-3.53717E-05-6.96754E-05 2.51063E-05-2.76429E-18-7.08014E-19
 -1       300 2.12311E-04-3.45541E-05-7.28589E-05 9.27863E-07-3.48056E-18 1.79603E-18
 -1       301 1.99647E-04-3.24041E-05-6.88855E-05-2.02522E-05-5.13577E-18 3.24551E-18
 -1       302 1.75331E-04-3.13151E-05-5.92410E-05-4.37280E-05-5.56554E-18 5.62028E-18
 -1       303 1.33843E-04-2.80483E-05-4.41655E-05-5.06827E-05-6.81364E-18 6.71464E-18
 -1       304 9.22383E-05-2.88709E-05-2.73778E-05-4.77650E-05-6.81734E-18 6.87134E-18
 -1       305 5.59898E-05-3.42444E-05-1.09071E-05-3.79536E-05-6.64159E-18 6.29822E-18
 -1       306 2.94438E-05-4.26065E-05 2.91527E-06-2.49977E-05-5.74437E-18 4.26666E-18
 -1       307 1.47237E-05-5.01396E-05 1.16768E-05-1.21696E-05-3.26976E-18 4.10515E-18
 -1       308 1.17777E-05-5.22378E-05 1.35854E-05 7.50808E-07-4.95329E-19 3.97386E-18
 -1       309 2.29004E-05-4.71301E-05 7.25996E-06 1.63106E-05 2.50595E-18 5.16775E-18
 -1       310 4.66751E-05-4.23204E-05-4.42553E-06 2.84353E-05 4.72475E-18 6.54666E-18
 -1       311 8.31180E-05-3.78684E-05-2.06759E-05 4.01577E-05 5.96078E-18 8.49701E-18
 -1       312 1.35664E-04-4.16287E-05-3.99163E-05 4.09655E-05 5.83288E-18 8.41421E-18
 -1       313 1.81307E-04-4.00084E-05-5.82517E-05 3.49383E-05 6.07166E-18 8.83392E-18
 -1       314 2.17446E-04-4.09496E-05-7.14579E-05 2.28874E-05 4.79378E-18 8.99443E-18
 -1       315 2.30981E-04-4.18003E-05-7.62900E-05 2.57116E-06 3.25367E-18 6.69647E-18
 -1       316 2.12492E-04-3.81991E-05-7.11277E-05-1.38599E-05 2.82094E-18 4.48631E-18
 -1       317 1.86532E-04-4.04134E-05-5.99476E-05-3.53353E-05 3.07846E-18 1.88634E-18
 -1       318 1.40104E-04-3.81046E-05-4.29143E-05-4.32372E-05 1.88105E-18-1.53567E-18
 -1       319 9.04295E-05-3.80281E-05-2.35342E-05-3.99396E-05 1.76628E-18-2.38101E-18
 -1       320 5.06798E-05-4.21569E-05-6.07715E-06-2.89952E-05 8.71809E-19-1.26970E-18
 -1       321 2.54707E-05-4.72298E-05 6.34695E-06-1.74540E-05 1.56426E-18 8.38827E-19
 -1       322 1.10683E-05-4.70712E-05 1.24455E-05-3.33260E-06 9.04684E-19 7.80329E-20
 -1       323 9.36044E-05-1.34747E-05-3.44001E-05-5.96824E-06 2.46741E-18 1.47038E-18
 -1       324 1.02548E-04-2.06395E-05-3.51514E-05-7.74602E-06 2.54133E-18 5.16161E-22
 -1       325 8.11494E-05-5.35390E-06-3.25197E-05-3.96824E-06 1.83301E-18 2.91090E-18
 -1       326 7.79389E-05-3.64446E-06-3.18666E-05-3.94665E-06 1.42438E-18 3.28858E-18
 -1       327 7.68525E-05-3.33345E-06-3.15305E-05-4.02431E-06 1.11010E-18 3.54795E-18
 -1       328 7.75985E-05-4.13713E-06-3.15072E-05-3.74177E-06 8.49764E-19 3.69047E-18
 -1       329 7.96591E-05-5.65910E-06-3.17433E-05-2.79034E-06 5.69925E-19 3.77722E-18
 -1       330 8.24578E-05-7.50865E-06-3.21577E-05-1.07604E-06 1.58832E-19 3.67059E-18
 -1       331 8.54863E-05-9.39419E-06-3.26568E-05 1.26790E-06-2.85562E-19 3.60850E-18
 -1       332 8.86340E-05-1.13336E-05-3.31861E-05 4.13548E-06-7.69788E-19 3.69020E-18
 -1       333 9.19317E-05-1.35144E-05-3.36801E-05 7.25588E-06-1.33554E-18 3.35536E-18
 -1       334 9.58264E-05-1.65303E-05-3.40727E-05 1.02511E-05-1.94656E-18 2.77816E-18
 -1       335 1.00961E-04-2.15187E-05-3.41562E-05 1.19579E-05-2.34028E-18 1.63135E-18
 -1       336 1.04476E-04-2.64481E-05-3.35275E-05 9.95014E-06-2.29837E-18 2.74856E-19
 -1       337 1.02608E-04-2.90216E-05-3.15125E-05 4.35942E-06-1.82539E-18 6.38583E-19
 -1       338 1.05918E-04-2.78276E-05-3.34126E-05 2.04306E-06 2.02562E-18-1.75343E-19
 -1       339 1.06422E-04-2.91531E-05-3.30831E-05 7.36205E-06 1.42560E-18 2.78944E-19
 -1       340 1.08141E-04-3.05584E-05-3.32355E-05 1.11683E-05 1.09041E-18 6.25664E-19
 -1       341 1.11343E-04-3.29834E-05-3.35889E-05 1.34283E-05 5.98202E-19 5.60723E-19
 -1       342 1.16466E-04-3.72533E-05-3.39735E-05 1.31538E-05-1.04926E-19 3.44305E-19
 -1       343 1.23973E-04-4.37301E-05-3.44282E-05 8.61152E-06-6.95695E-19 3.76025E-19
 -1       344 1.33153E-04-5.05276E-05-3.54781E-05-1.82965E-06-1.32547E-18 1.17192E-19
 -1       345 1.39926E-04-5.12131E-05-3.82368E-05-1.59467E-05-8.53806E-19-2.70071E-19
 -1       346 1.38768E-04-3.88124E-05-4.32873E-05-2.33041E-05 7.41392E-19-4.06629E-19
 -1       347 1.33266E-04-2.27709E-05-4.79225E-05-1.18562E-05 3.17807E-18 7.46355E-19
 -1       348 1.33317E-04-2.24819E-05-4.79789E-05 1.27750E-05 2.85598E-18 2.56095E-18
 -1       349 1.39143E-04-3.92620E-05-4.33077E-05 2.44664E-05 1.58093E-18 3.42463E-18
 -1       350 1.40745E-04-5.17874E-05-3.83309E-05 1.69281E-05 4.02866E-19 3.68971E-18
 -1       351 1.33951E-04-5.08785E-05-3.56664E-05 2.46389E-06-7.10949E-19 3.59928E-18
 -1       352 1.24838E-04-4.40726E-05-3.46494E-05-8.12018E-06-1.29692E-19 3.20090E-18
 -1       353 1.17304E-04-3.76829E-05-3.41512E-05-1.29756E-05 5.51035E-20 2.65685E-18
 -1       354 1.11918E-04-3.35240E-05-3.36101E-05-1.38086E-05 7.56367E-19 2.56150E-18
 -1       355 1.08099E-04-3.12392E-05-3.29389E-05-1.25637E-05 1.47806E-19 2.71438E-18
 -1       356 1.05259E-04-3.00813E-05-3.22102E-05-1.05343E-05-4.18850E-19 2.66143E-18
 -1       357 1.03044E-04-2.95030E-05-3.15064E-05-8.41944E-06 1.64410E-19 3.37333E-18
 -1       358 1.01274E-04-2.91978E-05-3.08792E-05-6.53078E-06 6.24273E-21 3.63859E-18
 -1       359 9.98534E-05-2.90169E-05-3.03494E-05-4.96682E-06-1.08134E-18 2.76767E-18
 -1       360 9.87201E-05-2.88944E-05-2.99180E-05-3.72500E-06-2.09351E-19 1.93649E-18
 -1       361 9.78263E-05-2.88031E-05-2.95758E-05-2.76310E-06-4.01812E-19 1.67989E-18
 -1       362 9.71307E-05-2.87323E-05-2.93094E-05-2.02936E-06-1.90979E-19 2.30288E-18
 -1       363 9.65968E-05-2.86773E-05-2.91053E-05-1.47531E-06 3.26563E-19 2.20285E-18
 -1       364 9.61926E-05-2.86353E-05-2.89509E-05-1.06015E-06-2.43376E-20 1.10529E-18
 -1       365 9.58912E-05-2.86043E-05-2.88356E-05-7.51203E-07 4.08073E-20 1.68807E-18
 -1       366 9.56700E-05-2.85823E-05-2.87506E-05-5.22970E-07-4.75718E-19 2.42459E-18
 -1       367 9.55104E-05-2.85676E-05-2.86889E-05-3.55812E-07 1.33312E-19 3.75305E-18
 -1       368 9.53978E-05-2.85585E-05-2.86448E-05-2.34676E-07-1.57489E-18 3.78186E-18
 -1       369 9.53203E-05-2.85535E-05-2.86139E-05-1.48052E-07-6.77049E-19 3.20094E-18
 -1       370 9.52688E-05-2.85514E-05-2.85929E-05-8.71411E-08-1.25546E-19 3.59694E-18
 -1       371 9.52360E-05-2.85513E-05-2.85790E-05-4.52297E-08 4.89011E-19 3.94311E-18
 -1       372 9.52166E-05-2.85525E-05-2.85702E-05-1.72031E-08-1.27966E-18 2.22294E-18
 -1       373 9.52065E-05-2.85544E-05-2.85651E-05 8.16543E-10-8.07233E-19 5.35516E-19
 -1       374 9.52026E-05-2.85567E-05-2.85625E-05 1.17495E-08 1.43060E-18 2.61096E-18
 -1       375 9.52028E-05-2.85590E-05-2.85616E-05 1.77733E-08 2.18617E-18 3.20380E-18
 -1       376 9.52054E-05-2.85613E-05-2.85618E-05 2.04882E-08 1.11065E-18 1.80581E-18
 -1       377 9.52095E-05-2.85634E-05-2.85626E-05 2.10457E-08-1.23138E-18 1.82780E-18
 -1       378 9.52141E-05-2.85654E-05-2.85638E-05 2.02466E-08-2.77154E-18 3.77795E-18
 -1       379 9.52189E-05-2.85671E-05-2.85651E-05 1.86157E-08-1.00359E-18 1.94568E-18
 -1       380 9.52235E-05-2.85687E-05-2.85664E-05 1.64574E-08-5.53116E-20 2.60883E-18
 -1       381 9.52277E-05-2.85702E-05-2.85675E-05 1.39030E-08 4.49132E-19 9.10237E-19
 -1       382 9.52314E-05-2.85716E-05-2.85685E-05 1.09722E-08 4.87621E-21 9.55500E-19
 -1       383 9.52346E-05-2.85730E-05-2.85693E-05 7.63377E-09-4.47225E-19 1.95577E-18
 -1       384 1.00836E-04-3.00377E-05-3.03269E-05 1.71010E-06-1.34804E-18 1.37714E-18
 -1       385 1.00200E-04-3.05235E-05-2.98594E-05 1.69640E-06-9.26345E-19 1.45513E-18
 -1       386 9.95313E-05-3.06858E-05-2.95097E-05 2.61064E-06-4.79941E-19 1.42286E-18
 -1       387 9.85688E-05-3.04657E-05-2.91922E-05 3.96234E-06-4.09902E-19 1.53850E-18
 -1       388 9.71362E-05-2.97466E-05-2.88830E-05 5.19488E-06-4.83675E-19 1.28431E-18
 -1       389 9.52743E-05-2.85417E-05-2.85956E-05 5.68882E-06-5.46378E-19 1.57357E-18
 -1       390 9.33001E-05-2.70937E-05-2.83640E-05 4.93356E-06-5.88683E-19 2.13948E-18
 -1       391 9.17590E-05-2.58700E-05-2.82236E-05 2.79546E-06-3.07569E-19 1.89246E-18
 -1       392 9.12024E-05-2.53675E-05-2.81986E-05-2.93812E-07-1.41767E-19 2.61950E-18
 -1       393 9.18819E-05-2.58213E-05-2.82970E-05-3.45437E-06-1.87563E-19 2.41704E-18
 -1       394 9.35952E-05-2.70538E-05-2.85076E-05-5.76716E-06-5.89557E-19 2.37950E-18
 -1       395 9.58021E-05-2.85928E-05-2.88002E-05-6.70260E-06-2.71599E-20 3.23922E-18
 -1       396 9.79107E-05-2.99504E-05-2.91285E-05-6.28241E-06-1.14448E-19 2.75649E-18
 -1       397 9.95147E-05-3.08396E-05-2.94397E-05-4.92993E-06-1.86810E-19 2.43259E-18
 -1       398 1.00464E-04-3.12146E-05-2.96882E-05-3.18906E-06 2.93758E-19 1.72788E-18
 -1       399 1.00803E-04-3.11848E-05-2.98464E-05-1.50544E-06-4.60931E-19 1.51526E-18
 -1       400 1.00673E-04-3.09081E-05-2.99074E-05-1.41049E-07-5.18255E-19 2.39874E-18
 -1       401 1.00232E-04-3.05222E-05-2.98817E-05 8.11548E-07-2.29987E-19 2.24959E-18
 -1       402 9.96215E-05-3.01207E-05-2.97897E-05 1.37276E-06 4.89707E-19 3.39872E-18
 -1       403 9.89457E-05-2.97552E-05-2.96548E-05 1.61884E-06-1.97101E-20 3.21204E-18
 -1       404 9.82770E-05-2.94471E-05-2.94987E-05 1.64105E-06-8.38769E-19 2.23797E-18
 -1       405 9.76597E-05-2.92005E-05-2.93390E-05 1.52267E-06-3.56578E-19 1.58089E-18
 -1       406 9.71172E-05-2.90101E-05-2.91876E-05 1.32948E-06 6.39615E-19 1.38178E-18
 -1       407 9.66584E-05-2.88674E-05-2.90519E-05 1.10827E-06 9.02593E-19 1.06965E-18
 -1       408 9.62826E-05-2.87630E-05-2.89356E-05 8.89258E-07 1.04569E-18 1.77517E-18
 -1       409 9.59834E-05-2.86885E-05-2.88394E-05 6.89840E-07-3.39611E-20 2.98901E-18
 -1       410 9.57514E-05-2.86367E-05-2.87624E-05 5.18306E-07-9.07155E-19 4.07738E-18
 -1       411 9.55760E-05-2.86017E-05-2.87024E-05 3.76978E-07-7.99159E-19 3.55536E-18
 -1       412 9.54470E-05-2.85790E-05-2.86570E-05 2.64590E-07-2.97930E-19 4.23029E-18
 -1       413 9.53547E-05-2.85651E-05-2.86236E-05 1.77972E-07 6.33101E-19 4.44598E-18
 -1       414 9.52910E-05-2.85572E-05-2.85998E-05 1.13164E-07 1.62979E-18 3.83203E-18
 -1       415 9.52489E-05-2.85535E-05-2.85835E-05 6.61054E-08 1.34916E-18 3.62401E-18
 -1       416 9.52226E-05-2.85524E-05-2.85728E-05 3.30292E-08 2.40404E-19 2.94033E-18
 -1       417 9.52078E-05-2.85531E-05-2.85662E-05 1.06487E-08 5.63831E-19 2.34199E-18
 -1       418 9.52009E-05-2.85547E-05-2.85626E-05-3.77708E-09 9.07904E-19 7.12918E-19
 -1       419 9.51993E-05-2.85568E-05-2.85610E-05-1.24545E-08 7.58097E-19 2.06671E-19
 -1       420 9.52011E-05-2.85591E-05-2.85608E-05-1.71044E-08 3.30753E-19-1.44008E-18
 -1       421 9.52049E-05-2.85613E-05-2.85615E-05-1.90277E-08 5.40208E-19-1.84763E-18
 -1       422 9.52097E-05-2.85635E-05-2.85627E-05-1.91732E-08 1.71570E-18-3.31968E-18
 -1       423 9.52149E-05-2.85655E-05-2.85640E-05-1.81992E-08 3.16056E-18-3.20352E-18
 -1       424 9.52200E-05-2.85672E-05-2.85655E-05-1.65262E-08 1.85767E-18-2.70407E-18
 -1       425 9.52247E-05-2.85689E-05-2.85668E-05-1.43781E-08 3.81136E-19-1.73148E-18
 -1       426 9.52290E-05-2.85704E-05-2.85680E-05-1.18288E-08-1.06508E-18-1.50436E-18
 -1       427 9.52326E-05-2.85718E-05-2.85689E-05-8.88723E-09 8.81514E-19-1.41505E-18
 -1       428 9.52351E-05-2.85727E-05-2.85696E-05-5.87327E-09-2.54813E-19 8.39890E-19
 -1       429 9.52400E-05-2.85811E-05-2.85681E-05-1.04236E-08-1.91462E-18 5.51819E-19
 -1       430 9.52379E-05-2.85774E-05-2.85688E-05-9.72048E-09-1.92268E-18 2.38526E-18
 -1       431 9.52420E-05-2.85844E-05-2.85675E-05-9.78087E-09-2.46205E-18-9.11859E-19
 -1       432 9.52436E-05-2.85873E-05-2.85670E-05-7.90852E-09-1.95575E-18-1.03627E-18
 -1       433 9.52447E-05-2.85894E-05-2.85665E-05-5.12293E-09-2.05300E-18 4.84445E-19
 -1       434 9.52453E-05-2.85905E-05-2.85663E-05-1.77770E-09-3.13516E-18 3.26254E-18
 -1       435 9.52453E-05-2.85905E-05-2.85663E-05 1.75976E-09-1.58014E-18 2.98311E-18
 -1       436 9.52447E-05-2.85894E-05-2.85665E-05 5.11838E-09-3.06877E-18-5.61090E-19
 -1       437 9.52436E-05-2.85874E-05-2.85669E-05 7.88526E-09-1.70480E-18-3.02418E-18
 -1       438 9.52420E-05-2.85845E-05-2.85675E-05 9.79353E-09-2.83714E-19 4.47050E-19
 -1       439 9.52400E-05-2.85811E-05-2.85681E-05 1.04606E-08 1.45336E-18 9.35625E-19
 -1       440 9.52378E-05-2.85774E-05-2.85687E-05 9.64743E-09-2.24600E-19 6.61431E-19
 -1       441 1.01459E-04-2.95517E-05-3.07869E-05 2.51680E-06-1.52035E-18 1.20778E-18
 -1       442 6.26291E-05-4.21787E-05-8.69751E-06 4.74787E-05 1.47828E-18-4.56376E-18
 -1       443 1.31826E-04-5.21682E-05-3.41106E-05 3.13090E-05 6.34692E-19 5.39984E-21
 -1       444 1.28420E-05-1.96279E-05 3.08536E-06 6.47624E-06-2.24953E-19-2.21605E-19
 -1       445 9.79286E-05-5.07240E-05-2.03162E-05 4.45645E-05 1.24874E-18-1.99905E-18
 -1       446 8.64160E-05-8.56644E-06-3.34205E-05-4.62693E-06 2.24735E-18 2.38272E-18
 -1       447 1.51504E-04-4.27256E-05-4.65985E-05 1.43745E-05-1.70740E-18 1.83054E-18
 -1       448 1.60098E-04-2.42302E-05-5.80667E-05 1.64693E-06-2.48435E-18 1.79317E-18
 -1       449 1.62541E-04-1.43764E-05-6.33187E-05 1.32417E-08-3.67993E-18 2.13982E-18
 -1       450 1.54152E-04-1.08280E-05-6.16540E-05 2.09506E-06-3.90048E-18 1.74092E-18
 -1       451 1.61257E-04-2.65296E-05-5.75473E-05-3.64378E-06-4.73449E-18 8.55397E-19
 -1       452 1.53611E-04-4.10588E-05-4.80185E-05-1.68118E-05-4.40316E-18 1.56045E-18
 -1       453 1.33158E-04-5.22186E-05-3.46686E-05-3.04119E-05-2.76440E-18 2.42040E-18
 -1       454 1.00606E-04-5.14625E-05-2.11283E-05-4.41011E-05-1.96999E-18 3.26521E-18
 -1       455 6.30191E-05-4.22397E-05-9.02508E-06-4.68515E-05-1.07626E-18 3.56318E-18
 -1       456 2.79000E-05-3.09022E-05 9.44260E-07-3.33802E-05-4.78891E-19 4.08249E-18
 -1       457 1.24566E-05-2.03591E-05 3.40238E-06-9.28626E-06 4.47578E-19 5.07775E-18
 -1       458 1.99014E-05-2.50370E-05 2.13469E-06 1.92544E-05 3.02550E-19 5.40555E-18
 -1       459 5.26036E-05-4.06430E-05-5.31263E-06 3.90360E-05 3.64012E-19 4.82878E-18
 -1       460 9.17421E-05-5.44922E-05-1.62162E-05 4.11121E-05 8.31786E-19 5.73113E-18
 -1       461 1.31943E-04-6.27692E-05-2.98235E-05 2.81297E-05 1.18585E-18 4.11150E-18
 -1       462 1.62393E-04-5.56426E-05-4.57647E-05 6.13451E-06 2.78377E-18 3.50026E-18
 -1       463 1.70142E-04-3.58907E-05-5.73637E-05-7.52039E-06 3.70545E-18 3.88714E-18
 -1       464 1.76919E-04-2.20027E-05-6.56386E-05-2.65858E-06 4.32050E-18 4.93889E-18
 -1       465 1.73457E-04-2.02817E-05-6.51472E-05 4.49827E-06 3.41185E-18 4.25322E-18
 -1       466 1.68870E-04-3.48048E-05-5.71946E-05 9.84384E-06 3.21703E-18 4.62258E-18
 -1       467 1.66537E-04-5.28145E-05-4.87261E-05-2.73334E-06 2.05047E-18 4.14019E-18
 -1       468 1.38426E-04-6.17938E-05-3.30158E-05-2.41128E-05 1.47913E-19 5.36807E-19
 -1       469 1.00649E-04-5.79935E-05-1.84398E-05-3.83840E-05-5.52901E-19-1.10824E-18
 -1       470 5.72434E-05-4.35523E-05-6.05819E-06-3.88564E-05-4.74974E-19-4.36698E-19
 -1       471 2.77916E-05-2.48150E-05-8.92913E-07-2.49729E-05-1.38829E-18 1.16859E-18
 -1       472 2.37178E-05-2.64308E-05 1.13722E-06 2.99733E-05-3.76083E-19-2.34035E-18
 -1       473 7.74302E-05-5.53054E-06-3.08225E-05-4.02983E-06 1.34499E-18 3.15822E-18
 -1       474 7.96037E-05-6.68452E-06-3.12636E-05-2.72800E-06 1.70349E-18 2.89271E-18
 -1       475 7.99340E-05-7.97419E-06-3.08500E-05-4.80866E-06 7.83139E-19 3.58900E-18
 -1       476 8.32125E-05-1.04434E-05-3.12001E-05-3.63479E-06 4.02775E-19 3.41083E-18
 -1       477 8.67899E-05-1.29997E-05-3.16411E-05-1.56578E-06-1.08587E-19 3.35729E-18
 -1       478 9.03474E-05-1.54997E-05-3.20982E-05 1.10727E-06-5.07367E-19 3.33880E-18
 -1       479 9.37163E-05-1.79778E-05-3.24841E-05 3.89539E-06-1.08582E-18 3.15824E-18
 -1       480 9.70566E-05-2.07664E-05-3.27195E-05 6.25610E-06-1.69031E-18 2.63697E-18
 -1       481 1.00362E-04-2.42315E-05-3.26449E-05 7.32163E-06-2.08057E-18 2.08592E-18
 -1       482 1.02016E-04-2.69247E-05-3.21744E-05 6.23114E-06-2.01310E-18 1.57949E-18
 -1       483 9.90613E-05-2.30223E-05-3.25738E-05 4.75336E-06 1.97673E-18 1.10141E-18
 -1       484 9.43672E-05-5.10480E-05-1.83098E-05 4.42757E-05 2.27783E-18-1.13522E-18
 -1       485 1.22811E-04-5.92919E-05-2.72048E-05 3.23418E-05 2.13357E-18 3.21396E-19
 -1       486 9.92021E-05-2.47370E-05-3.19037E-05 1.00793E-05 1.29421E-18 1.16019E-18
 -1       487 9.99886E-05-2.68444E-05-3.13420E-05 1.44859E-05 9.48278E-19 1.23346E-18
 -1       488 1.02653E-04-3.09209E-05-3.07353E-05 1.77407E-05 2.11634E-20 1.28352E-18
 -1       489 1.09007E-04-3.85879E-05-3.01514E-05 1.89445E-05-5.58411E-19 1.35479E-18
 -1       490 1.21132E-04-5.03904E-05-3.02608E-05 1.60802E-05-1.45512E-18 1.04019E-18
 -1       491 1.39452E-04-6.23845E-05-3.30285E-05 5.95779E-06-1.49381E-18 8.32263E-19
 -1       492 1.51830E-04-5.53511E-05-4.17379E-05-1.42917E-05 2.09045E-19 6.34798E-19
 -1       493 1.51868E-04-3.08469E-05-5.24175E-05-1.79097E-05 2.89484E-18 2.31801E-18
 -1       494 1.52271E-04-5.64049E-05-4.14782E-05 1.62563E-05 1.60193E-18 4.44015E-18
 -1       495 1.38292E-04-6.21432E-05-3.27260E-05-4.82230E-06-1.38193E-18 3.93734E-18
 -1       496 1.20866E-04-5.05726E-05-3.00233E-05-1.55348E-05-1.53721E-18 2.63148E-18
 -1       497 1.08827E-04-3.88951E-05-2.99476E-05-1.87468E-05-6.09386E-19 1.48444E-18
 -1       498 1.02426E-04-3.15466E-05-3.03725E-05-1.81567E-05 3.72414E-19 1.02236E-18
 -1       499 9.95112E-05-2.79661E-05-3.06589E-05-1.60563E-05 5.78398E-19 5.66359E-19
 -1       500 9.83004E-05-2.66506E-05-3.07027E-05-1.34906E-05-2.92998E-20 7.57421E-19
 -1       501 9.77714E-05-2.64519E-05-3.05602E-05-1.09664E-05 6.17897E-19 1.24190E-18
 -1       502 9.74532E-05-2.67024E-05-3.03166E-05-8.70652E-06-3.44320E-19 1.23706E-18
 -1       503 9.71722E-05-2.70728E-05-3.00381E-05-6.79038E-06-9.04051E-19 1.56416E-19
 -1       504 9.68866E-05-2.74249E-05-2.97657E-05-5.22190E-06-6.65608E-19 7.85728E-19
 -1       505 9.66015E-05-2.77140E-05-2.95204E-05-3.96843E-06-5.97246E-19 3.68333E-19
 -1       506 9.63324E-05-2.79360E-05-2.93107E-05-2.98348E-06 2.57645E-19 1.07646E-18
 -1       507 9.60918E-05-2.81009E-05-2.91374E-05-2.21915E-06-7.18494E-19 1.27620E-18
 -1       508 9.58860E-05-2.82219E-05-2.89978E-05-1.63191E-06-5.32006E-19 1.37523E-18
 -1       509 9.57166E-05-2.83105E-05-2.88875E-05-1.18469E-06-6.39468E-19-2.00431E-19
 -1       510 9.55814E-05-2.83758E-05-2.88018E-05-8.47027E-07 8.25976E-19 3.75455E-21
 -1       511 9.54764E-05-2.84244E-05-2.87362E-05-5.94435E-07 1.85118E-19 3.37966E-19
 -1       512 9.53971E-05-2.84609E-05-2.86866E-05-4.07442E-07-6.15777E-19 6.65223E-19
 -1       513 9.53387E-05-2.84886E-05-2.86498E-05-2.70694E-07-6.11865E-19 1.25262E-18
 -1       514 9.52968E-05-2.85097E-05-2.86229E-05-1.72137E-07-2.40611E-19 1.12634E-18
 -1       515 9.52678E-05-2.85258E-05-2.86036E-05-1.02358E-07-2.15704E-19-2.53511E-19
 -1       516 9.52483E-05-2.85382E-05-2.85900E-05-5.40340E-08-1.18396E-18-1.12354E-19
 -1       517 9.52360E-05-2.85475E-05-2.85807E-05-2.15080E-08-5.29998E-19 1.33652E-18
 -1       518 9.52288E-05-2.85546E-05-2.85746E-05-4.39601E-10 2.67384E-19 2.43143E-18
 -1       519 9.52251E-05-2.85599E-05-2.85708E-05 1.24683E-08 1.08676E-18 1.75883E-18
 -1       520 9.52238E-05-2.85638E-05-2.85686E-05 1.96890E-08 1.53089E-18 5.85072E-19
 -1       521 9.52241E-05-2.85667E-05-2.85675E-05 2.30472E-08 3.82776E-19 1.51192E-18
 -1       522 9.52254E-05-2.85688E-05-2.85671E-05 2.38572E-08-1.39330E-18 2.18963E-18
 -1       523 9.52272E-05-2.85704E-05-2.85672E-05 2.30325E-08-2.67164E-18 3.27150E-18
 -1       524 9.52292E-05-2.85717E-05-2.85675E-05 2.11721E-08-1.19086E-18 3.27748E-18
 -1       525 9.52313E-05-2.85728E-05-2.85679E-05 1.86293E-08-8.81578E-19 1.43115E-18
 -1       526 9.52335E-05-2.85740E-05-2.85684E-05 1.55770E-08-1.18605E-19 8.30378E-19
 -1       527 9.52358E-05-2.85757E-05-2.85686E-05 1.28699E-08 1.45544E-19 8.89122E-19
 -1       528 1.02143E-04-3.24729E-05-2.98623E-05 3.93444E-06-2.89146E-19 1.83479E-18
 -1       529 1.02039E-04-3.18653E-05-3.00760E-05 2.56409E-06-6.91686E-19 1.81657E-18
 -1       530 1.01730E-04-3.06176E-05-3.04781E-05 2.19736E-06-1.20823E-18 1.87594E-18
 -1       531 1.01752E-04-3.22217E-05-2.98009E-05 5.70382E-06-3.59734E-19 1.63891E-18
 -1       532 1.00631E-04-3.09267E-05-2.98714E-05 7.08788E-06-5.98201E-19 1.78412E-18
 -1       533 9.88273E-05-2.87193E-05-3.00417E-05 7.21249E-06-8.61697E-19 1.65728E-18
 -1       534 9.68229E-05-2.62347E-05-3.02457E-05 5.44196E-06-8.64753E-19 1.93768E-18
 -1       535 9.54520E-05-2.45147E-05-3.03937E-05 1.86311E-06-6.48144E-19 2.61706E-18
 -1       536 9.53961E-05-2.43982E-05-3.04204E-05-2.53009E-06-1.33539E-19 3.47554E-18
 -1       537 9.67035E-05-2.59565E-05-3.03142E-05-6.28879E-06-4.83544E-19 3.88383E-18
 -1       538 9.87467E-05-2.84438E-05-3.01256E-05-8.30167E-06-4.11062E-19 3.28888E-18
 -1       539 1.00670E-04-3.08315E-05-2.99294E-05-8.30628E-06 4.05774E-19 2.71255E-18
 -1       540 1.01884E-04-3.24056E-05-2.97786E-05-6.79419E-06 2.18324E-19 2.43529E-18
 -1       541 1.02244E-04-3.29852E-05-2.96865E-05-4.55557E-06 6.50781E-19 1.62436E-18
 -1       542 1.01919E-04-3.27749E-05-2.96382E-05-2.27490E-06-1.75257E-19 2.37707E-18
 -1       543 1.01184E-04-3.21118E-05-2.96069E-05-3.68613E-07-8.27692E-19 2.12134E-18
 -1       544 1.00282E-04-3.12927E-05-2.95701E-05 1.00146E-06-3.10957E-19 1.95251E-18
 -1       545 9.93734E-05-3.05099E-05-2.95151E-05 1.84231E-06-5.10901E-19 2.28847E-18
 -1       546 9.85462E-05-2.98571E-05-2.94394E-05 2.24567E-06 3.05835E-19 2.40160E-18
 -1       547 9.78348E-05-2.93600E-05-2.93467E-05 2.32932E-06 6.71473E-21 2.99846E-18
 -1       548 9.72443E-05-2.90073E-05-2.92443E-05 2.20433E-06 4.21364E-19 2.09886E-18
 -1       549 9.67655E-05-2.87722E-05-2.91395E-05 1.96096E-06 2.66561E-19 1.59008E-18
 -1       550 9.63838E-05-2.86255E-05-2.90387E-05 1.66550E-06 7.74327E-19 1.86288E-18
 -1       551 9.60837E-05-2.85410E-05-2.89463E-05 1.36247E-06 4.66133E-19 1.96263E-18
 -1       552 9.58509E-05-2.84981E-05-2.88649E-05 1.07899E-06-5.43004E-20 2.90572E-18
 -1       553 9.56726E-05-2.84815E-05-2.87957E-05 8.29388E-07-1.11825E-18 3.34868E-18
 -1       554 9.55380E-05-2.84805E-05-2.87385E-05 6.19203E-07-8.25085E-19 3.19192E-18
 -1       555 9.54380E-05-2.84879E-05-2.86926E-05 4.48440E-07-4.22685E-19 3.14607E-18
 -1       556 9.53650E-05-2.84992E-05-2.86565E-05 3.13910E-07 7.66164E-20 2.08502E-18
 -1       557 9.53129E-05-2.85115E-05-2.86290E-05 2.10867E-07 1.14272E-18 1.83753E-18
 -1       558 9.52767E-05-2.85233E-05-2.86084E-05 1.34071E-07 1.36192E-18 1.95254E-18
 -1       559 9.52524E-05-2.85338E-05-2.85935E-05 7.84297E-08 1.79250E-18 1.64855E-18
 -1       560 9.52368E-05-2.85428E-05-2.85831E-05 3.93497E-08 1.90098E-18 4.84265E-19
 -1       561 9.52275E-05-2.85501E-05-2.85760E-05 1.28906E-08 1.47764E-18-7.32532E-19
 -1       562 9.52226E-05-2.85559E-05-2.85714E-05-4.20025E-09 1.50340E-18-9.53389E-19
 -1       563 9.52207E-05-2.85604E-05-2.85687E-05-1.45224E-08 7.94263E-19 1.21984E-19
 -1       564 9.52209E-05-2.85639E-05-2.85673E-05-2.00930E-08 4.81292E-19 1.03760E-19
 -1       565 9.52222E-05-2.85666E-05-2.85667E-05-2.24304E-08 2.06367E-18-1.58421E-18
 -1       566 9.52242E-05-2.85686E-05-2.85667E-05-2.26360E-08 2.64360E-18-2.91334E-18
 -1       567 9.52266E-05-2.85701E-05-2.85671E-05-2.14697E-08 2.33552E-18-2.42250E-18
 -1       568 9.52291E-05-2.85715E-05-2.85676E-05-1.94181E-08-9.95560E-19-1.04172E-18
 -1       569 9.52315E-05-2.85727E-05-2.85681E-05-1.67514E-08-6.00556E-19 1.63806E-18
 -1       570 9.52340E-05-2.85740E-05-2.85686E-05-1.35881E-08 2.88725E-19 1.94521E-21
 -1       571 9.52437E-05-2.85842E-05-2.85683E-05-1.16646E-08-1.35750E-18-1.27054E-18
 -1       572 9.52412E-05-2.85814E-05-2.85685E-05-1.34556E-08-1.20134E-18-5.14403E-19
 -1       573 9.52381E-05-2.85781E-05-2.85686E-05-1.36413E-08-1.25945E-18 5.92153E-19
 -1       574 5.33654E-05-2.82370E-05-1.01645E-05 4.06565E-05 7.56162E-19-2.36957E-18
 -1       575 9.52456E-05-2.85864E-05-2.85682E-05-8.54742E-09-2.13086E-18 1.16903E-19
 -1       576 9.52467E-05-2.85878E-05-2.85681E-05-4.51918E-09-2.15127E-18 1.10730E-18
 -1       577 9.52472E-05-2.85883E-05-2.85681E-05-2.60979E-11-2.49737E-18 3.98693E-18
 -1       578 9.52468E-05-2.85878E-05-2.85681E-05 4.47917E-09-2.22010E-18 1.03468E-18
 -1       579 9.52456E-05-2.85865E-05-2.85682E-05 8.47504E-09-6.39976E-19-1.56294E-19
 -1       580 9.52438E-05-2.85843E-05-2.85683E-05 1.16528E-08 1.06808E-18-1.92892E-18
 -1       581 9.52412E-05-2.85815E-05-2.85684E-05 1.35031E-08-3.81815E-19 1.39908E-18
 -1       582 9.52386E-05-2.85787E-05-2.85685E-05 1.38149E-08-1.90225E-19-1.71420E-19
 -1       583 9.69975E-05-1.92691E-05-3.33213E-05-8.34679E-07 2.36615E-18 1.26509E-18
 -1       584 1.41894E-04-5.45049E-05-3.76675E-05 1.01753E-05 3.11463E-19 2.44697E-18
 -1       585 3.07137E-05-1.14394E-05-7.52840E-06-7.62426E-06-1.45211E-18 1.70772E-18
 -1       586 6.19018E-05-3.29712E-05-1.18308E-05-3.59809E-05-1.77559E-18 1.11702E-20
 -1       587 1.47997E-04-2.47398E-05-5.33773E-05 1.76775E-05 3.01025E-18 2.70145E-18
 -1       588 7.77364E-05-6.13006E-06-3.06965E-05-4.88351E-06 1.09792E-18 3.47590E-18
 -1       589 1.44221E-04-3.45922E-05-4.74001E-05-6.78214E-06-1.64928E-18 2.48927E-18
 -1       590 1.38768E-04-1.62801E-05-5.30808E-05 9.26855E-06-4.17047E-18 9.47883E-19
 -1       591 1.37230E-04-1.42475E-05-5.33191E-05-8.86689E-06-2.99993E-18 2.62646E-18
 -1       592 1.31338E-04-6.58852E-05-2.80055E-05-2.19189E-05-1.16494E-18 1.60359E-18
 -1       593 1.31235E-04-5.84418E-06-5.44652E-05-1.08789E-06-3.42710E-18 1.85906E-18
 -1       594 1.45711E-04-3.65774E-05-4.71988E-05 5.26614E-06-3.58403E-18-6.23628E-20
 -1       595 1.44082E-04-5.25015E-05-3.94222E-05-8.33092E-06-2.25090E-18-2.04770E-19
 -1       596 1.25172E-04-5.95250E-05-2.81163E-05-3.07355E-05-2.87832E-19 1.07655E-18
 -1       597 9.55892E-05-5.08375E-05-1.88654E-05-4.43899E-05 7.74506E-19 2.24277E-18
 -1       598 5.39154E-05-3.16596E-05-9.09046E-06-4.33948E-05 1.12523E-18 3.49068E-18
 -1       599 2.88411E-05-1.64386E-05-4.73868E-06-2.55693E-05 1.39951E-18 4.24395E-18
 -1       600 2.56370E-05-1.14428E-05-5.38507E-06 6.67100E-06 6.18374E-19 4.92645E-18
 -1       601 4.65956E-05-2.63508E-05-8.13722E-06 3.29682E-05-3.51148E-19 4.45613E-18
 -1       602 8.58435E-05-4.85926E-05-1.56134E-05 4.06694E-05-1.05313E-18 4.40338E-18
 -1       603 1.18919E-04-6.21497E-05-2.43101E-05 3.11527E-05-1.34101E-18 2.98811E-18
 -1       604 1.48022E-04-6.47853E-05-3.57321E-05 1.05724E-05 6.77626E-20 2.17312E-18
 -1       605 1.46531E-04-1.63822E-05-5.63381E-05-1.82923E-06 4.39991E-18 2.18311E-18
 -1       606 1.51652E-04-6.20320E-05-3.85937E-05 1.52588E-06 7.34523E-19 3.63965E-18
 -1       607 9.41789E-05-5.09997E-05-1.81793E-05-3.73617E-05-1.71932E-18-8.34592E-19
 -1       608 2.92308E-05-1.42303E-05-5.76836E-06 2.03150E-05-9.23134E-20-7.93088E-19
 -1       609 8.43421E-05-9.75112E-06-3.19873E-05-1.61073E-06 2.01254E-18 2.39060E-18
 -1       610 1.01552E-04-2.85075E-05-3.12905E-05 3.70283E-06-1.71206E-18 1.67115E-18
 -1       611 7.88708E-05-3.94568E-05-1.65701E-05 4.20334E-05 1.50240E-18-1.15575E-18
 -1       612 5.14405E-05-1.81713E-05-1.37788E-05-2.31317E-05-7.23168E-19 5.00279E-19
 -1       613 1.01449E-04-2.95231E-05-3.08178E-05 2.62350E-06-1.39163E-18 1.86285E-18
 -1       614 1.23934E-04-9.50454E-06-4.95713E-05 7.06770E-06-3.41312E-18 1.19937E-18
 -1       615 8.76776E-05-1.61790E-05-3.06475E-05-4.84070E-06 2.41544E-19 2.91932E-18
 -1       616 8.32629E-05-1.28958E-05-3.01612E-05-6.56216E-06 6.79938E-19 3.18616E-18
 -1       617 9.52327E-05-2.16900E-05-3.15239E-05 6.47716E-07-7.85526E-19 2.74454E-18
 -1       618 9.81028E-05-2.40328E-05-3.17519E-05 3.06434E-06-1.17689E-18 2.35986E-18
 -1       619 1.00975E-04-2.70357E-05-3.16790E-05 4.53062E-06-1.66829E-18 2.01591E-18
 -1       620 1.37358E-04-4.58557E-05-3.94952E-05-5.47302E-06-1.19021E-19 2.88854E-18
 -1       621 1.13581E-04-5.63610E-05-2.43745E-05 3.30964E-05 2.43329E-18 4.70973E-19
 -1       622 9.10338E-05-1.82739E-05-3.11783E-05 6.41960E-06 1.78671E-18 1.46243E-18
 -1       623 8.99067E-05-1.98898E-05-3.00029E-05 1.14506E-05 1.17994E-18 1.86042E-18
 -1       624 8.90490E-05-2.23434E-05-2.85762E-05 1.64939E-05 5.87875E-19 1.94326E-18
 -1       625 9.00869E-05-2.75419E-05-2.67442E-05 2.18888E-05-6.06588E-20 2.11817E-18
 -1       626 9.59080E-05-3.78930E-05-2.47166E-05 2.74713E-05-1.13303E-18 2.25036E-18
 -1       627 5.03835E-05-1.80020E-05-1.33924E-05 2.75386E-05 4.08296E-20-1.14286E-18
 -1       628 4.08665E-05-9.99955E-06-1.27424E-05 7.79372E-06-1.44063E-18 1.23069E-18
 -1       629 9.54856E-05-3.84003E-05-2.42398E-05-2.70773E-05-1.99672E-18 1.60507E-18
 -1       630 8.97843E-05-2.84319E-05-2.62446E-05-2.21042E-05-9.69755E-19 1.28034E-18
 -1       631 8.87066E-05-2.39890E-05-2.77188E-05-1.78353E-05-3.44496E-20 1.88190E-19
 -1       632 8.96130E-05-2.26612E-05-2.86889E-05-1.44402E-05 3.37536E-19-5.64311E-19
 -1       633 9.10409E-05-2.28611E-05-2.92176E-05-1.17124E-05 3.41309E-19-2.92527E-20
 -1       634 9.23850E-05-2.36706E-05-2.94470E-05-9.44970E-06 6.45121E-19-3.38633E-19
 -1       635 9.34407E-05-2.46181E-05-2.94937E-05-7.55226E-06-6.52332E-19 4.15997E-20
 -1       636 9.41894E-05-2.54938E-05-2.94396E-05-5.96835E-06-8.08837E-19-7.12544E-19
 -1       637 9.46826E-05-2.62254E-05-2.93377E-05-4.66168E-06 1.51455E-19-1.21952E-18
 -1       638 9.49869E-05-2.68051E-05-2.92200E-05-3.59846E-06 2.47351E-19-1.70298E-19
 -1       639 9.51621E-05-2.72514E-05-2.91040E-05-2.74484E-06 1.38197E-19 7.17679E-19
 -1       640 9.52542E-05-2.75897E-05-2.89986E-05-2.06799E-06-5.24252E-19 1.01809E-18
 -1       641 9.52957E-05-2.78441E-05-2.89075E-05-1.53751E-06-1.52322E-18-1.96333E-19
 -1       642 9.53083E-05-2.80349E-05-2.88313E-05-1.12639E-06-8.11711E-19-1.12919E-19
 -1       643 9.53058E-05-2.81777E-05-2.87691E-05-8.11349E-07 5.34075E-19-8.71487E-19
 -1       644 9.52965E-05-2.82846E-05-2.87193E-05-5.72760E-07 3.07438E-19-3.06831E-19
 -1       645 9.52850E-05-2.83645E-05-2.86801E-05-3.94365E-07-3.56688E-19-3.70461E-19
 -1       646 9.52738E-05-2.84240E-05-2.86498E-05-2.62864E-07-4.56709E-19 9.69904E-19
 -1       647 9.52640E-05-2.84682E-05-2.86268E-05-1.67498E-07-1.29617E-18 1.21662E-18
 -1       648 9.52561E-05-2.85007E-05-2.86094E-05-9.96517E-08-1.02457E-19 1.14871E-18
 -1       649 9.52499E-05-2.85244E-05-2.85966E-05-5.24924E-08 6.97945E-20 1.35031E-18
 -1       650 9.52453E-05-2.85414E-05-2.85874E-05-2.06603E-08 8.21746E-19 6.84662E-19
 -1       651 9.52420E-05-2.85534E-05-2.85808E-05 2.81934E-12 5.29963E-19 2.52436E-18
 -1       652 9.52397E-05-2.85616E-05-2.85763E-05 1.26811E-08 1.99572E-19 3.75615E-19
 -1       653 9.52382E-05-2.85672E-05-2.85733E-05 1.97756E-08 1.80449E-18-6.24937E-19
 -1       654 9.52373E-05-2.85708E-05-2.85714E-05 2.30620E-08-2.33831E-19 1.00348E-19
 -1       655 9.52368E-05-2.85731E-05-2.85702E-05 2.38210E-08-1.11306E-18 6.58405E-19
 -1       656 9.52367E-05-2.85746E-05-2.85695E-05 2.29397E-08-1.97694E-18 1.24342E-18
 -1       657 9.52368E-05-2.85757E-05-2.85691E-05 2.10032E-08-1.72475E-18 2.14156E-18
 -1       658 9.52372E-05-2.85766E-05-2.85688E-05 1.83379E-08-1.29292E-18 1.22084E-18
 -1       659 9.52379E-05-2.85776E-05-2.85687E-05 1.61945E-08 4.89621E-19 1.11929E-18
 -1       660 1.04455E-04-3.38448E-05-3.02636E-05 2.68127E-06-4.10767E-19 1.58990E-18
 -1       661 1.05509E-04-3.47534E-05-3.03283E-05 4.64938E-06-2.01632E-19 1.52488E-18
 -1       662 1.02973E-04-3.18519E-05-3.04807E-05 1.75830E-06-8.00217E-19 1.71590E-18
 -1       663 1.04517E-04-3.16144E-05-3.12423E-05 8.56373E-06-8.67096E-19 1.69515E-18
 -1       664 1.02191E-04-2.76707E-05-3.19383E-05 8.18290E-06-9.76004E-19 1.95056E-18
 -1       665 9.97668E-05-2.38867E-05-3.25159E-05 5.03579E-06-1.01536E-18 1.51896E-18
 -1       666 9.85956E-05-2.21482E-05-3.27630E-05-2.34408E-07-1.13373E-18 1.99184E-18
 -1       667 9.94383E-05-2.34708E-05-3.25600E-05-5.66126E-06-8.01247E-19 2.34960E-18
 -1       668 1.01711E-04-2.70943E-05-3.19793E-05-9.14461E-06-3.94094E-19 3.16734E-18
 -1       669 1.04044E-04-3.11749E-05-3.12287E-05-9.79176E-06 4.28788E-19 3.03271E-18
 -1       670 1.05318E-04-3.41102E-05-3.05185E-05-8.13817E-06 7.50142E-19 2.49432E-18
 -1       671 1.05242E-04-3.53176E-05-2.99683E-05-5.35909E-06 6.54984E-19 3.05028E-18
 -1       672 1.04148E-04-3.50723E-05-2.96060E-05-2.49458E-06 2.86306E-19 3.31494E-18
 -1       673 1.02561E-04-3.39751E-05-2.93958E-05-1.38229E-07-3.06779E-19 2.60799E-18
 -1       674 1.00909E-04-3.25811E-05-2.92851E-05 1.51426E-06-6.21664E-20 2.13924E-18
 -1       675 9.94423E-05-3.12506E-05-2.92261E-05 2.49873E-06-4.51976E-19 1.50449E-18
 -1       676 9.82572E-05-3.01586E-05-2.91857E-05 2.94951E-06-3.09909E-19 1.54398E-18
 -1       677 9.73577E-05-2.93518E-05-2.91456E-05 3.02021E-06 1.33808E-19 1.28159E-18
 -1       678 9.67033E-05-2.88068E-05-2.90985E-05 2.84696E-06 3.56595E-19 1.95204E-18
 -1       679 9.62410E-05-2.84719E-05-2.90437E-05 2.53657E-06 3.67911E-19 1.90931E-18
 -1       680 9.59206E-05-2.82910E-05-2.89839E-05 2.16606E-06 3.54694E-19 1.73394E-18
 -1       681 9.57014E-05-2.82146E-05-2.89227E-05 1.78702E-06 3.69611E-19 2.57449E-18
 -1       682 9.55523E-05-2.82037E-05-2.88634E-05 1.43110E-06 2.39067E-19 1.73682E-18
 -1       683 9.54509E-05-2.82304E-05-2.88086E-05 1.11539E-06-6.80799E-19 1.40916E-18
 -1       684 9.53819E-05-2.82752E-05-2.87599E-05 8.46920E-07-1.01450E-18 1.44309E-18
 -1       685 9.53348E-05-2.83261E-05-2.87179E-05 6.26211E-07-4.85047E-19 1.08740E-18
 -1       686 9.53023E-05-2.83757E-05-2.86827E-05 4.49945E-07 5.13208E-19 5.47184E-19
 -1       687 9.52799E-05-2.84203E-05-2.86541E-05 3.12811E-07 1.30511E-18-3.65378E-19
 -1       688 9.52645E-05-2.84581E-05-2.86312E-05 2.08756E-07 6.65789E-19 2.82904E-20
 -1       689 9.52539E-05-2.84890E-05-2.86135E-05 1.31762E-07 1.99927E-18 2.42796E-19
 -1       690 9.52466E-05-2.85133E-05-2.86000E-05 7.62930E-08 1.76525E-18 5.00268E-20
 -1       691 9.52417E-05-2.85319E-05-2.85899E-05 3.75154E-08 2.17370E-18 7.98513E-19
 -1       692 9.52386E-05-2.85457E-05-2.85826E-05 1.13702E-08 1.51047E-18-3.48879E-19
 -1       693 9.52366E-05-2.85558E-05-2.85775E-05-5.44513E-09-2.27069E-19-6.37367E-19
 -1       694 9.52355E-05-2.85628E-05-2.85740E-05-1.55425E-08 7.75588E-19 8.45159E-20
 -1       695 9.52350E-05-2.85676E-05-2.85717E-05-2.09322E-08 2.55966E-18-7.29329E-19
 -1       696 9.52349E-05-2.85708E-05-2.85703E-05-2.31162E-08 2.67140E-18 3.02270E-19
 -1       697 9.52351E-05-2.85729E-05-2.85695E-05-2.31777E-08 1.65169E-18 1.30593E-18
 -1       698 9.52355E-05-2.85743E-05-2.85691E-05-2.18550E-08 3.83768E-19 2.36676E-18
 -1       699 9.52360E-05-2.85754E-05-2.85688E-05-1.96352E-08-1.69918E-18 7.82766E-19
 -1       700 9.52370E-05-2.85767E-05-2.85687E-05-1.69064E-08-6.48801E-19 4.36719E-19
 -1       701 9.52434E-05-2.85818E-05-2.85693E-05-1.51000E-08 6.36815E-19-2.12212E-18
 -1       702 9.52486E-05-2.85859E-05-2.85697E-05-7.77137E-09-1.12459E-20 1.35946E-18
 -1       703 9.52404E-05-2.85793E-05-2.85690E-05-1.65738E-08-2.34605E-20 1.11401E-18
 -1       704 9.52465E-05-2.85842E-05-2.85696E-05-1.20614E-08-8.90697E-19-1.55240E-18
 -1       705 9.52497E-05-2.85868E-05-2.85698E-05 2.60791E-09-1.79663E-19 2.97691E-18
 -1       706 9.52487E-05-2.85860E-05-2.85697E-05 7.62077E-09-5.53896E-19 1.18700E-19
 -1       707 9.52466E-05-2.85844E-05-2.85695E-05 1.20038E-08-1.21772E-18 6.17720E-19
 -1       708 9.52436E-05-2.85819E-05-2.85693E-05 1.51528E-08-6.51485E-20-6.71155E-19
 -1       709 8.53964E-05-3.86581E-05-1.96730E-05-3.29137E-05-1.35610E-18-8.34327E-19
 -1       710 7.98561E-05-3.78906E-05-1.76662E-05-4.11646E-05 1.60701E-18 2.58514E-18
 -1       711 9.52496E-05-2.85867E-05-2.85698E-05-2.71412E-09 2.52690E-19 2.06159E-18
 -1       712 1.15389E-04-5.59099E-05-2.53412E-05-3.18593E-05 1.08216E-18 9.77906E-19
 -1       713 1.18655E-04-5.66175E-05-2.64244E-05-2.35297E-05-1.92832E-18 2.39372E-18
 -1       714 7.75703E-05-3.43968E-05-1.80531E-05 3.42513E-05-9.70382E-19 3.27368E-18
 -1       715 9.17702E-05-1.91408E-05-3.11321E-05-2.20387E-06-1.96584E-19 2.95414E-18
 -1       716 1.21163E-04-1.02969E-05-4.80574E-05-7.43913E-06-2.70923E-18 2.03211E-18
 -1       717 1.38204E-04-4.54370E-05-4.00445E-05 5.16508E-06-1.81248E-18-4.76350E-19
 -1       718 4.97107E-05-1.69305E-05-1.35228E-05 2.30441E-05-1.62061E-19 3.94744E-18
 -1       719 1.34573E-04-5.79039E-05-3.29432E-05-1.30653E-05-2.82088E-19-2.16179E-19
 -1       720 5.47706E-05-2.21178E-05-1.34681E-05-3.49446E-05 1.68713E-18 3.53578E-18
 -1       721 3.64214E-05-9.09299E-06-1.11376E-05-1.14688E-05 1.41317E-18 4.00070E-18
 -1       722 1.02897E-04-4.99249E-05-2.24457E-05 3.24768E-05-1.59406E-18 2.80052E-18
 -1       723 7.74116E-05-7.64318E-06-2.99050E-05-2.80167E-06 1.37575E-18 2.76373E-18
 -1       724 1.05641E-04-3.40869E-05-3.06689E-05 6.97920E-06-3.86376E-19 1.57031E-18
 -1       725 1.30713E-04-2.72723E-05-4.47897E-05 1.32435E-05-2.82893E-18 6.35010E-20
 -1       726 1.29658E-04-2.45388E-05-4.54662E-05-1.32918E-05-2.01877E-18 2.83211E-18
 -1       727 1.32309E-04-5.88412E-05-3.15681E-05 1.53801E-05 1.67322E-18 1.65416E-18
 -1       728 7.93361E-05-9.81846E-06-2.97949E-05-6.80281E-06 1.04954E-18 3.24647E-18
 -1       729 4.96351E-05-1.15592E-05-1.59774E-05-8.51258E-06-7.53009E-19 6.97267E-19
 -1       730 9.08327E-05-1.62406E-05-3.19814E-05 2.21238E-06 1.96864E-18 1.67938E-18
 -1       731 8.11030E-05-9.93759E-06-3.05066E-05 1.56756E-07 1.63861E-18 2.40641E-18
 -1       732 9.52408E-05-2.85799E-05-2.85690E-05 1.61715E-08-6.31781E-19 1.04341E-18
 -1       733 1.01376E-04-2.90758E-05-3.09815E-05 2.18649E-06-1.21581E-18 1.86103E-18
 -1       734 6.80056E-05-2.72041E-05-1.72283E-05 3.34547E-05 1.17756E-18-1.41979E-18
 -1       735 7.70345E-05-7.78552E-06-2.96781E-05-5.39562E-06 1.21774E-18 3.18973E-18
 -1       736 1.15032E-04-9.08655E-06-4.58015E-05 2.43936E-07-2.76562E-18 1.79629E-18
 -1       737 4.63705E-05-9.19076E-06-1.55658E-05 7.01803E-06 5.13028E-19 3.71207E-18
 -1       738 9.95032E-05-2.71327E-05-3.10187E-05 3.76132E-07-7.67628E-19 2.30553E-18
 -1       739 1.25363E-04-3.54706E-05-3.87217E-05-1.27850E-05-8.12185E-19 3.03489E-18
 -1       740 7.92210E-05-1.48590E-05-2.75796E-05 1.03834E-05 1.06716E-18 1.90627E-18
 -1       741 7.49764E-05-1.65305E-05-2.49995E-05 1.55276E-05 4.39820E-19 2.26456E-18
 -1       742 7.34884E-05-2.20691E-05-2.18263E-05 2.37440E-05-2.89778E-19 2.67782E-18
 -1       743 1.02418E-04-2.00997E-05-3.53002E-05 3.59422E-06-1.45479E-18 1.34187E-18
 -1       744 5.52219E-05-1.39153E-05-1.74593E-05 1.61801E-05-1.38547E-18 1.40713E-19
 -1       745 1.16143E-04-1.79293E-05-4.24207E-05 1.09394E-05-2.39747E-18 8.61188E-19
 -1       746 1.17045E-04-1.89400E-05-4.23108E-05-1.19540E-05-1.88362E-18 2.39878E-18
 -1       747 7.47757E-05-1.85580E-05-2.40518E-05-1.65961E-05-9.79326E-19 1.33629E-18
 -1       748 7.92985E-05-1.81160E-05-2.62135E-05-1.26062E-05-6.35949E-20 1.07609E-18
 -1       749 8.33034E-05-1.90495E-05-2.75372E-05-1.01147E-05 2.53392E-19 2.15155E-19
 -1       750 8.65444E-05-2.04806E-05-2.83136E-05-8.32617E-06 4.39084E-19-9.45611E-19
 -1       751 8.90437E-05-2.19812E-05-2.87411E-05-6.88704E-06-4.14115E-19-4.94459E-19
 -1       752 9.09038E-05-2.33501E-05-2.89515E-05-5.65855E-06-8.80508E-19-1.10587E-18
 -1       753 9.22507E-05-2.45108E-05-2.90312E-05-4.59318E-06-4.06353E-19 2.30508E-19
 -1       754 9.32053E-05-2.54535E-05-2.90363E-05-3.67554E-06 2.54326E-19 4.90873E-19
 -1       755 9.38710E-05-2.61993E-05-2.90020E-05-2.89752E-06 3.51637E-19-2.78405E-19
 -1       756 9.43293E-05-2.67797E-05-2.89498E-05-2.24971E-06-1.36165E-19-9.01966E-19
 -1       757 9.46419E-05-2.72269E-05-2.88921E-05-1.71987E-06-1.11061E-18 4.43482E-19
 -1       758 9.48532E-05-2.75692E-05-2.88360E-05-1.29375E-06-1.88620E-18 1.46799E-18
 -1       759 9.49951E-05-2.78300E-05-2.87850E-05-9.56507E-07-1.29157E-18 3.67670E-19
 -1       760 9.50896E-05-2.80280E-05-2.87406E-05-6.93694E-07 5.86155E-19-4.65250E-19
 -1       761 9.51519E-05-2.81777E-05-2.87032E-05-4.92019E-07 9.30253E-19-6.89724E-19
 -1       762 9.51924E-05-2.82901E-05-2.86724E-05-3.39691E-07 4.09919E-19 8.59933E-19
 -1       763 9.52181E-05-2.83739E-05-2.86475E-05-2.26555E-07 2.24769E-19 1.42630E-18
 -1       764 9.52340E-05-2.84359E-05-2.86277E-05-1.44066E-07 5.21575E-19 2.85226E-18
 -1       765 9.52432E-05-2.84812E-05-2.86123E-05-8.51730E-08-4.82121E-19 3.30613E-18
 -1       766 9.52481E-05-2.85138E-05-2.86004E-05-4.41599E-08-6.74460E-19 3.26036E-18
 -1       767 9.52502E-05-2.85368E-05-2.85915E-05-1.64676E-08 4.48325E-19 1.06483E-18
 -1       768 9.52505E-05-2.85526E-05-2.85848E-05 1.48154E-09 2.70527E-19 5.11551E-19
 -1       769 9.52497E-05-2.85633E-05-2.85799E-05 1.24485E-08-5.21429E-19 1.51022E-18
 -1       770 9.52483E-05-2.85701E-05-2.85764E-05 1.85247E-08 1.36903E-18-3.97195E-19
 -1       771 9.52467E-05-2.85743E-05-2.85739E-05 2.12582E-08-2.75059E-19-8.08202E-19
 -1       772 9.52450E-05-2.85768E-05-2.85721E-05 2.17764E-08-1.35467E-18-6.30977E-20
 -1       773 9.52435E-05-2.85783E-05-2.85708E-05 2.08746E-08-9.16579E-19 2.25273E-19
 -1       774 9.52422E-05-2.85792E-05-2.85699E-05 1.89896E-08-1.41776E-18-2.08459E-20
 -1       775 1.07531E-04-3.64971E-05-3.04446E-05 1.85416E-06-1.69881E-19 1.12308E-18
 -1       776 1.04683E-04-3.37658E-05-3.03940E-05 3.11834E-07-5.33222E-19 1.37824E-18
 -1       777 1.05238E-04-2.49682E-05-3.44229E-05 8.89779E-06-9.40979E-19 1.48056E-18
 -1       778 1.08428E-04-3.12104E-05-3.31164E-05 1.01343E-05-9.88301E-19 1.17470E-18
 -1       779 1.02135E-04-1.96371E-05-3.53816E-05-3.71295E-06-1.37901E-18 1.73807E-18
 -1       780 1.04608E-04-2.40807E-05-3.45310E-05-9.36829E-06-9.79572E-19 2.16304E-18
 -1       781 1.07886E-04-3.05958E-05-3.31415E-05-1.10876E-05-4.78975E-19 2.67717E-18
 -1       782 1.09656E-04-3.57176E-05-3.16967E-05-9.20844E-06 7.33671E-19 3.31457E-18
 -1       783 1.09304E-04-3.81079E-05-3.05121E-05-5.55827E-06 6.62956E-19 2.95473E-18
 -1       784 1.07302E-04-3.79852E-05-2.97087E-05-1.91450E-06 1.00315E-18 2.72698E-18
 -1       785 1.04602E-04-3.63853E-05-2.92366E-05 8.97728E-07 5.82168E-19 1.94946E-18
 -1       786 1.01943E-04-3.42730E-05-2.90021E-05 2.69479E-06 9.82535E-20 1.49287E-18
 -1       787 9.97044E-05-3.22471E-05-2.89106E-05 3.62978E-06-9.20398E-20 1.65231E-18
 -1       788 9.80072E-05-3.05947E-05-2.88911E-05 3.94176E-06-1.67553E-19 9.83660E-19
 -1       789 9.68163E-05-2.93875E-05-2.88980E-05 3.85150E-06-4.97670E-19 6.21875E-19
 -1       790 9.60353E-05-2.85873E-05-2.89062E-05 3.52755E-06-1.24504E-19 1.16293E-18
 -1       791 9.55571E-05-2.81123E-05-2.89049E-05 3.08810E-06 6.15832E-19 1.17068E-18
 -1       792 9.52877E-05-2.78743E-05-2.88914E-05 2.61125E-06 3.21414E-19 1.33375E-18
 -1       793 9.51535E-05-2.77961E-05-2.88674E-05 2.14570E-06 3.33280E-19 9.96258E-19
 -1       794 9.51015E-05-2.78168E-05-2.88362E-05 1.71944E-06 5.87171E-19 1.11803E-18
 -1       795 9.50956E-05-2.78921E-05-2.88015E-05 1.34629E-06 4.04051E-20 1.59892E-18
 -1       796 9.51126E-05-2.79919E-05-2.87660E-05 1.03071E-06-6.85076E-19 1.07094E-18
 -1       797 9.51384E-05-2.80968E-05-2.87321E-05 7.71310E-07-5.24510E-19 9.36711E-19
 -1       798 9.51651E-05-2.81958E-05-2.87011E-05 5.63339E-07-6.13467E-20 4.83683E-19
 -1       799 9.51888E-05-2.82830E-05-2.86739E-05 4.00368E-07 8.81830E-19-4.42496E-19
 -1       800 9.52080E-05-2.83563E-05-2.86507E-05 2.75435E-07 8.49610E-19-1.30816E-18
 -1       801 9.52225E-05-2.84156E-05-2.86315E-05 1.81749E-07 1.22090E-18-2.15757E-18
 -1       802 9.52328E-05-2.84621E-05-2.86160E-05 1.13102E-07 1.96280E-18-3.31822E-18
 -1       803 9.52395E-05-2.84976E-05-2.86037E-05 6.40679E-08 1.86581E-18-3.59117E-18
 -1       804 9.52435E-05-2.85240E-05-2.85941E-05 3.00627E-08 1.65207E-18-2.55189E-18
 -1       805 9.52455E-05-2.85429E-05-2.85868E-05 7.32634E-09 7.53873E-19-8.52918E-19
 -1       806 9.52461E-05-2.85562E-05-2.85814E-05-7.14941E-09-2.17447E-19-5.94480E-19
 -1       807 9.52458E-05-2.85651E-05-2.85775E-05-1.57133E-08 1.92405E-18-1.19192E-18
 -1       808 9.52450E-05-2.85709E-05-2.85746E-05-2.01539E-08 6.52078E-19-3.13570E-19
 -1       809 9.52439E-05-2.85744E-05-2.85726E-05-2.17966E-08 1.19603E-18 1.67903E-19
 -1       810 9.52428E-05-2.85766E-05-2.85712E-05-2.15904E-08 3.03849E-19 1.47429E-18
 -1       811 9.52418E-05-2.85780E-05-2.85702E-05-2.01793E-08-6.34848E-19 3.58551E-18
 -1       812 9.52410E-05-2.85786E-05-2.85696E-05-1.85826E-08-6.50690E-19 2.50618E-18
 -1       813 9.52505E-05-2.85844E-05-2.85712E-05 1.10134E-08 9.29479E-19 1.12231E-19
 -1       814 9.52471E-05-2.85823E-05-2.85706E-05 1.54812E-08-1.62852E-19 3.42159E-19
 -1       815 9.52523E-05-2.85855E-05-2.85715E-05 5.74880E-09 1.44640E-18 2.41915E-19
 -1       816 8.41268E-05-1.27191E-05-3.06073E-05 2.68650E-06 1.66644E-18 2.15396E-18
 -1       817 1.27637E-04-3.70854E-05-3.90073E-05 1.10513E-05-1.65083E-18-4.88156E-19
 -1       818 6.68191E-05-2.17829E-05-1.90489E-05-2.42860E-05-4.95216E-19 3.88801E-19
 -1       819 1.00809E-04-4.53447E-05-2.36364E-05-3.24722E-05 1.36150E-18 1.33518E-18
 -1       820 8.21979E-05-1.39102E-05-2.92667E-05 6.37791E-06 1.50137E-18 2.02969E-18
 -1       821 1.30955E-04-5.22603E-05-3.38396E-05 1.07639E-06 9.35970E-19 2.63168E-18
 -1       822 1.24454E-04-5.53811E-05-2.95765E-05-1.69143E-05 5.96278E-19 3.53802E-20
 -1       823 9.52522E-05-2.85853E-05-2.85715E-05-5.92403E-09 1.66698E-18 1.11483E-18
 -1       824 5.41815E-05-1.33032E-05-1.71997E-05-2.11923E-05 1.59283E-18 3.64968E-18
 -1       825 7.23987E-05-2.75165E-05-1.89869E-05-3.37594E-05 1.66627E-18 3.07801E-18
 -1       826 9.52530E-05-2.85858E-05-2.85716E-05-1.02687E-10 1.77738E-18 3.95902E-18
 -1       827 8.79670E-05-1.89995E-05-2.95596E-05-8.57288E-06 6.11438E-19 2.61296E-18
 -1       828 1.31870E-04-5.11108E-05-3.47279E-05-1.07468E-07-4.36533E-19-2.74948E-19
 -1       829 9.91105E-05-4.63175E-05-2.24507E-05 3.35882E-05 1.16812E-18 2.67868E-19
 -1       830 1.21250E-04-5.53104E-05-2.82333E-05 1.84424E-05 1.64342E-18 1.28693E-18
 -1       831 1.10348E-04-3.59472E-05-3.18699E-05 8.18548E-06-6.27360E-19 1.34583E-18
 -1       832 6.58636E-05-1.99926E-05-1.95129E-05 2.28271E-05-1.01536E-18 8.37014E-19
 -1       833 5.53450E-05-1.10483E-05-1.88036E-05 2.89578E-06-1.14772E-18 7.48526E-19
 -1       834 1.16781E-04-2.71811E-05-3.84718E-05 1.26752E-05-1.63287E-18 3.95214E-19
 -1       835 1.09725E-04-3.75476E-05-3.09390E-05 4.77674E-06-3.92402E-19 1.20314E-18
 -1       836 7.67599E-05-9.59030E-06-2.87845E-05 1.00415E-07 1.36658E-18 2.37298E-18
 -1       837 8.22876E-05-1.48008E-05-2.89231E-05-9.68963E-06 9.78752E-19 2.92607E-18
 -1       838 9.30552E-05-2.25923E-05-3.01993E-05-5.84145E-06 1.46080E-19 2.55002E-18
 -1       839 6.23139E-05-1.27756E-05-2.09936E-05 1.41285E-05 4.06119E-19 2.88502E-18
 -1       840 9.52502E-05-2.85841E-05-2.85712E-05-1.12139E-08 2.03884E-18 7.68635E-19
 -1       841 1.01747E-04-3.01011E-05-3.07047E-05 2.64057E-07-6.11165E-19 1.83278E-18
 -1       842 5.30527E-05-8.30383E-06-1.90208E-05-5.99252E-06 1.35079E-18 3.03283E-18
 -1       843 9.68816E-05-2.52344E-05-3.07054E-05-2.54835E-06-3.31599E-19 2.42218E-18
 -1       844 1.10895E-04-1.38706E-05-4.18221E-05-6.31846E-06-2.44541E-18 2.41750E-18
 -1       845 7.50485E-05-8.82439E-06-2.83764E-05-4.87346E-06 1.06698E-18 2.85653E-18
 -1       846 9.52469E-05-2.85822E-05-2.85706E-05-1.55383E-08 1.11245E-18-1.92583E-18
 -1       847 1.07300E-04-1.91809E-05-3.78708E-05-8.56380E-06-1.82989E-18 2.67394E-18
 -1       848 9.52498E-05-2.85814E-05-2.85722E-05 1.69211E-08 1.76418E-19-8.00414E-19
 -1       849 6.90487E-05-1.39957E-05-2.35522E-05-6.60644E-06-3.22240E-19 1.62551E-19
 -1       850 6.05857E-05-1.22900E-05-2.05528E-05-7.26023E-06-6.35997E-19 1.21589E-19
 -1       851 1.23239E-04-4.37732E-05-3.41188E-05-7.22954E-06 2.32775E-19 2.26476E-18
 -1       852 7.59708E-05-1.58924E-05-2.57468E-05-5.57995E-06-4.77153E-19-2.84573E-19
 -1       853 8.10555E-05-1.78755E-05-2.70796E-05-5.03838E-06 6.22929E-20-3.96177E-19
 -1       854 8.48430E-05-1.97667E-05-2.78913E-05-4.59773E-06 5.40341E-19-6.27025E-19
 -1       855 8.76676E-05-2.14648E-05-2.83734E-05-4.12725E-06-7.29253E-19-4.15859E-19
 -1       856 8.97636E-05-2.29240E-05-2.86459E-05-3.61269E-06 2.81154E-19 6.52936E-19
 -1       857 9.13078E-05-2.41390E-05-2.87868E-05-3.07894E-06-4.46725E-20 1.28799E-18
 -1       858 9.24374E-05-2.51278E-05-2.88471E-05-2.55820E-06-6.82927E-19 1.67084E-19
 -1       859 9.32581E-05-2.59197E-05-2.88594E-05-2.07612E-06-6.32699E-19-5.00580E-19
 -1       860 9.38512E-05-2.65463E-05-2.88450E-05-1.64843E-06 8.92883E-19-3.05784E-19
 -1       861 9.42774E-05-2.70377E-05-2.88170E-05-1.28188E-06-3.03685E-19 2.42236E-20
 -1       862 9.45822E-05-2.74204E-05-2.87836E-05-9.76656E-07-1.40770E-18 9.70779E-20
 -1       863 9.47988E-05-2.77164E-05-2.87496E-05-7.28709E-07-4.20241E-19-6.72604E-19
 -1       864 9.49515E-05-2.79438E-05-2.87176E-05-5.31700E-07 3.49690E-19-1.01116E-18
 -1       865 9.50582E-05-2.81172E-05-2.86890E-05-3.78347E-07 1.33318E-18-6.81647E-19
 -1       866 9.51317E-05-2.82483E-05-2.86643E-05-2.61329E-07 8.31398E-19 6.83256E-19
 -1       867 9.51813E-05-2.83464E-05-2.86435E-05-1.73813E-07 4.11642E-19 2.70379E-19
 -1       868 9.52140E-05-2.84188E-05-2.86265E-05-1.09734E-07 1.14073E-18-1.35569E-19
 -1       869 9.52346E-05-2.84716E-05-2.86127E-05-6.38997E-08-1.60009E-18 8.21025E-19
 -1       870 9.52469E-05-2.85093E-05-2.86018E-05-3.19927E-08 1.61421E-19 1.77718E-18
 -1       871 9.52534E-05-2.85357E-05-2.85933E-05-1.05088E-08 9.54102E-19 1.71204E-18
 -1       872 9.52560E-05-2.85537E-05-2.85867E-05 3.33374E-09 1.54408E-18-8.22127E-19
 -1       873 9.52562E-05-2.85655E-05-2.85817E-05 1.16969E-08-4.01268E-19 7.46242E-19
 -1       874 9.52548E-05-2.85729E-05-2.85780E-05 1.62258E-08-8.04906E-19-2.06658E-18
 -1       875 9.52527E-05-2.85773E-05-2.85752E-05 1.81310E-08 4.56344E-19-1.61201E-18
 -1       876 9.52513E-05-2.85798E-05-2.85735E-05 1.79317E-08-1.01663E-18-7.51661E-19
 -1       877 1.08710E-04-2.02415E-05-3.80182E-05 8.46438E-06-1.24996E-18 1.32418E-18
 -1       878 1.11680E-04-2.81916E-05-3.58451E-05-1.25931E-05-1.19318E-18 2.85536E-18
 -1       879 1.14496E-04-3.65486E-05-3.34200E-05-1.03766E-05 1.95559E-19 3.19870E-18
 -1       880 1.14140E-04-4.11800E-05-3.12761E-05-5.37271E-06 1.36739E-18 2.46307E-18
 -1       881 1.11092E-04-4.12958E-05-2.99147E-05-6.52332E-07 8.70870E-19 1.55815E-18
 -1       882 1.07020E-04-3.91332E-05-2.90943E-05 2.76059E-06 1.12263E-18 1.47314E-18
 -1       883 1.03141E-04-3.61738E-05-2.87020E-05 4.59524E-06 5.61279E-19 1.70720E-18
 -1       884 9.99960E-05-3.33438E-05-2.85657E-05 5.29826E-06 1.32095E-19 1.81513E-18
 -1       885 9.77156E-05-3.10650E-05-2.85645E-05 5.27681E-06-3.02225E-19 1.39160E-18
 -1       886 9.61984E-05-2.94200E-05-2.86192E-05 4.86407E-06-1.74075E-19 1.44369E-18
 -1       887 9.52750E-05-2.83437E-05-2.86848E-05 4.27209E-06-4.93941E-19 4.49719E-19
 -1       888 9.47747E-05-2.77161E-05-2.87393E-05 3.62779E-06 2.98926E-19 5.33301E-19
 -1       889 9.45553E-05-2.74138E-05-2.87749E-05 3.00171E-06 2.48691E-19 1.37818E-18
 -1       890 9.45094E-05-2.73299E-05-2.87911E-05 2.43043E-06 3.94335E-19 7.84362E-19
 -1       891 9.45605E-05-2.73810E-05-2.87912E-05 1.93012E-06 3.41170E-20 1.01307E-18
 -1       892 9.46581E-05-2.75060E-05-2.87794E-05 1.50496E-06-2.33844E-19 1.64708E-18
 -1       893 9.47703E-05-2.76634E-05-2.87601E-05 1.15233E-06-2.68690E-19 1.78290E-18
 -1       894 9.48789E-05-2.78265E-05-2.87367E-05 8.65895E-07-7.46245E-19 1.77780E-18
 -1       895 9.49745E-05-2.79795E-05-2.87121E-05 6.37637E-07 2.58817E-19 4.49345E-19
 -1       896 9.50536E-05-2.81144E-05-2.86882E-05 4.59018E-07 1.24929E-18-5.80412E-19
 -1       897 9.51159E-05-2.82281E-05-2.86662E-05 3.21739E-07 1.72871E-18-1.63638E-18
 -1       898 9.51630E-05-2.83206E-05-2.86467E-05 2.18166E-07 1.36612E-18-1.77519E-18
 -1       899 9.51970E-05-2.83936E-05-2.86300E-05 1.41543E-07 1.59628E-18-1.19865E-18
 -1       900 9.52206E-05-2.84496E-05-2.86161E-05 8.60691E-08 1.04521E-18-2.62150E-19
 -1       901 9.52361E-05-2.84915E-05-2.86048E-05 4.68905E-08 1.64285E-18 9.62394E-19
 -1       902 9.52455E-05-2.85220E-05-2.85958E-05 2.00338E-08 2.87632E-19 5.11543E-19
 -1       903 9.52506E-05-2.85436E-05-2.85887E-05 2.31318E-09 1.05077E-19 7.82526E-19
 -1       904 9.52526E-05-2.85583E-05-2.85833E-05-8.77535E-09 1.10687E-18 1.31591E-18
 -1       905 9.52526E-05-2.85679E-05-2.85792E-05-1.51593E-08 1.10850E-18 1.63930E-18
 -1       906 9.52514E-05-2.85740E-05-2.85761E-05-1.82841E-08 9.48207E-19 1.91795E-18
 -1       907 9.52496E-05-2.85775E-05-2.85737E-05-1.92213E-08-4.26702E-19 3.75603E-18
 -1       908 9.52476E-05-2.85797E-05-2.85720E-05-1.87441E-08-6.85052E-19 2.05685E-18
 -1       909 9.52547E-05-2.85839E-05-2.85732E-05 9.03008E-09 1.72331E-18-4.73680E-19
 -1       910 1.12370E-04-4.77899E-05-2.76362E-05-1.99592E-05 8.99652E-19 6.66202E-19
 -1       911 8.57174E-05-3.46888E-05-2.17635E-05 3.00329E-05 9.17621E-19-1.92819E-19
 -1       912 1.23942E-04-5.03635E-05-3.15696E-05-4.92391E-06 1.28254E-19 1.18912E-19
 -1       913 7.74179E-05-1.09914E-05-2.84695E-05-8.41638E-06 1.14636E-18 3.26796E-18
 -1       914 1.08469E-04-4.76600E-05-2.59852E-05 2.24260E-05 1.30867E-18 1.20435E-18
 -1       915 9.99932E-05-2.89606E-05-3.04383E-05-2.75919E-06-2.12461E-19 2.07452E-18
 -1       916 8.87787E-05-3.35827E-05-2.35851E-05-2.87006E-05 1.42377E-18 2.01020E-18
 -1       917 1.07702E-04-1.49513E-05-3.99317E-05 3.51087E-06-1.83621E-18 1.97820E-18
 -1       918 1.06756E-04-3.63727E-05-3.01679E-05-2.38917E-06-7.94286E-20 1.76980E-18
 -1       919 7.10921E-05-2.05863E-05-2.15122E-05-2.51540E-05 1.60438E-18 3.20503E-18
 -1       920 1.03299E-04-3.28479E-05-3.01986E-05-3.02179E-06-1.76365E-19 1.81008E-18
 -1       921 6.82763E-05-1.01036E-05-2.48475E-05 5.50280E-06 1.10807E-18 2.18948E-18
 -1       922 1.23975E-04-4.30106E-05-3.47951E-05 7.34041E-06-7.98856E-19-2.19974E-19
 -1       923 1.22251E-04-5.08828E-05-3.06430E-05 5.51250E-06 1.66886E-18 2.05543E-18
 -1       924 7.89391E-05-1.13807E-05-2.89526E-05 3.26148E-06 1.48827E-18 2.21680E-18
 -1       925 6.45860E-05-1.46754E-05-2.12948E-05 1.10438E-05-1.20660E-18 3.57395E-19
 -1       926 1.05956E-04-1.52946E-05-3.89453E-05 5.99384E-08-1.83493E-18 1.96927E-18
 -1       927 8.73866E-05-2.14853E-05-2.82372E-05-1.28617E-05 9.67017E-19 2.48114E-18
 -1       928 9.52562E-05-2.85845E-05-2.85736E-05 2.90795E-09 3.14509E-18 2.14753E-18
 -1       929 9.52544E-05-2.85836E-05-2.85732E-05-9.26679E-09 2.40363E-18 2.00885E-19
 -1       930 9.52525E-05-2.85817E-05-2.85732E-05-1.44380E-08 1.47517E-18 2.06128E-18
 -1       931 9.42143E-05-2.60916E-05-2.91888E-05-1.00164E-05 6.22536E-19 2.00314E-18
 -1       932 7.46771E-05-1.11821E-05-2.72022E-05 4.49846E-06 1.20666E-18 2.20252E-18
 -1       933 7.27730E-05-9.57349E-06-2.70731E-05 1.07852E-07 1.15706E-18 2.05426E-18
 -1       934 6.30489E-05-1.20399E-05-2.17254E-05-1.50287E-05 1.66754E-18 3.41480E-18
 -1       935 1.11101E-04-3.98352E-05-3.05530E-05-2.66879E-07-9.56419E-20 1.25641E-18
 -1       936 9.52561E-05-2.85844E-05-2.85736E-05-3.31633E-09 3.27873E-18 1.66737E-18
 -1       937 1.14333E-04-4.79050E-05-2.84471E-05 1.15458E-05 1.23780E-18 2.84106E-18
 -1       938 1.16375E-04-4.28186E-05-3.15330E-05 2.19394E-06-1.53973E-19 7.00825E-19
 -1       939 1.00123E-04-3.70106E-05-2.70212E-05-1.97776E-05 9.77827E-19 1.31338E-18
 -1       940 6.46800E-05-1.27622E-05-2.21906E-05 6.44952E-07-7.83917E-19 7.81752E-20
 -1       941 7.15880E-05-1.03649E-05-2.62424E-05-7.93396E-06 1.19645E-18 3.21617E-18
 -1       942 7.28493E-05-1.49684E-05-2.47971E-05-5.45903E-07-1.19025E-18-5.52595E-20
 -1       943 7.95604E-05-1.58455E-05-2.73001E-05-1.30219E-05 1.24978E-18 2.95722E-18
 -1       944 7.86372E-05-1.70655E-05-2.63894E-05-1.47083E-06 3.56496E-20-7.46090E-19
 -1       945 8.28892E-05-1.89893E-05-2.73867E-05-2.06390E-06 1.62313E-19-1.15108E-18
 -1       946 8.60673E-05-2.07159E-05-2.80083E-05-2.33507E-06-1.03613E-19-6.34315E-19
 -1       947 8.84562E-05-2.22223E-05-2.83862E-05-2.35839E-06 5.88403E-19 5.29775E-19
 -1       948 9.02516E-05-2.35036E-05-2.86064E-05-2.21191E-06 6.00766E-19 1.05222E-18
 -1       949 9.15967E-05-2.45711E-05-2.87253E-05-1.96700E-06-6.46350E-19 6.02265E-19
 -1       950 9.25998E-05-2.54457E-05-2.87804E-05-1.67887E-06-9.36661E-19 1.80224E-18
 -1       951 9.33441E-05-2.61527E-05-2.87964E-05-1.38576E-06 6.22725E-19 6.26004E-19
 -1       952 9.38934E-05-2.67180E-05-2.87895E-05-1.11141E-06-3.00052E-20-7.27592E-19
 -1       953 9.42964E-05-2.71657E-05-2.87704E-05-8.68551E-07-1.97704E-18-1.05556E-18
 -1       954 9.45901E-05-2.75172E-05-2.87456E-05-6.62267E-07-7.01021E-19-1.59301E-18
 -1       955 9.48024E-05-2.77907E-05-2.87194E-05-4.92703E-07 5.94242E-19-1.08774E-18
 -1       956 9.49542E-05-2.80016E-05-2.86940E-05-3.57136E-07 1.97984E-18-5.99683E-19
 -1       957 9.50613E-05-2.81626E-05-2.86709E-05-2.51403E-07 1.41152E-18-4.11058E-19
 -1       958 9.51356E-05-2.82841E-05-2.86507E-05-1.70841E-07-8.77803E-19-2.49931E-19
 -1       959 9.51859E-05-2.83746E-05-2.86335E-05-1.10863E-07 7.78641E-19-1.00984E-18
 -1       960 9.52189E-05-2.84410E-05-2.86191E-05-6.72769E-08-2.39494E-19 1.81053E-19
 -1       961 9.52395E-05-2.84889E-05-2.86074E-05-3.64388E-08-1.58061E-19 2.21815E-18
 -1       962 9.52515E-05-2.85227E-05-2.85981E-05-1.52942E-08 5.16596E-19 1.07143E-18
 -1       963 9.52575E-05-2.85459E-05-2.85907E-05-1.35838E-09-3.68659E-19 4.41648E-19
 -1       964 9.52595E-05-2.85613E-05-2.85849E-05 7.33767E-09 9.86907E-19-2.48572E-18
 -1       965 9.52590E-05-2.85712E-05-2.85805E-05 1.23151E-08-1.76121E-18-1.89025E-18
 -1       966 9.52570E-05-2.85771E-05-2.85771E-05 1.47147E-08 8.00806E-19-2.03853E-18
 -1       967 1.15753E-04-4.56869E-05-3.00106E-05 2.42687E-06 1.91420E-18 2.31630E-18
 -1       968 1.09539E-04-4.24118E-05-2.87728E-05 6.36097E-06 8.55972E-19 2.27466E-18
 -1       969 1.03997E-04-3.81712E-05-2.82175E-05 7.94567E-06 4.17230E-19 2.58599E-18
 -1       970 9.97277E-05-3.42741E-05-2.80519E-05 8.06170E-06 2.36951E-19 2.77092E-18
 -1       971 9.68525E-05-3.12722E-05-2.81050E-05 7.31460E-06 1.20209E-19 3.03851E-18
 -1       972 9.50674E-05-2.91727E-05-2.82405E-05 6.27278E-06-2.27722E-19 2.78380E-18
 -1       973 9.40878E-05-2.78473E-05-2.83886E-05 5.19772E-06 1.59212E-20 2.81862E-18
 -1       974 9.36460E-05-2.71043E-05-2.85178E-05 4.20954E-06-2.35243E-19 1.90071E-18
 -1       975 9.35453E-05-2.67738E-05-2.86163E-05 3.35150E-06-4.10994E-19 2.25545E-18
 -1       976 9.36430E-05-2.67158E-05-2.86831E-05 2.63164E-06 6.45149E-19 2.76588E-18
 -1       977 9.38416E-05-2.68232E-05-2.87221E-05 2.04094E-06-1.57109E-19 3.51311E-18
 -1       978 9.40780E-05-2.70195E-05-2.87394E-05 1.56383E-06-1.37298E-19 2.98193E-18
 -1       979 9.43141E-05-2.72523E-05-2.87408E-05 1.18335E-06-2.65663E-19 2.15114E-18
 -1       980 9.45287E-05-2.74882E-05-2.87316E-05 8.83353E-07-7.77997E-19 1.44611E-18
 -1       981 9.47123E-05-2.77078E-05-2.87162E-05 6.49414E-07-1.15744E-20 1.38240E-18
 -1       982 9.48624E-05-2.79009E-05-2.86978E-05 4.69052E-07 9.92158E-19 1.59517E-18
 -1       983 9.49805E-05-2.80639E-05-2.86786E-05 3.31682E-07 1.50931E-18 7.31440E-19
 -1       984 9.50703E-05-2.81970E-05-2.86600E-05 2.28445E-07 1.63579E-18 2.20084E-19
 -1       985 9.51365E-05-2.83026E-05-2.86431E-05 1.52016E-07-1.68211E-19 2.04620E-18
 -1       986 9.51835E-05-2.83843E-05-2.86282E-05 9.63946E-08 9.00701E-19 2.86022E-18
 -1       987 9.52156E-05-2.84460E-05-2.86155E-05 5.67217E-08 9.32407E-19 1.43237E-18
 -1       988 9.52364E-05-2.84914E-05-2.86050E-05 2.91028E-08 3.24389E-19 2.13856E-18
 -1       989 9.52488E-05-2.85239E-05-2.85964E-05 1.04546E-08-1.65326E-19 1.64453E-18
 -1       990 9.52554E-05-2.85464E-05-2.85896E-05-1.63198E-09-7.22108E-19 1.84382E-18
 -1       991 9.52579E-05-2.85615E-05-2.85842E-05-9.01135E-09-5.26061E-19 3.72878E-18
 -1       992 9.52578E-05-2.85712E-05-2.85800E-05-1.30947E-08 1.91341E-18 2.75307E-18
 -1       993 9.52561E-05-2.85771E-05-2.85767E-05-1.48986E-08-1.09455E-19 2.26513E-18
 -1       994 9.52544E-05-2.85798E-05-2.85748E-05-1.49501E-08 1.99544E-19 1.75747E-18
 -1       995 7.93859E-05-2.65500E-05-2.26190E-05 2.27430E-05-9.67987E-19 7.10032E-19
 -1       996 1.13786E-04-4.48117E-05-2.95410E-05-9.60729E-06 4.51615E-19 6.79020E-19
 -1       997 9.52575E-05-2.85821E-05-2.85752E-05 9.87023E-09 1.88984E-18-1.33189E-18
 -1       998 9.85746E-05-2.82957E-05-3.01184E-05-5.10845E-06-2.83309E-22 2.16590E-18
 -1       999 8.32099E-05-2.48985E-05-2.49403E-05-2.20676E-05 1.57603E-18 2.53021E-18
 -1      1000 7.42950E-05-1.98823E-05-2.32993E-05 1.50880E-05-9.89130E-19 4.67869E-19
 -1      1001 9.64313E-05-3.81711E-05-2.49448E-05 2.25814E-05 1.15726E-18 1.13212E-18
 -1      1002 9.52592E-05-2.85825E-05-2.85757E-05 3.61045E-09 3.25435E-18 8.65104E-19
 -1      1003 8.52069E-05-2.34168E-05-2.64482E-05-1.82461E-05 1.34359E-18 2.42068E-18
 -1      1004 7.12094E-05-1.57697E-05-2.37299E-05 7.00458E-06-9.63896E-19 3.98818E-19
 -1      1005 1.05158E-04-4.20179E-05-2.70270E-05 1.54891E-05 1.17305E-18 2.30705E-18
 -1      1006 9.52043E-05-2.98356E-05-2.80105E-05-1.50094E-05 8.61470E-19 1.90103E-18
 -1      1007 9.52569E-05-2.85819E-05-2.85750E-05-9.89907E-09 2.01083E-18 1.06566E-18
 -1      1008 1.03727E-04-3.46760E-05-2.95887E-05-7.34583E-06 1.39950E-19 1.48308E-18
 -1      1009 9.52588E-05-2.85825E-05-2.85755E-05-3.85553E-09 3.09206E-18 3.09647E-18
 -1      1010 1.11103E-04-4.08777E-05-3.00822E-05-4.33834E-06 2.81155E-19 1.24792E-18
 -1      1011 6.68096E-05-9.08032E-06-2.47849E-05-1.09481E-06 1.31837E-18 2.15422E-18
 -1      1012 7.69553E-05-1.72357E-05-2.55907E-05 3.81479E-06-3.61715E-19 4.09023E-19
 -1      1013 8.12944E-05-1.88021E-05-2.67838E-05 1.70744E-06-1.48410E-19 1.97153E-19
 -1      1014 8.45993E-05-2.02906E-05-2.75617E-05 3.67710E-07 9.04164E-19 8.72781E-19
 -1      1015 8.71453E-05-2.16688E-05-2.80617E-05-4.33553E-07 8.78942E-19 1.18451E-18
 -1      1016 8.91187E-05-2.29061E-05-2.83769E-05-8.51046E-07 1.02609E-19 8.05355E-19
 -1      1017 9.06455E-05-2.39867E-05-2.85681E-05-1.01436E-06-4.17116E-19-3.82354E-19
 -1      1018 9.18214E-05-2.49089E-05-2.86768E-05-1.01931E-06-1.85720E-20 4.97249E-19
 -1      1019 9.27217E-05-2.56812E-05-2.87316E-05-9.34534E-07-2.04950E-19 1.22255E-18
 -1      1020 9.34062E-05-2.63177E-05-2.87522E-05-8.06777E-07-5.39716E-19 1.01503E-18
 -1      1021 9.39227E-05-2.68352E-05-2.87518E-05-6.66063E-07-1.19132E-18 3.59437E-19
 -1      1022 9.43092E-05-2.72506E-05-2.87394E-05-5.30263E-07-1.43574E-18 1.73188E-18
 -1      1023 9.45955E-05-2.75801E-05-2.87209E-05-4.08856E-07 8.29493E-19 2.35643E-18
 -1      1024 9.48053E-05-2.78385E-05-2.87001E-05-3.05831E-07 9.72815E-19 2.21860E-18
 -1      1025 9.49569E-05-2.80387E-05-2.86792E-05-2.21798E-07 7.78198E-19 4.79145E-19
 -1      1026 9.50646E-05-2.81918E-05-2.86598E-05-1.55462E-07 5.53505E-19-5.29243E-19
 -1      1027 9.51396E-05-2.83073E-05-2.86424E-05-1.04595E-07 2.85540E-19-6.12799E-20
 -1      1028 9.51904E-05-2.83930E-05-2.86274E-05-6.66516E-08 9.67114E-19 9.09863E-20
 -1      1029 9.52235E-05-2.84556E-05-2.86148E-05-3.91295E-08 9.87528E-20 1.19829E-18
 -1      1030 9.52440E-05-2.85004E-05-2.86044E-05-1.97654E-08 2.63344E-19 9.97580E-19
 -1      1031 9.52555E-05-2.85316E-05-2.85960E-05-6.61822E-09-2.33283E-19 8.50210E-19
 -1      1032 9.52609E-05-2.85528E-05-2.85892E-05 1.91113E-09-7.37923E-19 1.01855E-19
 -1      1033 9.52623E-05-2.85665E-05-2.85839E-05 7.09775E-09-1.07728E-18-1.48962E-18
 -1      1034 9.52612E-05-2.85751E-05-2.85798E-05 9.90581E-09-1.30101E-18-1.87403E-18
 -1      1035 9.52571E-05-2.85794E-05-2.85762E-05 1.34825E-08 9.21600E-19-3.01421E-18
 -1      1036 9.82867E-05-3.46373E-05-2.72709E-05 1.20412E-05-8.15517E-21 2.50849E-18
 -1      1037 9.49566E-05-3.08760E-05-2.74707E-05 9.98083E-06 4.99203E-21 3.23841E-18
 -1      1038 9.31408E-05-2.83986E-05-2.77470E-05 7.94900E-06-3.13396E-19 4.19688E-18
 -1      1039 9.23423E-05-2.69618E-05-2.80196E-05 6.19735E-06-2.38708E-19 4.36873E-18
 -1      1040 9.21275E-05-2.62102E-05-2.82500E-05 4.74738E-06 1.36745E-19 4.21496E-18
 -1      1041 9.22671E-05-2.59352E-05-2.84278E-05 3.59313E-06-3.28040E-19 3.10189E-18
 -1      1042 9.25921E-05-2.59636E-05-2.85550E-05 2.69664E-06-3.36779E-19 2.04188E-18
 -1      1043 9.29939E-05-2.61694E-05-2.86391E-05 2.01004E-06 3.54696E-19 2.77650E-18
 -1      1044 9.34059E-05-2.64648E-05-2.86890E-05 1.48879E-06-4.11820E-19 2.33069E-18
 -1      1045 9.37901E-05-2.67915E-05-2.87137E-05 1.09539E-06 4.13188E-19 2.79860E-18
 -1      1046 9.41270E-05-2.71126E-05-2.87205E-05 7.99747E-07 1.81907E-20 3.20156E-18
 -1      1047 9.44098E-05-2.74069E-05-2.87156E-05 5.78414E-07 7.07810E-19 1.74854E-18
 -1      1048 9.46390E-05-2.76639E-05-2.87036E-05 4.13395E-07-7.35812E-19 1.09256E-18
 -1      1049 9.48190E-05-2.78805E-05-2.86880E-05 2.90992E-07 2.31479E-19 1.16802E-18
 -1      1050 9.49566E-05-2.80575E-05-2.86711E-05 2.00805E-07 1.77096E-18 3.03285E-18
 -1      1051 9.50589E-05-2.81985E-05-2.86545E-05 1.34932E-07 9.05206E-20 4.26678E-18
 -1      1052 9.51327E-05-2.83082E-05-2.86391E-05 8.73590E-08 6.08506E-19 3.21112E-18
 -1      1053 9.51842E-05-2.83916E-05-2.86254E-05 5.34934E-08 1.29411E-18 1.86054E-18
 -1      1054 9.52187E-05-2.84536E-05-2.86136E-05 2.98279E-08 8.06077E-20 3.38438E-18
 -1      1055 9.52406E-05-2.84985E-05-2.86038E-05 1.36835E-08-3.05324E-19 2.10854E-18
 -1      1056 9.52533E-05-2.85301E-05-2.85957E-05 3.01959E-09-6.58123E-19 3.51940E-18
 -1      1057 9.52597E-05-2.85517E-05-2.85891E-05-3.71031E-09-6.46468E-19 3.56082E-18
 -1      1058 9.52617E-05-2.85659E-05-2.85839E-05-7.62986E-09 1.12170E-18 1.66580E-18
 -1      1059 9.52609E-05-2.85747E-05-2.85798E-05-9.65026E-09 8.09228E-19 3.71666E-18
 -1      1060 7.12741E-05-1.32077E-05-2.48595E-05-1.36813E-05 1.34378E-18 3.55650E-18
 -1      1061 7.37801E-05-1.75522E-05-2.40967E-05-1.88230E-05 1.59422E-18 3.12474E-18
 -1      1062 8.91039E-05-3.04573E-05-2.51082E-05 1.86429E-05-7.76168E-19 1.96153E-18
 -1      1063 9.52594E-05-2.85827E-05-2.85757E-05-1.24921E-10 3.51191E-18 4.11506E-18
 -1      1064 9.52615E-05-2.85792E-05-2.85781E-05 6.41360E-09 1.12680E-18-1.44224E-18
 -1      1065 7.81852E-05-1.95779E-05-2.51155E-05 9.59637E-06-9.57652E-19 1.61863E-19
 -1      1066 9.52594E-05-2.85789E-05-2.85773E-05-9.98348E-09-1.25332E-19 3.15387E-18
 -1      1067 1.04724E-04-3.72015E-05-2.89236E-05-1.12453E-05 5.33034E-19 1.07631E-18
 -1      1068 8.74304E-05-2.67546E-05-2.60204E-05 1.35970E-05-1.28263E-18 2.69692E-18
 -1      1069 9.52616E-05-2.85793E-05-2.85781E-05-4.10550E-09 7.30607E-19 4.69451E-18
 -1      1070 9.52633E-05-2.85747E-05-2.85808E-05-4.27335E-09-1.22901E-18 4.15710E-18
 -1      1071 8.14056E-05-1.99147E-05-2.63453E-05 5.95271E-06 2.02712E-19-3.13051E-20
 -1      1072 8.43309E-05-2.08349E-05-2.72138E-05 3.46690E-06 7.56499E-19 6.55694E-19
 -1      1073 8.66168E-05-2.17780E-05-2.77887E-05 1.84748E-06 6.89486E-19 6.03756E-19
 -1      1074 8.84996E-05-2.27648E-05-2.81722E-05 8.25066E-07 3.92893E-19 5.74883E-19
 -1      1075 9.00270E-05-2.37124E-05-2.84206E-05 2.09088E-07-5.99497E-19 1.60624E-18
 -1      1076 9.12538E-05-2.45790E-05-2.85749E-05-1.33003E-07 8.42745E-20 1.35598E-18
 -1      1077 9.22288E-05-2.53446E-05-2.86646E-05-2.97744E-07-4.31135E-19 8.36348E-19
 -1      1078 9.29952E-05-2.60030E-05-2.87109E-05-3.53358E-07-4.83838E-19 7.91075E-19
 -1      1079 9.35910E-05-2.65568E-05-2.87289E-05-3.46455E-07-7.40118E-19 7.81772E-19
 -1      1080 9.40488E-05-2.70142E-05-2.87291E-05-3.07631E-07-7.67742E-19 1.97182E-18
 -1      1081 9.43964E-05-2.73857E-05-2.87189E-05-2.56025E-07 2.65838E-19 2.45380E-18
 -1      1082 9.46567E-05-2.76828E-05-2.87031E-05-2.02876E-07 8.16149E-19 1.89093E-18
 -1      1083 9.48489E-05-2.79169E-05-2.86851E-05-1.54186E-07 7.29796E-19 1.93606E-18
 -1      1084 9.49883E-05-2.80986E-05-2.86670E-05-1.12642E-07 1.05973E-20 1.92961E-18
 -1      1085 9.50874E-05-2.82376E-05-2.86500E-05-7.89426E-08 1.39753E-20 2.51644E-18
 -1      1086 9.51562E-05-2.83421E-05-2.86346E-05-5.26890E-08 7.07816E-19 1.02985E-18
 -1      1087 9.52024E-05-2.84193E-05-2.86213E-05-3.29491E-08 9.66518E-19 1.47889E-19
 -1      1088 9.52321E-05-2.84752E-05-2.86101E-05-1.86045E-08 2.78808E-19 3.38355E-19
 -1      1089 9.52500E-05-2.85148E-05-2.86008E-05-8.54756E-09-8.82068E-19-3.82017E-19
 -1      1090 9.52596E-05-2.85420E-05-2.85932E-05-1.78246E-09-2.83416E-19 3.76064E-19
 -1      1091 9.52635E-05-2.85601E-05-2.85872E-05 2.53028E-09-1.58305E-18 1.68811E-18
 -1      1092 9.52637E-05-2.85716E-05-2.85823E-05 5.09841E-09-3.00098E-18-5.61343E-19
 -1      1093 8.97973E-05-2.55009E-05-2.75562E-05 7.10133E-06-5.51231E-19 2.97086E-18
 -1      1094 9.00915E-05-2.49186E-05-2.79310E-05 5.09932E-06 4.87364E-19 2.26831E-18
 -1      1095 9.06680E-05-2.48385E-05-2.82125E-05 3.62322E-06 2.91595E-19 1.87972E-18
 -1      1096 9.13464E-05-2.50488E-05-2.84131E-05 2.55236E-06 3.27093E-19 1.09068E-18
 -1      1097 9.20302E-05-2.54159E-05-2.85489E-05 1.78571E-06-3.77483E-19 4.92098E-19
 -1      1098 9.26656E-05-2.58507E-05-2.86349E-05 1.24265E-06-2.64132E-19 1.44427E-18
 -1      1099 9.32257E-05-2.62958E-05-2.86842E-05 8.61002E-07-8.65728E-19 1.79648E-18
 -1      1100 9.37007E-05-2.67164E-05-2.87075E-05 5.94217E-07-5.08958E-20 3.13985E-18
 -1      1101 9.40911E-05-2.70934E-05-2.87133E-05 4.08328E-07 8.71017E-19 3.15583E-18
 -1      1102 9.44037E-05-2.74186E-05-2.87079E-05 2.79009E-07 9.24280E-19 3.30066E-18
 -1      1103 9.46479E-05-2.76907E-05-2.86959E-05 1.89100E-07 5.80665E-19 2.08266E-18
 -1      1104 9.48345E-05-2.79126E-05-2.86808E-05 1.26621E-07 2.57312E-19 2.60017E-19
 -1      1105 9.49736E-05-2.80895E-05-2.86646E-05 8.32553E-08 5.32741E-19 1.40071E-18
 -1      1106 9.50748E-05-2.82274E-05-2.86489E-05 5.32465E-08 5.66393E-19 7.58016E-19
 -1      1107 9.51465E-05-2.83329E-05-2.86344E-05 3.26015E-08 1.09261E-18 2.18709E-18
 -1      1108 9.51954E-05-2.84118E-05-2.86216E-05 1.85387E-08 3.96746E-19 2.98230E-18
 -1      1109 9.52275E-05-2.84695E-05-2.86106E-05 9.10725E-09 1.61385E-19 2.93504E-18
 -1      1110 9.52472E-05-2.85107E-05-2.86013E-05 2.92950E-09-6.57634E-19 2.49404E-18
 -1      1111 9.52581E-05-2.85393E-05-2.85938E-05-9.73235E-10-1.49397E-18 1.92949E-18
 -1      1112 9.52629E-05-2.85584E-05-2.85877E-05-3.29532E-09 4.55266E-19 1.44034E-18
 -1      1113 9.52639E-05-2.85681E-05-2.85839E-05-4.06777E-09 1.09157E-18 9.10234E-19
 -1      1114 9.52621E-05-2.85793E-05-2.85784E-05 2.75377E-09 1.02148E-18 2.35541E-18
 -1      1115 9.01092E-05-2.68200E-05-2.71035E-05 9.63430E-06-2.39652E-19 3.85138E-18
 -1      1116 8.56797E-05-2.27930E-05-2.69594E-05 7.10233E-06 6.30861E-19 1.22055E-18
 -1      1117 8.72181E-05-2.28987E-05-2.75646E-05 4.67184E-06 8.87948E-19 2.45547E-19
 -1      1118 8.86018E-05-2.33013E-05-2.79861E-05 3.00392E-06 4.23486E-19 2.08899E-19
 -1      1119 8.98568E-05-2.38786E-05-2.82766E-05 1.87278E-06 4.30898E-19 3.77962E-19
 -1      1120 9.09554E-05-2.45262E-05-2.84698E-05 1.12534E-06-2.67160E-19 9.53936E-19
 -1      1121 9.18895E-05-2.51743E-05-2.85923E-05 6.45128E-07-3.90145E-19 4.21678E-19
 -1      1122 9.26649E-05-2.57813E-05-2.86644E-05 3.46410E-07-3.78925E-19 9.24321E-19
 -1      1123 9.32956E-05-2.63248E-05-2.87018E-05 1.67672E-07-7.99663E-19 7.57811E-19
 -1      1124 9.37989E-05-2.67954E-05-2.87158E-05 6.59307E-08 1.24738E-19 9.34610E-19
 -1      1125 9.41936E-05-2.71921E-05-2.87149E-05 1.19687E-08 4.71498E-19 1.49174E-18
 -1      1126 9.44977E-05-2.75190E-05-2.87051E-05-1.35124E-08 9.79020E-19 1.50107E-18
 -1      1127 9.47279E-05-2.77830E-05-2.86907E-05-2.28724E-08 1.10765E-18 2.28407E-18
 -1      1128 9.48990E-05-2.79924E-05-2.86743E-05-2.37593E-08 3.83076E-19 1.60644E-18
 -1      1129 9.50235E-05-2.81554E-05-2.86578E-05-2.07163E-08 2.36512E-19 1.02170E-18
 -1      1130 9.51121E-05-2.82800E-05-2.86423E-05-1.63035E-08-3.13665E-19 5.65264E-19
 -1      1131 9.51732E-05-2.83736E-05-2.86284E-05-1.18575E-08 1.01020E-18 3.89385E-19
 -1      1132 9.52139E-05-2.84424E-05-2.86163E-05-7.99050E-09-7.90299E-20 1.26007E-18
 -1      1133 9.52396E-05-2.84920E-05-2.86061E-05-4.90814E-09-3.65716E-19 1.33201E-18
 -1      1134 9.52546E-05-2.85267E-05-2.85977E-05-2.60462E-09-1.42725E-19 5.52539E-19
 -1      1135 9.52621E-05-2.85503E-05-2.85908E-05-9.74341E-10 2.55676E-19-1.19700E-18
 -1      1136 9.52646E-05-2.85657E-05-2.85853E-05 7.76494E-11-2.06603E-18 6.71329E-19
 -1      1137 9.52638E-05-2.85756E-05-2.85806E-05 7.10787E-10-2.19601E-18 3.84821E-18
 -1      1138 1.21727E-04 2.76139E-10-4.39928E-05-3.92827E-05 2.06253E-19-9.19327E-18
 -1      1139 9.45186E-05 8.56246E-11-3.94526E-05-1.93584E-05 1.39549E-19-1.80937E-18
 -1      1140 8.79159E-05 4.57518E-11-3.72750E-05-1.17714E-05 9.53971E-20 1.57363E-18
 -1      1141 8.33876E-05 2.71339E-11-3.55530E-05-7.68300E-06 8.31151E-20 3.21982E-18
 -1      1142 7.98499E-05 1.53239E-11-3.41652E-05-5.38611E-06 5.66453E-20 4.09893E-18
 -1      1143 7.73038E-05 8.26191E-12-3.31498E-05-4.21288E-06 4.47869E-20 4.50258E-18
 -1      1144 7.58051E-05 5.39737E-12-3.25347E-05-3.62561E-06 3.47284E-20 4.77579E-18
 -1      1145 7.53353E-05 6.19243E-12-3.23183E-05-3.14311E-06 1.87505E-20 5.03886E-18
 -1      1146 7.57738E-05 9.66313E-12-3.24593E-05-2.39092E-06 1.19908E-20 5.17565E-18
 -1      1147 7.68917E-05 1.46334E-11-3.28750E-05-1.11947E-06 9.15854E-21 5.24487E-18
 -1      1148 7.84418E-05 2.00949E-11-3.34741E-05 7.85186E-07-1.00585E-21 5.29480E-18
 -1      1149 8.02142E-05 2.54374E-11-3.41759E-05 3.31306E-06-1.01644E-20 5.33854E-18
 -1      1150 8.21327E-05 3.09103E-11-3.49532E-05 6.46656E-06-2.98050E-20 5.29722E-18
 -1      1151 8.43082E-05 3.75524E-11-3.58469E-05 1.03229E-05-5.36278E-20 4.92577E-18
 -1      1152 8.71560E-05 4.84743E-11-3.69985E-05 1.51340E-05-8.77738E-20 3.82736E-18
 -1      1153 9.21695E-05 7.54761E-11-3.88022E-05 2.20097E-05-1.53313E-19 1.04812E-18
 -1      1154 1.10343E-04 1.75322E-10-4.21368E-05 3.54608E-05-4.26058E-19-5.95888E-18
 -1      1155 1.35777E-04-2.76138E-05-4.25456E-05-2.47406E-05 9.71441E-19-1.40531E-17
 -1      1156 1.08564E-04-3.22418E-05-3.50029E-05-1.56824E-07 3.23249E-19-1.17606E-17
 -1      1157 1.06455E-04-3.19687E-05-3.28076E-05 5.61976E-07 1.79174E-19-8.26733E-18
 -1      1158 1.09915E-04-3.31156E-05-3.32470E-05 4.51187E-07 1.27022E-19-5.86591E-18
 -1      1159 1.16086E-04-3.49373E-05-3.49782E-05 4.66604E-07 8.23210E-20-4.55624E-18
 -1      1160 1.24270E-04-3.73432E-05-3.73419E-05 5.33712E-07 5.73633E-20-3.11623E-18
 -1      1161 1.33343E-04-4.00128E-05-3.98280E-05 5.53856E-07 6.49155E-20-1.73430E-18
 -1      1162 1.40911E-04-4.22221E-05-4.16610E-05 3.48963E-07 6.67171E-20-1.42349E-18
 -1      1163 1.42782E-04-4.26979E-05-4.17378E-05-3.27473E-07 2.32934E-21-2.24861E-18
 -1      1164 1.34118E-04-3.99988E-05-3.91372E-05-1.52131E-06-8.42798E-20-3.92812E-18
 -1      1165 1.14017E-04-3.39785E-05-3.41858E-05-2.55985E-06 3.27233E-21-5.57644E-18
 -1      1166 9.12748E-05-2.73610E-05-2.91511E-05-2.10166E-06 1.53313E-19-3.91943E-18
 -1      1167 8.17066E-05-2.46963E-05-2.71690E-05 1.29569E-07-1.09850E-20-2.76784E-18
 -1      1168 9.26879E-05-2.77754E-05-2.95440E-05 2.18763E-06 1.30628E-19-5.42525E-19
 -1      1169 1.16455E-04-3.47082E-05-3.48826E-05 2.58912E-06-3.89437E-21 1.58226E-18
 -1      1170 1.37218E-04-4.09161E-05-4.00507E-05 1.53624E-06-2.82221E-19 2.78250E-19
 -1      1171 1.46360E-04-4.37645E-05-4.28087E-05 3.46663E-07 1.77705E-19 7.57353E-19
 -1      1172 1.44910E-04-4.34068E-05-4.28681E-05-3.09889E-07 1.14019E-20 1.14326E-18
 -1      1173 1.37743E-04-4.13070E-05-4.11561E-05-4.89949E-07-7.67326E-20-6.86097E-20
 -1      1174 1.28963E-04-3.87048E-05-3.87568E-05-4.38778E-07-2.15944E-20 1.22020E-18
 -1      1175 1.20788E-04-3.62716E-05-3.63840E-05-3.23965E-07 7.17513E-20 2.17296E-18
 -1      1176 1.14038E-04-3.42546E-05-3.43608E-05-2.17520E-07 1.64558E-19 2.42963E-18
 -1      1177 1.08800E-04-3.26834E-05-3.27640E-05-1.38343E-07 3.17404E-19 2.76747E-18
 -1      1178 1.04875E-04-3.15014E-05-3.15569E-05-8.48618E-08 2.28456E-19 2.67864E-18
 -1      1179 1.01992E-04-3.06303E-05-3.06668E-05-5.04657E-08-1.07153E-19 4.14793E-18
 -1      1180 9.99010E-05-2.99968E-05-3.00202E-05-2.89216E-08-4.67729E-20 5.97082E-18
 -1      1181 9.83995E-05-2.95407E-05-2.95555E-05-1.56408E-08-6.71092E-20 3.70562E-18
 -1      1182 9.73304E-05-2.92152E-05-2.92245E-05-7.55953E-09 9.04555E-20 2.19845E-18
 -1      1183 9.65767E-05-2.89853E-05-2.89911E-05-2.72237E-09-3.31534E-20 3.57943E-18
 -1      1184 9.60519E-05-2.88249E-05-2.88284E-05 9.42994E-11 1.08344E-20 4.90625E-18
 -1      1185 9.56926E-05-2.87147E-05-2.87168E-05 1.65222E-09-1.61223E-19 4.54766E-18
 -1      1186 9.54522E-05-2.86408E-05-2.86420E-05 2.42738E-09-4.63773E-19 2.55633E-18
 -1      1187 9.52965E-05-2.85927E-05-2.85933E-05 2.71994E-09-1.32630E-19-7.55840E-20
 -1      1188 9.52004E-05-2.85629E-05-2.85631E-05 2.72128E-09-9.80299E-20-1.32360E-18
 -1      1189 9.51457E-05-2.85457E-05-2.85456E-05 2.55463E-09 1.02987E-19-2.48880E-18
 -1      1190 9.51190E-05-2.85371E-05-2.85369E-05 2.29971E-09-2.20590E-19-2.19656E-18
 -1      1191 9.51108E-05-2.85342E-05-2.85339E-05 2.00794E-09-8.95068E-20-2.18964E-18
 -1      1192 9.51142E-05-2.85349E-05-2.85346E-05 1.71194E-09-2.37248E-20 6.63476E-19
 -1      1193 9.51244E-05-2.85377E-05-2.85375E-05 1.43172E-09-6.02384E-20-6.34608E-19
 -1      1194 9.51382E-05-2.85417E-05-2.85415E-05 1.17873E-09 3.20661E-19-1.17182E-18
 -1      1195 9.51534E-05-2.85462E-05-2.85460E-05 9.58658E-10 1.46493E-19 4.49372E-18
 -1      1196 9.51687E-05-2.85507E-05-2.85505E-05 7.73331E-10 3.07553E-19 8.74794E-18
 -1      1197 9.51831E-05-2.85549E-05-2.85548E-05 6.21927E-10-1.95417E-19 6.47208E-18
 -1      1198 9.51963E-05-2.85589E-05-2.85587E-05 5.01643E-10-4.00663E-19 1.88033E-18
 -1      1199 9.52080E-05-2.85624E-05-2.85623E-05 4.07597E-10 1.01055E-19 6.82371E-19
 -1      1200 9.52182E-05-2.85654E-05-2.85653E-05 3.31447E-10 6.52370E-19 1.83150E-18
 -1      1201 9.52265E-05-2.85679E-05-2.85678E-05 2.57497E-10-2.48175E-19 8.39414E-19
 -1      1202 9.52328E-05-2.85698E-05-2.85696E-05 1.54419E-10 1.24156E-19 2.35688E-20
 -1      1203 9.52367E-05-2.85709E-05-2.85708E-05-5.00687E-11-2.48841E-19-1.62053E-18
 -1      1204 9.52375E-05-2.85710E-05-2.85714E-05-3.29203E-10 3.03927E-19-2.63870E-18
 -1      1205 1.35003E-04-3.87466E-05-4.02002E-05 1.21288E-05 7.52271E-20-1.21270E-17
 -1      1206 1.02840E-04-3.00581E-05-3.32315E-05 6.75009E-07-1.38490E-19-7.85581E-18
 -1      1207 9.82615E-05-2.92955E-05-3.01854E-05 3.02637E-08-9.25979E-20-4.24874E-18
 -1      1208 9.71696E-05-2.91402E-05-2.92618E-05-7.17317E-08-1.32124E-19-1.62318E-18
 -1      1209 9.69934E-05-2.91069E-05-2.90496E-05-1.00224E-07-1.06340E-19 4.71347E-19
 -1      1210 9.66664E-05-2.89963E-05-2.89014E-05-9.43179E-08-4.13152E-20 1.62583E-18
 -1      1211 9.55852E-05-2.86660E-05-2.85537E-05-6.18427E-08 2.43539E-20 2.62818E-18
 -1      1212 9.34339E-05-2.80266E-05-2.79085E-05-1.01839E-09-6.95642E-20 3.96090E-18
 -1      1213 9.02216E-05-2.70786E-05-2.69800E-05 8.18420E-08-7.82000E-20 4.13606E-18
 -1      1214 8.63531E-05-2.59366E-05-2.58929E-05 1.66609E-07 1.94329E-20 4.10210E-18
 -1      1215 8.26112E-05-2.48264E-05-2.48668E-05 2.22010E-07 2.50570E-20 4.46267E-18
 -1      1216 7.99681E-05-2.40328E-05-2.41608E-05 2.19576E-07-1.02709E-19 4.70146E-18
 -1      1217 7.92419E-05-2.38012E-05-2.39850E-05 1.51728E-07 1.11616E-19 5.12690E-18
 -1      1218 8.07513E-05-2.42345E-05-2.44176E-05 3.96449E-08-1.09125E-19 5.15345E-18
 -1      1219 8.41723E-05-2.52443E-05-2.53727E-05-7.69027E-08-2.85774E-20 4.63650E-18
 -1      1220 8.86841E-05-2.65896E-05-2.66357E-05-1.61061E-07 5.56287E-20 3.63999E-18
 -1      1221 9.33116E-05-2.79773E-05-2.79470E-05-1.95527E-07-1.89050E-19 4.53573E-18
 -1      1222 9.72587E-05-2.91649E-05-2.90863E-05-1.84744E-07-1.10867E-20 4.15057E-18
 -1      1223 1.00086E-04-3.00172E-05-2.99228E-05-1.45784E-07-1.53078E-20 3.31795E-18
 -1      1224 1.01707E-04-3.05070E-05-3.04212E-05-9.72368E-08-1.22042E-19 4.00373E-18
 -1      1225 1.02283E-04-3.06821E-05-3.06172E-05-5.24033E-08-9.05994E-20 5.69279E-18
 -1      1226 1.02088E-04-3.06249E-05-3.05833E-05-1.78429E-08-1.33391E-20 5.15785E-18
 -1      1227 1.01407E-04-3.04217E-05-3.04000E-05 5.10791E-09 3.36704E-21 4.18119E-18
 -1      1228 1.00482E-04-3.01453E-05-3.01380E-05 1.80144E-08 1.04522E-20 3.27675E-18
 -1      1229 9.94920E-05-2.98487E-05-2.98506E-05 2.34975E-08-1.80596E-19 6.01252E-18
 -1      1230 9.85493E-05-2.95664E-05-2.95731E-05 2.41435E-08 9.49810E-21 6.74683E-18
 -1      1231 9.77172E-05-2.93170E-05-2.93257E-05 2.20328E-08 5.73577E-20 5.37134E-18
 -1      1232 9.70218E-05-2.91084E-05-2.91173E-05 1.86397E-08-2.66378E-19 4.92660E-18
 -1      1233 9.64656E-05-2.89415E-05-2.89496E-05 1.49072E-08 1.71203E-19 2.19260E-18
 -1      1234 9.60374E-05-2.88129E-05-2.88197E-05 1.13763E-08-5.02078E-21 9.28796E-19
 -1      1235 9.57193E-05-2.87173E-05-2.87227E-05 8.31215E-09 5.25415E-21 2.22592E-18
 -1      1236 9.54916E-05-2.86488E-05-2.86529E-05 5.80624E-09-2.60000E-19 3.54176E-18
 -1      1237 9.53353E-05-2.86017E-05-2.86047E-05 3.84950E-09 1.46522E-19 5.14231E-18
 -1      1238 9.52333E-05-2.85709E-05-2.85730E-05 2.38172E-09-1.29050E-19 5.14109E-18
 -1      1239 9.51714E-05-2.85521E-05-2.85536E-05 1.32232E-09 3.97847E-20 4.55607E-18
 -1      1240 9.51382E-05-2.85420E-05-2.85429E-05 5.88278E-10-1.06405E-19 2.40250E-18
 -1      1241 9.51246E-05-2.85378E-05-2.85383E-05 1.03574E-10-2.82878E-19 1.05965E-18
 -1      1242 9.51239E-05-2.85375E-05-2.85377E-05-1.96737E-10 6.98184E-20 2.40543E-18
 -1      1243 9.51311E-05-2.85395E-05-2.85397E-05-3.65533E-10-1.46520E-19 6.90514E-19
 -1      1244 9.51428E-05-2.85430E-05-2.85430E-05-4.44351E-10-2.06949E-20 1.41006E-18
 -1      1245 9.51566E-05-2.85471E-05-2.85470E-05-4.64900E-10-3.11892E-19 3.41952E-18
 -1      1246 9.51708E-05-2.85513E-05-2.85512E-05-4.50848E-10 1.04064E-19 3.92222E-18
 -1      1247 9.51846E-05-2.85554E-05-2.85553E-05-4.19565E-10-3.16642E-19 7.41701E-19
 -1      1248 9.51974E-05-2.85592E-05-2.85591E-05-3.83631E-10 2.53564E-19-3.44117E-18
 -1      1249 9.52088E-05-2.85626E-05-2.85625E-05-3.51839E-10-1.18043E-19-4.52713E-18
 -1      1250 9.52187E-05-2.85656E-05-2.85655E-05-3.29045E-10-5.58675E-20-6.14880E-18
 -1      1251 9.52269E-05-2.85680E-05-2.85679E-05-3.13834E-10-1.02329E-19-5.80942E-18
 -1      1252 9.52331E-05-2.85699E-05-2.85697E-05-2.81482E-10 3.61678E-19-7.32844E-18
 -1      1253 9.52367E-05-2.85710E-05-2.85708E-05-1.51059E-10 7.82731E-19-9.69427E-18
 -1      1254 9.52375E-05-2.85713E-05-2.85714E-05 1.31741E-10 3.71724E-19-7.65183E-18
 -1      1255 9.52370E-05-2.85708E-05-2.85714E-05 1.19956E-10-8.09291E-18-1.05641E-18
 -1      1256 9.52374E-05-2.85716E-05-2.85708E-05 5.15409E-11-1.22262E-17-2.60403E-19
 -1      1257 9.52384E-05-2.85752E-05-2.85697E-05-1.91177E-10-6.13826E-18 4.37836E-19
 -1      1258 9.52400E-05-2.85806E-05-2.85682E-05-2.79587E-10-3.96317E-18 6.08223E-19
 -1      1259 9.52418E-05-2.85868E-05-2.85665E-05-2.84020E-10-3.28584E-18 8.48007E-20
 -1      1260 9.52435E-05-2.85926E-05-2.85648E-05-2.41937E-10-4.71019E-18-1.79943E-18
 -1      1261 9.52449E-05-2.85973E-05-2.85634E-05-1.77320E-10-5.31234E-18 1.15411E-18
 -1      1262 9.52458E-05-2.86004E-05-2.85626E-05-9.24177E-11-6.28412E-18 2.53461E-19
 -1      1263 9.52461E-05-2.86015E-05-2.85622E-05 4.46451E-16-4.48514E-18 9.26092E-19
 -1      1264 9.52458E-05-2.86004E-05-2.85626E-05 9.27234E-11 1.49652E-18 1.15180E-19
 -1      1265 9.52449E-05-2.85973E-05-2.85634E-05 1.78165E-10-1.67409E-18-6.15099E-19
 -1      1266 9.52435E-05-2.85926E-05-2.85648E-05 2.47526E-10-4.08861E-18 2.93757E-19
 -1      1267 9.52418E-05-2.85868E-05-2.85665E-05 2.86869E-10-5.84801E-18 3.34837E-19
 -1      1268 9.52400E-05-2.85806E-05-2.85682E-05 2.79184E-10-6.93162E-18 6.53991E-19
 -1      1269 9.52384E-05-2.85751E-05-2.85698E-05 1.76917E-10-2.64984E-18 2.61675E-19
 -1      1270 9.52373E-05-2.85715E-05-2.85708E-05-1.47523E-10 2.07771E-18 3.22860E-19
 -1      1271 9.52372E-05-2.85708E-05-2.85714E-05-3.08714E-10 3.21429E-18-5.34609E-19
 -1      1272 3.51057E-05-1.10193E-04 1.88822E-05-1.28768E-05 6.09356E-18 4.51707E-19
 -1      1273 1.74693E-05-6.38965E-05 9.40847E-06-2.29490E-05 3.09167E-19-7.17860E-19
 -1      1274 7.68720E-06-6.84084E-06-6.55252E-06 2.10582E-06-7.48099E-18-5.10761E-18
 -1      1275 3.14019E-05 2.72390E-05-2.59104E-05 5.32384E-05-1.12317E-17-1.02067E-17
 -1      1276 1.00848E-04 1.85113E-05-4.61089E-05 1.02352E-04-9.43934E-18-1.26208E-17
 -1      1277 1.98321E-04-2.56474E-05-6.39740E-05 1.14018E-04-4.65699E-18-1.05354E-17
 -1      1278 2.83158E-04-7.48931E-05-7.57661E-05 7.65644E-05-1.59232E-18-5.61075E-18
 -1      1279 3.16294E-04-9.53884E-05-7.99043E-05 1.98826E-06-3.13985E-19-6.37392E-20
 -1      1280 2.82595E-04-7.43002E-05-7.57071E-05-7.39592E-05-2.31251E-18 8.02310E-18
 -1      1281 1.97204E-04-2.56056E-05-6.35711E-05-1.14634E-04-6.70935E-18 1.41319E-17
 -1      1282 1.01260E-04 1.81404E-05-4.63155E-05-1.02406E-04-1.21431E-17 1.64579E-17
 -1      1283 3.39836E-05 2.77255E-05-2.69629E-05-5.58910E-05-1.56820E-17 1.47299E-17
 -1      1284 7.69615E-06-2.36977E-06-8.00513E-06-4.87104E-06-1.63765E-17 1.03423E-17
 -1      1285 1.54041E-05-5.72764E-05 7.90509E-06 2.33073E-05-1.48663E-17 5.52393E-18
 -1      1286 3.35226E-05-1.05613E-04 1.79795E-05 1.68263E-05-1.01000E-17 1.95003E-18
 -1      1287 3.82147E-05-1.17563E-04 2.01794E-05-1.15624E-05-1.69089E-18 4.04485E-19
 -1      1288 2.23870E-05-8.32414E-05 1.35766E-05-3.04171E-05 6.41458E-18 2.57244E-18
 -1      1289 7.34859E-06-2.85726E-05-2.09637E-07-1.63751E-05 1.23243E-17 7.42001E-18
 -1      1290 2.01770E-05 1.41835E-05-1.88985E-05 2.96312E-05 1.54956E-17 1.36135E-17
 -1      1291 8.42188E-05 1.85243E-05-4.14591E-05 8.80084E-05 1.46732E-17 1.92344E-17
 -1      1292 1.92244E-04-2.19506E-05-6.30484E-05 1.16939E-04 9.53251E-18 1.99137E-17
 -1      1293 2.96642E-04-7.76264E-05-7.81345E-05 8.58188E-05 3.93659E-18 1.61080E-17
 -1      1294 3.43333E-04-1.04922E-04-8.38563E-05 6.53408E-06 4.04564E-19 1.11683E-17
 -1      1295 3.03615E-04-8.17018E-05-7.89122E-05-7.55047E-05-1.42513E-19 3.73965E-18
 -1      1296 2.04595E-04-2.90550E-05-6.45738E-05-1.14737E-04 2.53940E-18-4.40118E-18
 -1      1297 9.79948E-05 1.43851E-05-4.46785E-05-9.48169E-05 5.24906E-18-7.70631E-18
 -1      1298 2.68742E-05 1.74074E-05-2.23050E-05-3.89860E-05 5.01952E-18-4.96870E-18
 -1      1299 6.72174E-06-2.20609E-05-2.15672E-06 1.25595E-05 4.88230E-18-3.20517E-18
 -1      1300 1.97389E-05-7.76271E-05 1.24896E-05 3.12690E-05 5.40661E-18-1.51217E-18
 -1      1301 3.60602E-05-1.15073E-04 2.00234E-05 1.58395E-05 7.56019E-18-5.63912E-19
 -1      1302 1.12280E-04-2.40124E-05-4.03341E-05-1.49015E-05 3.49825E-19-7.74823E-18
 -1      1303 9.67501E-05-8.02455E-06-3.81544E-05-1.50825E-05 1.16626E-18-1.88041E-19
 -1      1304 1.00160E-04-8.34994E-06-3.95627E-05-2.10175E-05 1.43614E-18-1.94881E-18
 -1      1305 8.92946E-05-4.48792E-06-3.64338E-05-1.02372E-05 1.23863E-18 2.30536E-18
 -1      1306 9.20597E-05-4.58333E-06-3.73719E-05-1.29069E-05 1.38204E-18 1.20043E-18
 -1      1307 9.82731E-05-1.18525E-05-3.70733E-05-1.32740E-05 2.08550E-18-6.36863E-20
 -1      1308 8.39738E-05-2.66322E-06-3.49231E-05-6.96297E-06 1.11734E-18 3.59268E-18
 -1      1309 8.61966E-05-2.70012E-06-3.56982E-05-8.49514E-06 1.24556E-18 3.03264E-18
 -1      1310 9.02281E-05-7.17493E-06-3.56519E-05-9.33713E-06 2.02102E-18 1.98126E-18
 -1      1311 7.99339E-05-1.48812E-06-3.36893E-05-5.08697E-06 9.42854E-19 4.26979E-18
 -1      1312 8.16267E-05-1.51397E-06-3.42948E-05-5.94216E-06 1.01940E-18 3.95437E-18
 -1      1313 8.43003E-05-4.30875E-06-3.43404E-05-6.56485E-06 1.76274E-18 3.02399E-18
 -1      1314 7.72231E-05-7.88366E-07-3.28146E-05-4.14477E-06 7.32207E-19 4.66030E-18
 -1      1315 7.83169E-05-8.01261E-07-3.32208E-05-4.58984E-06 8.02881E-19 4.48393E-18
 -1      1316 8.00173E-05-2.50309E-06-3.32701E-05-4.99466E-06 1.41920E-18 3.66617E-18
 -1      1317 7.58280E-05-5.10636E-07-3.23147E-05-3.61730E-06 5.28469E-19 4.90596E-18
 -1      1318 7.63250E-05-5.08859E-07-3.25208E-05-3.90756E-06 6.11214E-19 4.76383E-18
 -1      1319 7.73220E-05-1.54605E-06-3.25209E-05-4.18502E-06 1.09066E-18 3.99249E-18
 -1      1320 7.57158E-05-6.01873E-07-3.22000E-05-3.07452E-06 4.10321E-19 5.13045E-18
 -1      1321 7.56506E-05-5.87338E-07-3.22109E-05-3.41329E-06 4.28592E-19 5.02717E-18
 -1      1322 7.62127E-05-1.34609E-06-3.21306E-05-3.64991E-06 7.91785E-19 4.23341E-18
 -1      1323 7.66380E-05-9.59980E-07-3.24138E-05-2.16967E-06 2.82472E-19 5.25897E-18
 -1      1324 7.61330E-05-9.38289E-07-3.22647E-05-2.71011E-06 3.17849E-19 5.18884E-18
 -1      1325 7.65298E-05-1.75546E-06-3.20929E-05-2.97993E-06 6.16696E-19 4.39541E-18
 -1      1326 7.82633E-05-1.46459E-06-3.28706E-05-6.97466E-07 1.78009E-19 5.31362E-18
 -1      1327 7.74692E-05-1.44215E-06-3.26081E-05-1.52452E-06 2.17754E-19 5.30377E-18
 -1      1328 7.79286E-05-2.56477E-06-3.23484E-05-1.87401E-06 3.92487E-19 4.53538E-18
 -1      1329 8.02767E-05-2.01404E-06-3.34820E-05 1.41481E-06-2.97256E-20 5.33799E-18
 -1      1330 7.93280E-05-1.99547E-06-3.31501E-05 2.74380E-07 3.89635E-20 5.30407E-18
 -1      1331 8.00089E-05-3.56534E-06-3.28145E-05-1.75984E-07 1.62286E-19 4.53983E-18
 -1      1332 8.24284E-05-2.54268E-06-3.41686E-05 4.10312E-06-2.72321E-19 5.37871E-18
 -1      1333 8.14254E-05-2.53519E-06-3.38034E-05 2.68325E-06-1.81847E-19 5.37364E-18
 -1      1334 8.24131E-05-4.60385E-06-3.34033E-05 2.12332E-06-1.96393E-19 4.59109E-18
 -1      1335 8.47491E-05-3.08034E-06-3.49299E-05 7.43713E-06-5.02952E-19 5.26764E-18
 -1      1336 8.36597E-05-3.08397E-06-3.45216E-05 5.68289E-06-4.26243E-19 5.36520E-18
 -1      1337 8.49796E-05-5.65574E-06-3.40589E-05 5.00636E-06-5.96199E-19 4.55741E-18
 -1      1338 8.74013E-05-3.72368E-06-3.57955E-05 1.14338E-05-8.50421E-19 4.80170E-18
 -1      1339 8.61286E-05-3.74285E-06-3.53121E-05 9.30302E-06-7.08437E-19 5.09771E-18
 -1      1340 8.77999E-05-6.85403E-06-3.47639E-05 8.47575E-06-1.03363E-18 4.29544E-18
 -1      1341 9.10412E-05-4.76835E-06-3.69119E-05 1.63911E-05-1.14371E-18 3.55261E-18
 -1      1342 8.92416E-05-4.80174E-06-3.62400E-05 1.36164E-05-9.86158E-19 4.35309E-18
 -1      1343 9.12967E-05-8.57673E-06-3.55339E-05 1.25554E-05-1.51267E-18 3.69174E-18
 -1      1344 9.80209E-05-7.71682E-06-3.86314E-05 2.33099E-05-1.19696E-18 4.69892E-19
 -1      1345 9.44068E-05-7.27980E-06-3.74795E-05 1.88429E-05-1.13841E-18 2.41759E-18
 -1      1346 9.68164E-05-1.19858E-05-3.64184E-05 1.72123E-05-1.90913E-18 2.10509E-18
 -1      1347 1.28119E-04-2.60632E-05-4.05313E-05 2.76309E-05-8.52750E-19-6.65937E-18
 -1      1348 1.04843E-04-1.55337E-05-3.89048E-05 2.26719E-05-7.34378E-19-1.58247E-18
 -1      1349 1.06895E-04-2.09044E-05-3.69407E-05 1.95314E-05-2.07229E-18-8.21622E-19
 -1      1350 1.08008E-04-2.94883E-05-3.63816E-05 6.33228E-06-1.36372E-18-5.89408E-18
 -1      1351 1.15070E-04-3.33044E-05-3.64322E-05-5.32334E-06 1.21729E-18-8.08144E-18
 -1      1352 1.10409E-04-3.15802E-05-3.43053E-05-2.67672E-06 1.13365E-18-6.69003E-18
 -1      1353 1.09040E-04-3.18475E-05-3.33260E-05 3.18846E-08 9.93226E-19-6.12474E-18
 -1      1354 1.09276E-04-3.22778E-05-3.30341E-05 5.06209E-07 8.94652E-19-4.79434E-18
 -1      1355 1.11023E-04-3.15040E-05-3.44468E-05-3.21940E-06 1.98979E-18-3.40078E-18
 -1      1356 1.09475E-04-3.24150E-05-3.30235E-05 2.09300E-06 7.20971E-19-4.23951E-18
 -1      1357 1.11650E-04-3.31868E-05-3.35864E-05 2.33042E-06 5.77491E-19-3.38072E-18
 -1      1358 1.09476E-04-3.19997E-05-3.33608E-05 2.21821E-06 1.53826E-18-2.43800E-18
 -1      1359 1.13176E-04-3.36426E-05-3.40679E-05 3.39075E-06 4.21061E-19-3.01660E-18
 -1      1360 1.16591E-04-3.47622E-05-3.50505E-05 3.59697E-06 3.82773E-19-2.46407E-18
 -1      1361 1.11287E-04-3.28271E-05-3.36970E-05 5.35767E-06 9.79858E-19-1.45372E-18
 -1      1362 1.18974E-04-3.54863E-05-3.57856E-05 4.26803E-06 4.68201E-19-2.14368E-18
 -1      1363 1.23126E-04-3.68785E-05-3.69593E-05 4.39410E-06 4.08942E-19-1.49560E-18
 -1      1364 1.15123E-04-3.41802E-05-3.47447E-05 7.46479E-06 8.19081E-19-9.13512E-19
 -1      1365 1.25957E-04-3.78217E-05-3.77700E-05 4.41332E-06 2.97391E-19-1.28675E-18
 -1      1366 1.30008E-04-3.92776E-05-3.88569E-05 4.33451E-06 1.72418E-19-8.37557E-19
 -1      1367 1.20315E-04-3.61304E-05-3.61063E-05 8.38550E-06 6.34832E-19-4.64717E-19
 -1      1368 1.32702E-04-4.03347E-05-3.95159E-05 3.15003E-06-4.60309E-20-9.22578E-19
 -1      1369 1.35112E-04-4.13690E-05-4.00739E-05 2.65980E-06-1.39483E-19-1.11721E-18
 -1      1370 1.26003E-04-3.86142E-05-3.74121E-05 7.16628E-06 1.40899E-19-4.03532E-19
 -1      1371 1.36787E-04-4.22723E-05-4.03117E-05-2.71026E-07-2.97970E-19-1.40322E-18
 -1      1372 1.35398E-04-4.20372E-05-3.98243E-05-1.33895E-06-4.28043E-19-1.89052E-18
 -1      1373 1.30817E-04-4.12068E-05-3.82538E-05 2.46563E-06-5.97105E-19-9.51840E-19
 -1      1374 1.34928E-04-4.21815E-05-3.94796E-05-5.64681E-06-6.01221E-19-2.12489E-18
 -1      1375 1.28203E-04-3.98016E-05-3.77502E-05-7.00615E-06-8.34275E-19-2.85132E-18
 -1      1376 1.32666E-04-4.26219E-05-3.83480E-05-6.14882E-06-9.59371E-19-1.32648E-18
 -1      1377 1.24930E-04-3.84505E-05-3.69876E-05-1.02246E-05-5.50194E-19-3.00294E-18
 -1      1378 1.14474E-04-3.41894E-05-3.46205E-05-1.07571E-05 1.87393E-19-3.27632E-18
 -1      1379 1.29367E-04-4.07721E-05-3.78244E-05-1.56199E-05-7.69989E-19-1.41396E-18
 -1      1380 1.09823E-04-3.17102E-05-3.39057E-05-9.10449E-06 9.59530E-19-3.02010E-18
 -1      1381 1.01717E-04-2.80978E-05-3.22334E-05-7.64970E-06 6.76250E-19-2.07385E-18
 -1      1382 1.21243E-04-3.50899E-05-3.72070E-05-1.81656E-05 8.75303E-19-1.58731E-18
 -1      1383 9.96582E-05-2.68520E-05-3.20088E-05-9.79562E-07 6.74450E-19-1.65087E-18
 -1      1384 9.99448E-05-2.69494E-05-3.20960E-05 1.39804E-06 7.35119E-19-9.56088E-19
 -1      1385 1.13950E-04-2.95142E-05-3.69292E-05-8.04356E-06 1.37685E-18-8.87730E-19
 -1      1386 1.02473E-04-2.84034E-05-3.24376E-05 8.30566E-06 1.00236E-18-2.92015E-19
 -1      1387 1.11192E-04-3.21866E-05-3.42748E-05 9.66965E-06 7.95258E-19 9.74723E-19
 -1      1388 1.14297E-04-2.96979E-05-3.70029E-05 8.95803E-06 1.64091E-18 6.03670E-19
 -1      1389 1.16137E-04-3.47299E-05-3.50974E-05 1.11794E-05 4.44163E-19 1.47426E-18
 -1      1390 1.26991E-04-3.91066E-05-3.75882E-05 1.06180E-05 1.52201E-20 1.76903E-18
 -1      1391 1.22384E-04-3.55723E-05-3.74950E-05 1.91324E-05 8.69850E-19 1.53059E-18
 -1      1392 1.30503E-04-4.05218E-05-3.84263E-05 7.29398E-06-4.91014E-20 1.64960E-18
 -1      1393 1.37503E-04-4.29784E-05-4.02396E-05 5.91344E-06-2.70680E-19 1.43254E-18
 -1      1394 1.30998E-04-4.13085E-05-3.82802E-05 1.62879E-05 1.59156E-19 2.57834E-18
 -1      1395 1.38120E-04-4.28616E-05-4.06406E-05 1.54923E-06-1.11702E-19 1.55399E-18
 -1      1396 1.39721E-04-4.31564E-05-4.11954E-05 4.80705E-07-1.50190E-19 1.60760E-18
 -1      1397 1.34658E-04-4.32531E-05-3.89261E-05 6.60722E-06-2.29705E-19 2.90285E-18
 -1      1398 1.38153E-04-4.22818E-05-4.09935E-05-2.47581E-06 2.61786E-19 1.66770E-18
 -1      1399 1.35934E-04-4.13116E-05-4.04922E-05-2.96701E-06-2.56929E-19 1.52482E-18
 -1      1400 1.33041E-04-4.18756E-05-3.89158E-05-2.09476E-06-6.79215E-20 2.53179E-18
 -1      1401 1.33268E-04-4.02640E-05-3.98445E-05-4.20468E-06-3.21925E-19 2.03876E-18
 -1      1402 1.29367E-04-3.88663E-05-3.88011E-05-4.29372E-06 2.62739E-19 2.01986E-18
 -1      1403 1.28354E-04-3.93320E-05-3.81067E-05-6.89350E-06-1.09055E-19 3.35777E-18
 -1      1404 1.26428E-04-3.78941E-05-3.79612E-05-4.39470E-06 9.50340E-20 2.39615E-18
 -1      1405 1.22313E-04-3.65336E-05-3.67987E-05-4.29469E-06 3.25177E-20 2.80071E-18
 -1      1406 1.22581E-04-3.68516E-05-3.67606E-05-8.32739E-06 2.80884E-19 3.65164E-18
 -1      1407 1.19572E-04-3.57097E-05-3.59608E-05-3.86294E-06-1.21655E-19 2.88256E-18
 -1      1408 1.15949E-04-3.45656E-05-3.49095E-05-3.70607E-06-4.04127E-20 2.98383E-18
 -1      1409 1.16928E-04-3.48156E-05-3.52349E-05-7.84766E-06 2.79504E-19 3.38581E-18
 -1      1410 1.13611E-04-3.38975E-05-3.41742E-05-3.11851E-06 1.77348E-19 2.88235E-18
 -1      1411 1.10691E-04-3.30015E-05-3.33157E-05-2.96568E-06 4.40953E-19 2.90842E-18
 -1      1412 1.11964E-04-3.32341E-05-3.37876E-05-6.59771E-06-5.80945E-20 3.10732E-18
 -1      1413 1.08802E-04-3.24744E-05-3.27151E-05-2.40279E-06 2.37249E-19 2.68112E-18
 -1      1414 1.06562E-04-3.17991E-05-3.20519E-05-2.27494E-06-9.37295E-20 2.85893E-18
 -1      1415 1.07869E-04-3.20267E-05-3.25441E-05-5.21532E-06 1.72537E-19 3.02804E-18
 -1      1416 1.05086E-04-3.13913E-05-3.15817E-05-1.80186E-06 1.78145E-19 2.28475E-18
 -1      1417 1.03415E-04-3.08935E-05-3.10853E-05-1.70202E-06 3.21118E-19 2.62098E-18
 -1      1418 1.04621E-04-3.11109E-05-3.15367E-05-3.97815E-06-4.23080E-19 2.63833E-18
 -1      1419 1.02287E-04-3.05827E-05-3.07267E-05-1.32887E-06 4.36834E-20 2.47726E-18
 -1      1420 1.01062E-04-3.02207E-05-3.03621E-05-1.25353E-06 1.55014E-20 3.10900E-18
 -1      1421 1.02111E-04-3.04199E-05-3.07497E-05-2.96932E-06 1.35181E-19 1.95472E-18
 -1      1422 1.00215E-04-2.99867E-05-3.00933E-05-9.68951E-07 6.76055E-20 2.84543E-18
 -1      1423 9.93272E-05-2.97259E-05-2.98287E-05-9.13088E-07-5.92033E-19 2.86127E-18
 -1      1424 1.00205E-04-2.99013E-05-3.01491E-05-2.18511E-06 4.82147E-20 1.37749E-18
 -1      1425 9.86974E-05-2.95516E-05-2.96297E-05-7.00032E-07-6.73317E-19 3.31730E-18
 -1      1426 9.80602E-05-2.93653E-05-2.94396E-05-6.58990E-07-2.29683E-19 2.08109E-18
 -1      1427 9.87763E-05-2.95149E-05-2.96979E-05-1.59117E-06-6.43095E-19 1.95396E-18
 -1      1428 9.75972E-05-2.92367E-05-2.92937E-05-5.01161E-07 1.29822E-19 2.48176E-18
 -1      1429 9.71440E-05-2.91049E-05-2.91583E-05-4.71163E-07 7.80594E-20 2.06445E-18
 -1      1430 9.77178E-05-2.92291E-05-2.93632E-05-1.14790E-06-2.13947E-19 2.35803E-18
 -1      1431 9.68071E-05-2.90110E-05-2.90525E-05-3.55026E-07 6.63124E-19 1.82343E-18
 -1      1432 9.64884E-05-2.89188E-05-2.89571E-05-3.33187E-07 7.22056E-19 3.01271E-18
 -1      1433 9.69415E-05-2.90198E-05-2.91175E-05-8.19958E-07 5.56198E-19 1.78112E-18
 -1      1434 9.62460E-05-2.88511E-05-2.88812E-05-2.48185E-07-4.78822E-20 3.23097E-18
 -1      1435 9.60249E-05-2.87875E-05-2.88148E-05-2.32354E-07-5.18971E-19 3.17491E-18
 -1      1436 9.63781E-05-2.88681E-05-2.89390E-05-5.78825E-07 9.64265E-19 1.85291E-18
 -1      1437 9.58530E-05-2.87394E-05-2.87611E-05-1.70491E-07-4.73271E-19 3.28676E-18
 -1      1438 9.57024E-05-2.86964E-05-2.87158E-05-1.59084E-07-7.48481E-19 2.65784E-18
 -1      1439 9.59745E-05-2.87597E-05-2.88109E-05-4.02495E-07-3.55573E-19 1.19891E-18
 -1      1440 9.55825E-05-2.86629E-05-2.86785E-05-1.14378E-07-6.24521E-19 2.39689E-18
 -1      1441 9.54826E-05-2.86347E-05-2.86483E-05-1.06228E-07-7.80835E-19 1.13955E-18
 -1      1442 9.56897E-05-2.86836E-05-2.87202E-05-2.74365E-07-1.02625E-18 1.15958E-18
 -1      1443 9.54009E-05-2.86118E-05-2.86228E-05-7.42240E-08-7.92715E-19 2.03992E-18
 -1      1444 9.53370E-05-2.85940E-05-2.86034E-05-6.84706E-08-4.45298E-19 4.43930E-19
 -1      1445 9.54925E-05-2.86312E-05-2.86573E-05-1.82011E-07-1.09009E-18 1.57459E-18
 -1      1446 9.52829E-05-2.85789E-05-2.85866E-05-4.58468E-08-5.17407E-19 1.08901E-18
 -1      1447 9.52442E-05-2.85684E-05-2.85748E-05-4.18508E-08-1.01843E-18 7.57385E-20
 -1      1448 9.53594E-05-2.85963E-05-2.86145E-05-1.16156E-07-7.36479E-19 1.91555E-18
 -1      1449 9.52099E-05-2.85588E-05-2.85641E-05-2.61246E-08-6.56516E-19 1.20986E-19
 -1      1450 9.51887E-05-2.85534E-05-2.85575E-05-2.34100E-08 4.38204E-20-5.34994E-20
 -1      1451 9.52725E-05-2.85739E-05-2.85864E-05-6.98626E-08-8.26240E-19 1.96576E-18
 -1      1452 9.51683E-05-2.85477E-05-2.85512E-05-1.27221E-08 3.53877E-20 3.64322E-19
 -1      1453 9.51588E-05-2.85455E-05-2.85482E-05-1.09336E-08-4.95178E-19-3.47250E-20
 -1      1454 9.52187E-05-2.85603E-05-2.85687E-05-3.79311E-08 5.23974E-20 2.14784E-18
 -1      1455 9.51480E-05-2.85426E-05-2.85449E-05-3.88996E-09-3.08910E-19 9.64234E-20
 -1      1456 9.51461E-05-2.85426E-05-2.85441E-05-2.76230E-09 5.93590E-19 1.06403E-18
 -1      1457 9.51878E-05-2.85530E-05-2.85584E-05-1.64599E-08-1.96807E-19 2.75036E-18
 -1      1458 9.51418E-05-2.85414E-05-2.85428E-05 1.68028E-09 4.01462E-19 1.09655E-18
 -1      1459 9.51446E-05-2.85427E-05-2.85435E-05 2.34461E-09-9.75249E-20 9.67986E-19
 -1      1460 9.51728E-05-2.85498E-05-2.85531E-05-2.52160E-09 5.97629E-19 2.56187E-18
 -1      1461 9.51445E-05-2.85427E-05-2.85435E-05 4.96359E-09-6.78076E-19 7.27626E-19
 -1      1462 9.51500E-05-2.85447E-05-2.85450E-05 5.31063E-09-9.93846E-19-5.42737E-19
 -1      1463 9.51681E-05-2.85493E-05-2.85512E-05 6.07331E-09-3.54883E-19 1.91495E-18
 -1      1464 9.51524E-05-2.85454E-05-2.85458E-05 6.68087E-09 8.12930E-19-1.52358E-19
 -1      1465 9.51593E-05-2.85477E-05-2.85477E-05 6.81745E-09 2.03987E-18 1.46803E-18
 -1      1466 9.51701E-05-2.85505E-05-2.85514E-05 1.09531E-08-6.35731E-20 1.55001E-18
 -1      1467 9.51631E-05-2.85488E-05-2.85489E-05 7.35883E-09 1.29850E-18 2.96069E-18
 -1      1468 9.51704E-05-2.85512E-05-2.85510E-05 7.36185E-09 7.30399E-19 4.52683E-18
 -1      1469 9.51760E-05-2.85527E-05-2.85529E-05 1.33166E-08 2.58890E-18 2.64360E-18
 -1      1470 9.51749E-05-2.85525E-05-2.85524E-05 7.37524E-09 1.15551E-18 4.97516E-18
 -1      1471 9.51820E-05-2.85548E-05-2.85545E-05 7.29862E-09 7.57144E-19 6.26054E-18
 -1      1472 9.51839E-05-2.85553E-05-2.85552E-05 1.40335E-08 1.71098E-18 3.58940E-18
 -1      1473 9.51867E-05-2.85561E-05-2.85559E-05 6.99298E-09-1.67148E-18 5.11986E-18
 -1      1474 9.51934E-05-2.85582E-05-2.85579E-05 6.87287E-09-2.00025E-18 2.02753E-18
 -1      1475 9.51928E-05-2.85581E-05-2.85577E-05 1.37197E-08-1.28360E-18 2.89738E-18
 -1      1476 9.51978E-05-2.85595E-05-2.85593E-05 6.38518E-09-1.49050E-18 2.85080E-18
 -1      1477 9.52039E-05-2.85614E-05-2.85610E-05 6.24362E-09-1.89358E-18 6.97543E-19
 -1      1478 9.52016E-05-2.85608E-05-2.85603E-05 1.27941E-08-1.92124E-18 1.71295E-18
 -1      1479 9.52080E-05-2.85626E-05-2.85623E-05 5.65267E-09-4.22469E-19 1.19924E-18
 -1      1480 9.52133E-05-2.85642E-05-2.85639E-05 5.49982E-09 2.10805E-19 7.02156E-19
 -1      1481 9.52100E-05-2.85633E-05-2.85628E-05 1.15190E-08-8.61932E-19 1.29274E-18
 -1      1482 9.52170E-05-2.85653E-05-2.85650E-05 4.83480E-09 8.34139E-19-1.34708E-19
 -1      1483 9.52215E-05-2.85667E-05-2.85663E-05 4.66968E-09 5.43535E-19 3.76892E-19
 -1      1484 9.52175E-05-2.85656E-05-2.85650E-05 1.00276E-08 2.00262E-19 5.28298E-19
 -1      1485 9.52246E-05-2.85676E-05-2.85673E-05 3.91545E-09 6.08660E-20 1.66763E-18
 -1      1486 9.52282E-05-2.85687E-05-2.85683E-05 3.72504E-09 8.60579E-21 1.33375E-18
 -1      1487 9.52241E-05-2.85677E-05-2.85670E-05 8.34174E-09 8.43943E-19-6.20705E-19
 -1      1488 9.52306E-05-2.85695E-05-2.85691E-05 2.83377E-09-5.11142E-19 1.53882E-18
 -1      1489 9.52331E-05-2.85703E-05-2.85698E-05 2.59287E-09-4.10548E-19 2.05828E-19
 -1      1490 9.52295E-05-2.85694E-05-2.85686E-05 6.39113E-09-4.48099E-19 1.18986E-18
 -1      1491 9.52348E-05-2.85708E-05-2.85703E-05 1.54501E-09-7.30033E-19 4.63048E-19
 -1      1492 9.52361E-05-2.85712E-05-2.85707E-05 1.21507E-09-5.74862E-19-8.92527E-20
 -1      1493 9.52336E-05-2.85707E-05-2.85697E-05 4.08396E-09-1.27362E-18 1.11098E-18
 -1      1494 9.52369E-05-2.85714E-05-2.85709E-05 3.81730E-10-3.23525E-19-9.28940E-19
 -1      1495 9.52370E-05-2.85713E-05-2.85712E-05 2.50832E-10 7.10768E-19-2.06177E-19
 -1      1496 9.52370E-05-2.85714E-05-2.85709E-05 3.74552E-10 1.58129E-18 6.95909E-19
 -1      1497 9.52360E-05-2.85715E-05-2.85704E-05 1.88421E-09-5.58654E-19 1.78810E-18
 -1      1498 1.03322E-04-3.04421E-05-3.17468E-05 2.29998E-06-1.03259E-18-3.62273E-18
 -1      1499 1.08425E-04-3.11819E-05-3.39217E-05 3.69915E-06-9.21042E-19-5.40958E-18
 -1      1500 1.08091E-04-2.85688E-05-3.44069E-05 1.13704E-05-1.86559E-18-2.62347E-18
 -1      1501 9.97619E-05-2.97977E-05-3.00369E-05 7.11604E-07-8.01637E-19-1.59112E-18
 -1      1502 1.01143E-04-2.97931E-05-3.07856E-05 9.85655E-07-7.32551E-19-2.91837E-18
 -1      1503 1.03162E-04-3.01530E-05-3.14816E-05 3.80447E-06-1.61508E-18-1.19204E-18
 -1      1504 9.84402E-05-2.95355E-05-2.94917E-05 1.91859E-07-5.06096E-19-4.08164E-20
 -1      1505 9.88091E-05-2.95029E-05-2.96877E-05 2.88947E-07-6.08666E-19-1.07880E-18
 -1      1506 1.00374E-04-2.99173E-05-3.02369E-05 1.26021E-06-1.23716E-18-8.87267E-20
 -1      1507 9.77762E-05-2.93896E-05-2.92640E-05 1.92836E-07-3.88078E-19 1.09691E-18
 -1      1508 9.79616E-05-2.94052E-05-2.93347E-05 1.83623E-07-4.30907E-19 3.82832E-19
 -1      1509 9.90613E-05-2.97617E-05-2.97037E-05 5.36253E-07-9.72427E-19 5.47594E-19
 -1      1510 9.69287E-05-2.91659E-05-2.90015E-05 4.79644E-07-2.48423E-19 1.86530E-18
 -1      1511 9.73295E-05-2.92904E-05-2.91237E-05 3.94731E-07-3.10555E-19 1.36694E-18
 -1      1512 9.81655E-05-2.95867E-05-2.93761E-05 6.96379E-07-7.13467E-19 1.22093E-18
 -1      1513 9.54290E-05-2.87258E-05-2.85518E-05 9.27940E-07-2.11611E-19 2.49939E-18
 -1      1514 9.62698E-05-2.90130E-05-2.87994E-05 7.93362E-07-2.09717E-19 2.03532E-18
 -1      1515 9.70880E-05-2.93093E-05-2.90195E-05 1.33738E-06-4.77502E-19 1.71181E-18
 -1      1516 9.30962E-05-2.80067E-05-2.78692E-05 1.39395E-06-1.59411E-19 3.04916E-18
 -1      1517 9.44482E-05-2.84703E-05-2.82593E-05 1.24596E-06-1.68965E-19 2.62934E-18
 -1      1518 9.54841E-05-2.88234E-05-2.85330E-05 2.17779E-06-4.56054E-19 1.72580E-18
 -1      1519 9.00693E-05-2.70445E-05-2.70020E-05 1.70180E-06-4.12643E-20 3.11443E-18
 -1      1520 9.18237E-05-2.76396E-05-2.74994E-05 1.59069E-06 7.16835E-21 3.09846E-18
 -1      1521 9.32783E-05-2.80944E-05-2.79039E-05 2.91233E-06-1.96012E-19 2.11352E-18
 -1      1522 8.68259E-05-2.59898E-05-2.60898E-05 1.67751E-06-1.99522E-19 3.32048E-18
 -1      1523 8.86847E-05-2.66074E-05-2.66082E-05 1.65670E-06-2.21889E-19 3.13580E-18
 -1      1524 9.06777E-05-2.71859E-05-2.71963E-05 3.20720E-06-2.53653E-19 2.47064E-18
 -1      1525 8.40993E-05-2.50873E-05-2.53346E-05 1.22407E-06-1.92991E-19 4.03229E-18
 -1      1526 8.56291E-05-2.55747E-05-2.57541E-05 1.32667E-06-1.73486E-19 3.58496E-18
 -1      1527 8.81545E-05-2.62694E-05-2.65362E-05 2.79595E-06-4.60713E-19 2.58526E-18
 -1      1528 8.26527E-05-2.46007E-05-2.49392E-05 3.95302E-07 6.84906E-22 4.01048E-18
 -1      1529 8.34192E-05-2.48113E-05-2.51434E-05 6.10385E-07-6.01129E-20 3.91518E-18
 -1      1530 8.63281E-05-2.55857E-05-2.60761E-05 1.61933E-06-1.33050E-19 3.26093E-18
 -1      1531 8.29775E-05-2.47030E-05-2.50317E-05-5.95603E-07 2.40825E-19 3.82054E-18
 -1      1532 8.27156E-05-2.45570E-05-2.49517E-05-3.26009E-07 1.47198E-19 3.94727E-18
 -1      1533 8.57434E-05-2.53544E-05-2.59430E-05-8.81270E-08 1.05998E-19 2.85034E-18
 -1      1534 8.50731E-05-2.53928E-05-2.56127E-05-1.46105E-06-1.06299E-19 4.23318E-18
 -1      1535 8.38035E-05-2.49145E-05-2.52557E-05-1.21698E-06-1.07884E-19 4.20254E-18
 -1      1536 8.66381E-05-2.56724E-05-2.61895E-05-1.86012E-06-1.99714E-19 3.31268E-18
 -1      1537 8.84447E-05-2.64948E-05-2.65549E-05-1.97148E-06 4.26077E-19 3.76077E-18
 -1      1538 8.64653E-05-2.58017E-05-2.60010E-05-1.81677E-06 1.43369E-19 4.13011E-18
 -1      1539 8.88306E-05-2.64636E-05-2.67723E-05-3.20057E-06 1.18760E-19 3.46911E-18
 -1      1540 9.23191E-05-2.77415E-05-2.76539E-05-2.04803E-06-1.52164E-19 3.31894E-18
 -1      1541 9.00772E-05-2.69925E-05-2.70237E-05-2.00510E-06 1.08754E-19 3.49833E-18
 -1      1542 9.18004E-05-2.75172E-05-2.75680E-05-3.80220E-06 2.74890E-19 3.40136E-18
 -1      1543 9.59405E-05-2.88817E-05-2.87016E-05-1.76394E-06-1.05634E-19 3.74291E-18
 -1      1544 9.38653E-05-2.82177E-05-2.81130E-05-1.81475E-06-2.53524E-19 3.35613E-18
 -1      1545 9.49047E-05-2.85841E-05-2.84181E-05-3.64448E-06-2.46687E-19 3.12334E-18
 -1      1546 9.87879E-05-2.97534E-05-2.95455E-05-1.27555E-06 1.07414E-19 3.41849E-18
 -1      1547 9.71700E-05-2.92598E-05-2.90810E-05-1.38085E-06 4.52964E-21 3.74292E-18
 -1      1548 9.76000E-05-2.94695E-05-2.91791E-05-2.93574E-06 7.35198E-20 2.88694E-18
 -1      1549 1.00644E-04-3.02999E-05-3.01131E-05-7.41438E-07-1.53955E-19 3.10119E-18
 -1      1550 9.95989E-05-3.00012E-05-2.98083E-05-8.61797E-07 1.40435E-19 3.30102E-18
 -1      1551 9.95668E-05-3.00757E-05-2.97566E-05-1.97250E-06 1.01399E-19 3.49645E-18
 -1      1552 1.01544E-04-3.05447E-05-3.04041E-05-2.73011E-07-3.02070E-19 3.80950E-18
 -1      1553 1.01044E-04-3.04208E-05-3.02543E-05-3.80892E-07-5.36767E-19 3.20724E-18
 -1      1554 1.00719E-04-3.03947E-05-3.01148E-05-1.01415E-06-5.17140E-19 3.38357E-18
 -1      1555 1.01670E-04-3.05541E-05-3.04646E-05 7.64871E-08 2.03252E-19 4.25710E-18
 -1      1556 1.01605E-04-3.05625E-05-3.04407E-05-5.53320E-09-2.59159E-19 4.16740E-18
 -1      1557 1.01139E-04-3.04742E-05-3.02659E-05-2.22678E-07-5.59224E-19 3.15719E-18
 -1      1558 1.01259E-04-3.04058E-05-3.03601E-05 2.99285E-07 1.06723E-19 3.89604E-18
 -1      1559 1.01492E-04-3.04998E-05-3.04240E-05 2.45611E-07 1.72398E-19 4.07026E-18
 -1      1560 1.00999E-04-3.03829E-05-3.02509E-05 3.38290E-07 1.72161E-19 3.19592E-18
 -1      1561 1.00533E-04-3.01694E-05-3.01560E-05 4.13685E-07 2.79084E-19 3.31639E-18
 -1      1562 1.00937E-04-3.03085E-05-3.02710E-05 3.84638E-07 2.08634E-19 4.06878E-18
 -1      1563 1.00489E-04-3.01884E-05-3.01213E-05 6.74612E-07 2.11240E-19 3.21806E-18
 -1      1564 9.96717E-05-2.98986E-05-2.99058E-05 4.47825E-07-4.69183E-19 3.67475E-18
 -1      1565 1.00145E-04-3.00526E-05-3.00428E-05 4.37290E-07-3.68671E-19 3.08368E-18
 -1      1566 9.97794E-05-2.99450E-05-2.99256E-05 8.28153E-07-3.63505E-21 3.20257E-18
 -1      1567 9.87990E-05-2.96299E-05-2.96483E-05 4.29586E-07-2.07012E-19 5.05998E-18
 -1      1568 9.92736E-05-2.97791E-05-2.97867E-05 4.31386E-07-6.04231E-19 4.03919E-18
 -1      1569 9.89997E-05-2.96917E-05-2.97031E-05 8.51462E-07-7.70673E-19 3.12418E-18
 -1      1570 9.79930E-05-2.93850E-05-2.94079E-05 3.81853E-07 3.16297E-19 5.05759E-18
 -1      1571 9.84271E-05-2.95182E-05-2.95353E-05 3.90853E-07 2.09812E-19 5.45839E-18
 -1      1572 9.82394E-05-2.94531E-05-2.94814E-05 7.93107E-07-3.12467E-19 3.26149E-18
 -1      1573 9.72939E-05-2.91748E-05-2.91980E-05 3.21259E-07 1.88786E-19 4.62015E-18
 -1      1574 9.76667E-05-2.92869E-05-2.93079E-05 3.33674E-07 3.43933E-19 5.12437E-18
 -1      1575 9.75516E-05-2.92425E-05-2.92779E-05 6.91449E-07 5.62728E-19 3.88918E-18
 -1      1576 9.67157E-05-2.90023E-05-2.90235E-05 2.58720E-07 7.65413E-19 3.17093E-18
 -1      1577 9.70209E-05-2.90925E-05-2.91137E-05 2.72016E-07 2.62875E-19 4.26209E-18
 -1      1578 9.69623E-05-2.90655E-05-2.91016E-05 5.73589E-07 7.74144E-19 3.91678E-18
 -1      1579 9.62561E-05-2.88661E-05-2.88841E-05 2.00645E-07 1.99944E-19 2.19686E-18
 -1      1580 9.64961E-05-2.89359E-05-2.89553E-05 2.13291E-07 3.55485E-19 2.81711E-18
 -1      1581 9.64783E-05-2.89223E-05-2.89556E-05 4.56823E-07 8.46723E-19 3.01241E-18
 -1      1582 9.59034E-05-2.87622E-05-2.87768E-05 1.50231E-07-3.58713E-19 2.05672E-18
 -1      1583 9.60853E-05-2.88143E-05-2.88309E-05 1.61418E-07-3.38332E-19 1.79568E-18
 -1      1584 9.60951E-05-2.88104E-05-2.88391E-05 3.50935E-07 1.50701E-19 2.91233E-18
 -1      1585 9.56417E-05-2.86855E-05-2.86969E-05 1.08561E-07-5.19456E-19 3.34801E-18
 -1      1586 9.57749E-05-2.87231E-05-2.87366E-05 1.17964E-07-3.16041E-19 2.44118E-18
 -1      1587 9.58014E-05-2.87257E-05-2.87492E-05 2.60454E-07-8.70082E-19 2.88541E-18
 -1      1588 9.54543E-05-2.86310E-05-2.86395E-05 7.54423E-08-7.97671E-20 4.08147E-18
 -1      1589 9.55481E-05-2.86569E-05-2.86676E-05 8.30400E-08-5.53774E-19 3.41096E-18
 -1      1590 9.55835E-05-2.86635E-05-2.86820E-05 1.86528E-07-5.48776E-19 4.07225E-18
 -1      1591 9.53253E-05-2.85937E-05-2.85998E-05 5.00047E-08 3.88045E-19 4.24587E-18
 -1      1592 9.53885E-05-2.86107E-05-2.86188E-05 5.59414E-08 1.94117E-19 4.22814E-18
 -1      1593 9.54271E-05-2.86194E-05-2.86335E-05 1.28319E-07-3.05685E-20 3.45991E-18
 -1      1594 9.52408E-05-2.85695E-05-2.85737E-05 3.10825E-08 3.95726E-19 4.15541E-18
 -1      1595 9.52810E-05-2.85799E-05-2.85859E-05 3.55829E-08 6.87505E-20 4.54098E-18
 -1      1596 9.53190E-05-2.85894E-05-2.85997E-05 8.39673E-08 2.46338E-19 3.70293E-18
 -1      1597 9.51891E-05-2.85548E-05-2.85577E-05 1.74564E-08 1.74907E-19 3.48001E-18
 -1      1598 9.52126E-05-2.85606E-05-2.85648E-05 2.07690E-08 9.83187E-19 4.28383E-18
 -1      1599 9.52477E-05-2.85699E-05-2.85772E-05 5.12238E-08 9.20473E-19 3.09135E-18
 -1      1600 9.51609E-05-2.85470E-05-2.85488E-05 7.98672E-09 9.14257E-20 2.61796E-18
 -1      1601 9.51726E-05-2.85495E-05-2.85525E-05 1.03515E-08 8.78158E-20 2.53144E-18
 -1      1602 9.52038E-05-2.85581E-05-2.85632E-05 2.78260E-08 8.41217E-19 2.76365E-18
 -1      1603 9.51489E-05-2.85439E-05-2.85450E-05 1.67859E-09 2.16075E-19 2.02145E-18
 -1      1604 9.51526E-05-2.85443E-05-2.85462E-05 3.30997E-09-1.32403E-19 1.70622E-18
 -1      1605 9.51793E-05-2.85519E-05-2.85552E-05 1.17050E-08 2.47918E-19 2.92885E-18
 -1      1606 9.51476E-05-2.85439E-05-2.85444E-05-2.29605E-09 3.44989E-20 1.57201E-18
 -1      1607 9.51462E-05-2.85429E-05-2.85441E-05-1.21596E-09 1.74222E-19 2.10382E-18
 -1      1608 9.51684E-05-2.85494E-05-2.85514E-05 1.07973E-09 1.38851E-19 2.26406E-18
 -1      1609 9.51530E-05-2.85457E-05-2.85459E-05-4.60127E-09 2.52444E-19 8.63867E-19
 -1      1610 9.51485E-05-2.85440E-05-2.85446E-05-3.92380E-09 2.99994E-19 1.05066E-18
 -1      1611 9.51665E-05-2.85494E-05-2.85505E-05-5.51708E-09 2.23966E-19 1.25796E-18
 -1      1612 9.51622E-05-2.85486E-05-2.85486E-05-5.75277E-09-3.91031E-19 1.46796E-18
 -1      1613 9.51561E-05-2.85465E-05-2.85468E-05-5.36038E-09-2.39693E-19 5.72326E-19
 -1      1614 9.51703E-05-2.85509E-05-2.85514E-05-9.25230E-09-7.34365E-20 8.03493E-20
 -1      1615 9.51731E-05-2.85520E-05-2.85518E-05-6.13881E-09 1.48535E-19 2.28530E-18
 -1      1616 9.51664E-05-2.85498E-05-2.85499E-05-5.94136E-09-4.98270E-19 8.44227E-19
 -1      1617 9.51774E-05-2.85532E-05-2.85533E-05-1.10250E-08-6.12058E-19 7.80662E-19
 -1      1618 9.51846E-05-2.85555E-05-2.85552E-05-6.04171E-09 1.02157E-18 7.70662E-19
 -1      1619 9.51778E-05-2.85533E-05-2.85533E-05-5.97232E-09 1.05345E-18 2.73411E-18
 -1      1620 9.51861E-05-2.85560E-05-2.85558E-05-1.15062E-08 9.13158E-19 3.59361E-19
 -1      1621 9.51958E-05-2.85589E-05-2.85586E-05-5.65714E-09 6.42858E-19-5.73751E-19
 -1      1622 9.51894E-05-2.85568E-05-2.85567E-05-5.66840E-09 6.96553E-19 6.98851E-19
 -1      1623 9.51953E-05-2.85588E-05-2.85585E-05-1.11774E-08 1.19703E-18-3.22492E-19
 -1      1624 9.52061E-05-2.85620E-05-2.85617E-05-5.10982E-09 9.54249E-19-3.19443E-18
 -1      1625 9.52003E-05-2.85602E-05-2.85600E-05-5.17082E-09 7.59139E-19-1.85601E-18
 -1      1626 9.52043E-05-2.85616E-05-2.85612E-05-1.03650E-08 1.69960E-18-1.63758E-18
 -1      1627 9.52154E-05-2.85648E-05-2.85645E-05-4.46440E-09 3.49937E-19-5.37561E-18
 -1      1628 9.52102E-05-2.85632E-05-2.85630E-05-4.55900E-09 7.84957E-19-4.35317E-18
 -1      1629 9.52127E-05-2.85641E-05-2.85637E-05-9.26696E-09 1.74054E-18-3.49951E-18
 -1      1630 9.52234E-05-2.85672E-05-2.85669E-05-3.73165E-09-6.24642E-19-5.69323E-18
 -1      1631 9.52190E-05-2.85658E-05-2.85656E-05-3.85830E-09-6.96986E-19-6.08292E-18
 -1      1632 9.52202E-05-2.85664E-05-2.85659E-05-7.97075E-09-5.20178E-20-5.07019E-18
 -1      1633 9.52298E-05-2.85691E-05-2.85688E-05-2.87334E-09 7.13783E-19-4.83587E-18
 -1      1634 9.52263E-05-2.85681E-05-2.85678E-05-3.04534E-09 1.53166E-19-4.68857E-18
 -1      1635 9.52265E-05-2.85683E-05-2.85678E-05-6.46603E-09-3.65737E-19-4.71491E-18
 -1      1636 9.52343E-05-2.85705E-05-2.85701E-05-1.80901E-09 3.58831E-21-7.16640E-18
 -1      1637 9.52319E-05-2.85699E-05-2.85694E-05-2.06134E-09 5.91574E-19-5.73639E-18
 -1      1638 9.52315E-05-2.85699E-05-2.85692E-05-4.66448E-09 1.23112E-18-4.93782E-18
 -1      1639 9.52367E-05-2.85712E-05-2.85709E-05-5.79690E-10-3.61774E-19-7.10394E-18
 -1      1640 9.52357E-05-2.85710E-05-2.85705E-05-8.89983E-10-1.45875E-19-6.98676E-18
 -1      1641 9.52350E-05-2.85710E-05-2.85702E-05-2.49901E-09 1.19477E-19-4.47040E-18
 -1      1642 9.52372E-05-2.85713E-05-2.85711E-05 1.53908E-11-4.30759E-18-4.94488E-18
 -1      1643 9.52375E-05-2.85733E-05-2.85703E-05-1.49732E-09-6.23883E-18 9.52644E-19
 -1      1644 9.52371E-05-2.85721E-05-2.85707E-05-1.18066E-09-6.67812E-18 3.18507E-19
 -1      1645 9.52387E-05-2.85771E-05-2.85692E-05-2.58960E-09-3.34533E-18 2.26361E-18
 -1      1646 9.52380E-05-2.85749E-05-2.85699E-05-2.37814E-09-6.16718E-18 1.31165E-18
 -1      1647 9.52376E-05-2.85745E-05-2.85698E-05-3.81547E-09-2.95080E-18 2.55717E-18
 -1      1648 9.52404E-05-2.85820E-05-2.85679E-05-3.13798E-09-3.72849E-18 1.25956E-19
 -1      1649 9.52394E-05-2.85792E-05-2.85687E-05-3.07503E-09-3.70375E-18 1.49202E-18
 -1      1650 9.52389E-05-2.85782E-05-2.85689E-05-5.48904E-09-2.39680E-18 2.06798E-18
 -1      1651 9.52420E-05-2.85871E-05-2.85664E-05-3.15353E-09-2.77189E-18-3.85039E-19
 -1      1652 9.52411E-05-2.85842E-05-2.85672E-05-3.19353E-09-4.27877E-18 1.56006E-18
 -1      1653 9.52405E-05-2.85824E-05-2.85677E-05-6.11113E-09-4.10313E-18 4.63959E-19
 -1      1654 9.52435E-05-2.85917E-05-2.85651E-05-2.73274E-09-3.91853E-18-1.60291E-18
 -1      1655 9.52427E-05-2.85892E-05-2.85658E-05-2.84732E-09-2.17249E-18-2.66013E-18
 -1      1656 9.52420E-05-2.85867E-05-2.85666E-05-5.79214E-09-3.03751E-18-1.31004E-18
 -1      1657 9.52446E-05-2.85953E-05-2.85640E-05-1.96988E-09-3.45876E-18 1.38892E-18
 -1      1658 9.52440E-05-2.85934E-05-2.85646E-05-2.14224E-09-3.80884E-18 3.93943E-19
 -1      1659 9.52432E-05-2.85904E-05-2.85656E-05-4.70747E-09-2.08444E-18-7.82224E-19
 -1      1660 9.52453E-05-2.85974E-05-2.85634E-05-9.84673E-10-4.00953E-18-3.54596E-19
 -1      1661 9.52450E-05-2.85964E-05-2.85637E-05-1.18992E-09-4.21475E-18 1.88518E-18
 -1      1662 9.52442E-05-2.85931E-05-2.85648E-05-3.05259E-09-2.62214E-18 6.75675E-19
 -1      1663 9.52454E-05-2.85978E-05-2.85633E-05 1.06991E-10-1.18701E-18 2.35307E-18
 -1      1664 9.52454E-05-2.85978E-05-2.85633E-05-1.09482E-10-3.51401E-18 1.43454E-18
 -1      1665 9.52447E-05-2.85946E-05-2.85644E-05-1.05741E-09-1.70517E-18 1.23181E-18
 -1      1666 9.52450E-05-2.85964E-05-2.85637E-05 1.18971E-09-5.60727E-19-5.03246E-19
 -1      1667 9.52453E-05-2.85974E-05-2.85634E-05 9.83747E-10-1.28783E-18 1.69934E-18
 -1      1668 9.52447E-05-2.85946E-05-2.85644E-05 1.05375E-09-1.93579E-18 2.38063E-18
 -1      1669 9.52440E-05-2.85934E-05-2.85646E-05 2.14710E-09-1.79746E-18-1.71226E-18
 -1      1670 9.52446E-05-2.85953E-05-2.85640E-05 1.97400E-09-2.62117E-19-1.64507E-18
 -1      1671 9.52442E-05-2.85931E-05-2.85648E-05 3.05612E-09-5.55512E-19-8.43530E-19
 -1      1672 9.52427E-05-2.85892E-05-2.85658E-05 2.85140E-09-3.15488E-18-7.58311E-19
 -1      1673 9.52435E-05-2.85917E-05-2.85651E-05 2.73611E-09-1.97056E-18-1.81688E-18
 -1      1674 9.52433E-05-2.85904E-05-2.85656E-05 4.71188E-09-9.00086E-19-2.50812E-18
 -1      1675 9.52411E-05-2.85842E-05-2.85672E-05 3.20686E-09-4.24434E-18-1.99346E-19
 -1      1676 9.52420E-05-2.85871E-05-2.85664E-05 3.16726E-09-3.12910E-18-2.31051E-20
 -1      1677 9.52420E-05-2.85867E-05-2.85666E-05 5.80924E-09-1.94939E-18-5.40157E-19
 -1      1678 9.52394E-05-2.85791E-05-2.85687E-05 3.08183E-09-3.39529E-18 1.16702E-18
 -1      1679 9.52403E-05-2.85819E-05-2.85679E-05 3.14830E-09-4.59776E-18 9.51517E-19
 -1      1680 9.52405E-05-2.85824E-05-2.85677E-05 6.13422E-09-1.61132E-18-7.35459E-20
 -1      1681 9.52379E-05-2.85748E-05-2.85699E-05 2.36025E-09-1.52644E-18 1.44437E-18
 -1      1682 9.52387E-05-2.85771E-05-2.85693E-05 2.58972E-09-3.39890E-18 1.46722E-18
 -1      1683 9.52389E-05-2.85781E-05-2.85689E-05 5.49836E-09-2.19774E-18 1.84715E-18
 -1      1684 9.52372E-05-2.85723E-05-2.85707E-05 1.25520E-09 2.62560E-19 1.22173E-18
 -1      1685 9.52376E-05-2.85735E-05-2.85703E-05 1.57829E-09-1.60399E-18 1.42140E-18
 -1      1686 9.52378E-05-2.85749E-05-2.85698E-05 3.92568E-09-2.62179E-18 1.73343E-18
 -1      1687 9.52369E-05-2.85726E-05-2.85704E-05 1.98468E-09-1.45122E-18 1.55486E-18
 -1      1688 2.07639E-05-6.67273E-05 1.40631E-05-3.39094E-06 2.49621E-18 2.17052E-20
 -1      1689 2.43545E-05-7.83588E-05 1.66672E-05 4.66313E-06 3.59502E-18-7.62330E-21
 -1      1690 2.09727E-05-3.74235E-05 3.24303E-06 7.18751E-06-1.28495E-18-3.55309E-18
 -1      1691 2.51928E-05-6.08073E-05 9.59121E-06 2.96359E-06 2.06845E-18-1.42307E-18
 -1      1692 3.55557E-05-1.02198E-05-1.25072E-05 3.09247E-05-5.17114E-18-5.71832E-18
 -1      1693 3.00092E-05-3.09167E-05-3.84094E-06 1.35545E-05-2.24887E-18-3.66596E-18
 -1      1694 7.28085E-05 1.56524E-06-3.09868E-05 6.18606E-05-6.67801E-18-7.63007E-18
 -1      1695 4.98126E-05-5.02137E-06-2.12874E-05 3.92450E-05-6.40526E-18-5.99530E-18
 -1      1696 1.35869E-04-1.19743E-05-4.97827E-05 8.14518E-05-5.63531E-18-7.72579E-18
 -1      1697 9.51361E-05-1.21043E-07-4.02666E-05 6.76809E-05-7.03122E-18-7.51403E-18
 -1      1698 2.03393E-04-3.98178E-05-6.49923E-05 6.87656E-05-3.32715E-18-4.83995E-18
 -1      1699 1.61046E-04-1.97320E-05-5.76527E-05 7.55369E-05-4.71120E-18-6.44338E-18
 -1      1700 2.50571E-04-6.15990E-05-7.45687E-05 3.53058E-05-1.52233E-18-1.76606E-18
 -1      1701 2.23242E-04-4.61744E-05-7.07338E-05 6.16261E-05-2.73269E-18-4.02002E-18
 -1      1702 2.55670E-04-6.34602E-05-7.63238E-05-1.56960E-05-2.18894E-18 2.60801E-18
 -1      1703 2.55643E-04-6.32546E-05-7.62524E-05 1.90394E-05-1.72244E-18-4.37704E-19
 -1      1704 2.20077E-04-4.49701E-05-7.01699E-05-5.83645E-05-4.41050E-18 7.23197E-18
 -1      1705 2.47378E-04-6.01462E-05-7.42179E-05-3.13472E-05-3.09506E-18 3.92261E-18
 -1      1706 1.60052E-04-1.82903E-05-5.76438E-05-7.94512E-05-7.12736E-18 1.04109E-17
 -1      1707 2.03450E-04-3.93727E-05-6.50367E-05-7.24223E-05-4.92253E-18 8.75663E-18
 -1      1708 9.75410E-05-1.23621E-06-4.07261E-05-6.79198E-05-1.01466E-17 1.11868E-17
 -1      1709 1.36090E-04-1.22161E-05-4.97058E-05-8.10167E-05-8.23485E-18 1.10614E-17
 -1      1710 5.22707E-05-4.55236E-06-2.24741E-05-4.08271E-05-1.13282E-17 9.74257E-18
 -1      1711 7.57554E-05 7.18312E-07-3.18676E-05-6.26778E-05-1.05998E-17 1.10487E-17
 -1      1712 2.95946E-05-2.76091E-05-5.19353E-06-1.38766E-05-1.09919E-17 6.88553E-18
 -1      1713 3.62536E-05-7.98623E-06-1.37945E-05-3.21960E-05-1.14883E-17 9.20894E-18
 -1      1714 2.45749E-05-5.87379E-05 8.58543E-06-3.13079E-07-9.28941E-18 3.78851E-18
 -1      1715 2.03692E-05-3.47142E-05 2.10359E-06-6.02800E-06-1.06701E-17 5.57644E-18
 -1      1716 2.52971E-05-7.94351E-05 1.62725E-05-2.18900E-06-4.70739E-18 2.39244E-18
 -1      1717 2.08595E-05-6.54437E-05 1.31988E-05 4.68935E-06-8.03072E-18 3.39131E-18
 -1      1718 2.24454E-05-7.61413E-05 1.62634E-05-9.88284E-06 8.59315E-19 2.09069E-18
 -1      1719 2.46970E-05-8.13736E-05 1.73135E-05 3.22974E-07-3.08961E-18 1.88761E-18
 -1      1720 1.98264E-05-5.03008E-05 7.72275E-06-4.42998E-06 6.11727E-18 4.51569E-18
 -1      1721 2.50060E-05-7.09727E-05 1.29288E-05-4.79721E-06 2.54068E-18 3.03047E-18
 -1      1722 2.87451E-05-2.23657E-05-6.27509E-06 1.53638E-05 9.46813E-18 8.14507E-18
 -1      1723 2.70904E-05-4.42489E-05 1.53376E-06 1.68575E-06 7.22773E-18 5.53367E-18
 -1      1724 6.20927E-05-6.28578E-06-2.48240E-05 4.77359E-05 1.08217E-17 1.19279E-17
 -1      1725 4.32531E-05-1.80924E-05-1.48012E-05 2.42484E-05 1.00145E-17 9.28602E-18
 -1      1726 1.31605E-04-1.77070E-05-4.62905E-05 7.27361E-05 9.45797E-18 1.36313E-17
 -1      1727 8.95038E-05-1.04610E-05-3.50469E-05 5.30201E-05 1.01593E-17 1.23870E-17
 -1      1728 2.08224E-04-4.24532E-05-6.50802E-05 7.19974E-05 6.47514E-18 1.34424E-17
 -1      1729 1.58033E-04-2.14345E-05-5.60692E-05 7.31150E-05 8.88368E-18 1.40963E-17
 -1      1730 2.67259E-04-6.75416E-05-7.72981E-05 3.83149E-05 3.24541E-18 1.13181E-17
 -1      1731 2.31196E-04-4.87241E-05-7.20907E-05 6.45178E-05 5.50476E-18 1.32815E-17
 -1      1732 2.77549E-04-7.14987E-05-8.00731E-05-1.42427E-05 1.62842E-18 7.20444E-18
 -1      1733 2.76012E-04-7.03573E-05-7.98361E-05 2.30868E-05 2.17772E-18 9.91283E-18
 -1      1734 2.33402E-04-5.06458E-05-7.24306E-05-5.56178E-05 1.77485E-18 2.37000E-18
 -1      1735 2.66140E-04-6.73239E-05-7.73706E-05-2.76685E-05 1.17801E-18 5.82547E-18
 -1      1736 1.66531E-04-2.42808E-05-5.79724E-05-7.41939E-05 3.22635E-18-2.82231E-18
 -1      1737 2.14971E-04-4.58009E-05-6.64129E-05-6.93600E-05 2.11504E-18 6.21722E-19
 -1      1738 9.72140E-05-8.54052E-06-3.85379E-05-5.89660E-05 3.35086E-18-4.00647E-18
 -1      1739 1.39984E-04-1.85889E-05-4.89560E-05-7.57366E-05 3.04254E-18-4.51638E-18
 -1      1740 4.80626E-05-1.56425E-05-1.75681E-05-2.76568E-05 3.39491E-18-2.80029E-18
 -1      1741 7.18820E-05-6.43750E-06-2.83279E-05-5.27250E-05 3.37119E-18-4.25295E-18
 -1      1742 2.80127E-05-4.12067E-05 3.61305E-08-2.79683E-06 2.63681E-18-1.73472E-18
 -1      1743 3.14928E-05-1.93506E-05-8.36476E-06-1.86824E-05 3.04339E-18-2.17264E-18
 -1      1744 2.47831E-05-6.80526E-05 1.20862E-05 5.31038E-06 4.07508E-18 8.94149E-20
 -1      1745 1.99684E-05-4.71304E-05 6.59051E-06 3.66968E-06 2.79690E-18-8.18234E-19
 -1      1746 2.38183E-05-7.81789E-05 1.69422E-05 7.08997E-07 3.70201E-18-2.40134E-19
 -1      1747 2.09689E-05-7.08472E-05 1.53506E-05 9.36160E-06 3.97513E-18 9.04208E-20
 -1      1748 7.19391E-05-3.28642E-05-1.79407E-05 4.24920E-05-1.83298E-18-4.97081E-18
 -1      1749 1.15268E-05-5.13207E-05 1.24751E-05 4.47918E-06 1.10564E-18-6.18758E-19
 -1      1750 9.52368E-05-2.85714E-05-2.85709E-05-5.44356E-10-5.61911E-18-3.36691E-18
 -1      1751 9.52366E-05-2.85722E-05-2.85704E-05-1.98709E-09-2.15589E-18-2.19595E-18
 -1      1752 2.00181E-05-4.77970E-05 7.97910E-06 1.96621E-05 9.45712E-19-2.46762E-18
 -1      1753 4.15577E-05-4.11855E-05-2.90457E-06 3.23478E-05 2.94767E-19-4.66173E-18
 -1      1754 1.11836E-04-2.73910E-05-3.51953E-05 5.01063E-05-3.39406E-18-4.29192E-18
 -1      1755 1.56360E-04-2.89685E-05-5.16151E-05 4.59395E-05-3.93193E-18-2.78335E-18
 -1      1756 1.92406E-04-3.22018E-05-6.43653E-05 3.20677E-05-3.34017E-18-1.19898E-18
 -1      1757 2.14301E-04-3.48888E-05-7.14996E-05 1.35360E-05-2.97690E-18 3.49401E-19
 -1      1758 2.10130E-04-3.23833E-05-7.10689E-05-1.01243E-05-4.45624E-18 2.75116E-18
 -1      1759 1.92105E-04-3.16584E-05-6.43067E-05-3.30903E-05-5.30560E-18 4.46005E-18
 -1      1760 1.56680E-04-2.88794E-05-5.18039E-05-4.84591E-05-6.37329E-18 6.54502E-18
 -1      1761 1.13703E-04-2.78710E-05-3.57973E-05-4.97660E-05-6.84868E-18 7.08120E-18
 -1      1762 7.38779E-05-3.17127E-05-1.90954E-05-4.27924E-05-6.98972E-18 6.81226E-18
 -1      1763 4.21897E-05-3.97600E-05-3.87546E-06-3.09879E-05-6.41882E-18 5.40651E-18
 -1      1764 2.16721E-05-4.90700E-05 7.48686E-06-1.79809E-05-4.73364E-18 4.31733E-18
 -1      1765 1.26595E-05-5.44149E-05 1.28624E-05-5.75898E-06-2.00408E-18 4.27413E-18
 -1      1766 1.66750E-05-5.26752E-05 1.06501E-05 8.07594E-06 1.09055E-18 4.79675E-18
 -1      1767 3.41893E-05-4.70670E-05 1.60186E-06 2.14894E-05 3.69899E-18 5.86046E-18
 -1      1768 6.41331E-05-4.07856E-05-1.24353E-05 3.38175E-05 5.44812E-18 7.92653E-18
 -1      1769 1.10310E-04-3.95673E-05-3.03720E-05 4.18939E-05 6.03934E-18 8.92349E-18
 -1      1770 1.60348E-04-4.01952E-05-4.91345E-05 3.84509E-05 6.30235E-18 8.99634E-18
 -1      1771 2.02780E-04-3.94730E-05-6.50421E-05 2.97357E-05 5.58184E-18 9.12932E-18
 -1      1772 2.29751E-04-4.10031E-05-7.41558E-05 1.33111E-05 3.75786E-18 8.12813E-18
 -1      1773 2.26455E-04-3.89714E-05-7.39556E-05-6.21261E-06 3.03577E-18 5.56501E-18
 -1      1774 2.04468E-04-3.90255E-05-6.58063E-05-2.54637E-05 3.24308E-18 3.30682E-18
 -1      1775 1.65653E-04-3.86353E-05-5.15298E-05-4.02040E-05 2.57392E-18-2.80368E-19
 -1      1776 1.15746E-04-3.78205E-05-3.32130E-05-4.21888E-05 1.74658E-18-2.08540E-18
 -1      1777 6.98779E-05-4.07432E-05-1.47086E-05-3.41895E-05 1.35864E-18-1.93843E-18
 -1      1778 3.73772E-05-4.71345E-05 3.35873E-07-2.20302E-05 1.24175E-18-4.81247E-19
 -1      1779 1.75350E-05-5.03130E-05 9.61956E-06-9.91474E-06 1.46876E-18 6.92026E-19
 -1      1780 1.14655E-04-2.58325E-05-3.81549E-05-1.33864E-05 1.42921E-18-6.30256E-18
 -1      1781 9.02007E-05-9.63016E-06-3.46867E-05-6.86054E-06 2.22516E-18 1.85056E-18
 -1      1782 9.37667E-05-1.15206E-05-3.53439E-05-8.52548E-06 2.37460E-18 1.21388E-18
 -1      1783 9.80392E-05-1.49951E-05-3.57713E-05-9.60274E-06 2.29013E-18 3.91038E-19
 -1      1784 1.01750E-04-1.78050E-05-3.64018E-05-1.15463E-05 2.35328E-18-8.08599E-19
 -1      1785 9.79029E-05-1.66546E-05-3.48069E-05-6.79211E-06 2.48015E-18 7.32895E-19
 -1      1786 7.96737E-05-3.58798E-06-3.26820E-05-4.25348E-06 1.55368E-18 3.09898E-18
 -1      1787 8.15186E-05-4.28954E-06-3.31288E-05-4.78333E-06 1.76299E-18 2.85156E-18
 -1      1788 7.71550E-05-2.43539E-06-3.20661E-05-3.92819E-06 1.20581E-18 3.42619E-18
 -1      1789 7.81296E-05-2.72819E-06-3.23475E-05-4.22851E-06 1.36106E-18 3.26830E-18
 -1      1790 7.95380E-05-4.45223E-06-3.21812E-05-3.94356E-06 1.56609E-18 3.11066E-18
 -1      1791 7.64779E-05-2.34430E-06-3.17932E-05-3.68416E-06 9.19919E-19 3.58754E-18
 -1      1792 7.66043E-05-2.27698E-06-3.18938E-05-3.96995E-06 1.06416E-18 3.50454E-18
 -1      1793 7.73936E-05-3.47001E-06-3.16856E-05-3.99296E-06 1.27398E-18 3.44162E-18
 -1      1794 7.73473E-05-3.07458E-06-3.18412E-05-3.10916E-06 6.80662E-19 3.74530E-18
 -1      1795 7.67889E-05-2.74523E-06-3.17802E-05-3.56025E-06 8.09146E-19 3.62872E-18
 -1      1796 7.72232E-05-3.73754E-06-3.15068E-05-3.90888E-06 9.55499E-19 3.64028E-18
 -1      1797 7.93013E-05-4.31540E-06-3.21455E-05-1.93654E-06 4.51349E-19 3.80659E-18
 -1      1798 7.82850E-05-3.83636E-06-3.19604E-05-2.66101E-06 5.62923E-19 3.79656E-18
 -1      1799 7.86257E-05-4.91509E-06-3.16156E-05-3.30054E-06 6.91444E-19 3.76580E-18
 -1      1800 8.18565E-05-5.77639E-06-3.26223E-05-7.63538E-08 5.85809E-20 3.77977E-18
 -1      1801 8.06019E-05-5.24200E-06-3.23564E-05-1.10942E-06 2.66809E-19 3.76028E-18
 -1      1802 8.10545E-05-6.60497E-06-3.19439E-05-1.96669E-06 3.59081E-19 3.76743E-18
 -1      1803 8.46041E-05-7.25242E-06-3.31818E-05 2.37523E-06-3.33493E-19 3.79330E-18
 -1      1804 8.32842E-05-6.72216E-06-3.28782E-05 1.07482E-06-1.44644E-19 3.76309E-18
 -1      1805 8.39695E-05-8.46349E-06-3.24037E-05 7.07049E-08-7.82248E-20 3.64372E-18
 -1      1806 8.74985E-05-8.79157E-06-3.37845E-05 5.38938E-06-8.01267E-19 3.75821E-18
 -1      1807 8.61066E-05-8.22348E-06-3.34562E-05 3.80255E-06-5.82368E-19 3.80646E-18
 -1      1808 8.70549E-05-1.03508E-05-3.29203E-05 2.68419E-06-5.25940E-19 3.68076E-18
 -1      1809 9.06393E-05-1.06078E-05-3.43893E-05 8.80677E-06-1.38399E-18 3.38879E-18
 -1      1810 8.90930E-05-9.88514E-06-3.40468E-05 6.96674E-06-1.05218E-18 3.56994E-18
 -1      1811 9.02725E-05-1.23628E-05-3.34343E-05 5.68704E-06-1.01866E-18 3.54013E-18
 -1      1812 9.45968E-05-1.33591E-05-3.49772E-05 1.24744E-05-1.89465E-18 2.74330E-18
 -1      1813 9.25678E-05-1.21345E-05-3.46117E-05 1.03690E-05-1.60353E-18 3.11515E-18
 -1      1814 9.38520E-05-1.48647E-05-3.38823E-05 8.75759E-06-1.64272E-18 3.08414E-18
 -1      1815 1.00899E-04-1.87954E-05-3.54099E-05 1.54387E-05-2.18842E-18 1.07796E-18
 -1      1816 9.73697E-05-1.59213E-05-3.50866E-05 1.36372E-05-2.00266E-18 2.13908E-18
 -1      1817 9.83939E-05-1.87123E-05-3.41542E-05 1.12493E-05-2.17496E-18 2.21494E-18
 -1      1818 1.07467E-04-2.69405E-05-3.49554E-05 1.27041E-05-2.07634E-18-1.40862E-18
 -1      1819 1.03362E-04-2.13239E-05-3.51501E-05 1.49655E-05-2.11925E-18 2.57445E-19
 -1      1820 1.02792E-04-2.38388E-05-3.38853E-05 1.11551E-05-2.33953E-18 9.49206E-19
 -1      1821 1.04770E-04-2.81490E-05-3.30456E-05 7.81130E-06-2.09320E-18-7.08225E-19
 -1      1822 1.09051E-04-2.23531E-05-3.68680E-05-1.38457E-05 1.98215E-18-2.73899E-18
 -1      1823 1.02044E-04-2.95594E-05-3.10855E-05 3.00315E-06-1.59716E-18 1.16758E-19
 -1      1824 1.03997E-04-2.95069E-05-3.19789E-05 5.06997E-06-1.76638E-18-5.06365E-19
 -1      1825 1.03550E-04-2.77257E-05-3.24805E-05 7.08184E-06-2.03608E-18 4.27090E-19
 -1      1826 1.08330E-04-2.49016E-05-3.54819E-05-8.71569E-06 2.18405E-18-1.90397E-18
 -1      1827 1.08287E-04-2.98046E-05-3.35164E-05 8.89170E-07 1.83856E-18-1.46802E-18
 -1      1828 1.08299E-04-3.02594E-05-3.33628E-05 3.22179E-06 1.59244E-18-1.01189E-18
 -1      1829 1.08476E-04-3.06513E-05-3.32587E-05 5.54712E-06 1.28447E-18-7.75062E-19
 -1      1830 1.09882E-04-3.13654E-05-3.35761E-05 7.07811E-06 1.03771E-18-4.03605E-19
 -1      1831 1.05932E-04-2.85108E-05-3.32239E-05 4.79584E-06 1.76440E-18 1.13489E-20
 -1      1832 1.10697E-04-3.18670E-05-3.37290E-05 8.77346E-06 9.33728E-19-2.05578E-19
 -1      1833 1.12966E-04-3.29057E-05-3.42776E-05 9.75381E-06 9.55122E-19 2.80183E-20
 -1      1834 1.07084E-04-2.98465E-05-3.31452E-05 9.32074E-06 1.25992E-18 3.76387E-19
 -1      1835 1.14510E-04-3.38225E-05-3.45437E-05 1.07443E-05 7.38769E-19 4.85853E-20
 -1      1836 1.17298E-04-3.53338E-05-3.51540E-05 1.08820E-05 4.65739E-19 6.72531E-20
 -1      1837 1.09577E-04-3.17561E-05-3.34058E-05 1.23816E-05 8.85846E-19 6.70294E-19
 -1      1838 1.19760E-04-3.69602E-05-3.54377E-05 1.06673E-05 8.20298E-20-8.70856E-21
 -1      1839 1.22562E-04-3.89632E-05-3.59326E-05 9.32874E-06-2.13452E-19-1.41812E-19
 -1      1840 1.13726E-04-3.50947E-05-3.37753E-05 1.34454E-05 2.54901E-19 4.49715E-19
 -1      1841 1.26152E-04-4.14488E-05-3.62189E-05 7.04754E-06-5.92129E-19-1.55629E-19
 -1      1842 1.28128E-04-4.34949E-05-3.64507E-05 3.59469E-06-6.97505E-19-2.63574E-19
 -1      1843 1.19975E-04-4.04633E-05-3.41804E-05 1.11490E-05-4.33006E-19 2.79750E-19
 -1      1844 1.32540E-04-4.62056E-05-3.69249E-05-1.50022E-06-1.09004E-18-3.37741E-19
 -1      1845 1.32449E-04-4.67322E-05-3.69247E-05-6.76031E-06-1.14447E-18-5.30269E-19
 -1      1846 1.28296E-04-4.71592E-05-3.48949E-05 3.74350E-06-9.45156E-19 2.68160E-19
 -1      1847 1.35854E-04-4.73896E-05-3.80222E-05-1.34529E-05-1.13995E-18-6.85954E-19
 -1      1848 1.32713E-04-4.41514E-05-3.80990E-05-1.77651E-05-4.68886E-19-7.14869E-19
 -1      1849 1.36441E-04-5.08993E-05-3.67659E-05-8.81250E-06-1.10373E-18-9.84411E-20
 -1      1850 1.32435E-04-4.00380E-05-4.00488E-05-2.09653E-05 2.31399E-19-7.43311E-19
 -1      1851 1.27414E-04-3.35915E-05-4.04016E-05-1.92537E-05 1.16065E-18-1.04421E-18
 -1      1852 1.39672E-04-4.52188E-05-4.06742E-05-2.05204E-05-1.51460E-19-2.82697E-19
 -1      1853 1.24984E-04-2.79483E-05-4.21632E-05-1.36434E-05 2.00556E-18-5.16101E-19
 -1      1854 1.22541E-04-2.44497E-05-4.24286E-05-5.45079E-06 2.26962E-18 2.26158E-19
 -1      1855 1.36238E-04-3.07170E-05-4.56733E-05-1.87500E-05 1.91853E-18-4.47869E-20
 -1      1856 1.22392E-04-2.41551E-05-4.24721E-05 6.15256E-06 2.26899E-18 1.22862E-18
 -1      1857 1.25439E-04-2.80821E-05-4.22704E-05 1.50045E-05 2.11144E-18 1.97412E-18
 -1      1858 1.33093E-04-2.19293E-05-4.82511E-05 2.76817E-07 3.10480E-18 1.83461E-18
 -1      1859 1.28170E-04-3.40682E-05-4.05050E-05 2.03831E-05 1.61529E-18 2.35681E-18
 -1      1860 1.33304E-04-4.04536E-05-4.02558E-05 2.20136E-05 8.99655E-19 2.58296E-18
 -1      1861 1.36786E-04-3.16707E-05-4.56597E-05 1.96753E-05 2.12923E-18 2.79034E-18
 -1      1862 1.33849E-04-4.46832E-05-3.83452E-05 1.87088E-05 5.72727E-19 2.70053E-18
 -1      1863 1.37162E-04-4.79766E-05-3.83304E-05 1.42102E-05 1.08903E-19 3.20562E-18
 -1      1864 1.40240E-04-4.54468E-05-4.07454E-05 2.18423E-05 1.09363E-18 3.76517E-18
 -1      1865 1.33765E-04-4.72331E-05-3.72790E-05 7.34986E-06-5.08140E-19 3.10790E-18
 -1      1866 1.33971E-04-4.66918E-05-3.73314E-05 2.02149E-06-5.95239E-19 3.22480E-18
 -1      1867 1.37257E-04-5.13512E-05-3.69073E-05 9.60587E-06-1.95774E-19 3.62137E-18
 -1      1868 1.29607E-04-4.39865E-05-3.68773E-05-3.13363E-06-2.82221E-19 3.24124E-18
 -1      1869 1.27723E-04-4.19815E-05-3.66699E-05-6.64768E-06-2.68536E-20 3.34559E-18
 -1      1870 1.29137E-04-4.74734E-05-3.51036E-05-3.17732E-06-3.13177E-19 3.44918E-18
 -1      1871 1.24108E-04-3.95130E-05-3.63676E-05-9.05859E-06 1.08156E-19 3.09383E-18
 -1      1872 1.21314E-04-3.75536E-05-3.58656E-05-1.05016E-05 2.33543E-19 3.37160E-18
 -1      1873 1.20877E-04-4.08637E-05-3.43842E-05-1.08057E-05 1.70465E-20 2.82307E-18
 -1      1874 1.18714E-04-3.59434E-05-3.55133E-05-1.09518E-05 2.40160E-19 3.15585E-18
 -1      1875 1.15789E-04-3.44674E-05-3.48459E-05-1.10251E-05 4.06195E-19 3.04872E-18
 -1      1876 1.14491E-04-3.55823E-05-3.38807E-05-1.35315E-05 1.95469E-19 2.66066E-18
 -1      1877 1.13921E-04-3.35506E-05-3.44337E-05-1.04683E-05 3.01529E-19 3.10372E-18
 -1      1878 1.11255E-04-3.25228E-05-3.37426E-05-9.88590E-06 2.97841E-19 3.27686E-18
 -1      1879 1.09934E-04-3.23719E-05-3.32772E-05-1.32454E-05 6.95164E-19 2.61996E-18
 -1      1880 1.09845E-04-3.20172E-05-3.33181E-05-8.95538E-06 4.58490E-20 3.16631E-18
 -1      1881 1.07590E-04-3.13088E-05-3.26912E-05-8.17346E-06-2.51718E-19 2.91820E-18
 -1      1882 1.06619E-04-3.06585E-05-3.25751E-05-1.15638E-05-2.68327E-19 2.56055E-18
 -1      1883 1.06479E-04-3.10166E-05-3.22960E-05-7.20479E-06-1.52241E-19 3.35233E-18
 -1      1884 1.04658E-04-3.05205E-05-3.17697E-05-6.44964E-06 1.73222E-19 2.89527E-18
 -1      1885 1.04093E-04-2.97932E-05-3.18564E-05-9.47091E-06-1.69709E-19 2.88786E-18
 -1      1886 1.03763E-04-3.03345E-05-3.14263E-05-5.58849E-06-2.65575E-19 3.16125E-18
 -1      1887 1.02337E-04-2.99803E-05-3.10048E-05-4.94632E-06-4.57312E-19 2.53717E-18
 -1      1888 1.02102E-04-2.93519E-05-3.11894E-05-7.46157E-06 1.71713E-19 3.50956E-18
 -1      1889 1.01616E-04-2.98493E-05-3.07202E-05-4.23678E-06-6.87950E-19 2.47539E-18
 -1      1890 1.00523E-04-2.95926E-05-3.03926E-05-3.72406E-06-4.24794E-19 2.25491E-18
 -1      1891 1.00510E-04-2.91083E-05-3.06103E-05-5.73408E-06-5.85038E-19 3.26229E-18
 -1      1892 9.99467E-05-2.94937E-05-3.01641E-05-3.16329E-06-2.86602E-19 1.66876E-18
 -1      1893 9.91203E-05-2.93063E-05-2.99145E-05-2.76770E-06-4.09909E-19 1.71036E-18
 -1      1894 9.92390E-05-2.89560E-05-3.01299E-05-4.33268E-06-4.96219E-19 2.48579E-18
 -1      1895 9.86660E-05-2.92292E-05-2.97352E-05-2.33516E-06-4.82432E-19 1.57705E-18
 -1      1896 9.80492E-05-2.90922E-05-2.95478E-05-2.03580E-06-4.92836E-19 2.08402E-18
 -1      1897 9.82324E-05-2.88488E-05-2.97435E-05-3.23311E-06-4.44209E-19 1.43334E-18
 -1      1898 9.76957E-05-2.90319E-05-2.94095E-05-1.70706E-06-2.02180E-19 2.35879E-18
 -1      1899 9.72403E-05-2.89323E-05-2.92704E-05-1.48312E-06 1.80296E-19 2.48345E-18
 -1      1900 9.74447E-05-2.87675E-05-2.94397E-05-2.38756E-06-1.73193E-19 1.53428E-18
 -1      1901 9.69690E-05-2.88854E-05-2.91653E-05-1.23570E-06 2.36941E-19 2.13636E-18
 -1      1902 9.66362E-05-2.88137E-05-2.90631E-05-1.06943E-06 8.51480E-19 2.45512E-18
 -1      1903 9.68364E-05-2.87045E-05-2.92050E-05-1.74561E-06 8.88657E-20 2.29751E-18
 -1      1904 9.64309E-05-2.87780E-05-2.89842E-05-8.84569E-07 7.27637E-19 1.95420E-18
 -1      1905 9.61906E-05-2.87270E-05-2.89100E-05-7.61861E-07 1.76395E-19 1.14796E-18
 -1      1906 9.63730E-05-2.86560E-05-2.90262E-05-1.26258E-06 1.56878E-19 1.64182E-18
 -1      1907 9.60375E-05-2.87003E-05-2.88514E-05-6.24657E-07 9.64881E-20 1.67546E-18
 -1      1908 9.58663E-05-2.86648E-05-2.87983E-05-5.34652E-07-3.67699E-19 1.32546E-18
 -1      1909 9.60249E-05-2.86195E-05-2.88917E-05-9.01758E-07-6.94257E-20 1.64530E-18
 -1      1910 9.57540E-05-2.86454E-05-2.87554E-05-4.33541E-07-5.15198E-19 1.62496E-18
 -1      1911 9.56341E-05-2.86213E-05-2.87179E-05-3.68004E-07-5.96305E-19 1.67415E-18
 -1      1912 9.57674E-05-2.85930E-05-2.87920E-05-6.34115E-07-3.52508E-19 1.67259E-18
 -1      1913 9.55531E-05-2.86076E-05-2.86870E-05-2.94124E-07-2.20074E-19 2.21665E-18
 -1      1914 9.54709E-05-2.85918E-05-2.86610E-05-2.46847E-07-4.26591E-19 2.70297E-18
 -1      1915 9.55802E-05-2.85748E-05-2.87189E-05-4.37146E-07-1.04962E-19 3.22493E-18
 -1      1916 9.54136E-05-2.85825E-05-2.86391E-05-1.93434E-07-1.29147E-18 2.78193E-18
 -1      1917 9.53589E-05-2.85727E-05-2.86215E-05-1.59741E-07-6.65304E-19 2.50188E-18
 -1      1918 9.54466E-05-2.85629E-05-2.86662E-05-2.93554E-07-8.69736E-19 3.91114E-18
 -1      1919 9.53195E-05-2.85666E-05-2.86064E-05-1.21641E-07-3.60963E-19 2.34346E-18
 -1      1920 9.52844E-05-2.85610E-05-2.85949E-05-9.80058E-08-5.80760E-19 2.80362E-18
 -1      1921 9.53535E-05-2.85558E-05-2.86289E-05-1.90098E-07-9.80142E-19 3.04142E-18
 -1      1922 9.52582E-05-2.85573E-05-2.85847E-05-7.12909E-08-2.55564E-19 2.86584E-18
 -1      1923 9.52371E-05-2.85546E-05-2.85776E-05-5.50520E-08 2.28377E-19 3.00275E-18
 -1      1924 9.52904E-05-2.85523E-05-2.86030E-05-1.16655E-07-3.02346E-19 3.45766E-18
 -1      1925 9.52204E-05-2.85526E-05-2.85709E-05-3.67310E-08 1.96513E-19 3.03193E-18
 -1      1926 9.52089E-05-2.85518E-05-2.85669E-05-2.58795E-08 4.19150E-19 3.68351E-18
 -1      1927 9.52494E-05-2.85513E-05-2.85856E-05-6.54916E-08 9.84280E-20 3.58742E-18
 -1      1928 9.51990E-05-2.85510E-05-2.85628E-05-1.36797E-08-2.93881E-19 2.91790E-18
 -1      1929 9.51941E-05-2.85514E-05-2.85608E-05-6.70255E-09-4.04443E-19 2.18412E-18
 -1      1930 9.52242E-05-2.85518E-05-2.85744E-05-3.07115E-08-1.85163E-19 3.35669E-18
 -1      1931 9.51888E-05-2.85513E-05-2.85585E-05 1.09604E-09-6.10817E-19 8.71534E-19
 -1      1932 9.51882E-05-2.85524E-05-2.85579E-05 5.33330E-09-9.29128E-19 1.72492E-18
 -1      1933 9.52101E-05-2.85534E-05-2.85675E-05-7.83151E-09-9.81793E-19 8.50439E-19
 -1      1934 9.51861E-05-2.85529E-05-2.85569E-05 1.00234E-08 1.80474E-19 1.98637E-18
 -1      1935 9.51881E-05-2.85543E-05-2.85572E-05 1.23645E-08 1.49040E-18 2.90926E-18
 -1      1936 9.52035E-05-2.85555E-05-2.85637E-05 6.53722E-09 1.98130E-19 1.69287E-18
 -1      1937 9.51881E-05-2.85550E-05-2.85569E-05 1.49084E-08 2.12663E-18 3.24194E-18
 -1      1938 9.51915E-05-2.85567E-05-2.85577E-05 1.59733E-08 2.35078E-18 3.12545E-18
 -1      1939 9.52021E-05-2.85578E-05-2.85620E-05 1.49357E-08 1.83341E-18 2.85651E-18
 -1      1940 9.51928E-05-2.85575E-05-2.85580E-05 1.70767E-08 1.29942E-18 3.30249E-18
 -1      1941 9.51970E-05-2.85591E-05-2.85590E-05 1.73127E-08 1.08171E-18 2.49919E-18
 -1      1942 9.52037E-05-2.85601E-05-2.85616E-05 1.92468E-08 1.75017E-18 2.18365E-18
 -1      1943 9.51990E-05-2.85600E-05-2.85596E-05 1.74824E-08-5.12978E-20 1.94148E-18
 -1      1944 9.52034E-05-2.85615E-05-2.85608E-05 1.72030E-08-2.21404E-18 2.63328E-18
 -1      1945 9.52073E-05-2.85623E-05-2.85622E-05 2.08416E-08-1.07197E-19 1.47534E-18
 -1      1946 9.52057E-05-2.85624E-05-2.85615E-05 1.67902E-08-2.77188E-18 3.34550E-18
 -1      1947 9.52100E-05-2.85638E-05-2.85626E-05 1.62040E-08-1.55883E-18 2.22020E-18
 -1      1948 9.52117E-05-2.85644E-05-2.85632E-05 2.06927E-08-2.03214E-18 3.76592E-18
 -1      1949 9.52124E-05-2.85646E-05-2.85634E-05 1.54376E-08-6.28006E-19 1.94059E-18
 -1      1950 9.52163E-05-2.85659E-05-2.85645E-05 1.46690E-08-5.04180E-19 1.51475E-18
 -1      1951 9.52165E-05-2.85662E-05-2.85644E-05 1.94602E-08-1.83778E-18 2.60797E-18
 -1      1952 9.52186E-05-2.85666E-05-2.85652E-05 1.36798E-08-6.48218E-19 1.60833E-18
 -1      1953 9.52221E-05-2.85677E-05-2.85662E-05 1.27830E-08 1.07818E-18 1.54769E-18
 -1      1954 9.52213E-05-2.85679E-05-2.85657E-05 1.75568E-08-3.37465E-19 2.19546E-18
 -1      1955 9.52242E-05-2.85684E-05-2.85668E-05 1.16233E-08 1.58711E-18 3.92623E-20
 -1      1956 9.52272E-05-2.85694E-05-2.85677E-05 1.05938E-08 3.27090E-19 2.00128E-19
 -1      1957 9.52257E-05-2.85694E-05-2.85670E-05 1.51979E-08-1.76237E-19 1.97760E-18
 -1      1958 9.52291E-05-2.85701E-05-2.85682E-05 9.25569E-09-3.50530E-19 8.24159E-19
 -1      1959 9.52315E-05-2.85709E-05-2.85688E-05 8.04950E-09-3.19780E-19 1.43154E-18
 -1      1960 9.52297E-05-2.85709E-05-2.85680E-05 1.24551E-08 2.82040E-19 7.10878E-19
 -1      1961 9.52330E-05-2.85715E-05-2.85693E-05 6.50437E-09-9.37191E-19 1.86819E-18
 -1      1962 9.52348E-05-2.85722E-05-2.85697E-05 5.13611E-09-4.01770E-19 2.46693E-18
 -1      1963 9.52331E-05-2.85723E-05-2.85689E-05 9.30029E-09-6.15520E-20 1.24097E-18
 -1      1964 9.52361E-05-2.85725E-05-2.85701E-05 3.02539E-09-1.53781E-18 1.95851E-18
 -1      1965 9.97856E-05-2.99545E-05-2.99178E-05 1.06531E-06-1.05637E-18 1.12709E-18
 -1      1966 1.00277E-04-2.98616E-05-3.01275E-05 1.22290E-06-1.21480E-18 8.18201E-19
 -1      1967 9.89414E-05-3.00453E-05-2.95357E-05 1.34816E-06-7.79793E-19 1.46606E-18
 -1      1968 9.94190E-05-3.00449E-05-2.97000E-05 1.11122E-06-8.85331E-19 1.18479E-18
 -1      1969 1.00478E-04-3.03038E-05-3.00824E-05 1.64255E-06-1.14381E-18 1.39618E-18
 -1      1970 9.79243E-05-2.99168E-05-2.91629E-05 2.23026E-06-3.70804E-19 1.57716E-18
 -1      1971 9.85860E-05-3.00524E-05-2.93612E-05 1.78370E-06-5.07330E-19 1.43075E-18
 -1      1972 9.98582E-05-3.05966E-05-2.96812E-05 2.12353E-06-7.65184E-19 1.41056E-18
 -1      1973 9.64829E-05-2.94733E-05-2.87317E-05 3.33683E-06-4.43184E-19 1.58708E-18
 -1      1974 9.74346E-05-2.97941E-05-2.89903E-05 2.84978E-06-4.61110E-19 1.49627E-18
 -1      1975 9.90770E-05-3.05676E-05-2.93500E-05 3.27909E-06-4.46310E-19 1.48416E-18
 -1      1976 9.45586E-05-2.86621E-05-2.82413E-05 4.22101E-06-2.39212E-19 1.73295E-18
 -1      1977 9.57739E-05-2.91728E-05-2.85494E-05 3.89002E-06-4.72606E-19 1.52215E-18
 -1      1978 9.78871E-05-3.00971E-05-2.90371E-05 4.59928E-06-4.47223E-19 1.48662E-18
 -1      1979 9.23410E-05-2.75589E-05-2.77457E-05 4.41266E-06-4.48095E-19 2.05323E-18
 -1      1980 9.36516E-05-2.81881E-05-2.80602E-05 4.43067E-06-2.33583E-19 1.97865E-18
 -1      1981 9.62192E-05-2.91359E-05-2.87380E-05 5.49181E-06-4.69275E-19 1.30732E-18
 -1      1982 9.02634E-05-2.64088E-05-2.73330E-05 3.57489E-06-5.06440E-19 2.42889E-18
 -1      1983 9.13894E-05-2.70025E-05-2.75906E-05 4.05408E-06-5.20108E-19 2.26004E-18
 -1      1984 9.42563E-05-2.78139E-05-2.84770E-05 5.38005E-06-6.46511E-19 1.91385E-18
 -1      1985 8.88928E-05-2.55799E-05-2.70956E-05 1.70541E-06-6.93111E-20 2.42476E-18
 -1      1986 8.95286E-05-2.59454E-05-2.72327E-05 2.59575E-06-3.49540E-19 2.26749E-18
 -1      1987 9.24450E-05-2.64865E-05-2.82894E-05 3.92732E-06-4.19523E-19 2.00634E-18
 -1      1988 8.87006E-05-2.53993E-05-2.70965E-05-7.71327E-07-4.03267E-20 2.73770E-18
 -1      1989 8.86367E-05-2.53950E-05-2.70721E-05 3.04794E-07 2.14141E-20 2.64562E-18
 -1      1990 9.13579E-05-2.56305E-05-2.82057E-05 1.27871E-06-1.60711E-19 2.23745E-18
 -1      1991 8.98225E-05-2.59668E-05-2.73469E-05-3.14845E-06-1.45710E-19 2.87905E-18
 -1      1992 8.90410E-05-2.55802E-05-2.71585E-05-2.19757E-06-1.50997E-19 2.76588E-18
 -1      1993 9.14171E-05-2.56073E-05-2.82425E-05-1.89520E-06-1.92237E-19 2.65604E-18
 -1      1994 9.19754E-05-2.70913E-05-2.78008E-05-4.76255E-06-1.34758E-19 2.84829E-18
 -1      1995 9.06599E-05-2.64457E-05-2.74857E-05-4.18884E-06-1.69337E-19 2.79115E-18
 -1      1996 9.26491E-05-2.64445E-05-2.83982E-05-4.67041E-06-2.85996E-19 2.40170E-18
 -1      1997 9.45951E-05-2.84048E-05-2.83698E-05-5.28524E-06 4.48927E-20 3.36412E-18
 -1      1998 9.30494E-05-2.76897E-05-2.79922E-05-5.17908E-06 1.97013E-19 3.29930E-18
 -1      1999 9.46657E-05-2.78223E-05-2.86517E-05-6.30607E-06-3.97730E-19 2.76471E-18
 -1      2000 9.70905E-05-2.95561E-05-2.89505E-05-4.79932E-06-2.25357E-19 2.75574E-18
 -1      2001 9.56214E-05-2.89379E-05-2.85800E-05-5.08661E-06-2.08547E-19 2.94701E-18
 -1      2002 9.68775E-05-2.92656E-05-2.89644E-05-6.54961E-06 2.96759E-20 2.96401E-18
 -1      2003 9.90473E-05-3.03444E-05-2.94527E-05-3.66057E-06 4.93066E-20 2.83408E-18
 -1      2004 9.78738E-05-2.99137E-05-2.91449E-05-4.17637E-06-1.56288E-19 2.78321E-18
 -1      2005 9.87697E-05-3.03882E-05-2.92862E-05-5.63702E-06-3.10567E-19 2.61839E-18
 -1      2006 1.00293E-04-3.07353E-05-2.98188E-05-2.28628E-06 7.38573E-20 2.95596E-18
 -1      2007 9.95146E-05-3.05061E-05-2.96044E-05-2.86084E-06 1.66280E-19 2.53712E-18
 -1      2008 1.00060E-04-3.10218E-05-2.95673E-05-4.06551E-06 9.72053E-20 2.16601E-18
 -1      2009 1.00852E-04-3.08011E-05-3.00289E-05-1.00211E-06-6.87423E-19 2.76680E-18
 -1      2010 1.00465E-04-3.07392E-05-2.99138E-05-1.51389E-06-3.18187E-19 2.91068E-18
 -1      2011 1.00702E-04-3.11967E-05-2.97711E-05-2.33675E-06-3.04800E-20 1.64140E-18
 -1      2012 1.00857E-04-3.06507E-05-3.00938E-05 1.09607E-08-3.89476E-19 2.83848E-18
 -1      2013 1.00794E-04-3.07046E-05-3.00658E-05-3.77314E-07-8.85106E-19 2.99742E-18
 -1      2014 1.00794E-04-3.10453E-05-2.98806E-05-8.05256E-07-6.81890E-19 1.81664E-18
 -1      2015 1.00477E-04-3.03845E-05-3.00432E-05 6.98693E-07 6.47418E-20 2.53020E-18
 -1      2016 1.00645E-04-3.05051E-05-3.00808E-05 4.45917E-07-9.70448E-20 2.69736E-18
 -1      2017 1.00492E-04-3.07153E-05-2.98976E-05 3.54119E-07-2.31705E-19 2.34161E-18
 -1      2018 9.98697E-05-3.00766E-05-2.99135E-05 1.08797E-06 3.28691E-19 3.12232E-18
 -1      2019 1.00179E-04-3.02260E-05-2.99933E-05 9.53732E-07 3.69975E-19 3.01730E-18
 -1      2020 9.99510E-05-3.03223E-05-2.98378E-05 1.10826E-06 1.48884E-19 2.74566E-18
 -1      2021 9.91629E-05-2.97736E-05-2.97390E-05 1.24324E-06-8.60131E-20 3.14273E-18
 -1      2022 9.95381E-05-2.99263E-05-2.98404E-05 1.19868E-06 2.09498E-19 3.12252E-18
 -1      2023 9.92945E-05-2.99390E-05-2.97234E-05 1.50781E-06 1.68654E-19 3.42463E-18
 -1      2024 9.84465E-05-2.95006E-05-2.95479E-05 1.23646E-06-9.96976E-19 2.60726E-18
 -1      2025 9.88329E-05-2.96418E-05-2.96552E-05 1.25190E-06-5.34475E-19 2.74920E-18
 -1      2026 9.86123E-05-2.96022E-05-2.95772E-05 1.63791E-06-3.97386E-19 2.74862E-18
 -1      2027 9.77779E-05-2.92683E-05-2.93602E-05 1.13107E-06-2.85770E-21 2.65412E-18
 -1      2028 9.81405E-05-2.93906E-05-2.94628E-05 1.18144E-06-9.46179E-19 2.54174E-18
 -1      2029 9.79626E-05-2.93247E-05-2.94187E-05 1.58648E-06-5.66539E-19 1.84361E-18
 -1      2030 9.71888E-05-2.90788E-05-2.91885E-05 9.75886E-07 6.83168E-19 2.45916E-18
 -1      2031 9.75081E-05-2.91798E-05-2.92801E-05 1.04253E-06 4.94487E-19 2.65898E-18
 -1      2032 9.73788E-05-2.91060E-05-2.92627E-05 1.42821E-06 5.23581E-20 1.53864E-18
 -1      2033 9.66918E-05-2.89291E-05-2.90394E-05 8.04800E-07 1.12949E-18 2.45397E-18
 -1      2034 9.69599E-05-2.90094E-05-2.91173E-05 8.75136E-07 9.32990E-19 2.43391E-18
 -1      2035 9.68763E-05-2.89392E-05-2.91190E-05 1.21935E-06 8.48414E-19 1.29008E-18
 -1      2036 9.62874E-05-2.88143E-05-2.89153E-05 6.39107E-07 8.20074E-19 2.66507E-18
 -1      2037 9.65039E-05-2.88760E-05-2.89789E-05 7.05502E-07 1.32709E-18 2.91551E-18
 -1      2038 9.64588E-05-2.88155E-05-2.89929E-05 9.98228E-07 9.90865E-19 1.50485E-18
 -1      2039 9.59685E-05-2.87285E-05-2.88155E-05 4.90597E-07-1.46394E-19 2.91730E-18
 -1      2040 9.61375E-05-2.87746E-05-2.88656E-05 5.49042E-07 2.43249E-19 3.45960E-18
 -1      2041 9.61220E-05-2.87259E-05-2.88867E-05 7.88481E-07 2.62240E-19 1.98854E-18
 -1      2042 9.57243E-05-2.86662E-05-2.87377E-05 3.64471E-07-9.47183E-19 3.60371E-18
 -1      2043 9.58520E-05-2.86995E-05-2.87760E-05 4.13407E-07-7.65324E-19 3.04625E-18
 -1      2044 9.58575E-05-2.86627E-05-2.88001E-05 6.02794E-07-3.87855E-19 3.65578E-18
 -1      2045 9.55427E-05-2.86223E-05-2.86789E-05 2.61716E-07-7.68418E-19 3.73396E-18
 -1      2046 9.56361E-05-2.86455E-05-2.87072E-05 3.01102E-07-6.74739E-19 3.50252E-18
 -1      2047 9.56553E-05-2.86192E-05-2.87317E-05 4.46353E-07-9.24035E-19 3.61691E-18
 -1      2048 9.54117E-05-2.85924E-05-2.86358E-05 1.80862E-07 4.14420E-19 4.02700E-18
 -1      2049 9.54777E-05-2.86079E-05-2.86560E-05 2.11509E-07-5.10661E-19 3.99246E-18
 -1      2050 9.55045E-05-2.85903E-05-2.86791E-05 3.19600E-07-5.22028E-19 3.79609E-18
 -1      2051 9.53204E-05-2.85730E-05-2.86052E-05 1.19201E-07 6.63155E-19 3.76110E-18
 -1      2052 9.53652E-05-2.85828E-05-2.86191E-05 1.42319E-07 6.59319E-19 4.34020E-18
 -1      2053 9.53953E-05-2.85720E-05-2.86398E-05 2.20256E-07 2.16818E-19 4.58339E-18
 -1      2054 9.52594E-05-2.85611E-05-2.85843E-05 7.35736E-08 1.05378E-18 3.22202E-18
 -1      2055 9.52882E-05-2.85668E-05-2.85934E-05 9.04874E-08 1.14369E-18 3.35592E-18
 -1      2056 9.53185E-05-2.85611E-05-2.86113E-05 1.44718E-07 1.21752E-18 3.77377E-18
 -1      2057 9.52210E-05-2.85547E-05-2.85708E-05 4.08497E-08 8.00200E-19 2.84185E-18
 -1      2058 9.52381E-05-2.85575E-05-2.85764E-05 5.28288E-08 1.07890E-18 3.00716E-18
 -1      2059 9.52667E-05-2.85553E-05-2.85914E-05 8.89541E-08 1.33008E-18 3.81615E-18
 -1      2060 9.51988E-05-2.85519E-05-2.85626E-05 1.81823E-08 1.19069E-19 2.78601E-18
 -1      2061 9.52077E-05-2.85528E-05-2.85657E-05 2.63572E-08 4.42686E-19 2.70751E-18
 -1      2062 9.52333E-05-2.85529E-05-2.85779E-05 4.90388E-08 9.29469E-19 3.34768E-18
 -1      2063 9.51881E-05-2.85515E-05-2.85582E-05 3.12641E-09 3.36885E-19 2.71032E-18
 -1      2064 9.51913E-05-2.85511E-05-2.85596E-05 8.45290E-09 2.33622E-19 2.85827E-18
 -1      2065 9.52135E-05-2.85527E-05-2.85693E-05 2.14399E-08 3.18874E-19 2.48857E-18
 -1      2066 9.51850E-05-2.85526E-05-2.85565E-05-6.33170E-09 6.24006E-19 1.35944E-18
 -1      2067 9.51845E-05-2.85515E-05-2.85567E-05-3.07632E-09 2.12883E-19 1.52708E-18
 -1      2068 9.52031E-05-2.85538E-05-2.85643E-05 3.14273E-09 7.89184E-19 1.41110E-18
 -1      2069 9.51868E-05-2.85546E-05-2.85565E-05-1.17948E-08-4.88782E-19 1.18216E-18
 -1      2070 9.51841E-05-2.85531E-05-2.85559E-05-9.99881E-09 1.88256E-19 6.90544E-19
 -1      2071 9.51993E-05-2.85557E-05-2.85617E-05-8.32495E-09 8.28389E-19 1.90194E-19
 -1      2072 9.51915E-05-2.85569E-05-2.85576E-05-1.44993E-08-1.81603E-19-4.99551E-19
 -1      2073 9.51876E-05-2.85553E-05-2.85566E-05-1.36961E-08-6.83964E-20 1.17088E-19
 -1      2074 9.51997E-05-2.85579E-05-2.85609E-05-1.49241E-08 5.43584E-19-2.55612E-19
 -1      2075 9.51978E-05-2.85594E-05-2.85593E-05-1.53690E-08 1.12913E-18-9.08210E-19
 -1      2076 9.51934E-05-2.85578E-05-2.85581E-05-1.52145E-08 1.14884E-20-8.75733E-19
 -1      2077 9.52027E-05-2.85602E-05-2.85611E-05-1.81626E-08 2.99590E-19-1.55698E-18
 -1      2078 9.52048E-05-2.85619E-05-2.85612E-05-1.50676E-08 1.26875E-18-2.47776E-18
 -1      2079 9.52002E-05-2.85603E-05-2.85600E-05-1.53188E-08 1.31846E-18-1.34034E-18
 -1      2080 9.52071E-05-2.85624E-05-2.85621E-05-1.91627E-08 1.40499E-18-2.17287E-18
 -1      2081 9.52117E-05-2.85642E-05-2.85632E-05-1.40443E-08 2.82865E-18-3.27353E-18
 -1      2082 9.52074E-05-2.85628E-05-2.85620E-05-1.45420E-08 2.45940E-18-1.81762E-18
 -1      2083 9.52122E-05-2.85645E-05-2.85634E-05-1.87254E-08 2.01647E-18-3.48590E-18
 -1      2084 9.52182E-05-2.85663E-05-2.85651E-05-1.25717E-08 1.93945E-18-3.20172E-18
 -1      2085 9.52142E-05-2.85650E-05-2.85640E-05-1.32266E-08 1.96636E-18-2.85822E-18
 -1      2086 9.52174E-05-2.85663E-05-2.85648E-05-1.73882E-08 2.54375E-18-3.09203E-18
 -1      2087 9.52240E-05-2.85681E-05-2.85668E-05-1.07736E-08-6.92427E-20-3.05613E-18
 -1      2088 9.52206E-05-2.85670E-05-2.85659E-05-1.15570E-08 1.04165E-18-2.83467E-18
 -1      2089 9.52224E-05-2.85681E-05-2.85662E-05-1.54720E-08 1.16360E-18-2.06871E-18
 -1      2090 9.52290E-05-2.85698E-05-2.85683E-05-8.65300E-09-2.29126E-19-2.51054E-18
 -1      2091 9.52261E-05-2.85688E-05-2.85675E-05-9.58851E-09-8.06429E-19-3.14824E-18
 -1      2092 9.52270E-05-2.85696E-05-2.85674E-05-1.31226E-08-2.75405E-19-1.91674E-18
 -1      2093 9.52330E-05-2.85712E-05-2.85693E-05-6.13218E-09 6.97982E-19-2.66830E-18
 -1      2094 9.52308E-05-2.85704E-05-2.85688E-05-7.27953E-09 6.38000E-19-2.66045E-18
 -1      2095 9.52309E-05-2.85711E-05-2.85685E-05-1.03855E-08 2.82560E-20-1.60691E-18
 -1      2096 9.52356E-05-2.85721E-05-2.85701E-05-3.45214E-09-8.13788E-19-2.08455E-18
 -1      2097 9.52342E-05-2.85716E-05-2.85697E-05-4.69889E-09 4.70896E-19-1.75492E-18
 -1      2098 9.52339E-05-2.85722E-05-2.85693E-05-7.36421E-09 2.01352E-19-1.09845E-18
 -1      2099 9.52360E-05-2.85729E-05-2.85699E-05-4.26362E-09-1.51409E-18 1.56568E-18
 -1      2100 9.52407E-05-2.85828E-05-2.85677E-05-8.24178E-09-2.75935E-18 3.92599E-19
 -1      2101 9.52398E-05-2.85807E-05-2.85682E-05-8.18409E-09-2.83585E-18 1.11460E-18
 -1      2102 9.52389E-05-2.85789E-05-2.85686E-05-7.79915E-09-2.41449E-18 1.40178E-18
 -1      2103 9.52379E-05-2.85768E-05-2.85691E-05-7.21152E-09-2.23760E-18 2.19975E-18
 -1      2104 9.52389E-05-2.85792E-05-2.85684E-05-1.00936E-08-2.16637E-18 8.46280E-19
 -1      2105 9.52367E-05-2.85745E-05-2.85695E-05-5.46114E-09-1.57604E-18 2.31847E-18
 -1      2106 9.52424E-05-2.85865E-05-2.85668E-05-7.52825E-09-2.57901E-18-1.50859E-18
 -1      2107 9.52415E-05-2.85845E-05-2.85673E-05-7.95954E-09-3.76903E-18 6.06342E-20
 -1      2108 9.52410E-05-2.85828E-05-2.85678E-05-1.01622E-08-2.34210E-18-3.02945E-19
 -1      2109 9.52437E-05-2.85895E-05-2.85661E-05-5.86340E-09-2.07945E-18-5.98770E-19
 -1      2110 9.52431E-05-2.85879E-05-2.85665E-05-6.68917E-09-2.12663E-18-1.04422E-18
 -1      2111 9.52428E-05-2.85860E-05-2.85672E-05-8.89555E-09-1.88944E-18-8.50857E-19
 -1      2112 9.52446E-05-2.85916E-05-2.85655E-05-3.52378E-09-2.49771E-18 7.63045E-19
 -1      2113 9.52442E-05-2.85906E-05-2.85658E-05-4.61318E-09-2.33740E-18 1.46863E-19
 -1      2114 9.52441E-05-2.85885E-05-2.85667E-05-6.55027E-09-1.94624E-18-5.24733E-19
 -1      2115 9.52450E-05-2.85925E-05-2.85653E-05-7.99534E-10-2.23291E-18 2.18415E-18
 -1      2116 9.52449E-05-2.85922E-05-2.85654E-05-2.02234E-09-2.98367E-18 1.79768E-18
 -1      2117 9.52450E-05-2.85901E-05-2.85664E-05-3.46780E-09-2.27306E-18 1.80145E-18
 -1      2118 9.52449E-05-2.85922E-05-2.85654E-05 2.01315E-09-1.25011E-18 1.65807E-18
 -1      2119 9.52450E-05-2.85925E-05-2.85653E-05 7.88121E-10-1.78859E-18 2.47226E-18
 -1      2120 9.52453E-05-2.85907E-05-2.85663E-05-9.23642E-12-2.75001E-18 2.81604E-18
 -1      2121 9.52442E-05-2.85906E-05-2.85658E-05 4.61537E-09-1.42927E-18-4.84163E-20
 -1      2122 9.52447E-05-2.85916E-05-2.85655E-05 3.52069E-09-2.13039E-18 5.21881E-19
 -1      2123 9.52450E-05-2.85901E-05-2.85664E-05 3.45627E-09-1.94865E-18 9.21004E-19
 -1      2124 9.52431E-05-2.85880E-05-2.85665E-05 6.67797E-09-1.58162E-18-2.54846E-18
 -1      2125 9.52438E-05-2.85896E-05-2.85660E-05 5.85697E-09-1.05734E-18-1.19202E-18
 -1      2126 9.52442E-05-2.85885E-05-2.85667E-05 6.53495E-09-2.75837E-18-1.50849E-18
 -1      2127 9.52416E-05-2.85845E-05-2.85673E-05 7.97977E-09-7.37806E-19 7.00307E-19
 -1      2128 9.52424E-05-2.85865E-05-2.85668E-05 7.53429E-09-1.51841E-18-5.89945E-19
 -1      2129 9.52428E-05-2.85860E-05-2.85672E-05 8.89065E-09-1.14432E-18-1.70490E-18
 -1      2130 9.52398E-05-2.85807E-05-2.85682E-05 8.21495E-09 6.38199E-19 1.06880E-18
 -1      2131 9.52407E-05-2.85828E-05-2.85677E-05 8.27582E-09 9.29441E-21 4.22754E-19
 -1      2132 9.52410E-05-2.85828E-05-2.85678E-05 1.01893E-08 7.40265E-19 1.21986E-18
 -1      2133 9.52379E-05-2.85769E-05-2.85691E-05 7.20915E-09-5.74783E-19 1.67538E-18
 -1      2134 9.52389E-05-2.85789E-05-2.85686E-05 7.81826E-09-5.72918E-19 1.62424E-18
 -1      2135 9.52389E-05-2.85792E-05-2.85684E-05 1.01087E-08 2.18859E-19 9.68293E-19
 -1      2136 1.00641E-04-2.97917E-05-3.03353E-05 1.50499E-06-1.23084E-18 7.65030E-19
 -1      2137 1.01520E-04-2.96913E-05-3.07319E-05 2.29003E-06-1.38864E-18 3.93354E-19
 -1      2138 1.01900E-04-2.91993E-05-3.11545E-05 3.43506E-06-1.70615E-18 9.52581E-19
 -1      2139 1.01058E-04-2.97834E-05-3.05510E-05 2.08106E-06-1.45748E-18 1.29485E-18
 -1      2140 5.98321E-05-3.94630E-05-9.03419E-06 4.38068E-05 4.26481E-19-4.83103E-18
 -1      2141 4.50537E-05-4.08306E-05-2.81203E-06 3.72181E-05 9.85946E-19-4.37260E-18
 -1      2142 1.31583E-04-3.99146E-05-3.87299E-05 4.07023E-05-1.60259E-18-1.58480E-18
 -1      2143 1.11300E-04-4.14548E-05-3.05186E-05 3.93375E-05-8.28822E-19-2.14808E-18
 -1      2144 1.29568E-05-3.26362E-05 7.45606E-06 1.07801E-05 2.56651E-19-4.49774E-19
 -1      2145 1.16058E-05-3.17078E-05 7.67272E-06 3.04899E-07 2.43098E-19-1.43996E-19
 -1      2146 9.39606E-05-3.97106E-05-2.31551E-05 4.61411E-05-8.12305E-19-3.35637E-18
 -1      2147 7.60743E-05-4.28100E-05-1.52527E-05 4.15185E-05 2.16840E-19-3.43705E-18
 -1      2148 8.40523E-05-5.93851E-06-3.35894E-05-5.13668E-06 1.95376E-18 2.56578E-18
 -1      2149 8.67338E-05-7.09966E-06-3.41751E-05-6.16108E-06 2.15607E-18 2.29066E-18
 -1      2150 8.98935E-05-1.08955E-05-3.39093E-05-5.28395E-06 2.28876E-18 1.96502E-18
 -1      2151 8.38318E-05-6.91435E-06-3.29614E-05-4.23643E-06 2.01706E-18 2.60551E-18
 -1      2152 1.60250E-04-3.62342E-05-5.24318E-05 2.62054E-05-2.56947E-18 3.61260E-19
 -1      2153 1.43193E-04-3.70024E-05-4.54447E-05 3.14429E-05-2.66350E-18-7.01343E-19
 -1      2154 1.80590E-04-2.89755E-05-6.36046E-05 1.42112E-05-2.72067E-18 3.75659E-19
 -1      2155 1.66273E-04-2.86606E-05-5.85656E-05 1.77905E-05-2.82549E-18 3.21025E-19
 -1      2156 1.84959E-04-2.40430E-05-6.80000E-05 1.95249E-06-3.56008E-18 1.76246E-18
 -1      2157 1.82855E-04-2.54207E-05-6.64295E-05 1.05000E-05-3.10099E-18 7.55342E-19
 -1      2158 1.63040E-04-1.85819E-05-6.07352E-05 9.40163E-07-3.02137E-18 1.93356E-18
 -1      2159 1.75535E-04-2.18639E-05-6.52923E-05-6.41172E-06-4.47022E-18 2.30986E-18
 -1      2160 1.81031E-04-2.20093E-05-6.71136E-05-6.83192E-07-3.81885E-18 1.94979E-18
 -1      2161 1.68516E-04-3.02897E-05-5.84440E-05-2.14945E-05-5.02428E-18 3.01713E-18
 -1      2162 1.77801E-04-2.87603E-05-6.30140E-05-1.27403E-05-5.03561E-18 1.94987E-18
 -1      2163 1.43756E-04-3.56023E-05-4.62647E-05-3.28879E-05-5.59656E-18 4.06703E-18
 -1      2164 1.62546E-04-3.54058E-05-5.33745E-05-3.04449E-05-5.13855E-18 3.42244E-18
 -1      2165 1.13454E-04-4.17149E-05-3.12860E-05-3.89216E-05-4.51299E-18 4.72051E-18
 -1      2166 1.32924E-04-4.00871E-05-3.91175E-05-4.01217E-05-4.92804E-18 4.43083E-18
 -1      2167 7.82070E-05-4.27428E-05-1.62803E-05-4.11358E-05-4.02849E-18 4.74381E-18
 -1      2168 9.66113E-05-4.02997E-05-2.40366E-05-4.58408E-05-4.43379E-18 4.83486E-18
 -1      2169 4.59679E-05-4.14498E-05-3.34327E-06-3.60800E-05-3.20856E-18 3.90577E-18
 -1      2170 6.04141E-05-3.86250E-05-9.79082E-06-4.31303E-05-3.85527E-18 4.73232E-18
 -1      2171 2.06319E-05-3.88621E-05 6.12609E-06-2.20709E-05-1.76564E-18 4.00265E-18
 -1      2172 2.91746E-05-3.63583E-05 1.97991E-06-3.03243E-05-3.12089E-18 4.06131E-18
 -1      2173 1.18809E-05-3.44412E-05 8.32148E-06-2.80587E-06-7.88799E-21 4.52570E-18
 -1      2174 1.34912E-05-3.38056E-05 7.47709E-06-1.24153E-05-1.31756E-18 4.35968E-18
 -1      2175 2.17811E-05-3.52417E-05 4.71478E-06 1.92705E-05 1.45097E-18 5.12328E-18
 -1      2176 1.51913E-05-3.66355E-05 7.64936E-06 9.05301E-06-5.56924E-20 4.76287E-18
 -1      2177 5.09199E-05-4.17937E-05-4.78832E-06 3.48634E-05 2.60547E-18 5.38072E-18
 -1      2178 3.71040E-05-4.22762E-05 7.06454E-07 2.75854E-05 1.36076E-18 4.91681E-18
 -1      2179 8.80360E-05-4.66164E-05-1.82339E-05 4.07056E-05 3.35467E-18 6.89845E-18
 -1      2180 6.87796E-05-4.77398E-05-1.05870E-05 3.49664E-05 2.63851E-18 5.93124E-18
 -1      2181 1.33022E-04-5.23762E-05-3.45231E-05 3.43241E-05 3.65579E-18 6.08551E-18
 -1      2182 1.08792E-04-5.15448E-05-2.55819E-05 3.39684E-05 3.45081E-18 6.23924E-18
 -1      2183 1.70046E-04-4.69533E-05-5.16991E-05 2.08763E-05 4.61464E-18 6.13167E-18
 -1      2184 1.49009E-04-4.91274E-05-4.31444E-05 2.24221E-05 4.17270E-18 5.91991E-18
 -1      2185 1.91526E-04-3.76207E-05-6.41578E-05 8.59619E-06 4.44565E-18 6.32776E-18
 -1      2186 1.75707E-04-3.91794E-05-5.80912E-05 1.13639E-05 4.63136E-18 6.06899E-18
 -1      2187 2.01747E-04-3.16482E-05-7.08172E-05 1.88747E-06 3.81800E-18 5.81838E-18
 -1      2188 1.95728E-04-3.19342E-05-6.85482E-05 7.80241E-06 4.37323E-18 6.75339E-18
 -1      2189 1.91339E-04-2.93217E-05-6.81393E-05-2.48107E-06 2.93370E-18 4.55492E-18
 -1      2190 2.00345E-04-3.07097E-05-7.05240E-05 1.14383E-06 3.18993E-18 5.38242E-18
 -1      2191 1.77965E-04-3.91786E-05-5.87047E-05-1.01330E-05 3.10078E-18 3.74304E-18
 -1      2192 1.88136E-04-3.60974E-05-6.39026E-05-3.18070E-06 2.96970E-18 4.38085E-18
 -1      2193 1.54117E-04-4.63962E-05-4.62789E-05-2.19316E-05 1.87703E-18 1.43149E-18
 -1      2194 1.74607E-04-4.57443E-05-5.41102E-05-1.91881E-05 2.46635E-18 3.15520E-18
 -1      2195 1.69235E-04-4.33803E-05-5.29663E-05 2.81438E-06 2.68340E-18 4.59050E-18
 -1      2196 1.14574E-04-5.03979E-05-2.85368E-05-3.19667E-05 7.95364E-19-8.01717E-19
 -1      2197 1.38564E-04-4.97265E-05-3.76743E-05-3.36047E-05 1.01136E-18-4.15470E-19
 -1      2198 7.57074E-05-4.97435E-05-1.25998E-05-3.41886E-05 4.31987E-20-1.40576E-18
 -1      2199 9.65564E-05-4.87466E-05-2.07056E-05-3.93072E-05 6.51792E-19-1.69957E-18
 -1      2200 4.02879E-05-4.36245E-05-4.07693E-08-2.81180E-05 5.71324E-19 2.66815E-19
 -1      2201 5.49338E-05-4.28909E-05-5.93900E-06-3.48702E-05 2.62580E-19-8.28557E-19
 -1      2202 1.85948E-05-3.36092E-05 5.59130E-06-1.34462E-05-3.78518E-19 8.55080E-19
 -1      2203 2.75118E-05-3.55539E-05 2.77350E-06-2.32438E-05 1.39760E-20 1.41476E-18
 -1      2204 2.59517E-05-3.36768E-05 2.53591E-06 2.99332E-05-9.57147E-20-3.33477E-18
 -1      2205 1.83106E-05-3.60186E-05 6.32734E-06 2.00711E-05 2.65968E-19-1.25276E-18
 -1      2206 1.81178E-05-2.43310E-05 2.20102E-06 1.81933E-05-1.26526E-19-1.10368E-18
 -1      2207 9.52360E-05-2.85734E-05-2.85697E-05 5.30951E-09-1.35470E-18 1.58712E-18
 -1      2208 1.15721E-04-5.17265E-05-2.72757E-05 3.86465E-05 9.04208E-19-1.15091E-18
 -1      2209 1.07060E-04-2.69384E-05-3.43764E-05-3.90728E-06 2.18100E-18-1.36850E-18
 -1      2210 8.00513E-05-4.76194E-05-1.42574E-05 4.57123E-05 1.50772E-18-3.60878E-18
 -1      2211 1.43189E-04-4.75155E-05-4.03925E-05 2.30382E-05-7.07273E-19 8.20775E-19
 -1      2212 1.04283E-04-2.47036E-05-3.41952E-05-2.74612E-06 2.36811E-18-1.60248E-19
 -1      2213 9.52365E-05-2.85750E-05-2.85692E-05-7.90986E-09-1.20740E-18 1.93186E-18
 -1      2214 9.52365E-05-2.85747E-05-2.85694E-05 6.32354E-09-1.65063E-18 2.12428E-18
 -1      2215 4.23843E-05-3.49662E-05-3.42996E-06 3.95379E-05 4.00647E-19-3.56580E-18
 -1      2216 1.92868E-05-2.32813E-05 1.45319E-06-9.44497E-06-5.47819E-19 4.84926E-19
 -1      2217 4.16055E-05-3.57447E-05-3.06100E-06-3.15514E-05-9.46983E-19 4.67562E-19
 -1      2218 7.90493E-05-5.15547E-05-1.21984E-05-3.91474E-05-4.05305E-19-9.62309E-19
 -1      2219 1.54656E-04-5.75409E-05-4.11386E-05-1.37129E-05 1.05921E-18 1.89862E-18
 -1      2220 1.74011E-04-2.74518E-05-6.15684E-05 7.69778E-06 3.28395E-18 4.38869E-18
 -1      2221 1.77396E-04-2.03832E-05-6.56080E-05 7.07802E-07 3.75447E-18 4.40849E-18
 -1      2222 1.75672E-04-2.85377E-05-6.16953E-05-4.60839E-06 4.18519E-18 4.85075E-18
 -1      2223 1.68012E-04-4.55827E-05-5.17253E-05-6.24514E-07 3.37034E-18 3.70026E-18
 -1      2224 1.48486E-04-5.94853E-05-3.78764E-05 1.74334E-05 1.99624E-18 4.01324E-18
 -1      2225 1.12662E-04-5.88418E-05-2.30910E-05 3.53396E-05 1.12571E-18 5.32085E-18
 -1      2226 7.21013E-05-4.84779E-05-1.06195E-05 3.99996E-05 6.00123E-19 5.30375E-18
 -1      2227 3.57549E-05-3.40104E-05-1.31085E-06 2.93356E-05 3.06202E-19 5.29374E-18
 -1      2228 1.58428E-05-2.39697E-05 2.92980E-06 4.91049E-06 2.88468E-19 5.46379E-18
 -1      2229 1.96316E-05-2.69711E-05 2.44939E-06-2.12751E-05 3.70577E-20 4.67393E-18
 -1      2230 4.52002E-05-3.73040E-05-3.93104E-06-4.06402E-05-9.55453E-19 3.92176E-18
 -1      2231 8.21846E-05-4.77575E-05-1.49513E-05-4.54963E-05-1.61741E-18 3.61450E-18
 -1      2232 1.17807E-04-5.22201E-05-2.79355E-05-3.77901E-05-2.46190E-18 3.08151E-18
 -1      2233 1.44438E-04-4.66536E-05-4.13409E-05-2.35044E-05-3.76877E-18 2.18153E-18
 -1      2234 1.59452E-04-3.35139E-05-5.29312E-05-1.05451E-05-4.48896E-18 1.35864E-18
 -1      2235 1.60772E-04-1.20499E-05-6.28205E-05 8.06634E-07-3.93532E-18 2.11295E-18
 -1      2236 1.58105E-04-3.35671E-05-5.26030E-05 8.28180E-06-2.12531E-18 1.71905E-18
 -1      2237 1.60374E-04-1.83818E-05-6.00377E-05-7.62803E-07-4.38890E-18 1.26377E-18
 -1      2238 1.20040E-04-6.05742E-05-2.55673E-05-3.12353E-05-5.59042E-20-1.37008E-19
 -1      2239 9.52362E-05-2.85751E-05-2.85690E-05 8.75137E-09-3.69265E-19 8.18566E-19
 -1      2240 7.71769E-05-4.45232E-06-3.11843E-05-4.03471E-06 1.22511E-18 3.40906E-18
 -1      2241 7.76796E-05-4.61665E-06-3.13474E-05-3.96160E-06 1.42749E-18 3.24301E-18
 -1      2242 7.87704E-05-5.20124E-06-3.15719E-05-3.37352E-06 1.55849E-18 3.14831E-18
 -1      2243 8.04146E-05-6.07143E-06-3.18920E-05-3.32851E-06 1.78323E-18 2.97757E-18
 -1      2244 7.85147E-05-6.03245E-06-3.10319E-05-3.38574E-06 1.52066E-18 3.04394E-18
 -1      2245 7.98649E-05-6.81259E-06-3.13008E-05-3.77090E-06 6.71499E-19 3.70710E-18
 -1      2246 7.87042E-05-6.05673E-06-3.11803E-05-4.25758E-06 8.24162E-19 3.68890E-18
 -1      2247 8.28929E-05-8.96955E-06-3.16792E-05-2.32571E-06 2.70304E-19 3.56165E-18
 -1      2248 8.13745E-05-8.04518E-06-3.14725E-05-3.20388E-06 4.88648E-19 3.61232E-18
 -1      2249 8.15689E-05-9.21856E-06-3.10189E-05-4.27094E-06 5.95104E-19 3.50006E-18
 -1      2250 8.61760E-05-1.11973E-05-3.21451E-05-1.30443E-07-2.26359E-19 3.46415E-18
 -1      2251 8.45791E-05-1.02496E-05-3.18997E-05-1.31594E-06 4.19290E-20 3.50271E-18
 -1      2252 8.49961E-05-1.17354E-05-3.14184E-05-2.63445E-06 1.47844E-19 3.40666E-18
 -1      2253 8.95059E-05-1.34354E-05-3.26336E-05 2.61838E-06-6.63188E-19 3.55893E-18
 -1      2254 8.78944E-05-1.24524E-05-3.23777E-05 1.19306E-06-4.08376E-19 3.49563E-18
 -1      2255 8.85630E-05-1.42471E-05-3.18710E-05-2.45215E-07-3.30263E-19 3.33347E-18
 -1      2256 9.28111E-05-1.58001E-05-3.30669E-05 5.53840E-06-1.19163E-18 3.33548E-18
 -1      2257 9.11840E-05-1.46862E-05-3.28357E-05 4.03269E-06-9.12949E-19 3.46087E-18
 -1      2258 9.20259E-05-1.66970E-05-3.22964E-05 2.50632E-06-8.08920E-19 3.26321E-18
 -1      2259 9.63499E-05-1.87432E-05-3.33672E-05 8.12346E-06-1.83545E-18 2.75736E-18
 -1      2260 9.45259E-05-1.72065E-05-3.31981E-05 6.79339E-06-1.47537E-18 3.02080E-18
 -1      2261 9.53602E-05-1.92603E-05-3.26091E-05 5.11732E-06-1.37393E-18 2.89378E-18
 -1      2262 1.00545E-04-2.29439E-05-3.33581E-05 9.42474E-06-2.22332E-18 1.90368E-18
 -1      2263 9.83061E-05-2.05456E-05-3.33638E-05 8.91447E-06-1.98707E-18 2.43533E-18
 -1      2264 9.88238E-05-2.23915E-05-3.27090E-05 6.89740E-06-1.92514E-18 2.33792E-18
 -1      2265 1.03179E-04-2.67330E-05-3.28297E-05 7.99984E-06-2.12907E-18 9.49061E-19
 -1      2266 1.01625E-04-2.43380E-05-3.31232E-05 9.02330E-06-2.14831E-18 1.53249E-18
 -1      2267 1.01158E-04-2.55269E-05-3.24200E-05 6.77631E-06-2.02896E-18 1.86030E-18
 -1      2268 1.02276E-04-2.79578E-05-3.18657E-05 5.29778E-06-1.94663E-18 1.10766E-18
 -1      2269 1.02497E-04-2.53095E-05-3.30324E-05 3.27597E-06 1.98935E-18 4.86931E-19
 -1      2270 1.02816E-04-2.61908E-05-3.28131E-05 6.10367E-06 1.70064E-18 7.06952E-19
 -1      2271 9.60786E-05-5.12597E-05-1.91469E-05 4.50157E-05 1.78957E-18-1.49297E-18
 -1      2272 7.86652E-05-4.60518E-05-1.37547E-05 4.61683E-05 2.03288E-18-2.93455E-18
 -1      2273 1.26231E-04-5.57805E-05-3.04297E-05 3.22028E-05 1.37728E-18 1.45054E-19
 -1      2274 1.10930E-04-5.49452E-05-2.39892E-05 3.79397E-05 1.76098E-18-4.75185E-19
 -1      2275 1.09369E-04-5.58113E-05-2.26917E-05 3.85058E-05 2.06125E-18-1.50640E-19
 -1      2276 1.02875E-04-2.68536E-05-3.25319E-05 8.63345E-06 1.34304E-18 7.39727E-19
 -1      2277 1.03762E-04-2.77536E-05-3.25410E-05 1.06601E-05 1.17576E-18 8.77927E-19
 -1      2278 9.90723E-05-2.39025E-05-3.22284E-05 7.46402E-06 1.61496E-18 1.11339E-18
 -1      2279 1.04144E-04-2.85989E-05-3.23306E-05 1.27424E-05 9.95190E-19 9.79301E-19
 -1      2280 1.05794E-04-3.00773E-05-3.24259E-05 1.39939E-05 7.21768E-19 9.65700E-19
 -1      2281 9.94889E-05-2.57719E-05-3.16209E-05 1.23241E-05 1.17207E-18 1.15673E-18
 -1      2282 1.07120E-04-3.17905E-05-3.22096E-05 1.54519E-05 2.41550E-19 8.49143E-19
 -1      2283 1.09784E-04-3.43824E-05-3.23121E-05 1.55233E-05-1.18717E-20 8.95314E-19
 -1      2284 1.01112E-04-2.88388E-05-3.10377E-05 1.61718E-05 4.95260E-19 1.24697E-18
 -1      2285 1.12937E-04-3.76445E-05-3.21181E-05 1.57924E-05-3.11096E-19 7.63668E-19
 -1      2286 1.16875E-04-4.16395E-05-3.22661E-05 1.39480E-05-6.31913E-19 8.83940E-19
 -1      2287 1.05384E-04-3.46897E-05-3.04248E-05 1.84723E-05-2.08211E-19 1.26009E-18
 -1      2288 1.22803E-04-4.66586E-05-3.23983E-05 1.19211E-05-1.08662E-18 7.03692E-19
 -1      2289 1.27662E-04-5.11058E-05-3.28997E-05 7.45843E-06-1.35949E-18 5.46417E-19
 -1      2290 1.14131E-04-4.43505E-05-3.01239E-05 1.77678E-05-9.50080E-19 1.29273E-18
 -1      2291 1.36321E-04-5.59538E-05-3.42748E-05 1.31708E-06-1.53455E-18 3.76903E-19
 -1      2292 1.39824E-04-5.63883E-05-3.58851E-05-5.23166E-06-1.03894E-18 2.29414E-19
 -1      2293 1.28967E-04-5.64033E-05-3.14076E-05 1.17282E-05-1.40285E-18 8.94731E-19
 -1      2294 1.46329E-04-5.43402E-05-3.98530E-05-1.46501E-05-3.88418E-19 2.38652E-19
 -1      2295 1.45198E-04-4.56447E-05-4.29201E-05-1.87453E-05 5.37019E-19 3.58295E-19
 -1      2296 1.45607E-04-3.64858E-05-4.75892E-05-2.02129E-05 1.68591E-18 8.48833E-19
 -1      2297 1.42216E-04-2.53668E-05-5.04122E-05-1.53248E-05 3.15499E-18 1.45478E-18
 -1      2298 1.45873E-04-4.59003E-05-4.29242E-05 2.07338E-05 1.69809E-18 3.95501E-18
 -1      2299 1.46909E-04-5.53488E-05-3.97810E-05 1.56773E-05 6.47768E-19 4.10832E-18
 -1      2300 1.40227E-04-5.68790E-05-3.58287E-05 6.09192E-06-3.85651E-19 3.88486E-18
 -1      2301 1.36498E-04-5.62807E-05-3.42753E-05-7.60048E-07-8.35313E-19 3.89789E-18
 -1      2302 1.27974E-04-5.13186E-05-3.29244E-05-6.66200E-06-1.04161E-18 3.18151E-18
 -1      2303 1.23217E-04-4.69762E-05-3.24280E-05-1.13020E-05-8.16937E-19 2.80647E-18
 -1      2304 1.28496E-04-5.60145E-05-3.12066E-05-1.06486E-05-1.33519E-18 3.31514E-18
 -1      2305 1.17208E-04-4.19776E-05-3.22744E-05-1.35919E-05-3.72668E-19 2.12555E-18
 -1      2306 1.13267E-04-3.80449E-05-3.21011E-05-1.56258E-05-2.77476E-19 1.79643E-18
 -1      2307 1.14173E-04-4.47284E-05-2.99378E-05-1.74453E-05-1.05172E-18 2.21944E-18
 -1      2308 1.10060E-04-3.48767E-05-3.22202E-05-1.56305E-05 2.11566E-19 1.72644E-18
 -1      2309 1.07263E-04-3.24071E-05-3.20306E-05-1.58916E-05 7.93736E-19 1.99910E-18
 -1      2310 1.05234E-04-3.51540E-05-3.01501E-05-1.85510E-05-5.18609E-20 1.04677E-18
 -1      2311 1.05798E-04-3.08613E-05-3.20948E-05-1.49500E-05 9.01998E-19 1.60695E-18
 -1      2312 1.03843E-04-2.95510E-05-3.18304E-05-1.42797E-05 4.49840E-19 1.68071E-18
 -1      2313 1.00821E-04-2.97123E-05-3.05220E-05-1.71427E-05 3.92752E-19 8.93961E-19
 -1      2314 1.03230E-04-2.89787E-05-3.17897E-05-1.30347E-05-1.02318E-19 1.68845E-18
 -1      2315 1.01797E-04-2.83573E-05-3.14812E-05-1.20043E-05-3.21419E-19 1.80383E-18
 -1      2316 9.88722E-05-2.72888E-05-3.06897E-05-1.47788E-05 1.32071E-19 8.07941E-19
 -1      2317 1.01527E-04-2.82606E-05-3.13633E-05-1.07609E-05-8.00446E-20 2.01618E-18
 -1      2318 1.00421E-04-2.79902E-05-3.10523E-05-9.68971E-06 2.86489E-19 2.54367E-18
 -1      2319 9.80394E-05-2.65447E-05-3.06376E-05-1.22205E-05 3.62018E-19 9.04613E-19
 -1      2320 1.00256E-04-2.80809E-05-3.08971E-05-8.57816E-06-1.25176E-19 2.73756E-18
 -1      2321 9.93780E-05-2.79714E-05-3.06122E-05-7.61492E-06-7.48516E-20 2.55805E-18
 -1      2322 9.76199E-05-2.65764E-05-3.04414E-05-9.82276E-06 1.23309E-19 1.39023E-18
 -1      2323 9.92320E-05-2.81098E-05-3.04496E-05-6.67830E-06-4.84973E-19 2.13032E-18
 -1      2324 9.85280E-05-2.80677E-05-3.02043E-05-5.87353E-06-1.25408E-18 1.28762E-18
 -1      2325 9.73143E-05-2.68887E-05-3.01780E-05-7.73340E-06-7.10432E-19 4.48735E-19
 -1      2326 9.83801E-05-2.81970E-05-3.00521E-05-5.11234E-06-1.21935E-18 2.02598E-18
 -1      2327 9.78184E-05-2.81807E-05-2.98495E-05-4.46756E-06-4.48138E-19 1.80708E-18
 -1      2328 9.70242E-05-2.72502E-05-2.99012E-05-5.99197E-06-6.98796E-19 4.18766E-19
 -1      2329 9.76713E-05-2.82838E-05-2.97161E-05-3.86342E-06-4.79034E-19 1.23301E-18
 -1      2330 9.72279E-05-2.82766E-05-2.95536E-05-3.35975E-06-7.13594E-19 1.49226E-18
 -1      2331 9.67343E-05-2.75706E-05-2.96417E-05-4.58285E-06-5.82977E-19 2.03314E-19
 -1      2332 9.70895E-05-2.83530E-05-2.94416E-05-2.88794E-06 3.03189E-19 1.75039E-18
 -1      2333 9.67439E-05-2.83488E-05-2.93139E-05-2.50078E-06-9.72417E-20 1.98713E-18
 -1      2334 9.64551E-05-2.78257E-05-2.94140E-05-3.46573E-06 4.01679E-20 5.49250E-19
 -1      2335 9.66204E-05-2.84036E-05-2.92227E-05-2.13661E-06-6.79223E-19 2.28756E-18
 -1      2336 9.63547E-05-2.84008E-05-2.91240E-05-1.84224E-06-2.18643E-19 2.07987E-18
 -1      2337 9.61999E-05-2.80189E-05-2.92225E-05-2.59306E-06-4.88592E-19 1.44992E-18
 -1      2338 9.62493E-05-2.84394E-05-2.90513E-05-1.56376E-06-3.41931E-19 1.71902E-18
 -1      2339 9.60479E-05-2.84378E-05-2.89762E-05-1.34180E-06-1.78843E-19 1.19410E-18
 -1      2340 9.59774E-05-2.81616E-05-2.90662E-05-1.91898E-06-5.49728E-19 1.03766E-18
 -1      2341 9.59612E-05-2.84651E-05-2.89193E-05-1.13058E-06-3.56517E-20 4.72813E-19
 -1      2342 9.58108E-05-2.84645E-05-2.88628E-05-9.64460E-07-7.80062E-20 8.09666E-19
 -1      2343 9.57911E-05-2.82663E-05-2.89415E-05-1.40316E-06-4.00344E-19 5.65033E-19
 -1      2344 9.57416E-05-2.84840E-05-2.88189E-05-8.05569E-07 3.18624E-19 5.34638E-19
 -1      2345 9.56311E-05-2.84846E-05-2.87770E-05-6.82204E-07 1.19598E-19 1.05274E-18
 -1      2346 9.56403E-05-2.83432E-05-2.88436E-05-1.01186E-06-3.74610E-19-2.77807E-19
 -1      2347 9.55775E-05-2.84988E-05-2.87437E-05-5.63738E-07-1.09357E-19 1.44212E-18
 -1      2348 9.54977E-05-2.85002E-05-2.87131E-05-4.72928E-07 1.46387E-19 2.04976E-18
 -1      2349 9.55218E-05-2.84001E-05-2.87682E-05-7.17636E-07 7.23453E-19 4.27244E-19
 -1      2350 9.54571E-05-2.85108E-05-2.86881E-05-3.85506E-07-2.22485E-19 2.55500E-18
 -1      2351 9.54007E-05-2.85129E-05-2.86661E-05-3.19368E-07-1.07244E-18 2.18935E-18
 -1      2352 9.54310E-05-2.84426E-05-2.87108E-05-4.98560E-07-2.16066E-19 7.68751E-19
 -1      2353 9.53709E-05-2.85209E-05-2.86477E-05-2.55636E-07-1.02099E-18 2.62615E-18
 -1      2354 9.53320E-05-2.85235E-05-2.86321E-05-2.08093E-07-7.39401E-19 2.35178E-18
 -1      2355 9.53634E-05-2.84747E-05-2.86677E-05-3.37252E-07-5.24380E-19 4.03455E-19
 -1      2356 9.53106E-05-2.85296E-05-2.86187E-05-1.62310E-07-5.31661E-19 2.49126E-18
 -1      2357 9.52847E-05-2.85324E-05-2.86080E-05-1.28688E-07-2.45209E-19 2.55979E-18
 -1      2358 9.53143E-05-2.84991E-05-2.86360E-05-2.20040E-07-3.32996E-19 1.58320E-18
 -1      2359 9.52697E-05-2.85372E-05-2.85985E-05-9.63890E-08-2.84140E-19 1.96088E-18
 -1      2360 9.52532E-05-2.85399E-05-2.85913E-05-7.31006E-08 1.26024E-19 2.05995E-18
 -1      2361 9.52796E-05-2.85177E-05-2.86130E-05-1.36216E-07-4.60323E-19 1.06655E-19
 -1      2362 9.52432E-05-2.85437E-05-2.85847E-05-5.08262E-08-4.03802E-19 2.08127E-18
 -1      2363 9.52334E-05-2.85463E-05-2.85801E-05-3.51239E-08-1.33758E-18 1.29072E-18
 -1      2364 9.52560E-05-2.85320E-05-2.85966E-05-7.74304E-08-5.82013E-19-9.79554E-20
 -1      2365 9.52271E-05-2.85492E-05-2.85757E-05-2.02096E-08-1.60853E-18 1.86846E-18
 -1      2366 9.52219E-05-2.85517E-05-2.85729E-05-1.00013E-08-9.66413E-19 9.35181E-19
 -1      2367 9.52407E-05-2.85428E-05-2.85852E-05-3.72110E-08-1.06134E-18 6.21675E-19
 -1      2368 9.52182E-05-2.85540E-05-2.85700E-05-4.08742E-10-5.08183E-19 1.67715E-18
 -1      2369 9.52162E-05-2.85561E-05-2.85685E-05 5.88743E-09 7.32726E-19 2.41872E-18
 -1      2370 9.52313E-05-2.85510E-05-2.85776E-05-1.05709E-08-2.41093E-19 2.12709E-18
 -1      2371 9.52142E-05-2.85579E-05-2.85668E-05 1.17028E-08 1.31356E-18 2.14857E-18
 -1      2372 9.52143E-05-2.85598E-05-2.85661E-05 1.52712E-08 1.50659E-18 2.45695E-18
 -1      2373 9.52262E-05-2.85572E-05-2.85726E-05 6.29857E-09 9.60758E-19 1.62264E-18
 -1      2374 9.52136E-05-2.85611E-05-2.85652E-05 1.84651E-08 1.63878E-18 2.05629E-18
 -1      2375 9.52148E-05-2.85628E-05-2.85651E-05 2.01797E-08 1.63846E-18 9.52289E-19
 -1      2376 9.52239E-05-2.85618E-05-2.85696E-05 1.62744E-08 1.10972E-18 9.88720E-19
 -1      2377 9.52149E-05-2.85638E-05-2.85647E-05 2.16025E-08 9.87169E-19 1.25572E-18
 -1      2378 9.52169E-05-2.85652E-05-2.85650E-05 2.20950E-08-4.07370E-19 1.76423E-18
 -1      2379 9.52237E-05-2.85652E-05-2.85680E-05 2.14993E-08 1.22296E-18 8.01270E-19
 -1      2380 9.52175E-05-2.85660E-05-2.85649E-05 2.23574E-08-1.26508E-18 2.13164E-18
 -1      2381 9.52198E-05-2.85672E-05-2.85654E-05 2.20702E-08-2.25232E-18 3.12921E-18
 -1      2382 9.52246E-05-2.85677E-05-2.85673E-05 2.35375E-08-4.82707E-19 2.19654E-18
 -1      2383 9.52207E-05-2.85678E-05-2.85655E-05 2.15945E-08-2.79976E-18 3.25628E-18
 -1      2384 9.52231E-05-2.85688E-05-2.85661E-05 2.08206E-08-2.37355E-18 2.48062E-18
 -1      2385 9.52262E-05-2.85696E-05-2.85671E-05 2.34992E-08-2.10592E-18 2.74994E-18
 -1      2386 9.52241E-05-2.85693E-05-2.85663E-05 1.98813E-08-1.02428E-18 1.68903E-18
 -1      2387 9.52264E-05-2.85702E-05-2.85669E-05 1.87956E-08-8.83579E-20 2.32967E-18
 -1      2388 9.52281E-05-2.85710E-05-2.85674E-05 2.21373E-08-1.97074E-18 3.51061E-18
 -1      2389 9.52274E-05-2.85707E-05-2.85672E-05 1.75501E-08-7.22252E-19 2.00957E-18
 -1      2390 9.52295E-05-2.85715E-05-2.85677E-05 1.62354E-08-5.10002E-19 1.07496E-18
 -1      2391 9.52303E-05-2.85722E-05-2.85677E-05 1.99256E-08-1.24001E-18 2.89362E-18
 -1      2392 9.52306E-05-2.85721E-05-2.85680E-05 1.47459E-08-5.35309E-21 1.32783E-18
 -1      2393 9.52324E-05-2.85728E-05-2.85684E-05 1.32207E-08-3.54067E-20 5.47546E-19
 -1      2394 9.52324E-05-2.85734E-05-2.85682E-05 1.71243E-08-3.02160E-19 8.87716E-19
 -1      2395 9.52336E-05-2.85736E-05-2.85686E-05 1.19778E-08-1.89893E-19 6.83492E-19
 -1      2396 9.52351E-05-2.85744E-05-2.85689E-05 1.02164E-08-1.58437E-19 6.09629E-19
 -1      2397 9.52369E-05-2.85765E-05-2.85687E-05 1.12652E-08-1.45728E-19 3.13186E-19
 -1      2398 9.52348E-05-2.85748E-05-2.85685E-05 1.42193E-08-3.05168E-19 1.14750E-18
 -1      2399 1.00349E-04-3.14773E-05-2.95373E-05 3.96278E-06-3.21314E-19 1.74599E-18
 -1      2400 1.00837E-04-3.15514E-05-2.96818E-05 3.27707E-06-3.83883E-19 1.63128E-18
 -1      2401 1.00796E-04-3.13295E-05-2.97975E-05 2.59727E-06-6.28588E-19 1.66631E-18
 -1      2402 1.01136E-04-3.11283E-05-2.99710E-05 2.16280E-06-7.91439E-19 1.67302E-18
 -1      2403 1.02074E-04-3.21683E-05-2.99620E-05 3.21627E-06-4.98586E-19 1.71572E-18
 -1      2404 1.01001E-04-3.06549E-05-3.01681E-05 1.93684E-06-1.01911E-18 1.67485E-18
 -1      2405 1.01291E-04-3.02461E-05-3.04109E-05 2.01912E-06-1.26193E-18 1.58783E-18
 -1      2406 1.01831E-04-3.12446E-05-3.02655E-05 2.30760E-06-9.85401E-19 1.85391E-18
 -1      2407 9.94285E-05-3.09372E-05-2.93581E-05 5.45643E-06-4.16137E-19 1.56956E-18
 -1      2408 1.00153E-04-3.13652E-05-2.94855E-05 4.81345E-06-3.60745E-19 1.61165E-18
 -1      2409 1.01960E-04-3.23441E-05-2.98260E-05 4.81723E-06-3.72857E-19 1.66631E-18
 -1      2410 9.79412E-05-2.96348E-05-2.92544E-05 6.37534E-06-5.88901E-19 1.60881E-18
 -1      2411 9.88804E-05-3.04136E-05-2.93609E-05 6.10610E-06-4.52267E-19 1.59348E-18
 -1      2412 1.01219E-04-3.15685E-05-2.98320E-05 6.43455E-06-4.31179E-19 1.76927E-18
 -1      2413 9.60701E-05-2.77805E-05-2.92241E-05 6.03110E-06-7.60945E-19 1.81644E-18
 -1      2414 9.70623E-05-2.87501E-05-2.93002E-05 6.41570E-06-7.65305E-19 1.64989E-18
 -1      2415 9.97475E-05-2.98141E-05-2.99543E-05 7.22972E-06-8.06660E-19 1.67041E-18
 -1      2416 9.43214E-05-2.59519E-05-2.92499E-05 4.05356E-06-4.81336E-19 2.03969E-18
 -1      2417 9.50949E-05-2.67886E-05-2.92892E-05 5.17766E-06-5.61113E-19 2.07666E-18
 -1      2418 9.78111E-05-2.74750E-05-3.01445E-05 6.42702E-06-8.51114E-19 1.73038E-18
 -1      2419 9.33750E-05-2.49149E-05-2.93006E-05 7.20877E-07-3.56968E-19 2.56813E-18
 -1      2420 9.36545E-05-2.52657E-05-2.93017E-05 2.35913E-06-4.16125E-19 2.43117E-18
 -1      2421 9.60809E-05-2.53797E-05-3.03226E-05 3.72482E-06-7.52107E-19 2.28015E-18
 -1      2422 9.36869E-05-2.51722E-05-2.93507E-05-3.02585E-06-1.11888E-19 2.87617E-18
 -1      2423 9.33484E-05-2.48688E-05-2.93144E-05-1.35033E-06-1.56982E-19 3.03921E-18
 -1      2424 9.53477E-05-2.44674E-05-3.04112E-05-3.28199E-07-4.41830E-19 2.91774E-18
 -1      2425 9.51805E-05-2.66256E-05-2.93932E-05-6.01956E-06-6.01433E-19 3.31033E-18
 -1      2426 9.43241E-05-2.57939E-05-2.93219E-05-4.80587E-06-4.24420E-19 3.19971E-18
 -1      2427 9.59920E-05-2.51843E-05-3.03710E-05-4.47499E-06-3.40951E-19 3.79854E-18
 -1      2428 9.72813E-05-2.86444E-05-2.94408E-05-7.46303E-06-3.31050E-19 3.09665E-18
 -1      2429 9.61753E-05-2.76176E-05-2.93397E-05-6.99066E-06-5.88038E-19 2.92005E-18
 -1      2430 9.77120E-05-2.71986E-05-3.02219E-05-7.39540E-06-4.37755E-19 3.61312E-18
 -1      2431 9.92765E-05-3.04819E-05-2.95073E-05-7.24647E-06 3.34854E-19 2.86123E-18
 -1      2432 9.82168E-05-2.95962E-05-2.93885E-05-7.49199E-06 1.76065E-19 2.84794E-18
 -1      2433 9.97375E-05-2.96312E-05-3.00274E-05-8.39306E-06-3.47437E-21 2.77939E-18
 -1      2434 1.00674E-04-3.16642E-05-2.95912E-05-5.82204E-06-1.21470E-19 2.30286E-18
 -1      2435 9.98664E-05-3.11074E-05-2.94731E-05-6.55091E-06-1.94636E-20 2.78273E-18
 -1      2436 1.01327E-04-3.16135E-05-2.98527E-05-7.60253E-06 3.90820E-19 2.69940E-18
 -1      2437 1.01326E-04-3.20998E-05-2.96744E-05-3.84618E-06 5.93570E-19 1.43843E-18
 -1      2438 1.00847E-04-3.18900E-05-2.95765E-05-4.76839E-06 2.72190E-19 1.74698E-18
 -1      2439 1.02114E-04-3.26931E-05-2.97309E-05-5.68942E-06 3.01843E-19 1.95484E-18
 -1      2440 1.01337E-04-3.19545E-05-2.97342E-05-1.87674E-06-2.77769E-19 1.68986E-18
 -1      2441 1.01165E-04-3.20073E-05-2.96704E-05-2.76087E-06 1.22314E-19 1.74359E-18
 -1      2442 1.02119E-04-3.28801E-05-2.96614E-05-3.40419E-06 2.42131E-19 2.04590E-18
 -1      2443 1.00910E-04-3.14748E-05-2.97532E-05-2.50331E-07-6.84248E-19 2.18721E-18
 -1      2444 1.00975E-04-3.16787E-05-2.97290E-05-9.62985E-07-8.16268E-19 1.66328E-18
 -1      2445 1.01574E-04-3.24441E-05-2.96224E-05-1.29872E-06-5.31840E-19 2.37930E-18
 -1      2446 1.00244E-04-3.08730E-05-2.97249E-05 9.05616E-07-3.06646E-19 2.29912E-18
 -1      2447 1.00466E-04-3.11352E-05-2.97379E-05 4.09988E-07-1.29177E-19 2.28234E-18
 -1      2448 1.00743E-04-3.17030E-05-2.95890E-05 3.41616E-07-4.68452E-19 1.94171E-18
 -1      2449 9.94905E-05-3.02868E-05-2.96533E-05 1.60375E-06-8.98455E-20 2.94303E-18
 -1      2450 9.97974E-05-3.05473E-05-2.96959E-05 1.31318E-06-4.97954E-19 2.42139E-18
 -1      2451 9.98298E-05-3.09019E-05-2.95434E-05 1.44391E-06-4.27252E-19 1.98713E-18
 -1      2452 9.87435E-05-2.97853E-05-2.95490E-05 1.92712E-06 1.37502E-19 3.00345E-18
 -1      2453 9.90826E-05-3.00132E-05-2.96114E-05 1.80141E-06 3.54255E-19 2.97778E-18
 -1      2454 9.89568E-05-3.01839E-05-2.94780E-05 2.06079E-06-8.54045E-20 2.28384E-18
 -1      2455 9.80569E-05-2.93901E-05-2.94251E-05 1.97959E-06-3.74202E-19 2.63435E-18
 -1      2456 9.83920E-05-2.95743E-05-2.94978E-05 1.97113E-06 1.07256E-19 3.04335E-18
 -1      2457 9.81843E-05-2.96089E-05-2.93935E-05 2.29898E-06 1.76271E-19 2.93123E-18
 -1      2458 9.74552E-05-2.90963E-05-2.92941E-05 1.85796E-06 1.95109E-19 1.57592E-18
 -1      2459 9.77643E-05-2.92375E-05-2.93690E-05 1.92330E-06-1.47966E-19 2.01974E-18
 -1      2460 9.75315E-05-2.91839E-05-2.92957E-05 2.27379E-06 3.32481E-19 2.52960E-18
 -1      2461 9.69459E-05-2.88879E-05-2.91657E-05 1.64003E-06 3.55749E-19 1.24529E-18
 -1      2462 9.72173E-05-2.89916E-05-2.92373E-05 1.74478E-06 3.71177E-20 1.41308E-18
 -1      2463 9.69959E-05-2.88900E-05-2.91918E-05 2.08617E-06 2.80707E-19 1.76720E-18
 -1      2464 9.65262E-05-2.87460E-05-2.90472E-05 1.38221E-06 7.08645E-19 1.35920E-18
 -1      2465 9.67556E-05-2.88196E-05-2.91118E-05 1.50177E-06 8.22855E-19 1.57514E-18
 -1      2466 9.65654E-05-2.86990E-05-2.90888E-05 1.81437E-06 5.63403E-19 1.80246E-18
 -1      2467 9.61883E-05-2.86534E-05-2.89425E-05 1.12178E-06 8.90576E-19 1.68182E-18
 -1      2468 9.63762E-05-2.87037E-05-2.89983E-05 1.24020E-06 6.96252E-19 1.46622E-18
 -1      2469 9.62248E-05-2.85834E-05-2.89920E-05 1.51361E-06 5.60110E-19 1.78781E-18
 -1      2470 9.59220E-05-2.85956E-05-2.88533E-05 8.80946E-07-2.94595E-19 2.76885E-18
 -1      2471 9.60716E-05-2.86289E-05-2.88998E-05 9.88971E-07 2.34919E-19 2.29365E-18
 -1      2472 9.59590E-05-2.85196E-05-2.89050E-05 1.21950E-06 3.22531E-19 2.27704E-18
 -1      2473 9.57163E-05-2.85617E-05-2.87799E-05 6.70967E-07-1.12164E-18 3.90028E-18
 -1      2474 9.58324E-05-2.85827E-05-2.88174E-05 7.64123E-07-4.99895E-19 3.26031E-18
 -1      2475 9.57544E-05-2.84898E-05-2.88297E-05 9.52562E-07-4.89790E-19 3.40039E-18
 -1      2476 9.55607E-05-2.85437E-05-2.87211E-05 4.95753E-07-7.90257E-19 3.81436E-18
 -1      2477 9.56484E-05-2.85562E-05-2.87505E-05 5.72740E-07-7.60682E-19 3.83486E-18
 -1      2478 9.55989E-05-2.84810E-05-2.87666E-05 7.22572E-07-1.12815E-18 2.73346E-18
 -1      2479 9.54455E-05-2.85358E-05-2.86752E-05 3.54659E-07-7.04428E-19 3.72355E-18
 -1      2480 9.55101E-05-2.85425E-05-2.86976E-05 4.16094E-07-6.11097E-19 3.54770E-18
 -1      2481 9.54826E-05-2.84842E-05-2.87151E-05 5.32183E-07-3.86686E-19 3.27173E-18
 -1      2482 9.53623E-05-2.85342E-05-2.86403E-05 2.44497E-07 3.69764E-19 3.36988E-18
 -1      2483 9.54085E-05-2.85371E-05-2.86570E-05 2.92033E-07-1.49646E-19 3.32782E-18
 -1      2484 9.53970E-05-2.84935E-05-2.86741E-05 3.79719E-07-2.66220E-19 2.78038E-18
 -1      2485 9.53039E-05-2.85360E-05-2.86145E-05 1.60916E-07 1.46449E-18 3.04666E-18
 -1      2486 9.53358E-05-2.85366E-05-2.86265E-05 1.96643E-07 7.71095E-19 3.19693E-18
 -1      2487 9.53354E-05-2.85053E-05-2.86424E-05 2.61153E-07 4.77419E-19 1.78441E-18
 -1      2488 9.52643E-05-2.85397E-05-2.85960E-05 9.92689E-08 1.24963E-18 2.88935E-18
 -1      2489 9.52854E-05-2.85389E-05-2.86044E-05 1.25349E-07 1.57173E-18 3.13664E-18
 -1      2490 9.52920E-05-2.85174E-05-2.86184E-05 1.71459E-07 1.46936E-18 2.08994E-18
 -1      2491 9.52386E-05-2.85442E-05-2.85832E-05 5.51334E-08 1.05907E-18 3.13358E-18
 -1      2492 9.52518E-05-2.85425E-05-2.85887E-05 7.35832E-08 1.89744E-18 2.95942E-18
 -1      2493 9.52623E-05-2.85285E-05-2.86008E-05 1.05450E-07 1.54697E-18 1.47193E-18
 -1      2494 9.52231E-05-2.85487E-05-2.85746E-05 2.45770E-08 9.56027E-19 1.11805E-18
 -1      2495 9.52306E-05-2.85468E-05-2.85781E-05 3.71642E-08 5.67404E-19 2.16620E-18
 -1      2496 9.52429E-05-2.85383E-05-2.85881E-05 5.82723E-08 1.61617E-18 1.38499E-18
 -1      2497 9.52147E-05-2.85530E-05-2.85692E-05 4.26709E-09 1.35054E-18-4.57860E-19
 -1      2498 9.52183E-05-2.85509E-05-2.85712E-05 1.24728E-08 1.25738E-18 2.12885E-19
 -1      2499 9.52309E-05-2.85464E-05-2.85794E-05 2.56563E-08 1.81473E-18-3.69838E-20
 -1      2500 9.52113E-05-2.85568E-05-2.85662E-05-8.51792E-09 1.39949E-18-1.03874E-18
 -1      2501 9.52122E-05-2.85548E-05-2.85671E-05-3.49652E-09 1.08221E-18-2.23285E-19
 -1      2502 9.52241E-05-2.85530E-05-2.85736E-05 4.00574E-09 1.34681E-18-8.86674E-19
 -1      2503 9.52112E-05-2.85601E-05-2.85647E-05-1.59313E-08 6.09343E-19-9.83329E-19
 -1      2504 9.52103E-05-2.85583E-05-2.85650E-05-1.31564E-08 1.35583E-18-5.54719E-19
 -1      2505 9.52210E-05-2.85582E-05-2.85700E-05-9.60285E-09 1.23410E-18-6.04995E-19
 -1      2506 9.52130E-05-2.85628E-05-2.85643E-05-1.96259E-08 4.65551E-19-1.14288E-18
 -1      2507 9.52112E-05-2.85613E-05-2.85641E-05-1.83853E-08 2.35851E-19-8.86322E-19
 -1      2508 9.52204E-05-2.85622E-05-2.85679E-05-1.74745E-08 5.86068E-19 4.29368E-19
 -1      2509 9.52160E-05-2.85651E-05-2.85646E-05-2.08301E-08 2.08667E-18-2.69563E-18
 -1      2510 9.52137E-05-2.85638E-05-2.85642E-05-2.06014E-08 1.51004E-18-2.10805E-18
 -1      2511 9.52213E-05-2.85652E-05-2.85669E-05-2.13733E-08 1.48399E-18-6.25262E-19
 -1      2512 9.52196E-05-2.85671E-05-2.85653E-05-2.04194E-08 2.54598E-18-3.30883E-18
 -1      2513 9.52170E-05-2.85659E-05-2.85647E-05-2.08374E-08 2.22510E-18-3.21421E-18
 -1      2514 9.52230E-05-2.85675E-05-2.85667E-05-2.26057E-08 2.35477E-18-2.26576E-18
 -1      2515 9.52233E-05-2.85687E-05-2.85662E-05-1.89805E-08 1.92957E-18-2.20049E-18
 -1      2516 9.52208E-05-2.85677E-05-2.85656E-05-1.98086E-08 2.69675E-18-2.76599E-18
 -1      2517 9.52253E-05-2.85693E-05-2.85669E-05-2.20995E-08 2.36292E-18-3.59854E-18
 -1      2518 9.52269E-05-2.85702E-05-2.85672E-05-1.68666E-08-2.78634E-19-1.42884E-18
 -1      2519 9.52245E-05-2.85693E-05-2.85665E-05-1.79728E-08 4.71886E-19-1.81800E-18
 -1      2520 9.52278E-05-2.85708E-05-2.85673E-05-2.04748E-08 6.68853E-19-1.43414E-18
 -1      2521 9.52302E-05-2.85716E-05-2.85680E-05-1.42465E-08-1.06450E-18 3.00896E-20
 -1      2522 9.52281E-05-2.85708E-05-2.85675E-05-1.55772E-08-2.44797E-19 1.69751E-19
 -1      2523 9.52303E-05-2.85721E-05-2.85678E-05-1.81062E-08-7.67511E-19 2.69271E-19
 -1      2524 9.52332E-05-2.85729E-05-2.85687E-05-1.11863E-08 1.07885E-18-9.28568E-19
 -1      2525 9.52314E-05-2.85721E-05-2.85683E-05-1.26924E-08-4.69863E-19-7.10435E-19
 -1      2526 9.52327E-05-2.85733E-05-2.85683E-05-1.51693E-08-7.27892E-20 7.70814E-19
 -1      2527 9.52353E-05-2.85746E-05-2.85689E-05-9.47265E-09-2.07041E-19 1.09401E-18
 -1      2528 9.52437E-05-2.85857E-05-2.85677E-05-9.72919E-09-1.83852E-18-1.07750E-18
 -1      2529 9.52427E-05-2.85843E-05-2.85679E-05-1.07238E-08-1.47249E-18-1.30149E-18
 -1      2530 9.52417E-05-2.85829E-05-2.85680E-05-1.15705E-08-1.85538E-18-1.17487E-18
 -1      2531 9.52405E-05-2.85812E-05-2.85683E-05-1.19216E-08-1.75302E-18-9.26335E-20
 -1      2532 9.52424E-05-2.85829E-05-2.85684E-05-1.26235E-08-1.39737E-18-1.00432E-18
 -1      2533 9.52392E-05-2.85796E-05-2.85684E-05-1.19870E-08-1.83413E-18 6.11039E-19
 -1      2534 9.52379E-05-2.85778E-05-2.85687E-05-1.15707E-08-1.46355E-18 1.64990E-18
 -1      2535 9.52396E-05-2.85798E-05-2.85685E-05-1.36279E-08-1.42665E-18-4.73023E-20
 -1      2536 5.72260E-05-3.51556E-05-9.24724E-06 4.41987E-05 1.08844E-18-3.30195E-18
 -1      2537 3.87422E-05-2.69416E-05-4.70520E-06 3.52037E-05 1.65595E-19-2.41087E-18
 -1      2538 9.52452E-05-2.85879E-05-2.85674E-05-6.77329E-09-2.18620E-18 8.78575E-19
 -1      2539 9.52445E-05-2.85868E-05-2.85676E-05-8.25154E-09-2.17480E-18-8.00465E-19
 -1      2540 9.52446E-05-2.85854E-05-2.85683E-05-1.01587E-08-1.70577E-18-1.11186E-18
 -1      2541 9.52460E-05-2.85891E-05-2.85672E-05-3.08787E-09-2.44257E-18 2.73684E-18
 -1      2542 9.52457E-05-2.85886E-05-2.85673E-05-4.86169E-09-2.05120E-18 9.71286E-19
 -1      2543 9.52462E-05-2.85872E-05-2.85682E-05-6.56431E-09-2.08708E-18 1.14019E-18
 -1      2544 9.52462E-05-2.85894E-05-2.85672E-05 9.20663E-10-1.94856E-18 3.84027E-18
 -1      2545 9.52462E-05-2.85893E-05-2.85672E-05-9.55104E-10-3.16463E-18 3.54605E-18
 -1      2546 9.52469E-05-2.85881E-05-2.85681E-05-2.28342E-09-2.54317E-18 2.43837E-18
 -1      2547 9.52457E-05-2.85886E-05-2.85673E-05 4.83987E-09-2.38828E-18-3.39122E-19
 -1      2548 9.52461E-05-2.85891E-05-2.85672E-05 3.05910E-09-2.25578E-18 2.43857E-18
 -1      2549 9.52470E-05-2.85882E-05-2.85681E-05 2.23659E-09-2.21929E-18 2.80581E-18
 -1      2550 9.52446E-05-2.85869E-05-2.85676E-05 8.20404E-09-1.50280E-18-1.45379E-18
 -1      2551 9.52452E-05-2.85879E-05-2.85674E-05 6.73554E-09-2.30650E-18-8.49219E-19
 -1      2552 9.52462E-05-2.85873E-05-2.85681E-05 6.50639E-09-1.42388E-18-3.23195E-19
 -1      2553 9.52428E-05-2.85844E-05-2.85679E-05 1.07261E-08 2.27865E-19-8.97458E-19
 -1      2554 9.52438E-05-2.85858E-05-2.85676E-05 9.71030E-09 5.08536E-20-3.09418E-18
 -1      2555 9.52447E-05-2.85855E-05-2.85683E-05 1.01154E-08 6.38274E-19-1.28119E-18
 -1      2556 9.52405E-05-2.85812E-05-2.85683E-05 1.19534E-08 3.76459E-19 1.27695E-18
 -1      2557 9.52417E-05-2.85830E-05-2.85680E-05 1.16080E-08 1.02079E-19 1.20867E-18
 -1      2558 9.52425E-05-2.85830E-05-2.85684E-05 1.26555E-08 2.99259E-19 1.52954E-19
 -1      2559 9.52381E-05-2.85780E-05-2.85686E-05 1.16863E-08-6.30104E-19-7.38682E-20
 -1      2560 9.52394E-05-2.85799E-05-2.85683E-05 1.21114E-08 3.95092E-19 4.67101E-19
 -1      2561 9.52399E-05-2.85801E-05-2.85685E-05 1.37121E-08-3.52328E-19 1.05747E-18
 -1      2562 9.52372E-05-2.85772E-05-2.85686E-05 1.33751E-08 1.32647E-19 1.62652E-19
 -1      2563 9.98455E-05-2.01248E-05-3.41890E-05-4.05808E-06 2.45502E-18 6.95732E-19
 -1      2564 1.01486E-04-2.35958E-05-3.33751E-05 6.51663E-07 2.22271E-18 5.30765E-19
 -1      2565 9.79880E-05-2.11621E-05-3.29366E-05 1.98424E-06 2.18135E-18 1.08660E-18
 -1      2566 9.54028E-05-1.64532E-05-3.38470E-05-3.54675E-06 2.44566E-18 1.31552E-18
 -1      2567 1.45438E-04-4.88273E-05-4.18489E-05 1.28262E-05-7.53648E-19 2.07036E-18
 -1      2568 1.37373E-04-5.33622E-05-3.60443E-05 1.98447E-05 4.82597E-19 1.38045E-18
 -1      2569 2.20037E-05-1.52740E-05-2.32358E-06-2.54222E-07-8.42599E-19 8.41951E-19
 -1      2570 2.85713E-05-1.76483E-05-4.22185E-06-1.60131E-05-1.33768E-18 1.14836E-18
 -1      2571 4.48205E-05-2.85078E-05-6.52885E-06-3.12331E-05-1.62546E-18 5.66242E-19
 -1      2572 6.01990E-05-3.86146E-05-8.96505E-06-3.79549E-05-1.33111E-18-1.98206E-19
 -1      2573 1.58338E-04-2.89607E-05-5.54529E-05 1.50215E-05 3.19967E-18 3.56135E-18
 -1      2574 1.59749E-04-2.30909E-05-5.90582E-05 9.65762E-06 3.18061E-18 3.27908E-18
 -1      2575 7.77293E-05-5.13985E-06-3.11087E-05-4.29795E-06 9.80510E-19 3.60723E-18
 -1      2576 7.72528E-05-4.74571E-06-3.11162E-05-4.42911E-06 1.09977E-18 3.53668E-18
 -1      2577 7.75822E-05-5.78708E-06-3.07478E-05-4.49012E-06 1.18736E-18 3.35429E-18
 -1      2578 7.88329E-05-7.03989E-06-3.07637E-05-4.89622E-06 9.31205E-19 3.53707E-18
 -1      2579 1.50950E-04-2.95154E-05-5.25161E-05-1.98647E-06-1.98566E-18 2.10022E-18
 -1      2580 1.48090E-04-3.84821E-05-4.71565E-05 2.81684E-06-1.51185E-18 2.22283E-18
 -1      2581 1.50360E-04-2.15079E-05-5.53656E-05 3.95627E-06-4.39949E-18 8.44492E-19
 -1      2582 1.45726E-04-1.34655E-05-5.72509E-05 5.40114E-06-3.97428E-18 1.21327E-18
 -1      2583 1.48698E-04-1.44250E-05-5.80700E-05-3.70884E-06-3.34684E-18 2.24951E-18
 -1      2584 1.47822E-04-1.89831E-05-5.56507E-05-4.66856E-06-2.76726E-18 2.43628E-18
 -1      2585 1.16114E-04-6.14108E-05-2.34925E-05-2.96345E-05-8.63974E-19 4.41516E-19
 -1      2586 1.34324E-04-6.42886E-05-3.02672E-05-2.35080E-05-4.63327E-19 1.39676E-18
 -1      2587 1.41590E-04-8.11377E-06-5.79676E-05 8.45340E-07-3.63356E-18 1.83213E-18
 -1      2588 1.46515E-04-9.93490E-06-5.88893E-05-1.66945E-06-3.65325E-18 2.20546E-18
 -1      2589 1.35222E-04-9.57818E-06-5.41180E-05-5.07304E-06-3.24392E-18 2.28852E-18
 -1      2590 1.49848E-04-3.90633E-05-4.76939E-05-4.74004E-06-3.83960E-18 6.86944E-19
 -1      2591 1.52045E-04-3.16117E-05-5.21057E-05 2.74459E-07-4.20594E-18 4.42998E-19
 -1      2592 1.38881E-04-5.21305E-05-3.72612E-05-1.86245E-05-2.48467E-18 9.26654E-19
 -1      2593 1.47885E-04-4.70198E-05-4.34586E-05-1.28539E-05-3.40511E-18 6.05840E-19
 -1      2594 1.45791E-04-4.45972E-05-4.33611E-05-1.45523E-06-2.95662E-18-1.45690E-19
 -1      2595 1.13313E-04-5.52924E-05-2.48435E-05-3.68455E-05-1.10326E-18 2.08804E-18
 -1      2596 1.28216E-04-5.59594E-05-3.11872E-05-3.10668E-05-1.56468E-18 1.60216E-18
 -1      2597 8.00223E-05-4.62798E-05-1.42278E-05-4.52397E-05-1.11173E-19 2.96102E-18
 -1      2598 9.76517E-05-5.14257E-05-1.98282E-05-4.46559E-05-5.81488E-19 2.66352E-18
 -1      2599 4.12678E-05-3.09157E-05-4.27936E-06-3.78352E-05 4.10387E-19 3.70662E-18
 -1      2600 5.76376E-05-3.67565E-05-8.92593E-06-4.54985E-05 1.22820E-20 3.43747E-18
 -1      2601 2.05094E-05-1.80811E-05-7.59163E-07-1.71261E-05 9.49047E-19 4.62311E-18
 -1      2602 2.84683E-05-2.36352E-05-1.92744E-06-3.00991E-05 4.77303E-19 4.04501E-18
 -1      2603 4.13965E-05-2.43859E-05-6.78880E-06-3.45110E-05 1.23815E-18 3.85358E-18
 -1      2604 2.28063E-05-1.79236E-05-1.70828E-06 1.34305E-05 5.38289E-19 5.08050E-18
 -1      2605 1.90710E-05-1.55344E-05-1.07960E-06-1.72546E-06 5.28099E-19 5.00427E-18
 -1      2606 4.93519E-05-3.34833E-05-6.65306E-06 3.64734E-05 4.99749E-20 4.53205E-18
 -1      2607 3.32018E-05-2.53064E-05-3.15160E-06 2.57049E-05-7.60212E-20 4.79315E-18
 -1      2608 8.85487E-05-5.17688E-05-1.58014E-05 4.12594E-05-9.10560E-20 4.98934E-18
 -1      2609 6.94088E-05-4.42246E-05-1.06851E-05 3.93982E-05-3.23355E-19 4.46725E-18
 -1      2610 1.23936E-04-6.23079E-05-2.68236E-05 3.04042E-05-8.25857E-20 3.45674E-18
 -1      2611 1.05966E-04-5.81873E-05-2.05033E-05 3.56822E-05-2.96038E-19 4.40997E-18
 -1      2612 1.02997E-04-5.59092E-05-1.99243E-05 3.65861E-05-1.16509E-18 3.96152E-18
 -1      2613 1.53878E-04-6.00063E-05-4.05569E-05 8.58357E-06 1.50221E-18 2.69060E-18
 -1      2614 1.40082E-04-6.32571E-05-3.29115E-05 1.83491E-05 5.23466E-19 3.07706E-18
 -1      2615 1.34755E-04-6.43406E-05-2.99204E-05 2.02933E-05-6.66403E-19 2.74894E-18
 -1      2616 1.63000E-04-2.63158E-05-5.88298E-05-9.28698E-06 3.86035E-18 3.86649E-18
 -1      2617 1.60253E-04-3.34078E-05-5.47233E-05-1.35178E-05 3.23778E-18 3.14461E-18
 -1      2618 1.58538E-04-1.79142E-05-6.05946E-05 2.20165E-06 3.99545E-18 3.15837E-18
 -1      2619 1.61193E-04-1.92165E-05-6.08849E-05-3.66373E-06 4.22077E-18 3.36812E-18
 -1      2620 1.45855E-04-6.19771E-05-3.61823E-05-9.93584E-06 3.57130E-19 2.02271E-18
 -1      2621 1.57684E-04-5.75441E-05-4.33270E-05 1.31082E-07 1.41137E-18 3.59184E-18
 -1      2622 7.64740E-05-4.69967E-05-1.25136E-05-3.81627E-05-1.33747E-18-8.52115E-19
 -1      2623 9.69181E-05-5.44453E-05-1.81601E-05-3.83945E-05-1.26144E-18-8.70803E-19
 -1      2624 7.85640E-05-4.25895E-05-1.49574E-05-3.66221E-05-1.77898E-18-4.37281E-19
 -1      2625 2.64604E-05-2.00213E-05-2.43720E-06 2.56273E-05-2.49451E-19-1.47574E-18
 -1      2626 2.10282E-05-1.65406E-05-1.50890E-06 1.30360E-05-1.36849E-19-3.86671E-19
 -1      2627 9.52361E-05-2.85757E-05-2.85687E-05-1.17154E-08-5.94101E-19 1.34429E-18
 -1      2628 8.19672E-05-8.13732E-06-3.16143E-05-2.15047E-06 1.83440E-18 2.65632E-18
 -1      2629 8.27012E-05-7.62635E-06-3.22539E-05-2.83698E-06 1.92875E-18 2.67170E-18
 -1      2630 8.54455E-05-9.18311E-06-3.27008E-05-3.04913E-06 2.17106E-18 2.40119E-18
 -1      2631 1.44370E-04-4.49870E-05-4.26468E-05 1.41929E-06-8.08864E-19 2.55423E-18
 -1      2632 1.02078E-04-2.86830E-05-3.14262E-05 4.09446E-06-1.75391E-18 1.13485E-18
 -1      2633 1.01727E-04-2.76287E-05-3.17321E-05 4.96355E-06-1.87644E-18 1.58243E-18
 -1      2634 1.01544E-04-2.90726E-05-3.10464E-05 3.09787E-06-1.64525E-18 1.47720E-18
 -1      2635 1.52987E-04-4.36261E-05-4.70160E-05-1.66453E-05 1.35822E-18 1.62800E-18
 -1      2636 8.56734E-05-4.55816E-05-1.72894E-05 4.32123E-05 1.93145E-18-1.43043E-18
 -1      2637 7.19214E-05-4.07925E-05-1.29676E-05 4.45859E-05 1.49417E-18-2.56947E-18
 -1      2638 6.65136E-05-3.36666E-05-1.34985E-05 4.18823E-05 1.04323E-18-1.50687E-18
 -1      2639 1.45700E-04-5.95417E-05-3.71547E-05-4.35794E-06-6.77990E-19 6.92555E-19
 -1      2640 1.49986E-04-2.26625E-05-5.47598E-05-1.02259E-05 3.99884E-18 2.38726E-18
 -1      2641 1.39753E-04-1.99668E-05-5.20813E-05-6.27721E-06 4.04585E-18 1.65306E-18
 -1      2642 1.45663E-04-6.00588E-05-3.68449E-05 5.01034E-06-1.18293E-19 4.21769E-18
 -1      2643 1.39621E-04-1.91723E-05-5.21596E-05 4.96206E-06 3.51900E-18 2.33580E-18
 -1      2644 1.40185E-04-2.24489E-05-5.06288E-05 1.55530E-05 2.98897E-18 2.60727E-18
 -1      2645 1.43502E-04-3.35842E-05-4.80392E-05 2.07624E-05 2.19254E-18 2.99278E-18
 -1      2646 4.10945E-05-2.15880E-05-7.76705E-06 3.10180E-05 3.05567E-19-1.81392E-18
 -1      2647 1.41703E-04-2.42346E-05-5.05506E-05-7.98562E-06-2.28106E-18 2.48678E-18
 -1      2648 9.15650E-05-1.38046E-05-3.33890E-05-2.95219E-06 2.27596E-18 1.84577E-18
 -1      2649 4.14578E-05-2.14021E-05-7.91091E-06-2.36158E-05-1.27066E-18 7.32048E-19
 -1      2650 5.56083E-05-2.54970E-05-1.27394E-05-2.93458E-05-1.13778E-18 3.77565E-19
 -1      2651 4.13127E-05-1.48635E-05-1.07496E-05-1.61247E-05-1.13836E-18 9.23689E-19
 -1      2652 1.01185E-04-2.98177E-05-3.05761E-05 2.15015E-06-1.38017E-18 1.62739E-18
 -1      2653 1.01433E-04-2.94475E-05-3.08146E-05 2.61760E-06-1.47031E-18 1.49000E-18
 -1      2654 1.01440E-04-2.90199E-05-3.10487E-05 3.12261E-06-1.52585E-18 1.78112E-18
 -1      2655 1.01529E-04-3.00831E-05-3.06464E-05 2.38754E-06-1.35423E-18 1.87016E-18
 -1      2656 2.94240E-05-1.30448E-05-6.39929E-06 6.05031E-06-6.86705E-19 6.22357E-19
 -1      2657 9.52360E-05-2.85760E-05-2.85686E-05-1.36965E-08-7.17200E-19 7.48763E-19
 -1      2658 1.47487E-04-1.98738E-05-5.50449E-05 7.66132E-06 3.45674E-18 2.36100E-18
 -1      2659 1.43084E-04-6.49977E-05-3.33944E-05-1.02401E-05-3.74812E-19 2.55232E-18
 -1      2660 6.61242E-05-3.78706E-05-1.16746E-05 3.73966E-05-6.93085E-19 4.36402E-18
 -1      2661 2.63227E-05-1.39296E-05-4.73635E-06-9.46452E-06 1.04376E-18 4.80670E-18
 -1      2662 7.49128E-05-4.16478E-05-1.38887E-05-4.50485E-05 7.98964E-19 3.03090E-18
 -1      2663 1.35836E-04-5.67059E-05-3.38290E-05-1.97487E-05-1.25573E-18 5.61583E-19
 -1      2664 1.37748E-04-1.02795E-05-5.51158E-05 4.58757E-06-3.54144E-18 1.39750E-18
 -1      2665 1.27712E-04-7.65816E-06-5.19577E-05 3.27432E-06-3.36674E-18 1.35536E-18
 -1      2666 1.31044E-04-1.23688E-05-5.13072E-05 8.11021E-06-3.70408E-18 1.07848E-18
 -1      2667 1.13158E-04-5.90158E-05-2.29074E-05-3.00009E-05-1.21740E-18 3.97166E-19
 -1      2668 1.43533E-04-2.64610E-05-5.03479E-05 7.41957E-06-3.99630E-18 5.90382E-19
 -1      2669 1.51771E-04-4.07871E-05-4.78283E-05 1.84797E-05 2.49854E-18 3.62361E-18
 -1      2670 1.33510E-04-5.74080E-05-3.25088E-05 2.17337E-05 1.27351E-18 1.14148E-18
 -1      2671 1.11037E-04-5.57518E-05-2.34065E-05-3.74988E-05 2.48816E-19 1.71344E-18
 -1      2672 3.54110E-05-1.90208E-05-6.48712E-06 1.99313E-05 9.04208E-20 4.84588E-18
 -1      2673 1.57260E-04-5.61246E-05-4.36539E-05-5.69671E-06 1.39974E-18 1.78978E-18
 -1      2674 1.50459E-04-5.94252E-05-3.90443E-05-1.34554E-06 3.72986E-19 1.17356E-18
 -1      2675 1.59161E-04-4.61857E-05-4.88969E-05-1.07278E-05 1.93822E-18 2.16099E-18
 -1      2676 1.58464E-04-5.53443E-05-4.46858E-05 8.34309E-06 2.03485E-18 4.32220E-18
 -1      2677 1.58989E-04-4.70756E-05-4.87380E-05 1.27478E-05 2.51728E-18 4.42617E-18
 -1      2678 8.72856E-05-1.45830E-05-3.11460E-05-3.17433E-06 5.23527E-20 3.15834E-18
 -1      2679 8.53752E-05-1.33031E-05-3.09212E-05-4.23069E-06 3.37333E-19 3.15434E-18
 -1      2680 8.33249E-05-1.16659E-05-3.06870E-05-5.06069E-06 5.50396E-19 3.25603E-18
 -1      2681 8.15053E-05-1.04353E-05-3.05035E-05-5.66356E-06 7.55902E-19 3.39254E-18
 -1      2682 8.54629E-05-1.45589E-05-3.04015E-05-5.75856E-06 4.81630E-19 3.00036E-18
 -1      2683 9.44418E-05-1.98581E-05-3.19961E-05 2.24434E-06-9.48955E-19 2.93796E-18
 -1      2684 9.28048E-05-1.86104E-05-3.18101E-05 8.80789E-07-6.06966E-19 3.02035E-18
 -1      2685 9.74872E-05-2.24537E-05-3.22239E-05 4.60435E-06-1.45575E-18 2.49782E-18
 -1      2686 9.59811E-05-2.10508E-05-3.21149E-05 3.47636E-06-1.09025E-18 2.70980E-18
 -1      2687 9.66588E-05-2.28050E-05-3.16450E-05 1.87162E-06-9.79887E-19 2.60031E-18
 -1      2688 1.01452E-04-2.69282E-05-3.19333E-05 5.38502E-06-1.83310E-18 1.83587E-18
 -1      2689 1.00584E-04-2.56415E-05-3.21516E-05 5.85111E-06-1.90957E-18 2.04557E-18
 -1      2690 1.01249E-04-2.77569E-05-3.14851E-05 4.09617E-06-1.66787E-18 1.85300E-18
 -1      2691 1.39960E-04-4.07515E-05-4.32293E-05-5.43029E-06-9.96428E-19 2.65132E-18
 -1      2692 1.39968E-04-4.95086E-05-3.87090E-05 1.56897E-06 1.98735E-19 2.67514E-18
 -1      2693 1.17159E-04-5.78767E-05-2.56643E-05 3.31227E-05 2.10731E-18 3.08399E-19
 -1      2694 1.04755E-04-5.36444E-05-2.14829E-05 3.81847E-05 2.25935E-18-8.19571E-20
 -1      2695 9.50494E-05-2.06190E-05-3.18939E-05 5.57836E-06 1.86171E-18 1.27347E-18
 -1      2696 9.51268E-05-2.15488E-05-3.15193E-05 8.22898E-06 1.50402E-18 1.32661E-18
 -1      2697 9.45713E-05-2.22748E-05-3.09790E-05 1.07455E-05 1.21025E-18 1.46499E-18
 -1      2698 9.49876E-05-2.34128E-05-3.06388E-05 1.29679E-05 1.03233E-18 1.51022E-18
 -1      2699 9.05300E-05-1.90936E-05-3.05977E-05 8.94942E-06 1.49613E-18 1.64983E-18
 -1      2700 9.46079E-05-2.45733E-05-2.99945E-05 1.54479E-05 7.36076E-19 1.48201E-18
 -1      2701 9.59898E-05-2.67215E-05-2.96118E-05 1.71714E-05 2.30231E-19 1.57383E-18
 -1      2702 8.94763E-05-2.10891E-05-2.93025E-05 1.39611E-05 9.23154E-19 1.93819E-18
 -1      2703 9.66184E-05-2.92012E-05-2.88000E-05 1.96799E-05-5.07128E-20 1.67474E-18
 -1      2704 9.98890E-05-3.32864E-05-2.84019E-05 2.06331E-05-3.69518E-19 1.75778E-18
 -1      2705 8.94118E-05-2.49045E-05-2.76743E-05 1.91680E-05 2.86327E-19 2.06411E-18
 -1      2706 1.03053E-04-3.82030E-05-2.75392E-05 2.28597E-05-8.62862E-19 1.81781E-18
 -1      2707 1.09431E-04-4.46409E-05-2.74904E-05 2.20939E-05-1.33278E-18 1.77188E-18
 -1      2708 9.24157E-05-3.26026E-05-2.57071E-05 2.47531E-05-5.56170E-19 2.11205E-18
 -1      2709 5.13212E-05-2.31193E-05-1.16943E-05 3.40033E-05 5.01761E-19-1.83383E-18
 -1      2710 3.99481E-05-1.61042E-05-9.67570E-06 2.39804E-05-5.87629E-20-1.28093E-18
 -1      2711 3.51162E-05-1.20223E-05-9.31621E-06 1.40156E-05-8.36921E-19 2.73380E-19
 -1      2712 3.53436E-05-1.07046E-05-1.01248E-05 3.45653E-07-1.48015E-18 1.68560E-18
 -1      2713 4.53115E-05-1.39543E-05-1.28806E-05 1.78160E-05-8.27260E-19-9.61382E-20
 -1      2714 1.08412E-04-4.49704E-05-2.70844E-05-2.18362E-05-1.70232E-18 2.15869E-18
 -1      2715 1.02598E-04-3.84435E-05-2.72362E-05-2.23387E-05-1.39220E-18 1.70123E-18
 -1      2716 9.95859E-05-3.38672E-05-2.80330E-05-2.06345E-05-8.02577E-19 1.32559E-18
 -1      2717 9.62902E-05-2.99764E-05-2.83440E-05-1.99965E-05-2.66630E-19 8.77506E-19
 -1      2718 9.22339E-05-3.34481E-05-2.52871E-05-2.46074E-05-1.65273E-18 1.60751E-18
 -1      2719 9.56869E-05-2.78271E-05-2.90024E-05-1.80275E-05 1.21639E-19 4.50355E-19
 -1      2720 9.41763E-05-2.60024E-05-2.92185E-05-1.69271E-05 4.07496E-19 2.16199E-19
 -1      2721 8.91020E-05-2.61479E-05-2.69834E-05-1.99053E-05-3.02851E-19 4.56736E-19
 -1      2722 9.45797E-05-2.53141E-05-2.96388E-05-1.52317E-05 4.64125E-19 1.29714E-19
 -1      2723 9.39577E-05-2.46782E-05-2.97157E-05-1.39871E-05 2.43531E-19 1.84041E-19
 -1      2724 8.92005E-05-2.32991E-05-2.82246E-05-1.60963E-05 9.97696E-20-9.81533E-20
 -1      2725 9.46548E-05-2.47390E-05-2.99341E-05-1.25765E-05 1.48275E-19 2.29958E-19
 -1      2726 9.43893E-05-2.46784E-05-2.99037E-05-1.13659E-05 5.20290E-19 5.08808E-19
 -1      2727 9.04094E-05-2.27510E-05-2.89691E-05-1.30542E-05 3.25688E-19-2.03713E-19
 -1      2728 9.50567E-05-2.50385E-05-2.99850E-05-1.01884E-05 8.73199E-19 3.37510E-19
 -1      2729 9.49022E-05-2.52084E-05-2.98932E-05-9.09965E-06 4.09534E-19 5.53517E-19
 -1      2730 9.17927E-05-2.32640E-05-2.93428E-05-1.05652E-05 5.30909E-19-1.79819E-19
 -1      2731 9.54296E-05-2.56361E-05-2.98924E-05-8.11814E-06-5.54831E-19 5.08553E-19
 -1      2732 9.52949E-05-2.58668E-05-2.97746E-05-7.18610E-06-8.13574E-19 2.34154E-19
 -1      2733 9.29745E-05-2.41454E-05-2.94766E-05-8.48767E-06-7.21049E-20-1.68096E-19
 -1      2734 9.56697E-05-2.62605E-05-2.97303E-05-6.37517E-06-4.79473E-19-1.75865E-19
 -1      2735 9.55320E-05-2.64792E-05-2.96092E-05-5.60415E-06-4.18567E-19-8.93202E-20
 -1      2736 9.38572E-05-2.50578E-05-2.94700E-05-6.74839E-06-7.18012E-19-1.36285E-19
 -1      2737 9.57789E-05-2.68048E-05-2.95462E-05-4.94239E-06-6.43311E-20-6.00301E-19
 -1      2738 9.56402E-05-2.69872E-05-2.94340E-05-4.31994E-06-1.83249E-20-5.81215E-19
 -1      2739 9.44621E-05-2.58613E-05-2.93901E-05-5.30436E-06-3.92225E-19-1.06061E-18
 -1      2740 9.57923E-05-2.72422E-05-2.93667E-05-3.78678E-06 1.92823E-19-1.69014E-20
 -1      2741 9.56605E-05-2.73855E-05-2.92689E-05-3.29315E-06 2.74047E-19 1.63039E-19
 -1      2742 9.48492E-05-2.65166E-05-2.92792E-05-4.12074E-06 1.50137E-19-7.13692E-19
 -1      2743 9.57477E-05-2.75793E-05-2.92052E-05-2.86877E-06 5.86376E-20 5.14413E-19
 -1      2744 9.56292E-05-2.76887E-05-2.91233E-05-2.48255E-06-3.47191E-19 9.18797E-19
 -1      2745 9.50813E-05-2.70292E-05-2.91617E-05-3.16369E-06 2.83894E-19-1.22660E-19
 -1      2746 9.56747E-05-2.78336E-05-2.90668E-05-2.14851E-06-5.06117E-19 8.97053E-19
 -1      2747 9.55729E-05-2.79160E-05-2.90000E-05-1.84962E-06-3.33486E-19 1.06450E-18
 -1      2748 9.52101E-05-2.74212E-05-2.90508E-05-2.39976E-06-4.61334E-19 1.35823E-18
 -1      2749 9.55931E-05-2.80236E-05-2.89520E-05-1.58944E-06-1.02450E-18 7.00720E-19
 -1      2750 9.55091E-05-2.80855E-05-2.88988E-05-1.36035E-06-1.13884E-18-1.06764E-19
 -1      2751 9.52742E-05-2.77173E-05-2.89524E-05-1.79728E-06-1.08285E-18 2.09273E-19
 -1      2752 9.55148E-05-2.81652E-05-2.88591E-05-1.15977E-06-9.10515E-19-1.92064E-19
 -1      2753 9.54476E-05-2.82119E-05-2.88174E-05-9.85815E-07 1.35845E-19 8.88180E-21
 -1      2754 9.52999E-05-2.79397E-05-2.88688E-05-1.32753E-06-1.20703E-18-3.81860E-19
 -1      2755 9.54458E-05-2.82709E-05-2.87854E-05-8.32824E-07 8.30807E-19-3.92412E-19
 -1      2756 9.53935E-05-2.83062E-05-2.87532E-05-7.02009E-07 1.81775E-19-3.37016E-19
 -1      2757 9.53044E-05-2.81064E-05-2.87996E-05-9.65331E-07-2.02551E-19-2.19703E-19
 -1      2758 9.53884E-05-2.83499E-05-2.87278E-05-5.86625E-07-5.53634E-20 3.11958E-20
 -1      2759 9.53488E-05-2.83767E-05-2.87033E-05-4.89306E-07-6.19199E-19 3.27347E-19
 -1      2760 9.52985E-05-2.82312E-05-2.87437E-05-6.89252E-07 4.50136E-19-3.96874E-19
 -1      2761 9.53427E-05-2.84092E-05-2.86835E-05-4.03365E-07-4.15436E-19-7.71945E-20
 -1      2762 9.53135E-05-2.84296E-05-2.86652E-05-3.31853E-07-1.27847E-19 1.52579E-19
 -1      2763 9.52882E-05-2.83245E-05-2.86993E-05-4.81367E-07-4.87220E-19-4.52419E-19
 -1      2764 9.53076E-05-2.84536E-05-2.86500E-05-2.68741E-07-8.15377E-19 1.09477E-18
 -1      2765 9.52867E-05-2.84692E-05-2.86365E-05-2.16948E-07-5.35044E-19 8.66373E-19
 -1      2766 9.52772E-05-2.83942E-05-2.86646E-05-3.26913E-07-3.45797E-20 5.17665E-19
 -1      2767 9.52815E-05-2.84869E-05-2.86250E-05-1.71354E-07-6.98671E-19 6.02414E-19
 -1      2768 9.52669E-05-2.84988E-05-2.86152E-05-1.34490E-07-6.39112E-19-2.02217E-19
 -1      2769 9.52671E-05-2.84461E-05-2.86380E-05-2.13877E-07-9.01958E-19 1.12183E-18
 -1      2770 9.52628E-05-2.85117E-05-2.86067E-05-1.02188E-07-3.64987E-19 1.55328E-19
 -1      2771 9.52530E-05-2.85208E-05-2.85997E-05-7.65037E-08-6.95605E-19 5.99883E-20
 -1      2772 9.52585E-05-2.84844E-05-2.86179E-05-1.32587E-07-6.91789E-19 1.26250E-18
 -1      2773 9.52498E-05-2.85301E-05-2.85935E-05-5.41599E-08-6.80647E-19 3.91567E-19
 -1      2774 9.52436E-05-2.85369E-05-2.85887E-05-3.67438E-08 1.96803E-19 9.70960E-19
 -1      2775 9.52518E-05-2.85125E-05-2.86029E-05-7.53342E-08-8.53855E-20 1.38217E-18
 -1      2776 9.52412E-05-2.85436E-05-2.85842E-05-2.17520E-08 6.43102E-19 5.68810E-19
 -1      2777 9.52375E-05-2.85487E-05-2.85810E-05-1.03605E-08 5.45200E-19 2.01543E-18
 -1      2778 9.52467E-05-2.85328E-05-2.85919E-05-3.60338E-08 3.64797E-19 3.65981E-19
 -1      2779 9.52358E-05-2.85534E-05-2.85778E-05-7.06690E-10 6.09412E-19 2.47454E-18
 -1      2780 9.52339E-05-2.85571E-05-2.85758E-05 6.37200E-09 7.70580E-19 2.47543E-18
 -1      2781 9.52429E-05-2.85473E-05-2.85840E-05-9.93675E-09 7.75806E-19 1.62179E-18
 -1      2782 9.52327E-05-2.85604E-05-2.85737E-05 1.22251E-08 7.96717E-19 1.28231E-18
 -1      2783 9.52320E-05-2.85631E-05-2.85724E-05 1.62802E-08 1.05011E-18 2.85996E-19
 -1      2784 9.52403E-05-2.85575E-05-2.85785E-05 6.61942E-09 3.37958E-19 1.82932E-18
 -1      2785 9.52312E-05-2.85652E-05-2.85710E-05 1.94882E-08 1.66026E-18 1.15274E-19
 -1      2786 9.52313E-05-2.85672E-05-2.85704E-05 2.14747E-08 1.01274E-18 2.71389E-19
 -1      2787 9.52386E-05-2.85644E-05-2.85748E-05 1.64202E-08 1.03811E-18-3.16688E-19
 -1      2788 9.52309E-05-2.85686E-05-2.85695E-05 2.28894E-08-3.42326E-19 7.89341E-19
 -1      2789 9.52315E-05-2.85700E-05-2.85692E-05 2.34984E-08-9.75758E-19 1.16730E-18
 -1      2790 9.52375E-05-2.85690E-05-2.85723E-05 2.15480E-08 7.74066E-19-1.91449E-19
 -1      2791 9.52312E-05-2.85708E-05-2.85687E-05 2.37315E-08-1.17125E-18 1.69828E-18
 -1      2792 9.52321E-05-2.85719E-05-2.85686E-05 2.34466E-08-1.67632E-18 2.11715E-18
 -1      2793 9.52369E-05-2.85720E-05-2.85707E-05 2.35264E-08-7.35385E-19 6.62445E-19
 -1      2794 9.52320E-05-2.85724E-05-2.85684E-05 2.29195E-08-1.96307E-18 2.20380E-18
 -1      2795 9.52330E-05-2.85732E-05-2.85685E-05 2.20613E-08-1.86585E-18 2.54484E-18
 -1      2796 9.52366E-05-2.85739E-05-2.85698E-05 2.34346E-08-1.74870E-18 1.04139E-18
 -1      2797 9.52330E-05-2.85736E-05-2.85683E-05 2.10486E-08-1.80170E-18 2.78264E-18
 -1      2798 9.52341E-05-2.85743E-05-2.85685E-05 1.98134E-08-1.14994E-18 2.11237E-18
 -1      2799 9.52367E-05-2.85751E-05-2.85693E-05 2.20048E-08-1.98081E-18 1.21944E-18
 -1      2800 9.52343E-05-2.85747E-05-2.85684E-05 1.84659E-08-7.83878E-19 1.00399E-18
 -1      2801 9.52353E-05-2.85753E-05-2.85686E-05 1.69585E-08-4.77297E-19 6.53059E-19
 -1      2802 9.52370E-05-2.85761E-05-2.85689E-05 1.97089E-08-1.35385E-18 1.93575E-18
 -1      2803 9.52356E-05-2.85758E-05-2.85685E-05 1.59265E-08 4.27358E-19 6.16566E-19
 -1      2804 9.52368E-05-2.85766E-05-2.85686E-05 1.45008E-08 7.17390E-19 1.32212E-18
 -1      2805 9.52383E-05-2.85781E-05-2.85686E-05 1.49748E-08 5.44419E-20 4.73388E-19
 -1      2806 9.52376E-05-2.85771E-05-2.85688E-05 1.72582E-08-5.36875E-19 1.25598E-18
 -1      2807 1.03309E-04-3.32104E-05-3.00734E-05 3.31244E-06-3.72223E-19 1.76093E-18
 -1      2808 1.03262E-04-3.27838E-05-3.01711E-05 2.65968E-06-5.19926E-19 1.66628E-18
 -1      2809 1.03620E-04-3.34790E-05-3.00807E-05 5.18691E-06-2.46547E-19 1.69252E-18
 -1      2810 1.03827E-04-3.35859E-05-3.00902E-05 4.29985E-06-2.16175E-19 1.77549E-18
 -1      2811 1.04960E-04-3.43039E-05-3.02841E-05 3.62797E-06-3.13689E-19 1.48880E-18
 -1      2812 1.02539E-04-3.19493E-05-3.02845E-05 2.15446E-06-7.37898E-19 1.77190E-18
 -1      2813 1.02390E-04-3.11593E-05-3.04836E-05 2.01283E-06-9.72721E-19 1.82579E-18
 -1      2814 1.03662E-04-3.28541E-05-3.03600E-05 2.15836E-06-6.61493E-19 1.59189E-18
 -1      2815 1.01640E-04-2.99998E-05-3.06669E-05 7.87781E-06-8.68488E-19 1.76725E-18
 -1      2816 1.02549E-04-3.13741E-05-3.05389E-05 7.76683E-06-7.25272E-19 1.80667E-18
 -1      2817 9.95076E-05-2.67873E-05-3.11108E-05 6.76715E-06-1.05920E-18 2.04546E-18
 -1      2818 1.00513E-04-2.83746E-05-3.09664E-05 7.63442E-06-9.66060E-19 1.94908E-18
 -1      2819 1.03404E-04-2.96299E-05-3.15922E-05 8.51765E-06-1.00210E-18 1.79313E-18
 -1      2820 9.76281E-05-2.41022E-05-3.14621E-05 3.38774E-06-9.15862E-19 2.07092E-18
 -1      2821 9.83150E-05-2.52159E-05-3.13613E-05 5.21320E-06-1.04868E-18 1.80282E-18
 -1      2822 1.01005E-04-2.57826E-05-3.22367E-05 6.74537E-06-9.29506E-19 1.73777E-18
 -1      2823 9.70259E-05-2.33061E-05-3.15832E-05-1.41830E-06-6.72880E-19 2.72908E-18
 -1      2824 9.70555E-05-2.33825E-05-3.15696E-05 8.42958E-07-9.94659E-19 2.29270E-18
 -1      2825 9.91561E-05-2.30268E-05-3.26545E-05 2.46556E-06-1.08394E-18 1.66504E-18
 -1      2826 9.80910E-05-2.48595E-05-3.14159E-05-5.95266E-06-4.95678E-19 3.28100E-18
 -1      2827 9.74372E-05-2.38485E-05-3.14971E-05-4.03622E-06-4.73505E-19 3.02329E-18
 -1      2828 9.89873E-05-2.28184E-05-3.26778E-05-3.00129E-06-9.57957E-19 1.96174E-18
 -1      2829 1.00228E-04-2.79499E-05-3.10263E-05-8.65549E-06-4.19028E-19 3.54896E-18
 -1      2830 9.92007E-05-2.63541E-05-3.11666E-05-7.66713E-06-4.71609E-19 3.60376E-18
 -1      2831 1.00588E-04-2.52802E-05-3.22811E-05-7.53542E-06-6.63448E-19 2.99310E-18
 -1      2832 1.02337E-04-3.11416E-05-3.05554E-05-8.97706E-06 3.00008E-19 3.03073E-18
 -1      2833 1.01365E-04-2.96382E-05-3.07027E-05-9.03056E-06-1.27878E-20 3.28686E-18
 -1      2834 1.02938E-04-2.91234E-05-3.16081E-05-9.60258E-06 2.85216E-20 3.05162E-18
 -1      2835 1.03577E-04-3.33247E-05-3.01306E-05-7.41752E-06 6.41053E-19 2.49599E-18
 -1      2836 1.02958E-04-3.23605E-05-3.02480E-05-8.23062E-06 5.35136E-19 2.62434E-18
 -1      2837 1.04754E-04-3.26378E-05-3.08711E-05-9.04598E-06 6.43728E-19 2.65927E-18
 -1      2838 1.03725E-04-3.41567E-05-2.98159E-05-4.93959E-06 7.07989E-19 2.38744E-18
 -1      2839 1.03535E-04-3.38229E-05-2.98921E-05-6.09334E-06 5.04707E-19 2.49064E-18
 -1      2840 1.05330E-04-3.47135E-05-3.02370E-05-6.77041E-06 6.88242E-19 2.68673E-18
 -1      2841 1.03025E-04-3.38929E-05-2.96157E-05-2.38928E-06-5.67057E-20 2.90618E-18
 -1      2842 1.03183E-04-3.40423E-05-2.96583E-05-3.54084E-06 3.97378E-19 2.62694E-18
 -1      2843 1.04711E-04-3.51992E-05-2.97805E-05-3.91136E-06 4.89019E-19 3.32130E-18
 -1      2844 1.01871E-04-3.29995E-05-2.94987E-05-2.68802E-07-5.17753E-19 2.49890E-18
 -1      2845 1.02239E-04-3.34145E-05-2.95234E-05-1.21763E-06-2.30558E-19 2.43989E-18
 -1      2846 1.03343E-04-3.45276E-05-2.94956E-05-1.28555E-06 2.30189E-20 2.73162E-18
 -1      2847 1.00599E-04-3.18939E-05-2.94273E-05 1.23987E-06-4.32455E-19 1.95631E-18
 -1      2848 1.01053E-04-3.23921E-05-2.94482E-05 5.65880E-07-4.90834E-19 2.12126E-18
 -1      2849 1.01709E-04-3.32804E-05-2.93370E-05 7.19941E-07-2.55170E-19 2.47620E-18
 -1      2850 9.94128E-05-3.08449E-05-2.93717E-05 2.15426E-06-4.09016E-19 1.78260E-18
 -1      2851 9.98705E-05-3.13125E-05-2.93976E-05 1.74636E-06-3.48070E-19 1.64118E-18
 -1      2852 1.00147E-04-3.19166E-05-2.92538E-05 2.03327E-06-1.88353E-19 1.92270E-18
 -1      2853 9.84071E-05-2.99820E-05-2.93144E-05 2.58457E-06 1.75657E-20 1.94271E-18
 -1      2854 9.88241E-05-3.03659E-05-2.93485E-05 2.39448E-06-3.41212E-19 2.00338E-18
 -1      2855 9.88239E-05-3.07045E-05-2.92053E-05 2.74391E-06-4.31262E-19 1.40712E-18
 -1      2856 9.76014E-05-2.93388E-05-2.92483E-05 2.66499E-06-4.87164E-20 2.45708E-18
 -1      2857 9.79598E-05-2.96264E-05-2.92901E-05 2.63324E-06 1.57408E-19 2.10999E-18
 -1      2858 9.77866E-05-2.97548E-05-2.91656E-05 2.99812E-06-1.15326E-19 1.40725E-18
 -1      2859 9.69785E-05-2.88971E-05-2.91736E-05 2.51854E-06 3.75493E-19 2.34834E-18
 -1      2860 9.72757E-05-2.90969E-05-2.92202E-05 2.58976E-06 1.18934E-19 2.39816E-18
 -1      2861 9.70145E-05-2.90788E-05-2.91223E-05 2.94156E-06 2.77844E-19 1.39974E-18
 -1      2862 9.65076E-05-2.86174E-05-2.90936E-05 2.24365E-06 2.98019E-19 1.93288E-18
 -1      2863 9.67481E-05-2.87467E-05-2.91419E-05 2.37302E-06 2.70607E-19 2.26715E-18
 -1      2864 9.64601E-05-2.86390E-05-2.90713E-05 2.69582E-06 5.20556E-19 2.16374E-18
 -1      2865 9.61562E-05-2.84572E-05-2.90130E-05 1.91208E-06 7.36873E-19 1.80291E-18
 -1      2866 9.63477E-05-2.85342E-05-2.90601E-05 2.06669E-06 4.95823E-19 1.84813E-18
 -1      2867 9.60716E-05-2.83812E-05-2.90139E-05 2.35265E-06 1.63109E-19 1.66540E-18
 -1      2868 9.58962E-05-2.83790E-05-2.89359E-05 1.57202E-06 3.21356E-19 2.41339E-18
 -1      2869 9.60465E-05-2.84196E-05-2.89795E-05 1.72974E-06 6.31931E-19 2.32138E-18
 -1      2870 9.58038E-05-2.82527E-05-2.89533E-05 1.97614E-06 4.89671E-19 2.02484E-18
 -1      2871 9.57048E-05-2.83534E-05-2.88653E-05 1.25301E-06 4.47349E-20 2.05321E-18
 -1      2872 9.58214E-05-2.83703E-05-2.89040E-05 1.40031E-06 7.64230E-20 1.95366E-18
 -1      2873 9.56210E-05-2.82091E-05-2.88929E-05 1.60766E-06 3.76066E-19 2.14474E-18
 -1      2874 9.55647E-05-2.83589E-05-2.88030E-05 9.70837E-07-8.34625E-19 2.59692E-18
 -1      2875 9.56538E-05-2.83613E-05-2.88363E-05 1.10057E-06-1.70016E-19 2.09714E-18
 -1      2876 9.54968E-05-2.82170E-05-2.88358E-05 1.27136E-06-2.23652E-19 1.19412E-18
 -1      2877 9.54625E-05-2.83810E-05-2.87498E-05 7.31857E-07-1.03663E-18 2.09543E-18
 -1      2878 9.55298E-05-2.83752E-05-2.87775E-05 8.41243E-07-1.02302E-18 2.37336E-18
 -1      2879 9.54124E-05-2.82528E-05-2.87839E-05 9.79128E-07-9.60530E-19 1.63234E-18
 -1      2880 9.53885E-05-2.84099E-05-2.87056E-05 5.36382E-07-4.44826E-19 1.82670E-18
 -1      2881 9.54385E-05-2.84003E-05-2.87281E-05 6.25434E-07-6.18338E-19 2.14030E-18
 -1      2882 9.53550E-05-2.83007E-05-2.87386E-05 7.34609E-07-6.70503E-19 1.18138E-18
 -1      2883 9.53355E-05-2.84400E-05-2.86699E-05 3.81185E-07 3.36795E-19 1.29559E-18
 -1      2884 9.53719E-05-2.84291E-05-2.86877E-05 4.51526E-07 2.32448E-19 1.82405E-18
 -1      2885 9.53157E-05-2.83509E-05-2.87000E-05 5.36313E-07-1.38850E-20 6.89679E-19
 -1      2886 9.52979E-05-2.84681E-05-2.86417E-05 2.61256E-07 1.19198E-18 1.47459E-19
 -1      2887 9.53240E-05-2.84574E-05-2.86554E-05 3.15305E-07 6.85837E-19 6.03696E-19
 -1      2888 9.52888E-05-2.83980E-05-2.86681E-05 3.79859E-07 9.46095E-19 1.82257E-19
 -1      2889 9.52718E-05-2.84925E-05-2.86200E-05 1.70959E-07 1.08609E-18 9.59443E-19
 -1      2890 9.52899E-05-2.84829E-05-2.86302E-05 2.11393E-07 1.12300E-18 3.24114E-19
 -1      2891 9.52703E-05-2.84392E-05-2.86424E-05 2.59522E-07 1.01500E-18-6.36988E-19
 -1      2892 9.52540E-05-2.85128E-05-2.86036E-05 1.04744E-07 1.88123E-18 4.16015E-19
 -1      2893 9.52662E-05-2.85046E-05-2.86111E-05 1.34174E-07 1.77888E-18 1.01050E-18
 -1      2894 9.52576E-05-2.84735E-05-2.86222E-05 1.69243E-07 1.29146E-18 6.09039E-19
 -1      2895 9.52424E-05-2.85291E-05-2.85915E-05 5.75529E-08 2.15477E-18 8.98219E-20
 -1      2896 9.52502E-05-2.85224E-05-2.85969E-05 7.83403E-08 1.61081E-18 7.48063E-19
 -1      2897 9.52489E-05-2.85011E-05-2.86065E-05 1.03230E-07 1.76889E-18-8.79073E-20
 -1      2898 9.52351E-05-2.85418E-05-2.85829E-05 2.50014E-08 1.52383E-18 5.63492E-20
 -1      2899 9.52398E-05-2.85364E-05-2.85866E-05 3.91782E-08 2.52110E-18 5.49749E-19
 -1      2900 9.52432E-05-2.85226E-05-2.85948E-05 5.62933E-08 2.25146E-18 6.50777E-19
 -1      2901 9.52310E-05-2.85514E-05-2.85770E-05 3.43654E-09 1.62961E-18-9.45432E-19
 -1      2902 9.52334E-05-2.85472E-05-2.85794E-05 1.26857E-08 1.39841E-18-6.78051E-19
 -1      2903 9.52394E-05-2.85388E-05-2.85862E-05 2.39862E-08 1.65888E-18 1.32483E-19
 -1      2904 9.52290E-05-2.85585E-05-2.85731E-05-1.00902E-08 4.24159E-20-1.74804E-20
 -1      2905 9.52299E-05-2.85553E-05-2.85746E-05-4.41894E-09 7.17854E-19-6.60822E-19
 -1      2906 9.52370E-05-2.85507E-05-2.85800E-05 2.62955E-09 6.82842E-19-6.28158E-19
 -1      2907 9.52284E-05-2.85637E-05-2.85706E-05-1.78912E-08 6.05422E-19 2.91388E-19
 -1      2908 9.52283E-05-2.85613E-05-2.85714E-05-1.47469E-08 7.44192E-19 5.69402E-19
 -1      2909 9.52356E-05-2.85593E-05-2.85757E-05-1.07304E-08-2.18447E-20-3.69956E-19
 -1      2910 9.52287E-05-2.85673E-05-2.85692E-05-2.17289E-08 2.43506E-18-4.48612E-19
 -1      2911 9.52281E-05-2.85655E-05-2.85696E-05-2.03174E-08 1.56593E-18-1.04523E-19
 -1      2912 9.52349E-05-2.85652E-05-2.85728E-05-1.84008E-08 1.68386E-18-4.17800E-19
 -1      2913 9.52296E-05-2.85698E-05-2.85685E-05-2.29035E-08 2.92926E-18-1.02436E-18
 -1      2914 9.52286E-05-2.85685E-05-2.85686E-05-2.26454E-08 2.47479E-18-5.61241E-19
 -1      2915 9.52347E-05-2.85692E-05-2.85710E-05-2.21339E-08 2.57874E-18-1.33312E-19
 -1      2916 9.52309E-05-2.85716E-05-2.85683E-05-2.23353E-08 2.03875E-18-8.43342E-19
 -1      2917 9.52297E-05-2.85706E-05-2.85682E-05-2.28276E-08 2.18375E-18-9.28318E-19
 -1      2918 9.52348E-05-2.85718E-05-2.85699E-05-2.32188E-08 2.21335E-18 2.12431E-19
 -1      2919 9.52323E-05-2.85729E-05-2.85683E-05-2.06353E-08-5.00145E-19 6.53067E-19
 -1      2920 9.52311E-05-2.85722E-05-2.85681E-05-2.16177E-08 1.60354E-18 1.33561E-19
 -1      2921 9.52352E-05-2.85736E-05-2.85693E-05-2.25647E-08 1.04049E-18 1.98491E-18
 -1      2922 9.52338E-05-2.85741E-05-2.85684E-05-1.81717E-08-1.21367E-18 3.56180E-19
 -1      2923 9.52326E-05-2.85734E-05-2.85682E-05-1.95016E-08-1.43424E-18 2.36944E-19
 -1      2924 9.52357E-05-2.85749E-05-2.85689E-05-2.07741E-08-6.89487E-19 2.00901E-18
 -1      2925 9.52355E-05-2.85754E-05-2.85686E-05-1.52320E-08-2.94425E-19 5.84052E-19
 -1      2926 9.52343E-05-2.85747E-05-2.85684E-05-1.68366E-08-5.90234E-19 1.02812E-18
 -1      2927 9.52366E-05-2.85761E-05-2.85688E-05-1.82857E-08-1.43462E-18 4.77499E-19
 -1      2928 9.52376E-05-2.85774E-05-2.85687E-05-1.52902E-08-7.48474E-19 4.29795E-19
 -1      2929 9.52436E-05-2.85830E-05-2.85688E-05-1.33474E-08-3.71852E-19-1.39627E-18
 -1      2930 9.52422E-05-2.85816E-05-2.85689E-05-1.42397E-08 1.78865E-19-9.72081E-19
 -1      2931 9.52477E-05-2.85868E-05-2.85689E-05-6.10328E-09-1.30738E-18 1.47875E-18
 -1      2932 9.52470E-05-2.85861E-05-2.85690E-05-8.16866E-09-1.24153E-18 1.11071E-18
 -1      2933 9.52409E-05-2.85804E-05-2.85688E-05-1.49968E-08-1.63969E-19 7.31928E-19
 -1      2934 9.52392E-05-2.85787E-05-2.85688E-05-1.51015E-08-4.75909E-19 6.40361E-19
 -1      2935 9.52387E-05-2.85780E-05-2.85689E-05-1.67360E-08-3.20020E-19 1.89996E-19
 -1      2936 9.52420E-05-2.85806E-05-2.85692E-05-1.58789E-08 5.18219E-19-3.26489E-19
 -1      2937 1.43771E-04-6.46566E-05-3.41774E-05 8.64643E-06-7.83294E-19 1.54107E-18
 -1      2938 9.52461E-05-2.85853E-05-2.85689E-05-1.02577E-08-1.48731E-18-1.41091E-18
 -1      2939 9.52450E-05-2.85842E-05-2.85689E-05-1.18627E-08-9.99143E-19-1.68494E-18
 -1      2940 9.52449E-05-2.85830E-05-2.85694E-05-1.36741E-08-1.96725E-19-2.04579E-18
 -1      2941 9.52475E-05-2.85851E-05-2.85696E-05-9.95829E-09-5.12139E-19 5.58607E-20
 -1      2942 9.52482E-05-2.85873E-05-2.85690E-05 3.56752E-09-1.05523E-18 1.84730E-18
 -1      2943 9.52484E-05-2.85875E-05-2.85689E-05 1.25765E-09-1.32673E-18 3.66251E-18
 -1      2944 9.52471E-05-2.85862E-05-2.85689E-05 8.05836E-09-2.54935E-19 2.85797E-19
 -1      2945 9.52478E-05-2.85869E-05-2.85689E-05 6.00887E-09-1.40353E-18 4.43434E-19
 -1      2946 9.52492E-05-2.85864E-05-2.85698E-05 5.13441E-09-3.75521E-19 9.97432E-19
 -1      2947 9.52451E-05-2.85843E-05-2.85689E-05 1.18267E-08-1.51573E-19-7.98579E-19
 -1      2948 9.52462E-05-2.85854E-05-2.85689E-05 1.01901E-08-7.38121E-19 2.66002E-19
 -1      2949 9.52477E-05-2.85852E-05-2.85696E-05 9.85594E-09-7.53457E-19 5.92425E-19
 -1      2950 9.52423E-05-2.85817E-05-2.85688E-05 1.43116E-08-4.48744E-19-1.73420E-19
 -1      2951 9.52438E-05-2.85831E-05-2.85688E-05 1.33648E-08 3.22021E-19-9.62187E-19
 -1      2952 9.52451E-05-2.85832E-05-2.85694E-05 1.36632E-08-2.70955E-19-9.58611E-20
 -1      2953 7.44224E-05-3.57551E-05-1.58991E-05-3.37586E-05-1.59740E-18-5.79900E-19
 -1      2954 8.93530E-05-4.49955E-05-1.89420E-05-3.52375E-05-1.44811E-18-8.78373E-19
 -1      2955 1.30874E-04-6.21824E-05-2.90549E-05 1.80265E-05-1.38712E-18 1.79687E-18
 -1      2956 6.76702E-05-3.45479E-05-1.36358E-05-4.19658E-05 1.49660E-18 3.03990E-18
 -1      2957 8.64148E-05-4.43241E-05-1.80936E-05-4.32131E-05 1.16086E-18 2.37984E-18
 -1      2958 9.52484E-05-2.85875E-05-2.85689E-05-1.33609E-09-1.31740E-18 3.89145E-18
 -1      2959 9.52482E-05-2.85872E-05-2.85690E-05-3.63938E-09-9.87618E-19 1.18225E-18
 -1      2960 9.52497E-05-2.85868E-05-2.85698E-05-5.35570E-11-1.86621E-20 3.41093E-18
 -1      2961 1.06134E-04-5.30594E-05-2.22754E-05-3.74079E-05 9.86582E-19 1.56417E-18
 -1      2962 1.19305E-04-5.78553E-05-2.66073E-05-3.18512E-05 3.32249E-19 1.14842E-18
 -1      2963 1.06858E-04-5.35173E-05-2.24942E-05-2.99189E-05-1.72816E-18 9.26389E-19
 -1      2964 1.24354E-04-6.13615E-05-2.71010E-05-2.29600E-05-1.45139E-18 1.96725E-18
 -1      2965 9.03844E-05-1.41569E-05-3.26692E-05-1.21460E-06 2.13935E-18 1.88799E-18
 -1      2966 8.10526E-05-4.13598E-05-1.67493E-05 3.76194E-05-9.85629E-19 3.77353E-18
 -1      2967 6.24971E-05-3.02529E-05-1.33163E-05 3.37257E-05-6.46921E-19 3.83282E-18
 -1      2968 9.10700E-05-1.73249E-05-3.16120E-05-5.43522E-07-3.46758E-19 3.13331E-18
 -1      2969 8.92494E-05-1.60671E-05-3.13846E-05-1.88575E-06-1.27165E-19 3.17507E-18
 -1      2970 8.97173E-05-1.76781E-05-3.08916E-05-3.54690E-06-1.47362E-21 2.93111E-18
 -1      2971 9.35019E-05-2.04087E-05-3.13336E-05-7.72643E-07-4.95510E-19 2.85258E-18
 -1      2972 1.25862E-04-8.09003E-06-5.12249E-05-3.85785E-06-3.09336E-18 2.03415E-18
 -1      2973 1.29075E-04-1.19886E-05-5.06838E-05-8.59430E-06-2.94556E-18 2.48202E-18
 -1      2974 1.41182E-04-4.83993E-05-3.98159E-05-8.09441E-07-1.94886E-18-4.53057E-19
 -1      2975 1.41123E-04-4.12308E-05-4.34360E-05 4.63301E-06-2.64528E-18-2.26370E-19
 -1      2976 4.79908E-05-2.15309E-05-1.08319E-05 2.81407E-05-1.69936E-19 4.34041E-18
 -1      2977 3.74165E-05-1.40706E-05-9.46858E-06 1.54759E-05 2.47492E-19 4.44586E-18
 -1      2978 6.37516E-05-2.58798E-05-1.56417E-05 2.91143E-05-5.21137E-19 3.66045E-18
 -1      2979 1.30348E-04-5.82210E-05-3.07181E-05-2.12467E-05-1.95665E-19 4.63115E-19
 -1      2980 1.38444E-04-5.55832E-05-3.59946E-05-1.12505E-05-1.28087E-18-9.76205E-20
 -1      2981 4.19356E-05-1.90833E-05-9.28291E-06-3.03627E-05 1.59899E-18 3.75850E-18
 -1      2982 5.41367E-05-2.68287E-05-1.13511E-05-3.93109E-05 1.37770E-18 3.45537E-18
 -1      2983 6.78614E-05-3.02207E-05-1.55708E-05-3.80620E-05 1.67109E-18 3.10099E-18
 -1      2984 3.05257E-05-1.01029E-05-8.27513E-06-2.82145E-06 9.32997E-19 4.36773E-18
 -1      2985 3.25108E-05-1.26225E-05-7.92846E-06-1.85337E-05 1.44255E-18 4.24385E-18
 -1      2986 1.09814E-04-5.63067E-05-2.31823E-05 3.24848E-05-1.49067E-18 2.84000E-18
 -1      2987 9.45481E-05-4.86909E-05-1.91624E-05 3.55753E-05-1.41952E-18 3.55277E-18
 -1      2988 9.03399E-05-4.20488E-05-2.01600E-05 3.32743E-05-1.30337E-18 3.10877E-18
 -1      2989 1.51753E-04-5.77101E-05-3.99656E-05 8.28509E-06 1.39209E-18 4.11584E-18
 -1      2990 7.74619E-05-6.63227E-06-3.03721E-05-3.44989E-06 1.34864E-18 2.94471E-18
 -1      2991 7.85065E-05-7.20875E-06-3.05894E-05-2.71962E-06 1.56708E-18 2.77315E-18
 -1      2992 1.03110E-04-3.24200E-05-3.02918E-05 7.03910E-06-5.55085E-19 1.74012E-18
 -1      2993 1.03687E-04-3.31942E-05-3.02229E-05 6.31180E-06-3.49907E-19 1.70052E-18
 -1      2994 1.05597E-04-3.44248E-05-3.04891E-05 5.81599E-06-3.10322E-19 1.54246E-18
 -1      2995 1.05114E-04-3.28327E-05-3.09496E-05 7.82563E-06-6.13143E-19 1.57142E-18
 -1      2996 1.38262E-04-3.14889E-05-4.60677E-05 9.74936E-06-3.17743E-18-5.92923E-20
 -1      2997 1.34256E-04-2.21275E-05-4.88225E-05 1.06217E-05-3.62869E-18 5.70053E-19
 -1      2998 1.32936E-04-1.96316E-05-4.92672E-05-1.06373E-05-2.35327E-18 2.73798E-18
 -1      2999 1.36883E-04-2.89741E-05-4.64832E-05-1.06578E-05-1.78502E-18 2.66646E-18
 -1      3000 1.36111E-04-5.70481E-05-3.44453E-05 1.34036E-05 1.02674E-18 2.05575E-18
 -1      3001 1.28114E-04-5.86636E-05-2.95624E-05 2.31992E-05 1.97899E-18 8.11881E-19
 -1      3002 1.23619E-04-5.79515E-05-2.79744E-05 2.42195E-05 2.09842E-18 6.99120E-19
 -1      3003 1.22699E-04-5.72386E-05-2.77871E-05 2.05779E-05-1.53292E-18 2.05405E-18
 -1      3004 8.12931E-05-1.13552E-05-2.99705E-05-6.75901E-06 8.63348E-19 3.28750E-18
 -1      3005 7.97354E-05-8.90398E-06-3.03321E-05-5.77651E-06 9.05311E-19 3.42411E-18
 -1      3006 7.84461E-05-7.98957E-06-3.02456E-05-5.80273E-06 1.07795E-18 3.36570E-18
 -1      3007 9.92072E-05-2.39922E-05-3.22196E-05 5.50884E-06-1.67937E-18 2.30283E-18
 -1      3008 1.34199E-04-3.54622E-05-4.25977E-05-9.80901E-06-1.09569E-18 2.85567E-18
 -1      3009 9.66698E-05-4.83504E-05-2.03093E-05 3.84638E-05 2.18016E-18-3.61895E-19
 -1      3010 9.84834E-05-4.38268E-05-2.35825E-05 3.01399E-05-1.23434E-18 2.55020E-18
 -1      3011 1.13319E-04-5.02772E-05-2.66031E-05 2.38679E-05-1.53826E-18 1.86787E-18
 -1      3012 9.52491E-05-2.85863E-05-2.85698E-05-5.26562E-09 7.91555E-20 1.14692E-18
 -1      3013 4.52076E-05-1.07796E-05-1.43478E-05-9.00073E-07-9.66359E-19 1.20258E-18
 -1      3014 4.16433E-05-1.19304E-05-1.20198E-05-7.98442E-06-1.06140E-18 1.22661E-18
 -1      3015 4.94445E-05-1.47561E-05-1.48206E-05-1.55964E-05-7.94676E-19 4.37069E-19
 -1      3016 9.39292E-05-1.76960E-05-3.26553E-05 8.09787E-07 2.15815E-18 1.53950E-18
 -1      3017 9.49826E-05-1.96292E-05-3.22756E-05 3.46473E-06 1.99477E-18 1.40138E-18
 -1      3018 1.27969E-04-1.83871E-05-4.74385E-05 1.06461E-05-3.17595E-18 7.09284E-19
 -1      3019 1.35167E-04-3.64322E-05-4.25511E-05 9.31905E-06-2.43003E-18-1.16891E-19
 -1      3020 8.03234E-05-8.34222E-06-3.08837E-05-1.34626E-06 1.66574E-18 2.57198E-18
 -1      3021 8.27963E-05-9.95201E-06-3.12484E-05-6.99461E-07 1.83864E-18 2.40605E-18
 -1      3022 7.91928E-05-8.65729E-06-3.01881E-05-1.29909E-06 1.52914E-18 2.57490E-18
 -1      3023 1.37224E-04-5.21693E-05-3.65638E-05-3.90793E-06-1.06479E-18-4.24575E-19
 -1      3024 1.25766E-04-5.73888E-05-2.91290E-05-2.23199E-05 3.89476E-19 4.08852E-19
 -1      3025 4.48976E-05-1.53511E-05-1.20336E-05-2.36682E-05 1.67194E-18 3.94664E-18
 -1      3026 1.02343E-04-4.81942E-05-2.29905E-05-2.87312E-05-1.71757E-18 8.15613E-19
 -1      3027 6.78462E-05-2.84054E-05-1.64844E-05-2.88916E-05-8.13575E-19-1.92700E-19
 -1      3028 9.52396E-05-2.85793E-05-2.85687E-05 1.49660E-08-3.65860E-19 5.93189E-19
 -1      3029 9.52410E-05-2.85807E-05-2.85687E-05 1.47946E-08-7.46709E-19 6.98286E-19
 -1      3030 9.52422E-05-2.85809E-05-2.85691E-05 1.57256E-08-5.61868E-19 4.39527E-19
 -1      3031 9.52394E-05-2.85788E-05-2.85688E-05 1.61793E-08-4.47728E-19 1.20248E-18
 -1      3032 9.09624E-05-1.72291E-05-3.15789E-05 4.29244E-06 1.88419E-18 1.48490E-18
 -1      3033 1.02103E-04-3.04680E-05-3.07161E-05 1.90193E-06-1.01815E-18 1.79297E-18
 -1      3034 1.01615E-04-2.99092E-05-3.07363E-05 2.19499E-06-1.21244E-18 1.93561E-18
 -1      3035 1.01377E-04-2.92041E-05-3.09129E-05 2.48804E-06-1.32473E-18 1.91119E-18
 -1      3036 1.35885E-04-5.29940E-05-3.56189E-05 4.97190E-06 8.56767E-19 2.33061E-18
 -1      3037 1.35073E-04-6.32710E-05-3.05669E-05-1.25244E-05-1.49464E-18 2.62326E-18
 -1      3038 1.44628E-04-6.32200E-05-3.53246E-05-2.53766E-06-4.18911E-19 3.97004E-18
 -1      3039 6.17920E-05-2.79106E-05-1.39460E-05 3.64926E-05 8.66885E-19-1.88613E-18
 -1      3040 5.95262E-05-2.26574E-05-1.53616E-05 3.08082E-05 6.15105E-19-9.90499E-19
 -1      3041 7.21969E-05-3.31105E-05-1.68395E-05 3.75117E-05 1.23646E-18-1.33312E-18
 -1      3042 7.74694E-05-6.98624E-06-3.01977E-05-5.13953E-06 1.15451E-18 3.35987E-18
 -1      3043 7.71827E-05-6.69480E-06-3.02532E-05-4.66496E-06 1.28623E-18 3.16129E-18
 -1      3044 7.72322E-05-7.63866E-06-2.97784E-05-4.13464E-06 1.25759E-18 2.98363E-18
 -1      3045 7.81875E-05-8.76137E-06-2.97245E-05-6.17262E-06 1.12260E-18 3.21621E-18
 -1      3046 9.80334E-05-4.74295E-05-2.13474E-05-3.74632E-05 1.31523E-18 1.83864E-18
 -1      3047 9.95655E-05-2.54325E-05-3.17503E-05 3.94619E-06-1.48478E-18 2.15293E-18
 -1      3048 1.29044E-04-5.97227E-05-2.96468E-05-1.45566E-05-1.75198E-18 2.92426E-18
 -1      3049 1.20260E-04-5.32754E-05-2.82590E-05-1.90255E-05-1.80447E-18 2.45869E-18
 -1      3050 1.19168E-04-8.77479E-06-4.77131E-05 3.43525E-06-3.15784E-18 1.50049E-18
 -1      3051 1.23250E-04-8.20019E-06-4.98879E-05-3.80521E-07-2.99225E-18 1.74580E-18
 -1      3052 1.18217E-04-9.62935E-06-4.69379E-05-3.33400E-06-2.64285E-18 1.90487E-18
 -1      3053 4.77097E-05-1.28607E-05-1.44993E-05 1.42861E-05 7.54124E-20 3.87941E-18
 -1      3054 3.74967E-05-1.05734E-05-1.08477E-05 6.83388E-06 5.27913E-19 4.33914E-18
 -1      3055 4.12422E-05-9.00080E-06-1.33465E-05-1.16888E-06 9.77370E-19 3.81673E-18
 -1      3056 1.05656E-04-4.71510E-05-2.51110E-05-2.57477E-05-1.85220E-18 1.97843E-18
 -1      3057 1.25742E-04-1.71220E-05-4.69441E-05-1.05278E-05-2.46338E-18 2.37699E-18
 -1      3058 9.87214E-05-2.56011E-05-3.13716E-05 1.65867E-06-9.89752E-19 2.39264E-18
 -1      3059 9.74402E-05-2.44559E-05-3.12650E-05 5.01977E-07-7.78810E-19 2.53094E-18
 -1      3060 1.01274E-04-2.83282E-05-3.12318E-05 3.51824E-06-1.44794E-18 1.90880E-18
 -1      3061 1.27044E-04-3.05130E-05-4.19049E-05-1.25795E-05-1.54610E-18 2.85297E-18
 -1      3062 1.31412E-04-3.98655E-05-3.91811E-05-9.71128E-06-5.39031E-19 2.80225E-18
 -1      3063 8.68698E-05-3.59575E-05-2.15076E-05 3.02823E-05-1.11432E-18 2.75767E-18
 -1      3064 8.45174E-05-1.74019E-05-2.88026E-05 1.09473E-05 1.13372E-18 1.91921E-18
 -1      3065 8.40475E-05-1.85248E-05-2.80336E-05 1.33675E-05 8.28055E-19 1.98735E-18
 -1      3066 8.20094E-05-1.94941E-05-2.68129E-05 1.61427E-05 5.05811E-19 2.10750E-18
 -1      3067 8.24389E-05-2.19160E-05-2.57924E-05 1.88524E-05 1.54574E-19 2.26178E-18
 -1      3068 7.73188E-05-1.57043E-05-2.63273E-05 1.29018E-05 7.88175E-19 2.08083E-18
 -1      3069 8.18703E-05-2.48301E-05-2.43202E-05 2.27163E-05-1.98312E-19 2.28238E-18
 -1      3070 8.45624E-05-2.98633E-05-2.31216E-05 2.59405E-05-7.36283E-19 2.44525E-18
 -1      3071 7.48805E-05-2.79978E-05-1.99344E-05 2.89552E-05-5.81912E-19 2.95472E-18
 -1      3072 7.41393E-05-1.93123E-05-2.34313E-05 1.95522E-05 1.02438E-19 2.51373E-18
 -1      3073 1.00522E-04-2.10387E-05-3.40443E-05 1.61704E-06-1.17987E-18 1.75503E-18
 -1      3074 1.01122E-04-2.21405E-05-3.38968E-05 4.26206E-06-1.14457E-18 1.54537E-18
 -1      3075 5.26697E-05-1.59060E-05-1.54349E-05 2.17057E-05-8.58587E-19-4.15893E-19
 -1      3076 4.79363E-05-1.19985E-05-1.51297E-05 1.22645E-05-1.48286E-18 5.21137E-19
 -1      3077 8.74793E-05-1.29507E-05-3.19831E-05 1.99093E-07 1.95403E-18 2.02279E-18
 -1      3078 1.23213E-04-2.19964E-05-4.36733E-05 1.21096E-05-2.50224E-18 4.52739E-19
 -1      3079 1.20064E-04-1.42054E-05-4.59303E-05 8.80253E-06-2.98251E-18 1.11364E-18
 -1      3080 1.18894E-04-1.47268E-05-4.51540E-05-9.60206E-06-2.29567E-18 1.99757E-18
 -1      3081 1.23233E-04-2.12192E-05-4.39268E-05-1.28955E-05-2.13855E-18 2.56683E-18
 -1      3082 8.23424E-05-2.33879E-05-2.51051E-05-1.92365E-05-1.05027E-18 1.17041E-18
 -1      3083 8.17424E-05-2.14136E-05-2.59013E-05-1.72728E-05-5.92698E-19 7.80726E-19
 -1      3084 8.39096E-05-2.09524E-05-2.69210E-05-1.51640E-05-3.71386E-19 8.13152E-19
 -1      3085 8.44031E-05-2.04642E-05-2.74616E-05-1.36189E-05 1.55791E-20-1.77761E-20
 -1      3086 7.73261E-05-1.83330E-05-2.51711E-05-1.45090E-05-5.50909E-19 1.26762E-18
 -1      3087 8.63684E-05-2.07950E-05-2.80814E-05-1.22204E-05 1.97454E-19 1.08620E-19
 -1      3088 8.71083E-05-2.09917E-05-2.83850E-05-1.09902E-05 3.87212E-19-1.31069E-19
 -1      3089 8.15272E-05-1.85852E-05-2.69046E-05-1.13207E-05 1.59611E-19 9.13090E-19
 -1      3090 8.87184E-05-2.16340E-05-2.87430E-05-9.97069E-06 4.06869E-19-5.33712E-19
 -1      3091 8.94098E-05-2.20956E-05-2.88868E-05-8.94525E-06 3.56062E-19-8.47857E-19
 -1      3092 8.50981E-05-1.97701E-05-2.79447E-05-9.20291E-06 2.91906E-19-7.32768E-19
 -1      3093 9.06582E-05-2.28002E-05-2.90782E-05-8.13265E-06-6.96230E-20-3.30471E-19
 -1      3094 9.12009E-05-2.33140E-05-2.91230E-05-7.26084E-06-3.73559E-19-4.51681E-19
 -1      3095 8.79217E-05-2.12352E-05-2.85398E-05-7.59752E-06 7.64898E-20-6.22664E-19
 -1      3096 9.21323E-05-2.39636E-05-2.92115E-05-6.58164E-06-5.38514E-19-3.85371E-19
 -1      3097 9.25180E-05-2.44346E-05-2.92002E-05-5.84219E-06-1.01360E-18-8.18744E-19
 -1      3098 9.00643E-05-2.26692E-05-2.88541E-05-6.26641E-06-5.96157E-19-9.23062E-19
 -1      3099 9.31929E-05-2.49848E-05-2.92279E-05-5.26642E-06-9.95711E-19-2.70020E-19
 -1      3100 9.34481E-05-2.53801E-05-2.91883E-05-4.64701E-06-2.29303E-19-6.64255E-19
 -1      3101 9.16395E-05-2.39333E-05-2.89960E-05-5.12018E-06-8.95583E-19-5.10339E-19
 -1      3102 9.39263E-05-2.58243E-05-2.91820E-05-4.16096E-06 3.44115E-20-3.67632E-19
 -1      3103 9.40848E-05-2.61407E-05-2.91312E-05-3.65008E-06-1.62289E-19 1.24337E-20
 -1      3104 9.27696E-05-2.49843E-05-2.90364E-05-4.12885E-06 2.05451E-19 1.21332E-19
 -1      3105 9.44180E-05-2.64891E-05-2.91077E-05-3.24473E-06 2.36736E-19-3.77400E-20
 -1      3106 9.45102E-05-2.67357E-05-2.90553E-05-2.82977E-06 2.47887E-19 2.42592E-19
 -1      3107 9.35651E-05-2.58280E-05-2.90205E-05-3.28124E-06 3.26222E-19 1.16790E-19
 -1      3108 9.47393E-05-2.70045E-05-2.90248E-05-2.49669E-06-2.39934E-19 5.95067E-19
 -1      3109 9.47886E-05-2.71939E-05-2.89759E-05-2.16440E-06-4.26944E-19 5.93621E-19
 -1      3110 9.41171E-05-2.64906E-05-2.89765E-05-2.56870E-06 6.03319E-20-6.71223E-19
 -1      3111 9.49445E-05-2.73990E-05-2.89441E-05-1.89484E-06-1.07092E-18 5.14745E-19
 -1      3112 9.49676E-05-2.75434E-05-2.89011E-05-1.63221E-06-1.47483E-18 8.01987E-20
 -1      3113 9.44959E-05-2.70041E-05-2.89211E-05-1.98038E-06-6.98850E-19-5.51351E-19
 -1      3114 9.50728E-05-2.76990E-05-2.88710E-05-1.41728E-06-1.48130E-18 7.10430E-19
 -1      3115 9.50807E-05-2.78087E-05-2.88346E-05-1.21227E-06-1.38220E-18 5.32443E-19
 -1      3116 9.47535E-05-2.73986E-05-2.88639E-05-1.50298E-06-1.41192E-18 1.23933E-18
 -1      3117 9.51512E-05-2.79262E-05-2.88077E-05-1.04335E-06-1.16082E-18 5.76491E-19
 -1      3118 9.51510E-05-2.80094E-05-2.87777E-05-8.85263E-07-5.47354E-19-1.66713E-19
 -1      3119 9.49273E-05-2.77000E-05-2.88103E-05-1.12188E-06-1.44653E-18 9.82498E-19
 -1      3120 9.51978E-05-2.80979E-05-2.87547E-05-7.54406E-07 5.47350E-19-8.41626E-19
 -1      3121 9.51938E-05-2.81608E-05-2.87304E-05-6.34010E-07 8.16179E-19-8.61992E-19
 -1      3122 9.50438E-05-2.79293E-05-2.87625E-05-8.22401E-07-6.13451E-19-2.18212E-19
 -1      3123 9.52246E-05-2.82272E-05-2.87112E-05-5.34113E-07 6.93640E-19-7.19354E-19
 -1      3124 9.52193E-05-2.82746E-05-2.86920E-05-4.43626E-07-4.74177E-19-5.12485E-19
 -1      3125 9.51212E-05-2.81030E-05-2.87216E-05-5.90657E-07 1.02949E-18-6.79160E-19
 -1      3126 9.52392E-05-2.83242E-05-2.86763E-05-3.68527E-07-4.25044E-20 3.23550E-19
 -1      3127 9.52339E-05-2.83599E-05-2.86613E-05-3.01494E-07 2.87314E-19 7.66819E-19
 -1      3128 9.51720E-05-2.82340E-05-2.86875E-05-4.14092E-07 4.93075E-19 2.45164E-19
 -1      3129 9.52465E-05-2.83966E-05-2.86488E-05-2.45968E-07-2.95121E-20 1.21377E-18
 -1      3130 9.52418E-05-2.84233E-05-2.86372E-05-1.97111E-07-7.49274E-19 1.81832E-18
 -1      3131 9.52048E-05-2.83321E-05-2.86597E-05-2.81733E-07 3.54310E-19 6.43589E-19
 -1      3132 9.52495E-05-2.84502E-05-2.86274E-05-1.56810E-07-8.40962E-19 2.72274E-18
 -1      3133 9.52457E-05-2.84700E-05-2.86186E-05-1.21866E-07 2.03652E-19 2.64247E-18
 -1      3134 9.52255E-05-2.84050E-05-2.86374E-05-1.84231E-07 1.48352E-19 2.45602E-18
 -1      3135 9.52501E-05-2.84896E-05-2.86110E-05-9.32327E-08 3.80973E-20 2.78419E-18
 -1      3136 9.52471E-05-2.85040E-05-2.86045E-05-6.87973E-08-5.89216E-20 2.76118E-18
 -1      3137 9.52380E-05-2.84586E-05-2.86198E-05-1.13794E-07 2.47891E-19 3.15930E-18
 -1      3138 9.52494E-05-2.85180E-05-2.85987E-05-4.89679E-08-9.20656E-20 2.43905E-18
 -1      3139 9.52471E-05-2.85285E-05-2.85939E-05-3.23538E-08 3.54089E-19 2.13259E-18
 -1      3140 9.52452E-05-2.84975E-05-2.86062E-05-6.40455E-08-7.70468E-19 3.41664E-18
 -1      3141 9.52481E-05-2.85383E-05-2.85895E-05-1.90565E-08 6.60445E-19 1.41284E-18
 -1      3142 9.52464E-05-2.85458E-05-2.85861E-05-8.16870E-09 5.87233E-19 1.17292E-18
 -1      3143 9.52487E-05-2.85253E-05-2.85958E-05-2.98548E-08 3.75767E-20 2.51992E-18
 -1      3144 9.52465E-05-2.85525E-05-2.85829E-05 3.71278E-10-1.53880E-20 1.54554E-18
 -1      3145 9.52454E-05-2.85576E-05-2.85805E-05 7.14428E-09-4.49637E-19 4.16460E-19
 -1      3146 9.52499E-05-2.85447E-05-2.85880E-05-7.16035E-09 6.43740E-19 1.78299E-19
 -1      3147 9.52449E-05-2.85621E-05-2.85782E-05 1.22911E-08-6.48672E-19 6.10765E-19
 -1      3148 9.52442E-05-2.85656E-05-2.85766E-05 1.61694E-08 6.81370E-19 2.37642E-19
 -1      3149 9.52498E-05-2.85580E-05-2.85823E-05 7.20107E-09-3.67361E-19 1.01185E-18
 -1      3150 9.52434E-05-2.85684E-05-2.85749E-05 1.89525E-08 1.16986E-18-1.16843E-19
 -1      3151 9.52430E-05-2.85707E-05-2.85738E-05 2.08427E-08 2.57750E-19-6.38880E-19
 -1      3152 9.52487E-05-2.85667E-05-2.85781E-05 1.56501E-08 7.39954E-19 7.57090E-19
 -1      3153 9.52421E-05-2.85724E-05-2.85727E-05 2.20214E-08 1.34806E-19-7.22627E-19
 -1      3154 9.52419E-05-2.85739E-05-2.85720E-05 2.25796E-08-4.26869E-19-2.05396E-19
 -1      3155 9.52473E-05-2.85722E-05-2.85751E-05 2.00028E-08 4.06299E-19-1.29612E-18
 -1      3156 9.52410E-05-2.85749E-05-2.85712E-05 2.27050E-08-1.21068E-18-6.13929E-19
 -1      3157 9.52409E-05-2.85758E-05-2.85708E-05 2.23875E-08-1.89168E-18 7.48545E-19
 -1      3158 9.52457E-05-2.85756E-05-2.85729E-05 2.15876E-08-7.38646E-19-4.38866E-19
 -1      3159 9.52401E-05-2.85764E-05-2.85702E-05 2.18290E-08-1.53589E-18 8.27204E-19
 -1      3160 9.52402E-05-2.85770E-05-2.85699E-05 2.09398E-08-1.67362E-18 6.55250E-19
 -1      3161 9.52441E-05-2.85775E-05-2.85714E-05 2.13783E-08-1.28797E-18 8.64383E-19
 -1      3162 9.52395E-05-2.85774E-05-2.85695E-05 1.99318E-08-1.96955E-18 1.34436E-18
 -1      3163 9.52397E-05-2.85780E-05-2.85693E-05 1.86836E-08-1.82090E-18 4.88721E-19
 -1      3164 9.52428E-05-2.85788E-05-2.85703E-05 1.99813E-08-1.07083E-18-3.30289E-19
 -1      3165 1.06530E-04-3.56855E-05-3.04021E-05 3.24847E-06-1.92498E-19 1.34109E-18
 -1      3166 1.06006E-04-3.50849E-05-3.03557E-05 2.31756E-06-2.34069E-19 1.28870E-18
 -1      3167 1.04612E-04-3.39158E-05-3.03371E-05 1.48429E-06-4.59722E-19 1.52493E-18
 -1      3168 1.03858E-04-3.27185E-05-3.04418E-05 1.08575E-06-6.57201E-19 1.57540E-18
 -1      3169 1.06036E-04-3.51442E-05-3.04004E-05 1.01752E-06-3.71007E-19 1.05983E-18
 -1      3170 1.02546E-04-2.42216E-05-3.35019E-05 6.86879E-06-9.92898E-19 1.46758E-18
 -1      3171 1.03745E-04-2.66018E-05-3.31607E-05 8.38286E-06-9.18582E-19 1.56528E-18
 -1      3172 1.03967E-04-2.24823E-05-3.49209E-05 6.39125E-06-1.23969E-18 1.46808E-18
 -1      3173 1.05416E-04-2.92818E-05-3.25677E-05 9.04252E-06-1.00352E-18 1.54928E-18
 -1      3174 1.06506E-04-3.16787E-05-3.21585E-05 9.14028E-06-9.50780E-19 1.43367E-18
 -1      3175 1.07214E-04-2.83609E-05-3.37420E-05 9.72092E-06-1.00606E-18 1.40885E-18
 -1      3176 1.00796E-04-2.17096E-05-3.39407E-05-4.67314E-06-1.16316E-18 1.93121E-18
 -1      3177 1.00371E-04-2.08579E-05-3.40636E-05-1.92949E-06-1.21556E-18 1.94215E-18
 -1      3178 1.02283E-04-1.98132E-05-3.53948E-05-4.21458E-08-1.32836E-18 1.44131E-18
 -1      3179 1.03144E-04-2.58400E-05-3.32154E-05-9.16223E-06-5.82221E-19 2.33423E-18
 -1      3180 1.01993E-04-2.35626E-05-3.35599E-05-7.45822E-06-9.58755E-19 2.34488E-18
 -1      3181 1.03406E-04-2.18494E-05-3.49862E-05-6.70105E-06-1.28672E-18 2.10394E-18
 -1      3182 1.05919E-04-3.10761E-05-3.21523E-05-1.03217E-05 3.55820E-20 2.62168E-18
 -1      3183 1.04726E-04-2.85696E-05-3.25910E-05-1.01108E-05-3.23914E-19 2.51766E-18
 -1      3184 1.06334E-04-2.73115E-05-3.38504E-05-1.04493E-05-6.97810E-19 2.34931E-18
 -1      3185 1.07450E-04-3.50107E-05-3.10860E-05-8.59632E-06 6.72518E-19 3.25527E-18
 -1      3186 1.06791E-04-3.32719E-05-3.14951E-05-9.51643E-06 5.96533E-19 3.28104E-18
 -1      3187 1.08884E-04-3.31694E-05-3.24186E-05-1.02560E-05 4.26676E-20 2.90640E-18
 -1      3188 1.07251E-04-3.67115E-05-3.02307E-05-5.44837E-06 6.16810E-19 3.14582E-18
 -1      3189 1.07278E-04-3.60502E-05-3.05418E-05-6.87724E-06 7.08974E-19 2.86708E-18
 -1      3190 1.09555E-04-3.69172E-05-3.10917E-05-7.41517E-06 7.70946E-19 3.20133E-18
 -1      3191 1.05728E-04-3.64815E-05-2.96546E-05-2.23065E-06 7.63081E-19 2.98586E-18
 -1      3192 1.06272E-04-3.66737E-05-2.98563E-05-3.65307E-06 6.34929E-19 2.94450E-18
 -1      3193 1.08304E-04-3.80556E-05-3.00967E-05-3.70827E-06 6.59828E-19 2.85248E-18
 -1      3194 1.03600E-04-3.51218E-05-2.93170E-05 3.38350E-07 2.47513E-19 2.29652E-18
 -1      3195 1.04397E-04-3.57871E-05-2.94317E-05-7.99983E-07 6.06640E-19 2.59254E-18
 -1      3196 1.05906E-04-3.71930E-05-2.94607E-05-4.61166E-07 8.55720E-19 2.43795E-18
 -1      3197 1.01450E-04-3.33752E-05-2.91459E-05 2.06414E-06 6.35709E-21 1.80192E-18
 -1      3198 1.02283E-04-3.41863E-05-2.92037E-05 1.28423E-06-2.11829E-19 2.29874E-18
 -1      3199 1.03207E-04-3.53329E-05-2.91112E-05 1.83792E-06 3.49251E-19 1.80925E-18
 -1      3200 9.95958E-05-3.17097E-05-2.90711E-05 3.03159E-06-2.93551E-19 1.49463E-18
 -1      3201 1.00337E-04-3.24665E-05-2.90990E-05 2.58097E-06 2.30651E-19 1.89488E-18
 -1      3202 1.00759E-04-3.32605E-05-2.89515E-05 3.19384E-06 3.89484E-20 1.58451E-18
 -1      3203 9.81506E-05-3.03501E-05-2.90411E-05 3.42210E-06-1.54738E-19 1.15216E-18
 -1      3204 9.87495E-05-3.09610E-05-2.90576E-05 3.22897E-06-3.26413E-19 1.24718E-18
 -1      3205 9.88032E-05-3.14197E-05-2.88985E-05 3.80667E-06-1.96339E-19 1.43348E-18
 -1      3206 9.71007E-05-2.93533E-05-2.90243E-05 3.42025E-06-3.12439E-19 7.54141E-19
 -1      3207 9.75552E-05-2.97985E-05-2.90399E-05 3.40793E-06-3.74071E-19 1.12584E-18
 -1      3208 9.73730E-05-2.99895E-05-2.88938E-05 3.90937E-06-3.69609E-19 4.00776E-19
 -1      3209 9.63789E-05-2.86882E-05-2.90045E-05 3.17764E-06 5.48350E-20 1.38379E-18
 -1      3210 9.67092E-05-2.89847E-05-2.90236E-05 3.27988E-06 2.48304E-20 1.01543E-18
 -1      3211 9.63993E-05-2.89860E-05-2.89021E-05 3.69643E-06-3.20093E-19 9.50177E-19
 -1      3212 9.59056E-05-2.82885E-05-2.89761E-05 2.80686E-06 6.00311E-19 1.69301E-18
 -1      3213 9.61386E-05-2.84671E-05-2.89995E-05 2.97239E-06 4.85095E-19 1.53834E-18
 -1      3214 9.57791E-05-2.83487E-05-2.89059E-05 3.31081E-06 1.50746E-19 1.04191E-18
 -1      3215 9.56087E-05-2.80826E-05-2.89391E-05 2.38584E-06 4.02275E-20 1.31125E-18
 -1      3216 9.57696E-05-2.81756E-05-2.89657E-05 2.57795E-06 1.05934E-19 1.40466E-18
 -1      3217 9.54118E-05-2.79925E-05-2.88985E-05 2.85015E-06 4.93120E-19 1.50869E-18
 -1      3218 9.54306E-05-2.80074E-05-2.88963E-05 1.96515E-06 1.81571E-19 1.73665E-18
 -1      3219 9.55404E-05-2.80428E-05-2.89242E-05 2.15936E-06 2.51203E-19 1.34990E-18
 -1      3220 9.52143E-05-2.78348E-05-2.88797E-05 2.37743E-06 5.06457E-19 1.12903E-18
 -1      3221 9.53292E-05-2.80134E-05-2.88508E-05 1.57496E-06 5.37448E-19 1.90817E-18
 -1      3222 9.54036E-05-2.80131E-05-2.88784E-05 1.75629E-06 2.74556E-19 1.82547E-18
 -1      3223 9.51238E-05-2.78062E-05-2.88520E-05 1.93071E-06 3.36692E-19 8.62521E-19
 -1      3224 9.52751E-05-2.80649E-05-2.88058E-05 1.23097E-06-2.61300E-19 1.54535E-18
 -1      3225 9.53254E-05-2.80444E-05-2.88317E-05 1.39142E-06 2.27204E-19 1.82442E-18
 -1      3226 9.50964E-05-2.78544E-05-2.88189E-05 1.53065E-06 3.69767E-19 1.54945E-18
 -1      3227 9.52487E-05-2.81372E-05-2.87635E-05 9.39115E-07-8.49958E-19 1.30591E-18
 -1      3228 9.52828E-05-2.81074E-05-2.87868E-05 1.07547E-06-6.27775E-19 1.41775E-18
 -1      3229 9.51027E-05-2.79420E-05-2.87837E-05 1.18623E-06-3.47052E-19 1.14337E-18
 -1      3230 9.52378E-05-2.82149E-05-2.87254E-05 6.99089E-07-5.98326E-19 1.31609E-18
 -1      3231 9.52610E-05-2.81824E-05-2.87457E-05 8.11241E-07-6.23802E-19 1.08892E-18
 -1      3232 9.51245E-05-2.80444E-05-2.87489E-05 8.98864E-07-5.35840E-19 8.02698E-19
 -1      3233 9.52347E-05-2.82888E-05-2.86922E-05 5.06928E-07 1.52100E-19 5.22168E-19
 -1      3234 9.52506E-05-2.82577E-05-2.87094E-05 5.96618E-07-9.52892E-20 9.05510E-19
 -1      3235 9.51509E-05-2.81463E-05-2.87164E-05 6.65406E-07-3.82511E-19 1.03701E-18
 -1      3236 9.52353E-05-2.83542E-05-2.86642E-05 3.56806E-07 1.18556E-18 2.24376E-19
 -1      3237 9.52462E-05-2.83265E-05-2.86783E-05 4.26727E-07 5.57504E-19 2.23631E-19
 -1      3238 9.51762E-05-2.82394E-05-2.86874E-05 4.80204E-07 2.88087E-19-2.04407E-19
 -1      3239 9.52370E-05-2.84093E-05-2.86411E-05 2.42241E-07 6.67750E-19-2.46897E-19
 -1      3240 9.52445E-05-2.83859E-05-2.86525E-05 2.95437E-07 1.04836E-18-3.61661E-19
 -1      3241 9.51978E-05-2.83197E-05-2.86622E-05 3.36527E-07 1.07390E-18-8.28800E-19
 -1      3242 9.52388E-05-2.84540E-05-2.86226E-05 1.56840E-07 1.40804E-18-6.47741E-19
 -1      3243 9.52440E-05-2.84350E-05-2.86315E-05 1.96332E-07 6.69992E-19-6.81445E-19
 -1      3244 9.52147E-05-2.83860E-05-2.86410E-05 2.27477E-07 9.13152E-19-1.62220E-18
 -1      3245 9.52402E-05-2.84891E-05-2.86080E-05 9.47343E-08 1.79545E-18-1.64327E-18
 -1      3246 9.52437E-05-2.84741E-05-2.86148E-05 1.23303E-07 2.12336E-18-1.38783E-18
 -1      3247 9.52271E-05-2.84389E-05-2.86236E-05 1.46543E-07 1.79361E-18-2.60788E-18
 -1      3248 9.52410E-05-2.85158E-05-2.85968E-05 5.07942E-08 1.97986E-18-1.28056E-18
 -1      3249 9.52434E-05-2.85043E-05-2.86019E-05 7.08697E-08 1.90129E-18-1.73397E-18
 -1      3250 9.52356E-05-2.84799E-05-2.86097E-05 8.79014E-08 1.89095E-18-3.35009E-18
 -1      3251 9.52414E-05-2.85356E-05-2.85884E-05 2.06969E-08 1.69004E-18-9.01621E-19
 -1      3252 9.52429E-05-2.85271E-05-2.85921E-05 3.43244E-08 1.87301E-18-1.00978E-18
 -1      3253 9.52410E-05-2.85108E-05-2.85988E-05 4.65471E-08 1.49877E-18-3.28982E-18
 -1      3254 9.52413E-05-2.85499E-05-2.85822E-05 9.08591E-10 6.66099E-19-4.92917E-19
 -1      3255 9.52423E-05-2.85437E-05-2.85848E-05 9.75591E-09 1.12935E-18-2.62507E-19
 -1      3256 9.52441E-05-2.85334E-05-2.85904E-05 1.83103E-08 1.17509E-18-1.53876E-18
 -1      3257 9.52410E-05-2.85599E-05-2.85777E-05-1.13831E-08 1.59712E-19-6.42012E-19
 -1      3258 9.52416E-05-2.85555E-05-2.85795E-05-5.99345E-09-7.96858E-20-6.70595E-19
 -1      3259 9.52455E-05-2.85495E-05-2.85841E-05-1.89808E-10 3.25800E-19-3.46374E-19
 -1      3260 9.52406E-05-2.85666E-05-2.85746E-05-1.83598E-08 2.22014E-18-7.08869E-19
 -1      3261 9.52408E-05-2.85636E-05-2.85758E-05-1.54068E-08 1.55261E-18-3.33277E-19
 -1      3262 9.52457E-05-2.85606E-05-2.85794E-05-1.16280E-08 7.44163E-19-1.11277E-18
 -1      3263 9.52401E-05-2.85710E-05-2.85725E-05-2.16685E-08 1.64049E-18 9.94188E-19
 -1      3264 9.52401E-05-2.85690E-05-2.85732E-05-2.03864E-08 1.47719E-18-1.64518E-19
 -1      3265 9.52452E-05-2.85680E-05-2.85760E-05-1.80689E-08 1.18509E-18-6.27050E-19
 -1      3266 9.52396E-05-2.85738E-05-2.85710E-05-2.25151E-08 1.45711E-18 1.14322E-18
 -1      3267 9.52395E-05-2.85725E-05-2.85715E-05-2.23489E-08 1.97170E-18 5.74345E-19
 -1      3268 9.52443E-05-2.85727E-05-2.85736E-05-2.10660E-08 1.21142E-18 2.81374E-19
 -1      3269 9.52392E-05-2.85755E-05-2.85701E-05-2.17450E-08 4.61090E-19 2.05086E-18
 -1      3270 9.52390E-05-2.85746E-05-2.85704E-05-2.23124E-08 1.20405E-18 1.81471E-18
 -1      3271 9.52432E-05-2.85755E-05-2.85719E-05-2.17519E-08 7.59342E-19 3.67574E-19
 -1      3272 9.52389E-05-2.85767E-05-2.85695E-05-1.99243E-08-1.09408E-18 2.28114E-18
 -1      3273 9.52387E-05-2.85761E-05-2.85697E-05-2.09741E-08-2.04907E-19 2.55570E-18
 -1      3274 9.52422E-05-2.85773E-05-2.85707E-05-2.09297E-08-2.68504E-19 2.71334E-18
 -1      3275 9.52389E-05-2.85777E-05-2.85691E-05-1.77210E-08-6.71191E-19 9.67951E-19
 -1      3276 9.52385E-05-2.85770E-05-2.85692E-05-1.90637E-08-1.17555E-18 1.68313E-18
 -1      3277 9.52413E-05-2.85783E-05-2.85699E-05-1.93898E-08-7.26099E-19 3.45100E-18
 -1      3278 9.52407E-05-2.85790E-05-2.85693E-05-1.75439E-08-3.75736E-19 1.12590E-18
 -1      3279 9.52484E-05-2.85844E-05-2.85703E-05 1.14876E-08-3.84748E-19 2.43957E-19
 -1      3280 9.52496E-05-2.85851E-05-2.85705E-05 9.28959E-09 9.72302E-20-9.35462E-20
 -1      3281 6.21677E-05-1.96407E-05-1.78779E-05 2.34577E-05-2.45269E-19 3.25144E-18
 -1      3282 9.52452E-05-2.85821E-05-2.85699E-05 1.52840E-08-8.97024E-20-1.77657E-19
 -1      3283 9.52470E-05-2.85834E-05-2.85701E-05 1.37146E-08-4.03825E-19 9.47018E-19
 -1      3284 9.52489E-05-2.85834E-05-2.85709E-05 1.33170E-08 6.09737E-19 5.90180E-19
 -1      3285 9.52505E-05-2.85857E-05-2.85706E-05 6.68191E-09 4.44769E-20-3.62729E-20
 -1      3286 9.52510E-05-2.85861E-05-2.85707E-05 4.15892E-09 1.02442E-18 1.77823E-18
 -1      3287 9.52514E-05-2.85849E-05-2.85714E-05 8.42678E-09 7.89486E-19 2.36441E-19
 -1      3288 1.01000E-04-2.80098E-05-3.13168E-05 3.25208E-06-1.42204E-18 1.94855E-18
 -1      3289 8.73735E-05-1.44424E-05-3.12928E-05 2.49003E-06 1.80542E-18 1.87862E-18
 -1      3290 8.74676E-05-1.54338E-05-3.08739E-05 4.53833E-06 1.72961E-18 1.82380E-18
 -1      3291 9.12234E-05-3.83562E-05-2.20124E-05-2.95322E-05-1.73584E-18 5.27172E-19
 -1      3292 1.33058E-04-4.07873E-05-3.95828E-05 8.62258E-06-1.74902E-18-5.17484E-19
 -1      3293 1.28691E-04-3.22402E-05-4.17530E-05 1.19447E-05-2.25046E-18-1.48548E-19
 -1      3294 5.98124E-05-1.98522E-05-1.63972E-05-2.34442E-05-5.26802E-19 3.27908E-19
 -1      3295 7.47331E-05-2.99791E-05-1.91855E-05-2.88596E-05-6.69844E-19-1.79677E-19
 -1      3296 8.13807E-05-3.04881E-05-2.15691E-05-2.64096E-05-1.11387E-18 7.55130E-19
 -1      3297 9.98793E-05-2.66351E-05-3.13617E-05 2.62711E-06-1.16061E-18 2.00702E-18
 -1      3298 9.10226E-05-4.13851E-05-2.07897E-05-3.65012E-05 1.37172E-18 1.91607E-18
 -1      3299 1.07004E-04-5.08204E-05-2.43584E-05-3.26590E-05 1.23164E-18 1.10175E-18
 -1      3300 8.65576E-05-1.60839E-05-3.02320E-05 6.44977E-06 1.63088E-18 1.80021E-18
 -1      3301 8.59488E-05-1.68543E-05-2.96033E-05 8.86468E-06 1.33726E-18 1.89213E-18
 -1      3302 8.08847E-05-1.44002E-05-2.84395E-05 8.36639E-06 1.31498E-18 1.88029E-18
 -1      3303 8.32673E-05-1.33279E-05-2.99463E-05 4.53821E-06 1.59257E-18 2.15003E-18
 -1      3304 1.33520E-04-4.95755E-05-3.65210E-05-1.65981E-06 2.95072E-19 2.80029E-18
 -1      3305 1.31923E-04-5.49484E-05-3.28071E-05 7.64136E-06 1.06393E-18 2.31918E-18
 -1      3306 1.20522E-04-5.52108E-05-2.76104E-05-2.36084E-05 8.20775E-19 3.65759E-19
 -1      3307 1.28574E-04-5.68442E-05-3.11286E-05-1.55210E-05 1.26023E-19-1.32111E-19
 -1      3308 9.52510E-05-2.85860E-05-2.85707E-05-4.30013E-09 7.80309E-19 1.10740E-18
 -1      3309 9.52504E-05-2.85856E-05-2.85706E-05-6.84311E-09 1.24085E-18 1.13484E-18
 -1      3310 4.53373E-05-1.12386E-05-1.42473E-05-1.65811E-05 1.51471E-18 3.77925E-18
 -1      3311 5.38384E-05-1.74349E-05-1.52724E-05-2.79589E-05 1.61370E-18 3.65431E-18
 -1      3312 6.40381E-05-2.48886E-05-1.63365E-05-3.38067E-05 1.67607E-18 3.21618E-18
 -1      3313 7.53008E-05-3.26596E-05-1.83078E-05-3.75567E-05 1.57919E-18 2.83576E-18
 -1      3314 9.52513E-05-2.85863E-05-2.85707E-05 1.26059E-09 5.71303E-19 4.12709E-18
 -1      3315 9.52513E-05-2.85862E-05-2.85707E-05-1.41457E-09 8.11355E-19 3.09274E-18
 -1      3316 9.52526E-05-2.85856E-05-2.85716E-05-3.02302E-09 1.32960E-18 2.08602E-18
 -1      3317 9.52526E-05-2.85856E-05-2.85716E-05 2.82904E-09 2.27552E-18 2.22891E-18
 -1      3318 8.79104E-05-1.75744E-05-3.01112E-05-6.65665E-06 4.28309E-19 2.74380E-18
 -1      3319 8.54946E-05-1.59309E-05-2.98529E-05-7.55546E-06 6.44479E-19 2.85073E-18
 -1      3320 1.33431E-04-5.38750E-05-3.39513E-05-6.01028E-06-4.34051E-19-2.65968E-19
 -1      3321 1.34447E-04-4.86871E-05-3.72408E-05 2.05879E-06-1.17174E-18-3.75236E-19
 -1      3322 1.05227E-04-5.14362E-05-2.32927E-05 3.37112E-05 1.96819E-18 4.83206E-19
 -1      3323 8.96098E-05-4.25097E-05-1.96191E-05 3.74103E-05 1.48199E-18 8.18975E-20
 -1      3324 1.25724E-04-5.71868E-05-2.97329E-05 1.75654E-05 1.54824E-18 1.34890E-18
 -1      3325 1.18017E-04-5.54116E-05-2.64690E-05 2.49590E-05 1.96737E-18 7.05777E-19
 -1      3326 1.00494E-04-2.81228E-05-3.10150E-05 1.35207E-06-1.01891E-18 2.02906E-18
 -1      3327 1.26658E-04-5.42703E-05-3.09871E-05 9.89138E-06 1.26277E-18 2.00434E-18
 -1      3328 1.21563E-04-2.73863E-05-4.05873E-05-1.27485E-05-1.44186E-18 2.83385E-18
 -1      3329 1.28863E-04-4.42747E-05-3.64357E-05-6.05821E-06 1.87380E-19 2.82771E-18
 -1      3330 7.89770E-05-2.53291E-05-2.28604E-05-2.32873E-05-1.03836E-18 1.09241E-18
 -1      3331 1.09401E-04-3.34057E-05-3.25165E-05 9.37989E-06-7.10641E-19 1.22659E-18
 -1      3332 1.07315E-04-3.35920E-05-3.15811E-05 8.27484E-06-7.16069E-19 1.61084E-18
 -1      3333 1.07919E-04-3.50456E-05-3.12498E-05 7.45973E-06-4.66221E-19 1.45420E-18
 -1      3334 5.88739E-05-1.91349E-05-1.66558E-05 2.47847E-05-5.31897E-19 1.92806E-19
 -1      3335 6.05844E-05-1.70769E-05-1.84855E-05 1.97282E-05-1.21533E-18 5.17617E-19
 -1      3336 6.61776E-05-2.34362E-05-1.83580E-05 2.79641E-05 9.16384E-20-5.35219E-20
 -1      3337 5.51008E-05-1.24042E-05-1.80790E-05 9.17297E-06-1.27798E-18 2.71792E-19
 -1      3338 4.88382E-05-1.05914E-05-1.59272E-05 5.31867E-06-1.21149E-18 9.72817E-19
 -1      3339 5.20461E-05-1.11166E-05-1.73910E-05-2.35503E-06-9.43896E-19 1.02195E-18
 -1      3340 7.13961E-05-2.01012E-05-2.17552E-05-1.99808E-05-9.23689E-19 1.10927E-18
 -1      3341 1.23469E-04-2.75197E-05-4.14226E-05 1.28576E-05-2.10234E-18 2.89526E-19
 -1      3342 1.16309E-04-2.25288E-05-4.03928E-05 1.18214E-05-2.06385E-18 5.32493E-19
 -1      3343 1.22408E-04-3.16732E-05-3.88200E-05 1.22097E-05-1.70211E-18 4.25899E-20
 -1      3344 1.07588E-04-3.61016E-05-3.06230E-05 4.69005E-06-2.83424E-19 1.32789E-18
 -1      3345 1.08580E-04-3.70524E-05-3.06683E-05 3.25810E-06-2.61360E-19 1.21176E-18
 -1      3346 1.07623E-04-3.57838E-05-3.08218E-05 5.83907E-06-3.90751E-19 1.40794E-18
 -1      3347 9.52391E-05-2.85782E-05-2.85689E-05 1.72126E-08-9.85455E-19 1.19106E-18
 -1      3348 7.70869E-05-8.66886E-06-2.93489E-05-1.37935E-06 1.36335E-18 2.58251E-18
 -1      3349 7.89321E-05-9.80156E-06-2.96594E-05 1.95500E-07 1.51263E-18 2.39312E-18
 -1      3350 8.51158E-05-1.69373E-05-2.92365E-05-9.23209E-06 7.76767E-19 2.81073E-18
 -1      3351 8.29161E-05-1.38467E-05-2.95549E-05-8.06935E-06 8.00372E-19 3.09696E-18
 -1      3352 8.06659E-05-1.23137E-05-2.93529E-05-8.19908E-06 1.03577E-18 3.09395E-18
 -1      3353 9.02986E-05-1.93620E-05-3.04158E-05-5.35241E-06 2.16836E-19 2.76608E-18
 -1      3354 9.04887E-05-2.08318E-05-2.98801E-05-7.25570E-06 3.90836E-19 2.57412E-18
 -1      3355 9.24324E-05-2.08546E-05-3.06659E-05-4.00258E-06-4.54966E-20 2.77021E-18
 -1      3356 6.80930E-05-1.74697E-05-2.13807E-05 1.86445E-05-4.37943E-20 2.86504E-18
 -1      3357 5.66609E-05-1.50178E-05-1.74964E-05 1.83995E-05 4.33840E-20 3.37982E-18
 -1      3358 5.44292E-05-1.11136E-05-1.82946E-05 1.07638E-05 4.77204E-19 3.28723E-18
 -1      3359 6.85030E-05-1.47180E-05-2.30236E-05 1.44811E-05 4.13901E-19 2.51422E-18
 -1      3360 9.52430E-05-2.85806E-05-2.85696E-05 1.70034E-08-6.79502E-19-2.34359E-20
 -1      3361 9.52447E-05-2.85808E-05-2.85702E-05 1.72690E-08-6.87443E-19-5.91481E-20
 -1      3362 5.74677E-05-1.65513E-05-1.73330E-05-1.69586E-05-6.08276E-19 3.01385E-19
 -1      3363 1.13412E-04-5.10340E-05-2.65538E-05-2.50514E-05 1.04863E-18 7.07395E-19
 -1      3364 9.52494E-05-2.85850E-05-2.85705E-05-9.45708E-09 1.16779E-18 8.68809E-19
 -1      3365 9.52483E-05-2.85841E-05-2.85703E-05-1.16071E-08 5.04643E-19 1.73806E-19
 -1      3366 9.52512E-05-2.85847E-05-2.85714E-05-8.60194E-09 1.92235E-18 1.38836E-18
 -1      3367 1.02402E-04-3.10818E-05-3.05961E-05 9.80304E-07-7.31098E-19 1.77996E-18
 -1      3368 1.01574E-04-2.95445E-05-3.08484E-05 1.26703E-06-8.95907E-19 1.87056E-18
 -1      3369 8.35641E-05-3.68094E-05-1.96921E-05 3.43468E-05 1.22529E-18-2.97123E-19
 -1      3370 4.58659E-05-8.88799E-06-1.53547E-05-8.73874E-06 1.28863E-18 3.45695E-18
 -1      3371 5.36188E-05-1.06904E-05-1.80996E-05-1.29961E-05 1.49915E-18 3.34361E-18
 -1      3372 4.91825E-05-8.80569E-06-1.72456E-05 1.57159E-07 9.44210E-19 3.27076E-18
 -1      3373 1.30446E-04-4.46354E-05-3.69404E-05 5.67438E-06-9.79514E-19-4.74365E-19
 -1      3374 9.60292E-05-2.34629E-05-3.11098E-05-9.64027E-07-5.91793E-19 2.55619E-18
 -1      3375 9.43357E-05-2.21928E-05-3.09136E-05-2.38360E-06-2.56612E-19 2.67385E-18
 -1      3376 9.50028E-05-2.39511E-05-3.04590E-05-4.18889E-06-9.34429E-20 2.52488E-18
 -1      3377 9.82229E-05-2.62030E-05-3.08721E-05-1.05572E-06-5.58923E-19 2.33513E-18
 -1      3378 1.12732E-04-1.11801E-05-4.38010E-05-3.37281E-06-2.58350E-18 1.97917E-18
 -1      3379 1.16145E-04-1.25684E-05-4.47683E-05-6.97782E-06-2.48228E-18 1.99454E-18
 -1      3380 1.14201E-04-1.65077E-05-4.20996E-05-8.94352E-06-2.21573E-18 2.11268E-18
 -1      3381 8.68507E-05-3.64875E-05-2.12487E-05-3.37623E-05 1.46357E-18 2.31407E-18
 -1      3382 6.30217E-05-2.01998E-05-1.79520E-05-2.76973E-05 1.63607E-18 3.39099E-18
 -1      3383 7.61736E-05-8.38906E-06-2.90414E-05-5.13560E-06 1.14061E-18 2.98557E-18
 -1      3384 7.61812E-05-8.25119E-06-2.91461E-05-3.75901E-06 1.23079E-18 2.76800E-18
 -1      3385 7.57509E-05-9.03982E-06-2.85506E-05-2.34793E-06 1.20500E-18 2.63064E-18
 -1      3386 8.44400E-05-1.13573E-05-3.13058E-05 5.07557E-07 1.83920E-18 2.24112E-18
 -1      3387 1.28742E-04-5.36056E-05-3.21774E-05-8.39010E-06 6.79744E-20-4.34104E-20
 -1      3388 9.52414E-05-2.85795E-05-2.85694E-05 1.75614E-08-1.11836E-18 6.34616E-19
 -1      3389 1.15818E-04-1.33233E-05-4.42659E-05 6.11533E-06-2.64010E-18 1.45653E-18
 -1      3390 1.00593E-04-2.85519E-05-3.08616E-05 3.32334E-07-6.71541E-19 2.06104E-18
 -1      3391 8.26663E-05-1.13311E-05-3.05547E-05 1.33618E-06 1.63265E-18 2.29007E-18
 -1      3392 9.52468E-05-2.85832E-05-2.85701E-05-1.37325E-08-5.13514E-20-1.73543E-18
 -1      3393 9.52450E-05-2.85819E-05-2.85699E-05-1.53048E-08 5.82314E-19-2.72038E-18
 -1      3394 9.52485E-05-2.85831E-05-2.85709E-05-1.34112E-08 1.62851E-18-2.34199E-19
 -1      3395 1.10896E-04-5.13275E-05-2.53721E-05 2.62639E-05 1.53869E-18 2.58180E-19
 -1      3396 9.52424E-05-2.85802E-05-2.85695E-05-1.68203E-08-6.47802E-20 1.40968E-19
 -1      3397 9.52441E-05-2.85805E-05-2.85701E-05-1.71802E-08 1.28415E-19 5.48837E-19
 -1      3398 1.03152E-04-3.19393E-05-3.05323E-05 2.18950E-07-6.28428E-19 1.62592E-18
 -1      3399 1.05981E-04-2.19612E-05-3.61580E-05-8.83125E-06-1.42680E-18 2.43465E-18
 -1      3400 1.04687E-04-1.91522E-05-3.66456E-05-6.05866E-06-1.69027E-18 2.13733E-18
 -1      3401 9.52459E-05-2.85804E-05-2.85709E-05 1.80416E-08-6.79676E-19-9.08729E-19
 -1      3402 9.52483E-05-2.85819E-05-2.85713E-05 1.61994E-08-1.67504E-21-9.43451E-19
 -1      3403 9.52466E-05-2.85797E-05-2.85715E-05 1.88578E-08-5.52307E-19-3.85986E-19
 -1      3404 7.13851E-05-1.60391E-05-2.37111E-05-1.15576E-05-5.82567E-19 5.96794E-19
 -1      3405 7.38915E-05-1.60724E-05-2.48721E-05-9.80381E-06-7.25470E-20 8.00522E-19
 -1      3406 6.25968E-05-1.63665E-05-1.96789E-05-1.53371E-05-5.92099E-19 3.23143E-19
 -1      3407 6.70926E-05-1.53566E-05-2.22536E-05-1.23302E-05-7.33643E-19 8.42745E-19
 -1      3408 6.54120E-05-1.32117E-05-2.21094E-05-6.80588E-06-6.30290E-19-3.91753E-20
 -1      3409 5.56206E-05-1.16844E-05-1.83237E-05-7.67336E-06-7.00624E-19 3.38178E-19
 -1      3410 1.24064E-04-3.98449E-05-3.63816E-05-9.83816E-06-3.13561E-19 2.77438E-18
 -1      3411 1.27268E-04-4.73567E-05-3.40881E-05-3.59535E-06 6.36625E-19 2.58514E-18
 -1      3412 7.73908E-05-1.68825E-05-2.59389E-05-8.99991E-06-1.31095E-19 3.00911E-19
 -1      3413 7.94551E-05-1.74712E-05-2.66328E-05-7.98833E-06 1.36218E-19 7.22956E-22
 -1      3414 7.28610E-05-1.49838E-05-2.46996E-05-6.01145E-06-5.84418E-19-1.30496E-20
 -1      3415 8.20205E-05-1.84022E-05-2.72812E-05-7.50652E-06 6.44266E-20-3.65952E-19
 -1      3416 8.36724E-05-1.91644E-05-2.76927E-05-6.77808E-06 2.71407E-19-4.32465E-19
 -1      3417 7.87351E-05-1.69045E-05-2.64393E-05-5.28073E-06-1.25913E-19-3.89036E-19
 -1      3418 8.55855E-05-2.00916E-05-2.80838E-05-6.41148E-06 7.11725E-19-4.96070E-19
 -1      3419 8.68539E-05-2.08586E-05-2.83153E-05-5.80865E-06 1.00331E-19-2.60237E-19
 -1      3420 8.31003E-05-1.88339E-05-2.75022E-05-4.80623E-06 4.26343E-19-7.39822E-19
 -1      3421 8.82808E-05-2.17032E-05-2.85444E-05-5.47216E-06-6.12914E-19-2.50412E-19
 -1      3422 8.92239E-05-2.23959E-05-2.86631E-05-4.93979E-06-6.84823E-19-2.37706E-19
 -1      3423 8.63601E-05-2.06240E-05-2.81433E-05-4.35622E-06-2.48824E-19-5.44967E-19
 -1      3424 9.02818E-05-2.31227E-05-2.87898E-05-4.61255E-06-3.86006E-19-2.63065E-19
 -1      3425 9.09652E-05-2.37109E-05-2.88399E-05-4.13648E-06 1.02334E-19 8.75332E-19
 -1      3426 8.87892E-05-2.22004E-05-2.85168E-05-3.86566E-06-3.65163E-19 1.33136E-19
 -1      3427 9.17434E-05-2.43130E-05-2.89029E-05-3.82163E-06 1.06657E-19 1.12777E-18
 -1      3428 9.22288E-05-2.47941E-05-2.89132E-05-3.40140E-06 3.11337E-19 1.24744E-18
 -1      3429 9.05875E-05-2.35360E-05-2.87210E-05-3.34193E-06 2.36006E-19 8.61789E-19
 -1      3430 9.27968E-05-2.52803E-05-2.89376E-05-3.10841E-06 7.48349E-20 4.67448E-19
 -1      3431 9.31363E-05-2.56646E-05-2.89261E-05-2.74531E-06-1.45085E-19-2.07910E-19
 -1      3432 9.19089E-05-2.46368E-05-2.88199E-05-2.81476E-06-1.72899E-19 8.27078E-19
 -1      3433 9.35479E-05-2.60503E-05-2.89280E-05-2.48232E-06-3.92383E-19-7.24902E-19
 -1      3434 9.37826E-05-2.63526E-05-2.89059E-05-2.17553E-06-4.34088E-19-1.14260E-18
 -1      3435 9.28731E-05-2.55264E-05-2.88550E-05-2.31345E-06-8.73509E-19-3.14282E-19
 -1      3436 9.40791E-05-2.66550E-05-2.88956E-05-1.94706E-06 2.64192E-19-9.53667E-19
 -1      3437 9.42399E-05-2.68905E-05-2.88696E-05-1.69325E-06 1.57353E-19 2.42143E-20
 -1      3438 9.35722E-05-2.62350E-05-2.88533E-05-1.85880E-06 5.06874E-20-6.89715E-19
 -1      3439 9.44523E-05-2.71255E-05-2.88535E-05-1.50036E-06-4.43316E-19 7.53914E-19
 -1      3440 9.45616E-05-2.73077E-05-2.88274E-05-1.29437E-06-1.35577E-18 9.44624E-19
 -1      3441 9.40764E-05-2.67935E-05-2.88316E-05-1.46203E-06 6.04762E-19 1.10298E-19
 -1      3442 9.47130E-05-2.74891E-05-2.88092E-05-1.13553E-06-1.68919E-18 8.84294E-19
 -1      3443 9.47868E-05-2.76293E-05-2.87850E-05-9.71280E-07-1.18925E-18 5.42650E-19
 -1      3444 9.44380E-05-2.72302E-05-2.88006E-05-1.12655E-06-1.08794E-18-8.99312E-20
 -1      3445 9.48939E-05-2.77685E-05-2.87669E-05-8.43352E-07-9.47161E-19 7.77776E-20
 -1      3446 9.49434E-05-2.78760E-05-2.87456E-05-7.14548E-07-1.60809E-19 1.60832E-19
 -1      3447 9.46960E-05-2.75693E-05-2.87667E-05-8.50382E-07-9.66699E-19-3.06218E-19
 -1      3448 9.50187E-05-2.79821E-05-2.87290E-05-6.13603E-07 6.41723E-19-2.43079E-19
 -1      3449 9.50516E-05-2.80640E-05-2.87108E-05-5.14221E-07 9.82114E-19-5.04865E-19
 -1      3450 9.48788E-05-2.78308E-05-2.87336E-05-6.28311E-07 1.48699E-19-8.92640E-19
 -1      3451 9.51039E-05-2.81444E-05-2.86961E-05-4.36102E-07 1.11779E-18-6.09075E-19
 -1      3452 9.51255E-05-2.82064E-05-2.86809E-05-3.60665E-07 6.43404E-19 2.10047E-19
 -1      3453 9.50072E-05-2.80310E-05-2.87032E-05-4.53499E-07 8.37313E-19-9.26060E-19
 -1      3454 9.51614E-05-2.82668E-05-2.86684E-05-3.01363E-07 5.27103E-19 1.00558E-18
 -1      3455 9.51753E-05-2.83134E-05-2.86561E-05-2.45069E-07 5.35766E-19 1.16855E-18
 -1      3456 9.50964E-05-2.81831E-05-2.86765E-05-3.18636E-07 1.26812E-18-1.27158E-19
 -1      3457 9.51994E-05-2.83583E-05-2.86456E-05-2.00933E-07 3.25230E-19 9.76472E-19
 -1      3458 9.52081E-05-2.83929E-05-2.86358E-05-1.59692E-07 5.79668E-19 1.06538E-18
 -1      3459 9.51574E-05-2.82976E-05-2.86538E-05-2.16641E-07 5.89924E-19 3.75326E-19
 -1      3460 9.52239E-05-2.84259E-05-2.86272E-05-1.27533E-07 1.30839E-18 7.02439E-19
 -1      3461 9.52291E-05-2.84514E-05-2.86195E-05-9.79397E-08 4.38458E-19 1.12217E-18
 -1      3462 9.51981E-05-2.83828E-05-2.86349E-05-1.41068E-07 6.47871E-19 1.91124E-19
 -1      3463 9.52389E-05-2.84753E-05-2.86126E-05-7.50558E-08-9.34726E-19 1.55774E-18
 -1      3464 9.52418E-05-2.84938E-05-2.86066E-05-5.43282E-08-1.48734E-18 1.80173E-18
 -1      3465 9.52245E-05-2.84454E-05-2.86195E-05-8.62921E-08 6.28824E-20 4.43084E-19
 -1      3466 9.52476E-05-2.85107E-05-2.86012E-05-3.84927E-08-7.11704E-19 1.84037E-18
 -1      3467 9.52489E-05-2.85239E-05-2.85967E-05-2.43988E-08 1.90530E-19 1.65278E-18
 -1      3468 9.52408E-05-2.84906E-05-2.86072E-05-4.75642E-08-1.02011E-18 1.24965E-18
 -1      3469 9.52519E-05-2.85357E-05-2.85925E-05-1.38148E-08 4.95267E-19 1.35230E-18
 -1      3470 9.52522E-05-2.85448E-05-2.85890E-05-4.59489E-09 1.02338E-18 1.03719E-18
 -1      3471 9.52501E-05-2.85226E-05-2.85975E-05-2.09791E-08 8.49712E-19 2.04781E-18
 -1      3472 9.52534E-05-2.85528E-05-2.85858E-05 2.15668E-09 9.37697E-19-2.16102E-20
 -1      3473 9.52531E-05-2.85589E-05-2.85833E-05 7.86642E-09 3.53750E-19 5.32979E-19
 -1      3474 9.52546E-05-2.85448E-05-2.85899E-05-3.39946E-09 1.00298E-18 2.46790E-19
 -1      3475 9.52530E-05-2.85641E-05-2.85809E-05 1.18839E-08-8.92465E-20 1.71850E-18
 -1      3476 9.52524E-05-2.85681E-05-2.85790E-05 1.51206E-08 8.91801E-19 1.00065E-18
 -1      3477 9.52560E-05-2.85597E-05-2.85842E-05 7.64154E-09 9.50081E-19-1.29744E-19
 -1      3478 9.52517E-05-2.85713E-05-2.85772E-05 1.72359E-08 6.09421E-19-8.76090E-19
 -1      3479 9.52509E-05-2.85738E-05-2.85759E-05 1.87709E-08-7.15245E-19-1.27930E-18
 -1      3480 9.52554E-05-2.85693E-05-2.85798E-05 1.40424E-08-9.22778E-19-3.98190E-19
 -1      3481 9.52498E-05-2.85757E-05-2.85745E-05 1.95987E-08-4.08073E-19-1.27079E-18
 -1      3482 9.52489E-05-2.85772E-05-2.85736E-05 1.99709E-08-6.71831E-19-5.25626E-19
 -1      3483 9.52536E-05-2.85751E-05-2.85765E-05 1.72340E-08-1.20566E-19-2.22076E-18
 -1      3484 9.52482E-05-2.85782E-05-2.85728E-05 1.97786E-08-1.21194E-18-1.64798E-19
 -1      3485 9.52475E-05-2.85791E-05-2.85721E-05 1.94115E-08-1.19741E-18-1.18396E-19
 -1      3486 9.52505E-05-2.85806E-05-2.85728E-05 1.74755E-08-7.56461E-19-4.63864E-19
 -1      3487 9.52519E-05-2.85785E-05-2.85743E-05 1.80871E-08-2.80184E-20-5.64454E-19
 -1      3488 1.05400E-04-1.98358E-05-3.66676E-05 5.99915E-06-1.43605E-18 1.34988E-18
 -1      3489 1.06776E-04-2.26699E-05-3.61735E-05 8.56857E-06-1.05215E-18 1.40769E-18
 -1      3490 1.10374E-04-2.55618E-05-3.63973E-05 1.04844E-05-1.24057E-18 9.87756E-19
 -1      3491 1.12211E-04-2.96352E-05-3.56162E-05 1.10641E-05-1.25500E-18 7.68537E-19
 -1      3492 1.09809E-04-2.97582E-05-3.44323E-05-1.15654E-05-8.68784E-19 2.89779E-18
 -1      3493 1.08059E-04-2.57455E-05-3.52200E-05-1.08071E-05-1.13876E-18 2.62962E-18
 -1      3494 1.09693E-04-2.38538E-05-3.68424E-05-1.06683E-05-1.36924E-18 2.75488E-18
 -1      3495 1.12035E-04-3.63152E-05-3.25194E-05-9.67561E-06 5.34617E-19 2.97142E-18
 -1      3496 1.11071E-04-3.33465E-05-3.33142E-05-1.06581E-05-2.95370E-19 3.09924E-18
 -1      3497 1.13300E-04-3.25475E-05-3.46776E-05-1.16373E-05-6.60077E-19 3.00507E-18
 -1      3498 1.11693E-04-3.96025E-05-3.09011E-05-5.43548E-06 1.01021E-18 2.65050E-18
 -1      3499 1.11883E-04-3.83478E-05-3.15371E-05-7.32519E-06 1.09016E-18 2.73302E-18
 -1      3500 1.14519E-04-3.90657E-05-3.23034E-05-7.98471E-06 9.61601E-19 2.85931E-18
 -1      3501 1.09202E-04-3.95600E-05-2.98088E-05-1.31487E-06 8.99440E-19 2.11779E-18
 -1      3502 1.10181E-04-3.97256E-05-3.02324E-05-3.09582E-06 6.41654E-19 2.25243E-18
 -1      3503 1.12550E-04-4.11653E-05-3.05931E-05-2.98294E-06 1.08675E-18 2.05067E-18
 -1      3504 1.05841E-04-3.76671E-05-2.91683E-05 1.76526E-06 8.67563E-19 1.66063E-18
 -1      3505 1.07181E-04-3.86404E-05-2.94111E-05 4.52356E-07 1.11199E-18 2.06552E-18
 -1      3506 1.08955E-04-4.02310E-05-2.94824E-05 1.13677E-06 8.97369E-19 1.61250E-18
 -1      3507 1.02577E-04-3.51482E-05-2.88561E-05 3.58704E-06 4.82074E-19 1.56804E-18
 -1      3508 1.03905E-04-3.63525E-05-2.89729E-05 2.78246E-06 4.67487E-19 1.63880E-18
 -1      3509 1.04955E-04-3.76627E-05-2.88835E-05 3.73382E-06 8.73894E-19 1.54482E-18
 -1      3510 9.98816E-05-3.27444E-05-2.87422E-05 4.41697E-06-1.54219E-19 1.97104E-18
 -1      3511 1.01004E-04-3.38643E-05-2.87842E-05 4.02890E-06 2.07239E-19 1.55461E-18
 -1      3512 1.01456E-04-3.47615E-05-2.86250E-05 4.98609E-06 5.15011E-19 1.67496E-18
 -1      3513 9.78854E-05-3.07984E-05-2.87312E-05 4.57589E-06-1.88221E-19 1.35935E-18
 -1      3514 9.87394E-05-3.16918E-05-2.87362E-05 4.47769E-06-3.07892E-19 1.67076E-18
 -1      3515 9.87693E-05-3.22034E-05-2.85606E-05 5.30819E-06-3.06242E-19 1.71057E-18
 -1      3516 9.65240E-05-2.93864E-05-2.87614E-05 4.33585E-06-2.62745E-19 8.72591E-19
 -1      3517 9.71248E-05-3.00281E-05-2.87531E-05 4.41972E-06-3.36529E-20 1.14403E-18
 -1      3518 9.68967E-05-3.02407E-05-2.85901E-05 5.08062E-06-6.13071E-20 1.47881E-18
 -1      3519 9.56657E-05-2.84573E-05-2.87977E-05 3.88639E-06-2.61944E-19 7.60873E-19
 -1      3520 9.60608E-05-2.88760E-05-2.87891E-05 4.07246E-06-4.09292E-19 7.72752E-19
 -1      3521 9.56979E-05-2.88798E-05-2.86517E-05 4.57182E-06-4.42059E-19 8.57308E-19
 -1      3522 9.51720E-05-2.79118E-05-2.88238E-05 3.35033E-06 4.97645E-19 5.60686E-19
 -1      3523 9.54148E-05-2.81555E-05-2.88206E-05 3.58399E-06 1.17736E-19 8.04285E-19
 -1      3524 9.50018E-05-2.80283E-05-2.87125E-05 3.95015E-06-3.53818E-20 5.31766E-19
 -1      3525 9.49247E-05-2.76450E-05-2.88345E-05 2.80261E-06 3.99114E-19 1.51879E-18
 -1      3526 9.50623E-05-2.77628E-05-2.88380E-05 3.04841E-06 5.54524E-19 1.13001E-18
 -1      3527 9.46526E-05-2.75638E-05-2.87578E-05 3.31307E-06 3.40438E-19 6.66149E-19
 -1      3528 9.48328E-05-2.75659E-05-2.88303E-05 2.28646E-06 3.64235E-19 1.02311E-18
 -1      3529 9.49021E-05-2.75996E-05-2.88398E-05 2.52265E-06 4.75673E-19 1.20191E-18
 -1      3530 9.45266E-05-2.73710E-05-2.87837E-05 2.71348E-06 3.96331E-19 1.01729E-18
 -1      3531 9.48314E-05-2.76027E-05-2.88145E-05 1.82444E-06 4.52559E-19 1.01759E-18
 -1      3532 9.48590E-05-2.75848E-05-2.88281E-05 2.03881E-06 3.32278E-19 7.13976E-19
 -1      3533 9.45331E-05-2.73549E-05-2.87917E-05 2.17735E-06 1.50549E-19 6.80390E-19
 -1      3534 9.48767E-05-2.77032E-05-2.87911E-05 1.42593E-06-3.03761E-20 1.62743E-18
 -1      3535 9.48808E-05-2.76573E-05-2.88070E-05 1.61267E-06 3.84276E-19 1.28691E-18
 -1      3536 9.46095E-05-2.74432E-05-2.87857E-05 1.71462E-06-1.03547E-19 1.57897E-18
 -1      3537 9.49411E-05-2.78316E-05-2.87635E-05 1.09208E-06-4.80949E-19 1.38565E-18
 -1      3538 9.49334E-05-2.77736E-05-2.87802E-05 1.24962E-06-1.60313E-19 1.63553E-18
 -1      3539 9.47153E-05-2.75845E-05-2.87700E-05 1.32592E-06-2.51230E-19 1.65071E-18
 -1      3540 9.50082E-05-2.79653E-05-2.87347E-05 8.19212E-07-7.90479E-19 1.22075E-18
 -1      3541 9.49960E-05-2.79053E-05-2.87510E-05 9.48592E-07-8.59604E-19 1.43992E-18
 -1      3542 9.48259E-05-2.77449E-05-2.87485E-05 1.00667E-06-4.66564E-19 1.51400E-18
 -1      3543 9.50695E-05-2.80908E-05-2.87069E-05 6.01037E-07-1.04893E-20 3.81068E-19
 -1      3544 9.50566E-05-2.80347E-05-2.87219E-05 7.04797E-07-3.22198E-20 7.41996E-19
 -1      3545 9.49279E-05-2.79030E-05-2.87244E-05 7.49653E-07-1.57683E-19 1.42000E-18
 -1      3546 9.51210E-05-2.82014E-05-2.86812E-05 4.30138E-07 9.71634E-19-6.67806E-19
 -1      3547 9.51094E-05-2.81521E-05-2.86945E-05 5.11544E-07 4.48990E-19-2.98345E-19
 -1      3548 9.50151E-05-2.80470E-05-2.87001E-05 5.46544E-07 7.53080E-19-3.94839E-19
 -1      3549 9.51618E-05-2.82944E-05-2.86586E-05 2.98921E-07 1.49695E-18-1.73422E-18
 -1      3550 9.51524E-05-2.82531E-05-2.86700E-05 3.61448E-07 1.53949E-18-1.38632E-18
 -1      3551 9.50855E-05-2.81713E-05-2.86771E-05 3.88906E-07 1.54362E-18-1.17167E-18
 -1      3552 9.51927E-05-2.83699E-05-2.86392E-05 2.00191E-07 1.34109E-18-1.92719E-18
 -1      3553 9.51856E-05-2.83364E-05-2.86487E-05 2.47203E-07 1.07532E-18-1.79493E-18
 -1      3554 9.51399E-05-2.82744E-05-2.86564E-05 2.68762E-07 1.47232E-18-1.59633E-18
 -1      3555 9.52149E-05-2.84293E-05-2.86230E-05 1.27474E-07 1.84612E-18-2.42493E-18
 -1      3556 9.52099E-05-2.84030E-05-2.86308E-05 1.62038E-07 1.78083E-18-2.03814E-18
 -1      3557 9.51802E-05-2.83571E-05-2.86383E-05 1.78910E-07 1.40157E-18-1.48503E-18
 -1      3558 9.52301E-05-2.84747E-05-2.86099E-05 7.51561E-08 1.77346E-18-2.19311E-18
 -1      3559 9.52268E-05-2.84546E-05-2.86161E-05 9.99514E-08 1.51150E-18-2.47923E-18
 -1      3560 9.52089E-05-2.84216E-05-2.86230E-05 1.13070E-07 1.44885E-18-9.69536E-19
 -1      3561 9.52399E-05-2.85086E-05-2.85995E-05 3.85185E-08 1.49316E-18-1.22065E-18
 -1      3562 9.52379E-05-2.84936E-05-2.86043E-05 5.58087E-08 1.70555E-18-1.46466E-18
 -1      3563 9.52283E-05-2.84706E-05-2.86104E-05 6.59169E-08 1.28394E-18 1.04552E-18
 -1      3564 9.52456E-05-2.85331E-05-2.85913E-05 1.36912E-08 3.74859E-19-6.17334E-19
 -1      3565 9.52446E-05-2.85222E-05-2.85950E-05 2.53361E-08 9.90318E-19-1.34924E-18
 -1      3566 9.52407E-05-2.85068E-05-2.86002E-05 3.30397E-08 1.15384E-18 5.99068E-19
 -1      3567 9.52484E-05-2.85503E-05-2.85851E-05-2.42597E-09 5.44818E-20 2.39714E-19
 -1      3568 9.52481E-05-2.85427E-05-2.85878E-05 5.06446E-09 3.34775E-19-1.19881E-19
 -1      3569 9.52479E-05-2.85328E-05-2.85922E-05 1.08628E-08-1.95813E-20 7.89485E-19
 -1      3570 9.52493E-05-2.85620E-05-2.85804E-05-1.22623E-08 1.28196E-18-2.17558E-19
 -1      3571 9.52495E-05-2.85568E-05-2.85824E-05-7.75938E-09 5.22338E-19 2.12383E-19
 -1      3572 9.52514E-05-2.85509E-05-2.85859E-05-3.45476E-09 7.58033E-19 1.02595E-18
 -1      3573 9.52489E-05-2.85696E-05-2.85769E-05-1.76783E-08 8.07151E-19 1.94241E-19
 -1      3574 9.52493E-05-2.85662E-05-2.85784E-05-1.52714E-08 1.66860E-18 8.49009E-20
 -1      3575 9.52524E-05-2.85631E-05-2.85812E-05-1.21245E-08 1.15407E-18 1.32758E-18
 -1      3576 9.52477E-05-2.85744E-05-2.85743E-05-2.00615E-08 1.02316E-18 8.73301E-19
 -1      3577 9.52483E-05-2.85722E-05-2.85754E-05-1.90885E-08 6.60140E-19 4.50472E-20
 -1      3578 9.52519E-05-2.85710E-05-2.85776E-05-1.68305E-08 8.07759E-19 1.88438E-18
 -1      3579 9.52462E-05-2.85772E-05-2.85725E-05-2.04260E-08-3.73969E-19 2.16434E-18
 -1      3580 9.52468E-05-2.85759E-05-2.85732E-05-2.04083E-08 3.06492E-19 1.25543E-18
 -1      3581 9.52504E-05-2.85758E-05-2.85749E-05-1.88199E-08 6.06225E-19 2.98405E-18
 -1      3582 9.52447E-05-2.85789E-05-2.85711E-05-1.94328E-08-9.53828E-19 2.75334E-18
 -1      3583 9.52452E-05-2.85780E-05-2.85716E-05-2.00557E-08-8.29838E-19 1.90748E-18
 -1      3584 9.52485E-05-2.85786E-05-2.85728E-05-1.90368E-08-5.98983E-19 3.35014E-18
 -1      3585 9.52445E-05-2.85800E-05-2.85705E-05-1.78748E-08 3.08448E-19 8.40611E-19
 -1      3586 9.52525E-05-2.85841E-05-2.85722E-05 1.00030E-08 1.51675E-18 4.16986E-19
 -1      3587 9.52536E-05-2.85847E-05-2.85724E-05 7.38720E-09 1.14916E-18-5.51508E-19
 -1      3588 1.07344E-04-4.63364E-05-2.57691E-05-2.56734E-05 1.17428E-18 9.55341E-19
 -1      3589 1.17551E-04-5.18255E-05-2.84990E-05-1.88733E-05 7.39288E-19 4.66053E-19
 -1      3590 9.12948E-05-4.04668E-05-2.20186E-05 3.20503E-05 8.77103E-19 7.75035E-20
 -1      3591 7.73727E-05-3.08561E-05-1.95500E-05 3.16027E-05 1.24786E-18-5.80879E-19
 -1      3592 1.24461E-04-5.22635E-05-3.06826E-05-1.02902E-05 3.44890E-19 1.84097E-20
 -1      3593 1.27221E-04-5.09245E-05-3.30473E-05-2.96534E-06-1.03811E-19-8.31680E-20
 -1      3594 7.85011E-05-1.04121E-05-2.91445E-05-7.57475E-06 1.10715E-18 3.21133E-18
 -1      3595 7.70835E-05-9.40276E-06-2.90696E-05-6.80911E-06 1.16872E-18 3.21477E-18
 -1      3596 7.63741E-05-9.90290E-06-2.84159E-05-6.68139E-06 1.06165E-18 3.09360E-18
 -1      3597 1.13998E-04-2.40244E-05-3.88437E-05-1.20439E-05-1.34286E-18 2.77978E-18
 -1      3598 1.18184E-04-3.11093E-05-3.72837E-05-1.30140E-05-1.00887E-18 3.04965E-18
 -1      3599 1.14039E-04-5.13575E-05-2.70089E-05 2.06592E-05 1.62949E-18 8.82277E-19
 -1      3600 1.04677E-04-4.69381E-05-2.43425E-05 2.74988E-05 1.17114E-18 3.85168E-19
 -1      3601 1.00880E-04-2.95550E-05-3.05849E-05-1.22774E-06-3.60694E-19 2.00456E-18
 -1      3602 9.97455E-05-2.80364E-05-3.07331E-05-1.16891E-06-4.15628E-19 2.24946E-18
 -1      3603 9.84356E-05-2.70719E-05-3.05676E-05-2.63274E-06-2.66143E-19 2.24398E-18
 -1      3604 8.10827E-05-3.04846E-05-2.13935E-05-3.09936E-05 1.56495E-18 2.54385E-18
 -1      3605 9.37852E-05-3.94650E-05-2.35379E-05-3.08679E-05 1.35533E-18 1.71649E-18
 -1      3606 1.11790E-04-1.58888E-05-4.12600E-05 7.12390E-06-2.17497E-18 1.39743E-18
 -1      3607 1.11248E-04-1.22658E-05-4.27971E-05 1.88963E-06-2.37349E-18 1.93907E-18
 -1      3608 1.07240E-04-3.65570E-05-3.03211E-05-2.53871E-07-1.53523E-19 1.45872E-18
 -1      3609 1.05775E-04-3.49834E-05-3.02942E-05-9.52084E-07-2.81342E-19 1.45326E-18
 -1      3610 6.26288E-05-1.70082E-05-1.93930E-05-2.34597E-05 1.55507E-18 3.34663E-18
 -1      3611 7.14173E-05-2.39902E-05-2.02532E-05-2.94157E-05 1.58782E-18 3.19252E-18
 -1      3612 8.01083E-05-2.70253E-05-2.25041E-05-2.70848E-05 1.57279E-18 2.78586E-18
 -1      3613 1.04020E-04-3.33626E-05-3.03096E-05-1.35983E-06-3.36776E-19 1.68405E-18
 -1      3614 1.02518E-04-3.14022E-05-3.04554E-05-1.30870E-06-3.45465E-19 1.81276E-18
 -1      3615 1.01591E-04-3.08978E-05-3.03061E-05-2.93164E-06-2.09652E-19 1.87913E-18
 -1      3616 1.04939E-04-3.45776E-05-3.01811E-05-2.76316E-06-1.64070E-19 1.72805E-18
 -1      3617 9.52503E-05-2.85829E-05-2.85717E-05 1.39219E-08 1.08428E-18-5.65550E-19
 -1      3618 7.37654E-05-1.26962E-05-2.62165E-05 7.92216E-06 1.10465E-18 2.06820E-18
 -1      3619 7.15825E-05-1.33626E-05-2.48795E-05 1.00743E-05 8.09608E-19 2.23595E-18
 -1      3620 1.28083E-04-4.65177E-05-3.48225E-05 3.81062E-06-5.67036E-19-3.53372E-19
 -1      3621 1.25564E-04-4.06910E-05-3.68229E-05 8.80080E-06-1.17912E-18-3.66845E-19
 -1      3622 1.26117E-04-5.18149E-05-3.21234E-05 3.86190E-06 1.29943E-18 2.23775E-18
 -1      3623 1.21830E-04-5.27010E-05-2.95558E-05 1.15303E-05 1.55452E-18 2.10993E-18
 -1      3624 8.01485E-05-1.07200E-05-2.97456E-05 1.73496E-06 1.55553E-18 2.31975E-18
 -1      3625 8.15170E-05-1.20935E-05-2.97909E-05 2.98752E-06 1.58457E-18 2.19257E-18
 -1      3626 8.05270E-05-1.26410E-05-2.90996E-05 4.72784E-06 1.49897E-18 2.17897E-18
 -1      3627 7.77831E-05-1.04604E-05-2.88621E-05 1.64229E-06 1.43485E-18 2.30017E-18
 -1      3628 9.52473E-05-2.85809E-05-2.85713E-05-1.71645E-08 3.10495E-19-3.63303E-19
 -1      3629 6.50515E-05-1.13774E-05-2.29713E-05 9.56161E-06 8.30827E-19 2.51196E-18
 -1      3630 7.56031E-05-2.71749E-05-2.05015E-05 2.69225E-05 1.33871E-19 2.74425E-19
 -1      3631 1.17718E-04-3.57115E-05-3.52389E-05-1.05678E-05-6.73034E-19 2.57025E-18
 -1      3632 6.04058E-05-1.42941E-05-1.94325E-05 1.35102E-05-1.21567E-18 5.22302E-19
 -1      3633 5.97329E-05-1.29548E-05-2.00283E-05 7.30846E-06-1.34105E-18 3.83044E-19
 -1      3634 1.21124E-04-3.54249E-05-3.67704E-05 1.08254E-05-1.15719E-18 4.89162E-20
 -1      3635 1.10031E-04-3.67804E-05-3.14001E-05 6.47854E-06-6.36264E-19 1.22574E-18
 -1      3636 1.03960E-04-1.75378E-05-3.71233E-05-1.77543E-06-1.56276E-18 1.79972E-18
 -1      3637 1.04151E-04-1.78020E-05-3.70482E-05 1.95019E-06-1.60621E-18 1.45770E-18
 -1      3638 8.78202E-05-2.02135E-05-2.89131E-05-1.06282E-05 7.65101E-19 2.59535E-18
 -1      3639 8.46295E-05-1.81127E-05-2.85654E-05-1.12648E-05 9.93462E-19 2.63453E-18
 -1      3640 7.98451E-05-1.28707E-05-2.86824E-05-9.18086E-06 1.09124E-18 3.12104E-18
 -1      3641 1.06641E-04-1.70488E-05-3.85022E-05-4.32516E-06-1.95843E-18 2.36447E-18
 -1      3642 1.15848E-04-3.62139E-05-3.41294E-05 9.29461E-06-9.17443E-19 3.54596E-19
 -1      3643 1.01041E-04-4.10110E-05-2.55645E-05-2.49382E-05 1.15392E-18 1.26275E-18
 -1      3644 9.52524E-05-2.85827E-05-2.85727E-05 1.30045E-08 1.48634E-18 4.92914E-19
 -1      3645 1.09217E-04-1.40413E-05-4.09856E-05-1.22902E-06-2.17301E-18 2.52318E-18
 -1      3646 9.52555E-05-2.85842E-05-2.85734E-05 5.94086E-09 1.80818E-18-1.96759E-19
 -1      3647 9.52542E-05-2.85850E-05-2.85725E-05 4.30121E-09 2.18537E-18 6.38374E-19
 -1      3648 9.52546E-05-2.85851E-05-2.85726E-05 1.41273E-09 2.71546E-18 2.89518E-18
 -1      3649 1.23347E-04-4.79307E-05-3.23954E-05-7.86053E-07 8.33401E-19 2.13411E-18
 -1      3650 9.52534E-05-2.85845E-05-2.85724E-05-7.60952E-09 2.06618E-18 6.62192E-19
 -1      3651 9.52523E-05-2.85839E-05-2.85722E-05-1.02030E-08 2.40205E-18 4.49031E-19
 -1      3652 1.18706E-04-4.96110E-05-2.95994E-05-1.25436E-05 4.90975E-19 4.58523E-19
 -1      3653 9.52496E-05-2.85820E-05-2.85719E-05-1.49477E-08 1.37123E-18 7.97514E-19
 -1      3654 9.52500E-05-2.85806E-05-2.85726E-05-1.66255E-08 5.54306E-19 1.90399E-18
 -1      3655 9.52514E-05-2.85830E-05-2.85722E-05-1.28329E-08 1.94803E-18 1.23882E-18
 -1      3656 1.24643E-04-4.72197E-05-3.32018E-05 1.03956E-06-2.86416E-19 1.00320E-20
 -1      3657 5.72567E-05-1.03173E-05-1.98133E-05 4.34856E-06 9.62679E-19 3.05292E-18
 -1      3658 9.36735E-05-2.43304E-05-2.97029E-05-7.86807E-06 3.84268E-19 2.25113E-18
 -1      3659 9.09551E-05-2.24870E-05-2.93603E-05-9.30522E-06 6.70147E-19 2.36355E-18
 -1      3660 9.07380E-05-2.38297E-05-2.87126E-05-1.15207E-05 7.72287E-19 2.36039E-18
 -1      3661 1.12716E-04-2.34825E-05-3.83235E-05 1.03450E-05-1.53358E-18 9.11666E-19
 -1      3662 1.12640E-04-1.95309E-05-4.01418E-05 9.65086E-06-1.85659E-18 1.06453E-18
 -1      3663 5.79099E-05-1.19512E-05-1.96572E-05-2.57769E-06-8.35446E-19 6.18572E-19
 -1      3664 9.76978E-05-4.16864E-05-2.38562E-05 2.67310E-05 9.70594E-19 5.24227E-19
 -1      3665 7.83592E-05-1.25484E-05-2.82426E-05 5.48075E-06 1.34401E-18 2.09452E-18
 -1      3666 7.67739E-05-1.29684E-05-2.73628E-05 7.30397E-06 1.12692E-18 2.02746E-18
 -1      3667 7.21211E-05-1.08642E-05-2.60618E-05 4.99867E-06 1.19425E-18 2.23927E-18
 -1      3668 7.69738E-05-1.12857E-05-2.80899E-05 3.92738E-06 1.30788E-18 2.19112E-18
 -1      3669 7.49520E-05-9.66762E-06-2.79478E-05 1.33116E-07 1.28339E-18 2.24419E-18
 -1      3670 7.58475E-05-1.05040E-05-2.80194E-05 1.83646E-06 1.30331E-18 2.11954E-18
 -1      3671 7.35649E-05-1.03781E-05-2.71290E-05 2.28373E-06 1.14079E-18 2.08078E-18
 -1      3672 5.96141E-05-1.30187E-05-1.95939E-05-1.80519E-05 1.59674E-18 3.57858E-18
 -1      3673 6.72020E-05-1.64714E-05-2.15885E-05-2.00580E-05 1.60538E-18 3.34880E-18
 -1      3674 5.74896E-05-1.01417E-05-2.03510E-05-1.06447E-05 1.50951E-18 3.17193E-18
 -1      3675 1.09397E-04-3.80930E-05-3.05126E-05 8.62728E-07-1.07198E-19 1.21816E-18
 -1      3676 1.08832E-04-3.80454E-05-3.03372E-05-1.35549E-06-5.73559E-20 1.48874E-18
 -1      3677 1.10611E-04-3.88727E-05-3.07743E-05 2.28650E-06-2.16933E-19 1.22446E-18
 -1      3678 1.08189E-04-1.74110E-05-3.90008E-05 6.18912E-06-1.48368E-18 1.56865E-18
 -1      3679 7.37527E-05-9.20961E-06-2.77138E-05-2.57463E-06 1.11101E-18 2.54544E-18
 -1      3680 9.52545E-05-2.85851E-05-2.85726E-05-1.72002E-09 2.43027E-18 2.54851E-18
 -1      3681 9.52541E-05-2.85849E-05-2.85725E-05-4.59256E-09 2.31735E-18 9.12725E-19
 -1      3682 9.52553E-05-2.85840E-05-2.85734E-05-6.29405E-09 2.74036E-18 9.03132E-19
 -1      3683 9.52561E-05-2.85844E-05-2.85736E-05-2.06541E-10 3.39283E-18 2.92856E-18
 -1      3684 1.17685E-04-5.14129E-05-2.83463E-05 1.47570E-05 1.45761E-18 2.23535E-18
 -1      3685 1.11296E-04-4.77181E-05-2.72766E-05 1.69598E-05 1.30311E-18 1.98795E-18
 -1      3686 1.18125E-04-4.91922E-05-2.95041E-05 8.40896E-06 1.57121E-18 2.41895E-18
 -1      3687 6.48736E-05-1.71541E-05-2.03612E-05 1.64944E-05-9.70233E-19 4.76244E-19
 -1      3688 1.16681E-04-3.91982E-05-3.32607E-05 7.81171E-06-7.07630E-19 5.02591E-19
 -1      3689 1.19710E-04-4.30144E-05-3.29792E-05 4.39890E-06-4.98333E-19 2.26515E-19
 -1      3690 1.13463E-04-3.93985E-05-3.17580E-05 5.23306E-06-4.28963E-19 9.23405E-19
 -1      3691 1.13004E-04-3.99438E-05-3.12716E-05 3.60693E-06-2.72829E-19 9.52601E-19
 -1      3692 1.20197E-04-4.61052E-05-3.16024E-05-7.83808E-07 4.92338E-21 3.17531E-19
 -1      3693 9.50107E-05-3.52654E-05-2.53956E-05-2.39898E-05 1.19365E-18 1.50317E-18
 -1      3694 1.05380E-04-4.23904E-05-2.72379E-05-2.02208E-05 9.37202E-19 9.89004E-19
 -1      3695 6.25937E-05-1.27047E-05-2.13845E-05-3.06544E-06-6.68840E-19 8.31151E-21
 -1      3696 6.67636E-05-1.34466E-05-2.28594E-05-3.22193E-06-4.88728E-19 8.20497E-20
 -1      3697 6.04446E-05-1.19226E-05-2.05361E-05 1.83991E-06-9.00825E-19 3.58110E-19
 -1      3698 7.34106E-05-9.64455E-06-2.73450E-05-6.29665E-06 1.13759E-18 3.03771E-18
 -1      3699 7.20027E-05-9.77899E-06-2.66143E-05-3.75234E-06 1.16829E-18 2.65382E-18
 -1      3700 7.08806E-05-1.45055E-05-2.41834E-05-3.33963E-06-7.29881E-19 7.24279E-21
 -1      3701 7.43274E-05-1.54638E-05-2.52614E-05-3.18777E-06-9.15636E-19-3.02750E-19
 -1      3702 6.91471E-05-1.38946E-05-2.35464E-05 9.28503E-08-9.95771E-19 1.98063E-19
 -1      3703 8.34774E-05-1.87428E-05-2.77617E-05-1.30913E-05 1.10864E-18 2.66701E-18
 -1      3704 8.11570E-05-1.53404E-05-2.81358E-05-1.12351E-05 1.10308E-18 2.86240E-18
 -1      3705 7.82580E-05-1.34316E-05-2.78745E-05-1.06288E-05 1.25627E-18 3.13085E-18
 -1      3706 7.72553E-05-1.65048E-05-2.60678E-05-3.38571E-06-2.35466E-19-5.99098E-19
 -1      3707 7.97992E-05-1.74838E-05-2.67288E-05-3.33595E-06 1.49463E-20-5.59911E-19
 -1      3708 7.59748E-05-1.60435E-05-2.56164E-05-9.88488E-07-4.25625E-19-2.58451E-19
 -1      3709 8.19432E-05-1.84643E-05-2.72315E-05-3.45447E-06 1.73959E-19-6.85071E-19
 -1      3710 8.38355E-05-1.93800E-05-2.76360E-05-3.38544E-06 2.58498E-19-1.08500E-18
 -1      3711 8.09151E-05-1.80433E-05-2.69029E-05-1.76013E-06 6.72012E-20-9.35492E-19
 -1      3712 8.54353E-05-2.02703E-05-2.79475E-05-3.39586E-06 1.83329E-19-9.43401E-19
 -1      3713 8.68448E-05-2.10870E-05-2.81892E-05-3.26921E-06-4.18954E-19-1.09805E-18
 -1      3714 8.45828E-05-1.98640E-05-2.77075E-05-2.19621E-06 3.99309E-20-1.10942E-18
 -1      3715 8.80475E-05-2.18674E-05-2.83772E-05-3.19058E-06-1.62234E-19-5.96916E-19
 -1      3716 8.90917E-05-2.25679E-05-2.85152E-05-3.01228E-06 3.24856E-19 3.12074E-19
 -1      3717 8.73362E-05-2.14777E-05-2.82039E-05-2.34562E-06 1.78833E-19-8.11390E-20
 -1      3718 8.99968E-05-2.32318E-05-2.86237E-05-2.87338E-06 3.87572E-19 9.02178E-19
 -1      3719 9.07645E-05-2.38160E-05-2.86963E-05-2.66431E-06 8.37233E-20 8.71144E-19
 -1      3720 8.94077E-05-2.28690E-05-2.85008E-05-2.28440E-06 5.75910E-19 1.18471E-18
 -1      3721 9.14440E-05-2.43678E-05-2.87539E-05-2.49411E-06-2.10728E-19 1.38705E-18
 -1      3722 9.20043E-05-2.48450E-05-2.87861E-05-2.27593E-06-6.50434E-19 7.79308E-19
 -1      3723 9.09633E-05-2.40415E-05-2.86689E-05-2.08857E-06 7.01289E-20 8.35058E-19
 -1      3724 9.25122E-05-2.52953E-05-2.88119E-05-2.09730E-06-1.08740E-18 1.29903E-18
 -1      3725 9.29184E-05-2.56792E-05-2.88199E-05-1.88688E-06-7.38754E-19 9.20328E-19
 -1      3726 9.21268E-05-2.50111E-05-2.87548E-05-1.82183E-06-7.54080E-19 1.32449E-18
 -1      3727 9.32962E-05-2.60416E-05-2.88265E-05-1.71547E-06 1.35595E-19 5.64105E-19
 -1      3728 9.35889E-05-2.63470E-05-2.88208E-05-1.52366E-06 7.30501E-19 2.04377E-19
 -1      3729 9.29926E-05-2.58009E-05-2.87896E-05-1.53106E-06-3.60336E-19 1.03370E-18
 -1      3730 9.38686E-05-2.66353E-05-2.88162E-05-1.36875E-06 5.01728E-19-1.23982E-19
 -1      3731 9.40784E-05-2.68761E-05-2.88034E-05-1.20120E-06-1.01824E-19-6.79171E-19
 -1      3732 9.36337E-05-2.64363E-05-2.87937E-05-1.24729E-06 5.31205E-19-3.02198E-20
 -1      3733 9.42842E-05-2.71034E-05-2.87929E-05-1.06723E-06-1.18892E-18-9.94277E-19
 -1      3734 9.44337E-05-2.72919E-05-2.87771E-05-9.25741E-07-1.65665E-18-5.16095E-19
 -1      3735 9.41056E-05-2.69423E-05-2.87804E-05-9.88737E-07-1.16755E-18-1.30094E-18
 -1      3736 9.45841E-05-2.74696E-05-2.87640E-05-8.13816E-07-1.21499E-18-1.11226E-18
 -1      3737 9.46901E-05-2.76160E-05-2.87477E-05-6.97621E-07-6.10172E-19-1.40434E-18
 -1      3738 9.44509E-05-2.73416E-05-2.87582E-05-7.64287E-07-1.49327E-18-1.36190E-18
 -1      3739 9.47991E-05-2.77538E-05-2.87340E-05-6.06762E-07 3.12092E-19-1.23671E-18
 -1      3740 9.48736E-05-2.78668E-05-2.87185E-05-5.13628E-07 4.20806E-19-1.13006E-18
 -1      3741 9.47016E-05-2.76539E-05-2.87326E-05-5.76518E-07 6.34515E-20-1.36286E-18
 -1      3742 9.49518E-05-2.79726E-05-2.87055E-05-4.41702E-07 1.05582E-18-1.30607E-18
 -1      3743 9.50037E-05-2.80591E-05-2.86916E-05-3.68673E-07 1.79438E-18-7.73086E-19
 -1      3744 9.48820E-05-2.78960E-05-2.87067E-05-4.24118E-07 1.21479E-18-8.47322E-19
 -1      3745 9.50591E-05-2.81397E-05-2.86798E-05-3.13038E-07 1.81341E-18-3.29413E-19
 -1      3746 9.50946E-05-2.82053E-05-2.86677E-05-2.56954E-07 1.46694E-18 2.98407E-19
 -1      3747 9.50103E-05-2.80819E-05-2.86824E-05-3.03626E-07 1.76645E-18-2.92581E-19
 -1      3748 9.51332E-05-2.82659E-05-2.86574E-05-2.14873E-07 1.58349E-19-1.92910E-20
 -1      3749 9.51571E-05-2.83151E-05-2.86472E-05-1.72679E-07-5.61878E-20 2.37335E-19
 -1      3750 9.51001E-05-2.82232E-05-2.86607E-05-2.10622E-07 2.62994E-19-3.82235E-19
 -1      3751 9.51833E-05-2.83602E-05-2.86384E-05-1.41564E-07 5.38386E-19-5.24289E-19
 -1      3752 9.51990E-05-2.83967E-05-2.86300E-05-1.10491E-07 6.84897E-19-7.22419E-19
 -1      3753 9.51618E-05-2.83292E-05-2.86420E-05-1.40473E-07-1.39729E-19-5.35079E-19
 -1      3754 9.52163E-05-2.84297E-05-2.86228E-05-8.80360E-08 5.46395E-19-3.18678E-19
 -1      3755 9.52261E-05-2.84563E-05-2.86159E-05-6.56753E-08-8.57776E-19 4.30268E-19
 -1      3756 9.52031E-05-2.84077E-05-2.86262E-05-8.87919E-08 4.10158E-19-7.60108E-19
 -1      3757 9.52370E-05-2.84801E-05-2.86101E-05-4.99075E-08-1.10444E-18 1.56824E-18
 -1      3758 9.52427E-05-2.84991E-05-2.86046E-05-3.42359E-08 2.18737E-19 2.06557E-18
 -1      3759 9.52296E-05-2.84649E-05-2.86132E-05-5.16602E-08-5.52566E-19 1.47260E-18
 -1      3760 9.52492E-05-2.85159E-05-2.85999E-05-2.35202E-08 7.37821E-19 1.64471E-18
 -1      3761 9.52521E-05-2.85292E-05-2.85957E-05-1.28814E-08 9.78861E-19 1.43722E-18
 -1      3762 9.52457E-05-2.85057E-05-2.86027E-05-2.57311E-08 6.43386E-19 1.76047E-18
 -1      3763 9.52554E-05-2.85407E-05-2.85920E-05-5.89981E-09 8.39512E-20 1.07777E-18
 -1      3764 9.52566E-05-2.85498E-05-2.85887E-05 1.02970E-09 7.52382E-19-4.85748E-19
 -1      3765 9.52545E-05-2.85342E-05-2.85943E-05-8.23746E-09-3.79109E-19 9.92574E-19
 -1      3766 9.52578E-05-2.85574E-05-2.85858E-05 5.31430E-09 1.90757E-18-1.41126E-18
 -1      3767 9.52577E-05-2.85634E-05-2.85833E-05 9.56883E-09 5.56461E-20-1.70658E-18
 -1      3768 9.52585E-05-2.85536E-05-2.85878E-05 3.04475E-09 1.11199E-18-1.01451E-18
 -1      3769 9.52576E-05-2.85683E-05-2.85811E-05 1.19530E-08-1.66027E-18-6.84533E-19
 -1      3770 9.52569E-05-2.85720E-05-2.85792E-05 1.43224E-08-1.38661E-18-2.34276E-18
 -1      3771 9.52592E-05-2.85662E-05-2.85827E-05 9.85851E-09-1.10034E-18-1.92971E-18
 -1      3772 9.52559E-05-2.85750E-05-2.85775E-05 1.54020E-08 1.06882E-19-1.90030E-18
 -1      3773 9.52548E-05-2.85772E-05-2.85761E-05 1.64050E-08 7.06294E-19-2.07450E-18
 -1      3774 9.52579E-05-2.85741E-05-2.85788E-05 1.35394E-08-2.18323E-19-1.91836E-18
 -1      3775 1.05124E-04-1.79533E-05-3.75060E-05 3.49690E-06-1.58774E-18 1.55085E-18
 -1      3776 1.13489E-04-4.33533E-05-3.00011E-05 7.68717E-07 1.54067E-18 1.80556E-18
 -1      3777 1.15004E-04-4.35196E-05-3.06708E-05-1.48269E-06 1.62914E-18 2.35011E-18
 -1      3778 1.08383E-04-4.06750E-05-2.89441E-05 4.46032E-06 8.49274E-19 1.80732E-18
 -1      3779 1.10432E-04-4.20360E-05-2.93563E-05 2.89127E-06 8.66063E-19 1.75752E-18
 -1      3780 1.12421E-04-4.39387E-05-2.93750E-05 4.44681E-06 1.41001E-18 2.21327E-18
 -1      3781 1.03631E-04-3.70669E-05-2.84665E-05 6.19132E-06 4.53007E-19 2.26639E-18
 -1      3782 1.05597E-04-3.87603E-05-2.86566E-05 5.44518E-06 7.27594E-19 2.02006E-18
 -1      3783 1.06558E-04-4.02490E-05-2.84803E-05 7.21680E-06 5.74924E-19 2.51272E-18
 -1      3784 9.99302E-05-3.37600E-05-2.83185E-05 6.60371E-06 3.38836E-19 2.22579E-18
 -1      3785 1.01527E-04-3.53121E-05-2.83776E-05 6.38238E-06 4.72711E-19 2.07168E-18
 -1      3786 1.01651E-04-3.62329E-05-2.81140E-05 8.06623E-06 3.95401E-19 2.42267E-18
 -1      3787 9.73323E-05-3.11456E-05-2.83416E-05 6.24791E-06-2.98308E-19 2.27223E-18
 -1      3788 9.84899E-05-3.23525E-05-2.83339E-05 6.34542E-06 9.92451E-21 2.50698E-18
 -1      3789 9.81522E-05-3.27668E-05-2.80714E-05 7.70225E-06 1.84800E-19 2.93776E-18
 -1      3790 9.56667E-05-2.92911E-05-2.84343E-05 5.54124E-06-4.23738E-19 2.15662E-18
 -1      3791 9.64366E-05-3.01406E-05-2.83998E-05 5.80319E-06-1.50351E-19 1.99425E-18
 -1      3792 9.58689E-05-3.02164E-05-2.81701E-05 6.79906E-06 4.20245E-20 2.91189E-18
 -1      3793 9.47021E-05-2.80980E-05-2.85396E-05 4.72112E-06-1.46362E-19 1.62052E-18
 -1      3794 9.51707E-05-2.86406E-05-2.85010E-05 5.04989E-06-1.02023E-19 2.14584E-18
 -1      3795 9.45246E-05-2.85059E-05-2.83143E-05 5.73244E-06-2.37004E-19 2.81535E-18
 -1      3796 9.42221E-05-2.74163E-05-2.86304E-05 3.91314E-06 8.59572E-20 1.50128E-18
 -1      3797 9.44762E-05-2.77234E-05-2.85985E-05 4.25297E-06-2.53311E-19 1.13498E-18
 -1      3798 9.38381E-05-2.74732E-05-2.84540E-05 4.69842E-06-3.47772E-20 2.05007E-18
 -1      3799 9.40562E-05-2.71010E-05-2.86969E-05 3.17593E-06-3.03498E-20 2.07715E-18
 -1      3800 9.41678E-05-2.72405E-05-2.86754E-05 3.49700E-06-3.13084E-20 1.65051E-18
 -1      3801 9.35822E-05-2.69373E-05-2.85682E-05 3.77459E-06-3.32120E-19 2.06668E-18
 -1      3802 9.40785E-05-2.70301E-05-2.87380E-05 2.53295E-06 5.76934E-19 1.68847E-18
 -1      3803 9.41022E-05-2.70587E-05-2.87270E-05 2.82088E-06 4.73700E-19 2.08764E-18
 -1      3804 9.35900E-05-2.67436E-05-2.86509E-05 2.98588E-06 2.50182E-19 2.30926E-18
 -1      3805 9.42014E-05-2.71088E-05-2.87573E-05 1.98859E-06-1.76569E-20 2.11012E-18
 -1      3806 9.41758E-05-2.70702E-05-2.87551E-05 2.23794E-06 3.45946E-19 2.16546E-18
 -1      3807 9.37434E-05-2.67688E-05-2.87036E-05 2.33122E-06 1.47248E-19 3.26255E-18
 -1      3808 9.43674E-05-2.72687E-05-2.87599E-05 1.53777E-06-5.62134E-19 2.43559E-18
 -1      3809 9.43182E-05-2.71941E-05-2.87642E-05 1.74812E-06-2.54041E-19 2.07499E-18
 -1      3810 9.39634E-05-2.69210E-05-2.87316E-05 1.79804E-06-1.32734E-19 2.92233E-18
 -1      3811 9.45411E-05-2.74630E-05-2.87508E-05 1.17103E-06-2.83404E-19 2.18365E-18
 -1      3812 9.44844E-05-2.73736E-05-2.87593E-05 1.34471E-06-3.00422E-19 2.25741E-18
 -1      3813 9.42005E-05-2.71357E-05-2.87407E-05 1.36995E-06-3.31847E-19 2.64129E-18
 -1      3814 9.47027E-05-2.76618E-05-2.87344E-05 8.77416E-07-7.39273E-19 1.79312E-18
 -1      3815 9.46478E-05-2.75710E-05-2.87453E-05 1.01812E-06-3.92174E-19 1.98725E-18
 -1      3816 9.44258E-05-2.73702E-05-2.87366E-05 1.03035E-06-2.53938E-19 1.76790E-18
 -1      3817 9.48425E-05-2.78473E-05-2.87144E-05 6.45831E-07-6.25372E-20 1.29803E-18
 -1      3818 9.47940E-05-2.77630E-05-2.87261E-05 7.57839E-07-3.60250E-19 1.77843E-18
 -1      3819 9.46244E-05-2.75980E-05-2.87242E-05 7.63935E-07-7.91898E-19 1.16175E-18
 -1      3820 9.49572E-05-2.80107E-05-2.86932E-05 4.65858E-07 1.15024E-18 5.84638E-19
 -1      3821 9.49172E-05-2.79368E-05-2.87048E-05 5.53517E-07 5.05959E-19 1.16005E-18
 -1      3822 9.47906E-05-2.78044E-05-2.87071E-05 5.57258E-07 5.86528E-19 1.88847E-18
 -1      3823 9.50477E-05-2.81484E-05-2.86725E-05 3.28099E-07 1.48071E-18-4.59070E-19
 -1      3824 9.50161E-05-2.80864E-05-2.86833E-05 3.95543E-07 1.45649E-18 7.91379E-20
 -1      3825 9.49239E-05-2.79824E-05-2.86882E-05 3.98789E-07 1.25007E-18 8.83037E-19
 -1      3826 9.51163E-05-2.82607E-05-2.86535E-05 2.24327E-07 1.55427E-18-7.00490E-19
 -1      3827 9.50924E-05-2.82103E-05-2.86631E-05 2.75311E-07 1.28444E-18-4.60991E-19
 -1      3828 9.50273E-05-2.81305E-05-2.86693E-05 2.78817E-07 1.34286E-18 2.06351E-19
 -1      3829 9.51666E-05-2.83496E-05-2.86366E-05 1.47503E-07 5.89231E-19 1.34583E-19
 -1      3830 9.51493E-05-2.83098E-05-2.86449E-05 1.85327E-07 9.89626E-19-2.88970E-19
 -1      3831 9.51047E-05-2.82498E-05-2.86515E-05 1.89256E-07 9.06987E-19 1.15230E-18
 -1      3832 9.52020E-05-2.84181E-05-2.86222E-05 9.17233E-08 1.12147E-18 1.36873E-18
 -1      3833 9.51900E-05-2.83876E-05-2.86292E-05 1.19210E-07 1.46277E-18 9.59269E-19
 -1      3834 9.51608E-05-2.83435E-05-2.86356E-05 1.23453E-07 3.76824E-19 2.50670E-18
 -1      3835 9.52258E-05-2.84697E-05-2.86102E-05 5.21232E-08 1.11261E-18 9.25967E-19
 -1      3836 9.52180E-05-2.84468E-05-2.86159E-05 7.16292E-08 4.58749E-19 9.89515E-19
 -1      3837 9.52000E-05-2.84152E-05-2.86218E-05 7.59852E-08 9.45733E-19 2.32971E-18
 -1      3838 9.52410E-05-2.85074E-05-2.86004E-05 2.47585E-08 3.69579E-19 1.55684E-18
 -1      3839 9.52362E-05-2.84907E-05-2.86050E-05 3.82141E-08 1.28062E-18 1.26607E-18
 -1      3840 9.52262E-05-2.84687E-05-2.86102E-05 4.24822E-08 6.91638E-19 1.58988E-18
 -1      3841 9.52498E-05-2.85342E-05-2.85926E-05 6.48505E-09 5.37088E-20 7.46914E-19
 -1      3842 9.52472E-05-2.85224E-05-2.85962E-05 1.54391E-08 9.85194E-20 1.63949E-18
 -1      3843 9.52427E-05-2.85076E-05-2.86006E-05 1.94612E-08 8.53573E-21 2.55831E-18
 -1      3844 9.52541E-05-2.85527E-05-2.85864E-05-5.16239E-09 4.07727E-19 1.28051E-18
 -1      3845 9.52530E-05-2.85446E-05-2.85892E-05 5.09604E-10 1.73453E-20 9.12551E-19
 -1      3846 9.52521E-05-2.85352E-05-2.85929E-05 4.18120E-09-2.74845E-19 1.08735E-18
 -1      3847 9.52554E-05-2.85650E-05-2.85817E-05-1.20832E-08 3.20965E-19 2.64788E-18
 -1      3848 9.52553E-05-2.85596E-05-2.85838E-05-8.75193E-09 7.41215E-19 2.70488E-18
 -1      3849 9.52566E-05-2.85540E-05-2.85868E-05-5.48520E-09-6.18757E-19 2.75460E-18
 -1      3850 9.52547E-05-2.85728E-05-2.85780E-05-1.57077E-08 1.36587E-18 2.25578E-18
 -1      3851 9.52553E-05-2.85694E-05-2.85796E-05-1.40110E-08 1.36944E-18 2.44856E-18
 -1      3852 9.52577E-05-2.85664E-05-2.85820E-05-1.11703E-08 7.64774E-19 3.33465E-18
 -1      3853 9.52529E-05-2.85774E-05-2.85752E-05-1.70693E-08-2.03847E-19 3.04924E-18
 -1      3854 9.52538E-05-2.85754E-05-2.85764E-05-1.65103E-08 9.59469E-19 1.99718E-18
 -1      3855 9.52568E-05-2.85741E-05-2.85783E-05-1.40815E-08 8.30686E-19 2.31544E-18
 -1      3856 9.52510E-05-2.85798E-05-2.85734E-05-1.68809E-08 4.06885E-19 1.95479E-18
 -1      3857 9.52520E-05-2.85786E-05-2.85743E-05-1.70239E-08-1.51973E-19 2.51491E-18
 -1      3858 9.52551E-05-2.85784E-05-2.85758E-05-1.49874E-08-2.07758E-19 1.74799E-18
 -1      3859 9.52534E-05-2.85808E-05-2.85740E-05-1.47231E-08 8.47996E-19 1.63730E-18
 -1      3860 6.07950E-05-8.99511E-06-2.19996E-05 2.97936E-07 1.19651E-18 2.64195E-18
 -1      3861 8.18705E-05-3.05279E-05-2.21525E-05 2.63801E-05 9.43912E-20 1.96168E-19
 -1      3862 7.27416E-05-2.32595E-05-2.10878E-05 2.29438E-05-9.59212E-19 7.27045E-19
 -1      3863 1.13458E-04-4.59370E-05-2.86677E-05-1.41940E-05 7.21305E-19 6.43063E-19
 -1      3864 1.18270E-04-4.76614E-05-3.04520E-05-7.62666E-06 2.51911E-19 4.94211E-19
 -1      3865 1.15580E-04-4.42202E-05-3.06060E-05-3.57108E-06 9.61440E-20 6.80042E-19
 -1      3866 1.07282E-04-4.12676E-05-2.82637E-05-1.49409E-05 7.62680E-19 1.02225E-18
 -1      3867 1.18675E-04-3.98029E-05-3.38438E-05-8.88574E-06 2.29559E-19 2.62169E-18
 -1      3868 7.47566E-05-1.07381E-05-2.74065E-05-8.32803E-06 1.16362E-18 3.23787E-18
 -1      3869 9.52538E-05-2.85819E-05-2.85737E-05 1.34863E-08 1.08760E-18-3.62645E-19
 -1      3870 9.52560E-05-2.85830E-05-2.85742E-05 9.51406E-09 2.03336E-18-5.70099E-19
 -1      3871 9.52546E-05-2.85809E-05-2.85744E-05 1.39193E-08 3.75379E-19-1.19013E-18
 -1      3872 1.11940E-04-1.88736E-05-4.00037E-05-1.02250E-05-1.73456E-18 2.68558E-18
 -1      3873 1.19529E-04-4.53348E-05-3.18468E-05-2.09305E-06 1.19602E-18 2.41978E-18
 -1      3874 1.19169E-04-4.82355E-05-3.03035E-05 3.94005E-06 1.83659E-18 2.24476E-18
 -1      3875 6.43817E-05-1.36977E-05-2.16810E-05 5.68663E-06-1.32730E-18 5.58115E-20
 -1      3876 9.93066E-05-2.86188E-05-3.02794E-05-3.92476E-06-1.32505E-19 2.12504E-18
 -1      3877 9.76904E-05-2.67412E-05-3.04112E-05-3.82939E-06-1.34118E-19 2.36807E-18
 -1      3878 9.58264E-05-2.54193E-05-3.01596E-05-5.44494E-06 7.13382E-20 2.33242E-18
 -1      3879 1.01005E-04-3.06535E-05-3.01489E-05-4.11884E-06-8.52600E-20 1.98563E-18
 -1      3880 1.18449E-04-4.26049E-05-3.25308E-05-5.94377E-06 1.03270E-18 2.28475E-18
 -1      3881 7.73698E-05-2.27977E-05-2.32818E-05-2.34176E-05 1.63165E-18 2.83485E-18
 -1      3882 8.52652E-05-2.90250E-05-2.42331E-05-2.53295E-05 1.49570E-18 2.27701E-18
 -1      3883 9.52535E-05-2.85826E-05-2.85732E-05-1.18224E-08 2.48193E-18 9.06309E-19
 -1      3884 7.04665E-05-1.99685E-05-2.15099E-05 1.86553E-05-1.10561E-18 2.92531E-19
 -1      3885 6.93004E-05-1.73190E-05-2.23069E-05 1.31506E-05-7.74317E-19 1.18545E-19
 -1      3886 7.63713E-05-2.30072E-05-2.29391E-05 1.87173E-05-1.21292E-18 5.92910E-19
 -1      3887 1.08999E-04-1.66571E-05-3.98026E-05-7.31744E-06-2.09079E-18 2.52052E-18
 -1      3888 1.01936E-04-4.28884E-05-2.53943E-05 2.25446E-05 1.23854E-18 1.33281E-18
 -1      3889 9.17926E-05-3.64585E-05-2.34599E-05 2.61059E-05 1.12291E-18 3.32937E-19
 -1      3890 9.64653E-05-2.72443E-05-2.96699E-05-7.50007E-06 2.60162E-19 1.98337E-18
 -1      3891 7.56333E-05-1.30302E-05-2.67549E-05-1.07737E-05 1.24964E-18 3.17213E-18
 -1      3892 9.52583E-05-2.85822E-05-2.85755E-05 6.67883E-09 2.57252E-18-5.96777E-19
 -1      3893 9.52570E-05-2.85833E-05-2.85745E-05 6.31041E-09 2.41100E-18-6.50591E-19
 -1      3894 9.52577E-05-2.85835E-05-2.85747E-05 3.30137E-09 3.32467E-18 1.01538E-18
 -1      3895 8.65785E-05-2.24342E-05-2.73766E-05-1.53304E-05 1.15568E-18 2.37204E-18
 -1      3896 8.18885E-05-1.95204E-05-2.68399E-05-1.55762E-05 1.30224E-18 2.68845E-18
 -1      3897 1.13596E-04-4.13448E-05-3.09891E-05 7.18897E-07-1.16621E-19 1.11200E-18
 -1      3898 8.84442E-05-3.26947E-05-2.37539E-05 2.30781E-05 2.35899E-19 7.37250E-19
 -1      3899 9.18637E-05-3.09532E-05-2.59520E-05-2.12329E-05 1.27904E-18 1.83277E-18
 -1      3900 1.15069E-04-4.68481E-05-2.92835E-05 7.05050E-06 1.48435E-18 2.46736E-18
 -1      3901 6.81842E-05-1.52196E-05-2.25400E-05 9.02936E-06-1.00955E-18 2.26356E-19
 -1      3902 6.77241E-05-1.42689E-05-2.29475E-05 4.02670E-06-8.90389E-19 1.90774E-19
 -1      3903 7.18356E-05-1.52890E-05-2.42359E-05 3.04535E-06-1.24569E-18 1.34741E-19
 -1      3904 7.26005E-05-1.77109E-05-2.34627E-05 1.08333E-05-8.72603E-19 4.78236E-19
 -1      3905 1.09537E-04-4.48985E-05-2.77038E-05 1.34775E-05 1.15225E-18 2.33631E-18
 -1      3906 1.06941E-04-4.47931E-05-2.65397E-05 1.86647E-05 1.36546E-18 1.75695E-18
 -1      3907 1.00934E-04-4.01908E-05-2.59963E-05 1.90752E-05 1.27550E-18 2.02107E-18
 -1      3908 9.47090E-05-2.78978E-05-2.85975E-05-1.24248E-05 7.66785E-19 1.99433E-18
 -1      3909 9.09768E-05-2.55066E-05-2.80822E-05-1.38579E-05 9.46162E-19 2.23219E-18
 -1      3910 9.03529E-05-2.67133E-05-2.72580E-05-1.65245E-05 1.06270E-18 2.07059E-18
 -1      3911 1.08343E-04-1.43543E-05-4.04351E-05-3.00978E-06-2.16020E-18 2.44515E-18
 -1      3912 9.52555E-05-2.85828E-05-2.85741E-05-9.64306E-09 2.19293E-18 6.15492E-19
 -1      3913 9.52547E-05-2.85818E-05-2.85741E-05-1.21688E-08 1.86601E-18 1.58763E-18
 -1      3914 9.52557E-05-2.85808E-05-2.85749E-05-1.23471E-08 1.05158E-18 1.96002E-18
 -1      3915 1.05206E-04-3.55546E-05-2.98886E-05-4.85731E-06 2.89780E-20 1.74131E-18
 -1      3916 1.03502E-04-3.36255E-05-2.99106E-05-5.02224E-06-1.33044E-20 1.76218E-18
 -1      3917 9.52574E-05-2.85835E-05-2.85745E-05-3.62593E-09 3.48855E-18 1.94917E-18
 -1      3918 9.52567E-05-2.85831E-05-2.85744E-05-6.57265E-09 2.50762E-18 2.00705E-18
 -1      3919 9.52579E-05-2.85822E-05-2.85753E-05-6.82089E-09 2.34939E-18 2.45030E-18
 -1      3920 1.10935E-04-4.02335E-05-3.03185E-05-2.27106E-06 2.24067E-20 1.32569E-18
 -1      3921 1.08881E-04-3.85236E-05-3.01149E-05-3.36412E-06 1.20578E-19 1.56343E-18
 -1      3922 1.07313E-04-3.78634E-05-2.97920E-05-5.98076E-06 2.32911E-19 1.30573E-18
 -1      3923 1.13770E-04-4.21071E-05-3.07704E-05-1.25449E-06 3.27332E-20 1.11552E-18
 -1      3924 7.01460E-05-9.35374E-06-2.59841E-05-3.75317E-07 1.24317E-18 1.97934E-18
 -1      3925 7.08374E-05-1.02233E-05-2.60318E-05 2.04654E-06 1.32869E-18 2.06778E-18
 -1      3926 6.73241E-05-9.71918E-06-2.47741E-05 2.26105E-06 1.20244E-18 2.13327E-18
 -1      3927 6.42703E-05-1.01336E-05-2.31023E-05-4.32364E-06 1.43416E-18 2.66281E-18
 -1      3928 6.91425E-05-9.72055E-06-2.54944E-05-4.77628E-06 1.21181E-18 2.67782E-18
 -1      3929 1.06991E-04-1.52494E-05-3.94424E-05 1.79046E-06-1.72853E-18 1.89871E-18
 -1      3930 7.47566E-05-1.61443E-05-2.51779E-05 1.73767E-06-9.45049E-19 3.52859E-19
 -1      3931 7.76696E-05-1.70908E-05-2.59723E-05 1.07208E-06-1.95732E-19-8.99468E-20
 -1      3932 7.43432E-05-1.65473E-05-2.46929E-05 5.35925E-06-7.90637E-19 6.99139E-19
 -1      3933 7.98757E-05-1.79701E-05-2.65754E-05 1.94226E-07-1.09577E-19-2.75001E-19
 -1      3934 8.20086E-05-1.88474E-05-2.70756E-05-2.44243E-07 1.89292E-20-4.95458E-19
 -1      3935 7.92945E-05-1.80408E-05-2.62045E-05 2.74601E-06-2.18500E-19 1.58772E-19
 -1      3936 8.36790E-05-1.96649E-05-2.74660E-05-7.95675E-07 6.68945E-19-2.66662E-19
 -1      3937 8.52747E-05-2.04650E-05-2.77796E-05-1.03111E-06 3.93518E-19 4.30143E-19
 -1      3938 8.30620E-05-1.95585E-05-2.71853E-05 1.02738E-06 5.54196E-19 1.43829E-19
 -1      3939 8.65605E-05-2.12122E-05-2.80289E-05-1.34706E-06 1.96401E-19 7.43479E-19
 -1      3940 8.77599E-05-2.19174E-05-2.82211E-05-1.43002E-06 7.47474E-19 9.65732E-19
 -1      3941 8.59537E-05-2.09881E-05-2.78199E-05-4.35492E-08 7.05293E-19 1.17963E-18
 -1      3942 8.87543E-05-2.25783E-05-2.83770E-05-1.57774E-06 5.82193E-19 9.55565E-19
 -1      3943 8.96562E-05-2.31852E-05-2.84903E-05-1.55680E-06 5.02433E-19 1.04068E-18
 -1      3944 8.81915E-05-2.22929E-05-2.82250E-05-6.49382E-07 6.98048E-19 9.09864E-19
 -1      3945 9.04243E-05-2.37545E-05-2.85839E-05-1.59369E-06 2.31946E-19 1.54821E-19
 -1      3946 9.11005E-05-2.42660E-05-2.86462E-05-1.50982E-06-4.86198E-19-4.77951E-19
 -1      3947 8.99262E-05-2.34501E-05-2.84764E-05-9.37259E-07-5.32582E-19 2.50669E-19
 -1      3948 9.16912E-05-2.47457E-05-2.86986E-05-1.47926E-06-4.87650E-19 1.46825E-19
 -1      3949 9.21960E-05-2.51693E-05-2.87285E-05-1.36366E-06-4.51342E-19 1.03729E-18
 -1      3950 9.12663E-05-2.44503E-05-2.86251E-05-1.01948E-06 4.69844E-20-7.02258E-20
 -1      3951 9.26476E-05-2.55665E-05-2.87543E-05-1.29688E-06-4.39498E-19 9.65314E-19
 -1      3952 9.30226E-05-2.59125E-05-2.87641E-05-1.17124E-06 2.93217E-19 9.99491E-19
 -1      3953 9.22960E-05-2.52967E-05-2.87060E-05-9.78219E-07-1.82303E-19 4.94408E-19
 -1      3954 9.33655E-05-2.62365E-05-2.87731E-05-1.08940E-06 1.23114E-19 6.67793E-19
 -1      3955 9.36426E-05-2.65157E-05-2.87711E-05-9.67514E-07-3.45821E-19-4.43032E-20
 -1      3956 9.30820E-05-2.60005E-05-2.87430E-05-8.71065E-07-3.00541E-19 1.55504E-18
 -1      3957 9.39011E-05-2.67768E-05-2.87699E-05-8.83996E-07-6.22083E-19-3.88379E-19
 -1      3958 9.41046E-05-2.69997E-05-2.87613E-05-7.73658E-07-1.61613E-18-3.47508E-19
 -1      3959 9.36778E-05-2.65771E-05-2.87527E-05-7.36297E-07-7.43779E-19 2.36698E-19
 -1      3960 9.42977E-05-2.72077E-05-2.87544E-05-6.96187E-07-1.81457E-18 2.54173E-19
 -1      3961 9.44462E-05-2.73840E-05-2.87427E-05-6.01011E-07-1.01750E-18 1.82011E-19
 -1      3962 9.41256E-05-2.70432E-05-2.87460E-05-5.97756E-07-1.53163E-18 8.23592E-19
 -1      3963 9.45892E-05-2.75479E-05-2.87329E-05-5.33413E-07 4.12829E-19 1.74375E-19
 -1      3964 9.46966E-05-2.76860E-05-2.87203E-05-4.54285E-07 7.00907E-19 3.04372E-19
 -1      3965 9.44594E-05-2.74155E-05-2.87304E-05-4.69035E-07-2.34663E-19 2.14994E-18
 -1      3966 9.48013E-05-2.78137E-05-2.87095E-05-3.97867E-07 7.93913E-19 4.37148E-19
 -1      3967 9.48782E-05-2.79208E-05-2.86972E-05-3.34037E-07 1.54634E-18 6.17987E-19
 -1      3968 9.47054E-05-2.77094E-05-2.87106E-05-3.56804E-07 8.53477E-19 2.09968E-18
 -1      3969 9.49537E-05-2.80193E-05-2.86866E-05-2.88584E-07 1.52310E-18-1.01505E-19
 -1      3970 9.50081E-05-2.81014E-05-2.86752E-05-2.38429E-07 8.19890E-19-6.18360E-19
 -1      3971 9.48846E-05-2.79386E-05-2.86897E-05-2.63317E-07 1.08223E-18 1.20622E-18
 -1      3972 9.50617E-05-2.81764E-05-2.86653E-05-2.02901E-07 8.35224E-19-6.93331E-19
 -1      3973 9.50995E-05-2.82386E-05-2.86553E-05-1.64434E-07-2.31241E-19-5.50798E-19
 -1      3974 9.50132E-05-2.81152E-05-2.86695E-05-1.88202E-07 5.58681E-19 1.18260E-19
 -1      3975 9.51368E-05-2.82950E-05-2.86466E-05-1.37423E-07-5.16338E-19 7.00184E-20
 -1      3976 9.51624E-05-2.83416E-05-2.86380E-05-1.08604E-07 5.04437E-19 3.34432E-20
 -1      3977 9.51037E-05-2.82495E-05-2.86511E-05-1.29678E-07 1.81313E-19-2.95842E-19
 -1      3978 9.51876E-05-2.83833E-05-2.86305E-05-8.86156E-08 6.61280E-19 3.45864E-19
 -1      3979 9.52045E-05-2.84175E-05-2.86233E-05-6.75406E-08-1.21737E-19 3.71821E-19
 -1      3980 9.51660E-05-2.83501E-05-2.86349E-05-8.53469E-08 7.11115E-19 3.99387E-19
 -1      3981 9.52209E-05-2.84479E-05-2.86170E-05-5.31594E-08-3.09393E-20 1.00343E-18
 -1      3982 9.52315E-05-2.84727E-05-2.86112E-05-3.81455E-08-2.91066E-19 1.62149E-18
 -1      3983 9.52076E-05-2.84243E-05-2.86210E-05-5.26802E-08 8.34171E-19 3.34509E-19
 -1      3984 9.52416E-05-2.84943E-05-2.86060E-05-2.81173E-08 8.54048E-20 1.52621E-18
 -1      3985 9.52477E-05-2.85119E-05-2.86013E-05-1.77397E-08 3.84362E-19 5.81788E-19
 -1      3986 9.52341E-05-2.84780E-05-2.86095E-05-2.92928E-08-2.88344E-20 1.47023E-18
 -1      3987 9.52534E-05-2.85269E-05-2.85971E-05-1.10042E-08 5.36718E-20 1.05296E-18
 -1      3988 9.52565E-05-2.85390E-05-2.85933E-05-4.09444E-09-4.53473E-19 1.12917E-18
 -1      3989 9.52499E-05-2.85160E-05-2.86001E-05-1.30817E-08 2.70595E-19 4.34458E-19
 -1      3990 9.52592E-05-2.85491E-05-2.85900E-05 2.12857E-10-5.10064E-19 5.96476E-19
 -1      3991 9.52603E-05-2.85572E-05-2.85871E-05 4.58660E-09 2.50759E-19-1.52493E-18
 -1      3992 9.52583E-05-2.85422E-05-2.85925E-05-2.27785E-09-8.70048E-19 9.93034E-19
 -1      3993 9.52609E-05-2.85638E-05-2.85845E-05 7.14935E-09-4.93371E-19-1.82092E-18
 -1      3994 9.52607E-05-2.85690E-05-2.85822E-05 9.71139E-09-1.52622E-18-1.76811E-18
 -1      3995 9.52616E-05-2.85596E-05-2.85865E-05 4.55448E-09-5.71789E-19-1.07764E-18
 -1      3996 9.52601E-05-2.85730E-05-2.85802E-05 1.10529E-08-1.14656E-18-2.14083E-18
 -1      3997 9.52591E-05-2.85761E-05-2.85784E-05 1.23448E-08-2.06605E-19-2.39072E-18
 -1      3998 9.52617E-05-2.85708E-05-2.85818E-05 8.54426E-09-1.30515E-18-1.44234E-18
 -1      3999 9.52549E-05-2.85782E-05-2.85757E-05 1.57175E-08 6.33933E-19-2.33911E-18
 -1      4000 9.52542E-05-2.85796E-05-2.85748E-05 1.56601E-08-1.40981E-19-1.99016E-18
 -1      4001 9.90681E-05-3.43820E-05-2.76737E-05 9.90736E-06-1.09845E-20 2.59047E-18
 -1      4002 1.01299E-04-3.65098E-05-2.77365E-05 1.00285E-05 2.62016E-19 2.17956E-18
 -1      4003 9.52570E-05-2.85782E-05-2.85766E-05 1.40578E-08 9.56771E-19-2.78288E-18
 -1      4004 1.04580E-04-3.98811E-05-2.76870E-05 1.12847E-05 6.58300E-19 2.50980E-18
 -1      4005 1.07535E-04-4.23624E-05-2.79565E-05 1.08193E-05 9.14672E-19 2.32300E-18
 -1      4006 1.11993E-04-4.50223E-05-2.86193E-05 8.84487E-06 1.02269E-18 2.75433E-18
 -1      4007 9.59552E-05-3.10542E-05-2.77944E-05 8.59675E-06 1.42577E-19 3.13457E-18
 -1      4008 9.74479E-05-3.26078E-05-2.77530E-05 9.07855E-06 4.34452E-20 3.02842E-18
 -1      4009 9.64048E-05-3.27522E-05-2.73572E-05 1.10063E-05 1.18684E-20 2.49482E-18
 -1      4010 9.41490E-05-2.87987E-05-2.79996E-05 7.08456E-06-1.38470E-19 3.47783E-18
 -1      4011 9.50551E-05-2.98427E-05-2.79207E-05 7.67358E-06 1.31344E-19 3.38246E-18
 -1      4012 9.39046E-05-2.95982E-05-2.76028E-05 8.95725E-06-2.50709E-19 3.82601E-18
 -1      4013 9.32376E-05-2.74194E-05-2.82076E-05 5.68535E-06-4.65226E-19 3.78876E-18
 -1      4014 9.37348E-05-2.80593E-05-2.81256E-05 6.25959E-06-3.55262E-19 3.48103E-18
 -1      4015 9.26916E-05-2.76784E-05-2.78841E-05 7.05869E-06-1.88395E-19 4.19818E-18
 -1      4016 9.28982E-05-2.66733E-05-2.83859E-05 4.47568E-06-1.16404E-19 3.28664E-18
 -1      4017 9.31233E-05-2.70163E-05-2.83156E-05 4.98704E-06 1.94920E-19 3.55427E-18
 -1      4018 9.22095E-05-2.65823E-05-2.81366E-05 5.45868E-06-4.92020E-20 4.17157E-18
 -1      4019 9.29104E-05-2.63691E-05-2.85231E-05 3.47461E-06-5.22423E-19 2.45769E-18
 -1      4020 9.29630E-05-2.65064E-05-2.84699E-05 3.90890E-06-4.67030E-19 2.68357E-18
 -1      4021 9.21898E-05-2.60702E-05-2.83410E-05 4.15790E-06-2.23181E-19 3.80406E-18
 -1      4022 9.31176E-05-2.63520E-05-2.86196E-05 2.66877E-06 3.42225E-19 2.59178E-18
 -1      4023 9.30697E-05-2.63563E-05-2.85834E-05 3.02733E-06-2.77108E-19 2.24746E-18
 -1      4024 9.24319E-05-2.59480E-05-2.84934E-05 3.13480E-06-2.30625E-19 2.34118E-18
 -1      4025 9.34157E-05-2.65064E-05-2.86809E-05 2.03088E-06-1.53473E-19 3.26650E-18
 -1      4026 9.33167E-05-2.64319E-05-2.86594E-05 2.32159E-06 3.41339E-19 3.33686E-18
 -1      4027 9.28001E-05-2.60657E-05-2.85987E-05 2.34540E-06-1.52390E-19 2.80695E-18
 -1      4028 9.37391E-05-2.67502E-05-2.87144E-05 1.53160E-06-4.83999E-20 2.82867E-18
 -1      4029 9.36207E-05-2.66352E-05-2.87043E-05 1.76429E-06-2.72652E-19 3.15155E-18
 -1      4030 9.32089E-05-2.63167E-05-2.86653E-05 1.74328E-06 6.63889E-20 2.22645E-18
 -1      4031 9.40490E-05-2.70282E-05-2.87273E-05 1.14412E-06-6.67125E-20 2.29237E-18
 -1      4032 9.39306E-05-2.68984E-05-2.87256E-05 1.32845E-06 2.53052E-19 3.04287E-18
 -1      4033 9.36070E-05-2.66279E-05-2.87023E-05 1.28741E-06-9.13356E-20 2.49749E-18
 -1      4034 9.43250E-05-2.73054E-05-2.87261E-05 8.45575E-07-3.30865E-19 2.08874E-18
 -1      4035 9.42173E-05-2.71767E-05-2.87300E-05 9.90251E-07 2.24115E-20 2.45231E-18
 -1      4036 9.39668E-05-2.69519E-05-2.87178E-05 9.44020E-07 1.88137E-19 2.61883E-18
 -1      4037 9.45587E-05-2.75612E-05-2.87160E-05 6.17185E-07 2.62766E-19 8.31611E-19
 -1      4038 9.44664E-05-2.74430E-05-2.87232E-05 7.29687E-07-2.45469E-19 1.20319E-18
 -1      4039 9.42754E-05-2.72597E-05-2.87185E-05 6.86398E-07 2.54643E-19 2.77101E-18
 -1      4040 9.47487E-05-2.77855E-05-2.87007E-05 4.43793E-07-1.28783E-19 1.33590E-18
 -1      4041 9.46733E-05-2.76823E-05-2.87097E-05 5.30418E-07-1.94083E-19 6.13380E-19
 -1      4042 9.45301E-05-2.75354E-05-2.87098E-05 4.93877E-07 1.72685E-19 8.52134E-19
 -1      4043 9.48983E-05-2.79745E-05-2.86833E-05 3.13294E-07 1.09189E-18 1.47825E-18
 -1      4044 9.48389E-05-2.78879E-05-2.86927E-05 3.79276E-07 9.72689E-19 1.28125E-18
 -1      4045 9.47335E-05-2.77723E-05-2.86959E-05 3.50662E-07-1.81785E-19 1.11124E-18
 -1      4046 9.50124E-05-2.81290E-05-2.86656E-05 2.16072E-07 1.74815E-18 1.54538E-18
 -1      4047 9.49672E-05-2.80585E-05-2.86748E-05 2.65723E-07 1.55900E-18 1.78406E-18
 -1      4048 9.48912E-05-2.79690E-05-2.86796E-05 2.44743E-07 9.58973E-19 1.99443E-18
 -1      4049 9.50969E-05-2.82520E-05-2.86488E-05 1.44513E-07-3.46821E-19 3.60870E-18
 -1      4050 9.50636E-05-2.81961E-05-2.86572E-05 1.81360E-07 1.14226E-18 2.46437E-18
 -1      4051 9.50102E-05-2.81280E-05-2.86628E-05 1.66998E-07 1.00412E-18 3.87776E-18
 -1      4052 9.51576E-05-2.83473E-05-2.86337E-05 9.25972E-08 3.06294E-20 3.03502E-18
 -1      4053 9.51339E-05-2.83041E-05-2.86411E-05 1.19509E-07-4.20083E-19 3.05856E-18
 -1      4054 9.50975E-05-2.82534E-05-2.86467E-05 1.10492E-07 1.28117E-19 3.51144E-18
 -1      4055 9.51996E-05-2.84196E-05-2.86205E-05 5.55874E-08 1.52676E-18 2.28708E-18
 -1      4056 9.51834E-05-2.83870E-05-2.86269E-05 7.48765E-08 8.06687E-19 2.28337E-18
 -1      4057 9.51596E-05-2.83500E-05-2.86322E-05 6.99379E-08 8.92293E-19 2.34577E-18
 -1      4058 9.52274E-05-2.84731E-05-2.86093E-05 2.97684E-08-1.66833E-20 2.70626E-18
 -1      4059 9.52169E-05-2.84491E-05-2.86146E-05 4.32831E-08 6.78173E-19 2.54181E-18
 -1      4060 9.52022E-05-2.84226E-05-2.86194E-05 4.12990E-08 8.74728E-19 3.07048E-18
 -1      4061 9.52446E-05-2.85116E-05-2.86001E-05 1.22459E-08-2.77400E-19 2.24196E-18
 -1      4062 9.52383E-05-2.84944E-05-2.86044E-05 2.14491E-08 2.77906E-20 2.30824E-18
 -1      4063 9.52301E-05-2.84761E-05-2.86086E-05 2.14906E-08-2.56542E-19 2.63934E-18
 -1      4064 9.52544E-05-2.85386E-05-2.85926E-05 7.83750E-10-7.42537E-19 3.07982E-18
 -1      4065 9.52510E-05-2.85266E-05-2.85961E-05 6.81932E-09-3.88821E-19 2.61983E-18
 -1      4066 9.52472E-05-2.85143E-05-2.85996E-05 8.15988E-09-4.19616E-19 2.71894E-18
 -1      4067 9.52588E-05-2.85569E-05-2.85866E-05-6.32978E-09-1.01460E-18 3.74168E-18
 -1      4068 9.52575E-05-2.85488E-05-2.85894E-05-2.57712E-09-1.01620E-18 3.33343E-18
 -1      4069 9.52566E-05-2.85409E-05-2.85923E-05-4.80387E-10-5.97463E-19 3.70015E-18
 -1      4070 9.52598E-05-2.85687E-05-2.85819E-05-1.04003E-08 1.84329E-18 2.35563E-18
 -1      4071 9.52598E-05-2.85635E-05-2.85841E-05-8.23409E-09 2.72968E-20 2.43099E-18
 -1      4072 9.52606E-05-2.85588E-05-2.85865E-05-5.76099E-09 9.41506E-20 2.15785E-18
 -1      4073 9.52585E-05-2.85760E-05-2.85782E-05-1.23121E-08-2.88772E-19 3.08564E-18
 -1      4074 9.52594E-05-2.85728E-05-2.85799E-05-1.12968E-08 1.25771E-18 2.66492E-18
 -1      4075 9.52612E-05-2.85704E-05-2.85818E-05-8.75287E-09 1.25245E-18 2.77325E-18
 -1      4076 1.00986E-04-3.14196E-05-2.98299E-05-6.28168E-06 5.88924E-20 1.85000E-18
 -1      4077 7.58145E-05-1.46104E-05-2.61252E-05-1.34301E-05 1.25931E-18 3.27892E-18
 -1      4078 7.12105E-05-1.18347E-05-2.55307E-05-1.07126E-05 1.26692E-18 3.38728E-18
 -1      4079 6.86728E-05-1.08051E-05-2.47298E-05-7.51354E-06 1.29787E-18 2.98257E-18
 -1      4080 7.80915E-05-1.82512E-05-2.55986E-05-1.64192E-05 1.35102E-18 3.08004E-18
 -1      4081 9.90491E-05-3.04840E-05-2.93666E-05-8.82592E-06 3.75770E-19 1.63016E-18
 -1      4082 6.86979E-05-1.52484E-05-2.29392E-05-1.74260E-05 1.56659E-18 3.30126E-18
 -1      4083 7.24795E-05-1.89817E-05-2.28366E-05-2.18178E-05 1.60151E-18 3.12079E-18
 -1      4084 9.21284E-05-3.42292E-05-2.49766E-05 2.06833E-05 1.56135E-19 1.55584E-18
 -1      4085 8.47444E-05-2.84582E-05-2.39197E-05 2.06206E-05-1.04443E-18 1.31166E-18
 -1      4086 7.86181E-05-2.11528E-05-2.45012E-05-2.02041E-05 1.59233E-18 2.95383E-18
 -1      4087 9.52578E-05-2.85836E-05-2.85746E-05 1.36875E-09 3.75682E-18 3.44015E-18
 -1      4088 9.52577E-05-2.85836E-05-2.85747E-05-1.71109E-09 3.52347E-18 2.89827E-18
 -1      4089 9.52591E-05-2.85825E-05-2.85756E-05-2.00437E-09 3.19765E-18 3.26876E-18
 -1      4090 9.52593E-05-2.85825E-05-2.85757E-05 1.73356E-09 3.37596E-18 3.05296E-18
 -1      4091 8.18393E-05-2.51608E-05-2.41622E-05 1.72234E-05-1.17582E-18 1.24387E-18
 -1      4092 9.52591E-05-2.85773E-05-2.85779E-05 1.16766E-08 2.63168E-19-2.31816E-18
 -1      4093 9.98179E-05-3.25616E-05-2.88346E-05-1.12590E-05 4.73032E-19 1.57511E-18
 -1      4094 9.52593E-05-2.85806E-05-2.85766E-05 8.05267E-09 1.84647E-18-1.81885E-18
 -1      4095 9.52604E-05-2.85809E-05-2.85769E-05 5.04660E-09 2.21957E-18-1.01175E-19
 -1      4096 1.01192E-04-3.81273E-05-2.71075E-05 1.38101E-05 4.35135E-19 2.37974E-18
 -1      4097 7.63239E-05-1.98313E-05-2.42296E-05 1.23254E-05-9.33371E-19 6.34156E-19
 -1      4098 7.46038E-05-1.77840E-05-2.44282E-05 8.31656E-06-9.24320E-19 3.85053E-19
 -1      4099 7.74981E-05-1.82912E-05-2.53376E-05 6.52163E-06-5.87709E-19 1.84010E-19
 -1      4100 9.52577E-05-2.85778E-05-2.85771E-05-1.23473E-08-2.98886E-19 3.15761E-18
 -1      4101 9.52600E-05-2.85768E-05-2.85786E-05-9.91720E-09 2.39903E-19 4.04357E-18
 -1      4102 9.52569E-05-2.85794E-05-2.85761E-05-1.24869E-08-2.59681E-19 2.76493E-18
 -1      4103 1.02632E-04-3.69748E-05-2.80324E-05-1.52203E-05 7.37845E-19 1.24171E-18
 -1      4104 1.08815E-04-4.10722E-05-2.91683E-05-1.06523E-05 4.84546E-19 8.97517E-19
 -1      4105 8.96023E-05-2.74960E-05-2.65552E-05-1.86459E-05 1.18578E-18 2.06451E-18
 -1      4106 9.72554E-05-3.33304E-05-2.75069E-05-1.73599E-05 8.78616E-19 1.64412E-18
 -1      4107 1.12585E-04-4.25940E-05-2.98525E-05-6.72205E-06 3.84834E-19 9.09260E-19
 -1      4108 9.52574E-05-2.85808E-05-2.85757E-05 1.17132E-08 1.32829E-18-2.09790E-18
 -1      4109 9.70722E-05-3.63084E-05-2.59705E-05 1.75684E-05 4.43270E-19 2.43023E-18
 -1      4110 8.82492E-05-2.88409E-05-2.55909E-05 1.60451E-05-9.35499E-19 2.04342E-18
 -1      4111 8.12400E-05-2.34669E-05-2.47309E-05 1.45290E-05-1.19259E-18 1.61717E-18
 -1      4112 8.27174E-05-2.31461E-05-2.55368E-05 1.18968E-05-1.28245E-18 1.55696E-18
 -1      4113 9.52594E-05-2.85792E-05-2.85772E-05 1.00294E-08 1.39839E-18-2.23880E-18
 -1      4114 6.75760E-05-1.27623E-05-2.33790E-05-1.43090E-05 1.50735E-18 3.47211E-18
 -1      4115 7.22339E-05-1.54133E-05-2.44744E-05-1.62963E-05 1.49626E-18 3.29278E-18
 -1      4116 9.52614E-05-2.85771E-05-2.85790E-05 8.14771E-09-1.36884E-19-1.43301E-18
 -1      4117 7.98179E-05-2.06004E-05-2.52778E-05-1.87236E-05 1.47451E-18 2.87448E-18
 -1      4118 8.43080E-05-2.43657E-05-2.57274E-05-2.00445E-05 1.43976E-18 2.50630E-18
 -1      4119 9.52580E-05-2.85805E-05-2.85761E-05-1.00310E-08 9.01969E-19 1.47842E-18
 -1      4120 9.52593E-05-2.85807E-05-2.85765E-05-6.96107E-09 1.54802E-18 3.21009E-18
 -1      4121 9.52605E-05-2.85790E-05-2.85777E-05-6.93895E-09 4.23069E-19 3.73341E-18
 -1      4122 9.52601E-05-2.85810E-05-2.85768E-05-3.99712E-09 1.95023E-18 3.81153E-18
 -1      4123 9.39640E-05-3.26917E-05-2.62450E-05 1.52122E-05-1.97079E-19 2.55530E-18
 -1      4124 9.52614E-05-2.85769E-05-2.85791E-05-7.05501E-09-3.71912E-19 4.12203E-18
 -1      4125 9.52621E-05-2.85745E-05-2.85803E-05-6.81726E-09 3.06154E-21 3.92620E-18
 -1      4126 9.52624E-05-2.85771E-05-2.85794E-05-4.20810E-09-4.26459E-19 5.06052E-18
 -1      4127 7.91184E-05-1.86885E-05-2.59760E-05 4.99835E-06 7.65812E-20-6.19244E-20
 -1      4128 8.13798E-05-1.93827E-05-2.65636E-05 3.77049E-06 2.88554E-20 1.83484E-19
 -1      4129 7.98683E-05-1.96084E-05-2.57364E-05 7.72798E-06-4.79254E-19-4.06907E-20
 -1      4130 8.27595E-05-1.98682E-05-2.69972E-05 2.64559E-06 2.60333E-19 3.57639E-19
 -1      4131 8.44320E-05-2.05213E-05-2.73822E-05 1.87035E-06 8.12960E-19 8.01682E-19
 -1      4132 8.30650E-05-2.04581E-05-2.68014E-05 4.65892E-06 5.33139E-19 2.39138E-20
 -1      4133 8.55769E-05-2.10771E-05-2.76731E-05 1.15126E-06 6.98352E-19 9.48462E-19
 -1      4134 8.68593E-05-2.16960E-05-2.79223E-05 6.74942E-07 9.95414E-19 8.32243E-19
 -1      4135 8.55508E-05-2.13110E-05-2.75097E-05 2.62811E-06 6.74950E-19 7.92929E-19
 -1      4136 8.77989E-05-2.22476E-05-2.81148E-05 2.29965E-07 5.72893E-19 1.00219E-18
 -1      4137 8.87921E-05-2.28161E-05-2.82730E-05-3.66533E-08-1.87404E-20 8.31856E-19
 -1      4138 8.76217E-05-2.22766E-05-2.79868E-05 1.31875E-06 6.38151E-19 4.49762E-19
 -1      4139 8.95549E-05-2.33311E-05-2.83968E-05-2.94761E-07-5.80405E-19 1.27677E-18
 -1      4140 9.03229E-05-2.38363E-05-2.84936E-05-4.20347E-07-7.68424E-19 1.03279E-18
 -1      4141 8.93127E-05-2.32423E-05-2.83010E-05 5.04958E-07-1.22994E-19 9.05729E-19
 -1      4142 9.09360E-05-2.42980E-05-2.85699E-05-5.53752E-07-7.49377E-20 1.02973E-18
 -1      4143 9.15271E-05-2.47354E-05-2.86255E-05-5.89502E-07 1.61281E-19 9.88011E-19
 -1      4144 9.06787E-05-2.41483E-05-2.85010E-05 3.00058E-08-2.74379E-19 1.52466E-18
 -1      4145 9.20147E-05-2.51369E-05-2.86694E-05-6.43531E-07-1.14190E-19 1.01183E-18
 -1      4146 9.24669E-05-2.55077E-05-2.86980E-05-6.26200E-07-3.34917E-19 9.04053E-19
 -1      4147 9.17707E-05-2.49636E-05-2.86220E-05-2.20481E-07-4.97382E-20 1.22929E-18
 -1      4148 9.28506E-05-2.58487E-05-2.87203E-05-6.32781E-07-4.26386E-19 1.11173E-18
 -1      4149 9.31942E-05-2.61574E-05-2.87316E-05-5.87628E-07-6.28307E-19 1.26724E-18
 -1      4150 9.26344E-05-2.56749E-05-2.86893E-05-3.28621E-07-4.98536E-19 5.81508E-19
 -1      4151 9.34927E-05-2.64414E-05-2.87398E-05-5.68396E-07-8.42070E-19 8.89274E-19
 -1      4152 9.37519E-05-2.66945E-05-2.87404E-05-5.11903E-07-8.65104E-19 8.27554E-19
 -1      4153 9.33100E-05-2.62806E-05-2.87209E-05-3.51611E-07-7.54819E-19 4.77595E-19
 -1      4154 9.39814E-05-2.69271E-05-2.87400E-05-4.80866E-07-1.08856E-18 1.48498E-18
 -1      4155 9.41752E-05-2.71318E-05-2.87344E-05-4.23123E-07-1.16753E-18 2.12308E-18
 -1      4156 9.38326E-05-2.67860E-05-2.87296E-05-3.27872E-07-5.56980E-19 1.57547E-18
 -1      4157 9.43496E-05-2.73195E-05-2.87288E-05-3.88846E-07-3.45139E-19 2.79508E-18
 -1      4158 9.44931E-05-2.74829E-05-2.87200E-05-3.35494E-07 5.86175E-19 3.00039E-18
 -1      4159 9.42320E-05-2.72002E-05-2.87244E-05-2.82124E-07-2.67715E-19 2.11079E-18
 -1      4160 9.46238E-05-2.76321E-05-2.87118E-05-3.02820E-07 5.20576E-19 2.71631E-18
 -1      4161 9.47289E-05-2.77609E-05-2.87017E-05-2.56553E-07 6.81798E-19 2.30099E-18
 -1      4162 9.45334E-05-2.75344E-05-2.87112E-05-2.29446E-07 4.66989E-19 2.28805E-18
 -1      4163 9.48255E-05-2.78779E-05-2.86925E-05-2.27886E-07 5.44296E-19 2.23952E-18
 -1      4164 9.49013E-05-2.79781E-05-2.86823E-05-1.89548E-07 6.66074E-19 1.20018E-18
 -1      4165 9.47577E-05-2.77999E-05-2.86942E-05-1.78374E-07 8.53337E-19 1.31626E-18
 -1      4166 9.49715E-05-2.80687E-05-2.86731E-05-1.65770E-07 3.41293E-19 1.63971E-18
 -1      4167 9.50254E-05-2.81456E-05-2.86635E-05-1.35127E-07 5.61531E-20 8.86358E-19
 -1      4168 9.49220E-05-2.80078E-05-2.86761E-05-1.33197E-07 7.14397E-19 1.68577E-18
 -1      4169 9.50753E-05-2.82146E-05-2.86548E-05-1.16238E-07-1.94805E-21 9.38657E-19
 -1      4170 9.51127E-05-2.82728E-05-2.86462E-05-9.24900E-08 3.38593E-20 8.84263E-19
 -1      4171 9.50402E-05-2.81681E-05-2.86584E-05-9.55679E-08-3.46318E-19 2.19846E-18
 -1      4172 9.51474E-05-2.83245E-05-2.86385E-05-7.80231E-08 6.69303E-19 2.82158E-19
 -1      4173 9.51728E-05-2.83678E-05-2.86311E-05-6.01343E-08 9.30216E-19 2.64244E-19
 -1      4174 9.51234E-05-2.82898E-05-2.86422E-05-6.56116E-08 6.33731E-19 1.97039E-18
 -1      4175 9.51961E-05-2.84060E-05-2.86244E-05-4.94231E-08 1.26011E-18-2.05828E-19
 -1      4176 9.52126E-05-2.84377E-05-2.86181E-05-3.63204E-08 4.91095E-19 4.38380E-19
 -1      4177 9.51803E-05-2.83807E-05-2.86279E-05-4.26467E-08 6.99225E-19 5.93456E-19
 -1      4178 9.52276E-05-2.84653E-05-2.86125E-05-2.86558E-08 1.15519E-19 1.12368E-18
 -1      4179 9.52378E-05-2.84880E-05-2.86073E-05-1.93391E-08 1.57167E-19 1.17058E-18
 -1      4180 9.52179E-05-2.84472E-05-2.86156E-05-2.56389E-08 7.82422E-19 4.61695E-19
 -1      4181 9.52469E-05-2.85075E-05-2.86026E-05-1.40562E-08-6.68266E-20 4.20154E-19
 -1      4182 9.52526E-05-2.85233E-05-2.85984E-05-7.65166E-09-5.53949E-20 1.53883E-19
 -1      4183 9.52414E-05-2.84950E-05-2.86054E-05-1.34704E-08-5.71565E-19-2.13010E-19
 -1      4184 9.52575E-05-2.85367E-05-2.85946E-05-4.17154E-09-7.51633E-19 5.49795E-19
 -1      4185 9.52602E-05-2.85475E-05-2.85912E-05 5.04781E-11-8.10467E-19 7.85043E-19
 -1      4186 9.52549E-05-2.85284E-05-2.85970E-05-5.08694E-09-5.22381E-19 8.10185E-20
 -1      4187 9.52622E-05-2.85564E-05-2.85882E-05 2.20697E-09-7.45231E-19 8.91589E-19
 -1      4188 9.52629E-05-2.85634E-05-2.85855E-05 4.83385E-09-9.52675E-19 2.45175E-19
 -1      4189 9.52616E-05-2.85511E-05-2.85901E-05 4.30048E-10-8.87255E-19 1.24027E-18
 -1      4190 9.52631E-05-2.85690E-05-2.85831E-05 6.05256E-09-1.43452E-18-9.35171E-19
 -1      4191 9.52625E-05-2.85734E-05-2.85811E-05 7.55541E-09-2.12410E-18-8.92384E-19
 -1      4192 9.52636E-05-2.85659E-05-2.85847E-05 3.84984E-09-2.25940E-18 6.50746E-19
 -1      4193 9.10906E-05-2.62660E-05-2.77931E-05 6.63882E-06-2.95802E-19 3.62540E-18
 -1      4194 9.15014E-05-2.69297E-05-2.76463E-05 7.54254E-06-4.30901E-19 3.57879E-18
 -1      4195 9.11181E-05-2.55973E-05-2.80930E-05 4.92688E-06 2.70803E-19 3.16615E-18
 -1      4196 9.12342E-05-2.59139E-05-2.79710E-05 5.65608E-06 2.71176E-19 3.65618E-18
 -1      4197 8.99380E-05-2.51976E-05-2.77478E-05 6.06882E-06-8.63630E-20 2.76613E-18
 -1      4198 9.14685E-05-2.54134E-05-2.83213E-05 3.61606E-06 4.67115E-20 2.68600E-18
 -1      4199 9.14032E-05-2.55008E-05-2.82281E-05 4.18662E-06 1.62554E-19 3.17467E-18
 -1      4200 9.03935E-05-2.48740E-05-2.80759E-05 4.33870E-06 2.92567E-19 2.06484E-18
 -1      4201 9.19665E-05-2.55268E-05-2.84846E-05 2.63374E-06-3.04913E-19 1.34413E-18
 -1      4202 9.18064E-05-2.54731E-05-2.84182E-05 3.07090E-06 9.65217E-20 1.88971E-18
 -1      4203 9.10271E-05-2.49410E-05-2.83163E-05 3.07105E-06 5.08539E-19 1.30134E-18
 -1      4204 9.25077E-05-2.58083E-05-2.85942E-05 1.90696E-06 2.64328E-19 1.54790E-18
 -1      4205 9.23079E-05-2.56752E-05-2.85504E-05 2.23780E-06-4.34973E-19 1.16415E-18
 -1      4206 9.17094E-05-2.52307E-05-2.84838E-05 2.15679E-06-3.36881E-19 1.06292E-18
 -1      4207 9.30310E-05-2.61695E-05-2.86620E-05 1.37390E-06-5.17683E-19 1.78711E-18
 -1      4208 9.28254E-05-2.59991E-05-2.86359E-05 1.62246E-06 2.05601E-19 1.63340E-18
 -1      4209 9.23678E-05-2.56323E-05-2.85941E-05 1.50538E-06-2.04552E-19 1.06134E-18
 -1      4210 9.35034E-05-2.65523E-05-2.86989E-05 9.85168E-07-2.77730E-19 2.79153E-18
 -1      4211 9.33113E-05-2.63722E-05-2.86858E-05 1.17108E-06-8.96862E-19 1.97541E-18
 -1      4212 9.29632E-05-2.60727E-05-2.86611E-05 1.04561E-06-6.20271E-19 1.48592E-18
 -1      4213 9.39099E-05-2.69208E-05-2.87140E-05 7.02695E-07-2.06633E-19 3.54280E-18
 -1      4214 9.37411E-05-2.67480E-05-2.87101E-05 8.41385E-07 1.78717E-19 3.36343E-18
 -1      4215 9.34780E-05-2.65058E-05-2.86970E-05 7.23267E-07-2.89862E-19 2.61085E-18
 -1      4216 9.42471E-05-2.72548E-05-2.87144E-05 4.97907E-07 9.18612E-19 3.15535E-18
 -1      4217 9.41054E-05-2.70987E-05-2.87165E-05 6.01156E-07 4.43752E-19 3.80350E-18
 -1      4218 9.39080E-05-2.69048E-05-2.87112E-05 4.98266E-07 9.19592E-20 3.30886E-18
 -1      4219 9.45187E-05-2.75447E-05-2.87057E-05 3.49706E-07 2.61725E-19 2.87242E-18
 -1      4220 9.44037E-05-2.74096E-05-2.87115E-05 4.26396E-07 1.13986E-18 3.04740E-18
 -1      4221 9.42569E-05-2.72560E-05-2.87111E-05 3.41599E-07 1.23973E-18 2.97578E-18
 -1      4222 9.47314E-05-2.77881E-05-2.86920E-05 2.42685E-07-1.23208E-20 1.32358E-18
 -1      4223 9.46410E-05-2.76750E-05-2.86996E-05 2.99464E-07-5.82200E-20 1.93538E-18
 -1      4224 9.45332E-05-2.75547E-05-2.87022E-05 2.32635E-07 5.73565E-19 3.09774E-18
 -1      4225 9.48940E-05-2.79869E-05-2.86759E-05 1.65651E-07 9.67191E-19 1.95350E-18
 -1      4226 9.48249E-05-2.78949E-05-2.86843E-05 2.07488E-07-1.92164E-19 9.33274E-19
 -1      4227 9.47467E-05-2.78017E-05-2.86885E-05 1.56887E-07 5.78639E-19 1.26041E-18
 -1      4228 9.50151E-05-2.81453E-05-2.86596E-05 1.10479E-07 4.20067E-19 2.92963E-18
 -1      4229 9.49637E-05-2.80722E-05-2.86678E-05 1.41096E-07 1.19644E-18 2.65288E-18
 -1      4230 9.49080E-05-2.80011E-05-2.86728E-05 1.04269E-07 4.28225E-19 8.34829E-19
 -1      4231 9.51030E-05-2.82688E-05-2.86440E-05 7.12629E-08 9.06390E-19 1.65980E-18
 -1      4232 9.50659E-05-2.82121E-05-2.86517E-05 9.34599E-08 3.04522E-19 2.15620E-18
 -1      4233 9.50271E-05-2.81585E-05-2.86567E-05 6.77896E-08 5.49236E-19 1.02682E-18
 -1      4234 9.51648E-05-2.83630E-05-2.86299E-05 4.36886E-08 1.32066E-18 1.63037E-18
 -1      4235 9.51389E-05-2.83199E-05-2.86368E-05 5.95829E-08 1.58034E-18 2.32306E-18
 -1      4236 9.51126E-05-2.82802E-05-2.86416E-05 4.26052E-08 8.25812E-19 1.51797E-18
 -1      4237 9.52067E-05-2.84332E-05-2.86176E-05 2.45909E-08 1.49696E-19 3.19080E-18
 -1      4238 9.51894E-05-2.84012E-05-2.86235E-05 3.57891E-08 5.53475E-19 2.28809E-18
 -1      4239 9.51722E-05-2.83724E-05-2.86279E-05 2.53492E-08 6.25570E-19 2.91156E-18
 -1      4240 9.52339E-05-2.84844E-05-2.86072E-05 1.16365E-08-2.39814E-19 2.41925E-18
 -1      4241 9.52228E-05-2.84612E-05-2.86121E-05 1.93606E-08 9.53420E-20 2.94443E-18
 -1      4242 9.52123E-05-2.84407E-05-2.86160E-05 1.36700E-08 2.67216E-19 2.97678E-18
 -1      4243 9.52502E-05-2.85207E-05-2.85985E-05 3.10092E-09-9.48098E-19 2.64691E-18
 -1      4244 9.52437E-05-2.85043E-05-2.86026E-05 8.27993E-09-6.97210E-19 2.10892E-18
 -1      4245 9.52378E-05-2.84902E-05-2.86059E-05 5.91277E-09-1.73419E-19 2.66228E-18
 -1      4246 9.52589E-05-2.85457E-05-2.85915E-05-2.28997E-09-1.06097E-18 2.53655E-18
 -1      4247 9.52557E-05-2.85345E-05-2.85948E-05 1.04635E-09-1.35202E-18 2.10566E-18
 -1      4248 9.52529E-05-2.85250E-05-2.85975E-05 9.05320E-10-1.14209E-18 2.07607E-18
 -1      4249 9.52623E-05-2.85622E-05-2.85858E-05-5.42717E-09 7.84113E-19 1.40177E-18
 -1      4250 9.52613E-05-2.85549E-05-2.85884E-05-3.46903E-09 6.49474E-20 2.26234E-18
 -1      4251 9.52606E-05-2.85489E-05-2.85907E-05-2.19016E-09-5.11571E-19 2.19380E-18
 -1      4252 9.52625E-05-2.85716E-05-2.85818E-05-6.77398E-09 1.42813E-18 1.83191E-18
 -1      4253 9.52628E-05-2.85668E-05-2.85840E-05-5.73055E-09 1.12153E-18 1.54649E-18
 -1      4254 9.52632E-05-2.85631E-05-2.85858E-05-3.71208E-09 8.93476E-19 1.24322E-18
 -1      4255 9.52635E-05-2.85716E-05-2.85823E-05-4.15518E-09-8.23959E-20 1.75152E-18
 -1      4256 1.00133E-04-3.35739E-05-2.84589E-05-1.31411E-05 7.00324E-19 1.51222E-18
 -1      4257 1.08019E-04-3.93124E-05-2.94970E-05-8.02249E-06 4.78612E-19 1.10584E-18
 -1      4258 6.43811E-05-9.95987E-06-2.31989E-05-7.46836E-06 1.52471E-18 2.81093E-18
 -1      4259 9.52625E-05-2.85755E-05-2.85802E-05 5.78716E-09-1.42222E-18-6.49134E-19
 -1      4260 9.52618E-05-2.85791E-05-2.85782E-05 4.50734E-09 1.23743E-18 1.16628E-19
 -1      4261 9.52606E-05-2.85809E-05-2.85770E-05 3.13766E-09 2.24077E-18 1.61999E-18
 -1      4262 9.52607E-05-2.85811E-05-2.85770E-05 1.38661E-09 2.15683E-18 3.18085E-18
 -1      4263 1.04280E-04-3.58527E-05-2.92699E-05-9.22545E-06 3.19345E-19 1.18938E-18
 -1      4264 9.16427E-05-2.76390E-05-2.74308E-05 8.75048E-06-3.32179E-19 4.02578E-18
 -1      4265 9.25538E-05-2.88036E-05-2.72854E-05 9.83112E-06-1.20097E-19 4.01248E-18
 -1      4266 8.99340E-05-2.61955E-05-2.73292E-05 8.34660E-06-2.44439E-19 3.23775E-18
 -1      4267 9.32230E-05-3.08621E-05-2.66372E-05 1.30644E-05-3.75255E-19 3.11963E-18
 -1      4268 9.16246E-05-2.90953E-05-2.67845E-05 1.18379E-05-5.24571E-19 3.30103E-18
 -1      4269 8.38281E-05-2.29373E-05-2.60936E-05 9.82867E-06-7.98262E-19 1.49013E-18
 -1      4270 9.52605E-05-2.85811E-05-2.85769E-05-2.14928E-09 2.03837E-18 3.62925E-18
 -1      4271 8.88217E-05-2.68147E-05-2.65953E-05 1.14330E-05-7.76112E-19 3.33086E-18
 -1      4272 8.34895E-05-2.14034E-05-2.66459E-05 6.52322E-06 5.18043E-19 5.54400E-19
 -1      4273 8.49972E-05-2.17560E-05-2.70802E-05 5.22015E-06 7.81568E-19 8.33580E-19
 -1      4274 8.57363E-05-2.19160E-05-2.73863E-05 4.10609E-06 8.42081E-19 6.60685E-19
 -1      4275 8.68748E-05-2.22841E-05-2.76704E-05 3.23819E-06 7.98367E-19 5.57830E-19
 -1      4276 8.65268E-05-2.28614E-05-2.72750E-05 5.83459E-06 7.20643E-19 6.22274E-19
 -1      4277 8.75727E-05-2.25744E-05-2.78844E-05 2.45958E-06 4.94030E-19 4.37544E-19
 -1      4278 8.85169E-05-2.29942E-05-2.80754E-05 1.89650E-06 5.14235E-19 2.99229E-19
 -1      4279 8.79656E-05-2.31029E-05-2.77827E-05 3.80822E-06 7.01955E-19 4.37721E-19
 -1      4280 8.91489E-05-2.33464E-05-2.82218E-05 1.37529E-06 4.87042E-19 6.25949E-19
 -1      4281 8.99163E-05-2.37688E-05-2.83464E-05 1.02565E-06-8.66682E-20 1.14315E-18
 -1      4282 8.92771E-05-2.35907E-05-2.81368E-05 2.41662E-06 4.63917E-19 2.55690E-19
 -1      4283 9.04683E-05-2.41364E-05-2.84431E-05 6.87609E-07-3.12571E-19 1.28026E-18
 -1      4284 9.10852E-05-2.45349E-05-2.85211E-05 4.83356E-07-1.68052E-19 1.18544E-18
 -1      4285 9.04467E-05-2.42030E-05-2.83773E-05 1.48378E-06-6.40476E-21 6.65152E-19
 -1      4286 9.15538E-05-2.48881E-05-2.85819E-05 2.71630E-07 1.26069E-19 7.68177E-19
 -1      4287 9.20445E-05-2.52480E-05-2.86278E-05 1.63108E-07-1.08452E-19 4.94037E-19
 -1      4288 9.14560E-05-2.48508E-05-2.85340E-05 8.74730E-07-3.62694E-19 1.04629E-18
 -1      4289 9.24331E-05-2.55703E-05-2.86633E-05 3.60603E-08-5.87889E-19 9.48032E-19
 -1      4290 9.28191E-05-2.58851E-05-2.86874E-05-1.20810E-08-4.26635E-19 1.11641E-18
 -1      4291 9.23044E-05-2.54783E-05-2.86305E-05 4.88728E-07-3.72941E-19 6.24246E-19
 -1      4292 9.31349E-05-2.61684E-05-2.87055E-05-8.41238E-08-4.46969E-19 8.95972E-19
 -1      4293 9.34351E-05-2.64367E-05-2.87152E-05-9.62755E-08-5.21001E-19 6.93209E-19
 -1      4294 9.30018E-05-2.60534E-05-2.86846E-05 2.52448E-07-5.22753E-19 9.45824E-19
 -1      4295 9.36870E-05-2.66787E-05-2.87217E-05-1.33864E-07-2.88063E-19 1.20849E-18
 -1      4296 9.39179E-05-2.69026E-05-2.87224E-05-1.26261E-07-4.63571E-19 1.46211E-18
 -1      4297 9.35640E-05-2.65604E-05-2.87098E-05 1.13893E-07-2.79804E-19 1.23090E-18
 -1      4298 9.41153E-05-2.71045E-05-2.87216E-05-1.43201E-07-1.98749E-19 1.95227E-18
 -1      4299 9.42906E-05-2.72879E-05-2.87169E-05-1.26205E-07 2.10597E-19 2.03359E-18
 -1      4300 9.40091E-05-2.69940E-05-2.87160E-05 3.71714E-08 3.01303E-19 1.04946E-18
 -1      4301 9.44427E-05-2.74530E-05-2.87117E-05-1.31469E-07 4.42804E-19 1.69409E-18
 -1      4302 9.45741E-05-2.76006E-05-2.87042E-05-1.11356E-07 1.06174E-18 1.77712E-18
 -1      4303 9.43553E-05-2.73557E-05-2.87104E-05-1.81363E-09 5.71662E-19 1.66340E-18
 -1      4304 9.46892E-05-2.77331E-05-2.86967E-05-1.10563E-07 1.11427E-18 1.70416E-18
 -1      4305 9.47862E-05-2.78500E-05-2.86880E-05-9.08747E-08 1.00270E-18 2.26470E-18
 -1      4306 9.46200E-05-2.76512E-05-2.86981E-05-1.87685E-08 1.08322E-18 1.85188E-18
 -1      4307 9.48717E-05-2.79545E-05-2.86796E-05-8.73878E-08 7.91994E-19 2.18490E-18
 -1      4308 9.49421E-05-2.80457E-05-2.86707E-05-6.99007E-08 3.61310E-19 1.73691E-18
 -1      4309 9.48187E-05-2.78878E-05-2.86826E-05-2.36074E-08 8.21687E-19 2.32770E-18
 -1      4310 9.50043E-05-2.81268E-05-2.86624E-05-6.56209E-08 1.70824E-19 1.41689E-18
 -1      4311 9.50545E-05-2.81968E-05-2.86539E-05-5.10295E-08 2.62716E-19 1.63757E-18
 -1      4312 9.49650E-05-2.80740E-05-2.86660E-05-2.23628E-08 2.09189E-19 1.14129E-18
 -1      4313 9.50987E-05-2.82586E-05-2.86461E-05-4.69416E-08 7.56633E-20 1.66305E-18
 -1      4314 9.51335E-05-2.83113E-05-2.86385E-05-3.53165E-08 2.43070E-19 9.27438E-19
 -1      4315 9.50703E-05-2.82178E-05-2.86500E-05-1.85427E-08 9.13390E-20 7.40903E-19
 -1      4316 9.51640E-05-2.83576E-05-2.86315E-05-3.18565E-08 7.93520E-19 7.39373E-19
 -1      4317 9.51874E-05-2.83967E-05-2.86249E-05-2.29412E-08 1.06357E-18 4.42981E-19
 -1      4318 9.51443E-05-2.83269E-05-2.86353E-05-1.40664E-08 1.07844E-19 4.08302E-19
 -1      4319 9.52077E-05-2.84307E-05-2.86189E-05-2.02352E-08 2.95456E-19 7.81618E-19
 -1      4320 9.52228E-05-2.84591E-05-2.86132E-05-1.36305E-08 3.76165E-20 1.46926E-19
 -1      4321 9.51946E-05-2.84081E-05-2.86223E-05-9.88969E-09 6.63527E-19 1.21253E-18
 -1      4322 9.52356E-05-2.84834E-05-2.86081E-05-1.16436E-08-1.52093E-19-2.58010E-19
 -1      4323 9.52447E-05-2.85036E-05-2.86035E-05-6.91610E-09-1.08452E-18-3.40990E-19
 -1      4324 9.52273E-05-2.84672E-05-2.86111E-05-6.40949E-09-1.79995E-19 1.31863E-18
 -1      4325 9.52522E-05-2.85206E-05-2.85993E-05-5.54173E-09-7.57512E-19-3.60949E-19
 -1      4326 9.52570E-05-2.85345E-05-2.85955E-05-2.28282E-09 1.35514E-19-3.18430E-19
 -1      4327 9.52474E-05-2.85094E-05-2.86018E-05-3.71851E-09-2.76351E-19 1.01196E-18
 -1      4328 9.52608E-05-2.85461E-05-2.85920E-05-1.39255E-09 3.51721E-19-5.43621E-19
 -1      4329 9.52628E-05-2.85553E-05-2.85890E-05 7.56248E-10-5.81888E-19 1.15846E-19
 -1      4330 9.52585E-05-2.85385E-05-2.85942E-05-1.75882E-09-1.58776E-21-3.89351E-19
 -1      4331 9.52640E-05-2.85628E-05-2.85862E-05 1.26497E-09-2.34697E-18 5.52542E-19
 -1      4332 9.52642E-05-2.85687E-05-2.85838E-05 2.63222E-09-3.13571E-18 1.39576E-19
 -1      4333 9.52634E-05-2.85580E-05-2.85880E-05-4.25308E-10-8.45491E-19-7.20394E-19
 -1      4334 8.61970E-05-2.44252E-05-2.64714E-05 1.01325E-05-4.74685E-19 1.71355E-18
 -1      4335 9.05824E-05-2.44876E-05-2.83428E-05 2.23826E-06 6.18150E-19 4.82336E-19
 -1      4336 9.02319E-05-2.43215E-05-2.82397E-05 2.75057E-06 4.73522E-19 6.09852E-19
 -1      4337 8.86414E-05-2.39581E-05-2.77466E-05 4.92609E-06 6.33168E-19 1.13140E-18
 -1      4338 8.84749E-05-2.41321E-05-2.75497E-05 5.90680E-06 1.07623E-19 1.46955E-18
 -1      4339 9.14749E-05-2.49872E-05-2.85075E-05 1.47575E-06-4.65373E-19 4.84607E-19
 -1      4340 9.11248E-05-2.47603E-05-2.84382E-05 1.83763E-06-8.20393E-20 1.04351E-18
 -1      4341 9.22618E-05-2.55231E-05-2.86121E-05 9.59538E-07-5.35460E-19 7.19268E-19
 -1      4342 9.19383E-05-2.52755E-05-2.85684E-05 1.21224E-06-7.46560E-19 4.79536E-19
 -1      4343 9.29321E-05-2.60453E-05-2.86732E-05 6.15635E-07-4.98628E-19 7.75615E-19
 -1      4344 9.26479E-05-2.58022E-05-2.86482E-05 7.90561E-07-2.66126E-19 9.48146E-19
 -1      4345 9.34873E-05-2.65247E-05-2.87038E-05 3.89916E-07-3.85352E-19 1.31665E-18
 -1      4346 9.32469E-05-2.63007E-05-2.86920E-05 5.10279E-07-7.80122E-19 1.02039E-18
 -1      4347 9.39364E-05-2.69467E-05-2.87139E-05 2.43787E-07 4.53521E-19 1.26579E-18
 -1      4348 9.37391E-05-2.67493E-05-2.87110E-05 3.26330E-07 1.98873E-19 1.69905E-18
 -1      4349 9.42920E-05-2.73066E-05-2.87110E-05 1.50363E-07 6.42149E-19 1.69263E-18
 -1      4350 9.41342E-05-2.71383E-05-2.87137E-05 2.06912E-07 8.60321E-19 1.64980E-18
 -1      4351 9.45678E-05-2.76055E-05-2.87003E-05 9.13097E-08 9.67254E-19 1.65263E-18
 -1      4352 9.44446E-05-2.74658E-05-2.87063E-05 1.30085E-07 8.21028E-19 2.19901E-18
 -1      4353 9.47775E-05-2.78481E-05-2.86856E-05 5.43676E-08 9.10055E-19 1.33849E-18
 -1      4354 9.46835E-05-2.77349E-05-2.86932E-05 8.10085E-08 1.10511E-18 1.94807E-18
 -1      4355 9.49336E-05-2.80410E-05-2.86694E-05 3.14813E-08 3.77025E-19 9.59042E-19
 -1      4356 9.48635E-05-2.79512E-05-2.86775E-05 4.98255E-08 3.76020E-19 7.20981E-19
 -1      4357 9.50473E-05-2.81914E-05-2.86533E-05 1.74403E-08 3.01034E-19 9.73475E-19
 -1      4358 9.49963E-05-2.81216E-05-2.86612E-05 3.00883E-08 1.97852E-19 9.47668E-19
 -1      4359 9.51280E-05-2.83064E-05-2.86384E-05 8.92020E-09 1.21016E-19 1.61626E-18
 -1      4360 9.50919E-05-2.82532E-05-2.86456E-05 1.76344E-08 3.46095E-19 9.27345E-19
 -1      4361 9.51835E-05-2.83926E-05-2.86250E-05 3.82414E-09 1.02928E-18 1.70734E-18
 -1      4362 9.51588E-05-2.83529E-05-2.86314E-05 9.80401E-09 6.95285E-19 1.52421E-18
 -1      4363 9.52202E-05-2.84559E-05-2.86135E-05 8.41252E-10 1.58775E-19 2.17982E-18
 -1      4364 9.52041E-05-2.84269E-05-2.86190E-05 4.90933E-09 6.28218E-19 2.30930E-18
 -1      4365 9.52431E-05-2.85013E-05-2.86038E-05-8.42849E-10-2.65030E-19 2.25346E-18
 -1      4366 9.52332E-05-2.84806E-05-2.86084E-05 1.88320E-09 6.89774E-20 2.75222E-18
 -1      4367 9.52562E-05-2.85330E-05-2.85958E-05-1.73219E-09-7.00141E-19 1.84361E-18
 -1      4368 9.52507E-05-2.85187E-05-2.85996E-05 5.03896E-11-2.90842E-19 2.19888E-18
 -1      4369 9.52625E-05-2.85543E-05-2.85893E-05-2.12372E-09-7.37925E-20 3.56349E-19
 -1      4370 9.52601E-05-2.85448E-05-2.85923E-05-1.01797E-09-5.03950E-19 6.56802E-19
 -1      4371 9.52619E-05-2.85792E-05-2.85783E-05-7.31792E-10 7.80636E-19 3.94820E-18
 -1      4372 9.52638E-05-2.85736E-05-2.85815E-05 2.87667E-09-2.64716E-18 1.07828E-18
 -1      4373 9.52626E-05-2.85774E-05-2.85794E-05 3.61579E-09-6.98371E-19 1.06089E-18
 -1      4374 8.78582E-05-2.47712E-05-2.70148E-05 8.47457E-06 6.87023E-20 2.58030E-18
 -1      4375 9.52628E-05-2.85771E-05-2.85796E-05-8.06768E-10-3.38008E-19 3.88048E-18
 -1      4376 9.52641E-05-2.85707E-05-2.85829E-05 4.59408E-10-1.99830E-18 2.45428E-18
 -1      4377 8.96164E-05-2.41045E-05-2.80974E-05 3.34550E-06 3.38539E-19 8.81723E-19
 -1      4378 8.93125E-05-2.40603E-05-2.79515E-05 4.06061E-06 3.70284E-19 1.14295E-18
 -1      4379 9.52642E-05-2.85667E-05-2.85846E-05-2.08663E-09-2.76638E-19 1.45331E-18
 -1      4380 9.52640E-05-2.85720E-05-2.85823E-05-1.79255E-09-7.24233E-19 3.07217E-18
 -1      4381 8.77702E-05-2.42219E-05-2.72615E-05 7.17347E-06 2.53035E-20 2.36987E-18
 -1      4382 9.52638E-05-2.85620E-05-2.85865E-05-1.62800E-09-4.65155E-19 9.42331E-19
 -1      4383 9.52628E-05-2.85774E-05-2.85795E-05 1.84594E-09-1.00239E-18 3.36844E-18
 -1      4384 9.52636E-05-2.85750E-05-2.85808E-05-1.94342E-09-1.77734E-18 4.40435E-18
 -3
    1PSTEP                         4           1           1          
  100CL  101 1.000000000        4384                     0    1           1
 -4  ERROR       1    1
 -5  STR(%)      1    1    0    0
 -1         1 3.11012E+01
 -1         2 2.51207E+01
 -1         3 1.98155E-04
 -1         4 3.67027E-04
 -1         5 1.33987E+01
 -1         6 1.18007E+01
 -1         7 1.18007E+01
 -1         8 3.75206E+00
 -1         9 2.41923E+00
 -1        10 1.85589E+00
 -1        11 1.43604E+00
 -1        12 1.01181E+00
 -1        13 6.08147E-01
 -1        14 6.13162E-01
 -1        15 8.29499E-01
 -1        16 1.02172E+00
 -1        17 1.18076E+00
 -1        18 1.37157E+00
 -1        19 1.61281E+00
 -1        20 2.06780E+00
 -1        21 3.54281E+00
 -1        22 8.29322E+00
 -1        23 1.18007E+01
 -1        24 3.38213E+00
 -1        25 2.17208E+00
 -1        26 1.53297E+00
 -1        27 1.90815E+00
 -1        28 2.67390E+00
 -1        29 3.14891E+00
 -1        30 3.14891E+00
 -1        31 2.94741E+00
 -1        32 4.39977E+00
 -1        33 8.87002E+00
 -1        34 9.26615E+00
 -1        35 9.26615E+00
 -1        36 8.78521E+00
 -1        37 4.26007E+00
 -1        38 3.15917E+00
 -1        39 3.33708E+00
 -1        40 3.33708E+00
 -1        41 2.96630E+00
 -1        42 2.31483E+00
 -1        43 1.79292E+00
 -1        44 1.33436E+00
 -1        45 1.01029E+00
 -1        46 7.93452E-01
 -1        47 6.05429E-01
 -1        48 4.52535E-01
 -1        49 3.32917E-01
 -1        50 2.41574E-01
 -1        51 1.72934E-01
 -1        52 1.21952E-01
 -1        53 9.72928E-02
 -1        54 7.76143E-02
 -1        55 6.11322E-02
 -1        56 4.75388E-02
 -1        57 3.64785E-02
 -1        58 2.75917E-02
 -1        59 2.05377E-02
 -1        60 1.63876E-02
 -1        61 1.33588E-02
 -1        62 1.06895E-02
 -1        63 8.39317E-03
 -1        64 6.45184E-03
 -1        65 4.93312E-03
 -1        66 3.68500E-03
 -1        67 2.66346E-03
 -1        68 2.31460E-03
 -1        69 1.91382E-03
 -1        70 1.40687E-03
 -1        71 1.12517E-03
 -1        72 1.33987E+01
 -1        73 3.00980E+00
 -1        74 1.86253E+00
 -1        75 1.05398E+00
 -1        76 5.41834E-01
 -1        77 4.20343E-01
 -1        78 6.87053E-01
 -1        79 8.95212E-01
 -1        80 1.27761E+00
 -1        81 1.79949E+00
 -1        82 2.15547E+00
 -1        83 2.30556E+00
 -1        84 2.55042E+00
 -1        85 2.55042E+00
 -1        86 2.36765E+00
 -1        87 1.86240E+00
 -1        88 1.29112E+00
 -1        89 8.23244E-01
 -1        90 5.57653E-01
 -1        91 4.09077E-01
 -1        92 4.35430E-01
 -1        93 4.35430E-01
 -1        94 4.31194E-01
 -1        95 3.84684E-01
 -1        96 3.18695E-01
 -1        97 2.62283E-01
 -1        98 2.05037E-01
 -1        99 1.56215E-01
 -1       100 1.26079E-01
 -1       101 9.79497E-02
 -1       102 7.34161E-02
 -1       103 5.30631E-02
 -1       104 3.68469E-02
 -1       105 2.95486E-02
 -1       106 2.47744E-02
 -1       107 2.02146E-02
 -1       108 1.61019E-02
 -1       109 1.31115E-02
 -1       110 1.16043E-02
 -1       111 9.94265E-03
 -1       112 8.29303E-03
 -1       113 6.74999E-03
 -1       114 5.36954E-03
 -1       115 4.26608E-03
 -1       116 3.26045E-03
 -1       117 2.34320E-03
 -1       118 1.86516E-03
 -1       119 1.35823E-03
 -1       120 7.68224E-04
 -1       121 3.58754E-04
 -1       122 3.58754E-04
 -1       123 2.69450E-04
 -1       124 1.06051E-04
 -1       125 1.65943E-04
 -1       126 2.41667E-04
 -1       127 2.85325E-04
 -1       128 2.97880E-04
 -1       129 2.97880E-04
 -1       130 2.86304E-04
 -1       131 2.41339E-04
 -1       132 1.68246E-04
 -1       133 1.08165E-04
 -1       134 2.71779E-04
 -1       135 2.87370E-04
 -1       136 2.87370E-04
 -1       137 2.47736E+01
 -1       138 4.66110E+01
 -1       139 4.66110E+01
 -1       140 1.94914E+01
 -1       141 1.22122E+01
 -1       142 1.22122E+01
 -1       143 1.19363E+01
 -1       144 1.26343E+01
 -1       145 1.26343E+01
 -1       146 1.17883E+01
 -1       147 1.82131E+01
 -1       148 4.56740E+01
 -1       149 4.56740E+01
 -1       150 2.39568E+01
 -1       151 2.39568E+01
 -1       152 2.51404E+01
 -1       153 2.69514E+01
 -1       154 3.06869E+01
 -1       155 1.40161E+01
 -1       156 1.24867E+01
 -1       157 1.24867E+01
 -1       158 1.32408E+01
 -1       159 1.32408E+01
 -1       160 1.26684E+01
 -1       161 2.66436E+01
 -1       162 2.91784E+01
 -1       163 2.91784E+01
 -1       164 2.53575E+01
 -1       165 5.88425E+00
 -1       166 2.76148E+00
 -1       167 1.97650E+00
 -1       168 1.55010E+00
 -1       169 1.15808E+00
 -1       170 7.30302E-01
 -1       171 4.47964E-01
 -1       172 6.75333E-01
 -1       173 8.93230E-01
 -1       174 1.08101E+00
 -1       175 1.27598E+00
 -1       176 1.49585E+00
 -1       177 1.83960E+00
 -1       178 2.51303E+00
 -1       179 3.90939E+00
 -1       180 1.33987E+01
 -1       181 3.38213E+00
 -1       182 2.17208E+00
 -1       183 1.33905E+00
 -1       184 1.70829E+00
 -1       185 2.03939E+00
 -1       186 2.67390E+00
 -1       187 3.14891E+00
 -1       188 2.94741E+00
 -1       189 2.48214E+00
 -1       190 4.94004E+00
 -1       191 8.87002E+00
 -1       192 9.26615E+00
 -1       193 8.78521E+00
 -1       194 4.84125E+00
 -1       195 2.70294E+00
 -1       196 3.15917E+00
 -1       197 3.33708E+00
 -1       198 2.96630E+00
 -1       199 2.43066E+00
 -1       200 2.10801E+00
 -1       201 1.73859E+00
 -1       202 1.34854E+00
 -1       203 1.00138E+00
 -1       204 7.19762E-01
 -1       205 5.03891E-01
 -1       206 3.44407E-01
 -1       207 2.56578E-01
 -1       208 1.88802E-01
 -1       209 1.37212E-01
 -1       210 9.83681E-02
 -1       211 7.76143E-02
 -1       212 6.11322E-02
 -1       213 4.75388E-02
 -1       214 3.64785E-02
 -1       215 2.75917E-02
 -1       216 2.14078E-02
 -1       217 1.64481E-02
 -1       218 1.33588E-02
 -1       219 1.06895E-02
 -1       220 8.40332E-03
 -1       221 6.70077E-03
 -1       222 5.20916E-03
 -1       223 4.10199E-03
 -1       224 3.12761E-03
 -1       225 2.31460E-03
 -1       226 1.91382E-03
 -1       227 1.40687E-03
 -1       228 1.12517E-03
 -1       229 4.60886E-04
 -1       230 3.00980E+00
 -1       231 1.86253E+00
 -1       232 1.05398E+00
 -1       233 6.96886E-01
 -1       234 6.98991E-01
 -1       235 9.19845E-01
 -1       236 1.19521E+00
 -1       237 1.51416E+00
 -1       238 1.81383E+00
 -1       239 1.93345E+00
 -1       240 2.15547E+00
 -1       241 2.30556E+00
 -1       242 2.55042E+00
 -1       243 2.36765E+00
 -1       244 1.86240E+00
 -1       245 1.29112E+00
 -1       246 8.27832E-01
 -1       247 5.57653E-01
 -1       248 4.09077E-01
 -1       249 3.92667E-01
 -1       250 4.35430E-01
 -1       251 4.31194E-01
 -1       252 3.84684E-01
 -1       253 3.18695E-01
 -1       254 2.63999E-01
 -1       255 2.14363E-01
 -1       256 1.65694E-01
 -1       257 1.26079E-01
 -1       258 9.79497E-02
 -1       259 7.34161E-02
 -1       260 5.30631E-02
 -1       261 3.80002E-02
 -1       262 3.06935E-02
 -1       263 2.57353E-02
 -1       264 2.10172E-02
 -1       265 1.67595E-02
 -1       266 1.31115E-02
 -1       267 1.16043E-02
 -1       268 9.94265E-03
 -1       269 8.29303E-03
 -1       270 6.74999E-03
 -1       271 5.36954E-03
 -1       272 4.26608E-03
 -1       273 3.26045E-03
 -1       274 2.40704E-03
 -1       275 1.86516E-03
 -1       276 1.35823E-03
 -1       277 7.83960E-04
 -1       278 6.59492E-04
 -1       279 6.59492E-04
 -1       280 3.63483E-04
 -1       281 2.68591E-04
 -1       282 4.19818E-04
 -1       283 5.13084E-04
 -1       284 5.50308E-04
 -1       285 5.50612E-04
 -1       286 5.50612E-04
 -1       287 5.13796E-04
 -1       288 4.25166E-04
 -1       289 2.76512E-04
 -1       290 3.66779E-04
 -1       291 8.19886E-04
 -1       292 8.19886E-04
 -1       293 3.19059E+01
 -1       294 2.74243E+01
 -1       295 4.66110E+01
 -1       296 2.06573E+01
 -1       297 1.11977E+01
 -1       298 1.22122E+01
 -1       299 1.19363E+01
 -1       300 1.18259E+01
 -1       301 1.26343E+01
 -1       302 1.17883E+01
 -1       303 1.05889E+01
 -1       304 1.95668E+01
 -1       305 4.56740E+01
 -1       306 2.73230E+01
 -1       307 3.08604E+01
 -1       308 3.08604E+01
 -1       309 3.44655E+01
 -1       310 3.44655E+01
 -1       311 3.11012E+01
 -1       312 1.40161E+01
 -1       313 1.21224E+01
 -1       314 1.24867E+01
 -1       315 1.20199E+01
 -1       316 1.32408E+01
 -1       317 1.21055E+01
 -1       318 1.26684E+01
 -1       319 2.80511E+01
 -1       320 3.28927E+01
 -1       321 3.28927E+01
 -1       322 3.19059E+01
 -1       323 2.04095E+00
 -1       324 2.78225E+00
 -1       325 1.38577E+00
 -1       326 9.36022E-01
 -1       327 4.91030E-01
 -1       328 6.30967E-01
 -1       329 7.72278E-01
 -1       330 8.91269E-01
 -1       331 1.00633E+00
 -1       332 1.10418E+00
 -1       333 1.21686E+00
 -1       334 1.38457E+00
 -1       335 1.52304E+00
 -1       336 1.85962E+00
 -1       337 1.56832E+00
 -1       338 1.64623E+00
 -1       339 1.73226E+00
 -1       340 2.07063E+00
 -1       341 2.32061E+00
 -1       342 2.87055E+00
 -1       343 3.47657E+00
 -1       344 3.77167E+00
 -1       345 3.95348E+00
 -1       346 4.83172E+00
 -1       347 5.93546E+00
 -1       348 5.93546E+00
 -1       349 4.69812E+00
 -1       350 3.88234E+00
 -1       351 3.91988E+00
 -1       352 3.61419E+00
 -1       353 3.01102E+00
 -1       354 2.50924E+00
 -1       355 2.30598E+00
 -1       356 1.95645E+00
 -1       357 1.56512E+00
 -1       358 1.20124E+00
 -1       359 8.94924E-01
 -1       360 6.51882E-01
 -1       361 4.66130E-01
 -1       362 3.27664E-01
 -1       363 2.26271E-01
 -1       364 1.53060E-01
 -1       365 1.00858E-01
 -1       366 6.93970E-02
 -1       367 5.01737E-02
 -1       368 3.72763E-02
 -1       369 3.04897E-02
 -1       370 2.45064E-02
 -1       371 1.93706E-02
 -1       372 1.50554E-02
 -1       373 1.17045E-02
 -1       374 9.58893E-03
 -1       375 7.98778E-03
 -1       376 6.48945E-03
 -1       377 5.18716E-03
 -1       378 4.11307E-03
 -1       379 3.15803E-03
 -1       380 2.42151E-03
 -1       381 1.79046E-03
 -1       382 1.32139E-03
 -1       383 9.60149E-04
 -1       384 6.96886E-01
 -1       385 5.89766E-01
 -1       386 7.51042E-01
 -1       387 1.00017E+00
 -1       388 1.27847E+00
 -1       389 1.51416E+00
 -1       390 1.81383E+00
 -1       391 1.93345E+00
 -1       392 1.86032E+00
 -1       393 1.94246E+00
 -1       394 1.79875E+00
 -1       395 1.45524E+00
 -1       396 1.13675E+00
 -1       397 7.77307E-01
 -1       398 4.92608E-01
 -1       399 2.72027E-01
 -1       400 2.81665E-01
 -1       401 3.18816E-01
 -1       402 3.27833E-01
 -1       403 2.99675E-01
 -1       404 2.59020E-01
 -1       405 2.24498E-01
 -1       406 1.93567E-01
 -1       407 1.57985E-01
 -1       408 1.22915E-01
 -1       409 9.26664E-02
 -1       410 7.11998E-02
 -1       411 5.29210E-02
 -1       412 3.83869E-02
 -1       413 3.06935E-02
 -1       414 2.57353E-02
 -1       415 2.10172E-02
 -1       416 1.67595E-02
 -1       417 1.30618E-02
 -1       418 1.02250E-02
 -1       419 8.73548E-03
 -1       420 7.24673E-03
 -1       421 5.84522E-03
 -1       422 4.65299E-03
 -1       423 3.64388E-03
 -1       424 2.79726E-03
 -1       425 2.12193E-03
 -1       426 1.56583E-03
 -1       427 1.20754E-03
 -1       428 1.02763E-03
 -1       429 4.41757E-04
 -1       430 1.14041E-03
 -1       431 5.56870E-04
 -1       432 6.90538E-04
 -1       433 7.48903E-04
 -1       434 7.48903E-04
 -1       435 7.49018E-04
 -1       436 7.49018E-04
 -1       437 6.97538E-04
 -1       438 5.69258E-04
 -1       439 4.33056E-04
 -1       440 6.56214E-04
 -1       441 9.12396E-01
 -1       442 2.74243E+01
 -1       443 9.47433E+00
 -1       444 3.19059E+01
 -1       445 1.61646E+01
 -1       446 2.47135E+00
 -1       447 6.96047E+00
 -1       448 9.71975E+00
 -1       449 1.03562E+01
 -1       450 1.13153E+01
 -1       451 9.15008E+00
 -1       452 7.00006E+00
 -1       453 8.93821E+00
 -1       454 1.57263E+01
 -1       455 2.73230E+01
 -1       456 2.51843E+01
 -1       457 3.95131E+01
 -1       458 3.95131E+01
 -1       459 3.44655E+01
 -1       460 2.09088E+01
 -1       461 1.21435E+01
 -1       462 7.46299E+00
 -1       463 9.61291E+00
 -1       464 1.05500E+01
 -1       465 1.09759E+01
 -1       466 9.32774E+00
 -1       467 7.25273E+00
 -1       468 1.14776E+01
 -1       469 1.97964E+01
 -1       470 3.28927E+01
 -1       471 2.56035E+01
 -1       472 2.96372E+01
 -1       473 9.23960E-01
 -1       474 1.22365E+00
 -1       475 8.61038E-01
 -1       476 8.61038E-01
 -1       477 8.95303E-01
 -1       478 8.95303E-01
 -1       479 8.71078E-01
 -1       480 8.21049E-01
 -1       481 8.04669E-01
 -1       482 1.07256E+00
 -1       483 1.73690E+00
 -1       484 1.23512E+01
 -1       485 7.61217E+00
 -1       486 2.12212E+00
 -1       487 2.66539E+00
 -1       488 3.30693E+00
 -1       489 4.13253E+00
 -1       490 5.69865E+00
 -1       491 8.54459E+00
 -1       492 5.01423E+00
 -1       493 7.51076E+00
 -1       494 4.84963E+00
 -1       495 4.96307E+00
 -1       496 6.17757E+00
 -1       497 4.14779E+00
 -1       498 3.37867E+00
 -1       499 2.73485E+00
 -1       500 2.15169E+00
 -1       501 1.66157E+00
 -1       502 1.26450E+00
 -1       503 9.50390E-01
 -1       504 7.06159E-01
 -1       505 5.18916E-01
 -1       506 3.77044E-01
 -1       507 2.70647E-01
 -1       508 1.91604E-01
 -1       509 1.33422E-01
 -1       510 9.10115E-02
 -1       511 6.04317E-02
 -1       512 3.86638E-02
 -1       513 2.49484E-02
 -1       514 1.74764E-02
 -1       515 1.52900E-02
 -1       516 1.29825E-02
 -1       517 1.07486E-02
 -1       518 8.69614E-03
 -1       519 6.87609E-03
 -1       520 5.82063E-03
 -1       521 4.87958E-03
 -1       522 3.95475E-03
 -1       523 3.13467E-03
 -1       524 2.43263E-03
 -1       525 1.80428E-03
 -1       526 1.28693E-03
 -1       527 9.92000E-04
 -1       528 8.16120E-01
 -1       529 6.02656E-01
 -1       530 4.97341E-01
 -1       531 1.07455E+00
 -1       532 1.27910E+00
 -1       533 1.38555E+00
 -1       534 1.46040E+00
 -1       535 1.39513E+00
 -1       536 1.39918E+00
 -1       537 1.43052E+00
 -1       538 1.31791E+00
 -1       539 1.17461E+00
 -1       540 9.24992E-01
 -1       541 6.74704E-01
 -1       542 4.48351E-01
 -1       543 3.64184E-01
 -1       544 3.02309E-01
 -1       545 2.79780E-01
 -1       546 2.80470E-01
 -1       547 2.62506E-01
 -1       548 2.39402E-01
 -1       549 2.09334E-01
 -1       550 1.77603E-01
 -1       551 1.44065E-01
 -1       552 1.12305E-01
 -1       553 8.42976E-02
 -1       554 6.08601E-02
 -1       555 4.20628E-02
 -1       556 2.80839E-02
 -1       557 1.99047E-02
 -1       558 1.51669E-02
 -1       559 1.33303E-02
 -1       560 1.13428E-02
 -1       561 9.38327E-03
 -1       562 7.56003E-03
 -1       563 6.20331E-03
 -1       564 5.33780E-03
 -1       565 4.42829E-03
 -1       566 3.54053E-03
 -1       567 2.81113E-03
 -1       568 2.13971E-03
 -1       569 1.57058E-03
 -1       570 1.17290E-03
 -1       571 8.65040E-04
 -1       572 6.91020E-04
 -1       573 8.38026E-04
 -1       574 2.05347E+01
 -1       575 9.40207E-04
 -1       576 9.40207E-04
 -1       577 9.36097E-04
 -1       578 9.44813E-04
 -1       579 9.44813E-04
 -1       580 8.77162E-04
 -1       581 6.87004E-04
 -1       582 5.83833E-04
 -1       583 2.64439E+00
 -1       584 5.66397E+00
 -1       585 2.56035E+01
 -1       586 2.17137E+01
 -1       587 7.34811E+00
 -1       588 6.87646E-01
 -1       589 5.12998E+00
 -1       590 6.61046E+00
 -1       591 7.57255E+00
 -1       592 9.35509E+00
 -1       593 8.69734E+00
 -1       594 4.96423E+00
 -1       595 5.50646E+00
 -1       596 7.64149E+00
 -1       597 1.33826E+01
 -1       598 1.97311E+01
 -1       599 2.51843E+01
 -1       600 3.95131E+01
 -1       601 2.41498E+01
 -1       602 1.49890E+01
 -1       603 9.31083E+00
 -1       604 7.33156E+00
 -1       605 8.77036E+00
 -1       606 5.91969E+00
 -1       607 1.43258E+01
 -1       608 2.96372E+01
 -1       609 2.64439E+00
 -1       610 6.17766E-01
 -1       611 1.07759E+01
 -1       612 1.54003E+01
 -1       613 3.92626E-01
 -1       614 6.61046E+00
 -1       615 1.04009E+00
 -1       616 1.08474E+00
 -1       617 9.30409E-01
 -1       618 7.61874E-01
 -1       619 7.61874E-01
 -1       620 3.43171E+00
 -1       621 8.95449E+00
 -1       622 2.16405E+00
 -1       623 2.66010E+00
 -1       624 3.67152E+00
 -1       625 5.07538E+00
 -1       626 5.94418E+00
 -1       627 1.37122E+01
 -1       628 1.13130E+01
 -1       629 8.31576E+00
 -1       630 6.30919E+00
 -1       631 3.76983E+00
 -1       632 2.65445E+00
 -1       633 2.00353E+00
 -1       634 1.47055E+00
 -1       635 1.06177E+00
 -1       636 7.64313E-01
 -1       637 5.42937E-01
 -1       638 3.85459E-01
 -1       639 2.79384E-01
 -1       640 2.04868E-01
 -1       641 1.48258E-01
 -1       642 1.05594E-01
 -1       643 7.37593E-02
 -1       644 5.02797E-02
 -1       645 3.31958E-02
 -1       646 2.09629E-02
 -1       647 1.23724E-02
 -1       648 8.55324E-03
 -1       649 8.11474E-03
 -1       650 7.30288E-03
 -1       651 6.31810E-03
 -1       652 5.28832E-03
 -1       653 4.33814E-03
 -1       654 3.68334E-03
 -1       655 3.00787E-03
 -1       656 2.35887E-03
 -1       657 1.76319E-03
 -1       658 1.28794E-03
 -1       659 9.59761E-04
 -1       660 7.62659E-01
 -1       661 9.52878E-01
 -1       662 5.88164E-01
 -1       663 1.30255E+00
 -1       664 1.55816E+00
 -1       665 1.58896E+00
 -1       666 1.40945E+00
 -1       667 1.57970E+00
 -1       668 1.43606E+00
 -1       669 1.21612E+00
 -1       670 1.10173E+00
 -1       671 9.25063E-01
 -1       672 6.75559E-01
 -1       673 5.88270E-01
 -1       674 4.60251E-01
 -1       675 3.68326E-01
 -1       676 3.44404E-01
 -1       677 3.04832E-01
 -1       678 2.62857E-01
 -1       679 2.30396E-01
 -1       680 1.94615E-01
 -1       681 1.59267E-01
 -1       682 1.26113E-01
 -1       683 9.68575E-02
 -1       684 7.21834E-02
 -1       685 5.21163E-02
 -1       686 3.63014E-02
 -1       687 2.41953E-02
 -1       688 1.51914E-02
 -1       689 9.59983E-03
 -1       690 7.83106E-03
 -1       691 7.36533E-03
 -1       692 6.59090E-03
 -1       693 5.66914E-03
 -1       694 4.70919E-03
 -1       695 3.93234E-03
 -1       696 3.29963E-03
 -1       697 2.66669E-03
 -1       698 2.07818E-03
 -1       699 1.57448E-03
 -1       700 1.20163E-03
 -1       701 1.09403E-03
 -1       702 1.13093E-03
 -1       703 9.36396E-04
 -1       704 1.11949E-03
 -1       705 1.13162E-03
 -1       706 1.13162E-03
 -1       707 1.12989E-03
 -1       708 1.04043E-03
 -1       709 1.18332E+01
 -1       710 1.07505E+01
 -1       711 1.13093E-03
 -1       712 8.66166E+00
 -1       713 7.91444E+00
 -1       714 1.27230E+01
 -1       715 1.02738E+00
 -1       716 5.46669E+00
 -1       717 2.97352E+00
 -1       718 1.76272E+01
 -1       719 5.14232E+00
 -1       720 1.51304E+01
 -1       721 1.42255E+01
 -1       722 8.54459E+00
 -1       723 1.45678E+00
 -1       724 1.16400E+00
 -1       725 3.94823E+00
 -1       726 3.84922E+00
 -1       727 5.21709E+00
 -1       728 1.08474E+00
 -1       729 1.13130E+01
 -1       730 2.64439E+00
 -1       731 1.48048E+00
 -1       732 1.06348E-03
 -1       733 6.12706E-01
 -1       734 8.47971E+00
 -1       735 1.00385E+00
 -1       736 5.22352E+00
 -1       737 1.35699E+01
 -1       738 7.63232E-01
 -1       739 3.06818E+00
 -1       740 3.62886E+00
 -1       741 4.55417E+00
 -1       742 8.87136E+00
 -1       743 2.10248E+00
 -1       744 7.56061E+00
 -1       745 3.60187E+00
 -1       746 3.60239E+00
 -1       747 5.80419E+00
 -1       748 3.73917E+00
 -1       749 2.61249E+00
 -1       750 1.85749E+00
 -1       751 1.33275E+00
 -1       752 9.60858E-01
 -1       753 6.93296E-01
 -1       754 4.98728E-01
 -1       755 3.56629E-01
 -1       756 2.52793E-01
 -1       757 1.77103E-01
 -1       758 1.22188E-01
 -1       759 8.42797E-02
 -1       760 5.70879E-02
 -1       761 3.75396E-02
 -1       762 2.41218E-02
 -1       763 1.56911E-02
 -1       764 9.64331E-03
 -1       765 5.42235E-03
 -1       766 4.85882E-03
 -1       767 4.93805E-03
 -1       768 4.63841E-03
 -1       769 4.12777E-03
 -1       770 3.51857E-03
 -1       771 2.99126E-03
 -1       772 2.52638E-03
 -1       773 2.19757E-03
 -1       774 1.94035E-03
 -1       775 9.84185E-01
 -1       776 7.46361E-01
 -1       777 2.92435E+00
 -1       778 3.11593E+00
 -1       779 1.90161E+00
 -1       780 1.82783E+00
 -1       781 1.43606E+00
 -1       782 1.31949E+00
 -1       783 1.12807E+00
 -1       784 1.02360E+00
 -1       785 8.65949E-01
 -1       786 6.51954E-01
 -1       787 4.96657E-01
 -1       788 4.25107E-01
 -1       789 3.48063E-01
 -1       790 3.04832E-01
 -1       791 2.62857E-01
 -1       792 2.16985E-01
 -1       793 1.72873E-01
 -1       794 1.33516E-01
 -1       795 1.00148E-01
 -1       796 7.29299E-02
 -1       797 5.21163E-02
 -1       798 3.71966E-02
 -1       799 2.58176E-02
 -1       800 1.72754E-02
 -1       801 1.09994E-02
 -1       802 6.49962E-03
 -1       803 4.27907E-03
 -1       804 4.60077E-03
 -1       805 4.56300E-03
 -1       806 4.22070E-03
 -1       807 3.70834E-03
 -1       808 3.11958E-03
 -1       809 2.71169E-03
 -1       810 2.24872E-03
 -1       811 1.76954E-03
 -1       812 1.51777E-03
 -1       813 1.35272E-03
 -1       814 1.85204E-03
 -1       815 1.35272E-03
 -1       816 2.07630E+00
 -1       817 2.54498E+00
 -1       818 8.67012E+00
 -1       819 7.20830E+00
 -1       820 2.62419E+00
 -1       821 3.37330E+00
 -1       822 5.59762E+00
 -1       823 1.29379E-03
 -1       824 1.04888E+01
 -1       825 7.46670E+00
 -1       826 1.23492E-03
 -1       827 1.40861E+00
 -1       828 3.08731E+00
 -1       829 8.47971E+00
 -1       830 5.54503E+00
 -1       831 2.50794E+00
 -1       832 5.85430E+00
 -1       833 7.08409E+00
 -1       834 3.27891E+00
 -1       835 1.25130E+00
 -1       836 1.70994E+00
 -1       837 1.49433E+00
 -1       838 1.28523E+00
 -1       839 7.78124E+00
 -1       840 1.68578E-03
 -1       841 6.34352E-01
 -1       842 8.28541E+00
 -1       843 1.03777E+00
 -1       844 3.69509E+00
 -1       845 2.22638E+00
 -1       846 1.68578E-03
 -1       847 3.06811E+00
 -1       848 2.25533E-03
 -1       849 4.25648E+00
 -1       850 5.72010E+00
 -1       851 2.47486E+00
 -1       852 3.03913E+00
 -1       853 2.00964E+00
 -1       854 1.39424E+00
 -1       855 9.98978E-01
 -1       856 7.28604E-01
 -1       857 5.35060E-01
 -1       858 3.92964E-01
 -1       859 2.87260E-01
 -1       860 2.08270E-01
 -1       861 1.49289E-01
 -1       862 1.05441E-01
 -1       863 7.30722E-02
 -1       864 5.00030E-02
 -1       865 3.37791E-02
 -1       866 2.20169E-02
 -1       867 1.36343E-02
 -1       868 7.78472E-03
 -1       869 3.81091E-03
 -1       870 2.65317E-03
 -1       871 3.19387E-03
 -1       872 3.28705E-03
 -1       873 3.10297E-03
 -1       874 2.75941E-03
 -1       875 2.37492E-03
 -1       876 2.25533E-03
 -1       877 2.92435E+00
 -1       878 3.06818E+00
 -1       879 1.70821E+00
 -1       880 2.17939E+00
 -1       881 1.52921E+00
 -1       882 1.24327E+00
 -1       883 8.96644E-01
 -1       884 7.63439E-01
 -1       885 6.13586E-01
 -1       886 4.75212E-01
 -1       887 3.87737E-01
 -1       888 3.12098E-01
 -1       889 2.47115E-01
 -1       890 1.93872E-01
 -1       891 1.54281E-01
 -1       892 1.19513E-01
 -1       893 9.05448E-02
 -1       894 6.75597E-02
 -1       895 4.96718E-02
 -1       896 3.55193E-02
 -1       897 2.45029E-02
 -1       898 1.61524E-02
 -1       899 9.99365E-03
 -1       900 5.58554E-03
 -1       901 2.88459E-03
 -1       902 2.73020E-03
 -1       903 3.02672E-03
 -1       904 2.99006E-03
 -1       905 2.74815E-03
 -1       906 2.39192E-03
 -1       907 2.09730E-03
 -1       908 2.04825E-03
 -1       909 2.03376E-03
 -1       910 5.44467E+00
 -1       911 6.13811E+00
 -1       912 3.33237E+00
 -1       913 2.22638E+00
 -1       914 5.65976E+00
 -1       915 8.16996E-01
 -1       916 5.54087E+00
 -1       917 2.96643E+00
 -1       918 1.56965E+00
 -1       919 6.32690E+00
 -1       920 9.69485E-01
 -1       921 6.51254E+00
 -1       922 3.11593E+00
 -1       923 2.23732E+00
 -1       924 2.20876E+00
 -1       925 4.65626E+00
 -1       926 2.10248E+00
 -1       927 2.04175E+00
 -1       928 1.41760E-03
 -1       929 1.48118E-03
 -1       930 1.92805E-03
 -1       931 1.77925E+00
 -1       932 3.19785E+00
 -1       933 2.31243E+00
 -1       934 6.51254E+00
 -1       935 1.33264E+00
 -1       936 1.33329E-03
 -1       937 3.05034E+00
 -1       938 2.50794E+00
 -1       939 3.92484E+00
 -1       940 4.10440E+00
 -1       941 3.01488E+00
 -1       942 2.99429E+00
 -1       943 3.01488E+00
 -1       944 1.91316E+00
 -1       945 1.28222E+00
 -1       946 8.84134E-01
 -1       947 6.18284E-01
 -1       948 4.35291E-01
 -1       949 3.06968E-01
 -1       950 2.16176E-01
 -1       951 1.60818E-01
 -1       952 1.19089E-01
 -1       953 8.68202E-02
 -1       954 6.21535E-02
 -1       955 4.42850E-02
 -1       956 3.13451E-02
 -1       957 2.15986E-02
 -1       958 1.43871E-02
 -1       959 9.15377E-03
 -1       960 5.43913E-03
 -1       961 2.87153E-03
 -1       962 1.42407E-03
 -1       963 1.66301E-03
 -1       964 1.76244E-03
 -1       965 1.68853E-03
 -1       966 1.62635E-03
 -1       967 2.17939E+00
 -1       968 2.11045E+00
 -1       969 1.38067E+00
 -1       970 1.07597E+00
 -1       971 8.42382E-01
 -1       972 6.69181E-01
 -1       973 5.08749E-01
 -1       974 3.79662E-01
 -1       975 2.99649E-01
 -1       976 2.36570E-01
 -1       977 1.93872E-01
 -1       978 1.54281E-01
 -1       979 1.19513E-01
 -1       980 9.02601E-02
 -1       981 6.64385E-02
 -1       982 4.75622E-02
 -1       983 3.29689E-02
 -1       984 2.23328E-02
 -1       985 1.47337E-02
 -1       986 9.17643E-03
 -1       987 5.21834E-03
 -1       988 2.99851E-03
 -1       989 1.85776E-03
 -1       990 2.33492E-03
 -1       991 2.45258E-03
 -1       992 2.34011E-03
 -1       993 2.09730E-03
 -1       994 2.04825E-03
 -1       995 4.86011E+00
 -1       996 3.31854E+00
 -1       997 2.25533E-03
 -1       998 1.74713E+00
 -1       999 3.98330E+00
 -1      1000 4.32442E+00
 -1      1001 4.41261E+00
 -1      1002 1.52063E-03
 -1      1003 3.94670E+00
 -1      1004 3.02276E+00
 -1      1005 3.55737E+00
 -1      1006 3.12758E+00
 -1      1007 1.76652E-03
 -1      1008 1.78163E+00
 -1      1009 1.55444E-03
 -1      1010 1.91339E+00
 -1      1011 3.29792E+00
 -1      1012 2.05112E+00
 -1      1013 1.37394E+00
 -1      1014 9.78965E-01
 -1      1015 7.06336E-01
 -1      1016 5.13455E-01
 -1      1017 3.73871E-01
 -1      1018 2.71889E-01
 -1      1019 1.97055E-01
 -1      1020 1.42074E-01
 -1      1021 1.01703E-01
 -1      1022 7.21144E-02
 -1      1023 5.11011E-02
 -1      1024 3.56607E-02
 -1      1025 2.44272E-02
 -1      1026 1.69604E-02
 -1      1027 1.14680E-02
 -1      1028 7.47575E-03
 -1      1029 4.61645E-03
 -1      1030 2.60586E-03
 -1      1031 1.22453E-03
 -1      1032 1.52443E-03
 -1      1033 1.66911E-03
 -1      1034 1.72672E-03
 -1      1035 1.78175E-03
 -1      1036 2.93901E+00
 -1      1037 1.90163E+00
 -1      1038 9.36568E-01
 -1      1039 6.57145E-01
 -1      1040 4.92724E-01
 -1      1041 3.73564E-01
 -1      1042 2.99649E-01
 -1      1043 2.36570E-01
 -1      1044 1.83040E-01
 -1      1045 1.39129E-01
 -1      1046 1.03950E-01
 -1      1047 7.62836E-02
 -1      1048 5.48738E-02
 -1      1049 3.85589E-02
 -1      1050 2.63216E-02
 -1      1051 1.75910E-02
 -1      1052 1.17542E-02
 -1      1053 7.93322E-03
 -1      1054 5.07737E-03
 -1      1055 2.99851E-03
 -1      1056 1.52785E-03
 -1      1057 1.74952E-03
 -1      1058 1.89848E-03
 -1      1059 1.85474E-03
 -1      1060 3.94670E+00
 -1      1061 3.94670E+00
 -1      1062 4.32442E+00
 -1      1063 1.19009E-03
 -1      1064 1.72672E-03
 -1      1065 3.54247E+00
 -1      1066 1.76652E-03
 -1      1067 2.08005E+00
 -1      1068 3.54247E+00
 -1      1069 1.76652E-03
 -1      1070 1.74512E-03
 -1      1071 1.99133E+00
 -1      1072 1.07413E+00
 -1      1073 7.06336E-01
 -1      1074 5.13455E-01
 -1      1075 3.90981E-01
 -1      1076 2.96763E-01
 -1      1077 2.23522E-01
 -1      1078 1.66962E-01
 -1      1079 1.23557E-01
 -1      1080 9.04553E-02
 -1      1081 6.53782E-02
 -1      1082 4.65572E-02
 -1      1083 3.28302E-02
 -1      1084 2.26860E-02
 -1      1085 1.57687E-02
 -1      1086 1.06260E-02
 -1      1087 6.86151E-03
 -1      1088 4.15542E-03
 -1      1089 2.25171E-03
 -1      1090 9.47675E-04
 -1      1091 1.23432E-03
 -1      1092 1.49593E-03
 -1      1093 9.70145E-01
 -1      1094 6.74215E-01
 -1      1095 4.98404E-01
 -1      1096 3.73564E-01
 -1      1097 2.79567E-01
 -1      1098 2.07066E-01
 -1      1099 1.51972E-01
 -1      1100 1.10510E-01
 -1      1101 8.12765E-02
 -1      1102 6.18425E-02
 -1      1103 4.59394E-02
 -1      1104 3.32703E-02
 -1      1105 2.34145E-02
 -1      1106 1.63926E-02
 -1      1107 1.12247E-02
 -1      1108 7.36343E-03
 -1      1109 4.54200E-03
 -1      1110 2.53031E-03
 -1      1111 1.21462E-03
 -1      1112 1.35672E-03
 -1      1113 1.76361E-03
 -1      1114 1.22816E-03
 -1      1115 1.56646E+00
 -1      1116 1.38361E+00
 -1      1117 9.70145E-01
 -1      1118 6.62342E-01
 -1      1119 4.58366E-01
 -1      1120 3.14969E-01
 -1      1121 2.26047E-01
 -1      1122 1.77514E-01
 -1      1123 1.37032E-01
 -1      1124 1.04075E-01
 -1      1125 7.77509E-02
 -1      1126 5.70661E-02
 -1      1127 4.10589E-02
 -1      1128 2.88575E-02
 -1      1129 2.01098E-02
 -1      1130 1.38433E-02
 -1      1131 9.19790E-03
 -1      1132 5.83992E-03
 -1      1133 3.42635E-03
 -1      1134 1.73453E-03
 -1      1135 9.76850E-04
 -1      1136 1.34082E-03
 -1      1137 1.49593E-03
 -1      1138 1.18007E+01
 -1      1139 7.77640E+00
 -1      1140 3.08564E+00
 -1      1141 2.13756E+00
 -1      1142 1.64597E+00
 -1      1143 1.22393E+00
 -1      1144 8.09977E-01
 -1      1145 6.10655E-01
 -1      1146 7.21331E-01
 -1      1147 9.25611E-01
 -1      1148 1.10124E+00
 -1      1149 1.27617E+00
 -1      1150 1.49219E+00
 -1      1151 1.84031E+00
 -1      1152 2.80531E+00
 -1      1153 5.91802E+00
 -1      1154 1.08460E+01
 -1      1155 1.18007E+01
 -1      1156 7.59144E+00
 -1      1157 2.77711E+00
 -1      1158 1.85252E+00
 -1      1159 1.72056E+00
 -1      1160 2.29102E+00
 -1      1161 2.91140E+00
 -1      1162 3.14891E+00
 -1      1163 3.04816E+00
 -1      1164 3.67359E+00
 -1      1165 6.63490E+00
 -1      1166 9.06809E+00
 -1      1167 9.26615E+00
 -1      1168 9.02568E+00
 -1      1169 6.52264E+00
 -1      1170 3.70962E+00
 -1      1171 3.24812E+00
 -1      1172 3.33708E+00
 -1      1173 3.15169E+00
 -1      1174 2.64057E+00
 -1      1175 2.05388E+00
 -1      1176 1.56364E+00
 -1      1177 1.17232E+00
 -1      1178 9.01873E-01
 -1      1179 6.99441E-01
 -1      1180 5.28982E-01
 -1      1181 3.92726E-01
 -1      1182 2.87246E-01
 -1      1183 2.07254E-01
 -1      1184 1.47443E-01
 -1      1185 1.09623E-01
 -1      1186 8.74535E-02
 -1      1187 6.93733E-02
 -1      1188 5.43355E-02
 -1      1189 4.20087E-02
 -1      1190 3.20351E-02
 -1      1191 2.40647E-02
 -1      1192 1.84626E-02
 -1      1193 1.48732E-02
 -1      1194 1.20241E-02
 -1      1195 9.54131E-03
 -1      1196 7.42250E-03
 -1      1197 5.69248E-03
 -1      1198 4.30906E-03
 -1      1199 3.17423E-03
 -1      1200 2.48903E-03
 -1      1201 2.11421E-03
 -1      1202 1.66034E-03
 -1      1203 1.26602E-03
 -1      1204 7.46096E-04
 -1      1205 1.33987E+01
 -1      1206 8.20425E+00
 -1      1207 2.43617E+00
 -1      1208 1.45825E+00
 -1      1209 7.97905E-01
 -1      1210 4.81089E-01
 -1      1211 5.53698E-01
 -1      1212 7.91132E-01
 -1      1213 1.08641E+00
 -1      1214 1.53855E+00
 -1      1215 1.97748E+00
 -1      1216 2.23051E+00
 -1      1217 2.42799E+00
 -1      1218 2.55042E+00
 -1      1219 2.45903E+00
 -1      1220 2.11502E+00
 -1      1221 1.57676E+00
 -1      1222 1.05718E+00
 -1      1223 6.90448E-01
 -1      1224 4.83365E-01
 -1      1225 4.22253E-01
 -1      1226 4.35430E-01
 -1      1227 4.33312E-01
 -1      1228 4.07939E-01
 -1      1229 3.51689E-01
 -1      1230 2.90489E-01
 -1      1231 2.33660E-01
 -1      1232 1.80626E-01
 -1      1233 1.41147E-01
 -1      1234 1.12014E-01
 -1      1235 8.56829E-02
 -1      1236 6.32396E-02
 -1      1237 4.49550E-02
 -1      1238 3.31977E-02
 -1      1239 2.71615E-02
 -1      1240 2.24945E-02
 -1      1241 1.81582E-02
 -1      1242 1.46067E-02
 -1      1243 1.23579E-02
 -1      1244 1.07735E-02
 -1      1245 9.11784E-03
 -1      1246 7.52151E-03
 -1      1247 6.05977E-03
 -1      1248 4.81781E-03
 -1      1249 3.76327E-03
 -1      1250 2.80183E-03
 -1      1251 2.10418E-03
 -1      1252 1.61169E-03
 -1      1253 1.06323E-03
 -1      1254 4.83190E-04
 -1      1255 2.78455E-04
 -1      1256 3.58754E-04
 -1      1257 3.14102E-04
 -1      1258 1.87751E-04
 -1      1259 1.35997E-04
 -1      1260 2.03805E-04
 -1      1261 2.63496E-04
 -1      1262 2.91603E-04
 -1      1263 2.97880E-04
 -1      1264 2.92092E-04
 -1      1265 2.63821E-04
 -1      1266 2.04792E-04
 -1      1267 1.38205E-04
 -1      1268 1.89972E-04
 -1      1269 2.79574E-04
 -1      1270 2.87370E-04
 -1      1271 3.27198E-04
 -1      1272 2.49472E+01
 -1      1273 3.56923E+01
 -1      1274 4.66110E+01
 -1      1275 3.30512E+01
 -1      1276 1.58518E+01
 -1      1277 1.22122E+01
 -1      1278 1.20742E+01
 -1      1279 1.22853E+01
 -1      1280 1.26343E+01
 -1      1281 1.22113E+01
 -1      1282 1.50007E+01
 -1      1283 3.19436E+01
 -1      1284 4.56740E+01
 -1      1285 3.48154E+01
 -1      1286 2.39568E+01
 -1      1287 2.45486E+01
 -1      1288 2.60459E+01
 -1      1289 2.90263E+01
 -1      1290 3.08941E+01
 -1      1291 2.23515E+01
 -1      1292 1.32514E+01
 -1      1293 1.24867E+01
 -1      1294 1.28638E+01
 -1      1295 1.32408E+01
 -1      1296 1.29546E+01
 -1      1297 1.96560E+01
 -1      1298 2.79110E+01
 -1      1299 2.91784E+01
 -1      1300 2.72679E+01
 -1      1301 2.52391E+01
 -1      1302 1.18007E+01
 -1      1303 4.81815E+00
 -1      1304 8.84249E+00
 -1      1305 2.59036E+00
 -1      1306 3.25677E+00
 -1      1307 4.32287E+00
 -1      1308 1.91620E+00
 -1      1309 2.19787E+00
 -1      1310 2.36899E+00
 -1      1311 1.49307E+00
 -1      1312 1.70299E+00
 -1      1313 1.76330E+00
 -1      1314 1.08494E+00
 -1      1315 1.29706E+00
 -1      1316 1.35409E+00
 -1      1317 6.69224E-01
 -1      1318 8.71055E-01
 -1      1319 9.44189E-01
 -1      1320 5.30563E-01
 -1      1321 5.28055E-01
 -1      1322 5.89133E-01
 -1      1323 7.52416E-01
 -1      1324 6.44248E-01
 -1      1325 5.61648E-01
 -1      1326 9.57476E-01
 -1      1327 8.61364E-01
 -1      1328 7.84281E-01
 -1      1329 1.13088E+00
 -1      1330 1.05136E+00
 -1      1331 9.87118E-01
 -1      1332 1.32377E+00
 -1      1333 1.22837E+00
 -1      1334 1.17849E+00
 -1      1335 1.55433E+00
 -1      1336 1.43371E+00
 -1      1337 1.38592E+00
 -1      1338 1.95370E+00
 -1      1339 1.72620E+00
 -1      1340 1.66773E+00
 -1      1341 3.02792E+00
 -1      1342 2.29042E+00
 -1      1343 2.17631E+00
 -1      1344 6.10131E+00
 -1      1345 3.72610E+00
 -1      1346 3.21121E+00
 -1      1347 1.33987E+01
 -1      1348 1.08460E+01
 -1      1349 8.65404E+00
 -1      1350 1.33987E+01
 -1      1351 7.59144E+00
 -1      1352 3.38213E+00
 -1      1353 2.77711E+00
 -1      1354 2.17208E+00
 -1      1355 2.77711E+00
 -1      1356 1.75556E+00
 -1      1357 1.43601E+00
 -1      1358 1.75556E+00
 -1      1359 1.62063E+00
 -1      1360 1.80822E+00
 -1      1361 1.52367E+00
 -1      1362 1.97377E+00
 -1      1363 2.35664E+00
 -1      1364 1.87384E+00
 -1      1365 2.67390E+00
 -1      1366 2.91140E+00
 -1      1367 2.35664E+00
 -1      1368 3.14891E+00
 -1      1369 3.14891E+00
 -1      1370 2.91140E+00
 -1      1371 3.04816E+00
 -1      1372 2.94741E+00
 -1      1373 3.04816E+00
 -1      1374 2.71478E+00
 -1      1375 3.44096E+00
 -1      1376 2.71478E+00
 -1      1377 4.66990E+00
 -1      1378 6.90503E+00
 -1      1379 3.71109E+00
 -1      1380 8.87002E+00
 -1      1381 9.06809E+00
 -1      1382 6.90503E+00
 -1      1383 9.26615E+00
 -1      1384 9.26615E+00
 -1      1385 9.06809E+00
 -1      1386 9.02568E+00
 -1      1387 8.78521E+00
 -1      1388 9.02568E+00
 -1      1389 6.81323E+00
 -1      1390 4.55066E+00
 -1      1391 6.81323E+00
 -1      1392 3.48150E+00
 -1      1393 2.93105E+00
 -1      1394 3.77209E+00
 -1      1395 3.15917E+00
 -1      1396 3.24812E+00
 -1      1397 2.93105E+00
 -1      1398 3.33708E+00
 -1      1399 3.33708E+00
 -1      1400 3.24812E+00
 -1      1401 3.15169E+00
 -1      1402 2.96630E+00
 -1      1403 3.15169E+00
 -1      1404 2.69848E+00
 -1      1405 2.37275E+00
 -1      1406 2.69848E+00
 -1      1407 2.21142E+00
 -1      1408 1.95047E+00
 -1      1409 2.26934E+00
 -1      1410 1.76576E+00
 -1      1411 1.53647E+00
 -1      1412 1.92330E+00
 -1      1413 1.34145E+00
 -1      1414 1.17942E+00
 -1      1415 1.54356E+00
 -1      1416 1.00584E+00
 -1      1417 8.97416E-01
 -1      1418 1.17496E+00
 -1      1419 7.56607E-01
 -1      1420 6.62596E-01
 -1      1421 8.60571E-01
 -1      1422 5.54660E-01
 -1      1423 4.78213E-01
 -1      1424 6.11827E-01
 -1      1425 3.98471E-01
 -1      1426 3.38662E-01
 -1      1427 4.24149E-01
 -1      1428 2.94747E-01
 -1      1429 2.49076E-01
 -1      1430 3.00492E-01
 -1      1431 2.15188E-01
 -1      1432 1.80868E-01
 -1      1433 2.22690E-01
 -1      1434 1.55073E-01
 -1      1435 1.29582E-01
 -1      1436 1.63007E-01
 -1      1437 1.10160E-01
 -1      1438 9.78304E-02
 -1      1439 1.17790E-01
 -1      1440 8.74535E-02
 -1      1441 7.76143E-02
 -1      1442 8.79912E-02
 -1      1443 6.93733E-02
 -1      1444 6.11322E-02
 -1      1445 6.93733E-02
 -1      1446 5.43355E-02
 -1      1447 4.75388E-02
 -1      1448 5.43355E-02
 -1      1449 4.20087E-02
 -1      1450 3.64785E-02
 -1      1451 4.20087E-02
 -1      1452 3.20351E-02
 -1      1453 2.75917E-02
 -1      1454 3.20351E-02
 -1      1455 2.44998E-02
 -1      1456 2.09728E-02
 -1      1457 2.44998E-02
 -1      1458 1.84929E-02
 -1      1459 1.64178E-02
 -1      1460 1.89280E-02
 -1      1461 1.48732E-02
 -1      1462 1.33588E-02
 -1      1463 1.49034E-02
 -1      1464 1.20241E-02
 -1      1465 1.06895E-02
 -1      1466 1.20241E-02
 -1      1467 9.54639E-03
 -1      1468 8.39824E-03
 -1      1469 9.54639E-03
 -1      1470 7.54697E-03
 -1      1471 6.57630E-03
 -1      1472 7.55204E-03
 -1      1473 5.83050E-03
 -1      1474 5.07114E-03
 -1      1475 5.95497E-03
 -1      1476 4.51756E-03
 -1      1477 3.89350E-03
 -1      1478 4.65558E-03
 -1      1479 3.40631E-03
 -1      1480 2.89554E-03
 -1      1481 3.61480E-03
 -1      1482 2.48903E-03
 -1      1483 2.31460E-03
 -1      1484 2.72111E-03
 -1      1485 2.11421E-03
 -1      1486 1.91382E-03
 -1      1487 2.11421E-03
 -1      1488 1.66034E-03
 -1      1489 1.40687E-03
 -1      1490 1.66034E-03
 -1      1491 1.26602E-03
 -1      1492 1.12517E-03
 -1      1493 1.26602E-03
 -1      1494 7.93026E-04
 -1      1495 4.13957E-04
 -1      1496 3.74128E-04
 -1      1497 7.93026E-04
 -1      1498 3.00980E+00
 -1      1499 8.20425E+00
 -1      1500 8.20425E+00
 -1      1501 1.86253E+00
 -1      1502 2.43617E+00
 -1      1503 2.43617E+00
 -1      1504 1.05398E+00
 -1      1505 1.45825E+00
 -1      1506 1.45825E+00
 -1      1507 6.19360E-01
 -1      1508 8.75431E-01
 -1      1509 8.75431E-01
 -1      1510 5.59667E-01
 -1      1511 6.20412E-01
 -1      1512 6.97939E-01
 -1      1513 8.03449E-01
 -1      1514 6.70094E-01
 -1      1515 8.09418E-01
 -1      1516 1.04521E+00
 -1      1517 9.41132E-01
 -1      1518 1.05753E+00
 -1      1519 1.39588E+00
 -1      1520 1.20469E+00
 -1      1521 1.35469E+00
 -1      1522 1.80666E+00
 -1      1523 1.54572E+00
 -1      1524 1.66400E+00
 -1      1525 2.04446E+00
 -1      1526 1.86647E+00
 -1      1527 1.87364E+00
 -1      1528 2.23051E+00
 -1      1529 2.15547E+00
 -1      1530 2.04446E+00
 -1      1531 2.42799E+00
 -1      1532 2.30556E+00
 -1      1533 2.23051E+00
 -1      1534 2.55042E+00
 -1      1535 2.55042E+00
 -1      1536 2.42799E+00
 -1      1537 2.36765E+00
 -1      1538 2.45903E+00
 -1      1539 2.45903E+00
 -1      1540 1.86240E+00
 -1      1541 2.11502E+00
 -1      1542 2.11502E+00
 -1      1543 1.29112E+00
 -1      1544 1.57676E+00
 -1      1545 1.57676E+00
 -1      1546 8.25538E-01
 -1      1547 1.05948E+00
 -1      1548 1.05948E+00
 -1      1549 5.57653E-01
 -1      1550 6.90448E-01
 -1      1551 6.92742E-01
 -1      1552 4.09077E-01
 -1      1553 4.83365E-01
 -1      1554 4.83365E-01
 -1      1555 4.14049E-01
 -1      1556 4.00872E-01
 -1      1557 4.00872E-01
 -1      1558 4.35430E-01
 -1      1559 4.35430E-01
 -1      1560 4.14049E-01
 -1      1561 4.31194E-01
 -1      1562 4.33312E-01
 -1      1563 4.33312E-01
 -1      1564 3.84684E-01
 -1      1565 4.07939E-01
 -1      1566 4.07939E-01
 -1      1567 3.18695E-01
 -1      1568 3.51689E-01
 -1      1569 3.51689E-01
 -1      1570 2.63141E-01
 -1      1571 2.91347E-01
 -1      1572 2.91347E-01
 -1      1573 2.09700E-01
 -1      1574 2.38323E-01
 -1      1575 2.39181E-01
 -1      1576 1.60955E-01
 -1      1577 1.85366E-01
 -1      1578 1.90029E-01
 -1      1579 1.26079E-01
 -1      1580 1.41147E-01
 -1      1581 1.45887E-01
 -1      1582 9.79497E-02
 -1      1583 1.12014E-01
 -1      1584 1.12014E-01
 -1      1585 7.34161E-02
 -1      1586 8.56829E-02
 -1      1587 8.56829E-02
 -1      1588 5.30631E-02
 -1      1589 6.32396E-02
 -1      1590 6.32396E-02
 -1      1591 3.74235E-02
 -1      1592 4.55316E-02
 -1      1593 4.55316E-02
 -1      1594 3.01211E-02
 -1      1595 3.37702E-02
 -1      1596 3.43468E-02
 -1      1597 2.52549E-02
 -1      1598 2.76419E-02
 -1      1599 2.82144E-02
 -1      1600 2.06159E-02
 -1      1601 2.28958E-02
 -1      1602 2.33762E-02
 -1      1603 1.64307E-02
 -1      1604 1.84870E-02
 -1      1605 1.88883E-02
 -1      1606 1.31115E-02
 -1      1607 1.46067E-02
 -1      1608 1.49355E-02
 -1      1609 1.16043E-02
 -1      1610 1.23579E-02
 -1      1611 1.23579E-02
 -1      1612 9.94265E-03
 -1      1613 1.07735E-02
 -1      1614 1.07735E-02
 -1      1615 8.29303E-03
 -1      1616 9.11784E-03
 -1      1617 9.11784E-03
 -1      1618 6.74999E-03
 -1      1619 7.52151E-03
 -1      1620 7.52151E-03
 -1      1621 5.36954E-03
 -1      1622 6.05977E-03
 -1      1623 6.05977E-03
 -1      1624 4.26608E-03
 -1      1625 4.81781E-03
 -1      1626 4.81781E-03
 -1      1627 3.26045E-03
 -1      1628 3.76327E-03
 -1      1629 3.76327E-03
 -1      1630 2.37512E-03
 -1      1631 2.83375E-03
 -1      1632 2.83375E-03
 -1      1633 1.86516E-03
 -1      1634 2.10418E-03
 -1      1635 2.13610E-03
 -1      1636 1.35823E-03
 -1      1637 1.61169E-03
 -1      1638 1.61169E-03
 -1      1639 7.76092E-04
 -1      1640 1.07109E-03
 -1      1641 1.07109E-03
 -1      1642 5.63489E-04
 -1      1643 5.09123E-04
 -1      1644 5.09123E-04
 -1      1645 4.64471E-04
 -1      1646 5.09123E-04
 -1      1647 6.59492E-04
 -1      1648 2.34767E-04
 -1      1649 3.16467E-04
 -1      1650 5.11487E-04
 -1      1651 2.17267E-04
 -1      1652 1.87321E-04
 -1      1653 3.16037E-04
 -1      1654 3.30742E-04
 -1      1655 2.92880E-04
 -1      1656 3.44204E-04
 -1      1657 3.99205E-04
 -1      1658 3.77375E-04
 -1      1659 4.66451E-04
 -1      1660 4.24094E-04
 -1      1661 4.17816E-04
 -1      1662 5.31696E-04
 -1      1663 4.24246E-04
 -1      1664 4.24246E-04
 -1      1665 5.50460E-04
 -1      1666 4.18458E-04
 -1      1667 4.24246E-04
 -1      1668 5.50612E-04
 -1      1669 3.77567E-04
 -1      1670 4.00050E-04
 -1      1671 5.32204E-04
 -1      1672 2.96706E-04
 -1      1673 3.33253E-04
 -1      1674 4.69481E-04
 -1      1675 1.92338E-04
 -1      1676 2.22379E-04
 -1      1677 3.50839E-04
 -1      1678 3.19279E-04
 -1      1679 2.37472E-04
 -1      1680 3.21645E-04
 -1      1681 5.53628E-04
 -1      1682 5.45833E-04
 -1      1683 5.93333E-04
 -1      1684 5.53628E-04
 -1      1685 5.53628E-04
 -1      1686 8.19886E-04
 -1      1687 6.40386E-04
 -1      1688 2.83398E+01
 -1      1689 2.85133E+01
 -1      1690 3.70177E+01
 -1      1691 2.60990E+01
 -1      1692 4.66110E+01
 -1      1693 4.66110E+01
 -1      1694 2.00744E+01
 -1      1695 3.36342E+01
 -1      1696 1.17049E+01
 -1      1697 1.53445E+01
 -1      1698 1.22122E+01
 -1      1699 1.22122E+01
 -1      1700 1.19363E+01
 -1      1701 1.20742E+01
 -1      1702 1.22301E+01
 -1      1703 1.18811E+01
 -1      1704 1.26343E+01
 -1      1705 1.26343E+01
 -1      1706 1.17883E+01
 -1      1707 1.22113E+01
 -1      1708 1.44010E+01
 -1      1709 1.11886E+01
 -1      1710 3.26204E+01
 -1      1711 1.88899E+01
 -1      1712 4.56740E+01
 -1      1713 4.56740E+01
 -1      1714 2.56399E+01
 -1      1715 3.64985E+01
 -1      1716 2.74086E+01
 -1      1717 2.74086E+01
 -1      1718 2.80004E+01
 -1      1719 2.74086E+01
 -1      1720 3.07084E+01
 -1      1721 2.98029E+01
 -1      1722 3.27833E+01
 -1      1723 3.07084E+01
 -1      1724 3.08941E+01
 -1      1725 3.11012E+01
 -1      1726 1.40161E+01
 -1      1727 2.23515E+01
 -1      1728 1.23045E+01
 -1      1729 1.30692E+01
 -1      1730 1.24867E+01
 -1      1731 1.24867E+01
 -1      1732 1.26304E+01
 -1      1733 1.22533E+01
 -1      1734 1.32408E+01
 -1      1735 1.32408E+01
 -1      1736 1.23870E+01
 -1      1737 1.26732E+01
 -1      1738 1.96560E+01
 -1      1739 1.26684E+01
 -1      1740 2.86147E+01
 -1      1741 2.73473E+01
 -1      1742 3.10356E+01
 -1      1743 3.10356E+01
 -1      1744 2.91251E+01
 -1      1745 3.10356E+01
 -1      1746 2.85133E+01
 -1      1747 2.86317E+01
 -1      1748 3.36342E+01
 -1      1749 3.19059E+01
 -1      1750 5.71357E-04
 -1      1751 7.21726E-04
 -1      1752 2.96651E+01
 -1      1753 3.70177E+01
 -1      1754 1.59275E+01
 -1      1755 1.17049E+01
 -1      1756 1.20742E+01
 -1      1757 1.18811E+01
 -1      1758 1.22301E+01
 -1      1759 1.22113E+01
 -1      1760 1.11886E+01
 -1      1761 1.50778E+01
 -1      1762 3.26204E+01
 -1      1763 3.64985E+01
 -1      1764 2.90917E+01
 -1      1765 3.08604E+01
 -1      1766 3.26629E+01
 -1      1767 3.44655E+01
 -1      1768 3.27833E+01
 -1      1769 2.25586E+01
 -1      1770 1.30692E+01
 -1      1771 1.23045E+01
 -1      1772 1.22533E+01
 -1      1773 1.26304E+01
 -1      1774 1.26732E+01
 -1      1775 1.23870E+01
 -1      1776 2.03597E+01
 -1      1777 3.04719E+01
 -1      1778 3.28927E+01
 -1      1779 3.23993E+01
 -1      1780 8.84249E+00
 -1      1781 2.00873E+00
 -1      1782 2.40122E+00
 -1      1783 2.77187E+00
 -1      1784 4.33325E+00
 -1      1785 2.41160E+00
 -1      1786 1.27192E+00
 -1      1787 1.46793E+00
 -1      1788 8.33162E-01
 -1      1789 1.04705E+00
 -1      1790 1.16090E+00
 -1      1791 4.69497E-01
 -1      1792 6.10666E-01
 -1      1793 7.13526E-01
 -1      1794 6.53150E-01
 -1      1795 5.39465E-01
 -1      1796 5.60999E-01
 -1      1797 8.32754E-01
 -1      1798 7.23805E-01
 -1      1799 7.01622E-01
 -1      1800 9.86137E-01
 -1      1801 8.92249E-01
 -1      1802 8.31773E-01
 -1      1803 1.14115E+00
 -1      1804 1.04367E+00
 -1      1805 9.48800E-01
 -1      1806 1.30002E+00
 -1      1807 1.19008E+00
 -1      1808 1.05525E+00
 -1      1809 1.52823E+00
 -1      1810 1.35636E+00
 -1      1811 1.16052E+00
 -1      1812 1.94880E+00
 -1      1813 1.61208E+00
 -1      1814 1.30072E+00
 -1      1815 2.71621E+00
 -1      1816 2.01803E+00
 -1      1817 1.45380E+00
 -1      1818 7.62915E+00
 -1      1819 2.88451E+00
 -1      1820 1.69133E+00
 -1      1821 2.43471E+00
 -1      1822 4.63319E+00
 -1      1823 1.71543E+00
 -1      1824 2.28906E+00
 -1      1825 1.71397E+00
 -1      1826 3.08219E+00
 -1      1827 1.90915E+00
 -1      1828 1.49264E+00
 -1      1829 1.53565E+00
 -1      1830 1.72028E+00
 -1      1831 1.68925E+00
 -1      1832 1.88946E+00
 -1      1833 2.05501E+00
 -1      1834 1.90145E+00
 -1      1835 2.18000E+00
 -1      1836 2.49725E+00
 -1      1837 2.19562E+00
 -1      1838 2.77222E+00
 -1      1839 3.00973E+00
 -1      1840 2.59558E+00
 -1      1841 3.31274E+00
 -1      1842 3.21199E+00
 -1      1843 3.17356E+00
 -1      1844 3.35954E+00
 -1      1845 3.12691E+00
 -1      1846 3.62412E+00
 -1      1847 3.21781E+00
 -1      1848 4.44676E+00
 -1      1849 3.86258E+00
 -1      1850 4.88588E+00
 -1      1851 6.85087E+00
 -1      1852 4.39260E+00
 -1      1853 7.40274E+00
 -1      1854 7.60081E+00
 -1      1855 5.38359E+00
 -1      1856 7.60081E+00
 -1      1857 7.36033E+00
 -1      1858 5.93546E+00
 -1      1859 6.74167E+00
 -1      1860 4.76969E+00
 -1      1861 5.31679E+00
 -1      1862 4.36179E+00
 -1      1863 3.29264E+00
 -1      1864 4.29023E+00
 -1      1865 3.31141E+00
 -1      1866 3.53953E+00
 -1      1867 3.90111E+00
 -1      1868 3.38668E+00
 -1      1869 3.47563E+00
 -1      1870 3.76704E+00
 -1      1871 3.17405E+00
 -1      1872 2.98866E+00
 -1      1873 3.31261E+00
 -1      1874 2.73777E+00
 -1      1875 2.46995E+00
 -1      1876 2.76013E+00
 -1      1877 2.36832E+00
 -1      1878 2.20699E+00
 -1      1879 2.40761E+00
 -1      1880 2.03223E+00
 -1      1881 1.84752E+00
 -1      1882 2.13122E+00
 -1      1883 1.65186E+00
 -1      1884 1.45683E+00
 -1      1885 1.76079E+00
 -1      1886 1.27489E+00
 -1      1887 1.10131E+00
 -1      1888 1.38318E+00
 -1      1889 9.48151E-01
 -1      1890 8.07343E-01
 -1      1891 1.04808E+00
 -1      1892 6.85822E-01
 -1      1893 5.77887E-01
 -1      1894 7.73403E-01
 -1      1895 4.85010E-01
 -1      1896 4.05268E-01
 -1      1897 5.59006E-01
 -1      1898 3.36036E-01
 -1      1899 2.92121E-01
 -1      1900 3.96897E-01
 -1      1901 2.41424E-01
 -1      1902 2.07537E-01
 -1      1903 2.76968E-01
 -1      1904 1.70931E-01
 -1      1905 1.45136E-01
 -1      1906 1.89665E-01
 -1      1907 1.19035E-01
 -1      1908 9.96131E-02
 -1      1909 1.26959E-01
 -1      1910 8.38826E-02
 -1      1911 7.35057E-02
 -1      1912 8.51276E-02
 -1      1913 6.38940E-02
 -1      1914 5.56529E-02
 -1      1915 5.97853E-02
 -1      1916 4.92042E-02
 -1      1917 4.24075E-02
 -1      1918 4.37250E-02
 -1      1919 3.90143E-02
 -1      1920 3.34841E-02
 -1      1921 3.38830E-02
 -1      1922 3.04924E-02
 -1      1923 2.60490E-02
 -1      1924 2.74981E-02
 -1      1925 2.34811E-02
 -1      1926 2.03892E-02
 -1      1927 2.19385E-02
 -1      1928 1.82316E-02
 -1      1929 1.57517E-02
 -1      1930 1.72130E-02
 -1      1931 1.40763E-02
 -1      1932 1.25317E-02
 -1      1933 1.33799E-02
 -1      1934 1.14739E-02
 -1      1935 1.01392E-02
 -1      1936 1.06467E-02
 -1      1937 9.33862E-03
 -1      1938 8.19555E-03
 -1      1939 8.78835E-03
 -1      1940 7.44638E-03
 -1      1941 6.59511E-03
 -1      1942 7.23861E-03
 -1      1943 5.94397E-03
 -1      1944 5.19816E-03
 -1      1945 5.83831E-03
 -1      1946 4.66112E-03
 -1      1947 4.10753E-03
 -1      1948 4.65012E-03
 -1      1949 3.63001E-03
 -1      1950 3.14282E-03
 -1      1951 3.63555E-03
 -1      1952 2.77456E-03
 -1      1953 2.36806E-03
 -1      1954 2.78977E-03
 -1      1955 2.05253E-03
 -1      1956 1.85214E-03
 -1      1957 2.10599E-03
 -1      1958 1.61760E-03
 -1      1959 1.36413E-03
 -1      1960 1.55592E-03
 -1      1961 1.18351E-03
 -1      1962 1.04266E-03
 -1      1963 1.14077E-03
 -1      1964 9.72526E-04
 -1      1965 6.96886E-01
 -1      1966 8.75431E-01
 -1      1967 6.44378E-01
 -1      1968 6.43326E-01
 -1      1969 6.43326E-01
 -1      1970 8.35443E-01
 -1      1971 7.25016E-01
 -1      1972 6.70404E-01
 -1      1973 1.09769E+00
 -1      1974 9.60007E-01
 -1      1975 8.75606E-01
 -1      1976 1.39632E+00
 -1      1977 1.23684E+00
 -1      1978 1.13932E+00
 -1      1979 1.66400E+00
 -1      1980 1.51416E+00
 -1      1981 1.39632E+00
 -1      1982 1.87364E+00
 -1      1983 1.81383E+00
 -1      1984 1.66400E+00
 -1      1985 2.04446E+00
 -1      1986 1.93345E+00
 -1      1987 1.87364E+00
 -1      1988 2.08294E+00
 -1      1989 2.00789E+00
 -1      1990 1.89689E+00
 -1      1991 2.24644E+00
 -1      1992 2.12401E+00
 -1      1993 1.90139E+00
 -1      1994 2.08320E+00
 -1      1995 2.17458E+00
 -1      1996 1.87060E+00
 -1      1997 1.65882E+00
 -1      1998 1.91144E+00
 -1      1999 1.62699E+00
 -1      2000 1.21394E+00
 -1      2001 1.49957E+00
 -1      2002 1.29599E+00
 -1      2003 8.02569E-01
 -1      2004 1.03421E+00
 -1      2005 9.57029E-01
 -1      2006 5.25131E-01
 -1      2007 6.60220E-01
 -1      2008 6.34958E-01
 -1      2009 3.40552E-01
 -1      2010 4.14840E-01
 -1      2011 3.82318E-01
 -1      2012 3.37166E-01
 -1      2013 3.45371E-01
 -1      2014 2.76846E-01
 -1      2015 3.77123E-01
 -1      2016 3.55741E-01
 -1      2017 3.00240E-01
 -1      2018 3.79513E-01
 -1      2019 3.81632E-01
 -1      2020 3.23324E-01
 -1      2021 3.42180E-01
 -1      2022 3.65434E-01
 -1      2023 3.13754E-01
 -1      2024 2.88857E-01
 -1      2025 3.21852E-01
 -1      2026 2.79348E-01
 -1      2027 2.44248E-01
 -1      2028 2.71596E-01
 -1      2029 2.41759E-01
 -1      2030 2.03965E-01
 -1      2031 2.28783E-01
 -1      2032 2.09032E-01
 -1      2033 1.61840E-01
 -1      2034 1.86174E-01
 -1      2035 1.75776E-01
 -1      2036 1.24497E-01
 -1      2037 1.44305E-01
 -1      2038 1.40450E-01
 -1      2039 9.53081E-02
 -1      2040 1.09373E-01
 -1      2041 1.07791E-01
 -1      2042 7.23080E-02
 -1      2043 8.45748E-02
 -1      2044 8.19331E-02
 -1      2045 5.29921E-02
 -1      2046 6.31686E-02
 -1      2047 6.20604E-02
 -1      2048 3.81935E-02
 -1      2049 4.57250E-02
 -1      2050 4.56540E-02
 -1      2051 3.06935E-02
 -1      2052 3.43468E-02
 -1      2053 3.45402E-02
 -1      2054 2.57353E-02
 -1      2055 2.82144E-02
 -1      2056 2.82144E-02
 -1      2057 2.10172E-02
 -1      2058 2.33762E-02
 -1      2059 2.33762E-02
 -1      2060 1.67595E-02
 -1      2061 1.88883E-02
 -1      2062 1.88883E-02
 -1      2063 1.30866E-02
 -1      2064 1.49106E-02
 -1      2065 1.49106E-02
 -1      2066 1.09147E-02
 -1      2067 1.16682E-02
 -1      2068 1.16434E-02
 -1      2069 9.33906E-03
 -1      2070 1.01699E-02
 -1      2071 9.48024E-03
 -1      2072 7.76988E-03
 -1      2073 8.59469E-03
 -1      2074 7.99111E-03
 -1      2075 6.29760E-03
 -1      2076 7.06912E-03
 -1      2077 6.54597E-03
 -1      2078 5.01126E-03
 -1      2079 5.70149E-03
 -1      2080 5.24910E-03
 -1      2081 3.95498E-03
 -1      2082 4.50671E-03
 -1      2083 4.14843E-03
 -1      2084 3.02886E-03
 -1      2085 3.53167E-03
 -1      2086 3.22057E-03
 -1      2087 2.26449E-03
 -1      2088 2.69119E-03
 -1      2089 2.45960E-03
 -1      2090 1.71550E-03
 -1      2091 1.98644E-03
 -1      2092 1.84388E-03
 -1      2093 1.28288E-03
 -1      2094 1.53635E-03
 -1      2095 1.38669E-03
 -1      2096 9.05794E-04
 -1      2097 1.19293E-03
 -1      2098 1.11758E-03
 -1      2099 8.43560E-04
 -1      2100 3.55174E-04
 -1      2101 4.02620E-04
 -1      2102 7.51946E-04
 -1      2103 8.99951E-04
 -1      2104 7.91083E-04
 -1      2105 8.43560E-04
 -1      2106 4.88344E-04
 -1      2107 4.12730E-04
 -1      2108 4.99314E-04
 -1      2109 6.01811E-04
 -1      2110 5.55178E-04
 -1      2111 6.23704E-04
 -1      2112 6.49605E-04
 -1      2113 6.30993E-04
 -1      2114 7.19720E-04
 -1      2115 6.49758E-04
 -1      2116 6.49605E-04
 -1      2117 7.48903E-04
 -1      2118 6.49815E-04
 -1      2119 6.49815E-04
 -1      2120 7.48960E-04
 -1      2121 6.31407E-04
 -1      2122 6.49815E-04
 -1      2123 7.49018E-04
 -1      2124 5.61352E-04
 -1      2125 6.05667E-04
 -1      2126 7.23278E-04
 -1      2127 4.22885E-04
 -1      2128 4.97212E-04
 -1      2129 6.33398E-04
 -1      2130 3.99918E-04
 -1      2131 3.54784E-04
 -1      2132 5.01157E-04
 -1      2133 7.38050E-04
 -1      2134 5.11497E-04
 -1      2135 5.44635E-04
 -1      2136 9.83186E-01
 -1      2137 1.38746E+00
 -1      2138 1.24036E+00
 -1      2139 8.04641E-01
 -1      2140 3.70177E+01
 -1      2141 2.74243E+01
 -1      2142 1.03360E+01
 -1      2143 1.50658E+01
 -1      2144 3.19059E+01
 -1      2145 3.19059E+01
 -1      2146 1.84110E+01
 -1      2147 3.13878E+01
 -1      2148 2.01072E+00
 -1      2149 2.22392E+00
 -1      2150 2.25615E+00
 -1      2151 1.92856E+00
 -1      2152 9.58632E+00
 -1      2153 9.07906E+00
 -1      2154 1.08280E+01
 -1      2155 1.09660E+01
 -1      2156 1.10910E+01
 -1      2157 1.11463E+01
 -1      2158 1.00380E+01
 -1      2159 1.19748E+01
 -1      2160 1.15706E+01
 -1      2161 1.04692E+01
 -1      2162 1.08922E+01
 -1      2163 8.79447E+00
 -1      2164 9.39420E+00
 -1      2165 1.42525E+01
 -1      2166 9.76355E+00
 -1      2167 3.07002E+01
 -1      2168 1.76465E+01
 -1      2169 2.73230E+01
 -1      2170 3.64985E+01
 -1      2171 2.80223E+01
 -1      2172 2.62536E+01
 -1      2173 3.51868E+01
 -1      2174 3.51868E+01
 -1      2175 3.69893E+01
 -1      2176 3.51868E+01
 -1      2177 3.44655E+01
 -1      2178 3.44655E+01
 -1      2179 2.60050E+01
 -1      2180 2.76871E+01
 -1      2181 1.30798E+01
 -1      2182 2.16223E+01
 -1      2183 9.79270E+00
 -1      2184 1.07395E+01
 -1      2185 1.10498E+01
 -1      2186 1.08677E+01
 -1      2187 1.12850E+01
 -1      2188 1.15184E+01
 -1      2189 1.21083E+01
 -1      2190 1.14979E+01
 -1      2191 1.07166E+01
 -1      2192 1.12843E+01
 -1      2193 9.96057E+00
 -1      2194 9.67912E+00
 -1      2195 8.29024E+00
 -1      2196 1.97643E+01
 -1      2197 1.20730E+01
 -1      2198 2.63446E+01
 -1      2199 2.39237E+01
 -1      2200 3.28927E+01
 -1      2201 3.28927E+01
 -1      2202 2.87547E+01
 -1      2203 2.92481E+01
 -1      2204 2.85308E+01
 -1      2205 3.07716E+01
 -1      2206 3.07716E+01
 -1      2207 8.90017E-04
 -1      2208 1.28195E+01
 -1      2209 2.47716E+00
 -1      2210 2.17945E+01
 -1      2211 8.21740E+00
 -1      2212 2.21424E+00
 -1      2213 1.08402E-03
 -1      2214 8.90017E-04
 -1      2215 2.85308E+01
 -1      2216 2.87547E+01
 -1      2217 2.92481E+01
 -1      2218 2.63446E+01
 -1      2219 9.36514E+00
 -1      2220 1.01518E+01
 -1      2221 1.07630E+01
 -1      2222 1.00815E+01
 -1      2223 8.53795E+00
 -1      2224 9.80324E+00
 -1      2225 1.65261E+01
 -1      2226 2.76871E+01
 -1      2227 3.69893E+01
 -1      2228 3.95131E+01
 -1      2229 3.23487E+01
 -1      2230 2.62536E+01
 -1      2231 2.15247E+01
 -1      2232 1.23323E+01
 -1      2233 7.96913E+00
 -1      2234 8.07507E+00
 -1      2235 1.08357E+01
 -1      2236 8.34011E+00
 -1      2237 1.02327E+01
 -1      2238 1.56370E+01
 -1      2239 8.08182E-04
 -1      2240 7.07495E-01
 -1      2241 9.29991E-01
 -1      2242 1.07983E+00
 -1      2243 1.30471E+00
 -1      2244 1.07380E+00
 -1      2245 8.16658E-01
 -1      2246 7.46002E-01
 -1      2247 8.76153E-01
 -1      2248 8.16658E-01
 -1      2249 8.61038E-01
 -1      2250 9.50817E-01
 -1      2251 8.93286E-01
 -1      2252 8.78171E-01
 -1      2253 9.99740E-01
 -1      2254 9.50817E-01
 -1      2255 8.95303E-01
 -1      2256 1.04397E+00
 -1      2257 9.87628E-01
 -1      2258 8.83191E-01
 -1      2259 1.10281E+00
 -1      2260 1.01896E+00
 -1      2261 8.46064E-01
 -1      2262 1.16385E+00
 -1      2263 1.09462E+00
 -1      2264 8.12859E-01
 -1      2265 1.46609E+00
 -1      2266 1.29780E+00
 -1      2267 9.38615E-01
 -1      2268 1.32044E+00
 -1      2269 1.69157E+00
 -1      2270 1.73458E+00
 -1      2271 1.42579E+01
 -1      2272 1.98878E+01
 -1      2273 8.54325E+00
 -1      2274 1.18884E+01
 -1      2275 9.98170E+00
 -1      2276 1.92719E+00
 -1      2277 2.09638E+00
 -1      2278 1.92951E+00
 -1      2279 2.36801E+00
 -1      2280 2.49300E+00
 -1      2281 2.39375E+00
 -1      2282 2.81377E+00
 -1      2283 3.08874E+00
 -1      2284 2.98616E+00
 -1      2285 3.50154E+00
 -1      2286 3.80455E+00
 -1      2287 3.71973E+00
 -1      2288 4.58761E+00
 -1      2289 4.73516E+00
 -1      2290 4.91559E+00
 -1      2291 6.15813E+00
 -1      2292 6.24903E+00
 -1      2293 7.12162E+00
 -1      2294 4.48386E+00
 -1      2295 4.92297E+00
 -1      2296 6.17124E+00
 -1      2297 6.72311E+00
 -1      2298 4.77388E+00
 -1      2299 4.36598E+00
 -1      2300 4.42270E+00
 -1      2301 4.44147E+00
 -1      2302 5.04872E+00
 -1      2303 4.89588E+00
 -1      2304 5.57032E+00
 -1      2305 3.88099E+00
 -1      2306 3.57941E+00
 -1      2307 5.16268E+00
 -1      2308 3.19485E+00
 -1      2309 2.94396E+00
 -1      2310 3.76323E+00
 -1      2311 2.62204E+00
 -1      2312 2.52041E+00
 -1      2313 3.05676E+00
 -1      2314 2.22884E+00
 -1      2315 2.05407E+00
 -1      2316 2.44327E+00
 -1      2317 1.80901E+00
 -1      2318 1.61335E+00
 -1      2319 1.90663E+00
 -1      2320 1.41481E+00
 -1      2321 1.23287E+00
 -1      2322 1.46303E+00
 -1      2323 1.07581E+00
 -1      2324 9.22657E-01
 -1      2325 1.10744E+00
 -1      2326 8.00542E-01
 -1      2327 6.79021E-01
 -1      2328 8.28274E-01
 -1      2329 5.85399E-01
 -1      2330 4.92523E-01
 -1      2331 6.12537E-01
 -1      2332 4.21587E-01
 -1      2333 3.52354E-01
 -1      2334 4.47980E-01
 -1      2335 2.99156E-01
 -1      2336 2.48459E-01
 -1      2337 3.23845E-01
 -1      2338 2.08937E-01
 -1      2339 1.72332E-01
 -1      2340 2.31125E-01
 -1      2341 1.43241E-01
 -1      2342 1.17140E-01
 -1      2343 1.62513E-01
 -1      2344 9.59349E-02
 -1      2345 8.02043E-02
 -1      2346 1.12217E-01
 -1      2347 6.49144E-02
 -1      2348 5.53027E-02
 -1      2349 7.57216E-02
 -1      2350 4.44187E-02
 -1      2351 3.79700E-02
 -1      2352 4.95478E-02
 -1      2353 3.11123E-02
 -1      2354 2.77190E-02
 -1      2355 3.18061E-02
 -1      2356 2.39830E-02
 -1      2357 2.09914E-02
 -1      2358 2.12124E-02
 -1      2359 1.98982E-02
 -1      2360 1.73303E-02
 -1      2361 1.63832E-02
 -1      2362 1.61766E-02
 -1      2363 1.40189E-02
 -1      2364 1.41363E-02
 -1      2365 1.29020E-02
 -1      2366 1.12265E-02
 -1      2367 1.18655E-02
 -1      2368 1.02003E-02
 -1      2369 9.14254E-03
 -1      2370 9.72235E-03
 -1      2371 8.23251E-03
 -1      2372 7.43193E-03
 -1      2373 7.78611E-03
 -1      2374 6.90420E-03
 -1      2375 6.15504E-03
 -1      2376 6.34836E-03
 -1      2377 5.68451E-03
 -1      2378 5.03337E-03
 -1      2379 5.35010E-03
 -1      2380 4.57095E-03
 -1      2381 4.03391E-03
 -1      2382 4.41716E-03
 -1      2383 3.62387E-03
 -1      2384 3.14635E-03
 -1      2385 3.54471E-03
 -1      2386 2.79533E-03
 -1      2387 2.42707E-03
 -1      2388 2.78365E-03
 -1      2389 2.11290E-03
 -1      2390 1.79737E-03
 -1      2391 2.11845E-03
 -1      2392 1.53869E-03
 -1      2393 1.30416E-03
 -1      2394 1.54561E-03
 -1      2395 1.15669E-03
 -1      2396 9.76074E-04
 -1      2397 8.24107E-04
 -1      2398 1.13946E-03
 -1      2399 9.08145E-01
 -1      2400 7.83581E-01
 -1      2401 6.76849E-01
 -1      2402 5.96211E-01
 -1      2403 7.09388E-01
 -1      2404 5.43554E-01
 -1      2405 5.97114E-01
 -1      2406 5.49999E-01
 -1      2407 1.17651E+00
 -1      2408 1.03736E+00
 -1      2409 9.45334E-01
 -1      2410 1.39663E+00
 -1      2411 1.27878E+00
 -1      2412 1.17682E+00
 -1      2413 1.59969E+00
 -1      2414 1.44986E+00
 -1      2415 1.33232E+00
 -1      2416 1.69693E+00
 -1      2417 1.63712E+00
 -1      2418 1.42297E+00
 -1      2419 1.62773E+00
 -1      2420 1.66429E+00
 -1      2421 1.42777E+00
 -1      2422 1.67082E+00
 -1      2423 1.62975E+00
 -1      2424 1.39715E+00
 -1      2425 1.61463E+00
 -1      2426 1.68649E+00
 -1      2427 1.41485E+00
 -1      2428 1.38657E+00
 -1      2429 1.55833E+00
 -1      2430 1.37421E+00
 -1      2431 1.15568E+00
 -1      2432 1.31492E+00
 -1      2433 1.24626E+00
 -1      2434 8.51149E-01
 -1      2435 1.03087E+00
 -1      2436 1.04980E+00
 -1      2437 5.83656E-01
 -1      2438 7.26005E-01
 -1      2439 7.99848E-01
 -1      2440 3.60189E-01
 -1      2441 4.70480E-01
 -1      2442 5.61528E-01
 -1      2443 3.22924E-01
 -1      2444 3.18105E-01
 -1      2445 4.06268E-01
 -1      2446 3.10562E-01
 -1      2447 2.91987E-01
 -1      2448 3.33246E-01
 -1      2449 3.03806E-01
 -1      2450 2.99298E-01
 -1      2451 2.91044E-01
 -1      2452 2.90073E-01
 -1      2453 3.04151E-01
 -1      2454 2.80125E-01
 -1      2455 2.60763E-01
 -1      2456 2.81091E-01
 -1      2457 2.71488E-01
 -1      2458 2.31950E-01
 -1      2459 2.49211E-01
 -1      2460 2.50954E-01
 -1      2461 2.01450E-01
 -1      2462 2.16916E-01
 -1      2463 2.24368E-01
 -1      2464 1.67794E-01
 -1      2465 1.85585E-01
 -1      2466 1.93469E-01
 -1      2467 1.33490E-01
 -1      2468 1.51025E-01
 -1      2469 1.60834E-01
 -1      2470 1.02486E-01
 -1      2471 1.17610E-01
 -1      2472 1.28185E-01
 -1      2473 7.77487E-02
 -1      2474 8.84820E-02
 -1      2475 9.83015E-02
 -1      2476 5.68906E-02
 -1      2477 6.60300E-02
 -1      2478 7.25788E-02
 -1      2479 4.02249E-02
 -1      2480 4.74919E-02
 -1      2481 5.14615E-02
 -1      2482 2.93887E-02
 -1      2483 3.32354E-02
 -1      2484 3.50733E-02
 -1      2485 2.28200E-02
 -1      2486 2.52991E-02
 -1      2487 2.39943E-02
 -1      2488 1.80921E-02
 -1      2489 2.04511E-02
 -1      2490 1.75358E-02
 -1      2491 1.50449E-02
 -1      2492 1.71738E-02
 -1      2493 1.42486E-02
 -1      2494 1.22023E-02
 -1      2495 1.40511E-02
 -1      2496 1.23366E-02
 -1      2497 9.80413E-03
 -1      2498 1.12225E-02
 -1      2499 1.03630E-02
 -1      2500 8.14775E-03
 -1      2501 8.89251E-03
 -1      2502 8.47165E-03
 -1      2503 6.72502E-03
 -1      2504 7.46939E-03
 -1      2505 6.88167E-03
 -1      2506 5.59151E-03
 -1      2507 6.29226E-03
 -1      2508 5.77055E-03
 -1      2509 4.54064E-03
 -1      2510 5.13675E-03
 -1      2511 4.88304E-03
 -1      2512 3.59221E-03
 -1      2513 4.09676E-03
 -1      2514 3.98441E-03
 -1      2515 2.80420E-03
 -1      2516 3.22751E-03
 -1      2517 3.17583E-03
 -1      2518 2.13082E-03
 -1      2519 2.46848E-03
 -1      2520 2.47542E-03
 -1      2521 1.56821E-03
 -1      2522 1.84626E-03
 -1      2523 1.85514E-03
 -1      2524 1.19022E-03
 -1      2525 1.36937E-03
 -1      2526 1.37174E-03
 -1      2527 1.17397E-03
 -1      2528 7.77789E-04
 -1      2529 7.10955E-04
 -1      2530 6.23945E-04
 -1      2531 5.66389E-04
 -1      2532 7.78030E-04
 -1      2533 6.39892E-04
 -1      2534 9.89218E-04
 -1      2535 7.64523E-04
 -1      2536 2.39795E+01
 -1      2537 2.50860E+01
 -1      2538 8.44555E-04
 -1      2539 8.15373E-04
 -1      2540 9.02624E-04
 -1      2541 8.44555E-04
 -1      2542 8.44555E-04
 -1      2543 9.40207E-04
 -1      2544 8.42557E-04
 -1      2545 8.42500E-04
 -1      2546 9.38152E-04
 -1      2547 8.46916E-04
 -1      2548 8.46916E-04
 -1      2549 9.40455E-04
 -1      2550 8.21176E-04
 -1      2551 8.46916E-04
 -1      2552 9.44813E-04
 -1      2553 7.23210E-04
 -1      2554 7.87350E-04
 -1      2555 9.10987E-04
 -1      2556 5.60030E-04
 -1      2557 6.28131E-04
 -1      2558 7.82083E-04
 -1      2559 6.20023E-04
 -1      2560 5.08444E-04
 -1      2561 6.35419E-04
 -1      2562 7.87916E-04
 -1      2563 2.71332E+00
 -1      2564 2.14531E+00
 -1      2565 2.19064E+00
 -1      2566 2.34267E+00
 -1      2567 6.31222E+00
 -1      2568 7.56915E+00
 -1      2569 2.87547E+01
 -1      2570 2.56035E+01
 -1      2571 2.36586E+01
 -1      2572 2.73032E+01
 -1      2573 8.33793E+00
 -1      2574 9.16198E+00
 -1      2575 6.59307E-01
 -1      2576 5.89338E-01
 -1      2577 8.05803E-01
 -1      2578 7.74342E-01
 -1      2579 7.42487E+00
 -1      2580 6.04523E+00
 -1      2581 7.88027E+00
 -1      2582 8.96286E+00
 -1      2583 8.96438E+00
 -1      2584 8.64615E+00
 -1      2585 1.45758E+01
 -1      2586 1.04163E+01
 -1      2587 1.00063E+01
 -1      2588 9.52677E+00
 -1      2589 8.13495E+00
 -1      2590 5.98214E+00
 -1      2591 7.05716E+00
 -1      2592 7.22234E+00
 -1      2593 6.25326E+00
 -1      2594 5.23535E+00
 -1      2595 1.16839E+01
 -1      2596 8.28985E+00
 -1      2597 2.03528E+01
 -1      2598 1.45544E+01
 -1      2599 2.24577E+01
 -1      2600 2.35271E+01
 -1      2601 3.23487E+01
 -1      2602 2.51843E+01
 -1      2603 2.24577E+01
 -1      2604 3.95131E+01
 -1      2605 3.95131E+01
 -1      2606 2.93076E+01
 -1      2607 3.18314E+01
 -1      2608 1.79489E+01
 -1      2609 2.47272E+01
 -1      2610 1.07272E+01
 -1      2611 1.51098E+01
 -1      2612 1.21499E+01
 -1      2613 7.39728E+00
 -1      2614 9.73752E+00
 -1      2615 8.32120E+00
 -1      2616 9.03041E+00
 -1      2617 8.56184E+00
 -1      2618 9.87311E+00
 -1      2619 9.66021E+00
 -1      2620 8.69862E+00
 -1      2621 6.58621E+00
 -1      2622 2.36093E+01
 -1      2623 1.70611E+01
 -1      2624 1.80198E+01
 -1      2625 2.96372E+01
 -1      2626 3.07716E+01
 -1      2627 1.15665E-03
 -1      2628 1.93402E+00
 -1      2629 2.01508E+00
 -1      2630 2.55787E+00
 -1      2631 5.39698E+00
 -1      2632 1.09304E+00
 -1      2633 8.45164E-01
 -1      2634 7.65081E-01
 -1      2635 6.26250E+00
 -1      2636 1.15635E+01
 -1      2637 1.91001E+01
 -1      2638 1.56553E+01
 -1      2639 6.77941E+00
 -1      2640 8.14056E+00
 -1      2641 7.35291E+00
 -1      2642 4.90635E+00
 -1      2643 7.35291E+00
 -1      2644 6.64178E+00
 -1      2645 6.02312E+00
 -1      2646 2.50860E+01
 -1      2647 6.35127E+00
 -1      2648 2.55787E+00
 -1      2649 2.05019E+01
 -1      2650 1.85570E+01
 -1      2651 2.05019E+01
 -1      2652 5.44756E-01
 -1      2653 6.52511E-01
 -1      2654 5.05196E-01
 -1      2655 4.44984E-01
 -1      2656 2.76204E+01
 -1      2657 1.00546E-03
 -1      2658 8.05924E+00
 -1      2659 7.63739E+00
 -1      2660 1.95694E+01
 -1      2661 3.23487E+01
 -1      2662 1.65568E+01
 -1      2663 6.57398E+00
 -1      2664 8.96286E+00
 -1      2665 7.65390E+00
 -1      2666 6.61046E+00
 -1      2667 1.18405E+01
 -1      2668 5.78734E+00
 -1      2669 6.09887E+00
 -1      2670 6.63807E+00
 -1      2671 1.05120E+01
 -1      2672 3.18314E+01
 -1      2673 6.23861E+00
 -1      2674 6.17289E+00
 -1      2675 7.31357E+00
 -1      2676 6.05118E+00
 -1      2677 7.08869E+00
 -1      2678 9.67695E-01
 -1      2679 9.50562E-01
 -1      2680 9.72889E-01
 -1      2681 9.72889E-01
 -1      2682 1.06241E+00
 -1      2683 9.00744E-01
 -1      2684 9.12856E-01
 -1      2685 7.91462E-01
 -1      2686 8.16476E-01
 -1      2687 8.46142E-01
 -1      2688 9.17218E-01
 -1      2689 7.83272E-01
 -1      2690 6.89820E-01
 -1      2691 4.28085E+00
 -1      2692 4.54784E+00
 -1      2693 8.28333E+00
 -1      2694 1.06529E+01
 -1      2695 1.95047E+00
 -1      2696 2.14309E+00
 -1      2697 2.39111E+00
 -1      2698 2.66274E+00
 -1      2699 2.41208E+00
 -1      2700 3.16845E+00
 -1      2701 3.48922E+00
 -1      2702 3.16581E+00
 -1      2703 4.19115E+00
 -1      2704 4.60395E+00
 -1      2705 4.37345E+00
 -1      2706 5.03835E+00
 -1      2707 5.82142E+00
 -1      2708 5.50978E+00
 -1      2709 1.71235E+01
 -1      2710 2.16747E+01
 -1      2711 2.04751E+01
 -1      2712 1.84583E+01
 -1      2713 1.25126E+01
 -1      2714 7.24666E+00
 -1      2715 6.23177E+00
 -1      2716 5.22849E+00
 -1      2717 4.84393E+00
 -1      2718 7.31248E+00
 -1      2719 3.57425E+00
 -1      2720 3.25234E+00
 -1      2721 5.03951E+00
 -1      2722 2.69465E+00
 -1      2723 2.40307E+00
 -1      2724 3.21214E+00
 -1      2725 2.07761E+00
 -1      2726 1.83255E+00
 -1      2727 2.32899E+00
 -1      2728 1.56606E+00
 -1      2729 1.36752E+00
 -1      2730 1.73704E+00
 -1      2731 1.16314E+00
 -1      2732 1.00608E+00
 -1      2733 1.26616E+00
 -1      2734 8.57351E-01
 -1      2735 7.35236E-01
 -1      2736 9.13044E-01
 -1      2737 6.24548E-01
 -1      2738 5.30926E-01
 -1      2739 6.53625E-01
 -1      2740 4.52187E-01
 -1      2741 3.81251E-01
 -1      2742 4.64198E-01
 -1      2743 3.28214E-01
 -1      2744 2.75015E-01
 -1      2745 3.32421E-01
 -1      2746 2.37757E-01
 -1      2747 1.98236E-01
 -1      2748 2.42126E-01
 -1      2749 1.69931E-01
 -1      2750 1.40840E-01
 -1      2751 1.76563E-01
 -1      2752 1.19508E-01
 -1      2753 9.83028E-02
 -1      2754 1.26926E-01
 -1      2755 8.23854E-02
 -1      2756 6.70955E-02
 -1      2757 8.96767E-02
 -1      2758 5.53557E-02
 -1      2759 4.44718E-02
 -1      2760 6.20195E-02
 -1      2761 3.59298E-02
 -1      2762 2.90721E-02
 -1      2763 4.17377E-02
 -1      2764 2.29557E-02
 -1      2765 1.92196E-02
 -1      2766 2.70793E-02
 -1      2767 1.49244E-02
 -1      2768 1.38312E-02
 -1      2769 1.66677E-02
 -1      2770 1.19216E-02
 -1      2771 1.07679E-02
 -1      2772 1.04628E-02
 -1      2773 1.05486E-02
 -1      2774 9.43165E-03
 -1      2775 8.33399E-03
 -1      2776 9.02572E-03
 -1      2777 7.99951E-03
 -1      2778 7.70881E-03
 -1      2779 7.50712E-03
 -1      2780 6.59709E-03
 -1      2781 6.81049E-03
 -1      2782 6.08220E-03
 -1      2783 5.55447E-03
 -1      2784 5.80321E-03
 -1      2785 5.07938E-03
 -1      2786 4.60886E-03
 -1      2787 4.81323E-03
 -1      2788 4.28146E-03
 -1      2789 3.81904E-03
 -1      2790 4.01074E-03
 -1      2791 3.48131E-03
 -1      2792 3.07127E-03
 -1      2793 3.34560E-03
 -1      2794 2.74677E-03
 -1      2795 2.39575E-03
 -1      2796 2.68337E-03
 -1      2797 2.09791E-03
 -1      2798 1.78374E-03
 -1      2799 2.06103E-03
 -1      2800 1.54611E-03
 -1      2801 1.28743E-03
 -1      2802 1.52556E-03
 -1      2803 1.12334E-03
 -1      2804 9.75881E-04
 -1      2805 7.71797E-04
 -1      2806 1.12385E-03
 -1      2807 7.89390E-01
 -1      2808 6.82658E-01
 -1      2809 1.01371E+00
 -1      2810 8.84499E-01
 -1      2811 8.57769E-01
 -1      2812 5.95410E-01
 -1      2813 5.42753E-01
 -1      2814 6.75412E-01
 -1      2815 1.34405E+00
 -1      2816 1.29082E+00
 -1      2817 1.50928E+00
 -1      2818 1.47186E+00
 -1      2819 1.43035E+00
 -1      2820 1.49205E+00
 -1      2821 1.52468E+00
 -1      2822 1.57356E+00
 -1      2823 1.40432E+00
 -1      2824 1.40229E+00
 -1      2825 1.49921E+00
 -1      2826 1.50511E+00
 -1      2827 1.48944E+00
 -1      2828 1.49458E+00
 -1      2829 1.37698E+00
 -1      2830 1.43329E+00
 -1      2831 1.50788E+00
 -1      2832 1.19536E+00
 -1      2833 1.26701E+00
 -1      2834 1.32609E+00
 -1      2835 1.01336E+00
 -1      2836 1.13817E+00
 -1      2837 1.15892E+00
 -1      2838 7.99884E-01
 -1      2839 9.25027E-01
 -1      2840 1.01340E+00
 -1      2841 5.61955E-01
 -1      2842 6.75132E-01
 -1      2843 8.00311E-01
 -1      2844 4.76227E-01
 -1      2845 5.18311E-01
 -1      2846 6.31915E-01
 -1      2847 3.81280E-01
 -1      2848 4.12217E-01
 -1      2849 5.24261E-01
 -1      2850 3.24053E-01
 -1      2851 3.35318E-01
 -1      2852 4.14289E-01
 -1      2853 3.12437E-01
 -1      2854 3.12092E-01
 -1      2855 3.56365E-01
 -1      2856 2.83669E-01
 -1      2857 2.92651E-01
 -1      2858 3.24618E-01
 -1      2859 2.51130E-01
 -1      2860 2.62682E-01
 -1      2861 2.83845E-01
 -1      2862 2.19865E-01
 -1      2863 2.34899E-01
 -1      2864 2.46627E-01
 -1      2865 1.86109E-01
 -1      2866 2.01974E-01
 -1      2867 2.12505E-01
 -1      2868 1.51666E-01
 -1      2869 1.68435E-01
 -1      2870 1.76941E-01
 -1      2871 1.19209E-01
 -1      2872 1.35089E-01
 -1      2873 1.42690E-01
 -1      2874 9.05775E-02
 -1      2875 1.04581E-01
 -1      2876 1.11485E-01
 -1      2877 6.65217E-02
 -1      2878 7.82405E-02
 -1      2879 8.45204E-02
 -1      2880 4.70896E-02
 -1      2881 5.64882E-02
 -1      2882 6.21498E-02
 -1      2883 3.21926E-02
 -1      2884 3.91821E-02
 -1      2885 4.42088E-02
 -1      2886 2.20500E-02
 -1      2887 2.61396E-02
 -1      2888 3.02484E-02
 -1      2889 1.51791E-02
 -1      2890 1.75481E-02
 -1      2891 1.96933E-02
 -1      2892 1.14651E-02
 -1      2893 1.23834E-02
 -1      2894 1.23956E-02
 -1      2895 9.58691E-03
 -1      2896 1.05807E-02
 -1      2897 8.71544E-03
 -1      2898 8.37430E-03
 -1      2899 9.35405E-03
 -1      2900 7.59819E-03
 -1      2901 7.07547E-03
 -1      2902 7.98708E-03
 -1      2903 6.97812E-03
 -1      2904 5.93622E-03
 -1      2905 6.61458E-03
 -1      2906 6.13002E-03
 -1      2907 5.02349E-03
 -1      2908 5.45625E-03
 -1      2909 5.18916E-03
 -1      2910 4.18032E-03
 -1      2911 4.63507E-03
 -1      2912 4.32077E-03
 -1      2913 3.42008E-03
 -1      2914 3.86396E-03
 -1      2915 3.61599E-03
 -1      2916 2.73891E-03
 -1      2917 3.10361E-03
 -1      2918 2.98316E-03
 -1      2919 2.10894E-03
 -1      2920 2.44466E-03
 -1      2921 2.37244E-03
 -1      2922 1.57253E-03
 -1      2923 1.85710E-03
 -1      2924 1.82633E-03
 -1      2925 1.18726E-03
 -1      2926 1.38610E-03
 -1      2927 1.38806E-03
 -1      2928 1.01983E-03
 -1      2929 9.79536E-04
 -1      2930 8.92526E-04
 -1      2931 1.03557E-03
 -1      2932 1.03557E-03
 -1      2933 8.13708E-04
 -1      2934 8.87211E-04
 -1      2935 1.06901E-03
 -1      2936 1.01521E-03
 -1      2937 7.93807E+00
 -1      2938 1.02985E-03
 -1      2939 9.92264E-04
 -1      2940 1.10676E-03
 -1      2941 1.12521E-03
 -1      2942 1.03822E-03
 -1      2943 1.03386E-03
 -1      2944 1.03822E-03
 -1      2945 1.03822E-03
 -1      2946 1.13162E-03
 -1      2947 1.00353E-03
 -1      2948 1.03735E-03
 -1      2949 1.13075E-03
 -1      2950 8.63719E-04
 -1      2951 9.58797E-04
 -1      2952 1.08516E-03
 -1      2953 1.67734E+01
 -1      2954 1.30795E+01
 -1      2955 8.92771E+00
 -1      2956 1.52408E+01
 -1      2957 1.20665E+01
 -1      2958 1.03352E-03
 -1      2959 1.03557E-03
 -1      2960 1.13128E-03
 -1      2961 1.10221E+01
 -1      2962 8.15158E+00
 -1      2963 1.11201E+01
 -1      2964 8.63476E+00
 -1      2965 2.64439E+00
 -1      2966 1.38560E+01
 -1      2967 1.84364E+01
 -1      2968 9.61342E-01
 -1      2969 9.61342E-01
 -1      2970 1.03373E+00
 -1      2971 9.78895E-01
 -1      2972 7.08202E+00
 -1      2973 6.51962E+00
 -1      2974 4.23999E+00
 -1      2975 3.96887E+00
 -1      2976 2.08885E+01
 -1      2977 2.85702E+01
 -1      2978 1.51751E+01
 -1      2979 6.39191E+00
 -1      2980 5.32439E+00
 -1      2981 2.01573E+01
 -1      2982 1.74308E+01
 -1      2983 1.29405E+01
 -1      2984 2.68693E+01
 -1      2985 1.97049E+01
 -1      2986 8.92771E+00
 -1      2987 1.17668E+01
 -1      2988 1.06338E+01
 -1      2989 5.38466E+00
 -1      2990 1.19037E+00
 -1      2991 1.34021E+00
 -1      2992 1.22155E+00
 -1      2993 1.11927E+00
 -1      2994 1.05844E+00
 -1      2995 1.23327E+00
 -1      2996 4.45623E+00
 -1      2997 5.27934E+00
 -1      2998 5.71089E+00
 -1      2999 4.48960E+00
 -1      3000 5.44053E+00
 -1      3001 6.41463E+00
 -1      3002 7.08579E+00
 -1      3003 8.54459E+00
 -1      3004 1.08474E+00
 -1      3005 9.72889E-01
 -1      3006 8.86193E-01
 -1      3007 7.91462E-01
 -1      3008 3.64046E+00
 -1      3009 9.86518E+00
 -1      3010 7.24438E+00
 -1      3011 7.12162E+00
 -1      3012 1.13093E-03
 -1      3013 1.13130E+01
 -1      3014 1.84583E+01
 -1      3015 1.33567E+01
 -1      3016 2.64439E+00
 -1      3017 2.19064E+00
 -1      3018 5.27934E+00
 -1      3019 3.46087E+00
 -1      3020 1.35206E+00
 -1      3021 2.06243E+00
 -1      3022 1.46863E+00
 -1      3023 4.05792E+00
 -1      3024 6.90199E+00
 -1      3025 1.46780E+01
 -1      3026 9.87380E+00
 -1      3027 1.36167E+01
 -1      3028 8.23656E-04
 -1      3029 8.75242E-04
 -1      3030 1.05196E-03
 -1      3031 1.01162E-03
 -1      3032 2.40422E+00
 -1      3033 6.00435E-01
 -1      3034 5.55023E-01
 -1      3035 5.02666E-01
 -1      3036 4.32440E+00
 -1      3037 7.15908E+00
 -1      3038 5.44138E+00
 -1      3039 1.45072E+01
 -1      3040 1.10960E+01
 -1      3041 9.62779E+00
 -1      3042 8.45748E-01
 -1      3043 9.63905E-01
 -1      3044 1.23032E+00
 -1      3045 1.04429E+00
 -1      3046 9.70610E+00
 -1      3047 7.61874E-01
 -1      3048 6.43875E+00
 -1      3049 7.04600E+00
 -1      3050 5.91699E+00
 -1      3051 6.96043E+00
 -1      3052 5.34510E+00
 -1      3053 1.55986E+01
 -1      3054 2.65415E+01
 -1      3055 1.38977E+01
 -1      3056 8.11510E+00
 -1      3057 4.65795E+00
 -1      3058 7.62553E-01
 -1      3059 8.46821E-01
 -1      3060 5.77250E-01
 -1      3061 3.45870E+00
 -1      3062 3.24995E+00
 -1      3063 9.33361E+00
 -1      3064 3.14448E+00
 -1      3065 3.65019E+00
 -1      3066 4.11284E+00
 -1      3067 4.81477E+00
 -1      3068 4.09152E+00
 -1      3069 6.97337E+00
 -1      3070 7.40777E+00
 -1      3071 1.07972E+01
 -1      3072 6.71276E+00
 -1      3073 1.75597E+00
 -1      3074 1.84572E+00
 -1      3075 1.06364E+01
 -1      3076 9.43682E+00
 -1      3077 2.64439E+00
 -1      3078 3.77505E+00
 -1      3079 5.10617E+00
 -1      3080 4.53454E+00
 -1      3081 3.72580E+00
 -1      3082 6.05669E+00
 -1      3083 4.78701E+00
 -1      3084 3.75450E+00
 -1      3085 3.19681E+00
 -1      3086 4.77168E+00
 -1      3087 2.63347E+00
 -1      3088 2.30801E+00
 -1      3089 3.17583E+00
 -1      3090 1.93051E+00
 -1      3091 1.66402E+00
 -1      3092 2.23499E+00
 -1      3093 1.40165E+00
 -1      3094 1.19726E+00
 -1      3095 1.59512E+00
 -1      3096 1.01132E+00
 -1      3097 8.62586E-01
 -1      3098 1.14680E+00
 -1      3099 7.28804E-01
 -1      3100 6.18116E-01
 -1      3101 8.27077E-01
 -1      3102 5.20832E-01
 -1      3103 4.42093E-01
 -1      3104 5.96012E-01
 -1      3105 3.71044E-01
 -1      3106 3.18007E-01
 -1      3107 4.27679E-01
 -1      3108 2.66089E-01
 -1      3109 2.28831E-01
 -1      3110 3.04711E-01
 -1      3111 1.90985E-01
 -1      3112 1.62680E-01
 -1      3113 2.14948E-01
 -1      3114 1.35223E-01
 -1      3115 1.13891E-01
 -1      3116 1.49646E-01
 -1      3117 9.49369E-02
 -1      3118 7.90195E-02
 -1      3119 1.03234E-01
 -1      3120 6.54236E-02
 -1      3121 5.36838E-02
 -1      3122 7.06838E-02
 -1      3123 4.39097E-02
 -1      3124 3.53677E-02
 -1      3125 4.73137E-02
 -1      3126 2.86588E-02
 -1      3127 2.25423E-02
 -1      3128 3.08307E-02
 -1      3129 1.83270E-02
 -1      3130 1.40318E-02
 -1      3131 1.99064E-02
 -1      3132 1.10079E-02
 -1      3133 9.09827E-03
 -1      3134 1.26672E-02
 -1      3135 6.98780E-03
 -1      3136 6.76854E-03
 -1      3137 7.53283E-03
 -1      3138 6.48678E-03
 -1      3139 6.08085E-03
 -1      3140 5.14058E-03
 -1      3141 6.12046E-03
 -1      3142 5.62807E-03
 -1      3143 4.89843E-03
 -1      3144 5.47826E-03
 -1      3145 4.96337E-03
 -1      3146 4.78823E-03
 -1      3147 4.70804E-03
 -1      3148 4.23295E-03
 -1      3149 4.38309E-03
 -1      3150 3.92836E-03
 -1      3151 3.60096E-03
 -1      3152 3.82317E-03
 -1      3153 3.33730E-03
 -1      3154 2.99957E-03
 -1      3155 3.25492E-03
 -1      3156 2.76712E-03
 -1      3157 2.44262E-03
 -1      3158 2.75882E-03
 -1      3159 2.27822E-03
 -1      3160 1.98038E-03
 -1      3161 2.36198E-03
 -1      3162 1.85177E-03
 -1      3163 1.61414E-03
 -1      3164 2.06896E-03
 -1      3165 9.68532E-01
 -1      3166 8.73422E-01
 -1      3167 7.54510E-01
 -1      3168 6.67263E-01
 -1      3169 8.65273E-01
 -1      3170 2.25665E+00
 -1      3171 2.24126E+00
 -1      3172 2.51341E+00
 -1      3173 2.33705E+00
 -1      3174 2.20924E+00
 -1      3175 3.02014E+00
 -1      3176 1.74066E+00
 -1      3177 1.65553E+00
 -1      3178 2.00205E+00
 -1      3179 1.63195E+00
 -1      3180 1.70377E+00
 -1      3181 1.86472E+00
 -1      3182 1.32609E+00
 -1      3183 1.43606E+00
 -1      3184 1.63195E+00
 -1      3185 1.21061E+00
 -1      3186 1.26780E+00
 -1      3187 1.37777E+00
 -1      3188 1.02657E+00
 -1      3189 1.11490E+00
 -1      3190 1.22378E+00
 -1      3191 8.49581E-01
 -1      3192 9.74333E-01
 -1      3193 1.07584E+00
 -1      3194 7.27110E-01
 -1      3195 7.70754E-01
 -1      3196 9.44776E-01
 -1      3197 5.56102E-01
 -1      3198 6.20112E-01
 -1      3199 7.58951E-01
 -1      3200 4.32492E-01
 -1      3201 4.78454E-01
 -1      3202 5.74305E-01
 -1      3203 3.84755E-01
 -1      3204 3.96717E-01
 -1      3205 4.60882E-01
 -1      3206 3.26448E-01
 -1      3207 3.46233E-01
 -1      3208 3.86585E-01
 -1      3209 2.83845E-01
 -1      3210 3.04832E-01
 -1      3211 3.26448E-01
 -1      3212 2.46627E-01
 -1      3213 2.62857E-01
 -1      3214 2.83845E-01
 -1      3215 2.05800E-01
 -1      3216 2.23691E-01
 -1      3217 2.39921E-01
 -1      3218 1.66070E-01
 -1      3219 1.83744E-01
 -1      3220 1.94929E-01
 -1      3221 1.29814E-01
 -1      3222 1.46392E-01
 -1      3223 1.53194E-01
 -1      3224 9.85027E-02
 -1      3225 1.13130E-01
 -1      3226 1.16832E-01
 -1      3227 7.25566E-02
 -1      3228 8.48937E-02
 -1      3229 8.65389E-02
 -1      3230 5.21163E-02
 -1      3231 6.21498E-02
 -1      3232 6.25231E-02
 -1      3233 3.67490E-02
 -1      3234 4.46565E-02
 -1      3235 4.46565E-02
 -1      3236 2.50064E-02
 -1      3237 3.10595E-02
 -1      3238 3.15071E-02
 -1      3239 1.62334E-02
 -1      3240 2.07354E-02
 -1      3241 2.15465E-02
 -1      3242 1.02996E-02
 -1      3243 1.30954E-02
 -1      3244 1.41374E-02
 -1      3245 7.16534E-03
 -1      3246 8.04972E-03
 -1      3247 8.74950E-03
 -1      3248 5.82220E-03
 -1      3249 6.05506E-03
 -1      3250 5.38934E-03
 -1      3251 5.59584E-03
 -1      3252 5.98305E-03
 -1      3253 4.43992E-03
 -1      3254 5.11607E-03
 -1      3255 5.57695E-03
 -1      3256 4.58189E-03
 -1      3257 4.46495E-03
 -1      3258 4.94492E-03
 -1      3259 4.39185E-03
 -1      3260 3.82034E-03
 -1      3261 4.20877E-03
 -1      3262 3.96452E-03
 -1      3263 3.20961E-03
 -1      3264 3.52596E-03
 -1      3265 3.41396E-03
 -1      3266 2.68919E-03
 -1      3267 3.00566E-03
 -1      3268 2.91564E-03
 -1      3269 2.16345E-03
 -1      3270 2.45771E-03
 -1      3271 2.48021E-03
 -1      3272 1.67201E-03
 -1      3273 1.92386E-03
 -1      3274 2.00913E-03
 -1      3275 1.35970E-03
 -1      3276 1.54613E-03
 -1      3277 1.64365E-03
 -1      3278 1.22708E-03
 -1      3279 1.24130E-03
 -1      3280 1.24217E-03
 -1      3281 1.32493E+01
 -1      3282 1.44624E-03
 -1      3283 1.49097E-03
 -1      3284 1.60238E-03
 -1      3285 1.24217E-03
 -1      3286 1.24217E-03
 -1      3287 1.35272E-03
 -1      3288 6.87290E-01
 -1      3289 2.36034E+00
 -1      3290 2.12017E+00
 -1      3291 1.00745E+01
 -1      3292 2.75925E+00
 -1      3293 3.24660E+00
 -1      3294 1.20352E+01
 -1      3295 1.02516E+01
 -1      3296 8.49294E+00
 -1      3297 6.87290E-01
 -1      3298 8.97942E+00
 -1      3299 7.93498E+00
 -1      3300 2.39412E+00
 -1      3301 2.64215E+00
 -1      3302 3.12652E+00
 -1      3303 2.35024E+00
 -1      3304 3.40251E+00
 -1      3305 4.29520E+00
 -1      3306 7.12964E+00
 -1      3307 5.36997E+00
 -1      3308 1.21236E-03
 -1      3309 1.21236E-03
 -1      3310 1.23572E+01
 -1      3311 1.28096E+01
 -1      3312 1.12986E+01
 -1      3313 9.10862E+00
 -1      3314 1.18327E-03
 -1      3315 1.18293E-03
 -1      3316 1.26436E-03
 -1      3317 1.29382E-03
 -1      3318 1.22435E+00
 -1      3319 1.24668E+00
 -1      3320 4.11482E+00
 -1      3321 3.03042E+00
 -1      3322 8.71710E+00
 -1      3323 9.62779E+00
 -1      3324 5.38106E+00
 -1      3325 7.24976E+00
 -1      3326 6.87969E-01
 -1      3327 4.45917E+00
 -1      3328 3.33529E+00
 -1      3329 3.22074E+00
 -1      3330 7.48966E+00
 -1      3331 2.81193E+00
 -1      3332 1.90524E+00
 -1      3333 1.83597E+00
 -1      3334 9.78326E+00
 -1      3335 6.70745E+00
 -1      3336 7.16701E+00
 -1      3337 7.32235E+00
 -1      3338 9.19857E+00
 -1      3339 9.19857E+00
 -1      3340 7.23715E+00
 -1      3341 3.61357E+00
 -1      3342 3.44039E+00
 -1      3343 2.91194E+00
 -1      3344 1.10209E+00
 -1      3345 1.11774E+00
 -1      3346 1.20765E+00
 -1      3347 1.17571E-03
 -1      3348 1.58336E+00
 -1      3349 1.59521E+00
 -1      3350 1.45147E+00
 -1      3351 1.28953E+00
 -1      3352 1.28953E+00
 -1      3353 1.16266E+00
 -1      3354 1.34692E+00
 -1      3355 1.15630E+00
 -1      3356 8.32630E+00
 -1      3357 1.27042E+01
 -1      3358 1.06756E+01
 -1      3359 6.16771E+00
 -1      3360 1.49039E-03
 -1      3361 1.89619E-03
 -1      3362 9.99158E+00
 -1      3363 6.40296E+00
 -1      3364 1.40836E-03
 -1      3365 1.40263E-03
 -1      3366 1.48979E-03
 -1      3367 6.11258E-01
 -1      3368 6.23529E-01
 -1      3369 8.47971E+00
 -1      3370 1.12555E+01
 -1      3371 9.38709E+00
 -1      3372 1.09277E+01
 -1      3373 2.81614E+00
 -1      3374 9.84088E-01
 -1      3375 1.03257E+00
 -1      3376 1.16150E+00
 -1      3377 9.00499E-01
 -1      3378 4.45931E+00
 -1      3379 4.58089E+00
 -1      3380 3.64874E+00
 -1      3381 7.33750E+00
 -1      3382 8.97774E+00
 -1      3383 1.61511E+00
 -1      3384 1.84158E+00
 -1      3385 1.96816E+00
 -1      3386 2.36034E+00
 -1      3387 4.34247E+00
 -1      3388 1.50191E-03
 -1      3389 4.41270E+00
 -1      3390 6.98792E-01
 -1      3391 1.77839E+00
 -1      3392 1.40263E-03
 -1      3393 1.38990E-03
 -1      3394 1.68578E-03
 -1      3395 7.01237E+00
 -1      3396 1.30590E-03
 -1      3397 1.60177E-03
 -1      3398 6.90356E-01
 -1      3399 2.44797E+00
 -1      3400 2.48486E+00
 -1      3401 2.09784E-03
 -1      3402 2.05369E-03
 -1      3403 2.22645E-03
 -1      3404 5.03033E+00
 -1      3405 3.99782E+00
 -1      3406 7.19511E+00
 -1      3407 5.76214E+00
 -1      3408 4.98829E+00
 -1      3409 8.51657E+00
 -1      3410 2.77152E+00
 -1      3411 2.92408E+00
 -1      3412 3.38915E+00
 -1      3413 2.82581E+00
 -1      3414 3.64780E+00
 -1      3415 2.31106E+00
 -1      3416 1.93356E+00
 -1      3417 2.52438E+00
 -1      3418 1.62587E+00
 -1      3419 1.36350E+00
 -1      3420 1.70194E+00
 -1      3421 1.16586E+00
 -1      3422 9.79918E-01
 -1      3423 1.19661E+00
 -1      3424 8.44731E-01
 -1      3425 7.10950E-01
 -1      3426 8.63791E-01
 -1      3427 6.14178E-01
 -1      3428 5.16894E-01
 -1      3429 6.31832E-01
 -1      3430 4.45846E-01
 -1      3431 3.74796E-01
 -1      3432 4.64012E-01
 -1      3433 3.21944E-01
 -1      3434 2.70027E-01
 -1      3435 3.40112E-01
 -1      3436 2.30532E-01
 -1      3437 1.92687E-01
 -1      3438 2.47765E-01
 -1      3439 1.63196E-01
 -1      3440 1.35739E-01
 -1      3441 1.78780E-01
 -1      3442 1.13815E-01
 -1      3443 9.48604E-02
 -1      3444 1.27365E-01
 -1      3445 7.86760E-02
 -1      3446 6.50801E-02
 -1      3447 8.92566E-02
 -1      3448 5.35454E-02
 -1      3449 4.37713E-02
 -1      3450 6.15376E-02
 -1      3451 3.56593E-02
 -1      3452 2.89504E-02
 -1      3453 4.18910E-02
 -1      3454 2.30693E-02
 -1      3455 1.88540E-02
 -1      3456 2.78980E-02
 -1      3457 1.46627E-02
 -1      3458 1.16388E-02
 -1      3459 1.78256E-02
 -1      3460 8.71401E-03
 -1      3461 6.60353E-03
 -1      3462 1.07095E-02
 -1      3463 4.61663E-03
 -1      3464 4.33487E-03
 -1      3465 5.79782E-03
 -1      3466 3.75600E-03
 -1      3467 3.79561E-03
 -1      3468 3.23204E-03
 -1      3469 4.06596E-03
 -1      3470 3.91614E-03
 -1      3471 2.92352E-03
 -1      3472 3.96273E-03
 -1      3473 3.70741E-03
 -1      3474 3.24046E-03
 -1      3475 3.61537E-03
 -1      3476 3.31077E-03
 -1      3477 3.19501E-03
 -1      3478 3.13899E-03
 -1      3479 2.87534E-03
 -1      3480 2.93119E-03
 -1      3481 2.68309E-03
 -1      3482 2.45065E-03
 -1      3483 2.56717E-03
 -1      3484 2.39085E-03
 -1      3485 2.22645E-03
 -1      3486 2.25533E-03
 -1      3487 2.31513E-03
 -1      3488 2.51341E+00
 -1      3489 2.92435E+00
 -1      3490 3.10163E+00
 -1      3491 3.19742E+00
 -1      3492 2.25212E+00
 -1      3493 2.44801E+00
 -1      3494 3.06814E+00
 -1      3495 1.51385E+00
 -1      3496 1.57213E+00
 -1      3497 2.38819E+00
 -1      3498 1.65373E+00
 -1      3499 1.74944E+00
 -1      3500 1.94380E+00
 -1      3501 1.27641E+00
 -1      3502 1.32864E+00
 -1      3503 1.85430E+00
 -1      3504 1.05461E+00
 -1      3505 1.13344E+00
 -1      3506 1.38624E+00
 -1      3507 7.74299E-01
 -1      3508 8.81297E-01
 -1      3509 1.06996E+00
 -1      3510 6.30048E-01
 -1      3511 7.07696E-01
 -1      3512 8.30041E-01
 -1      3513 5.19346E-01
 -1      3514 5.55121E-01
 -1      3515 6.88512E-01
 -1      3516 4.11638E-01
 -1      3517 4.50159E-01
 -1      3518 5.44399E-01
 -1      3519 3.46285E-01
 -1      3520 3.67900E-01
 -1      3521 4.31475E-01
 -1      3522 2.87478E-01
 -1      3523 3.08465E-01
 -1      3524 3.49918E-01
 -1      3525 2.32050E-01
 -1      3526 2.54986E-01
 -1      3527 2.79607E-01
 -1      3528 1.83372E-01
 -1      3529 2.05429E-01
 -1      3530 2.20494E-01
 -1      3531 1.43898E-01
 -1      3532 1.63577E-01
 -1      3533 1.74077E-01
 -1      3534 1.09830E-01
 -1      3535 1.26514E-01
 -1      3536 1.36897E-01
 -1      3537 8.17373E-02
 -1      3538 9.53463E-02
 -1      3539 1.05029E-01
 -1      3540 5.98380E-02
 -1      3541 7.02448E-02
 -1      3542 7.90523E-02
 -1      3543 4.34342E-02
 -1      3544 5.08940E-02
 -1      3545 5.86158E-02
 -1      3546 3.06684E-02
 -1      3547 3.63580E-02
 -1      3548 4.25955E-02
 -1      3549 2.08891E-02
 -1      3550 2.51602E-02
 -1      3551 3.00111E-02
 -1      3552 1.35759E-02
 -1      3553 1.67139E-02
 -1      3554 2.03276E-02
 -1      3555 8.24663E-03
 -1      3556 1.04965E-02
 -1      3557 1.30730E-02
 -1      3558 4.93230E-03
 -1      3559 6.04258E-03
 -1      3560 7.78959E-03
 -1      3561 3.74268E-03
 -1      3562 3.58183E-03
 -1      3563 4.23507E-03
 -1      3564 3.64660E-03
 -1      3565 3.66548E-03
 -1      3566 2.80740E-03
 -1      3567 3.62371E-03
 -1      3568 3.79486E-03
 -1      3569 2.87846E-03
 -1      3570 3.34920E-03
 -1      3571 3.60538E-03
 -1      3572 3.00839E-03
 -1      3573 2.93387E-03
 -1      3574 3.22825E-03
 -1      3575 2.86911E-03
 -1      3576 2.55180E-03
 -1      3577 2.75575E-03
 -1      3578 2.57004E-03
 -1      3579 2.17301E-03
 -1      3580 2.40449E-03
 -1      3581 2.24461E-03
 -1      3582 1.90889E-03
 -1      3583 2.14849E-03
 -1      3584 2.07277E-03
 -1      3585 1.72766E-03
 -1      3586 1.69324E-03
 -1      3587 1.69324E-03
 -1      3588 6.32648E+00
 -1      3589 5.52115E+00
 -1      3590 7.30891E+00
 -1      3591 7.30891E+00
 -1      3592 4.46500E+00
 -1      3593 3.20984E+00
 -1      3594 1.65556E+00
 -1      3595 1.61511E+00
 -1      3596 2.22638E+00
 -1      3597 3.33529E+00
 -1      3598 3.06818E+00
 -1      3599 5.60240E+00
 -1      3600 7.06974E+00
 -1      3601 7.25674E-01
 -1      3602 7.90114E-01
 -1      3603 9.27381E-01
 -1      3604 6.50378E+00
 -1      3605 6.37458E+00
 -1      3606 3.28415E+00
 -1      3607 4.09497E+00
 -1      3608 1.27692E+00
 -1      3609 1.15801E+00
 -1      3610 8.40784E+00
 -1      3611 6.89680E+00
 -1      3612 5.93389E+00
 -1      3613 8.57923E-01
 -1      3614 8.01918E-01
 -1      3615 8.93240E-01
 -1      3616 1.26957E+00
 -1      3617 1.80403E-03
 -1      3618 5.07070E+00
 -1      3619 5.53336E+00
 -1      3620 3.10162E+00
 -1      3621 2.83045E+00
 -1      3622 2.80531E+00
 -1      3623 3.89118E+00
 -1      3624 1.84462E+00
 -1      3625 2.14253E+00
 -1      3626 2.41647E+00
 -1      3627 1.95935E+00
 -1      3628 1.86701E-03
 -1      3629 7.14689E+00
 -1      3630 5.99621E+00
 -1      3631 2.77152E+00
 -1      3632 6.10843E+00
 -1      3633 5.87018E+00
 -1      3634 3.19742E+00
 -1      3635 1.87962E+00
 -1      3636 2.00205E+00
 -1      3637 2.10248E+00
 -1      3638 1.72518E+00
 -1      3639 1.76804E+00
 -1      3640 1.86035E+00
 -1      3641 2.58529E+00
 -1      3642 3.11593E+00
 -1      3643 5.49277E+00
 -1      3644 2.14454E-03
 -1      3645 3.33076E+00
 -1      3646 1.72568E-03
 -1      3647 1.38516E-03
 -1      3648 1.32626E-03
 -1      3649 2.35609E+00
 -1      3650 1.38749E-03
 -1      3651 1.58348E-03
 -1      3652 4.38852E+00
 -1      3653 1.80691E-03
 -1      3654 1.98815E-03
 -1      3655 1.80691E-03
 -1      3656 3.22415E+00
 -1      3657 8.03332E+00
 -1      3658 1.53224E+00
 -1      3659 1.59393E+00
 -1      3660 1.91050E+00
 -1      3661 3.10163E+00
 -1      3662 3.26311E+00
 -1      3663 6.40209E+00
 -1      3664 5.89894E+00
 -1      3665 2.91102E+00
 -1      3666 3.41336E+00
 -1      3667 4.85520E+00
 -1      3668 2.70331E+00
 -1      3669 2.01118E+00
 -1      3670 2.26059E+00
 -1      3671 2.75514E+00
 -1      3672 8.50066E+00
 -1      3673 6.41972E+00
 -1      3674 7.39897E+00
 -1      3675 1.15841E+00
 -1      3676 1.45115E+00
 -1      3677 1.29197E+00
 -1      3678 2.94539E+00
 -1      3679 2.26940E+00
 -1      3680 1.28410E-03
 -1      3681 1.31354E-03
 -1      3682 1.40723E-03
 -1      3683 1.37545E-03
 -1      3684 4.29769E+00
 -1      3685 4.35505E+00
 -1      3686 2.64383E+00
 -1      3687 5.25528E+00
 -1      3688 2.81193E+00
 -1      3689 2.81193E+00
 -1      3690 2.50794E+00
 -1      3691 1.87962E+00
 -1      3692 2.92016E+00
 -1      3693 4.73285E+00
 -1      3694 4.68475E+00
 -1      3695 4.91225E+00
 -1      3696 4.18044E+00
 -1      3697 5.59425E+00
 -1      3698 2.62063E+00
 -1      3699 2.66365E+00
 -1      3700 3.62539E+00
 -1      3701 3.01671E+00
 -1      3702 3.54935E+00
 -1      3703 2.52831E+00
 -1      3704 2.25460E+00
 -1      3705 2.62063E+00
 -1      3706 2.47615E+00
 -1      3707 1.96140E+00
 -1      3708 2.45373E+00
 -1      3709 1.64593E+00
 -1      3710 1.33823E+00
 -1      3711 1.59769E+00
 -1      3712 1.13919E+00
 -1      3713 9.41556E-01
 -1      3714 1.08318E+00
 -1      3715 8.08631E-01
 -1      3716 6.73444E-01
 -1      3717 7.51209E-01
 -1      3718 5.81947E-01
 -1      3719 4.85175E-01
 -1      3720 5.26787E-01
 -1      3721 4.21014E-01
 -1      3722 3.49966E-01
 -1      3723 3.71129E-01
 -1      3724 3.04570E-01
 -1      3725 2.51718E-01
 -1      3726 2.61572E-01
 -1      3727 2.24039E-01
 -1      3728 1.84544E-01
 -1      3729 1.88497E-01
 -1      3730 1.63679E-01
 -1      3731 1.34189E-01
 -1      3732 1.39953E-01
 -1      3733 1.18055E-01
 -1      3734 9.61306E-02
 -1      3735 1.02955E-01
 -1      3736 8.37972E-02
 -1      3737 6.76128E-02
 -1      3738 7.44868E-02
 -1      3739 5.86786E-02
 -1      3740 4.71440E-02
 -1      3741 5.32192E-02
 -1      3742 4.06740E-02
 -1      3743 3.25621E-02
 -1      3744 3.78150E-02
 -1      3745 2.76888E-02
 -1      3746 2.18077E-02
 -1      3747 2.64718E-02
 -1      3748 1.82020E-02
 -1      3749 1.40107E-02
 -1      3750 1.79928E-02
 -1      3751 1.13940E-02
 -1      3752 8.46924E-03
 -1      3753 1.17704E-02
 -1      3754 6.61193E-03
 -1      3755 4.62502E-03
 -1      3756 7.29645E-03
 -1      3757 3.34122E-03
 -1      3758 2.76235E-03
 -1      3759 4.15533E-03
 -1      3760 2.03862E-03
 -1      3761 2.30897E-03
 -1      3762 2.14780E-03
 -1      3763 2.42844E-03
 -1      3764 2.47503E-03
 -1      3765 1.54354E-03
 -1      3766 2.52474E-03
 -1      3767 2.43270E-03
 -1      3768 1.71273E-03
 -1      3769 2.39575E-03
 -1      3770 2.22397E-03
 -1      3771 1.72548E-03
 -1      3772 2.19288E-03
 -1      3773 2.00064E-03
 -1      3774 1.65744E-03
 -1      3775 2.53445E+00
 -1      3776 1.85430E+00
 -1      3777 2.17939E+00
 -1      3778 1.67686E+00
 -1      3779 1.81983E+00
 -1      3780 2.14492E+00
 -1      3781 1.13865E+00
 -1      3782 1.31197E+00
 -1      3783 1.74556E+00
 -1      3784 9.19702E-01
 -1      3785 9.86305E-01
 -1      3786 1.22832E+00
 -1      3787 7.27984E-01
 -1      3788 8.02910E-01
 -1      3789 9.59174E-01
 -1      3790 5.72197E-01
 -1      3791 6.41383E-01
 -1      3792 7.55782E-01
 -1      3793 4.48243E-01
 -1      3794 4.91981E-01
 -1      3795 5.88965E-01
 -1      3796 3.45880E-01
 -1      3797 3.83700E-01
 -1      3798 4.44206E-01
 -1      3799 2.73382E-01
 -1      3800 3.05874E-01
 -1      3801 3.39656E-01
 -1      3802 2.15221E-01
 -1      3803 2.41843E-01
 -1      3804 2.68110E-01
 -1      3805 1.74077E-01
 -1      3806 1.93872E-01
 -1      3807 2.15221E-01
 -1      3808 1.36897E-01
 -1      3809 1.54281E-01
 -1      3810 1.74077E-01
 -1      3811 1.05029E-01
 -1      3812 1.19513E-01
 -1      3813 1.36897E-01
 -1      3814 7.89099E-02
 -1      3815 9.04025E-02
 -1      3816 1.04887E-01
 -1      3817 5.80552E-02
 -1      3818 6.69991E-02
 -1      3819 7.83493E-02
 -1      3820 4.15408E-02
 -1      3821 4.86170E-02
 -1      3822 5.70004E-02
 -1      3823 2.87359E-02
 -1      3824 3.42441E-02
 -1      3825 4.02656E-02
 -1      3826 1.92426E-02
 -1      3827 2.34178E-02
 -1      3828 2.76509E-02
 -1      3829 1.23637E-02
 -1      3830 1.54431E-02
 -1      3831 1.85333E-02
 -1      3832 7.38098E-03
 -1      3833 9.58504E-03
 -1      3834 1.19551E-02
 -1      3835 4.05147E-03
 -1      3836 5.40194E-03
 -1      3837 7.19739E-03
 -1      3838 2.86435E-03
 -1      3839 2.94155E-03
 -1      3840 4.10843E-03
 -1      3841 2.44224E-03
 -1      3842 2.29398E-03
 -1      3843 2.42813E-03
 -1      3844 2.66249E-03
 -1      3845 2.68082E-03
 -1      3846 2.09634E-03
 -1      3847 2.60037E-03
 -1      3848 2.72132E-03
 -1      3849 2.39375E-03
 -1      3850 2.36601E-03
 -1      3851 2.54413E-03
 -1      3852 2.39634E-03
 -1      3853 2.09730E-03
 -1      3854 2.24461E-03
 -1      3855 2.21870E-03
 -1      3856 2.04825E-03
 -1      3857 2.07277E-03
 -1      3858 2.07277E-03
 -1      3859 1.98815E-03
 -1      3860 7.39897E+00
 -1      3861 5.49911E+00
 -1      3862 5.35720E+00
 -1      3863 4.38160E+00
 -1      3864 3.32545E+00
 -1      3865 2.91324E+00
 -1      3866 3.62169E+00
 -1      3867 2.09153E+00
 -1      3868 2.62063E+00
 -1      3869 2.25533E-03
 -1      3870 2.14454E-03
 -1      3871 2.25533E-03
 -1      3872 3.33525E+00
 -1      3873 2.32712E+00
 -1      3874 2.20835E+00
 -1      3875 4.38033E+00
 -1      3876 1.28207E+00
 -1      3877 1.39245E+00
 -1      3878 1.51618E+00
 -1      3879 1.35831E+00
 -1      3880 2.32712E+00
 -1      3881 5.15510E+00
 -1      3882 4.76208E+00
 -1      3883 1.70462E-03
 -1      3884 5.08936E+00
 -1      3885 4.49034E+00
 -1      3886 4.59227E+00
 -1      3887 3.38160E+00
 -1      3888 5.03618E+00
 -1      3889 5.27536E+00
 -1      3890 1.76319E+00
 -1      3891 3.01488E+00
 -1      3892 1.88798E-03
 -1      3893 1.77719E-03
 -1      3894 1.46912E-03
 -1      3895 2.99423E+00
 -1      3896 3.48079E+00
 -1      3897 1.92029E+00
 -1      3898 4.63636E+00
 -1      3899 3.95407E+00
 -1      3900 2.61486E+00
 -1      3901 3.83951E+00
 -1      3902 3.56358E+00
 -1      3903 3.00853E+00
 -1      3904 3.67359E+00
 -1      3905 3.30386E+00
 -1      3906 4.60856E+00
 -1      3907 3.98499E+00
 -1      3908 2.45342E+00
 -1      3909 2.58467E+00
 -1      3910 3.53714E+00
 -1      3911 2.89879E+00
 -1      3912 1.62385E-03
 -1      3913 1.84729E-03
 -1      3914 1.90739E-03
 -1      3915 1.67564E+00
 -1      3916 1.37556E+00
 -1      3917 1.44386E-03
 -1      3918 1.51781E-03
 -1      3919 1.66048E-03
 -1      3920 1.62302E+00
 -1      3921 1.74152E+00
 -1      3922 1.84751E+00
 -1      3923 2.21066E+00
 -1      3924 2.80517E+00
 -1      3925 3.24789E+00
 -1      3926 4.90523E+00
 -1      3927 6.51254E+00
 -1      3928 3.15640E+00
 -1      3929 2.53445E+00
 -1      3930 2.52271E+00
 -1      3931 1.98214E+00
 -1      3932 2.53694E+00
 -1      3933 1.64355E+00
 -1      3934 1.32808E+00
 -1      3935 1.71253E+00
 -1      3936 1.13059E+00
 -1      3937 9.31550E-01
 -1      3938 1.17645E+00
 -1      3939 7.95235E-01
 -1      3940 6.62310E-01
 -1      3941 8.42650E-01
 -1      3942 5.65870E-01
 -1      3943 4.74373E-01
 -1      3944 6.09895E-01
 -1      3945 4.04581E-01
 -1      3946 3.40419E-01
 -1      3947 4.43663E-01
 -1      3948 2.89429E-01
 -1      3949 2.44033E-01
 -1      3950 3.22880E-01
 -1      3951 2.06615E-01
 -1      3952 1.78936E-01
 -1      3953 2.34472E-01
 -1      3954 1.51446E-01
 -1      3955 1.30581E-01
 -1      3956 1.69564E-01
 -1      3957 1.10396E-01
 -1      3958 9.42614E-02
 -1      3959 1.21888E-01
 -1      3960 7.94673E-02
 -1      3961 6.71339E-02
 -1      3962 8.69085E-02
 -1      3963 5.66273E-02
 -1      3964 4.76930E-02
 -1      3965 6.16077E-02
 -1      3966 3.99728E-02
 -1      3967 3.35029E-02
 -1      3968 4.33809E-02
 -1      3969 2.78861E-02
 -1      3970 2.30129E-02
 -1      3971 3.00439E-02
 -1      3972 1.92795E-02
 -1      3973 1.56737E-02
 -1      3974 2.06938E-02
 -1      3975 1.29275E-02
 -1      3976 1.03109E-02
 -1      3977 1.42142E-02
 -1      3978 8.31476E-03
 -1      3979 6.45744E-03
 -1      3980 9.47187E-03
 -1      3981 5.02779E-03
 -1      3982 3.74399E-03
 -1      3983 6.04610E-03
 -1      3984 2.73869E-03
 -1      3985 2.01497E-03
 -1      3986 3.61115E-03
 -1      3987 1.32430E-03
 -1      3988 1.44377E-03
 -1      3989 1.91520E-03
 -1      3990 1.59372E-03
 -1      3991 1.64343E-03
 -1      3992 1.37448E-03
 -1      3993 1.71577E-03
 -1      3994 1.67882E-03
 -1      3995 1.59677E-03
 -1      3996 1.70762E-03
 -1      3997 1.67654E-03
 -1      3998 1.69792E-03
 -1      3999 2.07834E-03
 -1      4000 2.01854E-03
 -1      4001 2.00749E+00
 -1      4002 2.15984E+00
 -1      4003 1.70405E-03
 -1      4004 2.46902E+00
 -1      4005 2.83391E+00
 -1      4006 2.58040E+00
 -1      4007 1.37201E+00
 -1      4008 1.48880E+00
 -1      4009 2.42032E+00
 -1      4010 8.02875E-01
 -1      4011 8.89475E-01
 -1      4012 1.41910E+00
 -1      4013 5.82947E-01
 -1      4014 6.63163E-01
 -1      4015 7.96857E-01
 -1      4016 4.36193E-01
 -1      4017 5.00737E-01
 -1      4018 5.74935E-01
 -1      4019 3.36607E-01
 -1      4020 3.76613E-01
 -1      4021 4.33144E-01
 -1      4022 2.68110E-01
 -1      4023 2.99649E-01
 -1      4024 3.36607E-01
 -1      4025 2.15221E-01
 -1      4026 2.36570E-01
 -1      4027 2.68110E-01
 -1      4028 1.68661E-01
 -1      4029 1.88456E-01
 -1      4030 2.09805E-01
 -1      4031 1.29321E-01
 -1      4032 1.46705E-01
 -1      4033 1.61085E-01
 -1      4034 9.71050E-02
 -1      4035 1.11731E-01
 -1      4036 1.21539E-01
 -1      4037 7.13611E-02
 -1      4038 8.32719E-02
 -1      4039 9.01167E-02
 -1      4040 5.12180E-02
 -1      4041 6.06562E-02
 -1      4042 6.55787E-02
 -1      4043 3.57639E-02
 -1      4044 4.30606E-02
 -1      4045 4.67164E-02
 -1      4046 2.43272E-02
 -1      4047 2.96452E-02
 -1      4048 3.24403E-02
 -1      4049 1.61624E-02
 -1      4050 1.99619E-02
 -1      4051 2.19563E-02
 -1      4052 1.04653E-02
 -1      4053 1.32440E-02
 -1      4054 1.46726E-02
 -1      4055 6.57578E-03
 -1      4056 8.55482E-03
 -1      4057 9.84373E-03
 -1      4058 4.03794E-03
 -1      4059 5.14785E-03
 -1      4060 6.50529E-03
 -1      4061 2.42813E-03
 -1      4062 2.99851E-03
 -1      4063 4.03794E-03
 -1      4064 1.93139E-03
 -1      4065 1.69280E-03
 -1      4066 2.26318E-03
 -1      4067 2.10105E-03
 -1      4068 2.04222E-03
 -1      4069 1.63869E-03
 -1      4070 2.11929E-03
 -1      4071 2.17553E-03
 -1      4072 1.82400E-03
 -1      4073 1.97602E-03
 -1      4074 2.09743E-03
 -1      4075 1.87661E-03
 -1      4076 1.76438E+00
 -1      4077 3.48079E+00
 -1      4078 3.48079E+00
 -1      4079 3.62231E+00
 -1      4080 3.94670E+00
 -1      4081 1.78044E+00
 -1      4082 5.22962E+00
 -1      4083 5.13680E+00
 -1      4084 4.36851E+00
 -1      4085 4.59227E+00
 -1      4086 3.96500E+00
 -1      4087 1.30385E-03
 -1      4088 1.26169E-03
 -1      4089 1.37227E-03
 -1      4090 1.35536E-03
 -1      4091 4.32442E+00
 -1      4092 1.75424E-03
 -1      4093 2.45460E+00
 -1      4094 1.99103E-03
 -1      4095 1.62368E-03
 -1      4096 3.24819E+00
 -1      4097 3.93345E+00
 -1      4098 3.28262E+00
 -1      4099 2.79680E+00
 -1      4100 1.93191E-03
 -1      4101 1.81063E-03
 -1      4102 1.90739E-03
 -1      4103 3.00244E+00
 -1      4104 2.69929E+00
 -1      4105 3.55544E+00
 -1      4106 3.52621E+00
 -1      4107 2.61596E+00
 -1      4108 2.01854E-03
 -1      4109 3.94090E+00
 -1      4110 3.93345E+00
 -1      4111 3.93345E+00
 -1      4112 3.54247E+00
 -1      4113 1.75424E-03
 -1      4114 5.22962E+00
 -1      4115 3.94670E+00
 -1      4116 1.72672E-03
 -1      4117 3.94670E+00
 -1      4118 3.96500E+00
 -1      4119 1.76652E-03
 -1      4120 1.76652E-03
 -1      4121 1.76652E-03
 -1      4122 1.66048E-03
 -1      4123 3.63172E+00
 -1      4124 1.75582E-03
 -1      4125 1.79993E-03
 -1      4126 1.75582E-03
 -1      4127 2.02123E+00
 -1      4128 1.68263E+00
 -1      4129 2.76690E+00
 -1      4130 1.22403E+00
 -1      4131 1.02655E+00
 -1      4132 1.53273E+00
 -1      4133 8.42650E-01
 -1      4134 7.06336E-01
 -1      4135 8.90234E-01
 -1      4136 6.09895E-01
 -1      4137 5.13455E-01
 -1      4138 6.09895E-01
 -1      4139 4.52218E-01
 -1      4140 3.82426E-01
 -1      4141 4.52218E-01
 -1      4142 3.35317E-01
 -1      4143 2.84326E-01
 -1      4144 3.43872E-01
 -1      4145 2.47705E-01
 -1      4146 2.10288E-01
 -1      4147 2.60142E-01
 -1      4148 1.82008E-01
 -1      4149 1.54518E-01
 -1      4150 1.95242E-01
 -1      4151 1.32816E-01
 -1      4152 1.12630E-01
 -1      4153 1.45260E-01
 -1      4154 9.60790E-02
 -1      4155 8.12849E-02
 -1      4156 1.07006E-01
 -1      4157 6.87463E-02
 -1      4158 5.82396E-02
 -1      4159 7.79167E-02
 -1      4160 4.88291E-02
 -1      4161 4.11089E-02
 -1      4162 5.59677E-02
 -1      4163 3.42454E-02
 -1      4164 2.86287E-02
 -1      4165 3.96937E-02
 -1      4166 2.35566E-02
 -1      4167 1.98232E-02
 -1      4168 2.77581E-02
 -1      4169 1.63646E-02
 -1      4170 1.36184E-02
 -1      4171 1.92274E-02
 -1      4172 1.10470E-02
 -1      4173 9.05087E-03
 -1      4174 1.31974E-02
 -1      4175 7.16863E-03
 -1      4176 5.73898E-03
 -1      4177 8.74375E-03
 -1      4178 4.38593E-03
 -1      4179 3.38064E-03
 -1      4180 5.50846E-03
 -1      4181 2.42878E-03
 -1      4182 1.73812E-03
 -1      4183 3.20356E-03
 -1      4184 1.08610E-03
 -1      4185 1.23605E-03
 -1      4186 1.59969E-03
 -1      4187 1.37937E-03
 -1      4188 1.45171E-03
 -1      4189 1.09100E-03
 -1      4190 1.58252E-03
 -1      4191 1.61133E-03
 -1      4192 1.36512E-03
 -1      4193 8.13645E-01
 -1      4194 9.53356E-01
 -1      4195 5.83470E-01
 -1      4196 6.65680E-01
 -1      4197 8.22180E-01
 -1      4198 4.35984E-01
 -1      4199 4.95564E-01
 -1      4200 5.86310E-01
 -1      4201 3.36607E-01
 -1      4202 3.73564E-01
 -1      4203 4.35984E-01
 -1      4204 2.58068E-01
 -1      4205 2.89608E-01
 -1      4206 3.26565E-01
 -1      4207 1.95053E-01
 -1      4208 2.21818E-01
 -1      4209 2.43316E-01
 -1      4210 1.45551E-01
 -1      4211 1.67506E-01
 -1      4212 1.79519E-01
 -1      4213 1.07230E-01
 -1      4214 1.24820E-01
 -1      4215 1.31241E-01
 -1      4216 7.87801E-02
 -1      4217 9.26132E-02
 -1      4218 9.58935E-02
 -1      4219 5.83582E-02
 -1      4220 6.90631E-02
 -1      4221 7.15595E-02
 -1      4222 4.22492E-02
 -1      4223 5.04066E-02
 -1      4224 5.38910E-02
 -1      4225 2.97959E-02
 -1      4226 3.59146E-02
 -1      4227 3.96049E-02
 -1      4228 2.05028E-02
 -1      4229 2.48680E-02
 -1      4230 2.83424E-02
 -1      4231 1.40734E-02
 -1      4232 1.69918E-02
 -1      4233 1.99035E-02
 -1      4234 9.57897E-03
 -1      4235 1.14895E-02
 -1      4236 1.38086E-02
 -1      4237 6.22040E-03
 -1      4238 7.64833E-03
 -1      4239 9.29407E-03
 -1      4240 3.77026E-03
 -1      4241 4.80969E-03
 -1      4242 5.95272E-03
 -1      4243 2.02908E-03
 -1      4244 2.76441E-03
 -1      4245 3.53616E-03
 -1      4246 1.48207E-03
 -1      4247 1.37123E-03
 -1      4248 1.87246E-03
 -1      4249 1.62760E-03
 -1      4250 1.55312E-03
 -1      4251 1.28567E-03
 -1      4252 1.80917E-03
 -1      4253 1.83104E-03
 -1      4254 1.56016E-03
 -1      4255 1.75436E-03
 -1      4256 2.60382E+00
 -1      4257 1.99672E+00
 -1      4258 4.90523E+00
 -1      4259 1.61133E-03
 -1      4260 1.47744E-03
 -1      4261 1.37439E-03
 -1      4262 1.20913E-03
 -1      4263 1.93084E+00
 -1      4264 1.25151E+00
 -1      4265 1.73404E+00
 -1      4266 1.26830E+00
 -1      4267 3.24074E+00
 -1      4268 2.72205E+00
 -1      4269 2.76690E+00
 -1      4270 1.47831E-03
 -1      4271 2.55447E+00
 -1      4272 1.68747E+00
 -1      4273 1.22887E+00
 -1      4274 1.02214E+00
 -1      4275 8.38240E-01
 -1      4276 1.17688E+00
 -1      4277 6.84339E-01
 -1      4278 5.87899E-01
 -1      4279 8.16243E-01
 -1      4280 4.85910E-01
 -1      4281 4.24673E-01
 -1      4282 5.60354E-01
 -1      4283 3.52975E-01
 -1      4284 3.05866E-01
 -1      4285 3.86667E-01
 -1      4286 2.61405E-01
 -1      4287 2.24784E-01
 -1      4288 2.70508E-01
 -1      4289 2.00518E-01
 -1      4290 1.72238E-01
 -1      4291 2.01780E-01
 -1      4292 1.51997E-01
 -1      4293 1.30294E-01
 -1      4294 1.57273E-01
 -1      4295 1.13816E-01
 -1      4296 9.72652E-02
 -1      4297 1.20553E-01
 -1      4298 8.41031E-02
 -1      4299 7.15646E-02
 -1      4300 9.09130E-02
 -1      4301 6.12222E-02
 -1      4302 5.18117E-02
 -1      4303 6.74085E-02
 -1      4304 4.38081E-02
 -1      4305 3.69446E-02
 -1      4306 4.90625E-02
 -1      4307 3.08439E-02
 -1      4308 2.57718E-02
 -1      4309 3.49582E-02
 -1      4310 2.13979E-02
 -1      4311 1.79393E-02
 -1      4312 2.44836E-02
 -1      4313 1.48060E-02
 -1      4314 1.22346E-02
 -1      4315 1.69765E-02
 -1      4316 9.91194E-03
 -1      4317 8.02970E-03
 -1      4318 1.15206E-02
 -1      4319 6.35071E-03
 -1      4320 4.99767E-03
 -1      4321 7.51891E-03
 -1      4322 3.79089E-03
 -1      4323 2.83903E-03
 -1      4324 4.63314E-03
 -1      4325 1.99312E-03
 -1      4326 1.34110E-03
 -1      4327 2.58044E-03
 -1      4328 9.62263E-04
 -1      4329 1.10558E-03
 -1      4330 1.35569E-03
 -1      4331 1.28757E-03
 -1      4332 1.41838E-03
 -1      4333 1.15883E-03
 -1      4334 2.46304E+00
 -1      4335 4.15965E-01
 -1      4336 4.78385E-01
 -1      4337 8.22180E-01
 -1      4338 9.70145E-01
 -1      4339 2.97268E-01
 -1      4340 3.44266E-01
 -1      4341 2.16557E-01
 -1      4342 2.52807E-01
 -1      4343 1.64743E-01
 -1      4344 1.92290E-01
 -1      4345 1.23771E-01
 -1      4346 1.44502E-01
 -1      4347 9.26758E-02
 -1      4348 1.07293E-01
 -1      4349 6.97967E-02
 -1      4350 7.95137E-02
 -1      4351 5.15028E-02
 -1      4352 5.94543E-02
 -1      4353 3.71646E-02
 -1      4354 4.34992E-02
 -1      4355 2.61360E-02
 -1      4356 3.10639E-02
 -1      4357 1.82512E-02
 -1      4358 2.17621E-02
 -1      4359 1.25340E-02
 -1      4360 1.51179E-02
 -1      4361 8.28066E-03
 -1      4362 1.02113E-02
 -1      4363 5.19096E-03
 -1      4364 6.60167E-03
 -1      4365 2.97833E-03
 -1      4366 3.98418E-03
 -1      4367 1.47457E-03
 -1      4368 2.13242E-03
 -1      4369 1.16678E-03
 -1      4370 1.09573E-03
 -1      4371 1.49734E-03
 -1      4372 1.49593E-03
 -1      4373 1.61133E-03
 -1      4374 1.47503E+00
 -1      4375 1.48664E-03
 -1      4376 1.41838E-03
 -1      4377 5.80373E-01
 -1      4378 6.68279E-01
 -1      4379 1.55221E-03
 -1      4380 1.62977E-03
 -1      4381 1.17688E+00
 -1      4382 1.34877E-03
 -1      4383 1.36205E-03
 -1      4384 1.62053E-03
 -3
 9999
